# vtk DataFile Version 2.0
Calculation  at time 1.100000000000e+01 
ASCII
DATASET UNSTRUCTURED_GRID
Field FieldData 1
Time 1 1 double
1.100000000000e+01

POINTS 1028 float
0.0 0.0 0.0 
5.000000000000e+01 -1.000000000000e+01 0.0 
0.0 -2.000000000000e+01 0.0 
5.000000000000e+01 -2.000000000000e+01 0.0 
0.0 -9.999999999991e-01 0.0 
0.0 -1.999999999998e+00 0.0 
0.0 -2.999999999997e+00 0.0 
0.0 -3.999999999994e+00 0.0 
0.0 -4.999999999991e+00 0.0 
0.0 -5.999999999988e+00 0.0 
0.0 -6.999999999985e+00 0.0 
0.0 -7.999999999982e+00 0.0 
0.0 -8.999999999983e+00 0.0 
0.0 -9.999999999985e+00 0.0 
0.0 -1.099999999999e+01 0.0 
0.0 -1.199999999999e+01 0.0 
0.0 -1.299999999999e+01 0.0 
0.0 -1.399999999999e+01 0.0 
0.0 -1.499999999999e+01 0.0 
0.0 -1.599999999999e+01 0.0 
0.0 -1.700000000000e+01 0.0 
0.0 -1.800000000000e+01 0.0 
0.0 -1.900000000000e+01 0.0 
4.900000000001e+01 -2.000000000000e+01 0.0 
4.800000000001e+01 -2.000000000000e+01 0.0 
4.700000000002e+01 -2.000000000000e+01 0.0 
4.600000000003e+01 -2.000000000000e+01 0.0 
4.500000000004e+01 -2.000000000000e+01 0.0 
4.400000000004e+01 -2.000000000000e+01 0.0 
4.300000000005e+01 -2.000000000000e+01 0.0 
4.200000000006e+01 -2.000000000000e+01 0.0 
4.100000000006e+01 -2.000000000000e+01 0.0 
4.000000000007e+01 -2.000000000000e+01 0.0 
3.900000000008e+01 -2.000000000000e+01 0.0 
3.800000000009e+01 -2.000000000000e+01 0.0 
3.700000000009e+01 -2.000000000000e+01 0.0 
3.600000000010e+01 -2.000000000000e+01 0.0 
3.500000000011e+01 -2.000000000000e+01 0.0 
3.400000000011e+01 -2.000000000000e+01 0.0 
3.300000000012e+01 -2.000000000000e+01 0.0 
3.200000000013e+01 -2.000000000000e+01 0.0 
3.100000000013e+01 -2.000000000000e+01 0.0 
3.000000000013e+01 -2.000000000000e+01 0.0 
2.900000000013e+01 -2.000000000000e+01 0.0 
2.800000000013e+01 -2.000000000000e+01 0.0 
2.700000000013e+01 -2.000000000000e+01 0.0 
2.600000000013e+01 -2.000000000000e+01 0.0 
2.500000000013e+01 -2.000000000000e+01 0.0 
2.400000000013e+01 -2.000000000000e+01 0.0 
2.300000000013e+01 -2.000000000000e+01 0.0 
2.200000000013e+01 -2.000000000000e+01 0.0 
2.100000000013e+01 -2.000000000000e+01 0.0 
2.000000000013e+01 -2.000000000000e+01 0.0 
1.900000000013e+01 -2.000000000000e+01 0.0 
1.800000000013e+01 -2.000000000000e+01 0.0 
1.700000000012e+01 -2.000000000000e+01 0.0 
1.600000000011e+01 -2.000000000000e+01 0.0 
1.500000000011e+01 -2.000000000000e+01 0.0 
1.400000000010e+01 -2.000000000000e+01 0.0 
1.300000000009e+01 -2.000000000000e+01 0.0 
1.200000000009e+01 -2.000000000000e+01 0.0 
1.100000000008e+01 -2.000000000000e+01 0.0 
1.000000000007e+01 -2.000000000000e+01 0.0 
9.000000000064e+00 -2.000000000000e+01 0.0 
8.000000000057e+00 -2.000000000000e+01 0.0 
7.000000000050e+00 -2.000000000000e+01 0.0 
6.000000000043e+00 -2.000000000000e+01 0.0 
5.000000000036e+00 -2.000000000000e+01 0.0 
4.000000000028e+00 -2.000000000000e+01 0.0 
3.000000000021e+00 -2.000000000000e+01 0.0 
2.000000000014e+00 -2.000000000000e+01 0.0 
1.000000000007e+00 -2.000000000000e+01 0.0 
5.000000000000e+01 -1.100000000000e+01 0.0 
5.000000000000e+01 -1.200000000000e+01 0.0 
5.000000000000e+01 -1.300000000000e+01 0.0 
5.000000000000e+01 -1.400000000000e+01 0.0 
5.000000000000e+01 -1.500000000000e+01 0.0 
5.000000000000e+01 -1.600000000000e+01 0.0 
5.000000000000e+01 -1.700000000000e+01 0.0 
5.000000000000e+01 -1.800000000000e+01 0.0 
5.000000000000e+01 -1.900000000000e+01 0.0 
2.000000000000e+01 0.0 0.0 
3.500000000000e+01 -1.000000000000e+01 0.0 
2.150000000000e+01 -1.000000000000e+00 0.0 
2.300000000000e+01 -2.000000000000e+00 0.0 
2.450000000000e+01 -3.000000000000e+00 0.0 
2.600000000000e+01 -4.000000000000e+00 0.0 
2.750000000000e+01 -5.000000000000e+00 0.0 
2.900000000000e+01 -6.000000000000e+00 0.0 
3.050000000000e+01 -7.000000000000e+00 0.0 
3.200000000000e+01 -8.000000000000e+00 0.0 
3.350000000000e+01 -9.000000000000e+00 0.0 
4.900000000000e+01 -1.000000000000e+01 0.0 
4.800000000000e+01 -1.000000000000e+01 0.0 
4.700000000000e+01 -1.000000000000e+01 0.0 
4.600000000000e+01 -1.000000000000e+01 0.0 
4.500000000000e+01 -1.000000000000e+01 0.0 
4.400000000000e+01 -1.000000000000e+01 0.0 
4.300000000000e+01 -1.000000000000e+01 0.0 
4.200000000000e+01 -1.000000000000e+01 0.0 
4.100000000000e+01 -1.000000000000e+01 0.0 
4.000000000000e+01 -1.000000000000e+01 0.0 
3.900000000000e+01 -1.000000000000e+01 0.0 
3.800000000000e+01 -1.000000000000e+01 0.0 
3.700000000000e+01 -1.000000000000e+01 0.0 
3.600000000000e+01 -1.000000000000e+01 0.0 
1.900000000000e+01 0.0 0.0 
1.800000000000e+01 0.0 0.0 
1.700000000000e+01 0.0 0.0 
1.600000000000e+01 0.0 0.0 
1.500000000000e+01 0.0 0.0 
1.400000000000e+01 0.0 0.0 
1.300000000000e+01 0.0 0.0 
1.200000000000e+01 0.0 0.0 
1.100000000000e+01 0.0 0.0 
1.000000000000e+01 0.0 0.0 
9.000000000000e+00 0.0 0.0 
8.000000000000e+00 0.0 0.0 
7.000000000000e+00 0.0 0.0 
6.000000000000e+00 0.0 0.0 
5.000000000000e+00 0.0 0.0 
4.000000000000e+00 0.0 0.0 
3.000000000000e+00 0.0 0.0 
2.000000000000e+00 0.0 0.0 
1.000000000000e+00 0.0 0.0 
2.075000000000e+01 -5.000000000006e-01 0.0 
2.225000000000e+01 -1.500000000000e+00 0.0 
2.375000000000e+01 -2.500000000000e+00 0.0 
2.525000000000e+01 -3.500000000000e+00 0.0 
2.675000000000e+01 -4.500000000000e+00 0.0 
2.825000000000e+01 -5.500000000000e+00 0.0 
2.975000000000e+01 -6.500000000000e+00 0.0 
3.125000000000e+01 -7.500000000000e+00 0.0 
3.275000000000e+01 -8.500000000000e+00 0.0 
3.425000000000e+01 -9.500000000000e+00 0.0 
2.226951693683e+01 -2.403913980114e+00 0.0 
1.650149491944e+01 -1.913490915758e+01 0.0 
1.050042386896e+01 -8.504605092970e-01 0.0 
1.553146524712e+01 -8.281255032105e-01 0.0 
1.150000000008e+01 -1.913397459621e+01 0.0 
2.530060260647e+01 -4.428336431260e+00 0.0 
8.651114563942e-01 -1.052096295641e+01 0.0 
2.050000000013e+01 -1.913397459622e+01 0.0 
2.819198729811e+01 -6.399519052838e+00 0.0 
2.445670302931e+01 -1.915649188023e+01 0.0 
3.117591465718e+01 -8.394293040695e+00 0.0 
7.465053044742e+00 -1.920411160581e+01 0.0 
6.398295709691e+00 -8.230098819370e-01 0.0 
2.849659607461e+01 -1.914296187762e+01 0.0 
3.418732642882e+01 -1.040265792588e+01 0.0 
8.386450935063e-01 -6.533605142809e+00 0.0 
9.178661865596e-01 -1.329769195597e+01 0.0 
3.149448624493e+01 -1.910466733764e+01 0.0 
3.552916747426e+01 -1.914628590759e+01 0.0 
4.449210346537e+01 -1.914359085008e+01 0.0 
4.140975975145e+01 -1.906941860733e+01 0.0 
3.847475958753e+01 -1.916622382724e+01 0.0 
3.653774794640e+01 -1.088712800241e+01 0.0 
4.047886341787e+01 -1.090139014048e+01 0.0 
4.348006339825e+01 -1.092792621489e+01 0.0 
4.919519968029e+01 -1.451526755068e+01 0.0 
4.500000000032e+00 -1.913397459621e+01 0.0 
1.856136921614e+01 -8.212235170404e-01 0.0 
3.499895312306e+00 -8.661165539723e-01 0.0 
9.076088696565e-01 -1.642306201891e+01 0.0 
4.655174095477e+01 -1.086183387525e+01 0.0 
9.430688970604e-01 -3.496112672958e+00 0.0 
3.353992337063e+01 -1.901202090820e+01 0.0 
2.249746016977e+01 -1.921262287282e+01 0.0 
2.650122741777e+01 -1.916123026018e+01 0.0 
1.863571384842e+01 -1.908325534840e+01 0.0 
1.450089971693e+01 -1.917691901860e+01 0.0 
1.350044695317e+01 -8.659695299584e-01 0.0 
3.849987469880e+01 -1.084154983397e+01 0.0 
9.454419857884e+00 -1.900818879936e+01 0.0 
4.917398660523e+01 -1.645692866081e+01 0.0 
8.500000000000e+00 -8.660254037844e-01 0.0 
8.660319230785e-01 -8.500111697188e+00 0.0 
4.649022621545e+01 -1.930506220113e+01 0.0 
2.667688107845e+01 -5.420288124331e+00 0.0 
2.379251615665e+01 -3.412225477429e+00 0.0 
2.966631491830e+01 -7.389030232731e+00 0.0 
3.267915035995e+01 -9.396934932445e+00 0.0 
2.074836922338e+01 -1.320054020319e+00 0.0 
4.915985743621e+01 -1.261973384855e+01 0.0 
2.527129768623e+00 -1.931592414663e+01 0.0 
1.538676247410e+00 -8.436956619311e-01 0.0 
4.908096641539e+01 -1.842484004551e+01 0.0 
3.478612492673e+01 -1.090889364140e+01 0.0 
3.409757055860e+01 -1.131991530427e+01 0.0 
3.501895309466e+01 -1.177687842717e+01 0.0 
3.407758073088e+01 -1.224293381580e+01 0.0 
3.484541875390e+01 -1.277051428430e+01 0.0 
3.400322025842e+01 -1.319022775640e+01 0.0 
3.321672625034e+01 -1.266779191233e+01 0.0 
3.315244139236e+01 -1.360984106532e+01 0.0 
3.236335186892e+01 -1.308463225210e+01 0.0 
3.478337442841e+01 -1.372341158982e+01 0.0 
3.230105923633e+01 -1.403023731610e+01 0.0 
3.150954055289e+01 -1.350301767700e+01 0.0 
3.144604792090e+01 -1.444931742516e+01 0.0 
3.065653897123e+01 -1.392357262981e+01 0.0 
3.071897610812e+01 -1.297447031198e+01 0.0 
2.986790411740e+01 -1.339226181535e+01 0.0 
2.993181466745e+01 -1.244703272398e+01 0.0 
2.908023061869e+01 -1.286254537734e+01 0.0 
2.901619051372e+01 -1.380881655279e+01 0.0 
2.822986160390e+01 -1.327695262116e+01 0.0 
2.829453476870e+01 -1.233265343811e+01 0.0 
2.744542905518e+01 -1.274510491105e+01 0.0 
2.751120089246e+01 -1.180368086886e+01 0.0 
2.666218649885e+01 -1.221619339205e+01 0.0 
2.672371209234e+01 -1.127125228527e+01 0.0 
2.587763216302e+01 -1.168539979114e+01 0.0 
2.581165585299e+01 -1.262994410089e+01 0.0 
2.502890882577e+01 -1.209827323619e+01 0.0 
2.509631327757e+01 -1.115492410304e+01 0.0 
2.424662989877e+01 -1.156630981079e+01 0.0 
2.431704046904e+01 -1.062389179334e+01 0.0 
2.346445438728e+01 -1.103427680694e+01 0.0 
2.339382552877e+01 -1.197964871788e+01 0.0 
2.260936050780e+01 -1.144513277642e+01 0.0 
2.268075012022e+01 -1.049911928216e+01 0.0 
2.182525737661e+01 -1.090920811464e+01 0.0 
2.189682319817e+01 -9.961716944568e+00 0.0 
2.104174127792e+01 -1.037266986667e+01 0.0 
2.111304367575e+01 -9.424179358711e+00 0.0 
2.025306185381e+01 -9.832727364719e+00 0.0 
2.018141124247e+01 -1.079140628871e+01 0.0 
1.938594498257e+01 -1.025147354112e+01 0.0 
1.946106490453e+01 -9.288010758448e+00 0.0 
1.858929958352e+01 -9.706319802516e+00 0.0 
1.851540991219e+01 -1.067205988724e+01 0.0 
1.771485303178e+01 -1.012504443115e+01 0.0 
1.764134552256e+01 -1.109360378538e+01 0.0 
1.683745148095e+01 -1.054496365337e+01 0.0 
1.691852964353e+01 -9.582555261178e+00 0.0 
1.603603813062e+01 -1.000160132379e+01 0.0 
1.595824239350e+01 -1.096750698862e+01 0.0 
1.515080624291e+01 -1.041639501931e+01 0.0 
1.523171602559e+01 -9.451711491453e+00 0.0 
1.434621060709e+01 -9.871956467464e+00 0.0 
1.426777178765e+01 -1.083749501371e+01 0.0 
1.345775282374e+01 -1.028803175500e+01 0.0 
1.354103873368e+01 -9.324918457162e+00 0.0 
1.265072018622e+01 -9.742612837270e+00 0.0 
1.257285762070e+01 -1.071557782384e+01 0.0 
1.175874815690e+01 -1.015972324288e+01 0.0 
1.184203019714e+01 -9.193604071377e+00 0.0 
1.094927709905e+01 -9.612103238656e+00 0.0 
1.086938022910e+01 -1.058685085646e+01 0.0 
1.005424098961e+01 -1.002939116380e+01 0.0 
9.977974613295e+00 -1.101324897989e+01 0.0 
1.012915646404e+01 -9.051815821181e+00 0.0 
9.237127782494e+00 -9.471239055559e+00 0.0 
9.308426593771e+00 -8.483376461131e+00 0.0 
8.418806073345e+00 -8.910712374517e+00 0.0 
2.253688464062e+01 -1.239459402279e+01 0.0 
8.495126726666e+00 -7.921646665254e+00 0.0 
9.389727383206e+00 -7.512103628377e+00 0.0 
7.601560812974e+00 -8.349460349344e+00 0.0 
7.525680547759e+00 -9.339736686940e+00 0.0 
7.677888324502e+00 -7.359727833346e+00 0.0 
6.782001206724e+00 -7.788454494773e+00 0.0 
6.858778622885e+00 -6.797338062822e+00 0.0 
2.196596590865e+01 -8.979025665442e+00 0.0 
2.816540108272e+01 -1.422634142353e+01 0.0 
5.961601194403e+00 -7.226824010712e+00 0.0 
6.038171749656e+00 -6.234825887079e+00 0.0 
6.936257279557e+00 -5.805287640737e+00 0.0 
6.115068918323e+00 -5.242109758768e+00 0.0 
3.564391741903e+01 -1.329240553876e+01 0.0 
3.558115605778e+01 -1.425902892003e+01 0.0 
3.645445282201e+01 -1.381970786460e+01 0.0 
3.639744204358e+01 -1.479198128612e+01 0.0 
3.727266909778e+01 -1.435399586226e+01 0.0 
5.216667013081e+00 -5.671788584287e+00 0.0 
3.220697293295e+01 -1.499594545107e+01 0.0 
3.551112158269e+01 -1.523479869250e+01 0.0 
2.836056961467e+01 -1.139032434851e+01 0.0 
2.516730388602e+01 -1.021382726837e+01 0.0 
1.844436907403e+01 -1.164097215196e+01 0.0 
5.885434318740e+00 -8.218694781467e+00 0.0 
5.064071066867e+00 -7.656614643901e+00 0.0 
4.988089103470e+00 -8.649722082718e+00 0.0 
1.079421050408e+01 -1.157014985435e+01 0.0 
9.902420005256e+00 -1.199903342656e+01 0.0 
1.071994252214e+01 -1.255727909771e+01 0.0 
9.826974788171e+00 -1.298659581767e+01 0.0 
1.064607883789e+01 -1.354595476388e+01 0.0 
9.751541265343e+00 -1.397556905071e+01 0.0 
8.932296185869e+00 -1.341553353988e+01 0.0 
8.856399248106e+00 -1.440570715508e+01 0.0 
8.036186803543e+00 -1.384470558472e+01 0.0 
1.057112875118e+01 -1.453516759081e+01 0.0 
1.146582585687e+01 -1.410539926903e+01 0.0 
7.959894480382e+00 -1.483563350928e+01 0.0 
7.138792279156e+00 -1.427465094140e+01 0.0 
7.062506792418e+00 -1.526615385482e+01 0.0 
6.240693558277e+00 -1.470508863040e+01 0.0 
6.316957575451e+00 -1.371212581281e+01 0.0 
5.418183007107e+00 -1.414253605022e+01 0.0 
5.494748364428e+00 -1.314886770603e+01 0.0 
1.756825565873e+01 -1.206433872514e+01 0.0 
1.837565773345e+01 -1.261356468266e+01 0.0 
1.749574831391e+01 -1.303769280014e+01 0.0 
1.830539187332e+01 -1.358828364284e+01 0.0 
1.742278925170e+01 -1.401367746928e+01 0.0 
1.823303007798e+01 -1.456432294258e+01 0.0 
1.734941694138e+01 -1.499213734361e+01 0.0 
1.653760041637e+01 -1.443920312098e+01 0.0 
3.056237977307e+01 -1.487132260174e+01 0.0 
1.866469084762e+01 -8.742953000418e+00 0.0 
1.953669694916e+01 -8.326038909849e+00 0.0 
1.874194303780e+01 -7.780688158966e+00 0.0 
1.961032016741e+01 -7.366854697285e+00 0.0 
1.881715755159e+01 -6.821102209649e+00 0.0 
1.968369797150e+01 -6.407747217358e+00 0.0 
1.889237123259e+01 -5.858375520026e+00 0.0 
1.802038875366e+01 -6.276202618170e+00 0.0 
1.809793837984e+01 -5.307629520489e+00 0.0 
1.721985207997e+01 -5.728242054488e+00 0.0 
1.729850893523e+01 -4.756990819347e+00 0.0 
1.641745664240e+01 -5.174636548624e+00 0.0 
2.495978509456e+01 -1.304406404294e+01 0.0 
1.911567814831e+01 -1.413854250293e+01 0.0 
1.904387332608e+01 -1.511463127723e+01 0.0 
1.992115934240e+01 -1.468788025898e+01 0.0 
7.013706899628e+00 -4.812582868662e+00 0.0 
5.342091874585e+00 -1.513658157269e+01 0.0 
1.139098043784e+01 -1.509488509480e+01 0.0 
1.228151810610e+01 -1.465617481983e+01 0.0 
1.646373110164e+01 -1.541993323337e+01 0.0 
5.293328636712e+00 -4.678385108584e+00 0.0 
1.975965862987e+01 -5.448124345648e+00 0.0 
2.054318374236e+01 -5.992561293251e+00 0.0 
3.721453439063e+01 -1.533216152738e+01 0.0 
3.809302733893e+01 -1.489235527381e+01 0.0 
1.220852788900e+01 -1.565304565230e+01 0.0 
4.394120899730e+00 -5.108397613210e+00 0.0 
8.779354620288e+00 -1.539524721159e+01 0.0 
1.817791047702e+01 -4.338570146253e+00 0.0 
4.518860013839e+00 -1.457343189307e+01 0.0 
4.442712140414e+00 -1.556841391069e+01 0.0 
8.115343466391e+00 -1.285760324283e+01 0.0 
1.985334703171e+01 -1.566478400426e+01 0.0 
2.071953850276e+01 -1.522074243119e+01 0.0 
1.634012953883e+01 -6.154777738301e+00 0.0 
1.553479994708e+01 -5.593730508879e+00 0.0 
1.561265946942e+01 -4.617761762647e+00 0.0 
1.470674212978e+01 -5.064576488228e+00 0.0 
1.464498299883e+01 -6.026514471420e+00 0.0 
1.383271561817e+01 -5.467796261169e+00 0.0 
1.389241253067e+01 -4.504338666645e+00 0.0 
1.301868735463e+01 -4.907185188626e+00 0.0 
1.294514184846e+01 -5.888160903592e+00 0.0 
1.212955968622e+01 -5.328262335277e+00 0.0 
1.220721122383e+01 -4.341264976687e+00 0.0 
1.131324345897e+01 -4.766773516508e+00 0.0 
5.266597955397e+00 -1.613148974258e+01 0.0 
1.737805990867e+01 -3.786677807525e+00 0.0 
3.078438094513e+01 -1.203225297748e+01 0.0 
1.131569882285e+01 -1.608511932110e+01 0.0 
1.728478341782e+01 -1.596017432313e+01 0.0 
3.803465906019e+01 -1.587509751228e+01 0.0 
3.891681276677e+01 -1.543395196905e+01 0.0 
3.897340985302e+01 -1.444710288980e+01 0.0 
3.980095968193e+01 -1.499059496613e+01 0.0 
3.974334598189e+01 -1.597921884150e+01 0.0 
4.062964983717e+01 -1.553518690417e+01 0.0 
4.068729602479e+01 -1.454434445295e+01 0.0 
4.151772679790e+01 -1.508974196007e+01 0.0 
4.157505195739e+01 -1.409694289912e+01 0.0 
4.240699932656e+01 -1.464347955968e+01 0.0 
4.234898051011e+01 -1.563721375790e+01 0.0 
4.323934606035e+01 -1.519082036405e+01 0.0 
4.329740528208e+01 -1.419587509788e+01 0.0 
4.413056841369e+01 -1.474359631875e+01 0.0 
4.418850110108e+01 -1.374786684042e+01 0.0 
4.502219770667e+01 -1.429605103525e+01 0.0 
4.496411937907e+01 -1.529215882720e+01 0.0 
4.490027319897e+00 -4.154167794594e+00 0.0 
1.565080385988e+01 -1.486411982419e+01 0.0 
1.557610691279e+01 -1.584855627870e+01 0.0 
4.195350646612e+00 -8.089117689096e+00 0.0 
4.124027797830e+00 -9.082831955007e+00 0.0 
4.917944318925e+00 -9.643530901533e+00 0.0 
4.020105689502e+00 -1.007439673661e+01 0.0 
4.587185899277e+01 -1.484039992728e+01 0.0 
4.580078661551e+01 -1.584043391042e+01 0.0 
2.061956522375e+01 -5.046701343981e+00 0.0 
2.139572955529e+01 -5.579553449826e+00 0.0 
3.715344357292e+01 -1.631485124583e+01 0.0 
3.618886196443e+00 -1.500471207167e+01 0.0 
3.695606940204e+00 -1.400939692294e+01 0.0 
2.438890661143e+01 -9.686110599723e+00 0.0 
2.523267572778e+01 -9.276766000622e+00 0.0 
2.446094171539e+01 -8.751904591412e+00 0.0 
2.529089822738e+01 -8.321495612547e+00 0.0 
2.606882688827e+01 -8.864724051119e+00 0.0 
2.452116646430e+01 -7.792756462004e+00 0.0 
1.235543269617e+01 -1.365845617339e+01 0.0 
4.318116874181e+01 -1.618567469992e+01 0.0 
7.835066111909e+00 -5.376366223896e+00 0.0 
7.905687335704e+00 -4.382539065697e+00 0.0 
3.542640009567e+00 -1.600035116542e+01 0.0 
1.572431503071e+01 -1.388358386695e+01 0.0 
2.574684696680e+01 -1.357896141127e+01 0.0 
2.488842657651e+01 -1.399674354505e+01 0.0 
2.568301775611e+01 -1.453552048595e+01 0.0 
2.481535572009e+01 -1.495542756508e+01 0.0 
2.561729699688e+01 -1.549784648532e+01 0.0 
2.474623061296e+01 -1.592058894178e+01 0.0 
2.394234041695e+01 -1.537572575827e+01 0.0 
2.065825452567e+01 -1.621899055217e+01 0.0 
2.387180528935e+01 -1.634552264687e+01 0.0 
4.585364400844e+01 -1.383912334080e+01 0.0 
1.998744432052e+01 -1.370317155541e+01 0.0 
1.205356951443e+01 -6.313580285498e+00 0.0 
5.396543905849e+00 -3.731818611283e+00 0.0 
1.139652573295e+01 -3.745819399350e+00 0.0 
3.574124306703e+00 -4.551456826011e+00 0.0 
3.494140761930e+00 -5.539787055649e+00 0.0 
1.213651452413e+01 -1.664505033022e+01 0.0 
2.555045568519e+01 -1.646529356744e+01 0.0 
2.641671114986e+01 -1.603899382371e+01 0.0 
2.612920721894e+01 -7.906435260873e+00 0.0 
2.690339829698e+01 -8.456969591431e+00 0.0 
1.978024383368e+01 -1.664410216353e+01 0.0 
3.732829979082e+01 -1.336926601859e+01 0.0 
4.074336584605e+01 -1.355133328401e+01 0.0 
4.163204691081e+01 -1.310280943992e+01 0.0 
3.773826114429e+00 -3.493444309145e+00 0.0 
1.228783001032e+01 -3.374822835872e+00 0.0 
4.057110462520e+01 -1.652588478000e+01 0.0 
2.132535497898e+01 -6.523623360525e+00 0.0 
2.216932532211e+01 -6.110044769206e+00 0.0 
1.825781152128e+01 -3.370146817147e+00 0.0 
1.745679445888e+01 -2.812942552063e+00 0.0 
4.666517057280e+01 -1.539981381543e+01 0.0 
4.660575894464e+01 -1.639014410186e+01 0.0 
4.838230979954e+00 -1.063643436446e+01 0.0 
3.938942630206e+00 -1.106778981745e+01 0.0 
1.302967218620e+01 -1.621373452436e+01 0.0 
1.049548003190e+01 -4.204825123240e+00 0.0 
4.573571907195e+01 -1.683820511148e+01 0.0 
1.483686335807e+01 -1.430849689310e+01 0.0 
1.490982658890e+01 -1.332679386284e+01 0.0 
3.190805600162e+00 -9.510968358545e+00 0.0 
2.146625721848e+01 -4.642437303115e+00 0.0 
2.069866208266e+01 -4.111852942193e+00 0.0 
1.286859345584e+01 -6.873252723348e+00 0.0 
1.041794493184e+01 -5.194814260291e+00 0.0 
2.671081808965e+00 -4.976806516331e+00 0.0 
1.295786792925e+01 -1.720506531799e+01 0.0 
3.968438206511e+01 -1.696869067241e+01 0.0 
2.308550456051e+01 -1.579963151273e+01 0.0 
2.315593682844e+01 -1.482967445235e+01 0.0 
2.299471449450e+01 -1.677069968132e+01 0.0 
1.057344714696e+01 -3.214252277840e+00 0.0 
1.124057603753e+01 -1.707713739755e+01 0.0 
2.718402535754e+00 -1.543629882103e+01 0.0 
2.638549692805e+01 -1.696744916809e+01 0.0 
2.723416349007e+01 -1.658104204545e+01 0.0 
2.210193351704e+01 -7.046769643417e+00 0.0 
2.295180925161e+01 -6.657397605239e+00 0.0 
2.301355235833e+01 -5.709111896800e+00 0.0 
2.379052718281e+01 -6.254965406962e+00 0.0 
3.243528601237e+01 -1.214181853533e+01 0.0 
2.287977995457e+01 -7.583722368300e+00 0.0 
2.999876029544e+01 -1.150837653096e+01 0.0 
3.084435366963e+01 -1.109693775882e+01 0.0 
3.006650579669e+01 -1.057778994262e+01 0.0 
2.683802665066e+01 -9.386863216633e+00 0.0 
2.768641973621e+01 -8.988883915666e+00 0.0 
2.040296980397e+01 -7.903629133404e+00 0.0 
1.925235024054e+01 -1.218872783130e+01 0.0 
5.735667000424e+00 -1.020577277283e+01 0.0 
6.396559909872e+00 -1.272326295703e+01 0.0 
1.161199420714e+01 -1.212812778229e+01 0.0 
4.229046132615e+01 -1.663084237572e+01 0.0 
4.312275399692e+01 -1.718087491556e+01 0.0 
4.335502068163e+01 -1.320039231514e+01 0.0 
4.424630298089e+01 -1.275160688731e+01 0.0 
7.090116643816e+00 -3.818998061530e+00 0.0 
7.989472176569e+00 -3.389238711200e+00 0.0 
9.085824861778e+00 -1.144036167408e+01 0.0 
1.041972423731e+01 -1.651614080893e+01 0.0 
3.797525112640e+01 -1.686052038746e+01 0.0 
3.709114253394e+01 -1.730125999865e+01 0.0 
3.626966748340e+01 -1.675477052919e+01 0.0 
1.385164591440e+01 -1.677597757552e+01 0.0 
1.787152588784e+01 -8.198993896093e+00 0.0 
1.668849729812e+01 -1.248560611628e+01 0.0 
1.659546177905e+01 -3.232482605530e+00 0.0 
2.332214717345e+01 -1.292598167641e+01 0.0 
7.168238450786e+00 -2.824711686516e+00 0.0 
2.894878403906e+01 -1.475427524446e+01 0.0 
2.646763248247e+00 -1.643270107952e+01 0.0 
3.467431944285e+00 -1.699648837348e+01 0.0 
2.059475877282e+01 -1.719473628526e+01 0.0 
3.333868355437e+01 -1.080596971682e+01 0.0 
2.246451062637e+01 -1.334557761546e+01 0.0 
2.167821896388e+01 -1.280847834858e+01 0.0 
3.089653185767e+01 -1.017198487212e+01 0.0 
3.012604365669e+01 -9.657298805968e+00 0.0 
2.929627299435e+01 -1.006100135274e+01 0.0 
2.936201435219e+01 -9.136748899251e+00 0.0 
1.198219052702e+01 -7.291887238230e+00 0.0 
1.116702076035e+01 -6.731976101053e+00 0.0 
2.551388807505e+01 -1.746927036981e+01 0.0 
2.378639090370e+01 -1.728678807149e+01 0.0 
2.718543627188e+01 -1.748668016909e+01 0.0 
2.804681050301e+01 -1.712626668293e+01 0.0 
1.970737034667e+01 -1.762317646822e+01 0.0 
1.889535776135e+01 -1.707158098231e+01 0.0 
2.593777711283e+00 -5.971157087874e+00 0.0 
2.773468281110e+01 -8.067164273938e+00 0.0 
4.051205884347e+01 -1.751819982458e+01 0.0 
3.166903145421e+01 -1.068032992414e+01 0.0 
1.033042452886e+01 -1.748285844336e+01 0.0 
9.519274604626e+00 -1.694349240233e+01 0.0 
1.668308673328e+01 -2.255861778986e+00 0.0 
1.570531902832e+01 -2.676795860126e+00 0.0 
4.655826903379e+01 -1.736656245706e+01 0.0 
2.384148070773e+01 -5.328744256413e+00 0.0 
2.460255123641e+01 -5.852182672816e+00 0.0 
2.306638135119e+01 -4.798935440613e+00 0.0 
8.467720450578e-01 -1.849576263072e+01 0.0 
4.849657322345e+01 -1.084860705506e+01 0.0 
2.565860899507e+00 -1.742859793981e+01 0.0 
2.764418872564e+01 -9.927142821799e+00 0.0 
4.565165880064e+01 -1.785336695404e+01 0.0 
2.162231831329e+01 -1.376528337468e+01 0.0 
2.360646352969e+01 -9.136041963102e+00 0.0 
1.392738739903e+01 -1.578285505772e+01 0.0 
4.756405947478e+01 -1.683706841809e+01 0.0 
4.740895034054e+01 -1.793766756892e+01 0.0 
4.080779328826e+01 -1.257387192544e+01 0.0 
4.168907939671e+01 -1.210739129181e+01 0.0 
3.991197722154e+01 -1.300815793917e+01 0.0 
1.905536506762e+01 -3.940076697685e+00 0.0 
1.923879596617e+01 -2.875000734166e+00 0.0 
4.401386745746e+01 -1.673483229438e+01 0.0 
4.247233362525e+00 -7.094581653070e+00 0.0 
3.286051630211e+00 -7.635300020553e+00 0.0 
9.609533347623e+00 -4.594311677967e+00 0.0 
9.523554636369e+00 -5.595597029530e+00 0.0 
5.660336628893e+00 -1.119290329628e+01 0.0 
6.558070063295e+00 -1.076385809362e+01 0.0 
2.809866407414e+01 -1.518037766799e+01 0.0 
2.888868674504e+01 -1.570360690070e+01 0.0 
2.654431550819e+01 -1.411217777162e+01 0.0 
1.402158265969e+01 -1.375404617952e+01 0.0 
1.409592494026e+01 -1.277071998942e+01 0.0 
1.499355196178e+01 -1.235270737023e+01 0.0 
4.221535326155e+01 -1.759335617494e+01 0.0 
4.305583287033e+01 -1.822663146802e+01 0.0 
1.280748808359e+01 -7.834332838285e+00 0.0 
1.368988389326e+01 -7.420529606172e+00 0.0 
1.110091796060e+01 -7.683966794328e+00 0.0 
3.963446145980e+01 -1.794331310122e+01 0.0 
3.423932362213e+00 -1.796415590455e+01 0.0 
4.280814572302e+00 -1.752272834860e+01 0.0 
8.050136380041e+00 -2.421582378631e+00 0.0 
8.888674091650e+00 -2.984264211327e+00 0.0 
2.152839430898e+01 -3.732609965436e+00 0.0 
2.077799585292e+01 -3.183896021866e+00 0.0 
3.618719395821e+01 -1.770276572576e+01 0.0 
3.538165138340e+01 -1.718709995539e+01 0.0 
3.702925326420e+01 -1.828844288807e+01 0.0 
1.756739438711e+00 -5.353284859169e+00 0.0 
2.233710191104e+01 -1.527265621324e+01 0.0 
1.389483555057e+01 -1.771797164730e+01 0.0 
1.475634224300e+01 -1.728357428390e+01 0.0 
1.298797563052e+01 -1.825968924755e+01 0.0 
2.145331271866e+01 -1.673705379077e+01 0.0 
2.133282821169e+01 -1.769400773673e+01 0.0 
2.292139194136e+01 -1.774915400288e+01 0.0 
1.750750053243e+01 -1.861475593469e+00 0.0 
4.830478841772e+01 -1.752611802221e+01 0.0 
4.341203507805e+01 -1.220326745522e+01 0.0 
1.685254151866e+01 -1.443085301632e+00 0.0 
4.431538535165e+01 -1.171841387375e+01 0.0 
4.511308610496e+01 -1.229557320599e+01 0.0 
4.510133242889e+01 -1.123680627466e+01 0.0 
1.846818030617e+00 -4.410877617069e+00 0.0 
3.995468694584e+01 -1.186571542989e+01 0.0 
3.901387459804e+01 -1.242507616755e+01 0.0 
8.966735877533e+00 -1.837818700423e+00 0.0 
4.049310011091e+01 -1.848269508791e+01 0.0 
7.278862053803e+00 -1.918523922691e+00 0.0 
6.429715522129e+00 -2.316676521184e+00 0.0 
9.443505505022e+00 -1.792198868094e+01 0.0 
8.620386951051e+00 -1.737590365556e+01 0.0 
8.571868171503e+00 -1.834436667826e+01 0.0 
7.758629848526e+00 -1.775677907213e+01 0.0 
7.806648388584e+00 -1.680761266021e+01 0.0 
6.908555145436e+00 -1.723746463044e+01 0.0 
4.251709122090e+01 -1.156937480156e+01 0.0 
6.931136405615e+00 -1.832465719263e+01 0.0 
6.015545461353e+00 -1.768865355295e+01 0.0 
5.960535926343e+00 -1.872011001764e+01 0.0 
3.023253444786e+01 -8.761960642196e+00 0.0 
2.454622702599e+01 -6.749421992767e+00 0.0 
2.537499741604e+01 -6.347634963783e+00 0.0 
2.544077378460e+01 -5.431358513649e+00 0.0 
2.801367161747e+01 -1.820907270221e+01 0.0 
2.884507806914e+01 -1.762032095326e+01 0.0 
1.821474531936e+00 -1.588901260460e+01 0.0 
1.821006262604e+00 -1.489370287756e+01 0.0 
4.599962488908e+01 -1.176478780598e+01 0.0 
4.705457470007e+01 -1.172182804229e+01 0.0 
4.667668314802e+01 -1.263464558483e+01 0.0 
4.759648056504e+01 -1.252380987933e+01 0.0 
4.728041618103e+01 -1.341928568376e+01 0.0 
4.825209352360e+01 -1.330491640804e+01 0.0 
4.778118233428e+01 -1.420151961695e+01 0.0 
2.388192727579e+01 -1.826934810142e+01 0.0 
2.381714684947e+01 -4.385917965223e+00 0.0 
3.172733219247e+01 -9.758744265248e+00 0.0 
1.882012070658e+01 -1.805540597212e+01 0.0 
1.805667505243e+01 -1.742221226236e+01 0.0 
2.852599958080e+01 -8.597196079481e+00 0.0 
2.856486123437e+01 -7.661382718527e+00 0.0 
1.111792842875e+01 -1.818223852980e+01 0.0 
2.203322722466e+01 -7.986646678802e+00 0.0 
3.955703676900e+01 -1.903246763601e+01 0.0 
1.944842206513e+01 -8.038750575182e-01 0.0 
1.909882767783e+01 -1.746322740933e+00 0.0 
2.281147422941e+01 -8.525912918334e+00 0.0 
2.850633001468e+01 -9.533271335986e+00 0.0 
2.532883344309e+01 -7.308951659710e+00 0.0 
2.620475466461e+01 -6.979208585400e+00 0.0 
1.396278270396e+01 -1.475095389807e+01 0.0 
9.791001166724e+00 -2.554159793552e+00 0.0 
2.229293380421e+01 -4.269762271052e+00 0.0 
4.677238984118e+01 -1.430071795514e+01 0.0 
2.228658385918e+01 -3.344747535984e+00 0.0 
8.940223674553e-01 -1.543595733415e+01 0.0 
2.118566862474e+01 -8.435876987696e+00 0.0 
2.678325936437e+01 -1.032621195706e+01 0.0 
2.223400220487e+01 -5.179046761770e+00 0.0 
2.375370625384e+01 -7.251580562134e+00 0.0 
3.156971327386e+01 -1.255534750737e+01 0.0 
3.328226391312e+01 -1.172914813316e+01 0.0 
3.250948774219e+01 -1.120157009348e+01 0.0 
2.032993445717e+01 -8.867880112202e+00 0.0 
2.697226974856e+01 -7.536633082045e+00 0.0 
2.707377810386e+01 -6.590835263295e+00 0.0 
2.914099246827e+01 -1.191678458549e+01 0.0 
3.544824072239e+01 -1.621126558525e+01 0.0 
3.456511855436e+01 -1.665054783843e+01 0.0 
3.448395810225e+01 -1.759117813016e+01 0.0 
3.368378673938e+01 -1.708037781328e+01 0.0 
3.375560452567e+01 -1.610973066913e+01 0.0 
3.288001547988e+01 -1.654324255651e+01 0.0 
3.282475929147e+01 -1.749725654692e+01 0.0 
3.199880906313e+01 -1.697294088625e+01 0.0 
3.197001272932e+01 -1.811667776864e+01 0.0 
3.111884713021e+01 -1.742166785755e+01 0.0 
3.120418962865e+01 -1.642155709385e+01 0.0 
3.034666704371e+01 -1.683123833816e+01 0.0 
3.026224379976e+01 -1.772592851714e+01 0.0 
3.046632362943e+01 -1.582232843075e+01 0.0 
1.961344017324e+01 -1.857459447985e+01 0.0 
2.274975894774e+01 -9.532738811922e+00 0.0 
1.833923246887e+01 -2.396746883672e+00 0.0 
1.988859500848e+01 -2.249244376594e+00 0.0 
2.758045562861e+01 -1.086434261689e+01 0.0 
3.247300178163e+01 -1.909930104252e+01 0.0 
3.461947482503e+01 -1.911879848019e+01 0.0 
2.047161538662e+01 -6.941478180358e+00 0.0 
2.750230940214e+01 -1.915490590764e+01 0.0 
3.165081350803e+01 -1.161860780120e+01 0.0 
1.897456727641e+01 -4.889634688522e+00 0.0 
2.549338539756e+01 -1.914858252089e+01 0.0 
3.462873135081e+01 -1.567482276144e+01 0.0 
3.384432415243e+01 -1.512280684518e+01 0.0 
3.471433767690e+01 -1.469086942990e+01 0.0 
3.651470373046e+01 -1.918207952149e+01 0.0 
3.901742690249e+01 -1.345028556517e+01 0.0 
2.153224102692e+01 -1.920169709333e+01 0.0 
1.918382939341e+01 -1.316226275662e+01 0.0 
2.005389162382e+01 -1.271962165174e+01 0.0 
2.011472087878e+01 -1.175029352900e+01 0.0 
3.210679478412e+01 -1.598038618242e+01 0.0 
1.752175226543e+01 -1.914713022656e+01 0.0 
1.696897240059e+01 -1.832772588765e+01 0.0 
1.599682523337e+01 -1.832599992024e+01 0.0 
1.644507199462e+01 -1.743697981535e+01 0.0 
1.549987712903e+01 -1.915192375101e+01 0.0 
3.050250861901e+01 -1.918943550234e+01 0.0 
2.949944061527e+01 -1.922950455235e+01 0.0 
1.375892575273e+01 -6.447160534926e+00 0.0 
1.457223670180e+01 -7.006709243857e+00 0.0 
1.450818793236e+01 -7.965943451779e+00 0.0 
1.538804712402e+01 -7.553409623699e+00 0.0 
1.545817644768e+01 -6.580929593419e+00 0.0 
1.626506893751e+01 -7.129032608911e+00 0.0 
1.619833811522e+01 -8.086588580887e+00 0.0 
1.714448609609e+01 -6.697429609777e+00 0.0 
2.887616543568e+01 -1.668015232137e+01 0.0 
1.349814589130e+01 -1.918225301544e+01 0.0 
1.153887772210e+01 -1.311384581217e+01 0.0 
1.242708159886e+01 -1.267046795531e+01 0.0 
1.249799674267e+01 -1.169005616014e+01 0.0 
6.631723893693e+00 -9.774184881867e+00 0.0 
7.451471631867e+00 -1.033148796006e+01 0.0 
7.377795355458e+00 -1.132196345268e+01 0.0 
5.810931797536e+00 -9.211654212252e+00 0.0 
2.402683899133e+01 -1.441378562320e+01 0.0 
1.249768692036e+01 -1.917388426624e+01 0.0 
1.580373499437e+01 -1.290751860664e+01 0.0 
8.344650507834e+00 -9.898403995170e+00 0.0 
3.750622115305e+01 -1.086526401533e+01 0.0 
3.699391251667e+01 -1.171695900794e+01 0.0 
3.606517829518e+01 -1.173717504500e+01 0.0 
3.650257641795e+01 -1.270047380221e+01 0.0 
3.808951488918e+01 -1.183518714175e+01 0.0 
4.760380962420e+00 -1.162484888315e+01 0.0 
3.861210370848e+00 -1.205657631736e+01 0.0 
3.038284309476e+00 -1.149851280664e+01 0.0 
2.961598794889e+00 -1.248856794980e+01 0.0 
2.138953225512e+00 -1.193212674534e+01 0.0 
2.227383593457e+00 -1.096258903918e+01 0.0 
2.043265419276e+00 -1.292158472959e+01 0.0 
1.252449446028e+00 -1.225502002753e+01 0.0 
3.949985210740e+01 -1.086594001795e+01 0.0 
1.453499444792e+01 -8.768805922472e-01 0.0 
1.403518950933e+01 -1.749965556633e+00 0.0 
1.300715031023e+01 -1.714737233040e+00 0.0 
1.350929389899e+01 -2.527443911291e+00 0.0 
1.449600910711e+01 -2.595486162864e+00 0.0 
1.395693872901e+01 -3.484211041558e+00 0.0 
1.495105865208e+01 -3.364609636216e+00 0.0 
1.508822528740e+01 -1.766586020494e+00 0.0 
1.250223858430e+01 -8.634590186802e-01 0.0 
1.200279523409e+01 -1.709044504992e+00 0.0 
1.150086239419e+01 -8.592789190668e-01 0.0 
1.101482754194e+01 -1.677730591922e+00 0.0 
1.148018564526e+01 -2.659323866909e+00 0.0 
8.800552119754e+00 -3.989875954728e+00 0.0 
3.452790439430e+00 -1.901136170646e+01 0.0 
8.658451825200e-01 -9.503462241795e+00 0.0 
1.694787786797e+00 -9.000589234502e+00 0.0 
1.703436717094e+00 -8.038819004041e+00 0.0 
2.594197971110e+00 -8.563955242845e+00 0.0 
1.630513735412e+00 -9.907244747511e+00 0.0 
8.566859292791e-01 -7.512203837972e+00 0.0 
1.685461277022e+00 -7.164280248030e+00 0.0 
2.506394468801e+00 -8.623386730818e-01 0.0 
2.007475081581e+00 -1.727729545205e+00 0.0 
9.211534699767e-01 -1.628791366312e+00 0.0 
1.500000000020e+00 -2.598063549486e+00 0.0 
2.482078929963e+00 -2.553580088725e+00 0.0 
2.999795253092e+00 -1.732169015019e+00 0.0 
3.999712607169e+00 -1.728832897453e+00 0.0 
4.499752199340e+00 -8.656478679175e-01 0.0 
4.964377774841e+00 -1.730129617941e+00 0.0 
4.425017908337e+00 -2.597541756243e+00 0.0 
5.446573195014e+00 -8.410144840023e-01 0.0 
4.915722346614e+01 -1.550640962770e+01 0.0 
4.826794919243e+01 -1.600000000000e+01 0.0 
1.053139533193e+01 -1.911782884365e+01 0.0 
4.156049861949e+01 -1.095160998589e+01 0.0 
9.494526624416e+00 -8.650570090219e-01 0.0 
4.555762166964e+01 -1.897098103585e+01 0.0 
4.250656411371e+01 -1.914387356218e+01 0.0 
4.350906466345e+01 -1.917234727395e+01 0.0 
8.759665722424e-01 -1.746422130609e+01 0.0 
1.698936011838e+00 -1.795012186674e+01 0.0 
4.742476811029e+01 -1.900090177972e+01 0.0 
7.749196752349e+00 -6.368049313489e+00 0.0 
3.361572113416e+01 -1.798765193915e+01 0.0 
4.484660149212e+01 -1.728661231383e+01 0.0 
1.984038172228e+01 -4.502575320116e+00 0.0 
1.035080352627e+01 -6.166639575753e+00 0.0 
2.753558010652e+00 -1.444909521181e+01 0.0 
7.217069543032e+00 -1.328635391078e+01 0.0 
4.364336727739e+00 -1.655585677381e+01 0.0 
4.595208426108e+00 -1.357919665443e+01 0.0 
6.164967006980e+00 -1.569873454630e+01 0.0 
1.487855768353e+01 -1.826523774028e+01 0.0 
2.791876456372e+00 -4.019632415181e+00 0.0 
4.246464893515e+01 -1.364898659620e+01 0.0 
4.503855590351e+01 -1.329552780944e+01 0.0 
4.407239109604e+01 -1.573900004093e+01 0.0 
5.141054449252e+00 -6.664290382472e+00 0.0 
3.141083947149e+00 -1.055790764912e+01 0.0 
6.196463198741e+00 -4.256497932609e+00 0.0 
2.599618716181e+01 -1.836893455464e+01 0.0 
2.923057372337e+01 -1.098461757645e+01 0.0 
1.168343877486e+01 -1.114079645041e+01 0.0 
6.706222096238e+00 -8.780364234441e+00 0.0 
8.567858614669e+00 -6.943121440850e+00 0.0 
1.123755132901e+01 -5.753525820030e+00 0.0 
2.353456234423e+01 -1.008536320953e+01 0.0 
9.162073319168e+00 -1.045593739109e+01 0.0 
9.676343469685e+00 -1.496493008366e+01 0.0 
4.490637882905e+01 -1.628778970202e+01 0.0 
7.398129387772e+00 -9.639977982323e-01 0.0 
1.049641705805e+01 -1.552503975272e+01 0.0 
9.010356286268e+00 -1.242805042052e+01 0.0 
3.985573925497e+01 -1.399863651620e+01 0.0 
1.816196318262e+01 -1.554066497931e+01 0.0 
1.306332244168e+01 -3.963646550326e+00 0.0 
4.145850903932e+01 -1.608094559275e+01 0.0 
3.794664933633e+01 -1.779020121986e+01 0.0 
3.819614412903e+01 -1.290749321016e+01 0.0 
6.270014188119e+00 -3.255093186826e+00 0.0 
4.251165370388e+01 -1.263870364997e+01 0.0 
1.207347709171e+01 -1.763942826023e+01 0.0 
3.633240829927e+01 -1.577330481104e+01 0.0 
4.319052668832e+00 -6.101812561904e+00 0.0 
1.676492415806e+01 -1.151547901392e+01 0.0 
2.594059220037e+01 -1.074225223009e+01 0.0 
3.340750911501e+01 -9.898764354137e+00 0.0 
4.397619591281e+01 -1.769773736461e+01 0.0 
2.175611595028e+01 -1.185718747128e+01 0.0 
1.641818733106e+01 -1.640685203215e+01 0.0 
1.661211421753e+01 -1.346121366338e+01 0.0 
3.428853504935e+00 -6.551993389271e+00 0.0 
8.700728832502e+00 -1.638460872825e+01 0.0 
1.931369795309e+01 -1.121629383702e+01 0.0 
4.139798872363e+01 -1.706922153459e+01 0.0 
2.647837478700e+01 -1.507353829290e+01 0.0 
1.779469616424e+01 -9.161615782908e+00 0.0 
3.885879219319e+01 -1.642026488918e+01 0.0 
1.338194936770e+01 -1.125916521471e+01 0.0 
1.897071181111e+01 -1.609204322578e+01 0.0 
2.844308548793e+01 -1.046221003096e+01 0.0 
2.659854702194e+01 -1.316109415760e+01 0.0 
2.979604503271e+01 -1.433296157755e+01 0.0 
2.417694041347e+01 -1.251231397779e+01 0.0 
1.807401327411e+00 -1.388891148480e+01 0.0 
9.599810618782e+00 -1.595439365034e+01 0.0 
1.652144692160e+01 -4.205392788472e+00 0.0 
2.367839450246e+01 -8.188385218643e+00 0.0 
3.814894930468e+01 -1.390748338767e+01 0.0 
2.466448215774e+01 -1.685878545680e+01 0.0 
4.134044524611e+01 -1.806610045954e+01 0.0 
2.600511411958e+01 -9.801774120648e+00 0.0 
7.882158050716e+00 -1.582364037353e+01 0.0 
3.881607873422e+01 -1.737970515013e+01 0.0 
8.270182347708e+00 -1.088622154920e+01 0.0 
8.672520392520e-01 -4.532984309881e+00 0.0 
1.993447205337e+01 -3.579061902667e+00 0.0 
1.794616079549e+01 -7.238038888498e+00 0.0 
2.097277068165e+01 -1.132450168636e+01 0.0 
8.194803300681e+00 -1.187214224265e+01 0.0 
3.522279404911e+01 -1.823342818178e+01 0.0 
6.984481050295e+00 -1.625271465557e+01 0.0 
1.309433007797e+01 -1.521718594215e+01 0.0 
2.150246167611e+01 -1.885399038185e+00 0.0 
3.250689370209e+01 -1.028789870535e+01 0.0 
6.085886272238e+00 -1.668342132851e+01 0.0 
1.588455661727e+01 -1.193498985921e+01 0.0 
1.809323400821e+01 -1.651110084195e+01 0.0 
1.348885082381e+00 -1.136065576512e+01 0.0 
2.497670221995e+01 -1.834631276173e+01 0.0 
2.937062818424e+01 -8.233711194470e+00 0.0 
5.185823744469e+00 -1.711566910207e+01 0.0 
1.477497877209e+01 -1.530177014512e+01 0.0 
2.125346158933e+01 -7.473003997367e+00 0.0 
4.751561118290e+01 -1.084897772632e+01 0.0 
5.056026576843e+00 -1.825750475525e+01 0.0 
1.473948554523e+01 -1.634577436309e+01 0.0 
2.410566630936e+01 -1.345970002612e+01 0.0 
1.507337507513e+01 -1.138527895328e+01 0.0 
3.189857338687e+01 -8.887781229006e+00 0.0 
7.298712468334e+00 -1.230231046246e+01 0.0 
2.738235495295e+01 -1.368931690364e+01 0.0 
3.750141041969e+01 -1.920449893070e+01 0.0 
1.557271965640e+01 -1.683317951731e+01 0.0 
3.393731848929e+01 -1.413034777044e+01 0.0 
6.482156824153e+00 -1.174575135362e+01 0.0 
2.077971718439e+01 -1.421279621836e+01 0.0 
3.455084320178e+00 -2.562590040585e+00 0.0 
3.099056096250e+01 -9.270280416035e+00 0.0 
5.580176125418e+00 -1.217387969259e+01 0.0 
1.707247630389e+01 -7.660651981710e+00 0.0 
1.418658814174e+01 -1.180390575393e+01 0.0 
2.049103025389e+01 -1.811296706038e+01 0.0 
4.680386172316e+00 -1.260396879301e+01 0.0 
1.699679896554e+01 -8.624561788199e+00 0.0 
3.779470168555e+00 -1.303424899720e+01 0.0 
3.036589870126e+01 -7.879832518349e+00 0.0 
3.306993001774e+01 -1.457671062095e+01 0.0 
2.840150110165e+00 -1.346530088269e+01 0.0 
2.732011135052e+01 -1.464591214560e+01 0.0 
5.423639259568e+00 -2.659711955016e+00 0.0 
2.324455961696e+01 -1.387269388211e+01 0.0 
1.752768355571e+00 -1.693128613594e+01 0.0 
1.020244783051e+01 -8.076834012808e+00 0.0 
1.330873875224e+01 -1.222417528206e+01 0.0 
3.297727364880e+01 -1.555480372087e+01 0.0 
2.890929955439e+01 -6.868664170731e+00 0.0 
1.323294664622e+01 -1.320754260334e+01 0.0 
2.726532861246e+01 -1.560593120806e+01 0.0 
2.240020643398e+01 -1.429299177247e+01 0.0 
2.090445823633e+01 -1.228128621332e+01 0.0 
1.315809881502e+01 -1.420739326938e+01 0.0 
2.781328038068e+01 -7.181956082300e+00 0.0 
8.614200829057e+00 -5.936933226306e+00 0.0 
8.714765730069e+00 -4.979270529687e+00 0.0 
1.611881701099e+01 -9.041973294003e+00 0.0 
2.806830314340e+01 -1.614622947108e+01 0.0 
2.084435391396e+00 -3.385085422913e+00 0.0 
3.133211811152e+01 -1.542347619750e+01 0.0 
9.693114650768e+00 -3.590281506442e+00 0.0 
1.531883592202e+01 -8.504584946143e+00 0.0 
2.151589117094e+01 -1.578915763018e+01 0.0 
4.918943882696e+01 -1.355538828056e+01 0.0 
1.443236615188e+01 -8.918701794549e+00 0.0 
8.276250966452e-01 -5.537685192197e+00 0.0 
1.362790867918e+01 -8.374718262212e+00 0.0 
2.083767477370e+01 -1.324843956035e+01 0.0 
1.273834678703e+01 -8.790890389337e+00 0.0 
1.192275845670e+01 -8.242261327467e+00 0.0 
4.477236023583e+01 -1.824312396664e+01 0.0 
1.102989384254e+01 -8.649855800911e+00 0.0 
4.849096516045e+01 -1.917293752213e+01 0.0 
1.588996752238e+00 -1.910230934687e+01 0.0 
4.904245197583e+01 -1.159839008158e+01 0.0 
2.753852929608e+01 -5.782128488093e+00 0.0 
1.756133602833e+01 -8.306130313187e-01 0.0 
2.615423700951e+01 -6.153865090092e+00 0.0 
1.028818761294e+01 -7.122020845892e+00 0.0 
2.970818901196e+01 -1.527821347593e+01 0.0 
4.801461623449e+01 -1.164472570985e+01 0.0 
9.455722100419e+00 -6.546069291118e+00 0.0 
3.089099236677e+01 -1.835339328261e+01 0.0 
2.350000000013e+01 -1.920825896750e+01 0.0 
4.830620531887e+01 -1.506626155470e+01 0.0 
1.725381944701e+01 -1.688794487850e+01 0.0 
2.156246225273e+01 -1.475893794002e+01 0.0 
4.919319648787e+01 -1.742767505896e+01 0.0 
4.437935623576e+01 -1.077662927266e+01 0.0 
1.001520521978e+01 -1.652692675208e+00 0.0 
9.067160240050e-01 -1.441937727541e+01 0.0 
2.603365149390e+01 -4.755996613848e+00 0.0 
2.458344439002e+01 -4.873645517696e+00 0.0 
2.304312390142e+01 -3.836552768096e+00 0.0 
2.546923202198e+00 -6.902480355749e+00 0.0 
1.251534969393e+01 -2.490989965776e+00 0.0 
2.454061833377e+01 -3.933354231935e+00 0.0 
1.788186558740e+01 -1.827424884923e+01 0.0 
4.090785243552e+01 -1.166553231904e+01 0.0 
2.230128851568e+01 -1.623015738726e+01 0.0 
2.302362347568e+01 -2.916239960270e+00 0.0 
3.878119254461e+01 -1.830091164002e+01 0.0 
2.210081359958e+01 -1.829238229150e+01 0.0 
8.443704882233e+00 -1.921993252862e+01 0.0 
2.218405824691e+01 -1.724557581508e+01 0.0 
2.151157503963e+01 -2.790636689331e+00 0.0 
3.741658958955e+01 -1.250400191722e+01 0.0 
2.697247663737e+01 -1.838290202309e+01 0.0 
4.743362342862e+01 -1.585850773010e+01 0.0 
6.671345075358e+00 -1.924977576322e+01 0.0 
3.900825404537e+01 -1.157220003875e+01 0.0 
4.649692961375e+01 -1.836335837481e+01 0.0 
1.578831424832e+01 -3.678284023361e+00 0.0 
4.814208768888e+01 -1.841249298770e+01 0.0 
2.964123298315e+01 -1.625739458193e+01 0.0 
4.580760351902e+01 -1.284294554687e+01 0.0 
3.561520879615e+01 -1.245548941949e+01 0.0 
2.555418095658e+00 -1.841101588290e+01 0.0 
3.288468366144e+01 -1.834258164109e+01 0.0 
2.065894391445e+01 -2.240688571739e+00 0.0 
4.739171429915e+01 -1.496536413446e+01 0.0 
3.478086729185e+00 -8.576434653209e+00 0.0 
1.606010630246e+01 -1.588421807951e+00 0.0 
1.018329200594e+01 -1.834320874317e+01 0.0 
2.957213339430e+01 -1.720496954591e+01 0.0 
4.142712790164e+00 -1.837794506222e+01 0.0 
6.698721532573e-01 -2.499999999997e+00 0.0 
8.037039123140e+00 -1.571229354954e+00 0.0 
1.203541361428e+01 -1.847784298001e+01 0.0 
2.899968332038e+01 -1.848264722179e+01 0.0 
1.469229460948e+01 -4.219485753730e+00 0.0 
4.049590781957e+01 -1.932812501995e+01 0.0 
1.996211678340e+01 -1.506329754720e+00 0.0 
4.250588298353e+01 -1.067383247529e+01 0.0 
5.831497011152e+00 -1.635396227234e+00 0.0 
5.317606125670e+00 -1.923927974868e+01 0.0 
4.208546426993e+01 -1.842830665025e+01 0.0 
2.327553405011e+00 -9.459409929662e+00 0.0 
3.568351902251e+01 -1.096637218582e+01 0.0 
1.682104374890e+00 -6.231413350963e+00 0.0 
2.451812238018e+01 -1.766524914339e+01 0.0 
1.058003429638e+01 -2.391839617098e+00 0.0 
4.399988753123e+01 -1.851998776342e+01 0.0 
1.400000000010e+01 -1.852293523028e+01 0.0 
3.604719565984e+01 -1.850662876800e+01 0.0 
1.951297136734e+01 -1.938092349694e+01 0.0 
1.821365318472e+01 -1.531276353287e+00 0.0 
2.298031859732e+01 -1.854635324722e+01 0.0 
1.552168066204e+01 -1.764280741977e+01 0.0 
4.572957713638e+01 -1.073347898229e+01 0.0 
3.429637429624e+01 -1.838861552790e+01 0.0 
2.427434426052e+00 -7.705577451869e+00 0.0 
4.662792031485e+00 -3.359424455416e+00 0.0 
4.926794919243e+01 -1.926794919243e+01 0.0 
7.320508075690e-01 -7.320508075688e-01 0.0 
4.926794919243e+01 -1.073205080757e+01 0.0 
7.320508075705e-01 -1.926794919243e+01 0.0 
2.917460242467e+00 -3.202866455310e+00 0.0 
4.838200575963e+01 -1.232674147454e+01 0.0 
2.998445708009e+01 -1.854403752148e+01 0.0 
5.949940090766e-01 -1.152762038165e+01 0.0 
4.844763495759e+01 -1.678092548787e+01 0.0 
1.301685480160e+01 -3.170056592566e+00 0.0 
1.650046335855e+01 -6.731535384067e-01 0.0 
4.854881540991e+01 -1.405224059779e+01 0.0 
2.119545114693e+01 -1.846813384545e+01 0.0 
3.797852849897e+01 -1.857978513215e+01 0.0 
4.649823708745e+01 -1.338351810816e+01 0.0 
2.012685900976e+01 -2.889659035009e+00 0.0 
2.953271913273e+01 -1.791558075192e+01 0.0 
2.408509097292e+00 -1.021949208421e+01 0.0 
2.642589566221e+01 -1.773216561448e+01 0.0 
1.730010270775e+01 -1.763165076721e+01 0.0 
2.017406551304e+01 -8.513536440582e-01 0.0 
5.254761581934e-01 -1.249999999999e+01 0.0 
6.640448215642e+00 -1.545337834885e+00 0.0 
7.843361506349e+00 -1.852719839527e+01 0.0 
1.588442191088e+00 -1.066158564320e+01 0.0 

CELLS 1919 7676 
3 179 649 925 
3 649 179 927 
3 659 152 670 
3 772 537 961 
3 539 599 765 
3 629 542 668 
3 159 581 583 
3 179 606 927 
3 581 159 599 
3 532 767 961 
3 151 726 727 
3 606 179 941 
3 771 923 967 
3 588 719 809 
3 923 185 967 
3 178 772 961 
3 587 158 728 
3 542 629 667 
3 166 586 908 
3 586 166 846 
3 767 532 920 
3 897 143 903 
3 624 897 903 
3 574 573 783 
3 273 429 718 
3 726 151 835 
3 105 82 988 
3 618 144 860 
3 271 273 718 
3 783 573 993 
3 523 733 735 
3 176 589 766 
3 659 670 968 
3 19 164 639 
3 174 593 595 
3 602 66 959 
3 66 602 985 
3 621 170 665 
3 585 96 938 
3 96 585 999 
3 861 603 887 
3 139 625 764 
3 942 140 946 
3 82 188 988 
3 580 187 937 
3 619 942 946 
3 733 523 736 
3 187 580 963 
3 729 730 736 
3 719 588 960 
3 181 624 861 
3 571 586 846 
3 349 962 980 
3 181 861 887 
3 671 153 851 
3 944 516 989 
3 571 846 915 
3 164 609 639 
3 432 760 878 
3 767 178 961 
3 138 972 1013 
3 952 578 954 
3 398 426 632 
3 962 735 980 
3 743 562 967 
3 624 181 897 
3 972 582 1013 
3 152 659 932 
3 459 420 741 
3 148 607 673 
3 835 778 889 
3 33 32 627 
3 618 860 990 
3 4 5 753 
3 750 944 989 
3 590 155 841 
3 671 851 1000 
3 638 943 950 
3 760 432 1002 
3 943 180 950 
3 420 433 741 
3 158 587 948 
3 143 649 903 
3 649 143 925 
3 599 539 811 
3 581 599 811 
3 610 835 940 
3 18 19 639 
3 664 661 909 
3 539 765 948 
3 766 589 939 
3 190 717 988 
3 763 934 958 
3 958 934 970 
3 156 33 627 
3 665 170 995 
3 587 728 960 
3 764 625 973 
3 184 616 913 
3 632 426 633 
3 765 599 983 
3 185 743 967 
3 346 912 936 
3 577 952 954 
3 467 465 643 
3 730 733 736 
3 770 771 893 
3 536 763 958 
3 138 729 736 
3 866 161 985 
3 311 664 909 
3 4 753 1004 
3 534 630 666 
3 501 817 855 
3 545 747 971 
3 605 632 633 
3 400 398 632 
3 174 595 953 
3 616 184 1008 
3 604 400 632 
3 635 565 910 
3 188 190 988 
3 763 536 1011 
3 400 604 643 
3 955 854 969 
3 620 870 879 
3 747 545 1001 
3 870 145 879 
3 155 590 981 
3 567 955 969 
3 726 835 889 
3 537 772 963 
3 474 531 631 
3 145 603 879 
3 593 174 973 
3 771 528 923 
3 610 778 835 
3 631 531 831 
3 575 703 993 
3 507 623 631 
3 557 768 769 
3 607 148 979 
3 809 719 956 
3 416 388 637 
3 623 474 631 
3 603 145 887 
3 531 669 831 
3 643 469 838 
3 159 583 938 
3 630 265 666 
3 589 176 977 
3 924 930 1008 
3 754 166 908 
3 182 620 855 
3 703 575 712 
3 604 467 643 
3 639 610 940 
3 606 140 942 
3 912 572 936 
3 165 611 612 
3 626 265 630 
3 609 164 893 
3 459 635 910 
3 771 530 893 
3 646 519 674 
3 161 866 975 
3 924 529 930 
3 465 469 643 
3 817 182 855 
3 151 727 1024 
3 140 606 941 
3 265 626 640 
3 388 439 637 
3 611 165 999 
3 469 630 838 
3 620 182 870 
3 513 702 907 
3 747 448 971 
3 144 618 933 
3 673 607 957 
3 605 633 927 
3 448 747 987 
3 690 820 874 
3 623 507 861 
3 606 605 927 
3 646 501 855 
3 630 534 838 
3 154 767 920 
3 277 686 896 
3 164 770 893 
3 619 180 943 
3 475 640 864 
3 661 686 909 
3 81 106 628 
3 507 603 861 
3 863 535 867 
3 759 891 984 
3 774 167 1000 
3 272 197 679 
3 894 253 921 
3 383 863 867 
3 717 190 966 
3 718 429 956 
3 573 575 993 
3 904 795 931 
3 641 212 669 
3 471 361 674 
3 278 272 679 
3 468 646 674 
3 519 646 855 
3 417 877 917 
3 702 551 907 
3 628 162 629 
3 633 649 927 
3 633 426 648 
3 531 641 669 
3 686 656 896 
3 542 541 847 
3 535 634 853 
3 585 611 999 
3 640 626 864 
3 331 853 902 
3 591 801 1025 
3 677 278 679 
3 801 147 1025 
3 759 760 891 
3 180 619 946 
3 904 547 905 
3 651 278 677 
3 547 546 905 
3 527 636 642 
3 353 734 806 
3 565 742 910 
3 820 383 874 
3 519 471 674 
3 562 743 975 
3 106 162 628 
3 436 466 642 
3 226 265 640 
3 624 623 861 
3 634 535 863 
3 602 866 985 
3 888 277 896 
3 335 317 672 
3 383 867 874 
3 835 151 940 
3 669 279 831 
3 678 679 875 
3 578 952 997 
3 226 640 647 
3 466 527 642 
3 196 468 644 
3 627 32 981 
3 212 641 816 
3 685 228 824 
3 612 611 613 
3 741 433 945 
3 468 645 646 
3 435 335 672 
3 541 675 776 
3 523 735 962 
3 278 651 813 
3 361 644 674 
3 400 643 838 
3 651 490 813 
3 686 277 909 
3 279 650 792 
3 146 600 959 
3 476 685 824 
3 204 470 650 
3 534 666 797 
3 476 684 685 
3 318 334 675 
3 716 157 717 
3 230 227 647 
3 347 698 699 
3 678 888 896 
3 106 107 162 
3 468 194 645 
3 317 315 672 
3 391 436 642 
3 320 318 675 
3 199 196 644 
3 589 635 939 
3 427 517 648 
3 476 683 684 
3 644 468 674 
3 716 717 718 
3 437 542 667 
3 347 699 701 
3 348 351 698 
3 633 648 649 
3 678 875 888 
3 426 427 648 
3 313 230 647 
3 640 475 647 
3 437 541 542 
3 666 222 797 
3 566 636 638 
3 37 153 671 
3 39 167 670 
3 213 212 816 
3 334 317 335 
3 390 391 449 
3 205 204 650 
3 334 335 390 
3 347 348 698 
3 279 792 831 
3 768 557 986 
3 672 475 864 
3 877 533 917 
3 566 449 636 
3 171 57 691 
3 390 335 391 
3 210 279 669 
3 437 341 541 
3 713 406 821 
3 227 226 647 
3 351 695 698 
3 470 361 471 
3 42 692 693 
3 315 313 475 
3 476 304 683 
3 450 449 566 
3 681 366 804 
3 853 634 902 
3 466 467 525 
3 540 681 804 
3 169 45 673 
3 443 535 853 
3 41 152 692 
3 809 429 839 
3 664 311 929 
3 527 525 619 
3 472 471 504 
3 204 361 470 
3 204 202 361 
3 280 816 842 
3 144 47 676 
3 271 718 966 
3 645 501 646 
3 475 313 647 
3 546 742 905 
3 504 519 620 
3 466 465 467 
3 165 612 865 
3 351 694 695 
3 315 475 672 
3 655 677 678 
3 436 465 466 
3 470 471 472 
3 304 306 683 
3 479 706 793 
3 50 168 682 
3 507 505 603 
3 319 321 701 
3 560 894 921 
3 526 605 606 
3 525 467 526 
3 661 658 686 
3 210 208 279 
3 517 623 624 
3 472 504 505 
3 54 170 687 
3 170 621 947 
3 658 656 686 
3 678 677 679 
3 706 246 793 
3 398 399 426 
3 318 317 334 
3 316 315 317 
3 212 210 669 
3 493 713 821 
3 261 707 708 
3 654 652 655 
3 321 347 701 
3 395 280 396 
3 650 470 792 
3 397 396 398 
3 152 40 670 
3 167 38 671 
3 167 774 968 
3 479 705 706 
3 490 392 813 
3 466 525 527 
3 314 313 315 
3 541 341 675 
3 427 474 517 
3 715 716 719 
3 681 809 839 
3 691 689 783 
3 662 661 664 
3 196 194 468 
3 203 202 204 
3 341 320 675 
3 738 740 741 
3 265 224 666 
3 218 216 280 
3 224 222 666 
3 135 854 955 
3 612 613 614 
3 742 546 910 
3 391 435 436 
3 57 56 691 
3 325 327 417 
3 189 501 645 
3 166 754 976 
3 816 641 842 
3 226 224 265 
3 202 199 644 
3 148 43 693 
3 504 471 519 
3 208 205 650 
3 261 708 714 
3 652 651 677 
3 479 704 705 
3 44 148 673 
3 41 40 152 
3 37 36 153 
3 39 38 167 
3 201 199 202 
3 655 652 677 
3 660 658 661 
3 398 396 399 
3 426 399 427 
3 710 707 794 
3 654 655 656 
3 46 169 676 
3 569 490 651 
3 683 417 684 
3 569 651 652 
3 410 408 711 
3 218 280 395 
3 517 474 623 
3 390 449 450 
3 156 627 951 
3 397 398 400 
3 791 510 860 
3 707 261 794 
3 352 355 694 
3 171 691 783 
3 436 464 465 
3 42 41 692 
3 167 671 1000 
3 209 208 210 
3 738 739 740 
3 44 43 148 
3 136 687 688 
3 351 352 694 
3 306 325 683 
3 142 51 682 
3 114 137 739 
3 395 396 397 
3 207 205 208 
3 211 210 212 
3 279 208 650 
3 449 391 642 
3 46 45 169 
3 312 230 313 
3 438 437 667 
3 600 146 1026 
3 739 137 740 
3 506 505 507 
3 733 734 735 
3 620 519 855 
3 136 55 687 
3 48 47 144 
3 361 202 644 
3 730 732 733 
3 579 438 667 
3 733 732 734 
3 823 521 836 
3 715 157 716 
3 191 189 645 
3 50 49 168 
3 173 715 719 
3 153 36 680 
3 413 410 711 
3 540 588 681 
3 526 604 605 
3 325 417 683 
3 541 776 847 
3 52 51 142 
3 40 39 670 
3 38 37 671 
3 479 287 704 
3 282 284 710 
3 218 395 797 
3 287 289 704 
3 54 53 170 
3 391 335 435 
3 698 697 699 
3 695 696 697 
3 430 540 804 
3 58 171 703 
3 730 731 732 
3 56 55 136 
3 694 559 695 
3 43 42 693 
3 660 661 662 
3 113 114 739 
3 395 534 797 
3 489 392 490 
3 45 44 673 
3 201 202 203 
3 456 413 457 
3 450 566 567 
3 689 688 690 
3 451 558 559 
3 695 559 696 
3 729 172 730 
3 47 46 676 
3 675 334 776 
3 443 491 535 
3 540 587 588 
3 777 509 796 
3 695 697 698 
3 203 204 205 
3 51 50 682 
3 284 386 710 
3 295 331 401 
3 215 213 216 
3 554 447 555 
3 699 697 700 
3 704 401 705 
3 216 213 816 
3 552 409 826 
3 325 326 327 
3 217 216 218 
3 254 256 714 
3 436 435 464 
3 282 710 794 
3 457 413 711 
3 281 304 476 
3 56 136 691 
3 568 490 569 
3 452 777 796 
3 55 54 687 
3 136 688 689 
3 223 222 224 
3 730 172 731 
3 59 703 712 
3 653 652 654 
3 355 451 694 
3 58 57 171 
3 289 295 704 
3 427 473 474 
3 194 191 645 
3 281 476 824 
3 285 479 793 
3 447 406 713 
3 679 197 875 
3 506 631 831 
3 327 345 346 
3 614 613 615 
3 256 261 714 
3 306 308 325 
3 451 508 558 
3 478 300 779 
3 112 113 737 
3 465 464 469 
3 451 559 694 
3 707 549 708 
3 221 219 222 
3 295 401 704 
3 430 538 540 
3 355 418 451 
3 59 58 703 
3 207 208 209 
3 477 548 549 
3 209 210 211 
3 477 549 707 
3 737 113 739 
3 193 191 194 
3 746 745 747 
3 147 119 761 
3 386 441 477 
3 295 330 331 
3 775 445 800 
3 555 713 857 
3 555 447 713 
3 189 149 501 
3 173 103 715 
3 570 680 873 
3 211 212 213 
3 119 120 761 
3 565 485 742 
3 731 737 738 
3 547 904 931 
3 463 513 907 
3 543 775 800 
3 340 823 836 
3 264 262 773 
3 302 300 478 
3 443 454 491 
3 360 341 437 
3 177 745 746 
3 150 749 750 
3 139 60 712 
3 60 59 712 
3 745 744 748 
3 477 441 548 
3 285 287 479 
3 491 573 574 
3 485 404 742 
3 338 423 443 
3 759 757 760 
3 386 477 710 
3 708 549 709 
3 163 756 757 
3 177 744 745 
3 489 490 568 
3 120 121 758 
3 104 157 715 
3 104 105 157 
3 406 310 821 
3 150 10 749 
3 451 418 508 
3 636 449 642 
3 596 594 597 
3 676 169 791 
3 480 374 807 
3 526 467 604 
3 589 565 635 
3 472 505 506 
3 100 158 765 
3 99 100 765 
3 120 758 761 
3 758 757 759 
3 752 754 755 
3 328 269 403 
3 163 751 756 
3 744 141 748 
3 138 110 729 
3 269 264 773 
3 617 615 637 
3 102 103 173 
3 513 608 702 
3 289 294 295 
3 614 615 616 
3 10 11 749 
3 752 755 756 
3 30 29 768 
3 155 30 768 
3 540 538 587 
3 158 101 728 
3 749 746 750 
3 28 154 769 
3 403 269 773 
3 103 104 715 
3 102 173 728 
3 504 620 879 
3 36 35 680 
3 768 29 769 
3 163 757 758 
3 121 163 758 
3 564 485 565 
3 708 709 845 
3 770 528 771 
3 109 110 138 
3 175 762 763 
3 111 172 729 
3 446 406 447 
3 111 112 172 
3 110 111 729 
3 553 447 554 
3 499 562 563 
3 616 615 617 
3 792 506 831 
3 751 752 756 
3 301 302 781 
3 25 24 772 
3 178 25 772 
3 101 102 728 
3 382 310 406 
3 29 28 769 
3 456 457 572 
3 752 753 754 
3 751 186 752 
3 752 186 753 
3 11 12 177 
3 185 69 743 
3 80 79 187 
3 123 186 751 
3 13 141 744 
3 70 69 185 
3 68 161 743 
3 61 139 764 
3 76 160 762 
3 78 77 175 
3 69 68 743 
3 68 67 161 
3 175 77 762 
3 123 124 186 
3 97 98 159 
3 100 101 158 
3 163 122 751 
3 65 64 146 
3 174 62 764 
3 63 62 174 
3 122 123 751 
3 121 122 163 
3 61 60 139 
3 62 61 764 
3 76 75 160 
3 94 95 165 
3 77 76 762 
3 74 73 184 
3 92 93 529 
3 118 119 147 
3 116 117 176 
3 115 116 766 
3 114 115 137 
3 13 14 141 
3 12 13 744 
3 116 176 766 
3 16 17 151 
3 137 115 766 
3 34 33 156 
3 28 27 154 
3 31 30 155 
3 6 7 166 
3 9 10 150 
3 27 26 767 
3 19 20 164 
3 26 25 178 
3 20 21 770 
3 21 22 528 
3 177 12 744 
3 154 27 767 
3 26 178 767 
3 164 20 770 
3 21 528 770 
3 393 394 778 
3 172 112 737 
3 284 385 386 
3 758 759 761 
3 596 597 598 
3 477 707 710 
3 359 343 780 
3 328 403 404 
3 891 592 984 
3 499 563 780 
3 386 387 441 
3 177 746 749 
3 343 405 780 
3 536 537 580 
3 11 177 749 
3 331 330 338 
3 293 291 344 
3 393 342 394 
3 461 393 778 
3 312 313 314 
3 506 507 631 
3 222 219 797 
3 301 300 302 
3 405 498 499 
3 609 461 610 
3 452 546 547 
3 524 445 532 
3 440 389 445 
3 585 584 611 
3 299 297 300 
3 342 301 781 
3 536 524 537 
3 440 524 536 
3 344 291 803 
3 499 530 562 
3 402 374 480 
3 609 610 639 
3 600 598 601 
3 532 445 775 
3 379 377 380 
3 295 294 330 
3 339 421 422 
3 358 444 452 
3 564 565 589 
3 731 172 737 
3 440 445 524 
3 499 498 530 
3 738 737 739 
3 657 656 658 
3 583 483 584 
3 329 343 359 
3 405 461 498 
3 508 509 560 
3 498 461 609 
3 583 584 585 
3 325 308 326 
3 600 601 602 
3 571 453 586 
3 595 594 596 
3 388 380 389 
3 422 453 516 
3 452 547 777 
3 724 722 725 
3 376 378 482 
3 263 267 282 
3 439 389 440 
3 379 388 416 
3 548 441 720 
3 610 461 778 
3 405 393 461 
3 388 389 439 
3 381 333 419 
3 441 387 442 
3 414 500 576 
3 380 787 800 
3 386 385 387 
3 293 344 779 
3 593 521 594 
3 379 380 388 
3 522 438 579 
3 496 591 592 
3 322 320 341 
3 405 499 780 
3 378 377 379 
3 726 724 727 
3 482 483 581 
3 443 423 454 
3 720 442 721 
3 343 393 405 
3 422 421 453 
3 596 598 600 
3 441 442 720 
3 516 453 571 
3 442 387 789 
3 282 283 284 
3 268 264 269 
3 723 724 726 
3 118 147 801 
3 176 117 801 
3 394 342 781 
3 339 381 421 
3 299 300 301 
3 300 297 779 
3 256 260 261 
3 355 356 418 
3 402 480 481 
3 668 542 1018 
3 284 384 385 
3 491 454 573 
3 421 381 432 
3 482 378 483 
3 581 483 583 
3 484 404 485 
3 520 487 521 
3 373 371 374 
3 339 333 381 
3 556 480 825 
3 481 480 556 
3 276 333 339 
3 605 604 632 
3 270 269 328 
3 343 342 393 
3 721 722 723 
3 569 652 653 
3 402 481 543 
3 329 301 342 
3 299 301 329 
3 328 404 484 
3 329 342 343 
3 373 374 375 
3 723 722 724 
3 376 377 378 
3 375 374 402 
3 228 229 824 
3 787 543 800 
3 387 448 789 
3 721 442 722 
3 384 283 544 
3 258 255 259 
3 376 375 377 
3 250 252 285 
3 268 270 276 
3 496 485 564 
3 373 375 376 
3 268 269 270 
3 593 594 595 
3 380 377 787 
3 329 359 782 
3 136 689 691 
3 387 385 448 
3 276 270 333 
3 484 485 496 
3 298 297 299 
3 379 416 786 
3 496 564 591 
3 282 267 283 
3 586 453 784 
3 376 482 785 
3 284 283 384 
3 297 293 779 
3 384 544 545 
3 445 389 800 
3 267 264 268 
3 292 296 340 
3 452 444 546 
3 296 293 297 
3 725 722 789 
3 298 299 782 
3 699 700 881 
3 453 421 784 
3 584 483 786 
3 446 447 553 
3 396 280 842 
3 378 379 786 
3 358 452 796 
3 370 372 430 
3 421 432 784 
3 597 594 823 
3 382 406 446 
3 327 326 345 
3 481 556 557 
3 285 286 287 
3 419 333 790 
3 290 288 291 
3 520 521 593 
3 508 418 509 
3 299 329 782 
3 377 375 787 
3 352 354 355 
3 292 291 293 
3 538 431 539 
3 422 516 822 
3 263 264 267 
3 215 216 217 
3 296 297 298 
3 427 399 473 
3 217 218 219 
3 372 371 373 
3 483 378 786 
3 430 431 538 
3 722 442 789 
3 460 362 487 
3 287 288 289 
3 482 581 811 
3 659 658 660 
3 346 345 414 
3 292 293 296 
3 375 402 787 
3 256 258 260 
3 260 262 263 
3 328 484 790 
3 289 290 294 
3 263 282 794 
3 372 373 785 
3 430 372 431 
3 232 234 281 
3 773 262 795 
3 314 315 316 
3 263 262 264 
3 260 258 262 
3 270 328 790 
3 338 362 423 
3 251 249 253 
3 402 543 787 
3 247 249 250 
3 289 288 290 
3 285 252 286 
3 221 222 223 
3 333 270 790 
3 460 487 520 
3 460 520 625 
3 407 409 552 
3 256 255 258 
3 287 286 288 
3 373 376 785 
3 261 260 794 
3 395 397 534 
3 267 268 788 
3 418 356 796 
3 254 255 256 
3 268 276 788 
3 339 422 814 
3 286 252 486 
3 290 291 292 
3 425 462 463 
3 117 118 801 
3 243 241 244 
3 247 245 248 
3 254 253 255 
3 431 372 785 
3 250 251 252 
3 283 267 788 
3 251 253 254 
3 389 380 800 
3 544 283 788 
3 496 592 810 
3 790 484 810 
3 509 418 796 
3 258 259 795 
3 243 245 246 
3 250 249 251 
3 358 420 444 
3 419 790 810 
3 681 588 809 
3 788 276 814 
3 338 330 362 
3 411 424 425 
3 195 194 196 
3 434 368 455 
3 463 512 513 
3 229 232 824 
3 409 411 826 
3 356 357 358 
3 254 714 798 
3 225 224 226 
3 348 350 351 
3 420 357 433 
3 260 263 794 
3 247 248 249 
3 246 245 247 
3 544 788 814 
3 250 285 793 
3 243 244 245 
3 239 241 242 
3 262 258 795 
3 309 307 310 
3 370 371 372 
3 239 237 240 
3 423 362 460 
3 355 354 356 
3 573 454 575 
3 246 247 793 
3 513 607 608 
3 206 205 207 
3 356 358 796 
3 198 196 199 
3 488 392 489 
3 246 706 829 
3 469 626 630 
3 200 199 201 
3 280 216 816 
3 358 357 420 
3 590 561 627 
3 444 420 459 
3 621 515 622 
3 775 543 818 
3 332 310 382 
3 785 482 811 
3 369 368 434 
3 242 241 243 
3 281 303 304 
3 518 455 561 
3 292 340 799 
3 367 369 370 
3 446 553 634 
3 356 354 357 
3 367 365 368 
3 676 791 860 
3 460 625 812 
3 251 254 798 
3 431 785 811 
3 539 431 811 
3 247 250 793 
3 294 290 799 
3 330 294 802 
3 484 496 810 
3 316 317 318 
3 235 237 238 
3 239 240 241 
3 219 218 797 
3 518 561 590 
3 654 656 657 
3 543 481 818 
3 474 473 531 
3 364 336 392 
3 290 292 799 
3 556 825 841 
3 337 365 366 
3 252 251 798 
3 235 233 236 
3 367 368 369 
3 434 455 518 
3 374 371 807 
3 370 369 371 
3 521 487 836 
3 514 428 515 
3 487 362 802 
3 291 288 803 
3 603 505 879 
3 309 332 363 
3 274 272 278 
3 276 339 814 
3 238 237 239 
3 555 857 869 
3 304 305 306 
3 321 323 347 
3 235 236 237 
3 306 307 308 
3 472 506 792 
3 486 252 798 
3 366 681 839 
3 599 159 983 
3 84 126 135 
3 288 286 803 
3 332 382 383 
3 653 654 774 
3 281 234 303 
3 286 486 803 
3 370 430 804 
3 85 127 180 
3 309 310 332 
3 305 303 493 
3 470 472 792 
3 294 799 802 
3 351 350 352 
3 362 330 802 
3 454 423 812 
3 308 307 309 
3 371 369 807 
3 415 413 456 
3 423 460 812 
3 86 128 140 
3 366 367 804 
3 576 500 577 
3 369 434 807 
3 306 305 307 
3 234 233 235 
3 876 548 880 
3 360 437 438 
3 480 807 825 
3 814 422 822 
3 87 129 179 
3 412 410 413 
3 481 557 818 
3 352 353 354 
3 214 213 215 
3 366 365 367 
3 845 709 850 
3 347 323 348 
3 469 464 626 
3 433 357 806 
3 352 350 353 
3 354 353 806 
3 304 303 305 
3 680 35 873 
3 88 130 143 
3 594 521 823 
3 231 230 312 
3 275 337 839 
3 322 341 360 
3 575 454 812 
3 357 354 806 
3 545 544 822 
3 326 308 805 
3 243 246 829 
3 414 428 500 
3 397 400 838 
3 274 278 813 
3 514 515 621 
3 367 370 804 
3 654 657 774 
3 365 364 828 
3 364 392 488 
3 334 390 776 
3 597 823 843 
3 337 364 365 
3 228 685 849 
3 89 131 181 
3 514 621 665 
3 319 318 320 
3 544 814 822 
3 414 345 428 
3 166 7 846 
3 220 219 221 
3 309 363 805 
3 488 489 808 
3 489 568 570 
3 308 309 805 
3 455 368 828 
3 229 227 230 
3 411 425 826 
3 90 132 145 
3 660 662 663 
3 91 133 182 
3 134 91 817 
3 232 281 824 
3 82 134 149 
3 502 257 503 
3 223 224 225 
3 235 238 815 
3 348 323 349 
3 232 233 234 
3 434 518 825 
3 657 658 659 
3 340 296 843 
3 500 428 514 
3 242 243 829 
3 364 488 828 
3 234 235 815 
3 598 597 852 
3 368 365 828 
3 392 336 813 
3 310 307 821 
3 229 231 232 
3 425 424 462 
3 203 205 206 
3 348 349 350 
3 319 320 321 
3 534 397 838 
3 211 213 214 
3 601 598 856 
3 337 336 364 
3 232 231 233 
3 407 552 832 
3 363 332 820 
3 807 434 825 
3 463 462 512 
3 429 275 839 
3 535 491 867 
3 303 234 815 
3 332 383 820 
3 217 219 220 
3 561 455 844 
3 513 512 607 
3 305 493 821 
3 321 320 322 
3 415 456 458 
3 220 257 495 
3 229 230 231 
3 307 305 821 
3 338 443 853 
3 321 322 323 
3 493 303 815 
3 198 199 200 
3 601 856 862 
3 200 201 311 
3 412 413 415 
3 195 196 198 
3 192 191 193 
3 206 207 266 
3 515 428 830 
3 823 340 843 
3 275 336 337 
3 489 570 808 
3 193 194 195 
3 312 314 492 
3 415 458 511 
3 825 518 841 
3 221 223 819 
3 220 221 257 
3 231 312 827 
3 336 274 813 
3 473 399 842 
3 502 503 533 
3 399 396 842 
3 345 326 830 
3 511 578 618 
3 236 233 827 
3 360 438 494 
3 568 569 851 
3 531 473 641 
3 869 242 882 
3 511 458 578 
3 275 274 336 
3 799 340 836 
3 225 226 227 
3 494 438 522 
3 862 563 866 
3 214 215 324 
3 327 346 877 
3 462 424 510 
3 522 579 582 
3 802 799 836 
3 435 672 864 
3 273 275 429 
3 344 850 871 
3 233 231 827 
3 598 852 856 
3 495 257 502 
3 312 492 827 
3 214 324 407 
3 494 522 523 
3 409 410 411 
3 326 805 830 
3 608 607 979 
3 411 412 424 
3 319 701 848 
3 296 298 843 
3 518 590 841 
3 665 142 883 
3 428 345 830 
3 228 227 229 
3 407 408 409 
3 780 563 862 
3 724 725 859 
3 411 410 412 
3 337 366 839 
3 597 843 852 
3 487 802 836 
3 94 165 865 
3 529 93 865 
3 198 200 277 
3 409 408 410 
3 478 779 871 
3 206 266 497 
3 503 257 819 
3 690 874 998 
3 225 227 228 
3 34 156 873 
3 190 189 191 
3 257 221 819 
3 344 803 850 
3 316 318 319 
3 486 798 845 
3 407 324 408 
3 209 211 832 
3 273 274 275 
3 497 266 550 
3 497 550 551 
3 755 754 908 
3 798 714 845 
3 641 473 842 
3 201 203 833 
3 311 201 833 
3 622 515 858 
3 7 8 846 
3 349 323 837 
3 215 217 834 
3 714 708 845 
3 91 182 817 
3 149 134 817 
3 273 272 274 
3 390 450 776 
3 850 709 871 
3 383 382 863 
3 323 322 837 
3 144 676 860 
3 828 488 844 
3 549 548 876 
3 843 298 852 
3 760 757 878 
3 446 634 863 
3 324 215 834 
3 756 755 878 
3 455 828 844 
3 322 360 837 
3 203 206 833 
3 211 214 832 
3 239 242 869 
3 705 401 898 
3 488 808 844 
3 401 331 902 
3 220 495 834 
3 217 220 834 
3 126 83 854 
3 360 494 837 
3 412 415 840 
3 192 193 197 
3 415 511 840 
3 464 435 864 
3 656 655 896 
3 510 424 840 
3 501 149 817 
3 424 412 840 
3 298 782 852 
3 711 408 868 
3 486 845 850 
3 803 486 850 
3 569 653 851 
3 706 705 895 
3 214 407 832 
3 685 684 901 
3 331 338 853 
3 819 223 849 
3 848 701 881 
3 713 493 857 
3 492 314 848 
3 206 497 833 
3 492 848 881 
3 266 207 872 
3 515 830 858 
3 830 805 858 
3 223 225 849 
3 271 272 273 
3 852 782 856 
3 782 359 856 
3 450 567 847 
3 266 872 890 
3 601 862 866 
3 517 624 903 
3 478 876 880 
3 135 126 854 
3 856 359 862 
3 316 319 848 
3 727 724 859 
3 877 346 936 
3 271 197 272 
3 192 197 271 
3 324 834 868 
3 90 145 870 
3 182 133 870 
3 359 780 862 
3 898 401 902 
3 555 869 882 
3 382 446 863 
3 815 238 857 
3 314 316 848 
3 133 90 870 
3 190 191 192 
3 93 94 865 
3 805 363 858 
3 225 228 849 
3 514 665 883 
3 498 609 893 
3 493 815 857 
3 602 601 866 
3 881 700 885 
3 577 500 883 
3 834 495 868 
3 457 711 892 
3 491 574 867 
3 255 253 894 
3 832 552 872 
3 857 238 869 
3 209 832 872 
3 626 464 864 
3 572 457 900 
3 238 239 869 
3 779 344 871 
3 207 209 872 
3 969 183 982 
3 684 417 917 
3 638 135 955 
3 419 810 891 
3 478 871 876 
3 425 463 899 
3 197 193 875 
3 89 181 887 
3 35 34 873 
3 83 125 183 
3 145 132 887 
3 554 555 882 
3 548 720 880 
3 505 504 879 
3 911 696 914 
3 895 705 898 
3 408 324 868 
3 417 327 877 
3 662 964 974 
3 776 450 847 
3 709 549 876 
3 880 720 884 
3 773 795 904 
3 188 149 189 
3 193 195 875 
3 18 639 940 
3 757 756 878 
3 582 579 926 
3 742 404 905 
3 720 721 884 
3 236 885 906 
3 697 696 911 
3 701 699 881 
3 302 478 880 
3 198 277 888 
3 884 721 886 
3 236 827 885 
3 872 552 890 
3 588 587 960 
3 346 414 912 
3 721 723 886 
3 302 880 884 
3 88 143 897 
3 240 237 906 
3 886 723 889 
3 160 75 913 
3 74 184 913 
3 181 131 897 
3 781 302 884 
3 559 558 916 
3 638 636 943 
3 500 514 883 
3 546 444 910 
3 916 558 918 
3 901 684 917 
3 132 89 887 
3 723 726 889 
3 9 150 915 
3 188 189 190 
3 781 884 886 
3 242 829 882 
3 871 709 876 
3 629 668 982 
3 937 175 1011 
3 244 241 914 
3 820 690 935 
3 457 892 900 
3 394 781 886 
3 394 886 889 
3 885 700 906 
3 459 741 991 
3 668 969 982 
3 778 394 889 
3 867 574 874 
3 508 560 919 
3 552 826 890 
3 649 648 903 
3 550 266 890 
3 625 139 978 
3 107 108 926 
3 24 23 922 
3 71 70 923 
3 73 72 924 
3 248 245 918 
3 711 868 892 
3 827 492 885 
3 810 592 891 
3 83 183 854 
3 775 818 920 
3 195 198 888 
3 82 149 188 
3 48 144 933 
3 846 8 915 
3 168 49 933 
3 875 195 888 
3 253 249 921 
3 868 495 892 
3 248 918 919 
3 527 619 943 
3 919 560 921 
3 277 200 909 
3 530 498 893 
3 244 914 916 
3 550 890 899 
3 926 108 1013 
3 240 906 911 
3 655 678 896 
3 259 255 894 
3 560 509 928 
3 495 502 892 
3 734 353 980 
3 87 179 925 
3 143 130 925 
3 259 928 931 
3 554 882 895 
3 819 849 901 
3 890 826 899 
3 659 660 932 
3 131 88 897 
3 762 160 934 
3 607 512 957 
3 492 881 885 
3 135 638 950 
3 648 517 903 
3 829 706 895 
3 497 551 929 
3 882 829 895 
3 542 847 1018 
3 553 554 898 
3 619 525 942 
3 849 685 901 
3 554 895 898 
3 892 502 900 
3 416 637 1017 
3 795 259 931 
3 566 638 955 
3 553 898 902 
3 526 606 942 
3 926 579 996 
3 187 79 937 
3 78 175 937 
3 740 137 939 
3 634 553 902 
3 403 904 905 
3 403 773 904 
3 899 463 907 
3 502 533 900 
3 826 425 899 
3 240 911 914 
3 96 97 938 
3 174 764 973 
3 404 403 905 
3 363 820 935 
3 503 819 901 
3 586 784 908 
3 311 833 929 
3 237 236 906 
3 738 741 945 
3 700 697 911 
3 17 18 940 
3 200 311 909 
3 444 459 910 
3 727 859 1010 
3 551 550 907 
3 414 576 912 
3 894 560 928 
3 915 150 989 
3 503 901 917 
3 75 74 913 
3 732 731 945 
3 791 169 957 
3 670 167 968 
3 184 924 1008 
3 627 561 951 
3 692 152 932 
3 241 240 914 
3 244 916 918 
3 688 687 947 
3 162 107 926 
3 8 9 915 
3 727 1010 1024 
3 259 894 928 
3 696 559 916 
3 86 140 941 
3 179 129 941 
3 587 538 948 
3 906 700 911 
3 822 516 944 
3 456 572 949 
3 146 64 953 
3 63 174 953 
3 245 244 918 
3 173 719 960 
3 582 926 1013 
3 85 180 946 
3 735 734 980 
3 140 128 946 
3 533 503 917 
3 558 508 919 
3 914 696 916 
3 736 523 972 
3 580 937 1011 
3 918 558 919 
3 532 775 920 
3 440 536 958 
3 772 24 922 
3 70 185 923 
3 184 73 924 
3 248 919 921 
3 130 87 925 
3 249 248 921 
3 66 65 959 
3 84 135 950 
3 180 127 950 
3 622 858 935 
3 765 158 948 
3 537 524 961 
3 550 899 907 
3 576 577 954 
3 662 664 964 
3 613 611 965 
3 928 777 931 
3 509 777 928 
3 934 160 1014 
3 949 576 954 
3 157 105 988 
3 529 865 930 
3 612 614 930 
3 611 584 965 
3 494 523 962 
3 777 547 931 
3 557 769 992 
3 786 416 965 
3 142 665 995 
3 660 663 932 
3 833 497 929 
3 844 808 951 
3 448 385 971 
3 384 545 971 
3 625 520 973 
3 138 736 972 
3 571 915 989 
3 49 48 933 
3 6 166 976 
3 865 612 930 
3 689 690 998 
3 564 589 977 
3 147 761 984 
3 31 155 981 
3 99 765 983 
3 841 155 986 
3 688 947 1022 
3 159 98 983 
3 162 926 996 
3 772 922 963 
3 419 891 1002 
3 557 556 986 
3 67 66 985 
3 657 659 968 
3 349 837 962 
3 719 716 956 
3 747 745 987 
3 572 912 949 
3 52 142 995 
3 763 762 934 
3 170 53 995 
3 523 522 972 
3 600 602 959 
3 350 349 980 
3 755 908 1007 
3 171 783 993 
3 680 570 994 
3 590 627 981 
3 583 585 938 
3 190 192 966 
3 636 527 943 
3 692 932 1009 
3 750 746 1001 
3 567 969 1018 
3 912 576 949 
3 95 96 999 
3 570 568 994 
3 3 80 1003 
3 23 3 1003 
3 124 0 1004 
3 0 4 1004 
3 72 1 1005 
3 1 92 1005 
3 2 71 1006 
3 22 2 1006 
3 753 186 1004 
3 109 138 1013 
3 866 563 975 
3 511 618 990 
3 432 381 1002 
3 596 600 1026 
3 16 151 1024 
3 141 14 1010 
3 637 615 1017 
3 806 734 1012 
3 572 900 936 
3 891 760 1002 
3 789 448 1020 
3 932 663 1009 
3 79 78 937 
3 859 141 1010 
3 614 616 1008 
3 510 791 1021 
3 964 702 974 
3 929 551 964 
3 97 159 938 
3 533 877 936 
3 851 653 1000 
3 516 571 989 
3 137 766 939 
3 462 510 1021 
3 858 363 935 
3 734 732 1012 
3 617 934 1014 
3 743 161 975 
3 510 840 990 
3 860 510 990 
3 151 17 940 
3 628 629 982 
3 129 86 941 
3 525 526 942 
3 716 718 956 
3 900 533 936 
3 818 557 992 
3 687 170 947 
3 731 738 945 
3 740 939 991 
3 128 85 946 
3 637 439 970 
3 545 822 944 
3 808 570 1016 
3 908 784 1007 
3 621 622 947 
3 538 539 948 
3 682 168 952 
3 458 456 949 
3 718 717 966 
3 712 575 978 
3 570 873 1016 
3 922 187 963 
3 127 84 950 
3 561 844 951 
3 169 673 957 
3 947 622 1022 
3 458 949 954 
3 64 63 953 
3 664 929 964 
3 81 628 1023 
3 567 566 955 
3 663 662 974 
3 429 809 956 
3 530 771 967 
3 578 458 954 
3 146 953 1026 
3 439 440 958 
3 142 682 1015 
3 812 625 978 
3 575 812 978 
3 944 750 1001 
3 65 146 959 
3 728 173 960 
3 524 532 961 
3 741 740 991 
3 536 580 1011 
3 617 637 970 
3 753 5 976 
3 837 494 962 
3 551 702 964 
3 155 768 986 
3 580 537 963 
3 883 142 1015 
3 584 786 965 
3 176 801 977 
3 667 629 996 
3 801 591 977 
3 635 459 991 
3 125 81 1023 
3 448 987 1020 
3 562 530 967 
3 774 657 968 
3 192 271 966 
3 385 384 971 
3 520 593 973 
3 574 783 998 
3 952 168 997 
3 791 957 1021 
3 702 608 974 
3 939 635 991 
3 522 582 972 
3 563 562 975 
3 754 753 976 
3 5 6 976 
3 854 183 969 
3 591 564 977 
3 139 712 978 
3 148 693 979 
3 920 818 992 
3 168 933 997 
3 874 574 998 
3 965 416 1017 
3 32 31 981 
3 353 350 980 
3 98 99 983 
3 732 945 1012 
3 761 759 984 
3 161 67 985 
3 717 157 988 
3 878 755 1007 
3 745 748 987 
3 979 693 1009 
3 556 841 986 
3 153 680 994 
3 150 750 989 
3 579 667 996 
3 953 595 1026 
3 922 23 1003 
3 71 923 1006 
3 924 72 1005 
3 783 689 998 
3 432 878 1007 
3 951 808 1016 
3 147 984 1025 
3 703 171 993 
3 851 153 994 
3 629 162 996 
3 840 511 990 
3 439 958 970 
3 769 154 992 
3 53 52 995 
3 160 913 1014 
3 693 692 1009 
3 568 851 994 
3 934 617 970 
3 979 1009 1019 
3 746 747 1001 
3 165 95 999 
3 618 578 997 
3 80 187 1003 
3 186 124 1004 
3 92 529 1005 
3 528 22 1006 
3 381 419 1002 
3 690 688 1022 
3 653 774 1000 
3 154 920 992 
3 784 432 1007 
3 969 668 1018 
3 14 15 1010 
3 175 763 1011 
3 108 109 1013 
3 873 156 1016 
3 616 617 1014 
3 433 806 1012 
3 615 613 1017 
3 933 618 997 
3 1010 15 1024 
3 183 125 1023 
3 545 944 1001 
3 725 789 1020 
3 15 16 1024 
3 577 883 1015 
3 748 141 1027 
3 859 725 1027 
3 592 591 1025 
3 595 596 1026 
3 512 462 1021 
3 847 567 1018 
3 187 922 1003 
3 923 528 1006 
3 529 924 1005 
3 913 616 1014 
3 1020 748 1027 
3 725 1020 1027 
3 141 859 1027 
3 622 935 1022 
3 945 433 1012 
3 957 512 1021 
3 930 614 1008 
3 156 951 1016 
3 935 690 1022 
3 613 965 1017 
3 663 974 1019 
3 952 577 1015 
3 682 952 1015 
3 982 183 1023 
3 974 608 1019 
3 608 979 1019 
3 984 592 1025 
3 987 748 1020 
3 628 982 1023 
3 1009 663 1019 

CELL_TYPES 1919
5
5
5
5
5
5
5
5
5
5
5
5
5
5
5
5
5
5
5
5
5
5
5
5
5
5
5
5
5
5
5
5
5
5
5
5
5
5
5
5
5
5
5
5
5
5
5
5
5
5
5
5
5
5
5
5
5
5
5
5
5
5
5
5
5
5
5
5
5
5
5
5
5
5
5
5
5
5
5
5
5
5
5
5
5
5
5
5
5
5
5
5
5
5
5
5
5
5
5
5
5
5
5
5
5
5
5
5
5
5
5
5
5
5
5
5
5
5
5
5
5
5
5
5
5
5
5
5
5
5
5
5
5
5
5
5
5
5
5
5
5
5
5
5
5
5
5
5
5
5
5
5
5
5
5
5
5
5
5
5
5
5
5
5
5
5
5
5
5
5
5
5
5
5
5
5
5
5
5
5
5
5
5
5
5
5
5
5
5
5
5
5
5
5
5
5
5
5
5
5
5
5
5
5
5
5
5
5
5
5
5
5
5
5
5
5
5
5
5
5
5
5
5
5
5
5
5
5
5
5
5
5
5
5
5
5
5
5
5
5
5
5
5
5
5
5
5
5
5
5
5
5
5
5
5
5
5
5
5
5
5
5
5
5
5
5
5
5
5
5
5
5
5
5
5
5
5
5
5
5
5
5
5
5
5
5
5
5
5
5
5
5
5
5
5
5
5
5
5
5
5
5
5
5
5
5
5
5
5
5
5
5
5
5
5
5
5
5
5
5
5
5
5
5
5
5
5
5
5
5
5
5
5
5
5
5
5
5
5
5
5
5
5
5
5
5
5
5
5
5
5
5
5
5
5
5
5
5
5
5
5
5
5
5
5
5
5
5
5
5
5
5
5
5
5
5
5
5
5
5
5
5
5
5
5
5
5
5
5
5
5
5
5
5
5
5
5
5
5
5
5
5
5
5
5
5
5
5
5
5
5
5
5
5
5
5
5
5
5
5
5
5
5
5
5
5
5
5
5
5
5
5
5
5
5
5
5
5
5
5
5
5
5
5
5
5
5
5
5
5
5
5
5
5
5
5
5
5
5
5
5
5
5
5
5
5
5
5
5
5
5
5
5
5
5
5
5
5
5
5
5
5
5
5
5
5
5
5
5
5
5
5
5
5
5
5
5
5
5
5
5
5
5
5
5
5
5
5
5
5
5
5
5
5
5
5
5
5
5
5
5
5
5
5
5
5
5
5
5
5
5
5
5
5
5
5
5
5
5
5
5
5
5
5
5
5
5
5
5
5
5
5
5
5
5
5
5
5
5
5
5
5
5
5
5
5
5
5
5
5
5
5
5
5
5
5
5
5
5
5
5
5
5
5
5
5
5
5
5
5
5
5
5
5
5
5
5
5
5
5
5
5
5
5
5
5
5
5
5
5
5
5
5
5
5
5
5
5
5
5
5
5
5
5
5
5
5
5
5
5
5
5
5
5
5
5
5
5
5
5
5
5
5
5
5
5
5
5
5
5
5
5
5
5
5
5
5
5
5
5
5
5
5
5
5
5
5
5
5
5
5
5
5
5
5
5
5
5
5
5
5
5
5
5
5
5
5
5
5
5
5
5
5
5
5
5
5
5
5
5
5
5
5
5
5
5
5
5
5
5
5
5
5
5
5
5
5
5
5
5
5
5
5
5
5
5
5
5
5
5
5
5
5
5
5
5
5
5
5
5
5
5
5
5
5
5
5
5
5
5
5
5
5
5
5
5
5
5
5
5
5
5
5
5
5
5
5
5
5
5
5
5
5
5
5
5
5
5
5
5
5
5
5
5
5
5
5
5
5
5
5
5
5
5
5
5
5
5
5
5
5
5
5
5
5
5
5
5
5
5
5
5
5
5
5
5
5
5
5
5
5
5
5
5
5
5
5
5
5
5
5
5
5
5
5
5
5
5
5
5
5
5
5
5
5
5
5
5
5
5
5
5
5
5
5
5
5
5
5
5
5
5
5
5
5
5
5
5
5
5
5
5
5
5
5
5
5
5
5
5
5
5
5
5
5
5
5
5
5
5
5
5
5
5
5
5
5
5
5
5
5
5
5
5
5
5
5
5
5
5
5
5
5
5
5
5
5
5
5
5
5
5
5
5
5
5
5
5
5
5
5
5
5
5
5
5
5
5
5
5
5
5
5
5
5
5
5
5
5
5
5
5
5
5
5
5
5
5
5
5
5
5
5
5
5
5
5
5
5
5
5
5
5
5
5
5
5
5
5
5
5
5
5
5
5
5
5
5
5
5
5
5
5
5
5
5
5
5
5
5
5
5
5
5
5
5
5
5
5
5
5
5
5
5
5
5
5
5
5
5
5
5
5
5
5
5
5
5
5
5
5
5
5
5
5
5
5
5
5
5
5
5
5
5
5
5
5
5
5
5
5
5
5
5
5
5
5
5
5
5
5
5
5
5
5
5
5
5
5
5
5
5
5
5
5
5
5
5
5
5
5
5
5
5
5
5
5
5
5
5
5
5
5
5
5
5
5
5
5
5
5
5
5
5
5
5
5
5
5
5
5
5
5
5
5
5
5
5
5
5
5
5
5
5
5
5
5
5
5
5
5
5
5
5
5
5
5
5
5
5
5
5
5
5
5
5
5
5
5
5
5
5
5
5
5
5
5
5
5
5
5
5
5
5
5
5
5
5
5
5
5
5
5
5
5
5
5
5
5
5
5
5
5
5
5
5
5
5
5
5
5
5
5
5
5
5
5
5
5
5
5
5
5
5
5
5
5
5
5
5
5
5
5
5
5
5
5
5
5
5
5
5
5
5
5
5
5
5
5
5
5
5
5
5
5
5
5
5
5
5
5
5
5
5
5
5
5
5
5
5
5
5
5
5
5
5
5
5
5
5
5
5
5
5
5
5
5
5
5
5
5
5
5
5
5
5
5
5
5
5
5
5
5
5
5
5
5
5
5
5
5
5
5
5
5
5
5
5
5
5
5
5
5
5
5
5
5
5
5
5
5
5
5
5
5
5
5
5
5
5
5
5
5
5
5
5
5
5
5
5
5
5
5
5
5
5
5
5
5
5
5
5
5
5
5
5
5
5
5
5
5
5
5
5
5
5
5
5
5
5
5
5
5
5
5
5
5
5
5
5
5
5
5
5
5
5
5
5
5
5
5
5
5
5
5
5
5
5
5
5
5
5
5
5
5
5
5
5
5
5
5
5
5
5
5
5
5
5
5
5
5
5
5
5
5
5
5
5
5
5
5
5
5
5
5
5
5
5
5
5
5
5
5
5
5
5
5
5
5
5
5
5
5
5
5
5
5
5
5
5
5
5
5
5
5
5
5
5
5
5
5
5
5
5
5
5
5
5
5
5
5
5
5
5
5
5
5
5
5
5
5
5
5
5
5
5
5
5
5
5
5
5
5
5
5
5
5
5
5
5
5
5
5
5
5
5
5
5
5
5
5
5
5
5
5
5
5
5
5
5
5
5
5
5
5
5
5
5
5
5
5
5
5
5
5
5
5
5
5
5
5
5
5
5
5
5
5
5
5
5
5
5
5
5
5
5
5
5
5
5
5
5
5
5
5
5
5
5
5
5
5
5
5
5
5
5
5
5
5
5
5
5
5
5
5
5
5
5
5
5
5
5
5
5
5
5
5
5
5
5
5
5
5
5
5
5
5
5
5
5
5
5
5
5
5
5
5
5
5
5
5
5
5
5
5
5
5
5
5
5
5
5
5
5
5
5
5
5
5
5
5
5
5
5
5
5
5
5
5
5
5
5
5
5
5
5
5
5
5
5
5
5
5
5
5
5
5
5
5
5
5
5
5
5
5
5
5
5
5
5
5
5
5
5
5
5
5
5
5
5
5
5
5
5
5
5
5
5
5
5
5
5
5
5
5
5
5
5
5
5
5
5
5
5
5
5
5
5
5
5
5
5
5
5
5
5
5
5
5
5
5
5
5
5
5
5
5
5
5
5
5
5
5
5
5
5
5
5
5
5
5
5
5
5
5
5
5
5
5
5
5
5
5
5
5
5
5
5
5
5
5
5
5
5
5
5
5
5
5
5
5
5
5
5
5
5
5
5
5
5
5
5
5
5
5
5
5
5
5
5
5
5
5
5
5
5
5
5
5
5
5
5
5
5
5
5
5
5
5
5
5
5
5
5
5
5
5
5
5
5
5
5
5
5
5
5
5
5
5
5
5
5
5
5
5
5
5
5
5
5
5
5
5
5
5
5
5
5
5
5
5
5
5
5
5
5
5
5
5
5
5
5
5
5
5
5
5
5
5
5
5
5
5
5
5
5
5
5
5
5
5
5
5
5
5
5
5
5
5
5
5
5
5
5
5
5
5
5
5
5
5
5
5
5
5
5
5
5
5

POINT_DATA 1028

VECTORS coord float
0.0 0.0 0.0 
5.000000000000e+01 -1.000000000000e+01 0.0 
0.0 -2.000000000000e+01 0.0 
5.000000000000e+01 -2.000000000000e+01 0.0 
0.0 -9.999999999991e-01 0.0 
0.0 -1.999999999998e+00 0.0 
0.0 -2.999999999997e+00 0.0 
0.0 -3.999999999994e+00 0.0 
0.0 -4.999999999991e+00 0.0 
0.0 -5.999999999988e+00 0.0 
0.0 -6.999999999985e+00 0.0 
0.0 -7.999999999982e+00 0.0 
0.0 -8.999999999983e+00 0.0 
0.0 -9.999999999985e+00 0.0 
0.0 -1.099999999999e+01 0.0 
0.0 -1.199999999999e+01 0.0 
0.0 -1.299999999999e+01 0.0 
0.0 -1.399999999999e+01 0.0 
0.0 -1.499999999999e+01 0.0 
0.0 -1.599999999999e+01 0.0 
0.0 -1.700000000000e+01 0.0 
0.0 -1.800000000000e+01 0.0 
0.0 -1.900000000000e+01 0.0 
4.900000000001e+01 -2.000000000000e+01 0.0 
4.800000000001e+01 -2.000000000000e+01 0.0 
4.700000000002e+01 -2.000000000000e+01 0.0 
4.600000000003e+01 -2.000000000000e+01 0.0 
4.500000000004e+01 -2.000000000000e+01 0.0 
4.400000000004e+01 -2.000000000000e+01 0.0 
4.300000000005e+01 -2.000000000000e+01 0.0 
4.200000000006e+01 -2.000000000000e+01 0.0 
4.100000000006e+01 -2.000000000000e+01 0.0 
4.000000000007e+01 -2.000000000000e+01 0.0 
3.900000000008e+01 -2.000000000000e+01 0.0 
3.800000000009e+01 -2.000000000000e+01 0.0 
3.700000000009e+01 -2.000000000000e+01 0.0 
3.600000000010e+01 -2.000000000000e+01 0.0 
3.500000000011e+01 -2.000000000000e+01 0.0 
3.400000000011e+01 -2.000000000000e+01 0.0 
3.300000000012e+01 -2.000000000000e+01 0.0 
3.200000000013e+01 -2.000000000000e+01 0.0 
3.100000000013e+01 -2.000000000000e+01 0.0 
3.000000000013e+01 -2.000000000000e+01 0.0 
2.900000000013e+01 -2.000000000000e+01 0.0 
2.800000000013e+01 -2.000000000000e+01 0.0 
2.700000000013e+01 -2.000000000000e+01 0.0 
2.600000000013e+01 -2.000000000000e+01 0.0 
2.500000000013e+01 -2.000000000000e+01 0.0 
2.400000000013e+01 -2.000000000000e+01 0.0 
2.300000000013e+01 -2.000000000000e+01 0.0 
2.200000000013e+01 -2.000000000000e+01 0.0 
2.100000000013e+01 -2.000000000000e+01 0.0 
2.000000000013e+01 -2.000000000000e+01 0.0 
1.900000000013e+01 -2.000000000000e+01 0.0 
1.800000000013e+01 -2.000000000000e+01 0.0 
1.700000000012e+01 -2.000000000000e+01 0.0 
1.600000000011e+01 -2.000000000000e+01 0.0 
1.500000000011e+01 -2.000000000000e+01 0.0 
1.400000000010e+01 -2.000000000000e+01 0.0 
1.300000000009e+01 -2.000000000000e+01 0.0 
1.200000000009e+01 -2.000000000000e+01 0.0 
1.100000000008e+01 -2.000000000000e+01 0.0 
1.000000000007e+01 -2.000000000000e+01 0.0 
9.000000000064e+00 -2.000000000000e+01 0.0 
8.000000000057e+00 -2.000000000000e+01 0.0 
7.000000000050e+00 -2.000000000000e+01 0.0 
6.000000000043e+00 -2.000000000000e+01 0.0 
5.000000000036e+00 -2.000000000000e+01 0.0 
4.000000000028e+00 -2.000000000000e+01 0.0 
3.000000000021e+00 -2.000000000000e+01 0.0 
2.000000000014e+00 -2.000000000000e+01 0.0 
1.000000000007e+00 -2.000000000000e+01 0.0 
5.000000000000e+01 -1.100000000000e+01 0.0 
5.000000000000e+01 -1.200000000000e+01 0.0 
5.000000000000e+01 -1.300000000000e+01 0.0 
5.000000000000e+01 -1.400000000000e+01 0.0 
5.000000000000e+01 -1.500000000000e+01 0.0 
5.000000000000e+01 -1.600000000000e+01 0.0 
5.000000000000e+01 -1.700000000000e+01 0.0 
5.000000000000e+01 -1.800000000000e+01 0.0 
5.000000000000e+01 -1.900000000000e+01 0.0 
2.000000000000e+01 0.0 0.0 
3.500000000000e+01 -1.000000000000e+01 0.0 
2.150000000000e+01 -1.000000000000e+00 0.0 
2.300000000000e+01 -2.000000000000e+00 0.0 
2.450000000000e+01 -3.000000000000e+00 0.0 
2.600000000000e+01 -4.000000000000e+00 0.0 
2.750000000000e+01 -5.000000000000e+00 0.0 
2.900000000000e+01 -6.000000000000e+00 0.0 
3.050000000000e+01 -7.000000000000e+00 0.0 
3.200000000000e+01 -8.000000000000e+00 0.0 
3.350000000000e+01 -9.000000000000e+00 0.0 
4.900000000000e+01 -1.000000000000e+01 0.0 
4.800000000000e+01 -1.000000000000e+01 0.0 
4.700000000000e+01 -1.000000000000e+01 0.0 
4.600000000000e+01 -1.000000000000e+01 0.0 
4.500000000000e+01 -1.000000000000e+01 0.0 
4.400000000000e+01 -1.000000000000e+01 0.0 
4.300000000000e+01 -1.000000000000e+01 0.0 
4.200000000000e+01 -1.000000000000e+01 0.0 
4.100000000000e+01 -1.000000000000e+01 0.0 
4.000000000000e+01 -1.000000000000e+01 0.0 
3.900000000000e+01 -1.000000000000e+01 0.0 
3.800000000000e+01 -1.000000000000e+01 0.0 
3.700000000000e+01 -1.000000000000e+01 0.0 
3.600000000000e+01 -1.000000000000e+01 0.0 
1.900000000000e+01 0.0 0.0 
1.800000000000e+01 0.0 0.0 
1.700000000000e+01 0.0 0.0 
1.600000000000e+01 0.0 0.0 
1.500000000000e+01 0.0 0.0 
1.400000000000e+01 0.0 0.0 
1.300000000000e+01 0.0 0.0 
1.200000000000e+01 0.0 0.0 
1.100000000000e+01 0.0 0.0 
1.000000000000e+01 0.0 0.0 
9.000000000000e+00 0.0 0.0 
8.000000000000e+00 0.0 0.0 
7.000000000000e+00 0.0 0.0 
6.000000000000e+00 0.0 0.0 
5.000000000000e+00 0.0 0.0 
4.000000000000e+00 0.0 0.0 
3.000000000000e+00 0.0 0.0 
2.000000000000e+00 0.0 0.0 
1.000000000000e+00 0.0 0.0 
2.075000000000e+01 -5.000000000006e-01 0.0 
2.225000000000e+01 -1.500000000000e+00 0.0 
2.375000000000e+01 -2.500000000000e+00 0.0 
2.525000000000e+01 -3.500000000000e+00 0.0 
2.675000000000e+01 -4.500000000000e+00 0.0 
2.825000000000e+01 -5.500000000000e+00 0.0 
2.975000000000e+01 -6.500000000000e+00 0.0 
3.125000000000e+01 -7.500000000000e+00 0.0 
3.275000000000e+01 -8.500000000000e+00 0.0 
3.425000000000e+01 -9.500000000000e+00 0.0 
2.226951693683e+01 -2.403913980114e+00 0.0 
1.650149491944e+01 -1.913490915758e+01 0.0 
1.050042386896e+01 -8.504605092970e-01 0.0 
1.553146524712e+01 -8.281255032105e-01 0.0 
1.150000000008e+01 -1.913397459621e+01 0.0 
2.530060260647e+01 -4.428336431260e+00 0.0 
8.651114563942e-01 -1.052096295641e+01 0.0 
2.050000000013e+01 -1.913397459622e+01 0.0 
2.819198729811e+01 -6.399519052838e+00 0.0 
2.445670302931e+01 -1.915649188023e+01 0.0 
3.117591465718e+01 -8.394293040695e+00 0.0 
7.465053044742e+00 -1.920411160581e+01 0.0 
6.398295709691e+00 -8.230098819370e-01 0.0 
2.849659607461e+01 -1.914296187762e+01 0.0 
3.418732642882e+01 -1.040265792588e+01 0.0 
8.386450935063e-01 -6.533605142809e+00 0.0 
9.178661865596e-01 -1.329769195597e+01 0.0 
3.149448624493e+01 -1.910466733764e+01 0.0 
3.552916747426e+01 -1.914628590759e+01 0.0 
4.449210346537e+01 -1.914359085008e+01 0.0 
4.140975975145e+01 -1.906941860733e+01 0.0 
3.847475958753e+01 -1.916622382724e+01 0.0 
3.653774794640e+01 -1.088712800241e+01 0.0 
4.047886341787e+01 -1.090139014048e+01 0.0 
4.348006339825e+01 -1.092792621489e+01 0.0 
4.919519968029e+01 -1.451526755068e+01 0.0 
4.500000000032e+00 -1.913397459621e+01 0.0 
1.856136921614e+01 -8.212235170404e-01 0.0 
3.499895312306e+00 -8.661165539723e-01 0.0 
9.076088696565e-01 -1.642306201891e+01 0.0 
4.655174095477e+01 -1.086183387525e+01 0.0 
9.430688970604e-01 -3.496112672958e+00 0.0 
3.353992337063e+01 -1.901202090820e+01 0.0 
2.249746016977e+01 -1.921262287282e+01 0.0 
2.650122741777e+01 -1.916123026018e+01 0.0 
1.863571384842e+01 -1.908325534840e+01 0.0 
1.450089971693e+01 -1.917691901860e+01 0.0 
1.350044695317e+01 -8.659695299584e-01 0.0 
3.849987469880e+01 -1.084154983397e+01 0.0 
9.454419857884e+00 -1.900818879936e+01 0.0 
4.917398660523e+01 -1.645692866081e+01 0.0 
8.500000000000e+00 -8.660254037844e-01 0.0 
8.660319230785e-01 -8.500111697188e+00 0.0 
4.649022621545e+01 -1.930506220113e+01 0.0 
2.667688107845e+01 -5.420288124331e+00 0.0 
2.379251615665e+01 -3.412225477429e+00 0.0 
2.966631491830e+01 -7.389030232731e+00 0.0 
3.267915035995e+01 -9.396934932445e+00 0.0 
2.074836922338e+01 -1.320054020319e+00 0.0 
4.915985743621e+01 -1.261973384855e+01 0.0 
2.527129768623e+00 -1.931592414663e+01 0.0 
1.538676247410e+00 -8.436956619311e-01 0.0 
4.908096641539e+01 -1.842484004551e+01 0.0 
3.478612492673e+01 -1.090889364140e+01 0.0 
3.409757055860e+01 -1.131991530427e+01 0.0 
3.501895309466e+01 -1.177687842717e+01 0.0 
3.407758073088e+01 -1.224293381580e+01 0.0 
3.484541875390e+01 -1.277051428430e+01 0.0 
3.400322025842e+01 -1.319022775640e+01 0.0 
3.321672625034e+01 -1.266779191233e+01 0.0 
3.315244139236e+01 -1.360984106532e+01 0.0 
3.236335186892e+01 -1.308463225210e+01 0.0 
3.478337442841e+01 -1.372341158982e+01 0.0 
3.230105923633e+01 -1.403023731610e+01 0.0 
3.150954055289e+01 -1.350301767700e+01 0.0 
3.144604792090e+01 -1.444931742516e+01 0.0 
3.065653897123e+01 -1.392357262981e+01 0.0 
3.071897610812e+01 -1.297447031198e+01 0.0 
2.986790411740e+01 -1.339226181535e+01 0.0 
2.993181466745e+01 -1.244703272398e+01 0.0 
2.908023061869e+01 -1.286254537734e+01 0.0 
2.901619051372e+01 -1.380881655279e+01 0.0 
2.822986160390e+01 -1.327695262116e+01 0.0 
2.829453476870e+01 -1.233265343811e+01 0.0 
2.744542905518e+01 -1.274510491105e+01 0.0 
2.751120089246e+01 -1.180368086886e+01 0.0 
2.666218649885e+01 -1.221619339205e+01 0.0 
2.672371209234e+01 -1.127125228527e+01 0.0 
2.587763216302e+01 -1.168539979114e+01 0.0 
2.581165585299e+01 -1.262994410089e+01 0.0 
2.502890882577e+01 -1.209827323619e+01 0.0 
2.509631327757e+01 -1.115492410304e+01 0.0 
2.424662989877e+01 -1.156630981079e+01 0.0 
2.431704046904e+01 -1.062389179334e+01 0.0 
2.346445438728e+01 -1.103427680694e+01 0.0 
2.339382552877e+01 -1.197964871788e+01 0.0 
2.260936050780e+01 -1.144513277642e+01 0.0 
2.268075012022e+01 -1.049911928216e+01 0.0 
2.182525737661e+01 -1.090920811464e+01 0.0 
2.189682319817e+01 -9.961716944568e+00 0.0 
2.104174127792e+01 -1.037266986667e+01 0.0 
2.111304367575e+01 -9.424179358711e+00 0.0 
2.025306185381e+01 -9.832727364719e+00 0.0 
2.018141124247e+01 -1.079140628871e+01 0.0 
1.938594498257e+01 -1.025147354112e+01 0.0 
1.946106490453e+01 -9.288010758448e+00 0.0 
1.858929958352e+01 -9.706319802516e+00 0.0 
1.851540991219e+01 -1.067205988724e+01 0.0 
1.771485303178e+01 -1.012504443115e+01 0.0 
1.764134552256e+01 -1.109360378538e+01 0.0 
1.683745148095e+01 -1.054496365337e+01 0.0 
1.691852964353e+01 -9.582555261178e+00 0.0 
1.603603813062e+01 -1.000160132379e+01 0.0 
1.595824239350e+01 -1.096750698862e+01 0.0 
1.515080624291e+01 -1.041639501931e+01 0.0 
1.523171602559e+01 -9.451711491453e+00 0.0 
1.434621060709e+01 -9.871956467464e+00 0.0 
1.426777178765e+01 -1.083749501371e+01 0.0 
1.345775282374e+01 -1.028803175500e+01 0.0 
1.354103873368e+01 -9.324918457162e+00 0.0 
1.265072018622e+01 -9.742612837270e+00 0.0 
1.257285762070e+01 -1.071557782384e+01 0.0 
1.175874815690e+01 -1.015972324288e+01 0.0 
1.184203019714e+01 -9.193604071377e+00 0.0 
1.094927709905e+01 -9.612103238656e+00 0.0 
1.086938022910e+01 -1.058685085646e+01 0.0 
1.005424098961e+01 -1.002939116380e+01 0.0 
9.977974613295e+00 -1.101324897989e+01 0.0 
1.012915646404e+01 -9.051815821181e+00 0.0 
9.237127782494e+00 -9.471239055559e+00 0.0 
9.308426593771e+00 -8.483376461131e+00 0.0 
8.418806073345e+00 -8.910712374517e+00 0.0 
2.253688464062e+01 -1.239459402279e+01 0.0 
8.495126726666e+00 -7.921646665254e+00 0.0 
9.389727383206e+00 -7.512103628377e+00 0.0 
7.601560812974e+00 -8.349460349344e+00 0.0 
7.525680547759e+00 -9.339736686940e+00 0.0 
7.677888324502e+00 -7.359727833346e+00 0.0 
6.782001206724e+00 -7.788454494773e+00 0.0 
6.858778622885e+00 -6.797338062822e+00 0.0 
2.196596590865e+01 -8.979025665442e+00 0.0 
2.816540108272e+01 -1.422634142353e+01 0.0 
5.961601194403e+00 -7.226824010712e+00 0.0 
6.038171749656e+00 -6.234825887079e+00 0.0 
6.936257279557e+00 -5.805287640737e+00 0.0 
6.115068918323e+00 -5.242109758768e+00 0.0 
3.564391741903e+01 -1.329240553876e+01 0.0 
3.558115605778e+01 -1.425902892003e+01 0.0 
3.645445282201e+01 -1.381970786460e+01 0.0 
3.639744204358e+01 -1.479198128612e+01 0.0 
3.727266909778e+01 -1.435399586226e+01 0.0 
5.216667013081e+00 -5.671788584287e+00 0.0 
3.220697293295e+01 -1.499594545107e+01 0.0 
3.551112158269e+01 -1.523479869250e+01 0.0 
2.836056961467e+01 -1.139032434851e+01 0.0 
2.516730388602e+01 -1.021382726837e+01 0.0 
1.844436907403e+01 -1.164097215196e+01 0.0 
5.885434318740e+00 -8.218694781467e+00 0.0 
5.064071066867e+00 -7.656614643901e+00 0.0 
4.988089103470e+00 -8.649722082718e+00 0.0 
1.079421050408e+01 -1.157014985435e+01 0.0 
9.902420005256e+00 -1.199903342656e+01 0.0 
1.071994252214e+01 -1.255727909771e+01 0.0 
9.826974788171e+00 -1.298659581767e+01 0.0 
1.064607883789e+01 -1.354595476388e+01 0.0 
9.751541265343e+00 -1.397556905071e+01 0.0 
8.932296185869e+00 -1.341553353988e+01 0.0 
8.856399248106e+00 -1.440570715508e+01 0.0 
8.036186803543e+00 -1.384470558472e+01 0.0 
1.057112875118e+01 -1.453516759081e+01 0.0 
1.146582585687e+01 -1.410539926903e+01 0.0 
7.959894480382e+00 -1.483563350928e+01 0.0 
7.138792279156e+00 -1.427465094140e+01 0.0 
7.062506792418e+00 -1.526615385482e+01 0.0 
6.240693558277e+00 -1.470508863040e+01 0.0 
6.316957575451e+00 -1.371212581281e+01 0.0 
5.418183007107e+00 -1.414253605022e+01 0.0 
5.494748364428e+00 -1.314886770603e+01 0.0 
1.756825565873e+01 -1.206433872514e+01 0.0 
1.837565773345e+01 -1.261356468266e+01 0.0 
1.749574831391e+01 -1.303769280014e+01 0.0 
1.830539187332e+01 -1.358828364284e+01 0.0 
1.742278925170e+01 -1.401367746928e+01 0.0 
1.823303007798e+01 -1.456432294258e+01 0.0 
1.734941694138e+01 -1.499213734361e+01 0.0 
1.653760041637e+01 -1.443920312098e+01 0.0 
3.056237977307e+01 -1.487132260174e+01 0.0 
1.866469084762e+01 -8.742953000418e+00 0.0 
1.953669694916e+01 -8.326038909849e+00 0.0 
1.874194303780e+01 -7.780688158966e+00 0.0 
1.961032016741e+01 -7.366854697285e+00 0.0 
1.881715755159e+01 -6.821102209649e+00 0.0 
1.968369797150e+01 -6.407747217358e+00 0.0 
1.889237123259e+01 -5.858375520026e+00 0.0 
1.802038875366e+01 -6.276202618170e+00 0.0 
1.809793837984e+01 -5.307629520489e+00 0.0 
1.721985207997e+01 -5.728242054488e+00 0.0 
1.729850893523e+01 -4.756990819347e+00 0.0 
1.641745664240e+01 -5.174636548624e+00 0.0 
2.495978509456e+01 -1.304406404294e+01 0.0 
1.911567814831e+01 -1.413854250293e+01 0.0 
1.904387332608e+01 -1.511463127723e+01 0.0 
1.992115934240e+01 -1.468788025898e+01 0.0 
7.013706899628e+00 -4.812582868662e+00 0.0 
5.342091874585e+00 -1.513658157269e+01 0.0 
1.139098043784e+01 -1.509488509480e+01 0.0 
1.228151810610e+01 -1.465617481983e+01 0.0 
1.646373110164e+01 -1.541993323337e+01 0.0 
5.293328636712e+00 -4.678385108584e+00 0.0 
1.975965862987e+01 -5.448124345648e+00 0.0 
2.054318374236e+01 -5.992561293251e+00 0.0 
3.721453439063e+01 -1.533216152738e+01 0.0 
3.809302733893e+01 -1.489235527381e+01 0.0 
1.220852788900e+01 -1.565304565230e+01 0.0 
4.394120899730e+00 -5.108397613210e+00 0.0 
8.779354620288e+00 -1.539524721159e+01 0.0 
1.817791047702e+01 -4.338570146253e+00 0.0 
4.518860013839e+00 -1.457343189307e+01 0.0 
4.442712140414e+00 -1.556841391069e+01 0.0 
8.115343466391e+00 -1.285760324283e+01 0.0 
1.985334703171e+01 -1.566478400426e+01 0.0 
2.071953850276e+01 -1.522074243119e+01 0.0 
1.634012953883e+01 -6.154777738301e+00 0.0 
1.553479994708e+01 -5.593730508879e+00 0.0 
1.561265946942e+01 -4.617761762647e+00 0.0 
1.470674212978e+01 -5.064576488228e+00 0.0 
1.464498299883e+01 -6.026514471420e+00 0.0 
1.383271561817e+01 -5.467796261169e+00 0.0 
1.389241253067e+01 -4.504338666645e+00 0.0 
1.301868735463e+01 -4.907185188626e+00 0.0 
1.294514184846e+01 -5.888160903592e+00 0.0 
1.212955968622e+01 -5.328262335277e+00 0.0 
1.220721122383e+01 -4.341264976687e+00 0.0 
1.131324345897e+01 -4.766773516508e+00 0.0 
5.266597955397e+00 -1.613148974258e+01 0.0 
1.737805990867e+01 -3.786677807525e+00 0.0 
3.078438094513e+01 -1.203225297748e+01 0.0 
1.131569882285e+01 -1.608511932110e+01 0.0 
1.728478341782e+01 -1.596017432313e+01 0.0 
3.803465906019e+01 -1.587509751228e+01 0.0 
3.891681276677e+01 -1.543395196905e+01 0.0 
3.897340985302e+01 -1.444710288980e+01 0.0 
3.980095968193e+01 -1.499059496613e+01 0.0 
3.974334598189e+01 -1.597921884150e+01 0.0 
4.062964983717e+01 -1.553518690417e+01 0.0 
4.068729602479e+01 -1.454434445295e+01 0.0 
4.151772679790e+01 -1.508974196007e+01 0.0 
4.157505195739e+01 -1.409694289912e+01 0.0 
4.240699932656e+01 -1.464347955968e+01 0.0 
4.234898051011e+01 -1.563721375790e+01 0.0 
4.323934606035e+01 -1.519082036405e+01 0.0 
4.329740528208e+01 -1.419587509788e+01 0.0 
4.413056841369e+01 -1.474359631875e+01 0.0 
4.418850110108e+01 -1.374786684042e+01 0.0 
4.502219770667e+01 -1.429605103525e+01 0.0 
4.496411937907e+01 -1.529215882720e+01 0.0 
4.490027319897e+00 -4.154167794594e+00 0.0 
1.565080385988e+01 -1.486411982419e+01 0.0 
1.557610691279e+01 -1.584855627870e+01 0.0 
4.195350646612e+00 -8.089117689096e+00 0.0 
4.124027797830e+00 -9.082831955007e+00 0.0 
4.917944318925e+00 -9.643530901533e+00 0.0 
4.020105689502e+00 -1.007439673661e+01 0.0 
4.587185899277e+01 -1.484039992728e+01 0.0 
4.580078661551e+01 -1.584043391042e+01 0.0 
2.061956522375e+01 -5.046701343981e+00 0.0 
2.139572955529e+01 -5.579553449826e+00 0.0 
3.715344357292e+01 -1.631485124583e+01 0.0 
3.618886196443e+00 -1.500471207167e+01 0.0 
3.695606940204e+00 -1.400939692294e+01 0.0 
2.438890661143e+01 -9.686110599723e+00 0.0 
2.523267572778e+01 -9.276766000622e+00 0.0 
2.446094171539e+01 -8.751904591412e+00 0.0 
2.529089822738e+01 -8.321495612547e+00 0.0 
2.606882688827e+01 -8.864724051119e+00 0.0 
2.452116646430e+01 -7.792756462004e+00 0.0 
1.235543269617e+01 -1.365845617339e+01 0.0 
4.318116874181e+01 -1.618567469992e+01 0.0 
7.835066111909e+00 -5.376366223896e+00 0.0 
7.905687335704e+00 -4.382539065697e+00 0.0 
3.542640009567e+00 -1.600035116542e+01 0.0 
1.572431503071e+01 -1.388358386695e+01 0.0 
2.574684696680e+01 -1.357896141127e+01 0.0 
2.488842657651e+01 -1.399674354505e+01 0.0 
2.568301775611e+01 -1.453552048595e+01 0.0 
2.481535572009e+01 -1.495542756508e+01 0.0 
2.561729699688e+01 -1.549784648532e+01 0.0 
2.474623061296e+01 -1.592058894178e+01 0.0 
2.394234041695e+01 -1.537572575827e+01 0.0 
2.065825452567e+01 -1.621899055217e+01 0.0 
2.387180528935e+01 -1.634552264687e+01 0.0 
4.585364400844e+01 -1.383912334080e+01 0.0 
1.998744432052e+01 -1.370317155541e+01 0.0 
1.205356951443e+01 -6.313580285498e+00 0.0 
5.396543905849e+00 -3.731818611283e+00 0.0 
1.139652573295e+01 -3.745819399350e+00 0.0 
3.574124306703e+00 -4.551456826011e+00 0.0 
3.494140761930e+00 -5.539787055649e+00 0.0 
1.213651452413e+01 -1.664505033022e+01 0.0 
2.555045568519e+01 -1.646529356744e+01 0.0 
2.641671114986e+01 -1.603899382371e+01 0.0 
2.612920721894e+01 -7.906435260873e+00 0.0 
2.690339829698e+01 -8.456969591431e+00 0.0 
1.978024383368e+01 -1.664410216353e+01 0.0 
3.732829979082e+01 -1.336926601859e+01 0.0 
4.074336584605e+01 -1.355133328401e+01 0.0 
4.163204691081e+01 -1.310280943992e+01 0.0 
3.773826114429e+00 -3.493444309145e+00 0.0 
1.228783001032e+01 -3.374822835872e+00 0.0 
4.057110462520e+01 -1.652588478000e+01 0.0 
2.132535497898e+01 -6.523623360525e+00 0.0 
2.216932532211e+01 -6.110044769206e+00 0.0 
1.825781152128e+01 -3.370146817147e+00 0.0 
1.745679445888e+01 -2.812942552063e+00 0.0 
4.666517057280e+01 -1.539981381543e+01 0.0 
4.660575894464e+01 -1.639014410186e+01 0.0 
4.838230979954e+00 -1.063643436446e+01 0.0 
3.938942630206e+00 -1.106778981745e+01 0.0 
1.302967218620e+01 -1.621373452436e+01 0.0 
1.049548003190e+01 -4.204825123240e+00 0.0 
4.573571907195e+01 -1.683820511148e+01 0.0 
1.483686335807e+01 -1.430849689310e+01 0.0 
1.490982658890e+01 -1.332679386284e+01 0.0 
3.190805600162e+00 -9.510968358545e+00 0.0 
2.146625721848e+01 -4.642437303115e+00 0.0 
2.069866208266e+01 -4.111852942193e+00 0.0 
1.286859345584e+01 -6.873252723348e+00 0.0 
1.041794493184e+01 -5.194814260291e+00 0.0 
2.671081808965e+00 -4.976806516331e+00 0.0 
1.295786792925e+01 -1.720506531799e+01 0.0 
3.968438206511e+01 -1.696869067241e+01 0.0 
2.308550456051e+01 -1.579963151273e+01 0.0 
2.315593682844e+01 -1.482967445235e+01 0.0 
2.299471449450e+01 -1.677069968132e+01 0.0 
1.057344714696e+01 -3.214252277840e+00 0.0 
1.124057603753e+01 -1.707713739755e+01 0.0 
2.718402535754e+00 -1.543629882103e+01 0.0 
2.638549692805e+01 -1.696744916809e+01 0.0 
2.723416349007e+01 -1.658104204545e+01 0.0 
2.210193351704e+01 -7.046769643417e+00 0.0 
2.295180925161e+01 -6.657397605239e+00 0.0 
2.301355235833e+01 -5.709111896800e+00 0.0 
2.379052718281e+01 -6.254965406962e+00 0.0 
3.243528601237e+01 -1.214181853533e+01 0.0 
2.287977995457e+01 -7.583722368300e+00 0.0 
2.999876029544e+01 -1.150837653096e+01 0.0 
3.084435366963e+01 -1.109693775882e+01 0.0 
3.006650579669e+01 -1.057778994262e+01 0.0 
2.683802665066e+01 -9.386863216633e+00 0.0 
2.768641973621e+01 -8.988883915666e+00 0.0 
2.040296980397e+01 -7.903629133404e+00 0.0 
1.925235024054e+01 -1.218872783130e+01 0.0 
5.735667000424e+00 -1.020577277283e+01 0.0 
6.396559909872e+00 -1.272326295703e+01 0.0 
1.161199420714e+01 -1.212812778229e+01 0.0 
4.229046132615e+01 -1.663084237572e+01 0.0 
4.312275399692e+01 -1.718087491556e+01 0.0 
4.335502068163e+01 -1.320039231514e+01 0.0 
4.424630298089e+01 -1.275160688731e+01 0.0 
7.090116643816e+00 -3.818998061530e+00 0.0 
7.989472176569e+00 -3.389238711200e+00 0.0 
9.085824861778e+00 -1.144036167408e+01 0.0 
1.041972423731e+01 -1.651614080893e+01 0.0 
3.797525112640e+01 -1.686052038746e+01 0.0 
3.709114253394e+01 -1.730125999865e+01 0.0 
3.626966748340e+01 -1.675477052919e+01 0.0 
1.385164591440e+01 -1.677597757552e+01 0.0 
1.787152588784e+01 -8.198993896093e+00 0.0 
1.668849729812e+01 -1.248560611628e+01 0.0 
1.659546177905e+01 -3.232482605530e+00 0.0 
2.332214717345e+01 -1.292598167641e+01 0.0 
7.168238450786e+00 -2.824711686516e+00 0.0 
2.894878403906e+01 -1.475427524446e+01 0.0 
2.646763248247e+00 -1.643270107952e+01 0.0 
3.467431944285e+00 -1.699648837348e+01 0.0 
2.059475877282e+01 -1.719473628526e+01 0.0 
3.333868355437e+01 -1.080596971682e+01 0.0 
2.246451062637e+01 -1.334557761546e+01 0.0 
2.167821896388e+01 -1.280847834858e+01 0.0 
3.089653185767e+01 -1.017198487212e+01 0.0 
3.012604365669e+01 -9.657298805968e+00 0.0 
2.929627299435e+01 -1.006100135274e+01 0.0 
2.936201435219e+01 -9.136748899251e+00 0.0 
1.198219052702e+01 -7.291887238230e+00 0.0 
1.116702076035e+01 -6.731976101053e+00 0.0 
2.551388807505e+01 -1.746927036981e+01 0.0 
2.378639090370e+01 -1.728678807149e+01 0.0 
2.718543627188e+01 -1.748668016909e+01 0.0 
2.804681050301e+01 -1.712626668293e+01 0.0 
1.970737034667e+01 -1.762317646822e+01 0.0 
1.889535776135e+01 -1.707158098231e+01 0.0 
2.593777711283e+00 -5.971157087874e+00 0.0 
2.773468281110e+01 -8.067164273938e+00 0.0 
4.051205884347e+01 -1.751819982458e+01 0.0 
3.166903145421e+01 -1.068032992414e+01 0.0 
1.033042452886e+01 -1.748285844336e+01 0.0 
9.519274604626e+00 -1.694349240233e+01 0.0 
1.668308673328e+01 -2.255861778986e+00 0.0 
1.570531902832e+01 -2.676795860126e+00 0.0 
4.655826903379e+01 -1.736656245706e+01 0.0 
2.384148070773e+01 -5.328744256413e+00 0.0 
2.460255123641e+01 -5.852182672816e+00 0.0 
2.306638135119e+01 -4.798935440613e+00 0.0 
8.467720450578e-01 -1.849576263072e+01 0.0 
4.849657322345e+01 -1.084860705506e+01 0.0 
2.565860899507e+00 -1.742859793981e+01 0.0 
2.764418872564e+01 -9.927142821799e+00 0.0 
4.565165880064e+01 -1.785336695404e+01 0.0 
2.162231831329e+01 -1.376528337468e+01 0.0 
2.360646352969e+01 -9.136041963102e+00 0.0 
1.392738739903e+01 -1.578285505772e+01 0.0 
4.756405947478e+01 -1.683706841809e+01 0.0 
4.740895034054e+01 -1.793766756892e+01 0.0 
4.080779328826e+01 -1.257387192544e+01 0.0 
4.168907939671e+01 -1.210739129181e+01 0.0 
3.991197722154e+01 -1.300815793917e+01 0.0 
1.905536506762e+01 -3.940076697685e+00 0.0 
1.923879596617e+01 -2.875000734166e+00 0.0 
4.401386745746e+01 -1.673483229438e+01 0.0 
4.247233362525e+00 -7.094581653070e+00 0.0 
3.286051630211e+00 -7.635300020553e+00 0.0 
9.609533347623e+00 -4.594311677967e+00 0.0 
9.523554636369e+00 -5.595597029530e+00 0.0 
5.660336628893e+00 -1.119290329628e+01 0.0 
6.558070063295e+00 -1.076385809362e+01 0.0 
2.809866407414e+01 -1.518037766799e+01 0.0 
2.888868674504e+01 -1.570360690070e+01 0.0 
2.654431550819e+01 -1.411217777162e+01 0.0 
1.402158265969e+01 -1.375404617952e+01 0.0 
1.409592494026e+01 -1.277071998942e+01 0.0 
1.499355196178e+01 -1.235270737023e+01 0.0 
4.221535326155e+01 -1.759335617494e+01 0.0 
4.305583287033e+01 -1.822663146802e+01 0.0 
1.280748808359e+01 -7.834332838285e+00 0.0 
1.368988389326e+01 -7.420529606172e+00 0.0 
1.110091796060e+01 -7.683966794328e+00 0.0 
3.963446145980e+01 -1.794331310122e+01 0.0 
3.423932362213e+00 -1.796415590455e+01 0.0 
4.280814572302e+00 -1.752272834860e+01 0.0 
8.050136380041e+00 -2.421582378631e+00 0.0 
8.888674091650e+00 -2.984264211327e+00 0.0 
2.152839430898e+01 -3.732609965436e+00 0.0 
2.077799585292e+01 -3.183896021866e+00 0.0 
3.618719395821e+01 -1.770276572576e+01 0.0 
3.538165138340e+01 -1.718709995539e+01 0.0 
3.702925326420e+01 -1.828844288807e+01 0.0 
1.756739438711e+00 -5.353284859169e+00 0.0 
2.233710191104e+01 -1.527265621324e+01 0.0 
1.389483555057e+01 -1.771797164730e+01 0.0 
1.475634224300e+01 -1.728357428390e+01 0.0 
1.298797563052e+01 -1.825968924755e+01 0.0 
2.145331271866e+01 -1.673705379077e+01 0.0 
2.133282821169e+01 -1.769400773673e+01 0.0 
2.292139194136e+01 -1.774915400288e+01 0.0 
1.750750053243e+01 -1.861475593469e+00 0.0 
4.830478841772e+01 -1.752611802221e+01 0.0 
4.341203507805e+01 -1.220326745522e+01 0.0 
1.685254151866e+01 -1.443085301632e+00 0.0 
4.431538535165e+01 -1.171841387375e+01 0.0 
4.511308610496e+01 -1.229557320599e+01 0.0 
4.510133242889e+01 -1.123680627466e+01 0.0 
1.846818030617e+00 -4.410877617069e+00 0.0 
3.995468694584e+01 -1.186571542989e+01 0.0 
3.901387459804e+01 -1.242507616755e+01 0.0 
8.966735877533e+00 -1.837818700423e+00 0.0 
4.049310011091e+01 -1.848269508791e+01 0.0 
7.278862053803e+00 -1.918523922691e+00 0.0 
6.429715522129e+00 -2.316676521184e+00 0.0 
9.443505505022e+00 -1.792198868094e+01 0.0 
8.620386951051e+00 -1.737590365556e+01 0.0 
8.571868171503e+00 -1.834436667826e+01 0.0 
7.758629848526e+00 -1.775677907213e+01 0.0 
7.806648388584e+00 -1.680761266021e+01 0.0 
6.908555145436e+00 -1.723746463044e+01 0.0 
4.251709122090e+01 -1.156937480156e+01 0.0 
6.931136405615e+00 -1.832465719263e+01 0.0 
6.015545461353e+00 -1.768865355295e+01 0.0 
5.960535926343e+00 -1.872011001764e+01 0.0 
3.023253444786e+01 -8.761960642196e+00 0.0 
2.454622702599e+01 -6.749421992767e+00 0.0 
2.537499741604e+01 -6.347634963783e+00 0.0 
2.544077378460e+01 -5.431358513649e+00 0.0 
2.801367161747e+01 -1.820907270221e+01 0.0 
2.884507806914e+01 -1.762032095326e+01 0.0 
1.821474531936e+00 -1.588901260460e+01 0.0 
1.821006262604e+00 -1.489370287756e+01 0.0 
4.599962488908e+01 -1.176478780598e+01 0.0 
4.705457470007e+01 -1.172182804229e+01 0.0 
4.667668314802e+01 -1.263464558483e+01 0.0 
4.759648056504e+01 -1.252380987933e+01 0.0 
4.728041618103e+01 -1.341928568376e+01 0.0 
4.825209352360e+01 -1.330491640804e+01 0.0 
4.778118233428e+01 -1.420151961695e+01 0.0 
2.388192727579e+01 -1.826934810142e+01 0.0 
2.381714684947e+01 -4.385917965223e+00 0.0 
3.172733219247e+01 -9.758744265248e+00 0.0 
1.882012070658e+01 -1.805540597212e+01 0.0 
1.805667505243e+01 -1.742221226236e+01 0.0 
2.852599958080e+01 -8.597196079481e+00 0.0 
2.856486123437e+01 -7.661382718527e+00 0.0 
1.111792842875e+01 -1.818223852980e+01 0.0 
2.203322722466e+01 -7.986646678802e+00 0.0 
3.955703676900e+01 -1.903246763601e+01 0.0 
1.944842206513e+01 -8.038750575182e-01 0.0 
1.909882767783e+01 -1.746322740933e+00 0.0 
2.281147422941e+01 -8.525912918334e+00 0.0 
2.850633001468e+01 -9.533271335986e+00 0.0 
2.532883344309e+01 -7.308951659710e+00 0.0 
2.620475466461e+01 -6.979208585400e+00 0.0 
1.396278270396e+01 -1.475095389807e+01 0.0 
9.791001166724e+00 -2.554159793552e+00 0.0 
2.229293380421e+01 -4.269762271052e+00 0.0 
4.677238984118e+01 -1.430071795514e+01 0.0 
2.228658385918e+01 -3.344747535984e+00 0.0 
8.940223674553e-01 -1.543595733415e+01 0.0 
2.118566862474e+01 -8.435876987696e+00 0.0 
2.678325936437e+01 -1.032621195706e+01 0.0 
2.223400220487e+01 -5.179046761770e+00 0.0 
2.375370625384e+01 -7.251580562134e+00 0.0 
3.156971327386e+01 -1.255534750737e+01 0.0 
3.328226391312e+01 -1.172914813316e+01 0.0 
3.250948774219e+01 -1.120157009348e+01 0.0 
2.032993445717e+01 -8.867880112202e+00 0.0 
2.697226974856e+01 -7.536633082045e+00 0.0 
2.707377810386e+01 -6.590835263295e+00 0.0 
2.914099246827e+01 -1.191678458549e+01 0.0 
3.544824072239e+01 -1.621126558525e+01 0.0 
3.456511855436e+01 -1.665054783843e+01 0.0 
3.448395810225e+01 -1.759117813016e+01 0.0 
3.368378673938e+01 -1.708037781328e+01 0.0 
3.375560452567e+01 -1.610973066913e+01 0.0 
3.288001547988e+01 -1.654324255651e+01 0.0 
3.282475929147e+01 -1.749725654692e+01 0.0 
3.199880906313e+01 -1.697294088625e+01 0.0 
3.197001272932e+01 -1.811667776864e+01 0.0 
3.111884713021e+01 -1.742166785755e+01 0.0 
3.120418962865e+01 -1.642155709385e+01 0.0 
3.034666704371e+01 -1.683123833816e+01 0.0 
3.026224379976e+01 -1.772592851714e+01 0.0 
3.046632362943e+01 -1.582232843075e+01 0.0 
1.961344017324e+01 -1.857459447985e+01 0.0 
2.274975894774e+01 -9.532738811922e+00 0.0 
1.833923246887e+01 -2.396746883672e+00 0.0 
1.988859500848e+01 -2.249244376594e+00 0.0 
2.758045562861e+01 -1.086434261689e+01 0.0 
3.247300178163e+01 -1.909930104252e+01 0.0 
3.461947482503e+01 -1.911879848019e+01 0.0 
2.047161538662e+01 -6.941478180358e+00 0.0 
2.750230940214e+01 -1.915490590764e+01 0.0 
3.165081350803e+01 -1.161860780120e+01 0.0 
1.897456727641e+01 -4.889634688522e+00 0.0 
2.549338539756e+01 -1.914858252089e+01 0.0 
3.462873135081e+01 -1.567482276144e+01 0.0 
3.384432415243e+01 -1.512280684518e+01 0.0 
3.471433767690e+01 -1.469086942990e+01 0.0 
3.651470373046e+01 -1.918207952149e+01 0.0 
3.901742690249e+01 -1.345028556517e+01 0.0 
2.153224102692e+01 -1.920169709333e+01 0.0 
1.918382939341e+01 -1.316226275662e+01 0.0 
2.005389162382e+01 -1.271962165174e+01 0.0 
2.011472087878e+01 -1.175029352900e+01 0.0 
3.210679478412e+01 -1.598038618242e+01 0.0 
1.752175226543e+01 -1.914713022656e+01 0.0 
1.696897240059e+01 -1.832772588765e+01 0.0 
1.599682523337e+01 -1.832599992024e+01 0.0 
1.644507199462e+01 -1.743697981535e+01 0.0 
1.549987712903e+01 -1.915192375101e+01 0.0 
3.050250861901e+01 -1.918943550234e+01 0.0 
2.949944061527e+01 -1.922950455235e+01 0.0 
1.375892575273e+01 -6.447160534926e+00 0.0 
1.457223670180e+01 -7.006709243857e+00 0.0 
1.450818793236e+01 -7.965943451779e+00 0.0 
1.538804712402e+01 -7.553409623699e+00 0.0 
1.545817644768e+01 -6.580929593419e+00 0.0 
1.626506893751e+01 -7.129032608911e+00 0.0 
1.619833811522e+01 -8.086588580887e+00 0.0 
1.714448609609e+01 -6.697429609777e+00 0.0 
2.887616543568e+01 -1.668015232137e+01 0.0 
1.349814589130e+01 -1.918225301544e+01 0.0 
1.153887772210e+01 -1.311384581217e+01 0.0 
1.242708159886e+01 -1.267046795531e+01 0.0 
1.249799674267e+01 -1.169005616014e+01 0.0 
6.631723893693e+00 -9.774184881867e+00 0.0 
7.451471631867e+00 -1.033148796006e+01 0.0 
7.377795355458e+00 -1.132196345268e+01 0.0 
5.810931797536e+00 -9.211654212252e+00 0.0 
2.402683899133e+01 -1.441378562320e+01 0.0 
1.249768692036e+01 -1.917388426624e+01 0.0 
1.580373499437e+01 -1.290751860664e+01 0.0 
8.344650507834e+00 -9.898403995170e+00 0.0 
3.750622115305e+01 -1.086526401533e+01 0.0 
3.699391251667e+01 -1.171695900794e+01 0.0 
3.606517829518e+01 -1.173717504500e+01 0.0 
3.650257641795e+01 -1.270047380221e+01 0.0 
3.808951488918e+01 -1.183518714175e+01 0.0 
4.760380962420e+00 -1.162484888315e+01 0.0 
3.861210370848e+00 -1.205657631736e+01 0.0 
3.038284309476e+00 -1.149851280664e+01 0.0 
2.961598794889e+00 -1.248856794980e+01 0.0 
2.138953225512e+00 -1.193212674534e+01 0.0 
2.227383593457e+00 -1.096258903918e+01 0.0 
2.043265419276e+00 -1.292158472959e+01 0.0 
1.252449446028e+00 -1.225502002753e+01 0.0 
3.949985210740e+01 -1.086594001795e+01 0.0 
1.453499444792e+01 -8.768805922472e-01 0.0 
1.403518950933e+01 -1.749965556633e+00 0.0 
1.300715031023e+01 -1.714737233040e+00 0.0 
1.350929389899e+01 -2.527443911291e+00 0.0 
1.449600910711e+01 -2.595486162864e+00 0.0 
1.395693872901e+01 -3.484211041558e+00 0.0 
1.495105865208e+01 -3.364609636216e+00 0.0 
1.508822528740e+01 -1.766586020494e+00 0.0 
1.250223858430e+01 -8.634590186802e-01 0.0 
1.200279523409e+01 -1.709044504992e+00 0.0 
1.150086239419e+01 -8.592789190668e-01 0.0 
1.101482754194e+01 -1.677730591922e+00 0.0 
1.148018564526e+01 -2.659323866909e+00 0.0 
8.800552119754e+00 -3.989875954728e+00 0.0 
3.452790439430e+00 -1.901136170646e+01 0.0 
8.658451825200e-01 -9.503462241795e+00 0.0 
1.694787786797e+00 -9.000589234502e+00 0.0 
1.703436717094e+00 -8.038819004041e+00 0.0 
2.594197971110e+00 -8.563955242845e+00 0.0 
1.630513735412e+00 -9.907244747511e+00 0.0 
8.566859292791e-01 -7.512203837972e+00 0.0 
1.685461277022e+00 -7.164280248030e+00 0.0 
2.506394468801e+00 -8.623386730818e-01 0.0 
2.007475081581e+00 -1.727729545205e+00 0.0 
9.211534699767e-01 -1.628791366312e+00 0.0 
1.500000000020e+00 -2.598063549486e+00 0.0 
2.482078929963e+00 -2.553580088725e+00 0.0 
2.999795253092e+00 -1.732169015019e+00 0.0 
3.999712607169e+00 -1.728832897453e+00 0.0 
4.499752199340e+00 -8.656478679175e-01 0.0 
4.964377774841e+00 -1.730129617941e+00 0.0 
4.425017908337e+00 -2.597541756243e+00 0.0 
5.446573195014e+00 -8.410144840023e-01 0.0 
4.915722346614e+01 -1.550640962770e+01 0.0 
4.826794919243e+01 -1.600000000000e+01 0.0 
1.053139533193e+01 -1.911782884365e+01 0.0 
4.156049861949e+01 -1.095160998589e+01 0.0 
9.494526624416e+00 -8.650570090219e-01 0.0 
4.555762166964e+01 -1.897098103585e+01 0.0 
4.250656411371e+01 -1.914387356218e+01 0.0 
4.350906466345e+01 -1.917234727395e+01 0.0 
8.759665722424e-01 -1.746422130609e+01 0.0 
1.698936011838e+00 -1.795012186674e+01 0.0 
4.742476811029e+01 -1.900090177972e+01 0.0 
7.749196752349e+00 -6.368049313489e+00 0.0 
3.361572113416e+01 -1.798765193915e+01 0.0 
4.484660149212e+01 -1.728661231383e+01 0.0 
1.984038172228e+01 -4.502575320116e+00 0.0 
1.035080352627e+01 -6.166639575753e+00 0.0 
2.753558010652e+00 -1.444909521181e+01 0.0 
7.217069543032e+00 -1.328635391078e+01 0.0 
4.364336727739e+00 -1.655585677381e+01 0.0 
4.595208426108e+00 -1.357919665443e+01 0.0 
6.164967006980e+00 -1.569873454630e+01 0.0 
1.487855768353e+01 -1.826523774028e+01 0.0 
2.791876456372e+00 -4.019632415181e+00 0.0 
4.246464893515e+01 -1.364898659620e+01 0.0 
4.503855590351e+01 -1.329552780944e+01 0.0 
4.407239109604e+01 -1.573900004093e+01 0.0 
5.141054449252e+00 -6.664290382472e+00 0.0 
3.141083947149e+00 -1.055790764912e+01 0.0 
6.196463198741e+00 -4.256497932609e+00 0.0 
2.599618716181e+01 -1.836893455464e+01 0.0 
2.923057372337e+01 -1.098461757645e+01 0.0 
1.168343877486e+01 -1.114079645041e+01 0.0 
6.706222096238e+00 -8.780364234441e+00 0.0 
8.567858614669e+00 -6.943121440850e+00 0.0 
1.123755132901e+01 -5.753525820030e+00 0.0 
2.353456234423e+01 -1.008536320953e+01 0.0 
9.162073319168e+00 -1.045593739109e+01 0.0 
9.676343469685e+00 -1.496493008366e+01 0.0 
4.490637882905e+01 -1.628778970202e+01 0.0 
7.398129387772e+00 -9.639977982323e-01 0.0 
1.049641705805e+01 -1.552503975272e+01 0.0 
9.010356286268e+00 -1.242805042052e+01 0.0 
3.985573925497e+01 -1.399863651620e+01 0.0 
1.816196318262e+01 -1.554066497931e+01 0.0 
1.306332244168e+01 -3.963646550326e+00 0.0 
4.145850903932e+01 -1.608094559275e+01 0.0 
3.794664933633e+01 -1.779020121986e+01 0.0 
3.819614412903e+01 -1.290749321016e+01 0.0 
6.270014188119e+00 -3.255093186826e+00 0.0 
4.251165370388e+01 -1.263870364997e+01 0.0 
1.207347709171e+01 -1.763942826023e+01 0.0 
3.633240829927e+01 -1.577330481104e+01 0.0 
4.319052668832e+00 -6.101812561904e+00 0.0 
1.676492415806e+01 -1.151547901392e+01 0.0 
2.594059220037e+01 -1.074225223009e+01 0.0 
3.340750911501e+01 -9.898764354137e+00 0.0 
4.397619591281e+01 -1.769773736461e+01 0.0 
2.175611595028e+01 -1.185718747128e+01 0.0 
1.641818733106e+01 -1.640685203215e+01 0.0 
1.661211421753e+01 -1.346121366338e+01 0.0 
3.428853504935e+00 -6.551993389271e+00 0.0 
8.700728832502e+00 -1.638460872825e+01 0.0 
1.931369795309e+01 -1.121629383702e+01 0.0 
4.139798872363e+01 -1.706922153459e+01 0.0 
2.647837478700e+01 -1.507353829290e+01 0.0 
1.779469616424e+01 -9.161615782908e+00 0.0 
3.885879219319e+01 -1.642026488918e+01 0.0 
1.338194936770e+01 -1.125916521471e+01 0.0 
1.897071181111e+01 -1.609204322578e+01 0.0 
2.844308548793e+01 -1.046221003096e+01 0.0 
2.659854702194e+01 -1.316109415760e+01 0.0 
2.979604503271e+01 -1.433296157755e+01 0.0 
2.417694041347e+01 -1.251231397779e+01 0.0 
1.807401327411e+00 -1.388891148480e+01 0.0 
9.599810618782e+00 -1.595439365034e+01 0.0 
1.652144692160e+01 -4.205392788472e+00 0.0 
2.367839450246e+01 -8.188385218643e+00 0.0 
3.814894930468e+01 -1.390748338767e+01 0.0 
2.466448215774e+01 -1.685878545680e+01 0.0 
4.134044524611e+01 -1.806610045954e+01 0.0 
2.600511411958e+01 -9.801774120648e+00 0.0 
7.882158050716e+00 -1.582364037353e+01 0.0 
3.881607873422e+01 -1.737970515013e+01 0.0 
8.270182347708e+00 -1.088622154920e+01 0.0 
8.672520392520e-01 -4.532984309881e+00 0.0 
1.993447205337e+01 -3.579061902667e+00 0.0 
1.794616079549e+01 -7.238038888498e+00 0.0 
2.097277068165e+01 -1.132450168636e+01 0.0 
8.194803300681e+00 -1.187214224265e+01 0.0 
3.522279404911e+01 -1.823342818178e+01 0.0 
6.984481050295e+00 -1.625271465557e+01 0.0 
1.309433007797e+01 -1.521718594215e+01 0.0 
2.150246167611e+01 -1.885399038185e+00 0.0 
3.250689370209e+01 -1.028789870535e+01 0.0 
6.085886272238e+00 -1.668342132851e+01 0.0 
1.588455661727e+01 -1.193498985921e+01 0.0 
1.809323400821e+01 -1.651110084195e+01 0.0 
1.348885082381e+00 -1.136065576512e+01 0.0 
2.497670221995e+01 -1.834631276173e+01 0.0 
2.937062818424e+01 -8.233711194470e+00 0.0 
5.185823744469e+00 -1.711566910207e+01 0.0 
1.477497877209e+01 -1.530177014512e+01 0.0 
2.125346158933e+01 -7.473003997367e+00 0.0 
4.751561118290e+01 -1.084897772632e+01 0.0 
5.056026576843e+00 -1.825750475525e+01 0.0 
1.473948554523e+01 -1.634577436309e+01 0.0 
2.410566630936e+01 -1.345970002612e+01 0.0 
1.507337507513e+01 -1.138527895328e+01 0.0 
3.189857338687e+01 -8.887781229006e+00 0.0 
7.298712468334e+00 -1.230231046246e+01 0.0 
2.738235495295e+01 -1.368931690364e+01 0.0 
3.750141041969e+01 -1.920449893070e+01 0.0 
1.557271965640e+01 -1.683317951731e+01 0.0 
3.393731848929e+01 -1.413034777044e+01 0.0 
6.482156824153e+00 -1.174575135362e+01 0.0 
2.077971718439e+01 -1.421279621836e+01 0.0 
3.455084320178e+00 -2.562590040585e+00 0.0 
3.099056096250e+01 -9.270280416035e+00 0.0 
5.580176125418e+00 -1.217387969259e+01 0.0 
1.707247630389e+01 -7.660651981710e+00 0.0 
1.418658814174e+01 -1.180390575393e+01 0.0 
2.049103025389e+01 -1.811296706038e+01 0.0 
4.680386172316e+00 -1.260396879301e+01 0.0 
1.699679896554e+01 -8.624561788199e+00 0.0 
3.779470168555e+00 -1.303424899720e+01 0.0 
3.036589870126e+01 -7.879832518349e+00 0.0 
3.306993001774e+01 -1.457671062095e+01 0.0 
2.840150110165e+00 -1.346530088269e+01 0.0 
2.732011135052e+01 -1.464591214560e+01 0.0 
5.423639259568e+00 -2.659711955016e+00 0.0 
2.324455961696e+01 -1.387269388211e+01 0.0 
1.752768355571e+00 -1.693128613594e+01 0.0 
1.020244783051e+01 -8.076834012808e+00 0.0 
1.330873875224e+01 -1.222417528206e+01 0.0 
3.297727364880e+01 -1.555480372087e+01 0.0 
2.890929955439e+01 -6.868664170731e+00 0.0 
1.323294664622e+01 -1.320754260334e+01 0.0 
2.726532861246e+01 -1.560593120806e+01 0.0 
2.240020643398e+01 -1.429299177247e+01 0.0 
2.090445823633e+01 -1.228128621332e+01 0.0 
1.315809881502e+01 -1.420739326938e+01 0.0 
2.781328038068e+01 -7.181956082300e+00 0.0 
8.614200829057e+00 -5.936933226306e+00 0.0 
8.714765730069e+00 -4.979270529687e+00 0.0 
1.611881701099e+01 -9.041973294003e+00 0.0 
2.806830314340e+01 -1.614622947108e+01 0.0 
2.084435391396e+00 -3.385085422913e+00 0.0 
3.133211811152e+01 -1.542347619750e+01 0.0 
9.693114650768e+00 -3.590281506442e+00 0.0 
1.531883592202e+01 -8.504584946143e+00 0.0 
2.151589117094e+01 -1.578915763018e+01 0.0 
4.918943882696e+01 -1.355538828056e+01 0.0 
1.443236615188e+01 -8.918701794549e+00 0.0 
8.276250966452e-01 -5.537685192197e+00 0.0 
1.362790867918e+01 -8.374718262212e+00 0.0 
2.083767477370e+01 -1.324843956035e+01 0.0 
1.273834678703e+01 -8.790890389337e+00 0.0 
1.192275845670e+01 -8.242261327467e+00 0.0 
4.477236023583e+01 -1.824312396664e+01 0.0 
1.102989384254e+01 -8.649855800911e+00 0.0 
4.849096516045e+01 -1.917293752213e+01 0.0 
1.588996752238e+00 -1.910230934687e+01 0.0 
4.904245197583e+01 -1.159839008158e+01 0.0 
2.753852929608e+01 -5.782128488093e+00 0.0 
1.756133602833e+01 -8.306130313187e-01 0.0 
2.615423700951e+01 -6.153865090092e+00 0.0 
1.028818761294e+01 -7.122020845892e+00 0.0 
2.970818901196e+01 -1.527821347593e+01 0.0 
4.801461623449e+01 -1.164472570985e+01 0.0 
9.455722100419e+00 -6.546069291118e+00 0.0 
3.089099236677e+01 -1.835339328261e+01 0.0 
2.350000000013e+01 -1.920825896750e+01 0.0 
4.830620531887e+01 -1.506626155470e+01 0.0 
1.725381944701e+01 -1.688794487850e+01 0.0 
2.156246225273e+01 -1.475893794002e+01 0.0 
4.919319648787e+01 -1.742767505896e+01 0.0 
4.437935623576e+01 -1.077662927266e+01 0.0 
1.001520521978e+01 -1.652692675208e+00 0.0 
9.067160240050e-01 -1.441937727541e+01 0.0 
2.603365149390e+01 -4.755996613848e+00 0.0 
2.458344439002e+01 -4.873645517696e+00 0.0 
2.304312390142e+01 -3.836552768096e+00 0.0 
2.546923202198e+00 -6.902480355749e+00 0.0 
1.251534969393e+01 -2.490989965776e+00 0.0 
2.454061833377e+01 -3.933354231935e+00 0.0 
1.788186558740e+01 -1.827424884923e+01 0.0 
4.090785243552e+01 -1.166553231904e+01 0.0 
2.230128851568e+01 -1.623015738726e+01 0.0 
2.302362347568e+01 -2.916239960270e+00 0.0 
3.878119254461e+01 -1.830091164002e+01 0.0 
2.210081359958e+01 -1.829238229150e+01 0.0 
8.443704882233e+00 -1.921993252862e+01 0.0 
2.218405824691e+01 -1.724557581508e+01 0.0 
2.151157503963e+01 -2.790636689331e+00 0.0 
3.741658958955e+01 -1.250400191722e+01 0.0 
2.697247663737e+01 -1.838290202309e+01 0.0 
4.743362342862e+01 -1.585850773010e+01 0.0 
6.671345075358e+00 -1.924977576322e+01 0.0 
3.900825404537e+01 -1.157220003875e+01 0.0 
4.649692961375e+01 -1.836335837481e+01 0.0 
1.578831424832e+01 -3.678284023361e+00 0.0 
4.814208768888e+01 -1.841249298770e+01 0.0 
2.964123298315e+01 -1.625739458193e+01 0.0 
4.580760351902e+01 -1.284294554687e+01 0.0 
3.561520879615e+01 -1.245548941949e+01 0.0 
2.555418095658e+00 -1.841101588290e+01 0.0 
3.288468366144e+01 -1.834258164109e+01 0.0 
2.065894391445e+01 -2.240688571739e+00 0.0 
4.739171429915e+01 -1.496536413446e+01 0.0 
3.478086729185e+00 -8.576434653209e+00 0.0 
1.606010630246e+01 -1.588421807951e+00 0.0 
1.018329200594e+01 -1.834320874317e+01 0.0 
2.957213339430e+01 -1.720496954591e+01 0.0 
4.142712790164e+00 -1.837794506222e+01 0.0 
6.698721532573e-01 -2.499999999997e+00 0.0 
8.037039123140e+00 -1.571229354954e+00 0.0 
1.203541361428e+01 -1.847784298001e+01 0.0 
2.899968332038e+01 -1.848264722179e+01 0.0 
1.469229460948e+01 -4.219485753730e+00 0.0 
4.049590781957e+01 -1.932812501995e+01 0.0 
1.996211678340e+01 -1.506329754720e+00 0.0 
4.250588298353e+01 -1.067383247529e+01 0.0 
5.831497011152e+00 -1.635396227234e+00 0.0 
5.317606125670e+00 -1.923927974868e+01 0.0 
4.208546426993e+01 -1.842830665025e+01 0.0 
2.327553405011e+00 -9.459409929662e+00 0.0 
3.568351902251e+01 -1.096637218582e+01 0.0 
1.682104374890e+00 -6.231413350963e+00 0.0 
2.451812238018e+01 -1.766524914339e+01 0.0 
1.058003429638e+01 -2.391839617098e+00 0.0 
4.399988753123e+01 -1.851998776342e+01 0.0 
1.400000000010e+01 -1.852293523028e+01 0.0 
3.604719565984e+01 -1.850662876800e+01 0.0 
1.951297136734e+01 -1.938092349694e+01 0.0 
1.821365318472e+01 -1.531276353287e+00 0.0 
2.298031859732e+01 -1.854635324722e+01 0.0 
1.552168066204e+01 -1.764280741977e+01 0.0 
4.572957713638e+01 -1.073347898229e+01 0.0 
3.429637429624e+01 -1.838861552790e+01 0.0 
2.427434426052e+00 -7.705577451869e+00 0.0 
4.662792031485e+00 -3.359424455416e+00 0.0 
4.926794919243e+01 -1.926794919243e+01 0.0 
7.320508075690e-01 -7.320508075688e-01 0.0 
4.926794919243e+01 -1.073205080757e+01 0.0 
7.320508075705e-01 -1.926794919243e+01 0.0 
2.917460242467e+00 -3.202866455310e+00 0.0 
4.838200575963e+01 -1.232674147454e+01 0.0 
2.998445708009e+01 -1.854403752148e+01 0.0 
5.949940090766e-01 -1.152762038165e+01 0.0 
4.844763495759e+01 -1.678092548787e+01 0.0 
1.301685480160e+01 -3.170056592566e+00 0.0 
1.650046335855e+01 -6.731535384067e-01 0.0 
4.854881540991e+01 -1.405224059779e+01 0.0 
2.119545114693e+01 -1.846813384545e+01 0.0 
3.797852849897e+01 -1.857978513215e+01 0.0 
4.649823708745e+01 -1.338351810816e+01 0.0 
2.012685900976e+01 -2.889659035009e+00 0.0 
2.953271913273e+01 -1.791558075192e+01 0.0 
2.408509097292e+00 -1.021949208421e+01 0.0 
2.642589566221e+01 -1.773216561448e+01 0.0 
1.730010270775e+01 -1.763165076721e+01 0.0 
2.017406551304e+01 -8.513536440582e-01 0.0 
5.254761581934e-01 -1.249999999999e+01 0.0 
6.640448215642e+00 -1.545337834885e+00 0.0 
7.843361506349e+00 -1.852719839527e+01 0.0 
1.588442191088e+00 -1.066158564320e+01 0.0 

SCALARS node_number int
LOOKUP_TABLE default
1
2
3
4
5
6
7
8
9
10
11
12
13
14
15
16
17
18
19
20
21
22
23
24
25
26
27
28
29
30
31
32
33
34
35
36
37
38
39
40
41
42
43
44
45
46
47
48
49
50
51
52
53
54
55
56
57
58
59
60
61
62
63
64
65
66
67
68
69
70
71
72
73
74
75
76
77
78
79
80
81
82
84
85
86
87
88
89
90
91
92
93
104
105
106
107
108
109
110
111
112
113
114
115
116
117
118
119
120
121
122
123
124
125
126
127
128
129
130
131
132
133
134
135
136
362
363
364
365
366
367
368
369
370
371
372
373
374
375
376
377
378
379
380
381
382
383
384
385
386
387
388
389
390
391
392
393
394
395
396
397
398
399
400
401
402
403
404
405
406
407
408
409
410
411
412
413
414
415
416
417
418
419
420
421
422
423
424
425
426
427
428
429
430
431
432
433
434
435
436
437
438
439
440
441
442
443
444
445
446
447
448
449
450
451
452
453
454
455
456
457
458
459
460
461
462
463
464
465
466
467
468
469
470
471
472
473
474
475
476
477
478
479
480
481
482
483
484
485
486
487
488
489
490
491
492
493
494
495
496
497
498
499
500
501
502
503
504
505
506
507
508
509
510
511
512
513
514
515
516
517
518
519
520
521
522
523
524
525
526
527
528
529
530
531
532
533
534
535
536
537
538
539
540
541
542
543
544
545
546
547
548
549
550
551
552
553
554
555
556
557
558
559
560
561
562
563
564
565
566
567
568
569
570
571
572
573
574
575
576
577
578
579
580
581
582
583
584
585
586
587
588
589
590
591
592
593
594
595
596
597
598
599
600
601
602
603
604
605
606
607
608
609
610
611
612
613
614
615
616
617
618
619
620
621
622
623
624
625
626
627
628
629
630
631
632
633
634
635
636
637
638
639
640
641
642
643
644
645
646
647
648
649
650
651
652
653
654
655
656
657
658
659
660
661
662
663
664
665
666
667
668
669
670
671
672
673
674
675
676
677
678
679
680
681
682
683
684
685
686
687
688
689
690
691
692
693
694
695
696
697
698
699
700
701
702
703
704
705
706
707
708
709
710
711
712
713
714
715
716
717
718
719
720
721
722
723
724
725
726
727
728
729
730
731
732
733
734
735
736
737
738
739
740
741
742
743
744
745
746
747
748
749
750
751
752
753
754
755
756
757
758
759
760
761
762
763
764
765
766
767
768
769
770
771
772
773
774
775
776
777
778
779
780
781
782
783
784
785
786
787
788
789
790
791
792
793
794
795
796
797
798
799
800
801
802
803
804
805
806
807
808
809
810
811
812
813
814
815
816
817
818
819
820
821
822
823
824
825
826
827
828
829
830
831
832
833
834
835
836
837
838
839
840
841
842
843
844
845
846
847
848
849
850
851
852
853
854
855
856
857
858
859
860
861
862
863
864
865
866
867
868
869
870
871
872
873
874
875
876
877
878
879
880
881
882
883
884
885
886
887
888
889
890
891
892
893
894
895
896
897
898
899
900
901
902
903
904
905
906
907
908
909
910
911
912
913
914
915
916
917
918
919
920
921
922
923
924
925
926
927
928
929
930
931
932
933
934
935
936
937
938
939
940
941
942
943
944
945
946
947
948
949
950
951
952
953
954
955
956
957
958
959
960
961
962
963
964
965
966
967
968
969
970
971
972
973
974
975
976
977
978
979
980
981
982
983
984
985
986
987
988
989
990
991
992
993
994
995
996
997
998
999
1000
1001
1002
1003
1004
1005
1006
1007
1008
1009
1010
1011
1012
1013
1014
1015
1016
1017
1018
1019
1020
1021
1022
1023
1024
1025
1026
1027
1028
1029
1030
1031
1032
1033
1034
1035
1036
1037
1038
1039
1040
1041
1042
1043
1044
1045
1046
1047
1048
1049
1050
1051
1052
1053
1054
1055
1056
1057
1058
1059
1060
1061
1062
1063
1064
1065
1066
1067
1068
1069
1070
1071
1072
1073
1074
1075
1076
1077
1078
1079
1080
1081
1082
1083
1084
1085
1086
1087
1088
1089
1090
1091
1092
1093
1094
1095
1096
1097
1098
1099
1100
1101
1102
1103
1104
1105
1106
1107
1108
1109
1110
1111
1112
1113
1114
1115
1116
1117
1118
1119
1120
1121
1122
1123
1124
1125
1126
1127
1128
1129
1130
1131
1132
1133
1134
1135
1136
1137
1138
1139
1140
1141
1142
1143
1144
1145
1146
1147
1148
1149
1150
1151
1152
1153
1154
1155
1156
1157
1158
1159
1160
1161
1162
1163
1164
1165
1166
1167
1168
1169
1170
1171
1172
1173
1174
1175
1176
1177
1178
1179
1180
1181
1182
1183
1184
1185
1186
1187
1188
1189
1190
1191
1192
1193
1194
1195
1196
1197
1198
1199
1200
1201
1202
1203
1204
1205
1206
1207
1208
1209
1210
1211
1212
1213
1214
1215
1216
1217
1218
1219
1220
1221
1222
1223
1224
1225
1226
1227
1228
1229
1230
1231
1232
1233
1234
1235
1236
1237
1238
1239
1240
1241
1242
1243
1244
1245
1246
1247
1248
1249
1250
1251
1252
1253
1254
1255
1256
1257
1258
1259
1260
1261
1262
1263
1264

VECTORS node_mesh_deformation float
0.0 -2.380146029233e-02 0.0 
0.000000000000e+00 3.777867538584e-02 0.0 
0.0 0.000000000000e+00 0.0 
0.000000000000e+00 0.000000000000e+00 0.0 
0.0 -2.186665548751e-02 0.0 
0.0 -1.959115413619e-02 0.0 
0.0 -1.699486141684e-02 0.0 
0.0 -1.427289820022e-02 0.0 
0.0 -1.166542151810e-02 0.0 
0.0 -9.290632079564e-03 0.0 
0.0 -7.206646272785e-03 0.0 
0.0 -5.460358217563e-03 0.0 
0.0 -3.982974312503e-03 0.0 
0.0 -2.760161709407e-03 0.0 
0.0 -1.789597698446e-03 0.0 
0.0 -1.006786950780e-03 0.0 
0.0 -4.013719837683e-04 0.0 
0.0 8.148555258991e-05 0.0 
0.0 4.148441317593e-04 0.0 
0.0 6.077892475300e-04 0.0 
0.0 6.688241469952e-04 0.0 
0.0 5.890200817973e-04 0.0 
0.0 3.553061598538e-04 0.0 
0.000000000000e+00 0.000000000000e+00 0.0 
0.000000000000e+00 0.000000000000e+00 0.0 
0.000000000000e+00 0.000000000000e+00 0.0 
0.000000000000e+00 0.000000000000e+00 0.0 
0.000000000000e+00 0.000000000000e+00 0.0 
0.000000000000e+00 0.000000000000e+00 0.0 
0.000000000000e+00 0.000000000000e+00 0.0 
0.000000000000e+00 0.000000000000e+00 0.0 
0.000000000000e+00 0.000000000000e+00 0.0 
0.000000000000e+00 0.000000000000e+00 0.0 
0.000000000000e+00 0.000000000000e+00 0.0 
0.000000000000e+00 0.000000000000e+00 0.0 
0.000000000000e+00 0.000000000000e+00 0.0 
0.000000000000e+00 0.000000000000e+00 0.0 
0.000000000000e+00 0.000000000000e+00 0.0 
0.000000000000e+00 0.000000000000e+00 0.0 
0.000000000000e+00 0.000000000000e+00 0.0 
0.000000000000e+00 0.000000000000e+00 0.0 
0.000000000000e+00 0.000000000000e+00 0.0 
0.000000000000e+00 0.000000000000e+00 0.0 
0.000000000000e+00 0.000000000000e+00 0.0 
0.000000000000e+00 0.000000000000e+00 0.0 
0.000000000000e+00 0.000000000000e+00 0.0 
0.000000000000e+00 0.000000000000e+00 0.0 
0.000000000000e+00 0.000000000000e+00 0.0 
0.000000000000e+00 0.000000000000e+00 0.0 
0.000000000000e+00 0.000000000000e+00 0.0 
0.000000000000e+00 0.000000000000e+00 0.0 
0.000000000000e+00 0.000000000000e+00 0.0 
0.000000000000e+00 0.000000000000e+00 0.0 
0.000000000000e+00 0.000000000000e+00 0.0 
0.000000000000e+00 0.000000000000e+00 0.0 
0.000000000000e+00 0.000000000000e+00 0.0 
0.000000000000e+00 0.000000000000e+00 0.0 
0.000000000000e+00 0.000000000000e+00 0.0 
0.000000000000e+00 0.000000000000e+00 0.0 
0.000000000000e+00 0.000000000000e+00 0.0 
0.000000000000e+00 0.000000000000e+00 0.0 
0.000000000000e+00 0.000000000000e+00 0.0 
0.000000000000e+00 0.000000000000e+00 0.0 
0.000000000000e+00 0.000000000000e+00 0.0 
0.000000000000e+00 0.000000000000e+00 0.0 
0.000000000000e+00 0.000000000000e+00 0.0 
0.000000000000e+00 0.000000000000e+00 0.0 
0.000000000000e+00 0.000000000000e+00 0.0 
0.000000000000e+00 0.000000000000e+00 0.0 
0.000000000000e+00 0.000000000000e+00 0.0 
0.000000000000e+00 0.000000000000e+00 0.0 
0.000000000000e+00 0.000000000000e+00 0.0 
0.000000000000e+00 3.184225738916e-02 0.0 
0.000000000000e+00 2.674277853560e-02 0.0 
0.000000000000e+00 2.232226005732e-02 0.0 
0.000000000000e+00 1.816028482871e-02 0.0 
0.000000000000e+00 1.438993660723e-02 0.0 
0.000000000000e+00 1.087005214765e-02 0.0 
0.000000000000e+00 7.694497390307e-03 0.0 
0.000000000000e+00 4.902560356779e-03 0.0 
0.000000000000e+00 2.337080123574e-03 0.0 
5.622005671230e-02 -4.334291485444e-02 0.0 
6.556123534529e-02 4.802260853733e-02 0.0 
6.062917024148e-02 -3.527183875458e-02 0.0 
6.682415673373e-02 -2.438345046350e-02 0.0 
7.352472657397e-02 -1.228978965701e-02 0.0 
7.979668687662e-02 -4.324228795394e-05 0.0 
8.521199856134e-02 1.213222861592e-02 0.0 
8.913636796107e-02 2.373158523191e-02 0.0 
9.077423111293e-02 3.419853868508e-02 0.0 
8.909195444772e-02 4.316631267806e-02 0.0 
8.198728120450e-02 4.929412261476e-02 0.0 
3.409124784589e-03 3.800762478748e-02 0.0 
6.782536054359e-03 3.821848819154e-02 0.0 
1.014559521101e-02 3.875906719649e-02 0.0 
1.361185079216e-02 3.969037722966e-02 0.0 
1.716827546033e-02 4.076264360965e-02 0.0 
2.077501547966e-02 4.186258268098e-02 0.0 
2.449535037591e-02 4.336371491781e-02 0.0 
2.844186677881e-02 4.476119688707e-02 0.0 
3.238627674887e-02 4.631195013614e-02 0.0 
3.659827534124e-02 4.805277432640e-02 0.0 
4.107760314389e-02 4.981692529290e-02 0.0 
4.601702621881e-02 5.107276658445e-02 0.0 
5.155580466459e-02 5.223890470807e-02 0.0 
5.813158273007e-02 5.261858252853e-02 0.0 
5.625169436614e-02 -4.667009061100e-02 0.0 
5.598097163571e-02 -4.854081901450e-02 0.0 
5.535721822361e-02 -4.932079338171e-02 0.0 
5.450053455147e-02 -4.927001692346e-02 0.0 
5.315873238335e-02 -4.853400007882e-02 0.0 
5.148382318596e-02 -4.715075536903e-02 0.0 
4.949393194725e-02 -4.532635533770e-02 0.0 
4.725503027754e-02 -4.321676495817e-02 0.0 
4.473345709157e-02 -4.092147803434e-02 0.0 
4.189462388510e-02 -3.848648865435e-02 0.0 
3.873467508671e-02 -3.609042006582e-02 0.0 
3.532766562163e-02 -3.370866773013e-02 0.0 
3.152888857659e-02 -3.151005528727e-02 0.0 
2.744694517392e-02 -2.959469873108e-02 0.0 
2.310525201775e-02 -2.792490163291e-02 0.0 
1.860327386130e-02 -2.650108726185e-02 0.0 
1.400029169811e-02 -2.536104367096e-02 0.0 
9.319856053671e-03 -2.457801089731e-02 0.0 
4.638889224449e-03 -2.403181047274e-02 0.0 
5.812961999218e-02 -3.976714697278e-02 0.0 
6.359951744096e-02 -3.004964513117e-02 0.0 
7.015856780792e-02 -1.844687895075e-02 0.0 
7.676078589005e-02 -6.104805856958e-03 0.0 
8.282774929181e-02 6.340678594396e-03 0.0 
8.755495014781e-02 1.820933909345e-02 0.0 
9.029474664652e-02 2.910456676894e-02 0.0 
9.041822118654e-02 3.887293689185e-02 0.0 
8.641845231552e-02 4.671395930382e-02 0.0 
7.547447789378e-02 5.035386573900e-02 0.0 
6.915648530697e-02 -3.005447817901e-02 0.0 
3.571868335413e-03 2.359540808676e-04 0.0 
4.134807029254e-02 -3.862866052197e-02 0.0 
5.347233391596e-02 -4.841901978117e-02 0.0 
1.739526544524e-03 2.647646952489e-04 0.0 
8.217147632873e-02 -6.592481620621e-03 0.0 
1.067847376435e-03 -2.284703886971e-03 0.0 
5.691636391351e-03 3.272274813320e-04 0.0 
9.026568358771e-02 1.559259997828e-02 0.0 
7.950819151599e-03 5.031141123588e-04 0.0 
8.851501011428e-02 3.426134575304e-02 0.0 
8.357578177725e-04 2.914112255752e-04 0.0 
2.755539777220e-02 -2.888657050833e-02 0.0 
1.004447538974e-02 8.444185612149e-04 0.0 
6.699384218993e-02 4.004443095455e-02 0.0 
1.948465787278e-03 -8.252392270249e-03 0.0 
7.266374291098e-04 -2.465927072297e-04 0.0 
1.110632183306e-02 1.221987286289e-03 0.0 
9.707884837802e-03 1.691382974169e-03 0.0 
3.301310069773e-03 2.001605518984e-03 0.0 
6.054833077492e-03 2.184206379905e-03 0.0 
7.657712077730e-03 1.836861717937e-03 0.0 
5.157352024199e-02 4.296082097770e-02 0.0 
3.275363753336e-02 4.047190340497e-02 0.0 
2.123233107897e-02 3.638989751857e-02 0.0 
1.617030005818e-03 1.615943035566e-02 0.0 
4.777063497041e-04 3.228154641164e-04 0.0 
5.800468503903e-02 -4.736078347060e-02 0.0 
1.532804093142e-02 -2.420059793275e-02 0.0 
3.854837912385e-04 6.477319425109e-04 0.0 
1.094124830158e-02 3.377092596212e-02 0.0 
3.309910609350e-03 -1.580809560614e-02 0.0 
1.200485082159e-02 1.664352113764e-03 0.0 
6.305593923219e-03 3.538912727024e-04 0.0 
8.981184865608e-03 6.288968824251e-04 0.0 
4.947811879980e-03 3.026912206963e-04 0.0 
2.551213684713e-03 2.129178510906e-04 0.0 
4.910035108076e-02 -4.544555158552e-02 0.0 
4.164595044583e-02 4.325802259146e-02 0.0 
1.437962148476e-03 3.276099657299e-04 0.0 
1.195600321061e-03 9.344969798146e-03 0.0 
3.499847448357e-02 -3.360217396760e-02 0.0 
1.502002683750e-03 -4.783507422420e-03 0.0 
1.770146646656e-03 1.544104491174e-03 0.0 
8.711063721180e-02 4.173200711534e-03 0.0 
7.595139257185e-02 -1.856946403122e-02 0.0 
9.109825490846e-02 2.557007388672e-02 0.0 
8.103278050595e-02 4.009329901331e-02 0.0 
6.211190777747e-02 -3.976126611629e-02 0.0 
2.151343868640e-03 2.396119971738e-02 0.0 
2.123359646986e-04 2.586532711462e-04 0.0 
6.713327824907e-03 -2.261391240092e-02 0.0 
7.677486071103e-04 3.696771230750e-03 0.0 
6.132993315065e-02 3.860440683718e-02 0.0 
6.188130196168e-02 3.297605169540e-02 0.0 
5.527234914246e-02 3.234421964551e-02 0.0 
5.622953902240e-02 2.704285714057e-02 0.0 
5.061251526440e-02 2.589289380105e-02 0.0 
5.112348592090e-02 2.200408731300e-02 0.0 
5.647651835358e-02 2.257780879236e-02 0.0 
5.124630478137e-02 1.825136163209e-02 0.0 
5.632091893148e-02 1.849099980122e-02 0.0 
4.562784121450e-02 2.074977173104e-02 0.0 
5.095799605515e-02 1.474855916390e-02 0.0 
5.573436294314e-02 1.462860221070e-02 0.0 
5.021926035887e-02 1.141255451820e-02 0.0 
5.471418217239e-02 1.111703869599e-02 0.0 
6.041425926773e-02 1.408864880744e-02 0.0 
5.906373112429e-02 1.041055750679e-02 0.0 
6.480054245535e-02 1.300857466653e-02 0.0 
6.308872995288e-02 9.179107513779e-03 0.0 
5.729093389971e-02 7.139402943517e-03 0.0 
6.099019164127e-02 5.831187160453e-03 0.0 
6.675252021943e-02 7.444473349050e-03 0.0 
6.429335062708e-02 4.053903795477e-03 0.0 
6.991085287986e-02 5.169354722890e-03 0.0 
6.709333118614e-02 1.803724236806e-03 0.0 
7.251191267734e-02 2.386069747521e-03 0.0 
6.936420643876e-02 -8.722422746459e-04 0.0 
6.392220037095e-02 -9.644924220211e-04 0.0 
6.591379710659e-02 -3.507257843415e-03 0.0 
7.105354472868e-02 -3.916498964754e-03 0.0 
6.734527170919e-02 -6.391061068349e-03 0.0 
7.213805453431e-02 -7.275853235321e-03 0.0 
6.820384326845e-02 -9.526005903611e-03 0.0 
6.322004465791e-02 -8.153048877618e-03 0.0 
6.388778293610e-02 -1.105734831949e-02 0.0 
6.849225913885e-02 -1.287727438117e-02 0.0 
6.401861425822e-02 -1.408291121620e-02 0.0 
6.822513390651e-02 -1.631787812809e-02 0.0 
6.363118344134e-02 -1.715499126239e-02 0.0 
6.742049473660e-02 -1.976890081555e-02 0.0 
6.274045103991e-02 -2.020277577686e-02 0.0 
5.859349932700e-02 -1.716505194938e-02 0.0 
5.763394915591e-02 -1.981283943826e-02 0.0 
6.139152382581e-02 -2.315267441602e-02 0.0 
5.627361877947e-02 -2.232385824356e-02 0.0 
5.219406106851e-02 -1.869045543820e-02 0.0 
5.087189773023e-02 -2.082414375878e-02 0.0 
4.654921800526e-02 -1.702581445329e-02 0.0 
4.530334619612e-02 -1.882133916534e-02 0.0 
4.923963962298e-02 -2.272935617417e-02 0.0 
4.377379064087e-02 -2.039734290713e-02 0.0 
3.974495448790e-02 -1.651469070069e-02 0.0 
3.836496219594e-02 -1.783652751681e-02 0.0 
4.203970407856e-02 -2.177222661506e-02 0.0 
3.677303251047e-02 -1.894402302594e-02 0.0 
3.314408481860e-02 -1.519843427638e-02 0.0 
3.172486658938e-02 -1.610071088459e-02 0.0 
3.504584439903e-02 -1.983987677399e-02 0.0 
3.017353120778e-02 -1.681951733383e-02 0.0 
2.698330716388e-02 -1.334802772710e-02 0.0 
2.562282101268e-02 -1.395245112215e-02 0.0 
2.854158709281e-02 -1.736403535508e-02 0.0 
2.417690552449e-02 -1.438119838731e-02 0.0 
2.144914794087e-02 -1.129059966409e-02 0.0 
2.018813607338e-02 -1.165961880953e-02 0.0 
1.769938502413e-02 -8.909329337150e-03 0.0 
2.268355657950e-02 -1.468570475157e-02 0.0 
1.887854289138e-02 -1.190247749029e-02 0.0 
2.119977417586e-02 -1.486526258749e-02 0.0 
1.755827831785e-02 -1.203726960952e-02 0.0 
5.854811838202e-02 -9.165575736551e-03 0.0 
1.975917470824e-02 -1.490980072922e-02 0.0 
2.355149869467e-02 -1.801364741226e-02 0.0 
1.625972425820e-02 -1.208872769276e-02 0.0 
1.427628474601e-02 -9.538490095917e-03 0.0 
1.834747799661e-02 -1.486940596134e-02 0.0 
1.497508876455e-02 -1.207167176626e-02 0.0 
1.696589591419e-02 -1.477816015282e-02 0.0 
7.189437885406e-02 -1.864138680503e-02 0.0 
5.496694077859e-02 4.364150623273e-03 0.0 
1.368965709983e-02 -1.205089632081e-02 0.0 
1.560582154765e-02 -1.470276982980e-02 0.0 
1.908785082809e-02 -1.765500231187e-02 0.0 
1.764124743298e-02 -1.750433202483e-02 0.0 
4.485318464248e-02 2.401342523827e-02 0.0 
4.029618597630e-02 1.905590487363e-02 0.0 
3.941015643537e-02 2.214416467648e-02 0.0 
3.527441995497e-02 1.731974448586e-02 0.0 
3.431130153454e-02 2.004584913114e-02 0.0 
1.421083009756e-02 -1.469788888272e-02 0.0 
4.546441264807e-02 1.117838356242e-02 0.0 
3.585916882215e-02 1.459426852358e-02 0.0 
7.245684232938e-02 9.133177287470e-03 0.0 
7.580137512572e-02 -4.349675447758e-03 0.0 
4.745641666477e-02 -1.508821205513e-02 0.0 
1.193468328383e-02 -9.621147886135e-03 0.0 
1.072465872874e-02 -9.679833521007e-03 0.0 
9.242543824065e-03 -7.523689414461e-03 0.0 
1.872552528998e-02 -8.504687057398e-03 0.0 
1.526869520308e-02 -6.490776102677e-03 0.0 
1.604307949788e-02 -6.073687257944e-03 0.0 
1.291565584808e-02 -4.426610241078e-03 0.0 
1.343750331585e-02 -4.025564914738e-03 0.0 
1.067661112185e-02 -2.739204987080e-03 0.0 
1.025111705858e-02 -3.055304328788e-03 0.0 
8.358570317675e-03 -1.698255122204e-03 0.0 
8.017145150308e-03 -1.947533204593e-03 0.0 
1.095487022767e-02 -2.380908189631e-03 0.0 
1.379876315244e-02 -3.573528370481e-03 0.0 
6.454097097651e-03 -8.954900173084e-04 0.0 
6.179381247102e-03 -1.092891521935e-03 0.0 
4.912001790364e-03 -3.087110124458e-04 0.0 
4.688056759232e-03 -4.568616948255e-04 0.0 
5.793271985262e-03 -1.278916924976e-03 0.0 
4.355433405774e-03 -6.062883809168e-04 0.0 
5.311601021272e-03 -1.455195380530e-03 0.0 
4.170071509754e-02 -1.338128415980e-02 0.0 
4.217047895477e-02 -1.164240714697e-02 0.0 
3.646755701254e-02 -1.000201921864e-02 0.0 
3.648839133731e-02 -8.475605941703e-03 0.0 
3.101823519265e-02 -6.999372809114e-03 0.0 
3.060217733915e-02 -5.705180677085e-03 0.0 
2.550041710456e-02 -4.449499830665e-03 0.0 
2.594578634152e-02 -5.575401845768e-03 0.0 
4.897434915249e-02 8.353757941528e-03 0.0 
5.963294404129e-02 -2.589078512042e-02 0.0 
6.440359245664e-02 -2.640857988873e-02 0.0 
6.227019539004e-02 -2.934851545755e-02 0.0 
6.669239640662e-02 -2.956406511299e-02 0.0 
6.418931578955e-02 -3.265678961879e-02 0.0 
6.829841729711e-02 -3.260580561410e-02 0.0 
6.543767651418e-02 -3.581038101997e-02 0.0 
6.144548987065e-02 -3.533267241898e-02 0.0 
6.242036111781e-02 -3.853733439187e-02 0.0 
5.857471861890e-02 -3.752349245081e-02 0.0 
5.936482618982e-02 -4.068977230370e-02 0.0 
5.568406708833e-02 -3.923668214262e-02 0.0 
6.024695865056e-02 -3.058253443047e-03 0.0 
3.608491256677e-02 -6.962293250886e-03 0.0 
2.974372861915e-02 -4.475290567553e-03 0.0 
3.520611302779e-02 -5.475026695068e-03 0.0 
2.131541126000e-02 -2.060600828579e-02 0.0 
3.493192020771e-03 -4.078835214472e-06 0.0 
1.105778103107e-02 -1.999552548165e-03 0.0 
1.398540122634e-02 -3.087138705038e-03 0.0 
2.087741650514e-02 -3.333214938078e-03 0.0 
1.613961270137e-02 -1.745466555294e-02 0.0 
6.913234988958e-02 -3.545181853269e-02 0.0 
7.211478537865e-02 -3.167148188530e-02 0.0 
3.048644637941e-02 1.542791775540e-02 0.0 
2.952247625831e-02 1.786864459958e-02 0.0 
1.096262187445e-02 -1.594188190037e-03 0.0 
1.271690074905e-02 -1.482997292084e-02 0.0 
6.596258777073e-03 -6.941667622851e-04 0.0 
6.273128969773e-02 -4.144020859666e-02 0.0 
3.198954050355e-03 -1.238796900225e-04 0.0 
2.533886015297e-03 3.058747098237e-04 0.0 
9.701475907683e-03 -3.326469137782e-03 0.0 
2.841653203632e-02 -3.279895662901e-03 0.0 
3.394128026737e-02 -4.106796419798e-03 0.0 
5.448551824733e-02 -3.582515625735e-02 0.0 
5.177002193982e-02 -3.717147458982e-02 0.0 
5.285324948266e-02 -4.045187342750e-02 0.0 
4.898037166229e-02 -3.800205674510e-02 0.0 
4.749315203777e-02 -3.454819288794e-02 0.0 
4.497186412528e-02 -3.513866214259e-02 0.0 
4.647474570482e-02 -3.840187675605e-02 0.0 
4.260763652967e-02 -3.537887985244e-02 0.0 
4.066290750662e-02 -3.186611384008e-02 0.0 
3.844415202942e-02 -3.193790004963e-02 0.0 
4.045070050632e-02 -3.527259249621e-02 0.0 
3.640163618294e-02 -3.170810668111e-02 0.0 
2.695249799276e-03 3.741973832376e-04 0.0 
5.956721851178e-02 -4.349677933402e-02 0.0 
6.616488692234e-02 1.731094866479e-02 0.0 
8.453465860576e-03 -8.306759124252e-04 0.0 
2.012030926707e-02 -2.439288412363e-03 0.0 
2.586558906145e-02 1.333877389417e-02 0.0 
2.493525392327e-02 1.549807382888e-02 0.0 
2.821141575212e-02 2.024384323862e-02 0.0 
2.373774084551e-02 1.765263251537e-02 0.0 
2.065071736089e-02 1.317784909978e-02 0.0 
1.962609264769e-02 1.507291309974e-02 0.0 
2.234041815481e-02 1.959856657924e-02 0.0 
1.842613679871e-02 1.681578512233e-02 0.0 
2.086338760660e-02 2.132877901007e-02 0.0 
1.711025438020e-02 1.833668740788e-02 0.0 
1.492435453528e-02 1.410489826473e-02 0.0 
1.375803470560e-02 1.554594003638e-02 0.0 
1.566044153539e-02 1.979227074783e-02 0.0 
1.246317971296e-02 1.692123180898e-02 0.0 
1.411110781856e-02 2.118032768495e-02 0.0 
1.105124948056e-02 1.831837534520e-02 0.0 
9.675441215556e-03 1.432671491047e-02 0.0 
1.447350611296e-02 -1.749799928193e-02 0.0 
2.136686574387e-02 -4.226840302785e-03 0.0 
1.675301418161e-02 -2.282729622097e-03 0.0 
8.151582505977e-03 -7.696346511104e-03 0.0 
6.966628930449e-03 -5.813334421454e-03 0.0 
7.899593396739e-03 -5.650928072207e-03 0.0 
5.808720945641e-03 -4.174871018540e-03 0.0 
8.338677487409e-03 1.570697825055e-02 0.0 
7.251473276881e-03 1.204330628000e-02 0.0 
7.243958334472e-02 -3.410150464490e-02 0.0 
7.552533064706e-02 -2.981089934738e-02 0.0 
2.641127037532e-02 1.116821279914e-02 0.0 
2.264882246456e-03 2.072443533514e-04 0.0 
2.810375915503e-03 -2.632993647040e-04 0.0 
7.645844442470e-02 -8.195210184221e-03 0.0 
8.008530505726e-02 -4.843409364970e-03 0.0 
8.025478339094e-02 -9.130892173800e-03 0.0 
8.376713114646e-02 -5.382822850986e-03 0.0 
8.344645993787e-02 -7.925239844919e-04 0.0 
8.333770599596e-02 -1.013808564273e-02 0.0 
1.718537967299e-02 -5.045420974669e-03 0.0 
1.186433887199e-02 1.166125277642e-02 0.0 
2.282709375209e-02 -2.091201764333e-02 0.0 
2.517765730933e-02 -2.395067314500e-02 0.0 
1.763157179839e-03 4.987944034838e-04 0.0 
2.605096131145e-02 -6.657664564599e-03 0.0 
5.794821573355e-02 -9.611772772278e-04 0.0 
5.377746475782e-02 -2.438119806435e-03 0.0 
5.112729347933e-02 -7.436177647175e-04 0.0 
4.641230696770e-02 -1.638905630658e-03 0.0 
4.337959441260e-02 -3.157933347246e-04 0.0 
3.825097807053e-02 -7.444828177192e-04 0.0 
4.118849814348e-02 -2.072320841988e-03 0.0 
2.657009426926e-02 -2.183499497505e-03 0.0 
3.285653867408e-02 -9.315712698630e-04 0.0 
9.648846743687e-03 1.983318227322e-02 0.0 
4.186304867794e-02 -8.106409987569e-03 0.0 
3.621357592652e-02 -2.832139493625e-02 0.0 
1.815204890463e-02 -2.016381114366e-02 0.0 
3.863082401242e-02 -3.492207219178e-02 0.0 
1.102563649301e-02 -1.516891880560e-02 0.0 
9.535910332628e-03 -1.251475847563e-02 0.0 
8.098643424757e-03 -5.249896128561e-04 0.0 
3.478851868442e-02 1.978576927293e-04 0.0 
3.984319383249e-02 7.328083731082e-04 0.0 
8.677171848078e-02 -7.436670484120e-04 0.0 
8.639963914904e-02 4.063040190777e-03 0.0 
2.159834666650e-02 -1.589880465193e-03 0.0 
3.810047694687e-02 2.530770461097e-02 0.0 
2.491824021919e-02 2.440925156217e-02 0.0 
2.308314969046e-02 2.618637784834e-02 0.0 
1.306589289638e-02 -1.821773022632e-02 0.0 
4.230496241778e-02 -3.815306532489e-02 0.0 
1.681831348436e-02 1.091762318935e-02 0.0 
7.479040030339e-02 -2.753702993756e-02 0.0 
7.825766305377e-02 -2.516670651786e-02 0.0 
6.228146860636e-02 -4.392646787705e-02 0.0 
5.912389102725e-02 -4.580924206596e-02 0.0 
6.133487375841e-03 1.337146593463e-02 0.0 
5.144035389598e-03 9.915632810035e-03 0.0 
6.681624713170e-03 -4.023316496470e-03 0.0 
4.905262321989e-03 -2.856136094728e-03 0.0 
1.064092790225e-02 -1.188871939185e-03 0.0 
3.455569332302e-02 -3.127856306411e-02 0.0 
5.967604161029e-03 8.641109716169e-03 0.0 
2.152880243503e-02 -5.147289298188e-03 0.0 
2.584162276327e-02 -7.711597191950e-03 0.0 
4.863959060058e-03 -4.343577119252e-03 0.0 
7.513290131056e-02 -3.176636828818e-02 0.0 
7.171536681589e-02 -3.614004713926e-02 0.0 
3.839807436496e-02 -2.806998035281e-02 0.0 
3.223564920124e-02 -2.804976151745e-02 0.0 
7.807674307121e-03 -1.304874258731e-02 0.0 
7.504852458002e-03 -2.579792345081e-04 0.0 
1.742887355852e-02 9.109512543894e-03 0.0 
3.574856224027e-02 -2.021242205135e-03 0.0 
4.367711042795e-02 -3.540953699456e-03 0.0 
2.750482578191e-02 -7.822841260996e-04 0.0 
3.677982081200e-02 -3.420754159560e-02 0.0 
6.026860146118e-03 -7.647940070399e-05 0.0 
1.508920877905e-03 4.292619116146e-04 0.0 
3.121436004712e-02 9.121904028895e-04 0.0 
3.581046957172e-02 1.453015323332e-03 0.0 
7.705650644119e-02 -2.314444202762e-02 0.0 
8.056377660100e-02 -2.020678645839e-02 0.0 
8.115769659200e-02 -2.175418703856e-02 0.0 
8.350940391206e-02 -1.644512151021e-02 0.0 
6.197715183799e-02 2.276657921019e-02 0.0 
7.880220728340e-02 -1.854643947349e-02 0.0 
7.074695324870e-02 1.587692257603e-02 0.0 
7.236258164126e-02 2.095111191369e-02 0.0 
7.679691113818e-02 1.894986160299e-02 0.0 
8.245685579547e-02 3.458764487222e-03 0.0 
8.528056109260e-02 8.501202505867e-03 0.0 
6.889326428444e-02 -2.612955946369e-02 0.0 
4.798304932126e-02 -1.305741942445e-02 0.0 
8.842478883693e-03 -5.531623908235e-03 0.0 
7.001136576918e-03 -2.372800137570e-03 0.0 
1.964154148993e-02 -7.997866751888e-03 0.0 
1.275472035734e-02 1.020921067509e-02 0.0 
9.827170462145e-03 8.079764392782e-03 0.0 
1.749276872512e-02 2.432289675435e-02 0.0 
1.566055378510e-02 2.573113920460e-02 0.0 
2.366352617294e-02 -2.350914551751e-02 0.0 
2.764853804738e-02 -2.686344323885e-02 0.0 
1.439055218990e-02 -6.826461889617e-03 0.0 
6.403556763326e-03 -2.575036039403e-04 0.0 
2.189084592386e-02 9.186594974317e-03 0.0 
2.165165408748e-02 7.320468999435e-03 0.0 
2.638824026804e-02 8.948178943374e-03 0.0 
1.006489071398e-02 -7.649009111894e-04 0.0 
5.756502972429e-02 -2.834545823148e-02 0.0 
3.608633497217e-02 -1.149465703145e-02 0.0 
5.665038081248e-02 -4.499653003947e-02 0.0 
5.751123830555e-02 -6.686255044029e-03 0.0 
2.604397912694e-02 -2.626322668790e-02 0.0 
5.116954954456e-02 5.306726925998e-03 0.0 
1.146046979902e-03 6.127054279652e-04 0.0 
1.288338419130e-03 6.206390695915e-04 0.0 
1.943410028090e-02 -8.021904322639e-04 0.0 
6.778456399380e-02 3.335612260490e-02 0.0 
5.241978986479e-02 -7.199861213175e-03 0.0 
5.337725312255e-02 -9.443257364428e-03 0.0 
7.864308621202e-02 2.484546008542e-02 0.0 
8.260542710492e-02 2.216154716530e-02 0.0 
8.042637443994e-02 1.621136057830e-02 0.0 
8.559568618426e-02 1.876546459928e-02 0.0 
3.380854426101e-02 -2.458196770059e-02 0.0 
3.180785430933e-02 -2.473161760478e-02 0.0 
2.526946148842e-02 6.303315206289e-04 0.0 
2.447977773452e-02 -9.878113355910e-05 0.0 
2.688995996994e-02 1.302849348498e-03 0.0 
3.122577207214e-02 1.832099118094e-03 0.0 
1.499288545103e-02 -4.195737665889e-04 0.0 
1.706602490635e-02 -1.043258595903e-03 0.0 
6.615460362230e-03 -1.047988701225e-02 0.0 
8.876221706999e-02 9.667359522510e-03 0.0 
1.380973393646e-02 7.159621873345e-03 0.0 
7.377555771516e-02 2.665734134017e-02 0.0 
4.437171726925e-03 2.236378365019e-04 0.0 
4.770815692989e-03 9.128292849780e-05 0.0 
5.638743288839e-02 -4.710817760128e-02 0.0 
5.373636030845e-02 -4.577529703914e-02 0.0 
4.136703700716e-03 6.821566595594e-03 0.0 
8.305165202534e-02 -1.731853729685e-02 0.0 
8.543279904584e-02 -1.179123650218e-02 0.0 
8.018363792479e-02 -2.286888562379e-02 0.0 
1.497018270414e-04 5.036044483582e-04 0.0 
4.775710501740e-03 3.291048392494e-02 0.0 
8.060576571869e-04 6.360550005375e-04 0.0 
8.062243039005e-02 7.445222235212e-03 0.0 
4.775632755504e-03 5.480673699719e-03 0.0 
4.699248124566e-02 -7.093485454725e-03 0.0 
7.654918565066e-02 -1.230155594295e-02 0.0 
1.363429185203e-02 -1.977812463842e-03 0.0 
3.264200180219e-03 8.240396487285e-03 0.0 
2.627184167210e-03 5.083204034701e-03 0.0 
2.717079235317e-02 2.959682997517e-02 0.0 
2.514975214215e-02 3.149911221427e-02 0.0 
2.930565542882e-02 2.772537154015e-02 0.0 
6.568401854435e-02 -4.122789146981e-02 0.0 
6.464307280026e-02 -4.330330650268e-02 0.0 
9.123573190521e-03 9.390217129170e-03 0.0 
9.505540389462e-03 -9.798648446748e-03 0.0 
6.651531443545e-03 -7.562929630847e-03 0.0 
3.059872250611e-02 -2.775219728491e-02 0.0 
2.814922381421e-02 -2.444864675797e-02 0.0 
7.521285325292e-03 -3.889731524852e-03 0.0 
9.773639951678e-03 -5.407383106027e-03 0.0 
4.821538509428e-02 3.172334210038e-03 0.0 
4.421562440431e-02 3.849798828528e-03 0.0 
5.516977064882e-02 8.198793229823e-04 0.0 
2.139943474270e-02 -5.991988215879e-03 0.0 
2.535695933945e-02 -8.670982022718e-03 0.0 
3.017237198149e-02 -1.072518093793e-02 0.0 
1.034964858899e-02 6.709830274303e-03 0.0 
7.325982998111e-03 4.638022480620e-03 0.0 
3.594938638029e-02 -2.427667410673e-02 0.0 
4.070678821367e-02 -2.758112555156e-02 0.0 
2.940939619992e-02 -2.120846143896e-02 0.0 
1.384399775217e-02 5.553473796621e-03 0.0 
8.694067546426e-04 5.748167788902e-04 0.0 
1.340918003917e-03 6.034403853725e-04 0.0 
2.997267302132e-02 -2.942196613127e-02 0.0 
3.162878841997e-02 -3.020878634781e-02 0.0 
7.342913116708e-02 -3.323452690975e-02 0.0 
6.976221360691e-02 -3.767578115749e-02 0.0 
2.086152416270e-02 5.553387685655e-03 0.0 
2.574046945330e-02 7.001108548845e-03 0.0 
1.576614939539e-02 4.069093410543e-03 0.0 
4.834398421256e-03 -1.134100053839e-02 0.0 
3.808750596551e-02 -3.328707693903e-03 0.0 
6.920328217602e-03 -1.662233717781e-05 0.0 
9.518746325117e-03 -4.663742640112e-04 0.0 
4.521773262567e-03 2.345023117343e-04 0.0 
2.454167416616e-02 -1.143764023997e-03 0.0 
1.706872210566e-02 -9.662794417764e-05 0.0 
1.901052261160e-02 1.438919727121e-04 0.0 
5.813207461704e-02 -4.749729168043e-02 0.0 
1.882907734689e-03 6.140984245633e-03 0.0 
1.922249107704e-02 2.924309517392e-02 0.0 
5.619627829337e-02 -4.831005693829e-02 0.0 
1.707802640502e-02 3.100119004450e-02 0.0 
1.370900974942e-02 2.736316088766e-02 0.0 
1.524636734550e-02 3.296323873023e-02 0.0 
5.757941203660e-03 -1.388317145590e-02 0.0 
3.233458958551e-02 3.457229076787e-02 0.0 
3.451822361032e-02 3.150538707515e-02 0.0 
3.440058572143e-02 -3.303880602211e-02 0.0 
9.890536233975e-03 3.799447475906e-03 0.0 
2.844842195841e-02 -2.861450863946e-02 0.0 
2.452695051469e-02 -2.584655295976e-02 0.0 
3.144386073817e-03 3.361242152486e-04 0.0 
3.484829593019e-03 3.225672095546e-04 0.0 
2.106984296734e-03 4.247216845741e-04 0.0 
2.517763264026e-03 4.631200280443e-04 0.0 
3.705689486639e-03 2.779425026063e-04 0.0 
2.673310954291e-03 4.523193062909e-04 0.0 
2.342309745456e-02 3.359429580450e-02 0.0 
1.609237105120e-03 4.692929301484e-04 0.0 
1.862391727263e-03 5.203155605287e-04 0.0 
1.006810984282e-03 4.023813012495e-04 0.0 
8.737069460702e-02 2.575808498202e-02 0.0 
8.526601196895e-02 -1.129660607346e-02 0.0 
8.733242753374e-02 -6.196325709045e-03 0.0 
8.610716636560e-02 -5.885886413886e-03 0.0 
2.010561226039e-02 1.377974777967e-03 0.0 
2.676418872872e-02 2.065490398795e-03 0.0 
8.924271053279e-04 5.670283010648e-04 0.0 
1.108226943302e-03 3.361501611163e-04 0.0 
1.173088731812e-02 2.935186514343e-02 0.0 
8.630910684829e-03 2.888749367134e-02 0.0 
8.811391427308e-03 2.469262933002e-02 0.0 
6.406248054397e-03 2.471922798673e-02 0.0 
6.536597912074e-03 2.092364512734e-02 0.0 
4.239014350773e-03 2.110949000212e-02 0.0 
4.773253100595e-03 1.753223415870e-02 0.0 
1.561209955367e-02 4.524596029256e-04 0.0 
8.052879604615e-02 -1.821307224562e-02 0.0 
8.027431633577e-02 3.164025940481e-02 0.0 
1.091144574153e-02 -4.931269191033e-05 0.0 
1.347735743357e-02 -5.015948627651e-04 0.0 
8.768616051699e-02 1.435544404317e-02 0.0 
9.045893521061e-02 1.623159153181e-02 0.0 
3.556536560293e-03 3.128764416260e-04 0.0 
7.492204101614e-02 -2.099656288322e-02 0.0 
7.916698653048e-03 2.144005287636e-03 0.0 
5.894848137869e-02 -4.520694701306e-02 0.0 
6.133804192813e-02 -4.542119028629e-02 0.0 
7.613134193537e-02 -1.674442323540e-02 0.0 
8.326158490420e-02 1.271780722988e-02 0.0 
8.640410248604e-02 -5.979656616000e-03 0.0 
8.858769364893e-02 -3.815877884641e-04 0.0 
1.749183125142e-02 -3.759820957956e-03 0.0 
3.562958142454e-02 -3.366505676278e-02 0.0 
7.692614115208e-02 -2.824723193718e-02 0.0 
6.941436500512e-03 1.750264237681e-02 0.0 
7.382760121469e-02 -2.941469149095e-02 0.0 
4.790402111796e-04 5.084951260343e-04 0.0 
7.065438088461e-02 -2.247405943395e-02 0.0 
7.769315176564e-02 2.938756774864e-03 0.0 
7.831937399648e-02 -2.692995437690e-02 0.0 
8.228000877104e-02 -1.501524683604e-02 0.0 
6.139675032849e-02 1.818773749608e-02 0.0 
6.217108266580e-02 2.766732208809e-02 0.0 
6.778058944599e-02 2.757291240281e-02 0.0 
6.617746244299e-02 -2.319123662976e-02 0.0 
8.907485134127e-02 4.860570741291e-03 0.0 
8.991582634662e-02 6.220927207080e-03 0.0 
6.890998386567e-02 1.137392512693e-02 0.0 
3.115593786406e-02 1.056066389987e-02 0.0 
3.062790404245e-02 8.238255140938e-03 0.0 
2.432295238339e-02 5.216196791455e-03 0.0 
2.925837865266e-02 6.364666037424e-03 0.0 
3.558544216531e-02 9.526581053304e-03 0.0 
3.434909129275e-02 7.116022597089e-03 0.0 
2.702660294641e-02 4.451422960656e-03 0.0 
3.230038551213e-02 5.255213565206e-03 0.0 
2.191998964788e-02 2.852991244346e-03 0.0 
2.894808430809e-02 3.542578574866e-03 0.0 
3.736547230418e-02 5.577552322311e-03 0.0 
3.451419300444e-02 3.915416507390e-03 0.0 
2.605066767933e-02 2.646779269188e-03 0.0 
4.256425684540e-02 5.930040116221e-03 0.0 
8.695424217496e-03 2.749224588179e-04 0.0 
7.255843787699e-02 -1.474161293373e-02 0.0 
6.110060829504e-02 -4.587474844159e-02 0.0 
6.456871181436e-02 -4.248994619989e-02 0.0 
7.538438110232e-02 6.314823356922e-03 0.0 
1.110033121444e-02 1.391366135888e-03 0.0 
1.044444927488e-02 1.527293174533e-03 0.0 
7.090378626512e-02 -2.899857177462e-02 0.0 
9.505793937738e-03 7.514970365108e-04 0.0 
6.717024014746e-02 2.215712257896e-02 0.0 
6.597538145216e-02 -3.872232049271e-02 0.0 
8.585407615701e-03 5.832831579902e-04 0.0 
3.599779954406e-02 1.193813847966e-02 0.0 
4.094256488163e-02 1.327489331391e-02 0.0 
4.083127833193e-02 1.613409241371e-02 0.0 
8.842969794571e-03 1.572402391723e-03 0.0 
3.122271329155e-02 2.554118541503e-02 0.0 
5.785579603501e-03 3.317740761553e-04 0.0 
4.222937262316e-02 -9.866200904044e-03 0.0 
4.813216026647e-02 -1.103369905420e-02 0.0 
5.372362671070e-02 -1.408640216249e-02 0.0 
3.939721966101e-02 7.957982955256e-03 0.0 
4.028258445061e-03 1.946047387911e-04 0.0 
7.556054033756e-03 6.980989170202e-05 0.0 
6.629296239680e-03 1.011347155107e-04 0.0 
1.110732868104e-02 -4.135130388860e-04 0.0 
3.053956201168e-03 2.427339342361e-04 0.0 
9.987565732605e-03 1.018787523186e-03 0.0 
9.315078392788e-03 8.790420208342e-04 0.0 
4.302276680001e-02 -3.145523462491e-02 0.0 
4.545368052945e-02 -3.071990850531e-02 0.0 
4.301816657554e-02 -2.681210761795e-02 0.0 
4.792374214539e-02 -2.964937190033e-02 0.0 
5.010504072532e-02 -3.350839811664e-02 0.0 
5.268391514414e-02 -3.214259267648e-02 0.0 
5.033392689280e-02 -2.831552158846e-02 0.0 
5.721339146546e-02 -3.409317482100e-02 0.0 
3.585313018889e-02 2.813483673485e-03 0.0 
2.221184968725e-03 2.496778221719e-04 0.0 
1.668547920257e-02 -5.584488347896e-03 0.0 
2.044887156259e-02 -7.425871028584e-03 0.0 
2.372644429148e-02 -1.020388657498e-02 0.0 
1.137044118916e-02 -7.364908078051e-03 0.0 
1.241290397200e-02 -7.248797699843e-03 0.0 
1.066473582249e-02 -5.243070954148e-03 0.0 
1.031951722315e-02 -7.450005349778e-03 0.0 
4.895870194866e-02 -3.288559355852e-03 0.0 
1.910871680080e-03 2.471237615040e-04 0.0 
3.076497678506e-02 -9.559260564721e-03 0.0 
1.544858918496e-02 -9.414365295173e-03 0.0 
4.640119679678e-02 4.359842030459e-02 0.0 
4.626761418712e-02 3.636948973474e-02 0.0 
5.070237444328e-02 3.457186874552e-02 0.0 
4.434952993434e-02 2.853479606080e-02 0.0 
4.057708459903e-02 3.584501729570e-02 0.0 
5.655360003234e-03 -2.691698893095e-03 0.0 
4.113591452553e-03 -1.775726795696e-03 0.0 
3.425860660679e-03 -1.964519591830e-03 0.0 
2.834772041694e-03 -1.085461834318e-03 0.0 
2.181054856538e-03 -1.310342023553e-03 0.0 
2.672134621456e-03 -2.208055971968e-03 0.0 
1.771726389924e-03 -5.890682026504e-04 0.0 
1.188073636632e-03 -9.026079529360e-04 0.0 
3.697151948631e-02 4.210473867498e-02 0.0 
5.140383540081e-02 -4.720889708104e-02 0.0 
4.939415264859e-02 -4.522349866454e-02 0.0 
4.670572384360e-02 -4.326830944774e-02 0.0 
4.715780115970e-02 -4.279461202515e-02 0.0 
5.009663548622e-02 -4.441427997581e-02 0.0 
4.770562016684e-02 -4.143986274574e-02 0.0 
5.109332612867e-02 -4.325607494666e-02 0.0 
5.213351031661e-02 -4.678932161490e-02 0.0 
4.670729002510e-02 -4.340328116601e-02 0.0 
4.394130853496e-02 -4.103855690024e-02 0.0 
4.415458558507e-02 -4.110412428818e-02 0.0 
4.110280159396e-02 -3.860767040487e-02 0.0 
4.074753147844e-02 -3.788782920953e-02 0.0 
2.907702040780e-02 -2.733869669846e-02 0.0 
4.183403418274e-04 3.675267676577e-04 0.0 
1.283782344852e-03 -3.420793818453e-03 0.0 
2.737606546985e-03 -4.310859131859e-03 0.0 
3.156837962003e-03 -5.738119601096e-03 0.0 
4.484061843113e-03 -5.361772586422e-03 0.0 
2.261353429416e-03 -3.157450058682e-03 0.0 
1.708042350247e-03 -6.375364537388e-03 0.0 
3.590037257821e-03 -7.292628597963e-03 0.0 
1.101486535463e-02 -2.322044482501e-02 0.0 
8.276935984096e-03 -2.093655028465e-02 0.0 
3.829698016748e-03 -2.062349077203e-02 0.0 
5.783919974445e-03 -1.849617728503e-02 0.0 
9.479237874991e-03 -1.931204349644e-02 0.0 
1.228908418810e-02 -2.178680875283e-02 0.0 
1.631014099694e-02 -2.296179771451e-02 0.0 
1.962914514649e-02 -2.551698655029e-02 0.0 
2.016751740068e-02 -2.438943462434e-02 0.0 
1.670696536477e-02 -2.145592148987e-02 0.0 
2.367469470681e-02 -2.707773561311e-02 0.0 
1.500791372351e-03 1.254738692129e-02 0.0 
2.794645253474e-03 1.087675562525e-02 0.0 
1.502329458930e-03 2.739293511418e-04 0.0 
2.834685219587e-02 3.871422890948e-02 0.0 
3.827653139155e-02 -3.606425180270e-02 0.0 
3.114785820451e-03 2.338271749725e-03 0.0 
4.820026515738e-03 1.971974156273e-03 0.0 
3.867883440734e-03 1.954453085858e-03 0.0 
2.669116243956e-04 6.500198894521e-04 0.0 
4.201176008358e-04 5.934311095288e-04 0.0 
1.781754871395e-03 2.270507734675e-03 0.0 
2.051815456757e-02 -1.783117681749e-02 0.0 
2.209689138252e-02 3.943677679104e-03 0.0 
6.701335874709e-03 7.302582985300e-03 0.0 
6.911130139737e-02 -3.796597005659e-02 0.0 
2.992834309574e-02 -2.469440241180e-02 0.0 
1.866873408496e-03 9.687045536744e-05 0.0 
7.555421344958e-03 -2.170235215027e-03 0.0 
1.916553582439e-03 5.418739474763e-04 0.0 
3.927518801561e-03 -7.612756615849e-04 0.0 
3.679880309011e-03 1.012410708814e-04 0.0 
5.919665354744e-03 1.271162699936e-04 0.0 
9.154959863638e-03 -1.571197012834e-02 0.0 
1.922524194704e-02 2.288402815410e-02 0.0 
1.255118899356e-02 2.266196053302e-02 0.0 
1.083957932273e-02 1.299410376976e-02 0.0 
1.239977617469e-02 -1.207610166314e-02 0.0 
4.105931622237e-03 -2.996682319818e-03 0.0 
1.979367515403e-02 -2.034819246630e-02 0.0 
1.681492558363e-02 8.103715864713e-04 0.0 
7.473337456398e-02 1.378801162777e-02 0.0 
2.263839036934e-02 -1.080515504526e-02 0.0 
1.310528482939e-02 -9.594146860374e-03 0.0 
2.199284364096e-02 -1.794439049099e-02 0.0 
3.415986042311e-02 -2.829564924681e-02 0.0 
7.263231788997e-02 -1.089754188344e-02 0.0 
1.659863935505e-02 -9.210796772022e-03 0.0 
8.561116659820e-03 -1.426247719607e-03 0.0 
8.250116520855e-03 1.070485374319e-02 0.0 
3.098085519604e-02 -3.077495438965e-02 0.0 
8.600966961305e-03 -1.125197984285e-03 0.0 
1.226571050277e-02 -4.765512971082e-03 0.0 
2.660151683272e-02 2.251392128018e-02 0.0 
2.467589532202e-02 -3.417046992649e-03 0.0 
4.408814270881e-02 -3.835822203281e-02 0.0 
1.597359235988e-02 1.262796499476e-02 0.0 
1.739177602556e-02 5.784851284098e-03 0.0 
3.620152855182e-02 2.871339964799e-02 0.0 
2.204455011204e-02 -2.317732359139e-02 0.0 
2.124598836467e-02 2.782702327044e-02 0.0 
5.449968977999e-03 1.072839841001e-04 0.0 
3.106046170119e-02 1.293512176752e-02 0.0 
1.104441574349e-02 -1.220358596528e-02 0.0 
4.088507762988e-02 -1.502667037152e-02 0.0 
7.447550936520e-02 -8.163012642530e-04 0.0 
7.506927728919e-02 4.105163920967e-02 0.0 
7.279244195821e-03 6.166696910991e-03 0.0 
5.910372173590e-02 -1.178347604604e-02 0.0 
1.592202390508e-02 -1.603569553005e-03 0.0 
3.105512683334e-02 -8.314885435519e-03 0.0 
8.151761019831e-03 -1.001130452973e-02 0.0 
4.972488791649e-03 -2.916079831650e-05 0.0 
5.314378650004e-02 -1.641862659695e-02 0.0 
1.345757777591e-02 8.838163763720e-03 0.0 
4.799617039755e-02 6.572763583836e-04 0.0 
5.456844501037e-02 -2.462183758517e-02 0.0 
2.144687312732e-02 1.111594051762e-02 0.0 
2.824114180694e-02 -1.262370159707e-02 0.0 
2.337141015561e-02 -2.486815724723e-03 0.0 
7.802949099782e-02 1.093933859995e-02 0.0 
6.141010733505e-02 1.224573955446e-03 0.0 
5.330480014788e-02 7.995268919609e-03 0.0 
6.200323303428e-02 -5.482722745018e-03 0.0 
1.318951198915e-03 -3.972542386244e-05 0.0 
6.586025480500e-03 -4.867421010850e-04 0.0 
5.646233764466e-02 -4.231355123934e-02 0.0 
7.984286959433e-02 -1.370421690038e-02 0.0 
3.297433343955e-02 2.285796623109e-02 0.0 
2.977301721183e-02 2.610651603518e-05 0.0 
1.030474883135e-02 5.335985533591e-03 0.0 
7.924163131386e-02 -7.927237421921e-04 0.0 
5.016110668535e-03 -1.610717828804e-04 0.0 
1.776112525972e-02 7.289917258230e-03 0.0 
1.342955800473e-02 -7.073520255714e-03 0.0 
2.633265880222e-03 -1.301211129980e-02 0.0 
6.815798754081e-02 -3.998961957171e-02 0.0 
5.984909639887e-02 -3.193044347539e-02 0.0 
5.910795968513e-02 -1.446952634750e-02 0.0 
1.150982809019e-02 -5.038418701936e-03 0.0 
1.832713575423e-02 3.728924380106e-03 0.0 
3.754917922327e-03 1.937964272045e-04 0.0 
1.392125359307e-02 -2.550406555013e-03 0.0 
6.565887868778e-02 -3.528737977335e-02 0.0 
7.470642476848e-02 3.315455116432e-02 0.0 
2.745476413746e-03 4.206943380858e-04 0.0 
3.538468103572e-02 -1.287418963555e-02 0.0 
1.886346056483e-02 -1.669811165595e-03 0.0 
1.482579621949e-03 -1.608169318430e-03 0.0 
1.601727968890e-02 6.778645552075e-04 0.0 
8.938517156495e-02 2.102052473038e-02 0.0 
1.953202843469e-03 5.433398705463e-04 0.0 
1.726930795636e-02 -3.051671074026e-03 0.0 
7.312241352483e-02 -2.508327157767e-02 0.0 
7.876143878114e-03 3.332683660459e-02 0.0 
1.129844450731e-03 5.184785951791e-04 0.0 
1.303447293851e-02 -1.420717139538e-03 0.0 
5.591804383112e-02 -4.450977713866e-03 0.0 
3.436987299311e-02 -1.411652312999e-02 0.0 
8.558941185999e-02 3.750456302018e-02 0.0 
9.048907358985e-03 -3.552453391253e-03 0.0 
5.843216680610e-02 3.011302644884e-03 0.0 
7.936758085179e-03 1.725697988110e-03 0.0 
1.246849912583e-02 -9.124453848735e-04 0.0 
4.608040791786e-02 1.753042945975e-02 0.0 
8.320820748360e-03 -3.741819271724e-03 0.0 
4.119015725404e-02 -6.470725344952e-03 0.0 
1.312224520424e-02 -2.027137915259e-02 0.0 
8.433241605564e-02 2.914013222749e-02 0.0 
6.360354619654e-03 -2.539584505412e-03 0.0 
5.522284698590e-02 -3.044335410494e-02 0.0 
2.931171691147e-02 -1.175268389096e-02 0.0 
1.286627880988e-02 -3.318692586873e-05 0.0 
4.746446462237e-03 -1.612647870429e-03 0.0 
5.255176068585e-02 -2.662004362964e-02 0.0 
3.416760282210e-03 -9.140582128886e-04 0.0 
9.034268131025e-02 2.974407625763e-02 0.0 
4.593875966331e-02 1.414864892484e-02 0.0 
2.302309321180e-03 -4.036870357620e-04 0.0 
5.191238998754e-02 2.184160451613e-03 0.0 
2.023004342005e-02 -2.297501123003e-02 0.0 
5.099760808000e-02 -5.129043801187e-03 0.0 
6.473508559508e-04 6.567046442214e-04 0.0 
2.515915780623e-02 -1.794440454634e-02 0.0 
2.469661479294e-02 -9.523305132442e-03 0.0 
4.050416368093e-02 1.040814226627e-02 0.0 
9.099916827718e-02 2.062199704542e-02 0.0 
2.106753667440e-02 -6.774358711743e-03 0.0 
4.442266037077e-02 1.688075518947e-03 0.0 
4.564541201036e-02 -5.238872789038e-03 0.0 
5.381102329407e-02 -1.173831826048e-02 0.0 
1.743872059409e-02 -4.430847521091e-03 0.0 
9.049708324793e-02 1.123434760238e-02 0.0 
2.424990491641e-02 -2.111034007589e-02 0.0 
2.664551803012e-02 -2.426388946535e-02 0.0 
4.734451029141e-02 -2.437441202881e-02 0.0 
4.033324284850e-02 2.389276654331e-03 0.0 
7.317758332869e-03 -1.682761900171e-02 0.0 
4.429616334563e-02 8.313803059378e-03 0.0 
3.300546413402e-02 -3.083087105050e-02 0.0 
4.526027090651e-02 -2.573249709180e-02 0.0 
3.195042161825e-02 -2.701712118579e-03 0.0 
1.911196052788e-03 1.999555092902e-02 0.0 
4.011343518189e-02 -2.285285554936e-02 0.0 
2.188974742796e-03 -1.047865045717e-02 0.0 
3.809207365366e-02 -2.370717783452e-02 0.0 
4.776139978577e-02 -9.025145108483e-03 0.0 
3.319717080774e-02 -2.048584059442e-02 0.0 
3.129641457123e-02 -2.094453707239e-02 0.0 
5.244273901873e-03 4.372982303725e-03 0.0 
2.684237121228e-02 -1.770311097698e-02 0.0 
9.653907748159e-04 1.797320204904e-03 0.0 
1.722154917174e-04 3.494801448838e-04 0.0 
2.808588102440e-03 2.879907472337e-02 0.0 
8.854273798986e-02 1.105003935966e-02 0.0 
5.674023108624e-02 -4.863481601358e-02 0.0 
8.837366543533e-02 -5.796599702323e-04 0.0 
2.760923045843e-02 -2.132400702804e-02 0.0 
4.710075995400e-02 5.834320489269e-03 0.0 
5.816463054529e-03 2.887734943123e-02 0.0 
2.585808925800e-02 -2.124413727387e-02 0.0 
1.951740856236e-02 2.099915842784e-03 0.0 
6.883302077547e-03 4.009878619584e-04 0.0 
3.217459186345e-03 1.411723311121e-02 0.0 
1.508443572177e-02 -1.000965305234e-03 0.0 
3.976769280961e-02 -4.794828491519e-03 0.0 
9.134247515803e-04 6.444441062907e-03 0.0 
1.834104753016e-02 3.638422644634e-02 0.0 
3.810434347562e-02 -3.607615621797e-02 0.0 
5.966707956720e-04 2.247454622424e-04 0.0 
8.403701660000e-02 -6.707017643324e-04 0.0 
8.334950725461e-02 -1.238938414541e-02 0.0 
7.715508126381e-02 -2.401446232355e-02 0.0 
5.673797743885e-03 -8.344740977259e-03 0.0 
4.422958279268e-02 -4.073452377383e-02 0.0 
7.923102829822e-02 -1.266539027265e-02 0.0 
8.666108997691e-03 7.721649781089e-05 0.0 
2.912904344137e-02 3.494236980159e-02 0.0 
3.044616711090e-02 -1.738986663213e-03 0.0 
7.262150687654e-02 -2.450799381044e-02 0.0 
1.330237242878e-02 4.168816929013e-03 0.0 
1.343936840782e-02 2.900169071971e-04 0.0 
9.714546475230e-04 2.656644223826e-04 0.0 
2.198005923301e-02 -4.457087284422e-04 0.0 
7.006997779772e-02 -3.460645408806e-02 0.0 
4.103466528058e-02 3.093116987981e-02 0.0 
1.747996691063e-02 1.027924832528e-03 0.0 
4.271646911249e-03 1.149650160690e-02 0.0 
6.719268391464e-04 2.773386814425e-04 0.0 
3.723443054800e-02 3.734299898546e-02 0.0 
3.202068348010e-03 3.964671402997e-03 0.0 
5.385647632819e-02 -4.336635534082e-02 0.0 
1.611300295544e-03 3.746409471169e-03 0.0 
3.959395321239e-02 4.078925573690e-03 0.0 
1.099548244795e-02 2.429974265076e-02 0.0 
4.924426030025e-02 2.892014189161e-02 0.0 
4.965796385363e-04 5.168073556376e-04 0.0 
1.921633101836e-02 2.702717092461e-03 0.0 
6.619063513536e-02 -3.957120439333e-02 0.0 
5.075990178831e-03 1.473454123058e-02 0.0 
6.178743509486e-03 -6.086208790418e-03 0.0 
5.455905777890e-02 -4.791236708344e-02 0.0 
2.807637233360e-03 3.458398662168e-04 0.0 
3.110182243660e-02 2.857100920934e-03 0.0 
8.467704983870e-04 5.034550379257e-04 0.0 
2.626262210354e-03 -1.842308557158e-02 0.0 
3.189029395785e-02 -3.119118158034e-02 0.0 
3.411164421989e-03 2.731515713776e-04 0.0 
1.761263242645e-02 1.481237767070e-03 0.0 
4.967642267243e-02 -4.060765164822e-02 0.0 
5.104365794892e-03 1.480683637897e-03 0.0 
6.200432872450e-02 -4.311038396520e-02 0.0 
2.529585089099e-02 3.930432853188e-02 0.0 
2.373133934244e-02 -2.615982369368e-02 0.0 
5.169583287206e-04 2.873676673509e-04 0.0 
7.873571333675e-03 4.034812876846e-03 0.0 
3.514820155110e-03 -3.995271267584e-03 0.0 
5.638496777971e-02 4.008195524557e-02 0.0 
4.085095462124e-03 -9.200112480727e-03 0.0 
2.207013701267e-02 4.134010604702e-04 0.0 
3.845856811897e-02 -3.607824419297e-02 0.0 
5.423990478363e-03 3.714570694363e-03 0.0 
4.429355238521e-03 2.166745019352e-04 0.0 
1.518955046926e-02 3.232944309627e-03 0.0 
3.650136758388e-03 2.421369587609e-04 0.0 
5.908035473342e-02 -4.724758204902e-02 0.0 
1.224113383767e-02 4.058395427080e-04 0.0 
9.060827713393e-03 -2.253846821993e-04 0.0 
1.376519414904e-02 3.529780414507e-02 0.0 
1.772461470385e-02 3.083864734386e-03 0.0 
4.816677136579e-03 -6.740779293449e-03 0.0 
1.631175483638e-02 -1.988523046789e-02 0.0 
4.506510947095e-04 1.594572949276e-03 0.0 
3.170610768318e-03 -2.250334524780e-02 0.0 
2.346157856692e-03 3.344763637119e-02 0.0 
6.904141457509e-05 2.800843801545e-04 0.0 
1.041778684175e-02 -1.803923346558e-02 0.0 
4.372191829823e-03 2.545768451790e-02 0.0 
1.726103415264e-02 1.651595854508e-03 0.0 
6.287012825804e-04 -1.374950989705e-03 0.0 
2.065247131839e-03 8.357270408723e-03 0.0 
4.496636288335e-02 -4.031517467481e-02 0.0 
5.512403291625e-02 -4.905057154575e-02 0.0 
3.166452658803e-03 1.801791331639e-02 0.0 
1.114159431220e-02 2.697756875811e-04 0.0 
1.246295090635e-02 3.364094940594e-03 0.0 
8.514205712352e-03 2.148796303572e-02 0.0 
6.710278560836e-02 -4.067987427199e-02 0.0 
2.392181209316e-02 2.134278151075e-03 0.0 
3.228044578817e-03 -3.075552584470e-03 0.0 
2.364645922512e-02 9.745419447533e-04 0.0 
1.129206065398e-02 -3.265154383634e-04 0.0 
5.955874634518e-02 -4.256282394985e-02 0.0 
4.746988230782e-04 -6.928528441197e-04 0.0 
2.692251679672e-02 -2.800971916462e-02 0.0 
1.664416978993e-03 4.097321678884e-04 0.0 
1.952311230998e-03 -2.341135045331e-03 0.0 

VECTORS node_bounda_dof_materi_velocity_x float
1.000000000000e+00 0.0 0.0 
1.000000000000e+00 0.0 0.0 
1.000000000000e+00 0.0 0.0 
1.000000000000e+00 0.0 0.0 
1.000000000000e+00 0.0 0.0 
1.000000000000e+00 0.0 0.0 
1.000000000000e+00 0.0 0.0 
1.000000000000e+00 0.0 0.0 
1.000000000000e+00 0.0 0.0 
1.000000000000e+00 0.0 0.0 
1.000000000000e+00 0.0 0.0 
1.000000000000e+00 0.0 0.0 
1.000000000000e+00 0.0 0.0 
1.000000000000e+00 0.0 0.0 
1.000000000000e+00 0.0 0.0 
1.000000000000e+00 0.0 0.0 
1.000000000000e+00 0.0 0.0 
1.000000000000e+00 0.0 0.0 
1.000000000000e+00 0.0 0.0 
1.000000000000e+00 0.0 0.0 
1.000000000000e+00 0.0 0.0 
1.000000000000e+00 0.0 0.0 
1.000000000000e+00 0.0 0.0 
1.000000000000e+00 0.0 0.0 
1.000000000000e+00 0.0 0.0 
1.000000000000e+00 0.0 0.0 
1.000000000000e+00 0.0 0.0 
1.000000000000e+00 0.0 0.0 
1.000000000000e+00 0.0 0.0 
1.000000000000e+00 0.0 0.0 
1.000000000000e+00 0.0 0.0 
1.000000000000e+00 0.0 0.0 
1.000000000000e+00 0.0 0.0 
1.000000000000e+00 0.0 0.0 
1.000000000000e+00 0.0 0.0 
1.000000000000e+00 0.0 0.0 
1.000000000000e+00 0.0 0.0 
1.000000000000e+00 0.0 0.0 
1.000000000000e+00 0.0 0.0 
1.000000000000e+00 0.0 0.0 
1.000000000000e+00 0.0 0.0 
1.000000000000e+00 0.0 0.0 
1.000000000000e+00 0.0 0.0 
1.000000000000e+00 0.0 0.0 
1.000000000000e+00 0.0 0.0 
1.000000000000e+00 0.0 0.0 
1.000000000000e+00 0.0 0.0 
1.000000000000e+00 0.0 0.0 
1.000000000000e+00 0.0 0.0 
1.000000000000e+00 0.0 0.0 
1.000000000000e+00 0.0 0.0 
1.000000000000e+00 0.0 0.0 
1.000000000000e+00 0.0 0.0 
1.000000000000e+00 0.0 0.0 
1.000000000000e+00 0.0 0.0 
1.000000000000e+00 0.0 0.0 
1.000000000000e+00 0.0 0.0 
1.000000000000e+00 0.0 0.0 
1.000000000000e+00 0.0 0.0 
1.000000000000e+00 0.0 0.0 
1.000000000000e+00 0.0 0.0 
1.000000000000e+00 0.0 0.0 
1.000000000000e+00 0.0 0.0 
1.000000000000e+00 0.0 0.0 
1.000000000000e+00 0.0 0.0 
1.000000000000e+00 0.0 0.0 
1.000000000000e+00 0.0 0.0 
1.000000000000e+00 0.0 0.0 
1.000000000000e+00 0.0 0.0 
1.000000000000e+00 0.0 0.0 
1.000000000000e+00 0.0 0.0 
1.000000000000e+00 0.0 0.0 
1.000000000000e+00 0.0 0.0 
1.000000000000e+00 0.0 0.0 
1.000000000000e+00 0.0 0.0 
1.000000000000e+00 0.0 0.0 
1.000000000000e+00 0.0 0.0 
1.000000000000e+00 0.0 0.0 
1.000000000000e+00 0.0 0.0 
1.000000000000e+00 0.0 0.0 
1.000000000000e+00 0.0 0.0 
0.0 0.0 0.0 
0.0 0.0 0.0 
0.0 0.0 0.0 
0.0 0.0 0.0 
0.0 0.0 0.0 
0.0 0.0 0.0 
0.0 0.0 0.0 
0.0 0.0 0.0 
0.0 0.0 0.0 
0.0 0.0 0.0 
0.0 0.0 0.0 
0.0 0.0 0.0 
0.0 0.0 0.0 
0.0 0.0 0.0 
0.0 0.0 0.0 
0.0 0.0 0.0 
0.0 0.0 0.0 
0.0 0.0 0.0 
0.0 0.0 0.0 
0.0 0.0 0.0 
0.0 0.0 0.0 
0.0 0.0 0.0 
0.0 0.0 0.0 
0.0 0.0 0.0 
0.0 0.0 0.0 
0.0 0.0 0.0 
0.0 0.0 0.0 
0.0 0.0 0.0 
0.0 0.0 0.0 
0.0 0.0 0.0 
0.0 0.0 0.0 
0.0 0.0 0.0 
0.0 0.0 0.0 
0.0 0.0 0.0 
0.0 0.0 0.0 
0.0 0.0 0.0 
0.0 0.0 0.0 
0.0 0.0 0.0 
0.0 0.0 0.0 
0.0 0.0 0.0 
0.0 0.0 0.0 
0.0 0.0 0.0 
0.0 0.0 0.0 
0.0 0.0 0.0 
0.0 0.0 0.0 
0.0 0.0 0.0 
0.0 0.0 0.0 
0.0 0.0 0.0 
0.0 0.0 0.0 
0.0 0.0 0.0 
0.0 0.0 0.0 
0.0 0.0 0.0 
0.0 0.0 0.0 
0.0 0.0 0.0 
0.0 0.0 0.0 
0.0 0.0 0.0 
0.0 0.0 0.0 
0.0 0.0 0.0 
0.0 0.0 0.0 
0.0 0.0 0.0 
0.0 0.0 0.0 
0.0 0.0 0.0 
0.0 0.0 0.0 
0.0 0.0 0.0 
0.0 0.0 0.0 
0.0 0.0 0.0 
0.0 0.0 0.0 
0.0 0.0 0.0 
0.0 0.0 0.0 
0.0 0.0 0.0 
0.0 0.0 0.0 
0.0 0.0 0.0 
0.0 0.0 0.0 
0.0 0.0 0.0 
0.0 0.0 0.0 
0.0 0.0 0.0 
0.0 0.0 0.0 
0.0 0.0 0.0 
0.0 0.0 0.0 
0.0 0.0 0.0 
0.0 0.0 0.0 
0.0 0.0 0.0 
0.0 0.0 0.0 
0.0 0.0 0.0 
0.0 0.0 0.0 
0.0 0.0 0.0 
0.0 0.0 0.0 
0.0 0.0 0.0 
0.0 0.0 0.0 
0.0 0.0 0.0 
0.0 0.0 0.0 
0.0 0.0 0.0 
0.0 0.0 0.0 
0.0 0.0 0.0 
0.0 0.0 0.0 
0.0 0.0 0.0 
0.0 0.0 0.0 
0.0 0.0 0.0 
0.0 0.0 0.0 
0.0 0.0 0.0 
0.0 0.0 0.0 
0.0 0.0 0.0 
0.0 0.0 0.0 
0.0 0.0 0.0 
0.0 0.0 0.0 
0.0 0.0 0.0 
0.0 0.0 0.0 
0.0 0.0 0.0 
0.0 0.0 0.0 
0.0 0.0 0.0 
0.0 0.0 0.0 
0.0 0.0 0.0 
0.0 0.0 0.0 
0.0 0.0 0.0 
0.0 0.0 0.0 
0.0 0.0 0.0 
0.0 0.0 0.0 
0.0 0.0 0.0 
0.0 0.0 0.0 
0.0 0.0 0.0 
0.0 0.0 0.0 
0.0 0.0 0.0 
0.0 0.0 0.0 
0.0 0.0 0.0 
0.0 0.0 0.0 
0.0 0.0 0.0 
0.0 0.0 0.0 
0.0 0.0 0.0 
0.0 0.0 0.0 
0.0 0.0 0.0 
0.0 0.0 0.0 
0.0 0.0 0.0 
0.0 0.0 0.0 
0.0 0.0 0.0 
0.0 0.0 0.0 
0.0 0.0 0.0 
0.0 0.0 0.0 
0.0 0.0 0.0 
0.0 0.0 0.0 
0.0 0.0 0.0 
0.0 0.0 0.0 
0.0 0.0 0.0 
0.0 0.0 0.0 
0.0 0.0 0.0 
0.0 0.0 0.0 
0.0 0.0 0.0 
0.0 0.0 0.0 
0.0 0.0 0.0 
0.0 0.0 0.0 
0.0 0.0 0.0 
0.0 0.0 0.0 
0.0 0.0 0.0 
0.0 0.0 0.0 
0.0 0.0 0.0 
0.0 0.0 0.0 
0.0 0.0 0.0 
0.0 0.0 0.0 
0.0 0.0 0.0 
0.0 0.0 0.0 
0.0 0.0 0.0 
0.0 0.0 0.0 
0.0 0.0 0.0 
0.0 0.0 0.0 
0.0 0.0 0.0 
0.0 0.0 0.0 
0.0 0.0 0.0 
0.0 0.0 0.0 
0.0 0.0 0.0 
0.0 0.0 0.0 
0.0 0.0 0.0 
0.0 0.0 0.0 
0.0 0.0 0.0 
0.0 0.0 0.0 
0.0 0.0 0.0 
0.0 0.0 0.0 
0.0 0.0 0.0 
0.0 0.0 0.0 
0.0 0.0 0.0 
0.0 0.0 0.0 
0.0 0.0 0.0 
0.0 0.0 0.0 
0.0 0.0 0.0 
0.0 0.0 0.0 
0.0 0.0 0.0 
0.0 0.0 0.0 
0.0 0.0 0.0 
0.0 0.0 0.0 
0.0 0.0 0.0 
0.0 0.0 0.0 
0.0 0.0 0.0 
0.0 0.0 0.0 
0.0 0.0 0.0 
0.0 0.0 0.0 
0.0 0.0 0.0 
0.0 0.0 0.0 
0.0 0.0 0.0 
0.0 0.0 0.0 
0.0 0.0 0.0 
0.0 0.0 0.0 
0.0 0.0 0.0 
0.0 0.0 0.0 
0.0 0.0 0.0 
0.0 0.0 0.0 
0.0 0.0 0.0 
0.0 0.0 0.0 
0.0 0.0 0.0 
0.0 0.0 0.0 
0.0 0.0 0.0 
0.0 0.0 0.0 
0.0 0.0 0.0 
0.0 0.0 0.0 
0.0 0.0 0.0 
0.0 0.0 0.0 
0.0 0.0 0.0 
0.0 0.0 0.0 
0.0 0.0 0.0 
0.0 0.0 0.0 
0.0 0.0 0.0 
0.0 0.0 0.0 
0.0 0.0 0.0 
0.0 0.0 0.0 
0.0 0.0 0.0 
0.0 0.0 0.0 
0.0 0.0 0.0 
0.0 0.0 0.0 
0.0 0.0 0.0 
0.0 0.0 0.0 
0.0 0.0 0.0 
0.0 0.0 0.0 
0.0 0.0 0.0 
0.0 0.0 0.0 
0.0 0.0 0.0 
0.0 0.0 0.0 
0.0 0.0 0.0 
0.0 0.0 0.0 
0.0 0.0 0.0 
0.0 0.0 0.0 
0.0 0.0 0.0 
0.0 0.0 0.0 
0.0 0.0 0.0 
0.0 0.0 0.0 
0.0 0.0 0.0 
0.0 0.0 0.0 
0.0 0.0 0.0 
0.0 0.0 0.0 
0.0 0.0 0.0 
0.0 0.0 0.0 
0.0 0.0 0.0 
0.0 0.0 0.0 
0.0 0.0 0.0 
0.0 0.0 0.0 
0.0 0.0 0.0 
0.0 0.0 0.0 
0.0 0.0 0.0 
0.0 0.0 0.0 
0.0 0.0 0.0 
0.0 0.0 0.0 
0.0 0.0 0.0 
0.0 0.0 0.0 
0.0 0.0 0.0 
0.0 0.0 0.0 
0.0 0.0 0.0 
0.0 0.0 0.0 
0.0 0.0 0.0 
0.0 0.0 0.0 
0.0 0.0 0.0 
0.0 0.0 0.0 
0.0 0.0 0.0 
0.0 0.0 0.0 
0.0 0.0 0.0 
0.0 0.0 0.0 
0.0 0.0 0.0 
0.0 0.0 0.0 
0.0 0.0 0.0 
0.0 0.0 0.0 
0.0 0.0 0.0 
0.0 0.0 0.0 
0.0 0.0 0.0 
0.0 0.0 0.0 
0.0 0.0 0.0 
0.0 0.0 0.0 
0.0 0.0 0.0 
0.0 0.0 0.0 
0.0 0.0 0.0 
0.0 0.0 0.0 
0.0 0.0 0.0 
0.0 0.0 0.0 
0.0 0.0 0.0 
0.0 0.0 0.0 
0.0 0.0 0.0 
0.0 0.0 0.0 
0.0 0.0 0.0 
0.0 0.0 0.0 
0.0 0.0 0.0 
0.0 0.0 0.0 
0.0 0.0 0.0 
0.0 0.0 0.0 
0.0 0.0 0.0 
0.0 0.0 0.0 
0.0 0.0 0.0 
0.0 0.0 0.0 
0.0 0.0 0.0 
0.0 0.0 0.0 
0.0 0.0 0.0 
0.0 0.0 0.0 
0.0 0.0 0.0 
0.0 0.0 0.0 
0.0 0.0 0.0 
0.0 0.0 0.0 
0.0 0.0 0.0 
0.0 0.0 0.0 
0.0 0.0 0.0 
0.0 0.0 0.0 
0.0 0.0 0.0 
0.0 0.0 0.0 
0.0 0.0 0.0 
0.0 0.0 0.0 
0.0 0.0 0.0 
0.0 0.0 0.0 
0.0 0.0 0.0 
0.0 0.0 0.0 
0.0 0.0 0.0 
0.0 0.0 0.0 
0.0 0.0 0.0 
0.0 0.0 0.0 
0.0 0.0 0.0 
0.0 0.0 0.0 
0.0 0.0 0.0 
0.0 0.0 0.0 
0.0 0.0 0.0 
0.0 0.0 0.0 
0.0 0.0 0.0 
0.0 0.0 0.0 
0.0 0.0 0.0 
0.0 0.0 0.0 
0.0 0.0 0.0 
0.0 0.0 0.0 
0.0 0.0 0.0 
0.0 0.0 0.0 
0.0 0.0 0.0 
0.0 0.0 0.0 
0.0 0.0 0.0 
0.0 0.0 0.0 
0.0 0.0 0.0 
0.0 0.0 0.0 
0.0 0.0 0.0 
0.0 0.0 0.0 
0.0 0.0 0.0 
0.0 0.0 0.0 
0.0 0.0 0.0 
0.0 0.0 0.0 
0.0 0.0 0.0 
0.0 0.0 0.0 
0.0 0.0 0.0 
0.0 0.0 0.0 
0.0 0.0 0.0 
0.0 0.0 0.0 
0.0 0.0 0.0 
0.0 0.0 0.0 
0.0 0.0 0.0 
0.0 0.0 0.0 
0.0 0.0 0.0 
0.0 0.0 0.0 
0.0 0.0 0.0 
0.0 0.0 0.0 
0.0 0.0 0.0 
0.0 0.0 0.0 
0.0 0.0 0.0 
0.0 0.0 0.0 
0.0 0.0 0.0 
0.0 0.0 0.0 
0.0 0.0 0.0 
0.0 0.0 0.0 
0.0 0.0 0.0 
0.0 0.0 0.0 
0.0 0.0 0.0 
0.0 0.0 0.0 
0.0 0.0 0.0 
0.0 0.0 0.0 
0.0 0.0 0.0 
0.0 0.0 0.0 
0.0 0.0 0.0 
0.0 0.0 0.0 
0.0 0.0 0.0 
0.0 0.0 0.0 
0.0 0.0 0.0 
0.0 0.0 0.0 
0.0 0.0 0.0 
0.0 0.0 0.0 
0.0 0.0 0.0 
0.0 0.0 0.0 
0.0 0.0 0.0 
0.0 0.0 0.0 
0.0 0.0 0.0 
0.0 0.0 0.0 
0.0 0.0 0.0 
0.0 0.0 0.0 
0.0 0.0 0.0 
0.0 0.0 0.0 
0.0 0.0 0.0 
0.0 0.0 0.0 
0.0 0.0 0.0 
0.0 0.0 0.0 
0.0 0.0 0.0 
0.0 0.0 0.0 
0.0 0.0 0.0 
0.0 0.0 0.0 
0.0 0.0 0.0 
0.0 0.0 0.0 
0.0 0.0 0.0 
0.0 0.0 0.0 
0.0 0.0 0.0 
0.0 0.0 0.0 
0.0 0.0 0.0 
0.0 0.0 0.0 
0.0 0.0 0.0 
0.0 0.0 0.0 
0.0 0.0 0.0 
0.0 0.0 0.0 
0.0 0.0 0.0 
0.0 0.0 0.0 
0.0 0.0 0.0 
0.0 0.0 0.0 
0.0 0.0 0.0 
0.0 0.0 0.0 
0.0 0.0 0.0 
0.0 0.0 0.0 
0.0 0.0 0.0 
0.0 0.0 0.0 
0.0 0.0 0.0 
0.0 0.0 0.0 
0.0 0.0 0.0 
0.0 0.0 0.0 
0.0 0.0 0.0 
0.0 0.0 0.0 
0.0 0.0 0.0 
0.0 0.0 0.0 
0.0 0.0 0.0 
0.0 0.0 0.0 
0.0 0.0 0.0 
0.0 0.0 0.0 
0.0 0.0 0.0 
0.0 0.0 0.0 
0.0 0.0 0.0 
0.0 0.0 0.0 
0.0 0.0 0.0 
0.0 0.0 0.0 
0.0 0.0 0.0 
0.0 0.0 0.0 
0.0 0.0 0.0 
0.0 0.0 0.0 
0.0 0.0 0.0 
0.0 0.0 0.0 
0.0 0.0 0.0 
0.0 0.0 0.0 
0.0 0.0 0.0 
0.0 0.0 0.0 
0.0 0.0 0.0 
0.0 0.0 0.0 
0.0 0.0 0.0 
0.0 0.0 0.0 
0.0 0.0 0.0 
0.0 0.0 0.0 
0.0 0.0 0.0 
0.0 0.0 0.0 
0.0 0.0 0.0 
0.0 0.0 0.0 
0.0 0.0 0.0 
0.0 0.0 0.0 
0.0 0.0 0.0 
0.0 0.0 0.0 
0.0 0.0 0.0 
0.0 0.0 0.0 
0.0 0.0 0.0 
0.0 0.0 0.0 
0.0 0.0 0.0 
0.0 0.0 0.0 
0.0 0.0 0.0 
0.0 0.0 0.0 
0.0 0.0 0.0 
0.0 0.0 0.0 
0.0 0.0 0.0 
0.0 0.0 0.0 
0.0 0.0 0.0 
0.0 0.0 0.0 
0.0 0.0 0.0 
0.0 0.0 0.0 
0.0 0.0 0.0 
0.0 0.0 0.0 
0.0 0.0 0.0 
0.0 0.0 0.0 
0.0 0.0 0.0 
0.0 0.0 0.0 
0.0 0.0 0.0 
0.0 0.0 0.0 
0.0 0.0 0.0 
0.0 0.0 0.0 
0.0 0.0 0.0 
0.0 0.0 0.0 
0.0 0.0 0.0 
0.0 0.0 0.0 
0.0 0.0 0.0 
0.0 0.0 0.0 
0.0 0.0 0.0 
0.0 0.0 0.0 
0.0 0.0 0.0 
0.0 0.0 0.0 
0.0 0.0 0.0 
0.0 0.0 0.0 
0.0 0.0 0.0 
0.0 0.0 0.0 
0.0 0.0 0.0 
0.0 0.0 0.0 
0.0 0.0 0.0 
0.0 0.0 0.0 
0.0 0.0 0.0 
0.0 0.0 0.0 
0.0 0.0 0.0 
0.0 0.0 0.0 
0.0 0.0 0.0 
0.0 0.0 0.0 
0.0 0.0 0.0 
0.0 0.0 0.0 
0.0 0.0 0.0 
0.0 0.0 0.0 
0.0 0.0 0.0 
0.0 0.0 0.0 
0.0 0.0 0.0 
0.0 0.0 0.0 
0.0 0.0 0.0 
0.0 0.0 0.0 
0.0 0.0 0.0 
0.0 0.0 0.0 
0.0 0.0 0.0 
0.0 0.0 0.0 
0.0 0.0 0.0 
0.0 0.0 0.0 
0.0 0.0 0.0 
0.0 0.0 0.0 
0.0 0.0 0.0 
0.0 0.0 0.0 
0.0 0.0 0.0 
0.0 0.0 0.0 
0.0 0.0 0.0 
0.0 0.0 0.0 
0.0 0.0 0.0 
0.0 0.0 0.0 
0.0 0.0 0.0 
0.0 0.0 0.0 
0.0 0.0 0.0 
0.0 0.0 0.0 
0.0 0.0 0.0 
0.0 0.0 0.0 
0.0 0.0 0.0 
0.0 0.0 0.0 
0.0 0.0 0.0 
0.0 0.0 0.0 
0.0 0.0 0.0 
0.0 0.0 0.0 
0.0 0.0 0.0 
0.0 0.0 0.0 
0.0 0.0 0.0 
0.0 0.0 0.0 
0.0 0.0 0.0 
0.0 0.0 0.0 
0.0 0.0 0.0 
0.0 0.0 0.0 
0.0 0.0 0.0 
0.0 0.0 0.0 
0.0 0.0 0.0 
0.0 0.0 0.0 
0.0 0.0 0.0 
0.0 0.0 0.0 
0.0 0.0 0.0 
0.0 0.0 0.0 
0.0 0.0 0.0 
0.0 0.0 0.0 
0.0 0.0 0.0 
0.0 0.0 0.0 
0.0 0.0 0.0 
0.0 0.0 0.0 
0.0 0.0 0.0 
0.0 0.0 0.0 
0.0 0.0 0.0 
0.0 0.0 0.0 
0.0 0.0 0.0 
0.0 0.0 0.0 
0.0 0.0 0.0 
0.0 0.0 0.0 
0.0 0.0 0.0 
0.0 0.0 0.0 
0.0 0.0 0.0 
0.0 0.0 0.0 
0.0 0.0 0.0 
0.0 0.0 0.0 
0.0 0.0 0.0 
0.0 0.0 0.0 
0.0 0.0 0.0 
0.0 0.0 0.0 
0.0 0.0 0.0 
0.0 0.0 0.0 
0.0 0.0 0.0 
0.0 0.0 0.0 
0.0 0.0 0.0 
0.0 0.0 0.0 
0.0 0.0 0.0 
0.0 0.0 0.0 
0.0 0.0 0.0 
0.0 0.0 0.0 
0.0 0.0 0.0 
0.0 0.0 0.0 
0.0 0.0 0.0 
0.0 0.0 0.0 
0.0 0.0 0.0 
0.0 0.0 0.0 
0.0 0.0 0.0 
0.0 0.0 0.0 
0.0 0.0 0.0 
0.0 0.0 0.0 
0.0 0.0 0.0 
0.0 0.0 0.0 
0.0 0.0 0.0 
0.0 0.0 0.0 
0.0 0.0 0.0 
0.0 0.0 0.0 
0.0 0.0 0.0 
0.0 0.0 0.0 
0.0 0.0 0.0 
0.0 0.0 0.0 
0.0 0.0 0.0 
0.0 0.0 0.0 
0.0 0.0 0.0 
0.0 0.0 0.0 
0.0 0.0 0.0 
0.0 0.0 0.0 
0.0 0.0 0.0 
0.0 0.0 0.0 
0.0 0.0 0.0 
0.0 0.0 0.0 
0.0 0.0 0.0 
0.0 0.0 0.0 
0.0 0.0 0.0 
0.0 0.0 0.0 
0.0 0.0 0.0 
0.0 0.0 0.0 
0.0 0.0 0.0 
0.0 0.0 0.0 
0.0 0.0 0.0 
0.0 0.0 0.0 
0.0 0.0 0.0 
0.0 0.0 0.0 
0.0 0.0 0.0 
0.0 0.0 0.0 
0.0 0.0 0.0 
0.0 0.0 0.0 
0.0 0.0 0.0 
0.0 0.0 0.0 
0.0 0.0 0.0 
0.0 0.0 0.0 
0.0 0.0 0.0 
0.0 0.0 0.0 
0.0 0.0 0.0 
0.0 0.0 0.0 
0.0 0.0 0.0 
0.0 0.0 0.0 
0.0 0.0 0.0 
0.0 0.0 0.0 
0.0 0.0 0.0 
0.0 0.0 0.0 
0.0 0.0 0.0 
0.0 0.0 0.0 
0.0 0.0 0.0 
0.0 0.0 0.0 
0.0 0.0 0.0 
0.0 0.0 0.0 
0.0 0.0 0.0 
0.0 0.0 0.0 
0.0 0.0 0.0 
0.0 0.0 0.0 
0.0 0.0 0.0 
0.0 0.0 0.0 
0.0 0.0 0.0 
0.0 0.0 0.0 
0.0 0.0 0.0 
0.0 0.0 0.0 
0.0 0.0 0.0 
0.0 0.0 0.0 
0.0 0.0 0.0 
0.0 0.0 0.0 
0.0 0.0 0.0 
0.0 0.0 0.0 
0.0 0.0 0.0 
0.0 0.0 0.0 
0.0 0.0 0.0 
0.0 0.0 0.0 
0.0 0.0 0.0 
0.0 0.0 0.0 
0.0 0.0 0.0 
0.0 0.0 0.0 
0.0 0.0 0.0 
0.0 0.0 0.0 
0.0 0.0 0.0 
0.0 0.0 0.0 
0.0 0.0 0.0 
0.0 0.0 0.0 
0.0 0.0 0.0 
0.0 0.0 0.0 
0.0 0.0 0.0 
0.0 0.0 0.0 
0.0 0.0 0.0 
0.0 0.0 0.0 
0.0 0.0 0.0 
0.0 0.0 0.0 
0.0 0.0 0.0 
0.0 0.0 0.0 
0.0 0.0 0.0 
0.0 0.0 0.0 
0.0 0.0 0.0 
0.0 0.0 0.0 
0.0 0.0 0.0 
0.0 0.0 0.0 
0.0 0.0 0.0 
0.0 0.0 0.0 
0.0 0.0 0.0 
0.0 0.0 0.0 
0.0 0.0 0.0 
0.0 0.0 0.0 
0.0 0.0 0.0 
0.0 0.0 0.0 
0.0 0.0 0.0 
0.0 0.0 0.0 
0.0 0.0 0.0 
0.0 0.0 0.0 
0.0 0.0 0.0 
0.0 0.0 0.0 
0.0 0.0 0.0 
0.0 0.0 0.0 
0.0 0.0 0.0 
0.0 0.0 0.0 
0.0 0.0 0.0 
0.0 0.0 0.0 
0.0 0.0 0.0 
0.0 0.0 0.0 
0.0 0.0 0.0 
0.0 0.0 0.0 
0.0 0.0 0.0 
0.0 0.0 0.0 
0.0 0.0 0.0 
0.0 0.0 0.0 
0.0 0.0 0.0 
0.0 0.0 0.0 
0.0 0.0 0.0 
0.0 0.0 0.0 
0.0 0.0 0.0 
0.0 0.0 0.0 
0.0 0.0 0.0 
0.0 0.0 0.0 
0.0 0.0 0.0 
0.0 0.0 0.0 
0.0 0.0 0.0 
0.0 0.0 0.0 
0.0 0.0 0.0 
0.0 0.0 0.0 
0.0 0.0 0.0 
0.0 0.0 0.0 
0.0 0.0 0.0 
0.0 0.0 0.0 
0.0 0.0 0.0 
0.0 0.0 0.0 
0.0 0.0 0.0 
0.0 0.0 0.0 
0.0 0.0 0.0 
0.0 0.0 0.0 
0.0 0.0 0.0 
0.0 0.0 0.0 
0.0 0.0 0.0 
0.0 0.0 0.0 
0.0 0.0 0.0 
0.0 0.0 0.0 
0.0 0.0 0.0 
0.0 0.0 0.0 
0.0 0.0 0.0 
0.0 0.0 0.0 
0.0 0.0 0.0 
0.0 0.0 0.0 
0.0 0.0 0.0 
0.0 0.0 0.0 
0.0 0.0 0.0 
0.0 0.0 0.0 
0.0 0.0 0.0 
0.0 0.0 0.0 
0.0 0.0 0.0 
0.0 0.0 0.0 
0.0 0.0 0.0 
0.0 0.0 0.0 
0.0 0.0 0.0 
0.0 0.0 0.0 
0.0 0.0 0.0 
0.0 0.0 0.0 
0.0 0.0 0.0 
0.0 0.0 0.0 
0.0 0.0 0.0 
0.0 0.0 0.0 
0.0 0.0 0.0 
0.0 0.0 0.0 
0.0 0.0 0.0 
0.0 0.0 0.0 
0.0 0.0 0.0 
0.0 0.0 0.0 
0.0 0.0 0.0 
0.0 0.0 0.0 
0.0 0.0 0.0 
0.0 0.0 0.0 
0.0 0.0 0.0 
0.0 0.0 0.0 
0.0 0.0 0.0 
0.0 0.0 0.0 
0.0 0.0 0.0 
0.0 0.0 0.0 
0.0 0.0 0.0 
0.0 0.0 0.0 
0.0 0.0 0.0 
0.0 0.0 0.0 
0.0 0.0 0.0 
0.0 0.0 0.0 
0.0 0.0 0.0 
0.0 0.0 0.0 
0.0 0.0 0.0 
0.0 0.0 0.0 
0.0 0.0 0.0 
0.0 0.0 0.0 
0.0 0.0 0.0 
0.0 0.0 0.0 
0.0 0.0 0.0 
0.0 0.0 0.0 
0.0 0.0 0.0 
0.0 0.0 0.0 
0.0 0.0 0.0 
0.0 0.0 0.0 
0.0 0.0 0.0 
0.0 0.0 0.0 
0.0 0.0 0.0 
0.0 0.0 0.0 
0.0 0.0 0.0 
0.0 0.0 0.0 
0.0 0.0 0.0 
0.0 0.0 0.0 
0.0 0.0 0.0 
0.0 0.0 0.0 
0.0 0.0 0.0 
0.0 0.0 0.0 
0.0 0.0 0.0 
0.0 0.0 0.0 
0.0 0.0 0.0 
0.0 0.0 0.0 
0.0 0.0 0.0 
0.0 0.0 0.0 
0.0 0.0 0.0 
0.0 0.0 0.0 
0.0 0.0 0.0 
0.0 0.0 0.0 
0.0 0.0 0.0 
0.0 0.0 0.0 
0.0 0.0 0.0 
0.0 0.0 0.0 
0.0 0.0 0.0 
0.0 0.0 0.0 
0.0 0.0 0.0 
0.0 0.0 0.0 
0.0 0.0 0.0 
0.0 0.0 0.0 
0.0 0.0 0.0 
0.0 0.0 0.0 
0.0 0.0 0.0 
0.0 0.0 0.0 
0.0 0.0 0.0 
0.0 0.0 0.0 
0.0 0.0 0.0 
0.0 0.0 0.0 
0.0 0.0 0.0 
0.0 0.0 0.0 
0.0 0.0 0.0 
0.0 0.0 0.0 
0.0 0.0 0.0 
0.0 0.0 0.0 
0.0 0.0 0.0 
0.0 0.0 0.0 
0.0 0.0 0.0 
0.0 0.0 0.0 
0.0 0.0 0.0 
0.0 0.0 0.0 
0.0 0.0 0.0 
0.0 0.0 0.0 
0.0 0.0 0.0 
0.0 0.0 0.0 
0.0 0.0 0.0 
0.0 0.0 0.0 
0.0 0.0 0.0 
0.0 0.0 0.0 
0.0 0.0 0.0 
0.0 0.0 0.0 
0.0 0.0 0.0 
0.0 0.0 0.0 
0.0 0.0 0.0 
0.0 0.0 0.0 
0.0 0.0 0.0 
0.0 0.0 0.0 
0.0 0.0 0.0 
0.0 0.0 0.0 
0.0 0.0 0.0 
0.0 0.0 0.0 
0.0 0.0 0.0 
0.0 0.0 0.0 
0.0 0.0 0.0 
0.0 0.0 0.0 
0.0 0.0 0.0 
0.0 0.0 0.0 
0.0 0.0 0.0 
0.0 0.0 0.0 
0.0 0.0 0.0 
0.0 0.0 0.0 
0.0 0.0 0.0 
0.0 0.0 0.0 
0.0 0.0 0.0 
0.0 0.0 0.0 
0.0 0.0 0.0 
0.0 0.0 0.0 
0.0 0.0 0.0 
0.0 0.0 0.0 
0.0 0.0 0.0 
0.0 0.0 0.0 
0.0 0.0 0.0 
0.0 0.0 0.0 
0.0 0.0 0.0 
0.0 0.0 0.0 
0.0 0.0 0.0 
0.0 0.0 0.0 
0.0 0.0 0.0 
0.0 0.0 0.0 
0.0 0.0 0.0 
0.0 0.0 0.0 
0.0 0.0 0.0 
0.0 0.0 0.0 
0.0 0.0 0.0 
0.0 0.0 0.0 
0.0 0.0 0.0 
0.0 0.0 0.0 

VECTORS node_bounda_dof_materi_velocity_y float
0.0 0.0 0.0 
0.0 0.0 0.0 
0.0 1.000000000000e+00 0.0 
0.0 1.000000000000e+00 0.0 
0.0 0.0 0.0 
0.0 0.0 0.0 
0.0 0.0 0.0 
0.0 0.0 0.0 
0.0 0.0 0.0 
0.0 0.0 0.0 
0.0 0.0 0.0 
0.0 0.0 0.0 
0.0 0.0 0.0 
0.0 0.0 0.0 
0.0 0.0 0.0 
0.0 0.0 0.0 
0.0 0.0 0.0 
0.0 0.0 0.0 
0.0 0.0 0.0 
0.0 0.0 0.0 
0.0 0.0 0.0 
0.0 0.0 0.0 
0.0 0.0 0.0 
0.0 1.000000000000e+00 0.0 
0.0 1.000000000000e+00 0.0 
0.0 1.000000000000e+00 0.0 
0.0 1.000000000000e+00 0.0 
0.0 1.000000000000e+00 0.0 
0.0 1.000000000000e+00 0.0 
0.0 1.000000000000e+00 0.0 
0.0 1.000000000000e+00 0.0 
0.0 1.000000000000e+00 0.0 
0.0 1.000000000000e+00 0.0 
0.0 1.000000000000e+00 0.0 
0.0 1.000000000000e+00 0.0 
0.0 1.000000000000e+00 0.0 
0.0 1.000000000000e+00 0.0 
0.0 1.000000000000e+00 0.0 
0.0 1.000000000000e+00 0.0 
0.0 1.000000000000e+00 0.0 
0.0 1.000000000000e+00 0.0 
0.0 1.000000000000e+00 0.0 
0.0 1.000000000000e+00 0.0 
0.0 1.000000000000e+00 0.0 
0.0 1.000000000000e+00 0.0 
0.0 1.000000000000e+00 0.0 
0.0 1.000000000000e+00 0.0 
0.0 1.000000000000e+00 0.0 
0.0 1.000000000000e+00 0.0 
0.0 1.000000000000e+00 0.0 
0.0 1.000000000000e+00 0.0 
0.0 1.000000000000e+00 0.0 
0.0 1.000000000000e+00 0.0 
0.0 1.000000000000e+00 0.0 
0.0 1.000000000000e+00 0.0 
0.0 1.000000000000e+00 0.0 
0.0 1.000000000000e+00 0.0 
0.0 1.000000000000e+00 0.0 
0.0 1.000000000000e+00 0.0 
0.0 1.000000000000e+00 0.0 
0.0 1.000000000000e+00 0.0 
0.0 1.000000000000e+00 0.0 
0.0 1.000000000000e+00 0.0 
0.0 1.000000000000e+00 0.0 
0.0 1.000000000000e+00 0.0 
0.0 1.000000000000e+00 0.0 
0.0 1.000000000000e+00 0.0 
0.0 1.000000000000e+00 0.0 
0.0 1.000000000000e+00 0.0 
0.0 1.000000000000e+00 0.0 
0.0 1.000000000000e+00 0.0 
0.0 1.000000000000e+00 0.0 
0.0 0.0 0.0 
0.0 0.0 0.0 
0.0 0.0 0.0 
0.0 0.0 0.0 
0.0 0.0 0.0 
0.0 0.0 0.0 
0.0 0.0 0.0 
0.0 0.0 0.0 
0.0 0.0 0.0 
0.0 0.0 0.0 
0.0 0.0 0.0 
0.0 0.0 0.0 
0.0 0.0 0.0 
0.0 0.0 0.0 
0.0 0.0 0.0 
0.0 0.0 0.0 
0.0 0.0 0.0 
0.0 0.0 0.0 
0.0 0.0 0.0 
0.0 0.0 0.0 
0.0 0.0 0.0 
0.0 0.0 0.0 
0.0 0.0 0.0 
0.0 0.0 0.0 
0.0 0.0 0.0 
0.0 0.0 0.0 
0.0 0.0 0.0 
0.0 0.0 0.0 
0.0 0.0 0.0 
0.0 0.0 0.0 
0.0 0.0 0.0 
0.0 0.0 0.0 
0.0 0.0 0.0 
0.0 0.0 0.0 
0.0 0.0 0.0 
0.0 0.0 0.0 
0.0 0.0 0.0 
0.0 0.0 0.0 
0.0 0.0 0.0 
0.0 0.0 0.0 
0.0 0.0 0.0 
0.0 0.0 0.0 
0.0 0.0 0.0 
0.0 0.0 0.0 
0.0 0.0 0.0 
0.0 0.0 0.0 
0.0 0.0 0.0 
0.0 0.0 0.0 
0.0 0.0 0.0 
0.0 0.0 0.0 
0.0 0.0 0.0 
0.0 0.0 0.0 
0.0 0.0 0.0 
0.0 0.0 0.0 
0.0 0.0 0.0 
0.0 0.0 0.0 
0.0 0.0 0.0 
0.0 0.0 0.0 
0.0 0.0 0.0 
0.0 0.0 0.0 
0.0 0.0 0.0 
0.0 0.0 0.0 
0.0 0.0 0.0 
0.0 0.0 0.0 
0.0 0.0 0.0 
0.0 0.0 0.0 
0.0 0.0 0.0 
0.0 0.0 0.0 
0.0 0.0 0.0 
0.0 0.0 0.0 
0.0 0.0 0.0 
0.0 0.0 0.0 
0.0 0.0 0.0 
0.0 0.0 0.0 
0.0 0.0 0.0 
0.0 0.0 0.0 
0.0 0.0 0.0 
0.0 0.0 0.0 
0.0 0.0 0.0 
0.0 0.0 0.0 
0.0 0.0 0.0 
0.0 0.0 0.0 
0.0 0.0 0.0 
0.0 0.0 0.0 
0.0 0.0 0.0 
0.0 0.0 0.0 
0.0 0.0 0.0 
0.0 0.0 0.0 
0.0 0.0 0.0 
0.0 0.0 0.0 
0.0 0.0 0.0 
0.0 0.0 0.0 
0.0 0.0 0.0 
0.0 0.0 0.0 
0.0 0.0 0.0 
0.0 0.0 0.0 
0.0 0.0 0.0 
0.0 0.0 0.0 
0.0 0.0 0.0 
0.0 0.0 0.0 
0.0 0.0 0.0 
0.0 0.0 0.0 
0.0 0.0 0.0 
0.0 0.0 0.0 
0.0 0.0 0.0 
0.0 0.0 0.0 
0.0 0.0 0.0 
0.0 0.0 0.0 
0.0 0.0 0.0 
0.0 0.0 0.0 
0.0 0.0 0.0 
0.0 0.0 0.0 
0.0 0.0 0.0 
0.0 0.0 0.0 
0.0 0.0 0.0 
0.0 0.0 0.0 
0.0 0.0 0.0 
0.0 0.0 0.0 
0.0 0.0 0.0 
0.0 0.0 0.0 
0.0 0.0 0.0 
0.0 0.0 0.0 
0.0 0.0 0.0 
0.0 0.0 0.0 
0.0 0.0 0.0 
0.0 0.0 0.0 
0.0 0.0 0.0 
0.0 0.0 0.0 
0.0 0.0 0.0 
0.0 0.0 0.0 
0.0 0.0 0.0 
0.0 0.0 0.0 
0.0 0.0 0.0 
0.0 0.0 0.0 
0.0 0.0 0.0 
0.0 0.0 0.0 
0.0 0.0 0.0 
0.0 0.0 0.0 
0.0 0.0 0.0 
0.0 0.0 0.0 
0.0 0.0 0.0 
0.0 0.0 0.0 
0.0 0.0 0.0 
0.0 0.0 0.0 
0.0 0.0 0.0 
0.0 0.0 0.0 
0.0 0.0 0.0 
0.0 0.0 0.0 
0.0 0.0 0.0 
0.0 0.0 0.0 
0.0 0.0 0.0 
0.0 0.0 0.0 
0.0 0.0 0.0 
0.0 0.0 0.0 
0.0 0.0 0.0 
0.0 0.0 0.0 
0.0 0.0 0.0 
0.0 0.0 0.0 
0.0 0.0 0.0 
0.0 0.0 0.0 
0.0 0.0 0.0 
0.0 0.0 0.0 
0.0 0.0 0.0 
0.0 0.0 0.0 
0.0 0.0 0.0 
0.0 0.0 0.0 
0.0 0.0 0.0 
0.0 0.0 0.0 
0.0 0.0 0.0 
0.0 0.0 0.0 
0.0 0.0 0.0 
0.0 0.0 0.0 
0.0 0.0 0.0 
0.0 0.0 0.0 
0.0 0.0 0.0 
0.0 0.0 0.0 
0.0 0.0 0.0 
0.0 0.0 0.0 
0.0 0.0 0.0 
0.0 0.0 0.0 
0.0 0.0 0.0 
0.0 0.0 0.0 
0.0 0.0 0.0 
0.0 0.0 0.0 
0.0 0.0 0.0 
0.0 0.0 0.0 
0.0 0.0 0.0 
0.0 0.0 0.0 
0.0 0.0 0.0 
0.0 0.0 0.0 
0.0 0.0 0.0 
0.0 0.0 0.0 
0.0 0.0 0.0 
0.0 0.0 0.0 
0.0 0.0 0.0 
0.0 0.0 0.0 
0.0 0.0 0.0 
0.0 0.0 0.0 
0.0 0.0 0.0 
0.0 0.0 0.0 
0.0 0.0 0.0 
0.0 0.0 0.0 
0.0 0.0 0.0 
0.0 0.0 0.0 
0.0 0.0 0.0 
0.0 0.0 0.0 
0.0 0.0 0.0 
0.0 0.0 0.0 
0.0 0.0 0.0 
0.0 0.0 0.0 
0.0 0.0 0.0 
0.0 0.0 0.0 
0.0 0.0 0.0 
0.0 0.0 0.0 
0.0 0.0 0.0 
0.0 0.0 0.0 
0.0 0.0 0.0 
0.0 0.0 0.0 
0.0 0.0 0.0 
0.0 0.0 0.0 
0.0 0.0 0.0 
0.0 0.0 0.0 
0.0 0.0 0.0 
0.0 0.0 0.0 
0.0 0.0 0.0 
0.0 0.0 0.0 
0.0 0.0 0.0 
0.0 0.0 0.0 
0.0 0.0 0.0 
0.0 0.0 0.0 
0.0 0.0 0.0 
0.0 0.0 0.0 
0.0 0.0 0.0 
0.0 0.0 0.0 
0.0 0.0 0.0 
0.0 0.0 0.0 
0.0 0.0 0.0 
0.0 0.0 0.0 
0.0 0.0 0.0 
0.0 0.0 0.0 
0.0 0.0 0.0 
0.0 0.0 0.0 
0.0 0.0 0.0 
0.0 0.0 0.0 
0.0 0.0 0.0 
0.0 0.0 0.0 
0.0 0.0 0.0 
0.0 0.0 0.0 
0.0 0.0 0.0 
0.0 0.0 0.0 
0.0 0.0 0.0 
0.0 0.0 0.0 
0.0 0.0 0.0 
0.0 0.0 0.0 
0.0 0.0 0.0 
0.0 0.0 0.0 
0.0 0.0 0.0 
0.0 0.0 0.0 
0.0 0.0 0.0 
0.0 0.0 0.0 
0.0 0.0 0.0 
0.0 0.0 0.0 
0.0 0.0 0.0 
0.0 0.0 0.0 
0.0 0.0 0.0 
0.0 0.0 0.0 
0.0 0.0 0.0 
0.0 0.0 0.0 
0.0 0.0 0.0 
0.0 0.0 0.0 
0.0 0.0 0.0 
0.0 0.0 0.0 
0.0 0.0 0.0 
0.0 0.0 0.0 
0.0 0.0 0.0 
0.0 0.0 0.0 
0.0 0.0 0.0 
0.0 0.0 0.0 
0.0 0.0 0.0 
0.0 0.0 0.0 
0.0 0.0 0.0 
0.0 0.0 0.0 
0.0 0.0 0.0 
0.0 0.0 0.0 
0.0 0.0 0.0 
0.0 0.0 0.0 
0.0 0.0 0.0 
0.0 0.0 0.0 
0.0 0.0 0.0 
0.0 0.0 0.0 
0.0 0.0 0.0 
0.0 0.0 0.0 
0.0 0.0 0.0 
0.0 0.0 0.0 
0.0 0.0 0.0 
0.0 0.0 0.0 
0.0 0.0 0.0 
0.0 0.0 0.0 
0.0 0.0 0.0 
0.0 0.0 0.0 
0.0 0.0 0.0 
0.0 0.0 0.0 
0.0 0.0 0.0 
0.0 0.0 0.0 
0.0 0.0 0.0 
0.0 0.0 0.0 
0.0 0.0 0.0 
0.0 0.0 0.0 
0.0 0.0 0.0 
0.0 0.0 0.0 
0.0 0.0 0.0 
0.0 0.0 0.0 
0.0 0.0 0.0 
0.0 0.0 0.0 
0.0 0.0 0.0 
0.0 0.0 0.0 
0.0 0.0 0.0 
0.0 0.0 0.0 
0.0 0.0 0.0 
0.0 0.0 0.0 
0.0 0.0 0.0 
0.0 0.0 0.0 
0.0 0.0 0.0 
0.0 0.0 0.0 
0.0 0.0 0.0 
0.0 0.0 0.0 
0.0 0.0 0.0 
0.0 0.0 0.0 
0.0 0.0 0.0 
0.0 0.0 0.0 
0.0 0.0 0.0 
0.0 0.0 0.0 
0.0 0.0 0.0 
0.0 0.0 0.0 
0.0 0.0 0.0 
0.0 0.0 0.0 
0.0 0.0 0.0 
0.0 0.0 0.0 
0.0 0.0 0.0 
0.0 0.0 0.0 
0.0 0.0 0.0 
0.0 0.0 0.0 
0.0 0.0 0.0 
0.0 0.0 0.0 
0.0 0.0 0.0 
0.0 0.0 0.0 
0.0 0.0 0.0 
0.0 0.0 0.0 
0.0 0.0 0.0 
0.0 0.0 0.0 
0.0 0.0 0.0 
0.0 0.0 0.0 
0.0 0.0 0.0 
0.0 0.0 0.0 
0.0 0.0 0.0 
0.0 0.0 0.0 
0.0 0.0 0.0 
0.0 0.0 0.0 
0.0 0.0 0.0 
0.0 0.0 0.0 
0.0 0.0 0.0 
0.0 0.0 0.0 
0.0 0.0 0.0 
0.0 0.0 0.0 
0.0 0.0 0.0 
0.0 0.0 0.0 
0.0 0.0 0.0 
0.0 0.0 0.0 
0.0 0.0 0.0 
0.0 0.0 0.0 
0.0 0.0 0.0 
0.0 0.0 0.0 
0.0 0.0 0.0 
0.0 0.0 0.0 
0.0 0.0 0.0 
0.0 0.0 0.0 
0.0 0.0 0.0 
0.0 0.0 0.0 
0.0 0.0 0.0 
0.0 0.0 0.0 
0.0 0.0 0.0 
0.0 0.0 0.0 
0.0 0.0 0.0 
0.0 0.0 0.0 
0.0 0.0 0.0 
0.0 0.0 0.0 
0.0 0.0 0.0 
0.0 0.0 0.0 
0.0 0.0 0.0 
0.0 0.0 0.0 
0.0 0.0 0.0 
0.0 0.0 0.0 
0.0 0.0 0.0 
0.0 0.0 0.0 
0.0 0.0 0.0 
0.0 0.0 0.0 
0.0 0.0 0.0 
0.0 0.0 0.0 
0.0 0.0 0.0 
0.0 0.0 0.0 
0.0 0.0 0.0 
0.0 0.0 0.0 
0.0 0.0 0.0 
0.0 0.0 0.0 
0.0 0.0 0.0 
0.0 0.0 0.0 
0.0 0.0 0.0 
0.0 0.0 0.0 
0.0 0.0 0.0 
0.0 0.0 0.0 
0.0 0.0 0.0 
0.0 0.0 0.0 
0.0 0.0 0.0 
0.0 0.0 0.0 
0.0 0.0 0.0 
0.0 0.0 0.0 
0.0 0.0 0.0 
0.0 0.0 0.0 
0.0 0.0 0.0 
0.0 0.0 0.0 
0.0 0.0 0.0 
0.0 0.0 0.0 
0.0 0.0 0.0 
0.0 0.0 0.0 
0.0 0.0 0.0 
0.0 0.0 0.0 
0.0 0.0 0.0 
0.0 0.0 0.0 
0.0 0.0 0.0 
0.0 0.0 0.0 
0.0 0.0 0.0 
0.0 0.0 0.0 
0.0 0.0 0.0 
0.0 0.0 0.0 
0.0 0.0 0.0 
0.0 0.0 0.0 
0.0 0.0 0.0 
0.0 0.0 0.0 
0.0 0.0 0.0 
0.0 0.0 0.0 
0.0 0.0 0.0 
0.0 0.0 0.0 
0.0 0.0 0.0 
0.0 0.0 0.0 
0.0 0.0 0.0 
0.0 0.0 0.0 
0.0 0.0 0.0 
0.0 0.0 0.0 
0.0 0.0 0.0 
0.0 0.0 0.0 
0.0 0.0 0.0 
0.0 0.0 0.0 
0.0 0.0 0.0 
0.0 0.0 0.0 
0.0 0.0 0.0 
0.0 0.0 0.0 
0.0 0.0 0.0 
0.0 0.0 0.0 
0.0 0.0 0.0 
0.0 0.0 0.0 
0.0 0.0 0.0 
0.0 0.0 0.0 
0.0 0.0 0.0 
0.0 0.0 0.0 
0.0 0.0 0.0 
0.0 0.0 0.0 
0.0 0.0 0.0 
0.0 0.0 0.0 
0.0 0.0 0.0 
0.0 0.0 0.0 
0.0 0.0 0.0 
0.0 0.0 0.0 
0.0 0.0 0.0 
0.0 0.0 0.0 
0.0 0.0 0.0 
0.0 0.0 0.0 
0.0 0.0 0.0 
0.0 0.0 0.0 
0.0 0.0 0.0 
0.0 0.0 0.0 
0.0 0.0 0.0 
0.0 0.0 0.0 
0.0 0.0 0.0 
0.0 0.0 0.0 
0.0 0.0 0.0 
0.0 0.0 0.0 
0.0 0.0 0.0 
0.0 0.0 0.0 
0.0 0.0 0.0 
0.0 0.0 0.0 
0.0 0.0 0.0 
0.0 0.0 0.0 
0.0 0.0 0.0 
0.0 0.0 0.0 
0.0 0.0 0.0 
0.0 0.0 0.0 
0.0 0.0 0.0 
0.0 0.0 0.0 
0.0 0.0 0.0 
0.0 0.0 0.0 
0.0 0.0 0.0 
0.0 0.0 0.0 
0.0 0.0 0.0 
0.0 0.0 0.0 
0.0 0.0 0.0 
0.0 0.0 0.0 
0.0 0.0 0.0 
0.0 0.0 0.0 
0.0 0.0 0.0 
0.0 0.0 0.0 
0.0 0.0 0.0 
0.0 0.0 0.0 
0.0 0.0 0.0 
0.0 0.0 0.0 
0.0 0.0 0.0 
0.0 0.0 0.0 
0.0 0.0 0.0 
0.0 0.0 0.0 
0.0 0.0 0.0 
0.0 0.0 0.0 
0.0 0.0 0.0 
0.0 0.0 0.0 
0.0 0.0 0.0 
0.0 0.0 0.0 
0.0 0.0 0.0 
0.0 0.0 0.0 
0.0 0.0 0.0 
0.0 0.0 0.0 
0.0 0.0 0.0 
0.0 0.0 0.0 
0.0 0.0 0.0 
0.0 0.0 0.0 
0.0 0.0 0.0 
0.0 0.0 0.0 
0.0 0.0 0.0 
0.0 0.0 0.0 
0.0 0.0 0.0 
0.0 0.0 0.0 
0.0 0.0 0.0 
0.0 0.0 0.0 
0.0 0.0 0.0 
0.0 0.0 0.0 
0.0 0.0 0.0 
0.0 0.0 0.0 
0.0 0.0 0.0 
0.0 0.0 0.0 
0.0 0.0 0.0 
0.0 0.0 0.0 
0.0 0.0 0.0 
0.0 0.0 0.0 
0.0 0.0 0.0 
0.0 0.0 0.0 
0.0 0.0 0.0 
0.0 0.0 0.0 
0.0 0.0 0.0 
0.0 0.0 0.0 
0.0 0.0 0.0 
0.0 0.0 0.0 
0.0 0.0 0.0 
0.0 0.0 0.0 
0.0 0.0 0.0 
0.0 0.0 0.0 
0.0 0.0 0.0 
0.0 0.0 0.0 
0.0 0.0 0.0 
0.0 0.0 0.0 
0.0 0.0 0.0 
0.0 0.0 0.0 
0.0 0.0 0.0 
0.0 0.0 0.0 
0.0 0.0 0.0 
0.0 0.0 0.0 
0.0 0.0 0.0 
0.0 0.0 0.0 
0.0 0.0 0.0 
0.0 0.0 0.0 
0.0 0.0 0.0 
0.0 0.0 0.0 
0.0 0.0 0.0 
0.0 0.0 0.0 
0.0 0.0 0.0 
0.0 0.0 0.0 
0.0 0.0 0.0 
0.0 0.0 0.0 
0.0 0.0 0.0 
0.0 0.0 0.0 
0.0 0.0 0.0 
0.0 0.0 0.0 
0.0 0.0 0.0 
0.0 0.0 0.0 
0.0 0.0 0.0 
0.0 0.0 0.0 
0.0 0.0 0.0 
0.0 0.0 0.0 
0.0 0.0 0.0 
0.0 0.0 0.0 
0.0 0.0 0.0 
0.0 0.0 0.0 
0.0 0.0 0.0 
0.0 0.0 0.0 
0.0 0.0 0.0 
0.0 0.0 0.0 
0.0 0.0 0.0 
0.0 0.0 0.0 
0.0 0.0 0.0 
0.0 0.0 0.0 
0.0 0.0 0.0 
0.0 0.0 0.0 
0.0 0.0 0.0 
0.0 0.0 0.0 
0.0 0.0 0.0 
0.0 0.0 0.0 
0.0 0.0 0.0 
0.0 0.0 0.0 
0.0 0.0 0.0 
0.0 0.0 0.0 
0.0 0.0 0.0 
0.0 0.0 0.0 
0.0 0.0 0.0 
0.0 0.0 0.0 
0.0 0.0 0.0 
0.0 0.0 0.0 
0.0 0.0 0.0 
0.0 0.0 0.0 
0.0 0.0 0.0 
0.0 0.0 0.0 
0.0 0.0 0.0 
0.0 0.0 0.0 
0.0 0.0 0.0 
0.0 0.0 0.0 
0.0 0.0 0.0 
0.0 0.0 0.0 
0.0 0.0 0.0 
0.0 0.0 0.0 
0.0 0.0 0.0 
0.0 0.0 0.0 
0.0 0.0 0.0 
0.0 0.0 0.0 
0.0 0.0 0.0 
0.0 0.0 0.0 
0.0 0.0 0.0 
0.0 0.0 0.0 
0.0 0.0 0.0 
0.0 0.0 0.0 
0.0 0.0 0.0 
0.0 0.0 0.0 
0.0 0.0 0.0 
0.0 0.0 0.0 
0.0 0.0 0.0 
0.0 0.0 0.0 
0.0 0.0 0.0 
0.0 0.0 0.0 
0.0 0.0 0.0 
0.0 0.0 0.0 
0.0 0.0 0.0 
0.0 0.0 0.0 
0.0 0.0 0.0 
0.0 0.0 0.0 
0.0 0.0 0.0 
0.0 0.0 0.0 
0.0 0.0 0.0 
0.0 0.0 0.0 
0.0 0.0 0.0 
0.0 0.0 0.0 
0.0 0.0 0.0 
0.0 0.0 0.0 
0.0 0.0 0.0 
0.0 0.0 0.0 
0.0 0.0 0.0 
0.0 0.0 0.0 
0.0 0.0 0.0 
0.0 0.0 0.0 
0.0 0.0 0.0 
0.0 0.0 0.0 
0.0 0.0 0.0 
0.0 0.0 0.0 
0.0 0.0 0.0 
0.0 0.0 0.0 
0.0 0.0 0.0 
0.0 0.0 0.0 
0.0 0.0 0.0 
0.0 0.0 0.0 
0.0 0.0 0.0 
0.0 0.0 0.0 
0.0 0.0 0.0 
0.0 0.0 0.0 
0.0 0.0 0.0 
0.0 0.0 0.0 
0.0 0.0 0.0 
0.0 0.0 0.0 
0.0 0.0 0.0 
0.0 0.0 0.0 
0.0 0.0 0.0 
0.0 0.0 0.0 
0.0 0.0 0.0 
0.0 0.0 0.0 
0.0 0.0 0.0 
0.0 0.0 0.0 
0.0 0.0 0.0 
0.0 0.0 0.0 
0.0 0.0 0.0 
0.0 0.0 0.0 
0.0 0.0 0.0 
0.0 0.0 0.0 
0.0 0.0 0.0 
0.0 0.0 0.0 
0.0 0.0 0.0 
0.0 0.0 0.0 
0.0 0.0 0.0 
0.0 0.0 0.0 
0.0 0.0 0.0 
0.0 0.0 0.0 
0.0 0.0 0.0 
0.0 0.0 0.0 
0.0 0.0 0.0 
0.0 0.0 0.0 
0.0 0.0 0.0 
0.0 0.0 0.0 
0.0 0.0 0.0 
0.0 0.0 0.0 
0.0 0.0 0.0 
0.0 0.0 0.0 
0.0 0.0 0.0 
0.0 0.0 0.0 
0.0 0.0 0.0 
0.0 0.0 0.0 
0.0 0.0 0.0 
0.0 0.0 0.0 
0.0 0.0 0.0 
0.0 0.0 0.0 
0.0 0.0 0.0 
0.0 0.0 0.0 
0.0 0.0 0.0 
0.0 0.0 0.0 
0.0 0.0 0.0 
0.0 0.0 0.0 
0.0 0.0 0.0 
0.0 0.0 0.0 
0.0 0.0 0.0 
0.0 0.0 0.0 
0.0 0.0 0.0 
0.0 0.0 0.0 
0.0 0.0 0.0 
0.0 0.0 0.0 
0.0 0.0 0.0 
0.0 0.0 0.0 
0.0 0.0 0.0 
0.0 0.0 0.0 
0.0 0.0 0.0 
0.0 0.0 0.0 
0.0 0.0 0.0 
0.0 0.0 0.0 
0.0 0.0 0.0 
0.0 0.0 0.0 
0.0 0.0 0.0 
0.0 0.0 0.0 
0.0 0.0 0.0 
0.0 0.0 0.0 
0.0 0.0 0.0 
0.0 0.0 0.0 
0.0 0.0 0.0 
0.0 0.0 0.0 
0.0 0.0 0.0 
0.0 0.0 0.0 
0.0 0.0 0.0 
0.0 0.0 0.0 
0.0 0.0 0.0 
0.0 0.0 0.0 
0.0 0.0 0.0 
0.0 0.0 0.0 
0.0 0.0 0.0 
0.0 0.0 0.0 
0.0 0.0 0.0 
0.0 0.0 0.0 
0.0 0.0 0.0 
0.0 0.0 0.0 
0.0 0.0 0.0 
0.0 0.0 0.0 
0.0 0.0 0.0 
0.0 0.0 0.0 
0.0 0.0 0.0 
0.0 0.0 0.0 
0.0 0.0 0.0 
0.0 0.0 0.0 
0.0 0.0 0.0 
0.0 0.0 0.0 
0.0 0.0 0.0 
0.0 0.0 0.0 
0.0 0.0 0.0 
0.0 0.0 0.0 
0.0 0.0 0.0 
0.0 0.0 0.0 
0.0 0.0 0.0 
0.0 0.0 0.0 
0.0 0.0 0.0 
0.0 0.0 0.0 
0.0 0.0 0.0 
0.0 0.0 0.0 
0.0 0.0 0.0 
0.0 0.0 0.0 
0.0 0.0 0.0 
0.0 0.0 0.0 
0.0 0.0 0.0 
0.0 0.0 0.0 
0.0 0.0 0.0 
0.0 0.0 0.0 
0.0 0.0 0.0 
0.0 0.0 0.0 
0.0 0.0 0.0 
0.0 0.0 0.0 
0.0 0.0 0.0 
0.0 0.0 0.0 
0.0 0.0 0.0 
0.0 0.0 0.0 
0.0 0.0 0.0 
0.0 0.0 0.0 
0.0 0.0 0.0 
0.0 0.0 0.0 
0.0 0.0 0.0 
0.0 0.0 0.0 
0.0 0.0 0.0 
0.0 0.0 0.0 
0.0 0.0 0.0 
0.0 0.0 0.0 
0.0 0.0 0.0 
0.0 0.0 0.0 
0.0 0.0 0.0 
0.0 0.0 0.0 
0.0 0.0 0.0 
0.0 0.0 0.0 
0.0 0.0 0.0 
0.0 0.0 0.0 
0.0 0.0 0.0 
0.0 0.0 0.0 
0.0 0.0 0.0 
0.0 0.0 0.0 
0.0 0.0 0.0 
0.0 0.0 0.0 
0.0 0.0 0.0 
0.0 0.0 0.0 
0.0 0.0 0.0 
0.0 0.0 0.0 
0.0 0.0 0.0 
0.0 0.0 0.0 
0.0 0.0 0.0 
0.0 0.0 0.0 
0.0 0.0 0.0 
0.0 0.0 0.0 
0.0 0.0 0.0 
0.0 0.0 0.0 
0.0 0.0 0.0 
0.0 0.0 0.0 
0.0 0.0 0.0 
0.0 0.0 0.0 
0.0 0.0 0.0 
0.0 0.0 0.0 
0.0 0.0 0.0 
0.0 0.0 0.0 
0.0 0.0 0.0 
0.0 0.0 0.0 
0.0 0.0 0.0 
0.0 0.0 0.0 
0.0 0.0 0.0 
0.0 0.0 0.0 
0.0 0.0 0.0 
0.0 0.0 0.0 
0.0 0.0 0.0 
0.0 0.0 0.0 
0.0 0.0 0.0 
0.0 0.0 0.0 
0.0 0.0 0.0 
0.0 0.0 0.0 
0.0 0.0 0.0 
0.0 0.0 0.0 
0.0 0.0 0.0 
0.0 0.0 0.0 
0.0 0.0 0.0 
0.0 0.0 0.0 
0.0 0.0 0.0 
0.0 0.0 0.0 
0.0 0.0 0.0 
0.0 0.0 0.0 
0.0 0.0 0.0 
0.0 0.0 0.0 
0.0 0.0 0.0 
0.0 0.0 0.0 
0.0 0.0 0.0 
0.0 0.0 0.0 
0.0 0.0 0.0 
0.0 0.0 0.0 
0.0 0.0 0.0 
0.0 0.0 0.0 
0.0 0.0 0.0 
0.0 0.0 0.0 
0.0 0.0 0.0 
0.0 0.0 0.0 
0.0 0.0 0.0 
0.0 0.0 0.0 
0.0 0.0 0.0 
0.0 0.0 0.0 
0.0 0.0 0.0 
0.0 0.0 0.0 
0.0 0.0 0.0 
0.0 0.0 0.0 
0.0 0.0 0.0 
0.0 0.0 0.0 
0.0 0.0 0.0 
0.0 0.0 0.0 
0.0 0.0 0.0 
0.0 0.0 0.0 
0.0 0.0 0.0 
0.0 0.0 0.0 
0.0 0.0 0.0 
0.0 0.0 0.0 
0.0 0.0 0.0 
0.0 0.0 0.0 
0.0 0.0 0.0 
0.0 0.0 0.0 
0.0 0.0 0.0 
0.0 0.0 0.0 
0.0 0.0 0.0 
0.0 0.0 0.0 
0.0 0.0 0.0 
0.0 0.0 0.0 
0.0 0.0 0.0 
0.0 0.0 0.0 
0.0 0.0 0.0 
0.0 0.0 0.0 
0.0 0.0 0.0 
0.0 0.0 0.0 
0.0 0.0 0.0 
0.0 0.0 0.0 
0.0 0.0 0.0 
0.0 0.0 0.0 
0.0 0.0 0.0 
0.0 0.0 0.0 
0.0 0.0 0.0 
0.0 0.0 0.0 
0.0 0.0 0.0 
0.0 0.0 0.0 
0.0 0.0 0.0 
0.0 0.0 0.0 
0.0 0.0 0.0 
0.0 0.0 0.0 
0.0 0.0 0.0 
0.0 0.0 0.0 
0.0 0.0 0.0 
0.0 0.0 0.0 
0.0 0.0 0.0 
0.0 0.0 0.0 
0.0 0.0 0.0 
0.0 0.0 0.0 
0.0 0.0 0.0 
0.0 0.0 0.0 
0.0 0.0 0.0 
0.0 0.0 0.0 

SCALARS node_boundary float
LOOKUP_TABLE default
1.000000000000e+00 
1.000000000000e+00 
1.000000000000e+00 
1.000000000000e+00 
1.000000000000e+00 
1.000000000000e+00 
1.000000000000e+00 
1.000000000000e+00 
1.000000000000e+00 
1.000000000000e+00 
1.000000000000e+00 
1.000000000000e+00 
1.000000000000e+00 
1.000000000000e+00 
1.000000000000e+00 
1.000000000000e+00 
1.000000000000e+00 
1.000000000000e+00 
1.000000000000e+00 
1.000000000000e+00 
1.000000000000e+00 
1.000000000000e+00 
1.000000000000e+00 
1.000000000000e+00 
1.000000000000e+00 
1.000000000000e+00 
1.000000000000e+00 
1.000000000000e+00 
1.000000000000e+00 
1.000000000000e+00 
1.000000000000e+00 
1.000000000000e+00 
1.000000000000e+00 
1.000000000000e+00 
1.000000000000e+00 
1.000000000000e+00 
1.000000000000e+00 
1.000000000000e+00 
1.000000000000e+00 
1.000000000000e+00 
1.000000000000e+00 
1.000000000000e+00 
1.000000000000e+00 
1.000000000000e+00 
1.000000000000e+00 
1.000000000000e+00 
1.000000000000e+00 
1.000000000000e+00 
1.000000000000e+00 
1.000000000000e+00 
1.000000000000e+00 
1.000000000000e+00 
1.000000000000e+00 
1.000000000000e+00 
1.000000000000e+00 
1.000000000000e+00 
1.000000000000e+00 
1.000000000000e+00 
1.000000000000e+00 
1.000000000000e+00 
1.000000000000e+00 
1.000000000000e+00 
1.000000000000e+00 
1.000000000000e+00 
1.000000000000e+00 
1.000000000000e+00 
1.000000000000e+00 
1.000000000000e+00 
1.000000000000e+00 
1.000000000000e+00 
1.000000000000e+00 
1.000000000000e+00 
1.000000000000e+00 
1.000000000000e+00 
1.000000000000e+00 
1.000000000000e+00 
1.000000000000e+00 
1.000000000000e+00 
1.000000000000e+00 
1.000000000000e+00 
1.000000000000e+00 
1.000000000000e+00 
1.000000000000e+00 
1.000000000000e+00 
1.000000000000e+00 
1.000000000000e+00 
1.000000000000e+00 
1.000000000000e+00 
1.000000000000e+00 
1.000000000000e+00 
1.000000000000e+00 
1.000000000000e+00 
1.000000000000e+00 
1.000000000000e+00 
1.000000000000e+00 
1.000000000000e+00 
1.000000000000e+00 
1.000000000000e+00 
1.000000000000e+00 
1.000000000000e+00 
1.000000000000e+00 
1.000000000000e+00 
1.000000000000e+00 
1.000000000000e+00 
1.000000000000e+00 
1.000000000000e+00 
1.000000000000e+00 
1.000000000000e+00 
1.000000000000e+00 
1.000000000000e+00 
1.000000000000e+00 
1.000000000000e+00 
1.000000000000e+00 
1.000000000000e+00 
1.000000000000e+00 
1.000000000000e+00 
1.000000000000e+00 
1.000000000000e+00 
1.000000000000e+00 
1.000000000000e+00 
1.000000000000e+00 
1.000000000000e+00 
1.000000000000e+00 
1.000000000000e+00 
1.000000000000e+00 
1.000000000000e+00 
1.000000000000e+00 
1.000000000000e+00 
1.000000000000e+00 
1.000000000000e+00 
1.000000000000e+00 
1.000000000000e+00 
1.000000000000e+00 
1.000000000000e+00 
1.000000000000e+00 
0.0
0.0
0.0
0.0
0.0
0.0
0.0
0.0
0.0
0.0
0.0
0.0
0.0
0.0
0.0
0.0
0.0
0.0
0.0
0.0
0.0
0.0
0.0
0.0
0.0
0.0
0.0
0.0
0.0
0.0
0.0
0.0
0.0
0.0
0.0
0.0
0.0
0.0
0.0
0.0
0.0
0.0
0.0
0.0
0.0
0.0
0.0
0.0
0.0
0.0
0.0
0.0
0.0
0.0
0.0
0.0
0.0
0.0
0.0
0.0
0.0
0.0
0.0
0.0
0.0
0.0
0.0
0.0
0.0
0.0
0.0
0.0
0.0
0.0
0.0
0.0
0.0
0.0
0.0
0.0
0.0
0.0
0.0
0.0
0.0
0.0
0.0
0.0
0.0
0.0
0.0
0.0
0.0
0.0
0.0
0.0
0.0
0.0
0.0
0.0
0.0
0.0
0.0
0.0
0.0
0.0
0.0
0.0
0.0
0.0
0.0
0.0
0.0
0.0
0.0
0.0
0.0
0.0
0.0
0.0
0.0
0.0
0.0
0.0
0.0
0.0
0.0
0.0
0.0
0.0
0.0
0.0
0.0
0.0
0.0
0.0
0.0
0.0
0.0
0.0
0.0
0.0
0.0
0.0
0.0
0.0
0.0
0.0
0.0
0.0
0.0
0.0
0.0
0.0
0.0
0.0
0.0
0.0
0.0
0.0
0.0
0.0
0.0
0.0
0.0
0.0
0.0
0.0
0.0
0.0
0.0
0.0
0.0
0.0
0.0
0.0
0.0
0.0
0.0
0.0
0.0
0.0
0.0
0.0
0.0
0.0
0.0
0.0
0.0
0.0
0.0
0.0
0.0
0.0
0.0
0.0
0.0
0.0
0.0
0.0
0.0
0.0
0.0
0.0
0.0
0.0
0.0
0.0
0.0
0.0
0.0
0.0
0.0
0.0
0.0
0.0
0.0
0.0
0.0
0.0
0.0
0.0
0.0
0.0
0.0
0.0
0.0
0.0
0.0
0.0
0.0
0.0
0.0
0.0
0.0
0.0
0.0
0.0
0.0
0.0
0.0
0.0
0.0
0.0
0.0
0.0
0.0
0.0
0.0
0.0
0.0
0.0
0.0
0.0
0.0
0.0
0.0
0.0
0.0
0.0
0.0
0.0
0.0
0.0
0.0
0.0
0.0
0.0
0.0
0.0
0.0
0.0
0.0
0.0
0.0
0.0
0.0
0.0
0.0
0.0
0.0
0.0
0.0
0.0
0.0
0.0
0.0
0.0
0.0
0.0
0.0
0.0
0.0
0.0
0.0
0.0
0.0
0.0
0.0
0.0
0.0
0.0
0.0
0.0
0.0
0.0
0.0
0.0
0.0
0.0
0.0
0.0
0.0
0.0
0.0
0.0
0.0
0.0
0.0
0.0
0.0
0.0
0.0
0.0
0.0
0.0
0.0
0.0
0.0
0.0
0.0
0.0
0.0
0.0
0.0
0.0
0.0
0.0
0.0
0.0
0.0
0.0
0.0
0.0
0.0
0.0
0.0
0.0
0.0
0.0
0.0
0.0
0.0
0.0
0.0
0.0
0.0
0.0
0.0
0.0
0.0
0.0
0.0
0.0
0.0
0.0
0.0
0.0
0.0
0.0
0.0
0.0
0.0
0.0
0.0
0.0
0.0
0.0
0.0
0.0
0.0
0.0
0.0
0.0
0.0
0.0
0.0
0.0
0.0
0.0
0.0
0.0
0.0
0.0
0.0
0.0
0.0
0.0
0.0
0.0
0.0
0.0
0.0
0.0
0.0
0.0
0.0
0.0
0.0
0.0
0.0
0.0
0.0
0.0
0.0
0.0
0.0
0.0
0.0
0.0
0.0
0.0
0.0
0.0
0.0
0.0
0.0
0.0
0.0
0.0
0.0
0.0
0.0
0.0
0.0
0.0
0.0
0.0
0.0
0.0
0.0
0.0
0.0
0.0
0.0
0.0
0.0
0.0
0.0
0.0
0.0
0.0
0.0
0.0
0.0
0.0
0.0
0.0
0.0
0.0
0.0
0.0
0.0
0.0
0.0
0.0
0.0
0.0
0.0
0.0
0.0
0.0
0.0
0.0
0.0
0.0
0.0
0.0
0.0
0.0
0.0
0.0
0.0
0.0
0.0
0.0
0.0
0.0
0.0
0.0
0.0
0.0
0.0
0.0
0.0
0.0
0.0
0.0
0.0
0.0
0.0
0.0
0.0
0.0
0.0
0.0
0.0
0.0
0.0
0.0
0.0
0.0
0.0
0.0
0.0
0.0
0.0
0.0
0.0
0.0
0.0
0.0
0.0
0.0
0.0
0.0
0.0
0.0
0.0
0.0
0.0
0.0
0.0
0.0
0.0
0.0
0.0
0.0
0.0
0.0
0.0
0.0
0.0
0.0
0.0
0.0
0.0
0.0
0.0
0.0
0.0
0.0
0.0
0.0
0.0
0.0
0.0
0.0
0.0
0.0
0.0
0.0
0.0
0.0
0.0
0.0
0.0
0.0
0.0
0.0
0.0
0.0
0.0
0.0
0.0
0.0
0.0
0.0
0.0
0.0
0.0
0.0
0.0
0.0
0.0
0.0
0.0
0.0
0.0
0.0
0.0
0.0
0.0
0.0
0.0
0.0
0.0
0.0
0.0
0.0
0.0
0.0
0.0
0.0
0.0
0.0
0.0
0.0
0.0
0.0
0.0
0.0
0.0
0.0
0.0
0.0
0.0
0.0
0.0
0.0
0.0
0.0
0.0
0.0
0.0
0.0
0.0
0.0
0.0
0.0
0.0
0.0
0.0
0.0
0.0
0.0
0.0
0.0
0.0
0.0
0.0
0.0
0.0
0.0
0.0
0.0
0.0
0.0
0.0
0.0
0.0
0.0
0.0
0.0
0.0
0.0
0.0
0.0
0.0
0.0
0.0
0.0
0.0
0.0
0.0
0.0
0.0
0.0
0.0
0.0
0.0
0.0
0.0
0.0
0.0
0.0
0.0
0.0
0.0
0.0
0.0
0.0
0.0
0.0
0.0
0.0
0.0
0.0
0.0
0.0
0.0
0.0
0.0
0.0
0.0
0.0
0.0
0.0
0.0
0.0
0.0
0.0
0.0
0.0
0.0
0.0
0.0
0.0
0.0
0.0
0.0
0.0
0.0
0.0
0.0
0.0
0.0
0.0
0.0
0.0
0.0
0.0
0.0
0.0
0.0
0.0
0.0
0.0
0.0
0.0
0.0
0.0
0.0
0.0
0.0
0.0
0.0
0.0
0.0
0.0
0.0
0.0
0.0
0.0
0.0
0.0
0.0
0.0
0.0
0.0
0.0
0.0
0.0
0.0
0.0
0.0
0.0
0.0
0.0
0.0
0.0
0.0
0.0
0.0
0.0
0.0
0.0
0.0
0.0
0.0
0.0
0.0
0.0
0.0
0.0
0.0
0.0
0.0
0.0
0.0
0.0
0.0
0.0
0.0
0.0
0.0
0.0
0.0
0.0
0.0
0.0
0.0
0.0
0.0
0.0
0.0
0.0
0.0
0.0
0.0
0.0
0.0
0.0
0.0
0.0
0.0
0.0
0.0
0.0
0.0
0.0
0.0
0.0
0.0
0.0
0.0
0.0
0.0
0.0
0.0
0.0
0.0
0.0
0.0
0.0
0.0
0.0
0.0
0.0
0.0
0.0
0.0
0.0
0.0
0.0
0.0
0.0
0.0
0.0
0.0
0.0
0.0
0.0
0.0
0.0
0.0
0.0
0.0
0.0
0.0
0.0
0.0
0.0
0.0
0.0
0.0
0.0
0.0
0.0
0.0
0.0
0.0
0.0
0.0
0.0
0.0
0.0
0.0
0.0
0.0
0.0
0.0
0.0
0.0
0.0
0.0
0.0
0.0
0.0
0.0
0.0
0.0
0.0
0.0
0.0
0.0
0.0
0.0
0.0
0.0
0.0
0.0
0.0

VECTORS node_force_gravity float
0.0 -1.962000000000e+01 0.0 
0.0 -1.962000000000e+01 0.0 
0.0 -1.962000000000e+01 0.0 
0.0 -1.962000000000e+01 0.0 
0.0 -1.962000000000e+01 0.0 
0.0 -1.962000000000e+01 0.0 
0.0 -1.962000000000e+01 0.0 
0.0 -1.962000000000e+01 0.0 
0.0 -1.962000000000e+01 0.0 
0.0 -1.962000000000e+01 0.0 
0.0 -1.962000000000e+01 0.0 
0.0 -1.962000000000e+01 0.0 
0.0 -1.962000000000e+01 0.0 
0.0 -1.962000000000e+01 0.0 
0.0 -1.962000000000e+01 0.0 
0.0 -1.962000000000e+01 0.0 
0.0 -1.962000000000e+01 0.0 
0.0 -1.962000000000e+01 0.0 
0.0 -1.962000000000e+01 0.0 
0.0 -1.962000000000e+01 0.0 
0.0 -1.962000000000e+01 0.0 
0.0 -1.962000000000e+01 0.0 
0.0 -1.962000000000e+01 0.0 
0.0 -1.962000000000e+01 0.0 
0.0 -1.962000000000e+01 0.0 
0.0 -1.962000000000e+01 0.0 
0.0 -1.962000000000e+01 0.0 
0.0 -1.962000000000e+01 0.0 
0.0 -1.962000000000e+01 0.0 
0.0 -1.962000000000e+01 0.0 
0.0 -1.962000000000e+01 0.0 
0.0 -1.962000000000e+01 0.0 
0.0 -1.962000000000e+01 0.0 
0.0 -1.962000000000e+01 0.0 
0.0 -1.962000000000e+01 0.0 
0.0 -1.962000000000e+01 0.0 
0.0 -1.962000000000e+01 0.0 
0.0 -1.962000000000e+01 0.0 
0.0 -1.962000000000e+01 0.0 
0.0 -1.962000000000e+01 0.0 
0.0 -1.962000000000e+01 0.0 
0.0 -1.962000000000e+01 0.0 
0.0 -1.962000000000e+01 0.0 
0.0 -1.962000000000e+01 0.0 
0.0 -1.962000000000e+01 0.0 
0.0 -1.962000000000e+01 0.0 
0.0 -1.962000000000e+01 0.0 
0.0 -1.962000000000e+01 0.0 
0.0 -1.962000000000e+01 0.0 
0.0 -1.962000000000e+01 0.0 
0.0 -1.962000000000e+01 0.0 
0.0 -1.962000000000e+01 0.0 
0.0 -1.962000000000e+01 0.0 
0.0 -1.962000000000e+01 0.0 
0.0 -1.962000000000e+01 0.0 
0.0 -1.962000000000e+01 0.0 
0.0 -1.962000000000e+01 0.0 
0.0 -1.962000000000e+01 0.0 
0.0 -1.962000000000e+01 0.0 
0.0 -1.962000000000e+01 0.0 
0.0 -1.962000000000e+01 0.0 
0.0 -1.962000000000e+01 0.0 
0.0 -1.962000000000e+01 0.0 
0.0 -1.962000000000e+01 0.0 
0.0 -1.962000000000e+01 0.0 
0.0 -1.962000000000e+01 0.0 
0.0 -1.962000000000e+01 0.0 
0.0 -1.962000000000e+01 0.0 
0.0 -1.962000000000e+01 0.0 
0.0 -1.962000000000e+01 0.0 
0.0 -1.962000000000e+01 0.0 
0.0 -1.962000000000e+01 0.0 
0.0 -1.962000000000e+01 0.0 
0.0 -1.962000000000e+01 0.0 
0.0 -1.962000000000e+01 0.0 
0.0 -1.962000000000e+01 0.0 
0.0 -1.962000000000e+01 0.0 
0.0 -1.962000000000e+01 0.0 
0.0 -1.962000000000e+01 0.0 
0.0 -1.962000000000e+01 0.0 
0.0 -1.962000000000e+01 0.0 
0.0 -1.962000000000e+01 0.0 
0.0 -1.962000000000e+01 0.0 
0.0 -1.962000000000e+01 0.0 
0.0 -1.962000000000e+01 0.0 
0.0 -1.962000000000e+01 0.0 
0.0 -1.962000000000e+01 0.0 
0.0 -1.962000000000e+01 0.0 
0.0 -1.962000000000e+01 0.0 
0.0 -1.962000000000e+01 0.0 
0.0 -1.962000000000e+01 0.0 
0.0 -1.962000000000e+01 0.0 
0.0 -1.962000000000e+01 0.0 
0.0 -1.962000000000e+01 0.0 
0.0 -1.962000000000e+01 0.0 
0.0 -1.962000000000e+01 0.0 
0.0 -1.962000000000e+01 0.0 
0.0 -1.962000000000e+01 0.0 
0.0 -1.962000000000e+01 0.0 
0.0 -1.962000000000e+01 0.0 
0.0 -1.962000000000e+01 0.0 
0.0 -1.962000000000e+01 0.0 
0.0 -1.962000000000e+01 0.0 
0.0 -1.962000000000e+01 0.0 
0.0 -1.962000000000e+01 0.0 
0.0 -1.962000000000e+01 0.0 
0.0 -1.962000000000e+01 0.0 
0.0 -1.962000000000e+01 0.0 
0.0 -1.962000000000e+01 0.0 
0.0 -1.962000000000e+01 0.0 
0.0 -1.962000000000e+01 0.0 
0.0 -1.962000000000e+01 0.0 
0.0 -1.962000000000e+01 0.0 
0.0 -1.962000000000e+01 0.0 
0.0 -1.962000000000e+01 0.0 
0.0 -1.962000000000e+01 0.0 
0.0 -1.962000000000e+01 0.0 
0.0 -1.962000000000e+01 0.0 
0.0 -1.962000000000e+01 0.0 
0.0 -1.962000000000e+01 0.0 
0.0 -1.962000000000e+01 0.0 
0.0 -1.962000000000e+01 0.0 
0.0 -1.962000000000e+01 0.0 
0.0 -1.962000000000e+01 0.0 
0.0 -1.962000000000e+01 0.0 
0.0 -1.962000000000e+01 0.0 
0.0 -1.962000000000e+01 0.0 
0.0 -1.962000000000e+01 0.0 
0.0 -1.962000000000e+01 0.0 
0.0 -1.962000000000e+01 0.0 
0.0 -1.962000000000e+01 0.0 
0.0 -1.962000000000e+01 0.0 
0.0 -1.962000000000e+01 0.0 
0.0 -1.962000000000e+01 0.0 
0.0 -1.962000000000e+01 0.0 
0.0 -1.962000000000e+01 0.0 
0.0 -1.962000000000e+01 0.0 
0.0 -1.962000000000e+01 0.0 
0.0 -1.962000000000e+01 0.0 
0.0 -1.962000000000e+01 0.0 
0.0 -1.962000000000e+01 0.0 
0.0 -1.962000000000e+01 0.0 
0.0 -1.962000000000e+01 0.0 
0.0 -1.962000000000e+01 0.0 
0.0 -1.962000000000e+01 0.0 
0.0 -1.962000000000e+01 0.0 
0.0 -1.962000000000e+01 0.0 
0.0 -1.962000000000e+01 0.0 
0.0 -1.962000000000e+01 0.0 
0.0 -1.962000000000e+01 0.0 
0.0 -1.962000000000e+01 0.0 
0.0 -1.962000000000e+01 0.0 
0.0 -1.962000000000e+01 0.0 
0.0 -1.962000000000e+01 0.0 
0.0 -1.962000000000e+01 0.0 
0.0 -1.962000000000e+01 0.0 
0.0 -1.962000000000e+01 0.0 
0.0 -1.962000000000e+01 0.0 
0.0 -1.962000000000e+01 0.0 
0.0 -1.962000000000e+01 0.0 
0.0 -1.962000000000e+01 0.0 
0.0 -1.962000000000e+01 0.0 
0.0 -1.962000000000e+01 0.0 
0.0 -1.962000000000e+01 0.0 
0.0 -1.962000000000e+01 0.0 
0.0 -1.962000000000e+01 0.0 
0.0 -1.962000000000e+01 0.0 
0.0 -1.962000000000e+01 0.0 
0.0 -1.962000000000e+01 0.0 
0.0 -1.962000000000e+01 0.0 
0.0 -1.962000000000e+01 0.0 
0.0 -1.962000000000e+01 0.0 
0.0 -1.962000000000e+01 0.0 
0.0 -1.962000000000e+01 0.0 
0.0 -1.962000000000e+01 0.0 
0.0 -1.962000000000e+01 0.0 
0.0 -1.962000000000e+01 0.0 
0.0 -1.962000000000e+01 0.0 
0.0 -1.962000000000e+01 0.0 
0.0 -1.962000000000e+01 0.0 
0.0 -1.962000000000e+01 0.0 
0.0 -1.962000000000e+01 0.0 
0.0 -1.962000000000e+01 0.0 
0.0 -1.962000000000e+01 0.0 
0.0 -1.962000000000e+01 0.0 
0.0 -1.962000000000e+01 0.0 
0.0 -1.962000000000e+01 0.0 
0.0 -1.962000000000e+01 0.0 
0.0 -1.962000000000e+01 0.0 
0.0 -1.962000000000e+01 0.0 
0.0 -1.962000000000e+01 0.0 
0.0 -1.962000000000e+01 0.0 
0.0 -1.962000000000e+01 0.0 
0.0 -1.962000000000e+01 0.0 
0.0 -1.962000000000e+01 0.0 
0.0 -1.962000000000e+01 0.0 
0.0 -1.962000000000e+01 0.0 
0.0 -1.962000000000e+01 0.0 
0.0 -1.962000000000e+01 0.0 
0.0 -1.962000000000e+01 0.0 
0.0 -1.962000000000e+01 0.0 
0.0 -1.962000000000e+01 0.0 
0.0 -1.962000000000e+01 0.0 
0.0 -1.962000000000e+01 0.0 
0.0 -1.962000000000e+01 0.0 
0.0 -1.962000000000e+01 0.0 
0.0 -1.962000000000e+01 0.0 
0.0 -1.962000000000e+01 0.0 
0.0 -1.962000000000e+01 0.0 
0.0 -1.962000000000e+01 0.0 
0.0 -1.962000000000e+01 0.0 
0.0 -1.962000000000e+01 0.0 
0.0 -1.962000000000e+01 0.0 
0.0 -1.962000000000e+01 0.0 
0.0 -1.962000000000e+01 0.0 
0.0 -1.962000000000e+01 0.0 
0.0 -1.962000000000e+01 0.0 
0.0 -1.962000000000e+01 0.0 
0.0 -1.962000000000e+01 0.0 
0.0 -1.962000000000e+01 0.0 
0.0 -1.962000000000e+01 0.0 
0.0 -1.962000000000e+01 0.0 
0.0 -1.962000000000e+01 0.0 
0.0 -1.962000000000e+01 0.0 
0.0 -1.962000000000e+01 0.0 
0.0 -1.962000000000e+01 0.0 
0.0 -1.962000000000e+01 0.0 
0.0 -1.962000000000e+01 0.0 
0.0 -1.962000000000e+01 0.0 
0.0 -1.962000000000e+01 0.0 
0.0 -1.962000000000e+01 0.0 
0.0 -1.962000000000e+01 0.0 
0.0 -1.962000000000e+01 0.0 
0.0 -1.962000000000e+01 0.0 
0.0 -1.962000000000e+01 0.0 
0.0 -1.962000000000e+01 0.0 
0.0 -1.962000000000e+01 0.0 
0.0 -1.962000000000e+01 0.0 
0.0 -1.962000000000e+01 0.0 
0.0 -1.962000000000e+01 0.0 
0.0 -1.962000000000e+01 0.0 
0.0 -1.962000000000e+01 0.0 
0.0 -1.962000000000e+01 0.0 
0.0 -1.962000000000e+01 0.0 
0.0 -1.962000000000e+01 0.0 
0.0 -1.962000000000e+01 0.0 
0.0 -1.962000000000e+01 0.0 
0.0 -1.962000000000e+01 0.0 
0.0 -1.962000000000e+01 0.0 
0.0 -1.962000000000e+01 0.0 
0.0 -1.962000000000e+01 0.0 
0.0 -1.962000000000e+01 0.0 
0.0 -1.962000000000e+01 0.0 
0.0 -1.962000000000e+01 0.0 
0.0 -1.962000000000e+01 0.0 
0.0 -1.962000000000e+01 0.0 
0.0 -1.962000000000e+01 0.0 
0.0 -1.962000000000e+01 0.0 
0.0 -1.962000000000e+01 0.0 
0.0 -1.962000000000e+01 0.0 
0.0 -1.962000000000e+01 0.0 
0.0 -1.962000000000e+01 0.0 
0.0 -1.962000000000e+01 0.0 
0.0 -1.962000000000e+01 0.0 
0.0 -1.962000000000e+01 0.0 
0.0 -1.962000000000e+01 0.0 
0.0 -1.962000000000e+01 0.0 
0.0 -1.962000000000e+01 0.0 
0.0 -1.962000000000e+01 0.0 
0.0 -1.962000000000e+01 0.0 
0.0 -1.962000000000e+01 0.0 
0.0 -1.962000000000e+01 0.0 
0.0 -1.962000000000e+01 0.0 
0.0 -1.962000000000e+01 0.0 
0.0 -1.962000000000e+01 0.0 
0.0 -1.962000000000e+01 0.0 
0.0 -1.962000000000e+01 0.0 
0.0 -1.962000000000e+01 0.0 
0.0 -1.962000000000e+01 0.0 
0.0 -1.962000000000e+01 0.0 
0.0 -1.962000000000e+01 0.0 
0.0 -1.962000000000e+01 0.0 
0.0 -1.962000000000e+01 0.0 
0.0 -1.962000000000e+01 0.0 
0.0 -1.962000000000e+01 0.0 
0.0 -1.962000000000e+01 0.0 
0.0 -1.962000000000e+01 0.0 
0.0 -1.962000000000e+01 0.0 
0.0 -1.962000000000e+01 0.0 
0.0 -1.962000000000e+01 0.0 
0.0 -1.962000000000e+01 0.0 
0.0 -1.962000000000e+01 0.0 
0.0 -1.962000000000e+01 0.0 
0.0 -1.962000000000e+01 0.0 
0.0 -1.962000000000e+01 0.0 
0.0 -1.962000000000e+01 0.0 
0.0 -1.962000000000e+01 0.0 
0.0 -1.962000000000e+01 0.0 
0.0 -1.962000000000e+01 0.0 
0.0 -1.962000000000e+01 0.0 
0.0 -1.962000000000e+01 0.0 
0.0 -1.962000000000e+01 0.0 
0.0 -1.962000000000e+01 0.0 
0.0 -1.962000000000e+01 0.0 
0.0 -1.962000000000e+01 0.0 
0.0 -1.962000000000e+01 0.0 
0.0 -1.962000000000e+01 0.0 
0.0 -1.962000000000e+01 0.0 
0.0 -1.962000000000e+01 0.0 
0.0 -1.962000000000e+01 0.0 
0.0 -1.962000000000e+01 0.0 
0.0 -1.962000000000e+01 0.0 
0.0 -1.962000000000e+01 0.0 
0.0 -1.962000000000e+01 0.0 
0.0 -1.962000000000e+01 0.0 
0.0 -1.962000000000e+01 0.0 
0.0 -1.962000000000e+01 0.0 
0.0 -1.962000000000e+01 0.0 
0.0 -1.962000000000e+01 0.0 
0.0 -1.962000000000e+01 0.0 
0.0 -1.962000000000e+01 0.0 
0.0 -1.962000000000e+01 0.0 
0.0 -1.962000000000e+01 0.0 
0.0 -1.962000000000e+01 0.0 
0.0 -1.962000000000e+01 0.0 
0.0 -1.962000000000e+01 0.0 
0.0 -1.962000000000e+01 0.0 
0.0 -1.962000000000e+01 0.0 
0.0 -1.962000000000e+01 0.0 
0.0 -1.962000000000e+01 0.0 
0.0 -1.962000000000e+01 0.0 
0.0 -1.962000000000e+01 0.0 
0.0 -1.962000000000e+01 0.0 
0.0 -1.962000000000e+01 0.0 
0.0 -1.962000000000e+01 0.0 
0.0 -1.962000000000e+01 0.0 
0.0 -1.962000000000e+01 0.0 
0.0 -1.962000000000e+01 0.0 
0.0 -1.962000000000e+01 0.0 
0.0 -1.962000000000e+01 0.0 
0.0 -1.962000000000e+01 0.0 
0.0 -1.962000000000e+01 0.0 
0.0 -1.962000000000e+01 0.0 
0.0 -1.962000000000e+01 0.0 
0.0 -1.962000000000e+01 0.0 
0.0 -1.962000000000e+01 0.0 
0.0 -1.962000000000e+01 0.0 
0.0 -1.962000000000e+01 0.0 
0.0 -1.962000000000e+01 0.0 
0.0 -1.962000000000e+01 0.0 
0.0 -1.962000000000e+01 0.0 
0.0 -1.962000000000e+01 0.0 
0.0 -1.962000000000e+01 0.0 
0.0 -1.962000000000e+01 0.0 
0.0 -1.962000000000e+01 0.0 
0.0 -1.962000000000e+01 0.0 
0.0 -1.962000000000e+01 0.0 
0.0 -1.962000000000e+01 0.0 
0.0 -1.962000000000e+01 0.0 
0.0 -1.962000000000e+01 0.0 
0.0 -1.962000000000e+01 0.0 
0.0 -1.962000000000e+01 0.0 
0.0 -1.962000000000e+01 0.0 
0.0 -1.962000000000e+01 0.0 
0.0 -1.962000000000e+01 0.0 
0.0 -1.962000000000e+01 0.0 
0.0 -1.962000000000e+01 0.0 
0.0 -1.962000000000e+01 0.0 
0.0 -1.962000000000e+01 0.0 
0.0 -1.962000000000e+01 0.0 
0.0 -1.962000000000e+01 0.0 
0.0 -1.962000000000e+01 0.0 
0.0 -1.962000000000e+01 0.0 
0.0 -1.962000000000e+01 0.0 
0.0 -1.962000000000e+01 0.0 
0.0 -1.962000000000e+01 0.0 
0.0 -1.962000000000e+01 0.0 
0.0 -1.962000000000e+01 0.0 
0.0 -1.962000000000e+01 0.0 
0.0 -1.962000000000e+01 0.0 
0.0 -1.962000000000e+01 0.0 
0.0 -1.962000000000e+01 0.0 
0.0 -1.962000000000e+01 0.0 
0.0 -1.962000000000e+01 0.0 
0.0 -1.962000000000e+01 0.0 
0.0 -1.962000000000e+01 0.0 
0.0 -1.962000000000e+01 0.0 
0.0 -1.962000000000e+01 0.0 
0.0 -1.962000000000e+01 0.0 
0.0 -1.962000000000e+01 0.0 
0.0 -1.962000000000e+01 0.0 
0.0 -1.962000000000e+01 0.0 
0.0 -1.962000000000e+01 0.0 
0.0 -1.962000000000e+01 0.0 
0.0 -1.962000000000e+01 0.0 
0.0 -1.962000000000e+01 0.0 
0.0 -1.962000000000e+01 0.0 
0.0 -1.962000000000e+01 0.0 
0.0 -1.962000000000e+01 0.0 
0.0 -1.962000000000e+01 0.0 
0.0 -1.962000000000e+01 0.0 
0.0 -1.962000000000e+01 0.0 
0.0 -1.962000000000e+01 0.0 
0.0 -1.962000000000e+01 0.0 
0.0 -1.962000000000e+01 0.0 
0.0 -1.962000000000e+01 0.0 
0.0 -1.962000000000e+01 0.0 
0.0 -1.962000000000e+01 0.0 
0.0 -1.962000000000e+01 0.0 
0.0 -1.962000000000e+01 0.0 
0.0 -1.962000000000e+01 0.0 
0.0 -1.962000000000e+01 0.0 
0.0 -1.962000000000e+01 0.0 
0.0 -1.962000000000e+01 0.0 
0.0 -1.962000000000e+01 0.0 
0.0 -1.962000000000e+01 0.0 
0.0 -1.962000000000e+01 0.0 
0.0 -1.962000000000e+01 0.0 
0.0 -1.962000000000e+01 0.0 
0.0 -1.962000000000e+01 0.0 
0.0 -1.962000000000e+01 0.0 
0.0 -1.962000000000e+01 0.0 
0.0 -1.962000000000e+01 0.0 
0.0 -1.962000000000e+01 0.0 
0.0 -1.962000000000e+01 0.0 
0.0 -1.962000000000e+01 0.0 
0.0 -1.962000000000e+01 0.0 
0.0 -1.962000000000e+01 0.0 
0.0 -1.962000000000e+01 0.0 
0.0 -1.962000000000e+01 0.0 
0.0 -1.962000000000e+01 0.0 
0.0 -1.962000000000e+01 0.0 
0.0 -1.962000000000e+01 0.0 
0.0 -1.962000000000e+01 0.0 
0.0 -1.962000000000e+01 0.0 
0.0 -1.962000000000e+01 0.0 
0.0 -1.962000000000e+01 0.0 
0.0 -1.962000000000e+01 0.0 
0.0 -1.962000000000e+01 0.0 
0.0 -1.962000000000e+01 0.0 
0.0 -1.962000000000e+01 0.0 
0.0 -1.962000000000e+01 0.0 
0.0 -1.962000000000e+01 0.0 
0.0 -1.962000000000e+01 0.0 
0.0 -1.962000000000e+01 0.0 
0.0 -1.962000000000e+01 0.0 
0.0 -1.962000000000e+01 0.0 
0.0 -1.962000000000e+01 0.0 
0.0 -1.962000000000e+01 0.0 
0.0 -1.962000000000e+01 0.0 
0.0 -1.962000000000e+01 0.0 
0.0 -1.962000000000e+01 0.0 
0.0 -1.962000000000e+01 0.0 
0.0 -1.962000000000e+01 0.0 
0.0 -1.962000000000e+01 0.0 
0.0 -1.962000000000e+01 0.0 
0.0 -1.962000000000e+01 0.0 
0.0 -1.962000000000e+01 0.0 
0.0 -1.962000000000e+01 0.0 
0.0 -1.962000000000e+01 0.0 
0.0 -1.962000000000e+01 0.0 
0.0 -1.962000000000e+01 0.0 
0.0 -1.962000000000e+01 0.0 
0.0 -1.962000000000e+01 0.0 
0.0 -1.962000000000e+01 0.0 
0.0 -1.962000000000e+01 0.0 
0.0 -1.962000000000e+01 0.0 
0.0 -1.962000000000e+01 0.0 
0.0 -1.962000000000e+01 0.0 
0.0 -1.962000000000e+01 0.0 
0.0 -1.962000000000e+01 0.0 
0.0 -1.962000000000e+01 0.0 
0.0 -1.962000000000e+01 0.0 
0.0 -1.962000000000e+01 0.0 
0.0 -1.962000000000e+01 0.0 
0.0 -1.962000000000e+01 0.0 
0.0 -1.962000000000e+01 0.0 
0.0 -1.962000000000e+01 0.0 
0.0 -1.962000000000e+01 0.0 
0.0 -1.962000000000e+01 0.0 
0.0 -1.962000000000e+01 0.0 
0.0 -1.962000000000e+01 0.0 
0.0 -1.962000000000e+01 0.0 
0.0 -1.962000000000e+01 0.0 
0.0 -1.962000000000e+01 0.0 
0.0 -1.962000000000e+01 0.0 
0.0 -1.962000000000e+01 0.0 
0.0 -1.962000000000e+01 0.0 
0.0 -1.962000000000e+01 0.0 
0.0 -1.962000000000e+01 0.0 
0.0 -1.962000000000e+01 0.0 
0.0 -1.962000000000e+01 0.0 
0.0 -1.962000000000e+01 0.0 
0.0 -1.962000000000e+01 0.0 
0.0 -1.962000000000e+01 0.0 
0.0 -1.962000000000e+01 0.0 
0.0 -1.962000000000e+01 0.0 
0.0 -1.962000000000e+01 0.0 
0.0 -1.962000000000e+01 0.0 
0.0 -1.962000000000e+01 0.0 
0.0 -1.962000000000e+01 0.0 
0.0 -1.962000000000e+01 0.0 
0.0 -1.962000000000e+01 0.0 
0.0 -1.962000000000e+01 0.0 
0.0 -1.962000000000e+01 0.0 
0.0 -1.962000000000e+01 0.0 
0.0 -1.962000000000e+01 0.0 
0.0 -1.962000000000e+01 0.0 
0.0 -1.962000000000e+01 0.0 
0.0 -1.962000000000e+01 0.0 
0.0 -1.962000000000e+01 0.0 
0.0 -1.962000000000e+01 0.0 
0.0 -1.962000000000e+01 0.0 
0.0 -1.962000000000e+01 0.0 
0.0 -1.962000000000e+01 0.0 
0.0 -1.962000000000e+01 0.0 
0.0 -1.962000000000e+01 0.0 
0.0 -1.962000000000e+01 0.0 
0.0 -1.962000000000e+01 0.0 
0.0 -1.962000000000e+01 0.0 
0.0 -1.962000000000e+01 0.0 
0.0 -1.962000000000e+01 0.0 
0.0 -1.962000000000e+01 0.0 
0.0 -1.962000000000e+01 0.0 
0.0 -1.962000000000e+01 0.0 
0.0 -1.962000000000e+01 0.0 
0.0 -1.962000000000e+01 0.0 
0.0 -1.962000000000e+01 0.0 
0.0 -1.962000000000e+01 0.0 
0.0 -1.962000000000e+01 0.0 
0.0 -1.962000000000e+01 0.0 
0.0 -1.962000000000e+01 0.0 
0.0 -1.962000000000e+01 0.0 
0.0 -1.962000000000e+01 0.0 
0.0 -1.962000000000e+01 0.0 
0.0 -1.962000000000e+01 0.0 
0.0 -1.962000000000e+01 0.0 
0.0 -1.962000000000e+01 0.0 
0.0 -1.962000000000e+01 0.0 
0.0 -1.962000000000e+01 0.0 
0.0 -1.962000000000e+01 0.0 
0.0 -1.962000000000e+01 0.0 
0.0 -1.962000000000e+01 0.0 
0.0 -1.962000000000e+01 0.0 
0.0 -1.962000000000e+01 0.0 
0.0 -1.962000000000e+01 0.0 
0.0 -1.962000000000e+01 0.0 
0.0 -1.962000000000e+01 0.0 
0.0 -1.962000000000e+01 0.0 
0.0 -1.962000000000e+01 0.0 
0.0 -1.962000000000e+01 0.0 
0.0 -1.962000000000e+01 0.0 
0.0 -1.962000000000e+01 0.0 
0.0 -1.962000000000e+01 0.0 
0.0 -1.962000000000e+01 0.0 
0.0 -1.962000000000e+01 0.0 
0.0 -1.962000000000e+01 0.0 
0.0 -1.962000000000e+01 0.0 
0.0 -1.962000000000e+01 0.0 
0.0 -1.962000000000e+01 0.0 
0.0 -1.962000000000e+01 0.0 
0.0 -1.962000000000e+01 0.0 
0.0 -1.962000000000e+01 0.0 
0.0 -1.962000000000e+01 0.0 
0.0 -1.962000000000e+01 0.0 
0.0 -1.962000000000e+01 0.0 
0.0 -1.962000000000e+01 0.0 
0.0 -1.962000000000e+01 0.0 
0.0 -1.962000000000e+01 0.0 
0.0 -1.962000000000e+01 0.0 
0.0 -1.962000000000e+01 0.0 
0.0 -1.962000000000e+01 0.0 
0.0 -1.962000000000e+01 0.0 
0.0 -1.962000000000e+01 0.0 
0.0 -1.962000000000e+01 0.0 
0.0 -1.962000000000e+01 0.0 
0.0 -1.962000000000e+01 0.0 
0.0 -1.962000000000e+01 0.0 
0.0 -1.962000000000e+01 0.0 
0.0 -1.962000000000e+01 0.0 
0.0 -1.962000000000e+01 0.0 
0.0 -1.962000000000e+01 0.0 
0.0 -1.962000000000e+01 0.0 
0.0 -1.962000000000e+01 0.0 
0.0 -1.962000000000e+01 0.0 
0.0 -1.962000000000e+01 0.0 
0.0 -1.962000000000e+01 0.0 
0.0 -1.962000000000e+01 0.0 
0.0 -1.962000000000e+01 0.0 
0.0 -1.962000000000e+01 0.0 
0.0 -1.962000000000e+01 0.0 
0.0 -1.962000000000e+01 0.0 
0.0 -1.962000000000e+01 0.0 
0.0 -1.962000000000e+01 0.0 
0.0 -1.962000000000e+01 0.0 
0.0 -1.962000000000e+01 0.0 
0.0 -1.962000000000e+01 0.0 
0.0 -1.962000000000e+01 0.0 
0.0 -1.962000000000e+01 0.0 
0.0 -1.962000000000e+01 0.0 
0.0 -1.962000000000e+01 0.0 
0.0 -1.962000000000e+01 0.0 
0.0 -1.962000000000e+01 0.0 
0.0 -1.962000000000e+01 0.0 
0.0 -1.962000000000e+01 0.0 
0.0 -1.962000000000e+01 0.0 
0.0 -1.962000000000e+01 0.0 
0.0 -1.962000000000e+01 0.0 
0.0 -1.962000000000e+01 0.0 
0.0 -1.962000000000e+01 0.0 
0.0 -1.962000000000e+01 0.0 
0.0 -1.962000000000e+01 0.0 
0.0 -1.962000000000e+01 0.0 
0.0 -1.962000000000e+01 0.0 
0.0 -1.962000000000e+01 0.0 
0.0 -1.962000000000e+01 0.0 
0.0 -1.962000000000e+01 0.0 
0.0 -1.962000000000e+01 0.0 
0.0 -1.962000000000e+01 0.0 
0.0 -1.962000000000e+01 0.0 
0.0 -1.962000000000e+01 0.0 
0.0 -1.962000000000e+01 0.0 
0.0 -1.962000000000e+01 0.0 
0.0 -1.962000000000e+01 0.0 
0.0 -1.962000000000e+01 0.0 
0.0 -1.962000000000e+01 0.0 
0.0 -1.962000000000e+01 0.0 
0.0 -1.962000000000e+01 0.0 
0.0 -1.962000000000e+01 0.0 
0.0 -1.962000000000e+01 0.0 
0.0 -1.962000000000e+01 0.0 
0.0 -1.962000000000e+01 0.0 
0.0 -1.962000000000e+01 0.0 
0.0 -1.962000000000e+01 0.0 
0.0 -1.962000000000e+01 0.0 
0.0 -1.962000000000e+01 0.0 
0.0 -1.962000000000e+01 0.0 
0.0 -1.962000000000e+01 0.0 
0.0 -1.962000000000e+01 0.0 
0.0 -1.962000000000e+01 0.0 
0.0 -1.962000000000e+01 0.0 
0.0 -1.962000000000e+01 0.0 
0.0 -1.962000000000e+01 0.0 
0.0 -1.962000000000e+01 0.0 
0.0 -1.962000000000e+01 0.0 
0.0 -1.962000000000e+01 0.0 
0.0 -1.962000000000e+01 0.0 
0.0 -1.962000000000e+01 0.0 
0.0 -1.962000000000e+01 0.0 
0.0 -1.962000000000e+01 0.0 
0.0 -1.962000000000e+01 0.0 
0.0 -1.962000000000e+01 0.0 
0.0 -1.962000000000e+01 0.0 
0.0 -1.962000000000e+01 0.0 
0.0 -1.962000000000e+01 0.0 
0.0 -1.962000000000e+01 0.0 
0.0 -1.962000000000e+01 0.0 
0.0 -1.962000000000e+01 0.0 
0.0 -1.962000000000e+01 0.0 
0.0 -1.962000000000e+01 0.0 
0.0 -1.962000000000e+01 0.0 
0.0 -1.962000000000e+01 0.0 
0.0 -1.962000000000e+01 0.0 
0.0 -1.962000000000e+01 0.0 
0.0 -1.962000000000e+01 0.0 
0.0 -1.962000000000e+01 0.0 
0.0 -1.962000000000e+01 0.0 
0.0 -1.962000000000e+01 0.0 
0.0 -1.962000000000e+01 0.0 
0.0 -1.962000000000e+01 0.0 
0.0 -1.962000000000e+01 0.0 
0.0 -1.962000000000e+01 0.0 
0.0 -1.962000000000e+01 0.0 
0.0 -1.962000000000e+01 0.0 
0.0 -1.962000000000e+01 0.0 
0.0 -1.962000000000e+01 0.0 
0.0 -1.962000000000e+01 0.0 
0.0 -1.962000000000e+01 0.0 
0.0 -1.962000000000e+01 0.0 
0.0 -1.962000000000e+01 0.0 
0.0 -1.962000000000e+01 0.0 
0.0 -1.962000000000e+01 0.0 
0.0 -1.962000000000e+01 0.0 
0.0 -1.962000000000e+01 0.0 
0.0 -1.962000000000e+01 0.0 
0.0 -1.962000000000e+01 0.0 
0.0 -1.962000000000e+01 0.0 
0.0 -1.962000000000e+01 0.0 
0.0 -1.962000000000e+01 0.0 
0.0 -1.962000000000e+01 0.0 
0.0 -1.962000000000e+01 0.0 
0.0 -1.962000000000e+01 0.0 
0.0 -1.962000000000e+01 0.0 
0.0 -1.962000000000e+01 0.0 
0.0 -1.962000000000e+01 0.0 
0.0 -1.962000000000e+01 0.0 
0.0 -1.962000000000e+01 0.0 
0.0 -1.962000000000e+01 0.0 
0.0 -1.962000000000e+01 0.0 
0.0 -1.962000000000e+01 0.0 
0.0 -1.962000000000e+01 0.0 
0.0 -1.962000000000e+01 0.0 
0.0 -1.962000000000e+01 0.0 
0.0 -1.962000000000e+01 0.0 
0.0 -1.962000000000e+01 0.0 
0.0 -1.962000000000e+01 0.0 
0.0 -1.962000000000e+01 0.0 
0.0 -1.962000000000e+01 0.0 
0.0 -1.962000000000e+01 0.0 
0.0 -1.962000000000e+01 0.0 
0.0 -1.962000000000e+01 0.0 
0.0 -1.962000000000e+01 0.0 
0.0 -1.962000000000e+01 0.0 
0.0 -1.962000000000e+01 0.0 
0.0 -1.962000000000e+01 0.0 
0.0 -1.962000000000e+01 0.0 
0.0 -1.962000000000e+01 0.0 
0.0 -1.962000000000e+01 0.0 
0.0 -1.962000000000e+01 0.0 
0.0 -1.962000000000e+01 0.0 
0.0 -1.962000000000e+01 0.0 
0.0 -1.962000000000e+01 0.0 
0.0 -1.962000000000e+01 0.0 
0.0 -1.962000000000e+01 0.0 
0.0 -1.962000000000e+01 0.0 
0.0 -1.962000000000e+01 0.0 
0.0 -1.962000000000e+01 0.0 
0.0 -1.962000000000e+01 0.0 
0.0 -1.962000000000e+01 0.0 
0.0 -1.962000000000e+01 0.0 
0.0 -1.962000000000e+01 0.0 
0.0 -1.962000000000e+01 0.0 
0.0 -1.962000000000e+01 0.0 
0.0 -1.962000000000e+01 0.0 
0.0 -1.962000000000e+01 0.0 
0.0 -1.962000000000e+01 0.0 
0.0 -1.962000000000e+01 0.0 
0.0 -1.962000000000e+01 0.0 
0.0 -1.962000000000e+01 0.0 
0.0 -1.962000000000e+01 0.0 
0.0 -1.962000000000e+01 0.0 
0.0 -1.962000000000e+01 0.0 
0.0 -1.962000000000e+01 0.0 
0.0 -1.962000000000e+01 0.0 
0.0 -1.962000000000e+01 0.0 
0.0 -1.962000000000e+01 0.0 
0.0 -1.962000000000e+01 0.0 
0.0 -1.962000000000e+01 0.0 
0.0 -1.962000000000e+01 0.0 
0.0 -1.962000000000e+01 0.0 
0.0 -1.962000000000e+01 0.0 
0.0 -1.962000000000e+01 0.0 
0.0 -1.962000000000e+01 0.0 
0.0 -1.962000000000e+01 0.0 
0.0 -1.962000000000e+01 0.0 
0.0 -1.962000000000e+01 0.0 
0.0 -1.962000000000e+01 0.0 
0.0 -1.962000000000e+01 0.0 
0.0 -1.962000000000e+01 0.0 
0.0 -1.962000000000e+01 0.0 
0.0 -1.962000000000e+01 0.0 
0.0 -1.962000000000e+01 0.0 
0.0 -1.962000000000e+01 0.0 
0.0 -1.962000000000e+01 0.0 
0.0 -1.962000000000e+01 0.0 
0.0 -1.962000000000e+01 0.0 
0.0 -1.962000000000e+01 0.0 
0.0 -1.962000000000e+01 0.0 
0.0 -1.962000000000e+01 0.0 
0.0 -1.962000000000e+01 0.0 
0.0 -1.962000000000e+01 0.0 
0.0 -1.962000000000e+01 0.0 
0.0 -1.962000000000e+01 0.0 
0.0 -1.962000000000e+01 0.0 
0.0 -1.962000000000e+01 0.0 
0.0 -1.962000000000e+01 0.0 
0.0 -1.962000000000e+01 0.0 
0.0 -1.962000000000e+01 0.0 
0.0 -1.962000000000e+01 0.0 
0.0 -1.962000000000e+01 0.0 
0.0 -1.962000000000e+01 0.0 
0.0 -1.962000000000e+01 0.0 
0.0 -1.962000000000e+01 0.0 
0.0 -1.962000000000e+01 0.0 
0.0 -1.962000000000e+01 0.0 
0.0 -1.962000000000e+01 0.0 
0.0 -1.962000000000e+01 0.0 
0.0 -1.962000000000e+01 0.0 
0.0 -1.962000000000e+01 0.0 
0.0 -1.962000000000e+01 0.0 
0.0 -1.962000000000e+01 0.0 
0.0 -1.962000000000e+01 0.0 
0.0 -1.962000000000e+01 0.0 
0.0 -1.962000000000e+01 0.0 
0.0 -1.962000000000e+01 0.0 
0.0 -1.962000000000e+01 0.0 
0.0 -1.962000000000e+01 0.0 
0.0 -1.962000000000e+01 0.0 
0.0 -1.962000000000e+01 0.0 
0.0 -1.962000000000e+01 0.0 
0.0 -1.962000000000e+01 0.0 
0.0 -1.962000000000e+01 0.0 
0.0 -1.962000000000e+01 0.0 
0.0 -1.962000000000e+01 0.0 
0.0 -1.962000000000e+01 0.0 
0.0 -1.962000000000e+01 0.0 
0.0 -1.962000000000e+01 0.0 
0.0 -1.962000000000e+01 0.0 
0.0 -1.962000000000e+01 0.0 
0.0 -1.962000000000e+01 0.0 
0.0 -1.962000000000e+01 0.0 
0.0 -1.962000000000e+01 0.0 
0.0 -1.962000000000e+01 0.0 
0.0 -1.962000000000e+01 0.0 
0.0 -1.962000000000e+01 0.0 
0.0 -1.962000000000e+01 0.0 
0.0 -1.962000000000e+01 0.0 
0.0 -1.962000000000e+01 0.0 
0.0 -1.962000000000e+01 0.0 
0.0 -1.962000000000e+01 0.0 
0.0 -1.962000000000e+01 0.0 
0.0 -1.962000000000e+01 0.0 
0.0 -1.962000000000e+01 0.0 
0.0 -1.962000000000e+01 0.0 
0.0 -1.962000000000e+01 0.0 
0.0 -1.962000000000e+01 0.0 
0.0 -1.962000000000e+01 0.0 
0.0 -1.962000000000e+01 0.0 
0.0 -1.962000000000e+01 0.0 
0.0 -1.962000000000e+01 0.0 
0.0 -1.962000000000e+01 0.0 
0.0 -1.962000000000e+01 0.0 
0.0 -1.962000000000e+01 0.0 
0.0 -1.962000000000e+01 0.0 
0.0 -1.962000000000e+01 0.0 
0.0 -1.962000000000e+01 0.0 
0.0 -1.962000000000e+01 0.0 
0.0 -1.962000000000e+01 0.0 
0.0 -1.962000000000e+01 0.0 
0.0 -1.962000000000e+01 0.0 
0.0 -1.962000000000e+01 0.0 
0.0 -1.962000000000e+01 0.0 
0.0 -1.962000000000e+01 0.0 
0.0 -1.962000000000e+01 0.0 
0.0 -1.962000000000e+01 0.0 
0.0 -1.962000000000e+01 0.0 
0.0 -1.962000000000e+01 0.0 
0.0 -1.962000000000e+01 0.0 
0.0 -1.962000000000e+01 0.0 
0.0 -1.962000000000e+01 0.0 
0.0 -1.962000000000e+01 0.0 
0.0 -1.962000000000e+01 0.0 
0.0 -1.962000000000e+01 0.0 
0.0 -1.962000000000e+01 0.0 
0.0 -1.962000000000e+01 0.0 
0.0 -1.962000000000e+01 0.0 
0.0 -1.962000000000e+01 0.0 
0.0 -1.962000000000e+01 0.0 
0.0 -1.962000000000e+01 0.0 
0.0 -1.962000000000e+01 0.0 
0.0 -1.962000000000e+01 0.0 
0.0 -1.962000000000e+01 0.0 
0.0 -1.962000000000e+01 0.0 
0.0 -1.962000000000e+01 0.0 
0.0 -1.962000000000e+01 0.0 
0.0 -1.962000000000e+01 0.0 
0.0 -1.962000000000e+01 0.0 
0.0 -1.962000000000e+01 0.0 
0.0 -1.962000000000e+01 0.0 
0.0 -1.962000000000e+01 0.0 
0.0 -1.962000000000e+01 0.0 
0.0 -1.962000000000e+01 0.0 
0.0 -1.962000000000e+01 0.0 
0.0 -1.962000000000e+01 0.0 
0.0 -1.962000000000e+01 0.0 
0.0 -1.962000000000e+01 0.0 
0.0 -1.962000000000e+01 0.0 
0.0 -1.962000000000e+01 0.0 
0.0 -1.962000000000e+01 0.0 
0.0 -1.962000000000e+01 0.0 
0.0 -1.962000000000e+01 0.0 
0.0 -1.962000000000e+01 0.0 
0.0 -1.962000000000e+01 0.0 
0.0 -1.962000000000e+01 0.0 
0.0 -1.962000000000e+01 0.0 
0.0 -1.962000000000e+01 0.0 
0.0 -1.962000000000e+01 0.0 
0.0 -1.962000000000e+01 0.0 
0.0 -1.962000000000e+01 0.0 
0.0 -1.962000000000e+01 0.0 
0.0 -1.962000000000e+01 0.0 
0.0 -1.962000000000e+01 0.0 
0.0 -1.962000000000e+01 0.0 
0.0 -1.962000000000e+01 0.0 
0.0 -1.962000000000e+01 0.0 
0.0 -1.962000000000e+01 0.0 
0.0 -1.962000000000e+01 0.0 
0.0 -1.962000000000e+01 0.0 
0.0 -1.962000000000e+01 0.0 
0.0 -1.962000000000e+01 0.0 
0.0 -1.962000000000e+01 0.0 
0.0 -1.962000000000e+01 0.0 
0.0 -1.962000000000e+01 0.0 
0.0 -1.962000000000e+01 0.0 
0.0 -1.962000000000e+01 0.0 
0.0 -1.962000000000e+01 0.0 
0.0 -1.962000000000e+01 0.0 
0.0 -1.962000000000e+01 0.0 
0.0 -1.962000000000e+01 0.0 
0.0 -1.962000000000e+01 0.0 
0.0 -1.962000000000e+01 0.0 
0.0 -1.962000000000e+01 0.0 
0.0 -1.962000000000e+01 0.0 
0.0 -1.962000000000e+01 0.0 
0.0 -1.962000000000e+01 0.0 
0.0 -1.962000000000e+01 0.0 
0.0 -1.962000000000e+01 0.0 
0.0 -1.962000000000e+01 0.0 
0.0 -1.962000000000e+01 0.0 
0.0 -1.962000000000e+01 0.0 
0.0 -1.962000000000e+01 0.0 
0.0 -1.962000000000e+01 0.0 
0.0 -1.962000000000e+01 0.0 
0.0 -1.962000000000e+01 0.0 
0.0 -1.962000000000e+01 0.0 
0.0 -1.962000000000e+01 0.0 
0.0 -1.962000000000e+01 0.0 
0.0 -1.962000000000e+01 0.0 
0.0 -1.962000000000e+01 0.0 
0.0 -1.962000000000e+01 0.0 
0.0 -1.962000000000e+01 0.0 
0.0 -1.962000000000e+01 0.0 
0.0 -1.962000000000e+01 0.0 
0.0 -1.962000000000e+01 0.0 
0.0 -1.962000000000e+01 0.0 
0.0 -1.962000000000e+01 0.0 
0.0 -1.962000000000e+01 0.0 
0.0 -1.962000000000e+01 0.0 
0.0 -1.962000000000e+01 0.0 
0.0 -1.962000000000e+01 0.0 
0.0 -1.962000000000e+01 0.0 
0.0 -1.962000000000e+01 0.0 
0.0 -1.962000000000e+01 0.0 
0.0 -1.962000000000e+01 0.0 
0.0 -1.962000000000e+01 0.0 
0.0 -1.962000000000e+01 0.0 
0.0 -1.962000000000e+01 0.0 
0.0 -1.962000000000e+01 0.0 
0.0 -1.962000000000e+01 0.0 
0.0 -1.962000000000e+01 0.0 
0.0 -1.962000000000e+01 0.0 
0.0 -1.962000000000e+01 0.0 
0.0 -1.962000000000e+01 0.0 
0.0 -1.962000000000e+01 0.0 
0.0 -1.962000000000e+01 0.0 
0.0 -1.962000000000e+01 0.0 
0.0 -1.962000000000e+01 0.0 
0.0 -1.962000000000e+01 0.0 
0.0 -1.962000000000e+01 0.0 
0.0 -1.962000000000e+01 0.0 
0.0 -1.962000000000e+01 0.0 
0.0 -1.962000000000e+01 0.0 
0.0 -1.962000000000e+01 0.0 
0.0 -1.962000000000e+01 0.0 
0.0 -1.962000000000e+01 0.0 
0.0 -1.962000000000e+01 0.0 
0.0 -1.962000000000e+01 0.0 
0.0 -1.962000000000e+01 0.0 
0.0 -1.962000000000e+01 0.0 
0.0 -1.962000000000e+01 0.0 
0.0 -1.962000000000e+01 0.0 
0.0 -1.962000000000e+01 0.0 
0.0 -1.962000000000e+01 0.0 
0.0 -1.962000000000e+01 0.0 
0.0 -1.962000000000e+01 0.0 
0.0 -1.962000000000e+01 0.0 
0.0 -1.962000000000e+01 0.0 
0.0 -1.962000000000e+01 0.0 
0.0 -1.962000000000e+01 0.0 
0.0 -1.962000000000e+01 0.0 
0.0 -1.962000000000e+01 0.0 
0.0 -1.962000000000e+01 0.0 
0.0 -1.962000000000e+01 0.0 
0.0 -1.962000000000e+01 0.0 
0.0 -1.962000000000e+01 0.0 
0.0 -1.962000000000e+01 0.0 
0.0 -1.962000000000e+01 0.0 
0.0 -1.962000000000e+01 0.0 
0.0 -1.962000000000e+01 0.0 
0.0 -1.962000000000e+01 0.0 
0.0 -1.962000000000e+01 0.0 
0.0 -1.962000000000e+01 0.0 
0.0 -1.962000000000e+01 0.0 
0.0 -1.962000000000e+01 0.0 
0.0 -1.962000000000e+01 0.0 
0.0 -1.962000000000e+01 0.0 
0.0 -1.962000000000e+01 0.0 
0.0 -1.962000000000e+01 0.0 
0.0 -1.962000000000e+01 0.0 
0.0 -1.962000000000e+01 0.0 
0.0 -1.962000000000e+01 0.0 
0.0 -1.962000000000e+01 0.0 
0.0 -1.962000000000e+01 0.0 
0.0 -1.962000000000e+01 0.0 
0.0 -1.962000000000e+01 0.0 
0.0 -1.962000000000e+01 0.0 
0.0 -1.962000000000e+01 0.0 
0.0 -1.962000000000e+01 0.0 
0.0 -1.962000000000e+01 0.0 
0.0 -1.962000000000e+01 0.0 
0.0 -1.962000000000e+01 0.0 
0.0 -1.962000000000e+01 0.0 
0.0 -1.962000000000e+01 0.0 
0.0 -1.962000000000e+01 0.0 
0.0 -1.962000000000e+01 0.0 
0.0 -1.962000000000e+01 0.0 
0.0 -1.962000000000e+01 0.0 
0.0 -1.962000000000e+01 0.0 
0.0 -1.962000000000e+01 0.0 
0.0 -1.962000000000e+01 0.0 
0.0 -1.962000000000e+01 0.0 
0.0 -1.962000000000e+01 0.0 
0.0 -1.962000000000e+01 0.0 
0.0 -1.962000000000e+01 0.0 
0.0 -1.962000000000e+01 0.0 
0.0 -1.962000000000e+01 0.0 
0.0 -1.962000000000e+01 0.0 
0.0 -1.962000000000e+01 0.0 

VECTORS node_rhside_materi_fixed float
-3.876776696436e+00 0.0 0.0 
5.835370534292e+01 0.0 0.0 
-1.924645712942e+02 -1.904410952714e+02 0.0 
9.004088302815e+01 -1.076491316361e+02 0.0 
-1.908953094687e+01 0.0 0.0 
-3.999035684144e+01 0.0 0.0 
-5.822833357540e+01 0.0 0.0 
-7.880134384447e+01 0.0 0.0 
-9.825565483167e+01 0.0 0.0 
-1.172472660927e+02 0.0 0.0 
-1.367032053333e+02 0.0 0.0 
-1.548809969866e+02 0.0 0.0 
-1.726113255795e+02 0.0 0.0 
-1.861976371381e+02 0.0 0.0 
-1.967406866959e+02 0.0 0.0 
-2.148082422618e+02 0.0 0.0 
-2.370333022800e+02 0.0 0.0 
-2.575041764658e+02 0.0 0.0 
-2.780398086283e+02 0.0 0.0 
-2.984587309905e+02 0.0 0.0 
-3.196581242341e+02 0.0 0.0 
-3.407896893355e+02 0.0 0.0 
-3.574487787885e+02 0.0 0.0 
-2.323185070602e+00 -2.080115740090e+02 0.0 
-1.456432857059e+01 -2.146306820706e+02 0.0 
2.003605284399e+01 -2.141047903417e+02 0.0 
-1.617966400316e+01 -2.022161159359e+02 0.0 
3.055854382329e+00 -2.190897151625e+02 0.0 
5.244878810910e+00 -2.089375015238e+02 0.0 
5.375667047809e+00 -2.252023021774e+02 0.0 
2.631286950506e-01 -2.266854743383e+02 0.0 
2.105507320395e+01 -2.349836169338e+02 0.0 
-4.563087955953e+00 -2.309336211106e+02 0.0 
8.148493147191e+00 -2.529156217007e+02 0.0 
6.360487657181e+00 -2.553734853766e+02 0.0 
9.945247736408e+00 -2.767190655226e+02 0.0 
4.091306884584e-01 -2.826044987664e+02 0.0 
9.030416497033e+00 -2.957587364660e+02 0.0 
1.805183171841e+00 -3.061310757385e+02 0.0 
7.298137221552e+00 -3.118650974647e+02 0.0 
8.404848665604e+00 -3.243439416103e+02 0.0 
5.041396609844e+00 -3.331064322593e+02 0.0 
5.105327694057e+00 -3.395431164644e+02 0.0 
5.081451311816e+00 -3.463848413547e+02 0.0 
3.989669158720e+00 -3.539566952303e+02 0.0 
3.850158705050e+00 -3.599739692976e+02 0.0 
2.446228379230e+00 -3.636694049954e+02 0.0 
2.134051553181e+00 -3.668694360341e+02 0.0 
1.137604673225e+00 -3.699028172226e+02 0.0 
-1.050898228937e-01 -3.729258178790e+02 0.0 
2.437804233235e-01 -3.699429964388e+02 0.0 
-1.141296551195e-01 -3.691344657557e+02 0.0 
-6.483967572091e+00 -3.672790383282e+02 0.0 
6.107824923664e+00 -3.668805179930e+02 0.0 
8.722549066217e+00 -3.650159307028e+02 0.0 
-1.133903927927e+00 -3.670095763205e+02 0.0 
-5.688613817066e-01 -3.620648500643e+02 0.0 
2.153731213233e+00 -3.652308825738e+02 0.0 
-4.494678698317e+00 -3.727646634089e+02 0.0 
3.738527914269e+00 -3.670058060080e+02 0.0 
-1.501519101823e-01 -3.761034288036e+02 0.0 
2.251033022174e+00 -3.737936901538e+02 0.0 
2.245889785679e-01 -3.764370475802e+02 0.0 
-4.678954399520e+00 -3.805988680411e+02 0.0 
-1.418424026849e+00 -3.782800524167e+02 0.0 
-1.210098140974e+00 -3.797657444090e+02 0.0 
1.809710312117e-01 -3.830331907177e+02 0.0 
3.771484111116e+00 -3.800573493943e+02 0.0 
2.089353225011e+00 -3.810240227454e+02 0.0 
-5.046112009220e+00 -3.847774955244e+02 0.0 
2.163248178491e+00 -3.820470927199e+02 0.0 
-1.788814576582e+00 -3.833304208167e+02 0.0 
1.175043854415e+02 0.0 0.0 
1.299387443378e+02 0.0 0.0 
1.395093745471e+02 0.0 0.0 
1.459650223342e+02 0.0 0.0 
1.511634997878e+02 0.0 0.0 
1.551931696153e+02 0.0 0.0 
1.606411016735e+02 0.0 0.0 
1.714189374428e+02 0.0 0.0 
2.040687474579e+02 0.0 0.0 
0.0 0.0 0.0 
0.0 0.0 0.0 
0.0 0.0 0.0 
0.0 0.0 0.0 
0.0 0.0 0.0 
0.0 0.0 0.0 
0.0 0.0 0.0 
0.0 0.0 0.0 
0.0 0.0 0.0 
0.0 0.0 0.0 
0.0 0.0 0.0 
0.0 0.0 0.0 
0.0 0.0 0.0 
0.0 0.0 0.0 
0.0 0.0 0.0 
0.0 0.0 0.0 
0.0 0.0 0.0 
0.0 0.0 0.0 
0.0 0.0 0.0 
0.0 0.0 0.0 
0.0 0.0 0.0 
0.0 0.0 0.0 
0.0 0.0 0.0 
0.0 0.0 0.0 
0.0 0.0 0.0 
0.0 0.0 0.0 
0.0 0.0 0.0 
0.0 0.0 0.0 
0.0 0.0 0.0 
0.0 0.0 0.0 
0.0 0.0 0.0 
0.0 0.0 0.0 
0.0 0.0 0.0 
0.0 0.0 0.0 
0.0 0.0 0.0 
0.0 0.0 0.0 
0.0 0.0 0.0 
0.0 0.0 0.0 
0.0 0.0 0.0 
0.0 0.0 0.0 
0.0 0.0 0.0 
0.0 0.0 0.0 
0.0 0.0 0.0 
0.0 0.0 0.0 
0.0 0.0 0.0 
0.0 0.0 0.0 
0.0 0.0 0.0 
0.0 0.0 0.0 
0.0 0.0 0.0 
0.0 0.0 0.0 
0.0 0.0 0.0 
0.0 0.0 0.0 
0.0 0.0 0.0 
0.0 0.0 0.0 
0.0 0.0 0.0 
0.0 0.0 0.0 
0.0 0.0 0.0 
0.0 0.0 0.0 
0.0 0.0 0.0 
0.0 0.0 0.0 
0.0 0.0 0.0 
0.0 0.0 0.0 
0.0 0.0 0.0 
0.0 0.0 0.0 
0.0 0.0 0.0 
0.0 0.0 0.0 
0.0 0.0 0.0 
0.0 0.0 0.0 
0.0 0.0 0.0 
0.0 0.0 0.0 
0.0 0.0 0.0 
0.0 0.0 0.0 
0.0 0.0 0.0 
0.0 0.0 0.0 
0.0 0.0 0.0 
0.0 0.0 0.0 
0.0 0.0 0.0 
0.0 0.0 0.0 
0.0 0.0 0.0 
0.0 0.0 0.0 
0.0 0.0 0.0 
0.0 0.0 0.0 
0.0 0.0 0.0 
0.0 0.0 0.0 
0.0 0.0 0.0 
0.0 0.0 0.0 
0.0 0.0 0.0 
0.0 0.0 0.0 
0.0 0.0 0.0 
0.0 0.0 0.0 
0.0 0.0 0.0 
0.0 0.0 0.0 
0.0 0.0 0.0 
0.0 0.0 0.0 
0.0 0.0 0.0 
0.0 0.0 0.0 
0.0 0.0 0.0 
0.0 0.0 0.0 
0.0 0.0 0.0 
0.0 0.0 0.0 
0.0 0.0 0.0 
0.0 0.0 0.0 
0.0 0.0 0.0 
0.0 0.0 0.0 
0.0 0.0 0.0 
0.0 0.0 0.0 
0.0 0.0 0.0 
0.0 0.0 0.0 
0.0 0.0 0.0 
0.0 0.0 0.0 
0.0 0.0 0.0 
0.0 0.0 0.0 
0.0 0.0 0.0 
0.0 0.0 0.0 
0.0 0.0 0.0 
0.0 0.0 0.0 
0.0 0.0 0.0 
0.0 0.0 0.0 
0.0 0.0 0.0 
0.0 0.0 0.0 
0.0 0.0 0.0 
0.0 0.0 0.0 
0.0 0.0 0.0 
0.0 0.0 0.0 
0.0 0.0 0.0 
0.0 0.0 0.0 
0.0 0.0 0.0 
0.0 0.0 0.0 
0.0 0.0 0.0 
0.0 0.0 0.0 
0.0 0.0 0.0 
0.0 0.0 0.0 
0.0 0.0 0.0 
0.0 0.0 0.0 
0.0 0.0 0.0 
0.0 0.0 0.0 
0.0 0.0 0.0 
0.0 0.0 0.0 
0.0 0.0 0.0 
0.0 0.0 0.0 
0.0 0.0 0.0 
0.0 0.0 0.0 
0.0 0.0 0.0 
0.0 0.0 0.0 
0.0 0.0 0.0 
0.0 0.0 0.0 
0.0 0.0 0.0 
0.0 0.0 0.0 
0.0 0.0 0.0 
0.0 0.0 0.0 
0.0 0.0 0.0 
0.0 0.0 0.0 
0.0 0.0 0.0 
0.0 0.0 0.0 
0.0 0.0 0.0 
0.0 0.0 0.0 
0.0 0.0 0.0 
0.0 0.0 0.0 
0.0 0.0 0.0 
0.0 0.0 0.0 
0.0 0.0 0.0 
0.0 0.0 0.0 
0.0 0.0 0.0 
0.0 0.0 0.0 
0.0 0.0 0.0 
0.0 0.0 0.0 
0.0 0.0 0.0 
0.0 0.0 0.0 
0.0 0.0 0.0 
0.0 0.0 0.0 
0.0 0.0 0.0 
0.0 0.0 0.0 
0.0 0.0 0.0 
0.0 0.0 0.0 
0.0 0.0 0.0 
0.0 0.0 0.0 
0.0 0.0 0.0 
0.0 0.0 0.0 
0.0 0.0 0.0 
0.0 0.0 0.0 
0.0 0.0 0.0 
0.0 0.0 0.0 
0.0 0.0 0.0 
0.0 0.0 0.0 
0.0 0.0 0.0 
0.0 0.0 0.0 
0.0 0.0 0.0 
0.0 0.0 0.0 
0.0 0.0 0.0 
0.0 0.0 0.0 
0.0 0.0 0.0 
0.0 0.0 0.0 
0.0 0.0 0.0 
0.0 0.0 0.0 
0.0 0.0 0.0 
0.0 0.0 0.0 
0.0 0.0 0.0 
0.0 0.0 0.0 
0.0 0.0 0.0 
0.0 0.0 0.0 
0.0 0.0 0.0 
0.0 0.0 0.0 
0.0 0.0 0.0 
0.0 0.0 0.0 
0.0 0.0 0.0 
0.0 0.0 0.0 
0.0 0.0 0.0 
0.0 0.0 0.0 
0.0 0.0 0.0 
0.0 0.0 0.0 
0.0 0.0 0.0 
0.0 0.0 0.0 
0.0 0.0 0.0 
0.0 0.0 0.0 
0.0 0.0 0.0 
0.0 0.0 0.0 
0.0 0.0 0.0 
0.0 0.0 0.0 
0.0 0.0 0.0 
0.0 0.0 0.0 
0.0 0.0 0.0 
0.0 0.0 0.0 
0.0 0.0 0.0 
0.0 0.0 0.0 
0.0 0.0 0.0 
0.0 0.0 0.0 
0.0 0.0 0.0 
0.0 0.0 0.0 
0.0 0.0 0.0 
0.0 0.0 0.0 
0.0 0.0 0.0 
0.0 0.0 0.0 
0.0 0.0 0.0 
0.0 0.0 0.0 
0.0 0.0 0.0 
0.0 0.0 0.0 
0.0 0.0 0.0 
0.0 0.0 0.0 
0.0 0.0 0.0 
0.0 0.0 0.0 
0.0 0.0 0.0 
0.0 0.0 0.0 
0.0 0.0 0.0 
0.0 0.0 0.0 
0.0 0.0 0.0 
0.0 0.0 0.0 
0.0 0.0 0.0 
0.0 0.0 0.0 
0.0 0.0 0.0 
0.0 0.0 0.0 
0.0 0.0 0.0 
0.0 0.0 0.0 
0.0 0.0 0.0 
0.0 0.0 0.0 
0.0 0.0 0.0 
0.0 0.0 0.0 
0.0 0.0 0.0 
0.0 0.0 0.0 
0.0 0.0 0.0 
0.0 0.0 0.0 
0.0 0.0 0.0 
0.0 0.0 0.0 
0.0 0.0 0.0 
0.0 0.0 0.0 
0.0 0.0 0.0 
0.0 0.0 0.0 
0.0 0.0 0.0 
0.0 0.0 0.0 
0.0 0.0 0.0 
0.0 0.0 0.0 
0.0 0.0 0.0 
0.0 0.0 0.0 
0.0 0.0 0.0 
0.0 0.0 0.0 
0.0 0.0 0.0 
0.0 0.0 0.0 
0.0 0.0 0.0 
0.0 0.0 0.0 
0.0 0.0 0.0 
0.0 0.0 0.0 
0.0 0.0 0.0 
0.0 0.0 0.0 
0.0 0.0 0.0 
0.0 0.0 0.0 
0.0 0.0 0.0 
0.0 0.0 0.0 
0.0 0.0 0.0 
0.0 0.0 0.0 
0.0 0.0 0.0 
0.0 0.0 0.0 
0.0 0.0 0.0 
0.0 0.0 0.0 
0.0 0.0 0.0 
0.0 0.0 0.0 
0.0 0.0 0.0 
0.0 0.0 0.0 
0.0 0.0 0.0 
0.0 0.0 0.0 
0.0 0.0 0.0 
0.0 0.0 0.0 
0.0 0.0 0.0 
0.0 0.0 0.0 
0.0 0.0 0.0 
0.0 0.0 0.0 
0.0 0.0 0.0 
0.0 0.0 0.0 
0.0 0.0 0.0 
0.0 0.0 0.0 
0.0 0.0 0.0 
0.0 0.0 0.0 
0.0 0.0 0.0 
0.0 0.0 0.0 
0.0 0.0 0.0 
0.0 0.0 0.0 
0.0 0.0 0.0 
0.0 0.0 0.0 
0.0 0.0 0.0 
0.0 0.0 0.0 
0.0 0.0 0.0 
0.0 0.0 0.0 
0.0 0.0 0.0 
0.0 0.0 0.0 
0.0 0.0 0.0 
0.0 0.0 0.0 
0.0 0.0 0.0 
0.0 0.0 0.0 
0.0 0.0 0.0 
0.0 0.0 0.0 
0.0 0.0 0.0 
0.0 0.0 0.0 
0.0 0.0 0.0 
0.0 0.0 0.0 
0.0 0.0 0.0 
0.0 0.0 0.0 
0.0 0.0 0.0 
0.0 0.0 0.0 
0.0 0.0 0.0 
0.0 0.0 0.0 
0.0 0.0 0.0 
0.0 0.0 0.0 
0.0 0.0 0.0 
0.0 0.0 0.0 
0.0 0.0 0.0 
0.0 0.0 0.0 
0.0 0.0 0.0 
0.0 0.0 0.0 
0.0 0.0 0.0 
0.0 0.0 0.0 
0.0 0.0 0.0 
0.0 0.0 0.0 
0.0 0.0 0.0 
0.0 0.0 0.0 
0.0 0.0 0.0 
0.0 0.0 0.0 
0.0 0.0 0.0 
0.0 0.0 0.0 
0.0 0.0 0.0 
0.0 0.0 0.0 
0.0 0.0 0.0 
0.0 0.0 0.0 
0.0 0.0 0.0 
0.0 0.0 0.0 
0.0 0.0 0.0 
0.0 0.0 0.0 
0.0 0.0 0.0 
0.0 0.0 0.0 
0.0 0.0 0.0 
0.0 0.0 0.0 
0.0 0.0 0.0 
0.0 0.0 0.0 
0.0 0.0 0.0 
0.0 0.0 0.0 
0.0 0.0 0.0 
0.0 0.0 0.0 
0.0 0.0 0.0 
0.0 0.0 0.0 
0.0 0.0 0.0 
0.0 0.0 0.0 
0.0 0.0 0.0 
0.0 0.0 0.0 
0.0 0.0 0.0 
0.0 0.0 0.0 
0.0 0.0 0.0 
0.0 0.0 0.0 
0.0 0.0 0.0 
0.0 0.0 0.0 
0.0 0.0 0.0 
0.0 0.0 0.0 
0.0 0.0 0.0 
0.0 0.0 0.0 
0.0 0.0 0.0 
0.0 0.0 0.0 
0.0 0.0 0.0 
0.0 0.0 0.0 
0.0 0.0 0.0 
0.0 0.0 0.0 
0.0 0.0 0.0 
0.0 0.0 0.0 
0.0 0.0 0.0 
0.0 0.0 0.0 
0.0 0.0 0.0 
0.0 0.0 0.0 
0.0 0.0 0.0 
0.0 0.0 0.0 
0.0 0.0 0.0 
0.0 0.0 0.0 
0.0 0.0 0.0 
0.0 0.0 0.0 
0.0 0.0 0.0 
0.0 0.0 0.0 
0.0 0.0 0.0 
0.0 0.0 0.0 
0.0 0.0 0.0 
0.0 0.0 0.0 
0.0 0.0 0.0 
0.0 0.0 0.0 
0.0 0.0 0.0 
0.0 0.0 0.0 
0.0 0.0 0.0 
0.0 0.0 0.0 
0.0 0.0 0.0 
0.0 0.0 0.0 
0.0 0.0 0.0 
0.0 0.0 0.0 
0.0 0.0 0.0 
0.0 0.0 0.0 
0.0 0.0 0.0 
0.0 0.0 0.0 
0.0 0.0 0.0 
0.0 0.0 0.0 
0.0 0.0 0.0 
0.0 0.0 0.0 
0.0 0.0 0.0 
0.0 0.0 0.0 
0.0 0.0 0.0 
0.0 0.0 0.0 
0.0 0.0 0.0 
0.0 0.0 0.0 
0.0 0.0 0.0 
0.0 0.0 0.0 
0.0 0.0 0.0 
0.0 0.0 0.0 
0.0 0.0 0.0 
0.0 0.0 0.0 
0.0 0.0 0.0 
0.0 0.0 0.0 
0.0 0.0 0.0 
0.0 0.0 0.0 
0.0 0.0 0.0 
0.0 0.0 0.0 
0.0 0.0 0.0 
0.0 0.0 0.0 
0.0 0.0 0.0 
0.0 0.0 0.0 
0.0 0.0 0.0 
0.0 0.0 0.0 
0.0 0.0 0.0 
0.0 0.0 0.0 
0.0 0.0 0.0 
0.0 0.0 0.0 
0.0 0.0 0.0 
0.0 0.0 0.0 
0.0 0.0 0.0 
0.0 0.0 0.0 
0.0 0.0 0.0 
0.0 0.0 0.0 
0.0 0.0 0.0 
0.0 0.0 0.0 
0.0 0.0 0.0 
0.0 0.0 0.0 
0.0 0.0 0.0 
0.0 0.0 0.0 
0.0 0.0 0.0 
0.0 0.0 0.0 
0.0 0.0 0.0 
0.0 0.0 0.0 
0.0 0.0 0.0 
0.0 0.0 0.0 
0.0 0.0 0.0 
0.0 0.0 0.0 
0.0 0.0 0.0 
0.0 0.0 0.0 
0.0 0.0 0.0 
0.0 0.0 0.0 
0.0 0.0 0.0 
0.0 0.0 0.0 
0.0 0.0 0.0 
0.0 0.0 0.0 
0.0 0.0 0.0 
0.0 0.0 0.0 
0.0 0.0 0.0 
0.0 0.0 0.0 
0.0 0.0 0.0 
0.0 0.0 0.0 
0.0 0.0 0.0 
0.0 0.0 0.0 
0.0 0.0 0.0 
0.0 0.0 0.0 
0.0 0.0 0.0 
0.0 0.0 0.0 
0.0 0.0 0.0 
0.0 0.0 0.0 
0.0 0.0 0.0 
0.0 0.0 0.0 
0.0 0.0 0.0 
0.0 0.0 0.0 
0.0 0.0 0.0 
0.0 0.0 0.0 
0.0 0.0 0.0 
0.0 0.0 0.0 
0.0 0.0 0.0 
0.0 0.0 0.0 
0.0 0.0 0.0 
0.0 0.0 0.0 
0.0 0.0 0.0 
0.0 0.0 0.0 
0.0 0.0 0.0 
0.0 0.0 0.0 
0.0 0.0 0.0 
0.0 0.0 0.0 
0.0 0.0 0.0 
0.0 0.0 0.0 
0.0 0.0 0.0 
0.0 0.0 0.0 
0.0 0.0 0.0 
0.0 0.0 0.0 
0.0 0.0 0.0 
0.0 0.0 0.0 
0.0 0.0 0.0 
0.0 0.0 0.0 
0.0 0.0 0.0 
0.0 0.0 0.0 
0.0 0.0 0.0 
0.0 0.0 0.0 
0.0 0.0 0.0 
0.0 0.0 0.0 
0.0 0.0 0.0 
0.0 0.0 0.0 
0.0 0.0 0.0 
0.0 0.0 0.0 
0.0 0.0 0.0 
0.0 0.0 0.0 
0.0 0.0 0.0 
0.0 0.0 0.0 
0.0 0.0 0.0 
0.0 0.0 0.0 
0.0 0.0 0.0 
0.0 0.0 0.0 
0.0 0.0 0.0 
0.0 0.0 0.0 
0.0 0.0 0.0 
0.0 0.0 0.0 
0.0 0.0 0.0 
0.0 0.0 0.0 
0.0 0.0 0.0 
0.0 0.0 0.0 
0.0 0.0 0.0 
0.0 0.0 0.0 
0.0 0.0 0.0 
0.0 0.0 0.0 
0.0 0.0 0.0 
0.0 0.0 0.0 
0.0 0.0 0.0 
0.0 0.0 0.0 
0.0 0.0 0.0 
0.0 0.0 0.0 
0.0 0.0 0.0 
0.0 0.0 0.0 
0.0 0.0 0.0 
0.0 0.0 0.0 
0.0 0.0 0.0 
0.0 0.0 0.0 
0.0 0.0 0.0 
0.0 0.0 0.0 
0.0 0.0 0.0 
0.0 0.0 0.0 
0.0 0.0 0.0 
0.0 0.0 0.0 
0.0 0.0 0.0 
0.0 0.0 0.0 
0.0 0.0 0.0 
0.0 0.0 0.0 
0.0 0.0 0.0 
0.0 0.0 0.0 
0.0 0.0 0.0 
0.0 0.0 0.0 
0.0 0.0 0.0 
0.0 0.0 0.0 
0.0 0.0 0.0 
0.0 0.0 0.0 
0.0 0.0 0.0 
0.0 0.0 0.0 
0.0 0.0 0.0 
0.0 0.0 0.0 
0.0 0.0 0.0 
0.0 0.0 0.0 
0.0 0.0 0.0 
0.0 0.0 0.0 
0.0 0.0 0.0 
0.0 0.0 0.0 
0.0 0.0 0.0 
0.0 0.0 0.0 
0.0 0.0 0.0 
0.0 0.0 0.0 
0.0 0.0 0.0 
0.0 0.0 0.0 
0.0 0.0 0.0 
0.0 0.0 0.0 
0.0 0.0 0.0 
0.0 0.0 0.0 
0.0 0.0 0.0 
0.0 0.0 0.0 
0.0 0.0 0.0 
0.0 0.0 0.0 
0.0 0.0 0.0 
0.0 0.0 0.0 
0.0 0.0 0.0 
0.0 0.0 0.0 
0.0 0.0 0.0 
0.0 0.0 0.0 
0.0 0.0 0.0 
0.0 0.0 0.0 
0.0 0.0 0.0 
0.0 0.0 0.0 
0.0 0.0 0.0 
0.0 0.0 0.0 
0.0 0.0 0.0 
0.0 0.0 0.0 
0.0 0.0 0.0 
0.0 0.0 0.0 
0.0 0.0 0.0 
0.0 0.0 0.0 
0.0 0.0 0.0 
0.0 0.0 0.0 
0.0 0.0 0.0 
0.0 0.0 0.0 
0.0 0.0 0.0 
0.0 0.0 0.0 
0.0 0.0 0.0 
0.0 0.0 0.0 
0.0 0.0 0.0 
0.0 0.0 0.0 
0.0 0.0 0.0 
0.0 0.0 0.0 
0.0 0.0 0.0 
0.0 0.0 0.0 
0.0 0.0 0.0 
0.0 0.0 0.0 
0.0 0.0 0.0 
0.0 0.0 0.0 
0.0 0.0 0.0 
0.0 0.0 0.0 
0.0 0.0 0.0 
0.0 0.0 0.0 
0.0 0.0 0.0 
0.0 0.0 0.0 
0.0 0.0 0.0 
0.0 0.0 0.0 
0.0 0.0 0.0 
0.0 0.0 0.0 
0.0 0.0 0.0 
0.0 0.0 0.0 
0.0 0.0 0.0 
0.0 0.0 0.0 
0.0 0.0 0.0 
0.0 0.0 0.0 
0.0 0.0 0.0 
0.0 0.0 0.0 
0.0 0.0 0.0 
0.0 0.0 0.0 
0.0 0.0 0.0 
0.0 0.0 0.0 
0.0 0.0 0.0 
0.0 0.0 0.0 
0.0 0.0 0.0 
0.0 0.0 0.0 
0.0 0.0 0.0 
0.0 0.0 0.0 
0.0 0.0 0.0 
0.0 0.0 0.0 
0.0 0.0 0.0 
0.0 0.0 0.0 
0.0 0.0 0.0 
0.0 0.0 0.0 
0.0 0.0 0.0 
0.0 0.0 0.0 
0.0 0.0 0.0 
0.0 0.0 0.0 
0.0 0.0 0.0 
0.0 0.0 0.0 
0.0 0.0 0.0 
0.0 0.0 0.0 
0.0 0.0 0.0 
0.0 0.0 0.0 
0.0 0.0 0.0 
0.0 0.0 0.0 
0.0 0.0 0.0 
0.0 0.0 0.0 
0.0 0.0 0.0 
0.0 0.0 0.0 
0.0 0.0 0.0 
0.0 0.0 0.0 
0.0 0.0 0.0 
0.0 0.0 0.0 
0.0 0.0 0.0 
0.0 0.0 0.0 
0.0 0.0 0.0 
0.0 0.0 0.0 
0.0 0.0 0.0 
0.0 0.0 0.0 
0.0 0.0 0.0 
0.0 0.0 0.0 
0.0 0.0 0.0 
0.0 0.0 0.0 
0.0 0.0 0.0 
0.0 0.0 0.0 
0.0 0.0 0.0 
0.0 0.0 0.0 
0.0 0.0 0.0 
0.0 0.0 0.0 
0.0 0.0 0.0 
0.0 0.0 0.0 
0.0 0.0 0.0 
0.0 0.0 0.0 
0.0 0.0 0.0 
0.0 0.0 0.0 
0.0 0.0 0.0 
0.0 0.0 0.0 
0.0 0.0 0.0 
0.0 0.0 0.0 
0.0 0.0 0.0 
0.0 0.0 0.0 
0.0 0.0 0.0 
0.0 0.0 0.0 
0.0 0.0 0.0 
0.0 0.0 0.0 
0.0 0.0 0.0 
0.0 0.0 0.0 
0.0 0.0 0.0 
0.0 0.0 0.0 
0.0 0.0 0.0 
0.0 0.0 0.0 
0.0 0.0 0.0 
0.0 0.0 0.0 
0.0 0.0 0.0 
0.0 0.0 0.0 
0.0 0.0 0.0 
0.0 0.0 0.0 
0.0 0.0 0.0 
0.0 0.0 0.0 
0.0 0.0 0.0 
0.0 0.0 0.0 
0.0 0.0 0.0 
0.0 0.0 0.0 
0.0 0.0 0.0 
0.0 0.0 0.0 
0.0 0.0 0.0 
0.0 0.0 0.0 
0.0 0.0 0.0 
0.0 0.0 0.0 
0.0 0.0 0.0 
0.0 0.0 0.0 
0.0 0.0 0.0 
0.0 0.0 0.0 
0.0 0.0 0.0 
0.0 0.0 0.0 
0.0 0.0 0.0 
0.0 0.0 0.0 
0.0 0.0 0.0 
0.0 0.0 0.0 
0.0 0.0 0.0 
0.0 0.0 0.0 
0.0 0.0 0.0 
0.0 0.0 0.0 
0.0 0.0 0.0 
0.0 0.0 0.0 
0.0 0.0 0.0 
0.0 0.0 0.0 
0.0 0.0 0.0 
0.0 0.0 0.0 
0.0 0.0 0.0 
0.0 0.0 0.0 
0.0 0.0 0.0 
0.0 0.0 0.0 
0.0 0.0 0.0 
0.0 0.0 0.0 
0.0 0.0 0.0 
0.0 0.0 0.0 
0.0 0.0 0.0 
0.0 0.0 0.0 
0.0 0.0 0.0 
0.0 0.0 0.0 
0.0 0.0 0.0 
0.0 0.0 0.0 
0.0 0.0 0.0 
0.0 0.0 0.0 
0.0 0.0 0.0 
0.0 0.0 0.0 
0.0 0.0 0.0 
0.0 0.0 0.0 
0.0 0.0 0.0 
0.0 0.0 0.0 
0.0 0.0 0.0 
0.0 0.0 0.0 
0.0 0.0 0.0 
0.0 0.0 0.0 
0.0 0.0 0.0 
0.0 0.0 0.0 
0.0 0.0 0.0 
0.0 0.0 0.0 
0.0 0.0 0.0 
0.0 0.0 0.0 
0.0 0.0 0.0 
0.0 0.0 0.0 
0.0 0.0 0.0 
0.0 0.0 0.0 
0.0 0.0 0.0 
0.0 0.0 0.0 
0.0 0.0 0.0 
0.0 0.0 0.0 
0.0 0.0 0.0 
0.0 0.0 0.0 
0.0 0.0 0.0 
0.0 0.0 0.0 
0.0 0.0 0.0 
0.0 0.0 0.0 
0.0 0.0 0.0 
0.0 0.0 0.0 
0.0 0.0 0.0 
0.0 0.0 0.0 
0.0 0.0 0.0 
0.0 0.0 0.0 
0.0 0.0 0.0 
0.0 0.0 0.0 
0.0 0.0 0.0 
0.0 0.0 0.0 
0.0 0.0 0.0 
0.0 0.0 0.0 
0.0 0.0 0.0 
0.0 0.0 0.0 
0.0 0.0 0.0 
0.0 0.0 0.0 
0.0 0.0 0.0 
0.0 0.0 0.0 
0.0 0.0 0.0 
0.0 0.0 0.0 
0.0 0.0 0.0 
0.0 0.0 0.0 
0.0 0.0 0.0 
0.0 0.0 0.0 
0.0 0.0 0.0 
0.0 0.0 0.0 
0.0 0.0 0.0 
0.0 0.0 0.0 
0.0 0.0 0.0 
0.0 0.0 0.0 
0.0 0.0 0.0 
0.0 0.0 0.0 
0.0 0.0 0.0 
0.0 0.0 0.0 
0.0 0.0 0.0 
0.0 0.0 0.0 
0.0 0.0 0.0 
0.0 0.0 0.0 
0.0 0.0 0.0 
0.0 0.0 0.0 
0.0 0.0 0.0 
0.0 0.0 0.0 
0.0 0.0 0.0 
0.0 0.0 0.0 
0.0 0.0 0.0 
0.0 0.0 0.0 
0.0 0.0 0.0 
0.0 0.0 0.0 
0.0 0.0 0.0 
0.0 0.0 0.0 
0.0 0.0 0.0 
0.0 0.0 0.0 
0.0 0.0 0.0 
0.0 0.0 0.0 
0.0 0.0 0.0 
0.0 0.0 0.0 
0.0 0.0 0.0 
0.0 0.0 0.0 
0.0 0.0 0.0 
0.0 0.0 0.0 
0.0 0.0 0.0 
0.0 0.0 0.0 
0.0 0.0 0.0 
0.0 0.0 0.0 
0.0 0.0 0.0 
0.0 0.0 0.0 
0.0 0.0 0.0 
0.0 0.0 0.0 
0.0 0.0 0.0 
0.0 0.0 0.0 
0.0 0.0 0.0 
0.0 0.0 0.0 
0.0 0.0 0.0 
0.0 0.0 0.0 
0.0 0.0 0.0 
0.0 0.0 0.0 
0.0 0.0 0.0 
0.0 0.0 0.0 
0.0 0.0 0.0 
0.0 0.0 0.0 
0.0 0.0 0.0 
0.0 0.0 0.0 
0.0 0.0 0.0 
0.0 0.0 0.0 
0.0 0.0 0.0 
0.0 0.0 0.0 
0.0 0.0 0.0 
0.0 0.0 0.0 
0.0 0.0 0.0 
0.0 0.0 0.0 
0.0 0.0 0.0 
0.0 0.0 0.0 
0.0 0.0 0.0 
0.0 0.0 0.0 
0.0 0.0 0.0 
0.0 0.0 0.0 
0.0 0.0 0.0 
0.0 0.0 0.0 
0.0 0.0 0.0 
0.0 0.0 0.0 
0.0 0.0 0.0 
0.0 0.0 0.0 
0.0 0.0 0.0 
0.0 0.0 0.0 
0.0 0.0 0.0 
0.0 0.0 0.0 
0.0 0.0 0.0 
0.0 0.0 0.0 
0.0 0.0 0.0 
0.0 0.0 0.0 
0.0 0.0 0.0 
0.0 0.0 0.0 
0.0 0.0 0.0 
0.0 0.0 0.0 
0.0 0.0 0.0 
0.0 0.0 0.0 
0.0 0.0 0.0 
0.0 0.0 0.0 
0.0 0.0 0.0 
0.0 0.0 0.0 
0.0 0.0 0.0 

VECTORS node_materi_velocity float
0.0 0.0 0.0 
0.0 0.0 0.0 
0.0 0.0 0.0 
0.0 0.0 0.0 
0.0 0.0 0.0 
0.0 0.0 0.0 
0.0 0.0 0.0 
0.0 0.0 0.0 
0.0 0.0 0.0 
0.0 0.0 0.0 
0.0 0.0 0.0 
0.0 0.0 0.0 
0.0 0.0 0.0 
0.0 0.0 0.0 
0.0 0.0 0.0 
0.0 0.0 0.0 
0.0 0.0 0.0 
0.0 0.0 0.0 
0.0 0.0 0.0 
0.0 0.0 0.0 
0.0 0.0 0.0 
0.0 0.0 0.0 
0.0 0.0 0.0 
0.0 0.0 0.0 
0.0 0.0 0.0 
0.0 0.0 0.0 
0.0 0.0 0.0 
0.0 0.0 0.0 
0.0 0.0 0.0 
0.0 0.0 0.0 
0.0 0.0 0.0 
0.0 0.0 0.0 
0.0 0.0 0.0 
0.0 0.0 0.0 
0.0 0.0 0.0 
0.0 0.0 0.0 
0.0 0.0 0.0 
0.0 0.0 0.0 
0.0 0.0 0.0 
0.0 0.0 0.0 
0.0 0.0 0.0 
0.0 0.0 0.0 
0.0 0.0 0.0 
0.0 0.0 0.0 
0.0 0.0 0.0 
0.0 0.0 0.0 
0.0 0.0 0.0 
0.0 0.0 0.0 
0.0 0.0 0.0 
0.0 0.0 0.0 
0.0 0.0 0.0 
0.0 0.0 0.0 
0.0 0.0 0.0 
0.0 0.0 0.0 
0.0 0.0 0.0 
0.0 0.0 0.0 
0.0 0.0 0.0 
0.0 0.0 0.0 
0.0 0.0 0.0 
0.0 0.0 0.0 
0.0 0.0 0.0 
0.0 0.0 0.0 
0.0 0.0 0.0 
0.0 0.0 0.0 
0.0 0.0 0.0 
0.0 0.0 0.0 
0.0 0.0 0.0 
0.0 0.0 0.0 
0.0 0.0 0.0 
0.0 0.0 0.0 
0.0 0.0 0.0 
0.0 0.0 0.0 
0.0 0.0 0.0 
0.0 0.0 0.0 
0.0 0.0 0.0 
0.0 0.0 0.0 
0.0 0.0 0.0 
0.0 0.0 0.0 
0.0 0.0 0.0 
0.0 0.0 0.0 
0.0 0.0 0.0 
0.0 0.0 0.0 
0.0 0.0 0.0 
0.0 0.0 0.0 
0.0 0.0 0.0 
0.0 0.0 0.0 
0.0 0.0 0.0 
0.0 0.0 0.0 
0.0 0.0 0.0 
0.0 0.0 0.0 
0.0 0.0 0.0 
0.0 0.0 0.0 
0.0 0.0 0.0 
0.0 0.0 0.0 
0.0 0.0 0.0 
0.0 0.0 0.0 
0.0 0.0 0.0 
0.0 0.0 0.0 
0.0 0.0 0.0 
0.0 0.0 0.0 
0.0 0.0 0.0 
0.0 0.0 0.0 
0.0 0.0 0.0 
0.0 0.0 0.0 
0.0 0.0 0.0 
0.0 0.0 0.0 
0.0 0.0 0.0 
0.0 0.0 0.0 
0.0 0.0 0.0 
0.0 0.0 0.0 
0.0 0.0 0.0 
0.0 0.0 0.0 
0.0 0.0 0.0 
0.0 0.0 0.0 
0.0 0.0 0.0 
0.0 0.0 0.0 
0.0 0.0 0.0 
0.0 0.0 0.0 
0.0 0.0 0.0 
0.0 0.0 0.0 
0.0 0.0 0.0 
0.0 0.0 0.0 
0.0 0.0 0.0 
0.0 0.0 0.0 
0.0 0.0 0.0 
0.0 0.0 0.0 
0.0 0.0 0.0 
0.0 0.0 0.0 
0.0 0.0 0.0 
0.0 0.0 0.0 
0.0 0.0 0.0 
0.0 0.0 0.0 
0.0 0.0 0.0 
0.0 0.0 0.0 
0.0 0.0 0.0 
0.0 0.0 0.0 
0.0 0.0 0.0 
0.0 0.0 0.0 
0.0 0.0 0.0 
0.0 0.0 0.0 
0.0 0.0 0.0 
0.0 0.0 0.0 
0.0 0.0 0.0 
0.0 0.0 0.0 
0.0 0.0 0.0 
0.0 0.0 0.0 
0.0 0.0 0.0 
0.0 0.0 0.0 
0.0 0.0 0.0 
0.0 0.0 0.0 
0.0 0.0 0.0 
0.0 0.0 0.0 
0.0 0.0 0.0 
0.0 0.0 0.0 
0.0 0.0 0.0 
0.0 0.0 0.0 
0.0 0.0 0.0 
0.0 0.0 0.0 
0.0 0.0 0.0 
0.0 0.0 0.0 
0.0 0.0 0.0 
0.0 0.0 0.0 
0.0 0.0 0.0 
0.0 0.0 0.0 
0.0 0.0 0.0 
0.0 0.0 0.0 
0.0 0.0 0.0 
0.0 0.0 0.0 
0.0 0.0 0.0 
0.0 0.0 0.0 
0.0 0.0 0.0 
0.0 0.0 0.0 
0.0 0.0 0.0 
0.0 0.0 0.0 
0.0 0.0 0.0 
0.0 0.0 0.0 
0.0 0.0 0.0 
0.0 0.0 0.0 
0.0 0.0 0.0 
0.0 0.0 0.0 
0.0 0.0 0.0 
0.0 0.0 0.0 
0.0 0.0 0.0 
0.0 0.0 0.0 
0.0 0.0 0.0 
0.0 0.0 0.0 
0.0 0.0 0.0 
0.0 0.0 0.0 
0.0 0.0 0.0 
0.0 0.0 0.0 
0.0 0.0 0.0 
0.0 0.0 0.0 
0.0 0.0 0.0 
0.0 0.0 0.0 
0.0 0.0 0.0 
0.0 0.0 0.0 
0.0 0.0 0.0 
0.0 0.0 0.0 
0.0 0.0 0.0 
0.0 0.0 0.0 
0.0 0.0 0.0 
0.0 0.0 0.0 
0.0 0.0 0.0 
0.0 0.0 0.0 
0.0 0.0 0.0 
0.0 0.0 0.0 
0.0 0.0 0.0 
0.0 0.0 0.0 
0.0 0.0 0.0 
0.0 0.0 0.0 
0.0 0.0 0.0 
0.0 0.0 0.0 
0.0 0.0 0.0 
0.0 0.0 0.0 
0.0 0.0 0.0 
0.0 0.0 0.0 
0.0 0.0 0.0 
0.0 0.0 0.0 
0.0 0.0 0.0 
0.0 0.0 0.0 
0.0 0.0 0.0 
0.0 0.0 0.0 
0.0 0.0 0.0 
0.0 0.0 0.0 
0.0 0.0 0.0 
0.0 0.0 0.0 
0.0 0.0 0.0 
0.0 0.0 0.0 
0.0 0.0 0.0 
0.0 0.0 0.0 
0.0 0.0 0.0 
0.0 0.0 0.0 
0.0 0.0 0.0 
0.0 0.0 0.0 
0.0 0.0 0.0 
0.0 0.0 0.0 
0.0 0.0 0.0 
0.0 0.0 0.0 
0.0 0.0 0.0 
0.0 0.0 0.0 
0.0 0.0 0.0 
0.0 0.0 0.0 
0.0 0.0 0.0 
0.0 0.0 0.0 
0.0 0.0 0.0 
0.0 0.0 0.0 
0.0 0.0 0.0 
0.0 0.0 0.0 
0.0 0.0 0.0 
0.0 0.0 0.0 
0.0 0.0 0.0 
0.0 0.0 0.0 
0.0 0.0 0.0 
0.0 0.0 0.0 
0.0 0.0 0.0 
0.0 0.0 0.0 
0.0 0.0 0.0 
0.0 0.0 0.0 
0.0 0.0 0.0 
0.0 0.0 0.0 
0.0 0.0 0.0 
0.0 0.0 0.0 
0.0 0.0 0.0 
0.0 0.0 0.0 
0.0 0.0 0.0 
0.0 0.0 0.0 
0.0 0.0 0.0 
0.0 0.0 0.0 
0.0 0.0 0.0 
0.0 0.0 0.0 
0.0 0.0 0.0 
0.0 0.0 0.0 
0.0 0.0 0.0 
0.0 0.0 0.0 
0.0 0.0 0.0 
0.0 0.0 0.0 
0.0 0.0 0.0 
0.0 0.0 0.0 
0.0 0.0 0.0 
0.0 0.0 0.0 
0.0 0.0 0.0 
0.0 0.0 0.0 
0.0 0.0 0.0 
0.0 0.0 0.0 
0.0 0.0 0.0 
0.0 0.0 0.0 
0.0 0.0 0.0 
0.0 0.0 0.0 
0.0 0.0 0.0 
0.0 0.0 0.0 
0.0 0.0 0.0 
0.0 0.0 0.0 
0.0 0.0 0.0 
0.0 0.0 0.0 
0.0 0.0 0.0 
0.0 0.0 0.0 
0.0 0.0 0.0 
0.0 0.0 0.0 
0.0 0.0 0.0 
0.0 0.0 0.0 
0.0 0.0 0.0 
0.0 0.0 0.0 
0.0 0.0 0.0 
0.0 0.0 0.0 
0.0 0.0 0.0 
0.0 0.0 0.0 
0.0 0.0 0.0 
0.0 0.0 0.0 
0.0 0.0 0.0 
0.0 0.0 0.0 
0.0 0.0 0.0 
0.0 0.0 0.0 
0.0 0.0 0.0 
0.0 0.0 0.0 
0.0 0.0 0.0 
0.0 0.0 0.0 
0.0 0.0 0.0 
0.0 0.0 0.0 
0.0 0.0 0.0 
0.0 0.0 0.0 
0.0 0.0 0.0 
0.0 0.0 0.0 
0.0 0.0 0.0 
0.0 0.0 0.0 
0.0 0.0 0.0 
0.0 0.0 0.0 
0.0 0.0 0.0 
0.0 0.0 0.0 
0.0 0.0 0.0 
0.0 0.0 0.0 
0.0 0.0 0.0 
0.0 0.0 0.0 
0.0 0.0 0.0 
0.0 0.0 0.0 
0.0 0.0 0.0 
0.0 0.0 0.0 
0.0 0.0 0.0 
0.0 0.0 0.0 
0.0 0.0 0.0 
0.0 0.0 0.0 
0.0 0.0 0.0 
0.0 0.0 0.0 
0.0 0.0 0.0 
0.0 0.0 0.0 
0.0 0.0 0.0 
0.0 0.0 0.0 
0.0 0.0 0.0 
0.0 0.0 0.0 
0.0 0.0 0.0 
0.0 0.0 0.0 
0.0 0.0 0.0 
0.0 0.0 0.0 
0.0 0.0 0.0 
0.0 0.0 0.0 
0.0 0.0 0.0 
0.0 0.0 0.0 
0.0 0.0 0.0 
0.0 0.0 0.0 
0.0 0.0 0.0 
0.0 0.0 0.0 
0.0 0.0 0.0 
0.0 0.0 0.0 
0.0 0.0 0.0 
0.0 0.0 0.0 
0.0 0.0 0.0 
0.0 0.0 0.0 
0.0 0.0 0.0 
0.0 0.0 0.0 
0.0 0.0 0.0 
0.0 0.0 0.0 
0.0 0.0 0.0 
0.0 0.0 0.0 
0.0 0.0 0.0 
0.0 0.0 0.0 
0.0 0.0 0.0 
0.0 0.0 0.0 
0.0 0.0 0.0 
0.0 0.0 0.0 
0.0 0.0 0.0 
0.0 0.0 0.0 
0.0 0.0 0.0 
0.0 0.0 0.0 
0.0 0.0 0.0 
0.0 0.0 0.0 
0.0 0.0 0.0 
0.0 0.0 0.0 
0.0 0.0 0.0 
0.0 0.0 0.0 
0.0 0.0 0.0 
0.0 0.0 0.0 
0.0 0.0 0.0 
0.0 0.0 0.0 
0.0 0.0 0.0 
0.0 0.0 0.0 
0.0 0.0 0.0 
0.0 0.0 0.0 
0.0 0.0 0.0 
0.0 0.0 0.0 
0.0 0.0 0.0 
0.0 0.0 0.0 
0.0 0.0 0.0 
0.0 0.0 0.0 
0.0 0.0 0.0 
0.0 0.0 0.0 
0.0 0.0 0.0 
0.0 0.0 0.0 
0.0 0.0 0.0 
0.0 0.0 0.0 
0.0 0.0 0.0 
0.0 0.0 0.0 
0.0 0.0 0.0 
0.0 0.0 0.0 
0.0 0.0 0.0 
0.0 0.0 0.0 
0.0 0.0 0.0 
0.0 0.0 0.0 
0.0 0.0 0.0 
0.0 0.0 0.0 
0.0 0.0 0.0 
0.0 0.0 0.0 
0.0 0.0 0.0 
0.0 0.0 0.0 
0.0 0.0 0.0 
0.0 0.0 0.0 
0.0 0.0 0.0 
0.0 0.0 0.0 
0.0 0.0 0.0 
0.0 0.0 0.0 
0.0 0.0 0.0 
0.0 0.0 0.0 
0.0 0.0 0.0 
0.0 0.0 0.0 
0.0 0.0 0.0 
0.0 0.0 0.0 
0.0 0.0 0.0 
0.0 0.0 0.0 
0.0 0.0 0.0 
0.0 0.0 0.0 
0.0 0.0 0.0 
0.0 0.0 0.0 
0.0 0.0 0.0 
0.0 0.0 0.0 
0.0 0.0 0.0 
0.0 0.0 0.0 
0.0 0.0 0.0 
0.0 0.0 0.0 
0.0 0.0 0.0 
0.0 0.0 0.0 
0.0 0.0 0.0 
0.0 0.0 0.0 
0.0 0.0 0.0 
0.0 0.0 0.0 
0.0 0.0 0.0 
0.0 0.0 0.0 
0.0 0.0 0.0 
0.0 0.0 0.0 
0.0 0.0 0.0 
0.0 0.0 0.0 
0.0 0.0 0.0 
0.0 0.0 0.0 
0.0 0.0 0.0 
0.0 0.0 0.0 
0.0 0.0 0.0 
0.0 0.0 0.0 
0.0 0.0 0.0 
0.0 0.0 0.0 
0.0 0.0 0.0 
0.0 0.0 0.0 
0.0 0.0 0.0 
0.0 0.0 0.0 
0.0 0.0 0.0 
0.0 0.0 0.0 
0.0 0.0 0.0 
0.0 0.0 0.0 
0.0 0.0 0.0 
0.0 0.0 0.0 
0.0 0.0 0.0 
0.0 0.0 0.0 
0.0 0.0 0.0 
0.0 0.0 0.0 
0.0 0.0 0.0 
0.0 0.0 0.0 
0.0 0.0 0.0 
0.0 0.0 0.0 
0.0 0.0 0.0 
0.0 0.0 0.0 
0.0 0.0 0.0 
0.0 0.0 0.0 
0.0 0.0 0.0 
0.0 0.0 0.0 
0.0 0.0 0.0 
0.0 0.0 0.0 
0.0 0.0 0.0 
0.0 0.0 0.0 
0.0 0.0 0.0 
0.0 0.0 0.0 
0.0 0.0 0.0 
0.0 0.0 0.0 
0.0 0.0 0.0 
0.0 0.0 0.0 
0.0 0.0 0.0 
0.0 0.0 0.0 
0.0 0.0 0.0 
0.0 0.0 0.0 
0.0 0.0 0.0 
0.0 0.0 0.0 
0.0 0.0 0.0 
0.0 0.0 0.0 
0.0 0.0 0.0 
0.0 0.0 0.0 
0.0 0.0 0.0 
0.0 0.0 0.0 
0.0 0.0 0.0 
0.0 0.0 0.0 
0.0 0.0 0.0 
0.0 0.0 0.0 
0.0 0.0 0.0 
0.0 0.0 0.0 
0.0 0.0 0.0 
0.0 0.0 0.0 
0.0 0.0 0.0 
0.0 0.0 0.0 
0.0 0.0 0.0 
0.0 0.0 0.0 
0.0 0.0 0.0 
0.0 0.0 0.0 
0.0 0.0 0.0 
0.0 0.0 0.0 
0.0 0.0 0.0 
0.0 0.0 0.0 
0.0 0.0 0.0 
0.0 0.0 0.0 
0.0 0.0 0.0 
0.0 0.0 0.0 
0.0 0.0 0.0 
0.0 0.0 0.0 
0.0 0.0 0.0 
0.0 0.0 0.0 
0.0 0.0 0.0 
0.0 0.0 0.0 
0.0 0.0 0.0 
0.0 0.0 0.0 
0.0 0.0 0.0 
0.0 0.0 0.0 
0.0 0.0 0.0 
0.0 0.0 0.0 
0.0 0.0 0.0 
0.0 0.0 0.0 
0.0 0.0 0.0 
0.0 0.0 0.0 
0.0 0.0 0.0 
0.0 0.0 0.0 
0.0 0.0 0.0 
0.0 0.0 0.0 
0.0 0.0 0.0 
0.0 0.0 0.0 
0.0 0.0 0.0 
0.0 0.0 0.0 
0.0 0.0 0.0 
0.0 0.0 0.0 
0.0 0.0 0.0 
0.0 0.0 0.0 
0.0 0.0 0.0 
0.0 0.0 0.0 
0.0 0.0 0.0 
0.0 0.0 0.0 
0.0 0.0 0.0 
0.0 0.0 0.0 
0.0 0.0 0.0 
0.0 0.0 0.0 
0.0 0.0 0.0 
0.0 0.0 0.0 
0.0 0.0 0.0 
0.0 0.0 0.0 
0.0 0.0 0.0 
0.0 0.0 0.0 
0.0 0.0 0.0 
0.0 0.0 0.0 
0.0 0.0 0.0 
0.0 0.0 0.0 
0.0 0.0 0.0 
0.0 0.0 0.0 
0.0 0.0 0.0 
0.0 0.0 0.0 
0.0 0.0 0.0 
0.0 0.0 0.0 
0.0 0.0 0.0 
0.0 0.0 0.0 
0.0 0.0 0.0 
0.0 0.0 0.0 
0.0 0.0 0.0 
0.0 0.0 0.0 
0.0 0.0 0.0 
0.0 0.0 0.0 
0.0 0.0 0.0 
0.0 0.0 0.0 
0.0 0.0 0.0 
0.0 0.0 0.0 
0.0 0.0 0.0 
0.0 0.0 0.0 
0.0 0.0 0.0 
0.0 0.0 0.0 
0.0 0.0 0.0 
0.0 0.0 0.0 
0.0 0.0 0.0 
0.0 0.0 0.0 
0.0 0.0 0.0 
0.0 0.0 0.0 
0.0 0.0 0.0 
0.0 0.0 0.0 
0.0 0.0 0.0 
0.0 0.0 0.0 
0.0 0.0 0.0 
0.0 0.0 0.0 
0.0 0.0 0.0 
0.0 0.0 0.0 
0.0 0.0 0.0 
0.0 0.0 0.0 
0.0 0.0 0.0 
0.0 0.0 0.0 
0.0 0.0 0.0 
0.0 0.0 0.0 
0.0 0.0 0.0 
0.0 0.0 0.0 
0.0 0.0 0.0 
0.0 0.0 0.0 
0.0 0.0 0.0 
0.0 0.0 0.0 
0.0 0.0 0.0 
0.0 0.0 0.0 
0.0 0.0 0.0 
0.0 0.0 0.0 
0.0 0.0 0.0 
0.0 0.0 0.0 
0.0 0.0 0.0 
0.0 0.0 0.0 
0.0 0.0 0.0 
0.0 0.0 0.0 
0.0 0.0 0.0 
0.0 0.0 0.0 
0.0 0.0 0.0 
0.0 0.0 0.0 
0.0 0.0 0.0 
0.0 0.0 0.0 
0.0 0.0 0.0 
0.0 0.0 0.0 
0.0 0.0 0.0 
0.0 0.0 0.0 
0.0 0.0 0.0 
0.0 0.0 0.0 
0.0 0.0 0.0 
0.0 0.0 0.0 
0.0 0.0 0.0 
0.0 0.0 0.0 
0.0 0.0 0.0 
0.0 0.0 0.0 
0.0 0.0 0.0 
0.0 0.0 0.0 
0.0 0.0 0.0 
0.0 0.0 0.0 
0.0 0.0 0.0 
0.0 0.0 0.0 
0.0 0.0 0.0 
0.0 0.0 0.0 
0.0 0.0 0.0 
0.0 0.0 0.0 
0.0 0.0 0.0 
0.0 0.0 0.0 
0.0 0.0 0.0 
0.0 0.0 0.0 
0.0 0.0 0.0 
0.0 0.0 0.0 
0.0 0.0 0.0 
0.0 0.0 0.0 
0.0 0.0 0.0 
0.0 0.0 0.0 
0.0 0.0 0.0 
0.0 0.0 0.0 
0.0 0.0 0.0 
0.0 0.0 0.0 
0.0 0.0 0.0 
0.0 0.0 0.0 
0.0 0.0 0.0 
0.0 0.0 0.0 
0.0 0.0 0.0 
0.0 0.0 0.0 
0.0 0.0 0.0 
0.0 0.0 0.0 
0.0 0.0 0.0 
0.0 0.0 0.0 
0.0 0.0 0.0 
0.0 0.0 0.0 
0.0 0.0 0.0 
0.0 0.0 0.0 
0.0 0.0 0.0 
0.0 0.0 0.0 
0.0 0.0 0.0 
0.0 0.0 0.0 
0.0 0.0 0.0 
0.0 0.0 0.0 
0.0 0.0 0.0 
0.0 0.0 0.0 
0.0 0.0 0.0 
0.0 0.0 0.0 
0.0 0.0 0.0 
0.0 0.0 0.0 
0.0 0.0 0.0 
0.0 0.0 0.0 
0.0 0.0 0.0 
0.0 0.0 0.0 
0.0 0.0 0.0 
0.0 0.0 0.0 
0.0 0.0 0.0 
0.0 0.0 0.0 
0.0 0.0 0.0 
0.0 0.0 0.0 
0.0 0.0 0.0 
0.0 0.0 0.0 
0.0 0.0 0.0 
0.0 0.0 0.0 
0.0 0.0 0.0 
0.0 0.0 0.0 
0.0 0.0 0.0 
0.0 0.0 0.0 
0.0 0.0 0.0 
0.0 0.0 0.0 
0.0 0.0 0.0 
0.0 0.0 0.0 
0.0 0.0 0.0 
0.0 0.0 0.0 
0.0 0.0 0.0 
0.0 0.0 0.0 
0.0 0.0 0.0 
0.0 0.0 0.0 
0.0 0.0 0.0 
0.0 0.0 0.0 
0.0 0.0 0.0 
0.0 0.0 0.0 
0.0 0.0 0.0 
0.0 0.0 0.0 
0.0 0.0 0.0 
0.0 0.0 0.0 
0.0 0.0 0.0 
0.0 0.0 0.0 
0.0 0.0 0.0 
0.0 0.0 0.0 
0.0 0.0 0.0 
0.0 0.0 0.0 
0.0 0.0 0.0 
0.0 0.0 0.0 
0.0 0.0 0.0 
0.0 0.0 0.0 
0.0 0.0 0.0 
0.0 0.0 0.0 
0.0 0.0 0.0 
0.0 0.0 0.0 
0.0 0.0 0.0 
0.0 0.0 0.0 
0.0 0.0 0.0 
0.0 0.0 0.0 
0.0 0.0 0.0 
0.0 0.0 0.0 
0.0 0.0 0.0 
0.0 0.0 0.0 
0.0 0.0 0.0 
0.0 0.0 0.0 
0.0 0.0 0.0 
0.0 0.0 0.0 
0.0 0.0 0.0 
0.0 0.0 0.0 
0.0 0.0 0.0 
0.0 0.0 0.0 
0.0 0.0 0.0 
0.0 0.0 0.0 
0.0 0.0 0.0 
0.0 0.0 0.0 
0.0 0.0 0.0 
0.0 0.0 0.0 
0.0 0.0 0.0 
0.0 0.0 0.0 
0.0 0.0 0.0 
0.0 0.0 0.0 
0.0 0.0 0.0 
0.0 0.0 0.0 
0.0 0.0 0.0 
0.0 0.0 0.0 
0.0 0.0 0.0 
0.0 0.0 0.0 
0.0 0.0 0.0 
0.0 0.0 0.0 
0.0 0.0 0.0 
0.0 0.0 0.0 
0.0 0.0 0.0 
0.0 0.0 0.0 
0.0 0.0 0.0 
0.0 0.0 0.0 
0.0 0.0 0.0 
0.0 0.0 0.0 
0.0 0.0 0.0 
0.0 0.0 0.0 
0.0 0.0 0.0 
0.0 0.0 0.0 
0.0 0.0 0.0 
0.0 0.0 0.0 
0.0 0.0 0.0 
0.0 0.0 0.0 
0.0 0.0 0.0 
0.0 0.0 0.0 
0.0 0.0 0.0 
0.0 0.0 0.0 
0.0 0.0 0.0 
0.0 0.0 0.0 
0.0 0.0 0.0 
0.0 0.0 0.0 
0.0 0.0 0.0 
0.0 0.0 0.0 
0.0 0.0 0.0 
0.0 0.0 0.0 
0.0 0.0 0.0 
0.0 0.0 0.0 
0.0 0.0 0.0 
0.0 0.0 0.0 
0.0 0.0 0.0 
0.0 0.0 0.0 
0.0 0.0 0.0 
0.0 0.0 0.0 
0.0 0.0 0.0 
0.0 0.0 0.0 
0.0 0.0 0.0 
0.0 0.0 0.0 
0.0 0.0 0.0 
0.0 0.0 0.0 
0.0 0.0 0.0 
0.0 0.0 0.0 
0.0 0.0 0.0 
0.0 0.0 0.0 
0.0 0.0 0.0 
0.0 0.0 0.0 
0.0 0.0 0.0 
0.0 0.0 0.0 
0.0 0.0 0.0 
0.0 0.0 0.0 
0.0 0.0 0.0 
0.0 0.0 0.0 
0.0 0.0 0.0 
0.0 0.0 0.0 
0.0 0.0 0.0 
0.0 0.0 0.0 
0.0 0.0 0.0 
0.0 0.0 0.0 
0.0 0.0 0.0 
0.0 0.0 0.0 
0.0 0.0 0.0 
0.0 0.0 0.0 
0.0 0.0 0.0 
0.0 0.0 0.0 
0.0 0.0 0.0 
0.0 0.0 0.0 
0.0 0.0 0.0 
0.0 0.0 0.0 
0.0 0.0 0.0 
0.0 0.0 0.0 
0.0 0.0 0.0 
0.0 0.0 0.0 
0.0 0.0 0.0 
0.0 0.0 0.0 
0.0 0.0 0.0 
0.0 0.0 0.0 
0.0 0.0 0.0 
0.0 0.0 0.0 
0.0 0.0 0.0 
0.0 0.0 0.0 
0.0 0.0 0.0 
0.0 0.0 0.0 
0.0 0.0 0.0 
0.0 0.0 0.0 
0.0 0.0 0.0 
0.0 0.0 0.0 
0.0 0.0 0.0 
0.0 0.0 0.0 
0.0 0.0 0.0 
0.0 0.0 0.0 
0.0 0.0 0.0 
0.0 0.0 0.0 
0.0 0.0 0.0 
0.0 0.0 0.0 
0.0 0.0 0.0 
0.0 0.0 0.0 
0.0 0.0 0.0 
0.0 0.0 0.0 
0.0 0.0 0.0 
0.0 0.0 0.0 
0.0 0.0 0.0 
0.0 0.0 0.0 
0.0 0.0 0.0 
0.0 0.0 0.0 
0.0 0.0 0.0 
0.0 0.0 0.0 
0.0 0.0 0.0 
0.0 0.0 0.0 
0.0 0.0 0.0 
0.0 0.0 0.0 
0.0 0.0 0.0 
0.0 0.0 0.0 
0.0 0.0 0.0 
0.0 0.0 0.0 
0.0 0.0 0.0 
0.0 0.0 0.0 
0.0 0.0 0.0 
0.0 0.0 0.0 
0.0 0.0 0.0 
0.0 0.0 0.0 
0.0 0.0 0.0 
0.0 0.0 0.0 
0.0 0.0 0.0 
0.0 0.0 0.0 
0.0 0.0 0.0 
0.0 0.0 0.0 
0.0 0.0 0.0 
0.0 0.0 0.0 
0.0 0.0 0.0 
0.0 0.0 0.0 
0.0 0.0 0.0 
0.0 0.0 0.0 
0.0 0.0 0.0 
0.0 0.0 0.0 
0.0 0.0 0.0 
0.0 0.0 0.0 
0.0 0.0 0.0 
0.0 0.0 0.0 
0.0 0.0 0.0 
0.0 0.0 0.0 
0.0 0.0 0.0 
0.0 0.0 0.0 
0.0 0.0 0.0 
0.0 0.0 0.0 
0.0 0.0 0.0 
0.0 0.0 0.0 
0.0 0.0 0.0 
0.0 0.0 0.0 
0.0 0.0 0.0 
0.0 0.0 0.0 
0.0 0.0 0.0 
0.0 0.0 0.0 
0.0 0.0 0.0 
0.0 0.0 0.0 
0.0 0.0 0.0 
0.0 0.0 0.0 
0.0 0.0 0.0 
0.0 0.0 0.0 
0.0 0.0 0.0 
0.0 0.0 0.0 
0.0 0.0 0.0 
0.0 0.0 0.0 
0.0 0.0 0.0 
0.0 0.0 0.0 
0.0 0.0 0.0 
0.0 0.0 0.0 
0.0 0.0 0.0 
0.0 0.0 0.0 
0.0 0.0 0.0 
0.0 0.0 0.0 
0.0 0.0 0.0 
0.0 0.0 0.0 
0.0 0.0 0.0 
0.0 0.0 0.0 
0.0 0.0 0.0 
0.0 0.0 0.0 
0.0 0.0 0.0 
0.0 0.0 0.0 
0.0 0.0 0.0 
0.0 0.0 0.0 
0.0 0.0 0.0 
0.0 0.0 0.0 
0.0 0.0 0.0 
0.0 0.0 0.0 
0.0 0.0 0.0 
0.0 0.0 0.0 
0.0 0.0 0.0 
0.0 0.0 0.0 
0.0 0.0 0.0 
0.0 0.0 0.0 
0.0 0.0 0.0 
0.0 0.0 0.0 
0.0 0.0 0.0 
0.0 0.0 0.0 
0.0 0.0 0.0 
0.0 0.0 0.0 
0.0 0.0 0.0 
0.0 0.0 0.0 
0.0 0.0 0.0 
0.0 0.0 0.0 
0.0 0.0 0.0 
0.0 0.0 0.0 
0.0 0.0 0.0 
0.0 0.0 0.0 
0.0 0.0 0.0 
0.0 0.0 0.0 
0.0 0.0 0.0 
0.0 0.0 0.0 
0.0 0.0 0.0 
0.0 0.0 0.0 
0.0 0.0 0.0 
0.0 0.0 0.0 
0.0 0.0 0.0 
0.0 0.0 0.0 
0.0 0.0 0.0 
0.0 0.0 0.0 
0.0 0.0 0.0 
0.0 0.0 0.0 
0.0 0.0 0.0 
0.0 0.0 0.0 
0.0 0.0 0.0 
0.0 0.0 0.0 
0.0 0.0 0.0 
0.0 0.0 0.0 
0.0 0.0 0.0 
0.0 0.0 0.0 
0.0 0.0 0.0 
0.0 0.0 0.0 
0.0 0.0 0.0 
0.0 0.0 0.0 
0.0 0.0 0.0 
0.0 0.0 0.0 
0.0 0.0 0.0 
0.0 0.0 0.0 
0.0 0.0 0.0 
0.0 0.0 0.0 

VECTORS node_materi_displacement float
0.0 -2.380146029233e-02 0.0 
0.0 3.777867538584e-02 0.0 
0.0 0.0 0.0 
0.0 0.0 0.0 
0.0 -2.186665548751e-02 0.0 
0.0 -1.959115413619e-02 0.0 
0.0 -1.699486141684e-02 0.0 
0.0 -1.427289820022e-02 0.0 
0.0 -1.166542151810e-02 0.0 
0.0 -9.290632079564e-03 0.0 
0.0 -7.206646272785e-03 0.0 
0.0 -5.460358217562e-03 0.0 
0.0 -3.982974312503e-03 0.0 
0.0 -2.760161709407e-03 0.0 
0.0 -1.789597698446e-03 0.0 
0.0 -1.006786950781e-03 0.0 
0.0 -4.013719837680e-04 0.0 
0.0 8.148555259047e-05 0.0 
0.0 4.148441317600e-04 0.0 
0.0 6.077892475295e-04 0.0 
0.0 6.688241469935e-04 0.0 
0.0 5.890200817978e-04 0.0 
0.0 3.553061598521e-04 0.0 
0.0 0.0 0.0 
0.0 0.0 0.0 
0.0 0.0 0.0 
0.0 0.0 0.0 
0.0 0.0 0.0 
0.0 0.0 0.0 
0.0 0.0 0.0 
0.0 0.0 0.0 
0.0 0.0 0.0 
0.0 0.0 0.0 
0.0 0.0 0.0 
0.0 0.0 0.0 
0.0 0.0 0.0 
0.0 0.0 0.0 
0.0 0.0 0.0 
0.0 0.0 0.0 
0.0 0.0 0.0 
0.0 0.0 0.0 
0.0 0.0 0.0 
0.0 0.0 0.0 
0.0 0.0 0.0 
0.0 0.0 0.0 
0.0 0.0 0.0 
0.0 0.0 0.0 
0.0 0.0 0.0 
0.0 0.0 0.0 
0.0 0.0 0.0 
0.0 0.0 0.0 
0.0 0.0 0.0 
0.0 0.0 0.0 
0.0 0.0 0.0 
0.0 0.0 0.0 
0.0 0.0 0.0 
0.0 0.0 0.0 
0.0 0.0 0.0 
0.0 0.0 0.0 
0.0 0.0 0.0 
0.0 0.0 0.0 
0.0 0.0 0.0 
0.0 0.0 0.0 
0.0 0.0 0.0 
0.0 0.0 0.0 
0.0 0.0 0.0 
0.0 0.0 0.0 
0.0 0.0 0.0 
0.0 0.0 0.0 
0.0 0.0 0.0 
0.0 0.0 0.0 
0.0 0.0 0.0 
0.0 3.184225738916e-02 0.0 
0.0 2.674277853560e-02 0.0 
0.0 2.232226005732e-02 0.0 
0.0 1.816028482871e-02 0.0 
0.0 1.438993660723e-02 0.0 
0.0 1.087005214765e-02 0.0 
0.0 7.694497390306e-03 0.0 
0.0 4.902560356779e-03 0.0 
0.0 2.337080123573e-03 0.0 
5.622005671230e-02 -4.334291485444e-02 0.0 
6.556123534529e-02 4.802260853733e-02 0.0 
6.062917024148e-02 -3.527183875458e-02 0.0 
6.682415673373e-02 -2.438345046350e-02 0.0 
7.352472657397e-02 -1.228978965701e-02 0.0 
7.979668687662e-02 -4.324228795419e-05 0.0 
8.521199856134e-02 1.213222861592e-02 0.0 
8.913636796107e-02 2.373158523191e-02 0.0 
9.077423111294e-02 3.419853868508e-02 0.0 
8.909195444772e-02 4.316631267806e-02 0.0 
8.198728120450e-02 4.929412261476e-02 0.0 
3.409124784591e-03 3.800762478748e-02 0.0 
6.782536054358e-03 3.821848819154e-02 0.0 
1.014559521101e-02 3.875906719649e-02 0.0 
1.361185079216e-02 3.969037722966e-02 0.0 
1.716827546033e-02 4.076264360965e-02 0.0 
2.077501547967e-02 4.186258268098e-02 0.0 
2.449535037590e-02 4.336371491782e-02 0.0 
2.844186677881e-02 4.476119688707e-02 0.0 
3.238627674887e-02 4.631195013614e-02 0.0 
3.659827534124e-02 4.805277432640e-02 0.0 
4.107760314389e-02 4.981692529290e-02 0.0 
4.601702621881e-02 5.107276658445e-02 0.0 
5.155580466460e-02 5.223890470807e-02 0.0 
5.813158273007e-02 5.261858252853e-02 0.0 
5.625169436614e-02 -4.667009061100e-02 0.0 
5.598097163571e-02 -4.854081901450e-02 0.0 
5.535721822361e-02 -4.932079338171e-02 0.0 
5.450053455147e-02 -4.927001692346e-02 0.0 
5.315873238335e-02 -4.853400007882e-02 0.0 
5.148382318596e-02 -4.715075536903e-02 0.0 
4.949393194725e-02 -4.532635533770e-02 0.0 
4.725503027754e-02 -4.321676495817e-02 0.0 
4.473345709157e-02 -4.092147803434e-02 0.0 
4.189462388510e-02 -3.848648865435e-02 0.0 
3.873467508671e-02 -3.609042006582e-02 0.0 
3.532766562163e-02 -3.370866773013e-02 0.0 
3.152888857659e-02 -3.151005528727e-02 0.0 
2.744694517392e-02 -2.959469873108e-02 0.0 
2.310525201775e-02 -2.792490163291e-02 0.0 
1.860327386130e-02 -2.650108726185e-02 0.0 
1.400029169811e-02 -2.536104367096e-02 0.0 
9.319856053671e-03 -2.457801089731e-02 0.0 
4.638889224449e-03 -2.403181047274e-02 0.0 
5.812961999218e-02 -3.976714697278e-02 0.0 
6.359951744096e-02 -3.004964513117e-02 0.0 
7.015856780792e-02 -1.844687895075e-02 0.0 
7.676078589005e-02 -6.104805856958e-03 0.0 
8.282774929181e-02 6.340678594397e-03 0.0 
8.755495014781e-02 1.820933909345e-02 0.0 
9.029474664652e-02 2.910456676894e-02 0.0 
9.041822118654e-02 3.887293689185e-02 0.0 
8.641845231552e-02 4.671395930382e-02 0.0 
7.547447789379e-02 5.035386573900e-02 0.0 
6.915648530697e-02 -3.005447817901e-02 0.0 
3.571868335415e-03 2.359540808662e-04 0.0 
4.134807029254e-02 -3.862866052197e-02 0.0 
5.347233391596e-02 -4.841901978117e-02 0.0 
1.739526544523e-03 2.647646952488e-04 0.0 
8.217147632873e-02 -6.592481620621e-03 0.0 
1.067847376435e-03 -2.284703886971e-03 0.0 
5.691636391352e-03 3.272274813313e-04 0.0 
9.026568358770e-02 1.559259997828e-02 0.0 
7.950819151599e-03 5.031141123585e-04 0.0 
8.851501011428e-02 3.426134575304e-02 0.0 
8.357578177721e-04 2.914112255763e-04 0.0 
2.755539777219e-02 -2.888657050833e-02 0.0 
1.004447538974e-02 8.444185612151e-04 0.0 
6.699384218993e-02 4.004443095455e-02 0.0 
1.948465787278e-03 -8.252392270248e-03 0.0 
7.266374291098e-04 -2.465927072299e-04 0.0 
1.110632183306e-02 1.221987286290e-03 0.0 
9.707884837804e-03 1.691382974169e-03 0.0 
3.301310069772e-03 2.001605518982e-03 0.0 
6.054833077493e-03 2.184206379905e-03 0.0 
7.657712077728e-03 1.836861717936e-03 0.0 
5.157352024199e-02 4.296082097770e-02 0.0 
3.275363753336e-02 4.047190340497e-02 0.0 
2.123233107897e-02 3.638989751857e-02 0.0 
1.617030005815e-03 1.615943035566e-02 0.0 
4.777063497039e-04 3.228154641174e-04 0.0 
5.800468503903e-02 -4.736078347060e-02 0.0 
1.532804093142e-02 -2.420059793275e-02 0.0 
3.854837912385e-04 6.477319425104e-04 0.0 
1.094124830159e-02 3.377092596212e-02 0.0 
3.309910609350e-03 -1.580809560614e-02 0.0 
1.200485082159e-02 1.664352113764e-03 0.0 
6.305593923219e-03 3.538912727024e-04 0.0 
8.981184865608e-03 6.288968824238e-04 0.0 
4.947811879979e-03 3.026912206961e-04 0.0 
2.551213684713e-03 2.129178510906e-04 0.0 
4.910035108076e-02 -4.544555158552e-02 0.0 
4.164595044583e-02 4.325802259146e-02 0.0 
1.437962148476e-03 3.276099657316e-04 0.0 
1.195600321064e-03 9.344969798145e-03 0.0 
3.499847448357e-02 -3.360217396760e-02 0.0 
1.502002683750e-03 -4.783507422421e-03 0.0 
1.770146646653e-03 1.544104491175e-03 0.0 
8.711063721180e-02 4.173200711534e-03 0.0 
7.595139257185e-02 -1.856946403122e-02 0.0 
9.109825490846e-02 2.557007388672e-02 0.0 
8.103278050595e-02 4.009329901331e-02 0.0 
6.211190777747e-02 -3.976126611629e-02 0.0 
2.151343868641e-03 2.396119971738e-02 0.0 
2.123359646987e-04 2.586532711455e-04 0.0 
6.713327824907e-03 -2.261391240092e-02 0.0 
7.677486071116e-04 3.696771230752e-03 0.0 
6.132993315065e-02 3.860440683718e-02 0.0 
6.188130196167e-02 3.297605169540e-02 0.0 
5.527234914246e-02 3.234421964551e-02 0.0 
5.622953902240e-02 2.704285714057e-02 0.0 
5.061251526441e-02 2.589289380105e-02 0.0 
5.112348592090e-02 2.200408731300e-02 0.0 
5.647651835358e-02 2.257780879236e-02 0.0 
5.124630478137e-02 1.825136163209e-02 0.0 
5.632091893148e-02 1.849099980122e-02 0.0 
4.562784121450e-02 2.074977173104e-02 0.0 
5.095799605514e-02 1.474855916390e-02 0.0 
5.573436294314e-02 1.462860221070e-02 0.0 
5.021926035887e-02 1.141255451820e-02 0.0 
5.471418217239e-02 1.111703869599e-02 0.0 
6.041425926773e-02 1.408864880744e-02 0.0 
5.906373112429e-02 1.041055750679e-02 0.0 
6.480054245535e-02 1.300857466653e-02 0.0 
6.308872995288e-02 9.179107513778e-03 0.0 
5.729093389972e-02 7.139402943517e-03 0.0 
6.099019164127e-02 5.831187160454e-03 0.0 
6.675252021943e-02 7.444473349050e-03 0.0 
6.429335062708e-02 4.053903795476e-03 0.0 
6.991085287986e-02 5.169354722890e-03 0.0 
6.709333118614e-02 1.803724236807e-03 0.0 
7.251191267734e-02 2.386069747520e-03 0.0 
6.936420643876e-02 -8.722422746463e-04 0.0 
6.392220037095e-02 -9.644924220218e-04 0.0 
6.591379710659e-02 -3.507257843416e-03 0.0 
7.105354472868e-02 -3.916498964755e-03 0.0 
6.734527170919e-02 -6.391061068350e-03 0.0 
7.213805453431e-02 -7.275853235321e-03 0.0 
6.820384326845e-02 -9.526005903611e-03 0.0 
6.322004465791e-02 -8.153048877618e-03 0.0 
6.388778293610e-02 -1.105734831949e-02 0.0 
6.849225913885e-02 -1.287727438117e-02 0.0 
6.401861425822e-02 -1.408291121620e-02 0.0 
6.822513390651e-02 -1.631787812809e-02 0.0 
6.363118344135e-02 -1.715499126239e-02 0.0 
6.742049473660e-02 -1.976890081555e-02 0.0 
6.274045103991e-02 -2.020277577686e-02 0.0 
5.859349932700e-02 -1.716505194938e-02 0.0 
5.763394915591e-02 -1.981283943826e-02 0.0 
6.139152382581e-02 -2.315267441602e-02 0.0 
5.627361877947e-02 -2.232385824356e-02 0.0 
5.219406106851e-02 -1.869045543820e-02 0.0 
5.087189773023e-02 -2.082414375878e-02 0.0 
4.654921800526e-02 -1.702581445329e-02 0.0 
4.530334619612e-02 -1.882133916534e-02 0.0 
4.923963962298e-02 -2.272935617417e-02 0.0 
4.377379064087e-02 -2.039734290713e-02 0.0 
3.974495448790e-02 -1.651469070069e-02 0.0 
3.836496219594e-02 -1.783652751681e-02 0.0 
4.203970407856e-02 -2.177222661506e-02 0.0 
3.677303251047e-02 -1.894402302594e-02 0.0 
3.314408481860e-02 -1.519843427638e-02 0.0 
3.172486658938e-02 -1.610071088459e-02 0.0 
3.504584439903e-02 -1.983987677399e-02 0.0 
3.017353120778e-02 -1.681951733383e-02 0.0 
2.698330716388e-02 -1.334802772710e-02 0.0 
2.562282101268e-02 -1.395245112215e-02 0.0 
2.854158709281e-02 -1.736403535508e-02 0.0 
2.417690552449e-02 -1.438119838731e-02 0.0 
2.144914794087e-02 -1.129059966409e-02 0.0 
2.018813607338e-02 -1.165961880953e-02 0.0 
1.769938502413e-02 -8.909329337150e-03 0.0 
2.268355657950e-02 -1.468570475157e-02 0.0 
1.887854289138e-02 -1.190247749029e-02 0.0 
2.119977417586e-02 -1.486526258749e-02 0.0 
1.755827831785e-02 -1.203726960952e-02 0.0 
5.854811838202e-02 -9.165575736551e-03 0.0 
1.975917470824e-02 -1.490980072922e-02 0.0 
2.355149869467e-02 -1.801364741226e-02 0.0 
1.625972425820e-02 -1.208872769276e-02 0.0 
1.427628474601e-02 -9.538490095918e-03 0.0 
1.834747799661e-02 -1.486940596134e-02 0.0 
1.497508876455e-02 -1.207167176626e-02 0.0 
1.696589591419e-02 -1.477816015282e-02 0.0 
7.189437885406e-02 -1.864138680503e-02 0.0 
5.496694077860e-02 4.364150623273e-03 0.0 
1.368965709983e-02 -1.205089632081e-02 0.0 
1.560582154765e-02 -1.470276982980e-02 0.0 
1.908785082809e-02 -1.765500231187e-02 0.0 
1.764124743298e-02 -1.750433202483e-02 0.0 
4.485318464249e-02 2.401342523828e-02 0.0 
4.029618597630e-02 1.905590487363e-02 0.0 
3.941015643537e-02 2.214416467648e-02 0.0 
3.527441995496e-02 1.731974448586e-02 0.0 
3.431130153454e-02 2.004584913114e-02 0.0 
1.421083009756e-02 -1.469788888272e-02 0.0 
4.546441264808e-02 1.117838356242e-02 0.0 
3.585916882215e-02 1.459426852358e-02 0.0 
7.245684232938e-02 9.133177287471e-03 0.0 
7.580137512572e-02 -4.349675447757e-03 0.0 
4.745641666477e-02 -1.508821205513e-02 0.0 
1.193468328383e-02 -9.621147886135e-03 0.0 
1.072465872874e-02 -9.679833521007e-03 0.0 
9.242543824065e-03 -7.523689414461e-03 0.0 
1.872552528998e-02 -8.504687057397e-03 0.0 
1.526869520308e-02 -6.490776102677e-03 0.0 
1.604307949788e-02 -6.073687257944e-03 0.0 
1.291565584808e-02 -4.426610241078e-03 0.0 
1.343750331585e-02 -4.025564914737e-03 0.0 
1.067661112185e-02 -2.739204987080e-03 0.0 
1.025111705858e-02 -3.055304328787e-03 0.0 
8.358570317676e-03 -1.698255122204e-03 0.0 
8.017145150308e-03 -1.947533204592e-03 0.0 
1.095487022767e-02 -2.380908189630e-03 0.0 
1.379876315244e-02 -3.573528370481e-03 0.0 
6.454097097652e-03 -8.954900173087e-04 0.0 
6.179381247102e-03 -1.092891521935e-03 0.0 
4.912001790364e-03 -3.087110124462e-04 0.0 
4.688056759232e-03 -4.568616948255e-04 0.0 
5.793271985261e-03 -1.278916924975e-03 0.0 
4.355433405774e-03 -6.062883809167e-04 0.0 
5.311601021271e-03 -1.455195380530e-03 0.0 
4.170071509754e-02 -1.338128415980e-02 0.0 
4.217047895477e-02 -1.164240714697e-02 0.0 
3.646755701254e-02 -1.000201921864e-02 0.0 
3.648839133731e-02 -8.475605941704e-03 0.0 
3.101823519265e-02 -6.999372809113e-03 0.0 
3.060217733915e-02 -5.705180677085e-03 0.0 
2.550041710456e-02 -4.449499830664e-03 0.0 
2.594578634152e-02 -5.575401845767e-03 0.0 
4.897434915249e-02 8.353757941528e-03 0.0 
5.963294404130e-02 -2.589078512042e-02 0.0 
6.440359245664e-02 -2.640857988873e-02 0.0 
6.227019539004e-02 -2.934851545755e-02 0.0 
6.669239640662e-02 -2.956406511299e-02 0.0 
6.418931578955e-02 -3.265678961879e-02 0.0 
6.829841729711e-02 -3.260580561410e-02 0.0 
6.543767651418e-02 -3.581038101997e-02 0.0 
6.144548987065e-02 -3.533267241898e-02 0.0 
6.242036111781e-02 -3.853733439187e-02 0.0 
5.857471861890e-02 -3.752349245081e-02 0.0 
5.936482618982e-02 -4.068977230371e-02 0.0 
5.568406708833e-02 -3.923668214262e-02 0.0 
6.024695865056e-02 -3.058253443046e-03 0.0 
3.608491256678e-02 -6.962293250887e-03 0.0 
2.974372861915e-02 -4.475290567554e-03 0.0 
3.520611302779e-02 -5.475026695068e-03 0.0 
2.131541126000e-02 -2.060600828579e-02 0.0 
3.493192020772e-03 -4.078835213625e-06 0.0 
1.105778103107e-02 -1.999552548165e-03 0.0 
1.398540122634e-02 -3.087138705037e-03 0.0 
2.087741650515e-02 -3.333214938077e-03 0.0 
1.613961270137e-02 -1.745466555294e-02 0.0 
6.913234988958e-02 -3.545181853269e-02 0.0 
7.211478537865e-02 -3.167148188530e-02 0.0 
3.048644637941e-02 1.542791775540e-02 0.0 
2.952247625832e-02 1.786864459958e-02 0.0 
1.096262187445e-02 -1.594188190037e-03 0.0 
1.271690074905e-02 -1.482997292084e-02 0.0 
6.596258777072e-03 -6.941667622855e-04 0.0 
6.273128969773e-02 -4.144020859666e-02 0.0 
3.198954050355e-03 -1.238796900220e-04 0.0 
2.533886015298e-03 3.058747098230e-04 0.0 
9.701475907683e-03 -3.326469137782e-03 0.0 
2.841653203633e-02 -3.279895662901e-03 0.0 
3.394128026737e-02 -4.106796419798e-03 0.0 
5.448551824733e-02 -3.582515625735e-02 0.0 
5.177002193982e-02 -3.717147458982e-02 0.0 
5.285324948266e-02 -4.045187342750e-02 0.0 
4.898037166229e-02 -3.800205674510e-02 0.0 
4.749315203777e-02 -3.454819288794e-02 0.0 
4.497186412528e-02 -3.513866214259e-02 0.0 
4.647474570482e-02 -3.840187675605e-02 0.0 
4.260763652967e-02 -3.537887985244e-02 0.0 
4.066290750662e-02 -3.186611384008e-02 0.0 
3.844415202942e-02 -3.193790004963e-02 0.0 
4.045070050632e-02 -3.527259249621e-02 0.0 
3.640163618294e-02 -3.170810668111e-02 0.0 
2.695249799276e-03 3.741973832388e-04 0.0 
5.956721851178e-02 -4.349677933402e-02 0.0 
6.616488692234e-02 1.731094866479e-02 0.0 
8.453465860575e-03 -8.306759124267e-04 0.0 
2.012030926707e-02 -2.439288412363e-03 0.0 
2.586558906144e-02 1.333877389417e-02 0.0 
2.493525392327e-02 1.549807382888e-02 0.0 
2.821141575211e-02 2.024384323862e-02 0.0 
2.373774084551e-02 1.765263251537e-02 0.0 
2.065071736090e-02 1.317784909978e-02 0.0 
1.962609264769e-02 1.507291309974e-02 0.0 
2.234041815481e-02 1.959856657924e-02 0.0 
1.842613679871e-02 1.681578512233e-02 0.0 
2.086338760659e-02 2.132877901007e-02 0.0 
1.711025438020e-02 1.833668740788e-02 0.0 
1.492435453528e-02 1.410489826473e-02 0.0 
1.375803470560e-02 1.554594003638e-02 0.0 
1.566044153539e-02 1.979227074783e-02 0.0 
1.246317971296e-02 1.692123180898e-02 0.0 
1.411110781857e-02 2.118032768495e-02 0.0 
1.105124948056e-02 1.831837534520e-02 0.0 
9.675441215553e-03 1.432671491047e-02 0.0 
1.447350611296e-02 -1.749799928193e-02 0.0 
2.136686574387e-02 -4.226840302785e-03 0.0 
1.675301418161e-02 -2.282729622097e-03 0.0 
8.151582505977e-03 -7.696346511104e-03 0.0 
6.966628930449e-03 -5.813334421454e-03 0.0 
7.899593396739e-03 -5.650928072206e-03 0.0 
5.808720945641e-03 -4.174871018540e-03 0.0 
8.338677487405e-03 1.570697825055e-02 0.0 
7.251473276884e-03 1.204330627999e-02 0.0 
7.243958334472e-02 -3.410150464490e-02 0.0 
7.552533064707e-02 -2.981089934738e-02 0.0 
2.641127037532e-02 1.116821279914e-02 0.0 
2.264882246456e-03 2.072443533511e-04 0.0 
2.810375915503e-03 -2.632993647033e-04 0.0 
7.645844442470e-02 -8.195210184220e-03 0.0 
8.008530505726e-02 -4.843409364970e-03 0.0 
8.025478339094e-02 -9.130892173801e-03 0.0 
8.376713114646e-02 -5.382822850986e-03 0.0 
8.344645993787e-02 -7.925239844918e-04 0.0 
8.333770599596e-02 -1.013808564273e-02 0.0 
1.718537967299e-02 -5.045420974669e-03 0.0 
1.186433887199e-02 1.166125277642e-02 0.0 
2.282709375209e-02 -2.091201764333e-02 0.0 
2.517765730933e-02 -2.395067314500e-02 0.0 
1.763157179839e-03 4.987944034832e-04 0.0 
2.605096131145e-02 -6.657664564599e-03 0.0 
5.794821573355e-02 -9.611772772274e-04 0.0 
5.377746475782e-02 -2.438119806435e-03 0.0 
5.112729347933e-02 -7.436177647178e-04 0.0 
4.641230696770e-02 -1.638905630659e-03 0.0 
4.337959441260e-02 -3.157933347241e-04 0.0 
3.825097807053e-02 -7.444828177184e-04 0.0 
4.118849814349e-02 -2.072320841988e-03 0.0 
2.657009426926e-02 -2.183499497504e-03 0.0 
3.285653867408e-02 -9.315712698613e-04 0.0 
9.648846743688e-03 1.983318227322e-02 0.0 
4.186304867794e-02 -8.106409987569e-03 0.0 
3.621357592652e-02 -2.832139493625e-02 0.0 
1.815204890463e-02 -2.016381114366e-02 0.0 
3.863082401242e-02 -3.492207219178e-02 0.0 
1.102563649301e-02 -1.516891880560e-02 0.0 
9.535910332628e-03 -1.251475847563e-02 0.0 
8.098643424758e-03 -5.249896128545e-04 0.0 
3.478851868442e-02 1.978576927288e-04 0.0 
3.984319383248e-02 7.328083731067e-04 0.0 
8.677171848078e-02 -7.436670484120e-04 0.0 
8.639963914904e-02 4.063040190776e-03 0.0 
2.159834666650e-02 -1.589880465194e-03 0.0 
3.810047694687e-02 2.530770461097e-02 0.0 
2.491824021919e-02 2.440925156217e-02 0.0 
2.308314969047e-02 2.618637784834e-02 0.0 
1.306589289638e-02 -1.821773022632e-02 0.0 
4.230496241778e-02 -3.815306532489e-02 0.0 
1.681831348436e-02 1.091762318935e-02 0.0 
7.479040030339e-02 -2.753702993756e-02 0.0 
7.825766305377e-02 -2.516670651786e-02 0.0 
6.228146860636e-02 -4.392646787705e-02 0.0 
5.912389102725e-02 -4.580924206596e-02 0.0 
6.133487375840e-03 1.337146593463e-02 0.0 
5.144035389595e-03 9.915632810036e-03 0.0 
6.681624713171e-03 -4.023316496469e-03 0.0 
4.905262321989e-03 -2.856136094727e-03 0.0 
1.064092790225e-02 -1.188871939185e-03 0.0 
3.455569332302e-02 -3.127856306411e-02 0.0 
5.967604161032e-03 8.641109716169e-03 0.0 
2.152880243503e-02 -5.147289298188e-03 0.0 
2.584162276327e-02 -7.711597191950e-03 0.0 
4.863959060058e-03 -4.343577119253e-03 0.0 
7.513290131056e-02 -3.176636828818e-02 0.0 
7.171536681589e-02 -3.614004713926e-02 0.0 
3.839807436496e-02 -2.806998035281e-02 0.0 
3.223564920124e-02 -2.804976151745e-02 0.0 
7.807674307121e-03 -1.304874258731e-02 0.0 
7.504852458001e-03 -2.579792345071e-04 0.0 
1.742887355852e-02 9.109512543894e-03 0.0 
3.574856224027e-02 -2.021242205134e-03 0.0 
4.367711042795e-02 -3.540953699456e-03 0.0 
2.750482578191e-02 -7.822841260981e-04 0.0 
3.677982081200e-02 -3.420754159560e-02 0.0 
6.026860146118e-03 -7.647940070503e-05 0.0 
1.508920877905e-03 4.292619116154e-04 0.0 
3.121436004712e-02 9.121904028909e-04 0.0 
3.581046957172e-02 1.453015323332e-03 0.0 
7.705650644119e-02 -2.314444202762e-02 0.0 
8.056377660100e-02 -2.020678645839e-02 0.0 
8.115769659200e-02 -2.175418703856e-02 0.0 
8.350940391206e-02 -1.644512151021e-02 0.0 
6.197715183799e-02 2.276657921019e-02 0.0 
7.880220728340e-02 -1.854643947349e-02 0.0 
7.074695324871e-02 1.587692257603e-02 0.0 
7.236258164126e-02 2.095111191369e-02 0.0 
7.679691113818e-02 1.894986160299e-02 0.0 
8.245685579547e-02 3.458764487222e-03 0.0 
8.528056109260e-02 8.501202505867e-03 0.0 
6.889326428444e-02 -2.612955946369e-02 0.0 
4.798304932126e-02 -1.305741942445e-02 0.0 
8.842478883693e-03 -5.531623908235e-03 0.0 
7.001136576918e-03 -2.372800137570e-03 0.0 
1.964154148993e-02 -7.997866751888e-03 0.0 
1.275472035734e-02 1.020921067509e-02 0.0 
9.827170462143e-03 8.079764392783e-03 0.0 
1.749276872512e-02 2.432289675435e-02 0.0 
1.566055378510e-02 2.573113920460e-02 0.0 
2.366352617294e-02 -2.350914551751e-02 0.0 
2.764853804738e-02 -2.686344323885e-02 0.0 
1.439055218990e-02 -6.826461889616e-03 0.0 
6.403556763325e-03 -2.575036039415e-04 0.0 
2.189084592386e-02 9.186594974317e-03 0.0 
2.165165408748e-02 7.320468999434e-03 0.0 
2.638824026804e-02 8.948178943373e-03 0.0 
1.006489071398e-02 -7.649009111881e-04 0.0 
5.756502972429e-02 -2.834545823148e-02 0.0 
3.608633497217e-02 -1.149465703145e-02 0.0 
5.665038081248e-02 -4.499653003947e-02 0.0 
5.751123830555e-02 -6.686255044029e-03 0.0 
2.604397912694e-02 -2.626322668790e-02 0.0 
5.116954954456e-02 5.306726925999e-03 0.0 
1.146046979902e-03 6.127054279636e-04 0.0 
1.288338419130e-03 6.206390695914e-04 0.0 
1.943410028090e-02 -8.021904322648e-04 0.0 
6.778456399380e-02 3.335612260490e-02 0.0 
5.241978986479e-02 -7.199861213176e-03 0.0 
5.337725312255e-02 -9.443257364428e-03 0.0 
7.864308621202e-02 2.484546008542e-02 0.0 
8.260542710492e-02 2.216154716530e-02 0.0 
8.042637443994e-02 1.621136057830e-02 0.0 
8.559568618426e-02 1.876546459928e-02 0.0 
3.380854426101e-02 -2.458196770059e-02 0.0 
3.180785430933e-02 -2.473161760478e-02 0.0 
2.526946148842e-02 6.303315206304e-04 0.0 
2.447977773452e-02 -9.878113355857e-05 0.0 
2.688995996993e-02 1.302849348499e-03 0.0 
3.122577207214e-02 1.832099118093e-03 0.0 
1.499288545103e-02 -4.195737665874e-04 0.0 
1.706602490634e-02 -1.043258595904e-03 0.0 
6.615460362230e-03 -1.047988701225e-02 0.0 
8.876221707000e-02 9.667359522510e-03 0.0 
1.380973393646e-02 7.159621873346e-03 0.0 
7.377555771516e-02 2.665734134017e-02 0.0 
4.437171726926e-03 2.236378365021e-04 0.0 
4.770815692989e-03 9.128292849608e-05 0.0 
5.638743288839e-02 -4.710817760128e-02 0.0 
5.373636030844e-02 -4.577529703914e-02 0.0 
4.136703700717e-03 6.821566595596e-03 0.0 
8.305165202534e-02 -1.731853729685e-02 0.0 
8.543279904584e-02 -1.179123650218e-02 0.0 
8.018363792479e-02 -2.286888562379e-02 0.0 
1.497018270414e-04 5.036044483597e-04 0.0 
4.775710501741e-03 3.291048392494e-02 0.0 
8.060576571870e-04 6.360550005377e-04 0.0 
8.062243039005e-02 7.445222235213e-03 0.0 
4.775632755504e-03 5.480673699719e-03 0.0 
4.699248124566e-02 -7.093485454725e-03 0.0 
7.654918565066e-02 -1.230155594296e-02 0.0 
1.363429185203e-02 -1.977812463843e-03 0.0 
3.264200180221e-03 8.240396487283e-03 0.0 
2.627184167213e-03 5.083204034700e-03 0.0 
2.717079235318e-02 2.959682997517e-02 0.0 
2.514975214215e-02 3.149911221427e-02 0.0 
2.930565542882e-02 2.772537154015e-02 0.0 
6.568401854435e-02 -4.122789146981e-02 0.0 
6.464307280026e-02 -4.330330650268e-02 0.0 
9.123573190525e-03 9.390217129169e-03 0.0 
9.505540389462e-03 -9.798648446748e-03 0.0 
6.651531443545e-03 -7.562929630847e-03 0.0 
3.059872250611e-02 -2.775219728491e-02 0.0 
2.814922381421e-02 -2.444864675797e-02 0.0 
7.521285325292e-03 -3.889731524852e-03 0.0 
9.773639951678e-03 -5.407383106027e-03 0.0 
4.821538509428e-02 3.172334210039e-03 0.0 
4.421562440431e-02 3.849798828528e-03 0.0 
5.516977064882e-02 8.198793229822e-04 0.0 
2.139943474270e-02 -5.991988215879e-03 0.0 
2.535695933945e-02 -8.670982022718e-03 0.0 
3.017237198149e-02 -1.072518093793e-02 0.0 
1.034964858899e-02 6.709830274304e-03 0.0 
7.325982998114e-03 4.638022480619e-03 0.0 
3.594938638029e-02 -2.427667410673e-02 0.0 
4.070678821367e-02 -2.758112555156e-02 0.0 
2.940939619992e-02 -2.120846143896e-02 0.0 
1.384399775217e-02 5.553473796622e-03 0.0 
8.694067546428e-04 5.748167788905e-04 0.0 
1.340918003918e-03 6.034403853708e-04 0.0 
2.997267302132e-02 -2.942196613127e-02 0.0 
3.162878841997e-02 -3.020878634781e-02 0.0 
7.342913116708e-02 -3.323452690975e-02 0.0 
6.976221360692e-02 -3.767578115749e-02 0.0 
2.086152416271e-02 5.553387685654e-03 0.0 
2.574046945329e-02 7.001108548844e-03 0.0 
1.576614939539e-02 4.069093410543e-03 0.0 
4.834398421256e-03 -1.134100053839e-02 0.0 
3.808750596551e-02 -3.328707693904e-03 0.0 
6.920328217602e-03 -1.662233717745e-05 0.0 
9.518746325118e-03 -4.663742640094e-04 0.0 
4.521773262567e-03 2.345023117345e-04 0.0 
2.454167416616e-02 -1.143764023998e-03 0.0 
1.706872210566e-02 -9.662794417837e-05 0.0 
1.901052261160e-02 1.438919727126e-04 0.0 
5.813207461704e-02 -4.749729168043e-02 0.0 
1.882907734689e-03 6.140984245632e-03 0.0 
1.922249107704e-02 2.924309517392e-02 0.0 
5.619627829337e-02 -4.831005693829e-02 0.0 
1.707802640502e-02 3.100119004450e-02 0.0 
1.370900974942e-02 2.736316088766e-02 0.0 
1.524636734551e-02 3.296323873023e-02 0.0 
5.757941203660e-03 -1.388317145590e-02 0.0 
3.233458958551e-02 3.457229076787e-02 0.0 
3.451822361032e-02 3.150538707515e-02 0.0 
3.440058572143e-02 -3.303880602211e-02 0.0 
9.890536233978e-03 3.799447475907e-03 0.0 
2.844842195841e-02 -2.861450863946e-02 0.0 
2.452695051469e-02 -2.584655295976e-02 0.0 
3.144386073818e-03 3.361242152473e-04 0.0 
3.484829593018e-03 3.225672095550e-04 0.0 
2.106984296734e-03 4.247216845739e-04 0.0 
2.517763264026e-03 4.631200280436e-04 0.0 
3.705689486639e-03 2.779425026060e-04 0.0 
2.673310954292e-03 4.523193062893e-04 0.0 
2.342309745456e-02 3.359429580450e-02 0.0 
1.609237105119e-03 4.692929301497e-04 0.0 
1.862391727263e-03 5.203155605282e-04 0.0 
1.006810984282e-03 4.023813012495e-04 0.0 
8.737069460702e-02 2.575808498202e-02 0.0 
8.526601196895e-02 -1.129660607346e-02 0.0 
8.733242753374e-02 -6.196325709045e-03 0.0 
8.610716636560e-02 -5.885886413886e-03 0.0 
2.010561226040e-02 1.377974777967e-03 0.0 
2.676418872872e-02 2.065490398796e-03 0.0 
8.924271053278e-04 5.670283010654e-04 0.0 
1.108226943302e-03 3.361501611163e-04 0.0 
1.173088731811e-02 2.935186514343e-02 0.0 
8.630910684832e-03 2.888749367134e-02 0.0 
8.811391427309e-03 2.469262933002e-02 0.0 
6.406248054395e-03 2.471922798673e-02 0.0 
6.536597912075e-03 2.092364512734e-02 0.0 
4.239014350774e-03 2.110949000212e-02 0.0 
4.773253100598e-03 1.753223415870e-02 0.0 
1.561209955367e-02 4.524596029250e-04 0.0 
8.052879604615e-02 -1.821307224562e-02 0.0 
8.027431633577e-02 3.164025940481e-02 0.0 
1.091144574153e-02 -4.931269191171e-05 0.0 
1.347735743357e-02 -5.015948627655e-04 0.0 
8.768616051699e-02 1.435544404317e-02 0.0 
9.045893521060e-02 1.623159153181e-02 0.0 
3.556536560292e-03 3.128764416253e-04 0.0 
7.492204101614e-02 -2.099656288322e-02 0.0 
7.916698653051e-03 2.144005287637e-03 0.0 
5.894848137869e-02 -4.520694701306e-02 0.0 
6.133804192813e-02 -4.542119028629e-02 0.0 
7.613134193537e-02 -1.674442323540e-02 0.0 
8.326158490420e-02 1.271780722988e-02 0.0 
8.640410248604e-02 -5.979656615999e-03 0.0 
8.858769364893e-02 -3.815877884643e-04 0.0 
1.749183125143e-02 -3.759820957956e-03 0.0 
3.562958142454e-02 -3.366505676278e-02 0.0 
7.692614115208e-02 -2.824723193718e-02 0.0 
6.941436500513e-03 1.750264237681e-02 0.0 
7.382760121469e-02 -2.941469149095e-02 0.0 
4.790402111796e-04 5.084951260345e-04 0.0 
7.065438088461e-02 -2.247405943395e-02 0.0 
7.769315176563e-02 2.938756774863e-03 0.0 
7.831937399648e-02 -2.692995437690e-02 0.0 
8.228000877104e-02 -1.501524683604e-02 0.0 
6.139675032849e-02 1.818773749608e-02 0.0 
6.217108266580e-02 2.766732208809e-02 0.0 
6.778058944599e-02 2.757291240281e-02 0.0 
6.617746244299e-02 -2.319123662976e-02 0.0 
8.907485134127e-02 4.860570741292e-03 0.0 
8.991582634662e-02 6.220927207080e-03 0.0 
6.890998386567e-02 1.137392512692e-02 0.0 
3.115593786406e-02 1.056066389987e-02 0.0 
3.062790404245e-02 8.238255140937e-03 0.0 
2.432295238339e-02 5.216196791455e-03 0.0 
2.925837865266e-02 6.364666037422e-03 0.0 
3.558544216531e-02 9.526581053305e-03 0.0 
3.434909129274e-02 7.116022597088e-03 0.0 
2.702660294641e-02 4.451422960655e-03 0.0 
3.230038551212e-02 5.255213565205e-03 0.0 
2.191998964788e-02 2.852991244346e-03 0.0 
2.894808430809e-02 3.542578574866e-03 0.0 
3.736547230418e-02 5.577552322313e-03 0.0 
3.451419300444e-02 3.915416507389e-03 0.0 
2.605066767933e-02 2.646779269188e-03 0.0 
4.256425684539e-02 5.930040116221e-03 0.0 
8.695424217497e-03 2.749224588193e-04 0.0 
7.255843787699e-02 -1.474161293373e-02 0.0 
6.110060829503e-02 -4.587474844159e-02 0.0 
6.456871181436e-02 -4.248994619989e-02 0.0 
7.538438110232e-02 6.314823356921e-03 0.0 
1.110033121444e-02 1.391366135888e-03 0.0 
1.044444927488e-02 1.527293174534e-03 0.0 
7.090378626512e-02 -2.899857177462e-02 0.0 
9.505793937736e-03 7.514970365118e-04 0.0 
6.717024014746e-02 2.215712257896e-02 0.0 
6.597538145216e-02 -3.872232049272e-02 0.0 
8.585407615701e-03 5.832831579907e-04 0.0 
3.599779954406e-02 1.193813847966e-02 0.0 
4.094256488163e-02 1.327489331391e-02 0.0 
4.083127833193e-02 1.613409241372e-02 0.0 
8.842969794571e-03 1.572402391723e-03 0.0 
3.122271329155e-02 2.554118541503e-02 0.0 
5.785579603499e-03 3.317740761568e-04 0.0 
4.222937262316e-02 -9.866200904044e-03 0.0 
4.813216026647e-02 -1.103369905420e-02 0.0 
5.372362671070e-02 -1.408640216250e-02 0.0 
3.939721966101e-02 7.957982955256e-03 0.0 
4.028258445063e-03 1.946047387905e-04 0.0 
7.556054033756e-03 6.980989170174e-05 0.0 
6.629296239681e-03 1.011347155093e-04 0.0 
1.110732868104e-02 -4.135130388858e-04 0.0 
3.053956201168e-03 2.427339342347e-04 0.0 
9.987565732604e-03 1.018787523186e-03 0.0 
9.315078392788e-03 8.790420208357e-04 0.0 
4.302276680001e-02 -3.145523462491e-02 0.0 
4.545368052945e-02 -3.071990850531e-02 0.0 
4.301816657554e-02 -2.681210761795e-02 0.0 
4.792374214539e-02 -2.964937190033e-02 0.0 
5.010504072532e-02 -3.350839811665e-02 0.0 
5.268391514413e-02 -3.214259267648e-02 0.0 
5.033392689280e-02 -2.831552158846e-02 0.0 
5.721339146546e-02 -3.409317482100e-02 0.0 
3.585313018889e-02 2.813483673486e-03 0.0 
2.221184968725e-03 2.496778221723e-04 0.0 
1.668547920257e-02 -5.584488347896e-03 0.0 
2.044887156259e-02 -7.425871028584e-03 0.0 
2.372644429148e-02 -1.020388657498e-02 0.0 
1.137044118916e-02 -7.364908078050e-03 0.0 
1.241290397200e-02 -7.248797699842e-03 0.0 
1.066473582249e-02 -5.243070954148e-03 0.0 
1.031951722315e-02 -7.450005349779e-03 0.0 
4.895870194866e-02 -3.288559355852e-03 0.0 
1.910871680081e-03 2.471237615056e-04 0.0 
3.076497678506e-02 -9.559260564722e-03 0.0 
1.544858918496e-02 -9.414365295173e-03 0.0 
4.640119679678e-02 4.359842030459e-02 0.0 
4.626761418712e-02 3.636948973474e-02 0.0 
5.070237444329e-02 3.457186874552e-02 0.0 
4.434952993434e-02 2.853479606080e-02 0.0 
4.057708459903e-02 3.584501729571e-02 0.0 
5.655360003234e-03 -2.691698893095e-03 0.0 
4.113591452553e-03 -1.775726795695e-03 0.0 
3.425860660679e-03 -1.964519591830e-03 0.0 
2.834772041694e-03 -1.085461834317e-03 0.0 
2.181054856538e-03 -1.310342023553e-03 0.0 
2.672134621456e-03 -2.208055971968e-03 0.0 
1.771726389924e-03 -5.890682026497e-04 0.0 
1.188073636632e-03 -9.026079529366e-04 0.0 
3.697151948632e-02 4.210473867498e-02 0.0 
5.140383540081e-02 -4.720889708104e-02 0.0 
4.939415264859e-02 -4.522349866454e-02 0.0 
4.670572384360e-02 -4.326830944774e-02 0.0 
4.715780115970e-02 -4.279461202515e-02 0.0 
5.009663548622e-02 -4.441427997581e-02 0.0 
4.770562016684e-02 -4.143986274574e-02 0.0 
5.109332612867e-02 -4.325607494666e-02 0.0 
5.213351031661e-02 -4.678932161490e-02 0.0 
4.670729002510e-02 -4.340328116601e-02 0.0 
4.394130853496e-02 -4.103855690024e-02 0.0 
4.415458558507e-02 -4.110412428818e-02 0.0 
4.110280159396e-02 -3.860767040487e-02 0.0 
4.074753147844e-02 -3.788782920953e-02 0.0 
2.907702040779e-02 -2.733869669846e-02 0.0 
4.183403418273e-04 3.675267676567e-04 0.0 
1.283782344852e-03 -3.420793818453e-03 0.0 
2.737606546985e-03 -4.310859131860e-03 0.0 
3.156837962003e-03 -5.738119601097e-03 0.0 
4.484061843112e-03 -5.361772586422e-03 0.0 
2.261353429416e-03 -3.157450058682e-03 0.0 
1.708042350247e-03 -6.375364537388e-03 0.0 
3.590037257821e-03 -7.292628597963e-03 0.0 
1.101486535463e-02 -2.322044482501e-02 0.0 
8.276935984095e-03 -2.093655028465e-02 0.0 
3.829698016748e-03 -2.062349077203e-02 0.0 
5.783919974445e-03 -1.849617728503e-02 0.0 
9.479237874990e-03 -1.931204349644e-02 0.0 
1.228908418810e-02 -2.178680875283e-02 0.0 
1.631014099694e-02 -2.296179771451e-02 0.0 
1.962914514649e-02 -2.551698655029e-02 0.0 
2.016751740068e-02 -2.438943462434e-02 0.0 
1.670696536477e-02 -2.145592148987e-02 0.0 
2.367469470681e-02 -2.707773561311e-02 0.0 
1.500791372353e-03 1.254738692129e-02 0.0 
2.794645253477e-03 1.087675562525e-02 0.0 
1.502329458931e-03 2.739293511416e-04 0.0 
2.834685219587e-02 3.871422890948e-02 0.0 
3.827653139155e-02 -3.606425180270e-02 0.0 
3.114785820453e-03 2.338271749725e-03 0.0 
4.820026515737e-03 1.971974156272e-03 0.0 
3.867883440735e-03 1.954453085858e-03 0.0 
2.669116243957e-04 6.500198894527e-04 0.0 
4.201176008358e-04 5.934311095279e-04 0.0 
1.781754871392e-03 2.270507734674e-03 0.0 
2.051815456757e-02 -1.783117681749e-02 0.0 
2.209689138253e-02 3.943677679104e-03 0.0 
6.701335874710e-03 7.302582985299e-03 0.0 
6.911130139737e-02 -3.796597005659e-02 0.0 
2.992834309574e-02 -2.469440241180e-02 0.0 
1.866873408496e-03 9.687045536757e-05 0.0 
7.555421344958e-03 -2.170235215027e-03 0.0 
1.916553582439e-03 5.418739474777e-04 0.0 
3.927518801561e-03 -7.612756615857e-04 0.0 
3.679880309011e-03 1.012410708808e-04 0.0 
5.919665354744e-03 1.271162699921e-04 0.0 
9.154959863638e-03 -1.571197012834e-02 0.0 
1.922524194704e-02 2.288402815410e-02 0.0 
1.255118899356e-02 2.266196053302e-02 0.0 
1.083957932272e-02 1.299410376976e-02 0.0 
1.239977617469e-02 -1.207610166314e-02 0.0 
4.105931622237e-03 -2.996682319818e-03 0.0 
1.979367515403e-02 -2.034819246630e-02 0.0 
1.681492558363e-02 8.103715864702e-04 0.0 
7.473337456398e-02 1.378801162777e-02 0.0 
2.263839036934e-02 -1.080515504526e-02 0.0 
1.310528482939e-02 -9.594146860375e-03 0.0 
2.199284364096e-02 -1.794439049099e-02 0.0 
3.415986042311e-02 -2.829564924681e-02 0.0 
7.263231788997e-02 -1.089754188344e-02 0.0 
1.659863935505e-02 -9.210796772022e-03 0.0 
8.561116659820e-03 -1.426247719608e-03 0.0 
8.250116520858e-03 1.070485374319e-02 0.0 
3.098085519604e-02 -3.077495438965e-02 0.0 
8.600966961306e-03 -1.125197984285e-03 0.0 
1.226571050277e-02 -4.765512971082e-03 0.0 
2.660151683272e-02 2.251392128018e-02 0.0 
2.467589532202e-02 -3.417046992649e-03 0.0 
4.408814270881e-02 -3.835822203281e-02 0.0 
1.597359235988e-02 1.262796499476e-02 0.0 
1.739177602556e-02 5.784851284098e-03 0.0 
3.620152855182e-02 2.871339964799e-02 0.0 
2.204455011204e-02 -2.317732359139e-02 0.0 
2.124598836467e-02 2.782702327044e-02 0.0 
5.449968978000e-03 1.072839840988e-04 0.0 
3.106046170119e-02 1.293512176752e-02 0.0 
1.104441574349e-02 -1.220358596528e-02 0.0 
4.088507762988e-02 -1.502667037152e-02 0.0 
7.447550936520e-02 -8.163012642527e-04 0.0 
7.506927728919e-02 4.105163920967e-02 0.0 
7.279244195820e-03 6.166696910991e-03 0.0 
5.910372173590e-02 -1.178347604604e-02 0.0 
1.592202390508e-02 -1.603569553006e-03 0.0 
3.105512683334e-02 -8.314885435520e-03 0.0 
8.151761019830e-03 -1.001130452973e-02 0.0 
4.972488791650e-03 -2.916079831700e-05 0.0 
5.314378650004e-02 -1.641862659695e-02 0.0 
1.345757777591e-02 8.838163763719e-03 0.0 
4.799617039755e-02 6.572763583833e-04 0.0 
5.456844501037e-02 -2.462183758517e-02 0.0 
2.144687312732e-02 1.111594051762e-02 0.0 
2.824114180694e-02 -1.262370159707e-02 0.0 
2.337141015561e-02 -2.486815724723e-03 0.0 
7.802949099782e-02 1.093933859995e-02 0.0 
6.141010733505e-02 1.224573955445e-03 0.0 
5.330480014788e-02 7.995268919609e-03 0.0 
6.200323303428e-02 -5.482722745018e-03 0.0 
1.318951198915e-03 -3.972542386195e-05 0.0 
6.586025480499e-03 -4.867421010859e-04 0.0 
5.646233764466e-02 -4.231355123934e-02 0.0 
7.984286959433e-02 -1.370421690038e-02 0.0 
3.297433343955e-02 2.285796623109e-02 0.0 
2.977301721183e-02 2.610651603508e-05 0.0 
1.030474883134e-02 5.335985533592e-03 0.0 
7.924163131386e-02 -7.927237421928e-04 0.0 
5.016110668535e-03 -1.610717828804e-04 0.0 
1.776112525972e-02 7.289917258229e-03 0.0 
1.342955800473e-02 -7.073520255713e-03 0.0 
2.633265880222e-03 -1.301211129980e-02 0.0 
6.815798754081e-02 -3.998961957171e-02 0.0 
5.984909639887e-02 -3.193044347539e-02 0.0 
5.910795968512e-02 -1.446952634750e-02 0.0 
1.150982809019e-02 -5.038418701936e-03 0.0 
1.832713575424e-02 3.728924380107e-03 0.0 
3.754917922327e-03 1.937964272051e-04 0.0 
1.392125359307e-02 -2.550406555012e-03 0.0 
6.565887868778e-02 -3.528737977335e-02 0.0 
7.470642476848e-02 3.315455116432e-02 0.0 
2.745476413745e-03 4.206943380853e-04 0.0 
3.538468103572e-02 -1.287418963555e-02 0.0 
1.886346056483e-02 -1.669811165593e-03 0.0 
1.482579621949e-03 -1.608169318431e-03 0.0 
1.601727968889e-02 6.778645552087e-04 0.0 
8.938517156495e-02 2.102052473038e-02 0.0 
1.953202843469e-03 5.433398705468e-04 0.0 
1.726930795636e-02 -3.051671074026e-03 0.0 
7.312241352483e-02 -2.508327157767e-02 0.0 
7.876143878117e-03 3.332683660459e-02 0.0 
1.129844450731e-03 5.184785951791e-04 0.0 
1.303447293851e-02 -1.420717139537e-03 0.0 
5.591804383112e-02 -4.450977713866e-03 0.0 
3.436987299311e-02 -1.411652312999e-02 0.0 
8.558941185999e-02 3.750456302018e-02 0.0 
9.048907358985e-03 -3.552453391252e-03 0.0 
5.843216680610e-02 3.011302644884e-03 0.0 
7.936758085176e-03 1.725697988112e-03 0.0 
1.246849912583e-02 -9.124453848730e-04 0.0 
4.608040791785e-02 1.753042945975e-02 0.0 
8.320820748360e-03 -3.741819271724e-03 0.0 
4.119015725404e-02 -6.470725344953e-03 0.0 
1.312224520424e-02 -2.027137915259e-02 0.0 
8.433241605564e-02 2.914013222749e-02 0.0 
6.360354619654e-03 -2.539584505411e-03 0.0 
5.522284698590e-02 -3.044335410494e-02 0.0 
2.931171691147e-02 -1.175268389096e-02 0.0 
1.286627880988e-02 -3.318692587021e-05 0.0 
4.746446462236e-03 -1.612647870429e-03 0.0 
5.255176068585e-02 -2.662004362964e-02 0.0 
3.416760282210e-03 -9.140582128893e-04 0.0 
9.034268131025e-02 2.974407625763e-02 0.0 
4.593875966332e-02 1.414864892484e-02 0.0 
2.302309321180e-03 -4.036870357613e-04 0.0 
5.191238998754e-02 2.184160451613e-03 0.0 
2.023004342005e-02 -2.297501123003e-02 0.0 
5.099760808000e-02 -5.129043801187e-03 0.0 
6.473508559509e-04 6.567046442200e-04 0.0 
2.515915780623e-02 -1.794440454634e-02 0.0 
2.469661479294e-02 -9.523305132441e-03 0.0 
4.050416368093e-02 1.040814226627e-02 0.0 
9.099916827718e-02 2.062199704542e-02 0.0 
2.106753667440e-02 -6.774358711743e-03 0.0 
4.442266037077e-02 1.688075518946e-03 0.0 
4.564541201036e-02 -5.238872789037e-03 0.0 
5.381102329407e-02 -1.173831826048e-02 0.0 
1.743872059410e-02 -4.430847521091e-03 0.0 
9.049708324793e-02 1.123434760238e-02 0.0 
2.424990491641e-02 -2.111034007589e-02 0.0 
2.664551803012e-02 -2.426388946535e-02 0.0 
4.734451029141e-02 -2.437441202881e-02 0.0 
4.033324284850e-02 2.389276654330e-03 0.0 
7.317758332869e-03 -1.682761900171e-02 0.0 
4.429616334563e-02 8.313803059378e-03 0.0 
3.300546413402e-02 -3.083087105050e-02 0.0 
4.526027090651e-02 -2.573249709180e-02 0.0 
3.195042161825e-02 -2.701712118579e-03 0.0 
1.911196052788e-03 1.999555092902e-02 0.0 
4.011343518189e-02 -2.285285554936e-02 0.0 
2.188974742796e-03 -1.047865045717e-02 0.0 
3.809207365366e-02 -2.370717783452e-02 0.0 
4.776139978577e-02 -9.025145108482e-03 0.0 
3.319717080774e-02 -2.048584059442e-02 0.0 
3.129641457123e-02 -2.094453707239e-02 0.0 
5.244273901870e-03 4.372982303725e-03 0.0 
2.684237121228e-02 -1.770311097698e-02 0.0 
9.653907748187e-04 1.797320204903e-03 0.0 
1.722154917175e-04 3.494801448849e-04 0.0 
2.808588102439e-03 2.879907472337e-02 0.0 
8.854273798986e-02 1.105003935966e-02 0.0 
5.674023108624e-02 -4.863481601358e-02 0.0 
8.837366543533e-02 -5.796599702322e-04 0.0 
2.760923045843e-02 -2.132400702804e-02 0.0 
4.710075995400e-02 5.834320489269e-03 0.0 
5.816463054528e-03 2.887734943123e-02 0.0 
2.585808925800e-02 -2.124413727387e-02 0.0 
1.951740856236e-02 2.099915842783e-03 0.0 
6.883302077549e-03 4.009878619569e-04 0.0 
3.217459186343e-03 1.411723311121e-02 0.0 
1.508443572178e-02 -1.000965305235e-03 0.0 
3.976769280961e-02 -4.794828491520e-03 0.0 
9.134247515811e-04 6.444441062906e-03 0.0 
1.834104753016e-02 3.638422644634e-02 0.0 
3.810434347562e-02 -3.607615621797e-02 0.0 
5.966707956721e-04 2.247454622415e-04 0.0 
8.403701660000e-02 -6.707017643323e-04 0.0 
8.334950725461e-02 -1.238938414541e-02 0.0 
7.715508126381e-02 -2.401446232355e-02 0.0 
5.673797743885e-03 -8.344740977259e-03 0.0 
4.422958279268e-02 -4.073452377383e-02 0.0 
7.923102829822e-02 -1.266539027265e-02 0.0 
8.666108997691e-03 7.721649781235e-05 0.0 
2.912904344137e-02 3.494236980159e-02 0.0 
3.044616711090e-02 -1.738986663213e-03 0.0 
7.262150687654e-02 -2.450799381044e-02 0.0 
1.330237242879e-02 4.168816929012e-03 0.0 
1.343936840782e-02 2.900169071977e-04 0.0 
9.714546475235e-04 2.656644223835e-04 0.0 
2.198005923301e-02 -4.457087284417e-04 0.0 
7.006997779772e-02 -3.460645408806e-02 0.0 
4.103466528058e-02 3.093116987981e-02 0.0 
1.747996691063e-02 1.027924832526e-03 0.0 
4.271646911252e-03 1.149650160690e-02 0.0 
6.719268391461e-04 2.773386814420e-04 0.0 
3.723443054800e-02 3.734299898546e-02 0.0 
3.202068348010e-03 3.964671402997e-03 0.0 
5.385647632819e-02 -4.336635534082e-02 0.0 
1.611300295546e-03 3.746409471171e-03 0.0 
3.959395321238e-02 4.078925573692e-03 0.0 
1.099548244795e-02 2.429974265076e-02 0.0 
4.924426030025e-02 2.892014189161e-02 0.0 
4.965796385366e-04 5.168073556378e-04 0.0 
1.921633101835e-02 2.702717092462e-03 0.0 
6.619063513536e-02 -3.957120439333e-02 0.0 
5.075990178834e-03 1.473454123058e-02 0.0 
6.178743509486e-03 -6.086208790417e-03 0.0 
5.455905777890e-02 -4.791236708344e-02 0.0 
2.807637233361e-03 3.458398662153e-04 0.0 
3.110182243660e-02 2.857100920933e-03 0.0 
8.467704983869e-04 5.034550379273e-04 0.0 
2.626262210354e-03 -1.842308557158e-02 0.0 
3.189029395785e-02 -3.119118158035e-02 0.0 
3.411164421989e-03 2.731515713787e-04 0.0 
1.761263242645e-02 1.481237767069e-03 0.0 
4.967642267243e-02 -4.060765164822e-02 0.0 
5.104365794892e-03 1.480683637898e-03 0.0 
6.200432872450e-02 -4.311038396520e-02 0.0 
2.529585089099e-02 3.930432853187e-02 0.0 
2.373133934244e-02 -2.615982369368e-02 0.0 
5.169583287208e-04 2.873676673504e-04 0.0 
7.873571333674e-03 4.034812876847e-03 0.0 
3.514820155110e-03 -3.995271267583e-03 0.0 
5.638496777970e-02 4.008195524557e-02 0.0 
4.085095462124e-03 -9.200112480727e-03 0.0 
2.207013701267e-02 4.134010604700e-04 0.0 
3.845856811897e-02 -3.607824419297e-02 0.0 
5.423990478361e-03 3.714570694362e-03 0.0 
4.429355238522e-03 2.166745019356e-04 0.0 
1.518955046926e-02 3.232944309625e-03 0.0 
3.650136758388e-03 2.421369587621e-04 0.0 
5.908035473342e-02 -4.724758204902e-02 0.0 
1.224113383767e-02 4.058395427063e-04 0.0 
9.060827713393e-03 -2.253846821990e-04 0.0 
1.376519414904e-02 3.529780414507e-02 0.0 
1.772461470385e-02 3.083864734384e-03 0.0 
4.816677136579e-03 -6.740779293449e-03 0.0 
1.631175483638e-02 -1.988523046789e-02 0.0 
4.506510947076e-04 1.594572949275e-03 0.0 
3.170610768318e-03 -2.250334524780e-02 0.0 
2.346157856691e-03 3.344763637119e-02 0.0 
6.904141457509e-05 2.800843801550e-04 0.0 
1.041778684175e-02 -1.803923346558e-02 0.0 
4.372191829822e-03 2.545768451790e-02 0.0 
1.726103415264e-02 1.651595854509e-03 0.0 
6.287012825804e-04 -1.374950989704e-03 0.0 
2.065247131839e-03 8.357270408723e-03 0.0 
4.496636288335e-02 -4.031517467481e-02 0.0 
5.512403291625e-02 -4.905057154575e-02 0.0 
3.166452658800e-03 1.801791331639e-02 0.0 
1.114159431220e-02 2.697756875797e-04 0.0 
1.246295090636e-02 3.364094940593e-03 0.0 
8.514205712353e-03 2.148796303572e-02 0.0 
6.710278560836e-02 -4.067987427199e-02 0.0 
2.392181209316e-02 2.134278151077e-03 0.0 
3.228044578817e-03 -3.075552584469e-03 0.0 
2.364645922512e-02 9.745419447543e-04 0.0 
1.129206065398e-02 -3.265154383651e-04 0.0 
5.955874634518e-02 -4.256282394985e-02 0.0 
4.746988230782e-04 -6.928528441200e-04 0.0 
2.692251679672e-02 -2.800971916462e-02 0.0 
1.664416978993e-03 4.097321678876e-04 0.0 
1.952311230998e-03 -2.341135045331e-03 0.0 

TENSORS node_materi_stress float
-4.672548332142e+00 -2.199478681207e-02 0.0 
-2.199478681207e-02 -8.467392947524e+00 0.0 
0.0 0.0 -4.672171706994e+00 
-8.079761295257e+01 -2.392804172730e-02 0.0 
-2.392804172730e-02 -6.868870196981e+01 0.0 
0.0 0.0 -6.868864544316e+01 
-3.288964651581e+02 6.564412154082e-01 0.0 
6.564412154082e-01 -3.747654270963e+02 0.0 
0.0 0.0 -3.288816035959e+02 
-1.862885258133e+02 5.376647784374e+00 0.0 
5.376647784374e+00 -2.046425182746e+02 0.0 
0.0 0.0 -1.796249444692e+02 
-1.547978074897e+01 -4.250744885880e-02 0.0 
-4.250744885880e-02 -2.067742458933e+01 0.0 
0.0 0.0 -1.547908971091e+01 
-3.259462630888e+01 -5.638117476828e-02 0.0 
-5.638117476828e-02 -4.001431040526e+01 0.0 
0.0 0.0 -3.259367253344e+01 
-4.885729317965e+01 -5.502826755358e-02 0.0 
-5.502826755358e-02 -5.838764746074e+01 0.0 
0.0 0.0 -4.885574666443e+01 
-6.640565340319e+01 -4.455125656256e-02 0.0 
-4.455125656256e-02 -7.821285806795e+01 0.0 
0.0 0.0 -6.640314562777e+01 
-8.205757984778e+01 -5.014154542153e-02 0.0 
-5.014154542153e-02 -9.589893394063e+01 0.0 
0.0 0.0 -8.205579037909e+01 
-9.404370328848e+01 -5.635914847086e-02 0.0 
-5.635914847086e-02 -1.094434546069e+02 0.0 
0.0 0.0 -9.404277444236e+01 
-1.072374820247e+02 -2.624835542726e-02 0.0 
-2.624835542726e-02 -1.243500376846e+02 0.0 
0.0 0.0 -1.072362758607e+02 
-1.249461903112e+02 -4.354798002395e-02 0.0 
-4.354798002395e-02 -1.443584713092e+02 0.0 
0.0 0.0 -1.249449861112e+02 
-1.433012787340e+02 -3.366276537129e-02 0.0 
-3.366276537129e-02 -1.650960272832e+02 0.0 
0.0 0.0 -1.432995134554e+02 
-1.617801434698e+02 1.059011636112e-02 0.0 
1.059011636112e-02 -1.859725859999e+02 0.0 
0.0 0.0 -1.617774191343e+02 
-1.795295369280e+02 3.931992804856e-02 0.0 
3.931992804856e-02 -2.060299860624e+02 0.0 
0.0 0.0 -1.795282220329e+02 
-1.972880503638e+02 1.195892519666e-01 0.0 
1.195892519666e-01 -2.260955973724e+02 0.0 
0.0 0.0 -1.972871621769e+02 
-2.145951011942e+02 2.312286822019e-01 0.0 
2.312286822019e-01 -2.456446296472e+02 0.0 
0.0 0.0 -2.145915936267e+02 
-2.318315750090e+02 2.263196437507e-01 0.0 
2.263196437507e-01 -2.651168463409e+02 0.0 
0.0 0.0 -2.318268222509e+02 
-2.498623925459e+02 2.381812056706e-01 0.0 
2.381812056706e-01 -2.854868026764e+02 0.0 
0.0 0.0 -2.498565069897e+02 
-2.672261943997e+02 2.900447323069e-01 0.0 
2.900447323069e-01 -3.051029326333e+02 0.0 
0.0 0.0 -2.672190870883e+02 
-2.844536273101e+02 3.513166709004e-01 0.0 
3.513166709004e-01 -3.245643574550e+02 0.0 
0.0 0.0 -2.844450039548e+02 
-3.016451260545e+02 4.677462103140e-01 0.0 
4.677462103140e-01 -3.439832627407e+02 0.0 
0.0 0.0 -3.016340857430e+02 
-3.171988687187e+02 4.984719486785e-01 0.0 
4.984719486785e-01 -3.615581979311e+02 0.0 
0.0 0.0 -3.171884498169e+02 
-1.880247321455e+02 9.929779452118e+00 0.0 
9.929779452118e+00 -2.057999306886e+02 0.0 
0.0 0.0 -1.834088174135e+02 
-1.869138410040e+02 1.187184264176e+01 0.0 
1.187184264176e+01 -1.980499772905e+02 0.0 
0.0 0.0 -1.792485305896e+02 
-1.922302936956e+02 1.298882414285e+01 0.0 
1.298882414285e+01 -1.982089018394e+02 0.0 
0.0 0.0 -1.818192945487e+02 
-1.864206802018e+02 1.279140908683e+01 0.0 
1.279140908683e+01 -1.908335209120e+02 0.0 
0.0 0.0 -1.756287606421e+02 
-1.914610757573e+02 1.315157486464e+01 0.0 
1.315157486464e+01 -1.931517710132e+02 0.0 
0.0 0.0 -1.790837446937e+02 
-1.879170583426e+02 1.293943182215e+01 0.0 
1.293943182215e+01 -1.882963308375e+02 0.0 
0.0 0.0 -1.751400853071e+02 
-1.933177326675e+02 1.325157509975e+01 0.0 
1.325157509975e+01 -1.930495294184e+02 0.0 
0.0 0.0 -1.799074665057e+02 
-1.911954125967e+02 1.312478821433e+01 0.0 
1.312478821433e+01 -1.907611595498e+02 0.0 
0.0 0.0 -1.778365876908e+02 
-2.029037543666e+02 1.381109248664e+01 0.0 
1.381109248664e+01 -2.019723110705e+02 0.0 
0.0 0.0 -1.885976009916e+02 
-1.957396647799e+02 1.341886022928e+01 0.0 
1.341886022928e+01 -1.954960112955e+02 0.0 
0.0 0.0 -1.821932529771e+02 
-2.063968316572e+02 1.403221526278e+01 0.0 
1.403221526278e+01 -2.054538461429e+02 0.0 
0.0 0.0 -1.918722761973e+02 
-2.038637285331e+02 1.388693509391e+01 0.0 
1.388693509391e+01 -2.029976192410e+02 0.0 
0.0 0.0 -1.895297180049e+02 
-2.184831299940e+02 1.478720147363e+01 0.0 
1.478720147363e+01 -2.178156736026e+02 0.0 
0.0 0.0 -2.033510032153e+02 
-2.209291460327e+02 1.495030012580e+01 0.0 
1.495030012580e+01 -2.205280139352e+02 0.0 
0.0 0.0 -2.057729215718e+02 
-2.299946283400e+02 1.550684855682e+01 0.0 
1.550684855682e+01 -2.296824784000e+02 0.0 
0.0 0.0 -2.143274339718e+02 
-2.353603819318e+02 1.584715678686e+01 0.0 
1.584715678686e+01 -2.353926284753e+02 0.0 
0.0 0.0 -2.195277211321e+02 
-2.406728911055e+02 1.617461521776e+01 0.0 
1.617461521776e+01 -2.408106332593e+02 0.0 
0.0 0.0 -2.245658431341e+02 
-2.540735463460e+02 1.700178304537e+01 0.0 
1.700178304537e+01 -2.545939936775e+02 0.0 
0.0 0.0 -2.373291075904e+02 
-2.633870739640e+02 1.757952991813e+01 0.0 
1.757952991813e+01 -2.643647325978e+02 0.0 
0.0 0.0 -2.462894298563e+02 
-2.707926724069e+02 1.803676391387e+01 0.0 
1.803676391387e+01 -2.721547557182e+02 0.0 
0.0 0.0 -2.534239805064e+02 
-2.798808911347e+02 1.859553005895e+01 0.0 
1.859553005895e+01 -2.817959046597e+02 0.0 
0.0 0.0 -2.622176729344e+02 
-2.880596432483e+02 1.909540899632e+01 0.0 
1.909540899632e+01 -2.905474773695e+02 0.0 
0.0 0.0 -2.701666903189e+02 
-2.973479166526e+02 1.965847827459e+01 0.0 
1.965847827459e+01 -3.005071140455e+02 0.0 
0.0 0.0 -2.792038454498e+02 
-3.045042372133e+02 2.008501028588e+01 0.0 
2.008501028588e+01 -3.084184178210e+02 0.0 
0.0 0.0 -2.862782996638e+02 
-3.111146681153e+02 2.047203885665e+01 0.0 
2.047203885665e+01 -3.158048119311e+02 0.0 
0.0 0.0 -2.928499990559e+02 
-3.166484149390e+02 2.077425780541e+01 0.0 
2.077425780541e+01 -3.224259606688e+02 0.0 
0.0 0.0 -2.985568875611e+02 
-3.259414690871e+02 2.129515787679e+01 0.0 
2.129515787679e+01 -3.328846001918e+02 0.0 
0.0 0.0 -3.078305759281e+02 
-3.271585734797e+02 2.129120787817e+01 0.0 
2.129120787817e+01 -3.353989791607e+02 0.0 
0.0 0.0 -3.095825580325e+02 
-3.322623195947e+02 2.150969442926e+01 0.0 
2.150969442926e+01 -3.418743640473e+02 0.0 
0.0 0.0 -3.150191172591e+02 
-3.349568400425e+02 2.155253561290e+01 0.0 
2.155253561290e+01 -3.459974858213e+02 0.0 
0.0 0.0 -3.182200928522e+02 
-3.392668845024e+02 2.164680272937e+01 0.0 
2.164680272937e+01 -3.519829045789e+02 0.0 
0.0 0.0 -3.230539526246e+02 
-3.404762170091e+02 2.137859183048e+01 0.0 
2.137859183048e+01 -3.557552301507e+02 0.0 
0.0 0.0 -3.253929087334e+02 
-3.428114782015e+02 2.107805094262e+01 0.0 
2.107805094262e+01 -3.608733840942e+02 0.0 
0.0 0.0 -3.288923883422e+02 
-3.408488995510e+02 2.052417104569e+01 0.0 
2.052417104569e+01 -3.610590243023e+02 0.0 
0.0 0.0 -3.280580916162e+02 
-3.412611581179e+02 1.987887820457e+01 0.0 
1.987887820457e+01 -3.643434744830e+02 0.0 
0.0 0.0 -3.297937465671e+02 
-3.422916760893e+02 1.919473093907e+01 0.0 
1.919473093907e+01 -3.681420051472e+02 0.0 
0.0 0.0 -3.320610504703e+02 
-3.388176461662e+02 1.812302051293e+01 0.0 
1.812302051293e+01 -3.671304712355e+02 0.0 
0.0 0.0 -3.299550173449e+02 
-3.392822927222e+02 1.707872954144e+01 0.0 
1.707872954144e+01 -3.704447754860e+02 0.0 
0.0 0.0 -3.317292860592e+02 
-3.367447543166e+02 1.571682378253e+01 0.0 
1.571682378253e+01 -3.704259593924e+02 0.0 
0.0 0.0 -3.305290429116e+02 
-3.356023388184e+02 1.435972182820e+01 0.0 
1.435972182820e+01 -3.716440881154e+02 0.0 
0.0 0.0 -3.305645912987e+02 
-3.350518427694e+02 1.314638591136e+01 0.0 
1.314638591136e+01 -3.729689176802e+02 0.0 
0.0 0.0 -3.309281513983e+02 
-3.340270505768e+02 1.169264925885e+01 0.0 
1.169264925885e+01 -3.737877689988e+02 0.0 
0.0 0.0 -3.308314593617e+02 
-3.324728437051e+02 1.029856115312e+01 0.0 
1.029856115312e+01 -3.736343762265e+02 0.0 
0.0 0.0 -3.300297181430e+02 
-3.303408998368e+02 8.619819456117e+00 0.0 
8.619819456117e+00 -3.728106775334e+02 0.0 
0.0 0.0 -3.286420038287e+02 
-3.306873585886e+02 7.042992938731e+00 0.0 
7.042992938731e+00 -3.744496541111e+02 0.0 
0.0 0.0 -3.295741926741e+02 
-3.300294407242e+02 5.642900076754e+00 0.0 
5.642900076754e+00 -3.745601181950e+02 0.0 
0.0 0.0 -3.293171556909e+02 
-3.304705306739e+02 4.382491260432e+00 0.0 
4.382491260432e+00 -3.756643884281e+02 0.0 
0.0 0.0 -3.300427232796e+02 
-3.301306187367e+02 2.884575943372e+00 0.0 
2.884575943372e+00 -3.757880956638e+02 0.0 
0.0 0.0 -3.299412122366e+02 
-3.297868595324e+02 1.712192908269e+00 0.0 
1.712192908269e+00 -3.756558992784e+02 0.0 
0.0 0.0 -3.297177446248e+02 
-8.506303834226e+01 8.822642426846e-03 0.0 
8.822642426846e-03 -7.246396266232e+01 0.0 
0.0 0.0 -7.246385673518e+01 
-9.449120575141e+01 9.529865835220e-02 0.0 
9.529865835220e-02 -8.081030190735e+01 0.0 
0.0 0.0 -8.080922895155e+01 
-1.021674441869e+02 1.219176654529e-01 0.0 
1.219176654529e-01 -8.760510925586e+01 0.0 
0.0 0.0 -8.760358143497e+01 
-1.125051780203e+02 2.735783633732e-01 0.0 
2.735783633732e-01 -9.676525418287e+01 0.0 
0.0 0.0 -9.675810025518e+01 
-1.304355922221e+02 3.671864464220e-01 0.0 
3.671864464220e-01 -1.126364887218e+02 0.0 
0.0 0.0 -1.126284332977e+02 
-1.526804375283e+02 7.846094775831e-01 0.0 
7.846094775831e-01 -1.323788289699e+02 0.0 
0.0 0.0 -1.323419870174e+02 
-1.727686855429e+02 1.257741491336e+00 0.0 
1.257741491336e+00 -1.507804574655e+02 0.0 
0.0 0.0 -1.501570835641e+02 
-1.788961745378e+02 2.374329876805e+00 0.0 
2.374329876805e+00 -1.678561457564e+02 0.0 
0.0 0.0 -1.563946977134e+02 
-1.892945535789e+02 3.300141477243e+00 0.0 
3.300141477243e+00 -1.965842453371e+02 0.0 
0.0 0.0 -1.725792272822e+02 
-5.254433543781e+00 1.027909640987e-01 0.0 
1.027909640987e-01 -6.358974089522e+00 0.0 
0.0 0.0 -4.058431440857e+00 
-1.406025804375e+02 5.522645388220e+00 0.0 
5.522645388220e+00 -1.250579543439e+02 0.0 
0.0 0.0 -1.232340190804e+02 
-8.075131458083e+00 1.173297576501e+00 0.0 
1.173297576501e+00 -1.101077356900e+01 0.0 
0.0 0.0 -7.463882420694e+00 
-9.593952207588e+00 1.741350523394e+00 0.0 
1.741350523394e+00 -1.209970322687e+01 0.0 
0.0 0.0 -8.688256644992e+00 
-1.375544774603e+01 2.308536317850e+00 0.0 
2.308536317850e+00 -1.464515809926e+01 0.0 
0.0 0.0 -1.183726092984e+01 
-1.741346229003e+01 2.554688399007e+00 0.0 
2.554688399007e+00 -1.738835705677e+01 0.0 
0.0 0.0 -1.484271758447e+01 
-2.483643693223e+01 2.952744753671e+00 0.0 
2.952744753671e+00 -2.399249730545e+01 0.0 
0.0 0.0 -2.142863848589e+01 
-3.474461275080e+01 3.477005970109e+00 0.0 
3.477005970109e+00 -3.317032568605e+01 0.0 
0.0 0.0 -3.038977660714e+01 
-4.647586708160e+01 4.081634998676e+00 0.0 
4.081634998676e+00 -4.407674152351e+01 0.0 
0.0 0.0 -4.101847012540e+01 
-6.303706025377e+01 4.852363225210e+00 0.0 
4.852363225210e+00 -5.919355196636e+01 0.0 
0.0 0.0 -5.589172294655e+01 
-9.354365994443e+01 5.926878881151e+00 0.0 
5.926878881151e+00 -8.622156518666e+01 0.0 
0.0 0.0 -8.290500491316e+01 
-7.922341991733e+01 5.640325943442e-02 0.0 
5.640325943442e-02 -6.729645800229e+01 0.0 
0.0 0.0 -6.729586299208e+01 
-7.961972027876e+01 8.881310718276e-02 0.0 
8.881310718276e-02 -6.764751769229e+01 0.0 
0.0 0.0 -6.764675868388e+01 
-7.980691318362e+01 4.720844258396e-02 0.0 
4.720844258396e-02 -6.781331111385e+01 0.0 
0.0 0.0 -6.781249055698e+01 
-7.969352947984e+01 -2.634979180934e-03 0.0 
-2.634979180934e-03 -6.771184252444e+01 0.0 
0.0 0.0 -6.771161448807e+01 
-8.316437097126e+01 1.502306716309e-01 0.0 
1.502306716309e-01 -7.079097766698e+01 0.0 
0.0 0.0 -7.078691745329e+01 
-8.089718705813e+01 1.628138043743e-01 0.0 
1.628138043743e-01 -6.878218454170e+01 0.0 
0.0 0.0 -6.877928817454e+01 
-8.399265397604e+01 1.611762927066e-01 0.0 
1.611762927066e-01 -7.152154438488e+01 0.0 
0.0 0.0 -7.151881856414e+01 
-8.378524168591e+01 2.184616991814e-01 0.0 
2.184616991814e-01 -7.134012640821e+01 0.0 
0.0 0.0 -7.133625747435e+01 
-8.650058119877e+01 2.485281761814e-01 0.0 
2.485281761814e-01 -7.374659683983e+01 0.0 
0.0 0.0 -7.374101678721e+01 
-8.893022995772e+01 2.426319492903e-01 0.0 
2.426319492903e-01 -7.589595570838e+01 0.0 
0.0 0.0 -7.589092304208e+01 
-9.337791282905e+01 4.947522559191e-01 0.0 
4.947522559191e-01 -7.986180141898e+01 0.0 
0.0 0.0 -7.984118895018e+01 
-9.897533557334e+01 8.286094937587e-01 0.0 
8.286094937587e-01 -8.487198164336e+01 0.0 
0.0 0.0 -8.482160257399e+01 
-1.100192692158e+02 1.408374766108e+00 0.0 
1.408374766108e+00 -9.480949563643e+01 0.0 
0.0 0.0 -9.467267712495e+01 
-1.273273080428e+02 3.033059460316e+00 0.0 
3.033059460316e+00 -1.110220171959e+02 0.0 
0.0 0.0 -1.104110353685e+02 
-4.848452551398e+00 -1.042308857577e+00 0.0 
-1.042308857577e+00 -7.319635183271e+00 0.0 
0.0 0.0 -4.167163460326e+00 
-5.451149411427e+00 -7.145995836969e-01 0.0 
-7.145995836969e-01 -8.982160762433e+00 0.0 
0.0 0.0 -5.279425964180e+00 
-4.414476218675e+00 -4.417756745653e-01 0.0 
-4.417756745653e-01 -8.051574882153e+00 0.0 
0.0 0.0 -4.355771117950e+00 
-3.845580208459e+00 -2.186024645221e-01 0.0 
-2.186024645221e-01 -7.501096284237e+00 0.0 
0.0 0.0 -3.830209540565e+00 
-4.530020400843e+00 -1.426244499490e-01 0.0 
-1.426244499490e-01 -8.295480321326e+00 0.0 
0.0 0.0 -4.524537595776e+00 
-4.916536767281e+00 -1.209694450176e-01 0.0 
-1.209694450176e-01 -8.735569825835e+00 0.0 
0.0 0.0 -4.912640275839e+00 
-4.763449028908e+00 -8.990029559588e-02 0.0 
-8.990029559588e-02 -8.566304395781e+00 0.0 
0.0 0.0 -4.761291086352e+00 
-4.626573441584e+00 -6.842359269359e-02 0.0 
-6.842359269359e-02 -8.413590134351e+00 0.0 
0.0 0.0 -4.625324720311e+00 
-4.545246473568e+00 -5.449216079172e-02 0.0 
-5.449216079172e-02 -8.322666867677e+00 0.0 
0.0 0.0 -4.544450896310e+00 
-4.573307481749e+00 -3.939991260005e-02 0.0 
-3.939991260005e-02 -8.355158930928e+00 0.0 
0.0 0.0 -4.572881385537e+00 
-4.527586140107e+00 -2.646613999372e-02 0.0 
-2.646613999372e-02 -8.304007207389e+00 0.0 
0.0 0.0 -4.527398166092e+00 
-4.964239698347e+00 -3.033333394301e-02 0.0 
-3.033333394301e-02 -8.797238462056e+00 0.0 
0.0 0.0 -4.963991711727e+00 
-4.689413574484e+00 -2.804093035682e-02 0.0 
-2.804093035682e-02 -8.486767881372e+00 0.0 
0.0 0.0 -4.689186961784e+00 
-4.103027785265e+00 -2.684552476144e-02 0.0 
-2.684552476144e-02 -7.824289525858e+00 0.0 
0.0 0.0 -4.102828288757e+00 
-4.188301614061e+00 -1.783763228535e-02 0.0 
-1.783763228535e-02 -7.920869386753e+00 0.0 
0.0 0.0 -4.188211065276e+00 
-4.301885564753e+00 -1.229807610353e-02 0.0 
-1.229807610353e-02 -8.049310524388e+00 0.0 
0.0 0.0 -4.301845130461e+00 
-4.273812296862e+00 -1.111236791990e-02 0.0 
-1.111236791990e-02 -8.017606019460e+00 0.0 
0.0 0.0 -4.273778654460e+00 
-4.080827562190e+00 -1.077605323395e-02 0.0 
-1.077605323395e-02 -7.799563247603e+00 0.0 
0.0 0.0 -4.080795659214e+00 
-3.368162844984e+00 -5.891565486649e-03 0.0 
-5.891565486649e-03 -6.994320862930e+00 0.0 
0.0 0.0 -3.368117664741e+00 
-7.561899304202e+00 1.377522692150e+00 0.0 
1.377522692150e+00 -8.621707153443e+00 0.0 
0.0 0.0 -6.579959266242e+00 
-8.543323028485e+00 1.361486101756e+00 0.0 
1.361486101756e+00 -1.158907275874e+01 0.0 
0.0 0.0 -7.955224041833e+00 
-1.117053968619e+01 2.046685663016e+00 0.0 
2.046685663016e+00 -1.293043293089e+01 0.0 
0.0 0.0 -9.818524748777e+00 
-1.626994198805e+01 2.487754743543e+00 0.0 
2.487754743543e+00 -1.653546581306e+01 0.0 
0.0 0.0 -1.390537525650e+01 
-2.277512774650e+01 2.849440288388e+00 0.0 
2.849440288388e+00 -2.225612107978e+01 0.0 
0.0 0.0 -1.964557362027e+01 
-3.022746337404e+01 3.251416718037e+00 0.0 
3.251416718037e+00 -2.909483733284e+01 0.0 
0.0 0.0 -2.635541652209e+01 
-3.981839603546e+01 3.746865223597e+00 0.0 
3.746865223597e+00 -3.792878773658e+01 0.0 
0.0 0.0 -3.500614929423e+01 
-5.338917455582e+01 4.418426202448e+00 0.0 
4.418426202448e+00 -5.043143338660e+01 0.0 
0.0 0.0 -4.724797596715e+01 
-7.527465905543e+01 5.333351184057e+00 0.0 
5.333351184057e+00 -7.011609281376e+01 0.0 
0.0 0.0 -6.676572298013e+01 
-1.239794156639e+02 6.355438940947e+00 0.0 
6.355438940947e+00 -1.122526100149e+02 0.0 
0.0 0.0 -1.094169344765e+02 
-1.476756771351e+01 1.313596623791e+00 0.0 
1.313596623791e+00 -1.895157242613e+01 0.0 
0.0 0.0 -1.433438499609e+01 
-3.232659090425e+02 1.919934140325e+01 0.0 
1.919934140325e+01 -3.439382447581e+02 0.0 
0.0 0.0 -3.117642003687e+02 
-1.185546773935e+01 -1.222602286641e-01 0.0 
-1.222602286641e-01 -1.657595987469e+01 0.0 
0.0 0.0 -1.185173216876e+01 
-1.147715779716e+01 -3.150238735912e-01 0.0 
-3.150238735912e-01 -1.610470194964e+01 0.0 
0.0 0.0 -1.145284851967e+01 
-3.255552193992e+02 1.548824712485e+01 0.0 
1.548824712485e+01 -3.576633122642e+02 0.0 
0.0 0.0 -3.192831682185e+02 
-2.592587612622e+01 2.991847461558e+00 0.0 
2.991847461558e+00 -2.713987083195e+01 0.0 
0.0 0.0 -2.341787958560e+01 
-1.716952614491e+02 1.428939898828e-01 0.0 
1.428939898828e-01 -1.971764413364e+02 0.0 
0.0 0.0 -1.716930638595e+02 
-3.122908636866e+02 1.991147730947e+01 0.0 
1.991147730947e+01 -3.248916423872e+02 0.0 
0.0 0.0 -2.976686291271e+02 
-4.372973749862e+01 4.084046017192e+00 0.0 
4.084046017192e+00 -4.285037229850e+01 0.0 
0.0 0.0 -3.915332799646e+01 
-2.939496656499e+02 1.930715848429e+01 0.0 
1.930715848429e+01 -3.008376047638e+02 0.0 
0.0 0.0 -2.777634903422e+02 
-7.183115506886e+01 5.449808989176e+00 0.0 
5.449808989176e+00 -6.813545177886e+01 0.0 
0.0 0.0 -6.421901324352e+01 
-3.239337225241e+02 1.034798634289e+01 0.0 
1.034798634289e+01 -3.637882280673e+02 0.0 
0.0 0.0 -3.213975845526e+02 
-1.118098083960e+01 -2.787779272342e-02 0.0 
-2.787779272342e-02 -1.582142690347e+01 0.0 
0.0 0.0 -1.118078793612e+01 
-2.688526673115e+02 1.791805326809e+01 0.0 
1.791805326809e+01 -2.715793564342e+02 0.0 
0.0 0.0 -2.522429639961e+02 
-1.308674512971e+02 6.349885897664e+00 0.0 
6.349885897664e+00 -1.179050186920e+02 0.0 
0.0 0.0 -1.153048433543e+02 
-1.006453976294e+02 3.045432276593e-02 0.0 
3.045432276593e-02 -1.169023637943e+02 0.0 
0.0 0.0 -1.006444187138e+02 
-2.203050045783e+02 5.630748259942e-01 0.0 
5.630748259942e-01 -2.520761713681e+02 0.0 
0.0 0.0 -2.202921669600e+02 
-2.497957828623e+02 1.673209050256e+01 0.0 
1.673209050256e+01 -2.500697478572e+02 0.0 
0.0 0.0 -2.331964447085e+02 
-2.246839131027e+02 1.508603494251e+01 0.0 
1.508603494251e+01 -2.226434896828e+02 0.0 
0.0 0.0 -2.085290802809e+02 
-2.010893507243e+02 1.354867791944e+01 0.0 
1.354867791944e+01 -1.986305294768e+02 0.0 
0.0 0.0 -1.861767020126e+02 
-2.034910162310e+02 1.332242522084e+01 0.0 
1.332242522084e+01 -1.981886550006e+02 0.0 
0.0 0.0 -1.870968505114e+02 
-2.167305917912e+02 1.448887984501e+01 0.0 
1.448887984501e+01 -2.134817229552e+02 0.0 
0.0 0.0 -2.004933140578e+02 
-1.186596414833e+02 2.819144625064e+00 0.0 
2.819144625064e+00 -1.032366810948e+02 0.0 
0.0 0.0 -1.026861272205e+02 
-9.497046935900e+01 6.841115546771e-01 0.0 
6.841115546771e-01 -8.131531893775e+01 0.0 
0.0 0.0 -8.127136207564e+01 
-8.968682672236e+01 4.579451655452e-01 0.0 
4.579451655452e-01 -7.659527414635e+01 0.0 
0.0 0.0 -7.657449499812e+01 
-1.205857202758e+02 5.943940474914e-01 0.0 
5.943940474914e-01 -1.039478675020e+02 0.0 
0.0 0.0 -1.039243590406e+02 
-3.216047419586e+02 6.287709248370e+00 0.0 
6.287709248370e+00 -3.646251242111e+02 0.0 
0.0 0.0 -3.206970306571e+02 
-1.156232253892e+01 -6.885083575186e-01 0.0 
-6.885083575186e-01 -1.597788543710e+01 0.0 
0.0 0.0 -1.143329244774e+01 
-1.200505675483e+01 -1.796714865924e-02 0.0 
-1.796714865924e-02 -1.675278331014e+01 0.0 
0.0 0.0 -1.200498724651e+01 
-2.754817743765e+02 9.243631697703e-01 0.0 
9.243631697703e-01 -3.143836260993e+02 0.0 
0.0 0.0 -2.754526055773e+02 
-8.356706444515e+01 1.185333770126e-01 0.0 
1.185333770126e-01 -7.114384690144e+01 0.0 
0.0 0.0 -7.114166440389e+01 
-5.780963625387e+01 -1.068167545498e-02 0.0 
-1.068167545498e-02 -6.850308050150e+01 0.0 
0.0 0.0 -5.780832645266e+01 
-2.321926194596e+02 1.555826763711e+01 0.0 
1.555826763711e+01 -2.305279763382e+02 0.0 
0.0 0.0 -2.157563934089e+02 
-3.056307974170e+02 1.987135403629e+01 0.0 
1.987135403629e+01 -3.147990567235e+02 0.0 
0.0 0.0 -2.898030315769e+02 
-2.831454432612e+02 1.874936307114e+01 0.0 
1.874936307114e+01 -2.878419392256e+02 0.0 
0.0 0.0 -2.665891198057e+02 
-3.165505590665e+02 1.965037514974e+01 0.0 
1.965037514974e+01 -3.326569560830e+02 0.0 
0.0 0.0 -3.033145341637e+02 
-3.271204717684e+02 1.828036539641e+01 0.0 
1.828036539641e+01 -3.522905863333e+02 0.0 
0.0 0.0 -3.174955076835e+02 
-1.233602137938e+01 -2.460123486393e-01 0.0 
-2.460123486393e-01 -1.709568038458e+01 0.0 
0.0 0.0 -1.232137446388e+01 
-1.021147522322e+02 1.193203209279e+00 0.0 
1.193203209279e+00 -8.776380180006e+01 0.0 
0.0 0.0 -8.765335015101e+01 
-3.219198897266e+02 1.282385921156e+01 0.0 
1.282385921156e+01 -3.581909401875e+02 0.0 
0.0 0.0 -3.178240600508e+02 
-1.628527996719e+02 1.802673360428e+00 0.0 
1.802673360428e+00 -1.416531517537e+02 0.0 
0.0 0.0 -1.414724696378e+02 
-1.201460380882e+01 -8.991766965190e-02 0.0 
-8.991766965190e-02 -1.675918095643e+01 0.0 
0.0 0.0 -1.201247349978e+01 
-1.342709074271e+02 8.038599620371e-02 0.0 
8.038599620371e-02 -1.548933775221e+02 0.0 
0.0 0.0 -1.342693489181e+02 
-1.993668381386e+02 1.358781887890e+01 0.0 
1.358781887890e+01 -2.017557363960e+02 0.0 
0.0 0.0 -1.868352860480e+02 
-3.581844215229e+01 3.638315126174e+00 0.0 
3.638315126174e+00 -3.612595088236e+01 0.0 
0.0 0.0 -3.228166025274e+01 
-1.981013599403e+01 2.329536578855e+00 0.0 
2.329536578855e+00 -2.257708729671e+01 0.0 
0.0 0.0 -1.840416773075e+01 
-5.612139625439e+01 4.738333530690e+00 0.0 
4.738333530690e+00 -5.414526967057e+01 0.0 
0.0 0.0 -5.027448771452e+01 
-9.372724391283e+01 6.114261946530e+00 0.0 
6.114261946530e+00 -8.693211140375e+01 0.0 
0.0 0.0 -8.332481117574e+01 
-9.896861353891e+00 3.776416471725e-01 0.0 
3.776416471725e-01 -1.346220709929e+01 0.0 
0.0 0.0 -9.709563385907e+00 
-9.971008030967e+01 2.303149258315e-01 0.0 
2.303149258315e-01 -8.543529771293e+01 0.0 
0.0 0.0 -8.543105974743e+01 
-3.237169660665e+02 3.550684106218e+00 0.0 
3.550684106218e+00 -3.683307656005e+02 0.0 
0.0 0.0 -3.234285975031e+02 
-1.132382633738e+01 -3.394374465960e-02 0.0 
-3.394374465960e-02 -1.598249156512e+01 0.0 
0.0 0.0 -1.132347788246e+01 
-1.815144601787e+02 5.103308038417e+00 0.0 
5.103308038417e+00 -1.782186428602e+02 0.0 
0.0 0.0 -1.623226532264e+02 
-1.235163681246e+02 5.336907810480e+00 0.0 
5.336907810480e+00 -1.100617461540e+02 0.0 
0.0 0.0 -1.081708870393e+02 
-1.310046776230e+02 6.551266935718e+00 0.0 
6.551266935718e+00 -1.184195267430e+02 0.0 
0.0 0.0 -1.156108414935e+02 
-1.373862540909e+02 5.913440070000e+00 0.0 
5.913440070000e+00 -1.227825727196e+02 0.0 
0.0 0.0 -1.206555876216e+02 
-1.457251536918e+02 7.577242242405e+00 0.0 
7.577242242405e+00 -1.327632368252e+02 0.0 
0.0 0.0 -1.292568715249e+02 
-1.482143532342e+02 7.127634220313e+00 0.0 
7.127634220313e+00 -1.339726938534e+02 0.0 
0.0 0.0 -1.309934410051e+02 
-1.562912481428e+02 8.502616104153e+00 0.0 
8.502616104153e+00 -1.435467483435e+02 0.0 
0.0 0.0 -1.392808014124e+02 
-1.523220040301e+02 8.713944971873e+00 0.0 
8.713944971873e+00 -1.408800830111e+02 0.0 
0.0 0.0 -1.361651518255e+02 
-1.629518279417e+02 9.569873741462e+00 0.0 
9.569873741462e+00 -1.517801370021e+02 0.0 
0.0 0.0 -1.462737218335e+02 
-1.589022863361e+02 9.739920210619e+00 0.0 
9.739920210619e+00 -1.492193227511e+02 0.0 
0.0 0.0 -1.431700700034e+02 
-1.604018561918e+02 8.178536932155e+00 0.0 
8.178536932155e+00 -1.462046189439e+02 0.0 
0.0 0.0 -1.424586940407e+02 
-1.697751290258e+02 1.057408100632e+01 0.0 
1.057408100632e+01 -1.604760762492e+02 0.0 
0.0 0.0 -1.535602158892e+02 
-1.654290431311e+02 1.066480661930e+01 0.0 
1.066480661930e+01 -1.577349675505e+02 0.0 
0.0 0.0 -1.502326817976e+02 
-1.760176756986e+02 1.146861961641e+01 0.0 
1.146861961641e+01 -1.689480892051e+02 0.0 
0.0 0.0 -1.604689014291e+02 
-1.714845824976e+02 1.144436004156e+01 0.0 
1.144436004156e+01 -1.659635009528e+02 0.0 
0.0 0.0 -1.569392479117e+02 
-1.601077773392e+02 1.065525898347e+01 0.0 
1.065525898347e+01 -1.541501440221e+02 0.0 
0.0 0.0 -1.460511519349e+02 
-1.664641142946e+02 1.137345509744e+01 0.0 
1.137345509744e+01 -1.627795791779e+02 0.0 
0.0 0.0 -1.530871754179e+02 
-1.550516048916e+02 1.061816242400e+01 0.0 
1.061816242400e+01 -1.509681891555e+02 0.0 
0.0 0.0 -1.421832393037e+02 
-1.616379232459e+02 1.125386501176e+01 0.0 
1.125386501176e+01 -1.599156978235e+02 0.0 
0.0 0.0 -1.494765820089e+02 
-1.729316103494e+02 1.197248873855e+01 0.0 
1.197248873855e+01 -1.716616866392e+02 0.0 
0.0 0.0 -1.602940226857e+02 
-1.682790607965e+02 1.176093373855e+01 0.0 
1.176093373855e+01 -1.690044092363e+02 0.0 
0.0 0.0 -1.568619596771e+02 
-1.564515237415e+02 1.103229307162e+01 0.0 
1.103229307162e+01 -1.568892133600e+02 0.0 
0.0 0.0 -1.456205214714e+02 
-1.633003302234e+02 1.143806899136e+01 0.0 
1.143806899136e+01 -1.661760226807e+02 0.0 
0.0 0.0 -1.531964121801e+02 
-1.510936821275e+02 1.069276211946e+01 0.0 
1.069276211946e+01 -1.537724714017e+02 0.0 
0.0 0.0 -1.416415894163e+02 
-1.582663919061e+02 1.100278040222e+01 0.0 
1.100278040222e+01 -1.633049637852e+02 0.0 
0.0 0.0 -1.494849086547e+02 
-1.454094397344e+02 1.021772766422e+01 0.0 
1.021772766422e+01 -1.501989458504e+02 0.0 
0.0 0.0 -1.372949416645e+02 
-1.533517686156e+02 1.046354010831e+01 0.0 
1.046354010831e+01 -1.604615278287e+02 0.0 
0.0 0.0 -1.458423944992e+02 
-1.655912520161e+02 1.121399454055e+01 0.0 
1.121399454055e+01 -1.729719248809e+02 0.0 
0.0 0.0 -1.574627994257e+02 
-1.611446248713e+02 1.060626872936e+01 0.0 
1.060626872936e+01 -1.705197281250e+02 0.0 
0.0 0.0 -1.542237079321e+02 
-1.485523900041e+02 9.826381102761e+00 0.0 
9.826381102761e+00 -1.576001867005e+02 0.0 
0.0 0.0 -1.422455825642e+02 
-1.563934231950e+02 9.880423065511e+00 0.0 
9.880423065511e+00 -1.676167758042e+02 0.0 
0.0 0.0 -1.506299787023e+02 
-1.434596688778e+02 9.080594116526e+00 0.0 
9.080594116526e+00 -1.542423469707e+02 0.0 
0.0 0.0 -1.382779295006e+02 
-1.517968147132e+02 9.074298756347e+00 0.0 
9.074298756347e+00 -1.647013889233e+02 0.0 
0.0 0.0 -1.471029948817e+02 
-1.639446093765e+02 9.832643424272e+00 0.0 
9.832643424272e+00 -1.773118318888e+02 0.0 
0.0 0.0 -1.587273236157e+02 
-1.596030462648e+02 8.967155934794e+00 0.0 
8.967155934794e+00 -1.745491957309e+02 0.0 
0.0 0.0 -1.553918055978e+02 
-1.470334922810e+02 8.184046981086e+00 0.0 
8.184046981086e+00 -1.613980229974e+02 0.0 
0.0 0.0 -1.433155751681e+02 
-1.549805370612e+02 8.019100816846e+00 0.0 
8.019100816846e+00 -1.712794043961e+02 0.0 
0.0 0.0 -1.516862633334e+02 
-1.419529265084e+02 7.218349759424e+00 0.0 
7.218349759424e+00 -1.575228885737e+02 0.0 
0.0 0.0 -1.391107523254e+02 
-1.501155715758e+02 7.012699697904e+00 0.0 
7.012699697904e+00 -1.675046591564e+02 0.0 
0.0 0.0 -1.476298018380e+02 
-1.367251059664e+02 6.205915714803e+00 0.0 
6.205915714803e+00 -1.532335516498e+02 0.0 
0.0 0.0 -1.346423176712e+02 
-1.449506276266e+02 5.958919434179e+00 0.0 
5.958919434179e+00 -1.631589021035e+02 0.0 
0.0 0.0 -1.431643985812e+02 
-1.576128887954e+02 6.761694770068e+00 0.0 
6.761694770068e+00 -1.766572683427e+02 0.0 
0.0 0.0 -1.554471683583e+02 
-1.526659611839e+02 5.693663680458e+00 0.0 
5.693663680458e+00 -1.724164554270e+02 0.0 
0.0 0.0 -1.511333994296e+02 
-1.395675448004e+02 4.888743670524e+00 0.0 
4.888743670524e+00 -1.583099203375e+02 0.0 
0.0 0.0 -1.383603053242e+02 
-1.472401077626e+02 4.633471222465e+00 0.0 
4.633471222465e+00 -1.673718399418e+02 0.0 
0.0 0.0 -1.462173721100e+02 
-1.592701009738e+02 5.468526205135e+00 0.0 
5.468526205135e+00 -1.802759175053e+02 0.0 
0.0 0.0 -1.579242568935e+02 
-1.539114401956e+02 4.441676156950e+00 0.0 
4.441676156950e+00 -1.751765804153e+02 0.0 
0.0 0.0 -1.530140848957e+02 
-1.645541903710e+02 5.320763566115e+00 0.0 
5.320763566115e+00 -1.864940924416e+02 0.0 
0.0 0.0 -1.633247261758e+02 
-1.589656737483e+02 4.312158281144e+00 0.0 
4.312158281144e+00 -1.810552046623e+02 0.0 
0.0 0.0 -1.581472100790e+02 
-1.480115133916e+02 3.460696252526e+00 0.0 
3.460696252526e+00 -1.692374016234e+02 0.0 
0.0 0.0 -1.474554640671e+02 
-1.530468206947e+02 3.365414053058e+00 0.0 
3.365414053058e+00 -1.750257133459e+02 0.0 
0.0 0.0 -1.525373001627e+02 
-1.638024310466e+02 4.277828647460e+00 0.0 
4.277828647460e+00 -1.865959336232e+02 0.0 
0.0 0.0 -1.630195807831e+02 
-1.573606416330e+02 3.348998228493e+00 0.0 
3.348998228493e+00 -1.799368130699e+02 0.0 
0.0 0.0 -1.568685256695e+02 
-1.469081387555e+02 2.501181439281e+00 0.0 
2.501181439281e+00 -1.685568738488e+02 0.0 
0.0 0.0 -1.466178976634e+02 
-1.510786221740e+02 2.500420333474e+00 0.0 
2.500420333474e+00 -1.732840561378e+02 0.0 
0.0 0.0 -1.507954725255e+02 
-1.646247694735e+02 3.450300062666e+00 0.0 
3.450300062666e+00 -1.881226142236e+02 0.0 
0.0 0.0 -1.641224771114e+02 
-1.571214991339e+02 2.592403198792e+00 0.0 
2.592403198792e+00 -1.800885095407e+02 0.0 
0.0 0.0 -1.568274685720e+02 
-1.444967281610e+02 1.750230648174e+00 0.0 
1.750230648174e+00 -1.661422269170e+02 0.0 
0.0 0.0 -1.443519981266e+02 
-1.493802593160e+02 1.848455503392e+00 0.0 
1.848455503392e+00 -1.716340598322e+02 0.0 
0.0 0.0 -1.492233724342e+02 
-1.652561489391e+02 2.774635321622e+00 0.0 
2.774635321622e+00 -1.892194164397e+02 0.0 
0.0 0.0 -1.649338818763e+02 
-1.568894839385e+02 2.017742750108e+00 0.0 
2.017742750108e+00 -1.800721432314e+02 0.0 
0.0 0.0 -1.567108500830e+02 
-1.417076150830e+02 1.214181854997e+00 0.0 
1.214181854997e+00 -1.631456554358e+02 0.0 
0.0 0.0 -1.416355406680e+02 
-1.486649314785e+02 1.385026707691e+00 0.0 
1.385026707691e+00 -1.709700761810e+02 0.0 
0.0 0.0 -1.485757669620e+02 
-1.656992448660e+02 2.221039033928e+00 0.0 
2.221039033928e+00 -1.899679468268e+02 0.0 
0.0 0.0 -1.654933666106e+02 
-1.569810460662e+02 1.570219706421e+00 0.0 
1.570219706421e+00 -1.803245818627e+02 0.0 
0.0 0.0 -1.568723631102e+02 
-1.745267125157e+02 2.425685258811e+00 0.0 
2.425685258811e+00 -1.998811184213e+02 0.0 
0.0 0.0 -1.742923511961e+02 
-1.403420256743e+02 8.630170268128e-01 0.0 
8.630170268128e-01 -1.616761438326e+02 0.0 
0.0 0.0 -1.403044222479e+02 
-1.479740738530e+02 1.033906377672e+00 0.0 
1.033906377672e+00 -1.702718173199e+02 0.0 
0.0 0.0 -1.479235579101e+02 
-1.315578855850e+02 4.607802624483e-01 0.0 
4.607802624483e-01 -1.518050437996e+02 0.0 
0.0 0.0 -1.315455337097e+02 
-1.387270304057e+02 6.405739339276e-01 0.0 
6.405739339276e-01 -1.598864562900e+02 0.0 
0.0 0.0 -1.387058774393e+02 
-1.711523635590e+02 9.722131802045e+00 0.0 
9.722131802045e+00 -1.865151315357e+02 0.0 
0.0 0.0 -1.664325362179e+02 
-1.226650995151e+02 2.058411661323e-01 0.0 
2.058411661323e-01 -1.417763437793e+02 0.0 
0.0 0.0 -1.226616390744e+02 
-1.189250042616e+02 5.563314968279e-02 0.0 
5.563314968279e-02 -1.375552972286e+02 0.0 
0.0 0.0 -1.189237749010e+02 
-1.295412383259e+02 3.600847329694e-01 0.0 
3.600847329694e-01 -1.495363245427e+02 0.0 
0.0 0.0 -1.295334959437e+02 
-1.471138295193e+02 7.975394093883e-01 0.0 
7.975394093883e-01 -1.693428200146e+02 0.0 
0.0 0.0 -1.470834846663e+02 
-1.146807303884e+02 4.246587618142e-02 0.0 
4.246587618142e-02 -1.327604924715e+02 0.0 
0.0 0.0 -1.146798047514e+02 
-1.204792143575e+02 1.633687284140e-01 0.0 
1.633687284140e-01 -1.393089132224e+02 0.0 
0.0 0.0 -1.204768441638e+02 
-1.072853526275e+02 -2.998944215734e-02 0.0 
-2.998944215734e-02 -1.244053413152e+02 0.0 
0.0 0.0 -1.072847175642e+02 
-1.279024863593e+02 6.414113966183e+00 0.0 
6.414113966183e+00 -1.425384532589e+02 0.0 
0.0 0.0 -1.254784840596e+02 
-1.804726559273e+02 1.250975819399e+01 0.0 
1.250975819399e+01 -1.817860604633e+02 0.0 
0.0 0.0 -1.685881769559e+02 
-1.114659976377e+02 8.246154460172e-02 0.0 
8.246154460172e-02 -1.291284082947e+02 0.0 
0.0 0.0 -1.114651312379e+02 
-1.000620745059e+02 -4.048688064734e-02 0.0 
-4.048688064734e-02 -1.162435975520e+02 0.0 
0.0 0.0 -1.000612408914e+02 
-9.513848292315e+01 -1.404756778382e-01 0.0 
-1.404756778382e-01 -1.106779462191e+02 0.0 
0.0 0.0 -9.513639891961e+01 
-8.672266792479e+01 -1.118626338200e-01 0.0 
-1.118626338200e-01 -1.011697257056e+02 0.0 
0.0 0.0 -8.672082087426e+01 
-1.557573601437e+02 7.094429539582e+00 0.0 
7.094429539582e+00 -1.402472963278e+02 0.0 
0.0 0.0 -1.374809962263e+02 
-1.643046841005e+02 8.117019087080e+00 0.0 
8.117019087080e+00 -1.493117768109e+02 0.0 
0.0 0.0 -1.457499775439e+02 
-1.567440975803e+02 6.945424072549e+00 0.0 
6.945424072549e+00 -1.408489805661e+02 0.0 
0.0 0.0 -1.382267817703e+02 
-1.650760578502e+02 7.984634961760e+00 0.0 
7.984634961760e+00 -1.497056014249e+02 0.0 
0.0 0.0 -1.462970539968e+02 
-1.593798514644e+02 6.862918919165e+00 0.0 
6.862918919165e+00 -1.429561236754e+02 0.0 
0.0 0.0 -1.404536363077e+02 
-9.256237792033e+01 -4.129624023778e-02 0.0 
-4.129624023778e-02 -1.077694675956e+02 0.0 
0.0 0.0 -9.256131243741e+01 
-1.800951255932e+02 1.143786889010e+01 0.0 
1.143786889010e+01 -1.716014981524e+02 0.0 
0.0 0.0 -1.636291310470e+02 
-1.713913283008e+02 9.100197675776e+00 0.0 
9.100197675776e+00 -1.573172078931e+02 0.0 
0.0 0.0 -1.528359118093e+02 
-1.432418586882e+02 1.022290958814e+01 0.0 
1.022290958814e+01 -1.435125306022e+02 0.0 
0.0 0.0 -1.331378701847e+02 
-1.347905357956e+02 8.998786845205e+00 0.0 
8.998786845205e+00 -1.433410770269e+02 0.0 
0.0 0.0 -1.290893595530e+02 
-1.697252897019e+02 6.359742958121e+00 0.0 
6.359742958121e+00 -1.912329738124e+02 0.0 
0.0 0.0 -1.679775966729e+02 
-1.279824158974e+02 2.724347313232e-01 0.0 
2.724347313232e-01 -1.477812500353e+02 0.0 
0.0 0.0 -1.279775763363e+02 
-1.178445053968e+02 1.688573294836e-01 0.0 
1.688573294836e-01 -1.363328582025e+02 0.0 
0.0 0.0 -1.178425142919e+02 
-1.361654436732e+02 3.483761097028e-01 0.0 
3.483761097028e-01 -1.570217776270e+02 0.0 
0.0 0.0 -1.361581721583e+02 
-1.833533246425e+02 3.214968400125e+00 0.0 
3.214968400125e+00 -2.095125862730e+02 0.0 
0.0 0.0 -1.829586703698e+02 
-1.923132656165e+02 3.431028522375e+00 0.0 
3.431028522375e+00 -2.195590424617e+02 0.0 
0.0 0.0 -1.918824319065e+02 
-2.013095594533e+02 4.364816167886e+00 0.0 
4.364816167886e+00 -2.292071889724e+02 0.0 
0.0 0.0 -2.006362498039e+02 
-2.102930110114e+02 4.569557161314e+00 0.0 
4.569557161314e+00 -2.392800125693e+02 0.0 
0.0 0.0 -2.095834297352e+02 
-2.194952784565e+02 5.640585656722e+00 0.0 
5.640585656722e+00 -2.489518219477e+02 0.0 
0.0 0.0 -2.184450650760e+02 
-2.283531373340e+02 5.817816762009e+00 0.0 
5.817816762009e+00 -2.589013403694e+02 0.0 
0.0 0.0 -2.272753840846e+02 
-2.190234326590e+02 4.701283163458e+00 0.0 
4.701283163458e+00 -2.491142064676e+02 0.0 
0.0 0.0 -2.182997688044e+02 
-2.372363403080e+02 5.922491742297e+00 0.0 
5.922491742297e+00 -2.689386518092e+02 0.0 
0.0 0.0 -2.361588225046e+02 
-2.277388766068e+02 4.785563186713e+00 0.0 
4.785563186713e+00 -2.589624512375e+02 0.0 
0.0 0.0 -2.270156727151e+02 
-2.377849020564e+02 7.012835685838e+00 0.0 
7.012835685838e+00 -2.685974488842e+02 0.0 
0.0 0.0 -2.362561802877e+02 
-2.285375222006e+02 6.798903358663e+00 0.0 
6.798903358663e+00 -2.582296724846e+02 0.0 
0.0 0.0 -2.270465980912e+02 
-2.458547258471e+02 5.936853591770e+00 0.0 
5.936853591770e+00 -2.787444525890e+02 0.0 
0.0 0.0 -2.448092281449e+02 
-2.361527680259e+02 4.779793307374e+00 0.0 
4.779793307374e+00 -2.685243316276e+02 0.0 
0.0 0.0 -2.354555416545e+02 
-2.540062861777e+02 5.819155856796e+00 0.0 
5.819155856796e+00 -2.881101781553e+02 0.0 
0.0 0.0 -2.530338317232e+02 
-2.442979013749e+02 4.618923832638e+00 0.0 
4.618923832638e+00 -2.778700293120e+02 0.0 
0.0 0.0 -2.436677243151e+02 
-2.265148535531e+02 3.722396720234e+00 0.0 
3.722396720234e+00 -2.581892372004e+02 0.0 
0.0 0.0 -2.260779427824e+02 
-2.345629594872e+02 3.545104225054e+00 0.0 
3.545104225054e+00 -2.673959087939e+02 0.0 
0.0 0.0 -2.341792951170e+02 
-2.168607287104e+02 2.804381316576e+00 0.0 
2.804381316576e+00 -2.476634253248e+02 0.0 
0.0 0.0 -2.166031884901e+02 
-1.775122760864e+02 6.377510411927e+00 0.0 
6.377510411927e+00 -2.001780030351e+02 0.0 
0.0 0.0 -1.758335051878e+02 
-1.844153019529e+02 7.489380378803e+00 0.0 
7.489380378803e+00 -2.066666628950e+02 0.0 
0.0 0.0 -1.821210834686e+02 
-1.950391637106e+02 7.684163950207e+00 0.0 
7.684163950207e+00 -2.186886083318e+02 0.0 
0.0 0.0 -1.927535974312e+02 
-2.026756185781e+02 8.852271336090e+00 0.0 
8.852271336090e+00 -2.257701346452e+02 0.0 
0.0 0.0 -1.996638894364e+02 
-2.136201517786e+02 9.154554645465e+00 0.0 
9.154554645465e+00 -2.380322502232e+02 0.0 
0.0 0.0 -2.105597261377e+02 
-2.216259044288e+02 1.037870464234e+01 0.0 
1.037870464234e+01 -2.452380694705e+02 0.0 
0.0 0.0 -2.177017656863e+02 
-2.329139257078e+02 1.079762186848e+01 0.0 
1.079762186848e+01 -2.577188175090e+02 0.0 
0.0 0.0 -2.288615256132e+02 
-2.239730078598e+02 9.493145986083e+00 0.0 
9.493145986083e+00 -2.495383053345e+02 0.0 
0.0 0.0 -2.208227817429e+02 
-1.823534184690e+02 1.223475478273e+01 0.0 
1.223475478273e+01 -1.776516052620e+02 0.0 
0.0 0.0 -1.675300376516e+02 
-1.338282923195e+02 3.843902977066e+00 0.0 
3.843902977066e+00 -1.527837053898e+02 0.0 
0.0 0.0 -1.330710154040e+02 
-1.257651979932e+02 4.129252307655e+00 0.0 
4.129252307655e+00 -1.433007697504e+02 0.0 
0.0 0.0 -1.248329160951e+02 
-1.198678144215e+02 3.122141148040e+00 0.0 
3.122141148040e+00 -1.374624723009e+02 0.0 
0.0 0.0 -1.193228545086e+02 
-1.118299431125e+02 3.438746233062e+00 0.0 
3.438746233062e+00 -1.280327092891e+02 0.0 
0.0 0.0 -1.111215630194e+02 
-1.057843491661e+02 2.464903893426e+00 0.0 
2.464903893426e+00 -1.219104373397e+02 0.0 
0.0 0.0 -1.054085847661e+02 
-9.719174752114e+01 2.757658054830e+00 0.0 
2.757658054830e+00 -1.119194482372e+02 0.0 
0.0 0.0 -9.668333658221e+01 
-9.101862778736e+01 1.826497582700e+00 0.0 
1.826497582700e+00 -1.055301293567e+02 0.0 
0.0 0.0 -9.078510108004e+01 
-9.937789638931e+01 1.562591981967e+00 0.0 
1.562591981967e+00 -1.151309226467e+02 0.0 
0.0 0.0 -9.921759399999e+01 
-8.454361844073e+01 9.902530640257e-01 0.0 
9.902530640257e-01 -9.854838199192e+01 0.0 
0.0 0.0 -8.446697108819e+01 
-9.228883133217e+01 7.708689551898e-01 0.0 
7.708689551898e-01 -1.073680829977e+02 0.0 
0.0 0.0 -9.224442308131e+01 
-7.717809012823e+01 2.865493130514e-01 0.0 
2.865493130514e-01 -9.036654295815e+01 0.0 
0.0 0.0 -7.716727101698e+01 
-8.477075850410e+01 1.281183407210e-01 0.0 
1.281183407210e-01 -9.895675868724e+01 0.0 
0.0 0.0 -8.476535483544e+01 
-1.733371367902e+02 1.134504740989e+01 0.0 
1.134504740989e+01 -1.831039754040e+02 0.0 
0.0 0.0 -1.658567327943e+02 
-2.101723596195e+02 1.007562089395e+01 0.0 
1.007562089395e+01 -2.323349505230e+02 0.0 
0.0 0.0 -2.062659813377e+02 
-2.294074553147e+02 1.167135079257e+01 0.0 
1.167135079257e+01 -2.517408144432e+02 0.0 
0.0 0.0 -2.244084365441e+02 
-2.178365560870e+02 1.129971298827e+01 0.0 
1.129971298827e+01 -2.387856799911e+02 0.0 
0.0 0.0 -2.128931307170e+02 
-8.013319439256e+01 -1.793607272689e-01 0.0 
-1.793607272689e-01 -9.372132330139e+01 0.0 
0.0 0.0 -8.012984751584e+01 
-2.522562128280e+02 4.318401749836e+00 0.0 
4.318401749836e+00 -2.870663743616e+02 0.0 
0.0 0.0 -2.517220684691e+02 
-2.470203758339e+02 8.279711499717e+00 0.0 
8.279711499717e+00 -2.778302493204e+02 0.0 
0.0 0.0 -2.449272857932e+02 
-2.377576806404e+02 8.043873028951e+00 0.0 
8.043873028951e+00 -2.674624205730e+02 0.0 
0.0 0.0 -2.357104882597e+02 
-2.432425829735e+02 1.122321727604e+01 0.0 
1.122321727604e+01 -2.690482810781e+02 0.0 
0.0 0.0 -2.390303074191e+02 
-7.782779788854e+01 -8.179868906708e-02 0.0 
-8.179868906708e-02 -9.111973504963e+01 0.0 
0.0 0.0 -7.782595154597e+01 
-8.196403237614e+01 2.080754073861e+00 0.0 
2.080754073861e+00 -9.509174683495e+01 0.0 
0.0 0.0 -8.163288326486e+01 
-8.729409876646e+01 3.005083209021e+00 0.0 
3.005083209021e+00 -1.004027934676e+02 0.0 
0.0 0.0 -8.662903031417e+01 
-1.660604260000e+02 7.880009507687e+00 0.0 
7.880009507687e+00 -1.503424285995e+02 0.0 
0.0 0.0 -1.470582272142e+02 
-1.593320552377e+02 6.627310607491e+00 0.0 
6.627310607491e+00 -1.425645289724e+02 0.0 
0.0 0.0 -1.402473363002e+02 
-2.565944057045e+02 9.645437983970e+00 0.0 
9.645437983970e+00 -2.871412882882e+02 0.0 
0.0 0.0 -2.537940820343e+02 
-8.449681916004e+01 -2.487269147425e-02 0.0 
-2.487269147425e-02 -9.865574047080e+01 0.0 
0.0 0.0 -8.449540445401e+01 
-2.555010350796e+02 7.197323319167e+00 0.0 
7.197323319167e+00 -2.886705590104e+02 0.0 
0.0 0.0 -2.539987430487e+02 
-6.934716501215e+01 4.495707626893e-01 0.0 
4.495707626893e-01 -8.148919218099e+01 0.0 
0.0 0.0 -6.932250862015e+01 
-2.425039499102e+02 3.260822518225e+00 0.0 
3.260822518225e+00 -2.765145020672e+02 0.0 
0.0 0.0 -2.421890012974e+02 
-2.601737347848e+02 3.930919604443e+00 0.0 
3.930919604443e+00 -2.962348325753e+02 0.0 
0.0 0.0 -2.597441681525e+02 
-2.096908044308e+02 3.707947443582e+00 0.0 
3.707947443582e+00 -2.391200415053e+02 0.0 
0.0 0.0 -2.092255769823e+02 
-2.377296078292e+02 1.295725082951e+01 0.0 
1.295725082951e+01 -2.585268497954e+02 0.0 
0.0 0.0 -2.315019358864e+02 
-2.253752854908e+02 1.246161336181e+01 0.0 
1.246161336181e+01 -2.448768319725e+02 0.0 
0.0 0.0 -2.192925450938e+02 
-1.000241237785e+02 6.113422468687e-01 0.0 
6.113422468687e-01 -1.161435928385e+02 0.0 
0.0 0.0 -9.999646893875e+01 
-9.219609765408e+01 5.087348364334e-02 0.0 
5.087348364334e-02 -1.073509296318e+02 0.0 
0.0 0.0 -9.219282962212e+01 
-7.666883128565e+01 -3.271843399664e-01 0.0 
-3.271843399664e-01 -8.979156180723e+01 0.0 
0.0 0.0 -7.665820561822e+01 
-8.469087050663e+01 -3.556353752608e-01 0.0 
-3.556353752608e-01 -9.885319089461e+01 0.0 
0.0 0.0 -8.467921985102e+01 
-9.980791550578e+01 1.969076795590e-02 0.0 
1.969076795590e-02 -1.159516616237e+02 0.0 
0.0 0.0 -9.980484190765e+01 
-9.128466826316e+01 -3.474485864739e-01 0.0 
-3.474485864739e-01 -1.063077693491e+02 0.0 
0.0 0.0 -9.127512323096e+01 
-7.547041184882e+01 -6.072290666529e-01 0.0 
-6.072290666529e-01 -8.839658504815e+01 0.0 
0.0 0.0 -7.544057089111e+01 
-8.246209067175e+01 -5.420027488006e-01 0.0 
-5.420027488006e-01 -9.631230889241e+01 0.0 
0.0 0.0 -8.243979885606e+01 
-9.828911150062e+01 -2.905026963202e-01 0.0 
-2.905026963202e-01 -1.142281467815e+02 0.0 
0.0 0.0 -9.828252918465e+01 
-8.928450528768e+01 -4.752741496956e-01 0.0 
-4.752741496956e-01 -1.040337697706e+02 0.0 
0.0 0.0 -8.926834587726e+01 
-7.298284395924e+01 -6.033927109596e-01 0.0 
-6.033927109596e-01 -8.558743206663e+01 0.0 
0.0 0.0 -7.295368852326e+01 
-7.988957521126e+01 -5.130969311099e-01 0.0 
-5.130969311099e-01 -9.341091033696e+01 0.0 
0.0 0.0 -7.986972190077e+01 
-2.698719243542e+02 5.113435346021e+00 0.0 
5.113435346021e+00 -3.066030771359e+02 0.0 
0.0 0.0 -2.691656314386e+02 
-6.165259785171e+01 -1.429788861987e-01 0.0 
-1.429788861987e-01 -7.283390818778e+01 0.0 
0.0 0.0 -6.164603150525e+01 
-1.484343978788e+02 9.845538661053e+00 0.0 
9.845538661053e+00 -1.421063881584e+02 0.0 
0.0 0.0 -1.349156348690e+02 
-2.661191558221e+02 9.889761371045e+00 0.0 
9.889761371045e+00 -2.978093894226e+02 0.0 
0.0 0.0 -2.632748998756e+02 
-2.526412236489e+02 1.261992353796e+01 0.0 
1.261992353796e+01 -2.772908496892e+02 0.0 
0.0 0.0 -2.473130947114e+02 
-1.688145534021e+02 7.842939990172e+00 0.0 
7.842939990172e+00 -1.526077635652e+02 0.0 
0.0 0.0 -1.494149329501e+02 
-1.603352529572e+02 6.596821585579e+00 0.0 
6.596821585579e+00 -1.433723320210e+02 0.0 
0.0 0.0 -1.410976257506e+02 
-1.522662643279e+02 5.379918038832e+00 0.0 
5.379918038832e+00 -1.348504891988e+02 0.0 
0.0 0.0 -1.333080051138e+02 
-1.525404554154e+02 5.458452634919e+00 0.0 
5.458452634919e+00 -1.351780524982e+02 0.0 
0.0 0.0 -1.335905369691e+02 
-1.648022018106e+02 6.958986980626e+00 0.0 
6.958986980626e+00 -1.477503979534e+02 0.0 
0.0 0.0 -1.452504802901e+02 
-1.553524045772e+02 5.669205875925e+00 0.0 
5.669205875925e+00 -1.378624609692e+02 0.0 
0.0 0.0 -1.361711515073e+02 
-1.426541956101e+02 4.363593815174e+00 0.0 
4.363593815174e+00 -1.254131937547e+02 0.0 
0.0 0.0 -1.243640699876e+02 
-1.457069953954e+02 4.491196428481e+00 0.0 
4.491196428481e+00 -1.282019812529e+02 0.0 
0.0 0.0 -1.271067745342e+02 
-1.339301952037e+02 3.396055250070e+00 0.0 
3.396055250070e+00 -1.169681231194e+02 0.0 
0.0 0.0 -1.163029580119e+02 
-1.359793924784e+02 3.479669204026e+00 0.0 
3.479669204026e+00 -1.188213349172e+02 0.0 
0.0 0.0 -1.181351920583e+02 
-1.518245642792e+02 4.732562873940e+00 0.0 
4.732562873940e+00 -1.337679625274e+02 0.0 
0.0 0.0 -1.325923599728e+02 
-1.422381341039e+02 3.735508805146e+00 0.0 
3.735508805146e+00 -1.245091812471e+02 0.0 
0.0 0.0 -1.237442773141e+02 
-1.267832685924e+02 2.656342915791e+00 0.0 
2.656342915791e+00 -1.101813249520e+02 0.0 
0.0 0.0 -1.097608850362e+02 
-1.319470469171e+02 2.833146060269e+00 0.0 
2.833146060269e+00 -1.148295779891e+02 0.0 
0.0 0.0 -1.143677669883e+02 
-1.184774829938e+02 2.010858709916e+00 0.0 
2.010858709916e+00 -1.025163067896e+02 0.0 
0.0 0.0 -1.022623758188e+02 
-1.229460841785e+02 2.139561745160e+00 0.0 
2.139561745160e+00 -1.065170393972e+02 0.0 
0.0 0.0 -1.062388430309e+02 
-1.417321754558e+02 3.242113752875e+00 0.0 
3.242113752875e+00 -1.237146009969e+02 0.0 
0.0 0.0 -1.231336566427e+02 
-6.920815463653e+01 -5.607772530703e-02 0.0 
-5.607772530703e-02 -8.138161526915e+01 0.0 
0.0 0.0 -6.920673254053e+01 
-2.348756660426e+02 9.901440691528e+00 0.0 
9.901440691528e+00 -2.615791090184e+02 0.0 
0.0 0.0 -2.315950486156e+02 
-2.553190621790e+02 1.180690004565e+01 0.0 
1.180690004565e+01 -2.821432449498e+02 0.0 
0.0 0.0 -2.508486417217e+02 
-1.260184835538e+02 1.825103677466e-01 0.0 
1.825103677466e-01 -1.455674684119e+02 0.0 
0.0 0.0 -1.260160829037e+02 
-1.448860864484e+02 3.930464065305e-01 0.0 
3.930464065305e-01 -1.668718505197e+02 0.0 
0.0 0.0 -1.448773753175e+02 
-1.541106424329e+02 6.875711055031e-01 0.0 
6.875711055031e-01 -1.772666931432e+02 0.0 
0.0 0.0 -1.540889493562e+02 
-1.620104805937e+02 6.507953042059e-01 0.0 
6.507953042059e-01 -1.861976478151e+02 0.0 
0.0 0.0 -1.619912351196e+02 
-1.312470502901e+02 2.267089403141e+00 0.0 
2.267089403141e+00 -1.139041313626e+02 0.0 
0.0 0.0 -1.136045993105e+02 
-1.509124321645e+02 3.862699572977e+00 0.0 
3.862699572977e+00 -1.322495800312e+02 0.0 
0.0 0.0 -1.314512003615e+02 
-7.156372758240e+01 2.294160756110e+00 0.0 
2.294160756110e+00 -8.309052152275e+01 0.0 
0.0 0.0 -7.111506071217e+01 
-7.628433165932e+01 3.156357032325e+00 0.0 
3.156357032325e+00 -8.761241375538e+01 0.0 
0.0 0.0 -7.545453822411e+01 
-1.781078845137e+02 9.390584583248e+00 0.0 
9.390584583248e+00 -1.635553830833e+02 0.0 
0.0 0.0 -1.589183341024e+02 
-2.503075971933e+02 2.875241166051e+00 0.0 
2.875241166051e+00 -2.854926224439e+02 0.0 
0.0 0.0 -2.500682690765e+02 
-2.327575180683e+02 2.347829088675e+00 0.0 
2.347829088675e+00 -2.658096382390e+02 0.0 
0.0 0.0 -2.325868402927e+02 
-1.294646332174e+02 8.259151162878e+00 0.0 
8.259151162878e+00 -1.395870041025e+02 0.0 
0.0 0.0 -1.248261877666e+02 
-1.195597580638e+02 8.118379141889e+00 0.0 
8.118379141889e+00 -1.273826709946e+02 0.0 
0.0 0.0 -1.144456142890e+02 
-1.140870883784e+02 7.395345844866e+00 0.0 
7.395345844866e+00 -1.233337007052e+02 0.0 
0.0 0.0 -1.099750750361e+02 
-1.023528258845e+02 7.137634418760e+00 0.0 
7.137634418760e+00 -1.092825174106e+02 0.0 
0.0 0.0 -9.786845812362e+01 
-1.085355145430e+02 7.796282783749e+00 0.0 
7.796282783749e+00 -1.140369888450e+02 0.0 
0.0 0.0 -1.030036032919e+02 
-9.674350931733e+01 6.435493748595e+00 0.0 
6.435493748595e+00 -1.049487815473e+02 0.0 
0.0 0.0 -9.320006000072e+01 
-2.188623248139e+02 6.515744164944e+00 0.0 
6.515744164944e+00 -2.474415499983e+02 0.0 
0.0 0.0 -2.174387915599e+02 
-1.619993569984e+02 5.532607219839e+00 0.0 
5.532607219839e+00 -1.434996233506e+02 0.0 
0.0 0.0 -1.419387102007e+02 
-8.927554592728e+01 -2.294008777084e-01 0.0 
-2.294008777084e-01 -1.040490492871e+02 0.0 
0.0 0.0 -8.927131327639e+01 
-7.354833397319e+01 -2.525489194301e-01 0.0 
-2.525489194301e-01 -8.627645316919e+01 0.0 
0.0 0.0 -7.354269852621e+01 
-2.677751016981e+02 3.433707990817e+00 0.0 
3.433707990817e+00 -3.050555540718e+02 0.0 
0.0 0.0 -2.674545616401e+02 
-2.158590599786e+02 8.255791830647e+00 0.0 
8.255791830647e+00 -2.419676533640e+02 0.0 
0.0 0.0 -2.134586491471e+02 
-1.784273192777e+02 1.197621902213e+01 0.0 
1.197621902213e+01 -1.862731762104e+02 0.0 
0.0 0.0 -1.697346253967e+02 
-1.875326683054e+02 1.218293860650e+01 0.0 
1.218293860650e+01 -1.978796644206e+02 0.0 
0.0 0.0 -1.794591142051e+02 
-1.933456403745e+02 1.284677433217e+01 0.0 
1.284677433217e+01 -2.018591973650e+02 0.0 
0.0 0.0 -1.840568282716e+02 
-2.046347487840e+02 1.320361049039e+01 0.0 
1.320361049039e+01 -2.156191539637e+02 0.0 
0.0 0.0 -1.958177044091e+02 
-2.114101593307e+02 1.391929317409e+01 0.0 
1.391929317409e+01 -2.205904538813e+02 0.0 
0.0 0.0 -2.013329444690e+02 
-2.240465261565e+02 1.442154756873e+01 0.0 
1.442154756873e+01 -2.353861832504e+02 0.0 
0.0 0.0 -2.142126861054e+02 
-2.157524960160e+02 1.355643736120e+01 0.0 
1.355643736120e+01 -2.287834942568e+02 0.0 
0.0 0.0 -2.072184742044e+02 
-2.455271660363e+02 1.410083412555e+01 0.0 
1.410083412555e+01 -2.646621552487e+02 0.0 
0.0 0.0 -2.380436045554e+02 
-2.352344450189e+02 1.487805609782e+01 0.0 
1.487805609782e+01 -2.481824092285e+02 0.0 
0.0 0.0 -2.254735677647e+02 
-1.152828874879e+02 1.462123492374e+00 0.0 
1.462123492374e+00 -9.947283584978e+01 0.0 
0.0 0.0 -9.933351892211e+01 
-1.988193413963e+02 9.835908275910e+00 0.0 
9.835908275910e+00 -2.194085799643e+02 0.0 
0.0 0.0 -1.948664786391e+02 
-1.047154140343e+02 -2.306825431218e-01 0.0 
-2.306825431218e-01 -1.214941471098e+02 0.0 
0.0 0.0 -1.047112512924e+02 
-6.174875273688e+01 -8.275321904257e-02 0.0 
-8.275321904257e-02 -7.295243489632e+01 0.0 
0.0 0.0 -6.174682742845e+01 
-6.256564376672e+01 -5.574300527336e-01 0.0 
-5.574300527336e-01 -7.381959585825e+01 0.0 
0.0 0.0 -6.253751270464e+01 
-7.547670931302e+01 -2.341251691932e-02 0.0 
-2.341251691932e-02 -8.846415011559e+01 0.0 
0.0 0.0 -7.547525035262e+01 
-9.033039147890e+01 5.780465132738e-03 0.0 
5.780465132738e-03 -1.052476381658e+02 0.0 
0.0 0.0 -9.032933133854e+01 
-2.762053016978e+02 1.139191594994e+01 0.0 
1.139191594994e+01 -3.073021828564e+02 0.0 
0.0 0.0 -2.724674777242e+02 
-2.310783047002e+02 1.516017325017e+01 0.0 
1.516017325017e+01 -2.404042116645e+02 0.0 
0.0 0.0 -2.198702340844e+02 
-2.188044242569e+02 1.460415062264e+01 0.0 
1.460415062264e+01 -2.260791222900e+02 0.0 
0.0 0.0 -2.073816565941e+02 
-8.990037812587e+01 6.711395841871e+00 0.0 
6.711395841871e+00 -9.455552440887e+01 0.0 
0.0 0.0 -8.510734164418e+01 
-9.635414193456e+01 7.275531532824e+00 0.0 
7.275531532824e+00 -9.960341914694e+01 0.0 
0.0 0.0 -9.050752650139e+01 
-2.577619001531e+02 1.469060520783e+01 0.0 
1.469060520783e+01 -2.779298121598e+02 0.0 
0.0 0.0 -2.500173234145e+02 
-1.513219981644e+02 5.630291201034e+00 0.0 
5.630291201034e+00 -1.343470397903e+02 0.0 
0.0 0.0 -1.326282829957e+02 
-1.328728044247e+02 3.263649094448e+00 0.0 
3.263649094448e+00 -1.159430288737e+02 0.0 
0.0 0.0 -1.153252030168e+02 
-1.225107961757e+02 2.352408714585e+00 0.0 
2.352408714585e+00 -1.062520738332e+02 0.0 
0.0 0.0 -1.059100644732e+02 
-5.748742573829e+01 -1.798910946237e-02 0.0 
-1.798910946237e-02 -6.814025940271e+01 0.0 
0.0 0.0 -5.748669480835e+01 
-5.593752890002e+01 -6.444100040433e-01 0.0 
-6.444100040433e-01 -6.630422849501e+01 0.0 
0.0 0.0 -5.589695575749e+01 
-1.723224606059e+02 7.603363485826e+00 0.0 
7.603363485826e+00 -1.552034360295e+02 0.0 
0.0 0.0 -1.522806464787e+02 
-9.235821772488e+01 3.923661202356e+00 0.0 
3.923661202356e+00 -1.051639796833e+02 0.0 
0.0 0.0 -9.124214450140e+01 
-8.097999451014e+01 4.017364601518e+00 0.0 
4.017364601518e+00 -9.184252219912e+01 0.0 
0.0 0.0 -7.964530904102e+01 
-5.355201969867e+01 -3.963836978902e-02 0.0 
-3.963836978902e-02 -6.367410033187e+01 0.0 
0.0 0.0 -5.354204591255e+01 
-4.538626971809e+01 -4.774288147318e-01 0.0 
-4.774288147318e-01 -5.440676600123e+01 0.0 
0.0 0.0 -4.535697612203e+01 
-1.404777052902e+02 2.356653758893e+00 0.0 
2.356653758893e+00 -1.221092024162e+02 0.0 
0.0 0.0 -1.217909094350e+02 
-1.608317769582e+02 4.193847209080e+00 0.0 
4.193847209080e+00 -1.412299499893e+02 0.0 
0.0 0.0 -1.403248730577e+02 
-1.716894316510e+02 1.017062084187e+00 0.0 
1.017062084187e+00 -1.970836655879e+02 0.0 
0.0 0.0 -1.716467672164e+02 
-1.801672930432e+02 9.771211346246e-01 0.0 
9.771211346246e-01 -2.066715154493e+02 0.0 
0.0 0.0 -1.801288639462e+02 
-2.658703028818e+02 1.109706902274e+01 0.0 
1.109706902274e+01 -2.957399693535e+02 0.0 
0.0 0.0 -2.621864392202e+02 
-7.032560334431e+01 -4.813040094527e-01 0.0 
-4.813040094527e-01 -8.260652595545e+01 0.0 
0.0 0.0 -7.030650208060e+01 
-1.704168270623e+02 6.204603759174e+00 0.0 
6.204603759174e+00 -1.516040117286e+02 0.0 
0.0 0.0 -1.496959470730e+02 
-2.258487757124e+02 8.623157455278e+00 0.0 
8.623157455278e+00 -2.530056418258e+02 0.0 
0.0 0.0 -2.233314417810e+02 
-2.072862804434e+02 7.052916325354e+00 0.0 
7.052916325354e+00 -2.336031575393e+02 0.0 
0.0 0.0 -2.055063683913e+02 
-1.513359562987e+02 4.425309911793e-01 0.0 
4.425309911793e-01 -1.741550816076e+02 0.0 
0.0 0.0 -1.513252526760e+02 
-6.003748154097e+01 2.413415329906e+00 0.0 
2.413415329906e+00 -6.980182665396e+01 0.0 
0.0 0.0 -5.946410901758e+01 
-5.574478072748e+01 1.605242036870e+00 0.0 
1.605242036870e+00 -6.560942318414e+01 0.0 
0.0 0.0 -5.548023734583e+01 
-1.131393427511e+02 5.599944441526e-02 0.0 
5.599944441526e-02 -1.310167497434e+02 0.0 
0.0 0.0 -1.131373914394e+02 
-8.697244386773e+01 -4.259558114184e-01 0.0 
-4.259558114184e-01 -1.014283198322e+02 0.0 
0.0 0.0 -8.695950752457e+01 
-8.230987576597e+01 -8.799985942595e-03 0.0 
-8.799985942595e-03 -9.618452741294e+01 0.0 
0.0 0.0 -8.230833675139e+01 
-2.864635811887e+02 1.300787013799e+01 0.0 
1.300787013799e+01 -3.164846288495e+02 0.0 
0.0 0.0 -2.815951623051e+02 
-1.816590920217e+02 9.115595573571e+00 0.0 
9.115595573571e+00 -1.659076432740e+02 0.0 
0.0 0.0 -1.616900923441e+02 
-2.280871368400e+02 1.400585772866e+01 0.0 
1.400585772866e+01 -2.429230469243e+02 0.0 
0.0 0.0 -2.196484675152e+02 
-2.088003225865e+02 1.268418811534e+01 0.0 
1.268418811534e+01 -2.235370718298e+02 0.0 
0.0 0.0 -2.014910678172e+02 
-2.480759120390e+02 1.543270995239e+01 0.0 
1.543270995239e+01 -2.626036759588e+02 0.0 
0.0 0.0 -2.382737914339e+02 
-5.330270386359e+01 -4.561883493077e-01 0.0 
-4.561883493077e-01 -6.336921862164e+01 0.0 
0.0 0.0 -5.328184264013e+01 
-2.853484989130e+02 1.152373691791e+01 0.0 
1.152373691791e+01 -3.177239583113e+02 0.0 
0.0 0.0 -2.816534980461e+02 
-2.580962975081e+02 2.368730229589e+00 0.0 
2.368730229589e+00 -2.944628111232e+02 0.0 
0.0 0.0 -2.579367950115e+02 
-2.380756139318e+02 1.581972580526e+01 0.0 
1.581972580526e+01 -2.452808564993e+02 0.0 
0.0 0.0 -2.254452167431e+02 
-2.258011949891e+02 1.518176393232e+01 0.0 
1.518176393232e+01 -2.311986199007e+02 0.0 
0.0 0.0 -2.130704090958e+02 
-9.724527481417e+01 4.826024545671e+00 0.0 
4.826024545671e+00 -1.094717337976e+02 0.0 
0.0 0.0 -9.555923320863e+01 
-8.580568260481e+01 4.851761582740e+00 0.0 
4.851761582740e+00 -9.597239001000e+01 0.0 
0.0 0.0 -8.385006413720e+01 
-6.839946305033e+01 3.980942021769e+00 0.0 
3.980942021769e+00 -7.717379217752e+01 0.0 
0.0 0.0 -6.685141078505e+01 
-7.297129423287e+01 4.718718406344e+00 0.0 
4.718718406344e+00 -8.094201266227e+01 0.0 
0.0 0.0 -7.076717828406e+01 
-1.461644285157e+02 8.833511435639e+00 0.0 
8.833511435639e+00 -1.363839506520e+02 0.0 
0.0 0.0 -1.311630913229e+02 
-1.024613067572e+02 5.715294501706e+00 0.0 
5.715294501706e+00 -1.138878594368e+02 0.0 
0.0 0.0 -1.000816619789e+02 
-1.416097506906e+02 9.759409278922e+00 0.0 
9.759409278922e+00 -1.373729510899e+02 0.0 
0.0 0.0 -1.294889573748e+02 
-1.336637282066e+02 8.915608203051e+00 0.0 
8.915608203051e+00 -1.274498730550e+02 0.0 
0.0 0.0 -1.210991720546e+02 
-1.256950476155e+02 8.807360879234e+00 0.0 
8.807360879234e+00 -1.217411024785e+02 0.0 
0.0 0.0 -1.146774230190e+02 
-1.146080951085e+02 8.366858625335e+00 0.0 
8.366858625335e+00 -1.184667416886e+02 0.0 
0.0 0.0 -1.079345914282e+02 
-1.031039708148e+02 7.772855780431e+00 0.0 
7.772855780431e+00 -1.048112732421e+02 0.0 
0.0 0.0 -9.612182101975e+01 
-1.172983747774e+02 4.438807856209e+00 0.0 
4.438807856209e+00 -1.332458028564e+02 0.0 
0.0 0.0 -1.161366841497e+02 
-1.751473306999e+02 7.445546204083e+00 0.0 
7.445546204083e+00 -1.959775670186e+02 0.0 
0.0 0.0 -1.727509694744e+02 
-1.637885765122e+02 1.016786308089e+00 0.0 
1.016786308089e+00 -1.881537094280e+02 0.0 
0.0 0.0 -1.637444727830e+02 
-2.086771163646e+02 2.861430765216e+00 0.0 
2.861430765216e+00 -2.383741964669e+02 0.0 
0.0 0.0 -2.083994522987e+02 
-1.920339330464e+02 4.118027244934e+00 0.0 
4.118027244934e+00 -2.188299902821e+02 0.0 
0.0 0.0 -1.914089815747e+02 
-1.703259511365e+02 6.797721441060e+00 0.0 
6.797721441060e+00 -1.523057683259e+02 0.0 
0.0 0.0 -1.499827638428e+02 
-1.775608158517e+02 8.242300721745e+00 0.0 
8.242300721745e+00 -1.608777803528e+02 0.0 
0.0 0.0 -1.574043070989e+02 
-1.169566778686e+02 1.839764250282e+00 0.0 
1.839764250282e+00 -1.010980357770e+02 0.0 
0.0 0.0 -1.008824396654e+02 
-1.101764886324e+02 1.307510750597e+00 0.0 
1.307510750597e+00 -9.490810230002e+01 0.0 
0.0 0.0 -9.479279094318e+01 
-6.358283723895e+01 -1.812719721288e-01 0.0 
-1.812719721288e-01 -7.502041316115e+01 0.0 
0.0 0.0 -6.357889887971e+01 
-5.639488524698e+01 -2.450837246287e-01 0.0 
-2.450837246287e-01 -6.689405405385e+01 0.0 
0.0 0.0 -5.638862188090e+01 
-1.832622148862e+02 2.610929762951e+00 0.0 
2.610929762951e+00 -2.096969531405e+02 0.0 
0.0 0.0 -1.830024558497e+02 
-2.755136339444e+02 1.003947174818e+01 0.0 
1.003947174818e+01 -3.084631850007e+02 0.0 
0.0 0.0 -2.726878365934e+02 
-1.828589695416e+02 9.763740571278e+00 0.0 
9.763740571278e+00 -1.683961386606e+02 0.0 
0.0 0.0 -1.634218335045e+02 
-1.933124672318e+02 1.145607631130e+01 0.0 
1.145607631130e+01 -1.815654042559e+02 0.0 
0.0 0.0 -1.745130416169e+02 
-1.880296596733e+02 1.089056283983e+01 0.0 
1.089056283983e+01 -1.755629269438e+02 0.0 
0.0 0.0 -1.692144471385e+02 
-2.759706215272e+02 1.263580545347e+01 0.0 
1.263580545347e+01 -3.048624681891e+02 0.0 
0.0 0.0 -2.712118130349e+02 
-1.277844804503e+02 2.861189443180e+00 0.0 
2.861189443180e+00 -1.466501425645e+02 0.0 
0.0 0.0 -1.273535726405e+02 
-1.871997605071e+02 6.531827509908e+00 0.0 
6.531827509908e+00 -2.111320741984e+02 0.0 
0.0 0.0 -1.855249958055e+02 
-5.358058727113e+01 -5.090953053180e-01 0.0 
-5.090953053180e-01 -6.366304504024e+01 0.0 
0.0 0.0 -5.355026816618e+01 
-1.760764395654e+02 1.059574238007e+01 0.0 
1.059574238007e+01 -1.898716686562e+02 0.0 
0.0 0.0 -1.703203965151e+02 
-4.641108274393e+01 -1.572826545419e-01 0.0 
-1.572826545419e-01 -5.561919430679e+01 0.0 
0.0 0.0 -4.640739130438e+01 
-1.852250519757e+02 1.276107008662e+01 0.0 
1.276107008662e+01 -1.847730932343e+02 0.0 
0.0 0.0 -1.722219438726e+02 
-2.755731380188e+02 2.773776347555e+00 0.0 
2.773776347555e+00 -3.141118648097e+02 0.0 
0.0 0.0 -2.753679064324e+02 
-2.849102324236e+02 3.928326172888e+00 0.0 
3.928326172888e+00 -3.242539427847e+02 0.0 
0.0 0.0 -2.845136423529e+02 
-2.659395055885e+02 1.582835004935e+01 0.0 
1.582835004935e+01 -2.841162248166e+02 0.0 
0.0 0.0 -2.567614249434e+02 
-1.306410751888e+02 7.028844878322e+00 0.0 
7.028844878322e+00 -1.190916368857e+02 0.0 
0.0 0.0 -1.157556900516e+02 
-1.843106046238e+02 1.059563260758e+01 0.0 
1.059563260758e+01 -2.000759598050e+02 0.0 
0.0 0.0 -1.789775020617e+02 
-1.784749237692e+02 9.624183600054e+00 0.0 
9.624183600054e+00 -1.956337251326e+02 0.0 
0.0 0.0 -1.741518811683e+02 
-1.156509389942e+02 7.918770440991e+00 0.0 
7.918770440991e+00 -1.102248920751e+02 0.0 
0.0 0.0 -1.045545604909e+02 
-1.066291605960e+02 7.690505013105e+00 0.0 
7.690505013105e+00 -1.031858531965e+02 0.0 
0.0 0.0 -9.701378870570e+01 
-1.177777906065e+02 8.553130985530e+00 0.0 
8.553130985530e+00 -1.158761233758e+02 0.0 
0.0 0.0 -1.082064760293e+02 
-9.843525618956e+01 7.382101044043e+00 0.0 
7.382101044043e+00 -9.670283456232e+01 0.0 
0.0 0.0 -9.012277405487e+01 
-1.187994551674e+02 1.132648628029e-01 0.0 
1.132648628029e-01 -1.374108276985e+02 0.0 
0.0 0.0 -1.187969974905e+02 
-1.106847832832e+02 -1.443230176905e-01 0.0 
-1.443230176905e-01 -1.282432209547e+02 0.0 
0.0 0.0 -1.106827330160e+02 
-2.513813782659e+02 1.653795488415e+01 0.0 
1.653795488415e+01 -2.598634196740e+02 0.0 
0.0 0.0 -2.385391651761e+02 
-2.548408645682e+02 1.630391840805e+01 0.0 
1.630391840805e+01 -2.669333009833e+02 0.0 
0.0 0.0 -2.434828462375e+02 
-2.432817258619e+02 1.625817289709e+01 0.0 
1.625817289709e+01 -2.488961201801e+02 0.0 
0.0 0.0 -2.295869723691e+02 
-2.319979318610e+02 1.563319894622e+01 0.0 
1.563319894622e+01 -2.359140561030e+02 0.0 
0.0 0.0 -2.181938225196e+02 
-2.778774227908e+02 1.637535584151e+01 0.0 
1.637535584151e+01 -2.972221335144e+02 0.0 
0.0 0.0 -2.685198412485e+02 
-2.683832564347e+02 1.514897658456e+01 0.0 
1.514897658456e+01 -2.896153049974e+02 0.0 
0.0 0.0 -2.604906919583e+02 
-9.508350138483e+01 9.008573787480e-03 0.0 
9.008573787480e-03 -1.106174032151e+02 0.0 
0.0 0.0 -9.508215857838e+01 
-8.395496794960e+01 6.608606055475e+00 0.0 
6.608606055475e+00 -8.518680834333e+01 0.0 
0.0 0.0 -7.791715143846e+01 
-1.890192316872e+02 1.005369309525e+01 0.0 
1.005369309525e+01 -1.741022629034e+02 0.0 
0.0 0.0 -1.689932630356e+02 
-1.251531706794e+02 7.978656180469e+00 0.0 
7.978656180469e+00 -1.173779484384e+02 0.0 
0.0 0.0 -1.123744443751e+02 
-2.941243482450e+02 1.156997419316e+01 0.0 
1.156997419316e+01 -3.278463976613e+02 0.0 
0.0 0.0 -2.905265011832e+02 
-2.834186041836e+02 9.980150019469e+00 0.0 
9.980150019469e+00 -3.176453851871e+02 0.0 
0.0 0.0 -2.807104951178e+02 
-3.700781301851e+01 -6.509690439127e-01 0.0 
-6.509690439127e-01 -4.488139244761e+01 0.0 
0.0 0.0 -3.695088471997e+01 
-4.370442978400e+01 -6.686830356879e-01 0.0 
-6.686830356879e-01 -5.245654418665e+01 0.0 
0.0 0.0 -4.365167381490e+01 
-1.810735605570e+02 7.392867188939e+00 0.0 
7.392867188939e+00 -1.626290031055e+02 0.0 
0.0 0.0 -1.598758112947e+02 
-5.502351727769e+01 3.825501691807e+00 0.0 
3.825501691807e+00 -6.157740068798e+01 0.0 
0.0 0.0 -5.324850505410e+01 
-5.909462773529e+01 4.426267516578e+00 0.0 
4.426267516578e+00 -6.476931093298e+01 0.0 
0.0 0.0 -5.665859189126e+01 
-5.097967391990e+01 3.140020149247e+00 0.0 
3.140020149247e+00 -5.828330722784e+01 0.0 
0.0 0.0 -4.980324408358e+01 
-3.099603335700e+02 1.151546861360e+00 0.0 
1.151546861360e+00 -3.533224123786e+02 0.0 
0.0 0.0 -3.099230461374e+02 
-8.316923178035e+01 1.268032039617e-01 0.0 
1.268032039617e-01 -7.079040360121e+01 0.0 
0.0 0.0 -7.078893013748e+01 
-2.926423622283e+02 3.107203371782e+00 0.0 
3.107203371782e+00 -3.333170402522e+02 0.0 
0.0 0.0 -2.923992296027e+02 
-1.212919575901e+02 8.880192188423e+00 0.0 
8.880192188423e+00 -1.233575424947e+02 0.0 
0.0 0.0 -1.133690530025e+02 
-1.851811206389e+02 9.769125232152e+00 0.0 
9.769125232152e+00 -1.710815161580e+02 0.0 
0.0 0.0 -1.657729361719e+02 
-1.943136098659e+02 1.071402367939e+01 0.0 
1.071402367939e+01 -2.119425632181e+02 0.0 
0.0 0.0 -1.892455802709e+02 
-1.239378992217e+02 7.437006991679e+00 0.0 
7.437006991679e+00 -1.354062602572e+02 0.0 
0.0 0.0 -1.202683951121e+02 
-2.564854201322e+02 1.080849125604e+01 0.0 
1.080849125604e+01 -2.852784515613e+02 0.0 
0.0 0.0 -2.528682846914e+02 
-1.718972022805e+02 4.579840088826e+00 0.0 
4.579840088826e+00 -1.513197568674e+02 0.0 
0.0 0.0 -1.502575418215e+02 
-1.845685406265e+02 9.183257141065e+00 0.0 
9.183257141065e+00 -1.710022183913e+02 0.0 
0.0 0.0 -1.651444474783e+02 
-1.205793259696e+02 2.146457038711e+00 0.0 
2.146457038711e+00 -1.044407745310e+02 0.0 
0.0 0.0 -1.041527833698e+02 
-1.096237914502e+02 1.443057623113e+00 0.0 
1.443057623113e+00 -9.447140593963e+01 0.0 
0.0 0.0 -9.432825724095e+01 
-1.302498307175e+02 3.064947688667e+00 0.0 
3.064947688667e+00 -1.135067568035e+02 0.0 
0.0 0.0 -1.129498184299e+02 
-6.015800247197e+01 6.179672034791e-01 0.0 
6.179672034791e-01 -7.106908517331e+01 0.0 
0.0 0.0 -6.011569031279e+01 
-4.267596427008e+01 7.493737025697e-02 0.0 
7.493737025697e-02 -5.137538069536e+01 0.0 
0.0 0.0 -4.266117435241e+01 
-1.690775257702e+02 6.532855650039e+00 0.0 
6.532855650039e+00 -1.508806166981e+02 0.0 
0.0 0.0 -1.487274831422e+02 
-1.095242204554e+02 1.125659698902e-01 0.0 
1.125659698902e-01 -1.269331050937e+02 0.0 
0.0 0.0 -1.095227158247e+02 
-1.180306785844e+02 9.513961374335e-02 0.0 
9.513961374335e-02 -1.365449153194e+02 0.0 
0.0 0.0 -1.180294888270e+02 
-7.695647524902e+01 -4.151652191104e-01 0.0 
-4.151652191104e-01 -9.011025731229e+01 0.0 
0.0 0.0 -7.694289023152e+01 
-9.291002000022e+01 -3.398902051833e-01 0.0 
-3.398902051833e-01 -1.081473234607e+02 0.0 
0.0 0.0 -9.290194357338e+01 
-1.813890667770e+02 1.490382207703e+00 0.0 
1.490382207703e+00 -2.079507009418e+02 0.0 
0.0 0.0 -1.813030982610e+02 
-1.732740135652e+02 1.467215794643e+00 0.0 
1.467215794643e+00 -1.987805530421e+02 0.0 
0.0 0.0 -1.731874616407e+02 
-1.951613612603e+02 1.340602644998e+01 0.0 
1.340602644998e+01 -1.973746072266e+02 0.0 
0.0 0.0 -1.828037579196e+02 
-2.013336074959e+02 1.377657011234e+01 0.0 
1.377657011234e+01 -2.019747649760e+02 0.0 
0.0 0.0 -1.878615478583e+02 
-1.838207700890e+02 1.252859369706e+01 0.0 
1.252859369706e+01 -1.897337616942e+02 0.0 
0.0 0.0 -1.738917156573e+02 
-2.174292444108e+02 7.371554097643e+00 0.0 
7.371554097643e+00 -2.448865106197e+02 0.0 
0.0 0.0 -2.155663151717e+02 
-1.990630533113e+02 5.900722339486e+00 0.0 
5.900722339486e+00 -2.253993153587e+02 0.0 
0.0 0.0 -1.977936363022e+02 
-1.892600875307e+02 5.647071316079e+00 0.0 
5.647071316079e+00 -2.144363586871e+02 0.0 
0.0 0.0 -1.880437537512e+02 
-1.834767364195e+02 9.595352182987e+00 0.0 
9.595352182987e+00 -1.686371281681e+02 0.0 
0.0 0.0 -1.638250312876e+02 
-1.922105096034e+02 1.155325185265e+01 0.0 
1.155325185265e+01 -1.814134896925e+02 0.0 
0.0 0.0 -1.739243315978e+02 
-1.264325928659e+02 5.259852326349e-01 0.0 
5.259852326349e-01 -1.460048113017e+02 0.0 
0.0 0.0 -1.264158512735e+02 
-1.209650773523e+02 4.768993449987e-01 0.0 
4.768993449987e-01 -1.398319919267e+02 0.0 
0.0 0.0 -1.209505559909e+02 
-1.229487648413e+02 2.138805317524e-01 0.0 
2.138805317524e-01 -1.420954407340e+02 0.0 
0.0 0.0 -1.229446441496e+02 
-1.962848704559e+02 1.156716814808e+01 0.0 
1.156716814808e+01 -1.843731336853e+02 0.0 
0.0 0.0 -1.772268923804e+02 
-3.012788549639e+02 4.366754648662e+00 0.0 
4.366754648662e+00 -3.425997080426e+02 0.0 
0.0 0.0 -3.008125187760e+02 
-2.946502912068e+02 5.170232417828e+00 0.0 
5.170232417828e+00 -3.346904338259e+02 0.0 
0.0 0.0 -2.939868064526e+02 
-3.931538236341e+01 -1.951472737699e-01 0.0 
-1.951472737699e-01 -4.759949775542e+01 0.0 
0.0 0.0 -3.931050720802e+01 
-4.868297605769e+01 -2.801009737555e-01 0.0 
-2.801009737555e-01 -5.817499204453e+01 0.0 
0.0 0.0 -4.867405780345e+01 
-4.394745583142e+01 1.721829969902e+00 0.0 
1.721829969902e+00 -5.207439345805e+01 0.0 
0.0 0.0 -4.358635288805e+01 
-4.091206341305e+01 1.007941757753e+00 0.0 
1.007941757753e+00 -4.912644213933e+01 0.0 
0.0 0.0 -4.077709176165e+01 
-2.019237907007e+02 1.272816546234e+01 0.0 
1.272816546234e+01 -1.929921425179e+02 0.0 
0.0 0.0 -1.839211836763e+02 
-2.001991688693e+02 1.238861424846e+01 0.0 
1.238861424846e+01 -1.901821543704e+02 0.0 
0.0 0.0 -1.817921227203e+02 
-2.123878041704e+02 1.370748419961e+01 0.0 
1.370748419961e+01 -2.051561394570e+02 0.0 
0.0 0.0 -1.945453418063e+02 
-8.675488523422e+01 -1.272992474438e-02 0.0 
-1.272992474438e-02 -1.012073303707e+02 0.0 
0.0 0.0 -8.675360323935e+01 
-2.205616022449e+02 1.304901351951e+01 0.0 
1.304901351951e+01 -2.370658528214e+02 0.0 
0.0 0.0 -2.133650946808e+02 
-2.961012172881e+02 1.470455426377e+01 0.0 
1.470455426377e+01 -3.243525529422e+02 0.0 
0.0 0.0 -2.898142605058e+02 
-2.834571916794e+02 1.418221907373e+01 0.0 
1.418221907373e+01 -3.104608811621e+02 0.0 
0.0 0.0 -2.773553902801e+02 
-3.062513467465e+02 1.514657955267e+01 0.0 
1.514657955267e+01 -3.354456176159e+02 0.0 
0.0 0.0 -2.997882285909e+02 
-2.543858313862e+02 1.517884820190e+01 0.0 
1.517884820190e+01 -2.719337090534e+02 0.0 
0.0 0.0 -2.456169614646e+02 
-2.768502422299e+02 1.709286018978e+01 0.0 
1.709286018978e+01 -2.926976596614e+02 0.0 
0.0 0.0 -2.659132641208e+02 
-2.713929799493e+02 1.724627470094e+01 0.0 
1.724627470094e+01 -2.843148112489e+02 0.0 
0.0 0.0 -2.594151442294e+02 
-2.925651938264e+01 -6.357936596687e-01 0.0 
-6.357936596687e-01 -3.610864132930e+01 0.0 
0.0 0.0 -2.919262134442e+01 
-1.791373944473e+02 5.964827421172e+00 0.0 
5.964827421172e+00 -1.619392330981e+02 0.0 
0.0 0.0 -1.576677875783e+02 
-1.055633507584e+02 1.109755039437e+00 0.0 
1.109755039437e+00 -9.077254860446e+01 0.0 
0.0 0.0 -9.068516146156e+01 
-2.254482905261e+01 -6.149499778388e-01 0.0 
-6.149499778388e-01 -2.852181542421e+01 0.0 
0.0 0.0 -2.247927382679e+01 
-9.883282266166e+01 7.329228346618e-01 0.0 
7.329228346618e-01 -8.472635636849e+01 0.0 
0.0 0.0 -8.468631778306e+01 
-1.033015110811e+02 8.921458402805e-01 0.0 
8.921458402805e-01 -8.871276312801e+01 0.0 
0.0 0.0 -8.865609977288e+01 
-8.977722266950e+01 4.183696715574e-01 0.0 
4.183696715574e-01 -7.666821176866e+01 0.0 
0.0 0.0 -7.665118232672e+01 
-7.209528584343e+01 -2.714604810336e-02 0.0 
-2.714604810336e-02 -8.464438208195e+01 0.0 
0.0 0.0 -7.209419316408e+01 
-1.137714089609e+02 1.781198324756e+00 0.0 
1.781198324756e+00 -9.827859859839e+01 0.0 
0.0 0.0 -9.806314862592e+01 
-1.284752223890e+02 2.934359182556e+00 0.0 
2.934359182556e+00 -1.118585022280e+02 0.0 
0.0 0.0 -1.113427378208e+02 
-2.897200011610e+01 -2.190367110285e-01 0.0 
-2.190367110285e-01 -3.590742632234e+01 0.0 
0.0 0.0 -2.896456250771e+01 
-1.977473378396e+02 1.226280733893e+01 0.0 
1.226280733893e+01 -1.883747057914e+02 0.0 
0.0 0.0 -1.797923331115e+02 
-2.991554901458e+01 -1.003403511968e-01 0.0 
-1.003403511968e-01 -3.698455705610e+01 0.0 
0.0 0.0 -2.991329903183e+01 
-3.715509344284e+01 -6.841191955647e-02 0.0 
-6.841191955647e-02 -4.516705475697e+01 0.0 
0.0 0.0 -3.715415721193e+01 
-3.006532935266e+02 1.123568283763e+01 0.0 
1.123568283763e+01 -3.358732383034e+02 0.0 
0.0 0.0 -2.973606403128e+02 
-2.912730553786e+02 9.594118352429e+00 0.0 
9.594118352429e+00 -3.271471328395e+02 0.0 
0.0 0.0 -2.888594661391e+02 
-3.086492986415e+02 1.083642316059e+01 0.0 
1.083642316059e+01 -3.456385785760e+02 0.0 
0.0 0.0 -3.056998331357e+02 
-2.993930567082e+02 9.388349674285e+00 0.0 
9.388349674285e+00 -3.366942511602e+02 0.0 
0.0 0.0 -2.971544186990e+02 
-2.816069072128e+02 8.196825256182e+00 0.0 
8.196825256182e+00 -3.175589966976e+02 0.0 
0.0 0.0 -2.798193182220e+02 
-2.896430724184e+02 7.902441447097e+00 0.0 
7.902441447097e+00 -3.270143339756e+02 0.0 
0.0 0.0 -2.880318161376e+02 
-1.014796223893e+02 9.040893137902e-01 0.0 
9.040893137902e-01 -8.710691446571e+01 0.0 
0.0 0.0 -8.704673054331e+01 
-3.085882028976e+02 8.994025084952e+00 0.0 
8.994025084952e+00 -3.476291830347e+02 0.0 
0.0 0.0 -3.066057636762e+02 
-2.976147827570e+02 7.303624306040e+00 0.0 
7.303624306040e+00 -3.366144261627e+02 0.0 
0.0 0.0 -2.962820160134e+02 
-3.151980106485e+02 7.998423452747e+00 0.0 
7.998423452747e+00 -3.560793969431e+02 0.0 
0.0 0.0 -3.136766483302e+02 
-8.549383709101e+01 6.441688269225e+00 0.0 
6.441688269225e+00 -8.254194950556e+01 0.0 
0.0 0.0 -7.739787425890e+01 
-7.786114084795e+01 5.415499707691e+00 0.0 
5.415499707691e+00 -8.483918086681e+01 0.0 
0.0 0.0 -7.489280105195e+01 
-6.425918520251e+01 5.019629022090e+00 0.0 
5.019629022090e+00 -6.894122936288e+01 0.0 
0.0 0.0 -6.104219409561e+01 
-4.366595790901e+01 3.947429835054e+00 0.0 
3.947429835054e+00 -4.664650963336e+01 0.0 
0.0 0.0 -4.090572063581e+01 
-2.521039739595e+02 1.686416864092e+01 0.0 
1.686416864092e+01 -2.561883085251e+02 0.0 
0.0 0.0 -2.371529190806e+02 
-2.374612695622e+02 1.599598193653e+01 0.0 
1.599598193653e+01 -2.400943141944e+02 0.0 
0.0 0.0 -2.227216216850e+02 
-2.663547963985e+02 1.730954908006e+00 0.0 
1.730954908006e+00 -3.039487568359e+02 0.0 
0.0 0.0 -2.662680526867e+02 
-2.489407253694e+02 1.445930419585e+00 0.0 
1.445930419585e+00 -2.843199006491e+02 0.0 
0.0 0.0 -2.488758953899e+02 
-9.582640454338e+01 4.536018104944e-01 0.0 
4.536018104944e-01 -8.202504440287e+01 0.0 
0.0 0.0 -8.200646100912e+01 
-9.330797419226e+01 3.729611151817e-01 0.0 
3.729611151817e-01 -7.978173523265e+01 0.0 
0.0 0.0 -7.977075964896e+01 
-1.020153228914e+02 5.993172231839e-01 0.0 
5.993172231839e-01 -8.751560080268e+01 0.0 
0.0 0.0 -8.749013298714e+01 
-9.914836280481e+01 5.074985438745e-01 0.0 
5.074985438745e-01 -8.496493565719e+01 0.0 
0.0 0.0 -8.494648438015e+01 
-1.068225596121e+02 7.272068204267e-01 0.0 
7.272068204267e-01 -9.179046373224e+01 0.0 
0.0 0.0 -9.175430208967e+01 
-1.052872747216e+02 6.081227443793e-01 0.0 
6.081227443793e-01 -9.041569740238e+01 0.0 
0.0 0.0 -9.038799352902e+01 
-1.174667307240e+02 8.906277056738e-01 0.0 
8.906277056738e-01 -1.012351353463e+02 0.0 
0.0 0.0 -1.011862865158e+02 
-2.766645747109e+02 1.797558849598e+01 0.0 
1.797558849598e+01 -2.866559772554e+02 0.0 
0.0 0.0 -2.629894387761e+02 
-3.668924979869e+01 2.970373721218e+00 0.0 
2.970373721218e+00 -4.163758690666e+01 0.0 
0.0 0.0 -3.527830421694e+01 
-1.046761075710e+02 6.983887745472e+00 0.0 
6.983887745472e+00 -9.831058804477e+01 0.0 
0.0 0.0 -9.380780060683e+01 
-2.908067313218e+02 1.713031580383e+01 0.0 
1.713031580383e+01 -3.107244110638e+02 0.0 
0.0 0.0 -2.809298298013e+02 
-2.798275465396e+02 1.581865040900e+01 0.0 
1.581865040900e+01 -3.016242462022e+02 0.0 
0.0 0.0 -2.715023025061e+02 
-9.060196032271e+01 6.999545419785e+00 0.0 
6.999545419785e+00 -9.043936415480e+01 0.0 
0.0 0.0 -8.350415088318e+01 
-7.002634422238e+01 5.725721227176e+00 0.0 
5.725721227176e+00 -6.948662230836e+01 0.0 
0.0 0.0 -6.400602295517e+01 
-3.059113314357e+02 1.342082331056e+01 0.0 
1.342082331056e+01 -3.385393592993e+02 0.0 
0.0 0.0 -3.010811405129e+02 
-1.129718048930e+02 5.633312107222e+00 0.0 
5.633312107222e+00 -1.264559524539e+02 0.0 
0.0 0.0 -1.109173738863e+02 
-2.120837768950e+02 1.397559193340e+01 0.0 
1.397559193340e+01 -2.073901669483e+02 0.0 
0.0 0.0 -1.954515031132e+02 
-8.923977799728e+00 -6.494303724040e-01 0.0 
-6.494303724040e-01 -1.248368291699e+01 0.0 
0.0 0.0 -8.605472245828e+00 
-2.556026133632e+01 -4.642495118011e-01 0.0 
-4.642495118011e-01 -3.197389886181e+01 0.0 
0.0 0.0 -2.551586027387e+01 
-1.182296133304e+02 6.546419452607e+00 0.0 
6.546419452607e+00 -1.308066358205e+02 0.0 
0.0 0.0 -1.154286912523e+02 
-1.103050355502e+02 8.206537603406e+00 0.0 
8.206537603406e+00 -1.102763845203e+02 0.0 
0.0 0.0 -1.020687626395e+02 
-8.328727155245e+01 6.069590473080e+00 0.0 
6.069590473080e+00 -8.913748775197e+01 0.0 
0.0 0.0 -7.945855653870e+01 
-7.117327130950e+01 5.646976024565e+00 0.0 
5.646976024565e+00 -7.477667711326e+01 0.0 
0.0 0.0 -6.702827335481e+01 
-2.365685299987e+02 9.019029896860e+00 0.0 
9.019029896860e+00 -2.648524223324e+02 0.0 
0.0 0.0 -2.339267362747e+02 
-4.200159114128e+01 -3.552600464062e-01 0.0 
-3.552600464062e-01 -5.061259647932e+01 0.0 
0.0 0.0 -4.198640946529e+01 
-4.762921543266e+01 2.460003763830e+00 0.0 
2.460003763830e+00 -5.547612304557e+01 0.0 
0.0 0.0 -4.691214724178e+01 
-1.213136664587e+02 1.261226486174e+00 0.0 
1.261226486174e+00 -1.047419173888e+02 0.0 
0.0 0.0 -1.046389568609e+02 
-3.055045499816e+01 1.753081291308e+00 0.0 
1.753081291308e+00 -3.669028004115e+01 0.0 
0.0 0.0 -3.007322895766e+01 
-2.581510315890e+02 8.035638892950e-01 0.0 
8.035638892950e-01 -2.948129998615e+02 0.0 
0.0 0.0 -2.581269117731e+02 
-1.226534716186e+02 5.438396186008e+00 0.0 
5.438396186008e+00 -1.380749839003e+02 0.0 
0.0 0.0 -1.209183408989e+02 
-1.308559245056e+02 9.341905050692e+00 0.0 
9.341905050692e+00 -1.352220210536e+02 0.0 
0.0 0.0 -1.234299991082e+02 
-6.414734528693e+01 3.208575949950e+00 0.0 
3.208575949950e+00 -7.353130819172e+01 0.0 
0.0 0.0 -6.314478807091e+01 
-9.129892282200e+01 5.678177404598e+00 0.0 
5.678177404598e+00 -1.005822815069e+02 0.0 
0.0 0.0 -8.859362165726e+01 
-1.534283119662e+02 9.817211537692e+00 0.0 
9.817211537692e+00 -1.454462477304e+02 0.0 
0.0 0.0 -1.388284547581e+02 
-1.384817228452e+02 7.733753894691e+00 0.0 
7.733753894691e+00 -1.271675713334e+02 0.0 
0.0 0.0 -1.232287414648e+02 
-1.351165361075e+02 7.972919890148e+00 0.0 
7.972919890148e+00 -1.250980446694e+02 0.0 
0.0 0.0 -1.206770697301e+02 
-1.313456511706e+02 5.168533772958e+00 0.0 
5.168533772958e+00 -1.485133635544e+02 0.0 
0.0 0.0 -1.299003982009e+02 
-7.697406173281e+01 6.124335326206e+00 0.0 
6.124335326206e+00 -7.942305032792e+01 0.0 
0.0 0.0 -7.193335853441e+01 
-5.478247617397e+01 4.810801958184e+00 0.0 
4.810801958184e+00 -5.601842258374e+01 0.0 
0.0 0.0 -5.052531728331e+01 
-1.491424342160e+02 1.046911684162e+01 0.0 
1.046911684162e+01 -1.471710800692e+02 0.0 
0.0 0.0 -1.376260091635e+02 
-1.821719383941e+02 1.048884678539e+01 0.0 
1.048884678539e+01 -1.697226421363e+02 0.0 
0.0 0.0 -1.637220744453e+02 
-1.912027950820e+02 1.178353164287e+01 0.0 
1.178353164287e+01 -1.811225955921e+02 0.0 
0.0 0.0 -1.733146172173e+02 
-2.092570659179e+02 1.352695089112e+01 0.0 
1.352695089112e+01 -2.019625558333e+02 0.0 
0.0 0.0 -1.915759868139e+02 
-2.045989363324e+02 1.319233547746e+01 0.0 
1.319233547746e+01 -1.970771677151e+02 0.0 
0.0 0.0 -1.870951756701e+02 
-1.878518790324e+02 1.159812045657e+01 0.0 
1.159812045657e+01 -1.779083424335e+02 0.0 
0.0 0.0 -1.702321811322e+02 
-1.979870038966e+02 1.278826840068e+01 0.0 
1.278826840068e+01 -1.905050276371e+02 0.0 
0.0 0.0 -1.809050746115e+02 
-2.132862516949e+02 1.411656473973e+01 0.0 
1.411656473973e+01 -2.083686760757e+02 0.0 
0.0 0.0 -1.964755046805e+02 
-2.110465922400e+02 1.398788690547e+01 0.0 
1.398788690547e+01 -2.062096472728e+02 0.0 
0.0 0.0 -1.944102608181e+02 
-2.304139589528e+02 1.543703859431e+01 0.0 
1.543703859431e+01 -2.284674999394e+02 0.0 
0.0 0.0 -2.139538665039e+02 
-2.219092643366e+02 1.492407268014e+01 0.0 
1.492407268014e+01 -2.200328345670e+02 0.0 
0.0 0.0 -2.060006069866e+02 
-2.029022183118e+02 1.356962021192e+01 0.0 
1.356962021192e+01 -1.987950147163e+02 0.0 
0.0 0.0 -1.871050960134e+02 
-2.142410315969e+02 1.448683493595e+01 0.0 
1.448683493595e+01 -2.128539434448e+02 0.0 
0.0 0.0 -1.990296807392e+02 
-2.326018540034e+02 1.568278047750e+01 0.0 
1.568278047750e+01 -2.329347475483e+02 0.0 
0.0 0.0 -2.170785463461e+02 
-1.966446833899e+02 1.326348907609e+01 0.0 
1.326348907609e+01 -1.933123973744e+02 0.0 
0.0 0.0 -1.815929351177e+02 
-3.031185536023e+02 1.864793376477e+01 0.0 
1.864793376477e+01 -3.198615369409e+02 0.0 
0.0 0.0 -2.910004021951e+02 
-1.331869973663e+02 7.362322348520e+00 0.0 
7.362322348520e+00 -1.467831432254e+02 0.0 
0.0 0.0 -1.299525733042e+02 
-3.771357716693e+01 -4.658268229459e-01 0.0 
-4.658268229459e-01 -4.571593814982e+01 0.0 
0.0 0.0 -3.767408110916e+01 
-3.169690886604e+01 -4.667755553013e-02 0.0 
-4.667755553013e-02 -3.895459646518e+01 0.0 
0.0 0.0 -3.167463192115e+01 
-1.370596307960e+02 9.838828543360e+00 0.0 
9.838828543360e+00 -1.394683442678e+02 0.0 
0.0 0.0 -1.283364298511e+02 
-2.407135277094e+02 1.616336595627e+01 0.0 
1.616336595627e+01 -2.404354008722e+02 0.0 
0.0 0.0 -2.244087458708e+02 
-2.343611655213e+02 1.567556170520e+01 0.0 
1.567556170520e+01 -2.324236924991e+02 0.0 
0.0 0.0 -2.176646197069e+02 
-1.026913532839e+02 3.730177635142e+00 0.0 
3.730177635142e+00 -1.172832598151e+02 0.0 
0.0 0.0 -1.017838585271e+02 
-2.750510452154e+02 1.828248028713e+01 0.0 
1.828248028713e+01 -2.787225865099e+02 0.0 
0.0 0.0 -2.585070300949e+02 
-1.417727315709e+02 8.961560634573e+00 0.0 
8.961560634573e+00 -1.334773451272e+02 0.0 
0.0 0.0 -1.277364392171e+02 
-7.577244734205e+01 1.211017497241e+00 0.0 
1.211017497241e+00 -8.854357128957e+01 0.0 
0.0 0.0 -7.565139269235e+01 
-2.882033016558e+02 1.901567697825e+01 0.0 
1.901567697825e+01 -2.939437527345e+02 0.0 
0.0 0.0 -2.718287372903e+02 
-1.775833882068e+02 1.022178493897e+01 0.0 
1.022178493897e+01 -1.652785206149e+02 0.0 
0.0 0.0 -1.594811124325e+02 
-1.765315566184e+02 1.034260268042e+01 0.0 
1.034260268042e+01 -1.648254145755e+02 0.0 
0.0 0.0 -1.587745237822e+02 
-1.695975597216e+02 9.145857012416e+00 0.0 
9.145857012416e+00 -1.559570093712e+02 0.0 
0.0 0.0 -1.513550814307e+02 
-2.268932402816e+02 1.514202561924e+01 0.0 
1.514202561924e+01 -2.240782689213e+02 0.0 
0.0 0.0 -2.102400377235e+02 
-1.400590474082e+02 4.102995401118e+00 0.0 
4.102995401118e+00 -1.229095557916e+02 0.0 
0.0 0.0 -1.219701206518e+02 
-3.082814515311e+02 1.992794888526e+01 0.0 
1.992794888526e+01 -3.186808081310e+02 0.0 
0.0 0.0 -2.928700846663e+02 
-1.916026460660e+02 8.658128118558e+00 0.0 
8.658128118558e+00 -2.131663922326e+02 0.0 
0.0 0.0 -1.885473502968e+02 
-1.810097126995e+02 8.550943215929e+00 0.0 
8.550943215929e+00 -2.009443216128e+02 0.0 
0.0 0.0 -1.778353961432e+02 
-1.684130138069e+02 7.575559535559e+00 0.0 
7.575559535559e+00 -1.879242085196e+02 0.0 
0.0 0.0 -1.658079550908e+02 
-1.928625718079e+02 1.256520607529e+01 0.0 
1.256520607529e+01 -1.859874967479e+02 0.0 
0.0 0.0 -1.763780420748e+02 
-3.222365610253e+02 1.963794233175e+01 0.0 
1.963794233175e+01 -3.405844538390e+02 0.0 
0.0 0.0 -3.097062571239e+02 
-3.026691473614e+02 1.753773073553e+01 0.0 
1.753773073553e+01 -3.242414123229e+02 0.0 
0.0 0.0 -2.928458108247e+02 
-3.045803822471e+02 1.717346196590e+01 0.0 
1.717346196590e+01 -3.279402079197e+02 0.0 
0.0 0.0 -2.954797963093e+02 
-2.842733421262e+02 1.547173559157e+01 0.0 
1.547173559157e+01 -3.081082548582e+02 0.0 
0.0 0.0 -2.766339940029e+02 
-3.245685375246e+02 1.874931194829e+01 0.0 
1.874931194829e+01 -3.474099771835e+02 0.0 
0.0 0.0 -3.140058276411e+02 
-2.561543189194e+02 1.714045615114e+01 0.0 
1.714045615114e+01 -2.573132539632e+02 0.0 
0.0 0.0 -2.395827881926e+02 
-2.625772357716e+02 1.753845216721e+01 0.0 
1.753845216721e+01 -2.644284789067e+02 0.0 
0.0 0.0 -2.459391295866e+02 
-1.065756741251e+02 1.431202605827e-02 0.0 
1.431202605827e-02 -1.236005310211e+02 0.0 
0.0 0.0 -1.065736445105e+02 
-1.145638422038e+02 4.917136817564e-01 0.0 
4.917136817564e-01 -1.325947565213e+02 0.0 
0.0 0.0 -1.145471088827e+02 
-1.284951029213e+02 1.051957179094e+00 0.0 
1.051957179094e+00 -1.482437961278e+02 0.0 
0.0 0.0 -1.284354615261e+02 
-1.218382839895e+02 1.105637308319e+00 0.0 
1.105637308319e+00 -1.407043464311e+02 0.0 
0.0 0.0 -1.217701206481e+02 
-1.073505616196e+02 5.393244348263e-01 0.0 
5.393244348263e-01 -1.244372369247e+02 0.0 
0.0 0.0 -1.073303094931e+02 
-1.146516320162e+02 1.181396999743e+00 0.0 
1.181396999743e+00 -1.325545432556e+02 0.0 
0.0 0.0 -1.145694467174e+02 
-1.288132011114e+02 1.827998702962e+00 0.0 
1.827998702962e+00 -1.483590484720e+02 0.0 
0.0 0.0 -1.286389254860e+02 
-1.070884781088e+02 1.332597714950e+00 0.0 
1.332597714950e+00 -1.239501786800e+02 0.0 
0.0 0.0 -1.069785772671e+02 
-2.202047315462e+02 1.494378525149e+01 0.0 
1.494378525149e+01 -2.220002027854e+02 0.0 
0.0 0.0 -2.061240117889e+02 
-3.265090519265e+02 1.748470069989e+01 0.0 
1.748470069989e+01 -3.539258807423e+02 0.0 
0.0 0.0 -3.179762306948e+02 
-2.101067650169e+02 5.398181621492e+00 0.0 
5.398181621492e+00 -2.384495298106e+02 0.0 
0.0 0.0 -2.091060617805e+02 
-2.004918645209e+02 5.115401807964e+00 0.0 
5.115401807964e+00 -2.277230060722e+02 0.0 
0.0 0.0 -1.995554869066e+02 
-1.827055901678e+02 3.869175927754e+00 0.0 
3.869175927754e+00 -2.083938656546e+02 0.0 
0.0 0.0 -1.821292957187e+02 
-1.554385008332e+02 9.215516104570e-01 0.0 
9.215516104570e-01 -1.787317598897e+02 0.0 
0.0 0.0 -1.554002656349e+02 
-1.648596565599e+02 1.362858008190e+00 0.0 
1.362858008190e+00 -1.892909144523e+02 0.0 
0.0 0.0 -1.647812926084e+02 
-1.826421976918e+02 2.049227210164e+00 0.0 
2.049227210164e+00 -2.092080335134e+02 0.0 
0.0 0.0 -1.824817949549e+02 
-1.457891935874e+02 5.978510959507e-01 0.0 
5.978510959507e-01 -1.678733785018e+02 0.0 
0.0 0.0 -1.457716273680e+02 
-1.969861806066e+02 1.236519177143e+01 0.0 
1.236519177143e+01 -2.096080836900e+02 0.0 
0.0 0.0 -1.894043186858e+02 
-3.262190441428e+02 1.656930059216e+01 0.0 
1.656930059216e+01 -3.560142260643e+02 0.0 
0.0 0.0 -3.188205745869e+02 
-1.974275387870e+02 6.766790641622e+00 0.0 
6.766790641622e+00 -2.226106788455e+02 0.0 
0.0 0.0 -1.957164373190e+02 
-1.563803238731e+02 1.214602773514e+00 0.0 
1.214602773514e+00 -1.797377167564e+02 0.0 
0.0 0.0 -1.563147747480e+02 
-1.091911674030e+02 1.764494959004e+00 0.0 
1.764494959004e+00 -9.424669459069e+01 0.0 
0.0 0.0 -9.401962934717e+01 
-1.294254946347e+02 3.676475815456e+00 0.0 
3.676475815456e+00 -1.133041282294e+02 0.0 
0.0 0.0 -1.124676445793e+02 
-1.387394567488e+02 4.936835335547e+00 0.0 
4.936835335547e+00 -1.226287171530e+02 0.0 
0.0 0.0 -1.212186973658e+02 
-1.468240752794e+02 5.631850249734e+00 0.0 
5.631850249734e+00 -1.304737693501e+02 0.0 
0.0 0.0 -1.286978940655e+02 
-1.242471489669e+02 2.795602551966e+00 0.0 
2.795602551966e+00 -1.080863723664e+02 0.0 
0.0 0.0 -1.075865337523e+02 
-1.897347253520e+02 1.479554229381e+00 0.0 
1.479554229381e+00 -2.173891084226e+02 0.0 
0.0 0.0 -1.896529587462e+02 
-1.979133726039e+02 1.424395702048e+00 0.0 
1.424395702048e+00 -2.266480826091e+02 0.0 
0.0 0.0 -1.978401587795e+02 
-1.881010789603e+02 9.859352322418e-01 0.0 
9.859352322418e-01 -2.156377193984e+02 0.0 
0.0 0.0 -1.880636386564e+02 
-2.057724729699e+02 1.276115693111e+00 0.0 
1.276115693111e+00 -2.355616129990e+02 0.0 
0.0 0.0 -2.057151366582e+02 
-1.957667866097e+02 7.977500502162e-01 0.0 
7.977500502162e-01 -2.243255145412e+02 0.0 
0.0 0.0 -1.957418302652e+02 
-1.795461920210e+02 6.087436699355e-01 0.0 
6.087436699355e-01 -2.060152910562e+02 0.0 
0.0 0.0 -1.795291423202e+02 
-2.133340280947e+02 9.592698775899e-01 0.0 
9.592698775899e-01 -2.441569238471e+02 0.0 
0.0 0.0 -2.133010046104e+02 
-2.015637529323e+02 4.920888851712e-01 0.0 
4.920888851712e-01 -2.309079296815e+02 0.0 
0.0 0.0 -2.015541179493e+02 
-9.944181596412e+01 8.600602859761e-01 0.0 
8.600602859761e-01 -8.531273410210e+01 0.0 
0.0 0.0 -8.524756071525e+01 
-1.244115606140e+01 -2.865940315120e-01 0.0 
-2.865940315120e-01 -1.720419774190e+01 0.0 
0.0 0.0 -1.242168699731e+01 
-2.735977178974e+01 -5.171185620422e-01 0.0 
-5.171185620422e-01 -3.401589118121e+01 0.0 
0.0 0.0 -2.731949798563e+01 
-2.689068730227e+01 -4.416002178750e-01 0.0 
-4.416002178750e-01 -3.350841270299e+01 0.0 
0.0 0.0 -2.686098841346e+01 
-4.108039730667e+01 -6.524468680440e-01 0.0 
-6.524468680440e-01 -4.949679219806e+01 0.0 
0.0 0.0 -4.103001119153e+01 
-4.231180097374e+01 -6.638658685072e-01 0.0 
-6.638658685072e-01 -5.088556210393e+01 0.0 
0.0 0.0 -4.226021826074e+01 
-5.740233829361e+01 -6.957333905497e-01 0.0 
-6.957333905497e-01 -6.794693277477e+01 0.0 
0.0 0.0 -5.735597562095e+01 
-5.564251311079e+01 -6.617539945062e-01 0.0 
-6.617539945062e-01 -6.596571552486e+01 0.0 
0.0 0.0 -5.559950540291e+01 
-2.758617859570e+01 -5.635119696791e-01 0.0 
-5.635119696791e-01 -3.425595990137e+01 0.0 
0.0 0.0 -2.753851457895e+01 
-1.209451964218e+01 -1.982343228480e-01 0.0 
-1.982343228480e-01 -1.683332646685e+01 0.0 
0.0 0.0 -1.208480739254e+01 
-2.671844682942e+01 -3.802532408675e-01 0.0 
-3.802532408675e-01 -3.332995090256e+01 0.0 
0.0 0.0 -2.669632893433e+01 
-1.189830451726e+01 -1.601070131793e-01 0.0 
-1.601070131793e-01 -1.661864640281e+01 0.0 
0.0 0.0 -1.189188652219e+01 
-2.623389953438e+01 -3.334867051016e-01 0.0 
-3.334867051016e-01 -3.279214315554e+01 0.0 
0.0 0.0 -2.621631936054e+01 
-4.309658384657e+01 -5.206542582751e-01 0.0 
-5.206542582751e-01 -5.181526499245e+01 0.0 
0.0 0.0 -4.306519260498e+01 
-6.659549393004e+01 -3.245747863358e-01 0.0 
-3.245747863358e-01 -7.841245428061e+01 0.0 
0.0 0.0 -6.658599146474e+01 
-3.195030357624e+02 4.818059274894e+00 0.0 
4.818059274894e+00 -3.630387673648e+02 0.0 
0.0 0.0 -3.189654349821e+02 
-1.523905543058e+02 1.440739511592e-01 0.0 
1.440739511592e-01 -1.753626441272e+02 0.0 
0.0 0.0 -1.523873677589e+02 
-1.426452658832e+02 2.301632895319e-01 0.0 
2.301632895319e-01 -1.643500670978e+02 0.0 
0.0 0.0 -1.426412680790e+02 
-1.262488441559e+02 1.874438363772e-01 0.0 
1.874438363772e-01 -1.458252302210e+02 0.0 
0.0 0.0 -1.262452630035e+02 
-1.353390364033e+02 2.754639604617e-01 0.0 
2.754639604617e-01 -1.560926038942e+02 0.0 
0.0 0.0 -1.353339030402e+02 
-1.597104190164e+02 3.113269811809e-01 0.0 
3.113269811809e-01 -1.836275425066e+02 0.0 
0.0 0.0 -1.597046256396e+02 
-1.166378982439e+02 8.989609031580e-02 0.0 
8.989609031580e-02 -1.349698251752e+02 0.0 
0.0 0.0 -1.166360333367e+02 
-1.090360889069e+02 1.193245410744e-01 0.0 
1.193245410744e-01 -1.263805323124e+02 0.0 
0.0 0.0 -1.090340910112e+02 
-1.199885482810e+01 -2.158433463307e-02 0.0 
-2.158433463307e-02 -1.674569149258e+01 0.0 
0.0 0.0 -1.199874565306e+01 
-2.671475698220e+01 -4.041657546177e-02 0.0 
-4.041657546177e-02 -3.337235163154e+01 0.0 
0.0 0.0 -2.671450421893e+01 
-2.536546480870e+01 -4.294567647977e-02 0.0 
-4.294567647977e-02 -3.184705513014e+01 0.0 
0.0 0.0 -2.536484580490e+01 
-4.161438571663e+01 -4.008787023131e-02 0.0 
-4.008787023131e-02 -5.020669787030e+01 0.0 
0.0 0.0 -4.161403635271e+01 
-4.098638206436e+01 -1.799116976737e-02 0.0 
-1.799116976737e-02 -4.949763729008e+01 0.0 
0.0 0.0 -4.098626654091e+01 
-2.691367967933e+01 -2.858016983333e-02 0.0 
-2.858016983333e-02 -3.359737419106e+01 0.0 
0.0 0.0 -2.691355227325e+01 
-2.694881508328e+01 -2.579201984503e-02 0.0 
-2.579201984503e-02 -3.363711408730e+01 0.0 
0.0 0.0 -2.694870724335e+01 
-1.193072965193e+01 -1.549788551014e-02 0.0 
-1.549788551014e-02 -1.666883788983e+01 0.0 
0.0 0.0 -1.193067614784e+01 
-2.688497801231e+01 -2.268720213095e-02 0.0 
-2.268720213095e-02 -3.356501909305e+01 0.0 
0.0 0.0 -2.688488529304e+01 
-4.183754852272e+01 -2.976014266318e-02 0.0 
-2.976014266318e-02 -5.045921654583e+01 0.0 
0.0 0.0 -4.183737526714e+01 
-1.143606225836e+01 -2.234848594983e-02 0.0 
-2.234848594983e-02 -1.610979934599e+01 0.0 
0.0 0.0 -1.143594690300e+01 
-1.414175912298e+02 1.053227766426e+00 0.0 
1.053227766426e+00 -1.224782029548e+02 0.0 
0.0 0.0 -1.224054494085e+02 
-1.521836488745e+02 2.410419607597e+00 0.0 
2.410419607597e+00 -1.324628715505e+02 0.0 
0.0 0.0 -1.321481971317e+02 
-3.240765042995e+02 1.432922682140e+01 0.0 
1.432922682140e+01 -3.582117861399e+02 0.0 
0.0 0.0 -3.188464073330e+02 
-9.429789185848e+01 6.604658694325e-01 0.0 
6.604658694325e-01 -8.071277493419e+01 0.0 
0.0 0.0 -8.067267521588e+01 
-1.209396492608e+01 -1.000427382245e-01 0.0 
-1.000427382245e-01 -1.684789970862e+01 0.0 
0.0 0.0 -1.209138928068e+01 
-1.966552622731e+02 1.313561589483e+01 0.0 
1.313561589483e+01 -1.943239105564e+02 0.0 
0.0 0.0 -1.820728212203e+02 
-2.060610064061e+02 1.362581357109e+01 0.0 
1.362581357109e+01 -2.016071520567e+02 0.0 
0.0 0.0 -1.899085265782e+02 
-2.014219669197e+02 1.346641672053e+01 0.0 
1.346641672053e+01 -1.978282244239e+02 0.0 
0.0 0.0 -1.859561767165e+02 
-2.930115077584e+02 1.067553601449e+00 0.0 
1.067553601449e+00 -3.341754672717e+02 0.0 
0.0 0.0 -2.929755915828e+02 
-3.014012300488e+02 2.163726386448e+00 0.0 
2.163726386448e+00 -3.434745205915e+02 0.0 
0.0 0.0 -3.012807119100e+02 
-1.909292382623e+02 1.244984711985e+01 0.0 
1.244984711985e+01 -1.933654327213e+02 0.0 
0.0 0.0 -1.786188615731e+02 
-1.031929737150e+02 -1.433036093281e-01 0.0 
-1.433036093281e-01 -1.197790450538e+02 0.0 
0.0 0.0 -1.031911811878e+02 
-2.240420924103e+02 1.477620051778e+01 0.0 
1.477620051778e+01 -2.190144936802e+02 0.0 
0.0 0.0 -2.065238738534e+02 
-1.756142806987e+02 7.927032896675e+00 0.0 
7.927032896675e+00 -1.587204165233e+02 0.0 
0.0 0.0 -1.554774708039e+02 
-6.653524112336e+01 1.420757459957e+00 0.0 
1.420757459957e+00 -7.797208466636e+01 0.0 
0.0 0.0 -6.635094244067e+01 
-1.020858979464e+02 -2.859461901744e-01 0.0 
-2.859461901744e-01 -1.185202467947e+02 0.0 
0.0 0.0 -1.020803712080e+02 
-2.405717970760e+02 1.937444974037e+00 0.0 
1.937444974037e+00 -2.747571843622e+02 0.0 
0.0 0.0 -2.404567447836e+02 
-2.182014787870e+02 3.764380430372e+00 0.0 
3.764380430372e+00 -2.487416675032e+02 0.0 
0.0 0.0 -2.177389381989e+02 
-2.775564904996e+02 4.578941396305e+00 0.0 
4.578941396305e+00 -3.156198010677e+02 0.0 
0.0 0.0 -2.770071138999e+02 
-2.248575544529e+02 2.634815112403e+00 0.0 
2.634815112403e+00 -2.567782058493e+02 0.0 
0.0 0.0 -2.246373199738e+02 
-2.619832723658e+02 5.540582655237e+00 0.0 
5.540582655237e+00 -2.973747577658e+02 0.0 
0.0 0.0 -2.611289809716e+02 
-3.049830984988e+02 1.646951892880e+01 0.0 
1.646951892880e+01 -3.305412053274e+02 0.0 
0.0 0.0 -2.968900806567e+02 
-6.673763657070e+01 -1.933763380046e-02 0.0 
-1.933763380046e-02 -7.859053050571e+01 0.0 
0.0 0.0 -6.673633857015e+01 
-1.251853953336e+02 2.506180297056e+00 0.0 
2.506180297056e+00 -1.086887348223e+02 0.0 
0.0 0.0 -1.083098705130e+02 
-1.124012260200e+02 1.467171295897e+00 0.0 
1.467171295897e+00 -9.692883550793e+01 0.0 
0.0 0.0 -9.678609703277e+01 
-1.519956735171e+02 4.270944662302e+00 0.0 
4.270944662302e+00 -1.335139252666e+02 0.0 
0.0 0.0 -1.325534241401e+02 
-1.039555040371e+02 4.916751172774e-02 0.0 
4.916751172774e-02 -1.206425971258e+02 0.0 
0.0 0.0 -1.039546489508e+02 
-1.706868260814e+02 6.642210729842e-01 0.0 
6.642210729842e-01 -1.959984764117e+02 0.0 
0.0 0.0 -1.706665192353e+02 
-7.095338005090e+01 -1.264830732887e-01 0.0 
-1.264830732887e-01 -8.335141279441e+01 0.0 
0.0 0.0 -7.095098625326e+01 
-2.670048264433e+02 1.765293390105e+01 0.0 
1.765293390105e+01 -2.738288319955e+02 0.0 
0.0 0.0 -2.524315369379e+02 
-1.347461565541e+02 9.583493517128e+00 0.0 
9.583493517128e+00 -1.327383874682e+02 0.0 
0.0 0.0 -1.240904161854e+02 
-1.742988464416e+02 2.987998674983e+00 0.0 
2.987998674983e+00 -1.993632417828e+02 0.0 
0.0 0.0 -1.739422148669e+02 
-1.375764479462e+02 4.890898355417e-01 0.0 
4.890898355417e-01 -1.586045923969e+02 0.0 
0.0 0.0 -1.375638108490e+02 
-1.110007562250e+02 -8.508622125624e-02 0.0 
-8.508622125624e-02 -1.286020522677e+02 0.0 
0.0 0.0 -1.109995627760e+02 
-9.589055665376e+01 -3.763531748072e-01 0.0 
-3.763531748072e-01 -1.115112750243e+02 0.0 
0.0 0.0 -9.588076693675e+01 
-1.384401103933e+02 8.261496237935e+00 0.0 
8.261496237935e+00 -1.507481201804e+02 0.0 
0.0 0.0 -1.342805917139e+02 
-1.655298941772e+02 1.753120392390e+00 0.0 
1.753120392390e+00 -1.899409824094e+02 0.0 
0.0 0.0 -1.654011940027e+02 
-2.467683453171e+02 7.186732605279e+00 0.0 
7.186732605279e+00 -2.786991274252e+02 0.0 
0.0 0.0 -2.452169041113e+02 
-1.603562194029e+02 5.205973063672e+00 0.0 
5.205973063672e+00 -1.417137279254e+02 0.0 
0.0 0.0 -1.403287326381e+02 
-1.376242695507e+01 -6.686906277256e-02 0.0 
-6.686906277256e-02 -1.873543793476e+01 0.0 
0.0 0.0 -1.376097968383e+01 
-2.565748490743e+02 8.500731072705e+00 0.0 
8.500731072705e+00 -2.885519321989e+02 0.0 
0.0 0.0 -2.544472164007e+02 
-2.011123323419e+02 3.598987814452e+00 0.0 
3.598987814452e+00 -2.294488950455e+02 0.0 
0.0 0.0 -2.006571332803e+02 
-1.421122492839e+02 4.235336671666e+00 0.0 
4.235336671666e+00 -1.248243181436e+02 0.0 
0.0 0.0 -1.238331337337e+02 
-2.411445675142e+02 1.207352184236e+01 0.0 
1.207352184236e+01 -2.648225085231e+02 0.0 
0.0 0.0 -2.360612030820e+02 
-6.649097130163e+01 -6.579170184727e-01 0.0 
-6.579170184727e-01 -7.823537455130e+01 0.0 
0.0 0.0 -6.645377533419e+01 
-1.632716770088e+02 6.064853950405e+00 0.0 
6.064853950405e+00 -1.452183585300e+02 0.0 
0.0 0.0 -1.433430512249e+02 
-1.967216259742e+02 1.200270424337e+01 0.0 
1.200270424337e+01 -1.861777701009e+02 0.0 
0.0 0.0 -1.782792563269e+02 
-1.374825503973e+02 4.104685685554e+00 0.0 
4.104685685554e+00 -1.206756840682e+02 0.0 
0.0 0.0 -1.197115872158e+02 
-5.404204827630e+01 -1.158512930083e-01 0.0 
-1.158512930083e-01 -6.424470778915e+01 0.0 
0.0 0.0 -5.404002893226e+01 
-1.134560939412e+02 1.625736393203e+00 0.0 
1.625736393203e+00 -9.792085043276e+01 0.0 
0.0 0.0 -9.774713632159e+01 
-2.965299580881e+02 1.329337414069e+01 0.0 
1.329337414069e+01 -3.277780918365e+02 0.0 
0.0 0.0 -2.916238971557e+02 
-1.725870687458e+02 9.103291732272e+00 0.0 
9.103291732272e+00 -1.583184764458e+02 0.0 
0.0 0.0 -1.538674373647e+02 
-9.744555501099e+01 2.692486308867e-02 0.0 
2.692486308867e-02 -1.132871272890e+02 0.0 
0.0 0.0 -9.744464653004e+01 
-1.705359219337e+02 5.296042018996e+00 0.0 
5.296042018996e+00 -1.933663653612e+02 0.0 
0.0 0.0 -1.693598558119e+02 
-1.400712147739e+02 9.655645719564e+00 0.0 
9.655645719564e+00 -1.468272010344e+02 0.0 
0.0 0.0 -1.332054925904e+02 
-1.096260472538e+02 6.239542170040e+00 0.0 
6.239542170040e+00 -1.000552027732e+02 0.0 
0.0 0.0 -9.695098480156e+01 
-1.814112047635e+02 9.586944346081e+00 0.0 
9.586944346081e+00 -1.671122769057e+02 0.0 
0.0 0.0 -1.621392977572e+02 
-1.666190564033e+02 8.787502618571e+00 0.0 
8.787502618571e+00 -1.834251546603e+02 0.0 
0.0 0.0 -1.628533008563e+02 
-2.635685527237e+02 1.319912842997e+01 0.0 
1.319912842997e+01 -2.889898566026e+02 0.0 
0.0 0.0 -2.579364666782e+02 
-2.053228159834e+02 7.938325112607e+00 0.0 
7.938325112607e+00 -2.302246757881e+02 0.0 
0.0 0.0 -2.029982521122e+02 
-1.017205117386e+02 2.350701088642e-02 0.0 
2.350701088642e-02 -1.181175220731e+02 0.0 
0.0 0.0 -1.017197326972e+02 
-2.735983339053e+02 8.425807990147e+00 0.0 
8.425807990147e+00 -3.081572741002e+02 0.0 
0.0 0.0 -2.716449478976e+02 
-1.640487162047e+02 6.522700877167e+00 0.0 
6.522700877167e+00 -1.844635281709e+02 0.0 
0.0 0.0 -1.621340216953e+02 
-1.815908477967e+02 8.477330030138e+00 0.0 
8.477330030138e+00 -1.646425696090e+02 0.0 
0.0 0.0 -1.610640814910e+02 
-1.998922236554e+02 1.347062969390e+01 0.0 
1.347062969390e+01 -2.065589650390e+02 0.0 
0.0 0.0 -1.893371427479e+02 
-1.414337630308e+02 3.619500037296e+00 0.0 
3.619500037296e+00 -1.616362561047e+02 0.0 
0.0 0.0 -1.407982799306e+02 
-1.730441094008e+02 8.216044647082e+00 0.0 
8.216044647082e+00 -1.568669308916e+02 0.0 
0.0 0.0 -1.534005038111e+02 
-1.733564392309e+02 3.632317603605e+00 0.0 
3.632317603605e+00 -1.979252843629e+02 0.0 
0.0 0.0 -1.728246013522e+02 
-2.492229831098e+02 1.343880999933e+01 0.0 
1.343880999933e+01 -2.711554096165e+02 0.0 
0.0 0.0 -2.428275119443e+02 
-1.279422889408e+02 9.285097938733e+00 0.0 
9.285097938733e+00 -1.280570904737e+02 0.0 
0.0 0.0 -1.186979754565e+02 
-1.704672484061e+02 1.174158008481e+01 0.0 
1.174158008481e+01 -1.757947699444e+02 0.0 
0.0 0.0 -1.610775100230e+02 
-1.777040133410e+02 1.212513026897e+01 0.0 
1.212513026897e+01 -1.746035232870e+02 0.0 
0.0 0.0 -1.639159629402e+02 
-1.682162700228e+02 1.061336657393e+01 0.0 
1.061336657393e+01 -1.798159789296e+02 0.0 
0.0 0.0 -1.619086573267e+02 
-2.310545277432e+02 1.168960453664e+00 0.0 
1.168960453664e+00 -2.641512446128e+02 0.0 
0.0 0.0 -2.310086248866e+02 
-2.652555864555e+02 8.615093391130e+00 0.0 
8.615093391130e+00 -2.983849601607e+02 0.0 
0.0 0.0 -2.631396806091e+02 
-6.950250636388e+01 -2.349853834587e-01 0.0 
-2.349853834587e-01 -8.169961636428e+01 0.0 
0.0 0.0 -6.949424050521e+01 
-1.083734198620e+02 6.589428961158e+00 0.0 
6.589428961158e+00 -1.188284439808e+02 0.0 
0.0 0.0 -1.051771508829e+02 
-1.511908084737e+02 5.453344542320e+00 0.0 
5.453344542320e+00 -1.340232720580e+02 0.0 
0.0 0.0 -1.324146743082e+02 
-2.441556077038e+02 1.579499179460e+01 0.0 
1.579499179460e+01 -2.550327235287e+02 0.0 
0.0 0.0 -2.328784903543e+02 
-1.949014876507e+02 1.111401788363e+01 0.0 
1.111401788363e+01 -1.817543277794e+02 0.0 
0.0 0.0 -1.753478104388e+02 
-1.251130075382e+02 8.767655104511e+00 0.0 
8.767655104511e+00 -1.313112030894e+02 0.0 
0.0 0.0 -1.188974394794e+02 
-2.638359913544e+02 7.074523790924e+00 0.0 
7.074523790924e+00 -2.983010032828e+02 0.0 
0.0 0.0 -2.624337425397e+02 
-1.866158346575e+02 1.046327462867e+01 0.0 
1.046327462867e+01 -1.733270271040e+02 0.0 
0.0 0.0 -1.675008517629e+02 
-1.741245784356e+02 1.926032862732e+00 0.0 
1.926032862732e+00 -1.996105055922e+02 0.0 
0.0 0.0 -1.739764873877e+02 
-7.613209215136e+01 -1.165522870932e-02 0.0 
-1.165522870932e-02 -8.920363589968e+01 0.0 
0.0 0.0 -7.613016011037e+01 
-5.151869678792e+01 8.679895084874e-01 0.0 
8.679895084874e-01 -6.121666101728e+01 0.0 
0.0 0.0 -5.143357207219e+01 
-1.137289766178e+02 2.180111165241e+00 0.0 
2.180111165241e+00 -1.310990852737e+02 0.0 
0.0 0.0 -1.134528901953e+02 
-1.621889114516e+02 7.798864551748e+00 0.0 
7.798864551748e+00 -1.802359719978e+02 0.0 
0.0 0.0 -1.592759230862e+02 
-1.919042898624e+02 2.759170061795e+00 0.0 
2.759170061795e+00 -2.194222536985e+02 0.0 
0.0 0.0 -1.916261880553e+02 
-2.164851618537e+02 1.419285871063e+01 0.0 
1.419285871063e+01 -2.107793716407e+02 0.0 
0.0 0.0 -1.991092907351e+02 
-2.716723147800e+02 6.856120236917e+00 0.0 
6.856120236917e+00 -3.074212942610e+02 0.0 
0.0 0.0 -2.703951032392e+02 
-2.469132206168e+02 9.385296648850e+00 0.0 
9.385296648850e+00 -2.763052140159e+02 0.0 
0.0 0.0 -2.441609501815e+02 
-1.258841612195e+01 7.131200531688e-01 0.0 
7.131200531688e-01 -1.697757232116e+01 0.0 
0.0 0.0 -1.238442388308e+01 
-1.166225215491e+02 7.034021734951e+00 0.0 
7.034021734951e+00 -1.077424927308e+02 0.0 
0.0 0.0 -1.038452114944e+02 
-2.796306255631e+02 6.459160549373e+00 0.0 
6.459160549373e+00 -3.167934269742e+02 0.0 
0.0 0.0 -2.785319817735e+02 
-1.795415977371e+02 5.429477989487e+00 0.0 
5.429477989487e+00 -2.035359949242e+02 0.0 
0.0 0.0 -1.783629220437e+02 
-2.610667938558e+02 1.393199204502e+01 0.0 
1.393199204502e+01 -2.841867757370e+02 0.0 
0.0 0.0 -2.545067452383e+02 
-1.848645680283e+02 3.359168629262e-01 0.0 
3.359168629262e-01 -2.120466692410e+02 0.0 
0.0 0.0 -1.848580060204e+02 
-2.714618956791e+02 1.783198606791e+01 0.0 
1.783198606791e+01 -2.796155480484e+02 0.0 
0.0 0.0 -2.572411332210e+02 
-7.718794643005e+01 6.082429874194e+00 0.0 
6.082429874194e+00 -7.552786432184e+01 0.0 
0.0 0.0 -7.020493758520e+01 
-2.873632321952e+02 5.807148446193e+00 0.0 
5.807148446193e+00 -3.260347590528e+02 0.0 
0.0 0.0 -2.865014764702e+02 
-2.453339010308e+02 1.038670618256e+01 0.0 
1.038670618256e+01 -2.729669569009e+02 0.0 
0.0 0.0 -2.418520811495e+02 
-1.079097013863e+02 4.693432648012e+00 0.0 
4.693432648012e+00 -1.220803674178e+02 0.0 
0.0 0.0 -1.064862509705e+02 
-8.382175924562e+01 1.618235097763e-01 0.0 
1.618235097763e-01 -7.136999506243e+01 0.0 
0.0 0.0 -7.136742670318e+01 
-3.067977387440e+02 6.488073190856e+00 0.0 
6.488073190856e+00 -3.476704358110e+02 0.0 
0.0 0.0 -3.057844851838e+02 
-2.658155775684e+02 1.233030873334e+01 0.0 
1.233030873334e+01 -2.934836760056e+02 0.0 
0.0 0.0 -2.611013845797e+02 
-1.811747679391e+02 1.139869121696e+01 0.0 
1.139869121696e+01 -1.932575982428e+02 0.0 
0.0 0.0 -1.743038708267e+02 
-1.719764121630e+02 4.403845863669e+00 0.0 
4.403845863669e+00 -1.958069050209e+02 0.0 
0.0 0.0 -1.711820520414e+02 
-8.160455730884e+01 5.792995588282e+00 0.0 
5.792995588282e+00 -7.659202289303e+01 0.0 
0.0 0.0 -7.277823325985e+01 
-2.002977185111e+02 2.838417873907e+00 0.0 
2.838417873907e+00 -2.288945674260e+02 0.0 
0.0 0.0 -2.000143966819e+02 
-1.755339103666e+02 1.217602287471e+01 0.0 
1.217602287471e+01 -1.788161691922e+02 0.0 
0.0 0.0 -1.648749645799e+02 
-2.167581957046e+02 1.453146754312e+01 0.0 
1.453146754312e+01 -2.138855714793e+02 0.0 
0.0 0.0 -2.006958868355e+02 
-2.758803865394e+02 1.387652320618e+01 0.0 
1.387652320618e+01 -3.021367096509e+02 0.0 
0.0 0.0 -2.698896658389e+02 
-1.679070888672e+02 9.407635842283e+00 0.0 
9.407635842283e+00 -1.552621788937e+02 0.0 
0.0 0.0 -1.502351500678e+02 
-1.908963753567e+02 2.097559685593e+00 0.0 
2.097559685593e+00 -2.185313959507e+02 0.0 
0.0 0.0 -1.907346887007e+02 
-2.058971134611e+02 1.097232365476e+01 0.0 
1.097232365476e+01 -2.252573752586e+02 0.0 
0.0 0.0 -2.009356775312e+02 
-4.127274678926e+01 -1.207063235705e-02 0.0 
-1.207063235705e-02 -4.982114261598e+01 0.0 
0.0 0.0 -4.127260881057e+01 
-9.419929509573e+01 6.732533958225e+00 0.0 
6.732533958225e+00 -8.972786711699e+01 0.0 
0.0 0.0 -8.485909088375e+01 
-1.992242004611e+02 2.098580750130e+00 0.0 
2.098580750130e+00 -2.279526118679e+02 0.0 
0.0 0.0 -1.990681044568e+02 
-1.213636547117e+02 1.964483641345e+00 0.0 
1.964483641345e+00 -1.398624858474e+02 0.0 
0.0 0.0 -1.211520107828e+02 
-1.813253555374e+02 4.593314876876e+00 0.0 
4.593314876876e+00 -2.063053698390e+02 0.0 
0.0 0.0 -1.805006796759e+02 
-2.861116087068e+02 1.759502344409e+01 0.0 
1.759502344409e+01 -3.025465147002e+02 0.0 
0.0 0.0 -2.748857726010e+02 
-2.073938405344e+02 2.045297956376e+00 0.0 
2.045297956376e+00 -2.372107642194e+02 0.0 
0.0 0.0 -2.072506896348e+02 
-1.353139415232e+02 2.675328467801e+00 0.0 
2.675328467801e+00 -1.553138931619e+02 0.0 
0.0 0.0 -1.349565053911e+02 
-2.153841159635e+02 1.876398327974e+00 0.0 
1.876398327974e+00 -2.462940278322e+02 0.0 
0.0 0.0 -2.152669480395e+02 
-6.346694415544e+01 5.088773873095e+00 0.0 
5.088773873095e+00 -6.072620783272e+01 0.0 
0.0 0.0 -5.681316201500e+01 
-1.739998790492e+02 1.046533007693e+01 0.0 
1.046533007693e+01 -1.632428257031e+02 0.0 
0.0 0.0 -1.568428198243e+02 
-2.232023330972e+02 1.581639696656e+00 0.0 
1.581639696656e+00 -2.552024486115e+02 0.0 
0.0 0.0 -2.231203316539e+02 
-1.894376526623e+02 1.300258425609e+01 0.0 
1.300258425609e+01 -1.934535603226e+02 0.0 
0.0 0.0 -1.782754142550e+02 
-4.329923937614e+01 -5.025578749446e-02 0.0 
-5.025578749446e-02 -5.210920359660e+01 0.0 
0.0 0.0 -4.329835029352e+01 
-1.906727237199e+02 1.151447197961e+01 0.0 
1.151447197961e+01 -2.049557006293e+02 0.0 
0.0 0.0 -1.842557079363e+02 
-2.838402378285e+02 1.980749962989e+00 0.0 
1.980749962989e+00 -3.236634990219e+02 0.0 
0.0 0.0 -2.837340439984e+02 
-1.264619251678e+02 3.267691051460e-01 0.0 
3.267691051460e-01 -1.460583124164e+02 0.0 
0.0 0.0 -1.264547426874e+02 
-1.908200449671e+02 4.837966621358e+00 0.0 
4.837966621358e+00 -2.169263470285e+02 0.0 
0.0 0.0 -1.899452582841e+02 
-1.827924314571e+02 1.141978608795e+01 0.0 
1.141978608795e+01 -1.734440463208e+02 0.0 
0.0 0.0 -1.657606541573e+02 
-4.933937403946e+01 4.388004096303e+00 0.0 
4.388004096303e+00 -4.798056081498e+01 0.0 
0.0 0.0 -4.419582168621e+01 
-2.088319446876e+02 6.197992718264e+00 0.0 
6.197992718264e+00 -2.362806412738e+02 0.0 
0.0 0.0 -2.074891937092e+02 
-2.068711986258e+02 1.404031682831e+01 0.0 
1.404031682831e+01 -2.117027501082e+02 0.0 
0.0 0.0 -1.950289431893e+02 
-2.013188696826e+02 1.171855882487e+01 0.0 
1.171855882487e+01 -2.175652310330e+02 0.0 
0.0 0.0 -1.951745637559e+02 
-1.729862971540e+02 8.607324358268e+00 0.0 
8.607324358268e+00 -1.913791331642e+02 0.0 
0.0 0.0 -1.695773077499e+02 
-2.275895631133e+02 7.722533851569e+00 0.0 
7.722533851569e+00 -2.561513883301e+02 0.0 
0.0 0.0 -2.256257357989e+02 
-6.362626784689e+01 5.360647898986e+00 0.0 
5.360647898986e+00 -6.399045605187e+01 0.0 
0.0 0.0 -5.842057551229e+01 
-9.830644047463e+01 -2.439672379269e-01 0.0 
-2.439672379269e-01 -1.142526380911e+02 0.0 
0.0 0.0 -9.830216437564e+01 
-8.317359245271e+01 -3.162862206064e-01 0.0 
-3.162862206064e-01 -9.714708589383e+01 0.0 
0.0 0.0 -8.316579773975e+01 
-1.418576237471e+02 2.556928580618e+00 0.0 
2.556928580618e+00 -1.628021184169e+02 0.0 
0.0 0.0 -1.415446764777e+02 
-2.137505048719e+02 1.453268846348e+01 0.0 
1.453268846348e+01 -2.168250125426e+02 0.0 
0.0 0.0 -2.006638426421e+02 
-5.568444657179e+01 -3.064669279439e-03 0.0 
-3.064669279439e-03 -6.610389738287e+01 0.0 
0.0 0.0 -5.568407199079e+01 
-1.875896909195e+02 1.238142023606e+01 0.0 
1.238142023606e+01 -1.816008436408e+02 0.0 
0.0 0.0 -1.718427597068e+02 
-5.985092256698e+01 -3.968075466500e-01 0.0 
-3.968075466500e-01 -7.078088959539e+01 0.0 
0.0 0.0 -5.983620039092e+01 
-1.353334233446e+02 1.754474605953e+00 0.0 
1.754474605953e+00 -1.557697630534e+02 0.0 
0.0 0.0 -1.351796894747e+02 
-2.333231771057e+02 1.352530090070e+01 0.0 
1.352530090070e+01 -2.513993320424e+02 0.0 
0.0 0.0 -2.260865904688e+02 
-1.076076873509e+02 4.230302702112e-01 0.0 
4.230302702112e-01 -9.244833083785e+01 0.0 
0.0 0.0 -9.243180776210e+01 
-1.405286523785e+02 1.722422580009e+00 0.0 
1.722422580009e+00 -1.616602933632e+02 0.0 
0.0 0.0 -1.403846040090e+02 
-8.977598529840e+01 -7.573885017367e-03 0.0 
-7.573885017367e-03 -1.046208516734e+02 0.0 
0.0 0.0 -8.977474534039e+01 
-1.336141184701e+02 1.055689764850e+00 0.0 
1.055689764850e+00 -1.540315541377e+02 0.0 
0.0 0.0 -1.335563398040e+02 
-1.872827411213e+02 9.643454663501e+00 0.0 
9.643454663501e+00 -2.061252418288e+02 0.0 
0.0 0.0 -1.832131805503e+02 
-1.377495014250e+02 1.116726775474e+00 0.0 
1.116726775474e+00 -1.586935053359e+02 0.0 
0.0 0.0 -1.376868076391e+02 
-1.305797760194e+02 5.966621419099e-01 0.0 
5.966621419099e-01 -1.506833969899e+02 0.0 
0.0 0.0 -1.305596695810e+02 
-1.884704785256e+02 1.143548397307e+01 0.0 
1.143548397307e+01 -1.786572250724e+02 0.0 
0.0 0.0 -1.708742325609e+02 
-1.340346138759e+02 7.144175532968e-01 0.0 
7.144175532968e-01 -1.545715516000e+02 0.0 
0.0 0.0 -1.340073042472e+02 
-1.924408207249e+02 9.642109106628e+00 0.0 
9.642109106628e+00 -2.018093900883e+02 0.0 
0.0 0.0 -1.813365385459e+02 
-3.197294541347e+02 2.211539058256e+00 0.0 
2.211539058256e+00 -3.641847358514e+02 0.0 
0.0 0.0 -3.196097892467e+02 
-9.238153887168e+01 1.613319551623e-01 0.0 
1.613319551623e-01 -7.894583462137e+01 0.0 
0.0 0.0 -7.894331899996e+01 
-3.572302394085e+01 3.622378201544e+00 0.0 
3.622378201544e+00 -3.525551937823e+01 0.0 
0.0 0.0 -3.182818069698e+01 
-1.302448542671e+01 -5.899880507298e-01 0.0 
-5.899880507298e-01 -1.773488277037e+01 0.0 
0.0 0.0 -1.294473188128e+01 
-5.411104227475e+01 4.675645380002e+00 0.0 
4.675645380002e+00 -5.665246949297e+01 0.0 
0.0 0.0 -5.050776358386e+01 
-1.152617774277e+02 -5.001852243974e-02 0.0 
-5.001852243974e-02 -1.334164840908e+02 0.0 
0.0 0.0 -1.152606111982e+02 
-1.905282282972e+02 1.299693053749e+01 0.0 
1.299693053749e+01 -1.884977555917e+02 0.0 
0.0 0.0 -1.764606367123e+02 
-9.248914646661e+01 2.967788749653e-01 0.0 
2.967788749653e-01 -7.905052448580e+01 0.0 
0.0 0.0 -7.904299553970e+01 
-1.070920594107e+02 -2.021778218329e-01 0.0 
-2.021778218329e-01 -1.241819027385e+02 0.0 
0.0 0.0 -1.070890563287e+02 
-2.397961839959e+02 1.611699652245e+01 0.0 
1.611699652245e+01 -2.399473759607e+02 0.0 
0.0 0.0 -2.237489062192e+02 
-3.009607774232e+02 1.967314964949e+01 0.0 
1.967314964949e+01 -3.089586261175e+02 0.0 
0.0 0.0 -2.848682323094e+02 
-1.316979996318e+02 1.221725483987e+00 0.0 
1.221725483987e+00 -1.139090789476e+02 0.0 
0.0 0.0 -1.138186491077e+02 
-2.735406419210e+02 1.474890804426e+01 0.0 
1.474890804426e+01 -2.970771902130e+02 0.0 
0.0 0.0 -2.664156108973e+02 
-2.134891676033e+02 1.205671080456e+01 0.0 
1.205671080456e+01 -2.315245787241e+02 0.0 
0.0 0.0 -2.074427871589e+02 
-1.754168188468e+02 3.334687707349e+00 0.0 
3.334687707349e+00 -1.560712748000e+02 0.0 
0.0 0.0 -1.530934576216e+02 
-8.577718094692e+01 3.726757005854e-01 0.0 
3.726757005854e-01 -7.311835396808e+01 0.0 
0.0 0.0 -7.310640198807e+01 
-2.623598682556e+01 -2.842289773452e-01 0.0 
-2.842289773452e-01 -3.280400248632e+01 0.0 
0.0 0.0 -2.622286748892e+01 
-2.403955420087e+02 6.647153735962e-01 0.0 
6.647153735962e-01 -2.747650252148e+02 0.0 
0.0 0.0 -2.403776720231e+02 
-2.654701234130e+01 3.067659619283e+00 0.0 
3.067659619283e+00 -2.710229359280e+01 0.0 
0.0 0.0 -2.369186844836e+01 
-4.037561563607e+01 3.507196696927e+00 0.0 
3.507196696927e+00 -4.445629976931e+01 0.0 
0.0 0.0 -3.833252699256e+01 
-3.352418504226e+01 2.382893810939e+00 0.0 
2.382893810939e+00 -3.917931638403e+01 0.0 
0.0 0.0 -3.263807194979e+01 
-1.060891777540e+02 4.694963726721e-02 0.0 
4.694963726721e-02 -1.230527966690e+02 0.0 
0.0 0.0 -1.060880591432e+02 
-4.059158900362e+01 -5.933972215765e-01 0.0 
-5.933972215765e-01 -4.896202910254e+01 0.0 
0.0 0.0 -4.054943052185e+01 
-2.288167230835e+01 2.692027379118e+00 0.0 
2.692027379118e+00 -2.483985865919e+01 0.0 
0.0 0.0 -2.090869761424e+01 
-3.012639858075e+02 1.780485145694e+01 0.0 
1.780485145694e+01 -3.214173579112e+02 0.0 
0.0 0.0 -2.908601365046e+02 
-1.079364335284e+02 1.379264529567e+00 0.0 
1.379264529567e+00 -9.295151960085e+01 0.0 
0.0 0.0 -9.282241251265e+01 
-2.399123354450e+02 1.445466082034e+01 0.0 
1.445466082034e+01 -2.563002643949e+02 0.0 
0.0 0.0 -2.314813440610e+02 
-1.683235483635e+01 1.857427409016e+00 0.0 
1.857427409016e+00 -2.039022135288e+01 0.0 
0.0 0.0 -1.597929579102e+01 
-2.031754196801e+02 1.290957094441e+01 0.0 
1.290957094441e+01 -1.948933689578e+02 0.0 
0.0 0.0 -1.854014921051e+02 
-2.852660022333e+02 1.819099764288e+01 0.0 
1.819099764288e+01 -2.978532015812e+02 0.0 
0.0 0.0 -2.722851746449e+02 
-3.245399376002e+02 1.166399269668e+01 0.0 
1.166399269668e+01 -3.628858475252e+02 0.0 
0.0 0.0 -3.212585308450e+02 
-2.624122693575e+02 1.619913661717e+01 0.0 
1.619913661717e+01 -2.778895671152e+02 0.0 
0.0 0.0 -2.521818393037e+02 
-2.795284212497e+01 1.090030381290e+00 0.0 
1.090030381290e+00 -3.434752620771e+01 0.0 
0.0 0.0 -2.775365970861e+01 
-1.393926430600e+02 4.394347345573e+00 0.0 
4.394347345573e+00 -1.226009152442e+02 0.0 
0.0 0.0 -1.215123238341e+02 
-2.611877326344e+02 1.737168920493e+01 0.0 
1.737168920493e+01 -2.666539110256e+02 0.0 
0.0 0.0 -2.463316095937e+02 
-1.501218385553e+02 2.382363459255e+00 0.0 
2.382363459255e+00 -1.306214548285e+02 0.0 
0.0 0.0 -1.303155790379e+02 
-3.245437975265e+02 9.420479662563e+00 0.0 
9.420479662563e+00 -3.654724537127e+02 0.0 
0.0 0.0 -3.224747898588e+02 
-1.143228002510e+02 1.841074657557e+00 0.0 
1.841074657557e+00 -9.877984751068e+01 0.0 
0.0 0.0 -9.855737749369e+01 
-1.870848625329e+02 1.153389377134e+01 0.0 
1.153389377134e+01 -1.793614243868e+02 0.0 
0.0 0.0 -1.705542981782e+02 
-6.132523584132e+01 -5.494840902886e-01 0.0 
-5.494840902886e-01 -7.241702654148e+01 0.0 
0.0 0.0 -6.129659900309e+01 
-1.816466945457e+02 8.783862412981e+00 0.0 
8.783862412981e+00 -1.771974168988e+02 0.0 
0.0 0.0 -1.645562798598e+02 
-2.081677205475e+02 1.415591358391e+01 0.0 
1.415591358391e+01 -2.075878999885e+02 0.0 
0.0 0.0 -1.937056998331e+02 
-1.074583863536e+02 9.392163815307e-01 0.0 
9.392163815307e-01 -9.239995583970e+01 0.0 
0.0 0.0 -9.233899619820e+01 
-1.458506386881e+02 6.069470334106e+00 0.0 
6.069470334106e+00 -1.301980378981e+02 0.0 
0.0 0.0 -1.281113927079e+02 
-3.097700415415e+02 3.420779478209e+00 0.0 
3.420779478209e+00 -3.525857938641e+02 0.0 
0.0 0.0 -3.094878490518e+02 
-2.288056829618e+02 1.530596445752e+01 0.0 
1.530596445752e+01 -2.263450409479e+02 0.0 
0.0 0.0 -2.122022357737e+02 
-2.547429309159e+01 3.647768452518e-01 0.0 
3.647768452518e-01 -3.187895109216e+01 0.0 
0.0 0.0 -2.543091774864e+01 
-1.334180618024e+02 1.364797433330e+00 0.0 
1.364797433330e+00 -1.154651383886e+02 0.0 
0.0 0.0 -1.153568326876e+02 
-1.346898593614e+02 1.653131893243e-01 0.0 
1.653131893243e-01 -1.553662366510e+02 0.0 
0.0 0.0 -1.346880663213e+02 
-2.514732668447e+01 -6.008361333696e-01 0.0 
-6.008361333696e-01 -3.147891466220e+01 0.0 
0.0 0.0 -2.508958004538e+01 
-3.099624511669e+02 1.290132181572e+01 0.0 
1.290132181572e+01 -3.441808477593e+02 0.0 
0.0 0.0 -3.056319516649e+02 
-2.255359092768e+02 1.526197506964e+01 0.0 
1.526197506964e+01 -2.264015768698e+02 0.0 
0.0 0.0 -2.106935770146e+02 
-3.089318757263e+02 5.576454644052e+00 0.0 
5.576454644052e+00 -3.506690666315e+02 0.0 
0.0 0.0 -3.081943893599e+02 
-4.109222426706e+01 -2.408723333485e-02 0.0 
-2.408723333485e-02 -4.961587433286e+01 0.0 
0.0 0.0 -4.109147478921e+01 
-2.451799537658e+01 -1.511447525643e-01 0.0 
-1.511447525643e-01 -3.088281154691e+01 0.0 
0.0 0.0 -2.451422194476e+01 
-3.110549430300e+02 1.481674539276e+01 0.0 
1.481674539276e+01 -3.419119053338e+02 0.0 
0.0 0.0 -3.050795921520e+02 
-2.509803024682e+02 1.682873396017e+01 0.0 
1.682873396017e+01 -2.534504484674e+02 0.0 
0.0 0.0 -2.353398775865e+02 
-6.936798914484e+01 -5.946895996140e-01 0.0 
-5.946895996140e-01 -8.149964032424e+01 0.0 
0.0 0.0 -6.933719137832e+01 
-2.147521099178e+02 1.437738330302e+01 0.0 
1.437738330302e+01 -2.118008748431e+02 0.0 
0.0 0.0 -1.987752089433e+02 
-1.823253001204e+01 -2.893295127545e-01 0.0 
-2.893295127545e-01 -2.371612489108e+01 0.0 
0.0 0.0 -1.819825391789e+01 
-8.771939839329e+01 3.793452373655e-01 0.0 
3.793452373655e-01 -7.483985984122e+01 0.0 
0.0 0.0 -7.482656983261e+01 
-2.548349585974e+01 -3.335505551205e-02 0.0 
-3.335505551205e-02 -3.198118646457e+01 0.0 
0.0 0.0 -2.548323946874e+01 
-3.232377665874e+02 7.291815863788e+00 0.0 
7.291815863788e+00 -3.658072254030e+02 0.0 
0.0 0.0 -3.220187704537e+02 
-1.938752336652e+02 1.188297629095e+01 0.0 
1.188297629095e+01 -1.836344302027e+02 0.0 
0.0 0.0 -1.757487038738e+02 
-1.511605931228e+02 4.544742922765e-01 0.0 
4.544742922765e-01 -1.739589159388e+02 0.0 
0.0 0.0 -1.511508148388e+02 
-1.320364955552e+02 4.440135958908e+00 0.0 
4.440135958908e+00 -1.162748482491e+02 0.0 
0.0 0.0 -1.150883383493e+02 
-9.736503383045e+01 2.649456186099e-02 0.0 
2.649456186099e-02 -1.131956598494e+02 0.0 
0.0 0.0 -9.736389553763e+01 
-2.604756411682e+02 1.696659946754e+01 0.0 
1.696659946754e+01 -2.703806454964e+02 0.0 
0.0 0.0 -2.477470254172e+02 
-3.788529608006e+01 -4.176031646853e-01 0.0 
-4.176031646853e-01 -4.594740794776e+01 0.0 
0.0 0.0 -3.786338368350e+01 
-1.952581531452e+02 1.245002077622e+01 0.0 
1.245002077622e+01 -1.871831605282e+02 0.0 
0.0 0.0 -1.780641804195e+02 
-3.106880082047e+02 1.642353375298e+01 0.0 
1.642353375298e+01 -3.376472429446e+02 0.0 
0.0 0.0 -3.029049943720e+02 
-2.184012946189e+02 1.438768431791e+01 0.0 
1.438768431791e+01 -2.130997090616e+02 0.0 
0.0 0.0 -2.010983710102e+02 
-3.195393875183e+02 2.036065245120e+01 0.0 
2.036065245120e+01 -3.324582413705e+02 0.0 
0.0 0.0 -3.046245304485e+02 
-2.410788648793e+01 -6.819911904623e-01 0.0 
-6.819911904623e-01 -3.024391176900e+01 0.0 
0.0 0.0 -2.402169813237e+01 
-2.859900065341e+02 1.852451597111e+01 0.0 
1.852451597111e+01 -2.964186828247e+02 0.0 
0.0 0.0 -2.719515784606e+02 
-2.911507172587e+02 1.560214185578e+01 0.0 
1.560214185578e+01 -3.161649760476e+02 0.0 
0.0 0.0 -2.836457550012e+02 
-8.445504129715e+01 9.096767287869e-02 0.0 
9.096767287869e-02 -7.192937257512e+01 0.0 
0.0 0.0 -7.192739656251e+01 
-2.215480059070e+02 1.468195673267e+01 0.0 
1.468195673267e+01 -2.170411704091e+02 0.0 
0.0 0.0 -2.044263643058e+02 
-1.187279334207e+02 1.635940732564e-01 0.0 
1.635940732564e-01 -1.373293142104e+02 0.0 
0.0 0.0 -1.187251453699e+02 
-5.502040526600e+01 -2.453633950685e-02 0.0 
-2.453633950685e-02 -6.535296861778e+01 0.0 
0.0 0.0 -5.501972433005e+01 
-1.897410248652e+02 6.656463067288e+00 0.0 
6.656463067288e+00 -2.033109806846e+02 0.0 
0.0 0.0 -1.797522487798e+02 
-9.291756008623e+00 -2.608094721394e-02 0.0 
-2.608094721394e-02 -1.368629037212e+01 0.0 
0.0 0.0 -9.291295633730e+00 
-8.289535093938e+01 4.864025913111e-02 0.0 
4.864025913111e-02 -7.054647202388e+01 0.0 
0.0 0.0 -7.054581017623e+01 
-3.235683836345e+02 1.054161977473e+00 0.0 
1.054161977473e+00 -3.687135729645e+02 0.0 
0.0 0.0 -3.235385692889e+02 
-5.242166554661e+01 -8.162041364220e-03 0.0 
-8.162041364220e-03 -6.241708841913e+01 0.0 
0.0 0.0 -5.242114512947e+01 
-9.882150847829e+01 3.831030263712e-01 0.0 
3.831030263712e-01 -8.466184938051e+01 0.0 
0.0 0.0 -8.465071871362e+01 
-2.466908404706e+02 1.656537237691e+01 0.0 
1.656537237691e+01 -2.481331435277e+02 0.0 
0.0 0.0 -2.308293700688e+02 
-1.900543090311e+02 2.478918291835e-01 0.0 
2.478918291835e-01 -2.179179341596e+02 0.0 
0.0 0.0 -1.900512984867e+02 
-1.687924656627e+02 3.523360453268e+00 0.0 
3.523360453268e+00 -1.477054092693e+02 0.0 
0.0 0.0 -1.471028405505e+02 
-5.195382220016e+01 -6.883046329505e-01 0.0 
-6.883046329505e-01 -6.178594050093e+01 0.0 
0.0 0.0 -5.190515380862e+01 
-1.023445666977e+01 -3.971538050827e-01 0.0 
-3.971538050827e-01 -1.467354774803e+01 0.0 
0.0 0.0 -1.019743713709e+01 
-1.141702802098e+02 8.205213451133e-01 0.0 
8.205213451133e-01 -9.830602122605e+01 0.0 
0.0 0.0 -9.826329938921e+01 
-2.943335688738e+02 1.865670675032e+01 0.0 
1.865670675032e+01 -3.078057640033e+02 0.0 
0.0 0.0 -2.812153834950e+02 
-2.135675039466e+02 1.393363978502e+01 0.0 
1.393363978502e+01 -2.071952790931e+02 0.0 
0.0 0.0 -1.960566306158e+02 
-1.099693880716e+02 8.937762596672e-01 0.0 
8.937762596672e-01 -9.460784889128e+01 0.0 
0.0 0.0 -9.455458136566e+01 
-3.919466668889e+01 4.425558058515e-01 0.0 
4.425558058515e-01 -4.739642008240e+01 0.0 
0.0 0.0 -3.915848183489e+01 
-2.399123638787e+02 1.615220124180e+01 0.0 
1.615220124180e+01 -2.415628657747e+02 0.0 
0.0 0.0 -2.245619486545e+02 
-1.645703116497e+02 5.240944869304e-01 0.0 
5.240944869304e-01 -1.891032575970e+02 0.0 
0.0 0.0 -1.645573338027e+02 
-2.515777210951e+02 1.671302084652e+01 0.0 
1.671302084652e+01 -2.581813342353e+02 0.0 
0.0 0.0 -2.378415888476e+02 
-2.880163570967e+02 1.638005941164e+01 0.0 
1.638005941164e+01 -3.099834621343e+02 0.0 
0.0 0.0 -2.792718256319e+02 
-7.215940032692e+00 2.867496569931e-01 0.0 
2.867496569931e-01 -9.663297575357e+00 0.0 
0.0 0.0 -6.806088055855e+00 
-2.054008284058e+02 3.398289697365e-01 0.0 
3.398289697365e-01 -2.352532399563e+02 0.0 
0.0 0.0 -2.053958591585e+02 
-2.364805481964e+01 -3.851219217231e-02 0.0 
-3.851219217231e-02 -2.990715090216e+01 0.0 
0.0 0.0 -2.364768712099e+01 
-3.127739771305e+02 1.028348220540e+01 0.0 
1.028348220540e+01 -3.510551408913e+02 0.0 
0.0 0.0 -3.101795752443e+02 
-1.723874521830e+02 2.781316809654e-01 0.0 
2.781316809654e-01 -1.979529989616e+02 0.0 
0.0 0.0 -1.723826611567e+02 

TENSORS node_materi_strain_total float
4.485012039742e-03 -2.103562199025e-05 0.0 
-2.103562199025e-05 -1.969206556544e-03 0.0 
0.0 0.0 0.0 
-3.307018009059e-03 -1.121113211150e-05 0.0 
-1.121113211150e-05 6.040838358558e-03 0.0 
0.0 0.0 0.0 
4.715616311124e-05 3.040213621650e-05 0.0 
3.040213621650e-05 3.689542691732e-04 0.0 
0.0 0.0 0.0 
-3.078004218073e-04 1.936134525731e-04 0.0 
1.936134525731e-04 2.257653640233e-03 0.0 
0.0 0.0 0.0 
4.253055459891e-03 -4.912827538357e-05 0.0 
-4.912827538357e-05 -2.108892494074e-03 0.0 
0.0 0.0 0.0 
4.050822834173e-03 -5.135951209018e-05 0.0 
-5.135951209018e-05 -2.454635732862e-03 0.0 
0.0 0.0 0.0 
3.703276066061e-03 -3.135395917634e-05 0.0 
-3.135395917634e-05 -2.660915669475e-03 0.0 
0.0 0.0 0.0 
3.278539824596e-03 -1.747591216691e-05 0.0 
-1.747591216691e-05 -2.670587184953e-03 0.0 
0.0 0.0 0.0 
2.846714169064e-03 -2.121654934196e-05 0.0 
-2.121654934196e-05 -2.498672572411e-03 0.0 
0.0 0.0 0.0 
2.487601554514e-03 -1.889804551440e-05 0.0 
-1.889804551440e-05 -2.232069250545e-03 0.0 
0.0 0.0 0.0 
2.160552003125e-03 -9.093052760393e-06 0.0 
-9.093052760393e-06 -1.917213392600e-03 0.0 
0.0 0.0 0.0 
1.864369053766e-03 -1.148474524365e-05 0.0 
-1.148474524365e-05 -1.612143520554e-03 0.0 
0.0 0.0 0.0 
1.608675406908e-03 -9.429638641775e-06 0.0 
-9.429638641775e-06 -1.352777796681e-03 0.0 
0.0 0.0 0.0 
1.359530782887e-03 -1.351631795914e-06 0.0 
-1.351631795914e-06 -1.103279209384e-03 0.0 
0.0 0.0 0.0 
1.152346099952e-03 1.130488113860e-06 0.0 
1.130488113860e-06 -8.781526591267e-04 0.0 
0.0 0.0 0.0 
9.823168074204e-04 7.721722960981e-06 0.0 
7.721722960981e-06 -6.950035526910e-04 0.0 
0.0 0.0 0.0 
8.383617291142e-04 1.761660984334e-05 0.0 
1.761660984334e-05 -5.517371104988e-04 0.0 
0.0 0.0 0.0 
7.193692310332e-04 1.474539585307e-05 0.0 
1.474539585307e-05 -4.120205725276e-04 0.0 
0.0 0.0 0.0 
5.941831603286e-04 1.527866698577e-05 0.0 
1.527866698577e-05 -2.683454414783e-04 0.0 
0.0 0.0 0.0 
4.774938986761e-04 1.760276988706e-05 0.0 
1.760276988706e-05 -1.317789901857e-04 0.0 
0.0 0.0 0.0 
3.629007468519e-04 1.951290410564e-05 0.0 
1.951290410564e-05 5.749521813795e-06 0.0 
0.0 0.0 0.0 
2.402821803211e-04 2.435958533604e-05 0.0 
2.435958533604e-05 1.519837494263e-04 0.0 
0.0 0.0 0.0 
1.322712595992e-04 2.534494651235e-05 0.0 
2.534494651235e-05 2.926778438033e-04 0.0 
0.0 0.0 0.0 
-1.873501251380e-04 4.348941469983e-04 0.0 
4.348941469983e-04 2.175897762534e-03 0.0 
0.0 0.0 0.0 
-1.756236838634e-04 7.242687478965e-04 0.0 
7.242687478965e-04 2.223100396158e-03 0.0 
0.0 0.0 0.0 
-2.197392041960e-04 1.072981036407e-03 0.0 
1.072981036407e-03 2.249490246963e-03 0.0 
0.0 0.0 0.0 
-1.408537351796e-04 1.395840575062e-03 0.0 
1.395840575062e-03 2.249169976347e-03 0.0 
0.0 0.0 0.0 
-2.431476153069e-04 1.707807079390e-03 0.0 
1.707807079390e-03 2.304281687805e-03 0.0 
0.0 0.0 0.0 
-2.336312913774e-04 2.127493892673e-03 0.0 
2.127493892673e-03 2.349259867165e-03 0.0 
0.0 0.0 0.0 
-2.676683814129e-04 2.586553547249e-03 0.0 
2.586553547249e-03 2.332089969988e-03 0.0 
0.0 0.0 0.0 
-2.383064751668e-04 3.025648985205e-03 0.0 
3.025648985205e-03 2.325001419277e-03 0.0 
0.0 0.0 0.0 
-3.053606318611e-04 3.522328258012e-03 0.0 
3.522328258012e-03 2.281693984324e-03 0.0 
0.0 0.0 0.0 
-1.630998630466e-04 3.954624616269e-03 0.0 
3.954624616269e-03 2.210354460077e-03 0.0 
0.0 0.0 0.0 
-2.770250644046e-04 4.339709878549e-03 0.0 
4.339709878549e-03 2.209604283447e-03 0.0 
0.0 0.0 0.0 
-2.208941779001e-04 4.791891338137e-03 0.0 
4.791891338137e-03 2.186462312059e-03 0.0 
0.0 0.0 0.0 
-2.273202230956e-04 5.232874080549e-03 0.0 
5.232874080549e-03 2.044637147113e-03 0.0 
0.0 0.0 0.0 
-1.580365998836e-04 5.540498294236e-03 0.0 
5.540498294236e-03 1.952467405597e-03 0.0 
0.0 0.0 0.0 
-1.525057465918e-04 5.852438630627e-03 0.0 
5.852438630627e-03 1.849809814413e-03 0.0 
0.0 0.0 0.0 
-8.511333519334e-05 6.012835736400e-03 0.0 
6.012835736400e-03 1.707253741832e-03 0.0 
0.0 0.0 0.0 
-5.102379130958e-05 6.138865388858e-03 0.0 
6.138865388858e-03 1.615477775353e-03 0.0 
0.0 0.0 0.0 
-2.464067796111e-05 6.209478257788e-03 0.0 
6.209478257788e-03 1.455887978990e-03 0.0 
0.0 0.0 0.0 
2.371149154912e-05 6.197401743322e-03 0.0 
6.197401743322e-03 1.311812467044e-03 0.0 
0.0 0.0 0.0 
6.091525570480e-05 6.118547813257e-03 0.0 
6.118547813257e-03 1.199335132011e-03 0.0 
0.0 0.0 0.0 
9.974740264518e-05 5.971900312572e-03 0.0 
5.971900312572e-03 1.061800364588e-03 0.0 
0.0 0.0 0.0 
1.345997384304e-04 5.756066399490e-03 0.0 
5.756066399490e-03 9.373909072710e-04 0.0 
0.0 0.0 0.0 
1.515628962550e-04 5.508502607950e-03 0.0 
5.508502607950e-03 8.195209213361e-04 0.0 
0.0 0.0 0.0 
1.743824430161e-04 5.206740580614e-03 0.0 
5.206740580614e-03 7.174059090946e-04 0.0 
0.0 0.0 0.0 
1.791924822481e-04 4.892354903537e-03 0.0 
4.892354903537e-03 6.415435541168e-04 0.0 
0.0 0.0 0.0 
2.080261904027e-04 4.547416037254e-03 0.0 
4.547416037254e-03 5.526108296071e-04 0.0 
0.0 0.0 0.0 
1.799618435212e-04 4.183343690364e-03 0.0 
4.183343690364e-03 4.780099667567e-04 0.0 
0.0 0.0 0.0 
2.083112432541e-04 3.816171365058e-03 0.0 
3.816171365058e-03 4.323150808395e-04 0.0 
0.0 0.0 0.0 
1.809157061979e-04 3.455886471942e-03 0.0 
3.455886471942e-03 3.962725461821e-04 0.0 
0.0 0.0 0.0 
1.652028626307e-04 3.124083019589e-03 0.0 
3.124083019589e-03 3.841483055282e-04 0.0 
0.0 0.0 0.0 
1.356594227824e-04 2.816973292369e-03 0.0 
2.816973292369e-03 3.570803514844e-04 0.0 
0.0 0.0 0.0 
1.791244366873e-04 2.537696498578e-03 0.0 
2.537696498578e-03 2.773797524880e-04 0.0 
0.0 0.0 0.0 
1.667463157489e-04 2.205284914555e-03 0.0 
2.205284914555e-03 2.506855980193e-04 0.0 
0.0 0.0 0.0 
1.504608682549e-04 1.930940761497e-03 0.0 
1.930940761497e-03 2.794646591345e-04 0.0 
0.0 0.0 0.0 
1.397801501553e-04 1.679587428238e-03 0.0 
1.679587428238e-03 2.725156049652e-04 0.0 
0.0 0.0 0.0 
1.045499705656e-04 1.447728329546e-03 0.0 
1.447728329546e-03 2.819713397596e-04 0.0 
0.0 0.0 0.0 
1.104014034941e-04 1.258142006755e-03 0.0 
1.258142006755e-03 3.022307693872e-04 0.0 
0.0 0.0 0.0 
8.601729159041e-05 1.078958261801e-03 0.0 
1.078958261801e-03 3.024550060335e-04 0.0 
0.0 0.0 0.0 
9.190465267802e-05 9.261246495634e-04 0.0 
9.261246495634e-04 3.081538496397e-04 0.0 
0.0 0.0 0.0 
7.322222438407e-05 7.843861119399e-04 0.0 
7.843861119399e-04 3.205657473691e-04 0.0 
0.0 0.0 0.0 
5.819347296310e-05 6.760460676099e-04 0.0 
6.760460676099e-04 3.350684980297e-04 0.0 
0.0 0.0 0.0 
5.244747203966e-05 5.717796630544e-04 0.0 
5.717796630544e-04 3.530008852323e-04 0.0 
0.0 0.0 0.0 
5.035873760188e-05 4.840158560110e-04 0.0 
4.840158560110e-04 3.679942325030e-04 0.0 
0.0 0.0 0.0 
6.033970442043e-05 3.928106275426e-04 0.0 
3.928106275426e-04 3.439480891130e-04 0.0 
0.0 0.0 0.0 
4.287265231517e-05 3.103442489311e-04 0.0 
3.103442489311e-04 3.753902198843e-04 0.0 
0.0 0.0 0.0 
3.786529969063e-05 2.436112351984e-04 0.0 
2.436112351984e-04 3.722493070023e-04 0.0 
0.0 0.0 0.0 
3.270246823554e-05 1.843719102521e-04 0.0 
1.843719102521e-04 3.747133089734e-04 0.0 
0.0 0.0 0.0 
3.217025207092e-05 1.215250169116e-04 0.0 
1.215250169116e-04 3.841835572618e-04 0.0 
0.0 0.0 0.0 
3.180566941744e-05 7.032583132212e-05 0.0 
7.032583132212e-05 3.856390038532e-04 0.0 
0.0 0.0 0.0 
-3.080843067109e-03 6.075160756754e-06 0.0 
6.075160756754e-06 5.485355575715e-03 0.0 
0.0 0.0 0.0 
-2.763968029210e-03 3.238322031932e-05 0.0 
3.238322031932e-05 4.745784264177e-03 0.0 
0.0 0.0 0.0 
-2.466187860582e-03 3.569213286332e-05 0.0 
3.569213286332e-05 4.273274376058e-03 0.0 
0.0 0.0 0.0 
-2.188032716414e-03 5.199319059855e-05 0.0 
5.199319059855e-05 3.976117064338e-03 0.0 
0.0 0.0 0.0 
-1.894955870607e-03 5.495533533869e-05 0.0 
5.495533533869e-05 3.644898511433e-03 0.0 
0.0 0.0 0.0 
-1.612517038777e-03 7.273386620540e-05 0.0 
7.273386620540e-05 3.354753367282e-03 0.0 
0.0 0.0 0.0 
-1.284157476441e-03 6.508181988693e-05 0.0 
6.508181988693e-05 2.984917805969e-03 0.0 
0.0 0.0 0.0 
-9.733382130972e-04 8.152379403776e-05 0.0 
8.152379403776e-05 2.702786006017e-03 0.0 
0.0 0.0 0.0 
-7.158987797518e-04 1.000885001175e-04 0.0 
1.000885001175e-04 2.472265837658e-03 0.0 
0.0 0.0 0.0 
1.605260240273e-04 1.102981225227e-04 0.0 
1.102981225227e-04 -2.333747323006e-05 0.0 
0.0 0.0 0.0 
-5.954387429479e-03 5.272466331056e-03 0.0 
5.272466331056e-03 1.038287566550e-02 0.0 
0.0 0.0 0.0 
2.381756739240e-04 4.518256757374e-04 0.0 
4.518256757374e-04 1.734449678699e-05 0.0 
0.0 0.0 0.0 
2.457113040527e-04 7.684894830207e-04 0.0 
7.684894830207e-04 2.827527068430e-04 0.0 
0.0 0.0 0.0 
2.126511084179e-04 1.202208606810e-03 0.0 
1.202208606810e-03 6.956062979278e-04 0.0 
0.0 0.0 0.0 
1.727860103873e-04 1.615342705999e-03 0.0 
1.615342705999e-03 1.153945719777e-03 0.0 
0.0 0.0 0.0 
7.939917989345e-05 2.288475541053e-03 0.0 
2.288475541053e-03 1.770585580336e-03 0.0 
0.0 0.0 0.0 
-5.095569741228e-05 3.220001307544e-03 0.0 
3.220001307544e-03 2.548959951042e-03 0.0 
0.0 0.0 0.0 
-2.547633860499e-04 4.400156839770e-03 0.0 
4.400156839770e-03 3.541706249351e-03 0.0 
0.0 0.0 0.0 
-8.186179622864e-04 5.920118511986e-03 0.0 
5.920118511986e-03 5.100511605107e-03 0.0 
0.0 0.0 0.0 
-2.609138624864e-03 7.379455508469e-03 0.0 
7.379455508469e-03 7.879111814018e-03 0.0 
0.0 0.0 0.0 
-3.325003416747e-03 3.445558026940e-05 0.0 
3.445558026940e-05 6.140320268987e-03 0.0 
0.0 0.0 0.0 
-3.299089990032e-03 5.977281699502e-05 0.0 
5.977281699502e-05 6.069028996958e-03 0.0 
0.0 0.0 0.0 
-3.339708991367e-03 3.877246893790e-05 0.0 
3.877246893790e-05 6.137343211965e-03 0.0 
0.0 0.0 0.0 
-3.433791556716e-03 1.766029674873e-05 0.0 
1.766029674873e-05 6.322136501273e-03 0.0 
0.0 0.0 0.0 
-3.505350003976e-03 1.044588652521e-04 0.0 
1.044588652521e-04 6.337008324391e-03 0.0 
0.0 0.0 0.0 
-3.595072357260e-03 1.175473706942e-04 0.0 
1.175473706942e-04 6.590369383122e-03 0.0 
0.0 0.0 0.0 
-3.809489558154e-03 1.295298714075e-04 0.0 
1.295298714075e-04 6.895535852886e-03 0.0 
0.0 0.0 0.0 
-3.886280604667e-03 1.802188048804e-04 0.0 
1.802188048804e-04 7.046131508089e-03 0.0 
0.0 0.0 0.0 
-4.047506441940e-03 2.108382594700e-04 0.0 
2.108382594700e-04 7.260189123387e-03 0.0 
0.0 0.0 0.0 
-4.308887696706e-03 2.173215337206e-04 0.0 
2.173215337206e-04 7.681645425534e-03 0.0 
0.0 0.0 0.0 
-4.680911467394e-03 4.199032735687e-04 0.0 
4.199032735687e-04 8.262023800233e-03 0.0 
0.0 0.0 0.0 
-5.106384711850e-03 7.195351925451e-04 0.0 
7.195351925451e-04 8.933189609380e-03 0.0 
0.0 0.0 0.0 
-5.839457226415e-03 1.300081066141e-03 0.0 
1.300081066141e-03 1.006534333974e-02 0.0 
0.0 0.0 0.0 
-6.662444828610e-03 2.977382834994e-03 0.0 
2.977382834994e-03 1.145506423891e-02 0.0 
0.0 0.0 0.0 
4.521577560174e-04 -1.246701198039e-04 0.0 
-1.246701198039e-04 -1.943029462681e-04 0.0 
0.0 0.0 0.0 
7.246048424111e-04 -1.970809005126e-04 0.0 
-1.970809005126e-04 -3.397787065781e-04 0.0 
0.0 0.0 0.0 
9.663537467477e-04 -2.017705146548e-04 0.0 
-2.017705146548e-04 -4.286895092251e-04 0.0 
0.0 0.0 0.0 
1.284761452138e-03 -1.374656078056e-04 0.0 
-1.374656078056e-04 -5.664536163108e-04 0.0 
0.0 0.0 0.0 
1.682434343213e-03 -1.283486460677e-04 0.0 
-1.283486460677e-04 -7.596945851589e-04 0.0 
0.0 0.0 0.0 
1.968916949460e-03 -1.243035657363e-04 0.0 
-1.243035657363e-04 -8.914068280531e-04 0.0 
0.0 0.0 0.0 
2.210261118072e-03 -9.980761569658e-05 0.0 
-9.980761569658e-05 -9.913212238471e-04 0.0 
0.0 0.0 0.0 
2.439510076995e-03 -8.386526665137e-05 0.0 
-8.386526665137e-05 -1.086195928030e-03 0.0 
0.0 0.0 0.0 
2.728715976247e-03 -7.304330623906e-05 0.0 
-7.304330623906e-05 -1.209008439146e-03 0.0 
0.0 0.0 0.0 
3.005738404412e-03 -4.889677967449e-05 0.0 
-4.889677967449e-05 -1.329086372784e-03 0.0 
0.0 0.0 0.0 
3.286902265699e-03 -2.604729694355e-05 0.0 
-2.604729694355e-05 -1.447590018058e-03 0.0 
0.0 0.0 0.0 
3.547260914029e-03 -2.701357411777e-05 0.0 
-2.701357411777e-05 -1.564889379305e-03 0.0 
0.0 0.0 0.0 
3.867910467504e-03 -2.441205261816e-05 0.0 
-2.441205261816e-05 -1.698634108526e-03 0.0 
0.0 0.0 0.0 
4.155557152077e-03 -2.591979168650e-05 0.0 
-2.591979168650e-05 -1.815122951484e-03 0.0 
0.0 0.0 0.0 
4.358531708593e-03 -1.356374819416e-05 0.0 
-1.356374819416e-05 -1.903249766183e-03 0.0 
0.0 0.0 0.0 
4.468690573623e-03 -7.309874695904e-06 0.0 
-7.309874695904e-06 -1.951018739636e-03 0.0 
0.0 0.0 0.0 
4.542838590628e-03 -5.905744997547e-06 0.0 
-5.905744997547e-06 -1.981790442522e-03 0.0 
0.0 0.0 0.0 
4.606331756555e-03 -4.827136576383e-06 0.0 
-4.827136576383e-06 -2.009329505986e-03 0.0 
0.0 0.0 0.0 
4.588108131056e-03 5.752958560708e-06 0.0 
5.752958560708e-06 -1.990804801903e-03 0.0 
0.0 0.0 0.0 
1.659247007575e-04 3.345173921698e-04 0.0 
3.345173921698e-04 1.060528297743e-05 0.0 
0.0 0.0 0.0 
2.625664218293e-04 6.034846286803e-04 0.0 
6.034846286803e-04 1.209390610161e-04 0.0 
0.0 0.0 0.0 
2.454253427287e-04 9.608725809692e-04 0.0 
9.608725809692e-04 4.630697905769e-04 0.0 
0.0 0.0 0.0 
1.633925913480e-04 1.402140456232e-03 0.0 
1.402140456232e-03 9.275346786358e-04 0.0 
0.0 0.0 0.0 
1.194145508225e-04 2.078026043906e-03 0.0 
2.078026043906e-03 1.507856478315e-03 0.0 
0.0 0.0 0.0 
6.384887379148e-05 2.854843856737e-03 0.0 
2.854843856737e-03 2.165523083818e-03 0.0 
0.0 0.0 0.0 
-1.061893552539e-04 3.766074885924e-03 0.0 
3.766074885924e-03 2.980984438548e-03 0.0 
0.0 0.0 0.0 
-4.416018537080e-04 5.113278794056e-03 0.0 
5.113278794056e-03 4.210320139081e-03 0.0 
0.0 0.0 0.0 
-1.501671471157e-03 6.727097446202e-03 0.0 
6.727097446202e-03 6.316171749818e-03 0.0 
0.0 0.0 0.0 
-4.690476133487e-03 7.458839217576e-03 0.0 
7.458839217576e-03 1.019495166633e-02 0.0 
0.0 0.0 0.0 
7.904871095046e-04 7.050868079505e-04 0.0 
7.050868079505e-04 -1.917104498885e-04 0.0 
0.0 0.0 0.0 
4.772984712307e-04 2.114023815337e-03 0.0 
2.114023815337e-03 4.435423827859e-05 0.0 
0.0 0.0 0.0 
2.930391435692e-03 -1.267339395940e-04 0.0 
-1.267339395940e-04 -1.445937860164e-03 0.0 
0.0 0.0 0.0 
1.877888419336e-03 -2.321668382980e-04 0.0 
-2.321668382980e-04 -9.545961448392e-04 0.0 
0.0 0.0 0.0 
2.669749087820e-04 1.035136187947e-03 0.0 
1.035136187947e-03 1.713270768296e-04 0.0 
0.0 0.0 0.0 
4.840505317560e-04 1.746596806471e-03 0.0 
1.746596806471e-03 6.881296122943e-04 0.0 
0.0 0.0 0.0 
1.258668028556e-03 7.761031584007e-06 0.0 
7.761031584007e-06 -9.973203712220e-04 0.0 
0.0 0.0 0.0 
6.137195894703e-04 3.411907859075e-03 0.0 
3.411907859075e-03 5.675613109527e-05 0.0 
0.0 0.0 0.0 
2.060818985356e-04 3.322624253379e-03 0.0 
3.322624253379e-03 1.983872286989e-03 0.0 
0.0 0.0 0.0 
5.584832270290e-04 4.731711358950e-03 0.0 
4.731711358950e-03 3.421569923399e-04 0.0 
0.0 0.0 0.0 
-6.579614737434e-04 5.785437193730e-03 0.0 
5.785437193730e-03 4.377096577987e-03 0.0 
0.0 0.0 0.0 
1.519352573637e-04 5.224194097847e-04 0.0 
5.224194097847e-04 2.780332798999e-04 0.0 
0.0 0.0 0.0 
3.887402742288e-03 -7.807400981850e-06 0.0 
-7.807400981850e-06 -1.849165248145e-03 0.0 
0.0 0.0 0.0 
3.160734829823e-04 5.760411257417e-03 0.0 
5.760411257417e-03 8.680828389277e-04 0.0 
0.0 0.0 0.0 
-4.736418395450e-03 6.106031189212e-03 0.0 
6.106031189212e-03 9.006819625250e-03 0.0 
0.0 0.0 0.0 
2.318415265446e-03 1.536307105934e-05 0.0 
1.536307105934e-05 -2.075245618191e-03 0.0 
0.0 0.0 0.0 
8.152013799407e-04 3.367194363634e-05 0.0 
3.367194363634e-05 -5.176977283358e-04 0.0 
0.0 0.0 0.0 
-1.735428798079e-05 5.947440580545e-03 0.0 
5.947440580545e-03 1.404320802663e-03 0.0 
0.0 0.0 0.0 
-4.621894835294e-04 5.180137642416e-03 0.0 
5.180137642416e-03 2.134391074134e-03 0.0 
0.0 0.0 0.0 
-6.292959179916e-04 1.577312234053e-03 0.0 
1.577312234053e-03 2.507811566874e-03 0.0 
0.0 0.0 0.0 
-8.358705753781e-04 2.662594683609e-03 0.0 
2.662594683609e-03 2.696800536191e-03 0.0 
0.0 0.0 0.0 
-6.779595884493e-04 4.077160571225e-03 0.0 
4.077160571225e-03 2.432521182321e-03 0.0 
0.0 0.0 0.0 
-5.712409726645e-03 2.381355899071e-03 0.0 
2.381355899071e-03 9.777823843178e-03 0.0 
0.0 0.0 0.0 
-4.083290251666e-03 4.636769201478e-04 0.0 
4.636769201478e-04 7.071959607621e-03 0.0 
0.0 0.0 0.0 
-3.545726132132e-03 2.629698583709e-04 0.0 
2.629698583709e-04 6.229504856861e-03 0.0 
0.0 0.0 0.0 
-2.047275651842e-03 1.112562108074e-04 0.0 
1.112562108074e-04 3.820203832220e-03 0.0 
0.0 0.0 0.0 
1.211440249657e-04 2.856971352611e-04 0.0 
2.856971352611e-04 3.027100856102e-04 0.0 
0.0 0.0 0.0 
1.170692751217e-03 -2.539025536857e-04 0.0 
-2.539025536857e-04 -6.153137573878e-04 0.0 
0.0 0.0 0.0 
4.318815283650e-03 9.070817833395e-07 0.0 
9.070817833395e-07 -2.055161481257e-03 0.0 
0.0 0.0 0.0 
4.261418726218e-04 4.584176957956e-05 0.0 
4.584176957956e-05 -7.182586987274e-05 0.0 
0.0 0.0 0.0 
-3.227136738060e-03 8.081147659263e-05 0.0 
8.081147659263e-05 5.803052195183e-03 0.0 
0.0 0.0 0.0 
3.479444377525e-03 8.191405002357e-06 0.0 
8.191405002357e-06 -2.683337738786e-03 0.0 
0.0 0.0 0.0 
-3.411539116111e-04 5.556290058594e-03 0.0 
5.556290058594e-03 1.891949703363e-03 0.0 
0.0 0.0 0.0 
5.557081993435e-04 4.080729533924e-03 0.0 
4.080729533924e-03 2.215411119757e-04 0.0 
0.0 0.0 0.0 
4.643012889456e-04 5.327266247846e-03 0.0 
5.327266247846e-03 5.602285548606e-04 0.0 
0.0 0.0 0.0 
5.827297183675e-04 2.771088312359e-03 0.0 
2.771088312359e-03 1.687768768731e-05 0.0 
0.0 0.0 0.0 
3.596617618899e-04 1.608200614306e-03 0.0 
1.608200614306e-03 1.040562011545e-04 0.0 
0.0 0.0 0.0 
2.321822381322e-03 -2.230883305534e-04 0.0 
-2.230883305534e-04 -1.173120046923e-03 0.0 
0.0 0.0 0.0 
-4.724041626670e-03 8.882169591879e-04 0.0 
8.882169591879e-04 8.107934574416e-03 0.0 
0.0 0.0 0.0 
2.430242485816e-04 7.479873740348e-04 0.0 
7.479873740348e-04 1.788957717469e-04 0.0 
0.0 0.0 0.0 
-1.454336193743e-03 1.428628178311e-04 0.0 
1.428628178311e-04 3.183185069411e-03 0.0 
0.0 0.0 0.0 
3.370451244431e-03 -8.188932809441e-05 0.0 
-8.188932809441e-05 -1.642973437274e-03 0.0 
0.0 0.0 0.0 
1.737777795114e-03 1.000805130890e-05 0.0 
1.000805130890e-05 -1.483531854586e-03 0.0 
0.0 0.0 0.0 
-4.920388870826e-04 1.051597466257e-03 0.0 
1.051597466257e-03 2.373983271150e-03 0.0 
0.0 0.0 0.0 
4.289360437958e-04 2.521334549564e-03 0.0 
2.521334549564e-03 1.197141833128e-03 0.0 
0.0 0.0 0.0 
6.620861147925e-04 1.219428039558e-03 0.0 
1.219428039558e-03 1.809415982037e-04 0.0 
0.0 0.0 0.0 
-4.460830470565e-05 4.419696950697e-03 0.0 
4.419696950697e-03 2.903382503171e-03 0.0 
0.0 0.0 0.0 
-2.156171618866e-03 6.981684932663e-03 0.0 
6.981684932663e-03 6.758695296298e-03 0.0 
0.0 0.0 0.0 
7.719327326433e-04 2.008280121757e-04 0.0 
2.008280121757e-04 -3.256044647089e-04 0.0 
0.0 0.0 0.0 
-2.612569447573e-03 7.570315675608e-05 0.0 
7.570315675608e-05 4.468092073315e-03 0.0 
0.0 0.0 0.0 
8.570761239168e-05 1.523274169458e-04 0.0 
1.523274169458e-04 3.416652912180e-04 0.0 
0.0 0.0 0.0 
4.431856230357e-03 -3.632870617256e-05 0.0 
-3.632870617256e-05 -2.088256231987e-03 0.0 
0.0 0.0 0.0 
-8.606639458971e-04 1.570387627918e-04 0.0 
1.570387627918e-04 2.620625316260e-03 0.0 
0.0 0.0 0.0 
-4.711681444001e-03 4.588637952824e-03 0.0 
4.588637952824e-03 8.434158952283e-03 0.0 
0.0 0.0 0.0 
-3.915740247334e-03 4.779870944885e-03 0.0 
4.779870944885e-03 6.898608822491e-03 0.0 
0.0 0.0 0.0 
-4.325193838256e-03 3.858727082040e-03 0.0 
3.858727082040e-03 7.042456635689e-03 0.0 
0.0 0.0 0.0 
-3.517370614073e-03 4.257198406591e-03 0.0 
4.257198406591e-03 5.711684834554e-03 0.0 
0.0 0.0 0.0 
-3.648871073523e-03 3.591505123591e-03 0.0 
3.591505123591e-03 5.658020843335e-03 0.0 
0.0 0.0 0.0 
-3.151840160728e-03 3.856787985515e-03 0.0 
3.856787985515e-03 4.872404675243e-03 0.0 
0.0 0.0 0.0 
-2.956888002125e-03 4.329141286542e-03 0.0 
4.329141286542e-03 4.788396680735e-03 0.0 
0.0 0.0 0.0 
-2.715755642850e-03 3.953830514011e-03 0.0 
3.953830514011e-03 4.237824943004e-03 0.0 
0.0 0.0 0.0 
-2.461559747158e-03 4.343070085842e-03 0.0 
4.343070085842e-03 4.033944392552e-03 0.0 
0.0 0.0 0.0 
-3.296573194386e-03 3.362157785255e-03 0.0 
3.362157785255e-03 4.940593245999e-03 0.0 
0.0 0.0 0.0 
-2.264637044182e-03 4.030472191730e-03 0.0 
4.030472191730e-03 3.651843309021e-03 0.0 
0.0 0.0 0.0 
-1.990118940641e-03 4.338704736978e-03 0.0 
4.338704736978e-03 3.391891906035e-03 0.0 
0.0 0.0 0.0 
-1.781948381956e-03 4.136703596896e-03 0.0 
4.136703596896e-03 3.093920266646e-03 0.0 
0.0 0.0 0.0 
-1.525178221419e-03 4.322603435943e-03 0.0 
4.322603435943e-03 2.814236084442e-03 0.0 
0.0 0.0 0.0 
-1.642050224124e-03 4.611793898007e-03 0.0 
4.611793898007e-03 3.061849164684e-03 0.0 
0.0 0.0 0.0 
-1.174689232999e-03 4.524074326211e-03 0.0 
4.524074326211e-03 2.451657579766e-03 0.0 
0.0 0.0 0.0 
-1.217764187149e-03 4.874749860279e-03 0.0 
4.874749860279e-03 2.651910423367e-03 0.0 
0.0 0.0 0.0 
-7.508710095806e-04 4.705607355133e-03 0.0 
4.705607355133e-03 2.019379617036e-03 0.0 
0.0 0.0 0.0 
-6.687303647439e-04 4.481715841222e-03 0.0 
4.481715841222e-03 1.864763744597e-03 0.0 
0.0 0.0 0.0 
-2.662675384123e-04 4.578513995030e-03 0.0 
4.578513995030e-03 1.428618043341e-03 0.0 
0.0 0.0 0.0 
-2.456498537038e-04 4.832919643959e-03 0.0 
4.832919643959e-03 1.505782189230e-03 0.0 
0.0 0.0 0.0 
1.987280746745e-04 4.635250081257e-03 0.0 
4.635250081257e-03 9.309207817804e-04 0.0 
0.0 0.0 0.0 
3.015227138954e-04 4.865339990107e-03 0.0 
4.865339990107e-03 9.309016053973e-04 0.0 
0.0 0.0 0.0 
6.968243193061e-04 4.618617161663e-03 0.0 
4.618617161663e-03 3.935402006525e-04 0.0 
0.0 0.0 0.0 
8.537823215399e-04 4.803281619465e-03 0.0 
4.803281619465e-03 3.458570869631e-04 0.0 
0.0 0.0 0.0 
1.204986766814e-03 4.529390731837e-03 0.0 
4.529390731837e-03 -1.593080323461e-04 0.0 
0.0 0.0 0.0 
1.142587299184e-03 4.430946311933e-03 0.0 
4.430946311933e-03 -1.485363558307e-04 0.0 
0.0 0.0 0.0 
1.611451485400e-03 4.312013387320e-03 0.0 
4.312013387320e-03 -6.644935904322e-04 0.0 
0.0 0.0 0.0 
1.712205691266e-03 4.376696618216e-03 0.0 
4.376696618216e-03 -7.081135646990e-04 0.0 
0.0 0.0 0.0 
2.078190706247e-03 4.132155264569e-03 0.0 
4.132155264569e-03 -1.172792482480e-03 0.0 
0.0 0.0 0.0 
2.200135521672e-03 4.156862930670e-03 0.0 
4.156862930670e-03 -1.231030985062e-03 0.0 
0.0 0.0 0.0 
2.528813463283e-03 3.897255749671e-03 0.0 
3.897255749671e-03 -1.667422443522e-03 0.0 
0.0 0.0 0.0 
2.506517958703e-03 3.941964816997e-03 0.0 
3.941964816997e-03 -1.674979826205e-03 0.0 
0.0 0.0 0.0 
2.912530532834e-03 3.679180396016e-03 0.0 
3.679180396016e-03 -2.127524411371e-03 0.0 
0.0 0.0 0.0 
2.950330201530e-03 3.603769470291e-03 0.0 
3.603769470291e-03 -2.130856099428e-03 0.0 
0.0 0.0 0.0 
3.287504006800e-03 3.361611972648e-03 0.0 
3.361611972648e-03 -2.545845372543e-03 0.0 
0.0 0.0 0.0 
3.329554322960e-03 3.252707051554e-03 0.0 
3.252707051554e-03 -2.548810524180e-03 0.0 
0.0 0.0 0.0 
3.625552265139e-03 3.004209418480e-03 0.0 
3.004209418480e-03 -2.921735501003e-03 0.0 
0.0 0.0 0.0 
3.662181573997e-03 2.861141880224e-03 0.0 
2.861141880224e-03 -2.916469649574e-03 0.0 
0.0 0.0 0.0 
3.917752708200e-03 2.609365770246e-03 0.0 
2.609365770246e-03 -3.247215772308e-03 0.0 
0.0 0.0 0.0 
3.912797968346e-03 2.791456896819e-03 0.0 
2.791456896819e-03 -3.267861794187e-03 0.0 
0.0 0.0 0.0 
4.155612153477e-03 2.396815524721e-03 0.0 
2.396815524721e-03 -3.546913211387e-03 0.0 
0.0 0.0 0.0 
4.149497943223e-03 2.188245772624e-03 0.0 
2.188245772624e-03 -3.510072907925e-03 0.0 
0.0 0.0 0.0 
4.337139191954e-03 1.989255187403e-03 0.0 
1.989255187403e-03 -3.758827736046e-03 0.0 
0.0 0.0 0.0 
4.310022475622e-03 2.219539231821e-03 0.0 
2.219539231821e-03 -3.748800379119e-03 0.0 
0.0 0.0 0.0 
4.443089819631e-03 1.832634853112e-03 0.0 
1.832634853112e-03 -3.914322328545e-03 0.0 
0.0 0.0 0.0 
4.340646079541e-03 2.067275719760e-03 0.0 
2.067275719760e-03 -3.809992700711e-03 0.0 
0.0 0.0 0.0 
4.430312121622e-03 1.699297324205e-03 0.0 
1.699297324205e-03 -3.935258483852e-03 0.0 
0.0 0.0 0.0 
4.515750758397e-03 1.453505356296e-03 0.0 
1.453505356296e-03 -4.013830406912e-03 0.0 
0.0 0.0 0.0 
4.465778562759e-03 1.345278591701e-03 0.0 
1.345278591701e-03 -4.004267598804e-03 0.0 
0.0 0.0 0.0 
4.289352747800e-03 1.575394562268e-03 0.0 
1.575394562268e-03 -3.819098029363e-03 0.0 
0.0 0.0 0.0 
4.301707189195e-03 1.249203289046e-03 0.0 
1.249203289046e-03 -3.865120600920e-03 0.0 
0.0 0.0 0.0 
4.456692893654e-03 1.016060021330e-03 0.0 
1.016060021330e-03 -4.023586548187e-03 0.0 
0.0 0.0 0.0 
4.275662036359e-03 9.444149595951e-04 0.0 
9.444149595951e-04 -3.869000579369e-03 0.0 
0.0 0.0 0.0 
4.038284058325e-03 1.152613129413e-03 0.0 
1.152613129413e-03 -3.618517431299e-03 0.0 
0.0 0.0 0.0 
4.000266890499e-03 8.751711047573e-04 0.0 
8.751711047573e-04 -3.610793588858e-03 0.0 
0.0 0.0 0.0 
4.212027488955e-03 6.687258278790e-04 0.0 
6.687258278790e-04 -3.831137442617e-03 0.0 
0.0 0.0 0.0 
3.931026729197e-03 6.289473792164e-04 0.0 
6.289473792164e-04 -3.567888344664e-03 0.0 
0.0 0.0 0.0 
3.664671159538e-03 8.097687724782e-04 0.0 
8.097687724782e-04 -3.286285955258e-03 0.0 
0.0 0.0 0.0 
3.595597722315e-03 5.867712817578e-04 0.0 
5.867712817578e-04 -3.241655445060e-03 0.0 
0.0 0.0 0.0 
3.831887872891e-03 4.113907883942e-04 0.0 
4.113907883942e-04 -3.492834383375e-03 0.0 
0.0 0.0 0.0 
3.503207822150e-03 3.946602655069e-04 0.0 
3.946602655069e-04 -3.171302768930e-03 0.0 
0.0 0.0 0.0 
3.233671404166e-03 5.419093249978e-04 0.0 
5.419093249978e-04 -2.888043319887e-03 0.0 
0.0 0.0 0.0 
3.150890271698e-03 3.716113409011e-04 0.0 
3.716113409011e-04 -2.826503691456e-03 0.0 
0.0 0.0 0.0 
2.863291043427e-03 4.934586875797e-04 0.0 
4.934586875797e-04 -2.525855427036e-03 0.0 
0.0 0.0 0.0 
3.391063130846e-03 2.329476309944e-04 0.0 
2.329476309944e-04 -3.081371694559e-03 0.0 
0.0 0.0 0.0 
3.052329282538e-03 2.293259110837e-04 0.0 
2.293259110837e-04 -2.746254315055e-03 0.0 
0.0 0.0 0.0 
3.264741966464e-03 1.050948006131e-04 0.0 
1.050948006131e-04 -2.972217277861e-03 0.0 
0.0 0.0 0.0 
2.943699089080e-03 1.233822090796e-04 0.0 
1.233822090796e-04 -2.653153982438e-03 0.0 
0.0 0.0 0.0 
2.938194329822e-03 3.796512599499e-03 0.0 
3.796512599499e-03 -2.159161900354e-03 0.0 
0.0 0.0 0.0 
3.136260264245e-03 2.174352390877e-05 0.0 
2.174352390877e-05 -2.857926110130e-03 0.0 
0.0 0.0 0.0 
3.422817005888e-03 -1.642885438544e-05 0.0 
-1.642885438544e-05 -3.132586368699e-03 0.0 
0.0 0.0 0.0 
2.837955773342e-03 4.942067217197e-05 0.0 
4.942067217197e-05 -2.561620070631e-03 0.0 
0.0 0.0 0.0 
2.620215827428e-03 1.289513091226e-04 0.0 
1.289513091226e-04 -2.332264316863e-03 0.0 
0.0 0.0 0.0 
3.023945184000e-03 -2.914324033914e-05 0.0 
-2.914324033914e-05 -2.755856461478e-03 0.0 
0.0 0.0 0.0 
2.750251252152e-03 8.007334513514e-07 0.0 
8.007334513514e-07 -2.486120542075e-03 0.0 
0.0 0.0 0.0 
2.935787391246e-03 -4.935616585102e-05 0.0 
-4.935616585102e-05 -2.671250356554e-03 0.0 
0.0 0.0 0.0 
3.447477165514e-03 3.151339224971e-03 0.0 
3.151339224971e-03 -2.581369840467e-03 0.0 
0.0 0.0 0.0 
-1.099766538665e-04 4.502602707617e-03 0.0 
4.502602707617e-03 1.240250171605e-03 0.0 
0.0 0.0 0.0 
2.692813021111e-03 -1.427866837693e-05 0.0 
-1.427866837693e-05 -2.436313207396e-03 0.0 
0.0 0.0 0.0 
2.884079467772e-03 -4.193905685553e-05 0.0 
-4.193905685553e-05 -2.612472239917e-03 0.0 
0.0 0.0 0.0 
3.094846622613e-03 -8.830399978886e-05 0.0 
-8.830399978886e-05 -2.777083057474e-03 0.0 
0.0 0.0 0.0 
3.067559102852e-03 -6.017724525249e-05 0.0 
-6.017724525249e-05 -2.703012665965e-03 0.0 
0.0 0.0 0.0 
-3.704457276281e-03 3.132831698705e-03 0.0 
3.132831698705e-03 5.484104160854e-03 0.0 
0.0 0.0 0.0 
-3.225521786989e-03 2.945148723226e-03 0.0 
2.945148723226e-03 4.785381888069e-03 0.0 
0.0 0.0 0.0 
-3.543842532489e-03 2.725295420158e-03 0.0 
2.725295420158e-03 5.251925728466e-03 0.0 
0.0 0.0 0.0 
-3.093976567619e-03 2.627451028625e-03 0.0 
2.627451028625e-03 4.641557446407e-03 0.0 
0.0 0.0 0.0 
-3.368834562525e-03 2.361336317730e-03 0.0 
2.361336317730e-03 4.988643547347e-03 0.0 
0.0 0.0 0.0 
2.885848584082e-03 -2.391581067458e-05 0.0 
-2.391581067458e-05 -2.585886272294e-03 0.0 
0.0 0.0 0.0 
-1.988346271605e-03 3.916242540787e-03 0.0 
3.916242540787e-03 3.313229441354e-03 0.0 
0.0 0.0 0.0 
-2.812713230941e-03 2.876928002138e-03 0.0 
2.876928002138e-03 4.292477424581e-03 0.0 
0.0 0.0 0.0 
-7.368306246563e-05 5.157852437251e-03 0.0 
5.157852437251e-03 1.530606917729e-03 0.0 
0.0 0.0 0.0 
1.918023715242e-03 4.450527124517e-03 0.0 
4.450527124517e-03 -7.940691208080e-04 0.0 
0.0 0.0 0.0 
4.194517149845e-03 2.435628051379e-03 0.0 
2.435628051379e-03 -3.622612495528e-03 0.0 
0.0 0.0 0.0 
2.476327895923e-03 1.935281738483e-05 0.0 
1.935281738483e-05 -2.211801381242e-03 0.0 
0.0 0.0 0.0 
2.447184179063e-03 4.579021777316e-06 0.0 
4.579021777316e-06 -2.187089114284e-03 0.0 
0.0 0.0 0.0 
2.208098534490e-03 2.655368622972e-05 0.0 
2.655368622972e-05 -1.943481657000e-03 0.0 
0.0 0.0 0.0 
2.916755290328e-03 6.686428828635e-04 0.0 
6.686428828635e-04 -2.558469751405e-03 0.0 
0.0 0.0 0.0 
2.542726092481e-03 5.968170108052e-04 0.0 
5.968170108052e-04 -2.193419145316e-03 0.0 
0.0 0.0 0.0 
2.566359396861e-03 7.724786407913e-04 0.0 
7.724786407913e-04 -2.197007987086e-03 0.0 
0.0 0.0 0.0 
2.198141071819e-03 6.775176034477e-04 0.0 
6.775176034477e-04 -1.837825620357e-03 0.0 
0.0 0.0 0.0 
2.192616220451e-03 8.477489444613e-04 0.0 
8.477489444613e-04 -1.813264171290e-03 0.0 
0.0 0.0 0.0 
1.843140014115e-03 7.350932876907e-04 0.0 
7.350932876907e-04 -1.471400526006e-03 0.0 
0.0 0.0 0.0 
1.853197350892e-03 5.842760416844e-04 0.0 
5.842760416844e-04 -1.499382984500e-03 0.0 
0.0 0.0 0.0 
1.520316220876e-03 6.299713455703e-04 0.0 
6.299713455703e-04 -1.156816330095e-03 0.0 
0.0 0.0 0.0 
1.535828392882e-03 5.002054679294e-04 0.0 
5.002054679294e-04 -1.188491430182e-03 0.0 
0.0 0.0 0.0 
1.813680220668e-03 8.957951321051e-04 0.0 
8.957951321051e-04 -1.424103465984e-03 0.0 
0.0 0.0 0.0 
2.164756120802e-03 1.030283572447e-03 0.0 
1.030283572447e-03 -1.763901139773e-03 0.0 
0.0 0.0 0.0 
1.232861035040e-03 5.351286988226e-04 0.0 
5.351286988226e-04 -8.750686021584e-04 0.0 
0.0 0.0 0.0 
1.255388120216e-03 4.245818495002e-04 0.0 
4.245818495002e-04 -9.114299739047e-04 0.0 
0.0 0.0 0.0 
9.883790620099e-04 4.504070161642e-04 0.0 
4.504070161642e-04 -6.314027505857e-04 0.0 
0.0 0.0 0.0 
1.017607780540e-03 3.537911456068e-04 0.0 
3.537911456068e-04 -6.744115158162e-04 0.0 
0.0 0.0 0.0 
1.265449021477e-03 3.243491637305e-04 0.0 
3.243491637305e-04 -9.354933922413e-04 0.0 
0.0 0.0 0.0 
1.038622427806e-03 2.681346833238e-04 0.0 
2.681346833238e-04 -7.083760392714e-04 0.0 
0.0 0.0 0.0 
1.266189780964e-03 2.381951132137e-04 0.0 
2.381951132137e-04 -9.486277130544e-04 0.0 
0.0 0.0 0.0 
4.126652392819e-03 2.273347001585e-03 0.0 
2.273347001585e-03 -3.581073932846e-03 0.0 
0.0 0.0 0.0 
3.966777795345e-03 2.619092982824e-03 0.0 
2.619092982824e-03 -3.380707197667e-03 0.0 
0.0 0.0 0.0 
3.799532499436e-03 2.432122945968e-03 0.0 
2.432122945968e-03 -3.242316691207e-03 0.0 
0.0 0.0 0.0 
3.621199541957e-03 2.748664140922e-03 0.0 
2.748664140922e-03 -3.025067411729e-03 0.0 
0.0 0.0 0.0 
3.376635297681e-03 2.534295464504e-03 0.0 
2.534295464504e-03 -2.811999257541e-03 0.0 
0.0 0.0 0.0 
3.173739649244e-03 2.818716137761e-03 0.0 
2.818716137761e-03 -2.572718425255e-03 0.0 
0.0 0.0 0.0 
2.882342075334e-03 2.583232653041e-03 0.0 
2.583232653041e-03 -2.315828880377e-03 0.0 
0.0 0.0 0.0 
3.056498897269e-03 2.306016241626e-03 0.0 
2.306016241626e-03 -2.516316621662e-03 0.0 
0.0 0.0 0.0 
-1.274907787376e-03 4.252466189479e-03 0.0 
4.252466189479e-03 2.528836965853e-03 0.0 
0.0 0.0 0.0 
4.311816324447e-03 1.757761086662e-03 0.0 
1.757761086662e-03 -3.699499287230e-03 0.0 
0.0 0.0 0.0 
4.140698149520e-03 1.982911546928e-03 0.0 
1.982911546928e-03 -3.449655005486e-03 0.0 
0.0 0.0 0.0 
4.266006280522e-03 1.527524752014e-03 0.0 
1.527524752014e-03 -3.596825605395e-03 0.0 
0.0 0.0 0.0 
4.149025179970e-03 1.773743333713e-03 0.0 
1.773743333713e-03 -3.363858227225e-03 0.0 
0.0 0.0 0.0 
4.219717060665e-03 1.293694994431e-03 0.0 
1.293694994431e-03 -3.457242167138e-03 0.0 
0.0 0.0 0.0 
4.124191603942e-03 1.534595920081e-03 0.0 
1.534595920081e-03 -3.224720997095e-03 0.0 
0.0 0.0 0.0 
4.127850355528e-03 1.039546429065e-03 0.0 
1.039546429065e-03 -3.259692511299e-03 0.0 
0.0 0.0 0.0 
4.213172310703e-03 8.439745211465e-04 0.0 
8.439745211465e-04 -3.471149339384e-03 0.0 
0.0 0.0 0.0 
4.050265565234e-03 5.934586397653e-04 0.0 
5.934586397653e-04 -3.215431227735e-03 0.0 
0.0 0.0 0.0 
4.134054008557e-03 4.401617018151e-04 0.0 
4.401617018151e-04 -3.405887688534e-03 0.0 
0.0 0.0 0.0 
3.911755161596e-03 2.071204617625e-04 0.0 
2.071204617625e-04 -3.096933775463e-03 0.0 
0.0 0.0 0.0 
4.002867088186e-03 1.006696308629e-04 0.0 
1.006696308629e-04 -3.283315279318e-03 0.0 
0.0 0.0 0.0 
1.658287814102e-03 4.325377799772e-03 0.0 
4.325377799772e-03 -7.321705495360e-04 0.0 
0.0 0.0 0.0 
3.396190182755e-03 3.068308099279e-03 0.0 
3.068308099279e-03 -2.757978745984e-03 0.0 
0.0 0.0 0.0 
2.930597379522e-03 3.117772692634e-03 0.0 
3.117772692634e-03 -2.288238216619e-03 0.0 
0.0 0.0 0.0 
3.142638066297e-03 3.382338392527e-03 0.0 
3.382338392527e-03 -2.463768110661e-03 0.0 
0.0 0.0 0.0 
3.237571167978e-03 -1.058357103714e-04 0.0 
-1.058357103714e-04 -2.781311393792e-03 0.0 
0.0 0.0 0.0 
8.240071912707e-04 2.907584875371e-04 0.0 
2.907584875371e-04 -4.795785810816e-04 0.0 
0.0 0.0 0.0 
1.762210354224e-03 1.063867914335e-03 0.0 
1.063867914335e-03 -1.351519948270e-03 0.0 
0.0 0.0 0.0 
2.111966888289e-03 1.222067264596e-03 0.0 
1.222067264596e-03 -1.691109222674e-03 0.0 
0.0 0.0 0.0 
2.548653663854e-03 2.342544557640e-03 0.0 
2.342544557640e-03 -2.004828637108e-03 0.0 
0.0 0.0 0.0 
3.109643001848e-03 -2.874364230527e-05 0.0 
-2.874364230527e-05 -2.659770080139e-03 0.0 
0.0 0.0 0.0 
3.994379505939e-03 1.248831858458e-03 0.0 
1.248831858458e-03 -3.001473328110e-03 0.0 
0.0 0.0 0.0 
3.967744971374e-03 1.777139407864e-03 0.0 
1.777139407864e-03 -2.927770289252e-03 0.0 
0.0 0.0 0.0 
-2.971887861554e-03 2.376067211864e-03 0.0 
2.376067211864e-03 4.497780779704e-03 0.0 
0.0 0.0 0.0 
-3.205935786101e-03 2.076661593609e-03 0.0 
2.076661593609e-03 4.792913981291e-03 0.0 
0.0 0.0 0.0 
1.686821359340e-03 1.240208467756e-03 0.0 
1.240208467756e-03 -1.257208938142e-03 0.0 
0.0 0.0 0.0 
2.956970297618e-03 1.405969347785e-06 0.0 
1.405969347785e-06 -2.596119802447e-03 0.0 
0.0 0.0 0.0 
1.193518677813e-03 6.555058372654e-04 0.0 
6.555058372654e-04 -8.200469419291e-04 0.0 
0.0 0.0 0.0 
3.761372407460e-03 3.224459831957e-04 0.0 
3.224459831957e-04 -2.861042954498e-03 0.0 
0.0 0.0 0.0 
8.539019803706e-04 2.182151400690e-04 0.0 
2.182151400690e-04 -5.220120935682e-04 0.0 
0.0 0.0 0.0 
6.722706482158e-04 2.372764968200e-04 0.0 
2.372764968200e-04 -3.263808618875e-04 0.0 
0.0 0.0 0.0 
1.846376913054e-03 4.500615922853e-04 0.0 
4.500615922853e-04 -1.509107313301e-03 0.0 
0.0 0.0 0.0 
2.668146606924e-03 3.414899243951e-03 0.0 
3.414899243951e-03 -1.988946490573e-03 0.0 
0.0 0.0 0.0 
2.873441152736e-03 3.683933936733e-03 0.0 
3.683933936733e-03 -2.152178375923e-03 0.0 
0.0 0.0 0.0 
4.216210742111e-03 3.334395903555e-04 0.0 
3.334395903555e-04 -3.586175919935e-03 0.0 
0.0 0.0 0.0 
4.097782925721e-03 5.132416151874e-05 0.0 
5.132416151874e-05 -3.461774706823e-03 0.0 
0.0 0.0 0.0 
3.833417574524e-03 -1.535776412917e-04 0.0 
-1.535776412917e-04 -3.108929226815e-03 0.0 
0.0 0.0 0.0 
3.926763397962e-03 -1.774549813576e-04 0.0 
-1.774549813576e-04 -3.293482585047e-03 0.0 
0.0 0.0 0.0 
4.197430717813e-03 2.033886153047e-05 0.0 
2.033886153047e-05 -3.637999277874e-03 0.0 
0.0 0.0 0.0 
4.026158322095e-03 -1.864603762247e-04 0.0 
-1.864603762247e-04 -3.448833811532e-03 0.0 
0.0 0.0 0.0 
3.740635218040e-03 -3.496338747844e-04 0.0 
-3.496338747844e-04 -3.073467858610e-03 0.0 
0.0 0.0 0.0 
3.839809709708e-03 -3.107212665426e-04 0.0 
-3.107212665426e-04 -3.234753161898e-03 0.0 
0.0 0.0 0.0 
4.058954962716e-03 -1.582578562010e-04 0.0 
-1.582578562010e-04 -3.553183566272e-03 0.0 
0.0 0.0 0.0 
3.872037756649e-03 -2.740103388861e-04 0.0 
-2.740103388861e-04 -3.338244215960e-03 0.0 
0.0 0.0 0.0 
3.633867425271e-03 -3.761663870450e-04 0.0 
-3.761663870450e-04 -2.986913151847e-03 0.0 
0.0 0.0 0.0 
3.687260480143e-03 -3.118727809544e-04 0.0 
-3.118727809544e-04 -3.107685827289e-03 0.0 
0.0 0.0 0.0 
6.279753439504e-04 3.083499179908e-04 0.0 
3.083499179908e-04 -2.688940600044e-04 0.0 
0.0 0.0 0.0 
3.551411465870e-03 -2.503857513643e-05 0.0 
-2.503857513643e-05 -2.673183398255e-03 0.0 
0.0 0.0 0.0 
-1.691769323060e-03 5.077370780871e-03 0.0 
5.077370780871e-03 3.390723918369e-03 0.0 
0.0 0.0 0.0 
1.366047299584e-03 1.076761527762e-03 0.0 
1.076761527762e-03 -9.508617194299e-04 0.0 
0.0 0.0 0.0 
2.356691783889e-03 2.602357636191e-03 0.0 
2.602357636191e-03 -1.791694460922e-03 0.0 
0.0 0.0 0.0 
-2.840530263760e-03 2.154073251206e-03 0.0 
2.154073251206e-03 4.387601899021e-03 0.0 
0.0 0.0 0.0 
-3.006185220657e-03 1.881641283628e-03 0.0 
1.881641283628e-03 4.597155569629e-03 0.0 
0.0 0.0 0.0 
-3.374486215121e-03 1.735246647115e-03 0.0 
1.735246647115e-03 5.029333242672e-03 0.0 
0.0 0.0 0.0 
-3.077942599744e-03 1.574483957033e-03 0.0 
1.574483957033e-03 4.707284699087e-03 0.0 
0.0 0.0 0.0 
-2.699234156960e-03 1.712775753009e-03 0.0 
1.712775753009e-03 4.314190529413e-03 0.0 
0.0 0.0 0.0 
-2.737766089455e-03 1.402105478788e-03 0.0 
1.402105478788e-03 4.387771706013e-03 0.0 
0.0 0.0 0.0 
-3.052378111540e-03 1.263110392342e-03 0.0 
1.263110392342e-03 4.729764760851e-03 0.0 
0.0 0.0 0.0 
-2.734475644752e-03 1.118179467905e-03 0.0 
1.118179467905e-03 4.417361452696e-03 0.0 
0.0 0.0 0.0 
-3.030091650444e-03 9.925450774627e-04 0.0 
9.925450774627e-04 4.744438660720e-03 0.0 
0.0 0.0 0.0 
-2.730938015241e-03 8.859702886249e-04 0.0 
8.859702886249e-04 4.444956135004e-03 0.0 
0.0 0.0 0.0 
-2.409046811985e-03 9.640871503331e-04 0.0 
9.640871503331e-04 4.105102153387e-03 0.0 
0.0 0.0 0.0 
-2.413076492380e-03 7.798377644966e-04 0.0 
7.798377644966e-04 4.120230179708e-03 0.0 
0.0 0.0 0.0 
-2.713796545587e-03 6.955165911590e-04 0.0 
6.955165911590e-04 4.452302257971e-03 0.0 
0.0 0.0 0.0 
-2.415434432211e-03 6.234239457619e-04 0.0 
6.234239457619e-04 4.151452994247e-03 0.0 
0.0 0.0 0.0 
-2.701118649465e-03 5.505345787443e-04 0.0 
5.505345787443e-04 4.465068128051e-03 0.0 
0.0 0.0 0.0 
-2.438023648133e-03 5.045008975401e-04 0.0 
5.045008975401e-04 4.199339190968e-03 0.0 
0.0 0.0 0.0 
-2.135851334472e-03 5.574225095791e-04 0.0 
5.574225095791e-04 3.840707357851e-03 0.0 
0.0 0.0 0.0 
3.221017838740e-03 -1.330831125951e-06 0.0 
-1.330831125951e-06 -2.648903571168e-03 0.0 
0.0 0.0 0.0 
2.700337642150e-03 2.081024658937e-03 0.0 
2.081024658937e-03 -2.190026482517e-03 0.0 
0.0 0.0 0.0 
2.167889141338e-03 2.101460068283e-03 0.0 
2.101460068283e-03 -1.663532171640e-03 0.0 
0.0 0.0 0.0 
2.198295149072e-03 2.030476838151e-06 0.0 
2.030476838151e-06 -1.932906103144e-03 0.0 
0.0 0.0 0.0 
1.953046427718e-03 2.822643171099e-05 0.0 
2.822643171099e-05 -1.696306468759e-03 0.0 
0.0 0.0 0.0 
1.964734881617e-03 6.766085014934e-05 0.0 
6.766085014934e-05 -1.691331281230e-03 0.0 
0.0 0.0 0.0 
1.693751802270e-03 5.202062111033e-05 0.0 
5.202062111033e-05 -1.415142457432e-03 0.0 
0.0 0.0 0.0 
-2.172909909127e-03 4.261911711372e-04 0.0 
4.261911711372e-04 3.903392146309e-03 0.0 
0.0 0.0 0.0 
-1.872676531665e-03 5.128571377576e-04 0.0 
5.128571377576e-04 3.564790915655e-03 0.0 
0.0 0.0 0.0 
3.761082749366e-03 1.443178925803e-03 0.0 
1.443178925803e-03 -2.653018119836e-03 0.0 
0.0 0.0 0.0 
3.700664225886e-03 1.968880595245e-03 0.0 
1.968880595245e-03 -2.543400913431e-03 0.0 
0.0 0.0 0.0 
-2.563049431758e-03 2.527078073384e-03 0.0 
2.527078073384e-03 4.097097953383e-03 0.0 
0.0 0.0 0.0 
7.099005844524e-04 1.733900014210e-04 0.0 
1.733900014210e-04 -3.742278636863e-04 0.0 
0.0 0.0 0.0 
8.760007042074e-04 1.559045565276e-04 0.0 
1.559045565276e-04 -5.551033752358e-04 0.0 
0.0 0.0 0.0 
2.398845716395e-03 4.173731021668e-03 0.0 
4.173731021668e-03 -1.311073032970e-03 0.0 
0.0 0.0 0.0 
2.143006454797e-03 4.455269637059e-03 0.0 
4.455269637059e-03 -8.562878668346e-04 0.0 
0.0 0.0 0.0 
2.594182578101e-03 4.111682764453e-03 0.0 
4.111682764453e-03 -1.353049505568e-03 0.0 
0.0 0.0 0.0 
2.282631753317e-03 4.299551370772e-03 0.0 
4.299551370772e-03 -8.419762784362e-04 0.0 
0.0 0.0 0.0 
1.847707577179e-03 4.685229045033e-03 0.0 
4.685229045033e-03 -3.282850167192e-04 0.0 
0.0 0.0 0.0 
2.677217352055e-03 3.893280209364e-03 0.0 
3.893280209364e-03 -1.306091080529e-03 0.0 
0.0 0.0 0.0 
2.546979655285e-03 1.172806878577e-03 0.0 
1.172806878577e-03 -2.132542707873e-03 0.0 
0.0 0.0 0.0 
-2.113653904685e-03 8.787718346631e-04 0.0 
8.787718346631e-04 3.777400156390e-03 0.0 
0.0 0.0 0.0 
3.290141441374e-03 -1.401392093135e-04 0.0 
-1.401392093135e-04 -2.902839263258e-03 0.0 
0.0 0.0 0.0 
3.362740506317e-03 -1.590025626560e-04 0.0 
-1.590025626560e-04 -2.805802879899e-03 0.0 
0.0 0.0 0.0 
5.548108224904e-04 1.889899209875e-04 0.0 
1.889899209875e-04 -2.034161378404e-04 0.0 
0.0 0.0 0.0 
3.185200328911e-03 2.023425515617e-03 0.0 
2.023425515617e-03 -2.679796441763e-03 0.0 
0.0 0.0 0.0 
1.242219590413e-03 4.443639632546e-03 0.0 
4.443639632546e-03 -2.663997197478e-04 0.0 
0.0 0.0 0.0 
1.792264477735e-03 4.430104659843e-03 0.0 
4.430104659843e-03 -8.683965639900e-04 0.0 
0.0 0.0 0.0 
1.423379024507e-03 4.564004932550e-03 0.0 
4.564004932550e-03 -4.479585629502e-04 0.0 
0.0 0.0 0.0 
1.889123080384e-03 4.573022159720e-03 0.0 
4.573022159720e-03 -9.637581944588e-04 0.0 
0.0 0.0 0.0 
1.544967311925e-03 4.723367096708e-03 0.0 
4.723367096708e-03 -5.671310665081e-04 0.0 
0.0 0.0 0.0 
1.849905328563e-03 4.697619787660e-03 0.0 
4.697619787660e-03 -9.270651917044e-04 0.0 
0.0 0.0 0.0 
2.184434130667e-03 4.509241089886e-03 0.0 
4.509241089886e-03 -1.296752139802e-03 0.0 
0.0 0.0 0.0 
2.410064343275e-03 3.700451169977e-03 0.0 
3.700451169977e-03 -1.688487543638e-03 0.0 
0.0 0.0 0.0 
1.969876044952e-03 4.570756508779e-03 0.0 
4.570756508779e-03 -1.082769048172e-03 0.0 
0.0 0.0 0.0 
-2.508887318728e-03 3.780216255444e-04 0.0 
3.780216255444e-04 4.285708068651e-03 0.0 
0.0 0.0 0.0 
3.510058362371e-03 3.296844927157e-03 0.0 
3.296844927157e-03 -2.837567231766e-03 0.0 
0.0 0.0 0.0 
4.007350222433e-03 -1.291822707173e-04 0.0 
-1.291822707173e-04 -3.573287124982e-03 0.0 
0.0 0.0 0.0 
3.337059119524e-03 -2.126166099162e-05 0.0 
-2.126166099162e-05 -2.630831949559e-03 0.0 
0.0 0.0 0.0 
3.485719095334e-03 -3.808803682522e-04 0.0 
-3.808803682522e-04 -2.744778641755e-03 0.0 
0.0 0.0 0.0 
3.091240629642e-03 1.958280729485e-05 0.0 
1.958280729485e-05 -2.626162457230e-03 0.0 
0.0 0.0 0.0 
2.801622030362e-03 1.181209787415e-05 0.0 
1.181209787415e-05 -2.501366744319e-03 0.0 
0.0 0.0 0.0 
1.269980227780e-03 1.237819463411e-03 0.0 
1.237819463411e-03 -8.388689346591e-04 0.0 
0.0 0.0 0.0 
1.501802948065e-03 4.875438615038e-03 0.0 
4.875438615038e-03 -5.274865729526e-04 0.0 
0.0 0.0 0.0 
1.211419476848e-03 4.885211618150e-03 0.0 
4.885211618150e-03 -1.885545902659e-04 0.0 
0.0 0.0 0.0 
1.904261245980e-03 4.404816784654e-03 0.0 
4.404816784654e-03 -2.256947883121e-04 0.0 
0.0 0.0 0.0 
1.490453104111e-03 4.815457978984e-03 0.0 
4.815457978984e-03 3.092821157143e-04 0.0 
0.0 0.0 0.0 
2.139416654314e-03 3.378655383130e-03 0.0 
3.378655383130e-03 -1.459195837634e-03 0.0 
0.0 0.0 0.0 
-3.952760234486e-03 2.368641647820e-03 0.0 
2.368641647820e-03 5.820802338820e-03 0.0 
0.0 0.0 0.0 
-3.328024491679e-03 1.077118576116e-03 0.0 
1.077118576116e-03 5.105771934539e-03 0.0 
0.0 0.0 0.0 
-3.280800398440e-03 8.105542318157e-04 0.0 
8.105542318157e-04 5.148729842012e-03 0.0 
0.0 0.0 0.0 
3.428746046784e-03 2.891022326652e-05 0.0 
2.891022326652e-05 -2.629951671493e-03 0.0 
0.0 0.0 0.0 
3.349886860037e-03 -4.499450152795e-04 0.0 
-4.499450152795e-04 -2.553359667640e-03 0.0 
0.0 0.0 0.0 
-2.341444265232e-03 1.528861314346e-03 0.0 
1.528861314346e-03 3.985112236910e-03 0.0 
0.0 0.0 0.0 
3.841636633079e-03 2.296328717669e-03 0.0 
2.296328717669e-03 -2.762701783686e-03 0.0 
0.0 0.0 0.0 
3.551246541207e-03 2.492916961707e-03 0.0 
2.492916961707e-03 -2.344049116806e-03 0.0 
0.0 0.0 0.0 
3.307397705757e-03 4.714012918374e-05 0.0 
4.714012918374e-05 -2.370418218272e-03 0.0 
0.0 0.0 0.0 
3.034298105163e-03 -2.302081625395e-04 0.0 
-2.302081625395e-04 -2.113572057623e-03 0.0 
0.0 0.0 0.0 
-1.934634210556e-03 3.525502891293e-04 0.0 
3.525502891293e-04 3.649596278198e-03 0.0 
0.0 0.0 0.0 
-1.638541671980e-03 4.247194646199e-04 0.0 
4.247194646199e-04 3.350428547050e-03 0.0 
0.0 0.0 0.0 
1.718086872393e-03 9.546363644833e-05 0.0 
9.546363644833e-05 -1.430332508890e-03 0.0 
0.0 0.0 0.0 
1.450205532872e-03 7.929504801131e-05 0.0 
7.929504801131e-05 -1.165158890023e-03 0.0 
0.0 0.0 0.0 
1.587333391111e-03 1.426310144855e-03 0.0 
1.426310144855e-03 -1.132841562727e-03 0.0 
0.0 0.0 0.0 
3.548905080719e-03 -3.156202889083e-04 0.0 
-3.156202889083e-04 -2.897676387123e-03 0.0 
0.0 0.0 0.0 
-1.589046620212e-03 5.804808971652e-04 0.0 
5.804808971652e-04 3.283097381697e-03 0.0 
0.0 0.0 0.0 
2.811770501517e-03 1.824997395181e-03 0.0 
1.824997395181e-03 -2.325883121919e-03 0.0 
0.0 0.0 0.0 
3.274535260190e-03 1.743104376005e-03 0.0 
1.743104376005e-03 -2.797447737686e-03 0.0 
0.0 0.0 0.0 
1.697037897758e-03 3.220383537332e-05 0.0 
3.220383537332e-05 -1.419625732524e-03 0.0 
0.0 0.0 0.0 
3.323822949108e-03 1.556424793322e-03 0.0 
1.556424793322e-03 -2.163681202589e-03 0.0 
0.0 0.0 0.0 
3.345259855836e-03 1.047642393155e-03 0.0 
1.047642393155e-03 -2.235087040227e-03 0.0 
0.0 0.0 0.0 
4.179448603486e-03 2.000673811494e-05 0.0 
2.000673811494e-05 -3.752141834238e-03 0.0 
0.0 0.0 0.0 
3.658022175658e-03 -2.540549314318e-04 0.0 
-2.540549314318e-04 -3.166750771011e-03 0.0 
0.0 0.0 0.0 
2.969164235025e-03 1.784468259392e-05 0.0 
1.784468259392e-05 -2.592946084864e-03 0.0 
0.0 0.0 0.0 
1.150582738010e-03 1.411963605812e-03 0.0 
1.411963605812e-03 -7.030987398871e-04 0.0 
0.0 0.0 0.0 
-2.258096016128e-03 1.880281110321e-03 0.0 
1.880281110321e-03 3.872972187562e-03 0.0 
0.0 0.0 0.0 
2.299199159128e-03 4.348408408349e-03 0.0 
4.348408408349e-03 -1.459693934739e-03 0.0 
0.0 0.0 0.0 
2.520315633494e-03 4.289344487196e-03 0.0 
4.289344487196e-03 -1.682963934151e-03 0.0 
0.0 0.0 0.0 
1.966323623299e-03 4.361305255537e-03 0.0 
4.361305255537e-03 -1.129130829569e-03 0.0 
0.0 0.0 0.0 
3.326360472416e-03 -3.319645531823e-04 0.0 
-3.319645531823e-04 -2.502104640262e-03 0.0 
0.0 0.0 0.0 
9.689588773659e-04 1.052562036005e-03 0.0 
1.052562036005e-03 -5.469430577068e-04 0.0 
0.0 0.0 0.0 
5.969216823327e-04 1.308455027840e-04 0.0 
1.308455027840e-04 -2.573389633417e-04 0.0 
0.0 0.0 0.0 
1.162334927682e-03 5.089176058818e-03 0.0 
5.089176058818e-03 -1.454977786760e-04 0.0 
0.0 0.0 0.0 
9.017859665795e-04 5.039913243428e-03 0.0 
5.039913243428e-03 1.700033940559e-04 0.0 
0.0 0.0 0.0 
3.633886842606e-03 2.800763466859e-03 0.0 
2.800763466859e-03 -2.512246308613e-03 0.0 
0.0 0.0 0.0 
3.319584392231e-03 2.985222197111e-03 0.0 
2.985222197111e-03 -2.061379757680e-03 0.0 
0.0 0.0 0.0 
3.051768470121e-03 2.555935379247e-03 0.0 
2.555935379247e-03 -1.764454813113e-03 0.0 
0.0 0.0 0.0 
2.827036909722e-03 3.030549611472e-03 0.0 
3.030549611472e-03 -1.460920585144e-03 0.0 
0.0 0.0 0.0 
-2.599294554048e-03 4.813656006072e-03 0.0 
4.813656006072e-03 4.565866375549e-03 0.0 
0.0 0.0 0.0 
3.344231786559e-03 3.273979989284e-03 0.0 
3.273979989284e-03 -2.183596703213e-03 0.0 
0.0 0.0 0.0 
-1.114791273678e-03 5.366102507284e-03 0.0 
5.366102507284e-03 2.883618036673e-03 0.0 
0.0 0.0 0.0 
-1.579305633138e-03 5.683041500379e-03 0.0 
5.683041500379e-03 3.798877880155e-03 0.0 
0.0 0.0 0.0 
-8.406438489690e-04 5.807538069980e-03 0.0 
5.807538069980e-03 3.060110465053e-03 0.0 
0.0 0.0 0.0 
1.343630148957e-03 4.999904311153e-03 0.0 
4.999904311153e-03 2.542817551703e-04 0.0 
0.0 0.0 0.0 
1.018438542590e-03 5.190501529579e-03 0.0 
5.190501529579e-03 9.101690982875e-04 0.0 
0.0 0.0 0.0 
3.993767167470e-03 2.257975310233e-03 0.0 
2.257975310233e-03 -3.181843529933e-03 0.0 
0.0 0.0 0.0 
3.994493795524e-03 2.801975953332e-03 0.0 
2.801975953332e-03 -3.377344565945e-03 0.0 
0.0 0.0 0.0 
2.006183141777e-03 1.148690551636e-04 0.0 
1.148690551636e-04 -1.721776838971e-03 0.0 
0.0 0.0 0.0 
1.523517279365e-03 2.825957070992e-04 0.0 
2.825957070992e-04 -1.204610785008e-03 0.0 
0.0 0.0 0.0 
2.949146716207e-03 8.675708197661e-04 0.0 
8.675708197661e-04 -2.568114675071e-03 0.0 
0.0 0.0 0.0 
-2.090699358925e-03 1.099337494049e-03 0.0 
1.099337494049e-03 3.774669344456e-03 0.0 
0.0 0.0 0.0 
-1.783875295919e-03 1.069952013540e-03 0.0 
1.069952013540e-03 3.471255460401e-03 0.0 
0.0 0.0 0.0 
-2.973692868835e-03 5.726360077029e-04 0.0 
5.726360077029e-04 4.783367606562e-03 0.0 
0.0 0.0 0.0 
-2.995486020288e-03 4.369755466704e-04 0.0 
4.369755466704e-04 4.877790719302e-03 0.0 
0.0 0.0 0.0 
3.364964347076e-03 -1.082608070409e-04 0.0 
-1.082608070409e-04 -2.674755320356e-03 0.0 
0.0 0.0 0.0 
3.416908032845e-03 -1.636407357988e-04 0.0 
-1.636407357988e-04 -2.603067572324e-03 0.0 
0.0 0.0 0.0 
2.500193778009e-03 4.419928216949e-04 0.0 
4.419928216949e-04 -2.169442570758e-03 0.0 
0.0 0.0 0.0 
1.065961156891e-03 9.216624058161e-04 0.0 
9.216624058161e-04 -6.656836988574e-04 0.0 
0.0 0.0 0.0 
-2.340412256360e-03 2.352681109157e-03 0.0 
2.352681109157e-03 3.929555971987e-03 0.0 
0.0 0.0 0.0 
-1.993209367805e-03 2.915845509870e-03 0.0 
2.915845509870e-03 3.583634553949e-03 0.0 
0.0 0.0 0.0 
-2.241112976865e-03 2.965264980694e-03 0.0 
2.965264980694e-03 3.769633362075e-03 0.0 
0.0 0.0 0.0 
1.463587028439e-03 1.620369718673e-03 0.0 
1.620369718673e-03 -9.937726060312e-04 0.0 
0.0 0.0 0.0 
4.404774345851e-03 1.337863984024e-03 0.0 
1.337863984024e-03 -3.814640211113e-03 0.0 
0.0 0.0 0.0 
3.925674248177e-03 2.101958191241e-03 0.0 
2.101958191241e-03 -3.403976415348e-03 0.0 
0.0 0.0 0.0 
3.307146478776e-03 -2.604943786469e-04 0.0 
-2.604943786469e-04 -2.436757801870e-03 0.0 
0.0 0.0 0.0 
2.560298078308e-03 4.043892361962e-03 0.0 
4.043892361962e-03 -1.733335418469e-03 0.0 
0.0 0.0 0.0 
3.464353788767e-03 -9.616138683357e-05 0.0 
-9.616138683357e-05 -2.456264091228e-03 0.0 
0.0 0.0 0.0 
-4.226061230815e-04 4.473736424890e-03 0.0 
4.473736424890e-03 1.598702844403e-03 0.0 
0.0 0.0 0.0 
4.573920137754e-04 1.417331907220e-04 0.0 
1.417331907220e-04 -1.011813052805e-04 0.0 
0.0 0.0 0.0 
4.070620564107e-04 1.990877050924e-04 0.0 
1.990877050924e-04 -3.708806650241e-05 0.0 
0.0 0.0 0.0 
1.866748370231e-03 3.628099520711e-03 0.0 
3.628099520711e-03 -1.149076583511e-03 0.0 
0.0 0.0 0.0 
-3.659423221656e-03 5.681249133463e-03 0.0 
5.681249133463e-03 6.918412899214e-03 0.0 
0.0 0.0 0.0 
2.944481525205e-03 3.938351595191e-03 0.0 
3.938351595191e-03 -2.156161971521e-03 0.0 
0.0 0.0 0.0 
3.277570898949e-03 3.650284740153e-03 0.0 
3.650284740153e-03 -2.536701911805e-03 0.0 
0.0 0.0 0.0 
-1.247268001691e-03 6.151844736616e-03 0.0 
6.151844736616e-03 4.043943081463e-03 0.0 
0.0 0.0 0.0 
-4.976604202849e-04 6.016096081313e-03 0.0 
6.016096081313e-03 3.192497373044e-03 0.0 
0.0 0.0 0.0 
-1.487840878686e-04 5.735973295966e-03 0.0 
5.735973295966e-03 2.310230373410e-03 0.0 
0.0 0.0 0.0 
1.264403001928e-04 5.704422234317e-03 0.0 
5.704422234317e-03 2.396311061756e-03 0.0 
0.0 0.0 0.0 
4.047053040320e-03 3.929464531745e-05 0.0 
3.929464531745e-05 -3.676489921549e-03 0.0 
0.0 0.0 0.0 
3.879217205368e-03 -8.544648766312e-05 0.0 
-8.544648766312e-05 -3.507417881605e-03 0.0 
0.0 0.0 0.0 
1.247362455874e-03 5.015407939892e-03 0.0 
5.015407939892e-03 -2.630516833385e-04 0.0 
0.0 0.0 0.0 
1.628162306530e-03 4.632875455867e-03 0.0 
4.632875455867e-03 -7.410248272506e-04 0.0 
0.0 0.0 0.0 
9.062979387929e-04 5.255603432362e-03 0.0 
5.255603432362e-03 1.793299185776e-04 0.0 
0.0 0.0 0.0 
6.650830623370e-04 5.212066803910e-03 0.0 
5.212066803910e-03 4.689729494718e-04 0.0 
0.0 0.0 0.0 
1.630660683765e-03 3.283848787422e-03 0.0 
3.283848787422e-03 -9.510418032458e-04 0.0 
0.0 0.0 0.0 
1.888905707933e-03 3.066783742683e-03 0.0 
3.066783742683e-03 -1.235930513842e-03 0.0 
0.0 0.0 0.0 
2.644638911471e-03 6.210925755679e-06 0.0 
6.210925755679e-06 -2.382425116997e-03 0.0 
0.0 0.0 0.0 
1.067070023150e-03 4.820681520136e-03 0.0 
4.820681520136e-03 1.033459648303e-03 0.0 
0.0 0.0 0.0 
-1.957051868518e-03 1.843689709195e-03 0.0 
1.843689709195e-03 3.613540991289e-03 0.0 
0.0 0.0 0.0 
-2.108601031458e-03 6.033702667795e-03 0.0 
6.033702667795e-03 4.932687179314e-03 0.0 
0.0 0.0 0.0 
7.115418743702e-04 8.952725800086e-04 0.0 
8.952725800086e-04 -3.040301397384e-04 0.0 
0.0 0.0 0.0 
8.122359256385e-04 7.818407269207e-04 0.0 
7.818407269207e-04 -4.099763771615e-04 0.0 
0.0 0.0 0.0 
2.701396826795e-03 -3.659426916831e-04 0.0 
-3.659426916831e-04 -1.803040363272e-03 0.0 
0.0 0.0 0.0 
3.004188122960e-03 -4.134072925887e-04 0.0 
-4.134072925887e-04 -2.108430349144e-03 0.0 
0.0 0.0 0.0 
-1.329340188720e-03 4.460950856457e-04 0.0 
4.460950856457e-04 3.019246432940e-03 0.0 
0.0 0.0 0.0 
2.287513237932e-03 2.434385361117e-03 0.0 
2.434385361117e-03 -1.026644058328e-03 0.0 
0.0 0.0 0.0 
2.098114438076e-03 2.860996147352e-03 0.0 
2.860996147352e-03 -7.198460818651e-04 0.0 
0.0 0.0 0.0 
2.474547105096e-03 2.000086460020e-03 0.0 
2.000086460020e-03 -1.298238119065e-03 0.0 
0.0 0.0 0.0 
1.808926308435e-04 5.126680275462e-05 0.0 
5.126680275462e-05 2.178515502505e-04 0.0 
0.0 0.0 0.0 
-3.171679811729e-03 7.022771403929e-05 0.0 
7.022771403929e-05 5.709569056602e-03 0.0 
0.0 0.0 0.0 
3.255122316566e-04 1.480367686120e-04 0.0 
1.480367686120e-04 5.171543923321e-05 0.0 
0.0 0.0 0.0 
7.882408296122e-04 5.258505806155e-03 0.0 
5.258505806155e-03 8.821722092498e-04 0.0 
0.0 0.0 0.0 
-1.255579942500e-03 6.553521645443e-04 0.0 
6.553521645443e-04 2.969885413713e-03 0.0 
0.0 0.0 0.0 
3.176256735699e-03 3.796035461218e-03 0.0 
3.796035461218e-03 -2.425540797869e-03 0.0 
0.0 0.0 0.0 
2.847326832917e-03 3.845572644315e-03 0.0 
3.845572644315e-03 -1.787063338534e-03 0.0 
0.0 0.0 0.0 
1.920888932825e-03 1.631818931174e-03 0.0 
1.631818931174e-03 -1.455950204592e-03 0.0 
0.0 0.0 0.0 
-1.411998819806e-03 3.084769081192e-04 0.0 
3.084769081192e-04 3.107459823011e-03 0.0 
0.0 0.0 0.0 
-1.078852312270e-03 3.346886157614e-04 0.0 
3.346886157614e-04 2.774807131608e-03 0.0 
0.0 0.0 0.0 
-3.623797951148e-03 8.895342233073e-04 0.0 
8.895342233073e-04 5.678648431120e-03 0.0 
0.0 0.0 0.0 
-3.539196040601e-03 6.535693729794e-04 0.0 
6.535693729794e-04 5.731329832942e-03 0.0 
0.0 0.0 0.0 
-3.670867316678e-03 1.201829715515e-03 0.0 
1.201829715515e-03 5.624644714572e-03 0.0 
0.0 0.0 0.0 
3.547492029051e-03 4.293811427109e-04 0.0 
4.293811427109e-04 -2.553843645136e-03 0.0 
0.0 0.0 0.0 
2.887009717665e-03 9.923628820260e-05 0.0 
9.923628820260e-05 -1.925619756996e-03 0.0 
0.0 0.0 0.0 
-1.838715933467e-03 8.090611754811e-04 0.0 
8.090611754811e-04 3.505302328675e-03 0.0 
0.0 0.0 0.0 
2.440185582627e-03 3.872888515312e-06 0.0 
3.872888515312e-06 -2.193696598039e-03 0.0 
0.0 0.0 0.0 
2.173280014117e-03 -6.250324127977e-06 0.0 
-6.250324127977e-06 -1.921235065904e-03 0.0 
0.0 0.0 0.0 
3.525880252256e-03 -2.649010873452e-04 0.0 
-2.649010873452e-04 -2.961262221281e-03 0.0 
0.0 0.0 0.0 
3.553626235210e-03 -2.028842727658e-04 0.0 
-2.028842727658e-04 -3.140128293485e-03 0.0 
0.0 0.0 0.0 
1.754018155799e-03 1.549511515360e-04 0.0 
1.549511515360e-04 -1.456739286911e-03 0.0 
0.0 0.0 0.0 
2.058949187696e-03 1.837545031491e-04 0.0 
1.837545031491e-04 -1.762011494649e-03 0.0 
0.0 0.0 0.0 
1.893854690872e-04 4.637981756750e-03 0.0 
4.637981756750e-03 9.338606726201e-04 0.0 
0.0 0.0 0.0 
-6.055275782381e-05 4.694663619074e-03 0.0 
4.694663619074e-03 1.232832800534e-03 0.0 
0.0 0.0 0.0 
8.536421085926e-04 4.532262604397e-03 0.0 
4.532262604397e-03 1.703377526459e-04 0.0 
0.0 0.0 0.0 
2.890374254421e-03 1.563996670541e-03 0.0 
1.563996670541e-03 -2.434349167911e-03 0.0 
0.0 0.0 0.0 
3.327093299699e-03 1.465714744330e-03 0.0 
1.465714744330e-03 -2.880418648955e-03 0.0 
0.0 0.0 0.0 
3.693063553883e-03 1.620934584110e-03 0.0 
1.620934584110e-03 -3.226928351344e-03 0.0 
0.0 0.0 0.0 
-1.701192165633e-03 1.374419139854e-03 0.0 
1.374419139854e-03 3.428021163504e-03 0.0 
0.0 0.0 0.0 
-1.274403477263e-03 1.423084560448e-03 0.0 
1.423084560448e-03 3.047787852840e-03 0.0 
0.0 0.0 0.0 
4.198169586552e-03 2.229954034399e-04 0.0 
2.229954034399e-04 -3.819644397137e-03 0.0 
0.0 0.0 0.0 
4.325380575599e-03 2.191926638606e-04 0.0 
2.191926638606e-04 -3.894435413076e-03 0.0 
0.0 0.0 0.0 
3.840722851754e-03 6.777283494715e-05 0.0 
6.777283494715e-05 -3.512203521260e-03 0.0 
0.0 0.0 0.0 
-1.719675040842e-03 2.390456233386e-03 0.0 
2.390456233386e-03 3.396516209655e-03 0.0 
0.0 0.0 0.0 
2.730901019872e-04 2.065335440407e-04 0.0 
2.065335440407e-04 1.224070989078e-04 0.0 
0.0 0.0 0.0 
3.453099406295e-04 2.574050375719e-04 0.0 
2.574050375719e-04 3.289374300926e-05 0.0 
0.0 0.0 0.0 
3.435880878645e-03 -1.403412454680e-04 0.0 
-1.403412454680e-04 -2.299125229357e-03 0.0 
0.0 0.0 0.0 
3.411583942788e-03 -2.085691134183e-04 0.0 
-2.085691134183e-04 -2.465548380857e-03 0.0 
0.0 0.0 0.0 
2.690707668767e-03 1.111748937787e-03 0.0 
1.111748937787e-03 -1.642865186891e-03 0.0 
0.0 0.0 0.0 
2.715291792098e-03 6.640549150838e-04 0.0 
6.640549150838e-04 -1.717379516229e-03 0.0 
0.0 0.0 0.0 
-1.600866503268e-03 3.500363078016e-03 0.0 
3.500363078016e-03 3.187637976918e-03 0.0 
0.0 0.0 0.0 
-1.848613729639e-03 3.500470945127e-03 0.0 
3.500470945127e-03 3.340733717892e-03 0.0 
0.0 0.0 0.0 
-1.285242291500e-03 3.698105612463e-03 0.0 
3.698105612463e-03 2.909687990930e-03 0.0 
0.0 0.0 0.0 
2.836506042356e-03 1.314346650748e-05 0.0 
1.314346650748e-05 -2.510948259860e-03 0.0 
0.0 0.0 0.0 
2.633378168626e-03 4.141097418390e-03 0.0 
4.141097418390e-03 -1.834842520414e-03 0.0 
0.0 0.0 0.0 
1.012213937450e-03 1.601701762380e-03 0.0 
1.601701762380e-03 -5.489640290841e-04 0.0 
0.0 0.0 0.0 
1.329332727318e-03 1.841097970301e-03 0.0 
1.841097970301e-03 -8.188631153489e-04 0.0 
0.0 0.0 0.0 
6.831090363255e-04 1.360210944338e-03 0.0 
1.360210944338e-03 -2.108777698696e-04 0.0 
0.0 0.0 0.0 
2.126624809015e-03 3.922029009339e-03 0.0 
3.922029009339e-03 -1.379681603849e-03 0.0 
0.0 0.0 0.0 
1.521157809234e-03 3.837734099522e-03 0.0 
3.837734099522e-03 -8.021039995207e-04 0.0 
0.0 0.0 0.0 
1.444991238077e-03 4.361459935749e-03 0.0 
4.361459935749e-03 -6.418645933061e-04 0.0 
0.0 0.0 0.0 
2.381664289308e-03 -3.481372807309e-04 0.0 
-3.481372807309e-04 -1.476969845618e-03 0.0 
0.0 0.0 0.0 
-1.129910176733e-03 2.270287182472e-04 0.0 
2.270287182472e-04 2.835972369646e-03 0.0 
0.0 0.0 0.0 
-3.236326673157e-03 4.496391540290e-04 0.0 
4.496391540290e-04 5.305998676101e-03 0.0 
0.0 0.0 0.0 
2.049742943876e-03 -3.552169495479e-04 0.0 
-3.552169495479e-04 -1.206242731217e-03 0.0 
0.0 0.0 0.0 
-3.265091358524e-03 3.303810732270e-04 0.0 
3.303810732270e-04 5.470735119451e-03 0.0 
0.0 0.0 0.0 
-3.020149425644e-03 3.309604725475e-04 0.0 
3.309604725475e-04 5.002104807481e-03 0.0 
0.0 0.0 0.0 
-3.280204415303e-03 2.166034094763e-04 0.0 
2.166034094763e-04 5.727406842412e-03 0.0 
0.0 0.0 0.0 
3.184195035425e-03 8.957527742176e-06 0.0 
8.957527742176e-06 -2.667342151120e-03 0.0 
0.0 0.0 0.0 
-4.041216796886e-03 9.524668242581e-04 0.0 
9.524668242581e-04 6.518144404182e-03 0.0 
0.0 0.0 0.0 
-4.102649057879e-03 1.399920172955e-03 0.0 
1.399920172955e-03 6.320502337660e-03 0.0 
0.0 0.0 0.0 
3.305680601257e-03 -1.851691149016e-04 0.0 
-1.851691149016e-04 -1.999179951301e-03 0.0 
0.0 0.0 0.0 
-1.333796250994e-03 2.479053691001e-03 0.0 
2.479053691001e-03 3.123953341244e-03 0.0 
0.0 0.0 0.0 
3.553321915353e-03 -5.859489132949e-05 0.0 
-5.859489132949e-05 -2.146247183753e-03 0.0 
0.0 0.0 0.0 
3.592506385016e-03 -2.207556294130e-05 0.0 
-2.207556294130e-05 -2.336699242955e-03 0.0 
0.0 0.0 0.0 
5.442010628921e-04 7.684248732599e-04 0.0 
7.684248732599e-04 -1.181267946674e-04 0.0 
0.0 0.0 0.0 
6.213052288523e-04 6.537952715190e-04 0.0 
6.537952715190e-04 -2.200422284810e-04 0.0 
0.0 0.0 0.0 
3.756524685359e-04 6.466820420725e-04 0.0 
6.466820420725e-04 3.960668288379e-05 0.0 
0.0 0.0 0.0 
4.509690526697e-04 5.641009067040e-04 0.0 
5.641009067040e-04 -6.045609662266e-05 0.0 
0.0 0.0 0.0 
6.905119585336e-04 5.593577008375e-04 0.0 
5.593577008375e-04 -3.075548029866e-04 0.0 
0.0 0.0 0.0 
5.237443195215e-04 4.786822163998e-04 0.0 
4.786822163998e-04 -1.381781394714e-04 0.0 
0.0 0.0 0.0 
-3.532152242152e-03 4.534641799582e-04 0.0 
4.534641799582e-04 5.875144502627e-03 0.0 
0.0 0.0 0.0 
3.019313573219e-04 4.842968855975e-04 0.0 
4.842968855975e-04 1.072095245885e-04 0.0 
0.0 0.0 0.0 
3.824331406673e-04 3.952331816590e-04 0.0 
3.952331816590e-04 7.881384241311e-06 0.0 
0.0 0.0 0.0 
2.096345700169e-04 3.959948044573e-04 0.0 
3.959948044573e-04 2.174715055273e-04 0.0 
0.0 0.0 0.0 
-2.501818200172e-04 5.791962158466e-03 0.0 
5.791962158466e-03 3.317918740667e-03 0.0 
0.0 0.0 0.0 
2.554161867164e-03 3.497448819759e-03 0.0 
3.497448819759e-03 -1.096904838810e-03 0.0 
0.0 0.0 0.0 
1.888421167347e-03 3.320922536677e-03 0.0 
3.320922536677e-03 -3.665550840941e-04 0.0 
0.0 0.0 0.0 
1.191124965263e-03 2.521516652581e-03 0.0 
2.521516652581e-03 1.840293415811e-04 0.0 
0.0 0.0 0.0 
6.286410668485e-04 5.470263983944e-03 0.0 
5.470263983944e-03 5.217094227142e-04 0.0 
0.0 0.0 0.0 
4.479212536334e-04 5.353812773702e-03 0.0 
5.353812773702e-03 7.369223635995e-04 0.0 
0.0 0.0 0.0 
5.040627763909e-04 8.987472173210e-05 0.0 
8.987472173210e-05 -1.590125185787e-04 0.0 
0.0 0.0 0.0 
6.297980764778e-04 8.016737917751e-05 0.0 
8.016737917751e-05 -3.043723219620e-04 0.0 
0.0 0.0 0.0 
-3.043395519508e-03 1.958133890401e-04 0.0 
1.958133890401e-04 5.159507690896e-03 0.0 
0.0 0.0 0.0 
-2.976114012356e-03 1.648450315920e-04 0.0 
1.648450315920e-04 5.097730682673e-03 0.0 
0.0 0.0 0.0 
-2.744292435532e-03 2.067379461718e-04 0.0 
2.067379461718e-04 4.623061561178e-03 0.0 
0.0 0.0 0.0 
-2.724018669280e-03 1.753253805007e-04 0.0 
1.753253805007e-04 4.641334174556e-03 0.0 
0.0 0.0 0.0 
-2.467501403234e-03 2.051713868871e-04 0.0 
2.051713868871e-04 4.266690953534e-03 0.0 
0.0 0.0 0.0 
-2.466546015909e-03 1.637735970117e-04 0.0 
1.637735970117e-04 4.264814710665e-03 0.0 
0.0 0.0 0.0 
-2.208440313975e-03 1.945910799567e-04 0.0 
1.945910799567e-04 3.970827005404e-03 0.0 
0.0 0.0 0.0 
1.097217938553e-03 4.633194609029e-03 0.0 
4.633194609029e-03 -2.182480022165e-04 0.0 
0.0 0.0 0.0 
1.527925528810e-03 1.771130785334e-03 0.0 
1.771130785334e-03 -4.774274196977e-04 0.0 
0.0 0.0 0.0 
-1.680781066637e-03 6.534704861674e-03 0.0 
6.534704861674e-03 5.257905512756e-03 0.0 
0.0 0.0 0.0 
1.314982296252e-03 2.942577698706e-03 0.0 
2.942577698706e-03 -6.868516859297e-04 0.0 
0.0 0.0 0.0 
1.570950117266e-03 2.765967060978e-03 0.0 
2.765967060978e-03 -9.672454911730e-04 0.0 
0.0 0.0 0.0 
6.506906460223e-04 5.279999094782e-03 0.0 
5.279999094782e-03 1.668152712797e-03 0.0 
0.0 0.0 0.0 
5.569029680893e-04 4.675571501024e-03 0.0 
4.675571501024e-03 1.889176991882e-03 0.0 
0.0 0.0 0.0 
5.616691534559e-04 1.010737829403e-03 0.0 
1.010737829403e-03 -1.227528855850e-04 0.0 
0.0 0.0 0.0 
3.579321666843e-03 3.017944120209e-03 0.0 
3.017944120209e-03 -2.579673536517e-03 0.0 
0.0 0.0 0.0 
-8.512435820174e-04 3.473651886035e-03 0.0 
3.473651886035e-03 2.619519252807e-03 0.0 
0.0 0.0 0.0 
8.384237917750e-04 -1.292555048912e-04 0.0 
-1.292555048912e-04 -4.110493686225e-04 0.0 
0.0 0.0 0.0 
1.931571454333e-03 -2.037525803404e-04 0.0 
-2.037525803404e-04 -1.172760702821e-03 0.0 
0.0 0.0 0.0 
3.243084361838e-03 3.452679134563e-03 0.0 
3.452679134563e-03 -2.212341470652e-03 0.0 
0.0 0.0 0.0 
4.715618514448e-04 5.521712979015e-03 0.0 
5.521712979015e-03 1.588468349330e-03 0.0 
0.0 0.0 0.0 
2.234660322741e-03 3.939050570857e-03 0.0 
3.939050570857e-03 -6.789981358063e-04 0.0 
0.0 0.0 0.0 
1.681663953468e-03 3.884560604518e-03 0.0 
3.884560604518e-03 3.972466762007e-05 0.0 
0.0 0.0 0.0 
2.421101345997e-03 1.624179779269e-03 0.0 
1.624179779269e-03 -1.958758726335e-03 0.0 
0.0 0.0 0.0 
3.275453467777e-03 -2.835899962168e-04 0.0 
-2.835899962168e-04 -2.259157252691e-03 0.0 
0.0 0.0 0.0 
2.606571009521e-03 1.571706671897e-03 0.0 
1.571706671897e-03 -1.506895161318e-03 0.0 
0.0 0.0 0.0 
-2.261257080333e-03 2.748776337750e-04 0.0 
2.748776337750e-04 4.005592284808e-03 0.0 
0.0 0.0 0.0 
1.759350179726e-03 1.076764472880e-03 0.0 
1.076764472880e-03 -8.842533736018e-04 0.0 
0.0 0.0 0.0 
5.431824664502e-04 4.292456019942e-05 0.0 
4.292456019942e-05 -2.108329151981e-04 0.0 
0.0 0.0 0.0 
3.755497501143e-03 2.722319110977e-03 0.0 
2.722319110977e-03 -2.919130799301e-03 0.0 
0.0 0.0 0.0 
1.095788263887e-03 4.967349938206e-03 0.0 
4.967349938206e-03 2.875209915757e-04 0.0 
0.0 0.0 0.0 
3.229541302489e-03 2.068761178973e-03 0.0 
2.068761178973e-03 -2.005306213014e-03 0.0 
0.0 0.0 0.0 
3.024774169182e-03 3.460363231699e-03 0.0 
3.460363231699e-03 -1.712537325194e-03 0.0 
0.0 0.0 0.0 
-2.097801552617e-03 4.730565926245e-03 0.0 
4.730565926245e-03 3.746797696420e-03 0.0 
0.0 0.0 0.0 
-3.179265417112e-03 4.834225044558e-03 0.0 
4.834225044558e-03 5.581309102548e-03 0.0 
0.0 0.0 0.0 
-2.837931206154e-03 5.481337034618e-03 0.0 
5.481337034618e-03 5.418190732899e-03 0.0 
0.0 0.0 0.0 
3.936865918154e-03 2.434273429802e-03 0.0 
2.434273429802e-03 -3.220656533398e-03 0.0 
0.0 0.0 0.0 
1.407653955549e-03 4.353110001058e-03 0.0 
4.353110001058e-03 5.081573239132e-04 0.0 
0.0 0.0 0.0 
9.483548758191e-04 3.507008722379e-03 0.0 
3.507008722379e-03 9.255168610963e-04 0.0 
0.0 0.0 0.0 
-6.741834547259e-04 5.079951790489e-03 0.0 
5.079951790489e-03 2.139800856666e-03 0.0 
0.0 0.0 0.0 
-2.376089807772e-03 3.026037782840e-03 0.0 
3.026037782840e-03 3.853982039702e-03 0.0 
0.0 0.0 0.0 
-1.961284388646e-03 3.463228481644e-03 0.0 
3.463228481644e-03 3.434653718171e-03 0.0 
0.0 0.0 0.0 
-1.369838279013e-03 4.051624313999e-03 0.0 
4.051624313999e-03 2.871861946739e-03 0.0 
0.0 0.0 0.0 
-1.479463337163e-03 4.025775107460e-03 0.0 
4.025775107460e-03 2.922476956005e-03 0.0 
0.0 0.0 0.0 
-2.051693034178e-03 3.568805344328e-03 0.0 
3.568805344328e-03 3.452794164520e-03 0.0 
0.0 0.0 0.0 
-1.558091474935e-03 4.028406629126e-03 0.0 
4.028406629126e-03 2.952801850906e-03 0.0 
0.0 0.0 0.0 
-9.541366308727e-04 4.582442795532e-03 0.0 
4.582442795532e-03 2.397758801347e-03 0.0 
0.0 0.0 0.0 
-9.911299276022e-04 4.512835557186e-03 0.0 
4.512835557186e-03 2.346228597598e-03 0.0 
0.0 0.0 0.0 
-3.792345881121e-04 5.223732917700e-03 0.0 
5.223732917700e-03 1.766740358637e-03 0.0 
0.0 0.0 0.0 
-3.770396785984e-04 5.009770868148e-03 0.0 
5.009770868148e-03 1.702820051183e-03 0.0 
0.0 0.0 0.0 
-9.254753815714e-04 4.485573800922e-03 0.0 
4.485573800922e-03 2.241852925047e-03 0.0 
0.0 0.0 0.0 
-3.247378785935e-04 4.819238930347e-03 0.0 
4.819238930347e-03 1.602801957861e-03 0.0 
0.0 0.0 0.0 
5.065745315167e-05 5.291686860254e-03 0.0 
5.291686860254e-03 1.220903941134e-03 0.0 
0.0 0.0 0.0 
-8.540407947840e-04 4.444190965222e-03 0.0 
4.444190965222e-03 2.117356570759e-03 0.0 
0.0 0.0 0.0 
9.786955232242e-04 3.167387054866e-03 0.0 
3.167387054866e-03 -3.508909898086e-04 0.0 
0.0 0.0 0.0 
3.078503999416e-03 3.542796934845e-03 0.0 
3.542796934845e-03 -2.179348060374e-03 0.0 
0.0 0.0 0.0 
2.627932891513e-03 -2.179294779156e-04 0.0 
-2.179294779156e-04 -1.739824488204e-03 0.0 
0.0 0.0 0.0 
2.241005076320e-03 2.301116268973e-05 0.0 
2.301116268973e-05 -1.405826995725e-03 0.0 
0.0 0.0 0.0 
5.231978612097e-04 5.112190689355e-03 0.0 
5.112190689355e-03 9.010417992409e-04 0.0 
0.0 0.0 0.0 
-9.915187263521e-05 5.859858402440e-03 0.0 
5.859858402440e-03 1.577667362713e-03 0.0 
0.0 0.0 0.0 
-4.453836324808e-04 5.420253328443e-03 0.0 
5.420253328443e-03 2.005054663044e-03 0.0 
0.0 0.0 0.0 
4.027224848236e-03 2.047369879490e-03 0.0 
2.047369879490e-03 -3.093019589581e-03 0.0 
0.0 0.0 0.0 
4.067387011673e-04 5.567792503492e-03 0.0 
5.567792503492e-03 7.051228353413e-04 0.0 
0.0 0.0 0.0 
-2.211813126979e-03 5.291489802633e-03 0.0 
5.291489802633e-03 4.287781284056e-03 0.0 
0.0 0.0 0.0 
3.917729758040e-03 7.529878737954e-04 0.0 
7.529878737954e-04 -2.968443808854e-03 0.0 
0.0 0.0 0.0 
5.204595324598e-04 5.031301710583e-03 0.0 
5.031301710583e-03 4.461521869863e-04 0.0 
0.0 0.0 0.0 
-2.490683733294e-03 3.161129357907e-03 0.0 
3.161129357907e-03 3.933446894751e-03 0.0 
0.0 0.0 0.0 
-2.525442565308e-03 3.428410635859e-03 0.0 
3.428410635859e-03 3.919905146965e-03 0.0 
0.0 0.0 0.0 
-2.908549681494e-03 3.162212852061e-03 0.0 
3.162212852061e-03 4.394000748582e-03 0.0 
0.0 0.0 0.0 
-6.232495136020e-04 4.884083149374e-03 0.0 
4.884083149374e-03 2.277574723828e-03 0.0 
0.0 0.0 0.0 
-3.701030401650e-03 1.555093850336e-03 0.0 
1.555093850336e-03 5.563435591863e-03 0.0 
0.0 0.0 0.0 
5.689812367076e-04 3.769129576919e-03 0.0 
3.769129576919e-03 1.716332529436e-04 0.0 
0.0 0.0 0.0 
3.757212158465e-03 2.962377411651e-03 0.0 
2.962377411651e-03 -3.127640489770e-03 0.0 
0.0 0.0 0.0 
3.750169671946e-03 3.156623702879e-03 0.0 
3.156623702879e-03 -3.088036754107e-03 0.0 
0.0 0.0 0.0 
3.873034681488e-03 2.979051016938e-03 0.0 
2.979051016938e-03 -3.225225696946e-03 0.0 
0.0 0.0 0.0 
-1.536527157029e-03 4.054961591847e-03 0.0 
4.054961591847e-03 2.868505930143e-03 0.0 
0.0 0.0 0.0 
5.001904211195e-04 2.413184488380e-03 0.0 
2.413184488380e-03 4.199973753832e-05 0.0 
0.0 0.0 0.0 
9.295832624575e-04 2.342373687870e-03 0.0 
2.342373687870e-03 -3.697559808187e-04 0.0 
0.0 0.0 0.0 
8.842186044331e-04 2.095826280234e-03 0.0 
2.095826280234e-03 -3.534426316629e-04 0.0 
0.0 0.0 0.0 
1.371973487552e-03 2.287865198540e-03 0.0 
2.287865198540e-03 -8.188922263436e-04 0.0 
0.0 0.0 0.0 
4.293693583577e-04 1.852914199972e-03 0.0 
1.852914199972e-03 6.818643738645e-05 0.0 
0.0 0.0 0.0 
1.215292933937e-04 5.969864971557e-03 0.0 
5.969864971557e-03 1.209206425966e-03 0.0 
0.0 0.0 0.0 
2.151939740368e-04 5.909279266950e-03 0.0 
5.909279266950e-03 1.050198408535e-03 0.0 
0.0 0.0 0.0 
4.229357006158e-03 4.325719696901e-06 0.0 
4.325719696901e-06 -3.735345681146e-03 0.0 
0.0 0.0 0.0 
4.366139296999e-03 2.418819648130e-04 0.0 
2.418819648130e-04 -3.877144987032e-03 0.0 
0.0 0.0 0.0 
4.435643679042e-03 4.750629671669e-04 0.0 
4.750629671669e-04 -3.997525975325e-03 0.0 
0.0 0.0 0.0 
4.457674484635e-03 5.238891214012e-04 0.0 
5.238891214012e-04 -3.958970001193e-03 0.0 
0.0 0.0 0.0 
4.319278510786e-03 2.832584341171e-04 0.0 
2.832584341171e-04 -3.760036285092e-03 0.0 
0.0 0.0 0.0 
4.395554957563e-03 5.834191343704e-04 0.0 
5.834191343704e-04 -3.836674229734e-03 0.0 
0.0 0.0 0.0 
4.505396234658e-03 8.382630573970e-04 0.0 
8.382630573970e-04 -3.996058827322e-03 0.0 
0.0 0.0 0.0 
4.298266037564e-03 6.863704404104e-04 0.0 
6.863704404104e-04 -3.659374667206e-03 0.0 
0.0 0.0 0.0 
2.720284249933e-04 5.021081040936e-03 0.0 
5.021081040936e-03 9.007248624682e-04 0.0 
0.0 0.0 0.0 
3.234946266576e-04 1.390763595621e-03 0.0 
1.390763595621e-03 1.369195590853e-04 0.0 
0.0 0.0 0.0 
2.569109056149e-03 9.662234916400e-04 0.0 
9.662234916400e-04 -2.177136241372e-03 0.0 
0.0 0.0 0.0 
2.957392429011e-03 1.084773127105e-03 0.0 
1.084773127105e-03 -2.552249279698e-03 0.0 
0.0 0.0 0.0 
3.334549199236e-03 9.633911344105e-04 0.0 
9.633911344105e-04 -2.941991501893e-03 0.0 
0.0 0.0 0.0 
2.305708236555e-03 1.245553609178e-04 0.0 
1.245553609178e-04 -2.019165046812e-03 0.0 
0.0 0.0 0.0 
2.376615498098e-03 2.061319431276e-04 0.0 
2.061319431276e-04 -2.076950611921e-03 0.0 
0.0 0.0 0.0 
2.110575028644e-03 2.752813976456e-04 0.0 
2.752813976456e-04 -1.799878661256e-03 0.0 
0.0 0.0 0.0 
2.242352745606e-03 6.706229243965e-05 0.0 
6.706229243965e-05 -1.966648310113e-03 0.0 
0.0 0.0 0.0 
2.235903126593e-03 4.388756497167e-03 0.0 
4.388756497167e-03 -1.351750233448e-03 0.0 
0.0 0.0 0.0 
2.950590054714e-04 1.206657365111e-03 0.0 
1.206657365111e-03 1.540301785173e-04 0.0 
0.0 0.0 0.0 
3.629579916551e-03 1.922557154061e-03 0.0 
1.922557154061e-03 -3.132464359602e-03 0.0 
0.0 0.0 0.0 
2.709459543626e-03 2.218940427308e-04 0.0 
2.218940427308e-04 -2.406659095540e-03 0.0 
0.0 0.0 0.0 
-5.153671300107e-03 1.372772831248e-03 0.0 
1.372772831248e-03 8.769461143888e-03 0.0 
0.0 0.0 0.0 
-4.881740342317e-03 2.385468525016e-03 0.0 
2.385468525016e-03 7.823216891397e-03 0.0 
0.0 0.0 0.0 
-4.850998664881e-03 3.204516696375e-03 0.0 
3.204516696375e-03 7.681865193711e-03 0.0 
0.0 0.0 0.0 
-4.255231602857e-03 2.869388337438e-03 0.0 
2.869388337438e-03 6.439868589359e-03 0.0 
0.0 0.0 0.0 
-4.573879758137e-03 1.647735369898e-03 0.0 
1.647735369898e-03 7.262299169781e-03 0.0 
0.0 0.0 0.0 
1.474485506112e-03 1.312052611736e-04 0.0 
1.312052611736e-04 -1.179392882488e-03 0.0 
0.0 0.0 0.0 
1.249647648275e-03 1.131671471801e-04 0.0 
1.131671471801e-04 -9.549211248998e-04 0.0 
0.0 0.0 0.0 
1.249934472897e-03 7.761564779152e-05 0.0 
7.761564779152e-05 -9.625975287737e-04 0.0 
0.0 0.0 0.0 
1.066659497383e-03 9.221111739389e-05 0.0 
9.221111739389e-05 -7.705593611829e-04 0.0 
0.0 0.0 0.0 
1.093103406375e-03 5.741215061777e-05 0.0 
5.741215061777e-05 -8.086332559865e-04 0.0 
0.0 0.0 0.0 
1.272476252852e-03 4.602971062578e-05 0.0 
4.602971062578e-05 -9.972943143307e-04 0.0 
0.0 0.0 0.0 
9.216417768947e-04 6.257388442132e-05 0.0 
6.257388442132e-05 -6.261606035039e-04 0.0 
0.0 0.0 0.0 
9.816529425359e-04 3.146563137408e-05 0.0 
3.146563137408e-05 -6.912793507467e-04 0.0 
0.0 0.0 0.0 
-4.417790806829e-03 6.062815395734e-04 0.0 
6.062815395734e-04 7.574436700179e-03 0.0 
0.0 0.0 0.0 
2.142060156102e-03 -2.393798444447e-04 0.0 
-2.393798444447e-04 -1.089803604039e-03 0.0 
0.0 0.0 0.0 
2.634729043328e-03 -4.025477763270e-04 0.0 
-4.025477763270e-04 -1.605774520174e-03 0.0 
0.0 0.0 0.0 
2.704629742593e-03 -3.672437128153e-04 0.0 
-3.672437128153e-04 -1.639887354991e-03 0.0 
0.0 0.0 0.0 
2.988667770618e-03 -4.753321053365e-04 0.0 
-4.753321053365e-04 -2.072225183867e-03 0.0 
0.0 0.0 0.0 
3.013801577530e-03 -4.519972388626e-04 0.0 
-4.519972388626e-04 -2.101155380732e-03 0.0 
0.0 0.0 0.0 
3.349310130316e-03 -4.403377681951e-04 0.0 
-4.403377681951e-04 -2.566635661650e-03 0.0 
0.0 0.0 0.0 
3.316315095739e-03 -3.973007099234e-04 0.0 
-3.973007099234e-04 -2.511636857719e-03 0.0 
0.0 0.0 0.0 
2.543450966456e-03 -4.036460265857e-04 0.0 
-4.036460265857e-04 -1.556912948855e-03 0.0 
0.0 0.0 0.0 
2.486360101821e-03 -1.925288240932e-04 0.0 
-1.925288240932e-04 -1.245127644054e-03 0.0 
0.0 0.0 0.0 
2.839557700544e-03 -3.319895894313e-04 0.0 
-3.319895894313e-04 -1.706156576020e-03 0.0 
0.0 0.0 0.0 
2.703548152373e-03 -1.663811792183e-04 0.0 
-1.663811792183e-04 -1.342130260643e-03 0.0 
0.0 0.0 0.0 
2.978904039390e-03 -3.010122058505e-04 0.0 
-3.010122058505e-04 -1.769920157512e-03 0.0 
0.0 0.0 0.0 
3.164639168968e-03 -4.057230539735e-04 0.0 
-4.057230539735e-04 -2.214726334254e-03 0.0 
0.0 0.0 0.0 
3.427574367994e-03 -2.153734671529e-04 0.0 
-2.153734671529e-04 -2.762062962692e-03 0.0 
0.0 0.0 0.0 
1.253382225504e-04 2.142957405033e-04 0.0 
2.142957405033e-04 2.899608177500e-04 0.0 
0.0 0.0 0.0 
1.494153825928e-03 1.169962851594e-05 0.0 
1.169962851594e-05 -1.236947888929e-03 0.0 
0.0 0.0 0.0 
1.631717212548e-03 2.003985230300e-05 0.0 
2.003985230300e-05 -1.364952209577e-03 0.0 
0.0 0.0 0.0 
1.894202284844e-03 3.078104784082e-05 0.0 
3.078104784082e-05 -1.645049207589e-03 0.0 
0.0 0.0 0.0 
1.837748316784e-03 2.519951253692e-05 0.0 
2.519951253692e-05 -1.581674130737e-03 0.0 
0.0 0.0 0.0 
1.423489618724e-03 2.349659258679e-05 0.0 
2.349659258679e-05 -1.165424765002e-03 0.0 
0.0 0.0 0.0 
2.011856845607e-03 2.090898960723e-05 0.0 
2.090898960723e-05 -1.767098249302e-03 0.0 
0.0 0.0 0.0 
2.171727137365e-03 2.729443236516e-05 0.0 
2.729443236516e-05 -1.915345718964e-03 0.0 
0.0 0.0 0.0 
4.388619926070e-03 -1.151381263242e-05 0.0 
-1.151381263242e-05 -2.086184113759e-03 0.0 
0.0 0.0 0.0 
4.091588260141e-03 -2.233878586822e-05 0.0 
-2.233878586822e-05 -2.316329731864e-03 0.0 
0.0 0.0 0.0 
4.146500727758e-03 -3.642944382387e-05 0.0 
-3.642944382387e-05 -2.306896673713e-03 0.0 
0.0 0.0 0.0 
3.787963839843e-03 -1.316514388282e-05 0.0 
-1.316514388282e-05 -2.547544341737e-03 0.0 
0.0 0.0 0.0 
3.755556008701e-03 1.701447063379e-05 0.0 
1.701447063379e-05 -2.511950563542e-03 0.0 
0.0 0.0 0.0 
4.037975676230e-03 5.963031672065e-06 0.0 
5.963031672065e-06 -2.295472124626e-03 0.0 
0.0 0.0 0.0 
4.013793790178e-03 1.874230924346e-05 0.0 
1.874230924346e-05 -2.284913531851e-03 0.0 
0.0 0.0 0.0 
4.261108071431e-03 6.952730679101e-06 0.0 
6.952730679101e-06 -2.028596520990e-03 0.0 
0.0 0.0 0.0 
3.947330824869e-03 2.260566071084e-05 0.0 
2.260566071084e-05 -2.250642103921e-03 0.0 
0.0 0.0 0.0 
3.694873344944e-03 1.956750026723e-05 0.0 
1.956750026723e-05 -2.491655759871e-03 0.0 
0.0 0.0 0.0 
4.133175741740e-03 -2.121976264389e-06 0.0 
-2.121976264389e-06 -1.961602185808e-03 0.0 
0.0 0.0 0.0 
-1.761139005467e-03 1.283250876770e-04 0.0 
1.283250876770e-04 3.502948040028e-03 0.0 
0.0 0.0 0.0 
-1.589551576442e-03 2.367477651891e-04 0.0 
2.367477651891e-04 3.340172323894e-03 0.0 
0.0 0.0 0.0 
2.484500840863e-04 8.930245644836e-04 0.0 
8.930245644836e-04 1.886559298809e-04 0.0 
0.0 0.0 0.0 
-3.838596286137e-03 4.092235327626e-04 0.0 
4.092235327626e-04 6.627198729661e-03 0.0 
0.0 0.0 0.0 
3.152701129367e-03 -9.406745657211e-05 0.0 
-9.406745657211e-05 -1.548318211727e-03 0.0 
0.0 0.0 0.0 
-6.793583587096e-04 1.148368406835e-03 0.0 
1.148368406835e-03 2.528368692342e-03 0.0 
0.0 0.0 0.0 
-7.565823708834e-04 2.288034036401e-03 0.0 
2.288034036401e-03 2.601056550582e-03 0.0 
0.0 0.0 0.0 
-6.757191884453e-04 1.944591925651e-03 0.0 
1.944591925651e-03 2.569252978654e-03 0.0 
0.0 0.0 0.0 
3.053636489668e-04 4.996710401107e-05 0.0 
4.996710401107e-05 7.058497008150e-05 0.0 
0.0 0.0 0.0 
2.536914742507e-04 9.901118084225e-05 0.0 
9.901118084225e-05 1.354442429920e-04 0.0 
0.0 0.0 0.0 
-6.031834415547e-04 6.213248508798e-04 0.0 
6.213248508798e-04 2.451163424993e-03 0.0 
0.0 0.0 0.0 
3.173261637769e-03 -9.444195317023e-05 0.0 
-9.444195317023e-05 -2.877642230244e-03 0.0 
0.0 0.0 0.0 
-9.521859566314e-04 4.702164036913e-03 0.0 
4.702164036913e-03 2.395037233610e-03 0.0 
0.0 0.0 0.0 
-1.538593459531e-03 7.318102024979e-04 0.0 
7.318102024979e-04 3.243744202080e-03 0.0 
0.0 0.0 0.0 
3.712754882302e-03 9.110760762134e-04 0.0 
9.110760762134e-04 -2.664697910694e-03 0.0 
0.0 0.0 0.0 
3.708204578150e-03 -1.633878874632e-04 0.0 
-1.633878874632e-04 -3.325519053972e-03 0.0 
0.0 0.0 0.0 
7.400032512033e-04 1.164602754857e-04 0.0 
1.164602754857e-04 -4.154981064875e-04 0.0 
0.0 0.0 0.0 
1.535784796910e-03 3.842211012647e-04 0.0 
3.842211012647e-04 -1.202963963519e-03 0.0 
0.0 0.0 0.0 
5.056225539358e-04 2.507650556628e-04 0.0 
2.507650556628e-04 -1.442703066498e-04 0.0 
0.0 0.0 0.0 
1.051441072838e-03 1.960176270718e-04 0.0 
1.960176270718e-04 -7.328185845801e-04 0.0 
0.0 0.0 0.0 
7.879943761703e-04 3.748696052480e-04 0.0 
3.748696052480e-04 -4.302003381521e-04 0.0 
0.0 0.0 0.0 
8.379176519485e-04 1.814110870877e-03 0.0 
1.814110870877e-03 -3.364380921456e-04 0.0 
0.0 0.0 0.0 
3.293492566648e-03 2.224077387172e-05 0.0 
2.224077387172e-05 -2.677525122656e-03 0.0 
0.0 0.0 0.0 
-3.006526960138e-03 7.508434579084e-04 0.0 
7.508434579084e-04 4.766269017633e-03 0.0 
0.0 0.0 0.0 
-2.747726977623e-03 4.286506695081e-04 0.0 
4.286506695081e-04 4.544910741328e-03 0.0 
0.0 0.0 0.0 
-2.124979130162e-03 6.958867167322e-04 0.0 
6.958867167322e-04 3.802267330450e-03 0.0 
0.0 0.0 0.0 
2.666605382906e-03 -1.112541705738e-05 0.0 
-1.112541705738e-05 -2.415055970746e-03 0.0 
0.0 0.0 0.0 
1.442187913696e-03 5.095628969444e-05 0.0 
5.095628969444e-05 -1.160904469746e-03 0.0 
0.0 0.0 0.0 
3.257709662634e-03 -6.109549719636e-05 0.0 
-6.109549719636e-05 -2.695747264804e-03 0.0 
0.0 0.0 0.0 
8.803607447342e-04 5.148185759705e-03 0.0 
5.148185759705e-03 1.360047055831e-04 0.0 
0.0 0.0 0.0 
-4.563318592349e-04 5.471959561898e-03 0.0 
5.471959561898e-03 2.228709407210e-03 0.0 
0.0 0.0 0.0 
3.296012172312e-03 7.398712465710e-04 0.0 
7.398712465710e-04 -2.927809516625e-03 0.0 
0.0 0.0 0.0 
2.536375311484e-03 6.223701747598e-05 0.0 
6.223701747598e-05 -2.260346324286e-03 0.0 
0.0 0.0 0.0 
3.283803367749e-03 -7.243852576001e-05 0.0 
-7.243852576001e-05 -2.998510102372e-03 0.0 
0.0 0.0 0.0 
3.827767949661e-03 -2.147304251838e-04 0.0 
-2.147304251838e-04 -3.370823713688e-03 0.0 
0.0 0.0 0.0 
2.658790753255e-03 3.882017238464e-03 0.0 
3.882017238464e-03 -1.725579241132e-03 0.0 
0.0 0.0 0.0 
2.792498115158e-03 3.432014808495e-04 0.0 
3.432014808495e-04 -2.473459876337e-03 0.0 
0.0 0.0 0.0 
1.488703701473e-03 7.744820466964e-04 0.0 
7.744820466964e-04 -1.108165721385e-03 0.0 
0.0 0.0 0.0 
-1.859107002143e-03 6.621478248714e-04 0.0 
6.621478248714e-04 3.536317516538e-03 0.0 
0.0 0.0 0.0 
3.619781827779e-03 -4.683648986719e-05 0.0 
-4.683648986719e-05 -1.794940600470e-03 0.0 
0.0 0.0 0.0 
1.438807627354e-03 9.230687114665e-04 0.0 
9.230687114665e-04 -1.043212567512e-03 0.0 
0.0 0.0 0.0 
2.183985660433e-03 5.227778738065e-04 0.0 
5.227778738065e-04 -1.841915499623e-03 0.0 
0.0 0.0 0.0 
-3.366864353953e-03 1.383928947351e-03 0.0 
1.383928947351e-03 5.092852022653e-03 0.0 
0.0 0.0 0.0 
2.656002297817e-03 2.833461711910e-03 0.0 
2.833461711910e-03 -2.053886372707e-03 0.0 
0.0 0.0 0.0 
3.517544750111e-03 -4.083511878663e-04 0.0 
-4.083511878663e-04 -2.822345264670e-03 0.0 
0.0 0.0 0.0 
-2.389685489580e-03 1.204770790388e-03 0.0 
1.204770790388e-03 4.053644188281e-03 0.0 
0.0 0.0 0.0 
-1.694275774008e-03 2.816708351835e-03 0.0 
2.816708351835e-03 3.352942081420e-03 0.0 
0.0 0.0 0.0 
-4.085477765150e-03 1.884982503804e-03 0.0 
1.884982503804e-03 6.209011319680e-03 0.0 
0.0 0.0 0.0 
3.440021626911e-03 -5.399018227488e-05 0.0 
-5.399018227488e-05 -2.578780747062e-03 0.0 
0.0 0.0 0.0 
-3.227391937058e-03 5.950725913090e-04 0.0 
5.950725913090e-04 5.172090349194e-03 0.0 
0.0 0.0 0.0 
8.367435536762e-04 1.200442159134e-03 0.0 
1.200442159134e-03 -4.110354662587e-04 0.0 
0.0 0.0 0.0 
-2.691758084885e-03 2.678289851171e-03 0.0 
2.678289851171e-03 4.211050750545e-03 0.0 
0.0 0.0 0.0 
2.698710997239e-03 1.414777291337e-06 0.0 
1.414777291337e-06 -2.438248208710e-03 0.0 
0.0 0.0 0.0 
4.232957052199e-03 1.920923976705e-03 0.0 
1.920923976705e-03 -3.725097447063e-03 0.0 
0.0 0.0 0.0 
1.397181798661e-03 4.664309435589e-03 0.0 
4.664309435589e-03 -2.357009112463e-04 0.0 
0.0 0.0 0.0 
-3.520371948570e-03 7.099687674430e-03 0.0 
7.099687674430e-03 8.468324752347e-03 0.0 
0.0 0.0 0.0 
-1.442218496999e-03 9.488269235818e-04 0.0 
9.488269235818e-04 3.175336685953e-03 0.0 
0.0 0.0 0.0 
3.293247180706e-03 3.495823318227e-03 0.0 
3.495823318227e-03 -2.561438744127e-03 0.0 
0.0 0.0 0.0 
1.996719347518e-03 2.342044252734e-03 0.0 
2.342044252734e-03 -1.456230766920e-03 0.0 
0.0 0.0 0.0 
3.525106526167e-03 2.230786500317e-03 0.0 
2.230786500317e-03 -2.992569107117e-03 0.0 
0.0 0.0 0.0 
2.513542487482e-03 -3.549846932937e-06 0.0 
-3.549846932937e-06 -2.266360041055e-03 0.0 
0.0 0.0 0.0 
8.846522347198e-04 6.583035381449e-04 0.0 
6.583035381449e-04 -4.990643486082e-04 0.0 
0.0 0.0 0.0 
4.117511012404e-03 2.605380734510e-03 0.0 
2.605380734510e-03 -3.516061214630e-03 0.0 
0.0 0.0 0.0 
-2.043528016372e-03 1.404826496824e-03 0.0 
1.404826496824e-03 3.695788483130e-03 0.0 
0.0 0.0 0.0 
1.078239777563e-03 4.685855437163e-03 0.0 
4.685855437163e-03 -5.538734542632e-05 0.0 
0.0 0.0 0.0 
4.453952957233e-03 1.585626479310e-03 0.0 
1.585626479310e-03 -3.901722159317e-03 0.0 
0.0 0.0 0.0 
-2.593977855053e-03 2.003490312534e-03 0.0 
2.003490312534e-03 4.187508548111e-03 0.0 
0.0 0.0 0.0 
3.704971722408e-03 1.056800553279e-03 0.0 
1.056800553279e-03 -3.299829137565e-03 0.0 
0.0 0.0 0.0 
2.395478704800e-03 3.114772377411e-03 0.0 
3.114772377411e-03 -1.751925249900e-03 0.0 
0.0 0.0 0.0 
1.901878464205e-04 5.430278273266e-03 0.0 
5.430278273266e-03 1.547556768707e-03 0.0 
0.0 0.0 0.0 
6.903494453750e-04 4.503122352432e-03 0.0 
4.503122352432e-03 3.510017375841e-04 0.0 
0.0 0.0 0.0 
-1.009491991676e-03 4.360507279798e-03 0.0 
4.360507279798e-03 2.231517453526e-03 0.0 
0.0 0.0 0.0 
2.083511051690e-03 4.156754106802e-03 0.0 
4.156754106802e-03 -1.202005994295e-03 0.0 
0.0 0.0 0.0 
7.674781715922e-04 7.005613251427e-05 0.0 
7.005613251427e-05 -4.564416485822e-04 0.0 
0.0 0.0 0.0 
1.139283854211e-03 7.907078622190e-04 0.0 
7.907078622190e-04 -7.496763799936e-04 0.0 
0.0 0.0 0.0 
3.740017489794e-03 -9.467621425841e-05 0.0 
-9.467621425841e-05 -2.934065886191e-03 0.0 
0.0 0.0 0.0 
3.000460899726e-03 3.719490127790e-03 0.0 
3.719490127790e-03 -1.799259209125e-03 0.0 
0.0 0.0 0.0 
-3.644631216934e-03 1.989570057838e-03 0.0 
1.989570057838e-03 5.395830590601e-03 0.0 
0.0 0.0 0.0 
1.616817418995e-03 4.788064441635e-03 0.0 
4.788064441635e-03 -7.045890724999e-04 0.0 
0.0 0.0 0.0 
-1.629291202002e-03 1.823574202993e-03 0.0 
1.823574202993e-03 3.339506249090e-03 0.0 
0.0 0.0 0.0 
1.647240876600e-03 4.750268112559e-03 0.0 
4.750268112559e-03 -3.090450167022e-04 0.0 
0.0 0.0 0.0 
9.459668075588e-04 5.515135362700e-04 0.0 
5.515135362700e-04 -5.760903518167e-04 0.0 
0.0 0.0 0.0 
-2.015734439023e-03 2.293388046014e-03 0.0 
2.293388046014e-03 3.668098038404e-03 0.0 
0.0 0.0 0.0 
2.443183688475e-03 3.121635020803e-04 0.0 
3.121635020803e-04 -2.128904093524e-03 0.0 
0.0 0.0 0.0 
3.034645415646e-03 7.416606155728e-06 0.0 
7.416606155728e-06 -2.601322530164e-03 0.0 
0.0 0.0 0.0 
3.211186026063e-03 5.803932400716e-04 0.0 
5.803932400716e-04 -2.189628374007e-03 0.0 
0.0 0.0 0.0 
4.318891716606e-03 1.090521171602e-03 0.0 
1.090521171602e-03 -3.666813056206e-03 0.0 
0.0 0.0 0.0 
3.621520907018e-03 3.160071684361e-03 0.0 
3.160071684361e-03 -2.934804345743e-03 0.0 
0.0 0.0 0.0 
2.153600438880e-03 3.884467757335e-04 0.0 
3.884467757335e-04 -1.828060690306e-03 0.0 
0.0 0.0 0.0 
-1.072696399559e-03 4.322973213323e-03 0.0 
4.322973213323e-03 2.634960463229e-03 0.0 
0.0 0.0 0.0 
7.462488689025e-04 4.668772854654e-04 0.0 
4.668772854654e-04 -3.743767897161e-04 0.0 
0.0 0.0 0.0 
2.032889739823e-03 1.425054403498e-03 0.0 
1.425054403498e-03 -1.588907638887e-03 0.0 
0.0 0.0 0.0 
8.347165004938e-04 4.346099605361e-04 0.0 
4.346099605361e-04 -3.149864547230e-04 0.0 
0.0 0.0 0.0 
-2.738888069697e-03 6.471161634658e-03 0.0 
6.471161634658e-03 6.432112332727e-03 0.0 
0.0 0.0 0.0 
5.791087523132e-04 3.898677566525e-04 0.0 
3.898677566525e-04 -2.063270678855e-04 0.0 
0.0 0.0 0.0 
4.005694557765e-03 1.772133253716e-03 0.0 
1.772133253716e-03 -3.520128053158e-03 0.0 
0.0 0.0 0.0 
2.121012853352e-03 2.827843529425e-03 0.0 
2.827843529425e-03 -1.521737043159e-03 0.0 
0.0 0.0 0.0 
1.152101736428e-03 1.951713581000e-05 0.0 
1.951713581000e-05 -8.731901307213e-04 0.0 
0.0 0.0 0.0 
9.841069141788e-04 4.924878115163e-03 0.0 
4.924878115163e-03 -2.601788539195e-05 0.0 
0.0 0.0 0.0 
2.170027612498e-04 5.238022696078e-03 0.0 
5.238022696078e-03 2.539956339598e-03 0.0 
0.0 0.0 0.0 
4.498789510975e-04 3.162430227676e-04 0.0 
3.162430227676e-04 -7.151944752365e-05 0.0 
0.0 0.0 0.0 
2.314057856197e-03 1.867351764640e-03 0.0 
1.867351764640e-03 -1.823193324514e-03 0.0 
0.0 0.0 0.0 
3.842903441047e-03 2.545609154131e-03 0.0 
2.545609154131e-03 -2.876341291118e-03 0.0 
0.0 0.0 0.0 
-3.175730497108e-03 9.312235449213e-05 0.0 
9.312235449213e-05 5.692268472558e-03 0.0 
0.0 0.0 0.0 
2.610178590518e-04 3.181940965905e-04 0.0 
3.181940965905e-04 1.408150462177e-04 0.0 
0.0 0.0 0.0 
1.778863129224e-03 1.855123502703e-03 0.0 
1.855123502703e-03 -1.291292285407e-03 0.0 
0.0 0.0 0.0 
2.173809294959e-03 4.254908823707e-03 0.0 
4.254908823707e-03 -1.294994970535e-03 0.0 
0.0 0.0 0.0 
4.041518582856e-03 1.455013088991e-03 0.0 
1.455013088991e-03 -3.589216702772e-03 0.0 
0.0 0.0 0.0 
-1.263178395604e-03 6.455013062229e-03 0.0 
6.455013062229e-03 5.444909579968e-03 0.0 
0.0 0.0 0.0 
1.825343023964e-03 3.329733058382e-04 0.0 
3.329733058382e-04 -1.502623662329e-03 0.0 
0.0 0.0 0.0 
2.668960158198e-04 4.519839645476e-03 0.0 
4.519839645476e-03 8.182843766239e-04 0.0 
0.0 0.0 0.0 
-6.140492309804e-04 4.528358386708e-03 0.0 
4.528358386708e-03 2.377664644834e-03 0.0 
0.0 0.0 0.0 
1.604249514769e-03 2.067015968254e-03 0.0 
2.067015968254e-03 -1.108688067322e-03 0.0 
0.0 0.0 0.0 
-2.896344053044e-03 3.581669844561e-03 0.0 
3.581669844561e-03 4.383708738223e-03 0.0 
0.0 0.0 0.0 
1.792747803785e-03 2.342399046529e-04 0.0 
2.342399046529e-04 -1.483834914651e-03 0.0 
0.0 0.0 0.0 
3.236794217375e-03 3.612903746781e-03 0.0 
3.612903746781e-03 -2.521061945751e-03 0.0 
0.0 0.0 0.0 
3.756155327393e-03 3.500601534668e-05 0.0 
3.500601534668e-05 -2.514565571978e-03 0.0 
0.0 0.0 0.0 
-8.668754044491e-04 6.258092709363e-03 0.0 
6.258092709363e-03 4.233932945729e-03 0.0 
0.0 0.0 0.0 
1.501295209119e-03 1.978882960764e-04 0.0 
1.978882960764e-04 -1.195063693775e-03 0.0 
0.0 0.0 0.0 
4.429626358082e-03 9.413879211145e-04 0.0 
9.413879211145e-04 -3.858281826552e-03 0.0 
0.0 0.0 0.0 
3.715915492717e-03 1.328458096089e-03 0.0 
1.328458096089e-03 -3.281429575476e-03 0.0 
0.0 0.0 0.0 
1.324353194081e-03 3.547261859372e-03 0.0 
3.547261859372e-03 -6.092886008783e-04 0.0 
0.0 0.0 0.0 
1.258649522783e-03 1.681695729793e-04 0.0 
1.681695729793e-04 -9.529774642228e-04 0.0 
0.0 0.0 0.0 
4.507335040444e-03 1.197360995876e-03 0.0 
1.197360995876e-03 -3.979027898084e-03 0.0 
0.0 0.0 0.0 
1.057468585038e-03 1.370604897899e-04 0.0 
1.370604897899e-04 -7.505365365768e-04 0.0 
0.0 0.0 0.0 
-2.897901792202e-04 5.070921889506e-03 0.0 
5.070921889506e-03 3.553593220974e-03 0.0 
0.0 0.0 0.0 
-2.473277908585e-03 3.737935725956e-03 0.0 
3.737935725956e-03 3.859249304587e-03 0.0 
0.0 0.0 0.0 
8.934713647728e-04 1.043493056718e-04 0.0 
1.043493056718e-04 -5.852545975130e-04 0.0 
0.0 0.0 0.0 
4.998059745937e-04 4.586609717053e-03 0.0 
4.586609717053e-03 5.741612276640e-04 0.0 
0.0 0.0 0.0 
3.605176911312e-03 2.046472341478e-06 0.0 
2.046472341478e-06 -2.466994069510e-03 0.0 
0.0 0.0 0.0 
2.591862791088e-03 4.173393867637e-03 0.0 
4.173393867637e-03 -1.758066193902e-03 0.0 
0.0 0.0 0.0 
3.771451088429e-04 9.579125189512e-05 0.0 
9.579125189512e-05 -1.117073573390e-05 0.0 
0.0 0.0 0.0 
3.572920376248e-03 8.874499948813e-05 0.0 
8.874499948813e-05 -3.269597866630e-03 0.0 
0.0 0.0 0.0 
3.345239615452e-03 1.205407663673e-03 0.0 
1.205407663673e-03 -2.925976375310e-03 0.0 
0.0 0.0 0.0 
-2.063644797816e-03 3.720248199668e-03 0.0 
3.720248199668e-03 3.430408495422e-03 0.0 
0.0 0.0 0.0 
1.138390805398e-04 3.810579881399e-03 0.0 
3.810579881399e-03 2.379107759016e-03 0.0 
0.0 0.0 0.0 
2.938798152541e-03 1.317577592394e-03 0.0 
1.317577592394e-03 -2.508032978603e-03 0.0 
0.0 0.0 0.0 
7.572776541680e-04 4.787268183539e-03 0.0 
4.787268183539e-03 3.136935274510e-04 0.0 
0.0 0.0 0.0 
2.860310668271e-03 4.065462133326e-03 0.0 
4.065462133326e-03 -2.064555610508e-03 0.0 
0.0 0.0 0.0 
3.589893654773e-03 3.330190207128e-03 0.0 
3.330190207128e-03 -2.894593980022e-03 0.0 
0.0 0.0 0.0 
2.499776204712e-03 1.393476989734e-03 0.0 
1.393476989734e-03 -2.061119327520e-03 0.0 
0.0 0.0 0.0 
7.897541916190e-04 4.155710631447e-03 0.0 
4.155710631447e-03 1.381503457813e-03 0.0 
0.0 0.0 0.0 
3.386987909880e-03 -1.463640392046e-04 0.0 
-1.463640392046e-04 -3.040328528332e-03 0.0 
0.0 0.0 0.0 
3.438949927736e-03 -1.972676126746e-04 0.0 
-1.972676126746e-04 -2.964574268814e-03 0.0 
0.0 0.0 0.0 
4.533982812987e-03 1.094265807169e-03 0.0 
1.094265807169e-03 -4.057270330274e-03 0.0 
0.0 0.0 0.0 
4.737459408514e-04 4.911271258055e-03 0.0 
4.911271258055e-03 6.480666616530e-04 0.0 
0.0 0.0 0.0 
3.486674084925e-03 2.329816644022e-05 0.0 
2.329816644022e-05 -2.654171147048e-03 0.0 
0.0 0.0 0.0 
-1.455762628802e-03 4.185417589664e-03 0.0 
4.185417589664e-03 2.747289101524e-03 0.0 
0.0 0.0 0.0 
3.426859898486e-03 -2.786772733075e-04 0.0 
-2.786772733075e-04 -2.667478670740e-03 0.0 
0.0 0.0 0.0 
4.505138001197e-03 7.693799893786e-04 0.0 
7.693799893786e-04 -4.049094909266e-03 0.0 
0.0 0.0 0.0 
2.598975211827e-03 3.946428554612e-03 0.0 
3.946428554612e-03 -1.840527584199e-03 0.0 
0.0 0.0 0.0 
-2.334393298691e-03 9.991797811758e-05 0.0 
9.991797811758e-05 4.121386041446e-03 0.0 
0.0 0.0 0.0 
4.407877216975e-03 7.137089143589e-04 0.0 
7.137089143589e-04 -3.998854587847e-03 0.0 
0.0 0.0 0.0 
2.656746073307e-03 1.026971364521e-05 0.0 
1.026971364521e-05 -2.378186482138e-03 0.0 
0.0 0.0 0.0 
4.320970952730e-03 4.455529987582e-04 0.0 
4.455529987582e-04 -3.928563906320e-03 0.0 
0.0 0.0 0.0 
3.473689001798e-03 3.489583248949e-03 0.0 
3.489583248949e-03 -2.766635038389e-03 0.0 
0.0 0.0 0.0 
4.115040793338e-03 4.298460431813e-04 0.0 
4.298460431813e-04 -3.757352536935e-03 0.0 
0.0 0.0 0.0 
3.986946630711e-03 2.259606519434e-04 0.0 
2.259606519434e-04 -3.647749156274e-03 0.0 
0.0 0.0 0.0 
-1.106779488323e-03 9.369608573952e-04 0.0 
9.369608573952e-04 2.877795278101e-03 0.0 
0.0 0.0 0.0 
3.710366019208e-03 2.323830782746e-04 0.0 
2.323830782746e-04 -3.390339749446e-03 0.0 
0.0 0.0 0.0 
-5.490273567875e-04 3.829448035129e-04 0.0 
3.829448035129e-04 2.363139464431e-03 0.0 
0.0 0.0 0.0 
1.135526663388e-04 9.521404220274e-05 0.0 
9.521404220274e-05 3.079508804081e-04 0.0 
0.0 0.0 0.0 
-2.951355460416e-03 6.924071638514e-05 0.0 
6.924071638514e-05 5.066343902508e-03 0.0 
0.0 0.0 0.0 
2.801705718608e-04 2.809953568691e-03 0.0 
2.809953568691e-03 1.674721826047e-03 0.0 
0.0 0.0 0.0 
1.438295726949e-03 -2.874758200044e-04 0.0 
-2.874758200044e-04 -7.702619671546e-04 0.0 
0.0 0.0 0.0 
1.230680428783e-03 3.157896739537e-03 0.0 
3.157896739537e-03 3.649733043805e-04 0.0 
0.0 0.0 0.0 
3.681310155955e-03 -4.791841795764e-05 0.0 
-4.791841795764e-05 -3.358602818613e-03 0.0 
0.0 0.0 0.0 
-6.751327748419e-04 4.446367485288e-03 0.0 
4.446367485288e-03 1.895536974299e-03 0.0 
0.0 0.0 0.0 
-2.964850653911e-03 1.297419632669e-04 0.0 
1.297419632669e-04 5.089728300524e-03 0.0 
0.0 0.0 0.0 
3.521111969462e-03 -1.217656611415e-04 0.0 
-1.217656611415e-04 -3.194861337041e-03 0.0 
0.0 0.0 0.0 
1.458678068746e-05 5.547710346565e-03 0.0 
5.547710346565e-03 1.316119675759e-03 0.0 
0.0 0.0 0.0 
5.563867730110e-04 4.407945254704e-03 0.0 
4.407945254704e-03 2.723031110318e-04 0.0 
0.0 0.0 0.0 
-1.930998003895e-03 1.894732512987e-04 0.0 
1.894732512987e-04 3.677818385498e-03 0.0 
0.0 0.0 0.0 
1.770680802019e-03 2.593427059285e-03 0.0 
2.593427059285e-03 -1.222942270893e-03 0.0 
0.0 0.0 0.0 
2.950579115317e-03 3.901153574798e-03 0.0 
3.901153574798e-03 -2.194416016058e-03 0.0 
0.0 0.0 0.0 
-1.156153164850e-03 1.392394244214e-04 0.0 
1.392394244214e-04 2.873619219227e-03 0.0 
0.0 0.0 0.0 
-3.462420604487e-03 2.238243659095e-04 0.0 
2.238243659095e-04 6.169109012813e-03 0.0 
0.0 0.0 0.0 
3.103651752636e-03 -2.502871092967e-04 0.0 
-2.502871092967e-04 -1.835379231551e-03 0.0 
0.0 0.0 0.0 
6.636187640585e-04 3.725556614372e-05 0.0 
3.725556614372e-05 -3.509309528236e-04 0.0 
0.0 0.0 0.0 
4.027730299629e-04 2.011598127843e-03 0.0 
2.011598127843e-03 1.023754563080e-03 0.0 
0.0 0.0 0.0 
1.375150652967e-03 2.128024284956e-03 0.0 
2.128024284956e-03 -1.987034987166e-04 0.0 
0.0 0.0 0.0 
1.651432040008e-03 1.423706877261e-03 0.0 
1.423706877261e-03 -7.054475908469e-04 0.0 
0.0 0.0 0.0 
2.314684423658e-03 2.404080617068e-06 0.0 
2.404080617068e-06 -2.074148457741e-03 0.0 
0.0 0.0 0.0 
3.042033486488e-03 -4.519852432357e-04 0.0 
-4.519852432357e-04 -2.096818941154e-03 0.0 
0.0 0.0 0.0 
5.911913561746e-04 1.492085020824e-03 0.0 
1.492085020824e-03 4.178130659644e-04 0.0 
0.0 0.0 0.0 
1.001389875580e-03 2.618211375858e-03 0.0 
2.618211375858e-03 -4.326880597058e-04 0.0 
0.0 0.0 0.0 
-3.835183999524e-03 7.412253086432e-04 0.0 
7.412253086432e-04 6.255442120546e-03 0.0 
0.0 0.0 0.0 
2.289921550838e-03 4.152324062138e-03 0.0 
4.152324062138e-03 -1.486716390260e-03 0.0 
0.0 0.0 0.0 
7.322751222112e-04 9.497961438208e-04 0.0 
9.497961438208e-04 -2.243168289688e-05 0.0 
0.0 0.0 0.0 
-1.349859988055e-03 2.994826758057e-03 0.0 
2.994826758057e-03 3.052594251863e-03 0.0 
0.0 0.0 0.0 
1.123277755381e-03 4.049957611679e-03 0.0 
4.049957611679e-03 -3.412887436617e-04 0.0 
0.0 0.0 0.0 
1.629317215915e-04 6.145924890326e-04 0.0 
6.145924890326e-04 2.631000889563e-04 0.0 
0.0 0.0 0.0 
1.796790654621e-03 4.117108153498e-03 0.0 
4.117108153498e-03 -1.016040386851e-03 0.0 
0.0 0.0 0.0 
1.823050405227e-03 6.995194254088e-04 0.0 
6.995194254088e-04 -1.010410763670e-03 0.0 
0.0 0.0 0.0 
-4.453842037744e-03 2.330818667447e-03 0.0 
2.330818667447e-03 6.810509204319e-03 0.0 
0.0 0.0 0.0 
7.632372409733e-04 5.342593554975e-03 0.0 
5.342593554975e-03 3.177786026759e-04 0.0 
0.0 0.0 0.0 
-1.756676337461e-03 2.855308620217e-04 0.0 
2.855308620217e-04 3.469032430066e-03 0.0 
0.0 0.0 0.0 
1.308209636219e-04 4.610429165461e-04 0.0 
4.610429165461e-04 2.944684527913e-04 0.0 
0.0 0.0 0.0 
-4.434618849638e-03 1.135908974227e-03 0.0 
1.135908974227e-03 7.203781935775e-03 0.0 
0.0 0.0 0.0 
-9.400724256356e-04 5.955694259905e-04 0.0 
5.955694259905e-04 2.724758470451e-03 0.0 
0.0 0.0 0.0 
3.531239608982e-03 -3.007393634311e-04 0.0 
-3.007393634311e-04 -2.714893879448e-03 0.0 
0.0 0.0 0.0 
-8.808122822793e-04 2.484998156988e-04 0.0 
2.484998156988e-04 2.632891783870e-03 0.0 
0.0 0.0 0.0 
-2.341448837856e-04 4.743899988536e-03 0.0 
4.743899988536e-03 1.455385320655e-03 0.0 
0.0 0.0 0.0 
-2.786477044566e-03 2.987327712366e-04 0.0 
2.987327712366e-04 4.616936938614e-03 0.0 
0.0 0.0 0.0 
-4.147210879462e-03 3.260193634104e-03 0.0 
3.260193634104e-03 6.340909390679e-03 0.0 
0.0 0.0 0.0 
1.932820103054e-04 1.533097310816e-04 0.0 
1.533097310816e-04 2.033793066616e-04 0.0 
0.0 0.0 0.0 
-4.778411193658e-04 5.193894500208e-03 0.0 
5.193894500208e-03 1.932409320194e-03 0.0 
0.0 0.0 0.0 
1.859491940142e-03 2.771174497695e-04 0.0 
2.771174497695e-04 -1.083714083041e-03 0.0 
0.0 0.0 0.0 
-2.016455043987e-03 2.333123233807e-04 0.0 
2.333123233807e-04 3.731088090613e-03 0.0 
0.0 0.0 0.0 
1.977215563227e-03 -4.397684603080e-06 0.0 
-4.397684603080e-06 -1.711473760234e-03 0.0 
0.0 0.0 0.0 
2.300492789504e-03 -3.883312274467e-04 0.0 
-3.883312274467e-04 -1.382320474373e-03 0.0 
0.0 0.0 0.0 
4.431980464377e-04 8.729894897840e-04 0.0 
8.729894897840e-04 -2.366665819493e-05 0.0 
0.0 0.0 0.0 
1.333874516714e-04 5.109440962410e-03 0.0 
5.109440962410e-03 1.092738015531e-03 0.0 
0.0 0.0 0.0 
2.171989777787e-04 2.608809320043e-04 0.0 
2.608809320043e-04 1.801072434343e-04 0.0 
0.0 0.0 0.0 
3.871642926409e-03 -6.631926307287e-06 0.0 
-6.631926307287e-06 -2.581772661160e-03 0.0 
0.0 0.0 0.0 
3.432386823763e-03 -1.244308182241e-04 0.0 
-1.244308182241e-04 -1.962006614057e-03 0.0 
0.0 0.0 0.0 
5.208924422260e-04 1.161074798907e-03 0.0 
1.161074798907e-03 -6.351625027052e-05 0.0 
0.0 0.0 0.0 
3.913832984918e-04 5.624746523473e-03 0.0 
5.624746523473e-03 8.321967073607e-04 0.0 
0.0 0.0 0.0 
3.608503600786e-03 -3.276337019450e-04 0.0 
-3.276337019450e-04 -2.895015010720e-03 0.0 
0.0 0.0 0.0 
-6.362793269536e-04 3.404296772735e-03 0.0 
3.404296772735e-03 2.439030304012e-03 0.0 
0.0 0.0 0.0 
1.412985023886e-03 -7.193872691831e-05 0.0 
-7.193872691831e-05 -7.924125153198e-04 0.0 
0.0 0.0 0.0 
-3.788266011845e-03 2.599876107284e-04 0.0 
2.599876107284e-04 6.737244434042e-03 0.0 
0.0 0.0 0.0 
3.812200312500e-03 1.043795239248e-05 0.0 
1.043795239248e-05 -2.155872615560e-03 0.0 
0.0 0.0 0.0 
1.194740239498e-04 3.345518123359e-04 0.0 
3.345518123359e-04 3.060594430311e-04 0.0 
0.0 0.0 0.0 
-1.264644964162e-03 1.736937334066e-03 0.0 
1.736937334066e-03 3.069292346005e-03 0.0 
0.0 0.0 0.0 
1.567392966129e-03 4.270551238070e-05 0.0 
4.270551238070e-05 -1.303096330445e-03 0.0 
0.0 0.0 0.0 
-5.716557210516e-03 3.718893296436e-03 0.0 
3.718893296436e-03 9.634128950716e-03 0.0 
0.0 0.0 0.0 
2.478998042438e-03 1.969579796295e-05 0.0 
1.969579796295e-05 -2.227053017881e-03 0.0 
0.0 0.0 0.0 
1.334531057577e-03 4.870827406447e-03 0.0 
4.870827406447e-03 -4.177379179038e-04 0.0 
0.0 0.0 0.0 
3.125411054532e-03 -3.435221774632e-04 0.0 
-3.435221774632e-04 -2.091455967718e-03 0.0 
0.0 0.0 0.0 
-1.036258536474e-03 1.248501806791e-03 0.0 
1.248501806791e-03 2.825505851105e-03 0.0 
0.0 0.0 0.0 
6.318184870896e-04 1.549631104470e-03 0.0 
1.549631104470e-03 -1.412501249350e-04 0.0 
0.0 0.0 0.0 
-1.003937781988e-03 4.217057256719e-03 0.0 
4.217057256719e-03 2.607705279908e-03 0.0 
0.0 0.0 0.0 
4.078768759921e-04 3.017901154346e-03 0.0 
3.017901154346e-03 2.405347286647e-04 0.0 
0.0 0.0 0.0 
1.918863261519e-03 -3.362264730414e-04 0.0 
-3.362264730414e-04 -1.150731842084e-03 0.0 
0.0 0.0 0.0 
9.533512962957e-04 4.313563957993e-03 0.0 
4.313563957993e-03 -1.150254564372e-04 0.0 
0.0 0.0 0.0 
1.183736407640e-03 2.044187658302e-03 0.0 
2.044187658302e-03 -6.683208863035e-04 0.0 
0.0 0.0 0.0 
-3.346199208911e-03 6.754564489504e-05 0.0 
6.754564489504e-05 5.994332186445e-03 0.0 
0.0 0.0 0.0 
-8.300796632281e-04 4.723472197552e-03 0.0 
4.723472197552e-03 2.377295577543e-03 0.0 
0.0 0.0 0.0 
2.065378242725e-03 1.771584277279e-05 0.0 
1.771584277279e-05 -1.810857352259e-03 0.0 
0.0 0.0 0.0 
3.444281272149e-03 1.978497446834e-05 0.0 
1.978497446834e-05 -2.601807729607e-03 0.0 
0.0 0.0 0.0 
-5.016076072218e-04 2.197316186976e-04 0.0 
2.197316186976e-04 2.341856369260e-03 0.0 
0.0 0.0 0.0 
4.420860637138e-03 -2.833755568693e-05 0.0 
-2.833755568693e-05 -2.036679359446e-03 0.0 
0.0 0.0 0.0 
-3.221129751799e-03 2.505015373973e-05 0.0 
2.505015373973e-05 5.808545929108e-03 0.0 
0.0 0.0 0.0 
8.372181689356e-05 4.611198271738e-05 0.0 
4.611198271738e-05 3.395123415623e-04 0.0 
0.0 0.0 0.0 
3.547129038326e-03 3.145026134338e-05 0.0 
3.145026134338e-05 -2.633931869134e-03 0.0 
0.0 0.0 0.0 
-2.762921459666e-03 1.342339912578e-04 0.0 
1.342339912578e-04 4.676878784329e-03 0.0 
0.0 0.0 0.0 
2.279552029347e-04 5.650813548937e-03 0.0 
5.650813548937e-03 1.055849124969e-03 0.0 
0.0 0.0 0.0 
1.057924827177e-03 1.664600107713e-05 0.0 
1.664600107713e-05 -7.841565718090e-04 0.0 
0.0 0.0 0.0 
-1.341386836784e-03 2.287509591200e-04 0.0 
2.287509591200e-04 3.072972127763e-03 0.0 
0.0 0.0 0.0 
3.225009646094e-03 -4.747819871213e-04 0.0 
-4.747819871213e-04 -2.411770080707e-03 0.0 
0.0 0.0 0.0 
1.537545743269e-03 -2.401187814979e-04 0.0 
-2.401187814979e-04 -7.763209796026e-04 0.0 
0.0 0.0 0.0 
-2.200100624265e-03 1.787902215330e-04 0.0 
1.787902215330e-04 3.983363240740e-03 0.0 
0.0 0.0 0.0 
1.020274137390e-03 3.785311053774e-03 0.0 
3.785311053774e-03 -3.005623588194e-04 0.0 
0.0 0.0 0.0 
-1.137935734471e-03 3.538619186005e-03 0.0 
3.538619186005e-03 2.800710838326e-03 0.0 
0.0 0.0 0.0 
-2.563368462815e-03 2.570940218026e-04 0.0 
2.570940218026e-04 4.338338565689e-03 0.0 
0.0 0.0 0.0 
2.624606024101e-03 3.040553221120e-04 0.0 
3.040553221120e-04 -1.702436455648e-03 0.0 
0.0 0.0 0.0 
2.819323799677e-04 5.444701984511e-03 0.0 
5.444701984511e-03 9.481890659119e-04 0.0 
0.0 0.0 0.0 
1.440369039470e-03 4.427658712198e-05 0.0 
4.427658712198e-05 -1.167836209240e-03 0.0 
0.0 0.0 0.0 
1.003840114294e-03 5.211074905127e-03 0.0 
5.211074905127e-03 4.195785749581e-05 0.0 
0.0 0.0 0.0 
1.295721251337e-03 2.529503153090e-03 0.0 
2.529503153090e-03 -7.272252114745e-04 0.0 
0.0 0.0 0.0 
5.370968063786e-04 7.201947415723e-05 0.0 
7.201947415723e-05 -2.092359610849e-04 0.0 
0.0 0.0 0.0 
9.188488150477e-04 2.102405147295e-05 0.0 
2.102405147295e-05 -6.336861426983e-04 0.0 
0.0 0.0 0.0 
3.689153407686e-03 2.629816226571e-06 0.0 
2.629816226571e-06 -2.058025911856e-03 0.0 
0.0 0.0 0.0 
2.760332034735e-04 5.613664787071e-04 0.0 
5.613664787071e-04 1.389070082175e-04 0.0 
0.0 0.0 0.0 
1.300538166851e-03 1.549106815004e-05 0.0 
1.549106815004e-05 -1.029058215624e-03 0.0 
0.0 0.0 0.0 

TENSORS node_materi_strain_plasti float
4.488211993075e-03 -4.149937952339e-05 0.0 
-4.149937952339e-05 -1.970062491540e-03 0.0 
0.0 0.0 3.195057205716e-06 
-3.015280757798e-03 -2.180013513810e-05 0.0 
-2.180013513810e-05 4.821770898716e-03 0.0 
0.0 0.0 1.343206736392e-04 
1.029286558641e-03 4.373680083239e-05 0.0 
4.373680083239e-05 -5.992299617730e-04 0.0 
0.0 0.0 9.819371952211e-04 
2.063892841200e-04 2.474340627524e-04 0.0 
2.474340627524e-04 4.638341164843e-04 0.0 
0.0 0.0 4.275631484539e-04 
4.288581852982e-03 -9.715135709680e-05 0.0 
-9.715135709680e-05 -2.146221060526e-03 0.0 
0.0 0.0 3.551740959669e-05 
4.138658945409e-03 -1.012531136364e-04 0.0 
-1.012531136364e-04 -2.534064367843e-03 0.0 
0.0 0.0 8.782371215568e-05 
3.840127453986e-03 -6.127718339629e-05 0.0 
-6.127718339629e-05 -2.790057375336e-03 0.0 
0.0 0.0 1.368312832277e-04 
3.468683687579e-03 -3.379349166319e-05 0.0 
-3.379349166319e-05 -2.847790240832e-03 0.0 
0.0 0.0 1.901112619024e-04 
3.083268751245e-03 -4.112941850296e-05 0.0 
-4.112941850296e-05 -2.734221950416e-03 0.0 
0.0 0.0 2.365313190877e-04 
2.757421477284e-03 -3.633075316856e-05 0.0 
-3.633075316856e-05 -2.544112059201e-03 0.0 
0.0 0.0 2.698078477709e-04 
2.468066085001e-03 -1.750364827968e-05 0.0 
-1.750364827968e-05 -2.298559457701e-03 0.0 
0.0 0.0 3.074984017439e-04 
2.225893216760e-03 -2.183724300667e-05 0.0 
-2.183724300667e-05 -2.038615486711e-03 0.0 
0.0 0.0 3.615085083955e-04 
2.026493629945e-03 -1.798404538390e-05 0.0 
-1.798404538390e-05 -1.821731089629e-03 0.0 
0.0 0.0 4.177952744162e-04 
1.834027923965e-03 -2.978606617217e-06 0.0 
-2.978606617217e-06 -1.614985932252e-03 0.0 
0.0 0.0 4.744617247156e-04 
1.680858881973e-03 1.238658098458e-06 0.0 
1.238658098458e-06 -1.436537557012e-03 0.0 
0.0 0.0 5.284956883839e-04 
1.564987653785e-03 1.233412537083e-05 0.0 
1.233412537083e-05 -1.298632517350e-03 0.0 
0.0 0.0 5.826592999349e-04 
1.474053644666e-03 2.922127394943e-05 0.0 
2.922127394943e-05 -1.196556870452e-03 0.0 
0.0 0.0 6.356463171739e-04 
1.407482710389e-03 2.360648096862e-05 0.0 
2.360648096862e-05 -1.103025010318e-03 0.0 
0.0 0.0 6.880516935014e-04 
1.337098635435e-03 2.436462262410e-05 0.0 
2.436462262410e-05 -1.008133412285e-03 0.0 
0.0 0.0 7.428389628758e-04 
1.273103073835e-03 2.766437673413e-05 0.0 
2.766437673413e-05 -9.196994437449e-04 0.0 
0.0 0.0 7.955167801108e-04 
1.210659417223e-03 2.989157476787e-05 0.0 
2.989157476787e-05 -8.317960564302e-04 0.0 
0.0 0.0 8.476465667529e-04 
1.139970320000e-03 3.655776920391e-05 0.0 
3.655776920391e-05 -7.367763143707e-04 0.0 
0.0 0.0 8.995446156290e-04 
1.078545088380e-03 3.772962235906e-05 0.0 
3.772962235906e-05 -6.475509447675e-04 0.0 
0.0 0.0 9.461383830566e-04 
3.287356482000e-04 6.116140282415e-04 0.0 
6.116140282415e-04 3.681021674021e-04 0.0 
0.0 0.0 4.560788818228e-04 
3.656773374209e-04 1.139869587107e-03 0.0 
1.139869587107e-03 3.619269426689e-04 0.0 
0.0 0.0 4.416519858977e-04 
3.662436680826e-04 1.808252645099e-03 0.0 
1.808252645099e-03 3.621338434413e-04 0.0 
0.0 0.0 4.506398833691e-04 
4.277972372047e-04 2.459104513867e-03 0.0 
2.459104513867e-03 3.249910733407e-04 0.0 
0.0 0.0 4.283560181089e-04 
3.589464353994e-04 3.073673212300e-03 0.0 
3.073673212300e-03 3.828227001334e-04 0.0 
0.0 0.0 4.411887468784e-04 
3.589724033389e-04 3.918562557970e-03 0.0 
3.918562557970e-03 3.954447807323e-04 0.0 
0.0 0.0 4.265030452552e-04 
3.503796889652e-04 4.828566141905e-03 0.0 
4.828566141905e-03 3.952939073058e-04 0.0 
0.0 0.0 4.437146102742e-04 
3.718248709241e-04 5.710053476838e-03 0.0 
5.710053476838e-03 3.811034797497e-04 0.0 
0.0 0.0 4.364666223137e-04 
3.555281897801e-04 6.685568111370e-03 0.0 
6.685568111370e-03 3.767672272171e-04 0.0 
0.0 0.0 4.749088277659e-04 
4.648721193664e-04 7.560358866577e-03 0.0 
7.560358866577e-03 2.825196037975e-04 0.0 
0.0 0.0 4.518686289756e-04 
3.989677930060e-04 8.314582160265e-03 0.0 
8.314582160265e-03 3.253761313450e-04 0.0 
0.0 0.0 4.871736364319e-04 
4.437817117865e-04 9.222722363833e-03 0.0 
9.222722363833e-03 2.869467901630e-04 0.0 
0.0 0.0 4.783337528205e-04 
4.975964276079e-04 1.008128092278e-02 0.0 
1.008128092278e-02 2.074868205534e-04 0.0 
0.0 0.0 5.281990025810e-04 
5.760667974133e-04 1.069228878520e-02 0.0 
1.069228878520e-02 1.296477510085e-04 0.0 
0.0 0.0 5.370724793056e-04 
6.192661677203e-04 1.130169919878e-02 0.0 
1.130169919878e-02 6.764356385742e-05 0.0 
0.0 0.0 5.680983875247e-04 
7.078831699952e-04 1.161364539634e-02 0.0 
1.161364539634e-02 -4.533199691233e-05 0.0 
0.0 0.0 5.871719147918e-04 
7.637727528969e-04 1.185719078206e-02 0.0 
1.185719078206e-02 -1.133732221290e-04 0.0 
0.0 0.0 6.054049205784e-04 
8.443166630722e-04 1.197691015640e-02 0.0 
1.197691015640e-02 -2.165035067599e-04 0.0 
0.0 0.0 6.512796372109e-04 
9.294106264048e-04 1.193773570877e-02 0.0 
1.193773570877e-02 -3.204973623496e-04 0.0 
0.0 0.0 6.834297614552e-04 
9.956192376453e-04 1.176813976475e-02 0.0 
1.176813976475e-02 -4.025787379149e-04 0.0 
0.0 0.0 7.089109872336e-04 
1.070132322477e-03 1.146031684361e-02 0.0 
1.146031684361e-02 -4.959019032886e-04 0.0 
0.0 0.0 7.407630832280e-04 
1.136836183880e-03 1.101565216508e-02 0.0 
1.101565216508e-02 -5.788580952769e-04 0.0 
0.0 0.0 7.696280573690e-04 
1.189651103922e-03 1.050588478076e-02 0.0 
1.050588478076e-02 -6.526763497368e-04 0.0 
0.0 0.0 8.022152820305e-04 
1.239090634292e-03 9.891270893795e-03 0.0 
9.891270893795e-03 -7.181739209597e-04 0.0 
0.0 0.0 8.277710031329e-04 
1.268141231771e-03 9.252436796801e-03 0.0 
9.252436796801e-03 -7.595713094540e-04 0.0 
0.0 0.0 8.515080517503e-04 
1.315195682108e-03 8.554701371568e-03 0.0 
8.554701371568e-03 -8.178710531347e-04 0.0 
0.0 0.0 8.719796357926e-04 
1.320740157498e-03 7.813013275932e-03 0.0 
7.813013275932e-03 -8.453320458479e-04 0.0 
0.0 0.0 9.053367029107e-04 
1.348476099880e-03 7.078771325284e-03 0.0 
7.078771325284e-03 -8.745862543698e-04 0.0 
0.0 0.0 9.116766558120e-04 
1.336556965583e-03 6.352520888724e-03 0.0 
6.352520888724e-03 -8.750490209148e-04 0.0 
0.0 0.0 9.314796290220e-04 
1.325418753495e-03 5.687800113242e-03 0.0 
5.687800113242e-03 -8.692044645080e-04 0.0 
0.0 0.0 9.426381773904e-04 
1.306630632095e-03 5.071129713774e-03 0.0 
5.071129713774e-03 -8.622720115186e-04 0.0 
0.0 0.0 9.602030949015e-04 
1.344374666626e-03 4.519549609563e-03 0.0 
4.519549609563e-03 -9.076206522312e-04 0.0 
0.0 0.0 9.691672223549e-04 
1.329381470712e-03 3.862540504602e-03 0.0 
3.862540504602e-03 -9.022444970650e-04 0.0 
0.0 0.0 9.816869867922e-04 
1.295405553990e-03 3.328253075805e-03 0.0 
3.328253075805e-03 -8.633675396112e-04 0.0 
0.0 0.0 9.786641825832e-04 
1.273693750918e-03 2.842324023157e-03 0.0 
2.842324023157e-03 -8.452228059811e-04 0.0 
0.0 0.0 9.848372506025e-04 
1.230503848974e-03 2.396393654676e-03 0.0 
2.396393654676e-03 -8.086188072839e-04 0.0 
0.0 0.0 9.929557453627e-04 
1.210974427678e-03 2.045085480174e-03 0.0 
2.045085480174e-03 -7.816401131100e-04 0.0 
0.0 0.0 9.853588495072e-04 
1.176078347816e-03 1.713869555525e-03 0.0 
1.713869555525e-03 -7.534875845045e-04 0.0 
0.0 0.0 9.918719696060e-04 
1.160372070177e-03 1.443611880781e-03 0.0 
1.443611880781e-03 -7.350196106941e-04 0.0 
0.0 0.0 9.876631692340e-04 
1.126783979564e-03 1.195419456347e-03 0.0 
1.195419456347e-03 -7.031924885001e-04 0.0 
0.0 0.0 9.880710374232e-04 
1.100958201582e-03 1.010286101524e-03 0.0 
1.010286101524e-03 -6.780571934308e-04 0.0 
0.0 0.0 9.891567407939e-04 
1.082362416872e-03 8.395504453787e-04 0.0 
8.395504453787e-04 -6.546672165548e-04 0.0 
0.0 0.0 9.883722590355e-04 
1.067530697391e-03 7.002691220407e-04 0.0 
7.002691220407e-04 -6.350684089234e-04 0.0 
0.0 0.0 9.854113274819e-04 
1.064042049486e-03 5.615059492262e-04 0.0 
5.615059492262e-04 -6.397743755718e-04 0.0 
0.0 0.0 9.816166969608e-04 
1.041289688190e-03 4.375706814551e-04 0.0 
4.375706814551e-04 -6.102880279675e-04 0.0 
0.0 0.0 9.839458789871e-04 
1.030649360158e-03 3.405070684012e-04 0.0 
3.405070684012e-04 -6.024886519316e-04 0.0 
0.0 0.0 9.835243550341e-04 
1.024003582400e-03 2.547990477330e-04 0.0 
2.547990477330e-04 -5.981425729243e-04 0.0 
0.0 0.0 9.857396180387e-04 
1.019803552418e-03 1.680510592956e-04 0.0 
1.680510592956e-04 -5.889404654851e-04 0.0 
0.0 0.0 9.851710158459e-04 
1.017174980723e-03 9.613464702925e-05 0.0 
9.613464702925e-05 -5.856127481679e-04 0.0 
0.0 0.0 9.844708175056e-04 
-2.775730454966e-03 1.192093281041e-05 0.0 
1.192093281041e-05 4.187134133888e-03 0.0 
0.0 0.0 1.413232512510e-04 
-2.424399284118e-03 6.228867552148e-05 0.0 
6.228867552148e-05 3.341199901315e-03 0.0 
0.0 0.0 1.617030466944e-04 
-2.100528651072e-03 6.821440642487e-05 0.0 
6.821440642487e-05 2.754564147734e-03 0.0 
0.0 0.0 1.763289937346e-04 
-1.783708012483e-03 9.687334374939e-05 0.0 
9.687334374939e-05 2.353781589923e-03 0.0 
0.0 0.0 1.996126929839e-04 
-1.416442885952e-03 1.003638230704e-04 0.0 
1.003638230704e-04 1.941396920987e-03 0.0 
0.0 0.0 2.470199186376e-04 
-1.039793640985e-03 1.250678859936e-04 0.0 
1.250678859936e-04 1.584614969923e-03 0.0 
0.0 0.0 3.083235411492e-04 
-6.290268079227e-04 9.746236099911e-05 0.0 
9.746236099911e-05 1.147535179799e-03 0.0 
0.0 0.0 3.611798427939e-04 
-3.368012539161e-04 1.013150112786e-04 0.0 
1.013150112786e-04 8.600632657996e-04 0.0 
0.0 0.0 3.440177604633e-04 
-1.197609712384e-04 1.143733218268e-04 0.0 
1.143733218268e-04 7.020446165992e-04 0.0 
0.0 0.0 3.788385666560e-04 
1.775843013149e-04 2.179236799788e-04 0.0 
2.179236799788e-04 -4.696010911559e-05 0.0 
0.0 0.0 1.510249949601e-06 
-5.396617418298e-03 1.040134388202e-02 0.0 
1.040134388202e-02 9.394627189475e-03 0.0 
0.0 0.0 3.319787135379e-04 
2.508242359613e-04 8.731456144857e-04 0.0 
8.731456144857e-04 -9.666779320170e-05 0.0 
0.0 0.0 4.702324551248e-06 
2.563532710899e-04 1.491703852433e-03 0.0 
1.491703852433e-03 2.783165663097e-05 0.0 
0.0 0.0 -1.132075276542e-06 
2.377681516590e-04 2.344395269356e-03 0.0 
2.344395269356e-03 3.034172730459e-04 0.0 
0.0 0.0 1.806146306281e-07 
2.075955581525e-04 3.164263513624e-03 0.0 
3.164263513624e-03 6.342148337619e-04 0.0 
0.0 0.0 1.389866592948e-06 
1.388281049253e-04 4.500179718510e-03 0.0 
4.500179718510e-03 1.134306810305e-03 0.0 
0.0 0.0 1.512754522936e-05 
4.299193827493e-05 6.349600459865e-03 0.0 
6.349600459865e-03 1.805805450651e-03 0.0 
0.0 0.0 3.733476581961e-05 
-1.181100451830e-04 8.694191169575e-03 0.0 
8.694191169575e-03 2.700514922932e-03 0.0 
0.0 0.0 6.570718043628e-05 
-6.163522384201e-04 1.171407558012e-02 0.0 
1.171407558012e-02 4.175774020112e-03 0.0 
0.0 0.0 1.093763388724e-04 
-2.273961067467e-03 1.460481216603e-02 0.0 
1.460481216603e-02 6.911670826840e-03 0.0 
0.0 0.0 1.968750419903e-04 
-3.040058753584e-03 6.744467579351e-05 0.0 
6.744467579351e-05 4.924550977889e-03 0.0 
0.0 0.0 1.298864231339e-04 
-3.012548026998e-03 1.172364932033e-04 0.0 
1.172364932033e-04 4.850890988239e-03 0.0 
0.0 0.0 1.308934623004e-04 
-3.052319068102e-03 7.631751836861e-05 0.0 
7.631751836861e-05 4.919392862055e-03 0.0 
0.0 0.0 1.314624291184e-04 
-3.146671772638e-03 3.538910295617e-05 0.0 
3.538910295617e-05 5.107407539045e-03 0.0 
0.0 0.0 1.313548891844e-04 
-3.203018170507e-03 2.050117330418e-04 0.0 
2.050117330418e-04 5.118969563430e-03 0.0 
0.0 0.0 1.414249377355e-04 
-3.302572805911e-03 2.308615824746e-04 0.0 
2.308615824746e-04 5.376131187672e-03 0.0 
0.0 0.0 1.349668658625e-04 
-3.502243570997e-03 2.548691592046e-04 0.0 
2.548691592046e-04 5.694384386531e-03 0.0 
0.0 0.0 1.450861268027e-04 
-3.580069433814e-03 3.547576055822e-04 0.0 
3.547576055822e-04 5.843598953676e-03 0.0 
0.0 0.0 1.443743761029e-04 
-3.729081248892e-03 4.152147863593e-04 0.0 
4.152147863593e-04 6.059281405006e-03 0.0 
0.0 0.0 1.525508556977e-04 
-3.978873433733e-03 4.283346367596e-04 0.0 
4.283346367596e-04 6.491157918689e-03 0.0 
0.0 0.0 1.605032730704e-04 
-4.330035732104e-03 8.269429884834e-04 0.0 
8.269429884834e-04 7.087862602581e-03 0.0 
0.0 0.0 1.748983248645e-04 
-4.729505028433e-03 1.417526538252e-03 0.0 
1.417526538252e-03 7.777417736061e-03 0.0 
0.0 0.0 1.928811544247e-04 
-5.411605257025e-03 2.563544388363e-03 0.0 
2.563544388363e-03 8.944843594311e-03 0.0 
0.0 0.0 2.283462722089e-04 
-6.157589795182e-03 5.875906124019e-03 0.0 
5.875906124019e-03 1.039440493034e-02 0.0 
0.0 0.0 2.849434886620e-04 
4.625705554349e-04 -2.222402093108e-04 0.0 
-2.222402093108e-04 -1.987120647902e-04 0.0 
0.0 0.0 1.556041233568e-06 
7.326608284603e-04 -3.755822118491e-04 0.0 
-3.755822118491e-04 -3.335392954740e-04 0.0 
0.0 0.0 5.823581234974e-06 
9.699347674459e-04 -3.920548617708e-04 0.0 
-3.920548617708e-04 -4.212683512494e-04 0.0 
0.0 0.0 2.817854388734e-06 
1.285887161100e-03 -2.692475515336e-04 0.0 
-2.692475515336e-04 -5.611764817880e-04 0.0 
0.0 0.0 9.258902795182e-07 
1.685485591036e-03 -2.529890564368e-04 0.0 
-2.529890564368e-04 -7.569480900164e-04 0.0 
0.0 0.0 2.979971356900e-06 
1.973264686556e-03 -2.454619259022e-04 0.0 
-2.454619259022e-04 -8.877606647261e-04 0.0 
0.0 0.0 4.297082707472e-06 
2.214069647362e-03 -1.972778237077e-04 0.0 
-1.972778237077e-04 -9.880368439705e-04 0.0 
0.0 0.0 3.780476036918e-06 
2.442830760318e-03 -1.659515198927e-04 0.0 
-1.659515198927e-04 -1.083412012568e-03 0.0 
0.0 0.0 3.304449946977e-06 
2.731767666739e-03 -1.446698162975e-04 0.0 
-1.446698162975e-04 -1.206242755905e-03 0.0 
0.0 0.0 3.041347987449e-06 
3.008875097129e-03 -9.676916162138e-05 0.0 
-9.676916162138e-05 -1.326345006202e-03 0.0 
0.0 0.0 3.131153465522e-06 
3.289837061174e-03 -5.140647424725e-05 0.0 
-5.140647424725e-05 -1.445570796191e-03 0.0 
0.0 0.0 2.932351812199e-06 
3.551552902264e-03 -5.323848155301e-05 0.0 
-5.323848155301e-05 -1.563635744089e-03 0.0 
0.0 0.0 4.288764409359e-06 
3.871305610541e-03 -4.809504104705e-05 0.0 
-4.809504104705e-05 -1.697498025816e-03 0.0 
0.0 0.0 3.392197072121e-06 
4.157108244561e-03 -5.114159972921e-05 0.0 
-5.114159972921e-05 -1.813267271387e-03 0.0 
0.0 0.0 1.548499029886e-06 
4.360294900373e-03 -2.666371794890e-05 0.0 
-2.666371794890e-05 -1.902266772414e-03 0.0 
0.0 0.0 1.762014646047e-06 
4.470807596924e-03 -1.429999941312e-05 0.0 
-1.429999941312e-05 -1.950213941825e-03 0.0 
0.0 0.0 2.116497655211e-06 
4.544861547959e-03 -1.152256842918e-05 0.0 
-1.152256842918e-05 -1.981031317801e-03 0.0 
0.0 0.0 2.022519979960e-06 
4.607707768046e-03 -9.374095768684e-06 0.0 
-9.374095768684e-06 -2.008895366930e-03 0.0 
0.0 0.0 1.375596751619e-06 
4.587200785102e-03 1.165909782407e-05 0.0 
1.165909782407e-05 -1.990093658298e-03 0.0 
0.0 0.0 -9.079332974456e-07 
1.883355663974e-04 6.332191943438e-04 0.0 
6.332191943438e-04 -5.204701520234e-05 0.0 
0.0 0.0 9.645645146427e-06 
2.715016216717e-04 1.171570618715e-03 0.0 
1.171570618715e-03 -6.277781317673e-05 0.0 
0.0 0.0 1.289913015988e-06 
2.609317211345e-04 1.868531334700e-03 0.0 
1.868531334700e-03 1.380768907413e-04 0.0 
0.0 0.0 -2.069815780553e-06 
1.967435087683e-04 2.739599289132e-03 0.0 
2.739599289132e-03 4.699996755111e-04 0.0 
0.0 0.0 2.611549910077e-06 
1.738467781025e-04 4.081966640314e-03 0.0 
4.081966640314e-03 9.365600598245e-04 0.0 
0.0 0.0 1.374802363899e-05 
1.421468625428e-04 5.625150878805e-03 0.0 
5.625150878805e-03 1.479960449518e-03 0.0 
0.0 0.0 2.796137967601e-05 
5.394917556128e-06 7.434731276035e-03 0.0 
7.434731276035e-03 2.186670409595e-03 0.0 
0.0 0.0 4.902506517404e-05 
-2.785797263422e-04 1.011167850685e-02 0.0 
1.011167850685e-02 3.323083559541e-03 0.0 
0.0 0.0 8.318654571301e-05 
-1.247425252787e-03 1.331552776162e-02 0.0 
1.331552776162e-02 5.361242584604e-03 0.0 
0.0 0.0 1.436300493905e-04 
-4.213582659833e-03 1.475243702269e-02 0.0 
1.475243702269e-02 9.246800022899e-03 0.0 
0.0 0.0 2.875812182170e-04 
8.142507308573e-04 1.376020103683e-03 0.0 
1.376020103683e-03 -4.262591529756e-04 0.0 
0.0 0.0 1.813224602630e-05 
1.551341884877e-03 3.728864754189e-03 0.0 
3.728864754189e-03 -1.102470421946e-03 0.0 
0.0 0.0 9.245212008873e-04 
2.955211769485e-03 -2.502891132428e-04 0.0 
-2.502891132428e-04 -1.469617605723e-03 0.0 
0.0 0.0 2.477177137542e-05 
1.901776880935e-03 -4.561430558827e-04 0.0 
-4.561430558827e-04 -9.772856538068e-04 0.0 
0.0 0.0 2.357244099101e-05 
1.300183529761e-03 1.667577950647e-03 0.0 
1.667577950647e-03 -8.676128052886e-04 0.0 
0.0 0.0 9.516719556300e-04 
5.474367482423e-04 3.415405578942e-03 0.0 
3.415405578942e-03 1.927069441532e-04 0.0 
0.0 0.0 3.078226145823e-05 
1.763503614006e-03 1.180681943106e-05 0.0 
1.180681943106e-05 -1.532840122139e-03 0.0 
0.0 0.0 5.048070167840e-04 
1.677797671733e-03 6.306117308104e-03 0.0 
6.306117308104e-03 -1.200302284310e-03 0.0 
0.0 0.0 8.739890329896e-04 
3.338991269004e-04 6.539063310311e-03 0.0 
6.539063310311e-03 1.275160173176e-03 0.0 
0.0 0.0 6.832390483669e-05 
1.570574400441e-03 8.961436597309e-03 0.0 
8.961436597309e-03 -1.047037196767e-03 0.0 
0.0 0.0 8.016708944118e-04 
-4.205830224859e-04 1.142917935374e-02 0.0 
1.142917935374e-02 3.476124729742e-03 0.0 
0.0 0.0 1.384206075279e-04 
1.143566268415e-03 7.757911746543e-04 0.0 
7.757911746543e-04 -7.101612292799e-04 0.0 
0.0 0.0 9.586612174218e-04 
3.909922821732e-03 -1.488997935289e-05 0.0 
-1.488997935289e-05 -1.873999467506e-03 0.0 
0.0 0.0 2.251757169843e-05 
1.241460954788e-03 1.105495312986e-02 0.0 
1.105495312986e-02 -6.628218509149e-04 0.0 
0.0 0.0 7.094613287053e-04 
-4.231419598389e-03 1.204696534508e-02 0.0 
1.204696534508e-02 7.990707111416e-03 0.0 
0.0 0.0 3.026848938040e-04 
2.606621785262e-03 2.993432972677e-05 0.0 
2.993432972677e-05 -2.428590954617e-03 0.0 
0.0 0.0 2.881937939138e-04 
1.468263729441e-03 5.270394179684e-05 0.0 
5.270394179684e-05 -1.179085067445e-03 0.0 
0.0 0.0 6.528954604626e-04 
8.396129522680e-04 1.145984680802e-02 0.0 
1.145984680802e-02 -2.206465509512e-04 0.0 
0.0 0.0 6.411758442497e-04 
2.994877235242e-04 9.968038376326e-03 0.0 
9.968038376326e-03 3.781679936570e-04 0.0 
0.0 0.0 5.516643803696e-04 
3.569010301682e-05 2.802358842201e-03 0.0 
2.802358842201e-03 6.515176186962e-04 0.0 
0.0 0.0 4.711215877558e-04 
-1.474760399905e-04 4.978806311477e-03 0.0 
4.978806311477e-03 8.376959405634e-04 0.0 
0.0 0.0 4.752703810334e-04 
5.562529084473e-05 7.777610266480e-03 0.0 
7.777610266480e-03 6.305237082279e-04 0.0 
0.0 0.0 5.225002687608e-04 
-5.252411908159e-03 4.689414037890e-03 0.0 
4.689414037890e-03 8.622530948394e-03 0.0 
0.0 0.0 2.523421330694e-04 
-3.730293343532e-03 9.095669398741e-04 0.0 
9.095669398741e-04 5.831118908873e-03 0.0 
0.0 0.0 1.749085134504e-04 
-3.218071229133e-03 5.140331424376e-04 0.0 
5.140331424376e-04 4.960816838088e-03 0.0 
0.0 0.0 1.571945905840e-04 
-1.610286353947e-03 2.070581763801e-04 0.0 
2.070581763801e-04 2.152635115980e-03 0.0 
0.0 0.0 2.203916018358e-04 
1.089793852101e-03 4.079138300646e-04 0.0 
4.079138300646e-04 -6.579797799675e-04 0.0 
0.0 0.0 9.568495802162e-04 
1.195887156580e-03 -4.899038900760e-04 0.0 
-4.899038900760e-04 -6.392557571751e-04 0.0 
0.0 0.0 2.351701417801e-05 
4.343939941623e-03 2.281309431819e-06 0.0 
2.281309431819e-06 -2.080800150843e-03 0.0 
0.0 0.0 2.512375436416e-05 
1.247017961982e-03 6.765009674510e-05 0.0 
6.765009674510e-05 -8.828541799907e-04 0.0 
0.0 0.0 8.204968949699e-04 
-2.926827709949e-03 1.585410853829e-04 0.0 
1.585410853829e-04 4.531293323698e-03 0.0 
0.0 0.0 1.387788275740e-04 
3.643688990387e-03 1.666053356654e-05 0.0 
1.666053356654e-05 -2.834006225286e-03 0.0 
0.0 0.0 1.642275854465e-04 
4.519391529729e-04 1.070806515862e-02 0.0 
1.070806515862e-02 1.936621373453e-04 0.0 
0.0 0.0 5.794221259244e-04 
1.606113730592e-03 7.644803862904e-03 0.0 
7.644803862904e-03 -1.106116300051e-03 0.0 
0.0 0.0 8.446445753277e-04 
1.440752526923e-03 1.016704905584e-02 0.0 
1.016704905584e-02 -8.944959876560e-04 0.0 
0.0 0.0 7.612190330556e-04 
1.649631603298e-03 5.031266870825e-03 0.0 
5.031266870825e-03 -1.185797321095e-03 0.0 
0.0 0.0 8.948335611940e-04 
1.429671412199e-03 2.741111728305e-03 0.0 
2.741111728305e-03 -9.926008684227e-04 0.0 
0.0 0.0 9.448851172038e-04 
2.348261485026e-03 -4.397803400422e-04 0.0 
-4.397803400422e-04 -1.197514668237e-03 0.0 
0.0 0.0 2.624869380191e-05 
-4.337660272108e-03 1.745410634935e-03 0.0 
1.745410634935e-03 6.897062318579e-03 0.0 
0.0 0.0 1.983831275071e-04 
1.244201015349e-03 1.162554408569e-03 0.0 
1.162554408569e-03 -8.181064926755e-04 0.0 
0.0 0.0 9.479309809829e-04 
-8.397248347069e-04 2.388561282911e-04 0.0 
2.388561282911e-04 1.383183949910e-03 0.0 
0.0 0.0 3.366670685941e-04 
3.395575453513e-03 -1.614407967779e-04 0.0 
-1.614407967779e-04 -1.669358978564e-03 0.0 
0.0 0.0 2.509651506433e-05 
2.127937124053e-03 1.792606671650e-05 0.0 
1.792606671650e-05 -1.931080772554e-03 0.0 
0.0 0.0 3.901390683222e-04 
1.430592313808e-04 1.749911641662e-03 0.0 
1.749911641662e-03 5.337735242774e-04 0.0 
0.0 0.0 4.721879412848e-04 
5.274355439095e-04 4.948072905848e-03 0.0 
4.948072905848e-03 5.916318026812e-04 0.0 
0.0 0.0 5.252133541951e-05 
7.030117748084e-04 2.378288128065e-03 0.0 
2.378288128065e-03 -1.871775277917e-04 0.0 
0.0 0.0 2.264807259332e-05 
1.296678509049e-04 8.716197229596e-03 0.0 
8.716197229596e-03 2.094148061077e-03 0.0 
0.0 0.0 9.826634459223e-05 
-1.823585495644e-03 1.380439905472e-02 0.0 
1.380439905472e-02 5.782042570720e-03 0.0 
0.0 0.0 1.973544976398e-04 
7.881149979826e-04 3.918373415249e-04 0.0 
3.918373415249e-04 -4.355961823524e-04 0.0 
0.0 0.0 1.374739175547e-05 
-2.254339536625e-03 1.454181254405e-04 0.0 
1.454181254405e-04 2.999216153534e-03 0.0 
0.0 0.0 1.726026436394e-04 
1.054513187342e-03 2.123370471300e-04 0.0 
2.123370471300e-04 -6.196676931379e-04 0.0 
0.0 0.0 9.650567836259e-04 
4.454863254968e-03 -7.177487498398e-05 0.0 
-7.177487498398e-05 -2.112759854875e-03 0.0 
0.0 0.0 2.300249469715e-05 
-2.512328637438e-04 1.813915165848e-04 0.0 
1.813915165848e-04 7.940455654103e-04 0.0 
0.0 0.0 3.599375917734e-04 
-4.240199739597e-03 9.038516302576e-03 0.0 
9.038516302576e-03 7.313937566661e-03 0.0 
0.0 0.0 2.719904502947e-04 
-3.420924828672e-03 9.389408949442e-03 0.0 
9.389408949442e-03 5.758993992547e-03 0.0 
0.0 0.0 2.946955489780e-04 
-3.799379462362e-03 7.563704722260e-03 0.0 
7.563704722260e-03 5.847885261865e-03 0.0 
0.0 0.0 3.083157117934e-04 
-2.968605265833e-03 8.317388514879e-03 0.0 
8.317388514879e-03 4.500409036367e-03 0.0 
0.0 0.0 3.346776800699e-04 
-3.089395822868e-03 6.997691757454e-03 0.0 
6.997691757454e-03 4.371346119591e-03 0.0 
0.0 0.0 3.356033916769e-04 
-2.569316466020e-03 7.492507952321e-03 0.0 
7.492507952321e-03 3.574470085678e-03 0.0 
0.0 0.0 3.613878872125e-04 
-2.391472529995e-03 8.431720003816e-03 0.0 
8.431720003816e-03 3.558371952022e-03 0.0 
0.0 0.0 3.553763934705e-04 
-2.116520574189e-03 7.658844310745e-03 0.0 
7.658844310745e-03 2.922246784211e-03 0.0 
0.0 0.0 3.824196892540e-04 
-1.880551674027e-03 8.432902246208e-03 0.0 
8.432902246208e-03 2.788067983516e-03 0.0 
0.0 0.0 3.764892608059e-04 
-2.695770825277e-03 6.511673610274e-03 0.0 
6.511673610274e-03 3.572890230774e-03 0.0 
0.0 0.0 3.675412611447e-04 
-1.649339270828e-03 7.786018277296e-03 0.0 
7.786018277296e-03 2.321773069925e-03 0.0 
0.0 0.0 4.045039025780e-04 
-1.394761046790e-03 8.400124501854e-03 0.0 
8.400124501854e-03 2.131842154943e-03 0.0 
0.0 0.0 3.978051965168e-04 
-1.154573179261e-03 7.975223083766e-03 0.0 
7.975223083766e-03 1.750233273890e-03 0.0 
0.0 0.0 4.252411371929e-04 
-9.182562755902e-04 8.347653510805e-03 0.0 
8.347653510805e-03 1.539580746992e-03 0.0 
0.0 0.0 4.178325962127e-04 
-1.071328445567e-03 8.946551062443e-03 0.0 
8.946551062443e-03 1.868344319597e-03 0.0 
0.0 0.0 3.879856483019e-04 
-5.915663367507e-04 8.752438819889e-03 0.0 
8.752438819889e-03 1.245947741660e-03 0.0 
0.0 0.0 4.092226908512e-04 
-6.711777455777e-04 9.473427497534e-03 0.0 
9.473427497534e-03 1.527233274794e-03 0.0 
0.0 0.0 3.792976889277e-04 
-1.912932142511e-04 9.118614219959e-03 0.0 
9.118614219959e-03 8.844487126570e-04 0.0 
0.0 0.0 4.014803592484e-04 
-7.336115335510e-05 8.652146975242e-03 0.0 
8.652146975242e-03 6.485870140525e-04 0.0 
0.0 0.0 4.310805717598e-04 
3.061510334014e-04 8.851243712858e-03 0.0 
8.851243712858e-03 2.844180625286e-04 0.0 
0.0 0.0 4.239962572612e-04 
2.880102314091e-04 9.378999668057e-03 0.0 
9.378999668057e-03 4.418949178872e-04 0.0 
0.0 0.0 3.928570556022e-04 
7.461527321986e-04 8.973110368740e-03 0.0 
8.973110368740e-03 -1.412679804051e-04 0.0 
0.0 0.0 4.160737229615e-04 
8.081830042731e-04 9.452668165109e-03 0.0 
9.452668165109e-03 -6.206037341540e-05 0.0 
0.0 0.0 3.837830851330e-04 
1.218957447391e-03 8.951162032868e-03 0.0 
8.951162032868e-03 -6.069204943711e-04 0.0 
0.0 0.0 4.079738458160e-04 
1.332670792215e-03 9.340902319660e-03 0.0 
9.340902319660e-03 -5.784062964700e-04 0.0 
0.0 0.0 3.733999957660e-04 
1.702738198518e-03 8.786729420857e-03 0.0 
8.786729420857e-03 -1.088238067952e-03 0.0 
0.0 0.0 4.001295681920e-04 
1.680891403832e-03 8.570328765812e-03 0.0 
8.570328765812e-03 -1.156238657652e-03 0.0 
0.0 0.0 4.326342209724e-04 
2.127681008681e-03 8.348263787677e-03 0.0 
8.348263787677e-03 -1.599211149251e-03 0.0 
0.0 0.0 4.262576030704e-04 
2.186642587470e-03 8.497907327760e-03 0.0 
8.497907327760e-03 -1.566201360006e-03 0.0 
0.0 0.0 3.924483994852e-04 
2.571715499047e-03 8.007419529434e-03 0.0 
8.007419529434e-03 -2.037063388958e-03 0.0 
0.0 0.0 4.186000143951e-04 
2.650935284171e-03 8.077630414310e-03 0.0 
8.077630414310e-03 -2.021125666599e-03 0.0 
0.0 0.0 3.834371505955e-04 
3.001032574544e-03 7.558579731677e-03 0.0 
7.558579731677e-03 -2.461810365466e-03 0.0 
0.0 0.0 4.111994534507e-04 
3.018049302372e-03 7.628280904964e-03 0.0 
7.628280904964e-03 -2.547039276457e-03 0.0 
0.0 0.0 4.437066287782e-04 
3.404283066224e-03 7.125214737728e-03 0.0 
7.125214737728e-03 -2.929385963461e-03 0.0 
0.0 0.0 4.370064047190e-04 
3.401562335943e-03 6.994753719074e-03 0.0 
6.994753719074e-03 -2.857390986409e-03 0.0 
0.0 0.0 4.028992119449e-04 
3.759314649366e-03 6.514727324058e-03 0.0 
6.514727324058e-03 -3.280419877764e-03 0.0 
0.0 0.0 4.289850841051e-04 
3.759624785421e-03 6.317737009364e-03 0.0 
6.317737009364e-03 -3.210582993906e-03 0.0 
0.0 0.0 3.931221980819e-04 
4.077569320850e-03 5.826088644815e-03 0.0 
5.826088644815e-03 -3.592218908577e-03 0.0 
0.0 0.0 4.197020491192e-04 
4.071668986790e-03 5.560929951864e-03 0.0 
5.560929951864e-03 -3.516140948705e-03 0.0 
0.0 0.0 3.824111649552e-04 
4.349962635723e-03 5.063799635204e-03 0.0 
5.063799635204e-03 -3.856542083542e-03 0.0 
0.0 0.0 4.089889499330e-04 
4.384700014318e-03 5.407109729616e-03 0.0 
5.407109729616e-03 -3.951258728525e-03 0.0 
0.0 0.0 4.437476802892e-04 
4.609109713455e-03 4.645595793751e-03 0.0 
4.645595793751e-03 -4.169321561033e-03 0.0 
0.0 0.0 4.335742571720e-04 
4.562283353124e-03 4.249384209815e-03 0.0 
4.249384209815e-03 -4.061068310575e-03 0.0 
0.0 0.0 3.970912967104e-04 
4.771705836970e-03 3.858040123022e-03 0.0 
3.858040123022e-03 -4.324416926605e-03 0.0 
0.0 0.0 4.212710815323e-04 
4.781400865263e-03 4.296896782308e-03 0.0 
4.296896782308e-03 -4.391733634282e-03 0.0 
0.0 0.0 4.538824165965e-04 
4.896369724025e-03 3.549786126143e-03 0.0 
3.549786126143e-03 -4.501008122470e-03 0.0 
0.0 0.0 4.416142854951e-04 
4.825794117156e-03 3.996211586801e-03 0.0 
3.996211586801e-03 -4.481812269341e-03 0.0 
0.0 0.0 4.691650030768e-04 
4.896894190699e-03 3.286478533100e-03 0.0 
3.286478533100e-03 -4.552589027265e-03 0.0 
0.0 0.0 4.559420413754e-04 
4.949956821845e-03 2.817032610027e-03 0.0 
2.817032610027e-03 -4.549483950607e-03 0.0 
0.0 0.0 4.269774222289e-04 
4.913546718426e-03 2.603056418023e-03 0.0 
2.603056418023e-03 -4.570916978484e-03 0.0 
0.0 0.0 4.411443887500e-04 
4.768862483059e-03 3.039565579702e-03 0.0 
3.039565579702e-03 -4.468957176445e-03 0.0 
0.0 0.0 4.693326818346e-04 
4.760714550089e-03 2.411332624151e-03 0.0 
2.411332624151e-03 -4.467002521181e-03 0.0 
0.0 0.0 4.526098533687e-04 
4.885682914096e-03 1.967089325239e-03 0.0 
1.967089325239e-03 -4.542534655039e-03 0.0 
0.0 0.0 4.252168862436e-04 
4.715483979961e-03 1.823818990520e-03 0.0 
1.823818990520e-03 -4.423941992167e-03 0.0 
0.0 0.0 4.361409981717e-04 
4.519421792160e-03 2.215518457198e-03 0.0 
2.215518457198e-03 -4.240778645337e-03 0.0 
0.0 0.0 4.746079331289e-04 
4.457827479635e-03 1.682939726346e-03 0.0 
1.682939726346e-03 -4.192445946689e-03 0.0 
0.0 0.0 4.537381918298e-04 
4.632221354460e-03 1.291945658905e-03 0.0 
1.291945658905e-03 -4.342331725957e-03 0.0 
0.0 0.0 4.183123750570e-04 
4.364811931945e-03 1.209834915345e-03 0.0 
1.209834915345e-03 -4.111589952170e-03 0.0 
0.0 0.0 4.317456732851e-04 
4.147631510501e-03 1.547397026594e-03 0.0 
1.547397026594e-03 -3.884639292025e-03 0.0 
0.0 0.0 4.787708791464e-04 
4.052509453972e-03 1.121081252013e-03 0.0 
1.121081252013e-03 -3.804612803803e-03 0.0 
0.0 0.0 4.545894915347e-04 
4.242644592020e-03 7.912128485586e-04 0.0 
7.912128485586e-04 -3.999069103725e-03 0.0 
0.0 0.0 4.098197517341e-04 
3.935100106758e-03 7.533098366139e-04 0.0 
7.533098366139e-04 -3.698997112904e-03 0.0 
0.0 0.0 4.307331458941e-04 
3.718406617515e-03 1.026071635113e-03 0.0 
1.026071635113e-03 -3.464167816039e-03 0.0 
0.0 0.0 4.820587960282e-04 
3.608799487625e-03 7.023969694352e-04 0.0 
7.023969694352e-04 -3.369163837779e-03 0.0 
0.0 0.0 4.564963374989e-04 
3.375902791613e-03 9.238495584302e-04 0.0 
9.238495584302e-04 -3.115390987607e-03 0.0 
0.0 0.0 5.095650510323e-04 
3.798010303573e-03 4.434568192916e-04 0.0 
4.434568192916e-04 -3.573989000832e-03 0.0 
0.0 0.0 4.064583281849e-04 
3.482769057185e-03 4.317702563478e-04 0.0 
4.317702563478e-04 -3.257236771845e-03 0.0 
0.0 0.0 4.297830673895e-04 
3.645386333185e-03 1.982093144026e-04 0.0 
1.982093144026e-04 -3.431835690165e-03 0.0 
0.0 0.0 3.804837923419e-04 
3.346085724909e-03 2.301094958771e-04 0.0 
2.301094958771e-04 -3.134081481648e-03 0.0 
0.0 0.0 4.021116472649e-04 
3.466935196958e-03 7.340249772145e-03 0.0 
7.340249772145e-03 -3.041921997041e-03 0.0 
0.0 0.0 4.673831117011e-04 
3.490349041853e-03 3.813517749810e-05 0.0 
3.813517749810e-05 -3.285618653846e-03 0.0 
0.0 0.0 3.540437918796e-04 
3.767486077002e-03 -3.430417066264e-05 0.0 
-3.430417066264e-05 -3.522592305491e-03 0.0 
0.0 0.0 3.446530894256e-04 
3.212659780322e-03 8.947914128672e-05 0.0 
8.947914128672e-05 -3.012465835482e-03 0.0 
0.0 0.0 3.746033560123e-04 
3.048670959849e-03 2.371665936010e-04 0.0 
2.371665936010e-04 -2.829087541482e-03 0.0 
0.0 0.0 4.280606493320e-04 
3.354823536407e-03 -5.939059345900e-05 0.0 
-5.939059345900e-05 -3.146845979485e-03 0.0 
0.0 0.0 3.308663191275e-04 
3.097799709395e-03 -2.646120036062e-06 0.0 
-2.646120036062e-06 -2.906309383849e-03 0.0 
0.0 0.0 3.475176447240e-04 
3.245598314917e-03 -9.793260620596e-05 0.0 
-9.793260620596e-05 -3.022521117488e-03 0.0 
0.0 0.0 3.098026678484e-04 
3.832668829711e-03 6.135911486822e-03 0.0 
6.135911486822e-03 -3.173081643301e-03 0.0 
0.0 0.0 3.536796343009e-04 
5.013664426979e-04 8.679951702189e-03 0.0 
8.679951702189e-03 1.927777126895e-05 0.0 
0.0 0.0 4.568448699359e-04 
3.013424945241e-03 -3.070133691350e-05 0.0 
-3.070133691350e-05 -2.825566582171e-03 0.0 
0.0 0.0 3.206006609324e-04 
3.173438901833e-03 -8.282545481424e-05 0.0 
-8.282545481424e-05 -2.923261349938e-03 0.0 
0.0 0.0 2.893485970729e-04 
3.370736044165e-03 -1.729556319539e-04 0.0 
-1.729556319539e-04 -3.053861452497e-03 0.0 
0.0 0.0 2.758623295061e-04 
3.318685589807e-03 -1.174460620257e-04 0.0 
-1.174460620257e-04 -2.945645611057e-03 0.0 
0.0 0.0 2.511024752978e-04 
-3.112963933059e-03 6.081208229380e-03 0.0 
6.081208229380e-03 4.146326727294e-03 0.0 
0.0 0.0 3.539006122969e-04 
-2.610249388118e-03 5.679254950187e-03 0.0 
5.679254950187e-03 3.352087164282e-03 0.0 
0.0 0.0 3.740612136365e-04 
-2.951658038165e-03 5.270009814429e-03 0.0 
5.270009814429e-03 3.843094173514e-03 0.0 
0.0 0.0 3.514593887951e-04 
-2.479167223755e-03 5.047301548244e-03 0.0 
5.047301548244e-03 3.133288367886e-03 0.0 
0.0 0.0 3.706822937688e-04 
-2.768793042214e-03 4.544236743562e-03 0.0 
4.544236743562e-03 3.509316319419e-03 0.0 
0.0 0.0 3.540007232747e-04 
3.153763148670e-03 -4.675791910297e-05 0.0 
-4.675791910297e-05 -2.857598910642e-03 0.0 
0.0 0.0 2.679007133096e-04 
-1.343089978622e-03 7.535100490432e-03 0.0 
7.535100490432e-03 1.898028598039e-03 0.0 
0.0 0.0 4.311983638819e-04 
-2.181598939119e-03 5.517250864707e-03 0.0 
5.517250864707e-03 2.760212934073e-03 0.0 
0.0 0.0 3.898938774317e-04 
4.148562529867e-04 1.004990922521e-02 0.0 
1.004990922521e-02 5.416000701627e-04 0.0 
0.0 0.0 3.571874649066e-04 
2.346496429401e-03 8.667085791059e-03 0.0 
8.667085791059e-03 -1.582276713402e-03 0.0 
0.0 0.0 3.543574230039e-04 
4.697725551848e-03 4.705902785847e-03 0.0 
4.705902785847e-03 -4.353170386379e-03 0.0 
0.0 0.0 4.804883926257e-04 
2.846687000201e-03 3.162233175526e-05 0.0 
3.162233175526e-05 -2.652508915728e-03 0.0 
0.0 0.0 3.702961899830e-04 
2.786533032735e-03 4.767752988060e-06 0.0 
4.767752988060e-06 -2.602802750700e-03 0.0 
0.0 0.0 3.393229693087e-04 
2.603711332498e-03 4.404959360717e-05 0.0 
4.404959360717e-05 -2.401259779380e-03 0.0 
0.0 0.0 3.955182683140e-04 
3.457168337762e-03 1.253696587324e-03 0.0 
1.253696587324e-03 -3.182169880589e-03 0.0 
0.0 0.0 5.352825418889e-04 
3.111542340959e-03 1.104427280029e-03 0.0 
1.104427280029e-03 -2.830303597418e-03 0.0 
0.0 0.0 5.632154102485e-04 
3.164351847565e-03 1.431472061218e-03 0.0 
1.431472061218e-03 -2.868793110134e-03 0.0 
0.0 0.0 5.892394252617e-04 
2.824612846406e-03 1.236226720701e-03 0.0 
1.236226720701e-03 -2.522806937495e-03 0.0 
0.0 0.0 6.172472179966e-04 
2.849920876245e-03 1.548842661848e-03 0.0 
1.548842661848e-03 -2.533971530207e-03 0.0 
0.0 0.0 6.436518818482e-04 
2.528384996200e-03 1.318923339569e-03 0.0 
1.318923339569e-03 -2.205859737061e-03 0.0 
0.0 0.0 6.712341898433e-04 
2.507028827342e-03 1.046318721119e-03 0.0 
1.046318721119e-03 -2.198463464743e-03 0.0 
0.0 0.0 6.444238463403e-04 
2.233333044964e-03 1.105957905841e-03 0.0 
1.105957905841e-03 -1.904373485141e-03 0.0 
0.0 0.0 6.990090926441e-04 
2.216827677033e-03 8.759862930043e-04 0.0 
8.759862930043e-04 -1.901502106603e-03 0.0 
0.0 0.0 6.715976335585e-04 
2.531615819509e-03 1.609256536378e-03 0.0 
1.609256536378e-03 -2.195187703087e-03 0.0 
0.0 0.0 6.980622158471e-04 
2.853279551012e-03 1.883795657568e-03 0.0 
1.883795657568e-03 -2.522678496767e-03 0.0 
0.0 0.0 6.691414167875e-04 
1.972395022811e-03 9.158992042592e-04 0.0 
9.158992042592e-04 -1.636547137228e-03 0.0 
0.0 0.0 7.259425176418e-04 
1.962227276043e-03 7.248890730086e-04 0.0 
7.248890730086e-04 -1.639496250868e-03 0.0 
0.0 0.0 6.977752129988e-04 
1.752355533906e-03 7.495159800518e-04 0.0 
7.495159800518e-04 -1.408582366172e-03 0.0 
0.0 0.0 7.513345639872e-04 
1.748922368219e-03 5.874902715650e-04 0.0 
5.874902715650e-04 -1.418324412403e-03 0.0 
0.0 0.0 7.231222859025e-04 
1.940665864132e-03 5.519160127348e-04 0.0 
5.519160127348e-04 -1.631201550222e-03 0.0 
0.0 0.0 6.695370026370e-04 
1.738100966034e-03 4.440966567961e-04 0.0 
4.440966567961e-04 -1.420599943902e-03 0.0 
0.0 0.0 6.944909014156e-04 
1.910462145425e-03 4.034763121965e-04 0.0 
4.034763121965e-04 -1.613876348179e-03 0.0 
0.0 0.0 6.409243415970e-04 
4.653096257097e-03 4.380878732460e-03 0.0 
4.380878732460e-03 -4.328352453163e-03 0.0 
0.0 0.0 5.046198425962e-04 
4.518430940276e-03 5.043462075799e-03 0.0 
5.043462075799e-03 -4.179562622075e-03 0.0 
0.0 0.0 5.218283046361e-04 
4.385220005141e-03 4.664457629232e-03 0.0 
4.664457629232e-03 -4.044094088869e-03 0.0 
0.0 0.0 5.559751440738e-04 
4.235770417624e-03 5.267169227105e-03 0.0 
5.267169227105e-03 -3.876749919496e-03 0.0 
0.0 0.0 5.754183968242e-04 
4.026923235360e-03 4.830572508226e-03 0.0 
4.830572508226e-03 -3.666143503391e-03 0.0 
0.0 0.0 6.105024043481e-04 
3.855533736903e-03 5.367585954821e-03 0.0 
5.367585954821e-03 -3.477357057119e-03 0.0 
0.0 0.0 6.307802840064e-04 
3.601835427379e-03 4.885727137502e-03 0.0 
4.885727137502e-03 -3.222635318575e-03 0.0 
0.0 0.0 6.668121508155e-04 
3.740754298230e-03 4.365210687614e-03 0.0 
4.365210687614e-03 -3.376800766783e-03 0.0 
0.0 0.0 6.433024614418e-04 
-6.356339064726e-04 8.186828754607e-03 0.0 
8.186828754607e-03 1.173687399459e-03 0.0 
0.0 0.0 4.465699302764e-04 
4.705101167138e-03 3.415580695920e-03 0.0 
3.415580695920e-03 -4.196435010214e-03 0.0 
0.0 0.0 3.834402427896e-04 
4.510695591259e-03 3.858462533857e-03 0.0 
3.858462533857e-03 -3.933990379428e-03 0.0 
0.0 0.0 3.578777770644e-04 
4.616510615333e-03 2.973873834180e-03 0.0 
2.973873834180e-03 -4.029222494845e-03 0.0 
0.0 0.0 3.434198559424e-04 
4.476215963168e-03 3.458079265366e-03 0.0 
3.458079265366e-03 -3.783427286752e-03 0.0 
0.0 0.0 3.179818419881e-04 
4.527391026309e-03 2.523302487633e-03 0.0 
2.523302487633e-03 -3.826691031326e-03 0.0 
0.0 0.0 3.027890284445e-04 
4.406243238142e-03 2.997492730737e-03 0.0 
2.997492730737e-03 -3.583956578784e-03 0.0 
0.0 0.0 2.754422919934e-04 
4.390506978580e-03 2.031603920979e-03 0.0 
2.031603920979e-03 -3.569977893488e-03 0.0 
0.0 0.0 2.596207758571e-04 
4.501150807259e-03 1.647321650762e-03 0.0 
1.647321650762e-03 -3.794195427645e-03 0.0 
0.0 0.0 2.858945654947e-04 
4.293576907725e-03 1.161170699866e-03 0.0 
1.161170699866e-03 -3.480082133865e-03 0.0 
0.0 0.0 2.423149269081e-04 
4.400824366954e-03 8.602808107953e-04 0.0 
8.602808107953e-04 -3.687732735413e-03 0.0 
0.0 0.0 2.661930511367e-04 
4.133365597260e-03 4.067906413856e-04 0.0 
4.067906413856e-04 -3.322270761022e-03 0.0 
0.0 0.0 2.214697872174e-04 
4.247651882306e-03 1.980081848672e-04 0.0 
1.980081848672e-04 -3.526946337411e-03 0.0 
0.0 0.0 2.447145464270e-04 
2.214323581381e-03 8.355784366886e-03 0.0 
8.355784366886e-03 -1.745061068656e-03 0.0 
0.0 0.0 4.587905153312e-04 
4.040737450098e-03 5.874650055314e-03 0.0 
5.874650055314e-03 -3.663173729397e-03 0.0 
0.0 0.0 5.937643496805e-04 
3.645077366656e-03 5.932090264661e-03 0.0 
5.932090264661e-03 -3.248333130472e-03 0.0 
0.0 0.0 6.494927431166e-04 
3.819169074191e-03 6.470884247359e-03 0.0 
6.470884247359e-03 -3.423274063083e-03 0.0 
0.0 0.0 6.122664780838e-04 
3.469216769130e-03 -2.070080418337e-04 0.0 
-2.070080418337e-04 -2.998746911003e-03 0.0 
0.0 0.0 2.316020917552e-04 
1.578837947179e-03 4.692385295785e-04 0.0 
4.692385295785e-04 -1.239974295666e-03 0.0 
0.0 0.0 7.478868792428e-04 
2.513203060899e-03 1.912463329677e-03 0.0 
1.912463329677e-03 -2.162198688461e-03 0.0 
0.0 0.0 7.237825361469e-04 
2.833463979461e-03 2.234993830438e-03 0.0 
2.234993830438e-03 -2.488743365920e-03 0.0 
0.0 0.0 6.948835902233e-04 
3.302653902960e-03 4.393285466104e-03 0.0 
4.393285466104e-03 -2.919822049415e-03 0.0 
0.0 0.0 6.992406568996e-04 
3.334195103590e-03 -5.536051869480e-05 0.0 
-5.536051869480e-05 -2.871977420932e-03 0.0 
0.0 0.0 2.245280992890e-04 
4.229354863379e-03 2.443564110997e-03 0.0 
2.443564110997e-03 -3.304221670998e-03 0.0 
0.0 0.0 2.306704189929e-04 
4.219673919051e-03 3.476146652293e-03 0.0 
3.476146652293e-03 -3.284343702801e-03 0.0 
0.0 0.0 2.432830577979e-04 
-2.356816758521e-03 4.547254176528e-03 0.0 
4.547254176528e-03 2.915212452692e-03 0.0 
0.0 0.0 3.680425188170e-04 
-2.609969561731e-03 3.981013111424e-03 0.0 
3.981013111424e-03 3.234958845759e-03 0.0 
0.0 0.0 3.478648781829e-04 
2.473435653207e-03 2.229635547929e-03 0.0 
2.229635547929e-03 -2.108292649422e-03 0.0 
0.0 0.0 7.502100861546e-04 
3.201348842476e-03 3.458628673900e-06 0.0 
3.458628673900e-06 -2.832446036125e-03 0.0 
0.0 0.0 2.443601536802e-04 
1.966571505616e-03 1.123881268232e-03 0.0 
1.123881268232e-03 -1.617135321641e-03 0.0 
0.0 0.0 7.535230313999e-04 
3.959001325412e-03 6.332031265615e-04 0.0 
6.332031265615e-04 -3.069866870310e-03 0.0 
0.0 0.0 1.973083848560e-04 
1.577096377310e-03 3.516488946642e-04 0.0 
3.516488946642e-04 -1.251230215481e-03 0.0 
0.0 0.0 7.191000649734e-04 
1.450395810600e-03 3.723490839246e-04 0.0 
3.723490839246e-04 -1.103238810855e-03 0.0 
0.0 0.0 7.725407961660e-04 
2.469668206467e-03 8.037165510374e-04 0.0 
8.037165510374e-04 -2.174774578546e-03 0.0 
0.0 0.0 6.172433365814e-04 
3.418719948257e-03 6.492909966334e-03 0.0 
6.492909966334e-03 -3.004281942548e-03 0.0 
0.0 0.0 6.696136060777e-04 
3.582469461003e-03 7.043865926059e-03 0.0 
7.043865926059e-03 -3.168443364135e-03 0.0 
0.0 0.0 6.299526831067e-04 
4.506511423298e-03 6.509842822924e-04 0.0 
6.509842822924e-04 -3.886086967419e-03 0.0 
0.0 0.0 2.899411682711e-04 
4.365112193245e-03 1.013256124627e-04 0.0 
1.013256124627e-04 -3.725438229900e-03 0.0 
0.0 0.0 2.672867831088e-04 
4.054323927994e-03 -2.986484897444e-04 0.0 
-2.986484897444e-04 -3.321051918998e-03 0.0 
0.0 0.0 2.207682197933e-04 
4.172382252025e-03 -3.456634429585e-04 0.0 
-3.456634429585e-04 -3.522757609895e-03 0.0 
0.0 0.0 2.454673955408e-04 
4.487973200005e-03 4.016576309409e-05 0.0 
4.016576309409e-05 -3.921061205685e-03 0.0 
0.0 0.0 2.905025254163e-04 
4.291543743612e-03 -3.638870892010e-04 0.0 
-3.638870892010e-04 -3.699411659764e-03 0.0 
0.0 0.0 2.652613360983e-04 
3.958694627285e-03 -6.834797938358e-04 0.0 
-6.834797938358e-04 -3.274100336315e-03 0.0 
0.0 0.0 2.176714767940e-04 
4.079046487336e-03 -6.073504616164e-04 0.0 
-6.073504616164e-04 -3.454125023373e-03 0.0 
0.0 0.0 2.389469840241e-04 
4.345423249780e-03 -3.089626422977e-04 0.0 
-3.089626422977e-04 -3.825088221129e-03 0.0 
0.0 0.0 2.863827169560e-04 
4.131692820697e-03 -5.356635498802e-04 0.0 
-5.356635498802e-04 -3.579536058143e-03 0.0 
0.0 0.0 2.594449917125e-04 
3.844616608921e-03 -7.366445636050e-04 0.0 
-7.366445636050e-04 -3.177230947055e-03 0.0 
0.0 0.0 2.103701629816e-04 
3.918682299471e-03 -6.104050417000e-04 0.0 
-6.104050417000e-04 -3.319703120258e-03 0.0 
0.0 0.0 2.311637262915e-04 
1.438107187923e-03 4.837505169850e-04 0.0 
4.837505169850e-04 -1.077913789875e-03 0.0 
0.0 0.0 8.009500360693e-04 
3.726634781807e-03 -4.635969923169e-05 0.0 
-4.635969923169e-05 -2.844820013470e-03 0.0 
0.0 0.0 1.751379534325e-04 
-1.158822003984e-03 9.898757556555e-03 0.0 
9.898757556555e-03 2.277109432893e-03 0.0 
0.0 0.0 3.572033999488e-04 
2.183134148799e-03 1.896389259877e-03 0.0 
1.896389259877e-03 -1.812875767850e-03 0.0 
0.0 0.0 7.801115219112e-04 
3.149693124645e-03 4.876597260395e-03 0.0 
4.876597260395e-03 -2.753035794551e-03 0.0 
0.0 0.0 7.237356645683e-04 
-2.217207705762e-03 4.104230062668e-03 0.0 
4.104230062668e-03 2.736422664935e-03 0.0 
0.0 0.0 3.711274921218e-04 
-2.410583109155e-03 3.591765206031e-03 0.0 
3.591765206031e-03 2.965812627140e-03 0.0 
0.0 0.0 3.455129578159e-04 
-2.800759739610e-03 3.330615425220e-03 0.0 
3.330615425220e-03 3.498665738707e-03 0.0 
0.0 0.0 3.272691057277e-04 
-2.508744065627e-03 3.007048145558e-03 0.0 
3.007048145558e-03 3.102068724016e-03 0.0 
0.0 0.0 3.228495943145e-04 
-2.090006141035e-03 3.244617844522e-03 0.0 
3.244617844522e-03 2.624457318337e-03 0.0 
0.0 0.0 3.550556361588e-04 
-2.161694315896e-03 2.656811604802e-03 0.0 
2.656811604802e-03 2.716905560471e-03 0.0 
0.0 0.0 3.267154836489e-04 
-2.520607357653e-03 2.412767345490e-03 0.0 
2.412767345490e-03 3.146690147784e-03 0.0 
0.0 0.0 2.939991207941e-04 
-2.194229001545e-03 2.119587828669e-03 0.0 
2.119587828669e-03 2.768381348043e-03 0.0 
0.0 0.0 2.984437720122e-04 
-2.531571301790e-03 1.896792718423e-03 0.0 
1.896792718423e-03 3.189863392420e-03 0.0 
0.0 0.0 2.693662651602e-04 
-2.228447026222e-03 1.681469177945e-03 0.0 
1.681469177945e-03 2.820758762833e-03 0.0 
0.0 0.0 2.705163835583e-04 
-1.846252298721e-03 1.805127665944e-03 0.0 
1.805127665944e-03 2.400348737503e-03 0.0 
0.0 0.0 3.127758572794e-04 
-1.887363638766e-03 1.462552300059e-03 0.0 
1.462552300059e-03 2.440661193545e-03 0.0 
0.0 0.0 2.852927153469e-04 
-2.247749119947e-03 1.321968266507e-03 0.0 
1.321968266507e-03 2.857062222126e-03 0.0 
0.0 0.0 2.447564394085e-04 
-1.930992177041e-03 1.173186093957e-03 0.0 
1.173186093957e-03 2.496697825457e-03 0.0 
0.0 0.0 2.559116160952e-04 
-2.268153922891e-03 1.048786831031e-03 0.0 
1.048786831031e-03 2.903374841964e-03 0.0 
0.0 0.0 2.221683332990e-04 
-1.989771371599e-03 9.533731897061e-04 0.0 
9.533731897061e-04 2.575781951784e-03 0.0 
0.0 0.0 2.310581416157e-04 
-1.611989627740e-03 1.030550061584e-03 0.0 
1.030550061584e-03 2.142442022827e-03 0.0 
0.0 0.0 2.820809621615e-04 
3.419794974668e-03 -1.203641393920e-06 0.0 
-1.203641393920e-06 -2.831883218123e-03 0.0 
0.0 0.0 1.987586486800e-04 
3.420911937440e-03 3.904611859895e-03 0.0 
3.904611859895e-03 -3.054886027587e-03 0.0 
0.0 0.0 6.779262687389e-04 
2.963529327612e-03 3.895940735379e-03 0.0 
3.895940735379e-03 -2.580649690865e-03 0.0 
0.0 0.0 7.375247203287e-04 
2.562659510579e-03 -6.843158851077e-07 0.0 
-6.843158851077e-07 -2.368312599576e-03 0.0 
0.0 0.0 3.643331530560e-04 
2.375778874372e-03 4.623365685219e-05 0.0 
4.623365685219e-05 -2.169208713320e-03 0.0 
0.0 0.0 4.226192019523e-04 
2.415339484194e-03 1.174448515556e-04 0.0 
1.174448515556e-04 -2.193351644719e-03 0.0 
0.0 0.0 4.503225925794e-04 
2.168487011341e-03 8.712056431131e-05 0.0 
8.712056431131e-05 -1.936412399291e-03 0.0 
0.0 0.0 4.744850179074e-04 
-1.691287263430e-03 7.934380177927e-04 0.0 
7.934380177927e-04 2.231375198550e-03 0.0 
0.0 0.0 2.522707829624e-04 
-1.313065454772e-03 9.252840866178e-04 0.0 
9.252840866178e-04 1.822443168354e-03 0.0 
0.0 0.0 3.066150634535e-04 
3.963639713278e-03 2.826709671947e-03 0.0 
2.826709671947e-03 -2.956639182387e-03 0.0 
0.0 0.0 1.967242945995e-04 
3.918492158561e-03 3.855695907651e-03 0.0 
3.855695907651e-03 -2.903896777237e-03 0.0 
0.0 0.0 2.070406180178e-04 
-1.912549147626e-03 4.810000947604e-03 0.0 
4.810000947604e-03 2.437369396092e-03 0.0 
0.0 0.0 4.010361287842e-04 
1.456237077224e-03 2.720237325247e-04 0.0 
2.720237325247e-04 -1.121224502456e-03 0.0 
0.0 0.0 7.432252272538e-04 
1.568237364318e-03 2.507655567496e-04 0.0 
2.507655567496e-04 -1.255127257613e-03 0.0 
0.0 0.0 6.900178490272e-04 
2.803423443378e-03 8.132724113101e-03 0.0 
8.132724113101e-03 -2.033681869072e-03 0.0 
0.0 0.0 3.442779361224e-04 
2.520374585977e-03 8.699461416429e-03 0.0 
8.699461416429e-03 -1.582901584435e-03 0.0 
0.0 0.0 3.108842621087e-04 
2.947730168406e-03 8.031086536939e-03 0.0 
8.031086536939e-03 -2.015456516351e-03 0.0 
0.0 0.0 3.000914168531e-04 
2.601522613489e-03 8.413524246657e-03 0.0 
8.413524246657e-03 -1.514397565340e-03 0.0 
0.0 0.0 2.605940792802e-04 
2.193335972913e-03 9.167754737689e-03 0.0 
9.167754737689e-03 -1.063002107758e-03 0.0 
0.0 0.0 2.737135494709e-04 
2.972483688337e-03 7.619237581264e-03 0.0 
7.619237581264e-03 -1.914545224482e-03 0.0 
0.0 0.0 2.492014951653e-04 
3.204366109584e-03 2.176204408865e-03 0.0 
2.176204408865e-03 -2.879371325333e-03 0.0 
0.0 0.0 6.388805219965e-04 
-1.511831566298e-03 1.613695881610e-03 0.0 
1.613695881610e-03 2.034594955103e-03 0.0 
0.0 0.0 3.410339300179e-04 
3.549142744827e-03 -2.743139958066e-04 0.0 
-2.743139958066e-04 -3.151092301806e-03 0.0 
0.0 0.0 2.589462789915e-04 
3.574862002578e-03 -3.114388534067e-04 0.0 
-3.114388534067e-04 -2.998972883100e-03 0.0 
0.0 0.0 2.120482354496e-04 
1.355036465084e-03 2.887034342138e-04 0.0 
2.887034342138e-04 -9.984799686590e-04 0.0 
0.0 0.0 7.960586218392e-04 
3.838669690528e-03 3.832200443636e-03 0.0 
3.832200443636e-03 -3.491865664397e-03 0.0 
0.0 0.0 6.222640208071e-04 
1.822673346882e-03 8.575897570517e-03 0.0 
8.575897570517e-03 -1.349298232478e-03 0.0 
0.0 0.0 4.674487360159e-04 
2.395599614034e-03 8.543452915916e-03 0.0 
8.543452915916e-03 -1.950228219600e-03 0.0 
0.0 0.0 4.983789329960e-04 
2.053730399644e-03 8.793993732463e-03 0.0 
8.793993732463e-03 -1.596571319025e-03 0.0 
0.0 0.0 5.095968177986e-04 
2.551597222511e-03 8.802750446689e-03 0.0 
8.802750446689e-03 -2.102802802721e-03 0.0 
0.0 0.0 5.478525652540e-04 
2.238317707811e-03 9.084832570889e-03 0.0 
9.084832570889e-03 -1.769189872271e-03 0.0 
0.0 0.0 5.623466026838e-04 
2.582395795054e-03 9.020279338534e-03 0.0 
9.020279338534e-03 -2.116475614066e-03 0.0 
0.0 0.0 6.046505458279e-04 
2.880184509870e-03 8.666014808382e-03 0.0 
8.666014808382e-03 -2.430591565935e-03 0.0 
0.0 0.0 5.848080956508e-04 
3.195099226491e-03 7.034280652689e-03 0.0 
7.034280652689e-03 -2.762251271219e-03 0.0 
0.0 0.0 6.877485839640e-04 
2.737865022647e-03 8.754683559014e-03 0.0 
8.754683559014e-03 -2.270494575441e-03 0.0 
0.0 0.0 6.410975733908e-04 
-2.090784764169e-03 7.180280402871e-04 0.0 
7.180280402871e-04 2.700285623848e-03 0.0 
0.0 0.0 2.107607632029e-04 
4.118449869840e-03 6.337956239141e-03 0.0 
6.337956239141e-03 -3.742213121799e-03 0.0 
0.0 0.0 5.570042916260e-04 
4.312768383149e-03 -2.523667953135e-04 0.0 
-2.523667953135e-04 -3.870302631744e-03 0.0 
0.0 0.0 3.053640450716e-04 
3.513161375178e-03 -4.037173828814e-05 0.0 
-4.037173828814e-05 -2.793819127465e-03 0.0 
0.0 0.0 1.760772266439e-04 
3.664750073096e-03 -7.472675551333e-04 0.0 
-7.472675551333e-04 -2.907650031622e-03 0.0 
0.0 0.0 1.786652739547e-04 
3.308693292276e-03 3.977434002961e-05 0.0 
3.977434002961e-05 -2.831324042349e-03 0.0 
0.0 0.0 2.174336961491e-04 
3.062771719792e-03 2.347390365484e-05 0.0 
2.347390365484e-05 -2.766795966960e-03 0.0 
0.0 0.0 2.611359076051e-04 
2.126270172500e-03 2.179449112123e-03 0.0 
2.179449112123e-03 -1.742222711582e-03 0.0 
0.0 0.0 8.076982330640e-04 
2.267152863434e-03 9.356712725572e-03 0.0 
9.356712725572e-03 -1.780827194072e-03 0.0 
0.0 0.0 6.196449973633e-04 
1.938739069166e-03 9.390715320112e-03 0.0 
9.390715320112e-03 -1.451114000294e-03 0.0 
0.0 0.0 5.788236127025e-04 
2.185179442007e-03 8.635137277420e-03 0.0 
8.635137277420e-03 -9.125205225426e-04 0.0 
0.0 0.0 2.186087217655e-04 
1.799082116985e-03 9.441752138115e-03 0.0 
9.441752138115e-03 -4.393826715063e-04 0.0 
0.0 0.0 2.326230122421e-04 
2.966752451336e-03 6.375355030857e-03 0.0 
6.375355030857e-03 -2.533420555761e-03 0.0 
0.0 0.0 7.266562994186e-04 
-3.374133947978e-03 4.590895724413e-03 0.0 
4.590895724413e-03 4.441073718356e-03 0.0 
0.0 0.0 3.356079893152e-04 
-2.828633102020e-03 2.069382275777e-03 0.0 
2.069382275777e-03 3.623160776121e-03 0.0 
0.0 0.0 2.712725713563e-04 
-2.823207360454e-03 1.559945837052e-03 0.0 
1.559945837052e-03 3.691588874477e-03 0.0 
0.0 0.0 2.417835258543e-04 
3.591811122652e-03 5.828816337906e-05 0.0 
5.828816337906e-05 -2.782467903443e-03 0.0 
0.0 0.0 1.630555737792e-04 
3.508774629770e-03 -8.831353704538e-04 0.0 
-8.831353704538e-04 -2.700196367806e-03 0.0 
0.0 0.0 1.583603188796e-04 
-1.705926481931e-03 2.860035178061e-03 0.0 
2.860035178061e-03 2.249773222685e-03 0.0 
0.0 0.0 3.749741996472e-04 
4.110762347312e-03 4.490642244077e-03 0.0 
4.490642244077e-03 -3.175196339987e-03 0.0 
0.0 0.0 2.546167623283e-04 
3.785443395893e-03 4.881382443775e-03 0.0 
4.881382443775e-03 -2.763454159193e-03 0.0 
0.0 0.0 2.168459435877e-04 
3.457646735930e-03 9.531085598200e-05 0.0 
9.531085598200e-05 -2.525677604920e-03 0.0 
0.0 0.0 1.501193709530e-04 
3.160711554704e-03 -4.480031758959e-04 0.0 
-4.480031758959e-04 -2.235946432903e-03 0.0 
0.0 0.0 1.260326327929e-04 
-1.415329725658e-03 6.438275805274e-04 0.0 
6.438275805274e-04 1.931071203876e-03 0.0 
0.0 0.0 2.763761387799e-04 
-1.038567286816e-03 7.403989018038e-04 0.0 
7.403989018038e-04 1.567753283036e-03 0.0 
0.0 0.0 3.333846344589e-04 
2.222435951044e-03 1.644836587078e-04 0.0 
1.644836587078e-04 -1.978459601855e-03 0.0 
0.0 0.0 5.037944410020e-04 
1.980752829329e-03 1.331849465224e-04 0.0 
1.331849465224e-04 -1.729475147537e-03 0.0 
0.0 0.0 5.300477181962e-04 
2.410123434820e-03 2.564096495119e-03 0.0 
2.564096495119e-03 -2.029484726927e-03 0.0 
0.0 0.0 7.748998161085e-04 
3.751510110045e-03 -6.187266735709e-04 0.0 
-6.187266735709e-04 -3.080274323969e-03 0.0 
0.0 0.0 2.023567128977e-04 
-9.571554757429e-04 9.996420965919e-04 0.0 
9.996420965919e-04 1.481517680098e-03 0.0 
0.0 0.0 3.625197046088e-04 
3.498128387313e-03 3.425792696524e-03 0.0 
3.425792696524e-03 -3.147028043234e-03 0.0 
0.0 0.0 6.536325446889e-04 
3.896783426284e-03 3.302832927551e-03 0.0 
3.302832927551e-03 -3.565798956487e-03 0.0 
0.0 0.0 5.991093094152e-04 
2.138887107888e-03 5.290186497598e-05 0.0 
5.290186497598e-05 -1.917029443447e-03 0.0 
0.0 0.0 4.417100630362e-04 
3.489903470121e-03 3.050100788066e-03 0.0 
3.050100788066e-03 -2.475118531070e-03 0.0 
0.0 0.0 1.586266782093e-04 
3.498302191873e-03 2.053548493352e-03 0.0 
2.053548493352e-03 -2.488578717686e-03 0.0 
0.0 0.0 1.496032720748e-04 
4.509695819030e-03 3.855749067508e-05 0.0 
3.855749067508e-05 -4.082377577236e-03 0.0 
0.0 0.0 3.302218484919e-04 
3.910731892793e-03 -4.970350117667e-04 0.0 
-4.970350117667e-04 -3.400180779460e-03 0.0 
0.0 0.0 2.525415446748e-04 
3.207032605292e-03 3.591816482234e-05 0.0 
3.591816482234e-05 -2.821480576886e-03 0.0 
0.0 0.0 2.378483630772e-04 
2.048904679168e-03 2.485722588037e-03 0.0 
2.485722588037e-03 -1.651471643594e-03 0.0 
0.0 0.0 8.350324956710e-04 
-1.593934590103e-03 3.523556735730e-03 0.0 
3.523556735730e-03 2.127093044478e-03 0.0 
0.0 0.0 4.045644302167e-04 
3.034330061235e-03 8.332664515753e-03 0.0 
8.332664515753e-03 -2.586033200212e-03 0.0 
0.0 0.0 6.254282008838e-04 
3.184882764731e-03 8.248900083393e-03 0.0 
8.248900083393e-03 -2.755390846694e-03 0.0 
0.0 0.0 5.695468192352e-04 
2.776707087643e-03 8.321360052312e-03 0.0 
8.321360052312e-03 -2.310548734537e-03 0.0 
0.0 0.0 6.829558964789e-04 
3.477446542667e-03 -6.520682092827e-04 0.0 
-6.520682092827e-04 -2.635995077959e-03 0.0 
0.0 0.0 1.508148743455e-04 
1.853442333106e-03 1.805506912145e-03 0.0 
1.805506912145e-03 -1.462877765924e-03 0.0 
0.0 0.0 8.364484444695e-04 
1.366265315150e-03 2.001040195986e-04 0.0 
2.001040195986e-04 -1.022697463703e-03 0.0 
0.0 0.0 7.672701003609e-04 
1.961273077168e-03 9.767039246699e-03 0.0 
9.767039246699e-03 -1.458208487174e-03 0.0 
0.0 0.0 6.347429860328e-04 
1.661307855415e-03 9.685100624616e-03 0.0 
9.685100624616e-03 -1.154186856114e-03 0.0 
0.0 0.0 5.940216722229e-04 
3.920719192273e-03 5.476050295531e-03 0.0 
5.476050295531e-03 -2.983327459078e-03 0.0 
0.0 0.0 2.649138087957e-04 
3.571586758657e-03 5.844298593071e-03 0.0 
5.844298593071e-03 -2.542842458334e-03 0.0 
0.0 0.0 2.265793263470e-04 
3.246513636258e-03 5.008366265929e-03 0.0 
5.008366265929e-03 -2.198903489543e-03 0.0 
0.0 0.0 1.746204866885e-04 
3.039051906759e-03 5.938412544380e-03 0.0 
5.938412544380e-03 -1.958701090404e-03 0.0 
0.0 0.0 1.833614897029e-04 
-2.061716454044e-03 9.397640714817e-03 0.0 
9.397640714817e-03 3.397772493355e-03 0.0 
0.0 0.0 3.425607164973e-04 
3.650927556848e-03 6.399362321523e-03 0.0 
6.399362321523e-03 -2.716469277542e-03 0.0 
0.0 0.0 2.757603881720e-04 
-6.143689867862e-04 1.047846037332e-02 0.0 
1.047846037332e-02 1.832798498700e-03 0.0 
0.0 0.0 3.428519737872e-04 
-1.099293436761e-03 1.113427718748e-02 0.0 
1.113427718748e-02 2.755396604867e-03 0.0 
0.0 0.0 3.166729664001e-04 
-3.987418234453e-04 1.138608475710e-02 0.0 
1.138608475710e-02 2.075303839991e-03 0.0 
0.0 0.0 2.986729057691e-04 
1.716588993905e-03 9.782270298048e-03 0.0 
9.782270298048e-03 -5.435323825613e-04 0.0 
0.0 0.0 2.862032971043e-04 
1.356750902323e-03 1.017890880887e-02 0.0 
1.017890880887e-02 1.016115363965e-04 0.0 
0.0 0.0 2.475444123976e-04 
4.339578987242e-03 4.400541616205e-03 0.0 
4.400541616205e-03 -3.656033215917e-03 0.0 
0.0 0.0 3.307098416124e-04 
4.517926835152e-03 5.410367705357e-03 0.0 
5.410367705357e-03 -4.167229006771e-03 0.0 
0.0 0.0 4.922803436960e-04 
2.486330044635e-03 2.033016663170e-04 0.0 
2.033016663170e-04 -2.251459311420e-03 0.0 
0.0 0.0 4.795735543774e-04 
2.142701854704e-03 4.907942143027e-04 0.0 
4.907942143027e-04 -1.853817514475e-03 0.0 
0.0 0.0 6.155749424819e-04 
3.517516932571e-03 1.628072931164e-03 0.0 
1.628072931164e-03 -3.227674295533e-03 0.0 
0.0 0.0 5.602458472315e-04 
-1.460571903847e-03 2.021934230631e-03 0.0 
2.021934230631e-03 2.009070445845e-03 0.0 
0.0 0.0 3.656660202599e-04 
-1.134904176562e-03 1.925604208314e-03 0.0 
1.925604208314e-03 1.670067019811e-03 0.0 
0.0 0.0 3.869365055714e-04 
-2.542053609223e-03 1.097438144899e-03 0.0 
1.097438144899e-03 3.293025313270e-03 0.0 
0.0 0.0 2.226741629696e-04 
-2.590285882763e-03 8.399558138253e-04 0.0 
8.399558138253e-04 3.427494936613e-03 0.0 
0.0 0.0 2.052120675659e-04 
3.546797385970e-03 -2.118085428064e-04 0.0 
-2.118085428064e-04 -2.840799960329e-03 0.0 
0.0 0.0 1.817818402233e-04 
3.577020315853e-03 -3.209092947573e-04 0.0 
-3.209092947573e-04 -2.748317136378e-03 0.0 
0.0 0.0 1.600308592487e-04 
3.040300234308e-03 8.161014695531e-04 0.0 
8.161014695531e-04 -2.773111569839e-03 0.0 
0.0 0.0 5.367295888261e-04 
1.912515027782e-03 1.582298546179e-03 0.0 
1.582298546179e-03 -1.537467913263e-03 0.0 
0.0 0.0 8.098185053273e-04 
-1.675790856527e-03 4.451504963461e-03 0.0 
4.451504963461e-03 2.215473642237e-03 0.0 
0.0 0.0 4.119386313512e-04 
-1.301225957542e-03 5.533833035647e-03 0.0 
5.533833035647e-03 1.875129127863e-03 0.0 
0.0 0.0 4.475908772700e-04 
-1.562653901168e-03 5.647375327552e-03 0.0 
5.647375327552e-03 2.108454728041e-03 0.0 
0.0 0.0 4.338613127458e-04 
2.327429391238e-03 2.912208495555e-03 0.0 
2.912208495555e-03 -1.933669351042e-03 0.0 
0.0 0.0 8.019778523993e-04 
4.778601903306e-03 2.601337042525e-03 0.0 
2.601337042525e-03 -4.261638364791e-03 0.0 
0.0 0.0 3.682257559287e-04 
4.482836142106e-03 4.034088867224e-03 0.0 
4.034088867224e-03 -4.158932958125e-03 0.0 
0.0 0.0 5.353899528084e-04 
3.458964186727e-03 -5.077522793556e-04 0.0 
-5.077522793556e-04 -2.574395069757e-03 0.0 
0.0 0.0 1.514235595865e-04 
3.111216863703e-03 7.812295422042e-03 0.0 
7.812295422042e-03 -2.683581046593e-03 0.0 
0.0 0.0 4.760902257405e-04 
3.593946806215e-03 -1.882334246491e-04 0.0 
-1.882334246491e-04 -2.576660314507e-03 0.0 
0.0 0.0 1.295450287343e-04 
2.111113483195e-04 8.615685027528e-03 0.0 
8.615685027528e-03 3.084216707059e-04 0.0 
0.0 0.0 4.646770660604e-04 
1.280261704372e-03 2.113481964076e-04 0.0 
2.113481964076e-04 -9.147990526524e-04 0.0 
0.0 0.0 8.202016799728e-04 
1.259979562643e-03 2.960389296897e-04 0.0 
2.960389296897e-04 -8.811691392630e-04 0.0 
0.0 0.0 8.477618353124e-04 
2.731716580582e-03 6.844661940139e-03 0.0 
6.844661940139e-03 -2.281131674481e-03 0.0 
0.0 0.0 7.456531619654e-04 
-3.165618743542e-03 1.117974830009e-02 0.0 
1.117974830009e-02 5.857238870867e-03 0.0 
0.0 0.0 3.002944713290e-04 
3.516986345927e-03 7.601216742584e-03 0.0 
7.601216742584e-03 -3.113438452337e-03 0.0 
0.0 0.0 5.031744874161e-04 
3.824832425178e-03 7.050340706705e-03 0.0 
7.050340706705e-03 -3.432077571125e-03 0.0 
0.0 0.0 4.910619724179e-04 
-8.368273424790e-04 1.209780144177e-02 0.0 
1.209780144177e-02 3.061350281305e-03 0.0 
0.0 0.0 2.661877386686e-04 
-1.285806984120e-04 1.183223903229e-02 0.0 
1.183223903229e-02 2.260845639770e-03 0.0 
0.0 0.0 2.440798872984e-04 
2.561516414819e-04 1.124956518631e-02 0.0 
1.124956518631e-02 1.382717508268e-03 0.0 
0.0 0.0 2.805086398472e-04 
4.589219405606e-04 1.121690984149e-02 0.0 
1.121690984149e-02 1.518147977179e-03 0.0 
0.0 0.0 2.244193726168e-04 
4.393585192222e-03 7.564440420203e-05 0.0 
7.564440420203e-05 -4.034915941410e-03 0.0 
0.0 0.0 3.465002021026e-04 
4.202034344218e-03 -1.671405768663e-04 0.0 
-1.671405768663e-04 -3.830627869933e-03 0.0 
0.0 0.0 3.227904853759e-04 
2.091162163448e-03 9.600829052796e-03 0.0 
9.600829052796e-03 -1.581467604404e-03 0.0 
0.0 0.0 6.768509374076e-04 
2.472523484719e-03 8.841849033124e-03 0.0 
8.841849033124e-03 -1.985849311457e-03 0.0 
0.0 0.0 6.967069398908e-04 
1.728711543383e-03 1.008849436940e-02 0.0 
1.008849436940e-02 -1.199676243658e-03 0.0 
0.0 0.0 6.443818091828e-04 
1.451513969845e-03 1.001767043522e-02 0.0 
1.001767043522e-02 -9.196086059263e-04 0.0 
0.0 0.0 6.069774860696e-04 
2.536072413665e-03 6.141938322964e-03 0.0 
6.141938322964e-03 -2.083924292302e-03 0.0 
0.0 0.0 7.837631698493e-04 
2.751794965990e-03 5.739694094166e-03 0.0 
5.739694094166e-03 -2.315153724972e-03 0.0 
0.0 0.0 7.602859198634e-04 
2.918964976839e-03 1.218762859288e-05 0.0 
1.218762859288e-05 -2.678491748148e-03 0.0 
0.0 0.0 2.743086088833e-04 
1.336613918533e-03 9.469539282830e-03 0.0 
9.469539282830e-03 2.699967068190e-04 0.0 
0.0 0.0 1.910522807378e-04 
-1.271268912917e-03 3.425983397913e-03 0.0 
3.425983397913e-03 1.828807167786e-03 0.0 
0.0 0.0 4.254453631295e-04 
-1.653189540070e-03 1.185996027490e-02 0.0 
1.185996027490e-02 3.897801301023e-03 0.0 
0.0 0.0 2.892880494329e-04 
1.622741347073e-03 1.489725830995e-03 0.0 
1.489725830995e-03 -1.228473096409e-03 0.0 
0.0 0.0 8.644274608988e-04 
1.681947247477e-03 1.304197553335e-03 0.0 
1.304197553335e-03 -1.297608930352e-03 0.0 
0.0 0.0 8.345059039832e-04 
2.803330582080e-03 -7.149601882245e-04 0.0 
-7.149601882245e-04 -1.893168139575e-03 0.0 
0.0 0.0 1.011936874038e-04 
3.126383464371e-03 -8.094288262496e-04 0.0 
-8.094288262496e-04 -2.217273452019e-03 0.0 
0.0 0.0 1.215095138124e-04 
-6.598073573512e-04 6.999756243791e-04 0.0 
6.999756243791e-04 1.191051714435e-03 0.0 
0.0 0.0 3.939620909586e-04 
2.440091813850e-03 4.769307678247e-03 0.0 
4.769307678247e-03 -1.480190433300e-03 0.0 
0.0 0.0 1.295034170114e-04 
2.266396652879e-03 5.606909339273e-03 0.0 
5.606909339273e-03 -1.236737588499e-03 0.0 
0.0 0.0 1.366137488303e-04 
2.612188698982e-03 3.918532396160e-03 0.0 
3.918532396160e-03 -1.688290680105e-03 0.0 
0.0 0.0 1.223480060135e-04 
1.106013046991e-03 7.259338711387e-05 0.0 
7.259338711387e-05 -6.950260811516e-04 0.0 
0.0 0.0 9.246356795228e-04 
-2.872914345686e-03 1.371585447756e-04 0.0 
1.371585447756e-04 4.440954699231e-03 0.0 
0.0 0.0 1.378215446851e-04 
1.200374196527e-03 2.152862495576e-04 0.0 
2.152862495576e-04 -8.120188035994e-04 0.0 
0.0 0.0 8.717012407386e-04 
1.191710383979e-03 1.028612661541e-02 0.0 
1.028612661541e-02 2.198131181862e-05 0.0 
0.0 0.0 3.004717947281e-04 
-5.928086976806e-04 1.056707073053e-03 0.0 
1.056707073053e-03 1.129165940744e-03 0.0 
0.0 0.0 4.104648467487e-04 
3.778091657691e-03 7.313506306772e-03 0.0 
7.313506306772e-03 -3.385107182887e-03 0.0 
0.0 0.0 5.359505372576e-04 
3.228372368761e-03 7.497783106847e-03 0.0 
7.497783106847e-03 -2.443952482678e-03 0.0 
0.0 0.0 3.333419824192e-04 
2.713576301365e-03 2.982617089690e-03 0.0 
2.982617089690e-03 -2.339399539784e-03 0.0 
0.0 0.0 7.456646078099e-04 
-7.661298024311e-04 4.978779739289e-04 0.0 
4.978779739289e-04 1.296997628294e-03 0.0 
0.0 0.0 3.645534314084e-04 
-4.208507977757e-04 4.306125458552e-04 0.0 
4.306125458552e-04 9.262758329296e-04 0.0 
0.0 0.0 4.054883035672e-04 
-3.169365982355e-03 1.723260563608e-03 0.0 
1.723260563608e-03 4.290731207609e-03 0.0 
0.0 0.0 2.408869149959e-04 
-3.130272755638e-03 1.269619247758e-03 0.0 
1.269619247758e-03 4.371368786308e-03 0.0 
0.0 0.0 2.100813402432e-04 
-3.177615838210e-03 2.323970791124e-03 0.0 
2.323970791124e-03 4.211833893075e-03 0.0 
0.0 0.0 2.683513187294e-04 
3.716211927644e-03 8.426951381313e-04 0.0 
8.426951381313e-04 -2.754255067121e-03 0.0 
0.0 0.0 1.681698405232e-04 
3.002865637105e-03 1.965242047785e-04 0.0 
1.965242047785e-04 -2.070994179553e-03 0.0 
0.0 0.0 1.156636505104e-04 
-1.214078515197e-03 1.448268104061e-03 0.0 
1.448268104061e-03 1.718303910163e-03 0.0 
0.0 0.0 3.600868641064e-04 
2.754968242596e-03 4.819061813478e-06 0.0 
4.819061813478e-06 -2.576795501553e-03 0.0 
0.0 0.0 3.147630997702e-04 
2.513475310849e-03 -1.497427821328e-05 0.0 
-1.497427821328e-05 -2.333402288372e-03 0.0 
0.0 0.0 3.401798298856e-04 
3.748354896073e-03 -5.190078789936e-04 0.0 
-5.190078789936e-04 -3.164887069189e-03 0.0 
0.0 0.0 2.222980385893e-04 
3.823795490055e-03 -3.969314001968e-04 0.0 
-3.969314001968e-04 -3.397054966371e-03 0.0 
0.0 0.0 2.700642612957e-04 
2.288226031462e-03 2.711523656717e-04 0.0 
2.711523656717e-04 -2.032208295593e-03 0.0 
0.0 0.0 5.330902849545e-04 
2.568159014857e-03 3.293613956375e-04 0.0 
3.293613956375e-04 -2.320358092039e-03 0.0 
0.0 0.0 5.080846521426e-04 
8.486601758094e-04 8.927406825801e-03 0.0 
8.927406825801e-03 -3.515419588351e-04 0.0 
0.0 0.0 4.986258632939e-04 
6.261549747828e-04 9.031136415226e-03 0.0 
9.031136415226e-03 -1.146766696667e-04 0.0 
0.0 0.0 5.115709573171e-04 
1.459839069971e-03 8.738781772671e-03 0.0 
8.738781772671e-03 -9.813423920572e-04 0.0 
0.0 0.0 4.771192537660e-04 
3.545714844427e-03 2.936332934543e-03 0.0 
2.936332934543e-03 -3.210778014646e-03 0.0 
0.0 0.0 6.311225098980e-04 
3.920387943362e-03 2.778010707834e-03 0.0 
2.778010707834e-03 -3.605594046745e-03 0.0 
0.0 0.0 5.767922225453e-04 
4.254682615057e-03 3.095045314001e-03 0.0 
3.095045314001e-03 -3.944056963767e-03 0.0 
0.0 0.0 5.458067220412e-04 
-1.039791330837e-03 2.499359122951e-03 0.0 
2.499359122951e-03 1.608766427620e-03 0.0 
0.0 0.0 4.059286680817e-04 
-6.007210773320e-04 2.545784572727e-03 0.0 
2.545784572727e-03 1.209788974923e-03 0.0 
0.0 0.0 4.359620858584e-04 
4.566904040749e-03 4.323151908313e-04 0.0 
4.323151908313e-04 -4.214754430830e-03 0.0 
0.0 0.0 3.685168134974e-04 
4.678501809955e-03 4.259859447512e-04 0.0 
4.259859447512e-04 -4.260408929639e-03 0.0 
0.0 0.0 3.529324566574e-04 
4.198238316950e-03 1.299847760687e-04 0.0 
1.299847760687e-04 -3.904856340816e-03 0.0 
0.0 0.0 3.574618962042e-04 
-1.021084869273e-03 4.480166094923e-03 0.0 
4.480166094923e-03 1.607293890882e-03 0.0 
0.0 0.0 4.508364565857e-04 
1.176041298918e-03 2.995314672163e-04 0.0 
2.995314672163e-04 -7.722793534191e-04 0.0 
0.0 0.0 8.968888264884e-04 
1.230408015176e-03 3.803840322803e-04 0.0 
3.803840322803e-04 -8.413368453105e-04 0.0 
0.0 0.0 8.764727727420e-04 
3.544092983252e-03 -2.756086618180e-04 0.0 
-2.756086618180e-04 -2.397971778431e-03 0.0 
0.0 0.0 1.081487275870e-04 
3.548160165288e-03 -4.098556015189e-04 0.0 
-4.098556015189e-04 -2.591759001446e-03 0.0 
0.0 0.0 1.364602851956e-04 
2.805932029532e-03 2.178730296356e-03 0.0 
2.178730296356e-03 -1.906474097622e-03 0.0 
0.0 0.0 1.105300225012e-04 
2.822594938779e-03 1.301903344466e-03 0.0 
1.301903344466e-03 -1.920678960813e-03 0.0 
0.0 0.0 1.055485152127e-04 
-8.894573831754e-04 6.669793854010e-03 0.0 
6.669793854010e-03 1.480781162325e-03 0.0 
0.0 0.0 4.773752287757e-04 
-1.134439600948e-03 6.678837919794e-03 0.0 
6.678837919794e-03 1.690055184611e-03 0.0 
0.0 0.0 4.748825287542e-04 
-5.435894263530e-04 7.039816635737e-03 0.0 
7.039816635737e-03 1.176759688839e-03 0.0 
0.0 0.0 5.097008544147e-04 
3.087149006477e-03 2.661791105832e-05 0.0 
2.661791105832e-05 -2.761723645046e-03 0.0 
0.0 0.0 2.506262981878e-04 
3.334902993752e-03 7.942920485272e-03 0.0 
7.942920485272e-03 -2.905141050406e-03 0.0 
0.0 0.0 6.079702267925e-04 
1.953540787391e-03 2.821085113902e-03 0.0 
2.821085113902e-03 -1.543773289404e-03 0.0 
0.0 0.0 8.595964117700e-04 
2.227753972991e-03 3.313458244686e-03 0.0 
3.313458244686e-03 -1.814518044728e-03 0.0 
0.0 0.0 8.190978274820e-04 
1.657227352709e-03 2.326610820307e-03 0.0 
2.326610820307e-03 -1.232250894175e-03 0.0 
0.0 0.0 8.900977803609e-04 
2.950515792680e-03 7.449407965429e-03 0.0 
7.449407965429e-03 -2.502767352874e-03 0.0 
0.0 0.0 7.098956746841e-04 
2.437013157633e-03 7.231053834109e-03 0.0 
7.231053834109e-03 -1.978818157716e-03 0.0 
0.0 0.0 7.736746329803e-04 
2.350332716450e-03 8.274516729273e-03 0.0 
8.274516729273e-03 -1.874719218946e-03 0.0 
0.0 0.0 7.496296140141e-04 
2.459597969912e-03 -6.797439263103e-04 0.0 
-6.797439263103e-04 -1.553419007327e-03 0.0 
0.0 0.0 7.710300610684e-05 
-4.733562094375e-04 2.989719235440e-04 0.0 
2.989719235440e-04 9.809643424706e-04 0.0 
0.0 0.0 3.774490779983e-04 
-2.846639873669e-03 8.704246770326e-04 0.0 
8.704246770326e-04 3.922948534912e-03 0.0 
0.0 0.0 1.962703386290e-04 
2.107764981310e-03 -6.944451996720e-04 0.0 
-6.944451996720e-04 -1.258018680358e-03 0.0 
0.0 0.0 5.716981949850e-05 
-2.902053433175e-03 6.417061527528e-04 0.0 
6.417061527528e-04 4.128709358415e-03 0.0 
0.0 0.0 1.791333619269e-04 
-2.642015134442e-03 6.387251532477e-04 0.0 
6.387251532477e-04 3.594520373506e-03 0.0 
0.0 0.0 1.877439441947e-04 
-2.954611817522e-03 4.223292074921e-04 0.0 
4.223292074921e-04 4.423703492327e-03 0.0 
0.0 0.0 1.549540733253e-04 
3.391602680291e-03 1.862085273504e-05 0.0 
1.862085273504e-05 -2.860079596953e-03 0.0 
0.0 0.0 2.073934400340e-04 
-3.611139541857e-03 1.858622492073e-03 0.0 
1.858622492073e-03 5.204864416698e-03 0.0 
0.0 0.0 2.258698706738e-04 
-3.611849740611e-03 2.723547007164e-03 0.0 
2.723547007164e-03 4.978744868659e-03 0.0 
0.0 0.0 2.680770178820e-04 
3.382358563283e-03 -3.646432753165e-04 0.0 
-3.646432753165e-04 -2.071880392989e-03 0.0 
0.0 0.0 7.658127311612e-05 
-6.457192225426e-04 4.639274391190e-03 0.0 
4.639274391190e-03 1.286548121001e-03 0.0 
0.0 0.0 4.546619669861e-04 
3.632451495743e-03 -1.145809335279e-04 0.0 
-1.145809335279e-04 -2.226540938214e-03 0.0 
0.0 0.0 7.910033061464e-05 
3.693995012008e-03 -4.237241597413e-05 0.0 
-4.237241597413e-05 -2.431337848765e-03 0.0 
0.0 0.0 1.014764559902e-04 
1.471850157015e-03 1.244721992741e-03 0.0 
1.244721992741e-03 -1.061987087272e-03 0.0 
0.0 0.0 8.848446023437e-04 
1.512364253270e-03 1.058143465875e-03 0.0 
1.058143465875e-03 -1.120092718687e-03 0.0 
0.0 0.0 8.596823643046e-04 
1.324971229630e-03 1.011617081970e-03 0.0 
1.011617081970e-03 -9.112807892802e-04 0.0 
0.0 0.0 9.109757095198e-04 
1.365700787475e-03 8.841047218767e-04 0.0 
8.841047218767e-04 -9.702955290230e-04 0.0 
0.0 0.0 8.856294406866e-04 
1.546386142463e-03 9.055979450143e-04 0.0 
9.055979450143e-04 -1.169082720477e-03 0.0 
0.0 0.0 8.326355270486e-04 
1.402563001862e-03 7.519009551750e-04 0.0 
7.519009551750e-04 -1.015689746435e-03 0.0 
0.0 0.0 8.578723506906e-04 
-3.155606792706e-03 8.834220377578e-04 0.0 
8.834220377578e-04 4.559576836610e-03 0.0 
0.0 0.0 1.889178554483e-04 
1.241755790725e-03 7.347491189862e-04 0.0 
7.347491189862e-04 -8.290191209415e-04 0.0 
0.0 0.0 9.140527235257e-04 
1.282775210948e-03 6.005721313610e-04 0.0 
6.005721313610e-04 -8.872947811045e-04 0.0 
0.0 0.0 8.830161026130e-04 
1.164657428386e-03 5.840305991432e-04 0.0 
5.840305991432e-04 -7.360060741099e-04 0.0 
0.0 0.0 9.352451482322e-04 
3.731702759806e-05 1.141644042193e-02 0.0 
1.141644042193e-02 2.427982373652e-03 0.0 
0.0 0.0 1.822513307977e-04 
2.785736954658e-03 6.854094647118e-03 0.0 
6.854094647118e-03 -1.656540109042e-03 0.0 
0.0 0.0 1.929866701466e-04 
2.077153978546e-03 6.511334718780e-03 0.0 
6.511334718780e-03 -9.477697146718e-04 0.0 
0.0 0.0 1.469119268091e-04 
1.310992897153e-03 4.940400129450e-03 0.0 
4.940400129450e-03 -3.611099872077e-04 0.0 
0.0 0.0 8.398484733897e-05 
1.487630038585e-03 1.050205958322e-02 0.0 
1.050205958322e-02 -9.325573617299e-04 0.0 
0.0 0.0 6.646252583115e-04 
1.257997639299e-03 1.029173001705e-02 0.0 
1.029173001705e-02 -7.079222006452e-04 0.0 
0.0 0.0 6.184609632624e-04 
1.297826927274e-03 1.347446158561e-04 0.0 
1.347446158561e-04 -9.452608809558e-04 0.0 
0.0 0.0 7.926364826289e-04 
1.370507096094e-03 1.227405674458e-04 0.0 
1.227405674458e-04 -1.042175021197e-03 0.0 
0.0 0.0 7.398662298833e-04 
-2.694848722532e-03 3.798331310074e-04 0.0 
3.798331310074e-04 3.799541287159e-03 0.0 
0.0 0.0 1.688875310304e-04 
-2.638852049198e-03 3.199930741893e-04 0.0 
3.199930741893e-04 3.736067715789e-03 0.0 
0.0 0.0 1.612781740944e-04 
-2.375334310010e-03 3.978936445408e-04 0.0 
3.978936445408e-04 3.163210573244e-03 0.0 
0.0 0.0 1.801306567658e-04 
-2.367406604167e-03 3.374557988606e-04 0.0 
3.374557988606e-04 3.186776750041e-03 0.0 
0.0 0.0 1.719876455918e-04 
-2.083917865249e-03 3.914353964431e-04 0.0 
3.914353964431e-04 2.712756356359e-03 0.0 
0.0 0.0 1.876961901928e-04 
-2.088718557496e-03 3.117360026694e-04 0.0 
3.117360026694e-04 2.725066855809e-03 0.0 
0.0 0.0 1.841368029092e-04 
-1.782940989193e-03 3.660258395658e-04 0.0 
3.660258395658e-04 2.340567270940e-03 0.0 
0.0 0.0 2.138535500750e-04 
2.032164269539e-03 8.799023917163e-03 0.0 
8.799023917163e-03 -1.529334622516e-03 0.0 
0.0 0.0 7.571695638338e-04 
1.620357896106e-03 3.465031853917e-03 0.0 
3.465031853917e-03 -8.889286151557e-04 0.0 
0.0 0.0 7.409007473357e-05 
-1.308121204520e-03 1.288782864196e-02 0.0 
1.288782864196e-02 4.277115001728e-03 0.0 
0.0 0.0 2.313718715821e-04 
2.267847679867e-03 5.439767186512e-03 0.0 
5.439767186512e-03 -1.818166156766e-03 0.0 
0.0 0.0 8.244656638486e-04 
2.475736415339e-03 5.120649211321e-03 0.0 
5.120649211321e-03 -2.042525873063e-03 0.0 
0.0 0.0 7.965581256379e-04 
9.488655368285e-04 1.037801000865e-02 0.0 
1.037801000865e-02 8.460296784297e-04 0.0 
0.0 0.0 2.059033680922e-04 
7.796641743123e-04 9.202274250142e-03 0.0 
9.202274250142e-03 1.103605910489e-03 0.0 
0.0 0.0 1.444970297492e-04 
1.520101812073e-03 1.672534252731e-03 0.0 
1.672534252731e-03 -1.103804896684e-03 0.0 
0.0 0.0 8.956401766209e-04 
3.916915012734e-03 5.889422125630e-03 0.0 
5.889422125630e-03 -3.106847684580e-03 0.0 
0.0 0.0 3.108857428032e-04 
-1.292497807784e-04 6.583938381801e-03 0.0 
6.583938381801e-03 8.063496769010e-04 0.0 
0.0 0.0 5.057742420765e-04 
8.562440433624e-04 -2.416258200998e-04 0.0 
-2.416258200998e-04 -4.529297424896e-04 0.0 
0.0 0.0 1.367967938667e-05 
1.997280193841e-03 -3.954346733741e-04 0.0 
-3.954346733741e-04 -1.250194429303e-03 0.0 
0.0 0.0 6.513152569641e-05 
3.601136403412e-03 6.735151363359e-03 0.0 
6.735151363359e-03 -2.802783573370e-03 0.0 
0.0 0.0 3.216400545582e-04 
8.422734353479e-04 1.083005598034e-02 0.0 
1.083005598034e-02 7.198641782866e-04 0.0 
0.0 0.0 2.636400360634e-04 
2.488385118886e-03 7.720291789414e-03 0.0 
7.720291789414e-03 -1.302897753661e-03 0.0 
0.0 0.0 2.039515009665e-04 
1.898224058408e-03 7.622299832398e-03 0.0 
7.622299832398e-03 -6.037217897558e-04 0.0 
0.0 0.0 1.626751315287e-04 
3.142866271073e-03 3.013864781220e-03 0.0 
3.013864781220e-03 -2.787880889093e-03 0.0 
0.0 0.0 6.874216066632e-04 
3.391746107612e-03 -5.579432312270e-04 0.0 
-5.579432312270e-04 -2.367962842124e-03 0.0 
0.0 0.0 1.160952780478e-04 
2.733094334554e-03 3.079453245934e-03 0.0 
3.079453245934e-03 -1.832214276924e-03 0.0 
0.0 0.0 1.172014385518e-04 
-1.819216883704e-03 5.169633789094e-04 0.0 
5.169633789094e-04 2.373799755806e-03 0.0 
0.0 0.0 2.252689718575e-04 
1.831248693554e-03 2.107948832187e-03 0.0 
2.107948832187e-03 -1.165638753271e-03 0.0 
0.0 0.0 6.569457530065e-05 
1.311503017682e-03 6.495645927717e-05 0.0 
6.495645927717e-05 -9.727171632302e-04 0.0 
0.0 0.0 7.680069936250e-04 
4.120672247477e-03 5.303239921119e-03 0.0 
5.303239921119e-03 -3.450416334212e-03 0.0 
0.0 0.0 3.426180469778e-04 
1.525088933832e-03 9.691810345095e-03 0.0 
9.691810345095e-03 -5.693517734796e-04 0.0 
0.0 0.0 3.327636397791e-04 
3.409156482775e-03 4.054099383247e-03 0.0 
4.054099383247e-03 -2.377489304307e-03 0.0 
0.0 0.0 1.665819364777e-04 
3.298034142643e-03 6.773093850879e-03 0.0 
6.773093850879e-03 -2.257213777301e-03 0.0 
0.0 0.0 2.380910583190e-04 
-1.541921253839e-03 9.205884352511e-03 0.0 
9.205884352511e-03 2.566387885684e-03 0.0 
0.0 0.0 3.660821550718e-04 
-2.662934286807e-03 9.467372487854e-03 0.0 
9.467372487854e-03 4.425693186413e-03 0.0 
0.0 0.0 3.180423723590e-04 
-2.336167280607e-03 1.075537815209e-02 0.0 
1.075537815209e-02 4.332725069468e-03 0.0 
0.0 0.0 3.140508626411e-04 
4.326398808095e-03 4.734164981508e-03 0.0 
4.734164981508e-03 -3.760813756959e-03 0.0 
0.0 0.0 3.707446013343e-04 
1.648000381508e-03 8.546987283635e-03 0.0 
8.546987283635e-03 -1.988839405506e-04 0.0 
0.0 0.0 1.748172843804e-04 
1.111289825647e-03 6.888936593846e-03 0.0 
6.888936593846e-03 2.561574142068e-04 0.0 
0.0 0.0 1.075918842489e-04 
-1.563458288777e-04 9.887706543096e-03 0.0 
9.887706543096e-03 1.082470046636e-03 0.0 
0.0 0.0 3.681241001668e-04 
-1.716825841736e-03 5.779365549260e-03 0.0 
5.779365549260e-03 2.243828668311e-03 0.0 
0.0 0.0 4.194157347024e-04 
-1.279019318954e-03 6.620085140574e-03 0.0 
6.620085140574e-03 1.822010039395e-03 0.0 
0.0 0.0 4.497187574508e-04 
-6.337735318273e-04 7.751547904830e-03 0.0 
7.751547904830e-03 1.226524370155e-03 0.0 
0.0 0.0 5.062107188333e-04 
-7.566807163498e-04 7.708549492505e-03 0.0 
7.708549492505e-03 1.328510324168e-03 0.0 
0.0 0.0 4.952337322026e-04 
-1.378657807377e-03 6.836059556785e-03 0.0 
6.836059556785e-03 1.902757508802e-03 0.0 
0.0 0.0 4.439791540987e-04 
-8.578131021470e-04 7.724318279835e-03 0.0 
7.724318279835e-03 1.406116859712e-03 0.0 
0.0 0.0 4.782132920826e-04 
-2.108458142432e-04 8.797854907831e-03 0.0 
8.797854907831e-03 8.016120802671e-04 0.0 
0.0 0.0 5.247511054427e-04 
-2.524121857694e-04 8.661986054829e-03 0.0 
8.661986054829e-03 8.135161230353e-04 0.0 
0.0 0.0 5.224454333485e-04 
4.164978727668e-04 1.004610283195e-02 0.0 
1.004610283195e-02 1.823094711966e-04 0.0 
0.0 0.0 5.817512590435e-04 
3.898562629301e-04 9.631515846613e-03 0.0 
9.631515846613e-03 1.820695024043e-04 0.0 
0.0 0.0 5.600833959786e-04 
-2.182832075020e-04 8.618337476334e-03 0.0 
8.618337476334e-03 7.619656531914e-04 0.0 
0.0 0.0 5.018295841891e-04 
4.138576081106e-04 9.261820152359e-03 0.0 
9.261820152359e-03 1.372338613194e-04 0.0 
0.0 0.0 5.408479255545e-04 
8.494709194476e-04 1.017562142809e-02 0.0 
1.017562142809e-02 -2.791024731940e-04 0.0 
0.0 0.0 5.970104667510e-04 
-1.706990556744e-04 8.543531214467e-03 0.0 
8.543531214467e-03 6.983203266040e-04 0.0 
0.0 0.0 4.876690115717e-04 
1.991613590304e-03 5.849927831847e-03 0.0 
5.849927831847e-03 -1.534175609287e-03 0.0 
0.0 0.0 8.553820987859e-04 
3.484849716358e-03 6.894173488628e-03 0.0 
6.894173488628e-03 -2.835374839980e-03 0.0 
0.0 0.0 3.642982041342e-04 
2.731134821581e-03 -4.237474584347e-04 0.0 
-4.237474584347e-04 -1.841521055078e-03 0.0 
0.0 0.0 1.026884813168e-04 
2.323578330784e-03 4.723594182325e-05 0.0 
4.723594182325e-05 -1.521509739959e-03 0.0 
0.0 0.0 8.228365418043e-05 
9.817422355208e-04 9.968571836582e-03 0.0 
9.968571836582e-03 -2.138949811564e-05 0.0 
0.0 0.0 3.451427620270e-04 
7.224800189155e-04 1.129946929002e-02 0.0 
1.129946929002e-02 -8.693868371014e-05 0.0 
0.0 0.0 6.096697276482e-04 
3.567000350408e-04 1.043294205255e-02 0.0 
1.043294205255e-02 2.955315173227e-04 0.0 
0.0 0.0 5.850285719347e-04 
4.327501632447e-03 3.997755140465e-03 0.0 
3.997755140465e-03 -3.505708137267e-03 0.0 
0.0 0.0 2.884793523738e-04 
1.354048209522e-03 1.066024051952e-02 0.0 
1.066024051952e-02 -7.894948412723e-04 0.0 
0.0 0.0 7.322373117883e-04 
-1.693909475637e-03 1.034997902877e-02 0.0 
1.034997902877e-02 3.187474864294e-03 0.0 
0.0 0.0 3.354318507429e-04 
4.133909055497e-03 1.474489292662e-03 0.0 
1.474489292662e-03 -3.222723592307e-03 0.0 
0.0 0.0 2.146055870111e-04 
1.513532060033e-03 9.568195819731e-03 0.0 
9.568195819731e-03 -9.775086672544e-04 0.0 
0.0 0.0 7.802031908223e-04 
-1.845844847418e-03 6.056492307401e-03 0.0 
6.056492307401e-03 2.381013240287e-03 0.0 
0.0 0.0 4.095093008101e-04 
-1.882155375873e-03 6.587913602028e-03 0.0 
6.587913602028e-03 2.445041188056e-03 0.0 
0.0 0.0 4.124457625644e-04 
-2.281419050983e-03 6.086633421798e-03 0.0 
6.086633421798e-03 2.933991198651e-03 0.0 
0.0 0.0 3.899784127299e-04 
1.508478636587e-04 9.374473632649e-03 0.0 
9.374473632649e-03 5.206361003324e-04 0.0 
0.0 0.0 5.576057440052e-04 
-3.169573186682e-03 3.003509820243e-03 0.0 
3.003509820243e-03 4.123524428615e-03 0.0 
0.0 0.0 2.963011671340e-04 
1.625240623753e-03 7.020132482822e-03 0.0 
7.020132482822e-03 -1.131647572565e-03 0.0 
0.0 0.0 8.559116178033e-04 
4.336498835829e-03 5.699643492220e-03 0.0 
5.699643492220e-03 -3.978806336437e-03 0.0 
0.0 0.0 5.395678323650e-04 
4.296713149672e-03 6.090922882144e-03 0.0 
6.090922882144e-03 -3.936131808526e-03 0.0 
0.0 0.0 5.052773624933e-04 
4.378443086398e-03 5.761137485952e-03 0.0 
5.761137485952e-03 -3.993999911039e-03 0.0 
0.0 0.0 4.715426416000e-04 
-8.548348603661e-04 7.783227825736e-03 0.0 
7.783227825736e-03 1.382943786700e-03 0.0 
0.0 0.0 4.673934101327e-04 
1.580282198570e-03 4.315782476134e-03 0.0 
4.315782476134e-03 -1.127607977314e-03 0.0 
0.0 0.0 9.171978267319e-04 
1.921752959518e-03 4.228766376617e-03 0.0 
4.228766376617e-03 -1.479528231690e-03 0.0 
0.0 0.0 8.644663220843e-04 
1.876498432514e-03 3.745142549356e-03 0.0 
3.745142549356e-03 -1.439916831971e-03 0.0 
0.0 0.0 8.739722108896e-04 
2.286112933871e-03 4.173465271698e-03 0.0 
4.173465271698e-03 -1.861672883169e-03 0.0 
0.0 0.0 8.148279207174e-04 
1.499297500141e-03 3.218346289289e-03 0.0 
3.218346289289e-03 -1.054574352116e-03 0.0 
0.0 0.0 9.326129132977e-04 
1.000384457008e-03 1.149407808318e-02 0.0 
1.149407808318e-02 -3.928709433108e-04 0.0 
0.0 0.0 6.634252641659e-04 
1.117588399851e-03 1.136255877755e-02 0.0 
1.136255877755e-02 -5.229173883877e-04 0.0 
0.0 0.0 6.860990454080e-04 
4.540119615466e-03 8.279326716287e-06 0.0 
8.279326716287e-06 -4.041390801732e-03 0.0 
0.0 0.0 3.107362243169e-04 
4.700335883922e-03 4.709793739003e-04 0.0 
4.709793739003e-04 -4.218757619724e-03 0.0 
0.0 0.0 3.339790537484e-04 
4.810916397703e-03 9.227750476774e-04 0.0 
9.227750476774e-04 -4.400847233664e-03 0.0 
0.0 0.0 3.744973805227e-04 
4.813151681853e-03 1.019031672786e-03 0.0 
1.019031672786e-03 -4.339503130956e-03 0.0 
0.0 0.0 3.545910737792e-04 
4.631695973311e-03 5.524944329288e-04 0.0 
5.524944329288e-04 -4.080703731021e-03 0.0 
0.0 0.0 3.121541848811e-04 
4.729453880079e-03 1.136121946747e-03 0.0 
1.136121946747e-03 -4.196228021561e-03 0.0 
0.0 0.0 3.328305136310e-04 
4.881674346136e-03 1.628998148517e-03 0.0 
1.628998148517e-03 -4.416864411055e-03 0.0 
0.0 0.0 3.740125283483e-04 
4.609387623344e-03 1.338093340232e-03 0.0 
1.338093340232e-03 -3.999751031057e-03 0.0 
0.0 0.0 3.096928748381e-04 
1.022926157733e-03 9.653623665333e-03 0.0 
9.653623665333e-03 -4.931364856823e-04 0.0 
0.0 0.0 5.678483758940e-04 
1.381011937379e-03 2.326924973045e-03 0.0 
2.326924973045e-03 -9.434137206067e-04 0.0 
0.0 0.0 9.465906347097e-04 
3.196390795458e-03 1.792094261121e-03 0.0 
1.792094261121e-03 -2.885947328873e-03 0.0 
0.0 0.0 6.142725972353e-04 
3.553771586751e-03 2.036545807203e-03 0.0 
2.036545807203e-03 -3.249017392715e-03 0.0 
0.0 0.0 5.842062487538e-04 
3.873137306807e-03 1.826183694699e-03 0.0 
1.826183694699e-03 -3.589133842836e-03 0.0 
0.0 0.0 5.310962797317e-04 
2.759968914307e-03 2.251503799637e-04 0.0 
2.251503799637e-04 -2.532559303409e-03 0.0 
0.0 0.0 4.537636201741e-04 
2.859685628583e-03 3.768295780422e-04 0.0 
3.768295780422e-04 -2.619301709964e-03 0.0 
0.0 0.0 4.820513991142e-04 
2.648741229024e-03 4.972828878268e-04 0.0 
4.972828878268e-04 -2.387778379924e-03 0.0 
0.0 0.0 5.360809648007e-04 
2.667190516880e-03 1.185804563846e-04 0.0 
1.185804563846e-04 -2.452265045831e-03 0.0 
0.0 0.0 4.246094104218e-04 
2.864581812089e-03 8.456018008277e-03 0.0 
8.456018008277e-03 -2.432883682626e-03 0.0 
0.0 0.0 5.301144805253e-04 
1.340994586459e-03 1.982512914825e-03 0.0 
1.982512914825e-03 -9.054528358408e-04 0.0 
0.0 0.0 9.497554767611e-04 
4.219799010862e-03 3.669177751439e-03 0.0 
3.669177751439e-03 -3.892838730379e-03 0.0 
0.0 0.0 5.679747752270e-04 
3.166115811174e-03 4.122084133502e-04 0.0 
4.122084133502e-04 -2.933220177218e-03 0.0 
0.0 0.0 4.558041289217e-04 
-4.735310393482e-03 2.699668793561e-03 0.0 
2.699668793561e-03 7.579770561268e-03 0.0 
0.0 0.0 2.211309118995e-04 
-4.382223055449e-03 4.675348678830e-03 0.0 
4.675348678830e-03 6.586665981307e-03 0.0 
0.0 0.0 2.790652361478e-04 
-4.312607258704e-03 6.280675674026e-03 0.0 
6.280675674026e-03 6.483825054319e-03 0.0 
0.0 0.0 3.106215341966e-04 
-3.691502662328e-03 5.592348568384e-03 0.0 
5.592348568384e-03 5.140084866568e-03 0.0 
0.0 0.0 3.280885847477e-04 
-4.096765747955e-03 3.222785073446e-03 0.0 
3.222785073446e-03 5.990919189460e-03 0.0 
0.0 0.0 2.605260123931e-04 
2.034477559314e-03 2.239421123832e-04 0.0 
2.239421123832e-04 -1.770870833921e-03 0.0 
0.0 0.0 5.589290873266e-04 
1.834774798816e-03 1.893000061070e-04 0.0 
1.893000061070e-04 -1.563286811615e-03 0.0 
0.0 0.0 5.841753708239e-04 
1.804773303960e-03 1.295969795448e-04 0.0 
1.295969795448e-04 -1.545664868900e-03 0.0 
0.0 0.0 5.543521071126e-04 
1.675693917746e-03 1.512432267669e-04 0.0 
1.512432267669e-04 -1.397446905183e-03 0.0 
0.0 0.0 6.082890483107e-04 
1.671365559659e-03 9.408279992991e-05 0.0 
9.408279992991e-05 -1.408755458704e-03 0.0 
0.0 0.0 5.779377208063e-04 
1.801173708698e-03 7.623208583325e-05 0.0 
7.623208583325e-05 -1.556203706077e-03 0.0 
0.0 0.0 5.284758097359e-04 
1.553616746653e-03 1.002067520253e-04 0.0 
1.002067520253e-04 -1.270377824580e-03 0.0 
0.0 0.0 6.315456644620e-04 
1.577343507122e-03 5.013695173371e-05 0.0 
5.013695173371e-05 -1.307405172403e-03 0.0 
0.0 0.0 5.955653098067e-04 
-4.043696504414e-03 1.190201511711e-03 0.0 
1.190201511711e-03 6.352494292320e-03 0.0 
0.0 0.0 1.895689841794e-04 
2.168881519847e-03 -4.713082440700e-04 0.0 
-4.713082440700e-04 -1.114325752927e-03 0.0 
0.0 0.0 2.656826591096e-05 
2.706990593592e-03 -7.916504700408e-04 0.0 
-7.916504700408e-04 -1.672273419551e-03 0.0 
0.0 0.0 7.173799081031e-05 
2.775371652059e-03 -7.230058199659e-04 0.0 
-7.230058199659e-04 -1.704852898008e-03 0.0 
0.0 0.0 7.035582391170e-05 
3.102571579864e-03 -9.337005921038e-04 0.0 
-9.337005921038e-04 -2.178065038502e-03 0.0 
0.0 0.0 1.132487897497e-04 
3.131531056712e-03 -8.867339651440e-04 0.0 
-8.867339651440e-04 -2.209332469851e-03 0.0 
0.0 0.0 1.170589039134e-04 
3.512624972904e-03 -8.625864682358e-04 0.0 
-8.625864682358e-04 -2.718638687900e-03 0.0 
0.0 0.0 1.627121278433e-04 
3.474623514821e-03 -7.773958159897e-04 0.0 
-7.773958159897e-04 -2.653600447412e-03 0.0 
0.0 0.0 1.577493188793e-04 
2.616578847256e-03 -7.926407419598e-04 0.0 
-7.926407419598e-04 -1.622634173391e-03 0.0 
0.0 0.0 7.250824858211e-05 
2.511951555284e-03 -3.799035557923e-04 0.0 
-3.799035557923e-04 -1.269723139827e-03 0.0 
0.0 0.0 2.546519421704e-05 
2.909560381427e-03 -6.540925946000e-04 0.0 
-6.540925946000e-04 -1.772542664891e-03 0.0 
0.0 0.0 6.971514824690e-05 
2.728467897235e-03 -3.285995760939e-04 0.0 
-3.285995760939e-04 -1.366758191232e-03 0.0 
0.0 0.0 2.483631092597e-05 
3.047377833998e-03 -5.933537573683e-04 0.0 
-5.933537573683e-04 -1.835106767260e-03 0.0 
0.0 0.0 6.824525234862e-05 
3.284380651092e-03 -7.979090972318e-04 0.0 
-7.979090972318e-04 -2.327220783378e-03 0.0 
0.0 0.0 1.193333959832e-04 
3.618656710540e-03 -4.223079898610e-04 0.0 
-4.223079898610e-04 -2.935764509327e-03 0.0 
0.0 0.0 1.909588104971e-04 
1.084124752596e-03 3.033219398593e-04 0.0 
3.033219398593e-04 -6.582940083707e-04 0.0 
0.0 0.0 9.517977199016e-04 
1.939876782927e-03 1.965333430175e-05 0.0 
1.965333430175e-05 -1.726710919467e-03 0.0 
0.0 0.0 4.456815318893e-04 
2.047223898554e-03 3.409545907817e-05 0.0 
3.409545907817e-05 -1.836918682632e-03 0.0 
0.0 0.0 4.154547145504e-04 
2.259853497035e-03 5.668855593583e-05 0.0 
5.668855593583e-05 -2.073039722572e-03 0.0 
0.0 0.0 3.656046572105e-04 
2.231239215249e-03 4.323696210183e-05 0.0 
4.323696210183e-05 -2.031446136823e-03 0.0 
0.0 0.0 3.934241647458e-04 
1.891611486303e-03 3.889868366288e-05 0.0 
3.889868366288e-05 -1.673195927963e-03 0.0 
0.0 0.0 4.680465536798e-04 
2.348114444059e-03 3.948068086625e-05 0.0 
3.948068086625e-05 -2.171475110607e-03 0.0 
0.0 0.0 3.362333546589e-04 
2.484269778810e-03 5.148642666239e-05 0.0 
5.148642666239e-05 -2.307792222733e-03 0.0 
0.0 0.0 3.125166688011e-04 
4.413756577585e-03 -2.246643256439e-05 0.0 
-2.246643256439e-05 -2.111380194871e-03 0.0 
0.0 0.0 2.513523224038e-05 
4.161362121312e-03 -4.362674077443e-05 0.0 
-4.362674077443e-05 -2.382477974554e-03 0.0 
0.0 0.0 6.977057524787e-05 
4.212231759376e-03 -7.174230005926e-05 0.0 
-7.174230005926e-05 -2.368647845536e-03 0.0 
0.0 0.0 6.572298456935e-05 
3.902994950180e-03 -2.528800313962e-05 0.0 
-2.528800313962e-05 -2.654270247491e-03 0.0 
0.0 0.0 1.150265686057e-04 
3.868557846413e-03 3.449671168153e-05 0.0 
3.449671168153e-05 -2.618635936596e-03 0.0 
0.0 0.0 1.130003359072e-04 
4.108360032692e-03 1.266914775980e-05 0.0 
1.266914775980e-05 -2.362055331703e-03 0.0 
0.0 0.0 7.038270018349e-05 
4.084257039748e-03 3.815521100289e-05 0.0 
3.815521100289e-05 -2.351979079754e-03 0.0 
0.0 0.0 7.046184765060e-05 
4.285991228996e-03 1.430840638147e-05 0.0 
1.430840638147e-05 -2.054250715269e-03 0.0 
0.0 0.0 2.488246201183e-05 
4.017588076232e-03 4.580118867708e-05 0.0 
4.580118867708e-05 -2.317700921332e-03 0.0 
0.0 0.0 7.025604601248e-05 
3.810440434127e-03 3.990876424370e-05 0.0 
3.990876424370e-05 -2.600949054249e-03 0.0 
0.0 0.0 1.155648368610e-04 
4.156479984414e-03 -3.662891894082e-06 0.0 
-3.662891894082e-06 -1.986988196120e-03 0.0 
0.0 0.0 2.330274305360e-05 
-1.236678146536e-03 2.292662534270e-04 0.0 
2.292662534270e-04 1.765363599783e-03 0.0 
0.0 0.0 2.773030152547e-04 
-1.022110628721e-03 4.108246205807e-04 0.0 
4.108246205807e-04 1.563932811703e-03 0.0 
0.0 0.0 3.069800750656e-04 
1.266905994219e-03 1.413489231611e-03 0.0 
1.413489231611e-03 -8.338786778323e-04 0.0 
0.0 0.0 9.504646495682e-04 
-3.489533866553e-03 8.012749529199e-04 0.0 
8.012749529199e-04 5.372772698062e-03 0.0 
0.0 0.0 1.719346032295e-04 
3.178153835753e-03 -1.855338019504e-04 0.0 
-1.855338019504e-04 -1.573762339950e-03 0.0 
0.0 0.0 2.541922299628e-05 
-3.181206080580e-05 1.955210800404e-03 0.0 
1.955210800404e-03 6.779977344637e-04 0.0 
0.0 0.0 4.579745642173e-04 
-6.199525904457e-05 4.221796919954e-03 0.0 
4.221796919954e-03 7.485566437458e-04 0.0 
0.0 0.0 4.846048740754e-04 
-4.576195409201e-06 3.539057016569e-03 0.0 
3.539057016569e-03 7.012721736315e-04 0.0 
0.0 0.0 4.700877203952e-04 
1.179366776020e-03 7.217781438447e-05 0.0 
7.217781438447e-05 -7.908444907667e-04 0.0 
0.0 0.0 8.735362167700e-04 
1.153789678521e-03 1.417654756369e-04 0.0 
1.417654756369e-04 -7.529339589641e-04 0.0 
0.0 0.0 8.985314684645e-04 
-2.934646615283e-08 9.189536766434e-04 0.0 
9.189536766434e-04 6.135777875839e-04 0.0 
0.0 0.0 4.431191981290e-04 
3.472588560230e-03 -1.851580124979e-04 0.0 
-1.851580124979e-04 -3.190694147924e-03 0.0 
0.0 0.0 2.993036196072e-04 
-1.682412311126e-04 9.020146860363e-03 0.0 
9.020146860363e-03 7.754289278540e-04 0.0 
0.0 0.0 5.562078842791e-04 
-8.978386393421e-04 1.257517549682e-03 0.0 
1.257517549682e-03 1.418552565377e-03 0.0 
0.0 0.0 3.789762915572e-04 
3.900112459013e-03 1.785212458468e-03 0.0 
1.785212458468e-03 -2.913996159538e-03 0.0 
0.0 0.0 1.849616938363e-04 
4.005657345745e-03 -3.193411739818e-04 0.0 
-3.193411739818e-04 -3.615276403547e-03 0.0 
0.0 0.0 2.973809199956e-04 
1.455584313753e-03 1.825469816465e-04 0.0 
1.825469816465e-04 -1.133943579273e-03 0.0 
0.0 0.0 7.140853827484e-04 
2.185498077971e-03 6.705683113397e-04 0.0 
6.705683113397e-04 -1.883404195301e-03 0.0 
0.0 0.0 6.437002534139e-04 
1.337748146291e-03 3.824776350217e-04 0.0 
3.824776350217e-04 -9.695830575042e-04 0.0 
0.0 0.0 8.249836965595e-04 
1.719936661758e-03 3.235300612211e-04 0.0 
3.235300612211e-04 -1.415188443324e-03 0.0 
0.0 0.0 6.656325406913e-04 
1.575347379812e-03 6.056840614598e-04 0.0 
6.056840614598e-04 -1.223348573761e-03 0.0 
0.0 0.0 7.762472155170e-04 
1.822835290068e-03 3.200014249604e-03 0.0 
3.200014249604e-03 -1.393318421167e-03 0.0 
0.0 0.0 8.797084061727e-04 
3.484800064691e-03 4.498432622226e-05 0.0 
4.498432622226e-05 -2.853277389124e-03 0.0 
0.0 0.0 1.912906240363e-04 
-2.542141225863e-03 1.436526228093e-03 0.0 
1.436526228093e-03 3.242056925534e-03 0.0 
0.0 0.0 2.450039116060e-04 
-2.337814793140e-03 8.191548853228e-04 0.0 
8.191548853228e-04 3.025263233928e-03 0.0 
0.0 0.0 2.069155076496e-04 
-1.560615412466e-03 1.280728872245e-03 0.0 
1.280728872245e-03 2.080285720580e-03 0.0 
0.0 0.0 3.116144757948e-04 
2.965724997838e-03 -2.352918941968e-05 0.0 
-2.352918941968e-05 -2.765372079382e-03 0.0 
0.0 0.0 2.991084988102e-04 
1.943497330025e-03 8.464283149129e-05 0.0 
8.464283149129e-05 -1.702873747201e-03 0.0 
0.0 0.0 5.010454273286e-04 
3.461771286674e-03 -1.189024344872e-04 0.0 
-1.189024344872e-04 -2.883855946337e-03 0.0 
0.0 0.0 2.040305046706e-04 
1.787908716574e-03 9.837395237982e-03 0.0 
9.837395237982e-03 -1.256084665714e-03 0.0 
0.0 0.0 7.180952082692e-04 
1.078736254497e-05 1.069474829235e-02 0.0 
1.069474829235e-02 1.241600504463e-03 0.0 
0.0 0.0 3.285945969864e-04 
3.807669961144e-03 1.402054527593e-03 0.0 
1.402054527593e-03 -3.538700561608e-03 0.0 
0.0 0.0 5.070215783607e-04 
2.935830938864e-03 1.117576992279e-04 0.0 
1.117576992279e-04 -2.728972169524e-03 0.0 
0.0 0.0 3.992913451164e-04 
3.605590646778e-03 -1.426648097674e-04 0.0 
-1.426648097674e-04 -3.350306669949e-03 0.0 
0.0 0.0 3.217717641931e-04 
4.106983364166e-03 -4.196756678225e-04 0.0 
-4.196756678225e-04 -3.636221300309e-03 0.0 
0.0 0.0 2.790881481840e-04 
3.087252089409e-03 7.549235574742e-03 0.0 
7.549235574742e-03 -2.448210994984e-03 0.0 
0.0 0.0 3.743875933226e-04 
3.277207551481e-03 6.408218314969e-04 0.0 
6.408218314969e-04 -3.030724983753e-03 0.0 
0.0 0.0 4.830363340545e-04 
2.234988043743e-03 1.362109045656e-03 0.0 
1.362109045656e-03 -1.892244423497e-03 0.0 
0.0 0.0 7.261156065951e-04 
-1.264555091587e-03 1.188940350087e-03 0.0 
1.188940350087e-03 1.771039314713e-03 0.0 
0.0 0.0 3.341945826139e-04 
3.650299588577e-03 -9.193438410229e-05 0.0 
-9.193438410229e-05 -1.824798023600e-03 0.0 
0.0 0.0 3.049894627161e-05 
2.220307832512e-03 1.625118415043e-03 0.0 
1.625118415043e-03 -1.864271198958e-03 0.0 
0.0 0.0 7.538409804007e-04 
2.780507097536e-03 9.519820644373e-04 0.0 
9.519820644373e-04 -2.492708164783e-03 0.0 
0.0 0.0 5.906038493019e-04 
-2.831700581908e-03 2.657739141238e-03 0.0 
2.657739141238e-03 3.583449942767e-03 0.0 
0.0 0.0 2.975352698926e-04 
3.409400832708e-03 5.353011855920e-03 0.0 
5.353011855920e-03 -3.012822675366e-03 0.0 
0.0 0.0 6.873147972721e-04 
3.708750547968e-03 -7.995965332522e-04 0.0 
-7.995965332522e-04 -2.993736276110e-03 0.0 
0.0 0.0 1.907222502799e-04 
-1.783465091080e-03 2.251855378065e-03 0.0 
2.251855378065e-03 2.334613596358e-03 0.0 
0.0 0.0 3.471482633096e-04 
-9.982986256118e-04 5.321346393343e-03 0.0 
5.321346393343e-03 1.599564686653e-03 0.0 
0.0 0.0 4.562263429816e-04 
-3.560940497062e-03 3.663243179784e-03 0.0 
3.663243179784e-03 4.836415839080e-03 0.0 
0.0 0.0 2.935147467304e-04 
3.592950461366e-03 -1.049682309315e-04 0.0 
-1.049682309315e-04 -2.717504034796e-03 0.0 
0.0 0.0 1.529025829833e-04 
-2.806221994408e-03 1.147876036395e-03 0.0 
1.147876036395e-03 3.748270651736e-03 0.0 
0.0 0.0 2.169534935941e-04 
1.767431269154e-03 2.055256590609e-03 0.0 
2.055256590609e-03 -1.367398691596e-03 0.0 
0.0 0.0 8.669089233565e-04 
-2.060178186969e-03 5.119894117303e-03 0.0 
5.119894117303e-03 2.606609323126e-03 0.0 
0.0 0.0 3.882246899615e-04 
2.979930918821e-03 2.129508142369e-06 0.0 
2.129508142369e-06 -2.744611839434e-03 0.0 
0.0 0.0 2.812081113298e-04 
4.734984890050e-03 3.704150860917e-03 0.0 
3.704150860917e-03 -4.423259178217e-03 0.0 
0.0 0.0 4.867389782679e-04 
1.850373480841e-03 9.077572082468e-03 0.0 
9.077572082468e-03 -1.091172408574e-03 0.0 
0.0 0.0 3.639372937953e-04 
-3.114118654693e-03 1.403714725244e-02 0.0 
1.403714725244e-02 7.463305060801e-03 0.0 
0.0 0.0 2.414774819979e-04 
-7.928448120375e-04 1.648393294165e-03 0.0 
1.648393294165e-03 1.338037005870e-03 0.0 
0.0 0.0 3.988388938804e-04 
3.802008196438e-03 6.763171568371e-03 0.0 
6.763171568371e-03 -3.375922813818e-03 0.0 
0.0 0.0 4.598061936216e-04 
2.827617766976e-03 4.340911166288e-03 0.0 
4.340911166288e-03 -2.426961190209e-03 0.0 
0.0 0.0 7.576813008671e-04 
4.144053765666e-03 4.255176547706e-03 0.0 
4.255176547706e-03 -3.799855466395e-03 0.0 
0.0 0.0 5.887279091733e-04 
2.805790175109e-03 -7.710876148921e-06 0.0 
-7.710876148921e-06 -2.611744869894e-03 0.0 
0.0 0.0 2.922375600900e-04 
1.717391000959e-03 1.097536068546e-03 0.0 
1.097536068546e-03 -1.346952148500e-03 0.0 
0.0 0.0 8.073447481397e-04 
4.606045730696e-03 5.041171246214e-03 0.0 
5.041171246214e-03 -4.220211264805e-03 0.0 
0.0 0.0 4.636436896700e-04 
-1.375431707050e-03 2.589242412864e-03 0.0 
2.589242412864e-03 1.924558376515e-03 0.0 
0.0 0.0 4.012483473472e-04 
1.738743694313e-03 9.021474502284e-03 0.0 
9.021474502284e-03 -1.267705744452e-03 0.0 
0.0 0.0 5.232878649523e-04 
4.869358895515e-03 3.077145957651e-03 0.0 
3.077145957651e-03 -4.414848902038e-03 0.0 
0.0 0.0 4.071446579791e-04 
-1.958514597597e-03 3.793363464244e-03 0.0 
3.793363464244e-03 2.478386563163e-03 0.0 
0.0 0.0 3.800963847891e-04 
4.213690082646e-03 2.019160848864e-03 0.0 
2.019160848864e-03 -3.935468664640e-03 0.0 
0.0 0.0 5.018044678152e-04 
3.184845333521e-03 5.880135694840e-03 0.0 
5.880135694840e-03 -2.769324766634e-03 0.0 
0.0 0.0 7.062255035689e-04 
6.247373934319e-04 1.061914400013e-02 0.0 
1.061914400013e-02 6.236928557712e-04 0.0 
0.0 0.0 3.143734717155e-04 
1.252788444020e-03 8.700963622658e-03 0.0 
8.700963622658e-03 -7.283178754664e-04 0.0 
0.0 0.0 4.403723996632e-04 
-3.913740358947e-04 8.405761172602e-03 0.0 
8.405761172602e-03 9.456006922875e-04 0.0 
0.0 0.0 4.388733005711e-04 
2.615376599323e-03 8.037560682682e-03 0.0 
8.037560682682e-03 -2.145946400617e-03 0.0 
0.0 0.0 4.498665825837e-04 
1.453528854540e-03 1.097192932333e-04 0.0 
1.097192932333e-04 -1.147328464149e-03 0.0 
0.0 0.0 6.854539458124e-04 
1.947718418747e-03 1.357423296269e-03 0.0 
1.357423296269e-03 -1.584675867513e-03 0.0 
0.0 0.0 7.809277885330e-04 
3.939390969566e-03 -1.832428085469e-04 0.0 
-1.832428085469e-04 -3.123040148771e-03 0.0 
0.0 0.0 1.992660236093e-04 
3.330392675398e-03 7.267655102590e-03 0.0 
7.267655102590e-03 -2.396625418548e-03 0.0 
0.0 0.0 2.883802789440e-04 
-3.071084692388e-03 3.837353157576e-03 0.0 
3.837353157576e-03 3.938578767548e-03 0.0 
0.0 0.0 3.294567803947e-04 
2.426051999816e-03 9.165459096610e-03 0.0 
9.165459096610e-03 -1.945594095339e-03 0.0 
0.0 0.0 6.626320552779e-04 
-9.319821837693e-04 3.358183941012e-03 0.0 
3.358183941012e-03 1.520709421933e-03 0.0 
0.0 0.0 4.431112144771e-04 
2.049727283069e-03 9.272577192400e-03 0.0 
9.272577192400e-03 -1.100212703751e-03 0.0 
0.0 0.0 3.216840217047e-04 
1.743885937257e-03 9.190894539760e-04 0.0 
9.190894539760e-04 -1.387201169965e-03 0.0 
0.0 0.0 7.796898951076e-04 
-1.345863081671e-03 4.314730951683e-03 0.0 
4.314730951683e-03 1.905771313464e-03 0.0 
0.0 0.0 4.213765797216e-04 
2.954802981266e-03 5.742501497295e-04 0.0 
5.742501497295e-04 -2.701219411835e-03 0.0 
0.0 0.0 5.096941091674e-04 
3.253968378829e-03 1.513624825790e-05 0.0 
1.513624825790e-05 -2.810024912168e-03 0.0 
0.0 0.0 2.192978466495e-04 
3.352599798608e-03 1.138218752922e-03 0.0 
1.138218752922e-03 -2.387833515332e-03 0.0 
0.0 0.0 1.403071512407e-04 
4.650137572888e-03 2.124359452908e-03 0.0 
2.124359452908e-03 -4.050799572751e-03 0.0 
0.0 0.0 3.276567327896e-04 
4.111612606790e-03 6.117372890377e-03 0.0 
6.117372890377e-03 -3.682503342265e-03 0.0 
0.0 0.0 4.522228510225e-04 
2.720772526098e-03 7.051551298603e-04 0.0 
7.051551298603e-04 -2.446586393092e-03 0.0 
0.0 0.0 5.635567637258e-04 
-3.198520739879e-04 8.276932100169e-03 0.0 
8.276932100169e-03 9.431925401204e-04 0.0 
0.0 0.0 5.269580010282e-04 
1.566994856024e-03 7.554954447711e-04 0.0 
7.554954447711e-04 -1.201757655661e-03 0.0 
0.0 0.0 8.041422370907e-04 
2.788494881123e-03 2.606091094126e-03 0.0 
2.606091094126e-03 -2.428878022982e-03 0.0 
0.0 0.0 7.198256256409e-04 
8.537241282382e-04 8.506787996898e-04 0.0 
8.506787996898e-04 -4.831968795985e-04 0.0 
0.0 0.0 1.635572863919e-05 
-2.310321532884e-03 1.275943870421e-02 0.0 
1.275943870421e-02 5.407596136869e-03 0.0 
0.0 0.0 2.624615061018e-04 
1.422577681462e-03 6.117973390214e-04 0.0 
6.117973390214e-04 -1.048936023505e-03 0.0 
0.0 0.0 8.291865598833e-04 
4.536059265758e-03 3.403100079705e-03 0.0 
3.403100079705e-03 -4.229444921894e-03 0.0 
0.0 0.0 5.150419239791e-04 
2.950591425454e-03 5.293455265678e-03 0.0 
5.293455265678e-03 -2.536713152495e-03 0.0 
0.0 0.0 7.442979400740e-04 
1.696764644161e-03 3.030043318392e-05 0.0 
3.030043318392e-05 -1.447653615170e-03 0.0 
0.0 0.0 5.445776016305e-04 
1.904692699544e-03 9.386124592560e-03 0.0 
9.386124592560e-03 -1.384455278251e-03 0.0 
0.0 0.0 7.357158734106e-04 
4.693201701915e-04 1.031790221543e-02 0.0 
1.031790221543e-02 1.699965235843e-03 0.0 
0.0 0.0 1.615382939586e-04 
1.314584053361e-03 4.815001859342e-04 0.0 
4.815001859342e-04 -9.312251666711e-04 0.0 
0.0 0.0 8.535022778386e-04 
3.069821900410e-03 3.464649168534e-03 0.0 
3.464649168534e-03 -2.698731629272e-03 0.0 
0.0 0.0 7.105003857550e-04 
4.161570559771e-03 4.969189059413e-03 0.0 
4.969189059413e-03 -3.344946033642e-03 0.0 
0.0 0.0 3.001622633190e-04 
-2.874196200906e-03 1.820372977301e-04 0.0 
1.820372977301e-04 4.421806431936e-03 0.0 
0.0 0.0 1.396279731505e-04 
1.186059410106e-03 4.676982902187e-04 0.0 
4.676982902187e-04 -7.762222950790e-04 0.0 
0.0 0.0 9.118692547712e-04 
2.610082349876e-03 3.389658978339e-03 0.0 
3.389658978339e-03 -2.221745637646e-03 0.0 
0.0 0.0 7.699347118001e-04 
2.748267364002e-03 8.213451675773e-03 0.0 
8.213451675773e-03 -2.313327748363e-03 0.0 
0.0 0.0 4.851364065817e-04 
4.546461570116e-03 2.795526185527e-03 0.0 
2.795526185527e-03 -4.254582729740e-03 0.0 
0.0 0.0 4.946163056791e-04 
-9.841142535758e-04 1.275940823916e-02 0.0 
1.275940823916e-02 4.503492160770e-03 0.0 
0.0 0.0 1.643219293913e-04 
2.418577751699e-03 5.921477469548e-04 0.0 
5.921477469548e-04 -2.136832244379e-03 0.0 
0.0 0.0 5.895515439558e-04 
8.542333473452e-04 8.723102696209e-03 0.0 
8.723102696209e-03 -3.317777478279e-04 0.0 
0.0 0.0 4.487710362988e-04 
1.177549864975e-04 8.678898617295e-03 0.0 
8.678898617295e-03 5.756910072791e-04 0.0 
0.0 0.0 5.229942021801e-04 
2.478680828422e-03 3.773242333148e-03 0.0 
3.773242333148e-03 -2.080739081757e-03 0.0 
0.0 0.0 7.965519445461e-04 
-2.275215051944e-03 6.918741157222e-03 0.0 
6.918741157222e-03 3.001605200728e-03 0.0 
0.0 0.0 3.913937967075e-04 
2.356451712270e-03 4.139432574803e-04 0.0 
4.139432574803e-04 -2.087876423114e-03 0.0 
0.0 0.0 5.616019819567e-04 
3.874938589421e-03 6.940527078538e-03 0.0 
6.940527078538e-03 -3.480453024874e-03 0.0 
0.0 0.0 5.736457049572e-04 
3.870050202513e-03 7.032586713465e-05 0.0 
7.032586713465e-05 -2.621708951519e-03 0.0 
0.0 0.0 1.138930813970e-04 
-5.413576653867e-04 1.234113953581e-02 0.0 
1.234113953581e-02 3.296035728464e-03 0.0 
0.0 0.0 2.040950843068e-04 
2.090740351348e-03 3.412134926495e-04 0.0 
3.412134926495e-04 -1.814700477557e-03 0.0 
0.0 0.0 5.874158941735e-04 
4.783600969399e-03 1.831699267554e-03 0.0 
1.831699267554e-03 -4.259862207278e-03 0.0 
0.0 0.0 3.512232402426e-04 
4.250705056118e-03 2.537490005379e-03 0.0 
2.537490005379e-03 -3.956495790717e-03 0.0 
0.0 0.0 5.240687772014e-04 
2.272030725253e-03 6.637053109198e-03 0.0 
6.637053109198e-03 -1.802799313689e-03 0.0 
0.0 0.0 8.017416617969e-04 
1.873170761420e-03 2.831613990929e-04 0.0 
2.831613990929e-04 -1.589262684556e-03 0.0 
0.0 0.0 6.126602769424e-04 
4.903434299838e-03 2.325163451589e-03 0.0 
2.325163451589e-03 -4.443905749719e-03 0.0 
0.0 0.0 3.914525896769e-04 
1.696287089823e-03 2.253346230525e-04 0.0 
2.253346230525e-04 -1.404305631559e-03 0.0 
0.0 0.0 6.372953217722e-04 
-8.653717239247e-05 1.000953565831e-02 0.0 
1.000953565831e-02 2.696838428221e-03 0.0 
0.0 0.0 1.167538390021e-04 
-1.839285070266e-03 7.203772869911e-03 0.0 
7.203772869911e-03 2.458663246724e-03 0.0 
0.0 0.0 4.109510683956e-04 
1.555873346122e-03 1.675759792305e-04 0.0 
1.675759792305e-04 -1.257340229228e-03 0.0 
0.0 0.0 6.613359625859e-04 
1.132522888923e-03 8.835152243448e-03 0.0 
8.835152243448e-03 -6.450600097104e-04 0.0 
0.0 0.0 4.876078150342e-04 
3.725341812719e-03 5.399595157811e-06 0.0 
5.399595157811e-06 -2.578162432135e-03 0.0 
0.0 0.0 1.201533433325e-04 
3.192193810577e-03 8.047411463804e-03 0.0 
8.047411463804e-03 -2.775962370770e-03 0.0 
0.0 0.0 5.169098143020e-04 
1.224041996708e-03 1.400830047525e-04 0.0 
1.400830047525e-04 -8.476386500280e-04 0.0 
0.0 0.0 8.455163680733e-04 
3.939185305515e-03 1.689940022425e-04 0.0 
1.689940022425e-04 -3.699176945436e-03 0.0 
0.0 0.0 3.661715570206e-04 
3.910520378604e-03 2.285028195191e-03 0.0 
2.285028195191e-03 -3.611277002914e-03 0.0 
0.0 0.0 5.539085362728e-04 
-1.408882621887e-03 7.143581961050e-03 0.0 
7.143581961050e-03 1.941517180864e-03 0.0 
0.0 0.0 4.333490710306e-04 
2.621060283213e-04 7.507071656294e-03 0.0 
7.507071656294e-03 1.617940748455e-03 0.0 
0.0 0.0 8.140076718923e-05 
3.563688220402e-03 2.474007374112e-03 0.0 
2.474007374112e-03 -3.243868217974e-03 0.0 
0.0 0.0 6.074343051417e-04 
1.449701352677e-03 9.209488129543e-03 0.0 
9.209488129543e-03 -9.602843069044e-04 0.0 
0.0 0.0 5.384743778345e-04 
3.492253537625e-03 7.826241737206e-03 0.0 
7.826241737206e-03 -3.080753803976e-03 0.0 
0.0 0.0 5.520668923064e-04 
4.114051324807e-03 6.436589980941e-03 0.0 
6.436589980941e-03 -3.728197165782e-03 0.0 
0.0 0.0 4.798408077807e-04 
3.188266530765e-03 2.586168099328e-03 0.0 
2.586168099328e-03 -2.848286398669e-03 0.0 
0.0 0.0 6.629605709646e-04 
9.869281456085e-04 8.172044417520e-03 0.0 
8.172044417520e-03 6.492886712368e-04 0.0 
0.0 0.0 1.294999536396e-04 
3.672810936662e-03 -2.863849302231e-04 0.0 
-2.863849302231e-04 -3.321705549866e-03 0.0 
0.0 0.0 2.857674374952e-04 
3.679954496065e-03 -3.863117836134e-04 0.0 
-3.863117836134e-04 -3.189219454609e-03 0.0 
0.0 0.0 2.409032370610e-04 
4.949099195470e-03 2.122051471242e-03 0.0 
2.122051471242e-03 -4.545328631037e-03 0.0 
0.0 0.0 4.110480679811e-04 
1.197322129306e-03 9.444692616061e-03 0.0 
9.444692616061e-03 -6.873983814152e-04 0.0 
0.0 0.0 5.534495794665e-04 
3.644336432447e-03 4.667601428171e-05 0.0 
4.667601428171e-05 -2.800692669957e-03 0.0 
0.0 0.0 1.576574779690e-04 
-7.944312916248e-04 8.048918253190e-03 0.0 
8.048918253190e-03 1.325713518403e-03 0.0 
0.0 0.0 4.566212314122e-04 
3.597615039133e-03 -5.470375504021e-04 0.0 
-5.470375504021e-04 -2.821370554562e-03 0.0 
0.0 0.0 1.705637523576e-04 
4.900588229197e-03 1.493143639002e-03 0.0 
1.493143639002e-03 -4.493435687242e-03 0.0 
0.0 0.0 3.934516876918e-04 
3.342186980678e-03 7.541199285806e-03 0.0 
7.541199285806e-03 -2.910634851912e-03 0.0 
0.0 0.0 6.491361425714e-04 
-1.948688311256e-03 1.888371692097e-04 0.0 
1.888371692097e-04 2.545510280648e-03 0.0 
0.0 0.0 1.884185527806e-04 
4.817862450355e-03 1.382634841637e-03 0.0 
1.382634841637e-03 -4.473323799421e-03 0.0 
0.0 0.0 4.081126045759e-04 
2.915469864984e-03 2.073634830086e-05 0.0 
2.073634830086e-05 -2.652519941044e-03 0.0 
0.0 0.0 2.587076722224e-04 
4.710593487468e-03 8.636580636304e-04 0.0 
8.636580636304e-04 -4.362329293693e-03 0.0 
0.0 0.0 3.888714120795e-04 
4.046016750271e-03 6.728436676647e-03 0.0 
6.728436676647e-03 -3.671651923565e-03 0.0 
0.0 0.0 5.194234610492e-04 
4.515522514261e-03 8.306571902003e-04 0.0 
8.306571902003e-04 -4.226939372396e-03 0.0 
0.0 0.0 3.996667017067e-04 
4.366602612176e-03 4.364080881972e-04 0.0 
4.364080881972e-04 -4.078109629408e-03 0.0 
0.0 0.0 3.793945977655e-04 
-4.531153517244e-04 1.576599131491e-03 0.0 
1.576599131491e-03 1.032085534962e-03 0.0 
0.0 0.0 4.249129390574e-04 
4.098519865238e-03 4.461913001635e-04 0.0 
4.461913001635e-04 -3.859130140436e-03 0.0 
0.0 0.0 3.877988208571e-04 
3.413751281324e-05 5.151947702535e-04 0.0 
5.151947702535e-04 5.746235630516e-04 0.0 
0.0 0.0 4.388092012725e-04 
1.068702816741e-03 1.329280688908e-04 0.0 
1.329280688908e-04 -6.388709103345e-04 0.0 
0.0 0.0 9.535945068575e-04 
-2.617175365116e-03 1.342868019361e-04 0.0 
1.342868019361e-04 3.718278019359e-03 0.0 
0.0 0.0 1.594832369670e-04 
3.783284261628e-04 5.525725304141e-03 0.0 
5.525725304141e-03 1.015125417582e-03 0.0 
0.0 0.0 4.752489213157e-05 
1.467704251629e-03 -5.596119506898e-04 0.0 
-5.596119506898e-04 -7.939855902208e-04 0.0 
0.0 0.0 2.837172858969e-05 
1.388771501399e-03 6.194226699194e-03 0.0 
6.194226699194e-03 -2.438995308785e-04 0.0 
0.0 0.0 1.112484496346e-04 
4.016692586652e-03 -9.453635433185e-05 0.0 
-9.453635433185e-05 -3.712861951556e-03 0.0 
0.0 0.0 3.353672697138e-04 
-1.758847963161e-05 8.554814776600e-03 0.0 
8.554814776600e-03 5.394685832886e-04 0.0 
0.0 0.0 4.746656046064e-04 
-2.630687006420e-03 2.517676757847e-04 0.0 
2.517676757847e-04 3.735375519983e-03 0.0 
0.0 0.0 1.593636854412e-04 
3.832758993456e-03 -2.382746989152e-04 0.0 
-2.382746989152e-04 -3.512035357630e-03 0.0 
0.0 0.0 3.116079839286e-04 
8.379457803818e-04 1.067637878355e-02 0.0 
1.067637878355e-02 -2.442377474320e-04 0.0 
0.0 0.0 6.147443885973e-04 
1.592503313069e-03 8.304388618521e-03 0.0 
8.304388618521e-03 -1.083746881501e-03 0.0 
0.0 0.0 8.269134535785e-04 
-1.447516643838e-03 3.471816400136e-04 0.0 
3.471816400136e-04 1.975942899434e-03 0.0 
0.0 0.0 2.510498032448e-04 
2.646683479367e-03 4.803382509419e-03 0.0 
4.803382509419e-03 -2.236993866648e-03 0.0 
0.0 0.0 7.833772740401e-04 
3.620979314301e-03 7.488832668678e-03 0.0 
7.488832668678e-03 -3.208217404707e-03 0.0 
0.0 0.0 5.917972532070e-04 
-5.033367707512e-04 1.917769684516e-04 0.0 
1.917769684516e-04 1.014794778371e-03 0.0 
0.0 0.0 3.626126981717e-04 
-3.151089355613e-03 4.379591636037e-04 0.0 
4.379591636037e-04 4.914913705516e-03 0.0 
0.0 0.0 1.466111224091e-04 
3.172114184025e-03 -4.931842651825e-04 0.0 
-4.931842651825e-04 -1.900151346806e-03 0.0 
0.0 0.0 6.829188001251e-05 
1.377952319678e-03 5.722853257393e-05 0.0 
5.722853257393e-05 -1.064313161329e-03 0.0 
0.0 0.0 7.141012458065e-04 
4.683007011139e-04 3.943437105585e-03 0.0 
3.943437105585e-03 4.782213307002e-04 0.0 
0.0 0.0 2.841080054280e-05 
1.481672739460e-03 4.164861455792e-03 0.0 
4.164861455792e-03 -6.744111830665e-04 0.0 
0.0 0.0 7.996193412683e-05 
1.732735628813e-03 2.785458515437e-03 0.0 
2.785458515437e-03 -1.050946550614e-03 0.0 
0.0 0.0 6.978411860248e-05 
2.619301230855e-03 3.587470665188e-06 0.0 
3.587470665188e-06 -2.444085842433e-03 0.0 
0.0 0.0 3.046022652562e-04 
3.154272332271e-03 -8.885421587105e-04 0.0 
-8.885421587105e-04 -2.202619024025e-03 0.0 
0.0 0.0 1.116907855200e-04 
6.434288681185e-04 2.914177329791e-03 0.0 
2.914177329791e-03 -1.582904968227e-05 0.0 
0.0 0.0 2.658884092040e-05 
1.994430442616e-03 4.773496613835e-03 0.0 
4.773496613835e-03 -1.553622156605e-03 0.0 
0.0 0.0 8.577905260987e-04 
-3.429893206676e-03 1.446589739518e-03 0.0 
1.446589739518e-03 4.948156333104e-03 0.0 
0.0 0.0 2.088085196441e-04 
3.063138694581e-03 7.928826942947e-03 0.0 
7.928826942947e-03 -2.613754179575e-03 0.0 
0.0 0.0 6.636142557517e-04 
7.623277195403e-04 1.851299175007e-03 0.0 
1.851299175007e-03 -3.252380156881e-04 0.0 
0.0 0.0 1.896282973985e-05 
-6.420952977617e-04 5.654004671559e-03 0.0 
5.654004671559e-03 1.272328279626e-03 0.0 
0.0 0.0 4.767036318191e-04 
2.082531332242e-03 7.626949284643e-03 0.0 
7.626949284643e-03 -1.597288693601e-03 0.0 
0.0 0.0 7.905028182113e-04 
1.163960559078e-03 9.259211679514e-04 0.0 
9.259211679514e-04 -7.325604887982e-04 0.0 
0.0 0.0 9.583705496686e-04 
2.658243370789e-03 7.813038754949e-03 0.0 
7.813038754949e-03 -2.195307655793e-03 0.0 
0.0 0.0 7.284571254685e-04 
1.888316196304e-03 1.370698060904e-03 0.0 
1.370698060904e-03 -1.225482021025e-03 0.0 
0.0 0.0 6.267641966435e-05 
-3.917307836344e-03 4.547384303909e-03 0.0 
4.547384303909e-03 5.503068288570e-03 0.0 
0.0 0.0 3.040900514638e-04 
1.652533899596e-03 1.023352319062e-02 0.0 
1.023352319062e-02 -1.108977795847e-03 0.0 
0.0 0.0 6.961670590931e-04 
-1.196307025968e-03 5.091202741027e-04 0.0 
5.091202741027e-04 1.721403111118e-03 0.0 
0.0 0.0 3.028879377666e-04 
1.119919450540e-03 6.771533618656e-04 0.0 
6.771533618656e-04 -6.868313790874e-04 0.0 
0.0 0.0 9.622013872381e-04 
-3.999087813725e-03 2.223950007358e-03 0.0 
2.223950007358e-03 5.933345795472e-03 0.0 
0.0 0.0 2.305805400680e-04 
-3.028872092472e-04 8.912576139262e-04 0.0 
8.912576139262e-04 8.706278547459e-04 0.0 
0.0 0.0 4.222878797767e-04 
3.706294001342e-03 -5.871921405146e-04 0.0 
-5.871921405146e-04 -2.877388370428e-03 0.0 
0.0 0.0 1.746821134639e-04 
-2.737313569755e-04 2.686192086601e-04 0.0 
2.686192086601e-04 7.885080113637e-04 0.0 
0.0 0.0 3.849055343879e-04 
4.811040858266e-04 9.119746223890e-03 0.0 
9.119746223890e-03 4.997994981920e-05 0.0 
0.0 0.0 5.272427003244e-04 
-2.394712273250e-03 5.730459165535e-04 0.0 
5.730459165535e-04 3.141113043865e-03 0.0 
0.0 0.0 1.952126992955e-04 
-3.588187678594e-03 6.362581039522e-03 0.0 
6.362581039522e-03 5.077235156744e-03 0.0 
0.0 0.0 3.284130031257e-04 
1.120310920795e-03 2.176791957297e-04 0.0 
2.176791957297e-04 -7.108444929618e-04 0.0 
0.0 0.0 9.233604081238e-04 
3.111480636761e-04 9.989833924521e-03 0.0 
9.989833924521e-03 3.048745437145e-04 0.0 
0.0 0.0 5.731443695971e-04 
1.919764665547e-03 5.447507015624e-04 0.0 
5.447507015624e-04 -1.233208590469e-03 0.0 
0.0 0.0 5.970884594742e-05 
-1.524393980536e-03 4.311399134948e-04 0.0 
4.311399134948e-04 2.044263812205e-03 0.0 
0.0 0.0 2.572650849581e-04 
2.368186901392e-03 -1.309351212859e-05 0.0 
-1.309351212859e-05 -2.166646022221e-03 0.0 
0.0 0.0 3.909480286432e-04 
2.366250712863e-03 -7.610407154258e-04 0.0 
-7.610407154258e-04 -1.442380079023e-03 0.0 
0.0 0.0 6.500721705083e-05 
1.409955992961e-03 1.410544612359e-03 0.0 
1.410544612359e-03 -9.966357253245e-04 0.0 
0.0 0.0 9.104614529972e-04 
9.056327226736e-04 9.822070573009e-03 0.0 
9.822070573009e-03 -3.575317162238e-04 0.0 
0.0 0.0 5.792949515935e-04 
1.146147916445e-03 3.767740432633e-04 0.0 
3.767740432633e-04 -7.374931942196e-04 0.0 
0.0 0.0 9.193616159037e-04 
3.985145831595e-03 -1.263758454787e-05 0.0 
-1.263758454787e-05 -2.686327076657e-03 0.0 
0.0 0.0 1.134931619740e-04 
3.495460981599e-03 -2.449318728814e-04 0.0 
-2.449318728814e-04 -2.023080886920e-03 0.0 
0.0 0.0 6.302510322223e-05 
1.505688950268e-03 1.936914217603e-03 0.0 
1.936914217603e-03 -1.079698819679e-03 0.0 
0.0 0.0 9.071169466287e-04 
1.250249322763e-03 1.081194596398e-02 0.0 
1.081194596398e-02 -6.761836596173e-04 0.0 
0.0 0.0 6.555405008093e-04 
3.808148287260e-03 -6.398054743001e-04 0.0 
-6.398054743001e-04 -3.077480087178e-03 0.0 
0.0 0.0 1.992443155095e-04 
8.630699569047e-05 6.434781579591e-03 0.0 
6.434781579591e-03 6.115657434124e-04 0.0 
0.0 0.0 5.148866099752e-04 
1.454311045718e-03 -1.363548865050e-04 0.0 
-1.363548865050e-04 -8.781296042594e-04 0.0 
0.0 0.0 4.088043260805e-05 
-3.466915973188e-03 5.101122452853e-04 0.0 
5.101122452853e-04 5.502179940220e-03 0.0 
0.0 0.0 1.537432673685e-04 
3.878173027767e-03 2.174313622827e-05 0.0 
2.174313622827e-05 -2.219526474315e-03 0.0 
0.0 0.0 6.596938218484e-05 
1.096093983933e-03 4.795164122132e-04 0.0 
4.795164122132e-04 -6.635539705570e-04 0.0 
0.0 0.0 9.607730102448e-04 
-5.882688922693e-04 3.164917284567e-03 0.0 
3.164917284567e-03 1.217588759992e-03 0.0 
0.0 0.0 4.407311846046e-04 
2.009202005701e-03 7.359469316222e-05 0.0 
7.359469316222e-05 -1.792989185454e-03 0.0 
0.0 0.0 4.416819218812e-04 
-5.199403138841e-03 7.322343057941e-03 0.0 
7.322343057941e-03 8.527804394351e-03 0.0 
0.0 0.0 2.968280279989e-04 
2.758573344649e-03 3.870273731752e-05 0.0 
3.870273731752e-05 -2.552832386538e-03 0.0 
0.0 0.0 2.795605044049e-04 
2.208379619692e-03 9.300523226739e-03 0.0 
9.300523226739e-03 -1.709947178264e-03 0.0 
0.0 0.0 7.083765573516e-04 
3.229181296108e-03 -6.761866726445e-04 0.0 
-6.761866726445e-04 -2.190332748164e-03 0.0 
0.0 0.0 1.034853804207e-04 
-3.644635616408e-04 2.173303073401e-03 0.0 
2.173303073401e-03 9.867469828312e-04 0.0 
0.0 0.0 4.482733293988e-04 
1.631829312193e-03 2.672250331362e-03 0.0 
2.672250331362e-03 -1.198532333123e-03 0.0 
0.0 0.0 8.988316452788e-04 
-2.476118415398e-04 8.060034721173e-03 0.0 
8.060034721173e-03 8.889046562685e-04 0.0 
0.0 0.0 5.313879335345e-04 
1.498363591496e-03 5.506425344962e-03 0.0 
5.506425344962e-03 -1.018598430644e-03 0.0 
0.0 0.0 8.965935735958e-04 
1.981832533162e-03 -6.547211751308e-04 0.0 
-6.547211751308e-04 -1.207060167715e-03 0.0 
0.0 0.0 6.184882302001e-05 
1.922677045309e-03 8.145490500736e-03 0.0 
8.145490500736e-03 -1.421152837786e-03 0.0 
0.0 0.0 7.868261840571e-04 
2.119475400645e-03 3.682719628354e-03 0.0 
3.682719628354e-03 -1.699764352702e-03 0.0 
0.0 0.0 8.381744836577e-04 
-3.040815270568e-03 1.327261302952e-04 0.0 
1.327261302952e-04 4.738132257601e-03 0.0 
0.0 0.0 1.425245567928e-04 
-6.288836358157e-05 9.065213520055e-03 0.0 
9.065213520055e-03 6.953779970890e-04 0.0 
0.0 0.0 5.446099588311e-04 
2.407735826857e-03 3.117823964091e-05 0.0 
3.117823964091e-05 -2.224540645211e-03 0.0 
0.0 0.0 3.423213394712e-04 
3.599986918546e-03 4.020789376385e-05 0.0 
4.020789376385e-05 -2.745723016094e-03 0.0 
0.0 0.0 1.556967942294e-04 
5.358941897163e-05 2.663951976458e-04 0.0 
2.663951976458e-04 5.641568782617e-04 0.0 
0.0 0.0 4.253429370844e-04 
4.437775287144e-03 -5.599700674631e-05 0.0 
-5.599700674631e-05 -2.054547739532e-03 0.0 
0.0 0.0 1.690866513218e-05 
-2.922489254546e-03 4.883566074206e-05 0.0 
4.883566074206e-05 4.555180848429e-03 0.0 
0.0 0.0 1.380964673318e-04 
1.049625299866e-03 6.481575402045e-05 0.0 
6.481575402045e-05 -6.170077601248e-04 0.0 
0.0 0.0 9.655158964808e-04 
3.694802328593e-03 6.311273576224e-05 0.0 
6.311273576224e-05 -2.772690720714e-03 0.0 
0.0 0.0 1.476665248444e-04 
-2.405988651984e-03 2.585073038299e-04 0.0 
2.585073038299e-04 3.246256577103e-03 0.0 
0.0 0.0 1.727125407415e-04 
1.072944286415e-03 1.087092741608e-02 0.0 
1.087092741608e-02 -4.858249974796e-04 0.0 
0.0 0.0 6.387899682568e-04 
1.618760775222e-03 2.684681459549e-05 0.0 
2.684681459549e-05 -1.366486273340e-03 0.0 
0.0 0.0 5.607968109689e-04 
-7.061537347896e-04 3.658945464550e-04 0.0 
3.658945464550e-04 1.246605029394e-03 0.0 
0.0 0.0 3.532679755356e-04 
3.371786244119e-03 -9.316680537858e-04 0.0 
-9.316680537858e-04 -2.549124378401e-03 0.0 
0.0 0.0 1.461439089346e-04 
1.557822126134e-03 -4.699115640636e-04 0.0 
-4.699115640636e-04 -7.952543920214e-04 0.0 
0.0 0.0 1.979512894051e-05 
-1.789137723886e-03 3.362468880932e-04 0.0 
3.362468880932e-04 2.354675555969e-03 0.0 
0.0 0.0 2.041721497106e-04 
2.011739232444e-03 7.085547732039e-03 0.0 
7.085547732039e-03 -1.536451692539e-03 0.0 
0.0 0.0 8.209286851302e-04 
-3.976160792459e-04 6.714963737600e-03 0.0 
6.714963737600e-03 1.045396053959e-03 0.0 
0.0 0.0 5.126783019240e-04 
-2.165155890712e-03 4.909498608539e-04 0.0 
4.909498608539e-04 2.794928896496e-03 0.0 
0.0 0.0 1.978200849255e-04 
2.728418599645e-03 5.966041932718e-04 0.0 
5.966041932718e-04 -1.862103098694e-03 0.0 
0.0 0.0 1.033421724422e-04 
1.103525767948e-03 1.046944673674e-02 0.0 
1.046944673674e-02 -5.377865192092e-04 0.0 
0.0 0.0 6.220379900654e-04 
1.923181291079e-03 7.492671758377e-05 0.0 
7.492671758377e-05 -1.690913839269e-03 0.0 
0.0 0.0 4.826435395985e-04 
1.854207688901e-03 9.987611268244e-03 0.0 
9.987611268244e-03 -1.327258869303e-03 0.0 
0.0 0.0 6.717978553901e-04 
2.231547974190e-03 4.633124761478e-03 0.0 
4.633124761478e-03 -1.801248925725e-03 0.0 
0.0 0.0 8.221478138114e-04 
5.515031925550e-04 1.365834572326e-04 0.0 
1.365834572326e-04 -2.714970711941e-04 0.0 
0.0 0.0 9.078310477466e-06 
1.526469358608e-03 3.321254973275e-05 0.0 
3.321254973275e-05 -1.255710009977e-03 0.0 
0.0 0.0 6.075559433456e-04 
3.749608176562e-03 6.260949449622e-06 0.0 
6.260949449622e-06 -2.115899342174e-03 0.0 
0.0 0.0 6.044998879319e-05 
1.234511702284e-03 8.553624200736e-04 0.0 
8.553624200736e-04 -8.172019772191e-04 0.0 
0.0 0.0 9.247512742905e-04 
1.807239163392e-03 2.375071259498e-05 0.0 
2.375071259498e-05 -1.570170195101e-03 0.0 
0.0 0.0 5.066387131994e-04 

SCALARS node_materi_plasti_kappa_shear float
LOOKUP_TABLE default
3.342730373675e-03
3.990150917046e-03
2.703656295662e-03
1.800841423445e-03
3.354501540726e-03
3.536357828148e-03
3.570131729871e-03
3.502232790376e-03
3.339808878147e-03
3.168011099083e-03
2.993492236469e-03
2.839661238196e-03
2.730856942793e-03
2.635575769238e-03
2.578120293404e-03
2.549762456204e-03
2.536662096231e-03
2.559891099039e-03
2.580489805523e-03
2.605828000196e-03
2.636278704853e-03
2.663531582757e-03
2.694323554191e-03
2.088450902973e-03
2.504515160613e-03
3.100859601722e-03
3.694242407631e-03
4.265068610190e-03
5.074135765076e-03
5.957351285678e-03
6.819948342604e-03
7.786764584219e-03
8.647019479672e-03
9.392273361619e-03
1.029699627536e-02
1.115699372099e-02
1.177372433413e-02
1.238623920716e-02
1.270674806904e-02
1.296413841271e-02
1.310050797306e-02
1.308204667261e-02
1.293219630154e-02
1.264497575929e-02
1.222801508360e-02
1.174456777078e-02
1.116088436632e-02
1.055284223789e-02
9.892456076939e-03
9.187748769269e-03
8.494769875974e-03
7.809347263773e-03
7.191105959642e-03
6.610471906055e-03
6.119749482918e-03
5.524466225950e-03
5.043317568861e-03
4.616717118010e-03
4.229719138470e-03
3.935282354337e-03
3.664307236914e-03
3.455364242328e-03
3.265829377323e-03
3.135336164345e-03
3.022104951252e-03
2.936768330037e-03
2.865098609161e-03
2.799512644591e-03
2.759457011676e-03
2.733907914496e-03
2.714281309060e-03
2.703710494674e-03
3.558213461112e-03
2.984607074651e-03
2.566943253257e-03
2.243557412399e-03
1.932996388969e-03
1.666884874457e-03
1.425130691163e-03
1.368281470057e-03
1.505244157696e-03
4.409287653496e-04
1.311061479001e-02
1.048080923389e-03
1.617789824348e-03
2.490568545486e-03
3.348242789447e-03
4.741580871642e-03
6.670377346627e-03
9.108617436429e-03
1.229481796018e-02
1.566613001641e-02
4.055850026720e-03
4.005482848918e-03
4.060291517049e-03
4.201774846020e-03
4.249872624926e-03
4.424002338144e-03
4.685792397450e-03
4.806449361349e-03
4.996414623026e-03
5.339475636254e-03
5.867633953866e-03
6.520703487001e-03
7.769722023704e-03
1.048242623896e-02
4.613715955556e-04
7.383271356586e-04
9.114464679898e-04
1.066317157672e-03
1.315886569905e-03
1.526423378178e-03
1.691786813915e-03
1.851754533665e-03
2.061253757554e-03
2.259660766651e-03
2.462630723108e-03
2.661689450553e-03
2.892466948883e-03
3.091678983835e-03
3.242037995246e-03
3.327367377697e-03
3.382339967624e-03
3.423278955123e-03
3.400587698577e-03
8.046154869200e-04
1.310844980188e-03
1.999303103921e-03
2.902225377339e-03
4.303175249611e-03
5.906392805073e-03
7.793993702931e-03
1.058814152941e-02
1.406708943843e-02
1.658771957920e-02
1.736717192092e-03
5.466565551682e-03
2.333157119942e-03
1.596848468106e-03
3.672661893300e-03
3.652136667717e-03
2.615191416758e-03
7.830737117145e-03
6.857003075256e-03
1.030413143716e-02
1.195457230475e-02
2.999755361843e-03
3.003526623804e-03
1.225124822279e-02
1.384342434721e-02
3.084689421098e-03
2.562358738393e-03
1.257043206247e-02
1.100296996129e-02
3.922799153042e-03
6.031444236378e-03
8.812197490011e-03
8.661741618785e-03
4.984003644085e-03
4.218047769032e-03
2.103919440982e-03
2.794955563213e-03
1.120869505967e-03
3.337789751862e-03
2.624543197110e-03
3.812247054213e-03
3.534804903201e-03
1.175991849746e-02
9.065996935632e-03
1.143275939093e-02
6.653363029045e-03
4.581645781638e-03
1.931233000799e-03
6.023446124766e-03
3.286594217121e-03
1.571853729921e-03
2.646042455591e-03
2.787346246682e-03
2.964318511117e-03
5.224568245915e-03
2.637346628667e-03
9.104977448969e-03
1.469348647593e-02
1.006470872967e-03
2.755663826090e-03
2.727340730946e-03
3.408659263099e-03
1.437841865169e-03
1.105421113804e-02
1.080838719266e-02
9.309636046272e-03
9.522410486624e-03
8.337893576027e-03
8.569686228374e-03
9.402936129948e-03
8.593926173563e-03
9.270436882843e-03
7.694760268819e-03
8.626142481057e-03
9.159143556795e-03
8.757193440238e-03
9.074985866297e-03
9.635252378825e-03
9.425670971490e-03
1.009834555207e-02
9.748444497843e-03
9.345383217454e-03
9.529022377024e-03
9.986779442940e-03
9.656861429772e-03
1.006659569925e-02
9.667001573549e-03
9.990884660958e-03
9.563707223402e-03
9.434039926464e-03
9.297551886710e-03
9.366939503832e-03
9.073034581452e-03
9.069758591555e-03
8.772958968492e-03
8.940948347860e-03
8.611793654916e-03
8.393291065595e-03
8.211431043112e-03
7.938432367775e-03
7.771338347840e-03
7.444900285112e-03
7.299556697229e-03
7.690523023757e-03
7.235222372694e-03
6.816112557747e-03
6.781945472128e-03
7.183130236581e-03
6.756308142816e-03
7.081569447862e-03
6.668552135540e-03
6.353101147363e-03
6.283414579297e-03
6.486517596098e-03
6.121872519271e-03
5.937960125311e-03
5.790912777280e-03
5.867102999420e-03
5.552983237262e-03
5.492158894607e-03
5.271264305014e-03
5.259406064317e-03
4.991331152422e-03
5.009580107889e-03
4.745659504479e-03
4.684904381139e-03
4.456705318549e-03
4.369299066237e-03
4.514938615774e-03
4.241826337627e-03
4.293178350626e-03
4.038998961440e-03
8.927291416947e-03
4.084622294259e-03
4.302077741012e-03
3.851574776405e-03
3.782457877995e-03
3.895564569279e-03
3.686948551854e-03
3.728639930769e-03
7.705991277153e-03
9.450335201892e-03
3.552805411502e-03
3.591694131588e-03
3.720284678799e-03
3.587427238789e-03
7.486980955647e-03
6.886902839285e-03
6.678481758138e-03
6.269545882571e-03
5.948835131704e-03
3.496343227591e-03
8.377504983220e-03
6.610229356916e-03
1.060034024554e-02
9.481543786075e-03
7.504740465367e-03
3.476062615144e-03
3.368796220759e-03
3.272515805236e-03
4.594728987003e-03
4.262389084955e-03
4.481959494409e-03
4.136593541571e-03
4.344196767568e-03
3.997284018576e-03
3.813271851093e-03
3.681792787144e-03
3.523154860684e-03
4.190459613999e-03
4.563526133055e-03
3.407029879255e-03
3.272979086719e-03
3.179520269111e-03
3.066101812592e-03
3.145874837581e-03
2.961514365610e-03
3.028240885550e-03
7.297892889076e-03
7.709044530319e-03
7.383778752410e-03
7.767030495030e-03
7.342508551875e-03
7.686228572880e-03
7.194586546192e-03
6.848864985485e-03
8.954848225794e-03
6.346113031204e-03
6.399458359691e-03
5.900229721969e-03
5.984626473758e-03
5.451620355847e-03
5.514271568921e-03
4.960425024390e-03
5.001186190887e-03
4.514580315389e-03
4.631101843850e-03
4.163228692109e-03
4.342201815067e-03
9.419089549797e-03
8.161514248122e-03
8.060456918497e-03
8.564289966421e-03
3.657246443181e-03
2.907006522888e-03
4.389785014478e-03
4.793118772065e-03
6.669025525747e-03
3.506840499453e-03
4.935802017409e-03
5.578629125523e-03
5.784768639096e-03
5.394809096274e-03
4.598565357444e-03
3.456668476885e-03
3.545964508331e-03
3.952011198657e-03
2.821986789914e-03
2.795863679798e-03
3.643132084595e-03
8.452671236266e-03
8.968992321409e-03
4.781441082602e-03
4.532301672408e-03
4.100427919795e-03
4.304450802515e-03
4.729986555545e-03
4.483037651770e-03
4.065121602375e-03
4.236097558515e-03
4.604297695188e-03
4.349299089158e-03
3.957160176970e-03
4.077604669219e-03
2.869483649344e-03
3.616717160136e-03
1.055700746697e-02
4.208624109062e-03
6.998701241100e-03
5.355011099711e-03
4.970001489457e-03
4.964645525207e-03
4.521549747124e-03
4.534575643150e-03
4.047597606958e-03
4.058428258429e-03
3.624912529773e-03
3.712367613940e-03
3.326523133896e-03
3.191854641167e-03
2.948125177749e-03
3.115511997256e-03
2.778097116644e-03
2.995248614191e-03
2.698117840386e-03
2.485367036653e-03
3.480022528246e-03
6.338774561399e-03
6.118270739382e-03
3.186732584195e-03
3.083568156005e-03
3.175233382314e-03
2.967579085113e-03
2.390435842932e-03
2.242584782260e-03
4.863403273972e-03
5.560050331147e-03
5.921693759178e-03
2.726527579452e-03
2.741788535348e-03
9.074396054116e-03
9.471150444284e-03
8.931872395672e-03
9.137637974895e-03
9.796503431957e-03
8.468681514071e-03
4.970241062945e-03
2.888579464677e-03
3.826762155684e-03
3.681522126834e-03
2.723330716558e-03
6.495835701042e-03
9.559412631319e-03
9.735802315795e-03
9.910605838123e-03
1.010571178425e-02
1.031384591639e-02
1.039265031544e-02
1.012737280293e-02
8.852558814465e-03
1.023234107811e-02
2.687014192015e-03
8.542667518085e-03
4.643936188785e-03
3.473834228714e-03
3.694609390834e-03
3.457922764823e-03
3.391074674963e-03
4.395222411735e-03
1.065458442422e-02
1.056307812784e-02
9.204563704141e-03
9.952161745096e-03
8.206834802900e-03
6.363756731372e-03
4.085902372120e-03
3.810976768053e-03
3.477572674832e-03
3.516145856928e-03
4.058617588856e-03
6.260895723102e-03
6.303388953010e-03
3.301510258111e-03
2.981848965026e-03
2.126967949515e-03
1.968974041456e-03
3.072815036014e-03
2.871484903343e-03
4.819693118213e-03
3.833019666252e-03
2.149351220313e-03
6.015743689030e-03
6.147746551470e-03
2.885140344361e-03
4.615894331965e-03
3.964316372676e-03
4.892560246481e-03
4.134266745043e-03
3.438917881831e-03
4.599975428124e-03
4.657268016496e-03
9.914716673306e-03
9.823700964519e-03
9.876804771615e-03
3.405384067389e-03
3.988986781887e-03
2.666287162862e-03
1.100113364685e-02
1.081905077185e-02
6.963718729062e-03
7.035783487228e-03
6.078666702210e-03
6.835578140167e-03
1.024715597609e-02
7.650149592502e-03
1.105771274938e-02
1.176471031762e-02
1.191900634968e-02
1.034058342880e-02
1.065222585445e-02
6.561762479204e-03
7.936552689091e-03
3.299698621030e-03
3.233711735856e-03
4.840012982045e-03
3.228400102555e-03
3.056109229603e-03
3.302644880390e-03
3.274154996744e-03
3.533168192075e-03
3.476528293598e-03
4.059185844246e-03
3.846811050165e-03
5.550831981100e-03
6.538709393876e-03
6.663968954984e-03
5.053966997800e-03
5.917975720110e-03
6.982023466580e-03
3.343768756965e-03
9.238018730483e-03
3.342368256150e-03
9.394252943923e-03
2.674811642427e-03
2.724064743354e-03
8.556101465216e-03
1.242850430366e-02
9.268732708679e-03
8.896302142345e-03
1.268443615637e-02
1.232293962098e-02
1.172786972349e-02
1.165554209829e-02
4.848940412393e-03
4.601929261089e-03
1.091930220232e-02
1.029629538251e-02
1.129291793056e-02
1.113350329503e-02
7.877701003468e-03
7.587739166513e-03
3.311957041046e-03
9.891695213793e-03
4.512009812706e-03
1.260713714006e-02
3.652087926907e-03
3.539571194058e-03
2.648707322366e-03
3.018102293429e-03
1.818769411384e-03
5.489053152795e-03
6.219104856160e-03
4.788362821814e-03
2.676561638753e-03
3.736447250044e-03
2.688218788220e-03
1.080124439053e-02
2.157965258843e-03
9.182113933497e-03
8.597661537139e-03
5.284076545944e-03
1.680617766208e-03
1.583565658248e-03
4.270693944759e-03
4.092670421500e-03
4.581772953428e-03
3.684006501942e-03
2.823080050083e-03
2.643414189349e-03
3.287815385306e-03
3.097936071827e-03
3.891209955810e-03
4.112253393648e-03
3.197744635337e-03
3.442922750237e-03
9.818311901648e-03
9.925285769349e-03
9.670000624340e-03
5.689914989834e-03
5.807570736373e-03
6.220269819985e-03
3.586419957493e-03
3.599868440053e-03
5.097360507710e-03
5.136713899073e-03
4.725135220696e-03
5.515069367890e-03
2.734469006058e-03
2.772169929834e-03
3.203483113715e-03
3.363880227886e-03
3.506378594427e-03
2.989104010893e-03
7.636778837386e-03
7.643101357178e-03
8.016640755349e-03
3.379019591660e-03
9.644922575546e-03
4.828493296742e-03
5.337885508628e-03
4.316362138016e-03
9.151624910371e-03
8.830223908435e-03
9.762738763806e-03
2.285077404531e-03
1.471222870908e-03
3.617007864280e-03
1.942339144222e-03
3.672882659283e-03
3.304061086528e-03
3.807129526597e-03
3.492445265226e-03
4.935469774301e-03
5.287255323384e-03
2.923790954514e-03
5.666573356929e-03
3.115220074201e-03
3.269352725971e-03
3.418309022733e-03
3.299834978413e-03
3.205098337286e-03
3.123930303049e-03
3.203061916551e-03
3.045137260352e-03
4.062164489890e-03
2.990409193430e-03
2.912583212852e-03
2.898092641323e-03
1.187192361649e-02
7.612099114998e-03
7.045026809329e-03
5.302898072102e-03
1.168750301136e-02
1.139351045214e-02
2.632803822339e-03
2.613219600787e-03
3.367192822986e-03
3.293005539204e-03
2.923861555190e-03
2.918329627048e-03
2.584285880043e-03
2.579913798960e-03
2.284964250545e-03
1.019977293640e-02
3.956254661754e-03
1.358682671722e-02
7.179844378679e-03
6.958274671097e-03
1.079595683968e-02
9.572874334537e-03
3.753086895920e-03
7.418620561577e-03
7.618840624124e-03
7.690919255644e-04
1.838771140412e-03
8.029059243044e-03
1.129048662471e-02
8.367436381422e-03
8.103051792807e-03
5.523945321610e-03
3.163986868689e-03
4.139447388722e-03
2.368169327961e-03
2.843355780704e-03
2.597458144814e-03
7.145970200501e-03
1.029184926887e-02
5.344788204734e-03
7.776044652440e-03
9.945592062186e-03
1.051767754537e-02
1.167651188420e-02
6.924843395112e-03
8.989895943768e-03
7.233469877399e-03
1.046172309421e-02
6.790492492593e-03
7.565694106664e-03
8.690631706480e-03
8.621093446091e-03
7.759196896322e-03
8.609484947625e-03
9.729978986851e-03
9.566173547085e-03
1.105905587612e-02
1.060512960871e-02
9.486433402637e-03
1.020167687342e-02
1.122318076771e-02
9.376406656871e-03
7.477159457728e-03
8.232493300653e-03
2.556646534715e-03
2.165595817278e-03
1.052820124787e-02
1.238816470542e-02
1.147912875728e-02
6.134181458860e-03
1.189066499500e-02
1.109592529437e-02
4.378049887550e-03
1.087348775328e-02
7.056910703878e-03
7.555966642019e-03
7.163140119855e-03
1.040751271829e-02
4.992213561747e-03
8.486539303287e-03
8.124950695536e-03
8.367722762310e-03
8.063452892143e-03
8.634156745155e-03
5.992334335093e-03
6.005933527401e-03
5.575464776735e-03
6.078358287970e-03
5.007108431426e-03
1.263428306454e-02
1.253111103814e-02
4.849738988051e-03
5.095524628022e-03
5.394814716379e-03
5.346488086048e-03
4.962772668191e-03
5.224998266177e-03
5.631153679582e-03
5.087462102874e-03
1.066782200007e-02
4.221253020945e-03
4.719141333733e-03
5.103895238298e-03
5.201650533235e-03
3.533791363236e-03
3.697682232901e-03
3.598380763994e-03
3.386544674148e-03
9.853987196643e-03
3.932818989871e-03
6.586475765057e-03
3.965424617173e-03
6.909977055625e-03
7.466327602550e-03
8.568146930580e-03
7.457219701017e-03
6.208172670074e-03
2.981372423092e-03
2.819667202970e-03
2.737235032284e-03
2.698333168642e-03
2.641567476701e-03
2.687713837376e-03
2.611587628416e-03
2.578622941145e-03
5.465200056187e-03
1.805168044379e-03
2.481857733461e-03
2.509171525484e-03
3.016307477765e-03
3.034339994877e-03
3.524046315615e-03
3.441727155213e-03
2.409597231040e-03
2.034812935176e-03
2.589312934962e-03
2.180862690197e-03
2.672837797720e-03
3.148578725326e-03
3.651006248478e-03
2.749447108685e-03
2.692006129709e-03
2.754940009019e-03
2.879532191514e-03
2.897522606368e-03
2.680982323160e-03
2.921016050722e-03
3.024470247219e-03
3.388647524729e-03
3.436502853453e-03
3.458126827111e-03
3.498541450382e-03
3.459544832660e-03
3.398893085969e-03
3.382615548223e-03
3.292978660443e-03
3.331449292585e-03
3.425078988824e-03
3.188519096117e-03
1.828385797590e-03
1.744907766649e-03
3.474265621072e-03
4.615574674922e-03
2.489805890385e-03
3.105330741410e-03
5.295485121936e-03
4.628446262770e-03
2.652954526350e-03
2.680540801224e-03
2.164601892054e-03
3.889971379347e-03
9.979693186160e-03
2.380501130151e-03
4.225272379294e-03
4.354966544891e-03
2.660830434321e-03
3.373824922645e-03
2.782289025250e-03
2.865173064286e-03
3.001134909103e-03
5.094273769592e-03
3.507425259486e-03
3.456869576057e-03
2.981404959736e-03
2.641211856373e-03
3.447527720018e-03
2.787545575511e-03
3.543299636099e-03
1.112904126524e-02
1.121794325724e-02
4.931932962633e-03
3.614805133491e-03
4.085233839691e-03
4.388539847016e-03
8.696149884753e-03
4.160070752038e-03
3.854114919759e-03
2.430379082572e-03
2.863978691400e-03
4.030328866016e-03
3.942554475397e-03
4.475365224730e-03
7.492298803903e-03
3.781362180259e-03
3.541197907229e-03
6.315722102611e-03
5.832975325536e-03
3.441871379898e-03
3.626589971593e-03
4.141798401732e-03
6.224130481669e-03
3.390966171461e-03
6.883435073353e-03
9.794257644392e-03
1.537943601349e-02
2.737972880704e-03
8.545439537766e-03
6.425373510147e-03
6.965965224803e-03
3.277057871156e-03
3.408023260609e-03
7.623123552753e-03
3.729149158811e-03
1.008566089117e-02
6.354939242928e-03
4.999698424613e-03
5.549310462139e-03
7.850417874298e-03
1.112175940526e-02
9.508769560145e-03
9.132486071588e-03
9.209635910992e-03
2.603682480672e-03
3.699741868343e-03
3.902082521131e-03
8.327029740430e-03
5.547826767822e-03
1.055511561235e-02
4.416254086853e-03
9.944668303686e-03
3.294429728207e-03
5.374410059897e-03
3.872206492118e-03
3.421801420355e-03
3.397062208107e-03
5.461584956759e-03
8.131177882237e-03
3.764030638368e-03
9.250043510689e-03
3.103572531315e-03
5.037096260260e-03
1.352574063788e-03
1.372618098860e-02
2.952831708548e-03
6.587213416664e-03
7.271056895902e-03
2.612193890236e-03
1.072890056341e-02
1.071793349065e-02
2.845812689491e-03
5.828047867773e-03
6.778414857606e-03
3.730448818994e-03
2.824476285580e-03
5.555399134516e-03
9.507776859482e-03
6.214198669677e-03
1.342169812004e-02
3.484753664846e-03
9.501697361056e-03
9.706625564564e-03
5.811720796225e-03
7.940975657995e-03
3.336181129247e-03
8.950795579865e-03
3.461632002381e-03
1.288834782791e-02
3.102814430471e-03
5.542182404412e-03
5.869857810557e-03
8.258776537510e-03
2.919251566512e-03
5.967586571819e-03
2.775545402810e-03
1.045348557614e-02
8.121212491980e-03
2.668409529345e-03
9.737440190642e-03
3.385817903125e-03
9.567740414134e-03
2.652844951117e-03
4.532440390368e-03
5.491568912556e-03
8.032578973444e-03
7.855231589637e-03
5.386967977844e-03
1.024096745681e-02
9.535306488191e-03
8.493085591272e-03
5.240466169379e-03
8.528624257214e-03
4.024204878599e-03
3.885763972010e-03
5.989380815881e-03
1.045931979186e-02
3.507012838623e-03
8.859940768499e-03
3.567987031522e-03
5.672642195184e-03
9.326846182308e-03
2.411509933931e-03
5.630780613383e-03
3.261511428346e-03
5.352660366122e-03
8.785205801185e-03
5.223252612840e-03
4.967950418974e-03
2.661983599160e-03
4.765847353722e-03
1.860502299765e-03
2.705542251855e-03
3.257055527803e-03
5.806988489872e-03
1.356308070002e-03
6.577146839784e-03
4.485335344988e-03
9.355004341713e-03
3.279609971479e-03
4.247469144060e-03
1.175061633334e-02
9.688890182051e-03
2.015584731287e-03
6.743249130630e-03
9.335001225428e-03
1.413717768280e-03
4.143321102300e-03
2.742899326080e-03
2.572776778113e-03
4.182358209335e-03
4.585972717959e-03
3.376829680767e-03
3.134720840850e-03
3.038379160377e-03
3.159479076964e-03
6.506062390158e-03
4.557398108920e-03
9.591255642737e-03
2.144127079868e-03
6.650770844679e-03
9.123461818045e-03
3.102201899449e-03
9.404518317858e-03
2.337051137226e-03
6.813493848853e-03
1.147993429743e-02
1.914425202696e-03
2.934116657580e-03
5.588168434085e-03
2.022813417904e-03
3.658566602249e-03
1.485507729089e-03
1.003235399576e-02
2.971865284773e-03
8.034642846317e-03
2.706233193012e-03
1.100220208710e-02
1.921223461513e-03
2.104922725504e-03
3.031379178856e-03
2.180131409344e-03
3.513185873048e-03
1.084784024298e-02
2.768194080340e-03
3.557064226864e-03
2.923662400018e-03
3.951507165215e-03
1.196078763035e-02
3.859152939065e-03
7.493449555037e-03
1.343989908588e-03
4.601473535124e-03
3.205448876842e-03
2.832623405825e-03
4.201724849946e-03
2.755831437767e-03
1.032708068092e-02
3.197976603842e-03
1.067751802052e-02
3.000811006036e-03
3.238833272459e-03
4.589119052751e-03
9.039791907352e-03
7.055252652098e-03
1.865610922889e-03
9.580386736951e-03
5.600757013982e-03
3.973916342647e-03
1.004365904866e-02
2.994906073900e-03
3.454971980503e-03
1.705059006001e-03
3.370706862247e-03
3.815518675455e-03
2.700873904573e-03
3.497726115053e-03
2.952764446008e-03
1.198948737840e-02
2.561847516743e-03
1.556926535798e-03
3.368686705094e-03
1.357098837993e-03
2.279272484366e-03
8.610953234183e-03
7.705439742369e-03
2.687772049809e-03
2.641120393689e-03
1.156374874777e-02
2.735291119533e-03
1.124988833762e-02
6.452553005365e-03
6.953295758846e-04
2.547399517910e-03
3.085490756515e-03
3.068672080648e-03
2.660695571668e-03

SCALARS node_materi_plasti_phimob float
LOOKUP_TABLE default
3.495654870966e+00
3.495654870966e+00
3.495654870966e+00
3.495654870966e+00
3.495654870966e+00
3.495654870966e+00
3.495654870966e+00
3.495654870966e+00
3.495654870966e+00
3.495654870966e+00
3.495654870966e+00
3.495654870966e+00
3.495654870966e+00
3.495654870966e+00
3.495654870966e+00
3.495654870966e+00
3.495654870966e+00
3.495654870966e+00
3.495654870966e+00
3.495654870966e+00
3.495654870966e+00
3.495654870966e+00
3.495654870966e+00
3.495654870966e+00
3.495654870966e+00
3.495654870966e+00
3.495654870966e+00
3.495654870966e+00
3.495654870966e+00
3.495654870966e+00
3.495654870966e+00
3.495654870966e+00
3.495654870966e+00
3.495654870966e+00
3.495654870966e+00
3.495654870966e+00
3.495654870966e+00
3.495654870966e+00
3.495654870966e+00
3.495654870966e+00
3.495654870966e+00
3.495654870966e+00
3.495654870966e+00
3.495654870966e+00
3.495654870966e+00
3.495654870966e+00
3.495654870966e+00
3.495654870966e+00
3.495654870966e+00
3.495654870966e+00
3.495654870966e+00
3.495654870966e+00
3.495654870966e+00
3.495654870966e+00
3.495654870966e+00
3.495654870966e+00
3.495654870966e+00
3.495654870966e+00
3.495654870966e+00
3.495654870966e+00
3.495654870966e+00
3.495654870966e+00
3.495654870966e+00
3.495654870966e+00
3.495654870966e+00
3.495654870966e+00
3.495654870966e+00
3.495654870966e+00
3.495654870966e+00
3.495654870966e+00
3.495654870966e+00
3.495654870966e+00
3.495654870966e+00
3.495654870966e+00
3.495654870966e+00
3.495654870966e+00
3.495654870966e+00
3.495654870966e+00
3.495654870966e+00
3.495654870966e+00
3.495654870966e+00
1.819219640478e+01
3.495654870966e+00
3.495654870966e+00
3.495654870966e+00
3.495654870966e+00
3.495654870966e+00
3.495654870966e+00
3.495654870966e+00
3.495654870966e+00
3.495654870966e+00
3.495654870966e+00
3.495654870966e+00
3.495654870966e+00
3.495654870966e+00
3.495654870966e+00
3.495654870966e+00
3.495654870966e+00
3.495654870966e+00
3.495654870966e+00
3.495654870966e+00
3.495654870966e+00
3.495654870966e+00
3.495654870966e+00
3.495654870966e+00
3.495654870966e+00
3.495654870966e+00
3.495654870966e+00
3.495654870966e+00
3.495654870966e+00
3.495654870966e+00
3.495654870966e+00
3.495654870966e+00
3.495654870966e+00
3.495654870966e+00
3.495654870966e+00
3.495654870966e+00
3.495654870966e+00
3.495654870966e+00
3.495654870966e+00
3.495654870966e+00
3.495654870966e+00
3.495654870966e+00
3.495654870966e+00
3.495654870966e+00
2.110041407198e+01
3.495654870966e+00
3.495654870966e+00
3.495654870966e+00
3.495654870966e+00
3.495654870966e+00
3.495654870966e+00
3.495654870966e+00
3.495654870966e+00
3.495654870966e+00
3.495654870966e+00
3.495654870966e+00
3.495654870966e+00
3.495654870966e+00
3.495654870966e+00
3.495654870966e+00
3.495654870966e+00
3.495654870966e+00
3.495654870966e+00
3.495654870966e+00
3.495654870966e+00
3.495654870966e+00
3.495654870966e+00
3.495654870966e+00
3.495654870966e+00
3.495654870966e+00
3.495654870966e+00
3.495654870966e+00
3.495654870966e+00
3.495654870966e+00
3.495654870966e+00
3.495654870966e+00
3.495654870966e+00
3.495654870966e+00
3.495654870966e+00
3.495654870966e+00
3.495654870966e+00
3.495654870966e+00
3.495654870966e+00
3.495654870966e+00
3.495654870966e+00
3.495654870966e+00
3.495654870966e+00
3.495654870966e+00
3.495654870966e+00
3.495654870966e+00
3.495654870966e+00
3.495654870966e+00
3.495654870966e+00
3.495654870966e+00
3.495654870966e+00
3.495654870966e+00
3.495654870966e+00
3.495654870966e+00
3.495654870966e+00
3.495654870966e+00
3.495654870966e+00
3.495654870966e+00
1.229803447148e+01
3.495654870966e+00
3.495654870966e+00
3.495654870966e+00
3.495654870966e+00
3.495654870966e+00
3.495654870966e+00
3.495654870966e+00
3.495654870966e+00
3.495654870966e+00
3.495654870966e+00
3.495654870966e+00
3.495654870966e+00
3.495654870966e+00
3.495654870966e+00
3.495654870966e+00
3.495654870966e+00
3.495654870966e+00
3.495654870966e+00
3.495654870966e+00
3.495654870966e+00
3.495654870966e+00
3.495654870966e+00
3.495654870966e+00
3.495654870966e+00
3.495654870966e+00
3.495654870966e+00
3.495654870966e+00
3.495654870966e+00
3.495654870966e+00
3.495654870966e+00
3.495654870966e+00
3.495654870966e+00
3.495654870966e+00
3.495654870966e+00
3.495654870966e+00
3.495654870966e+00
3.495654870966e+00
3.495654870966e+00
3.495654870966e+00
3.495654870966e+00
3.495654870966e+00
3.495654870966e+00
3.495654870966e+00
3.495654870966e+00
3.495654870966e+00
3.495654870966e+00
3.495654870966e+00
3.495654870966e+00
3.495654870966e+00
3.495654870966e+00
3.495654870966e+00
3.495654870966e+00
3.495654870966e+00
3.495654870966e+00
3.495654870966e+00
3.495654870966e+00
3.495654870966e+00
3.495654870966e+00
3.495654870966e+00
3.495654870966e+00
3.495654870966e+00
3.495654870966e+00
3.495654870966e+00
3.495654870966e+00
3.495654870966e+00
3.495654870966e+00
3.495654870966e+00
3.495654870966e+00
3.495654870966e+00
3.495654870966e+00
3.495654870966e+00
3.495654870966e+00
3.495654870966e+00
3.495654870966e+00
3.495654870966e+00
3.495654870966e+00
3.495654870966e+00
3.495654870966e+00
3.495654870966e+00
3.495654870966e+00
3.495654870966e+00
3.495654870966e+00
3.495654870966e+00
3.495654870966e+00
3.495654870966e+00
3.495654870966e+00
3.495654870966e+00
3.495654870966e+00
3.495654870966e+00
3.495654870966e+00
3.495654870966e+00
3.495654870966e+00
3.495654870966e+00
3.495654870966e+00
3.495654870966e+00
3.495654870966e+00
3.495654870966e+00
3.495654870966e+00
3.495654870966e+00
3.495654870966e+00
3.495654870966e+00
3.495654870966e+00
3.495654870966e+00
3.495654870966e+00
3.495654870966e+00
3.495654870966e+00
3.495654870966e+00
3.495654870966e+00
3.495654870966e+00
3.495654870966e+00
3.495654870966e+00
3.495654870966e+00
3.495654870966e+00
3.495654870966e+00
3.495654870966e+00
3.495654870966e+00
3.495654870966e+00
3.495654870966e+00
3.495654870966e+00
3.495654870966e+00
3.495654870966e+00
3.495654870966e+00
3.495654870966e+00
3.495654870966e+00
3.495654870966e+00
3.495654870966e+00
3.495654870966e+00
3.495654870966e+00
3.495654870966e+00
3.495654870966e+00
3.495654870966e+00
3.495654870966e+00
3.495654870966e+00
3.495654870966e+00
3.495654870966e+00
3.495654870966e+00
3.495654870966e+00
3.495654870966e+00
3.495654870966e+00
3.495654870966e+00
3.495654870966e+00
3.495654870966e+00
3.495654870966e+00
3.495654870966e+00
3.495654870966e+00
3.495654870966e+00
3.495654870966e+00
3.495654870966e+00
3.495654870966e+00
3.495654870966e+00
3.495654870966e+00
3.495654870966e+00
3.495654870966e+00
3.495654870966e+00
3.495654870966e+00
3.495654870966e+00
3.495654870966e+00
3.495654870966e+00
3.495654870966e+00
3.495654870966e+00
3.495654870966e+00
3.495654870966e+00
3.495654870966e+00
3.495654870966e+00
3.495654870966e+00
3.495654870966e+00
3.495654870966e+00
3.495654870966e+00
3.495654870966e+00
3.495654870966e+00
3.495654870966e+00
3.495654870966e+00
3.495654870966e+00
3.495654870966e+00
3.495654870966e+00
3.495654870966e+00
3.495654870966e+00
3.495654870966e+00
3.495654870966e+00
3.495654870966e+00
3.495654870966e+00
3.495654870966e+00
3.495654870966e+00
3.495654870966e+00
3.495654870966e+00
3.495654870966e+00
3.495654870966e+00
3.495654870966e+00
3.495654870966e+00
3.495654870966e+00
3.495654870966e+00
3.495654870966e+00
3.495654870966e+00
3.495654870966e+00
3.495654870966e+00
3.495654870966e+00
3.495654870966e+00
3.495654870966e+00
3.495654870966e+00
3.495654870966e+00
3.495654870966e+00
3.495654870966e+00
3.495654870966e+00
3.495654870966e+00
3.495654870966e+00
3.495654870966e+00
3.495654870966e+00
3.495654870966e+00
3.495654870966e+00
3.495654870966e+00
3.495654870966e+00
3.495654870966e+00
3.495654870966e+00
3.495654870966e+00
3.495654870966e+00
3.495654870966e+00
3.495654870966e+00
3.495654870966e+00
3.495654870966e+00
3.495654870966e+00
3.495654870966e+00
3.495654870966e+00
3.495654870966e+00
3.495654870966e+00
3.495654870966e+00
3.495654870966e+00
3.495654870966e+00
3.495654870966e+00
3.495654870966e+00
3.495654870966e+00
3.495654870966e+00
3.495654870966e+00
3.495654870966e+00
3.495654870966e+00
3.495654870966e+00
3.495654870966e+00
3.495654870966e+00
3.495654870966e+00
3.495654870966e+00
3.495654870966e+00
3.495654870966e+00
3.495654870966e+00
3.495654870966e+00
3.495654870966e+00
3.495654870966e+00
3.495654870966e+00
3.495654870966e+00
3.495654870966e+00
3.495654870966e+00
3.495654870966e+00
3.495654870966e+00
3.495654870966e+00
3.495654870966e+00
3.495654870966e+00
3.495654870966e+00
3.495654870966e+00
3.495654870966e+00
3.495654870966e+00
3.495654870966e+00
3.495654870966e+00
3.495654870966e+00
3.495654870966e+00
3.495654870966e+00
3.495654870966e+00
3.495654870966e+00
3.495654870966e+00
3.495654870966e+00
3.495654870966e+00
3.495654870966e+00
3.495654870966e+00
3.495654870966e+00
3.495654870966e+00
3.495654870966e+00
3.495654870966e+00
3.495654870966e+00
3.495654870966e+00
3.495654870966e+00
3.495654870966e+00
3.495654870966e+00
3.495654870966e+00
3.495654870966e+00
3.495654870966e+00
3.495654870966e+00
3.495654870966e+00
3.495654870966e+00
3.495654870966e+00
3.495654870966e+00
3.495654870966e+00
3.495654870966e+00
3.495654870966e+00
3.495654870966e+00
3.495654870966e+00
3.495654870966e+00
3.495654870966e+00
3.495654870966e+00
3.495654870966e+00
3.495654870966e+00
3.495654870966e+00
3.495654870966e+00
3.495654870966e+00
3.495654870966e+00
3.495654870966e+00
3.495654870966e+00
3.495654870966e+00
3.495654870966e+00
3.495654870966e+00
3.495654870966e+00
3.495654870966e+00
3.495654870966e+00
3.495654870966e+00
3.495654870966e+00
3.495654870966e+00
3.495654870966e+00
3.495654870966e+00
3.495654870966e+00
3.495654870966e+00
3.495654870966e+00
3.495654870966e+00
3.495654870966e+00
3.495654870966e+00
3.495654870966e+00
3.495654870966e+00
3.495654870966e+00
3.495654870966e+00
3.495654870966e+00
3.495654870966e+00
3.495654870966e+00
3.495654870966e+00
3.495654870966e+00
3.495654870966e+00
3.495654870966e+00
3.495654870966e+00
3.495654870966e+00
3.495654870966e+00
3.495654870966e+00
3.495654870966e+00
3.495654870966e+00
3.495654870966e+00
3.495654870966e+00
3.495654870966e+00
3.495654870966e+00
3.495654870966e+00
3.495654870966e+00
3.495654870966e+00
3.495654870966e+00
3.495654870966e+00
3.495654870966e+00
3.495654870966e+00
3.495654870966e+00
3.495654870966e+00
3.495654870966e+00
3.495654870966e+00
3.495654870966e+00
3.495654870966e+00
3.495654870966e+00
3.495654870966e+00
3.495654870966e+00
3.495654870966e+00
3.495654870966e+00
3.495654870966e+00
3.495654870966e+00
3.495654870966e+00
3.495654870966e+00
3.495654870966e+00
3.495654870966e+00
3.495654870966e+00
3.495654870966e+00
3.495654870966e+00
3.495654870966e+00
3.495654870966e+00
3.495654870966e+00
3.495654870966e+00
3.495654870966e+00
3.495654870966e+00
3.495654870966e+00
3.495654870966e+00
3.495654870966e+00
3.495654870966e+00
3.495654870966e+00
3.495654870966e+00
3.495654870966e+00
3.495654870966e+00
3.495654870966e+00
3.495654870966e+00
3.495654870966e+00
3.495654870966e+00
3.495654870966e+00
3.495654870966e+00
3.495654870966e+00
3.495654870966e+00
3.495654870966e+00
3.495654870966e+00
3.495654870966e+00
3.495654870966e+00
3.495654870966e+00
3.495654870966e+00
3.495654870966e+00
3.495654870966e+00
3.495654870966e+00
3.495654870966e+00
3.495654870966e+00
3.495654870966e+00
3.495654870966e+00
3.495654870966e+00
3.495654870966e+00
3.495654870966e+00
3.495654870966e+00
3.495654870966e+00
3.495654870966e+00
3.495654870966e+00
3.495654870966e+00
3.495654870966e+00
3.495654870966e+00
3.495654870966e+00
3.495654870966e+00
3.495654870966e+00
3.495654870966e+00
3.495654870966e+00
3.495654870966e+00
3.495654870966e+00
3.495654870966e+00
3.495654870966e+00
3.495654870966e+00
3.495654870966e+00
3.495654870966e+00
3.495654870966e+00
3.495654870966e+00
3.495654870966e+00
3.495654870966e+00
3.495654870966e+00
3.495654870966e+00
3.495654870966e+00
3.495654870966e+00
3.495654870966e+00
3.495654870966e+00
3.495654870966e+00
3.495654870966e+00
3.495654870966e+00
3.495654870966e+00
3.495654870966e+00
3.495654870966e+00
3.495654870966e+00
3.495654870966e+00
3.495654870966e+00
1.084392563787e+01
3.495654870966e+00
3.495654870966e+00
3.495654870966e+00
3.495654870966e+00
3.495654870966e+00
3.495654870966e+00
3.495654870966e+00
3.495654870966e+00
3.495654870966e+00
3.495654870966e+00
3.495654870966e+00
3.495654870966e+00
3.495654870966e+00
3.495654870966e+00
3.495654870966e+00
3.495654870966e+00
3.495654870966e+00
3.495654870966e+00
3.495654870966e+00
3.495654870966e+00
3.495654870966e+00
3.495654870966e+00
3.495654870966e+00
3.495654870966e+00
3.495654870966e+00
3.495654870966e+00
3.495654870966e+00
3.495654870966e+00
3.495654870966e+00
3.495654870966e+00
3.495654870966e+00
3.495654870966e+00
3.495654870966e+00
3.495654870966e+00
3.495654870966e+00
3.495654870966e+00
3.495654870966e+00
3.495654870966e+00
3.495654870966e+00
3.495654870966e+00
3.495654870966e+00
3.495654870966e+00
3.495654870966e+00
3.495654870966e+00
3.495654870966e+00
3.495654870966e+00
3.495654870966e+00
3.495654870966e+00
3.495654870966e+00
3.495654870966e+00
3.495654870966e+00
3.495654870966e+00
3.495654870966e+00
3.495654870966e+00
3.495654870966e+00
3.495654870966e+00
3.495654870966e+00
3.495654870966e+00
3.495654870966e+00
3.495654870966e+00
3.495654870966e+00
3.495654870966e+00
3.495654870966e+00
3.495654870966e+00
3.495654870966e+00
3.495654870966e+00
3.495654870966e+00
3.495654870966e+00
3.495654870966e+00
3.495654870966e+00
3.495654870966e+00
3.495654870966e+00
3.495654870966e+00
3.495654870966e+00
3.495654870966e+00
3.495654870966e+00
3.495654870966e+00
3.495654870966e+00
3.495654870966e+00
3.495654870966e+00
3.495654870966e+00
3.495654870966e+00
3.495654870966e+00
3.495654870966e+00
3.495654870966e+00
3.495654870966e+00
3.495654870966e+00
3.495654870966e+00
3.495654870966e+00
3.495654870966e+00
3.495654870966e+00
3.495654870966e+00
3.495654870966e+00
3.495654870966e+00
3.495654870966e+00
3.495654870966e+00
3.495654870966e+00
3.495654870966e+00
3.495654870966e+00
3.495654870966e+00
3.495654870966e+00
3.495654870966e+00
3.495654870966e+00
3.495654870966e+00
3.495654870966e+00
3.495654870966e+00
3.495654870966e+00
3.495654870966e+00
3.495654870966e+00
3.495654870966e+00
3.495654870966e+00
3.495654870966e+00
3.495654870966e+00
3.495654870966e+00
3.495654870966e+00
3.495654870966e+00
3.495654870966e+00
3.495654870966e+00
3.495654870966e+00
3.495654870966e+00
3.495654870966e+00
3.495654870966e+00
3.495654870966e+00
3.495654870966e+00
3.495654870966e+00
3.495654870966e+00
3.495654870966e+00
3.495654870966e+00
3.495654870966e+00
3.495654870966e+00
3.495654870966e+00
3.495654870966e+00
3.495654870966e+00
3.495654870966e+00
3.495654870966e+00
3.495654870966e+00
3.495654870966e+00
3.495654870966e+00
3.495654870966e+00
3.495654870966e+00
3.495654870966e+00
3.495654870966e+00
3.495654870966e+00
3.495654870966e+00
3.495654870966e+00
3.495654870966e+00
3.495654870966e+00
3.495654870966e+00
3.495654870966e+00
3.495654870966e+00
3.495654870966e+00
3.495654870966e+00
3.495654870966e+00
3.495654870966e+00
3.495654870966e+00
3.495654870966e+00
3.495654870966e+00
3.495654870966e+00
3.495654870966e+00
3.495654870966e+00
3.495654870966e+00
3.495654870966e+00
3.495654870966e+00
3.495654870966e+00
3.495654870966e+00
3.495654870966e+00
3.495654870966e+00
3.495654870966e+00
3.495654870966e+00
3.495654870966e+00
3.495654870966e+00
3.495654870966e+00
3.495654870966e+00
3.495654870966e+00
3.495654870966e+00
3.495654870966e+00
3.495654870966e+00
3.495654870966e+00
3.495654870966e+00
3.495654870966e+00
3.495654870966e+00
3.495654870966e+00
3.495654870966e+00
3.495654870966e+00
3.495654870966e+00
3.495654870966e+00
3.495654870966e+00
3.495654870966e+00
3.495654870966e+00
3.495654870966e+00
3.495654870966e+00
3.495654870966e+00
3.495654870966e+00
3.495654870966e+00
3.495654870966e+00
3.495654870966e+00
3.495654870966e+00
3.495654870966e+00
3.495654870966e+00
3.495654870966e+00
3.495654870966e+00
3.495654870966e+00
3.495654870966e+00
3.495654870966e+00
3.495654870966e+00
3.495654870966e+00
3.495654870966e+00
3.495654870966e+00
3.495654870966e+00
3.495654870966e+00
3.495654870966e+00
3.495654870966e+00
3.495654870966e+00
3.495654870966e+00
3.495654870966e+00
3.495654870966e+00
3.495654870966e+00
3.495654870966e+00
3.495654870966e+00
3.495654870966e+00
3.495654870966e+00
3.495654870966e+00
3.495654870966e+00
3.495654870966e+00
3.495654870966e+00
3.495654870966e+00
3.495654870966e+00
3.495654870966e+00
3.495654870966e+00
3.495654870966e+00
3.495654870966e+00
3.495654870966e+00
3.495654870966e+00
3.495654870966e+00
3.495654870966e+00
3.495654870966e+00
3.495654870966e+00
3.495654870966e+00
3.495654870966e+00
3.495654870966e+00
3.495654870966e+00
3.495654870966e+00
3.495654870966e+00
3.495654870966e+00
3.495654870966e+00
3.495654870966e+00
3.495654870966e+00
3.495654870966e+00
3.495654870966e+00
3.495654870966e+00
3.495654870966e+00
3.495654870966e+00
3.495654870966e+00
3.495654870966e+00
3.495654870966e+00
3.495654870966e+00
3.495654870966e+00
3.495654870966e+00
3.495654870966e+00
3.495654870966e+00
3.495654870966e+00
3.495654870966e+00
3.495654870966e+00
3.495654870966e+00
3.495654870966e+00
3.495654870966e+00
3.495654870966e+00
3.495654870966e+00
3.495654870966e+00
3.495654870966e+00
3.495654870966e+00
3.495654870966e+00
3.495654870966e+00
3.495654870966e+00
3.495654870966e+00
3.495654870966e+00
3.495654870966e+00
3.495654870966e+00
3.495654870966e+00
3.495654870966e+00
3.495654870966e+00
3.495654870966e+00
3.495654870966e+00
3.495654870966e+00
3.495654870966e+00
3.495654870966e+00
3.495654870966e+00
3.495654870966e+00
3.495654870966e+00
3.495654870966e+00
3.495654870966e+00
3.495654870966e+00
3.495654870966e+00
3.495654870966e+00
3.495654870966e+00
3.495654870966e+00
3.495654870966e+00
3.495654870966e+00
3.495654870966e+00
3.495654870966e+00
3.495654870966e+00
3.495654870966e+00
3.495654870966e+00
3.495654870966e+00
3.495654870966e+00
3.495654870966e+00
3.495654870966e+00
3.495654870966e+00
3.495654870966e+00
3.495654870966e+00
3.495654870966e+00
3.495654870966e+00
3.495654870966e+00
3.495654870966e+00
3.495654870966e+00
3.495654870966e+00
3.495654870966e+00
3.495654870966e+00
3.495654870966e+00
3.495654870966e+00
3.495654870966e+00
3.495654870966e+00
3.495654870966e+00
3.495654870966e+00
3.495654870966e+00
3.495654870966e+00
3.495654870966e+00
3.495654870966e+00
3.495654870966e+00
3.495654870966e+00
3.495654870966e+00
3.495654870966e+00
3.495654870966e+00
3.495654870966e+00
3.495654870966e+00
3.495654870966e+00
3.495654870966e+00
3.495654870966e+00
3.495654870966e+00
3.495654870966e+00
3.495654870966e+00
3.495654870966e+00
3.495654870966e+00
3.495654870966e+00
3.495654870966e+00
3.495654870966e+00
3.495654870966e+00
3.495654870966e+00
3.495654870966e+00
3.495654870966e+00
3.495654870966e+00
3.495654870966e+00
3.495654870966e+00
3.495654870966e+00
3.495654870966e+00
3.495654870966e+00
3.495654870966e+00
3.495654870966e+00
3.495654870966e+00
3.495654870966e+00
3.495654870966e+00
3.495654870966e+00
3.495654870966e+00
3.495654870966e+00
3.495654870966e+00
3.495654870966e+00
3.495654870966e+00
3.495654870966e+00
3.495654870966e+00
3.495654870966e+00
3.495654870966e+00
3.495654870966e+00
3.495654870966e+00
3.495654870966e+00
3.495654870966e+00
3.495654870966e+00
3.495654870966e+00
3.495654870966e+00
3.495654870966e+00
3.495654870966e+00
3.495654870966e+00
3.495654870966e+00
3.495654870966e+00
3.495654870966e+00
3.495654870966e+00
3.495654870966e+00
3.495654870966e+00
3.495654870966e+00
3.495654870966e+00
3.495654870966e+00
3.495654870966e+00
3.495654870966e+00
3.495654870966e+00
3.495654870966e+00
2.287643531187e+01
3.495654870966e+00
3.495654870966e+00
3.495654870966e+00
3.495654870966e+00

SCALARS node_materi_stress_average_a_sig float
LOOKUP_TABLE default
-5.937370995554e+00
-7.272498678851e+01
-3.441811652834e+02
-1.901853295190e+02
-1.721209834974e+01
-3.506753641586e+01
-5.203356243494e+01
-7.034055236630e+01
-8.667076805583e+01
-9.917664411258e+01
-1.129412651900e+02
-1.314165492439e+02
-1.505656064909e+02
-1.698433828680e+02
-1.883625816744e+02
-2.068902699711e+02
-2.249437748227e+02
-2.429250812003e+02
-2.617352340707e+02
-2.798494047071e+02
-2.978209962400e+02
-3.157541581794e+02
-3.319818388222e+02
-1.924111600825e+02
-1.880707829614e+02
-1.907528300279e+02
-1.842943205853e+02
-1.878988638214e+02
-1.837844914957e+02
-1.887582428639e+02
-1.865977199457e+02
-1.978245554762e+02
-1.911429763508e+02
-2.012409846658e+02
-1.987970219263e+02
-2.132166022706e+02
-2.157433605133e+02
-2.246681802373e+02
-2.300935771797e+02
-2.353497891663e+02
-2.486655492046e+02
-2.580137454727e+02
-2.654571362105e+02
-2.746314895763e+02
-2.829246036456e+02
-2.923529587159e+02
-2.997336515661e+02
-3.065898263674e+02
-3.125437543896e+02
-3.222188817356e+02
-3.240467035576e+02
-3.297186003004e+02
-3.330581395720e+02
-3.381012472353e+02
-3.405414519644e+02
-3.441924168793e+02
-3.433220051565e+02
-3.451327930560e+02
-3.474982439023e+02
-3.453010449156e+02
-3.471521180891e+02
-3.458999188736e+02
-3.459370060775e+02
-3.463163039493e+02
-3.462154263124e+02
-3.453789793582e+02
-3.439311937330e+02
-3.449037351246e+02
-3.446355715367e+02
-3.453925474605e+02
-3.452866422124e+02
-3.450535011452e+02
-7.666361924659e+01
-8.537024553677e+01
-9.245871162591e+01
-1.020095108195e+02
-1.185668380805e+02
-1.391337511719e+02
-1.579020755242e+02
-1.677156726692e+02
-1.861526753994e+02
-5.223946358053e+00
-1.296315179539e+02
-8.849929149258e+00
-1.012730402648e+01
-1.341262225838e+01
-1.654817897709e+01
-2.341919090786e+01
-3.276823834800e+01
-4.385702624351e+01
-5.937411172223e+01
-8.755674334809e+01
-7.127191363724e+01
-7.163799888498e+01
-7.181090495148e+01
-7.170566216411e+01
-7.491408869718e+01
-7.281955325813e+01
-7.567767230835e+01
-7.548720852282e+01
-7.799606494194e+01
-8.023903623606e+01
-8.436030106607e+01
-8.955630659689e+01
-9.983381399239e+01
-1.162534535358e+02
-5.445083731665e+00
-6.570912046013e+00
-5.607274072926e+00
-5.058962011087e+00
-5.783346105982e+00
-6.188248956318e+00
-6.030348170347e+00
-5.888496098749e+00
-5.804121412518e+00
-5.833782599405e+00
-5.786330504529e+00
-6.241823290710e+00
-5.955122805880e+00
-5.343381866627e+00
-5.432460688697e+00
-5.551013739867e+00
-5.521732323594e+00
-5.320395489669e+00
-4.576867124218e+00
-7.587855241296e+00
-9.362539943020e+00
-1.130649912195e+01
-1.557026101920e+01
-2.155894081551e+01
-2.855923907632e+01
-3.758444435542e+01
-5.035619463652e+01
-7.071882494977e+01
-1.152163200518e+02
-1.601784171191e+01
-3.263227847231e+02
-1.342771992760e+01
-1.301156942216e+01
-3.341672332940e+02
-2.549454218126e+01
-1.801882555483e+02
-3.116170450669e+02
-4.191114593119e+01
-2.908502535853e+02
-6.806187336375e+01
-3.363731783813e+02
-1.272773189306e+01
-2.642249959140e+02
-1.213591044478e+02
-1.060640600458e+02
-2.308911143022e+02
-2.443539918093e+02
-2.186188276888e+02
-1.952988607379e+02
-1.962588405810e+02
-2.102352096014e+02
-1.081941499329e+02
-8.585238345747e+01
-8.095219862228e+01
-1.094859822728e+02
-3.356422989423e+02
-1.299116680792e+01
-1.358760910382e+01
-2.884393353510e+02
-7.528419191683e+01
-6.137368106934e+01
-2.261589964022e+02
-3.034109619058e+02
-2.791921674309e+02
-3.175073497711e+02
-3.323021885951e+02
-1.391769207595e+01
-9.251063472774e+01
-3.326449633217e+02
-1.486594736878e+02
-1.359541942167e+01
-1.411445446224e+02
-1.959859535276e+02
-3.474201776246e+01
-2.026379700716e+01
-5.351371787983e+01
-8.799472216410e+01
-1.102287727969e+01
-9.019214592334e+01
-3.384921097234e+02
-1.287659859499e+01
-1.740185854218e+02
-1.139163337726e+02
-1.216783486198e+02
-1.269414714774e+02
-1.359150873473e+02
-1.377268293642e+02
-1.463729326329e+02
-1.431224129556e+02
-1.536685622591e+02
-1.504305596969e+02
-1.496883897254e+02
-1.612704737214e+02
-1.577988974931e+02
-1.684782221109e+02
-1.647957771207e+02
-1.534363577654e+02
-1.607769562968e+02
-1.494010111169e+02
-1.570100676927e+02
-1.682957732248e+02
-1.647151432366e+02
-1.529870861910e+02
-1.608909216948e+02
-1.488359143152e+02
-1.570187547820e+02
-1.443011090831e+02
-1.532185636478e+02
-1.653419921076e+02
-1.619626869761e+02
-1.494660530896e+02
-1.582133925672e+02
-1.453266484497e+02
-1.545337328394e+02
-1.666612549603e+02
-1.631813491978e+02
-1.505823634822e+02
-1.593154015969e+02
-1.461955224692e+02
-1.550833441901e+02
-1.415336584291e+02
-1.504246427704e+02
-1.632391084988e+02
-1.587386053468e+02
-1.454125901540e+02
-1.536097732715e+02
-1.658234251242e+02
-1.607007018355e+02
-1.714576696628e+02
-1.660560294965e+02
-1.549014596940e+02
-1.602032780678e+02
-1.711393151510e+02
-1.647219934574e+02
-1.540276367559e+02
-1.583860502791e+02
-1.722899536028e+02
-1.646791590822e+02
-1.516636510682e+02
-1.567458971942e+02
-1.731364824184e+02
-1.645574924177e+02
-1.488296037289e+02
-1.560702582072e+02
-1.737201861012e+02
-1.647259970130e+02
-1.829000607110e+02
-1.474408639183e+02
-1.553898163610e+02
-1.383028210314e+02
-1.457731213783e+02
-1.747000104376e+02
-1.290343607896e+02
-1.251346921304e+02
-1.362036862708e+02
-1.545133780667e+02
-1.207070092038e+02
-1.267549905812e+02
-1.129918038356e+02
-1.319731412259e+02
-1.769489644488e+02
-1.173531790568e+02
-1.054556376498e+02
-1.003176093539e+02
-9.153773816822e+01
-1.444952175659e+02
-1.531221461518e+02
-1.452732866389e+02
-1.536929044240e+02
-1.475965371491e+02
-9.763105265113e+01
-1.717752515975e+02
-1.605148160011e+02
-1.399640864917e+02
-1.357403241252e+02
-1.763119533957e+02
-1.345804140897e+02
-1.240066259637e+02
-1.431151311528e+02
-1.919415270951e+02
-2.012515799949e+02
-2.103843327432e+02
-2.197188177720e+02
-2.289640551601e+02
-2.381766205960e+02
-2.288124693103e+02
-2.474446048739e+02
-2.379056668532e+02
-2.475461770761e+02
-2.379379309254e+02
-2.564694688603e+02
-2.467108804360e+02
-2.650500986854e+02
-2.552785516673e+02
-2.369273445120e+02
-2.453793877994e+02
-2.270424475084e+02
-1.845079281031e+02
-1.910676827722e+02
-2.021604564912e+02
-2.093698808866e+02
-2.207373760465e+02
-2.281885798618e+02
-2.398314229433e+02
-2.314446983124e+02
-1.758450204609e+02
-1.398943377044e+02
-1.312996279462e+02
-1.255510470770e+02
-1.169947384736e+02
-1.110344570906e+02
-1.019315107802e+02
-9.577795274138e+01
-1.045754710120e+02
-8.918632384028e+01
-9.730044580372e+01
-8.157063470112e+01
-8.949762400892e+01
-1.740992816628e+02
-2.162577638267e+02
-2.351855687673e+02
-2.231717889317e+02
-8.466145506993e+01
-2.636815518862e+02
-2.565926369825e+02
-2.469768631577e+02
-2.504403904903e+02
-8.225782816138e+01
-8.622955415865e+01
-9.144197418275e+01
-1.544870272712e+02
-1.473813068367e+02
-2.658432586757e+02
-8.921598802829e+01
-2.660567790462e+02
-7.338628860443e+01
-2.537358177583e+02
-2.720509118375e+02
-2.193454743061e+02
-2.425861311703e+02
-2.298482208524e+02
-1.053880618519e+02
-9.724661896933e+01
-8.103953290370e+01
-8.940776041742e+01
-1.051881396790e+02
-9.628918694775e+01
-7.976918926269e+01
-8.707139947341e+01
-1.035999291556e+02
-9.419554031184e+01
-7.717465484971e+01
-8.439006914966e+01
-2.818802109762e+02
-6.537751251491e+01
-1.418188069687e+02
-2.757344817068e+02
-2.590817226831e+02
-1.569457499725e+02
-1.482684035763e+02
-1.401415862135e+02
-1.404363482942e+02
-1.526010266847e+02
-1.431286723512e+02
-1.308104864508e+02
-1.336719170608e+02
-1.224004254450e+02
-1.243119731513e+02
-1.393949622598e+02
-1.301638642217e+02
-1.155751595268e+02
-1.203814639648e+02
-1.077520552007e+02
-1.119006555355e+02
-1.295268110318e+02
-7.326550081540e+01
-2.426832745589e+02
-2.627703162835e+02
-1.325340116231e+02
-1.522117707619e+02
-1.618220949774e+02
-1.700664545095e+02
-1.195852603211e+02
-1.382044041857e+02
-7.525643660578e+01
-7.978376121294e+01
-1.668605338998e+02
-2.619561629046e+02
-2.437179988667e+02
-1.312926083622e+02
-1.204626811158e+02
-1.157986213732e+02
-1.031679338063e+02
-1.085253688933e+02
-9.829745028845e+01
-2.279142221240e+02
-1.491458968499e+02
-9.419863616360e+01
-7.778916188953e+01
-2.800950724700e+02
-2.237617874966e+02
-1.781450402949e+02
-1.882904823104e+02
-1.930872220037e+02
-2.053572023856e+02
-2.111111858937e+02
-2.245484651708e+02
-2.172514881591e+02
-2.494109752801e+02
-2.362968073374e+02
-1.046964140866e+02
-2.043647999999e+02
-1.103069374788e+02
-6.548267168722e+01
-6.630758410987e+01
-7.980536992708e+01
-9.530245366109e+01
-2.853249874261e+02
-2.304509168164e+02
-2.174217343804e+02
-8.985441472631e+01
-9.548836252763e+01
-2.619030119091e+02
-1.394324403168e+02
-1.213803454384e+02
-1.115576448274e+02
-6.103812664978e+01
-5.937957105084e+01
-1.599355143714e+02
-9.625478063653e+01
-8.415594191676e+01
-5.692272198103e+01
-4.838333728045e+01
-1.281259390471e+02
-1.474622000017e+02
-1.801399548185e+02
-1.889892241463e+02
-2.745989038185e+02
-7.441287712679e+01
-1.572389286213e+02
-2.340619531064e+02
-2.154652687913e+02
-1.589387635274e+02
-6.310113907083e+01
-5.894481375248e+01
-1.190978279780e+02
-9.178675707484e+01
-8.693424664343e+01
-2.948477907811e+02
-1.697522758799e+02
-2.302195504265e+02
-2.112761540778e+02
-2.496511264772e+02
-5.665125504179e+01
-2.949086517568e+02
-2.701653012143e+02
-2.362672290580e+02
-2.233567413285e+02
-1.007587472735e+02
-8.854271225067e+01
-7.080822200430e+01
-7.489349505973e+01
-1.379038234968e+02
-1.054769427243e+02
-1.361572197184e+02
-1.274042577721e+02
-1.207045243710e+02
-1.136698094084e+02
-1.013456883589e+02
-1.222269539278e+02
-1.812919557310e+02
-1.718955862410e+02
-2.184835883767e+02
-2.007576349677e+02
-1.575381611017e+02
-1.652809677678e+02
-1.063123844370e+02
-9.995912729185e+01
-6.739404975994e+01
-5.989252039391e+01
-1.919872079588e+02
-2.855548851795e+02
-1.715589805689e+02
-1.831303043682e+02
-1.776023445852e+02
-2.840149675837e+02
-1.339293985518e+02
-1.946189435037e+02
-5.693130015919e+01
-1.787561682456e+02
-4.947922278503e+01
-1.807400296942e+02
-2.883509697536e+02
-2.978926058537e+02
-2.689390517828e+02
-1.218294673754e+02
-1.877880221635e+02
-1.827535100233e+02
-1.101434638534e+02
-1.022762674994e+02
-1.139534633372e+02
-9.508695493558e+01
-1.250024267855e+02
-1.165369124180e+02
-2.499279877053e+02
-2.550856705964e+02
-2.405882728037e+02
-2.287019368279e+02
-2.812064658512e+02
-2.728297511301e+02
-1.002610210594e+02
-8.235297591046e+01
-1.773715858754e+02
-1.183018544976e+02
-3.041657490299e+02
-2.939248281628e+02
-3.961336339536e+01
-4.660421592852e+01
-1.678594583191e+02
-5.661647433992e+01
-6.017417685318e+01
-5.302207507711e+01
-3.244019306953e+02
-7.491618850635e+01
-3.061195440277e+02
-1.193395176958e+02
-1.740118576563e+02
-1.985005844516e+02
-1.265375181970e+02
-2.648773854616e+02
-1.578248336565e+02
-1.735717354987e+02
-1.097242946235e+02
-9.947448487692e+01
-1.189021353170e+02
-6.378092598602e+01
-4.557083977262e+01
-1.562285418702e+02
-1.153266804579e+02
-1.242016942436e+02
-8.133654093094e+01
-9.798642901144e+01
-1.902142886599e+02
-1.817473427493e+02
-1.917799088022e+02
-1.970566401101e+02
-1.824820824802e+02
-2.259606900674e+02
-2.074186683241e+02
-1.972467333230e+02
-1.719796319584e+02
-1.825161102979e+02
-1.329510851470e+02
-1.272492084233e+02
-1.293296165749e+02
-1.859616321739e+02
-3.148970272608e+02
-3.077758438284e+02
-4.207512910895e+01
-5.184400863522e+01
-4.653606739251e+01
-4.360519910468e+01
-1.929457056316e+02
-1.907244819867e+02
-2.040297618113e+02
-9.157193961476e+01
-2.236641832490e+02
-3.034226769120e+02
-2.904244877072e+02
-3.138283976511e+02
-2.573121673014e+02
-2.784870553374e+02
-2.717076451425e+02
-3.151926068545e+01
-1.662481383746e+02
-9.567368694147e+01
-2.451530610120e+01
-8.941516560440e+01
-9.355679132734e+01
-8.103220558830e+01
-7.627795369649e+01
-1.033710520617e+02
-1.172254874793e+02
-3.128132964872e+01
-1.886381255808e+02
-3.227113503417e+01
-3.982543513725e+01
-3.112957240476e+02
-3.024265514524e+02
-3.199959034511e+02
-3.110805755225e+02
-2.929950740441e+02
-3.015630741772e+02
-9.187775579945e+01
-3.209410498695e+02
-3.101704083110e+02
-3.283180186406e+02
-8.181122028516e+01
-7.919770758890e+01
-6.474753622033e+01
-4.373939605939e+01
-2.484817338551e+02
-2.334257351472e+02
-2.788572019737e+02
-2.607121738028e+02
-8.661930331846e+01
-8.428682302462e+01
-9.234035222709e+01
-8.968659428072e+01
-9.678910847801e+01
-9.536365521767e+01
-1.066293841954e+02
-2.754366635808e+02
-3.786838030743e+01
-9.893149874087e+01
-2.941536573956e+02
-2.843180317493e+02
-8.818182512023e+01
-6.783966316197e+01
-3.151772770826e+02
-1.167817104111e+02
-2.049751489855e+02
-1.000437765418e+01
-2.768334015733e+01
-1.214883134677e+02
-1.075500609034e+02
-8.396110528104e+01
-7.099274059252e+01
-2.451158962019e+02
-4.486686569530e+01
-5.000582857334e+01
-1.102315135695e+02
-3.243798799899e+01
-2.703636477412e+02
-1.272155988060e+02
-1.298359815558e+02
-6.694114718319e+01
-9.349160866204e+01
-1.459010048182e+02
-1.296260118811e+02
-1.269638835023e+02
-1.365864709753e+02
-7.611015686505e+01
-5.377540534700e+01
-1.446465078163e+02
-1.718722183253e+02
-1.818800026304e+02
-2.009318695217e+02
-1.962570932392e+02
-1.786641341994e+02
-1.897990353817e+02
-2.060434774837e+02
-2.038888334436e+02
-2.242784417987e+02
-2.159809019634e+02
-1.962674430138e+02
-2.087082185936e+02
-2.275383826326e+02
-1.905166719607e+02
-3.046601642461e+02
-1.366409046320e+02
-4.036786547530e+01
-3.410871241745e+01
-1.349548016383e+02
-2.351858914841e+02
-2.281498259091e+02
-1.072528238754e+02
-2.707602206067e+02
-1.343288386384e+02
-7.998913710799e+01
-2.846585972269e+02
-1.674476737514e+02
-1.667104983254e+02
-1.589698835078e+02
-2.204038489754e+02
-1.283129079505e+02
-3.066107814428e+02
-1.977721295318e+02
-1.865964768185e+02
-1.740483924724e+02
-1.850760368768e+02
-3.241757573294e+02
-3.065854568363e+02
-3.093334621587e+02
-2.896718636624e+02
-3.286614474497e+02
-2.510167870251e+02
-2.576482814216e+02
-1.122499498856e+02
-1.205685692026e+02
-1.350581201918e+02
-1.281042503563e+02
-1.130393693458e+02
-1.205918739964e+02
-1.352703916898e+02
-1.126724113520e+02
-2.161096487068e+02
-3.328037211212e+02
-2.192207855360e+02
-2.092567858332e+02
-1.910762505137e+02
-1.631901754526e+02
-1.729772878735e+02
-1.914440087200e+02
-1.531447331524e+02
-1.986661943275e+02
-3.336846149313e+02
-2.052515516505e+02
-1.641442717925e+02
-9.915249711361e+01
-1.183990891478e+02
-1.275289570892e+02
-1.353319128983e+02
-1.133066850285e+02
-1.989255975070e+02
-2.074672046642e+02
-1.972674790051e+02
-2.156830742090e+02
-2.052780438054e+02
-1.883635417991e+02
-2.235973188507e+02
-2.113419335210e+02
-9.000070359382e+01
-1.402234693354e+01
-2.956505365219e+01
-2.908669613957e+01
-4.386906689875e+01
-4.515252711281e+01
-6.090174889644e+01
-5.906924467952e+01
-2.979355102534e+01
-1.367088450052e+01
-2.891490888877e+01
-1.346961248075e+01
-2.841412068349e+01
-4.599234714800e+01
-7.053131322513e+01
-3.338357460364e+02
-1.600468553973e+02
-1.498788670200e+02
-1.327731124601e+02
-1.422551811126e+02
-1.676808623875e+02
-1.227479189186e+02
-1.148169040768e+02
-1.358109732458e+01
-2.893387094422e+01
-2.752578858124e+01
-4.447837331321e+01
-4.382342863178e+01
-2.914153538121e+01
-2.917821213798e+01
-1.351008122987e+01
-2.911162746614e+01
-4.471138011189e+01
-1.299393616912e+01
-1.287670811977e+02
-1.389315725189e+02
-3.337115659241e+02
-8.522778066951e+01
-1.367775130513e+01
-1.910173313499e+02
-1.991922283470e+02
-1.950687893534e+02
-3.067208555376e+02
-3.153854875168e+02
-1.876378441855e+02
-1.087210666522e+02
-2.165268199813e+02
-1.632707226753e+02
-7.028608941013e+01
-1.075621719830e+02
-2.519285754073e+02
-2.282273614964e+02
-2.900611351557e+02
-2.354243600920e+02
-2.734956703677e+02
-3.108047948276e+02
-7.068816854886e+01
-1.140613335563e+02
-1.020387195202e+02
-1.393543409746e+02
-1.095175833712e+02
-1.791172739095e+02
-7.508525969953e+01
-2.644217317922e+02
-1.305249867359e+02
-1.825347676971e+02
-1.445816170641e+02
-1.168674570896e+02
-1.010941995383e+02
-1.411562740958e+02
-1.736240235297e+02
-2.568947922845e+02
-1.474662266555e+02
-1.541961485789e+01
-2.665246658913e+02
-2.104061202226e+02
-1.302565670537e+02
-2.473427597064e+02
-7.039337372904e+01
-1.506110289212e+02
-1.870595508007e+02
-1.259566072271e+02
-5.744226166590e+01
-1.030413602319e+02
-3.053106490267e+02
-1.615909941855e+02
-1.027257762767e+02
-1.777540477023e+02
-1.400346361329e+02
-1.022107449429e+02
-1.702209264755e+02
-1.709658373066e+02
-2.701649586682e+02
-2.128485812946e+02
-1.071859221696e+02
-2.844668519677e+02
-1.702154220236e+02
-1.690991662989e+02
-1.985961104807e+02
-1.479560996887e+02
-1.611038480345e+02
-1.813687749820e+02
-2.544019682236e+02
-1.248991182903e+02
-1.691131761245e+02
-1.720744998561e+02
-1.699803020930e+02
-2.420714657475e+02
-2.755934090751e+02
-7.356545441112e+01
-1.107930049086e+02
-1.392095849466e+02
-2.440222738623e+02
-1.840012086230e+02
-1.251072167024e+02
-2.748569123923e+02
-1.758145711748e+02
-1.825705238051e+02
-8.048862938714e+01
-5.472297662580e+01
-1.194269840289e+02
-1.672336021785e+02
-2.009842438720e+02
-2.087912747432e+02
-2.831629040934e+02
-2.557931282714e+02
-1.398347077540e+01
-1.094034085914e+02
-2.916520114369e+02
-1.871468382350e+02
-2.665867716104e+02
-1.939230810966e+02
-2.694395256495e+02
-7.430691611236e+01
-2.999664892394e+02
-2.533843130271e+02
-1.121587732582e+02
-7.551972700374e+01
-3.200842199129e+02
-2.734668793846e+02
-1.829120790029e+02
-1.796551230751e+02
-7.699160448724e+01
-2.097355608730e+02
-1.730750147129e+02
-2.104465513398e+02
-2.826355873431e+02
-1.578014726096e+02
-2.000541533361e+02
-2.106967220836e+02
-4.412216607193e+01
-8.959541769882e+01
-2.087483055952e+02
-1.274593837806e+02
-1.893771350174e+02
-2.878479653360e+02
-2.172850981295e+02
-1.418614466921e+02
-2.256483639450e+02
-6.033543800106e+01
-1.646951748589e+02
-2.338417044542e+02
-1.870555424133e+02
-4.623559775542e+01
-1.932947107618e+02
-2.970792602829e+02
-1.329916600905e+02
-1.992305500932e+02
-1.739990439784e+02
-4.717191884689e+01
-2.175339265569e+02
-2.045342973078e+02
-2.046862214905e+02
-1.779809126894e+02
-2.364555624141e+02
-6.201243313702e+01
-1.036204143138e+02
-8.782882536210e+01
-1.487348062139e+02
-2.104131200189e+02
-5.915747198182e+01
-1.803444314224e+02
-6.348933751776e+01
-1.420942919575e+02
-2.369363665390e+02
-9.749594198362e+01
-1.475245165835e+02
-9.472386077074e+01
-1.404006708039e+02
-1.922070545001e+02
-1.447099381333e+02
-1.372742808634e+02
-1.793339787196e+02
-1.408711565744e+02
-1.918622497864e+02
-3.345079930776e+02
-8.342356416434e+01
-3.426890800536e+01
-1.456803335945e+01
-5.375709178386e+01
-1.213129575722e+02
-1.851622068671e+02
-8.352755549737e+01
-1.127876728260e+02
-2.344974887253e+02
-2.982625452834e+02
-1.198085758957e+02
-2.790111476771e+02
-2.174855111621e+02
-1.615271837561e+02
-7.733397896769e+01
-2.842095226693e+01
-2.518460797488e+02
-2.578039146082e+01
-4.105481413265e+01
-3.511385779202e+01
-1.117433445221e+02
-4.336768287601e+01
-2.287674286059e+01
-3.045138267411e+02
-9.790345521396e+01
-2.425646479670e+02
-1.773395732675e+01
-1.944900935810e+02
-2.851347928198e+02
-3.362281053234e+02
-2.641612252588e+02
-3.001800934710e+01
-1.278352940461e+02
-2.580577510846e+02
-1.370196241405e+02
-3.374970136994e+02
-1.038866750851e+02
-1.790001950326e+02
-6.501295379530e+01
-1.744667971014e+02
-2.031537734564e+02
-9.739911279718e+01
-1.347200230980e+02
-3.239478948191e+02
-2.224509865611e+02
-2.759472064413e+01
-1.214133442929e+02
-1.415813874446e+02
-2.723860713068e+01
-3.199250835304e+02
-2.208770210538e+02
-3.225984439059e+02
-4.393319112971e+01
-2.663834295609e+01
-3.193488135052e+02
-2.465902095074e+02
-7.340160694913e+01
-2.084427312347e+02
-2.004896960700e+01
-7.912860935571e+01
-2.764930726435e+01
-3.370212541480e+02
-1.844194559139e+02
-1.587567746335e+02
-1.211332273845e+02
-1.026415297392e+02
-2.595344373606e+02
-4.056536257044e+01
-1.868351646976e+02
-3.170800818404e+02
-2.108664582303e+02
-3.188740531124e+02
-2.612449879643e+01
-2.847867559398e+02
-2.969871494358e+02
-7.610393681160e+01
-2.143385135406e+02
-1.249274643337e+02
-5.846436607128e+01
-1.909347514432e+02
-1.075644733816e+01
-7.466254437983e+01
-3.386068419626e+02
-5.575329969840e+01
-8.937802552414e+01
-2.418844513557e+02
-1.993411805591e+02
-1.545335718275e+02
-5.521497216990e+01
-1.170181385163e+01
-1.035798669417e+02
-2.944515721240e+02
-2.056064712185e+02
-9.971060610953e+01
-4.191652286873e+01
-2.353457261026e+02
-1.727436343498e+02
-2.492002147260e+02
-2.924238816210e+02
-7.895108554635e+00
-2.153499758402e+02
-2.573429761426e+01
-3.246695644221e+02
-1.809077041004e+02

SCALARS node_materi_stress_size_dev_sd_sig float
LOOKUP_TABLE default
3.098787541668e+00
9.886965403037e+00
3.746942148639e+01
1.983768638295e+01
4.244566282368e+00
6.059060775557e+00
7.782522225405e+00
9.641772055164e+00
1.130237135942e+01
1.257447612141e+01
1.397288493584e+01
1.585067234207e+01
1.779612206424e+01
1.975416458667e+01
2.163813438565e+01
2.352223425745e+01
2.535537468183e+01
2.718113523277e+01
2.909156226023e+01
3.093184905930e+01
3.275756305961e+01
3.457977950302e+01
3.623035371140e+01
2.183444851274e+01
2.146243850272e+01
2.179456508244e+01
2.120412148884e+01
2.153872224435e+01
2.114280854342e+01
2.165060772713e+01
2.144179509230e+01
2.257501668325e+01
2.191592174463e+01
2.293272309941e+01
2.269126237598e+01
2.415658235225e+01
2.441757318428e+01
2.532528327802e+01
2.587897307476e+01
2.641374792363e+01
2.776740983356e+01
2.871840903492e+01
2.947494859608e+01
3.040683114322e+01
3.124916762819e+01
3.220637467581e+01
3.295520328419e+01
3.365088046738e+01
3.425314960088e+01
3.523643070432e+01
3.541751639199e+01
3.599502480453e+01
3.633487247790e+01
3.684627976814e+01
3.708139751454e+01
3.745425203061e+01
3.736560383970e+01
3.754551614396e+01
3.779491446520e+01
3.756256940125e+01
3.775859893108e+01
3.762505321004e+01
3.763474156090e+01
3.767890747295e+01
3.766819768468e+01
3.758532071414e+01
3.743103759721e+01
3.754023256958e+01
3.751207880929e+01
3.759096303938e+01
3.757881701342e+01
3.755829808181e+01
1.028715302699e+01
1.117166223531e+01
1.189197043860e+01
1.286033673036e+01
1.454546910643e+01
1.662831830312e+01
1.829978866000e+01
1.626230959614e+01
1.801969509151e+01
1.633638395271e+00
1.559515668787e+01
3.153401339566e+00
3.508601348863e+00
3.844101597403e+00
4.173257553877e+00
4.872059998029e+00
5.822709961225e+00
6.948632347448e+00
8.524534186327e+00
1.138069980559e+01
9.738893213093e+00
9.776379208889e+00
9.793297661326e+00
9.783100239326e+00
1.010672465021e+01
9.895719911895e+00
1.018628192770e+01
1.016766886144e+01
1.042179174717e+01
1.065002467841e+01
1.106642466600e+01
1.159532736495e+01
1.263295871038e+01
1.423133617207e+01
2.770524794881e+00
3.123656536795e+00
3.058425135046e+00
3.006945612386e+00
3.083330337781e+00
3.124506396696e+00
3.108500831692e+00
3.094109595454e+00
3.085538190040e+00
3.088545402734e+00
3.083738786113e+00
3.130025606919e+00
3.100872908654e+00
3.038716111247e+00
3.047770191336e+00
3.059825603117e+00
3.056848905095e+00
3.036386241097e+00
2.960775791972e+00
2.424977385096e+00
3.363984481062e+00
3.639719511939e+00
4.070732818936e+00
4.675977428304e+00
5.391668851020e+00
6.311474938797e+00
7.609903519098e+00
9.676528060899e+00
1.414183521346e+01
4.056483658137e+00
3.562065019357e+01
3.859666339324e+00
3.814443445807e+00
3.643541548373e+01
5.010786898638e+00
2.080717482876e+01
3.411980553974e+01
6.719661074813e+00
3.203357064650e+01
9.401133351694e+00
3.667090215053e+01
3.789192207769e+00
2.934594206943e+01
1.482010618824e+01
1.327422681847e+01
2.595850830179e+01
2.732580318200e+01
2.469743040426e+01
2.224807671255e+01
2.224735125561e+01
2.382204117736e+01
1.342894179398e+01
1.120920242939e+01
1.071728676046e+01
1.362032160032e+01
3.659902711729e+01
3.786442149803e+00
3.876614150748e+00
3.180202279095e+01
1.014579068803e+01
8.731708506878e+00
2.545242867886e+01
3.330966171520e+01
3.086034644137e+01
3.470067033610e+01
3.624869033615e+01
3.907757151121e+00
1.188327299774e+01
3.627927840474e+01
1.756961408902e+01
3.876887052379e+00
1.683919636401e+01
2.230948529653e+01
5.966740595812e+00
4.457445756111e+00
7.911704337848e+00
1.142660991583e+01
3.037805399443e+00
1.166159128866e+01
3.688867536643e+01
3.804229373897e+00
1.620836070201e+01
1.403544916950e+01
1.484092895859e+01
1.535707672353e+01
1.628903316146e+01
1.646288396083e+01
1.735648543541e+01
1.702732145394e+01
1.809955257627e+01
1.776749980149e+01
1.769068836928e+01
1.886877535205e+01
1.851882906391e+01
1.960285247309e+01
1.922954760390e+01
1.807284380274e+01
1.882014761280e+01
1.766273573049e+01
1.843670511324e+01
1.958390522443e+01
1.922006576510e+01
1.802548697230e+01
1.883087526013e+01
1.760385598668e+01
1.843784728905e+01
1.714360447819e+01
1.805152315439e+01
1.928385410277e+01
1.894122087389e+01
1.767058673600e+01
1.856043077545e+01
1.725033653820e+01
1.818718267093e+01
1.941968002147e+01
1.906643509664e+01
1.778584942956e+01
1.867469196501e+01
1.734104834897e+01
1.824497294986e+01
1.686792919482e+01
1.777230401182e+01
1.907502883955e+01
1.861814596574e+01
1.726383595037e+01
1.809842047821e+01
1.933977791739e+01
1.881983497321e+01
1.991275611085e+01
1.936458734266e+01
1.823146398493e+01
1.877068753259e+01
1.988131396651e+01
1.922989264368e+01
1.814392550913e+01
1.858682755065e+01
1.999862503655e+01
1.922645203896e+01
1.790477103871e+01
1.842096529359e+01
2.008582287258e+01
1.921497102388e+01
1.761746511918e+01
1.835340395127e+01
2.014626056135e+01
1.923306683333e+01
2.107913285699e+01
1.747727367599e+01
1.828524349136e+01
1.654961457881e+01
1.730896378028e+01
2.023792747453e+01
1.560839334858e+01
1.521227587701e+01
1.633701983038e+01
1.819728335090e+01
1.476256398660e+01
1.537708821629e+01
1.397873583812e+01
1.589523000927e+01
2.046227668502e+01
1.442212313066e+01
1.321262263901e+01
1.269032461926e+01
1.179778810134e+01
1.716804742167e+01
1.804685394165e+01
1.724195609080e+01
1.810199330512e+01
1.748142666008e+01
1.241710907206e+01
1.993136882107e+01
1.879138053687e+01
1.670174350605e+01
1.627467977122e+01
2.040527264849e+01
1.617224652214e+01
1.509837836931e+01
1.703921895220e+01
2.199688842934e+01
2.294300536646e+01
2.387006049928e+01
2.481882291615e+01
2.575752548106e+01
2.669355304782e+01
2.574309167253e+01
2.763554630668e+01
2.666733947882e+01
2.764529419163e+01
2.666821637012e+01
2.855348216999e+01
2.756221852032e+01
2.942531021658e+01
2.843289942229e+01
2.656896763593e+01
2.742808637440e+01
2.556558940797e+01
2.123867431208e+01
2.190446592481e+01
2.303202906252e+01
2.376369409094e+01
2.491914631857e+01
2.567415230175e+01
2.685752363519e+01
2.600518268207e+01
2.035043934616e+01
1.670453870513e+01
1.582962826210e+01
1.524687173312e+01
1.437553658378e+01
1.377143861101e+01
1.284433488758e+01
1.222116513703e+01
1.311573767086e+01
1.155146479552e+01
1.237842647280e+01
1.078036560806e+01
1.158644408402e+01
2.017486524104e+01
2.446180832513e+01
2.638276316205e+01
2.516497855059e+01
1.109892628586e+01
2.928676707578e+01
2.856312351124e+01
2.758605406459e+01
2.793158128212e+01
1.085419155440e+01
1.124818178403e+01
1.177822701400e+01
1.817958817616e+01
1.745731261477e+01
2.950252450554e+01
1.156134194487e+01
2.952635996864e+01
9.944350218425e+00
2.827752131241e+01
3.013784257369e+01
2.478217562385e+01
2.713544568373e+01
2.584322365395e+01
1.320113749970e+01
1.237541201367e+01
1.072898739534e+01
1.157917338407e+01
1.318259789098e+01
1.228004383520e+01
1.060121863648e+01
1.134369396437e+01
1.302333751973e+01
1.206805866419e+01
1.033880173421e+01
1.107204125660e+01
3.113477209870e+01
9.134421827775e+00
1.689295101872e+01
3.050593355218e+01
2.881107215426e+01
1.842344271097e+01
1.755096964114e+01
1.672089692130e+01
1.675152610703e+01
1.798006689183e+01
1.702467323252e+01
1.578107734858e+01
1.606879259228e+01
1.492283454527e+01
1.512099871642e+01
1.665016014749e+01
1.571249760104e+01
1.423493110179e+01
1.472427014957e+01
1.344141168138e+01
1.386349113288e+01
1.564121901994e+01
9.940485962627e+00
2.714842759295e+01
2.918499022739e+01
1.596474605959e+01
1.796346059803e+01
1.894067480579e+01
1.977802696037e+01
1.463968122509e+01
1.650456190558e+01
1.013342626457e+01
1.059250484772e+01
1.941318142411e+01
2.911202593381e+01
2.725985993264e+01
1.582340813503e+01
1.472150749556e+01
1.424790293351e+01
1.296258563256e+01
1.350673917979e+01
1.246874040866e+01
2.564951984682e+01
1.761405310855e+01
1.206860458129e+01
1.040090129225e+01
3.095432985530e+01
2.522652396899e+01
2.058497019131e+01
2.161868970125e+01
2.210523838897e+01
2.335599004548e+01
2.393853289134e+01
2.530807130916e+01
2.456520911687e+01
2.783103713379e+01
2.650003334632e+01
1.312994453273e+01
2.325458489500e+01
1.370536123299e+01
9.149302795519e+00
9.234031241419e+00
1.060484836693e+01
1.218031648354e+01
3.148067407981e+01
2.590510078953e+01
2.458104532936e+01
1.160702011807e+01
1.218025905521e+01
2.910162343559e+01
1.664090740292e+01
1.481919652160e+01
1.382329285703e+01
8.698337883965e+00
8.529810822939e+00
1.870957715984e+01
1.226677568331e+01
1.103605019876e+01
8.268909032836e+00
7.408025778516e+00
1.549217489819e+01
1.742712463212e+01
2.080153221881e+01
2.170035502960e+01
3.038901586861e+01
1.005819622096e+01
1.842009994442e+01
2.627129969197e+01
2.438331013608e+01
1.864661439821e+01
8.897322421069e+00
8.474321442396e+00
1.459785319339e+01
1.182381321689e+01
1.132924081905e+01
3.244209094158e+01
1.969112589962e+01
2.588439503489e+01
2.395798437081e+01
2.785732693991e+01
8.253059142267e+00
3.245345683554e+01
2.994641828315e+01
2.649828551347e+01
2.518433950365e+01
1.272307334073e+01
1.148005096322e+01
9.678572059692e+00
1.009150722821e+01
1.649384514145e+01
1.320135663618e+01
1.631459341817e+01
1.542443827309e+01
1.474601568046e+01
1.402826828760e+01
1.277596179242e+01
1.490648652406e+01
2.091038876862e+01
1.996393086804e+01
2.469551692132e+01
2.289162770237e+01
1.845013738307e+01
1.918581648100e+01
1.329451690819e+01
1.264980340654e+01
9.343867234831e+00
8.582095435608e+00
2.200273295373e+01
3.150809185505e+01
1.986372930630e+01
2.104438022770e+01
2.050496685620e+01
3.134609561465e+01
1.609942990254e+01
2.226560548589e+01
8.276073912147e+00
2.065035237072e+01
7.523188015207e+00
2.084774884634e+01
3.179377771813e+01
3.276159736741e+01
2.981126942417e+01
1.486069445465e+01
2.156956117774e+01
2.105811198780e+01
1.367437765939e+01
1.287464338219e+01
1.405923408706e+01
1.214315081521e+01
1.519796962443e+01
1.433869414224e+01
2.788437438113e+01
2.840224145718e+01
2.694364490123e+01
2.573115878844e+01
3.106185989406e+01
3.021194297081e+01
1.268393236503e+01
1.084531564734e+01
2.046230458595e+01
1.449987018841e+01
3.339701389063e+01
3.235538524712e+01
6.517463996899e+00
7.229819130654e+00
1.936537502998e+01
8.231673337255e+00
8.592072473531e+00
7.869707254473e+00
3.545763961004e+01
1.010946309724e+01
3.359902801639e+01
1.460543118452e+01
1.980128227412e+01
2.265950702314e+01
1.534055588268e+01
2.940227963724e+01
1.842719074945e+01
1.916287421033e+01
1.363831306945e+01
1.259713111224e+01
1.456359108187e+01
8.968866070883e+00
7.109879294009e+00
1.831171698222e+01
1.421580045466e+01
1.511789547481e+01
1.076159678231e+01
1.245378445821e+01
2.182467994015e+01
2.096436427159e+01
2.197155538892e+01
2.250817388985e+01
2.102628493435e+01
2.544985064143e+01
2.356688905444e+01
2.253316207427e+01
1.984930280158e+01
2.087992021218e+01
1.600478399891e+01
1.542545404345e+01
1.563780348842e+01
2.128349156669e+01
3.448773130820e+01
3.376796476865e+01
6.771569257830e+00
7.763953842732e+00
7.211392235257e+00
6.911381107918e+00
2.204682644933e+01
2.183589656563e+01
2.317045678600e+01
1.180090917911e+01
2.521617515041e+01
3.330616025511e+01
3.198550077596e+01
3.436102430005e+01
2.863434354288e+01
3.077421643022e+01
3.008343750700e+01
5.692462619654e+00
1.815159328837e+01
1.221372614598e+01
4.983638342350e+00
1.158074047629e+01
1.200136652171e+01
1.072675146496e+01
1.024681220216e+01
1.298536405858e+01
1.439405215340e+01
5.674252150825e+00
2.149530344132e+01
5.774483495392e+00
6.542836622021e+00
3.411719845970e+01
3.322149359381e+01
3.500751331585e+01
3.410100495285e+01
3.226535401865e+01
3.313374674009e+01
1.182921506448e+01
3.510177609260e+01
3.400739786890e+01
3.584896114245e+01
1.079647861090e+01
1.052616387191e+01
9.052538880916e+00
6.902957591168e+00
2.774264458575e+01
2.621214233448e+01
3.082815855885e+01
2.898569787487e+01
1.129458947130e+01
1.106119400438e+01
1.187965793307e+01
1.161046403785e+01
1.233140404992e+01
1.218430738224e+01
1.333265720695e+01
3.047224530561e+01
6.320759557697e+00
1.253745266613e+01
3.236598286159e+01
3.137470053509e+01
1.143772028536e+01
9.367956707186e+00
3.450482136004e+01
1.435148747099e+01
2.318833915989e+01
3.180357588454e+00
5.295789076279e+00
1.482836790569e+01
1.340753054440e+01
1.100916843263e+01
9.687334197586e+00
2.739472637482e+01
7.054974699210e+00
7.566142534389e+00
1.368969882517e+01
5.777840582123e+00
2.996577963921e+01
1.541256021567e+01
1.567254593754e+01
9.286431656799e+00
1.198161869534e+01
1.731021103321e+01
1.565293946815e+01
1.538200343283e+01
1.636606277297e+01
1.020696847195e+01
7.930701189575e+00
1.717786469477e+01
1.992891292387e+01
2.094175703587e+01
2.288800016106e+01
2.241149331439e+01
2.061835359788e+01
2.176518800797e+01
2.340865716847e+01
2.319019161184e+01
2.526645909099e+01
2.442592509608e+01
2.241933651817e+01
2.368986961113e+01
2.561380250526e+01
2.183671149351e+01
3.339967457722e+01
1.636874569916e+01
6.583129288195e+00
5.935359637417e+00
1.619290931787e+01
2.639635915612e+01
2.565604595522e+01
1.338486800303e+01
3.000748731929e+01
1.613119497541e+01
1.061640099666e+01
3.140981200455e+01
1.949035163293e+01
1.941456358251e+01
1.863608123838e+01
2.484911467911e+01
1.552636789314e+01
3.363821820859e+01
2.258470206366e+01
2.144915797707e+01
2.017371498938e+01
2.128109034646e+01
3.540719980029e+01
3.363022621505e+01
3.392023593253e+01
3.190266140609e+01
3.586251340716e+01
2.800654447281e+01
2.868038553543e+01
1.390158084170e+01
1.474542223299e+01
1.621752389231e+01
1.551099037714e+01
1.398030846535e+01
1.474628626674e+01
1.623784927436e+01
1.394057840612e+01
2.445024970745e+01
3.629121762636e+01
2.476687995471e+01
2.375447342507e+01
2.190791623176e+01
1.907905961862e+01
2.007285362329e+01
2.194885860647e+01
1.805864050512e+01
2.267433933799e+01
3.639188673504e+01
2.334634426953e+01
1.917513903209e+01
1.254651409758e+01
1.448292885549e+01
1.543540469468e+01
1.622088269096e+01
1.397484645199e+01
2.270976348013e+01
2.357794741855e+01
2.254203707781e+01
2.441296874380e+01
2.335556323115e+01
2.163602691830e+01
2.521679954077e+01
2.397345736401e+01
1.162684115997e+01
3.917999955335e+00
5.500051478728e+00
5.451406109216e+00
6.954105354266e+00
7.084087907775e+00
8.684531563034e+00
8.498160195651e+00
5.523211644918e+00
3.883323273046e+00
5.433997021564e+00
3.863406666413e+00
5.382676141560e+00
7.169533649627e+00
9.663297534324e+00
3.641148966613e+01
1.875904038886e+01
1.772651702419e+01
1.598771227731e+01
1.695178981169e+01
1.953557718595e+01
1.496925693448e+01
1.416349976679e+01
3.875940678746e+00
5.436306949446e+00
5.292797533792e+00
7.015965185395e+00
6.949504530387e+00
5.457415405606e+00
5.461139107630e+00
3.868733103440e+00
5.454362923074e+00
7.039759005398e+00
3.816268324135e+00
1.556516399214e+01
1.658601962396e+01
3.639672548001e+01
1.114780739846e+01
3.885200350844e+00
2.162898061573e+01
2.259479316192e+01
2.221949177521e+01
3.365878109165e+01
3.453782498470e+01
2.085612570403e+01
1.354471863677e+01
2.448262597915e+01
1.895993635469e+01
9.626311398482e+00
1.342693751706e+01
2.809327472532e+01
2.568468840299e+01
3.196799056470e+01
2.641758592123e+01
3.028328320473e+01
3.405183439271e+01
9.678415959049e+00
1.408015532881e+01
1.286031421835e+01
1.663274332453e+01
1.362548097545e+01
2.069649927729e+01
1.012550884069e+01
2.936295004738e+01
1.574191257729e+01
2.104082163997e+01
1.718849188734e+01
1.437238901620e+01
1.276935878833e+01
1.682737962268e+01
2.013752379785e+01
2.859449741430e+01
1.744681307849e+01
4.062138353888e+00
2.957345024540e+01
2.387362433949e+01
1.572269628359e+01
2.761833782780e+01
9.649449037162e+00
1.776967390303e+01
2.143260654273e+01
1.527850383602e+01
8.332871952252e+00
1.296152550021e+01
3.350583961995e+01
1.889487228807e+01
1.293501654877e+01
2.055247872937e+01
1.671048969914e+01
1.285153376588e+01
1.959637101200e+01
1.985907211683e+01
2.993090965201e+01
2.411698155982e+01
1.338846220208e+01
3.139666368015e+01
1.978476874199e+01
1.960092338256e+01
2.266563862449e+01
1.752493936579e+01
1.883798290373e+01
2.092142185492e+01
2.833144810755e+01
1.516950677604e+01
1.966668612628e+01
1.996713986220e+01
1.975578136334e+01
2.709259940881e+01
3.049361241934e+01
9.967816031780e+00
1.374051081245e+01
1.661614583964e+01
2.728360720699e+01
2.111370748062e+01
1.519191778041e+01
3.042234410968e+01
2.027149058893e+01
2.104689144765e+01
1.067367234486e+01
8.047505212588e+00
1.462534794264e+01
1.948024020837e+01
2.291735191307e+01
2.365932626338e+01
3.126551845644e+01
2.847935348693e+01
3.805897126398e+00
1.359127337290e+01
3.212757665804e+01
2.150720312237e+01
2.956954753635e+01
2.220185516241e+01
2.987309231550e+01
1.003041297295e+01
3.297194707945e+01
2.823205230092e+01
1.388260680091e+01
1.017044669681e+01
3.501717421797e+01
3.026868109350e+01
2.107153504134e+01
2.074664577278e+01
1.031063005137e+01
2.380660970887e+01
2.006885424894e+01
2.385510994098e+01
3.120097461196e+01
1.851561377892e+01
2.282378861006e+01
2.389792098356e+01
6.979813169720e+00
1.158878978283e+01
2.370713678264e+01
1.544332217658e+01
2.173441578505e+01
3.172145060129e+01
2.457488529451e+01
1.690654072096e+01
2.542466836643e+01
8.611428397264e+00
1.921958857433e+01
2.625697272741e+01
2.149032637157e+01
7.194019742111e+00
2.212969052551e+01
3.267927482964e+01
1.600998708297e+01
2.273557370494e+01
2.015752418290e+01
7.260721593101e+00
2.459452554098e+01
2.326930539398e+01
2.328795439098e+01
2.057306825522e+01
2.651587646688e+01
8.768783844561e+00
1.302633190295e+01
1.142125533080e+01
1.760564240391e+01
2.386832588841e+01
8.507599992538e+00
2.080744849630e+01
8.947911397667e+00
1.693209803530e+01
2.656722941362e+01
1.239875547321e+01
1.748353888087e+01
1.212129361447e+01
1.676102925341e+01
2.201924170102e+01
1.719902178033e+01
1.644441566296e+01
2.042159437139e+01
1.680988975507e+01
1.990003712769e+01
3.648085199596e+01
1.097360585450e+01
5.940391621676e+00
3.967714064947e+00
7.924010740702e+00
1.482390082482e+01
2.129501822573e+01
1.098368575632e+01
1.395795361800e+01
2.632156192456e+01
3.278963031504e+01
1.466379590211e+01
3.082233686636e+01
2.458965302934e+01
1.777798993733e+01
1.035419409098e+01
5.383154476714e+00
2.808560030743e+01
5.051547512799e+00
6.636499058172e+00
6.044906482293e+00
1.385135267614e+01
6.902911975933e+00
4.713923296969e+00
3.341765341843e+01
1.244202782473e+01
2.713698554930e+01
4.224634409235e+00
2.217012045978e+01
3.144380090034e+01
3.665288658952e+01
2.932330061597e+01
5.523879402313e+00
1.547809959779e+01
2.871836200348e+01
1.639817444591e+01
3.679088387663e+01
1.304503434108e+01
2.007204324352e+01
9.101357888319e+00
1.765044026545e+01
2.312675977125e+01
1.239151280461e+01
1.617683187365e+01
3.540673909504e+01
2.508242042874e+01
5.272476723667e+00
1.482906176587e+01
1.688454204223e+01
5.262507710037e+00
3.499682799409e+01
2.493560215818e+01
3.527613111110e+01
6.959920491751e+00
5.202784544804e+00
3.493657061619e+01
2.755573146419e+01
9.953642675296e+00
2.362127592660e+01
4.509994720119e+00
1.053519712026e+01
5.305656534333e+00
3.674278629346e+01
2.115703642414e+01
1.862983606942e+01
1.478023689726e+01
1.292617105516e+01
2.886520692530e+01
6.618054362736e+00
2.140102883860e+01
3.470251788934e+01
2.389953172515e+01
3.488744864749e+01
5.136952699981e+00
3.142939229287e+01
3.266036497876e+01
1.022878151983e+01
2.426214219277e+01
1.519086404633e+01
8.436852011343e+00
1.919013810075e+01
3.588499803968e+00
1.008332225702e+01
3.690319548257e+01
8.161449230679e+00
1.157854279525e+01
2.707739788857e+01
2.275448454144e+01
1.816545519396e+01
8.106488022118e+00
3.682791202224e+00
1.302239236538e+01
3.239892696483e+01
2.335368158160e+01
1.262786608016e+01
6.740643601548e+00
2.641181690536e+01
2.005007090908e+01
2.782052403630e+01
3.220798673672e+01
2.222201312333e+00
2.438115796088e+01
5.110970875382e+00
3.548469305958e+01
2.087984294239e+01

SCALARS node_materi_strain_total_average_a_ept float
LOOKUP_TABLE default
8.386018277326e-04
9.112734498329e-04
1.387034774281e-04
6.499510728086e-04
7.147209886055e-04
5.320623671037e-04
3.474534655288e-04
2.026508798812e-04
1.160138655509e-04
8.517743465634e-05
8.111287017483e-05
8.407517773706e-05
8.529920340889e-05
8.541719116760e-05
9.139781360851e-05
9.577108490982e-05
9.554153953845e-05
1.024495528352e-04
1.086125729501e-04
1.152383028301e-04
1.228834228886e-04
1.307553099158e-04
1.416497011342e-04
6.628492124655e-04
6.824922374315e-04
6.765836809222e-04
7.027720803891e-04
6.870446908328e-04
7.052095252626e-04
6.881405295249e-04
6.955649813701e-04
6.587777841543e-04
6.824181990101e-04
6.441930730140e-04
6.551893780529e-04
6.057723080057e-04
5.981436019044e-04
5.657680226070e-04
5.407134688796e-04
5.214846613478e-04
4.770824336764e-04
4.451746528645e-04
4.200834625721e-04
3.871825890777e-04
3.573302152338e-04
3.236946058637e-04
2.972627840369e-04
2.735786787883e-04
2.535456733366e-04
2.193239367593e-04
2.135421080312e-04
1.923960841267e-04
1.831170560529e-04
1.642465914223e-04
1.521680630584e-04
1.391439712561e-04
1.433085091298e-04
1.374319183735e-04
1.288404367751e-04
1.375440576271e-04
1.294907658746e-04
1.333528341059e-04
1.312626572511e-04
1.310873236643e-04
1.351494524240e-04
1.394509900350e-04
1.347625978445e-04
1.394209573998e-04
1.367048688977e-04
1.358052590696e-04
1.387846031109e-04
1.391482244235e-04
8.015041695352e-04
6.606054116554e-04
6.023621718253e-04
5.960281159745e-04
5.833142136088e-04
5.807454428349e-04
5.669201098427e-04
5.764825976399e-04
5.854556859688e-04
4.572951693242e-05
1.476162745339e-03
8.517339023698e-05
1.761546702986e-04
3.027524687819e-04
4.422439100547e-04
6.166615867431e-04
8.326680845432e-04
1.095647621101e-03
1.427297880940e-03
1.756657729718e-03
9.384389507469e-04
9.233130023087e-04
9.325447401995e-04
9.627816481857e-04
9.438861068049e-04
9.984323419539e-04
1.028682098244e-03
1.053283634474e-03
1.070894227149e-03
1.124252576276e-03
1.193704110946e-03
1.275601632510e-03
1.408628704442e-03
1.597539803434e-03
8.595160324974e-05
1.282753786110e-04
1.792214125075e-04
2.394359452757e-04
3.075799193513e-04
3.591700404690e-04
4.063132980751e-04
4.511047163217e-04
5.065691790340e-04
5.588840105428e-04
6.131040825470e-04
6.607905115745e-04
7.230921196593e-04
7.801447335311e-04
8.184273141365e-04
8.392239446624e-04
8.536827160352e-04
8.656674168566e-04
8.657677763845e-04
5.884332791163e-05
1.278351609485e-04
2.361650444352e-04
3.636424233279e-04
5.424236763791e-04
7.431239858698e-04
9.582650277648e-04
1.256239428458e-03
1.604833426220e-03
1.834825177613e-03
1.995922198720e-04
1.738842365031e-04
4.948178585093e-04
3.077640914991e-04
1.461006618705e-04
3.907267146834e-04
8.711588577808e-05
2.234919068552e-04
7.299847285082e-04
3.002134064563e-04
1.239711701415e-03
1.433228457546e-04
6.794124980478e-04
3.947187739700e-04
1.423467076600e-03
8.105654908480e-05
9.916788386831e-05
4.623221715608e-04
5.574005302016e-04
6.261718829607e-04
6.203099869377e-04
5.848538646238e-04
1.355138038844e-03
9.962231186515e-04
8.945929082429e-04
5.909760601260e-04
1.412847035253e-04
1.851263312762e-04
7.545512674644e-04
1.181053342497e-04
8.586384857077e-04
2.653688795797e-04
5.169319305840e-04
2.590831037731e-04
3.415099479354e-04
1.998691353516e-04
1.545726543481e-04
3.829007781330e-04
1.127964315915e-03
1.406400067762e-04
5.762829585559e-04
5.758259357191e-04
8.474864684258e-05
6.273147946891e-04
5.420259589745e-04
2.810092376654e-04
9.529247328218e-04
1.534174559144e-03
1.487760893115e-04
6.185075419140e-04
1.424576345366e-04
7.811999994567e-04
5.866537901208e-04
1.240825836094e-03
9.942895250525e-04
9.057542658111e-04
7.314380734937e-04
6.697165899373e-04
5.735215048382e-04
6.105028928699e-04
5.073564333848e-04
5.241282151313e-04
5.480066838711e-04
4.624020882798e-04
4.672576551312e-04
4.373239615630e-04
4.296859543411e-04
4.732663135197e-04
4.256561155892e-04
4.780487454059e-04
4.228362024850e-04
3.986777932844e-04
3.874501683094e-04
4.200441118422e-04
3.765496188183e-04
4.108081064309e-04
3.634548399862e-04
3.998798028343e-04
3.485595781560e-04
3.313503144510e-04
3.156526316559e-04
3.346973755223e-04
3.017994079224e-04
3.230348455367e-04
2.871303399205e-04
2.771793774994e-04
2.616687071543e-04
2.731580340340e-04
2.472195447524e-04
2.602479329268e-04
2.346055880456e-04
2.485706414743e-04
2.235123119638e-04
2.149787247196e-04
2.028996473635e-04
2.131416784327e-04
1.927704853027e-04
1.870740321677e-04
1.762558303622e-04
1.768844596100e-04
1.650178792565e-04
1.673067838283e-04
1.538369879850e-04
1.567515728123e-04
1.455288627585e-04
1.443687818225e-04
1.355538189969e-04
1.399222090087e-04
1.298244338802e-04
1.269633487794e-04
1.210461281776e-04
1.261284014266e-04
1.179807590852e-04
1.130178298387e-04
1.106350177399e-04
1.152093614263e-04
1.081288600807e-04
1.124785387969e-04
1.032304787623e-04
1.020249891610e-04
9.750822953464e-05
9.684836888084e-05
2.596774764892e-04
9.277805137177e-05
9.674354572968e-05
9.211190090366e-05
9.598383685484e-05
8.936290750711e-05
8.804357002560e-05
8.817901156403e-05
2.887024416821e-04
3.767578392463e-04
8.549993790505e-05
9.053574261859e-05
1.059211883797e-04
1.215154789622e-04
5.932156281907e-04
5.199533670263e-04
5.693610653255e-04
5.158602929295e-04
5.399363282738e-04
9.998743726280e-05
4.416277232499e-04
4.932547312133e-04
4.856412850877e-04
3.746515314782e-04
1.906348847724e-04
8.817550489364e-05
8.669835492619e-05
8.820562582986e-05
1.194285129745e-04
1.164356490551e-04
1.231171365918e-04
1.201051504874e-04
1.264506830535e-04
1.239131627028e-04
1.179381221306e-04
1.211666302605e-04
1.157789875668e-04
1.298589182282e-04
1.336183270098e-04
1.192641442940e-04
1.146527154372e-04
1.189921038081e-04
1.143987549079e-04
1.099852097453e-04
1.100821295115e-04
1.058540226365e-04
1.818594866576e-04
1.953568658926e-04
1.857386027429e-04
1.987107100762e-04
1.882120133800e-04
2.003404079962e-04
1.888377316522e-04
1.800607585355e-04
4.179763928259e-04
2.041056790722e-04
2.303477146780e-04
2.230602250423e-04
2.617223175817e-04
2.541582978424e-04
2.998235356157e-04
2.893859480764e-04
2.473409904399e-04
2.782781124995e-04
2.427221066743e-04
2.716071287111e-04
2.398506029559e-04
3.087057548555e-04
2.127371455904e-04
2.141197209674e-04
2.262899852118e-04
1.520865913952e-04
1.148095367297e-04
1.368968019846e-04
1.402858885386e-04
1.812750089153e-04
1.499576405695e-04
3.309687259432e-04
3.466582273738e-04
5.086309727167e-04
5.289927317297e-04
1.432041403991e-04
1.202834983901e-04
1.244905786280e-04
3.001098176538e-04
1.106299622675e-04
1.152965954427e-04
1.124231999177e-04
2.264000387834e-04
2.404209256042e-04
2.100116073921e-04
2.120027396327e-04
2.414961159027e-04
2.110936043048e-04
1.864771466462e-04
1.924415035211e-04
2.223891198102e-04
2.016855159368e-04
1.685904654814e-04
1.779311802298e-04
2.156514244748e-04
1.931915509513e-04
1.196937613153e-04
2.927426892051e-04
5.663181984365e-04
1.383951933846e-04
1.883324409889e-04
5.156905450871e-04
5.303234496574e-04
5.516156758501e-04
5.431140331145e-04
5.383187908174e-04
5.500018721860e-04
5.591288831038e-04
5.609619359814e-04
5.714490034252e-04
5.713393732542e-04
5.653517804676e-04
5.690512291093e-04
5.795019041278e-04
5.786728540119e-04
5.879831595287e-04
5.871051809449e-04
5.682853411261e-04
1.907047558574e-04
1.701037198777e-04
1.681189898995e-04
8.846301530935e-05
8.557998631971e-05
9.113453346254e-05
9.286978161281e-05
5.768274123940e-04
5.640381279967e-04
3.693548765097e-04
3.857544374847e-04
5.113495072083e-04
1.118909069220e-04
1.069657763239e-04
3.625908944750e-04
4.289061959875e-04
4.137110241779e-04
4.802184916270e-04
5.064741868199e-04
4.570420905089e-04
1.381456491375e-04
5.545820839017e-04
1.291007260386e-04
1.856458754727e-04
1.171315615500e-04
1.684679623827e-04
3.252732902216e-04
3.079559712483e-04
3.251401538524e-04
3.084549619752e-04
3.259454151389e-04
3.076133789527e-04
2.958939969551e-04
2.405255998790e-04
2.957023322600e-04
5.922735833078e-04
2.241637102017e-04
1.446876991503e-04
2.354090566552e-04
2.469801511931e-04
1.550260574705e-04
1.000850953477e-04
1.437037643737e-04
3.247721250375e-04
3.409549621940e-04
5.595221525559e-04
5.999117399419e-04
2.267402722269e-04
6.226807014445e-04
5.925824809532e-04
6.226431478574e-04
2.662647917638e-04
2.655090641325e-04
5.478893238928e-04
3.596449497976e-04
4.023991414671e-04
3.123264958282e-04
3.069086825132e-04
5.716540225473e-04
5.706289583566e-04
9.591812116767e-05
9.501554761635e-05
1.514972761278e-04
2.170762311988e-04
5.646835871615e-04
1.619624598660e-04
1.590291741682e-04
9.247072174448e-05
3.867139155061e-04
3.700576052030e-04
1.424355897494e-04
1.637571348820e-04
1.254060500535e-04
1.491613327078e-04
5.382920571447e-04
2.798350747965e-04
2.791172331144e-04
2.790642645764e-04
2.747519440513e-04
1.406719398864e-04
1.131942396637e-04
3.389457163355e-04
3.572631202118e-04
3.738801779975e-04
4.194015448504e-04
4.291045523359e-04
4.553721081925e-04
6.555239405006e-04
3.868783611153e-04
5.896089209983e-04
7.398574156725e-04
7.398222053612e-04
5.326373013758e-04
6.428692136257e-04
2.706412125123e-04
2.057164098599e-04
9.480210093528e-05
1.063021647859e-04
1.270106803787e-04
5.613233285104e-04
5.624600548276e-04
6.032249125757e-04
6.274348996715e-04
2.300696755733e-04
2.712801535071e-04
1.102504024170e-04
1.334258193446e-04
5.297145718755e-04
5.301417287147e-04
5.095067950699e-04
1.566048074692e-04
1.967113782459e-04
1.738992776098e-04
2.901295589686e-04
2.756542199465e-04
3.360298991798e-04
3.920322404406e-04
1.187369028317e-04
1.233246633028e-04
2.392239289065e-04
1.086329892519e-03
2.627731845610e-04
2.469563290481e-04
9.322250265909e-04
8.982789842530e-04
7.204820951804e-04
8.409171206498e-04
1.235210395904e-04
1.239331079210e-04
3.281035908451e-04
2.957124930933e-04
3.618759524568e-04
3.780186706029e-04
2.265396268399e-04
2.176583980303e-04
8.740459815823e-05
7.001765571510e-04
5.521630409238e-04
9.413620492855e-04
1.358372448773e-04
1.340865161590e-04
2.994521545080e-04
2.985859246052e-04
5.633020814067e-04
4.202897265345e-04
4.594227854037e-04
3.921029953435e-04
1.329147270313e-04
8.459630816246e-04
1.257425569633e-04
5.568043462873e-04
5.714351570710e-04
2.502386459431e-04
3.534211647946e-04
1.549795760778e-04
5.651536677348e-04
5.653182731128e-04
6.849501599906e-04
7.307112641138e-04
6.512591326313e-04
3.312161279717e-04
3.204633202232e-04
5.555287984025e-04
8.216299486256e-05
8.401498273774e-05
1.882060103248e-04
1.378326472419e-04
9.909295629613e-05
9.897923101572e-05
3.744153805691e-04
3.907600142367e-04
3.413266204128e-04
1.520083621700e-04
1.488915502478e-04
1.553784008463e-04
5.756096659572e-04
5.911281251923e-04
1.261750631383e-04
1.436483875079e-04
1.095064434978e-04
5.589470562712e-04
1.318324002983e-04
1.260678945462e-04
3.789185497624e-04
3.153451873101e-04
3.492808272923e-04
3.326374252894e-04
5.289238245499e-04
4.973733294175e-04
5.414818998102e-04
1.085192608320e-04
2.661785494040e-04
1.544166361221e-04
1.701565373230e-04
1.574104221520e-04
2.489810683887e-04
2.396846032377e-04
2.677088815903e-04
3.015648145633e-04
5.686873976376e-04
6.898906676480e-04
2.811667375532e-04
7.352145869757e-04
6.606517939456e-04
8.157341423697e-04
1.722842947685e-04
8.256425357654e-04
7.392844265935e-04
4.355002166520e-04
5.967190300835e-04
4.690249105334e-04
4.186023806869e-04
1.420247560749e-04
1.337543334571e-04
1.384197171399e-04
1.301709853490e-04
1.276523851823e-04
1.285220600167e-04
7.809974201581e-04
1.363802939701e-04
1.301048416362e-04
1.423686918481e-04
1.022578973550e-03
4.857523427845e-04
5.072886944176e-04
4.583847689480e-04
3.834501631876e-04
3.949478724110e-04
1.150167526041e-04
1.084752515053e-04
7.053707237959e-04
7.072055567724e-04
6.262563752153e-04
6.391051684253e-04
5.997298500999e-04
5.994228982521e-04
5.874622304763e-04
2.929899787788e-04
3.501660363708e-04
1.192374815373e-03
2.093768701074e-04
2.012348753643e-04
7.729477862731e-04
8.153599866570e-04
1.463054226236e-04
3.332160434421e-04
5.894252235966e-04
1.424581410508e-04
2.529369171708e-04
3.435809637287e-04
6.866767335916e-04
5.185540623116e-04
5.737962070295e-04
1.541142065542e-04
3.387654050286e-04
3.665586160675e-04
5.814450681585e-04
2.916989353749e-04
1.107831837507e-04
2.787889006142e-04
4.611030851542e-04
4.080783631584e-04
4.374122813296e-04
5.496653812680e-04
8.006812284787e-04
8.600865089149e-04
2.387364615853e-04
6.386037598207e-04
6.246239123051e-04
4.885391339801e-04
4.926307439766e-04
4.911231098417e-04
5.006745559084e-04
4.810045396140e-04
4.670337101140e-04
4.649034586571e-04
4.812073901579e-04
4.516995566651e-04
4.625019235083e-04
4.419267908614e-04
4.387925144920e-04
4.260213597558e-04
4.238537980951e-04
4.211052586585e-04
2.092681778052e-04
2.997186463474e-04
2.960361344362e-04
2.783926935316e-04
4.747465534836e-04
4.928384966925e-04
5.198903435211e-04
3.114017528848e-04
3.706205121695e-04
6.919893856923e-04
3.164286497287e-04
3.222039064820e-04
4.809210538190e-04
4.648208605521e-04
4.951503556961e-04
5.514417367419e-04
6.208017300711e-04
2.468714965504e-04
2.098572228984e-04
2.207109726129e-04
2.159363281806e-04
4.439929243714e-04
1.807300528859e-04
1.866090938796e-04
1.769253242567e-04
1.843604204027e-04
1.658519319147e-04
4.435785731199e-04
4.217974608574e-04
1.646704416708e-04
1.629981033225e-04
1.460392345724e-04
1.662348278141e-04
1.864140752314e-04
1.862935759428e-04
1.697791357786e-04
2.129637901193e-04
3.909177624872e-04
1.534713952476e-04
1.306576049256e-04
1.350477164375e-04
1.308525657810e-04
9.551439658099e-05
9.988829539252e-05
1.035654557960e-04
9.190147849767e-05
2.947176310484e-04
1.496963946629e-04
1.657051856496e-04
1.009334826953e-04
1.205263281260e-03
9.804921830268e-04
9.436221762768e-04
7.282123288340e-04
8.961398038814e-04
9.836420787468e-05
9.824217445855e-05
9.577898137461e-05
9.870004540001e-05
9.482338346293e-05
9.172731284055e-05
9.849372446361e-05
9.679119726307e-05
1.052215297783e-03
3.507521840213e-04
3.429848410513e-04
3.549141292006e-04
3.054808622502e-04
3.042153989324e-04
2.608914895555e-04
2.682260793401e-04
3.288460058672e-04
4.137441525890e-04
3.778003748414e-04
4.538059639102e-04
4.029946272926e-04
3.166376115714e-04
2.218371351007e-04
1.384330134335e-04
8.573531233307e-05
8.892166765680e-05
8.305102575163e-05
8.535806201554e-05
8.602161790712e-05
8.158619876834e-05
8.546047280031e-05
7.674786041036e-04
5.917528427592e-04
6.132013513483e-04
4.134731660353e-04
4.145351483865e-04
5.808345172012e-04
5.762934194424e-04
7.441705168136e-04
5.655629069828e-04
4.010725283577e-04
7.238578519774e-04
5.806030115203e-04
5.835402491506e-04
1.457020046557e-04
9.295341478414e-04
5.347943058801e-04
6.163367778775e-04
6.148247265662e-04
6.311779300697e-04
1.253162063494e-04
1.297119057476e-04
6.159933278129e-04
9.853980250830e-05
4.809504256595e-04
5.683835808496e-04
3.493523238694e-04
1.275618413927e-04
1.081683815719e-04
1.109402777970e-04
1.204507490953e-04
1.062074960858e-04
1.192646793394e-04
1.671598532676e-04
2.053224813306e-04
5.865806858319e-04
5.990612545683e-04
5.590960667626e-04
8.384980405350e-05
9.376114798335e-05
1.873207992768e-04
3.387884834391e-04
5.907925159916e-04
1.227342185622e-04
9.200966239941e-05
9.509775512583e-05
1.523147453242e-04
3.110705040409e-04
1.063460796070e-04
1.268459933629e-04
5.590701714648e-04
6.082804091032e-04
1.318650199475e-04
1.140233869368e-04
5.753292229000e-04
2.007053083701e-04
2.317331618139e-04
5.546528995670e-04
5.528887691370e-04
7.078445181765e-04
2.870802932830e-04
6.482328040453e-04
1.419026958058e-04
5.064308885532e-04
8.682092950952e-05
1.692865350453e-04
3.871602958050e-04
1.649317601259e-03
5.777060629844e-04
2.439361455264e-04
1.801628601994e-04
1.775124730167e-04
8.239414880909e-05
1.285292953705e-04
2.004832659248e-04
5.507534889196e-04
3.409508107123e-04
1.840769326386e-04
5.311768976860e-04
1.350475282810e-04
2.145178183001e-04
5.792482050427e-04
3.471170609864e-04
4.073418206169e-04
2.938350191317e-04
1.036788410033e-04
1.298691580724e-04
2.686505345345e-04
4.004005635335e-04
5.837331245556e-04
3.040761154985e-04
5.700716823629e-04
4.460652866326e-04
1.232921519140e-04
5.507878664606e-04
1.047598649837e-04
1.444409618275e-04
3.405192173520e-04
2.173595534666e-04
2.289055204248e-04
1.085132495247e-04
5.207546878903e-04
1.239573597288e-04
1.479940336452e-04
1.732433485902e-04
1.231074754344e-03
1.242605614759e-04
1.618555015355e-04
1.997586033975e-04
9.297053523542e-05
3.193630095956e-04
9.189863669493e-04
1.261198345246e-04
1.636215105612e-04
3.221873833095e-04
8.388459918167e-04
1.339443017565e-04
1.625236146056e-04
2.929381081414e-04
1.507672933614e-04
1.393910394788e-03
1.075731205450e-04
3.617267974812e-04
5.878718046177e-04
1.651871491492e-04
4.957882283931e-04
1.029709630448e-04
2.385774238747e-04
4.138632518051e-04
1.122352513760e-03
1.020771717813e-04
1.904481771765e-04
1.448286390804e-04
2.383548644009e-04
1.018906861866e-04
1.761023807867e-04
1.023106828206e-04
1.087934347251e-03
4.619904653341e-04
1.027389224199e-04
3.579890674192e-04
3.793942806007e-04
2.779321990622e-04
1.219914577030e-04
1.011075032060e-04
1.397544133807e-04
4.555878992023e-04
8.309822798519e-04
1.435883913126e-04
3.569903938730e-04
2.652516859210e-04
2.317665582504e-04
1.462189590642e-04
7.237525498108e-04
1.155531271826e-04
1.581252196406e-04
1.589041609042e-04
3.739375341682e-04
2.775009792923e-04
4.305088242406e-04
2.531270759155e-04
1.520143639770e-04
2.528158758762e-04
5.956642475850e-04
1.363408763760e-04
9.285319705628e-05
1.308023488033e-04
2.356846544697e-04
1.192294188010e-04
1.130658248123e-04
5.903385965930e-04
1.066754232542e-04
6.047040358810e-04
1.405011822489e-04
7.049961473642e-04
6.516307993025e-04
2.226779199313e-04
5.318845777213e-04
1.075691124472e-04
4.068013998191e-04
7.082925488708e-04
1.087502108072e-04
4.435688188154e-04
2.762299613476e-04
5.822734605343e-04
1.825795103754e-04
2.520543664198e-04
5.724886847922e-04
9.022294694419e-04
4.227575070284e-04
1.042292704116e-04
4.755091976809e-04
3.921490514168e-04
3.153281497205e-04
8.017865530560e-05
3.150715151112e-04
3.363348073797e-04
1.895672719579e-04
8.067527070073e-04
2.677350535260e-04
2.366144797715e-04
5.675780879360e-04
2.606630039065e-04
1.420106035160e-04
2.602500892569e-04
2.708798805191e-04
7.855557221918e-04
3.603386145497e-04
5.707853642015e-04
1.417631388044e-04
9.230543620458e-04
5.948953482719e-04
2.721152431777e-04
5.840265005302e-04
4.070801456231e-04
6.101532980161e-04
7.312328370726e-04
1.322204389890e-04
4.848560669427e-04
2.585926190334e-04
5.715443488753e-04
8.858060099786e-05
3.060574383769e-04
1.398437960809e-04
4.087084890676e-04
1.324354070710e-04
4.299567550829e-04
4.901267365689e-04
1.524587306518e-04
4.078600019508e-04
2.378295300218e-04
6.009169923529e-04
2.068575028555e-04
9.829928073991e-04
5.521092323131e-04
1.418444889936e-04
6.015491272811e-04
8.809887856132e-05
1.305857246733e-03
8.398167485227e-05
3.055977132243e-04
3.446516956047e-04
5.964157715434e-04
1.635227873849e-04
5.345891659734e-04
2.161372015523e-04
2.560438064784e-04
2.794419466195e-04
1.718051737788e-04
8.827109925114e-04
5.157386381048e-04
8.484029682187e-05
2.808245141807e-04
6.134162540129e-04
7.947270925642e-04
8.624720591030e-04
1.410780528186e-04
3.043990563973e-04
6.379857748878e-04
4.279347759678e-04
9.125608512268e-05
5.771950969927e-04
2.710798551290e-04
2.537415878887e-04
5.944208721584e-04
2.399039261904e-04
5.542583679516e-04
5.916567009577e-04
3.073898561511e-04
4.100404819599e-04
9.084427674340e-05
3.485993239299e-04
1.894986799541e-04
1.092869484312e-04
9.505422411648e-05
5.437091652768e-04
1.383134038970e-04
9.049331707574e-05

SCALARS node_materi_strain_total_size_dev_sd_ept float
LOOKUP_TABLE default
4.678058718884e-03
6.703513232949e-03
2.871995339160e-04
1.999851045909e-03
4.583476540432e-03
4.646547828915e-03
4.520455754778e-03
4.214056000050e-03
3.782547926649e-03
3.339048265505e-03
2.885155043506e-03
2.460474871182e-03
2.096710353351e-03
1.744610078973e-03
1.440137320472e-03
1.191880529370e-03
9.902021816263e-04
8.100618269692e-04
6.246116443851e-04
4.540333040925e-04
2.952803905741e-04
1.753012032232e-04
2.103492940386e-04
1.956984860744e-03
2.150526104382e-03
2.457187796272e-03
2.737458929057e-03
3.128250897676e-03
3.624100523846e-03
4.179736394915e-03
4.724414589043e-03
5.367587983562e-03
5.898584264100e-03
6.432752403888e-03
7.033209616496e-03
7.609026058931e-03
8.009870156763e-03
8.425369418402e-03
8.622832112386e-03
8.784524440112e-03
8.862992411860e-03
8.828502109935e-03
8.705513182283e-03
8.486154910989e-03
8.171803041259e-03
7.814566732840e-03
7.382430489625e-03
6.934653935229e-03
6.443119014208e-03
5.925985123940e-03
5.405535772008e-03
4.895407672294e-03
4.426517340345e-03
3.991948908473e-03
3.594352065456e-03
3.123960239405e-03
2.737917352849e-03
2.383100607812e-03
2.057297642707e-03
1.792378147271e-03
1.541712129811e-03
1.328709922518e-03
1.134441440610e-03
9.890309855877e-04
8.523075765191e-04
7.403774169187e-04
6.132362292147e-04
5.263728498922e-04
4.501461226904e-04
3.926019775263e-04
3.469655488336e-04
3.186436911687e-04
6.136250223874e-03
5.371674447022e-03
4.822549507813e-03
4.420028519824e-03
3.982639410311e-03
3.585159128700e-03
3.098882183371e-03
2.696059193200e-03
2.369888134473e-03
2.106443152668e-04
1.386792954329e-02
6.660013862715e-04
1.108324819531e-03
1.773336547907e-03
2.448136192553e-03
3.531954642030e-03
5.015635726329e-03
6.908691398510e-03
9.522049289471e-03
1.298241870402e-02
6.791137762430e-03
6.720619957031e-03
6.798141318018e-03
6.998579331665e-03
7.056501506765e-03
7.307157258760e-03
7.675911723669e-03
7.841421080315e-03
8.108089584543e-03
8.595162322999e-03
9.287078035961e-03
1.010104076987e-02
1.152554182337e-02
1.362644064433e-02
5.011212572775e-04
8.178140323508e-04
1.050083804388e-03
1.355465440105e-03
1.776753137459e-03
2.077289937868e-03
2.322202319058e-03
2.556288594910e-03
2.854544785896e-03
3.141442617729e-03
3.431167503911e-03
3.704519662179e-03
4.034686415989e-03
4.328832732806e-03
4.539830004774e-03
4.654340548976e-03
4.730604933330e-03
4.796624197052e-03
4.771314771290e-03
4.909782459107e-04
8.734582367431e-04
1.397818900601e-03
2.102927959026e-03
3.168849182015e-03
4.397400825807e-03
5.874467542212e-03
8.091887012150e-03
1.117722022258e-02
1.507005044742e-02
1.239518623370e-03
3.012850366281e-03
3.158404518966e-03
2.064307484069e-03
1.476348947292e-03
2.520124201832e-03
1.598826464480e-03
4.848943964748e-03
4.945629358000e-03
6.703489794344e-03
9.051176690976e-03
7.645957050992e-04
4.140848956338e-03
8.170112437382e-03
1.311658938868e-02
3.108449014272e-03
9.514877927672e-04
8.489716817149e-03
7.583192619970e-03
3.238006530831e-03
4.582126166909e-03
6.212656680054e-03
1.157885911981e-02
8.008650512872e-03
7.008303749419e-03
4.214533508265e-03
4.578983233832e-04
1.332385182942e-03
4.600849157300e-03
3.861504589227e-04
6.472333979967e-03
4.369863483928e-03
8.039833470872e-03
5.784568001261e-03
7.545798561972e-03
3.946881887895e-03
2.289350255259e-03
2.535107020162e-03
9.263699077192e-03
1.072704932151e-03
3.360397948908e-03
3.616350163638e-03
2.280217478996e-03
2.628505610660e-03
3.667426086418e-03
1.791147341153e-03
6.691402356255e-03
1.186405547957e-02
8.462619085490e-04
5.064896158036e-03
3.310675415055e-04
4.708925882759e-03
2.573956839894e-03
1.143797313862e-02
1.027873157987e-02
9.778643782309e-03
8.923996373044e-03
8.353425473891e-03
7.901725767134e-03
8.248437224121e-03
7.471800905724e-03
7.696256761206e-03
7.548783505808e-03
7.093130874192e-03
7.242874604785e-03
6.811648787731e-03
6.860175232225e-03
7.344153603423e-03
6.912414000514e-03
7.440185421123e-03
6.956350415964e-03
6.604488317671e-03
6.602050880020e-03
6.965101381479e-03
6.591799764473e-03
6.913340023728e-03
6.550373174972e-03
6.819961762269e-03
6.491814201137e-03
6.345451924888e-03
6.318729047425e-03
6.434901143450e-03
6.290507486017e-03
6.371969704445e-03
6.269375439198e-03
6.319483975014e-03
6.314785781135e-03
6.244634406421e-03
6.301311677342e-03
6.208009861816e-03
6.290198461052e-03
6.172865843671e-03
6.273826801849e-03
6.436980993008e-03
6.419941605469e-03
6.243356148525e-03
6.382973706734e-03
6.509801590333e-03
6.456536927295e-03
6.466115235145e-03
6.388071298944e-03
6.375281986645e-03
6.286961801729e-03
6.154192037940e-03
6.041632541480e-03
6.168759126234e-03
5.914318730894e-03
5.656828255728e-03
5.524604176850e-03
5.767566129823e-03
5.378660753557e-03
5.049080698116e-03
4.907493830954e-03
5.213772374401e-03
4.754410523533e-03
4.398287940758e-03
4.261261203953e-03
3.876522916904e-03
4.590285424649e-03
4.114921659491e-03
4.414315566898e-03
3.963192892221e-03
6.474541272759e-03
4.240164189894e-03
4.636942471797e-03
3.820382357372e-03
3.508647319902e-03
4.088609883727e-03
3.704243994579e-03
3.966859150759e-03
6.177410426886e-03
6.455334091241e-03
3.628407509335e-03
3.888682705964e-03
4.155984025947e-03
4.084010392821e-03
7.897591830369e-03
7.059788814489e-03
7.350067886662e-03
6.642695899968e-03
6.820031924210e-03
3.871186036948e-03
6.709680794611e-03
6.493092247106e-03
7.405911684989e-03
6.595654084536e-03
6.517118876049e-03
3.316879482628e-03
3.278652363505e-03
2.937837570107e-03
3.988057922471e-03
3.456624485837e-03
3.544152601422e-03
3.014002595703e-03
3.079753247422e-03
2.568432496116e-03
2.514660720531e-03
2.097443484017e-03
2.057055524386e-03
2.621414588757e-03
3.141165898327e-03
1.678018185381e-03
1.651607607179e-03
1.318642560280e-03
1.304389363544e-03
1.628073595948e-03
1.299219516342e-03
1.607168224233e-03
6.331693694757e-03
6.385084997414e-03
6.056072349577e-03
6.103766890082e-03
5.661098963525e-03
5.697492075480e-03
5.187500559539e-03
5.119784275968e-03
6.607815891550e-03
6.191326649666e-03
6.062194076341e-03
5.971043473726e-03
5.883603252269e-03
5.736901570573e-03
5.643409316492e-03
5.438274055377e-03
5.571422793508e-03
5.216868727479e-03
5.375985126175e-03
4.975672188573e-03
5.162440117137e-03
6.357505853736e-03
6.150919640638e-03
5.755684711483e-03
6.218772535617e-03
4.262695337260e-03
1.019078394274e-03
2.671965414863e-03
3.201267084619e-03
4.625086105678e-03
4.083925438863e-03
5.268249320749e-03
5.501888057261e-03
6.291059036068e-03
6.405903177127e-03
2.727755931526e-03
3.929390660547e-03
1.705827046958e-03
4.719240859639e-03
1.029642630707e-03
7.944763360750e-04
2.460428120100e-03
5.851855878128e-03
6.313308772430e-03
5.543206657317e-03
5.352209065555e-03
4.922676335068e-03
5.118183010900e-03
5.545265506409e-03
5.297437044564e-03
4.851254831826e-03
5.027805773309e-03
5.391201323261e-03
5.117786206090e-03
4.719123682632e-03
4.830751637839e-03
7.834772507684e-04
4.416173897715e-03
8.059549076735e-03
2.243121557308e-03
4.711930433893e-03
5.983470191442e-03
6.033938006725e-03
6.464570548227e-03
5.975394613629e-03
5.558412107493e-03
5.456390480320e-03
5.825865363319e-03
5.342944414790e-03
5.716798333549e-03
5.273163960238e-03
4.853393698426e-03
4.800424029778e-03
5.210346089624e-03
4.779290059845e-03
5.177053158289e-03
4.801392900026e-03
4.354938455727e-03
4.157228004011e-03
4.545608959359e-03
4.026730617771e-03
2.923210340780e-03
2.582918435703e-03
2.589406134546e-03
2.202489782848e-03
4.395804358555e-03
3.973195127675e-03
4.994047490875e-03
5.241217993725e-03
5.945018608183e-03
8.164403185752e-04
1.043936981119e-03
6.474489793107e-03
6.668783928058e-03
6.469847454883e-03
6.496136263612e-03
6.830445698933e-03
6.209828163528e-03
3.705204859800e-03
4.399781901609e-03
4.386431749856e-03
4.373525348080e-03
6.160098588681e-04
5.042833268712e-03
6.386590369623e-03
6.552363581498e-03
6.600743019635e-03
6.785075226267e-03
6.856400940806e-03
6.937793954883e-03
6.845229669225e-03
5.989367274923e-03
6.824522764365e-03
4.888276376605e-03
6.477647902022e-03
5.366359027318e-03
4.229880868134e-03
4.448728978979e-03
4.047365268828e-03
3.751819500320e-03
2.306294127123e-03
7.053866085904e-03
6.991775470643e-03
6.445368548466e-03
6.900340186558e-03
5.420585490156e-03
7.717757840375e-03
6.197706102146e-03
6.117516906159e-03
4.296734345028e-03
4.234950225389e-03
5.013757721635e-03
5.705165278555e-03
5.481734488937e-03
4.033554632968e-03
3.673903184864e-03
4.041111353420e-03
3.646109060713e-03
2.233450098153e-03
1.856389741671e-03
2.793353591185e-03
4.587932189944e-03
3.608477665447e-03
4.460753425111e-03
4.954719963015e-03
2.207191998390e-03
4.486155220303e-03
4.239181389706e-03
5.611265082036e-03
4.843353724642e-03
3.936084664586e-03
2.395563318677e-03
5.128406211972e-03
6.708160069706e-03
6.763696582957e-03
6.553602177008e-03
4.161626684379e-03
1.842399497846e-03
6.467929501866e-04
7.268216109000e-03
7.159654968983e-03
5.897940990896e-03
5.706517082012e-03
4.993977448689e-03
5.279469411736e-03
8.523901766090e-03
6.077898168452e-03
8.130510978008e-03
8.937417626735e-03
8.711139094345e-03
7.142617163556e-03
7.382980064456e-03
6.004287588253e-03
6.552680196823e-03
2.643617552940e-03
1.974338436163e-03
4.092632704490e-03
4.482297032063e-03
4.070913438711e-03
5.593535379959e-03
5.653905764677e-03
4.282749784740e-03
4.275979315522e-03
3.363287060388e-03
1.795807285794e-03
5.580982340636e-03
5.742515086393e-03
6.003292792154e-03
2.882237296880e-03
6.116959290253e-03
5.978604129580e-03
4.093677512544e-03
6.483652754894e-03
4.208886575427e-03
6.503999852868e-03
4.661827423083e-04
4.480178047220e-04
5.564140047880e-03
1.105751603598e-02
6.643273533042e-03
6.606324444803e-03
9.538994178655e-03
8.966928910688e-03
8.342948941392e-03
8.289616100734e-03
5.463747088862e-03
5.226741841856e-03
7.184064795958e-03
6.772352813789e-03
7.463471540454e-03
7.386802928062e-03
4.997689454820e-03
4.874801382884e-03
3.556293417313e-03
6.871235426224e-03
4.771945298103e-03
9.946368652028e-03
1.465058660462e-03
1.412947306811e-03
3.247662651213e-03
3.680349892516e-03
3.213886791144e-03
4.196337527698e-03
4.545069042371e-03
3.917685925055e-03
1.801084062001e-04
6.365660601812e-03
3.240816215714e-04
7.468147347156e-03
3.205629246424e-03
6.678605192634e-03
6.364197029918e-03
3.326141207431e-03
3.298813001669e-03
2.851097265722e-03
6.749372689284e-03
6.680309817955e-03
6.835807851198e-03
4.375664637644e-03
3.428475174388e-03
4.006412851064e-03
3.278198921247e-03
2.897100754090e-03
4.608143461485e-03
4.744891532949e-03
2.284125766604e-03
2.717001478676e-03
6.596146718505e-03
6.719017500861e-03
6.441352097547e-03
4.370717417810e-03
4.857622336127e-03
5.406867439405e-03
4.174860520210e-03
3.730302530623e-03
5.680317302604e-03
5.823206211398e-03
5.201916659227e-03
4.998489890044e-03
3.503349340120e-04
4.529418484259e-04
4.086552062656e-03
4.184077939726e-03
3.470575441257e-03
3.297301443511e-03
6.032380255961e-03
6.192118174274e-03
6.049007707949e-03
3.783601974775e-03
6.662293167553e-03
2.526915538574e-03
3.021603222217e-03
2.033991369825e-03
6.083149084912e-03
5.678146864675e-03
6.350563064855e-03
2.797023387845e-03
2.907284695038e-03
6.132204793051e-03
2.381525062257e-03
6.259907840143e-03
5.749090567080e-03
6.454494375673e-03
4.143057689038e-03
7.654212499351e-03
7.685076947147e-03
3.797872904842e-03
4.770879428426e-03
4.071779369069e-03
4.223926642357e-03
1.196055690236e-03
1.111604524406e-03
9.599993433565e-04
8.902888495837e-04
1.071575196784e-03
8.379265357541e-04
6.750911864527e-03
7.182928509636e-04
6.387127285527e-04
5.865643576977e-04
8.661860292772e-03
5.611004682513e-03
4.998552256977e-03
3.679454871405e-03
7.750731858206e-03
7.589621794621e-03
5.057990062088e-04
6.832577144187e-04
5.870844751249e-03
5.779103857684e-03
5.273777506156e-03
5.272416178533e-03
4.826839316221e-03
4.821640168471e-03
4.436786166509e-03
6.627742796944e-03
2.910060673097e-03
1.056456613082e-02
4.403061966695e-03
4.310813061450e-03
7.561122127762e-03
6.753268291825e-03
1.519706089468e-03
6.111393767409e-03
5.538659162633e-03
9.189379975242e-04
2.235494335726e-03
6.236977933050e-03
7.893646553554e-03
5.973298006912e-03
5.658751418852e-03
3.860457721614e-03
3.955875059318e-03
3.688139574746e-03
4.504989840245e-03
2.437374763357e-03
5.535015847499e-04
6.100324502450e-03
7.070693239821e-03
4.744591848858e-03
5.954517759126e-03
7.892361890022e-03
9.277657687400e-03
9.761224785581e-03
6.127963016489e-03
6.238221108687e-03
5.018337742010e-03
7.478574728377e-03
6.171283052458e-03
6.237610113014e-03
6.496409938001e-03
6.515314087186e-03
6.399188508029e-03
6.553960793028e-03
6.925496824880e-03
6.826887960813e-03
7.562951637478e-03
7.256132956555e-03
6.748743383338e-03
6.969940741825e-03
7.547060099040e-03
6.646973919086e-03
4.584132569401e-03
6.249805699768e-03
3.124915177739e-03
2.601346736939e-03
7.257991922321e-03
8.393216132272e-03
7.884544702328e-03
5.820467666053e-03
7.889941863899e-03
8.822718763600e-03
4.999386493202e-03
7.126463192401e-03
6.400557193554e-03
6.678573215201e-03
6.857883233731e-03
7.236854222089e-03
6.951970297784e-03
5.346310554862e-03
6.427909297204e-03
6.586512731784e-03
6.558359769775e-03
6.548532648432e-03
3.435241349483e-03
3.445258285338e-03
3.098036816607e-03
3.594382251299e-03
2.640656909009e-03
8.495012610667e-03
8.393726750342e-03
5.635508531075e-03
5.842322674760e-03
6.003543623750e-03
6.000860175877e-03
5.731514614620e-03
5.883673377530e-03
6.130740283574e-03
5.715965528228e-03
7.130874020068e-03
1.980197487492e-03
3.627148328688e-03
4.190333898668e-03
4.645364370331e-03
3.065448912377e-03
3.164975957483e-03
2.795258920326e-03
2.979850410386e-03
6.714780951143e-03
1.719186457145e-03
5.504203914320e-03
3.633330462441e-03
1.014272194160e-02
9.671139369506e-03
1.002047039719e-02
8.628719645268e-03
8.756839003169e-03
1.889570895189e-03
1.571671922347e-03
1.572723029234e-03
1.311222672135e-03
1.352176278316e-03
1.610213505169e-03
1.104639582418e-03
1.189699207645e-03
8.619898517367e-03
2.349812278418e-03
3.080824980792e-03
3.145806153192e-03
3.660352142200e-03
3.691722614680e-03
4.241355745622e-03
4.172064901050e-03
2.982375209780e-03
2.700539100018e-03
3.281202980906e-03
2.923701777488e-03
3.420597802596e-03
3.866315826115e-03
4.395724533587e-03
3.662528867234e-04
1.934103892436e-03
2.121951365743e-03
2.505073196231e-03
2.420418138731e-03
1.833969083976e-03
2.674155873936e-03
2.892149283346e-03
4.673900290388e-03
4.588786514887e-03
4.624915898192e-03
4.508449699177e-03
4.460847159996e-03
4.534578783430e-03
4.509515569387e-03
4.539930973928e-03
4.437144165725e-03
4.402116049810e-03
4.399900371990e-03
3.793928129658e-03
3.574068649171e-03
1.276172804608e-03
7.509820973491e-03
3.390648348007e-03
2.889993589665e-03
4.083391143832e-03
3.664065510652e-03
2.368758416487e-04
2.276738883859e-04
2.450668929314e-03
4.282420170187e-03
7.083051233094e-03
3.604311160577e-03
4.709473629402e-03
4.981408767121e-03
8.439598826383e-04
2.015957765815e-03
5.989233388670e-04
1.298290079731e-03
1.021953872974e-03
2.704342033716e-03
4.229746021813e-03
5.643742180865e-03
5.243765519449e-03
4.359303220157e-03
3.594778823637e-03
1.845650236256e-03
4.216861823174e-03
7.311417963988e-03
8.000809952172e-03
4.526079171143e-03
3.394807032098e-03
4.444973714546e-03
5.102634510847e-03
6.316376579261e-03
3.757352196691e-03
2.143745586595e-03
3.987608498498e-03
3.901154237557e-03
2.193263867223e-03
2.944492398548e-03
6.333279152305e-03
5.216220865847e-03
4.528924206967e-03
4.911481827519e-03
5.391050445435e-03
7.800393363864e-03
4.271117363199e-03
6.050965441047e-03
1.921146417835e-03
6.209312871030e-03
3.633935298775e-03
6.252055698056e-03
6.713386450665e-03
1.329495871626e-02
3.600287410533e-03
6.455191108587e-03
4.120735710309e-03
5.589287134104e-03
3.381411315948e-03
1.359721500091e-03
6.540032134941e-03
4.568582495854e-03
6.688154361702e-03
6.323598853987e-03
5.607624196390e-03
5.176352877761e-03
5.298407359712e-03
7.771766991513e-03
6.387060016656e-03
6.597651826561e-03
6.331194916149e-03
8.803008233674e-04
1.749234754766e-03
4.732639991638e-03
6.279199877375e-03
7.020888079004e-03
6.977412104061e-03
4.413931624661e-03
6.880558326942e-03
1.337708784327e-03
5.208385948227e-03
3.265478125969e-03
3.989169354938e-03
3.928363619157e-03
5.859614404882e-03
6.445417218189e-03
2.871629704013e-03
6.682539388566e-03
1.042543943098e-03
3.263912006024e-03
1.041009108970e-03
1.131719079854e-02
7.972512025000e-04
5.885508587068e-03
4.763199209306e-03
1.436882281672e-03
7.012275953756e-03
7.670633879074e-03
5.998389474947e-04
3.946211713787e-03
5.974117832910e-03
6.355591263273e-03
4.864472615570e-04
3.411086988558e-03
6.507958114115e-03
5.777740288647e-03
1.042823516680e-02
2.403493611753e-03
6.419204375767e-03
6.782744665864e-03
3.502292874613e-03
7.247414092199e-03
2.343851179168e-03
6.539723200977e-03
4.463221407002e-03
9.655365574555e-03
1.931094209394e-03
6.014277948082e-03
5.295515445153e-03
5.207767108425e-03
1.586751884598e-03
6.238833444153e-03
1.299120329048e-03
7.783938419289e-03
6.950894202951e-03
1.063449914301e-03
6.501459528718e-03
4.318743870212e-03
6.664176115395e-03
3.406895934464e-04
4.841602357973e-03
4.753881279204e-03
6.563851356452e-03
5.713366475383e-03
4.282164470070e-03
6.791569772370e-03
6.729684712694e-03
6.579148666848e-03
3.783716459486e-03
5.958244030895e-03
4.551710881658e-03
4.540693280496e-03
6.271963520127e-03
6.961760446643e-03
4.355638401074e-03
6.644265910938e-03
4.338422906810e-03
6.148658717933e-03
6.410855092101e-03
4.625011837039e-03
6.031849956675e-03
3.562080351043e-03
5.869421736970e-03
6.626350839677e-03
5.601620042131e-03
5.409767290140e-03
3.196397788000e-03
5.033396911185e-03
2.254362814388e-03
2.581426617238e-04
5.735579259536e-03
4.171450438945e-03
1.636620427070e-03
4.554525206189e-03
4.980174330807e-03
6.564508372785e-03
5.764052786266e-03
4.753897600057e-03
7.918099776006e-03
6.246180351843e-03
4.038536176035e-03
4.240591974171e-03
6.615797985482e-03
2.941075128195e-03
6.906837416742e-03
3.548293487040e-03
7.305663074944e-04
2.936839557031e-03
3.244403562737e-03
2.642058119137e-03
3.104928584490e-03
3.709634556960e-03
2.153450043181e-03
3.846070072877e-03
7.279112072174e-03
6.459304172387e-03
1.474108621686e-03
5.302074463612e-03
5.829125889038e-03
8.892216952634e-04
6.161068372658e-03
2.258975390609e-03
8.673746737271e-03
7.574997977705e-03
3.782296353515e-03
6.845849643659e-04
8.460780628840e-03
2.820593792785e-03
4.449612361255e-03
2.609251402035e-03
6.832642367764e-03
5.304920584798e-03
8.778388841763e-03
2.707066525136e-04
7.563753159495e-03
2.141290317381e-03
4.137147536241e-03
2.610559887472e-03
2.687687814106e-03
1.289394065333e-03
7.274854953361e-03
4.038741453898e-04
4.593546402802e-03
3.865364493149e-03
1.703473402808e-03
7.976354418477e-03
4.631134761419e-03
5.333750045176e-03
1.583169148752e-03
7.548363032990e-03
4.273921155757e-03
5.209958523521e-04
3.996023140320e-03
2.033505358009e-03
1.216716944216e-02
3.329386358272e-03
7.008939111699e-03
3.744601837801e-03
3.332820618414e-03
2.267518514217e-03
6.520567841893e-03
4.277794921077e-03
2.244023435402e-03
6.156420565927e-03
3.180682316947e-03
6.693329234885e-03
7.082724524073e-03
2.742995754650e-03
4.289134249549e-03
2.168784662505e-03
4.668929659499e-03
6.471828454979e-03
2.584986491958e-04
4.386766848949e-03
5.321831464593e-03
8.029992774686e-03
1.307546415450e-03
3.216779104403e-03
4.055577042372e-03
1.699670807597e-03
4.439769006539e-03
5.442039591294e-03
5.767228399110e-03
4.947126550173e-03
3.112600259282e-03
7.730699074555e-03
1.848693367208e-03
7.413197306468e-03
3.859636410757e-03
5.538911128162e-04
1.104363788466e-03
4.118067311490e-03
8.175343051463e-04
1.651142985831e-03


CELL_DATA 1919

SCALARS element_number int
LOOKUP_TABLE default
407
408
409
410
411
412
413
414
415
416
417
418
419
420
421
422
423
424
425
426
427
428
429
430
431
432
433
434
435
436
437
438
439
440
441
442
443
444
445
446
447
448
449
450
451
452
453
454
455
456
457
458
459
460
461
462
463
464
465
466
467
468
469
470
471
472
473
474
475
476
477
478
479
480
481
482
483
484
485
486
487
488
489
490
491
492
493
494
495
496
497
498
499
500
501
502
503
504
505
506
507
508
509
510
511
512
513
514
515
516
517
518
519
520
521
522
523
524
525
526
527
528
529
530
531
532
533
534
535
536
537
538
539
540
541
542
543
544
545
546
547
548
549
550
551
552
553
554
555
556
557
558
559
560
561
562
563
564
565
566
567
568
569
570
571
572
573
574
575
576
577
578
579
580
581
582
583
584
585
586
587
588
589
590
591
592
593
594
595
596
597
598
599
600
601
602
603
604
605
606
607
608
609
610
611
612
613
614
615
616
617
618
619
620
621
622
623
624
625
626
627
628
629
630
631
632
633
634
635
636
637
638
639
640
641
642
643
644
645
646
647
648
649
650
651
652
653
654
655
656
657
658
659
660
661
662
663
664
665
666
667
668
669
670
671
672
673
674
675
676
677
678
679
680
681
682
683
684
685
686
687
688
689
690
691
692
693
694
695
696
697
698
699
700
701
702
703
704
705
706
707
708
709
710
711
712
713
714
715
716
717
718
719
720
721
722
723
724
725
726
727
728
729
730
731
732
733
734
735
736
737
738
739
740
741
742
743
744
745
746
747
748
749
750
751
752
753
754
755
756
757
758
759
760
761
762
763
764
765
766
767
768
769
770
771
772
773
774
775
776
777
778
779
780
781
782
783
784
785
786
787
788
789
790
791
792
793
794
795
796
797
798
799
800
801
802
803
804
805
806
807
808
809
810
811
812
813
814
815
816
817
818
819
820
821
822
823
824
825
826
827
828
829
830
831
832
833
834
835
836
837
838
839
840
841
842
843
844
845
846
847
848
849
850
851
852
853
854
855
856
857
858
859
860
861
862
863
864
865
866
867
868
869
870
871
872
873
874
875
876
877
878
879
880
881
882
883
884
885
886
887
888
889
890
891
892
893
894
895
896
897
898
899
900
901
902
903
904
905
906
907
908
909
910
911
912
913
914
915
916
917
918
919
920
921
922
923
924
925
926
927
928
929
930
931
932
933
934
935
936
937
938
939
940
941
942
943
944
945
946
947
948
949
950
951
952
953
954
955
956
957
958
959
960
961
962
963
964
965
966
967
968
969
970
971
972
973
974
975
976
977
978
979
980
981
982
983
984
985
986
987
988
989
990
991
992
993
994
995
996
997
998
999
1000
1001
1002
1003
1004
1005
1006
1007
1008
1009
1010
1011
1012
1013
1014
1015
1016
1017
1018
1019
1020
1021
1022
1023
1024
1025
1026
1027
1028
1029
1030
1031
1032
1033
1034
1035
1036
1037
1038
1039
1040
1041
1042
1043
1044
1045
1046
1047
1048
1049
1050
1051
1052
1053
1054
1055
1056
1057
1058
1059
1060
1061
1062
1063
1064
1065
1066
1067
1068
1069
1070
1071
1072
1073
1074
1075
1076
1077
1078
1079
1080
1081
1082
1083
1084
1085
1086
1087
1088
1089
1090
1091
1092
1093
1094
1095
1096
1097
1098
1099
1100
1101
1102
1103
1104
1105
1106
1107
1108
1109
1110
1111
1112
1113
1114
1115
1116
1117
1118
1119
1120
1121
1122
1123
1124
1125
1126
1127
1128
1129
1130
1131
1132
1133
1134
1135
1136
1137
1138
1139
1140
1141
1142
1143
1144
1145
1146
1147
1148
1149
1150
1151
1152
1153
1154
1155
1156
1157
1158
1159
1160
1161
1162
1163
1164
1165
1166
1167
1168
1169
1170
1171
1172
1173
1174
1175
1176
1177
1178
1179
1180
1181
1182
1183
1184
1185
1186
1187
1188
1189
1190
1191
1192
1193
1194
1195
1196
1197
1198
1199
1200
1201
1202
1203
1204
1205
1206
1207
1208
1209
1210
1211
1212
1213
1214
1215
1216
1217
1218
1219
1220
1221
1222
1223
1224
1225
1226
1227
1228
1229
1230
1231
1232
1233
1234
1235
1236
1237
1238
1239
1240
1241
1242
1243
1244
1245
1246
1247
1248
1249
1250
1251
1252
1253
1254
1255
1256
1257
1258
1259
1260
1261
1262
1263
1264
1265
1266
1267
1268
1269
1270
1271
1272
1273
1274
1275
1276
1277
1278
1279
1280
1281
1282
1283
1284
1285
1286
1287
1288
1289
1290
1291
1292
1293
1294
1295
1296
1297
1298
1299
1300
1301
1302
1303
1304
1305
1306
1307
1308
1309
1310
1311
1312
1313
1314
1315
1316
1317
1318
1319
1320
1321
1322
1323
1324
1325
1326
1327
1328
1329
1330
1331
1332
1333
1334
1335
1336
1337
1338
1339
1340
1341
1342
1343
1344
1345
1346
1347
1348
1349
1350
1351
1352
1353
1354
1355
1356
1357
1358
1359
1360
1361
1362
1363
1364
1365
1366
1367
1368
1369
1370
1371
1372
1373
1374
1375
1376
1377
1378
1379
1380
1381
1382
1383
1384
1385
1386
1387
1388
1389
1390
1391
1392
1393
1394
1395
1396
1397
1398
1399
1400
1401
1402
1403
1404
1405
1406
1407
1408
1409
1410
1411
1412
1413
1414
1415
1416
1417
1418
1419
1420
1421
1422
1423
1424
1425
1426
1427
1428
1429
1430
1431
1432
1433
1434
1435
1436
1437
1438
1439
1440
1441
1442
1443
1444
1445
1446
1447
1448
1449
1450
1451
1452
1453
1454
1455
1456
1457
1458
1459
1460
1461
1462
1463
1464
1465
1466
1467
1468
1469
1470
1471
1472
1473
1474
1475
1476
1477
1478
1479
1480
1481
1482
1483
1484
1485
1486
1487
1488
1489
1490
1491
1492
1493
1494
1495
1496
1497
1498
1499
1500
1501
1502
1503
1504
1505
1506
1507
1508
1509
1510
1511
1512
1513
1514
1515
1516
1517
1518
1519
1520
1521
1522
1523
1524
1525
1526
1527
1528
1529
1530
1531
1532
1533
1534
1535
1536
1537
1538
1539
1540
1541
1542
1543
1544
1545
1546
1547
1548
1549
1550
1551
1552
1553
1554
1555
1556
1557
1558
1559
1560
1561
1562
1563
1564
1565
1566
1567
1568
1569
1570
1571
1572
1573
1574
1575
1576
1577
1578
1579
1580
1581
1582
1583
1584
1585
1586
1587
1588
1589
1590
1591
1592
1593
1594
1595
1596
1597
1598
1599
1600
1601
1602
1603
1604
1605
1606
1607
1608
1609
1610
1611
1612
1613
1614
1615
1616
1617
1618
1619
1620
1621
1622
1623
1624
1625
1626
1627
1628
1629
1630
1631
1632
1633
1634
1635
1636
1637
1638
1639
1640
1641
1642
1643
1644
1645
1646
1647
1648
1649
1650
1651
1652
1653
1654
1655
1656
1657
1658
1659
1660
1661
1662
1663
1664
1665
1666
1667
1668
1669
1670
1671
1672
1673
1674
1675
1676
1677
1678
1679
1680
1681
1682
1683
1684
1685
1686
1687
1688
1689
1690
1691
1692
1693
1694
1695
1696
1697
1698
1699
1700
1701
1702
1703
1704
1705
1706
1707
1708
1709
1710
1711
1712
1713
1714
1715
1716
1717
1718
1719
1720
1721
1722
1723
1724
1725
1726
1727
1728
1729
1730
1731
1732
1733
1734
1735
1736
1737
1738
1739
1740
1741
1742
1743
1744
1745
1746
1747
1748
1749
1750
1751
1752
1753
1754
1755
1756
1757
1758
1759
1760
1761
1762
1763
1764
1765
1766
1767
1768
1769
1770
1771
1772
1773
1774
1775
1776
1777
1778
1779
1780
1781
1782
1783
1784
1785
1786
1787
1788
1789
1790
1791
1792
1793
1794
1795
1796
1797
1798
1799
1800
1801
1802
1803
1804
1805
1806
1807
1808
1809
1810
1811
1812
1813
1814
1815
1816
1817
1818
1819
1820
1821
1822
1823
1824
1825
1826
1827
1828
1829
1830
1831
1832
1833
1834
1835
1836
1837
1838
1839
1840
1841
1842
1843
1844
1845
1846
1847
1848
1849
1850
1851
1852
1853
1854
1855
1856
1857
1858
1859
1860
1861
1862
1863
1864
1865
1866
1867
1868
1869
1870
1871
1872
1873
1874
1875
1876
1877
1878
1879
1880
1881
1882
1883
1884
1885
1886
1887
1888
1889
1890
1891
1892
1893
1894
1895
1896
1897
1898
1899
1900
1901
1902
1903
1904
1905
1906
1907
1908
1909
1910
1911
1912
1913
1914
1915
1916
1917
1918
1919
1920
1921
1922
1923
1924
1925
1926
1927
1928
1929
1930
1931
1932
1933
1934
1935
1936
1937
1938
1939
1940
1941
1942
1943
1944
1945
1946
1947
1948
1949
1950
1951
1952
1953
1954
1955
1956
1957
1958
1959
1960
1961
1962
1963
1964
1965
1966
1967
1968
1969
1970
1971
1972
1973
1974
1975
1976
1977
1978
1979
1980
1981
1982
1983
1984
1985
1986
1987
1988
1989
1990
1991
1992
1993
1994
1995
1996
1997
1998
1999
2000
2001
2002
2003
2004
2005
2006
2007
2008
2009
2010
2011
2012
2013
2014
2015
2016
2017
2018
2019
2020
2021
2022
2023
2024
2025
2026
2027
2028
2029
2030
2031
2032
2033
2034
2035
2036
2037
2038
2039
2040
2041
2042
2043
2044
2045
2046
2047
2048
2049
2050
2051
2052
2053
2054
2055
2056
2057
2058
2059
2060
2061
2062
2063
2064
2065
2066
2067
2068
2069
2070
2071
2072
2073
2074
2075
2076
2077
2078
2079
2080
2081
2082
2083
2084
2085
2086
2087
2088
2089
2090
2091
2092
2093
2094
2095
2096
2097
2098
2099
2100
2101
2102
2103
2104
2105
2106
2107
2108
2109
2110
2111
2112
2113
2114
2115
2116
2117
2118
2119
2120
2121
2122
2123
2124
2125
2126
2127
2128
2129
2130
2131
2132
2133
2134
2135
2136
2137
2138
2139
2140
2141
2142
2143
2144
2145
2146
2147
2148
2149
2150
2151
2152
2153
2154
2155
2156
2157
2158
2159
2160
2161
2162
2163
2164
2165
2166
2167
2168
2169
2170
2171
2172
2173
2174
2175
2176
2177
2178
2179
2180
2181
2182
2183
2184
2185
2186
2187
2188
2189
2190
2191
2192
2193
2194
2195
2196
2197
2198
2199
2200
2201
2202
2203
2204
2205
2206
2207
2208
2209
2210
2211
2212
2213
2214
2215
2216
2217
2218
2219
2220
2221
2222
2223
2224
2225
2226
2227
2228
2229
2230
2231
2232
2233
2234
2235
2236
2237
2238
2239
2240
2241
2242
2243
2244
2245
2246
2247
2248
2249
2250
2251
2252
2253
2254
2255
2256
2257
2258
2259
2260
2261
2262
2263
2264
2265
2266
2267
2268
2269
2270
2271
2272
2273
2274
2275
2276
2277
2278
2279
2280
2281
2282
2283
2284
2285
2286
2287
2288
2289
2290
2291
2292
2293
2294
2295
2296
2297
2298
2299
2300
2301
2302
2303
2304
2305
2306
2307
2308
2309
2310
2311
2312
2313
2314
2315
2316
2317
2318
2319
2320
2321
2322
2323
2324
2325

SCALARS element_group int
LOOKUP_TABLE default
0
0
0
0
0
0
0
0
0
0
0
0
0
0
0
0
0
0
0
0
0
0
0
0
0
0
0
0
0
0
0
0
0
0
0
0
0
0
0
0
0
0
0
0
0
0
0
0
0
0
0
0
0
0
0
0
0
0
0
0
0
0
0
0
0
0
0
0
0
0
0
0
0
0
0
0
0
0
0
0
0
0
0
0
0
0
0
0
0
0
0
0
0
0
0
0
0
0
0
0
0
0
0
0
0
0
0
0
0
0
0
0
0
0
0
0
0
0
0
0
0
0
0
0
0
0
0
0
0
0
0
0
0
0
0
0
0
0
0
0
0
0
0
0
0
0
0
0
0
0
0
0
0
0
0
0
0
0
0
0
0
0
0
0
0
0
0
0
0
0
0
0
0
0
0
0
0
0
0
0
0
0
0
0
0
0
0
0
0
0
0
0
0
0
0
0
0
0
0
0
0
0
0
0
0
0
0
0
0
0
0
0
0
0
0
0
0
0
0
0
0
0
0
0
0
0
0
0
0
0
0
0
0
0
0
0
0
0
0
0
0
0
0
0
0
0
0
0
0
0
0
0
0
0
0
0
0
0
0
0
0
0
0
0
0
0
0
0
0
0
0
0
0
0
0
0
0
0
0
0
0
0
0
0
0
0
0
0
0
0
0
0
0
0
0
0
0
0
0
0
0
0
0
0
0
0
0
0
0
0
0
0
0
0
0
0
0
0
0
0
0
0
0
0
0
0
0
0
0
0
0
0
0
0
0
0
0
0
0
0
0
0
0
0
0
0
0
0
0
0
0
0
0
0
0
0
0
0
0
0
0
0
0
0
0
0
0
0
0
0
0
0
0
0
0
0
0
0
0
0
0
0
0
0
0
0
0
0
0
0
0
0
0
0
0
0
0
0
0
0
0
0
0
0
0
0
0
0
0
0
0
0
0
0
0
0
0
0
0
0
0
0
0
0
0
0
0
0
0
0
0
0
0
0
0
0
0
0
0
0
0
0
0
0
0
0
0
0
0
0
0
0
0
0
0
0
0
0
0
0
0
0
0
0
0
0
0
0
0
0
0
0
0
0
0
0
0
0
0
0
0
0
0
0
0
0
0
0
0
0
0
0
0
0
0
0
0
0
0
0
0
0
0
0
0
0
0
0
0
0
0
0
0
0
0
0
0
0
0
0
0
0
0
0
0
0
0
0
0
0
0
0
0
0
0
0
0
0
0
0
0
0
0
0
0
0
0
0
0
0
0
0
0
0
0
0
0
0
0
0
0
0
0
0
0
0
0
0
0
0
0
0
0
0
0
0
0
0
0
0
0
0
0
0
0
0
0
0
0
0
0
0
0
0
0
0
0
0
0
0
0
0
0
0
0
0
0
0
0
0
0
0
0
0
0
0
0
0
0
0
0
0
0
0
0
0
0
0
0
0
0
0
0
0
0
0
0
0
0
0
0
0
0
0
0
0
0
0
0
0
0
0
0
0
0
0
0
0
0
0
0
0
0
0
0
0
0
0
0
0
0
0
0
0
0
0
0
0
0
0
0
0
0
0
0
0
0
0
0
0
0
0
0
0
0
0
0
0
0
0
0
0
0
0
0
0
0
0
0
0
0
0
0
0
0
0
0
0
0
0
0
0
0
0
0
0
0
0
0
0
0
0
0
0
0
0
0
0
0
0
0
0
0
0
0
0
0
0
0
0
0
0
0
0
0
0
0
0
0
0
0
0
0
0
0
0
0
0
0
0
0
0
0
0
0
0
0
0
0
0
0
0
0
0
0
0
0
0
0
0
0
0
0
0
0
0
0
0
0
0
0
0
0
0
0
0
0
0
0
0
0
0
0
0
0
0
0
0
0
0
0
0
0
0
0
0
0
0
0
0
0
0
0
0
0
0
0
0
0
0
0
0
0
0
0
0
0
0
0
0
0
0
0
0
0
0
0
0
0
0
0
0
0
0
0
0
0
0
0
0
0
0
0
0
0
0
0
0
0
0
0
0
0
0
0
0
0
0
0
0
0
0
0
0
0
0
0
0
0
0
0
0
0
0
0
0
0
0
0
0
0
0
0
0
0
0
0
0
0
0
0
0
0
0
0
0
0
0
0
0
0
0
0
0
0
0
0
0
0
0
0
0
0
0
0
0
0
0
0
0
0
0
0
0
0
0
0
0
0
0
0
0
0
0
0
0
0
0
0
0
0
0
0
0
0
0
0
0
0
0
0
0
0
0
0
0
0
0
0
0
0
0
0
0
0
0
0
0
0
0
0
0
0
0
0
0
0
0
0
0
0
0
0
0
0
0
0
0
0
0
0
0
0
0
0
0
0
0
0
0
0
0
0
0
0
0
0
0
0
0
0
0
0
0
0
0
0
0
0
0
0
0
0
0
0
0
0
0
0
0
0
0
0
0
0
0
0
0
0
0
0
0
0
0
0
0
0
0
0
0
0
0
0
0
0
0
0
0
0
0
0
0
0
0
0
0
0
0
0
0
0
0
0
0
0
0
0
0
0
0
0
0
0
0
0
0
0
0
0
0
0
0
0
0
0
0
0
0
0
0
0
0
0
0
0
0
0
0
0
0
0
0
0
0
0
0
0
0
0
0
0
0
0
0
0
0
0
0
0
0
0
0
0
0
0
0
0
0
0
0
0
0
0
0
0
0
0
0
0
0
0
0
0
0
0
0
0
0
0
0
0
0
0
0
0
0
0
0
0
0
0
0
0
0
0
0
0
0
0
0
0
0
0
0
0
0
0
0
0
0
0
0
0
0
0
0
0
0
0
0
0
0
0
0
0
0
0
0
0
0
0
0
0
0
0
0
0
0
0
0
0
0
0
0
0
0
0
0
0
0
0
0
0
0
0
0
0
0
0
0
0
0
0
0
0
0
0
0
0
0
0
0
0
0
0
0
0
0
0
0
0
0
0
0
0
0
0
0
0
0
0
0
0
0
0
0
0
0
0
0
0
0
0
0
0
0
0
0
0
0
0
0
0
0
0
0
0
0
0
0
0
0
0
0
0
0
0
0
0
0
0
0
0
0
0
0
0
0
0
0
0
0
0
0
0
0
0
0
0
0
0
0
0
0
0
0
0
0
0
0
0
0
0
0
0
0
0
0
0
0
0
0
0
0
0
0
0
0
0
0
0
0
0
0
0
0
0
0
0
0
0
0
0
0
0
0
0
0
0
0
0
0
0
0
0
0
0
0
0
0
0
0
0
0
0
0
0
0
0
0
0
0
0
0
0
0
0
0
0
0
0
0
0
0
0
0
0
0
0
0
0
0
0
0
0
0
0
0
0
0
0
0
0
0
0
0
0
0
0
0
0
0
0
0
0
0
0
0
0
0
0
0
0
0
0
0
0
0
0
0
0
0
0
0
0
0
0
0
0
0
0
0
0
0
0
0
0
0
0
0
0
0
0
0
0
0
0
0
0
0
0
0
0
0
0
0
0
0
0
0
0
0
0
0
0
0
0
0
0
0
0
0
0
0
0
0
0
0
0
0
0
0
0
0
0
0
0
0
0
0
0
0
0
0
0
0
0
0
0
0
0
0
0
0
0
0
0
0
0
0
0
0
0
0
0
0
0
0
0
0
0
0
0
0
0
0
0
0
0
0
0
0
0
0
0
0
0
0
0
0
0
0
0
0
0
0
0
0
0
0
0
0
0
0
0
0
0
0
0
0
0
0
0
0
0
0
0
0
0
0
0
0
0
0
0
0
0
0
0
0
0
0
0
0
0
0
0
0
0
0
0
0
0
0
0
0
0
0
0
0
0
0
0
0
0
0
0
0
0
0
0
0
0
0
0
0
0
0
0
0
0
0
0
0
0
0
0
0
0
0
0
0
0
0
0
0
0
0
0
0
0
0
0
0
0
0
0
0
0
0
0
0
0
0
0
0
0
0
0
0
0
0
0
0
0
0
0
0
0
0
0
0
0
0
0
0
0
0
0
0
0
0
0
0
0
0
0
0
0
0
0
0
0
0
0
0
0
0
0
0
0
0
0
0
0
0
0
0
0
0
0
0
0
0
0
0
0
0
0
0
0
0
0
0
0
0
0
0
0
0
0
0
0
0
0
0
0
0
0
0
0
0
0
0
0
0
0
0
0
0
0
0
0
0
0
0
0
0
0
0
0
0
0
0
0
0
0
0
0
0
0
0
0
0
0
0
0
0
0
0
0
0
0
0
0
0
0
0
0
0
0
0
0
0
0
0
0
0
0
0
0
0
0
0
0
0
0
0
0
0
0
0
0
0
0
0
0
0
0
0
0
0
0
0
0
0
0
0
0
0
0
0
0
0
0
0
0
0
0
0
0
0
0
0
0
0
0
0
0


VECTORS element_materi_velocity float
4.093152997549e-01 -3.070292635501e-02 0.0 
4.085892140890e-01 -4.562735032920e-02 0.0 
6.310769050277e-02 2.381039548365e-04 0.0 
1.054341776278e-02 1.327901287243e-03 0.0 
1.310030123551e-01 9.377009263806e-02 0.0 
2.994363972503e-01 -2.342206083086e-01 0.0 
9.826820152554e-02 8.036890798061e-02 0.0 
4.032750220721e-01 -6.232628745334e-02 0.0 
1.090529114382e-01 8.498683099675e-02 0.0 
1.516727048935e-02 1.753039457370e-03 0.0 
7.649198932916e-03 -2.859719549430e-02 0.0 
3.977388075741e-01 -6.359916200224e-02 0.0 
1.752435729933e-03 -3.411266568103e-03 0.0 
1.857939278475e-01 8.922778872358e-02 0.0 
1.379616727247e-03 -2.277226324107e-03 0.0 
9.414899677752e-03 6.787651285310e-04 0.0 
1.729190209997e-01 1.157164739560e-01 0.0 
2.932034107829e-01 -2.379103102015e-01 0.0 
2.483761893457e-02 -1.216162572921e-01 0.0 
1.797904817551e-02 -1.163285850895e-01 0.0 
1.785032536587e-02 1.933905339061e-03 0.0 
4.180240106600e-01 6.233982054700e-03 0.0 
4.181356101521e-01 8.221315975296e-03 0.0 
3.746500635401e-02 -1.058433336278e-02 0.0 
1.990815930908e-01 6.346167217447e-02 0.0 
7.892212603433e-03 -2.524548633066e-02 0.0 
2.941553341464e-01 1.494792859728e-01 0.0 
6.236299245075e-02 -4.549462526341e-03 0.0 
2.093698239686e-01 6.160414181736e-02 0.0 
2.890365144410e-02 -7.757362032619e-03 0.0 
2.388031833426e-01 -2.289109330705e-01 0.0 
1.589044446202e-01 -1.912881937168e-01 0.0 
7.418676423580e-02 6.559982981123e-04 0.0 
1.667355685258e-03 -1.180929616219e-02 0.0 
1.114526351483e-02 -4.940596592272e-03 0.0 
2.674296833673e-03 -1.675046519594e-03 0.0 
2.422280478170e-03 -1.663875182829e-03 0.0 
4.047892263930e-02 -5.956913139234e-03 0.0 
8.786547176513e-02 9.521228874817e-02 0.0 
8.006190086522e-02 9.278272111275e-02 0.0 
4.123636652155e-01 4.989174154857e-02 0.0 
1.126276903470e-02 -3.897442585440e-03 0.0 
3.802832040027e-01 -1.030852082035e-01 0.0 
2.982361856614e-01 1.292528039049e-01 0.0 
4.931821914432e-03 1.873571853113e-03 0.0 
3.776196858010e-01 -1.178988766536e-01 0.0 
2.407854992395e-01 -2.341900162061e-01 0.0 
5.870974809413e-03 1.217984649877e-03 0.0 
2.360859739625e-01 -2.376844086842e-01 0.0 
1.884444738038e-01 1.004637136201e-01 0.0 
4.171387859958e-01 2.962914412720e-02 0.0 
2.083854175125e-02 -1.093793621693e-01 0.0 
2.405311218505e-01 -2.161401537840e-01 0.0 
4.174027736967e-01 4.834196867799e-02 0.0 
5.308458427925e-02 1.300314405497e-03 0.0 
2.778399075430e-02 -9.067152084779e-02 0.0 
1.548653550830e-02 -1.040305238914e-01 0.0 
3.375561867110e-03 -1.204612449076e-02 0.0 
6.364199845316e-02 -1.388734777042e-01 0.0 
1.108066202555e-02 6.740978747043e-04 0.0 
2.545760711078e-01 -2.486199948519e-01 0.0 
8.638471648589e-02 -1.046698052020e-02 0.0 
3.946157390793e-01 -7.038110256883e-02 0.0 
2.379689556330e-01 -2.199896839868e-01 0.0 
2.898990432322e-03 -3.582140139989e-03 0.0 
4.194030483693e-01 2.783169449787e-02 0.0 
2.591953179858e-01 -2.489701196790e-01 0.0 
7.548965237129e-02 -6.141685954993e-06 0.0 
1.779506078910e-01 -1.928147446954e-01 0.0 
5.999989131531e-02 -1.882401038765e-03 0.0 
1.111640977300e-02 -2.238974814831e-02 0.0 
1.053042223310e-02 2.054050633257e-04 0.0 
8.385645347542e-02 -6.922036228976e-03 0.0 
5.495762191136e-03 -1.430523837622e-01 0.0 
2.313893902432e-02 -8.506017186264e-02 0.0 
3.557590487850e-02 2.921275788844e-03 0.0 
6.446202935969e-02 1.721134199291e-03 0.0 
3.502088123692e-01 -1.640999336856e-01 0.0 
6.896498333872e-02 -1.379805891417e-01 0.0 
3.536004614280e-01 -1.502921722596e-01 0.0 
1.866020250287e-01 -1.976864487046e-01 0.0 
1.597549994135e-01 1.050500092230e-01 0.0 
4.161176465898e-01 -1.326092381615e-02 0.0 
4.137412383505e-01 -1.474101616562e-02 0.0 
1.183105599532e-01 7.924532263292e-02 0.0 
1.082861363175e-01 7.515581753224e-02 0.0 
6.143597596990e-03 -1.932521795646e-02 0.0 
9.465287937222e-04 -1.384428095639e-02 0.0 
1.841007867735e-01 4.718388111933e-03 0.0 
1.404772079924e-01 9.682372256850e-02 0.0 
1.648673856362e-01 -1.936701742303e-01 0.0 
2.661817366573e-01 1.027922915650e-01 0.0 
1.526294870774e-02 1.199598568293e-02 0.0 
1.902304474103e-02 1.515808217605e-02 0.0 
2.074938697409e-02 4.712077882763e-04 0.0 
2.862928182947e-02 -3.468473948555e-03 0.0 
1.799317198073e-01 1.123135627565e-01 0.0 
1.312240804975e-02 -4.844197016160e-03 0.0 
1.378215796256e-02 3.620528369710e-02 0.0 
4.019647420269e-01 -6.485251340464e-02 0.0 
1.318328405244e-01 1.033347279127e-01 0.0 
1.756933094233e-03 -2.385621951703e-03 0.0 
1.634087475048e-01 -3.665320248015e-02 0.0 
8.370625239405e-02 -1.087742743895e-02 0.0 
3.786524912750e-01 -1.238312329854e-01 0.0 
2.338190013010e-01 -2.331994964152e-01 0.0 
2.308484353904e-03 -6.413276897812e-03 0.0 
1.491975727438e-02 8.424871961622e-03 0.0 
2.432836809276e-01 -2.429811500995e-01 0.0 
3.402760447302e-03 -2.684347910142e-03 0.0 
2.035003111650e-01 5.723446395226e-03 0.0 
1.003845982836e-02 -1.471622234344e-01 0.0 
3.441890239933e-01 -1.064253671318e-01 0.0 
3.458484822420e-01 9.939893233955e-02 0.0 
3.182942498352e-02 -7.087668921809e-02 0.0 
4.028788130751e-01 -7.301349183954e-02 0.0 
3.892575064329e-01 -8.262933212397e-02 0.0 
7.386337333924e-03 -3.236030972810e-03 0.0 
1.807119919770e-02 4.174640709695e-02 0.0 
3.915804132534e-01 -9.143375261182e-02 0.0 
1.526353391700e-01 -1.782814708952e-01 0.0 
2.822615268466e-01 1.079739150184e-01 0.0 
1.152186908532e-02 6.364715959000e-03 0.0 
3.852669326606e-01 -1.031225712554e-01 0.0 
3.189868070231e-01 -2.064595596883e-01 0.0 
3.903794240537e-01 8.319559100999e-02 0.0 
2.907521791619e-02 -7.304300540643e-02 0.0 
4.015022637665e-01 8.551714708437e-02 0.0 
2.818405108078e-02 1.212742184385e-03 0.0 
3.239866527775e-01 -2.088088435078e-01 0.0 
1.104937401072e-02 -2.528066562269e-02 0.0 
8.354542646204e-03 1.061609558248e-03 0.0 
3.851933647727e-01 -1.275306100270e-02 0.0 
4.035389690686e-01 6.892337461116e-02 0.0 
1.235245217856e-02 -5.134339018352e-03 0.0 
1.187042005284e-03 -3.309471984947e-03 0.0 
8.647039711306e-03 -1.951455748464e-02 0.0 
3.748107992026e-01 -8.113796090760e-03 0.0 
1.863952681018e-02 -5.008422721441e-03 0.0 
3.967332614545e-01 9.499297719901e-03 0.0 
2.139824170196e-02 1.435044419598e-03 0.0 
7.150496524199e-02 -2.046771253363e-03 0.0 
1.959864017723e-01 8.872649932775e-02 0.0 
3.975243346368e-02 2.849135192385e-02 0.0 
3.957289394455e-01 -4.580240583956e-03 0.0 
4.116010073350e-01 6.840856804014e-02 0.0 
3.624337728484e-01 -1.506643955098e-02 0.0 
3.696569552335e-01 -1.158834031905e-01 0.0 
9.735114995140e-02 8.860694261715e-02 0.0 
3.367364172668e-01 -1.143131935417e-01 0.0 
1.493641852514e-01 -1.850743490286e-01 0.0 
2.229078540255e-02 5.525806145924e-02 0.0 
2.435948685699e-02 -1.280964234762e-01 0.0 
3.713736373422e-01 9.410873586847e-02 0.0 
1.438450405180e-02 -3.974279511835e-03 0.0 
3.857786713460e-01 -1.123232864728e-01 0.0 
4.383115499011e-03 -1.661343079112e-02 0.0 
3.895142714323e-01 -9.325126648018e-02 0.0 
1.689364248023e-01 -3.541856689066e-02 0.0 
5.387847699611e-02 6.829444037788e-02 0.0 
3.407732558026e-01 -1.242173060518e-01 0.0 
3.590597856530e-03 -1.009177779727e-02 0.0 
1.609144865234e-01 -1.828630727498e-01 0.0 
3.251754049584e-03 -6.527837983332e-03 0.0 
3.310406347713e-01 5.709423044442e-02 0.0 
3.976752435541e-03 -3.414331708488e-03 0.0 
2.317087393026e-02 6.388278581209e-02 0.0 
3.710850124266e-01 -1.254813188509e-01 0.0 
3.645778866645e-01 1.077853145889e-01 0.0 
4.997251144448e-03 -2.933189892582e-02 0.0 
3.908986111559e-01 -7.833724782826e-02 0.0 
3.321344595883e-01 -1.312500639692e-01 0.0 
3.338844979720e-02 2.232136454069e-02 0.0 
6.294120308258e-02 7.718873538763e-02 0.0 
3.597733790112e-01 -1.167101860640e-01 0.0 
3.862999042648e-01 9.887423947050e-02 0.0 
1.584232337915e-01 -6.340262727562e-03 0.0 
2.929040275862e-02 -6.403749007302e-02 0.0 
4.848175056776e-02 -3.552507476483e-03 0.0 
7.138809512733e-02 -2.769821326736e-03 0.0 
4.061197121139e-01 -6.678428148220e-02 0.0 
2.464403661737e-02 -6.010666991604e-02 0.0 
6.538279165620e-02 -1.808480226737e-02 0.0 
4.055646795747e-01 1.988835972625e-02 0.0 
4.029356307627e-01 -7.506531102104e-02 0.0 
3.347608927481e-01 8.109991131352e-02 0.0 
3.559938447932e-01 -1.070750716954e-01 0.0 
1.572207154680e-02 1.003972074909e-03 0.0 
1.891026986234e-01 1.381216715147e-02 0.0 
2.337517914487e-03 -8.092775598443e-03 0.0 
3.643679321225e-01 -1.412875679450e-01 0.0 
3.250481197133e-01 -1.474355472041e-01 0.0 
1.795770833092e-01 7.080028764134e-03 0.0 
2.747951946353e-01 -2.426407590837e-01 0.0 
4.055751883755e-01 3.577259632099e-02 0.0 
7.337014477635e-02 -2.724869977685e-02 0.0 
9.367819160336e-02 -1.560231280856e-01 0.0 
7.259556102048e-02 1.990183869873e-03 0.0 
2.015030419727e-01 4.021679558695e-02 0.0 
1.233711123093e-01 -1.092872100838e-01 0.0 
7.815632085905e-02 -2.765435913683e-02 0.0 
2.541701653429e-01 8.780692157369e-02 0.0 
2.032966184647e-01 7.440331243857e-02 0.0 
2.660066995770e-02 -7.533793963454e-03 0.0 
1.171854748068e-01 -1.285617008626e-01 0.0 
3.478548646430e-01 -3.014195733992e-02 0.0 
3.245895522436e-01 3.638007980634e-02 0.0 
1.841383007522e-01 3.417147720057e-02 0.0 
3.132492715057e-01 5.310171618733e-02 0.0 
3.428441961916e-01 7.148454602008e-02 0.0 
2.006707277506e-01 -5.848204014517e-02 0.0 
1.776479782332e-01 -5.932260026337e-03 0.0 
2.828086370578e-01 -2.448171639017e-01 0.0 
4.100518333474e-01 -5.036815734094e-02 0.0 
4.060979983016e-01 -5.048108522995e-02 0.0 
3.610462737638e-01 -2.559164986052e-02 0.0 
1.699881425829e-01 1.116178072845e-02 0.0 
3.090397908037e-01 -2.231041720117e-01 0.0 
7.567485534314e-02 -3.182859370141e-02 0.0 
7.021240952323e-02 7.728025067804e-02 0.0 
3.344705097853e-01 -1.411734833947e-01 0.0 
7.673539869481e-02 -3.621426438368e-02 0.0 
1.260259957114e-01 -1.729093405215e-01 0.0 
1.747180928440e-01 2.724826051783e-02 0.0 
1.236027469653e-01 -1.739808342827e-01 0.0 
8.387931255227e-02 -1.500594959186e-01 0.0 
3.676355010085e-01 -1.268301969510e-01 0.0 
1.258877281202e-01 -1.432657133623e-01 0.0 
1.574022401730e-01 2.229043908669e-02 0.0 
1.345825130544e-01 -1.524675667329e-01 0.0 
3.647352223872e-01 -1.615053220373e-01 0.0 
2.127370460384e-01 -2.066629805173e-01 0.0 
1.437222984989e-01 -1.699537673312e-01 0.0 
7.465985456537e-02 -2.284975233057e-02 0.0 
3.370064546052e-01 4.782871734417e-02 0.0 
3.482875844062e-03 -3.694627401814e-03 0.0 
2.763722552035e-01 -2.472872403691e-01 0.0 
3.666479629750e-01 -1.543536007610e-01 0.0 
3.200381365943e-01 -1.274664901378e-01 0.0 
4.120891687138e-01 1.529468040304e-02 0.0 
8.079571628246e-02 -3.253299805833e-02 0.0 
4.278889566469e-03 -3.131846330297e-03 0.0 
2.020288351358e-01 1.905609124021e-02 0.0 
3.244657785781e-01 -1.766309731130e-01 0.0 
7.022233609719e-02 -2.261524525089e-02 0.0 
5.455806251392e-03 -2.216522932810e-02 0.0 
3.501559828632e-01 -1.100565862740e-02 0.0 
2.000642872084e-01 3.074433383710e-02 0.0 
7.129705066186e-02 -7.342475794636e-03 0.0 
3.111881195459e-01 -1.329757037154e-01 0.0 
3.702886672002e-01 -1.522705837044e-01 0.0 
2.849050208009e-01 3.873940302765e-02 0.0 
1.728329540422e-02 3.027090123902e-04 0.0 
3.455754362943e-01 -3.922072874778e-02 0.0 
2.519524037217e-01 -9.946994833000e-02 0.0 
4.968454594882e-02 5.769718846860e-02 0.0 
1.948598981951e-01 -2.055544347059e-01 0.0 
3.065850626148e-01 6.095107564660e-02 0.0 
3.346187170683e-01 -1.703758263917e-01 0.0 
3.106190500883e-01 -2.124000703637e-01 0.0 
2.445801031247e-01 -2.276928925210e-01 0.0 
1.501781839023e-01 2.332729304704e-02 0.0 
3.075815026339e-01 3.434505764463e-02 0.0 
3.767126953965e-01 -1.050326021076e-01 0.0 
1.333262818728e-01 1.838425248243e-02 0.0 
1.943245945620e-01 1.142266546376e-02 0.0 
3.362386703504e-01 1.335312704350e-03 0.0 
5.059211700810e-03 -2.776758722806e-03 0.0 
2.365302183968e-01 -9.224438589699e-02 0.0 
3.192538073183e-01 1.120013449021e-02 0.0 
3.384666123372e-01 -9.685528461972e-02 0.0 
2.290047715716e-01 -8.330705799238e-02 0.0 
3.087827374493e-01 -1.999746878321e-01 0.0 
2.457509867307e-01 1.132910524962e-01 0.0 
2.896693851889e-01 -1.319630317466e-01 0.0 
2.414657888363e-01 -1.830445536432e-01 0.0 
1.957524730668e-01 2.157224585987e-02 0.0 
2.716944439016e-01 -2.511680247811e-01 0.0 
2.889412505680e-01 5.564437900945e-02 0.0 
3.154669768316e-01 -1.724076860094e-01 0.0 
3.580761301425e-01 -1.647202000157e-01 0.0 
2.981888623754e-01 -2.035336458972e-01 0.0 
2.732993735911e-01 2.993037971991e-02 0.0 
1.622792121868e-01 -1.897006066150e-01 0.0 
4.062319603158e-01 -2.967240075568e-02 0.0 
2.125068000838e-01 -7.604771750134e-02 0.0 
3.022070417299e-01 4.180118092537e-02 0.0 
2.332033851571e-01 9.344771725918e-02 0.0 
2.931086390369e-01 -2.344889271372e-01 0.0 
2.520339845616e-01 -1.841805337954e-01 0.0 
2.297429872762e-01 -1.883446642576e-01 0.0 
4.109441905832e-01 -4.222593952359e-02 0.0 
2.073455535210e-01 2.829404129286e-02 0.0 
4.030154063110e-01 -4.360049068130e-02 0.0 
2.925132670423e-01 -1.418432072840e-01 0.0 
3.138620524680e-01 -1.430213413563e-01 0.0 
2.994854544928e-01 -2.277636632936e-01 0.0 
3.253987235163e-01 -9.514790691402e-02 0.0 
3.497044697311e-01 -1.798287803342e-01 0.0 
2.772323325629e-02 3.237250527192e-04 0.0 
3.263339313035e-02 1.985878839217e-04 0.0 
3.317378512314e-01 -4.159780227628e-02 0.0 
3.223004607905e-01 -1.860547376140e-01 0.0 
3.449664529218e-01 -1.833435806417e-01 0.0 
3.058542772729e-01 4.733627882369e-03 0.0 
3.294859731135e-01 -1.892634889418e-01 0.0 
2.401099885760e-01 -1.904143813797e-01 0.0 
3.501644227243e-01 -1.162924121943e-03 0.0 
2.681992326754e-02 2.102705332179e-03 0.0 
3.259087719622e-01 -1.572975520104e-01 0.0 
2.076121142107e-01 -5.694906024953e-02 0.0 
3.505557613209e-01 -1.820095894859e-01 0.0 
9.302204016952e-03 -1.924626984322e-03 0.0 
3.394884244061e-01 -1.821706873364e-01 0.0 
3.367073759067e-01 -1.640305974175e-02 0.0 
2.952875985052e-01 -2.239283643175e-01 0.0 
1.410755931487e-01 -6.110274250906e-02 0.0 
2.987388880969e-01 -1.278122327252e-01 0.0 
2.205663566035e-01 -1.788473686061e-01 0.0 
3.289936951645e-01 2.783294167393e-02 0.0 
2.863108743002e-02 -3.459761805641e-04 0.0 
3.054429106413e-01 -1.575980594903e-01 0.0 
2.043091844743e-01 -7.702997741430e-02 0.0 
3.424825330405e-01 -1.922303225366e-01 0.0 
1.403627236870e-01 5.487723558329e-02 0.0 
8.208807876611e-02 -3.717287411578e-02 0.0 
3.817149675376e-01 -1.306893539424e-01 0.0 
1.437901868517e-01 6.327442205909e-02 0.0 
2.866109544899e-02 -9.675586122938e-04 0.0 
6.451743011514e-02 -2.628881244133e-02 0.0 
3.077153101635e-02 -2.411588041058e-04 0.0 
1.762404569313e-01 6.510517807178e-02 0.0 
2.073263441358e-01 2.795461910592e-03 0.0 
3.773624006305e-01 -1.362263619255e-01 0.0 
3.574686478381e-01 3.944010389394e-02 0.0 
3.161503627155e-01 1.900438623430e-02 0.0 
2.997451478579e-01 1.874334919771e-02 0.0 
3.523266303835e-01 -5.464648070473e-02 0.0 
2.627512208125e-02 -1.285688213958e-03 0.0 
2.260647390795e-01 6.955243037886e-02 0.0 
3.162931224369e-01 7.455895519712e-02 0.0 
3.042567028725e-01 -1.477380459035e-01 0.0 
1.348344913231e-01 -1.572242227407e-01 0.0 
3.657440883630e-01 6.417119870972e-02 0.0 
3.773997374247e-01 -1.335171422235e-01 0.0 
4.747422271805e-02 7.226531044636e-02 0.0 
2.102607289764e-01 -1.759159066861e-01 0.0 
3.159089124858e-01 -1.627433597493e-01 0.0 
1.711016370248e-01 1.979679759103e-02 0.0 
3.694615887850e-01 -1.447777625353e-01 0.0 
3.450526773390e-01 2.843843980183e-02 0.0 
1.878660037632e-01 -6.934851786172e-02 0.0 
1.105902291450e-01 -7.220453649377e-02 0.0 
1.973508756309e-02 -1.584640877612e-03 0.0 
3.964207490395e-01 3.847271722266e-02 0.0 
2.716142712383e-01 -1.923488003127e-01 0.0 
1.328588776226e-01 -1.191638138696e-01 0.0 
3.985396044579e-01 -8.978093138956e-02 0.0 
3.881260747147e-01 -1.178010360720e-01 0.0 
1.598218016285e-01 5.684746345496e-03 0.0 
3.231726449732e-01 -1.262896185476e-02 0.0 
4.108174287403e-01 -3.247308778799e-04 0.0 
3.721172264331e-01 3.983290978424e-02 0.0 
1.495825683948e-02 -2.072988797901e-03 0.0 
4.047190810532e-02 -6.690972195727e-03 0.0 
1.554547568408e-01 7.376996622098e-03 0.0 
1.821133390247e-01 2.575297362488e-02 0.0 
1.215676594722e-01 -8.094380282884e-02 0.0 
3.902944476329e-01 -6.242979901285e-02 0.0 
3.118169363147e-01 -1.910691953449e-01 0.0 
3.050409153575e-01 -1.767855639050e-01 0.0 
3.357937567711e-01 -2.501414814473e-02 0.0 
1.558029927011e-01 -6.922549204693e-02 0.0 
6.839133645891e-02 -7.072639379603e-02 0.0 
1.402268766583e-01 1.135187941756e-02 0.0 
2.610171055623e-01 -1.925228881271e-01 0.0 
3.561497504450e-01 -7.114611098602e-02 0.0 
3.347001530851e-01 1.022240395737e-02 0.0 
3.747371773129e-01 -7.719888729471e-02 0.0 
3.188536516712e-02 -3.582661708442e-05 0.0 
3.125598597186e-02 1.954150212350e-04 0.0 
7.508191442540e-02 1.624533886865e-03 0.0 
1.070292198795e-01 -6.609662835160e-02 0.0 
1.263608751576e-01 1.894838846226e-02 0.0 
3.774175231230e-01 -1.398669571977e-01 0.0 
2.953085692411e-01 -1.614108090138e-01 0.0 
3.004112414618e-01 -2.164567210398e-01 0.0 
4.009897886651e-01 -2.376282213444e-02 0.0 
2.222781921530e-01 1.163806437881e-01 0.0 
1.653198981424e-01 6.550693496461e-02 0.0 
2.598668085211e-02 -5.857043329954e-03 0.0 
1.678969651972e-01 1.753442357875e-03 0.0 
2.783034385299e-01 4.473324165247e-02 0.0 
2.868504324071e-01 1.211765894385e-02 0.0 
2.945013473312e-01 -2.116599756922e-01 0.0 
1.911168571172e-01 -2.076386107388e-01 0.0 
3.239651365828e-01 -1.113907055908e-01 0.0 
3.346345867459e-01 -6.425317463744e-02 0.0 
3.183498544883e-01 -1.017955014753e-01 0.0 
3.237774432028e-01 -1.940635584681e-01 0.0 
4.039874179229e-02 5.157140823416e-02 0.0 
1.434866921828e-01 -1.659829336930e-01 0.0 
3.519823292594e-01 -1.644720974245e-01 0.0 
5.078161616708e-03 -9.668594452490e-04 0.0 
1.757561577546e-01 -5.292548768601e-02 0.0 
3.082510637046e-01 8.260342330672e-02 0.0 
1.719784921510e-02 -1.303456223105e-01 0.0 
3.559612493130e-01 -4.542589358020e-02 0.0 
3.159056521246e-01 -1.175112442696e-01 0.0 
2.786003225833e-01 2.418398244864e-02 0.0 
2.916828836820e-02 -5.624300529328e-04 0.0 
3.538265680252e-01 5.028324330388e-02 0.0 
3.077574522450e-01 -2.312739268938e-03 0.0 
7.488087288880e-02 -7.330360020429e-02 0.0 
1.466166551822e-01 1.672864784165e-02 0.0 
9.617485616005e-02 -5.817262314529e-02 0.0 
2.987469476835e-02 -7.794772287021e-04 0.0 
1.607363495428e-02 -1.043309262892e-04 0.0 
1.328891020194e-02 2.583936062011e-04 0.0 
1.682166291751e-02 1.300835747169e-04 0.0 
2.660263951368e-01 1.740034806220e-02 0.0 
1.529208058533e-01 1.573029323894e-02 0.0 
1.431016904948e-01 2.746707806420e-03 0.0 
3.799748526501e-01 -6.644964584100e-02 0.0 
3.945608585899e-01 -5.002061530001e-02 0.0 
6.276623988341e-02 -7.315232142879e-02 0.0 
1.455695138583e-01 1.025184272698e-02 0.0 
2.759012639406e-02 -1.141252121564e-03 0.0 
1.227532587750e-01 1.348329084854e-02 0.0 
2.034208099942e-01 -6.767073278603e-02 0.0 
1.288195758137e-01 1.286454016811e-02 0.0 
2.238143437162e-01 -3.379008477848e-02 0.0 
3.432111519784e-01 -7.200155213900e-02 0.0 
4.032886175922e-01 -9.810589858528e-03 0.0 
3.399116126609e-01 -1.924324527705e-01 0.0 
3.905283696530e-02 1.546804269027e-03 0.0 
3.796985396493e-01 -8.542727002170e-02 0.0 
8.950474052977e-02 -6.324645679972e-03 0.0 
6.920596462865e-02 -7.568315780063e-02 0.0 
1.994018314934e-01 -1.787339347747e-01 0.0 
1.918440016437e-02 -4.382590310215e-03 0.0 
3.626606800840e-01 -1.455336292225e-01 0.0 
1.469789606207e-02 -1.368278778165e-04 0.0 
5.592234125424e-02 8.746284212300e-04 0.0 
3.090618855144e-01 -1.652048420595e-02 0.0 
1.953675602013e-01 -2.126866698604e-01 0.0 
1.523509700025e-02 -3.532817501852e-04 0.0 
2.520224386183e-02 -4.587932155696e-03 0.0 
2.093686457581e-01 -1.823994615840e-01 0.0 
1.788237382987e-01 -6.132488768942e-02 0.0 
1.887740176074e-02 -1.735018049353e-03 0.0 
1.945831833275e-01 -2.141964804739e-01 0.0 
3.631043826217e-01 -7.911852315755e-02 0.0 
2.937047214771e-01 -6.763304388747e-03 0.0 
3.217707014135e-01 -2.823420600098e-02 0.0 
3.226954995558e-01 -4.733323914115e-03 0.0 
3.540276799721e-01 -1.741277851838e-01 0.0 
1.402149768089e-02 -5.413631337769e-04 0.0 
2.827039149214e-01 -1.450816156920e-01 0.0 
2.838780026025e-01 -2.368288785287e-01 0.0 
6.741238561112e-03 -3.580733743275e-03 0.0 
1.901752237365e-01 -2.102296772767e-01 0.0 
3.863547362076e-01 2.627850294364e-02 0.0 
2.291563384618e-01 -2.223206522875e-01 0.0 
3.607275363633e-01 7.610698832566e-02 0.0 
1.266797007896e-02 -2.082520595088e-03 0.0 
1.270649336808e-02 -6.857992261706e-04 0.0 
2.955804306971e-01 2.553688247563e-02 0.0 
2.256162086862e-01 -2.271686800742e-01 0.0 
2.781123851795e-01 -2.418865807089e-01 0.0 
2.229358617439e-01 -2.215689190820e-01 0.0 
2.858415834458e-02 -1.505994082918e-02 0.0 
2.397559891212e-01 1.262432361380e-01 0.0 
2.906350874834e-01 7.510801071931e-02 0.0 
1.025688361687e-02 -7.683719125052e-04 0.0 
2.154953333004e-01 1.258010616356e-01 0.0 
2.527092706572e-02 3.527002824601e-04 0.0 
2.054236626780e-01 -3.135540204882e-02 0.0 
1.582049395094e-01 7.423493715664e-02 0.0 
3.966975896820e-01 -9.583291150276e-02 0.0 
1.861809289202e-01 -6.062936252669e-02 0.0 
3.150497434426e-01 -2.152122223595e-01 0.0 
9.399197814516e-03 -9.187490842455e-04 0.0 
1.581173021284e-02 6.850430920482e-05 0.0 
1.443432305435e-02 6.533144651815e-05 0.0 
8.957660535822e-02 -5.626467083858e-02 0.0 
5.677353029742e-02 -7.567603994901e-02 0.0 
3.378052824676e-01 -8.012154541773e-02 0.0 
7.970893820228e-02 -4.913141128400e-02 0.0 
8.239906713517e-03 -1.001869978412e-03 0.0 
3.424558505732e-01 -1.727067892874e-01 0.0 
2.318406611056e-01 -1.737151064915e-01 0.0 
2.111967770587e-01 -1.616165053693e-01 0.0 
1.333740605331e-01 6.134164321293e-02 0.0 
7.891738797737e-03 -1.828523652465e-03 0.0 
2.199459525848e-01 -2.257053245890e-01 0.0 
5.949619953001e-03 -1.011401775598e-03 0.0 
2.006439033903e-01 -1.657857669401e-01 0.0 
1.393319136795e-02 -2.091483027476e-04 0.0 
1.466531505993e-01 1.177044471000e-03 0.0 
2.039768875721e-01 -2.204891375835e-01 0.0 
3.448699688896e-01 -8.871017370607e-02 0.0 
1.098540763865e-01 1.421836117978e-02 0.0 
1.463959776810e-02 -4.261954785169e-04 0.0 
2.701117877998e-01 1.212755783534e-02 0.0 
1.830423262137e-01 -3.060767729086e-02 0.0 
3.352529208244e-01 -2.007973995740e-01 0.0 
4.197863018702e-02 -9.426266544142e-03 0.0 
1.806139253465e-01 -1.517307533340e-01 0.0 
2.008380779035e-01 -1.587460956528e-01 0.0 
2.307010254330e-01 -2.359098177047e-01 0.0 
1.356862871318e-02 -5.998889877872e-04 0.0 
3.153030310316e-01 -2.040443669510e-01 0.0 
5.792816237257e-02 -2.176181745239e-02 0.0 
1.613064759617e-01 8.518282525018e-02 0.0 
1.520187061107e-01 -1.511151237281e-01 0.0 
2.213082301726e-01 -1.715876385766e-01 0.0 
2.898561172193e-01 5.912189372601e-03 0.0 
9.478203946220e-03 -8.162689651071e-04 0.0 
5.050293031138e-02 -6.872105459639e-02 0.0 
7.675836006751e-02 -4.026454747122e-02 0.0 
3.143870665157e-01 -5.006602814107e-02 0.0 
1.322114425772e-01 -6.653229544645e-02 0.0 
2.322291852160e-01 -1.658624629943e-01 0.0 
9.201975150002e-02 -5.250225145962e-02 0.0 
3.286902352172e-01 -4.940734872818e-02 0.0 
2.306909622640e-01 -2.316764295879e-02 0.0 
1.582538268083e-01 -4.639043844469e-02 0.0 
3.206841857564e-01 -6.419006708351e-02 0.0 
8.982659226583e-02 -8.423860608861e-02 0.0 
3.537532533909e-01 -1.548613648570e-01 0.0 
6.320235947917e-02 -7.808516411029e-02 0.0 
2.019614378820e-01 -3.407841567083e-02 0.0 
2.120671589281e-01 -8.571692811188e-02 0.0 
1.102778156971e-02 -1.978261220847e-03 0.0 
1.053704972688e-01 9.640491900664e-03 0.0 
1.519849937041e-01 -1.564672805076e-01 0.0 
6.718350125961e-03 -1.071118819489e-03 0.0 
2.951021682386e-02 -5.949033895018e-03 0.0 
3.047318068714e-01 -9.844952033174e-02 0.0 
2.227637966701e-01 -2.299615499505e-01 0.0 
6.805289390780e-03 -1.739884255107e-03 0.0 
1.216391613937e-01 8.342382985162e-03 0.0 
1.901400611367e-01 -1.686578326419e-01 0.0 
4.224042400244e-03 -9.577675390733e-04 0.0 
7.573654742229e-02 -4.399692827584e-02 0.0 
3.915877096133e-01 -3.096714072712e-02 0.0 
2.810333341689e-01 6.175684597257e-02 0.0 
2.277902213627e-01 -9.367199610352e-02 0.0 
1.032250804358e-01 -6.985885939142e-02 0.0 
1.336111916036e-01 -6.041269815848e-02 0.0 
2.100337822482e-01 3.828493911643e-02 0.0 
3.752908698442e-01 3.749046643702e-03 0.0 
1.524829025907e-01 -3.881639437465e-02 0.0 
3.633740587703e-02 4.311395206982e-02 0.0 
8.271713812211e-02 -8.125121179861e-02 0.0 
1.620389007351e-01 -5.411082832528e-02 0.0 
1.707351685201e-01 -1.477518466823e-01 0.0 
3.842889977351e-02 -3.355307170232e-02 0.0 
2.172384111038e-01 -2.290742356270e-01 0.0 
3.630313498754e-01 -1.359230947762e-01 0.0 
1.904900498152e-01 -1.621932197053e-01 0.0 
6.130001225244e-02 -6.354517843953e-02 0.0 
3.042464672105e-01 -8.375152106900e-02 0.0 
8.144910991820e-02 -4.545981614475e-02 0.0 
1.356903632485e-01 6.914459014831e-02 0.0 
1.802774115769e-01 -1.645205597538e-01 0.0 
3.667696397494e-03 -8.707561133917e-04 0.0 
2.945320093291e-01 -1.307541138511e-02 0.0 
4.913402885684e-02 -5.501797608882e-02 0.0 
3.085735610903e-01 -2.351463994918e-02 0.0 
5.544164078385e-02 -6.141989196587e-02 0.0 
2.084631642315e-01 -2.230761138051e-01 0.0 
2.631721601731e-01 5.564506175258e-02 0.0 
1.952629672169e-02 -6.524779799607e-02 0.0 
1.121005966353e-01 -1.726670797571e-01 0.0 
4.432231925062e-02 -5.769694440116e-02 0.0 
6.673900244081e-02 -3.420095234882e-02 0.0 
2.995073518944e-02 9.036219143118e-03 0.0 
1.539633115359e-01 -7.612775214934e-02 0.0 
1.399744857091e-01 -6.763241824210e-02 0.0 
3.162065709604e-01 9.929515712889e-02 0.0 
2.247032443339e-01 1.470484437789e-01 0.0 
4.431612280099e-02 1.582480671097e-03 0.0 
3.199942242224e-01 -3.573908872467e-02 0.0 
1.051451387965e-01 -1.720437945351e-01 0.0 
1.352134935554e-01 -1.654969824365e-01 0.0 
2.092832007361e-01 -2.215632100346e-01 0.0 
1.256668567463e-01 -1.380124850147e-01 0.0 
1.589840876286e-01 -8.090859521209e-03 0.0 
3.478255166444e-02 1.005322563627e-02 0.0 
3.210711793360e-02 -1.806924851343e-02 0.0 
9.297772367200e-02 -1.114847264963e-01 0.0 
3.462308472519e-02 -3.257612003772e-02 0.0 
4.772029461718e-02 -1.734361176644e-02 0.0 
2.854127648672e-01 -2.261755720516e-01 0.0 
1.393398732894e-02 -6.468004123129e-02 0.0 
1.279185782044e-02 -8.018707958197e-02 0.0 
5.983240302267e-03 -1.750318112993e-03 0.0 
3.137592993286e-03 -8.691281417153e-04 0.0 
1.226916303154e-02 -5.526457829333e-02 0.0 
4.384918771389e-02 -5.331717119523e-02 0.0 
9.306582036849e-02 -6.184299894255e-02 0.0 
4.454808428990e-02 -1.392465317794e-02 0.0 
1.265262263750e-01 -1.572567324195e-01 0.0 
5.062983888927e-02 -2.097246546886e-02 0.0 
7.740663522032e-02 -1.505568917717e-01 0.0 
5.025875985480e-02 -6.404812827940e-02 0.0 
6.021915016999e-02 -5.887521708932e-02 0.0 
6.300940721351e-02 -1.515934485982e-01 0.0 
1.063916707863e-02 -5.949801231886e-02 0.0 
9.943672159553e-02 9.811426252076e-03 0.0 
8.663593286347e-02 -1.665197553419e-01 0.0 
2.485733068669e-01 1.484772371930e-01 0.0 
2.665672431506e-01 1.609331590725e-01 0.0 
1.336532689224e-01 -5.393167469037e-02 0.0 
6.431819603196e-03 -8.034229091302e-02 0.0 
1.707486434290e-01 -1.540770401655e-01 0.0 
3.570460679916e-01 -1.729959242620e-01 0.0 
1.678005546007e-02 -9.191859938671e-03 0.0 
5.350633263687e-02 -2.671099591223e-03 0.0 
6.618757235474e-02 2.045074328745e-02 0.0 
3.909370246728e-01 -1.091208778404e-01 0.0 
1.531774900688e-01 -1.819519651637e-01 0.0 
3.739976338262e-01 2.774621625000e-02 0.0 
1.595218954290e-01 1.248523442500e-01 0.0 
1.527075194915e-01 1.295512971262e-01 0.0 
9.426874379607e-02 -1.667387274036e-01 0.0 
8.069420887757e-02 -1.562421948827e-01 0.0 
3.424354898903e-02 -1.382622550825e-01 0.0 
1.013122566426e-01 -1.312281701889e-01 0.0 
5.507789074637e-02 -1.523200361405e-01 0.0 
9.157461323453e-03 -5.035589551289e-02 0.0 
2.452519950377e-01 -2.462206131069e-01 0.0 
9.313825331676e-02 -1.169108223289e-01 0.0 
2.940902793530e-02 2.923428937999e-02 0.0 
2.165574242847e-01 1.553199838575e-01 0.0 
1.382350030603e-01 -4.694437806498e-03 0.0 
6.634263019107e-02 -3.778501944644e-02 0.0 
2.856236635124e-02 3.876132840030e-02 0.0 
3.078694342499e-03 -7.465806191838e-02 0.0 
4.349272863859e-02 -1.425459009302e-01 0.0 
6.398339386930e-03 1.452738018405e-04 0.0 
1.440935200338e-02 4.073683069072e-04 0.0 
1.492080260194e-01 8.202525708801e-02 0.0 
1.805239525585e-01 1.341957637345e-01 0.0 
1.526105826394e-02 -7.475465250303e-02 0.0 
9.586375737111e-03 4.102482709030e-04 0.0 
1.012549819183e-01 -1.260674426241e-01 0.0 
2.403034209322e-01 1.598620269864e-01 0.0 
2.020161435616e-01 1.422487961004e-01 0.0 
3.804697091309e-01 6.649429779201e-02 0.0 
1.198201686378e-02 9.430667625908e-05 0.0 
1.155804941268e-02 3.616702717169e-04 0.0 
7.324406671722e-02 -1.564907389280e-01 0.0 
7.584268359524e-02 -1.616152018607e-01 0.0 
1.350830644286e-01 -1.689698934942e-01 0.0 
6.608440716722e-02 -6.102315091294e-02 0.0 
1.381373601472e-03 -4.786553559729e-03 0.0 
2.513317803928e-01 -2.501103196249e-01 0.0 
8.017075142957e-03 9.175713587570e-03 0.0 
2.338164662357e-01 -2.394100218231e-01 0.0 
1.197488952197e-01 -5.276710127938e-02 0.0 
2.296330800608e-01 -2.371371151354e-01 0.0 
2.411697288752e-01 -2.444240758100e-01 0.0 
1.190555226447e-01 -5.849229595659e-02 0.0 
6.070034186177e-03 -6.641180998259e-03 0.0 
2.537043518694e-02 3.182882377870e-02 0.0 
3.629222833511e-01 6.639137688938e-03 0.0 
4.521719946823e-02 -1.479807061911e-01 0.0 
2.642478370648e-02 -2.758718904937e-02 0.0 
2.548920033779e-03 1.176402445256e-04 0.0 
5.017231100411e-03 1.624837270385e-04 0.0 
1.941945379227e-01 1.481310083699e-01 0.0 
1.191020717239e-01 -4.664720170476e-02 0.0 
5.159710025748e-03 2.163964698764e-04 0.0 
1.791077521795e-01 -3.252275335302e-02 0.0 
2.584328433614e-02 -1.401828959951e-01 0.0 
3.706845278671e-02 -1.493932179359e-01 0.0 
2.694371730417e-02 -1.458790535877e-01 0.0 
2.839331015071e-03 -6.402026957901e-02 0.0 
9.570853388737e-04 -1.191439711217e-03 0.0 
1.053114536794e-03 9.381791214723e-04 0.0 
3.824862110993e-02 -1.545861861897e-01 0.0 
4.688134355474e-03 -4.966935771480e-02 0.0 
3.189743282668e-04 -4.818699175837e-04 0.0 
1.374521190749e-03 -1.349260852342e-03 0.0 
5.282767342332e-03 -1.747119514746e-03 0.0 
4.762825766766e-03 1.651128429170e-02 0.0 
1.681616561399e-03 6.341202475201e-03 0.0 
6.381110106069e-04 -7.095697936332e-04 0.0 
7.364101801425e-04 -6.396910587085e-04 0.0 
3.942523933027e-03 9.089763609512e-03 0.0 
2.917062484993e-02 -1.559572627081e-01 0.0 
1.149439187443e-01 1.136046170880e-01 0.0 
1.733168233373e-01 1.388684172471e-01 0.0 
5.704307681069e-02 -1.574654398325e-01 0.0 
1.334586395914e-03 -6.552284996202e-04 0.0 
4.763477334615e-03 -1.775556907455e-03 0.0 
2.326357301264e-03 -9.096273639868e-04 0.0 
4.836255385577e-02 -1.583190781368e-01 0.0 
6.757321015584e-02 -1.618633152229e-01 0.0 
2.845647308981e-03 -8.811899712775e-04 0.0 
2.437120033351e-03 -8.659295434680e-04 0.0 
2.501918395138e-03 2.113169375642e-02 0.0 
6.064697593022e-02 9.411553576442e-02 0.0 
2.260907371628e-03 1.252702156852e-02 0.0 
3.626149006352e-03 4.383357187292e-02 0.0 
2.622913827025e-02 8.746327837140e-02 0.0 
1.231951278392e-01 -1.783679858513e-01 0.0 
1.581741090836e-01 -1.940500433606e-01 0.0 
1.742904221296e-01 -2.026532829537e-01 0.0 
1.896533066849e-01 -2.115776767696e-01 0.0 
2.160628901590e-03 -4.530252480566e-02 0.0 
2.527505453884e-03 -5.417007075867e-02 0.0 
1.639112998714e-01 -1.962148692719e-01 0.0 
1.526546840940e-03 -2.459392099368e-02 0.0 
1.796615682298e-01 -2.050835784617e-01 0.0 
1.021896474099e-02 2.658027249506e-04 0.0 
4.426665711363e-03 1.938518010266e-04 0.0 
8.011012616447e-03 2.620945050667e-04 0.0 
4.943971906782e-03 -1.227670844686e-01 0.0 
3.353125260697e-03 -8.620338174439e-02 0.0 
4.214682381578e-03 1.129729906989e-04 0.0 
7.208268915362e-04 -9.710133985008e-03 0.0 
2.468311066632e-03 4.484348251295e-05 0.0 
4.551262398080e-04 -6.193594035218e-03 0.0 
2.344540307101e-04 -3.347542123365e-03 0.0 
5.366836468955e-03 -5.909004258229e-02 0.0 
8.641348092941e-03 3.068247917254e-04 0.0 
6.682993448210e-03 1.578164732118e-04 0.0 
1.175953131344e-03 -7.947960114747e-03 0.0 
6.895802705181e-04 -4.711686180831e-03 0.0 
1.370305443252e-02 -1.991699237864e-02 0.0 
2.214597985755e-01 -2.315289734034e-01 0.0 
4.473812300939e-02 -6.688075459598e-02 0.0 
9.092563668820e-02 -1.615856298771e-01 0.0 
1.541919031958e-02 -9.058599456250e-03 0.0 
5.609324024509e-02 -6.607027095052e-02 0.0 
1.316883346050e-02 -1.270491366869e-02 0.0 
1.095809842378e-01 -1.401263238077e-01 0.0 
1.007576492067e-01 -1.573310491893e-01 0.0 
8.075769004831e-03 -8.409487197703e-03 0.0 
3.898867397475e-02 -5.611015620346e-02 0.0 
1.174035106177e-02 -6.958573322187e-02 0.0 
1.153011097331e-02 -1.255260987147e-02 0.0 
1.077224634295e-02 3.166780955321e-03 0.0 
5.918025357571e-03 -6.933393130616e-02 0.0 
6.172217057728e-02 -2.959025037668e-02 0.0 
5.089208648348e-02 -3.707193413338e-02 0.0 
1.617910293810e-02 -2.020766752718e-02 0.0 
1.102818104991e-02 -1.712183315011e-02 0.0 
2.843130093512e-01 -1.547892038350e-01 0.0 
3.866777574234e-01 1.318932003562e-02 0.0 
3.183167267372e-01 -8.614546297922e-02 0.0 
2.969085966194e-02 -2.829390146799e-02 0.0 
7.701452019521e-03 -1.029420653567e-02 0.0 
6.836174270209e-03 -1.453268609419e-02 0.0 
1.431234589813e-01 -1.568364471568e-01 0.0 
2.067790406304e-02 5.282086284777e-03 0.0 
2.666807291816e-02 1.069650241673e-02 0.0 
6.955475235842e-02 6.806055168864e-02 0.0 
3.130566765626e-02 -2.575454444509e-02 0.0 
2.232506517385e-02 -2.387828086278e-02 0.0 
1.385244403062e-02 3.870393839359e-03 0.0 
1.765434994668e-02 6.263095839035e-03 0.0 
5.815143622064e-02 -4.271979231066e-02 0.0 
5.153865429340e-03 -6.637313414726e-03 0.0 
5.970354422023e-02 1.893613032228e-02 0.0 
4.869073162112e-03 -1.435439273570e-02 0.0 
1.046971868270e-02 -6.697590418339e-03 0.0 
2.436879471491e-02 5.858039819043e-03 0.0 
5.231520119929e-02 2.784432852344e-02 0.0 
6.203583506028e-02 -3.318431219296e-02 0.0 
5.317064317512e-02 -1.131229480732e-01 0.0 
1.606929719996e-01 -1.708331056903e-01 0.0 
1.441340202709e-01 -1.770971726574e-01 0.0 
2.177059559875e-01 -2.278536123368e-01 0.0 
2.152171960033e-02 7.244982860500e-03 0.0 
5.807531336440e-03 -8.361881409022e-03 0.0 
2.042617964518e-01 -2.192404492792e-01 0.0 
1.355686589608e-01 5.349297085645e-03 0.0 
7.864741454688e-02 6.339876777147e-02 0.0 
1.629961952058e-02 -1.529407107317e-02 0.0 
8.320644093843e-03 -1.237984910054e-02 0.0 
1.518063601138e-01 -1.394366884525e-01 0.0 
6.736533657125e-03 -1.233196508720e-02 0.0 
7.863062753794e-02 7.130586588127e-02 0.0 
1.518937604103e-01 -4.688025392123e-02 0.0 
7.445653745956e-03 -4.841646478690e-03 0.0 
2.913948313031e-02 -1.089272947494e-01 0.0 
1.377464518886e-02 -7.020617691104e-03 0.0 
3.875376359964e-02 1.987877971979e-02 0.0 
3.896223879245e-02 -1.039512873470e-01 0.0 
1.430183743625e-01 -1.518167763383e-01 0.0 
1.684910643213e-02 -3.937569821687e-02 0.0 
7.738672238187e-02 4.516763370963e-02 0.0 
7.040831571413e-02 -9.098199633462e-02 0.0 
2.754984854156e-02 1.352159340769e-02 0.0 
4.642375425246e-02 3.026367965952e-02 0.0 
3.836886420192e-02 -4.765555426995e-02 0.0 
8.853658721423e-03 -1.698106367779e-02 0.0 
1.059480703542e-02 -1.472133957985e-02 0.0 
3.317503406031e-02 1.826998140579e-02 0.0 
7.562402293791e-02 -1.304168943996e-01 0.0 
3.384226315541e-02 -5.047768583123e-02 0.0 
1.116521670697e-01 -2.078297967275e-02 0.0 
4.350504735534e-02 1.788627359074e-02 0.0 
3.916030727695e-02 -6.062104008129e-02 0.0 
4.654659518296e-02 -3.581173789430e-02 0.0 
1.957862550674e-02 -9.521067504161e-03 0.0 
4.563850012531e-02 2.570249059036e-02 0.0 
2.702395417142e-01 -2.424548584476e-01 0.0 
1.173655423989e-01 -1.635362438958e-01 0.0 
2.840230823477e-01 -2.136138934390e-01 0.0 
9.053520931075e-03 -1.033794474081e-02 0.0 
6.047777261531e-02 3.475256708456e-02 0.0 
1.062506114698e-02 -3.192383448131e-02 0.0 
8.790400118827e-02 5.993618054497e-02 0.0 
4.457557402403e-02 -1.705600214090e-02 0.0 
2.905589193657e-02 -4.145786818174e-02 0.0 
1.245220500333e-02 -1.485036214564e-02 0.0 
4.521067657737e-02 -1.112892973751e-01 0.0 
1.157855015861e-02 -6.786828415221e-03 0.0 
3.369558491931e-02 -4.640285710365e-02 0.0 
3.121749495710e-02 -1.029150362010e-01 0.0 
2.910015050216e-02 -4.922008995402e-02 0.0 
5.677929174529e-02 -8.067131057424e-02 0.0 
8.535340581397e-02 -1.133481126680e-01 0.0 
1.395919579189e-02 -3.190307117504e-02 0.0 
1.292612059361e-01 -1.790843696490e-01 0.0 
1.467837459492e-01 -1.871089786251e-01 0.0 
1.952899142255e-02 -2.341657638676e-02 0.0 
6.000800313716e-02 -1.204945377736e-01 0.0 
2.820054365737e-02 -2.506126424336e-02 0.0 
3.660179870916e-02 -2.996413333432e-02 0.0 
8.363187533663e-02 -8.653062082063e-02 0.0 
1.799300696052e-01 -1.703768858295e-01 0.0 
5.079044648040e-02 1.373625758426e-02 0.0 
3.078783537062e-01 -2.275400935892e-01 0.0 
4.458296410435e-02 -7.170948067348e-02 0.0 
4.129516601556e-02 -1.362412993845e-02 0.0 
5.935483311998e-02 -1.259866432906e-01 0.0 
7.837058252083e-02 5.061087782133e-02 0.0 
8.802569418573e-02 6.680999975974e-02 0.0 
1.179768524954e-01 -1.530155755316e-01 0.0 
2.692445731963e-02 -1.238437043151e-02 0.0 
7.934690758779e-02 3.189526335722e-02 0.0 
6.821919887374e-02 -1.229230724485e-01 0.0 
5.308425291464e-02 1.129183922621e-02 0.0 
4.753141284704e-02 1.020052736948e-02 0.0 
6.905125711009e-02 -1.178443064432e-01 0.0 
3.978527169480e-01 -8.734650149158e-02 0.0 
9.311671918586e-02 -1.274269447549e-01 0.0 
1.536162752341e-02 -1.754153086444e-02 0.0 
2.098165291835e-02 -3.624441173366e-02 0.0 
1.165360112202e-01 8.856689132998e-03 0.0 
4.515097410221e-02 1.257198815052e-02 0.0 
2.118386871946e-02 -2.096077713352e-02 0.0 
2.379327124752e-02 -2.143704809547e-02 0.0 
1.094963964115e-01 -1.446393496401e-01 0.0 
1.757031955347e-02 -1.783293599475e-02 0.0 
7.175648281654e-02 2.981642268588e-02 0.0 
1.723356764119e-02 -3.574440741054e-02 0.0 
6.804096296187e-02 3.726582239530e-02 0.0 
6.226161732245e-02 2.328014115704e-02 0.0 
2.579548545919e-01 -1.088829158064e-01 0.0 
4.187635866761e-02 1.446939077894e-02 0.0 
2.878182871636e-02 -5.338361124220e-02 0.0 
2.489285282889e-02 -4.059688647758e-02 0.0 
5.003105698642e-02 -8.365141256379e-02 0.0 
1.078314970885e-01 -1.077902959408e-01 0.0 
6.644724833854e-02 3.244898129089e-02 0.0 
9.884544204272e-02 -7.322842103326e-02 0.0 
7.743420802882e-02 -1.154370208359e-01 0.0 
1.262145052282e-01 -1.645546403167e-01 0.0 
7.405496752436e-02 3.480320219985e-02 0.0 
8.527459695882e-02 -1.187035075292e-01 0.0 
1.481637559011e-02 -7.107363129218e-03 0.0 
5.106880901083e-02 2.356121677358e-02 0.0 
1.829853916552e-02 -1.559899785013e-02 0.0 
2.205410465770e-02 -4.410481779659e-03 0.0 
3.369557467182e-02 -5.915209099724e-02 0.0 
7.701369947410e-02 -1.207213067996e-01 0.0 
1.177955604753e-01 -1.568405723710e-01 0.0 
2.931620959438e-02 -2.258157055005e-02 0.0 
5.415417386450e-02 3.736007216643e-02 0.0 
1.259379181273e-01 -1.675308014395e-01 0.0 
6.341029413480e-02 -8.826482613011e-02 0.0 
3.533355740322e-02 -1.154199024697e-01 0.0 
8.591648848462e-02 4.812370475034e-02 0.0 
5.035353285420e-02 -7.854505129911e-02 0.0 
4.028691935805e-02 -3.091609583940e-02 0.0 
4.312869983521e-02 -8.116102323829e-02 0.0 
3.140619785541e-02 1.191178516508e-02 0.0 
7.774695155352e-02 -1.046565763838e-01 0.0 
3.857677707932e-02 -2.468063103041e-02 0.0 
1.518882327661e-01 -1.661198099007e-01 0.0 
3.793203940726e-02 -2.734894954477e-02 0.0 
2.049477203878e-02 -4.356309558469e-02 0.0 
2.459645607443e-02 -1.906537598652e-02 0.0 
2.428743442985e-01 -1.671463741631e-01 0.0 
4.366000701493e-02 -1.167456539493e-01 0.0 
7.023368066747e-02 5.357769181619e-02 0.0 
1.129562693927e-01 -5.194682187314e-02 0.0 
3.610066142454e-01 -6.179335186499e-02 0.0 
6.153149115336e-02 3.970712165838e-02 0.0 
1.608948175565e-01 -1.662002471157e-01 0.0 
1.109145468203e-01 4.990616546520e-02 0.0 
5.096680359549e-02 -1.240714101643e-01 0.0 
2.125645104233e-02 -1.174651441101e-02 0.0 
1.126620995663e-01 -4.617267264436e-02 0.0 
1.467270891146e-01 -3.950456450494e-02 0.0 
3.846659625005e-02 6.410288073291e-03 0.0 
8.649515456390e-02 -5.974627140878e-02 0.0 
8.406978609026e-02 -1.335306247327e-01 0.0 
6.017505669931e-02 -3.977564474815e-02 0.0 
2.115965946088e-02 -9.625033001319e-03 0.0 
1.612179059351e-01 -1.497698810289e-01 0.0 
2.217864172647e-02 -1.861413373367e-02 0.0 
5.763766580350e-02 2.565261423028e-02 0.0 
1.984920817134e-01 -1.844492429004e-01 0.0 
4.818378676850e-02 -3.306278989177e-02 0.0 
1.267865088333e-01 7.429808155919e-02 0.0 
4.044923525337e-02 -9.804243178316e-02 0.0 
7.769213047637e-02 -9.927554839186e-02 0.0 
3.106396316596e-01 -5.684643418316e-02 0.0 
3.225746069649e-02 -2.322401314466e-02 0.0 
3.883753335429e-01 -4.329684396707e-02 0.0 
3.157753976575e-01 -7.108111156391e-02 0.0 
9.027976853039e-02 3.948727876792e-02 0.0 
7.007854163889e-02 4.766362108082e-02 0.0 
1.252797929464e-01 6.647528294363e-02 0.0 
2.479043315838e-02 -4.428427952228e-02 0.0 
3.596679029589e-02 -1.600682900412e-02 0.0 
7.395561032400e-02 -4.749094255001e-02 0.0 
9.737973340738e-02 6.366407530133e-02 0.0 
1.196563844159e-01 1.898243114501e-03 0.0 
1.395017908895e-01 -3.238304299107e-02 0.0 
4.148341551720e-02 -2.823544735806e-02 0.0 
5.575051949523e-02 2.147055361041e-02 0.0 
9.168234979559e-02 -9.511180837812e-02 0.0 
8.482239437848e-02 -9.717120953496e-02 0.0 
1.010009848023e-01 -1.406672056664e-01 0.0 
6.149663847850e-02 -3.658983203952e-02 0.0 
7.020614250637e-02 -8.579760494003e-02 0.0 
9.281282448522e-02 4.518135024169e-02 0.0 
1.134911937071e-01 5.667904966084e-02 0.0 
2.248537553670e-01 -1.037910780700e-01 0.0 
1.008258781187e-01 -1.151880893520e-01 0.0 
2.953485096113e-01 -1.709339871683e-01 0.0 
8.513805509206e-02 -1.025409888434e-01 0.0 
9.230881055547e-02 -1.005707926346e-01 0.0 
9.289003517186e-02 -1.323529544000e-01 0.0 
4.715157180559e-02 -2.047968970306e-02 0.0 
1.125854467436e-01 -9.376138994676e-02 0.0 
4.755297401483e-02 1.596227334190e-02 0.0 
1.187777928629e-01 -9.083764877116e-02 0.0 
6.513722783145e-02 -4.116127213493e-02 0.0 
8.933836313247e-02 -6.517781748724e-02 0.0 
2.977104163727e-01 -8.940798386025e-02 0.0 
8.462740439010e-02 -1.289138031380e-01 0.0 
2.896959256361e-02 -1.256435498462e-02 0.0 
2.386398784397e-02 -9.558573372756e-03 0.0 
2.462915452744e-01 -2.762208933854e-02 0.0 
9.925628289728e-02 -9.854145456341e-02 0.0 
7.725261167535e-02 -5.252747457082e-02 0.0 
8.417844825044e-02 4.257611434497e-02 0.0 
7.661023827306e-02 -8.353977323090e-02 0.0 
3.572304705771e-01 -8.856259259887e-02 0.0 
7.034850038934e-02 -1.016159968695e-01 0.0 
1.704131604595e-01 -1.658214235413e-01 0.0 
9.831526258204e-02 -9.294766129592e-02 0.0 
7.011456571979e-02 -1.070410464604e-01 0.0 
5.432036505720e-02 -1.075474900986e-01 0.0 
8.277368504512e-02 -6.288023227902e-02 0.0 
5.241999856812e-02 -3.421245686419e-02 0.0 
1.595048062209e-01 -1.153938343866e-02 0.0 
1.405089267807e-01 -1.852699997582e-01 0.0 
1.650532675450e-01 -1.126480211490e-01 0.0 
1.376945577011e-01 -1.035871931865e-01 0.0 
1.060293045193e-01 -9.631365880269e-02 0.0 
1.039698333935e-01 5.404311149277e-02 0.0 
1.011788408343e-01 -7.898553195173e-02 0.0 
6.329565773286e-02 -9.351779867304e-02 0.0 
1.047329517429e-01 -9.053160709556e-02 0.0 
3.786670301814e-02 1.634567447004e-02 0.0 
5.634217947556e-02 -9.103064438185e-02 0.0 
1.088051507482e-01 -1.564944990107e-01 0.0 
1.006444621346e-01 -1.449778477956e-01 0.0 
1.612297649374e-01 -1.556579383290e-01 0.0 
1.084213791471e-01 -1.134337919197e-01 0.0 
1.441894973598e-01 -9.977279260195e-02 0.0 
1.108193941785e-01 -8.777713622511e-02 0.0 
1.695339728296e-01 -1.801100991239e-01 0.0 
9.197589420433e-02 -1.412804181240e-01 0.0 
1.693936062906e-01 7.586268076728e-02 0.0 
6.263258331057e-02 -1.043213397745e-01 0.0 
5.243915833690e-02 -2.451630308291e-02 0.0 
1.766863211079e-01 -1.689758862688e-02 0.0 
2.606726766350e-01 4.063769648015e-02 0.0 
8.247780056988e-02 1.859870184504e-02 0.0 
1.396557884135e-01 -7.550244064340e-03 0.0 
2.488388662945e-01 -1.108795631139e-01 0.0 
2.128398655081e-01 -2.238721760114e-02 0.0 
1.788708879280e-01 -1.805638521017e-01 0.0 
8.851774048958e-02 -7.884178223147e-02 0.0 
3.028276631888e-01 -1.132146333428e-01 0.0 
2.280209744426e-01 -1.947665556392e-01 0.0 
1.868562124028e-01 -1.937403608148e-01 0.0 
7.717429655502e-02 -8.872137768880e-02 0.0 
1.290601290931e-01 -1.003277415178e-01 0.0 
1.354532386924e-01 -9.688249076267e-02 0.0 
5.591303972283e-02 -9.640913589250e-02 0.0 
1.061614935415e-01 -7.581273540368e-02 0.0 
1.556937760438e-01 -1.097980392792e-01 0.0 
1.717303333303e-01 -1.074032665624e-01 0.0 
1.004726257157e-01 -1.096439347987e-01 0.0 
1.322111514694e-01 -4.714599276628e-02 0.0 
9.886013055188e-02 4.157615582336e-02 0.0 
1.942108106610e-01 -1.194518197311e-01 0.0 
3.870173737402e-02 -1.636139783708e-02 0.0 
1.888829693850e-01 -1.802294668434e-01 0.0 
3.190910659327e-02 -1.006024205413e-02 0.0 
1.244943082389e-01 -8.741574919101e-02 0.0 
1.157097656980e-01 -4.286548154905e-03 0.0 
2.780511104698e-01 -4.557253002921e-03 0.0 
1.701119254852e-01 -1.710115755485e-01 0.0 
2.558758934556e-01 2.765998701272e-02 0.0 
1.032354305439e-01 1.430029957480e-02 0.0 
1.296727271388e-01 -8.341880577967e-02 0.0 
3.520053967470e-01 -1.259645940106e-01 0.0 
2.487510830400e-01 1.637872457503e-02 0.0 
3.388932013506e-01 -5.625086232419e-02 0.0 
1.784947808292e-01 -1.850295171025e-01 0.0 
4.331803051082e-02 3.018552254821e-03 0.0 
1.692439872655e-01 -1.839492388270e-01 0.0 
6.764729534445e-02 -1.378949522108e-02 0.0 
3.269428474846e-02 7.425075720560e-03 0.0 
1.109500334642e-01 -4.021516224221e-02 0.0 
9.637608084269e-02 5.729484361840e-02 0.0 
8.742266829066e-02 2.388405213134e-02 0.0 
1.623393344663e-01 -1.051068739759e-01 0.0 
2.033683488727e-01 -8.631593345680e-02 0.0 
6.470343356214e-02 9.510388952803e-03 0.0 
4.197990876626e-02 -2.546589315689e-02 0.0 
1.041123716340e-01 3.682843311801e-02 0.0 
1.000785982143e-01 -4.477169905349e-02 0.0 
1.881250226821e-01 -1.852262811084e-01 0.0 
1.083351118488e-01 3.120334543745e-02 0.0 
6.448333599200e-02 -3.854265357478e-03 0.0 
2.551282605466e-02 -9.618075384788e-03 0.0 
9.571005802937e-02 -8.176878573165e-02 0.0 
1.057950495168e-01 6.060901446411e-02 0.0 
1.168231257173e-01 7.106775124773e-02 0.0 
1.164532910174e-01 -8.463035886819e-02 0.0 
5.323722778200e-02 -3.116212424550e-02 0.0 
5.327494318483e-02 -2.790237410136e-02 0.0 
1.089585817238e-01 -1.527749886087e-01 0.0 
3.035561926282e-01 -1.860233087395e-01 0.0 
2.006662900440e-01 -1.122409724330e-01 0.0 
1.843374042595e-01 -1.175409881620e-01 0.0 
3.243199291362e-01 -7.926421239657e-02 0.0 
5.251074940094e-02 5.846194016786e-03 0.0 
1.310502477784e-01 6.486102591392e-03 0.0 
3.738609183902e-02 8.450955671848e-03 0.0 
3.833509638677e-01 -2.518772886995e-02 0.0 
1.272575062437e-01 2.531298347102e-02 0.0 
4.912275900376e-02 -3.017037645695e-02 0.0 
4.832397099720e-02 8.234063335662e-03 0.0 
1.313258435094e-01 3.893724976594e-02 0.0 
9.392199968591e-02 -7.620696430946e-02 0.0 
2.242042849758e-01 -1.225000838642e-01 0.0 
9.989572593483e-02 3.053650824977e-02 0.0 
7.052888452450e-02 1.350366800208e-02 0.0 
7.633607022820e-02 2.687359479356e-02 0.0 
9.549992680270e-02 3.550935943924e-02 0.0 
3.091429102231e-02 -1.535136922514e-02 0.0 
8.654330241340e-02 -1.769864762374e-02 0.0 
4.067256471554e-02 -1.945388475064e-02 0.0 
6.319819463685e-02 -4.427383595300e-02 0.0 
3.951471876130e-01 5.310666902125e-02 0.0 
1.078189346056e-01 -3.413204896557e-02 0.0 
1.758375386870e-01 3.561566414634e-02 0.0 
6.198978325559e-02 -1.098403137937e-01 0.0 
1.909114428375e-01 -1.109997181965e-01 0.0 
1.593917663224e-01 -8.385631882323e-02 0.0 
1.799121661544e-01 -6.971751743128e-02 0.0 
2.588786430615e-01 -2.000010381585e-01 0.0 
2.141671568727e-01 -1.219642284643e-01 0.0 
1.549820073668e-01 -5.431871160399e-02 0.0 
3.619520685488e-01 1.754712438722e-02 0.0 
8.502392280692e-02 -6.815226818278e-02 0.0 
1.507037681964e-01 5.548200487816e-02 0.0 
1.199071632432e-01 9.864097137210e-02 0.0 
3.170749802932e-01 -1.750422796651e-01 0.0 
7.145736712033e-02 -5.069599536059e-02 0.0 
9.676754302143e-02 -3.382237603923e-02 0.0 
1.077887547874e-01 5.608587649295e-03 0.0 
2.098487482842e-01 -9.516787367437e-02 0.0 
7.413523192153e-02 -5.561720699033e-02 0.0 
1.203868433442e-01 5.189945181261e-02 0.0 
3.458969933400e-01 -1.288374668019e-01 0.0 
1.169696052439e-01 -4.039532144490e-02 0.0 
1.791952695640e-01 -7.798635311422e-02 0.0 
3.476556906567e-01 1.863215382935e-02 0.0 
4.932232761912e-02 -2.707537356082e-02 0.0 
2.179522605515e-01 -1.917528148856e-01 0.0 
4.869509832498e-02 -2.384506696344e-02 0.0 
3.574894741876e-02 -1.318025436764e-02 0.0 
1.388348503284e-01 -4.717085104893e-02 0.0 
8.390872742161e-02 2.839881382013e-02 0.0 
1.671399210362e-01 -2.513432072185e-02 0.0 
3.335337785244e-02 -1.297842582961e-02 0.0 
3.728723788380e-01 -8.020139828164e-02 0.0 
1.265046259313e-01 4.593352077406e-02 0.0 
9.714297180097e-02 -1.574233708695e-02 0.0 
8.004811460875e-02 2.306543138048e-02 0.0 
1.638130073217e-01 -6.190177053769e-02 0.0 
2.202366191670e-01 -1.133376535808e-01 0.0 
4.239557640468e-02 -4.502998908137e-02 0.0 
2.803799844204e-01 -2.323508224192e-01 0.0 
6.282731468251e-02 1.634218240616e-02 0.0 
4.784739492038e-02 -9.980498383665e-02 0.0 
3.959040348940e-01 -3.190242207738e-02 0.0 
1.895363566185e-01 -2.591792413131e-02 0.0 
3.396074762022e-02 5.824985809406e-03 0.0 
2.068038618525e-01 -1.936094051250e-01 0.0 
3.028450789846e-01 -4.370277663337e-02 0.0 
1.221115115721e-01 3.854027523020e-02 0.0 
6.453493309082e-02 -5.630642598822e-02 0.0 
2.485397218004e-01 -1.990285115632e-01 0.0 
3.538353104182e-01 -1.355795870624e-01 0.0 
1.952634999347e-01 -1.980828094933e-01 0.0 
2.162972264260e-01 -1.972474503009e-01 0.0 
2.052259299573e-01 -1.981977427473e-01 0.0 
1.876565368102e-01 -7.799798232878e-02 0.0 
2.264915977255e-02 3.721309297443e-04 0.0 
4.124482375490e-01 1.698427948797e-02 0.0 
2.301329068776e-02 -1.198897653839e-02 0.0 
2.704068785933e-01 -1.378428411511e-01 0.0 
1.557443652869e-01 4.669589458025e-02 0.0 
2.800581428403e-01 -2.206578465208e-01 0.0 
2.950760858964e-02 -9.903976108848e-03 0.0 
1.961562031153e-01 -1.940343947877e-01 0.0 
4.232405213255e-02 -8.631672281364e-02 0.0 
1.351176876222e-01 -4.032940421739e-02 0.0 
1.413356345729e-01 -9.278105398113e-02 0.0 
1.075311525632e-01 -2.161070885027e-02 0.0 
3.734672092057e-01 -9.614172136176e-02 0.0 
1.591932745082e-01 2.972930142395e-02 0.0 
6.990578952286e-02 -1.344438258569e-02 0.0 
1.169448719072e-01 4.488851584955e-02 0.0 
1.118572039721e-01 4.852343946111e-03 0.0 
1.110983862683e-01 2.509803163460e-02 0.0 
1.118912287598e-01 1.946014202285e-02 0.0 
3.255227422199e-01 -1.983476257917e-01 0.0 
2.426416009472e-02 -1.434485971019e-02 0.0 
1.256691082776e-01 3.189707594210e-02 0.0 
2.604346552708e-01 -9.690762891906e-02 0.0 
4.199813505343e-01 6.238010863890e-02 0.0 
5.656734297944e-02 -9.275121593519e-03 0.0 
2.905813058851e-01 -1.977624375000e-01 0.0 
4.879726953103e-02 -9.418560364980e-02 0.0 
1.212715264388e-01 -2.710997638734e-02 0.0 
9.051970055082e-03 -1.171186342935e-01 0.0 
2.957525155651e-01 -7.529814391640e-02 0.0 
1.133413014113e-01 -3.412398730440e-02 0.0 
8.786786863465e-02 1.001289197457e-02 0.0 
8.221205223575e-02 6.488343081973e-03 0.0 
1.291156709086e-01 -4.041211806638e-02 0.0 
8.959446814203e-02 1.884908819172e-02 0.0 
2.766595428607e-01 -1.255096134642e-01 0.0 
1.958159313044e-01 -1.830567774419e-02 0.0 
4.149247160453e-01 1.034774159547e-01 0.0 
1.297984262127e-01 -3.216705482108e-04 0.0 
3.906112643541e-01 1.351345016822e-01 0.0 
3.678830048112e-01 1.442791063260e-01 0.0 
2.340964183902e-01 -1.028942058441e-01 0.0 
3.338760744158e-01 1.436182281952e-01 0.0 
2.484143367252e-01 -6.462962957533e-02 0.0 
2.972691000302e-01 -1.037481135205e-01 0.0 
1.964558230260e-01 -1.035503337339e-01 0.0 
2.461993421124e-01 -2.056207402102e-01 0.0 
2.299424142452e-01 -1.130894776442e-01 0.0 
6.454083737964e-02 1.315523838052e-02 0.0 
1.164903976696e-01 2.808582117124e-03 0.0 
3.254087836370e-02 -2.066697746358e-02 0.0 
8.997923939291e-02 -1.718272516952e-02 0.0 
1.501259801782e-01 -9.526515348535e-02 0.0 
1.043742697248e-01 1.924367680083e-02 0.0 
2.059890240459e-01 -1.041111594819e-01 0.0 
1.787746824924e-02 -1.130337670216e-02 0.0 
1.029787217768e-01 2.480127566569e-02 0.0 
1.351085067989e-01 2.488316830544e-02 0.0 
1.407427768882e-01 -5.425030654921e-02 0.0 
2.536303052044e-01 -1.204412942894e-01 0.0 
1.586883319275e-01 -1.327494979062e-02 0.0 
2.761056811841e-01 1.071873607120e-03 0.0 
2.360475960544e-01 -2.034285014084e-01 0.0 
2.799226488229e-01 -1.994976272241e-01 0.0 
3.626319348247e-01 -9.735740807609e-02 0.0 
3.054046206770e-01 -3.718538366887e-02 0.0 
1.269139674691e-02 -8.777292311178e-03 0.0 
1.343112692179e-01 3.189556255650e-02 0.0 
2.439765161783e-01 -1.217543365937e-01 0.0 
2.628558883983e-01 -2.769214809491e-02 0.0 
9.302043426307e-02 -2.832140437646e-02 0.0 
6.911519974311e-02 1.743165147262e-02 0.0 
1.403495671125e-01 -8.848170340177e-03 0.0 
1.713086898943e-01 5.484087796091e-02 0.0 
6.166001609447e-02 -2.201730043098e-02 0.0 
2.006898120413e-01 -9.523977914960e-02 0.0 
8.798861445859e-02 -2.819189065281e-02 0.0 
3.012782436131e-01 -6.950898499395e-02 0.0 
7.052668556128e-02 9.473084202930e-03 0.0 
1.165696972141e-01 -5.391757619100e-03 0.0 
1.638353672886e-01 -6.966234144459e-02 0.0 
2.770519403296e-01 -2.072227533682e-01 0.0 
1.476037125487e-01 -2.161514624121e-02 0.0 
2.705753511481e-01 -6.438968792156e-02 0.0 
2.672063883860e-01 -1.281510144607e-01 0.0 
1.561974757021e-01 -6.185822376557e-02 0.0 
6.036382722500e-02 -2.578707008334e-02 0.0 
2.666051002442e-01 -2.075520764881e-01 0.0 
1.857481453836e-01 -8.637620971746e-02 0.0 
2.439015303511e-01 2.089196625427e-02 0.0 
1.147753883067e-02 -8.669016387607e-03 0.0 
2.356554016303e-01 1.102595273533e-02 0.0 
1.701717266450e-01 -2.316758118431e-02 0.0 
2.498507787705e-01 3.237346514814e-02 0.0 
2.548373369361e-01 6.039348376377e-02 0.0 
2.634229384008e-01 -7.834142536072e-03 0.0 
9.964881279525e-02 -2.273791861949e-02 0.0 
2.954395932917e-02 -1.759662952182e-02 0.0 
1.496523673587e-01 3.869636635591e-02 0.0 
7.726184511748e-02 6.607870409456e-03 0.0 
2.534493146772e-01 4.543704961714e-02 0.0 
2.740869600486e-01 -1.570295269246e-01 0.0 
1.309588893121e-01 -1.700251438220e-02 0.0 
5.349267040160e-02 9.007993423524e-03 0.0 
2.831011231456e-01 -8.559384812292e-02 0.0 
2.806074488343e-01 -7.234739098280e-02 0.0 
2.604369910950e-01 -1.396190085618e-01 0.0 
1.510890041199e-01 3.072104070252e-02 0.0 
3.773329916952e-01 -4.827290442173e-02 0.0 
2.314855290303e-01 -6.001226962094e-02 0.0 
3.731989217593e-01 -5.901652258282e-02 0.0 
1.292995746250e-01 -3.368250043638e-02 0.0 
9.273474969971e-02 -9.749875218952e-03 0.0 
2.375162757373e-01 -1.317377955096e-01 0.0 
2.712399553333e-01 -2.328476197705e-01 0.0 
9.184021590356e-02 6.083648341986e-03 0.0 
3.715808992130e-01 -3.107367426755e-02 0.0 
1.552390489765e-01 -8.996371356444e-02 0.0 
1.107824653663e-01 -1.358721453802e-02 0.0 
1.585791017055e-01 3.795165966751e-02 0.0 
3.850716865506e-02 -2.192485858167e-02 0.0 
2.945109162095e-01 -1.180064082209e-01 0.0 
2.668651300501e-01 -2.378939536187e-01 0.0 
7.593920100433e-03 -6.499513052283e-03 0.0 
2.876663511244e-01 -4.367403737119e-02 0.0 
1.709508389112e-01 -4.485707764759e-02 0.0 
1.378614216847e-01 -1.144781628001e-02 0.0 
2.663076601488e-01 -2.460381310943e-01 0.0 
4.173511872967e-02 -2.254259119704e-02 0.0 
3.356197747982e-01 -1.607067315492e-01 0.0 
1.813598465933e-01 5.375369410365e-02 0.0 
5.546032383485e-02 -4.547523895064e-02 0.0 
2.475827118616e-01 -1.312402241757e-01 0.0 
1.625850615248e-02 -1.111130755397e-02 0.0 
2.542218487691e-01 -6.093981470116e-02 0.0 
2.625079781205e-01 -1.490981061923e-01 0.0 
2.748015867512e-01 -3.785183606411e-02 0.0 
2.580827925800e-01 -2.368208798138e-01 0.0 
2.109060048252e-01 -2.544476727663e-02 0.0 
1.240502395306e-01 -3.401752467229e-02 0.0 
9.567164111098e-02 -2.794469761402e-03 0.0 
1.749732490656e-01 -1.895984633738e-02 0.0 
2.733074203562e-01 -1.840833583896e-01 0.0 
2.977293809080e-02 -2.009685739110e-02 0.0 
4.728803338526e-02 5.692228109069e-03 0.0 
4.466197009695e-02 -5.795777577163e-03 0.0 
1.168251236504e-01 -2.772126370235e-02 0.0 
2.721994479765e-01 -1.158032459853e-01 0.0 
2.441984875961e-01 -3.176878571167e-02 0.0 
9.204077497144e-03 -8.478236210129e-03 0.0 
1.296996164574e-02 -3.909654406092e-02 0.0 
1.921689985792e-01 -2.342548513018e-02 0.0 
1.460600023780e-01 4.693526460468e-02 0.0 
2.224604244212e-02 -1.403498248376e-02 0.0 
3.766520068594e-02 -1.897840952478e-02 0.0 
5.048804861448e-02 8.482454294457e-02 0.0 
3.392985359843e-02 8.173785759388e-02 0.0 
2.261538358026e-01 1.887677283091e-02 0.0 
2.266640439028e-01 -3.037188900742e-02 0.0 
4.424973506195e-02 -3.848165637522e-02 0.0 
2.470202131736e-01 -5.899489150118e-03 0.0 
2.586524975226e-01 -7.271874421100e-02 0.0 
5.427955059251e-02 -1.435446380232e-02 0.0 
2.809813184173e-01 -1.124508397634e-01 0.0 
2.088610764976e-02 5.436269784358e-04 0.0 
2.810094786527e-01 8.205423308672e-02 0.0 
2.744921072527e-01 -7.698663239808e-02 0.0 
6.058395893246e-02 -4.714647496009e-02 0.0 
2.929144372725e-01 -1.891575928294e-01 0.0 
7.847645979741e-02 -6.569341378209e-02 0.0 
2.585259401973e-01 -3.713275076626e-02 0.0 
2.938552465619e-01 -2.569687711248e-02 0.0 
1.747222563328e-01 4.486400403459e-02 0.0 
2.313523691562e-01 -8.187960580043e-03 0.0 
2.139146567857e-01 -6.414264197292e-03 0.0 
3.331154179424e-02 -1.326562889900e-01 0.0 
8.018221913662e-02 -7.082110640860e-02 0.0 
3.687753031109e-01 -4.182914657938e-02 0.0 
2.566899047190e-01 6.981394419044e-03 0.0 
2.395088306463e-01 6.901412806214e-03 0.0 
8.035654772490e-02 -1.827353629264e-02 0.0 
4.107998148300e-03 -1.109899397538e-01 0.0 
2.535763379600e-01 -2.133913976932e-01 0.0 
2.957560188514e-01 -5.608960313595e-02 0.0 
7.365480567955e-02 -6.827031867141e-02 0.0 
3.751266430988e-01 1.292443456303e-01 0.0 
3.468219853215e-01 1.329708529903e-01 0.0 
1.838764229261e-01 4.351974779199e-02 0.0 
3.304703532517e-01 -2.003436963151e-01 0.0 
5.732030787914e-02 -4.983101909076e-02 0.0 
9.137276789007e-02 -3.351935160293e-02 0.0 
2.636431748307e-01 -2.143502073757e-01 0.0 
5.127362311726e-02 -3.010217113990e-03 0.0 
9.012894118700e-02 1.381458223908e-02 0.0 
4.826513600371e-02 -5.070131457811e-02 0.0 
2.475790140368e-02 -1.671663222292e-02 0.0 
6.747827648606e-02 -1.453135150823e-01 0.0 
9.332441065029e-02 -3.885691456089e-02 0.0 
2.843247258475e-01 -4.928045783168e-02 0.0 
5.087520334282e-02 -1.413933101450e-01 0.0 
8.346880409580e-02 1.371674959888e-02 0.0 
2.701250754088e-01 -2.210648373375e-01 0.0 
2.596781132911e-01 2.131179762075e-03 0.0 
2.924627833396e-01 -3.186273810847e-02 0.0 
1.682364770932e-01 -9.952532010541e-02 0.0 
9.857682716205e-02 -5.419894262622e-02 0.0 
8.227833831282e-02 9.743639860876e-03 0.0 
8.230835451708e-02 -4.149986827144e-02 0.0 
2.757455931697e-01 -5.969256532755e-02 0.0 
2.913034189039e-01 -6.186110946635e-02 0.0 
3.028716249580e-01 -1.962935627091e-01 0.0 
2.663396683486e-01 -2.270793602196e-01 0.0 
1.534088134962e-01 -1.835804638412e-02 0.0 
2.370850445478e-01 5.351355996853e-02 0.0 
1.337321846507e-01 -1.571215406265e-02 0.0 
3.452278324348e-01 -1.534269618774e-01 0.0 
1.646213107828e-01 1.289982132758e-02 0.0 
1.364638557557e-01 -1.275335931720e-02 0.0 
3.353362191866e-01 1.095497100453e-01 0.0 
1.555776939562e-01 -1.664275053832e-02 0.0 
2.252267048942e-02 -1.632759341294e-02 0.0 
2.382728969372e-01 -3.965644753377e-02 0.0 
7.039957226395e-02 -5.842590112018e-02 0.0 
6.830858214987e-02 -5.362173023218e-02 0.0 
9.693941281629e-02 5.918596254747e-03 0.0 
1.144544427936e-01 -6.822435054131e-02 0.0 
2.770384772739e-01 -3.255792976589e-02 0.0 
2.370893016345e-01 -8.144865712278e-02 0.0 
6.616857238169e-02 -3.036824161132e-02 0.0 
2.760434248296e-01 -8.994450988266e-02 0.0 
2.637302860320e-01 -1.762119102211e-01 0.0 
1.623274169828e-01 -7.703078160358e-02 0.0 
2.746322892648e-01 -1.663586247389e-01 0.0 
2.452208173496e-01 -1.563293462012e-03 0.0 
2.641058053311e-01 -1.674730373971e-01 0.0 
2.643741496336e-01 -1.283968756596e-02 0.0 
9.572055228516e-02 -2.296769465301e-02 0.0 
1.076475280459e-01 -2.828606397177e-02 0.0 
2.831900112154e-01 -9.905723880874e-02 0.0 
2.008022440645e-01 5.055190750395e-02 0.0 
1.839184943110e-02 -1.345387452559e-02 0.0 
1.658553245517e-02 -1.317652121563e-02 0.0 
3.268929826108e-01 -2.095084229631e-01 0.0 
2.487495989083e-01 -1.467773049011e-02 0.0 
8.449602084224e-03 -6.523612459780e-03 0.0 
4.145996078052e-01 -5.600645676293e-03 0.0 
4.132976744440e-02 -4.109945978120e-02 0.0 
3.150728675107e-01 -1.889402166570e-01 0.0 
1.323833126031e-02 -1.072567832044e-02 0.0 
2.839489293281e-01 -1.826273406304e-01 0.0 
1.002028820988e-02 -3.548601656086e-02 0.0 
1.770876265353e-01 -4.373076087847e-02 0.0 
2.101281010460e-01 4.869314224467e-02 0.0 
2.278744541606e-01 5.622375441225e-02 0.0 
2.683840710019e-01 -4.792772257564e-02 0.0 
4.083136997670e-01 1.034602119402e-01 0.0 
3.949887748423e-01 1.184409742428e-01 0.0 
1.182055191058e-02 -1.055899755046e-02 0.0 
9.355618002980e-02 -4.839182811157e-02 0.0 
1.507741809975e-01 -8.244356049111e-02 0.0 
9.911528617520e-02 -3.943760874552e-02 0.0 
1.823211330277e-01 -9.416023128859e-02 0.0 
2.848982789376e-01 -1.736414798038e-01 0.0 
4.058797306317e-01 1.207053906381e-01 0.0 
2.630729021012e-01 7.345149035116e-02 0.0 
4.343584830044e-02 8.997046171540e-02 0.0 
1.029406066402e-01 -2.830981275489e-02 0.0 
2.752189765818e-01 -1.029681901735e-01 0.0 
5.959109933609e-02 -9.197106925614e-03 0.0 
4.984468538449e-03 -1.019932503522e-02 0.0 
1.769126673899e-01 -8.585748760448e-02 0.0 
6.639395063722e-03 -4.775944443703e-03 0.0 
2.426606086471e-01 -1.586751007130e-01 0.0 
7.940820076060e-02 -1.223778655851e-02 0.0 
2.642575382717e-01 -5.256832374111e-02 0.0 
2.165623016661e-01 -4.013899059208e-02 0.0 
5.470506661342e-02 -1.789961798452e-02 0.0 
1.150572591180e-01 -1.056791196811e-01 0.0 
2.640661191136e-01 -2.280229433832e-02 0.0 
1.731643374072e-01 -9.306209196158e-02 0.0 
2.796411712115e-01 -2.150221501331e-02 0.0 
3.449392196707e-01 -1.437557185290e-01 0.0 
1.936850424400e-01 -3.876990739748e-02 0.0 
1.775441801990e-01 -1.012109401704e-01 0.0 
4.868230982251e-02 -3.978836006211e-02 0.0 
2.798296095545e-01 -1.587490502918e-02 0.0 
3.019161598795e-01 -2.243793619441e-01 0.0 
2.109694101977e-01 -6.636860107131e-02 0.0 
3.351556095836e-01 -1.856649560984e-01 0.0 
9.116925324481e-02 -1.454787572438e-01 0.0 
4.584995882897e-02 -4.244331220409e-02 0.0 
1.785724921799e-01 -1.251307925912e-02 0.0 
2.278694317087e-01 4.405109133043e-02 0.0 
4.198395844053e-01 6.495041533605e-02 0.0 
1.066714290877e-02 2.778242534852e-04 0.0 
2.894704962431e-01 -2.152482802906e-01 0.0 
4.161753183112e-01 8.501954452790e-02 0.0 
1.375826830791e-01 -7.361487102157e-02 0.0 
3.778414574583e-02 -4.368503366679e-02 0.0 
3.832007673881e-01 5.299914827649e-02 0.0 
2.000366346172e-01 -1.437700620372e-01 0.0 
1.101571547362e-01 -6.199703650160e-02 0.0 
2.554500497250e-01 -4.160221681730e-02 0.0 
1.826973563814e-01 -5.208029701921e-02 0.0 
1.537982079425e-01 -1.564311406286e-03 0.0 
3.246813354176e-01 -2.088525894702e-01 0.0 
5.349188584828e-02 -5.243326910495e-02 0.0 
3.277964489385e-02 -3.873593462309e-02 0.0 
1.090120112887e-01 -1.245799018116e-01 0.0 
3.073236539114e-01 1.074199498958e-01 0.0 
2.358988786012e-01 4.072300299023e-02 0.0 
2.168777312472e-03 -1.634014734037e-02 0.0 
6.053119063960e-02 -1.461015278636e-01 0.0 
2.682519728281e-01 -2.494382805748e-01 0.0 
1.263828304588e-01 -1.529548063618e-01 0.0 
2.872467036720e-02 -3.776146630434e-02 0.0 
2.296736385758e-01 -1.404976546521e-01 0.0 
2.110550836365e-01 -1.539979536024e-01 0.0 
2.530540159134e-01 -1.761349978124e-01 0.0 
3.592372862905e-02 -3.616085228772e-02 0.0 
2.203504538015e-01 2.222770196811e-02 0.0 
2.450145917708e-02 -3.344664044109e-02 0.0 
2.400258784168e-01 -1.408974918511e-01 0.0 
2.486300067314e-01 -1.901302727833e-02 0.0 
1.751456886992e-01 9.804649375739e-02 0.0 
1.442908481795e-01 -3.134616786570e-02 0.0 
2.092148083591e-02 -3.279056757457e-02 0.0 
3.198503673735e-02 -3.514228254419e-02 0.0 
4.168627508240e-01 2.172480130355e-02 0.0 
2.069254087879e-01 -1.295309484139e-01 0.0 
1.735469475198e-02 -2.899910355647e-02 0.0 
5.647486545461e-03 2.606314235437e-02 0.0 
6.771717156675e-03 3.721525009774e-02 0.0 
4.198088021991e-01 4.397421235150e-02 0.0 
2.741831687802e-02 -3.085083787557e-02 0.0 
1.804419045793e-01 -1.449458603519e-01 0.0 
3.554779607431e-01 -1.679706629761e-01 0.0 
7.636548285902e-02 -1.285044546357e-02 0.0 
1.519994876988e-01 -1.705096404292e-01 0.0 
1.699659975440e-01 -1.344012517904e-01 0.0 
2.281399303502e-01 -7.288718491701e-02 0.0 
4.193747869003e-01 8.311116469438e-02 0.0 
1.414049498512e-02 -2.861161148006e-02 0.0 
6.928197138168e-03 -9.232293966911e-02 0.0 
2.897425378248e-01 9.767443844102e-02 0.0 
2.398971384440e-02 -3.012966409122e-02 0.0 
1.465195509255e-01 -8.799993953091e-02 0.0 
5.214251763381e-02 -4.810579603110e-02 0.0 
2.968228322005e-01 -2.350699398632e-01 0.0 
5.832224623137e-03 4.591882262868e-03 0.0 
1.768999942697e-01 -1.229574102738e-01 0.0 
6.940080527882e-02 -1.818474479731e-02 0.0 
2.122204802583e-01 -4.291540625658e-02 0.0 
2.020010692155e-02 -2.640431078900e-02 0.0 
1.714506617030e-02 -2.592982312077e-02 0.0 
2.312558708116e-01 -1.492294301235e-01 0.0 
1.768239333466e-01 -1.949081389462e-01 0.0 
3.046218800818e-01 -2.274087137203e-01 0.0 
1.399790216572e-02 -2.265141356998e-02 0.0 
5.848121053344e-02 -1.809190344445e-02 0.0 
1.514777044955e-01 -1.332723836860e-01 0.0 
2.318191930058e-01 -1.944843465517e-02 0.0 
4.139426065845e-01 -2.666902749744e-02 0.0 
2.321305436582e-01 -1.196065689014e-02 0.0 
1.452679802136e-02 -4.855184187241e-03 0.0 
2.665128531302e-01 -2.542488556636e-01 0.0 
1.438153518113e-03 -7.835019666024e-05 0.0 
2.607946436204e-04 -6.011741660381e-04 0.0 
4.848466872600e-03 5.954398826914e-02 0.0 
1.484613859219e-01 -1.135997574378e-01 0.0 
2.344830796830e-01 -4.328233972536e-02 0.0 
2.521633015666e-01 -1.498790181478e-01 0.0 
9.968439019956e-02 -1.528956973174e-01 0.0 
3.003408726339e-01 -2.089019752426e-01 0.0 
2.650947169424e-02 4.422878993420e-03 0.0 
2.320730336649e-01 2.895637352689e-02 0.0 
3.135073912319e-01 1.283218780171e-01 0.0 
2.382375252110e-02 -1.413373076345e-03 0.0 
7.683070025771e-03 -1.048510522719e-01 0.0 
2.137414276989e-02 -1.495945762680e-03 0.0 
2.253444954533e-01 3.250655823198e-02 0.0 
1.221956527114e-01 -1.031515320565e-01 0.0 
2.475336997406e-01 -4.986871017435e-02 0.0 
1.499090726385e-01 -1.203359170152e-01 0.0 
3.695167290489e-01 -1.457855362981e-01 0.0 
1.417655333493e-01 -1.230237470885e-01 0.0 
2.130541130755e-01 1.331566041530e-02 0.0 
4.674658292085e-03 -8.314883921917e-03 0.0 
1.786755618299e-01 -1.305301589025e-01 0.0 
2.152295515040e-01 -1.286658530491e-02 0.0 
2.636643836906e-01 -2.535422312863e-01 0.0 
2.090117508667e-01 -1.379517539235e-01 0.0 
1.774595047543e-01 1.806636237026e-02 0.0 
1.159184313720e-01 -1.115619635518e-01 0.0 
1.427875388479e-01 -1.353111938630e-01 0.0 
2.426682522596e-01 -5.354307854040e-02 0.0 
2.212674896952e-01 -2.098510183431e-01 0.0 
4.035240116624e-01 -2.446362472572e-02 0.0 
4.112330891457e-01 1.336788964854e-05 0.0 
1.253654160811e-01 -1.270474819558e-01 0.0 
1.297049980396e-01 -7.203938044532e-02 0.0 
2.607347349341e-01 -8.477149794478e-02 0.0 
2.150377930284e-01 -1.601906628172e-02 0.0 
1.011588160239e-01 2.795535987923e-04 0.0 
4.173801041459e-01 3.985465307778e-02 0.0 
9.672367579564e-03 1.628957638440e-02 0.0 
9.701020174458e-02 -4.549815570637e-03 0.0 
2.532157995610e-01 -1.589248515383e-01 0.0 
3.392055026396e-01 -1.726927214159e-01 0.0 
4.123129683078e-01 -2.099608327818e-02 0.0 
1.261205197257e-01 -7.680726163431e-02 0.0 
2.124710497856e-01 -3.251433331393e-03 0.0 
1.341769979071e-01 -7.890429588132e-02 0.0 
3.123755122563e-01 -2.233793678325e-01 0.0 
1.120729969078e-01 -5.725052324498e-02 0.0 
3.821977884966e-01 -1.227970732750e-01 0.0 
2.530970000088e-01 -8.782366561645e-02 0.0 
1.173512318008e-01 -6.371503215859e-02 0.0 
2.252758107941e-01 -4.973312375590e-02 0.0 
4.073024280073e-02 3.353665713648e-02 0.0 
1.169480950681e-01 -1.229597455241e-01 0.0 
3.403854283012e-01 -1.889302857262e-01 0.0 
9.985827271089e-02 -4.972541307334e-02 0.0 
3.933169829002e-01 -9.881721233194e-02 0.0 
2.733672114085e-01 -2.490042866623e-01 0.0 
2.322755102579e-03 1.679334263461e-03 0.0 
2.951257127185e-03 4.298755087531e-03 0.0 
1.808291658516e-01 -2.035544404040e-01 0.0 
9.396312726947e-02 -4.379206296530e-02 0.0 
1.176749203356e-01 -1.392681866497e-01 0.0 
1.092805854436e-01 -1.300331592510e-01 0.0 
1.787455522866e-01 -1.036248161751e-02 0.0 
2.199005996088e-01 -5.251249996228e-02 0.0 
1.968856280830e-01 -1.565673472839e-02 0.0 
1.987528806005e-01 -1.358856217790e-01 0.0 
9.769219671627e-02 1.077824640983e-01 0.0 
9.468763658646e-03 -3.603501309452e-03 0.0 
1.179180444054e-01 -1.442006236415e-01 0.0 
8.370968799247e-02 -2.307920858416e-02 0.0 
2.519528235200e-01 -7.615294799796e-02 0.0 
3.389118678322e-02 -1.211596420921e-01 0.0 
2.253855882010e-01 2.925557585220e-03 0.0 
2.171269077931e-01 -1.308021029107e-01 0.0 
1.967444264750e-01 -2.099251385247e-01 0.0 
2.215550608607e-01 -1.561164433124e-01 0.0 
1.222248518750e-03 -1.873527241435e-02 0.0 
2.177061262143e-01 9.978081998972e-03 0.0 
1.605142413683e-01 -1.790620759219e-01 0.0 
6.794574127821e-03 -3.613610422489e-02 0.0 
1.967137264489e-01 -7.674031312455e-03 0.0 
1.301815982353e-01 -2.524537208445e-02 0.0 
1.335522275029e-01 -1.252869558776e-01 0.0 
1.382665273988e-02 -9.186122759691e-02 0.0 
2.353657173105e-01 -7.064364346386e-02 0.0 
3.145568150323e-03 3.171422256068e-02 0.0 
2.116214450094e-01 -2.193301353425e-01 0.0 
6.656100473597e-02 -3.311912641592e-03 0.0 
5.978610181766e-02 5.121513009083e-04 0.0 
1.590922526441e-02 4.961771872350e-02 0.0 
4.820131520882e-02 3.240805005318e-03 0.0 
5.896522309770e-02 -4.169001356924e-04 0.0 
1.867931321202e-01 -1.255539847003e-01 0.0 
1.688594046587e-01 -1.273430321897e-01 0.0 
3.357273177294e-02 -6.147604387710e-03 0.0 
2.709317145172e-01 -2.524359288363e-01 0.0 
3.575071877471e-03 -9.857624947020e-02 0.0 
4.747399276449e-03 -3.330862557687e-02 0.0 
1.249256344436e-01 -1.212931959624e-01 0.0 
1.905122035612e-01 -1.483686554360e-01 0.0 
3.827979350903e-01 -7.211816976022e-02 0.0 
3.939249199191e-01 -4.868011013838e-02 0.0 
1.497590855907e-01 9.058715119897e-02 0.0 
2.207954821077e-01 -1.479546838917e-01 0.0 
3.478147114087e-02 -9.104711273802e-02 0.0 
1.601884356254e-01 -2.838766266206e-02 0.0 
2.896468768273e-03 -1.347430132527e-03 0.0 
3.888239673623e-03 -1.601828996893e-03 0.0 
1.577243455972e-01 -1.169203016913e-01 0.0 
2.006916266946e-01 1.167344458792e-01 0.0 
2.638651835708e-01 -2.513852608746e-01 0.0 
3.584552467913e-01 -1.204329744084e-01 0.0 
2.283869792150e-01 -2.168678588997e-01 0.0 
3.717419874741e-01 -9.625441807298e-02 0.0 
2.251365836182e-01 -6.259207972251e-02 0.0 
1.608757754079e-01 -1.372803827793e-01 0.0 
1.898524536972e-01 -1.410111735873e-01 0.0 
2.484959595432e-01 -2.399611688722e-01 0.0 
6.759674873591e-03 3.308218915955e-03 0.0 
1.602786251991e-01 -1.307146808694e-01 0.0 
2.301579813568e-02 3.872849585054e-03 0.0 
1.824394113217e-02 8.477579361062e-03 0.0 
3.987073551891e-03 3.929004786533e-05 0.0 
5.797689718871e-04 -1.083044083622e-03 0.0 
8.474615878952e-03 5.069491709883e-02 0.0 
1.407940517012e-01 -1.166529823276e-01 0.0 
4.046085923816e-01 -6.032140096893e-03 0.0 
1.307119363765e-01 -1.066573710815e-01 0.0 
1.061757534364e-03 -5.878570407305e-04 0.0 
3.298294490413e-01 -1.671933867937e-01 0.0 
3.443097768628e-01 -1.442392936590e-01 0.0 
7.745041040933e-02 -1.835777148028e-02 0.0 
1.535650030640e-01 1.095132260044e-01 0.0 
1.368376222853e-02 2.686224745144e-03 0.0 
1.972504466653e-01 -1.035365610998e-02 0.0 
1.007313483130e-01 -1.512065892481e-02 0.0 
1.713715947328e-01 -2.890777267076e-05 0.0 
5.324271669048e-02 5.360112489388e-02 0.0 
1.341924961352e-01 -1.368316198466e-01 0.0 
1.429880258426e-01 -1.411015718385e-01 0.0 
1.249573270887e-02 2.090800773628e-02 0.0 
1.205693249741e-01 -1.946377772830e-02 0.0 
2.734038486375e-01 1.433395724988e-01 0.0 
3.201035167799e-02 6.991616737032e-02 0.0 
3.562097060510e-02 5.549288869071e-02 0.0 
6.166917199921e-02 5.761363655071e-02 0.0 
2.534236991527e-01 -2.308166948829e-01 0.0 
1.342565570617e-01 -1.421946675668e-01 0.0 
2.224765274921e-02 1.978935159899e-03 0.0 
5.479885698188e-02 4.277675456075e-02 0.0 
2.978857293047e-02 -3.385353054388e-03 0.0 
1.077493977162e-01 -3.706967284997e-04 0.0 
2.281093663322e-01 -6.889340260375e-04 0.0 
6.830880175842e-02 6.203865035156e-03 0.0 
3.392058296790e-02 -6.379849149175e-02 0.0 
3.809836826663e-02 -7.444134795343e-02 0.0 
1.826379134708e-02 -7.158626870783e-03 0.0 
2.487271685698e-01 -2.442673904967e-01 0.0 
1.827699296171e-02 -9.729400901750e-02 0.0 
1.111725915302e-02 -7.275738501746e-04 0.0 
8.748903172249e-03 -1.283704175458e-01 0.0 
3.850252048357e-02 6.558953899363e-02 0.0 
4.456445567718e-02 -1.079611576015e-02 0.0 
1.430726357999e-01 -1.791642057463e-01 0.0 
1.077355070287e-01 -1.676403416816e-01 0.0 
1.476388578757e-02 3.593984541313e-04 0.0 
1.407681145829e-01 1.187919963150e-01 0.0 
3.273713117662e-02 2.951989441048e-03 0.0 
4.547126454743e-02 -9.167930875136e-03 0.0 
1.223110430578e-01 1.114235585587e-01 0.0 
2.745584691065e-01 -2.501704593898e-01 0.0 
6.195867012658e-03 2.892797203633e-04 0.0 
8.240245735397e-02 -1.416793478897e-01 0.0 
3.497602559943e-02 4.216548267768e-03 0.0 
8.097411788616e-04 -5.766857039651e-04 0.0 
9.695184588355e-02 1.679197349989e-03 0.0 
2.510243198276e-01 -2.191481765724e-01 0.0 
2.127567967838e-01 9.891035997353e-02 0.0 
2.052535723619e-02 -6.087938201296e-02 0.0 
1.551473068694e-01 -2.941400849388e-02 0.0 
1.546145053238e-02 -1.548338103268e-03 0.0 
1.124500039436e-02 1.239126363928e-02 0.0 
1.430215943138e-02 -1.631458997435e-03 0.0 
2.554486165895e-01 -2.410683048538e-01 0.0 
5.337164604205e-03 -3.208719702050e-03 0.0 
2.329313939248e-01 -2.081911361030e-01 0.0 
4.042507731984e-02 -1.318402805779e-01 0.0 
2.149885429933e-02 -5.319002216287e-03 0.0 
5.450737644664e-02 2.093997144808e-03 0.0 
3.070346069743e-02 1.156052742644e-03 0.0 
8.709185560266e-02 8.295513250609e-02 0.0 
2.526896678423e-01 7.637862037670e-02 0.0 
3.640184067284e-01 -1.586608699031e-01 0.0 
6.817710918892e-02 -6.701597304822e-04 0.0 
2.089590921406e-02 -7.485047801952e-02 0.0 
3.189365954047e-01 -2.165628998764e-01 0.0 
1.355103796277e-01 -2.454784830213e-02 0.0 
7.765815498168e-02 1.009370162482e-01 0.0 
7.193452534598e-02 4.012689620053e-03 0.0 
7.028737752052e-04 7.860065266081e-05 0.0 
7.028737752052e-04 -8.582108108422e-05 0.0 
1.108519905091e-02 -1.548960816861e-01 0.0 
4.542697637223e-03 -1.517628931791e-01 0.0 
4.097323459830e-03 7.902633885693e-02 0.0 
1.008455275199e-02 8.717362025859e-02 0.0 
1.058070017487e-04 -4.980673399958e-04 0.0 
1.058070017487e-04 -1.212179023351e-03 0.0 
1.958783883924e-02 -1.482038342398e-01 0.0 
2.552123688208e-01 -2.512234609727e-01 0.0 
5.554906947723e-03 -4.971325059653e-03 0.0 
9.688519504538e-02 -9.511275538874e-03 0.0 
6.670534107978e-02 -1.323655620026e-01 0.0 
9.685730317222e-03 -5.235527057908e-03 0.0 
2.533253923264e-03 -2.767659465995e-02 0.0 
3.437323874531e-03 -4.124546535398e-02 0.0 
3.579629428125e-02 3.366572517911e-02 0.0 
2.102423037167e-01 -2.094289326600e-01 0.0 
1.885548438187e-01 -4.063937510330e-02 0.0 
7.927393870356e-02 -1.439232306668e-01 0.0 
2.394829388672e-02 -5.176445866824e-02 0.0 
9.129212015480e-02 -9.096516080368e-04 0.0 
1.269640565786e-03 2.820854150966e-03 0.0 
6.491205808227e-03 -4.049536626721e-02 0.0 
2.525144493321e-02 4.292068858849e-02 0.0 
1.003514400705e-01 -6.853915912497e-03 0.0 
1.562059212739e-01 -2.948409716644e-03 0.0 
1.938223767985e-01 -2.424350133974e-03 0.0 
1.042604186442e-01 1.030393715275e-01 0.0 
1.957755304657e-01 -4.942100035445e-02 0.0 
8.453606898119e-02 3.503749817038e-03 0.0 
2.570701103146e-02 -9.663058874688e-02 0.0 
1.752453869875e-01 -2.010271452933e-01 0.0 
1.213118088085e-01 -8.704638805294e-03 0.0 
8.810749356390e-02 -2.307567862377e-02 0.0 
2.148226701685e-01 -2.157179559324e-01 0.0 
1.760827789130e-02 2.242465980222e-02 0.0 
2.758254357850e-03 -2.655930354653e-03 0.0 
1.182689966955e-01 -1.081475563874e-02 0.0 
9.778848867970e-02 -7.853171139119e-03 0.0 
2.748795359690e-03 -2.184856723673e-02 0.0 
2.891395285010e-01 -2.393992278337e-01 0.0 
3.841027817605e-01 -5.548286862094e-02 0.0 
3.886640181662e-01 -1.135493506767e-01 0.0 
2.176869921785e-01 8.892961708646e-02 0.0 
2.017150704516e-01 -4.756425016876e-02 0.0 
2.713653581246e-02 3.436353163566e-03 0.0 
2.927836470359e-02 -4.644062805514e-03 0.0 
2.060165338434e-01 -2.172959584017e-01 0.0 
1.775120849542e-01 -1.995075322284e-01 0.0 
3.598982150552e-01 -1.046708639805e-01 0.0 
2.819917645395e-02 2.068236563626e-02 0.0 
3.570641340940e-02 -8.494078395535e-02 0.0 
6.309297534125e-02 4.199314202993e-03 0.0 
4.052659023124e-02 -1.268237998641e-01 0.0 
5.430183426705e-02 -1.035429328541e-02 0.0 
1.377481387066e-01 8.552928287483e-02 0.0 
4.138041256890e-02 -3.885973461988e-03 0.0 
1.445868011722e-01 -2.295341211927e-02 0.0 
2.368457370753e-01 8.310276174917e-02 0.0 
1.641795667431e-02 -4.927194543712e-03 0.0 
4.930115960517e-02 2.344611977491e-03 0.0 
4.700061515673e-03 3.672836348275e-04 0.0 
3.315420742056e-01 -1.525477204629e-01 0.0 
6.321728609808e-02 6.031142017411e-03 0.0 
5.528439626126e-02 -2.208260650450e-03 0.0 
5.500682363981e-02 -1.132771038262e-02 0.0 
1.246046177625e-01 -1.889568737727e-02 0.0 
1.561882372360e-03 -6.922016329064e-04 0.0 
1.914014492798e-01 8.053496752671e-06 0.0 
2.796738276692e-01 -2.371380173332e-01 0.0 
3.340071076749e-01 -1.996781719154e-01 0.0 
1.334688540203e-01 -1.280676294952e-03 0.0 
1.905066390043e-01 7.495963447863e-02 0.0 
2.890037021801e-03 -5.002909228406e-03 0.0 
1.074451051933e-01 -1.414212165503e-02 0.0 
5.640253162939e-03 -2.739262193725e-03 0.0 
2.299308640921e-02 1.228455737348e-02 0.0 
3.700050296334e-02 -3.757007047766e-03 0.0 
2.090849225375e-02 -7.213855626086e-03 0.0 
2.250770522240e-02 -7.297927812120e-03 0.0 
2.495402871524e-02 -7.975661861995e-02 0.0 
2.396343930278e-03 -1.243085540351e-03 0.0 
1.953582570051e-01 1.249106402655e-01 0.0 
1.664185260729e-02 3.116030169098e-03 0.0 
1.826074397550e-01 -2.011347099795e-01 0.0 
1.005638468725e-02 4.103092535928e-03 0.0 
2.649814437504e-02 2.362387618066e-02 0.0 
9.300693456604e-03 -1.383110530721e-01 0.0 
2.573057496382e-01 -2.261215091370e-01 0.0 
1.762002355828e-01 -3.845409713755e-03 0.0 
2.499074359470e-02 1.291425689365e-03 0.0 
8.414689424278e-03 1.716320132112e-03 0.0 
4.845794890146e-02 -5.980751624456e-03 0.0 
6.233131329932e-02 5.103787478807e-02 0.0 
1.429806773682e-01 -1.830599598482e-01 0.0 
2.851561313634e-01 -2.433995403272e-01 0.0 
1.337591082777e-01 -1.765522269059e-01 0.0 
1.685175578762e-01 -1.898436299057e-01 0.0 
2.790214280629e-01 -2.300250072421e-01 0.0 
2.262160544378e-02 -5.471601383701e-02 0.0 
3.659275357203e-03 -5.065387172696e-03 0.0 
9.683706336847e-02 2.586153673229e-03 0.0 
2.352435122900e-01 6.603080823302e-02 0.0 
3.923015666799e-02 -7.009616665329e-02 0.0 
1.760459820798e-02 -7.405071052456e-03 0.0 
4.095626608202e-02 -1.106346678400e-02 0.0 
5.150442523165e-02 -4.813875098257e-03 0.0 
8.838470763181e-02 -5.024348640372e-03 0.0 
1.374654331930e-01 -3.389435108162e-03 0.0 
1.693401326408e-01 -1.930106695024e-01 0.0 
2.602990724941e-01 -2.457246513054e-01 0.0 
5.159329525780e-03 -5.181742018055e-03 0.0 
1.774963949945e-02 -1.368261287369e-01 0.0 
3.804931265467e-03 -1.334333538797e-01 0.0 
3.077514790068e-01 -2.139446304108e-01 0.0 
1.337450928567e-01 -1.740130877059e-01 0.0 
1.168438932227e-02 -3.573989258261e-03 0.0 
5.531296006298e-02 -1.152995746048e-03 0.0 
2.437706697703e-02 3.060126298868e-03 0.0 
4.097635937887e-02 -3.240116364056e-03 0.0 
5.181548793793e-02 -1.459607205908e-02 0.0 
4.804624670689e-02 4.072566726648e-02 0.0 
6.752873171125e-03 9.730394906453e-05 0.0 
2.232497381875e-01 -2.050238257490e-01 0.0 
1.346891889385e-01 1.239846863058e-01 0.0 
2.091785095355e-01 -2.149425276781e-01 0.0 
9.743694208203e-02 -1.618639589331e-01 0.0 
1.546151359004e-03 -1.216376762674e-03 0.0 
2.614049099633e-01 1.179314669775e-01 0.0 
4.873955921887e-02 -1.362936558852e-01 0.0 
1.656304379635e-02 -5.607819122264e-02 0.0 
6.536338410823e-02 -1.157304516942e-03 0.0 
3.928056027899e-02 4.949011673411e-03 0.0 
4.612932362014e-02 1.142041009656e-03 0.0 
1.661161907965e-02 -8.558645834115e-02 0.0 
2.792957421945e-01 -2.450358594431e-01 0.0 
7.803764427327e-03 -3.718235670022e-03 0.0 
2.141027293318e-03 -1.641712777445e-04 0.0 
3.666016453691e-04 -1.099241506034e-03 0.0 
8.945790332430e-03 6.768783554685e-02 0.0 
3.602861850843e-02 -8.765444661323e-03 0.0 
5.455926848275e-02 -1.345618362256e-01 0.0 
5.972946230402e-02 4.064560942391e-03 0.0 
1.131715792618e-01 -1.682377124095e-01 0.0 
1.528435454940e-02 -3.731795003786e-03 0.0 
5.950865777932e-02 2.024323686175e-03 0.0 
2.817575803452e-01 -2.464324788671e-01 0.0 
1.177062060505e-01 -1.205825453839e-02 0.0 
2.342899858472e-02 1.539394646716e-02 0.0 
1.683412617129e-02 1.099412813044e-03 0.0 
6.062252717865e-03 -6.295890190230e-04 0.0 
1.073175904640e-02 2.606116424153e-02 0.0 
5.391660847552e-02 -7.035667016431e-04 0.0 
7.562891334049e-02 3.778929231478e-03 0.0 
2.035865263359e-02 1.991657400412e-02 0.0 
8.645708890436e-02 -1.601386450580e-03 0.0 
2.296751140464e-02 -7.024931550314e-02 0.0 
6.669587612026e-02 9.045059827597e-02 0.0 
7.430972370270e-02 -7.180277610398e-03 0.0 
1.755988311999e-03 2.742448116507e-04 0.0 
2.063457806178e-02 -1.530890751064e-01 0.0 
1.839925066515e-02 8.098097300465e-02 0.0 
3.402610324588e-04 -2.304566680680e-03 0.0 
7.476333516114e-02 -1.343672784368e-01 0.0 
4.956918999948e-02 -1.108549129224e-02 0.0 
9.028226077882e-02 3.708047359422e-03 0.0 
1.875513959940e-02 1.580163626350e-03 0.0 
4.927575743180e-02 -1.284098164568e-01 0.0 
3.114020765653e-01 -2.233436432255e-01 0.0 
1.276694972942e-03 -3.744535220903e-02 0.0 
8.637135267281e-03 6.720279628596e-03 0.0 
2.596308158186e-01 -2.537305562115e-01 0.0 
3.785316131772e-02 1.400064961089e-03 0.0 
1.970917688440e-02 2.872649637747e-02 0.0 
2.018384844551e-01 -2.050121095957e-01 0.0 
3.953274105868e-02 4.061288324734e-02 0.0 
5.537747380865e-02 -4.610878851689e-03 0.0 
2.283402055265e-03 -3.386777447424e-02 0.0 
2.875243059144e-01 -2.249194963186e-01 0.0 
3.052402271374e-02 -7.926163882243e-02 0.0 
1.997095455292e-02 -4.687975344246e-02 0.0 
1.006707082323e-03 -3.052900909641e-02 0.0 
6.642979604218e-02 -8.769422067848e-03 0.0 
1.056975866257e-02 -4.724283350023e-02 0.0 
1.240735538373e-02 -4.230882165554e-02 0.0 
1.174396045620e-01 -1.663756437779e-01 0.0 
1.052096020699e-02 -5.336055851369e-03 0.0 
1.229834799429e-01 -7.840559217432e-03 0.0 
3.205971120884e-01 -2.161432516732e-01 0.0 
3.194141830111e-03 3.147288124537e-05 0.0 
6.010556760792e-04 -2.191629163363e-03 0.0 
1.726048824559e-02 6.922217066890e-02 0.0 
1.524028145715e-02 3.070227804721e-02 0.0 
1.481833899521e-02 -4.872116453094e-02 0.0 
1.576268268427e-02 -4.590463366927e-02 0.0 
9.154313628283e-03 -4.305755619779e-02 0.0 
6.544614740164e-02 -1.484714750593e-02 0.0 
2.016890700896e-01 -2.085376469184e-01 0.0 
1.027302057744e-01 -5.700690893132e-03 0.0 
2.824871327181e-02 5.119479271456e-02 0.0 
4.548946840016e-02 2.197837188355e-03 0.0 
6.179434784256e-02 -1.467059086256e-02 0.0 
4.715224771560e-02 4.497427583697e-02 0.0 
1.182530296066e-01 -1.807191380040e-03 0.0 
6.713947116364e-02 -8.030741110426e-03 0.0 
4.924663015463e-02 -5.139590547896e-03 0.0 
2.925593631778e-01 -2.290079228040e-01 0.0 
1.198418954479e-01 -2.531851882892e-03 0.0 
1.005733407281e-01 -2.344776187724e-03 0.0 
1.099524719185e-01 -1.637692507647e-01 0.0 
1.769992242091e-02 -5.264783947290e-02 0.0 
2.875817796806e-01 -2.363665625507e-01 0.0 
9.812532423753e-02 -1.387140512835e-03 0.0 

VECTORS element_materi_displacement float
0.0 0.0 0.0 
0.0 0.0 0.0 
0.0 0.0 0.0 
0.0 0.0 0.0 
0.0 0.0 0.0 
0.0 0.0 0.0 
0.0 0.0 0.0 
0.0 0.0 0.0 
0.0 0.0 0.0 
0.0 0.0 0.0 
0.0 0.0 0.0 
0.0 0.0 0.0 
0.0 0.0 0.0 
0.0 0.0 0.0 
0.0 0.0 0.0 
0.0 0.0 0.0 
0.0 0.0 0.0 
0.0 0.0 0.0 
0.0 0.0 0.0 
0.0 0.0 0.0 
0.0 0.0 0.0 
0.0 0.0 0.0 
0.0 0.0 0.0 
0.0 0.0 0.0 
0.0 0.0 0.0 
0.0 0.0 0.0 
0.0 0.0 0.0 
0.0 0.0 0.0 
0.0 0.0 0.0 
0.0 0.0 0.0 
0.0 0.0 0.0 
0.0 0.0 0.0 
0.0 0.0 0.0 
0.0 0.0 0.0 
0.0 0.0 0.0 
0.0 0.0 0.0 
0.0 0.0 0.0 
0.0 0.0 0.0 
0.0 0.0 0.0 
0.0 0.0 0.0 
0.0 0.0 0.0 
0.0 0.0 0.0 
0.0 0.0 0.0 
0.0 0.0 0.0 
0.0 0.0 0.0 
0.0 0.0 0.0 
0.0 0.0 0.0 
0.0 0.0 0.0 
0.0 0.0 0.0 
0.0 0.0 0.0 
0.0 0.0 0.0 
0.0 0.0 0.0 
0.0 0.0 0.0 
0.0 0.0 0.0 
0.0 0.0 0.0 
0.0 0.0 0.0 
0.0 0.0 0.0 
0.0 0.0 0.0 
0.0 0.0 0.0 
0.0 0.0 0.0 
0.0 0.0 0.0 
0.0 0.0 0.0 
0.0 0.0 0.0 
0.0 0.0 0.0 
0.0 0.0 0.0 
0.0 0.0 0.0 
0.0 0.0 0.0 
0.0 0.0 0.0 
0.0 0.0 0.0 
0.0 0.0 0.0 
0.0 0.0 0.0 
0.0 0.0 0.0 
0.0 0.0 0.0 
0.0 0.0 0.0 
0.0 0.0 0.0 
0.0 0.0 0.0 
0.0 0.0 0.0 
0.0 0.0 0.0 
0.0 0.0 0.0 
0.0 0.0 0.0 
0.0 0.0 0.0 
0.0 0.0 0.0 
0.0 0.0 0.0 
0.0 0.0 0.0 
0.0 0.0 0.0 
0.0 0.0 0.0 
0.0 0.0 0.0 
0.0 0.0 0.0 
0.0 0.0 0.0 
0.0 0.0 0.0 
0.0 0.0 0.0 
0.0 0.0 0.0 
0.0 0.0 0.0 
0.0 0.0 0.0 
0.0 0.0 0.0 
0.0 0.0 0.0 
0.0 0.0 0.0 
0.0 0.0 0.0 
0.0 0.0 0.0 
0.0 0.0 0.0 
0.0 0.0 0.0 
0.0 0.0 0.0 
0.0 0.0 0.0 
0.0 0.0 0.0 
0.0 0.0 0.0 
0.0 0.0 0.0 
0.0 0.0 0.0 
0.0 0.0 0.0 
0.0 0.0 0.0 
0.0 0.0 0.0 
0.0 0.0 0.0 
0.0 0.0 0.0 
0.0 0.0 0.0 
0.0 0.0 0.0 
0.0 0.0 0.0 
0.0 0.0 0.0 
0.0 0.0 0.0 
0.0 0.0 0.0 
0.0 0.0 0.0 
0.0 0.0 0.0 
0.0 0.0 0.0 
0.0 0.0 0.0 
0.0 0.0 0.0 
0.0 0.0 0.0 
0.0 0.0 0.0 
0.0 0.0 0.0 
0.0 0.0 0.0 
0.0 0.0 0.0 
0.0 0.0 0.0 
0.0 0.0 0.0 
0.0 0.0 0.0 
0.0 0.0 0.0 
0.0 0.0 0.0 
0.0 0.0 0.0 
0.0 0.0 0.0 
0.0 0.0 0.0 
0.0 0.0 0.0 
0.0 0.0 0.0 
0.0 0.0 0.0 
0.0 0.0 0.0 
0.0 0.0 0.0 
0.0 0.0 0.0 
0.0 0.0 0.0 
0.0 0.0 0.0 
0.0 0.0 0.0 
0.0 0.0 0.0 
0.0 0.0 0.0 
0.0 0.0 0.0 
0.0 0.0 0.0 
0.0 0.0 0.0 
0.0 0.0 0.0 
0.0 0.0 0.0 
0.0 0.0 0.0 
0.0 0.0 0.0 
0.0 0.0 0.0 
0.0 0.0 0.0 
0.0 0.0 0.0 
0.0 0.0 0.0 
0.0 0.0 0.0 
0.0 0.0 0.0 
0.0 0.0 0.0 
0.0 0.0 0.0 
0.0 0.0 0.0 
0.0 0.0 0.0 
0.0 0.0 0.0 
0.0 0.0 0.0 
0.0 0.0 0.0 
0.0 0.0 0.0 
0.0 0.0 0.0 
0.0 0.0 0.0 
0.0 0.0 0.0 
0.0 0.0 0.0 
0.0 0.0 0.0 
0.0 0.0 0.0 
0.0 0.0 0.0 
0.0 0.0 0.0 
0.0 0.0 0.0 
0.0 0.0 0.0 
0.0 0.0 0.0 
0.0 0.0 0.0 
0.0 0.0 0.0 
0.0 0.0 0.0 
0.0 0.0 0.0 
0.0 0.0 0.0 
0.0 0.0 0.0 
0.0 0.0 0.0 
0.0 0.0 0.0 
0.0 0.0 0.0 
0.0 0.0 0.0 
0.0 0.0 0.0 
0.0 0.0 0.0 
0.0 0.0 0.0 
0.0 0.0 0.0 
0.0 0.0 0.0 
0.0 0.0 0.0 
0.0 0.0 0.0 
0.0 0.0 0.0 
0.0 0.0 0.0 
0.0 0.0 0.0 
0.0 0.0 0.0 
0.0 0.0 0.0 
0.0 0.0 0.0 
0.0 0.0 0.0 
0.0 0.0 0.0 
0.0 0.0 0.0 
0.0 0.0 0.0 
0.0 0.0 0.0 
0.0 0.0 0.0 
0.0 0.0 0.0 
0.0 0.0 0.0 
0.0 0.0 0.0 
0.0 0.0 0.0 
0.0 0.0 0.0 
0.0 0.0 0.0 
0.0 0.0 0.0 
0.0 0.0 0.0 
0.0 0.0 0.0 
0.0 0.0 0.0 
0.0 0.0 0.0 
0.0 0.0 0.0 
0.0 0.0 0.0 
0.0 0.0 0.0 
0.0 0.0 0.0 
0.0 0.0 0.0 
0.0 0.0 0.0 
0.0 0.0 0.0 
0.0 0.0 0.0 
0.0 0.0 0.0 
0.0 0.0 0.0 
0.0 0.0 0.0 
0.0 0.0 0.0 
0.0 0.0 0.0 
0.0 0.0 0.0 
0.0 0.0 0.0 
0.0 0.0 0.0 
0.0 0.0 0.0 
0.0 0.0 0.0 
0.0 0.0 0.0 
0.0 0.0 0.0 
0.0 0.0 0.0 
0.0 0.0 0.0 
0.0 0.0 0.0 
0.0 0.0 0.0 
0.0 0.0 0.0 
0.0 0.0 0.0 
0.0 0.0 0.0 
0.0 0.0 0.0 
0.0 0.0 0.0 
0.0 0.0 0.0 
0.0 0.0 0.0 
0.0 0.0 0.0 
0.0 0.0 0.0 
0.0 0.0 0.0 
0.0 0.0 0.0 
0.0 0.0 0.0 
0.0 0.0 0.0 
0.0 0.0 0.0 
0.0 0.0 0.0 
0.0 0.0 0.0 
0.0 0.0 0.0 
0.0 0.0 0.0 
0.0 0.0 0.0 
0.0 0.0 0.0 
0.0 0.0 0.0 
0.0 0.0 0.0 
0.0 0.0 0.0 
0.0 0.0 0.0 
0.0 0.0 0.0 
0.0 0.0 0.0 
0.0 0.0 0.0 
0.0 0.0 0.0 
0.0 0.0 0.0 
0.0 0.0 0.0 
0.0 0.0 0.0 
0.0 0.0 0.0 
0.0 0.0 0.0 
0.0 0.0 0.0 
0.0 0.0 0.0 
0.0 0.0 0.0 
0.0 0.0 0.0 
0.0 0.0 0.0 
0.0 0.0 0.0 
0.0 0.0 0.0 
0.0 0.0 0.0 
0.0 0.0 0.0 
0.0 0.0 0.0 
0.0 0.0 0.0 
0.0 0.0 0.0 
0.0 0.0 0.0 
0.0 0.0 0.0 
0.0 0.0 0.0 
0.0 0.0 0.0 
0.0 0.0 0.0 
0.0 0.0 0.0 
0.0 0.0 0.0 
0.0 0.0 0.0 
0.0 0.0 0.0 
0.0 0.0 0.0 
0.0 0.0 0.0 
0.0 0.0 0.0 
0.0 0.0 0.0 
0.0 0.0 0.0 
0.0 0.0 0.0 
0.0 0.0 0.0 
0.0 0.0 0.0 
0.0 0.0 0.0 
0.0 0.0 0.0 
0.0 0.0 0.0 
0.0 0.0 0.0 
0.0 0.0 0.0 
0.0 0.0 0.0 
0.0 0.0 0.0 
0.0 0.0 0.0 
0.0 0.0 0.0 
0.0 0.0 0.0 
0.0 0.0 0.0 
0.0 0.0 0.0 
0.0 0.0 0.0 
0.0 0.0 0.0 
0.0 0.0 0.0 
0.0 0.0 0.0 
0.0 0.0 0.0 
0.0 0.0 0.0 
0.0 0.0 0.0 
0.0 0.0 0.0 
0.0 0.0 0.0 
0.0 0.0 0.0 
0.0 0.0 0.0 
0.0 0.0 0.0 
0.0 0.0 0.0 
0.0 0.0 0.0 
0.0 0.0 0.0 
0.0 0.0 0.0 
0.0 0.0 0.0 
0.0 0.0 0.0 
0.0 0.0 0.0 
0.0 0.0 0.0 
0.0 0.0 0.0 
0.0 0.0 0.0 
0.0 0.0 0.0 
0.0 0.0 0.0 
0.0 0.0 0.0 
0.0 0.0 0.0 
0.0 0.0 0.0 
0.0 0.0 0.0 
0.0 0.0 0.0 
0.0 0.0 0.0 
0.0 0.0 0.0 
0.0 0.0 0.0 
0.0 0.0 0.0 
0.0 0.0 0.0 
0.0 0.0 0.0 
0.0 0.0 0.0 
0.0 0.0 0.0 
0.0 0.0 0.0 
0.0 0.0 0.0 
0.0 0.0 0.0 
0.0 0.0 0.0 
0.0 0.0 0.0 
0.0 0.0 0.0 
0.0 0.0 0.0 
0.0 0.0 0.0 
0.0 0.0 0.0 
0.0 0.0 0.0 
0.0 0.0 0.0 
0.0 0.0 0.0 
0.0 0.0 0.0 
0.0 0.0 0.0 
0.0 0.0 0.0 
0.0 0.0 0.0 
0.0 0.0 0.0 
0.0 0.0 0.0 
0.0 0.0 0.0 
0.0 0.0 0.0 
0.0 0.0 0.0 
0.0 0.0 0.0 
0.0 0.0 0.0 
0.0 0.0 0.0 
0.0 0.0 0.0 
0.0 0.0 0.0 
0.0 0.0 0.0 
0.0 0.0 0.0 
0.0 0.0 0.0 
0.0 0.0 0.0 
0.0 0.0 0.0 
0.0 0.0 0.0 
0.0 0.0 0.0 
0.0 0.0 0.0 
0.0 0.0 0.0 
0.0 0.0 0.0 
0.0 0.0 0.0 
0.0 0.0 0.0 
0.0 0.0 0.0 
0.0 0.0 0.0 
0.0 0.0 0.0 
0.0 0.0 0.0 
0.0 0.0 0.0 
0.0 0.0 0.0 
0.0 0.0 0.0 
0.0 0.0 0.0 
0.0 0.0 0.0 
0.0 0.0 0.0 
0.0 0.0 0.0 
0.0 0.0 0.0 
0.0 0.0 0.0 
0.0 0.0 0.0 
0.0 0.0 0.0 
0.0 0.0 0.0 
0.0 0.0 0.0 
0.0 0.0 0.0 
0.0 0.0 0.0 
0.0 0.0 0.0 
0.0 0.0 0.0 
0.0 0.0 0.0 
0.0 0.0 0.0 
0.0 0.0 0.0 
0.0 0.0 0.0 
0.0 0.0 0.0 
0.0 0.0 0.0 
0.0 0.0 0.0 
0.0 0.0 0.0 
0.0 0.0 0.0 
0.0 0.0 0.0 
0.0 0.0 0.0 
0.0 0.0 0.0 
0.0 0.0 0.0 
0.0 0.0 0.0 
0.0 0.0 0.0 
0.0 0.0 0.0 
0.0 0.0 0.0 
0.0 0.0 0.0 
0.0 0.0 0.0 
0.0 0.0 0.0 
0.0 0.0 0.0 
0.0 0.0 0.0 
0.0 0.0 0.0 
0.0 0.0 0.0 
0.0 0.0 0.0 
0.0 0.0 0.0 
0.0 0.0 0.0 
0.0 0.0 0.0 
0.0 0.0 0.0 
0.0 0.0 0.0 
0.0 0.0 0.0 
0.0 0.0 0.0 
0.0 0.0 0.0 
0.0 0.0 0.0 
0.0 0.0 0.0 
0.0 0.0 0.0 
0.0 0.0 0.0 
0.0 0.0 0.0 
0.0 0.0 0.0 
0.0 0.0 0.0 
0.0 0.0 0.0 
0.0 0.0 0.0 
0.0 0.0 0.0 
0.0 0.0 0.0 
0.0 0.0 0.0 
0.0 0.0 0.0 
0.0 0.0 0.0 
0.0 0.0 0.0 
0.0 0.0 0.0 
0.0 0.0 0.0 
0.0 0.0 0.0 
0.0 0.0 0.0 
0.0 0.0 0.0 
0.0 0.0 0.0 
0.0 0.0 0.0 
0.0 0.0 0.0 
0.0 0.0 0.0 
0.0 0.0 0.0 
0.0 0.0 0.0 
0.0 0.0 0.0 
0.0 0.0 0.0 
0.0 0.0 0.0 
0.0 0.0 0.0 
0.0 0.0 0.0 
0.0 0.0 0.0 
0.0 0.0 0.0 
0.0 0.0 0.0 
0.0 0.0 0.0 
0.0 0.0 0.0 
0.0 0.0 0.0 
0.0 0.0 0.0 
0.0 0.0 0.0 
0.0 0.0 0.0 
0.0 0.0 0.0 
0.0 0.0 0.0 
0.0 0.0 0.0 
0.0 0.0 0.0 
0.0 0.0 0.0 
0.0 0.0 0.0 
0.0 0.0 0.0 
0.0 0.0 0.0 
0.0 0.0 0.0 
0.0 0.0 0.0 
0.0 0.0 0.0 
0.0 0.0 0.0 
0.0 0.0 0.0 
0.0 0.0 0.0 
0.0 0.0 0.0 
0.0 0.0 0.0 
0.0 0.0 0.0 
0.0 0.0 0.0 
0.0 0.0 0.0 
0.0 0.0 0.0 
0.0 0.0 0.0 
0.0 0.0 0.0 
0.0 0.0 0.0 
0.0 0.0 0.0 
0.0 0.0 0.0 
0.0 0.0 0.0 
0.0 0.0 0.0 
0.0 0.0 0.0 
0.0 0.0 0.0 
0.0 0.0 0.0 
0.0 0.0 0.0 
0.0 0.0 0.0 
0.0 0.0 0.0 
0.0 0.0 0.0 
0.0 0.0 0.0 
0.0 0.0 0.0 
0.0 0.0 0.0 
0.0 0.0 0.0 
0.0 0.0 0.0 
0.0 0.0 0.0 
0.0 0.0 0.0 
0.0 0.0 0.0 
0.0 0.0 0.0 
0.0 0.0 0.0 
0.0 0.0 0.0 
0.0 0.0 0.0 
0.0 0.0 0.0 
0.0 0.0 0.0 
0.0 0.0 0.0 
0.0 0.0 0.0 
0.0 0.0 0.0 
0.0 0.0 0.0 
0.0 0.0 0.0 
0.0 0.0 0.0 
0.0 0.0 0.0 
0.0 0.0 0.0 
0.0 0.0 0.0 
0.0 0.0 0.0 
0.0 0.0 0.0 
0.0 0.0 0.0 
0.0 0.0 0.0 
0.0 0.0 0.0 
0.0 0.0 0.0 
0.0 0.0 0.0 
0.0 0.0 0.0 
0.0 0.0 0.0 
0.0 0.0 0.0 
0.0 0.0 0.0 
0.0 0.0 0.0 
0.0 0.0 0.0 
0.0 0.0 0.0 
0.0 0.0 0.0 
0.0 0.0 0.0 
0.0 0.0 0.0 
0.0 0.0 0.0 
0.0 0.0 0.0 
0.0 0.0 0.0 
0.0 0.0 0.0 
0.0 0.0 0.0 
0.0 0.0 0.0 
0.0 0.0 0.0 
0.0 0.0 0.0 
0.0 0.0 0.0 
0.0 0.0 0.0 
0.0 0.0 0.0 
0.0 0.0 0.0 
0.0 0.0 0.0 
0.0 0.0 0.0 
0.0 0.0 0.0 
0.0 0.0 0.0 
0.0 0.0 0.0 
0.0 0.0 0.0 
0.0 0.0 0.0 
0.0 0.0 0.0 
0.0 0.0 0.0 
0.0 0.0 0.0 
0.0 0.0 0.0 
0.0 0.0 0.0 
0.0 0.0 0.0 
0.0 0.0 0.0 
0.0 0.0 0.0 
0.0 0.0 0.0 
0.0 0.0 0.0 
0.0 0.0 0.0 
0.0 0.0 0.0 
0.0 0.0 0.0 
0.0 0.0 0.0 
0.0 0.0 0.0 
0.0 0.0 0.0 
0.0 0.0 0.0 
0.0 0.0 0.0 
0.0 0.0 0.0 
0.0 0.0 0.0 
0.0 0.0 0.0 
0.0 0.0 0.0 
0.0 0.0 0.0 
0.0 0.0 0.0 
0.0 0.0 0.0 
0.0 0.0 0.0 
0.0 0.0 0.0 
0.0 0.0 0.0 
0.0 0.0 0.0 
0.0 0.0 0.0 
0.0 0.0 0.0 
0.0 0.0 0.0 
0.0 0.0 0.0 
0.0 0.0 0.0 
0.0 0.0 0.0 
0.0 0.0 0.0 
0.0 0.0 0.0 
0.0 0.0 0.0 
0.0 0.0 0.0 
0.0 0.0 0.0 
0.0 0.0 0.0 
0.0 0.0 0.0 
0.0 0.0 0.0 
0.0 0.0 0.0 
0.0 0.0 0.0 
0.0 0.0 0.0 
0.0 0.0 0.0 
0.0 0.0 0.0 
0.0 0.0 0.0 
0.0 0.0 0.0 
0.0 0.0 0.0 
0.0 0.0 0.0 
0.0 0.0 0.0 
0.0 0.0 0.0 
0.0 0.0 0.0 
0.0 0.0 0.0 
0.0 0.0 0.0 
0.0 0.0 0.0 
0.0 0.0 0.0 
0.0 0.0 0.0 
0.0 0.0 0.0 
0.0 0.0 0.0 
0.0 0.0 0.0 
0.0 0.0 0.0 
0.0 0.0 0.0 
0.0 0.0 0.0 
0.0 0.0 0.0 
0.0 0.0 0.0 
0.0 0.0 0.0 
0.0 0.0 0.0 
0.0 0.0 0.0 
0.0 0.0 0.0 
0.0 0.0 0.0 
0.0 0.0 0.0 
0.0 0.0 0.0 
0.0 0.0 0.0 
0.0 0.0 0.0 
0.0 0.0 0.0 
0.0 0.0 0.0 
0.0 0.0 0.0 
0.0 0.0 0.0 
0.0 0.0 0.0 
0.0 0.0 0.0 
0.0 0.0 0.0 
0.0 0.0 0.0 
0.0 0.0 0.0 
0.0 0.0 0.0 
0.0 0.0 0.0 
0.0 0.0 0.0 
0.0 0.0 0.0 
0.0 0.0 0.0 
0.0 0.0 0.0 
0.0 0.0 0.0 
0.0 0.0 0.0 
0.0 0.0 0.0 
0.0 0.0 0.0 
0.0 0.0 0.0 
0.0 0.0 0.0 
0.0 0.0 0.0 
0.0 0.0 0.0 
0.0 0.0 0.0 
0.0 0.0 0.0 
0.0 0.0 0.0 
0.0 0.0 0.0 
0.0 0.0 0.0 
0.0 0.0 0.0 
0.0 0.0 0.0 
0.0 0.0 0.0 
0.0 0.0 0.0 
0.0 0.0 0.0 
0.0 0.0 0.0 
0.0 0.0 0.0 
0.0 0.0 0.0 
0.0 0.0 0.0 
0.0 0.0 0.0 
0.0 0.0 0.0 
0.0 0.0 0.0 
0.0 0.0 0.0 
0.0 0.0 0.0 
0.0 0.0 0.0 
0.0 0.0 0.0 
0.0 0.0 0.0 
0.0 0.0 0.0 
0.0 0.0 0.0 
0.0 0.0 0.0 
0.0 0.0 0.0 
0.0 0.0 0.0 
0.0 0.0 0.0 
0.0 0.0 0.0 
0.0 0.0 0.0 
0.0 0.0 0.0 
0.0 0.0 0.0 
0.0 0.0 0.0 
0.0 0.0 0.0 
0.0 0.0 0.0 
0.0 0.0 0.0 
0.0 0.0 0.0 
0.0 0.0 0.0 
0.0 0.0 0.0 
0.0 0.0 0.0 
0.0 0.0 0.0 
0.0 0.0 0.0 
0.0 0.0 0.0 
0.0 0.0 0.0 
0.0 0.0 0.0 
0.0 0.0 0.0 
0.0 0.0 0.0 
0.0 0.0 0.0 
0.0 0.0 0.0 
0.0 0.0 0.0 
0.0 0.0 0.0 
0.0 0.0 0.0 
0.0 0.0 0.0 
0.0 0.0 0.0 
0.0 0.0 0.0 
0.0 0.0 0.0 
0.0 0.0 0.0 
0.0 0.0 0.0 
0.0 0.0 0.0 
0.0 0.0 0.0 
0.0 0.0 0.0 
0.0 0.0 0.0 
0.0 0.0 0.0 
0.0 0.0 0.0 
0.0 0.0 0.0 
0.0 0.0 0.0 
0.0 0.0 0.0 
0.0 0.0 0.0 
0.0 0.0 0.0 
0.0 0.0 0.0 
0.0 0.0 0.0 
0.0 0.0 0.0 
0.0 0.0 0.0 
0.0 0.0 0.0 
0.0 0.0 0.0 
0.0 0.0 0.0 
0.0 0.0 0.0 
0.0 0.0 0.0 
0.0 0.0 0.0 
0.0 0.0 0.0 
0.0 0.0 0.0 
0.0 0.0 0.0 
0.0 0.0 0.0 
0.0 0.0 0.0 
0.0 0.0 0.0 
0.0 0.0 0.0 
0.0 0.0 0.0 
0.0 0.0 0.0 
0.0 0.0 0.0 
0.0 0.0 0.0 
0.0 0.0 0.0 
0.0 0.0 0.0 
0.0 0.0 0.0 
0.0 0.0 0.0 
0.0 0.0 0.0 
0.0 0.0 0.0 
0.0 0.0 0.0 
0.0 0.0 0.0 
0.0 0.0 0.0 
0.0 0.0 0.0 
0.0 0.0 0.0 
0.0 0.0 0.0 
0.0 0.0 0.0 
0.0 0.0 0.0 
0.0 0.0 0.0 
0.0 0.0 0.0 
0.0 0.0 0.0 
0.0 0.0 0.0 
0.0 0.0 0.0 
0.0 0.0 0.0 
0.0 0.0 0.0 
0.0 0.0 0.0 
0.0 0.0 0.0 
0.0 0.0 0.0 
0.0 0.0 0.0 
0.0 0.0 0.0 
0.0 0.0 0.0 
0.0 0.0 0.0 
0.0 0.0 0.0 
0.0 0.0 0.0 
0.0 0.0 0.0 
0.0 0.0 0.0 
0.0 0.0 0.0 
0.0 0.0 0.0 
0.0 0.0 0.0 
0.0 0.0 0.0 
0.0 0.0 0.0 
0.0 0.0 0.0 
0.0 0.0 0.0 
0.0 0.0 0.0 
0.0 0.0 0.0 
0.0 0.0 0.0 
0.0 0.0 0.0 
0.0 0.0 0.0 
0.0 0.0 0.0 
0.0 0.0 0.0 
0.0 0.0 0.0 
0.0 0.0 0.0 
0.0 0.0 0.0 
0.0 0.0 0.0 
0.0 0.0 0.0 
0.0 0.0 0.0 
0.0 0.0 0.0 
0.0 0.0 0.0 
0.0 0.0 0.0 
0.0 0.0 0.0 
0.0 0.0 0.0 
0.0 0.0 0.0 
0.0 0.0 0.0 
0.0 0.0 0.0 
0.0 0.0 0.0 
0.0 0.0 0.0 
0.0 0.0 0.0 
0.0 0.0 0.0 
0.0 0.0 0.0 
0.0 0.0 0.0 
0.0 0.0 0.0 
0.0 0.0 0.0 
0.0 0.0 0.0 
0.0 0.0 0.0 
0.0 0.0 0.0 
0.0 0.0 0.0 
0.0 0.0 0.0 
0.0 0.0 0.0 
0.0 0.0 0.0 
0.0 0.0 0.0 
0.0 0.0 0.0 
0.0 0.0 0.0 
0.0 0.0 0.0 
0.0 0.0 0.0 
0.0 0.0 0.0 
0.0 0.0 0.0 
0.0 0.0 0.0 
0.0 0.0 0.0 
0.0 0.0 0.0 
0.0 0.0 0.0 
0.0 0.0 0.0 
0.0 0.0 0.0 
0.0 0.0 0.0 
0.0 0.0 0.0 
0.0 0.0 0.0 
0.0 0.0 0.0 
0.0 0.0 0.0 
0.0 0.0 0.0 
0.0 0.0 0.0 
0.0 0.0 0.0 
0.0 0.0 0.0 
0.0 0.0 0.0 
0.0 0.0 0.0 
0.0 0.0 0.0 
0.0 0.0 0.0 
0.0 0.0 0.0 
0.0 0.0 0.0 
0.0 0.0 0.0 
0.0 0.0 0.0 
0.0 0.0 0.0 
0.0 0.0 0.0 
0.0 0.0 0.0 
0.0 0.0 0.0 
0.0 0.0 0.0 
0.0 0.0 0.0 
0.0 0.0 0.0 
0.0 0.0 0.0 
0.0 0.0 0.0 
0.0 0.0 0.0 
0.0 0.0 0.0 
0.0 0.0 0.0 
0.0 0.0 0.0 
0.0 0.0 0.0 
0.0 0.0 0.0 
0.0 0.0 0.0 
0.0 0.0 0.0 
0.0 0.0 0.0 
0.0 0.0 0.0 
0.0 0.0 0.0 
0.0 0.0 0.0 
0.0 0.0 0.0 
0.0 0.0 0.0 
0.0 0.0 0.0 
0.0 0.0 0.0 
0.0 0.0 0.0 
0.0 0.0 0.0 
0.0 0.0 0.0 
0.0 0.0 0.0 
0.0 0.0 0.0 
0.0 0.0 0.0 
0.0 0.0 0.0 
0.0 0.0 0.0 
0.0 0.0 0.0 
0.0 0.0 0.0 
0.0 0.0 0.0 
0.0 0.0 0.0 
0.0 0.0 0.0 
0.0 0.0 0.0 
0.0 0.0 0.0 
0.0 0.0 0.0 
0.0 0.0 0.0 
0.0 0.0 0.0 
0.0 0.0 0.0 
0.0 0.0 0.0 
0.0 0.0 0.0 
0.0 0.0 0.0 
0.0 0.0 0.0 
0.0 0.0 0.0 
0.0 0.0 0.0 
0.0 0.0 0.0 
0.0 0.0 0.0 
0.0 0.0 0.0 
0.0 0.0 0.0 
0.0 0.0 0.0 
0.0 0.0 0.0 
0.0 0.0 0.0 
0.0 0.0 0.0 
0.0 0.0 0.0 
0.0 0.0 0.0 
0.0 0.0 0.0 
0.0 0.0 0.0 
0.0 0.0 0.0 
0.0 0.0 0.0 
0.0 0.0 0.0 
0.0 0.0 0.0 
0.0 0.0 0.0 
0.0 0.0 0.0 
0.0 0.0 0.0 
0.0 0.0 0.0 
0.0 0.0 0.0 
0.0 0.0 0.0 
0.0 0.0 0.0 
0.0 0.0 0.0 
0.0 0.0 0.0 
0.0 0.0 0.0 
0.0 0.0 0.0 
0.0 0.0 0.0 
0.0 0.0 0.0 
0.0 0.0 0.0 
0.0 0.0 0.0 
0.0 0.0 0.0 
0.0 0.0 0.0 
0.0 0.0 0.0 
0.0 0.0 0.0 
0.0 0.0 0.0 
0.0 0.0 0.0 
0.0 0.0 0.0 
0.0 0.0 0.0 
0.0 0.0 0.0 
0.0 0.0 0.0 
0.0 0.0 0.0 
0.0 0.0 0.0 
0.0 0.0 0.0 
0.0 0.0 0.0 
0.0 0.0 0.0 
0.0 0.0 0.0 
0.0 0.0 0.0 
0.0 0.0 0.0 
0.0 0.0 0.0 
0.0 0.0 0.0 
0.0 0.0 0.0 
0.0 0.0 0.0 
0.0 0.0 0.0 
0.0 0.0 0.0 
0.0 0.0 0.0 
0.0 0.0 0.0 
0.0 0.0 0.0 
0.0 0.0 0.0 
0.0 0.0 0.0 
0.0 0.0 0.0 
0.0 0.0 0.0 
0.0 0.0 0.0 
0.0 0.0 0.0 
0.0 0.0 0.0 
0.0 0.0 0.0 
0.0 0.0 0.0 
0.0 0.0 0.0 
0.0 0.0 0.0 
0.0 0.0 0.0 
0.0 0.0 0.0 
0.0 0.0 0.0 
0.0 0.0 0.0 
0.0 0.0 0.0 
0.0 0.0 0.0 
0.0 0.0 0.0 
0.0 0.0 0.0 
0.0 0.0 0.0 
0.0 0.0 0.0 
0.0 0.0 0.0 
0.0 0.0 0.0 
0.0 0.0 0.0 
0.0 0.0 0.0 
0.0 0.0 0.0 
0.0 0.0 0.0 
0.0 0.0 0.0 
0.0 0.0 0.0 
0.0 0.0 0.0 
0.0 0.0 0.0 
0.0 0.0 0.0 
0.0 0.0 0.0 
0.0 0.0 0.0 
0.0 0.0 0.0 
0.0 0.0 0.0 
0.0 0.0 0.0 
0.0 0.0 0.0 
0.0 0.0 0.0 
0.0 0.0 0.0 
0.0 0.0 0.0 
0.0 0.0 0.0 
0.0 0.0 0.0 
0.0 0.0 0.0 
0.0 0.0 0.0 
0.0 0.0 0.0 
0.0 0.0 0.0 
0.0 0.0 0.0 
0.0 0.0 0.0 
0.0 0.0 0.0 
0.0 0.0 0.0 
0.0 0.0 0.0 
0.0 0.0 0.0 
0.0 0.0 0.0 
0.0 0.0 0.0 
0.0 0.0 0.0 
0.0 0.0 0.0 
0.0 0.0 0.0 
0.0 0.0 0.0 
0.0 0.0 0.0 
0.0 0.0 0.0 
0.0 0.0 0.0 
0.0 0.0 0.0 
0.0 0.0 0.0 
0.0 0.0 0.0 
0.0 0.0 0.0 
0.0 0.0 0.0 
0.0 0.0 0.0 
0.0 0.0 0.0 
0.0 0.0 0.0 
0.0 0.0 0.0 
0.0 0.0 0.0 
0.0 0.0 0.0 
0.0 0.0 0.0 
0.0 0.0 0.0 
0.0 0.0 0.0 
0.0 0.0 0.0 
0.0 0.0 0.0 
0.0 0.0 0.0 
0.0 0.0 0.0 
0.0 0.0 0.0 
0.0 0.0 0.0 
0.0 0.0 0.0 
0.0 0.0 0.0 
0.0 0.0 0.0 
0.0 0.0 0.0 
0.0 0.0 0.0 
0.0 0.0 0.0 
0.0 0.0 0.0 
0.0 0.0 0.0 
0.0 0.0 0.0 
0.0 0.0 0.0 
0.0 0.0 0.0 
0.0 0.0 0.0 
0.0 0.0 0.0 
0.0 0.0 0.0 
0.0 0.0 0.0 
0.0 0.0 0.0 
0.0 0.0 0.0 
0.0 0.0 0.0 
0.0 0.0 0.0 
0.0 0.0 0.0 
0.0 0.0 0.0 
0.0 0.0 0.0 
0.0 0.0 0.0 
0.0 0.0 0.0 
0.0 0.0 0.0 
0.0 0.0 0.0 
0.0 0.0 0.0 
0.0 0.0 0.0 
0.0 0.0 0.0 
0.0 0.0 0.0 
0.0 0.0 0.0 
0.0 0.0 0.0 
0.0 0.0 0.0 
0.0 0.0 0.0 
0.0 0.0 0.0 
0.0 0.0 0.0 
0.0 0.0 0.0 
0.0 0.0 0.0 
0.0 0.0 0.0 
0.0 0.0 0.0 
0.0 0.0 0.0 
0.0 0.0 0.0 
0.0 0.0 0.0 
0.0 0.0 0.0 
0.0 0.0 0.0 
0.0 0.0 0.0 
0.0 0.0 0.0 
0.0 0.0 0.0 
0.0 0.0 0.0 
0.0 0.0 0.0 
0.0 0.0 0.0 
0.0 0.0 0.0 
0.0 0.0 0.0 
0.0 0.0 0.0 
0.0 0.0 0.0 
0.0 0.0 0.0 
0.0 0.0 0.0 
0.0 0.0 0.0 
0.0 0.0 0.0 
0.0 0.0 0.0 
0.0 0.0 0.0 
0.0 0.0 0.0 
0.0 0.0 0.0 
0.0 0.0 0.0 
0.0 0.0 0.0 
0.0 0.0 0.0 
0.0 0.0 0.0 
0.0 0.0 0.0 
0.0 0.0 0.0 
0.0 0.0 0.0 
0.0 0.0 0.0 
0.0 0.0 0.0 
0.0 0.0 0.0 
0.0 0.0 0.0 
0.0 0.0 0.0 
0.0 0.0 0.0 
0.0 0.0 0.0 
0.0 0.0 0.0 
0.0 0.0 0.0 
0.0 0.0 0.0 
0.0 0.0 0.0 
0.0 0.0 0.0 
0.0 0.0 0.0 
0.0 0.0 0.0 
0.0 0.0 0.0 
0.0 0.0 0.0 
0.0 0.0 0.0 
0.0 0.0 0.0 
0.0 0.0 0.0 
0.0 0.0 0.0 
0.0 0.0 0.0 
0.0 0.0 0.0 
0.0 0.0 0.0 
0.0 0.0 0.0 
0.0 0.0 0.0 
0.0 0.0 0.0 
0.0 0.0 0.0 
0.0 0.0 0.0 
0.0 0.0 0.0 
0.0 0.0 0.0 
0.0 0.0 0.0 
0.0 0.0 0.0 
0.0 0.0 0.0 
0.0 0.0 0.0 
0.0 0.0 0.0 
0.0 0.0 0.0 
0.0 0.0 0.0 
0.0 0.0 0.0 
0.0 0.0 0.0 
0.0 0.0 0.0 
0.0 0.0 0.0 
0.0 0.0 0.0 
0.0 0.0 0.0 
0.0 0.0 0.0 
0.0 0.0 0.0 
0.0 0.0 0.0 
0.0 0.0 0.0 
0.0 0.0 0.0 
0.0 0.0 0.0 
0.0 0.0 0.0 
0.0 0.0 0.0 
0.0 0.0 0.0 
0.0 0.0 0.0 
0.0 0.0 0.0 
0.0 0.0 0.0 
0.0 0.0 0.0 
0.0 0.0 0.0 
0.0 0.0 0.0 
0.0 0.0 0.0 
0.0 0.0 0.0 
0.0 0.0 0.0 
0.0 0.0 0.0 
0.0 0.0 0.0 
0.0 0.0 0.0 
0.0 0.0 0.0 
0.0 0.0 0.0 
0.0 0.0 0.0 
0.0 0.0 0.0 
0.0 0.0 0.0 
0.0 0.0 0.0 
0.0 0.0 0.0 
0.0 0.0 0.0 
0.0 0.0 0.0 
0.0 0.0 0.0 
0.0 0.0 0.0 
0.0 0.0 0.0 
0.0 0.0 0.0 
0.0 0.0 0.0 
0.0 0.0 0.0 
0.0 0.0 0.0 
0.0 0.0 0.0 
0.0 0.0 0.0 
0.0 0.0 0.0 
0.0 0.0 0.0 
0.0 0.0 0.0 
0.0 0.0 0.0 
0.0 0.0 0.0 
0.0 0.0 0.0 
0.0 0.0 0.0 
0.0 0.0 0.0 
0.0 0.0 0.0 
0.0 0.0 0.0 
0.0 0.0 0.0 
0.0 0.0 0.0 
0.0 0.0 0.0 
0.0 0.0 0.0 
0.0 0.0 0.0 
0.0 0.0 0.0 
0.0 0.0 0.0 
0.0 0.0 0.0 
0.0 0.0 0.0 
0.0 0.0 0.0 
0.0 0.0 0.0 
0.0 0.0 0.0 
0.0 0.0 0.0 
0.0 0.0 0.0 
0.0 0.0 0.0 
0.0 0.0 0.0 
0.0 0.0 0.0 
0.0 0.0 0.0 
0.0 0.0 0.0 
0.0 0.0 0.0 
0.0 0.0 0.0 
0.0 0.0 0.0 
0.0 0.0 0.0 
0.0 0.0 0.0 
0.0 0.0 0.0 
0.0 0.0 0.0 
0.0 0.0 0.0 
0.0 0.0 0.0 
0.0 0.0 0.0 
0.0 0.0 0.0 
0.0 0.0 0.0 
0.0 0.0 0.0 
0.0 0.0 0.0 
0.0 0.0 0.0 
0.0 0.0 0.0 
0.0 0.0 0.0 
0.0 0.0 0.0 
0.0 0.0 0.0 
0.0 0.0 0.0 
0.0 0.0 0.0 
0.0 0.0 0.0 
0.0 0.0 0.0 
0.0 0.0 0.0 
0.0 0.0 0.0 
0.0 0.0 0.0 
0.0 0.0 0.0 
0.0 0.0 0.0 
0.0 0.0 0.0 
0.0 0.0 0.0 
0.0 0.0 0.0 
0.0 0.0 0.0 
0.0 0.0 0.0 
0.0 0.0 0.0 
0.0 0.0 0.0 
0.0 0.0 0.0 
0.0 0.0 0.0 
0.0 0.0 0.0 
0.0 0.0 0.0 
0.0 0.0 0.0 
0.0 0.0 0.0 
0.0 0.0 0.0 
0.0 0.0 0.0 
0.0 0.0 0.0 
0.0 0.0 0.0 
0.0 0.0 0.0 
0.0 0.0 0.0 
0.0 0.0 0.0 
0.0 0.0 0.0 
0.0 0.0 0.0 
0.0 0.0 0.0 
0.0 0.0 0.0 
0.0 0.0 0.0 
0.0 0.0 0.0 
0.0 0.0 0.0 
0.0 0.0 0.0 
0.0 0.0 0.0 
0.0 0.0 0.0 
0.0 0.0 0.0 
0.0 0.0 0.0 
0.0 0.0 0.0 
0.0 0.0 0.0 
0.0 0.0 0.0 
0.0 0.0 0.0 
0.0 0.0 0.0 
0.0 0.0 0.0 
0.0 0.0 0.0 
0.0 0.0 0.0 
0.0 0.0 0.0 
0.0 0.0 0.0 
0.0 0.0 0.0 
0.0 0.0 0.0 
0.0 0.0 0.0 
0.0 0.0 0.0 
0.0 0.0 0.0 
0.0 0.0 0.0 
0.0 0.0 0.0 
0.0 0.0 0.0 
0.0 0.0 0.0 
0.0 0.0 0.0 
0.0 0.0 0.0 
0.0 0.0 0.0 
0.0 0.0 0.0 
0.0 0.0 0.0 
0.0 0.0 0.0 
0.0 0.0 0.0 
0.0 0.0 0.0 
0.0 0.0 0.0 
0.0 0.0 0.0 
0.0 0.0 0.0 
0.0 0.0 0.0 
0.0 0.0 0.0 
0.0 0.0 0.0 
0.0 0.0 0.0 
0.0 0.0 0.0 
0.0 0.0 0.0 
0.0 0.0 0.0 
0.0 0.0 0.0 
0.0 0.0 0.0 
0.0 0.0 0.0 
0.0 0.0 0.0 
0.0 0.0 0.0 
0.0 0.0 0.0 
0.0 0.0 0.0 
0.0 0.0 0.0 
0.0 0.0 0.0 
0.0 0.0 0.0 
0.0 0.0 0.0 
0.0 0.0 0.0 
0.0 0.0 0.0 
0.0 0.0 0.0 
0.0 0.0 0.0 
0.0 0.0 0.0 
0.0 0.0 0.0 
0.0 0.0 0.0 
0.0 0.0 0.0 
0.0 0.0 0.0 
0.0 0.0 0.0 
0.0 0.0 0.0 
0.0 0.0 0.0 
0.0 0.0 0.0 
0.0 0.0 0.0 
0.0 0.0 0.0 
0.0 0.0 0.0 
0.0 0.0 0.0 
0.0 0.0 0.0 
0.0 0.0 0.0 
0.0 0.0 0.0 
0.0 0.0 0.0 
0.0 0.0 0.0 
0.0 0.0 0.0 
0.0 0.0 0.0 
0.0 0.0 0.0 
0.0 0.0 0.0 
0.0 0.0 0.0 
0.0 0.0 0.0 
0.0 0.0 0.0 
0.0 0.0 0.0 
0.0 0.0 0.0 
0.0 0.0 0.0 
0.0 0.0 0.0 
0.0 0.0 0.0 
0.0 0.0 0.0 
0.0 0.0 0.0 
0.0 0.0 0.0 
0.0 0.0 0.0 
0.0 0.0 0.0 
0.0 0.0 0.0 
0.0 0.0 0.0 
0.0 0.0 0.0 
0.0 0.0 0.0 
0.0 0.0 0.0 
0.0 0.0 0.0 
0.0 0.0 0.0 
0.0 0.0 0.0 
0.0 0.0 0.0 
0.0 0.0 0.0 
0.0 0.0 0.0 
0.0 0.0 0.0 
0.0 0.0 0.0 
0.0 0.0 0.0 
0.0 0.0 0.0 
0.0 0.0 0.0 
0.0 0.0 0.0 
0.0 0.0 0.0 
0.0 0.0 0.0 
0.0 0.0 0.0 
0.0 0.0 0.0 
0.0 0.0 0.0 
0.0 0.0 0.0 
0.0 0.0 0.0 
0.0 0.0 0.0 
0.0 0.0 0.0 
0.0 0.0 0.0 
0.0 0.0 0.0 
0.0 0.0 0.0 
0.0 0.0 0.0 
0.0 0.0 0.0 
0.0 0.0 0.0 
0.0 0.0 0.0 
0.0 0.0 0.0 
0.0 0.0 0.0 
0.0 0.0 0.0 
0.0 0.0 0.0 
0.0 0.0 0.0 
0.0 0.0 0.0 
0.0 0.0 0.0 
0.0 0.0 0.0 
0.0 0.0 0.0 
0.0 0.0 0.0 
0.0 0.0 0.0 
0.0 0.0 0.0 
0.0 0.0 0.0 
0.0 0.0 0.0 
0.0 0.0 0.0 
0.0 0.0 0.0 
0.0 0.0 0.0 
0.0 0.0 0.0 
0.0 0.0 0.0 
0.0 0.0 0.0 
0.0 0.0 0.0 
0.0 0.0 0.0 
0.0 0.0 0.0 
0.0 0.0 0.0 
0.0 0.0 0.0 
0.0 0.0 0.0 
0.0 0.0 0.0 
0.0 0.0 0.0 
0.0 0.0 0.0 
0.0 0.0 0.0 
0.0 0.0 0.0 
0.0 0.0 0.0 
0.0 0.0 0.0 
0.0 0.0 0.0 
0.0 0.0 0.0 
0.0 0.0 0.0 
0.0 0.0 0.0 
0.0 0.0 0.0 
0.0 0.0 0.0 
0.0 0.0 0.0 
0.0 0.0 0.0 
0.0 0.0 0.0 
0.0 0.0 0.0 
0.0 0.0 0.0 
0.0 0.0 0.0 
0.0 0.0 0.0 
0.0 0.0 0.0 
0.0 0.0 0.0 
0.0 0.0 0.0 
0.0 0.0 0.0 
0.0 0.0 0.0 
0.0 0.0 0.0 
0.0 0.0 0.0 
0.0 0.0 0.0 
0.0 0.0 0.0 
0.0 0.0 0.0 
0.0 0.0 0.0 
0.0 0.0 0.0 
0.0 0.0 0.0 
0.0 0.0 0.0 
0.0 0.0 0.0 
0.0 0.0 0.0 
0.0 0.0 0.0 
0.0 0.0 0.0 
0.0 0.0 0.0 
0.0 0.0 0.0 
0.0 0.0 0.0 
0.0 0.0 0.0 
0.0 0.0 0.0 
0.0 0.0 0.0 
0.0 0.0 0.0 
0.0 0.0 0.0 
0.0 0.0 0.0 
0.0 0.0 0.0 
0.0 0.0 0.0 
0.0 0.0 0.0 
0.0 0.0 0.0 
0.0 0.0 0.0 
0.0 0.0 0.0 
0.0 0.0 0.0 
0.0 0.0 0.0 
0.0 0.0 0.0 
0.0 0.0 0.0 
0.0 0.0 0.0 
0.0 0.0 0.0 
0.0 0.0 0.0 
0.0 0.0 0.0 
0.0 0.0 0.0 
0.0 0.0 0.0 
0.0 0.0 0.0 
0.0 0.0 0.0 
0.0 0.0 0.0 
0.0 0.0 0.0 
0.0 0.0 0.0 
0.0 0.0 0.0 
0.0 0.0 0.0 
0.0 0.0 0.0 
0.0 0.0 0.0 
0.0 0.0 0.0 
0.0 0.0 0.0 
0.0 0.0 0.0 
0.0 0.0 0.0 
0.0 0.0 0.0 
0.0 0.0 0.0 
0.0 0.0 0.0 
0.0 0.0 0.0 
0.0 0.0 0.0 
0.0 0.0 0.0 
0.0 0.0 0.0 
0.0 0.0 0.0 
0.0 0.0 0.0 
0.0 0.0 0.0 
0.0 0.0 0.0 
0.0 0.0 0.0 
0.0 0.0 0.0 
0.0 0.0 0.0 
0.0 0.0 0.0 
0.0 0.0 0.0 
0.0 0.0 0.0 
0.0 0.0 0.0 
0.0 0.0 0.0 
0.0 0.0 0.0 
0.0 0.0 0.0 
0.0 0.0 0.0 
0.0 0.0 0.0 
0.0 0.0 0.0 
0.0 0.0 0.0 
0.0 0.0 0.0 
0.0 0.0 0.0 
0.0 0.0 0.0 
0.0 0.0 0.0 
0.0 0.0 0.0 
0.0 0.0 0.0 
0.0 0.0 0.0 
0.0 0.0 0.0 
0.0 0.0 0.0 
0.0 0.0 0.0 
0.0 0.0 0.0 
0.0 0.0 0.0 
0.0 0.0 0.0 
0.0 0.0 0.0 
0.0 0.0 0.0 
0.0 0.0 0.0 
0.0 0.0 0.0 
0.0 0.0 0.0 
0.0 0.0 0.0 
0.0 0.0 0.0 
0.0 0.0 0.0 
0.0 0.0 0.0 
0.0 0.0 0.0 
0.0 0.0 0.0 
0.0 0.0 0.0 
0.0 0.0 0.0 
0.0 0.0 0.0 
0.0 0.0 0.0 
0.0 0.0 0.0 
0.0 0.0 0.0 
0.0 0.0 0.0 
0.0 0.0 0.0 
0.0 0.0 0.0 
0.0 0.0 0.0 
0.0 0.0 0.0 
0.0 0.0 0.0 
0.0 0.0 0.0 
0.0 0.0 0.0 
0.0 0.0 0.0 
0.0 0.0 0.0 
0.0 0.0 0.0 
0.0 0.0 0.0 
0.0 0.0 0.0 
0.0 0.0 0.0 
0.0 0.0 0.0 
0.0 0.0 0.0 
0.0 0.0 0.0 
0.0 0.0 0.0 
0.0 0.0 0.0 
0.0 0.0 0.0 
0.0 0.0 0.0 
0.0 0.0 0.0 
0.0 0.0 0.0 
0.0 0.0 0.0 
0.0 0.0 0.0 
0.0 0.0 0.0 
0.0 0.0 0.0 
0.0 0.0 0.0 
0.0 0.0 0.0 
0.0 0.0 0.0 
0.0 0.0 0.0 
0.0 0.0 0.0 
0.0 0.0 0.0 
0.0 0.0 0.0 
0.0 0.0 0.0 
0.0 0.0 0.0 
0.0 0.0 0.0 
0.0 0.0 0.0 
0.0 0.0 0.0 
0.0 0.0 0.0 
0.0 0.0 0.0 
0.0 0.0 0.0 
0.0 0.0 0.0 
0.0 0.0 0.0 
0.0 0.0 0.0 
0.0 0.0 0.0 
0.0 0.0 0.0 
0.0 0.0 0.0 
0.0 0.0 0.0 
0.0 0.0 0.0 
0.0 0.0 0.0 
0.0 0.0 0.0 
0.0 0.0 0.0 
0.0 0.0 0.0 
0.0 0.0 0.0 
0.0 0.0 0.0 
0.0 0.0 0.0 
0.0 0.0 0.0 
0.0 0.0 0.0 
0.0 0.0 0.0 
0.0 0.0 0.0 
0.0 0.0 0.0 
0.0 0.0 0.0 
0.0 0.0 0.0 
0.0 0.0 0.0 
0.0 0.0 0.0 
0.0 0.0 0.0 
0.0 0.0 0.0 
0.0 0.0 0.0 
0.0 0.0 0.0 
0.0 0.0 0.0 
0.0 0.0 0.0 
0.0 0.0 0.0 
0.0 0.0 0.0 
0.0 0.0 0.0 
0.0 0.0 0.0 
0.0 0.0 0.0 
0.0 0.0 0.0 
0.0 0.0 0.0 
0.0 0.0 0.0 
0.0 0.0 0.0 
0.0 0.0 0.0 
0.0 0.0 0.0 
0.0 0.0 0.0 
0.0 0.0 0.0 
0.0 0.0 0.0 
0.0 0.0 0.0 
0.0 0.0 0.0 
0.0 0.0 0.0 
0.0 0.0 0.0 
0.0 0.0 0.0 
0.0 0.0 0.0 
0.0 0.0 0.0 
0.0 0.0 0.0 
0.0 0.0 0.0 
0.0 0.0 0.0 
0.0 0.0 0.0 
0.0 0.0 0.0 
0.0 0.0 0.0 
0.0 0.0 0.0 
0.0 0.0 0.0 
0.0 0.0 0.0 
0.0 0.0 0.0 
0.0 0.0 0.0 
0.0 0.0 0.0 
0.0 0.0 0.0 
0.0 0.0 0.0 
0.0 0.0 0.0 
0.0 0.0 0.0 
0.0 0.0 0.0 
0.0 0.0 0.0 
0.0 0.0 0.0 
0.0 0.0 0.0 
0.0 0.0 0.0 
0.0 0.0 0.0 
0.0 0.0 0.0 
0.0 0.0 0.0 
0.0 0.0 0.0 
0.0 0.0 0.0 
0.0 0.0 0.0 
0.0 0.0 0.0 
0.0 0.0 0.0 
0.0 0.0 0.0 
0.0 0.0 0.0 
0.0 0.0 0.0 
0.0 0.0 0.0 
0.0 0.0 0.0 
0.0 0.0 0.0 
0.0 0.0 0.0 
0.0 0.0 0.0 
0.0 0.0 0.0 
0.0 0.0 0.0 
0.0 0.0 0.0 
0.0 0.0 0.0 
0.0 0.0 0.0 
0.0 0.0 0.0 
0.0 0.0 0.0 
0.0 0.0 0.0 
0.0 0.0 0.0 
0.0 0.0 0.0 
0.0 0.0 0.0 
0.0 0.0 0.0 
0.0 0.0 0.0 
0.0 0.0 0.0 
0.0 0.0 0.0 
0.0 0.0 0.0 
0.0 0.0 0.0 
0.0 0.0 0.0 
0.0 0.0 0.0 
0.0 0.0 0.0 
0.0 0.0 0.0 
0.0 0.0 0.0 
0.0 0.0 0.0 
0.0 0.0 0.0 
0.0 0.0 0.0 
0.0 0.0 0.0 
0.0 0.0 0.0 
0.0 0.0 0.0 
0.0 0.0 0.0 
0.0 0.0 0.0 
0.0 0.0 0.0 
0.0 0.0 0.0 
0.0 0.0 0.0 
0.0 0.0 0.0 
0.0 0.0 0.0 
0.0 0.0 0.0 
0.0 0.0 0.0 
0.0 0.0 0.0 
0.0 0.0 0.0 
0.0 0.0 0.0 
0.0 0.0 0.0 
0.0 0.0 0.0 
0.0 0.0 0.0 
0.0 0.0 0.0 
0.0 0.0 0.0 
0.0 0.0 0.0 
0.0 0.0 0.0 
0.0 0.0 0.0 
0.0 0.0 0.0 
0.0 0.0 0.0 
0.0 0.0 0.0 
0.0 0.0 0.0 
0.0 0.0 0.0 
0.0 0.0 0.0 
0.0 0.0 0.0 
0.0 0.0 0.0 
0.0 0.0 0.0 
0.0 0.0 0.0 
0.0 0.0 0.0 
0.0 0.0 0.0 
0.0 0.0 0.0 
0.0 0.0 0.0 
0.0 0.0 0.0 
0.0 0.0 0.0 
0.0 0.0 0.0 
0.0 0.0 0.0 
0.0 0.0 0.0 
0.0 0.0 0.0 
0.0 0.0 0.0 
0.0 0.0 0.0 
0.0 0.0 0.0 
0.0 0.0 0.0 
0.0 0.0 0.0 
0.0 0.0 0.0 
0.0 0.0 0.0 
0.0 0.0 0.0 
0.0 0.0 0.0 
0.0 0.0 0.0 
0.0 0.0 0.0 
0.0 0.0 0.0 
0.0 0.0 0.0 
0.0 0.0 0.0 
0.0 0.0 0.0 
0.0 0.0 0.0 
0.0 0.0 0.0 
0.0 0.0 0.0 
0.0 0.0 0.0 
0.0 0.0 0.0 
0.0 0.0 0.0 
0.0 0.0 0.0 
0.0 0.0 0.0 
0.0 0.0 0.0 
0.0 0.0 0.0 
0.0 0.0 0.0 
0.0 0.0 0.0 
0.0 0.0 0.0 
0.0 0.0 0.0 
0.0 0.0 0.0 
0.0 0.0 0.0 
0.0 0.0 0.0 
0.0 0.0 0.0 
0.0 0.0 0.0 
0.0 0.0 0.0 
0.0 0.0 0.0 
0.0 0.0 0.0 
0.0 0.0 0.0 
0.0 0.0 0.0 
0.0 0.0 0.0 
0.0 0.0 0.0 
0.0 0.0 0.0 
0.0 0.0 0.0 
0.0 0.0 0.0 
0.0 0.0 0.0 
0.0 0.0 0.0 
0.0 0.0 0.0 
0.0 0.0 0.0 
0.0 0.0 0.0 
0.0 0.0 0.0 
0.0 0.0 0.0 
0.0 0.0 0.0 
0.0 0.0 0.0 
0.0 0.0 0.0 
0.0 0.0 0.0 
0.0 0.0 0.0 
0.0 0.0 0.0 
0.0 0.0 0.0 
0.0 0.0 0.0 
0.0 0.0 0.0 
0.0 0.0 0.0 
0.0 0.0 0.0 
0.0 0.0 0.0 
0.0 0.0 0.0 
0.0 0.0 0.0 
0.0 0.0 0.0 
0.0 0.0 0.0 
0.0 0.0 0.0 
0.0 0.0 0.0 
0.0 0.0 0.0 
0.0 0.0 0.0 
0.0 0.0 0.0 
0.0 0.0 0.0 
0.0 0.0 0.0 
0.0 0.0 0.0 
0.0 0.0 0.0 
0.0 0.0 0.0 
0.0 0.0 0.0 
0.0 0.0 0.0 
0.0 0.0 0.0 
0.0 0.0 0.0 
0.0 0.0 0.0 
0.0 0.0 0.0 
0.0 0.0 0.0 
0.0 0.0 0.0 
0.0 0.0 0.0 
0.0 0.0 0.0 
0.0 0.0 0.0 
0.0 0.0 0.0 
0.0 0.0 0.0 
0.0 0.0 0.0 
0.0 0.0 0.0 
0.0 0.0 0.0 
0.0 0.0 0.0 
0.0 0.0 0.0 
0.0 0.0 0.0 
0.0 0.0 0.0 
0.0 0.0 0.0 
0.0 0.0 0.0 
0.0 0.0 0.0 
0.0 0.0 0.0 
0.0 0.0 0.0 
0.0 0.0 0.0 
0.0 0.0 0.0 
0.0 0.0 0.0 
0.0 0.0 0.0 
0.0 0.0 0.0 
0.0 0.0 0.0 
0.0 0.0 0.0 
0.0 0.0 0.0 
0.0 0.0 0.0 
0.0 0.0 0.0 
0.0 0.0 0.0 
0.0 0.0 0.0 
0.0 0.0 0.0 
0.0 0.0 0.0 
0.0 0.0 0.0 
0.0 0.0 0.0 
0.0 0.0 0.0 
0.0 0.0 0.0 
0.0 0.0 0.0 
0.0 0.0 0.0 
0.0 0.0 0.0 
0.0 0.0 0.0 
0.0 0.0 0.0 
0.0 0.0 0.0 
0.0 0.0 0.0 
0.0 0.0 0.0 
0.0 0.0 0.0 
0.0 0.0 0.0 
0.0 0.0 0.0 
0.0 0.0 0.0 
0.0 0.0 0.0 
0.0 0.0 0.0 
0.0 0.0 0.0 
0.0 0.0 0.0 
0.0 0.0 0.0 
0.0 0.0 0.0 
0.0 0.0 0.0 

TENSORS element_materi_stress float
-4.398978925565e+01 4.185815775359e+00 0.0 
4.185815775359e+00 -4.471567933651e+01 0.0 
0.0 0.0 -4.015121280886e+01 
-4.638308369485e+01 4.326986228313e+00 0.0 
4.326986228313e+00 -4.738401879671e+01 0.0 
0.0 0.0 -4.252771865148e+01 
-2.291768195148e+02 1.545543174379e+01 0.0 
1.545543174379e+01 -2.287272622333e+02 0.0 
0.0 0.0 -2.134949746639e+02 
-1.929693475096e+02 1.261291210159e+01 0.0 
1.261291210159e+01 -1.862151969342e+02 0.0 
0.0 0.0 -1.765350830457e+02 
-9.943536228451e+01 8.029743702313e-01 0.0 
8.029743702313e-01 -8.526969329233e+01 0.0 
0.0 0.0 -8.522432238045e+01 
-3.353306993487e+01 -3.292041615822e-04 0.0 
-3.292041615822e-04 -4.107665532106e+01 0.0 
0.0 0.0 -3.353306992051e+01 
-9.483101720457e+01 6.102654650685e-01 0.0 
6.102654650685e-01 -8.116028540232e+01 0.0 
0.0 0.0 -8.113309704573e+01 
-4.722610981657e+01 4.356741292032e+00 0.0 
4.356741292032e+00 -4.875555598399e+01 0.0 
0.0 0.0 -4.356748619440e+01 
-1.029226497286e+02 9.555824905580e-01 0.0 
9.555824905580e-01 -8.838855906528e+01 0.0 
0.0 0.0 -8.832600101418e+01 
-1.759926036024e+02 1.148610551840e+01 0.0 
1.148610551840e+01 -1.689526832348e+02 0.0 
0.0 0.0 -1.604592866988e+02 
-2.119102803244e+02 4.380442196963e-01 0.0 
4.380442196963e-01 -2.426053065935e+02 0.0 
0.0 0.0 -2.119040303322e+02 
-3.171804085243e+01 3.358237074988e+00 0.0 
3.358237074988e+00 -3.360902149096e+01 0.0 
0.0 0.0 -2.917473364308e+01 
-3.099999235921e+02 2.264502983503e+00 0.0 
2.264502983503e+00 -3.531943982582e+02 0.0 
0.0 0.0 -3.098815298226e+02 
-1.265759798321e+02 3.014912442134e+00 0.0 
3.014912442134e+00 -1.102195212848e+02 0.0 
0.0 0.0 -1.096814938455e+02 
-3.184066079855e+02 3.440346330346e+00 0.0 
3.440346330346e+00 -3.623750944307e+02 0.0 
0.0 0.0 -3.181390437997e+02 
-1.703270075491e+02 1.189751950905e+01 0.0 
1.189751950905e+01 -1.726086968790e+02 0.0 
0.0 0.0 -1.595157604717e+02 
-1.076293940464e+02 1.019162340710e+00 0.0 
1.019162340710e+00 -9.256578807085e+01 0.0 
0.0 0.0 -9.249714711611e+01 
-3.523048892521e+01 -5.935724764048e-01 0.0 
-5.935724764048e-01 -4.289720843386e+01 0.0 
0.0 0.0 -3.518480558995e+01 
-6.312651416146e+01 5.151016334321e-02 0.0 
5.151016334321e-02 -7.451272207173e+01 0.0 
0.0 0.0 -6.312628113897e+01 
-6.921873069144e+01 -1.592104744463e-01 0.0 
-1.592104744463e-01 -8.139215951724e+01 0.0 
0.0 0.0 -6.921664880956e+01 
-2.054615925161e+02 1.266495099007e+01 0.0 
1.266495099007e+01 -1.949854832955e+02 0.0 
0.0 0.0 -1.865181302256e+02 
-5.079893384674e+01 4.590468871400e+00 0.0 
4.590468871400e+00 -5.067771227162e+01 0.0 
0.0 0.0 -4.614745406444e+01 
-6.106642295886e+01 5.161605239340e+00 0.0 
5.161605239340e+00 -6.001204052117e+01 0.0 
0.0 0.0 -5.535077346920e+01 
-2.968661189882e+02 1.521932301426e+01 0.0 
1.521932301426e+01 -3.241213549005e+02 0.0 
0.0 0.0 -2.900648416200e+02 
-1.504677073571e+02 6.042344069890e+00 0.0 
6.042344069890e+00 -1.341002685411e+02 0.0 
0.0 0.0 -1.321113194100e+02 
-2.225354352190e+02 1.151313405800e+00 0.0 
1.151313405800e+00 -2.545354863054e+02 0.0 
0.0 0.0 -2.224940661862e+02 
-1.722131801692e+02 5.259262882755e+00 0.0 
5.259262882755e+00 -1.520249033710e+02 0.0 
0.0 0.0 -1.507369735885e+02 
-2.648332825237e+02 1.741537874708e+01 0.0 
1.741537874708e+01 -2.730729496776e+02 0.0 
0.0 0.0 -2.510570705708e+02 
-1.495479999789e+02 6.559840131535e+00 0.0 
6.559840131535e+00 -1.340734497380e+02 0.0 
0.0 0.0 -1.316669125159e+02 
-3.051873717139e+02 1.587362658909e+01 0.0 
1.587362658909e+01 -3.324946320858e+02 0.0 
0.0 0.0 -2.979031500916e+02 
-4.967478480521e+01 -6.511317025580e-01 0.0 
-6.511317025580e-01 -5.922043321430e+01 0.0 
0.0 0.0 -4.963057430139e+01 
-1.958276632451e+01 -1.570385843744e-01 0.0 
-1.570385843744e-01 -2.530554020326e+01 0.0 
0.0 0.0 -1.957846027025e+01 
-2.458800195207e+02 1.645002396231e+01 0.0 
1.645002396231e+01 -2.448559067841e+02 0.0 
0.0 0.0 -2.289099714740e+02 
-2.677215105664e+02 8.989364893195e-01 0.0 
8.989364893195e-01 -3.056323365359e+02 0.0 
0.0 0.0 -2.677002070745e+02 
-3.100234214909e+02 1.160780002789e+01 0.0 
1.160780002789e+01 -3.462272076214e+02 0.0 
0.0 0.0 -3.066213718006e+02 
-3.252681999341e+02 8.675965339937e+00 0.0 
8.675965339937e+00 -3.670098395886e+02 0.0 
0.0 0.0 -3.235367301684e+02 
-3.246804410544e+02 7.946636409822e+00 0.0 
7.946636409822e+00 -3.669572611969e+02 0.0 
0.0 0.0 -3.232360831250e+02 
-3.113353315405e+02 1.885771239322e+01 0.0 
1.885771239322e+01 -3.300451914130e+02 0.0 
0.0 0.0 -2.996396550528e+02 
-8.411174036833e+01 3.970265050817e-01 0.0 
3.970265050817e-01 -7.164561679656e+01 0.0 
0.0 0.0 -7.163298492422e+01 
-8.047774498128e+01 -1.711516061145e-03 0.0 
-1.711516061145e-03 -6.840549276131e+01 0.0 
0.0 0.0 -6.840549251866e+01 
-7.506630533462e+01 5.808763746277e+00 0.0 
5.808763746277e+00 -7.217423645059e+01 0.0 
0.0 0.0 -6.763422446215e+01 
-3.269092035106e+02 1.516840020601e+01 0.0 
1.516840020601e+01 -3.599776415810e+02 0.0 
0.0 0.0 -3.210054911814e+02 
-3.084587928411e+01 3.072939032292e+00 0.0 
3.072939032292e+00 -3.410033745927e+01 0.0 
0.0 0.0 -2.899592146275e+01 
-1.014717460262e+02 3.748702924413e+00 0.0 
3.748702924413e+00 -8.893881940384e+01 0.0 
0.0 0.0 -8.790313672594e+01 
-1.883570521071e+02 5.103545080638e+00 0.0 
5.103545080638e+00 -1.703806075980e+02 0.0 
0.0 0.0 -1.650783371858e+02 
-3.092467638474e+01 3.042917397111e+00 0.0 
3.042917397111e+00 -3.432859804322e+01 0.0 
0.0 0.0 -2.914008921489e+01 
-3.569517326096e+01 -6.547221950602e-01 0.0 
-6.547221950602e-01 -4.340191422936e+01 0.0 
0.0 0.0 -3.563994741895e+01 
-1.699441596054e+02 8.168887685742e+00 0.0 
8.168887685742e+00 -1.616858264393e+02 0.0 
0.0 0.0 -1.520354177944e+02 
-1.905559798310e+01 -4.008349337329e-01 0.0 
-4.008349337329e-01 -2.465831458742e+01 0.0 
0.0 0.0 -1.902706636140e+01 
-1.333696440728e+02 2.666469846479e+00 0.0 
2.666469846479e+00 -1.159711818447e+02 0.0 
0.0 0.0 -1.155716941798e+02 
-6.884979684815e+01 5.558247531539e+00 0.0 
5.558247531539e+00 -6.696374444787e+01 0.0 
0.0 0.0 -6.226909257667e+01 
-7.888262860692e+01 7.690626980169e-02 0.0 
7.690626980169e-02 -9.231454478371e+01 0.0 
0.0 0.0 -7.888218828401e+01 
-6.965899482029e+01 -6.206784816995e-01 0.0 
-6.206784816995e-01 -8.182677350081e+01 0.0 
0.0 0.0 -6.962741596243e+01 
-6.385686805820e+01 5.284000018003e+00 0.0 
5.284000018003e+00 -6.227834180664e+01 0.0 
0.0 0.0 -5.772498455737e+01 
-2.049083479744e+02 1.383556234035e+01 0.0 
1.383556234035e+01 -2.021148112854e+02 0.0 
0.0 0.0 -1.896056906946e+02 
-9.870783013367e+01 1.752424465773e-01 0.0 
1.752424465773e-01 -1.147111746162e+02 0.0 
0.0 0.0 -9.870591139515e+01 
-8.511944058773e+01 -1.654511681864e-01 0.0 
-1.654511681864e-01 -9.935813690980e+01 0.0 
0.0 0.0 -8.511751833351e+01 
-2.656729808510e+02 8.093698650615e-01 0.0 
8.093698650615e-01 -3.033261126661e+02 0.0 
0.0 0.0 -2.656555911374e+02 
-4.825340224824e+01 -4.347277015550e-02 0.0 
-4.347277015550e-02 -5.770820106991e+01 0.0 
0.0 0.0 -4.825320236648e+01 
-2.064418393290e+02 1.390607262596e+01 0.0 
1.390607262596e+01 -2.033668447321e+02 0.0 
0.0 0.0 -1.909135324106e+02 
-1.860262708627e+01 -5.609702770364e-01 0.0 
-5.609702770364e-01 -2.408631595612e+01 0.0 
0.0 0.0 -1.854582925090e+01 
-2.771845404606e+02 1.741179175591e+01 0.0 
1.741179175591e+01 -2.915547496152e+02 0.0 
0.0 0.0 -2.655336098941e+02 
-9.368503014191e+01 6.668302891233e+00 0.0 
6.668302891233e+00 -1.001289946616e+02 0.0 
0.0 0.0 -8.950110711396e+01 
-6.235677309296e+01 -5.396798351252e-01 0.0 
-5.396798351252e-01 -7.358841192714e+01 0.0 
0.0 0.0 -6.233090109259e+01 
-3.102154096217e+02 4.560767756376e+00 0.0 
4.560767756376e+00 -3.526579924417e+02 0.0 
0.0 0.0 -3.097308536251e+02 
-5.709263606823e+01 4.938392067317e+00 0.0 
4.938392067317e+00 -5.630176600178e+01 0.0 
0.0 0.0 -5.174300230302e+01 
-1.473620251353e+01 -4.909111401219e-01 0.0 
-4.909111401219e-01 -1.973708604235e+01 0.0 
0.0 0.0 -1.468846791734e+01 
-2.515752304023e+02 1.680834469207e+01 0.0 
1.680834469207e+01 -2.507995491544e+02 0.0 
0.0 0.0 -2.343745711082e+02 
-5.405189446155e+01 -5.388985948183e-01 0.0 
-5.388985948183e-01 -6.419934959020e+01 0.0 
0.0 0.0 -5.402335555964e+01 
-2.743829659703e+02 1.824335945635e+01 0.0 
1.824335945635e+01 -2.782262369242e+02 0.0 
0.0 0.0 -2.579603149482e+02 
-2.330831798880e+02 1.846630611254e+00 0.0 
1.846630611254e+00 -2.663232833604e+02 0.0 
0.0 0.0 -2.329809062976e+02 
-1.785607817551e+02 1.238987026634e+01 0.0 
1.238987026634e+01 -1.787460709745e+02 0.0 
0.0 0.0 -1.662632097307e+02 
-2.801087604787e+02 1.827409293148e+01 0.0 
1.827409293148e+01 -2.894445538052e+02 0.0 
0.0 0.0 -2.659158053126e+02 
-2.373288282315e+01 -9.013239545212e-02 0.0 
-9.013239545212e-02 -3.000101829512e+01 0.0 
0.0 0.0 -2.373158703596e+01 
-1.044822355500e+02 -6.237519035707e-02 0.0 
-6.237519035707e-02 -1.212390587285e+02 0.0 
0.0 0.0 -1.044820033693e+02 
-2.148774985883e+02 1.304417110598e+01 0.0 
1.304417110598e+01 -2.034075432591e+02 0.0 
0.0 0.0 -1.948932974833e+02 
-2.497337904905e+02 1.641704286869e+01 0.0 
1.641704286869e+01 -2.450682350140e+02 0.0 
0.0 0.0 -2.308190602578e+02 
-2.230579097148e+01 1.745235999866e+00 0.0 
1.745235999866e+00 -2.720205538526e+01 0.0 
0.0 0.0 -2.174739694405e+01 
-4.999890530060e+01 1.361368369845e-02 0.0 
1.361368369845e-02 -5.968076683116e+01 0.0 
0.0 0.0 -4.999888615841e+01 
-2.667319294078e+01 2.257402326980e+00 0.0 
2.257402326980e+00 -3.139815809162e+01 0.0 
0.0 0.0 -2.576807866453e+01 
-5.231670631954e+01 -6.187512664470e-01 0.0 
-6.187512664470e-01 -6.221756736878e+01 0.0 
0.0 0.0 -5.227818750499e+01 
-9.819028819233e+01 1.212103537060e+00 0.0 
1.212103537060e+00 -8.427980509352e+01 0.0 
0.0 0.0 -8.417497723851e+01 
-5.733231463831e+01 4.972308425420e+00 0.0 
4.972308425420e+00 -5.684878872999e+01 0.0 
0.0 0.0 -5.211236924439e+01 
-4.175602812316e+01 4.050665445476e+00 0.0 
4.050665445476e+00 -4.220523300307e+01 0.0 
0.0 0.0 -3.792374298676e+01 
-1.126320354302e+02 1.324375656054e+00 0.0 
1.324375656054e+00 -9.707505826723e+01 0.0 
0.0 0.0 -9.696311875573e+01 
-1.021202642903e+02 1.125848906152e+00 0.0 
1.125848906152e+00 -8.772545823577e+01 0.0 
0.0 0.0 -8.763793531308e+01 
-2.414846903611e+02 1.369351000312e+00 0.0 
1.369351000312e+00 -2.759178724174e+02 0.0 
0.0 0.0 -2.414303193780e+02 
-2.583521870080e+02 -2.587432948476e-02 0.0 
-2.587432948476e-02 -2.950916112119e+02 0.0 
0.0 0.0 -2.583521687856e+02 
-1.980807245370e+02 1.315976919776e+01 0.0 
1.315976919776e+01 -1.928644875290e+02 0.0 
0.0 0.0 -1.820568761807e+02 
-1.061595977054e+02 1.317152103866e+00 0.0 
1.317152103866e+00 -9.135471118908e+01 0.0 
0.0 0.0 -9.123844073711e+01 
-1.993464941310e+01 -1.753372848295e-01 0.0 
-1.753372848295e-01 -2.570094655139e+01 0.0 
0.0 0.0 -1.992932280748e+01 
-1.142721491705e+02 4.267026554331e+00 0.0 
4.267026554331e+00 -1.006233388965e+02 0.0 
0.0 0.0 -9.939914036023e+01 
-1.372209652487e+02 1.462497272307e+00 0.0 
1.462497272307e+00 -1.188448223085e+02 0.0 
0.0 0.0 -1.187291549811e+02 
-1.449356994826e+02 1.750198650401e+00 0.0 
1.750198650401e+00 -1.257533606293e+02 0.0 
0.0 0.0 -1.255949800004e+02 
-2.603218440790e+02 1.721839053925e+01 0.0 
1.721839053925e+01 -2.573939668665e+02 0.0 
0.0 0.0 -2.415773936457e+02 
-3.100201409220e+02 1.958865536743e+01 0.0 
1.958865536743e+01 -3.242004644653e+02 0.0 
0.0 0.0 -2.962779765381e+02 
-1.080826267251e+02 1.498086930153e+00 0.0 
1.498086930153e+00 -9.311745219456e+01 0.0 
0.0 0.0 -9.296895980931e+01 
-3.055567102494e+02 1.322910502400e+01 0.0 
1.322910502400e+01 -3.385161524500e+02 0.0 
0.0 0.0 -3.009037451200e+02 
-1.021393977867e+02 2.335055938381e-01 0.0 
2.335055938381e-01 -8.758446630198e+01 0.0 
0.0 0.0 -8.758072112214e+01 
-8.019911912841e+01 6.170790063716e+00 0.0 
6.170790063716e+00 -8.437521998040e+01 0.0 
0.0 0.0 -7.577267766386e+01 
-1.006801931292e+02 6.721030663059e-01 0.0 
6.721030663059e-01 -8.634519105661e+01 0.0 
0.0 0.0 -8.631374816778e+01 
-3.176326429946e+02 3.707684362178e+00 0.0 
3.707684362178e+00 -3.614063521730e+02 0.0 
0.0 0.0 -3.173208190840e+02 
-2.216169285794e+02 1.262275118549e+01 0.0 
1.262275118549e+01 -2.398310686222e+02 0.0 
0.0 0.0 -2.151588910886e+02 
-2.681160203981e+02 1.679674643312e+01 0.0 
1.679674643312e+01 -2.825708387099e+02 0.0 
0.0 0.0 -2.570577484388e+02 
-8.102290546030e+01 5.102320474405e+00 0.0 
5.102320474405e+00 -8.971508231824e+01 0.0 
0.0 0.0 -7.866659440431e+01 
-3.649007839755e+01 -6.921844237938e-01 0.0 
-6.921844237938e-01 -4.428782165708e+01 0.0 
0.0 0.0 -3.642911173997e+01 
-2.930525840666e+02 2.051248667139e+00 0.0 
2.051248667139e+00 -3.340804893430e+02 0.0 
0.0 0.0 -2.929502840401e+02 
-1.655526307873e+02 3.207645231805e+00 0.0 
3.207645231805e+00 -1.446073200003e+02 0.0 
0.0 0.0 -1.441270991083e+02 
-2.106661362795e+01 -4.963919689736e-01 0.0 
-4.963919689736e-01 -2.690196230377e+01 0.0 
0.0 0.0 -2.102468857930e+01 
-3.201840144918e+02 7.074167059323e+00 0.0 
7.074167059323e+00 -3.625011502506e+02 0.0 
0.0 0.0 -3.190327452070e+02 
-1.895920877595e+02 1.271955528924e+01 0.0 
1.271955528924e+01 -1.850669468217e+02 0.0 
0.0 0.0 -1.744102947179e+02 
-1.608654748727e+01 1.675072920339e-02 0.0 
1.675072920339e-02 -2.136434698323e+01 0.0 
0.0 0.0 -1.608649432418e+01 
-1.296251446986e+02 7.226617835421e+00 0.0 
7.226617835421e+00 -1.428782708555e+02 0.0 
0.0 0.0 -1.264468445158e+02 
-9.805888170071e+01 5.717971528932e+00 0.0 
5.717971528932e+00 -8.927997883135e+01 0.0 
0.0 0.0 -8.646092956873e+01 
-1.335099260249e+02 2.345130746693e-01 0.0 
2.345130746693e-01 -1.540311843235e+02 0.0 
0.0 0.0 -1.335072464035e+02 
-7.315903969824e+01 5.533814240960e+00 0.0 
5.533814240960e+00 -7.837155002999e+01 0.0 
0.0 0.0 -6.964846022166e+01 
-9.164111448122e+01 6.530171842425e+00 0.0 
6.530171842425e+00 -9.808246958183e+01 0.0 
0.0 0.0 -8.758058964629e+01 
-3.215661759605e+02 1.188218001957e+01 0.0 
1.188218001957e+01 -3.591919514851e+02 0.0 
0.0 0.0 -3.181279750309e+02 
-1.038634319743e+02 3.923565495676e-01 0.0 
3.923565495676e-01 -8.912295712881e+01 0.0 
0.0 0.0 -8.911252091498e+01 
-8.804409215650e+01 5.996044123696e+00 0.0 
5.996044123696e+00 -9.563748670996e+01 0.0 
0.0 0.0 -8.474378616816e+01 
-5.063907103413e+01 -2.687721151110e-01 0.0 
-2.687721151110e-01 -6.038833820170e+01 0.0 
0.0 0.0 -5.063166702834e+01 
-1.507311855371e+02 5.734460185388e+00 0.0 
5.734460185388e+00 -1.339203567997e+02 0.0 
0.0 0.0 -1.321505549875e+02 
-1.543273294744e+02 3.280956189801e+00 0.0 
3.280956189801e+00 -1.347772407681e+02 0.0 
0.0 0.0 -1.342413120525e+02 
-8.629767113361e+01 5.849790129307e+00 0.0 
5.849790129307e+00 -9.395967014972e+01 0.0 
0.0 0.0 -8.313606012858e+01 
-1.806885004618e+01 3.023198989585e-01 0.0 
3.023198989585e-01 -2.356890544981e+01 0.0 
0.0 0.0 -1.805228242485e+01 
-8.814192387517e+01 6.148209702490e+00 0.0 
6.148209702490e+00 -8.277698485358e+01 0.0 
0.0 0.0 -7.875153924698e+01 
-1.211888850033e+02 1.211014166194e-01 0.0 
1.211014166194e-01 -1.401141422195e+02 0.0 
0.0 0.0 -1.211881101154e+02 
-8.377783794538e+01 6.157709223283e+00 0.0 
6.157709223283e+00 -7.972900428645e+01 0.0 
0.0 0.0 -7.527147338564e+01 
-1.710896560195e+02 1.168533178049e+01 0.0 
1.168533178049e+01 -1.675261181102e+02 0.0 
0.0 0.0 -1.574874945406e+02 
-3.389290564957e+01 1.098236379628e+00 0.0 
1.098236379628e+00 -4.113637107448e+01 0.0 
0.0 0.0 -3.373005503146e+01 
-2.212340489510e+02 9.755030171343e-01 0.0 
9.755030171343e-01 -2.530896426048e+02 0.0 
0.0 0.0 -2.212042044141e+02 
-1.816801270457e+02 1.210699506605e+01 0.0 
1.210699506605e+01 -1.762391224754e+02 0.0 
0.0 0.0 -1.665507383394e+02 
-1.172634031770e+02 8.655824602309e+00 0.0 
8.655824602309e+00 -1.190384740246e+02 0.0 
0.0 0.0 -1.094497307149e+02 
-8.226874276834e+01 6.057214874274e+00 0.0 
6.057214874274e+00 -7.820207149055e+01 0.0 
0.0 0.0 -7.384601702917e+01 
-3.087944458397e+02 1.208900945115e+01 0.0 
1.208900945115e+01 -3.441161970961e+02 0.0 
0.0 0.0 -3.050532029404e+02 
-3.104453141151e+02 2.066442623587e+00 0.0 
2.066442623587e+00 -3.537401989188e+02 0.0 
0.0 0.0 -3.103469075416e+02 
-2.385391583297e+02 1.165527426472e+00 0.0 
1.165527426472e+00 -2.726208302859e+02 0.0 
0.0 0.0 -2.384993460469e+02 
-1.134947988160e+02 8.422831932384e+00 0.0 
8.422831932384e+00 -1.136955506851e+02 0.0 
0.0 0.0 -1.051717447432e+02 
-3.027916749386e+02 1.555916382676e+01 0.0 
1.555916382676e+01 -3.304029801562e+02 0.0 
0.0 0.0 -2.957962789454e+02 
-1.034554383601e+02 7.798665514562e+00 0.0 
7.798665514562e+00 -1.032614835621e+02 0.0 
0.0 0.0 -9.555919250666e+01 
-1.816027316979e+02 1.197742542847e+01 0.0 
1.197742542847e+01 -1.753455760973e+02 0.0 
0.0 0.0 -1.660948680157e+02 
-2.517742650749e+02 1.686993320059e+01 0.0 
1.686993320059e+01 -2.550049889461e+02 0.0 
0.0 0.0 -2.364425316731e+02 
-1.321953029691e+02 4.001058412544e+00 0.0 
4.001058412544e+00 -1.159340042295e+02 0.0 
0.0 0.0 -1.150028696913e+02 
-1.181237476137e+02 1.695840339170e+00 0.0 
1.695840339170e+00 -1.020583199925e+02 0.0 
0.0 0.0 -1.018812612351e+02 
-9.775371793645e+01 7.455563603131e+00 0.0 
7.455563603131e+00 -9.769131505339e+01 0.0 
0.0 0.0 -9.026688760325e+01 
-7.372887833655e+01 5.761886479574e+00 0.0 
5.761886479574e+00 -7.108163322855e+01 0.0 
0.0 0.0 -6.649329227886e+01 
-1.371977042753e+02 9.871315381800e+00 0.0 
9.871315381800e+00 -1.392779747029e+02 0.0 
0.0 0.0 -1.283118761288e+02 
-9.752933866654e+01 5.967537355351e+00 0.0 
5.967537355351e+00 -1.074027988962e+02 0.0 
0.0 0.0 -9.472121201612e+01 
-9.830925830323e+01 5.752639112385e-01 0.0 
5.752639112385e-01 -8.423173352466e+01 0.0 
0.0 0.0 -8.420826506666e+01 
-1.222486029355e+02 6.696471064168e+00 0.0 
6.696471064168e+00 -1.352958516054e+02 0.0 
0.0 0.0 -1.194234092073e+02 
-1.908000756617e+01 -1.475815441136e-01 0.0 
-1.475815441136e-01 -2.473846995100e+01 0.0 
0.0 0.0 -1.907616102363e+01 
-1.010721680471e+02 2.947556014328e-01 0.0 
2.947556014328e-01 -8.664418803846e+01 0.0 
0.0 0.0 -8.663816885670e+01 
-5.086555473781e+01 -3.767664725681e-02 0.0 
-3.767664725681e-02 -6.065969478620e+01 0.0 
0.0 0.0 -5.086540980332e+01 
-9.405703736915e+01 6.134148259983e+00 0.0 
6.134148259983e+00 -8.721524935662e+01 0.0 
0.0 0.0 -8.361259079474e+01 
-3.307775044065e+02 1.719674010305e+01 0.0 
1.719674010305e+01 -3.599683421332e+02 0.0 
0.0 0.0 -3.228173447588e+02 
-8.353191440055e+01 5.331009668498e+00 0.0 
5.331009668498e+00 -9.214428470164e+01 0.0 
0.0 0.0 -8.098515167180e+01 
-2.480485514244e+02 6.871444122516e-01 0.0 
6.871444122516e-01 -2.834215253411e+02 0.0 
0.0 0.0 -2.480352082036e+02 
-3.545407519564e+01 3.553497219186e+00 0.0 
3.553497219186e+00 -3.770583698535e+01 0.0 
0.0 0.0 -3.285236299627e+01 
-2.266393780226e+02 1.299824939013e+01 0.0 
1.299824939013e+01 -2.448542845595e+02 0.0 
0.0 0.0 -2.198754673848e+02 
-8.458012076573e+01 2.515106348233e-01 0.0 
2.515106348233e-01 -7.204586046038e+01 0.0 
0.0 0.0 -7.204081571514e+01 
-1.237582703018e+02 6.276876074492e+00 0.0 
6.276876074492e+00 -1.379560612072e+02 0.0 
0.0 0.0 -1.213812230625e+02 
-2.754099389012e+02 1.822770772653e+00 0.0 
1.822770772653e+00 -3.141824768367e+02 0.0 
0.0 0.0 -2.753244355362e+02 
-5.090918287708e+01 -3.985260874583e-01 0.0 
-3.985260874583e-01 -6.067471550712e+01 0.0 
0.0 0.0 -5.089294623951e+01 
-2.918872224726e+02 2.171642302637e+00 0.0 
2.171642302637e+00 -3.327364736142e+02 0.0 
0.0 0.0 -2.917720973147e+02 
-1.498045132252e+02 9.052551040821e+00 0.0 
9.052551040821e+00 -1.398606299628e+02 0.0 
0.0 0.0 -1.345045086618e+02 
-3.097837227048e+02 6.062306475647e+00 0.0 
6.062306475647e+00 -3.513579016191e+02 0.0 
0.0 0.0 -3.089177604624e+02 
-8.390178860417e+01 1.493386736873e-01 0.0 
1.493386736873e-01 -7.143935743334e+01 0.0 
0.0 0.0 -7.143756814860e+01 
-9.661747539110e+01 5.476170742453e+00 0.0 
5.476170742453e+00 -1.075005908766e+02 0.0 
0.0 0.0 -9.433899448963e+01 
-1.208814742455e+02 7.273840055711e+00 0.0 
7.273840055711e+00 -1.117457668108e+02 0.0 
0.0 0.0 -1.077244391504e+02 
-2.079439370201e+02 5.519948454661e-01 0.0 
5.519948454661e-01 -2.381156884209e+02 0.0 
0.0 0.0 -2.079338416037e+02 
-3.539570751339e+01 3.568515841999e+00 0.0 
3.568515841999e+00 -3.749228738713e+01 0.0 
0.0 0.0 -3.272469414099e+01 
-1.179273346381e+02 5.802788930472e+00 0.0 
5.802788930472e+00 -1.319892009881e+02 0.0 
0.0 0.0 -1.158419977050e+02 
-1.362962814407e+02 1.961149825691e+00 0.0 
1.961149825691e+00 -1.182045213381e+02 0.0 
0.0 0.0 -1.179943733784e+02 
-9.437988028017e+01 4.694348695629e-02 0.0 
4.694348695629e-02 -8.071005321592e+01 0.0 
0.0 0.0 -8.070989200942e+01 
-1.136840482220e+02 6.378710070986e+00 0.0 
6.378710070986e+00 -1.258039251904e+02 0.0 
0.0 0.0 -1.109456461466e+02 
-9.977065601914e+01 6.727067244225e+00 0.0 
6.727067244225e+00 -9.363551639099e+01 0.0 
0.0 0.0 -8.930961487743e+01 
-2.220992828464e+02 1.505015870737e+01 0.0 
1.505015870737e+01 -2.253784367369e+02 0.0 
0.0 0.0 -2.085996560584e+02 
-1.375967064605e+02 1.552328645631e-01 0.0 
1.552328645631e-01 -1.586519596099e+02 0.0 
0.0 0.0 -1.375955620462e+02 
-3.097151929845e+02 2.014549101373e+01 0.0 
2.014549101373e+01 -3.188891914958e+02 0.0 
0.0 0.0 -2.936410845652e+02 
-2.532334489753e+02 1.693069267264e+01 0.0 
1.693069267264e+01 -2.575943218925e+02 0.0 
0.0 0.0 -2.383433653034e+02 
-6.332917474261e+01 5.234481439296e+00 0.0 
5.234481439296e+00 -6.637414263768e+01 0.0 
0.0 0.0 -5.940025948363e+01 
-1.484107300952e+02 5.314091274366e-01 0.0 
5.314091274366e-01 -1.708459776306e+02 0.0 
0.0 0.0 -1.483981500066e+02 
-2.733675473848e+02 1.404286600684e+01 0.0 
1.404286600684e+01 -2.987861526866e+02 0.0 
0.0 0.0 -2.671367217479e+02 
-8.738243716842e+01 6.716658817347e+00 0.0 
6.716658817347e+00 -8.564931902838e+01 0.0 
0.0 0.0 -7.974354982147e+01 
-5.234186331207e+01 4.353571439524e+00 0.0 
4.353571439524e+00 -5.645039538401e+01 0.0 
0.0 0.0 -4.958223350106e+01 
-1.488350071983e+02 8.191609303035e+00 0.0 
8.191609303035e+00 -1.366750888802e+02 0.0 
0.0 0.0 -1.325536576267e+02 
-1.128270862057e+02 6.792008011884e+00 0.0 
6.792008011884e+00 -1.237293337763e+02 0.0 
0.0 0.0 -1.095692420064e+02 
-1.685350906018e+02 1.165883784736e+01 0.0 
1.165883784736e+01 -1.663925056071e+02 0.0 
0.0 0.0 -1.557558449287e+02 
-1.840378027273e+02 1.178534890868e+01 0.0 
1.178534890868e+01 -1.758873583439e+02 0.0 
0.0 0.0 -1.674925410484e+02 
-2.836813190333e+02 9.996491732621e-01 0.0 
9.996491732621e-01 -3.236569123427e+02 0.0 
0.0 0.0 -2.836563369310e+02 
-2.726604213758e+01 2.524337573080e+00 0.0 
2.524337573080e+00 -3.148020651412e+01 0.0 
0.0 0.0 -2.608495226055e+01 
-1.134835401714e+02 4.857959834299e+00 0.0 
4.857959834299e+00 -1.283240822663e+02 0.0 
0.0 0.0 -1.120347528602e+02 
-1.896889070554e+02 1.261654198277e+01 0.0 
1.261654198277e+01 -1.843167846970e+02 0.0 
0.0 0.0 -1.741035413887e+02 
-4.953127653962e+00 -1.621490084539e+00 0.0 
-1.621490084539e+00 -5.605856576791e+00 0.0 
0.0 0.0 -3.314247893900e+00 
-8.897975696126e+01 6.819860694908e+00 0.0 
6.819860694908e+00 -8.730037313947e+01 0.0 
0.0 0.0 -8.126870547578e+01 
-2.568532255988e+02 1.120446285795e+01 0.0 
1.120446285795e+01 -2.850761561612e+02 0.0 
0.0 0.0 -2.529459939149e+02 
-3.354542642579e+01 -1.449259234581e-02 0.0 
-1.449259234581e-02 -4.109055721493e+01 0.0 
0.0 0.0 -3.354539858870e+01 
-2.156856715688e+02 1.442385464489e+01 0.0 
1.442385464489e+01 -2.120566140967e+02 0.0 
0.0 0.0 -1.993336018663e+02 
-1.673659547783e+02 8.522808221988e+00 0.0 
8.522808221988e+00 -1.526674372762e+02 0.0 
0.0 0.0 -1.487628138447e+02 
-1.251725625217e+02 5.265616434247e-01 0.0 
5.265616434247e-01 -1.445864096528e+02 0.0 
0.0 0.0 -1.251582910850e+02 
-2.531843156744e+02 1.143853273701e+01 0.0 
1.143853273701e+01 -2.803645609325e+02 0.0 
0.0 0.0 -2.490112329550e+02 
-1.545518582958e+02 6.130141592521e+00 0.0 
6.130141592521e+00 -1.377299214662e+02 0.0 
0.0 0.0 -1.357330550620e+02 
-1.573028705508e+02 5.490630582694e+00 0.0 
5.490630582694e+00 -1.393093694535e+02 0.0 
0.0 0.0 -1.377662649448e+02 
-3.075865682471e+02 1.587411981448e+01 0.0 
1.587411981448e+01 -3.353847330271e+02 0.0 
0.0 0.0 -3.003865470739e+02 
-1.018470597508e+02 -2.711612017269e-01 0.0 
-2.711612017269e-01 -1.182526200788e+02 0.0 
0.0 0.0 -1.018425790553e+02 
-1.460508234835e+02 1.029888544722e+01 0.0 
1.029888544722e+01 -1.505209445523e+02 0.0 
0.0 0.0 -1.377472628060e+02 
-1.545704268811e+02 9.976637773058e+00 0.0 
9.976637773058e+00 -1.469021383401e+02 0.0 
0.0 0.0 -1.400482536276e+02 
-1.685953662040e+02 8.741685124079e+00 0.0 
8.741685124079e+00 -1.541584183560e+02 0.0 
0.0 0.0 -1.500400750635e+02 
-1.311787721770e+02 8.097308960566e+00 0.0 
8.097308960566e+00 -1.223353161564e+02 0.0 
0.0 0.0 -1.175310975486e+02 
-1.100075047306e+02 6.795362838627e+00 0.0 
6.795362838627e+00 -1.017444383552e+02 0.0 
0.0 0.0 -9.792320330852e+01 
-1.945279186885e+02 1.008052660958e+01 0.0 
1.008052660958e+01 -2.138012877896e+02 0.0 
0.0 0.0 -1.902188975971e+02 
-2.120712119595e+02 1.445259734998e+01 0.0 
1.445259734998e+01 -2.133445868547e+02 0.0 
0.0 0.0 -1.982412847006e+02 
-1.826898651504e+01 -7.160599519752e-01 0.0 
-7.160599519752e-01 -2.363012789109e+01 0.0 
0.0 0.0 -1.817499398189e+01 
-6.127497980762e+01 5.106446500845e+00 0.0 
5.106446500845e+00 -6.429823466244e+01 0.0 
0.0 0.0 -5.746112008874e+01 
-8.056246378370e+01 6.183421738446e+00 0.0 
6.183421738446e+00 -8.481644128520e+01 0.0 
0.0 0.0 -7.615043230652e+01 
-1.225848391285e+02 8.965362253224e+00 0.0 
8.965362253224e+00 -1.249682194289e+02 0.0 
0.0 0.0 -1.147323131299e+02 
-1.929112800138e+02 1.228040579207e+01 0.0 
1.228040579207e+01 -1.843835240687e+02 0.0 
0.0 0.0 -1.756478242872e+02 
-5.189471988873e+01 5.581847656948e-01 0.0 
5.581847656948e-01 -6.175573873903e+01 0.0 
0.0 0.0 -5.186322433361e+01 
-2.493193675331e+02 9.900869745794e+00 0.0 
9.900869745794e+00 -2.783852385814e+02 0.0 
0.0 0.0 -2.462672686054e+02 
-9.163262686454e+01 3.535290282699e-01 0.0 
3.535290282699e-01 -7.829591181897e+01 0.0 
0.0 0.0 -7.828654706349e+01 
-1.181693468803e+02 5.322781203813e+00 0.0 
5.322781203813e+00 -1.330705686647e+02 0.0 
0.0 0.0 -1.164633425457e+02 
-2.407724475051e+02 8.531268797161e+00 0.0 
8.531268797161e+00 -2.703659256090e+02 0.0 
0.0 0.0 -2.384891972754e+02 
-2.193843485614e+01 -9.242046497673e-03 0.0 
-9.242046497673e-03 -2.797626611432e+01 0.0 
0.0 0.0 -2.193842070947e+01 
-1.721133858534e+02 9.458512033309e+00 0.0 
9.458512033309e+00 -1.587389398591e+02 0.0 
0.0 0.0 -1.538424500966e+02 
-1.820545556624e+01 -5.067309762562e-02 0.0 
-5.067309762562e-02 -2.375755291895e+01 0.0 
0.0 0.0 -1.820499311956e+01 
-3.579905631508e+01 -1.833460345946e-02 0.0 
-1.833460345946e-02 -4.363682011410e+01 0.0 
0.0 0.0 -3.579901342582e+01 
-2.788522328468e+01 2.645449946519e+00 0.0 
2.645449946519e+00 -3.189632414759e+01 0.0 
0.0 0.0 -2.657103909532e+01 
-8.854132306434e+01 -3.724478306502e-01 0.0 
-3.724478306502e-01 -1.032083616050e+02 0.0 
0.0 0.0 -8.853187139132e+01 
-1.786628502515e+02 9.911569215263e+00 0.0 
9.911569215263e+00 -1.652029931367e+02 0.0 
0.0 0.0 -1.599524733429e+02 
-8.704055720761e+01 -3.058847465679e-01 0.0 
-3.058847465679e-01 -1.015190734600e+02 0.0 
0.0 0.0 -8.703409772298e+01 
-5.790379736625e+01 3.038759211009e+00 0.0 
3.038759211009e+00 -6.656878317093e+01 0.0 
0.0 0.0 -5.694435751285e+01 
-6.832982614625e+01 -7.559219122184e-01 0.0 
-7.559219122184e-01 -8.029090548898e+01 0.0 
0.0 0.0 -6.828224233695e+01 
-5.744522981539e+01 -3.854100304603e-01 0.0 
-3.854100304603e-01 -6.806438711724e+01 0.0 
0.0 0.0 -5.743126018139e+01 
-2.653807527512e+02 1.282105446427e+01 0.0 
1.282105446427e+01 -2.920283431708e+02 0.0 
0.0 0.0 -2.602139298976e+02 
-1.211255877852e+02 7.873591821980e+00 0.0 
7.873591821980e+00 -1.139024912272e+02 0.0 
0.0 0.0 -1.088516651694e+02 
-3.088728811772e+02 4.719835852872e+00 0.0 
4.719835852872e+00 -3.510622787997e+02 0.0 
0.0 0.0 -3.083513090701e+02 
-2.486781988422e+00 -3.317786404046e-01 0.0 
-3.317786404046e-01 -5.931129024975e+00 0.0 
0.0 0.0 -2.455114381259e+00 
-7.449353228650e+01 3.817968231415e+00 0.0 
3.817968231415e+00 -8.463795276707e+01 0.0 
0.0 0.0 -7.321718378186e+01 
-1.329860359212e+02 6.072703442548e+00 0.0 
6.072703442548e+00 -1.491210545296e+02 0.0 
0.0 0.0 -1.309559002785e+02 
-7.899251420963e+01 6.307048437090e+00 0.0 
6.307048437090e+00 -7.880117105810e+01 0.0 
0.0 0.0 -7.258906861777e+01 
-2.437721111014e+02 9.897519319959e+00 0.0 
9.897519319959e+00 -2.719545929776e+02 0.0 
0.0 0.0 -2.406434809638e+02 
-3.133877155313e+02 6.833041635702e+00 0.0 
6.833041635702e+00 -3.549426499040e+02 0.0 
0.0 0.0 -3.122929720229e+02 
-1.757350722634e+02 1.082334284772e+01 0.0 
1.082334284772e+01 -1.657978153702e+02 0.0 
0.0 0.0 -1.588571189392e+02 
-9.428529863501e+01 3.156022971811e+00 0.0 
3.156022971811e+00 -1.082718701716e+02 0.0 
0.0 0.0 -9.360613193779e+01 
-2.682164702903e+02 1.292657118745e+01 0.0 
1.292657118745e+01 -2.951664153346e+02 0.0 
0.0 0.0 -2.630187052752e+02 
-2.294506537106e+02 5.054372610100e-01 0.0 
5.054372610100e-01 -2.624203527027e+02 0.0 
0.0 0.0 -2.294429069971e+02 
-1.273114638129e+02 9.271535437516e+00 0.0 
9.271535437516e+00 -1.278062519548e+02 0.0 
0.0 0.0 -1.182840224031e+02 
-1.758757081530e+02 9.817920237698e+00 0.0 
9.817920237698e+00 -1.627134938761e+02 0.0 
0.0 0.0 -1.574750185785e+02 
-2.824726369616e+02 1.819211813908e+01 0.0 
1.819211813908e+01 -2.939039221263e+02 0.0 
0.0 0.0 -2.691194113941e+02 
-1.266885511149e+02 5.547112492513e+00 0.0 
5.547112492513e+00 -1.426215758063e+02 0.0 
0.0 0.0 -1.249475521442e+02 
-5.770059854535e+01 3.377215900270e+00 0.0 
3.377215900270e+00 -6.576940343240e+01 0.0 
0.0 0.0 -5.647363326618e+01 
-1.436595889932e+02 8.974329667542e+00 0.0 
8.974329667542e+00 -1.348862180245e+02 0.0 
0.0 0.0 -1.292838293516e+02 
-2.272111856761e+02 1.529475717383e+01 0.0 
1.529475717383e+01 -2.258589038483e+02 0.0 
0.0 0.0 -2.112253496789e+02 
-1.307032672041e+02 9.319729697756e+00 0.0 
9.319729697756e+00 -1.353858006659e+02 0.0 
0.0 0.0 -1.234352211841e+02 
-1.611609323384e+02 6.915467654590e+00 0.0 
6.915467654590e+00 -1.805671255282e+02 0.0 
0.0 0.0 -1.589487540136e+02 
-1.041322117336e+02 5.326754451991e-01 0.0 
5.326754451991e-01 -8.937737466772e+01 0.0 
0.0 0.0 -8.935816915045e+01 
-4.846537111969e+01 -6.768010973889e-01 0.0 
-6.768010973889e-01 -5.784464166695e+01 0.0 
0.0 0.0 -4.841678534265e+01 
-1.469035734851e+02 8.618279934411e+00 0.0 
8.618279934411e+00 -1.362570092783e+02 0.0 
0.0 0.0 -1.314505292236e+02 
-9.633249477455e+01 3.586632661923e+00 0.0 
3.586632661923e+00 -1.101690051987e+02 0.0 
0.0 0.0 -9.545804897664e+01 
-6.720097842961e+01 1.116121868213e+00 0.0 
1.116121868213e+00 -7.889189176465e+01 0.0 
0.0 0.0 -6.709537706712e+01 
-5.351324649138e+01 -7.191868908489e-01 0.0 
-7.191868908489e-01 -6.354224950257e+01 0.0 
0.0 0.0 -5.346193561063e+01 
-1.707439976325e+02 9.375362443249e+00 0.0 
9.375362443249e+00 -1.574185435519e+02 0.0 
0.0 0.0 -1.525795597388e+02 
-1.379219523471e+02 8.996017799216e+00 0.0 
8.996017799216e+00 -1.307330512682e+02 0.0 
0.0 0.0 -1.246399628568e+02 
-1.027942318799e+02 6.342236057571e+00 0.0 
6.342236057571e+00 -1.127712620988e+02 0.0 
0.0 0.0 -9.971371723312e+01 
-1.851429020984e+02 1.020574427795e+01 0.0 
1.020574427795e+01 -1.711958901630e+02 0.0 
0.0 0.0 -1.658086921965e+02 
-1.858652253065e+02 1.203932714353e+01 0.0 
1.203932714353e+01 -1.784130078403e+02 0.0 
0.0 0.0 -1.695363674940e+02 
-1.324245226684e+02 9.496995648263e+00 0.0 
9.496995648263e+00 -1.309357844057e+02 0.0 
0.0 0.0 -1.221540309393e+02 
-3.227504187111e+02 9.792268697908e+00 0.0 
9.792268697908e+00 -3.630538822532e+02 0.0 
0.0 0.0 -3.204972220148e+02 
-1.706489110333e+02 7.159145532785e+00 0.0 
7.159145532785e+00 -1.912134353715e+02 0.0 
0.0 0.0 -1.684020758657e+02 
-1.374436982661e+02 9.610490712068e+00 0.0 
9.610490712068e+00 -1.339244350004e+02 0.0 
0.0 0.0 -1.259138140669e+02 
-1.264737186398e+02 7.530269260879e+00 0.0 
7.530269260879e+00 -1.382811528544e+02 0.0 
0.0 0.0 -1.228087978700e+02 
-1.716523511259e+02 7.786137351732e+00 0.0 
7.786137351732e+00 -1.913749862053e+02 0.0 
0.0 0.0 -1.689490549238e+02 
-8.281183861272e+01 1.712162366998e+00 0.0 
1.712162366998e+00 -9.629925648055e+01 0.0 
0.0 0.0 -8.259788197862e+01 
-1.009554241951e+02 3.028676420070e+00 0.0 
3.028676420070e+00 -8.777896373203e+01 0.0 
0.0 0.0 -8.711614862919e+01 
-1.356341091520e+02 5.293559898611e+00 0.0 
5.293559898611e+00 -1.533202596849e+02 0.0 
0.0 0.0 -1.341707904531e+02 
-1.089800523860e+02 7.203181902961e-01 0.0 
7.203181902961e-01 -1.262576233130e+02 0.0 
0.0 0.0 -1.089500736597e+02 
-1.802643876551e+02 1.093249949678e+01 0.0 
1.093249949678e+01 -1.696008927066e+02 0.0 
0.0 0.0 -1.627692904623e+02 
-7.105448011811e+00 -1.173657847787e+00 0.0 
-1.173657847787e+00 -1.042191994805e+01 0.0 
0.0 0.0 -6.732128105819e+00 
-1.370511068481e+02 7.975239742252e+00 0.0 
7.975239742252e+00 -1.265991149816e+02 0.0 
0.0 0.0 -1.222901498536e+02 
-1.057624751558e+02 3.328810358344e+00 0.0 
3.328810358344e+00 -1.212245314357e+02 0.0 
0.0 0.0 -1.050762724861e+02 
-7.104978005102e+01 3.423499437545e+00 0.0 
3.423499437545e+00 -8.124399343166e+01 0.0 
0.0 0.0 -7.000678535689e+01 
-8.441768299660e+01 1.306610331146e+00 0.0 
1.306610331146e+00 -9.830987390453e+01 0.0 
0.0 0.0 -8.429585990173e+01 
-1.697466798817e+02 1.068143481113e+01 0.0 
1.068143481113e+01 -1.608265264480e+02 0.0 
0.0 0.0 -1.537113997565e+02 
-3.355264818823e+01 -3.366953044670e-01 0.0 
-3.366953044670e-01 -4.106670736624e+01 0.0 
0.0 0.0 -3.353759147643e+01 
-8.720219030990e+01 6.749703364557e+00 0.0 
6.749703364557e+00 -9.008725817094e+01 0.0 
0.0 0.0 -8.174259415977e+01 
-1.831780905836e+02 8.157320675107e+00 0.0 
8.157320675107e+00 -2.042055351200e+02 0.0 
0.0 0.0 -1.803846630243e+02 
-1.560351370100e+02 9.773256411798e+00 0.0 
9.773256411798e+00 -1.471304438085e+02 0.0 
0.0 0.0 -1.408431474383e+02 
-1.581083763294e+02 5.651410556567e+00 0.0 
5.651410556567e+00 -1.401931985943e+02 0.0 
0.0 0.0 -1.385594306272e+02 
-4.546665742852e+01 7.094697484095e-02 0.0 
7.094697484095e-02 -5.455880550633e+01 0.0 
0.0 0.0 -4.546610385562e+01 
-1.063744326023e+02 1.031327530110e+00 0.0 
1.031327530110e+00 -1.232436848028e+02 0.0 
0.0 0.0 -1.063116147383e+02 
-1.014429370073e+02 1.684333835425e-01 0.0 
1.684333835425e-01 -1.178018664308e+02 0.0 
0.0 0.0 -1.014412029819e+02 
-6.851485069642e+01 5.652902164129e+00 0.0 
5.652902164129e+00 -7.042447408386e+01 0.0 
0.0 0.0 -6.373669036442e+01 
-1.698622563925e+02 9.911803316048e+00 0.0 
9.911803316048e+00 -1.582041137923e+02 0.0 
0.0 0.0 -1.525344061487e+02 
-8.591945636900e+01 6.672416469895e+00 0.0 
6.672416469895e+00 -8.876896336041e+01 0.0 
0.0 0.0 -8.052137584421e+01 
-1.350233948973e+02 4.749710388058e+00 0.0 
4.749710388058e+00 -1.532714596241e+02 0.0 
0.0 0.0 -1.338611395271e+02 
-1.266660209857e+02 5.027031212405e+00 0.0 
5.027031212405e+00 -1.433234211472e+02 0.0 
0.0 0.0 -1.252664998598e+02 
-5.234550049333e+01 1.049319335155e-01 0.0 
1.049319335155e-01 -6.232979213424e+01 0.0 
0.0 0.0 -5.234439781172e+01 
-1.463561557989e+02 8.176555343016e+00 0.0 
8.176555343016e+00 -1.606398182949e+02 0.0 
0.0 0.0 -1.426415690901e+02 
-3.747531439795e+01 1.863481385966e+00 0.0 
1.863481385966e+00 -4.454926746782e+01 0.0 
0.0 0.0 -3.701444577774e+01 
-2.604720722549e+02 1.732902612879e+01 0.0 
1.732902612879e+01 -2.592111465564e+02 0.0 
0.0 0.0 -2.425011183521e+02 
-2.503905937222e+02 1.675082896639e+01 0.0 
1.675082896639e+01 -2.499900922036e+02 0.0 
0.0 0.0 -2.334383170726e+02 
-1.563112689155e+02 1.068091789970e+01 0.0 
1.068091789970e+01 -1.633240781240e+02 0.0 
0.0 0.0 -1.485759263055e+02 
-9.021689799367e+01 2.646174586727e+00 0.0 
2.646174586727e+00 -1.040826322584e+02 0.0 
0.0 0.0 -8.972905851423e+01 
-6.712606208321e+01 2.559621942828e+00 0.0 
2.559621942828e+00 -7.779157151112e+01 0.0 
0.0 0.0 -6.654358752608e+01 
-1.676765602450e+02 1.156506082936e+01 0.0 
1.156506082936e+01 -1.650331859632e+02 0.0 
0.0 0.0 -1.547145342394e+02 
-7.905684277201e+01 2.435017983702e+00 0.0 
2.435017983702e+00 -9.153620732896e+01 0.0 
0.0 0.0 -7.859854419673e+01 
-9.828766718942e+01 3.838485763232e-01 0.0 
3.838485763232e-01 -1.142208501633e+02 0.0 
0.0 0.0 -9.827842519958e+01 
-1.449362462823e+02 1.032763987644e+01 0.0 
1.032763987644e+01 -1.447316400000e+02 0.0 
0.0 0.0 -1.345057965818e+02 
-2.201594175105e+02 1.370994281781e+01 0.0 
1.370994281781e+01 -2.100466374156e+02 0.0 
0.0 0.0 -2.004903749872e+02 
-1.120235828613e+02 4.320276664346e+00 0.0 
4.320276664346e+00 -1.273443705179e+02 0.0 
0.0 0.0 -1.108892951114e+02 
-1.988543363981e+02 1.050436800506e+01 0.0 
1.050436800506e+01 -2.179791295102e+02 0.0 
0.0 0.0 -1.942117628703e+02 
-5.414268410377e+01 2.334491850496e+00 0.0 
2.334491850496e+00 -6.315071098925e+01 0.0 
0.0 0.0 -5.357363246784e+01 
-3.144862395550e+02 1.799991689278e+01 0.0 
1.799991689278e+01 -3.375430640773e+02 0.0 
0.0 0.0 -3.046394021706e+02 
-8.050553419875e+01 2.866655536467e+00 0.0 
2.866655536467e+00 -9.279500471838e+01 0.0 
0.0 0.0 -7.986974695820e+01 
-1.540519459205e+02 1.090038088914e+01 0.0 
1.090038088914e+01 -1.563259836446e+02 0.0 
0.0 0.0 -1.442294431041e+02 
-6.069529424737e+01 4.428162244484e-01 0.0 
4.428162244484e-01 -7.172847884765e+01 0.0 
0.0 0.0 -6.067755038004e+01 
-2.030017853348e+02 7.443860344817e+00 0.0 
7.443860344817e+00 -2.282229800405e+02 0.0 
0.0 0.0 -2.009686733752e+02 
-1.418720052496e+02 5.846917019887e+00 0.0 
5.846917019887e+00 -1.597788464078e+02 0.0 
0.0 0.0 -1.401319615302e+02 
-1.055658752241e+02 3.552686829037e-01 0.0 
3.552686829037e-01 -1.224480020885e+02 0.0 
0.0 0.0 -1.055584022325e+02 
-1.299385807317e+02 8.827756241961e+00 0.0 
8.827756241961e+00 -1.244047185515e+02 0.0 
0.0 0.0 -1.179204233486e+02 
-2.589833391477e+02 1.731624227478e+01 0.0 
1.731624227478e+01 -2.603403404557e+02 0.0 
0.0 0.0 -2.423323098122e+02 
-1.204565506174e+02 3.999567719375e+00 0.0 
3.999567719375e+00 -1.373761539077e+02 0.0 
0.0 0.0 -1.195587464888e+02 
-1.827157236385e+02 7.867819881318e+00 0.0 
7.867819881318e+00 -2.041399671811e+02 0.0 
0.0 0.0 -1.801367904280e+02 
-5.030441428110e+01 1.798662921772e+00 0.0 
1.798662921772e+00 -5.928744148108e+01 0.0 
0.0 0.0 -4.995765518052e+01 
-1.372029681005e+02 4.240855464811e+00 0.0 
4.240855464811e+00 -1.205270734982e+02 0.0 
0.0 0.0 -1.195105448509e+02 
-2.332943444133e+02 8.519818159508e+00 0.0 
8.519818159508e+00 -2.617642069626e+02 0.0 
0.0 0.0 -2.309395026375e+02 
-6.268635293154e+01 4.149340519248e+00 0.0 
4.149340519248e+00 -7.003850459589e+01 0.0 
0.0 0.0 -6.081891360918e+01 
-1.446165893835e+02 4.057912343155e+00 0.0 
4.057912343155e+00 -1.268355612871e+02 0.0 
0.0 0.0 -1.259532613789e+02 
-2.680107683134e+02 1.785940469921e+01 0.0 
1.785940469921e+01 -2.715298586619e+02 0.0 
0.0 0.0 -2.518244411090e+02 
-2.554131201583e+02 1.037023243617e+01 0.0 
1.037023243617e+01 -2.847522826521e+02 0.0 
0.0 0.0 -2.521177818468e+02 
-2.587388795872e+02 1.729277468880e+01 0.0 
1.729277468880e+01 -2.595260833704e+02 0.0 
0.0 0.0 -2.418352279718e+02 
-1.514821988258e+02 5.239333777652e+00 0.0 
5.239333777652e+00 -1.339793367623e+02 0.0 
0.0 0.0 -1.325308578171e+02 
-1.854349276809e+02 1.253362150292e+01 0.0 
1.253362150292e+01 -1.815311980287e+02 0.0 
0.0 0.0 -1.707983695484e+02 
-4.514014302028e+01 3.292282819660e+00 0.0 
3.292282819660e+00 -5.106916080391e+01 0.0 
0.0 0.0 -4.367436533736e+01 
-1.157770199462e+02 7.985996195400e+00 0.0 
7.985996195400e+00 -1.105805045146e+02 0.0 
0.0 0.0 -1.047807220787e+02 
-1.604743749789e+02 1.080795925019e+01 0.0 
1.080795925019e+01 -1.552272913088e+02 0.0 
0.0 0.0 -1.467290097810e+02 
-1.436062153042e+02 9.735896473122e+00 0.0 
9.735896473122e+00 -1.382962881235e+02 0.0 
0.0 0.0 -1.308598438933e+02 
-1.264897636178e+02 8.828728519505e+00 0.0 
8.828728519505e+00 -1.329890050987e+02 0.0 
0.0 0.0 -1.203315959769e+02 
-2.762047509674e+02 1.831322007262e+01 0.0 
1.831322007262e+01 -2.814012895858e+02 0.0 
0.0 0.0 -2.603063980760e+02 
-1.584785117337e+02 6.662821141617e+00 0.0 
6.662821141617e+00 -1.418533931180e+02 0.0 
0.0 0.0 -1.395126980963e+02 
-1.239698458289e+02 7.082407263425e+00 0.0 
7.082407263425e+00 -1.137157853832e+02 0.0 
0.0 0.0 -1.100994220114e+02 
-1.221898256241e+02 4.546871626275e+00 0.0 
4.546871626275e+00 -1.387646186563e+02 0.0 
0.0 0.0 -1.210244456909e+02 
-7.353040181915e+01 -4.332843387913e-01 0.0 
-4.332843387913e-01 -8.623676297522e+01 0.0 
0.0 0.0 -7.351564405142e+01 
-1.062959008313e+02 7.105964004185e+00 0.0 
7.105964004185e+00 -9.993836745141e+01 0.0 
0.0 0.0 -9.533258006949e+01 
-7.856350827407e+01 4.553196785641e+00 0.0 
4.553196785641e+00 -8.805517078810e+01 0.0 
0.0 0.0 -7.673252303001e+01 
-9.491554227054e+01 2.722660522032e-01 0.0 
2.722660522032e-01 -8.119402341978e+01 0.0 
0.0 0.0 -8.118862316917e+01 
-1.098723017226e+02 1.131096100828e-01 0.0 
1.131096100828e-01 -1.273280332253e+02 0.0 
0.0 0.0 -1.098715688260e+02 
-1.089707284043e+02 3.881140080551e+00 0.0 
3.881140080551e+00 -1.243421706430e+02 0.0 
0.0 0.0 -1.080463648871e+02 
-1.787095009314e+02 1.063389174614e+01 0.0 
1.063389174614e+01 -1.673814019832e+02 0.0 
0.0 0.0 -1.609971690024e+02 
-7.559628322501e+01 4.265120115820e+00 0.0 
4.265120115820e+00 -8.513221673528e+01 0.0 
0.0 0.0 -7.396700396483e+01 
-1.447804604423e+02 9.876398232118e+00 0.0 
9.876398232118e+00 -1.398820562133e+02 0.0 
0.0 0.0 -1.321557075792e+02 
-1.931091069375e+02 8.242963591413e+00 0.0 
8.242963591413e+00 -2.156383849255e+02 0.0 
0.0 0.0 -1.904152882647e+02 
-1.749588565519e+02 3.422896692031e+00 0.0 
3.422896692031e+00 -1.998856469589e+02 0.0 
0.0 0.0 -1.744973748987e+02 
-2.869682585626e+02 1.874108141344e+01 0.0 
1.874108141344e+01 -2.959110981303e+02 0.0 
0.0 0.0 -2.721725631647e+02 
-9.402430034920e+01 6.963753447888e+00 0.0 
6.963753447888e+00 -9.091380745282e+01 0.0 
0.0 0.0 -8.533374356455e+01 
-9.865113432321e+01 1.204634032728e+00 0.0 
1.204634032728e+00 -1.144567791763e+02 0.0 
0.0 0.0 -9.855984982913e+01 
-1.325935782740e+02 4.541649922097e-01 0.0 
4.541649922097e-01 -1.529800044902e+02 0.0 
0.0 0.0 -1.325834654877e+02 
-5.465498346582e+01 4.504155335428e+00 0.0 
4.504155335428e+00 -5.878850475455e+01 0.0 
0.0 0.0 -5.176604891710e+01 
-6.479996692999e+01 4.352040342960e+00 0.0 
4.352040342960e+00 -7.206817330125e+01 0.0 
0.0 0.0 -6.276424109610e+01 
-2.098360228190e+02 1.381413628854e+01 0.0 
1.381413628854e+01 -2.040402714545e+02 0.0 
0.0 0.0 -1.928233306354e+02 
-1.393934405891e+02 1.001167661481e+01 0.0 
1.001167661481e+01 -1.400956316137e+02 0.0 
0.0 0.0 -1.297267051636e+02 
-8.124216884983e+01 6.437097450222e+00 0.0 
6.437097450222e+00 -8.087798209994e+01 0.0 
0.0 0.0 -7.462040300023e+01 
-1.239301925448e+02 8.673973915696e+00 0.0 
8.673973915696e+00 -1.197235842010e+02 0.0 
0.0 0.0 -1.129015473749e+02 
-3.061432594913e+02 1.909462190984e+01 0.0 
1.909462190984e+01 -3.218244751382e+02 0.0 
0.0 0.0 -2.933421688159e+02 
-2.901446780663e+02 1.741570822723e+01 0.0 
1.741570822723e+01 -3.088027726925e+02 0.0 
0.0 0.0 -2.797167515011e+02 
-1.948361929253e+02 1.285547633616e+01 0.0 
1.285547633616e+01 -1.888840340827e+02 0.0 
0.0 0.0 -1.786646475952e+02 
-1.723123679126e+02 9.678617921361e+00 0.0 
9.678617921361e+00 -1.594794237549e+02 0.0 
0.0 0.0 -1.542835421186e+02 
-1.826937159829e+02 3.378877816598e+00 0.0 
3.378877816598e+00 -2.086877148180e+02 0.0 
0.0 0.0 -1.822616867997e+02 
-9.734117957661e+01 7.149772702951e+00 0.0 
7.149772702951e+00 -1.024190096586e+02 0.0 
0.0 0.0 -9.229291205165e+01 
-8.999928596607e+01 2.188643582292e+00 0.0 
2.188643582292e+00 -1.041723406262e+02 0.0 
0.0 0.0 -8.966900600930e+01 
-1.044560290113e+02 2.890445153740e+00 0.0 
2.890445153740e+00 -1.201095007861e+02 0.0 
0.0 0.0 -1.039393562525e+02 
-1.351610081553e+02 9.725491851265e+00 0.0 
9.725491851265e+00 -1.379106913234e+02 0.0 
0.0 0.0 -1.267136615346e+02 
-2.001518872717e+02 7.210852530484e+00 0.0 
7.210852530484e+00 -2.252324619894e+02 0.0 
0.0 0.0 -1.982265187084e+02 
-1.629770339305e+02 1.138323259983e+00 0.0 
1.138323259983e+00 -1.872171074950e+02 0.0 
0.0 0.0 -1.629236951970e+02 
-1.857872812979e+02 1.179966719290e+01 0.0 
1.179966719290e+01 -1.771661929331e+02 0.0 
0.0 0.0 -1.689143751954e+02 
-1.011697436924e+02 8.554295584674e-01 0.0 
8.554295584674e-01 -1.174011329912e+02 0.0 
0.0 0.0 -1.011247852202e+02 
-1.223003652942e+02 8.245692709257e+00 0.0 
8.245692709257e+00 -1.304765401201e+02 0.0 
0.0 0.0 -1.171849801586e+02 
-1.525223958474e+02 1.063390742438e+01 0.0 
1.063390742438e+01 -1.498723260867e+02 0.0 
0.0 0.0 -1.404812187253e+02 
-1.077157876851e+02 7.429537691422e+00 0.0 
7.429537691422e+00 -1.150671235823e+02 0.0 
0.0 0.0 -1.031023926483e+02 
-2.589887655874e+02 1.729142004643e+01 0.0 
1.729142004643e+01 -2.590871462289e+02 0.0 
0.0 0.0 -2.417464658939e+02 
-2.521222348635e+02 1.684831820611e+01 0.0 
1.684831820611e+01 -2.515086083842e+02 0.0 
0.0 0.0 -2.349643100659e+02 
-2.475299515811e+02 1.632362406345e+01 0.0 
1.632362406345e+01 -2.432916600551e+02 0.0 
0.0 0.0 -2.289502019005e+02 
-1.993030072817e+02 4.569205477700e+00 0.0 
4.569205477700e+00 -2.267992814263e+02 0.0 
0.0 0.0 -1.985636010269e+02 
-1.709448391821e+02 9.449985719320e+00 0.0 
9.449985719320e+00 -1.577726572261e+02 0.0 
0.0 0.0 -1.528401187515e+02 
-6.135650303948e+01 3.722810578221e+00 0.0 
3.722810578221e+00 -6.940950474635e+01 0.0 
0.0 0.0 -5.989920705824e+01 
-1.178200086594e+02 3.548798107501e+00 0.0 
3.548798107501e+00 -1.347926697435e+02 0.0 
0.0 0.0 -1.171078733469e+02 
-6.919652482263e+01 6.786300241752e-01 0.0 
6.786300241752e-01 -8.129065359311e+01 0.0 
0.0 0.0 -6.915856444301e+01 
-9.216631449032e+01 7.123581131697e+00 0.0 
7.123581131697e+00 -9.364903034734e+01 0.0 
0.0 0.0 -8.574561826391e+01 
-1.104995132172e+02 2.308949577332e+00 0.0 
2.308949577332e+00 -9.563724426095e+01 0.0 
0.0 0.0 -9.528679742275e+01 
-1.357182290512e+02 4.100803895650e+00 0.0 
4.100803895650e+00 -1.191005278257e+02 0.0 
0.0 0.0 -1.181436571446e+02 
-2.967703327602e+02 1.651822863248e+01 0.0 
1.651822863248e+01 -3.204147896725e+02 0.0 
0.0 0.0 -2.882795859831e+02 
-1.970872049341e+02 1.338514586125e+01 0.0 
1.338514586125e+01 -1.946582931460e+02 0.0 
0.0 0.0 -1.824326213306e+02 
-1.621583925808e+02 9.562653897262e+00 0.0 
9.562653897262e+00 -1.510956016625e+02 0.0 
0.0 0.0 -1.455797945217e+02 
-1.717751078791e+02 1.160633157478e+01 0.0 
1.160633157478e+01 -1.671864079095e+02 0.0 
0.0 0.0 -1.576498249439e+02 
-7.606923882526e+01 9.498923733311e-01 0.0 
9.498923733311e-01 -8.898878189398e+01 0.0 
0.0 0.0 -7.599977274739e+01 
-3.481914408997e+01 -4.704931819378e-01 0.0 
-4.704931819378e-01 -4.246833831396e+01 0.0 
0.0 0.0 -3.479031326008e+01 
-1.396804098590e+02 7.131507652033e+00 0.0 
7.131507652033e+00 -1.550454589783e+02 0.0 
0.0 0.0 -1.368805880687e+02 
-1.341499967565e+02 8.938136072234e+00 0.0 
8.938136072234e+00 -1.428578857217e+02 0.0 
0.0 0.0 -1.285617528983e+02 
-1.347379522660e+02 7.412512935606e+00 0.0 
7.412512935606e+00 -1.485583067641e+02 0.0 
0.0 0.0 -1.315142310730e+02 
-2.323613997107e+01 1.234297837446e+00 0.0 
1.234297837446e+00 -2.889398655221e+01 0.0 
0.0 0.0 -2.297859308756e+01 
-8.963639984783e+01 4.658111254169e-01 0.0 
4.658111254169e-01 -7.654267171211e+01 0.0 
0.0 0.0 -7.652612133872e+01 
-6.987256612631e+01 -3.677783456630e-01 0.0 
-3.677783456630e-01 -8.211182190608e+01 0.0 
0.0 0.0 -6.986152468714e+01 
-8.597937179014e+01 3.754362844802e+00 0.0 
3.754362844802e+00 -9.804960897911e+01 0.0 
0.0 0.0 -8.490689607854e+01 
-3.543072731058e+02 2.121229458486e+01 0.0 
2.121229458486e+01 -3.756792839793e+02 0.0 
0.0 0.0 -3.412413911702e+02 
-2.070029912232e+02 1.037403093611e+01 0.0 
1.037403093611e+01 -2.279985244071e+02 0.0 
0.0 0.0 -2.027419089006e+02 
-1.383102997369e+02 7.448050437284e+00 0.0 
7.448050437284e+00 -1.263092282107e+02 0.0 
0.0 0.0 -1.227452522371e+02 
-4.862472173748e+01 -6.484111193213e-02 0.0 
-6.484111193213e-02 -5.812722494948e+01 0.0 
0.0 0.0 -4.862427930942e+01 
-1.394221133153e+02 9.665784089185e+00 0.0 
9.665784089185e+00 -1.459127216208e+02 0.0 
0.0 0.0 -1.324713701407e+02 
-1.308142645000e+02 6.504336633387e+00 0.0 
6.504336633387e+00 -1.458230922447e+02 0.0 
0.0 0.0 -1.283877860354e+02 
-1.491116765355e+02 9.749266107693e+00 0.0 
9.749266107693e+00 -1.420264054748e+02 0.0 
0.0 0.0 -1.351960734385e+02 
-2.608047128150e+02 1.743163901729e+01 0.0 
1.743163901729e+01 -2.629007757863e+02 0.0 
0.0 0.0 -2.443896286329e+02 
-1.357902934534e+02 8.953268953786e+00 0.0 
8.953268953786e+00 -1.290273294834e+02 0.0 
0.0 0.0 -1.228382605243e+02 
-1.434538954128e+02 1.017901737299e+01 0.0 
1.017901737299e+01 -1.420808569650e+02 0.0 
0.0 0.0 -1.325652340940e+02 
-1.485361104964e+02 9.620471624203e-01 0.0 
9.620471624203e-01 -1.709265558632e+02 0.0 
0.0 0.0 -1.484948503817e+02 
-1.749213124514e+02 1.044975048029e+01 0.0 
1.044975048029e+01 -1.638511145402e+02 0.0 
0.0 0.0 -1.575610451863e+02 
-1.939928409662e+02 4.624932574073e+00 0.0 
4.624932574073e+00 -2.207178710052e+02 0.0 
0.0 0.0 -1.932151010743e+02 
-2.620943549309e+02 1.750763168714e+01 0.0 
1.750763168714e+01 -2.648605378184e+02 0.0 
0.0 0.0 -2.459152680008e+02 
-2.604142470403e+02 1.739808064088e+01 0.0 
1.739808064088e+01 -2.613758914647e+02 0.0 
0.0 0.0 -2.434903457561e+02 
-2.043633550173e+02 1.395553562530e+01 0.0 
1.395553562530e+01 -2.042898758372e+02 0.0 
0.0 0.0 -1.903710314413e+02 
-2.288104531840e+02 1.545716823809e+01 0.0 
1.545716823809e+01 -2.291228642353e+02 0.0 
0.0 0.0 -2.135087012085e+02 
-1.764825256434e+02 1.158199303655e+01 0.0 
1.158199303655e+01 -1.698011497162e+02 0.0 
0.0 0.0 -1.610876782828e+02 
-1.887809118401e+02 1.119836823747e+01 0.0 
1.119836823747e+01 -1.770172504154e+02 0.0 
0.0 0.0 -1.702499948481e+02 
-2.003266852460e+02 1.355863292188e+01 0.0 
1.355863292188e+01 -1.975805878887e+02 0.0 
0.0 0.0 -1.853256583834e+02 
-1.149613612509e+02 7.901328734723e+00 0.0 
7.901328734723e+00 -1.224030824246e+02 0.0 
0.0 0.0 -1.099486201019e+02 
-1.016950197556e+02 7.423671184988e+00 0.0 
7.423671184988e+00 -1.068245175070e+02 0.0 
0.0 0.0 -9.640554488489e+01 
-1.527161476337e+02 7.772849954939e-01 0.0 
7.772849954939e-01 -1.756813384102e+02 0.0 
0.0 0.0 -1.526898695404e+02 
-2.100275340418e+02 1.325967608046e+01 0.0 
1.325967608046e+01 -2.008905218342e+02 0.0 
0.0 0.0 -1.914343975408e+02 
-2.707092802596e+02 1.800324279894e+01 0.0 
1.800324279894e+01 -2.751125663970e+02 0.0 
0.0 0.0 -2.547735590358e+02 
-1.808325658088e+02 1.086779720455e+01 0.0 
1.086779720455e+01 -1.698034712293e+02 0.0 
0.0 0.0 -1.631311711872e+02 
-1.885912750731e+02 8.991248910840e+00 0.0 
8.991248910840e+00 -2.090519590849e+02 0.0 
0.0 0.0 -1.852016884986e+02 
-2.027280021221e+02 1.212285709104e+01 0.0 
1.212285709104e+01 -1.908638401966e+02 0.0 
0.0 0.0 -1.832995050203e+02 
-1.879782754278e+02 1.218722336598e+01 0.0 
1.218722336598e+01 -1.985316960175e+02 0.0 
0.0 0.0 -1.799744704876e+02 
-1.431186606973e+02 9.102872805985e+00 0.0 
9.102872805985e+00 -1.537787957465e+02 0.0 
0.0 0.0 -1.379001779358e+02 
-9.478548541184e+01 7.282238696358e+00 0.0 
7.282238696358e+00 -9.635491412693e+01 0.0 
0.0 0.0 -8.824580374967e+01 
-6.491536530523e+01 2.193702344879e+00 0.0 
2.193702344879e+00 -7.561351959405e+01 0.0 
0.0 0.0 -6.448301042334e+01 
-1.732472955168e+02 1.182009999555e+01 0.0 
1.182009999555e+01 -1.696998585758e+02 0.0 
0.0 0.0 -1.595211362446e+02 
-1.087724821715e+02 7.146692649806e+00 0.0 
7.146692649806e+00 -1.175944245547e+02 0.0 
0.0 0.0 -1.047851271797e+02 
-2.719111837752e+02 1.785597299965e+01 0.0 
1.785597299965e+01 -2.801815206766e+02 0.0 
0.0 0.0 -2.577178119163e+02 
-1.397172194964e+02 5.853147685793e-01 0.0 
5.853147685793e-01 -1.610160549060e+02 0.0 
0.0 0.0 -1.397011465501e+02 
-1.013272615625e+02 -2.466181035190e-01 0.0 
-2.466181035190e-01 -1.176669360663e+02 0.0 
0.0 0.0 -1.013235401518e+02 
-3.333700678361e+02 1.877121678087e+01 0.0 
1.877121678087e+01 -3.585057610984e+02 0.0 
0.0 0.0 -3.233478868361e+02 
-9.122118566924e+01 4.620444134194e+00 0.0 
4.620444134194e+00 -1.028140946347e+02 0.0 
0.0 0.0 -8.960498957558e+01 
-2.710080952645e+02 1.804773442471e+01 0.0 
1.804773442471e+01 -2.721922229581e+02 0.0 
0.0 0.0 -2.535427158409e+02 
-2.137820897966e+02 1.438743677092e+01 0.0 
1.438743677092e+01 -2.110929409481e+02 0.0 
0.0 0.0 -1.979873867494e+02 
-1.689973407142e+02 1.181172528706e+01 0.0 
1.181172528706e+01 -1.714969182366e+02 0.0 
0.0 0.0 -1.583694686701e+02 
-1.820646915860e+01 -2.501439071770e-01 0.0 
-2.501439071770e-01 -2.373562914028e+01 0.0 
0.0 0.0 -1.819517550317e+01 
-2.964513777806e+02 1.960863611742e+01 0.0 
1.960863611742e+01 -2.985552344520e+02 0.0 
0.0 0.0 -2.778664743044e+02 
-3.339273446535e+02 1.984816908528e+01 0.0 
1.984816908528e+01 -3.551404690575e+02 0.0 
0.0 0.0 -3.220294855614e+02 
-9.677361343588e+01 -1.332071922114e-01 0.0 
-1.332071922114e-01 -1.125274609552e+02 0.0 
0.0 0.0 -9.677248717846e+01 
-2.003061004716e+02 9.186784209127e+00 0.0 
9.186784209127e+00 -2.224459189222e+02 0.0 
0.0 0.0 -1.969906040939e+02 
-2.971589039593e+02 1.926261385136e+01 0.0 
1.926261385136e+01 -3.073637498597e+02 0.0 
0.0 0.0 -2.823343850381e+02 
-4.174763912029e+00 -5.800194896761e-02 0.0 
-5.800194896761e-02 -7.903845470982e+00 0.0 
0.0 0.0 -4.173861970751e+00 
-1.269105656805e+02 8.173813442932e+00 0.0 
8.173813442932e+00 -1.367284565324e+02 0.0 
0.0 0.0 -1.222848914814e+02 
-1.743290124983e+02 1.212749919808e+01 0.0 
1.212749919808e+01 -1.743606559851e+02 0.0 
0.0 0.0 -1.622173247230e+02 
-1.626558904712e+02 1.130579556720e+01 0.0 
1.130579556720e+01 -1.675020976151e+02 0.0 
0.0 0.0 -1.535164491534e+02 
-1.613335328560e+02 1.132922906267e+01 0.0 
1.132922906267e+01 -1.611798919944e+02 0.0 
0.0 0.0 -1.499272229163e+02 
-6.967771760802e+01 2.994006918809e+00 0.0 
2.994006918809e+00 -8.023226276234e+01 0.0 
0.0 0.0 -6.888756212351e+01 
-3.183997846111e+02 2.094607094015e+01 0.0 
2.094607094015e+01 -3.217648236365e+02 0.0 
0.0 0.0 -2.990687665886e+02 
-1.314238663290e+02 4.259491266390e+00 0.0 
4.259491266390e+00 -1.496659979322e+02 0.0 
0.0 0.0 -1.304782987706e+02 
-4.751731705111e+01 -5.826628489232e-01 0.0 
-5.826628489232e-01 -5.679935427328e+01 0.0 
0.0 0.0 -4.748088446053e+01 
-3.107542771867e+02 9.486048397151e+00 0.0 
9.486048397151e+00 -3.496321923585e+02 0.0 
0.0 0.0 -3.085632050403e+02 
-2.003827068898e+01 -2.294468285885e-01 0.0 
-2.294468285885e-01 -2.580997275344e+01 0.0 
0.0 0.0 -2.002916368570e+01 
-1.128022438048e+02 8.253503242618e+00 0.0 
8.253503242618e+00 -1.107995191045e+02 0.0 
0.0 0.0 -1.034868546125e+02 
-4.937273628910e+01 -6.542941419715e-01 0.0 
-6.542941419715e-01 -5.887784516170e+01 0.0 
0.0 0.0 -4.932790867951e+01 
-1.278952240504e+02 8.091198423417e+00 0.0 
8.091198423417e+00 -1.197944341506e+02 0.0 
0.0 0.0 -1.147964485174e+02 
-3.104941677959e+02 1.883330170140e+01 0.0 
1.883330170140e+01 -3.290501493931e+02 0.0 
0.0 0.0 -2.987775315143e+02 
-3.327356066093e+02 2.179717937877e+01 0.0 
2.179717937877e+01 -3.376352827780e+02 0.0 
0.0 0.0 -3.132510257246e+02 
-1.640948370298e+02 1.072896442877e+01 0.0 
1.072896442877e+01 -1.570748413581e+02 0.0 
0.0 0.0 -1.492963157067e+02 
-3.320157231227e+01 -5.937422283974e-01 0.0 
-5.937422283974e-01 -4.060128428119e+01 0.0 
0.0 0.0 -3.315423412781e+01 
-3.598962355117e+01 -4.209172357119e-01 0.0 
-4.209172357119e-01 -4.380407696203e+01 0.0 
0.0 0.0 -3.596701669181e+01 
-4.943646077738e+01 -7.371205192623e-01 0.0 
-7.371205192623e-01 -5.892407407995e+01 0.0 
0.0 0.0 -4.937953329682e+01 
-2.751508630148e+02 9.169627630469e+00 0.0 
9.169627630469e+00 -3.091390103295e+02 0.0 
0.0 0.0 -2.728348198845e+02 
-1.386016390113e+02 2.989719727843e+00 0.0 
2.989719727843e+00 -1.207684425431e+02 0.0 
0.0 0.0 -1.202805658786e+02 
-1.288215012778e+02 6.814259683593e+00 0.0 
6.814259683593e+00 -1.170815923846e+02 0.0 
0.0 0.0 -1.139576322085e+02 
-3.460005991809e+02 2.252695532170e+01 0.0 
2.252695532170e+01 -3.532120422621e+02 0.0 
0.0 0.0 -3.267926199280e+02 
-1.216855923060e+02 1.958106113485e+00 0.0 
1.958106113485e+00 -1.053122992390e+02 0.0 
0.0 0.0 -1.050813831196e+02 
-2.507266932873e+02 1.672594199376e+01 0.0 
1.672594199376e+01 -2.492983198894e+02 0.0 
0.0 0.0 -2.332713238876e+02 
-2.121928784035e+02 1.334327197007e+01 0.0 
1.334327197007e+01 -2.251358235616e+02 0.0 
0.0 0.0 -2.038345544834e+02 
-1.263302762349e+02 3.217909249251e+00 0.0 
3.217909249251e+00 -1.101499511755e+02 0.0 
0.0 0.0 -1.095334685595e+02 
-6.907481628786e+01 4.973332000884e+00 0.0 
4.973332000884e+00 -7.543357782301e+01 0.0 
0.0 0.0 -6.635144403195e+01 
-2.017155796919e+02 9.502631443540e+00 0.0 
9.502631443540e+00 -2.235165881618e+02 0.0 
0.0 0.0 -1.981550674713e+02 
-5.961499695013e+01 8.071184048277e-01 0.0 
8.071184048277e-01 -7.041795596117e+01 0.0 
0.0 0.0 -5.955502784123e+01 
-3.511211921293e+02 2.266088253702e+01 0.0 
2.266088253702e+01 -3.611855451923e+02 0.0 
0.0 0.0 -3.329404757347e+02 
-2.428176264102e+02 1.631584844878e+01 0.0 
1.631584844878e+01 -2.433189433390e+02 0.0 
0.0 0.0 -2.267505111211e+02 
-2.251484577479e+02 1.523598391637e+01 0.0 
1.523598391637e+01 -2.255464128064e+02 0.0 
0.0 0.0 -2.101101521218e+02 
-2.078193393741e+02 4.824451193068e+00 0.0 
4.824451193068e+00 -2.363032707884e+02 0.0 
0.0 0.0 -2.070243866297e+02 
-1.420217362702e+02 5.196900315823e-01 0.0 
5.196900315823e-01 -1.636274697935e+02 0.0 
0.0 0.0 -1.420092432135e+02 
-1.302511119635e+02 8.267435759602e+00 0.0 
8.267435759602e+00 -1.406053958932e+02 0.0 
0.0 0.0 -1.256735989902e+02 
-2.045073111041e+02 4.892272639147e+00 0.0 
4.892272639147e+00 -2.324847477452e+02 0.0 
0.0 0.0 -2.036764959695e+02 
-3.537796528549e+02 2.250918622506e+01 0.0 
2.250918622506e+01 -3.671036440304e+02 0.0 
0.0 0.0 -3.369672869023e+02 
-8.336752422478e+01 3.339995513498e+00 0.0 
3.339995513498e+00 -9.556204112970e+01 0.0 
0.0 0.0 -8.251265130145e+01 
-1.127416687935e+02 9.087427509936e-01 0.0 
9.087427509936e-01 -1.304726499852e+02 0.0 
0.0 0.0 -1.126952158925e+02 
-1.187212052120e+02 8.633690858166e-01 0.0 
8.633690858166e-01 -1.372421158215e+02 0.0 
0.0 0.0 -1.186810455570e+02 
-1.275492576572e+02 3.301602792269e+00 0.0 
3.301602792269e+00 -1.112817235086e+02 0.0 
0.0 0.0 -1.106371793662e+02 
-3.220021354029e+02 1.767587703418e+01 0.0 
1.767587703418e+01 -3.479327479781e+02 0.0 
0.0 0.0 -3.130463149846e+02 
-3.559964230158e+01 -6.073790201792e-01 0.0 
-6.073790201792e-01 -4.331032429174e+01 0.0 
0.0 0.0 -3.555209161708e+01 
-3.564345281275e+02 2.186888376990e+01 0.0 
2.186888376990e+01 -3.752324316060e+02 0.0 
0.0 0.0 -3.420303630301e+02 
-1.105595898019e+02 2.814415419733e-01 0.0 
2.814415419733e-01 -1.280965186396e+02 0.0 
0.0 0.0 -1.105550742477e+02 
-2.823865828085e+02 1.874631504212e+01 0.0 
1.874631504212e+01 -2.839317037407e+02 0.0 
0.0 0.0 -2.643969158660e+02 
-2.223937652796e+02 1.488349501933e+01 0.0 
1.488349501933e+01 -2.193096635824e+02 0.0 
0.0 0.0 -2.058885481615e+02 
-4.646310279555e+00 -5.903374578339e-02 0.0 
-5.903374578339e-02 -8.436591847103e+00 0.0 
0.0 0.0 -4.645391050179e+00 
-1.364892151334e+02 8.199143245618e+00 0.0 
8.199143245618e+00 -1.485839806843e+02 0.0 
0.0 0.0 -1.323485270221e+02 
-2.017911241443e+02 1.124082307175e+01 0.0 
1.124082307175e+01 -1.873479494972e+02 0.0 
0.0 0.0 -1.812088696667e+02 
-3.056331970332e+02 2.016995918440e+01 0.0 
2.016995918440e+01 -3.082266598381e+02 0.0 
0.0 0.0 -2.867183286516e+02 
-1.555763016430e+02 1.052910227992e+01 0.0 
1.052910227992e+01 -1.505157715503e+02 0.0 
0.0 0.0 -1.422171753441e+02 
-2.245851356298e+02 1.371970503300e+01 0.0 
1.371970503300e+01 -2.396434740386e+02 0.0 
0.0 0.0 -2.164644263969e+02 
-4.954639027362e+01 1.550689533081e+00 0.0 
1.550689533081e+00 -5.862071099839e+01 0.0 
0.0 0.0 -4.928871360207e+01 
-3.090492137500e+02 1.743666618725e+01 0.0 
1.743666618725e+01 -3.326738128639e+02 0.0 
0.0 0.0 -2.998004651719e+02 
-1.159261877853e+02 3.033609651501e-01 0.0 
3.033609651501e-01 -1.341589139479e+02 0.0 
0.0 0.0 -1.159211417811e+02 
-1.255789121449e+02 6.377581448636e-01 0.0 
6.377581448636e-01 -1.450314397854e+02 0.0 
0.0 0.0 -1.255580254404e+02 
-2.125134844716e+01 -4.465297038694e-01 0.0 
-4.465297038694e-01 -2.712813210875e+01 0.0 
0.0 0.0 -2.121761387961e+01 
-3.244036467693e+02 2.130571711855e+01 0.0 
2.130571711855e+01 -3.283778634295e+02 0.0 
0.0 0.0 -3.049925733670e+02 
-7.493842036549e+01 1.502688019585e+00 0.0 
1.502688019585e+00 -8.748097010060e+01 0.0 
0.0 0.0 -7.476090001622e+01 
-2.661062381573e+02 1.159229623552e+01 0.0 
1.159229623552e+01 -2.952236794487e+02 0.0 
0.0 0.0 -2.620548089151e+02 
-1.308883114081e+02 2.833047593138e+00 0.0 
2.833047593138e+00 -1.138885566218e+02 0.0 
0.0 0.0 -1.134288539822e+02 
-1.072856012895e+02 -2.502161626864e-01 0.0 
-2.502161626864e-01 -1.243991846645e+02 0.0 
0.0 0.0 -1.072819436833e+02 
-1.170851691173e+02 6.993350248984e-01 0.0 
6.993350248984e-01 -1.354224295677e+02 0.0 
0.0 0.0 -1.170585369926e+02 
-1.493336726765e+02 1.038323570450e+01 0.0 
1.038323570450e+01 -1.461415266279e+02 0.0 
0.0 0.0 -1.372324088974e+02 
-3.485068626956e+02 2.260558689939e+01 0.0 
2.260558689939e+01 -3.570737970898e+02 0.0 
0.0 0.0 -3.297824910047e+02 
-1.399396218501e+02 3.880255442768e-01 0.0 
3.880255442768e-01 -1.612865551156e+02 0.0 
0.0 0.0 -1.399325709962e+02 
-2.328584615635e+02 7.330573369633e+00 0.0 
7.330573369633e+00 -2.626539329903e+02 0.0 
0.0 0.0 -2.311525881719e+02 
-1.644267759734e+02 1.083935041770e+01 0.0 
1.083935041770e+01 -1.737963715255e+02 0.0 
0.0 0.0 -1.573031510063e+02 
-2.036334711525e+02 6.368884303293e+00 0.0 
6.368884303293e+00 -2.301810980440e+02 0.0 
0.0 0.0 -2.021846214336e+02 
-1.244136864215e+02 1.340871430573e+00 0.0 
1.340871430573e+00 -1.435603491817e+02 0.0 
0.0 0.0 -1.243202391290e+02 
-2.160022063523e+02 5.897056068829e+00 0.0 
5.897056068829e+00 -2.447670138251e+02 0.0 
0.0 0.0 -2.148401960593e+02 
-1.376905518555e+02 9.497957626313e+00 0.0 
9.497957626313e+00 -1.445749692283e+02 0.0 
0.0 0.0 -1.310302856119e+02 
-1.829833735505e+02 1.245280174274e+01 0.0 
1.245280174274e+01 -1.892970449064e+02 0.0 
0.0 0.0 -1.732935021507e+02 
-2.211346597960e+02 1.102963461473e+01 0.0 
1.102963461473e+01 -2.433627911250e+02 0.0 
0.0 0.0 -2.165906510154e+02 
-1.583916022315e+02 1.003007589151e+01 0.0 
1.003007589151e+01 -1.696325846002e+02 0.0 
0.0 0.0 -1.525146004916e+02 
-1.390424468913e+02 8.046244756316e-01 0.0 
8.046244756316e-01 -1.602228772196e+02 0.0 
0.0 0.0 -1.390119239564e+02 
-8.753981403895e+01 4.222792845334e+00 0.0 
4.222792845334e+00 -9.917726664691e+01 0.0 
0.0 0.0 -8.616899548841e+01 
-1.309774055966e+02 3.202583629097e-01 0.0 
3.202583629097e-01 -1.511646697783e+02 0.0 
0.0 0.0 -1.309723261754e+02 
-1.996482079995e+02 1.252100167445e+01 0.0 
1.252100167445e+01 -2.124416580890e+02 0.0 
0.0 0.0 -1.919845783464e+02 
-1.746335893299e+02 6.946192891348e+00 0.0 
6.946192891348e+00 -1.961378613194e+02 0.0 
0.0 0.0 -1.725850212763e+02 
-3.118048974198e+02 1.849133478231e+01 0.0 
1.849133478231e+01 -3.322653573217e+02 0.0 
0.0 0.0 -3.009025206484e+02 
-2.148989963732e+02 1.281381278972e+01 0.0 
1.281381278972e+01 -2.025505080052e+02 0.0 
0.0 0.0 -1.945010012967e+02 
-9.228455136156e+01 -4.054102334639e-01 0.0 
-4.054102334639e-01 -1.074347413484e+02 0.0 
0.0 0.0 -9.227371057772e+01 
-3.615057386811e+02 2.253196735655e+01 0.0 
2.253196735655e+01 -3.783375712835e+02 0.0 
0.0 0.0 -3.458692704821e+02 
-2.902621017873e+02 1.665147906416e+01 0.0 
1.665147906416e+01 -3.118894542182e+02 0.0 
0.0 0.0 -2.812211224198e+02 
-1.543735200931e+02 8.012132713428e+00 0.0 
8.012132713428e+00 -1.706058544924e+02 0.0 
0.0 0.0 -1.510850197996e+02 
-1.856039129678e+01 -3.620410622806e-01 0.0 
-3.620410622806e-01 -2.410947016110e+01 0.0 
0.0 0.0 -1.853687018788e+01 
-3.178883635762e+02 1.660248240141e+01 0.0 
1.660248240141e+01 -3.459433477470e+02 0.0 
0.0 0.0 -3.101807928345e+02 
-2.122461237910e+02 1.337873502849e+01 0.0 
1.337873502849e+01 -2.029917205583e+02 0.0 
0.0 0.0 -1.934625968831e+02 
-1.030612995932e+02 -9.649525478591e-02 0.0 
-9.649525478591e-02 -1.196328923629e+02 0.0 
0.0 0.0 -1.030607377270e+02 
-3.549899616928e+02 2.042442313607e+01 0.0 
2.042442313607e+01 -3.798080753924e+02 0.0 
0.0 0.0 -3.435004463605e+02 
-2.244688563149e+02 6.147561461215e+00 0.0 
6.147561461215e+00 -2.542082020456e+02 0.0 
0.0 0.0 -2.232481692389e+02 
-1.086325260774e+02 8.034488811950e+00 0.0 
8.034488811950e+00 -1.121934648758e+02 0.0 
0.0 0.0 -1.021835919897e+02 
-1.558340098945e+02 8.464286307183e+00 0.0 
8.464286307183e+00 -1.430426977620e+02 0.0 
0.0 0.0 -1.388294632544e+02 
-1.680553184882e+02 6.756660892209e+00 0.0 
6.756660892209e+00 -1.887936169144e+02 0.0 
0.0 0.0 -1.660482113281e+02 
-1.911113585937e+02 3.611204492715e+00 0.0 
3.611204492715e+00 -2.181075957112e+02 0.0 
0.0 0.0 -1.906366462827e+02 
-2.109417423257e+02 7.531574856393e+00 0.0 
7.531574856393e+00 -2.372581213744e+02 0.0 
0.0 0.0 -2.089387125265e+02 
-1.613225754280e+02 8.655598536061e+00 0.0 
8.655598536061e+00 -1.479843431051e+02 0.0 
0.0 0.0 -1.437265888824e+02 
-1.258954945184e+02 9.166175421116e+00 0.0 
9.166175421116e+00 -1.256789787102e+02 0.0 
0.0 0.0 -1.166204219208e+02 
-2.296503732828e+02 1.226819817780e+01 0.0 
1.226819817780e+01 -2.506226528907e+02 0.0 
0.0 0.0 -2.239974977971e+02 
-1.108130004689e+02 4.965289165280e-01 0.0 
4.965289165280e-01 -9.528398287619e+01 0.0 
0.0 0.0 -9.526812292720e+01 
-1.555115781295e+02 9.883965508189e-01 0.0 
9.883965508189e-01 -1.788066027834e+02 0.0 
0.0 0.0 -1.554697161726e+02 
-2.126926730351e+02 9.707438967209e+00 0.0 
9.707438967209e+00 -2.360257218686e+02 0.0 
0.0 0.0 -2.091821699673e+02 
-1.248359545714e+02 2.157711198913e-01 0.0 
2.157711198913e-01 -1.442313727749e+02 0.0 
0.0 0.0 -1.248335544470e+02 
-2.134416472466e+02 3.206288831472e+00 0.0 
3.206288831472e+00 -2.436315935109e+02 0.0 
0.0 0.0 -2.131048835377e+02 
-4.997336648091e+00 -7.655963520632e-02 0.0 
-7.655963520632e-02 -8.831907355603e+00 0.0 
0.0 0.0 -4.995808695277e+00 
-9.181273760910e+01 5.093317243928e+00 0.0 
5.093317243928e+00 -1.026171847071e+02 0.0 
0.0 0.0 -8.979027935882e+01 
-1.178599786347e+02 1.676415548100e-01 0.0 
1.676415548100e-01 -1.363513448770e+02 0.0 
0.0 0.0 -1.178584589319e+02 
-1.578510483025e+02 1.066423252889e+00 0.0 
1.066423252889e+00 -1.814365560416e+02 0.0 
0.0 0.0 -1.578029279483e+02 
-1.604090813402e+02 9.040832547564e+00 0.0 
9.040832547564e+00 -1.753686346399e+02 0.0 
0.0 0.0 -1.561549877042e+02 
-2.138500359896e+02 6.002815792624e+00 0.0 
6.002815792624e+00 -2.422160734542e+02 0.0 
0.0 0.0 -2.126320217111e+02 
-1.372610099202e+02 2.936340469209e+00 0.0 
2.936340469209e+00 -1.195562875805e+02 0.0 
0.0 0.0 -1.190819991036e+02 
-1.093126494444e+02 -1.796090663306e-01 0.0 
-1.796090663306e-01 -1.266933105971e+02 0.0 
0.0 0.0 -1.093107935902e+02 
-3.498829311721e+02 1.948389264698e+01 0.0 
1.948389264698e+01 -3.766851920712e+02 0.0 
0.0 0.0 -3.396363900660e+02 
-1.512019203786e+02 1.073461089413e+01 0.0 
1.073461089413e+01 -1.521213253654e+02 0.0 
0.0 0.0 -1.409171732616e+02 
-1.672543283686e+02 1.147204071397e+00 0.0 
1.147204071397e+00 -1.920506695587e+02 0.0 
0.0 0.0 -1.672013660318e+02 
-1.463024669146e+02 1.040150250726e+01 0.0 
1.040150250726e+01 -1.493035059770e+02 0.0 
0.0 0.0 -1.372938088723e+02 
-1.704591172604e+02 1.281276224348e+00 0.0 
1.281276224348e+00 -1.956459810742e+02 0.0 
0.0 0.0 -1.703941055048e+02 
-4.236073397106e+00 -6.967739709105e-02 0.0 
-6.967739709105e-02 -7.972271200347e+00 0.0 
0.0 0.0 -4.234774415476e+00 
-1.455705801527e+02 8.062100669413e+00 0.0 
8.062100669413e+00 -1.337002463913e+02 0.0 
0.0 0.0 -1.296242358635e+02 
-1.342752011695e+02 3.481985638792e-03 0.0 
3.481985638792e-03 -1.549015470266e+02 0.0 
0.0 0.0 -1.342752005817e+02 
-4.227959664611e+00 -2.448413660372e-02 0.0 
-2.448413660372e-02 -7.965528844668e+00 0.0 
0.0 0.0 -4.227799280363e+00 
-1.584196459734e+02 7.554835166651e-01 0.0 
7.554835166651e-01 -1.821302662667e+02 0.0 
0.0 0.0 -1.583955986451e+02 
-2.344229823479e+02 7.523537599138e+00 0.0 
7.523537599138e+00 -2.642408182421e+02 0.0 
0.0 0.0 -2.326322160956e+02 
-1.617638765644e+02 6.201529451189e+00 0.0 
6.201529451189e+00 -1.440314835378e+02 0.0 
0.0 0.0 -1.420778645191e+02 
-1.940317196932e+02 6.125210166869e+00 0.0 
6.125210166869e+00 -2.194371828758e+02 0.0 
0.0 0.0 -1.926320546985e+02 
-1.929519411118e+02 6.268915574369e+00 0.0 
6.268915574369e+00 -2.180486790805e+02 0.0 
0.0 0.0 -1.914731626083e+02 
-1.178587667276e+02 6.096716827831e+00 0.0 
6.096716827831e+00 -1.064867596397e+02 0.0 
0.0 0.0 -1.038360616548e+02 
-8.639768837755e+01 9.093214988856e-01 0.0 
9.093214988856e-01 -7.376779132403e+01 0.0 
0.0 0.0 -7.370265830868e+01 
-1.921375927032e+02 1.294178029343e+01 0.0 
1.294178029343e+01 -1.881842765559e+02 0.0 
0.0 0.0 -1.770690724892e+02 
-1.415743801768e+02 9.975545522191e+00 0.0 
9.975545522191e+00 -1.465500628220e+02 0.0 
0.0 0.0 -1.337811290034e+02 
-3.906523583203e+00 -2.260927066591e-02 0.0 
-2.260927066591e-02 -7.602396858556e+00 0.0 
0.0 0.0 -3.906385277598e+00 
-5.781897642638e+01 -1.909611074197e-01 0.0 
-1.909611074197e-01 -6.850916029034e+01 0.0 
0.0 0.0 -5.781556633388e+01 
-1.847311289647e+01 -2.997864465965e-01 0.0 
-2.997864465965e-01 -2.402658646316e+01 0.0 
0.0 0.0 -1.845697677230e+01 
-1.039295042110e+02 -2.292320158501e-01 0.0 
-2.292320158501e-01 -1.206083331251e+02 0.0 
0.0 0.0 -1.039263542659e+02 
-2.222250194570e+02 1.505330931504e+01 0.0 
1.505330931504e+01 -2.256846565801e+02 0.0 
0.0 0.0 -2.088024654786e+02 
-1.763709744484e+02 6.433177568031e+00 0.0 
6.433177568031e+00 -1.569258025576e+02 0.0 
0.0 0.0 -1.549901531697e+02 
-2.632018437653e+02 7.920605326771e+00 0.0 
7.920605326771e+00 -2.967928069224e+02 0.0 
0.0 0.0 -2.614278829667e+02 
-1.123088114524e+02 -2.182909216523e-03 0.0 
-2.182909216523e-03 -1.300825179044e+02 0.0 
0.0 0.0 -1.123088111843e+02 
-2.214516453297e+02 3.351072580371e+00 0.0 
3.351072580371e+00 -2.526408573997e+02 0.0 
0.0 0.0 -2.210956581210e+02 
-2.749085370615e+02 1.212956734542e+01 0.0 
1.212956734542e+01 -3.045817300263e+02 0.0 
0.0 0.0 -2.705813395780e+02 
-6.354274311514e+01 -9.545183575670e-02 0.0 
-9.545183575670e-02 -7.498180413997e+01 0.0 
0.0 0.0 -6.354194668450e+01 
-1.338605731548e+02 2.860591426589e-01 0.0 
2.860591426589e-01 -1.544246014055e+02 0.0 
0.0 0.0 -1.338565946540e+02 
-1.088728910541e+02 -1.028389697620e-02 0.0 
-1.028389697620e-02 -1.262003832033e+02 0.0 
0.0 0.0 -1.088728849505e+02 
-3.227698018293e+02 1.585264154020e+01 0.0 
1.585264154020e+01 -3.536173143609e+02 0.0 
0.0 0.0 -3.160757258969e+02 
-3.486816437504e+02 1.828268649040e+01 0.0 
1.828268649040e+01 -3.787628738883e+02 0.0 
0.0 0.0 -3.400478691343e+02 
-1.527886779962e+02 4.646436313329e-01 0.0 
4.646436313329e-01 -1.757992816041e+02 0.0 
0.0 0.0 -1.527792994614e+02 
-1.775181172970e+02 1.334906394681e+00 0.0 
1.334906394681e+00 -2.036151017552e+02 0.0 
0.0 0.0 -1.774500122335e+02 
-1.850181955106e+02 3.655473040020e+00 0.0 
3.655473040020e+00 -2.111662758024e+02 0.0 
0.0 0.0 -1.845167795358e+02 
-2.829256414443e+02 1.342020458591e+01 0.0 
1.342020458591e+01 -3.115522353944e+02 0.0 
0.0 0.0 -2.776182258578e+02 
-6.454451120210e+01 -3.308855371521e-01 0.0 
-3.308855371521e-01 -7.609519021587e+01 0.0 
0.0 0.0 -6.453504028353e+01 
-2.650027674484e+02 1.051063116925e+01 0.0 
1.051063116925e+01 -2.956699469876e+02 0.0 
0.0 0.0 -2.617462431033e+02 
-3.393485003232e+01 -4.334606864909e-02 0.0 
-4.334606864909e-02 -4.153008530128e+01 0.0 
0.0 0.0 -3.393460266402e+01 
-1.601698117983e+02 9.011604799924e-01 0.0 
9.011604799924e-01 -1.840867165015e+02 0.0 
0.0 0.0 -1.601359052136e+02 
-1.801512112851e+02 1.780734964628e+00 0.0 
1.780734964628e+00 -2.064798362372e+02 0.0 
0.0 0.0 -1.800313173497e+02 
-2.016232781452e+01 -2.478955197805e-02 0.0 
-2.478955197805e-02 -2.596931170495e+01 0.0 
0.0 0.0 -2.016222199183e+01 
-1.428293566054e+02 -2.184699632025e-02 0.0 
-2.184699632025e-02 -1.645665325638e+02 0.0 
0.0 0.0 -1.428293346480e+02 
-1.745675304327e+02 1.076521397567e+01 0.0 
1.076521397567e+01 -1.647070855421e+02 0.0 
0.0 0.0 -1.577968297326e+02 
-3.888460086078e+00 -1.185191936872e-02 0.0 
-1.185191936872e-02 -7.582201143122e+00 0.0 
0.0 0.0 -3.888422057818e+00 
-8.677483712365e+01 1.460856934065e+00 0.0 
1.460856934065e+00 -7.429691253778e+01 0.0 
0.0 0.0 -7.412816436016e+01 
-1.320952361416e+02 1.804251461844e+00 0.0 
1.804251461844e+00 -1.144340967322e+02 0.0 
0.0 0.0 -1.142516600214e+02 
-2.170586328510e+02 8.652641464077e+00 0.0 
8.652641464077e+00 -2.428204393776e+02 0.0 
0.0 0.0 -2.144222595109e+02 
-1.072325910809e+02 1.734113943169e-01 0.0 
1.734113943169e-01 -1.243433377757e+02 0.0 
0.0 0.0 -1.072308337980e+02 
-1.078399864775e+02 -7.467265224331e-02 0.0 
-7.467265224331e-02 -1.250326639006e+02 0.0 
0.0 0.0 -1.078396621592e+02 
-5.405864586447e+01 2.600006000651e+00 0.0 
2.600006000651e+00 -6.273545358591e+01 0.0 
0.0 0.0 -5.333920638419e+01 
-2.900525082918e+02 8.776637571899e+00 0.0 
8.776637571899e+00 -3.266585549754e+02 0.0 
0.0 0.0 -2.880570087682e+02 
-2.975492232120e+02 1.957674710311e+01 0.0 
1.957674710311e+01 -3.039129221117e+02 0.0 
0.0 0.0 -2.808974347439e+02 
-1.703751620874e+02 5.737783381431e+00 0.0 
5.737783381431e+00 -1.509229614250e+02 0.0 
0.0 0.0 -1.493566224367e+02 
-6.722311740075e+01 4.824402647312e+00 0.0 
4.824402647312e+00 -7.363086026848e+01 0.0 
0.0 0.0 -6.463564589294e+01 
-3.923060858815e+01 -3.518715550923e-01 0.0 
-3.518715550923e-01 -4.748219803310e+01 0.0 
0.0 0.0 -3.921563095715e+01 
-1.099068641729e+02 7.916468361652e+00 0.0 
7.916468361652e+00 -1.065220424148e+02 0.0 
0.0 0.0 -1.001191011764e+02 
-8.444780792904e+01 3.744255911732e-01 0.0 
3.744255911732e-01 -7.194035622198e+01 0.0 
0.0 0.0 -7.192915736931e+01 
-8.612480048836e+01 2.185453782857e-01 0.0 
2.185453782857e-01 -7.341056802480e+01 0.0 
0.0 0.0 -7.340681255006e+01 
-4.769921172903e+00 -1.905170682141e-02 0.0 
-1.905170682141e-02 -8.578010158581e+00 0.0 
0.0 0.0 -4.769825860411e+00 
-2.011154927117e+01 -1.579425505926e-02 0.0 
-1.579425505926e-02 -2.591207265538e+01 0.0 
0.0 0.0 -2.011150626529e+01 
-3.507861960298e+01 -4.190771336259e-02 0.0 
-4.190771336259e-02 -4.282243303250e+01 0.0 
0.0 0.0 -3.507839281484e+01 
-8.578297227381e+01 -2.964263450142e-01 0.0 
-2.964263450142e-01 -1.000988643674e+02 0.0 
0.0 0.0 -8.577683706849e+01 
-1.877352873456e+01 -2.610472163666e-02 0.0 
-2.610472163666e-02 -2.440012525865e+01 0.0 
0.0 0.0 -1.877340762372e+01 
-1.600742271240e+02 -1.619333125124e-02 0.0 
-1.619333125124e-02 -1.840509119485e+02 0.0 
0.0 0.0 -1.600742161874e+02 
-3.977415655884e+00 -1.188526313075e-01 0.0 
-1.188526313075e-01 -7.674660709238e+00 0.0 
0.0 0.0 -3.973598927388e+00 
-9.914389094345e+01 -2.025019305368e-01 0.0 
-2.025019305368e-01 -1.152025126956e+02 0.0 
0.0 0.0 -9.914133776587e+01 
-1.036900808901e+02 8.686758550069e-01 0.0 
8.686758550069e-01 -8.904665835047e+01 0.0 
0.0 0.0 -8.899530691476e+01 
-9.934058396036e+01 6.164910799753e-01 0.0 
6.164910799753e-01 -8.515067596678e+01 0.0 
0.0 0.0 -8.512394242000e+01 
-2.312322399106e+02 1.562301781228e+01 0.0 
1.562301781228e+01 -2.336606255287e+02 0.0 
0.0 0.0 -2.167763035006e+02 
-2.245789189656e+02 6.260666175640e+00 0.0 
6.260666175640e+00 -2.542326343143e+02 0.0 
0.0 0.0 -2.233113164297e+02 
-9.628013269065e+01 6.330080677265e-01 0.0 
6.330080677265e-01 -8.244607768203e+01 0.0 
0.0 0.0 -8.241717337634e+01 
-1.158741008866e+02 -1.287818855148e-01 0.0 
-1.287818855148e-01 -1.341088731021e+02 0.0 
0.0 0.0 -1.158731914183e+02 
-3.342650640796e+01 -3.408144851031e-02 0.0 
-3.408144851031e-02 -4.095592451193e+01 0.0 
0.0 0.0 -3.342635214354e+01 
-1.701715685993e+02 1.189106793600e+01 0.0 
1.189106793600e+01 -1.709977585697e+02 0.0 
0.0 0.0 -1.586864223647e+02 
-2.373727923179e+02 1.585610522801e+01 0.0 
1.585610522801e+01 -2.350335031479e+02 0.0 
0.0 0.0 -2.203039609154e+02 
-1.148535397015e+02 2.042873684981e+00 0.0 
2.042873684981e+00 -9.932846064775e+01 0.0 
0.0 0.0 -9.906414818900e+01 
-8.601187626523e+01 3.437601538752e-01 0.0 
3.437601538752e-01 -7.332108374490e+01 0.0 
0.0 0.0 -7.331177900959e+01 
-1.166612984635e+02 3.613094159679e-01 0.0 
3.613094159679e-01 -1.349850682883e+02 0.0 
0.0 0.0 -1.166541769061e+02 
-2.328353014549e+02 1.560846498617e+01 0.0 
1.560846498617e+01 -2.309589260615e+02 0.0 
0.0 0.0 -2.162604780785e+02 
-9.948763217351e+01 -1.082312166872e-01 0.0 
-1.082312166872e-01 -1.155947825252e+02 0.0 
0.0 0.0 -9.948690495193e+01 
-1.111877343821e+02 9.600159024153e-01 0.0 
9.600159024153e-01 -9.569747763927e+01 0.0 
0.0 0.0 -9.563820699329e+01 
-8.894347609778e+01 6.362435528718e-01 0.0 
6.362435528718e-01 -7.595681118264e+01 0.0 
0.0 0.0 -7.592571475616e+01 
-1.118959032809e+02 7.696738838530e+00 0.0 
7.696738838530e+00 -1.065029760654e+02 0.0 
0.0 0.0 -1.010440301349e+02 
-2.076973897935e+02 1.416942275834e+01 0.0 
1.416942275834e+01 -2.079958460791e+02 0.0 
0.0 0.0 -1.936764093866e+02 
-2.449555287759e+02 1.629647201529e+01 0.0 
1.629647201529e+01 -2.422801505483e+02 0.0 
0.0 0.0 -2.272665579903e+02 
-1.884885211886e+01 -1.889227097975e-02 0.0 
-1.889227097975e-02 -2.448535351074e+01 0.0 
0.0 0.0 -1.884878879698e+01 
-5.244144887852e+00 -1.344834873555e-02 0.0 
-1.344834873555e-02 -9.113921856495e+00 0.0 
0.0 0.0 -5.244098152368e+00 
-4.791776680324e+01 -3.044785976940e-01 0.0 
-3.044785976940e-01 -5.730839982049e+01 0.0 
0.0 0.0 -4.790790485270e+01 
-1.670254144817e+02 1.587251152377e+00 0.0 
1.587251152377e+00 -1.916881529666e+02 0.0 
0.0 0.0 -1.669236813915e+02 
-3.013377771684e+02 1.129104567200e+00 0.0 
1.129104567200e+00 -3.435953041568e+02 0.0 
0.0 0.0 -3.013076294450e+02 
-4.294768533044e+00 -1.645715024461e-01 0.0 
-1.645715024461e-01 -8.025925037600e+00 0.0 
0.0 0.0 -4.287523783864e+00 
-1.510146264819e+02 1.572686340346e+00 0.0 
1.572686340346e+00 -1.310673339695e+02 0.0 
0.0 0.0 -1.309441014026e+02 
-3.978083640713e+00 -1.125057350951e-01 0.0 
-1.125057350951e-01 -7.676261525060e+00 0.0 
0.0 0.0 -3.974664160099e+00 
-2.123592787823e+02 7.781804752445e+00 0.0 
7.781804752445e+00 -2.385770347556e+02 0.0 
0.0 0.0 -2.102235128809e+02 
-5.453649647527e+00 -1.059533838645e-01 0.0 
-1.059533838645e-01 -9.344592735304e+00 0.0 
0.0 0.0 -5.450766591341e+00 
-5.317877013602e+00 -1.444492160934e-01 0.0 
-1.444492160934e-01 -9.185855217140e+00 0.0 
0.0 0.0 -5.312490076076e+00 
-2.030266243931e+02 6.533565760233e+00 0.0 
6.533565760233e+00 -2.293133211093e+02 0.0 
0.0 0.0 -2.014922655867e+02 
-2.930720632925e+02 4.253958676459e+00 0.0 
4.253958676459e+00 -3.333744778532e+02 0.0 
0.0 0.0 -2.926279478204e+02 
-1.162100772949e+02 7.995815821004e-01 0.0 
7.995815821004e-01 -1.001054864592e+02 0.0 
0.0 0.0 -1.000658851771e+02 
-1.188180259399e+02 8.651089583138e+00 0.0 
8.651089583138e+00 -1.171521467895e+02 0.0 
0.0 0.0 -1.092939909613e+02 
-2.049182571132e+01 -3.320516004938e-02 0.0 
-3.320516004938e-02 -2.634142341514e+01 0.0 
0.0 0.0 -2.049163722876e+01 
-2.285317102422e+02 3.225911396095e+00 0.0 
3.225911396095e+00 -2.607166961921e+02 0.0 
0.0 0.0 -2.282115606973e+02 
-1.684877928077e+02 1.125223498953e+01 0.0 
1.125223498953e+01 -1.769974964484e+02 0.0 
0.0 0.0 -1.607128251667e+02 
-2.315310186539e+02 1.562384737235e+01 0.0 
1.562384737235e+01 -2.350097077320e+02 0.0 
0.0 0.0 -2.175499965897e+02 
-9.184967842901e+01 2.315221349101e-01 0.0 
2.315221349101e-01 -7.847791710753e+01 0.0 
0.0 0.0 -7.847390967439e+01 
-2.232672710571e+02 9.034389349657e+00 0.0 
9.034389349657e+00 -2.494567377642e+02 0.0 
0.0 0.0 -2.204531316498e+02 
-1.648261006273e+02 1.156718534796e+01 0.0 
1.156718534796e+01 -1.658706791372e+02 0.0 
0.0 0.0 -1.537694191620e+02 
-2.134824839225e+02 1.300596738373e+01 0.0 
1.300596738373e+01 -2.282882330064e+02 0.0 
0.0 0.0 -2.059201408225e+02 
-3.279830080740e+01 -5.636760910728e-02 0.0 
-5.636760910728e-02 -4.024555763568e+01 0.0 
0.0 0.0 -3.279787419054e+01 
-1.845975456456e+01 -3.727677403985e-02 0.0 
-3.727677403985e-02 -2.404533127883e+01 0.0 
0.0 0.0 -1.845950579956e+01 
-2.003353479901e+01 -3.966074770124e-02 0.0 
-3.966074770124e-02 -2.582343991515e+01 0.0 
0.0 0.0 -2.003326313633e+01 
-1.339133480888e+02 -1.653089567672e-01 0.0 
-1.653089567672e-01 -1.544898751372e+02 0.0 
0.0 0.0 -1.339120201053e+02 
-3.243687358897e+02 4.314338665808e+00 0.0 
4.314338665808e+00 -3.687973073508e+02 0.0 
0.0 0.0 -3.239536599712e+02 
-1.849854186800e+02 1.119740288623e+00 0.0 
1.119740288623e+00 -1.854071643612e+02 0.0 
0.0 0.0 -1.620963996700e+02 
-5.219634787925e+00 -1.117620851914e-02 0.0 
-1.117620851914e-02 -9.086259518029e+00 0.0 
0.0 0.0 -5.219602484145e+00 
-1.626605759962e+02 3.735197425403e-01 0.0 
3.735197425403e-01 -1.869609319343e+02 0.0 
0.0 0.0 -1.626548359959e+02 
-3.340247631506e+02 3.750973260468e+00 0.0 
3.750973260468e+00 -3.799430457776e+02 0.0 
0.0 0.0 -3.337203714080e+02 
-3.229448152850e+02 5.322793773144e+00 0.0 
5.322793773144e+00 -3.667136457593e+02 0.0 
0.0 0.0 -3.223068025042e+02 
-3.194729414427e+02 1.442365940007e+01 0.0 
1.442365940007e+01 -3.526659676208e+02 0.0 
0.0 0.0 -3.140811349688e+02 
-1.294338353542e+02 4.932009363939e-01 0.0 
4.932009363939e-01 -1.117606114901e+02 0.0 
0.0 0.0 -1.117468585934e+02 
-1.656908155391e+02 7.529236369893e-01 0.0 
7.529236369893e-01 -1.438732979839e+02 0.0 
0.0 0.0 -1.438473454224e+02 
-3.330180929813e+02 5.082161855019e+00 0.0 
5.082161855019e+00 -3.782528121559e+02 0.0 
0.0 0.0 -3.324541384595e+02 
-3.341254139063e+02 6.523744602098e+00 0.0 
6.523744602098e+00 -3.787138966697e+02 0.0 
0.0 0.0 -3.331905261089e+02 
-1.507345395403e+02 1.253443789884e+00 0.0 
1.253443789884e+00 -1.307346452197e+02 0.0 
0.0 0.0 -1.306563948952e+02 
-3.202897981216e+00 -1.238284604841e-02 0.0 
-1.238284604841e-02 -6.807599696405e+00 0.0 
0.0 0.0 -3.202855444252e+00 
-8.377155949474e+01 3.801358104478e-02 0.0 
3.801358104478e-02 -7.132094241414e+01 0.0 
0.0 0.0 -7.132082635412e+01 
-8.892913517891e+01 1.526135590855e-01 0.0 
1.526135590855e-01 -7.588886627270e+01 0.0 
0.0 0.0 -7.588708044225e+01 
-5.228435252829e+00 -1.297403841911e-02 0.0 
-1.297403841911e-02 -9.096178956460e+00 0.0 
0.0 0.0 -5.228391732940e+00 
-3.374311898202e+02 1.129514720235e+01 0.0 
1.129514720235e+01 -3.782237038463e+02 0.0 
0.0 0.0 -3.345124805998e+02 
-3.215578743883e+02 1.328422993996e+01 0.0 
1.328422993996e+01 -3.570990358459e+02 0.0 
0.0 0.0 -3.171414250198e+02 
-3.408832531467e+02 1.416898419084e+01 0.0 
1.416898419084e+01 -3.781754561524e+02 0.0 
0.0 0.0 -3.361106182564e+02 
-3.819949917429e+00 -8.769105134292e-03 0.0 
-8.769105134292e-03 -7.504830528375e+00 0.0 
0.0 0.0 -3.819929049244e+00 
-3.773051720328e+00 -1.159396020631e-02 0.0 
-1.159396020631e-02 -7.451808573545e+00 0.0 
0.0 0.0 -3.773015181197e+00 
-3.463954325868e+02 1.710086059372e+01 0.0 
1.710086059372e+01 -3.789541382088e+02 0.0 
0.0 0.0 -3.390642631463e+02 
-3.443658889203e+02 1.562595135381e+01 0.0 
1.562595135381e+01 -3.796577723477e+02 0.0 
0.0 0.0 -3.384417306199e+02 
-1.202569838064e+02 2.608973969962e-01 0.0 
2.608973969962e-01 -1.036203109695e+02 0.0 
0.0 0.0 -1.036162205650e+02 
-8.329563407975e+01 -6.398230277118e-02 0.0 
-6.398230277118e-02 -7.090012249388e+01 0.0 
0.0 0.0 -7.089979224321e+01 
-1.416159575055e+02 3.474610058758e-01 0.0 
3.474610058758e-01 -1.225285437059e+02 0.0 
0.0 0.0 -1.225222207346e+02 
-9.631482612463e+01 8.296163377179e-02 0.0 
8.296163377179e-02 -8.242323104257e+01 0.0 
0.0 0.0 -8.242273560723e+01 
-8.255814487554e+01 1.405277029362e-01 0.0 
1.405277029362e-01 -7.024980007723e+01 0.0 
0.0 0.0 -7.024819584351e+01 
-4.174600107982e+00 -3.344316701469e-02 0.0 
-3.344316701469e-02 -7.904942874351e+00 0.0 
0.0 0.0 -4.174300308310e+00 
-4.449419459268e+00 -2.205182764057e-02 0.0 
-2.205182764057e-02 -8.215814879532e+00 0.0 
0.0 0.0 -4.449290352687e+00 
-4.635375435753e+00 -2.869279702060e-02 0.0 
-2.869279702060e-02 -8.425732209570e+00 0.0 
0.0 0.0 -4.635158245267e+00 
-4.814665229121e+00 -4.644078762418e-02 0.0 
-4.644078762418e-02 -8.627563284945e+00 0.0 
0.0 0.0 -4.814099668001e+00 
-1.705250250357e+02 -1.663787805604e-01 0.0 
-1.663787805604e-01 -1.958565866974e+02 0.0 
0.0 0.0 -1.705239322999e+02 
-1.521548293776e+02 -1.753706128965e-01 0.0 
-1.753706128965e-01 -1.751002393681e+02 0.0 
0.0 0.0 -1.521534891071e+02 
-4.497963525300e+00 -2.865379531998e-02 0.0 
-2.865379531998e-02 -8.270474533063e+00 0.0 
0.0 0.0 -4.497745900322e+00 
-2.225600064616e+02 4.434305692570e-02 0.0 
4.434305692570e-02 -2.546512283704e+02 0.0 
0.0 0.0 -2.225599451893e+02 
-4.269881780374e+00 -4.306615315539e-02 0.0 
-4.306615315539e-02 -8.012181298267e+00 0.0 
0.0 0.0 -4.269386243344e+00 
-1.803078691375e+02 1.248838498274e+01 0.0 
1.248838498274e+01 -1.802215005878e+02 0.0 
0.0 0.0 -1.677762252155e+02 
-1.660897729456e+02 1.164264513233e+01 0.0 
1.164264513233e+01 -1.680593873138e+02 0.0 
0.0 0.0 -1.553903586808e+02 
-1.660418768728e+02 1.162719147897e+01 0.0 
1.162719147897e+01 -1.662522169317e+02 0.0 
0.0 0.0 -1.545193797921e+02 
-5.779173761958e+01 -1.529765256859e-01 0.0 
-1.529765256859e-01 -6.848098525385e+01 0.0 
0.0 0.0 -5.778954878205e+01 
-9.860575410657e+01 -1.233745750839e-01 0.0 
-1.233745750839e-01 -1.145979021760e+02 0.0 
0.0 0.0 -9.860480236576e+01 
-1.707277154441e+02 1.186257237337e+01 0.0 
1.186257237337e+01 -1.747071300991e+02 0.0 
0.0 0.0 -1.606891411586e+02 
-2.756048856248e+02 -2.927962914046e-03 0.0 
-2.927962914046e-03 -3.145848501520e+02 0.0 
0.0 0.0 -2.756048854049e+02 
-1.766720696251e+02 1.209039006666e+01 0.0 
1.209039006666e+01 -1.826195013376e+02 0.0 
0.0 0.0 -1.671950618896e+02 
-2.929559850230e+02 3.849729437593e-02 0.0 
3.849729437593e-02 -3.341891541506e+02 0.0 
0.0 0.0 -2.929559490801e+02 
-3.097380231643e+02 1.963001110879e-01 0.0 
1.963001110879e-01 -3.531487584968e+02 0.0 
0.0 0.0 -3.097371355279e+02 
-1.438356587355e+02 2.396912735499e-01 0.0 
2.396912735499e-01 -1.656979673444e+02 0.0 
0.0 0.0 -1.438330311538e+02 
-2.375657388823e+02 1.594950708823e+01 0.0 
1.594950708823e+01 -2.366887956268e+02 0.0 
0.0 0.0 -2.211717342416e+02 
-2.118622555362e+02 1.442126482046e+01 0.0 
1.442126482046e+01 -2.151739312994e+02 0.0 
0.0 0.0 -1.990020788783e+02 
-2.848000112825e+02 1.018380681239e+00 0.0 
1.018380681239e+00 -3.249190680625e+02 0.0 
0.0 0.0 -2.847741773795e+02 
-3.022413699763e+02 1.168441225478e+00 0.0 
1.168441225478e+00 -3.446118755747e+02 0.0 
0.0 0.0 -3.022091726209e+02 
-2.429980713820e+02 2.644116053269e+00 0.0 
2.644116053269e+00 -2.773121858439e+02 0.0 
0.0 0.0 -2.427955214017e+02 
-3.839360791106e+00 -8.718786771680e-02 0.0 
-8.718786771680e-02 -7.522413096435e+00 0.0 
0.0 0.0 -3.837297972437e+00 
-1.496443561255e+02 6.312297396820e-01 0.0 
6.312297396820e-01 -1.722290541131e+02 0.0 
0.0 0.0 -1.496267273659e+02 
-1.872145037471e+01 -1.394881209615e-02 0.0 
-1.394881209615e-02 -2.434146801466e+01 0.0 
0.0 0.0 -1.872141575415e+01 
-2.917725854611e+02 8.832917905959e+00 0.0 
8.832917905959e+00 -3.285702334505e+02 0.0 
0.0 0.0 -2.897621673552e+02 
-1.489104383756e+02 6.806871614488e-01 0.0 
6.806871614488e-01 -1.713935214115e+02 0.0 
0.0 0.0 -1.488898490689e+02 
-2.682745249547e+02 4.250680065750e+00 0.0 
4.250680065750e+00 -3.052758733354e+02 0.0 
0.0 0.0 -2.677924905259e+02 
-8.305281715075e+01 -1.335206258021e-01 0.0 
-1.335206258021e-01 -9.702451048342e+01 0.0 
0.0 0.0 -8.305154127608e+01 
-3.406946007627e+01 -9.254549965024e-02 0.0 
-9.254549965024e-02 -4.168030675256e+01 0.0 
0.0 0.0 -3.406833491846e+01 
-2.864997063518e+02 4.902452563835e+00 0.0 
4.902452563835e+00 -3.256054701541e+02 0.0 
0.0 0.0 -2.858944823950e+02 
-1.666952881232e+02 9.530561679989e-01 0.0 
9.530561679989e-01 -1.914538098708e+02 0.0 
0.0 0.0 -1.666586553183e+02 
-1.261353860200e+02 -1.972538810916e-02 0.0 
-1.972538810916e-02 -1.457046229935e+02 0.0 
0.0 0.0 -1.261353661372e+02 
-2.696342234698e+02 4.285449789670e+00 0.0 
4.285449789670e+00 -3.067999979814e+02 0.0 
0.0 0.0 -2.691464846567e+02 
-1.774921402963e+02 6.379159238328e+00 0.0 
6.379159238328e+00 -1.578286391552e+02 0.0 
0.0 0.0 -1.559404497997e+02 
-1.250511219582e+02 1.634469022101e-01 0.0 
1.634469022101e-01 -1.444766656883e+02 0.0 
0.0 0.0 -1.250497468101e+02 
-2.496150539670e+02 8.809595587432e+00 0.0 
8.809595587432e+00 -2.802022306770e+02 0.0 
0.0 0.0 -2.472591998609e+02 
-2.138813702393e+02 4.142924984008e+00 0.0 
4.142924984008e+00 -2.436401795460e+02 0.0 
0.0 0.0 -2.133153707134e+02 
-2.398685690095e+02 2.582289097615e+00 0.0 
2.582289097615e+00 -2.737914088003e+02 0.0 
0.0 0.0 -2.396731249184e+02 
-2.481884922151e+02 2.091779397615e+00 0.0 
2.091779397615e+00 -2.833439017090e+02 0.0 
0.0 0.0 -2.480644669557e+02 
-1.276775418317e+02 3.671074738329e+00 0.0 
3.671074738329e+00 -1.459337186388e+02 0.0 
0.0 0.0 -1.269669927464e+02 
-1.039673604935e+02 7.740164546933e+00 0.0 
7.740164546933e+00 -1.022925050867e+02 0.0 
0.0 0.0 -9.534459834822e+01 
-1.386650656422e+02 8.261717294110e+00 0.0 
8.261717294110e+00 -1.510675500850e+02 0.0 
0.0 0.0 -1.345361879352e+02 
-2.226017055023e+02 3.115536868213e+00 0.0 
3.115536868213e+00 -2.540473617460e+02 0.0 
0.0 0.0 -2.222959998757e+02 
-2.767645638993e+02 3.646451380523e+00 0.0 
3.646451380523e+00 -3.151641554657e+02 0.0 
0.0 0.0 -2.764213618114e+02 
-2.564580889371e+02 1.579731925336e+00 0.0 
1.579731925336e+00 -2.928056198191e+02 0.0 
0.0 0.0 -2.563895600252e+02 
-8.350768736243e+01 -4.610079602523e-01 0.0 
-4.610079602523e-01 -9.750887444813e+01 0.0 
0.0 0.0 -8.349252447482e+01 
-1.766869664865e+02 7.104009178166e+00 0.0 
7.104009178166e+00 -1.580860130077e+02 0.0 
0.0 0.0 -1.556832502817e+02 
-1.541848437598e+02 4.657665497202e+00 0.0 
4.657665497202e+00 -1.357313164136e+02 0.0 
0.0 0.0 -1.346223645448e+02 
-9.395281736876e+01 5.028031511571e-01 0.0 
5.028031511571e-01 -8.036680167737e+01 0.0 
0.0 0.0 -8.034821891583e+01 
-2.324222418846e+02 4.137856589793e+00 0.0 
4.137856589793e+00 -2.646819253825e+02 0.0 
0.0 0.0 -2.318999470738e+02 
-2.313941187730e+02 2.885622451109e+00 0.0 
2.885622451109e+00 -2.640945140789e+02 0.0 
0.0 0.0 -2.311414317302e+02 
-1.879611380979e+02 7.016093910360e+00 0.0 
7.016093910360e+00 -1.676611940089e+02 0.0 
0.0 0.0 -1.654723044259e+02 
-1.692704989167e+02 5.070210503402e+00 0.0 
5.070210503402e+00 -1.492779091803e+02 0.0 
0.0 0.0 -1.480655937136e+02 
-2.152939995911e+02 4.197342801469e+00 0.0 
4.197342801469e+00 -2.452112878089e+02 0.0 
0.0 0.0 -2.147162760366e+02 
-2.931606447742e+02 4.021756703584e+00 0.0 
4.021756703584e+00 -3.335763659454e+02 0.0 
0.0 0.0 -2.927643272294e+02 
-1.513018962385e+02 5.240758319525e+00 0.0 
5.240758319525e+00 -1.338245591547e+02 0.0 
0.0 0.0 -1.323735331159e+02 
-2.586563216933e+02 1.660063204944e+00 0.0 
1.660063204944e+00 -2.952753232388e+02 0.0 
0.0 0.0 -2.585812194410e+02 
-2.989703007816e+02 8.231926792701e+00 0.0 
8.231926792701e+00 -3.373858171295e+02 0.0 
0.0 0.0 -2.972806286640e+02 
-1.847215752022e+02 8.057136692826e+00 0.0 
8.057136692826e+00 -1.663956820286e+02 0.0 
0.0 0.0 -1.633571106016e+02 
-1.383305434226e+02 2.666748345924e+00 0.0 
2.666748345924e+00 -1.203382215855e+02 0.0 
0.0 0.0 -1.199512882376e+02 
-2.410458780221e+02 7.528265753730e+00 0.0 
7.528265753730e+00 -2.718263738608e+02 0.0 
0.0 0.0 -2.393032769000e+02 
-8.334146044126e+01 -1.423080952841e-01 0.0 
-1.423080952841e-01 -9.735027686241e+01 0.0 
0.0 0.0 -8.334001495836e+01 
-7.760502652391e+01 -5.002217814405e-01 0.0 
-5.002217814405e-01 -9.083173105135e+01 0.0 
0.0 0.0 -7.758613557778e+01 
-3.904620367882e+01 -1.791124367559e-01 0.0 
-1.791124367559e-01 -4.729746880432e+01 0.0 
0.0 0.0 -3.904231746721e+01 
-2.093329445302e+01 -3.618563390092e-01 0.0 
-3.618563390092e-01 -2.679321268083e+01 0.0 
0.0 0.0 -2.091103399189e+01 
-1.757443826334e+02 5.866136668658e+00 0.0 
5.866136668658e+00 -1.557237778955e+02 0.0 
0.0 0.0 -1.541315929047e+02 
-2.840488387097e+02 2.970550771484e+00 0.0 
2.970550771484e+00 -3.236534603270e+02 0.0 
0.0 0.0 -2.838272716409e+02 
-2.008793966731e+01 -2.943382514682e-01 0.0 
-2.943382514682e-01 -2.585356800472e+01 0.0 
0.0 0.0 -2.007295250784e+01 
-2.179772493382e+02 1.413632383528e+01 0.0 
1.413632383528e+01 -2.109023031843e+02 0.0 
0.0 0.0 -1.998675640975e+02 
-1.013452084915e+02 9.278000524050e-01 0.0 
9.278000524050e-01 -8.698704622327e+01 0.0 
0.0 0.0 -8.692734162583e+01 
-2.623705188585e+02 4.698866641464e+00 0.0 
4.698866641464e+00 -2.983462277172e+02 0.0 
0.0 0.0 -2.617669167907e+02 
-2.663021751373e+02 2.583967237148e+00 0.0 
2.583967237148e+00 -3.036955488649e+02 0.0 
0.0 0.0 -2.661244617096e+02 
-1.129996561542e+02 -1.883271615682e-02 0.0 
-1.883271615682e-02 -1.308630366469e+02 0.0 
0.0 0.0 -1.129996362996e+02 
-2.673128878694e+02 2.602499833933e+00 0.0 
2.602499833933e+00 -3.048333822060e+02 0.0 
0.0 0.0 -2.671332332639e+02 
-1.009435020507e+02 8.179106063681e-01 0.0 
8.179106063681e-01 -8.660663924956e+01 0.0 
0.0 0.0 -8.656012875815e+01 
-2.181821534993e+02 1.065320519296e+01 0.0 
1.065320519296e+01 -2.406601586530e+02 0.0 
0.0 0.0 -2.139354865780e+02 
-3.064273185979e+02 7.974726591680e+00 0.0 
7.974726591680e+00 -3.461255640841e+02 0.0 
0.0 0.0 -3.048852296436e+02 
-8.174902839675e+01 -1.438740214168e-01 0.0 
-1.438740214168e-01 -9.555093016538e+01 0.0 
0.0 0.0 -8.174752878564e+01 
-3.003755660733e+02 1.009144633893e+01 0.0 
1.009144633893e+01 -3.370485642752e+02 0.0 
0.0 0.0 -2.977820750048e+02 
-1.504309061507e+02 3.074908668117e+00 0.0 
3.074908668117e+00 -1.312237213416e+02 0.0 
0.0 0.0 -1.307434627760e+02 
-9.086549714213e+01 -1.371994630783e-01 0.0 
-1.371994630783e-01 -1.058518176598e+02 0.0 
0.0 0.0 -9.086424118906e+01 
-9.766497926309e+01 -3.327546311619e-01 0.0 
-3.327546311619e-01 -1.135221161023e+02 0.0 
0.0 0.0 -9.765799963427e+01 
-1.859418135714e+02 6.741489752503e-01 0.0 
6.741489752503e-01 -2.132423516056e+02 0.0 
0.0 0.0 -1.859251765348e+02 
-1.153680470699e+02 2.108691264531e+00 0.0 
2.108691264531e+00 -9.981496137934e+01 0.0 
0.0 0.0 -9.953413508367e+01 
-1.139006635028e+02 4.873668939201e-02 0.0 
4.873668939201e-02 -1.318808132091e+02 0.0 
0.0 0.0 -1.139005313989e+02 
-1.572846926022e+02 3.521319234860e+00 0.0 
3.521319234860e+00 -1.375324054741e+02 0.0 
0.0 0.0 -1.369234214351e+02 
-1.245109733941e+02 1.848749565377e+00 0.0 
1.848749565377e+00 -1.077576489199e+02 0.0 
0.0 0.0 -1.075560627816e+02 
-1.756165648813e+02 1.080242939742e+00 0.0 
1.080242939742e+00 -2.015158636494e+02 0.0 
0.0 0.0 -1.755715867609e+02 
-2.504575414705e+02 2.213764548193e+00 0.0 
2.213764548193e+00 -2.858782327922e+02 0.0 
0.0 0.0 -2.503197192449e+02 
-2.598585994191e+02 3.140638435307e+00 0.0 
3.140638435307e+00 -2.962201813483e+02 0.0 
0.0 0.0 -2.595893288694e+02 
-1.327896673904e+02 2.646207198092e+00 0.0 
2.646207198092e+00 -1.154490798238e+02 0.0 
0.0 0.0 -1.150542532646e+02 
-7.051480057021e+01 4.660629439037e-02 0.0 
4.660629439037e-02 -8.286060142650e+01 0.0 
0.0 0.0 -7.051462463058e+01 
-1.664267959943e+02 6.441046425286e-01 0.0 
6.441046425286e-01 -1.911928186540e+02 0.0 
0.0 0.0 -1.664100556982e+02 
-2.591426274044e+02 1.524487936269e+01 0.0 
1.524487936269e+01 -2.777741419814e+02 0.0 
0.0 0.0 -2.505925043440e+02 
-1.609856695008e+02 4.265909511919e+00 0.0 
4.265909511919e+00 -1.413300249833e+02 0.0 
0.0 0.0 -1.404441142645e+02 
-1.497951307271e+02 4.964711844031e-01 0.0 
4.964711844031e-01 -1.724137569916e+02 0.0 
0.0 0.0 -1.497842385979e+02 
-2.234427512863e+02 4.307932705039e+00 0.0 
4.307932705039e+00 -2.543955660074e+02 0.0 
0.0 0.0 -2.228543689196e+02 
-2.918650087262e+02 1.034662151368e+01 0.0 
1.034662151368e+01 -3.269405747058e+02 0.0 
0.0 0.0 -2.890404144249e+02 
-1.253307257512e+02 2.375680822399e+00 0.0 
2.375680822399e+00 -1.087314967598e+02 0.0 
0.0 0.0 -1.083981824276e+02 
-3.808632358844e+01 -7.309146090526e-01 0.0 
-7.309146090526e-01 -4.608003956309e+01 0.0 
0.0 0.0 -3.802004117251e+01 
-3.749394255063e+01 -8.395349294919e-03 0.0 
-8.395349294919e-03 -4.555188353145e+01 0.0 
0.0 0.0 -3.749393380375e+01 
-7.867431373331e+01 4.767467623628e-01 0.0 
4.767467623628e-01 -9.204395282845e+01 0.0 
0.0 0.0 -7.865733502526e+01 
-2.759155775142e+02 3.774786941442e+00 0.0 
3.774786941442e+00 -3.141497269625e+02 0.0 
0.0 0.0 -2.755464632199e+02 
-1.170148913531e+02 2.312529823837e+00 0.0 
2.312529823837e+00 -1.013741715091e+02 0.0 
0.0 0.0 -1.010394211624e+02 
-2.044701064438e+02 8.816398739602e-01 0.0 
8.816398739602e-01 -2.341565168578e+02 0.0 
0.0 0.0 -2.044439461740e+02 
-1.062700957591e+02 1.351082571645e+00 0.0 
1.351082571645e+00 -9.146383245362e+01 0.0 
0.0 0.0 -9.134155498903e+01 
-2.762858241434e+02 1.186017025181e+01 0.0 
1.186017025181e+01 -3.066591819443e+02 0.0 
0.0 0.0 -2.722033864469e+02 
-1.851832039069e+02 1.086349314980e+00 0.0 
1.086349314980e+00 -2.123282105752e+02 0.0 
0.0 0.0 -1.851397973709e+02 
-2.581754707487e+02 3.170954160810e+00 0.0 
3.170954160810e+00 -2.943037138081e+02 0.0 
0.0 0.0 -2.578992695733e+02 
-8.262383682556e+01 1.212839808618e-01 0.0 
1.212839808618e-01 -9.654028744527e+01 0.0 
0.0 0.0 -8.262277989752e+01 
-2.980479097129e+02 8.525913338431e+00 0.0 
8.525913338431e+00 -3.360555865598e+02 0.0 
0.0 0.0 -2.962229922187e+02 
-1.854601776370e+02 1.334578843505e+00 0.0 
1.334578843505e+00 -2.125941333313e+02 0.0 
0.0 0.0 -1.853946946427e+02 
-8.862156469074e+01 1.608185592155e-01 0.0 
1.608185592155e-01 -1.033154061738e+02 0.0 
0.0 0.0 -8.861980480298e+01 
-1.760005664502e+02 8.841208838460e-01 0.0 
8.841208838460e-01 -2.019815248225e+02 0.0 
0.0 0.0 -1.759705149550e+02 
-1.231179144020e+02 1.025129987632e-01 0.0 
1.025129987632e-01 -1.422941660527e+02 0.0 
0.0 0.0 -1.231173664005e+02 
-1.044665974290e+02 1.904168198437e-02 0.0 
1.904168198437e-02 -1.212218382036e+02 0.0 
0.0 0.0 -1.044665757889e+02 
-2.037317235609e+02 8.034379892282e-01 0.0 
8.034379892282e-01 -2.333315486666e+02 0.0 
0.0 0.0 -2.037099316175e+02 
-5.066871462187e+00 -1.617747356503e-02 0.0 
-1.617747356503e-02 -8.913581657734e+00 0.0 
0.0 0.0 -5.066803428463e+00 
-5.616530482491e+00 -3.444602369773e-02 0.0 
-3.444602369773e-02 -9.534121394607e+00 0.0 
0.0 0.0 -5.616227633915e+00 
-2.357484618706e+02 2.979865249085e+00 0.0 
2.979865249085e+00 -2.689880484480e+02 0.0 
0.0 0.0 -2.354834357684e+02 
-7.745285382268e+01 1.084868637009e-01 0.0 
1.084868637009e-01 -9.069813934765e+01 0.0 
0.0 0.0 -7.745196530955e+01 
-2.382046283107e+02 4.199807974776e+00 0.0 
4.199807974776e+00 -2.712071956230e+02 0.0 
0.0 0.0 -2.376785589922e+02 
-2.309672530444e+02 4.323817476777e+00 0.0 
4.323817476777e+00 -2.629264895403e+02 0.0 
0.0 0.0 -2.303926090943e+02 
-1.305293160841e+02 4.775746142456e-01 0.0 
4.775746142456e-01 -1.506450727730e+02 0.0 
0.0 0.0 -1.305179842160e+02 
-9.485857650194e+01 -3.565919326070e-01 0.0 
-3.565919326070e-01 -1.103486539507e+02 0.0 
0.0 0.0 -9.485037186315e+01 
-1.837445268262e+02 7.243594222158e+00 0.0 
7.243594222158e+00 -1.643375305865e+02 0.0 
0.0 0.0 -1.619320430751e+02 
-3.736240880828e+01 -7.360100694074e-02 0.0 
-7.360100694074e-02 -4.540185192287e+01 0.0 
0.0 0.0 -3.736173504840e+01 
-1.321275266778e+02 1.290876736923e-01 0.0 
1.290876736923e-01 -1.524732241537e+02 0.0 
0.0 0.0 -1.321267076861e+02 
-2.891243850066e+02 1.371667492407e+01 0.0 
1.371667492407e+01 -3.182749385487e+02 0.0 
0.0 0.0 -2.836850205386e+02 
-6.694019769674e+01 -1.538395662582e-01 0.0 
-1.538395662582e-01 -7.881791847774e+01 0.0 
0.0 0.0 -6.693820550954e+01 
-1.205262940083e+02 1.713349612605e+00 0.0 
1.713349612605e+00 -1.041859676257e+02 0.0 
0.0 0.0 -1.040082488421e+02 
-1.100230455365e+02 1.025636718362e+00 0.0 
1.025636718362e+00 -9.468362550292e+01 0.0 
0.0 0.0 -9.461535242205e+01 
-6.564550675129e+01 -1.520665810316e-01 0.0 
-1.520665810316e-01 -7.735513170025e+01 0.0 
0.0 0.0 -6.564353227759e+01 
-2.850129229459e+02 1.072774553775e+01 0.0 
1.072774553775e+01 -3.185274519525e+02 0.0 
0.0 0.0 -2.818731917474e+02 
-1.501435706589e+02 4.233235014130e+00 0.0 
4.233235014130e+00 -1.318184146471e+02 0.0 
0.0 0.0 -1.308877714428e+02 
-7.673347157083e+01 -1.999423701059e-01 0.0 
-1.999423701059e-01 -8.988075297218e+01 0.0 
0.0 0.0 -7.673043157278e+01 
-1.916842962874e+02 8.294303664667e+00 0.0 
8.294303664667e+00 -1.726985920868e+02 0.0 
0.0 0.0 -1.695855045442e+02 
-1.611963371210e+02 7.732435298268e+00 0.0 
7.732435298268e+00 -1.459429879766e+02 0.0 
0.0 0.0 -1.427088743328e+02 
-8.602422154235e+01 8.050920528559e-02 0.0 
8.050920528559e-02 -1.003835489682e+02 0.0 
0.0 0.0 -8.602377016129e+01 
-7.299523370843e+01 5.518419676448e+00 0.0 
5.518419676448e+00 -7.822920554802e+01 0.0 
0.0 0.0 -6.950471841825e+01 
-8.973336558047e+01 -4.367392952421e-02 0.0 
-4.367392952421e-02 -1.045750644147e+02 0.0 
0.0 0.0 -8.973323706448e+01 
-2.527563803851e+02 3.621669851691e+00 0.0 
3.621669851691e+00 -2.879843431541e+02 0.0 
0.0 0.0 -2.523879027407e+02 
-1.944104367861e+02 9.941602825891e-01 0.0 
9.941602825891e-01 -2.227720462951e+02 0.0 
0.0 0.0 -1.943756311720e+02 
-1.827531389893e+02 1.175181182701e+01 0.0 
1.175181182701e+01 -1.748454549086e+02 0.0 
0.0 0.0 -1.664001861705e+02 
-1.603286947024e+02 6.307737306060e+00 0.0 
6.307737306060e+00 -1.429369800432e+02 0.0 
0.0 0.0 -1.408901428962e+02 
-2.454248791314e+02 3.937591342580e+00 0.0 
3.937591342580e+00 -2.795298584660e+02 0.0 
0.0 0.0 -2.449761679989e+02 
-2.412207149635e+02 3.906155317550e+00 0.0 
3.906155317550e+00 -2.747798266573e+02 0.0 
0.0 0.0 -2.407720514078e+02 
-7.130906370519e+01 -3.021916395836e-01 0.0 
-3.021916395836e-01 -8.374275171023e+01 0.0 
0.0 0.0 -7.130172349300e+01 
-2.498312902916e+02 3.557897117271e+00 0.0 
3.557897117271e+00 -2.846988394559e+02 0.0 
0.0 0.0 -2.494719446280e+02 
-1.325567108209e+02 3.733728364442e+00 0.0 
3.733728364442e+00 -1.160135528070e+02 0.0 
0.0 0.0 -1.152099047221e+02 
-1.985392368745e+02 1.291212993510e+00 0.0 
1.291212993510e+00 -2.273883171163e+02 0.0 
0.0 0.0 -1.984815607046e+02 
-1.286104572986e+02 2.452774718521e+00 0.0 
2.452774718521e+00 -1.116616052408e+02 0.0 
0.0 0.0 -1.113137866381e+02 
-1.622083881722e+02 4.808557777926e+00 0.0 
4.808557777926e+00 -1.428719030844e+02 0.0 
0.0 0.0 -1.417421299869e+02 
-1.613644295281e+02 6.349516675836e+00 0.0 
6.349516675836e+00 -1.816199587172e+02 0.0 
0.0 0.0 -1.595386181849e+02 
-1.522323128200e+02 5.059125011301e+00 0.0 
5.059125011301e+00 -1.344340993395e+02 0.0 
0.0 0.0 -1.330965637272e+02 
-1.571668658275e+02 2.812114699369e-01 0.0 
2.812114699369e-01 -1.807588745524e+02 0.0 
0.0 0.0 -1.571635143258e+02 
-1.924165113334e+02 1.305909495012e+00 0.0 
1.305909495012e+00 -2.204640889112e+02 0.0 
0.0 0.0 -1.923558387692e+02 
-1.132140654798e+02 1.038791403338e-01 0.0 
1.038791403338e-01 -1.311040476345e+02 0.0 
0.0 0.0 -1.132134623203e+02 
-1.310226142703e+02 2.634946582882e-01 0.0 
2.634946582882e-01 -1.512192473692e+02 0.0 
0.0 0.0 -1.310191771815e+02 
-1.233829666973e+02 2.861185716106e+00 0.0 
2.861185716106e+00 -1.073108095569e+02 0.0 
0.0 0.0 -1.068166511733e+02 
-1.828127734697e+02 2.780808097938e+00 0.0 
2.780808097938e+00 -2.091232509221e+02 0.0 
0.0 0.0 -1.825220760209e+02 
-9.577141752400e+01 2.713389670856e-02 0.0 
2.713389670856e-02 -1.113974144398e+02 0.0 
0.0 0.0 -9.577137040725e+01 
-4.811309540806e+01 -1.841265991544e-01 0.0 
-1.841265991544e-01 -5.754244429540e+01 0.0 
0.0 0.0 -4.810950134366e+01 
-1.409326762869e+02 3.332023428299e+00 0.0 
3.332023428299e+00 -1.230438101507e+02 0.0 
0.0 0.0 -1.224433355170e+02 
-9.221643913865e+01 -2.110623272513e-01 0.0 
-2.110623272513e-01 -1.073746151079e+02 0.0 
0.0 0.0 -9.221350087796e+01 
-3.001530683432e+02 1.030576111290e+01 0.0 
1.030576111290e+01 -3.365353374571e+02 0.0 
0.0 0.0 -2.974366423398e+02 
-1.339300425531e+02 3.134483396303e+00 0.0 
3.134483396303e+00 -1.167589816657e+02 0.0 
0.0 0.0 -1.162046915881e+02 
-2.596123919454e+02 4.748447776973e+00 0.0 
4.748447776973e+00 -2.951888660690e+02 0.0 
0.0 0.0 -2.589895145907e+02 
-3.366724144708e+02 1.950288001645e+01 0.0 
1.950288001645e+01 -3.600516069520e+02 0.0 
0.0 0.0 -3.256241790381e+02 
-1.559782364401e+02 6.458074765221e-01 0.0 
6.458074765221e-01 -1.793851019993e+02 0.0 
0.0 0.0 -1.559604318224e+02 
-8.442021722483e+01 -2.015027809938e-01 0.0 
-2.015027809938e-01 -9.856609166546e+01 0.0 
0.0 0.0 -8.441734747397e+01 
-5.432945489079e+01 -3.079839253201e-01 0.0 
-3.079839253201e-01 -6.455399800072e+01 0.0 
0.0 0.0 -5.432018619404e+01 
-2.477204372953e+02 5.314981217212e+00 0.0 
5.314981217212e+00 -2.813318074114e+02 0.0 
0.0 0.0 -2.469000032227e+02 
-1.124557177853e+02 1.765127158018e+00 0.0 
1.765127158018e+00 -9.708519320501e+01 0.0 
0.0 0.0 -9.688509371827e+01 
-3.798818613873e+01 -2.180664378385e-01 0.0 
-2.180664378385e-01 -4.609785017439e+01 0.0 
0.0 0.0 -3.798232663120e+01 
-1.230912831081e+02 2.465956605551e-01 0.0 
2.465956605551e-01 -1.422584874471e+02 0.0 
0.0 0.0 -1.230881110566e+02 
-7.471764964600e+01 1.246265190598e-01 0.0 
1.246265190598e-01 -8.760705716825e+01 0.0 
0.0 0.0 -7.471644475606e+01 
-1.293266165719e+02 2.396503744676e+00 0.0 
2.396503744676e+00 -1.122621880728e+02 0.0 
0.0 0.0 -1.119320149353e+02 
-1.301415067137e+02 3.197106702199e-01 0.0 
3.197106702199e-01 -1.502201965334e+02 0.0 
0.0 0.0 -1.301364172875e+02 
-2.231306316128e+02 4.198754652183e+00 0.0 
4.198754652183e+00 -2.541053481648e+02 0.0 
0.0 0.0 -2.225715632773e+02 
-1.205982624363e+02 2.796507773104e-01 0.0 
2.796507773104e-01 -1.394396310898e+02 0.0 
0.0 0.0 -1.205941126668e+02 
-1.693993177275e+02 5.341145067001e+00 0.0 
5.341145067001e+00 -1.496557974887e+02 0.0 
0.0 0.0 -1.483034995861e+02 
-1.031590506530e+02 -6.681458819016e-02 0.0 
-6.681458819016e-02 -1.197439611610e+02 0.0 
0.0 0.0 -1.031587814856e+02 
-2.493213458830e+02 6.568256941692e+00 0.0 
6.568256941692e+00 -2.821964742514e+02 0.0 
0.0 0.0 -2.480576243636e+02 
-8.062578240132e+01 -4.257357564277e-01 0.0 
-4.257357564277e-01 -9.425671578959e+01 0.0 
0.0 0.0 -8.061249831708e+01 
-2.403412482532e+02 5.407509832909e+00 0.0 
5.407509832909e+00 -2.728777305276e+02 0.0 
0.0 0.0 -2.394660698864e+02 
-1.817819722587e+02 1.042516019213e+00 0.0 
1.042516019213e+00 -2.084911960606e+02 0.0 
0.0 0.0 -1.817413425166e+02 
-2.511419040175e+02 5.093289593318e+00 0.0 
5.093289593318e+00 -2.853647929932e+02 0.0 
0.0 0.0 -2.503999697959e+02 
-1.200218951878e+02 1.628561683952e+00 0.0 
1.628561683952e+00 -1.384937857349e+02 0.0 
0.0 0.0 -1.198794131809e+02 
-7.528167789463e+01 -1.784554902976e-01 0.0 
-1.784554902976e-01 -8.824166586513e+01 0.0 
0.0 0.0 -7.527922107707e+01 
-1.135827331304e+02 1.217923463970e+00 0.0 
1.217923463970e+00 -9.788251141622e+01 0.0 
0.0 0.0 -9.778859445157e+01 
-2.208046248951e+02 7.832752705390e+00 0.0 
7.832752705390e+00 -2.482406908721e+02 0.0 
0.0 0.0 -2.187259353115e+02 
-1.328741046729e+02 8.936534479317e+00 0.0 
8.936534479317e+00 -1.411676040058e+02 0.0 
0.0 0.0 -1.271690940247e+02 
-1.200336533645e+02 1.868534755402e+00 0.0 
1.868534755402e+00 -1.038155044040e+02 0.0 
0.0 0.0 -1.036030098580e+02 
-9.014663629406e+01 -4.306045057640e-01 0.0 
-4.306045057640e-01 -1.050157402536e+02 0.0 
0.0 0.0 -9.013417656575e+01 
-1.307677949517e+02 3.599518288836e+00 0.0 
3.599518288836e+00 -1.143365400509e+02 0.0 
0.0 0.0 -1.135826041722e+02 
-6.722022919725e+01 1.043572057612e-01 0.0 
1.043572057612e-01 -7.913661269532e+01 0.0 
0.0 0.0 -6.721931536368e+01 
-2.824934600412e+02 8.845664074652e+00 0.0 
8.845664074652e+00 -3.179260772568e+02 0.0 
0.0 0.0 -2.804079161193e+02 
-2.285256495208e+02 9.090480216492e+00 0.0 
9.090480216492e+00 -2.554706068718e+02 0.0 
0.0 0.0 -2.257456049390e+02 
-2.257911355560e+02 1.191365188993e+01 0.0 
1.191365188993e+01 -2.468717257770e+02 0.0 
0.0 0.0 -2.204244220737e+02 
-1.994176979816e+02 1.055976180173e+01 0.0 
1.055976180173e+01 -1.836578213030e+02 0.0 
0.0 0.0 -1.783619485652e+02 
-1.994516937906e+02 3.859187143783e+00 0.0 
3.859187143783e+00 -2.274291019001e+02 0.0 
0.0 0.0 -1.989291206258e+02 
-6.937580824005e+01 -2.346719083897e-01 0.0 
-2.346719083897e-01 -8.156445026896e+01 0.0 
0.0 0.0 -6.937129169872e+01 
-2.241098264868e+02 5.224513432129e+00 0.0 
5.224513432129e+00 -2.545455187352e+02 0.0 
0.0 0.0 -2.232379746256e+02 
-2.923454365762e+02 1.092682411850e+01 0.0 
1.092682411850e+01 -3.267294656817e+02 0.0 
0.0 0.0 -2.891668632705e+02 
-1.165741760931e+02 -1.064123465200e-01 0.0 
-1.064123465200e-01 -1.349004838476e+02 0.0 
0.0 0.0 -1.165735582269e+02 
-2.550774817777e+02 5.061452303179e+00 0.0 
5.061452303179e+00 -2.898546278043e+02 0.0 
0.0 0.0 -2.543558153984e+02 
-1.504133801779e+02 3.571154360923e+00 0.0 
3.571154360923e+00 -1.315336783764e+02 0.0 
0.0 0.0 -1.308807631301e+02 
-8.849805104567e+01 -3.872170713855e-01 0.0 
-3.872170713855e-01 -1.031578322835e+02 0.0 
0.0 0.0 -8.848783038848e+01 
-2.324084234967e+02 5.349027387478e+00 0.0 
5.349027387478e+00 -2.638962227838e+02 0.0 
0.0 0.0 -2.315245611147e+02 
-1.228221372753e+02 2.115657597838e+00 0.0 
2.115657597838e+00 -1.063881025123e+02 0.0 
0.0 0.0 -1.061201106588e+02 
-9.627091238827e+01 1.200436083880e-01 0.0 
1.200436083880e-01 -1.119599198048e+02 0.0 
0.0 0.0 -9.626999393474e+01 
-1.162577717044e+02 1.225401100046e-01 0.0 
1.225401100046e-01 -1.345425568986e+02 0.0 
0.0 0.0 -1.162569505078e+02 
-1.468450894729e+02 9.712010123882e+00 0.0 
9.712010123882e+00 -1.559626776585e+02 0.0 
0.0 0.0 -1.406751490538e+02 
-2.423347960649e+02 5.295840075372e+00 0.0 
5.295840075372e+00 -2.752226887388e+02 0.0 
0.0 0.0 -2.415030573724e+02 
-1.025093446051e+02 7.649328233860e+00 0.0 
7.649328233860e+00 -1.060972806202e+02 0.0 
0.0 0.0 -9.644643386588e+01 
-1.424412464363e+02 9.011187645436e+00 0.0 
9.011187645436e+00 -1.532685965918e+02 0.0 
0.0 0.0 -1.373425773117e+02 
-1.317084456508e+02 3.619383354427e+00 0.0 
3.619383354427e+00 -1.151760932434e+02 0.0 
0.0 0.0 -1.144184340709e+02 
-1.093115548683e+02 1.609272084597e+00 0.0 
1.609272084597e+00 -9.424563057833e+01 0.0 
0.0 0.0 -9.407565332851e+01 
-1.178213017185e+02 2.419407619489e+00 0.0 
2.419407619489e+00 -1.021447289465e+02 0.0 
0.0 0.0 -1.017798289578e+02 
-1.755165029376e+02 6.076636278754e-01 0.0 
6.076636278754e-01 -2.014683164017e+02 0.0 
0.0 0.0 -1.755022822414e+02 
-2.760459111009e+02 1.057476418659e+01 0.0 
1.057476418659e+01 -3.083694462641e+02 0.0 
0.0 0.0 -2.728937363360e+02 
-2.161513211784e+02 5.067803764216e+00 0.0 
5.067803764216e+00 -2.456052061888e+02 0.0 
0.0 0.0 -2.153037501906e+02 
-1.172130320312e+02 1.590114084834e+00 0.0 
1.590114084834e+00 -1.012135309668e+02 0.0 
0.0 0.0 -1.010570279853e+02 
-2.326344845888e+02 1.544182541776e+01 0.0 
1.544182541776e+01 -2.287534523323e+02 0.0 
0.0 0.0 -2.151306919714e+02 
-2.330084140443e+02 1.305379403853e+01 0.0 
1.305379403853e+01 -2.525300370449e+02 0.0 
0.0 0.0 -2.264696862890e+02 
-2.332288347525e+02 5.307229558660e+00 0.0 
5.307229558660e+00 -2.648596603956e+02 0.0 
0.0 0.0 -2.323621023792e+02 
-1.439346824684e+02 4.106403183178e+00 0.0 
4.106403183178e+00 -1.262813335072e+02 0.0 
0.0 0.0 -1.253728793554e+02 
-1.379609936954e+02 4.753404821947e-01 0.0 
4.753404821947e-01 -1.590431767856e+02 0.0 
0.0 0.0 -1.379502816252e+02 
-1.277046613836e+02 2.408538020932e-01 0.0 
2.408538020932e-01 -1.474714831790e+02 0.0 
0.0 0.0 -1.277017270756e+02 
-7.262464774734e+01 -4.007173641896e-02 0.0 
-4.007173641896e-02 -8.524454522335e+01 0.0 
0.0 0.0 -7.262452050955e+01 
-2.328448111099e+02 6.356732977454e+00 0.0 
6.356732977454e+00 -2.635823197799e+02 0.0 
0.0 0.0 -2.315820693019e+02 
-1.347854925048e+02 3.968146447369e-01 0.0 
3.968146447369e-01 -1.554618939313e+02 0.0 
0.0 0.0 -1.347778797726e+02 
-1.374561038232e+02 3.172766440244e+00 0.0 
3.172766440244e+00 -1.198815633439e+02 0.0 
0.0 0.0 -1.193263197276e+02 
-1.373157222043e+02 3.182220482283e+00 0.0 
3.182220482283e+00 -1.197647034861e+02 0.0 
0.0 0.0 -1.192055413614e+02 
-1.646572991959e+02 5.736737573948e+00 0.0 
5.736737573948e+00 -1.861752096363e+02 0.0 
0.0 0.0 -1.632234173622e+02 
-1.058879194944e+02 -1.454144948115e-01 0.0 
-1.454144948115e-01 -1.228251258768e+02 0.0 
0.0 0.0 -1.058866711293e+02 
-1.135138668265e+02 2.983715978863e+00 0.0 
2.983715978863e+00 -1.303512292182e+02 0.0 
0.0 0.0 -1.130007646551e+02 
-1.083759935826e+02 -5.001901698950e-02 0.0 
-5.001901698950e-02 -1.256386610279e+02 0.0 
0.0 0.0 -1.083758486524e+02 
-1.137900363464e+02 1.118732577529e-01 0.0 
1.118732577529e-01 -1.317546171635e+02 0.0 
0.0 0.0 -1.137893396900e+02 
-7.829629989779e+01 -2.602800872704e-01 0.0 
-2.602800872704e-01 -9.164220360922e+01 0.0 
0.0 0.0 -7.829122568344e+01 
-2.681749586931e+02 1.047063432326e+01 0.0 
1.047063432326e+01 -2.994052031547e+02 0.0 
0.0 0.0 -2.649893834524e+02 
-1.389071660252e+02 1.116747614806e+00 0.0 
1.116747614806e+00 -1.600095159427e+02 0.0 
0.0 0.0 -1.388482317364e+02 
-1.704779535825e+02 5.488592510187e+00 0.0 
5.488592510187e+00 -1.507454337277e+02 0.0 
0.0 0.0 -1.493215327750e+02 
-1.475531635734e+02 1.685888451558e+00 0.0 
1.685888451558e+00 -1.696312304580e+02 0.0 
0.0 0.0 -1.474251705892e+02 
-2.144204520660e+02 5.118476922658e+00 0.0 
5.118476922658e+00 -2.435978216122e+02 0.0 
0.0 0.0 -2.135485893256e+02 
-1.757388960898e+02 2.799802032443e+00 0.0 
2.799802032443e+00 -2.010993744696e+02 0.0 
0.0 0.0 -1.754334755993e+02 
-1.476591785457e+02 8.200531052791e+00 0.0 
8.200531052791e+00 -1.621479737080e+02 0.0 
0.0 0.0 -1.439614554064e+02 
-7.989826818299e+01 1.820942541091e-02 0.0 
1.820942541091e-02 -9.346296499646e+01 0.0 
0.0 0.0 -7.989824373847e+01 
-2.859247410469e+02 1.087085293043e+01 0.0 
1.087085293043e+01 -3.193828872876e+02 0.0 
0.0 0.0 -2.827029412315e+02 
-2.925982964418e+02 1.194994297340e+01 0.0 
1.194994297340e+01 -3.255208387893e+02 0.0 
0.0 0.0 -2.887181176740e+02 
-1.932323288925e+02 1.290434151974e+01 0.0 
1.290434151974e+01 -2.013416678468e+02 0.0 
0.0 0.0 -1.837606398564e+02 
-1.211023353834e+02 3.173872684985e-01 0.0 
3.173872684985e-01 -1.400066572177e+02 0.0 
0.0 0.0 -1.210970082259e+02 
-1.949094957623e+02 3.889709227081e+00 0.0 
3.889709227081e+00 -2.222545314097e+02 0.0 
0.0 0.0 -1.943669658720e+02 
-1.230788476298e+02 2.786878622613e+00 0.0 
2.786878622613e+00 -1.069945753112e+02 0.0 
0.0 0.0 -1.065253868696e+02 
-1.454117189789e+02 6.335801002831e-01 0.0 
6.335801002831e-01 -1.674455262672e+02 0.0 
0.0 0.0 -1.453935154804e+02 
-1.177178805356e+02 7.565949013877e+00 0.0 
7.565949013877e+00 -1.273488556383e+02 0.0 
0.0 0.0 -1.135649510116e+02 
-1.072719354724e+02 1.132048029199e-01 0.0 
1.132048029199e-01 -1.243899399104e+02 0.0 
0.0 0.0 -1.072711868590e+02 
-9.972578468317e+01 -3.738624201820e-01 0.0 
-3.738624201820e-01 -1.158469549837e+02 0.0 
0.0 0.0 -9.971711918211e+01 
-1.482155122506e+02 7.801202121763e-01 0.0 
7.801202121763e-01 -1.705943509609e+02 0.0 
0.0 0.0 -1.481883504398e+02 
-9.748700681831e+01 -1.244247500555e-01 0.0 
-1.244247500555e-01 -1.133338164894e+02 0.0 
0.0 0.0 -9.748602992994e+01 
-9.209010177034e+01 1.437807177990e-01 0.0 
1.437807177990e-01 -1.072352222021e+02 0.0 
0.0 0.0 -9.208873690619e+01 
-1.908165171771e+02 2.989458771611e+00 0.0 
2.989458771611e+00 -2.180959692770e+02 0.0 
0.0 0.0 -1.904927554656e+02 
-2.237470682735e+02 5.238560760062e+00 0.0 
5.238560760062e+00 -2.541224189717e+02 0.0 
0.0 0.0 -2.228690036351e+02 
-2.318670996563e+02 1.541974042985e+01 0.0 
1.541974042985e+01 -2.393014082939e+02 0.0 
0.0 0.0 -2.197228028701e+02 
-4.826769153281e+00 -3.450215049073e-02 0.0 
-3.450215049073e-02 -8.641779112031e+00 0.0 
0.0 0.0 -4.826457148580e+00 
-1.440244902934e+02 2.122631470307e+00 0.0 
2.122631470307e+00 -1.654738242913e+02 0.0 
0.0 0.0 -1.438164519274e+02 
-1.384129984051e+02 1.515910229785e+00 0.0 
1.515910229785e+00 -1.593440758636e+02 0.0 
0.0 0.0 -1.383037801765e+02 
-1.298916392086e+02 6.452121265947e-01 0.0 
6.452121265947e-01 -1.499044614384e+02 0.0 
0.0 0.0 -1.298708591870e+02 
-1.213703657316e+02 2.561931099121e+00 0.0 
2.561931099121e+00 -1.053515870911e+02 0.0 
0.0 0.0 -1.049518261428e+02 
-1.571049116642e+02 1.879767461231e+00 0.0 
1.879767461231e+00 -1.803746755243e+02 0.0 
0.0 0.0 -1.569540393445e+02 
-1.051152813857e+02 3.050659292884e-02 0.0 
3.050659292884e-02 -1.219546911418e+02 0.0 
0.0 0.0 -1.051152261196e+02 
-1.575725598178e+02 1.246940543708e+00 0.0 
1.246940543708e+00 -1.810839329922e+02 0.0 
0.0 0.0 -1.575066125138e+02 
-1.413851653565e+02 3.934951772591e+00 0.0 
3.934951772591e+00 -1.239051596455e+02 0.0 
0.0 0.0 -1.230602005623e+02 
-1.123869812917e+02 2.099389141004e-01 0.0 
2.099389141004e-01 -1.301655604054e+02 0.0 
0.0 0.0 -1.123845025670e+02 
-4.550656748903e+01 -1.679483889914e-01 0.0 
-1.679483889914e-01 -5.459847205452e+01 0.0 
0.0 0.0 -4.550346615390e+01 
-6.255310035278e+01 -2.281427237665e-01 0.0 
-2.281427237665e-01 -7.385553454812e+01 0.0 
0.0 0.0 -6.254849710435e+01 
-9.998131100544e+01 -2.929468408477e-01 0.0 
-2.929468408477e-01 -1.161428153789e+02 0.0 
0.0 0.0 -9.997600273266e+01 
-1.120976573242e+02 -3.273328820064e-02 0.0 
-3.273328820064e-02 -1.298438144624e+02 0.0 
0.0 0.0 -1.120975969469e+02 
-1.471681092030e+02 2.205187229540e+00 0.0 
2.205187229540e+00 -1.689990964911e+02 0.0 
0.0 0.0 -1.469475868534e+02 
-1.661724494421e+02 1.850624142340e+00 0.0 
1.850624142340e+00 -1.906447143723e+02 0.0 
0.0 0.0 -1.660332941360e+02 
-7.225120978614e+01 -4.847466455631e-01 0.0 
-4.847466455631e-01 -8.478300541272e+01 0.0 
0.0 0.0 -7.223248710835e+01 
-6.297215588448e+01 -1.394140929777e-02 0.0 
-1.394140929777e-02 -7.433877812036e+01 0.0 
0.0 0.0 -6.297213878506e+01 
-1.398465649804e+02 3.872056463637e+00 0.0 
3.872056463637e+00 -1.225064320150e+02 0.0 
0.0 0.0 -1.216810851801e+02 
-1.003325985997e+02 1.102694578695e-01 0.0 
1.102694578695e-01 -1.165494315388e+02 0.0 
0.0 0.0 -1.003318488361e+02 
-2.540936100272e+02 9.092176069410e+00 0.0 
9.092176069410e+00 -2.850067186197e+02 0.0 
0.0 0.0 -2.516177150655e+02 
-2.261592717201e+02 1.485149012215e+01 0.0 
1.485149012215e+01 -2.355252368905e+02 0.0 
0.0 0.0 -2.152699364065e+02 
-1.498856110984e+02 8.922552565000e+00 0.0 
8.922552565000e+00 -1.395144794377e+02 0.0 
0.0 0.0 -1.343800628429e+02 
-1.624888980011e+02 7.357778247395e+00 0.0 
7.357778247395e+00 -1.463692465645e+02 0.0 
0.0 0.0 -1.435158834112e+02 
-2.354797564577e+02 1.578373366127e+01 0.0 
1.578373366127e+01 -2.410022044070e+02 0.0 
0.0 0.0 -2.222175411596e+02 
-1.577682359510e+02 5.888330736908e+00 0.0 
5.888330736908e+00 -1.780715016809e+02 0.0 
0.0 0.0 -1.561841077118e+02 
-2.088875560571e+02 1.381096631789e+01 0.0 
1.381096631789e+01 -2.177453424999e+02 0.0 
0.0 0.0 -1.988127295556e+02 
-8.330693128981e+01 -5.857276468844e-01 0.0 
-5.857276468844e-01 -9.726207308986e+01 0.0 
0.0 0.0 -8.328239018407e+01 
-1.651149358929e+02 1.450658999011e+00 0.0 
1.450658999011e+00 -1.895635631401e+02 0.0 
0.0 0.0 -1.650291619823e+02 
-1.483044887736e+02 6.951842153303e+00 0.0 
6.951842153303e+00 -1.655204657747e+02 0.0 
0.0 0.0 -1.458478681374e+02 
-9.064516976164e+01 -5.195137937886e-02 0.0 
-5.195137937886e-02 -1.056051684791e+02 0.0 
0.0 0.0 -9.064498935299e+01 
-6.543374414267e+01 -6.132205163877e-01 0.0 
-6.132205163877e-01 -7.705132544123e+01 0.0 
0.0 0.0 -6.540146569384e+01 
-1.218507034670e+02 2.212861412471e-01 0.0 
2.212861412471e-01 -1.408580710883e+02 0.0 
0.0 0.0 -1.218481275752e+02 
-1.581811648106e+02 1.637107370478e+00 0.0 
1.637107370478e+00 -1.816701821120e+02 0.0 
0.0 0.0 -1.580676127435e+02 
-1.661474597221e+02 2.335872994122e+00 0.0 
2.335872994122e+00 -1.904387965785e+02 0.0 
0.0 0.0 -1.659248799230e+02 
-1.011392206545e+02 -4.448994739683e-02 0.0 
-4.448994739683e-02 -1.174621432687e+02 0.0 
0.0 0.0 -1.011390993931e+02 
-1.659870304008e+02 2.583335593852e+00 0.0 
2.583335593852e+00 -1.901499188323e+02 0.0 
0.0 0.0 -1.657139241542e+02 
-1.572940727104e+02 2.145572600160e+00 0.0 
2.145572600160e+00 -1.804906115988e+02 0.0 
0.0 0.0 -1.570972865853e+02 
-1.506584871004e+02 2.926896932453e+00 0.0 
2.926896932453e+00 -1.725949703054e+02 0.0 
0.0 0.0 -1.502746782492e+02 
-1.200169600708e+02 9.968461825997e-02 0.0 
9.968461825997e-02 -1.387905496777e+02 0.0 
0.0 0.0 -1.200164307770e+02 
-2.244215631609e+02 9.906008938384e+00 0.0 
9.906008938384e+00 -2.494042020515e+02 0.0 
0.0 0.0 -2.209704212350e+02 
-1.449627388604e+02 4.240511835507e+00 0.0 
4.240511835507e+00 -1.272982515011e+02 0.0 
0.0 0.0 -1.263330225962e+02 
-1.491875994306e+02 2.958941265788e+00 0.0 
2.958941265788e+00 -1.709073384605e+02 0.0 
0.0 0.0 -1.487917104507e+02 
-2.748804096335e+02 1.089598859604e+01 0.0 
1.089598859604e+01 -3.065539684383e+02 0.0 
0.0 0.0 -2.714941260821e+02 
-9.267683085599e+01 -4.764847492928e-01 0.0 
-4.764847492928e-01 -1.078692554287e+02 0.0 
0.0 0.0 -9.266190138728e+01 
-2.949172183287e+02 1.412337665482e+01 0.0 
1.412337665482e+01 -3.242874236964e+02 0.0 
0.0 0.0 -2.892277778528e+02 
-1.564769764740e+02 2.385866998049e+00 0.0 
2.385866998049e+00 -1.794646835247e+02 0.0 
0.0 0.0 -1.562319616469e+02 
-2.402638208817e+02 1.613275758649e+01 0.0 
1.613275758649e+01 -2.446324905417e+02 0.0 
0.0 0.0 -2.261681929970e+02 
-1.573646923040e+02 1.104782899899e+01 0.0 
1.104782899899e+01 -1.563169970756e+02 0.0 
0.0 0.0 -1.457806031954e+02 
-8.591945528877e+01 -5.050788858990e-01 0.0 
-5.050788858990e-01 -1.002282135164e+02 0.0 
0.0 0.0 -8.590164887897e+01 
-1.560686113485e+02 9.860666806614e+00 0.0 
9.860666806614e+00 -1.474967672037e+02 0.0 
0.0 0.0 -1.410308579027e+02 
-1.736622383988e+02 9.749735871470e+00 0.0 
9.749735871470e+00 -1.607542281541e+02 0.0 
0.0 0.0 -1.555158626151e+02 
-1.652207251475e+02 3.192195214656e+00 0.0 
3.192195214656e+00 -1.889677740931e+02 0.0 
0.0 0.0 -1.647991004266e+02 
-1.072345276190e+02 5.907833658690e+00 0.0 
5.907833658690e+00 -1.191763722880e+02 0.0 
0.0 0.0 -1.048057825754e+02 
-1.629650770105e+02 1.070898340656e+01 0.0 
1.070898340656e+01 -1.562170197239e+02 0.0 
0.0 0.0 -1.483631191330e+02 
-1.498103237350e+02 9.940756484929e+00 0.0 
9.940756484929e+00 -1.587766314686e+02 0.0 
0.0 0.0 -1.433885563235e+02 
-7.010819208488e+01 -5.722021211082e-01 0.0 
-5.722021211082e-01 -8.234469869774e+01 0.0 
0.0 0.0 -7.008149308971e+01 
-1.783426706657e+02 1.149210264019e+01 0.0 
1.149210264019e+01 -1.705550091506e+02 0.0 
0.0 0.0 -1.623149888681e+02 
-6.123211580551e+01 -5.167611720773e-01 0.0 
-5.167611720773e-01 -7.232162863884e+01 0.0 
0.0 0.0 -6.120808727130e+01 
-2.717034870700e+02 1.547444341523e+01 0.0 
1.547444341523e+01 -2.927173349880e+02 0.0 
0.0 0.0 -2.635060305236e+02 
-1.685568584934e+02 7.655010824806e+00 0.0 
7.655010824806e+00 -1.520136428592e+02 0.0 
0.0 0.0 -1.490149939530e+02 
-2.343125818933e+02 1.021625260674e+01 0.0 
1.021625260674e+01 -2.604299462104e+02 0.0 
0.0 0.0 -2.307911254203e+02 
-1.130359817712e+02 1.878844223399e+00 0.0 
1.878844223399e+00 -9.764773416386e+01 0.0 
0.0 0.0 -9.742165615684e+01 
-1.737428785726e+02 6.927850994881e+00 0.0 
6.927850994881e+00 -1.553123588249e+02 0.0 
0.0 0.0 -1.529986927318e+02 
-1.644469173262e+02 2.940605822778e+00 0.0 
2.940605822778e+00 -1.882285383944e+02 0.0 
0.0 0.0 -1.640887059498e+02 
-1.776341641618e+02 6.786998159175e+00 0.0 
6.786998159175e+00 -1.998199209313e+02 0.0 
0.0 0.0 -1.757226088844e+02 
-1.743705636167e+02 9.601075995368e+00 0.0 
9.601075995368e+00 -1.609300405926e+02 0.0 
0.0 0.0 -1.559309772496e+02 
-2.433300102849e+02 6.556163338566e+00 0.0 
6.556163338566e+00 -2.753720360830e+02 0.0 
0.0 0.0 -2.420404445676e+02 
-1.554858691250e+02 5.225669423205e+00 0.0 
5.225669423205e+00 -1.374388427158e+02 0.0 
0.0 0.0 -1.360349204028e+02 
-2.226248603344e+02 8.096939460564e+00 0.0 
8.096939460564e+00 -2.500067668249e+02 0.0 
0.0 0.0 -2.204097572051e+02 
-7.921945310638e+01 -5.538992633083e-01 0.0 
-5.538992633083e-01 -9.264746765407e+01 0.0 
0.0 0.0 -7.919664376797e+01 
-1.650061821692e+02 6.500936041730e+00 0.0 
6.500936041730e+00 -1.472199879071e+02 0.0 
0.0 0.0 -1.450972171195e+02 
-2.564214393520e+02 1.698528131127e+01 0.0 
1.698528131127e+01 -2.634669538229e+02 0.0 
0.0 0.0 -2.425974505017e+02 
-2.969367590455e+02 1.269096556962e+01 0.0 
1.269096556962e+01 -3.293668194903e+02 0.0 
0.0 0.0 -2.925608249339e+02 
-1.480073490565e+02 1.275881908913e+00 0.0 
1.275881908913e+00 -1.702617181685e+02 0.0 
0.0 0.0 -1.479344393813e+02 
-1.268444564740e+02 2.240157652283e+00 0.0 
2.240157652283e+00 -1.099947609511e+02 0.0 
0.0 0.0 -1.097020192458e+02 
-1.088907936505e+02 1.595077836496e+00 0.0 
1.595077836496e+00 -9.386856001176e+01 0.0 
0.0 0.0 -9.370106047278e+01 
-1.745651406461e+02 2.545810456653e+00 0.0 
2.545810456653e+00 -1.998838908519e+02 0.0 
0.0 0.0 -1.743116954189e+02 
-2.336143069106e+02 6.452904012431e+00 0.0 
6.452904012431e+00 -2.643748647477e+02 0.0 
0.0 0.0 -2.323154686521e+02 
-2.441671808418e+02 7.695875424702e+00 0.0 
7.695875424702e+00 -2.752257920803e+02 0.0 
0.0 0.0 -2.423648439662e+02 
-5.503524998632e+01 -5.717522665182e-02 0.0 
-5.717522665182e-02 -6.537051778424e+01 0.0 
0.0 0.0 -5.503493369974e+01 
-9.843049836498e+01 2.335851676065e+00 0.0 
2.335851676065e+00 -1.136558141452e+02 0.0 
0.0 0.0 -9.808019429333e+01 
-1.556462403681e+02 3.861368504275e+00 0.0 
3.861368504275e+00 -1.776463599534e+02 0.0 
0.0 0.0 -1.549881921596e+02 
-1.553283866536e+02 2.831298902726e+00 0.0 
2.831298902726e+00 -1.779453558923e+02 0.0 
0.0 0.0 -1.549793381779e+02 
-1.524053951816e+02 9.133856524387e+00 0.0 
9.133856524387e+00 -1.653108232707e+02 0.0 
0.0 0.0 -1.476748693759e+02 
-2.182308675119e+02 1.217531070952e+01 0.0 
1.217531070952e+01 -2.030738027672e+02 0.0 
0.0 0.0 -1.963110540325e+02 
-1.905288396430e+02 1.258149224216e+01 0.0 
1.258149224216e+01 -1.845482565575e+02 0.0 
0.0 0.0 -1.746065803246e+02 
-1.864983605742e+02 8.253490679850e+00 0.0 
8.253490679850e+00 -1.682277416614e+02 0.0 
0.0 0.0 -1.650515123323e+02 
-1.080223777956e+02 8.085437837143e+00 0.0 
8.085437837143e+00 -1.099404410246e+02 0.0 
0.0 0.0 -1.008392937971e+02 
-1.655467476332e+02 8.108551919165e+00 0.0 
8.108551919165e+00 -1.503085647334e+02 0.0 
0.0 0.0 -1.468011487013e+02 
-2.413823591571e+02 6.515712467322e+00 0.0 
6.515712467322e+00 -2.731850983698e+02 0.0 
0.0 0.0 -2.400991989673e+02 
-1.731782668117e+02 9.090717915393e+00 0.0 
9.090717915393e+00 -1.587174003835e+02 0.0 
0.0 0.0 -1.543323130892e+02 
-1.608438676093e+02 6.251109763224e+00 0.0 
6.251109763224e+00 -1.433044303603e+02 0.0 
0.0 0.0 -1.413045464841e+02 
-1.741218403915e+02 2.051356567527e+00 0.0 
2.051356567527e+00 -1.995729341764e+02 0.0 
0.0 0.0 -1.739575615489e+02 
-1.526531185200e+02 3.988903356409e+00 0.0 
3.988903356409e+00 -1.741397870913e+02 0.0 
0.0 0.0 -1.519364972403e+02 
-1.474927633406e+02 5.639390621345e+00 0.0 
5.639390621345e+00 -1.310063519882e+02 0.0 
0.0 0.0 -1.292619069696e+02 
-1.942979958394e+02 9.344557437092e+00 0.0 
9.344557437092e+00 -1.767740711552e+02 0.0 
0.0 0.0 -1.727261647322e+02 
-1.443616576976e+02 4.641314386185e+00 0.0 
4.641314386185e+00 -1.271563840461e+02 0.0 
0.0 0.0 -1.259841981324e+02 
-1.391192472687e+02 4.569228670157e+00 0.0 
4.569228670157e+00 -1.225212943406e+02 0.0 
0.0 0.0 -1.213465777026e+02 
-2.734386730427e+02 9.511501813905e+00 0.0 
9.511501813905e+00 -3.067621200863e+02 0.0 
0.0 0.0 -2.709149412019e+02 
-2.623757063706e+02 1.515624454637e+01 0.0 
1.515624454637e+01 -2.821573689245e+02 0.0 
0.0 0.0 -2.541684633826e+02 
-2.647424956806e+02 9.276186487071e+00 0.0 
9.276186487071e+00 -2.970414376164e+02 0.0 
0.0 0.0 -2.622679754466e+02 
-2.046999078664e+02 4.055329615601e+00 0.0 
4.055329615601e+00 -2.332696109600e+02 0.0 
0.0 0.0 -2.041354267007e+02 
-9.889503879611e+01 7.238650372429e+00 0.0 
7.238650372429e+00 -9.557957527140e+01 0.0 
0.0 0.0 -8.981126274287e+01 
-2.433221112297e+02 1.164698904870e+01 0.0 
1.164698904870e+01 -2.683527007713e+02 0.0 
0.0 0.0 -2.387410626166e+02 
-1.689954970033e+02 8.515109911545e+00 0.0 
8.515109911545e+00 -1.540040019441e+02 0.0 
0.0 0.0 -1.501554413047e+02 
-9.133880581279e+01 -1.397624702411e-01 0.0 
-1.397624702411e-01 -1.063865024722e+02 0.0 
0.0 0.0 -9.133750781591e+01 
-1.609042363455e+02 3.709968879554e+00 0.0 
3.709968879554e+00 -1.837370438944e+02 0.0 
0.0 0.0 -1.603165514736e+02 
-1.738868160203e+02 4.925855718913e+00 0.0 
4.925855718913e+00 -1.975615018326e+02 0.0 
0.0 0.0 -1.729028196189e+02 
-1.949086718007e+02 8.075061343281e+00 0.0 
8.075061343281e+00 -2.179894408817e+02 0.0 
0.0 0.0 -1.923640610966e+02 
-9.089147542580e+01 5.046072090467e-01 0.0 
5.046072090467e-01 -1.058476248448e+02 0.0 
0.0 0.0 -9.087446976239e+01 
-1.559646445423e+02 3.762708646127e+00 0.0 
3.762708646127e+00 -1.780815821616e+02 0.0 
0.0 0.0 -1.553420299789e+02 
-2.122620585038e+02 9.480312633773e+00 0.0 
9.480312633773e+00 -2.359241479140e+02 0.0 
0.0 0.0 -2.089323002471e+02 
-1.352767547096e+02 9.591384757725e+00 0.0 
9.591384757725e+00 -1.328115481489e+02 0.0 
0.0 0.0 -1.243738891568e+02 
-1.665653363020e+02 2.052918622117e+00 0.0 
2.052918622117e+00 -1.910205061584e+02 0.0 
0.0 0.0 -1.663941991974e+02 
-1.566396566989e+02 5.128434990206e+00 0.0 
5.128434990206e+00 -1.383377889481e+02 0.0 
0.0 0.0 -1.369987067968e+02 
-9.108722947314e+01 5.436513934397e-01 0.0 
5.436513934397e-01 -7.783752687702e+01 0.0 
0.0 0.0 -7.781525762864e+01 
-1.126226136148e+01 1.794578849710e+00 0.0 
1.794578849710e+00 -1.403760362574e+01 0.0 
0.0 0.0 -1.038142099512e+01 
-2.074670627085e+02 4.061510006198e+00 0.0 
4.061510006198e+00 -2.364073865099e+02 0.0 
0.0 0.0 -2.069078716969e+02 
-2.438313619743e+02 1.075997146653e+01 0.0 
1.075997146653e+01 -2.706201348808e+02 0.0 
0.0 0.0 -2.400447538574e+02 
-2.020524387608e+02 1.331332828495e+01 0.0 
1.331332828495e+01 -1.961466358454e+02 0.0 
0.0 0.0 -1.854626631363e+02 
-1.680768971466e+02 5.864784461371e+00 0.0 
5.864784461371e+00 -1.899557032597e+02 0.0 
0.0 0.0 -1.666039581191e+02 
-1.854959281704e+02 2.986503953133e+00 0.0 
2.986503953133e+00 -2.120678912038e+02 0.0 
0.0 0.0 -1.851644021794e+02 
-1.465217400965e+02 4.142804914604e+00 0.0 
4.142804914604e+00 -1.285741896697e+02 0.0 
0.0 0.0 -1.276640651395e+02 
-1.234043824414e+01 2.169516349479e+00 0.0 
2.169516349479e+00 -1.383949372356e+01 0.0 
0.0 0.0 -1.079462439200e+01 
-2.325309108464e+02 1.042177055783e+01 0.0 
1.042177055783e+01 -2.579895872866e+02 0.0 
0.0 0.0 -2.288088250223e+02 
-1.895831508006e+02 6.996825343476e+00 0.0 
6.996825343476e+00 -2.133273596152e+02 0.0 
0.0 0.0 -1.876747462208e+02 
-1.244989938772e+02 8.799943812814e+00 0.0 
8.799943812814e+00 -1.209268793785e+02 0.0 
0.0 0.0 -1.137335707479e+02 
-2.504583164887e+02 7.782569771073e+00 0.0 
7.782569771073e+00 -2.823427085220e+02 0.0 
0.0 0.0 -2.486601064763e+02 
-9.454759588319e+01 -3.335084972033e-01 0.0 
-3.335084972033e-01 -1.099994385631e+02 0.0 
0.0 0.0 -9.454040087404e+01 
-2.587775497974e+02 9.028818563891e+00 0.0 
9.028818563891e+00 -2.904795624425e+02 0.0 
0.0 0.0 -2.563864628712e+02 
-2.871829740586e+02 1.245416410785e+01 0.0 
1.245416410785e+01 -3.183750070150e+02 0.0 
0.0 0.0 -2.828204852417e+02 
-2.231792980087e+02 1.000507088391e+01 0.0 
1.000507088391e+01 -2.477785232106e+02 0.0 
0.0 0.0 -2.196238825893e+02 
-1.639463122357e+02 5.643505310481e+00 0.0 
5.643505310481e+00 -1.452414497393e+02 0.0 
0.0 0.0 -1.436706432605e+02 
-2.186862186519e+02 1.375872866625e+01 0.0 
1.375872866625e+01 -2.317439924082e+02 0.0 
0.0 0.0 -2.099858908957e+02 
-2.857048762095e+02 1.215990725141e+01 0.0 
1.215990725141e+01 -3.171497895985e+02 0.0 
0.0 0.0 -2.815512420189e+02 
-1.616960263319e+01 2.486937444395e+00 0.0 
2.486937444395e+00 -1.634658141185e+01 0.0 
0.0 0.0 -1.376958077594e+01 
-1.577151571076e+02 5.265014756423e+00 0.0 
5.265014756423e+00 -1.394173166477e+02 0.0 
0.0 0.0 -1.380105217546e+02 
-2.601563242955e+02 1.576315348074e+01 0.0 
1.576315348074e+01 -2.770063172933e+02 0.0 
0.0 0.0 -2.507079446818e+02 
-1.523273569206e+02 6.009590235480e+00 0.0 
6.009590235480e+00 -1.356544682067e+02 0.0 
0.0 0.0 -1.337141679763e+02 
-2.027751007200e+02 8.421067271740e+00 0.0 
8.421067271740e+00 -2.265971933589e+02 0.0 
0.0 0.0 -2.000989129486e+02 
-1.608246611685e+02 4.734331303842e+00 0.0 
4.734331303842e+00 -1.828206810692e+02 0.0 
0.0 0.0 -1.598489450587e+02 
-1.849878895627e+02 1.646055923174e+00 0.0 
1.646055923174e+00 -2.119870279817e+02 0.0 
0.0 0.0 -1.848879047742e+02 
-5.174460585653e+01 -1.784106668592e-01 0.0 
-1.784106668592e-01 -6.164636708978e+01 0.0 
0.0 0.0 -5.174139228288e+01 
-1.636534882584e+02 6.537453760315e+00 0.0 
6.537453760315e+00 -1.461079787257e+02 0.0 
0.0 0.0 -1.439400055520e+02 
-9.679054030582e+01 -7.091795789002e-02 0.0 
-7.091795789002e-02 -1.125483050205e+02 0.0 
0.0 0.0 -9.679022114540e+01 
-2.168571212720e+01 2.771205622497e+00 0.0 
2.771205622497e+00 -2.093447417072e+01 0.0 
0.0 0.0 -1.851354702580e+01 
-2.087246168779e+02 1.343586630314e+01 0.0 
1.343586630314e+01 -2.199801156724e+02 0.0 
0.0 0.0 -1.997854837468e+02 
-1.741792779047e+02 9.356785022406e+00 0.0 
9.356785022406e+00 -1.601636205459e+02 0.0 
0.0 0.0 -1.554813213921e+02 
-8.522039944977e+01 -5.521395945554e-01 0.0 
-5.521395945554e-01 -9.943067686765e+01 0.0 
0.0 0.0 -8.519897838522e+01 
-1.505392793096e+02 1.028479259545e+01 0.0 
1.028479259545e+01 -1.577308880611e+02 0.0 
0.0 0.0 -1.432398201346e+02 
-1.504749773918e+02 5.715875208074e+00 0.0 
5.715875208074e+00 -1.336757714800e+02 0.0 
0.0 0.0 -1.319154256559e+02 
-1.895790467603e+02 2.423738258216e+00 0.0 
2.423738258216e+00 -2.169335011932e+02 0.0 
0.0 0.0 -1.893659517531e+02 
-9.444137137475e+01 1.725224169681e-01 0.0 
1.725224169681e-01 -1.098906409159e+02 0.0 
0.0 0.0 -9.443944505237e+01 
-1.078897130353e+02 5.468197938831e+00 0.0 
5.468197938831e+00 -1.208262846627e+02 0.0 
0.0 0.0 -1.058880572868e+02 
-6.335793041290e+01 -5.961302681434e-01 0.0 
-5.961302681434e-01 -7.470818511265e+01 0.0 
0.0 0.0 -6.332670676289e+01 
-8.134108820192e+01 -4.320010599684e-01 0.0 
-4.320010599684e-01 -9.506427135905e+01 0.0 
0.0 0.0 -8.132750240773e+01 
-7.268699685391e+01 -5.830993643360e-01 0.0 
-5.830993643360e-01 -8.525777871636e+01 0.0 
0.0 0.0 -7.266000756631e+01 
-1.834905558491e+02 7.017246406284e+00 0.0 
7.017246406284e+00 -2.062744021307e+02 0.0 
0.0 0.0 -1.815027308618e+02 
-2.634219370712e+02 1.746125043572e+01 0.0 
1.746125043572e+01 -2.612893264313e+02 0.0 
0.0 0.0 -2.448618536054e+02 
-2.798891801223e+01 3.113642830456e+00 0.0 
3.113642830456e+00 -2.681906451708e+01 0.0 
0.0 0.0 -2.423588284232e+01 
-2.826987207957e+02 9.198579502512e+00 0.0 
9.198579502512e+00 -3.177736883665e+02 0.0 
0.0 0.0 -2.804327401774e+02 
-1.419311675043e+02 4.438506836167e+00 0.0 
4.438506836167e+00 -1.615086259519e+02 0.0 
0.0 0.0 -1.409718939949e+02 
-1.589084703564e+02 6.465754060987e+00 0.0 
6.465754060987e+00 -1.419356880139e+02 0.0 
0.0 0.0 -1.397532080786e+02 
-6.790487532918e+01 2.447910275747e-01 0.0 
2.447910275747e-01 -7.990148178277e+01 0.0 
0.0 0.0 -6.789988244070e+01 
-2.963625485334e+02 1.376326754395e+01 0.0 
1.376326754395e+01 -3.267294918661e+02 0.0 
0.0 0.0 -2.910529641727e+02 
-7.647081271879e+01 -6.991764499258e-01 0.0 
-6.991764499258e-01 -8.951084240423e+01 0.0 
0.0 0.0 -7.643343164107e+01 
-1.068247299470e+02 -3.625244339812e-02 0.0 
-3.625244339812e-02 -1.238860889324e+02 0.0 
0.0 0.0 -1.068246529172e+02 
-2.333783237069e+02 1.138671100598e+01 0.0 
1.138671100598e+01 -2.571248877288e+02 0.0 
0.0 0.0 -2.288007086832e+02 
-1.738299071052e+02 3.149811676769e+00 0.0 
3.149811676769e+00 -1.987584331330e+02 0.0 
0.0 0.0 -1.734380756080e+02 
-2.507941552854e+02 1.459002359939e+01 0.0 
1.459002359939e+01 -2.696192876596e+02 0.0 
0.0 0.0 -2.428439684979e+02 
-1.029114640812e+02 6.748027688764e+00 0.0 
6.748027688764e+00 -1.116473761888e+02 0.0 
0.0 0.0 -9.924107964851e+01 
-1.692368728601e+02 8.598947327212e+00 0.0 
8.598947327212e+00 -1.543803505108e+02 0.0 
0.0 0.0 -1.504454713090e+02 
-2.838613496519e+02 1.639642536349e+01 0.0 
1.639642536349e+01 -3.047564088617e+02 0.0 
0.0 0.0 -2.748668207355e+02 
-1.390677833583e+02 4.403829758735e+00 0.0 
4.403829758735e+00 -1.223100442504e+02 0.0 
0.0 0.0 -1.212232299122e+02 
-2.269514004599e+02 1.482111403581e+01 0.0 
1.482111403581e+01 -2.207196785620e+02 0.0 
0.0 0.0 -2.086904409403e+02 
-1.710691487200e+02 7.451256408908e+00 0.0 
7.451256408908e+00 -1.538093587402e+02 0.0 
0.0 0.0 -1.510376613147e+02 
-1.830264021473e+02 9.053789139408e+00 0.0 
9.053789139408e+00 -1.667861016244e+02 0.0 
0.0 0.0 -1.627445111367e+02 
-7.476090854690e+01 1.999837903862e+00 0.0 
1.999837903862e+00 -8.697907421498e+01 0.0 
0.0 0.0 -7.444190887409e+01 
-2.721355692853e+02 7.668989960406e+00 0.0 
7.668989960406e+00 -3.072536275450e+02 0.0 
0.0 0.0 -2.705338857198e+02 
-1.593926928190e+02 6.823508513005e+00 0.0 
6.823508513005e+00 -1.428768058489e+02 0.0 
0.0 0.0 -1.404224247015e+02 
-1.666402808742e+02 7.438288171536e+00 0.0 
7.438288171536e+00 -1.861098670509e+02 0.0 
0.0 0.0 -1.641237749540e+02 
-3.683346345877e+01 3.591846653056e+00 0.0 
3.591846653056e+00 -3.513228557767e+01 0.0 
0.0 0.0 -3.229168718555e+01 
-2.841101809307e+02 1.694340742298e+01 0.0 
1.694340742298e+01 -3.029907071647e+02 0.0 
0.0 0.0 -2.741546294781e+02 
-9.140678237052e+01 1.473620523328e+00 0.0 
1.473620523328e+00 -1.061555470589e+02 0.0 
0.0 0.0 -9.126098703030e+01 
-1.029820629228e+02 1.626693783914e-01 0.0 
1.626693783914e-01 -1.195411592315e+02 0.0 
0.0 0.0 -1.029804650836e+02 
-2.514000975030e+02 1.410660636814e+01 0.0 
1.410660636814e+01 -2.719512102715e+02 0.0 
0.0 0.0 -2.442233359257e+02 
-6.660670787878e+01 1.904520549982e-01 0.0 
1.904520549982e-01 -7.843883595908e+01 0.0 
0.0 0.0 -6.660364312219e+01 
-1.513726633039e+02 9.043212715126e+00 0.0 
9.043212715126e+00 -1.643201331549e+02 0.0 
0.0 0.0 -1.467248452759e+02 
-2.439687511822e+02 1.176640261184e+01 0.0 
1.176640261184e+01 -2.688729142861e+02 0.0 
0.0 0.0 -2.392889161630e+02 
-2.053514722349e+02 1.175278280382e+01 0.0 
1.175278280382e+01 -1.916618014272e+02 0.0 
0.0 0.0 -1.849059134922e+02 
-2.179938636669e+02 1.350042960727e+01 0.0 
1.350042960727e+01 -2.075720131877e+02 0.0 
0.0 0.0 -1.983117483783e+02 
-2.300609198188e+02 1.103948917022e+01 0.0 
1.103948917022e+01 -2.539149774478e+02 0.0 
0.0 0.0 -2.257360460529e+02 
-1.848578397465e+02 8.489722399874e+00 0.0 
8.489722399874e+00 -1.672468046459e+02 0.0 
0.0 0.0 -1.638207022808e+02 
-1.486763737089e+02 5.540913536360e+00 0.0 
5.540913536360e+00 -1.680338652956e+02 0.0 
0.0 0.0 -1.472025483659e+02 
-2.036069729013e+02 1.367445718780e+01 0.0 
1.367445718780e+01 -2.107112840317e+02 0.0 
0.0 0.0 -1.930308381049e+02 
-5.128019243438e+01 4.314617206959e+00 0.0 
4.314617206959e+00 -4.846681128446e+01 0.0 
0.0 0.0 -4.533536347278e+01 
-2.124819577005e+02 1.444524803558e+01 0.0 
1.444524803558e+01 -2.122484579974e+02 0.0 
0.0 0.0 -1.979194880214e+02 
-8.226285466419e+01 5.657557691696e+00 0.0 
5.657557691696e+00 -7.654574047958e+01 0.0 
0.0 0.0 -7.306558258501e+01 
-1.130826216766e+02 6.712635415220e+00 0.0 
6.712635415220e+00 -1.039653469084e+02 0.0 
0.0 0.0 -1.004097591898e+02 
-1.652944698890e+02 6.067083770675e+00 0.0 
6.067083770675e+00 -1.865155308129e+02 0.0 
0.0 0.0 -1.636823630674e+02 
-1.752214728479e+02 7.667632833210e+00 0.0 
7.667632833210e+00 -1.576889475887e+02 0.0 
0.0 0.0 -1.548087535144e+02 
-1.722847635598e+02 9.788214805106e+00 0.0 
9.788214805106e+00 -1.877475180016e+02 0.0 
0.0 0.0 -1.675428355731e+02 
-1.438069235583e+02 7.297766468789e+00 0.0 
7.297766468789e+00 -1.595841531880e+02 0.0 
0.0 0.0 -1.409490208382e+02 
-1.668201370086e+02 4.683816363063e+00 0.0 
4.683816363063e+00 -1.897106223316e+02 0.0 
0.0 0.0 -1.658988233466e+02 
-8.242048646156e+01 -7.009386442039e-02 0.0 
-7.009386442039e-02 -9.631202706209e+01 0.0 
0.0 0.0 -8.242013279131e+01 
-1.594515880429e+02 5.012749915469e+00 0.0 
5.012749915469e+00 -1.809837496702e+02 0.0 
0.0 0.0 -1.583418043490e+02 
-1.661115494486e+02 8.160927371565e+00 0.0 
8.160927371565e+00 -1.508835623891e+02 0.0 
0.0 0.0 -1.473363000291e+02 
-2.106689185225e+02 1.412092663316e+01 0.0 
1.412092663316e+01 -2.070972346945e+02 0.0 
0.0 0.0 -1.946496722258e+02 
-2.528048767422e+02 6.519643475761e+00 0.0 
6.519643475761e+00 -2.862098715313e+02 0.0 
0.0 0.0 -2.515775339181e+02 
-2.746618229031e+02 1.599143377368e+01 0.0 
1.599143377368e+01 -2.946326147569e+02 0.0 
0.0 0.0 -2.657942592227e+02 
-1.559654981653e+02 2.990610393197e+00 0.0 
2.990610393197e+00 -1.785805533358e+02 0.0 
0.0 0.0 -1.555767045078e+02 
-1.690783763753e+02 8.243651487365e+00 0.0 
8.243651487365e+00 -1.535267941278e+02 0.0 
0.0 0.0 -1.499702987459e+02 
-1.618852408824e+02 4.841821513148e+00 0.0 
4.841821513148e+00 -1.839321953665e+02 0.0 
0.0 0.0 -1.608687726897e+02 
-2.793072594366e+02 7.460450032394e+00 0.0 
7.460450032394e+00 -3.156316767764e+02 0.0 
0.0 0.0 -2.778346994943e+02 
-1.552246490336e+02 6.838243578532e+00 0.0 
6.838243578532e+00 -1.393476377897e+02 0.0 
0.0 0.0 -1.368084792278e+02 
-1.736759555767e+02 8.740621778378e+00 0.0 
8.740621778378e+00 -1.583627972647e+02 0.0 
0.0 0.0 -1.543994937429e+02 
-2.122470873499e+02 8.727812999805e+00 0.0 
8.727812999805e+00 -2.371289193168e+02 0.0 
0.0 0.0 -2.094909276190e+02 
-1.547069147091e+02 5.228812465793e+00 0.0 
5.228812465793e+00 -1.753236190181e+02 0.0 
0.0 0.0 -1.534566076012e+02 
-2.242938618886e+02 1.493932634666e+01 0.0 
1.493932634666e+01 -2.317818043056e+02 0.0 
0.0 0.0 -2.126365087352e+02 
-1.776697063386e+02 1.222054796664e+01 0.0 
1.222054796664e+01 -1.755609643242e+02 0.0 
0.0 0.0 -1.643493869039e+02 
-8.593895412986e+01 -2.975182311745e-01 0.0 
-2.975182311745e-01 -1.002750247397e+02 0.0 
0.0 0.0 -8.593278235452e+01 
-9.329875709588e+01 1.046779828819e+00 0.0 
1.046779828819e+00 -1.084504447273e+02 0.0 
0.0 0.0 -9.322678046848e+01 
-1.204943501167e+02 7.308054582394e+00 0.0 
7.308054582394e+00 -1.316159677346e+02 0.0 
0.0 0.0 -1.168720082469e+02 
-1.695683554627e+02 1.150267658852e+01 0.0 
1.150267658852e+01 -1.767927972111e+02 0.0 
0.0 0.0 -1.611240549338e+02 
-2.880303919313e+02 7.038000926760e+00 0.0 
7.038000926760e+00 -3.259302336977e+02 0.0 
0.0 0.0 -2.867656409516e+02 
-1.647739527180e+02 7.376882473181e+00 0.0 
7.376882473181e+00 -1.483389563168e+02 0.0 
0.0 0.0 -1.455135531006e+02 
-1.537420980552e+02 4.877442768016e+00 0.0 
4.877442768016e+00 -1.745858942130e+02 0.0 
0.0 0.0 -1.526572412691e+02 
-1.692610360749e+02 1.165169760061e+01 0.0 
1.165169760061e+01 -1.749168786136e+02 0.0 
0.0 0.0 -1.600989950557e+02 
-2.515725725822e+02 1.224180414148e+01 0.0 
1.224180414148e+01 -2.768849816431e+02 0.0 
0.0 0.0 -2.466207879669e+02 
-1.849660848530e+02 7.819476628541e+00 0.0 
7.819476628541e+00 -1.662269090370e+02 0.0 
0.0 0.0 -1.633926699915e+02 
-2.334240725821e+02 1.565200702279e+01 0.0 
1.565200702279e+01 -2.390237388450e+02 0.0 
0.0 0.0 -2.203234532230e+02 
-1.536753368502e+02 6.107522479173e+00 0.0 
6.107522479173e+00 -1.369457365393e+02 0.0 
0.0 0.0 -1.349533308711e+02 
-2.674484582443e+02 1.188556694086e+01 0.0 
1.188556694086e+01 -2.962787595468e+02 0.0 
0.0 0.0 -2.631803739025e+02 
-1.724294557898e+02 5.734156628911e+00 0.0 
5.734156628911e+00 -1.950970156475e+02 0.0 
0.0 0.0 -1.710614594759e+02 
-2.538859593153e+02 1.205251583494e+01 0.0 
1.205251583494e+01 -2.800123356767e+02 0.0 
0.0 0.0 -2.491752896313e+02 
-1.654874363751e+02 9.954985811460e+00 0.0 
9.954985811460e+00 -1.788725957976e+02 0.0 
0.0 0.0 -1.601845016873e+02 
-2.058393638705e+02 1.116537331987e+01 0.0 
1.116537331987e+01 -1.903907135503e+02 0.0 
0.0 0.0 -1.845381922227e+02 
-2.406874716127e+02 1.615621659485e+01 0.0 
1.615621659485e+01 -2.451259228236e+02 0.0 
0.0 0.0 -2.265987759237e+02 
-1.926417001648e+02 7.207728191280e+00 0.0 
7.207728191280e+00 -2.165827385174e+02 0.0 
0.0 0.0 -1.906392212724e+02 
-8.339493562278e+01 6.878685651682e-01 0.0 
6.878685651682e-01 -9.734169153836e+01 0.0 
0.0 0.0 -8.336109135596e+01 
-2.450273834594e+02 1.514425142849e+01 0.0 
1.514425142849e+01 -2.600005421059e+02 0.0 
0.0 0.0 -2.356202591836e+02 
-1.643294035206e+02 9.843207711444e+00 0.0 
9.843207711444e+00 -1.778020847914e+02 0.0 
0.0 0.0 -1.591381700855e+02 
-1.447163572108e+02 5.050280097556e+00 0.0 
5.050280097556e+00 -1.640593135364e+02 0.0 
0.0 0.0 -1.434771608336e+02 
-2.068358029281e+02 8.387055145178e+00 0.0 
8.387055145178e+00 -2.313605154871e+02 0.0 
0.0 0.0 -2.042419121871e+02 
-2.575053303221e+02 1.011951669828e+01 0.0 
1.011951669828e+01 -2.875529950623e+02 0.0 
0.0 0.0 -2.544150754314e+02 
-8.632694183292e+01 3.258945369093e-01 0.0 
3.258945369093e-01 -1.007108247082e+02 0.0 
0.0 0.0 -8.631956185173e+01 
-1.738594327706e+02 5.865051472345e+00 0.0 
5.865051472345e+00 -1.965936166262e+02 0.0 
0.0 0.0 -1.724355275650e+02 
-1.781996883668e+02 1.140649554726e+01 0.0 
1.140649554726e+01 -1.700419367362e+02 0.0 
0.0 0.0 -1.620069622723e+02 
-2.885354529940e+02 6.751226918727e+00 0.0 
6.751226918727e+00 -3.267276419157e+02 0.0 
0.0 0.0 -2.873771679638e+02 
-1.823167394138e+02 1.210195378345e+01 0.0 
1.210195378345e+01 -1.765700547614e+02 0.0 
0.0 0.0 -1.670050136919e+02 
-2.306779185335e+02 1.456005052028e+01 0.0 
1.456005052028e+01 -2.437559017712e+02 0.0 
0.0 0.0 -2.212559113570e+02 
-1.718948341140e+02 1.043788351617e+01 0.0 
1.043788351617e+01 -1.614963437303e+02 0.0 
0.0 0.0 -1.550344756450e+02 
-1.547140574301e+02 8.052273786782e+00 0.0 
8.052273786782e+00 -1.411805808635e+02 0.0 
0.0 0.0 -1.374293411980e+02 
-1.820472569341e+02 1.261056988278e+01 0.0 
1.261056988278e+01 -1.825796623225e+02 0.0 
0.0 0.0 -1.697000803570e+02 
-2.626070496118e+02 1.468675306248e+01 0.0 
1.468675306248e+01 -2.839705279343e+02 0.0 
0.0 0.0 -2.551283849497e+02 
-2.659095465293e+02 7.751381446074e+00 0.0 
7.751381446074e+00 -3.000584341809e+02 0.0 
0.0 0.0 -2.642324425182e+02 
-1.613523888637e+02 7.168390784296e+00 0.0 
7.168390784296e+00 -1.450907390358e+02 0.0 
0.0 0.0 -1.423820002954e+02 
-1.865085745130e+02 1.172747253781e+01 0.0 
1.172747253781e+01 -1.773493477272e+02 0.0 
0.0 0.0 -1.693390258163e+02 
-1.634323236062e+02 9.296836650125e+00 0.0 
9.296836650125e+00 -1.513283578315e+02 0.0 
0.0 0.0 -1.462872046173e+02 
-1.267188921677e+02 3.258036938724e+00 0.0 
3.258036938724e+00 -1.451749436342e+02 0.0 
0.0 0.0 -1.261606385453e+02 
-2.383058438461e+02 1.514537631765e+01 0.0 
1.514537631765e+01 -2.509558582591e+02 0.0 
0.0 0.0 -2.282178031953e+02 
-2.099514011213e+02 1.096110084035e+01 0.0 
1.096110084035e+01 -1.932209750321e+02 0.0 
0.0 0.0 -1.877976957402e+02 
-1.664055156150e+02 8.774610333001e+00 0.0 
8.774610333001e+00 -1.832322314650e+02 0.0 
0.0 0.0 -1.626624604971e+02 
-1.714642068860e+02 9.749346891333e+00 0.0 
9.749346891333e+00 -1.868570649367e+02 0.0 
0.0 0.0 -1.667394932686e+02 
-1.404831825815e+02 4.030964933955e+00 0.0 
4.030964933955e+00 -1.602307315745e+02 0.0 
0.0 0.0 -1.396920566515e+02 
-1.657778451251e+02 8.249088847517e+00 0.0 
8.249088847517e+00 -1.507806199585e+02 0.0 
0.0 0.0 -1.471312884493e+02 
-1.221098182706e+02 8.630228052291e+00 0.0 
8.630228052291e+00 -1.280248235571e+02 0.0 
0.0 0.0 -1.159444015281e+02 
-1.901793408186e+02 1.043799112810e+01 0.0 
1.043799112810e+01 -2.077004472883e+02 0.0 
0.0 0.0 -1.853127537896e+02 
-1.125963637990e+02 8.023367793681e+00 0.0 
8.023367793681e+00 -1.184532193025e+02 0.0 
0.0 0.0 -1.069837073192e+02 
-2.417950573442e+02 1.278868460574e+01 0.0 
1.278868460574e+01 -2.639376093762e+02 0.0 
0.0 0.0 -2.359511447249e+02 
-2.666539954023e+02 1.714664644490e+01 0.0 
1.714664644490e+01 -2.783190745529e+02 0.0 
0.0 0.0 -2.543750468498e+02 
-1.489362488722e+02 3.861809364657e+00 0.0 
3.861809364657e+00 -1.700065150911e+02 0.0 
0.0 0.0 -1.482507491473e+02 
-5.495330514364e+01 -5.141915772948e-01 0.0 
-5.141915772948e-01 -6.522391325145e+01 0.0 
0.0 0.0 -5.492762666471e+01 
-1.900300936354e+02 1.223902575105e+01 0.0 
1.223902575105e+01 -1.822261901818e+02 0.0 
0.0 0.0 -1.732821706096e+02 
-1.291886223481e+02 9.280381123679e+00 0.0 
9.280381123679e+00 -1.332245951021e+02 0.0 
0.0 0.0 -1.217093595013e+02 
-1.649044402654e+02 3.921872817985e+00 0.0 
3.921872817985e+00 -1.881363519186e+02 0.0 
0.0 0.0 -1.642602363799e+02 
-2.625094865206e+02 1.643057088196e+01 0.0 
1.643057088196e+01 -2.769287269599e+02 0.0 
0.0 0.0 -2.517763565827e+02 
-1.652356660832e+02 7.636521243586e+00 0.0 
7.636521243586e+00 -1.491728942880e+02 0.0 
0.0 0.0 -1.461218789954e+02 
-2.584385872730e+02 7.867889386142e+00 0.0 
7.867889386142e+00 -2.913937310936e+02 0.0 
0.0 0.0 -2.566565299578e+02 
-1.396852902389e+02 6.312582547184e+00 0.0 
6.312582547184e+00 -1.565362751356e+02 0.0 
0.0 0.0 -1.375828379015e+02 
-4.402644311763e+01 -4.374759505491e-01 0.0 
-4.374759505491e-01 -5.288684486774e+01 0.0 
0.0 0.0 -4.400489545973e+01 
-2.956404086214e+02 5.932084966522e+00 0.0 
5.932084966522e+00 -3.353763454809e+02 0.0 
0.0 0.0 -2.947737248579e+02 
-1.750116150185e+02 1.150097282702e+01 0.0 
1.150097282702e+01 -1.846017147831e+02 0.0 
0.0 0.0 -1.673461320333e+02 
-2.136414842296e+02 1.149710804324e+01 0.0 
1.149710804324e+01 -2.332891026188e+02 0.0 
0.0 0.0 -2.083427698104e+02 
-2.445162939988e+02 1.605758898582e+01 0.0 
1.605758898582e+01 -2.535566435373e+02 0.0 
0.0 0.0 -2.323547978691e+02 
-2.872250316170e+01 -4.667811001387e-01 0.0 
-4.667811001387e-01 -3.557394897202e+01 0.0 
0.0 0.0 -2.869084815602e+01 
-2.533864917881e+02 7.945156656142e+00 0.0 
7.945156656142e+00 -2.855263257351e+02 0.0 
0.0 0.0 -2.515296760469e+02 
-9.877353987214e+01 4.108183073877e+00 0.0 
4.108183073877e+00 -1.123476109238e+02 0.0 
0.0 0.0 -9.762703776351e+01 
-1.559268486773e+02 6.501967175093e+00 0.0 
6.501967175093e+00 -1.394332451538e+02 0.0 
0.0 0.0 -1.371783653148e+02 
-2.063272134135e+02 3.296260369580e+00 0.0 
3.296260369580e+00 -2.355278560485e+02 0.0 
0.0 0.0 -2.059597454821e+02 
-1.478609265146e+02 4.174820233306e+00 0.0 
4.174820233306e+00 -1.685228553571e+02 0.0 
0.0 0.0 -1.470492723095e+02 
-2.817299871869e+02 7.325439686341e+00 0.0 
7.325439686341e+00 -3.185124562394e+02 0.0 
0.0 0.0 -2.803247681420e+02 
-1.819840897656e+02 1.046563999401e+01 0.0 
1.046563999401e+01 -1.976448070155e+02 0.0 
0.0 0.0 -1.767437125015e+02 
-1.347351035026e+02 3.405343148832e+00 0.0 
3.405343148832e+00 -1.541882146072e+02 0.0 
0.0 0.0 -1.341562117151e+02 
-1.639659751786e+02 1.109829400644e+01 0.0 
1.109829400644e+01 -1.715321082174e+02 0.0 
0.0 0.0 -1.560236964091e+02 
-4.687608604088e+01 -8.544455171908e-01 0.0 
-8.544455171908e-01 -5.598318193871e+01 0.0 
0.0 0.0 -4.679661380153e+01 
-1.943739228656e+02 1.287682558368e+01 0.0 
1.287682558368e+01 -2.032437867352e+02 0.0 
0.0 0.0 -1.851897043725e+02 
-2.361634019857e+02 1.225621744609e+01 0.0 
1.225621744609e+01 -2.584877139993e+02 0.0 
0.0 0.0 -2.307482061894e+02 
-2.476387496726e+02 1.662405368142e+01 0.0 
1.662405368142e+01 -2.503370019997e+02 0.0 
0.0 0.0 -2.323091677864e+02 
-2.144533339095e+02 1.409339844541e+01 0.0 
1.409339844541e+01 -2.238781131735e+02 0.0 
0.0 0.0 -2.043053569314e+02 
-1.073461522566e+02 1.651135296266e+00 0.0 
1.651135296266e+00 -1.241327697896e+02 0.0 
0.0 0.0 -1.071852877833e+02 
-2.570972533869e+02 6.522641666226e+00 0.0 
6.522641666226e+00 -2.911002900894e+02 0.0 
0.0 0.0 -2.558889809498e+02 
-1.711530125855e+02 1.007918621759e+01 0.0 
1.007918621759e+01 -1.597311254840e+02 0.0 
0.0 0.0 -1.538573864302e+02 
-2.980775761872e+02 1.858062440236e+01 0.0 
1.858062440236e+01 -3.136531344859e+02 0.0 
0.0 0.0 -2.857186656020e+02 
-2.447325692449e+02 1.361256989692e+01 0.0 
1.361256989692e+01 -2.652478634119e+02 0.0 
0.0 0.0 -2.379455285082e+02 
-1.487634559955e+02 6.104128570296e+00 0.0 
6.104128570296e+00 -1.673904743138e+02 0.0 
0.0 0.0 -1.469413538800e+02 
-1.770377602830e+02 1.186585649717e+01 0.0 
1.186585649717e+01 -1.851428003632e+02 0.0 
0.0 0.0 -1.685514817727e+02 
-2.861554666128e+02 4.851600067267e+00 0.0 
4.851600067267e+00 -3.252421396016e+02 0.0 
0.0 0.0 -2.855622685357e+02 
-1.879525620173e+02 8.079893615879e-01 0.0 
8.079893615879e-01 -2.154992245052e+02 0.0 
0.0 0.0 -1.879288827023e+02 
-2.209798985306e+02 1.420862138764e+01 0.0 
1.420862138764e+01 -2.324389599571e+02 0.0 
0.0 0.0 -2.113891014428e+02 
-1.507209590597e+02 5.678218050253e+00 0.0 
5.678218050253e+00 -1.338405542585e+02 0.0 
0.0 0.0 -1.321082851409e+02 
-2.738800607609e+02 7.596291991783e+00 0.0 
7.596291991783e+00 -3.093138101816e+02 0.0 
0.0 0.0 -2.723202318753e+02 
-2.679170598493e+02 9.275779533353e+00 0.0 
9.275779533353e+00 -3.006957667971e+02 0.0 
0.0 0.0 -2.654742335969e+02 
-7.288167982829e+01 1.422722007038e-01 0.0 
1.422722007038e-01 -6.168590830675e+01 0.0 
0.0 0.0 -6.168410065004e+01 
-7.305759031792e+01 6.257618879277e-02 0.0 
6.257618879277e-02 -6.183885045873e+01 0.0 
0.0 0.0 -6.183850143044e+01 
-1.703133485419e+02 1.084095715814e+01 0.0 
1.084095715814e+01 -1.619156890523e+02 0.0 
0.0 0.0 -1.544888350181e+02 
-2.035589005982e+02 1.316985433181e+01 0.0 
1.316985433181e+01 -2.143845418383e+02 0.0 
0.0 0.0 -1.947329119216e+02 
-2.141148230680e+02 3.366126707431e+00 0.0 
3.366126707431e+00 -2.443201676222e+02 0.0 
0.0 0.0 -2.137442436209e+02 
-1.719777097979e+02 1.195999729458e+01 0.0 
1.195999729458e+01 -1.713516542368e+02 0.0 
0.0 0.0 -1.597005890021e+02 
-1.765440857244e+02 9.491979341433e+00 0.0 
9.491979341433e+00 -1.936701779885e+02 0.0 
0.0 0.0 -1.723234144441e+02 
-2.892649615378e+02 1.515212321842e+01 0.0 
1.515212321842e+01 -3.151377638071e+02 0.0 
0.0 0.0 -2.822780769911e+02 
-1.550725314151e+02 6.655415032738e+00 0.0 
6.655415032738e+00 -1.738936917831e+02 0.0 
0.0 0.0 -1.529568993566e+02 
-2.469532533444e+02 1.644148907216e+01 0.0 
1.644148907216e+01 -2.446095088377e+02 0.0 
0.0 0.0 -2.292981821452e+02 
-1.491625116428e+02 7.162181635506e+00 0.0 
7.162181635506e+00 -1.347691726685e+02 0.0 
0.0 0.0 -1.318125718703e+02 
-1.603076318978e+02 8.994402068950e+00 0.0 
8.994402068950e+00 -1.753691364807e+02 0.0 
0.0 0.0 -1.561075914346e+02 
-1.950877255905e+02 3.119861592064e+00 0.0 
3.119861592064e+00 -2.228745194478e+02 0.0 
0.0 0.0 -1.947417399985e+02 
-9.904567841326e+01 1.942097016370e+00 0.0 
1.942097016370e+00 -1.145879439250e+02 0.0 
0.0 0.0 -9.880667726698e+01 
-1.819101524549e+02 2.248385060412e+00 0.0 
2.248385060412e+00 -2.083177493914e+02 0.0 
0.0 0.0 -1.817200892929e+02 
-1.876689443805e+02 1.224078499078e+01 0.0 
1.224078499078e+01 -1.978079185429e+02 0.0 
0.0 0.0 -1.794894120091e+02 
-1.744328421414e+02 1.203027052028e+01 0.0 
1.203027052028e+01 -1.794049617519e+02 0.0 
0.0 0.0 -1.646344441993e+02 
-1.611803979554e+02 7.297357771854e+00 0.0 
7.297357771854e+00 -1.451584390213e+02 0.0 
0.0 0.0 -1.423330342910e+02 
-1.933203611844e+02 1.330886957946e+01 0.0 
1.330886957946e+01 -1.947410218623e+02 0.0 
0.0 0.0 -1.807028792995e+02 
-1.875263517064e+02 1.293993723485e+01 0.0 
1.293993723485e+01 -1.878441565293e+02 0.0 
0.0 0.0 -1.747443412591e+02 
-4.796720087027e+01 3.482059895527e-02 0.0 
3.482059895527e-02 -5.738498399672e+01 0.0 
0.0 0.0 -4.796707212898e+01 
-1.574597509653e+02 1.439521196360e+00 0.0 
1.439521196360e+00 -1.809094234217e+02 0.0 
0.0 0.0 -1.573717126131e+02 
-1.171858815539e+02 8.521287693088e+00 0.0 
8.521287693088e+00 -1.213198449516e+02 0.0 
0.0 0.0 -1.104844678869e+02 
-1.809451891939e+02 1.222285949265e+01 0.0 
1.222285949265e+01 -1.767455212363e+02 0.0 
0.0 0.0 -1.664434361331e+02 
-1.706216620808e+02 1.152126825022e+01 0.0 
1.152126825022e+01 -1.659314887288e+02 0.0 
0.0 0.0 -1.565190648855e+02 
-2.744030885238e+02 1.512112168339e+01 0.0 
1.512112168339e+01 -2.971530695273e+02 0.0 
0.0 0.0 -2.668561676559e+02 
-7.481851471120e+01 -1.711292990000e-01 0.0 
-1.711292990000e-01 -8.771875299093e+01 0.0 
0.0 0.0 -7.481624497907e+01 
-7.877396271712e+01 -2.602305948632e-01 0.0 
-2.602305948632e-01 -9.218195165905e+01 0.0 
0.0 0.0 -7.876891390091e+01 
-1.703000168068e+02 1.078735677907e+01 0.0 
1.078735677907e+01 -1.818358269197e+02 0.0 
0.0 0.0 -1.638353507918e+02 
-1.726171208634e+02 1.642368256843e+00 0.0 
1.642368256843e+00 -1.979972781102e+02 0.0 
0.0 0.0 -1.725112833821e+02 
-8.528550349255e+01 5.410443536539e+00 0.0 
5.410443536539e+00 -7.815360817198e+01 0.0 
0.0 0.0 -7.523967296465e+01 
-8.363415246711e+01 4.686048574410e+00 0.0 
4.686048574410e+00 -7.510353554765e+01 0.0 
0.0 0.0 -7.303229072516e+01 
-1.600300680743e+02 7.610784668844e+00 0.0 
7.610784668844e+00 -1.447373028267e+02 0.0 
0.0 0.0 -1.415952096311e+02 
-6.301765258831e+01 1.710128824922e+00 0.0 
1.710128824922e+00 -7.382775176903e+01 0.0 
0.0 0.0 -6.275356629460e+01 
-1.856463981976e+02 2.326847980479e+00 0.0 
2.326847980479e+00 -2.125180426893e+02 0.0 
0.0 0.0 -1.854464021348e+02 
-2.474155130686e+02 1.084275458368e+01 0.0 
1.084275458368e+01 -2.746676797034e+02 0.0 
0.0 0.0 -2.436279387135e+02 
-7.577031321243e+01 9.601034068567e-02 0.0 
9.601034068567e-02 -8.879748293343e+01 0.0 
0.0 0.0 -7.576960565392e+01 
-3.039314693743e+02 1.990985346497e+01 0.0 
1.990985346497e+01 -3.113909210597e+02 0.0 
0.0 0.0 -2.874050080176e+02 
-1.899347514738e+02 9.538327965984e+00 0.0 
9.538327965984e+00 -1.735360069108e+02 0.0 
0.0 0.0 -1.691572471292e+02 
-1.875235388098e+02 1.859081076452e+00 0.0 
1.859081076452e+00 -2.147962523331e+02 0.0 
0.0 0.0 -1.873973955014e+02 
-2.611886414217e+02 6.388194205296e+00 0.0 
6.388194205296e+00 -2.958699861687e+02 0.0 
0.0 0.0 -2.600493802572e+02 
-3.478440864148e+01 -1.964033194799e-02 0.0 
-1.964033194799e-02 -4.249039111363e+01 0.0 
0.0 0.0 -3.478435858425e+01 
-2.388766220000e+02 9.472171670711e+00 0.0 
9.472171670711e+00 -2.669092029506e+02 0.0 
0.0 0.0 -2.359761032358e+02 
-1.597449726467e+02 1.051312963303e+01 0.0 
1.051312963303e+01 -1.691908898019e+02 0.0 
0.0 0.0 -1.529426445725e+02 
-3.477698678627e+01 -2.101049636954e-02 0.0 
-2.101049636954e-02 -4.248199001787e+01 0.0 
0.0 0.0 -3.477692949393e+01 
-1.680998910558e+02 8.735066041828e+00 0.0 
8.735066041828e+00 -1.537349831353e+02 0.0 
0.0 0.0 -1.496086341684e+02 
-7.099716103875e+01 -1.120153543925e-01 0.0 
-1.120153543925e-01 -8.340382395769e+01 0.0 
0.0 0.0 -7.099614977431e+01 
-1.634847080366e+02 1.127865356613e+01 0.0 
1.127865356613e+01 -1.605272834195e+02 0.0 
0.0 0.0 -1.506308202852e+02 
-1.550644162702e+02 1.080089170786e+01 0.0 
1.080089170786e+01 -1.602763573340e+02 0.0 
0.0 0.0 -1.465595657659e+02 
-1.710098263849e+02 3.870359781842e+00 0.0 
3.870359781842e+00 -1.951156107018e+02 0.0 
0.0 0.0 -1.704036548251e+02 
-2.032476382601e+02 5.676063907257e+00 0.0 
5.676063907257e+00 -2.304060406287e+02 0.0 
0.0 0.0 -2.021090812496e+02 
-1.761005766194e+02 1.024415615962e+01 0.0 
1.024415615962e+01 -1.641118997195e+02 0.0 
0.0 0.0 -1.582371679078e+02 
-2.237024246899e+02 7.198188764157e+00 0.0 
7.198188764157e+00 -2.523009806913e+02 0.0 
0.0 0.0 -2.219928528622e+02 
-1.761187983259e+02 1.061818527456e+01 0.0 
1.061818527456e+01 -1.898907393948e+02 0.0 
0.0 0.0 -1.703492384991e+02 
-1.548951478475e+02 9.786922141708e+00 0.0 
9.786922141708e+00 -1.661283732574e+02 0.0 
0.0 0.0 -1.492276928779e+02 
-1.140789221779e+01 1.730235931258e+00 0.0 
1.730235931258e+00 -1.438874420100e+01 0.0 
0.0 0.0 -1.061466192741e+01 
-6.077289662701e+01 -2.025949104636e-01 0.0 
-2.025949104636e-01 -7.184605890499e+01 0.0 
0.0 0.0 -6.076919118439e+01 
-2.284053971063e+02 1.472222576452e+01 0.0 
1.472222576452e+01 -2.396991500735e+02 0.0 
0.0 0.0 -2.182842316860e+02 
-1.496118006388e+02 7.769844346025e+00 0.0 
7.769844346025e+00 -1.363485939627e+02 0.0 
0.0 0.0 -1.327650788974e+02 
-2.503039085162e+02 1.593770388974e+01 0.0 
1.593770388974e+01 -2.629390107529e+02 0.0 
0.0 0.0 -2.394773102707e+02 
-1.021565616487e+02 4.530000274704e+00 0.0 
4.530000274704e+00 -1.156783452217e+02 0.0 
0.0 0.0 -1.007792373999e+02 
-1.816409274172e+02 1.161623611794e+01 0.0 
1.161623611794e+01 -1.734215260954e+02 0.0 
0.0 0.0 -1.652094338238e+02 
-2.360090747032e+02 1.551011260959e+01 0.0 
1.551011260959e+01 -2.451186132255e+02 0.0 
0.0 0.0 -2.243987730958e+02 
-1.568136499406e+02 7.636313909427e+00 0.0 
7.636313909427e+00 -1.420829803692e+02 0.0 
0.0 0.0 -1.388388172106e+02 
-2.410379919810e+02 1.550912299138e+01 0.0 
1.550912299138e+01 -2.525648588546e+02 0.0 
0.0 0.0 -2.302560314683e+02 
-2.645546848799e+02 6.299988383352e+00 0.0 
6.299988383352e+00 -2.997715035303e+02 0.0 
0.0 0.0 -2.634615987410e+02 
-1.957530994367e+02 1.232454754476e+01 0.0 
1.232454754476e+01 -2.082285158760e+02 0.0 
0.0 0.0 -1.881776445133e+02 
-1.761559850879e+02 2.214933252184e+00 0.0 
2.214933252184e+00 -2.018169284699e+02 0.0 
0.0 0.0 -1.759662058933e+02 
-1.986293701246e+02 3.173378918246e+00 0.0 
3.173378918246e+00 -2.268626743423e+02 0.0 
0.0 0.0 -1.982770830698e+02 
-2.299522162871e+02 1.453638082739e+01 0.0 
1.453638082739e+01 -2.208034617010e+02 0.0 
0.0 0.0 -2.101387020376e+02 
-1.838600633155e+02 4.347182603180e+00 0.0 
4.347182603180e+00 -2.093924858085e+02 0.0 
0.0 0.0 -1.831402022585e+02 
-1.793978708571e+02 1.209633951804e+01 0.0 
1.209633951804e+01 -1.868976836785e+02 0.0 
0.0 0.0 -1.704835272772e+02 
-1.757621603802e+02 8.228669480299e+00 0.0 
8.228669480299e+00 -1.954045277435e+02 0.0 
0.0 0.0 -1.727705906370e+02 
-2.451747137692e+02 8.870074056185e+00 0.0 
8.870074056185e+00 -2.750106352282e+02 0.0 
0.0 0.0 -2.427368752924e+02 
-1.564895917073e+02 8.078324863064e+00 0.0 
8.078324863064e+00 -1.729753371293e+02 0.0 
0.0 0.0 -1.531910484253e+02 
-1.136113490719e+02 1.794499459599e+00 0.0 
1.794499459599e+00 -1.311675388045e+02 0.0 
0.0 0.0 -1.134298023275e+02 
-1.834861569845e+02 6.020330376801e+00 0.0 
6.020330376801e+00 -2.074646477125e+02 0.0 
0.0 0.0 -1.820595019969e+02 
-1.207354285398e+02 2.691192783602e+00 0.0 
2.691192783602e+00 -1.387661878100e+02 0.0 
0.0 0.0 -1.203423232510e+02 
-1.850455886854e+02 1.271733472218e+01 0.0 
1.271733472218e+01 -1.836335584568e+02 0.0 
0.0 0.0 -1.716026563704e+02 
-1.214209074581e+02 2.306525916465e+00 0.0 
2.306525916465e+00 -1.397698792743e+02 0.0 
0.0 0.0 -1.211354116811e+02 
-1.658973510811e+02 1.163380047161e+01 0.0 
1.163380047161e+01 -1.671546777007e+02 0.0 
0.0 0.0 -1.548752405552e+02 
-2.553488573804e+02 1.405887143642e+01 0.0 
1.405887143642e+01 -2.769371197484e+02 0.0 
0.0 0.0 -2.484182845024e+02 
-2.546909630921e+02 1.322976354831e+01 0.0 
1.322976354831e+01 -2.783516232290e+02 0.0 
0.0 0.0 -2.487735227915e+02 
-1.611484928476e+02 7.751239470002e+00 0.0 
7.751239470002e+00 -1.791308763941e+02 0.0 
0.0 0.0 -1.582685750340e+02 
-1.633115634386e+02 7.660250618080e+00 0.0 
7.660250618080e+00 -1.475911781157e+02 0.0 
0.0 0.0 -1.444758494589e+02 
-2.693732549941e+02 6.066357122335e+00 0.0 
6.066357122335e+00 -3.054283326698e+02 0.0 
0.0 0.0 -2.683799409256e+02 
-2.721399165802e+02 5.973960752267e+00 0.0 
5.973960752267e+00 -3.086404235280e+02 0.0 
0.0 0.0 -2.711870463777e+02 
-4.700637205690e+01 9.896188582372e-01 0.0 
9.896188582372e-01 -5.607225107456e+01 0.0 
0.0 0.0 -4.689960402373e+01 
-1.891771800290e+02 1.302582804800e+01 0.0 
1.302582804800e+01 -1.925548507592e+02 0.0 
0.0 0.0 -1.777311624742e+02 
-2.970138711567e+02 6.299321884971e+00 0.0 
6.299321884971e+00 -3.366953551527e+02 0.0 
0.0 0.0 -2.960378771175e+02 
-7.291452639959e+01 5.951936637549e+00 0.0 
5.951936637549e+00 -7.396302972132e+01 0.0 
0.0 0.0 -6.746379776414e+01 
-2.048758764802e+02 2.553735959171e+00 0.0 
2.553735959171e+00 -2.342005743585e+02 0.0 
0.0 0.0 -2.046551463104e+02 
-2.959815506184e+00 5.596435242994e-01 0.0 
5.596435242994e-01 -6.340870449477e+00 0.0 
0.0 0.0 -2.869589202969e+00 
-2.779747496923e+02 5.599977889807e+00 0.0 
5.599977889807e+00 -3.155214737944e+02 0.0 
0.0 0.0 -2.771573262801e+02 
-1.065188738764e+02 2.057285194293e+00 0.0 
2.057285194293e+00 -1.230020512030e+02 0.0 
0.0 0.0 -1.062659816217e+02 
-1.939652771900e+02 3.280711077599e-01 0.0 
3.280711077599e-01 -2.223351284959e+02 0.0 
0.0 0.0 -1.939614838581e+02 
-2.173036110668e+02 1.188628396002e+01 0.0 
1.188628396002e+01 -2.366908992421e+02 0.0 
0.0 0.0 -2.116593777891e+02 
-1.575296551045e+02 7.651475977943e+00 0.0 
7.651475977943e+00 -1.427123223465e+02 0.0 
0.0 0.0 -1.394704759606e+02 
-1.571809040642e+02 7.429004600310e+00 0.0 
7.429004600310e+00 -1.420072431966e+02 0.0 
0.0 0.0 -1.389756883774e+02 
-1.804322838113e+02 1.140773809356e+01 0.0 
1.140773809356e+01 -1.923087071929e+02 0.0 
0.0 0.0 -1.735097472153e+02 
-7.437580351128e+01 5.382491499222e+00 0.0 
5.382491499222e+00 -6.960809386547e+01 0.0 
0.0 0.0 -6.610518569366e+01 
-8.010593768645e+01 5.482514891025e+00 0.0 
5.482514891025e+00 -7.429678721254e+01 0.0 
0.0 0.0 -7.099696668218e+01 
-2.788594440941e+02 5.408678949864e+00 0.0 
5.408678949864e+00 -3.166455983712e+02 0.0 
0.0 0.0 -2.781004940664e+02 
-2.235131820277e+02 6.989767087166e+00 0.0 
6.989767087166e+00 -2.523052584000e+02 0.0 
0.0 0.0 -2.219060093051e+02 
-1.873584478508e+02 5.054397716851e+00 0.0 
5.054397716851e+00 -2.128195115789e+02 0.0 
0.0 0.0 -1.863917764302e+02 
-2.319016187417e+02 9.464795926068e+00 0.0 
9.464795926068e+00 -2.588295486799e+02 0.0 
0.0 0.0 -2.289077371138e+02 
-1.647450301007e+02 4.761228991449e+00 0.0 
4.761228991449e+00 -1.872731214659e+02 0.0 
0.0 0.0 -1.637800927247e+02 
-1.127411485040e+02 2.580028341224e+00 0.0 
2.580028341224e+00 -1.297560847605e+02 0.0 
0.0 0.0 -1.123585345069e+02 
-6.345518481564e+01 4.859980969449e+00 0.0 
4.859980969449e+00 -5.950575074916e+01 0.0 
0.0 0.0 -5.623461967320e+01 
-1.402482617531e+02 6.908351371954e+00 0.0 
6.908351371954e+00 -1.268051308813e+02 0.0 
0.0 0.0 -1.238879847546e+02 
-8.324342564282e+01 6.333542981930e-02 0.0 
6.333542981930e-02 -7.085390254091e+01 0.0 
0.0 0.0 -7.085357877769e+01 
-2.486050452996e+02 1.276254727171e+01 0.0 
1.276254727171e+01 -2.721829344473e+02 0.0 
0.0 0.0 -2.430198186119e+02 
-1.526757026211e+02 7.107352515412e+00 0.0 
7.107352515412e+00 -1.703624926633e+02 0.0 
0.0 0.0 -1.501736097604e+02 
-2.944619443182e+02 1.761634496646e+01 0.0 
1.761634496646e+01 -3.135391520525e+02 0.0 
0.0 0.0 -2.839675610463e+02 
-2.746185601391e+02 1.911293846107e+00 0.0 
1.911293846107e+00 -3.132696262490e+02 0.0 
0.0 0.0 -2.745242767164e+02 
-1.834762350502e+02 5.890177145059e+00 0.0 
5.890177145059e+00 -2.075916207298e+02 0.0 
0.0 0.0 -1.821144590697e+02 
-3.067113610805e+02 7.526542721400e+00 0.0 
7.526542721400e+00 -3.468219449962e+02 0.0 
0.0 0.0 -3.053455517396e+02 
-1.303742130339e+02 2.144450207267e+00 0.0 
2.144450207267e+00 -1.500007366399e+02 0.0 
0.0 0.0 -1.301426366647e+02 
-2.830885710720e+02 1.723233110352e+01 0.0 
1.723233110352e+01 -3.004084378825e+02 0.0 
0.0 0.0 -2.724625592880e+02 
-1.678064006987e+02 1.056686752164e+01 0.0 
1.056686752164e+01 -1.795413370107e+02 0.0 
0.0 0.0 -1.615872700038e+02 
-2.063091994114e+02 1.249858046393e+01 0.0 
1.249858046393e+01 -2.211212581733e+02 0.0 
0.0 0.0 -1.991871943484e+02 
-2.753104692494e+02 1.307052268903e+01 0.0 
1.307052268903e+01 -3.032634661696e+02 0.0 
0.0 0.0 -2.701511094175e+02 
-1.407773131329e+02 5.802241204873e-01 0.0 
5.802241204873e-01 -1.622146258218e+02 0.0 
0.0 0.0 -1.407616202255e+02 
-1.846140454844e+02 1.263126940838e+01 0.0 
1.263126940838e+01 -1.900364505036e+02 0.0 
0.0 0.0 -1.744062857325e+02 
-1.776236285739e+02 4.854065537829e+00 0.0 
4.854065537829e+00 -2.018878949290e+02 0.0 
0.0 0.0 -1.766886041537e+02 
-1.600332796089e+02 1.123901175370e+01 0.0 
1.123901175370e+01 -1.632362877848e+02 0.0 
0.0 0.0 -1.502822421072e+02 
-1.028516368838e+02 5.021394837032e+00 0.0 
5.021394837032e+00 -1.157172269126e+02 0.0 
0.0 0.0 -1.011238401423e+02 
-2.154516867431e+02 1.267718310866e+01 0.0 
1.267718310866e+01 -2.319998395368e+02 0.0 
0.0 0.0 -2.085873579468e+02 
-1.570753138826e+02 3.796523608592e+00 0.0 
3.796523608592e+00 -1.793205591649e+02 0.0 
0.0 0.0 -1.564452208407e+02 
-2.041117664642e+02 3.183362209331e+00 0.0 
3.183362209331e+00 -2.330708401733e+02 0.0 
0.0 0.0 -2.037659607434e+02 
-1.788341315829e+02 1.241129298570e+01 0.0 
1.241129298570e+01 -1.814931369686e+02 0.0 
0.0 0.0 -1.676813359703e+02 
-1.601289630196e+01 -2.859353383984e-01 0.0 
-2.859353383984e-01 -2.124808048966e+01 0.0 
0.0 0.0 -1.599732539525e+01 
-1.912795912665e+02 9.351357487557e+00 0.0 
9.351357487557e+00 -2.115138372146e+02 0.0 
0.0 0.0 -1.876197746627e+02 
-2.030322515090e+01 1.121674043610e+00 0.0 
1.121674043610e+00 -2.564766435802e+01 0.0 
0.0 0.0 -2.007735740765e+01 
-5.280299394322e+01 -2.002647734828e-01 0.0 
-2.002647734828e-01 -6.284053931830e+01 0.0 
0.0 0.0 -5.279899993613e+01 
-1.945398318618e+02 2.349694249479e+00 0.0 
2.349694249479e+00 -2.225758530365e+02 0.0 
0.0 0.0 -1.943442685182e+02 
-2.124740309419e+02 1.437217954302e+01 0.0 
1.437217954302e+01 -2.177654907098e+02 0.0 
0.0 0.0 -2.005060880693e+02 
-1.694002471367e+02 9.042489910601e+00 0.0 
9.042489910601e+00 -1.555077737762e+02 0.0 
0.0 0.0 -1.510515182814e+02 
-5.926228197021e+01 4.737331594330e+00 0.0 
4.737331594330e+00 -5.599554663520e+01 0.0 
0.0 0.0 -5.261790636299e+01 
-1.843300631173e+02 1.273093122684e+01 0.0 
1.273093122684e+01 -1.841618482974e+02 0.0 
0.0 0.0 -1.715147466540e+02 
-1.191408266256e+01 1.921480260679e+00 0.0 
1.921480260679e+00 -1.444519870417e+01 0.0 
0.0 0.0 -1.087883137006e+01 
-6.555547541725e+01 5.024934651744e+00 0.0 
5.024934651744e+00 -6.172509651769e+01 0.0 
0.0 0.0 -5.826274760100e+01 
-1.836981293555e+02 5.139164416180e+00 0.0 
5.139164416180e+00 -2.085701787109e+02 0.0 
0.0 0.0 -1.826780877179e+02 
-1.954339617429e+02 1.874802840773e+00 0.0 
1.874802840773e+00 -2.237392903725e+02 0.0 
0.0 0.0 -1.953103242642e+02 
-1.002163239084e+02 7.096680738348e+00 0.0 
7.096680738348e+00 -9.557659073452e+01 0.0 
0.0 0.0 -9.043022276293e+01 
-1.319601979596e+02 1.446683568096e+00 0.0 
1.446683568096e+00 -1.520653326370e+02 0.0 
0.0 0.0 -1.318566339755e+02 
-2.065454309496e+02 5.577970216743e+00 0.0 
5.577970216743e+00 -2.342553437391e+02 0.0 
0.0 0.0 -2.054647397709e+02 
-1.731990297059e+02 1.130936490852e+01 0.0 
1.130936490852e+01 -1.831825138856e+02 0.0 
0.0 0.0 -1.658287645265e+02 
-2.097986924346e+02 1.071565426783e+01 0.0 
1.071565426783e+01 -2.305692831280e+02 0.0 
0.0 0.0 -2.052615347046e+02 
-2.078270707635e+02 1.417623902131e+01 0.0 
1.417623902131e+01 -2.080829033174e+02 0.0 
0.0 0.0 -1.937781709182e+02 
-5.967848985971e+01 1.388649738330e+00 0.0 
1.388649738330e+00 -7.023486418774e+01 0.0 
0.0 0.0 -5.949887455074e+01 
-1.764048373646e+02 1.668575178142e+00 0.0 
1.668575178142e+00 -2.022740230080e+02 0.0 
0.0 0.0 -1.762976575081e+02 
-1.942919962286e+02 1.637779616274e+00 0.0 
1.637779616274e+00 -2.225105786628e+02 0.0 
0.0 0.0 -1.941972591185e+02 
-1.085677286950e+02 -1.102350750704e-01 0.0 
-1.102350750704e-01 -1.258541071176e+02 0.0 
0.0 0.0 -1.085670257555e+02 
-1.381727430925e+02 6.597620328600e+00 0.0 
6.597620328600e+00 -1.244887419946e+02 0.0 
0.0 0.0 -1.218259245278e+02 
-1.550184798924e+02 8.792151261974e+00 0.0 
8.792151261974e+00 -1.432149372359e+02 0.0 
0.0 0.0 -1.385274296169e+02 
-2.504546379907e+02 7.917436936778e-01 0.0 
7.917436936778e-01 -2.861310901751e+02 0.0 
0.0 0.0 -2.504370759963e+02 
-3.385090262134e+01 -3.228964045606e-02 0.0 
-3.228964045606e-02 -4.143547023781e+01 0.0 
0.0 0.0 -3.385076515774e+01 
-2.061431700140e+01 -7.600198633686e-01 0.0 
-7.600198633686e-01 -2.626635388309e+01 0.0 
0.0 0.0 -2.051390238805e+01 
-7.636127819091e+01 -2.391293585281e-01 0.0 
-2.391293585281e-01 -8.945740317893e+01 0.0 
0.0 0.0 -7.635691325109e+01 
-2.024224477154e+02 1.863571821014e+00 0.0 
1.863571821014e+00 -2.316465739446e+02 0.0 
0.0 0.0 -2.023040903201e+02 
-1.438410663842e+02 2.915018240888e+00 0.0 
2.915018240888e+00 -1.648647706119e+02 0.0 
0.0 0.0 -1.434443729393e+02 
-1.319445108746e+02 1.314006635176e+00 0.0 
1.314006635176e+00 -1.520863785623e+02 0.0 
0.0 0.0 -1.318591500238e+02 
-1.153780567061e+02 1.458560412532e+00 0.0 
1.458560412532e+00 -1.332991665158e+02 0.0 
0.0 0.0 -1.152601237038e+02 
-2.036388742011e+02 2.341666263375e+00 0.0 
2.341666263375e+00 -2.328761328736e+02 0.0 
0.0 0.0 -2.034525136839e+02 
-1.806578390450e+02 1.115451634554e+01 0.0 
1.115451634554e+01 -1.707274285721e+02 0.0 
0.0 0.0 -1.634829451171e+02 
-2.036250691636e+02 1.553732508524e+00 0.0 
1.553732508524e+00 -2.330833999566e+02 0.0 
0.0 0.0 -2.035433467411e+02 
-1.408660724928e+02 3.192328839824e+00 0.0 
3.192328839824e+00 -1.613113980522e+02 0.0 
0.0 0.0 -1.403792162483e+02 
-1.746474744131e+02 1.211493458083e+01 0.0 
1.211493458083e+01 -1.784216114362e+02 0.0 
0.0 0.0 -1.642735206399e+02 
-1.138405578056e+02 2.001759500696e+00 0.0 
2.001759500696e+00 -9.841537042621e+01 0.0 
0.0 0.0 -9.815983117769e+01 
-2.370309017420e+02 1.344154476578e+01 0.0 
1.344154476578e+01 -2.562972314167e+02 0.0 
0.0 0.0 -2.301270477889e+02 
-2.094225667180e+02 1.742650790169e+00 0.0 
1.742650790169e+00 -2.395941759719e+02 0.0 
0.0 0.0 -2.093222483038e+02 
-2.121166045509e+02 2.537443898012e+00 0.0 
2.537443898012e+00 -2.424020669582e+02 0.0 
0.0 0.0 -2.119054785896e+02 
-4.445652671535e+01 3.988809382031e+00 0.0 
3.988809382031e+00 -4.223776846326e+01 0.0 
0.0 0.0 -3.920693958348e+01 
-1.507702739435e+02 2.856087955354e+00 0.0 
2.856087955354e+00 -1.727615988735e+02 0.0 
0.0 0.0 -1.504053980650e+02 
-2.124082998107e+02 1.319551343447e+00 0.0 
1.319551343447e+00 -2.430605478896e+02 0.0 
0.0 0.0 -2.123515992129e+02 
-1.122087542793e+02 5.207602624691e-01 0.0 
5.207602624691e-01 -9.652196797253e+01 0.0 
0.0 0.0 -9.650469910485e+01 
-1.051377104608e+02 2.437139319326e-01 0.0 
2.437139319326e-01 -9.023861311838e+01 0.0 
0.0 0.0 -9.023462760201e+01 
-5.083333112279e+01 4.320183319892e+00 0.0 
4.320183319892e+00 -4.819993355427e+01 0.0 
0.0 0.0 -4.500025330151e+01 
-2.128238324361e+02 2.254656893393e+00 0.0 
2.254656893393e+00 -2.432974367794e+02 0.0 
0.0 0.0 -2.126579199729e+02 
-1.321420967997e+02 6.913341391652e-01 0.0 
6.913341391652e-01 -1.524413414310e+02 0.0 
0.0 0.0 -1.321185791850e+02 
-4.112308265569e+01 2.361334579390e+00 0.0 
2.361334579390e+00 -4.811248709969e+01 0.0 
0.0 0.0 -4.040010250270e+01 
-2.677935325703e+02 1.614827897611e+01 0.0 
1.614827897611e+01 -2.852565493259e+02 0.0 
0.0 0.0 -2.581673136258e+02 
-6.716185657730e+01 -4.973001669600e-01 0.0 
-4.973001669600e-01 -7.902829529469e+01 0.0 
0.0 0.0 -6.714105213570e+01 
-1.281004748399e+02 8.332182443601e-01 0.0 
8.332182443601e-01 -1.478502109184e+02 0.0 
0.0 0.0 -1.280653846837e+02 
-1.755948077680e+02 8.790925390040e+00 0.0 
8.790925390040e+00 -1.941150843084e+02 0.0 
0.0 0.0 -1.720866051125e+02 
-4.333185581583e+01 3.915726748642e+00 0.0 
3.915726748642e+00 -4.110239235766e+01 0.0 
0.0 0.0 -3.814581682766e+01 
-2.161225740694e+02 1.505680759721e+00 0.0 
1.505680759721e+00 -2.472230420544e+02 0.0 
0.0 0.0 -2.160498489385e+02 
-9.431766135882e+01 9.209371151287e-02 0.0 
9.209371151287e-02 -1.097537980510e+02 0.0 
0.0 0.0 -9.431711193704e+01 
-1.137022432604e+02 5.188772701495e+00 0.0 
5.188772701495e+00 -1.013816655601e+02 0.0 
0.0 0.0 -9.948760646239e+01 
-2.190830931116e+02 2.424603001040e+00 0.0 
2.424603001040e+00 -2.503245290147e+02 0.0 
0.0 0.0 -2.188960430665e+02 
-1.807634475985e+02 4.051454627741e+00 0.0 
4.051454627741e+00 -2.060796606858e+02 0.0 
0.0 0.0 -1.801308827568e+02 
-1.970462780614e+02 2.508215727142e+00 0.0 
2.508215727142e+00 -2.253546449864e+02 0.0 
0.0 0.0 -1.968257595923e+02 
-2.829178320564e+01 -7.148504879876e-01 0.0 
-7.148504879876e-01 -3.499413284529e+01 0.0 
0.0 0.0 -2.821638774409e+01 
-1.760943818797e+02 2.595291866489e+00 0.0 
2.595291866489e+00 -1.535890449574e+02 0.0 
0.0 0.0 -1.532936362033e+02 
-1.495830445678e+02 2.026512544602e+00 0.0 
2.026512544602e+00 -1.718069695280e+02 0.0 
0.0 0.0 -1.493997663133e+02 
-2.723952257613e+02 1.435409151961e+01 0.0 
1.435409151961e+01 -2.968345205629e+02 0.0 
0.0 0.0 -2.657638857621e+02 
-1.933252218130e+02 1.168269102829e+01 0.0 
1.168269102829e+01 -2.077279681345e+02 0.0 
0.0 0.0 -1.868027090422e+02 
-2.215641102838e+02 2.038231683697e+00 0.0 
2.038231683697e+00 -2.532480105824e+02 0.0 
0.0 0.0 -2.214335286072e+02 
-2.262015566932e+02 2.179620640965e+00 0.0 
2.179620640965e+00 -2.584535035778e+02 0.0 
0.0 0.0 -2.260549223052e+02 
-1.337057461950e+02 2.294135647370e+00 0.0 
2.294135647370e+00 -1.537048236058e+02 0.0 
0.0 0.0 -1.334459558440e+02 
-4.560100271963e+01 -4.506221332140e-01 0.0 
-4.506221332140e-01 -5.466417422974e+01 0.0 
0.0 0.0 -4.557865284027e+01 
-2.369769748272e+01 3.275563472578e-02 0.0 
3.275563472578e-02 -2.996365881060e+01 0.0 
0.0 0.0 -2.369752625563e+01 
-2.301643391708e+02 1.662851807417e+00 0.0 
1.662851807417e+00 -2.630646721817e+02 0.0 
0.0 0.0 -2.300805087550e+02 
-2.738805263531e+02 1.345619598776e+01 0.0 
1.345619598776e+01 -3.007526978891e+02 0.0 
0.0 0.0 -2.683008920131e+02 
-1.300055720824e+02 3.183494536432e-01 0.0 
3.183494536432e-01 -1.500666915825e+02 0.0 
0.0 0.0 -1.300005214736e+02 
-1.981863621188e+02 1.341651733007e+01 0.0 
1.341651733007e+01 -2.043889168589e+02 0.0 
0.0 0.0 -1.875173505088e+02 
-6.422628700176e+01 5.380489167743e+00 0.0 
5.380489167743e+00 -6.625252947359e+01 0.0 
0.0 0.0 -5.976436683848e+01 
-1.804160765374e+02 1.251948388751e+01 0.0 
1.251948388751e+01 -1.823344958980e+02 0.0 
0.0 0.0 -1.688191100474e+02 
-3.050851731738e+02 1.391053357461e+01 0.0 
1.391053357461e+01 -3.367186053633e+02 0.0 
0.0 0.0 -2.998383792962e+02 
-5.653054030641e+00 -6.625622664652e-01 0.0 
-6.625622664652e-01 -9.329476930595e+00 0.0 
0.0 0.0 -5.537292581171e+00 
-1.761188823407e+02 1.021762743132e+01 0.0 
1.021762743132e+01 -1.911873511764e+02 0.0 
0.0 0.0 -1.709580547820e+02 
-3.322150127475e+02 2.362676657358e+00 0.0 
2.362676657358e+00 -3.782892129432e+02 0.0 
0.0 0.0 -3.320941720494e+02 
-8.948291350881e+01 7.500040122437e-03 0.0 
7.500040122437e-03 -7.637563633030e+01 0.0 
0.0 0.0 -7.637563203875e+01 
-1.498565023053e+02 1.441183257731e+00 0.0 
1.441183257731e+00 -1.723100848934e+02 0.0 
0.0 0.0 -1.497643779294e+02 
-1.800354229607e+02 1.131652560940e+01 0.0 
1.131652560940e+01 -1.921895504225e+02 0.0 
0.0 0.0 -1.732674699357e+02 
-1.357210442212e+02 3.051733703201e+00 0.0 
3.051733703201e+00 -1.555578219462e+02 0.0 
0.0 0.0 -1.352621735118e+02 
-4.538222200198e+01 -2.763523585958e-02 0.0 
-2.763523585958e-02 -5.446440490938e+01 0.0 
0.0 0.0 -4.538213791436e+01 
-9.034194939018e-01 -1.318234624344e-01 0.0 
-1.318234624344e-01 -4.198377801817e+00 0.0 
0.0 0.0 -8.981539646209e-01 
-1.902777657775e+02 9.708217437465e+00 0.0 
9.708217437465e+00 -1.741875693797e+02 0.0 
0.0 0.0 -1.696242144283e+02 
-1.615164527385e+02 9.743966664190e+00 0.0 
9.743966664190e+00 -1.511782922003e+02 0.0 
0.0 0.0 -1.453172193797e+02 
-1.135039227068e+02 5.414982912503e+00 0.0 
5.414982912503e+00 -1.015791470119e+02 0.0 
0.0 0.0 -9.948721249272e+01 
-2.762776914401e+02 1.826182822854e+01 0.0 
1.826182822854e+01 -2.826359939858e+02 0.0 
0.0 0.0 -2.609203550989e+02 
-8.214653043209e+01 1.585012445769e-01 0.0 
1.585012445769e-01 -9.599938523730e+01 0.0 
0.0 0.0 -8.214471713390e+01 
-2.908918613127e+02 1.909475249976e+01 0.0 
1.909475249976e+01 -2.984351530706e+02 0.0 
0.0 0.0 -2.751998259966e+02 
-1.759632662007e+02 1.022585179132e+01 0.0 
1.022585179132e+01 -1.639484115767e+02 0.0 
0.0 0.0 -1.580959388990e+02 
-1.497309133394e+02 1.062416111856e+00 0.0 
1.062416111856e+00 -1.722579171479e+02 0.0 
0.0 0.0 -1.496809187399e+02 
-1.898223710213e+02 1.146710362389e+01 0.0 
1.146710362389e+01 -2.040949650690e+02 0.0 
0.0 0.0 -1.834523287656e+02 
-1.306163433951e+02 8.634104533900e-01 0.0 
8.634104533900e-01 -1.506885803627e+02 0.0 
0.0 0.0 -1.305792721243e+02 
-4.270523334023e+01 2.847102830848e+00 0.0 
2.847102830848e+00 -4.914295525367e+01 0.0 
0.0 0.0 -4.162676252152e+01 
-1.235319475384e+02 4.158827536918e-01 0.0 
4.158827536918e-01 -1.427439689262e+02 0.0 
0.0 0.0 -1.235229491363e+02 
-1.839614656750e+02 1.198372093701e+01 0.0 
1.198372093701e+01 -1.768676897354e+02 0.0 
0.0 0.0 -1.679169786652e+02 
-2.843918023580e+02 2.927895016135e+00 0.0 
2.927895016135e+00 -3.240550157455e+02 0.0 
0.0 0.0 -2.841768334519e+02 
-1.352045309579e+02 1.410959185657e+00 0.0 
1.410959185657e+00 -1.557461115424e+02 0.0 
0.0 0.0 -1.351080680435e+02 
-2.029350540040e+02 1.383741621157e+01 0.0 
1.383741621157e+01 -2.071997945550e+02 0.0 
0.0 0.0 -1.910666710711e+02 
-3.573949015291e+00 -3.129858563147e-01 0.0 
-3.129858563147e-01 -7.169330162901e+00 0.0 
0.0 0.0 -3.546906308477e+00 
-1.387805241094e+02 2.180446246695e+00 0.0 
2.180446246695e+00 -1.595087204763e+02 0.0 
0.0 0.0 -1.385536413661e+02 
-1.821651186660e+02 1.108088336449e+01 0.0 
1.108088336449e+01 -1.715731613399e+02 0.0 
0.0 0.0 -1.645877163828e+02 
-1.183378992642e+02 1.782431886451e-01 0.0 
1.782431886451e-01 -1.368909199897e+02 0.0 
0.0 0.0 -1.183361869984e+02 
-1.221040922000e+02 1.516363970615e-02 0.0 
1.516363970615e-02 -1.411498264447e+02 0.0 
0.0 0.0 -1.221040801272e+02 
-1.763975740605e+02 1.061345015489e+01 0.0 
1.061345015489e+01 -1.902560786555e+02 0.0 
0.0 0.0 -1.706516592352e+02 
-6.522472701734e+01 -6.444687949919e-01 0.0 
-6.444687949919e-01 -7.680777647216e+01 0.0 
0.0 0.0 -6.518897976758e+01 
-3.017583021558e+01 3.234802463229e+00 0.0 
3.234802463229e+00 -2.889123707017e+01 0.0 
0.0 0.0 -2.623558096531e+01 
-4.004570365595e+01 3.788381148367e+00 0.0 
3.788381148367e+00 -3.831366680595e+01 0.0 
0.0 0.0 -3.529357925739e+01 
-1.090721876805e+02 -1.474133933367e-01 0.0 
-1.474133933367e-01 -1.264229069270e+02 0.0 
0.0 0.0 -1.090709353324e+02 
-1.970657835127e+02 5.287863735591e+00 0.0 
5.287863735591e+00 -2.236915220331e+02 0.0 
0.0 0.0 -1.960540588580e+02 
-1.715659535699e+02 8.492333268068e+00 0.0 
8.492333268068e+00 -1.899619495311e+02 0.0 
0.0 0.0 -1.682450501935e+02 
-1.912637688715e+02 1.310132547856e+01 0.0 
1.310132547856e+01 -1.958216924283e+02 0.0 
0.0 0.0 -1.802446707883e+02 
-2.177793496919e+02 1.475963960278e+01 0.0 
1.475963960278e+01 -2.173094396955e+02 0.0 
0.0 0.0 -2.027828851146e+02 
-3.178839352483e+01 3.328565697841e+00 0.0 
3.328565697841e+00 -3.045414407780e+01 0.0 
0.0 0.0 -2.772650739562e+01 
-1.319893154484e+02 7.960768672112e-01 0.0 
7.960768672112e-01 -1.140629561503e+02 0.0 
0.0 0.0 -1.140276732751e+02 
-2.567470955286e+02 1.709216729409e+01 0.0 
1.709216729409e+01 -2.623971965481e+02 0.0 
0.0 0.0 -2.422480849327e+02 
-1.273755068121e+02 2.454304168257e+00 0.0 
2.454304168257e+00 -1.464438081152e+02 0.0 
0.0 0.0 -1.270646771388e+02 
-2.479366205316e+01 1.746471242259e+00 0.0 
1.746471242259e+00 -3.008534355989e+01 0.0 
0.0 0.0 -2.426922914449e+01 
-7.541912223611e+01 6.107079052467e+00 0.0 
6.107079052467e+00 -7.618863559352e+01 0.0 
0.0 0.0 -6.968469169306e+01 
-1.901971727274e+02 4.304697762358e+00 0.0 
4.304697762358e+00 -2.166302908227e+02 0.0 
0.0 0.0 -1.895138089017e+02 
-1.951587271265e+02 1.339213911050e+01 0.0 
1.339213911050e+01 -1.950186784500e+02 0.0 
0.0 0.0 -1.816963806087e+02 
-1.741618846414e+02 4.105135946911e+00 0.0 
4.105135946911e+00 -1.985349941069e+02 0.0 
0.0 0.0 -1.734890359122e+02 
-4.289890441163e+01 4.580006052546e-01 0.0 
4.580006052546e-01 -5.160761281010e+01 0.0 
0.0 0.0 -4.287488390707e+01 
-2.138643767980e+02 6.669906358251e+00 0.0 
6.669906358251e+00 -2.415863265942e+02 0.0 
0.0 0.0 -2.123430802138e+02 
-4.621418062464e+01 3.470151760090e+00 0.0 
3.470151760090e+00 -5.190827667745e+01 0.0 
0.0 0.0 -4.457261687203e+01 
-1.646134470894e+02 7.925649022409e+00 0.0 
7.925649022409e+00 -1.828753092180e+02 0.0 
0.0 0.0 -1.616534801504e+02 
-1.930899346558e+02 5.404949463369e+00 0.0 
5.404949463369e+00 -2.190534456609e+02 0.0 
0.0 0.0 -1.920097040032e+02 
-1.981465530525e+02 1.150848099724e+01 0.0 
1.150848099724e+01 -2.143443833209e+02 0.0 
0.0 0.0 -1.921728862909e+02 
-1.122854276703e+02 1.098057748403e+00 0.0 
1.098057748403e+00 -9.670241481641e+01 0.0 
0.0 0.0 -9.662542054627e+01 
-1.175872120148e+02 -5.065788598791e-02 0.0 
-5.065788598791e-02 -1.360460963927e+02 0.0 
0.0 0.0 -1.175870729922e+02 
-3.730165475978e+01 1.680290496753e+00 0.0 
1.680290496753e+00 -4.454486237621e+01 0.0 
0.0 0.0 -3.693084196935e+01 
-2.127311054342e+02 6.869299276797e+00 0.0 
6.869299276797e+00 -2.400774326202e+02 0.0 
0.0 0.0 -2.111025477124e+02 
-4.887092520711e+01 3.937290642220e+00 0.0 
3.937290642220e+00 -5.372396544754e+01 0.0 
0.0 0.0 -4.667248505775e+01 
-2.054428386766e+01 -5.392255327289e-01 0.0 
-5.392255327289e-01 -2.629432477173e+01 0.0 
0.0 0.0 -2.049415359285e+01 
-1.714012302277e+02 4.542408081153e+00 0.0 
4.542408081153e+00 -1.595824018238e+02 0.0 
0.0 0.0 -1.502450604082e+02 
-1.723133663836e+02 1.559459576380e+00 0.0 
1.559459576380e+00 -1.498892033285e+02 0.0 
0.0 0.0 -1.497812722081e+02 
-1.819207174817e+01 -1.891378390017e-01 0.0 
-1.891378390017e-01 -2.372967298430e+01 0.0 
0.0 0.0 -1.818561922738e+01 
-2.315238746098e+02 8.226861024625e+00 0.0 
8.226861024625e+00 -2.600945256975e+02 0.0 
0.0 0.0 -2.293243050005e+02 
-9.319116759538e+01 -1.894712746175e-01 0.0 
-1.894712746175e-01 -1.084771824175e+02 0.0 
0.0 0.0 -9.318881944575e+01 
-9.376185953135e+01 -2.912560296464e-01 0.0 
-2.912560296464e-01 -1.091152242029e+02 0.0 
0.0 0.0 -9.375633634012e+01 
-2.193371908395e+02 1.480961362197e+01 0.0 
1.480961362197e+01 -2.244142205686e+02 0.0 
0.0 0.0 -2.068501037743e+02 
-1.868713064856e+02 1.076001856612e+01 0.0 
1.076001856612e+01 -2.027625245481e+02 0.0 
0.0 0.0 -1.814411649801e+02 
-2.144253084329e+02 1.436771010634e+01 0.0 
1.436771010634e+01 -2.213895095088e+02 0.0 
0.0 0.0 -2.031237653788e+02 
-1.449516412936e+02 2.025737937143e+00 0.0 
2.025737937143e+00 -1.665635509747e+02 0.0 
0.0 0.0 -1.447634033850e+02 
-8.363257362212e+01 2.117205224345e-01 0.0 
2.117205224345e-01 -7.120450954258e+01 0.0 
0.0 0.0 -7.120090378565e+01 
-3.265964072860e+02 1.424401500457e+01 0.0 
1.424401500457e+01 -3.613541469938e+02 0.0 
0.0 0.0 -3.215049170883e+02 
-8.037682683889e+01 -3.574997744833e-01 0.0 
-3.574997744833e-01 -9.398373172642e+01 0.0 
0.0 0.0 -8.036744057596e+01 
-2.648092585472e+02 1.368243861266e+01 0.0 
1.368243861266e+01 -2.893928058757e+02 0.0 
0.0 0.0 -2.587081850636e+02 
-1.684015599053e+02 8.893365836913e+00 0.0 
8.893365836913e+00 -1.853420953672e+02 0.0 
0.0 0.0 -1.645902401435e+02 
-6.487716355800e+01 -1.128347449617e-01 0.0 
-1.128347449617e-01 -7.648887878538e+01 0.0 
0.0 0.0 -6.487606721027e+01 
-1.878053586958e+02 1.276252300446e+01 0.0 
1.276252300446e+01 -1.847337980098e+02 0.0 
0.0 0.0 -1.734149832716e+02 
-1.458079295383e+02 3.043409067249e+00 0.0 
3.043409067249e+00 -1.670203567324e+02 0.0 
0.0 0.0 -1.453799188483e+02 
-3.363428740749e+01 -4.576190390637e-01 0.0 
-4.576190390637e-01 -4.113174704675e+01 0.0 
0.0 0.0 -3.360645921148e+01 
-1.261234635181e+02 1.507498922459e+00 0.0 
1.507498922459e+00 -1.454421554684e+02 0.0 
0.0 0.0 -1.260065362939e+02 
-2.407803526390e+02 -5.132574718138e-02 0.0 
-5.132574718138e-02 -2.752377066421e+02 0.0 
0.0 0.0 -2.407802761872e+02 
-1.783497351834e+02 1.176960686605e+01 0.0 
1.176960686605e+01 -1.720761452214e+02 0.0 
0.0 0.0 -1.630324997944e+02 
-6.307762897169e+01 -4.630585342475e-01 0.0 
-4.630585342475e-01 -7.441777954551e+01 0.0 
0.0 0.0 -6.305875207341e+01 
-1.907842698077e+02 5.191533970887e-01 0.0 
5.191533970887e-01 -2.187285672462e+02 0.0 
0.0 0.0 -1.907746282237e+02 
-2.059784854641e+02 1.407679577812e+01 0.0 
1.407679577812e+01 -2.085023816363e+02 0.0 
0.0 0.0 -1.931071857865e+02 
-2.417868002386e+02 1.416815661876e+01 0.0 
1.416815661876e+01 -2.598010231182e+02 0.0 
0.0 0.0 -2.340050844870e+02 
-1.164577427987e+02 9.855506742025e-02 0.0 
9.855506742025e-02 -1.347691163132e+02 0.0 
0.0 0.0 -1.164572123731e+02 
-9.692049184486e+01 -1.161347550865e-01 0.0 
-1.161347550865e-01 -1.126939912741e+02 0.0 
0.0 0.0 -9.691963683166e+01 
-1.819798542114e+02 9.313003151879e+00 0.0 
9.313003151879e+00 -2.005758328172e+02 0.0 
0.0 0.0 -1.781178802627e+02 
-1.050497959752e+02 3.907743065417e-02 0.0 
3.907743065417e-02 -9.015348360662e+01 0.0 
0.0 0.0 -9.015338109567e+01 
-3.268795510911e+01 -5.093998202229e-01 0.0 
-5.093998202229e-01 -4.004704617459e+01 0.0 
0.0 0.0 -3.265286156054e+01 
-2.572520671022e+02 1.712687886237e+01 0.0 
1.712687886237e+01 -2.628335606221e+02 0.0 
0.0 0.0 -2.426900548007e+02 
-2.170273415012e+02 1.471664256990e+01 0.0 
1.471664256990e+01 -2.166330544445e+02 0.0 
0.0 0.0 -2.021122349990e+02 
-9.312923789073e+01 2.339175447166e-01 0.0 
2.339175447166e-01 -7.961048033669e+01 0.0 
0.0 0.0 -7.960643402956e+01 
-2.341123389057e+02 1.451318133887e+01 0.0 
1.451318133887e+01 -2.235227232455e+02 0.0 
0.0 0.0 -2.133686663104e+02 
-2.398807550416e+02 1.614649120336e+01 0.0 
1.614649120336e+01 -2.409025546915e+02 0.0 
0.0 0.0 -2.242370828570e+02 
-1.424304071025e+02 2.154576327977e+00 0.0 
2.154576327977e+00 -1.636546784153e+02 0.0 
0.0 0.0 -1.422138945356e+02 
-1.434718168861e+02 1.348701379309e+00 0.0 
1.348701379309e+00 -1.651141509735e+02 0.0 
0.0 0.0 -1.433880927521e+02 
-2.901393258958e+02 1.734987656278e+01 0.0 
1.734987656278e+01 -3.090751713717e+02 0.0 
0.0 0.0 -2.798421334630e+02 
-3.594946191828e+00 -3.075786368387e-01 0.0 
-3.075786368387e-01 -7.195085408658e+00 0.0 
0.0 0.0 -3.568857205548e+00 
-8.920769440005e+01 -1.377965818415e-01 0.0 
-1.377965818415e-01 -1.039786635937e+02 0.0 
0.0 0.0 -8.920640902429e+01 
-2.003086468080e+02 2.336298670562e-01 0.0 
2.336298670562e-01 -2.295063704744e+02 0.0 
0.0 0.0 -2.003067775040e+02 
-1.254324550156e+02 1.228656186887e-01 0.0 
1.228656186887e-01 -1.449087982304e+02 0.0 
0.0 0.0 -1.254316799543e+02 
-1.237236989470e+02 7.798597240301e-01 0.0 
7.798597240301e-01 -1.429123928792e+02 0.0 
0.0 0.0 -1.236920563591e+02 
-1.898164222838e+01 2.634429936760e+00 0.0 
2.634429936760e+00 -1.857627001730e+01 0.0 
0.0 0.0 -1.613674062272e+01 
-2.955052910377e+01 3.234417426802e+00 0.0 
3.234417426802e+00 -2.859166932745e+01 0.0 
0.0 0.0 -2.580134248024e+01 
-1.229151448470e+02 1.861354686556e+00 0.0 
1.861354686556e+00 -1.063547571341e+02 0.0 
0.0 0.0 -1.061481228687e+02 
-1.382402023121e+02 2.052474326149e+00 0.0 
2.052474326149e+00 -1.589524402016e+02 0.0 
0.0 0.0 -1.380387718036e+02 
-1.008226479978e+02 -1.367302815770e-01 0.0 
-1.367302815770e-01 -1.171022718189e+02 0.0 
0.0 0.0 -1.008214997003e+02 
-2.347929689593e+02 1.408565349231e+01 0.0 
1.408565349231e+01 -2.512586401365e+02 0.0 
0.0 0.0 -2.267106209407e+02 
-3.243953367228e+02 1.100342287792e+01 0.0 
1.100342287792e+01 -3.635808923799e+02 0.0 
0.0 0.0 -3.215169717663e+02 
-3.240176499742e+02 1.249079584696e+01 0.0 
1.249079584696e+01 -3.611725861178e+02 0.0 
0.0 0.0 -3.202089102195e+02 
-1.374024135503e+02 1.447006709011e+00 0.0 
1.447006709011e+00 -1.582216935678e+02 0.0 
0.0 0.0 -1.373023231378e+02 
-1.021873284301e+02 1.607470407117e+00 0.0 
1.607470407117e+00 -8.795788077583e+01 0.0 
0.0 0.0 -8.777854837572e+01 
-1.725198931119e+01 -5.268196659029e-01 0.0 
-5.268196659029e-01 -2.257119051168e+01 0.0 
0.0 0.0 -1.720031450801e+01 
-1.499403156559e+01 2.414531112553e+00 0.0 
2.414531112553e+00 -1.545407627773e+01 0.0 
0.0 0.0 -1.279859091889e+01 
-6.329502487530e+01 -7.444774020275e-01 0.0 
-7.444774020275e-01 -7.459963781859e+01 0.0 
0.0 0.0 -6.324620733044e+01 
-1.870834990260e+01 2.634765294718e+00 0.0 
2.634765294718e+00 -1.861791173083e+01 0.0 
0.0 0.0 -1.602797751492e+01 
-1.814599383953e+02 9.820547336893e+00 0.0 
9.820547336893e+00 -1.987662793328e+02 0.0 
0.0 0.0 -1.770241627966e+02 
-1.205413856257e+02 3.453863182031e-01 0.0 
3.453863182031e-01 -1.393707174382e+02 0.0 
0.0 0.0 -1.205350523368e+02 
-1.390420923898e+02 1.270065916579e+00 0.0 
1.270065916579e+00 -1.601251170816e+02 0.0 
0.0 0.0 -1.389658578009e+02 
-3.551363290708e+01 -7.290384249353e-01 0.0 
-7.290384249353e-01 -4.316784520161e+01 0.0 
0.0 0.0 -3.544481317113e+01 
-1.640330077766e+02 4.746580378796e+00 0.0 
4.746580378796e+00 -1.444075200084e+02 0.0 
0.0 0.0 -1.433198066623e+02 
-1.370494575732e+02 7.668406090398e-01 0.0 
7.668406090398e-01 -1.579763112997e+02 0.0 
0.0 0.0 -1.370213952074e+02 
-1.719946337063e+02 9.507125405731e+00 0.0 
9.507125405731e+00 -1.587683187769e+02 0.0 
0.0 0.0 -1.538004881519e+02 
-1.604381374143e+02 3.193076669312e+00 0.0 
3.193076669312e+00 -1.400981394091e+02 0.0 
0.0 0.0 -1.396086535119e+02 
-2.161348478636e+02 1.414566550443e+01 0.0 
1.414566550443e+01 -2.259650842466e+02 0.0 
0.0 0.0 -2.060747118202e+02 
-3.241520803120e+02 2.540077912291e+00 0.0 
2.540077912291e+00 -3.691320282704e+02 0.0 
0.0 0.0 -3.240090932524e+02 
-9.767587762079e+01 1.954343011624e-01 0.0 
1.954343011624e-01 -8.363203834918e+01 0.0 
0.0 0.0 -8.362931920866e+01 
-1.417339499016e+02 8.701032634917e-01 0.0 
8.701032634917e-01 -1.632541123299e+02 0.0 
0.0 0.0 -1.416988272073e+02 
-2.264776845393e+01 2.852226175288e+00 0.0 
2.852226175288e+00 -2.215178067547e+01 0.0 
0.0 0.0 -1.953678746656e+01 
-1.314447316800e+02 9.573765551075e-01 0.0 
9.573765551075e-01 -1.516068970532e+02 0.0 
0.0 0.0 -1.313993738270e+02 
-3.366001094756e+02 9.975852781762e+00 0.0 
9.975852781762e+00 -3.787237117794e+02 0.0 
0.0 0.0 -3.343570376073e+02 
-6.050302238261e+00 1.424914245420e+00 0.0 
1.424914245420e+00 -8.703966011424e+00 0.0 
0.0 0.0 -5.430120138748e+00 
-9.701887791399e+00 1.965982164518e+00 0.0 
1.965982164518e+00 -1.139426502564e+01 0.0 
0.0 0.0 -8.407721053223e+00 
-2.697832057868e+02 1.480028878891e+01 0.0 
1.480028878891e+01 -2.924371463588e+02 0.0 
0.0 0.0 -2.624728800218e+02 
-1.046143145421e+02 1.002604146159e+00 0.0 
1.002604146159e+00 -8.989601422255e+01 0.0 
0.0 0.0 -8.982803127809e+01 
-1.805490248874e+02 9.505329265323e+00 0.0 
9.505329265323e+00 -1.657242079360e+02 0.0 
0.0 0.0 -1.610827753702e+02 
-2.007918386652e+02 1.375365600837e+01 0.0 
1.375365600837e+01 -2.036257928789e+02 0.0 
0.0 0.0 -1.883823600541e+02 
-2.724798486014e+02 1.649904231559e+01 0.0 
1.649904231559e+01 -2.898267068042e+02 0.0 
0.0 0.0 -2.625133536228e+02 
-2.130261952196e+02 1.436575385959e+01 0.0 
1.436575385959e+01 -2.106670454391e+02 0.0 
0.0 0.0 -1.974325202577e+02 
-9.552469297979e+01 6.317306037397e-01 0.0 
6.317306037397e-01 -8.177758897648e+01 0.0 
0.0 0.0 -8.174861965074e+01 
-1.133403239142e+02 -1.765883874783e-01 0.0 
-1.765883874783e-01 -1.312442778838e+02 0.0 
0.0 0.0 -1.133385823757e+02 
-1.051638629571e+02 -2.126936796385e-01 0.0 
-2.126936796385e-01 -1.220039787456e+02 0.0 
0.0 0.0 -1.051611770262e+02 
-1.185678349303e+02 8.431904288352e-01 0.0 
8.431904288352e-01 -1.021992598506e+02 0.0 
0.0 0.0 -1.021559394371e+02 
-2.460290786943e+02 1.493201848031e+01 0.0 
1.493201848031e+01 -2.622515789838e+02 0.0 
0.0 0.0 -2.371474610761e+02 
-7.767350781775e+01 2.035664036349e+00 0.0 
2.035664036349e+00 -6.660705148443e+01 0.0 
0.0 0.0 -6.624447249573e+01 
-9.436668622052e+01 1.701454711281e-01 0.0 
1.701454711281e-01 -8.070206478669e+01 0.0 
0.0 0.0 -8.069994654327e+01 
-1.021179393422e+02 4.551577174370e-01 0.0 
4.551577174370e-01 -8.758526027418e+01 0.0 
0.0 0.0 -8.757101887181e+01 
-1.065824818111e+02 8.560203233155e-01 0.0 
8.560203233155e-01 -9.160172000325e+01 0.0 
0.0 0.0 -9.155296455877e+01 
-5.172169605533e+01 -4.862775523394e-01 0.0 
-4.862775523394e-01 -6.157634358780e+01 0.0 
0.0 0.0 -5.169775883519e+01 
-9.677606889292e+01 -3.380140466176e-01 0.0 
-3.380140466176e-01 -1.125171820238e+02 0.0 
0.0 0.0 -9.676881395100e+01 
-2.058255994339e+02 1.326932930660e+01 0.0 
1.326932930660e+01 -1.981511534012e+02 0.0 
0.0 0.0 -1.881753615140e+02 
-1.156213733369e+02 1.311752868927e+00 0.0 
1.311752868927e+00 -9.971231324565e+01 0.0 
0.0 0.0 -9.960488051315e+01 
-3.207061477152e+02 2.030085803616e+01 0.0 
2.030085803616e+01 -3.347405720642e+02 0.0 
0.0 0.0 -3.062439254534e+02 
-2.458393435130e+02 1.645559508349e+01 0.0 
1.645559508349e+01 -2.449954059054e+02 0.0 
0.0 0.0 -2.289563702677e+02 
-1.783215733536e+02 1.224814257816e+01 0.0 
1.224814257816e+01 -1.760494898706e+02 0.0 
0.0 0.0 -1.648848166957e+02 
-2.129070067604e+02 1.264075940006e+01 0.0 
1.264075940006e+01 -2.004220465026e+02 0.0 
0.0 0.0 -1.925663935505e+02 
-1.423131243064e+02 1.740860624660e-01 0.0 
1.740860624660e-01 -1.639803282615e+02 0.0 
0.0 0.0 -1.423117256949e+02 
-1.205713956019e+02 -1.886235749442e-02 0.0 
-1.886235749442e-02 -1.394180734611e+02 0.0 
0.0 0.0 -1.205713767239e+02 
-3.081263122760e+02 1.280639879724e+01 0.0 
1.280639879724e+01 -3.422270949986e+02 0.0 
0.0 0.0 -3.038525460753e+02 
-1.769597539755e+01 -4.078998715791e-01 0.0 
-4.078998715791e-01 -2.311790142899e+01 0.0 
0.0 0.0 -1.766546020292e+01 
-9.094409316684e+01 1.233442389205e-01 0.0 
1.233442389205e-01 -1.059411349748e+02 0.0 
0.0 0.0 -9.094307878197e+01 
-3.409319467676e+02 2.226376580892e+01 0.0 
2.226376580892e+01 -3.470066052426e+02 0.0 
0.0 0.0 -3.214992818598e+02 
-4.843348695052e+01 9.797081279491e-02 0.0 
9.797081279491e-02 -5.790994097293e+01 0.0 
0.0 0.0 -4.843247420309e+01 
-8.446563119365e+01 2.603457160107e-01 0.0 
2.603457160107e-01 -7.194522086173e+01 0.0 
0.0 0.0 -7.193980964846e+01 
-2.807914897046e+02 1.551473055089e+01 0.0 
1.551473055089e+01 -3.038175269656e+02 0.0 
0.0 0.0 -2.729846620093e+02 
-3.237711705374e+01 -1.856202675671e-01 0.0 
-1.856202675671e-01 -3.976065334711e+01 0.0 
0.0 0.0 -3.237245355184e+01 
-1.779298309991e+01 -2.379010833587e-02 0.0 
-2.379010833587e-02 -2.329228094151e+01 0.0 
0.0 0.0 -1.779288018520e+01 
-2.612223593183e+02 1.723413273329e+01 0.0 
1.723413273329e+01 -2.577816572162e+02 0.0 
0.0 0.0 -2.421822236610e+02 
-7.862316693075e+01 2.354564300068e-01 0.0 
2.354564300068e-01 -6.677289053198e+01 0.0 
0.0 0.0 -6.676821402834e+01 
-1.917289309649e+02 1.178617621813e+01 0.0 
1.178617621813e+01 -1.813802597778e+02 0.0 
0.0 0.0 -1.736826219920e+02 
-3.156466915534e+02 1.827677483462e+01 0.0 
1.827677483462e+01 -3.380054284736e+02 0.0 
0.0 0.0 -3.054013365025e+02 
-8.159864479475e+01 2.441320078232e-01 0.0 
2.441320078232e-01 -6.940677007265e+01 0.0 
0.0 0.0 -6.940188349368e+01 
-1.993885856894e+01 -1.020724533490e+00 0.0 
-1.020724533490e+00 -2.531841772397e+01 0.0 
0.0 0.0 -1.975169658485e+01 
-1.753745264063e+02 9.509755295963e+00 0.0 
9.509755295963e+00 -1.805227243333e+02 0.0 
0.0 0.0 -1.633929155781e+02 
-5.324084827207e+01 6.886295780214e-02 0.0 
6.886295780214e-02 -6.334276202203e+01 0.0 
0.0 0.0 -5.324037886729e+01 
-1.668640044828e+02 1.017213941353e+01 0.0 
1.017213941353e+01 -1.567373045184e+02 0.0 
0.0 0.0 -1.504379992963e+02 
-3.348148488832e+02 7.880823292944e+00 0.0 
7.880823292944e+00 -3.785518975687e+02 0.0 
0.0 0.0 -3.334381644141e+02 
-2.251828904284e+02 1.502307810828e+01 0.0 
1.502307810828e+01 -2.217296546818e+02 0.0 
0.0 0.0 -2.083342989694e+02 
-6.756760794566e+01 -3.714954576483e-01 0.0 
-3.714954576483e-01 -7.950645303976e+01 0.0 
0.0 0.0 -6.755605946617e+01 
-1.432166819408e+02 4.012251064672e+00 0.0 
4.012251064672e+00 -1.255724749299e+02 0.0 
0.0 0.0 -1.247029496318e+02 
-1.431075102201e+02 4.295202316341e-01 0.0 
4.295202316341e-01 -1.648628005642e+02 0.0 
0.0 0.0 -1.430990333959e+02 
-2.261447449686e+02 1.345526449071e+01 0.0 
1.345526449071e+01 -2.426698983981e+02 0.0 
0.0 0.0 -2.186176314874e+02 
-3.029496483020e+02 1.948252688938e+01 0.0 
1.948252688938e+01 -3.145051006170e+02 0.0 
0.0 0.0 -2.884061792795e+02 
-1.437172730483e+02 1.856497658844e+00 0.0 
1.856497658844e+00 -1.247151271933e+02 0.0 
0.0 0.0 -1.245354475503e+02 
-3.132213209562e+02 1.991702455072e+01 0.0 
1.991702455072e+01 -3.265432580516e+02 0.0 
0.0 0.0 -2.988809474290e+02 
-3.293638892718e+01 -5.859789668830e-01 0.0 
-5.859789668830e-01 -4.030384163218e+01 0.0 
0.0 0.0 -3.289007356547e+01 
-3.147130276925e+02 9.033628017940e+00 0.0 
9.033628017940e+00 -3.546191218886e+02 0.0 
0.0 0.0 -3.127633232816e+02 
-7.565298163943e+01 -3.430894099922e-01 0.0 
-3.430894099922e-01 -8.864714084204e+01 0.0 
0.0 0.0 -7.564392923401e+01 
-4.780844816654e+01 -3.108035924342e-02 0.0 
-3.108035924342e-02 -5.720567031879e+01 0.0 
0.0 0.0 -4.780834537253e+01 
-3.021627240612e+02 1.642071034762e+01 0.0 
1.642071034762e+01 -3.273311950859e+02 0.0 
0.0 0.0 -2.940587331694e+02 
-2.503212029167e+02 1.621776737235e+01 0.0 
1.621776737235e+01 -2.436547025888e+02 0.0 
0.0 0.0 -2.304311857012e+02 
-2.327903216664e+02 1.510074157981e+01 0.0 
1.510074157981e+01 -2.259546359771e+02 0.0 
0.0 0.0 -2.138897773142e+02 
-8.754490438342e+01 4.406602545288e-01 0.0 
4.406602545288e-01 -7.468880830822e+01 0.0 
0.0 0.0 -7.467372177998e+01 
-1.390355689766e+02 6.003146448801e+00 0.0 
6.003146448801e+00 -1.242484227646e+02 0.0 
0.0 0.0 -1.221181998543e+02 
-4.107176820782e+01 2.561949555471e+00 0.0 
2.561949555471e+00 -4.774003595981e+01 0.0 
0.0 0.0 -4.020113880536e+01 
-2.534503704251e+02 1.697156736935e+01 0.0 
1.697156736935e+01 -2.543101730676e+02 0.0 
0.0 0.0 -2.369032604040e+02 
-1.172763102780e+02 4.054883943630e-02 0.0 
4.054883943630e-02 -1.356949257271e+02 0.0 
0.0 0.0 -1.172762210096e+02 
-3.209373776546e+01 2.993774656499e-01 0.0 
2.993774656499e-01 -3.942440892190e+01 0.0 
0.0 0.0 -3.208153180511e+01 
-2.467203090832e+02 1.446583895331e+01 0.0 
1.446583895331e+01 -2.649424861398e+02 0.0 
0.0 0.0 -2.387354205762e+02 
-8.443542491333e+01 -6.112824931582e-03 0.0 
-6.112824931582e-03 -7.190829156749e+01 0.0 
0.0 0.0 -7.190828858463e+01 
-1.887725570372e+02 1.248528505338e+01 0.0 
1.248528505338e+01 -1.828844146724e+02 0.0 
0.0 0.0 -1.730007854377e+02 
-1.993116433479e+02 3.576650031052e+00 0.0 
3.576650031052e+00 -2.150624241419e+02 0.0 
0.0 0.0 -1.882064826124e+02 
-1.732654082788e+02 7.176645537697e+00 0.0 
7.176645537697e+00 -1.942226124072e+02 0.0 
0.0 0.0 -1.710434063261e+02 
-2.725184727776e+00 1.015110670354e-02 0.0 
1.015110670354e-02 -6.267877405389e+00 0.0 
0.0 0.0 -2.725155641392e+00 
-6.619911936508e+00 -5.414068032768e-02 0.0 
-5.414068032768e-02 -1.066690848966e+01 0.0 
0.0 0.0 -6.619187772597e+00 
-7.795585339018e+01 -3.385830472588e-02 0.0 
-3.385830472588e-02 -6.617364432814e+01 0.0 
0.0 0.0 -6.617354703099e+01 
-8.363937251495e+01 -1.399777872872e-02 0.0 
-1.399777872872e-02 -7.120375961148e+01 0.0 
0.0 0.0 -7.120374385532e+01 
-3.330960949898e+02 1.164967251707e+00 0.0 
1.164967251707e+00 -3.794798113870e+02 0.0 
0.0 0.0 -3.330668542609e+02 
-3.246968353265e+02 1.479151791093e-01 0.0 
1.479151791093e-01 -3.700510428055e+02 0.0 
0.0 0.0 -3.246963529310e+02 
-1.685073006560e+01 -8.772293453390e-02 0.0 
-8.772293453390e-02 -2.222483349533e+01 0.0 
0.0 0.0 -1.684929852190e+01 
-3.225546482241e+00 -1.414569902044e-01 0.0 
-1.414569902044e-01 -6.821446262146e+00 0.0 
0.0 0.0 -3.219990373629e+00 
-3.048630776213e+02 5.689047592429e+00 0.0 
5.689047592429e+00 -3.459977032734e+02 0.0 
0.0 0.0 -3.040907648791e+02 
-2.615269328759e+02 1.691678194083e+01 0.0 
1.691678194083e+01 -2.724475761628e+02 0.0 
0.0 0.0 -2.492110731611e+02 
-6.202169464748e+01 2.533290170838e-02 0.0 
2.533290170838e-02 -7.326480116903e+01 0.0 
0.0 0.0 -6.202163756782e+01 
-3.084541676005e+02 9.913663758851e+00 0.0 
9.913663758851e+00 -3.465321169690e+02 0.0 
0.0 0.0 -3.060277448705e+02 
-2.155803533864e+02 5.644493715541e-01 0.0 
5.644493715541e-01 -2.467435331739e+02 0.0 
0.0 0.0 -2.155701330354e+02 
-1.793706394716e+02 2.746415734124e-01 0.0 
2.746415734124e-01 -2.058471870847e+02 0.0 
0.0 0.0 -1.793677909175e+02 
-1.168757952420e+02 8.484530273656e-01 0.0 
8.484530273656e-01 -1.007037181371e+02 0.0 
0.0 0.0 -1.006593266880e+02 
-5.816093625580e+01 -6.129266686576e-01 0.0 
-6.129266686576e-01 -6.882802676335e+01 0.0 
0.0 0.0 -5.812583325557e+01 
-2.068583508533e+02 1.207176325154e+01 0.0 
1.207176325154e+01 -2.233242212912e+02 0.0 
0.0 0.0 -2.004793495024e+02 
-4.825466859858e+01 -6.738076546550e-02 0.0 
-6.738076546550e-02 -5.770903484489e+01 0.0 
0.0 0.0 -4.825418840384e+01 
-1.657519067294e+02 8.550475823621e-01 0.0 
8.550475823621e-01 -1.904028477765e+02 0.0 
0.0 0.0 -1.657222839715e+02 
-2.302520549017e+02 1.556034118363e+01 0.0 
1.556034118363e+01 -2.313671332496e+02 0.0 
0.0 0.0 -2.152392675640e+02 
-1.803018747058e+02 1.460841260640e+00 0.0 
1.460841260640e+00 -1.585788710842e+02 0.0 
0.0 0.0 -1.568426330618e+02 
-1.836430907423e+02 1.860519997696e-01 0.0 
1.860519997696e-01 -2.106778154321e+02 0.0 
0.0 0.0 -1.836418103998e+02 
-1.070320390873e+02 5.435553660429e-01 0.0 
5.435553660429e-01 -9.194456587818e+01 0.0 
0.0 0.0 -9.192500859747e+01 
-2.505940018789e+02 1.661884980874e+01 0.0 
1.661884980874e+01 -2.576846439966e+02 0.0 
0.0 0.0 -2.371465165075e+02 
-2.242392283750e+02 1.517844867624e+01 0.0 
1.517844867624e+01 -2.245522515067e+02 0.0 
0.0 0.0 -2.092164843568e+02 
-1.998018227184e+02 1.362806828311e+01 0.0 
1.362806828311e+01 -1.985669559088e+02 0.0 
0.0 0.0 -1.855423414784e+02 
-7.528742805752e+01 2.387073096438e-01 0.0 
2.387073096438e-01 -6.382110166840e+01 0.0 
0.0 0.0 -6.381613438386e+01 
-2.012566379492e+02 1.115000104283e+01 0.0 
1.115000104283e+01 -2.192145492632e+02 0.0 
0.0 0.0 -1.959197224156e+02 
-1.849135973655e+02 1.242262088497e+01 0.0 
1.242262088497e+01 -1.803306172389e+02 0.0 
0.0 0.0 -1.699899089044e+02 
-9.521255595633e+01 -1.281234268007e-01 0.0 
-1.281234268007e-01 -1.107638292168e+02 0.0 
0.0 0.0 -9.521150044801e+01 
-1.964315307742e+01 -1.674678146472e-01 0.0 
-1.674678146472e-01 -2.537252345618e+01 0.0 
0.0 0.0 -1.963826221742e+01 
-2.456416012666e+02 1.632746829312e+01 0.0 
1.632746829312e+01 -2.525009779802e+02 0.0 
0.0 0.0 -2.323874955978e+02 
-2.635696030523e+02 1.361935954140e+01 0.0 
1.361935954140e+01 -2.880587611115e+02 0.0 
0.0 0.0 -2.574997978463e+02 
-4.799665669410e+01 -7.209242947184e-01 0.0 
-7.209242947184e-01 -5.730026363866e+01 0.0 
0.0 0.0 -4.794112467978e+01 
-1.297401240651e+02 9.523258523093e-01 0.0 
9.523258523093e-01 -1.121024193344e+02 0.0 
0.0 0.0 -1.120511487260e+02 
-3.194686723875e+02 6.018832658857e+00 0.0 
6.018832658857e+00 -3.623809828732e+02 0.0 
0.0 0.0 -3.186404621608e+02 
-2.594322536680e+02 1.684435453911e+01 0.0 
1.684435453911e+01 -2.698651490535e+02 0.0 
0.0 0.0 -2.470151082394e+02 
-2.515652385705e+02 1.655133695304e+01 0.0 
1.655133695304e+01 -2.601363892481e+02 0.0 
0.0 0.0 -2.387536530070e+02 
-2.321543659262e+02 6.859416215077e-01 0.0 
6.859416215077e-01 -2.654616040102e+02 0.0 
0.0 0.0 -2.321402453763e+02 
-1.512327589587e+01 -2.718321929970e-01 0.0 
-2.718321929970e-01 -2.024545501592e+01 0.0 
0.0 0.0 -1.510889026176e+01 
-1.708914200854e+01 2.542697815867e+00 0.0 
2.542697815867e+00 -1.724221974116e+01 0.0 
0.0 0.0 -1.462183135476e+01 
-4.994395712022e+01 3.966384130664e+00 0.0 
3.966384130664e+00 -5.497078400305e+01 0.0 
0.0 0.0 -4.776168635169e+01 
-1.251713331140e+02 4.067847546249e+00 0.0 
4.067847546249e+00 -1.098744453160e+02 0.0 
0.0 0.0 -1.088599752863e+02 
-2.072600991484e+02 1.161121599736e+01 0.0 
1.161121599736e+01 -2.252324493662e+02 0.0 
0.0 0.0 -2.015639147731e+02 
-1.974248382123e+02 1.182737917803e+01 0.0 
1.182737917803e+01 -1.857923145665e+02 0.0 
0.0 0.0 -1.784284474138e+02 
-3.312095296344e+02 2.016971737465e+01 0.0 
2.016971737465e+01 -3.500788867901e+02 0.0 
0.0 0.0 -3.183769529067e+02 
-3.508972775667e+01 -5.091386189618e-01 0.0 
-5.091386189618e-01 -4.276383644651e+01 0.0 
0.0 0.0 -3.505609635109e+01 
-3.335976071243e+01 -4.303039788485e-01 0.0 
-4.303039788485e-01 -4.082820901052e+01 0.0 
0.0 0.0 -3.333504997118e+01 
-1.393187342837e+01 2.341561491517e+00 0.0 
2.341561491517e+00 -1.464190429650e+01 0.0 
0.0 0.0 -1.191856747863e+01 
-1.239119919092e+02 1.330483363009e+00 0.0 
1.330483363009e+00 -1.070441212374e+02 0.0 
0.0 0.0 -1.069398219063e+02 
-1.066321768697e+02 1.022297614042e-01 0.0 
1.022297614042e-01 -1.236673876306e+02 0.0 
0.0 0.0 -1.066315634022e+02 
-2.221587330095e+02 1.402742464721e+01 0.0 
1.402742464721e+01 -2.129588540945e+02 0.0 
0.0 0.0 -2.027964060335e+02 
-5.946179793667e+01 7.687297348684e-02 0.0 
7.687297348684e-02 -7.037143433836e+01 0.0 
0.0 0.0 -5.946125629069e+01 
-3.036853606713e+02 1.769419800083e+01 0.0 
1.769419800083e+01 -3.250340512628e+02 0.0 
0.0 0.0 -2.936950915166e+02 
-1.078028223551e+02 1.503108174193e+00 0.0 
1.503108174193e+00 -9.287231036502e+01 0.0 
0.0 0.0 -9.272249044088e+01 
-3.162605284477e+02 2.036560166024e+01 0.0 
2.036560166024e+01 -3.274650499745e+02 0.0 
0.0 0.0 -3.007406904365e+02 
-2.319486304171e+02 1.432084036815e+01 0.0 
1.432084036815e+01 -2.466033998501e+02 0.0 
0.0 0.0 -2.231894668515e+02 
-1.286917278919e+02 4.948057719585e+00 0.0 
4.948057719585e+00 -1.139122606898e+02 0.0 
0.0 0.0 -1.124086575779e+02 
-3.044981874426e+02 1.500786558336e+01 0.0 
1.500786558336e+01 -3.337472718061e+02 0.0 
0.0 0.0 -2.981677000754e+02 
-2.288221053461e+02 1.505222988582e+01 0.0 
1.505222988582e+01 -2.234893673729e+02 0.0 
0.0 0.0 -2.108691687883e+02 
-1.944751937487e+02 6.654620752407e+00 0.0 
6.654620752407e+00 -1.951944614078e+02 0.0 
0.0 0.0 -1.755169936982e+02 
-1.146929302302e+01 2.004558475051e+00 0.0 
2.004558475051e+00 -1.355754004345e+01 0.0 
0.0 0.0 -1.025322880110e+01 
-1.668134181652e+02 1.045596488467e+01 0.0 
1.045596488467e+01 -1.577665128056e+02 0.0 
0.0 0.0 -1.508974755988e+02 
-2.869515360691e+02 1.898383402304e+01 0.0 
1.898383402304e+01 -2.918979039246e+02 0.0 
0.0 0.0 -2.702804625562e+02 
-2.767583290235e+02 1.592283374153e+01 0.0 
1.592283374153e+01 -2.975078368764e+02 0.0 
0.0 0.0 -2.681285531375e+02 
-2.538382805475e+02 1.546834913725e+01 0.0 
1.546834913725e+01 -2.700755828611e+02 0.0 
0.0 0.0 -2.444874634343e+02 
-3.402546251874e+02 1.277937769629e+01 0.0 
1.277937769629e+01 -3.795587107704e+02 0.0 
0.0 0.0 -3.364649257189e+02 
-1.966469602081e+02 1.341708874578e+01 0.0 
1.341708874578e+01 -1.950864132820e+02 0.0 
0.0 0.0 -1.824269286710e+02 
9.614422726662e-01 -2.812248389355e-01 0.0 
-2.812248389355e-01 -1.051142935621e+00 0.0 
0.0 0.0 1.000000000000e+00 
-3.491427717231e+01 1.103363631344e+00 0.0 
1.103363631344e+00 -4.229336743554e+01 0.0 
0.0 0.0 -3.475282833078e+01 
-2.326299956841e+02 1.566512781861e+01 0.0 
1.566512781861e+01 -2.321572971863e+02 0.0 
0.0 0.0 -2.167267357461e+02 
-1.390770267249e+02 4.399949121704e+00 0.0 
4.399949121704e+00 -1.223142822920e+02 0.0 
0.0 0.0 -1.212295596164e+02 
-3.016845588782e+02 3.299417174623e+00 0.0 
3.299417174623e+00 -3.435002592581e+02 0.0 
0.0 0.0 -3.014258232958e+02 
-2.568258474429e+02 1.608687158085e+01 0.0 
1.608687158085e+01 -2.710579457168e+02 0.0 
0.0 0.0 -2.463513993561e+02 
-3.248838808846e+02 1.088634740674e+01 0.0 
1.088634740674e+01 -3.642829845120e+02 0.0 
0.0 0.0 -3.220759916727e+02 
-1.480681064225e+02 2.854674681043e+00 0.0 
2.854674681043e+00 -1.290161515632e+02 0.0 
0.0 0.0 -1.285976122361e+02 
-3.224095776779e+02 2.066799899121e+01 0.0 
2.066799899121e+01 -3.344093854847e+02 0.0 
0.0 0.0 -3.068882123541e+02 
-3.061668653531e+02 1.419041702904e+01 0.0 
1.419041702904e+01 -3.374483624226e+02 0.0 
0.0 0.0 -3.006888793096e+02 
-3.068257253285e+02 1.450152334228e+01 0.0 
1.450152334228e+01 -3.375990806264e+02 0.0 
0.0 0.0 -3.010689872572e+02 
-1.090008017651e+02 2.197340204632e-01 0.0 
2.197340204632e-01 -1.263389876415e+02 0.0 
0.0 0.0 -1.089980174319e+02 
-3.233872318194e+02 9.624683475265e+00 0.0 
9.624683475265e+00 -3.639557130539e+02 0.0 
0.0 0.0 -3.212196362218e+02 
-1.141338442212e+02 1.431586603337e+00 0.0 
1.431586603337e+00 -9.843735231210e+01 0.0 
0.0 0.0 -9.830785392593e+01 
-1.962293523200e+02 9.795423607724e+00 0.0 
9.795423607724e+00 -1.793009166048e+02 0.0 
0.0 0.0 -1.748193510718e+02 
-3.278768080812e+01 -4.313944950560e-01 0.0 
-4.313944950560e-01 -4.018103673075e+01 0.0 
0.0 0.0 -3.276259451575e+01 
-1.882385409765e+02 3.911738878776e+00 0.0 
3.911738878776e+00 -1.649878555497e+02 0.0 
0.0 0.0 -1.643473801388e+02 
-1.380123404447e+02 1.025925244573e+00 0.0 
1.025925244573e+00 -1.194336678494e+02 0.0 
0.0 0.0 -1.193771873578e+02 
-3.370434113465e+01 3.106796091702e-02 0.0 
3.106796091702e-02 -4.126989676523e+01 0.0 
0.0 0.0 -3.370421355620e+01 
-6.313309664232e+01 -5.595863240703e-01 0.0 
-5.595863240703e-01 -7.446192769077e+01 0.0 
0.0 0.0 -6.310552305155e+01 
-2.074650460007e+02 1.416988291746e+01 0.0 
1.416988291746e+01 -2.085718304767e+02 0.0 
0.0 0.0 -1.938377533165e+02 
-1.821039995352e+02 1.202386800097e+01 0.0 
1.202386800097e+01 -1.759392865614e+02 0.0 
0.0 0.0 -1.666089751957e+02 
-1.867594659222e+02 7.479053264748e+00 0.0 
7.479053264748e+00 -1.723449498381e+02 0.0 
0.0 0.0 -1.652853338890e+02 
-2.936129998349e+02 1.842483645879e+01 0.0 
1.842483645879e+01 -3.083840090065e+02 0.0 
0.0 0.0 -2.811485604278e+02 
-1.034023236344e+02 1.030417444468e+00 0.0 
1.030417444468e+00 -8.883186019840e+01 0.0 
0.0 0.0 -8.875935032711e+01 
-1.886093549515e+01 -1.497342427651e-01 0.0 
-1.497342427651e-01 -2.449066477710e+01 0.0 
0.0 0.0 -1.885695581788e+01 
-3.049531092010e+01 -3.718517344650e-01 0.0 
-3.718517344650e-01 -3.760307989956e+01 0.0 
0.0 0.0 -3.047590999179e+01 
-2.182199166997e+01 -1.733084047660e-01 0.0 
-1.733084047660e-01 -2.783409956859e+01 0.0 
0.0 0.0 -2.181699992893e+01 
-4.494439834610e+01 -3.692635740308e-01 0.0 
-3.692635740308e-01 -5.393766421845e+01 0.0 
0.0 0.0 -4.492926185667e+01 
-1.177161525005e+01 2.211087815771e+00 0.0 
2.211087815771e+00 -1.241992275615e+01 0.0 
0.0 0.0 -9.861046428671e+00 
-1.521341242316e+02 4.549223549682e-01 0.0 
4.549223549682e-01 -1.750604814230e+02 0.0 
0.0 0.0 -1.521251008649e+02 
-3.006811061769e+02 3.251958262228e+00 0.0 
3.251958262228e+00 -3.423806666232e+02 0.0 
0.0 0.0 -3.004290246838e+02 
-2.084082117774e+02 1.401645358368e+01 0.0 
1.401645358368e+01 -2.052149287743e+02 0.0 
0.0 0.0 -1.927044715256e+02 
-1.484955265422e+02 6.603184768004e+00 0.0 
6.603184768004e+00 -1.332461914517e+02 0.0 
0.0 0.0 -1.307843529490e+02 
-1.394581444133e+02 2.815963024174e-01 0.0 
2.815963024174e-01 -1.607496375990e+02 0.0 
0.0 0.0 -1.394544207377e+02 
-3.007383801834e+02 1.213808080166e+01 0.0 
1.213808080166e+01 -3.346906472581e+02 0.0 
0.0 0.0 -2.968453471005e+02 
-2.865883331224e+02 1.506673979311e+01 0.0 
1.506673979311e+01 -3.121266476022e+02 0.0 
0.0 0.0 -2.796076036636e+02 
-2.768180507671e+02 1.794775196753e+01 0.0 
1.794775196753e+01 -2.872802305650e+02 0.0 
0.0 0.0 -2.633545932734e+02 
-2.683010433394e+02 1.775387332119e+01 0.0 
1.775387332119e+01 -2.748933907429e+02 0.0 
0.0 0.0 -2.535399531571e+02 
-2.241213801853e+02 1.518860604563e+01 0.0 
1.518860604563e+01 -2.264934856085e+02 0.0 
0.0 0.0 -2.100725888004e+02 
-3.273363781399e+01 -4.064316422774e-01 0.0 
-4.064316422774e-01 -4.012595554932e+01 0.0 
0.0 0.0 -3.271135923363e+01 
-3.139913327521e+01 -8.302181196618e-01 0.0 
-8.302181196618e-01 -3.846049771192e+01 0.0 
0.0 0.0 -3.130283616453e+01 
-3.016710247408e+02 5.392250640455e+00 0.0 
5.392250640455e+00 -3.425464665922e+02 0.0 
0.0 0.0 -3.009716502273e+02 
-3.435191654381e+01 -7.455473868430e-02 0.0 
-7.455473868430e-02 -4.200029282122e+01 0.0 
0.0 0.0 -3.435118986918e+01 
-4.034665496885e+01 -1.100790897697e-01 0.0 
-1.100790897697e-01 -4.877201615543e+01 0.0 
0.0 0.0 -4.034521700815e+01 
-1.895437949658e+01 5.840465894854e-01 0.0 
5.840465894854e-01 -2.447454947263e+01 0.0 
0.0 0.0 -1.889326269107e+01 
-3.044992509789e+01 -9.947930360974e-02 0.0 
-9.947930360974e-02 -3.759017009078e+01 0.0 
0.0 0.0 -3.044853940150e+01 
-3.326987638519e+02 1.647338743451e+01 0.0 
1.647338743451e+01 -3.640462064505e+02 0.0 
0.0 0.0 -3.256340148215e+02 
-2.676083272973e+02 1.784712012975e+01 0.0 
1.784712012975e+01 -2.699283646784e+02 0.0 
0.0 0.0 -2.508835664173e+02 
-1.715301276186e+02 1.072078293393e+01 0.0 
1.072078293393e+01 -1.622887724217e+02 0.0 
0.0 0.0 -1.552352970237e+02 
-3.168454862310e+02 2.055198135509e+01 0.0 
2.055198135509e+01 -3.264907663389e+02 0.0 
0.0 0.0 -3.005578966626e+02 
-2.851720609191e+02 1.486032837232e+01 0.0 
1.486032837232e+01 -3.109488850170e+02 0.0 
0.0 0.0 -2.783896691086e+02 
-1.087000851274e+02 1.053213274348e+00 0.0 
1.053213274348e+00 -9.352112491927e+01 0.0 
0.0 0.0 -9.344839473835e+01 
-1.814470269087e+02 1.257195324767e+01 0.0 
1.257195324767e+01 -1.818830590637e+02 0.0 
0.0 0.0 -1.690911995216e+02 
-8.001943342373e+01 -6.757436738474e-01 0.0 
-6.757436738474e-01 -9.352810138467e+01 0.0 
0.0 0.0 -7.998571488286e+01 
-8.660775763862e+01 2.013832892519e-01 0.0 
2.013832892519e-01 -7.383692066785e+01 0.0 
0.0 0.0 -7.383374584463e+01 
-4.756009664558e+01 -7.461153254839e-01 0.0 
-7.461153254839e-01 -5.679776072224e+01 0.0 
0.0 0.0 -4.750022186715e+01 
-1.919753565481e+01 -3.020688117590e-02 0.0 
-3.020688117590e-02 -2.487911125797e+01 0.0 
0.0 0.0 -1.919737506029e+01 
-3.231218129764e+02 6.724410921151e+00 0.0 
6.724410921151e+00 -3.660831680947e+02 0.0 
0.0 0.0 -3.220938874994e+02 
-1.758572046103e+02 5.595699170211e+00 0.0 
5.595699170211e+00 -1.555346195392e+02 0.0 
0.0 0.0 -1.540957519381e+02 
-4.686053055216e+01 -1.468760007363e-02 0.0 
-1.468760007363e-02 -5.613482186266e+01 0.0 
0.0 0.0 -4.686050729162e+01 
-1.490102761533e+02 2.191217422471e-01 0.0 
2.191217422471e-01 -1.715456394226e+02 0.0 
0.0 0.0 -1.490081457329e+02 
-2.508159785107e+02 1.682146959348e+01 0.0 
1.682146959348e+01 -2.528615395430e+02 0.0 
0.0 0.0 -2.349862245210e+02 
-2.085198158326e+02 1.172275500433e+01 0.0 
1.172275500433e+01 -1.940686627402e+02 0.0 
0.0 0.0 -1.875235478979e+02 
-1.970546259176e+02 1.333599086183e+01 0.0 
1.333599086183e+01 -1.940471419830e+02 0.0 
0.0 0.0 -1.821303812708e+02 
-9.792299633101e+01 1.670140579125e-01 0.0 
1.670140579125e-01 -1.138247702860e+02 0.0 
0.0 0.0 -9.792124239969e+01 
-3.158206512547e+01 -8.969036170112e-01 0.0 
-8.969036170112e-01 -3.863310382384e+01 0.0 
0.0 0.0 -3.146976606527e+01 
-3.121219568715e+02 1.094183233263e+01 0.0 
1.094183233263e+01 -3.495279598858e+02 0.0 
0.0 0.0 -3.091564106614e+02 
-2.146899058169e+02 1.239506538733e+01 0.0 
1.239506538733e+01 -2.319898284822e+02 0.0 
0.0 0.0 -2.082249911325e+02 
-3.240494708600e+02 1.608934815741e+00 0.0 
1.608934815741e+00 -3.691986735051e+02 0.0 
0.0 0.0 -3.239922075640e+02 
-8.775034812779e+01 5.282619188398e-02 0.0 
5.282619188398e-02 -7.484260732852e+01 0.0 
0.0 0.0 -7.484239113579e+01 
-3.139367410096e+02 1.741678734416e+01 0.0 
1.741678734416e+01 -3.387940568462e+02 0.0 
0.0 0.0 -3.049687632334e+02 
-4.911024988604e+01 5.867704486043e-02 0.0 
5.867704486043e-02 -5.867598139399e+01 0.0 
0.0 0.0 -4.910988996938e+01 
-1.773033927083e+02 1.162362991169e+01 0.0 
1.162362991169e+01 -1.705626711345e+02 0.0 
0.0 0.0 -1.618306311613e+02 
-1.761801513664e+01 -1.869877319558e-02 0.0 
-1.869877319558e-02 -2.309467418362e+01 0.0 
0.0 0.0 -1.761795129480e+01 
-3.357117020626e+02 1.839004818696e+01 0.0 
1.839004818696e+01 -3.626226743681e+02 0.0 
0.0 0.0 -3.263802625796e+02 
-2.305783841648e+02 1.533415270503e+01 0.0 
1.533415270503e+01 -2.268996425456e+02 0.0 
0.0 0.0 -2.132949360387e+02 
-1.797891395750e+01 -5.812505346166e-01 0.0 
-5.812505346166e-01 -2.337063262588e+01 0.0 
0.0 0.0 -1.791696442707e+01 
-2.497450202479e+02 1.624643097324e+01 0.0 
1.624643097324e+01 -2.600095592124e+02 0.0 
0.0 0.0 -2.378394873658e+02 
-1.445154919764e+02 1.826088250664e+00 0.0 
1.826088250664e+00 -1.254089350605e+02 0.0 
0.0 0.0 -1.252359743894e+02 
-1.784865395283e+02 1.207962323870e+01 0.0 
1.207962323870e+01 -1.743628612978e+02 0.0 
0.0 0.0 -1.641703755387e+02 
-3.507996796962e+02 2.251419741232e+01 0.0 
2.251419741232e+01 -3.623018116546e+02 0.0 
0.0 0.0 -3.333136235425e+02 
-1.110575978364e+02 6.522383930426e-01 0.0 
6.522383930426e-01 -9.552209857881e+01 0.0 
0.0 0.0 -9.549476326792e+01 
-2.548644740505e+02 1.706792694584e+01 0.0 
1.706792694584e+01 -2.566081492362e+02 0.0 
0.0 0.0 -2.386461322699e+02 
-2.252797030585e+02 1.456522559696e+01 0.0 
1.456522559696e+01 -2.180126435182e+02 0.0 
0.0 0.0 -2.066345666028e+02 
-1.157147851991e+02 8.912916580044e-01 0.0 
8.912916580044e-01 -9.968560716652e+01 0.0 
0.0 0.0 -9.963619978402e+01 
-2.436426204497e+02 1.638317897196e+01 0.0 
1.638317897196e+01 -2.455318564340e+02 0.0 
0.0 0.0 -2.281768497695e+02 
-1.292842958494e+02 4.529890226706e-01 0.0 
4.529890226706e-01 -1.492406158852e+02 0.0 
0.0 0.0 -1.292740187324e+02 
-7.134952944644e+01 6.219019015996e-02 0.0 
6.219019015996e-02 -6.032711351194e+01 0.0 
0.0 0.0 -6.032676263635e+01 
-2.827113729075e+02 1.820964940296e+01 0.0 
1.820964940296e+01 -2.941244485221e+02 0.0 
0.0 0.0 -2.693350412994e+02 
-1.835865987087e+02 5.204034112053e+00 0.0 
5.204034112053e+00 -1.892831475082e+02 0.0 
0.0 0.0 -1.674347995641e+02 
-4.176405825959e+00 -1.544295711508e-02 0.0 
-1.544295711508e-02 -7.907485486996e+00 0.0 
0.0 0.0 -4.176341908578e+00 
-7.147274236151e+01 4.267985409578e-02 0.0 
4.267985409578e-02 -6.043581431816e+01 0.0 
0.0 0.0 -6.043564927742e+01 
-3.171617476653e+02 1.151200555838e+00 0.0 
1.151200555838e+00 -3.614747924911e+02 0.0 
0.0 0.0 -3.171318609917e+02 
-6.158590951125e+01 -1.631104752777e-01 0.0 
-1.631104752777e-01 -7.276747822178e+01 0.0 
0.0 0.0 -6.158353065289e+01 
-2.769902065282e+02 1.566341867907e+01 0.0 
1.566341867907e+01 -2.986641379524e+02 0.0 
0.0 0.0 -2.687803218298e+02 
-2.436248803138e+02 1.575882849388e+01 0.0 
1.575882849388e+01 -2.366574447477e+02 0.0 
0.0 0.0 -2.240018637513e+02 
-2.230236609331e+02 1.435298922385e+01 0.0 
1.435298922385e+01 -2.153207009538e+02 0.0 
0.0 0.0 -2.043114206072e+02 
-5.886730119165e+01 -1.305922658513e-01 0.0 
-1.305922658513e-01 -6.969753418184e+01 0.0 
0.0 0.0 -5.886572672313e+01 
-3.559958489866e+01 5.226372867135e-01 0.0 
5.226372867135e-01 -4.333668342606e+01 0.0 
0.0 0.0 -3.556444063710e+01 
-1.886929462767e+02 9.696991293643e-03 0.0 
9.696991293643e-03 -2.163861844052e+02 0.0 
0.0 0.0 -1.886929428812e+02 
-1.612690682065e+02 3.082234952477e+00 0.0 
3.082234952477e+00 -1.407653850631e+02 0.0 
0.0 0.0 -1.403120676956e+02 
-4.016425610094e+00 -3.497789009159e-01 0.0 
-3.497789009159e-01 -7.655917552964e+00 0.0 
0.0 0.0 -3.983114464201e+00 
-1.848842226454e+02 1.256112434478e+01 0.0 
1.256112434478e+01 -1.815791013808e+02 0.0 
0.0 0.0 -1.705622973310e+02 
-1.014329764504e+02 8.059660420488e-01 0.0 
8.059660420488e-01 -8.703697291765e+01 0.0 
0.0 0.0 -8.699199113512e+01 
-5.993932542213e+01 -7.002474475550e-01 0.0 
-7.002474475550e-01 -7.081650882220e+01 0.0 
0.0 0.0 -5.989443044237e+01 
-9.706627108630e+01 7.169934738331e-01 0.0 
7.169934738331e-01 -8.315685888842e+01 0.0 
0.0 0.0 -8.311999745467e+01 
-2.711024858035e+02 1.772107899090e+01 0.0 
1.772107899090e+01 -2.802940465711e+02 0.0 
0.0 0.0 -2.573909496735e+02 
-1.975262610801e+02 2.641771464802e-01 0.0 
2.641771464802e-01 -2.263614803146e+02 0.0 
0.0 0.0 -1.975238409942e+02 
1.000000000000e+00 0.0 0.0 
0.0 1.000000000000e+00 0.0 
0.0 0.0 1.000000000000e+00 
-1.168893742079e+02 -1.640293290740e-02 0.0 
-1.640293290740e-02 -1.352578995785e+02 0.0 
0.0 0.0 -1.168893595602e+02 
-1.679031422852e+02 3.147668546715e-01 0.0 
3.147668546715e-01 -1.928880988567e+02 0.0 
0.0 0.0 -1.678991774013e+02 
-2.056449437347e+02 8.489361812607e-02 0.0 
8.489361812607e-02 -2.355391273974e+02 0.0 
0.0 0.0 -2.056447026554e+02 
-2.796350282582e+02 1.756772475731e+01 0.0 
1.756772475731e+01 -2.940378054477e+02 0.0 
0.0 0.0 -2.678499756161e+02 
-1.706026807639e+02 3.339909689916e-01 0.0 
3.339909689916e-01 -1.959372781694e+02 0.0 
0.0 0.0 -1.705982784604e+02 
-1.778516174024e+02 1.596095550740e-01 0.0 
1.596095550740e-01 -2.041349016781e+02 0.0 
0.0 0.0 -1.778506481829e+02 
-2.980081377413e+01 -9.355056517382e-02 0.0 
-9.355056517382e-02 -3.685707285705e+01 0.0 
0.0 0.0 -2.979957371613e+01 
-3.076556031094e+02 1.018951913164e+01 0.0 
1.018951913164e+01 -3.453004507312e+02 0.0 
0.0 0.0 -3.050745239768e+02 
-2.487107541983e+02 1.652222375331e+01 0.0 
1.652222375331e+01 -2.555205660336e+02 0.0 
0.0 0.0 -2.352462421633e+02 
-4.801869756044e+01 1.006364678580e+00 0.0 
1.006364678580e+00 -5.721154333109e+01 0.0 
0.0 0.0 -4.790981777675e+01 
-1.778515681735e+02 4.929920268305e+00 0.0 
4.929920268305e+00 -1.859968908832e+02 0.0 
0.0 0.0 -1.638515642642e+02 
-3.188377693306e+02 1.197792084970e+00 0.0 
1.197792084970e+00 -3.633635446337e+02 0.0 
0.0 0.0 -3.188055706970e+02 
-9.365843830245e+01 1.955513331304e-01 0.0 
1.955513331304e-01 -8.007653453311e+01 0.0 
0.0 0.0 -8.007371958164e+01 
-1.100528677670e+02 8.488860093308e-01 0.0 
8.488860093308e-01 -9.466935544880e+01 0.0 
0.0 0.0 -9.462265438001e+01 
-1.626463271474e+02 2.290008706684e-01 0.0 
2.290008706684e-01 -1.869524632411e+02 0.0 
0.0 0.0 -1.626441698015e+02 
-1.758460445910e+02 6.534312538156e-01 0.0 
6.534312538156e-01 -2.018359736311e+02 0.0 
0.0 0.0 -1.758296265834e+02 
-1.749905910102e+02 1.462575627724e-02 0.0 
1.462575627724e-02 -2.009043780886e+02 0.0 
0.0 0.0 -1.749905827554e+02 
-2.826318081621e+02 1.589901682413e+01 0.0 
1.589901682413e+01 -3.048960382000e+02 0.0 
0.0 0.0 -2.743550921815e+02 
-4.611209598319e+01 -6.613094283375e-01 0.0 
-6.613094283375e-01 -5.518714255821e+01 0.0 
0.0 0.0 -4.606415879822e+01 
-2.446412047920e+02 1.634268905625e+01 0.0 
1.634268905625e+01 -2.503070924233e+02 0.0 
0.0 0.0 -2.308877368121e+02 
-8.901066539208e+01 4.509300700959e-01 0.0 
4.509300700959e-01 -7.598705552043e+01 0.0 
0.0 0.0 -7.597146116937e+01 
-2.546690660239e+02 1.640379013559e+01 0.0 
1.640379013559e+01 -2.473864014826e+02 0.0 
0.0 0.0 -2.342246497650e+02 
-2.880547502164e+02 1.613825297888e+01 0.0 
1.613825297888e+01 -3.108438691691e+02 0.0 
0.0 0.0 -2.796938245084e+02 
-1.149193612322e+02 7.521637743864e-01 0.0 
7.521637743864e-01 -9.895512769517e+01 0.0 
0.0 0.0 -9.891976740106e+01 
-2.272882277346e+02 1.538262054648e+01 0.0 
1.538262054648e+01 -2.287201813155e+02 0.0 
0.0 0.0 -2.126049305928e+02 
-2.976256607544e+02 1.869816304838e+01 0.0 
1.869816304838e+01 -3.123358518309e+02 0.0 
0.0 0.0 -2.848880030776e+02 
-2.783845778433e+02 1.792481049592e+01 0.0 
1.792481049592e+01 -2.898617682467e+02 0.0 
0.0 0.0 -2.653021659996e+02 
-1.259639016834e+01 1.780818337031e-01 0.0 
1.780818337031e-01 -1.740703612744e+01 0.0 
0.0 0.0 -1.258980689444e+01 
-2.371095529186e+02 1.598080830955e+01 0.0 
1.598080830955e+01 -2.384033422847e+02 0.0 
0.0 0.0 -2.217625516736e+02 
-2.444018738042e+02 1.642664818379e+01 0.0 
1.642664818379e+01 -2.470389392032e+02 0.0 
0.0 0.0 -2.292409253519e+02 
-3.067755476503e+01 -2.039647836887e-02 0.0 
-2.039647836887e-02 -3.785018843688e+01 0.0 
0.0 0.0 -3.067749676500e+01 
-1.631403249137e+02 6.373980050965e-01 0.0 
6.373980050965e-01 -1.874796806536e+02 0.0 
0.0 0.0 -1.631236441940e+02 
-1.367313701774e+01 -6.741965255727e-01 0.0 
-6.741965255727e-01 -1.843838605757e+01 0.0 
0.0 0.0 -1.357958695617e+01 
-2.471195444862e+02 1.658775019721e+01 0.0 
1.658775019721e+01 -2.481200096359e+02 0.0 
0.0 0.0 -2.310244858845e+02 

TENSORS element_materi_strain_total float
7.645331085551e-04 3.156132538810e-03 0.0 
3.156132538810e-03 1.115597674201e-03 0.0 
0.0 0.0 0.0 
6.416726336880e-04 2.823132507454e-03 0.0 
2.823132507454e-03 9.039023087596e-04 0.0 
0.0 0.0 0.0 
-6.632156221653e-05 5.570761533490e-03 0.0 
5.570761533490e-03 1.571666439330e-03 0.0 
0.0 0.0 0.0 
-9.945749958457e-04 3.860402848473e-04 0.0 
3.860402848473e-04 2.645292476482e-03 0.0 
0.0 0.0 0.0 
-3.620934708916e-03 4.701636628752e-04 0.0 
4.701636628752e-04 6.084319851908e-03 0.0 
0.0 0.0 0.0 
2.416826616603e-03 5.194095543478e-05 0.0 
5.194095543478e-05 -1.537581388168e-03 0.0 
0.0 0.0 0.0 
-3.314641532412e-03 3.299502320505e-04 0.0 
3.299502320505e-04 5.662128305999e-03 0.0 
0.0 0.0 0.0 
8.325308960548e-04 2.908344735757e-03 0.0 
2.908344735757e-03 6.856022954573e-04 0.0 
0.0 0.0 0.0 
-3.447233130336e-03 4.497723638923e-04 0.0 
4.497723638923e-04 5.649722638537e-03 0.0 
0.0 0.0 0.0 
-9.183749816385e-04 7.354753674959e-04 0.0 
7.354753674959e-04 2.819479291727e-03 0.0 
0.0 0.0 0.0 
8.745229965461e-04 2.829044183274e-05 0.0 
2.829044183274e-05 -5.953633103413e-04 0.0 
0.0 0.0 0.0 
8.459015289057e-04 2.162330057430e-03 0.0 
2.162330057430e-03 5.828138016521e-04 0.0 
0.0 0.0 0.0 
1.950414810028e-04 1.099125412212e-04 0.0 
1.099125412212e-04 2.095074212027e-04 0.0 
0.0 0.0 0.0 
-4.218327174767e-03 1.590001259936e-03 0.0 
1.590001259936e-03 6.602895232632e-03 0.0 
0.0 0.0 0.0 
1.134827296334e-04 1.394667535931e-04 0.0 
1.394667535931e-04 2.862709024978e-04 0.0 
0.0 0.0 0.0 
-4.835892793005e-04 7.322868561498e-04 0.0 
7.322868561498e-04 2.570835171705e-03 0.0 
0.0 0.0 0.0 
-4.209714148512e-03 6.522110841225e-04 0.0 
6.522110841225e-04 6.888859788569e-03 0.0 
0.0 0.0 0.0 
2.549257948796e-03 -3.099023335543e-04 0.0 
-3.099023335543e-04 -1.629362976938e-03 0.0 
0.0 0.0 0.0 
3.441067909066e-03 4.765877585532e-05 0.0 
4.765877585532e-05 -2.724899582469e-03 0.0 
0.0 0.0 0.0 
3.137103934666e-03 -6.749329436870e-05 0.0 
-6.749329436870e-05 -2.655743102127e-03 0.0 
0.0 0.0 0.0 
-1.237850357597e-03 8.020847293732e-04 0.0 
8.020847293732e-04 2.810531929949e-03 0.0 
0.0 0.0 0.0 
6.297643210629e-04 3.746059448873e-03 0.0 
3.746059448873e-03 1.653169626406e-03 0.0 
0.0 0.0 0.0 
3.006360268496e-04 4.261559204206e-03 0.0 
4.261559204206e-03 2.074452074709e-03 0.0 
0.0 0.0 0.0 
1.098510395112e-03 1.799346861902e-03 0.0 
1.799346861902e-03 -6.300210104793e-04 0.0 
0.0 0.0 0.0 
-3.859142065097e-03 2.635725139701e-03 0.0 
2.635725139701e-03 5.680056934018e-03 0.0 
0.0 0.0 0.0 
8.407189277162e-04 6.919561912676e-05 0.0 
6.919561912676e-05 -5.374960229007e-04 0.0 
0.0 0.0 0.0 
-7.429652615225e-03 4.418266703860e-03 0.0 
4.418266703860e-03 1.146772341367e-02 0.0 
0.0 0.0 0.0 
1.023857463781e-03 4.755379056474e-03 0.0 
4.755379056474e-03 7.993870964484e-05 0.0 
0.0 0.0 0.0 
-3.739705699199e-03 2.972013853129e-03 0.0 
2.972013853129e-03 5.650917383115e-03 0.0 
0.0 0.0 0.0 
7.595290045042e-04 1.588721218014e-03 0.0 
1.588721218014e-03 -2.919526989924e-04 0.0 
0.0 0.0 0.0 
3.043702478748e-03 -3.863002480081e-04 0.0 
-3.863002480081e-04 -2.261716870361e-03 0.0 
0.0 0.0 0.0 
3.293958148384e-03 -1.383156688353e-04 0.0 
-1.383156688353e-04 -1.767895334989e-03 0.0 
0.0 0.0 0.0 
-2.706173562900e-04 5.552469469077e-03 0.0 
5.552469469077e-03 1.606470247468e-03 0.0 
0.0 0.0 0.0 
4.719313649530e-04 3.969626867719e-05 0.0 
3.969626867719e-05 -1.413569553239e-04 0.0 
0.0 0.0 0.0 
4.268209562956e-04 7.351798416882e-04 0.0 
7.351798416882e-04 6.784183346431e-06 0.0 
0.0 0.0 0.0 
1.177452548597e-04 4.249970928013e-04 0.0 
4.249970928013e-04 3.162289698599e-04 0.0 
0.0 0.0 0.0 
1.236135628220e-04 3.586459283766e-04 0.0 
3.586459283766e-04 3.121316526591e-04 0.0 
0.0 0.0 0.0 
8.983257153499e-04 2.903032875130e-03 0.0 
2.903032875130e-03 -3.721022230201e-04 0.0 
0.0 0.0 0.0 
-3.477553884947e-03 2.552174559496e-04 0.0 
2.552174559496e-04 6.243933924036e-03 0.0 
0.0 0.0 0.0 
-3.380681443452e-03 1.152721484010e-05 0.0 
1.152721484010e-05 6.203352219984e-03 0.0 
0.0 0.0 0.0 
-2.492610485298e-04 5.485911214803e-03 0.0 
5.485911214803e-03 3.374891798326e-03 0.0 
0.0 0.0 0.0 
2.785733222239e-04 1.006154277555e-03 0.0 
1.006154277555e-03 4.706815751399e-05 0.0 
0.0 0.0 0.0 
1.047440197809e-03 1.852900343661e-03 0.0 
1.852900343661e-03 7.256676990064e-05 0.0 
0.0 0.0 0.0 
-5.134786210434e-03 4.069811053161e-03 0.0 
4.069811053161e-03 9.826721462012e-03 0.0 
0.0 0.0 0.0 
-1.121432462866e-03 1.545039104700e-04 0.0 
1.545039104700e-04 2.751350966665e-03 0.0 
0.0 0.0 0.0 
9.198734973541e-04 1.648073357866e-03 0.0 
1.648073357866e-03 5.417349009962e-05 0.0 
0.0 0.0 0.0 
3.029447283885e-03 -4.823911588516e-04 0.0 
-4.823911588516e-04 -1.966726881442e-03 0.0 
0.0 0.0 0.0 
-8.922834775179e-04 2.264549241951e-04 0.0 
2.264549241951e-04 2.704712631676e-03 0.0 
0.0 0.0 0.0 
2.614102071736e-03 -3.519314942058e-04 0.0 
-3.519314942058e-04 -1.410040081202e-03 0.0 
0.0 0.0 0.0 
-4.541370058188e-03 1.413335201681e-03 0.0 
1.413335201681e-03 6.842456081184e-03 0.0 
0.0 0.0 0.0 
8.643763158012e-05 4.910772910618e-03 0.0 
4.910772910618e-03 2.647364920990e-03 0.0 
0.0 0.0 0.0 
3.104690182770e-03 6.179209689961e-05 0.0 
6.179209689961e-05 -2.644036574691e-03 0.0 
0.0 0.0 0.0 
3.620845101793e-03 -3.472572648155e-04 0.0 
-3.472572648155e-04 -2.899302304025e-03 0.0 
0.0 0.0 0.0 
2.752080830470e-04 4.877725232754e-03 0.0 
4.877725232754e-03 2.647370130468e-03 0.0 
0.0 0.0 0.0 
-5.297545907427e-04 4.757309416778e-03 0.0 
4.757309416778e-03 2.316073676079e-03 0.0 
0.0 0.0 0.0 
2.523113651653e-03 6.197570835444e-05 0.0 
6.197570835444e-05 -2.254347847527e-03 0.0 
0.0 0.0 0.0 
2.781259144385e-03 -4.927020849615e-05 0.0 
-4.927020849615e-05 -2.504605569375e-03 0.0 
0.0 0.0 0.0 
4.953525466165e-04 4.788213259084e-05 0.0 
4.788213259084e-05 -1.411360520575e-04 0.0 
0.0 0.0 0.0 
3.744222713659e-03 1.280846435532e-05 0.0 
1.280846435532e-05 -2.657167742476e-03 0.0 
0.0 0.0 0.0 
-8.948263379860e-04 7.979914352933e-04 0.0 
7.979914352933e-04 2.569920590296e-03 0.0 
0.0 0.0 0.0 
1.739683606877e-03 -3.551742601759e-04 0.0 
-3.551742601759e-04 -1.007523936280e-03 0.0 
0.0 0.0 0.0 
1.465256134819e-03 4.172723263856e-03 0.0 
4.172723263856e-03 -7.269368517800e-04 0.0 
0.0 0.0 0.0 
2.338042121364e-03 4.226301347216e-03 0.0 
4.226301347216e-03 -8.118296673101e-04 0.0 
0.0 0.0 0.0 
3.521816948225e-03 -2.846669934422e-04 0.0 
-2.846669934422e-04 -2.746671670176e-03 0.0 
0.0 0.0 0.0 
2.047500114537e-04 2.009059994612e-04 0.0 
2.009059994612e-04 1.969933422519e-04 0.0 
0.0 0.0 0.0 
4.615052120083e-04 4.222762447474e-03 0.0 
4.222762447474e-03 2.077795756981e-03 0.0 
0.0 0.0 0.0 
2.141847975229e-03 -3.567459416007e-04 0.0 
-3.567459416007e-04 -1.099104519836e-03 0.0 
0.0 0.0 0.0 
-1.951112662921e-04 5.707218144387e-03 0.0 
5.707218144387e-03 1.470146329653e-03 0.0 
0.0 0.0 0.0 
3.340937749044e-03 -4.077112484797e-04 0.0 
-4.077112484797e-04 -2.536664344308e-03 0.0 
0.0 0.0 0.0 
4.098141860518e-04 5.535675332383e-03 0.0 
5.535675332383e-03 6.158285293609e-04 0.0 
0.0 0.0 0.0 
7.994915135781e-04 1.115674580068e-04 0.0 
1.115674580068e-04 -4.956790988878e-04 0.0 
0.0 0.0 0.0 
0.0 4.091180278652e-03 0.0 
4.091180278652e-03 2.215952010937e-03 0.0 
0.0 0.0 0.0 
1.044336002345e-03 4.889003997800e-03 0.0 
4.889003997800e-03 -2.620827823122e-04 0.0 
0.0 0.0 0.0 
4.157502676340e-03 -1.018564736380e-04 0.0 
-1.018564736380e-04 -2.275501351318e-03 0.0 
0.0 0.0 0.0 
2.255123201658e-03 -3.022527606058e-05 0.0 
-3.022527606058e-05 -2.046910993751e-03 0.0 
0.0 0.0 0.0 
-1.541358928503e-03 2.194729607124e-03 0.0 
2.194729607124e-03 3.159323635732e-03 0.0 
0.0 0.0 0.0 
-9.494106502469e-04 4.933006219247e-03 0.0 
4.933006219247e-03 2.271489833232e-03 0.0 
0.0 0.0 0.0 
1.212657165512e-03 9.919241773093e-04 0.0 
9.919241773093e-04 -3.903946087237e-04 0.0 
0.0 0.0 0.0 
3.412515895409e-03 4.454240138446e-05 0.0 
4.454240138446e-05 -2.528052683730e-03 0.0 
0.0 0.0 0.0 
1.169065675659e-03 1.289220536879e-03 0.0 
1.289220536879e-03 -3.777762655319e-04 0.0 
0.0 0.0 0.0 
3.420928777280e-03 -4.432241140331e-04 0.0 
-4.432241140331e-04 -2.531669642987e-03 0.0 
0.0 0.0 0.0 
-3.899480891864e-03 7.710150658664e-04 0.0 
7.710150658664e-04 6.668040209255e-03 0.0 
0.0 0.0 0.0 
3.962884392050e-04 3.805532274809e-03 0.0 
3.805532274809e-03 1.650294068964e-03 0.0 
0.0 0.0 0.0 
6.691604122879e-04 3.039685200858e-03 0.0 
3.039685200858e-03 1.280936614232e-03 0.0 
0.0 0.0 0.0 
-3.419503086978e-03 5.380297479497e-04 0.0 
5.380297479497e-04 5.398326770639e-03 0.0 
0.0 0.0 0.0 
-3.239961686720e-03 5.071647246740e-04 0.0 
5.071647246740e-04 5.398636024353e-03 0.0 
0.0 0.0 0.0 
6.730400657537e-04 7.304937951380e-05 0.0 
7.304937951380e-05 -3.750680233757e-04 0.0 
0.0 0.0 0.0 
5.358257562875e-04 5.332727856022e-06 0.0 
5.332727856022e-06 -1.929451157692e-04 0.0 
0.0 0.0 0.0 
-1.273801677407e-03 4.345559997818e-03 0.0 
4.345559997818e-03 2.538504933514e-03 0.0 
0.0 0.0 0.0 
-3.766073027364e-03 7.058228430508e-04 0.0 
7.058228430508e-04 6.138550379562e-03 0.0 
0.0 0.0 0.0 
3.128741955688e-03 -1.548075769070e-04 0.0 
-1.548075769070e-04 -1.701362721848e-03 0.0 
0.0 0.0 0.0 
-4.562109476702e-03 3.468538055271e-03 0.0 
3.468538055271e-03 8.051488148482e-03 0.0 
0.0 0.0 0.0 
-1.681815208197e-03 1.842621883025e-04 0.0 
1.842621883025e-04 3.476710552970e-03 0.0 
0.0 0.0 0.0 
-1.943008996728e-03 2.664721645541e-04 0.0 
2.664721645541e-04 3.612468903063e-03 0.0 
0.0 0.0 0.0 
-8.310751932138e-04 4.335762432087e-03 0.0 
4.335762432087e-03 2.209797501856e-03 0.0 
0.0 0.0 0.0 
6.177813208945e-04 3.063571095232e-03 0.0 
3.063571095232e-03 4.726273699496e-05 0.0 
0.0 0.0 0.0 
-4.352954516155e-03 9.847976124676e-04 0.0 
9.847976124676e-04 7.221117758606e-03 0.0 
0.0 0.0 0.0 
4.743412348018e-04 9.253406725218e-04 0.0 
9.253406725218e-04 7.145372613371e-05 0.0 
0.0 0.0 0.0 
-2.435406740397e-03 6.167206785792e-05 0.0 
6.167206785792e-05 4.236588402449e-03 0.0 
0.0 0.0 0.0 
1.811177214924e-03 4.126286287778e-03 0.0 
4.126286287778e-03 -1.343470389652e-04 0.0 
0.0 0.0 0.0 
-3.827629673433e-03 3.993056121848e-04 0.0 
3.993056121848e-04 6.360483371859e-03 0.0 
0.0 0.0 0.0 
1.204371714056e-04 1.671741016017e-04 0.0 
1.671741016017e-04 2.845317880860e-04 0.0 
0.0 0.0 0.0 
2.824964557369e-03 3.882327259934e-03 0.0 
3.882327259934e-03 -2.045478502321e-03 0.0 
0.0 0.0 0.0 
1.535942618365e-03 3.997542825791e-03 0.0 
3.997542825791e-03 -6.995222948737e-04 0.0 
0.0 0.0 0.0 
2.972870969692e-03 3.195264693085e-03 0.0 
3.195264693085e-03 -1.629317926777e-03 0.0 
0.0 0.0 0.0 
2.610735518065e-03 -4.615220055966e-04 0.0 
-4.615220055966e-04 -1.782814392627e-03 0.0 
0.0 0.0 0.0 
3.082302903104e-04 8.781151639509e-05 0.0 
8.781151639509e-05 6.374822752364e-05 0.0 
0.0 0.0 0.0 
-1.632604104912e-03 3.146303525313e-04 0.0 
3.146303525313e-04 3.303098139271e-03 0.0 
0.0 0.0 0.0 
2.053476824006e-03 -3.497055754947e-04 0.0 
-3.497055754947e-04 -1.190504984559e-03 0.0 
0.0 0.0 0.0 
1.329747852887e-04 3.230962954375e-04 0.0 
3.230962954375e-04 2.318042601233e-04 0.0 
0.0 0.0 0.0 
-1.158666248531e-03 4.256808778796e-03 0.0 
4.256808778796e-03 2.381293616768e-03 0.0 
0.0 0.0 0.0 
4.270528848298e-03 3.524498597038e-05 0.0 
3.524498597038e-05 -2.116371326082e-03 0.0 
0.0 0.0 0.0 
3.103115618683e-03 3.618942055806e-03 0.0 
3.618942055806e-03 -2.227027989702e-03 0.0 
0.0 0.0 0.0 
-3.170536374648e-03 6.773360824239e-03 0.0 
6.773360824239e-03 8.082369539026e-03 0.0 
0.0 0.0 0.0 
1.929954641798e-03 2.598654536834e-05 0.0 
2.598654536834e-05 -1.741338858116e-03 0.0 
0.0 0.0 0.0 
2.168578126301e-03 3.728340206581e-03 0.0 
3.728340206581e-03 -5.420969791049e-04 0.0 
0.0 0.0 0.0 
2.287939323079e-03 4.073333907667e-03 0.0 
4.073333907667e-03 -8.002974130075e-04 0.0 
0.0 0.0 0.0 
1.958671550153e-04 6.461023075333e-04 0.0 
6.461023075333e-04 1.781542041295e-04 0.0 
0.0 0.0 0.0 
-2.670240998256e-03 1.265877238729e-04 0.0 
1.265877238729e-04 4.476768796633e-03 0.0 
0.0 0.0 0.0 
2.728763182914e-03 3.840691152686e-03 0.0 
3.840691152686e-03 -1.252086937592e-03 0.0 
0.0 0.0 0.0 
3.378807139072e-03 -2.161314482620e-04 0.0 
-2.161314482620e-04 -2.485430540096e-03 0.0 
0.0 0.0 0.0 
-5.151872318448e-03 3.871133424269e-03 0.0 
3.871133424269e-03 7.787778447186e-03 0.0 
0.0 0.0 0.0 
-1.395873360543e-03 2.705791393767e-04 0.0 
2.705791393767e-04 3.209788540707e-03 0.0 
0.0 0.0 0.0 
2.636789621768e-03 3.632005982128e-03 0.0 
3.632005982128e-03 -1.242008771221e-03 0.0 
0.0 0.0 0.0 
1.416041142546e-03 2.569818091118e-04 0.0 
2.569818091118e-04 -6.981188787174e-04 0.0 
0.0 0.0 0.0 
-1.293483799170e-03 6.654029090439e-03 0.0 
6.654029090439e-03 5.366442157633e-03 0.0 
0.0 0.0 0.0 
2.072318432206e-03 -1.150370830132e-05 0.0 
-1.150370830132e-05 -1.764494657882e-03 0.0 
0.0 0.0 0.0 
-6.883638888351e-04 6.164950793078e-03 0.0 
6.164950793078e-03 4.278406490908e-03 0.0 
0.0 0.0 0.0 
-5.620663662927e-04 2.826382606328e-03 0.0 
2.826382606328e-03 2.742681840273e-03 0.0 
0.0 0.0 0.0 
2.294247023775e-03 7.154178512588e-04 0.0 
7.154178512588e-04 -1.387551436309e-03 0.0 
0.0 0.0 0.0 
8.446622768807e-04 6.467742266646e-05 0.0 
6.467742266646e-05 -5.355271174743e-04 0.0 
0.0 0.0 0.0 
-8.791495442022e-04 3.354728842740e-04 0.0 
3.354728842740e-04 2.643762344110e-03 0.0 
0.0 0.0 0.0 
8.096971563374e-04 5.323661858720e-03 0.0 
5.323661858720e-03 8.680506933580e-04 0.0 
0.0 0.0 0.0 
-7.061061939830e-04 6.132300274536e-03 0.0 
6.132300274536e-03 4.293018159231e-03 0.0 
0.0 0.0 0.0 
4.418292204131e-04 7.965701351192e-04 0.0 
7.965701351192e-04 8.016391552790e-06 0.0 
0.0 0.0 0.0 
1.912472142087e-04 8.239354296961e-05 0.0 
8.239354296961e-05 2.147935740109e-04 0.0 
0.0 0.0 0.0 
7.089533647613e-04 7.079206871217e-05 0.0 
7.079206871217e-05 -3.751357357210e-04 0.0 
0.0 0.0 0.0 
5.036819326938e-04 5.503662645825e-03 0.0 
5.503662645825e-03 1.546238885949e-03 0.0 
0.0 0.0 0.0 
6.509723095898e-04 1.414049686778e-03 0.0 
1.414049686778e-03 -3.059110333870e-05 0.0 
0.0 0.0 0.0 
5.426863510931e-04 5.516888451711e-03 0.0 
5.516888451711e-03 1.616702973858e-03 0.0 
0.0 0.0 0.0 
-8.575843686301e-04 1.654794567562e-03 0.0 
1.654794567562e-03 2.868273287352e-03 0.0 
0.0 0.0 0.0 
5.379719998189e-04 5.679453330495e-03 0.0 
5.679453330495e-03 7.302570287058e-04 0.0 
0.0 0.0 0.0 
-4.309642581538e-03 2.140913404352e-03 0.0 
2.140913404352e-03 6.713362680759e-03 0.0 
0.0 0.0 0.0 
-2.310559044897e-03 3.979742584585e-04 0.0 
3.979742584585e-04 4.112383745930e-03 0.0 
0.0 0.0 0.0 
6.666228796446e-04 5.465159696844e-03 0.0 
5.465159696844e-03 1.618822183578e-03 0.0 
0.0 0.0 0.0 
-1.063276396134e-04 5.545913888129e-03 0.0 
5.545913888129e-03 3.353481827860e-03 0.0 
0.0 0.0 0.0 
4.759748572059e-04 5.256229840768e-03 0.0 
5.256229840768e-03 8.691330563757e-04 0.0 
0.0 0.0 0.0 
3.085037218490e-03 3.535063032375e-03 0.0 
3.535063032375e-03 -1.778647120275e-03 0.0 
0.0 0.0 0.0 
-3.480462667887e-03 2.991932103023e-04 0.0 
2.991932103023e-04 5.782289752376e-03 0.0 
0.0 0.0 0.0 
3.214994928777e-03 3.386820953841e-03 0.0 
3.386820953841e-03 -2.198991757936e-03 0.0 
0.0 0.0 0.0 
3.335970673231e-03 -1.400420482001e-04 0.0 
-1.400420482001e-04 -1.779244742862e-03 0.0 
0.0 0.0 0.0 
-2.950237192244e-03 1.166918284358e-04 0.0 
1.166918284358e-04 4.855129368011e-03 0.0 
0.0 0.0 0.0 
3.451692157308e-03 -1.322480345791e-05 0.0 
-1.322480345791e-05 -2.595892288033e-03 0.0 
0.0 0.0 0.0 
-2.053133465241e-03 6.943858527618e-03 0.0 
6.943858527618e-03 6.552448715679e-03 0.0 
0.0 0.0 0.0 
3.325687962918e-04 1.340012314457e-03 0.0 
1.340012314457e-03 -1.510743680588e-05 0.0 
0.0 0.0 0.0 
3.057691104307e-03 3.428056793798e-03 0.0 
3.428056793798e-03 -1.646635173863e-03 0.0 
0.0 0.0 0.0 
6.155546234885e-04 4.260800958821e-05 0.0 
4.260800958821e-05 -2.788369897104e-04 0.0 
0.0 0.0 0.0 
7.304267795050e-04 2.009245962210e-03 0.0 
2.009245962210e-03 3.911992883310e-04 0.0 
0.0 0.0 0.0 
2.779789910590e-03 3.995853413928e-03 0.0 
3.995853413928e-03 -2.055650088024e-03 0.0 
0.0 0.0 0.0 
-2.977021612757e-03 1.450012643930e-04 0.0 
1.450012643930e-04 5.295001487910e-03 0.0 
0.0 0.0 0.0 
3.503393263722e-03 3.230692679254e-03 0.0 
3.230692679254e-03 -2.620511239748e-03 0.0 
0.0 0.0 0.0 
4.340340516662e-04 8.348550088126e-05 0.0 
8.348550088126e-05 -8.343179014891e-05 0.0 
0.0 0.0 0.0 
3.340420271684e-03 -2.811920083824e-04 0.0 
-2.811920083824e-04 -2.472794867865e-03 0.0 
0.0 0.0 0.0 
3.212214949193e-04 1.091269456094e-04 0.0 
1.091269456094e-04 6.145946748748e-05 0.0 
0.0 0.0 0.0 
-2.734056959737e-03 5.554255020277e-03 0.0 
5.554255020277e-03 4.718285487926e-03 0.0 
0.0 0.0 0.0 
2.311609082473e-04 2.916142198609e-04 0.0 
2.916142198609e-04 2.322328147371e-04 0.0 
0.0 0.0 0.0 
-2.947935196589e-03 8.213476359329e-05 0.0 
8.213476359329e-05 5.255529044210e-03 0.0 
0.0 0.0 0.0 
3.355944967451e-03 3.253168460694e-03 0.0 
3.253168460694e-03 -2.170743747289e-03 0.0 
0.0 0.0 0.0 
-2.908020545492e-03 6.779460887559e-03 0.0 
6.779460887559e-03 6.647972292362e-03 0.0 
0.0 0.0 0.0 
9.330572853241e-04 2.867731382324e-05 0.0 
2.867731382324e-05 -6.016389054346e-04 0.0 
0.0 0.0 0.0 
8.437241318675e-04 2.237367503712e-03 0.0 
2.237367503712e-03 4.527460646793e-04 0.0 
0.0 0.0 0.0 
3.545538351376e-03 2.961785224746e-03 0.0 
2.961785224746e-03 -2.584252908151e-03 0.0 
0.0 0.0 0.0 
-2.115812738446e-03 3.334457611949e-04 0.0 
3.334457611949e-04 3.785493626031e-03 0.0 
0.0 0.0 0.0 
-3.260092645718e-03 6.052353448202e-05 0.0 
6.052353448202e-05 5.504144169689e-03 0.0 
0.0 0.0 0.0 
3.269894137274e-03 3.486361999407e-03 0.0 
3.486361999407e-03 -2.229757612231e-03 0.0 
0.0 0.0 0.0 
-1.645877635018e-03 6.629136584787e-03 0.0 
6.629136584787e-03 5.389852594938e-03 0.0 
0.0 0.0 0.0 
5.876537024587e-04 5.084034599106e-03 0.0 
5.084034599106e-03 5.490533074097e-04 0.0 
0.0 0.0 0.0 
1.928794162722e-03 -1.415361687187e-05 0.0 
-1.415361687187e-05 -1.605787542002e-03 0.0 
0.0 0.0 0.0 
6.265756687078e-04 4.573983706690e-03 0.0 
4.573983706690e-03 1.165454108842e-05 0.0 
0.0 0.0 0.0 
7.153234757264e-04 5.534062149307e-03 0.0 
5.534062149307e-03 5.282726258722e-04 0.0 
0.0 0.0 0.0 
1.379707396245e-03 3.491864881018e-03 0.0 
3.491864881018e-03 1.981763263152e-04 0.0 
0.0 0.0 0.0 
1.599064171410e-03 6.012873744043e-05 0.0 
6.012873744043e-05 -1.381328275304e-03 0.0 
0.0 0.0 0.0 
1.705499217413e-03 2.243266819801e-03 0.0 
2.243266819801e-03 -1.161302486560e-03 0.0 
0.0 0.0 0.0 
2.064906275048e-04 5.519488131488e-03 0.0 
5.519488131488e-03 2.431905268372e-03 0.0 
0.0 0.0 0.0 
1.699072622274e-03 2.896958390479e-03 0.0 
2.896958390479e-03 -1.818704675911e-04 0.0 
0.0 0.0 0.0 
-3.606765197436e-03 5.812212944863e-03 0.0 
5.812212944863e-03 6.120533284645e-03 0.0 
0.0 0.0 0.0 
3.017249251206e-03 3.727056188881e-03 0.0 
3.727056188881e-03 -1.799504246020e-03 0.0 
0.0 0.0 0.0 
-5.524527822863e-04 1.106572668790e-03 0.0 
1.106572668790e-03 2.669764106387e-03 0.0 
0.0 0.0 0.0 
-1.832701342530e-03 3.814292191589e-03 0.0 
3.814292191589e-03 3.141146712681e-03 0.0 
0.0 0.0 0.0 
3.715362945069e-04 5.586078040110e-05 0.0 
5.586078040110e-05 -2.474921952045e-06 0.0 
0.0 0.0 0.0 
1.040757070192e-03 1.346428843785e-03 0.0 
1.346428843785e-03 -1.796486131680e-04 0.0 
0.0 0.0 0.0 
3.810626864413e-03 2.496681448026e-03 0.0 
2.496681448026e-03 -2.899810099611e-03 0.0 
0.0 0.0 0.0 
-1.219479892411e-03 4.242168014171e-03 0.0 
4.242168014171e-03 2.564116921542e-03 0.0 
0.0 0.0 0.0 
-3.163765384662e-05 -2.260328368435e-05 0.0 
-2.260328368435e-05 3.587053185972e-05 0.0 
0.0 0.0 0.0 
2.332975081274e-04 5.590203766212e-03 0.0 
5.590203766212e-03 2.430553754716e-03 0.0 
0.0 0.0 0.0 
2.025385039705e-03 1.799871068636e-03 0.0 
1.799871068636e-03 -1.549028043539e-03 0.0 
0.0 0.0 0.0 
3.906451938321e-03 4.165617927915e-05 0.0 
4.165617927915e-05 -2.400690409718e-03 0.0 
0.0 0.0 0.0 
-5.940965771943e-04 4.970746041474e-03 0.0 
4.970746041474e-03 2.221729916273e-03 0.0 
0.0 0.0 0.0 
-3.201085393423e-03 3.108431816302e-03 0.0 
3.108431816302e-03 4.697398088533e-03 0.0 
0.0 0.0 0.0 
3.604952503706e-03 1.726155210825e-04 0.0 
1.726155210825e-04 -3.197770037276e-03 0.0 
0.0 0.0 0.0 
2.075905989700e-03 1.940880307381e-03 0.0 
1.940880307381e-03 -1.558674276542e-03 0.0 
0.0 0.0 0.0 
-4.553336880445e-03 3.378724499209e-03 0.0 
3.378724499209e-03 6.693359086294e-03 0.0 
0.0 0.0 0.0 
-4.453324123839e-03 2.548878945063e-03 0.0 
2.548878945063e-03 6.371353546112e-03 0.0 
0.0 0.0 0.0 
7.387243163213e-04 1.547375516002e-03 0.0 
1.547375516002e-03 -3.024008189342e-04 0.0 
0.0 0.0 0.0 
3.420730213666e-03 -1.361671766093e-04 0.0 
-1.361671766093e-04 -3.037877225361e-03 0.0 
0.0 0.0 0.0 
7.719397902168e-04 4.937367829566e-03 0.0 
4.937367829566e-03 3.050118337515e-04 0.0 
0.0 0.0 0.0 
-2.066401991456e-03 5.305986387514e-03 0.0 
5.305986387514e-03 3.644844869136e-03 0.0 
0.0 0.0 0.0 
-2.989573376693e-03 2.947543036040e-03 0.0 
2.947543036040e-03 4.491085105137e-03 0.0 
0.0 0.0 0.0 
-2.378051993349e-03 5.168411738258e-03 0.0 
5.168411738258e-03 4.797922497904e-03 0.0 
0.0 0.0 0.0 
-2.436123488769e-03 6.230012202428e-03 0.0 
6.230012202428e-03 6.122896228806e-03 0.0 
0.0 0.0 0.0 
3.402294894499e-03 3.478459859745e-03 0.0 
3.478459859745e-03 -2.669704236844e-03 0.0 
0.0 0.0 0.0 
1.129880422082e-04 4.889023348819e-03 0.0 
4.889023348819e-03 1.045611727943e-03 0.0 
0.0 0.0 0.0 
1.121693591432e-03 -2.551106459794e-04 0.0 
-2.551106459794e-04 -6.782740420904e-04 0.0 
0.0 0.0 0.0 
1.600418595655e-03 3.669183182978e-03 0.0 
3.669183182978e-03 2.190560589617e-04 0.0 
0.0 0.0 0.0 
1.942197063349e-03 4.258238566375e-03 0.0 
4.258238566375e-03 -1.567189038408e-04 0.0 
0.0 0.0 0.0 
8.381767289174e-04 5.179773577744e-03 0.0 
5.179773577744e-03 8.778566749943e-04 0.0 
0.0 0.0 0.0 
-1.862393379899e-03 3.828317153185e-03 0.0 
3.828317153185e-03 3.207993176586e-03 0.0 
0.0 0.0 0.0 
3.460269998693e-03 4.017978363721e-04 0.0 
4.017978363721e-04 -2.357961456682e-03 0.0 
0.0 0.0 0.0 
2.143994038672e-03 1.595251754331e-03 0.0 
1.595251754331e-03 -1.710650911161e-03 0.0 
0.0 0.0 0.0 
-3.255102866391e-03 1.868753625754e-04 0.0 
1.868753625754e-04 5.569972383508e-03 0.0 
0.0 0.0 0.0 
3.819195154436e-03 2.798535285280e-03 0.0 
2.798535285280e-03 -2.942357798726e-03 0.0 
0.0 0.0 0.0 
2.228206175939e-03 1.371886801629e-03 0.0 
1.371886801629e-03 -1.824386160224e-03 0.0 
0.0 0.0 0.0 
3.672757389274e-03 3.916102600785e-05 0.0 
3.916102600785e-05 -1.998996228463e-03 0.0 
0.0 0.0 0.0 
-2.724966060262e-03 3.036540097982e-03 0.0 
3.036540097982e-03 4.184019229065e-03 0.0 
0.0 0.0 0.0 
3.725700167077e-03 -1.845684052657e-05 0.0 
-1.845684052657e-05 -1.938738428381e-03 0.0 
0.0 0.0 0.0 
3.635576242558e-03 3.085321773283e-05 0.0 
3.085321773283e-05 -2.345247660473e-03 0.0 
0.0 0.0 0.0 
1.129061256186e-03 1.550785901939e-03 0.0 
1.550785901939e-03 -1.693662160334e-04 0.0 
0.0 0.0 0.0 
3.486462561789e-03 -1.997697782067e-04 0.0 
-1.997697782067e-04 -3.026768181584e-03 0.0 
0.0 0.0 0.0 
-2.643909005942e-03 2.984296331789e-03 0.0 
2.984296331789e-03 4.067594177461e-03 0.0 
0.0 0.0 0.0 
3.494739897025e-03 -2.139612317591e-04 0.0 
-2.139612317591e-04 -3.078268398562e-03 0.0 
0.0 0.0 0.0 
3.029032153942e-03 1.990429414738e-03 0.0 
1.990429414738e-03 -1.818728722204e-03 0.0 
0.0 0.0 0.0 
3.520247140328e-03 -4.659204447689e-04 0.0 
-4.659204447689e-04 -2.856867125155e-03 0.0 
0.0 0.0 0.0 
3.398606787990e-03 -2.513278613243e-04 0.0 
-2.513278613243e-04 -2.613759454462e-03 0.0 
0.0 0.0 0.0 
1.893827426154e-03 2.114510522933e-03 0.0 
2.114510522933e-03 -1.391285148559e-03 0.0 
0.0 0.0 0.0 
-1.861246040191e-03 5.808449805351e-03 0.0 
5.808449805351e-03 4.708085364654e-03 0.0 
0.0 0.0 0.0 
2.199624709742e-04 2.258517872255e-04 0.0 
2.258517872255e-04 1.983566628656e-04 0.0 
0.0 0.0 0.0 
1.117388191463e-03 -1.471680163060e-04 0.0 
-1.471680163060e-04 -4.606419041612e-04 0.0 
0.0 0.0 0.0 
3.519780995812e-03 2.465997156447e-03 0.0 
2.465997156447e-03 -2.248943198805e-03 0.0 
0.0 0.0 0.0 
3.678652594253e-03 2.931027191684e-03 0.0 
2.931027191684e-03 -2.947358754047e-03 0.0 
0.0 0.0 0.0 
7.498437657696e-04 5.044034920595e-03 0.0 
5.044034920595e-03 1.707652164716e-03 0.0 
0.0 0.0 0.0 
2.209850843392e-03 1.685009368683e-03 0.0 
1.685009368683e-03 -1.716885958691e-03 0.0 
0.0 0.0 0.0 
2.121638146926e-04 3.357879806652e-04 0.0 
3.357879806652e-04 2.329458329311e-04 0.0 
0.0 0.0 0.0 
-2.253352298789e-03 3.715139591188e-03 0.0 
3.715139591188e-03 3.666983202643e-03 0.0 
0.0 0.0 0.0 
3.968392567051e-03 1.758603992989e-03 0.0 
1.758603992989e-03 -3.008394626806e-03 0.0 
0.0 0.0 0.0 
1.862394741535e-03 2.070676986323e-03 0.0 
2.070676986323e-03 -1.390983188258e-03 0.0 
0.0 0.0 0.0 
7.380028808632e-04 3.105484705965e-05 0.0 
3.105484705965e-05 -4.197438931335e-04 0.0 
0.0 0.0 0.0 
2.788773557612e-04 5.312901372247e-03 0.0 
5.312901372247e-03 1.532963708057e-03 0.0 
0.0 0.0 0.0 
-2.829729376305e-03 3.328042049526e-03 0.0 
3.328042049526e-03 4.174112641252e-03 0.0 
0.0 0.0 0.0 
1.113413306221e-03 4.305686905068e-03 0.0 
4.305686905068e-03 -3.258048408354e-04 0.0 
0.0 0.0 0.0 
3.717689636136e-03 2.652198880287e-03 0.0 
2.652198880287e-03 -2.906590410630e-03 0.0 
0.0 0.0 0.0 
2.802675213928e-03 2.176671486236e-03 0.0 
2.176671486236e-03 -1.548943737630e-03 0.0 
0.0 0.0 0.0 
-2.278702980922e-03 4.707360394545e-03 0.0 
4.707360394545e-03 4.287592729462e-03 0.0 
0.0 0.0 0.0 
-4.892995891398e-04 3.974095656510e-03 0.0 
3.974095656510e-03 2.211303098610e-03 0.0 
0.0 0.0 0.0 
1.147252725461e-03 4.855747721838e-03 0.0 
4.855747721838e-03 3.138075442253e-04 0.0 
0.0 0.0 0.0 
3.927459139526e-03 2.771266517536e-03 0.0 
2.771266517536e-03 -3.261907680733e-03 0.0 
0.0 0.0 0.0 
-2.980704317044e-03 1.990826568668e-04 0.0 
1.990826568668e-04 4.859666802830e-03 0.0 
0.0 0.0 0.0 
3.141150518548e-03 -5.027263540610e-04 0.0 
-5.027263540610e-04 -2.309519185848e-03 0.0 
0.0 0.0 0.0 
-2.889412025173e-03 4.913803236756e-03 0.0 
4.913803236756e-03 4.841293161690e-03 0.0 
0.0 0.0 0.0 
4.078389079908e-03 2.088819816819e-03 0.0 
2.088819816819e-03 -3.058830806181e-03 0.0 
0.0 0.0 0.0 
3.907750223227e-03 7.475093649137e-04 0.0 
7.475093649137e-04 -2.820284103122e-03 0.0 
0.0 0.0 0.0 
3.359621033457e-03 -4.537454309328e-04 0.0 
-4.537454309328e-04 -2.493701201700e-03 0.0 
0.0 0.0 0.0 
-2.575982108646e-03 2.821457431481e-03 0.0 
2.821457431481e-03 4.088284939617e-03 0.0 
0.0 0.0 0.0 
-1.858974791366e-03 5.024252864063e-03 0.0 
5.024252864063e-03 3.915018991417e-03 0.0 
0.0 0.0 0.0 
3.040311133387e-03 3.718620428114e-03 0.0 
3.718620428114e-03 -1.807871211735e-03 0.0 
0.0 0.0 0.0 
-2.546650985162e-03 2.809311738984e-03 0.0 
2.809311738984e-03 4.017781168460e-03 0.0 
0.0 0.0 0.0 
-1.764193016700e-03 4.053005959020e-03 0.0 
4.053005959020e-03 3.091853547588e-03 0.0 
0.0 0.0 0.0 
-3.104398434219e-04 5.307015905765e-03 0.0 
5.307015905765e-03 2.172967475106e-03 0.0 
0.0 0.0 0.0 
1.505536638400e-04 4.883939122258e-04 0.0 
4.883939122258e-04 2.058381267842e-04 0.0 
0.0 0.0 0.0 
4.089789235996e-03 2.815904112935e-03 0.0 
2.815904112935e-03 -3.493255030736e-03 0.0 
0.0 0.0 0.0 
-9.054669294944e-04 5.163853657996e-03 0.0 
5.163853657996e-03 2.775647334670e-03 0.0 
0.0 0.0 0.0 
2.847594976960e-03 3.785863161402e-03 0.0 
3.785863161402e-03 -1.756281772334e-03 0.0 
0.0 0.0 0.0 
3.846784762355e-03 2.974177594956e-03 0.0 
2.974177594956e-03 -3.175740192097e-03 0.0 
0.0 0.0 0.0 
4.164626666411e-03 1.056870148752e-03 0.0 
1.056870148752e-03 -3.168135401788e-03 0.0 
0.0 0.0 0.0 
-4.856130976598e-03 2.733163822383e-03 0.0 
2.733163822383e-03 8.900472732837e-03 0.0 
0.0 0.0 0.0 
3.937454485000e-03 2.380026171095e-03 0.0 
2.380026171095e-03 -3.217769442528e-03 0.0 
0.0 0.0 0.0 
4.230768517330e-03 3.459291098644e-04 0.0 
3.459291098644e-04 -3.715822739517e-03 0.0 
0.0 0.0 0.0 
-2.374830166730e-03 3.625805395036e-03 0.0 
3.625805395036e-03 3.684998906144e-03 0.0 
0.0 0.0 0.0 
2.707227304359e-04 -2.042390594213e-04 0.0 
-2.042390594213e-04 -1.581374665030e-04 0.0 
0.0 0.0 0.0 
-2.822974930808e-03 4.759474631899e-03 0.0 
4.759474631899e-03 5.194926353045e-03 0.0 
0.0 0.0 0.0 
4.222134263088e-03 1.830815477316e-03 0.0 
1.830815477316e-03 -3.348169758343e-03 0.0 
0.0 0.0 0.0 
3.414767618702e-03 2.159875467424e-03 0.0 
2.159875467424e-03 -2.205903544501e-03 0.0 
0.0 0.0 0.0 
3.950495988028e-03 7.468265523355e-04 0.0 
7.468265523355e-04 -3.113980459670e-03 0.0 
0.0 0.0 0.0 
-2.312882929014e-03 4.445723543757e-03 0.0 
4.445723543757e-03 3.579816419576e-03 0.0 
0.0 0.0 0.0 
3.187803025166e-03 -2.918147108940e-04 0.0 
-2.918147108940e-04 -2.043897713939e-03 0.0 
0.0 0.0 0.0 
1.532825441124e-03 4.678939101583e-03 0.0 
4.678939101583e-03 3.752256151184e-04 0.0 
0.0 0.0 0.0 
3.917880855929e-03 2.986116230080e-03 0.0 
2.986116230080e-03 -3.301752796039e-03 0.0 
0.0 0.0 0.0 
-2.372146985779e-03 4.887583000334e-03 0.0 
4.887583000334e-03 3.942530493301e-03 0.0 
0.0 0.0 0.0 
-4.870472965942e-03 3.082459484172e-03 0.0 
3.082459484172e-03 7.076010941718e-03 0.0 
0.0 0.0 0.0 
3.152812993201e-03 1.205910389944e-04 0.0 
1.205910389944e-04 -2.145227529299e-03 0.0 
0.0 0.0 0.0 
4.409722165465e-03 5.661325590991e-04 0.0 
5.661325590991e-04 -3.750815730112e-03 0.0 
0.0 0.0 0.0 
4.142540690188e-03 8.839784662322e-05 0.0 
8.839784662322e-05 -3.618347270450e-03 0.0 
0.0 0.0 0.0 
1.187905324336e-03 4.033450502380e-03 0.0 
4.033450502380e-03 6.542785423544e-04 0.0 
0.0 0.0 0.0 
-2.627439795621e-03 3.600526523603e-03 0.0 
3.600526523603e-03 4.121272469763e-03 0.0 
0.0 0.0 0.0 
1.506275502773e-03 4.637064607999e-03 0.0 
4.637064607999e-03 3.816414735232e-04 0.0 
0.0 0.0 0.0 
4.152060974494e-03 2.229912456377e-03 0.0 
2.229912456377e-03 -3.514745435765e-03 0.0 
0.0 0.0 0.0 
3.961282406246e-03 2.493686635842e-03 0.0 
2.493686635842e-03 -3.234414824639e-03 0.0 
0.0 0.0 0.0 
3.176849960593e-03 1.242167684765e-04 0.0 
1.242167684765e-04 -2.253943117280e-03 0.0 
0.0 0.0 0.0 
2.910617388290e-03 3.685000662680e-03 0.0 
3.685000662680e-03 -2.169862535295e-03 0.0 
0.0 0.0 0.0 
2.231314588803e-03 1.164726328660e-03 0.0 
1.164726328660e-03 -1.223217688967e-03 0.0 
0.0 0.0 0.0 
-4.575172397753e-04 5.945384392796e-03 0.0 
5.945384392796e-03 1.835030052343e-03 0.0 
0.0 0.0 0.0 
-1.530713739287e-04 6.179073138421e-03 0.0 
6.179073138421e-03 1.617068078973e-03 0.0 
0.0 0.0 0.0 
1.103658845781e-03 4.648438901512e-03 0.0 
4.648438901512e-03 -2.044463909088e-04 0.0 
0.0 0.0 0.0 
4.180347182510e-03 1.579010368548e-03 0.0 
1.579010368548e-03 -3.173144908454e-03 0.0 
0.0 0.0 0.0 
3.506951590430e-03 1.605752989100e-03 0.0 
1.605752989100e-03 -2.379766893162e-03 0.0 
0.0 0.0 0.0 
-1.025241412296e-03 4.847198514015e-03 0.0 
4.847198514015e-03 2.097534363126e-03 0.0 
0.0 0.0 0.0 
3.830122507928e-03 1.456106248880e-03 0.0 
1.456106248880e-03 -2.801532896834e-03 0.0 
0.0 0.0 0.0 
4.313633970151e-03 2.426660258356e-04 0.0 
2.426660258356e-04 -3.643325694213e-03 0.0 
0.0 0.0 0.0 
-1.911909747249e-04 5.328147724624e-03 0.0 
5.328147724624e-03 1.533968327735e-03 0.0 
0.0 0.0 0.0 
-1.293050763593e-03 1.763202052741e-03 0.0 
1.763202052741e-03 2.894593976965e-03 0.0 
0.0 0.0 0.0 
4.061280951273e-03 2.321279016074e-03 0.0 
2.321279016074e-03 -3.184688693135e-03 0.0 
0.0 0.0 0.0 
3.374890540714e-03 3.650516369038e-03 0.0 
3.650516369038e-03 -2.690286357581e-03 0.0 
0.0 0.0 0.0 
3.109143754098e-03 1.528897303547e-03 0.0 
1.528897303547e-03 -1.964894895293e-03 0.0 
0.0 0.0 0.0 
4.193404504660e-04 1.688447394202e-03 0.0 
1.688447394202e-03 2.726457393365e-04 0.0 
0.0 0.0 0.0 
3.990169506767e-03 1.793829439856e-03 0.0 
1.793829439856e-03 -2.857121228322e-03 0.0 
0.0 0.0 0.0 
1.677375728919e-04 5.019779015143e-03 0.0 
5.019779015143e-03 9.079507713279e-04 0.0 
0.0 0.0 0.0 
3.715264173275e-03 3.458503719019e-04 0.0 
3.458503719019e-04 -2.688010692188e-03 0.0 
0.0 0.0 0.0 
3.473366117147e-03 2.038198531664e-03 0.0 
2.038198531664e-03 -2.934456833258e-03 0.0 
0.0 0.0 0.0 
3.897241599388e-03 2.652708566793e-03 0.0 
2.652708566793e-03 -3.260965212056e-03 0.0 
0.0 0.0 0.0 
4.407436150383e-03 2.180640858945e-04 0.0 
2.180640858945e-04 -3.807860412685e-03 0.0 
0.0 0.0 0.0 
-1.355809546305e-03 5.476289121630e-03 0.0 
5.476289121630e-03 3.620083590597e-03 0.0 
0.0 0.0 0.0 
1.827457671144e-04 6.149910278073e-03 0.0 
6.149910278073e-03 1.200240030680e-03 0.0 
0.0 0.0 0.0 
4.175471411384e-03 2.033420259640e-03 0.0 
2.033420259640e-03 -3.443358601676e-03 0.0 
0.0 0.0 0.0 
3.899129104832e-03 2.804594380866e-03 0.0 
2.804594380866e-03 -3.276107597348e-03 0.0 
0.0 0.0 0.0 
3.015489884423e-03 1.148666051841e-03 0.0 
1.148666051841e-03 -1.912521920031e-03 0.0 
0.0 0.0 0.0 
-3.437201554364e-03 1.520731696298e-03 0.0 
1.520731696298e-03 5.320050406679e-03 0.0 
0.0 0.0 0.0 
2.320026964769e-03 1.465090810865e-03 0.0 
1.465090810865e-03 -1.836524065442e-03 0.0 
0.0 0.0 0.0 
2.579838521546e-03 2.652384567549e-03 0.0 
2.652384567549e-03 -1.269811109579e-03 0.0 
0.0 0.0 0.0 
-3.593232771370e-03 1.385363447456e-03 0.0 
1.385363447456e-03 5.270826726384e-03 0.0 
0.0 0.0 0.0 
4.546886887651e-04 5.547619437096e-03 0.0 
5.547619437096e-03 8.195312816388e-04 0.0 
0.0 0.0 0.0 
1.810896824662e-03 1.471977284778e-03 0.0 
1.471977284778e-03 -1.351311865963e-03 0.0 
0.0 0.0 0.0 
7.113447464735e-05 6.228991053020e-03 0.0 
6.228991053020e-03 1.313709338881e-03 0.0 
0.0 0.0 0.0 
-4.005898739018e-03 2.122886898694e-03 0.0 
2.122886898694e-03 5.816343033825e-03 0.0 
0.0 0.0 0.0 
-1.068745392447e-03 4.335745663704e-03 0.0 
4.335745663704e-03 2.364430240216e-03 0.0 
0.0 0.0 0.0 
1.904754778951e-03 2.001281942880e-03 0.0 
2.001281942880e-03 -7.776828007302e-04 0.0 
0.0 0.0 0.0 
-1.126546698966e-03 6.020579077370e-03 0.0 
6.020579077370e-03 3.917683218403e-03 0.0 
0.0 0.0 0.0 
-1.535018804987e-03 5.066084583092e-03 0.0 
5.066084583092e-03 2.792795560979e-03 0.0 
0.0 0.0 0.0 
-1.416866190046e-03 4.851220168842e-03 0.0 
4.851220168842e-03 3.176900709323e-03 0.0 
0.0 0.0 0.0 
1.670165526226e-03 4.667104747885e-03 0.0 
4.667104747885e-03 -2.754925911025e-04 0.0 
0.0 0.0 0.0 
5.375774467442e-04 4.922285200415e-03 0.0 
4.922285200415e-03 6.431032458472e-04 0.0 
0.0 0.0 0.0 
-4.106383010413e-03 3.150777484577e-03 0.0 
3.150777484577e-03 5.903868899908e-03 0.0 
0.0 0.0 0.0 
-2.983177572463e-03 5.209327065126e-03 0.0 
5.209327065126e-03 5.908213736422e-03 0.0 
0.0 0.0 0.0 
3.955466407659e-03 2.197107868421e-03 0.0 
2.197107868421e-03 -3.189453874770e-03 0.0 
0.0 0.0 0.0 
3.491037543842e-03 -2.529410965518e-04 0.0 
-2.529410965518e-04 -2.877063197432e-03 0.0 
0.0 0.0 0.0 
-1.594247761196e-03 6.410065240788e-03 0.0 
6.410065240788e-03 5.048358733692e-03 0.0 
0.0 0.0 0.0 
3.315112677232e-03 2.924162704961e-03 0.0 
2.924162704961e-03 -1.985847919260e-03 0.0 
0.0 0.0 0.0 
-3.190943931609e-03 1.442033681445e-04 0.0 
1.442033681445e-04 5.367201526018e-03 0.0 
0.0 0.0 0.0 
4.205654536656e-03 3.612315040785e-05 0.0 
3.612315040785e-05 -3.779743074651e-03 0.0 
0.0 0.0 0.0 
3.998474963844e-03 2.005676633397e-03 0.0 
2.005676633397e-03 -3.139335085769e-03 0.0 
0.0 0.0 0.0 
-2.336085264115e-03 3.274543668839e-03 0.0 
3.274543668839e-03 3.716082320772e-03 0.0 
0.0 0.0 0.0 
3.237811680838e-03 2.693168493021e-03 0.0 
2.693168493021e-03 -1.955440038303e-03 0.0 
0.0 0.0 0.0 
-1.298646929650e-03 5.575575293723e-03 0.0 
5.575575293723e-03 2.970526913183e-03 0.0 
0.0 0.0 0.0 
3.842641399867e-03 2.772404677955e-03 0.0 
2.772404677955e-03 -3.248386719279e-03 0.0 
0.0 0.0 0.0 
3.225111852761e-03 8.388415010250e-04 0.0 
8.388415010250e-04 -2.761957354841e-03 0.0 
0.0 0.0 0.0 
6.249337297624e-04 3.820663236095e-03 0.0 
3.820663236095e-03 4.318901377096e-04 0.0 
0.0 0.0 0.0 
-2.660364493609e-04 5.998700762882e-03 0.0 
5.998700762882e-03 3.226793833766e-03 0.0 
0.0 0.0 0.0 
4.317680531182e-03 6.835013462249e-04 0.0 
6.835013462249e-04 -3.562558979651e-03 0.0 
0.0 0.0 0.0 
3.686971238185e-03 1.362907349392e-04 0.0 
1.362907349392e-04 -3.473697612989e-03 0.0 
0.0 0.0 0.0 
1.531040775485e-03 2.842451747535e-03 0.0 
2.842451747535e-03 -1.731788536048e-04 0.0 
0.0 0.0 0.0 
2.687108975336e-03 2.865409913947e-03 0.0 
2.865409913947e-03 -1.293573761780e-03 0.0 
0.0 0.0 0.0 
-1.313649490503e-03 4.336344579140e-03 0.0 
4.336344579140e-03 2.572937647668e-03 0.0 
0.0 0.0 0.0 
5.334597440099e-05 4.989165592592e-03 0.0 
4.989165592592e-03 1.516749060354e-03 0.0 
0.0 0.0 0.0 
6.078792114435e-04 5.004153890471e-03 0.0 
5.004153890471e-03 1.711209273418e-03 0.0 
0.0 0.0 0.0 
-8.889895097591e-04 5.970521730962e-03 0.0 
5.970521730962e-03 3.128615415226e-03 0.0 
0.0 0.0 0.0 
5.373733100618e-04 2.552922016214e-03 0.0 
2.552922016214e-03 2.737823615060e-04 0.0 
0.0 0.0 0.0 
1.085214191147e-03 2.774986580883e-03 0.0 
2.774986580883e-03 -3.321721344244e-04 0.0 
0.0 0.0 0.0 
-1.226745820129e-03 4.055641653976e-03 0.0 
4.055641653976e-03 2.632987574795e-03 0.0 
0.0 0.0 0.0 
-2.682609129340e-03 3.183860166340e-03 0.0 
3.183860166340e-03 4.158064205137e-03 0.0 
0.0 0.0 0.0 
3.412615113828e-03 8.566570704251e-04 0.0 
8.566570704251e-04 -3.121495749213e-03 0.0 
0.0 0.0 0.0 
1.926142483132e-03 4.517360660126e-03 0.0 
4.517360660126e-03 -3.072883275601e-04 0.0 
0.0 0.0 0.0 
3.998686509719e-03 1.219735353449e-03 0.0 
1.219735353449e-03 -3.115128551688e-03 0.0 
0.0 0.0 0.0 
4.092555380849e-03 1.496291079107e-03 0.0 
1.496291079107e-03 -3.296224829122e-03 0.0 
0.0 0.0 0.0 
6.064808622652e-04 4.967092500660e-03 0.0 
4.967092500660e-03 9.133347509394e-04 0.0 
0.0 0.0 0.0 
3.693138696368e-03 2.105026479067e-03 0.0 
2.105026479067e-03 -3.207772179053e-03 0.0 
0.0 0.0 0.0 
2.425644397965e-03 1.692775802974e-04 0.0 
1.692775802974e-04 -2.207061104925e-03 0.0 
0.0 0.0 0.0 
-1.685966320991e-03 3.600197788489e-03 0.0 
3.600197788489e-03 3.216301874128e-03 0.0 
0.0 0.0 0.0 
4.122695638332e-03 4.305765406884e-04 0.0 
4.305765406884e-04 -3.522044030726e-03 0.0 
0.0 0.0 0.0 
2.153395695846e-03 4.398789293085e-03 0.0 
4.398789293085e-03 -8.321870731391e-04 0.0 
0.0 0.0 0.0 
-8.728176747844e-04 5.270119495496e-03 0.0 
5.270119495496e-03 2.185252643612e-03 0.0 
0.0 0.0 0.0 
2.306085119538e-03 4.339721837583e-03 0.0 
4.339721837583e-03 -8.673284414309e-04 0.0 
0.0 0.0 0.0 
-7.392203388334e-05 6.264025957159e-03 0.0 
6.264025957159e-03 1.458059630921e-03 0.0 
0.0 0.0 0.0 
-2.553400055800e-04 6.036794588747e-03 0.0 
6.036794588747e-03 1.703964672977e-03 0.0 
0.0 0.0 0.0 
-8.743112065422e-04 5.278432821836e-03 0.0 
5.278432821836e-03 2.177729831977e-03 0.0 
0.0 0.0 0.0 
3.067254373357e-03 9.959737357853e-04 0.0 
9.959737357853e-04 -2.751838254737e-03 0.0 
0.0 0.0 0.0 
-2.420587105052e-03 2.710605884511e-03 0.0 
2.710605884511e-03 4.029885678299e-03 0.0 
0.0 0.0 0.0 
2.855391731370e-03 2.423227867269e-03 0.0 
2.423227867269e-03 -1.577742875104e-03 0.0 
0.0 0.0 0.0 
4.105497581942e-03 1.720360916741e-03 0.0 
1.720360916741e-03 -3.394887936476e-03 0.0 
0.0 0.0 0.0 
3.645325560992e-03 4.405944603835e-04 0.0 
4.405944603835e-04 -2.766153357381e-03 0.0 
0.0 0.0 0.0 
1.097763700065e-03 5.011558639753e-03 0.0 
5.011558639753e-03 9.351463718408e-04 0.0 
0.0 0.0 0.0 
-4.861486340025e-03 1.745835755849e-03 0.0 
1.745835755849e-03 8.240737908288e-03 0.0 
0.0 0.0 0.0 
-3.810486671490e-03 1.707134157039e-03 0.0 
1.707134157039e-03 5.855150914619e-03 0.0 
0.0 0.0 0.0 
8.422593428483e-04 1.895301097330e-03 0.0 
1.895301097330e-03 -1.524789349363e-04 0.0 
0.0 0.0 0.0 
-5.161800897975e-04 4.541813335679e-03 0.0 
4.541813335679e-03 1.873080663628e-03 0.0 
0.0 0.0 0.0 
-2.854478408255e-03 4.445303034639e-03 0.0 
4.445303034639e-03 4.330933017894e-03 0.0 
0.0 0.0 0.0 
-1.440337977593e-03 4.620555287117e-03 0.0 
4.620555287117e-03 2.540679813985e-03 0.0 
0.0 0.0 0.0 
4.062186658670e-03 6.264052208419e-04 0.0 
6.264052208419e-04 -3.100133997145e-03 0.0 
0.0 0.0 0.0 
2.928553367673e-03 -3.856560747126e-04 0.0 
-3.856560747126e-04 -1.928803167011e-03 0.0 
0.0 0.0 0.0 
3.320018503344e-03 3.324459953495e-03 0.0 
3.324459953495e-03 -2.585974418811e-03 0.0 
0.0 0.0 0.0 
1.946157428097e-03 4.349991974290e-03 0.0 
4.349991974290e-03 -7.470730886723e-04 0.0 
0.0 0.0 0.0 
3.074682580440e-03 3.455694821843e-03 0.0 
3.455694821843e-03 -2.137949888163e-03 0.0 
0.0 0.0 0.0 
1.274493933532e-03 7.484084184866e-04 0.0 
7.484084184866e-04 -6.882097843803e-04 0.0 
0.0 0.0 0.0 
-2.727077472476e-03 1.894244517624e-04 0.0 
1.894244517624e-04 4.824196284736e-03 0.0 
0.0 0.0 0.0 
3.456988826151e-03 -2.643863539541e-04 0.0 
-2.643863539541e-04 -2.846707395549e-03 0.0 
0.0 0.0 0.0 
3.868093732930e-03 2.315100200293e-03 0.0 
2.315100200293e-03 -2.717198416734e-03 0.0 
0.0 0.0 0.0 
0.0 1.800519826374e-03 0.0 
1.800519826374e-03 2.862171114020e-04 0.0 
0.0 0.0 0.0 
3.365020872015e-03 3.278353070426e-03 0.0 
3.278353070426e-03 -2.673787601346e-03 0.0 
0.0 0.0 0.0 
-3.515342407003e-03 4.910957109221e-03 0.0 
4.910957109221e-03 5.946670862554e-03 0.0 
0.0 0.0 0.0 
3.847397305155e-03 -2.130739805976e-05 0.0 
-2.130739805976e-05 -2.738053253700e-03 0.0 
0.0 0.0 0.0 
1.362504212097e-03 4.786933059042e-03 0.0 
4.786933059042e-03 -2.904862686373e-04 0.0 
0.0 0.0 0.0 
3.422265351611e-03 3.073249346808e-03 0.0 
3.073249346808e-03 -2.551129964110e-03 0.0 
0.0 0.0 0.0 
-1.846557014420e-03 4.578084194688e-03 0.0 
4.578084194688e-03 3.561127756003e-03 0.0 
0.0 0.0 0.0 
2.992422079355e-04 6.010844885499e-03 0.0 
6.010844885499e-03 1.059246785692e-03 0.0 
0.0 0.0 0.0 
-1.767182592259e-03 5.911369316683e-03 0.0 
5.911369316683e-03 3.932043324959e-03 0.0 
0.0 0.0 0.0 
-4.907064086576e-04 4.901418156530e-03 0.0 
4.901418156530e-03 2.088361159690e-03 0.0 
0.0 0.0 0.0 
2.581369428715e-03 1.657439160789e-04 0.0 
1.657439160789e-04 -2.207404180809e-03 0.0 
0.0 0.0 0.0 
-2.211340356013e-03 3.208086688459e-03 0.0 
3.208086688459e-03 3.741828760315e-03 0.0 
0.0 0.0 0.0 
2.845439638410e-03 9.520660310489e-04 0.0 
9.520660310489e-04 -2.382796587584e-03 0.0 
0.0 0.0 0.0 
4.037992152912e-04 5.784101965996e-03 0.0 
5.784101965996e-03 9.376507563512e-04 0.0 
0.0 0.0 0.0 
0.0 6.202343720952e-03 0.0 
6.202343720952e-03 1.364841625541e-03 0.0 
0.0 0.0 0.0 
0.0 5.685676811533e-03 0.0 
5.685676811533e-03 1.981205404953e-03 0.0 
0.0 0.0 0.0 
0.0 6.075457932901e-03 0.0 
6.075457932901e-03 1.684602566576e-03 0.0 
0.0 0.0 0.0 
-1.824191877583e-03 4.392533811861e-03 0.0 
4.392533811861e-03 2.956025495488e-03 0.0 
0.0 0.0 0.0 
-2.345192584093e-03 3.279449194035e-03 0.0 
3.279449194035e-03 3.733092675757e-03 0.0 
0.0 0.0 0.0 
-5.042227332811e-04 4.704742116706e-03 0.0 
4.704742116706e-03 1.953681839242e-03 0.0 
0.0 0.0 0.0 
2.186153393709e-03 4.501275988369e-03 0.0 
4.501275988369e-03 -8.865759603597e-04 0.0 
0.0 0.0 0.0 
1.901733090338e-03 4.663649238432e-03 0.0 
4.663649238432e-03 -3.256262657194e-04 0.0 
0.0 0.0 0.0 
2.355722412150e-03 1.027312033053e-04 0.0 
1.027312033053e-04 -2.140883813108e-03 0.0 
0.0 0.0 0.0 
-1.884322436924e-03 3.920706547592e-03 0.0 
3.920706547592e-03 3.169959141983e-03 0.0 
0.0 0.0 0.0 
5.231473290483e-04 5.224605339341e-03 0.0 
5.224605339341e-03 7.173597941572e-04 0.0 
0.0 0.0 0.0 
-2.040122229269e-03 3.059919679173e-03 0.0 
3.059919679173e-03 3.618290463389e-03 0.0 
0.0 0.0 0.0 
3.667654458114e-03 3.152307519367e-03 0.0 
3.152307519367e-03 -2.988303330125e-03 0.0 
0.0 0.0 0.0 
-2.238534161601e-03 3.273154827154e-03 0.0 
3.273154827154e-03 3.590112728971e-03 0.0 
0.0 0.0 0.0 
1.946018645391e-03 4.489048930759e-03 0.0 
4.489048930759e-03 -9.437079396911e-04 0.0 
0.0 0.0 0.0 
2.166653741098e-03 4.252757542074e-03 0.0 
4.252757542074e-03 -1.291834804954e-03 0.0 
0.0 0.0 0.0 
1.130621040678e-03 5.130269477586e-03 0.0 
5.130269477586e-03 9.226244128406e-04 0.0 
0.0 0.0 0.0 
3.700360633146e-03 1.435638866450e-03 0.0 
1.435638866450e-03 -2.515585432107e-03 0.0 
0.0 0.0 0.0 
-5.928441953643e-04 3.340843585782e-03 0.0 
3.340843585782e-03 2.713174586690e-03 0.0 
0.0 0.0 0.0 
2.651428079081e-03 4.139314483673e-03 0.0 
4.139314483673e-03 -1.378537860949e-03 0.0 
0.0 0.0 0.0 
1.002854056797e-03 5.031049188662e-03 0.0 
5.031049188662e-03 -1.320117823679e-04 0.0 
0.0 0.0 0.0 
2.493014809680e-03 8.336554014403e-05 0.0 
8.336554014403e-05 -2.138751933398e-03 0.0 
0.0 0.0 0.0 
4.056963452153e-03 -1.459152789548e-04 0.0 
-1.459152789548e-04 -3.612133699065e-03 0.0 
0.0 0.0 0.0 
4.151134041439e-04 1.777674802687e-03 0.0 
1.777674802687e-03 -1.075924970906e-04 0.0 
0.0 0.0 0.0 
3.659955217355e-03 2.808085274879e-03 0.0 
2.808085274879e-03 -2.489607568566e-03 0.0 
0.0 0.0 0.0 
0.0 6.160870455994e-03 0.0 
6.160870455994e-03 1.256886436711e-03 0.0 
0.0 0.0 0.0 
-4.802793085399e-04 4.922770665538e-03 0.0 
4.922770665538e-03 2.170575757690e-03 0.0 
0.0 0.0 0.0 
-2.364159249368e-06 4.752405645004e-03 0.0 
4.752405645004e-03 9.377019802288e-04 0.0 
0.0 0.0 0.0 
2.935998014241e-03 -2.623657814750e-04 0.0 
-2.623657814750e-04 -1.559703358774e-03 0.0 
0.0 0.0 0.0 
0.0 5.859993346511e-03 0.0 
5.859993346511e-03 9.852753794284e-04 0.0 
0.0 0.0 0.0 
5.029636519756e-04 2.300962371481e-03 0.0 
2.300962371481e-03 -1.811038328158e-04 0.0 
0.0 0.0 0.0 
4.252555827389e-03 -4.934119682573e-05 0.0 
-4.934119682573e-05 -3.627796723474e-03 0.0 
0.0 0.0 0.0 
3.605183136292e-03 2.948334536614e-03 0.0 
2.948334536614e-03 -2.964311805363e-03 0.0 
0.0 0.0 0.0 
5.427471185937e-04 3.457917218922e-03 0.0 
3.457917218922e-03 3.953686561269e-04 0.0 
0.0 0.0 0.0 
2.825741536300e-03 -8.225763036575e-05 0.0 
-8.225763036575e-05 -1.236076059329e-03 0.0 
0.0 0.0 0.0 
2.417374699267e-03 4.254442501798e-03 0.0 
4.254442501798e-03 -1.358713398927e-03 0.0 
0.0 0.0 0.0 
-5.234498596736e-04 4.674859110977e-03 0.0 
4.674859110977e-03 1.488489300524e-03 0.0 
0.0 0.0 0.0 
5.498335114771e-04 4.741479341891e-03 0.0 
4.741479341891e-03 3.698694202001e-04 0.0 
0.0 0.0 0.0 
-4.404284597010e-04 4.990105013133e-03 0.0 
4.990105013133e-03 1.519042163793e-03 0.0 
0.0 0.0 0.0 
3.664953922407e-03 1.952258894709e-03 0.0 
1.952258894709e-03 -2.432818128953e-03 0.0 
0.0 0.0 0.0 
0.0 5.353784500793e-03 0.0 
5.353784500793e-03 7.497848963360e-04 0.0 
0.0 0.0 0.0 
4.129073311789e-03 1.935467542769e-03 0.0 
1.935467542769e-03 -3.468303708718e-03 0.0 
0.0 0.0 0.0 
2.927729552699e-03 -2.762648840841e-04 0.0 
-2.762648840841e-04 -2.077261931427e-03 0.0 
0.0 0.0 0.0 
2.956110299870e-04 5.177028400496e-04 0.0 
5.177028400496e-04 1.879611920874e-04 0.0 
0.0 0.0 0.0 
2.823373231716e-03 -2.180814299300e-04 0.0 
-2.180814299300e-04 -1.572582020181e-03 0.0 
0.0 0.0 0.0 
-9.842213308398e-05 5.817616177121e-03 0.0 
5.817616177121e-03 2.334143010403e-03 0.0 
0.0 0.0 0.0 
3.326843507292e-03 -4.319916942680e-04 0.0 
-4.319916942680e-04 -2.414895689834e-03 0.0 
0.0 0.0 0.0 
-2.258749346595e-03 6.288064421243e-03 0.0 
6.288064421243e-03 5.066453935848e-03 0.0 
0.0 0.0 0.0 
5.002389472468e-04 2.189817194947e-03 0.0 
2.189817194947e-03 2.511297726353e-04 0.0 
0.0 0.0 0.0 
0.0 4.712947608489e-03 0.0 
4.712947608489e-03 5.964543797126e-04 0.0 
0.0 0.0 0.0 
-1.917544614199e-03 4.740391560085e-03 0.0 
4.740391560085e-03 3.194699788764e-03 0.0 
0.0 0.0 0.0 
3.035180966873e-03 -4.753833073681e-04 0.0 
-4.753833073681e-04 -1.924000423706e-03 0.0 
0.0 0.0 0.0 
2.802139711529e-03 -2.047730201061e-04 0.0 
-2.047730201061e-04 -1.815839866563e-03 0.0 
0.0 0.0 0.0 
3.036899710316e-03 -4.743950190831e-04 0.0 
-4.743950190831e-04 -2.256778026425e-03 0.0 
0.0 0.0 0.0 
9.536451712955e-04 7.594818109584e-04 0.0 
7.594818109584e-04 -5.649677440770e-04 0.0 
0.0 0.0 0.0 
-5.417811507525e-03 1.944455576740e-03 0.0 
1.944455576740e-03 8.203082464048e-03 0.0 
0.0 0.0 0.0 
-3.466536036362e-03 4.759582189714e-03 0.0 
4.759582189714e-03 6.356112131355e-03 0.0 
0.0 0.0 0.0 
0.0 4.004176464851e-03 0.0 
4.004176464851e-03 4.494558712553e-04 0.0 
0.0 0.0 0.0 
-4.859183724480e-03 1.278344616999e-03 0.0 
1.278344616999e-03 7.677624185962e-03 0.0 
0.0 0.0 0.0 
-4.741097996507e-04 5.530054291643e-03 0.0 
5.530054291643e-03 1.953757610192e-03 0.0 
0.0 0.0 0.0 
2.187300660062e-03 4.519732099961e-03 0.0 
4.519732099961e-03 -1.365726099413e-03 0.0 
0.0 0.0 0.0 
-3.725401468897e-03 1.384335078053e-03 0.0 
1.384335078053e-03 5.816044890609e-03 0.0 
0.0 0.0 0.0 
2.478666115912e-03 3.326569471235e-03 0.0 
3.326569471235e-03 -9.670297517209e-04 0.0 
0.0 0.0 0.0 
3.610783995755e-03 3.110507125025e-03 0.0 
3.110507125025e-03 -2.986980690464e-03 0.0 
0.0 0.0 0.0 
3.379492257526e-03 5.163180542175e-04 0.0 
5.163180542175e-04 -2.436709144163e-03 0.0 
0.0 0.0 0.0 
0.0 3.286067802677e-03 0.0 
3.286067802677e-03 3.778497488658e-04 0.0 
0.0 0.0 0.0 
0.0 6.162065095253e-03 0.0 
6.162065095253e-03 1.544762680509e-03 0.0 
0.0 0.0 0.0 
0.0 5.926254687552e-03 0.0 
5.926254687552e-03 1.733193985942e-03 0.0 
0.0 0.0 0.0 
2.687087055525e-03 8.920863123822e-04 0.0 
8.920863123822e-04 -2.373027227668e-03 0.0 
0.0 0.0 0.0 
2.301747109611e-03 5.933120510319e-05 0.0 
5.933120510319e-05 -2.086351844972e-03 0.0 
0.0 0.0 0.0 
2.411849897399e-03 4.088946149296e-03 0.0 
4.088946149296e-03 -1.268167673476e-03 0.0 
0.0 0.0 0.0 
2.451072048799e-03 8.404669126985e-04 0.0 
8.404669126985e-04 -2.013952949081e-03 0.0 
0.0 0.0 0.0 
0.0 2.698576899986e-03 0.0 
2.698576899986e-03 3.301805144631e-04 0.0 
0.0 0.0 0.0 
3.759048984079e-03 1.986466580091e-03 0.0 
1.986466580091e-03 -2.667597268917e-03 0.0 
0.0 0.0 0.0 
4.499292977354e-03 4.812716195771e-04 0.0 
4.812716195771e-04 -3.899289378312e-03 0.0 
0.0 0.0 0.0 
4.526670078805e-03 4.398482465957e-04 0.0 
4.398482465957e-04 -3.983262864506e-03 0.0 
0.0 0.0 0.0 
-3.368563235502e-03 1.195004562539e-03 0.0 
1.195004562539e-03 5.291719049282e-03 0.0 
0.0 0.0 0.0 
3.136499116969e-04 1.435277323253e-03 0.0 
1.435277323253e-03 2.819060039336e-04 0.0 
0.0 0.0 0.0 
2.652195886916e-03 -4.404834438557e-04 0.0 
-4.404834438557e-04 -1.795985455129e-03 0.0 
0.0 0.0 0.0 
0.0 2.064446969184e-03 0.0 
2.064446969184e-03 2.727506399276e-04 0.0 
0.0 0.0 0.0 
4.410634239017e-03 1.588413770522e-04 0.0 
1.588413770522e-04 -3.856058390822e-03 0.0 
0.0 0.0 0.0 
0.0 6.044862705705e-03 0.0 
6.044862705705e-03 1.140878928643e-03 0.0 
0.0 0.0 0.0 
-7.255184060293e-04 4.742814762017e-03 0.0 
4.742814762017e-03 1.948795544690e-03 0.0 
0.0 0.0 0.0 
2.521573185968e-03 -7.591189216855e-05 0.0 
-7.591189216855e-05 -1.125335009085e-03 0.0 
0.0 0.0 0.0 
2.643866352036e-03 3.960671998054e-03 0.0 
3.960671998054e-03 -1.781592979715e-03 0.0 
0.0 0.0 0.0 
-2.452907697179e-03 2.784464491892e-03 0.0 
2.784464491892e-03 3.863571204416e-03 0.0 
0.0 0.0 0.0 
0.0 5.624103885962e-03 0.0 
5.624103885962e-03 8.892465860335e-04 0.0 
0.0 0.0 0.0 
-1.406803670906e-03 4.487978365448e-03 0.0 
4.487978365448e-03 2.941661424537e-03 0.0 
0.0 0.0 0.0 
2.390736088818e-03 4.371356228976e-03 0.0 
4.371356228976e-03 -1.620675476325e-03 0.0 
0.0 0.0 0.0 
3.150583643711e-03 1.028601296491e-03 0.0 
1.028601296491e-03 -2.033811267083e-03 0.0 
0.0 0.0 0.0 
9.613924280767e-04 2.259542737973e-03 0.0 
2.259542737973e-03 -5.621434647142e-04 0.0 
0.0 0.0 0.0 
4.325607716591e-03 1.603423984017e-04 0.0 
1.603423984017e-04 -3.822802835643e-03 0.0 
0.0 0.0 0.0 
4.324442017826e-03 2.751930120198e-04 0.0 
2.751930120198e-04 -3.960372964154e-03 0.0 
0.0 0.0 0.0 
2.237330767072e-03 -3.485159818790e-04 0.0 
-3.485159818790e-04 -1.290479297639e-03 0.0 
0.0 0.0 0.0 
0.0 5.041831901708e-03 0.0 
5.041831901708e-03 6.850730367907e-04 0.0 
0.0 0.0 0.0 
3.775993450911e-03 8.997214955457e-04 0.0 
8.997214955457e-04 -2.841975534016e-03 0.0 
0.0 0.0 0.0 
1.670492364739e-03 1.581482008286e-03 0.0 
1.581482008286e-03 -1.198145006806e-03 0.0 
0.0 0.0 0.0 
-3.985924588181e-03 1.244980527066e-03 0.0 
1.244980527066e-03 6.004830259819e-03 0.0 
0.0 0.0 0.0 
3.778983438634e-03 -1.574866318908e-04 0.0 
-1.574866318908e-04 -3.466182564435e-03 0.0 
0.0 0.0 0.0 
4.321998759309e-03 3.232219169079e-04 0.0 
3.232219169079e-04 -3.875572215372e-03 0.0 
0.0 0.0 0.0 
-9.836538084778e-04 4.699586950612e-03 0.0 
4.699586950612e-03 2.527904758117e-03 0.0 
0.0 0.0 0.0 
0.0 3.623674394228e-03 0.0 
3.623674394228e-03 4.155992335535e-04 0.0 
0.0 0.0 0.0 
2.129056594247e-03 2.937356785648e-05 0.0 
2.937356785648e-05 -1.803802838507e-03 0.0 
0.0 0.0 0.0 
2.280382738218e-03 1.172036628337e-03 0.0 
1.172036628337e-03 -1.911325019647e-03 0.0 
0.0 0.0 0.0 
1.465911504971e-03 4.389390437493e-03 0.0 
4.389390437493e-03 -6.792643589535e-04 0.0 
0.0 0.0 0.0 
3.431534514501e-03 1.633951742107e-03 0.0 
1.633951742107e-03 -3.017848364730e-03 0.0 
0.0 0.0 0.0 
4.388103088746e-03 6.038751010675e-04 0.0 
6.038751010675e-04 -3.931158198553e-03 0.0 
0.0 0.0 0.0 
2.685404042650e-03 1.102653993227e-03 0.0 
1.102653993227e-03 -2.343897211994e-03 0.0 
0.0 0.0 0.0 
1.451551195045e-03 4.544201733033e-03 0.0 
4.544201733033e-03 -1.920799367547e-04 0.0 
0.0 0.0 0.0 
1.061597667376e-03 4.590844850678e-03 0.0 
4.590844850678e-03 4.618340693274e-05 0.0 
0.0 0.0 0.0 
3.180056580043e-03 3.183069533318e-03 0.0 
3.183069533318e-03 -2.555544444496e-03 0.0 
0.0 0.0 0.0 
1.973411075186e-03 4.215719577025e-03 0.0 
4.215719577025e-03 -1.199843609493e-03 0.0 
0.0 0.0 0.0 
2.925989008242e-03 1.714634470354e-04 0.0 
1.714634470354e-04 -2.537462191057e-03 0.0 
0.0 0.0 0.0 
3.607070001604e-03 2.515275178178e-03 0.0 
2.515275178178e-03 -2.447201933926e-03 0.0 
0.0 0.0 0.0 
2.415285987313e-03 2.675031968243e-05 0.0 
2.675031968243e-05 -2.082101886954e-03 0.0 
0.0 0.0 0.0 
2.303765593030e-03 4.403991816456e-03 0.0 
4.403991816456e-03 -1.346291089643e-03 0.0 
0.0 0.0 0.0 
4.138082761343e-03 2.624508955416e-03 0.0 
2.624508955416e-03 -3.550428816221e-03 0.0 
0.0 0.0 0.0 
4.513826047647e-04 1.927855488932e-03 0.0 
1.927855488932e-03 2.794262260739e-04 0.0 
0.0 0.0 0.0 
-2.202088862612e-03 3.245267143527e-03 0.0 
3.245267143527e-03 3.540214510676e-03 0.0 
0.0 0.0 0.0 
3.787786312799e-03 -2.108740322214e-04 0.0 
-2.108740322214e-04 -3.277549511154e-03 0.0 
0.0 0.0 0.0 
0.0 2.361590579533e-03 0.0 
2.361590579533e-03 2.281763814949e-04 0.0 
0.0 0.0 0.0 
9.610852754736e-04 2.173374277166e-03 0.0 
2.173374277166e-03 -1.869783556827e-04 0.0 
0.0 0.0 0.0 
3.217635371841e-03 3.416021376605e-03 0.0 
3.416021376605e-03 -2.557885709090e-03 0.0 
0.0 0.0 0.0 
2.658829049305e-03 -3.374504250565e-04 0.0 
-3.374504250565e-04 -1.431327470740e-03 0.0 
0.0 0.0 0.0 
3.312042104824e-04 1.259773480368e-03 0.0 
1.259773480368e-03 3.022288611159e-04 0.0 
0.0 0.0 0.0 
-1.790455087802e-03 3.720451673989e-03 0.0 
3.720451673989e-03 3.162453850053e-03 0.0 
0.0 0.0 0.0 
4.252177552601e-03 -3.247240185803e-05 0.0 
-3.247240185803e-05 -3.695556392428e-03 0.0 
0.0 0.0 0.0 
0.0 1.549795064138e-03 0.0 
1.549795064138e-03 2.586839641572e-04 0.0 
0.0 0.0 0.0 
2.311333749887e-03 9.741131006482e-04 0.0 
9.741131006482e-04 -1.969681844196e-03 0.0 
0.0 0.0 0.0 
1.384979826938e-03 4.986822641973e-03 0.0 
4.986822641973e-03 2.399149972785e-04 0.0 
0.0 0.0 0.0 
-3.398149530863e-03 4.452206034630e-03 0.0 
4.452206034630e-03 5.240638370221e-03 0.0 
0.0 0.0 0.0 
4.075296052692e-03 2.606554445737e-03 0.0 
2.606554445737e-03 -3.466782963228e-03 0.0 
0.0 0.0 0.0 
3.040981496810e-03 7.785572969490e-04 0.0 
7.785572969490e-04 -2.752268734138e-03 0.0 
0.0 0.0 0.0 
3.371064343813e-03 1.928001910346e-03 0.0 
1.928001910346e-03 -2.915846686215e-03 0.0 
0.0 0.0 0.0 
-3.023334752939e-03 3.368859946172e-03 0.0 
3.368859946172e-03 4.659325222368e-03 0.0 
0.0 0.0 0.0 
1.660568920239e-04 5.537269104502e-03 0.0 
5.537269104502e-03 1.543227829814e-03 0.0 
0.0 0.0 0.0 
2.919208809696e-03 3.476006314276e-03 0.0 
3.476006314276e-03 -2.261227852603e-03 0.0 
0.0 0.0 0.0 
-2.712696112632e-03 1.543300116518e-04 0.0 
1.543300116518e-04 4.416243364554e-03 0.0 
0.0 0.0 0.0 
2.747783138548e-03 1.752904435729e-04 0.0 
1.752904435729e-04 -2.537032311445e-03 0.0 
0.0 0.0 0.0 
3.425024744172e-03 2.859864919209e-03 0.0 
2.859864919209e-03 -2.834205922173e-03 0.0 
0.0 0.0 0.0 
4.097428160492e-03 7.613760769694e-05 0.0 
7.613760769694e-05 -3.811172978519e-03 0.0 
0.0 0.0 0.0 
1.434544062726e-03 3.102654470054e-04 0.0 
3.102654470054e-04 -1.067124323995e-03 0.0 
0.0 0.0 0.0 
2.238901669709e-03 -8.647878954261e-05 0.0 
-8.647878954261e-05 -1.011051432595e-03 0.0 
0.0 0.0 0.0 
3.375810840818e-03 3.037483556026e-03 0.0 
3.037483556026e-03 -2.137321345885e-03 0.0 
0.0 0.0 0.0 
4.198156429132e-03 5.871866835990e-05 0.0 
5.871866835990e-05 -3.840785806436e-03 0.0 
0.0 0.0 0.0 
2.254525827449e-03 1.502760076466e-04 0.0 
1.502760076466e-04 -1.892728008263e-03 0.0 
0.0 0.0 0.0 
2.810769864532e-03 3.736236117323e-03 0.0 
3.736236117323e-03 -2.136391284371e-03 0.0 
0.0 0.0 0.0 
2.434317801623e-03 1.035954599835e-03 0.0 
1.035954599835e-03 -1.979461627710e-03 0.0 
0.0 0.0 0.0 
-3.615895439377e-03 1.021536363378e-03 0.0 
1.021536363378e-03 5.340135699350e-03 0.0 
0.0 0.0 0.0 
4.043317708826e-03 -1.172093082401e-04 0.0 
-1.172093082401e-04 -3.681125944375e-03 0.0 
0.0 0.0 0.0 
0.0 1.358112601248e-03 0.0 
1.358112601248e-03 3.053240511879e-04 0.0 
0.0 0.0 0.0 
-7.029620934251e-05 4.689564345520e-03 0.0 
4.689564345520e-03 1.484349470793e-03 0.0 
0.0 0.0 0.0 
1.940032743962e-03 1.304281650484e-04 0.0 
1.304281650484e-04 -1.592364703267e-03 0.0 
0.0 0.0 0.0 
4.341025215864e-04 4.722117845353e-03 0.0 
4.722117845353e-03 9.398036493329e-04 0.0 
0.0 0.0 0.0 
2.120074668966e-03 1.608874472983e-04 0.0 
1.608874472983e-04 -1.893562782071e-03 0.0 
0.0 0.0 0.0 
2.558055375307e-03 -8.920511824297e-05 0.0 
-8.920511824297e-05 -1.122201342409e-03 0.0 
0.0 0.0 0.0 
-3.065878247756e-03 4.147832428667e-03 0.0 
4.147832428667e-03 5.109934559213e-03 0.0 
0.0 0.0 0.0 
1.737751936010e-03 -1.485678932248e-05 0.0 
-1.485678932248e-05 -1.479946624084e-03 0.0 
0.0 0.0 0.0 
4.043034897391e-03 -2.118344069211e-05 0.0 
-2.118344069211e-05 -1.764053316160e-03 0.0 
0.0 0.0 0.0 
1.892045787230e-03 7.245285453075e-05 0.0 
7.245285453075e-05 -1.564591807471e-03 0.0 
0.0 0.0 0.0 
1.997246118305e-03 1.082230843831e-03 0.0 
1.082230843831e-03 -1.556316521552e-03 0.0 
0.0 0.0 0.0 
-1.657271930565e-03 7.153750752881e-04 0.0 
7.153750752881e-04 3.419390350055e-03 0.0 
0.0 0.0 0.0 
3.769828661297e-03 1.795004952012e-03 0.0 
1.795004952012e-03 -3.338185530056e-03 0.0 
0.0 0.0 0.0 
3.566124422947e-03 1.748851298528e-03 0.0 
1.748851298528e-03 -3.038594553517e-03 0.0 
0.0 0.0 0.0 
-3.755257034747e-03 5.182956051955e-03 0.0 
5.182956051955e-03 7.273023105821e-03 0.0 
0.0 0.0 0.0 
-4.840952614842e-03 8.811406341190e-04 0.0 
8.811406341190e-04 8.955691990178e-03 0.0 
0.0 0.0 0.0 
-7.328057889501e-04 4.192578558027e-03 0.0 
4.192578558027e-03 2.669474826873e-03 0.0 
0.0 0.0 0.0 
9.435281940382e-04 4.669563421321e-03 0.0 
4.669563421321e-03 3.775653635714e-04 0.0 
0.0 0.0 0.0 
4.341693156175e-03 -2.073831670199e-05 0.0 
-2.073831670199e-05 -1.893965770209e-03 0.0 
0.0 0.0 0.0 
3.418511815450e-03 -1.485192560997e-04 0.0 
-1.485192560997e-04 -2.631930586326e-03 0.0 
0.0 0.0 0.0 
2.761723174634e-03 -2.942980773987e-04 0.0 
-2.942980773987e-04 -1.480308712000e-03 0.0 
0.0 0.0 0.0 
3.476319362640e-03 -1.546679592877e-04 0.0 
-1.546679592877e-04 -3.195089064099e-03 0.0 
0.0 0.0 0.0 
5.846038561530e-04 5.057893879196e-03 0.0 
5.057893879196e-03 5.502013288268e-04 0.0 
0.0 0.0 0.0 
-1.809565497599e-03 7.092592005507e-04 0.0 
7.092592005507e-04 3.420667872262e-03 0.0 
0.0 0.0 0.0 
1.049211524424e-03 6.815654221640e-04 0.0 
6.815654221640e-04 -6.566822742442e-04 0.0 
0.0 0.0 0.0 
3.039490644969e-03 -4.496284120551e-05 0.0 
-4.496284120551e-05 -2.838477500748e-03 0.0 
0.0 0.0 0.0 
1.348247041453e-03 2.989617560053e-04 0.0 
2.989617560053e-04 -1.064745245016e-03 0.0 
0.0 0.0 0.0 
1.394020464176e-03 1.470991762241e-03 0.0 
1.470991762241e-03 -9.303020403202e-04 0.0 
0.0 0.0 0.0 
3.439525395229e-03 4.202675951579e-06 0.0 
4.202675951579e-06 -2.629757469945e-03 0.0 
0.0 0.0 0.0 
1.744672606735e-03 4.805400931277e-05 0.0 
4.805400931277e-05 -1.481078662134e-03 0.0 
0.0 0.0 0.0 
2.151028816092e-03 -6.950442987297e-06 0.0 
-6.950442987297e-06 -1.923593636769e-03 0.0 
0.0 0.0 0.0 
2.580518747712e-04 1.076018728019e-03 0.0 
1.076018728019e-03 3.025016860971e-04 0.0 
0.0 0.0 0.0 
0.0 1.156539938650e-03 0.0 
1.156539938650e-03 2.991393958578e-04 0.0 
0.0 0.0 0.0 
1.499662625348e-03 5.170639268616e-05 0.0 
5.170639268616e-05 -1.249787549679e-03 0.0 
0.0 0.0 0.0 
1.832641280193e-03 1.412584054139e-04 0.0 
1.412584054139e-04 -1.593392263884e-03 0.0 
0.0 0.0 0.0 
2.829005880382e-03 7.479000414062e-04 0.0 
7.479000414062e-04 -2.386799891460e-03 0.0 
0.0 0.0 0.0 
1.302794710863e-03 1.639580384599e-03 0.0 
1.639580384599e-03 -7.998013869914e-04 0.0 
0.0 0.0 0.0 
3.391490407139e-03 -1.969641892274e-04 0.0 
-1.969641892274e-04 -2.713494137919e-03 0.0 
0.0 0.0 0.0 
1.504964941245e-03 1.273453554765e-03 0.0 
1.273453554765e-03 -1.061053925851e-03 0.0 
0.0 0.0 0.0 
4.000687534774e-03 9.317713874081e-06 0.0 
9.317713874081e-06 -2.459632420858e-03 0.0 
0.0 0.0 0.0 
2.067037067191e-03 1.033930718752e-04 0.0 
1.033930718752e-04 -1.844746838026e-03 0.0 
0.0 0.0 0.0 
2.178417549352e-03 2.407312728647e-04 0.0 
2.407312728647e-04 -1.941593356363e-03 0.0 
0.0 0.0 0.0 
4.017421774488e-03 1.054331645021e-05 0.0 
1.054331645021e-05 -2.112635946015e-03 0.0 
0.0 0.0 0.0 
1.622072919659e-03 -1.632643596123e-05 0.0 
-1.632643596123e-05 -1.358116518245e-03 0.0 
0.0 0.0 0.0 
-1.784320981917e-03 3.182020946075e-03 0.0 
3.182020946075e-03 3.548057147207e-03 0.0 
0.0 0.0 0.0 
4.501978156450e-03 -4.920981760588e-06 0.0 
-4.920981760588e-06 -1.958827761029e-03 0.0 
0.0 0.0 0.0 
-5.403815167986e-03 1.611522658602e-03 0.0 
1.611522658602e-03 1.023592592486e-02 0.0 
0.0 0.0 0.0 
-6.575778065475e-03 1.513382794644e-03 0.0 
1.513382794644e-03 1.065639970438e-02 0.0 
0.0 0.0 0.0 
3.269639403246e-03 2.210554051964e-03 0.0 
2.210554051964e-03 -2.758920356950e-03 0.0 
0.0 0.0 0.0 
2.164527432072e-03 5.358286412892e-05 0.0 
5.358286412892e-05 -1.921366315789e-03 0.0 
0.0 0.0 0.0 
4.160004053272e-03 -2.547653567080e-05 0.0 
-2.547653567080e-05 -3.661407048026e-03 0.0 
0.0 0.0 0.0 
2.946037910143e-03 1.667334654283e-03 0.0 
1.667334654283e-03 -1.776499945991e-03 0.0 
0.0 0.0 0.0 
5.820647849641e-04 5.717343765543e-04 0.0 
5.717343765543e-04 -1.911169242617e-04 0.0 
0.0 0.0 0.0 
5.209451285662e-04 5.133993651592e-03 0.0 
5.133993651592e-03 2.599786204323e-04 0.0 
0.0 0.0 0.0 
-2.334904332734e-03 1.008510530408e-03 0.0 
1.008510530408e-03 3.938573814201e-03 0.0 
0.0 0.0 0.0 
2.349599210218e-03 3.118018995494e-03 0.0 
3.118018995494e-03 -9.403376196062e-04 0.0 
0.0 0.0 0.0 
3.391496559489e-03 -2.779829701467e-04 0.0 
-2.779829701467e-04 -2.281760599054e-03 0.0 
0.0 0.0 0.0 
-4.584102773976e-04 5.995537023953e-03 0.0 
5.995537023953e-03 3.123578051012e-03 0.0 
0.0 0.0 0.0 
-3.986110763393e-03 3.037129690100e-04 0.0 
3.037129690100e-04 7.224504228001e-03 0.0 
0.0 0.0 0.0 
-3.944409970056e-03 1.854099567292e-04 0.0 
1.854099567292e-04 7.070676297181e-03 0.0 
0.0 0.0 0.0 
4.231923813154e-03 -1.503194611991e-05 0.0 
-1.503194611991e-05 -1.856955767312e-03 0.0 
0.0 0.0 0.0 
4.000721937542e-03 2.235516853682e-05 0.0 
2.235516853682e-05 -2.101233010886e-03 0.0 
0.0 0.0 0.0 
3.731558524323e-03 -1.710190624362e-05 0.0 
-1.710190624362e-05 -2.382476109565e-03 0.0 
0.0 0.0 0.0 
3.208862843059e-03 -1.483978169576e-04 0.0 
-1.483978169576e-04 -2.794000209768e-03 0.0 
0.0 0.0 0.0 
4.345192992984e-03 2.437459778516e-06 0.0 
2.437459778516e-06 -2.212568504812e-03 0.0 
0.0 0.0 0.0 
1.389958398635e-03 -1.694576000677e-05 0.0 
-1.694576000677e-05 -1.116372766566e-03 0.0 
0.0 0.0 0.0 
2.030591664133e-03 -1.231839466567e-04 0.0 
-1.231839466567e-04 -8.902593639487e-04 0.0 
0.0 0.0 0.0 
3.073935988577e-03 -1.056064253916e-04 0.0 
-1.056064253916e-04 -2.735097418348e-03 0.0 
0.0 0.0 0.0 
-2.230539754899e-03 2.264112113269e-04 0.0 
2.264112113269e-04 4.096449921232e-03 0.0 
0.0 0.0 0.0 
-4.939423074922e-03 5.021271983395e-04 0.0 
5.021271983395e-04 8.540172447973e-03 0.0 
0.0 0.0 0.0 
3.862164272210e-04 5.211808074666e-03 0.0 
5.211808074666e-03 7.701661159025e-04 0.0 
0.0 0.0 0.0 
2.047592979363e-03 9.000107716994e-04 0.0 
9.000107716994e-04 -1.620575075052e-03 0.0 
0.0 0.0 0.0 
-2.449169036943e-03 1.989577852832e-04 0.0 
1.989577852832e-04 4.351910170015e-03 0.0 
0.0 0.0 0.0 
1.993778923957e-03 -3.687098536503e-05 0.0 
-3.687098536503e-05 -1.746288055227e-03 0.0 
0.0 0.0 0.0 
4.047091366645e-03 1.048562485388e-06 0.0 
1.048562485388e-06 -2.465823252706e-03 0.0 
0.0 0.0 0.0 
0.0 2.815020248652e-03 0.0 
2.815020248652e-03 2.303367901235e-03 0.0 
0.0 0.0 0.0 
-7.149194255004e-04 3.008673888240e-03 0.0 
3.008673888240e-03 2.324494669565e-03 0.0 
0.0 0.0 0.0 
-3.736186396742e-03 9.797583145945e-04 0.0 
9.797583145945e-04 6.024311661990e-03 0.0 
0.0 0.0 0.0 
-4.235336695101e-03 3.125815198636e-04 0.0 
3.125815198636e-04 7.671737460901e-03 0.0 
0.0 0.0 0.0 
2.045218162481e-03 8.995412121084e-05 0.0 
8.995412121084e-05 -1.784866327840e-03 0.0 
0.0 0.0 0.0 
-7.008938741323e-04 2.118409188968e-03 0.0 
2.118409188968e-03 2.349131526879e-03 0.0 
0.0 0.0 0.0 
3.180553720663e-03 -9.027469857651e-05 0.0 
-9.027469857651e-05 -2.913285415914e-03 0.0 
0.0 0.0 0.0 
-5.538778445786e-03 7.753377451767e-04 0.0 
7.753377451767e-04 9.303704389990e-03 0.0 
0.0 0.0 0.0 
-4.623983524613e-03 5.615913937392e-04 0.0 
5.615913937392e-04 8.358086982004e-03 0.0 
0.0 0.0 0.0 
-1.239194392599e-03 6.283075305166e-03 0.0 
6.283075305166e-03 4.123876938748e-03 0.0 
0.0 0.0 0.0 
0.0 5.405763779533e-03 0.0 
5.405763779533e-03 1.922439201646e-03 0.0 
0.0 0.0 0.0 
-8.030051442387e-04 2.607981961971e-03 0.0 
2.607981961971e-03 2.331461002925e-03 0.0 
0.0 0.0 0.0 
4.301085405756e-03 1.895941363651e-05 0.0 
1.895941363651e-05 -2.198095830296e-03 0.0 
0.0 0.0 0.0 
4.301111401233e-03 -8.839618447041e-06 0.0 
-8.839618447041e-06 -1.896404750222e-03 0.0 
0.0 0.0 0.0 
3.441896675854e-03 -2.085019271069e-04 0.0 
-2.085019271069e-04 -2.480851160069e-03 0.0 
0.0 0.0 0.0 
2.320705029629e-03 2.449593579565e-04 0.0 
2.449593579565e-04 -1.943009656185e-03 0.0 
0.0 0.0 0.0 
2.490875424637e-04 6.068558281008e-05 0.0 
6.068558281008e-05 1.415197888739e-04 0.0 
0.0 0.0 0.0 
1.341802168112e-03 -1.267891344748e-04 0.0 
-1.267891344748e-04 -6.111968172875e-04 0.0 
0.0 0.0 0.0 
-1.617337209023e-03 1.505449077620e-04 0.0 
1.505449077620e-04 3.369275181744e-03 0.0 
0.0 0.0 0.0 
2.241950412274e-03 -1.278692113602e-04 0.0 
-1.278692113602e-04 -9.799103226423e-04 0.0 
0.0 0.0 0.0 
3.102605930512e-03 1.847355163057e-03 0.0 
1.847355163057e-03 -2.577325874220e-03 0.0 
0.0 0.0 0.0 
1.989891238712e-03 -1.099686287771e-04 0.0 
-1.099686287771e-04 -9.166825872766e-04 0.0 
0.0 0.0 0.0 
1.674909197394e-03 -1.350728570717e-04 0.0 
-1.350728570717e-04 -7.776275742405e-04 0.0 
0.0 0.0 0.0 
3.180886022188e-03 1.567522112878e-03 0.0 
1.567522112878e-03 -2.675346285270e-03 0.0 
0.0 0.0 0.0 
3.349956306211e-04 2.135469519794e-04 0.0 
2.135469519794e-04 4.693871098649e-05 0.0 
0.0 0.0 0.0 
-2.445607430954e-03 1.959690336548e-04 0.0 
1.959690336548e-04 4.145613056172e-03 0.0 
0.0 0.0 0.0 
-9.227298443681e-05 5.643458951631e-03 0.0 
5.643458951631e-03 2.259808804314e-03 0.0 
0.0 0.0 0.0 
4.046915506814e-03 -1.787608467029e-05 0.0 
-1.787608467029e-05 -2.139640296532e-03 0.0 
0.0 0.0 0.0 
1.119591684867e-03 2.496941389151e-04 0.0 
2.496941389151e-04 -8.252976897957e-04 0.0 
0.0 0.0 0.0 
0.0 8.916815360261e-04 0.0 
8.916815360261e-04 2.272557080572e-03 0.0 
0.0 0.0 0.0 
-6.592176125879e-04 1.053660792284e-03 0.0 
1.053660792284e-03 2.253981720966e-03 0.0 
0.0 0.0 0.0 
-4.479327802647e-03 1.959912286273e-04 0.0 
1.959912286273e-04 7.887811970722e-03 0.0 
0.0 0.0 0.0 
2.981565648560e-03 2.104153437742e-03 0.0 
2.104153437742e-03 -2.453194288135e-03 0.0 
0.0 0.0 0.0 
0.0 2.336658431125e-03 0.0 
2.336658431125e-03 2.361441005803e-03 0.0 
0.0 0.0 0.0 
2.502474104731e-03 4.302438847124e-03 0.0 
4.302438847124e-03 -1.611255938550e-03 0.0 
0.0 0.0 0.0 
4.135136664057e-03 -3.141482562461e-05 0.0 
-3.141482562461e-05 -2.502994745104e-03 0.0 
0.0 0.0 0.0 
4.456484651919e-03 -3.781646185579e-05 0.0 
-3.781646185579e-05 -2.252781034978e-03 0.0 
0.0 0.0 0.0 
4.132342847090e-03 -3.087199930037e-05 0.0 
-3.087199930037e-05 -2.154262952298e-03 0.0 
0.0 0.0 0.0 
1.734350251676e-03 -3.579901351706e-05 0.0 
-3.579901351706e-05 -1.477383905057e-03 0.0 
0.0 0.0 0.0 
9.810740470662e-05 1.863425806305e-04 0.0 
1.863425806305e-04 3.742833128555e-04 0.0 
0.0 0.0 0.0 
-8.353868889721e-04 6.303925609644e-05 0.0 
6.303925609644e-05 2.565480233207e-03 0.0 
0.0 0.0 0.0 
4.457592796002e-03 -6.279577934415e-06 0.0 
-6.279577934415e-06 -1.964567226320e-03 0.0 
0.0 0.0 0.0 
1.361553042880e-03 4.425347678577e-05 0.0 
4.425347678577e-05 -1.116461014099e-03 0.0 
0.0 0.0 0.0 
0.0 1.551991373849e-04 0.0 
1.551991373849e-04 3.781061264920e-04 0.0 
0.0 0.0 0.0 
1.135958990719e-04 2.434558032611e-04 0.0 
2.434558032611e-04 3.722422432235e-04 0.0 
0.0 0.0 0.0 
2.757139580341e-04 9.225623757447e-04 0.0 
9.225623757447e-04 3.082203745137e-04 0.0 
0.0 0.0 0.0 
-1.894866053195e-03 9.313582188995e-05 0.0 
9.313582188995e-05 3.644462853244e-03 0.0 
0.0 0.0 0.0 
-1.447434543603e-03 4.484210993170e-05 0.0 
4.484210993170e-05 3.175554757347e-03 0.0 
0.0 0.0 0.0 
0.0 2.115740127409e-04 0.0 
2.115740127409e-04 3.717504875727e-04 0.0 
0.0 0.0 0.0 
0.0 2.758038895932e-04 0.0 
2.758038895932e-04 3.727551902108e-04 0.0 
0.0 0.0 0.0 
-1.609346330496e-03 1.377353909515e-04 0.0 
1.377353909515e-04 3.368820884923e-03 0.0 
0.0 0.0 0.0 
4.680966829222e-03 -8.142677520254e-06 0.0 
-8.142677520254e-06 -2.029313820268e-03 0.0 
0.0 0.0 0.0 
-3.720334896239e-03 4.530679707267e-05 0.0 
4.530679707267e-05 6.738874983863e-03 0.0 
0.0 0.0 0.0 
-4.211998592371e-03 1.433918526709e-04 0.0 
1.433918526709e-04 7.485386844978e-03 0.0 
0.0 0.0 0.0 
4.345097964256e-03 -9.489056838077e-06 0.0 
-9.489056838077e-06 -1.913440148542e-03 0.0 
0.0 0.0 0.0 
0.0 5.250471195903e-04 0.0 
5.250471195903e-04 3.661458411792e-04 0.0 
0.0 0.0 0.0 
2.196666731522e-04 7.767456052449e-04 0.0 
7.767456052449e-04 3.208651561026e-04 0.0 
0.0 0.0 0.0 
0.0 7.249172763653e-04 0.0 
7.249172763653e-04 3.303148477449e-04 0.0 
0.0 0.0 0.0 
4.680435644443e-03 -5.915427448051e-08 0.0 
-5.915427448051e-08 -2.034107471369e-03 0.0 
0.0 0.0 0.0 
4.602982163185e-03 -8.169023880083e-06 0.0 
-8.169023880083e-06 -1.997823707656e-03 0.0 
0.0 0.0 0.0 
0.0 1.004316118736e-03 0.0 
1.004316118736e-03 3.057239361455e-04 0.0 
0.0 0.0 0.0 
0.0 8.514954542096e-04 0.0 
8.514954542096e-04 3.105172382598e-04 0.0 
0.0 0.0 0.0 
-2.009231316395e-03 3.610608639312e-05 0.0 
3.610608639312e-05 3.770348221480e-03 0.0 
0.0 0.0 0.0 
-3.466255581152e-03 -2.582122233144e-05 0.0 
-2.582122233144e-05 6.272217344773e-03 0.0 
0.0 0.0 0.0 
-1.780770242231e-03 3.562409773300e-05 0.0 
3.562409773300e-05 3.519884459575e-03 0.0 
0.0 0.0 0.0 
-2.560689056083e-03 2.501592641179e-05 0.0 
2.501592641179e-05 4.420518478284e-03 0.0 
0.0 0.0 0.0 
-3.373411269767e-03 8.999434491328e-05 0.0 
8.999434491328e-05 6.131571868633e-03 0.0 
0.0 0.0 0.0 
4.081943402664e-03 -3.583761766542e-05 0.0 
-3.583761766542e-05 -1.787349768082e-03 0.0 
0.0 0.0 0.0 
3.407009465082e-03 -1.729865977478e-05 0.0 
-1.729865977478e-05 -1.498073757084e-03 0.0 
0.0 0.0 0.0 
3.159948798386e-03 -3.000577898747e-05 0.0 
-3.000577898747e-05 -1.400009434575e-03 0.0 
0.0 0.0 0.0 
2.838833206474e-03 -6.096039618288e-05 0.0 
-6.096039618288e-05 -1.265614249023e-03 0.0 
0.0 0.0 0.0 
1.234346590306e-03 -1.743710240226e-05 0.0 
-1.743710240226e-05 -9.705640109592e-04 0.0 
0.0 0.0 0.0 
1.482692715476e-03 -3.087126977125e-05 0.0 
-3.087126977125e-05 -1.222812603095e-03 0.0 
0.0 0.0 0.0 
3.293748533630e-03 -3.083745206838e-05 0.0 
-3.083745206838e-05 -1.444686862516e-03 0.0 
0.0 0.0 0.0 
7.916594376718e-04 6.012026722197e-06 0.0 
6.012026722197e-06 -4.828575363578e-04 0.0 
0.0 0.0 0.0 
3.018433208377e-03 -5.572416385313e-05 0.0 
-5.572416385313e-05 -1.321635434754e-03 0.0 
0.0 0.0 0.0 
0.0 4.592186924907e-03 0.0 
4.592186924907e-03 2.203063337547e-03 0.0 
0.0 0.0 0.0 
0.0 1.927414057926e-03 0.0 
1.927414057926e-03 2.337207068814e-03 0.0 
0.0 0.0 0.0 
0.0 3.253252818724e-03 0.0 
3.253252818724e-03 2.347141687031e-03 0.0 
0.0 0.0 0.0 
3.509723011401e-03 -8.675645910253e-05 0.0 
-8.675645910253e-05 -2.721963216627e-03 0.0 
0.0 0.0 0.0 
2.323349653346e-03 -4.399103704507e-05 0.0 
-4.399103704507e-05 -2.083985806786e-03 0.0 
0.0 0.0 0.0 
0.0 1.513473477631e-03 0.0 
1.513473477631e-03 2.272331056257e-03 0.0 
0.0 0.0 0.0 
4.247245747877e-04 7.779313127955e-06 0.0 
7.779313127955e-06 -6.103489946396e-05 0.0 
0.0 0.0 0.0 
0.0 1.273600780910e-03 0.0 
1.273600780910e-03 2.221931939350e-03 0.0 
0.0 0.0 0.0 
3.047052625678e-04 1.041277738994e-05 0.0 
1.041277738994e-05 7.980406519548e-05 0.0 
0.0 0.0 0.0 
1.767911776436e-04 1.798063334698e-05 0.0 
1.798063334698e-05 2.337139219453e-04 0.0 
0.0 0.0 0.0 
1.608983253572e-03 3.838136736299e-05 0.0 
3.838136736299e-05 -1.358136881892e-03 0.0 
0.0 0.0 0.0 
-7.294428459208e-04 1.682533702614e-03 0.0 
1.682533702614e-03 2.303306938345e-03 0.0 
0.0 0.0 0.0 
-4.225612055387e-04 1.400447466647e-03 0.0 
1.400447466647e-03 2.253246933433e-03 0.0 
0.0 0.0 0.0 
3.592724032002e-04 4.034662179903e-05 0.0 
4.034662179903e-05 -1.520600290128e-06 0.0 
0.0 0.0 0.0 
2.393501007520e-04 4.468534527120e-05 0.0 
4.468534527120e-05 1.424332611382e-04 0.0 
0.0 0.0 0.0 
7.735683977474e-04 1.603660761031e-04 0.0 
1.603660761031e-04 -4.598318154462e-04 0.0 
0.0 0.0 0.0 
2.401990445796e-03 -1.029754287700e-04 0.0 
-1.029754287700e-04 -1.046229651669e-03 0.0 
0.0 0.0 0.0 
2.028390221420e-03 6.766222878785e-05 0.0 
6.766222878785e-05 -1.808706303015e-03 0.0 
0.0 0.0 0.0 
4.229827714451e-03 2.919434822882e-05 0.0 
2.919434822882e-05 -2.160062006197e-03 0.0 
0.0 0.0 0.0 
5.641585966205e-04 5.598596756545e-04 0.0 
5.598596756545e-04 -1.898696081658e-04 0.0 
0.0 0.0 0.0 
2.185267303122e-03 8.079438681526e-05 0.0 
8.079438681526e-05 -1.842002639110e-03 0.0 
0.0 0.0 0.0 
5.910683851897e-04 2.509957287189e-04 0.0 
2.509957287189e-04 -2.329461212840e-04 0.0 
0.0 0.0 0.0 
3.302822073190e-03 -1.129323092999e-04 0.0 
-1.129323092999e-04 -2.890088663125e-03 0.0 
0.0 0.0 0.0 
3.593322334388e-03 -4.424843949370e-05 0.0 
-4.424843949370e-05 -2.282635312216e-03 0.0 
0.0 0.0 0.0 
4.260172719688e-04 2.497580411875e-04 0.0 
2.497580411875e-04 -5.857566254819e-05 0.0 
0.0 0.0 0.0 
1.809841091451e-03 9.483428081682e-05 0.0 
9.483428081682e-05 -1.567655666933e-03 0.0 
0.0 0.0 0.0 
1.851609753376e-03 -1.247738249521e-05 0.0 
-1.247738249521e-05 -1.613716558809e-03 0.0 
0.0 0.0 0.0 
5.783041826646e-04 2.378461500428e-04 0.0 
2.378461500428e-04 -2.307782883797e-04 0.0 
0.0 0.0 0.0 
-1.172634275314e-03 2.987442206350e-04 0.0 
2.987442206350e-04 2.889267812325e-03 0.0 
0.0 0.0 0.0 
1.864977985665e-03 3.821576315115e-05 0.0 
3.821576315115e-05 -1.612758601379e-03 0.0 
0.0 0.0 0.0 
1.860792317200e-03 1.197224783575e-03 0.0 
1.197224783575e-03 -1.460912083530e-03 0.0 
0.0 0.0 0.0 
1.742683228622e-03 4.883892578969e-04 0.0 
4.883892578969e-04 -1.349655733525e-03 0.0 
0.0 0.0 0.0 
8.049841329132e-04 1.696076884266e-04 0.0 
1.696076884266e-04 -4.614431969447e-04 0.0 
0.0 0.0 0.0 
6.772811784119e-04 1.259077811988e-04 0.0 
1.259077811988e-04 -3.336140059178e-04 0.0 
0.0 0.0 0.0 
4.326619209851e-03 1.781200237621e-03 0.0 
1.781200237621e-03 -3.687180475510e-03 0.0 
0.0 0.0 0.0 
1.406258968761e-04 5.783636116487e-03 0.0 
5.783636116487e-03 2.337767529423e-03 0.0 
0.0 0.0 0.0 
2.683418040921e-03 3.799932293738e-03 0.0 
3.799932293738e-03 -1.676717778882e-03 0.0 
0.0 0.0 0.0 
1.182601641759e-03 2.594371978070e-04 0.0 
2.594371978070e-04 -8.271732608975e-04 0.0 
0.0 0.0 0.0 
4.761467531365e-04 1.850075355021e-04 0.0 
1.850075355021e-04 -1.169796255265e-04 0.0 
0.0 0.0 0.0 
5.777663001665e-04 9.029068428508e-05 0.0 
9.029068428508e-05 -2.319833001624e-04 0.0 
0.0 0.0 0.0 
3.611693434604e-03 -2.568138187766e-04 0.0 
-2.568138187766e-04 -3.071771379439e-03 0.0 
0.0 0.0 0.0 
-1.397343933535e-03 5.441395027177e-04 0.0 
5.441395027177e-04 3.129926825194e-03 0.0 
0.0 0.0 0.0 
-1.665165651655e-03 5.470526013235e-04 0.0 
5.470526013235e-04 3.429439875023e-03 0.0 
0.0 0.0 0.0 
-3.080166762420e-03 2.501975677843e-04 0.0 
2.501975677843e-04 5.279060399352e-03 0.0 
0.0 0.0 0.0 
1.170151294515e-03 3.499309381441e-04 0.0 
3.499309381441e-04 -8.030492723868e-04 0.0 
0.0 0.0 0.0 
9.705501598936e-04 2.101290335547e-04 0.0 
2.101290335547e-04 -6.228153220214e-04 0.0 
0.0 0.0 0.0 
-1.266118947366e-03 3.248724143923e-04 0.0 
3.248724143923e-04 2.883760003549e-03 0.0 
0.0 0.0 0.0 
-1.447660189489e-03 4.188835438685e-04 0.0 
4.188835438685e-04 3.181646369601e-03 0.0 
0.0 0.0 0.0 
1.960255224389e-03 5.389500865781e-04 0.0 
5.389500865781e-04 -1.668071964508e-03 0.0 
0.0 0.0 0.0 
3.346472294619e-04 1.886074749168e-04 0.0 
1.886074749168e-04 4.918162486511e-05 0.0 
0.0 0.0 0.0 
-2.154364751826e-03 9.855683668490e-04 0.0 
9.855683668490e-04 3.940649934052e-03 0.0 
0.0 0.0 0.0 
5.517637485382e-04 8.343122262061e-05 0.0 
8.343122262061e-05 -2.319897488309e-04 0.0 
0.0 0.0 0.0 
4.092779653282e-04 4.598451526163e-04 0.0 
4.598451526163e-04 -1.701528881448e-05 0.0 
0.0 0.0 0.0 
-1.479173998968e-03 6.145989424442e-04 0.0 
6.145989424442e-04 3.118819144703e-03 0.0 
0.0 0.0 0.0 
-2.345454038007e-03 5.300429628385e-04 0.0 
5.300429628385e-04 4.033952609575e-03 0.0 
0.0 0.0 0.0 
1.917663337418e-03 1.017355490330e-03 0.0 
1.017355490330e-03 -1.546046750480e-03 0.0 
0.0 0.0 0.0 
2.925490432207e-03 -3.328910919345e-05 0.0 
-3.328910919345e-05 -2.577287449340e-03 0.0 
0.0 0.0 0.0 
3.670183587579e-03 -2.845588904267e-04 0.0 
-2.845588904267e-04 -3.055849897184e-03 0.0 
0.0 0.0 0.0 
3.440184678871e-03 -1.489512175700e-04 0.0 
-1.489512175700e-04 -2.299557945136e-03 0.0 
0.0 0.0 0.0 
2.400942374774e-03 -3.117503074776e-04 0.0 
-3.117503074776e-04 -1.374090951573e-03 0.0 
0.0 0.0 0.0 
-1.515849102888e-03 4.670524407391e-04 0.0 
4.670524407391e-04 3.177122106801e-03 0.0 
0.0 0.0 0.0 
3.863532262081e-04 1.519526014713e-04 0.0 
1.519526014713e-04 -2.295029900123e-05 0.0 
0.0 0.0 0.0 
2.556547570707e-03 -2.704652231272e-04 0.0 
-2.704652231272e-04 -1.436883774078e-03 0.0 
0.0 0.0 0.0 
-1.459063563868e-03 4.265726947408e-03 0.0 
4.265726947408e-03 2.748355751865e-03 0.0 
0.0 0.0 0.0 
-3.081691740832e-03 3.740125372811e-04 0.0 
3.740125372811e-04 5.156235453474e-03 0.0 
0.0 0.0 0.0 
7.073120619343e-04 2.900766384864e-04 0.0 
2.900766384864e-04 -3.674490022186e-04 0.0 
0.0 0.0 0.0 
5.315213209360e-04 1.431456182819e-04 0.0 
1.431456182819e-04 -1.812531429988e-04 0.0 
0.0 0.0 0.0 
3.994316090010e-03 -4.482976065459e-06 0.0 
-4.482976065459e-06 -3.544527175222e-03 0.0 
0.0 0.0 0.0 
5.224822607175e-04 1.318306209931e-04 0.0 
1.318306209931e-04 -1.795793668427e-04 0.0 
0.0 0.0 0.0 
-3.198517240548e-03 3.384270074229e-04 0.0 
3.384270074229e-04 5.281033905443e-03 0.0 
0.0 0.0 0.0 
3.191071768253e-03 3.029719411078e-03 0.0 
3.029719411078e-03 -2.533042012060e-03 0.0 
0.0 0.0 0.0 
2.889939953807e-04 4.184627932963e-04 0.0 
4.184627932963e-04 1.131189577643e-04 0.0 
0.0 0.0 0.0 
2.965004991768e-03 -4.573152415486e-05 0.0 
-4.573152415486e-05 -2.622205411638e-03 0.0 
0.0 0.0 0.0 
5.045710558440e-04 6.391585943379e-04 0.0 
6.391585943379e-04 -9.951337523006e-05 0.0 
0.0 0.0 0.0 
-2.087519489619e-03 4.608617932765e-04 0.0 
4.608617932765e-04 3.685849482326e-03 0.0 
0.0 0.0 0.0 
2.772459671850e-03 -3.920600750315e-05 0.0 
-3.920600750315e-05 -2.500898138772e-03 0.0 
0.0 0.0 0.0 
3.617034514436e-03 -2.170416335095e-04 0.0 
-2.170416335095e-04 -3.275882274720e-03 0.0 
0.0 0.0 0.0 
1.192368228211e-03 5.192963298537e-05 0.0 
5.192963298537e-05 -8.991137315164e-04 0.0 
0.0 0.0 0.0 
-2.743930080951e-03 6.235489461074e-04 0.0 
6.235489461074e-04 4.594728563308e-03 0.0 
0.0 0.0 0.0 
2.639353923334e-03 -2.530863591238e-05 0.0 
-2.530863591238e-05 -2.325468344543e-03 0.0 
0.0 0.0 0.0 
-1.859555446018e-03 4.303771864093e-04 0.0 
4.303771864093e-04 3.504569263702e-03 0.0 
0.0 0.0 0.0 
-2.381984592455e-03 4.133736452640e-04 0.0 
4.133736452640e-04 4.112967667440e-03 0.0 
0.0 0.0 0.0 
1.636889171752e-03 9.893881984158e-05 0.0 
9.893881984158e-05 -1.291187064343e-03 0.0 
0.0 0.0 0.0 
6.517103561585e-04 1.208329103452e-04 0.0 
1.208329103452e-04 -3.332201339713e-04 0.0 
0.0 0.0 0.0 
6.207686776056e-04 1.730654015996e-04 0.0 
1.730654015996e-04 -2.843838301574e-04 0.0 
0.0 0.0 0.0 
-1.917024214819e-03 4.400068222019e-04 0.0 
4.400068222019e-04 3.687952645013e-03 0.0 
0.0 0.0 0.0 
3.231530923298e-03 4.018626231628e-05 0.0 
4.018626231628e-05 -2.677436661892e-03 0.0 
0.0 0.0 0.0 
1.601835632605e-03 4.524411821687e-05 0.0 
4.524411821687e-05 -1.271285529544e-03 0.0 
0.0 0.0 0.0 
2.124074163656e-03 3.772393352713e-03 0.0 
3.772393352713e-03 -1.439698098184e-03 0.0 
0.0 0.0 0.0 
-2.083387863062e-03 6.070616048313e-04 0.0 
6.070616048313e-04 3.657373166944e-03 0.0 
0.0 0.0 0.0 
1.862038528163e-03 3.824909702890e-05 0.0 
3.824909702890e-05 -1.558484233425e-03 0.0 
0.0 0.0 0.0 
1.637312037453e-03 4.649748084568e-04 0.0 
4.649748084568e-04 -1.345222881626e-03 0.0 
0.0 0.0 0.0 
6.554671037078e-04 7.345940220791e-04 0.0 
7.345940220791e-04 -2.392086075703e-04 0.0 
0.0 0.0 0.0 
-2.224559374527e-03 5.114847464273e-04 0.0 
5.114847464273e-04 4.035705711116e-03 0.0 
0.0 0.0 0.0 
2.683300625250e-03 -3.994067511177e-04 0.0 
-3.994067511177e-04 -1.794757307848e-03 0.0 
0.0 0.0 0.0 
3.578862845707e-03 2.467356804981e-05 0.0 
2.467356804981e-05 -2.330143182280e-03 0.0 
0.0 0.0 0.0 
3.825684677219e-03 3.002290024651e-04 0.0 
3.002290024651e-04 -3.044687607984e-03 0.0 
0.0 0.0 0.0 
4.842122270681e-04 2.056536254972e-04 0.0 
2.056536254972e-04 -1.201431477902e-04 0.0 
0.0 0.0 0.0 
-2.486875220708e-03 6.011043897427e-04 0.0 
6.011043897427e-04 4.312124303067e-03 0.0 
0.0 0.0 0.0 
1.004824149875e-03 5.749629501345e-05 0.0 
5.749629501345e-05 -7.094697519525e-04 0.0 
0.0 0.0 0.0 
-3.016015766423e-03 4.878820688967e-04 0.0 
4.878820688967e-04 4.987641676591e-03 0.0 
0.0 0.0 0.0 
1.366509048940e-03 1.382093881455e-03 0.0 
1.382093881455e-03 -9.172795680700e-04 0.0 
0.0 0.0 0.0 
1.382413054498e-03 8.926849595148e-05 0.0 
8.926849595148e-05 -1.052298771884e-03 0.0 
0.0 0.0 0.0 
6.379117735318e-04 1.892211950015e-04 0.0 
1.892211950015e-04 -2.869587921899e-04 0.0 
0.0 0.0 0.0 
2.966574857206e-03 7.071427413331e-05 0.0 
7.071427413331e-05 -2.594390087301e-03 0.0 
0.0 0.0 0.0 
4.202652307344e-04 4.953365466140e-04 0.0 
4.953365466140e-04 -1.554569857809e-05 0.0 
0.0 0.0 0.0 
1.535268271128e-03 1.200533398700e-04 0.0 
1.200533398700e-04 -1.293882721166e-03 0.0 
0.0 0.0 0.0 
2.849348074467e-03 7.344245471653e-05 0.0 
7.344245471653e-05 -2.518878180945e-03 0.0 
0.0 0.0 0.0 
1.504497387919e-03 7.384814567240e-05 0.0 
7.384814567240e-05 -1.275309823825e-03 0.0 
0.0 0.0 0.0 
2.370373079022e-03 -1.644316946840e-05 0.0 
-1.644316946840e-05 -2.068285289341e-03 0.0 
0.0 0.0 0.0 
2.964892603492e-03 -3.330882085046e-05 0.0 
-3.330882085046e-05 -2.745725120168e-03 0.0 
0.0 0.0 0.0 
1.008504262416e-03 5.497033391031e-05 0.0 
5.497033391031e-05 -7.090156117365e-04 0.0 
0.0 0.0 0.0 
3.723010954806e-03 -6.786751232436e-06 0.0 
-6.786751232436e-06 -1.637974962409e-03 0.0 
0.0 0.0 0.0 
3.435996231962e-03 -3.313027362188e-05 0.0 
-3.313027362188e-05 -1.526016785743e-03 0.0 
0.0 0.0 0.0 
9.253731106078e-04 2.026695593897e-04 0.0 
2.026695593897e-04 -6.214032763623e-04 0.0 
0.0 0.0 0.0 
3.101141105508e-03 6.921266514779e-05 0.0 
6.921266514779e-05 -2.656220047548e-03 0.0 
0.0 0.0 0.0 
1.107488026196e-03 3.313130149928e-04 0.0 
3.313130149928e-04 -7.998197453096e-04 0.0 
0.0 0.0 0.0 
1.349662062215e-03 3.961866284281e-04 0.0 
3.961866284281e-04 -1.051048505843e-03 0.0 
0.0 0.0 0.0 
2.816263118801e-03 8.337589834584e-05 0.0 
8.337589834584e-05 -2.451117615821e-03 0.0 
0.0 0.0 0.0 
4.059631937814e-03 -1.793580909402e-04 0.0 
-1.793580909402e-04 -3.492284201324e-03 0.0 
0.0 0.0 0.0 
-2.083834641219e-03 9.979001480570e-04 0.0 
9.979001480570e-04 3.608945912331e-03 0.0 
0.0 0.0 0.0 
2.721147977995e-03 -9.557417288024e-06 0.0 
-9.557417288024e-06 -1.738014645771e-03 0.0 
0.0 0.0 0.0 
2.112251720765e-03 -1.359439361157e-05 0.0 
-1.359439361157e-05 -1.818266068885e-03 0.0 
0.0 0.0 0.0 
1.234503164311e-03 1.606495052843e-03 0.0 
1.606495052843e-03 -8.026916975172e-04 0.0 
0.0 0.0 0.0 
3.189081320417e-03 -4.091602349520e-05 0.0 
-4.091602349520e-05 -2.615826106837e-03 0.0 
0.0 0.0 0.0 
-2.924254179776e-03 4.916060392565e-04 0.0 
4.916060392565e-04 4.610928991431e-03 0.0 
0.0 0.0 0.0 
-3.226030675404e-03 3.833276040195e-04 0.0 
3.833276040195e-04 5.155635077263e-03 0.0 
0.0 0.0 0.0 
3.378458423660e-03 -1.118121694468e-04 0.0 
-1.118121694468e-04 -2.727766554651e-03 0.0 
0.0 0.0 0.0 
8.867544127211e-04 8.970523007959e-04 0.0 
8.970523007959e-04 -4.831050360535e-04 0.0 
0.0 0.0 0.0 
-2.661574452495e-03 9.577254572580e-04 0.0 
9.577254572580e-04 4.284139336485e-03 0.0 
0.0 0.0 0.0 
3.073777151339e-03 -6.487568037777e-05 0.0 
-6.487568037777e-05 -2.628990093743e-03 0.0 
0.0 0.0 0.0 
-2.095220134444e-03 1.201348356419e-03 0.0 
1.201348356419e-03 3.655920528542e-03 0.0 
0.0 0.0 0.0 
-1.774608806993e-03 1.244506929988e-03 0.0 
1.244506929988e-03 3.647232660509e-03 0.0 
0.0 0.0 0.0 
2.988145453863e-03 2.909137704545e-05 0.0 
2.909137704545e-05 -2.647534066090e-03 0.0 
0.0 0.0 0.0 
2.073461967864e-03 3.639350523215e-03 0.0 
3.639350523215e-03 -5.333307788580e-04 0.0 
0.0 0.0 0.0 
3.132876390049e-03 -5.490386920540e-05 0.0 
-5.490386920540e-05 -2.808126253883e-03 0.0 
0.0 0.0 0.0 
7.448893465043e-04 2.221718661965e-04 0.0 
2.221718661965e-04 -4.191355414618e-04 0.0 
0.0 0.0 0.0 
1.178673024207e-03 7.581502257244e-05 0.0 
7.581502257244e-05 -8.604605083578e-04 0.0 
0.0 0.0 0.0 
-1.496217821375e-03 3.698030717741e-03 0.0 
3.698030717741e-03 3.164132419801e-03 0.0 
0.0 0.0 0.0 
-1.869098398738e-03 9.079634149695e-04 0.0 
9.079634149695e-04 3.618764025128e-03 0.0 
0.0 0.0 0.0 
9.034769928351e-04 2.713652903726e-04 0.0 
2.713652903726e-04 -5.862577988275e-04 0.0 
0.0 0.0 0.0 
9.480260612851e-04 2.868694243004e-04 0.0 
2.868694243004e-04 -5.888924187766e-04 0.0 
0.0 0.0 0.0 
3.313429959467e-03 -1.613388272491e-04 0.0 
-1.613388272491e-04 -2.734919449336e-03 0.0 
0.0 0.0 0.0 
7.741381394699e-04 2.333474024740e-04 0.0 
2.333474024740e-04 -4.210174257913e-04 0.0 
0.0 0.0 0.0 
-2.485521330080e-03 9.063400170687e-04 0.0 
9.063400170687e-04 4.289539453659e-03 0.0 
0.0 0.0 0.0 
1.138818977078e-03 9.894913572131e-05 0.0 
9.894913572131e-05 -8.638051504897e-04 0.0 
0.0 0.0 0.0 
-2.648214533182e-03 5.992074729381e-04 0.0 
5.992074729381e-04 4.312891173726e-03 0.0 
0.0 0.0 0.0 
-2.332657430023e-03 8.452192687247e-04 0.0 
8.452192687247e-04 3.925215846538e-03 0.0 
0.0 0.0 0.0 
4.154021923171e-03 2.619026841585e-03 0.0 
2.619026841585e-03 -3.585009953132e-03 0.0 
0.0 0.0 0.0 
-1.897622333755e-03 7.423466452242e-04 0.0 
7.423466452242e-04 3.639539482098e-03 0.0 
0.0 0.0 0.0 
1.580157364736e-03 -3.328386750011e-07 0.0 
-3.328386750011e-07 -1.255653082522e-03 0.0 
0.0 0.0 0.0 
1.308891276076e-03 1.060385074615e-04 0.0 
1.060385074615e-04 -1.054481106324e-03 0.0 
0.0 0.0 0.0 
2.345033408226e-03 -1.228983752838e-05 0.0 
-1.228983752838e-05 -2.047930625548e-03 0.0 
0.0 0.0 0.0 
3.255423792990e-03 4.203689234574e-05 0.0 
4.203689234574e-05 -3.068676600752e-03 0.0 
0.0 0.0 0.0 
-2.485166423516e-03 7.202566080923e-04 0.0 
7.202566080923e-04 4.303883765747e-03 0.0 
0.0 0.0 0.0 
2.990991317707e-03 5.875849578089e-04 0.0 
5.875849578089e-04 -2.728799803766e-03 0.0 
0.0 0.0 0.0 
2.946904035235e-03 -1.012340484114e-05 0.0 
-1.012340484114e-05 -2.679408240097e-03 0.0 
0.0 0.0 0.0 
3.455946833093e-03 -1.289872902318e-04 0.0 
-1.289872902318e-04 -2.490876226613e-03 0.0 
0.0 0.0 0.0 
-2.667709265016e-03 7.707939230556e-04 0.0 
7.707939230556e-04 4.298607234839e-03 0.0 
0.0 0.0 0.0 
3.007958189839e-03 -9.733236775162e-05 0.0 
-9.733236775162e-05 -2.666263926764e-03 0.0 
0.0 0.0 0.0 
5.132168074893e-04 6.726068617381e-04 0.0 
6.726068617381e-04 -1.028865073317e-04 0.0 
0.0 0.0 0.0 
-2.186867957403e-03 6.309063472457e-04 0.0 
6.309063472457e-04 3.974314937679e-03 0.0 
0.0 0.0 0.0 
7.365989772952e-04 3.104357293095e-04 0.0 
3.104357293095e-04 -3.707073383331e-04 0.0 
0.0 0.0 0.0 
4.481203479234e-04 2.027686590308e-03 0.0 
2.027686590308e-03 -1.690990204668e-04 0.0 
0.0 0.0 0.0 
1.804140808745e-03 6.028092360200e-05 0.0 
6.028092360200e-05 -1.562466408342e-03 0.0 
0.0 0.0 0.0 
3.000493712720e-03 -7.769380995154e-05 0.0 
-7.769380995154e-05 -2.631126232454e-03 0.0 
0.0 0.0 0.0 
3.415144041876e-03 -1.870595826804e-04 0.0 
-1.870595826804e-04 -2.573486768365e-03 0.0 
0.0 0.0 0.0 
1.088025397495e-03 4.263958368933e-04 0.0 
4.263958368933e-04 -7.646078560625e-04 0.0 
0.0 0.0 0.0 
-2.533337129175e-03 4.857766016911e-04 0.0 
4.857766016911e-04 4.350616991353e-03 0.0 
0.0 0.0 0.0 
3.433524644760e-03 -1.515257957197e-04 0.0 
-1.515257957197e-04 -2.284957920110e-03 0.0 
0.0 0.0 0.0 
2.550004412127e-03 2.437465611167e-05 0.0 
2.437465611167e-05 -2.332571933540e-03 0.0 
0.0 0.0 0.0 
3.177813410366e-03 9.005811398853e-05 0.0 
9.005811398853e-05 -2.678093146876e-03 0.0 
0.0 0.0 0.0 
-2.959450902066e-03 6.573041817280e-04 0.0 
6.573041817280e-04 4.591543206748e-03 0.0 
0.0 0.0 0.0 
2.306772481872e-03 3.299267871079e-05 0.0 
3.299267871079e-05 -2.075477597279e-03 0.0 
0.0 0.0 0.0 
1.435279983358e-03 4.158015121748e-04 0.0 
4.158015121748e-04 -1.054692774922e-03 0.0 
0.0 0.0 0.0 
2.270028539015e-03 3.587558853710e-05 0.0 
3.587558853710e-05 -2.052751866314e-03 0.0 
0.0 0.0 0.0 
-1.819475103663e-03 5.946668204787e-04 0.0 
5.946668204787e-04 3.423885988403e-03 0.0 
0.0 0.0 0.0 
2.831667350913e-03 -5.729828175118e-05 0.0 
-5.729828175118e-05 -2.532191904928e-03 0.0 
0.0 0.0 0.0 
1.319535439526e-03 6.267577557148e-04 0.0 
6.267577557148e-04 -9.816363835046e-04 0.0 
0.0 0.0 0.0 
3.558634880231e-03 -2.862616259362e-04 0.0 
-2.862616259362e-04 -3.054898956332e-03 0.0 
0.0 0.0 0.0 
1.341659118399e-03 5.066813437694e-04 0.0 
5.066813437694e-04 -1.026205133479e-03 0.0 
0.0 0.0 0.0 
1.312527756808e-03 9.164390711292e-05 0.0 
9.164390711292e-05 -1.054029288561e-03 0.0 
0.0 0.0 0.0 
9.174649889427e-04 3.757812190303e-04 0.0 
3.757812190303e-04 -5.469522998194e-04 0.0 
0.0 0.0 0.0 
4.551581504558e-03 8.165485169358e-04 0.0 
8.165485169358e-04 -3.961593997656e-03 0.0 
0.0 0.0 0.0 
3.083784404493e-03 -4.220921561684e-05 0.0 
-4.220921561684e-05 -2.643211543655e-03 0.0 
0.0 0.0 0.0 
-2.977417411046e-03 3.825074454246e-04 0.0 
3.825074454246e-04 4.747235243536e-03 0.0 
0.0 0.0 0.0 
2.994996327182e-03 1.732944029115e-03 0.0 
1.732944029115e-03 -2.559724662163e-03 0.0 
0.0 0.0 0.0 
1.923811612828e-03 4.551088739547e-03 0.0 
4.551088739547e-03 -8.523193426807e-04 0.0 
0.0 0.0 0.0 
-2.655931533928e-03 4.852230392772e-04 0.0 
4.852230392772e-04 4.350667863257e-03 0.0 
0.0 0.0 0.0 
3.702800324297e-03 -2.687795877204e-04 0.0 
-2.687795877204e-04 -3.264552607239e-03 0.0 
0.0 0.0 0.0 
-3.059117285068e-03 1.130871735465e-03 0.0 
1.130871735465e-03 4.873167474567e-03 0.0 
0.0 0.0 0.0 
3.281371658022e-03 9.398425279351e-05 0.0 
9.398425279351e-05 -2.670039508701e-03 0.0 
0.0 0.0 0.0 
7.350426651203e-04 6.292658925765e-04 0.0 
6.292658925765e-04 -3.400159967997e-04 0.0 
0.0 0.0 0.0 
2.912960530186e-03 2.012289998928e-03 0.0 
2.012289998928e-03 -2.439034611799e-03 0.0 
0.0 0.0 0.0 
2.945063754832e-03 3.348759993113e-03 0.0 
3.348759993113e-03 -2.243686688421e-03 0.0 
0.0 0.0 0.0 
-1.712850890038e-03 1.257715223419e-03 0.0 
1.257715223419e-03 3.290249799423e-03 0.0 
0.0 0.0 0.0 
2.665866039804e-03 7.013136324067e-04 0.0 
7.013136324067e-04 -2.378866456586e-03 0.0 
0.0 0.0 0.0 
3.216676981791e-03 -9.590171267631e-05 0.0 
-9.590171267631e-05 -2.647581504581e-03 0.0 
0.0 0.0 0.0 
1.964611681669e-03 6.861559653687e-04 0.0 
6.861559653687e-04 -1.649635222349e-03 0.0 
0.0 0.0 0.0 
6.599429420808e-04 8.040072734837e-04 0.0 
8.040072734837e-04 -2.499853674178e-04 0.0 
0.0 0.0 0.0 
3.945172201949e-03 -7.740235482068e-05 0.0 
-7.740235482068e-05 -3.652686211220e-03 0.0 
0.0 0.0 0.0 
8.744909148046e-04 3.524564402797e-04 0.0 
3.524564402797e-04 -5.431475025423e-04 0.0 
0.0 0.0 0.0 
-2.340028420450e-03 6.590258937138e-04 0.0 
6.590258937138e-04 3.971551175686e-03 0.0 
0.0 0.0 0.0 
4.060012628054e-03 -1.931843165276e-04 0.0 
-1.931843165276e-04 -3.426116181985e-03 0.0 
0.0 0.0 0.0 
1.637698701328e-03 5.919400848327e-04 0.0 
5.919400848327e-04 -1.324379319489e-03 0.0 
0.0 0.0 0.0 
-3.498304107353e-03 7.945815926574e-04 0.0 
7.945815926574e-04 5.376572417298e-03 0.0 
0.0 0.0 0.0 
2.671018518930e-03 4.289786879911e-05 0.0 
4.289786879911e-05 -2.401709412801e-03 0.0 
0.0 0.0 0.0 
2.793762804965e-03 -3.545287059067e-06 0.0 
-3.545287059067e-06 -2.591361689025e-03 0.0 
0.0 0.0 0.0 
1.788244656938e-03 4.277445537232e-03 0.0 
4.277445537232e-03 -6.649125700203e-04 0.0 
0.0 0.0 0.0 
1.147550865316e-03 4.524948375913e-04 0.0 
4.524948375913e-04 -7.689763007345e-04 0.0 
0.0 0.0 0.0 
1.519141063431e-03 4.914713644168e-03 0.0 
4.914713644168e-03 2.493905022443e-04 0.0 
0.0 0.0 0.0 
2.247343124331e-03 4.062073175721e-03 0.0 
4.062073175721e-03 -1.178414026687e-03 0.0 
0.0 0.0 0.0 
-2.792601070156e-03 1.014120417981e-03 0.0 
1.014120417981e-03 4.579675329662e-03 0.0 
0.0 0.0 0.0 
-2.747506348247e-03 5.025175851442e-04 0.0 
5.025175851442e-04 4.609067873519e-03 0.0 
0.0 0.0 0.0 
-3.339136103778e-03 9.111894642685e-04 0.0 
9.111894642685e-04 5.353479908187e-03 0.0 
0.0 0.0 0.0 
1.368327575005e-03 4.131768089562e-05 0.0 
4.131768089562e-05 -1.043695387393e-03 0.0 
0.0 0.0 0.0 
1.153173246766e-03 1.037231226120e-03 0.0 
1.037231226120e-03 -7.387324949221e-04 0.0 
0.0 0.0 0.0 
2.318513617484e-03 7.910293370532e-04 0.0 
7.910293370532e-04 -2.005826133479e-03 0.0 
0.0 0.0 0.0 
-3.174077247644e-03 5.397379306407e-04 0.0 
5.397379306407e-04 4.982228333861e-03 0.0 
0.0 0.0 0.0 
-8.291835032046e-04 4.991670462200e-03 0.0 
4.991670462200e-03 2.078005358690e-03 0.0 
0.0 0.0 0.0 
2.677086468695e-03 3.626944326003e-03 0.0 
3.626944326003e-03 -1.928766713255e-03 0.0 
0.0 0.0 0.0 
1.420337288133e-03 5.334458004459e-04 0.0 
5.334458004459e-04 -1.030792738050e-03 0.0 
0.0 0.0 0.0 
-2.167376085195e-03 7.773908763243e-04 0.0 
7.773908763243e-04 3.932583601778e-03 0.0 
0.0 0.0 0.0 
2.960264903007e-03 8.121252354519e-05 0.0 
8.121252354519e-05 -2.762738967294e-03 0.0 
0.0 0.0 0.0 
2.860407241156e-03 2.115309710016e-05 0.0 
2.115309710016e-05 -2.667123155307e-03 0.0 
0.0 0.0 0.0 
3.297547240910e-03 -3.969970993870e-05 0.0 
-3.969970993870e-05 -2.753534366124e-03 0.0 
0.0 0.0 0.0 
1.952102671127e-03 8.490579504591e-04 0.0 
8.490579504591e-04 -1.612305768043e-03 0.0 
0.0 0.0 0.0 
2.581202864130e-03 4.741252879246e-05 0.0 
4.741252879246e-05 -2.376028988102e-03 0.0 
0.0 0.0 0.0 
-2.999913904908e-03 8.648535013532e-04 0.0 
8.648535013532e-04 4.605615851922e-03 0.0 
0.0 0.0 0.0 
-3.287012493178e-03 9.705067571912e-04 0.0 
9.705067571912e-04 4.913800319665e-03 0.0 
0.0 0.0 0.0 
4.250265459670e-03 2.231242671490e-03 0.0 
2.231242671490e-03 -3.709350856171e-03 0.0 
0.0 0.0 0.0 
3.178391540528e-03 -8.419412154112e-05 0.0 
-8.419412154112e-05 -2.833553708446e-03 0.0 
0.0 0.0 0.0 
4.300017478712e-03 1.555895636077e-03 0.0 
1.555895636077e-03 -3.561173151964e-03 0.0 
0.0 0.0 0.0 
2.910974954557e-03 -5.141533884834e-05 0.0 
-5.141533884834e-05 -2.584648506105e-03 0.0 
0.0 0.0 0.0 
3.017773581458e-03 -2.379998891068e-06 0.0 
-2.379998891068e-06 -2.664429361212e-03 0.0 
0.0 0.0 0.0 
3.169888501193e-03 -1.177417295775e-04 0.0 
-1.177417295775e-04 -2.707199420519e-03 0.0 
0.0 0.0 0.0 
1.464639205329e-03 1.217513936149e-03 0.0 
1.217513936149e-03 -1.052719678791e-03 0.0 
0.0 0.0 0.0 
3.387460682326e-03 3.181631232536e-04 0.0 
3.181631232536e-04 -2.968538770551e-03 0.0 
0.0 0.0 0.0 
-2.074592121108e-03 7.585889330540e-04 0.0 
7.585889330540e-04 3.638241618513e-03 0.0 
0.0 0.0 0.0 
3.486114528216e-03 4.911022900787e-04 0.0 
4.911022900787e-04 -3.045217600113e-03 0.0 
0.0 0.0 0.0 
2.075082256044e-03 7.318155942094e-04 0.0 
7.318155942094e-04 -1.657243257889e-03 0.0 
0.0 0.0 0.0 
2.793410955211e-03 5.660045053664e-04 0.0 
5.660045053664e-04 -2.367616700896e-03 0.0 
0.0 0.0 0.0 
3.004857963157e-03 3.529731549556e-03 0.0 
3.529731549556e-03 -2.106329400767e-03 0.0 
0.0 0.0 0.0 
3.147233788076e-03 -3.268290187740e-06 0.0 
-3.268290187740e-06 -2.725951922075e-03 0.0 
0.0 0.0 0.0 
8.759493336032e-04 9.203279238964e-04 0.0 
9.203279238964e-04 -4.873129677684e-04 0.0 
0.0 0.0 0.0 
7.891900971486e-04 9.830603422221e-04 0.0 
9.830603422221e-04 -3.321631317681e-04 0.0 
0.0 0.0 0.0 
1.228923278963e-03 4.520550330140e-03 0.0 
4.520550330140e-03 -3.603896620191e-04 0.0 
0.0 0.0 0.0 
3.140828330025e-03 6.521236294545e-05 0.0 
6.521236294545e-05 -2.761344818617e-03 0.0 
0.0 0.0 0.0 
2.446611739172e-03 6.620756088011e-04 0.0 
6.620756088011e-04 -2.023575264239e-03 0.0 
0.0 0.0 0.0 
-2.778308068793e-03 8.019884150327e-04 0.0 
8.019884150327e-04 4.612159603456e-03 0.0 
0.0 0.0 0.0 
2.657220070860e-03 9.665447629639e-05 0.0 
9.665447629639e-05 -2.452218754783e-03 0.0 
0.0 0.0 0.0 
2.599933912724e-03 4.086778645699e-03 0.0 
4.086778645699e-03 -1.333942267608e-03 0.0 
0.0 0.0 0.0 
2.750661511289e-03 3.950290829290e-06 0.0 
3.950290829290e-06 -2.541164605430e-03 0.0 
0.0 0.0 0.0 
3.865842567073e-03 -2.283728352667e-04 0.0 
-2.283728352667e-04 -3.483571287697e-03 0.0 
0.0 0.0 0.0 
3.071066035861e-03 1.637385790330e-04 0.0 
1.637385790330e-04 -2.869227990394e-03 0.0 
0.0 0.0 0.0 
2.802393115865e-03 -5.752175676810e-05 0.0 
-5.752175676810e-05 -2.510079642113e-03 0.0 
0.0 0.0 0.0 
2.830028700630e-03 5.770127690613e-05 0.0 
5.770127690613e-05 -2.541456518085e-03 0.0 
0.0 0.0 0.0 
2.624675750651e-03 5.301471722631e-04 0.0 
5.301471722631e-04 -2.361128986002e-03 0.0 
0.0 0.0 0.0 
1.735043515471e-03 6.273653442632e-04 0.0 
6.273653442632e-04 -1.330381945477e-03 0.0 
0.0 0.0 0.0 
1.202544811603e-03 4.994914809724e-03 0.0 
4.994914809724e-03 -2.179657954394e-04 0.0 
0.0 0.0 0.0 
3.798777045042e-03 -3.061178895663e-05 0.0 
-3.061178895663e-05 -1.670577595089e-03 0.0 
0.0 0.0 0.0 
4.238784448398e-03 8.205829938999e-04 0.0 
8.205829938999e-04 -3.757809785092e-03 0.0 
0.0 0.0 0.0 
3.844049421201e-03 5.305505614030e-04 0.0 
5.305505614030e-04 -3.390830598835e-03 0.0 
0.0 0.0 0.0 
3.271773641793e-03 1.718123055468e-04 0.0 
1.718123055468e-04 -2.871438957192e-03 0.0 
0.0 0.0 0.0 
-3.053969121477e-03 8.372813117762e-04 0.0 
8.372813117762e-04 4.928310308048e-03 0.0 
0.0 0.0 0.0 
3.111954453586e-03 4.513888689660e-04 0.0 
4.513888689660e-04 -2.688007004403e-03 0.0 
0.0 0.0 0.0 
2.591428124040e-03 -2.784475247989e-05 0.0 
-2.784475247989e-05 -2.295120766913e-03 0.0 
0.0 0.0 0.0 
3.179916308049e-03 2.910577960751e-04 0.0 
2.910577960751e-04 -2.963165533924e-03 0.0 
0.0 0.0 0.0 
-1.887319284216e-03 6.041776028556e-04 0.0 
6.041776028556e-04 3.657048239464e-03 0.0 
0.0 0.0 0.0 
2.519493569088e-03 2.668455531812e-05 0.0 
2.668455531812e-05 -2.303148473085e-03 0.0 
0.0 0.0 0.0 
3.467882267501e-03 -1.007767019218e-04 0.0 
-1.007767019218e-04 -2.460349391136e-03 0.0 
0.0 0.0 0.0 
3.350444316879e-03 -1.163620344326e-04 0.0 
-1.163620344326e-04 -2.661053724801e-03 0.0 
0.0 0.0 0.0 
3.970132865662e-03 -1.472744993656e-04 0.0 
-1.472744993656e-04 -3.468648057249e-03 0.0 
0.0 0.0 0.0 
3.306637836661e-03 -4.256039784374e-05 0.0 
-4.256039784374e-05 -2.943460375852e-03 0.0 
0.0 0.0 0.0 
3.925907181580e-03 7.610296264621e-04 0.0 
7.610296264621e-04 -3.452500819798e-03 0.0 
0.0 0.0 0.0 
3.277084785565e-03 4.526116103590e-04 0.0 
4.526116103590e-04 -3.037503314667e-03 0.0 
0.0 0.0 0.0 
3.558255701241e-03 -3.263091699817e-04 0.0 
-3.263091699817e-04 -2.940333679104e-03 0.0 
0.0 0.0 0.0 
3.364467146956e-03 6.400493634689e-06 0.0 
6.400493634689e-06 -2.679162650722e-03 0.0 
0.0 0.0 0.0 
-3.946808204559e-03 1.591554825938e-03 0.0 
1.591554825938e-03 5.817483563010e-03 0.0 
0.0 0.0 0.0 
2.753916244653e-03 2.215744390931e-05 0.0 
2.215744390931e-05 -2.521938813134e-03 0.0 
0.0 0.0 0.0 
1.596317257369e-03 1.106938762663e-03 0.0 
1.106938762663e-03 -1.157995110149e-03 0.0 
0.0 0.0 0.0 
1.516570086302e-03 4.842564278219e-03 0.0 
4.842564278219e-03 -5.937900758124e-04 0.0 
0.0 0.0 0.0 
-2.616804345435e-03 4.181999312168e-03 0.0 
4.181999312168e-03 4.412884985201e-03 0.0 
0.0 0.0 0.0 
-2.385571794068e-03 1.691853715475e-03 0.0 
1.691853715475e-03 4.112493080015e-03 0.0 
0.0 0.0 0.0 
9.332137360887e-04 5.178679858944e-03 0.0 
5.178679858944e-03 1.358111058485e-04 0.0 
0.0 0.0 0.0 
4.150604800711e-03 2.384419747706e-03 0.0 
2.384419747706e-03 -3.549855408940e-03 0.0 
0.0 0.0 0.0 
1.442693070491e-03 4.674299471613e-03 0.0 
4.674299471613e-03 -5.399189287322e-04 0.0 
0.0 0.0 0.0 
3.700227584102e-03 -3.649020432104e-04 0.0 
-3.649020432104e-04 -3.184165795927e-03 0.0 
0.0 0.0 0.0 
2.838554177304e-03 2.817092874708e-04 0.0 
2.817092874708e-04 -2.616466635166e-03 0.0 
0.0 0.0 0.0 
3.581890668097e-03 3.057812795352e-03 0.0 
3.057812795352e-03 -2.935514612309e-03 0.0 
0.0 0.0 0.0 
4.185182825310e-03 1.842696909168e-05 0.0 
1.842696909168e-05 -3.510882199919e-03 0.0 
0.0 0.0 0.0 
3.443138901059e-03 -4.193795680855e-04 0.0 
-4.193795680855e-04 -2.774433430554e-03 0.0 
0.0 0.0 0.0 
2.715805724769e-03 1.650803663527e-05 0.0 
1.650803663527e-05 -2.372092569369e-03 0.0 
0.0 0.0 0.0 
3.619032939359e-03 4.761703325384e-04 0.0 
4.761703325384e-04 -3.379783083758e-03 0.0 
0.0 0.0 0.0 
3.707300926698e-03 6.881297587433e-04 0.0 
6.881297587433e-04 -3.439433047674e-03 0.0 
0.0 0.0 0.0 
2.581739732502e-03 -3.417828315299e-05 0.0 
-3.417828315299e-05 -2.318883523800e-03 0.0 
0.0 0.0 0.0 
3.180276052055e-03 6.304968632437e-04 0.0 
6.304968632437e-04 -2.736466921581e-03 0.0 
0.0 0.0 0.0 
4.017840939297e-03 7.316327899036e-04 0.0 
7.316327899036e-04 -3.740773493911e-03 0.0 
0.0 0.0 0.0 
4.286143597723e-03 1.113416739338e-03 0.0 
1.113416739338e-03 -3.783133629102e-03 0.0 
0.0 0.0 0.0 
3.136633141329e-03 -1.306023864896e-05 0.0 
-1.306023864896e-05 -2.946906537052e-03 0.0 
0.0 0.0 0.0 
3.132368743661e-03 2.517590014585e-03 0.0 
2.517590014585e-03 -2.578319756880e-03 0.0 
0.0 0.0 0.0 
-2.987936027877e-03 1.137636741009e-03 0.0 
1.137636741009e-03 4.566062680454e-03 0.0 
0.0 0.0 0.0 
4.502088051173e-03 1.205192358123e-03 0.0 
1.205192358123e-03 -3.994125256530e-03 0.0 
0.0 0.0 0.0 
1.175649982336e-03 1.109037980266e-03 0.0 
1.109037980266e-03 -7.497368441174e-04 0.0 
0.0 0.0 0.0 
3.881626496850e-03 -2.814077406854e-04 0.0 
-2.814077406854e-04 -3.411884978456e-03 0.0 
0.0 0.0 0.0 
9.392220335911e-04 1.428691540920e-03 0.0 
1.428691540920e-03 -4.669165615901e-04 0.0 
0.0 0.0 0.0 
3.561481230553e-03 6.964033882532e-04 0.0 
6.964033882532e-04 -3.102403065189e-03 0.0 
0.0 0.0 0.0 
7.526990238074e-04 5.394202587733e-03 0.0 
5.394202587733e-03 4.028179344804e-04 0.0 
0.0 0.0 0.0 
-5.357157195509e-04 4.574137365891e-03 0.0 
4.574137365891e-03 1.953502498405e-03 0.0 
0.0 0.0 0.0 
3.861062189500e-03 -2.755949646377e-04 0.0 
-2.755949646377e-04 -3.264438254355e-03 0.0 
0.0 0.0 0.0 
-2.161916724498e-03 4.242196042461e-03 0.0 
4.242196042461e-03 3.781795286093e-03 0.0 
0.0 0.0 0.0 
-2.204281015339e-03 2.567991618591e-03 0.0 
2.567991618591e-03 3.889924020847e-03 0.0 
0.0 0.0 0.0 
3.613548190059e-03 9.272684194713e-04 0.0 
9.272684194713e-04 -3.133530502201e-03 0.0 
0.0 0.0 0.0 
3.349858971367e-03 3.266200930190e-03 0.0 
3.266200930190e-03 -2.198255978274e-03 0.0 
0.0 0.0 0.0 
-1.734809702845e-03 4.234556749057e-03 0.0 
4.234556749057e-03 3.229158014077e-03 0.0 
0.0 0.0 0.0 
1.647958287359e-03 4.483430450221e-03 0.0 
4.483430450221e-03 -7.655078243000e-04 0.0 
0.0 0.0 0.0 
3.631033494141e-03 -3.510920297497e-04 0.0 
-3.510920297497e-04 -2.936774729928e-03 0.0 
0.0 0.0 0.0 
-1.135012322041e-03 2.724855287534e-03 0.0 
2.724855287534e-03 3.135576200458e-03 0.0 
0.0 0.0 0.0 
3.520019949242e-03 -3.375660791833e-04 0.0 
-3.375660791833e-04 -2.748796023650e-03 0.0 
0.0 0.0 0.0 
1.718505033459e-03 2.946744208526e-03 0.0 
2.946744208526e-03 -9.926327604923e-04 0.0 
0.0 0.0 0.0 
-1.598191576913e-03 8.482337765220e-04 0.0 
8.482337765220e-04 3.358713672274e-03 0.0 
0.0 0.0 0.0 
2.787779036443e-03 2.258409638505e-03 0.0 
2.258409638505e-03 -2.253014130045e-03 0.0 
0.0 0.0 0.0 
-3.024429036150e-03 6.357368795883e-04 0.0 
6.357368795883e-04 4.933134867433e-03 0.0 
0.0 0.0 0.0 
-2.654540895395e-03 1.514492237197e-03 0.0 
1.514492237197e-03 4.192061919072e-03 0.0 
0.0 0.0 0.0 
4.076912155448e-03 9.944901652983e-04 0.0 
9.944901652983e-04 -3.762429956242e-03 0.0 
0.0 0.0 0.0 
4.082645165124e-03 2.450933764208e-03 0.0 
2.450933764208e-03 -3.525626776635e-03 0.0 
0.0 0.0 0.0 
-1.867119981199e-03 1.919098852253e-03 0.0 
1.919098852253e-03 3.645336498852e-03 0.0 
0.0 0.0 0.0 
1.387967569519e-03 6.653644759911e-04 0.0 
6.653644759911e-04 -9.880629845147e-04 0.0 
0.0 0.0 0.0 
-3.044939486688e-03 1.404638422804e-03 0.0 
1.404638422804e-03 4.573722214816e-03 0.0 
0.0 0.0 0.0 
2.715455745906e-03 1.645832992296e-03 0.0 
1.645832992296e-03 -2.211493645870e-03 0.0 
0.0 0.0 0.0 
3.863835764555e-03 -3.144263585765e-04 0.0 
-3.144263585765e-04 -3.193120777999e-03 0.0 
0.0 0.0 0.0 
-3.008140476245e-03 1.735026404657e-03 0.0 
1.735026404657e-03 4.516239497800e-03 0.0 
0.0 0.0 0.0 
1.002277078667e-03 5.021781744805e-03 0.0 
5.021781744805e-03 2.045220475686e-04 0.0 
0.0 0.0 0.0 
7.595660172937e-04 1.067529715606e-03 0.0 
1.067529715606e-03 -3.505475991558e-04 0.0 
0.0 0.0 0.0 
3.026676523982e-03 2.961740513408e-04 0.0 
2.961740513408e-04 -2.619764582600e-03 0.0 
0.0 0.0 0.0 
-3.223090727433e-03 7.078964579718e-04 0.0 
7.078964579718e-04 4.926850268193e-03 0.0 
0.0 0.0 0.0 
-3.283289837422e-03 6.418698070295e-04 0.0 
6.418698070295e-04 5.393365830683e-03 0.0 
0.0 0.0 0.0 
3.355607287865e-03 6.382713595302e-04 0.0 
6.382713595302e-04 -3.092265274790e-03 0.0 
0.0 0.0 0.0 
1.710685149097e-03 7.812102596695e-04 0.0 
7.812102596695e-04 -1.293192352746e-03 0.0 
0.0 0.0 0.0 
1.663283663128e-03 9.355971770063e-04 0.0 
9.355971770063e-04 -1.239782342585e-03 0.0 
0.0 0.0 0.0 
3.434762099665e-03 -3.329251849762e-05 0.0 
-3.329251849762e-05 -2.597771058861e-03 0.0 
0.0 0.0 0.0 
4.283033720438e-03 1.323119249080e-03 0.0 
1.323119249080e-03 -3.407263308158e-03 0.0 
0.0 0.0 0.0 
4.491302643339e-03 1.544876758373e-03 0.0 
1.544876758373e-03 -3.961747085984e-03 0.0 
0.0 0.0 0.0 
4.311445660013e-03 1.068915885672e-03 0.0 
1.068915885672e-03 -3.969924668341e-03 0.0 
0.0 0.0 0.0 
2.455397863922e-03 3.971689165614e-03 0.0 
3.971689165614e-03 -1.700852707090e-03 0.0 
0.0 0.0 0.0 
-2.026709216164e-03 2.123618966741e-03 0.0 
2.123618966741e-03 3.481039051237e-03 0.0 
0.0 0.0 0.0 
-1.159393709583e-03 4.319798617396e-03 0.0 
4.319798617396e-03 2.741086824450e-03 0.0 
0.0 0.0 0.0 
-1.783225672689e-03 8.879750825660e-04 0.0 
8.879750825660e-04 3.355887301772e-03 0.0 
0.0 0.0 0.0 
1.020946651875e-03 5.225536862599e-03 0.0 
5.225536862599e-03 8.764559308292e-04 0.0 
0.0 0.0 0.0 
-2.774781355915e-03 2.314520030381e-03 0.0 
2.314520030381e-03 4.315494935227e-03 0.0 
0.0 0.0 0.0 
1.621314811280e-03 7.349546121741e-04 0.0 
7.349546121741e-04 -1.285644609533e-03 0.0 
0.0 0.0 0.0 
-1.710966516874e-03 1.461449534895e-03 0.0 
1.461449534895e-03 3.532686164973e-03 0.0 
0.0 0.0 0.0 
-3.262828863171e-03 1.890325701057e-03 0.0 
1.890325701057e-03 4.793315103518e-03 0.0 
0.0 0.0 0.0 
2.922248876678e-03 4.202725954119e-04 0.0 
4.202725954119e-04 -2.682042942591e-03 0.0 
0.0 0.0 0.0 
4.573571043726e-03 1.675623303753e-03 0.0 
1.675623303753e-03 -4.030883482989e-03 0.0 
0.0 0.0 0.0 
-2.802253307835e-03 1.576245940551e-03 0.0 
1.576245940551e-03 4.534046661171e-03 0.0 
0.0 0.0 0.0 
-2.270051817673e-03 1.659698823538e-03 0.0 
1.659698823538e-03 3.778034211911e-03 0.0 
0.0 0.0 0.0 
-2.485258574750e-03 1.081159261691e-03 0.0 
1.081159261691e-03 4.252494535390e-03 0.0 
0.0 0.0 0.0 
-2.807145956862e-03 1.282202831692e-03 0.0 
1.282202831692e-03 4.587163684980e-03 0.0 
0.0 0.0 0.0 
9.801369680376e-04 8.204970723787e-04 0.0 
8.204970723787e-04 -5.750795481574e-04 0.0 
0.0 0.0 0.0 
1.932173738921e-03 3.280518824745e-03 0.0 
3.280518824745e-03 -1.192209265759e-03 0.0 
0.0 0.0 0.0 
1.268544673780e-03 9.459868327699e-04 0.0 
9.459868327699e-04 -8.579193072781e-04 0.0 
0.0 0.0 0.0 
2.078891753874e-03 5.728555111667e-04 0.0 
5.728555111667e-04 -1.674173721653e-03 0.0 
0.0 0.0 0.0 
-4.066570967434e-04 5.998743044234e-03 0.0 
5.998743044234e-03 3.228773070104e-03 0.0 
0.0 0.0 0.0 
2.619715076102e-03 2.558456712733e-03 0.0 
2.558456712733e-03 -2.058830195567e-03 0.0 
0.0 0.0 0.0 
-3.040622089958e-03 2.792719161693e-03 0.0 
2.792719161693e-03 4.513572602542e-03 0.0 
0.0 0.0 0.0 
2.823238942158e-03 -4.940471344144e-05 0.0 
-4.940471344144e-05 -2.525230639876e-03 0.0 
0.0 0.0 0.0 
4.318622870068e-03 1.387163249860e-03 0.0 
1.387163249860e-03 -3.935221871311e-03 0.0 
0.0 0.0 0.0 
3.969356256675e-03 1.605970066207e-03 0.0 
1.605970066207e-03 -3.439566168939e-03 0.0 
0.0 0.0 0.0 
3.803545134520e-03 2.623148796383e-03 0.0 
2.623148796383e-03 -3.226664332759e-03 0.0 
0.0 0.0 0.0 
4.216686788787e-03 3.187821704067e-04 0.0 
3.187821704067e-04 -3.460718984187e-03 0.0 
0.0 0.0 0.0 
4.428683621997e-03 1.486416303739e-03 0.0 
1.486416303739e-03 -3.997975669360e-03 0.0 
0.0 0.0 0.0 
3.413051462633e-03 2.730930288768e-03 0.0 
2.730930288768e-03 -2.815022148913e-03 0.0 
0.0 0.0 0.0 
-5.502819211931e-04 5.638322402103e-03 0.0 
5.638322402103e-03 2.262857015491e-03 0.0 
0.0 0.0 0.0 
2.736464906726e-03 4.053540256617e-04 0.0 
4.053540256617e-04 -2.327537124558e-03 0.0 
0.0 0.0 0.0 
-3.693051739218e-03 1.741443897232e-03 0.0 
1.741443897232e-03 5.301057049875e-03 0.0 
0.0 0.0 0.0 
-3.637651166531e-03 3.563489681730e-04 0.0 
3.563489681730e-04 6.359378358464e-03 0.0 
0.0 0.0 0.0 
2.040067244937e-04 7.628055549127e-04 0.0 
7.628055549127e-04 1.709300775701e-04 0.0 
0.0 0.0 0.0 
2.305135382673e-03 6.211736040871e-04 0.0 
6.211736040871e-04 -2.016500122534e-03 0.0 
0.0 0.0 0.0 
2.474016113269e-03 2.130239584472e-03 0.0 
2.130239584472e-03 -1.956742402588e-03 0.0 
0.0 0.0 0.0 
-1.077492535022e-03 4.115067381477e-03 0.0 
4.115067381477e-03 2.649222649425e-03 0.0 
0.0 0.0 0.0 
4.312918537917e-03 2.265415729857e-03 0.0 
2.265415729857e-03 -3.743929309905e-03 0.0 
0.0 0.0 0.0 
2.420656687377e-03 5.001875419072e-04 0.0 
5.001875419072e-04 -2.012827341639e-03 0.0 
0.0 0.0 0.0 
-3.298422393172e-03 1.233602573856e-03 0.0 
1.233602573856e-03 4.862329156182e-03 0.0 
0.0 0.0 0.0 
2.629061784762e-04 1.113606317437e-03 0.0 
1.113606317437e-03 5.335777614275e-04 0.0 
0.0 0.0 0.0 
2.826329570382e-03 2.396549822724e-03 0.0 
2.396549822724e-03 -2.274042476385e-03 0.0 
0.0 0.0 0.0 
3.948091322531e-03 2.291220475741e-03 0.0 
2.291220475741e-03 -3.434536776975e-03 0.0 
0.0 0.0 0.0 
-7.209877568484e-04 5.644692891769e-03 0.0 
5.644692891769e-03 2.957402176999e-03 0.0 
0.0 0.0 0.0 
1.590753523877e-03 8.915391434667e-04 0.0 
8.915391434667e-04 -1.232718506995e-03 0.0 
0.0 0.0 0.0 
3.991214276950e-03 -1.896376860087e-04 0.0 
-1.896376860087e-04 -3.483365986066e-03 0.0 
0.0 0.0 0.0 
1.537959431921e-03 1.043860428605e-03 0.0 
1.043860428605e-03 -1.148066881322e-03 0.0 
0.0 0.0 0.0 
1.047893601783e-03 1.246632399908e-03 0.0 
1.246632399908e-03 -6.292582826163e-04 0.0 
0.0 0.0 0.0 
3.158060937491e-03 2.618566154939e-03 0.0 
2.618566154939e-03 -2.593608134570e-03 0.0 
0.0 0.0 0.0 
-2.672337786373e-03 1.236232097797e-03 0.0 
1.236232097797e-03 4.234633149208e-03 0.0 
0.0 0.0 0.0 
2.176709564945e-03 4.487479628163e-03 0.0 
4.487479628163e-03 -1.215684907465e-03 0.0 
0.0 0.0 0.0 
1.060224587048e-03 1.198185027922e-03 0.0 
1.198185027922e-03 -6.231653085089e-04 0.0 
0.0 0.0 0.0 
1.684061351566e-04 1.465542780325e-03 0.0 
1.465542780325e-03 1.002290358579e-03 0.0 
0.0 0.0 0.0 
-3.387058649736e-03 1.579161354729e-03 0.0 
1.579161354729e-03 4.896043443281e-03 0.0 
0.0 0.0 0.0 
1.914629814160e-03 3.883431277787e-03 0.0 
3.883431277787e-03 -1.119270925065e-03 0.0 
0.0 0.0 0.0 
-2.445379103575e-03 1.398821342686e-03 0.0 
1.398821342686e-03 4.205002606829e-03 0.0 
0.0 0.0 0.0 
3.637751374260e-03 2.557301626601e-03 0.0 
2.557301626601e-03 -3.061813541885e-03 0.0 
0.0 0.0 0.0 
4.369380252557e-03 1.855154984240e-03 0.0 
1.855154984240e-03 -3.889670432867e-03 0.0 
0.0 0.0 0.0 
1.676824199139e-03 1.696980962300e-04 0.0 
1.696980962300e-04 -1.318555116019e-03 0.0 
0.0 0.0 0.0 
3.432204159545e-03 -3.575519613783e-05 0.0 
-3.575519613783e-05 -2.428308569495e-03 0.0 
0.0 0.0 0.0 
-2.101263486334e-03 1.158190632574e-03 0.0 
1.158190632574e-03 3.856693217103e-03 0.0 
0.0 0.0 0.0 
2.644160001352e-03 -2.794571589706e-05 0.0 
-2.794571589706e-05 -2.392458859617e-03 0.0 
0.0 0.0 0.0 
7.258407070343e-05 2.082578284079e-03 0.0 
2.082578284079e-03 1.654068458688e-03 0.0 
0.0 0.0 0.0 
1.980986652047e-03 4.645155104347e-03 0.0 
4.645155104347e-03 -9.966285703575e-04 0.0 
0.0 0.0 0.0 
-1.479633365835e-03 1.123651282240e-03 0.0 
1.123651282240e-03 3.306453063245e-03 0.0 
0.0 0.0 0.0 
3.815800613877e-03 -3.153192554755e-04 0.0 
-3.153192554755e-04 -3.265905473887e-03 0.0 
0.0 0.0 0.0 
1.307053946701e-03 4.417461263525e-03 0.0 
4.417461263525e-03 -1.233879931670e-04 0.0 
0.0 0.0 0.0 
-3.108556158385e-03 1.762121570230e-03 0.0 
1.762121570230e-03 4.807513023347e-03 0.0 
0.0 0.0 0.0 
2.230743753533e-03 3.464282549306e-04 0.0 
3.464282549306e-04 -1.981306038763e-03 0.0 
0.0 0.0 0.0 
4.003757372601e-03 9.655113623876e-05 0.0 
9.655113623876e-05 -3.424328340853e-03 0.0 
0.0 0.0 0.0 
3.628844583951e-03 3.065601957010e-03 0.0 
3.065601957010e-03 -2.586854415320e-03 0.0 
0.0 0.0 0.0 
3.532484423604e-03 -3.765374061594e-04 0.0 
-3.765374061594e-04 -2.782202773977e-03 0.0 
0.0 0.0 0.0 
3.980403134149e-03 -2.253645235558e-04 0.0 
-2.253645235558e-04 -3.277684804716e-03 0.0 
0.0 0.0 0.0 
3.785098370746e-03 -3.293290115023e-04 0.0 
-3.293290115023e-04 -3.060710156362e-03 0.0 
0.0 0.0 0.0 
4.034623206383e-03 2.438967322116e-03 0.0 
2.438967322116e-03 -3.457028943760e-03 0.0 
0.0 0.0 0.0 
-6.819606692868e-04 5.304330858871e-03 0.0 
5.304330858871e-03 2.042150217736e-03 0.0 
0.0 0.0 0.0 
9.542975854093e-05 2.949597449444e-03 0.0 
2.949597449444e-03 2.333836554474e-03 0.0 
0.0 0.0 0.0 
7.374689559885e-04 6.754118818284e-04 0.0 
6.754118818284e-04 -3.475119596928e-04 0.0 
0.0 0.0 0.0 
4.361270009418e-03 2.001948571642e-03 0.0 
2.001948571642e-03 -3.769719581168e-03 0.0 
0.0 0.0 0.0 
-3.410329136386e-03 2.172497973510e-03 0.0 
2.172497973510e-03 5.029252595356e-03 0.0 
0.0 0.0 0.0 
3.880247979372e-03 2.173941676303e-04 0.0 
2.173941676303e-04 -2.937514602344e-03 0.0 
0.0 0.0 0.0 
9.213481152623e-04 1.336876997507e-03 0.0 
1.336876997507e-03 -4.721442892091e-04 0.0 
0.0 0.0 0.0 
3.632484384166e-03 -4.306609164884e-04 0.0 
-4.306609164884e-04 -3.050781402697e-03 0.0 
0.0 0.0 0.0 
2.365635884793e-03 -3.301334750605e-05 0.0 
-3.301334750605e-05 -2.109944201740e-03 0.0 
0.0 0.0 0.0 
2.916746605588e-03 2.893648604359e-03 0.0 
2.893648604359e-03 -2.338462432025e-03 0.0 
0.0 0.0 0.0 
3.767174314507e-03 9.291243715143e-04 0.0 
9.291243715143e-04 -3.468352547471e-03 0.0 
0.0 0.0 0.0 
2.190573131998e-03 3.590226933156e-03 0.0 
3.590226933156e-03 -1.416271073892e-03 0.0 
0.0 0.0 0.0 
2.718072772103e-03 3.955715301916e-03 0.0 
3.955715301916e-03 -1.355744288667e-03 0.0 
0.0 0.0 0.0 
-2.901226744144e-03 2.679011953846e-03 0.0 
2.679011953846e-03 4.410308493662e-03 0.0 
0.0 0.0 0.0 
1.612644028646e-03 3.105096151727e-03 0.0 
3.105096151727e-03 -1.016233276350e-03 0.0 
0.0 0.0 0.0 
-3.116707519572e-03 1.389710049226e-03 0.0 
1.389710049226e-03 4.916143354109e-03 0.0 
0.0 0.0 0.0 
-1.279149932654e-03 4.478428635815e-03 0.0 
4.478428635815e-03 2.595837395988e-03 0.0 
0.0 0.0 0.0 
-2.908859105398e-03 1.970347071484e-03 0.0 
1.970347071484e-03 4.429250245380e-03 0.0 
0.0 0.0 0.0 
-2.713741108123e-03 2.284375215757e-03 0.0 
2.284375215757e-03 4.191198118378e-03 0.0 
0.0 0.0 0.0 
4.016500718157e-03 1.281547535577e-03 0.0 
1.281547535577e-03 -2.908922675879e-03 0.0 
0.0 0.0 0.0 
8.164358863874e-04 5.658641487197e-04 0.0 
5.658641487197e-04 -4.356224163398e-04 0.0 
0.0 0.0 0.0 
-3.004703766954e-03 2.023311531291e-03 0.0 
2.023311531291e-03 4.600684659325e-03 0.0 
0.0 0.0 0.0 
3.889106747150e-03 2.997948340965e-03 0.0 
2.997948340965e-03 -3.293253490136e-03 0.0 
0.0 0.0 0.0 
3.460560155277e-05 3.988895851516e-03 0.0 
3.988895851516e-03 3.139334518024e-03 0.0 
0.0 0.0 0.0 
1.445103153130e-03 3.205764973437e-03 0.0 
3.205764973437e-03 -7.235589676723e-04 0.0 
0.0 0.0 0.0 
4.259415575850e-03 8.722100988444e-04 0.0 
8.722100988444e-04 -3.395029512542e-03 0.0 
0.0 0.0 0.0 
2.559182362137e-03 4.015865542408e-05 0.0 
4.015865542408e-05 -2.329520897748e-03 0.0 
0.0 0.0 0.0 
2.377525173486e-03 3.475064767961e-03 0.0 
3.475064767961e-03 -1.738054740347e-03 0.0 
0.0 0.0 0.0 
3.289563584471e-03 1.086769245720e-04 0.0 
1.086769245720e-04 -2.682321656101e-03 0.0 
0.0 0.0 0.0 
2.608101268786e-03 3.829120415391e-03 0.0 
3.829120415391e-03 -1.645142740406e-03 0.0 
0.0 0.0 0.0 
2.619095747037e-03 2.628665765055e-03 0.0 
2.628665765055e-03 -2.068202817066e-03 0.0 
0.0 0.0 0.0 
-2.175305509862e-03 2.598710340902e-03 0.0 
2.598710340902e-03 3.650088104346e-03 0.0 
0.0 0.0 0.0 
-1.824825535609e-03 3.291175534404e-03 0.0 
3.291175534404e-03 3.261865554928e-03 0.0 
0.0 0.0 0.0 
2.938482377328e-03 2.779567448212e-03 0.0 
2.779567448212e-03 -2.321969901791e-03 0.0 
0.0 0.0 0.0 
-2.600875514433e-03 1.850320797126e-03 0.0 
1.850320797126e-03 4.094371130016e-03 0.0 
0.0 0.0 0.0 
4.162367339501e-03 2.423889196405e-03 0.0 
2.423889196405e-03 -3.565685800604e-03 0.0 
0.0 0.0 0.0 
1.239150286047e-03 4.786067771657e-03 0.0 
4.786067771657e-03 -1.552992268504e-04 0.0 
0.0 0.0 0.0 
-3.312772214167e-04 5.419188927981e-03 0.0 
5.419188927981e-03 4.437388743272e-03 0.0 
0.0 0.0 0.0 
2.318377320676e-05 5.009222229510e-03 0.0 
5.009222229510e-03 1.365035501026e-03 0.0 
0.0 0.0 0.0 
-1.809898550959e-03 7.045193378633e-03 0.0 
7.045193378633e-03 6.754011920620e-03 0.0 
0.0 0.0 0.0 
-3.324186192307e-03 7.541508226487e-03 0.0 
7.541508226487e-03 8.446047431526e-03 0.0 
0.0 0.0 0.0 
4.307894922327e-03 2.435112741565e-03 0.0 
2.435112741565e-03 -3.739556251009e-03 0.0 
0.0 0.0 0.0 
-6.646545504144e-03 7.081559043607e-03 0.0 
7.081559043607e-03 1.112219127301e-02 0.0 
0.0 0.0 0.0 
3.026850750966e-03 3.791906651090e-03 0.0 
3.791906651090e-03 -2.171293759616e-03 0.0 
0.0 0.0 0.0 
3.360833462430e-03 3.189004015223e-03 0.0 
3.189004015223e-03 -2.524408552596e-03 0.0 
0.0 0.0 0.0 
4.288138979363e-03 1.729931008070e-03 0.0 
1.729931008070e-03 -3.852246787415e-03 0.0 
0.0 0.0 0.0 
4.061234474750e-03 6.388441939103e-06 0.0 
6.388441939103e-06 -3.299494190811e-03 0.0 
0.0 0.0 0.0 
4.469325026311e-03 2.055072943728e-03 0.0 
2.055072943728e-03 -3.920591108640e-03 0.0 
0.0 0.0 0.0 
-1.994152326962e-03 1.562590890010e-03 0.0 
1.562590890010e-03 3.788613796676e-03 0.0 
0.0 0.0 0.0 
-6.139144546268e-04 4.722887583684e-03 0.0 
4.722887583684e-03 2.091403413326e-03 0.0 
0.0 0.0 0.0 
1.107883338221e-03 5.598411162388e-04 0.0 
5.598411162388e-04 -7.237739622244e-04 0.0 
0.0 0.0 0.0 
1.812606550823e-03 3.381553075568e-03 0.0 
3.381553075568e-03 -1.206587028718e-03 0.0 
0.0 0.0 0.0 
3.974982303764e-03 1.014166681465e-03 0.0 
1.014166681465e-03 -3.482894930637e-03 0.0 
0.0 0.0 0.0 
-2.590154618318e-03 2.138186137806e-03 0.0 
2.138186137806e-03 4.208375470573e-03 0.0 
0.0 0.0 0.0 
4.430796188749e-03 1.903781587054e-03 0.0 
1.903781587054e-03 -3.879027444500e-03 0.0 
0.0 0.0 0.0 
6.477218808500e-04 4.886401460648e-04 0.0 
4.886401460648e-04 -2.570416922421e-04 0.0 
0.0 0.0 0.0 
-2.744022953786e-03 1.908715423048e-03 0.0 
1.908715423048e-03 4.435930888403e-03 0.0 
0.0 0.0 0.0 
-2.811998308943e-03 2.500511199173e-03 0.0 
2.500511199173e-03 4.292513763133e-03 0.0 
0.0 0.0 0.0 
3.341310981320e-03 2.348840484237e-03 0.0 
2.348840484237e-03 -2.780408721577e-03 0.0 
0.0 0.0 0.0 
4.369521717629e-03 2.219321673712e-03 0.0 
2.219321673712e-03 -3.804278730634e-03 0.0 
0.0 0.0 0.0 
1.282686831143e-03 4.987620303085e-03 0.0 
4.987620303085e-03 -2.175659021184e-04 0.0 
0.0 0.0 0.0 
-9.464588488276e-04 4.536444032770e-03 0.0 
4.536444032770e-03 1.960485622351e-03 0.0 
0.0 0.0 0.0 
3.880348221326e-03 -1.444854506160e-04 0.0 
-1.444854506160e-04 -3.274270544693e-03 0.0 
0.0 0.0 0.0 
4.052884912241e-03 5.647176051044e-04 0.0 
5.647176051044e-04 -3.344466245089e-03 0.0 
0.0 0.0 0.0 
2.872200885896e-03 3.894123816048e-03 0.0 
3.894123816048e-03 -1.824030775823e-03 0.0 
0.0 0.0 0.0 
9.582169143498e-04 4.507288634135e-03 0.0 
4.507288634135e-03 -1.342348778638e-04 0.0 
0.0 0.0 0.0 
4.812361687867e-04 4.088933660543e-04 0.0 
4.088933660543e-04 -9.721147809105e-05 0.0 
0.0 0.0 0.0 
-3.050941627850e-03 2.193699520518e-03 0.0 
2.193699520518e-03 4.580607965242e-03 0.0 
0.0 0.0 0.0 
4.312522927085e-03 1.992065612722e-03 0.0 
1.992065612722e-03 -3.769169919320e-03 0.0 
0.0 0.0 0.0 
8.698711681996e-04 4.468558550429e-03 0.0 
4.468558550429e-03 2.872093255715e-04 0.0 
0.0 0.0 0.0 
2.311492398626e-03 2.425946234273e-03 0.0 
2.425946234273e-03 -1.749686335019e-03 0.0 
0.0 0.0 0.0 
-2.298969653717e-03 1.345710877172e-03 0.0 
1.345710877172e-03 3.834467806958e-03 0.0 
0.0 0.0 0.0 
9.542615476392e-04 5.187251897923e-03 0.0 
5.187251897923e-03 1.348277495208e-04 0.0 
0.0 0.0 0.0 
-3.589800689641e-03 2.275761757412e-03 0.0 
2.275761757412e-03 5.315159520603e-03 0.0 
0.0 0.0 0.0 
1.664714485780e-03 1.657322102327e-03 0.0 
1.657322102327e-03 -1.209679441390e-03 0.0 
0.0 0.0 0.0 
4.211191012044e-03 2.092986402192e-03 0.0 
2.092986402192e-03 -3.717387052185e-03 0.0 
0.0 0.0 0.0 
2.272589788300e-03 2.285665353136e-03 0.0 
2.285665353136e-03 -1.736656283042e-03 0.0 
0.0 0.0 0.0 
2.367850617208e-03 3.984483330238e-03 0.0 
3.984483330238e-03 -1.667016123696e-03 0.0 
0.0 0.0 0.0 
-2.176513752654e-03 2.083670342473e-03 0.0 
2.083670342473e-03 3.629289350701e-03 0.0 
0.0 0.0 0.0 
7.461116282930e-04 5.345781823818e-03 0.0 
5.345781823818e-03 4.057879043629e-04 0.0 
0.0 0.0 0.0 
3.795915672198e-03 2.249555237077e-03 0.0 
2.249555237077e-03 -3.231033310442e-03 0.0 
0.0 0.0 0.0 
4.150925579393e-03 4.503633590002e-04 0.0 
4.503633590002e-04 -3.294289543980e-03 0.0 
0.0 0.0 0.0 
2.080683013373e-03 4.382189585606e-03 0.0 
4.382189585606e-03 -1.319773270924e-03 0.0 
0.0 0.0 0.0 
2.627153455742e-03 3.919605281264e-03 0.0 
3.919605281264e-03 -1.701890525552e-03 0.0 
0.0 0.0 0.0 
4.154761539138e-03 2.158230697458e-03 0.0 
2.158230697458e-03 -3.524213478767e-03 0.0 
0.0 0.0 0.0 
3.577268286721e-03 2.432544217894e-03 0.0 
2.432544217894e-03 -3.042823241420e-03 0.0 
0.0 0.0 0.0 
1.777116702903e-03 1.377862377605e-03 0.0 
1.377862377605e-03 -1.338956969354e-03 0.0 
0.0 0.0 0.0 
3.943450601405e-03 1.930291894662e-04 0.0 
1.930291894662e-04 -3.251248347569e-03 0.0 
0.0 0.0 0.0 
4.170445112911e-03 2.100558315395e-03 0.0 
2.100558315395e-03 -3.607934737615e-03 0.0 
0.0 0.0 0.0 
-2.060355395486e-03 4.139134080044e-03 0.0 
4.139134080044e-03 3.243428464970e-03 0.0 
0.0 0.0 0.0 
4.742944780529e-04 3.767731002739e-04 0.0 
3.767731002739e-04 -9.268227727344e-05 0.0 
0.0 0.0 0.0 
-1.557327330053e-03 4.191571844624e-03 0.0 
4.191571844624e-03 2.699818506318e-03 0.0 
0.0 0.0 0.0 
2.067106225101e-03 4.627731661417e-03 0.0 
4.627731661417e-03 -1.235506695609e-03 0.0 
0.0 0.0 0.0 
-2.544573094826e-03 4.035838187482e-03 0.0 
4.035838187482e-03 3.810643917088e-03 0.0 
0.0 0.0 0.0 
-3.426977046226e-03 3.852931008095e-03 0.0 
3.852931008095e-03 5.158457828858e-03 0.0 
0.0 0.0 0.0 
-3.950789392714e-04 4.480556758649e-03 0.0 
4.480556758649e-03 1.369394132515e-03 0.0 
0.0 0.0 0.0 
2.089899947560e-03 3.187084893133e-03 0.0 
3.187084893133e-03 -1.481239182245e-03 0.0 
0.0 0.0 0.0 
1.016109205103e-03 6.382320726224e-04 0.0 
6.382320726224e-04 -6.495857004958e-04 0.0 
0.0 0.0 0.0 
-3.148590996393e-03 2.262439172136e-03 0.0 
2.262439172136e-03 4.695603134973e-03 0.0 
0.0 0.0 0.0 
-1.517615466927e-03 3.070710127357e-03 0.0 
3.070710127357e-03 3.288301291952e-03 0.0 
0.0 0.0 0.0 
-2.983042549635e-03 3.988032277253e-03 0.0 
3.988032277253e-03 4.441062798835e-03 0.0 
0.0 0.0 0.0 
4.252603866946e-03 1.498407852832e-03 0.0 
1.498407852832e-03 -3.641297368919e-03 0.0 
0.0 0.0 0.0 
1.869824639741e-03 4.500190062639e-03 0.0 
4.500190062639e-03 -9.093102378981e-04 0.0 
0.0 0.0 0.0 
-2.060595979899e-03 1.699668689873e-03 0.0 
1.699668689873e-03 3.506349384530e-03 0.0 
0.0 0.0 0.0 
3.216413473717e-03 3.523129077003e-03 0.0 
3.523129077003e-03 -2.578508592959e-03 0.0 
0.0 0.0 0.0 
2.833411676832e-03 3.818164853329e-03 0.0 
3.818164853329e-03 -2.162596322353e-03 0.0 
0.0 0.0 0.0 
4.305375557366e-03 1.742990021775e-03 0.0 
1.742990021775e-03 -3.728846052221e-03 0.0 
0.0 0.0 0.0 
-2.894103257365e-03 2.548840899031e-03 0.0 
2.548840899031e-03 4.427530460098e-03 0.0 
0.0 0.0 0.0 
1.681857224869e-03 4.828075277132e-03 0.0 
4.828075277132e-03 -3.590070644507e-04 0.0 
0.0 0.0 0.0 
3.212301617232e-03 3.807907154307e-03 0.0 
3.807907154307e-03 -2.521899774909e-03 0.0 
0.0 0.0 0.0 
1.871218207595e-03 4.686299461973e-03 0.0 
4.686299461973e-03 -3.406029844698e-04 0.0 
0.0 0.0 0.0 
2.656274051733e-03 3.205136258132e-03 0.0 
3.205136258132e-03 -2.041129213972e-03 0.0 
0.0 0.0 0.0 
1.424649254947e-03 4.590988841344e-03 0.0 
4.590988841344e-03 -5.592377893961e-04 0.0 
0.0 0.0 0.0 
4.414356267020e-03 1.596917727120e-03 0.0 
1.596917727120e-03 -3.918880373287e-03 0.0 
0.0 0.0 0.0 
3.220317179722e-03 -2.468721544477e-04 0.0 
-2.468721544477e-04 -2.392782134770e-03 0.0 
0.0 0.0 0.0 
-1.386466853257e-03 3.741095253877e-03 0.0 
3.741095253877e-03 3.098971803879e-03 0.0 
0.0 0.0 0.0 
1.080967650644e-03 5.062170051275e-03 0.0 
5.062170051275e-03 2.552980139927e-04 0.0 
0.0 0.0 0.0 
3.990116070538e-03 1.303681385385e-03 0.0 
1.303681385385e-03 -3.479574663082e-03 0.0 
0.0 0.0 0.0 
1.752627451914e-03 4.392419521952e-03 0.0 
4.392419521952e-03 -9.641678787832e-04 0.0 
0.0 0.0 0.0 
-3.150911622858e-03 2.436392449942e-03 0.0 
2.436392449942e-03 4.674934419551e-03 0.0 
0.0 0.0 0.0 
1.280404990085e-03 7.612741808612e-04 0.0 
7.612741808612e-04 -9.205403465909e-04 0.0 
0.0 0.0 0.0 
3.675349594499e-03 2.799854500424e-03 0.0 
2.799854500424e-03 -2.897258944294e-03 0.0 
0.0 0.0 0.0 
3.140097402230e-03 -2.181769693434e-04 0.0 
-2.181769693434e-04 -2.172482535634e-03 0.0 
0.0 0.0 0.0 
3.711977829222e-04 2.992897642210e-04 0.0 
2.992897642210e-04 3.090201709499e-05 0.0 
0.0 0.0 0.0 
1.453234339157e-03 4.336548641138e-03 0.0 
4.336548641138e-03 -6.784781241753e-04 0.0 
0.0 0.0 0.0 
3.092494348945e-03 3.574923890492e-03 0.0 
3.574923890492e-03 -2.353815685756e-03 0.0 
0.0 0.0 0.0 
1.390966747884e-03 5.007155995607e-03 0.0 
5.007155995607e-03 -4.520179442571e-04 0.0 
0.0 0.0 0.0 
2.475645745179e-03 -2.449188668905e-04 0.0 
-2.449188668905e-04 -1.533251454554e-03 0.0 
0.0 0.0 0.0 
1.341096164982e-03 8.125496080160e-04 0.0 
8.125496080160e-04 -9.288355279273e-04 0.0 
0.0 0.0 0.0 
3.834677264252e-03 2.279024340343e-03 0.0 
2.279024340343e-03 -2.818698567254e-03 0.0 
0.0 0.0 0.0 
-3.586692569791e-03 2.471192669184e-03 0.0 
2.471192669184e-03 5.293068505126e-03 0.0 
0.0 0.0 0.0 
1.940489714388e-03 4.105219142263e-04 0.0 
4.105219142263e-04 -1.668062972893e-03 0.0 
0.0 0.0 0.0 
4.519383401089e-03 1.820974547108e-03 0.0 
1.820974547108e-03 -3.956738654166e-03 0.0 
0.0 0.0 0.0 
6.198060748095e-04 4.595184113948e-04 0.0 
4.595184113948e-04 -2.523850709371e-04 0.0 
0.0 0.0 0.0 
2.891459689854e-03 3.948284786463e-03 0.0 
3.948284786463e-03 -2.194311712610e-03 0.0 
0.0 0.0 0.0 
4.495955991313e-03 1.586552293332e-03 0.0 
1.586552293332e-03 -3.901648536846e-03 0.0 
0.0 0.0 0.0 
1.297236396774e-03 4.375160048894e-03 0.0 
4.375160048894e-03 -1.772238213446e-04 0.0 
0.0 0.0 0.0 
2.940856134245e-03 -4.914123252093e-04 0.0 
-4.914123252093e-04 -2.121847844769e-03 0.0 
0.0 0.0 0.0 
1.590384943712e-03 4.616007148364e-03 0.0 
4.616007148364e-03 -5.326457755024e-04 0.0 
0.0 0.0 0.0 
2.694371516681e-03 3.046302355803e-03 0.0 
3.046302355803e-03 -2.017564508743e-03 0.0 
0.0 0.0 0.0 
4.379761786273e-04 5.499598854393e-03 0.0 
5.499598854393e-03 7.327581374150e-04 0.0 
0.0 0.0 0.0 
1.632814751447e-03 4.771583531323e-03 0.0 
4.771583531323e-03 -5.845367906424e-04 0.0 
0.0 0.0 0.0 
4.188988766284e-03 8.167214644788e-04 0.0 
8.167214644788e-04 -3.560141849664e-03 0.0 
0.0 0.0 0.0 
1.060200160646e-03 5.315513391754e-04 0.0 
5.315513391754e-04 -7.190270949570e-04 0.0 
0.0 0.0 0.0 
-1.523681889209e-03 2.097462032754e-03 0.0 
2.097462032754e-03 3.481873004528e-03 0.0 
0.0 0.0 0.0 
1.051429956826e-03 3.435808744083e-03 0.0 
3.435808744083e-03 -3.544451800973e-04 0.0 
0.0 0.0 0.0 
2.433721383098e-03 3.357483804218e-03 0.0 
3.357483804218e-03 -1.720813734841e-03 0.0 
0.0 0.0 0.0 
3.942395600712e-03 2.576004991461e-03 0.0 
2.576004991461e-03 -3.252435896242e-03 0.0 
0.0 0.0 0.0 
1.434818338959e-03 4.463818498688e-03 0.0 
4.463818498688e-03 -3.537352381001e-04 0.0 
0.0 0.0 0.0 
4.252920488332e-04 2.596627137103e-04 0.0 
2.596627137103e-04 -6.028145965198e-05 0.0 
0.0 0.0 0.0 
1.173047636428e-03 6.243285522883e-05 0.0 
6.243285522883e-05 -9.008689751837e-04 0.0 
0.0 0.0 0.0 
1.848190733550e-03 4.649680379072e-03 0.0 
4.649680379072e-03 -9.965956015087e-04 0.0 
0.0 0.0 0.0 
-3.358220325854e-03 1.917695663142e-03 0.0 
1.917695663142e-03 5.058020429330e-03 0.0 
0.0 0.0 0.0 
7.976479372593e-04 5.407819654553e-04 0.0 
5.407819654553e-04 -4.316621801107e-04 0.0 
0.0 0.0 0.0 
1.231208306439e-03 9.088790789355e-04 0.0 
9.088790789355e-04 -8.519528389648e-04 0.0 
0.0 0.0 0.0 
-3.189812236299e-03 9.709569923237e-05 0.0 
9.709569923237e-05 6.069568217688e-03 0.0 
0.0 0.0 0.0 
-3.160799543678e-03 4.428117615900e-05 0.0 
4.428117615900e-05 6.005271048805e-03 0.0 
0.0 0.0 0.0 
-2.020762925594e-03 4.039996119475e-03 0.0 
4.039996119475e-03 3.483151024778e-03 0.0 
0.0 0.0 0.0 
1.781856847543e-03 4.518509295815e-03 0.0 
4.518509295815e-03 -9.472451802804e-04 0.0 
0.0 0.0 0.0 
1.624590791967e-03 3.522332711000e-04 0.0 
3.522332711000e-04 -1.348342453964e-03 0.0 
0.0 0.0 0.0 
-4.619571462541e-04 4.450965119585e-03 0.0 
4.450965119585e-03 1.767684220196e-03 0.0 
0.0 0.0 0.0 
3.248661455555e-03 3.662413661353e-03 0.0 
3.662413661353e-03 -2.588700954623e-03 0.0 
0.0 0.0 0.0 
1.296315066614e-03 2.056215289123e-03 0.0 
2.056215289123e-03 -8.476808854321e-04 0.0 
0.0 0.0 0.0 
3.891707630097e-03 2.823711195298e-03 0.0 
2.823711195298e-03 -3.289179338124e-03 0.0 
0.0 0.0 0.0 
-6.626825337002e-04 4.794959486264e-03 0.0 
4.794959486264e-03 2.187001576674e-03 0.0 
0.0 0.0 0.0 
-4.092122702879e-03 4.343713555328e-03 0.0 
4.343713555328e-03 6.374418496290e-03 0.0 
0.0 0.0 0.0 
3.001628949982e-03 3.638700363495e-03 0.0 
3.638700363495e-03 -2.136178127373e-03 0.0 
0.0 0.0 0.0 
2.064201429730e-03 4.316685461303e-04 0.0 
4.316685461303e-04 -1.672277486488e-03 0.0 
0.0 0.0 0.0 
4.110843672722e-03 1.018517171927e-03 0.0 
1.018517171927e-03 -3.358617833947e-03 0.0 
0.0 0.0 0.0 
2.567013452790e-03 3.843452869066e-04 0.0 
3.843452869066e-04 -2.323266083322e-03 0.0 
0.0 0.0 0.0 
1.612399295756e-03 4.392241730132e-03 0.0 
4.392241730132e-03 -8.093123742010e-04 0.0 
0.0 0.0 0.0 
4.655516400902e-04 4.563543080364e-03 0.0 
4.563543080364e-03 4.011844187142e-04 0.0 
0.0 0.0 0.0 
-3.326682360083e-03 2.549733884196e-03 0.0 
2.549733884196e-03 4.923843108472e-03 0.0 
0.0 0.0 0.0 
-7.471716091134e-05 4.517541475341e-03 0.0 
4.517541475341e-03 1.112617598213e-03 0.0 
0.0 0.0 0.0 
-2.029623412387e-04 4.568230323045e-03 0.0 
4.568230323045e-03 1.420832061116e-03 0.0 
0.0 0.0 0.0 
3.725709628118e-03 5.347433051118e-05 0.0 
5.347433051118e-05 -2.647936521636e-03 0.0 
0.0 0.0 0.0 
2.664030753467e-03 2.713536383053e-04 0.0 
2.713536383053e-04 -2.271681889785e-03 0.0 
0.0 0.0 0.0 
1.373888475986e-03 4.982107389774e-03 0.0 
4.982107389774e-03 2.636381511278e-04 0.0 
0.0 0.0 0.0 
-1.322786786941e-03 4.360054002987e-03 0.0 
4.360054002987e-03 2.376793947842e-03 0.0 
0.0 0.0 0.0 
-1.305149960184e-03 4.268925841679e-03 0.0 
4.268925841679e-03 2.681959118389e-03 0.0 
0.0 0.0 0.0 
1.838297212216e-03 2.863068501041e-03 0.0 
2.863068501041e-03 -1.277707167997e-03 0.0 
0.0 0.0 0.0 
3.036332877917e-03 -7.434820197017e-05 0.0 
-7.434820197017e-05 -2.607476682129e-03 0.0 
0.0 0.0 0.0 
3.791557510145e-03 -1.215113060349e-04 0.0 
-1.215113060349e-04 -3.105925865252e-03 0.0 
0.0 0.0 0.0 
1.914253590363e-03 4.197345620952e-03 0.0 
4.197345620952e-03 -1.172991044111e-03 0.0 
0.0 0.0 0.0 
2.499030755480e-03 2.658035239214e-04 0.0 
2.658035239214e-04 -2.269907364980e-03 0.0 
0.0 0.0 0.0 
-2.693331131327e-03 7.551664920286e-03 0.0 
7.551664920286e-03 8.437276089909e-03 0.0 
0.0 0.0 0.0 
-4.100696704008e-03 7.753450382636e-03 0.0 
7.753450382636e-03 1.101661629445e-02 0.0 
0.0 0.0 0.0 
-3.250313331306e-03 2.758007823041e-03 0.0 
2.758007823041e-03 4.899155594120e-03 0.0 
0.0 0.0 0.0 
3.522391539766e-03 1.086198474954e-03 0.0 
1.086198474954e-03 -2.455179592715e-03 0.0 
0.0 0.0 0.0 
2.033815865118e-03 3.101390356826e-04 0.0 
3.101390356826e-04 -1.654821754665e-03 0.0 
0.0 0.0 0.0 
2.428600789071e-03 2.066787655451e-03 0.0 
2.066787655451e-03 -1.946851730849e-03 0.0 
0.0 0.0 0.0 
4.000515781429e-03 1.107781531618e-04 0.0 
1.107781531618e-04 -3.158175947239e-03 0.0 
0.0 0.0 0.0 
5.388102117330e-04 4.843312425637e-03 0.0 
4.843312425637e-03 1.668763771216e-04 0.0 
0.0 0.0 0.0 
-2.471511701639e-03 2.076328314678e-03 0.0 
2.076328314678e-03 3.978814700415e-03 0.0 
0.0 0.0 0.0 
1.870928708254e-03 2.106771691489e-04 0.0 
2.106771691489e-04 -1.625643971771e-03 0.0 
0.0 0.0 0.0 
8.775243177366e-04 4.728105754084e-04 0.0 
4.728105754084e-04 -4.968707567724e-04 0.0 
0.0 0.0 0.0 
3.745458215822e-03 3.506710706634e-05 0.0 
3.506710706634e-05 -2.373243115135e-03 0.0 
0.0 0.0 0.0 
2.527500739943e-03 1.797294549163e-03 0.0 
1.797294549163e-03 -2.076398205774e-03 0.0 
0.0 0.0 0.0 
1.740010874270e-03 4.253888823582e-03 0.0 
4.253888823582e-03 -6.679274521663e-04 0.0 
0.0 0.0 0.0 
3.753844543760e-03 2.341380009178e-05 0.0 
2.341380009178e-05 -2.377523879774e-03 0.0 
0.0 0.0 0.0 
-2.248443236742e-03 2.077044131064e-03 0.0 
2.077044131064e-03 3.978308853877e-03 0.0 
0.0 0.0 0.0 
3.669706350759e-03 -2.907110114890e-05 0.0 
-2.907110114890e-05 -2.895686603661e-03 0.0 
0.0 0.0 0.0 
-9.480943052463e-04 4.439827318334e-03 0.0 
4.439827318334e-03 2.362419911765e-03 0.0 
0.0 0.0 0.0 
8.297131342949e-04 4.507710646912e-03 0.0 
4.507710646912e-03 4.070532299600e-04 0.0 
0.0 0.0 0.0 
4.102418705728e-03 1.296571007892e-03 0.0 
1.296571007892e-03 -3.743380880720e-03 0.0 
0.0 0.0 0.0 
2.832237867833e-03 1.168619862009e-03 0.0 
1.168619862009e-03 -2.354237122325e-03 0.0 
0.0 0.0 0.0 
-1.887479584880e-03 2.450495027208e-03 0.0 
2.450495027208e-03 3.658935417361e-03 0.0 
0.0 0.0 0.0 
2.388076248081e-03 1.240767138420e-03 0.0 
1.240767138420e-03 -1.922099689909e-03 0.0 
0.0 0.0 0.0 
2.424549560193e-03 4.044550675518e-03 0.0 
4.044550675518e-03 -1.719655724352e-03 0.0 
0.0 0.0 0.0 
2.178041173458e-03 4.055864346244e-03 0.0 
4.055864346244e-03 -1.153577520873e-03 0.0 
0.0 0.0 0.0 
1.736347743209e-04 6.536680075049e-04 0.0 
6.536680075049e-04 3.698013192688e-05 0.0 
0.0 0.0 0.0 
3.666467730596e-03 -6.012984266598e-05 0.0 
-6.012984266598e-05 -2.755051009315e-03 0.0 
0.0 0.0 0.0 
1.856401689333e-03 4.757448070353e-03 0.0 
4.757448070353e-03 -8.771352412497e-04 0.0 
0.0 0.0 0.0 
-3.321413793038e-03 3.719815775999e-03 0.0 
3.719815775999e-03 5.267630856370e-03 0.0 
0.0 0.0 0.0 
1.768531137220e-03 4.669500044494e-03 0.0 
4.669500044494e-03 -9.392039358875e-04 0.0 
0.0 0.0 0.0 
3.902540735699e-03 2.593286190290e-03 0.0 
2.593286190290e-03 -2.866683709102e-03 0.0 
0.0 0.0 0.0 
-1.756629939207e-03 3.780248855201e-03 0.0 
3.780248855201e-03 3.216428635760e-03 0.0 
0.0 0.0 0.0 
1.473847351719e-03 4.909587602545e-03 0.0 
4.909587602545e-03 -4.450204740262e-04 0.0 
0.0 0.0 0.0 
-4.925460743639e-03 6.198680805375e-03 0.0 
6.198680805375e-03 8.179666866815e-03 0.0 
0.0 0.0 0.0 
1.713931919897e-03 4.734119979451e-03 0.0 
4.734119979451e-03 -8.719882508592e-04 0.0 
0.0 0.0 0.0 
8.395086419224e-04 4.434082888867e-04 0.0 
4.434082888867e-04 -4.919821951687e-04 0.0 
0.0 0.0 0.0 
2.148089975951e-03 4.379628017292e-03 0.0 
4.379628017292e-03 -1.354061563123e-03 0.0 
0.0 0.0 0.0 
2.377578385952e-03 3.600909504613e-04 0.0 
3.600909504613e-04 -1.984253528110e-03 0.0 
0.0 0.0 0.0 
2.274773484557e-03 4.718319529698e-04 0.0 
4.718319529698e-04 -2.007642360915e-03 0.0 
0.0 0.0 0.0 
-1.728252449722e-03 3.985358049289e-03 0.0 
3.985358049289e-03 3.032680380635e-03 0.0 
0.0 0.0 0.0 
3.244454247195e-03 1.063914833962e-03 0.0 
1.063914833962e-03 -2.762593980658e-03 0.0 
0.0 0.0 0.0 
1.010069063824e-03 4.441508636995e-03 0.0 
4.441508636995e-03 -1.849465483935e-04 0.0 
0.0 0.0 0.0 
3.827636207994e-03 3.174656692541e-03 0.0 
3.174656692541e-03 -3.200826530039e-03 0.0 
0.0 0.0 0.0 
1.917097731991e-03 1.268257391781e-03 0.0 
1.268257391781e-03 -1.471615861179e-03 0.0 
0.0 0.0 0.0 
3.353848303360e-03 3.317695306985e-03 0.0 
3.317695306985e-03 -2.549272827908e-03 0.0 
0.0 0.0 0.0 
4.456647632197e-03 9.345328322928e-04 0.0 
9.345328322928e-04 -3.799322078825e-03 0.0 
0.0 0.0 0.0 
3.903957257733e-03 1.920259752747e-03 0.0 
1.920259752747e-03 -3.359930375512e-03 0.0 
0.0 0.0 0.0 
4.428667840354e-03 1.349116478718e-03 0.0 
1.349116478718e-03 -3.782322435276e-03 0.0 
0.0 0.0 0.0 
-7.250772293131e-04 4.408364452105e-03 0.0 
4.408364452105e-03 1.775096082351e-03 0.0 
0.0 0.0 0.0 
4.307193949532e-03 1.074409423729e-03 0.0 
1.074409423729e-03 -3.738918093834e-03 0.0 
0.0 0.0 0.0 
-7.096543310914e-05 4.506283735769e-03 0.0 
4.506283735769e-03 1.364406412381e-03 0.0 
0.0 0.0 0.0 
2.141914286794e-03 3.018189876923e-03 0.0 
3.018189876923e-03 -1.455561430208e-03 0.0 
0.0 0.0 0.0 
2.356691042934e-03 2.874437076258e-03 0.0 
2.874437076258e-03 -1.795243429392e-03 0.0 
0.0 0.0 0.0 
3.571435466294e-03 3.194090510517e-03 0.0 
3.194090510517e-03 -2.958667151937e-03 0.0 
0.0 0.0 0.0 
-3.500519169460e-03 2.965099151694e-03 0.0 
2.965099151694e-03 5.064512845943e-03 0.0 
0.0 0.0 0.0 
6.952843608372e-04 3.961043255827e-04 0.0 
3.961043255827e-04 -3.163188430655e-04 0.0 
0.0 0.0 0.0 
6.646183732195e-04 3.710316283989e-04 0.0 
3.710316283989e-04 -3.120938499835e-04 0.0 
0.0 0.0 0.0 
3.008332329748e-03 6.515881371232e-04 0.0 
6.515881371232e-04 -1.968307615160e-03 0.0 
0.0 0.0 0.0 
2.382938900110e-04 4.510822482285e-03 0.0 
4.510822482285e-03 7.201220353203e-04 0.0 
0.0 0.0 0.0 
3.602351307133e-04 3.341727753695e-04 0.0 
3.341727753695e-04 2.311308289560e-05 0.0 
0.0 0.0 0.0 
1.135115960885e-03 4.610145632779e-03 0.0 
4.610145632779e-03 1.116587760476e-03 0.0 
0.0 0.0 0.0 
1.599176358556e-03 2.564565320535e-04 0.0 
2.564565320535e-04 -1.339472302269e-03 0.0 
0.0 0.0 0.0 
4.100577666732e-04 3.939803236235e-04 0.0 
3.939803236235e-04 1.549069735514e-04 0.0 
0.0 0.0 0.0 
5.394130581733e-04 3.268857082107e-04 0.0 
3.268857082107e-04 -1.672708879625e-04 0.0 
0.0 0.0 0.0 
4.349220405941e-03 1.108179440299e-03 0.0 
1.108179440299e-03 -3.606081615409e-03 0.0 
0.0 0.0 0.0 
1.041057184242e-03 1.869465084733e-05 0.0 
1.869465084733e-05 -7.695263150400e-04 0.0 
0.0 0.0 0.0 
3.072586040996e-03 3.746389647370e-03 0.0 
3.746389647370e-03 -2.374219192508e-03 0.0 
0.0 0.0 0.0 
-3.371017361096e-03 3.099091350583e-03 0.0 
3.099091350583e-03 5.046567092136e-03 0.0 
0.0 0.0 0.0 
-3.638863827514e-03 3.296995329242e-03 0.0 
3.296995329242e-03 5.324037404881e-03 0.0 
0.0 0.0 0.0 
2.016442215848e-03 4.257046068515e-03 0.0 
4.257046068515e-03 -1.257764436785e-03 0.0 
0.0 0.0 0.0 
-1.256229188089e-03 6.145862945099e-03 0.0 
6.145862945099e-03 5.440252907496e-03 0.0 
0.0 0.0 0.0 
-1.826768385158e-03 6.940795297094e-03 0.0 
6.940795297094e-03 6.770610164281e-03 0.0 
0.0 0.0 0.0 
5.288412078901e-04 3.006740748201e-04 0.0 
3.006740748201e-04 -1.628971602445e-04 0.0 
0.0 0.0 0.0 
2.661459233305e-03 1.316809049633e-03 0.0 
1.316809049633e-03 -2.284235575651e-03 0.0 
0.0 0.0 0.0 
3.803842062972e-03 1.486617377264e-03 0.0 
1.486617377264e-03 -3.418743620596e-03 0.0 
0.0 0.0 0.0 
2.617103735371e-03 1.914267638526e-03 0.0 
1.914267638526e-03 -2.091321731687e-03 0.0 
0.0 0.0 0.0 
4.254673592805e-03 1.753157660105e-03 0.0 
1.753157660105e-03 -3.711337548174e-03 0.0 
0.0 0.0 0.0 
4.182631705328e-03 1.260167390095e-03 0.0 
1.260167390095e-03 -3.514092264227e-03 0.0 
0.0 0.0 0.0 
-8.683474773534e-04 6.195303662878e-03 0.0 
6.195303662878e-03 5.423893164553e-03 0.0 
0.0 0.0 0.0 
-3.654560120352e-03 3.986925223111e-03 0.0 
3.986925223111e-03 6.030547621387e-03 0.0 
0.0 0.0 0.0 
-3.363059156650e-03 4.504292991276e-05 0.0 
4.504292991276e-05 6.070244073436e-03 0.0 
0.0 0.0 0.0 
2.410626497333e-03 2.778149021775e-03 0.0 
2.778149021775e-03 -1.781875147223e-03 0.0 
0.0 0.0 0.0 
3.672096769418e-03 2.960783494069e-03 0.0 
2.960783494069e-03 -2.925384406755e-03 0.0 
0.0 0.0 0.0 
1.340516790318e-03 3.260684368665e-03 0.0 
3.260684368665e-03 -7.333835722099e-04 0.0 
0.0 0.0 0.0 
4.429777506407e-04 1.023281690217e-04 0.0 
1.023281690217e-04 -8.595485343010e-05 0.0 
0.0 0.0 0.0 
4.042497427321e-03 1.945128887416e-03 0.0 
1.945128887416e-03 -3.582651112489e-03 0.0 
0.0 0.0 0.0 
2.805611057421e-04 3.732519023437e-04 0.0 
3.732519023437e-04 1.179653089669e-04 0.0 
0.0 0.0 0.0 
4.411347423570e-03 9.516595942565e-04 0.0 
9.516595942565e-04 -3.925522291647e-03 0.0 
0.0 0.0 0.0 
1.517686719992e-03 3.671517154655e-03 0.0 
3.671517154655e-03 -8.783536664411e-04 0.0 
0.0 0.0 0.0 
2.227768896010e-03 4.131829106002e-03 0.0 
4.131829106002e-03 -1.240119787485e-03 0.0 
0.0 0.0 0.0 
2.523122893167e-03 4.274134391795e-03 0.0 
4.274134391795e-03 -1.764343028859e-03 0.0 
0.0 0.0 0.0 
1.514996980765e-03 1.766347001740e-03 0.0 
1.766347001740e-03 -1.022016063163e-03 0.0 
0.0 0.0 0.0 
3.389988221540e-03 1.459531877024e-04 0.0 
1.459531877024e-04 -3.192546785917e-03 0.0 
0.0 0.0 0.0 
5.994179413524e-04 4.499226281960e-03 0.0 
4.499226281960e-03 2.845912734641e-04 0.0 
0.0 0.0 0.0 
4.093854150757e-03 1.613278203806e-03 0.0 
1.613278203806e-03 -3.689097583777e-03 0.0 
0.0 0.0 0.0 
3.674737244888e-04 4.538186917929e-03 0.0 
4.538186917929e-03 9.109187261882e-04 0.0 
0.0 0.0 0.0 
3.629099676207e-03 2.784848644772e-03 0.0 
2.784848644772e-03 -2.545808878880e-03 0.0 
0.0 0.0 0.0 
2.748439260690e-03 4.181052365560e-03 0.0 
4.181052365560e-03 -2.002915928762e-03 0.0 
0.0 0.0 0.0 
4.289524250468e-03 1.423960493392e-03 0.0 
1.423960493392e-03 -3.764937299517e-03 0.0 
0.0 0.0 0.0 
1.733319843744e-03 3.658649404231e-04 0.0 
3.658649404231e-04 -1.351352840767e-03 0.0 
0.0 0.0 0.0 
-2.099069526418e-06 4.545682653375e-03 0.0 
4.545682653375e-03 9.115664454251e-04 0.0 
0.0 0.0 0.0 
1.214390477159e-03 -6.915515055592e-05 0.0 
-6.915515055592e-05 -6.348085169622e-04 0.0 
0.0 0.0 0.0 
3.660611921595e-03 3.328524434844e-03 0.0 
3.328524434844e-03 -3.012081140473e-03 0.0 
0.0 0.0 0.0 
1.315806189941e-03 6.767058274143e-04 0.0 
6.767058274143e-04 -5.658391326435e-04 0.0 
0.0 0.0 0.0 
3.446040805960e-03 -9.801371563817e-05 0.0 
-9.801371563817e-05 -2.570389112928e-03 0.0 
0.0 0.0 0.0 
1.709789582529e-03 2.591771660460e-04 0.0 
2.591771660460e-04 -1.340796936283e-03 0.0 
0.0 0.0 0.0 
9.040170846002e-04 4.911200869249e-03 0.0 
4.911200869249e-03 2.084831023430e-04 0.0 
0.0 0.0 0.0 
-3.223724038308e-03 3.579752493230e-03 0.0 
3.579752493230e-03 4.648600811709e-03 0.0 
0.0 0.0 0.0 
-6.648321305180e-04 4.595333547165e-03 0.0 
4.595333547165e-03 3.752243895216e-03 0.0 
0.0 0.0 0.0 
0.0 4.988527603241e-03 0.0 
4.988527603241e-03 2.169322021956e-03 0.0 
0.0 0.0 0.0 
9.518840031841e-05 5.623580918969e-04 0.0 
5.623580918969e-04 -1.906531353091e-05 0.0 
0.0 0.0 0.0 
-8.594647105229e-04 5.304406333557e-03 0.0 
5.304406333557e-03 4.460031339157e-03 0.0 
0.0 0.0 0.0 
3.617695404903e-03 1.455212068540e-03 0.0 
1.455212068540e-03 -3.108631870221e-03 0.0 
0.0 0.0 0.0 
1.566792831495e-03 1.787062535332e-04 0.0 
1.787062535332e-04 -1.319292602180e-03 0.0 
0.0 0.0 0.0 
-8.674470553642e-04 6.315457748725e-03 0.0 
6.315457748725e-03 4.113080857752e-03 0.0 
0.0 0.0 0.0 
4.550943294779e-03 6.644828563728e-04 0.0 
6.644828563728e-04 -4.047526456556e-03 0.0 
0.0 0.0 0.0 
3.069564404618e-03 1.225410306597e-03 0.0 
1.225410306597e-03 -2.718132520893e-03 0.0 
0.0 0.0 0.0 
1.830403762809e-03 4.337381486370e-03 0.0 
4.337381486370e-03 -8.023170885438e-04 0.0 
0.0 0.0 0.0 
3.353984032248e-03 3.432917553536e-03 0.0 
3.432917553536e-03 -2.694546391345e-03 0.0 
0.0 0.0 0.0 
8.431335625825e-05 4.863584143665e-03 0.0 
4.863584143665e-03 1.233173528227e-03 0.0 
0.0 0.0 0.0 
3.674401104224e-03 9.351615320721e-04 0.0 
9.351615320721e-04 -2.525116414266e-03 0.0 
0.0 0.0 0.0 
1.989715628192e-03 2.095269568878e-04 0.0 
2.095269568878e-04 -1.626176146157e-03 0.0 
0.0 0.0 0.0 
1.404795058317e-03 1.448344902993e-04 0.0 
1.448344902993e-04 -1.059262878447e-03 0.0 
0.0 0.0 0.0 
3.271236656911e-03 -9.121472502926e-05 0.0 
-9.121472502926e-05 -3.041700878110e-03 0.0 
0.0 0.0 0.0 
-4.383984998048e-03 4.899312328099e-03 0.0 
4.899312328099e-03 7.334553698118e-03 0.0 
0.0 0.0 0.0 
-2.890005289408e-03 3.852363929844e-03 0.0 
3.852363929844e-03 4.608741196473e-03 0.0 
0.0 0.0 0.0 
5.886667588177e-04 3.859699986363e-05 0.0 
3.859699986363e-05 -2.787326294967e-04 0.0 
0.0 0.0 0.0 
4.017387872688e-03 1.621113589678e-05 0.0 
1.621113589678e-05 -2.464640867918e-03 0.0 
0.0 0.0 0.0 
2.025529973391e-03 -4.686095149327e-04 0.0 
-4.686095149327e-04 -1.130558771727e-03 0.0 
0.0 0.0 0.0 
3.408810827392e-03 -1.781020457600e-04 0.0 
-1.781020457600e-04 -2.889423004463e-03 0.0 
0.0 0.0 0.0 
1.320754649482e-03 1.554301675457e-04 0.0 
1.554301675457e-04 -1.060433256907e-03 0.0 
0.0 0.0 0.0 
4.460488069334e-03 1.220347291408e-03 0.0 
1.220347291408e-03 -4.008000006069e-03 0.0 
0.0 0.0 0.0 
4.413060618715e-03 5.697212199516e-04 0.0 
5.697212199516e-04 -4.020454396686e-03 0.0 
0.0 0.0 0.0 
4.293861491924e-03 6.867578996783e-04 0.0 
6.867578996783e-04 -3.761365334257e-03 0.0 
0.0 0.0 0.0 
1.424755838962e-03 2.184800703847e-04 0.0 
2.184800703847e-04 -1.067183448520e-03 0.0 
0.0 0.0 0.0 
-2.323936612574e-03 3.821393468586e-03 0.0 
3.821393468586e-03 3.528624488544e-03 0.0 
0.0 0.0 0.0 
1.182745954453e-03 1.223138386050e-04 0.0 
1.223138386050e-04 -8.504763898007e-04 0.0 
0.0 0.0 0.0 
4.601548246361e-03 1.432045690789e-03 0.0 
1.432045690789e-03 -4.043533670675e-03 0.0 
0.0 0.0 0.0 
4.692550417020e-04 4.518835801536e-03 0.0 
4.518835801536e-03 7.181013669646e-04 0.0 
0.0 0.0 0.0 
-4.198062852682e-03 1.175314145058e-03 0.0 
1.175314145058e-03 6.839303998704e-03 0.0 
0.0 0.0 0.0 
2.654306690713e-03 3.797012182322e-03 0.0 
3.797012182322e-03 -1.949562309096e-03 0.0 
0.0 0.0 0.0 
1.124407930938e-03 1.301368509446e-04 0.0 
1.301368509446e-04 -8.513767161249e-04 0.0 
0.0 0.0 0.0 
1.335426968244e-03 2.191543339578e-04 0.0 
2.191543339578e-04 -1.066615815215e-03 0.0 
0.0 0.0 0.0 
-3.556974093673e-04 3.323769381583e-03 0.0 
3.323769381583e-03 2.665610298379e-03 0.0 
0.0 0.0 0.0 
4.438116888033e-03 1.138341059143e-03 0.0 
1.138341059143e-03 -4.052826470547e-03 0.0 
0.0 0.0 0.0 
9.929347417246e-04 9.258216723644e-05 0.0 
9.258216723644e-05 -6.686063737702e-04 0.0 
0.0 0.0 0.0 
-2.196999078571e-03 1.104992007264e-04 0.0 
1.104992007264e-04 3.996027742925e-03 0.0 
0.0 0.0 0.0 
-2.480006771387e-03 7.268618750209e-05 0.0 
7.268618750209e-05 4.237329421281e-03 0.0 
0.0 0.0 0.0 
-4.605742259041e-04 3.922691714653e-03 0.0 
3.922691714653e-03 3.156185797349e-03 0.0 
0.0 0.0 0.0 
1.186515510499e-03 1.834431822124e-04 0.0 
1.834431822124e-04 -8.407508188828e-04 0.0 
0.0 0.0 0.0 
4.235414883384e-03 2.831919346308e-04 0.0 
2.831919346308e-04 -3.936612418130e-03 0.0 
0.0 0.0 0.0 
2.230683576302e-03 1.505759656591e-03 0.0 
1.505759656591e-03 -1.218535478933e-03 0.0 
0.0 0.0 0.0 
1.640919840755e-03 3.469475330387e-03 0.0 
3.469475330387e-03 -8.342787087655e-04 0.0 
0.0 0.0 0.0 
3.542186931683e-03 -3.150423970935e-04 0.0 
-3.150423970935e-04 -2.838864000375e-03 0.0 
0.0 0.0 0.0 
4.302004849624e-03 3.685924119061e-04 0.0 
3.685924119061e-04 -3.830788134906e-03 0.0 
0.0 0.0 0.0 
3.580449825687e-03 3.323959745485e-03 0.0 
3.323959745485e-03 -2.849516535869e-03 0.0 
0.0 0.0 0.0 
-1.340636291843e-04 4.616241120629e-03 0.0 
4.616241120629e-03 3.733540334815e-03 0.0 
0.0 0.0 0.0 
9.566180479337e-04 1.008131939782e-04 0.0 
1.008131939782e-04 -6.700918066181e-04 0.0 
0.0 0.0 0.0 
2.494568150591e-03 4.174066685540e-05 0.0 
4.174066685540e-05 -2.237432506304e-03 0.0 
0.0 0.0 0.0 
-4.281198304964e-03 4.582704434995e-03 0.0 
4.582704434995e-03 8.106874640810e-03 0.0 
0.0 0.0 0.0 
1.121658995702e-03 1.838414252558e-04 0.0 
1.838414252558e-04 -8.403256260842e-04 0.0 
0.0 0.0 0.0 
3.799131516746e-03 1.193352797103e-03 0.0 
1.193352797103e-03 -3.459690528009e-03 0.0 
0.0 0.0 0.0 
1.910052346042e-03 2.999035075511e-04 0.0 
2.999035075511e-04 -1.652365015405e-03 0.0 
0.0 0.0 0.0 
1.780372878424e-03 -3.183859418837e-04 0.0 
-3.183859418837e-04 -1.131161856212e-03 0.0 
0.0 0.0 0.0 
-1.315330716756e-03 1.457110020699e-04 0.0 
1.457110020699e-04 2.988466425556e-03 0.0 
0.0 0.0 0.0 
4.264060372924e-03 7.711694194149e-04 0.0 
7.711694194149e-04 -3.958029258320e-03 0.0 
0.0 0.0 0.0 
1.714279298164e-03 2.387753456396e-03 0.0 
2.387753456396e-03 -1.153766733380e-03 0.0 
0.0 0.0 0.0 
2.653355860529e-03 4.203093273265e-03 0.0 
4.203093273265e-03 -1.752302142765e-03 0.0 
0.0 0.0 0.0 
9.849569754563e-04 1.463284231031e-04 0.0 
1.463284231031e-04 -6.463187743344e-04 0.0 
0.0 0.0 0.0 
9.381069119572e-04 1.471602335946e-04 0.0 
1.471602335946e-04 -6.461153393463e-04 0.0 
0.0 0.0 0.0 
4.626402076441e-03 1.061415543270e-03 0.0 
1.061415543270e-03 -4.073456588311e-03 0.0 
0.0 0.0 0.0 
3.141953138253e-03 -3.318880171662e-04 0.0 
-3.318880171662e-04 -2.253187560312e-03 0.0 
0.0 0.0 0.0 
2.146135722426e-03 6.906721468892e-05 0.0 
6.906721468892e-05 -1.211431887917e-03 0.0 
0.0 0.0 0.0 
8.290146965624e-04 1.092953585483e-04 0.0 
1.092953585483e-04 -4.955078489810e-04 0.0 
0.0 0.0 0.0 
1.529781537859e-03 1.895643549809e-03 0.0 
1.895643549809e-03 -1.017372699552e-03 0.0 
0.0 0.0 0.0 
3.925004083676e-03 1.059211570304e-04 0.0 
1.059211570304e-04 -3.690663972687e-03 0.0 
0.0 0.0 0.0 
8.927875539628e-04 4.595559811640e-03 0.0 
4.595559811640e-03 4.633080496141e-05 0.0 
0.0 0.0 0.0 
1.378505617006e-03 4.021944849366e-03 0.0 
4.021944849366e-03 6.545527602009e-04 0.0 
0.0 0.0 0.0 
1.045648663358e-04 4.549446674069e-03 0.0 
4.549446674069e-03 1.107276631007e-03 0.0 
0.0 0.0 0.0 
5.245040591766e-04 1.044345451507e-03 0.0 
1.044345451507e-03 3.809750187078e-05 0.0 
0.0 0.0 0.0 
6.237534120994e-04 -2.317690137379e-04 0.0 
-2.317690137379e-04 -2.987548296055e-04 0.0 
0.0 0.0 0.0 
0.0 5.836262680539e-04 0.0 
5.836262680539e-04 2.173137160716e-03 0.0 
0.0 0.0 0.0 
0.0 9.592140183093e-05 0.0 
9.592140183093e-05 3.893102191344e-04 0.0 
0.0 0.0 0.0 
-2.933104169767e-03 -4.331323966886e-06 0.0 
-4.331323966886e-06 5.099478853563e-03 0.0 
0.0 0.0 0.0 
3.929242652531e-03 4.937729526816e-04 0.0 
4.937729526816e-04 -3.684023704220e-03 0.0 
0.0 0.0 0.0 
2.307120991957e-03 4.266003726741e-03 0.0 
4.266003726741e-03 -1.336371679957e-03 0.0 
0.0 0.0 0.0 
4.387098280249e-03 1.334278595738e-03 0.0 
1.334278595738e-03 -3.860685668707e-03 0.0 
0.0 0.0 0.0 
3.576533124503e-03 1.810338320619e-05 0.0 
1.810338320619e-05 -2.503958543921e-03 0.0 
0.0 0.0 0.0 
4.457038471326e-04 1.394509278104e-04 0.0 
1.394509278104e-04 3.411867196501e-05 0.0 
0.0 0.0 0.0 
-1.436118104401e-03 7.438590807209e-04 0.0 
7.438590807209e-04 3.074210696318e-03 0.0 
0.0 0.0 0.0 
-2.476277512113e-03 3.904275252333e-03 0.0 
3.904275252333e-03 4.063416672655e-03 0.0 
0.0 0.0 0.0 
-4.606565388112e-03 5.520228523598e-03 0.0 
5.520228523598e-03 9.114866513290e-03 0.0 
0.0 0.0 0.0 
6.240785712082e-04 4.582360155996e-03 0.0 
4.582360155996e-03 5.549147006250e-04 0.0 
0.0 0.0 0.0 
2.858922769670e-03 6.514232029781e-05 0.0 
6.514232029781e-05 -2.513751596559e-03 0.0 
0.0 0.0 0.0 
5.398855305636e-04 4.198914258964e-03 0.0 
4.198914258964e-03 4.781106205312e-04 0.0 
0.0 0.0 0.0 
-2.783831065682e-03 3.760474124988e-03 0.0 
3.760474124988e-03 4.090200087773e-03 0.0 
0.0 0.0 0.0 
3.512287427661e-03 2.980838523060e-04 0.0 
2.980838523060e-04 -3.294770082493e-03 0.0 
0.0 0.0 0.0 
2.513029927179e-03 4.157564537322e-03 0.0 
4.157564537322e-03 -1.779335267314e-03 0.0 
0.0 0.0 0.0 
4.047395415445e-03 3.446567098123e-04 0.0 
3.446567098123e-04 -3.605543947417e-03 0.0 
0.0 0.0 0.0 
2.162214678549e-03 1.835815375437e-03 0.0 
1.835815375437e-03 -1.026836342202e-03 0.0 
0.0 0.0 0.0 
3.906378136886e-03 1.641141873900e-04 0.0 
1.641141873900e-04 -3.478975797895e-03 0.0 
0.0 0.0 0.0 
-1.735131433440e-03 4.053627914866e-03 0.0 
4.053627914866e-03 2.967617671892e-03 0.0 
0.0 0.0 0.0 
3.848707710137e-04 1.361345990621e-04 0.0 
1.361345990621e-04 -2.037054388349e-05 0.0 
0.0 0.0 0.0 
4.408045587381e-03 6.055526736373e-04 0.0 
6.055526736373e-04 -3.924460555316e-03 0.0 
0.0 0.0 0.0 
5.842721694416e-04 4.665534492367e-03 0.0 
4.665534492367e-03 4.275670128822e-04 0.0 
0.0 0.0 0.0 
1.418624156001e-03 -2.034922248518e-04 0.0 
-2.034922248518e-04 -6.235673600145e-04 0.0 
0.0 0.0 0.0 
4.605010612423e-03 9.651261636773e-04 0.0 
9.651261636773e-04 -4.085090743591e-03 0.0 
0.0 0.0 0.0 
-2.301961659739e-03 3.557686011811e-03 0.0 
3.557686011811e-03 3.664900338721e-03 0.0 
0.0 0.0 0.0 
3.459371776579e-03 4.181547610524e-05 0.0 
4.181547610524e-05 -3.070068514291e-03 0.0 
0.0 0.0 0.0 
3.775685906340e-03 -2.437005838846e-05 0.0 
-2.437005838846e-05 -3.540711294368e-03 0.0 
0.0 0.0 0.0 
2.677826940872e-03 4.061519785200e-03 0.0 
4.061519785200e-03 -1.764699493501e-03 0.0 
0.0 0.0 0.0 
3.655336113687e-03 -3.804095733895e-04 0.0 
-3.804095733895e-04 -2.868225258707e-03 0.0 
0.0 0.0 0.0 
-1.289575243724e-04 2.239015983019e-03 0.0 
2.239015983019e-03 1.814342144820e-03 0.0 
0.0 0.0 0.0 
-1.984541305158e-04 3.071101764708e-03 0.0 
3.071101764708e-03 2.319386559479e-03 0.0 
0.0 0.0 0.0 
3.586020949647e-03 -7.906171435433e-05 0.0 
-7.906171435433e-05 -3.186891856985e-03 0.0 
0.0 0.0 0.0 
3.454025309990e-03 1.352685143916e-03 0.0 
1.352685143916e-03 -3.087963623582e-03 0.0 
0.0 0.0 0.0 
3.585206159978e-03 3.349559610937e-03 0.0 
3.349559610937e-03 -2.955876939790e-03 0.0 
0.0 0.0 0.0 
7.096623261089e-04 4.679459040422e-03 0.0 
4.679459040422e-03 4.255695148481e-04 0.0 
0.0 0.0 0.0 
6.473130773621e-06 5.249350443895e-03 0.0 
5.249350443895e-03 1.455802333885e-03 0.0 
0.0 0.0 0.0 
1.074005585895e-04 3.386637091604e-03 0.0 
3.386637091604e-03 2.647433000273e-03 0.0 
0.0 0.0 0.0 
-1.918517770168e-03 1.150942885698e-04 0.0 
1.150942885698e-04 3.642814871870e-03 0.0 
0.0 0.0 0.0 
8.005909756146e-04 5.303073809482e-03 0.0 
5.303073809482e-03 2.362437988026e-04 0.0 
0.0 0.0 0.0 
4.557126146711e-03 1.184419259795e-03 0.0 
1.184419259795e-03 -3.962969163095e-03 0.0 
0.0 0.0 0.0 
1.237075743002e-03 1.018314550388e-03 0.0 
1.018314550388e-03 -5.534195141214e-04 0.0 
0.0 0.0 0.0 
8.982147847054e-04 4.489022378647e-03 0.0 
4.489022378647e-03 1.139964456123e-03 0.0 
0.0 0.0 0.0 
3.444311418216e-03 1.097691245794e-03 0.0 
1.097691245794e-03 -3.120533169708e-03 0.0 
0.0 0.0 0.0 
-2.913334811202e-04 4.511855250342e-03 0.0 
4.511855250342e-03 1.428323839325e-03 0.0 
0.0 0.0 0.0 
3.630682591155e-03 1.179199804327e-03 0.0 
1.179199804327e-03 -3.133973147364e-03 0.0 
0.0 0.0 0.0 
2.731902527777e-03 3.155671689828e-04 0.0 
3.155671689828e-04 -1.817247184833e-03 0.0 
0.0 0.0 0.0 
3.050018825071e-03 1.471372751097e-03 0.0 
1.471372751097e-03 -2.660059940271e-03 0.0 
0.0 0.0 0.0 
2.010891891628e-03 2.244399290099e-03 0.0 
2.244399290099e-03 -7.652040361527e-04 0.0 
0.0 0.0 0.0 
3.657431995906e-03 3.140352842696e-03 0.0 
3.140352842696e-03 -2.926371257936e-03 0.0 
0.0 0.0 0.0 
3.228399721540e-03 1.313544647442e-03 0.0 
1.313544647442e-03 -2.732661809657e-03 0.0 
0.0 0.0 0.0 
2.876720132827e-03 4.078047491499e-03 0.0 
4.078047491499e-03 -2.151345551013e-03 0.0 
0.0 0.0 0.0 
-2.453833838275e-03 2.826058848784e-04 0.0 
2.826058848784e-04 4.220727056813e-03 0.0 
0.0 0.0 0.0 
3.389190817399e-03 -6.743449488768e-05 0.0 
-6.743449488768e-05 -3.187561889409e-03 0.0 
0.0 0.0 0.0 
2.328563814799e-03 1.103156296920e-03 0.0 
1.103156296920e-03 -1.354113818223e-03 0.0 
0.0 0.0 0.0 
2.791108862876e-03 1.409708937582e-03 0.0 
1.409708937582e-03 -2.298870902821e-03 0.0 
0.0 0.0 0.0 
1.855178022748e-03 2.593918170942e-03 0.0 
2.593918170942e-03 -4.691067378559e-04 0.0 
0.0 0.0 0.0 
2.023645555475e-03 -2.822417244343e-04 0.0 
-2.822417244343e-04 -1.150019277476e-03 0.0 
0.0 0.0 0.0 
-9.524750788906e-04 1.468182885528e-04 0.0 
1.468182885528e-04 2.750940751318e-03 0.0 
0.0 0.0 0.0 
-1.272885214290e-03 1.156895122651e-04 0.0 
1.156895122651e-04 2.987261627033e-03 0.0 
0.0 0.0 0.0 
3.054591299551e-03 -1.886659184510e-04 0.0 
-1.886659184510e-04 -1.625399916021e-03 0.0 
0.0 0.0 0.0 
2.609779743302e-03 1.556599200277e-03 0.0 
1.556599200277e-03 -2.200599571070e-03 0.0 
0.0 0.0 0.0 
3.371217389310e-03 -1.459656888173e-04 0.0 
-1.459656888173e-04 -3.036797360940e-03 0.0 
0.0 0.0 0.0 
3.295961274966e-03 -1.503989072774e-04 0.0 
-1.503989072774e-04 -2.903738459900e-03 0.0 
0.0 0.0 0.0 
8.320747633928e-04 4.909538145533e-03 0.0 
4.909538145533e-03 2.086628732361e-04 0.0 
0.0 0.0 0.0 
2.981730019477e-03 3.942443702583e-03 0.0 
3.942443702583e-03 -2.133421537480e-03 0.0 
0.0 0.0 0.0 
1.123547761393e-03 4.788901676966e-03 0.0 
4.788901676966e-03 -1.551896437175e-04 0.0 
0.0 0.0 0.0 
4.406870166632e-03 8.208701074180e-04 0.0 
8.208701074180e-04 -4.056875970996e-03 0.0 
0.0 0.0 0.0 
-3.606740019337e-03 1.361548932763e-04 0.0 
1.361548932763e-04 6.516735419519e-03 0.0 
0.0 0.0 0.0 
2.424053163057e-04 8.758490016257e-04 0.0 
8.758490016257e-04 7.381092676151e-05 0.0 
0.0 0.0 0.0 
3.381431347056e-03 -1.928658349525e-04 0.0 
-1.928658349525e-04 -2.879125469902e-03 0.0 
0.0 0.0 0.0 
2.082627956453e-03 2.595123129861e-03 0.0 
2.595123129861e-03 -1.544687614958e-03 0.0 
0.0 0.0 0.0 
3.353724741645e-03 3.483441889588e-03 0.0 
3.483441889588e-03 -2.560095022111e-03 0.0 
0.0 0.0 0.0 
3.279489783915e-03 -3.253900176684e-05 0.0 
-3.253900176684e-05 -2.679075088916e-03 0.0 
0.0 0.0 0.0 
-9.762542887181e-04 4.300410134759e-03 0.0 
4.300410134759e-03 2.105172395591e-03 0.0 
0.0 0.0 0.0 
4.615857301945e-03 1.309681820970e-03 0.0 
1.309681820970e-03 -4.083709239094e-03 0.0 
0.0 0.0 0.0 
3.093928893184e-03 -3.842994450131e-04 0.0 
-3.842994450131e-04 -1.980312996202e-03 0.0 
0.0 0.0 0.0 
4.596921384884e-03 7.253966243074e-04 0.0 
7.253966243074e-04 -4.044082953730e-03 0.0 
0.0 0.0 0.0 
6.580569658805e-04 1.906273237653e-06 0.0 
1.906273237653e-06 -3.333585791691e-04 0.0 
0.0 0.0 0.0 
-1.583303504320e-03 4.161334873311e-03 0.0 
4.161334873311e-03 2.940347917839e-03 0.0 
0.0 0.0 0.0 
3.444149434339e-03 -3.439835708285e-04 0.0 
-3.439835708285e-04 -2.747315766091e-03 0.0 
0.0 0.0 0.0 
1.085625063242e-03 3.715158841738e-05 0.0 
3.715158841738e-05 -7.740247521906e-04 0.0 
0.0 0.0 0.0 
3.350634608239e-04 4.758162698979e-03 0.0 
4.758162698979e-03 7.678024273883e-04 0.0 
0.0 0.0 0.0 
2.436820431105e-03 3.941065457705e-03 0.0 
3.941065457705e-03 -1.658572327056e-03 0.0 
0.0 0.0 0.0 
3.755981655424e-03 2.916396477730e-05 0.0 
2.916396477730e-05 -3.344645274400e-03 0.0 
0.0 0.0 0.0 
2.436991724444e-03 -2.649638544294e-05 0.0 
-2.649638544294e-05 -2.238935562306e-03 0.0 
0.0 0.0 0.0 
3.534912997429e-03 3.509170461521e-03 0.0 
3.509170461521e-03 -2.874877594387e-03 0.0 
0.0 0.0 0.0 
-2.357867754276e-03 9.374284676096e-06 0.0 
9.374284676096e-06 4.161975228608e-03 0.0 
0.0 0.0 0.0 
2.993492787099e-03 -4.246270882423e-04 0.0 
-4.246270882423e-04 -1.906684092447e-03 0.0 
0.0 0.0 0.0 
8.302199461252e-04 5.322402308049e-03 0.0 
5.322402308049e-03 3.745095038081e-04 0.0 
0.0 0.0 0.0 
-3.097890949266e-05 5.430755221239e-03 0.0 
5.430755221239e-03 1.667977099075e-03 0.0 
0.0 0.0 0.0 
-2.730962257536e-03 9.179197637876e-05 0.0 
9.179197637876e-05 4.719991880563e-03 0.0 
0.0 0.0 0.0 
-1.696524990610e-03 2.941552316153e-03 0.0 
2.941552316153e-03 3.107605055862e-03 0.0 
0.0 0.0 0.0 
1.600946598599e-04 5.711303074264e-03 0.0 
5.711303074264e-03 1.247501451653e-03 0.0 
0.0 0.0 0.0 
4.476625983649e-03 8.979145539477e-04 0.0 
8.979145539477e-04 -3.982676179114e-03 0.0 
0.0 0.0 0.0 
4.181614331857e-03 5.148485043137e-04 0.0 
5.148485043137e-04 -3.905983159515e-03 0.0 
0.0 0.0 0.0 
9.271313946611e-04 2.473579196799e-03 0.0 
2.473579196799e-03 -1.412443444256e-04 0.0 
0.0 0.0 0.0 
1.279338384698e-03 -1.552346283787e-04 0.0 
-1.552346283787e-04 -5.624438236258e-04 0.0 
0.0 0.0 0.0 
2.644886859605e-03 -5.444376635353e-05 0.0 
-5.444376635353e-05 -2.374789438545e-03 0.0 
0.0 0.0 0.0 
9.508309759862e-04 1.848349831034e-05 0.0 
1.848349831034e-05 -6.976530695212e-04 0.0 
0.0 0.0 0.0 
3.540256862054e-03 6.631112322113e-06 0.0 
6.631112322113e-06 -3.338858974906e-03 0.0 
0.0 0.0 0.0 
4.458028167645e-03 3.788685926991e-04 0.0 
3.788685926991e-04 -3.949980063269e-03 0.0 
0.0 0.0 0.0 
3.857990727707e-05 1.506793230436e-03 0.0 
1.506793230436e-03 1.213711972812e-03 0.0 
0.0 0.0 0.0 
-2.571240696425e-05 2.277807740402e-03 0.0 
2.277807740402e-03 1.623666148317e-03 0.0 
0.0 0.0 0.0 
-3.906194184063e-03 8.591910206316e-04 0.0 
8.591910206316e-04 5.980547152330e-03 0.0 
0.0 0.0 0.0 
4.458021929747e-03 8.706829645447e-04 0.0 
8.706829645447e-04 -4.040538934035e-03 0.0 
0.0 0.0 0.0 
2.457007482332e-03 -5.552679490198e-05 0.0 
-5.552679490198e-05 -2.242357519167e-03 0.0 
0.0 0.0 0.0 
2.430088836169e-03 4.226363161946e-03 0.0 
4.226363161946e-03 -1.681343319525e-03 0.0 
0.0 0.0 0.0 
1.573424161190e-04 5.676183937755e-04 0.0 
5.676183937755e-04 3.522908607638e-04 0.0 
0.0 0.0 0.0 
1.745804188893e-04 6.805474506670e-04 0.0 
6.805474506670e-04 3.343246925904e-04 0.0 
0.0 0.0 0.0 
4.161819253872e-03 5.685685861045e-04 0.0 
5.685685861045e-04 -3.699768403546e-03 0.0 
0.0 0.0 0.0 
-4.475278667218e-03 1.175581513310e-03 0.0 
1.175581513310e-03 7.697025600113e-03 0.0 
0.0 0.0 0.0 
1.412636533203e-03 -2.396925734167e-04 0.0 
-2.396925734167e-04 -8.395660298401e-04 0.0 
0.0 0.0 0.0 
1.290015468112e-04 1.159871933106e-03 0.0 
1.159871933106e-03 7.691906744915e-04 0.0 
0.0 0.0 0.0 
3.329591510973e-03 -4.297991829659e-04 0.0 
-4.297991829659e-04 -2.641198856523e-03 0.0 
0.0 0.0 0.0 
7.572603892125e-05 1.407731018484e-03 0.0 
1.407731018484e-03 9.962632194640e-04 0.0 
0.0 0.0 0.0 
3.288973830867e-03 3.646868623059e-03 0.0 
3.646868623059e-03 -2.503344365183e-03 0.0 
0.0 0.0 0.0 
4.160393652520e-03 1.610709737343e-04 0.0 
1.610709737343e-04 -3.698482143617e-03 0.0 
0.0 0.0 0.0 
4.340717896486e-03 5.222638753624e-04 0.0 
5.222638753624e-04 -4.023559106781e-03 0.0 
0.0 0.0 0.0 
2.506966364315e-03 -4.537351959471e-04 0.0 
-4.537351959471e-04 -1.687717279928e-03 0.0 
0.0 0.0 0.0 
-1.142642844870e-03 2.379999957064e-04 0.0 
2.379999957064e-04 2.971758511263e-03 0.0 
0.0 0.0 0.0 
4.068168256698e-03 2.886370942694e-04 0.0 
2.886370942694e-04 -3.818007872005e-03 0.0 
0.0 0.0 0.0 
-1.251239648740e-03 7.595351394615e-04 0.0 
7.595351394615e-04 3.070663476868e-03 0.0 
0.0 0.0 0.0 
-1.579696747558e-03 3.048180115900e-04 0.0 
3.048180115900e-04 3.299542274198e-03 0.0 
0.0 0.0 0.0 
-5.268710515902e-04 6.974984396095e-04 0.0 
6.974984396095e-04 2.223606947186e-03 0.0 
0.0 0.0 0.0 
9.651075621275e-05 1.134545115190e-04 0.0 
1.134545115190e-04 3.851343261589e-04 0.0 
0.0 0.0 0.0 
-2.798110861781e-03 7.646505851306e-05 0.0 
7.646505851306e-05 4.717355460683e-03 0.0 
0.0 0.0 0.0 
3.814340239041e-03 2.913637894241e-04 0.0 
2.913637894241e-04 -3.594821204022e-03 0.0 
0.0 0.0 0.0 
2.945709933493e-04 2.543832356060e-03 0.0 
2.543832356060e-03 1.843346137500e-03 0.0 
0.0 0.0 0.0 
3.737266569770e-03 3.318303845060e-04 0.0 
3.318303845060e-04 -3.302003761998e-03 0.0 
0.0 0.0 0.0 
0.0 4.478173366043e-04 0.0 
4.478173366043e-04 3.696743824626e-04 0.0 
0.0 0.0 0.0 
3.014822993854e-04 6.303061728780e-04 0.0 
6.303061728780e-04 3.313686806925e-04 0.0 
0.0 0.0 0.0 
2.417249614310e-04 8.566547041987e-04 0.0 
8.566547041987e-04 5.096722480367e-04 0.0 
0.0 0.0 0.0 
1.881955053050e-03 2.805411747102e-03 0.0 
2.805411747102e-03 -1.273150428436e-03 0.0 
0.0 0.0 0.0 
-3.957100418756e-03 5.991490293537e-04 0.0 
5.991490293537e-04 6.493229114021e-03 0.0 
0.0 0.0 0.0 
-1.099572224522e-03 4.453433063836e-04 0.0 
4.453433063836e-04 2.873131478661e-03 0.0 
0.0 0.0 0.0 
3.900918200721e-04 4.768974876700e-03 0.0 
4.768974876700e-03 7.670683051140e-04 0.0 
0.0 0.0 0.0 
1.773450147845e-03 3.881998273312e-03 0.0 
3.881998273312e-03 -1.116672121689e-03 0.0 
0.0 0.0 0.0 
-6.478115767479e-04 4.662917873271e-03 0.0 
4.662917873271e-03 1.846206217581e-03 0.0 
0.0 0.0 0.0 
-2.795942247695e-03 2.395491271916e-04 0.0 
2.395491271916e-04 4.810725729768e-03 0.0 
0.0 0.0 0.0 
3.618902832654e-03 -1.182114066547e-04 0.0 
-1.182114066547e-04 -3.368757523887e-03 0.0 
0.0 0.0 0.0 
3.811012729610e-03 -1.016624054477e-04 0.0 
-1.016624054477e-04 -3.371751987133e-03 0.0 
0.0 0.0 0.0 
-2.077105229240e-03 1.722592361328e-04 0.0 
1.722592361328e-04 3.871182503801e-03 0.0 
0.0 0.0 0.0 
2.125791738669e-03 4.077975193281e-03 0.0 
4.077975193281e-03 -1.281008158594e-03 0.0 
0.0 0.0 0.0 
-5.981903805130e-03 3.000499006477e-03 0.0 
3.000499006477e-03 1.224106959869e-02 0.0 
0.0 0.0 0.0 
-3.160833917496e-03 8.989411182387e-05 0.0 
8.989411182387e-05 5.324159326447e-03 0.0 
0.0 0.0 0.0 
-2.992002543333e-03 1.731416067051e-04 0.0 
1.731416067051e-04 4.923151351589e-03 0.0 
0.0 0.0 0.0 
-2.954738184533e-03 2.894642099878e-04 0.0 
2.894642099878e-04 4.797982863214e-03 0.0 
0.0 0.0 0.0 
3.373297004579e-03 -2.506433025333e-04 0.0 
-2.506433025333e-04 -2.460132209113e-03 0.0 
0.0 0.0 0.0 
3.635507640769e-03 -1.750512150550e-04 0.0 
-1.750512150550e-04 -3.192990462503e-03 0.0 
0.0 0.0 0.0 
-1.032164414604e-03 1.524322928493e-03 0.0 
1.524322928493e-03 2.783314112598e-03 0.0 
0.0 0.0 0.0 
-2.743804228854e-03 3.647252781270e-04 0.0 
3.647252781270e-04 4.460795496434e-03 0.0 
0.0 0.0 0.0 
5.190162028270e-04 3.135460272648e-03 0.0 
3.135460272648e-03 3.088126715323e-05 0.0 
0.0 0.0 0.0 
-2.329703330558e-04 5.360825194562e-03 0.0 
5.360825194562e-03 1.415599729563e-03 0.0 
0.0 0.0 0.0 
-7.795893796517e-04 4.385461928922e-03 0.0 
4.385461928922e-03 2.087663265220e-03 0.0 
0.0 0.0 0.0 
-1.894288375840e-03 2.522848825498e-03 0.0 
2.522848825498e-03 3.382988807253e-03 0.0 
0.0 0.0 0.0 
1.871644267061e-03 -3.020176432838e-06 0.0 
-3.020176432838e-06 -1.607231940211e-03 0.0 
0.0 0.0 0.0 
2.115871724400e-03 -5.058208597064e-05 0.0 
-5.058208597064e-05 -1.780326602162e-03 0.0 
0.0 0.0 0.0 
4.894851133017e-04 8.995965342025e-04 0.0 
8.995965342025e-04 -1.401334748389e-04 0.0 
0.0 0.0 0.0 
2.445977736732e-03 -3.225907294185e-04 0.0 
-3.225907294185e-04 -1.303674073370e-03 0.0 
0.0 0.0 0.0 
2.723847791148e-03 8.494565501065e-05 0.0 
8.494565501065e-05 -2.399604219740e-03 0.0 
0.0 0.0 0.0 
0.0 4.346940347278e-03 0.0 
4.346940347278e-03 5.064634084837e-04 0.0 
0.0 0.0 0.0 
3.679562740610e-03 8.978608957811e-05 0.0 
8.978608957811e-05 -2.664491072444e-03 0.0 
0.0 0.0 0.0 
-2.988934196916e-03 1.382168416803e-04 0.0 
1.382168416803e-04 5.317166642954e-03 0.0 
0.0 0.0 0.0 
1.231970728659e-03 2.165861178579e-03 0.0 
2.165861178579e-03 -5.364610288237e-04 0.0 
0.0 0.0 0.0 
3.361609167972e-03 -1.442696117582e-04 0.0 
-1.442696117582e-04 -2.120540601283e-03 0.0 
0.0 0.0 0.0 
4.041855287704e-03 1.277016108553e-05 0.0 
1.277016108553e-05 -2.057589139579e-03 0.0 
0.0 0.0 0.0 
-9.160818955833e-04 3.515134041665e-03 0.0 
3.515134041665e-03 2.294131995257e-03 0.0 
0.0 0.0 0.0 
-3.767915441037e-03 2.010006561344e-04 0.0 
2.010006561344e-04 7.018627865093e-03 0.0 
0.0 0.0 0.0 
-1.245732888430e-03 1.961458323944e-03 0.0 
1.961458323944e-03 3.125681460030e-03 0.0 
0.0 0.0 0.0 
9.274068336553e-04 2.484362350883e-03 0.0 
2.484362350883e-03 -5.896632353832e-04 0.0 
0.0 0.0 0.0 
-3.761617375314e-03 1.890370153719e-04 0.0 
1.890370153719e-04 6.898642212803e-03 0.0 
0.0 0.0 0.0 
1.284542073772e-03 -4.312910602786e-04 0.0 
-4.312910602786e-04 -7.869236777930e-04 0.0 
0.0 0.0 0.0 
-6.788816073563e-04 2.526331629678e-04 0.0 
2.526331629678e-04 2.548108233933e-03 0.0 
0.0 0.0 0.0 
3.447534466015e-03 8.115858411370e-05 0.0 
8.115858411370e-05 -2.579446510763e-03 0.0 
0.0 0.0 0.0 
-1.220095636353e-03 1.554817765033e-03 0.0 
1.554817765033e-03 3.210913982830e-03 0.0 
0.0 0.0 0.0 
0.0 3.397821523881e-04 0.0 
3.397821523881e-04 3.777573514705e-04 0.0 
0.0 0.0 0.0 
-6.859671049282e-04 4.771772787167e-03 0.0 
4.771772787167e-03 2.093688388106e-03 0.0 
0.0 0.0 0.0 
3.810014144549e-03 -1.723915111805e-04 0.0 
-1.723915111805e-04 -2.971304814054e-03 0.0 
0.0 0.0 0.0 
-4.751869760742e-03 2.190135837161e-03 0.0 
2.190135837161e-03 7.061992499529e-03 0.0 
0.0 0.0 0.0 
1.655649121011e-03 4.476241495348e-05 0.0 
4.476241495348e-05 -1.377194248446e-03 0.0 
0.0 0.0 0.0 
2.512987122530e-03 4.087002512546e-03 0.0 
4.087002512546e-03 -1.671034286190e-03 0.0 
0.0 0.0 0.0 
4.956085878920e-04 3.138131426732e-03 0.0 
3.138131426732e-03 3.834690991849e-04 0.0 
0.0 0.0 0.0 
-1.745996427690e-03 2.378160191558e-04 0.0 
2.378160191558e-04 3.472429988811e-03 0.0 
0.0 0.0 0.0 
4.069782683471e-04 2.804293147763e-03 0.0 
2.804293147763e-03 3.499344714564e-04 0.0 
0.0 0.0 0.0 
2.775426561489e-03 -3.756233866390e-04 0.0 
-3.756233866390e-04 -1.767170156697e-03 0.0 
0.0 0.0 0.0 
2.347296866041e-04 4.648231292608e-04 0.0 
4.648231292608e-04 2.124383109825e-04 0.0 
0.0 0.0 0.0 
3.836505994579e-03 -1.422087570427e-04 0.0 
-1.422087570427e-04 -3.103277642059e-03 0.0 
0.0 0.0 0.0 
3.521130430106e-03 1.056522821508e-05 0.0 
1.056522821508e-05 -2.560110071316e-03 0.0 
0.0 0.0 0.0 
6.972942731480e-04 1.660652933930e-03 0.0 
1.660652933930e-03 -5.906298182901e-05 0.0 
0.0 0.0 0.0 
-1.300436852717e-03 4.380265751643e-03 0.0 
4.380265751643e-03 2.641527853484e-03 0.0 
0.0 0.0 0.0 
-1.213948783752e-03 2.907273645525e-03 0.0 
2.907273645525e-03 2.743226315238e-03 0.0 
0.0 0.0 0.0 
-3.289204294062e-03 2.573758482856e-04 0.0 
2.573758482856e-04 5.787088222151e-03 0.0 
0.0 0.0 0.0 
-3.981157064001e-03 3.379350382097e-03 0.0 
3.379350382097e-03 6.252730009376e-03 0.0 
0.0 0.0 0.0 
2.093214073837e-03 1.573092673562e-03 0.0 
1.573092673562e-03 -1.039494236523e-03 0.0 
0.0 0.0 0.0 
1.017996600232e-04 5.799077548251e-03 0.0 
5.799077548251e-03 1.178516072568e-03 0.0 
0.0 0.0 0.0 
2.045255498132e-03 -1.202067615282e-05 0.0 
-1.202067615282e-05 -1.789058363341e-03 0.0 
0.0 0.0 0.0 
2.516719490173e-03 2.303491447066e-04 0.0 
2.303491447066e-04 -1.513546818142e-03 0.0 
0.0 0.0 0.0 
2.384982558657e-03 3.975310501236e-03 0.0 
3.975310501236e-03 -1.662867992507e-03 0.0 
0.0 0.0 0.0 
-3.556424668170e-03 1.493589694234e-05 0.0 
1.493589694234e-05 6.384011734025e-03 0.0 
0.0 0.0 0.0 
-1.019955144630e-03 3.726042243706e-03 0.0 
3.726042243706e-03 2.848552171101e-03 0.0 
0.0 0.0 0.0 
-6.156008436146e-04 7.942648333964e-05 0.0 
7.942648333964e-05 2.337080123572e-03 0.0 
0.0 0.0 0.0 
0.0 3.078004218065e-04 0.0 
3.078004218065e-04 2.178227156894e-03 0.0 
0.0 0.0 0.0 
4.638889224449e-03 3.870209450262e-05 0.0 
3.870209450262e-05 -2.003608308266e-03 0.0 
0.0 0.0 0.0 
4.331134855035e-03 -8.077333848312e-05 0.0 
-8.077333848312e-05 -1.934804804822e-03 0.0 
0.0 0.0 0.0 
-3.204911233528e-03 -1.005433893825e-05 0.0 
-1.005433893825e-05 5.936417996680e-03 0.0 
0.0 0.0 0.0 
-3.409124784591e-03 -1.236792528476e-05 0.0 
-1.236792528476e-05 6.145258720436e-03 0.0 
0.0 0.0 0.0 
0.0 4.715616311138e-05 0.0 
4.715616311138e-05 3.826023784947e-04 0.0 
0.0 0.0 0.0 
9.431232622248e-05 1.364810932162e-05 0.0 
1.364810932162e-05 3.553061598516e-04 0.0 
0.0 0.0 0.0 
4.419281918413e-03 -1.215609791243e-04 0.0 
-1.215609791243e-04 -2.189120080884e-03 0.0 
0.0 0.0 0.0 
1.655798516159e-03 -1.155573835674e-04 0.0 
-1.155573835674e-04 -7.244176935893e-04 0.0 
0.0 0.0 0.0 
2.388314857567e-04 2.701457382357e-04 0.0 
2.701457382357e-04 1.167420067747e-04 0.0 
0.0 0.0 0.0 
1.447620197985e-03 4.798659803870e-03 0.0 
4.798659803870e-03 -5.190703922233e-04 0.0 
0.0 0.0 0.0 
3.414472138753e-03 4.980766735313e-05 0.0 
4.980766735313e-05 -2.683973260524e-03 0.0 
0.0 0.0 0.0 
3.140879293788e-04 5.455138251196e-04 0.0 
5.455138251196e-04 6.367107189353e-05 0.0 
0.0 0.0 0.0 
8.200568419163e-04 3.615546929047e-05 0.0 
3.615546929047e-05 -5.669388281268e-04 0.0 
0.0 0.0 0.0 
1.166040259302e-03 1.946737380160e-05 0.0 
1.946737380160e-05 -8.810832187569e-04 0.0 
0.0 0.0 0.0 
-2.483868933748e-03 2.211487097294e-04 0.0 
2.211487097294e-04 4.186671132514e-03 0.0 
0.0 0.0 0.0 
3.349192418236e-03 -3.790035127989e-04 0.0 
-3.790035127989e-04 -2.586614325567e-03 0.0 
0.0 0.0 0.0 
2.826489777046e-03 4.053874209235e-03 0.0 
4.053874209235e-03 -1.986855561433e-03 0.0 
0.0 0.0 0.0 
3.630779467441e-03 -1.518390280966e-05 0.0 
-1.518390280966e-05 -2.586590936552e-03 0.0 
0.0 0.0 0.0 
1.499924417941e-03 8.830452904205e-05 0.0 
8.830452904205e-05 -1.263891316443e-03 0.0 
0.0 0.0 0.0 
2.472348328160e-04 5.458487674034e-03 0.0 
5.458487674034e-03 1.129152137232e-03 0.0 
0.0 0.0 0.0 
-1.132152671429e-03 3.471383746400e-05 0.0 
3.471383746400e-05 2.791937033527e-03 0.0 
0.0 0.0 0.0 
1.101471150026e-03 1.229071056788e-05 0.0 
1.229071056788e-05 -8.725826993242e-04 0.0 
0.0 0.0 0.0 
-2.714005973404e-03 1.577258002385e-04 0.0 
1.577258002385e-04 4.469269806510e-03 0.0 
0.0 0.0 0.0 
1.099168536440e-03 5.182430366263e-03 0.0 
5.182430366263e-03 2.615612458845e-06 0.0 
0.0 0.0 0.0 
-6.525907083499e-05 4.973887678957e-03 0.0 
4.973887678957e-03 1.217881677841e-03 0.0 
0.0 0.0 0.0 
-4.758343233411e-04 4.622431791931e-03 0.0 
4.622431791931e-03 1.687008352593e-03 0.0 
0.0 0.0 0.0 
-3.458142156204e-03 1.711804217335e-04 0.0 
1.711804217335e-04 6.515497745982e-03 0.0 
0.0 0.0 0.0 
3.124515446847e-03 3.794215160505e-03 0.0 
3.794215160505e-03 -2.343799810469e-03 0.0 
0.0 0.0 0.0 
-7.658773113594e-04 4.356570922350e-03 0.0 
4.356570922350e-03 2.613159806865e-03 0.0 
0.0 0.0 0.0 
2.594886069596e-03 -4.631767493088e-05 0.0 
-4.631767493088e-05 -2.376359602769e-03 0.0 
0.0 0.0 0.0 
3.021376131735e-03 -1.547140987814e-04 0.0 
-1.547140987814e-04 -1.654319481678e-03 0.0 
0.0 0.0 0.0 
1.089722568098e-03 5.156653656505e-03 0.0 
5.156653656505e-03 -6.254950950890e-05 0.0 
0.0 0.0 0.0 
2.096593027783e-03 2.627804953447e-03 0.0 
2.627804953447e-03 -1.546884655701e-03 0.0 
0.0 0.0 0.0 
3.227060511380e-03 -5.208449500911e-04 0.0 
-5.208449500911e-04 -2.341870349338e-03 0.0 
0.0 0.0 0.0 
-2.185071497195e-03 1.757464722258e-04 0.0 
1.757464722258e-04 3.875694157022e-03 0.0 
0.0 0.0 0.0 
1.205146002408e-04 2.647658986022e-04 0.0 
2.647658986022e-04 2.315678873948e-04 0.0 
0.0 0.0 0.0 
1.382471258428e-03 4.812236492064e-03 0.0 
4.812236492064e-03 -5.390278036616e-04 0.0 
0.0 0.0 0.0 
1.292506671750e-03 5.008742277601e-03 0.0 
5.008742277601e-03 -2.133498820067e-04 0.0 
0.0 0.0 0.0 
7.083912895474e-04 3.631788759935e-05 0.0 
3.631788759935e-05 -4.198456020560e-04 0.0 
0.0 0.0 0.0 
1.646444591750e-03 -1.160843228102e-04 0.0 
-1.160843228102e-04 -8.536207967247e-04 0.0 
0.0 0.0 0.0 
3.113719887282e-04 1.873692107237e-03 0.0 
1.873692107237e-03 1.245834827939e-03 0.0 
0.0 0.0 0.0 
1.687093528758e-03 2.419608584959e-03 0.0 
2.419608584959e-03 -4.758497666222e-04 0.0 
0.0 0.0 0.0 
-4.532670503069e-03 2.616760673791e-03 0.0 
2.616760673791e-03 7.457004801963e-03 0.0 
0.0 0.0 0.0 
3.075128959057e-03 3.934261757816e-03 0.0 
3.934261757816e-03 -2.360492941595e-03 0.0 
0.0 0.0 0.0 
-1.325444901790e-03 1.083088103649e-03 0.0 
1.083088103649e-03 2.980716747469e-03 0.0 
0.0 0.0 0.0 
5.334352227719e-04 2.600235571305e-03 0.0 
2.600235571305e-03 -1.787419131648e-04 0.0 
0.0 0.0 0.0 
2.760595182827e-03 -3.948529348611e-04 0.0 
-3.948529348611e-04 -1.850927448055e-03 0.0 
0.0 0.0 0.0 
3.045886584365e-03 -3.667479061854e-04 0.0 
-3.667479061854e-04 -1.970105039979e-03 0.0 
0.0 0.0 0.0 
2.460455999662e-04 1.333147569887e-03 0.0 
1.333147569887e-03 7.840504578642e-04 0.0 
0.0 0.0 0.0 
-2.012479896684e-03 2.684695098176e-04 0.0 
2.684695098176e-04 3.797187423552e-03 0.0 
0.0 0.0 0.0 
2.384250675347e-03 1.213025248428e-05 0.0 
1.213025248428e-05 -2.122169355255e-03 0.0 
0.0 0.0 0.0 
-1.583499894272e-03 3.189567930436e-03 0.0 
3.189567930436e-03 3.073969005310e-03 0.0 
0.0 0.0 0.0 
3.500954601041e-03 7.385446928451e-05 0.0 
7.385446928451e-05 -2.717113329920e-03 0.0 
0.0 0.0 0.0 
1.130101655778e-03 2.719841402532e-03 0.0 
2.719841402532e-03 -6.844107536186e-04 0.0 
0.0 0.0 0.0 
-3.647071475574e-03 7.709485843138e-04 0.0 
7.709485843138e-04 5.996843747563e-03 0.0 
0.0 0.0 0.0 
6.295737425817e-04 4.022837215766e-03 0.0 
4.022837215766e-03 -5.982581860775e-05 0.0 
0.0 0.0 0.0 
2.214503346733e-03 4.320622998279e-03 0.0 
4.320622998279e-03 -1.309430695642e-03 0.0 
0.0 0.0 0.0 
-4.224922852442e-03 3.079102781635e-03 0.0 
3.079102781635e-03 6.939867618681e-03 0.0 
0.0 0.0 0.0 
5.835229127968e-04 1.250179553051e-03 0.0 
1.250179553051e-03 9.067760002202e-06 0.0 
0.0 0.0 0.0 
-1.017557357393e-03 4.036399141670e-03 0.0 
4.036399141670e-03 2.584125232864e-03 0.0 
0.0 0.0 0.0 
-8.926828959525e-04 2.102795230208e-04 0.0 
2.102795230208e-04 2.554247035108e-03 0.0 
0.0 0.0 0.0 
2.316448882789e-04 9.123567212715e-04 0.0 
9.123567212715e-04 3.459593622666e-04 0.0 
0.0 0.0 0.0 
-1.416169982381e-03 2.549941635165e-03 0.0 
2.549941635165e-03 3.380251100820e-03 0.0 
0.0 0.0 0.0 
4.568066411690e-04 5.381192250208e-03 0.0 
5.381192250208e-03 4.402072327909e-04 0.0 
0.0 0.0 0.0 
1.405049955464e-03 2.656263152746e-03 0.0 
2.656263152746e-03 -6.698959772184e-04 0.0 
0.0 0.0 0.0 
2.071175702267e-03 4.226670005540e-03 0.0 
4.226670005540e-03 -1.314613889099e-03 0.0 
0.0 0.0 0.0 
0.0 6.226734757974e-04 0.0 
6.226734757974e-04 3.405659537539e-04 0.0 
0.0 0.0 0.0 
-4.590397837733e-04 4.522300142068e-03 0.0 
4.522300142068e-03 1.700623752850e-03 0.0 
0.0 0.0 0.0 
5.923318563801e-04 -8.402255287754e-05 0.0 
-8.402255287754e-05 -1.736089337854e-04 0.0 
0.0 0.0 0.0 
2.309150326771e-03 6.964463492612e-04 0.0 
6.964463492612e-04 -1.368631531747e-03 0.0 
0.0 0.0 0.0 
-1.664143284512e-04 5.095081237940e-03 0.0 
5.095081237940e-03 1.350520292013e-03 0.0 
0.0 0.0 0.0 
-4.221703219531e-03 2.157404476867e-03 0.0 
2.157404476867e-03 6.448832493234e-03 0.0 
0.0 0.0 0.0 
2.573208225995e-04 1.441369560481e-04 0.0 
1.441369560481e-04 1.216369788535e-04 0.0 
0.0 0.0 0.0 
1.809127585763e-03 4.345739359205e-03 0.0 
4.345739359205e-03 -9.574890050684e-04 0.0 
0.0 0.0 0.0 
1.570282214307e-04 5.565710812286e-04 0.0 
5.565710812286e-04 1.878011847178e-04 0.0 
0.0 0.0 0.0 
-1.763322894275e-03 3.801330037893e-04 0.0 
3.801330037893e-04 3.510251392976e-03 0.0 
0.0 0.0 0.0 
5.877349575509e-04 3.785014741687e-03 0.0 
3.785014741687e-03 -8.505655964575e-05 0.0 
0.0 0.0 0.0 
6.160242302451e-04 1.149137812205e-03 0.0 
1.149137812205e-03 -1.930453788510e-04 0.0 
0.0 0.0 0.0 
6.154047704254e-04 1.204291001654e-03 0.0 
1.204291001654e-03 -1.980519392112e-04 0.0 
0.0 0.0 0.0 
2.193711329696e-03 4.871610733379e-05 0.0 
4.871610733379e-05 -1.901485110888e-03 0.0 
0.0 0.0 0.0 
1.510762128056e-04 4.791831118383e-04 0.0 
4.791831118383e-04 3.681624738672e-04 0.0 
0.0 0.0 0.0 
-4.605428153946e-03 9.305163986203e-04 0.0 
9.305163986203e-04 7.419006240268e-03 0.0 
0.0 0.0 0.0 
-1.249496734521e-03 4.762793057733e-04 0.0 
4.762793057733e-04 2.869891813836e-03 0.0 
0.0 0.0 0.0 
3.085021738793e-03 -3.845561243487e-04 0.0 
-3.845561243487e-04 -1.962927443107e-03 0.0 
0.0 0.0 0.0 
-1.389404113463e-03 2.268106744406e-04 0.0 
2.268106744406e-04 2.985115621424e-03 0.0 
0.0 0.0 0.0 
-2.221705355380e-03 1.940881010189e-04 0.0 
1.940881010189e-04 3.840233087587e-03 0.0 
0.0 0.0 0.0 
4.074423380006e-03 4.486944537200e-05 0.0 
4.486944537200e-05 -2.492113127915e-03 0.0 
0.0 0.0 0.0 
3.501843421286e-03 -2.957316776820e-04 0.0 
-2.957316776820e-04 -2.718251077622e-03 0.0 
0.0 0.0 0.0 
1.587620957251e-04 4.818278301326e-03 0.0 
4.818278301326e-03 1.047418394838e-03 0.0 
0.0 0.0 0.0 
-8.709345233375e-04 1.878531499240e-03 0.0 
1.878531499240e-03 2.884148465451e-03 0.0 
0.0 0.0 0.0 
-1.061063886368e-03 2.176585840364e-04 0.0 
2.176585840364e-04 2.713628674522e-03 0.0 
0.0 0.0 0.0 
1.099500302603e-03 3.644954806779e-03 0.0 
3.644954806779e-03 -3.507741139208e-04 0.0 
0.0 0.0 0.0 
-2.828365214487e-03 3.511540673843e-04 0.0 
3.511540673843e-04 4.751080979867e-03 0.0 
0.0 0.0 0.0 
3.456024414297e-03 -1.317118660660e-04 0.0 
-1.317118660660e-04 -1.841923140449e-03 0.0 
0.0 0.0 0.0 
2.055933017829e-03 -1.483538618398e-04 0.0 
-1.483538618398e-04 -1.333862229458e-03 0.0 
0.0 0.0 0.0 
3.526206591997e-03 -1.463189346747e-04 0.0 
-1.463189346747e-04 -1.950357062755e-03 0.0 
0.0 0.0 0.0 
3.170682291935e-03 -2.894463950538e-04 0.0 
-2.894463950538e-04 -2.253869279347e-03 0.0 
0.0 0.0 0.0 
-7.911613045153e-05 4.375202041299e-04 0.0 
4.375202041299e-04 6.772598223548e-05 0.0 
0.0 0.0 0.0 
1.595540091690e-03 3.421928950846e-05 0.0 
3.421928950846e-05 -1.261021562846e-03 0.0 
0.0 0.0 0.0 
2.686598457373e-04 1.582620345641e-04 0.0 
1.582620345641e-04 1.213354070779e-04 0.0 
0.0 0.0 0.0 
-5.273310195761e-04 4.936042201723e-03 0.0 
4.936042201723e-03 2.116181034343e-03 0.0 
0.0 0.0 0.0 
-3.870254590007e-03 3.313013023002e-03 0.0 
3.313013023002e-03 5.914721339138e-03 0.0 
0.0 0.0 0.0 
2.039813020156e-03 1.978091089161e-05 0.0 
1.978091089161e-05 -1.822683858677e-03 0.0 
0.0 0.0 0.0 
5.679293473659e-04 8.675911054509e-04 0.0 
8.675911054509e-04 -1.314808605838e-04 0.0 
0.0 0.0 0.0 
1.192233640266e-03 1.923887382223e-03 0.0 
1.923887382223e-03 -6.004635363379e-04 0.0 
0.0 0.0 0.0 
1.000688612875e-03 4.155458102532e-03 0.0 
4.155458102532e-03 -1.444664284000e-05 0.0 
0.0 0.0 0.0 
8.266997218094e-04 5.197457298859e-03 0.0 
5.197457298859e-03 1.064142315985e-04 0.0 
0.0 0.0 0.0 
4.518093531820e-04 5.149454242743e-03 0.0 
5.149454242743e-03 7.742179508745e-04 0.0 
0.0 0.0 0.0 
3.183511519313e-03 -3.449724445617e-04 0.0 
-3.449724445617e-04 -2.017190515844e-03 0.0 
0.0 0.0 0.0 
2.193054492380e-03 -4.661178508989e-04 0.0 
-4.661178508989e-04 -1.428732880127e-03 0.0 
0.0 0.0 0.0 
2.755254236748e-04 2.520270160974e-04 0.0 
2.520270160974e-04 1.216368453996e-04 0.0 
0.0 0.0 0.0 
3.836288760100e-03 -4.941626042219e-05 0.0 
-4.941626042219e-05 -2.417913132388e-03 0.0 
0.0 0.0 0.0 
3.920542446172e-03 -9.709150800459e-05 0.0 
-9.709150800459e-05 -2.596292719352e-03 0.0 
0.0 0.0 0.0 
1.288367538758e-03 4.151702766795e-04 0.0 
4.151702766795e-04 -7.295958426837e-04 0.0 
0.0 0.0 0.0 
3.482123271318e-03 -5.981163042128e-05 0.0 
-5.981163042128e-05 -2.117967522934e-03 0.0 
0.0 0.0 0.0 
2.650062384861e-04 1.157420176120e-03 0.0 
1.157420176120e-03 2.635080483659e-05 0.0 
0.0 0.0 0.0 
2.456132887965e-04 5.692398683617e-03 0.0 
5.692398683617e-03 8.802385540279e-04 0.0 
0.0 0.0 0.0 
-1.030697360368e-03 1.006154215793e-03 0.0 
1.006154215793e-03 2.976038634638e-03 0.0 
0.0 0.0 0.0 
5.391675802784e-04 4.282327925336e-03 0.0 
4.282327925336e-03 4.406250380606e-05 0.0 
0.0 0.0 0.0 
1.337679099043e-03 2.021782641535e-03 0.0 
2.021782641535e-03 -8.435039955701e-04 0.0 
0.0 0.0 0.0 
-2.629805078710e-03 3.236740848472e-04 0.0 
3.236740848472e-04 4.456757453936e-03 0.0 
0.0 0.0 0.0 
0.0 3.798597913646e-03 0.0 
3.798597913646e-03 2.203808270684e-03 0.0 
0.0 0.0 0.0 
3.686925935456e-03 -3.814604400144e-04 0.0 
-3.814604400144e-04 -3.111414332831e-03 0.0 
0.0 0.0 0.0 
-3.946516402909e-03 1.542458017778e-04 0.0 
1.542458017778e-04 7.049090361993e-03 0.0 
0.0 0.0 0.0 
2.987176761124e-03 -5.162588233785e-04 0.0 
-5.162588233785e-04 -2.208032756158e-03 0.0 
0.0 0.0 0.0 
3.910719581567e-03 2.257336613330e-06 0.0 
2.257336613330e-06 -2.036987115392e-03 0.0 
0.0 0.0 0.0 
1.286179569455e-04 3.154467048119e-04 0.0 
3.154467048119e-04 3.756581179715e-04 0.0 
0.0 0.0 0.0 
-6.039018837155e-03 3.485111535580e-03 0.0 
3.485111535580e-03 8.429992634255e-03 0.0 
0.0 0.0 0.0 
3.754001559255e-03 3.068680874292e-05 0.0 
3.068680874292e-05 -2.637833546253e-03 0.0 
0.0 0.0 0.0 
1.530494066524e-03 6.899522149280e-06 0.0 
6.899522149280e-06 -1.243589654878e-03 0.0 
0.0 0.0 0.0 
3.501613816568e-04 5.788621629067e-03 0.0 
5.788621629067e-03 9.622009268671e-04 0.0 
0.0 0.0 0.0 
-1.693411009094e-03 1.526677029371e-03 0.0 
1.526677029371e-03 3.231123844750e-03 0.0 
0.0 0.0 0.0 
-5.501839710074e-04 4.491505656530e-03 0.0 
4.491505656530e-03 2.436098633037e-03 0.0 
0.0 0.0 0.0 
2.340025816129e-03 7.429276084704e-05 0.0 
7.429276084704e-05 -2.046159881194e-03 0.0 
0.0 0.0 0.0 
2.279724125022e-03 -4.888738069039e-04 0.0 
-4.888738069039e-04 -1.437392395540e-03 0.0 
0.0 0.0 0.0 
2.927721180950e-04 6.140422251935e-04 0.0 
6.140422251935e-04 1.854636377825e-04 0.0 
0.0 0.0 0.0 
-5.620503754141e-04 4.132557511346e-04 0.0 
4.132557511346e-04 2.176328969994e-03 0.0 
0.0 0.0 0.0 
9.541700825233e-05 6.789992902405e-05 0.0 
6.789992902405e-05 3.850044139304e-04 0.0 
0.0 0.0 0.0 
-3.104513798033e-03 3.261114517540e-05 0.0 
3.261114517540e-05 5.420169876902e-03 0.0 
0.0 0.0 0.0 
8.604835036170e-04 2.053191800050e-03 0.0 
2.053191800050e-03 -5.134949853539e-04 0.0 
0.0 0.0 0.0 
3.522017059175e-03 9.184877592695e-05 0.0 
9.184877592695e-05 -2.576984280312e-03 0.0 
0.0 0.0 0.0 
-1.107465812270e-03 3.067917859611e-03 0.0 
3.067917859611e-03 3.063369862295e-03 0.0 
0.0 0.0 0.0 
3.708871744086e-03 2.265008313991e-05 0.0 
2.265008313991e-05 -1.909285874258e-03 0.0 
0.0 0.0 0.0 
3.125725318847e-04 1.537356167625e-03 0.0 
1.537356167625e-03 -2.224302158071e-05 0.0 
0.0 0.0 0.0 
-7.615713000004e-04 4.670895285214e-03 0.0 
4.670895285214e-03 2.284181068202e-03 0.0 
0.0 0.0 0.0 
1.950471535498e-03 -3.303719117504e-04 0.0 
-3.303719117504e-04 -1.045461630154e-03 0.0 
0.0 0.0 0.0 
1.505721157375e-03 4.845494460902e-03 0.0 
4.845494460902e-03 -5.551587293153e-04 0.0 
0.0 0.0 0.0 
-1.939610073095e-03 2.628694513629e-04 0.0 
2.628694513629e-04 3.612123317914e-03 0.0 
0.0 0.0 0.0 
-6.606673290666e-04 1.425384475788e-03 0.0 
1.425384475788e-03 2.721896936370e-03 0.0 
0.0 0.0 0.0 
0.0 2.948049829358e-03 0.0 
2.948049829358e-03 3.911260685339e-04 0.0 
0.0 0.0 0.0 
-2.186934463480e-03 1.404426311324e-04 0.0 
1.404426311324e-04 3.996386799998e-03 0.0 
0.0 0.0 0.0 
2.134011987176e-04 5.769037419738e-03 0.0 
5.769037419738e-03 1.058385225302e-03 0.0 
0.0 0.0 0.0 
-1.387541641583e-03 3.816577346504e-03 0.0 
3.816577346504e-03 2.828166673714e-03 0.0 
0.0 0.0 0.0 
-1.965470898049e-03 1.746623901498e-04 0.0 
1.746623901498e-04 3.793427720950e-03 0.0 
0.0 0.0 0.0 
3.179245864815e-04 5.529192214399e-03 0.0 
5.529192214399e-03 9.342552996658e-04 0.0 
0.0 0.0 0.0 
1.940705752329e-03 8.603300449183e-05 0.0 
8.603300449183e-05 -1.721628709327e-03 0.0 
0.0 0.0 0.0 
-3.278694420825e-03 6.386621563530e-05 0.0 
6.386621563530e-05 6.310180425020e-03 0.0 
0.0 0.0 0.0 
1.104873694797e-03 4.361201723067e-03 0.0 
4.361201723067e-03 -3.175511939736e-04 0.0 
0.0 0.0 0.0 
-6.967086066686e-04 1.577997609166e-04 0.0 
1.577997609166e-04 2.514237156195e-03 0.0 
0.0 0.0 0.0 
4.444468339498e-03 -1.330054130024e-05 0.0 
-1.330054130024e-05 -1.939492277173e-03 0.0 
0.0 0.0 0.0 
-3.192474195882e-03 2.574032117968e-05 0.0 
2.574032117968e-05 6.144130217893e-03 0.0 
0.0 0.0 0.0 
1.257102749317e-04 4.440609686847e-05 0.0 
4.440609686847e-05 2.890134496132e-04 0.0 
0.0 0.0 0.0 
3.316104393127e-03 -6.139987769994e-05 0.0 
-6.139987769994e-05 -2.630975256465e-03 0.0 
0.0 0.0 0.0 
1.297519990903e-03 2.362421192920e-03 0.0 
2.362421192920e-03 -5.574026518906e-04 0.0 
0.0 0.0 0.0 
-1.360734468800e-03 4.434267139151e-03 0.0 
4.434267139151e-03 2.609522573653e-03 0.0 
0.0 0.0 0.0 
-1.132318676544e-03 1.203559310233e-03 0.0 
1.203559310233e-03 2.665562824449e-03 0.0 
0.0 0.0 0.0 
3.437541542051e-03 -4.970397545253e-05 0.0 
-4.970397545253e-05 -2.677618117867e-03 0.0 
0.0 0.0 0.0 
2.140542186154e-03 3.219910024967e-04 0.0 
3.219910024967e-04 -1.410945200559e-03 0.0 
0.0 0.0 0.0 
1.056651450249e-03 1.361192942239e-06 0.0 
1.361192942239e-06 -7.828107476640e-04 0.0 
0.0 0.0 0.0 
-1.463683148291e-03 2.626539840064e-04 0.0 
2.626539840064e-04 3.209731539863e-03 0.0 
0.0 0.0 0.0 
8.566836721424e-04 -1.700503053746e-04 0.0 
-1.700503053746e-04 -3.637463380555e-04 0.0 
0.0 0.0 0.0 
-5.892890365521e-04 3.853354672176e-03 0.0 
3.853354672176e-03 2.613913992899e-03 0.0 
0.0 0.0 0.0 
-2.202246947372e-03 2.006692713637e-04 0.0 
2.006692713637e-04 4.073544089461e-03 0.0 
0.0 0.0 0.0 
3.285761763588e-03 -4.686558354796e-04 0.0 
-4.686558354796e-04 -2.596895804260e-03 0.0 
0.0 0.0 0.0 
-2.483127150228e-03 2.342115696764e-04 0.0 
2.342115696764e-04 4.403258076715e-03 0.0 
0.0 0.0 0.0 
1.008613287308e-03 4.463145133960e-03 0.0 
4.463145133960e-03 3.861289165674e-05 0.0 
0.0 0.0 0.0 
9.869300642575e-04 1.112164242335e-05 0.0 
1.112164242335e-05 -6.967849433970e-04 0.0 
0.0 0.0 0.0 
4.817018324055e-04 3.673880482711e-06 0.0 
3.673880482711e-06 -1.684481977227e-05 0.0 
0.0 0.0 0.0 
2.074900201261e-03 -2.264551350754e-05 0.0 
-2.264551350754e-05 -1.877619919858e-03 0.0 
0.0 0.0 0.0 
1.387692979768e-03 1.095631411866e-05 0.0 
1.095631411866e-05 -1.072847919732e-03 0.0 
0.0 0.0 0.0 
9.033689077544e-04 1.068233351735e-05 0.0 
1.068233351735e-05 -6.054149670119e-04 0.0 
0.0 0.0 0.0 
1.296065553992e-03 3.801130751664e-03 0.0 
3.801130751664e-03 -5.044963638350e-04 0.0 
0.0 0.0 0.0 
1.288442082216e-03 2.626053874076e-05 0.0 
2.626053874076e-05 -1.066244489863e-03 0.0 
0.0 0.0 0.0 
1.242544708099e-03 9.502619752091e-08 0.0 
9.502619752091e-08 -9.642036436042e-04 0.0 
0.0 0.0 0.0 
3.626456749063e-03 -5.774758121896e-05 0.0 
-5.774758121896e-05 -2.195061185976e-03 0.0 
0.0 0.0 0.0 
3.206667184761e-04 5.730024219439e-04 0.0 
5.730024219439e-04 6.963795460613e-05 0.0 
0.0 0.0 0.0 
1.053827059727e-03 5.201459690063e-03 0.0 
5.201459690063e-03 -5.771527025267e-05 0.0 
0.0 0.0 0.0 
3.012717938407e-03 6.619267116617e-04 0.0 
6.619267116617e-04 -2.032428428934e-03 0.0 
0.0 0.0 0.0 
-6.336782104119e-04 1.403756762909e-04 0.0 
1.403756762909e-04 2.503408439647e-03 0.0 
0.0 0.0 0.0 
1.031694750613e-04 5.744961526137e-05 0.0 
5.744961526137e-05 2.856353059215e-04 0.0 
0.0 0.0 0.0 
-3.194624746959e-03 8.932156656659e-05 0.0 
8.932156656659e-05 5.396752833627e-03 0.0 
0.0 0.0 0.0 
-2.349144984036e-03 2.048334968106e-04 0.0 
2.048334968106e-04 4.100008653417e-03 0.0 
0.0 0.0 0.0 
1.376163159611e-03 5.541264099449e-06 0.0 
5.541264099449e-06 -1.064206218280e-03 0.0 
0.0 0.0 0.0 
1.326676207801e-03 5.912052811141e-05 0.0 
5.912052811141e-05 -1.092702327388e-03 0.0 
0.0 0.0 0.0 
1.268864676529e-03 -1.356201639893e-05 0.0 
-1.356201639893e-05 -9.579343989852e-04 0.0 
0.0 0.0 0.0 
1.451791793629e-03 2.604473353918e-03 0.0 
2.604473353918e-03 -9.056758592763e-04 0.0 
0.0 0.0 0.0 
3.275856776143e-03 -4.891468138582e-04 0.0 
-4.891468138582e-04 -2.325437168212e-03 0.0 
0.0 0.0 0.0 
9.497826853953e-04 5.317373513943e-03 0.0 
5.317373513943e-03 2.210242231833e-04 0.0 
0.0 0.0 0.0 
-2.749160876891e-03 1.783726273630e-04 0.0 
1.783726273630e-04 4.863234069931e-03 0.0 
0.0 0.0 0.0 
-1.391866571865e-03 3.545856326134e-03 0.0 
3.545856326134e-03 2.668176098259e-03 0.0 
0.0 0.0 0.0 
1.396837683032e-03 2.539995714983e-03 0.0 
2.539995714983e-03 -9.134883336041e-04 0.0 
0.0 0.0 0.0 
-2.766207313117e-03 2.238298598818e-04 0.0 
2.238298598818e-04 4.424279108465e-03 0.0 
0.0 0.0 0.0 
2.957012164810e-04 5.266040017343e-03 0.0 
5.266040017343e-03 9.925308987913e-04 0.0 
0.0 0.0 0.0 
1.089172001050e-03 3.790784313920e-03 0.0 
3.790784313920e-03 -4.943086252203e-04 0.0 
0.0 0.0 0.0 
1.028897871757e-03 3.904670654819e-03 0.0 
3.904670654819e-03 -6.817613147503e-05 0.0 
0.0 0.0 0.0 
1.106244300087e-03 1.534700467407e-04 0.0 
1.534700467407e-04 -5.874309672693e-04 0.0 
0.0 0.0 0.0 
2.001741833930e-04 5.308598453812e-03 0.0 
5.308598453812e-03 9.881037454418e-04 0.0 
0.0 0.0 0.0 
4.586523555696e-04 5.559214428867e-03 0.0 
5.559214428867e-03 7.534702974827e-04 0.0 
0.0 0.0 0.0 
3.711980988931e-03 2.754239373064e-05 0.0 
2.754239373064e-05 -2.248047842200e-03 0.0 
0.0 0.0 0.0 
1.456217380008e-03 6.751759785186e-05 0.0 
6.751759785186e-05 -1.252347910750e-03 0.0 
0.0 0.0 0.0 
5.843221734723e-04 -1.505442076896e-04 0.0 
-1.505442076896e-04 -3.360210668331e-04 0.0 
0.0 0.0 0.0 
1.372095579133e-04 5.560464808134e-03 0.0 
5.560464808134e-03 1.072585088178e-03 0.0 
0.0 0.0 0.0 

TENSORS element_materi_strain_plasti float
8.905194850898e-04 6.203433867460e-03 0.0 
6.203433867460e-03 4.799797071723e-04 0.0 
0.0 0.0 7.608488272635e-05 
7.752182966995e-04 5.533763372971e-03 0.0 
5.533763372971e-03 2.633106273942e-04 0.0 
0.0 0.0 8.342591744776e-05 
7.110444350770e-04 1.073968184164e-02 0.0 
1.073968184164e-02 -9.737314115110e-05 0.0 
0.0 0.0 5.735020142321e-04 
-3.374721197675e-04 4.441448550533e-04 0.0 
4.441448550533e-04 8.181745270630e-04 0.0 
0.0 0.0 4.434574380480e-04 
-3.253491053353e-03 9.194499921245e-04 0.0 
9.194499921245e-04 4.767046847138e-03 0.0 
0.0 0.0 1.827001368098e-04 
2.505426247388e-03 1.038904701778e-04 0.0 
1.038904701778e-04 -1.648639754269e-03 0.0 
0.0 0.0 8.859963059831e-05 
-2.969376866190e-03 6.440335620093e-04 0.0 
6.440335620093e-04 4.319523798558e-03 0.0 
0.0 0.0 1.671917041571e-04 
9.711378285918e-04 5.703414197922e-03 0.0 
5.703414197922e-03 1.071865199543e-04 0.0 
0.0 0.0 9.104482544872e-05 
-3.063818874861e-03 8.746995830300e-04 0.0 
8.746995830300e-04 4.340502414950e-03 0.0 
0.0 0.0 1.936578221880e-04 
-3.306438766309e-04 1.172311991513e-03 0.0 
1.172311991513e-03 9.242241561516e-04 0.0 
0.0 0.0 3.857979852613e-04 
1.501850133303e-03 4.519173395337e-05 0.0 
4.519173395337e-05 -1.236220356320e-03 0.0 
0.0 0.0 6.272458868577e-04 
9.227051945218e-04 4.237345950910e-03 0.0 
4.237345950910e-03 7.869007989869e-06 0.0 
0.0 0.0 4.374067189458e-05 
1.120934775693e-03 1.609480048713e-04 0.0 
1.609480048713e-04 -7.064871542957e-04 0.0 
0.0 0.0 9.243541756863e-04 
-3.736162943569e-03 3.101614796377e-03 0.0 
3.101614796377e-03 5.261822720205e-03 0.0 
0.0 0.0 2.625359133730e-04 
1.066575563543e-03 1.894845025972e-04 0.0 
1.894845025972e-04 -6.516467461164e-04 0.0 
0.0 0.0 9.496144994935e-04 
3.440968295261e-05 1.155238205064e-03 0.0 
1.155238205064e-03 6.628254598355e-04 0.0 
0.0 0.0 3.774527502469e-04 
-3.800719165569e-03 1.277923947386e-03 0.0 
1.277923947386e-03 5.644595918335e-03 0.0 
0.0 0.0 2.122757728481e-04 
2.643923228114e-03 -6.043717827221e-04 0.0 
-6.043717827221e-04 -1.739146726221e-03 0.0 
0.0 0.0 9.407139595975e-05 
3.621775788672e-03 9.397828746373e-05 0.0 
9.397828746373e-05 -2.885494280924e-03 0.0 
0.0 0.0 1.807048503136e-04 
3.335998234600e-03 -1.308471164018e-04 0.0 
-1.308471164018e-04 -2.837659793454e-03 0.0 
0.0 0.0 1.988672354698e-04 
-5.113035128545e-04 1.274880733005e-03 0.0 
1.274880733005e-03 1.014632236708e-03 0.0 
0.0 0.0 4.802818349659e-04 
7.791110295025e-04 7.372766707089e-03 0.0 
7.372766707089e-03 9.147677511144e-04 0.0 
0.0 0.0 8.887747126974e-05 
4.928384712285e-04 8.388916672190e-03 0.0 
8.388916672190e-03 1.312094085297e-03 0.0 
0.0 0.0 1.178990010134e-04 
2.047057049861e-03 3.202991325433e-03 0.0 
3.202991325433e-03 -1.635383581302e-03 0.0 
0.0 0.0 8.601300489627e-04 
-3.286064580997e-03 5.114349333585e-03 0.0 
5.114349333585e-03 4.311814980476e-03 0.0 
0.0 0.0 3.344444407869e-04 
1.501290661863e-03 1.084570897027e-04 0.0 
1.084570897027e-04 -1.198945112012e-03 0.0 
0.0 0.0 6.600339367211e-04 
-6.719027685031e-03 8.699792572768e-03 0.0 
8.699792572768e-03 1.057402461744e-02 0.0 
0.0 0.0 4.314342446453e-04 
1.913893052461e-03 9.057958265523e-03 0.0 
9.057958265523e-03 -1.339703314220e-03 0.0 
0.0 0.0 7.109448332929e-04 
-3.174155410190e-03 5.773471862837e-03 0.0 
5.773471862837e-03 4.290086406751e-03 0.0 
0.0 0.0 3.330961519896e-04 
1.738522226384e-03 2.764728144711e-03 0.0 
2.764728144711e-03 -1.319898025718e-03 0.0 
0.0 0.0 8.842983407904e-04 
3.185107665389e-03 -7.556710717497e-04 0.0 
-7.556710717497e-04 -2.370483559634e-03 0.0 
0.0 0.0 1.408304500914e-04 
3.343237473165e-03 -2.725483344768e-04 0.0 
-2.725483344768e-04 -1.798872331358e-03 0.0 
0.0 0.0 4.922334607506e-05 
5.816900026352e-04 1.067723831513e-02 0.0 
1.067723831513e-02 3.792652121966e-05 0.0 
0.0 0.0 6.316967343185e-04 
1.269618775275e-03 5.602018863207e-05 0.0 
5.602018863207e-05 -9.247196460295e-04 0.0 
0.0 0.0 7.974104649280e-04 
1.384260952410e-03 1.168556882651e-03 0.0 
1.168556882651e-03 -9.603568477130e-04 0.0 
0.0 0.0 9.132133501408e-04 
1.105554592327e-03 6.244190867643e-04 0.0 
6.244190867643e-04 -6.653487610012e-04 0.0 
0.0 0.0 9.653002305134e-04 
1.106639974512e-03 5.106793100978e-04 0.0 
5.106793100978e-04 -6.668168303380e-04 0.0 
0.0 0.0 9.642497586085e-04 
1.936913638690e-03 5.315765228036e-03 0.0 
5.315765228036e-03 -1.504527206021e-03 0.0 
0.0 0.0 8.865441289994e-04 
-3.172983738250e-03 5.001122227671e-04 0.0 
5.001122227671e-04 4.999195590582e-03 0.0 
0.0 0.0 1.423463259231e-04 
-3.092904567002e-03 2.309892909779e-05 0.0 
2.309892909779e-05 4.948810789773e-03 0.0 
0.0 0.0 1.308375944357e-04 
-9.417257719439e-07 1.082079457220e-02 0.0 
1.082079457220e-02 2.507675703541e-03 0.0 
0.0 0.0 1.517022714158e-04 
1.316602485810e-03 1.617930149754e-03 0.0 
1.617930149754e-03 -9.304881360030e-04 0.0 
0.0 0.0 9.612809033069e-04 
1.122492426614e-03 3.625904272482e-03 0.0 
3.625904272482e-03 -3.836042795222e-04 0.0 
0.0 0.0 5.100277712779e-05 
-4.756845504652e-03 8.042155830287e-03 0.0 
8.042155830287e-03 8.660472602524e-03 0.0 
0.0 0.0 2.015487848785e-04 
-4.221675532349e-04 1.763156488434e-04 0.0 
1.763156488434e-04 9.038479955217e-04 0.0 
0.0 0.0 3.966416156535e-04 
9.947378070443e-04 3.217030863407e-03 0.0 
3.217030863407e-03 -3.984043196270e-04 0.0 
0.0 0.0 5.166467648223e-05 
3.125810538071e-03 -9.477595406316e-04 0.0 
-9.477595406316e-04 -2.075193609884e-03 0.0 
0.0 0.0 9.564531824030e-05 
-3.152171176837e-04 2.405187685609e-04 0.0 
2.405187685609e-04 8.186711146173e-04 0.0 
0.0 0.0 3.442527162923e-04 
2.658957134823e-03 -6.934412801344e-04 0.0 
-6.934412801344e-04 -1.482731762932e-03 0.0 
0.0 0.0 4.448415200450e-05 
-4.021743790027e-03 2.757342187353e-03 0.0 
2.757342187353e-03 5.583162261964e-03 0.0 
0.0 0.0 2.882529195520e-04 
3.096233418355e-04 9.677031385417e-03 0.0 
9.677031385417e-03 1.837053237061e-03 0.0 
0.0 0.0 1.376365547263e-04 
3.332269113682e-03 1.215846307844e-04 0.0 
1.215846307844e-04 -2.861385760879e-03 0.0 
0.0 0.0 2.275732067145e-04 
3.821354043140e-03 -6.783768891067e-04 0.0 
-6.783768891067e-04 -3.082951939886e-03 0.0 
0.0 0.0 2.000984161952e-04 
4.754248713852e-04 9.618066465041e-03 0.0 
9.618066465041e-03 1.808621206562e-03 0.0 
0.0 0.0 1.205023028273e-04 
1.558390078299e-04 9.154894212707e-03 0.0 
9.154894212707e-03 5.170824196802e-04 0.0 
0.0 0.0 4.866590539343e-04 
2.806257192307e-03 1.193951130979e-04 0.0 
1.193951130979e-04 -2.591046363032e-03 0.0 
0.0 0.0 2.831185970533e-04 
3.027613403328e-03 -9.423868661946e-05 0.0 
-9.423868661946e-05 -2.741519613899e-03 0.0 
0.0 0.0 2.463292696384e-04 
1.285977137190e-03 7.472064869008e-05 0.0 
7.472064869008e-05 -9.301021327185e-04 0.0 
0.0 0.0 7.903985242973e-04 
3.880027272145e-03 2.674722073469e-05 0.0 
2.674722073469e-05 -2.773439097233e-03 0.0 
0.0 0.0 1.358019600238e-04 
-2.020470814971e-04 1.234424982312e-03 0.0 
1.234424982312e-03 7.683508471817e-04 0.0 
0.0 0.0 4.909112665503e-04 
1.787514439287e-03 -6.957632931489e-04 0.0 
-6.957632931489e-04 -1.022292185377e-03 0.0 
0.0 0.0 4.709246054998e-05 
2.388212753866e-03 7.892739942059e-03 0.0 
7.892739942059e-03 -1.926275705133e-03 0.0 
0.0 0.0 7.714945216822e-04 
2.627545842346e-03 8.279226819261e-03 0.0 
8.279226819261e-03 -1.458485984007e-03 0.0 
0.0 0.0 2.351127216185e-04 
3.700085475384e-03 -5.553023111712e-04 0.0 
-5.553023111712e-04 -2.910428279415e-03 0.0 
0.0 0.0 1.779321911546e-04 
1.135115791157e-03 2.832320372567e-04 0.0 
2.832320372567e-04 -7.209704194541e-04 0.0 
0.0 0.0 9.240665517482e-04 
6.352336773696e-04 8.317126701199e-03 0.0 
8.317126701199e-03 1.291416236192e-03 0.0 
0.0 0.0 1.041832264135e-04 
2.173584469659e-03 -7.007281935582e-04 0.0 
-7.007281935582e-04 -1.162891834278e-03 0.0 
0.0 0.0 3.111594467915e-05 
6.798695489804e-04 1.097741932678e-02 0.0 
1.097741932678e-02 -7.319537481632e-05 0.0 
0.0 0.0 6.513722444484e-04 
3.494723926396e-03 -8.014111334942e-04 0.0 
-8.014111334942e-04 -2.667801723861e-03 0.0 
0.0 0.0 1.534151716275e-04 
1.356727721846e-03 1.059702331890e-02 0.0 
1.059702331890e-02 -8.359295002343e-04 0.0 
0.0 0.0 7.334190725069e-04 
1.493066384886e-03 1.751225201210e-04 0.0 
1.751225201210e-04 -1.181459544208e-03 0.0 
0.0 0.0 6.922453146332e-04 
5.538050833151e-04 7.860223930379e-03 0.0 
7.860223930379e-03 2.140922565442e-04 0.0 
0.0 0.0 3.939366469979e-04 
1.998406163090e-03 9.302881579382e-03 0.0 
9.302881579382e-03 -1.538820075272e-03 0.0 
0.0 0.0 7.695617435862e-04 
4.218204384024e-03 -2.013695049942e-04 0.0 
-2.013695049942e-04 -2.333894841705e-03 0.0 
0.0 0.0 6.068486245041e-05 
2.555121791015e-03 -5.882879717188e-05 0.0 
-5.882879717188e-05 -2.408661241112e-03 0.0 
0.0 0.0 2.999955710085e-04 
-7.728805120296e-04 4.050310765492e-03 0.0 
4.050310765492e-03 1.368570019552e-03 0.0 
0.0 0.0 5.086838021078e-04 
-6.553743845698e-05 9.439169323909e-03 0.0 
9.439169323909e-03 6.792743289333e-04 0.0 
0.0 0.0 6.379817187648e-04 
1.255208250691e-03 1.938472218622e-03 0.0 
1.938472218622e-03 -7.217521642874e-04 0.0 
0.0 0.0 3.529196282249e-05 
3.551964621044e-03 8.873084699275e-05 0.0 
8.873084699275e-05 -2.672257547433e-03 0.0 
0.0 0.0 1.394484767861e-04 
1.230415500779e-03 2.519748613257e-03 0.0 
2.519748613257e-03 -6.954860157021e-04 0.0 
0.0 0.0 4.958333952881e-05 
3.568008688847e-03 -8.703606951386e-04 0.0 
-8.703606951386e-04 -2.679677068872e-03 0.0 
0.0 0.0 1.465791669778e-04 
-3.537717816568e-03 1.510515439769e-03 0.0 
1.510515439769e-03 5.356886029058e-03 0.0 
0.0 0.0 1.795640328962e-04 
5.754870770035e-04 7.481784530557e-03 0.0 
7.481784530557e-03 9.490734193560e-04 0.0 
0.0 0.0 1.113393476776e-04 
7.837588228693e-04 5.974053100133e-03 0.0 
5.974053100133e-03 5.879004334027e-04 0.0 
0.0 0.0 6.477870380813e-05 
-2.996348829555e-03 1.041625728842e-03 0.0 
1.041625728842e-03 4.045569969398e-03 0.0 
0.0 0.0 2.194583406537e-04 
-2.866220377487e-03 9.850573777880e-04 0.0 
9.850573777880e-04 4.007419865586e-03 0.0 
0.0 0.0 1.854710325301e-04 
1.391835755185e-03 1.104956330195e-04 0.0 
1.104956330195e-04 -1.080727271515e-03 0.0 
0.0 0.0 7.180888666520e-04 
1.304229761928e-03 1.133818827865e-05 0.0 
1.133818827865e-05 -9.591534132905e-04 0.0 
0.0 0.0 7.684037687491e-04 
-5.766497289061e-04 8.348965996494e-03 0.0 
8.348965996494e-03 1.102260126285e-03 0.0 
0.0 0.0 4.888419198688e-04 
-3.368004951411e-03 1.377399731401e-03 0.0 
1.377399731401e-03 4.839425141611e-03 0.0 
0.0 0.0 2.040930353652e-04 
3.176679080461e-03 -3.050563844084e-04 0.0 
-3.050563844084e-04 -1.767205030946e-03 0.0 
0.0 0.0 4.786787889917e-05 
-4.134390174961e-03 6.826133420129e-03 0.0 
6.826133420129e-03 6.807621138148e-03 0.0 
0.0 0.0 2.343701872080e-04 
-1.178743385196e-03 3.304994475249e-04 0.0 
3.304994475249e-04 1.707485848742e-03 0.0 
0.0 0.0 2.626782895240e-04 
-1.400664135189e-03 4.874391641978e-04 0.0 
4.874391641978e-04 1.916870911342e-03 0.0 
0.0 0.0 2.909155082705e-04 
8.123352782882e-05 8.223846710153e-03 0.0 
8.223846710153e-03 5.621005223957e-04 0.0 
0.0 0.0 6.686308654096e-04 
1.666418162687e-03 5.617837150911e-03 0.0 
5.617837150911e-03 -1.191436392575e-03 0.0 
0.0 0.0 8.699887048016e-04 
-3.944733669871e-03 1.930644964751e-03 0.0 
1.930644964751e-03 5.948290931574e-03 0.0 
0.0 0.0 2.117431763788e-04 
1.426171057530e-03 1.506724614420e-03 0.0 
1.506724614420e-03 -9.594523342501e-04 0.0 
0.0 0.0 8.913412760469e-04 
-2.071108453260e-03 1.172729902760e-04 0.0 
1.172729902760e-04 2.700870910342e-03 0.0 
0.0 0.0 1.750354904981e-04 
2.058742728255e-03 8.092132033899e-03 0.0 
8.092132033899e-03 -7.942580198172e-04 0.0 
0.0 0.0 1.900217742922e-04 
-3.449453950690e-03 7.811365446456e-04 0.0 
7.811365446456e-04 5.113861986273e-03 0.0 
0.0 0.0 1.914119382446e-04 
1.071454415127e-03 2.379484097867e-04 0.0 
2.379484097867e-04 -6.540524907658e-04 0.0 
0.0 0.0 9.469635328838e-04 
3.523601170692e-03 7.436462989046e-03 0.0 
7.436462989046e-03 -3.093374381834e-03 0.0 
0.0 0.0 6.146821259436e-04 
2.420777174755e-03 7.558370244322e-03 0.0 
7.558370244322e-03 -1.933493620307e-03 0.0 
0.0 0.0 7.410770209200e-04 
3.210741848879e-03 6.257869053836e-03 0.0 
6.257869053836e-03 -2.152219636657e-03 0.0 
0.0 0.0 2.072388354597e-04 
2.713112042716e-03 -9.050472161746e-04 0.0 
-9.050472161746e-04 -1.843922174335e-03 0.0 
0.0 0.0 1.015839581025e-04 
1.183178379798e-03 1.222905674445e-04 0.0 
1.222905674445e-04 -7.962515177755e-04 0.0 
0.0 0.0 8.736181891427e-04 
-1.005599641525e-03 5.458619290356e-04 0.0 
5.458619290356e-04 1.547671929338e-03 0.0 
0.0 0.0 3.484725515598e-04 
2.108791033916e-03 -6.865049597961e-04 0.0 
-6.865049597961e-04 -1.209766900221e-03 0.0 
0.0 0.0 5.476918427797e-05 
1.101444046833e-03 4.622642473326e-04 0.0 
4.622642473326e-04 -7.036032744735e-04 0.0 
0.0 0.0 9.535027608427e-04 
-4.949008529885e-04 8.182909120071e-03 0.0 
8.182909120071e-03 9.878233334865e-04 0.0 
0.0 0.0 4.664020860023e-04 
4.307838992002e-03 7.005445298147e-05 0.0 
7.005445298147e-05 -2.156086283132e-03 0.0 
0.0 0.0 3.730945258408e-05 
3.500742740578e-03 7.049992047892e-03 0.0 
7.049992047892e-03 -2.835546954480e-03 0.0 
0.0 0.0 3.563092195179e-04 
-2.820479058762e-03 1.339805438873e-02 0.0 
1.339805438873e-02 6.975287030637e-03 0.0 
0.0 0.0 1.992839381700e-04 
2.319852976811e-03 4.587575079527e-05 0.0 
4.587575079527e-05 -2.158277394941e-03 0.0 
0.0 0.0 3.898634999347e-04 
2.387322508499e-03 7.312801242898e-03 0.0 
7.312801242898e-03 -1.149807754980e-03 0.0 
0.0 0.0 1.731068490023e-04 
2.569283944426e-03 7.976883347431e-03 0.0 
7.976883347431e-03 -1.450220670504e-03 0.0 
0.0 0.0 2.285577984929e-04 
1.190994175051e-03 9.832679345578e-04 0.0 
9.832679345578e-04 -7.890581742841e-04 0.0 
0.0 0.0 9.504304079513e-04 
-2.293817751748e-03 2.429741774570e-04 0.0 
2.429741774570e-04 3.004005561800e-03 0.0 
0.0 0.0 1.846614027366e-04 
2.995223185463e-03 7.525485158156e-03 0.0 
7.525485158156e-03 -1.833795110809e-03 0.0 
0.0 0.0 2.235560247006e-04 
3.521708815352e-03 -4.252748215312e-04 0.0 
-4.252748215312e-04 -2.611365629461e-03 0.0 
0.0 0.0 1.428054242049e-04 
-4.554947012620e-03 7.593170883719e-03 0.0 
7.593170883719e-03 6.707903395070e-03 0.0 
0.0 0.0 3.553771086836e-04 
-8.250490372802e-04 4.558534178185e-04 0.0 
4.558534178185e-04 1.376348641529e-03 0.0 
0.0 0.0 3.097060967774e-04 
2.895833278879e-03 7.111917420894e-03 0.0 
7.111917420894e-03 -1.827755350966e-03 0.0 
0.0 0.0 2.179427140462e-04 
1.448810331720e-03 5.061033008506e-04 0.0 
5.061033008506e-04 -8.935736889309e-04 0.0 
0.0 0.0 3.255381009632e-05 
-9.897061524209e-04 1.314820472861e-02 0.0 
1.314820472861e-02 4.390747340989e-03 0.0 
0.0 0.0 1.817026465826e-04 
2.420617749517e-03 -2.615605343475e-05 0.0 
-2.615605343475e-05 -2.206043081088e-03 0.0 
0.0 0.0 3.482892437680e-04 
-4.040947913500e-04 1.216980114635e-02 0.0 
1.216980114635e-02 3.359438714445e-03 0.0 
0.0 0.0 1.736863582085e-04 
-1.581143976759e-05 5.348946586364e-03 0.0 
5.348946586364e-03 7.778004296525e-04 0.0 
0.0 0.0 3.694268272994e-04 
2.381192731010e-03 1.402281556647e-03 0.0 
1.402281556647e-03 -1.562433600811e-03 0.0 
0.0 0.0 8.482864919933e-05 
1.499868568343e-03 1.039917668874e-04 0.0 
1.039917668874e-04 -1.211482649385e-03 0.0 
0.0 0.0 6.548183124831e-04 
-2.752213973105e-04 3.561638968309e-04 0.0 
3.561638968309e-04 7.784113970123e-04 0.0 
0.0 0.0 4.072460937097e-04 
1.202035580311e-03 1.042227227778e-02 0.0 
1.042227227778e-02 5.066212183422e-05 0.0 
0.0 0.0 2.907606819657e-04 
-4.276514788552e-04 1.210711296234e-02 0.0 
1.210711296234e-02 3.373456336794e-03 0.0 
0.0 0.0 1.689592805186e-04 
1.398020857956e-03 1.278826024509e-03 0.0 
1.278826024509e-03 -9.717892742549e-04 0.0 
0.0 0.0 9.075554798519e-04 
1.118278389831e-03 1.110595777260e-04 0.0 
1.110595777260e-04 -7.024301478404e-04 0.0 
0.0 0.0 9.257518901670e-04 
1.416878720480e-03 1.112804243361e-04 0.0 
1.112804243361e-04 -1.097522726120e-03 0.0 
0.0 0.0 7.074077960412e-04 
8.822859539397e-04 1.078833166141e-02 0.0 
1.078833166141e-02 6.308056333145e-04 0.0 
0.0 0.0 2.704043182992e-04 
1.613741690027e-03 2.423561114059e-03 0.0 
2.423561114059e-03 -1.134019446448e-03 0.0 
0.0 0.0 8.718292325255e-04 
8.898879854386e-04 1.083101160004e-02 0.0 
1.083101160004e-02 7.798038221920e-04 0.0 
0.0 0.0 2.445504382511e-04 
-2.543545583372e-04 2.998176073984e-03 0.0 
2.998176073984e-03 9.399698083236e-04 0.0 
0.0 0.0 4.016275824237e-04 
1.395256482705e-03 1.092028839777e-02 0.0 
1.092028839777e-02 -7.899619561525e-04 0.0 
0.0 0.0 6.579719486625e-04 
-3.804655781173e-03 4.177799289977e-03 0.0 
4.177799289977e-03 5.392929699179e-03 0.0 
0.0 0.0 2.814851677533e-04 
-1.884407783187e-03 7.518566680987e-04 0.0 
7.518566680987e-04 2.467207328891e-03 0.0 
0.0 0.0 2.149989387879e-04 
9.898876132687e-04 1.073647474001e-02 0.0 
1.073647474001e-02 7.661037887064e-04 0.0 
0.0 0.0 2.259359392926e-04 
1.347827465591e-04 1.094201872779e-02 0.0 
1.094201872779e-02 2.475280958909e-03 0.0 
0.0 0.0 1.470477674225e-04 
9.410033625652e-04 1.025580548161e-02 0.0 
1.025580548161e-02 6.878273608348e-06 0.0 
0.0 0.0 3.495127394546e-04 
3.377212945255e-03 6.914970093511e-03 0.0 
6.914970093511e-03 -2.355809563651e-03 0.0 
0.0 0.0 2.556700803094e-04 
-3.114099978499e-03 5.834295589125e-04 0.0 
5.834295589125e-04 4.517315947319e-03 0.0 
0.0 0.0 1.830497773119e-04 
3.583197584374e-03 6.599533660014e-03 0.0 
6.599533660014e-03 -2.832807556777e-03 0.0 
0.0 0.0 3.314751371317e-04 
3.381076611105e-03 -2.762469762533e-04 0.0 
-2.762469762533e-04 -1.845831977216e-03 0.0 
0.0 0.0 4.505593282094e-05 
-2.577928773345e-03 2.257200112343e-04 0.0 
2.257200112343e-04 3.498513565272e-03 0.0 
0.0 0.0 1.846664294239e-04 
3.594174852099e-03 -2.547001408714e-05 0.0 
-2.547001408714e-05 -2.736853777244e-03 0.0 
0.0 0.0 1.424808106433e-04 
-1.723191871680e-03 1.372822920048e-02 0.0 
1.372822920048e-02 5.517558689278e-03 0.0 
0.0 0.0 1.941637880933e-04 
1.403267357917e-03 2.232909386235e-03 0.0 
2.232909386235e-03 -1.018280467667e-03 0.0 
0.0 0.0 9.672164862048e-04 
3.306102045986e-03 6.717507336215e-03 0.0 
6.717507336215e-03 -2.164022029951e-03 0.0 
0.0 0.0 2.153030262052e-04 
1.352506478808e-03 6.735026445788e-05 0.0 
6.735026445788e-05 -1.021161431249e-03 0.0 
0.0 0.0 7.367783934490e-04 
8.241817966412e-04 3.926100996721e-03 0.0 
3.926100996721e-03 -1.242175446461e-04 0.0 
0.0 0.0 5.993275854432e-05 
3.499258595705e-03 7.653752343713e-03 0.0 
7.653752343713e-03 -3.084953528545e-03 0.0 
0.0 0.0 6.315378468236e-04 
-2.677975266038e-03 2.834632522806e-04 0.0 
2.834632522806e-04 3.942669629307e-03 0.0 
0.0 0.0 1.360353810613e-04 
3.877992163056e-03 6.298186580571e-03 0.0 
6.298186580571e-03 -3.165976420023e-03 0.0 
0.0 0.0 3.436972852224e-04 
1.255468167695e-03 1.195789616736e-04 0.0 
1.195789616736e-04 -8.918336472022e-04 0.0 
0.0 0.0 8.203225722833e-04 
3.483613469955e-03 -5.520223384908e-04 0.0 
-5.520223384908e-04 -2.608193133776e-03 0.0 
0.0 0.0 1.429821219831e-04 
1.192201320384e-03 1.617911913503e-04 0.0 
1.617911913503e-04 -8.032873663817e-04 0.0 
0.0 0.0 8.694831984116e-04 
-2.170775602755e-03 1.087314371349e-02 0.0 
1.087314371349e-02 3.700607690348e-03 0.0 
0.0 0.0 3.643812976582e-04 
1.162273067672e-03 4.256084713549e-04 0.0 
4.256084713549e-04 -7.128657578788e-04 0.0 
0.0 0.0 9.198546502731e-04 
-2.651187163448e-03 1.603867216707e-04 0.0 
1.603867216707e-04 3.912957482116e-03 0.0 
0.0 0.0 1.347131672185e-04 
3.644958630145e-03 6.363956482084e-03 0.0 
6.363956482084e-03 -2.671599939830e-03 0.0 
0.0 0.0 2.593934109744e-04 
-2.456228414227e-03 1.336980193367e-02 0.0 
1.336980193367e-02 5.699044313991e-03 0.0 
0.0 0.0 2.807506750289e-04 
1.547505692172e-03 4.300276166435e-05 0.0 
4.300276166435e-05 -1.243908582992e-03 0.0 
0.0 0.0 6.143171664360e-04 
9.383112905545e-04 4.381953595532e-03 0.0 
4.381953595532e-03 -5.875787248791e-05 0.0 
0.0 0.0 5.986398484581e-05 
3.896646270571e-03 5.772697937299e-03 0.0 
5.772697937299e-03 -3.151074530790e-03 0.0 
0.0 0.0 3.239985390652e-04 
-1.609916380515e-03 6.159016269219e-04 0.0 
6.159016269219e-04 2.126090062389e-03 0.0 
0.0 0.0 2.679715531209e-04 
-2.911754014137e-03 1.198265383032e-04 0.0 
1.198265383032e-04 4.229170687348e-03 0.0 
0.0 0.0 1.706287840608e-04 
3.615492503798e-03 6.806877536968e-03 0.0 
6.806877536968e-03 -2.779515067013e-03 0.0 
0.0 0.0 3.099991395448e-04 
-1.290484670055e-03 1.308336942122e-02 0.0 
1.308336942122e-02 4.450272126246e-03 0.0 
0.0 0.0 2.193994301216e-04 
1.340203424285e-03 9.776765071821e-03 0.0 
9.776765071821e-03 -8.203827374536e-04 0.0 
0.0 0.0 5.770545735829e-04 
2.327180801510e-03 -3.234328822237e-05 0.0 
-3.234328822237e-05 -2.088574803304e-03 0.0 
0.0 0.0 3.983717614021e-04 
1.697356440540e-03 8.624184647024e-03 0.0 
8.624184647024e-03 -1.252446994230e-03 0.0 
0.0 0.0 8.618173623808e-04 
1.574021968449e-03 1.062792628912e-02 0.0 
1.062792628912e-02 -9.720356942425e-04 0.0 
0.0 0.0 6.651274049877e-04 
1.570740241843e-03 6.847633244614e-03 0.0 
6.847633244614e-03 -4.153702864862e-04 0.0 
0.0 0.0 1.399569472311e-04 
2.033657977680e-03 1.064408375675e-04 0.0 
1.064408375675e-04 -1.848230704086e-03 0.0 
0.0 0.0 4.344302651182e-04 
2.572482696741e-03 4.121419123425e-03 0.0 
4.121419123425e-03 -2.159880964116e-03 0.0 
0.0 0.0 7.859827460489e-04 
4.975775387287e-04 1.086434313372e-02 0.0 
1.086434313372e-02 1.575196542937e-03 0.0 
0.0 0.0 1.917813757137e-04 
1.844617173515e-03 5.680723923530e-03 0.0 
5.680723923530e-03 -7.600055373415e-04 0.0 
0.0 0.0 1.096693636973e-04 
-3.033752826692e-03 1.141144404785e-02 0.0 
1.141144404785e-02 5.135997714909e-03 0.0 
0.0 0.0 3.613548263128e-04 
3.359456585581e-03 7.277520169453e-03 0.0 
7.277520169453e-03 -2.435749097564e-03 0.0 
0.0 0.0 2.998553597848e-04 
-2.140591405069e-05 1.910015553548e-03 0.0 
1.910015553548e-03 7.307905494134e-04 0.0 
0.0 0.0 3.649166744849e-04 
-1.177566797949e-03 7.322165311553e-03 0.0 
7.322165311553e-03 1.673976281589e-03 0.0 
0.0 0.0 4.400461427563e-04 
1.217014505483e-03 8.573068229738e-05 0.0 
8.573068229738e-05 -8.394520079279e-04 0.0 
0.0 0.0 8.451534436451e-04 
1.101939694541e-03 2.627224910671e-03 0.0 
2.627224910671e-03 -5.678520210561e-04 0.0 
0.0 0.0 4.582845594794e-05 
4.145010727019e-03 4.867055940361e-03 0.0 
4.867055940361e-03 -3.404374628238e-03 0.0 
0.0 0.0 3.155496275607e-04 
-5.572698650266e-04 8.156305936791e-03 0.0 
8.156305936791e-03 1.084054514404e-03 0.0 
0.0 0.0 4.596002737171e-04 
-1.154627424414e-05 -3.047825170682e-06 0.0 
-3.047825170682e-06 2.961280163319e-05 0.0 
0.0 0.0 -1.214057278317e-06 
5.302797727745e-04 1.100309115436e-02 0.0 
1.100309115436e-02 1.573299131124e-03 0.0 
0.0 0.0 1.967385953359e-04 
2.821749513577e-03 3.308426102966e-03 0.0 
3.308426102966e-03 -2.441082786878e-03 0.0 
0.0 0.0 7.455704619829e-04 
3.997914209168e-03 8.368916595930e-05 0.0 
8.368916595930e-05 -2.472235076621e-03 0.0 
0.0 0.0 9.146190896422e-05 
1.439618626868e-04 9.566471862181e-03 0.0 
9.566471862181e-03 5.124514460895e-04 0.0 
0.0 0.0 5.254815337490e-04 
-2.573960965469e-03 5.995270618833e-03 0.0 
5.995270618833e-03 3.284265024904e-03 0.0 
0.0 0.0 3.852835958178e-04 
3.961515674593e-03 3.315404394359e-04 0.0 
3.315404394359e-04 -3.705895431197e-03 0.0 
0.0 0.0 3.563776422105e-04 
2.861301428825e-03 3.584358763600e-03 0.0 
3.584358763600e-03 -2.478100016494e-03 0.0 
0.0 0.0 7.311453637735e-04 
-3.948105703377e-03 6.598065317013e-03 0.0 
6.598065317013e-03 5.521224892605e-03 0.0 
0.0 0.0 3.605867350288e-04 
-3.840101460652e-03 4.955001494976e-03 0.0 
4.955001494976e-03 5.079131886386e-03 0.0 
0.0 0.0 3.592467903081e-04 
1.725607504738e-03 2.682023916827e-03 0.0 
2.682023916827e-03 -1.315833987132e-03 0.0 
0.0 0.0 8.932829131662e-04 
3.714161467244e-03 -2.652841619738e-04 0.0 
-2.652841619738e-04 -3.372972392377e-03 0.0 
0.0 0.0 2.933730045365e-04 
1.259437380113e-03 9.606964637504e-03 0.0 
9.606964637504e-03 -5.560572996914e-04 0.0 
0.0 0.0 3.795513010887e-04 
-1.497374893673e-03 1.035258019293e-02 0.0 
1.035258019293e-02 2.608446279261e-03 0.0 
0.0 0.0 3.802388454874e-04 
-2.363497518387e-03 5.667802258854e-03 0.0 
5.667802258854e-03 3.014810436248e-03 0.0 
0.0 0.0 3.848570734805e-04 
-1.902403500794e-03 1.012629344354e-02 0.0 
1.012629344354e-02 3.643586216891e-03 0.0 
0.0 0.0 2.982287223860e-04 
-2.042284028864e-03 1.228334497105e-02 0.0 
1.228334497105e-02 5.015291214502e-03 0.0 
0.0 0.0 2.367435414178e-04 
3.998298834110e-03 6.694826027640e-03 0.0 
6.694826027640e-03 -3.606937483397e-03 0.0 
0.0 0.0 5.399866654226e-04 
8.371759181602e-04 9.402279166539e-03 0.0 
9.402279166539e-03 -3.166126991708e-04 0.0 
0.0 0.0 5.443988215860e-04 
1.167730019912e-03 -4.916037332073e-04 0.0 
-4.916037332073e-04 -7.086376993933e-04 0.0 
0.0 0.0 4.481452554886e-05 
1.782143966348e-03 7.205598756934e-03 0.0 
7.205598756934e-03 -4.146189779131e-04 0.0 
0.0 0.0 1.321451943479e-04 
2.190180157316e-03 8.355708167550e-03 0.0 
8.355708167550e-03 -8.250661025810e-04 0.0 
0.0 0.0 1.906266847641e-04 
1.241197864540e-03 1.012644773691e-02 0.0 
1.012644773691e-02 -3.657179929376e-05 0.0 
0.0 0.0 3.009382976413e-04 
-1.173636066361e-03 7.337343755777e-03 0.0 
7.337343755777e-03 1.702490922913e-03 0.0 
0.0 0.0 4.643323890922e-04 
3.603713177247e-03 7.890828688361e-04 0.0 
7.890828688361e-04 -2.536737737569e-03 0.0 
0.0 0.0 1.430337363378e-04 
2.910726876116e-03 2.933080895271e-03 0.0 
2.933080895271e-03 -2.548604862333e-03 0.0 
0.0 0.0 7.270555513840e-04 
-2.920974217936e-03 3.645589704159e-04 0.0 
3.645589704159e-04 4.268870570310e-03 0.0 
0.0 0.0 1.606296110413e-04 
4.172635130727e-03 5.458678259261e-03 0.0 
5.458678259261e-03 -3.430674804671e-03 0.0 
0.0 0.0 3.312619199428e-04 
2.962429435566e-03 2.521960614531e-03 0.0 
2.521960614531e-03 -2.615613693273e-03 0.0 
0.0 0.0 7.045410066405e-04 
3.727638145511e-03 7.856234522463e-05 0.0 
7.856234522463e-05 -2.057497579954e-03 0.0 
0.0 0.0 5.488057233061e-05 
-2.093578007874e-03 5.827158883098e-03 0.0 
5.827158883098e-03 2.665518211894e-03 0.0 
0.0 0.0 3.938658875493e-04 
3.770759266241e-03 -3.559618051488e-05 0.0 
-3.559618051488e-05 -1.965903702618e-03 0.0 
0.0 0.0 4.505308735654e-05 
3.731968027325e-03 6.218313515561e-05 0.0 
6.218313515561e-05 -2.449751557250e-03 0.0 
0.0 0.0 9.639122720670e-05 
1.193406407055e-03 3.032790105269e-03 0.0 
3.032790105269e-03 -5.612416531782e-04 0.0 
0.0 0.0 4.726075640775e-05 
3.741615757492e-03 -3.898559128165e-04 0.0 
-3.898559128165e-04 -3.296454852226e-03 0.0 
0.0 0.0 2.550303239536e-04 
-1.989816526330e-03 5.710891863981e-03 0.0 
5.710891863981e-03 2.504803409549e-03 0.0 
0.0 0.0 4.108575798002e-04 
3.748922024761e-03 -4.199694601075e-04 0.0 
-4.199694601075e-04 -3.293196659822e-03 0.0 
0.0 0.0 2.540981544364e-04 
3.190038223975e-03 3.901851089990e-03 0.0 
3.901851089990e-03 -2.162480097225e-03 0.0 
0.0 0.0 1.485333519388e-04 
3.717985304118e-03 -9.121869198201e-04 0.0 
-9.121869198201e-04 -3.021563434446e-03 0.0 
0.0 0.0 1.971195742687e-04 
3.561357405340e-03 -4.926350618566e-04 0.0 
-4.926350618566e-04 -2.770751397997e-03 0.0 
0.0 0.0 1.625690121077e-04 
2.727279508367e-03 3.895673629796e-03 0.0 
3.895673629796e-03 -2.338586530111e-03 0.0 
0.0 0.0 7.662833851156e-04 
-1.429572216475e-03 1.141218622333e-02 0.0 
1.141218622333e-02 3.598704328801e-03 0.0 
0.0 0.0 2.721128297096e-04 
1.145938976893e-03 3.289878422764e-04 0.0 
3.289878422764e-04 -7.258547112966e-04 0.0 
0.0 0.0 9.191960685261e-04 
1.111680285880e-03 -2.857097879615e-04 0.0 
-2.857097879615e-04 -4.919942364999e-04 0.0 
0.0 0.0 -6.119584476127e-06 
3.734490230938e-03 4.832727138878e-03 0.0 
4.832727138878e-03 -2.638945312635e-03 0.0 
0.0 0.0 1.981167045653e-04 
4.078818482335e-03 5.704164093861e-03 0.0 
5.704164093861e-03 -3.500464511237e-03 0.0 
0.0 0.0 3.737741247264e-04 
1.003957222197e-03 9.924086581826e-03 0.0 
9.924086581826e-03 8.979455938322e-04 0.0 
0.0 0.0 1.708686637329e-04 
2.956992468912e-03 3.112683235047e-03 0.0 
3.112683235047e-03 -2.589580496487e-03 0.0 
0.0 0.0 7.064694337312e-04 
1.156944455820e-03 4.939168788021e-04 0.0 
4.939168788021e-04 -7.181248083645e-04 0.0 
0.0 0.0 9.305489755181e-04 
-1.620391245059e-03 7.148872268335e-03 0.0 
7.148872268335e-03 2.215236659069e-03 0.0 
0.0 0.0 4.135476605151e-04 
4.241138924769e-03 3.435151388711e-03 0.0 
3.435151388711e-03 -3.391966929054e-03 0.0 
0.0 0.0 2.639171906549e-04 
2.706579048745e-03 3.805263121773e-03 0.0 
3.805263121773e-03 -2.320975035700e-03 0.0 
0.0 0.0 7.766133620132e-04 
1.418233036483e-03 4.896832533304e-05 0.0 
4.896832533304e-05 -1.113833481652e-03 0.0 
0.0 0.0 6.801294483438e-04 
7.046649141625e-04 1.038474282312e-02 0.0 
1.038474282312e-02 5.474521757928e-04 0.0 
0.0 0.0 3.084308200732e-04 
-2.178017912291e-03 6.400818172872e-03 0.0 
6.400818172872e-03 2.750474277694e-03 0.0 
0.0 0.0 4.125024995465e-04 
2.067110043470e-03 8.138378738519e-03 0.0 
8.138378738519e-03 -1.588976609914e-03 0.0 
0.0 0.0 7.801048048723e-04 
4.092774641905e-03 5.160172835768e-03 0.0 
5.160172835768e-03 -3.482586663746e-03 0.0 
0.0 0.0 3.524520191496e-04 
2.960661775621e-03 4.265535359065e-03 0.0 
4.265535359065e-03 -1.965836790036e-03 0.0 
0.0 0.0 1.420360130647e-04 
-1.760556560768e-03 9.181388217734e-03 0.0 
9.181388217734e-03 3.054474067582e-03 0.0 
0.0 0.0 3.312615448131e-04 
2.770241981863e-04 7.550527626500e-03 0.0 
7.550527626500e-03 4.310882070829e-04 0.0 
0.0 0.0 5.585079193631e-04 
1.570023277044e-03 9.469182471535e-03 0.0 
9.469182471535e-03 -6.039366829934e-04 0.0 
0.0 0.0 3.282859533231e-04 
4.407994178769e-03 5.362730876052e-03 0.0 
5.362730876052e-03 -3.991938521728e-03 0.0 
0.0 0.0 4.517767210208e-04 
-2.595993035940e-03 3.843157521585e-04 0.0 
3.843157521585e-04 3.487310539976e-03 0.0 
0.0 0.0 1.926487275235e-04 
3.278602826488e-03 -9.878558795899e-04 0.0 
-9.878558795899e-04 -2.419558949765e-03 0.0 
0.0 0.0 1.368206928380e-04 
-2.340407361701e-03 9.603531195217e-03 0.0 
9.603531195217e-03 3.732082564122e-03 0.0 
0.0 0.0 3.481150880722e-04 
4.359973989013e-03 4.084387184427e-03 0.0 
4.084387184427e-03 -3.440536651041e-03 0.0 
0.0 0.0 2.702171137330e-04 
4.097357245340e-03 1.465999561254e-03 0.0 
1.465999561254e-03 -3.056427631594e-03 0.0 
0.0 0.0 1.882342044006e-04 
3.511341977966e-03 -8.887920027036e-04 0.0 
-8.887920027036e-04 -2.632789763900e-03 0.0 
0.0 0.0 1.510539030588e-04 
-1.955934339155e-03 5.399155439437e-03 0.0 
5.399155439437e-03 2.488929145545e-03 0.0 
0.0 0.0 3.839100768720e-04 
-1.366561671224e-03 9.814609265346e-03 0.0 
9.814609265346e-03 2.745040705138e-03 0.0 
0.0 0.0 3.197472567686e-04 
3.353356106714e-03 7.272342718732e-03 0.0 
7.272342718732e-03 -2.371876142749e-03 0.0 
0.0 0.0 2.729982829192e-04 
-1.868700181008e-03 5.353274126740e-03 0.0 
5.353274126740e-03 2.402382710683e-03 0.0 
0.0 0.0 4.266060754295e-04 
-1.104054915742e-03 7.792989412307e-03 0.0 
7.792989412307e-03 1.644454482144e-03 0.0 
0.0 0.0 4.478629493958e-04 
1.402301821923e-04 1.036710992468e-02 0.0 
1.036710992468e-02 1.118309087852e-03 0.0 
0.0 0.0 3.171536331361e-04 
1.138142722941e-03 7.221888383060e-04 0.0 
7.221888383060e-04 -7.430313857387e-04 0.0 
0.0 0.0 9.582975020500e-04 
4.600247428627e-03 5.445670442017e-03 0.0 
5.445670442017e-03 -4.238855013593e-03 0.0 
0.0 0.0 4.812493354513e-04 
-4.301186735036e-04 1.007783455748e-02 0.0 
1.007783455748e-02 1.650783435122e-03 0.0 
0.0 0.0 3.254597614016e-04 
3.233215164570e-03 7.375939322022e-03 0.0 
7.375939322022e-03 -2.463177845932e-03 0.0 
0.0 0.0 3.379762176018e-04 
4.360140673519e-03 5.745915618767e-03 0.0 
5.745915618767e-03 -3.994531222089e-03 0.0 
0.0 0.0 4.782130605381e-04 
4.402066521980e-03 2.069224075962e-03 0.0 
2.069224075962e-03 -3.457191611286e-03 0.0 
0.0 0.0 2.346584193257e-04 
-4.485732945249e-03 5.387582057843e-03 0.0 
5.387582057843e-03 7.611455422435e-03 0.0 
0.0 0.0 1.904874489926e-04 
4.338027031987e-03 4.622419784826e-03 0.0 
4.622419784826e-03 -3.800117062145e-03 0.0 
0.0 0.0 3.815494039024e-04 
4.548730150471e-03 6.731299467810e-04 0.0 
6.731299467810e-04 -4.034058081753e-03 0.0 
0.0 0.0 3.175719096975e-04 
-1.720144576976e-03 6.967365803157e-03 0.0 
6.967365803157e-03 2.240038476798e-03 0.0 
0.0 0.0 4.272493262478e-04 
2.875776546690e-04 -3.779630148002e-04 0.0 
-3.779630148002e-04 -1.337547595039e-04 0.0 
0.0 0.0 1.200176545515e-05 
-2.320927518769e-03 9.311593030499e-03 0.0 
9.311593030499e-03 3.977751665652e-03 0.0 
0.0 0.0 3.101549711103e-04 
4.531803002563e-03 3.575081885315e-03 0.0 
3.575081885315e-03 -3.735191091345e-03 0.0 
0.0 0.0 3.007481047700e-04 
3.615284266244e-03 4.230739949472e-03 0.0 
4.230739949472e-03 -2.603836738845e-03 0.0 
0.0 0.0 1.869577165182e-04 
4.193336817479e-03 1.459681236061e-03 0.0 
1.459681236061e-03 -3.386285536675e-03 0.0 
0.0 0.0 2.412571292171e-04 
-1.689506566932e-03 8.613729782425e-03 0.0 
8.613729782425e-03 2.391034231440e-03 0.0 
0.0 0.0 4.149177204544e-04 
3.279367706623e-03 -5.748753438719e-04 0.0 
-5.748753438719e-04 -2.116586013832e-03 0.0 
0.0 0.0 9.136894420363e-05 
1.809155230739e-03 9.182385915687e-03 0.0 
9.182385915687e-03 -3.535719474605e-04 0.0 
0.0 0.0 2.053550396638e-04 
4.468989126532e-03 5.760142122608e-03 0.0 
5.760142122608e-03 -4.127014276846e-03 0.0 
0.0 0.0 5.147937123339e-04 
-1.796768968899e-03 9.521061333962e-03 0.0 
9.521061333962e-03 2.828463965326e-03 0.0 
0.0 0.0 3.778821524478e-04 
-4.246162449830e-03 6.017982293874e-03 0.0 
6.017982293874e-03 5.900724473551e-03 0.0 
0.0 0.0 3.701742219839e-04 
3.278598524617e-03 2.393374566428e-04 0.0 
2.393374566428e-04 -2.275726165054e-03 0.0 
0.0 0.0 1.257783349684e-04 
4.718196459674e-03 1.105450602415e-03 0.0 
1.105450602415e-03 -4.088894888765e-03 0.0 
0.0 0.0 3.076576619780e-04 
4.438570270110e-03 1.724164252743e-04 0.0 
1.724164252743e-04 -3.898369172883e-03 0.0 
0.0 0.0 2.960070375929e-04 
1.400214748186e-03 7.919925548492e-03 0.0 
7.919925548492e-03 -2.320959675736e-05 0.0 
0.0 0.0 1.501933395342e-04 
-2.007132342308e-03 6.943346160988e-03 0.0 
6.943346160988e-03 2.690729909024e-03 0.0 
0.0 0.0 3.950454001436e-04 
1.777932255735e-03 9.100646387781e-03 0.0 
9.100646387781e-03 -3.453264931153e-04 0.0 
0.0 0.0 2.014817061393e-04 
4.552624026745e-03 4.336332442664e-03 0.0 
4.336332442664e-03 -4.024507832554e-03 0.0 
0.0 0.0 3.854537324383e-04 
4.338148232305e-03 4.856670460162e-03 0.0 
4.856670460162e-03 -3.733322866591e-03 0.0 
0.0 0.0 3.586720514218e-04 
3.322331648192e-03 2.457053066817e-04 0.0 
2.457053066817e-04 -2.420025355806e-03 0.0 
0.0 0.0 1.454673527378e-04 
3.363944046445e-03 7.157410886443e-03 0.0 
7.157410886443e-03 -2.835927854515e-03 0.0 
0.0 0.0 4.050370309409e-04 
2.323552860471e-03 2.281002141284e-03 0.0 
2.281002141284e-03 -1.530726550864e-03 0.0 
0.0 0.0 8.624697960521e-05 
4.478497400885e-04 1.144021410624e-02 0.0 
1.144021410624e-02 1.991846746562e-04 0.0 
0.0 0.0 6.717445791283e-04 
7.068449289626e-04 1.192262472372e-02 0.0 
1.192262472372e-02 -4.637942240939e-05 0.0 
0.0 0.0 6.395367064466e-04 
1.618741840625e-03 9.019173937633e-03 0.0 
9.019173937633e-03 -1.058482729635e-03 0.0 
0.0 0.0 4.145235409149e-04 
4.441586313941e-03 3.089220197841e-03 0.0 
3.089220197841e-03 -3.505083322019e-03 0.0 
0.0 0.0 2.548972181986e-04 
3.694311093827e-03 3.144955807687e-03 0.0 
3.144955807687e-03 -2.715399091401e-03 0.0 
0.0 0.0 1.797873341548e-04 
-4.318068460764e-04 9.393705446467e-03 0.0 
9.393705446467e-03 1.043462680587e-03 0.0 
0.0 0.0 4.249282281467e-04 
4.055328724461e-03 2.848902030183e-03 0.0 
2.848902030183e-03 -3.128548376985e-03 0.0 
0.0 0.0 2.192483350548e-04 
4.597914689821e-03 4.753519886869e-04 0.0 
4.753519886869e-04 -3.946189235642e-03 0.0 
0.0 0.0 2.841605738024e-04 
3.110020051662e-04 1.038777681246e-02 0.0 
1.038777681246e-02 6.105581745326e-04 0.0 
0.0 0.0 3.665971337852e-04 
-5.090636646315e-04 3.169945592219e-03 0.0 
3.169945592219e-03 1.129166428541e-03 0.0 
0.0 0.0 5.282895461592e-04 
4.392422078627e-03 4.530230838875e-03 0.0 
4.530230838875e-03 -3.621495483060e-03 0.0 
0.0 0.0 3.163953866062e-04 
3.989439497041e-03 7.027919169945e-03 0.0 
7.027919169945e-03 -3.613597587443e-03 0.0 
0.0 0.0 5.541955004673e-04 
3.258248199632e-03 2.997097818982e-03 0.0 
2.997097818982e-03 -2.246627846963e-03 0.0 
0.0 0.0 1.417067742673e-04 
1.443225971374e-03 2.908896949191e-03 0.0 
2.908896949191e-03 -9.313132076495e-04 0.0 
0.0 0.0 8.958766349104e-04 
4.221834540101e-03 3.513125835763e-03 0.0 
3.513125835763e-03 -3.185841775339e-03 0.0 
0.0 0.0 2.233997992071e-04 
6.930629257367e-04 9.756148127169e-03 0.0 
9.756148127169e-03 -1.302312489926e-05 0.0 
0.0 0.0 3.976328162312e-04 
3.886169715862e-03 6.801875219681e-04 0.0 
6.801875219681e-04 -2.878454808444e-03 0.0 
0.0 0.0 1.706748723117e-04 
4.081634623125e-03 3.882856694362e-03 0.0 
3.882856694362e-03 -3.742579828708e-03 0.0 
0.0 0.0 5.818380505026e-04 
4.322479938618e-03 5.153397291069e-03 0.0 
5.153397291069e-03 -3.821678700647e-03 0.0 
0.0 0.0 4.026177708773e-04 
4.713695178631e-03 4.268911860335e-04 0.0 
4.268911860335e-04 -4.132080378575e-03 0.0 
0.0 0.0 3.061618793583e-04 
-8.988577222465e-04 1.072305658097e-02 0.0 
1.072305658097e-02 2.504133958066e-03 0.0 
0.0 0.0 3.007157780786e-04 
1.069831407606e-03 1.184959825700e-02 0.0 
1.184959825700e-02 -4.265207141953e-04 0.0 
0.0 0.0 6.706222591296e-04 
4.530577140567e-03 3.962851758576e-03 0.0 
3.962851758576e-03 -3.890814015142e-03 0.0 
0.0 0.0 3.434342755109e-04 
4.446907550821e-03 5.404625444818e-03 0.0 
5.404625444818e-03 -4.094944713696e-03 0.0 
0.0 0.0 5.142523142528e-04 
3.149175736546e-03 2.250566867717e-03 0.0 
2.250566867717e-03 -2.203155723440e-03 0.0 
0.0 0.0 1.291779838162e-04 
-2.924938144977e-03 2.931201150510e-03 0.0 
2.931201150510e-03 3.800032770818e-03 0.0 
0.0 0.0 2.822619071422e-04 
3.027607503069e-03 2.708666349583e-03 0.0 
2.708666349583e-03 -2.673108415416e-03 0.0 
0.0 0.0 6.769675952155e-04 
2.756487057712e-03 5.196886281598e-03 0.0 
5.196886281598e-03 -1.746940202717e-03 0.0 
0.0 0.0 1.523718249756e-04 
-3.040290278935e-03 2.665221173990e-03 0.0 
2.665221173990e-03 3.839475719342e-03 0.0 
0.0 0.0 3.103192283756e-04 
1.370346352027e-03 1.063089435201e-02 0.0 
1.063089435201e-02 -7.460954478412e-04 0.0 
0.0 0.0 7.052354096049e-04 
2.597038581001e-03 2.674328526215e-03 0.0 
2.674328526215e-03 -2.229691269921e-03 0.0 
0.0 0.0 7.433023582894e-04 
9.601256603597e-04 1.200836996413e-02 0.0 
1.200836996413e-02 -3.131436159575e-04 0.0 
0.0 0.0 6.692437147116e-04 
-3.424554809886e-03 4.109551119169e-03 0.0 
4.109551119169e-03 4.428832576086e-03 0.0 
0.0 0.0 3.349764960187e-04 
-4.246243667310e-04 8.345617168331e-03 0.0 
8.345617168331e-03 9.656886517555e-04 0.0 
0.0 0.0 4.538457699936e-04 
2.023546971856e-03 3.916964532448e-03 0.0 
3.916964532448e-03 -1.210735942002e-03 0.0 
0.0 0.0 9.973708302685e-05 
-7.210158878623e-04 1.183352225366e-02 0.0 
1.183352225366e-02 2.875635117375e-03 0.0 
0.0 0.0 2.625789388255e-04 
-9.561028325764e-04 9.851162225680e-03 0.0 
9.851162225680e-03 1.744034082274e-03 0.0 
0.0 0.0 4.002262248390e-04 
-9.131182864326e-04 9.449307029383e-03 0.0 
9.449307029383e-03 1.988623465671e-03 0.0 
0.0 0.0 3.380450752714e-04 
2.072575180447e-03 9.104662554262e-03 0.0 
9.104662554262e-03 -1.121433121124e-03 0.0 
0.0 0.0 3.223534748892e-04 
1.480151645429e-03 9.368426678941e-03 0.0 
9.368426678941e-03 -8.733207774770e-04 0.0 
0.0 0.0 7.358956110967e-04 
-3.493857395920e-03 6.128321619472e-03 0.0 
6.128321619472e-03 4.634171992776e-03 0.0 
0.0 0.0 3.659700372057e-04 
-2.527380362836e-03 1.023451154140e-02 0.0 
1.023451154140e-02 4.768785016039e-03 0.0 
0.0 0.0 2.754816999995e-04 
4.314338977007e-03 4.275997074558e-03 0.0 
4.275997074558e-03 -3.702669416073e-03 0.0 
0.0 0.0 3.437226302162e-04 
3.701872813746e-03 -4.946168002949e-04 0.0 
-4.946168002949e-04 -3.088795086202e-03 0.0 
0.0 0.0 2.106434189232e-04 
-1.219138458984e-03 1.263537541747e-02 0.0 
1.263537541747e-02 4.014340875967e-03 0.0 
0.0 0.0 2.325861323083e-04 
3.544313095489e-03 5.729942293496e-03 0.0 
5.729942293496e-03 -2.440186467711e-03 0.0 
0.0 0.0 2.053976100836e-04 
-2.840378580817e-03 2.813278189318e-04 0.0 
2.813278189318e-04 4.090639413850e-03 0.0 
0.0 0.0 1.721154024746e-04 
4.527844133561e-03 6.930545095354e-05 0.0 
6.930545095354e-05 -4.074778952387e-03 0.0 
0.0 0.0 3.221800692490e-04 
4.316976767927e-03 3.910443624699e-03 0.0 
3.910443624699e-03 -3.583522886395e-03 0.0 
0.0 0.0 3.064850783588e-04 
-1.690483835343e-03 6.272606152278e-03 0.0 
6.272606152278e-03 2.181766184601e-03 0.0 
0.0 0.0 4.153411136943e-04 
3.454888336751e-03 5.275443863030e-03 0.0 
5.275443863030e-03 -2.415046931844e-03 0.0 
0.0 0.0 1.958960255300e-04 
-7.775659640460e-04 1.089436423341e-02 0.0 
1.089436423341e-02 1.989994107073e-03 0.0 
0.0 0.0 3.569591783841e-04 
4.424357746064e-03 5.330492302534e-03 0.0 
5.330492302534e-03 -4.079567906129e-03 0.0 
0.0 0.0 5.466967034514e-04 
3.735021418065e-03 1.588687688057e-03 0.0 
1.588687688057e-03 -3.442888664603e-03 0.0 
0.0 0.0 5.039103038113e-04 
1.595650931616e-03 7.154058355440e-03 0.0 
7.154058355440e-03 -1.012422944589e-03 0.0 
0.0 0.0 7.783731616806e-04 
5.361053992100e-05 1.181634393612e-02 0.0 
1.181634393612e-02 2.311910720341e-03 0.0 
0.0 0.0 2.066697510814e-04 
4.602802406456e-03 1.335682207599e-03 0.0 
1.335682207599e-03 -3.882378273525e-03 0.0 
0.0 0.0 2.839351768512e-04 
4.074847755631e-03 2.607731800809e-04 0.0 
2.607731800809e-04 -3.878592674414e-03 0.0 
0.0 0.0 3.877450512239e-04 
1.687156361961e-03 5.567795456349e-03 0.0 
5.567795456349e-03 -7.273451235530e-04 0.0 
0.0 0.0 1.185594373424e-04 
2.872491760323e-03 5.617666778978e-03 0.0 
5.617666778978e-03 -1.769259628535e-03 0.0 
0.0 0.0 1.589183491467e-04 
-5.704630157912e-04 8.313521614777e-03 0.0 
8.313521614777e-03 1.101201040932e-03 0.0 
0.0 0.0 5.220214763246e-04 
5.193911744422e-04 9.718027593200e-03 0.0 
9.718027593200e-03 4.524342019770e-04 0.0 
0.0 0.0 3.403776395094e-04 
8.727199344014e-04 9.840943247236e-03 0.0 
9.840943247236e-03 9.172000355092e-04 0.0 
0.0 0.0 1.787577669131e-04 
-4.489198911078e-04 1.171552014012e-02 0.0 
1.171552014012e-02 2.196359268510e-03 0.0 
0.0 0.0 2.966972314429e-04 
1.559204687863e-03 4.609383862772e-03 0.0 
4.609383862772e-03 -1.023847165532e-03 0.0 
0.0 0.0 8.554171990200e-04 
2.036392698664e-03 5.097164747858e-03 0.0 
5.097164747858e-03 -1.539664504124e-03 0.0 
0.0 0.0 8.156154621693e-04 
-5.460185013269e-04 7.777040923212e-03 0.0 
7.777040923212e-03 1.091485478219e-03 0.0 
0.0 0.0 4.704972295103e-04 
-2.052402677956e-03 6.116076266725e-03 0.0 
6.116076266725e-03 2.650274090888e-03 0.0 
0.0 0.0 3.958317160613e-04 
3.954882634023e-03 1.625463317619e-03 0.0 
1.625463317619e-03 -3.694984896319e-03 0.0 
0.0 0.0 5.366511408133e-04 
2.231776330685e-03 8.848827229975e-03 0.0 
8.848827229975e-03 -1.022991069004e-03 0.0 
0.0 0.0 2.400063697290e-04 
4.258107839196e-03 2.382565973758e-03 0.0 
2.382565973758e-03 -3.439074885227e-03 0.0 
0.0 0.0 2.551276900393e-04 
4.396316752765e-03 2.917430584216e-03 0.0 
2.917430584216e-03 -3.681448836186e-03 0.0 
0.0 0.0 2.970446260516e-04 
1.051086966007e-03 9.681322213188e-03 0.0 
9.681322213188e-03 -7.701521421052e-05 0.0 
0.0 0.0 3.347905976728e-04 
4.294766165704e-03 4.022570792341e-03 0.0 
4.022570792341e-03 -3.963785235127e-03 0.0 
0.0 0.0 5.765976780129e-04 
2.906840964098e-03 3.089587558353e-04 0.0 
3.089587558353e-04 -2.686711328705e-03 0.0 
0.0 0.0 4.805031625974e-04 
-1.032470733467e-03 6.893604229963e-03 0.0 
6.893604229963e-03 1.597961539007e-03 0.0 
0.0 0.0 4.341478081917e-04 
4.416880489280e-03 8.389119128567e-04 0.0 
8.389119128567e-04 -3.822003926338e-03 0.0 
0.0 0.0 2.936003908089e-04 
2.536159108390e-03 8.583190575730e-03 0.0 
8.583190575730e-03 -1.607457222170e-03 0.0 
0.0 0.0 3.162634057810e-04 
-3.333536130557e-04 1.026375739796e-02 0.0 
1.026375739796e-02 1.199175388425e-03 0.0 
0.0 0.0 3.829287591414e-04 
2.640900560348e-03 8.486275695188e-03 0.0 
8.486275695188e-03 -1.578786169488e-03 0.0 
0.0 0.0 2.748413053317e-04 
8.194515576880e-04 1.207847499311e-02 0.0 
1.207847499311e-02 -1.694597923084e-04 0.0 
0.0 0.0 6.692236955569e-04 
6.126941897439e-04 1.163553290413e-02 0.0 
1.163553290413e-02 4.501955057203e-05 0.0 
0.0 0.0 6.449811729546e-04 
-2.114582263552e-07 1.013245141802e-02 0.0 
1.013245141802e-02 5.985674292884e-04 0.0 
0.0 0.0 6.325630024688e-04 
3.662566959156e-03 1.873148129150e-03 0.0 
1.873148129150e-03 -3.380249020628e-03 0.0 
0.0 0.0 5.857003044857e-04 
-1.805786796451e-03 5.175512140320e-03 0.0 
5.175512140320e-03 2.356920802743e-03 0.0 
0.0 0.0 3.794389430038e-04 
3.028241321038e-03 4.749662659505e-03 0.0 
4.749662659505e-03 -1.986465232312e-03 0.0 
0.0 0.0 1.539047419121e-04 
4.449750766711e-03 3.348453082688e-03 0.0 
3.348453082688e-03 -3.847178700811e-03 0.0 
0.0 0.0 3.349954257067e-04 
3.842048883335e-03 8.635445401385e-04 0.0 
8.635445401385e-04 -2.982831894095e-03 0.0 
0.0 0.0 1.962298374080e-04 
1.396199506531e-03 9.837904170081e-03 0.0 
9.837904170081e-03 1.472933806032e-04 0.0 
0.0 0.0 2.149667555226e-04 
-4.443988033454e-03 3.431638822687e-03 0.0 
3.431638822687e-03 6.973605611276e-03 0.0 
0.0 0.0 2.197330012429e-04 
-3.299254476432e-03 3.307647412791e-03 0.0 
3.307647412791e-03 4.405524966682e-03 0.0 
0.0 0.0 2.827627602717e-04 
1.798069005444e-03 3.361128250215e-03 0.0 
3.361128250215e-03 -1.304828326979e-03 0.0 
0.0 0.0 8.454299544948e-04 
1.598354699049e-04 8.735612878966e-03 0.0 
8.735612878966e-03 3.909316693646e-04 0.0 
0.0 0.0 4.855059728567e-04 
-2.249234813332e-03 8.641977067949e-03 0.0 
8.641977067949e-03 3.150276480556e-03 0.0 
0.0 0.0 3.897218201544e-04 
-8.264748135331e-04 8.939345953289e-03 0.0 
8.939345953289e-03 1.412960068216e-03 0.0 
0.0 0.0 4.302344859022e-04 
4.279460601814e-03 1.228113239977e-03 0.0 
1.228113239977e-03 -3.344792149502e-03 0.0 
0.0 0.0 2.163708841319e-04 
3.024815190638e-03 -7.590793266948e-04 0.0 
-7.590793266948e-04 -1.995099440900e-03 0.0 
0.0 0.0 9.588702217625e-05 
3.746132856054e-03 6.463500708038e-03 0.0 
6.463500708038e-03 -3.193965289168e-03 0.0 
0.0 0.0 3.897166694355e-04 
2.366756335919e-03 8.467592410701e-03 0.0 
8.467592410701e-03 -1.599619494774e-03 0.0 
0.0 0.0 3.479517376661e-04 
3.481865906126e-03 6.718664307361e-03 0.0 
6.718664307361e-03 -2.850823539010e-03 0.0 
0.0 0.0 3.652749501777e-04 
1.327637761965e-03 1.464725093200e-03 0.0 
1.464725093200e-03 -8.683117710568e-04 0.0 
0.0 0.0 4.979571894702e-05 
-2.412854131505e-03 3.667378142640e-04 0.0 
3.667378142640e-04 3.370055541329e-03 0.0 
0.0 0.0 1.437897203526e-04 
3.659212883837e-03 -5.192104709210e-04 0.0 
-5.192104709210e-04 -3.012933342088e-03 0.0 
0.0 0.0 2.020805189771e-04 
4.118307197060e-03 4.532586966621e-03 0.0 
4.532586966621e-03 -3.099311470928e-03 0.0 
0.0 0.0 2.362712798791e-04 
1.195137626439e-03 3.049519993542e-03 0.0 
3.049519993542e-03 -8.040591500135e-04 0.0 
0.0 0.0 1.025281161276e-03 
4.001064169932e-03 6.286981336514e-03 0.0 
6.286981336514e-03 -3.607751459121e-03 0.0 
0.0 0.0 5.806492277239e-04 
-2.992252961491e-03 9.628264907072e-03 0.0 
9.628264907072e-03 4.846694941540e-03 0.0 
0.0 0.0 3.207438280143e-04 
3.984742755679e-03 -4.092892720929e-05 0.0 
-4.092892720929e-05 -2.849589564393e-03 0.0 
0.0 0.0 1.373396989585e-04 
1.818672275606e-03 9.322555731764e-03 0.0 
9.322555731764e-03 -1.087650623828e-03 0.0 
0.0 0.0 3.658084022389e-04 
3.813225621875e-03 5.977385941147e-03 0.0 
5.977385941147e-03 -3.194201551810e-03 0.0 
0.0 0.0 3.594160502246e-04 
-1.317217137459e-03 8.902687470576e-03 0.0 
8.902687470576e-03 2.306936237667e-03 0.0 
0.0 0.0 3.484370366994e-04 
1.190843234728e-03 1.156846715655e-02 0.0 
1.156846715655e-02 -5.513769141876e-04 0.0 
0.0 0.0 6.782049324254e-04 
-1.271373936265e-03 1.158995364057e-02 0.0 
1.158995364057e-02 2.955465838623e-03 0.0 
0.0 0.0 3.274322279156e-04 
-3.812339043234e-06 9.538181861363e-03 0.0 
9.538181861363e-03 9.492197821098e-04 0.0 
0.0 0.0 3.453414724703e-04 
3.009900886137e-03 3.064746059348e-04 0.0 
3.064746059348e-04 -2.769147508112e-03 0.0 
0.0 0.0 4.279950759305e-04 
-1.588152497962e-03 6.144479864430e-03 0.0 
6.144479864430e-03 2.117849810832e-03 0.0 
0.0 0.0 3.975043836043e-04 
3.417194326668e-03 1.783883815172e-03 0.0 
1.783883815172e-03 -3.106488975975e-03 0.0 
0.0 0.0 5.616440696624e-04 
1.298089121192e-03 1.111300550813e-02 0.0 
1.111300550813e-02 -6.583398975722e-04 0.0 
0.0 0.0 6.839617758094e-04 
8.925282009483e-04 1.195233734524e-02 0.0 
1.195233734524e-02 -2.913310472912e-04 0.0 
0.0 0.0 6.725174842538e-04 
6.624965419786e-04 1.100850969681e-02 0.0 
1.100850969681e-02 7.974099492750e-05 0.0 
0.0 0.0 4.805963354915e-04 
7.635030991479e-04 1.174902949161e-02 0.0 
1.174902949161e-02 -1.050205632976e-04 0.0 
0.0 0.0 5.645803234666e-04 
-1.186703307208e-03 8.483935804771e-03 0.0 
8.483935804771e-03 1.755943551995e-03 0.0 
0.0 0.0 4.373555546863e-04 
-1.660635539046e-03 6.267740813896e-03 0.0 
6.267740813896e-03 2.165867733960e-03 0.0 
0.0 0.0 4.436551241510e-04 
1.809381609041e-04 9.056959777443e-03 0.0 
9.056959777443e-03 4.011096148173e-04 0.0 
0.0 0.0 4.901475449705e-04 
2.550501946424e-03 8.797117429636e-03 0.0 
8.797117429636e-03 -1.572214411172e-03 0.0 
0.0 0.0 2.991829177780e-04 
2.224899337707e-03 9.134283026053e-03 0.0 
9.134283026053e-03 -1.028995466731e-03 0.0 
0.0 0.0 2.544030740499e-04 
2.805216253540e-03 1.852529967277e-04 0.0 
1.852529967277e-04 -2.596044635861e-03 0.0 
0.0 0.0 4.491522261771e-04 
-1.126799691427e-03 7.496661517092e-03 0.0 
7.496661517092e-03 1.653588850428e-03 0.0 
0.0 0.0 5.158119709833e-04 
1.446215712742e-03 9.981126365909e-03 0.0 
9.981126365909e-03 -8.290876562084e-04 0.0 
0.0 0.0 7.159040077845e-04 
-1.397777618664e-03 5.837276631028e-03 0.0 
5.837276631028e-03 1.943954281435e-03 0.0 
0.0 0.0 4.122264805247e-04 
4.238856079549e-03 6.070842567052e-03 0.0 
6.070842567052e-03 -3.866465241634e-03 0.0 
0.0 0.0 5.271369959666e-04 
-1.500573887294e-03 6.231115369941e-03 0.0 
6.231115369941e-03 2.005052651820e-03 0.0 
0.0 0.0 4.853898119834e-04 
2.545729711042e-03 8.661230054002e-03 0.0 
8.661230054002e-03 -2.085993864818e-03 0.0 
0.0 0.0 4.956616014290e-04 
2.621057328153e-03 8.268840391192e-03 0.0 
8.268840391192e-03 -2.021548747588e-03 0.0 
0.0 0.0 3.865633111550e-04 
1.439162926937e-03 1.007120074907e-02 0.0 
1.007120074907e-02 1.399282874015e-04 0.0 
0.0 0.0 2.235260246501e-04 
3.883221390848e-03 2.814241471934e-03 0.0 
2.814241471934e-03 -2.791691637519e-03 0.0 
0.0 0.0 1.772401442379e-04 
-3.636623500214e-05 6.374364571680e-03 0.0 
6.374364571680e-03 7.752197323448e-04 0.0 
0.0 0.0 3.780378898243e-04 
2.989127056707e-03 8.092814958450e-03 0.0 
8.092814958450e-03 -2.003687087867e-03 0.0 
0.0 0.0 2.858633627314e-04 
1.927652837816e-03 9.597843079333e-03 0.0 
9.597843079333e-03 -1.447694388032e-03 0.0 
0.0 0.0 7.402849468540e-04 
2.895054447598e-03 1.515128963050e-04 0.0 
1.515128963050e-04 -2.668579819962e-03 0.0 
0.0 0.0 4.018306896161e-04 
4.353920913459e-03 -2.854184872181e-04 0.0 
-2.854184872181e-04 -3.874228902863e-03 0.0 
0.0 0.0 2.969090829658e-04 
1.514606203669e-03 3.067297969072e-03 0.0 
3.067297969072e-03 -1.133745840585e-03 0.0 
0.0 0.0 9.692044465241e-04 
3.928862448024e-03 5.496039002269e-03 0.0 
5.496039002269e-03 -2.928608375454e-03 0.0 
0.0 0.0 2.478966814512e-04 
9.355780179065e-04 1.185249981695e-02 0.0 
1.185249981695e-02 -3.570174238001e-04 0.0 
0.0 0.0 7.085280854000e-04 
2.419024899457e-04 9.471467975033e-03 0.0 
9.471467975033e-03 4.086231081057e-04 0.0 
0.0 0.0 5.168506588722e-04 
5.750719564451e-04 9.197706432544e-03 0.0 
9.197706432544e-03 -5.056309573238e-05 0.0 
0.0 0.0 4.392737791223e-04 
2.978116778510e-03 -5.182278213635e-04 0.0 
-5.182278213635e-04 -1.629701188769e-03 0.0 
0.0 0.0 4.197194674847e-05 
1.038105445278e-03 1.121016215397e-02 0.0 
1.121016215397e-02 -5.121307199289e-04 0.0 
0.0 0.0 7.965017000875e-04 
1.622028017081e-03 4.085872346745e-03 0.0 
4.085872346745e-03 -1.239358678902e-03 0.0 
0.0 0.0 9.643921969084e-04 
4.532587213122e-03 -9.521900665396e-05 0.0 
-9.521900665396e-05 -3.920429074915e-03 0.0 
0.0 0.0 2.800167443862e-04 
4.213637608951e-03 5.657812683791e-03 0.0 
5.657812683791e-03 -3.839900211949e-03 0.0 
0.0 0.0 5.653530197498e-04 
1.550789514528e-03 6.415006477709e-03 0.0 
6.415006477709e-03 -9.918050577798e-04 0.0 
0.0 0.0 8.153236499582e-04 
2.825556921667e-03 -1.630072100584e-04 0.0 
-1.630072100584e-04 -1.261871322258e-03 0.0 
0.0 0.0 -1.963398694012e-07 
2.817057708058e-03 8.296365854080e-03 0.0 
8.296365854080e-03 -2.032371660705e-03 0.0 
0.0 0.0 3.395492442027e-04 
8.186581839623e-05 9.034403242805e-03 0.0 
9.034403242805e-03 4.270897816695e-04 0.0 
0.0 0.0 4.478637369907e-04 
1.095699687397e-03 9.189007999035e-03 0.0 
9.189007999035e-03 -5.505458613450e-04 0.0 
0.0 0.0 4.270534387877e-04 
1.207863162203e-04 9.685650070636e-03 0.0 
9.685650070636e-03 5.338699057208e-04 0.0 
0.0 0.0 4.129327467044e-04 
3.863034832114e-03 3.826673609528e-03 0.0 
3.826673609528e-03 -2.764906424544e-03 0.0 
0.0 0.0 1.878088884083e-04 
1.124292974568e-03 1.016297115714e-02 0.0 
1.016297115714e-02 -6.458299330396e-04 0.0 
0.0 0.0 8.729897402765e-04 
4.515022409409e-03 3.760188312612e-03 0.0 
3.760188312612e-03 -3.987343682568e-03 0.0 
0.0 0.0 3.736567193598e-04 
3.061462552833e-03 -5.373805340962e-04 0.0 
-5.373805340962e-04 -2.194655351697e-03 0.0 
0.0 0.0 1.332593764558e-04 
1.241714385678e-03 7.887684217733e-04 0.0 
7.887684217733e-04 -7.896144667147e-04 0.0 
0.0 0.0 9.176194177883e-04 
2.874946962555e-03 -4.301972423168e-04 0.0 
-4.301972423168e-04 -1.592766530051e-03 0.0 
0.0 0.0 5.145533979542e-05 
2.905576869537e-04 1.142064126993e-02 0.0 
1.142064126993e-02 1.446701950157e-03 0.0 
0.0 0.0 2.678797605372e-04 
3.464472585858e-03 -8.469717408448e-04 0.0 
-8.469717408448e-04 -2.562953492352e-03 0.0 
0.0 0.0 1.370463196405e-04 
-1.785992997077e-03 1.236575768348e-02 0.0 
1.236575768348e-02 4.102397857896e-03 0.0 
0.0 0.0 3.024722675881e-04 
1.527424117869e-03 3.889968545658e-03 0.0 
3.889968545658e-03 -1.006012335957e-03 0.0 
0.0 0.0 8.748688989625e-04 
1.177508834318e-03 8.859168553130e-03 0.0 
8.859168553130e-03 -7.257889772538e-04 0.0 
0.0 0.0 9.242092828167e-04 
-1.320916617751e-03 9.201830045022e-03 0.0 
9.201830045022e-03 2.072378106950e-03 0.0 
0.0 0.0 4.042472192475e-04 
3.123020482666e-03 -9.353293167979e-04 0.0 
-9.353293167979e-04 -2.037790129651e-03 0.0 
0.0 0.0 8.722411939514e-05 
2.899152115982e-03 -3.986021920837e-04 0.0 
-3.986021920837e-04 -1.923656719035e-03 0.0 
0.0 0.0 9.671851528112e-05 
3.177663025574e-03 -9.296249046654e-04 0.0 
-9.296249046654e-04 -2.365651853248e-03 0.0 
0.0 0.0 1.400232580105e-04 
1.794957328198e-03 1.280553303525e-03 0.0 
1.280553303525e-03 -1.417384445922e-03 0.0 
0.0 0.0 8.112035962089e-04 
-4.866506646095e-03 3.811178440556e-03 0.0 
3.811178440556e-03 7.072217226945e-03 0.0 
0.0 0.0 3.131309107034e-04 
-2.989078688207e-03 9.341993627655e-03 0.0 
9.341993627655e-03 5.151630782924e-03 0.0 
0.0 0.0 2.842270502537e-04 
1.222616595663e-03 7.422652091339e-03 0.0 
7.422652091339e-03 -8.000590975159e-04 0.0 
0.0 0.0 9.729128653753e-04 
-4.385315518466e-03 2.505778475048e-03 0.0 
2.505778475048e-03 6.485152872494e-03 0.0 
0.0 0.0 2.580134865906e-04 
3.910203171281e-04 1.062523409145e-02 0.0 
1.062523409145e-02 2.727563708703e-04 0.0 
0.0 0.0 6.382103145825e-04 
2.873168513474e-03 8.692539128699e-03 0.0 
8.692539128699e-03 -2.450547313297e-03 0.0 
0.0 0.0 5.772096424495e-04 
-3.250760697994e-03 2.685004515625e-03 0.0 
2.685004515625e-03 4.395388916626e-03 0.0 
0.0 0.0 2.562822711244e-04 
2.680895081128e-03 6.523832310446e-03 0.0 
6.523832310446e-03 -1.503270603821e-03 0.0 
0.0 0.0 1.668251258890e-04 
4.226244903058e-03 5.973945832518e-03 0.0 
5.973945832518e-03 -3.864945668367e-03 0.0 
0.0 0.0 5.691742484353e-04 
3.545650895886e-03 1.011651029910e-03 0.0 
1.011651029910e-03 -2.651052975214e-03 0.0 
0.0 0.0 1.653790399435e-04 
1.231720609858e-03 5.982952659391e-03 0.0 
5.982952659391e-03 -8.220652839599e-04 0.0 
0.0 0.0 9.953712967277e-04 
8.209702305803e-04 1.189991813084e-02 0.0 
1.189991813084e-02 -1.887196806799e-04 0.0 
0.0 0.0 6.120977318220e-04 
7.474522210937e-04 1.145637379328e-02 0.0 
1.145637379328e-02 -7.599497801142e-05 0.0 
0.0 0.0 5.519542479542e-04 
3.309299968037e-03 1.658736893745e-03 0.0 
1.658736893745e-03 -3.018490823430e-03 0.0 
0.0 0.0 6.118785268354e-04 
2.718120763037e-03 1.051504693852e-04 0.0 
1.051504693852e-04 -2.519240069055e-03 0.0 
0.0 0.0 4.162112436897e-04 
2.814206147042e-03 7.962938968842e-03 0.0 
7.962938968842e-03 -2.048338242193e-03 0.0 
0.0 0.0 3.428485809896e-04 
3.056937829783e-03 1.553734736779e-03 0.0 
1.553734736779e-03 -2.743787277626e-03 0.0 
0.0 0.0 5.950651842346e-04 
1.228639551256e-03 4.811914958120e-03 0.0 
4.811914958120e-03 -8.282424474297e-04 0.0 
0.0 0.0 1.010078793873e-03 
3.998181022021e-03 3.886093276831e-03 0.0 
3.886093276831e-03 -3.054085162367e-03 0.0 
0.0 0.0 2.280186899390e-04 
4.826328161569e-03 9.389159276283e-04 0.0 
9.389159276283e-04 -4.263164217733e-03 0.0 
0.0 0.0 3.264312965015e-04 
4.871025772392e-03 8.572488969601e-04 0.0 
8.572488969601e-04 -4.374264700167e-03 0.0 
0.0 0.0 3.438336180718e-04 
-2.894021126686e-03 2.304167452479e-03 0.0 
2.304167452479e-03 3.797264345460e-03 0.0 
0.0 0.0 2.546850910336e-04 
1.356203503391e-03 2.410981843617e-03 0.0 
2.410981843617e-03 -8.673398957034e-04 0.0 
0.0 0.0 9.261279262558e-04 
2.751631239869e-03 -8.651750331867e-04 0.0 
-8.651750331867e-04 -1.855970926679e-03 0.0 
0.0 0.0 9.881719405432e-05 
1.215440533508e-03 3.560302960351e-03 0.0 
3.560302960351e-03 -8.299488115055e-04 0.0 
0.0 0.0 1.028186387242e-03 
4.730694027090e-03 3.103652740131e-04 0.0 
3.103652740131e-04 -4.212575834539e-03 0.0 
0.0 0.0 3.200010858697e-04 
9.814482874237e-04 1.160232122031e-02 0.0 
1.160232122031e-02 -4.241980757494e-04 0.0 
0.0 0.0 7.475826171712e-04 
5.390973390292e-05 9.098658653532e-03 0.0 
9.098658653532e-03 4.922369533452e-04 0.0 
0.0 0.0 5.648603173967e-04 
2.525926077008e-03 -1.502889069467e-04 0.0 
-1.502889069467e-04 -1.108943877493e-03 0.0 
0.0 0.0 4.340941058262e-06 
3.069602594343e-03 7.708166271723e-03 0.0 
7.708166271723e-03 -2.451283802048e-03 0.0 
0.0 0.0 3.719072968594e-04 
-1.708569852472e-03 5.276667583919e-03 0.0 
5.276667583919e-03 2.237409568517e-03 0.0 
0.0 0.0 4.767685364968e-04 
1.074313985171e-03 1.072378883313e-02 0.0 
1.072378883313e-02 -5.661036683297e-04 0.0 
0.0 0.0 8.284206962101e-04 
-8.635405110169e-04 8.702200071617e-03 0.0 
8.702200071617e-03 1.673224487079e-03 0.0 
0.0 0.0 3.695945180046e-04 
3.114913638065e-03 8.386000127094e-03 0.0 
8.386000127094e-03 -2.694290902443e-03 0.0 
0.0 0.0 6.186083292196e-04 
3.285558076215e-03 2.016884665122e-03 0.0 
2.016884665122e-03 -2.258766218770e-03 0.0 
0.0 0.0 1.316246357730e-04 
1.974159379392e-03 4.065732155078e-03 0.0 
4.065732155078e-03 -1.586187301925e-03 0.0 
0.0 0.0 8.925332197993e-04 
4.660869043364e-03 3.127974117095e-04 0.0 
3.127974117095e-04 -4.209401059360e-03 0.0 
0.0 0.0 3.351957287182e-04 
4.693818802592e-03 5.338043122731e-04 0.0 
5.338043122731e-04 -4.308484553140e-03 0.0 
0.0 0.0 3.691052576072e-04 
2.293164294649e-03 -6.854221914574e-04 0.0 
-6.854221914574e-04 -1.309602928544e-03 0.0 
0.0 0.0 5.539497819896e-05 
1.146763215567e-03 9.529715158334e-03 0.0 
9.529715158334e-03 -6.796041736311e-04 0.0 
0.0 0.0 8.944192613376e-04 
3.989184263034e-03 1.760373102582e-03 0.0 
1.760373102582e-03 -3.108812730688e-03 0.0 
0.0 0.0 2.108830475829e-04 
2.497144057362e-03 2.861564314448e-03 0.0 
2.861564314448e-03 -2.106444487558e-03 0.0 
0.0 0.0 7.739831124742e-04 
-3.483323537701e-03 2.416301816711e-03 0.0 
2.416301816711e-03 4.670146684824e-03 0.0 
0.0 0.0 2.756281039431e-04 
4.094622261496e-03 -3.084676435518e-04 0.0 
-3.084676435518e-04 -3.736326622561e-03 0.0 
0.0 0.0 3.155912739811e-04 
4.664937389265e-03 6.282611231685e-04 0.0 
6.282611231685e-04 -4.210361299537e-03 0.0 
0.0 0.0 3.425924123342e-04 
-4.694450213443e-04 9.129209772906e-03 0.0 
9.129209772906e-03 1.323535916896e-03 0.0 
0.0 0.0 3.568923580054e-04 
1.227160772361e-03 6.659603529072e-03 0.0 
6.659603529072e-03 -8.112767210047e-04 0.0 
0.0 0.0 9.837439403800e-04 
2.533112410424e-03 4.865847156176e-05 0.0 
4.865847156176e-05 -2.314116201727e-03 0.0 
0.0 0.0 4.039641550762e-04 
2.986147689493e-03 2.153478349064e-03 0.0 
2.153478349064e-03 -2.656420251188e-03 0.0 
0.0 0.0 6.835885971828e-04 
2.000418706675e-03 8.496957764126e-03 0.0 
8.496957764126e-03 -1.536958290722e-03 0.0 
0.0 0.0 4.419000771321e-04 
4.042604663519e-03 3.102312492329e-03 0.0 
3.102312492329e-03 -3.727835319099e-03 0.0 
0.0 0.0 5.922351026712e-04 
4.752701418652e-03 1.172887544940e-03 0.0 
1.172887544940e-03 -4.304311254684e-03 0.0 
0.0 0.0 3.633835151016e-04 
3.335128576717e-03 2.051984528665e-03 0.0 
2.051984528665e-03 -3.029416878218e-03 0.0 
0.0 0.0 6.346184002582e-04 
1.889699028665e-03 8.841456567782e-03 0.0 
8.841456567782e-03 -1.119679642673e-03 0.0 
0.0 0.0 3.515643724529e-04 
1.657922306541e-03 8.857916856045e-03 0.0 
8.857916856045e-03 -1.170001143463e-03 0.0 
0.0 0.0 4.703563109680e-04 
3.865072671452e-03 6.079368566654e-03 0.0 
6.079368566654e-03 -3.485674987506e-03 0.0 
0.0 0.0 6.259439772602e-04 
2.479735123201e-03 8.170657180871e-03 0.0 
8.170657180871e-03 -1.992342237995e-03 0.0 
0.0 0.0 4.299230253971e-04 
3.324441222210e-03 3.220066577043e-04 0.0 
3.220066577043e-04 -3.089146451249e-03 0.0 
0.0 0.0 3.980554158137e-04 
3.860827896343e-03 4.920757742378e-03 0.0 
4.920757742378e-03 -2.894976125452e-03 0.0 
0.0 0.0 2.359372535827e-04 
2.791280011325e-03 4.517392192921e-05 0.0 
4.517392192921e-05 -2.579471001801e-03 0.0 
0.0 0.0 3.759279915353e-04 
2.938238344273e-03 8.482437589375e-03 0.0 
8.482437589375e-03 -2.479001540035e-03 0.0 
0.0 0.0 5.348455657521e-04 
4.656772457968e-03 5.068416895658e-03 0.0 
5.068416895658e-03 -4.331391719255e-03 0.0 
0.0 0.0 4.920583119284e-04 
1.475638502024e-03 3.374936273524e-03 0.0 
3.374936273524e-03 -9.560946573145e-04 0.0 
0.0 0.0 8.825249992310e-04 
-1.416402214153e-03 6.157375154521e-03 0.0 
6.157375154521e-03 1.927436574570e-03 0.0 
0.0 0.0 5.205127124636e-04 
4.054456538449e-03 -4.112073983728e-04 0.0 
-4.112073983728e-04 -3.555575934105e-03 0.0 
0.0 0.0 2.665292954605e-04 
1.245279760759e-03 4.137350007796e-03 0.0 
4.137350007796e-03 -8.707723437321e-04 0.0 
0.0 0.0 1.042005674172e-03 
1.898412446881e-03 3.913810098664e-03 0.0 
3.913810098664e-03 -1.386003117844e-03 0.0 
0.0 0.0 8.197944396302e-04 
3.691731135425e-03 6.623727302661e-03 0.0 
6.623727302661e-03 -3.232138186440e-03 0.0 
0.0 0.0 4.313452597680e-04 
2.702058366828e-03 -6.654877824937e-04 0.0 
-6.654877824937e-04 -1.503622595166e-03 0.0 
0.0 0.0 4.292354310646e-05 
1.347194966894e-03 2.087882418299e-03 0.0 
2.087882418299e-03 -8.458315371247e-04 0.0 
0.0 0.0 9.157923367703e-04 
-1.028430481489e-03 7.093056237237e-03 0.0 
7.093056237237e-03 1.580213383793e-03 0.0 
0.0 0.0 5.178387565099e-04 
4.550681077724e-03 -6.243592709162e-05 0.0 
-6.243592709162e-05 -4.013993708313e-03 0.0 
0.0 0.0 2.984962208617e-04 
1.182717654941e-03 2.568555126738e-03 0.0 
2.568555126738e-03 -8.002960602803e-04 0.0 
0.0 0.0 1.033353955621e-03 
2.987769199699e-03 1.788389603305e-03 0.0 
1.788389603305e-03 -2.673126893172e-03 0.0 
0.0 0.0 6.605665178240e-04 
1.738731528037e-03 9.764748574835e-03 0.0 
9.764748574835e-03 -5.227921552723e-04 0.0 
0.0 0.0 2.699155579580e-04 
-2.807558827839e-03 8.684340625274e-03 0.0 
8.684340625274e-03 4.077214148201e-03 0.0 
0.0 0.0 3.695315967036e-04 
4.574503773445e-03 5.037435708276e-03 0.0 
5.037435708276e-03 -4.216637095145e-03 0.0 
0.0 0.0 4.731153276718e-04 
3.609732109808e-03 1.463223277087e-03 0.0 
1.463223277087e-03 -3.342260249051e-03 0.0 
0.0 0.0 5.625793529558e-04 
4.008164944246e-03 3.660182874425e-03 0.0 
3.660182874425e-03 -3.675075332728e-03 0.0 
0.0 0.0 6.110612130435e-04 
-2.427057223921e-03 6.512674330407e-03 0.0 
6.512674330407e-03 3.238605150280e-03 0.0 
0.0 0.0 3.675297039239e-04 
5.979253595822e-04 1.083621764806e-02 0.0 
1.083621764806e-02 6.698340073469e-04 0.0 
0.0 0.0 3.112925237901e-04 
3.639940734812e-03 6.633039475930e-03 0.0 
6.633039475930e-03 -3.242703916010e-03 0.0 
0.0 0.0 6.472445438028e-04 
-2.304814895847e-03 2.957502714740e-04 0.0 
2.957502714740e-04 2.950545236225e-03 0.0 
0.0 0.0 2.057978087437e-04 
3.206240452786e-03 3.248825768245e-04 0.0 
3.248825768245e-04 -2.995523309160e-03 0.0 
0.0 0.0 4.579131087982e-04 
4.075357302054e-03 5.467336425271e-03 0.0 
5.467336425271e-03 -3.713160189950e-03 0.0 
0.0 0.0 6.046960180002e-04 
4.465261348541e-03 1.466651662767e-04 0.0 
1.466651662767e-04 -4.144509841819e-03 0.0 
0.0 0.0 3.678019864319e-04 
2.066345295110e-03 5.371673843925e-04 0.0 
5.371673843925e-04 -1.764129306334e-03 0.0 
0.0 0.0 6.274233041688e-04 
2.244513691308e-03 -1.709670285699e-04 0.0 
-1.709670285699e-04 -9.930065492744e-04 0.0 
0.0 0.0 5.592158212754e-06 
3.645756192655e-03 5.942540863709e-03 0.0 
5.942540863709e-03 -2.649393398509e-03 0.0 
0.0 0.0 2.436533945830e-04 
4.544990327838e-03 1.130786562947e-04 0.0 
1.130786562947e-04 -4.152338337373e-03 0.0 
0.0 0.0 3.468141425690e-04 
2.712419422052e-03 2.728250107180e-04 0.0 
2.728250107180e-04 -2.465902486925e-03 0.0 
0.0 0.0 4.572680299993e-04 
3.310361381349e-03 7.237410588410e-03 0.0 
7.237410588410e-03 -2.871395158829e-03 0.0 
0.0 0.0 4.442882995499e-04 
3.072014871842e-03 1.915835989061e-03 0.0 
1.915835989061e-03 -2.744373124818e-03 0.0 
0.0 0.0 6.218628845974e-04 
-3.089644744056e-03 1.966727874557e-03 0.0 
1.966727874557e-03 3.940445934481e-03 0.0 
0.0 0.0 2.899235547055e-04 
4.364848577666e-03 -2.297487807556e-04 0.0 
-2.297487807556e-04 -3.960229550088e-03 0.0 
0.0 0.0 3.215067427363e-04 
1.152590388591e-03 2.209643993674e-03 0.0 
2.209643993674e-03 -7.582204658680e-04 0.0 
0.0 0.0 1.019385354212e-03 
4.347584619943e-04 9.100028807792e-03 0.0 
9.100028807792e-03 3.393189315788e-04 0.0 
0.0 0.0 3.713529588161e-04 
2.427611473667e-03 2.310290242405e-04 0.0 
2.310290242405e-04 -2.176143351808e-03 0.0 
0.0 0.0 4.868902193271e-04 
9.147853156108e-04 9.173796625517e-03 0.0 
9.173796625517e-03 -1.336491462823e-04 0.0 
0.0 0.0 3.635702394745e-04 
2.624066196005e-03 2.884617127635e-04 0.0 
2.884617127635e-04 -2.394374041212e-03 0.0 
0.0 0.0 5.031463742164e-04 
2.558052512638e-03 -1.765986241616e-04 0.0 
-1.765986241616e-04 -1.148285610938e-03 0.0 
0.0 0.0 -1.974943008575e-08 
-2.527149071275e-03 8.086050239928e-03 0.0 
8.086050239928e-03 3.843308079134e-03 0.0 
0.0 0.0 3.314267007209e-04 
2.127629159943e-03 -2.980411027156e-05 0.0 
-2.980411027156e-05 -1.931405988203e-03 0.0 
0.0 0.0 3.898772162910e-04 
4.043187761776e-03 -4.173029383252e-05 0.0 
-4.173029383252e-05 -1.787419774959e-03 0.0 
0.0 0.0 1.507793893262e-07 
2.353045525432e-03 1.252631376282e-04 0.0 
1.252631376282e-04 -2.116402653805e-03 0.0 
0.0 0.0 4.606871229349e-04 
2.704668641492e-03 1.968849710085e-03 0.0 
1.968849710085e-03 -2.361708696366e-03 0.0 
0.0 0.0 6.841425619071e-04 
-1.066003232850e-03 1.269510384845e-03 0.0 
1.269510384845e-03 1.595591629574e-03 0.0 
0.0 0.0 3.353505411268e-04 
4.349954092720e-03 3.430754439685e-03 0.0 
3.430754439685e-03 -4.039581763491e-03 0.0 
0.0 0.0 5.619297864913e-04 
4.138454909533e-03 3.334710792122e-03 0.0 
3.334710792122e-03 -3.812110666393e-03 0.0 
0.0 0.0 5.531063660407e-04 
-3.316066307845e-03 1.020739746639e-02 0.0 
1.020739746639e-02 6.154807546212e-03 0.0 
0.0 0.0 2.568955609565e-04 
-4.525076459462e-03 1.738638909267e-03 0.0 
1.738638909267e-03 7.733417550392e-03 0.0 
0.0 0.0 1.508407644844e-04 
-9.610664685412e-05 8.048670828424e-03 0.0 
8.048670828424e-03 7.988632676424e-04 0.0 
0.0 0.0 4.408083793133e-04 
1.401035602102e-03 9.079762659065e-03 0.0 
9.079762659065e-03 -6.243999909447e-04 0.0 
0.0 0.0 3.561951428091e-04 
4.343428663985e-03 -4.088879236666e-05 0.0 
-4.088879236666e-05 -1.880627870792e-03 0.0 
0.0 0.0 1.733709837358e-06 
3.583182803584e-03 -2.920735234066e-04 0.0 
-2.920735234066e-04 -2.777366959309e-03 0.0 
0.0 0.0 1.646266569311e-04 
2.804712811370e-03 -5.808017071859e-04 0.0 
-5.808017071859e-04 -1.550904351688e-03 0.0 
0.0 0.0 4.277986712174e-05 
3.781748344086e-03 -3.033758861632e-04 0.0 
-3.033758861632e-04 -3.456241287136e-03 0.0 
0.0 0.0 3.053880321607e-04 
1.337214223882e-03 9.724401716200e-03 0.0 
9.724401716200e-03 -8.125330094877e-04 0.0 
0.0 0.0 5.781171660096e-04 
-1.149301067998e-03 1.251255784333e-03 0.0 
1.251255784333e-03 1.648078247173e-03 0.0 
0.0 0.0 3.823137529779e-04 
1.847453727109e-03 1.157195105832e-03 0.0 
1.157195105832e-03 -1.490241699424e-03 0.0 
0.0 0.0 7.751807123033e-04 
3.366987721528e-03 -8.986892677140e-05 0.0 
-8.986892677140e-05 -3.169343899398e-03 0.0 
0.0 0.0 3.274970730737e-04 
2.009606426602e-03 5.107956249211e-04 0.0 
5.107956249211e-04 -1.713243883578e-03 0.0 
0.0 0.0 6.567315514357e-04 
2.250300701252e-03 2.626614773500e-03 0.0 
2.626614773500e-03 -1.863377316143e-03 0.0 
0.0 0.0 8.000266697904e-04 
3.621063591337e-03 1.088709963283e-05 0.0 
1.088709963283e-05 -2.797645253921e-03 0.0 
0.0 0.0 1.815278425100e-04 
2.133303016986e-03 8.867048091641e-05 0.0 
8.867048091641e-05 -1.931828415173e-03 0.0 
0.0 0.0 3.885786897393e-04 
2.463837624742e-03 -1.363350465321e-05 0.0 
-1.363350465321e-05 -2.304631296762e-03 0.0 
0.0 0.0 3.128087293041e-04 
1.282311242750e-03 1.739868775992e-03 0.0 
1.739868775992e-03 -7.988951670538e-04 0.0 
0.0 0.0 9.372363808567e-04 
1.133137927548e-03 1.837730028549e-03 0.0 
1.837730028549e-03 -7.408683363373e-04 0.0 
0.0 0.0 1.020898857539e-03 
1.947109341368e-03 9.133205095767e-05 0.0 
9.133205095767e-05 -1.734359156455e-03 0.0 
0.0 0.0 4.473247950668e-04 
2.357843409751e-03 2.478092445661e-04 0.0 
2.478092445661e-04 -2.117117455156e-03 0.0 
0.0 0.0 5.243167637333e-04 
3.371286813692e-03 1.400757783772e-03 0.0 
1.400757783772e-03 -3.075668039511e-03 0.0 
0.0 0.0 5.357625256383e-04 
2.191947996528e-03 2.930235449964e-03 0.0 
2.930235449964e-03 -1.782195065268e-03 0.0 
0.0 0.0 8.201568830394e-04 
3.575839315223e-03 -3.853253544888e-04 0.0 
-3.853253544888e-04 -2.888658064360e-03 0.0 
0.0 0.0 1.842257861426e-04 
2.321037943766e-03 2.273630699129e-03 0.0 
2.273630699129e-03 -1.948486911284e-03 0.0 
0.0 0.0 7.737381860351e-04 
4.093453623629e-03 1.976242553304e-05 0.0 
1.976242553304e-05 -2.530576791944e-03 0.0 
0.0 0.0 9.276287306723e-05 
2.539197460406e-03 1.833559712707e-04 0.0 
1.833559712707e-04 -2.320974858754e-03 0.0 
0.0 0.0 4.717196076145e-04 
2.712338503088e-03 4.351634366490e-04 0.0 
4.351634366490e-04 -2.470150356859e-03 0.0 
0.0 0.0 5.323623325759e-04 
4.066226723321e-03 2.173116125185e-05 0.0 
2.173116125185e-05 -2.175848673485e-03 0.0 
0.0 0.0 4.880357313835e-05 
2.038165006832e-03 -3.208485001814e-05 0.0 
-3.208485001814e-05 -1.829621547797e-03 0.0 
0.0 0.0 4.160918017280e-04 
-1.178686744259e-03 6.084146328782e-03 0.0 
6.084146328782e-03 1.782624430298e-03 0.0 
0.0 0.0 3.876151285563e-04 
4.503565394815e-03 -9.533813617589e-06 0.0 
-9.533813617589e-06 -1.946733296532e-03 0.0 
0.0 0.0 1.586743997520e-06 
-5.087183334169e-03 3.185063036918e-03 0.0 
3.185063036918e-03 9.014407751626e-03 0.0 
0.0 0.0 1.522250878915e-04 
-6.043840067661e-03 2.979855051281e-03 0.0 
2.979855051281e-03 9.620300676430e-03 0.0 
0.0 0.0 2.999715082508e-04 
3.929217632919e-03 4.196139425862e-03 0.0 
4.196139425862e-03 -3.575078670654e-03 0.0 
0.0 0.0 6.253053762525e-04 
2.471978131558e-03 1.026570320056e-04 0.0 
1.026570320056e-04 -2.303460965104e-03 0.0 
0.0 0.0 3.074278548072e-04 
4.471524539044e-03 -4.901158238327e-05 0.0 
-4.901158238327e-05 -4.013792966460e-03 0.0 
0.0 0.0 3.115162696340e-04 
3.091429567758e-03 3.267069152548e-03 0.0 
3.267069152548e-03 -2.128930462555e-03 0.0 
0.0 0.0 1.360389443709e-04 
1.465308858692e-03 9.152761762392e-04 0.0 
9.152761762392e-04 -1.082740377123e-03 0.0 
0.0 0.0 8.573025799204e-04 
1.553077132334e-03 9.758991878502e-03 0.0 
9.758991878502e-03 -1.081240341318e-03 0.0 
0.0 0.0 8.156587536823e-04 
-1.693154802533e-03 1.867838692898e-03 0.0 
1.867838692898e-03 2.232321327649e-03 0.0 
0.0 0.0 3.685085147421e-04 
2.544175632166e-03 6.110603522157e-03 0.0 
6.110603522157e-03 -1.479578576855e-03 0.0 
0.0 0.0 1.609392923465e-04 
3.499121682715e-03 -5.468172798611e-04 0.0 
-5.468172798611e-04 -2.386501996939e-03 0.0 
0.0 0.0 1.074304140234e-04 
-8.025203344699e-05 1.178524587050e-02 0.0 
1.178524587050e-02 2.144903041050e-03 0.0 
0.0 0.0 2.509173249970e-04 
-3.679417891965e-03 5.976908726496e-04 0.0 
5.976908726496e-04 5.988303555095e-03 0.0 
0.0 0.0 1.439504141521e-04 
-3.626786140183e-03 3.651377336229e-04 0.0 
3.651377336229e-04 5.881778672306e-03 0.0 
0.0 0.0 1.522899866749e-04 
4.233890642319e-03 -2.956854786247e-05 0.0 
-2.956854786247e-05 -1.879439149916e-03 0.0 
0.0 0.0 1.965590103262e-06 
4.049351325548e-03 4.512098770518e-05 0.0 
4.512098770518e-05 -2.164596602163e-03 0.0 
0.0 0.0 4.862882892884e-05 
3.825710998866e-03 -3.311421193982e-05 0.0 
-3.311421193982e-05 -2.485760231720e-03 0.0 
0.0 0.0 9.414952629730e-05 
3.455751339045e-03 -2.890885489449e-04 0.0 
-2.890885489449e-04 -3.054088708341e-03 0.0 
0.0 0.0 2.468087383170e-04 
4.391872267542e-03 5.553642319585e-06 0.0 
5.553642319585e-06 -2.242703859264e-03 0.0 
0.0 0.0 4.667770011734e-05 
1.858553052315e-03 -3.347049340101e-05 0.0 
-3.347049340101e-05 -1.633120241148e-03 0.0 
0.0 0.0 4.685945115039e-04 
2.029737688130e-03 -2.432777248994e-04 0.0 
-2.432777248994e-04 -9.169327517275e-04 0.0 
0.0 0.0 -9.035934730164e-07 
3.359107763237e-03 -2.059478005892e-04 0.0 
-2.059478005892e-04 -3.063226144982e-03 0.0 
0.0 0.0 2.851385833512e-04 
-1.867503252646e-03 4.302368504237e-04 0.0 
4.302368504237e-04 2.452522589382e-03 0.0 
0.0 0.0 1.720044405730e-04 
-4.559646256592e-03 9.882256285997e-04 0.0 
9.882256285997e-04 7.399013302915e-03 0.0 
0.0 0.0 1.949604783053e-04 
1.175805572713e-03 1.001741768621e-02 0.0 
1.001741768621e-02 -6.371677903966e-04 0.0 
0.0 0.0 6.016619721632e-04 
2.720128578041e-03 1.637244222832e-03 0.0 
1.637244222832e-03 -2.390623780536e-03 0.0 
0.0 0.0 6.560567657118e-04 
-2.111784169782e-03 3.814573608055e-04 0.0 
3.814573608055e-04 2.808705136648e-03 0.0 
0.0 0.0 1.571663960749e-04 
2.327533059801e-03 -7.039364170668e-05 0.0 
-7.039364170668e-05 -2.151010713558e-03 0.0 
0.0 0.0 3.337423127571e-04 
4.138164671928e-03 2.983242632044e-06 0.0 
2.983242632044e-06 -2.537451586859e-03 0.0 
0.0 0.0 9.107129984585e-05 
5.155168979829e-04 5.320872730968e-03 0.0 
5.320872730968e-03 2.667240811381e-04 0.0 
0.0 0.0 3.662099969326e-04 
9.875179825732e-05 5.605089040551e-03 0.0 
5.605089040551e-03 5.851791400999e-04 0.0 
0.0 0.0 5.917764155252e-04 
-3.307654643886e-03 1.906401913380e-03 0.0 
1.906401913380e-03 4.628281757719e-03 0.0 
0.0 0.0 2.232696631940e-04 
-3.921007621241e-03 6.162252757264e-04 0.0 
6.162252757264e-04 6.444501925132e-03 0.0 
0.0 0.0 1.492278095374e-04 
2.381195734566e-03 1.705141976065e-04 0.0 
1.705141976065e-04 -2.195009548601e-03 0.0 
0.0 0.0 3.358849918391e-04 
9.141446758261e-05 3.830998288295e-03 0.0 
3.830998288295e-03 5.900230031056e-04 0.0 
0.0 0.0 5.768356378227e-04 
3.471685969373e-03 -1.777353855192e-04 0.0 
-1.777353855192e-04 -3.173247350351e-03 0.0 
0.0 0.0 2.911227948293e-04 
-5.103792369247e-03 1.525715076891e-03 0.0 
1.525715076891e-03 8.199822354875e-03 0.0 
0.0 0.0 2.328422204844e-04 
-4.295887974291e-03 1.106640455104e-03 0.0 
1.106640455104e-03 7.143364661513e-03 0.0 
0.0 0.0 1.588646528806e-04 
-8.402130769024e-04 1.236603540053e-02 0.0 
1.236603540053e-02 3.187373119996e-03 0.0 
0.0 0.0 2.579069647990e-04 
6.746835331333e-04 1.044312256735e-02 0.0 
1.044312256735e-02 3.644588722750e-05 0.0 
0.0 0.0 4.924107878428e-04 
4.352261511747e-05 4.792255651545e-03 0.0 
4.792255651545e-03 6.161726090898e-04 0.0 
0.0 0.0 6.165711391433e-04 
4.348036175624e-03 3.841002631850e-05 0.0 
3.841002631850e-05 -2.227829759505e-03 0.0 
0.0 0.0 4.694994668316e-05 
4.304706242012e-03 -1.732957982696e-05 0.0 
-1.732957982696e-05 -1.917545933799e-03 0.0 
0.0 0.0 3.594233217673e-06 
3.576108478863e-03 -4.090874106738e-04 0.0 
-4.090874106738e-04 -2.605681490886e-03 0.0 
0.0 0.0 1.340835976519e-04 
2.806658094832e-03 4.486501859511e-04 0.0 
4.486501859511e-04 -2.546493485695e-03 0.0 
0.0 0.0 4.846305350302e-04 
1.148056160664e-03 9.201444687297e-05 0.0 
9.201444687297e-05 -7.462683268964e-04 0.0 
0.0 0.0 8.985766977953e-04 
1.345049088634e-03 -2.492994098859e-04 0.0 
-2.492994098859e-04 -5.953303006787e-04 0.0 
0.0 0.0 3.152738782671e-06 
-1.053103044615e-03 2.601999706751e-04 0.0 
2.601999706751e-04 1.595783217655e-03 0.0 
0.0 0.0 3.033173383763e-04 
2.240968971219e-03 -2.528132736079e-04 0.0 
-2.528132736079e-04 -1.008338956497e-03 0.0 
0.0 0.0 -1.025894303682e-06 
3.741400826683e-03 3.492383402550e-03 0.0 
3.492383402550e-03 -3.396851384055e-03 0.0 
0.0 0.0 6.110299394523e-04 
1.997155092107e-03 -2.171824695737e-04 0.0 
-2.171824695737e-04 -8.963618200382e-04 0.0 
0.0 0.0 7.226373665052e-06 
1.681669996343e-03 -2.663900345249e-04 0.0 
-2.663900345249e-04 -7.585812176430e-04 0.0 
0.0 0.0 6.690768761046e-06 
3.785896972591e-03 2.965171515991e-03 0.0 
2.965171515991e-03 -3.455509212267e-03 0.0 
0.0 0.0 5.850642859210e-04 
1.212764411103e-03 3.164909783709e-04 0.0 
3.164909783709e-04 -8.256405997298e-04 0.0 
0.0 0.0 8.719952793450e-04 
-2.020439845277e-03 3.711489461750e-04 0.0 
3.711489461750e-04 2.587973020273e-03 0.0 
0.0 0.0 2.152930881463e-04 
3.115427651757e-04 1.106198957410e-02 0.0 
1.106198957410e-02 1.276628870032e-03 0.0 
0.0 0.0 2.800032948906e-04 
4.096927124551e-03 -3.488883517930e-05 0.0 
-3.488883517930e-05 -2.200880855422e-03 0.0 
0.0 0.0 5.000916746387e-05 
1.801888681918e-03 4.155145815317e-04 0.0 
4.155145815317e-04 -1.495655226525e-03 0.0 
0.0 0.0 6.781350529679e-04 
4.750772906326e-04 1.490804962324e-03 0.0 
1.490804962324e-03 3.015547747460e-04 0.0 
0.0 0.0 3.740027112996e-04 
1.040602477164e-04 1.701101552887e-03 0.0 
1.701101552887e-03 5.358907667822e-04 0.0 
0.0 0.0 5.815245734701e-04 
-4.134572965429e-03 3.859628817469e-04 0.0 
3.859628817469e-04 6.721209843316e-03 0.0 
0.0 0.0 1.708698434078e-04 
3.660552394848e-03 3.973412752392e-03 0.0 
3.973412752392e-03 -3.305177103178e-03 0.0 
0.0 0.0 6.424029339932e-04 
4.920995537952e-04 4.372570043203e-03 0.0 
4.372570043203e-03 3.029850316895e-04 0.0 
0.0 0.0 3.483626947469e-04 
3.181667281874e-03 8.266722542271e-03 0.0 
8.266722542271e-03 -2.728673051043e-03 0.0 
0.0 0.0 5.808827168438e-04 
4.224140761783e-03 -6.136409341243e-05 0.0 
-6.136409341243e-05 -2.575208301921e-03 0.0 
0.0 0.0 8.899855170613e-05 
4.502121806729e-03 -7.466372758655e-05 0.0 
-7.466372758655e-05 -2.283327817692e-03 0.0 
0.0 0.0 4.563392086473e-05 
4.181107364014e-03 -6.071281916052e-05 0.0 
-6.071281916052e-05 -2.212239053713e-03 0.0 
0.0 0.0 4.876098530935e-05 
2.123277674512e-03 -6.729999415818e-05 0.0 
-6.729999415818e-05 -1.925966470801e-03 0.0 
0.0 0.0 3.889101590515e-04 
1.069117575461e-03 2.605123559500e-04 0.0 
2.605123559500e-04 -6.046508076970e-04 0.0 
0.0 0.0 9.656141838141e-04 
-2.127928610846e-04 9.696526468869e-05 0.0 
9.696526468869e-05 7.918138863122e-04 0.0 
0.0 0.0 3.250367807584e-04 
4.461184776758e-03 -1.226857444733e-05 0.0 
-1.226857444733e-05 -1.984637278590e-03 0.0 
0.0 0.0 3.591560806879e-06 
1.839230081724e-03 7.879544026549e-05 0.0 
7.879544026549e-05 -1.623937773315e-03 0.0 
0.0 0.0 4.776024188401e-04 
1.001537632794e-03 2.128729699977e-04 0.0 
2.128729699977e-04 -5.937752795838e-04 0.0 
0.0 0.0 9.975805401398e-04 
1.082164919456e-03 3.485189684204e-04 0.0 
3.485189684204e-04 -6.098251800089e-04 0.0 
0.0 0.0 9.602748542333e-04 
1.276029386559e-03 1.470109607088e-03 0.0 
1.470109607088e-03 -7.841996723726e-04 0.0 
0.0 0.0 9.302219443641e-04 
-1.421122367164e-03 1.734484194337e-04 0.0 
1.734484194337e-04 1.937515284644e-03 0.0 
0.0 0.0 2.438129881400e-04 
-8.185447473001e-04 7.010820530169e-05 0.0 
7.010820530169e-05 1.377683250130e-03 0.0 
0.0 0.0 3.449246847849e-04 
1.001355538945e-03 2.910118172513e-04 0.0 
2.910118172513e-04 -5.960016314922e-04 0.0 
0.0 0.0 9.940241301623e-04 
1.008427622073e-03 3.819904195319e-04 0.0 
3.819904195319e-04 -6.016391442937e-04 0.0 
0.0 0.0 9.962740807067e-04 
-1.046051849733e-03 2.428812433660e-04 0.0 
2.428812433660e-04 1.593705413683e-03 0.0 
0.0 0.0 3.022786003768e-04 
4.680152124739e-03 -1.596340104325e-05 0.0 
-1.596340104325e-05 -2.019827547804e-03 0.0 
0.0 0.0 -8.152574634435e-07 
-3.413637694979e-03 8.962524103817e-05 0.0 
8.962524103817e-05 5.543504027096e-03 0.0 
0.0 0.0 1.448376704316e-04 
-3.881039714528e-03 2.828157528055e-04 0.0 
2.828157528055e-04 6.307761987618e-03 0.0 
0.0 0.0 1.614121662661e-04 
4.348647087292e-03 -1.864078867726e-05 0.0 
-1.864078867726e-05 -1.934510083863e-03 0.0 
0.0 0.0 3.548557278017e-06 
1.038756306178e-03 7.564204119196e-04 0.0 
7.564204119196e-04 -6.303066732225e-04 0.0 
0.0 0.0 1.000813086313e-03 
1.218770642294e-03 1.208101232051e-03 0.0 
1.208101232051e-03 -7.367898736692e-04 0.0 
0.0 0.0 9.416901273521e-04 
1.069280345577e-03 1.081440963769e-03 0.0 
1.081440963769e-03 -6.726276822440e-04 0.0 
0.0 0.0 1.007236092002e-03 
4.681786402640e-03 1.096881845306e-07 0.0 
1.096881845306e-07 -2.022221274396e-03 0.0 
0.0 0.0 1.350486911422e-06 
4.604151153944e-03 -1.603660479480e-05 0.0 
-1.603660479480e-05 -1.986362595143e-03 0.0 
0.0 0.0 1.168515750441e-06 
1.112785873149e-03 1.564009862035e-03 0.0 
1.564009862035e-03 -7.206992501225e-04 0.0 
0.0 0.0 1.017480670422e-03 
1.092300950821e-03 1.296716173220e-03 0.0 
1.296716173220e-03 -7.001599095870e-04 0.0 
0.0 0.0 1.015286892916e-03 
-1.573421964770e-03 6.542884046435e-05 0.0 
6.542884046435e-05 2.104219232362e-03 0.0 
0.0 0.0 2.194794294869e-04 
-3.161571764150e-03 -4.997890479083e-05 0.0 
-4.997890479083e-05 5.078413376564e-03 0.0 
0.0 0.0 1.435378731271e-04 
-1.254784325923e-03 6.221420931323e-05 0.0 
6.221420931323e-05 1.782456245955e-03 0.0 
0.0 0.0 2.777673382860e-04 
-2.217477807615e-03 4.787485034552e-05 0.0 
4.787485034552e-05 2.952950523915e-03 0.0 
0.0 0.0 1.626140717421e-04 
-3.072152498957e-03 1.763349695502e-04 0.0 
1.763349695502e-04 4.936049184678e-03 0.0 
0.0 0.0 1.412294333933e-04 
4.084708307923e-03 -7.080571298845e-05 0.0 
-7.080571298845e-05 -1.771754168411e-03 0.0 
0.0 0.0 2.761007862972e-06 
3.410621592632e-03 -3.402397203091e-05 0.0 
-3.402397203091e-05 -1.483026256568e-03 0.0 
0.0 0.0 3.610449164523e-06 
3.164236358016e-03 -5.926554525241e-05 0.0 
-5.926554525241e-05 -1.383933040610e-03 0.0 
0.0 0.0 4.284736153296e-06 
2.843820001542e-03 -1.207133318875e-04 0.0 
-1.207133318875e-04 -1.247913067965e-03 0.0 
0.0 0.0 4.979442773485e-06 
1.735385407149e-03 -3.054835650994e-05 0.0 
-3.054835650994e-05 -1.506123287290e-03 0.0 
0.0 0.0 5.010246112782e-04 
1.927468283021e-03 -5.718290360720e-05 0.0 
-5.718290360720e-05 -1.714896736151e-03 0.0 
0.0 0.0 4.447581440284e-04 
3.294653232874e-03 -6.092990545844e-05 0.0 
-6.092990545844e-05 -1.469753091393e-03 0.0 
0.0 0.0 9.018701187773e-07 
1.451300341756e-03 1.087113396433e-05 0.0 
1.087113396433e-05 -1.152264065551e-03 0.0 
0.0 0.0 6.596401075441e-04 
3.018568931828e-03 -1.103286077242e-04 0.0 
-1.103286077242e-04 -1.347188910031e-03 0.0 
0.0 0.0 1.292814697839e-07 
5.618647678741e-04 8.859675840263e-03 0.0 
8.859675840263e-03 1.999356150953e-04 0.0 
0.0 0.0 3.989533968882e-04 
4.934031886390e-04 3.552119342411e-03 0.0 
3.552119342411e-03 2.933263074018e-04 0.0 
0.0 0.0 3.543108031961e-04 
5.012059165321e-04 6.204198658994e-03 0.0 
6.204198658994e-03 2.914072180110e-04 0.0 
0.0 0.0 3.514134544833e-04 
3.673841743246e-03 -1.695355285372e-04 0.0 
-1.695355285372e-04 -2.873715814698e-03 0.0 
0.0 0.0 1.640902769570e-04 
2.604687063644e-03 -8.477433513795e-05 0.0 
-8.477433513795e-05 -2.441206694439e-03 0.0 
0.0 0.0 2.813250376673e-04 
5.045184038818e-04 2.718520073554e-03 0.0 
2.718520073554e-03 2.731726724343e-04 0.0 
0.0 0.0 3.740169381698e-04 
1.245460684302e-03 1.563475329168e-05 0.0 
1.563475329168e-05 -8.752252719145e-04 0.0 
0.0 0.0 8.207361066553e-04 
5.195934658988e-04 2.232851420086e-03 0.0 
2.232851420086e-03 2.489559887956e-04 0.0 
0.0 0.0 3.963923653376e-04 
1.177949065419e-03 1.982462512611e-05 0.0 
1.982462512611e-05 -7.843705232248e-04 0.0 
0.0 0.0 8.732433355931e-04 
1.100527851776e-03 3.085746380567e-05 0.0 
3.085746380567e-05 -6.830262252631e-04 0.0 
0.0 0.0 9.237251348604e-04 
2.028734932303e-03 7.053076161368e-05 0.0 
7.053076161368e-05 -1.824330061935e-03 0.0 
0.0 0.0 4.197175201687e-04 
7.891771367743e-05 2.950380220933e-03 0.0 
2.950380220933e-03 5.819691205642e-04 0.0 
0.0 0.0 5.952384992693e-04 
2.592798418334e-04 2.425942047962e-03 0.0 
2.425942047962e-03 4.528445587922e-04 0.0 
0.0 0.0 5.146587508193e-04 
1.208568501950e-03 5.421534588583e-05 0.0 
5.421534588583e-05 -8.357923741512e-04 0.0 
0.0 0.0 8.489602580104e-04 
1.141434042806e-03 5.899121867996e-05 0.0 
5.899121867996e-05 -7.429321946242e-04 0.0 
0.0 0.0 9.016653764335e-04 
1.498348642476e-03 2.519851348211e-04 0.0 
2.519851348211e-04 -1.172373598325e-03 0.0 
0.0 0.0 7.221470949849e-04 
2.400540158672e-03 -2.036839729794e-04 0.0 
-2.036839729794e-04 -1.074742162599e-03 0.0 
0.0 0.0 -1.477103767052e-06 
2.468012821774e-03 1.189124843440e-04 0.0 
1.189124843440e-04 -2.261779642857e-03 0.0 
0.0 0.0 4.393934264791e-04 
4.276397593659e-03 5.875136557213e-05 0.0 
5.875136557213e-05 -2.189359549697e-03 0.0 
0.0 0.0 4.656942914051e-05 
1.454214394272e-03 8.900634857541e-04 0.0 
8.900634857541e-04 -1.066191495706e-03 0.0 
0.0 0.0 8.639203622745e-04 
2.616216202547e-03 1.438909074329e-04 0.0 
1.438909074329e-04 -2.383743507787e-03 0.0 
0.0 0.0 4.306812384382e-04 
1.393756008396e-03 3.914737757283e-04 0.0 
3.914737757283e-04 -1.040323920969e-03 0.0 
0.0 0.0 7.964211756322e-04 
3.544550462225e-03 -2.223930823289e-04 0.0 
-2.223930823289e-04 -3.098159414290e-03 0.0 
0.0 0.0 2.417118026641e-04 
3.684731727793e-03 -8.609069599649e-05 0.0 
-8.609069599649e-05 -2.378795582501e-03 0.0 
0.0 0.0 9.139476635339e-05 
1.286264232854e-03 3.720523157153e-04 0.0 
3.720523157153e-04 -9.032069570559e-04 0.0 
0.0 0.0 8.523790494461e-04 
2.301275370441e-03 1.648891012657e-04 0.0 
1.648891012657e-04 -2.069716292004e-03 0.0 
0.0 0.0 4.909580525258e-04 
2.217273197720e-03 -2.444190489959e-05 0.0 
-2.444190489959e-05 -2.035868863842e-03 0.0 
0.0 0.0 3.656631858680e-04 
1.386391563282e-03 3.642706055542e-04 0.0 
3.642706055542e-04 -1.024936119274e-03 0.0 
0.0 0.0 8.017467760464e-04 
-5.133563192471e-04 4.316303010735e-04 0.0 
4.316303010735e-04 1.026549913158e-03 0.0 
0.0 0.0 3.791059796119e-04 
2.226868915967e-03 7.218190684484e-05 0.0 
7.218190684484e-05 -2.038869275774e-03 0.0 
0.0 0.0 3.618730533778e-04 
2.623211546700e-03 2.165400081877e-03 0.0 
2.165400081877e-03 -2.268370798034e-03 0.0 
0.0 0.0 7.317931261210e-04 
2.376904139012e-03 8.690624662096e-04 0.0 
8.690624662096e-04 -2.067010138070e-03 0.0 
0.0 0.0 6.268629165532e-04 
1.517984418893e-03 2.720758603152e-04 0.0 
2.720758603152e-04 -1.196239432150e-03 0.0 
0.0 0.0 7.104595127956e-04 
1.415307307554e-03 1.974292980596e-04 0.0 
1.974292980596e-04 -1.083805484551e-03 0.0 
0.0 0.0 7.364138007696e-04 
4.701860227115e-03 3.466952532046e-03 0.0 
3.466952532046e-03 -4.151428629420e-03 0.0 
0.0 0.0 3.660038791548e-04 
4.916181195471e-04 1.136602795475e-02 0.0 
1.136602795475e-02 1.421975696325e-03 0.0 
0.0 0.0 2.388963147816e-04 
3.107861618953e-03 7.385059937830e-03 0.0 
7.385059937830e-03 -2.461188139366e-03 0.0 
0.0 0.0 3.707681678410e-04 
1.842910180020e-03 4.378704370406e-04 0.0 
4.378704370406e-04 -1.534890806127e-03 0.0 
0.0 0.0 6.563343651149e-04 
1.304270704903e-03 2.752073351105e-04 0.0 
2.752073351105e-04 -9.316077435275e-04 0.0 
0.0 0.0 8.236623246247e-04 
1.340698268994e-03 1.395083385114e-04 0.0 
1.395083385114e-04 -9.993573830072e-04 0.0 
0.0 0.0 7.620410929722e-04 
3.852483701567e-03 -5.016414305867e-04 0.0 
-5.016414305867e-04 -3.315637008966e-03 0.0 
0.0 0.0 2.405931494238e-04 
-7.453091736135e-04 9.035747668031e-04 0.0 
9.035747668031e-04 1.284296693913e-03 0.0 
0.0 0.0 3.789864492595e-04 
-1.097940867344e-03 9.730058997197e-04 0.0 
9.730058997197e-04 1.630454868470e-03 0.0 
0.0 0.0 3.129125545152e-04 
-2.740440874801e-03 4.873222536385e-04 0.0 
4.873222536385e-04 3.912624167229e-03 0.0 
0.0 0.0 1.628661077311e-04 
1.862321878043e-03 5.922776049536e-04 0.0 
5.922776049536e-04 -1.541483636719e-03 0.0 
0.0 0.0 6.853807509881e-04 
1.657799628204e-03 3.452318833805e-04 0.0 
3.452318833805e-04 -1.343251180635e-03 0.0 
0.0 0.0 6.839645367534e-04 
-5.597123898374e-04 4.673263871153e-04 0.0 
4.673263871153e-04 1.066811022009e-03 0.0 
0.0 0.0 4.140517197912e-04 
-8.156316255932e-04 7.059416146485e-04 0.0 
7.059416146485e-04 1.361374351253e-03 0.0 
0.0 0.0 3.563647962546e-04 
2.604408571419e-03 9.687692603181e-04 0.0 
9.687692603181e-04 -2.312045316120e-03 0.0 
0.0 0.0 6.366429408224e-04 
1.212600790286e-03 2.726492755405e-04 0.0 
2.726492755405e-04 -8.176609351904e-04 0.0 
0.0 0.0 8.728014327420e-04 
-1.601452502365e-03 1.834877017390e-03 0.0 
1.834877017390e-03 2.166695131971e-03 0.0 
0.0 0.0 3.068435288674e-04 
1.322695094711e-03 1.237008019127e-04 0.0 
1.237008019127e-04 -9.878205379408e-04 0.0 
0.0 0.0 7.699550168922e-04 
1.317479051177e-03 7.056602086224e-04 0.0 
7.056602086224e-04 -9.169460900702e-04 0.0 
0.0 0.0 8.862353483199e-04 
-7.944772394347e-04 1.019712330875e-03 0.0 
1.019712330875e-03 1.312891303207e-03 0.0 
0.0 0.0 4.069587197263e-04 
-1.830789820520e-03 9.907504686830e-04 0.0 
9.907504686830e-04 2.393671708659e-03 0.0 
0.0 0.0 2.757339000809e-04 
2.648948325508e-03 1.838976071063e-03 0.0 
1.838976071063e-03 -2.309818234521e-03 0.0 
0.0 0.0 7.086311735022e-04 
3.166168689508e-03 -6.287820790951e-05 0.0 
-6.287820790951e-05 -2.813145710009e-03 0.0 
0.0 0.0 2.406594660230e-04 
3.893758876597e-03 -5.561120145360e-04 0.0 
-5.561120145360e-04 -3.274205341644e-03 0.0 
0.0 0.0 2.233297067185e-04 
3.547481805877e-03 -2.932455117844e-04 0.0 
-2.932455117844e-04 -2.398886534082e-03 0.0 
0.0 0.0 1.072466062547e-04 
2.455682026680e-03 -6.140923501409e-04 0.0 
-6.140923501409e-04 -1.392419546578e-03 0.0 
0.0 0.0 5.445026591172e-05 
-8.566210945228e-04 7.815853280930e-04 0.0 
7.815853280930e-04 1.383636081190e-03 0.0 
0.0 0.0 3.782617418924e-04 
1.234873459425e-03 2.266708828840e-04 0.0 
2.266708828840e-04 -8.634074384474e-04 0.0 
0.0 0.0 8.456398613233e-04 
2.608208131033e-03 -5.332776517163e-04 0.0 
-5.332776517163e-04 -1.458980617884e-03 0.0 
0.0 0.0 5.146572725318e-05 
-6.816454722972e-04 8.163909475099e-03 0.0 
8.163909475099e-03 1.223217143883e-03 0.0 
0.0 0.0 5.419921834418e-04 
-2.712534799354e-03 7.239022731996e-04 0.0 
7.239022731996e-04 3.745560546893e-03 0.0 
0.0 0.0 1.817246722237e-04 
1.494556199576e-03 4.579827442947e-04 0.0 
4.579827442947e-04 -1.142101675873e-03 0.0 
0.0 0.0 7.793973107604e-04 
1.325518537033e-03 2.191080883980e-04 0.0 
2.191080883980e-04 -9.754806146358e-04 0.0 
0.0 0.0 7.916869415360e-04 
4.320365198934e-03 -8.476301510842e-06 0.0 
-8.476301510842e-06 -3.926926759016e-03 0.0 
0.0 0.0 3.260488508137e-04 
1.320517917985e-03 1.959962463039e-04 0.0 
1.959962463039e-04 -9.632911584230e-04 0.0 
0.0 0.0 7.957001473956e-04 
-2.826085168579e-03 6.555883390803e-04 0.0 
6.555883390803e-04 3.939552382306e-03 0.0 
0.0 0.0 1.854482191661e-04 
3.863048045143e-03 5.782455487138e-03 0.0 
5.782455487138e-03 -3.467609859489e-03 0.0 
0.0 0.0 6.167696069138e-04 
1.217790064299e-03 6.295826952089e-04 0.0 
6.295826952089e-04 -8.137893484023e-04 0.0 
0.0 0.0 9.087489125126e-04 
3.201463335574e-03 -8.772232375289e-05 0.0 
-8.772232375289e-05 -2.845097667851e-03 0.0 
0.0 0.0 2.364388488615e-04 
1.425577967383e-03 1.015939583864e-03 0.0 
1.015939583864e-03 -1.019096294656e-03 0.0 
0.0 0.0 8.872915276496e-04 
-1.522355289347e-03 8.417759611819e-04 0.0 
8.417759611819e-04 2.009157264600e-03 0.0 
0.0 0.0 3.092274363995e-04 
3.036007297859e-03 -7.484482896627e-05 0.0 
-7.484482896627e-05 -2.756997541294e-03 0.0 
0.0 0.0 2.635312986187e-04 
3.903620456972e-03 -4.254316466088e-04 0.0 
-4.254316466088e-04 -3.517959090783e-03 0.0 
0.0 0.0 2.864952073613e-04 
1.739639684200e-03 8.633139261422e-05 0.0 
8.633139261422e-05 -1.487308520034e-03 0.0 
0.0 0.0 5.470551745134e-04 
-2.325444013819e-03 1.192271919337e-03 0.0 
1.192271919337e-03 3.028112032146e-03 0.0 
0.0 0.0 2.126452113107e-04 
2.963569946915e-03 -5.188442574894e-05 0.0 
-5.188442574894e-05 -2.774315883882e-03 0.0 
0.0 0.0 3.242143062304e-04 
-1.268843973483e-03 7.692000727122e-04 0.0 
7.692000727122e-04 1.774517357704e-03 0.0 
0.0 0.0 3.260149473633e-04 
-1.926067907963e-03 7.786798018282e-04 0.0 
7.786798018282e-04 2.488816247289e-03 0.0 
0.0 0.0 2.355028465294e-04 
2.150278514188e-03 1.697913232499e-04 0.0 
1.697913232499e-04 -1.890788254824e-03 0.0 
0.0 0.0 5.128046268709e-04 
1.398428258384e-03 1.841079424373e-04 0.0 
1.841079424373e-04 -1.066460777348e-03 0.0 
0.0 0.0 7.449262132935e-04 
1.397121600950e-03 2.644742038813e-04 0.0 
2.644742038813e-04 -1.047789364252e-03 0.0 
0.0 0.0 7.728524061985e-04 
-1.434239699024e-03 8.112122572535e-04 0.0 
8.112122572535e-04 1.948481457473e-03 0.0 
0.0 0.0 2.522241321593e-04 
3.434672012447e-03 7.916076097842e-05 0.0 
7.916076097842e-05 -2.858256260570e-03 0.0 
0.0 0.0 2.031388019341e-04 
2.087366233096e-03 7.374151572799e-05 0.0 
7.374151572799e-05 -1.840870207612e-03 0.0 
0.0 0.0 4.853129766418e-04 
2.963231229963e-03 7.148419841996e-03 0.0 
7.148419841996e-03 -2.531531836265e-03 0.0 
0.0 0.0 7.280054665220e-04 
-1.476583414365e-03 1.103209562353e-03 0.0 
1.103209562353e-03 1.958166465541e-03 0.0 
0.0 0.0 3.397642306257e-04 
2.297393316688e-03 6.358994326333e-05 0.0 
6.358994326333e-05 -2.077120219164e-03 0.0 
0.0 0.0 4.352131908461e-04 
2.306694203074e-03 8.179433665826e-04 0.0 
8.179433665826e-04 -2.006296176625e-03 0.0 
0.0 0.0 6.617331948540e-04 
1.552036274448e-03 1.200175884803e-03 0.0 
1.200175884803e-03 -1.150450417778e-03 0.0 
0.0 0.0 8.598494448237e-04 
-1.770736520542e-03 9.612017914722e-04 0.0 
9.612017914722e-04 2.348498830656e-03 0.0 
0.0 0.0 2.336997907771e-04 
2.788762685846e-03 -7.798097224001e-04 0.0 
-7.798097224001e-04 -1.885689069644e-03 0.0 
0.0 0.0 1.046003891888e-04 
3.681131778773e-03 4.956541518128e-05 0.0 
4.956541518128e-05 -2.429050542113e-03 0.0 
0.0 0.0 1.022688193566e-04 
4.052313316038e-03 5.880625891089e-04 0.0 
5.880625891089e-04 -3.268391915326e-03 0.0 
0.0 0.0 2.264079156137e-04 
1.309103777287e-03 3.131627905170e-04 0.0 
3.131627905170e-04 -9.454911616273e-04 0.0 
0.0 0.0 8.200930643936e-04 
-2.066592132506e-03 1.142083004066e-03 0.0 
1.142083004066e-03 2.674952418205e-03 0.0 
0.0 0.0 2.126019757221e-04 
1.610028053544e-03 9.206995330393e-05 0.0 
9.206995330393e-05 -1.326387544676e-03 0.0 
0.0 0.0 6.048638201602e-04 
-2.628915193352e-03 9.406359909307e-04 0.0 
9.406359909307e-04 3.528865938192e-03 0.0 
0.0 0.0 1.930295430598e-04 
2.225900084626e-03 2.455823336363e-03 0.0 
2.455823336363e-03 -1.832468388451e-03 0.0 
0.0 0.0 8.063193456308e-04 
1.926010353001e-03 1.502919097135e-04 0.0 
1.502919097135e-04 -1.661615704137e-03 0.0 
0.0 0.0 5.430330135368e-04 
1.407812607049e-03 2.959975818220e-04 0.0 
2.959975818220e-04 -1.065574808638e-03 0.0 
0.0 0.0 7.663102182363e-04 
3.205097188773e-03 1.382751647642e-04 0.0 
1.382751647642e-04 -2.827902748258e-03 0.0 
0.0 0.0 2.385085915027e-04 
1.326178921878e-03 7.689993464289e-04 0.0 
7.689993464289e-04 -9.260179138844e-04 0.0 
0.0 0.0 8.821897637181e-04 
2.084806653359e-03 2.054076298090e-04 0.0 
2.054076298090e-04 -1.835862747728e-03 0.0 
0.0 0.0 5.486871033051e-04 
3.105420593566e-03 1.427036268935e-04 0.0 
1.427036268935e-04 -2.778173155978e-03 0.0 
0.0 0.0 2.560496405581e-04 
2.024979952411e-03 1.247091483648e-04 0.0 
1.247091483648e-04 -1.790745549297e-03 0.0 
0.0 0.0 5.200918950548e-04 
2.723567520656e-03 -3.555167690464e-05 0.0 
-3.555167690464e-05 -2.528550941599e-03 0.0 
0.0 0.0 3.531873176139e-04 
3.269701830503e-03 -6.711272543251e-05 0.0 
-6.711272543251e-05 -3.039387332016e-03 0.0 
0.0 0.0 3.048089456893e-04 
1.610222792424e-03 8.905128010068e-05 0.0 
8.905128010068e-05 -1.340664797094e-03 0.0 
0.0 0.0 6.014352347435e-04 
3.725781821902e-03 -1.315288815218e-05 0.0 
-1.315288815218e-05 -1.662633862244e-03 0.0 
0.0 0.0 2.769982657633e-06 
3.440610412361e-03 -6.536495062763e-05 0.0 
-6.536495062763e-05 -1.549774928907e-03 0.0 
0.0 0.0 4.610243367796e-06 
1.628903191763e-03 3.278626223032e-04 0.0 
3.278626223032e-04 -1.312779673420e-03 0.0 
0.0 0.0 7.000847418271e-04 
3.325172588984e-03 1.356046718394e-04 0.0 
1.356046718394e-04 -2.858607482379e-03 0.0 
0.0 0.0 2.240199328051e-04 
1.821011210479e-03 5.534310226413e-04 0.0 
5.534310226413e-04 -1.501519040681e-03 0.0 
0.0 0.0 7.066842831422e-04 
2.041800194539e-03 6.799540024601e-04 0.0 
6.799540024601e-04 -1.731942627889e-03 0.0 
0.0 0.0 6.846677609721e-04 
3.189400743972e-03 1.543348567213e-04 0.0 
1.543348567213e-04 -2.969137894829e-03 0.0 
0.0 0.0 3.729903108862e-04 
4.334187280311e-03 -3.494447916326e-04 0.0 
-3.494447916326e-04 -3.775991338049e-03 0.0 
0.0 0.0 2.744486821923e-04 
-1.391856067246e-03 1.807466846338e-03 0.0 
1.807466846338e-03 1.882079882236e-03 0.0 
0.0 0.0 4.084162852091e-04 
2.819768291345e-03 -1.720120839559e-05 0.0 
-1.720120839559e-05 -1.882150751582e-03 0.0 
0.0 0.0 9.861155447130e-05 
2.493654952934e-03 -3.054506673914e-05 0.0 
-3.054506673914e-05 -2.291307877692e-03 0.0 
0.0 0.0 3.813925852775e-04 
2.147537088645e-03 2.856356557661e-03 0.0 
2.856356557661e-03 -1.750991207237e-03 0.0 
0.0 0.0 8.423221862510e-04 
3.380551362324e-03 -7.783221826769e-05 0.0 
-7.783221826769e-05 -2.798572015067e-03 0.0 
0.0 0.0 1.914441434728e-04 
-2.475906775906e-03 9.386649885852e-04 0.0 
9.386649885852e-04 3.126524623803e-03 0.0 
0.0 0.0 2.336128167093e-04 
-2.815941447868e-03 7.399886533617e-04 0.0 
7.399886533617e-04 3.777136021657e-03 0.0 
0.0 0.0 2.097892170479e-04 
3.567281579778e-03 -2.196706077869e-04 0.0 
-2.196706077869e-04 -2.888985227195e-03 0.0 
0.0 0.0 1.887974879599e-04 
1.765873405565e-03 1.515183217610e-03 0.0 
1.515183217610e-03 -1.375805137824e-03 0.0 
0.0 0.0 8.383024872636e-04 
-2.099492088435e-03 1.805386804149e-03 0.0 
1.805386804149e-03 2.641942477028e-03 0.0 
0.0 0.0 3.117569742509e-04 
3.294808478358e-03 -1.245528591328e-04 0.0 
-1.245528591328e-04 -2.841151964217e-03 0.0 
0.0 0.0 2.209918070441e-04 
-1.376207528414e-03 2.187044817556e-03 0.0 
2.187044817556e-03 1.905404109604e-03 0.0 
0.0 0.0 4.317283133687e-04 
-1.199951267598e-03 2.287970542221e-03 0.0 
2.287970542221e-03 1.796043477490e-03 0.0 
0.0 0.0 3.343205231480e-04 
3.237637140878e-03 5.608951475347e-05 0.0 
5.608951475347e-05 -2.881242545803e-03 0.0 
0.0 0.0 2.494858190610e-04 
2.292192504328e-03 7.135222134842e-03 0.0 
7.135222134842e-03 -1.130818981850e-03 0.0 
0.0 0.0 1.733538376923e-04 
3.394418540522e-03 -1.086722162432e-04 0.0 
-1.086722162432e-04 -3.040907830185e-03 0.0 
0.0 0.0 2.615404797653e-04 
1.500847886420e-03 3.501803162491e-04 0.0 
3.501803162491e-04 -1.161564326819e-03 0.0 
0.0 0.0 7.511683305377e-04 
1.751188836088e-03 1.257818777976e-04 0.0 
1.257818777976e-04 -1.481135579392e-03 0.0 
0.0 0.0 5.720633388970e-04 
-8.638527744658e-04 7.090514327980e-03 0.0 
7.090514327980e-03 1.465115116956e-03 0.0 
0.0 0.0 4.197766602643e-04 
-1.284297426898e-03 1.651925659982e-03 0.0 
1.651925659982e-03 1.806412823638e-03 0.0 
0.0 0.0 3.320997983584e-04 
1.638032539701e-03 4.403532058381e-04 0.0 
4.403532058381e-04 -1.308614666304e-03 0.0 
0.0 0.0 7.287223021435e-04 
1.666963555881e-03 4.721788103446e-04 0.0 
4.721788103446e-04 -1.339668743139e-03 0.0 
0.0 0.0 7.131048683715e-04 
3.518006770923e-03 -3.148206718690e-04 0.0 
-3.148206718690e-04 -2.932649893636e-03 0.0 
0.0 0.0 2.044813886974e-04 
1.519010598879e-03 3.741894798991e-04 0.0 
3.741894798991e-04 -1.184932013559e-03 0.0 
0.0 0.0 7.402009657829e-04 
-2.005196306730e-03 1.715603096662e-03 0.0 
1.715603096662e-03 2.584371163290e-03 0.0 
0.0 0.0 2.548165440656e-04 
1.726871020688e-03 1.643267336114e-04 0.0 
1.643267336114e-04 -1.457214055481e-03 0.0 
0.0 0.0 5.873022534012e-04 
-2.173327263356e-03 1.134642803195e-03 0.0 
1.134642803195e-03 2.717658708995e-03 0.0 
0.0 0.0 2.500305512396e-04 
-1.721128010254e-03 1.565416035223e-03 0.0 
1.565416035223e-03 2.248110244551e-03 0.0 
0.0 0.0 3.454680633598e-04 
4.636659908856e-03 5.072966249597e-03 0.0 
5.072966249597e-03 -4.236947613552e-03 0.0 
0.0 0.0 4.589024382234e-04 
-1.340429934879e-03 1.353156040155e-03 0.0 
1.353156040155e-03 1.852351484110e-03 0.0 
0.0 0.0 3.084276606691e-04 
2.037581280563e-03 -7.977175568360e-06 0.0 
-7.977175568360e-06 -1.797741538857e-03 0.0 
0.0 0.0 4.573803463038e-04 
1.879187009897e-03 1.781233680526e-04 0.0 
1.781233680526e-04 -1.619891618120e-03 0.0 
0.0 0.0 5.695069904872e-04 
2.668087153205e-03 -2.728053270544e-05 0.0 
-2.728053270544e-05 -2.482054051952e-03 0.0 
0.0 0.0 3.230459039067e-04 
3.639210906192e-03 7.722292357599e-05 0.0 
7.722292357599e-05 -3.458742083304e-03 0.0 
0.0 0.0 3.837424310474e-04 
-2.040820111336e-03 1.366122387566e-03 0.0 
1.366122387566e-03 2.626979391271e-03 0.0 
0.0 0.0 2.289842103678e-04 
3.533615572606e-03 1.102868905071e-03 0.0 
1.102868905071e-03 -3.281516828583e-03 0.0 
0.0 0.0 5.388451880649e-04 
3.225949441834e-03 -2.095229099670e-05 0.0 
-2.095229099670e-05 -2.940336256899e-03 0.0 
0.0 0.0 2.790447940807e-04 
3.591336841002e-03 -2.531872888856e-04 0.0 
-2.531872888856e-04 -2.607111103477e-03 0.0 
0.0 0.0 1.353432850717e-04 
-2.141611189222e-03 1.454955236975e-03 0.0 
1.454955236975e-03 2.684175799926e-03 0.0 
0.0 0.0 2.857366457850e-04 
3.273750822313e-03 -1.891771149947e-04 0.0 
-1.891771149947e-04 -2.952311349108e-03 0.0 
0.0 0.0 2.657544350846e-04 
1.434024021482e-03 1.077263934541e-03 0.0 
1.077263934541e-03 -1.033607685498e-03 0.0 
0.0 0.0 8.854936759478e-04 
-1.699041068923e-03 1.180316126188e-03 0.0 
1.180316126188e-03 2.255345309857e-03 0.0 
0.0 0.0 2.573973259349e-04 
1.513631735232e-03 4.974118164177e-04 0.0 
4.974118164177e-04 -1.166408670791e-03 0.0 
0.0 0.0 7.689353523253e-04 
1.569107691898e-03 3.548298300189e-03 0.0 
3.548298300189e-03 -1.197404930152e-03 0.0 
0.0 0.0 9.773602833495e-04 
2.262325914847e-03 1.037708528144e-04 0.0 
1.037708528144e-04 -2.042280588811e-03 0.0 
0.0 0.0 4.579536460720e-04 
3.243771289378e-03 -1.501485475972e-04 0.0 
-1.501485475972e-04 -2.879617904306e-03 0.0 
0.0 0.0 2.432402698967e-04 
3.568372876669e-03 -3.661115833024e-04 0.0 
-3.661115833024e-04 -2.722099973044e-03 0.0 
0.0 0.0 1.531083417350e-04 
1.833048027124e-03 7.146021621392e-04 0.0 
7.146021621392e-04 -1.499959463411e-03 0.0 
0.0 0.0 7.343569866846e-04 
-2.128793152711e-03 9.256598972737e-04 0.0 
9.256598972737e-04 2.760013720237e-03 0.0 
0.0 0.0 2.021258635936e-04 
3.537283249104e-03 -2.973818640556e-04 0.0 
-2.973818640556e-04 -2.386249129442e-03 0.0 
0.0 0.0 1.036824307465e-04 
2.907870336243e-03 4.233782504890e-05 0.0 
4.233782504890e-05 -2.726624801913e-03 0.0 
0.0 0.0 3.578246874472e-04 
3.393328345891e-03 1.768759384815e-04 0.0 
1.768759384815e-04 -2.875999630667e-03 0.0 
0.0 0.0 2.154992719559e-04 
-2.475584858735e-03 1.252299266094e-03 0.0 
1.252299266094e-03 3.074944005858e-03 0.0 
0.0 0.0 2.577362220547e-04 
2.685799526161e-03 5.767287999586e-05 0.0 
5.767287999586e-05 -2.492563943348e-03 0.0 
0.0 0.0 3.789608817477e-04 
2.098536530369e-03 7.224354033929e-04 0.0 
7.224354033929e-04 -1.783012364999e-03 0.0 
0.0 0.0 6.559886586502e-04 
2.619846600899e-03 6.448025686414e-05 0.0 
6.448025686414e-05 -2.446819317652e-03 0.0 
0.0 0.0 3.497641148808e-04 
-1.182581246692e-03 1.050463869215e-03 0.0 
1.050463869215e-03 1.682235504233e-03 0.0 
0.0 0.0 3.626482211325e-04 
3.127019669634e-03 -1.128593842094e-04 0.0 
-1.128593842094e-04 -2.899125227895e-03 0.0 
0.0 0.0 2.953488195453e-04 
2.073197976258e-03 1.082740830946e-03 0.0 
1.082740830946e-03 -1.734849319274e-03 0.0 
0.0 0.0 7.372341569792e-04 
3.793638558386e-03 -5.614541222052e-04 0.0 
-5.614541222052e-04 -3.249097690128e-03 0.0 
0.0 0.0 2.348309850597e-04 
2.064856899571e-03 8.727674318832e-04 0.0 
8.727674318832e-04 -1.741415984274e-03 0.0 
0.0 0.0 7.118204624034e-04 
1.849586498680e-03 1.561823977263e-04 0.0 
1.561823977263e-04 -1.600574382045e-03 0.0 
0.0 0.0 5.365305552253e-04 
1.669356483979e-03 6.191369086344e-04 0.0 
6.191369086344e-04 -1.329195586133e-03 0.0 
0.0 0.0 7.422463501554e-04 
4.900426615784e-03 1.590754430089e-03 0.0 
1.590754430089e-03 -4.363919480083e-03 0.0 
0.0 0.0 3.469928451361e-04 
3.300878870088e-03 -7.977858848594e-05 0.0 
-7.977858848594e-05 -2.844712717270e-03 0.0 
0.0 0.0 2.170625269663e-04 
-2.556412423688e-03 7.333488807861e-04 0.0 
7.333488807861e-04 3.302620006158e-03 0.0 
0.0 0.0 2.156811845334e-04 
3.664178241130e-03 3.262236487889e-03 0.0 
3.262236487889e-03 -3.327411824383e-03 0.0 
0.0 0.0 6.421589493624e-04 
2.349901340833e-03 8.869827582632e-03 0.0 
8.869827582632e-03 -1.587750043565e-03 0.0 
0.0 0.0 3.519245895792e-04 
-2.215648695353e-03 9.218641749139e-04 0.0 
9.218641749139e-04 2.788738785658e-03 0.0 
0.0 0.0 2.266844729908e-04 
3.966433224790e-03 -5.263634582908e-04 0.0 
-5.263634582908e-04 -3.488609611134e-03 0.0 
0.0 0.0 2.634709240250e-04 
-2.575838837008e-03 2.168155995420e-03 0.0 
2.168155995420e-03 3.314492714688e-03 0.0 
0.0 0.0 2.598709679272e-04 
3.474291053983e-03 1.852552182372e-04 0.0 
1.852552182372e-04 -2.845003581113e-03 0.0 
0.0 0.0 1.929075161246e-04 
1.596414868591e-03 1.028544519212e-03 0.0 
1.028544519212e-03 -1.209305188101e-03 0.0 
0.0 0.0 8.342601324855e-04 
3.611047721348e-03 3.788227512227e-03 0.0 
3.788227512227e-03 -3.256431667059e-03 0.0 
0.0 0.0 6.619466115983e-04 
3.649529015039e-03 6.387765037088e-03 0.0 
6.387765037088e-03 -3.235423228762e-03 0.0 
0.0 0.0 6.346979849367e-04 
-9.814027616891e-04 2.240876639993e-03 0.0 
2.240876639993e-03 1.520115486748e-03 0.0 
0.0 0.0 4.577233859361e-04 
3.260886768870e-03 1.302288399075e-03 0.0 
1.302288399075e-03 -2.985619458504e-03 0.0 
0.0 0.0 5.882272779240e-04 
3.415405499447e-03 -1.857019557345e-04 0.0 
-1.857019557345e-04 -2.839291045490e-03 0.0 
0.0 0.0 1.986698026186e-04 
2.637767138426e-03 1.236474581502e-03 0.0 
1.236474581502e-03 -2.330516030720e-03 0.0 
0.0 0.0 6.618213825620e-04 
1.561213855897e-03 1.323917119886e-03 0.0 
1.323917119886e-03 -1.170150121383e-03 0.0 
0.0 0.0 8.599494608426e-04 
4.288700357907e-03 -1.520379886318e-04 0.0 
-1.520379886318e-04 -3.952205278193e-03 0.0 
0.0 0.0 3.435201236976e-04 
1.640833053808e-03 5.733151206768e-04 0.0 
5.733151206768e-04 -1.298120004332e-03 0.0 
0.0 0.0 7.569604760733e-04 
-1.775382665603e-03 1.225201774044e-03 0.0 
1.225201774044e-03 2.311579415752e-03 0.0 
0.0 0.0 3.107217332263e-04 
4.315845675984e-03 -3.763009891992e-04 0.0 
-3.763009891992e-04 -3.684442146611e-03 0.0 
0.0 0.0 2.557001793861e-04 
2.336634097000e-03 1.044805457591e-03 0.0 
1.044805457591e-03 -2.021626871870e-03 0.0 
0.0 0.0 6.874451847067e-04 
-3.033554282970e-03 1.534156087771e-03 0.0 
1.534156087771e-03 3.990369974618e-03 0.0 
0.0 0.0 2.476234783675e-04 
2.948828109818e-03 8.267460378014e-05 0.0 
8.267460378014e-05 -2.702670018586e-03 0.0 
0.0 0.0 2.777976509922e-04 
3.131233277896e-03 -1.027661697825e-05 0.0 
-1.027661697825e-05 -2.961402393197e-03 0.0 
0.0 0.0 3.374597973744e-04 
2.250717047697e-03 8.302378811243e-03 0.0 
8.302378811243e-03 -1.592756842683e-03 0.0 
0.0 0.0 3.822631653103e-04 
1.872800126613e-03 7.672978332229e-04 0.0 
7.672978332229e-04 -1.539163427914e-03 0.0 
0.0 0.0 7.144366582943e-04 
1.847574843160e-03 9.630544754256e-03 0.0 
9.630544754256e-03 -5.329033470621e-04 0.0 
0.0 0.0 2.496159401190e-04 
2.689173805613e-03 7.889855472661e-03 0.0 
7.889855472661e-03 -2.035555191196e-03 0.0 
0.0 0.0 3.755479826624e-04 
-2.310400743654e-03 1.934136868748e-03 0.0 
1.934136868748e-03 2.947647950050e-03 0.0 
0.0 0.0 2.574301759636e-04 
-2.352004656409e-03 9.631940960888e-04 0.0 
9.631940960888e-04 3.084262482978e-03 0.0 
0.0 0.0 1.974349718213e-04 
-2.903456809138e-03 1.759474330430e-03 0.0 
1.759474330430e-03 3.885483121986e-03 0.0 
0.0 0.0 2.271401487519e-04 
1.882166774208e-03 6.683610746648e-05 0.0 
6.683610746648e-05 -1.627865058329e-03 0.0 
0.0 0.0 5.136543301515e-04 
2.004248151549e-03 1.799518583389e-03 0.0 
1.799518583389e-03 -1.620182192546e-03 0.0 
0.0 0.0 8.100966328398e-04 
2.967000527866e-03 1.450295776237e-03 0.0 
1.450295776237e-03 -2.668331337397e-03 0.0 
0.0 0.0 6.374684875402e-04 
-2.735566482256e-03 1.038132895076e-03 0.0 
1.038132895076e-03 3.564243170531e-03 0.0 
0.0 0.0 2.284827127910e-04 
-9.528711935991e-06 9.581853463538e-03 0.0 
9.581853463538e-03 5.717176484186e-04 0.0 
0.0 0.0 5.921054872427e-04 
3.413156382511e-03 6.914490007003e-03 0.0 
6.914490007003e-03 -2.980111436562e-03 0.0 
0.0 0.0 6.510664529969e-04 
2.117340193171e-03 9.289036323666e-04 0.0 
9.289036323666e-04 -1.789651103779e-03 0.0 
0.0 0.0 6.857353841837e-04 
-1.640043549449e-03 1.448015269886e-03 0.0 
1.448015269886e-03 2.188751146483e-03 0.0 
0.0 0.0 2.860290952773e-04 
3.364955066766e-03 1.500661945533e-04 0.0 
1.500661945533e-04 -3.175192596892e-03 0.0 
0.0 0.0 4.045509068454e-04 
3.233608748637e-03 3.604399534589e-05 0.0 
3.604399534589e-05 -3.055184147177e-03 0.0 
0.0 0.0 3.731633614767e-04 
3.507226258309e-03 -7.835755473051e-05 0.0 
-7.835755473051e-05 -2.938280098925e-03 0.0 
0.0 0.0 2.096773633074e-04 
2.654868643630e-03 1.532840843504e-03 0.0 
1.532840843504e-03 -2.332408810399e-03 0.0 
0.0 0.0 6.863503289980e-04 
2.975713423031e-03 8.450787682177e-05 0.0 
8.450787682177e-05 -2.786850796119e-03 0.0 
0.0 0.0 3.944115933814e-04 
-2.484274546074e-03 1.647215075260e-03 0.0 
1.647215075260e-03 3.055911792142e-03 0.0 
0.0 0.0 2.799521655913e-04 
-2.766602957755e-03 1.858275781843e-03 0.0 
1.858275781843e-03 3.440166234753e-03 0.0 
0.0 0.0 2.849771844665e-04 
4.737287117885e-03 4.313330166057e-03 0.0 
4.313330166057e-03 -4.390217247962e-03 0.0 
0.0 0.0 4.683811943770e-04 
3.482232349162e-03 -1.646074662171e-04 0.0 
-1.646074662171e-04 -3.205268155641e-03 0.0 
0.0 0.0 3.038245798875e-04 
4.631871348471e-03 3.034214656704e-03 0.0 
3.034214656704e-03 -3.962408190635e-03 0.0 
0.0 0.0 3.251835415304e-04 
3.219539626706e-03 -1.015301832550e-04 0.0 
-1.015301832550e-04 -3.002641707441e-03 0.0 
0.0 0.0 3.085627880563e-04 
3.340272624869e-03 -7.668702483710e-06 0.0 
-7.668702483710e-06 -3.132393610591e-03 0.0 
0.0 0.0 3.224899868772e-04 
3.395347243759e-03 -2.287161768860e-04 0.0 
-2.287161768860e-04 -2.928395520638e-03 0.0 
0.0 0.0 2.253927777799e-04 
2.291927648094e-03 2.162791379893e-03 0.0 
2.162791379893e-03 -1.916044054517e-03 0.0 
0.0 0.0 7.858759646354e-04 
3.784314732129e-03 6.072908085222e-04 0.0 
6.072908085222e-04 -3.540730948179e-03 0.0 
0.0 0.0 3.960879040480e-04 
-1.432211841575e-03 1.374474460843e-03 0.0 
1.374474460843e-03 1.915520501740e-03 0.0 
0.0 0.0 3.673468090355e-04 
3.909281369682e-03 9.383714804169e-04 0.0 
9.383714804169e-04 -3.650578573795e-03 0.0 
0.0 0.0 4.215029326708e-04 
2.712820478450e-03 1.330550788430e-03 0.0 
1.330550788430e-03 -2.395551082114e-03 0.0 
0.0 0.0 6.264040067806e-04 
3.305926591699e-03 1.059214157889e-03 0.0 
1.059214157889e-03 -3.023986910105e-03 0.0 
0.0 0.0 5.085451701125e-04 
3.453609927360e-03 6.846249291739e-03 0.0 
6.846249291739e-03 -2.892873040294e-03 0.0 
0.0 0.0 4.006815633918e-04 
3.378876201034e-03 -7.010025436164e-06 0.0 
-7.010025436164e-06 -2.932304805207e-03 0.0 
0.0 0.0 2.316420951798e-04 
1.758685469682e-03 1.558013671602e-03 0.0 
1.558013671602e-03 -1.382920185387e-03 0.0 
0.0 0.0 8.408527384780e-04 
1.696648744274e-03 1.655422167136e-03 0.0 
1.655422167136e-03 -1.282208256855e-03 0.0 
0.0 0.0 8.570163231444e-04 
1.865184112548e-03 8.705587780767e-03 0.0 
8.705587780767e-03 -1.448529341011e-03 0.0 
0.0 0.0 5.131288761172e-04 
3.484154902525e-03 1.221726569099e-04 0.0 
1.221726569099e-04 -3.269277267310e-03 0.0 
0.0 0.0 3.432573194528e-04 
3.020699177143e-03 1.223018777698e-03 0.0 
1.223018777698e-03 -2.720861724336e-03 0.0 
0.0 0.0 5.670345493977e-04 
-2.329707283216e-03 1.531517985878e-03 0.0 
1.531517985878e-03 3.010503394560e-03 0.0 
0.0 0.0 2.334057956934e-04 
3.084588264503e-03 1.768358699854e-04 0.0 
1.768358699854e-04 -2.885425388123e-03 0.0 
0.0 0.0 4.271315481637e-04 
2.962457774283e-03 7.976842617038e-03 0.0 
7.976842617038e-03 -2.041091539731e-03 0.0 
0.0 0.0 3.085357777468e-04 
3.061311018103e-03 4.957256782662e-06 0.0 
4.957256782662e-06 -2.880105119732e-03 0.0 
0.0 0.0 3.106397748406e-04 
4.158423629938e-03 -4.470252476086e-04 0.0 
-4.470252476086e-04 -3.735214310027e-03 0.0 
0.0 0.0 2.924684113510e-04 
3.507321961193e-03 3.071940325495e-04 0.0 
3.071940325495e-04 -3.306211370446e-03 0.0 
0.0 0.0 4.359028217932e-04 
3.082900628611e-03 -1.118084700348e-04 0.0 
-1.118084700348e-04 -2.828302813976e-03 0.0 
0.0 0.0 2.804948131969e-04 
3.097124516906e-03 1.116642551495e-04 0.0 
1.116642551495e-04 -2.803307349529e-03 0.0 
0.0 0.0 2.670780730419e-04 
3.192232601259e-03 9.825684164642e-04 0.0 
9.825684164642e-04 -2.931887168251e-03 0.0 
0.0 0.0 5.633479483582e-04 
2.402217231233e-03 1.118528108765e-03 0.0 
1.118528108765e-03 -2.079523759617e-03 0.0 
0.0 0.0 6.557588754628e-04 
1.978851557883e-03 9.588916368273e-03 0.0 
9.588916368273e-03 -1.493804055152e-03 0.0 
0.0 0.0 6.184308880601e-04 
3.803426701799e-03 -6.032652200051e-05 0.0 
-6.032652200051e-05 -1.658106046791e-03 0.0 
0.0 0.0 4.645600695757e-06 
4.652875500410e-03 1.585977569572e-03 0.0 
1.585977569572e-03 -4.342556680557e-03 0.0 
0.0 0.0 4.113865532542e-04 
4.238249369960e-03 1.021687456832e-03 0.0 
1.021687456832e-03 -3.985350716349e-03 0.0 
0.0 0.0 3.927801117867e-04 
3.641342634210e-03 3.268490958022e-04 0.0 
3.268490958022e-04 -3.411981967096e-03 0.0 
0.0 0.0 3.692988521360e-04 
-2.607338166980e-03 1.607952414975e-03 0.0 
1.607952414975e-03 3.396585119691e-03 0.0 
0.0 0.0 2.331899398421e-04 
3.565585788954e-03 8.539037839401e-04 0.0 
8.539037839401e-04 -3.302480015526e-03 0.0 
0.0 0.0 4.516699952127e-04 
2.889545422657e-03 -5.648267637594e-05 0.0 
-5.648267637594e-05 -2.711826066408e-03 0.0 
0.0 0.0 2.981165801563e-04 
3.644695449573e-03 5.496951380137e-04 0.0 
5.496951380137e-04 -3.430011202889e-03 0.0 
0.0 0.0 4.639218265733e-04 
-1.372431652740e-03 1.106046459624e-03 0.0 
1.106046459624e-03 1.889812557646e-03 0.0 
0.0 0.0 2.766630891511e-04 
2.844328237490e-03 4.791069886962e-05 0.0 
4.791069886962e-05 -2.675196698981e-03 0.0 
0.0 0.0 3.248024449807e-04 
3.594653856451e-03 -1.971867457298e-04 0.0 
-1.971867457298e-04 -2.579230569931e-03 0.0 
0.0 0.0 1.267312715932e-04 
3.528994594846e-03 -2.267923580472e-04 0.0 
-2.267923580472e-04 -2.826564000136e-03 0.0 
0.0 0.0 1.784904357376e-04 
4.258925914027e-03 -2.869323808692e-04 0.0 
-2.869323808692e-04 -3.784382347649e-03 0.0 
0.0 0.0 2.887240408184e-04 
3.627200603226e-03 -8.426973019426e-05 0.0 
-8.426973019426e-05 -3.361862008317e-03 0.0 
0.0 0.0 3.205619816610e-04 
4.347260815523e-03 1.464724384956e-03 0.0 
1.464724384956e-03 -4.079680655808e-03 0.0 
0.0 0.0 4.184868433983e-04 
3.768014103598e-03 8.571069930172e-04 0.0 
8.571069930172e-04 -3.538329513760e-03 0.0 
0.0 0.0 4.891202990537e-04 
3.767329928075e-03 -6.400149271787e-04 0.0 
-6.400149271787e-04 -3.119434224151e-03 0.0 
0.0 0.0 2.088308320232e-04 
3.544777922649e-03 1.316346391112e-05 0.0 
1.316346391112e-05 -2.838300207627e-03 0.0 
0.0 0.0 1.803105534004e-04 
-3.410181289483e-03 3.082436183821e-03 0.0 
3.082436183821e-03 4.448098368678e-03 0.0 
0.0 0.0 3.004756776720e-04 
3.045138751097e-03 4.144788191402e-05 0.0 
4.144788191402e-05 -2.818872778057e-03 0.0 
0.0 0.0 2.912127595163e-04 
2.371269889692e-03 1.977480947521e-03 0.0 
1.977480947521e-03 -2.010604235746e-03 0.0 
0.0 0.0 7.427659978200e-04 
2.265770170690e-03 9.298989813262e-03 0.0 
9.298989813262e-03 -1.802924912190e-03 0.0 
0.0 0.0 6.076387253117e-04 
-2.070839412059e-03 8.132012257646e-03 0.0 
8.132012257646e-03 3.118327047033e-03 0.0 
0.0 0.0 3.443928060547e-04 
-1.795250851630e-03 3.192405196518e-03 0.0 
3.192405196518e-03 2.349394134373e-03 0.0 
0.0 0.0 3.436717527685e-04 
1.727705434308e-03 9.946982642696e-03 0.0 
9.946982642696e-03 -1.216311558149e-03 0.0 
0.0 0.0 6.220828993436e-04 
4.618387574491e-03 4.615742896253e-03 0.0 
4.615742896253e-03 -4.210856028837e-03 0.0 
0.0 0.0 4.471891066715e-04 
2.131538064016e-03 8.989513818961e-03 0.0 
8.989513818961e-03 -1.690555272900e-03 0.0 
0.0 0.0 5.578722490046e-04 
3.943542504416e-03 -7.145751676018e-04 0.0 
-7.145751676018e-04 -3.385007068112e-03 0.0 
0.0 0.0 2.429958859402e-04 
3.326506759393e-03 5.257014409674e-04 0.0 
5.257014409674e-04 -3.103123718009e-03 0.0 
0.0 0.0 4.868375212516e-04 
4.031635333531e-03 5.934877694717e-03 0.0 
5.934877694717e-03 -3.551500113227e-03 0.0 
0.0 0.0 4.178085971625e-04 
4.447267977869e-03 3.820467404722e-05 0.0 
3.820467404722e-05 -3.777325994336e-03 0.0 
0.0 0.0 2.620828072459e-04 
3.631911611707e-03 -8.228154027450e-04 0.0 
-8.228154027450e-04 -2.931314808874e-03 0.0 
0.0 0.0 1.883530908137e-04 
3.063133233187e-03 2.726263359812e-05 0.0 
2.726263359812e-05 -2.857461375278e-03 0.0 
0.0 0.0 3.472940218246e-04 
4.085079767723e-03 9.097758734444e-04 0.0 
9.097758734444e-04 -3.863547687770e-03 0.0 
0.0 0.0 4.645706514903e-04 
4.197624781402e-03 1.315526819639e-03 0.0 
1.315526819639e-03 -3.960098083010e-03 0.0 
0.0 0.0 4.874303173150e-04 
2.871125929070e-03 -6.719982767367e-05 0.0 
-6.719982767367e-05 -2.677928999137e-03 0.0 
0.0 0.0 2.893846201700e-04 
3.661562169900e-03 1.193827001047e-03 0.0 
1.193827001047e-03 -3.383967797780e-03 0.0 
0.0 0.0 4.777357366380e-04 
4.480166095017e-03 1.407480692203e-03 0.0 
1.407480692203e-03 -4.248967731450e-03 0.0 
0.0 0.0 4.597669360941e-04 
4.720366701395e-03 2.150734158431e-03 0.0 
2.150734158431e-03 -4.412522925453e-03 0.0 
0.0 0.0 4.292335886062e-04 
3.486300147541e-03 -2.871227737268e-05 0.0 
-2.871227737268e-05 -3.316244356660e-03 0.0 
0.0 0.0 3.496601253937e-04 
3.820643778964e-03 4.777623796771e-03 0.0 
4.777623796771e-03 -3.447887859801e-03 0.0 
0.0 0.0 6.434101902667e-04 
-2.444972559271e-03 2.165020174295e-03 0.0 
2.165020174295e-03 2.984376543195e-03 0.0 
0.0 0.0 3.007771571707e-04 
4.935301205964e-03 2.333452243336e-03 0.0 
2.333452243336e-03 -4.572909500514e-03 0.0 
0.0 0.0 4.280665980515e-04 
2.024285438280e-03 1.934780257034e-03 0.0 
1.934780257034e-03 -1.647661762496e-03 0.0 
0.0 0.0 8.046137697762e-04 
4.153055973537e-03 -5.504268778892e-04 0.0 
-5.504268778892e-04 -3.641643680849e-03 0.0 
0.0 0.0 2.712353935938e-04 
1.870572858188e-03 2.490175288814e-03 0.0 
2.490175288814e-03 -1.458337869770e-03 0.0 
0.0 0.0 8.573880984100e-04 
4.012440734720e-03 1.330774234557e-03 0.0 
1.330774234557e-03 -3.739967595105e-03 0.0 
0.0 0.0 4.477743114163e-04 
1.566416314214e-03 1.036895347822e-02 0.0 
1.036895347822e-02 -1.021417350864e-03 0.0 
0.0 0.0 6.304741279046e-04 
-1.522645828051e-06 8.861031177808e-03 0.0 
8.861031177808e-03 7.429819036028e-04 0.0 
0.0 0.0 3.835999153112e-04 
4.109038616296e-03 -5.380578782421e-04 0.0 
-5.380578782421e-04 -3.517218976378e-03 0.0 
0.0 0.0 2.477449434680e-04 
-1.602206443816e-03 8.228014747950e-03 0.0 
8.228014747950e-03 2.469963145601e-03 0.0 
0.0 0.0 3.642194858864e-04 
-1.584724342432e-03 4.882490104524e-03 0.0 
4.882490104524e-03 2.154355856522e-03 0.0 
0.0 0.0 3.836537877189e-04 
4.092238820645e-03 1.771539763361e-03 0.0 
1.771539763361e-03 -3.804936200597e-03 0.0 
0.0 0.0 4.732095092151e-04 
3.669936843083e-03 6.378798185254e-03 0.0 
6.378798185254e-03 -2.767106344365e-03 0.0 
0.0 0.0 2.885041861480e-04 
-1.158485708418e-03 8.190679929543e-03 0.0 
8.190679929543e-03 1.903134595394e-03 0.0 
0.0 0.0 3.864985420206e-04 
2.132529282661e-03 8.708401231835e-03 0.0 
8.708401231835e-03 -1.555851651193e-03 0.0 
0.0 0.0 4.010880189526e-04 
3.831990646652e-03 -6.873068043505e-04 0.0 
-6.873068043505e-04 -3.133743500127e-03 0.0 
0.0 0.0 2.006100655740e-04 
-5.350571955240e-04 5.150915906423e-03 0.0 
5.150915906423e-03 1.231091108190e-03 0.0 
0.0 0.0 3.915952631488e-04 
3.694535636899e-03 -6.616963678927e-04 0.0 
-6.616963678927e-04 -2.913928863846e-03 0.0 
0.0 0.0 1.742033167118e-04 
2.591705810235e-03 5.491152888255e-03 0.0 
5.491152888255e-03 -2.123383926844e-03 0.0 
0.0 0.0 7.666338416727e-04 
-9.881061756585e-04 1.497437271599e-03 0.0 
1.497437271599e-03 1.512572718128e-03 0.0 
0.0 0.0 3.560411622298e-04 
3.508164119889e-03 4.251196709235e-03 0.0 
4.251196709235e-03 -3.131111078214e-03 0.0 
0.0 0.0 6.746061492964e-04 
-2.610904331272e-03 1.222623809368e-03 0.0 
1.222623809368e-03 3.435462109093e-03 0.0 
0.0 0.0 2.105384718922e-04 
-2.002179566091e-03 2.848860348527e-03 0.0 
2.848860348527e-03 2.523080568876e-03 0.0 
0.0 0.0 3.826869133738e-04 
4.561104651557e-03 1.912524579204e-03 0.0 
1.912524579204e-03 -4.312300659815e-03 0.0 
0.0 0.0 4.795357482160e-04 
4.611296298762e-03 4.725405576278e-03 0.0 
4.725405576278e-03 -4.282378745916e-03 0.0 
0.0 0.0 5.038009150325e-04 
-1.248764743886e-03 3.588569728627e-03 0.0 
3.588569728627e-03 1.816989447597e-03 0.0 
0.0 0.0 3.786406145405e-04 
2.119810615582e-03 1.160268705179e-03 0.0 
1.160268705179e-03 -1.779528595924e-03 0.0 
0.0 0.0 7.150786917381e-04 
-2.460735839204e-03 2.673409440604e-03 0.0 
2.673409440604e-03 2.970275711639e-03 0.0 
0.0 0.0 3.313413140943e-04 
3.387743120591e-03 3.081145558617e-03 0.0 
3.081145558617e-03 -3.038493022205e-03 0.0 
0.0 0.0 6.434910340040e-04 
4.091908919684e-03 -6.144513363070e-04 0.0 
-6.144513363070e-04 -3.422140975442e-03 0.0 
0.0 0.0 2.277766337297e-04 
-2.389709488888e-03 3.301028472229e-03 0.0 
3.301028472229e-03 2.892620109426e-03 0.0 
0.0 0.0 3.596144417105e-04 
1.862085493090e-03 9.601946175517e-03 0.0 
9.601946175517e-03 -1.264843809502e-03 0.0 
0.0 0.0 6.800965593684e-04 
1.686821327184e-03 1.805094326401e-03 0.0 
1.805094326401e-03 -1.293983018278e-03 0.0 
0.0 0.0 8.703681664398e-04 
3.452306316530e-03 5.591751730499e-04 0.0 
5.591751730499e-04 -3.202945921382e-03 0.0 
0.0 0.0 4.246819667695e-04 
-2.745038168903e-03 1.357548816984e-03 0.0 
1.357548816984e-03 3.478935131860e-03 0.0 
0.0 0.0 2.552008745624e-04 
-2.883253776976e-03 1.242267590310e-03 0.0 
1.242267590310e-03 3.957993663951e-03 0.0 
0.0 0.0 2.025695291354e-04 
3.872380700348e-03 1.210351647187e-03 0.0 
1.210351647187e-03 -3.628134166788e-03 0.0 
0.0 0.0 5.134786245293e-04 
2.411838328920e-03 1.394645015016e-03 0.0 
1.394645015016e-03 -2.076097479132e-03 0.0 
0.0 0.0 6.842682824619e-04 
2.401666588612e-03 1.671101592970e-03 0.0 
1.671101592970e-03 -2.054358143328e-03 0.0 
0.0 0.0 7.149525461014e-04 
3.590902235293e-03 -6.509848110230e-05 0.0 
-6.509848110230e-05 -2.736220569038e-03 0.0 
0.0 0.0 1.561360239028e-04 
4.568506595615e-03 2.585506354582e-03 0.0 
2.585506354582e-03 -3.750974408876e-03 0.0 
0.0 0.0 2.809189222460e-04 
4.944814484129e-03 2.989357935634e-03 0.0 
2.989357935634e-03 -4.587843475769e-03 0.0 
0.0 0.0 4.449572140787e-04 
4.766821901077e-03 2.064217999874e-03 0.0 
2.064217999874e-03 -4.509263889563e-03 0.0 
0.0 0.0 4.508386108805e-04 
2.934682965100e-03 7.705898061594e-03 0.0 
7.705898061594e-03 -2.429350085847e-03 0.0 
0.0 0.0 4.177882657027e-04 
-1.222369138156e-03 3.930679855035e-03 0.0 
3.930679855035e-03 1.750754940303e-03 0.0 
0.0 0.0 5.193825027750e-04 
-5.019727468551e-04 8.312478436496e-03 0.0 
8.312478436496e-03 1.105522207343e-03 0.0 
0.0 0.0 4.504315915890e-04 
-1.090124644177e-03 1.561359407456e-03 0.0 
1.561359407456e-03 1.574887686187e-03 0.0 
0.0 0.0 4.142920013678e-04 
1.374488258852e-03 1.024085234143e-02 0.0 
1.024085234143e-02 2.847379510571e-05 0.0 
0.0 0.0 2.601615149966e-04 
-2.169050054172e-03 4.418217710864e-03 0.0 
4.418217710864e-03 2.663838413568e-03 0.0 
0.0 0.0 3.620385156280e-04 
2.350798156542e-03 1.300500700198e-03 0.0 
1.300500700198e-03 -2.021061260383e-03 0.0 
0.0 0.0 7.128022627943e-04 
-1.094095249740e-03 2.686540403989e-03 0.0 
2.686540403989e-03 1.676656781215e-03 0.0 
0.0 0.0 3.718738687430e-04 
-2.657461818054e-03 3.618122548271e-03 0.0 
3.618122548271e-03 3.230488358651e-03 0.0 
0.0 0.0 3.513558704896e-04 
3.437880534968e-03 7.872099200681e-04 0.0 
7.872099200681e-04 -3.200485424938e-03 0.0 
0.0 0.0 5.134960333363e-04 
5.021031498112e-03 3.247535120239e-03 0.0 
3.247535120239e-03 -4.615040748823e-03 0.0 
0.0 0.0 4.381443777500e-04 
-2.263147120342e-03 3.005867724948e-03 0.0 
3.005867724948e-03 2.843612803571e-03 0.0 
0.0 0.0 3.021050546705e-04 
-1.545615151197e-03 3.076439153711e-03 0.0 
3.076439153711e-03 2.064106262155e-03 0.0 
0.0 0.0 4.440028620811e-04 
-1.957090082012e-03 2.041644349341e-03 0.0 
2.041644349341e-03 2.528652080527e-03 0.0 
0.0 0.0 2.892615183906e-04 
-2.298121344695e-03 2.445605717961e-03 0.0 
2.445605717961e-03 2.923079732003e-03 0.0 
0.0 0.0 2.779799078078e-04 
1.816779091728e-03 1.393695097596e-03 0.0 
1.393695097596e-03 -1.446507110237e-03 0.0 
0.0 0.0 8.038336097596e-04 
2.775823773658e-03 6.166975291285e-03 0.0 
6.166975291285e-03 -2.316081534429e-03 0.0 
0.0 0.0 7.369558758940e-04 
2.077620391787e-03 1.650792816876e-03 0.0 
1.650792816876e-03 -1.714430339024e-03 0.0 
0.0 0.0 7.769069549662e-04 
2.684241786962e-03 1.040272452328e-03 0.0 
1.040272452328e-03 -2.380058672064e-03 0.0 
0.0 0.0 5.980117779344e-04 
-6.617768903910e-05 1.180928117879e-02 0.0 
1.180928117879e-02 2.326271391205e-03 0.0 
0.0 0.0 2.223903190122e-04 
3.377080748568e-03 4.814091710199e-03 0.0 
4.814091710199e-03 -2.985530804731e-03 0.0 
0.0 0.0 6.978120404957e-04 
-2.410764812668e-03 5.364045465685e-03 0.0 
5.364045465685e-03 3.029488725122e-03 0.0 
0.0 0.0 3.849365532095e-04 
3.087181640223e-03 -9.517560265661e-05 0.0 
-9.517560265661e-05 -2.797221164812e-03 0.0 
0.0 0.0 2.639258241061e-04 
4.790886102979e-03 2.677867308851e-03 0.0 
2.677867308851e-03 -4.526170617971e-03 0.0 
0.0 0.0 4.646233295775e-04 
4.477921531915e-03 3.083867883721e-03 0.0 
3.083867883721e-03 -4.169058946058e-03 0.0 
0.0 0.0 4.957733220209e-04 
4.390772876173e-03 5.036345997840e-03 0.0 
5.036345997840e-03 -4.039766708497e-03 0.0 
0.0 0.0 5.541478024998e-04 
4.478576404752e-03 6.244445533781e-04 0.0 
6.244445533781e-04 -3.743564533903e-03 0.0 
0.0 0.0 2.616685423409e-04 
4.887628830204e-03 2.875002182679e-03 0.0 
2.875002182679e-03 -4.557105482430e-03 0.0 
0.0 0.0 4.508512188825e-04 
4.060548423006e-03 5.215372449058e-03 0.0 
5.215372449058e-03 -3.687123668578e-03 0.0 
0.0 0.0 6.042101030349e-04 
-7.448204891994e-05 1.102726880051e-02 0.0 
1.102726880051e-02 1.336261484696e-03 0.0 
0.0 0.0 3.340626200867e-04 
3.220175660195e-03 7.573321671483e-04 0.0 
7.573321671483e-04 -2.951989578241e-03 0.0 
0.0 0.0 4.814859711094e-04 
-3.092014232272e-03 3.349548484719e-03 0.0 
3.349548484719e-03 3.852625829546e-03 0.0 
0.0 0.0 3.457051582179e-04 
-3.304307670289e-03 6.985630001167e-04 0.0 
6.985630001167e-04 5.083059936314e-03 0.0 
0.0 0.0 1.608078622634e-04 
2.236925509789e-04 1.478952059733e-03 0.0 
1.478952059733e-03 -2.914091898096e-05 0.0 
0.0 0.0 8.234901722518e-06 
2.925147969588e-03 1.136747948013e-03 0.0 
1.136747948013e-03 -2.641522778340e-03 0.0 
0.0 0.0 6.127431037646e-04 
3.226559702343e-03 3.980719910814e-03 0.0 
3.980719910814e-03 -2.855024503634e-03 0.0 
0.0 0.0 7.033176835544e-04 
-3.773267373010e-04 7.883988227545e-03 0.0 
7.883988227545e-03 9.907140010002e-04 0.0 
0.0 0.0 4.844987146023e-04 
4.808012143038e-03 4.378347063719e-03 0.0 
4.378347063719e-03 -4.472364194021e-03 0.0 
0.0 0.0 4.759453977637e-04 
2.964360937195e-03 9.227259810329e-04 0.0 
9.227259810329e-04 -2.677943544972e-03 0.0 
0.0 0.0 5.393944119339e-04 
-2.742234137479e-03 2.359492219933e-03 0.0 
2.359492219933e-03 3.361112305357e-03 0.0 
0.0 0.0 3.110384812529e-04 
2.827007883128e-04 2.170805209788e-03 0.0 
2.170805209788e-03 1.866636551413e-04 0.0 
0.0 0.0 -3.009702411496e-07 
3.541739196259e-03 4.522133610944e-03 0.0 
4.522133610944e-03 -3.171225250363e-03 0.0 
0.0 0.0 6.670225101641e-04 
4.515624387558e-03 4.400523492551e-03 0.0 
4.400523492551e-03 -4.187126628493e-03 0.0 
0.0 0.0 5.427238054885e-04 
-2.902151152887e-04 1.106058724440e-02 0.0 
1.106058724440e-02 1.908670021241e-03 0.0 
0.0 0.0 2.908221408782e-04 
2.352244452345e-03 1.580731472886e-03 0.0 
1.580731472886e-03 -2.007819770606e-03 0.0 
0.0 0.0 7.381141983071e-04 
4.267874426735e-03 -3.706041510901e-04 0.0 
-3.706041510901e-04 -3.723383661011e-03 0.0 
0.0 0.0 2.765666146653e-04 
2.329453373392e-03 1.852971574548e-03 0.0 
1.852971574548e-03 -1.968332022771e-03 0.0 
0.0 0.0 7.604098114299e-04 
1.944505052571e-03 2.169456533012e-03 0.0 
2.169456533012e-03 -1.558363972761e-03 0.0 
0.0 0.0 8.398990961682e-04 
3.842412907660e-03 4.977000466896e-03 0.0 
4.977000466896e-03 -3.477505539514e-03 0.0 
0.0 0.0 6.381315697170e-04 
-2.055297191205e-03 2.325733057522e-03 0.0 
2.325733057522e-03 2.584589305453e-03 0.0 
0.0 0.0 3.534568984894e-04 
2.879979168493e-03 8.617232311004e-03 0.0 
8.617232311004e-03 -2.401902374860e-03 0.0 
0.0 0.0 5.901653427172e-04 
1.949964867664e-03 2.080212467307e-03 0.0 
2.080212467307e-03 -1.550311179983e-03 0.0 
0.0 0.0 8.357430361385e-04 
1.999925534876e-04 2.866425187095e-03 0.0 
2.866425187095e-03 5.192829223447e-04 0.0 
0.0 0.0 3.861341867332e-07 
-2.786978375108e-03 3.021432325792e-03 0.0 
3.021432325792e-03 3.376010635804e-03 0.0 
0.0 0.0 3.439200150394e-04 
2.760964278480e-03 7.357020565075e-03 0.0 
7.357020565075e-03 -2.291004456993e-03 0.0 
0.0 0.0 7.235055293421e-04 
-1.890684833841e-03 2.641393339249e-03 0.0 
2.641393339249e-03 2.456795241283e-03 0.0 
0.0 0.0 3.127228134576e-04 
4.249948549497e-03 4.895655504136e-03 0.0 
4.895655504136e-03 -3.900980831874e-03 0.0 
0.0 0.0 5.774067342089e-04 
4.843739279625e-03 3.587217354579e-03 0.0 
3.587217354579e-03 -4.505786328119e-03 0.0 
0.0 0.0 4.616747176414e-04 
2.219036515356e-03 2.965987384574e-04 0.0 
2.965987384574e-04 -1.946897155195e-03 0.0 
0.0 0.0 5.409125139668e-04 
3.576254382737e-03 -6.687171493731e-05 0.0 
-6.687171493731e-05 -2.587558694596e-03 0.0 
0.0 0.0 1.440084467341e-04 
-1.500809254926e-03 2.146407467380e-03 0.0 
2.146407467380e-03 2.071878746120e-03 0.0 
0.0 0.0 3.441789562238e-04 
2.923404515890e-03 -5.404756488899e-05 0.0 
-5.404756488899e-05 -2.696752434084e-03 0.0 
0.0 0.0 2.792403654523e-04 
1.213628346381e-04 4.093105221974e-03 0.0 
4.093105221974e-03 1.046535310467e-03 0.0 
0.0 0.0 7.540617616454e-06 
2.654763548352e-03 8.940977684812e-03 0.0 
8.940977684812e-03 -2.180772354548e-03 0.0 
0.0 0.0 5.575681656003e-04 
-8.617928917624e-04 2.004026153898e-03 0.0 
2.004026153898e-03 1.440862762564e-03 0.0 
0.0 0.0 3.747670394089e-04 
4.064517908895e-03 -6.162828814925e-04 0.0 
-6.162828814925e-04 -3.477225110816e-03 0.0 
0.0 0.0 2.484388211785e-04 
1.788155891449e-03 8.567517919569e-03 0.0 
8.567517919569e-03 -1.126718543539e-03 0.0 
0.0 0.0 3.862089754734e-04 
-2.550152141958e-03 3.375630385050e-03 0.0 
3.375630385050e-03 3.203089203837e-03 0.0 
0.0 0.0 3.171298438607e-04 
2.794034771482e-03 6.298393151476e-04 0.0 
6.298393151476e-04 -2.539221293783e-03 0.0 
0.0 0.0 5.605207828560e-04 
4.278770345791e-03 1.886166896364e-04 0.0 
1.886166896364e-04 -3.681811138113e-03 0.0 
0.0 0.0 2.749879309991e-04 
3.952208226153e-03 5.989030767611e-03 0.0 
5.989030767611e-03 -3.075391351884e-03 0.0 
0.0 0.0 2.973421174727e-04 
3.713026604231e-03 -7.375754253471e-04 0.0 
-7.375754253471e-04 -2.960229104645e-03 0.0 
0.0 0.0 1.801362731760e-04 
4.214516323481e-03 -4.394970195524e-04 0.0 
-4.394970195524e-04 -3.516761062370e-03 0.0 
0.0 0.0 2.339365740076e-04 
3.993631079085e-03 -6.434974395319e-04 0.0 
-6.434974395319e-04 -3.268348001387e-03 0.0 
0.0 0.0 2.081818476003e-04 
4.580478711871e-03 4.695486237668e-03 0.0 
4.695486237668e-03 -4.249325938956e-03 0.0 
0.0 0.0 5.200137806518e-04 
2.391832331404e-04 1.015466920641e-02 0.0 
1.015466920641e-02 4.054851155836e-04 0.0 
0.0 0.0 6.798628173730e-04 
1.624890330756e-04 5.818240185296e-03 0.0 
5.818240185296e-03 1.610041907949e-03 0.0 
0.0 0.0 1.826981732581e-05 
1.600823529027e-03 1.111660696591e-03 0.0 
1.111660696591e-03 -1.225356348967e-03 0.0 
0.0 0.0 8.338968250006e-04 
4.780682512748e-03 3.888495965543e-03 0.0 
3.888495965543e-03 -4.297749072345e-03 0.0 
0.0 0.0 4.069419477095e-04 
-2.810157236179e-03 4.176886341434e-03 0.0 
4.176886341434e-03 3.538778829083e-03 0.0 
0.0 0.0 3.511534905959e-04 
4.072951844083e-03 4.284237685436e-04 0.0 
4.284237685436e-04 -3.147085200572e-03 0.0 
0.0 0.0 1.926389571607e-04 
1.854612289728e-03 2.315909038872e-03 0.0 
2.315909038872e-03 -1.445291107202e-03 0.0 
0.0 0.0 8.642395777757e-04 
3.855319366833e-03 -8.431432452788e-04 0.0 
-8.431432452788e-04 -3.230950225131e-03 0.0 
0.0 0.0 2.223490286562e-04 
2.670811375172e-03 -6.508413148375e-05 0.0 
-6.508413148375e-05 -2.505185630611e-03 0.0 
0.0 0.0 3.051744889908e-04 
3.642020989424e-03 5.491242722563e-03 0.0 
5.491242722563e-03 -3.263999547867e-03 0.0 
0.0 0.0 6.657653885279e-04 
4.281341276691e-03 1.776353639433e-03 0.0 
1.776353639433e-03 -4.028168321312e-03 0.0 
0.0 0.0 5.090731527202e-04 
2.994265486376e-03 6.801113252728e-03 0.0 
6.801113252728e-03 -2.537024588691e-03 0.0 
0.0 0.0 7.003399261409e-04 
3.032078557830e-03 7.735981883924e-03 0.0 
7.735981883924e-03 -1.999936983998e-03 0.0 
0.0 0.0 2.662907881018e-04 
-2.276002430302e-03 5.134451277185e-03 0.0 
5.134451277185e-03 2.857727676079e-03 0.0 
0.0 0.0 3.809360936786e-04 
2.536553958298e-03 5.783885244004e-03 0.0 
5.783885244004e-03 -2.106527991953e-03 0.0 
0.0 0.0 8.069810537385e-04 
-2.601741428261e-03 2.664920524725e-03 0.0 
2.664920524725e-03 3.326803879821e-03 0.0 
0.0 0.0 2.829868965117e-04 
-4.730839075599e-04 8.571508306700e-03 0.0 
8.571508306700e-03 1.043061963438e-03 0.0 
0.0 0.0 5.686735513391e-04 
-2.271806392931e-03 3.746961476335e-03 0.0 
3.746961476335e-03 2.773655398722e-03 0.0 
0.0 0.0 3.766433761976e-04 
-2.035570488751e-03 4.333351913889e-03 0.0 
4.333351913889e-03 2.532724501310e-03 0.0 
0.0 0.0 4.145060362332e-04 
4.229855517660e-03 2.511099285654e-03 0.0 
2.511099285654e-03 -3.186619099780e-03 0.0 
0.0 0.0 2.092078037561e-04 
1.641042833573e-03 9.323345584687e-04 0.0 
9.323345584687e-04 -1.278501388131e-03 0.0 
0.0 0.0 8.037850608335e-04 
-2.414679212933e-03 3.869211841244e-03 0.0 
3.869211841244e-03 2.973941810013e-03 0.0 
0.0 0.0 3.434110684948e-04 
4.391921291530e-03 5.802501189471e-03 0.0 
5.802501189471e-03 -4.004869723968e-03 0.0 
0.0 0.0 4.700999674181e-04 
1.310382170750e-04 7.884403690053e-03 0.0 
7.884403690053e-03 2.308460511007e-03 0.0 
0.0 0.0 3.738952397042e-05 
2.373925029442e-03 5.971001353876e-03 0.0 
5.971001353876e-03 -1.900261250194e-03 0.0 
0.0 0.0 7.993997074272e-04 
4.523093105092e-03 1.706106064082e-03 0.0 
1.706106064082e-03 -3.695447040894e-03 0.0 
0.0 0.0 2.617821898190e-04 
2.855610159739e-03 7.608790700997e-05 0.0 
7.608790700997e-05 -2.673588310984e-03 0.0 
0.0 0.0 2.964070256920e-04 
3.181242920858e-03 6.583357770351e-03 0.0 
6.583357770351e-03 -2.770047184850e-03 0.0 
0.0 0.0 7.104198468668e-04 
3.480406236072e-03 2.124020957140e-04 0.0 
2.124020957140e-04 -2.858922208712e-03 0.0 
0.0 0.0 1.908028097655e-04 
3.073829438862e-03 7.423117300189e-03 0.0 
7.423117300189e-03 -2.504323321987e-03 0.0 
0.0 0.0 4.053065357121e-04 
3.379321178692e-03 4.951405062203e-03 0.0 
4.951405062203e-03 -2.998918919723e-03 0.0 
0.0 0.0 6.993875764051e-04 
-1.424667204292e-03 4.891848328905e-03 0.0 
4.891848328905e-03 1.971508153159e-03 0.0 
0.0 0.0 4.848460419161e-04 
-1.040179745680e-03 6.231339899020e-03 0.0 
6.231339899020e-03 1.601686982087e-03 0.0 
0.0 0.0 5.287782911777e-04 
3.649814754129e-03 5.272108177999e-03 0.0 
5.272108177999e-03 -3.254743537319e-03 0.0 
0.0 0.0 6.551090178445e-04 
-1.910060219092e-03 3.479908811855e-03 0.0 
3.479908811855e-03 2.416955411582e-03 0.0 
0.0 0.0 4.173325082870e-04 
4.605514463391e-03 4.703714640865e-03 0.0 
4.703714640865e-03 -4.143687124873e-03 0.0 
0.0 0.0 4.239873944318e-04 
1.908625719978e-03 9.216599656432e-03 0.0 
9.216599656432e-03 -1.413250820976e-03 0.0 
0.0 0.0 5.319856815774e-04 
-1.795294648136e-04 1.072619780858e-02 0.0 
1.072619780858e-02 3.517143179829e-03 0.0 
0.0 0.0 7.446498010232e-05 
7.442367297798e-04 9.642868010094e-03 0.0 
9.642868010094e-03 -1.693632094323e-04 0.0 
0.0 0.0 5.317408507437e-04 
-1.525760423285e-03 1.394329025728e-02 0.0 
1.394329025728e-02 5.798293716821e-03 0.0 
0.0 0.0 1.645735906440e-04 
-2.901147841684e-03 1.490848793218e-02 0.0 
1.490848793218e-02 7.519948088151e-03 0.0 
0.0 0.0 2.582911382960e-04 
4.798481519988e-03 4.712481305092e-03 0.0 
4.712481305092e-03 -4.426033315973e-03 0.0 
0.0 0.0 4.696292089811e-04 
-5.931499405394e-03 1.396375963355e-02 0.0 
1.396375963355e-02 1.031353269993e-02 0.0 
0.0 0.0 4.496807474145e-04 
3.555331825884e-03 7.329319717247e-03 0.0 
7.329319717247e-03 -3.112238376385e-03 0.0 
0.0 0.0 4.668360110905e-04 
3.793157859515e-03 6.188266102257e-03 0.0 
6.188266102257e-03 -3.240869283780e-03 0.0 
0.0 0.0 3.951716617233e-04 
4.779418846895e-03 3.338082790701e-03 0.0 
3.338082790701e-03 -4.494601762440e-03 0.0 
0.0 0.0 4.793027899253e-04 
4.297955763738e-03 1.459932435314e-05 0.0 
1.459932435314e-05 -3.548915122889e-03 0.0 
0.0 0.0 2.367166912749e-04 
4.939561884336e-03 3.979814389654e-03 0.0 
3.979814389654e-03 -4.552366833956e-03 0.0 
0.0 0.0 4.558096700050e-04 
-1.398074106861e-03 2.912997668359e-03 0.0 
2.912997668359e-03 1.971818252306e-03 0.0 
0.0 0.0 3.519999776478e-04 
1.122444258311e-04 9.078631074905e-03 0.0 
9.078631074905e-03 4.923658119424e-04 0.0 
0.0 0.0 5.179086786012e-04 
1.869054818980e-03 9.501715021079e-04 0.0 
9.501715021079e-04 -1.524033463298e-03 0.0 
0.0 0.0 7.452160240462e-04 
2.706404108192e-03 6.347328873021e-03 0.0 
6.347328873021e-03 -2.283189823654e-03 0.0 
0.0 0.0 7.785192295237e-04 
4.424216538609e-03 1.950577492707e-03 0.0 
1.950577492707e-03 -4.143001631191e-03 0.0 
0.0 0.0 4.441799172962e-04 
-1.973715075816e-03 4.062037336941e-03 0.0 
4.062037336941e-03 2.492556189671e-03 0.0 
0.0 0.0 3.680345333203e-04 
4.904732205228e-03 3.681675814765e-03 0.0 
3.681675814765e-03 -4.555156366009e-03 0.0 
0.0 0.0 4.607219299747e-04 
1.492736039916e-03 7.833085912874e-04 0.0 
7.833085912874e-04 -1.119381092094e-03 0.0 
0.0 0.0 8.258708798165e-04 
-2.179689600168e-03 3.639636513055e-03 0.0 
3.639636513055e-03 2.721080882194e-03 0.0 
0.0 0.0 3.249231461424e-04 
-2.171593351480e-03 4.773766232108e-03 0.0 
4.773766232108e-03 2.678967233889e-03 0.0 
0.0 0.0 3.898109536243e-04 
3.984208666499e-03 4.470757830479e-03 0.0 
4.470757830479e-03 -3.630324638486e-03 0.0 
0.0 0.0 6.070676086779e-04 
4.828150674093e-03 4.302694223314e-03 0.0 
4.302694223314e-03 -4.404926258158e-03 0.0 
0.0 0.0 4.423749640610e-04 
2.027464722376e-03 9.586818121158e-03 0.0 
9.586818121158e-03 -1.519220010365e-03 0.0 
0.0 0.0 5.932323002380e-04 
-3.230382516110e-04 8.755153818408e-03 0.0 
8.755153818408e-03 8.204022110767e-04 0.0 
0.0 0.0 4.502564445658e-04 
4.130194112143e-03 -2.812354272215e-04 0.0 
-2.812354272215e-04 -3.500018715538e-03 0.0 
0.0 0.0 2.497656577374e-04 
4.323133893635e-03 1.102218934660e-03 0.0 
1.102218934660e-03 -3.627435206190e-03 0.0 
0.0 0.0 2.693132852383e-04 
3.244759353208e-03 7.598238212954e-03 0.0 
7.598238212954e-03 -2.436865656316e-03 0.0 
0.0 0.0 3.254680230044e-04 
1.518378121595e-03 8.715507676969e-03 0.0 
8.715507676969e-03 -1.063189210200e-03 0.0 
0.0 0.0 4.503853003694e-04 
1.351420665779e-03 6.347987080128e-04 0.0 
6.347987080128e-04 -9.707424169842e-04 0.0 
0.0 0.0 8.537427342559e-04 
-2.438425009967e-03 4.195600096734e-03 0.0 
4.195600096734e-03 2.981819676325e-03 0.0 
0.0 0.0 3.621314228572e-04 
4.766536420787e-03 3.857317713476e-03 0.0 
3.857317713476e-03 -4.366002120804e-03 0.0 
0.0 0.0 4.399103554836e-04 
1.421259796806e-03 8.634172963242e-03 0.0 
8.634172963242e-03 -8.581395375741e-04 0.0 
0.0 0.0 4.322820953563e-04 
3.097410950322e-03 4.533605560868e-03 0.0 
4.533605560868e-03 -2.705474714372e-03 0.0 
0.0 0.0 7.215453516979e-04 
-1.603754381963e-03 2.488115362001e-03 0.0 
2.488115362001e-03 2.133444877118e-03 0.0 
0.0 0.0 4.147608785540e-04 
1.740343459314e-03 9.967551613253e-03 0.0 
9.967551613253e-03 -1.217818770633e-03 0.0 
0.0 0.0 6.157738600062e-04 
-3.007513674265e-03 4.392727930365e-03 0.0 
4.392727930365e-03 3.875962770302e-03 0.0 
0.0 0.0 3.389009376472e-04 
2.497806311221e-03 3.005619464193e-03 0.0 
3.005619464193e-03 -2.120993335525e-03 0.0 
0.0 0.0 7.776067289975e-04 
4.721432072824e-03 4.036884732032e-03 0.0 
4.036884732032e-03 -4.414982645980e-03 0.0 
0.0 0.0 4.924571086991e-04 
3.064968700381e-03 4.257965294564e-03 0.0 
4.257965294564e-03 -2.670565945179e-03 0.0 
0.0 0.0 7.311402061893e-04 
2.890286237386e-03 7.710137029378e-03 0.0 
7.710137029378e-03 -2.469050295569e-03 0.0 
0.0 0.0 4.534974692363e-04 
-1.417212527681e-03 3.877040978630e-03 0.0 
3.877040978630e-03 1.921784068149e-03 0.0 
0.0 0.0 4.823859935520e-04 
1.561738849664e-03 1.027150201617e-02 0.0 
1.027150201617e-02 -1.009839189207e-03 0.0 
0.0 0.0 6.324741774136e-04 
4.370718419211e-03 4.311709541181e-03 0.0 
4.311709541181e-03 -4.034325943303e-03 0.0 
0.0 0.0 5.487705214109e-04 
4.390123712290e-03 8.828421353060e-04 0.0 
8.828421353060e-04 -3.558140954601e-03 0.0 
0.0 0.0 2.387581574284e-04 
2.881041597963e-03 8.370628634072e-03 0.0 
8.370628634072e-03 -2.444450623704e-03 0.0 
0.0 0.0 6.780659690037e-04 
3.135292644928e-03 7.583287162031e-03 0.0 
7.583287162031e-03 -2.634949537920e-03 0.0 
0.0 0.0 4.406531545290e-04 
4.581829674462e-03 4.185154112380e-03 0.0 
4.185154112380e-03 -4.113005088967e-03 0.0 
0.0 0.0 4.109585824207e-04 
4.203777086537e-03 4.647025002013e-03 0.0 
4.647025002013e-03 -3.853038482092e-03 0.0 
0.0 0.0 5.927882201831e-04 
2.569319240913e-03 2.492617321055e-03 0.0 
2.492617321055e-03 -2.196439988202e-03 0.0 
0.0 0.0 7.520292244313e-04 
4.193429295313e-03 3.775851209728e-04 0.0 
3.775851209728e-04 -3.492873517922e-03 0.0 
0.0 0.0 2.498827541524e-04 
4.681733928527e-03 4.048625292510e-03 0.0 
4.048625292510e-03 -4.363936565609e-03 0.0 
0.0 0.0 4.927780479415e-04 
-1.414447116905e-03 7.981699275860e-03 0.0 
7.981699275860e-03 1.964041167563e-03 0.0 
0.0 0.0 4.354028393534e-04 
1.345708765075e-03 5.780143006610e-04 0.0 
5.780143006610e-04 -9.559051068873e-04 0.0 
0.0 0.0 8.563565816305e-04 
-9.090325167967e-04 8.068492890879e-03 0.0 
8.068492890879e-03 1.399490537302e-03 0.0 
0.0 0.0 4.492423788704e-04 
2.820043846562e-03 8.876902009306e-03 0.0 
8.876902009306e-03 -2.377034910425e-03 0.0 
0.0 0.0 6.304515281663e-04 
-1.910966247257e-03 7.800291403544e-03 0.0 
7.800291403544e-03 2.544332928882e-03 0.0 
0.0 0.0 4.144221874723e-04 
-2.843011824298e-03 7.496502897734e-03 0.0 
7.496502897734e-03 3.910995234973e-03 0.0 
0.0 0.0 3.592639109108e-04 
2.308473667064e-04 8.633238700346e-03 0.0 
8.633238700346e-03 2.120502493181e-04 0.0 
0.0 0.0 4.654130104749e-04 
2.932647950454e-03 5.992314206642e-03 0.0 
5.992314206642e-03 -2.519100770596e-03 0.0 
0.0 0.0 7.455253622867e-04 
1.823653719255e-03 1.074928227647e-03 0.0 
1.074928227647e-03 -1.460923820453e-03 0.0 
0.0 0.0 7.857421620062e-04 
-2.546080367961e-03 4.338500183880e-03 0.0 
4.338500183880e-03 3.154976766893e-03 0.0 
0.0 0.0 3.558955770436e-04 
-8.705278561162e-04 5.836505968730e-03 0.0 
5.836505968730e-03 1.503189776596e-03 0.0 
0.0 0.0 4.238834777539e-04 
-2.373125536699e-03 7.734346801602e-03 0.0 
7.734346801602e-03 3.183354291557e-03 0.0 
0.0 0.0 3.870304660793e-04 
4.623377258567e-03 2.912106745258e-03 0.0 
2.912106745258e-03 -4.101909493972e-03 0.0 
0.0 0.0 3.635160945288e-04 
2.647352059173e-03 8.606600341019e-03 0.0 
8.606600341019e-03 -2.151463081750e-03 0.0 
0.0 0.0 6.463828909721e-04 
-1.279649720398e-03 3.114348757896e-03 0.0 
3.114348757896e-03 1.788147492727e-03 0.0 
0.0 0.0 4.929480895458e-04 
3.728746126107e-03 6.818118285347e-03 0.0 
6.818118285347e-03 -3.329928196887e-03 0.0 
0.0 0.0 4.636729358565e-04 
3.367866152685e-03 7.382846687483e-03 0.0 
7.382846687483e-03 -2.980207630914e-03 0.0 
0.0 0.0 4.730331988282e-04 
4.718402723216e-03 3.381174955268e-03 0.0 
3.381174955268e-03 -4.255572588180e-03 0.0 
0.0 0.0 4.027425287610e-04 
-2.283052023419e-03 4.883205488027e-03 0.0 
4.883205488027e-03 2.854728369814e-03 0.0 
0.0 0.0 3.686459971606e-04 
2.077536527691e-03 9.431764624904e-03 0.0 
9.431764624904e-03 -1.102078353068e-03 0.0 
0.0 0.0 3.155288851697e-04 
3.801990957722e-03 7.344426539284e-03 0.0 
7.344426539284e-03 -3.434274088324e-03 0.0 
0.0 0.0 5.264237091129e-04 
2.227726851811e-03 9.163991361311e-03 0.0 
9.163991361311e-03 -1.118829999510e-03 0.0 
0.0 0.0 2.835441099797e-04 
3.418320167848e-03 6.077766716515e-03 0.0 
6.077766716515e-03 -3.022326456757e-03 0.0 
0.0 0.0 6.860752520635e-04 
2.315422544176e-03 8.736164875121e-03 0.0 
8.736164875121e-03 -1.826714378826e-03 0.0 
0.0 0.0 7.311469580462e-04 
4.852716244776e-03 3.093428410759e-03 0.0 
3.093428410759e-03 -4.457606271946e-03 0.0 
0.0 0.0 4.294484813327e-04 
3.376621934859e-03 -4.803753278857e-04 0.0 
-4.803753278857e-04 -2.529017269386e-03 0.0 
0.0 0.0 1.559709349115e-04 
-7.297686454871e-04 7.163975838226e-03 0.0 
7.163975838226e-03 1.352209866025e-03 0.0 
0.0 0.0 4.389752084352e-04 
1.509251283663e-03 9.883050193333e-03 0.0 
9.883050193333e-03 -5.483601536573e-04 0.0 
0.0 0.0 3.310532160111e-04 
4.468548442560e-03 2.505394077502e-03 0.0 
2.505394077502e-03 -4.173616894143e-03 0.0 
0.0 0.0 4.700577215111e-04 
2.618918260641e-03 8.357644200973e-03 0.0 
8.357644200973e-03 -2.155381420426e-03 0.0 
0.0 0.0 7.267601195327e-04 
-2.532699744129e-03 4.674235347551e-03 0.0 
4.674235347551e-03 3.156944255660e-03 0.0 
0.0 0.0 3.697326465883e-04 
2.066258176509e-03 1.317983237683e-03 0.0 
1.317983237683e-03 -1.713235031474e-03 0.0 
0.0 0.0 7.626864413262e-04 
4.091079902477e-03 5.435581854622e-03 0.0 
5.435581854622e-03 -3.546414151564e-03 0.0 
0.0 0.0 3.883984275910e-04 
3.262015655969e-03 -4.249795639724e-04 0.0 
-4.249795639724e-04 -2.295101493063e-03 0.0 
0.0 0.0 1.216381341859e-04 
1.260831984100e-03 4.443453193124e-04 0.0 
4.443453193124e-04 -8.550523648105e-04 0.0 
0.0 0.0 8.783673122523e-04 
2.021599344293e-03 8.374071988774e-03 0.0 
8.374071988774e-03 -1.622240681901e-03 0.0 
0.0 0.0 4.687137263283e-04 
3.756942177592e-03 6.850922971860e-03 0.0 
6.850922971860e-03 -3.345876970754e-03 0.0 
0.0 0.0 5.955645411971e-04 
2.208721986636e-03 9.596814677582e-03 0.0 
9.596814677582e-03 -1.722492062737e-03 0.0 
0.0 0.0 6.596557890646e-04 
2.551541643165e-03 -4.777014251773e-04 0.0 
-4.777014251773e-04 -1.609238410244e-03 0.0 
0.0 0.0 7.548438291208e-05 
2.108978532561e-03 1.418525142972e-03 0.0 
1.418525142972e-03 -1.755724403461e-03 0.0 
0.0 0.0 7.437437629433e-04 
4.122695031784e-03 4.451235920765e-03 0.0 
4.451235920765e-03 -3.261535782709e-03 0.0 
0.0 0.0 2.731132401199e-04 
-2.995735480242e-03 4.773334191815e-03 0.0 
4.773334191815e-03 3.869413393234e-03 0.0 
0.0 0.0 3.472268058366e-04 
2.555858857437e-03 7.353410588436e-04 0.0 
7.353410588436e-04 -2.277807899999e-03 0.0 
0.0 0.0 6.105920599420e-04 
4.954633016514e-03 3.533403768150e-03 0.0 
3.533403768150e-03 -4.509246431174e-03 0.0 
0.0 0.0 4.246981107578e-04 
1.473348938153e-03 7.285753909447e-04 0.0 
7.285753909447e-04 -1.094859469874e-03 0.0 
0.0 0.0 8.352750157589e-04 
3.459247851243e-03 7.624462933082e-03 0.0 
7.624462933082e-03 -3.098467537274e-03 0.0 
0.0 0.0 4.996632569566e-04 
4.891261871774e-03 3.084565664793e-03 0.0 
3.084565664793e-03 -4.384606594801e-03 0.0 
0.0 0.0 3.877802872238e-04 
1.823385502830e-03 8.461764453620e-03 0.0 
8.461764453620e-03 -1.253676999838e-03 0.0 
0.0 0.0 4.228994820527e-04 
3.074060473284e-03 -9.606090669716e-04 0.0 
-9.606090669716e-04 -2.224074002992e-03 0.0 
0.0 0.0 1.321711999277e-04 
2.218861050591e-03 8.897216831552e-03 0.0 
8.897216831552e-03 -1.738375868228e-03 0.0 
0.0 0.0 5.090812664678e-04 
3.432473311031e-03 5.773943058008e-03 0.0 
5.773943058008e-03 -3.014964702449e-03 0.0 
0.0 0.0 6.677042489974e-04 
1.285385029737e-03 1.056697231307e-02 0.0 
1.056697231307e-02 -7.382775025706e-04 0.0 
0.0 0.0 6.481242865897e-04 
2.333185250244e-03 9.176738703065e-03 0.0 
9.176738703065e-03 -1.836605751175e-03 0.0 
0.0 0.0 5.684467980836e-04 
4.501123879077e-03 1.590513411255e-03 0.0 
1.590513411255e-03 -3.905619790655e-03 0.0 
0.0 0.0 3.100438746397e-04 
1.837120122272e-03 8.935139950289e-04 0.0 
8.935139950289e-04 -1.490169524829e-03 0.0 
0.0 0.0 7.612124199441e-04 
-9.331406170035e-04 3.932865223850e-03 0.0 
3.932865223850e-03 1.581026611626e-03 0.0 
0.0 0.0 3.656981321865e-04 
2.048018531313e-03 6.388521253704e-03 0.0 
6.388521253704e-03 -1.574307580307e-03 0.0 
0.0 0.0 8.359227368793e-04 
3.210130468475e-03 6.361040791116e-03 0.0 
6.361040791116e-03 -2.775079432347e-03 0.0 
0.0 0.0 6.881775557997e-04 
4.384115985437e-03 4.993302640094e-03 0.0 
4.993302640094e-03 -3.906507251810e-03 0.0 
0.0 0.0 4.180330572236e-04 
2.003742343906e-03 8.619124728449e-03 0.0 
8.619124728449e-03 -1.504265481275e-03 0.0 
0.0 0.0 4.586023843142e-04 
1.283785976467e-03 3.931838256717e-04 0.0 
3.931838256717e-04 -9.120784662238e-04 0.0 
0.0 0.0 8.507823526327e-04 
1.728104363147e-03 1.038579870564e-04 0.0 
1.038579870564e-04 -1.472105069941e-03 0.0 
0.0 0.0 5.547488956233e-04 
2.571925991350e-03 8.929936602065e-03 0.0 
8.929936602065e-03 -2.133426608160e-03 0.0 
0.0 0.0 5.990548956578e-04 
-2.793013725293e-03 3.687757656978e-03 0.0 
3.687757656978e-03 3.529747633587e-03 0.0 
0.0 0.0 3.232418396166e-04 
1.628599859734e-03 8.840603391242e-04 0.0 
8.840603391242e-04 -1.258376781705e-03 0.0 
0.0 0.0 8.106741469612e-04 
2.051883656377e-03 1.576587890004e-03 0.0 
1.576587890004e-03 -1.684962514558e-03 0.0 
0.0 0.0 7.889186086565e-04 
-2.936808170225e-03 1.904923212464e-04 0.0 
1.904923212464e-04 4.802892084580e-03 0.0 
0.0 0.0 1.074355367567e-04 
-2.906914312105e-03 8.693537140938e-05 0.0 
8.693537140938e-05 4.739750655016e-03 0.0 
0.0 0.0 1.080370760365e-04 
-1.411761346360e-03 7.798127352839e-03 0.0 
7.798127352839e-03 2.099044688979e-03 0.0 
0.0 0.0 4.032829034237e-04 
2.445134520259e-03 8.694602379003e-03 0.0 
8.694602379003e-03 -2.027700807274e-03 0.0 
0.0 0.0 5.485398199198e-04 
2.263839364483e-03 6.169472478068e-04 0.0 
6.169472478068e-04 -1.976607919888e-03 0.0 
0.0 0.0 6.344310397043e-04 
1.220317779392e-04 8.590970309511e-03 0.0 
8.590970309511e-03 4.893256491941e-04 0.0 
0.0 0.0 4.243863538477e-04 
3.792587336026e-03 7.078035859828e-03 0.0 
7.078035859828e-03 -3.428080467901e-03 0.0 
0.0 0.0 4.890571538273e-04 
2.223673937089e-03 3.718475374568e-03 0.0 
3.718475374568e-03 -1.833537478061e-03 0.0 
0.0 0.0 8.365293713677e-04 
4.358558492429e-03 5.474381599745e-03 0.0 
5.474381599745e-03 -3.920848210213e-03 0.0 
0.0 0.0 4.393476455715e-04 
1.905578509354e-04 9.162440256652e-03 0.0 
9.162440256652e-03 4.803752965446e-04 0.0 
0.0 0.0 6.237244590461e-04 
-3.518041911892e-03 8.501210388132e-03 0.0 
8.501210388132e-03 5.229997686898e-03 0.0 
0.0 0.0 3.485315739452e-04 
3.491285370979e-03 7.043546273198e-03 0.0 
7.043546273198e-03 -2.997588431853e-03 0.0 
0.0 0.0 4.350558949753e-04 
2.638370587610e-03 7.822206908670e-04 0.0 
7.822206908670e-04 -2.347051164390e-03 0.0 
0.0 0.0 5.696713451831e-04 
4.397930992120e-03 1.986539821429e-03 0.0 
1.986539821429e-03 -3.690893877970e-03 0.0 
0.0 0.0 2.839803044955e-04 
3.106726392571e-03 7.102325622425e-04 0.0 
7.102325622425e-04 -2.860830276656e-03 0.0 
0.0 0.0 5.372421186758e-04 
2.221797517907e-03 8.466223050504e-03 0.0 
8.466223050504e-03 -1.828297477906e-03 0.0 
0.0 0.0 5.030643013226e-04 
1.050687202115e-03 8.814299127201e-03 0.0 
8.814299127201e-03 -6.010128042879e-04 0.0 
0.0 0.0 4.577563887773e-04 
-2.720571750509e-03 4.909736466324e-03 0.0 
4.909736466324e-03 3.459821901340e-03 0.0 
0.0 0.0 3.610948819368e-04 
5.849514329944e-04 8.689052341616e-03 0.0 
8.689052341616e-03 -1.228883069623e-04 0.0 
0.0 0.0 4.956413294019e-04 
4.324081497493e-04 8.800022277984e-03 0.0 
8.800022277984e-03 8.267608956605e-05 0.0 
0.0 0.0 4.692043551732e-04 
3.860869704907e-03 1.060433254495e-04 0.0 
1.060433254495e-04 -2.760270190186e-03 0.0 
0.0 0.0 1.351584031518e-04 
3.119649645231e-03 5.052797255052e-04 0.0 
5.052797255052e-04 -2.864974983290e-03 0.0 
0.0 0.0 4.544743931847e-04 
1.751951522028e-03 9.742661299528e-03 0.0 
9.742661299528e-03 -5.835340814143e-04 0.0 
0.0 0.0 2.909446683714e-04 
-6.817310871852e-04 8.402313659165e-03 0.0 
8.402313659165e-03 1.158472803163e-03 0.0 
0.0 0.0 4.525329099650e-04 
-7.100445229160e-04 8.238298708853e-03 0.0 
8.238298708853e-03 1.347218507020e-03 0.0 
0.0 0.0 4.117716737291e-04 
2.720284072282e-03 5.332987838315e-03 0.0 
5.332987838315e-03 -2.310182631972e-03 0.0 
0.0 0.0 7.838768887840e-04 
3.251803083419e-03 -1.442470421663e-04 0.0 
-1.442470421663e-04 -2.810732699085e-03 0.0 
0.0 0.0 2.154406989848e-04 
4.019785236970e-03 -2.362566166033e-04 0.0 
-2.362566166033e-04 -3.309965229837e-03 0.0 
0.0 0.0 2.281620922148e-04 
2.459650568548e-03 8.114219965648e-03 0.0 
8.114219965648e-03 -2.045294072199e-03 0.0 
0.0 0.0 4.613563199890e-04 
3.009955901289e-03 4.889054731648e-04 0.0 
4.889054731648e-04 -2.777405093488e-03 0.0 
0.0 0.0 5.095492585518e-04 
-2.394974937433e-03 1.496265830862e-02 0.0 
1.496265830862e-02 7.416770675550e-03 0.0 
0.0 0.0 1.677603970310e-04 
-3.808100732422e-03 1.538506350234e-02 0.0 
1.538506350234e-02 9.906919280612e-03 0.0 
0.0 0.0 1.547717689406e-04 
-2.651912581506e-03 5.318135244693e-03 0.0 
5.318135244693e-03 3.441019279302e-03 0.0 
0.0 0.0 3.587475900390e-04 
3.697287012770e-03 2.127933600461e-03 0.0 
2.127933600461e-03 -2.731735113301e-03 0.0 
0.0 0.0 1.714623511864e-04 
2.578065125429e-03 5.597800238728e-04 0.0 
5.597800238728e-04 -2.299419149466e-03 0.0 
0.0 0.0 5.416493114947e-04 
3.194487577013e-03 3.851663691727e-03 0.0 
3.851663691727e-03 -2.820646114069e-03 0.0 
0.0 0.0 7.166483213260e-04 
4.217394247270e-03 2.190600374657e-04 0.0 
2.190600374657e-04 -3.384548481804e-03 0.0 
0.0 0.0 2.168692675801e-04 
1.592899161035e-03 9.168968661185e-03 0.0 
9.168968661185e-03 -1.136955245390e-03 0.0 
0.0 0.0 8.392449516642e-04 
-1.769112250444e-03 3.904660102240e-03 0.0 
3.904660102240e-03 2.272742553799e-03 0.0 
0.0 0.0 4.322918947157e-04 
2.427241443704e-03 3.730182303100e-04 0.0 
3.730182303100e-04 -2.175228179405e-03 0.0 
0.0 0.0 5.546728724397e-04 
1.663844269730e-03 7.795281014791e-04 0.0 
7.795281014791e-04 -1.311202041372e-03 0.0 
0.0 0.0 7.715095568543e-04 
3.838514837496e-03 7.064486276333e-05 0.0 
7.064486276333e-05 -2.478530524742e-03 0.0 
0.0 0.0 9.305597092958e-05 
3.259740304930e-03 3.348312634887e-03 0.0 
3.348312634887e-03 -2.902054662335e-03 0.0 
0.0 0.0 6.945328210515e-04 
2.245544493424e-03 8.234436276705e-03 0.0 
8.234436276705e-03 -1.671298464461e-03 0.0 
0.0 0.0 4.171033541892e-04 
3.847009855939e-03 4.737387308917e-05 0.0 
4.737387308917e-05 -2.480954888505e-03 0.0 
0.0 0.0 9.316456737909e-05 
-1.646704047134e-03 3.926976545040e-03 0.0 
3.926976545040e-03 2.193328943010e-03 0.0 
0.0 0.0 3.613528500712e-04 
3.873981168566e-03 -5.522980308359e-05 0.0 
-5.522980308359e-05 -3.082584495906e-03 0.0 
0.0 0.0 2.042616713693e-04 
-3.851683358136e-04 8.586409643948e-03 0.0 
8.586409643948e-03 1.087090963529e-03 0.0 
0.0 0.0 3.958254286645e-04 
1.333158755529e-03 8.734598109419e-03 0.0 
8.734598109419e-03 -6.687259531670e-04 0.0 
0.0 0.0 3.928825646782e-04 
4.607161943042e-03 2.492512661456e-03 0.0 
2.492512661456e-03 -4.339626436693e-03 0.0 
0.0 0.0 4.968630070363e-04 
3.435380662360e-03 2.189662062429e-03 0.0 
2.189662062429e-03 -3.111281988729e-03 0.0 
0.0 0.0 5.883415533890e-04 
-1.266955777426e-03 4.634641994266e-03 0.0 
4.634641994266e-03 1.868954598960e-03 0.0 
0.0 0.0 3.882994942033e-04 
3.060478913444e-03 2.294381368971e-03 0.0 
2.294381368971e-03 -2.720536847908e-03 0.0 
0.0 0.0 6.501782316036e-04 
2.980291128530e-03 7.813028533898e-03 0.0 
7.813028533898e-03 -2.606323178242e-03 0.0 
0.0 0.0 4.807372905882e-04 
2.660730211840e-03 7.857268716804e-03 0.0 
7.857268716804e-03 -2.087381694110e-03 0.0 
0.0 0.0 4.090121237756e-04 
1.980854813196e-04 1.262349880797e-03 0.0 
1.262349880797e-03 -8.985204361397e-05 0.0 
0.0 0.0 1.413871322373e-05 
3.838935769259e-03 -1.149922176599e-04 0.0 
-1.149922176599e-04 -2.925029166437e-03 0.0 
0.0 0.0 1.724198679094e-04 
2.602755858299e-03 9.132118270829e-03 0.0 
9.132118270829e-03 -2.112707822346e-03 0.0 
0.0 0.0 6.147790185026e-04 
-2.764917317332e-03 7.237615599001e-03 0.0 
7.237615599001e-03 3.932058987964e-03 0.0 
0.0 0.0 3.374890930678e-04 
2.596017605394e-03 8.924619787855e-03 0.0 
8.924619787855e-03 -2.135408639560e-03 0.0 
0.0 0.0 6.867406909825e-04 
4.204588947650e-03 5.068792373437e-03 0.0 
5.068792373437e-03 -3.300732847425e-03 0.0 
0.0 0.0 2.841429967164e-04 
-1.116806134614e-03 7.258475571336e-03 0.0 
7.258475571336e-03 1.660396555486e-03 0.0 
0.0 0.0 4.262143878789e-04 
2.256074775140e-03 9.415912277241e-03 0.0 
9.415912277241e-03 -1.745414190224e-03 0.0 
0.0 0.0 6.312935025252e-04 
-4.303780943628e-03 1.219881744911e-02 0.0 
1.219881744911e-02 7.261860975868e-03 0.0 
0.0 0.0 3.880069745209e-04 
2.511700275518e-03 9.065002761125e-03 0.0 
9.065002761125e-03 -2.058306237742e-03 0.0 
0.0 0.0 6.576028689566e-04 
1.637964173719e-03 7.230168798063e-04 0.0 
7.230168798063e-04 -1.281804153375e-03 0.0 
0.0 0.0 7.842454119907e-04 
2.776835058502e-03 8.438817798421e-03 0.0 
8.438817798421e-03 -2.377512665284e-03 0.0 
0.0 0.0 5.302641685472e-04 
2.891793082189e-03 6.625936363657e-04 0.0 
6.625936363657e-04 -2.618391338098e-03 0.0 
0.0 0.0 5.117475667062e-04 
2.866512732442e-03 8.611560540652e-04 0.0 
8.611560540652e-04 -2.597627512814e-03 0.0 
0.0 0.0 5.871595161731e-04 
-8.982624656250e-04 7.592770197066e-03 0.0 
7.592770197066e-03 1.446562616863e-03 0.0 
0.0 0.0 5.724142988537e-04 
3.783507818157e-03 2.014802920242e-03 0.0 
2.014802920242e-03 -3.476955891178e-03 0.0 
0.0 0.0 5.296953772210e-04 
1.600670807295e-03 8.568512446521e-03 0.0 
8.568512446521e-03 -1.202880557266e-03 0.0 
0.0 0.0 4.747152769324e-04 
4.358228452007e-03 6.135367978594e-03 0.0 
6.135367978594e-03 -4.007435570712e-03 0.0 
0.0 0.0 4.917018373523e-04 
2.663847650074e-03 2.305892858101e-03 0.0 
2.305892858101e-03 -2.309809908749e-03 0.0 
0.0 0.0 7.150580178846e-04 
3.826608739528e-03 6.425354167530e-03 0.0 
6.425354167530e-03 -3.339469916385e-03 0.0 
0.0 0.0 4.298793735022e-04 
4.786982031253e-03 1.822408678636e-03 0.0 
1.822408678636e-03 -4.176589100712e-03 0.0 
0.0 0.0 3.279742913794e-04 
4.445819329843e-03 3.683990915698e-03 0.0 
3.683990915698e-03 -4.123899555830e-03 0.0 
0.0 0.0 5.233155572711e-04 
4.781304189423e-03 2.628261945063e-03 0.0 
2.628261945063e-03 -4.201387456581e-03 0.0 
0.0 0.0 3.475259803151e-04 
-8.331683152354e-05 8.486078201433e-03 0.0 
8.486078201433e-03 5.396711075945e-04 0.0 
0.0 0.0 4.670022776946e-04 
4.661694868692e-03 2.088849173630e-03 0.0 
2.088849173630e-03 -4.146780214270e-03 0.0 
0.0 0.0 3.507894740599e-04 
4.846096197729e-04 8.710088659277e-03 0.0 
8.710088659277e-03 1.513135702235e-04 0.0 
0.0 0.0 4.122876160456e-04 
2.953754231012e-03 5.670849096499e-03 0.0 
5.670849096499e-03 -2.515645494041e-03 0.0 
0.0 0.0 7.217424968046e-04 
3.161745872304e-03 5.404900300259e-03 0.0 
5.404900300259e-03 -2.768831743615e-03 0.0 
0.0 0.0 7.281281054613e-04 
4.062034108261e-03 6.186648794814e-03 0.0 
6.186648794814e-03 -3.647240642798e-03 0.0 
0.0 0.0 4.531597103889e-04 
-2.881508425543e-03 5.731031787319e-03 0.0 
5.731031787319e-03 3.686409079982e-03 0.0 
0.0 0.0 3.741464621814e-04 
1.505475854891e-03 6.344833659848e-04 0.0 
6.344833659848e-04 -1.144922395545e-03 0.0 
0.0 0.0 7.972784111630e-04 
1.484822977246e-03 5.867402772389e-04 0.0 
5.867402772389e-04 -1.119640632389e-03 0.0 
0.0 0.0 8.078172913943e-04 
3.133231115466e-03 1.277446183932e-03 0.0 
1.277446183932e-03 -2.196794206437e-03 0.0 
0.0 0.0 1.235108012872e-04 
8.773357490244e-04 8.682973435322e-03 0.0 
8.682973435322e-03 -4.412611066602e-04 0.0 
0.0 0.0 4.902436308017e-04 
1.255301387435e-03 5.045631817298e-04 0.0 
5.045631817298e-04 -8.653072228792e-04 0.0 
0.0 0.0 8.823783342127e-04 
1.363612398842e-03 9.065540912982e-03 0.0 
9.065540912982e-03 3.659262750427e-04 0.0 
0.0 0.0 1.576369656961e-04 
2.209224981340e-03 4.465159291685e-04 0.0 
4.465159291685e-04 -1.936061347207e-03 0.0 
0.0 0.0 6.071791305770e-04 
3.927268327167e-04 7.734099156151e-04 0.0 
7.734099156151e-04 -6.934047693527e-05 0.0 
0.0 0.0 -1.850387589829e-05 
1.374688887629e-03 5.081719912864e-04 0.0 
5.081719912864e-04 -1.007546119350e-03 0.0 
0.0 0.0 8.246493250974e-04 
4.658820567176e-03 2.162869465547e-03 0.0 
2.162869465547e-03 -3.963398376635e-03 0.0 
0.0 0.0 3.063125619247e-04 
1.613327443953e-03 2.885945289291e-05 0.0 
2.885945289291e-05 -1.368852764998e-03 0.0 
0.0 0.0 5.722209463962e-04 
3.753263065273e-03 7.183735911780e-03 0.0 
7.183735911780e-03 -3.356514740835e-03 0.0 
0.0 0.0 6.073019916654e-04 
-2.779852025134e-03 5.999244325740e-03 0.0 
5.999244325740e-03 3.656530440137e-03 0.0 
0.0 0.0 3.563960070906e-04 
-3.042624686304e-03 6.400836538877e-03 0.0 
6.400836538877e-03 3.998944593588e-03 0.0 
0.0 0.0 3.595713372816e-04 
2.593256097247e-03 8.217490946598e-03 0.0 
8.217490946598e-03 -2.217253766789e-03 0.0 
0.0 0.0 4.868209056510e-04 
-1.003884572553e-03 1.215178111122e-02 0.0 
1.215178111122e-02 4.535060745950e-03 0.0 
0.0 0.0 1.448265839074e-04 
-1.550872657182e-03 1.373904520702e-02 0.0 
1.373904520702e-02 5.810315902433e-03 0.0 
0.0 0.0 1.574791049200e-04 
1.367187319457e-03 4.607224969438e-04 0.0 
4.607224969438e-04 -9.914617198752e-04 0.0 
0.0 0.0 8.284797612061e-04 
3.337045943646e-03 2.451884155000e-03 0.0 
2.451884155000e-03 -3.014198861135e-03 0.0 
0.0 0.0 6.546934649479e-04 
4.361319703862e-03 2.841820413890e-03 0.0 
2.841820413890e-03 -4.070420807931e-03 0.0 
0.0 0.0 5.449109124216e-04 
3.324660109199e-03 3.582450582975e-03 0.0 
3.582450582975e-03 -2.960925699366e-03 0.0 
0.0 0.0 6.686359126649e-04 
4.734237665034e-03 3.382523366433e-03 0.0 
3.382523366433e-03 -4.430353908873e-03 0.0 
0.0 0.0 4.670198863410e-04 
4.510899901709e-03 2.453254043319e-03 0.0 
2.453254043319e-03 -3.911022497653e-03 0.0 
0.0 0.0 3.232942144187e-04 
-6.656426778941e-04 1.226424782055e-02 0.0 
1.226424782055e-02 4.475118134558e-03 0.0 
0.0 0.0 1.088374526076e-04 
-3.126791271487e-03 7.794233310551e-03 0.0 
7.794233310551e-03 4.789308286072e-03 0.0 
0.0 0.0 3.150852478853e-04 
-3.058577269932e-03 8.843913865023e-05 0.0 
8.843913865023e-05 4.876873125021e-03 0.0 
0.0 0.0 1.434138774713e-04 
3.191028890671e-03 5.224471814486e-03 0.0 
5.224471814486e-03 -2.775477601223e-03 0.0 
0.0 0.0 7.077944463966e-04 
4.128950228886e-03 5.736775822737e-03 0.0 
5.736775822737e-03 -3.646441049881e-03 0.0 
0.0 0.0 4.243262522779e-04 
2.311580300841e-03 6.063343768203e-03 0.0 
6.063343768203e-03 -1.867781674839e-03 0.0 
0.0 0.0 8.346365279897e-04 
1.261604977068e-03 1.549626980447e-04 0.0 
1.549626980447e-04 -8.991604264432e-04 0.0 
0.0 0.0 8.174015419331e-04 
4.588354621793e-03 3.737113169061e-03 0.0 
3.737113169061e-03 -4.280523820390e-03 0.0 
0.0 0.0 5.281541067257e-04 
1.208951331920e-03 5.508136939310e-04 0.0 
5.508136939310e-04 -8.010785014039e-04 0.0 
0.0 0.0 9.106347047464e-04 
4.793420092826e-03 1.847563483124e-03 0.0 
1.847563483124e-03 -4.344416250714e-03 0.0 
0.0 0.0 3.790621764561e-04 
2.453287068926e-03 6.894993700619e-03 0.0 
6.894993700619e-03 -2.014335862540e-03 0.0 
0.0 0.0 7.974621957414e-04 
2.752787096352e-03 7.988919656442e-03 0.0 
7.988919656442e-03 -2.248127227900e-03 0.0 
0.0 0.0 4.441695013090e-04 
3.181569016523e-03 8.223305691528e-03 0.0 
8.223305691528e-03 -2.781706813096e-03 0.0 
0.0 0.0 5.658600575374e-04 
2.379840192422e-03 3.192860413566e-03 0.0 
3.192860413566e-03 -1.978014694519e-03 0.0 
0.0 0.0 7.977715338434e-04 
3.803459193743e-03 2.768205482722e-04 0.0 
2.768205482722e-04 -3.610245221547e-03 0.0 
0.0 0.0 4.132669644075e-04 
1.215688224712e-03 8.670039559303e-03 0.0 
8.670039559303e-03 -8.036926940175e-04 0.0 
0.0 0.0 4.835694065844e-04 
4.620068353244e-03 3.100350703629e-03 0.0 
3.100350703629e-03 -4.333251536722e-03 0.0 
0.0 0.0 5.140588850248e-04 
8.952658776604e-04 8.784159530261e-03 0.0 
8.784159530261e-03 -2.354557064857e-04 0.0 
0.0 0.0 4.010286656503e-04 
3.932071442815e-03 5.439141023781e-03 0.0 
5.439141023781e-03 -3.050862655746e-03 0.0 
0.0 0.0 2.805104089682e-04 
3.433210127544e-03 8.032497970294e-03 0.0 
8.032497970294e-03 -3.026816381240e-03 0.0 
0.0 0.0 5.955345925016e-04 
4.743749446074e-03 2.749211372961e-03 0.0 
2.749211372961e-03 -4.441521756894e-03 0.0 
0.0 0.0 4.460339860602e-04 
2.335772880249e-03 6.489624634037e-04 0.0 
6.489624634037e-04 -2.038436776073e-03 0.0 
0.0 0.0 5.979575621340e-04 
6.063475793667e-04 8.768671689121e-03 0.0 
8.768671689121e-03 -1.662460612213e-04 0.0 
0.0 0.0 4.634603059287e-04 
1.245892981368e-03 -1.308759823135e-04 0.0 
-1.308759823135e-04 -7.548217533402e-04 0.0 
0.0 0.0 3.130008242171e-05 
4.243769556070e-03 6.413913575011e-03 0.0 
6.413913575011e-03 -3.884965061931e-03 0.0 
0.0 0.0 5.355800186250e-04 
1.353199048802e-03 1.324248129695e-03 0.0 
1.324248129695e-03 -8.290048196590e-04 0.0 
0.0 0.0 3.445657819828e-05 
3.594996715118e-03 -1.908205471658e-04 0.0 
-1.908205471658e-04 -2.708965476529e-03 0.0 
0.0 0.0 1.489039870663e-04 
2.281856453906e-03 4.572622816056e-04 0.0 
4.572622816056e-04 -1.997685863137e-03 0.0 
0.0 0.0 5.695245479094e-04 
1.613189434091e-03 9.448725070379e-03 0.0 
9.448725070379e-03 -1.103347477863e-03 0.0 
0.0 0.0 5.535890921471e-04 
-2.586212733502e-03 6.924400248785e-03 0.0 
6.924400248785e-03 3.326937187772e-03 0.0 
0.0 0.0 3.989778296868e-04 
-4.722792123142e-04 9.067496472878e-03 0.0 
9.067496472878e-03 2.937345201518e-03 0.0 
0.0 0.0 1.061760353101e-04 
5.789225165499e-04 9.646050994585e-03 0.0 
9.646050994585e-03 1.805294588491e-04 0.0 
0.0 0.0 4.123234025273e-04 
1.289569566536e-04 1.074757697016e-03 0.0 
1.074757697016e-03 -7.459458953525e-05 0.0 
0.0 0.0 2.031028953264e-05 
-6.431205739032e-04 1.047816436617e-02 0.0 
1.047816436617e-02 3.596368442524e-03 0.0 
0.0 0.0 1.215386750084e-04 
4.157840788792e-03 2.776805862260e-03 0.0 
2.776805862260e-03 -3.845334279632e-03 0.0 
0.0 0.0 5.268848426013e-04 
2.147344832108e-03 3.086676332064e-04 0.0 
3.086676332064e-04 -1.887075377171e-03 0.0 
0.0 0.0 5.789447133892e-04 
-5.203028037526e-04 1.244640179825e-02 0.0 
1.244640179825e-02 3.138927467358e-03 0.0 
0.0 0.0 2.199249367200e-04 
4.934148607229e-03 1.291351939975e-03 0.0 
1.291351939975e-03 -4.503154368307e-03 0.0 
0.0 0.0 3.818589806571e-04 
3.688851177448e-03 2.305793387559e-03 0.0 
2.305793387559e-03 -3.389711601563e-03 0.0 
0.0 0.0 6.052377875068e-04 
2.380358532586e-03 8.380719485118e-03 0.0 
8.380719485118e-03 -1.877599021044e-03 0.0 
0.0 0.0 4.541413224433e-04 
4.002465676320e-03 6.587228096108e-03 0.0 
6.587228096108e-03 -3.622213816344e-03 0.0 
0.0 0.0 5.894985935823e-04 
7.893554996329e-04 9.358586072775e-03 0.0 
9.358586072775e-03 -2.378479453916e-04 0.0 
0.0 0.0 5.224064453861e-04 
3.841339819389e-03 1.834218170948e-03 0.0 
1.834218170948e-03 -2.749329406652e-03 0.0 
0.0 0.0 1.646037161484e-04 
2.505277050623e-03 3.756709591440e-04 0.0 
3.756709591440e-04 -2.240350136026e-03 0.0 
0.0 0.0 5.141680842973e-04 
1.976249182697e-03 2.470867105754e-04 0.0 
2.470867105754e-04 -1.698417401735e-03 0.0 
0.0 0.0 5.702225419482e-04 
3.589490198639e-03 -1.795633381067e-04 0.0 
-1.795633381067e-04 -3.332808922715e-03 0.0 
0.0 0.0 3.182444035152e-04 
-3.849973122929e-03 9.627086527654e-03 0.0 
9.627086527654e-03 6.276643327864e-03 0.0 
0.0 0.0 3.215032337784e-04 
-2.321482313016e-03 7.476131926877e-03 0.0 
7.476131926877e-03 3.250166732670e-03 0.0 
0.0 0.0 3.541393228096e-04 
1.333990858179e-03 5.660866369163e-05 0.0 
5.660866369163e-05 -1.013345818153e-03 0.0 
0.0 0.0 7.450957934342e-04 
4.109959552871e-03 3.326180244543e-05 0.0 
3.326180244543e-05 -2.534492126686e-03 0.0 
0.0 0.0 9.256989315643e-05 
2.077548461504e-03 -9.174585134178e-04 0.0 
-9.174585134178e-04 -1.184254674297e-03 0.0 
0.0 0.0 5.071309813894e-05 
3.630475041511e-03 -3.499867281983e-04 0.0 
-3.499867281983e-04 -3.076082206005e-03 0.0 
0.0 0.0 2.216074699010e-04 
1.922175820529e-03 2.624074677450e-04 0.0 
2.624074677450e-04 -1.651465517932e-03 0.0 
0.0 0.0 5.998825249096e-04 
4.883141001377e-03 2.364904108553e-03 0.0 
2.364904108553e-03 -4.492832833945e-03 0.0 
0.0 0.0 4.174959172598e-04 
4.800589348297e-03 1.105278267389e-03 0.0 
1.105278267389e-03 -4.412118701433e-03 0.0 
0.0 0.0 3.864190385221e-04 
4.630340474325e-03 1.335593228631e-03 0.0 
1.335593228631e-03 -4.123020206348e-03 0.0 
0.0 0.0 3.349458533713e-04 
2.025338606781e-03 3.760768179217e-04 0.0 
3.760768179217e-04 -1.735176766703e-03 0.0 
0.0 0.0 5.981600810963e-04 
-1.665332321152e-03 7.352769512189e-03 0.0 
7.352769512189e-03 2.168674730333e-03 0.0 
0.0 0.0 4.353306703591e-04 
1.783467092303e-03 2.042306319883e-04 0.0 
2.042306319883e-04 -1.500238029635e-03 0.0 
0.0 0.0 5.996587463586e-04 
5.013908018946e-03 2.781090831742e-03 0.0 
2.781090831742e-03 -4.551363088549e-03 0.0 
0.0 0.0 4.060306414072e-04 
1.046153033535e-03 8.722683303971e-03 0.0 
8.722683303971e-03 -4.953244888064e-04 0.0 
0.0 0.0 4.420365927822e-04 
-3.768926184891e-03 2.298582543097e-03 0.0 
2.298582543097e-03 5.513850259660e-03 0.0 
0.0 0.0 2.252872216274e-04 
3.407913235137e-03 7.244544200734e-03 0.0 
7.244544200734e-03 -2.992078738820e-03 0.0 
0.0 0.0 6.638564430347e-04 
1.746619681076e-03 2.149647813449e-04 0.0 
2.149647813449e-04 -1.465374420474e-03 0.0 
0.0 0.0 6.209076107539e-04 
1.967247989804e-03 3.723351265674e-04 0.0 
3.723351265674e-04 -1.684574817331e-03 0.0 
0.0 0.0 6.290763840635e-04 
-2.196935437659e-04 6.543829719233e-03 0.0 
6.543829719233e-03 1.937815700348e-03 0.0 
0.0 0.0 6.775923288710e-05 
4.881334349622e-03 2.202423831448e-03 0.0 
2.202423831448e-03 -4.558517516269e-03 0.0 
0.0 0.0 4.384740751688e-04 
1.620820905758e-03 1.508559995433e-04 0.0 
1.508559995433e-04 -1.331726090664e-03 0.0 
0.0 0.0 6.271490562623e-04 
-1.794227056448e-03 2.074586346286e-04 0.0 
2.074586346286e-04 2.371809790373e-03 0.0 
0.0 0.0 1.986193048554e-04 
-2.100633129370e-03 1.390358127739e-04 0.0 
1.390358127739e-04 2.725426172251e-03 0.0 
0.0 0.0 1.856335648522e-04 
-3.010337899218e-04 7.733058662988e-03 0.0 
7.733058662988e-03 2.381991974123e-03 0.0 
0.0 0.0 8.371042430579e-05 
1.815780987425e-03 3.082652851966e-04 0.0 
3.082652851966e-04 -1.519716588811e-03 0.0 
0.0 0.0 6.271086149038e-04 
4.624390820511e-03 5.484091816434e-04 0.0 
5.484091816434e-04 -4.307694798086e-03 0.0 
0.0 0.0 3.886702081358e-04 
2.338206425468e-03 2.950124614118e-03 0.0 
2.950124614118e-03 -1.516363083584e-03 0.0 
0.0 0.0 9.812410717708e-05 
2.512147311557e-03 6.519095407396e-03 0.0 
6.519095407396e-03 -2.029703478741e-03 0.0 
0.0 0.0 7.460866245227e-04 
3.733999394139e-03 -6.171549898461e-04 0.0 
-6.171549898461e-04 -3.029662627924e-03 0.0 
0.0 0.0 1.915420047155e-04 
4.671929672917e-03 7.155211494589e-04 0.0 
7.155211494589e-04 -4.287447540485e-03 0.0 
0.0 0.0 3.694686512627e-04 
4.110295010353e-03 6.419355430830e-03 0.0 
6.419355430830e-03 -3.736379477946e-03 0.0 
0.0 0.0 4.842385501440e-04 
-1.308914030986e-05 9.130673345793e-03 0.0 
9.130673345793e-03 2.855739056271e-03 0.0 
0.0 0.0 5.355598202834e-05 
1.598440270442e-03 1.624786882037e-04 0.0 
1.624786882037e-04 -1.308566487994e-03 0.0 
0.0 0.0 6.408767958063e-04 
2.765294399765e-03 8.108689721147e-05 0.0 
8.108689721147e-05 -2.549125727981e-03 0.0 
0.0 0.0 2.707191066909e-04 
-3.860135979670e-03 9.030500779751e-03 0.0 
9.030500779751e-03 6.894189669843e-03 0.0 
0.0 0.0 2.362720469195e-04 
1.774103495759e-03 3.046431724845e-04 0.0 
3.046431724845e-04 -1.481163751889e-03 0.0 
0.0 0.0 6.500128494710e-04 
4.335132475795e-03 2.281367773884e-03 0.0 
2.281367773884e-03 -4.063603324726e-03 0.0 
0.0 0.0 5.277776161078e-04 
2.496073828691e-03 5.345934061966e-04 0.0 
5.345934061966e-04 -2.231035857712e-03 0.0 
0.0 0.0 5.831547425502e-04 
1.855319492471e-03 -6.181857710797e-04 0.0 
-6.181857710797e-04 -1.207500227980e-03 0.0 
0.0 0.0 7.396647304730e-05 
-6.439200388002e-04 2.239444156112e-04 0.0 
2.239444156112e-04 1.171801457857e-03 0.0 
0.0 0.0 3.750009841628e-04 
4.702552022015e-03 1.489649512670e-03 0.0 
1.489649512670e-03 -4.448968242578e-03 0.0 
0.0 0.0 4.361090317818e-04 
2.581330414382e-03 4.402300533282e-03 0.0 
4.402300533282e-03 -2.167381776202e-03 0.0 
0.0 0.0 7.808436962289e-04 
3.259698180106e-03 8.102436579794e-03 0.0 
8.102436579794e-03 -2.821856392309e-03 0.0 
0.0 0.0 5.215496535564e-04 
1.641143985477e-03 2.396628224301e-04 0.0 
2.396628224301e-04 -1.338564238664e-03 0.0 
0.0 0.0 6.544894482249e-04 
1.611567378564e-03 2.376503305242e-04 0.0 
2.376503305242e-04 -1.308767258029e-03 0.0 
0.0 0.0 6.715542195627e-04 
5.016163454498e-03 2.063183559709e-03 0.0 
2.063183559709e-03 -4.539675895981e-03 0.0 
0.0 0.0 3.863841034935e-04 
3.269683298366e-03 -6.520598588688e-04 0.0 
-6.520598588688e-04 -2.365804186914e-03 0.0 
0.0 0.0 1.274396116818e-04 
2.202141599711e-03 1.372827828750e-04 0.0 
1.372827828750e-04 -1.333806563835e-03 0.0 
0.0 0.0 5.600365133285e-05 
1.511476568735e-03 1.753565701038e-04 0.0 
1.753565701038e-04 -1.202039345089e-03 0.0 
0.0 0.0 6.813720767681e-04 
2.393217604468e-03 3.441426003936e-03 0.0 
3.441426003936e-03 -1.991307956760e-03 0.0 
0.0 0.0 7.909008201898e-04 
4.307464447464e-03 2.035652282660e-04 0.0 
2.035652282660e-04 -4.053527387665e-03 0.0 
0.0 0.0 3.823947058749e-04 
1.552826945680e-03 8.842290172698e-03 0.0 
8.842290172698e-03 -1.112367147472e-03 0.0 
0.0 0.0 5.213422407877e-04 
1.571686383329e-03 7.903996980371e-03 0.0 
7.903996980371e-03 -4.933371320715e-05 0.0 
0.0 0.0 1.351758042000e-04 
7.084227097502e-04 8.773386767064e-03 0.0 
8.773386767064e-03 -1.728734274995e-04 0.0 
0.0 0.0 4.530972790439e-04 
1.479704649915e-03 1.727017030074e-03 0.0 
1.727017030074e-03 -1.013209720186e-03 0.0 
0.0 0.0 8.869922703310e-04 
6.329149337661e-04 -4.463114085476e-04 0.0 
-4.463114085476e-04 -2.777930415965e-04 0.0 
0.0 0.0 7.656622823613e-06 
4.775094804579e-04 9.015942228934e-04 0.0 
9.015942228934e-04 2.823761100798e-04 0.0 
0.0 0.0 4.104187221948e-04 
9.939922746739e-04 1.304132105705e-04 0.0 
1.304132105705e-04 -5.788329753448e-04 0.0 
0.0 0.0 9.924213455995e-04 
-2.611856806725e-03 -8.857648976956e-06 0.0 
-8.857648976956e-06 3.751068043082e-03 0.0 
0.0 0.0 1.508527039315e-04 
4.369160596122e-03 9.500751406623e-04 0.0 
9.500751406623e-04 -4.153717169896e-03 0.0 
0.0 0.0 4.387203267049e-04 
2.871950228718e-03 8.237777787637e-03 0.0 
8.237777787637e-03 -2.422539899222e-03 0.0 
0.0 0.0 4.768458474365e-04 
4.785231497864e-03 2.589212115193e-03 0.0 
2.589212115193e-03 -4.330698437581e-03 0.0 
0.0 0.0 3.921678983918e-04 
3.703377443841e-03 3.692528254472e-05 0.0 
3.692528254472e-05 -2.615743385517e-03 0.0 
0.0 0.0 1.268432261994e-04 
4.254302699106e-04 2.823292656440e-04 0.0 
2.823292656440e-04 -1.255567464559e-04 0.0 
0.0 0.0 -2.034202910263e-05 
-7.422007101998e-04 1.235304508068e-03 0.0 
1.235304508068e-03 1.252431679393e-03 0.0 
0.0 0.0 4.254212266610e-04 
-1.891322149476e-03 7.555207371398e-03 0.0 
7.555207371398e-03 2.684581758192e-03 0.0 
0.0 0.0 3.743653289731e-04 
-4.179097078115e-03 1.089966749147e-02 0.0 
1.089966749147e-02 8.030478838005e-03 0.0 
0.0 0.0 2.452510772133e-04 
1.561637268863e-03 8.689912778051e-03 0.0 
8.689912778051e-03 -9.540078720285e-04 0.0 
0.0 0.0 7.379133252192e-04 
3.095720201870e-03 1.261636082366e-04 0.0 
1.261636082366e-04 -2.749929396981e-03 0.0 
0.0 0.0 2.367738593240e-04 
1.533162933688e-03 7.901364952933e-03 0.0 
7.901364952933e-03 -9.621207299060e-04 0.0 
0.0 0.0 7.892809440147e-04 
-2.131387786624e-03 7.255076103402e-03 0.0 
7.255076103402e-03 2.752717946928e-03 0.0 
0.0 0.0 4.201680241350e-04 
3.952734137190e-03 5.685448857037e-04 0.0 
5.685448857037e-04 -3.745069234087e-03 0.0 
0.0 0.0 4.397967797342e-04 
3.114417170606e-03 8.016984380423e-03 0.0 
8.016984380423e-03 -2.736933909935e-03 0.0 
0.0 0.0 5.185766941032e-04 
4.422332772641e-03 6.668647478365e-04 0.0 
6.668647478365e-04 -4.106160260463e-03 0.0 
0.0 0.0 3.744554306759e-04 
2.273553171379e-03 3.597606077272e-03 0.0 
3.597606077272e-03 -1.396068398700e-03 0.0 
0.0 0.0 9.731837218705e-05 
4.260976578341e-03 3.174154231839e-04 0.0 
3.174154231839e-04 -3.939584715050e-03 0.0 
0.0 0.0 3.544814622271e-04 
-1.079433245471e-03 7.795679085369e-03 0.0 
7.795679085369e-03 1.586784746118e-03 0.0 
0.0 0.0 4.471198568412e-04 
1.234784629817e-03 1.961439277046e-04 0.0 
1.961439277046e-04 -8.558469344378e-04 0.0 
0.0 0.0 8.471192630241e-04 
4.798800563156e-03 1.174420408447e-03 0.0 
1.174420408447e-03 -4.420126367546e-03 0.0 
0.0 0.0 3.895009578873e-04 
1.267382575865e-03 8.971296163234e-03 0.0 
8.971296163234e-03 -8.026105311368e-04 0.0 
0.0 0.0 5.288214282947e-04 
1.417202381508e-03 -3.988468174395e-04 0.0 
-3.988468174395e-04 -6.434123976106e-04 0.0 
0.0 0.0 -1.773329682226e-06 
5.008634535551e-03 1.873560724940e-03 0.0 
1.873560724940e-03 -4.581925289395e-03 0.0 
0.0 0.0 4.006744474652e-04 
-1.644750910364e-03 6.827269056144e-03 0.0 
6.827269056144e-03 2.156964189332e-03 0.0 
0.0 0.0 4.287045196933e-04 
3.796828401249e-03 7.899662930571e-05 0.0 
7.899662930571e-05 -3.534556231290e-03 0.0 
0.0 0.0 3.374343652147e-04 
4.135171896154e-03 -4.913437140929e-05 0.0 
-4.913437140929e-05 -3.866942521495e-03 0.0 
0.0 0.0 3.594858328668e-04 
3.225265290558e-03 7.847089866373e-03 0.0 
7.847089866373e-03 -2.776684888285e-03 0.0 
0.0 0.0 4.727414569568e-04 
3.840899663602e-03 -7.440629581093e-04 0.0 
-7.440629581093e-04 -3.061096935897e-03 0.0 
0.0 0.0 1.850988356675e-04 
-4.658773169781e-05 4.393927101994e-03 0.0 
4.393927101994e-03 1.177907506732e-03 0.0 
0.0 0.0 3.114655242116e-05 
-7.775765728271e-05 6.043705619558e-03 0.0 
6.043705619558e-03 1.651361826889e-03 0.0 
0.0 0.0 5.891885605176e-05 
3.899660653789e-03 -1.542906804819e-04 0.0 
-1.542906804819e-04 -3.565501199139e-03 0.0 
0.0 0.0 3.136234236172e-04 
4.042783732358e-03 2.567885830706e-03 0.0 
2.567885830706e-03 -3.747685311549e-03 0.0 
0.0 0.0 5.756060018584e-04 
4.108034778600e-03 6.478318556905e-03 0.0 
6.478318556905e-03 -3.730629306413e-03 0.0 
0.0 0.0 4.796568747284e-04 
1.343016319685e-03 9.018283618401e-03 0.0 
9.018283618401e-03 -8.459233566878e-04 0.0 
0.0 0.0 4.901057184951e-04 
7.443505235662e-04 1.011495025812e-02 0.0 
1.011495025812e-02 -1.477377893236e-04 0.0 
0.0 0.0 5.429233532874e-04 
1.861803255151e-04 6.686731475065e-03 0.0 
6.686731475065e-03 1.869558743655e-03 0.0 
0.0 0.0 2.597524724591e-05 
-1.433189633071e-03 2.094905785921e-04 0.0 
2.094905785921e-04 1.941289659659e-03 0.0 
0.0 0.0 2.518267888450e-04 
1.673863903477e-03 1.016175126932e-02 0.0 
1.016175126932e-02 -1.160440338838e-03 0.0 
0.0 0.0 6.847857901156e-04 
4.928741733517e-03 2.305026611215e-03 0.0 
2.305026611215e-03 -4.404447991543e-03 0.0 
0.0 0.0 3.675748010528e-04 
1.293065640499e-03 1.991220848478e-03 0.0 
1.991220848478e-03 -8.041168210126e-04 0.0 
0.0 0.0 4.917226968449e-05 
1.138833513746e-03 8.819260701929e-03 0.0 
8.819260701929e-03 4.032042098179e-04 0.0 
0.0 0.0 1.660711319808e-04 
4.010606190794e-03 2.083460349766e-03 0.0 
2.083460349766e-03 -3.734788383690e-03 0.0 
0.0 0.0 5.574110428438e-04 
3.776549608987e-04 8.675514883811e-03 0.0 
8.675514883811e-03 1.135941716356e-04 0.0 
0.0 0.0 4.939779372866e-04 
4.138605193342e-03 2.251666074034e-03 0.0 
2.251666074034e-03 -3.838314126322e-03 0.0 
0.0 0.0 4.991755687082e-04 
2.846298342835e-03 6.192263222289e-04 0.0 
6.192263222289e-04 -1.994532766374e-03 0.0 
0.0 0.0 1.140835484994e-04 
3.694433343386e-03 2.769327936880e-03 0.0 
2.769327936880e-03 -3.376993454738e-03 0.0 
0.0 0.0 6.246376627210e-04 
2.134963324762e-03 4.398574634436e-03 0.0 
4.398574634436e-03 -1.199269356370e-03 0.0 
0.0 0.0 1.027311043496e-04 
4.152126493933e-03 6.074638810809e-03 0.0 
6.074638810809e-03 -3.726369414147e-03 0.0 
0.0 0.0 4.562149278191e-04 
3.798768159523e-03 2.486560608837e-03 0.0 
2.486560608837e-03 -3.480206703183e-03 0.0 
0.0 0.0 5.563254394985e-04 
3.500262976950e-03 7.856874477071e-03 0.0 
7.856874477071e-03 -3.116052321769e-03 0.0 
0.0 0.0 5.458851762217e-04 
-2.049374265674e-03 5.366622682983e-04 0.0 
5.366622682983e-04 2.623261888136e-03 0.0 
0.0 0.0 2.008794799890e-04 
3.734159114858e-03 -1.335518847397e-04 0.0 
-1.335518847397e-04 -3.512684183986e-03 0.0 
0.0 0.0 3.449664901648e-04 
2.424259935390e-03 2.162625040925e-03 0.0 
2.162625040925e-03 -1.591869080216e-03 0.0 
0.0 0.0 9.087555431634e-05 
3.427650036047e-03 2.640816093968e-03 0.0 
2.640816093968e-03 -3.090816698497e-03 0.0 
0.0 0.0 6.153699227871e-04 
1.988840634289e-03 5.085466785187e-03 0.0 
5.085466785187e-03 -9.724993603693e-04 0.0 
0.0 0.0 1.050828895997e-04 
2.074645075798e-03 -5.504635850176e-04 0.0 
-5.504635850176e-04 -1.207281707784e-03 0.0 
0.0 0.0 5.034782675011e-05 
-3.474535469917e-04 1.755339669957e-04 0.0 
1.755339669957e-04 8.687085261061e-04 0.0 
0.0 0.0 3.299913242463e-04 
-6.183783227958e-04 1.908330755443e-04 0.0 
1.908330755443e-04 1.145254904287e-03 0.0 
0.0 0.0 3.615896672116e-04 
3.096829861142e-03 -3.724142530879e-04 0.0 
-3.724142530879e-04 -1.692344168671e-03 0.0 
0.0 0.0 4.215467882165e-05 
3.314387352817e-03 2.899300013914e-03 0.0 
2.899300013914e-03 -2.975443875785e-03 0.0 
0.0 0.0 6.760132045927e-04 
3.643822493074e-03 -2.870051244945e-04 0.0 
-2.870051244945e-04 -3.271485430284e-03 0.0 
0.0 0.0 2.725745778193e-04 
3.566027359438e-03 -2.932251577840e-04 0.0 
-2.932251577840e-04 -3.200270414458e-03 0.0 
0.0 0.0 2.699942829862e-04 
1.570543023010e-03 9.434026336896e-03 0.0 
9.434026336896e-03 -1.081306265401e-03 0.0 
0.0 0.0 5.761361277705e-04 
3.559819173206e-03 7.605126922447e-03 0.0 
7.605126922447e-03 -3.142913501985e-03 0.0 
0.0 0.0 5.074973141581e-04 
1.838532809977e-03 9.204242891166e-03 0.0 
9.204242891166e-03 -1.374136725216e-03 0.0 
0.0 0.0 5.680649888809e-04 
4.832822389049e-03 1.589071028470e-03 0.0 
1.589071028470e-03 -4.514552179452e-03 0.0 
0.0 0.0 4.235051296043e-04 
-3.300219287342e-03 2.668050529694e-04 0.0 
2.668050529694e-04 5.328037383331e-03 0.0 
0.0 0.0 1.449090241202e-04 
1.271561442299e-03 1.381353613133e-03 0.0 
1.381353613133e-03 -8.921821411120e-04 0.0 
0.0 0.0 9.629667534230e-04 
3.613018845807e-03 -3.764366757684e-04 0.0 
-3.764366757684e-04 -3.109302493115e-03 0.0 
0.0 0.0 2.314654773328e-04 
2.922234331661e-03 4.834502855794e-03 0.0 
4.834502855794e-03 -2.519877211277e-03 0.0 
0.0 0.0 7.602924199217e-04 
3.864786827389e-03 6.735656267415e-03 0.0 
6.735656267415e-03 -3.429840563467e-03 0.0 
0.0 0.0 4.615149288400e-04 
3.464781263324e-03 -6.214430016468e-05 0.0 
-6.214430016468e-05 -2.854840447941e-03 0.0 
0.0 0.0 1.852772268886e-04 
-3.209220377886e-04 8.268994671402e-03 0.0 
8.268994671402e-03 7.929994592103e-04 0.0 
0.0 0.0 4.682573704154e-04 
5.041315337656e-03 2.540235006192e-03 0.0 
2.540235006192e-03 -4.622955277948e-03 0.0 
0.0 0.0 4.198938967410e-04 
3.183192620692e-03 -7.567007950106e-04 0.0 
-7.567007950106e-04 -2.090821154683e-03 0.0 
0.0 0.0 8.890196095984e-05 
4.963328000943e-03 1.411598276631e-03 0.0 
1.411598276631e-03 -4.472798612183e-03 0.0 
0.0 0.0 3.648865621439e-04 
1.373075286198e-03 5.147015902022e-06 0.0 
5.147015902022e-06 -1.051901005411e-03 0.0 
0.0 0.0 7.150173264440e-04 
-9.542791416151e-04 8.016659968105e-03 0.0 
8.016659968105e-03 1.548903907981e-03 0.0 
0.0 0.0 4.299003026479e-04 
3.625798266174e-03 -6.759276197666e-04 0.0 
-6.759276197666e-04 -2.895317196122e-03 0.0 
0.0 0.0 1.814034321574e-04 
1.647813854328e-03 6.080518851046e-05 0.0 
6.080518851046e-05 -1.371436261956e-03 0.0 
0.0 0.0 5.620634504946e-04 
1.033252233064e-03 9.150328707727e-03 0.0 
9.150328707727e-03 -5.391740918565e-04 0.0 
0.0 0.0 5.308618764309e-04 
3.210786104098e-03 7.513758843322e-03 0.0 
7.513758843322e-03 -2.762713842129e-03 0.0 
0.0 0.0 6.728033682226e-04 
4.090604025175e-03 5.576549780168e-05 0.0 
5.576549780168e-05 -3.763563987258e-03 0.0 
0.0 0.0 3.346154742189e-04 
2.716346746289e-03 -4.997326725364e-05 0.0 
-4.997326725364e-05 -2.547642207606e-03 0.0 
0.0 0.0 2.793439066731e-04 
4.090836386563e-03 6.776202841093e-03 0.0 
6.776202841093e-03 -3.738528662009e-03 0.0 
0.0 0.0 5.057177278003e-04 
-1.983475016232e-03 1.773255615518e-05 0.0 
1.773255615518e-05 2.585315747036e-03 0.0 
0.0 0.0 1.807393446093e-04 
3.079828711284e-03 -8.360097811589e-04 0.0 
-8.360097811589e-04 -2.016450732515e-03 0.0 
0.0 0.0 8.587970805399e-05 
1.699792881419e-03 1.019950576568e-02 0.0 
1.019950576568e-02 -1.106257708115e-03 0.0 
0.0 0.0 6.802667753745e-04 
6.948789585497e-04 1.047887773566e-02 0.0 
1.047887773566e-02 -5.762658693162e-05 0.0 
0.0 0.0 5.319614835132e-04 
-2.399136839743e-03 1.775020965949e-04 0.0 
1.775020965949e-04 3.292462615951e-03 0.0 
0.0 0.0 1.560289675978e-04 
-8.503314114786e-04 5.505761917495e-03 0.0 
5.505761917495e-03 1.420810295063e-03 0.0 
0.0 0.0 5.765258353932e-04 
9.746583105548e-04 1.100279737724e-02 0.0 
1.100279737724e-02 -3.793763341825e-04 0.0 
0.0 0.0 6.111959122955e-04 
4.889183103310e-03 1.739810123368e-03 0.0 
1.739810123368e-03 -4.518039555037e-03 0.0 
0.0 0.0 4.097424562914e-04 
4.602524012513e-03 9.946307727653e-04 0.0 
9.946307727653e-04 -4.351645977101e-03 0.0 
0.0 0.0 4.198212669130e-04 
1.875942389237e-03 4.496061602965e-03 0.0 
4.496061602965e-03 -1.362061907078e-03 0.0 
0.0 0.0 8.149474929490e-04 
1.277489896946e-03 -3.024722121996e-04 0.0 
-3.024722121996e-04 -5.890700853214e-04 0.0 
0.0 0.0 -2.187644573840e-06 
2.902282968444e-03 -1.053048215792e-04 0.0 
-1.053048215792e-04 -2.642003755183e-03 0.0 
0.0 0.0 2.573793989545e-04 
1.543535865433e-03 3.089262007723e-05 0.0 
3.089262007723e-05 -1.297625523474e-03 0.0 
0.0 0.0 5.926805884955e-04 
3.907856782699e-03 1.006771855832e-05 0.0 
1.006771855832e-05 -3.702208126909e-03 0.0 
0.0 0.0 3.675898448482e-04 
4.816247838334e-03 7.374608325735e-04 0.0 
7.374608325735e-04 -4.371958995336e-03 0.0 
0.0 0.0 3.578083170447e-04 
8.030952082375e-05 2.945091282516e-03 0.0 
2.945091282516e-03 6.788506489931e-04 0.0 
0.0 0.0 4.745892673124e-06 
5.769289952309e-05 4.471520627706e-03 0.0 
4.471520627706e-03 1.058633939058e-03 0.0 
0.0 0.0 3.466588038153e-05 
-3.434901774516e-03 1.669986819413e-03 0.0 
1.669986819413e-03 4.671999335719e-03 0.0 
0.0 0.0 2.533211238289e-04 
4.864006494115e-03 1.688001596610e-03 0.0 
1.688001596610e-03 -4.476064972682e-03 0.0 
0.0 0.0 4.033659677584e-04 
2.746710544977e-03 -1.074986024829e-04 0.0 
-1.074986024829e-04 -2.582796682941e-03 0.0 
0.0 0.0 2.896881347770e-04 
3.186435925486e-03 8.086499333092e-03 0.0 
8.086499333092e-03 -2.760715126478e-03 0.0 
0.0 0.0 6.512765650760e-04 
1.151255377128e-03 8.491477927252e-04 0.0 
8.491477927252e-04 -6.760925338448e-04 0.0 
0.0 0.0 9.564942165731e-04 
1.176518691859e-03 1.036334209313e-03 0.0 
1.036334209313e-03 -7.039414554515e-04 0.0 
0.0 0.0 9.524246561594e-04 
4.556409933646e-03 1.099514997775e-03 0.0 
1.099514997775e-03 -4.241725356508e-03 0.0 
0.0 0.0 3.932895044114e-04 
-4.094777793752e-03 2.309368796035e-03 0.0 
2.309368796035e-03 6.408423050112e-03 0.0 
0.0 0.0 1.931867327578e-04 
1.456019071684e-03 -4.656878355200e-04 0.0 
-4.656878355200e-04 -8.547307901776e-04 0.0 
0.0 0.0 4.271076604030e-05 
1.596985951793e-04 2.256966057285e-03 0.0 
2.256966057285e-03 3.575598500451e-04 0.0 
0.0 0.0 2.156319961112e-06 
3.512109869507e-03 -8.402419534790e-04 0.0 
-8.402419534790e-04 -2.791347141758e-03 0.0 
0.0 0.0 1.818837304510e-04 
1.193329013327e-04 2.746958139306e-03 0.0 
2.746958139306e-03 5.246877902374e-04 0.0 
0.0 0.0 8.762021371575e-06 
3.843461217487e-03 7.038403015359e-03 0.0 
7.038403015359e-03 -3.449503268666e-03 0.0 
0.0 0.0 4.968223038362e-04 
4.508195261439e-03 3.131619031954e-04 0.0 
3.131619031954e-04 -4.118533415309e-03 0.0 
0.0 0.0 3.477192761633e-04 
4.749668017375e-03 1.011506036894e-03 0.0 
1.011506036894e-03 -4.435102083603e-03 0.0 
0.0 0.0 4.079590712333e-04 
2.606158705973e-03 -8.885153928459e-04 0.0 
-8.885153928459e-04 -1.750398338280e-03 0.0 
0.0 0.0 9.829768509004e-05 
-5.379438090127e-04 3.525889015640e-04 0.0 
3.525889015640e-04 1.079488401475e-03 0.0 
0.0 0.0 3.354274213709e-04 
4.470778097725e-03 5.573363327038e-04 0.0 
5.573363327038e-04 -4.220939929921e-03 0.0 
0.0 0.0 4.022450302723e-04 
-6.469434099119e-04 1.271885018374e-03 0.0 
1.271885018374e-03 1.189749814785e-03 0.0 
0.0 0.0 3.677723466214e-04 
-9.780548196779e-04 5.266160297778e-04 0.0 
5.266160297778e-04 1.509716350509e-03 0.0 
0.0 0.0 3.308586371487e-04 
1.444452411724e-04 1.027209576104e-03 0.0 
1.027209576104e-03 5.018499431808e-04 0.0 
0.0 0.0 5.405345241985e-04 
1.063880749786e-03 1.608669973184e-04 0.0 
1.608669973184e-04 -5.942131415266e-04 0.0 
0.0 0.0 9.655111617983e-04 
-2.443863238014e-03 1.478488251959e-04 0.0 
1.478488251959e-04 3.319581136947e-03 0.0 
0.0 0.0 1.716423644096e-04 
4.229868515446e-03 5.601048939974e-04 0.0 
5.601048939974e-04 -4.029912068039e-03 0.0 
0.0 0.0 4.150716813796e-04 
3.417092118355e-04 5.013506831563e-03 0.0 
5.013506831563e-03 1.178477613716e-03 0.0 
0.0 0.0 6.695465650467e-06 
4.111176530227e-03 6.387689785793e-04 0.0 
6.387689785793e-04 -3.855726719832e-03 0.0 
0.0 0.0 3.733203083674e-04 
1.029259594052e-03 6.362625008829e-04 0.0 
6.362625008829e-04 -6.209494766090e-04 0.0 
0.0 0.0 1.000099659764e-03 
2.951825501829e-04 1.223564575375e-03 0.0 
1.223564575375e-03 4.235988979110e-05 0.0 
0.0 0.0 -1.436211649619e-05 
2.499096629828e-04 1.662193872120e-03 0.0 
1.662193872120e-03 1.572910179999e-04 0.0 
0.0 0.0 -8.639466044558e-06 
2.745652838501e-03 5.226015985693e-03 0.0 
5.226015985693e-03 -2.317205928138e-03 0.0 
0.0 0.0 7.686635505047e-04 
-3.561857851322e-03 1.172230350907e-03 0.0 
1.172230350907e-03 5.244664038000e-03 0.0 
0.0 0.0 2.030208850024e-04 
-4.533948869022e-04 6.435480518687e-04 0.0 
6.435480518687e-04 1.000990698544e-03 0.0 
0.0 0.0 3.931160938962e-04 
1.065543953434e-03 9.180354697181e-03 0.0 
9.180354697181e-03 -5.543814851216e-04 0.0 
0.0 0.0 5.141289114190e-04 
2.668972994769e-03 7.335021446418e-03 0.0 
7.335021446418e-03 -2.234961069640e-03 0.0 
0.0 0.0 7.659584122025e-04 
9.511514052165e-05 8.952326146192e-03 0.0 
8.952326146192e-03 4.389889958345e-04 0.0 
0.0 0.0 5.402089427647e-04 
-2.455415206904e-03 4.626732586859e-04 0.0 
4.626732586859e-04 3.358703997883e-03 0.0 
0.0 0.0 1.614380875130e-04 
3.952441725308e-03 -2.318315152351e-04 0.0 
-2.318315152351e-04 -3.661972183848e-03 0.0 
0.0 0.0 3.335162526537e-04 
4.114420436790e-03 -1.977947752248e-04 0.0 
-1.977947752248e-04 -3.716983690686e-03 0.0 
0.0 0.0 3.033727900781e-04 
-1.649938376811e-03 3.225955211158e-04 0.0 
3.225955211158e-04 2.194761193057e-03 0.0 
0.0 0.0 2.138122110174e-04 
2.920509448789e-03 7.767717906075e-03 0.0 
7.767717906075e-03 -2.451285381079e-03 0.0 
0.0 0.0 6.792566810834e-04 
-5.709901632854e-03 5.948070748009e-03 0.0 
5.948070748009e-03 1.098888949714e-02 0.0 
0.0 0.0 1.234247130900e-04 
-2.812514124251e-03 1.753644413984e-04 0.0 
1.753644413984e-04 4.050005586431e-03 0.0 
0.0 0.0 1.706521774403e-04 
-2.615926532788e-03 3.344491127569e-04 0.0 
3.344491127569e-04 3.555053443553e-03 0.0 
0.0 0.0 1.869660444307e-04 
-2.561388441971e-03 5.566718915693e-04 0.0 
5.566718915693e-04 3.397439418057e-03 0.0 
0.0 0.0 1.979660182820e-04 
3.518733116233e-03 -4.886433887058e-04 0.0 
-4.886433887058e-04 -2.602046720727e-03 0.0 
0.0 0.0 1.451249277924e-04 
3.914382655453e-03 -3.413140648979e-04 0.0 
-3.413140648979e-04 -3.502840899296e-03 0.0 
0.0 0.0 2.787807004386e-04 
-3.192845200289e-04 2.703643295014e-03 0.0 
2.703643295014e-03 9.732709935150e-04 0.0 
0.0 0.0 4.834268016172e-04 
-2.318800732418e-03 6.953449816620e-04 0.0 
6.953449816620e-04 2.946618688143e-03 0.0 
0.0 0.0 2.167890897268e-04 
1.612825878850e-03 5.743098236355e-03 0.0 
5.743098236355e-03 -1.166739551784e-03 0.0 
0.0 0.0 9.058007866185e-04 
6.252311413635e-04 1.029380491695e-02 0.0 
1.029380491695e-02 -5.554620339936e-05 0.0 
0.0 0.0 6.387228222307e-04 
-1.670614001411e-04 8.452472150812e-03 0.0 
8.452472150812e-03 7.481513132076e-04 0.0 
0.0 0.0 4.378501429583e-04 
-1.122419688428e-03 4.717037906593e-03 0.0 
4.717037906593e-03 1.675484230879e-03 0.0 
0.0 0.0 5.074407156826e-04 
2.285331898366e-03 -1.056659048979e-05 0.0 
-1.056659048979e-05 -2.089247506049e-03 0.0 
0.0 0.0 4.136694493558e-04 
2.460614488654e-03 -1.006737506464e-04 0.0 
-1.006737506464e-04 -2.243613961462e-03 0.0 
0.0 0.0 3.447425188403e-04 
1.452481627119e-03 1.466226699677e-03 0.0 
1.466226699677e-03 -1.074186700002e-03 0.0 
0.0 0.0 9.074375532084e-04 
2.486643628040e-03 -6.345760621760e-04 0.0 
-6.345760621760e-04 -1.373792254692e-03 0.0 
0.0 0.0 4.026919377737e-05 
2.985561470205e-03 1.666843598094e-04 0.0 
1.666843598094e-04 -2.684898944614e-03 0.0 
0.0 0.0 2.617004920538e-04 
1.206440943143e-03 8.115022783523e-03 0.0 
8.115022783523e-03 -7.738163101217e-04 0.0 
0.0 0.0 9.538162993420e-04 
3.814883322344e-03 1.770249380235e-04 0.0 
1.770249380235e-04 -2.795808137580e-03 0.0 
0.0 0.0 1.353074160173e-04 
-2.689984748105e-03 2.696646947442e-04 0.0 
2.696646947442e-04 3.970677726717e-03 0.0 
0.0 0.0 1.361137687236e-04 
2.131459768263e-03 3.928339362835e-03 0.0 
3.928339362835e-03 -1.651884281560e-03 0.0 
0.0 0.0 7.980002795647e-04 
3.449545583033e-03 -2.837130965597e-04 0.0 
-2.837130965597e-04 -2.189278866549e-03 0.0 
0.0 0.0 8.787578953589e-05 
4.085531566679e-03 2.615886498778e-05 0.0 
2.615886498778e-05 -2.085396881034e-03 0.0 
0.0 0.0 4.367494108381e-05 
1.591576210472e-06 6.582180632264e-03 0.0 
6.582180632264e-03 6.365161158750e-04 0.0 
0.0 0.0 6.701517082487e-04 
-3.487725226948e-03 3.958794450885e-04 0.0 
3.958794450885e-04 5.774328646014e-03 0.0 
0.0 0.0 1.260758263579e-04 
-5.788449764800e-04 3.616476066217e-03 0.0 
3.616476066217e-03 1.250270865471e-03 0.0 
0.0 0.0 4.322858953011e-04 
1.972874702581e-03 4.493528556065e-03 0.0 
4.493528556065e-03 -1.603655558339e-03 0.0 
0.0 0.0 9.122782532638e-04 
-3.467396083700e-03 3.717265985404e-04 0.0 
3.717265985404e-04 5.664959589789e-03 0.0 
0.0 0.0 1.356633947007e-04 
1.338109940196e-03 -8.360432826865e-04 0.0 
-8.360432826865e-04 -8.013564347581e-04 0.0 
0.0 0.0 5.113476063096e-05 
-1.455043706590e-04 2.580126882406e-04 0.0 
2.580126882406e-04 6.963376444675e-04 0.0 
0.0 0.0 3.776162959299e-04 
3.597690342662e-03 1.605267313245e-04 0.0 
1.605267313245e-04 -2.720507139640e-03 0.0 
0.0 0.0 1.501497743849e-04 
-6.538091506137e-04 2.845159905314e-03 0.0 
2.845159905314e-03 1.294793949660e-03 0.0 
0.0 0.0 3.527484183159e-04 
1.014714037054e-03 4.746628991597e-04 0.0 
4.746628991597e-04 -6.059824343390e-04 0.0 
0.0 0.0 9.968171389567e-04 
9.581488521402e-05 9.152945543518e-03 0.0 
9.152945543518e-03 4.924626220869e-04 0.0 
0.0 0.0 5.627503011742e-04 
4.002831224573e-03 -3.351241404622e-04 0.0 
-3.351241404622e-04 -3.165011752701e-03 0.0 
0.0 0.0 1.926669497905e-04 
-4.190716375242e-03 4.275953146640e-03 0.0 
4.275953146640e-03 5.831338110988e-03 0.0 
0.0 0.0 3.204748654824e-04 
2.072758873309e-03 7.835730388448e-05 0.0 
7.835730388448e-05 -1.848303745979e-03 0.0 
0.0 0.0 4.169995535822e-04 
3.232932078457e-03 7.824168148333e-03 0.0 
7.824168148333e-03 -2.785581089009e-03 0.0 
0.0 0.0 6.220924806721e-04 
1.521321570912e-03 5.769717154339e-03 0.0 
5.769717154339e-03 -9.762426217371e-04 0.0 
0.0 0.0 8.366478857269e-04 
-1.211817658713e-03 4.273630991816e-04 0.0 
4.273630991816e-04 1.741431777103e-03 0.0 
0.0 0.0 2.848150375040e-04 
1.468038265316e-03 5.090743657207e-03 0.0 
5.090743657207e-03 -9.492680992989e-04 0.0 
0.0 0.0 8.746351411153e-04 
2.863471773678e-03 -7.360113201390e-04 0.0 
-7.360113201390e-04 -1.865928168716e-03 0.0 
0.0 0.0 8.744311248643e-05 
1.192064151440e-03 6.947719300551e-04 0.0 
6.947719300551e-04 -7.508781951496e-04 0.0 
0.0 0.0 9.319883074943e-04 
4.053823187397e-03 -2.754971894257e-04 0.0 
-2.754971894257e-04 -3.319448753140e-03 0.0 
0.0 0.0 2.171995115470e-04 
3.653701091474e-03 2.193854577048e-05 0.0 
2.193854577048e-05 -2.701508573870e-03 0.0 
0.0 0.0 1.325693250461e-04 
1.668201422364e-03 2.894367398823e-03 0.0 
2.894367398823e-03 -1.186119695490e-03 0.0 
0.0 0.0 8.655552676219e-04 
-4.060729923455e-04 8.338869551604e-03 0.0 
8.338869551604e-03 1.023550658566e-03 0.0 
0.0 0.0 6.357936365703e-04 
-3.950564327746e-04 5.421928009976e-03 0.0 
5.421928009976e-03 1.010045616686e-03 0.0 
0.0 0.0 5.731852743989e-04 
-2.974282338562e-03 5.032945299534e-04 0.0 
5.032945299534e-04 4.473167453759e-03 0.0 
0.0 0.0 1.475965816546e-04 
-3.453244182528e-03 6.602618956526e-03 0.0 
6.602618956526e-03 4.984951764418e-03 0.0 
0.0 0.0 3.079870828832e-04 
2.197090730021e-03 3.079574658681e-03 0.0 
3.079574658681e-03 -1.408157620354e-03 0.0 
0.0 0.0 9.255847395153e-05 
9.757068428377e-04 1.115689434490e-02 0.0 
1.115689434490e-02 -3.668301835437e-04 0.0 
0.0 0.0 6.587947525403e-04 
2.382742905022e-03 -2.509562213099e-05 0.0 
-2.509562213099e-05 -2.204838279450e-03 0.0 
0.0 0.0 3.374862464012e-04 
2.595424900218e-03 4.529144753064e-04 0.0 
4.529144753064e-04 -1.699826573637e-03 0.0 
0.0 0.0 7.854673256034e-05 
3.178630699981e-03 7.574509189687e-03 0.0 
7.574509189687e-03 -2.745107531136e-03 0.0 
0.0 0.0 6.898445907318e-04 
-3.245965089434e-03 3.003072733291e-05 0.0 
3.003072733291e-05 5.199834490033e-03 0.0 
0.0 0.0 1.476068064629e-04 
-3.815446325277e-04 7.127467076025e-03 0.0 
7.127467076025e-03 1.048843879248e-03 0.0 
0.0 0.0 4.333774813085e-04 
-2.651762770632e-05 6.586006587194e-05 0.0 
6.586006587194e-05 6.059790247971e-04 0.0 
0.0 0.0 4.447161263462e-04 
4.392961959463e-04 4.290080596328e-04 0.0 
4.290080596328e-04 3.216892081715e-04 0.0 
0.0 0.0 4.104101705615e-04 
4.636721803228e-03 7.714026023094e-05 0.0 
7.714026023094e-05 -1.991442926339e-03 0.0 
0.0 0.0 -2.167799344143e-06 
4.339702182921e-03 -1.601390192777e-04 0.0 
-1.601390192777e-04 -1.948682056740e-03 0.0 
0.0 0.0 8.557913755574e-06 
-2.928167776396e-03 -1.922836195363e-05 0.0 
-1.922836195363e-05 4.684937201012e-03 0.0 
0.0 0.0 1.235734744631e-04 
-3.102393739200e-03 -2.437190832257e-05 0.0 
-2.437190832257e-05 4.958604596420e-03 0.0 
0.0 0.0 1.450678728153e-04 
9.957611223126e-04 6.402317767838e-05 0.0 
6.402317767838e-05 -5.869259843668e-04 0.0 
0.0 0.0 9.953809928367e-04 
1.062811994970e-03 2.345042398639e-05 0.0 
2.345042398639e-05 -6.115339391793e-04 0.0 
0.0 0.0 9.684933976056e-04 
4.459885030231e-03 -2.408411619507e-04 0.0 
-2.408411619507e-04 -2.217516930698e-03 0.0 
0.0 0.0 4.058450175016e-05 
1.652925407602e-03 -2.274368853896e-04 0.0 
-2.274368853896e-04 -7.455995301443e-04 0.0 
0.0 0.0 -2.945337968931e-06 
1.156669596959e-03 3.923762390683e-04 0.0 
3.923762390683e-04 -7.775241357426e-04 0.0 
0.0 0.0 9.077980455533e-04 
2.320508961052e-03 9.157483277279e-03 0.0 
9.157483277279e-03 -1.810473296800e-03 0.0 
0.0 0.0 7.127825867733e-04 
3.592139647154e-03 9.895667926184e-05 0.0 
9.895667926184e-05 -2.837116951574e-03 0.0 
0.0 0.0 1.776667663649e-04 
1.258921237665e-03 8.332723925091e-04 0.0 
8.332723925091e-04 -8.628564466307e-04 0.0 
0.0 0.0 9.132898127964e-04 
1.459593737300e-03 5.763525492054e-05 0.0 
5.763525492054e-05 -1.203513913597e-03 0.0 
0.0 0.0 6.394040308196e-04 
1.693939775551e-03 3.179406669448e-05 0.0 
3.179406669448e-05 -1.441093861519e-03 0.0 
0.0 0.0 5.278624850458e-04 
-2.056211854960e-03 4.202376407472e-04 0.0 
4.202376407472e-04 2.622938599899e-03 0.0 
0.0 0.0 2.168429875854e-04 
3.514547153456e-03 -7.420709322126e-04 0.0 
-7.420709322126e-04 -2.742697028409e-03 0.0 
0.0 0.0 1.648983962168e-04 
3.475913953445e-03 7.793882573931e-03 0.0 
7.793882573931e-03 -3.044107126121e-03 0.0 
0.0 0.0 5.664971588381e-04 
3.766714223125e-03 -2.861590571723e-05 0.0 
-2.861590571723e-05 -2.701138806889e-03 0.0 
0.0 0.0 1.359285131524e-04 
1.988106863018e-03 1.543778209427e-04 0.0 
1.543778209427e-04 -1.767742588402e-03 0.0 
0.0 0.0 4.877973492240e-04 
1.027858314988e-03 1.051240647729e-02 0.0 
1.051240647729e-02 -4.427405993266e-04 0.0 
0.0 0.0 5.854572467814e-04 
-4.501573536721e-04 3.144580215136e-05 0.0 
3.144580215136e-05 9.196673849806e-04 0.0 
0.0 0.0 3.770251763851e-04 
1.643579049609e-03 1.974406914174e-05 0.0 
1.974406914174e-05 -1.426757073244e-03 0.0 
0.0 0.0 5.420912551308e-04 
-2.322479198498e-03 3.013191609599e-04 0.0 
3.013191609599e-04 3.011255826682e-03 0.0 
0.0 0.0 1.951353785387e-04 
1.942047171921e-03 9.932770637498e-03 0.0 
9.932770637498e-03 -1.383710127884e-03 0.0 
0.0 0.0 6.680613256523e-04 
7.086852838276e-04 9.553135692332e-03 0.0 
9.553135692332e-03 -1.769470462507e-04 0.0 
0.0 0.0 5.786486824250e-04 
2.123919618194e-04 8.890533808501e-03 0.0 
8.890533808501e-03 3.121487210246e-04 0.0 
0.0 0.0 5.028530290405e-04 
-3.193861435411e-03 3.361544534163e-04 0.0 
3.361544534163e-04 5.256852152590e-03 0.0 
0.0 0.0 1.151539030357e-04 
3.749222286192e-03 7.298530293897e-03 0.0 
7.298530293897e-03 -3.337577550475e-03 0.0 
0.0 0.0 5.553269374086e-04 
-1.484136556004e-04 8.390153701690e-03 0.0 
8.390153701690e-03 8.218051079184e-04 0.0 
0.0 0.0 4.234557057646e-04 
2.870566122504e-03 -8.930414076495e-05 0.0 
-8.930414076495e-05 -2.659266727054e-03 0.0 
0.0 0.0 2.756663313006e-04 
3.071547938176e-03 -3.050740343820e-04 0.0 
-3.050740343820e-04 -1.675621635365e-03 0.0 
0.0 0.0 5.010822526159e-05 
1.917576876189e-03 9.888793137389e-03 0.0 
9.888793137389e-03 -1.406174994078e-03 0.0 
0.0 0.0 6.555509343967e-04 
2.931082647955e-03 4.901506558818e-03 0.0 
4.901506558818e-03 -2.532935515982e-03 0.0 
0.0 0.0 7.555821524929e-04 
3.360697208214e-03 -1.022945868520e-03 0.0 
-1.022945868520e-03 -2.485160929193e-03 0.0 
0.0 0.0 1.329147806481e-04 
-1.704531033290e-03 3.267324722915e-04 0.0 
3.267324722915e-04 2.249743516086e-03 0.0 
0.0 0.0 2.505837844961e-04 
1.083726051131e-03 3.730421480740e-04 0.0 
3.730421480740e-04 -6.967028178800e-04 0.0 
0.0 0.0 9.524447179433e-04 
2.252842006663e-03 9.186519766110e-03 0.0 
9.186519766110e-03 -1.786072630782e-03 0.0 
0.0 0.0 7.089478576625e-04 
2.133219489772e-03 9.587149794422e-03 0.0 
9.587149794422e-03 -1.578714837089e-03 0.0 
0.0 0.0 6.741622056981e-04 
1.398072503212e-03 5.480129303950e-05 0.0 
5.480129303950e-05 -1.104909959992e-03 0.0 
0.0 0.0 6.894976465160e-04 
1.678092556365e-03 -2.251010086025e-04 0.0 
-2.251010086025e-04 -9.311673641864e-04 0.0 
0.0 0.0 3.146095137162e-05 
3.424846001463e-04 3.681274071262e-03 0.0 
3.681274071262e-03 7.045109299480e-04 0.0 
0.0 0.0 -9.624270810140e-07 
1.824820447406e-03 4.736091182521e-03 0.0 
4.736091182521e-03 -9.684722378639e-04 0.0 
0.0 0.0 1.093573986574e-04 
-4.060231882827e-03 5.127757311380e-03 0.0 
5.127757311380e-03 6.130655042645e-03 0.0 
0.0 0.0 2.603909684816e-04 
3.724616814500e-03 7.566631899700e-03 0.0 
7.566631899700e-03 -3.332777100431e-03 0.0 
0.0 0.0 5.754374585626e-04 
-6.253399942612e-04 1.858664348669e-03 0.0 
1.858664348669e-03 1.170343395106e-03 0.0 
0.0 0.0 4.531518271481e-04 
1.651814218611e-03 4.676058490870e-03 0.0 
4.676058490870e-03 -1.263595432683e-03 0.0 
0.0 0.0 9.515554983798e-04 
2.858316756321e-03 -7.764682656292e-04 0.0 
-7.764682656292e-04 -1.909749235424e-03 0.0 
0.0 0.0 9.728436522195e-05 
3.137920204931e-03 -7.223079089208e-04 0.0 
-7.223079089208e-04 -2.028946316522e-03 0.0 
0.0 0.0 9.171238092884e-05 
2.709050714847e-04 2.605414540994e-03 0.0 
2.605414540994e-03 3.660283139513e-04 0.0 
0.0 0.0 -1.313505828078e-06 
-1.564198126706e-03 5.023464521970e-04 0.0 
5.023464521970e-04 2.090664718911e-03 0.0 
0.0 0.0 2.276435599394e-04 
2.689376345060e-03 2.160253117205e-05 0.0 
2.160253117205e-05 -2.509476142158e-03 0.0 
0.0 0.0 3.051176946360e-04 
-7.913731086950e-04 6.014422820045e-03 0.0 
6.014422820045e-03 1.377965431256e-03 0.0 
0.0 0.0 5.404165348895e-04 
3.670715894209e-03 1.457102412584e-04 0.0 
1.457102412584e-04 -2.865188749578e-03 0.0 
0.0 0.0 1.697542517705e-04 
2.131594943874e-03 4.979633657042e-03 0.0 
4.979633657042e-03 -1.734632061461e-03 0.0 
0.0 0.0 8.716197890848e-04 
-3.246983639562e-03 1.502816356099e-03 0.0 
1.502816356099e-03 4.627807121132e-03 0.0 
0.0 0.0 2.040435211276e-04 
1.718539464967e-03 7.516168788365e-03 0.0 
7.516168788365e-03 -1.282491747539e-03 0.0 
0.0 0.0 8.872078282394e-04 
2.961942755528e-03 8.268904146986e-03 0.0 
8.268904146986e-03 -2.486167122742e-03 0.0 
0.0 0.0 6.335702824421e-04 
-3.739945455883e-03 6.029556062561e-03 0.0 
6.029556062561e-03 5.634009283391e-03 0.0 
0.0 0.0 2.732974824780e-04 
1.546388483265e-03 2.110154600934e-03 0.0 
2.110154600934e-03 -1.070656620868e-03 0.0 
0.0 0.0 8.805692346959e-04 
-2.193210022524e-04 7.681440306309e-03 0.0 
7.681440306309e-03 8.832178264806e-04 0.0 
0.0 0.0 5.648481798899e-04 
-2.467662256344e-04 2.475389064791e-04 0.0 
2.475389064791e-04 7.824024609302e-04 0.0 
0.0 0.0 3.994600696612e-04 
2.501847121078e-04 1.772594922192e-03 0.0 
1.772594922192e-03 7.027599908277e-05 0.0 
0.0 0.0 2.730988944049e-06 
-8.527741989136e-04 4.828028183327e-03 0.0 
4.828028183327e-03 1.502333485987e-03 0.0 
0.0 0.0 3.564885301045e-04 
1.450790108448e-03 1.026880481582e-02 0.0 
1.026880481582e-02 -9.584648394140e-04 0.0 
0.0 0.0 7.772595116110e-04 
2.297963702728e-03 4.898532628213e-03 0.0 
4.898532628213e-03 -1.818123475948e-03 0.0 
0.0 0.0 7.807266607455e-04 
2.898381259244e-03 8.051162933512e-03 0.0 
8.051162933512e-03 -2.453668827004e-03 0.0 
0.0 0.0 7.056449345048e-04 
1.057075567311e-03 9.130831314913e-04 0.0 
9.130831314913e-04 -6.576024425970e-04 0.0 
0.0 0.0 1.007809474221e-03 
2.170300041528e-04 8.695755976745e-03 0.0 
8.695755976745e-03 3.042291828977e-04 0.0 
0.0 0.0 4.912093779442e-04 
5.770465758413e-04 -1.607332599428e-04 0.0 
-1.607332599428e-04 -2.344571836847e-04 0.0 
0.0 0.0 -1.578653099412e-05 
2.394797368940e-03 1.364205244107e-03 0.0 
1.364205244107e-03 -1.607699165477e-03 0.0 
0.0 0.0 8.354820722882e-05 
6.406930749216e-04 9.782869152595e-03 0.0 
9.782869152595e-03 -9.154329580414e-05 0.0 
0.0 0.0 6.003650241789e-04 
-3.690833681826e-03 4.200410276569e-03 0.0 
4.200410276569e-03 5.081286703651e-03 0.0 
0.0 0.0 2.988524652935e-04 
1.160089044755e-03 2.024890655560e-04 0.0 
2.024890655560e-04 -7.628792405952e-04 0.0 
0.0 0.0 8.994046595843e-04 
2.652606593309e-03 8.273220057308e-03 0.0 
8.273220057308e-03 -2.172161331597e-03 0.0 
0.0 0.0 7.073111824178e-04 
1.156952626624e-03 8.300971298820e-04 0.0 
8.300971298820e-04 -7.679732392200e-04 0.0 
0.0 0.0 9.634218454384e-04 
-1.214311340272e-03 6.860444658714e-04 0.0 
6.860444658714e-04 1.746820689088e-03 0.0 
0.0 0.0 2.958951295793e-04 
1.698591922363e-03 7.032661509603e-03 0.0 
7.032661509603e-03 -1.279700333194e-03 0.0 
0.0 0.0 9.090792156029e-04 
1.582282792679e-03 1.929324781655e-03 0.0 
1.929324781655e-03 -1.173106111214e-03 0.0 
0.0 0.0 8.950447438689e-04 
1.586401285100e-03 2.031542396409e-03 0.0 
2.031542396409e-03 -1.183336760134e-03 0.0 
0.0 0.0 8.961589197481e-04 
2.505133871941e-03 9.171913013553e-05 0.0 
9.171913013553e-05 -2.308134134661e-03 0.0 
0.0 0.0 3.113863459134e-04 
1.134576191943e-03 7.081244533197e-04 0.0 
7.081244533197e-04 -6.539490769387e-04 0.0 
0.0 0.0 9.553212363684e-04 
-4.165257630084e-03 1.823811545554e-03 0.0 
1.823811545554e-03 6.213002474050e-03 0.0 
0.0 0.0 2.344326500238e-04 
-5.281749736383e-04 6.978775977457e-04 0.0 
6.978775977457e-04 1.049201439700e-03 0.0 
0.0 0.0 4.429917446576e-04 
3.171638006215e-03 -7.578959918260e-04 0.0 
-7.578959918260e-04 -2.071782958648e-03 0.0 
0.0 0.0 8.629014562111e-05 
-6.655047838569e-04 3.519161380330e-04 0.0 
3.519161380330e-04 1.190511190260e-03 0.0 
0.0 0.0 4.133142387150e-04 
-1.702906522243e-03 3.615021456789e-04 0.0 
3.615021456789e-04 2.233913103034e-03 0.0 
0.0 0.0 2.765418430070e-04 
4.166115155834e-03 8.893112376016e-05 0.0 
8.893112376016e-05 -2.567650088096e-03 0.0 
0.0 0.0 9.169011730795e-05 
3.683418170758e-03 -5.769141109382e-04 0.0 
-5.769141109382e-04 -2.871101765939e-03 0.0 
0.0 0.0 1.812162927917e-04 
8.640466250054e-04 9.268139646797e-03 0.0 
9.268139646797e-03 -3.406922091994e-04 0.0 
0.0 0.0 5.281297243858e-04 
-2.663446426564e-04 3.444442430455e-03 0.0 
3.444442430455e-03 9.541277952828e-04 0.0 
0.0 0.0 4.031545642686e-04 
-3.859476735897e-04 2.408617831893e-04 0.0 
2.408617831893e-04 8.667174397912e-04 0.0 
0.0 0.0 3.959524963462e-04 
2.081315674308e-03 6.810863865629e-03 0.0 
6.810863865629e-03 -1.591255561406e-03 0.0 
0.0 0.0 8.197776594139e-04 
-2.455229098261e-03 6.755172812125e-04 0.0 
6.755172812125e-04 3.269325720393e-03 0.0 
0.0 0.0 1.827774632317e-04 
3.503253398940e-03 -2.595306418201e-04 0.0 
-2.595306418201e-04 -1.868895285943e-03 0.0 
0.0 0.0 4.717724883885e-05 
2.137734670763e-03 -2.870395785836e-04 0.0 
-2.870395785836e-04 -1.405547905499e-03 0.0 
0.0 0.0 8.154944086592e-05 
3.580627373285e-03 -2.881318508254e-04 0.0 
-2.881318508254e-04 -2.010774758740e-03 0.0 
0.0 0.0 5.435588865409e-05 
3.296324658209e-03 -5.692919371828e-04 0.0 
-5.692919371828e-04 -2.364925363233e-03 0.0 
0.0 0.0 1.254455919115e-04 
-3.274739765239e-05 8.175521250497e-04 0.0 
8.175521250497e-04 6.396405470479e-05 0.0 
0.0 0.0 2.153133812124e-05 
2.038025019235e-03 5.661059778775e-05 0.0 
5.661059778775e-05 -1.785388374618e-03 0.0 
0.0 0.0 4.423676237773e-04 
1.167695934494e-03 2.319731543102e-04 0.0 
2.319731543102e-04 -7.690309065437e-04 0.0 
0.0 0.0 8.957590293465e-04 
1.835679302078e-04 9.507656610269e-03 0.0 
9.507656610269e-03 4.530427329092e-04 0.0 
0.0 0.0 5.067503265107e-04 
-3.305785655261e-03 6.454343242037e-03 0.0 
6.454343242037e-03 4.611817850529e-03 0.0 
0.0 0.0 3.342236780327e-04 
2.447954341621e-03 3.224031792037e-05 0.0 
3.224031792037e-05 -2.253516445349e-03 0.0 
0.0 0.0 4.080929136831e-04 
1.501544979900e-03 1.419592110059e-03 0.0 
1.419592110059e-03 -1.085568177003e-03 0.0 
0.0 0.0 8.830062024555e-04 
2.105608819546e-03 3.456039529826e-03 0.0 
3.456039529826e-03 -1.660060444725e-03 0.0 
0.0 0.0 8.226256963158e-04 
1.930126787660e-03 7.844274653908e-03 0.0 
7.844274653908e-03 -1.377892328517e-03 0.0 
0.0 0.0 7.544132273653e-04 
1.742796782863e-03 9.933313891368e-03 0.0 
9.933313891368e-03 -1.252761619432e-03 0.0 
0.0 0.0 7.242028886837e-04 
1.211640122406e-03 9.904004728299e-03 0.0 
9.904004728299e-03 -6.670164316227e-04 0.0 
0.0 0.0 5.771964812209e-04 
3.270340312818e-03 -6.793776664241e-04 0.0 
-6.793776664241e-04 -2.120204915501e-03 0.0 
0.0 0.0 8.653917196022e-05 
2.280131260540e-03 -9.106500306867e-04 0.0 
-9.106500306867e-04 -1.478977692794e-03 0.0 
0.0 0.0 8.582490572203e-05 
1.182131889573e-03 3.638555155430e-04 0.0 
3.638555155430e-04 -7.745185483002e-04 0.0 
0.0 0.0 8.975145972227e-04 
3.928330627747e-03 -9.689409763858e-05 0.0 
-9.689409763858e-05 -2.517939419486e-03 0.0 
0.0 0.0 9.203242087736e-05 
4.031657296369e-03 -1.913209596752e-04 0.0 
-1.913209596752e-04 -2.700648173729e-03 0.0 
0.0 0.0 1.110961567087e-04 
1.329654091798e-03 8.151553420323e-04 0.0 
8.151553420323e-04 -8.525465505984e-04 0.0 
0.0 0.0 4.049203456898e-05 
3.562801941632e-03 -1.170367989487e-04 0.0 
-1.170367989487e-04 -2.200623546150e-03 0.0 
0.0 0.0 8.066065626140e-05 
1.333667540381e-03 1.886532278942e-03 0.0 
1.886532278942e-03 -9.581848859934e-04 0.0 
0.0 0.0 9.768195644993e-04 
1.169743722977e-03 1.092077224386e-02 0.0 
1.092077224386e-02 -6.291921174140e-04 0.0 
0.0 0.0 7.067085427399e-04 
-4.495044561663e-04 1.733568075303e-03 0.0 
1.733568075303e-03 1.077123793843e-03 0.0 
0.0 0.0 3.693601064667e-04 
1.636585669959e-03 8.030304335439e-03 0.0 
8.030304335439e-03 -1.201710952238e-03 0.0 
0.0 0.0 8.856794252908e-04 
2.248852175121e-03 3.657196745390e-03 0.0 
3.657196745390e-03 -1.840146525796e-03 0.0 
0.0 0.0 8.230019825412e-04 
-2.237264743062e-03 6.199646245615e-04 0.0 
6.199646245615e-04 2.915795870393e-03 0.0 
0.0 0.0 1.942683605908e-04 
5.637870765978e-04 7.270325042853e-03 0.0 
7.270325042853e-03 2.023783477654e-04 0.0 
0.0 0.0 4.031613205658e-04 
3.920617484529e-03 -7.453515445087e-04 0.0 
-7.453515445087e-04 -3.299607472973e-03 0.0 
0.0 0.0 2.332532080414e-04 
-3.625696934311e-03 3.032556380351e-04 0.0 
3.032556380351e-04 5.874689542708e-03 0.0 
0.0 0.0 1.547573152759e-04 
3.122588811579e-03 -1.013118648295e-03 0.0 
-1.013118648295e-03 -2.307365659724e-03 0.0 
0.0 0.0 1.346336783359e-04 
3.956443678063e-03 5.300052137233e-06 0.0 
5.300052137233e-06 -2.099685950319e-03 0.0 
0.0 0.0 4.572200876735e-05 
1.100727405444e-03 4.560587256738e-04 0.0 
4.560587256738e-04 -6.232425052699e-04 0.0 
0.0 0.0 9.587464172980e-04 
-5.321306822928e-03 6.824734892735e-03 0.0 
6.824734892735e-03 7.427915115785e-03 0.0 
0.0 0.0 4.348131294883e-04 
3.885890755366e-03 6.175549508775e-05 0.0 
6.175549508775e-05 -2.745870148440e-03 0.0 
0.0 0.0 1.318888937230e-04 
1.964377992885e-03 8.101879000135e-06 0.0 
8.101879000135e-06 -1.745993242188e-03 0.0 
0.0 0.0 4.338562308951e-04 
1.207257243586e-03 1.113988504870e-02 0.0 
1.113988504870e-02 -5.918791205941e-04 0.0 
0.0 0.0 6.513090600641e-04 
-9.332820269650e-04 2.748562428630e-03 0.0 
2.748562428630e-03 1.459584761006e-03 0.0 
0.0 0.0 4.871774989783e-04 
1.023797377500e-04 8.636275550652e-03 0.0 
8.636275550652e-03 5.867153021047e-04 0.0 
0.0 0.0 4.585485283490e-04 
2.617586745576e-03 1.442431561884e-04 0.0 
1.442431561884e-04 -2.425478835811e-03 0.0 
0.0 0.0 2.775381283400e-04 
2.365937837175e-03 -9.544281197655e-04 0.0 
-9.544281197655e-04 -1.510393462960e-03 0.0 
0.0 0.0 8.475382437000e-05 
1.250966916494e-03 9.435968097386e-04 0.0 
9.435968097386e-04 -8.006950873921e-04 0.0 
0.0 0.0 9.196426976688e-04 
6.940126819587e-05 5.042398021985e-04 0.0 
5.042398021985e-04 5.002411839551e-04 0.0 
0.0 0.0 5.474077527120e-04 
1.061771545181e-03 9.396755283883e-05 0.0 
9.396755283883e-05 -5.910792847920e-04 0.0 
0.0 0.0 9.656101140806e-04 
-2.787166781779e-03 6.384880936182e-05 0.0 
6.384880936182e-05 4.125397157569e-03 0.0 
0.0 0.0 1.495435753584e-04 
1.887782303206e-03 3.653547129151e-03 0.0 
3.653547129151e-03 -1.513193033368e-03 0.0 
0.0 0.0 9.107150884991e-04 
3.658898941262e-03 1.821719486875e-04 0.0 
1.821719486875e-04 -2.716966923507e-03 0.0 
0.0 0.0 1.368772031703e-04 
-5.138481187145e-04 5.833621341517e-03 0.0 
5.833621341517e-03 1.200285929070e-03 0.0 
0.0 0.0 3.924717934445e-04 
3.749568205870e-03 4.578633438290e-05 0.0 
4.578633438290e-05 -1.970888415772e-03 0.0 
0.0 0.0 4.069563184032e-05 
1.413073717453e-03 2.596571082388e-03 0.0 
2.596571082388e-03 -1.036790510828e-03 0.0 
0.0 0.0 9.791924722901e-04 
3.734099637018e-05 8.943102600096e-03 0.0 
8.943102600096e-03 6.135281997030e-04 0.0 
0.0 0.0 5.742274707317e-04 
1.992735141877e-03 -6.456313096008e-04 0.0 
-6.456313096008e-04 -1.110721327574e-03 0.0 
0.0 0.0 4.145826248308e-05 
2.336921477880e-03 9.268581716499e-03 0.0 
9.268581716499e-03 -1.835655051377e-03 0.0 
0.0 0.0 6.764283930381e-04 
-1.400468833948e-03 4.782606082085e-04 0.0 
4.782606082085e-04 1.899852937689e-03 0.0 
0.0 0.0 2.885075105173e-04 
-8.085473058430e-05 2.536698747370e-03 0.0 
2.536698747370e-03 7.852115960657e-04 0.0 
0.0 0.0 3.937024666174e-04 
1.223214079714e-03 5.310730525995e-03 0.0 
5.310730525995e-03 -8.093054878271e-04 0.0 
0.0 0.0 9.958953497165e-04 
-1.789818725420e-03 2.639270640457e-04 0.0 
2.639270640457e-04 2.366215535785e-03 0.0 
0.0 0.0 1.947988886701e-04 
1.086406502784e-03 1.109430873888e-02 0.0 
1.109430873888e-02 -5.143373881855e-04 0.0 
0.0 0.0 6.621668609181e-04 
-5.901623169461e-04 7.254458827488e-03 0.0 
7.254458827488e-03 1.171885241721e-03 0.0 
0.0 0.0 5.549925507130e-04 
-1.553732284597e-03 3.261511971915e-04 0.0 
3.261511971915e-04 2.080017390047e-03 0.0 
0.0 0.0 2.027170030564e-04 
1.150083787384e-03 1.063242177553e-02 0.0 
1.063242177553e-02 -5.898569364272e-04 0.0 
0.0 0.0 6.311041820598e-04 
2.316976967974e-03 1.602882943942e-04 0.0 
1.602882943942e-04 -2.139287240162e-03 0.0 
0.0 0.0 3.761376131245e-04 
-3.032478464331e-03 1.261154863264e-04 0.0 
1.261154863264e-04 5.043974750539e-03 0.0 
0.0 0.0 1.029199879632e-04 
2.059726103236e-03 8.248952561658e-03 0.0 
8.248952561658e-03 -1.578805867778e-03 0.0 
0.0 0.0 7.809600975336e-04 
-1.199724249244e-04 1.802946349197e-04 0.0 
1.802946349197e-04 7.083409386884e-04 0.0 
0.0 0.0 3.667627928634e-04 
4.444728427339e-03 -2.619956571548e-05 0.0 
-2.619956571548e-05 -1.959010500750e-03 0.0 
0.0 0.0 2.592569152491e-07 
-2.945630022595e-03 5.037096615287e-05 0.0 
5.037096615287e-05 4.878999152568e-03 0.0 
0.0 0.0 1.033619631931e-04 
1.072295418392e-03 5.888097928514e-05 0.0 
5.888097928514e-05 -6.480926698601e-04 0.0 
0.0 0.0 9.461966167039e-04 
3.491425758744e-03 -1.185588830427e-04 0.0 
-1.185588830427e-04 -2.797594634934e-03 0.0 
0.0 0.0 1.752904404588e-04 
2.187100821938e-03 4.317593500185e-03 0.0 
4.317593500185e-03 -1.699902826050e-03 0.0 
0.0 0.0 7.828523299552e-04 
-4.863550764830e-04 8.458804737461e-03 0.0 
8.458804737461e-03 1.054735994398e-03 0.0 
0.0 0.0 6.192801770048e-04 
-3.473341071631e-04 2.033940900647e-03 0.0 
2.033940900647e-03 9.277851356261e-04 0.0 
0.0 0.0 5.417254451446e-04 
3.604804960654e-03 -9.601255199292e-05 0.0 
-9.601255199292e-05 -2.833919208176e-03 0.0 
0.0 0.0 1.672429505120e-04 
2.235236023006e-03 6.303934355389e-04 0.0 
6.303934355389e-04 -1.535451402128e-03 0.0 
0.0 0.0 9.423696145239e-05 
1.613251463218e-03 2.470264110843e-06 0.0 
2.470264110843e-06 -1.362395522228e-03 0.0 
0.0 0.0 5.565999688278e-04 
-8.583510049978e-04 4.451698592485e-04 0.0 
4.451698592485e-04 1.414875455849e-03 0.0 
0.0 0.0 3.328911366518e-04 
8.596869870638e-04 -3.310063593254e-04 0.0 
-3.310063593254e-04 -3.425996145410e-04 0.0 
0.0 0.0 2.570270024814e-06 
1.329396746592e-05 7.380120111388e-03 0.0 
7.380120111388e-03 7.056750785743e-04 0.0 
0.0 0.0 4.163979749309e-04 
-1.848532997103e-03 3.803834256342e-04 0.0 
3.803834256342e-04 2.439234006818e-03 0.0 
0.0 0.0 1.659811411713e-04 
3.457993780086e-03 -9.191052373228e-04 0.0 
-9.191052373228e-04 -2.738629862641e-03 0.0 
0.0 0.0 1.716483817615e-04 
-2.142753172983e-03 4.497813090331e-04 0.0 
4.497813090331e-04 2.853853555728e-03 0.0 
0.0 0.0 1.590724200334e-04 
1.919836622221e-03 8.465542214156e-03 0.0 
8.465542214156e-03 -1.358378430483e-03 0.0 
0.0 0.0 7.329733652236e-04 
1.570444643193e-03 1.537467903822e-05 0.0 
1.537467903822e-05 -1.299609397616e-03 0.0 
0.0 0.0 5.834831178190e-04 
4.687971401909e-04 7.347760965422e-06 0.0 
7.347760965422e-06 -1.455105107766e-04 0.0 
0.0 0.0 -1.290469221459e-05 
2.413207639829e-03 -4.486455075949e-05 0.0 
-4.486455075949e-05 -2.264400490692e-03 0.0 
0.0 0.0 3.383072481489e-04 
1.878562611270e-03 1.372869001585e-05 0.0 
1.372869001585e-05 -1.632573366275e-03 0.0 
0.0 0.0 4.908180880119e-04 
1.511266854943e-03 1.915743296343e-05 0.0 
1.915743296343e-05 -1.233892632207e-03 0.0 
0.0 0.0 6.078948131579e-04 
2.225835464575e-03 7.145500659639e-03 0.0 
7.145500659639e-03 -1.739411724301e-03 0.0 
0.0 0.0 7.765642262347e-04 
1.791229575476e-03 4.383731228775e-05 0.0 
4.383731228775e-05 -1.581331608708e-03 0.0 
0.0 0.0 5.027302633139e-04 
1.765154797714e-03 -3.959796036883e-06 0.0 
-3.959796036883e-06 -1.529253511129e-03 0.0 
0.0 0.0 5.225974897626e-04 
3.705226486155e-03 -1.130628477434e-04 0.0 
-1.130628477434e-04 -2.275050072885e-03 0.0 
0.0 0.0 7.875361633857e-05 
1.264003344960e-03 8.810773464651e-04 0.0 
8.810773464651e-04 -8.648706461379e-04 0.0 
0.0 0.0 9.097825977607e-04 
1.894679860614e-03 9.973341562540e-03 0.0 
9.973341562540e-03 -1.389741030078e-03 0.0 
0.0 0.0 6.658141444314e-04 
3.145365440823e-03 1.297687941680e-03 0.0 
1.297687941680e-03 -2.198553999747e-03 0.0 
0.0 0.0 1.312320652278e-04 
-9.426031665327e-05 1.525734256059e-04 0.0 
1.525734256059e-04 6.845340356964e-04 0.0 
0.0 0.0 3.574178429387e-04 
1.055486418476e-03 8.375663631353e-05 0.0 
8.375663631353e-05 -6.474069224256e-04 0.0 
0.0 0.0 9.518983611770e-04 
-2.849087952760e-03 1.735587984718e-04 0.0 
1.735587984718e-04 4.127966134576e-03 0.0 
0.0 0.0 1.689354508291e-04 
-1.952867486807e-03 3.875959573785e-04 0.0 
3.875959573785e-04 2.523423528099e-03 0.0 
0.0 0.0 1.956847231981e-04 
1.851208790375e-03 5.128505561520e-06 0.0 
5.128505561520e-06 -1.607341458878e-03 0.0 
0.0 0.0 4.750175852661e-04 
1.845994297178e-03 1.012518436236e-04 0.0 
1.012518436236e-04 -1.615407387040e-03 0.0 
0.0 0.0 5.191046552788e-04 
1.782608356217e-03 -2.750430246107e-05 0.0 
-2.750430246107e-05 -1.517517009750e-03 0.0 
0.0 0.0 5.137435723755e-04 
2.367217124413e-03 4.795572270409e-03 0.0 
4.795572270409e-03 -1.951627214017e-03 0.0 
0.0 0.0 8.078280230354e-04 
3.403104267259e-03 -9.610995825797e-04 0.0 
-9.610995825797e-04 -2.471768412037e-03 0.0 
0.0 0.0 1.266243077106e-04 
1.773937752920e-03 1.020983711242e-02 0.0 
1.020983711242e-02 -1.203906575040e-03 0.0 
0.0 0.0 6.453599837862e-04 
-2.436580696585e-03 3.450210729034e-04 0.0 
3.450210729034e-04 3.425045315811e-03 0.0 
0.0 0.0 1.430705254105e-04 
-4.768321340337e-04 6.665214108742e-03 0.0 
6.665214108742e-03 1.059836004413e-03 0.0 
0.0 0.0 6.492570264655e-04 
2.332583519294e-03 4.660396852516e-03 0.0 
4.660396852516e-03 -1.932935554269e-03 0.0 
0.0 0.0 8.270538020569e-04 
-2.340175416883e-03 4.281034616296e-04 0.0 
4.281034616296e-04 2.958794568323e-03 0.0 
0.0 0.0 2.180371764289e-04 
1.068453228719e-03 1.013213190048e-02 0.0 
1.013213190048e-02 -5.061157744014e-04 0.0 
0.0 0.0 5.818691493942e-04 
2.092241964290e-03 7.095416388582e-03 0.0 
7.095416388582e-03 -1.659702212513e-03 0.0 
0.0 0.0 8.374804134413e-04 
1.960711136684e-03 7.343296236744e-03 0.0 
7.343296236744e-03 -1.412188631283e-03 0.0 
0.0 0.0 7.617419109584e-04 
1.129958547974e-03 3.023099658050e-04 0.0 
3.023099658050e-04 -6.605469434079e-04 0.0 
0.0 0.0 2.362866532673e-05 
1.014969126534e-03 1.020169589158e-02 0.0 
1.020169589158e-02 -4.657198038721e-04 0.0 
0.0 0.0 6.152839269558e-04 
1.293769670190e-03 1.069133600496e-02 0.0 
1.069133600496e-02 -7.179343245451e-04 0.0 
0.0 0.0 6.380249847399e-04 
3.794848779032e-03 5.561509589886e-05 0.0 
5.561509589886e-05 -2.310156939643e-03 0.0 
0.0 0.0 8.286703609992e-05 
1.937190165398e-03 1.184628475712e-04 0.0 
1.184628475712e-04 -1.737029860401e-03 0.0 
0.0 0.0 4.807559360332e-04 
6.144610964207e-04 -2.835593057143e-04 0.0 
-2.835593057143e-04 -3.809347728062e-04 0.0 
0.0 0.0 2.892277214807e-05 
9.903530269127e-04 1.068964811114e-02 0.0 
1.068964811114e-02 -4.093057568005e-04 0.0 
0.0 0.0 6.439077071771e-04 

SCALARS element_materi_plasti_kappa_shear float
LOOKUP_TABLE default
6.477424402960e-03
5.854493887200e-03
1.179946983498e-02
1.653358797431e-03
4.208588771122e-03
2.295714714742e-03
3.787053875656e-03
6.008928734065e-03
3.915905769946e-03
2.231944580448e-03
2.540131053147e-03
4.509181061402e-03
2.696303914370e-03
5.642279643425e-03
2.698721566852e-03
2.288825910977e-03
4.994859497113e-03
2.462721543181e-03
3.601645743980e-03
3.410826630807e-03
2.427846967655e-03
7.668613640231e-03
8.750636843249e-03
5.194783698282e-03
6.683992842237e-03
2.612428412059e-03
1.248115007566e-02
1.044735290475e-02
7.286440672593e-03
4.681021533844e-03
3.145857418480e-03
2.734290212023e-03
1.173092694187e-02
2.600223631446e-03
3.355583669052e-03
2.899736974481e-03
2.882832698586e-03
6.950632011822e-03
4.202725989170e-03
4.100839773479e-03
1.128061594183e-02
3.619203641516e-03
3.910515650693e-03
1.071782955927e-02
1.432388939339e-03
3.557718963639e-03
2.935807963419e-03
1.392466483370e-03
2.282610772993e-03
5.723814371795e-03
1.007917665872e-02
3.523649223429e-03
3.866546091572e-03
9.967533047933e-03
1.014629481414e-02
3.267463561147e-03
3.299020185954e-03
2.613817888263e-03
3.592873537545e-03
2.413465396349e-03
1.671411791356e-03
9.395306129402e-03
8.933791450026e-03
3.664508785193e-03
2.742691160957e-03
8.634695486525e-03
1.874494662086e-03
1.206567814844e-02
3.460587513912e-03
1.178392273051e-02
2.657958832094e-03
8.948624277014e-03
1.064604569785e-02
3.443996353404e-03
3.059840729605e-03
5.112174629319e-03
1.044864485744e-02
2.431724838111e-03
3.339530977195e-03
2.884004402501e-03
3.523670428728e-03
4.804189929997e-03
7.820337673564e-03
6.252934541890e-03
3.796554293175e-03
3.674670192176e-03
2.592302825777e-03
2.593282063589e-03
9.206363219795e-03
4.463608625140e-03
2.595893268538e-03
9.008518680143e-03
1.800722148082e-03
2.038301593555e-03
9.290057008570e-03
7.203014393900e-03
5.431165134887e-03
3.613832875946e-03
2.531700210895e-03
8.642052776754e-03
4.443737078566e-03
2.706769407049e-03
9.305347879341e-03
9.149174363250e-03
7.259972695300e-03
2.655613565254e-03
2.660630180506e-03
1.812620486148e-03
1.922844807267e-03
2.790205791230e-03
8.944894211663e-03
3.376421355249e-03
8.295082215945e-03
1.466960063150e-02
2.947410677756e-03
7.874828186671e-03
8.703301761932e-03
3.119882339477e-03
2.803190038792e-03
8.297392143684e-03
3.372025972774e-03
9.711868721688e-03
1.637867482392e-03
7.962131014435e-03
1.523364711575e-03
1.383235096627e-02
3.044600674365e-03
1.266236036262e-02
6.343394361207e-03
2.629748497437e-03
2.592530696375e-03
1.537329072941e-03
1.087780180290e-02
1.265877058704e-02
3.407532458122e-03
2.697364745764e-03
2.605495826127e-03
1.129844497648e-02
4.386303899324e-03
1.123558015675e-02
4.024821367384e-03
1.211145665677e-02
6.485749656677e-03
2.491514189861e-03
1.120291049805e-02
1.134328927143e-02
1.075061980285e-02
7.995977415150e-03
3.956285645135e-03
7.977398664052e-03
2.731131256645e-03
3.136534839062e-03
3.407567695588e-03
1.461403926347e-02
4.132947916463e-03
7.637649698234e-03
2.589115154636e-03
4.234962542402e-03
9.435536111048e-03
3.402547575925e-03
7.773790244573e-03
2.638223172022e-03
3.358025852121e-03
2.664630841229e-03
1.165814680463e-02
2.827497200799e-03
3.364023329479e-03
7.537357692676e-03
1.431359255435e-02
2.602838371011e-03
4.631644763317e-03
7.391576164434e-03
2.249287624327e-03
3.654090545974e-03
8.015771021579e-03
1.374211580009e-02
1.081870865137e-02
3.026251166041e-03
9.966065550508e-03
1.187898644643e-02
7.285254466593e-03
2.741688008687e-03
6.159032544054e-03
1.130441364383e-02
6.121060208151e-03
1.246664665903e-02
8.406798405100e-03
2.965663473224e-03
8.134454702835e-03
2.637882422653e-03
3.017824635670e-03
6.774463420007e-03
8.954272730032e-03
3.375130441403e-05
1.139167453465e-02
5.609037705529e-03
3.452885703260e-03
1.053567124885e-02
7.124633663521e-03
4.590858563067e-03
5.797437053219e-03
8.430461836637e-03
6.983660776854e-03
4.633192566607e-03
4.106211945962e-03
1.018208914083e-02
1.099717748605e-02
6.821124838823e-03
1.097153780218e-02
1.321456569623e-02
8.786486153502e-03
1.038247903900e-02
1.164309622167e-03
7.615996902910e-03
8.862071029022e-03
1.069776184646e-02
8.243904664865e-03
3.436143213958e-03
5.363823134895e-03
3.702481910122e-03
7.200608894663e-03
5.087376042816e-03
3.047302380108e-03
6.839380151722e-03
3.012867876823e-03
3.259304408519e-03
3.349384310297e-03
4.003719358817e-03
6.782098847146e-03
3.989186874454e-03
5.026232480454e-03
3.825550791546e-03
3.504321142658e-03
5.991595597371e-03
1.215846282624e-02
2.753273595657e-03
8.769249185311e-04
6.143673190552e-03
7.477929639946e-03
1.028418711693e-02
5.478332433345e-03
2.847582867394e-03
8.074248223944e-03
5.654669822717e-03
5.951172279714e-03
2.561378291604e-03
1.093998457226e-02
7.383900490931e-03
9.602854889742e-03
7.099769595466e-03
5.294755061650e-03
1.001175398470e-02
8.615578973266e-03
1.013165853652e-02
7.738549342929e-03
3.166871503844e-03
3.272638821794e-03
1.046314985644e-02
6.105954279607e-03
4.211055837965e-03
3.450735870782e-03
6.417621655035e-03
1.054771972328e-02
8.263179398843e-03
6.438988170083e-03
8.656887558049e-03
1.093682332037e-02
2.931885220397e-03
7.944801478857e-03
1.069308794947e-02
8.552041759559e-03
8.107611532042e-03
4.858747129673e-03
8.306039017768e-03
6.923110251192e-03
4.923985366797e-03
7.851856150317e-03
4.734385637218e-04
1.029531202662e-02
5.983434760233e-03
5.666439274696e-03
4.522785672920e-03
9.356367824608e-03
2.955990611493e-03
9.630993807017e-03
8.193089361870e-03
1.024250712382e-02
8.154345873252e-03
3.033007862398e-03
5.097806758776e-03
4.701661046108e-03
8.338107394892e-03
7.943694300001e-03
9.605894200056e-03
6.782726620316e-03
6.931473488492e-03
3.187150607976e-03
8.448292098520e-03
3.284928693613e-03
1.251834261454e-02
1.304483680683e-02
9.710499851609e-03
5.473518082416e-03
4.889496362586e-03
9.969204871014e-03
5.031146283888e-03
4.812373713698e-03
1.087614605829e-02
4.237676094185e-03
6.583215588213e-03
9.023704075073e-03
4.347387944810e-03
4.736427022701e-03
5.493063844490e-03
1.029747016569e-02
3.762609389314e-03
6.641011570545e-03
7.270001347091e-03
4.998303681752e-03
1.137321317531e-02
1.303585001712e-02
6.382152914993e-03
7.945542901319e-03
3.833393162832e-03
4.742321837820e-03
5.216086327987e-03
6.049223930484e-03
4.633987210517e-03
1.190300245378e-02
4.968065315498e-03
1.317095815611e-02
6.004925869497e-03
9.158904209800e-03
4.561107199262e-03
1.244703770577e-02
1.043727024536e-02
1.013136611855e-02
9.839716776422e-03
1.071151779976e-02
7.693866261943e-03
1.128502448668e-02
6.541979068114e-03
3.812986661497e-03
1.334892285589e-02
6.834902299001e-03
3.560787894210e-03
4.869495701370e-03
6.157290395405e-03
7.192210741480e-03
6.468904279101e-03
1.142828718203e-02
7.875278850368e-03
4.953613190480e-03
8.621660433859e-03
1.230970145766e-02
4.961516404449e-03
4.708926216630e-03
6.042591514922e-03
6.402724863987e-03
9.202866642158e-03
1.032513310478e-02
1.025870174717e-02
1.219745770098e-02
6.266986835247e-03
6.831652023980e-03
8.612554172990e-03
7.171281580928e-03
5.169186061058e-03
9.483103014772e-03
5.022460030905e-03
5.558193296011e-03
1.030128195915e-02
6.891649384630e-03
3.704755486895e-03
7.766458007982e-03
4.745467728380e-03
9.420411670202e-03
1.078313695727e-02
9.277717933141e-03
1.321593351752e-02
1.272802356643e-02
1.115428366622e-02
5.095399652605e-03
6.194488428799e-03
5.680541452471e-03
5.989470255802e-03
3.901157248419e-03
1.031336480533e-02
6.814813501332e-03
5.306927741205e-03
5.235331863333e-03
9.582000218989e-03
9.498675062811e-03
9.565491927919e-03
4.392966343471e-03
2.834343181116e-03
7.976607779110e-03
9.353705149073e-03
8.145537286731e-03
2.011173764577e-03
3.007803534003e-03
3.733396603874e-03
6.196958453696e-03
4.763210873199e-03
8.490861366572e-03
1.073630048757e-02
3.686706561118e-03
9.964408708816e-03
7.638645170807e-03
9.659905663429e-03
1.277590175985e-02
1.218408353034e-02
1.016160121530e-02
3.778010918971e-03
7.081882227587e-03
4.840430087013e-03
1.235812701102e-02
1.307972045151e-02
1.208986284739e-02
1.284170848114e-02
9.172952914121e-03
7.274610674403e-03
9.941439779400e-03
9.500976468059e-03
9.700469754216e-03
3.542913636854e-03
8.430891855366e-03
1.129140847543e-02
6.781274271237e-03
8.374964821273e-03
7.241089784472e-03
9.954049570890e-03
9.174726577447e-03
1.048994787537e-02
4.687459300510e-03
7.349812969566e-03
8.926937221440e-03
1.089660576648e-02
3.605552480879e-03
4.638257207127e-03
4.859206623296e-03
6.895085871677e-03
1.299546141021e-02
1.048295453159e-02
9.800403811376e-03
2.468626969989e-03
1.239374804073e-02
5.781714187091e-03
4.734485329813e-03
8.070559054681e-03
7.922647384490e-03
2.111723335675e-03
9.162327011763e-03
9.637627866198e-03
9.820601109331e-03
1.022648425186e-02
5.400921611394e-03
1.139853065951e-02
6.417300109126e-03
2.928681997973e-03
3.048713053774e-03
2.421149279363e-03
1.184321659353e-02
3.360404112964e-03
1.307864112703e-02
5.615364411579e-03
1.015429494990e-02
9.855298053279e-03
2.915267394144e-03
2.643521283349e-03
3.193089514999e-03
3.587980851967e-03
7.237177372750e-03
1.060076144199e-02
8.792266932309e-03
6.116105208164e-03
1.169970282969e-02
1.008978509811e-02
4.857420287664e-03
7.193174510175e-03
8.290269183706e-03
3.605922714021e-03
7.435012145074e-03
1.300586995015e-02
1.255051215955e-02
4.728665398044e-03
3.401816208290e-03
8.978168880876e-03
4.462036980690e-03
6.349920117494e-03
5.713422440018e-03
5.239351010292e-03
5.340564218591e-03
4.290827278004e-03
4.298650321721e-03
2.660761394226e-03
5.215692770257e-03
5.074116199469e-03
1.276527747729e-02
1.003165782545e-02
1.917982704526e-03
8.766942178629e-03
6.358367255346e-03
1.193217019904e-02
9.426499595655e-03
9.934733031132e-03
3.690035013391e-03
5.859209681788e-03
5.076419179766e-03
5.189706776452e-03
2.069383777793e-03
1.079271396402e-02
4.381587092849e-03
5.108053964734e-03
4.934075785296e-03
4.468580617255e-03
5.100961190501e-03
9.793652200080e-03
8.070382261753e-03
3.235738799039e-03
4.840878628814e-03
9.343059204818e-03
6.112933358098e-03
5.345672734023e-03
4.986710626731e-03
9.628550724674e-03
9.889880732916e-03
8.242514355172e-03
9.132357002225e-03
4.050403075956e-03
6.449272648336e-03
3.452641161335e-03
9.961189794683e-03
7.758941930694e-03
5.151049063127e-03
7.188183598573e-03
4.311668342563e-03
5.742341496013e-03
5.738147735136e-03
8.200430252587e-03
2.307509496354e-03
4.028106963823e-03
8.046385309063e-03
4.826809853468e-03
4.350513458130e-03
4.599255512587e-03
1.026302668478e-02
9.725516972934e-03
7.669328929766e-03
4.831240598242e-03
6.480429884416e-03
7.638519993203e-03
1.127951611075e-02
8.621590133569e-03
2.795116615970e-03
3.964860807708e-03
7.836660365887e-03
4.951098450780e-03
3.201387352398e-03
1.719822023318e-03
7.218478085611e-03
4.955269637058e-03
3.520234138218e-03
8.603647484911e-03
4.697749397332e-03
4.240070173781e-03
4.721411423146e-03
4.039993635560e-03
9.769426408126e-03
3.274594713998e-03
9.854684045199e-03
3.461453802212e-03
1.917458873150e-03
9.157229751488e-03
2.788895520437e-03
2.991246283341e-03
3.146262561365e-03
4.513363609465e-03
2.390639411268e-03
6.514053446252e-03
6.288418311183e-03
1.161866170557e-02
6.483510717543e-03
9.026387629539e-03
9.799177368307e-03
3.233578843942e-03
3.504352458354e-03
2.358005137376e-03
4.161187799848e-03
1.081993652298e-02
2.467305565847e-03
3.490001234800e-03
3.872155766343e-03
3.167602885401e-03
4.774825445987e-03
3.541304280143e-03
2.796658910900e-03
2.988396530363e-03
3.737056194857e-03
3.737746463628e-03
2.700140807897e-03
3.229722409237e-03
4.590728965886e-03
4.997946147291e-03
3.587896388357e-03
4.536879606053e-03
3.525499026445e-03
3.318319605014e-03
3.618476040891e-03
3.235795568210e-03
2.737345787167e-03
7.022512005868e-03
3.357438807295e-03
7.883205736253e-03
8.500910537152e-03
6.830546058398e-03
3.000376095773e-03
4.824352934666e-03
4.536707609656e-03
3.167448287904e-03
1.102593858726e-02
3.202282665572e-03
6.828995353995e-03
3.217305692326e-03
1.231554721270e-02
4.953981117066e-03
4.849971379456e-03
3.135096334501e-03
3.219378882834e-03
3.320046678560e-03
3.722411033292e-03
3.488127866089e-03
2.659432454487e-03
1.533305664039e-03
3.760508647387e-03
2.358479309987e-03
6.153549945753e-03
1.110589742591e-02
4.300367743510e-03
2.631611521114e-03
2.897239923009e-03
3.549314806041e-03
6.450008127021e-03
6.698720734850e-03
4.534256985306e-03
5.305873604010e-03
2.963411961863e-03
4.971807668598e-03
3.839262803181e-03
6.925049797708e-03
5.922089983648e-03
1.290489029055e-02
1.153160732531e-02
5.899292133655e-03
3.456639131141e-03
3.190072307804e-03
3.372687049061e-03
3.683705641958e-03
2.668570601278e-03
1.080232043057e-03
1.707873260062e-03
1.688741241562e-03
6.172282044291e-03
1.556406890354e-03
1.334122002618e-03
5.828135092620e-03
2.721807064705e-03
2.498791709962e-03
1.158584491091e-02
3.262037438000e-03
2.981217201513e-03
2.814312528799e-03
2.976913384892e-03
5.527261932196e-03
6.487024082995e-03
5.522753596358e-03
9.896480740899e-03
3.606235428585e-03
3.564245317165e-03
3.317137452367e-03
2.780533599674e-03
2.774571795773e-03
1.397709952161e-03
3.305045642243e-03
2.643080499995e-03
2.708486514952e-03
2.803663340412e-03
3.532247607952e-03
1.931054948833e-03
1.499380504927e-03
2.718665432762e-03
2.756042261855e-03
1.681991298352e-03
3.473874958185e-03
4.556586838988e-03
5.185291372555e-03
3.221512619938e-03
2.947414631515e-03
3.327252280101e-03
3.154509785093e-03
3.490916264941e-03
3.434591017992e-03
3.518119052257e-03
3.315726066776e-03
2.048651397982e-03
4.193155054401e-03
1.819282820092e-03
2.714133986738e-03
4.080593197345e-03
3.050211824222e-03
2.563068029245e-03
2.378757666301e-03
2.154055232460e-03
2.584476968039e-03
2.679169839680e-03
2.446066473778e-03
2.561402486174e-03
2.246169401193e-03
9.938138799274e-03
4.727846030271e-03
7.311116165942e-03
3.568739911667e-03
3.082860690626e-03
3.940339359524e-03
2.623978305552e-03
3.511352891474e-03
2.651724046285e-03
2.673084557329e-03
2.732867389026e-03
4.127020440776e-03
3.631034971895e-03
2.633133762723e-03
2.665786144659e-03
2.725194388031e-03
1.799131528074e-03
3.195953141458e-03
3.399246499084e-03
3.170791436552e-03
3.367838634355e-03
2.782280142516e-03
3.753209218997e-03
3.203379041845e-03
2.782515582549e-03
3.114378406548e-03
2.835461601419e-03
2.786251363843e-03
1.518629978178e-03
2.841210191905e-03
4.646176498266e-03
3.605525577532e-03
2.731217846610e-03
2.660031043674e-03
6.283121189795e-03
1.184866620333e-02
8.615814553052e-03
3.002335196558e-03
2.723672883778e-03
2.622984394767e-03
4.052567488206e-03
1.981538215896e-03
2.135599575312e-03
3.446223552223e-03
3.114684417226e-03
2.842482297742e-03
1.616326477417e-03
1.823099646570e-03
3.843769507661e-03
2.722310401360e-03
3.076986998109e-03
2.612716545235e-03
3.004502688763e-03
2.153469933105e-03
2.611658249587e-03
4.429541906623e-03
3.416713039877e-03
4.027956456421e-03
3.212589052141e-03
2.166225070659e-03
1.942366306202e-03
2.671853181012e-03
2.248234978478e-03
9.090102188179e-03
3.408872947472e-03
2.878487226805e-03
2.666657659145e-03
4.741310034899e-03
2.670983040332e-03
3.548332232833e-03
8.038221162712e-03
2.898928314758e-03
3.429653037619e-03
3.260429703038e-03
2.322312145225e-03
3.360502494806e-03
4.225627575368e-03
2.659294037964e-03
3.118859422612e-03
3.541494784228e-03
2.125960508180e-03
2.563560580574e-03
3.032983014194e-03
2.656702858178e-03
2.720363981072e-03
2.203414412205e-03
3.509792376389e-03
2.918231040382e-03
8.866834126914e-03
2.485166519026e-03
3.040747780459e-03
3.554719560968e-03
3.428585341467e-03
2.512526105399e-03
2.655092606952e-03
3.274316304922e-03
4.125280246297e-03
2.722229346718e-03
2.836658501915e-03
2.630223726311e-03
3.354796525967e-03
4.671892684879e-03
2.850933109009e-03
2.720809064790e-03
3.453152923479e-03
3.020626142447e-03
2.995312784360e-03
3.419858185839e-03
2.880282182947e-03
3.339004208345e-03
3.707400547520e-03
2.617827782271e-03
2.765130019425e-03
2.559941319414e-03
2.831252963041e-03
3.493668846871e-03
3.089429314225e-03
3.299809859676e-03
3.859228666058e-03
4.565590299605e-03
3.033808581537e-03
2.561414610791e-03
3.149929935275e-03
4.953334545873e-03
3.421368350475e-03
3.150632149163e-03
3.494577552852e-03
3.575024983714e-03
3.747382361042e-03
3.341256243260e-03
3.461523301370e-03
3.383373062650e-03
3.360151674026e-03
3.507881024278e-03
7.753251969463e-03
3.681263562482e-03
2.801549152535e-03
2.716836744302e-03
7.983738636479e-03
2.808304272342e-03
2.919613351261e-03
2.934008832361e-03
3.610320721529e-03
2.805805128297e-03
3.168815323821e-03
2.713078670631e-03
2.938445601885e-03
2.954540344926e-03
7.591057776758e-03
2.570940946651e-03
2.828810879033e-03
2.827607717429e-03
3.241900446198e-03
4.258504809341e-03
2.948493265065e-03
4.590668841176e-03
3.583327347755e-03
3.368178656602e-03
3.113070454865e-03
3.610861478934e-03
3.269503669199e-03
2.604811028138e-03
2.887837055265e-03
5.297425142899e-03
3.023024221314e-03
3.506070415167e-03
3.451030225503e-03
3.207381071065e-03
2.789421860487e-03
3.180813422076e-03
3.500837617436e-03
3.522603661245e-03
3.273710004819e-03
3.312652539010e-03
3.337588154148e-03
3.205289695279e-03
2.292493880095e-03
3.597605098292e-03
3.588691488292e-03
3.971898227811e-03
3.441951008363e-03
2.750050437448e-03
3.034819697336e-03
5.539280228224e-03
3.447736987996e-03
3.184036539792e-03
6.004280618212e-03
9.609991274989e-03
2.874881744352e-03
4.215882379892e-03
3.919142037309e-03
3.514896440238e-03
3.325401487940e-03
6.363720565604e-03
8.460815897978e-03
3.351998685675e-03
4.491293432895e-03
3.488373322118e-03
4.028159848554e-03
3.483579552350e-03
4.715274650702e-03
3.016287543341e-03
2.728516053276e-03
4.476321486234e-03
3.717787415900e-03
3.995380416380e-03
3.350206022995e-03
3.689575327091e-03
9.253253673889e-03
3.236460009836e-03
1.019922121917e-02
8.963954101832e-03
3.536840485655e-03
3.052014265220e-03
3.995090447391e-03
2.756542585930e-03
4.067140986369e-03
4.374220950301e-03
3.475043269082e-03
1.055519778076e-02
8.832390483024e-03
3.481357447192e-03
2.775315624539e-03
4.023160513815e-03
3.840642387406e-03
3.600636051787e-03
4.227932857514e-03
3.620581711230e-03
3.498663061486e-03
3.888042404748e-03
7.236705879362e-03
3.939800381092e-03
5.837217220106e-03
3.744594197985e-03
3.919275280504e-03
3.575638071001e-03
4.479682686888e-03
4.547958626102e-03
2.682520966607e-03
4.780780692269e-03
4.101366560806e-03
4.364401576621e-03
8.346024717770e-03
3.567402557396e-03
3.741336182582e-03
3.832996688442e-03
9.713321325719e-03
4.112319512593e-03
4.244811238638e-03
3.300493234288e-03
3.782338907461e-03
8.943800005779e-03
3.563198192028e-03
4.472736322201e-03
4.224021192511e-03
3.487772125000e-03
3.438671417568e-03
4.270842222593e-03
3.774590959794e-03
1.077431814362e-02
2.862059003001e-03
5.616853924553e-03
5.079260391191e-03
4.325936043266e-03
3.616903175367e-03
4.469218550099e-03
3.424121449938e-03
4.437830603523e-03
2.375728172542e-03
3.394261063627e-03
3.325466085600e-03
3.507592327722e-03
4.564251502391e-03
4.137554246959e-03
5.351932257340e-03
4.664545799558e-03
3.866708027412e-03
3.520155486570e-03
5.245500081873e-03
3.471455222001e-03
4.341426613093e-03
1.053699972284e-02
9.060737018471e-03
4.354862339112e-03
1.109485776872e-02
7.292819853683e-03
1.013248447963e-02
4.144530011911e-03
4.159339257192e-03
7.759235400833e-03
4.585355429166e-03
3.712856484906e-03
3.684802903184e-03
4.945120028033e-03
5.205308384218e-03
3.344358267516e-03
4.700040507196e-03
5.462218780592e-03
5.941322118904e-03
4.056919402344e-03
7.226914537895e-03
3.814614519077e-03
6.146538765234e-03
4.139310330371e-03
4.397395901546e-03
4.510681288555e-03
5.033345522283e-03
1.149859022677e-02
9.544124915672e-03
4.298119917796e-03
9.059185593058e-03
5.892272520473e-03
5.309980825251e-03
7.705514907018e-03
8.972995646983e-03
9.490711268315e-03
3.912431221880e-03
6.116969992348e-03
3.691402668165e-03
7.347720435642e-03
2.591398738884e-03
6.667260196435e-03
3.442827910696e-03
4.168848563810e-03
5.756489433446e-03
7.522329072538e-03
4.620014480872e-03
3.634828431584e-03
4.221792871376e-03
5.681501089709e-03
4.217422081888e-03
4.720008605313e-03
1.094734881027e-02
3.894770331056e-03
4.253427853314e-03
3.608620069689e-03
3.761824094743e-03
4.904171896540e-03
3.958152904686e-03
4.140671949285e-03
3.454404842196e-03
5.393353421243e-03
6.517957905926e-03
5.960258612587e-03
8.815639837879e-03
5.031251103212e-03
9.181303294099e-03
2.740014645763e-03
1.076630346028e-02
5.583164431245e-03
3.893500980103e-03
3.734429532413e-03
5.129178871816e-03
4.367250478700e-03
6.656655610130e-03
4.360820747820e-03
4.246826494609e-03
3.407246271314e-03
3.916143714006e-03
3.642257676596e-03
7.990135493103e-03
3.956654527512e-03
3.909797797117e-03
1.224748990631e-02
7.060706952881e-03
6.491257506305e-03
3.421553231345e-03
6.302175664218e-03
6.329537978705e-03
7.673191816626e-03
4.632678965998e-03
6.414830514361e-03
7.671542946610e-03
1.149442730974e-02
4.153412728231e-03
5.167124211401e-03
4.333530834357e-03
1.571791551130e-03
4.161204854009e-03
6.283577945060e-03
8.781783136470e-03
7.338953045318e-03
4.041781184971e-03
4.182241891486e-03
2.288058360090e-03
6.855152136959e-03
7.269256716443e-03
1.163128098687e-02
4.086090322377e-03
4.490618145064e-03
4.267529510138e-03
4.285202989718e-03
7.351557366307e-03
3.733373945324e-03
1.013758836624e-02
4.258366172501e-03
3.015990079587e-03
4.706178613235e-03
9.050069007622e-03
3.884605799414e-03
7.474949936006e-03
6.817103145846e-03
3.162833757043e-03
3.356307410865e-03
3.313797633437e-03
3.327202151054e-03
4.302659236397e-03
1.032552783813e-02
3.042377518272e-03
4.245422546839e-03
9.424063163651e-03
4.823863127681e-03
3.786150150393e-03
4.476333961961e-03
7.427798432979e-03
3.740282433791e-03
4.313121195544e-03
4.064584507143e-03
7.478982610367e-03
1.121498197684e-02
6.091658376890e-03
3.347641380928e-03
6.721557171204e-03
5.675862013012e-03
3.988749684298e-03
4.403915613732e-03
4.015438827442e-03
3.198526099930e-03
7.675935075331e-03
5.486683335754e-03
8.611191991011e-03
8.659147544092e-03
6.309893142467e-03
7.538505517827e-03
4.296634517320e-03
9.519739073568e-03
5.079899850815e-03
5.542165510267e-03
4.847353484722e-03
3.241593869970e-03
5.179497630474e-03
8.032174958509e-03
8.230511633960e-03
7.709855286636e-03
4.915843066821e-03
3.342556739283e-03
8.430278959563e-03
3.521173659481e-03
8.735642648889e-03
7.129733762680e-03
5.949975858941e-03
7.232244027926e-03
7.543454520433e-03
4.715352752203e-03
7.192377345322e-03
1.037313681553e-02
1.119492735444e-02
1.062410200411e-02
1.474185845667e-02
1.611105387676e-02
7.502183934524e-03
1.641000540987e-02
9.016964619046e-03
7.910138316583e-03
6.682809830709e-03
4.354249619240e-03
7.073663358073e-03
3.990681207875e-03
9.994880719023e-03
3.359560597349e-03
8.078786357962e-03
5.643721691890e-03
5.215621508033e-03
6.921955806269e-03
3.080344565669e-03
4.887560850644e-03
5.959704408937e-03
7.026292900226e-03
7.138241593012e-03
1.083004584881e-02
9.384455918793e-03
4.263836264276e-03
4.627601825240e-03
8.621304657818e-03
9.476893027355e-03
2.930689401155e-03
5.529717667432e-03
6.855166800832e-03
9.533006446971e-03
6.672416560398e-03
3.705881128316e-03
1.116361310033e-02
5.912914282526e-03
5.177146721662e-03
7.101035452306e-03
6.475039362749e-03
8.903055184388e-03
4.990869565638e-03
1.146302917441e-02
7.102497810807e-03
4.503004737582e-03
9.903778267817e-03
9.004621794140e-03
6.859603849319e-03
7.303793624208e-03
4.858441692126e-03
4.316341401451e-03
7.076800437485e-03
8.733453698572e-03
2.923013896057e-03
8.790755468516e-03
1.031541268930e-02
8.635901813412e-03
8.623444025713e-03
9.313211140365e-03
7.836768767215e-03
3.455520738049e-03
5.635391905623e-03
6.776884694702e-03
8.680145947361e-03
5.956434515037e-03
1.011937946597e-02
4.246732388176e-03
8.489524436354e-03
8.856874004985e-03
6.413491655059e-03
6.024087084693e-03
1.003977182797e-02
9.159683707977e-03
9.855478307552e-03
8.077104694915e-03
1.020125412861e-02
6.431648178676e-03
3.269283892795e-03
8.083463300863e-03
1.041653445421e-02
5.974963004894e-03
9.859564652917e-03
5.976546336644e-03
3.747184559911e-03
7.423820556527e-03
3.038206598222e-03
2.843541815227e-03
9.319555502867e-03
8.870743245807e-03
1.088144012656e-02
2.288271422442e-03
3.804932319894e-03
6.320523906984e-03
6.284577656582e-03
3.673362154800e-03
6.703611763341e-03
3.063869327527e-03
9.205014270488e-03
6.284773547005e-03
9.419095490702e-03
3.036497581266e-03
1.011211848751e-02
7.868150324871e-03
1.171675143912e-02
1.048484141797e-02
5.081473593872e-03
3.334158724495e-03
4.936553201495e-03
8.006807295008e-03
8.293847248547e-03
7.337233818068e-03
9.706534866943e-03
2.771450539462e-03
2.663534136212e-03
1.024349457485e-02
5.219206489288e-03
3.232791851273e-03
3.926094566890e-03
3.947484693752e-03
3.895620546414e-03
8.648728935902e-03
9.909295136019e-03
3.401172998155e-03
9.345672035826e-03
8.841225176440e-03
5.644128673427e-03
7.650796865176e-03
1.022845816600e-02
9.886716226808e-03
8.639048636584e-03
3.733144096082e-03
5.049360824775e-03
4.067971722056e-03
9.548116376738e-03
9.522422797735e-03
6.207718595836e-03
9.478658940272e-03
9.655735458706e-03
3.584129016049e-03
3.959022472734e-03
1.035864292637e-02
9.080551758900e-03
9.006159813607e-03
7.201722268732e-03
3.416784799981e-03
4.075405501987e-03
9.166495345969e-03
3.880911170476e-03
1.614547771580e-02
1.724209945097e-02
6.607772629482e-03
4.231900367633e-03
3.570420221308e-03
6.210802198180e-03
4.198201439764e-03
1.047199888296e-02
5.084073119442e-03
3.366025370969e-03
3.142952588106e-03
3.327424721618e-03
5.852415436246e-03
9.278884429064e-03
3.327126878381e-03
5.015682466541e-03
3.847794643264e-03
9.303374427591e-03
9.528231093365e-03
6.092530403857e-03
5.101779547657e-03
5.620883369445e-03
4.942132804789e-03
9.126404274349e-03
9.019092180408e-03
1.338080937364e-03
3.696863049448e-03
1.056024429407e-02
8.455449914068e-03
1.035764338526e-02
6.779242609974e-03
8.098153510250e-03
1.076779835084e-02
1.379479185159e-02
1.042638107833e-02
3.121349523830e-03
9.746017530684e-03
3.855477795089e-03
3.965629412539e-03
8.580858551441e-03
5.225330090212e-03
9.436401280841e-03
8.374295848372e-03
4.728785048240e-03
8.231754968560e-03
5.434614632821e-03
6.703291993316e-03
5.834859208294e-03
9.181460866474e-03
5.546964932626e-03
9.458461481247e-03
7.611582516557e-03
7.415053693685e-03
8.090713566821e-03
7.000388152100e-03
2.980127331482e-03
2.966388303361e-03
3.269295613112e-03
9.478487697088e-03
2.834960718084e-03
9.429848154619e-03
3.256180208050e-03
1.022662452069e-03
2.852901991705e-03
5.371321430164e-03
2.565446506814e-03
9.111037087137e-03
7.276240245476e-03
7.690404113515e-03
9.398085085917e-03
1.283395173268e-02
1.460383506519e-02
2.849007176411e-03
5.252195372348e-03
6.141362911422e-03
6.020262380118e-03
6.669364456549e-03
5.500275942779e-03
1.285557479342e-02
9.140794500816e-03
4.040234802994e-03
7.321465446416e-03
7.793325381099e-03
7.726179365102e-03
2.638097893412e-03
6.848644456802e-03
2.883404258293e-03
5.643466348754e-03
8.506983307608e-03
9.268854150245e-03
9.739013688383e-03
5.312495161254e-03
4.479722646479e-03
9.489606676300e-03
6.458388168360e-03
9.542949065661e-03
7.012434725796e-03
9.707835079446e-03
6.288409550825e-03
3.448271610525e-03
9.451282450536e-03
1.183505617852e-03
8.614208784028e-03
1.975493097850e-03
3.435799780937e-03
3.300514910008e-03
1.056648984696e-02
7.983313683133e-03
9.559977961847e-03
1.072439186081e-02
1.112285845901e-03
1.103413452031e-02
5.935312914248e-03
3.120308546583e-03
1.302422485468e-02
5.615157237998e-03
5.373721425568e-03
9.550800413495e-03
8.699214799430e-03
1.031441965370e-02
4.073814778576e-03
3.416752435136e-03
2.958328542198e-03
4.028017500615e-03
1.116151355001e-02
8.518534048481e-03
2.575593585717e-03
3.530955959090e-03
1.970582305516e-03
3.763084236126e-03
2.930368542206e-03
6.051975726081e-03
5.444654475537e-03
5.203893498948e-03
3.075412061121e-03
8.189238063962e-03
2.803992804727e-03
6.296162980887e-03
9.589396795501e-03
5.320441770253e-03
9.072845099576e-03
2.788264300144e-03
3.043823467829e-03
6.925974092982e-03
6.051650752000e-03
2.677607414174e-03
2.252874245591e-03
2.557549179410e-03
8.157969904825e-03
2.899054500878e-03
5.195038538929e-03
3.759883471270e-03
8.222744000179e-03
3.787223879016e-03
5.252209764828e-03
8.542166226274e-03
9.535362713480e-03
2.676384100330e-03
3.177884794641e-03
1.084636974402e-02
2.879941541233e-03
5.793591343529e-03
3.514780094277e-03
1.813307790846e-03
1.469085704559e-03
5.647870900717e-03
6.359038822752e-03
9.702953452571e-03
2.757089881308e-03
2.746376475276e-03
5.929092257493e-03
3.138761741400e-03
1.938668444805e-03
2.659599657821e-03
5.485105885716e-03
4.869198544093e-03
9.804791768630e-03
8.274994338379e-03
9.627519916554e-03
3.787944122233e-03
7.368535072464e-04
2.337302928111e-03
2.686203042124e-03
3.259655488744e-03
5.192764558239e-03
9.633867497116e-03
5.999947332601e-03
3.407809756363e-03
6.938759869019e-04
2.361656098546e-03
8.490346781434e-03
1.283347411523e-02
1.007355853506e-02
3.359354022479e-03
9.321464629643e-03
8.177891432220e-03
4.707325212211e-03
9.449036479437e-03
5.069359396069e-03
4.285996604519e-03
4.816997856620e-03
8.561472414631e-03
2.677605196879e-03
5.517817056616e-03
9.908251805011e-03
1.132749622870e-03
5.914546664015e-03
7.792856588454e-03
4.358565899564e-03
4.633154707261e-03
9.374181414239e-03
3.862959387939e-03
4.677063466182e-03
6.382500125981e-03
4.339596877241e-03
5.768424492641e-03
8.455814226281e-03
1.001619316107e-02
1.113059658077e-02
6.993499570008e-03
1.974495526465e-03
1.135978440550e-02
5.884874785100e-03
2.431216737967e-03
9.227314893242e-03
5.456393379804e-03
9.473241973660e-03
5.605492196607e-03
2.785407797537e-03
5.680566670126e-03
4.965496257137e-03
8.183284192151e-03
5.520051890507e-03
9.507389953060e-03
2.572162438559e-03
4.242899561173e-03
3.176887845411e-03
5.393492960859e-03
5.571917680452e-03
1.850253497689e-03
1.349168209606e-03
1.418045320157e-03
2.528187150489e-03
5.551513507476e-03
3.946009488886e-03
3.900083177465e-03
1.049508924849e-02
9.349162287265e-03
1.029747838927e-02
5.732084284554e-03
4.399171814409e-03
3.437331254144e-03
3.799597212281e-03
6.895118173562e-03
8.615269782377e-03
3.466293294277e-03
8.992621174353e-03
6.267333874042e-03
2.915020597091e-03
5.607724887344e-03
2.572593767265e-03
8.835754476825e-03
3.652928738689e-03
2.605490458223e-03
1.007740299928e-02
9.301812226700e-03
4.581223964674e-03
3.142943302127e-03
8.787683272176e-03
2.429146593624e-03
2.850881308571e-03
1.148989504041e-02
1.153195118118e-02
2.947377792236e-03
6.551744294112e-03
1.209083226627e-02
5.822681673475e-03
5.372091246664e-03
6.244737998585e-03
1.004689336008e-03
3.243287811980e-03
2.527607531365e-03
4.475345051794e-03
5.329733062761e-03
3.164098709516e-03
4.742226933200e-03
4.529299317257e-03
5.721685621655e-03
3.218353517266e-03
9.727743436815e-03
3.071469248156e-03
3.204067733859e-03
5.336101458501e-03
5.855470708217e-03
1.345217521687e-03
2.448569484726e-03
3.587129588644e-03
2.955608260788e-03
8.956986296055e-03
4.992407859219e-03
5.449072526937e-03
2.541392930493e-03
1.455652187617e-03
5.116989252740e-03
2.318537033257e-03
1.788499279797e-03
2.361930024930e-03
2.748154370106e-03
2.980031748472e-03
4.942749605100e-03
5.245019912348e-03
4.828226668702e-03
2.881158848454e-03
1.407965548960e-03
1.836238578718e-03
7.163750899357e-03
4.659826343770e-03
1.714830999527e-03
1.016230229006e-02
8.947415878504e-03
9.854567042306e-03
3.045555072746e-03
4.393687414936e-03
4.489004054025e-03
2.147544378702e-03
9.445083489941e-03
1.046521810406e-02
3.517268780605e-03
3.198726531252e-03
3.152579600066e-03
3.375378373628e-03
4.241231265198e-03
3.757318774154e-03
2.903753701786e-03
7.266468393901e-03
1.134778368179e-02
9.230748388602e-03
5.755385067162e-03
2.972611161074e-03
3.091480192954e-03
3.542163330820e-03
2.119313346811e-03
3.346578452895e-03
9.449514745854e-03
3.546974119768e-03
3.421296195992e-03
5.834355806230e-03
3.019336588431e-03
3.239565380465e-03
7.672322397979e-03
4.729309409332e-03
4.619989090830e-03
6.234269112598e-03
4.660723058103e-03
1.453810699000e-03
1.519543524404e-03
3.435705369328e-03
3.840921111307e-03
2.796665915122e-03
1.013664112703e-02
3.947847445891e-03
6.818975600909e-03
2.796122116680e-03
9.547001044634e-03
7.325284872017e-03
1.855616931739e-03
6.668474738834e-03
2.641045915938e-03
2.976070734427e-03
4.094682595802e-03
3.404198484451e-03
4.803561875205e-03
9.341072783681e-03
6.459096853994e-03
3.842173701751e-03
8.142722613798e-03
3.881544132530e-03
1.228968646261e-02
2.955075073858e-03
2.428116903473e-03
9.298534732547e-03
4.296752922646e-03
8.057070070253e-03
1.621366718222e-03
1.980316128667e-03
3.442373833826e-03
3.243086913525e-03
3.878870997830e-03
4.101430836263e-03
2.682435293848e-03
2.724877297477e-03
3.506137904917e-03
1.253983156106e-03
2.744141348037e-03
1.055886652107e-02
3.540603257427e-03
3.052138199447e-03
2.512655511074e-03
2.594492719661e-03
2.537202825086e-03
3.518161298469e-03
9.554939040432e-03
3.505841261621e-03
2.794574459688e-03
1.157912086016e-02
1.357966248405e-03
2.530135314038e-03
2.836909407468e-03
1.122889826325e-02
1.055057109443e-02
9.762799265192e-03
4.316248361036e-03
9.213588118239e-03
9.321550132778e-03
3.255358464223e-03
2.537658320474e-03
1.115875916670e-02
6.912766550667e-03
3.321029514747e-03
2.222728190325e-03
2.746495028185e-03
1.053756242432e-02
1.096405131812e-02
2.545677043679e-03
1.414097205424e-03
3.864639579237e-03
5.275225213430e-03
7.466614249287e-03
9.389559116373e-03
2.943965529396e-03
6.302861082040e-03
2.711646745718e-03
2.889691412120e-03
2.735077791644e-03
2.136737443786e-03
3.225502696410e-03
7.013548991570e-03
3.578242797393e-03
6.700700996168e-03
4.330066328438e-03
8.940336574959e-03
9.887976196930e-03
7.931617230953e-03
4.119655659470e-03
8.669277089772e-03
1.517280940735e-03
1.873612372953e-03
5.779566771157e-03
1.148778112920e-02
6.722153127575e-03
9.641194955552e-03
3.047430974084e-03
9.511711038670e-03
4.607268719629e-04
2.705638906508e-03
1.080331449599e-02
6.312468960537e-03
2.695744524196e-03
9.848935090502e-03
3.017318507071e-03
1.998318932676e-03
8.496083616893e-03
3.980697281425e-03
4.027838021961e-03
3.064422074573e-03
2.981731510142e-03
5.609950185270e-03
1.834454822695e-03
2.895028793243e-03
1.567281012952e-03
2.231801464123e-03
3.570395972863e-03
3.646383046430e-03
1.020005588026e-02
4.462392274520e-03
1.460918623992e-03
8.362856112629e-03
3.084321646780e-03
2.841757442439e-03
1.969203210151e-03
2.958792798592e-03
3.130597890050e-03
8.283081196719e-04
2.809022514689e-03
2.697168584645e-03
1.045720751920e-02
7.974546288254e-03
3.119142696453e-03
3.565069446207e-03
5.397692362158e-03
9.307823472108e-03
1.118556112374e-02
1.094921990944e-02
2.949975193369e-03
2.233129809379e-03
2.769563229024e-03
3.386563322391e-03
3.594681158178e-03
1.526286530243e-03
3.067293913981e-03
3.841400740984e-03
1.208433313784e-02
2.748424753365e-03
9.412429570910e-03
5.639289797068e-03
2.801672380823e-03
8.376855188737e-03
4.079091185238e-03
4.840067295260e-03
3.156815739904e-03
3.132381235369e-03
2.845829756794e-03
9.577898944728e-03
3.572453132476e-03
2.710476911035e-03
1.230239376179e-02
3.847645678888e-03
9.631323764670e-03
3.115675113055e-03
2.302743311235e-03
3.153042594043e-03
1.947733652142e-03
2.742493148052e-03
3.536113896762e-03
5.488318431026e-03
3.418957785173e-03
6.777654633844e-03
2.962138358550e-03
4.441515388777e-03
9.932292897318e-03
1.752043896371e-03
1.068106414126e-02
2.048088775917e-03
3.594684036469e-03
6.813020861836e-03
2.268896148317e-03
1.222291007494e-02
8.237200020835e-03
2.069684350138e-03
1.174337646299e-02
2.937690080608e-03
4.115416561015e-03
9.668517691667e-03
1.496655802705e-03
3.285514303720e-03
3.985526046552e-03
2.685008807768e-03
3.453179036944e-03
6.177522449208e-03
9.429474472647e-03
3.149773268911e-03
3.514778375769e-03
2.218873525206e-03
2.555391192511e-03
1.654746291471e-03
8.647362738529e-04
8.376256664428e-03
2.328300478736e-03
3.524155223164e-03
2.684513298137e-03
9.910308060329e-03
2.557967884656e-03
4.732524951868e-04
2.972742466097e-03
2.715012908021e-03
2.535928291446e-03
8.727089144537e-03
2.623631735160e-03
2.637466700198e-03
3.162801625529e-03
3.072148048907e-03
1.119862549508e-02
3.211789131438e-03
1.479222728268e-03
2.669554975719e-03
3.575651599869e-03
2.428893225750e-03
2.670364392639e-03
2.700924804415e-03
2.671090225927e-03
6.613600299110e-03
3.323271749185e-03
1.147759763931e-02
3.039810152482e-03
7.690461332232e-03
6.515220038334e-03
2.843309306438e-03
1.118532691629e-02
8.600611749090e-03
8.868125547767e-03
1.049618761715e-03
1.128418938801e-02
1.180641432360e-02
3.242343541564e-03
2.721847637745e-03
6.647416308867e-04
1.179943664795e-02

SCALARS element_materi_plasti_phimob float
LOOKUP_TABLE default
3.495654870966e+00
3.495654870966e+00
3.495654870966e+00
3.495654870966e+00
3.495654870966e+00
3.495654870966e+00
3.495654870966e+00
3.495654870966e+00
3.495654870966e+00
3.495654870966e+00
3.495654870966e+00
3.495654870966e+00
3.495654870966e+00
3.495654870966e+00
3.495654870966e+00
3.495654870966e+00
3.495654870966e+00
3.495654870966e+00
3.495654870966e+00
3.495654870966e+00
3.495654870966e+00
3.495654870966e+00
3.495654870966e+00
3.495654870966e+00
3.495654870966e+00
3.495654870966e+00
3.495654870966e+00
3.495654870966e+00
3.495654870966e+00
3.495654870966e+00
3.495654870966e+00
3.495654870966e+00
3.495654870966e+00
3.495654870966e+00
3.495654870966e+00
3.495654870966e+00
3.495654870966e+00
3.495654870966e+00
3.495654870966e+00
3.495654870966e+00
3.495654870966e+00
3.495654870966e+00
3.495654870966e+00
3.495654870966e+00
3.495654870966e+00
3.495654870966e+00
3.495654870966e+00
3.495654870966e+00
3.495654870966e+00
3.495654870966e+00
3.495654870966e+00
3.495654870966e+00
3.495654870966e+00
3.495654870966e+00
3.495654870966e+00
3.495654870966e+00
3.495654870966e+00
3.495654870966e+00
3.495654870966e+00
3.495654870966e+00
3.495654870966e+00
3.495654870966e+00
3.495654870966e+00
3.495654870966e+00
3.495654870966e+00
3.495654870966e+00
3.495654870966e+00
3.495654870966e+00
3.495654870966e+00
3.495654870966e+00
3.495654870966e+00
3.495654870966e+00
3.495654870966e+00
3.495654870966e+00
3.495654870966e+00
3.495654870966e+00
3.495654870966e+00
3.495654870966e+00
3.495654870966e+00
3.495654870966e+00
3.495654870966e+00
3.495654870966e+00
3.495654870966e+00
3.495654870966e+00
3.495654870966e+00
3.495654870966e+00
3.495654870966e+00
3.495654870966e+00
3.495654870966e+00
3.495654870966e+00
3.495654870966e+00
3.495654870966e+00
3.495654870966e+00
3.495654870966e+00
3.495654870966e+00
3.495654870966e+00
3.495654870966e+00
3.495654870966e+00
3.495654870966e+00
3.495654870966e+00
3.495654870966e+00
3.495654870966e+00
3.495654870966e+00
3.495654870966e+00
3.495654870966e+00
3.495654870966e+00
3.495654870966e+00
3.495654870966e+00
3.495654870966e+00
3.495654870966e+00
3.495654870966e+00
3.495654870966e+00
3.495654870966e+00
3.495654870966e+00
3.495654870966e+00
3.495654870966e+00
3.495654870966e+00
3.495654870966e+00
3.495654870966e+00
3.495654870966e+00
3.495654870966e+00
3.495654870966e+00
3.495654870966e+00
3.495654870966e+00
3.495654870966e+00
3.495654870966e+00
3.495654870966e+00
3.495654870966e+00
3.495654870966e+00
3.495654870966e+00
3.495654870966e+00
3.495654870966e+00
3.495654870966e+00
3.495654870966e+00
3.495654870966e+00
3.495654870966e+00
3.495654870966e+00
3.495654870966e+00
3.495654870966e+00
3.495654870966e+00
3.495654870966e+00
3.495654870966e+00
3.495654870966e+00
3.495654870966e+00
3.495654870966e+00
3.495654870966e+00
3.495654870966e+00
3.495654870966e+00
3.495654870966e+00
3.495654870966e+00
3.495654870966e+00
3.495654870966e+00
3.495654870966e+00
3.495654870966e+00
3.495654870966e+00
3.495654870966e+00
3.495654870966e+00
3.495654870966e+00
3.495654870966e+00
3.495654870966e+00
3.495654870966e+00
3.495654870966e+00
3.495654870966e+00
3.495654870966e+00
3.495654870966e+00
3.495654870966e+00
3.495654870966e+00
3.495654870966e+00
3.495654870966e+00
3.495654870966e+00
3.495654870966e+00
3.495654870966e+00
3.495654870966e+00
3.495654870966e+00
3.495654870966e+00
3.495654870966e+00
3.495654870966e+00
3.495654870966e+00
3.495654870966e+00
3.495654870966e+00
3.495654870966e+00
3.495654870966e+00
3.495654870966e+00
3.495654870966e+00
3.495654870966e+00
3.495654870966e+00
3.495654870966e+00
3.495654870966e+00
3.495654870966e+00
3.495654870966e+00
3.495654870966e+00
3.495654870966e+00
3.495654870966e+00
3.495654870966e+00
3.495654870966e+00
3.495654870966e+00
3.495654870966e+00
3.495654870966e+00
3.495654870966e+00
3.495654870966e+00
3.495654870966e+00
3.495654870966e+00
3.495654870966e+00
3.495654870966e+00
3.495654870966e+00
3.495654870966e+00
3.495654870966e+00
3.495654870966e+00
3.495654870966e+00
3.495654870966e+00
3.495654870966e+00
3.495654870966e+00
3.495654870966e+00
3.495654870966e+00
3.495654870966e+00
3.495654870966e+00
3.495654870966e+00
3.495654870966e+00
3.495654870966e+00
3.495654870966e+00
3.495654870966e+00
3.495654870966e+00
3.495654870966e+00
3.495654870966e+00
3.495654870966e+00
3.495654870966e+00
3.495654870966e+00
3.495654870966e+00
3.495654870966e+00
3.495654870966e+00
3.495654870966e+00
3.495654870966e+00
3.495654870966e+00
3.495654870966e+00
3.495654870966e+00
3.495654870966e+00
3.495654870966e+00
3.495654870966e+00
3.495654870966e+00
3.495654870966e+00
3.495654870966e+00
3.495654870966e+00
3.495654870966e+00
3.495654870966e+00
3.495654870966e+00
3.495654870966e+00
3.495654870966e+00
3.495654870966e+00
3.495654870966e+00
3.495654870966e+00
3.495654870966e+00
3.495654870966e+00
3.495654870966e+00
3.495654870966e+00
3.495654870966e+00
3.495654870966e+00
3.495654870966e+00
3.495654870966e+00
3.495654870966e+00
3.495654870966e+00
3.495654870966e+00
3.495654870966e+00
3.495654870966e+00
3.495654870966e+00
3.495654870966e+00
3.495654870966e+00
3.495654870966e+00
3.495654870966e+00
3.495654870966e+00
3.495654870966e+00
3.495654870966e+00
3.495654870966e+00
3.495654870966e+00
3.495654870966e+00
3.495654870966e+00
3.495654870966e+00
3.495654870966e+00
3.495654870966e+00
3.495654870966e+00
3.495654870966e+00
3.495654870966e+00
3.495654870966e+00
3.495654870966e+00
3.495654870966e+00
3.495654870966e+00
3.495654870966e+00
3.495654870966e+00
3.495654870966e+00
3.495654870966e+00
3.495654870966e+00
3.495654870966e+00
3.495654870966e+00
3.495654870966e+00
3.495654870966e+00
3.495654870966e+00
3.495654870966e+00
3.495654870966e+00
3.495654870966e+00
3.495654870966e+00
3.495654870966e+00
3.495654870966e+00
3.495654870966e+00
3.495654870966e+00
3.495654870966e+00
3.495654870966e+00
3.495654870966e+00
3.495654870966e+00
3.495654870966e+00
3.495654870966e+00
3.495654870966e+00
3.495654870966e+00
3.495654870966e+00
3.495654870966e+00
3.495654870966e+00
3.495654870966e+00
3.495654870966e+00
3.495654870966e+00
3.495654870966e+00
3.495654870966e+00
3.495654870966e+00
3.495654870966e+00
3.495654870966e+00
3.495654870966e+00
3.495654870966e+00
3.495654870966e+00
3.495654870966e+00
3.495654870966e+00
3.495654870966e+00
3.495654870966e+00
3.495654870966e+00
3.495654870966e+00
3.495654870966e+00
3.495654870966e+00
3.495654870966e+00
3.495654870966e+00
3.495654870966e+00
3.495654870966e+00
3.495654870966e+00
3.495654870966e+00
3.495654870966e+00
3.495654870966e+00
3.495654870966e+00
3.495654870966e+00
3.495654870966e+00
3.495654870966e+00
3.495654870966e+00
3.495654870966e+00
3.495654870966e+00
3.495654870966e+00
3.495654870966e+00
3.495654870966e+00
3.495654870966e+00
3.495654870966e+00
3.495654870966e+00
3.495654870966e+00
3.495654870966e+00
3.495654870966e+00
3.495654870966e+00
3.495654870966e+00
3.495654870966e+00
3.495654870966e+00
3.495654870966e+00
3.495654870966e+00
3.495654870966e+00
3.495654870966e+00
3.495654870966e+00
3.495654870966e+00
3.495654870966e+00
3.495654870966e+00
3.495654870966e+00
3.495654870966e+00
3.495654870966e+00
3.495654870966e+00
3.495654870966e+00
3.495654870966e+00
3.495654870966e+00
3.495654870966e+00
3.495654870966e+00
3.495654870966e+00
3.495654870966e+00
3.495654870966e+00
3.495654870966e+00
3.495654870966e+00
3.495654870966e+00
3.495654870966e+00
3.495654870966e+00
3.495654870966e+00
3.495654870966e+00
3.495654870966e+00
3.495654870966e+00
3.495654870966e+00
3.495654870966e+00
3.495654870966e+00
3.495654870966e+00
3.495654870966e+00
3.495654870966e+00
3.495654870966e+00
3.495654870966e+00
3.495654870966e+00
3.495654870966e+00
3.495654870966e+00
3.495654870966e+00
3.495654870966e+00
3.495654870966e+00
3.495654870966e+00
3.495654870966e+00
3.495654870966e+00
3.495654870966e+00
3.495654870966e+00
3.495654870966e+00
3.495654870966e+00
3.495654870966e+00
3.495654870966e+00
3.495654870966e+00
3.495654870966e+00
3.495654870966e+00
3.495654870966e+00
3.495654870966e+00
3.495654870966e+00
3.495654870966e+00
3.495654870966e+00
3.495654870966e+00
3.495654870966e+00
3.495654870966e+00
3.495654870966e+00
3.495654870966e+00
3.495654870966e+00
3.495654870966e+00
3.495654870966e+00
3.495654870966e+00
3.495654870966e+00
3.495654870966e+00
3.495654870966e+00
3.495654870966e+00
3.495654870966e+00
3.495654870966e+00
3.495654870966e+00
3.495654870966e+00
3.495654870966e+00
3.495654870966e+00
3.495654870966e+00
3.495654870966e+00
3.495654870966e+00
3.495654870966e+00
3.495654870966e+00
3.495654870966e+00
3.495654870966e+00
3.495654870966e+00
3.495654870966e+00
3.495654870966e+00
3.495654870966e+00
3.495654870966e+00
3.495654870966e+00
3.495654870966e+00
3.495654870966e+00
3.495654870966e+00
3.495654870966e+00
3.495654870966e+00
3.495654870966e+00
3.495654870966e+00
3.495654870966e+00
3.495654870966e+00
3.495654870966e+00
3.495654870966e+00
3.495654870966e+00
3.495654870966e+00
3.495654870966e+00
3.495654870966e+00
3.495654870966e+00
3.495654870966e+00
3.495654870966e+00
3.495654870966e+00
3.495654870966e+00
3.495654870966e+00
3.495654870966e+00
3.495654870966e+00
3.495654870966e+00
3.495654870966e+00
3.495654870966e+00
3.495654870966e+00
3.495654870966e+00
3.495654870966e+00
3.495654870966e+00
3.495654870966e+00
3.495654870966e+00
3.495654870966e+00
3.495654870966e+00
3.495654870966e+00
3.495654870966e+00
3.495654870966e+00
3.495654870966e+00
3.495654870966e+00
3.495654870966e+00
3.495654870966e+00
3.495654870966e+00
3.495654870966e+00
3.495654870966e+00
3.495654870966e+00
3.495654870966e+00
3.495654870966e+00
3.495654870966e+00
3.495654870966e+00
3.495654870966e+00
3.495654870966e+00
3.495654870966e+00
3.495654870966e+00
3.495654870966e+00
3.495654870966e+00
3.495654870966e+00
3.495654870966e+00
3.495654870966e+00
3.495654870966e+00
3.495654870966e+00
3.495654870966e+00
3.495654870966e+00
3.495654870966e+00
3.495654870966e+00
3.495654870966e+00
3.495654870966e+00
3.495654870966e+00
3.495654870966e+00
3.495654870966e+00
3.495654870966e+00
3.495654870966e+00
3.495654870966e+00
3.495654870966e+00
3.495654870966e+00
3.495654870966e+00
3.495654870966e+00
3.495654870966e+00
3.495654870966e+00
3.495654870966e+00
3.495654870966e+00
3.495654870966e+00
3.495654870966e+00
3.495654870966e+00
3.495654870966e+00
3.495654870966e+00
3.495654870966e+00
3.495654870966e+00
3.495654870966e+00
3.495654870966e+00
3.495654870966e+00
3.495654870966e+00
3.495654870966e+00
3.495654870966e+00
3.495654870966e+00
3.495654870966e+00
3.495654870966e+00
3.495654870966e+00
3.495654870966e+00
3.495654870966e+00
3.495654870966e+00
3.495654870966e+00
3.495654870966e+00
3.495654870966e+00
3.495654870966e+00
3.495654870966e+00
3.495654870966e+00
3.495654870966e+00
3.495654870966e+00
3.495654870966e+00
3.495654870966e+00
3.495654870966e+00
3.495654870966e+00
3.495654870966e+00
3.495654870966e+00
3.495654870966e+00
3.495654870966e+00
3.495654870966e+00
3.495654870966e+00
3.495654870966e+00
3.495654870966e+00
3.495654870966e+00
3.495654870966e+00
3.495654870966e+00
3.495654870966e+00
3.495654870966e+00
3.495654870966e+00
3.495654870966e+00
3.495654870966e+00
3.495654870966e+00
3.495654870966e+00
3.495654870966e+00
3.495654870966e+00
3.495654870966e+00
3.495654870966e+00
3.495654870966e+00
3.495654870966e+00
3.495654870966e+00
3.495654870966e+00
3.495654870966e+00
3.495654870966e+00
3.495654870966e+00
3.495654870966e+00
3.495654870966e+00
3.495654870966e+00
3.495654870966e+00
3.495654870966e+00
3.495654870966e+00
3.495654870966e+00
3.495654870966e+00
3.495654870966e+00
3.495654870966e+00
3.495654870966e+00
3.495654870966e+00
3.495654870966e+00
3.495654870966e+00
3.495654870966e+00
3.495654870966e+00
3.495654870966e+00
3.495654870966e+00
3.495654870966e+00
3.495654870966e+00
3.495654870966e+00
3.495654870966e+00
3.495654870966e+00
3.495654870966e+00
3.495654870966e+00
3.495654870966e+00
3.495654870966e+00
3.495654870966e+00
3.495654870966e+00
3.495654870966e+00
3.495654870966e+00
3.495654870966e+00
3.495654870966e+00
3.495654870966e+00
3.495654870966e+00
3.495654870966e+00
3.495654870966e+00
3.495654870966e+00
3.495654870966e+00
3.495654870966e+00
3.495654870966e+00
3.495654870966e+00
3.495654870966e+00
3.495654870966e+00
3.495654870966e+00
3.495654870966e+00
3.495654870966e+00
3.495654870966e+00
3.495654870966e+00
3.495654870966e+00
3.495654870966e+00
3.495654870966e+00
3.495654870966e+00
3.495654870966e+00
3.495654870966e+00
3.495654870966e+00
3.495654870966e+00
3.495654870966e+00
3.495654870966e+00
3.495654870966e+00
3.495654870966e+00
3.495654870966e+00
3.495654870966e+00
3.495654870966e+00
3.495654870966e+00
3.495654870966e+00
3.495654870966e+00
3.495654870966e+00
3.495654870966e+00
3.495654870966e+00
3.495654870966e+00
3.495654870966e+00
3.495654870966e+00
3.495654870966e+00
3.495654870966e+00
3.495654870966e+00
3.495654870966e+00
3.495654870966e+00
3.495654870966e+00
3.495654870966e+00
3.495654870966e+00
3.495654870966e+00
3.495654870966e+00
3.495654870966e+00
3.495654870966e+00
3.495654870966e+00
3.495654870966e+00
3.495654870966e+00
3.495654870966e+00
3.495654870966e+00
3.495654870966e+00
3.495654870966e+00
3.495654870966e+00
3.495654870966e+00
3.495654870966e+00
3.495654870966e+00
3.495654870966e+00
3.495654870966e+00
3.495654870966e+00
3.495654870966e+00
3.495654870966e+00
3.495654870966e+00
3.495654870966e+00
3.495654870966e+00
3.495654870966e+00
3.495654870966e+00
3.495654870966e+00
3.495654870966e+00
3.495654870966e+00
3.495654870966e+00
3.495654870966e+00
3.495654870966e+00
3.495654870966e+00
3.495654870966e+00
3.495654870966e+00
3.495654870966e+00
3.495654870966e+00
3.495654870966e+00
3.495654870966e+00
3.495654870966e+00
3.495654870966e+00
3.495654870966e+00
3.495654870966e+00
3.495654870966e+00
3.495654870966e+00
3.495654870966e+00
3.495654870966e+00
3.495654870966e+00
3.495654870966e+00
3.495654870966e+00
3.495654870966e+00
3.495654870966e+00
3.495654870966e+00
3.495654870966e+00
3.495654870966e+00
3.495654870966e+00
3.495654870966e+00
3.495654870966e+00
3.495654870966e+00
3.495654870966e+00
3.495654870966e+00
3.495654870966e+00
3.495654870966e+00
3.495654870966e+00
3.495654870966e+00
3.495654870966e+00
3.495654870966e+00
3.495654870966e+00
3.495654870966e+00
3.495654870966e+00
3.495654870966e+00
3.495654870966e+00
3.495654870966e+00
3.495654870966e+00
3.495654870966e+00
3.495654870966e+00
3.495654870966e+00
3.495654870966e+00
3.495654870966e+00
3.495654870966e+00
3.495654870966e+00
3.495654870966e+00
3.495654870966e+00
3.495654870966e+00
3.495654870966e+00
3.495654870966e+00
3.495654870966e+00
3.495654870966e+00
3.495654870966e+00
3.495654870966e+00
3.495654870966e+00
3.495654870966e+00
3.495654870966e+00
3.495654870966e+00
3.495654870966e+00
3.495654870966e+00
3.495654870966e+00
3.495654870966e+00
3.495654870966e+00
3.495654870966e+00
3.495654870966e+00
3.495654870966e+00
3.495654870966e+00
3.495654870966e+00
3.495654870966e+00
3.495654870966e+00
3.495654870966e+00
3.495654870966e+00
3.495654870966e+00
3.495654870966e+00
3.495654870966e+00
3.495654870966e+00
3.495654870966e+00
3.495654870966e+00
3.495654870966e+00
3.495654870966e+00
3.495654870966e+00
3.495654870966e+00
3.495654870966e+00
3.495654870966e+00
3.495654870966e+00
3.495654870966e+00
3.495654870966e+00
3.495654870966e+00
3.495654870966e+00
3.495654870966e+00
3.495654870966e+00
3.495654870966e+00
3.495654870966e+00
3.495654870966e+00
3.495654870966e+00
3.495654870966e+00
3.495654870966e+00
3.495654870966e+00
3.495654870966e+00
3.495654870966e+00
3.495654870966e+00
3.495654870966e+00
3.495654870966e+00
3.495654870966e+00
3.495654870966e+00
3.495654870966e+00
3.495654870966e+00
3.495654870966e+00
3.495654870966e+00
3.495654870966e+00
3.495654870966e+00
3.495654870966e+00
3.495654870966e+00
3.495654870966e+00
3.495654870966e+00
3.495654870966e+00
3.495654870966e+00
3.495654870966e+00
3.495654870966e+00
3.495654870966e+00
3.495654870966e+00
3.495654870966e+00
3.495654870966e+00
3.495654870966e+00
3.495654870966e+00
3.495654870966e+00
3.495654870966e+00
3.495654870966e+00
3.495654870966e+00
3.495654870966e+00
3.495654870966e+00
3.495654870966e+00
3.495654870966e+00
3.495654870966e+00
3.495654870966e+00
3.495654870966e+00
3.495654870966e+00
3.495654870966e+00
3.495654870966e+00
3.495654870966e+00
3.495654870966e+00
3.495654870966e+00
3.495654870966e+00
3.495654870966e+00
3.495654870966e+00
3.495654870966e+00
3.495654870966e+00
3.495654870966e+00
3.495654870966e+00
3.495654870966e+00
3.495654870966e+00
3.495654870966e+00
3.495654870966e+00
3.495654870966e+00
3.495654870966e+00
3.495654870966e+00
3.495654870966e+00
3.495654870966e+00
3.495654870966e+00
3.495654870966e+00
3.495654870966e+00
3.495654870966e+00
3.495654870966e+00
3.495654870966e+00
3.495654870966e+00
3.495654870966e+00
3.495654870966e+00
3.495654870966e+00
3.495654870966e+00
3.495654870966e+00
3.495654870966e+00
3.495654870966e+00
3.495654870966e+00
3.495654870966e+00
3.495654870966e+00
3.495654870966e+00
3.495654870966e+00
3.495654870966e+00
3.495654870966e+00
3.495654870966e+00
3.495654870966e+00
3.495654870966e+00
3.495654870966e+00
3.495654870966e+00
3.495654870966e+00
3.495654870966e+00
3.495654870966e+00
3.495654870966e+00
3.495654870966e+00
3.495654870966e+00
3.495654870966e+00
3.495654870966e+00
3.495654870966e+00
3.495654870966e+00
3.495654870966e+00
3.495654870966e+00
3.495654870966e+00
3.495654870966e+00
3.495654870966e+00
3.495654870966e+00
3.495654870966e+00
3.495654870966e+00
3.495654870966e+00
3.495654870966e+00
3.495654870966e+00
3.495654870966e+00
3.495654870966e+00
3.495654870966e+00
3.495654870966e+00
3.495654870966e+00
3.495654870966e+00
3.495654870966e+00
3.495654870966e+00
3.495654870966e+00
3.495654870966e+00
3.495654870966e+00
3.495654870966e+00
3.495654870966e+00
3.495654870966e+00
3.495654870966e+00
3.495654870966e+00
3.495654870966e+00
3.495654870966e+00
3.495654870966e+00
3.495654870966e+00
3.495654870966e+00
3.495654870966e+00
3.495654870966e+00
3.495654870966e+00
3.495654870966e+00
3.495654870966e+00
3.495654870966e+00
3.495654870966e+00
3.495654870966e+00
3.495654870966e+00
3.495654870966e+00
3.495654870966e+00
3.495654870966e+00
3.495654870966e+00
3.495654870966e+00
3.495654870966e+00
3.495654870966e+00
3.495654870966e+00
3.495654870966e+00
3.495654870966e+00
3.495654870966e+00
3.495654870966e+00
3.495654870966e+00
3.495654870966e+00
3.495654870966e+00
3.495654870966e+00
3.495654870966e+00
3.495654870966e+00
3.495654870966e+00
3.495654870966e+00
3.495654870966e+00
3.495654870966e+00
3.495654870966e+00
3.495654870966e+00
3.495654870966e+00
3.495654870966e+00
3.495654870966e+00
3.495654870966e+00
3.495654870966e+00
3.495654870966e+00
3.495654870966e+00
3.495654870966e+00
3.495654870966e+00
3.495654870966e+00
3.495654870966e+00
3.495654870966e+00
3.495654870966e+00
3.495654870966e+00
3.495654870966e+00
3.495654870966e+00
3.495654870966e+00
3.495654870966e+00
3.495654870966e+00
3.495654870966e+00
3.495654870966e+00
3.495654870966e+00
3.495654870966e+00
3.495654870966e+00
3.495654870966e+00
3.495654870966e+00
3.495654870966e+00
3.495654870966e+00
3.495654870966e+00
3.495654870966e+00
3.495654870966e+00
3.495654870966e+00
3.495654870966e+00
3.495654870966e+00
3.495654870966e+00
3.495654870966e+00
3.495654870966e+00
3.495654870966e+00
3.495654870966e+00
3.495654870966e+00
3.495654870966e+00
3.495654870966e+00
3.495654870966e+00
3.495654870966e+00
3.495654870966e+00
3.495654870966e+00
3.495654870966e+00
3.495654870966e+00
3.495654870966e+00
3.495654870966e+00
3.495654870966e+00
3.495654870966e+00
3.495654870966e+00
3.495654870966e+00
3.495654870966e+00
3.495654870966e+00
3.495654870966e+00
3.495654870966e+00
3.495654870966e+00
3.495654870966e+00
3.495654870966e+00
3.495654870966e+00
3.495654870966e+00
3.495654870966e+00
3.495654870966e+00
3.495654870966e+00
3.495654870966e+00
3.495654870966e+00
3.495654870966e+00
3.495654870966e+00
3.495654870966e+00
3.495654870966e+00
3.495654870966e+00
3.495654870966e+00
3.495654870966e+00
3.495654870966e+00
3.495654870966e+00
3.495654870966e+00
3.495654870966e+00
3.495654870966e+00
3.495654870966e+00
3.495654870966e+00
3.495654870966e+00
3.495654870966e+00
3.495654870966e+00
3.495654870966e+00
3.495654870966e+00
3.495654870966e+00
3.495654870966e+00
3.495654870966e+00
3.495654870966e+00
3.495654870966e+00
3.495654870966e+00
3.495654870966e+00
3.495654870966e+00
3.495654870966e+00
3.495654870966e+00
3.495654870966e+00
3.495654870966e+00
3.495654870966e+00
3.495654870966e+00
3.495654870966e+00
3.495654870966e+00
3.495654870966e+00
3.495654870966e+00
3.495654870966e+00
3.495654870966e+00
3.495654870966e+00
3.495654870966e+00
3.495654870966e+00
3.495654870966e+00
3.495654870966e+00
3.495654870966e+00
3.495654870966e+00
3.495654870966e+00
3.495654870966e+00
3.495654870966e+00
3.495654870966e+00
3.495654870966e+00
3.495654870966e+00
3.495654870966e+00
3.495654870966e+00
3.495654870966e+00
3.495654870966e+00
3.495654870966e+00
3.495654870966e+00
3.495654870966e+00
3.495654870966e+00
3.495654870966e+00
3.495654870966e+00
3.495654870966e+00
3.495654870966e+00
3.495654870966e+00
3.495654870966e+00
3.495654870966e+00
3.495654870966e+00
3.495654870966e+00
3.495654870966e+00
3.495654870966e+00
3.495654870966e+00
3.495654870966e+00
3.495654870966e+00
3.495654870966e+00
3.495654870966e+00
3.495654870966e+00
3.495654870966e+00
3.495654870966e+00
3.495654870966e+00
3.495654870966e+00
3.495654870966e+00
3.495654870966e+00
3.495654870966e+00
3.495654870966e+00
3.495654870966e+00
3.495654870966e+00
3.495654870966e+00
3.495654870966e+00
3.495654870966e+00
3.495654870966e+00
3.495654870966e+00
3.495654870966e+00
3.495654870966e+00
3.495654870966e+00
3.495654870966e+00
3.495654870966e+00
3.495654870966e+00
3.495654870966e+00
3.495654870966e+00
3.495654870966e+00
3.495654870966e+00
3.495654870966e+00
3.495654870966e+00
3.495654870966e+00
3.495654870966e+00
3.495654870966e+00
3.495654870966e+00
3.495654870966e+00
3.495654870966e+00
3.495654870966e+00
3.495654870966e+00
3.495654870966e+00
3.495654870966e+00
3.495654870966e+00
3.495654870966e+00
3.495654870966e+00
3.495654870966e+00
3.495654870966e+00
3.495654870966e+00
3.495654870966e+00
3.495654870966e+00
3.495654870966e+00
3.495654870966e+00
3.495654870966e+00
3.495654870966e+00
3.495654870966e+00
3.495654870966e+00
3.495654870966e+00
3.495654870966e+00
3.495654870966e+00
3.495654870966e+00
3.495654870966e+00
3.495654870966e+00
3.495654870966e+00
3.495654870966e+00
3.495654870966e+00
3.495654870966e+00
3.495654870966e+00
3.495654870966e+00
3.495654870966e+00
3.495654870966e+00
3.495654870966e+00
3.495654870966e+00
3.495654870966e+00
3.495654870966e+00
3.495654870966e+00
3.495654870966e+00
3.495654870966e+00
3.495654870966e+00
3.495654870966e+00
3.495654870966e+00
3.495654870966e+00
3.495654870966e+00
3.495654870966e+00
3.495654870966e+00
3.495654870966e+00
3.495654870966e+00
3.495654870966e+00
3.495654870966e+00
3.495654870966e+00
3.495654870966e+00
3.495654870966e+00
3.495654870966e+00
3.495654870966e+00
3.495654870966e+00
3.495654870966e+00
3.495654870966e+00
3.495654870966e+00
3.495654870966e+00
3.495654870966e+00
3.495654870966e+00
3.495654870966e+00
3.495654870966e+00
3.495654870966e+00
3.495654870966e+00
3.495654870966e+00
3.495654870966e+00
3.495654870966e+00
3.495654870966e+00
3.495654870966e+00
3.495654870966e+00
3.495654870966e+00
3.495654870966e+00
3.495654870966e+00
3.495654870966e+00
3.495654870966e+00
3.495654870966e+00
3.495654870966e+00
3.495654870966e+00
3.495654870966e+00
3.495654870966e+00
3.495654870966e+00
3.495654870966e+00
3.495654870966e+00
3.495654870966e+00
3.495654870966e+00
3.495654870966e+00
3.495654870966e+00
3.495654870966e+00
3.495654870966e+00
3.495654870966e+00
3.495654870966e+00
3.495654870966e+00
3.495654870966e+00
3.495654870966e+00
3.495654870966e+00
3.495654870966e+00
3.495654870966e+00
3.495654870966e+00
3.495654870966e+00
3.495654870966e+00
3.495654870966e+00
3.495654870966e+00
3.495654870966e+00
3.495654870966e+00
3.495654870966e+00
3.495654870966e+00
3.495654870966e+00
3.495654870966e+00
3.495654870966e+00
3.495654870966e+00
3.495654870966e+00
3.495654870966e+00
3.495654870966e+00
3.495654870966e+00
3.495654870966e+00
3.495654870966e+00
3.495654870966e+00
3.495654870966e+00
3.495654870966e+00
3.495654870966e+00
3.495654870966e+00
3.495654870966e+00
3.495654870966e+00
3.495654870966e+00
3.495654870966e+00
3.495654870966e+00
3.495654870966e+00
3.495654870966e+00
3.495654870966e+00
3.495654870966e+00
3.495654870966e+00
3.495654870966e+00
3.495654870966e+00
3.495654870966e+00
3.495654870966e+00
3.495654870966e+00
3.495654870966e+00
3.495654870966e+00
3.495654870966e+00
3.495654870966e+00
3.495654870966e+00
3.495654870966e+00
3.495654870966e+00
3.495654870966e+00
3.495654870966e+00
3.495654870966e+00
3.495654870966e+00
3.495654870966e+00
3.495654870966e+00
3.495654870966e+00
3.495654870966e+00
3.495654870966e+00
3.495654870966e+00
3.495654870966e+00
3.495654870966e+00
3.495654870966e+00
3.495654870966e+00
3.495654870966e+00
3.495654870966e+00
3.495654870966e+00
3.495654870966e+00
3.495654870966e+00
3.495654870966e+00
3.495654870966e+00
3.495654870966e+00
3.495654870966e+00
3.495654870966e+00
3.495654870966e+00
3.495654870966e+00
3.495654870966e+00
3.495654870966e+00
3.495654870966e+00
3.495654870966e+00
3.495654870966e+00
3.495654870966e+00
3.495654870966e+00
3.495654870966e+00
3.495654870966e+00
3.495654870966e+00
3.495654870966e+00
3.495654870966e+00
3.495654870966e+00
3.495654870966e+00
3.495654870966e+00
3.495654870966e+00
3.495654870966e+00
3.495654870966e+00
3.495654870966e+00
3.495654870966e+00
3.495654870966e+00
3.495654870966e+00
3.495654870966e+00
3.495654870966e+00
3.495654870966e+00
3.495654870966e+00
3.495654870966e+00
3.495654870966e+00
3.495654870966e+00
3.495654870966e+00
3.495654870966e+00
3.495654870966e+00
3.495654870966e+00
3.495654870966e+00
3.495654870966e+00
3.495654870966e+00
3.495654870966e+00
3.495654870966e+00
3.495654870966e+00
3.495654870966e+00
3.495654870966e+00
3.495654870966e+00
3.495654870966e+00
3.495654870966e+00
3.495654870966e+00
3.495654870966e+00
3.495654870966e+00
3.495654870966e+00
3.495654870966e+00
3.495654870966e+00
3.495654870966e+00
3.495654870966e+00
3.495654870966e+00
3.495654870966e+00
3.495654870966e+00
3.495654870966e+00
3.495654870966e+00
3.495654870966e+00
3.495654870966e+00
3.495654870966e+00
3.495654870966e+00
3.495654870966e+00
3.495654870966e+00
3.495654870966e+00
3.495654870966e+00
3.495654870966e+00
3.495654870966e+00
3.495654870966e+00
3.495654870966e+00
3.495654870966e+00
3.495654870966e+00
3.495654870966e+00
3.495654870966e+00
3.495654870966e+00
3.495654870966e+00
3.495654870966e+00
3.495654870966e+00
3.495654870966e+00
3.495654870966e+00
3.495654870966e+00
3.495654870966e+00
3.495654870966e+00
3.495654870966e+00
3.495654870966e+00
3.495654870966e+00
3.495654870966e+00
3.495654870966e+00
3.495654870966e+00
3.495654870966e+00
3.495654870966e+00
3.495654870966e+00
3.495654870966e+00
3.495654870966e+00
3.495654870966e+00
3.495654870966e+00
3.495654870966e+00
3.495654870966e+00
3.495654870966e+00
3.495654870966e+00
3.495654870966e+00
3.495654870966e+00
3.495654870966e+00
3.495654870966e+00
3.495654870966e+00
3.495654870966e+00
3.495654870966e+00
3.495654870966e+00
3.495654870966e+00
3.495654870966e+00
3.495654870966e+00
3.495654870966e+00
3.495654870966e+00
3.495654870966e+00
3.495654870966e+00
3.495654870966e+00
3.495654870966e+00
3.495654870966e+00
3.495654870966e+00
3.495654870966e+00
3.495654870966e+00
3.495654870966e+00
3.495654870966e+00
3.495654870966e+00
3.495654870966e+00
3.495654870966e+00
3.495654870966e+00
3.495654870966e+00
3.495654870966e+00
3.495654870966e+00
3.495654870966e+00
3.495654870966e+00
3.495654870966e+00
3.495654870966e+00
3.495654870966e+00
3.495654870966e+00
3.495654870966e+00
3.495654870966e+00
3.495654870966e+00
3.495654870966e+00
3.495654870966e+00
3.495654870966e+00
3.495654870966e+00
3.495654870966e+00
3.495654870966e+00
3.495654870966e+00
3.495654870966e+00
3.495654870966e+00
3.495654870966e+00
3.495654870966e+00
3.495654870966e+00
3.495654870966e+00
3.495654870966e+00
3.495654870966e+00
3.495654870966e+00
3.495654870966e+00
3.495654870966e+00
3.495654870966e+00
3.495654870966e+00
3.495654870966e+00
3.495654870966e+00
3.495654870966e+00
3.495654870966e+00
3.495654870966e+00
3.495654870966e+00
3.495654870966e+00
3.495654870966e+00
3.495654870966e+00
3.495654870966e+00
3.495654870966e+00
3.495654870966e+00
3.495654870966e+00
3.495654870966e+00
3.495654870966e+00
3.495654870966e+00
3.495654870966e+00
3.495654870966e+00
3.495654870966e+00
3.495654870966e+00
3.495654870966e+00
3.495654870966e+00
3.495654870966e+00
3.495654870966e+00
3.495654870966e+00
3.495654870966e+00
3.495654870966e+00
3.495654870966e+00
3.495654870966e+00
3.495654870966e+00
3.495654870966e+00
3.495654870966e+00
3.495654870966e+00
3.495654870966e+00
3.495654870966e+00
3.495654870966e+00
3.495654870966e+00
3.495654870966e+00
3.495654870966e+00
3.495654870966e+00
3.495654870966e+00
3.495654870966e+00
3.495654870966e+00
3.495654870966e+00
3.495654870966e+00
3.495654870966e+00
3.495654870966e+00
3.495654870966e+00
3.495654870966e+00
3.495654870966e+00
3.495654870966e+00
3.495654870966e+00
3.495654870966e+00
3.495654870966e+00
3.495654870966e+00
3.495654870966e+00
3.495654870966e+00
3.495654870966e+00
3.495654870966e+00
3.495654870966e+00
3.495654870966e+00
3.495654870966e+00
3.495654870966e+00
3.495654870966e+00
3.495654870966e+00
3.495654870966e+00
3.495654870966e+00
3.495654870966e+00
3.495654870966e+00
3.495654870966e+00
3.495654870966e+00
3.495654870966e+00
3.495654870966e+00
3.495654870966e+00
3.495654870966e+00
3.495654870966e+00
3.495654870966e+00
3.495654870966e+00
3.495654870966e+00
3.495654870966e+00
3.495654870966e+00
3.495654870966e+00
3.495654870966e+00
3.495654870966e+00
3.495654870966e+00
3.495654870966e+00
3.495654870966e+00
3.495654870966e+00
3.495654870966e+00
3.495654870966e+00
3.495654870966e+00
3.495654870966e+00
3.495654870966e+00
3.495654870966e+00
3.495654870966e+00
3.495654870966e+00
3.495654870966e+00
3.495654870966e+00
3.495654870966e+00
3.495654870966e+00
3.495654870966e+00
3.495654870966e+00
3.495654870966e+00
3.495654870966e+00
3.495654870966e+00
3.495654870966e+00
3.495654870966e+00
3.495654870966e+00
3.495654870966e+00
3.495654870966e+00
3.495654870966e+00
3.495654870966e+00
3.495654870966e+00
3.495654870966e+00
3.495654870966e+00
3.495654870966e+00
3.495654870966e+00
3.495654870966e+00
3.495654870966e+00
3.495654870966e+00
3.495654870966e+00
3.495654870966e+00
3.495654870966e+00
3.495654870966e+00
3.495654870966e+00
3.495654870966e+00
3.495654870966e+00
3.495654870966e+00
3.495654870966e+00
3.495654870966e+00
3.495654870966e+00
3.495654870966e+00
3.495654870966e+00
3.495654870966e+00
3.495654870966e+00
3.495654870966e+00
3.495654870966e+00
3.495654870966e+00
3.495654870966e+00
3.495654870966e+00
3.495654870966e+00
3.495654870966e+00
3.495654870966e+00
3.495654870966e+00
3.495654870966e+00
3.495654870966e+00
3.495654870966e+00
3.495654870966e+00
3.495654870966e+00
3.495654870966e+00
3.495654870966e+00
3.495654870966e+00
3.495654870966e+00
3.495654870966e+00
3.495654870966e+00
3.495654870966e+00
3.495654870966e+00
3.495654870966e+00
3.495654870966e+00
3.495654870966e+00
3.495654870966e+00
3.495654870966e+00
3.495654870966e+00
3.495654870966e+00
3.495654870966e+00
3.495654870966e+00
3.495654870966e+00
3.495654870966e+00
3.495654870966e+00
3.495654870966e+00
3.495654870966e+00
3.495654870966e+00
3.495654870966e+00
3.495654870966e+00
3.495654870966e+00
3.495654870966e+00
3.495654870966e+00
3.495654870966e+00
3.495654870966e+00
3.495654870966e+00
3.495654870966e+00
3.495654870966e+00
3.495654870966e+00
3.495654870966e+00
3.495654870966e+00
3.495654870966e+00
3.495654870966e+00
3.495654870966e+00
3.495654870966e+00
3.495654870966e+00
3.495654870966e+00
3.495654870966e+00
3.495654870966e+00
3.495654870966e+00
3.495654870966e+00
3.495654870966e+00
3.495654870966e+00
3.495654870966e+00
3.495654870966e+00
3.495654870966e+00
3.495654870966e+00
3.495654870966e+00
3.495654870966e+00
3.495654870966e+00
3.495654870966e+00
3.495654870966e+00
3.495654870966e+00
3.495654870966e+00
3.495654870966e+00
3.495654870966e+00
3.495654870966e+00
3.495654870966e+00
3.495654870966e+00
3.495654870966e+00
3.495654870966e+00
3.495654870966e+00
3.495654870966e+00
3.495654870966e+00
3.495654870966e+00
3.495654870966e+00
3.495654870966e+00
3.495654870966e+00
3.495654870966e+00
3.495654870966e+00
3.495654870966e+00
3.495654870966e+00
3.495654870966e+00
3.495654870966e+00
3.495654870966e+00
3.495654870966e+00
3.495654870966e+00
3.495654870966e+00
3.495654870966e+00
3.495654870966e+00
3.495654870966e+00
3.495654870966e+00
3.495654870966e+00
3.495654870966e+00
3.495654870966e+00
3.495654870966e+00
3.495654870966e+00
3.495654870966e+00
3.495654870966e+00
3.495654870966e+00
3.495654870966e+00
3.495654870966e+00
3.495654870966e+00
3.495654870966e+00
3.495654870966e+00
3.495654870966e+00
3.495654870966e+00
3.495654870966e+00
3.495654870966e+00
3.495654870966e+00
3.495654870966e+00
3.495654870966e+00
3.495654870966e+00
3.495654870966e+00
3.495654870966e+00
3.495654870966e+00
3.495654870966e+00
3.495654870966e+00
3.495654870966e+00
3.495654870966e+00
3.495654870966e+00
3.495654870966e+00
3.495654870966e+00
3.495654870966e+00
3.495654870966e+00
3.495654870966e+00
3.495654870966e+00
3.495654870966e+00
3.495654870966e+00
3.495654870966e+00
3.495654870966e+00
3.495654870966e+00
3.495654870966e+00
3.495654870966e+00
3.495654870966e+00
3.495654870966e+00
3.495654870966e+00
3.495654870966e+00
3.495654870966e+00
3.495654870966e+00
3.495654870966e+00
3.495654870966e+00
3.495654870966e+00
3.495654870966e+00
3.495654870966e+00
3.495654870966e+00
3.495654870966e+00
3.495654870966e+00
3.495654870966e+00
3.495654870966e+00
3.495654870966e+00
3.495654870966e+00
3.495654870966e+00
3.495654870966e+00
3.495654870966e+00
4.758527947242e+01
3.495654870966e+00
3.495654870966e+00
3.495654870966e+00
3.495654870966e+00
3.495654870966e+00
3.495654870966e+00
3.495654870966e+00
3.495654870966e+00
3.495654870966e+00
3.495654870966e+00
3.495654870966e+00
3.495654870966e+00
3.495654870966e+00
3.495654870966e+00
3.495654870966e+00
3.495654870966e+00
3.495654870966e+00
3.495654870966e+00
3.495654870966e+00
3.495654870966e+00
3.495654870966e+00
3.495654870966e+00
3.495654870966e+00
3.495654870966e+00
3.495654870966e+00
3.495654870966e+00
3.495654870966e+00
3.495654870966e+00
3.495654870966e+00
3.495654870966e+00
3.495654870966e+00
3.495654870966e+00
3.495654870966e+00
3.495654870966e+00
3.495654870966e+00
3.495654870966e+00
3.495654870966e+00
3.495654870966e+00
3.495654870966e+00
3.495654870966e+00
3.495654870966e+00
3.495654870966e+00
3.495654870966e+00
3.495654870966e+00
3.495654870966e+00
3.495654870966e+00
3.495654870966e+00
3.495654870966e+00
3.495654870966e+00
3.495654870966e+00
3.495654870966e+00
3.495654870966e+00
3.495654870966e+00
3.495654870966e+00
3.495654870966e+00
3.495654870966e+00
3.495654870966e+00
3.495654870966e+00
3.495654870966e+00
3.495654870966e+00
3.495654870966e+00
3.495654870966e+00
3.495654870966e+00
3.495654870966e+00
3.495654870966e+00
3.495654870966e+00
3.495654870966e+00
3.495654870966e+00
3.495654870966e+00
3.495654870966e+00
3.495654870966e+00
3.495654870966e+00
3.495654870966e+00
3.495654870966e+00
3.495654870966e+00
3.495654870966e+00
3.495654870966e+00
3.495654870966e+00
3.495654870966e+00
3.495654870966e+00
3.495654870966e+00
3.495654870966e+00
3.495654870966e+00
3.495654870966e+00
3.495654870966e+00
3.495654870966e+00
3.495654870966e+00
3.495654870966e+00
3.495654870966e+00
3.495654870966e+00
3.495654870966e+00
3.495654870966e+00
3.495654870966e+00
3.495654870966e+00
3.495654870966e+00
3.495654870966e+00
3.495654870966e+00
3.495654870966e+00
3.495654870966e+00
3.495654870966e+00
3.495654870966e+00
3.495654870966e+00
3.495654870966e+00
3.495654870966e+00
3.495654870966e+00
3.495654870966e+00
3.495654870966e+00
3.495654870966e+00
5.630993247402e+01
3.495654870966e+00
3.495654870966e+00
3.495654870966e+00
3.495654870966e+00
3.495654870966e+00
3.495654870966e+00
3.495654870966e+00
3.495654870966e+00
3.495654870966e+00
3.495654870966e+00
3.495654870966e+00
3.495654870966e+00
3.495654870966e+00
3.495654870966e+00
3.495654870966e+00
3.495654870966e+00
3.495654870966e+00
3.495654870966e+00
3.495654870966e+00
3.495654870966e+00
3.495654870966e+00
3.495654870966e+00
3.495654870966e+00
3.495654870966e+00
3.495654870966e+00
3.495654870966e+00
3.495654870966e+00
3.495654870966e+00
3.495654870966e+00
3.495654870966e+00
3.495654870966e+00
3.495654870966e+00
3.495654870966e+00
3.495654870966e+00


