# vtk DataFile Version 2.0
Calculation  at time 1.000000000000e+00 
ASCII
DATASET UNSTRUCTURED_GRID
Field FieldData 1
Time 1 1 double
1.000000000000e+00

POINTS 1283 float
0.0 0.0 0.0 
5.000000000000e+01 -1.000000000000e+01 0.0 
0.0 -2.000000000000e+01 0.0 
5.000000000000e+01 -2.000000000000e+01 0.0 
0.0 -9.999999999991e-01 0.0 
0.0 -1.999999999998e+00 0.0 
0.0 -2.999999999997e+00 0.0 
0.0 -3.999999999994e+00 0.0 
0.0 -4.999999999991e+00 0.0 
0.0 -5.999999999988e+00 0.0 
0.0 -6.999999999985e+00 0.0 
0.0 -7.999999999982e+00 0.0 
0.0 -8.999999999983e+00 0.0 
0.0 -9.999999999985e+00 0.0 
0.0 -1.099999999999e+01 0.0 
0.0 -1.199999999999e+01 0.0 
0.0 -1.299999999999e+01 0.0 
0.0 -1.399999999999e+01 0.0 
0.0 -1.499999999999e+01 0.0 
0.0 -1.599999999999e+01 0.0 
0.0 -1.700000000000e+01 0.0 
0.0 -1.800000000000e+01 0.0 
0.0 -1.900000000000e+01 0.0 
4.900000000001e+01 -2.000000000000e+01 0.0 
4.800000000001e+01 -2.000000000000e+01 0.0 
4.700000000002e+01 -2.000000000000e+01 0.0 
4.600000000003e+01 -2.000000000000e+01 0.0 
4.500000000004e+01 -2.000000000000e+01 0.0 
4.400000000004e+01 -2.000000000000e+01 0.0 
4.300000000005e+01 -2.000000000000e+01 0.0 
4.200000000006e+01 -2.000000000000e+01 0.0 
4.100000000006e+01 -2.000000000000e+01 0.0 
4.000000000007e+01 -2.000000000000e+01 0.0 
3.900000000008e+01 -2.000000000000e+01 0.0 
3.800000000009e+01 -2.000000000000e+01 0.0 
3.700000000009e+01 -2.000000000000e+01 0.0 
3.600000000010e+01 -2.000000000000e+01 0.0 
3.500000000011e+01 -2.000000000000e+01 0.0 
3.400000000011e+01 -2.000000000000e+01 0.0 
3.300000000012e+01 -2.000000000000e+01 0.0 
3.200000000013e+01 -2.000000000000e+01 0.0 
3.100000000013e+01 -2.000000000000e+01 0.0 
3.000000000013e+01 -2.000000000000e+01 0.0 
2.900000000013e+01 -2.000000000000e+01 0.0 
2.800000000013e+01 -2.000000000000e+01 0.0 
2.700000000013e+01 -2.000000000000e+01 0.0 
2.600000000013e+01 -2.000000000000e+01 0.0 
2.500000000013e+01 -2.000000000000e+01 0.0 
2.400000000013e+01 -2.000000000000e+01 0.0 
2.300000000013e+01 -2.000000000000e+01 0.0 
2.200000000013e+01 -2.000000000000e+01 0.0 
2.100000000013e+01 -2.000000000000e+01 0.0 
2.000000000013e+01 -2.000000000000e+01 0.0 
1.900000000013e+01 -2.000000000000e+01 0.0 
1.800000000013e+01 -2.000000000000e+01 0.0 
1.700000000012e+01 -2.000000000000e+01 0.0 
1.600000000011e+01 -2.000000000000e+01 0.0 
1.500000000011e+01 -2.000000000000e+01 0.0 
1.400000000010e+01 -2.000000000000e+01 0.0 
1.300000000009e+01 -2.000000000000e+01 0.0 
1.200000000009e+01 -2.000000000000e+01 0.0 
1.100000000008e+01 -2.000000000000e+01 0.0 
1.000000000007e+01 -2.000000000000e+01 0.0 
9.000000000064e+00 -2.000000000000e+01 0.0 
8.000000000057e+00 -2.000000000000e+01 0.0 
7.000000000050e+00 -2.000000000000e+01 0.0 
6.000000000043e+00 -2.000000000000e+01 0.0 
5.000000000036e+00 -2.000000000000e+01 0.0 
4.000000000028e+00 -2.000000000000e+01 0.0 
3.000000000021e+00 -2.000000000000e+01 0.0 
2.000000000014e+00 -2.000000000000e+01 0.0 
1.000000000007e+00 -2.000000000000e+01 0.0 
5.000000000000e+01 -1.100000000000e+01 0.0 
5.000000000000e+01 -1.200000000000e+01 0.0 
5.000000000000e+01 -1.300000000000e+01 0.0 
5.000000000000e+01 -1.400000000000e+01 0.0 
5.000000000000e+01 -1.500000000000e+01 0.0 
5.000000000000e+01 -1.600000000000e+01 0.0 
5.000000000000e+01 -1.700000000000e+01 0.0 
5.000000000000e+01 -1.800000000000e+01 0.0 
5.000000000000e+01 -1.900000000000e+01 0.0 
2.000000000000e+01 0.0 0.0 
5.000000000000e+01 0.0 0.0 
3.500000000000e+01 -1.000000000000e+01 0.0 
2.150000000000e+01 -1.000000000000e+00 0.0 
2.300000000000e+01 -2.000000000000e+00 0.0 
2.450000000000e+01 -3.000000000000e+00 0.0 
2.600000000000e+01 -4.000000000000e+00 0.0 
2.750000000000e+01 -5.000000000000e+00 0.0 
2.900000000000e+01 -6.000000000000e+00 0.0 
3.050000000000e+01 -7.000000000000e+00 0.0 
3.200000000000e+01 -8.000000000000e+00 0.0 
3.350000000000e+01 -9.000000000000e+00 0.0 
5.000000000000e+01 -1.000000000000e+00 0.0 
5.000000000000e+01 -2.000000000000e+00 0.0 
5.000000000000e+01 -3.000000000000e+00 0.0 
5.000000000000e+01 -4.000000000000e+00 0.0 
5.000000000000e+01 -5.000000000000e+00 0.0 
5.000000000000e+01 -6.000000000000e+00 0.0 
5.000000000000e+01 -7.000000000000e+00 0.0 
5.000000000000e+01 -8.000000000000e+00 0.0 
5.000000000000e+01 -9.000000000000e+00 0.0 
4.900000000000e+01 -1.000000000000e+01 0.0 
4.800000000000e+01 -1.000000000000e+01 0.0 
4.700000000000e+01 -1.000000000000e+01 0.0 
4.600000000000e+01 -1.000000000000e+01 0.0 
4.500000000000e+01 -1.000000000000e+01 0.0 
4.400000000000e+01 -1.000000000000e+01 0.0 
4.300000000000e+01 -1.000000000000e+01 0.0 
4.200000000000e+01 -1.000000000000e+01 0.0 
4.100000000000e+01 -1.000000000000e+01 0.0 
4.000000000000e+01 -1.000000000000e+01 0.0 
3.900000000000e+01 -1.000000000000e+01 0.0 
3.800000000000e+01 -1.000000000000e+01 0.0 
3.700000000000e+01 -1.000000000000e+01 0.0 
3.600000000000e+01 -1.000000000000e+01 0.0 
1.900000000000e+01 0.0 0.0 
1.800000000000e+01 0.0 0.0 
1.700000000000e+01 0.0 0.0 
1.600000000000e+01 0.0 0.0 
1.500000000000e+01 0.0 0.0 
1.400000000000e+01 0.0 0.0 
1.300000000000e+01 0.0 0.0 
1.200000000000e+01 0.0 0.0 
1.100000000000e+01 0.0 0.0 
1.000000000000e+01 0.0 0.0 
9.000000000000e+00 0.0 0.0 
8.000000000000e+00 0.0 0.0 
7.000000000000e+00 0.0 0.0 
6.000000000000e+00 0.0 0.0 
5.000000000000e+00 0.0 0.0 
4.000000000000e+00 0.0 0.0 
3.000000000000e+00 0.0 0.0 
2.000000000000e+00 0.0 0.0 
1.000000000000e+00 0.0 0.0 
2.100000000000e+01 0.0 0.0 
2.199999999999e+01 0.0 0.0 
2.299999999999e+01 0.0 0.0 
2.399999999999e+01 0.0 0.0 
2.499999999998e+01 0.0 0.0 
2.599999999998e+01 0.0 0.0 
2.699999999998e+01 0.0 0.0 
2.799999999997e+01 0.0 0.0 
2.899999999996e+01 0.0 0.0 
2.999999999995e+01 0.0 0.0 
3.099999999993e+01 0.0 0.0 
3.199999999992e+01 0.0 0.0 
3.299999999990e+01 0.0 0.0 
3.399999999989e+01 0.0 0.0 
3.499999999987e+01 0.0 0.0 
3.599999999988e+01 0.0 0.0 
3.699999999989e+01 0.0 0.0 
3.799999999990e+01 0.0 0.0 
3.899999999990e+01 0.0 0.0 
3.999999999991e+01 0.0 0.0 
4.099999999992e+01 0.0 0.0 
4.199999999993e+01 0.0 0.0 
4.299999999994e+01 0.0 0.0 
4.399999999995e+01 0.0 0.0 
4.499999999996e+01 0.0 0.0 
4.599999999997e+01 0.0 0.0 
4.699999999997e+01 0.0 0.0 
4.799999999998e+01 0.0 0.0 
4.899999999999e+01 0.0 0.0 
4.901724137931e+01 -1.000000000000e+00 0.0 
4.803448275862e+01 -1.000000000000e+00 0.0 
4.705172413793e+01 -1.000000000000e+00 0.0 
4.606896551724e+01 -1.000000000000e+00 0.0 
4.508620689655e+01 -1.000000000000e+00 0.0 
4.410344827586e+01 -1.000000000000e+00 0.0 
4.312068965517e+01 -1.000000000000e+00 0.0 
4.213793103448e+01 -1.000000000000e+00 0.0 
4.115517241379e+01 -1.000000000000e+00 0.0 
4.017241379310e+01 -1.000000000000e+00 0.0 
3.918965517241e+01 -1.000000000000e+00 0.0 
3.820689655172e+01 -1.000000000000e+00 0.0 
3.722413793103e+01 -1.000000000000e+00 0.0 
3.624137931034e+01 -1.000000000000e+00 0.0 
3.525862068966e+01 -1.000000000000e+00 0.0 
3.427586206897e+01 -1.000000000000e+00 0.0 
3.329310344828e+01 -1.000000000000e+00 0.0 
3.231034482759e+01 -1.000000000000e+00 0.0 
3.132758620690e+01 -1.000000000000e+00 0.0 
3.034482758621e+01 -1.000000000000e+00 0.0 
2.936206896552e+01 -1.000000000000e+00 0.0 
2.837931034483e+01 -1.000000000000e+00 0.0 
2.739655172414e+01 -1.000000000000e+00 0.0 
2.641379310345e+01 -1.000000000000e+00 0.0 
2.543103448276e+01 -1.000000000000e+00 0.0 
2.444827586207e+01 -1.000000000000e+00 0.0 
2.346551724138e+01 -1.000000000000e+00 0.0 
2.248275862069e+01 -1.000000000000e+00 0.0 
2.400000000000e+01 -2.000000000000e+00 0.0 
2.500000000000e+01 -2.000000000000e+00 0.0 
2.600000000000e+01 -2.000000000000e+00 0.0 
2.700000000000e+01 -2.000000000000e+00 0.0 
2.800000000000e+01 -2.000000000000e+00 0.0 
2.900000000000e+01 -2.000000000000e+00 0.0 
3.000000000000e+01 -2.000000000000e+00 0.0 
3.100000000000e+01 -2.000000000000e+00 0.0 
3.200000000000e+01 -2.000000000000e+00 0.0 
3.300000000000e+01 -2.000000000000e+00 0.0 
3.400000000000e+01 -2.000000000000e+00 0.0 
3.500000000000e+01 -2.000000000000e+00 0.0 
3.600000000000e+01 -2.000000000000e+00 0.0 
3.700000000000e+01 -2.000000000000e+00 0.0 
3.800000000000e+01 -2.000000000000e+00 0.0 
3.900000000000e+01 -2.000000000000e+00 0.0 
4.000000000000e+01 -2.000000000000e+00 0.0 
4.100000000000e+01 -2.000000000000e+00 0.0 
4.200000000000e+01 -2.000000000000e+00 0.0 
4.300000000000e+01 -2.000000000000e+00 0.0 
4.400000000000e+01 -2.000000000000e+00 0.0 
4.500000000000e+01 -2.000000000000e+00 0.0 
4.600000000000e+01 -2.000000000000e+00 0.0 
4.700000000000e+01 -2.000000000000e+00 0.0 
4.800000000000e+01 -2.000000000000e+00 0.0 
4.900000000000e+01 -2.000000000000e+00 0.0 
2.548076923077e+01 -3.000000000000e+00 0.0 
2.646153846153e+01 -3.000000000000e+00 0.0 
2.744230769230e+01 -3.000000000000e+00 0.0 
2.842307692306e+01 -3.000000000000e+00 0.0 
2.940384615383e+01 -3.000000000000e+00 0.0 
3.038461538459e+01 -3.000000000000e+00 0.0 
3.136538461536e+01 -3.000000000000e+00 0.0 
3.234615384612e+01 -3.000000000000e+00 0.0 
3.332692307687e+01 -3.000000000000e+00 0.0 
3.430769230762e+01 -3.000000000000e+00 0.0 
3.528846153837e+01 -3.000000000000e+00 0.0 
3.626923076912e+01 -3.000000000000e+00 0.0 
3.724999999988e+01 -3.000000000000e+00 0.0 
3.823076923065e+01 -3.000000000000e+00 0.0 
3.921153846143e+01 -3.000000000000e+00 0.0 
4.019230769221e+01 -3.000000000000e+00 0.0 
4.117307692299e+01 -3.000000000000e+00 0.0 
4.215384615377e+01 -3.000000000000e+00 0.0 
4.313461538455e+01 -3.000000000000e+00 0.0 
4.411538461533e+01 -3.000000000000e+00 0.0 
4.509615384611e+01 -3.000000000000e+00 0.0 
4.607692307688e+01 -3.000000000000e+00 0.0 
4.705769230766e+01 -3.000000000000e+00 0.0 
4.803846153844e+01 -3.000000000000e+00 0.0 
4.901923076922e+01 -3.000000000000e+00 0.0 
4.900000000000e+01 -4.000000000000e+00 0.0 
4.800000000000e+01 -4.000000000000e+00 0.0 
4.700000000000e+01 -4.000000000000e+00 0.0 
4.600000000000e+01 -4.000000000000e+00 0.0 
4.500000000000e+01 -4.000000000000e+00 0.0 
4.400000000000e+01 -4.000000000000e+00 0.0 
4.300000000000e+01 -4.000000000000e+00 0.0 
4.200000000000e+01 -4.000000000000e+00 0.0 
4.100000000000e+01 -4.000000000000e+00 0.0 
4.000000000000e+01 -4.000000000000e+00 0.0 
3.900000000000e+01 -4.000000000000e+00 0.0 
3.800000000000e+01 -4.000000000000e+00 0.0 
3.700000000000e+01 -4.000000000000e+00 0.0 
3.600000000000e+01 -4.000000000000e+00 0.0 
3.500000000000e+01 -4.000000000000e+00 0.0 
3.400000000000e+01 -4.000000000000e+00 0.0 
3.300000000000e+01 -4.000000000000e+00 0.0 
3.200000000000e+01 -4.000000000000e+00 0.0 
3.100000000000e+01 -4.000000000000e+00 0.0 
3.000000000000e+01 -4.000000000000e+00 0.0 
2.900000000000e+01 -4.000000000000e+00 0.0 
2.800000000000e+01 -4.000000000000e+00 0.0 
2.700000000000e+01 -4.000000000000e+00 0.0 
2.847826086957e+01 -5.000000000000e+00 0.0 
2.945652173913e+01 -5.000000000000e+00 0.0 
3.043478260870e+01 -5.000000000000e+00 0.0 
3.141304347826e+01 -5.000000000000e+00 0.0 
3.239130434783e+01 -5.000000000000e+00 0.0 
3.336956521739e+01 -5.000000000000e+00 0.0 
3.434782608696e+01 -5.000000000000e+00 0.0 
3.532608695652e+01 -5.000000000000e+00 0.0 
3.630434782609e+01 -5.000000000000e+00 0.0 
3.728260869565e+01 -5.000000000000e+00 0.0 
3.826086956522e+01 -5.000000000000e+00 0.0 
3.923913043478e+01 -5.000000000000e+00 0.0 
4.021739130435e+01 -5.000000000000e+00 0.0 
4.119565217391e+01 -5.000000000000e+00 0.0 
4.217391304348e+01 -5.000000000000e+00 0.0 
4.315217391304e+01 -5.000000000000e+00 0.0 
4.413043478261e+01 -5.000000000000e+00 0.0 
4.510869565217e+01 -5.000000000000e+00 0.0 
4.608695652174e+01 -5.000000000000e+00 0.0 
4.706521739130e+01 -5.000000000000e+00 0.0 
4.804347826087e+01 -5.000000000000e+00 0.0 
4.902173913043e+01 -5.000000000000e+00 0.0 
4.900000000001e+01 -6.000000000000e+00 0.0 
4.800000000003e+01 -6.000000000000e+00 0.0 
4.700000000004e+01 -6.000000000000e+00 0.0 
4.600000000006e+01 -6.000000000000e+00 0.0 
4.500000000007e+01 -6.000000000000e+00 0.0 
4.400000000009e+01 -6.000000000000e+00 0.0 
4.300000000010e+01 -6.000000000000e+00 0.0 
4.200000000012e+01 -6.000000000000e+00 0.0 
4.100000000013e+01 -6.000000000000e+00 0.0 
4.000000000014e+01 -6.000000000000e+00 0.0 
3.900000000014e+01 -6.000000000000e+00 0.0 
3.800000000012e+01 -6.000000000000e+00 0.0 
3.700000000010e+01 -6.000000000000e+00 0.0 
3.600000000008e+01 -6.000000000000e+00 0.0 
3.500000000006e+01 -6.000000000000e+00 0.0 
3.400000000005e+01 -6.000000000000e+00 0.0 
3.300000000003e+01 -6.000000000000e+00 0.0 
3.200000000001e+01 -6.000000000000e+00 0.0 
3.100000000000e+01 -6.000000000000e+00 0.0 
3.000000000000e+01 -6.000000000000e+00 0.0 
3.147499999998e+01 -7.000000000000e+00 0.0 
3.244999999998e+01 -7.000000000000e+00 0.0 
3.342499999998e+01 -7.000000000000e+00 0.0 
3.439999999998e+01 -7.000000000000e+00 0.0 
3.537499999998e+01 -7.000000000000e+00 0.0 
3.634999999998e+01 -7.000000000000e+00 0.0 
3.732499999998e+01 -7.000000000000e+00 0.0 
3.829999999998e+01 -7.000000000000e+00 0.0 
3.927499999999e+01 -7.000000000000e+00 0.0 
4.024999999999e+01 -7.000000000000e+00 0.0 
4.122499999999e+01 -7.000000000000e+00 0.0 
4.219999999999e+01 -7.000000000000e+00 0.0 
4.317499999999e+01 -7.000000000000e+00 0.0 
4.414999999999e+01 -7.000000000000e+00 0.0 
4.512499999999e+01 -7.000000000000e+00 0.0 
4.609999999999e+01 -7.000000000000e+00 0.0 
4.707500000000e+01 -7.000000000000e+00 0.0 
4.805000000000e+01 -7.000000000000e+00 0.0 
4.902500000000e+01 -7.000000000000e+00 0.0 
4.900000000000e+01 -8.000000000000e+00 0.0 
4.800000000000e+01 -8.000000000000e+00 0.0 
4.700000000000e+01 -8.000000000000e+00 0.0 
4.600000000000e+01 -8.000000000000e+00 0.0 
4.500000000000e+01 -8.000000000000e+00 0.0 
4.400000000000e+01 -8.000000000000e+00 0.0 
4.300000000000e+01 -8.000000000000e+00 0.0 
4.200000000000e+01 -8.000000000000e+00 0.0 
4.100000000000e+01 -8.000000000000e+00 0.0 
4.000000000000e+01 -8.000000000000e+00 0.0 
3.900000000000e+01 -8.000000000000e+00 0.0 
3.800000000000e+01 -8.000000000000e+00 0.0 
3.700000000000e+01 -8.000000000000e+00 0.0 
3.600000000000e+01 -8.000000000000e+00 0.0 
3.500000000000e+01 -8.000000000000e+00 0.0 
3.400000000000e+01 -8.000000000000e+00 0.0 
3.300000000000e+01 -8.000000000000e+00 0.0 
3.447058823527e+01 -9.000000000000e+00 0.0 
3.544117647055e+01 -9.000000000000e+00 0.0 
3.641176470582e+01 -9.000000000000e+00 0.0 
3.738235294109e+01 -9.000000000000e+00 0.0 
3.835294117637e+01 -9.000000000000e+00 0.0 
3.932352941164e+01 -9.000000000000e+00 0.0 
4.029411764691e+01 -9.000000000000e+00 0.0 
4.126470588219e+01 -9.000000000000e+00 0.0 
4.223529411748e+01 -9.000000000000e+00 0.0 
4.320588235279e+01 -9.000000000000e+00 0.0 
4.417647058811e+01 -9.000000000000e+00 0.0 
4.514705882342e+01 -9.000000000000e+00 0.0 
4.611764705874e+01 -9.000000000000e+00 0.0 
4.708823529405e+01 -9.000000000000e+00 0.0 
4.805882352937e+01 -9.000000000000e+00 0.0 
4.902941176468e+01 -9.000000000000e+00 0.0 
2.075000000000e+01 -5.000000000006e-01 0.0 
2.225000000000e+01 -1.500000000000e+00 0.0 
2.375000000000e+01 -2.500000000000e+00 0.0 
2.525000000000e+01 -3.500000000000e+00 0.0 
2.675000000000e+01 -4.500000000000e+00 0.0 
2.825000000000e+01 -5.500000000000e+00 0.0 
2.975000000000e+01 -6.500000000000e+00 0.0 
3.125000000000e+01 -7.500000000000e+00 0.0 
3.275000000000e+01 -8.500000000000e+00 0.0 
3.425000000000e+01 -9.500000000000e+00 0.0 
2.226951693683e+01 -2.403913980114e+00 0.0 
1.650149491944e+01 -1.913490915758e+01 0.0 
1.050042386896e+01 -8.504605092970e-01 0.0 
1.553146524712e+01 -8.281255032105e-01 0.0 
1.150000000008e+01 -1.913397459621e+01 0.0 
2.530060260647e+01 -4.428336431260e+00 0.0 
8.651114563942e-01 -1.052096295641e+01 0.0 
2.050000000013e+01 -1.913397459622e+01 0.0 
2.819198729811e+01 -6.399519052838e+00 0.0 
2.445670302931e+01 -1.915649188023e+01 0.0 
3.117591465718e+01 -8.394293040695e+00 0.0 
7.465053044742e+00 -1.920411160581e+01 0.0 
6.398295709691e+00 -8.230098819370e-01 0.0 
2.849659607461e+01 -1.914296187762e+01 0.0 
3.418732642882e+01 -1.040265792588e+01 0.0 
8.386450935063e-01 -6.533605142809e+00 0.0 
9.178661865596e-01 -1.329769195597e+01 0.0 
3.149448624493e+01 -1.910466733764e+01 0.0 
3.552916747426e+01 -1.914628590759e+01 0.0 
4.449210346537e+01 -1.914359085008e+01 0.0 
4.140975975145e+01 -1.906941860733e+01 0.0 
3.847475958753e+01 -1.916622382724e+01 0.0 
3.653774794640e+01 -1.088712800241e+01 0.0 
4.047886341787e+01 -1.090139014048e+01 0.0 
4.348006339825e+01 -1.092792621489e+01 0.0 
4.919519968029e+01 -1.451526755068e+01 0.0 
4.500000000032e+00 -1.913397459621e+01 0.0 
1.856136921614e+01 -8.212235170404e-01 0.0 
3.499895312306e+00 -8.661165539723e-01 0.0 
9.076088696565e-01 -1.642306201891e+01 0.0 
4.655174095477e+01 -1.086183387525e+01 0.0 
9.430688970604e-01 -3.496112672958e+00 0.0 
3.353992337063e+01 -1.901202090820e+01 0.0 
2.249746016977e+01 -1.921262287282e+01 0.0 
2.650122741777e+01 -1.916123026018e+01 0.0 
1.863571384842e+01 -1.908325534840e+01 0.0 
1.450089971693e+01 -1.917691901860e+01 0.0 
1.350044695317e+01 -8.659695299584e-01 0.0 
3.849987469880e+01 -1.084154983397e+01 0.0 
9.454419857884e+00 -1.900818879936e+01 0.0 
4.917398660523e+01 -1.645692866081e+01 0.0 
8.500000000000e+00 -8.660254037844e-01 0.0 
8.660319230785e-01 -8.500111697188e+00 0.0 
4.649022621545e+01 -1.930506220113e+01 0.0 
2.667688107845e+01 -5.420288124331e+00 0.0 
2.379251615665e+01 -3.412225477429e+00 0.0 
2.966631491830e+01 -7.389030232731e+00 0.0 
3.267915035995e+01 -9.396934932445e+00 0.0 
2.074836922338e+01 -1.320054020319e+00 0.0 
4.915985743621e+01 -1.261973384855e+01 0.0 
2.527129768623e+00 -1.931592414663e+01 0.0 
1.538676247410e+00 -8.436956619311e-01 0.0 
4.908096641539e+01 -1.842484004551e+01 0.0 
3.478612492673e+01 -1.090889364140e+01 0.0 
3.409757055860e+01 -1.131991530427e+01 0.0 
3.501895309466e+01 -1.177687842717e+01 0.0 
3.407758073088e+01 -1.224293381580e+01 0.0 
3.484541875390e+01 -1.277051428430e+01 0.0 
3.400322025842e+01 -1.319022775640e+01 0.0 
3.321672625034e+01 -1.266779191233e+01 0.0 
3.315244139236e+01 -1.360984106532e+01 0.0 
3.236335186892e+01 -1.308463225210e+01 0.0 
3.478337442841e+01 -1.372341158982e+01 0.0 
3.230105923633e+01 -1.403023731610e+01 0.0 
3.150954055289e+01 -1.350301767700e+01 0.0 
3.144604792090e+01 -1.444931742516e+01 0.0 
3.065653897123e+01 -1.392357262981e+01 0.0 
3.071897610812e+01 -1.297447031198e+01 0.0 
2.986790411740e+01 -1.339226181535e+01 0.0 
2.993181466745e+01 -1.244703272398e+01 0.0 
2.908023061869e+01 -1.286254537734e+01 0.0 
2.901619051372e+01 -1.380881655279e+01 0.0 
2.822986160390e+01 -1.327695262116e+01 0.0 
2.829453476870e+01 -1.233265343811e+01 0.0 
2.744542905518e+01 -1.274510491105e+01 0.0 
2.751120089246e+01 -1.180368086886e+01 0.0 
2.666218649885e+01 -1.221619339205e+01 0.0 
2.672371209234e+01 -1.127125228527e+01 0.0 
2.587763216302e+01 -1.168539979114e+01 0.0 
2.581165585299e+01 -1.262994410089e+01 0.0 
2.502890882577e+01 -1.209827323619e+01 0.0 
2.509631327757e+01 -1.115492410304e+01 0.0 
2.424662989877e+01 -1.156630981079e+01 0.0 
2.431704046904e+01 -1.062389179334e+01 0.0 
2.346445438728e+01 -1.103427680694e+01 0.0 
2.339382552877e+01 -1.197964871788e+01 0.0 
2.260936050780e+01 -1.144513277642e+01 0.0 
2.268075012022e+01 -1.049911928216e+01 0.0 
2.182525737661e+01 -1.090920811464e+01 0.0 
2.189682319817e+01 -9.961716944568e+00 0.0 
2.104174127792e+01 -1.037266986667e+01 0.0 
2.111304367575e+01 -9.424179358711e+00 0.0 
2.025306185381e+01 -9.832727364719e+00 0.0 
2.018141124247e+01 -1.079140628871e+01 0.0 
1.938594498257e+01 -1.025147354112e+01 0.0 
1.946106490453e+01 -9.288010758448e+00 0.0 
1.858929958352e+01 -9.706319802516e+00 0.0 
1.851540991219e+01 -1.067205988724e+01 0.0 
1.771485303178e+01 -1.012504443115e+01 0.0 
1.764134552256e+01 -1.109360378538e+01 0.0 
1.683745148095e+01 -1.054496365337e+01 0.0 
1.691852964353e+01 -9.582555261178e+00 0.0 
1.603603813062e+01 -1.000160132379e+01 0.0 
1.595824239350e+01 -1.096750698862e+01 0.0 
1.515080624291e+01 -1.041639501931e+01 0.0 
1.523171602559e+01 -9.451711491453e+00 0.0 
1.434621060709e+01 -9.871956467464e+00 0.0 
1.426777178765e+01 -1.083749501371e+01 0.0 
1.345775282374e+01 -1.028803175500e+01 0.0 
1.354103873368e+01 -9.324918457162e+00 0.0 
1.265072018622e+01 -9.742612837270e+00 0.0 
1.257285762070e+01 -1.071557782384e+01 0.0 
1.175874815690e+01 -1.015972324288e+01 0.0 
1.184203019714e+01 -9.193604071377e+00 0.0 
1.094927709905e+01 -9.612103238656e+00 0.0 
1.086938022910e+01 -1.058685085646e+01 0.0 
1.005424098961e+01 -1.002939116380e+01 0.0 
9.977974613295e+00 -1.101324897989e+01 0.0 
1.012915646404e+01 -9.051815821181e+00 0.0 
9.237127782494e+00 -9.471239055559e+00 0.0 
9.308426593771e+00 -8.483376461131e+00 0.0 
8.418806073345e+00 -8.910712374517e+00 0.0 
2.253688464062e+01 -1.239459402279e+01 0.0 
8.495126726666e+00 -7.921646665254e+00 0.0 
9.389727383206e+00 -7.512103628377e+00 0.0 
7.601560812974e+00 -8.349460349344e+00 0.0 
7.525680547759e+00 -9.339736686940e+00 0.0 
7.677888324502e+00 -7.359727833346e+00 0.0 
6.782001206724e+00 -7.788454494773e+00 0.0 
6.858778622885e+00 -6.797338062822e+00 0.0 
2.196596590865e+01 -8.979025665442e+00 0.0 
2.816540108272e+01 -1.422634142353e+01 0.0 
5.961601194403e+00 -7.226824010712e+00 0.0 
6.038171749656e+00 -6.234825887079e+00 0.0 
6.936257279557e+00 -5.805287640737e+00 0.0 
6.115068918323e+00 -5.242109758768e+00 0.0 
3.564391741903e+01 -1.329240553876e+01 0.0 
3.558115605778e+01 -1.425902892003e+01 0.0 
3.645445282201e+01 -1.381970786460e+01 0.0 
3.639744204358e+01 -1.479198128612e+01 0.0 
3.727266909778e+01 -1.435399586226e+01 0.0 
5.216667013081e+00 -5.671788584287e+00 0.0 
3.220697293295e+01 -1.499594545107e+01 0.0 
3.551112158269e+01 -1.523479869250e+01 0.0 
2.836056961467e+01 -1.139032434851e+01 0.0 
2.516730388602e+01 -1.021382726837e+01 0.0 
1.844436907403e+01 -1.164097215196e+01 0.0 
5.885434318740e+00 -8.218694781467e+00 0.0 
5.064071066867e+00 -7.656614643901e+00 0.0 
4.988089103470e+00 -8.649722082718e+00 0.0 
1.079421050408e+01 -1.157014985435e+01 0.0 
9.902420005256e+00 -1.199903342656e+01 0.0 
1.071994252214e+01 -1.255727909771e+01 0.0 
9.826974788171e+00 -1.298659581767e+01 0.0 
1.064607883789e+01 -1.354595476388e+01 0.0 
9.751541265343e+00 -1.397556905071e+01 0.0 
8.932296185869e+00 -1.341553353988e+01 0.0 
8.856399248106e+00 -1.440570715508e+01 0.0 
8.036186803543e+00 -1.384470558472e+01 0.0 
1.057112875118e+01 -1.453516759081e+01 0.0 
1.146582585687e+01 -1.410539926903e+01 0.0 
7.959894480382e+00 -1.483563350928e+01 0.0 
7.138792279156e+00 -1.427465094140e+01 0.0 
7.062506792418e+00 -1.526615385482e+01 0.0 
6.240693558277e+00 -1.470508863040e+01 0.0 
6.316957575451e+00 -1.371212581281e+01 0.0 
5.418183007107e+00 -1.414253605022e+01 0.0 
5.494748364428e+00 -1.314886770603e+01 0.0 
1.756825565873e+01 -1.206433872514e+01 0.0 
1.837565773345e+01 -1.261356468266e+01 0.0 
1.749574831391e+01 -1.303769280014e+01 0.0 
1.830539187332e+01 -1.358828364284e+01 0.0 
1.742278925170e+01 -1.401367746928e+01 0.0 
1.823303007798e+01 -1.456432294258e+01 0.0 
1.734941694138e+01 -1.499213734361e+01 0.0 
1.653760041637e+01 -1.443920312098e+01 0.0 
3.056237977307e+01 -1.487132260174e+01 0.0 
1.866469084762e+01 -8.742953000418e+00 0.0 
1.953669694916e+01 -8.326038909849e+00 0.0 
1.874194303780e+01 -7.780688158966e+00 0.0 
1.961032016741e+01 -7.366854697285e+00 0.0 
1.881715755159e+01 -6.821102209649e+00 0.0 
1.968369797150e+01 -6.407747217358e+00 0.0 
1.889237123259e+01 -5.858375520026e+00 0.0 
1.802038875366e+01 -6.276202618170e+00 0.0 
1.809793837984e+01 -5.307629520489e+00 0.0 
1.721985207997e+01 -5.728242054488e+00 0.0 
1.729850893523e+01 -4.756990819347e+00 0.0 
1.641745664240e+01 -5.174636548624e+00 0.0 
2.495978509456e+01 -1.304406404294e+01 0.0 
1.911567814831e+01 -1.413854250293e+01 0.0 
1.904387332608e+01 -1.511463127723e+01 0.0 
1.992115934240e+01 -1.468788025898e+01 0.0 
7.013706899628e+00 -4.812582868662e+00 0.0 
5.342091874585e+00 -1.513658157269e+01 0.0 
1.139098043784e+01 -1.509488509480e+01 0.0 
1.228151810610e+01 -1.465617481983e+01 0.0 
1.646373110164e+01 -1.541993323337e+01 0.0 
5.293328636712e+00 -4.678385108584e+00 0.0 
1.975965862987e+01 -5.448124345648e+00 0.0 
2.054318374236e+01 -5.992561293251e+00 0.0 
3.721453439063e+01 -1.533216152738e+01 0.0 
3.809302733893e+01 -1.489235527381e+01 0.0 
1.220852788900e+01 -1.565304565230e+01 0.0 
4.394120899730e+00 -5.108397613210e+00 0.0 
8.779354620288e+00 -1.539524721159e+01 0.0 
1.817791047702e+01 -4.338570146253e+00 0.0 
4.518860013839e+00 -1.457343189307e+01 0.0 
4.442712140414e+00 -1.556841391069e+01 0.0 
8.115343466391e+00 -1.285760324283e+01 0.0 
1.985334703171e+01 -1.566478400426e+01 0.0 
2.071953850276e+01 -1.522074243119e+01 0.0 
1.634012953883e+01 -6.154777738301e+00 0.0 
1.553479994708e+01 -5.593730508879e+00 0.0 
1.561265946942e+01 -4.617761762647e+00 0.0 
1.470674212978e+01 -5.064576488228e+00 0.0 
1.464498299883e+01 -6.026514471420e+00 0.0 
1.383271561817e+01 -5.467796261169e+00 0.0 
1.389241253067e+01 -4.504338666645e+00 0.0 
1.301868735463e+01 -4.907185188626e+00 0.0 
1.294514184846e+01 -5.888160903592e+00 0.0 
1.212955968622e+01 -5.328262335277e+00 0.0 
1.220721122383e+01 -4.341264976687e+00 0.0 
1.131324345897e+01 -4.766773516508e+00 0.0 
5.266597955397e+00 -1.613148974258e+01 0.0 
1.737805990867e+01 -3.786677807525e+00 0.0 
3.078438094513e+01 -1.203225297748e+01 0.0 
1.131569882285e+01 -1.608511932110e+01 0.0 
1.728478341782e+01 -1.596017432313e+01 0.0 
3.803465906019e+01 -1.587509751228e+01 0.0 
3.891681276677e+01 -1.543395196905e+01 0.0 
3.897340985302e+01 -1.444710288980e+01 0.0 
3.980095968193e+01 -1.499059496613e+01 0.0 
3.974334598189e+01 -1.597921884150e+01 0.0 
4.062964983717e+01 -1.553518690417e+01 0.0 
4.068729602479e+01 -1.454434445295e+01 0.0 
4.151772679790e+01 -1.508974196007e+01 0.0 
4.157505195739e+01 -1.409694289912e+01 0.0 
4.240699932656e+01 -1.464347955968e+01 0.0 
4.234898051011e+01 -1.563721375790e+01 0.0 
4.323934606035e+01 -1.519082036405e+01 0.0 
4.329740528208e+01 -1.419587509788e+01 0.0 
4.413056841369e+01 -1.474359631875e+01 0.0 
4.418850110108e+01 -1.374786684042e+01 0.0 
4.502219770667e+01 -1.429605103525e+01 0.0 
4.496411937907e+01 -1.529215882720e+01 0.0 
4.490027319897e+00 -4.154167794594e+00 0.0 
1.565080385988e+01 -1.486411982419e+01 0.0 
1.557610691279e+01 -1.584855627870e+01 0.0 
4.195350646612e+00 -8.089117689096e+00 0.0 
4.124027797830e+00 -9.082831955007e+00 0.0 
4.917944318925e+00 -9.643530901533e+00 0.0 
4.020105689502e+00 -1.007439673661e+01 0.0 
4.587185899277e+01 -1.484039992728e+01 0.0 
4.580078661551e+01 -1.584043391042e+01 0.0 
2.061956522375e+01 -5.046701343981e+00 0.0 
2.139572955529e+01 -5.579553449826e+00 0.0 
3.715344357292e+01 -1.631485124583e+01 0.0 
3.618886196443e+00 -1.500471207167e+01 0.0 
3.695606940204e+00 -1.400939692294e+01 0.0 
2.438890661143e+01 -9.686110599723e+00 0.0 
2.523267572778e+01 -9.276766000622e+00 0.0 
2.446094171539e+01 -8.751904591412e+00 0.0 
2.529089822738e+01 -8.321495612547e+00 0.0 
2.606882688827e+01 -8.864724051119e+00 0.0 
2.452116646430e+01 -7.792756462004e+00 0.0 
1.235543269617e+01 -1.365845617339e+01 0.0 
4.318116874181e+01 -1.618567469992e+01 0.0 
7.835066111909e+00 -5.376366223896e+00 0.0 
7.905687335704e+00 -4.382539065697e+00 0.0 
3.542640009567e+00 -1.600035116542e+01 0.0 
1.572431503071e+01 -1.388358386695e+01 0.0 
2.574684696680e+01 -1.357896141127e+01 0.0 
2.488842657651e+01 -1.399674354505e+01 0.0 
2.568301775611e+01 -1.453552048595e+01 0.0 
2.481535572009e+01 -1.495542756508e+01 0.0 
2.561729699688e+01 -1.549784648532e+01 0.0 
2.474623061296e+01 -1.592058894178e+01 0.0 
2.394234041695e+01 -1.537572575827e+01 0.0 
2.065825452567e+01 -1.621899055217e+01 0.0 
2.387180528935e+01 -1.634552264687e+01 0.0 
4.585364400844e+01 -1.383912334080e+01 0.0 
1.998744432052e+01 -1.370317155541e+01 0.0 
1.205356951443e+01 -6.313580285498e+00 0.0 
5.396543905849e+00 -3.731818611283e+00 0.0 
1.139652573295e+01 -3.745819399350e+00 0.0 
3.574124306703e+00 -4.551456826011e+00 0.0 
3.494140761930e+00 -5.539787055649e+00 0.0 
1.213651452413e+01 -1.664505033022e+01 0.0 
2.555045568519e+01 -1.646529356744e+01 0.0 
2.641671114986e+01 -1.603899382371e+01 0.0 
2.612920721894e+01 -7.906435260873e+00 0.0 
2.690339829698e+01 -8.456969591431e+00 0.0 
1.978024383368e+01 -1.664410216353e+01 0.0 
3.732829979082e+01 -1.336926601859e+01 0.0 
4.074336584605e+01 -1.355133328401e+01 0.0 
4.163204691081e+01 -1.310280943992e+01 0.0 
3.773826114429e+00 -3.493444309145e+00 0.0 
1.228783001032e+01 -3.374822835872e+00 0.0 
4.057110462520e+01 -1.652588478000e+01 0.0 
2.132535497898e+01 -6.523623360525e+00 0.0 
2.216932532211e+01 -6.110044769206e+00 0.0 
1.825781152128e+01 -3.370146817147e+00 0.0 
1.745679445888e+01 -2.812942552063e+00 0.0 
4.666517057280e+01 -1.539981381543e+01 0.0 
4.660575894464e+01 -1.639014410186e+01 0.0 
4.838230979954e+00 -1.063643436446e+01 0.0 
3.938942630206e+00 -1.106778981745e+01 0.0 
1.302967218620e+01 -1.621373452436e+01 0.0 
1.049548003190e+01 -4.204825123240e+00 0.0 
4.573571907195e+01 -1.683820511148e+01 0.0 
1.483686335807e+01 -1.430849689310e+01 0.0 
1.490982658890e+01 -1.332679386284e+01 0.0 
3.190805600162e+00 -9.510968358545e+00 0.0 
2.146625721848e+01 -4.642437303115e+00 0.0 
2.069866208266e+01 -4.111852942193e+00 0.0 
1.286859345584e+01 -6.873252723348e+00 0.0 
1.041794493184e+01 -5.194814260291e+00 0.0 
2.671081808965e+00 -4.976806516331e+00 0.0 
1.295786792925e+01 -1.720506531799e+01 0.0 
3.968438206511e+01 -1.696869067241e+01 0.0 
2.308550456051e+01 -1.579963151273e+01 0.0 
2.315593682844e+01 -1.482967445235e+01 0.0 
2.299471449450e+01 -1.677069968132e+01 0.0 
1.057344714696e+01 -3.214252277840e+00 0.0 
1.124057603753e+01 -1.707713739755e+01 0.0 
2.718402535754e+00 -1.543629882103e+01 0.0 
2.638549692805e+01 -1.696744916809e+01 0.0 
2.723416349007e+01 -1.658104204545e+01 0.0 
2.210193351704e+01 -7.046769643417e+00 0.0 
2.295180925161e+01 -6.657397605239e+00 0.0 
2.301355235833e+01 -5.709111896800e+00 0.0 
2.379052718281e+01 -6.254965406962e+00 0.0 
3.243528601237e+01 -1.214181853533e+01 0.0 
2.287977995457e+01 -7.583722368300e+00 0.0 
2.999876029544e+01 -1.150837653096e+01 0.0 
3.084435366963e+01 -1.109693775882e+01 0.0 
3.006650579669e+01 -1.057778994262e+01 0.0 
2.683802665066e+01 -9.386863216633e+00 0.0 
2.768641973621e+01 -8.988883915666e+00 0.0 
2.040296980397e+01 -7.903629133404e+00 0.0 
1.925235024054e+01 -1.218872783130e+01 0.0 
5.735667000424e+00 -1.020577277283e+01 0.0 
6.396559909872e+00 -1.272326295703e+01 0.0 
1.161199420714e+01 -1.212812778229e+01 0.0 
4.229046132615e+01 -1.663084237572e+01 0.0 
4.312275399692e+01 -1.718087491556e+01 0.0 
4.335502068163e+01 -1.320039231514e+01 0.0 
4.424630298089e+01 -1.275160688731e+01 0.0 
7.090116643816e+00 -3.818998061530e+00 0.0 
7.989472176569e+00 -3.389238711200e+00 0.0 
9.085824861778e+00 -1.144036167408e+01 0.0 
1.041972423731e+01 -1.651614080893e+01 0.0 
3.797525112640e+01 -1.686052038746e+01 0.0 
3.709114253394e+01 -1.730125999865e+01 0.0 
3.626966748340e+01 -1.675477052919e+01 0.0 
1.385164591440e+01 -1.677597757552e+01 0.0 
1.787152588784e+01 -8.198993896093e+00 0.0 
1.668849729812e+01 -1.248560611628e+01 0.0 
1.659546177905e+01 -3.232482605530e+00 0.0 
2.332214717345e+01 -1.292598167641e+01 0.0 
7.168238450786e+00 -2.824711686516e+00 0.0 
2.894878403906e+01 -1.475427524446e+01 0.0 
2.646763248247e+00 -1.643270107952e+01 0.0 
3.467431944285e+00 -1.699648837348e+01 0.0 
2.059475877282e+01 -1.719473628526e+01 0.0 
3.333868355437e+01 -1.080596971682e+01 0.0 
2.246451062637e+01 -1.334557761546e+01 0.0 
2.167821896388e+01 -1.280847834858e+01 0.0 
3.089653185767e+01 -1.017198487212e+01 0.0 
3.012604365669e+01 -9.657298805968e+00 0.0 
2.929627299435e+01 -1.006100135274e+01 0.0 
2.936201435219e+01 -9.136748899251e+00 0.0 
1.198219052702e+01 -7.291887238230e+00 0.0 
1.116702076035e+01 -6.731976101053e+00 0.0 
2.551388807505e+01 -1.746927036981e+01 0.0 
2.378639090370e+01 -1.728678807149e+01 0.0 
2.718543627188e+01 -1.748668016909e+01 0.0 
2.804681050301e+01 -1.712626668293e+01 0.0 
1.970737034667e+01 -1.762317646822e+01 0.0 
1.889535776135e+01 -1.707158098231e+01 0.0 
2.593777711283e+00 -5.971157087874e+00 0.0 
2.773468281110e+01 -8.067164273938e+00 0.0 
4.051205884347e+01 -1.751819982458e+01 0.0 
3.166903145421e+01 -1.068032992414e+01 0.0 
1.033042452886e+01 -1.748285844336e+01 0.0 
9.519274604626e+00 -1.694349240233e+01 0.0 
1.668308673328e+01 -2.255861778986e+00 0.0 
1.570531902832e+01 -2.676795860126e+00 0.0 
4.655826903379e+01 -1.736656245706e+01 0.0 
2.384148070773e+01 -5.328744256413e+00 0.0 
2.460255123641e+01 -5.852182672816e+00 0.0 
2.306638135119e+01 -4.798935440613e+00 0.0 
8.467720450578e-01 -1.849576263072e+01 0.0 
4.849657322345e+01 -1.084860705506e+01 0.0 
2.565860899507e+00 -1.742859793981e+01 0.0 
2.764418872564e+01 -9.927142821799e+00 0.0 
4.565165880064e+01 -1.785336695404e+01 0.0 
2.162231831329e+01 -1.376528337468e+01 0.0 
2.360646352969e+01 -9.136041963102e+00 0.0 
1.392738739903e+01 -1.578285505772e+01 0.0 
4.756405947478e+01 -1.683706841809e+01 0.0 
4.740895034054e+01 -1.793766756892e+01 0.0 
4.080779328826e+01 -1.257387192544e+01 0.0 
4.168907939671e+01 -1.210739129181e+01 0.0 
3.991197722154e+01 -1.300815793917e+01 0.0 
1.905536506762e+01 -3.940076697685e+00 0.0 
1.923879596617e+01 -2.875000734166e+00 0.0 
4.401386745746e+01 -1.673483229438e+01 0.0 
4.247233362525e+00 -7.094581653070e+00 0.0 
3.286051630211e+00 -7.635300020553e+00 0.0 
9.609533347623e+00 -4.594311677967e+00 0.0 
9.523554636369e+00 -5.595597029530e+00 0.0 
5.660336628893e+00 -1.119290329628e+01 0.0 
6.558070063295e+00 -1.076385809362e+01 0.0 
2.809866407414e+01 -1.518037766799e+01 0.0 
2.888868674504e+01 -1.570360690070e+01 0.0 
2.654431550819e+01 -1.411217777162e+01 0.0 
1.402158265969e+01 -1.375404617952e+01 0.0 
1.409592494026e+01 -1.277071998942e+01 0.0 
1.499355196178e+01 -1.235270737023e+01 0.0 
4.221535326155e+01 -1.759335617494e+01 0.0 
4.305583287033e+01 -1.822663146802e+01 0.0 
1.280748808359e+01 -7.834332838285e+00 0.0 
1.368988389326e+01 -7.420529606172e+00 0.0 
1.110091796060e+01 -7.683966794328e+00 0.0 
3.963446145980e+01 -1.794331310122e+01 0.0 
3.423932362213e+00 -1.796415590455e+01 0.0 
4.280814572302e+00 -1.752272834860e+01 0.0 
8.050136380041e+00 -2.421582378631e+00 0.0 
8.888674091650e+00 -2.984264211327e+00 0.0 
2.152839430898e+01 -3.732609965436e+00 0.0 
2.077799585292e+01 -3.183896021866e+00 0.0 
3.618719395821e+01 -1.770276572576e+01 0.0 
3.538165138340e+01 -1.718709995539e+01 0.0 
3.702925326420e+01 -1.828844288807e+01 0.0 
1.756739438711e+00 -5.353284859169e+00 0.0 
2.233710191104e+01 -1.527265621324e+01 0.0 
1.389483555057e+01 -1.771797164730e+01 0.0 
1.475634224300e+01 -1.728357428390e+01 0.0 
1.298797563052e+01 -1.825968924755e+01 0.0 
2.145331271866e+01 -1.673705379077e+01 0.0 
2.133282821169e+01 -1.769400773673e+01 0.0 
2.292139194136e+01 -1.774915400288e+01 0.0 
1.750750053243e+01 -1.861475593469e+00 0.0 
4.830478841772e+01 -1.752611802221e+01 0.0 
4.341203507805e+01 -1.220326745522e+01 0.0 
1.685254151866e+01 -1.443085301632e+00 0.0 
4.431538535165e+01 -1.171841387375e+01 0.0 
4.511308610496e+01 -1.229557320599e+01 0.0 
4.510133242889e+01 -1.123680627466e+01 0.0 
1.846818030617e+00 -4.410877617069e+00 0.0 
3.995468694584e+01 -1.186571542989e+01 0.0 
3.901387459804e+01 -1.242507616755e+01 0.0 
8.966735877533e+00 -1.837818700423e+00 0.0 
4.049310011091e+01 -1.848269508791e+01 0.0 
7.278862053803e+00 -1.918523922691e+00 0.0 
6.429715522129e+00 -2.316676521184e+00 0.0 
9.443505505022e+00 -1.792198868094e+01 0.0 
8.620386951051e+00 -1.737590365556e+01 0.0 
8.571868171503e+00 -1.834436667826e+01 0.0 
7.758629848526e+00 -1.775677907213e+01 0.0 
7.806648388584e+00 -1.680761266021e+01 0.0 
6.908555145436e+00 -1.723746463044e+01 0.0 
4.251709122090e+01 -1.156937480156e+01 0.0 
6.931136405615e+00 -1.832465719263e+01 0.0 
6.015545461353e+00 -1.768865355295e+01 0.0 
5.960535926343e+00 -1.872011001764e+01 0.0 
3.023253444786e+01 -8.761960642196e+00 0.0 
2.454622702599e+01 -6.749421992767e+00 0.0 
2.537499741604e+01 -6.347634963783e+00 0.0 
2.544077378460e+01 -5.431358513649e+00 0.0 
2.801367161747e+01 -1.820907270221e+01 0.0 
2.884507806914e+01 -1.762032095326e+01 0.0 
1.821474531936e+00 -1.588901260460e+01 0.0 
1.821006262604e+00 -1.489370287756e+01 0.0 
4.599962488908e+01 -1.176478780598e+01 0.0 
4.705457470007e+01 -1.172182804229e+01 0.0 
4.667668314802e+01 -1.263464558483e+01 0.0 
4.759648056504e+01 -1.252380987933e+01 0.0 
4.728041618103e+01 -1.341928568376e+01 0.0 
4.825209352360e+01 -1.330491640804e+01 0.0 
4.778118233428e+01 -1.420151961695e+01 0.0 
2.388192727579e+01 -1.826934810142e+01 0.0 
2.381714684947e+01 -4.385917965223e+00 0.0 
3.172733219247e+01 -9.758744265248e+00 0.0 
1.882012070658e+01 -1.805540597212e+01 0.0 
1.805667505243e+01 -1.742221226236e+01 0.0 
2.852599958080e+01 -8.597196079481e+00 0.0 
2.856486123437e+01 -7.661382718527e+00 0.0 
1.111792842875e+01 -1.818223852980e+01 0.0 
2.203322722466e+01 -7.986646678802e+00 0.0 
3.955703676900e+01 -1.903246763601e+01 0.0 
1.944842206513e+01 -8.038750575182e-01 0.0 
1.909882767783e+01 -1.746322740933e+00 0.0 
2.281147422941e+01 -8.525912918334e+00 0.0 
2.850633001468e+01 -9.533271335986e+00 0.0 
2.532883344309e+01 -7.308951659710e+00 0.0 
2.620475466461e+01 -6.979208585400e+00 0.0 
1.396278270396e+01 -1.475095389807e+01 0.0 
9.791001166724e+00 -2.554159793552e+00 0.0 
2.229293380421e+01 -4.269762271052e+00 0.0 
4.677238984118e+01 -1.430071795514e+01 0.0 
2.228658385918e+01 -3.344747535984e+00 0.0 
8.940223674553e-01 -1.543595733415e+01 0.0 
2.118566862474e+01 -8.435876987696e+00 0.0 
2.678325936437e+01 -1.032621195706e+01 0.0 
2.223400220487e+01 -5.179046761770e+00 0.0 
2.375370625384e+01 -7.251580562134e+00 0.0 
3.156971327386e+01 -1.255534750737e+01 0.0 
3.328226391312e+01 -1.172914813316e+01 0.0 
3.250948774219e+01 -1.120157009348e+01 0.0 
2.032993445717e+01 -8.867880112202e+00 0.0 
2.697226974856e+01 -7.536633082045e+00 0.0 
2.707377810386e+01 -6.590835263295e+00 0.0 
2.914099246827e+01 -1.191678458549e+01 0.0 
3.544824072239e+01 -1.621126558525e+01 0.0 
3.456511855436e+01 -1.665054783843e+01 0.0 
3.448395810225e+01 -1.759117813016e+01 0.0 
3.368378673938e+01 -1.708037781328e+01 0.0 
3.375560452567e+01 -1.610973066913e+01 0.0 
3.288001547988e+01 -1.654324255651e+01 0.0 
3.282475929147e+01 -1.749725654692e+01 0.0 
3.199880906313e+01 -1.697294088625e+01 0.0 
3.197001272932e+01 -1.811667776864e+01 0.0 
3.111884713021e+01 -1.742166785755e+01 0.0 
3.120418962865e+01 -1.642155709385e+01 0.0 
3.034666704371e+01 -1.683123833816e+01 0.0 
3.026224379976e+01 -1.772592851714e+01 0.0 
3.046632362943e+01 -1.582232843075e+01 0.0 
1.961344017324e+01 -1.857459447985e+01 0.0 
2.274975894774e+01 -9.532738811922e+00 0.0 
1.833923246887e+01 -2.396746883672e+00 0.0 
1.988859500848e+01 -2.249244376594e+00 0.0 
2.758045562861e+01 -1.086434261689e+01 0.0 
3.247300178163e+01 -1.909930104252e+01 0.0 
3.461947482503e+01 -1.911879848019e+01 0.0 
2.047161538662e+01 -6.941478180358e+00 0.0 
2.750230940214e+01 -1.915490590764e+01 0.0 
3.165081350803e+01 -1.161860780120e+01 0.0 
1.897456727641e+01 -4.889634688522e+00 0.0 
2.549338539756e+01 -1.914858252089e+01 0.0 
3.462873135081e+01 -1.567482276144e+01 0.0 
3.384432415243e+01 -1.512280684518e+01 0.0 
3.471433767690e+01 -1.469086942990e+01 0.0 
3.651470373046e+01 -1.918207952149e+01 0.0 
3.901742690249e+01 -1.345028556517e+01 0.0 
2.153224102692e+01 -1.920169709333e+01 0.0 
1.918382939341e+01 -1.316226275662e+01 0.0 
2.005389162382e+01 -1.271962165174e+01 0.0 
2.011472087878e+01 -1.175029352900e+01 0.0 
3.210679478412e+01 -1.598038618242e+01 0.0 
1.752175226543e+01 -1.914713022656e+01 0.0 
1.696897240059e+01 -1.832772588765e+01 0.0 
1.599682523337e+01 -1.832599992024e+01 0.0 
1.644507199462e+01 -1.743697981535e+01 0.0 
1.549987712903e+01 -1.915192375101e+01 0.0 
3.050250861901e+01 -1.918943550234e+01 0.0 
2.949944061527e+01 -1.922950455235e+01 0.0 
1.375892575273e+01 -6.447160534926e+00 0.0 
1.457223670180e+01 -7.006709243857e+00 0.0 
1.450818793236e+01 -7.965943451779e+00 0.0 
1.538804712402e+01 -7.553409623699e+00 0.0 
1.545817644768e+01 -6.580929593419e+00 0.0 
1.626506893751e+01 -7.129032608911e+00 0.0 
1.619833811522e+01 -8.086588580887e+00 0.0 
1.714448609609e+01 -6.697429609777e+00 0.0 
2.887616543568e+01 -1.668015232137e+01 0.0 
1.349814589130e+01 -1.918225301544e+01 0.0 
1.153887772210e+01 -1.311384581217e+01 0.0 
1.242708159886e+01 -1.267046795531e+01 0.0 
1.249799674267e+01 -1.169005616014e+01 0.0 
6.631723893693e+00 -9.774184881867e+00 0.0 
7.451471631867e+00 -1.033148796006e+01 0.0 
7.377795355458e+00 -1.132196345268e+01 0.0 
5.810931797536e+00 -9.211654212252e+00 0.0 
2.402683899133e+01 -1.441378562320e+01 0.0 
1.249768692036e+01 -1.917388426624e+01 0.0 
1.580373499437e+01 -1.290751860664e+01 0.0 
8.344650507834e+00 -9.898403995170e+00 0.0 
3.750622115305e+01 -1.086526401533e+01 0.0 
3.699391251667e+01 -1.171695900794e+01 0.0 
3.606517829518e+01 -1.173717504500e+01 0.0 
3.650257641795e+01 -1.270047380221e+01 0.0 
3.808951488918e+01 -1.183518714175e+01 0.0 
4.760380962420e+00 -1.162484888315e+01 0.0 
3.861210370848e+00 -1.205657631736e+01 0.0 
3.038284309476e+00 -1.149851280664e+01 0.0 
2.961598794889e+00 -1.248856794980e+01 0.0 
2.138953225512e+00 -1.193212674534e+01 0.0 
2.227383593457e+00 -1.096258903918e+01 0.0 
2.043265419276e+00 -1.292158472959e+01 0.0 
1.252449446028e+00 -1.225502002753e+01 0.0 
3.949985210740e+01 -1.086594001795e+01 0.0 
1.453499444792e+01 -8.768805922472e-01 0.0 
1.403518950933e+01 -1.749965556633e+00 0.0 
1.300715031023e+01 -1.714737233040e+00 0.0 
1.350929389899e+01 -2.527443911291e+00 0.0 
1.449600910711e+01 -2.595486162864e+00 0.0 
1.395693872901e+01 -3.484211041558e+00 0.0 
1.495105865208e+01 -3.364609636216e+00 0.0 
1.508822528740e+01 -1.766586020494e+00 0.0 
1.250223858430e+01 -8.634590186802e-01 0.0 
1.200279523409e+01 -1.709044504992e+00 0.0 
1.150086239419e+01 -8.592789190668e-01 0.0 
1.101482754194e+01 -1.677730591922e+00 0.0 
1.148018564526e+01 -2.659323866909e+00 0.0 
8.800552119754e+00 -3.989875954728e+00 0.0 
3.452790439430e+00 -1.901136170646e+01 0.0 
8.658451825200e-01 -9.503462241795e+00 0.0 
1.694787786797e+00 -9.000589234502e+00 0.0 
1.703436717094e+00 -8.038819004041e+00 0.0 
2.594197971110e+00 -8.563955242845e+00 0.0 
1.630513735412e+00 -9.907244747511e+00 0.0 
8.566859292791e-01 -7.512203837972e+00 0.0 
1.685461277022e+00 -7.164280248030e+00 0.0 
2.506394468801e+00 -8.623386730818e-01 0.0 
2.007475081581e+00 -1.727729545205e+00 0.0 
9.211534699767e-01 -1.628791366312e+00 0.0 
1.500000000020e+00 -2.598063549486e+00 0.0 
2.482078929963e+00 -2.553580088725e+00 0.0 
2.999795253092e+00 -1.732169015019e+00 0.0 
3.999712607169e+00 -1.728832897453e+00 0.0 
4.499752199340e+00 -8.656478679175e-01 0.0 
4.964377774841e+00 -1.730129617941e+00 0.0 
4.425017908337e+00 -2.597541756243e+00 0.0 
5.446573195014e+00 -8.410144840023e-01 0.0 
4.915722346614e+01 -1.550640962770e+01 0.0 
4.826794919243e+01 -1.600000000000e+01 0.0 
1.053139533193e+01 -1.911782884365e+01 0.0 
4.156049861949e+01 -1.095160998589e+01 0.0 
9.494526624416e+00 -8.650570090219e-01 0.0 
4.555762166964e+01 -1.897098103585e+01 0.0 
4.250656411371e+01 -1.914387356218e+01 0.0 
4.350906466345e+01 -1.917234727395e+01 0.0 
8.759665722424e-01 -1.746422130609e+01 0.0 
1.698936011838e+00 -1.795012186674e+01 0.0 
4.742476811029e+01 -1.900090177972e+01 0.0 
7.749196752349e+00 -6.368049313489e+00 0.0 
3.361572113416e+01 -1.798765193915e+01 0.0 
4.484660149212e+01 -1.728661231383e+01 0.0 
1.984038172228e+01 -4.502575320116e+00 0.0 
1.035080352627e+01 -6.166639575753e+00 0.0 
2.753558010652e+00 -1.444909521181e+01 0.0 
7.217069543032e+00 -1.328635391078e+01 0.0 
4.364336727739e+00 -1.655585677381e+01 0.0 
4.595208426108e+00 -1.357919665443e+01 0.0 
6.164967006980e+00 -1.569873454630e+01 0.0 
1.487855768353e+01 -1.826523774028e+01 0.0 
2.791876456372e+00 -4.019632415181e+00 0.0 
4.246464893515e+01 -1.364898659620e+01 0.0 
4.503855590351e+01 -1.329552780944e+01 0.0 
4.407239109604e+01 -1.573900004093e+01 0.0 
5.141054449252e+00 -6.664290382472e+00 0.0 
3.141083947149e+00 -1.055790764912e+01 0.0 
6.196463198741e+00 -4.256497932609e+00 0.0 
2.599618716181e+01 -1.836893455464e+01 0.0 
2.923057372337e+01 -1.098461757645e+01 0.0 
1.168343877486e+01 -1.114079645041e+01 0.0 
6.706222096238e+00 -8.780364234441e+00 0.0 
8.567858614669e+00 -6.943121440850e+00 0.0 
1.123755132901e+01 -5.753525820030e+00 0.0 
2.353456234423e+01 -1.008536320953e+01 0.0 
9.162073319168e+00 -1.045593739109e+01 0.0 
9.676343469685e+00 -1.496493008366e+01 0.0 
4.490637882905e+01 -1.628778970202e+01 0.0 
7.398129387772e+00 -9.639977982323e-01 0.0 
1.049641705805e+01 -1.552503975272e+01 0.0 
9.010356286268e+00 -1.242805042052e+01 0.0 
3.985573925497e+01 -1.399863651620e+01 0.0 
1.816196318262e+01 -1.554066497931e+01 0.0 
1.306332244168e+01 -3.963646550326e+00 0.0 
4.145850903932e+01 -1.608094559275e+01 0.0 
3.794664933633e+01 -1.779020121986e+01 0.0 
3.819614412903e+01 -1.290749321016e+01 0.0 
6.270014188119e+00 -3.255093186826e+00 0.0 
4.251165370388e+01 -1.263870364997e+01 0.0 
1.207347709171e+01 -1.763942826023e+01 0.0 
3.633240829927e+01 -1.577330481104e+01 0.0 
4.319052668832e+00 -6.101812561904e+00 0.0 
1.676492415806e+01 -1.151547901392e+01 0.0 
2.594059220037e+01 -1.074225223009e+01 0.0 
3.340750911501e+01 -9.898764354137e+00 0.0 
4.397619591281e+01 -1.769773736461e+01 0.0 
2.175611595028e+01 -1.185718747128e+01 0.0 
1.641818733106e+01 -1.640685203215e+01 0.0 
1.661211421753e+01 -1.346121366338e+01 0.0 
3.428853504935e+00 -6.551993389271e+00 0.0 
8.700728832502e+00 -1.638460872825e+01 0.0 
1.931369795309e+01 -1.121629383702e+01 0.0 
4.139798872363e+01 -1.706922153459e+01 0.0 
2.647837478700e+01 -1.507353829290e+01 0.0 
1.779469616424e+01 -9.161615782908e+00 0.0 
3.885879219319e+01 -1.642026488918e+01 0.0 
1.338194936770e+01 -1.125916521471e+01 0.0 
1.897071181111e+01 -1.609204322578e+01 0.0 
2.844308548793e+01 -1.046221003096e+01 0.0 
2.659854702194e+01 -1.316109415760e+01 0.0 
2.979604503271e+01 -1.433296157755e+01 0.0 
2.417694041347e+01 -1.251231397779e+01 0.0 
1.807401327411e+00 -1.388891148480e+01 0.0 
9.599810618782e+00 -1.595439365034e+01 0.0 
1.652144692160e+01 -4.205392788472e+00 0.0 
2.367839450246e+01 -8.188385218643e+00 0.0 
3.814894930468e+01 -1.390748338767e+01 0.0 
2.466448215774e+01 -1.685878545680e+01 0.0 
4.134044524611e+01 -1.806610045954e+01 0.0 
2.600511411958e+01 -9.801774120648e+00 0.0 
7.882158050716e+00 -1.582364037353e+01 0.0 
3.881607873422e+01 -1.737970515013e+01 0.0 
8.270182347708e+00 -1.088622154920e+01 0.0 
8.672520392520e-01 -4.532984309881e+00 0.0 
1.993447205337e+01 -3.579061902667e+00 0.0 
1.794616079549e+01 -7.238038888498e+00 0.0 
2.097277068165e+01 -1.132450168636e+01 0.0 
8.194803300681e+00 -1.187214224265e+01 0.0 
3.522279404911e+01 -1.823342818178e+01 0.0 
6.984481050295e+00 -1.625271465557e+01 0.0 
1.309433007797e+01 -1.521718594215e+01 0.0 
2.150246167611e+01 -1.885399038185e+00 0.0 
3.250689370209e+01 -1.028789870535e+01 0.0 
6.085886272238e+00 -1.668342132851e+01 0.0 
1.588455661727e+01 -1.193498985921e+01 0.0 
1.809323400821e+01 -1.651110084195e+01 0.0 
1.348885082381e+00 -1.136065576512e+01 0.0 
2.497670221995e+01 -1.834631276173e+01 0.0 
2.937062818424e+01 -8.233711194470e+00 0.0 
5.185823744469e+00 -1.711566910207e+01 0.0 
1.477497877209e+01 -1.530177014512e+01 0.0 
2.125346158933e+01 -7.473003997367e+00 0.0 
4.751561118290e+01 -1.084897772632e+01 0.0 
5.056026576843e+00 -1.825750475525e+01 0.0 
1.473948554523e+01 -1.634577436309e+01 0.0 
2.410566630936e+01 -1.345970002612e+01 0.0 
1.507337507513e+01 -1.138527895328e+01 0.0 
3.189857338687e+01 -8.887781229006e+00 0.0 
7.298712468334e+00 -1.230231046246e+01 0.0 
2.738235495295e+01 -1.368931690364e+01 0.0 
3.750141041969e+01 -1.920449893070e+01 0.0 
1.557271965640e+01 -1.683317951731e+01 0.0 
3.393731848929e+01 -1.413034777044e+01 0.0 
6.482156824153e+00 -1.174575135362e+01 0.0 
2.077971718439e+01 -1.421279621836e+01 0.0 
3.455084320178e+00 -2.562590040585e+00 0.0 
3.099056096250e+01 -9.270280416035e+00 0.0 
5.580176125418e+00 -1.217387969259e+01 0.0 
1.707247630389e+01 -7.660651981710e+00 0.0 
1.418658814174e+01 -1.180390575393e+01 0.0 
2.049103025389e+01 -1.811296706038e+01 0.0 
4.680386172316e+00 -1.260396879301e+01 0.0 
1.699679896554e+01 -8.624561788199e+00 0.0 
3.779470168555e+00 -1.303424899720e+01 0.0 
3.036589870126e+01 -7.879832518349e+00 0.0 
3.306993001774e+01 -1.457671062095e+01 0.0 
2.840150110165e+00 -1.346530088269e+01 0.0 
2.732011135052e+01 -1.464591214560e+01 0.0 
5.423639259568e+00 -2.659711955016e+00 0.0 
2.324455961696e+01 -1.387269388211e+01 0.0 
1.752768355571e+00 -1.693128613594e+01 0.0 
1.020244783051e+01 -8.076834012808e+00 0.0 
1.330873875224e+01 -1.222417528206e+01 0.0 
3.297727364880e+01 -1.555480372087e+01 0.0 
2.890929955439e+01 -6.868664170731e+00 0.0 
1.323294664622e+01 -1.320754260334e+01 0.0 
2.726532861246e+01 -1.560593120806e+01 0.0 
2.240020643398e+01 -1.429299177247e+01 0.0 
2.090445823633e+01 -1.228128621332e+01 0.0 
1.315809881502e+01 -1.420739326938e+01 0.0 
2.781328038068e+01 -7.181956082300e+00 0.0 
8.614200829057e+00 -5.936933226306e+00 0.0 
8.714765730069e+00 -4.979270529687e+00 0.0 
1.611881701099e+01 -9.041973294003e+00 0.0 
2.806830314340e+01 -1.614622947108e+01 0.0 
2.084435391396e+00 -3.385085422913e+00 0.0 
3.133211811152e+01 -1.542347619750e+01 0.0 
9.693114650768e+00 -3.590281506442e+00 0.0 
1.531883592202e+01 -8.504584946143e+00 0.0 
2.151589117094e+01 -1.578915763018e+01 0.0 
4.918943882696e+01 -1.355538828056e+01 0.0 
1.443236615188e+01 -8.918701794549e+00 0.0 
8.276250966452e-01 -5.537685192197e+00 0.0 
1.362790867918e+01 -8.374718262212e+00 0.0 
2.083767477370e+01 -1.324843956035e+01 0.0 
1.273834678703e+01 -8.790890389337e+00 0.0 
1.192275845670e+01 -8.242261327467e+00 0.0 
4.477236023583e+01 -1.824312396664e+01 0.0 
1.102989384254e+01 -8.649855800911e+00 0.0 
4.849096516045e+01 -1.917293752213e+01 0.0 
1.588996752238e+00 -1.910230934687e+01 0.0 
4.904245197583e+01 -1.159839008158e+01 0.0 
2.753852929608e+01 -5.782128488093e+00 0.0 
1.756133602833e+01 -8.306130313187e-01 0.0 
2.615423700951e+01 -6.153865090092e+00 0.0 
1.028818761294e+01 -7.122020845892e+00 0.0 
2.970818901196e+01 -1.527821347593e+01 0.0 
4.801461623449e+01 -1.164472570985e+01 0.0 
9.455722100419e+00 -6.546069291118e+00 0.0 
3.089099236677e+01 -1.835339328261e+01 0.0 
2.350000000013e+01 -1.920825896750e+01 0.0 
4.830620531887e+01 -1.506626155470e+01 0.0 
1.725381944701e+01 -1.688794487850e+01 0.0 
2.156246225273e+01 -1.475893794002e+01 0.0 
4.919319648787e+01 -1.742767505896e+01 0.0 
4.437935623576e+01 -1.077662927266e+01 0.0 
1.001520521978e+01 -1.652692675208e+00 0.0 
9.067160240050e-01 -1.441937727541e+01 0.0 
2.603365149390e+01 -4.755996613848e+00 0.0 
2.458344439002e+01 -4.873645517696e+00 0.0 
2.304312390142e+01 -3.836552768096e+00 0.0 
2.546923202198e+00 -6.902480355749e+00 0.0 
1.251534969393e+01 -2.490989965776e+00 0.0 
2.454061833377e+01 -3.933354231935e+00 0.0 
1.788186558740e+01 -1.827424884923e+01 0.0 
4.090785243552e+01 -1.166553231904e+01 0.0 
2.230128851568e+01 -1.623015738726e+01 0.0 
2.302362347568e+01 -2.916239960270e+00 0.0 
3.878119254461e+01 -1.830091164002e+01 0.0 
2.210081359958e+01 -1.829238229150e+01 0.0 
8.443704882233e+00 -1.921993252862e+01 0.0 
2.218405824691e+01 -1.724557581508e+01 0.0 
2.151157503963e+01 -2.790636689331e+00 0.0 
3.741658958955e+01 -1.250400191722e+01 0.0 
2.697247663737e+01 -1.838290202309e+01 0.0 
4.743362342862e+01 -1.585850773010e+01 0.0 
6.671345075358e+00 -1.924977576322e+01 0.0 
3.900825404537e+01 -1.157220003875e+01 0.0 
4.649692961375e+01 -1.836335837481e+01 0.0 
1.578831424832e+01 -3.678284023361e+00 0.0 
4.814208768888e+01 -1.841249298770e+01 0.0 
2.964123298315e+01 -1.625739458193e+01 0.0 
4.580760351902e+01 -1.284294554687e+01 0.0 
3.561520879615e+01 -1.245548941949e+01 0.0 
2.555418095658e+00 -1.841101588290e+01 0.0 
3.288468366144e+01 -1.834258164109e+01 0.0 
2.065894391445e+01 -2.240688571739e+00 0.0 
4.739171429915e+01 -1.496536413446e+01 0.0 
3.478086729185e+00 -8.576434653209e+00 0.0 
1.606010630246e+01 -1.588421807951e+00 0.0 
1.018329200594e+01 -1.834320874317e+01 0.0 
2.957213339430e+01 -1.720496954591e+01 0.0 
4.142712790164e+00 -1.837794506222e+01 0.0 
6.698721532573e-01 -2.499999999997e+00 0.0 
8.037039123140e+00 -1.571229354954e+00 0.0 
1.203541361428e+01 -1.847784298001e+01 0.0 
2.899968332038e+01 -1.848264722179e+01 0.0 
1.469229460948e+01 -4.219485753730e+00 0.0 
4.049590781957e+01 -1.932812501995e+01 0.0 
1.996211678340e+01 -1.506329754720e+00 0.0 
4.250588298353e+01 -1.067383247529e+01 0.0 
5.831497011152e+00 -1.635396227234e+00 0.0 
5.317606125670e+00 -1.923927974868e+01 0.0 
4.208546426993e+01 -1.842830665025e+01 0.0 
2.327553405011e+00 -9.459409929662e+00 0.0 
3.568351902251e+01 -1.096637218582e+01 0.0 
1.682104374890e+00 -6.231413350963e+00 0.0 
2.451812238018e+01 -1.766524914339e+01 0.0 
1.058003429638e+01 -2.391839617098e+00 0.0 
4.399988753123e+01 -1.851998776342e+01 0.0 
1.400000000010e+01 -1.852293523028e+01 0.0 
3.604719565984e+01 -1.850662876800e+01 0.0 
1.951297136734e+01 -1.938092349694e+01 0.0 
1.821365318472e+01 -1.531276353287e+00 0.0 
2.298031859732e+01 -1.854635324722e+01 0.0 
1.552168066204e+01 -1.764280741977e+01 0.0 
4.572957713638e+01 -1.073347898229e+01 0.0 
3.429637429624e+01 -1.838861552790e+01 0.0 
2.427434426052e+00 -7.705577451869e+00 0.0 
4.662792031485e+00 -3.359424455416e+00 0.0 
4.926794919243e+01 -1.926794919243e+01 0.0 
7.320508075690e-01 -7.320508075688e-01 0.0 
4.926794919243e+01 -1.073205080757e+01 0.0 
7.320508075705e-01 -1.926794919243e+01 0.0 
2.917460242467e+00 -3.202866455310e+00 0.0 
4.838200575963e+01 -1.232674147454e+01 0.0 
2.998445708009e+01 -1.854403752148e+01 0.0 
5.949940090766e-01 -1.152762038165e+01 0.0 
4.844763495759e+01 -1.678092548787e+01 0.0 
1.301685480160e+01 -3.170056592566e+00 0.0 
1.650046335855e+01 -6.731535384067e-01 0.0 
4.854881540991e+01 -1.405224059779e+01 0.0 
2.119545114693e+01 -1.846813384545e+01 0.0 
3.797852849897e+01 -1.857978513215e+01 0.0 
4.649823708745e+01 -1.338351810816e+01 0.0 
2.012685900976e+01 -2.889659035009e+00 0.0 
2.953271913273e+01 -1.791558075192e+01 0.0 
2.408509097292e+00 -1.021949208421e+01 0.0 
2.642589566221e+01 -1.773216561448e+01 0.0 
1.730010270775e+01 -1.763165076721e+01 0.0 
2.017406551304e+01 -8.513536440582e-01 0.0 
5.254761581934e-01 -1.249999999999e+01 0.0 
6.640448215642e+00 -1.545337834885e+00 0.0 
7.843361506349e+00 -1.852719839527e+01 0.0 
1.588442191088e+00 -1.066158564320e+01 0.0 
2.131250000000e+01 -4.209183673460e-01 0.0 
4.950862068966e+01 -5.000000000001e-01 0.0 
2.280866189488e+01 -1.416779325160e+00 0.0 
4.950862068966e+01 -1.500000000000e+00 0.0 
2.431250000000e+01 -2.420918367347e+00 0.0 
4.950961538461e+01 -2.500000000000e+00 0.0 
2.580823483239e+01 -3.416278049680e+00 0.0 
4.950961538461e+01 -3.500000000000e+00 0.0 
2.731250000000e+01 -4.420918367347e+00 0.0 
4.951086956522e+01 -4.500000000000e+00 0.0 
2.880770112393e+01 -5.415638864241e+00 0.0 
4.951086956522e+01 -5.500000000000e+00 0.0 
3.031250000000e+01 -6.420918367347e+00 0.0 
4.951250000000e+01 -6.500000000000e+00 0.0 
3.180701530612e+01 -7.414795918363e+00 0.0 
4.951250000000e+01 -7.500000000000e+00 0.0 
3.331250000000e+01 -8.420918367347e+00 0.0 
4.951470588234e+01 -8.500000000000e+00 0.0 
3.480610198624e+01 -9.413633635267e+00 0.0 
4.951470588234e+01 -9.500000000000e+00 0.0 

CELLS 2424 9696 
3 414 884 1160 
3 884 414 1162 
3 894 387 905 
3 1007 772 1196 
3 774 834 1000 
3 864 777 903 
3 394 816 818 
3 414 841 1162 
3 816 394 834 
3 767 1002 1196 
3 386 961 962 
3 841 414 1176 
3 1006 1158 1202 
3 823 954 1044 
3 1158 420 1202 
3 413 1007 1196 
3 822 393 963 
3 777 864 902 
3 401 821 1143 
3 821 401 1081 
3 1002 767 1155 
3 1132 378 1138 
3 859 1132 1138 
3 809 808 1018 
3 508 664 953 
3 961 386 1070 
3 115 83 1223 
3 853 379 1095 
3 506 508 953 
3 1018 808 1228 
3 758 968 970 
3 411 824 1001 
3 894 905 1203 
3 19 399 874 
3 409 828 830 
3 837 66 1194 
3 66 837 1220 
3 856 405 900 
3 820 106 1173 
3 106 820 1234 
3 1096 838 1122 
3 374 860 999 
3 1177 375 1181 
3 83 423 1223 
3 815 422 1172 
3 854 1177 1181 
3 968 758 971 
3 422 815 1198 
3 964 965 971 
3 954 823 1195 
3 416 859 1096 
3 806 821 1081 
3 584 1197 1215 
3 416 1096 1122 
3 906 388 1086 
3 1179 751 1224 
3 806 1081 1150 
3 399 844 874 
3 667 995 1113 
3 1002 413 1196 
3 373 1207 1248 
3 1187 813 1189 
3 633 661 867 
3 1197 970 1215 
3 978 797 1202 
3 859 416 1132 
3 1207 817 1248 
3 387 894 1167 
3 694 655 976 
3 383 842 908 
3 1070 1013 1124 
3 33 32 862 
3 853 1095 1225 
3 4 5 988 
3 985 1179 1224 
3 825 390 1076 
3 906 1086 1235 
3 873 1178 1185 
3 995 667 1237 
3 1178 415 1185 
3 655 668 976 
3 393 822 1183 
3 378 884 1138 
3 884 378 1160 
3 834 774 1046 
3 816 834 1046 
3 845 1070 1175 
3 18 19 874 
3 899 896 1144 
3 774 1000 1183 
3 1001 824 1174 
3 425 952 1223 
3 998 1169 1193 
3 1193 1169 1205 
3 391 33 862 
3 900 405 1230 
3 822 963 1195 
3 999 860 1208 
3 419 851 1148 
3 867 661 868 
3 1000 834 1218 
3 420 978 1202 
3 581 1147 1171 
3 812 1187 1189 
3 702 700 878 
3 965 968 971 
3 1005 1006 1128 
3 771 998 1193 
3 373 964 971 
3 1101 396 1220 
3 546 899 1144 
3 4 988 1239 
3 769 865 901 
3 736 1052 1090 
3 780 982 1206 
3 840 867 868 
3 635 633 867 
3 409 830 1188 
3 851 419 1243 
3 839 635 867 
3 870 800 1145 
3 423 425 1223 
3 998 771 1246 
3 635 839 878 
3 1190 1089 1204 
3 855 1105 1114 
3 982 780 1236 
3 1105 380 1114 
3 390 825 1216 
3 802 1190 1204 
3 961 1070 1124 
3 772 1007 1198 
3 709 766 866 
3 380 838 1114 
3 828 409 1208 
3 1006 763 1158 
3 845 1013 1070 
3 866 766 1066 
3 810 938 1228 
3 742 858 866 
3 792 1003 1004 
3 842 383 1214 
3 1044 954 1191 
3 651 623 872 
3 858 709 866 
3 838 380 1122 
3 766 904 1066 
3 878 704 1073 
3 394 818 1173 
3 865 500 901 
3 824 411 1212 
3 1159 1165 1243 
3 989 401 1143 
3 417 855 1090 
3 938 810 947 
3 839 702 878 
3 874 845 1175 
3 841 375 1177 
3 1147 807 1171 
3 400 846 847 
3 861 500 865 
3 844 399 1128 
3 694 870 1145 
3 1006 765 1128 
3 881 754 909 
3 396 1101 1210 
3 1159 764 1165 
3 700 704 878 
3 1052 417 1090 
3 386 962 1259 
3 375 841 1176 
3 500 861 875 
3 623 674 872 
3 846 400 1234 
3 704 865 1073 
3 855 417 1105 
3 748 937 1142 
3 982 683 1206 
3 379 853 1168 
3 908 842 1192 
3 840 868 1162 
3 683 982 1222 
3 925 1055 1109 
3 858 742 1096 
3 841 840 1162 
3 881 736 1090 
3 865 769 1073 
3 389 1002 1155 
3 512 921 1131 
3 399 1005 1128 
3 854 415 1178 
3 710 875 1099 
3 896 921 1144 
3 81 116 863 
3 742 838 1096 
3 1098 770 1102 
3 994 1126 1219 
3 1009 402 1235 
3 507 432 914 
3 1129 488 1156 
3 618 1098 1102 
3 952 425 1201 
3 953 664 1191 
3 808 810 1228 
3 1139 1030 1166 
3 876 447 904 
3 706 596 909 
3 513 507 914 
3 703 881 909 
3 754 881 1090 
3 652 1112 1152 
3 937 786 1142 
3 863 397 864 
3 868 884 1162 
3 868 661 883 
3 766 876 904 
3 921 891 1131 
3 777 776 1082 
3 770 869 1088 
3 820 846 1234 
3 875 861 1099 
3 566 1088 1137 
3 826 1036 1260 
3 912 513 914 
3 1036 382 1260 
3 994 995 1126 
3 415 854 1181 
3 1139 782 1140 
3 886 513 912 
3 782 781 1140 
3 762 871 877 
3 588 969 1041 
3 800 977 1145 
3 1055 618 1109 
3 754 706 909 
3 797 978 1210 
3 116 397 863 
3 671 701 877 
3 461 500 875 
3 859 858 1096 
3 869 770 1098 
3 837 1101 1220 
3 1123 512 1131 
3 570 552 907 
3 618 1102 1109 
3 1070 386 1175 
3 904 514 1066 
3 913 914 1110 
3 813 1187 1232 
3 461 875 882 
3 701 762 877 
3 431 703 879 
3 862 32 1216 
3 447 876 1051 
3 920 463 1059 
3 847 846 848 
3 976 668 1180 
3 703 880 881 
3 670 570 907 
3 776 910 1011 
3 758 970 1197 
3 513 886 1048 
3 596 879 909 
3 635 878 1073 
3 886 725 1048 
3 921 512 1144 
3 514 885 1027 
3 381 835 1194 
3 711 920 1059 
3 439 705 885 
3 769 901 1032 
3 711 919 920 
3 553 569 910 
3 951 392 952 
3 465 462 882 
3 582 933 934 
3 913 1123 1131 
3 116 117 397 
3 703 429 880 
3 552 550 907 
3 626 671 877 
3 555 553 910 
3 434 431 879 
3 824 870 1174 
3 662 752 883 
3 711 918 919 
3 879 703 909 
3 951 952 953 
3 672 777 902 
3 582 934 936 
3 583 586 933 
3 868 883 884 
3 913 1110 1123 
3 661 662 883 
3 548 465 882 
3 875 710 882 
3 672 776 777 
3 901 457 1032 
3 801 871 873 
3 37 388 906 
3 39 402 905 
3 448 447 1051 
3 569 552 570 
3 625 626 684 
3 440 439 885 
3 569 570 625 
3 582 583 933 
3 514 1027 1066 
3 1003 792 1221 
3 907 710 1099 
3 1112 768 1152 
3 801 684 871 
3 406 57 926 
3 625 570 626 
3 445 514 904 
3 672 576 776 
3 948 641 1056 
3 462 461 882 
3 586 930 933 
3 705 596 706 
3 42 927 928 
3 550 548 710 
3 711 539 918 
3 685 684 801 
3 916 601 1039 
3 1088 869 1137 
3 701 702 760 
3 775 916 1039 
3 404 45 908 
3 678 770 1088 
3 41 387 927 
3 1044 664 1074 
3 899 546 1164 
3 762 760 854 
3 707 706 739 
3 439 596 705 
3 439 437 596 
3 515 1051 1077 
3 379 47 911 
3 506 953 1201 
3 880 736 881 
3 710 548 882 
3 781 977 1140 
3 739 754 855 
3 701 700 702 
3 400 847 1100 
3 586 929 930 
3 550 710 907 
3 890 912 913 
3 671 700 701 
3 705 706 707 
3 539 541 918 
3 714 941 1028 
3 50 403 917 
3 742 740 838 
3 554 556 936 
3 795 1129 1156 
3 761 840 841 
3 760 702 761 
3 896 893 921 
3 445 443 514 
3 752 858 859 
3 707 739 740 
3 54 405 922 
3 405 856 1182 
3 893 891 921 
3 913 912 914 
3 941 481 1028 
3 633 634 661 
3 553 552 569 
3 551 550 552 
3 447 445 904 
3 728 948 1056 
3 496 942 943 
3 889 887 890 
3 556 582 936 
3 630 515 631 
3 885 705 1027 
3 632 631 633 
3 387 40 905 
3 402 38 906 
3 402 1009 1203 
3 714 940 941 
3 725 627 1048 
3 701 760 762 
3 549 548 550 
3 776 576 910 
3 662 709 752 
3 950 951 954 
3 916 1044 1074 
3 926 924 1018 
3 897 896 899 
3 431 429 703 
3 438 437 439 
3 576 555 910 
3 973 975 976 
3 500 459 901 
3 453 451 515 
3 459 457 901 
3 370 1089 1190 
3 847 848 849 
3 977 781 1145 
3 626 670 671 
3 57 56 926 
3 560 562 652 
3 424 736 880 
3 401 989 1211 
3 1051 876 1077 
3 461 459 500 
3 437 434 879 
3 383 43 928 
3 739 706 754 
3 443 440 885 
3 496 943 949 
3 887 886 912 
3 714 939 940 
3 44 383 908 
3 41 40 387 
3 37 36 388 
3 39 38 402 
3 436 434 437 
3 890 887 912 
3 895 893 896 
3 633 631 634 
3 661 634 662 
3 945 942 1029 
3 889 890 891 
3 46 404 911 
3 804 725 886 
3 918 652 919 
3 804 886 887 
3 645 643 946 
3 453 515 630 
3 752 709 858 
3 625 684 685 
3 391 862 1186 
3 632 633 635 
3 1026 745 1095 
3 942 496 1029 
3 587 590 929 
3 406 926 1018 
3 671 699 700 
3 42 41 927 
3 402 906 1235 
3 444 443 445 
3 973 974 975 
3 44 43 383 
3 371 922 923 
3 586 587 929 
3 541 560 918 
3 377 51 917 
3 124 372 974 
3 630 631 632 
3 442 440 443 
3 446 445 447 
3 514 443 885 
3 684 626 877 
3 46 45 404 
3 547 465 548 
3 673 672 902 
3 835 381 1261 
3 974 372 975 
3 741 740 742 
3 968 969 970 
3 855 754 1090 
3 371 55 922 
3 48 47 379 
3 596 437 879 
3 965 967 968 
3 814 673 902 
3 968 967 969 
3 1058 756 1071 
3 950 392 951 
3 426 424 880 
3 50 49 403 
3 408 950 954 
3 388 36 915 
3 648 645 946 
3 775 823 916 
3 761 839 840 
3 560 652 918 
3 776 1011 1082 
3 52 51 377 
3 40 39 905 
3 38 37 906 
3 714 522 939 
3 517 519 945 
3 453 630 1032 
3 522 524 939 
3 54 53 405 
3 626 570 670 
3 933 932 934 
3 930 931 932 
3 665 775 1039 
3 58 406 938 
3 965 966 967 
3 56 55 371 
3 929 794 930 
3 43 42 928 
3 895 896 897 
3 123 124 974 
3 630 769 1032 
3 724 627 725 
3 45 44 908 
3 436 437 438 
3 691 648 692 
3 685 801 802 
3 924 923 925 
3 686 793 794 
3 930 794 931 
3 964 407 965 
3 47 46 911 
3 910 569 1011 
3 678 726 770 
3 775 822 823 
3 1012 744 1031 
3 930 932 933 
3 438 439 440 
3 51 50 917 
3 519 621 945 
3 530 566 636 
3 450 448 451 
3 789 682 790 
3 934 932 935 
3 939 636 940 
3 451 448 1051 
3 787 644 1061 
3 560 561 562 
3 452 451 453 
3 489 491 949 
3 671 670 699 
3 517 945 1029 
3 692 648 946 
3 516 539 711 
3 56 371 926 
3 803 725 804 
3 687 1012 1031 
3 55 54 922 
3 371 923 924 
3 458 457 459 
3 965 407 966 
3 59 938 947 
3 888 887 889 
3 590 686 929 
3 58 57 406 
3 524 530 939 
3 662 708 709 
3 429 426 880 
3 516 711 1059 
3 520 714 1028 
3 682 641 948 
3 914 432 1110 
3 741 866 1066 
3 562 580 581 
3 849 848 850 
3 491 496 949 
3 541 543 560 
3 686 743 793 
3 713 535 1014 
3 122 123 972 
3 700 699 704 
3 686 794 929 
3 942 784 943 
3 456 454 457 
3 530 636 939 
3 665 773 775 
3 590 653 686 
3 59 58 938 
3 442 443 444 
3 712 783 784 
3 444 445 446 
3 712 784 942 
3 972 123 974 
3 428 426 429 
3 981 980 982 
3 382 129 996 
3 621 676 712 
3 530 565 566 
3 1010 680 1035 
3 790 948 1092 
3 790 682 948 
3 424 384 736 
3 408 113 950 
3 805 915 1108 
3 446 447 448 
3 129 130 996 
3 800 720 977 
3 966 972 973 
3 782 1139 1166 
3 698 748 1142 
3 778 1010 1035 
3 575 1058 1071 
3 499 497 1008 
3 537 535 713 
3 678 689 726 
3 595 576 672 
3 412 980 981 
3 385 984 985 
3 374 60 947 
3 60 59 947 
3 980 979 983 
3 712 676 783 
3 520 522 714 
3 726 808 809 
3 720 639 977 
3 573 658 678 
3 994 992 995 
3 621 712 945 
3 943 784 944 
3 398 991 992 
3 412 979 980 
3 724 725 803 
3 130 131 993 
3 114 392 950 
3 114 115 392 
3 641 545 1056 
3 385 10 984 
3 686 653 743 
3 871 684 877 
3 831 829 832 
3 911 404 1026 
3 715 609 1042 
3 761 702 839 
3 824 800 870 
3 707 740 741 
3 110 393 1000 
3 109 110 1000 
3 130 993 996 
3 993 992 994 
3 987 989 990 
3 563 504 638 
3 398 986 991 
3 979 376 983 
3 373 120 964 
3 504 499 1008 
3 852 850 872 
3 112 113 408 
3 748 843 937 
3 524 529 530 
3 849 850 851 
3 10 11 984 
3 987 990 991 
3 30 29 1003 
3 390 30 1003 
3 775 773 822 
3 393 111 963 
3 984 981 985 
3 28 389 1004 
3 638 504 1008 
3 113 114 950 
3 112 408 963 
3 739 855 1114 
3 36 35 915 
3 1003 29 1004 
3 398 992 993 
3 131 398 993 
3 799 720 800 
3 943 944 1080 
3 1005 763 1006 
3 119 120 373 
3 410 997 998 
3 121 407 964 
3 681 641 682 
3 121 122 407 
3 120 121 964 
3 788 682 789 
3 734 797 798 
3 851 850 852 
3 1027 741 1066 
3 986 987 991 
3 536 537 1016 
3 25 24 1007 
3 413 25 1007 
3 111 112 963 
3 617 545 641 
3 29 28 1004 
3 691 692 807 
3 987 988 989 
3 986 421 987 
3 987 421 988 
3 11 12 412 
3 420 69 978 
3 80 79 422 
3 133 421 986 
3 13 376 979 
3 70 69 420 
3 68 396 978 
3 61 374 999 
3 76 395 997 
3 78 77 410 
3 69 68 978 
3 68 67 396 
3 410 77 997 
3 133 134 421 
3 107 108 394 
3 110 111 393 
3 398 132 986 
3 65 64 381 
3 409 62 999 
3 63 62 409 
3 132 133 986 
3 131 132 398 
3 61 60 374 
3 62 61 999 
3 76 75 395 
3 104 105 400 
3 77 76 997 
3 74 73 419 
3 102 103 764 
3 128 129 382 
3 126 127 411 
3 125 126 1001 
3 124 125 372 
3 13 14 376 
3 12 13 979 
3 126 411 1001 
3 16 17 386 
3 372 125 1001 
3 34 33 391 
3 28 27 389 
3 31 30 390 
3 6 7 401 
3 9 10 385 
3 27 26 1002 
3 19 20 399 
3 26 25 413 
3 20 21 1005 
3 21 22 763 
3 412 12 979 
3 389 27 1002 
3 26 413 1002 
3 399 20 1005 
3 21 763 1005 
3 628 629 1013 
3 407 122 972 
3 519 620 621 
3 993 994 996 
3 831 832 833 
3 712 942 945 
3 594 578 1015 
3 563 638 639 
3 1126 827 1219 
3 734 798 1015 
3 621 622 676 
3 412 981 984 
3 578 640 1015 
3 771 772 815 
3 11 412 984 
3 566 565 573 
3 528 526 579 
3 628 577 629 
3 696 628 1013 
3 547 548 549 
3 741 742 866 
3 457 454 1032 
3 536 535 537 
3 640 733 734 
3 844 696 845 
3 687 781 782 
3 759 680 767 
3 675 624 680 
3 820 819 846 
3 534 532 535 
3 577 536 1016 
3 771 759 772 
3 675 759 771 
3 579 526 1038 
3 734 765 797 
3 637 609 715 
3 844 845 874 
3 835 833 836 
3 767 680 1010 
3 614 612 615 
3 530 529 565 
3 574 656 657 
3 593 679 687 
3 799 800 824 
3 966 407 972 
3 675 680 759 
3 734 733 765 
3 973 972 974 
3 892 891 893 
3 818 718 819 
3 564 578 594 
3 640 696 733 
3 743 744 795 
3 733 696 844 
3 818 819 820 
3 560 543 561 
3 835 836 837 
3 806 688 821 
3 830 829 831 
3 623 615 624 
3 657 688 751 
3 687 782 1012 
3 959 957 960 
3 611 613 717 
3 498 502 517 
3 674 624 675 
3 614 623 651 
3 783 676 955 
3 845 696 1013 
3 640 628 696 
3 623 624 674 
3 616 568 654 
3 676 622 677 
3 649 735 811 
3 615 1022 1035 
3 621 620 622 
3 528 579 1014 
3 828 756 829 
3 614 615 623 
3 757 673 814 
3 731 826 827 
3 557 555 576 
3 640 734 1015 
3 613 612 614 
3 961 959 962 
3 717 718 816 
3 678 658 689 
3 955 677 956 
3 578 628 640 
3 657 656 688 
3 831 833 835 
3 676 677 955 
3 751 688 806 
3 677 622 1024 
3 517 518 519 
3 503 499 504 
3 958 959 961 
3 128 382 1036 
3 411 127 1036 
3 629 577 1016 
3 574 616 656 
3 534 535 536 
3 535 532 1014 
3 491 495 496 
3 590 591 653 
3 637 715 716 
3 903 777 1253 
3 519 619 620 
3 726 689 808 
3 656 616 667 
3 717 613 718 
3 816 718 818 
3 719 639 720 
3 755 722 756 
3 608 606 609 
3 574 568 616 
3 791 715 1060 
3 716 715 791 
3 511 568 574 
3 840 839 867 
3 505 504 563 
3 578 577 628 
3 956 957 958 
3 804 887 888 
3 637 716 778 
3 564 536 577 
3 534 536 564 
3 563 639 719 
3 564 577 578 
3 608 609 610 
3 958 957 959 
3 611 612 613 
3 610 609 637 
3 463 464 1059 
3 1022 778 1035 
3 622 683 1024 
3 956 677 957 
3 619 518 779 
3 493 490 494 
3 611 610 612 
3 485 487 520 
3 503 505 511 
3 731 720 799 
3 608 610 611 
3 503 504 505 
3 828 829 830 
3 615 612 1022 
3 564 594 1017 
3 371 924 926 
3 622 620 683 
3 511 505 568 
3 719 720 731 
3 533 532 534 
3 614 651 1021 
3 731 799 826 
3 517 502 518 
3 821 688 1019 
3 611 717 1020 
3 519 518 619 
3 532 528 1014 
3 619 779 780 
3 680 624 1035 
3 502 499 503 
3 527 531 575 
3 687 679 781 
3 531 528 532 
3 960 957 1024 
3 533 534 1017 
3 934 935 1116 
3 688 656 1019 
3 819 718 1021 
3 681 682 788 
3 631 515 1077 
3 613 614 1021 
3 593 687 1031 
3 605 607 665 
3 656 667 1019 
3 832 829 1058 
3 617 641 681 
3 562 561 580 
3 716 791 792 
3 520 521 522 
3 654 568 1025 
3 525 523 526 
3 755 756 828 
3 743 653 744 
3 534 564 1017 
3 612 610 1022 
3 587 589 590 
3 527 526 528 
3 773 666 774 
3 657 751 1057 
3 498 499 502 
3 450 451 452 
3 531 532 533 
3 662 634 708 
3 452 453 454 
3 607 606 608 
3 718 613 1021 
3 665 666 773 
3 957 677 1024 
3 695 597 722 
3 522 523 524 
3 717 816 1046 
3 894 893 895 
3 581 580 649 
3 527 528 531 
3 610 637 1022 
3 491 493 495 
3 495 497 498 
3 563 719 1025 
3 524 525 529 
3 498 517 1029 
3 607 608 1020 
3 665 607 666 
3 467 469 516 
3 1008 497 1030 
3 549 550 551 
3 498 497 499 
3 495 493 497 
3 505 563 1025 
3 573 597 658 
3 486 484 488 
3 637 778 1022 
3 482 484 485 
3 524 523 525 
3 520 487 521 
3 456 457 458 
3 568 505 1025 
3 695 722 755 
3 695 755 860 
3 642 644 787 
3 491 490 493 
3 522 521 523 
3 608 611 1020 
3 496 495 1029 
3 630 632 769 
3 502 503 1023 
3 653 591 1031 
3 489 490 491 
3 503 511 1023 
3 574 657 1049 
3 521 487 721 
3 525 526 527 
3 660 697 698 
3 127 128 1036 
3 478 476 479 
3 482 480 483 
3 489 488 490 
3 666 607 1020 
3 485 486 487 
3 518 502 1023 
3 486 488 489 
3 624 615 1035 
3 779 518 1023 
3 731 827 1045 
3 1025 719 1045 
3 744 653 1031 
3 493 494 1030 
3 478 480 481 
3 485 484 486 
3 593 655 679 
3 654 1025 1045 
3 916 823 1044 
3 1023 511 1049 
3 573 565 597 
3 646 659 660 
3 430 429 431 
3 669 603 690 
3 698 747 748 
3 464 467 1059 
3 644 646 1061 
3 591 592 593 
3 489 949 1033 
3 460 459 461 
3 583 585 586 
3 655 592 668 
3 495 498 1029 
3 482 483 484 
3 481 480 482 
3 779 1023 1049 
3 485 520 1028 
3 478 479 480 
3 474 476 477 
3 497 493 1030 
3 544 542 545 
3 605 606 607 
3 474 472 475 
3 658 597 695 
3 590 589 591 
3 808 689 810 
3 481 482 1028 
3 748 842 843 
3 441 440 442 
3 591 593 1031 
3 433 431 434 
3 723 627 724 
3 481 941 1064 
3 704 861 865 
3 435 434 436 
3 515 451 1051 
3 593 592 655 
3 825 796 862 
3 679 655 694 
3 856 750 857 
3 1010 778 1053 
3 567 545 617 
3 1020 717 1046 
3 604 603 669 
3 477 476 478 
3 516 538 539 
3 753 690 796 
3 527 575 1034 
3 602 604 605 
3 681 788 869 
3 591 589 592 
3 602 600 603 
3 911 1026 1095 
3 695 860 1047 
3 486 489 1033 
3 666 1020 1046 
3 774 666 1046 
3 482 485 1028 
3 529 525 1034 
3 565 529 1037 
3 719 731 1045 
3 551 552 553 
3 470 472 473 
3 474 475 476 
3 454 453 1032 
3 753 796 825 
3 889 891 892 
3 778 716 1053 
3 709 708 766 
3 599 571 627 
3 525 527 1034 
3 791 1060 1076 
3 572 600 601 
3 487 486 1033 
3 470 468 471 
3 602 603 604 
3 669 690 753 
3 609 606 1042 
3 605 604 606 
3 756 722 1071 
3 749 663 750 
3 722 597 1037 
3 526 523 1038 
3 838 740 1114 
3 544 567 598 
3 509 507 513 
3 511 574 1049 
3 473 472 474 
3 790 1092 1104 
3 539 540 541 
3 556 558 582 
3 470 471 472 
3 541 542 543 
3 707 741 1027 
3 721 487 1033 
3 601 916 1074 
3 834 394 1218 
3 85 361 370 
3 523 521 1038 
3 567 617 618 
3 888 889 1009 
3 516 469 538 
3 521 721 1038 
3 605 665 1039 
3 86 362 415 
3 544 545 567 
3 540 538 728 
3 705 707 1027 
3 529 1034 1037 
3 586 585 587 
3 597 565 1037 
3 689 658 1047 
3 543 542 544 
3 606 604 1042 
3 650 648 691 
3 658 695 1047 
3 87 363 375 
3 601 602 1039 
3 811 735 812 
3 604 669 1042 
3 541 540 542 
3 469 468 470 
3 1111 783 1115 
3 595 672 673 
3 715 1042 1060 
3 1049 657 1057 
3 88 364 414 
3 647 645 648 
3 716 792 1053 
3 587 588 589 
3 449 448 450 
3 601 600 602 
3 1080 944 1085 
3 582 558 583 
3 704 699 861 
3 668 592 1041 
3 587 585 588 
3 589 588 1041 
3 539 538 540 
3 915 35 1108 
3 89 365 378 
3 829 756 1058 
3 466 465 547 
3 510 572 1074 
3 557 576 595 
3 810 689 1047 
3 592 589 1041 
3 780 779 1057 
3 561 543 1040 
3 478 481 1064 
3 649 663 735 
3 632 635 1073 
3 509 513 1048 
3 749 750 856 
3 602 605 1039 
3 889 892 1009 
3 600 599 1063 
3 599 627 723 
3 569 625 1011 
3 832 1058 1078 
3 572 599 600 
3 463 920 1084 
3 90 366 416 
3 749 856 900 
3 554 553 555 
3 779 1049 1057 
3 649 580 663 
3 401 7 1081 
3 455 454 456 
3 544 598 1040 
3 723 724 1043 
3 724 803 805 
3 543 544 1040 
3 690 603 1063 
3 464 462 465 
3 646 660 1061 
3 91 367 380 
3 895 897 898 
3 92 368 417 
3 369 92 1052 
3 467 516 1059 
3 83 369 384 
3 737 492 738 
3 458 459 460 
3 470 473 1050 
3 583 558 584 
3 467 468 469 
3 669 753 1060 
3 892 893 894 
3 575 531 1078 
3 735 663 749 
3 477 478 1064 
3 599 723 1063 
3 469 470 1050 
3 833 832 1087 
3 603 600 1063 
3 627 571 1048 
3 545 542 1056 
3 464 466 467 
3 660 659 697 
3 438 440 441 
3 583 584 585 
3 554 555 556 
3 769 632 1073 
3 446 448 449 
3 836 833 1091 
3 572 571 599 
3 467 466 468 
3 642 787 1067 
3 598 567 1055 
3 1042 669 1060 
3 698 697 747 
3 664 510 1074 
3 770 726 1102 
3 538 469 1050 
3 567 618 1055 
3 452 454 455 
3 796 690 1079 
3 748 747 842 
3 540 728 1056 
3 556 555 557 
3 650 691 693 
3 455 492 730 
3 464 465 466 
3 542 540 1056 
3 573 678 1088 
3 556 557 558 
3 728 538 1050 
3 433 434 435 
3 836 1091 1097 
3 435 436 546 
3 647 648 650 
3 430 431 433 
3 427 426 428 
3 441 442 501 
3 750 663 1065 
3 1058 575 1078 
3 510 571 572 
3 724 805 1043 
3 428 429 430 
3 547 549 727 
3 650 693 746 
3 1060 753 1076 
3 456 458 1054 
3 455 456 492 
3 466 547 1062 
3 571 509 1048 
3 708 634 1077 
3 737 738 768 
3 634 631 1077 
3 580 561 1065 
3 746 813 853 
3 471 468 1062 
3 595 673 729 
3 803 804 1086 
3 766 708 876 
3 1104 477 1117 
3 746 693 813 
3 510 509 571 
3 1034 575 1071 
3 460 461 462 
3 729 673 757 
3 1097 798 1101 
3 449 450 559 
3 562 581 1112 
3 697 659 745 
3 757 814 817 
3 1037 1034 1071 
3 670 907 1099 
3 508 510 664 
3 579 1085 1106 
3 468 466 1062 
3 833 1087 1091 
3 730 492 737 
3 547 727 1062 
3 449 559 642 
3 729 757 758 
3 644 645 646 
3 561 1040 1065 
3 843 842 1214 
3 646 647 659 
3 554 936 1083 
3 531 533 1078 
3 753 825 1076 
3 900 377 1118 
3 663 580 1065 
3 463 462 464 
3 642 643 644 
3 1015 798 1097 
3 959 960 1094 
3 646 645 647 
3 572 601 1074 
3 832 1078 1087 
3 722 1037 1071 
3 104 400 1100 
3 764 103 1100 
3 433 435 512 
3 644 643 645 
3 713 1014 1106 
3 441 501 732 
3 738 492 1054 
3 925 1109 1233 
3 460 462 463 
3 34 391 1108 
3 425 424 426 
3 492 456 1054 
3 579 1038 1085 
3 551 553 554 
3 721 1033 1080 
3 642 559 643 
3 444 446 1067 
3 508 509 510 
3 732 501 785 
3 732 785 786 
3 990 989 1143 
3 1033 949 1080 
3 876 708 1077 
3 436 438 1068 
3 546 436 1068 
3 857 750 1093 
3 7 8 1081 
3 584 558 1072 
3 450 452 1069 
3 949 943 1080 
3 92 417 1052 
3 384 369 1052 
3 508 507 509 
3 625 685 1011 
3 1085 944 1106 
3 618 617 1098 
3 558 557 1072 
3 379 911 1095 
3 1063 723 1079 
3 784 783 1111 
3 1078 533 1087 
3 995 992 1113 
3 681 869 1098 
3 559 450 1069 
3 991 990 1113 
3 690 1063 1079 
3 557 595 1072 
3 438 441 1068 
3 446 449 1067 
3 474 477 1104 
3 940 636 1133 
3 723 1043 1079 
3 636 566 1137 
3 455 730 1069 
3 452 455 1069 
3 361 84 1089 
3 595 729 1072 
3 647 650 1075 
3 427 428 432 
3 650 746 1075 
3 699 670 1099 
3 891 890 1131 
3 745 659 1075 
3 736 384 1052 
3 659 647 1075 
3 533 1017 1087 
3 946 643 1103 
3 721 1080 1085 
3 1038 721 1085 
3 804 888 1086 
3 941 940 1130 
3 449 642 1067 
3 920 919 1136 
3 566 573 1088 
3 1054 458 1084 
3 1083 936 1116 
3 948 728 1092 
3 727 549 1083 
3 441 732 1068 
3 727 1083 1116 
3 501 442 1107 
3 750 1065 1093 
3 1065 1040 1093 
3 458 460 1084 
3 506 507 508 
3 1087 1017 1091 
3 1017 594 1091 
3 685 802 1082 
3 501 1107 1125 
3 836 1097 1101 
3 752 859 1138 
3 713 1111 1115 
3 370 361 1089 
3 1091 594 1097 
3 551 554 1083 
3 962 959 1094 
3 1112 581 1171 
3 506 432 507 
3 427 432 506 
3 559 1069 1103 
3 91 380 1105 
3 417 368 1105 
3 594 1015 1097 
3 1133 636 1137 
3 790 1104 1117 
3 617 681 1098 
3 1050 473 1092 
3 549 551 1083 
3 368 91 1105 
3 425 426 427 
3 103 104 1100 
3 1040 598 1093 
3 460 463 1084 
3 749 900 1118 
3 733 844 1128 
3 728 1050 1092 
3 837 836 1101 
3 1116 935 1120 
3 812 735 1118 
3 1069 730 1103 
3 692 946 1127 
3 726 809 1102 
3 490 488 1129 
3 1067 787 1107 
3 1092 473 1104 
3 444 1067 1107 
3 861 699 1099 
3 807 692 1135 
3 473 474 1104 
3 1014 579 1106 
3 442 444 1107 
3 1204 418 1217 
3 919 652 1152 
3 873 370 1190 
3 654 1045 1126 
3 713 1106 1111 
3 660 698 1134 
3 432 428 1110 
3 90 416 1122 
3 35 34 1108 
3 84 360 418 
3 380 367 1122 
3 789 790 1117 
3 783 955 1115 
3 740 739 1114 
3 1146 931 1149 
3 1130 940 1133 
3 643 559 1103 
3 652 562 1112 
3 897 1199 1209 
3 1011 685 1082 
3 944 784 1111 
3 1115 955 1119 
3 1008 1030 1139 
3 423 384 424 
3 428 430 1110 
3 18 874 1175 
3 992 991 1113 
3 817 814 1161 
3 977 639 1140 
3 955 956 1119 
3 471 1120 1141 
3 932 931 1146 
3 936 934 1116 
3 537 713 1115 
3 433 512 1123 
3 1119 956 1121 
3 471 1062 1120 
3 1107 787 1125 
3 823 822 1195 
3 581 649 1147 
3 956 958 1121 
3 537 1115 1119 
3 89 378 1132 
3 475 472 1141 
3 1121 958 1124 
3 395 75 1148 
3 74 419 1148 
3 416 366 1132 
3 1016 537 1119 
3 794 793 1151 
3 873 871 1178 
3 735 749 1118 
3 781 679 1145 
3 1151 793 1153 
3 1136 919 1152 
3 367 90 1122 
3 958 961 1124 
3 9 385 1150 
3 423 424 425 
3 1016 1119 1121 
3 477 1064 1117 
3 1106 944 1111 
3 864 903 1217 
3 1172 410 1246 
3 479 476 1149 
3 1055 925 1170 
3 692 1127 1135 
3 629 1016 1121 
3 629 1121 1124 
3 1120 935 1141 
3 694 976 1226 
3 903 1204 1217 
3 1013 629 1124 
3 1102 809 1109 
3 743 795 1154 
3 787 1061 1125 
3 884 883 1138 
3 785 501 1125 
3 860 374 1213 
3 117 118 1161 
3 24 23 1157 
3 71 70 1158 
3 73 72 1159 
3 483 480 1153 
3 946 1103 1127 
3 1062 727 1120 
3 1045 827 1126 
3 84 418 1089 
3 1010 1053 1155 
3 430 433 1123 
3 83 384 423 
3 48 379 1168 
3 1081 8 1150 
3 403 49 1168 
3 1110 430 1123 
3 488 484 1156 
3 1103 730 1127 
3 483 1153 1154 
3 762 854 1178 
3 1154 795 1156 
3 512 435 1144 
3 765 733 1128 
3 479 1149 1151 
3 785 1125 1134 
3 1161 118 1248 
3 475 1141 1146 
3 890 913 1131 
3 494 490 1129 
3 795 744 1163 
3 730 737 1127 
3 969 588 1215 
3 88 414 1160 
3 378 365 1160 
3 494 1163 1166 
3 789 1117 1130 
3 1054 1084 1136 
3 1125 1061 1134 
3 894 895 1167 
3 366 89 1132 
3 997 395 1169 
3 842 747 1192 
3 727 1116 1120 
3 370 873 1185 
3 883 752 1138 
3 1064 941 1130 
3 732 786 1164 
3 1117 1064 1130 
3 777 1082 1253 
3 788 789 1133 
3 854 760 1177 
3 1084 920 1136 
3 789 1130 1133 
3 1127 737 1135 
3 651 872 1252 
3 1030 494 1166 
3 801 873 1190 
3 788 1133 1137 
3 761 841 1177 
3 1161 814 1231 
3 422 79 1172 
3 78 410 1172 
3 975 372 1174 
3 869 788 1137 
3 638 1139 1140 
3 638 1008 1139 
3 1134 698 1142 
3 737 768 1135 
3 1061 660 1134 
3 475 1146 1149 
3 106 107 1173 
3 409 999 1208 
3 639 638 1140 
3 598 1055 1170 
3 738 1054 1136 
3 821 1019 1143 
3 546 1068 1164 
3 472 471 1141 
3 973 976 1180 
3 935 932 1146 
3 17 18 1175 
3 435 546 1144 
3 679 694 1145 
3 962 1094 1245 
3 786 785 1142 
3 649 811 1147 
3 1129 795 1163 
3 1150 385 1224 
3 738 1136 1152 
3 75 74 1148 
3 967 966 1180 
3 1026 404 1192 
3 905 402 1203 
3 419 1159 1243 
3 862 796 1186 
3 927 387 1167 
3 476 475 1149 
3 479 1151 1153 
3 923 922 1182 
3 397 117 1161 
3 8 9 1150 
3 962 1245 1259 
3 494 1129 1163 
3 931 794 1151 
3 87 375 1176 
3 414 364 1176 
3 822 773 1183 
3 1141 935 1146 
3 1057 751 1179 
3 691 807 1184 
3 381 64 1188 
3 63 409 1188 
3 480 479 1153 
3 408 954 1195 
3 817 1161 1248 
3 86 415 1181 
3 970 969 1215 
3 375 363 1181 
3 768 738 1152 
3 793 743 1154 
3 1149 931 1151 
3 971 758 1207 
3 815 1172 1246 
3 1153 793 1154 
3 767 1010 1155 
3 675 771 1193 
3 1007 24 1157 
3 70 420 1158 
3 419 73 1159 
3 483 1154 1156 
3 365 88 1160 
3 484 483 1156 
3 66 65 1194 
3 85 370 1185 
3 415 362 1185 
3 857 1093 1170 
3 1000 393 1183 
3 772 759 1196 
3 785 1134 1142 
3 811 812 1189 
3 897 899 1199 
3 848 846 1200 
3 1163 1012 1166 
3 744 1012 1163 
3 1169 395 1249 
3 1184 811 1189 
3 392 115 1223 
3 764 1100 1165 
3 847 849 1165 
3 846 819 1200 
3 729 758 1197 
3 1012 782 1166 
3 792 1004 1227 
3 1021 651 1200 
3 377 900 1230 
3 895 898 1167 
3 1068 732 1164 
3 1079 1043 1186 
3 683 620 1206 
3 619 780 1206 
3 860 755 1208 
3 373 971 1207 
3 806 1150 1224 
3 49 48 1168 
3 6 401 1211 
3 1100 847 1165 
3 924 925 1233 
3 799 824 1212 
3 382 996 1219 
3 31 390 1216 
3 109 1000 1218 
3 1076 390 1221 
3 923 1182 1257 
3 394 108 1218 
3 397 1161 1231 
3 1007 1157 1198 
3 654 1126 1237 
3 792 791 1221 
3 67 66 1220 
3 892 894 1203 
3 584 1072 1197 
3 954 951 1191 
3 982 980 1222 
3 807 1147 1184 
3 52 377 1230 
3 998 997 1169 
3 405 53 1230 
3 758 757 1207 
3 835 837 1194 
3 585 584 1215 
3 990 1143 1242 
3 406 1018 1228 
3 915 805 1229 
3 825 862 1216 
3 818 820 1173 
3 425 427 1201 
3 871 762 1178 
3 927 1167 1244 
3 985 981 1236 
3 802 1204 1253 
3 1147 811 1184 
3 105 106 1234 
3 805 803 1229 
3 3 80 1238 
3 23 3 1238 
3 134 0 1239 
3 0 4 1239 
3 72 1 1240 
3 1 102 1240 
3 2 71 1241 
3 22 2 1241 
3 988 421 1239 
3 119 373 1248 
3 1101 798 1210 
3 746 853 1225 
3 667 616 1237 
3 831 835 1261 
3 16 386 1259 
3 376 14 1245 
3 872 850 1252 
3 1041 969 1247 
3 807 1135 1171 
3 1126 995 1237 
3 1024 683 1255 
3 1167 898 1244 
3 79 78 1172 
3 1094 376 1245 
3 849 851 1243 
3 745 1026 1256 
3 1199 937 1209 
3 1164 786 1199 
3 107 394 1173 
3 768 1112 1171 
3 1086 888 1235 
3 751 806 1224 
3 372 1001 1174 
3 697 745 1256 
3 1093 598 1170 
3 969 967 1247 
3 852 1169 1249 
3 978 396 1210 
3 745 1075 1225 
3 1095 745 1225 
3 386 17 1175 
3 863 864 1217 
3 364 87 1176 
3 760 761 1177 
3 951 953 1191 
3 1135 768 1171 
3 1053 792 1227 
3 922 405 1182 
3 966 973 1180 
3 975 1174 1226 
3 363 86 1181 
3 872 674 1205 
3 780 1057 1179 
3 1043 805 1251 
3 1143 1019 1242 
3 856 857 1182 
3 773 774 1183 
3 917 403 1187 
3 693 691 1184 
3 953 952 1201 
3 947 810 1213 
3 805 1108 1251 
3 1157 422 1198 
3 362 85 1185 
3 796 1079 1186 
3 404 908 1192 
3 1182 857 1257 
3 693 1184 1189 
3 64 63 1188 
3 899 1164 1199 
3 81 863 1258 
3 802 801 1190 
3 898 897 1209 
3 664 1044 1191 
3 765 1006 1202 
3 813 693 1189 
3 381 1188 1261 
3 674 675 1193 
3 377 917 1250 
3 1047 860 1213 
3 810 1047 1213 
3 1179 985 1236 
3 65 381 1194 
3 963 408 1195 
3 759 767 1196 
3 976 975 1226 
3 771 815 1246 
3 852 872 1205 
3 988 5 1211 
3 1072 729 1197 
3 786 937 1199 
3 390 1003 1221 
3 815 772 1198 
3 1118 377 1250 
3 819 1021 1200 
3 411 1036 1212 
3 902 864 1231 
3 1036 826 1212 
3 870 694 1226 
3 360 81 1258 
3 683 1222 1255 
3 797 765 1202 
3 1009 892 1203 
3 427 506 1201 
3 620 619 1206 
3 755 828 1208 
3 809 1018 1233 
3 1187 403 1232 
3 1026 1192 1256 
3 937 843 1209 
3 1174 870 1226 
3 757 817 1207 
3 798 797 1210 
3 989 988 1211 
3 5 6 1211 
3 1089 418 1204 
3 826 799 1212 
3 374 947 1213 
3 383 928 1214 
3 1155 1053 1227 
3 403 1168 1232 
3 1109 809 1233 
3 1200 651 1252 
3 32 31 1216 
3 588 585 1215 
3 108 109 1218 
3 967 1180 1247 
3 996 994 1219 
3 396 67 1220 
3 952 392 1223 
3 1113 990 1242 
3 980 983 1222 
3 1214 928 1244 
3 791 1076 1221 
3 388 915 1229 
3 385 985 1224 
3 814 902 1231 
3 1188 830 1261 
3 1157 23 1238 
3 71 1158 1241 
3 1159 72 1240 
3 1018 924 1233 
3 667 1113 1242 
3 1186 1043 1251 
3 382 1219 1260 
3 938 406 1228 
3 1086 388 1229 
3 864 397 1231 
3 1075 746 1225 
3 674 1193 1205 
3 1004 389 1227 
3 53 52 1230 
3 395 1148 1249 
3 928 927 1244 
3 803 1086 1229 
3 1169 852 1205 
3 1214 1244 1254 
3 981 982 1236 
3 400 105 1234 
3 853 813 1232 
3 80 422 1238 
3 421 134 1239 
3 102 764 1240 
3 763 22 1241 
3 616 654 1237 
3 925 923 1257 
3 888 1009 1235 
3 389 1155 1227 
3 1019 667 1242 
3 1204 903 1253 
3 14 15 1245 
3 410 998 1246 
3 118 119 1248 
3 1108 391 1251 
3 851 852 1249 
3 668 1041 1247 
3 850 848 1252 
3 1168 853 1232 
3 1245 15 1259 
3 418 360 1258 
3 780 1179 1236 
3 960 1024 1255 
3 15 16 1259 
3 812 1118 1250 
3 983 376 1262 
3 1094 960 1262 
3 827 826 1260 
3 830 831 1261 
3 747 697 1256 
3 1082 802 1253 
3 422 1157 1238 
3 1158 763 1241 
3 764 1159 1240 
3 1148 851 1249 
3 1255 983 1262 
3 960 1255 1262 
3 376 1094 1262 
3 857 1170 1257 
3 1180 668 1247 
3 1192 747 1256 
3 1165 849 1243 
3 391 1186 1251 
3 1170 925 1257 
3 848 1200 1252 
3 898 1209 1254 
3 1187 812 1250 
3 917 1187 1250 
3 1217 418 1258 
3 1209 843 1254 
3 843 1214 1254 
3 1219 827 1260 
3 1222 983 1255 
3 863 1217 1258 
3 1244 898 1254 
3 163 164 165 
3 162 163 165 
3 162 165 166 
3 161 162 166 
3 161 166 167 
3 160 161 167 
3 160 167 168 
3 159 160 168 
3 159 168 169 
3 158 159 169 
3 158 169 170 
3 157 158 170 
3 157 170 171 
3 156 157 171 
3 156 171 172 
3 155 156 172 
3 155 172 173 
3 154 155 173 
3 154 173 174 
3 153 154 174 
3 153 174 175 
3 152 153 175 
3 152 175 176 
3 136 84 1263 
3 151 152 176 
3 177 151 176 
3 177 150 151 
3 135 136 1263 
3 150 177 178 
3 149 150 178 
3 191 84 136 
3 149 178 179 
3 148 149 179 
3 148 179 180 
3 147 148 180 
3 147 180 181 
3 146 147 181 
3 146 181 182 
3 145 146 182 
3 183 145 182 
3 84 360 1263 
3 144 145 183 
3 144 183 184 
3 143 144 184 
3 143 184 185 
3 142 143 185 
3 141 142 186 
3 142 185 186 
3 140 141 187 
3 141 186 187 
3 139 140 188 
3 140 187 188 
3 139 189 138 
3 189 139 188 
3 190 137 138 
3 191 136 137 
3 189 190 138 
3 190 191 137 
3 360 135 1263 
3 82 93 1264 
3 164 163 1264 
3 163 82 1264 
3 93 164 1264 
3 360 81 135 
3 165 217 164 
3 216 217 165 
3 166 216 165 
3 215 216 166 
3 167 215 166 
3 214 215 167 
3 168 214 167 
3 213 214 168 
3 169 213 168 
3 212 213 169 
3 170 212 169 
3 211 212 170 
3 211 170 171 
3 210 211 171 
3 172 210 171 
3 209 210 172 
3 173 209 172 
3 208 209 173 
3 174 208 173 
3 207 208 174 
3 207 174 175 
3 206 207 175 
3 85 190 1265 
3 206 175 176 
3 205 206 176 
3 205 176 177 
3 85 192 190 
3 204 205 177 
3 204 177 178 
3 203 204 178 
3 203 178 179 
3 202 203 179 
3 190 191 1265 
3 180 202 179 
3 201 202 180 
3 201 180 181 
3 200 201 181 
3 200 181 182 
3 199 200 182 
3 199 182 183 
3 198 199 183 
3 198 183 184 
3 197 198 184 
3 197 184 185 
3 196 197 185 
3 361 85 1265 
3 195 196 186 
3 196 185 186 
3 194 195 187 
3 195 186 187 
3 193 194 188 
3 194 187 188 
3 192 193 189 
3 189 193 188 
3 192 189 190 
3 191 361 1265 
3 94 93 1266 
3 164 217 1266 
3 217 94 1266 
3 93 164 1266 
3 191 84 361 
3 242 241 217 
3 241 216 217 
3 241 240 216 
3 240 215 216 
3 240 239 215 
3 239 214 215 
3 239 238 214 
3 238 213 214 
3 238 237 213 
3 237 212 213 
3 237 236 212 
3 236 211 212 
3 236 235 211 
3 235 210 211 
3 235 234 210 
3 210 234 209 
3 234 233 209 
3 233 208 209 
3 233 232 208 
3 232 207 208 
3 193 86 1267 
3 232 231 207 
3 231 206 207 
3 231 230 206 
3 192 193 1267 
3 230 205 206 
3 230 229 205 
3 218 86 193 
3 229 204 205 
3 229 228 204 
3 228 203 204 
3 228 227 203 
3 227 202 203 
3 227 226 202 
3 226 201 202 
3 226 225 201 
3 201 225 200 
3 86 362 1267 
3 225 224 200 
3 200 224 199 
3 224 223 199 
3 199 223 198 
3 222 197 198 
3 223 222 198 
3 197 221 196 
3 222 221 197 
3 196 220 195 
3 221 220 196 
3 195 219 194 
3 218 193 194 
3 220 219 195 
3 219 218 194 
3 362 192 1267 
3 94 95 1268 
3 242 217 1268 
3 217 94 1268 
3 95 242 1268 
3 192 362 85 
3 241 242 243 
3 241 243 244 
3 240 241 244 
3 245 240 244 
3 239 240 245 
3 246 239 245 
3 238 239 246 
3 247 238 246 
3 237 238 247 
3 248 237 247 
3 236 237 248 
3 249 236 248 
3 235 236 249 
3 250 235 249 
3 234 235 250 
3 251 234 250 
3 233 234 251 
3 233 251 252 
3 232 233 252 
3 219 87 1269 
3 253 232 252 
3 231 232 253 
3 231 253 254 
3 87 219 265 
3 230 231 254 
3 230 254 255 
3 229 230 255 
3 229 255 256 
3 228 229 256 
3 218 219 1269 
3 228 256 257 
3 227 228 257 
3 227 257 258 
3 226 227 258 
3 226 258 259 
3 225 226 259 
3 225 259 260 
3 224 225 260 
3 224 260 261 
3 223 224 261 
3 223 261 262 
3 87 363 1269 
3 222 262 263 
3 222 223 262 
3 221 263 264 
3 221 222 263 
3 220 264 265 
3 220 221 264 
3 219 220 265 
3 363 218 1269 
3 95 96 1270 
3 243 242 1270 
3 96 243 1270 
3 242 95 1270 
3 218 363 86 
3 243 286 287 
3 243 244 286 
3 244 285 286 
3 244 245 285 
3 245 284 285 
3 245 246 284 
3 246 283 284 
3 246 247 283 
3 247 282 283 
3 247 248 282 
3 248 281 282 
3 248 249 281 
3 249 280 281 
3 249 250 280 
3 280 250 279 
3 250 251 279 
3 251 278 279 
3 251 252 278 
3 88 264 1271 
3 252 277 278 
3 252 253 277 
3 253 276 277 
3 264 265 1271 
3 276 253 254 
3 264 88 266 
3 275 276 254 
3 255 275 254 
3 274 275 255 
3 256 274 255 
3 274 256 273 
3 256 257 273 
3 273 257 272 
3 257 258 272 
3 364 88 1271 
3 272 258 271 
3 258 259 271 
3 271 259 270 
3 259 260 270 
3 260 261 269 
3 260 269 270 
3 261 262 268 
3 269 261 268 
3 262 263 267 
3 263 264 266 
3 268 262 267 
3 267 263 266 
3 265 364 1271 
3 97 96 1272 
3 243 287 1272 
3 96 243 1272 
3 287 97 1272 
3 364 265 87 
3 286 287 288 
3 286 288 289 
3 285 286 289 
3 285 289 290 
3 284 285 290 
3 291 284 290 
3 291 283 284 
3 291 292 283 
3 292 282 283 
3 292 293 282 
3 293 281 282 
3 293 294 281 
3 294 280 281 
3 294 295 280 
3 280 295 279 
3 295 296 279 
3 296 278 279 
3 267 89 1273 
3 296 297 278 
3 297 277 278 
3 307 89 267 
3 297 298 277 
3 298 276 277 
3 298 299 276 
3 276 299 275 
3 299 300 275 
3 266 267 1273 
3 275 300 274 
3 300 301 274 
3 274 301 273 
3 301 302 273 
3 273 302 272 
3 302 303 272 
3 272 303 271 
3 303 304 271 
3 271 304 270 
3 304 305 270 
3 89 365 1273 
3 305 306 269 
3 305 269 270 
3 306 307 268 
3 269 306 268 
3 268 307 267 
3 365 266 1273 
3 97 98 1274 
3 288 287 1274 
3 98 288 1274 
3 287 97 1274 
3 365 88 266 
3 325 326 288 
3 289 325 288 
3 324 325 289 
3 290 324 289 
3 323 324 290 
3 291 323 290 
3 322 323 291 
3 292 322 291 
3 321 322 292 
3 321 292 293 
3 320 321 293 
3 294 320 293 
3 319 320 294 
3 295 319 294 
3 318 319 295 
3 296 318 295 
3 90 306 1275 
3 317 318 296 
3 317 296 297 
3 306 307 1275 
3 317 297 316 
3 316 297 298 
3 306 90 308 
3 315 316 298 
3 315 298 299 
3 314 315 299 
3 314 299 300 
3 313 314 300 
3 301 313 300 
3 366 90 1275 
3 312 313 301 
3 312 301 302 
3 311 312 302 
3 311 302 303 
3 310 303 304 
3 310 311 303 
3 304 305 309 
3 310 304 309 
3 305 306 308 
3 305 308 309 
3 307 366 1275 
3 99 98 1276 
3 288 326 1276 
3 98 288 1276 
3 326 99 1276 
3 307 89 366 
3 325 326 327 
3 328 325 327 
3 324 325 328 
3 329 324 328 
3 323 324 329 
3 330 323 329 
3 322 323 330 
3 331 322 330 
3 321 322 331 
3 332 321 331 
3 320 321 332 
3 333 320 332 
3 319 320 333 
3 319 333 334 
3 318 319 334 
3 309 91 1277 
3 335 318 334 
3 91 309 343 
3 318 335 317 
3 335 336 317 
3 317 336 316 
3 336 337 316 
3 337 315 316 
3 315 337 338 
3 308 309 1277 
3 315 338 314 
3 338 339 314 
3 339 313 314 
3 339 340 313 
3 340 312 313 
3 341 312 340 
3 312 341 311 
3 311 341 342 
3 310 342 343 
3 310 311 342 
3 91 367 1277 
3 309 310 343 
3 367 308 1277 
3 99 100 1278 
3 327 326 1278 
3 100 327 1278 
3 326 99 1278 
3 90 308 367 
3 358 359 327 
3 328 358 327 
3 357 358 328 
3 329 357 328 
3 356 357 329 
3 330 356 329 
3 355 356 330 
3 331 355 330 
3 354 355 331 
3 332 354 331 
3 353 354 332 
3 333 353 332 
3 352 353 333 
3 92 342 1279 
3 352 333 334 
3 351 352 334 
3 342 343 1279 
3 335 351 334 
3 351 335 350 
3 342 92 344 
3 335 336 350 
3 336 349 350 
3 336 337 349 
3 337 348 349 
3 337 338 348 
3 368 92 1279 
3 338 347 348 
3 338 339 347 
3 339 340 346 
3 339 346 347 
3 340 341 345 
3 340 345 346 
3 341 342 344 
3 341 344 345 
3 343 368 1279 
3 101 100 1280 
3 327 359 1280 
3 100 327 1280 
3 359 101 1280 
3 91 368 343 
3 358 359 102 
3 358 102 103 
3 357 358 103 
3 357 103 104 
3 356 357 104 
3 356 104 105 
3 355 356 105 
3 355 105 106 
3 354 355 106 
3 354 106 107 
3 353 354 107 
3 353 107 108 
3 345 83 1281 
3 352 353 108 
3 115 83 345 
3 352 108 109 
3 351 352 109 
3 110 351 109 
3 350 351 110 
3 111 350 110 
3 349 350 111 
3 349 111 112 
3 344 345 1281 
3 349 112 348 
3 112 113 348 
3 113 347 348 
3 113 114 347 
3 114 115 346 
3 347 114 346 
3 346 115 345 
3 83 369 1281 
3 369 344 1281 
3 101 1 1282 
3 102 359 1282 
3 1 102 1282 
3 359 101 1282 
3 369 92 344 

CELL_TYPES 2424
5
5
5
5
5
5
5
5
5
5
5
5
5
5
5
5
5
5
5
5
5
5
5
5
5
5
5
5
5
5
5
5
5
5
5
5
5
5
5
5
5
5
5
5
5
5
5
5
5
5
5
5
5
5
5
5
5
5
5
5
5
5
5
5
5
5
5
5
5
5
5
5
5
5
5
5
5
5
5
5
5
5
5
5
5
5
5
5
5
5
5
5
5
5
5
5
5
5
5
5
5
5
5
5
5
5
5
5
5
5
5
5
5
5
5
5
5
5
5
5
5
5
5
5
5
5
5
5
5
5
5
5
5
5
5
5
5
5
5
5
5
5
5
5
5
5
5
5
5
5
5
5
5
5
5
5
5
5
5
5
5
5
5
5
5
5
5
5
5
5
5
5
5
5
5
5
5
5
5
5
5
5
5
5
5
5
5
5
5
5
5
5
5
5
5
5
5
5
5
5
5
5
5
5
5
5
5
5
5
5
5
5
5
5
5
5
5
5
5
5
5
5
5
5
5
5
5
5
5
5
5
5
5
5
5
5
5
5
5
5
5
5
5
5
5
5
5
5
5
5
5
5
5
5
5
5
5
5
5
5
5
5
5
5
5
5
5
5
5
5
5
5
5
5
5
5
5
5
5
5
5
5
5
5
5
5
5
5
5
5
5
5
5
5
5
5
5
5
5
5
5
5
5
5
5
5
5
5
5
5
5
5
5
5
5
5
5
5
5
5
5
5
5
5
5
5
5
5
5
5
5
5
5
5
5
5
5
5
5
5
5
5
5
5
5
5
5
5
5
5
5
5
5
5
5
5
5
5
5
5
5
5
5
5
5
5
5
5
5
5
5
5
5
5
5
5
5
5
5
5
5
5
5
5
5
5
5
5
5
5
5
5
5
5
5
5
5
5
5
5
5
5
5
5
5
5
5
5
5
5
5
5
5
5
5
5
5
5
5
5
5
5
5
5
5
5
5
5
5
5
5
5
5
5
5
5
5
5
5
5
5
5
5
5
5
5
5
5
5
5
5
5
5
5
5
5
5
5
5
5
5
5
5
5
5
5
5
5
5
5
5
5
5
5
5
5
5
5
5
5
5
5
5
5
5
5
5
5
5
5
5
5
5
5
5
5
5
5
5
5
5
5
5
5
5
5
5
5
5
5
5
5
5
5
5
5
5
5
5
5
5
5
5
5
5
5
5
5
5
5
5
5
5
5
5
5
5
5
5
5
5
5
5
5
5
5
5
5
5
5
5
5
5
5
5
5
5
5
5
5
5
5
5
5
5
5
5
5
5
5
5
5
5
5
5
5
5
5
5
5
5
5
5
5
5
5
5
5
5
5
5
5
5
5
5
5
5
5
5
5
5
5
5
5
5
5
5
5
5
5
5
5
5
5
5
5
5
5
5
5
5
5
5
5
5
5
5
5
5
5
5
5
5
5
5
5
5
5
5
5
5
5
5
5
5
5
5
5
5
5
5
5
5
5
5
5
5
5
5
5
5
5
5
5
5
5
5
5
5
5
5
5
5
5
5
5
5
5
5
5
5
5
5
5
5
5
5
5
5
5
5
5
5
5
5
5
5
5
5
5
5
5
5
5
5
5
5
5
5
5
5
5
5
5
5
5
5
5
5
5
5
5
5
5
5
5
5
5
5
5
5
5
5
5
5
5
5
5
5
5
5
5
5
5
5
5
5
5
5
5
5
5
5
5
5
5
5
5
5
5
5
5
5
5
5
5
5
5
5
5
5
5
5
5
5
5
5
5
5
5
5
5
5
5
5
5
5
5
5
5
5
5
5
5
5
5
5
5
5
5
5
5
5
5
5
5
5
5
5
5
5
5
5
5
5
5
5
5
5
5
5
5
5
5
5
5
5
5
5
5
5
5
5
5
5
5
5
5
5
5
5
5
5
5
5
5
5
5
5
5
5
5
5
5
5
5
5
5
5
5
5
5
5
5
5
5
5
5
5
5
5
5
5
5
5
5
5
5
5
5
5
5
5
5
5
5
5
5
5
5
5
5
5
5
5
5
5
5
5
5
5
5
5
5
5
5
5
5
5
5
5
5
5
5
5
5
5
5
5
5
5
5
5
5
5
5
5
5
5
5
5
5
5
5
5
5
5
5
5
5
5
5
5
5
5
5
5
5
5
5
5
5
5
5
5
5
5
5
5
5
5
5
5
5
5
5
5
5
5
5
5
5
5
5
5
5
5
5
5
5
5
5
5
5
5
5
5
5
5
5
5
5
5
5
5
5
5
5
5
5
5
5
5
5
5
5
5
5
5
5
5
5
5
5
5
5
5
5
5
5
5
5
5
5
5
5
5
5
5
5
5
5
5
5
5
5
5
5
5
5
5
5
5
5
5
5
5
5
5
5
5
5
5
5
5
5
5
5
5
5
5
5
5
5
5
5
5
5
5
5
5
5
5
5
5
5
5
5
5
5
5
5
5
5
5
5
5
5
5
5
5
5
5
5
5
5
5
5
5
5
5
5
5
5
5
5
5
5
5
5
5
5
5
5
5
5
5
5
5
5
5
5
5
5
5
5
5
5
5
5
5
5
5
5
5
5
5
5
5
5
5
5
5
5
5
5
5
5
5
5
5
5
5
5
5
5
5
5
5
5
5
5
5
5
5
5
5
5
5
5
5
5
5
5
5
5
5
5
5
5
5
5
5
5
5
5
5
5
5
5
5
5
5
5
5
5
5
5
5
5
5
5
5
5
5
5
5
5
5
5
5
5
5
5
5
5
5
5
5
5
5
5
5
5
5
5
5
5
5
5
5
5
5
5
5
5
5
5
5
5
5
5
5
5
5
5
5
5
5
5
5
5
5
5
5
5
5
5
5
5
5
5
5
5
5
5
5
5
5
5
5
5
5
5
5
5
5
5
5
5
5
5
5
5
5
5
5
5
5
5
5
5
5
5
5
5
5
5
5
5
5
5
5
5
5
5
5
5
5
5
5
5
5
5
5
5
5
5
5
5
5
5
5
5
5
5
5
5
5
5
5
5
5
5
5
5
5
5
5
5
5
5
5
5
5
5
5
5
5
5
5
5
5
5
5
5
5
5
5
5
5
5
5
5
5
5
5
5
5
5
5
5
5
5
5
5
5
5
5
5
5
5
5
5
5
5
5
5
5
5
5
5
5
5
5
5
5
5
5
5
5
5
5
5
5
5
5
5
5
5
5
5
5
5
5
5
5
5
5
5
5
5
5
5
5
5
5
5
5
5
5
5
5
5
5
5
5
5
5
5
5
5
5
5
5
5
5
5
5
5
5
5
5
5
5
5
5
5
5
5
5
5
5
5
5
5
5
5
5
5
5
5
5
5
5
5
5
5
5
5
5
5
5
5
5
5
5
5
5
5
5
5
5
5
5
5
5
5
5
5
5
5
5
5
5
5
5
5
5
5
5
5
5
5
5
5
5
5
5
5
5
5
5
5
5
5
5
5
5
5
5
5
5
5
5
5
5
5
5
5
5
5
5
5
5
5
5
5
5
5
5
5
5
5
5
5
5
5
5
5
5
5
5
5
5
5
5
5
5
5
5
5
5
5
5
5
5
5
5
5
5
5
5
5
5
5
5
5
5
5
5
5
5
5
5
5
5
5
5
5
5
5
5
5
5
5
5
5
5
5
5
5
5
5
5
5
5
5
5
5
5
5
5
5
5
5
5
5
5
5
5
5
5
5
5
5
5
5
5
5
5
5
5
5
5
5
5
5
5
5
5
5
5
5
5
5
5
5
5
5
5
5
5
5
5
5
5
5
5
5
5
5
5
5
5
5
5
5
5
5
5
5
5
5
5
5
5
5
5
5
5
5
5
5
5
5
5
5
5
5
5
5
5
5
5
5
5
5
5
5
5
5
5
5
5
5
5
5
5
5
5
5
5
5
5
5
5
5
5
5
5
5
5
5
5
5
5
5
5
5
5
5
5
5
5
5
5
5
5
5
5
5
5
5
5
5
5
5
5
5
5
5
5
5
5
5
5
5
5
5
5
5
5
5
5
5
5
5
5
5
5
5
5
5
5
5
5
5
5
5
5
5
5
5
5
5
5
5
5
5
5
5
5
5
5
5
5
5
5
5
5
5
5
5
5
5
5
5
5
5
5
5
5
5
5
5
5
5
5
5
5
5
5
5
5
5
5
5
5
5
5
5
5
5
5
5
5
5
5
5
5
5
5
5
5
5
5
5
5
5
5
5
5
5
5
5
5
5
5
5
5
5
5
5
5
5
5
5
5
5
5
5
5
5
5
5
5
5
5
5
5
5
5
5
5
5
5
5
5
5
5
5
5
5
5
5
5
5
5
5
5
5
5
5
5
5
5
5
5
5
5
5
5
5
5
5
5
5
5
5
5
5
5
5
5
5
5
5
5
5
5
5
5
5
5
5
5
5
5
5
5
5
5
5
5
5
5
5
5
5
5
5
5
5
5
5
5
5
5
5
5
5
5
5
5
5
5
5
5
5
5
5
5
5
5
5
5
5
5
5
5
5
5
5
5
5
5
5
5
5
5
5
5
5
5
5
5
5
5
5
5
5
5
5
5
5
5
5
5
5
5
5
5
5
5
5
5
5
5
5
5
5
5
5
5
5
5
5
5
5
5
5
5
5
5
5
5
5
5
5
5
5
5
5
5
5
5
5
5
5
5
5
5
5
5
5
5
5
5
5
5
5
5
5
5
5
5
5
5
5
5
5
5
5
5
5
5
5
5
5
5
5
5
5
5
5
5
5
5
5
5
5
5
5
5
5
5
5
5
5
5
5
5
5
5
5
5
5
5
5
5
5
5
5
5
5
5
5
5
5
5
5
5
5
5
5
5
5
5
5
5
5
5
5
5
5
5
5
5
5
5
5
5
5
5
5
5
5
5
5
5
5
5
5
5
5
5
5
5
5
5
5
5
5
5
5
5
5
5
5
5
5
5
5
5
5
5
5
5
5
5
5
5
5
5
5
5
5
5
5
5
5
5
5
5
5
5
5
5
5
5
5
5
5
5
5
5
5
5
5
5
5
5
5
5
5
5
5
5
5
5
5
5
5
5
5
5
5
5
5
5
5
5
5
5
5
5
5
5
5
5
5
5
5
5
5
5
5
5
5
5
5
5
5
5
5
5
5
5
5
5
5
5
5
5
5
5
5
5
5
5
5
5
5
5
5
5
5
5
5
5
5
5
5
5
5
5
5
5
5
5
5
5
5
5
5
5
5
5
5
5
5
5
5
5
5
5
5
5
5
5
5
5
5
5
5
5
5
5
5
5
5
5
5
5
5
5
5
5
5
5
5
5
5
5
5
5
5
5
5
5
5
5
5
5
5
5
5
5
5
5
5
5
5
5
5
5
5
5
5
5
5
5
5
5
5
5
5
5
5
5
5
5
5
5
5
5
5
5
5
5
5
5
5
5
5
5
5
5
5
5
5
5
5
5
5
5
5
5
5
5
5
5
5
5
5
5
5
5
5
5
5
5
5

POINT_DATA 1283

VECTORS coord float
0.0 0.0 0.0 
5.000000000000e+01 -1.000000000000e+01 0.0 
0.0 -2.000000000000e+01 0.0 
5.000000000000e+01 -2.000000000000e+01 0.0 
0.0 -9.999999999991e-01 0.0 
0.0 -1.999999999998e+00 0.0 
0.0 -2.999999999997e+00 0.0 
0.0 -3.999999999994e+00 0.0 
0.0 -4.999999999991e+00 0.0 
0.0 -5.999999999988e+00 0.0 
0.0 -6.999999999985e+00 0.0 
0.0 -7.999999999982e+00 0.0 
0.0 -8.999999999983e+00 0.0 
0.0 -9.999999999985e+00 0.0 
0.0 -1.099999999999e+01 0.0 
0.0 -1.199999999999e+01 0.0 
0.0 -1.299999999999e+01 0.0 
0.0 -1.399999999999e+01 0.0 
0.0 -1.499999999999e+01 0.0 
0.0 -1.599999999999e+01 0.0 
0.0 -1.700000000000e+01 0.0 
0.0 -1.800000000000e+01 0.0 
0.0 -1.900000000000e+01 0.0 
4.900000000001e+01 -2.000000000000e+01 0.0 
4.800000000001e+01 -2.000000000000e+01 0.0 
4.700000000002e+01 -2.000000000000e+01 0.0 
4.600000000003e+01 -2.000000000000e+01 0.0 
4.500000000004e+01 -2.000000000000e+01 0.0 
4.400000000004e+01 -2.000000000000e+01 0.0 
4.300000000005e+01 -2.000000000000e+01 0.0 
4.200000000006e+01 -2.000000000000e+01 0.0 
4.100000000006e+01 -2.000000000000e+01 0.0 
4.000000000007e+01 -2.000000000000e+01 0.0 
3.900000000008e+01 -2.000000000000e+01 0.0 
3.800000000009e+01 -2.000000000000e+01 0.0 
3.700000000009e+01 -2.000000000000e+01 0.0 
3.600000000010e+01 -2.000000000000e+01 0.0 
3.500000000011e+01 -2.000000000000e+01 0.0 
3.400000000011e+01 -2.000000000000e+01 0.0 
3.300000000012e+01 -2.000000000000e+01 0.0 
3.200000000013e+01 -2.000000000000e+01 0.0 
3.100000000013e+01 -2.000000000000e+01 0.0 
3.000000000013e+01 -2.000000000000e+01 0.0 
2.900000000013e+01 -2.000000000000e+01 0.0 
2.800000000013e+01 -2.000000000000e+01 0.0 
2.700000000013e+01 -2.000000000000e+01 0.0 
2.600000000013e+01 -2.000000000000e+01 0.0 
2.500000000013e+01 -2.000000000000e+01 0.0 
2.400000000013e+01 -2.000000000000e+01 0.0 
2.300000000013e+01 -2.000000000000e+01 0.0 
2.200000000013e+01 -2.000000000000e+01 0.0 
2.100000000013e+01 -2.000000000000e+01 0.0 
2.000000000013e+01 -2.000000000000e+01 0.0 
1.900000000013e+01 -2.000000000000e+01 0.0 
1.800000000013e+01 -2.000000000000e+01 0.0 
1.700000000012e+01 -2.000000000000e+01 0.0 
1.600000000011e+01 -2.000000000000e+01 0.0 
1.500000000011e+01 -2.000000000000e+01 0.0 
1.400000000010e+01 -2.000000000000e+01 0.0 
1.300000000009e+01 -2.000000000000e+01 0.0 
1.200000000009e+01 -2.000000000000e+01 0.0 
1.100000000008e+01 -2.000000000000e+01 0.0 
1.000000000007e+01 -2.000000000000e+01 0.0 
9.000000000064e+00 -2.000000000000e+01 0.0 
8.000000000057e+00 -2.000000000000e+01 0.0 
7.000000000050e+00 -2.000000000000e+01 0.0 
6.000000000043e+00 -2.000000000000e+01 0.0 
5.000000000036e+00 -2.000000000000e+01 0.0 
4.000000000028e+00 -2.000000000000e+01 0.0 
3.000000000021e+00 -2.000000000000e+01 0.0 
2.000000000014e+00 -2.000000000000e+01 0.0 
1.000000000007e+00 -2.000000000000e+01 0.0 
5.000000000000e+01 -1.100000000000e+01 0.0 
5.000000000000e+01 -1.200000000000e+01 0.0 
5.000000000000e+01 -1.300000000000e+01 0.0 
5.000000000000e+01 -1.400000000000e+01 0.0 
5.000000000000e+01 -1.500000000000e+01 0.0 
5.000000000000e+01 -1.600000000000e+01 0.0 
5.000000000000e+01 -1.700000000000e+01 0.0 
5.000000000000e+01 -1.800000000000e+01 0.0 
5.000000000000e+01 -1.900000000000e+01 0.0 
2.000000000000e+01 0.0 0.0 
5.000000000000e+01 0.0 0.0 
3.500000000000e+01 -1.000000000000e+01 0.0 
2.150000000000e+01 -1.000000000000e+00 0.0 
2.300000000000e+01 -2.000000000000e+00 0.0 
2.450000000000e+01 -3.000000000000e+00 0.0 
2.600000000000e+01 -4.000000000000e+00 0.0 
2.750000000000e+01 -5.000000000000e+00 0.0 
2.900000000000e+01 -6.000000000000e+00 0.0 
3.050000000000e+01 -7.000000000000e+00 0.0 
3.200000000000e+01 -8.000000000000e+00 0.0 
3.350000000000e+01 -9.000000000000e+00 0.0 
5.000000000000e+01 -1.000000000000e+00 0.0 
5.000000000000e+01 -2.000000000000e+00 0.0 
5.000000000000e+01 -3.000000000000e+00 0.0 
5.000000000000e+01 -4.000000000000e+00 0.0 
5.000000000000e+01 -5.000000000000e+00 0.0 
5.000000000000e+01 -6.000000000000e+00 0.0 
5.000000000000e+01 -7.000000000000e+00 0.0 
5.000000000000e+01 -8.000000000000e+00 0.0 
5.000000000000e+01 -9.000000000000e+00 0.0 
4.900000000000e+01 -1.000000000000e+01 0.0 
4.800000000000e+01 -1.000000000000e+01 0.0 
4.700000000000e+01 -1.000000000000e+01 0.0 
4.600000000000e+01 -1.000000000000e+01 0.0 
4.500000000000e+01 -1.000000000000e+01 0.0 
4.400000000000e+01 -1.000000000000e+01 0.0 
4.300000000000e+01 -1.000000000000e+01 0.0 
4.200000000000e+01 -1.000000000000e+01 0.0 
4.100000000000e+01 -1.000000000000e+01 0.0 
4.000000000000e+01 -1.000000000000e+01 0.0 
3.900000000000e+01 -1.000000000000e+01 0.0 
3.800000000000e+01 -1.000000000000e+01 0.0 
3.700000000000e+01 -1.000000000000e+01 0.0 
3.600000000000e+01 -1.000000000000e+01 0.0 
1.900000000000e+01 0.0 0.0 
1.800000000000e+01 0.0 0.0 
1.700000000000e+01 0.0 0.0 
1.600000000000e+01 0.0 0.0 
1.500000000000e+01 0.0 0.0 
1.400000000000e+01 0.0 0.0 
1.300000000000e+01 0.0 0.0 
1.200000000000e+01 0.0 0.0 
1.100000000000e+01 0.0 0.0 
1.000000000000e+01 0.0 0.0 
9.000000000000e+00 0.0 0.0 
8.000000000000e+00 0.0 0.0 
7.000000000000e+00 0.0 0.0 
6.000000000000e+00 0.0 0.0 
5.000000000000e+00 0.0 0.0 
4.000000000000e+00 0.0 0.0 
3.000000000000e+00 0.0 0.0 
2.000000000000e+00 0.0 0.0 
1.000000000000e+00 0.0 0.0 
2.100000000000e+01 0.0 0.0 
2.199999999999e+01 0.0 0.0 
2.299999999999e+01 0.0 0.0 
2.399999999999e+01 0.0 0.0 
2.499999999998e+01 0.0 0.0 
2.599999999998e+01 0.0 0.0 
2.699999999998e+01 0.0 0.0 
2.799999999997e+01 0.0 0.0 
2.899999999996e+01 0.0 0.0 
2.999999999995e+01 0.0 0.0 
3.099999999993e+01 0.0 0.0 
3.199999999992e+01 0.0 0.0 
3.299999999990e+01 0.0 0.0 
3.399999999989e+01 0.0 0.0 
3.499999999987e+01 0.0 0.0 
3.599999999988e+01 0.0 0.0 
3.699999999989e+01 0.0 0.0 
3.799999999990e+01 0.0 0.0 
3.899999999990e+01 0.0 0.0 
3.999999999991e+01 0.0 0.0 
4.099999999992e+01 0.0 0.0 
4.199999999993e+01 0.0 0.0 
4.299999999994e+01 0.0 0.0 
4.399999999995e+01 0.0 0.0 
4.499999999996e+01 0.0 0.0 
4.599999999997e+01 0.0 0.0 
4.699999999997e+01 0.0 0.0 
4.799999999998e+01 0.0 0.0 
4.899999999999e+01 0.0 0.0 
4.901724137931e+01 -1.000000000000e+00 0.0 
4.803448275862e+01 -1.000000000000e+00 0.0 
4.705172413793e+01 -1.000000000000e+00 0.0 
4.606896551724e+01 -1.000000000000e+00 0.0 
4.508620689655e+01 -1.000000000000e+00 0.0 
4.410344827586e+01 -1.000000000000e+00 0.0 
4.312068965517e+01 -1.000000000000e+00 0.0 
4.213793103448e+01 -1.000000000000e+00 0.0 
4.115517241379e+01 -1.000000000000e+00 0.0 
4.017241379310e+01 -1.000000000000e+00 0.0 
3.918965517241e+01 -1.000000000000e+00 0.0 
3.820689655172e+01 -1.000000000000e+00 0.0 
3.722413793103e+01 -1.000000000000e+00 0.0 
3.624137931034e+01 -1.000000000000e+00 0.0 
3.525862068966e+01 -1.000000000000e+00 0.0 
3.427586206897e+01 -1.000000000000e+00 0.0 
3.329310344828e+01 -1.000000000000e+00 0.0 
3.231034482759e+01 -1.000000000000e+00 0.0 
3.132758620690e+01 -1.000000000000e+00 0.0 
3.034482758621e+01 -1.000000000000e+00 0.0 
2.936206896552e+01 -1.000000000000e+00 0.0 
2.837931034483e+01 -1.000000000000e+00 0.0 
2.739655172414e+01 -1.000000000000e+00 0.0 
2.641379310345e+01 -1.000000000000e+00 0.0 
2.543103448276e+01 -1.000000000000e+00 0.0 
2.444827586207e+01 -1.000000000000e+00 0.0 
2.346551724138e+01 -1.000000000000e+00 0.0 
2.248275862069e+01 -1.000000000000e+00 0.0 
2.400000000000e+01 -2.000000000000e+00 0.0 
2.500000000000e+01 -2.000000000000e+00 0.0 
2.600000000000e+01 -2.000000000000e+00 0.0 
2.700000000000e+01 -2.000000000000e+00 0.0 
2.800000000000e+01 -2.000000000000e+00 0.0 
2.900000000000e+01 -2.000000000000e+00 0.0 
3.000000000000e+01 -2.000000000000e+00 0.0 
3.100000000000e+01 -2.000000000000e+00 0.0 
3.200000000000e+01 -2.000000000000e+00 0.0 
3.300000000000e+01 -2.000000000000e+00 0.0 
3.400000000000e+01 -2.000000000000e+00 0.0 
3.500000000000e+01 -2.000000000000e+00 0.0 
3.600000000000e+01 -2.000000000000e+00 0.0 
3.700000000000e+01 -2.000000000000e+00 0.0 
3.800000000000e+01 -2.000000000000e+00 0.0 
3.900000000000e+01 -2.000000000000e+00 0.0 
4.000000000000e+01 -2.000000000000e+00 0.0 
4.100000000000e+01 -2.000000000000e+00 0.0 
4.200000000000e+01 -2.000000000000e+00 0.0 
4.300000000000e+01 -2.000000000000e+00 0.0 
4.400000000000e+01 -2.000000000000e+00 0.0 
4.500000000000e+01 -2.000000000000e+00 0.0 
4.600000000000e+01 -2.000000000000e+00 0.0 
4.700000000000e+01 -2.000000000000e+00 0.0 
4.800000000000e+01 -2.000000000000e+00 0.0 
4.900000000000e+01 -2.000000000000e+00 0.0 
2.548076923077e+01 -3.000000000000e+00 0.0 
2.646153846153e+01 -3.000000000000e+00 0.0 
2.744230769230e+01 -3.000000000000e+00 0.0 
2.842307692306e+01 -3.000000000000e+00 0.0 
2.940384615383e+01 -3.000000000000e+00 0.0 
3.038461538459e+01 -3.000000000000e+00 0.0 
3.136538461536e+01 -3.000000000000e+00 0.0 
3.234615384612e+01 -3.000000000000e+00 0.0 
3.332692307687e+01 -3.000000000000e+00 0.0 
3.430769230762e+01 -3.000000000000e+00 0.0 
3.528846153837e+01 -3.000000000000e+00 0.0 
3.626923076912e+01 -3.000000000000e+00 0.0 
3.724999999988e+01 -3.000000000000e+00 0.0 
3.823076923065e+01 -3.000000000000e+00 0.0 
3.921153846143e+01 -3.000000000000e+00 0.0 
4.019230769221e+01 -3.000000000000e+00 0.0 
4.117307692299e+01 -3.000000000000e+00 0.0 
4.215384615377e+01 -3.000000000000e+00 0.0 
4.313461538455e+01 -3.000000000000e+00 0.0 
4.411538461533e+01 -3.000000000000e+00 0.0 
4.509615384611e+01 -3.000000000000e+00 0.0 
4.607692307688e+01 -3.000000000000e+00 0.0 
4.705769230766e+01 -3.000000000000e+00 0.0 
4.803846153844e+01 -3.000000000000e+00 0.0 
4.901923076922e+01 -3.000000000000e+00 0.0 
4.900000000000e+01 -4.000000000000e+00 0.0 
4.800000000000e+01 -4.000000000000e+00 0.0 
4.700000000000e+01 -4.000000000000e+00 0.0 
4.600000000000e+01 -4.000000000000e+00 0.0 
4.500000000000e+01 -4.000000000000e+00 0.0 
4.400000000000e+01 -4.000000000000e+00 0.0 
4.300000000000e+01 -4.000000000000e+00 0.0 
4.200000000000e+01 -4.000000000000e+00 0.0 
4.100000000000e+01 -4.000000000000e+00 0.0 
4.000000000000e+01 -4.000000000000e+00 0.0 
3.900000000000e+01 -4.000000000000e+00 0.0 
3.800000000000e+01 -4.000000000000e+00 0.0 
3.700000000000e+01 -4.000000000000e+00 0.0 
3.600000000000e+01 -4.000000000000e+00 0.0 
3.500000000000e+01 -4.000000000000e+00 0.0 
3.400000000000e+01 -4.000000000000e+00 0.0 
3.300000000000e+01 -4.000000000000e+00 0.0 
3.200000000000e+01 -4.000000000000e+00 0.0 
3.100000000000e+01 -4.000000000000e+00 0.0 
3.000000000000e+01 -4.000000000000e+00 0.0 
2.900000000000e+01 -4.000000000000e+00 0.0 
2.800000000000e+01 -4.000000000000e+00 0.0 
2.700000000000e+01 -4.000000000000e+00 0.0 
2.847826086957e+01 -5.000000000000e+00 0.0 
2.945652173913e+01 -5.000000000000e+00 0.0 
3.043478260870e+01 -5.000000000000e+00 0.0 
3.141304347826e+01 -5.000000000000e+00 0.0 
3.239130434783e+01 -5.000000000000e+00 0.0 
3.336956521739e+01 -5.000000000000e+00 0.0 
3.434782608696e+01 -5.000000000000e+00 0.0 
3.532608695652e+01 -5.000000000000e+00 0.0 
3.630434782609e+01 -5.000000000000e+00 0.0 
3.728260869565e+01 -5.000000000000e+00 0.0 
3.826086956522e+01 -5.000000000000e+00 0.0 
3.923913043478e+01 -5.000000000000e+00 0.0 
4.021739130435e+01 -5.000000000000e+00 0.0 
4.119565217391e+01 -5.000000000000e+00 0.0 
4.217391304348e+01 -5.000000000000e+00 0.0 
4.315217391304e+01 -5.000000000000e+00 0.0 
4.413043478261e+01 -5.000000000000e+00 0.0 
4.510869565217e+01 -5.000000000000e+00 0.0 
4.608695652174e+01 -5.000000000000e+00 0.0 
4.706521739130e+01 -5.000000000000e+00 0.0 
4.804347826087e+01 -5.000000000000e+00 0.0 
4.902173913043e+01 -5.000000000000e+00 0.0 
4.900000000001e+01 -6.000000000000e+00 0.0 
4.800000000003e+01 -6.000000000000e+00 0.0 
4.700000000004e+01 -6.000000000000e+00 0.0 
4.600000000006e+01 -6.000000000000e+00 0.0 
4.500000000007e+01 -6.000000000000e+00 0.0 
4.400000000009e+01 -6.000000000000e+00 0.0 
4.300000000010e+01 -6.000000000000e+00 0.0 
4.200000000012e+01 -6.000000000000e+00 0.0 
4.100000000013e+01 -6.000000000000e+00 0.0 
4.000000000014e+01 -6.000000000000e+00 0.0 
3.900000000014e+01 -6.000000000000e+00 0.0 
3.800000000012e+01 -6.000000000000e+00 0.0 
3.700000000010e+01 -6.000000000000e+00 0.0 
3.600000000008e+01 -6.000000000000e+00 0.0 
3.500000000006e+01 -6.000000000000e+00 0.0 
3.400000000005e+01 -6.000000000000e+00 0.0 
3.300000000003e+01 -6.000000000000e+00 0.0 
3.200000000001e+01 -6.000000000000e+00 0.0 
3.100000000000e+01 -6.000000000000e+00 0.0 
3.000000000000e+01 -6.000000000000e+00 0.0 
3.147499999998e+01 -7.000000000000e+00 0.0 
3.244999999998e+01 -7.000000000000e+00 0.0 
3.342499999998e+01 -7.000000000000e+00 0.0 
3.439999999998e+01 -7.000000000000e+00 0.0 
3.537499999998e+01 -7.000000000000e+00 0.0 
3.634999999998e+01 -7.000000000000e+00 0.0 
3.732499999998e+01 -7.000000000000e+00 0.0 
3.829999999998e+01 -7.000000000000e+00 0.0 
3.927499999999e+01 -7.000000000000e+00 0.0 
4.024999999999e+01 -7.000000000000e+00 0.0 
4.122499999999e+01 -7.000000000000e+00 0.0 
4.219999999999e+01 -7.000000000000e+00 0.0 
4.317499999999e+01 -7.000000000000e+00 0.0 
4.414999999999e+01 -7.000000000000e+00 0.0 
4.512499999999e+01 -7.000000000000e+00 0.0 
4.609999999999e+01 -7.000000000000e+00 0.0 
4.707500000000e+01 -7.000000000000e+00 0.0 
4.805000000000e+01 -7.000000000000e+00 0.0 
4.902500000000e+01 -7.000000000000e+00 0.0 
4.900000000000e+01 -8.000000000000e+00 0.0 
4.800000000000e+01 -8.000000000000e+00 0.0 
4.700000000000e+01 -8.000000000000e+00 0.0 
4.600000000000e+01 -8.000000000000e+00 0.0 
4.500000000000e+01 -8.000000000000e+00 0.0 
4.400000000000e+01 -8.000000000000e+00 0.0 
4.300000000000e+01 -8.000000000000e+00 0.0 
4.200000000000e+01 -8.000000000000e+00 0.0 
4.100000000000e+01 -8.000000000000e+00 0.0 
4.000000000000e+01 -8.000000000000e+00 0.0 
3.900000000000e+01 -8.000000000000e+00 0.0 
3.800000000000e+01 -8.000000000000e+00 0.0 
3.700000000000e+01 -8.000000000000e+00 0.0 
3.600000000000e+01 -8.000000000000e+00 0.0 
3.500000000000e+01 -8.000000000000e+00 0.0 
3.400000000000e+01 -8.000000000000e+00 0.0 
3.300000000000e+01 -8.000000000000e+00 0.0 
3.447058823527e+01 -9.000000000000e+00 0.0 
3.544117647055e+01 -9.000000000000e+00 0.0 
3.641176470582e+01 -9.000000000000e+00 0.0 
3.738235294109e+01 -9.000000000000e+00 0.0 
3.835294117637e+01 -9.000000000000e+00 0.0 
3.932352941164e+01 -9.000000000000e+00 0.0 
4.029411764691e+01 -9.000000000000e+00 0.0 
4.126470588219e+01 -9.000000000000e+00 0.0 
4.223529411748e+01 -9.000000000000e+00 0.0 
4.320588235279e+01 -9.000000000000e+00 0.0 
4.417647058811e+01 -9.000000000000e+00 0.0 
4.514705882342e+01 -9.000000000000e+00 0.0 
4.611764705874e+01 -9.000000000000e+00 0.0 
4.708823529405e+01 -9.000000000000e+00 0.0 
4.805882352937e+01 -9.000000000000e+00 0.0 
4.902941176468e+01 -9.000000000000e+00 0.0 
2.075000000000e+01 -5.000000000006e-01 0.0 
2.225000000000e+01 -1.500000000000e+00 0.0 
2.375000000000e+01 -2.500000000000e+00 0.0 
2.525000000000e+01 -3.500000000000e+00 0.0 
2.675000000000e+01 -4.500000000000e+00 0.0 
2.825000000000e+01 -5.500000000000e+00 0.0 
2.975000000000e+01 -6.500000000000e+00 0.0 
3.125000000000e+01 -7.500000000000e+00 0.0 
3.275000000000e+01 -8.500000000000e+00 0.0 
3.425000000000e+01 -9.500000000000e+00 0.0 
2.226951693683e+01 -2.403913980114e+00 0.0 
1.650149491944e+01 -1.913490915758e+01 0.0 
1.050042386896e+01 -8.504605092970e-01 0.0 
1.553146524712e+01 -8.281255032105e-01 0.0 
1.150000000008e+01 -1.913397459621e+01 0.0 
2.530060260647e+01 -4.428336431260e+00 0.0 
8.651114563942e-01 -1.052096295641e+01 0.0 
2.050000000013e+01 -1.913397459622e+01 0.0 
2.819198729811e+01 -6.399519052838e+00 0.0 
2.445670302931e+01 -1.915649188023e+01 0.0 
3.117591465718e+01 -8.394293040695e+00 0.0 
7.465053044742e+00 -1.920411160581e+01 0.0 
6.398295709691e+00 -8.230098819370e-01 0.0 
2.849659607461e+01 -1.914296187762e+01 0.0 
3.418732642882e+01 -1.040265792588e+01 0.0 
8.386450935063e-01 -6.533605142809e+00 0.0 
9.178661865596e-01 -1.329769195597e+01 0.0 
3.149448624493e+01 -1.910466733764e+01 0.0 
3.552916747426e+01 -1.914628590759e+01 0.0 
4.449210346537e+01 -1.914359085008e+01 0.0 
4.140975975145e+01 -1.906941860733e+01 0.0 
3.847475958753e+01 -1.916622382724e+01 0.0 
3.653774794640e+01 -1.088712800241e+01 0.0 
4.047886341787e+01 -1.090139014048e+01 0.0 
4.348006339825e+01 -1.092792621489e+01 0.0 
4.919519968029e+01 -1.451526755068e+01 0.0 
4.500000000032e+00 -1.913397459621e+01 0.0 
1.856136921614e+01 -8.212235170404e-01 0.0 
3.499895312306e+00 -8.661165539723e-01 0.0 
9.076088696565e-01 -1.642306201891e+01 0.0 
4.655174095477e+01 -1.086183387525e+01 0.0 
9.430688970604e-01 -3.496112672958e+00 0.0 
3.353992337063e+01 -1.901202090820e+01 0.0 
2.249746016977e+01 -1.921262287282e+01 0.0 
2.650122741777e+01 -1.916123026018e+01 0.0 
1.863571384842e+01 -1.908325534840e+01 0.0 
1.450089971693e+01 -1.917691901860e+01 0.0 
1.350044695317e+01 -8.659695299584e-01 0.0 
3.849987469880e+01 -1.084154983397e+01 0.0 
9.454419857884e+00 -1.900818879936e+01 0.0 
4.917398660523e+01 -1.645692866081e+01 0.0 
8.500000000000e+00 -8.660254037844e-01 0.0 
8.660319230785e-01 -8.500111697188e+00 0.0 
4.649022621545e+01 -1.930506220113e+01 0.0 
2.667688107845e+01 -5.420288124331e+00 0.0 
2.379251615665e+01 -3.412225477429e+00 0.0 
2.966631491830e+01 -7.389030232731e+00 0.0 
3.267915035995e+01 -9.396934932445e+00 0.0 
2.074836922338e+01 -1.320054020319e+00 0.0 
4.915985743621e+01 -1.261973384855e+01 0.0 
2.527129768623e+00 -1.931592414663e+01 0.0 
1.538676247410e+00 -8.436956619311e-01 0.0 
4.908096641539e+01 -1.842484004551e+01 0.0 
3.478612492673e+01 -1.090889364140e+01 0.0 
3.409757055860e+01 -1.131991530427e+01 0.0 
3.501895309466e+01 -1.177687842717e+01 0.0 
3.407758073088e+01 -1.224293381580e+01 0.0 
3.484541875390e+01 -1.277051428430e+01 0.0 
3.400322025842e+01 -1.319022775640e+01 0.0 
3.321672625034e+01 -1.266779191233e+01 0.0 
3.315244139236e+01 -1.360984106532e+01 0.0 
3.236335186892e+01 -1.308463225210e+01 0.0 
3.478337442841e+01 -1.372341158982e+01 0.0 
3.230105923633e+01 -1.403023731610e+01 0.0 
3.150954055289e+01 -1.350301767700e+01 0.0 
3.144604792090e+01 -1.444931742516e+01 0.0 
3.065653897123e+01 -1.392357262981e+01 0.0 
3.071897610812e+01 -1.297447031198e+01 0.0 
2.986790411740e+01 -1.339226181535e+01 0.0 
2.993181466745e+01 -1.244703272398e+01 0.0 
2.908023061869e+01 -1.286254537734e+01 0.0 
2.901619051372e+01 -1.380881655279e+01 0.0 
2.822986160390e+01 -1.327695262116e+01 0.0 
2.829453476870e+01 -1.233265343811e+01 0.0 
2.744542905518e+01 -1.274510491105e+01 0.0 
2.751120089246e+01 -1.180368086886e+01 0.0 
2.666218649885e+01 -1.221619339205e+01 0.0 
2.672371209234e+01 -1.127125228527e+01 0.0 
2.587763216302e+01 -1.168539979114e+01 0.0 
2.581165585299e+01 -1.262994410089e+01 0.0 
2.502890882577e+01 -1.209827323619e+01 0.0 
2.509631327757e+01 -1.115492410304e+01 0.0 
2.424662989877e+01 -1.156630981079e+01 0.0 
2.431704046904e+01 -1.062389179334e+01 0.0 
2.346445438728e+01 -1.103427680694e+01 0.0 
2.339382552877e+01 -1.197964871788e+01 0.0 
2.260936050780e+01 -1.144513277642e+01 0.0 
2.268075012022e+01 -1.049911928216e+01 0.0 
2.182525737661e+01 -1.090920811464e+01 0.0 
2.189682319817e+01 -9.961716944568e+00 0.0 
2.104174127792e+01 -1.037266986667e+01 0.0 
2.111304367575e+01 -9.424179358711e+00 0.0 
2.025306185381e+01 -9.832727364719e+00 0.0 
2.018141124247e+01 -1.079140628871e+01 0.0 
1.938594498257e+01 -1.025147354112e+01 0.0 
1.946106490453e+01 -9.288010758448e+00 0.0 
1.858929958352e+01 -9.706319802516e+00 0.0 
1.851540991219e+01 -1.067205988724e+01 0.0 
1.771485303178e+01 -1.012504443115e+01 0.0 
1.764134552256e+01 -1.109360378538e+01 0.0 
1.683745148095e+01 -1.054496365337e+01 0.0 
1.691852964353e+01 -9.582555261178e+00 0.0 
1.603603813062e+01 -1.000160132379e+01 0.0 
1.595824239350e+01 -1.096750698862e+01 0.0 
1.515080624291e+01 -1.041639501931e+01 0.0 
1.523171602559e+01 -9.451711491453e+00 0.0 
1.434621060709e+01 -9.871956467464e+00 0.0 
1.426777178765e+01 -1.083749501371e+01 0.0 
1.345775282374e+01 -1.028803175500e+01 0.0 
1.354103873368e+01 -9.324918457162e+00 0.0 
1.265072018622e+01 -9.742612837270e+00 0.0 
1.257285762070e+01 -1.071557782384e+01 0.0 
1.175874815690e+01 -1.015972324288e+01 0.0 
1.184203019714e+01 -9.193604071377e+00 0.0 
1.094927709905e+01 -9.612103238656e+00 0.0 
1.086938022910e+01 -1.058685085646e+01 0.0 
1.005424098961e+01 -1.002939116380e+01 0.0 
9.977974613295e+00 -1.101324897989e+01 0.0 
1.012915646404e+01 -9.051815821181e+00 0.0 
9.237127782494e+00 -9.471239055559e+00 0.0 
9.308426593771e+00 -8.483376461131e+00 0.0 
8.418806073345e+00 -8.910712374517e+00 0.0 
2.253688464062e+01 -1.239459402279e+01 0.0 
8.495126726666e+00 -7.921646665254e+00 0.0 
9.389727383206e+00 -7.512103628377e+00 0.0 
7.601560812974e+00 -8.349460349344e+00 0.0 
7.525680547759e+00 -9.339736686940e+00 0.0 
7.677888324502e+00 -7.359727833346e+00 0.0 
6.782001206724e+00 -7.788454494773e+00 0.0 
6.858778622885e+00 -6.797338062822e+00 0.0 
2.196596590865e+01 -8.979025665442e+00 0.0 
2.816540108272e+01 -1.422634142353e+01 0.0 
5.961601194403e+00 -7.226824010712e+00 0.0 
6.038171749656e+00 -6.234825887079e+00 0.0 
6.936257279557e+00 -5.805287640737e+00 0.0 
6.115068918323e+00 -5.242109758768e+00 0.0 
3.564391741903e+01 -1.329240553876e+01 0.0 
3.558115605778e+01 -1.425902892003e+01 0.0 
3.645445282201e+01 -1.381970786460e+01 0.0 
3.639744204358e+01 -1.479198128612e+01 0.0 
3.727266909778e+01 -1.435399586226e+01 0.0 
5.216667013081e+00 -5.671788584287e+00 0.0 
3.220697293295e+01 -1.499594545107e+01 0.0 
3.551112158269e+01 -1.523479869250e+01 0.0 
2.836056961467e+01 -1.139032434851e+01 0.0 
2.516730388602e+01 -1.021382726837e+01 0.0 
1.844436907403e+01 -1.164097215196e+01 0.0 
5.885434318740e+00 -8.218694781467e+00 0.0 
5.064071066867e+00 -7.656614643901e+00 0.0 
4.988089103470e+00 -8.649722082718e+00 0.0 
1.079421050408e+01 -1.157014985435e+01 0.0 
9.902420005256e+00 -1.199903342656e+01 0.0 
1.071994252214e+01 -1.255727909771e+01 0.0 
9.826974788171e+00 -1.298659581767e+01 0.0 
1.064607883789e+01 -1.354595476388e+01 0.0 
9.751541265343e+00 -1.397556905071e+01 0.0 
8.932296185869e+00 -1.341553353988e+01 0.0 
8.856399248106e+00 -1.440570715508e+01 0.0 
8.036186803543e+00 -1.384470558472e+01 0.0 
1.057112875118e+01 -1.453516759081e+01 0.0 
1.146582585687e+01 -1.410539926903e+01 0.0 
7.959894480382e+00 -1.483563350928e+01 0.0 
7.138792279156e+00 -1.427465094140e+01 0.0 
7.062506792418e+00 -1.526615385482e+01 0.0 
6.240693558277e+00 -1.470508863040e+01 0.0 
6.316957575451e+00 -1.371212581281e+01 0.0 
5.418183007107e+00 -1.414253605022e+01 0.0 
5.494748364428e+00 -1.314886770603e+01 0.0 
1.756825565873e+01 -1.206433872514e+01 0.0 
1.837565773345e+01 -1.261356468266e+01 0.0 
1.749574831391e+01 -1.303769280014e+01 0.0 
1.830539187332e+01 -1.358828364284e+01 0.0 
1.742278925170e+01 -1.401367746928e+01 0.0 
1.823303007798e+01 -1.456432294258e+01 0.0 
1.734941694138e+01 -1.499213734361e+01 0.0 
1.653760041637e+01 -1.443920312098e+01 0.0 
3.056237977307e+01 -1.487132260174e+01 0.0 
1.866469084762e+01 -8.742953000418e+00 0.0 
1.953669694916e+01 -8.326038909849e+00 0.0 
1.874194303780e+01 -7.780688158966e+00 0.0 
1.961032016741e+01 -7.366854697285e+00 0.0 
1.881715755159e+01 -6.821102209649e+00 0.0 
1.968369797150e+01 -6.407747217358e+00 0.0 
1.889237123259e+01 -5.858375520026e+00 0.0 
1.802038875366e+01 -6.276202618170e+00 0.0 
1.809793837984e+01 -5.307629520489e+00 0.0 
1.721985207997e+01 -5.728242054488e+00 0.0 
1.729850893523e+01 -4.756990819347e+00 0.0 
1.641745664240e+01 -5.174636548624e+00 0.0 
2.495978509456e+01 -1.304406404294e+01 0.0 
1.911567814831e+01 -1.413854250293e+01 0.0 
1.904387332608e+01 -1.511463127723e+01 0.0 
1.992115934240e+01 -1.468788025898e+01 0.0 
7.013706899628e+00 -4.812582868662e+00 0.0 
5.342091874585e+00 -1.513658157269e+01 0.0 
1.139098043784e+01 -1.509488509480e+01 0.0 
1.228151810610e+01 -1.465617481983e+01 0.0 
1.646373110164e+01 -1.541993323337e+01 0.0 
5.293328636712e+00 -4.678385108584e+00 0.0 
1.975965862987e+01 -5.448124345648e+00 0.0 
2.054318374236e+01 -5.992561293251e+00 0.0 
3.721453439063e+01 -1.533216152738e+01 0.0 
3.809302733893e+01 -1.489235527381e+01 0.0 
1.220852788900e+01 -1.565304565230e+01 0.0 
4.394120899730e+00 -5.108397613210e+00 0.0 
8.779354620288e+00 -1.539524721159e+01 0.0 
1.817791047702e+01 -4.338570146253e+00 0.0 
4.518860013839e+00 -1.457343189307e+01 0.0 
4.442712140414e+00 -1.556841391069e+01 0.0 
8.115343466391e+00 -1.285760324283e+01 0.0 
1.985334703171e+01 -1.566478400426e+01 0.0 
2.071953850276e+01 -1.522074243119e+01 0.0 
1.634012953883e+01 -6.154777738301e+00 0.0 
1.553479994708e+01 -5.593730508879e+00 0.0 
1.561265946942e+01 -4.617761762647e+00 0.0 
1.470674212978e+01 -5.064576488228e+00 0.0 
1.464498299883e+01 -6.026514471420e+00 0.0 
1.383271561817e+01 -5.467796261169e+00 0.0 
1.389241253067e+01 -4.504338666645e+00 0.0 
1.301868735463e+01 -4.907185188626e+00 0.0 
1.294514184846e+01 -5.888160903592e+00 0.0 
1.212955968622e+01 -5.328262335277e+00 0.0 
1.220721122383e+01 -4.341264976687e+00 0.0 
1.131324345897e+01 -4.766773516508e+00 0.0 
5.266597955397e+00 -1.613148974258e+01 0.0 
1.737805990867e+01 -3.786677807525e+00 0.0 
3.078438094513e+01 -1.203225297748e+01 0.0 
1.131569882285e+01 -1.608511932110e+01 0.0 
1.728478341782e+01 -1.596017432313e+01 0.0 
3.803465906019e+01 -1.587509751228e+01 0.0 
3.891681276677e+01 -1.543395196905e+01 0.0 
3.897340985302e+01 -1.444710288980e+01 0.0 
3.980095968193e+01 -1.499059496613e+01 0.0 
3.974334598189e+01 -1.597921884150e+01 0.0 
4.062964983717e+01 -1.553518690417e+01 0.0 
4.068729602479e+01 -1.454434445295e+01 0.0 
4.151772679790e+01 -1.508974196007e+01 0.0 
4.157505195739e+01 -1.409694289912e+01 0.0 
4.240699932656e+01 -1.464347955968e+01 0.0 
4.234898051011e+01 -1.563721375790e+01 0.0 
4.323934606035e+01 -1.519082036405e+01 0.0 
4.329740528208e+01 -1.419587509788e+01 0.0 
4.413056841369e+01 -1.474359631875e+01 0.0 
4.418850110108e+01 -1.374786684042e+01 0.0 
4.502219770667e+01 -1.429605103525e+01 0.0 
4.496411937907e+01 -1.529215882720e+01 0.0 
4.490027319897e+00 -4.154167794594e+00 0.0 
1.565080385988e+01 -1.486411982419e+01 0.0 
1.557610691279e+01 -1.584855627870e+01 0.0 
4.195350646612e+00 -8.089117689096e+00 0.0 
4.124027797830e+00 -9.082831955007e+00 0.0 
4.917944318925e+00 -9.643530901533e+00 0.0 
4.020105689502e+00 -1.007439673661e+01 0.0 
4.587185899277e+01 -1.484039992728e+01 0.0 
4.580078661551e+01 -1.584043391042e+01 0.0 
2.061956522375e+01 -5.046701343981e+00 0.0 
2.139572955529e+01 -5.579553449826e+00 0.0 
3.715344357292e+01 -1.631485124583e+01 0.0 
3.618886196443e+00 -1.500471207167e+01 0.0 
3.695606940204e+00 -1.400939692294e+01 0.0 
2.438890661143e+01 -9.686110599723e+00 0.0 
2.523267572778e+01 -9.276766000622e+00 0.0 
2.446094171539e+01 -8.751904591412e+00 0.0 
2.529089822738e+01 -8.321495612547e+00 0.0 
2.606882688827e+01 -8.864724051119e+00 0.0 
2.452116646430e+01 -7.792756462004e+00 0.0 
1.235543269617e+01 -1.365845617339e+01 0.0 
4.318116874181e+01 -1.618567469992e+01 0.0 
7.835066111909e+00 -5.376366223896e+00 0.0 
7.905687335704e+00 -4.382539065697e+00 0.0 
3.542640009567e+00 -1.600035116542e+01 0.0 
1.572431503071e+01 -1.388358386695e+01 0.0 
2.574684696680e+01 -1.357896141127e+01 0.0 
2.488842657651e+01 -1.399674354505e+01 0.0 
2.568301775611e+01 -1.453552048595e+01 0.0 
2.481535572009e+01 -1.495542756508e+01 0.0 
2.561729699688e+01 -1.549784648532e+01 0.0 
2.474623061296e+01 -1.592058894178e+01 0.0 
2.394234041695e+01 -1.537572575827e+01 0.0 
2.065825452567e+01 -1.621899055217e+01 0.0 
2.387180528935e+01 -1.634552264687e+01 0.0 
4.585364400844e+01 -1.383912334080e+01 0.0 
1.998744432052e+01 -1.370317155541e+01 0.0 
1.205356951443e+01 -6.313580285498e+00 0.0 
5.396543905849e+00 -3.731818611283e+00 0.0 
1.139652573295e+01 -3.745819399350e+00 0.0 
3.574124306703e+00 -4.551456826011e+00 0.0 
3.494140761930e+00 -5.539787055649e+00 0.0 
1.213651452413e+01 -1.664505033022e+01 0.0 
2.555045568519e+01 -1.646529356744e+01 0.0 
2.641671114986e+01 -1.603899382371e+01 0.0 
2.612920721894e+01 -7.906435260873e+00 0.0 
2.690339829698e+01 -8.456969591431e+00 0.0 
1.978024383368e+01 -1.664410216353e+01 0.0 
3.732829979082e+01 -1.336926601859e+01 0.0 
4.074336584605e+01 -1.355133328401e+01 0.0 
4.163204691081e+01 -1.310280943992e+01 0.0 
3.773826114429e+00 -3.493444309145e+00 0.0 
1.228783001032e+01 -3.374822835872e+00 0.0 
4.057110462520e+01 -1.652588478000e+01 0.0 
2.132535497898e+01 -6.523623360525e+00 0.0 
2.216932532211e+01 -6.110044769206e+00 0.0 
1.825781152128e+01 -3.370146817147e+00 0.0 
1.745679445888e+01 -2.812942552063e+00 0.0 
4.666517057280e+01 -1.539981381543e+01 0.0 
4.660575894464e+01 -1.639014410186e+01 0.0 
4.838230979954e+00 -1.063643436446e+01 0.0 
3.938942630206e+00 -1.106778981745e+01 0.0 
1.302967218620e+01 -1.621373452436e+01 0.0 
1.049548003190e+01 -4.204825123240e+00 0.0 
4.573571907195e+01 -1.683820511148e+01 0.0 
1.483686335807e+01 -1.430849689310e+01 0.0 
1.490982658890e+01 -1.332679386284e+01 0.0 
3.190805600162e+00 -9.510968358545e+00 0.0 
2.146625721848e+01 -4.642437303115e+00 0.0 
2.069866208266e+01 -4.111852942193e+00 0.0 
1.286859345584e+01 -6.873252723348e+00 0.0 
1.041794493184e+01 -5.194814260291e+00 0.0 
2.671081808965e+00 -4.976806516331e+00 0.0 
1.295786792925e+01 -1.720506531799e+01 0.0 
3.968438206511e+01 -1.696869067241e+01 0.0 
2.308550456051e+01 -1.579963151273e+01 0.0 
2.315593682844e+01 -1.482967445235e+01 0.0 
2.299471449450e+01 -1.677069968132e+01 0.0 
1.057344714696e+01 -3.214252277840e+00 0.0 
1.124057603753e+01 -1.707713739755e+01 0.0 
2.718402535754e+00 -1.543629882103e+01 0.0 
2.638549692805e+01 -1.696744916809e+01 0.0 
2.723416349007e+01 -1.658104204545e+01 0.0 
2.210193351704e+01 -7.046769643417e+00 0.0 
2.295180925161e+01 -6.657397605239e+00 0.0 
2.301355235833e+01 -5.709111896800e+00 0.0 
2.379052718281e+01 -6.254965406962e+00 0.0 
3.243528601237e+01 -1.214181853533e+01 0.0 
2.287977995457e+01 -7.583722368300e+00 0.0 
2.999876029544e+01 -1.150837653096e+01 0.0 
3.084435366963e+01 -1.109693775882e+01 0.0 
3.006650579669e+01 -1.057778994262e+01 0.0 
2.683802665066e+01 -9.386863216633e+00 0.0 
2.768641973621e+01 -8.988883915666e+00 0.0 
2.040296980397e+01 -7.903629133404e+00 0.0 
1.925235024054e+01 -1.218872783130e+01 0.0 
5.735667000424e+00 -1.020577277283e+01 0.0 
6.396559909872e+00 -1.272326295703e+01 0.0 
1.161199420714e+01 -1.212812778229e+01 0.0 
4.229046132615e+01 -1.663084237572e+01 0.0 
4.312275399692e+01 -1.718087491556e+01 0.0 
4.335502068163e+01 -1.320039231514e+01 0.0 
4.424630298089e+01 -1.275160688731e+01 0.0 
7.090116643816e+00 -3.818998061530e+00 0.0 
7.989472176569e+00 -3.389238711200e+00 0.0 
9.085824861778e+00 -1.144036167408e+01 0.0 
1.041972423731e+01 -1.651614080893e+01 0.0 
3.797525112640e+01 -1.686052038746e+01 0.0 
3.709114253394e+01 -1.730125999865e+01 0.0 
3.626966748340e+01 -1.675477052919e+01 0.0 
1.385164591440e+01 -1.677597757552e+01 0.0 
1.787152588784e+01 -8.198993896093e+00 0.0 
1.668849729812e+01 -1.248560611628e+01 0.0 
1.659546177905e+01 -3.232482605530e+00 0.0 
2.332214717345e+01 -1.292598167641e+01 0.0 
7.168238450786e+00 -2.824711686516e+00 0.0 
2.894878403906e+01 -1.475427524446e+01 0.0 
2.646763248247e+00 -1.643270107952e+01 0.0 
3.467431944285e+00 -1.699648837348e+01 0.0 
2.059475877282e+01 -1.719473628526e+01 0.0 
3.333868355437e+01 -1.080596971682e+01 0.0 
2.246451062637e+01 -1.334557761546e+01 0.0 
2.167821896388e+01 -1.280847834858e+01 0.0 
3.089653185767e+01 -1.017198487212e+01 0.0 
3.012604365669e+01 -9.657298805968e+00 0.0 
2.929627299435e+01 -1.006100135274e+01 0.0 
2.936201435219e+01 -9.136748899251e+00 0.0 
1.198219052702e+01 -7.291887238230e+00 0.0 
1.116702076035e+01 -6.731976101053e+00 0.0 
2.551388807505e+01 -1.746927036981e+01 0.0 
2.378639090370e+01 -1.728678807149e+01 0.0 
2.718543627188e+01 -1.748668016909e+01 0.0 
2.804681050301e+01 -1.712626668293e+01 0.0 
1.970737034667e+01 -1.762317646822e+01 0.0 
1.889535776135e+01 -1.707158098231e+01 0.0 
2.593777711283e+00 -5.971157087874e+00 0.0 
2.773468281110e+01 -8.067164273938e+00 0.0 
4.051205884347e+01 -1.751819982458e+01 0.0 
3.166903145421e+01 -1.068032992414e+01 0.0 
1.033042452886e+01 -1.748285844336e+01 0.0 
9.519274604626e+00 -1.694349240233e+01 0.0 
1.668308673328e+01 -2.255861778986e+00 0.0 
1.570531902832e+01 -2.676795860126e+00 0.0 
4.655826903379e+01 -1.736656245706e+01 0.0 
2.384148070773e+01 -5.328744256413e+00 0.0 
2.460255123641e+01 -5.852182672816e+00 0.0 
2.306638135119e+01 -4.798935440613e+00 0.0 
8.467720450578e-01 -1.849576263072e+01 0.0 
4.849657322345e+01 -1.084860705506e+01 0.0 
2.565860899507e+00 -1.742859793981e+01 0.0 
2.764418872564e+01 -9.927142821799e+00 0.0 
4.565165880064e+01 -1.785336695404e+01 0.0 
2.162231831329e+01 -1.376528337468e+01 0.0 
2.360646352969e+01 -9.136041963102e+00 0.0 
1.392738739903e+01 -1.578285505772e+01 0.0 
4.756405947478e+01 -1.683706841809e+01 0.0 
4.740895034054e+01 -1.793766756892e+01 0.0 
4.080779328826e+01 -1.257387192544e+01 0.0 
4.168907939671e+01 -1.210739129181e+01 0.0 
3.991197722154e+01 -1.300815793917e+01 0.0 
1.905536506762e+01 -3.940076697685e+00 0.0 
1.923879596617e+01 -2.875000734166e+00 0.0 
4.401386745746e+01 -1.673483229438e+01 0.0 
4.247233362525e+00 -7.094581653070e+00 0.0 
3.286051630211e+00 -7.635300020553e+00 0.0 
9.609533347623e+00 -4.594311677967e+00 0.0 
9.523554636369e+00 -5.595597029530e+00 0.0 
5.660336628893e+00 -1.119290329628e+01 0.0 
6.558070063295e+00 -1.076385809362e+01 0.0 
2.809866407414e+01 -1.518037766799e+01 0.0 
2.888868674504e+01 -1.570360690070e+01 0.0 
2.654431550819e+01 -1.411217777162e+01 0.0 
1.402158265969e+01 -1.375404617952e+01 0.0 
1.409592494026e+01 -1.277071998942e+01 0.0 
1.499355196178e+01 -1.235270737023e+01 0.0 
4.221535326155e+01 -1.759335617494e+01 0.0 
4.305583287033e+01 -1.822663146802e+01 0.0 
1.280748808359e+01 -7.834332838285e+00 0.0 
1.368988389326e+01 -7.420529606172e+00 0.0 
1.110091796060e+01 -7.683966794328e+00 0.0 
3.963446145980e+01 -1.794331310122e+01 0.0 
3.423932362213e+00 -1.796415590455e+01 0.0 
4.280814572302e+00 -1.752272834860e+01 0.0 
8.050136380041e+00 -2.421582378631e+00 0.0 
8.888674091650e+00 -2.984264211327e+00 0.0 
2.152839430898e+01 -3.732609965436e+00 0.0 
2.077799585292e+01 -3.183896021866e+00 0.0 
3.618719395821e+01 -1.770276572576e+01 0.0 
3.538165138340e+01 -1.718709995539e+01 0.0 
3.702925326420e+01 -1.828844288807e+01 0.0 
1.756739438711e+00 -5.353284859169e+00 0.0 
2.233710191104e+01 -1.527265621324e+01 0.0 
1.389483555057e+01 -1.771797164730e+01 0.0 
1.475634224300e+01 -1.728357428390e+01 0.0 
1.298797563052e+01 -1.825968924755e+01 0.0 
2.145331271866e+01 -1.673705379077e+01 0.0 
2.133282821169e+01 -1.769400773673e+01 0.0 
2.292139194136e+01 -1.774915400288e+01 0.0 
1.750750053243e+01 -1.861475593469e+00 0.0 
4.830478841772e+01 -1.752611802221e+01 0.0 
4.341203507805e+01 -1.220326745522e+01 0.0 
1.685254151866e+01 -1.443085301632e+00 0.0 
4.431538535165e+01 -1.171841387375e+01 0.0 
4.511308610496e+01 -1.229557320599e+01 0.0 
4.510133242889e+01 -1.123680627466e+01 0.0 
1.846818030617e+00 -4.410877617069e+00 0.0 
3.995468694584e+01 -1.186571542989e+01 0.0 
3.901387459804e+01 -1.242507616755e+01 0.0 
8.966735877533e+00 -1.837818700423e+00 0.0 
4.049310011091e+01 -1.848269508791e+01 0.0 
7.278862053803e+00 -1.918523922691e+00 0.0 
6.429715522129e+00 -2.316676521184e+00 0.0 
9.443505505022e+00 -1.792198868094e+01 0.0 
8.620386951051e+00 -1.737590365556e+01 0.0 
8.571868171503e+00 -1.834436667826e+01 0.0 
7.758629848526e+00 -1.775677907213e+01 0.0 
7.806648388584e+00 -1.680761266021e+01 0.0 
6.908555145436e+00 -1.723746463044e+01 0.0 
4.251709122090e+01 -1.156937480156e+01 0.0 
6.931136405615e+00 -1.832465719263e+01 0.0 
6.015545461353e+00 -1.768865355295e+01 0.0 
5.960535926343e+00 -1.872011001764e+01 0.0 
3.023253444786e+01 -8.761960642196e+00 0.0 
2.454622702599e+01 -6.749421992767e+00 0.0 
2.537499741604e+01 -6.347634963783e+00 0.0 
2.544077378460e+01 -5.431358513649e+00 0.0 
2.801367161747e+01 -1.820907270221e+01 0.0 
2.884507806914e+01 -1.762032095326e+01 0.0 
1.821474531936e+00 -1.588901260460e+01 0.0 
1.821006262604e+00 -1.489370287756e+01 0.0 
4.599962488908e+01 -1.176478780598e+01 0.0 
4.705457470007e+01 -1.172182804229e+01 0.0 
4.667668314802e+01 -1.263464558483e+01 0.0 
4.759648056504e+01 -1.252380987933e+01 0.0 
4.728041618103e+01 -1.341928568376e+01 0.0 
4.825209352360e+01 -1.330491640804e+01 0.0 
4.778118233428e+01 -1.420151961695e+01 0.0 
2.388192727579e+01 -1.826934810142e+01 0.0 
2.381714684947e+01 -4.385917965223e+00 0.0 
3.172733219247e+01 -9.758744265248e+00 0.0 
1.882012070658e+01 -1.805540597212e+01 0.0 
1.805667505243e+01 -1.742221226236e+01 0.0 
2.852599958080e+01 -8.597196079481e+00 0.0 
2.856486123437e+01 -7.661382718527e+00 0.0 
1.111792842875e+01 -1.818223852980e+01 0.0 
2.203322722466e+01 -7.986646678802e+00 0.0 
3.955703676900e+01 -1.903246763601e+01 0.0 
1.944842206513e+01 -8.038750575182e-01 0.0 
1.909882767783e+01 -1.746322740933e+00 0.0 
2.281147422941e+01 -8.525912918334e+00 0.0 
2.850633001468e+01 -9.533271335986e+00 0.0 
2.532883344309e+01 -7.308951659710e+00 0.0 
2.620475466461e+01 -6.979208585400e+00 0.0 
1.396278270396e+01 -1.475095389807e+01 0.0 
9.791001166724e+00 -2.554159793552e+00 0.0 
2.229293380421e+01 -4.269762271052e+00 0.0 
4.677238984118e+01 -1.430071795514e+01 0.0 
2.228658385918e+01 -3.344747535984e+00 0.0 
8.940223674553e-01 -1.543595733415e+01 0.0 
2.118566862474e+01 -8.435876987696e+00 0.0 
2.678325936437e+01 -1.032621195706e+01 0.0 
2.223400220487e+01 -5.179046761770e+00 0.0 
2.375370625384e+01 -7.251580562134e+00 0.0 
3.156971327386e+01 -1.255534750737e+01 0.0 
3.328226391312e+01 -1.172914813316e+01 0.0 
3.250948774219e+01 -1.120157009348e+01 0.0 
2.032993445717e+01 -8.867880112202e+00 0.0 
2.697226974856e+01 -7.536633082045e+00 0.0 
2.707377810386e+01 -6.590835263295e+00 0.0 
2.914099246827e+01 -1.191678458549e+01 0.0 
3.544824072239e+01 -1.621126558525e+01 0.0 
3.456511855436e+01 -1.665054783843e+01 0.0 
3.448395810225e+01 -1.759117813016e+01 0.0 
3.368378673938e+01 -1.708037781328e+01 0.0 
3.375560452567e+01 -1.610973066913e+01 0.0 
3.288001547988e+01 -1.654324255651e+01 0.0 
3.282475929147e+01 -1.749725654692e+01 0.0 
3.199880906313e+01 -1.697294088625e+01 0.0 
3.197001272932e+01 -1.811667776864e+01 0.0 
3.111884713021e+01 -1.742166785755e+01 0.0 
3.120418962865e+01 -1.642155709385e+01 0.0 
3.034666704371e+01 -1.683123833816e+01 0.0 
3.026224379976e+01 -1.772592851714e+01 0.0 
3.046632362943e+01 -1.582232843075e+01 0.0 
1.961344017324e+01 -1.857459447985e+01 0.0 
2.274975894774e+01 -9.532738811922e+00 0.0 
1.833923246887e+01 -2.396746883672e+00 0.0 
1.988859500848e+01 -2.249244376594e+00 0.0 
2.758045562861e+01 -1.086434261689e+01 0.0 
3.247300178163e+01 -1.909930104252e+01 0.0 
3.461947482503e+01 -1.911879848019e+01 0.0 
2.047161538662e+01 -6.941478180358e+00 0.0 
2.750230940214e+01 -1.915490590764e+01 0.0 
3.165081350803e+01 -1.161860780120e+01 0.0 
1.897456727641e+01 -4.889634688522e+00 0.0 
2.549338539756e+01 -1.914858252089e+01 0.0 
3.462873135081e+01 -1.567482276144e+01 0.0 
3.384432415243e+01 -1.512280684518e+01 0.0 
3.471433767690e+01 -1.469086942990e+01 0.0 
3.651470373046e+01 -1.918207952149e+01 0.0 
3.901742690249e+01 -1.345028556517e+01 0.0 
2.153224102692e+01 -1.920169709333e+01 0.0 
1.918382939341e+01 -1.316226275662e+01 0.0 
2.005389162382e+01 -1.271962165174e+01 0.0 
2.011472087878e+01 -1.175029352900e+01 0.0 
3.210679478412e+01 -1.598038618242e+01 0.0 
1.752175226543e+01 -1.914713022656e+01 0.0 
1.696897240059e+01 -1.832772588765e+01 0.0 
1.599682523337e+01 -1.832599992024e+01 0.0 
1.644507199462e+01 -1.743697981535e+01 0.0 
1.549987712903e+01 -1.915192375101e+01 0.0 
3.050250861901e+01 -1.918943550234e+01 0.0 
2.949944061527e+01 -1.922950455235e+01 0.0 
1.375892575273e+01 -6.447160534926e+00 0.0 
1.457223670180e+01 -7.006709243857e+00 0.0 
1.450818793236e+01 -7.965943451779e+00 0.0 
1.538804712402e+01 -7.553409623699e+00 0.0 
1.545817644768e+01 -6.580929593419e+00 0.0 
1.626506893751e+01 -7.129032608911e+00 0.0 
1.619833811522e+01 -8.086588580887e+00 0.0 
1.714448609609e+01 -6.697429609777e+00 0.0 
2.887616543568e+01 -1.668015232137e+01 0.0 
1.349814589130e+01 -1.918225301544e+01 0.0 
1.153887772210e+01 -1.311384581217e+01 0.0 
1.242708159886e+01 -1.267046795531e+01 0.0 
1.249799674267e+01 -1.169005616014e+01 0.0 
6.631723893693e+00 -9.774184881867e+00 0.0 
7.451471631867e+00 -1.033148796006e+01 0.0 
7.377795355458e+00 -1.132196345268e+01 0.0 
5.810931797536e+00 -9.211654212252e+00 0.0 
2.402683899133e+01 -1.441378562320e+01 0.0 
1.249768692036e+01 -1.917388426624e+01 0.0 
1.580373499437e+01 -1.290751860664e+01 0.0 
8.344650507834e+00 -9.898403995170e+00 0.0 
3.750622115305e+01 -1.086526401533e+01 0.0 
3.699391251667e+01 -1.171695900794e+01 0.0 
3.606517829518e+01 -1.173717504500e+01 0.0 
3.650257641795e+01 -1.270047380221e+01 0.0 
3.808951488918e+01 -1.183518714175e+01 0.0 
4.760380962420e+00 -1.162484888315e+01 0.0 
3.861210370848e+00 -1.205657631736e+01 0.0 
3.038284309476e+00 -1.149851280664e+01 0.0 
2.961598794889e+00 -1.248856794980e+01 0.0 
2.138953225512e+00 -1.193212674534e+01 0.0 
2.227383593457e+00 -1.096258903918e+01 0.0 
2.043265419276e+00 -1.292158472959e+01 0.0 
1.252449446028e+00 -1.225502002753e+01 0.0 
3.949985210740e+01 -1.086594001795e+01 0.0 
1.453499444792e+01 -8.768805922472e-01 0.0 
1.403518950933e+01 -1.749965556633e+00 0.0 
1.300715031023e+01 -1.714737233040e+00 0.0 
1.350929389899e+01 -2.527443911291e+00 0.0 
1.449600910711e+01 -2.595486162864e+00 0.0 
1.395693872901e+01 -3.484211041558e+00 0.0 
1.495105865208e+01 -3.364609636216e+00 0.0 
1.508822528740e+01 -1.766586020494e+00 0.0 
1.250223858430e+01 -8.634590186802e-01 0.0 
1.200279523409e+01 -1.709044504992e+00 0.0 
1.150086239419e+01 -8.592789190668e-01 0.0 
1.101482754194e+01 -1.677730591922e+00 0.0 
1.148018564526e+01 -2.659323866909e+00 0.0 
8.800552119754e+00 -3.989875954728e+00 0.0 
3.452790439430e+00 -1.901136170646e+01 0.0 
8.658451825200e-01 -9.503462241795e+00 0.0 
1.694787786797e+00 -9.000589234502e+00 0.0 
1.703436717094e+00 -8.038819004041e+00 0.0 
2.594197971110e+00 -8.563955242845e+00 0.0 
1.630513735412e+00 -9.907244747511e+00 0.0 
8.566859292791e-01 -7.512203837972e+00 0.0 
1.685461277022e+00 -7.164280248030e+00 0.0 
2.506394468801e+00 -8.623386730818e-01 0.0 
2.007475081581e+00 -1.727729545205e+00 0.0 
9.211534699767e-01 -1.628791366312e+00 0.0 
1.500000000020e+00 -2.598063549486e+00 0.0 
2.482078929963e+00 -2.553580088725e+00 0.0 
2.999795253092e+00 -1.732169015019e+00 0.0 
3.999712607169e+00 -1.728832897453e+00 0.0 
4.499752199340e+00 -8.656478679175e-01 0.0 
4.964377774841e+00 -1.730129617941e+00 0.0 
4.425017908337e+00 -2.597541756243e+00 0.0 
5.446573195014e+00 -8.410144840023e-01 0.0 
4.915722346614e+01 -1.550640962770e+01 0.0 
4.826794919243e+01 -1.600000000000e+01 0.0 
1.053139533193e+01 -1.911782884365e+01 0.0 
4.156049861949e+01 -1.095160998589e+01 0.0 
9.494526624416e+00 -8.650570090219e-01 0.0 
4.555762166964e+01 -1.897098103585e+01 0.0 
4.250656411371e+01 -1.914387356218e+01 0.0 
4.350906466345e+01 -1.917234727395e+01 0.0 
8.759665722424e-01 -1.746422130609e+01 0.0 
1.698936011838e+00 -1.795012186674e+01 0.0 
4.742476811029e+01 -1.900090177972e+01 0.0 
7.749196752349e+00 -6.368049313489e+00 0.0 
3.361572113416e+01 -1.798765193915e+01 0.0 
4.484660149212e+01 -1.728661231383e+01 0.0 
1.984038172228e+01 -4.502575320116e+00 0.0 
1.035080352627e+01 -6.166639575753e+00 0.0 
2.753558010652e+00 -1.444909521181e+01 0.0 
7.217069543032e+00 -1.328635391078e+01 0.0 
4.364336727739e+00 -1.655585677381e+01 0.0 
4.595208426108e+00 -1.357919665443e+01 0.0 
6.164967006980e+00 -1.569873454630e+01 0.0 
1.487855768353e+01 -1.826523774028e+01 0.0 
2.791876456372e+00 -4.019632415181e+00 0.0 
4.246464893515e+01 -1.364898659620e+01 0.0 
4.503855590351e+01 -1.329552780944e+01 0.0 
4.407239109604e+01 -1.573900004093e+01 0.0 
5.141054449252e+00 -6.664290382472e+00 0.0 
3.141083947149e+00 -1.055790764912e+01 0.0 
6.196463198741e+00 -4.256497932609e+00 0.0 
2.599618716181e+01 -1.836893455464e+01 0.0 
2.923057372337e+01 -1.098461757645e+01 0.0 
1.168343877486e+01 -1.114079645041e+01 0.0 
6.706222096238e+00 -8.780364234441e+00 0.0 
8.567858614669e+00 -6.943121440850e+00 0.0 
1.123755132901e+01 -5.753525820030e+00 0.0 
2.353456234423e+01 -1.008536320953e+01 0.0 
9.162073319168e+00 -1.045593739109e+01 0.0 
9.676343469685e+00 -1.496493008366e+01 0.0 
4.490637882905e+01 -1.628778970202e+01 0.0 
7.398129387772e+00 -9.639977982323e-01 0.0 
1.049641705805e+01 -1.552503975272e+01 0.0 
9.010356286268e+00 -1.242805042052e+01 0.0 
3.985573925497e+01 -1.399863651620e+01 0.0 
1.816196318262e+01 -1.554066497931e+01 0.0 
1.306332244168e+01 -3.963646550326e+00 0.0 
4.145850903932e+01 -1.608094559275e+01 0.0 
3.794664933633e+01 -1.779020121986e+01 0.0 
3.819614412903e+01 -1.290749321016e+01 0.0 
6.270014188119e+00 -3.255093186826e+00 0.0 
4.251165370388e+01 -1.263870364997e+01 0.0 
1.207347709171e+01 -1.763942826023e+01 0.0 
3.633240829927e+01 -1.577330481104e+01 0.0 
4.319052668832e+00 -6.101812561904e+00 0.0 
1.676492415806e+01 -1.151547901392e+01 0.0 
2.594059220037e+01 -1.074225223009e+01 0.0 
3.340750911501e+01 -9.898764354137e+00 0.0 
4.397619591281e+01 -1.769773736461e+01 0.0 
2.175611595028e+01 -1.185718747128e+01 0.0 
1.641818733106e+01 -1.640685203215e+01 0.0 
1.661211421753e+01 -1.346121366338e+01 0.0 
3.428853504935e+00 -6.551993389271e+00 0.0 
8.700728832502e+00 -1.638460872825e+01 0.0 
1.931369795309e+01 -1.121629383702e+01 0.0 
4.139798872363e+01 -1.706922153459e+01 0.0 
2.647837478700e+01 -1.507353829290e+01 0.0 
1.779469616424e+01 -9.161615782908e+00 0.0 
3.885879219319e+01 -1.642026488918e+01 0.0 
1.338194936770e+01 -1.125916521471e+01 0.0 
1.897071181111e+01 -1.609204322578e+01 0.0 
2.844308548793e+01 -1.046221003096e+01 0.0 
2.659854702194e+01 -1.316109415760e+01 0.0 
2.979604503271e+01 -1.433296157755e+01 0.0 
2.417694041347e+01 -1.251231397779e+01 0.0 
1.807401327411e+00 -1.388891148480e+01 0.0 
9.599810618782e+00 -1.595439365034e+01 0.0 
1.652144692160e+01 -4.205392788472e+00 0.0 
2.367839450246e+01 -8.188385218643e+00 0.0 
3.814894930468e+01 -1.390748338767e+01 0.0 
2.466448215774e+01 -1.685878545680e+01 0.0 
4.134044524611e+01 -1.806610045954e+01 0.0 
2.600511411958e+01 -9.801774120648e+00 0.0 
7.882158050716e+00 -1.582364037353e+01 0.0 
3.881607873422e+01 -1.737970515013e+01 0.0 
8.270182347708e+00 -1.088622154920e+01 0.0 
8.672520392520e-01 -4.532984309881e+00 0.0 
1.993447205337e+01 -3.579061902667e+00 0.0 
1.794616079549e+01 -7.238038888498e+00 0.0 
2.097277068165e+01 -1.132450168636e+01 0.0 
8.194803300681e+00 -1.187214224265e+01 0.0 
3.522279404911e+01 -1.823342818178e+01 0.0 
6.984481050295e+00 -1.625271465557e+01 0.0 
1.309433007797e+01 -1.521718594215e+01 0.0 
2.150246167611e+01 -1.885399038185e+00 0.0 
3.250689370209e+01 -1.028789870535e+01 0.0 
6.085886272238e+00 -1.668342132851e+01 0.0 
1.588455661727e+01 -1.193498985921e+01 0.0 
1.809323400821e+01 -1.651110084195e+01 0.0 
1.348885082381e+00 -1.136065576512e+01 0.0 
2.497670221995e+01 -1.834631276173e+01 0.0 
2.937062818424e+01 -8.233711194470e+00 0.0 
5.185823744469e+00 -1.711566910207e+01 0.0 
1.477497877209e+01 -1.530177014512e+01 0.0 
2.125346158933e+01 -7.473003997367e+00 0.0 
4.751561118290e+01 -1.084897772632e+01 0.0 
5.056026576843e+00 -1.825750475525e+01 0.0 
1.473948554523e+01 -1.634577436309e+01 0.0 
2.410566630936e+01 -1.345970002612e+01 0.0 
1.507337507513e+01 -1.138527895328e+01 0.0 
3.189857338687e+01 -8.887781229006e+00 0.0 
7.298712468334e+00 -1.230231046246e+01 0.0 
2.738235495295e+01 -1.368931690364e+01 0.0 
3.750141041969e+01 -1.920449893070e+01 0.0 
1.557271965640e+01 -1.683317951731e+01 0.0 
3.393731848929e+01 -1.413034777044e+01 0.0 
6.482156824153e+00 -1.174575135362e+01 0.0 
2.077971718439e+01 -1.421279621836e+01 0.0 
3.455084320178e+00 -2.562590040585e+00 0.0 
3.099056096250e+01 -9.270280416035e+00 0.0 
5.580176125418e+00 -1.217387969259e+01 0.0 
1.707247630389e+01 -7.660651981710e+00 0.0 
1.418658814174e+01 -1.180390575393e+01 0.0 
2.049103025389e+01 -1.811296706038e+01 0.0 
4.680386172316e+00 -1.260396879301e+01 0.0 
1.699679896554e+01 -8.624561788199e+00 0.0 
3.779470168555e+00 -1.303424899720e+01 0.0 
3.036589870126e+01 -7.879832518349e+00 0.0 
3.306993001774e+01 -1.457671062095e+01 0.0 
2.840150110165e+00 -1.346530088269e+01 0.0 
2.732011135052e+01 -1.464591214560e+01 0.0 
5.423639259568e+00 -2.659711955016e+00 0.0 
2.324455961696e+01 -1.387269388211e+01 0.0 
1.752768355571e+00 -1.693128613594e+01 0.0 
1.020244783051e+01 -8.076834012808e+00 0.0 
1.330873875224e+01 -1.222417528206e+01 0.0 
3.297727364880e+01 -1.555480372087e+01 0.0 
2.890929955439e+01 -6.868664170731e+00 0.0 
1.323294664622e+01 -1.320754260334e+01 0.0 
2.726532861246e+01 -1.560593120806e+01 0.0 
2.240020643398e+01 -1.429299177247e+01 0.0 
2.090445823633e+01 -1.228128621332e+01 0.0 
1.315809881502e+01 -1.420739326938e+01 0.0 
2.781328038068e+01 -7.181956082300e+00 0.0 
8.614200829057e+00 -5.936933226306e+00 0.0 
8.714765730069e+00 -4.979270529687e+00 0.0 
1.611881701099e+01 -9.041973294003e+00 0.0 
2.806830314340e+01 -1.614622947108e+01 0.0 
2.084435391396e+00 -3.385085422913e+00 0.0 
3.133211811152e+01 -1.542347619750e+01 0.0 
9.693114650768e+00 -3.590281506442e+00 0.0 
1.531883592202e+01 -8.504584946143e+00 0.0 
2.151589117094e+01 -1.578915763018e+01 0.0 
4.918943882696e+01 -1.355538828056e+01 0.0 
1.443236615188e+01 -8.918701794549e+00 0.0 
8.276250966452e-01 -5.537685192197e+00 0.0 
1.362790867918e+01 -8.374718262212e+00 0.0 
2.083767477370e+01 -1.324843956035e+01 0.0 
1.273834678703e+01 -8.790890389337e+00 0.0 
1.192275845670e+01 -8.242261327467e+00 0.0 
4.477236023583e+01 -1.824312396664e+01 0.0 
1.102989384254e+01 -8.649855800911e+00 0.0 
4.849096516045e+01 -1.917293752213e+01 0.0 
1.588996752238e+00 -1.910230934687e+01 0.0 
4.904245197583e+01 -1.159839008158e+01 0.0 
2.753852929608e+01 -5.782128488093e+00 0.0 
1.756133602833e+01 -8.306130313187e-01 0.0 
2.615423700951e+01 -6.153865090092e+00 0.0 
1.028818761294e+01 -7.122020845892e+00 0.0 
2.970818901196e+01 -1.527821347593e+01 0.0 
4.801461623449e+01 -1.164472570985e+01 0.0 
9.455722100419e+00 -6.546069291118e+00 0.0 
3.089099236677e+01 -1.835339328261e+01 0.0 
2.350000000013e+01 -1.920825896750e+01 0.0 
4.830620531887e+01 -1.506626155470e+01 0.0 
1.725381944701e+01 -1.688794487850e+01 0.0 
2.156246225273e+01 -1.475893794002e+01 0.0 
4.919319648787e+01 -1.742767505896e+01 0.0 
4.437935623576e+01 -1.077662927266e+01 0.0 
1.001520521978e+01 -1.652692675208e+00 0.0 
9.067160240050e-01 -1.441937727541e+01 0.0 
2.603365149390e+01 -4.755996613848e+00 0.0 
2.458344439002e+01 -4.873645517696e+00 0.0 
2.304312390142e+01 -3.836552768096e+00 0.0 
2.546923202198e+00 -6.902480355749e+00 0.0 
1.251534969393e+01 -2.490989965776e+00 0.0 
2.454061833377e+01 -3.933354231935e+00 0.0 
1.788186558740e+01 -1.827424884923e+01 0.0 
4.090785243552e+01 -1.166553231904e+01 0.0 
2.230128851568e+01 -1.623015738726e+01 0.0 
2.302362347568e+01 -2.916239960270e+00 0.0 
3.878119254461e+01 -1.830091164002e+01 0.0 
2.210081359958e+01 -1.829238229150e+01 0.0 
8.443704882233e+00 -1.921993252862e+01 0.0 
2.218405824691e+01 -1.724557581508e+01 0.0 
2.151157503963e+01 -2.790636689331e+00 0.0 
3.741658958955e+01 -1.250400191722e+01 0.0 
2.697247663737e+01 -1.838290202309e+01 0.0 
4.743362342862e+01 -1.585850773010e+01 0.0 
6.671345075358e+00 -1.924977576322e+01 0.0 
3.900825404537e+01 -1.157220003875e+01 0.0 
4.649692961375e+01 -1.836335837481e+01 0.0 
1.578831424832e+01 -3.678284023361e+00 0.0 
4.814208768888e+01 -1.841249298770e+01 0.0 
2.964123298315e+01 -1.625739458193e+01 0.0 
4.580760351902e+01 -1.284294554687e+01 0.0 
3.561520879615e+01 -1.245548941949e+01 0.0 
2.555418095658e+00 -1.841101588290e+01 0.0 
3.288468366144e+01 -1.834258164109e+01 0.0 
2.065894391445e+01 -2.240688571739e+00 0.0 
4.739171429915e+01 -1.496536413446e+01 0.0 
3.478086729185e+00 -8.576434653209e+00 0.0 
1.606010630246e+01 -1.588421807951e+00 0.0 
1.018329200594e+01 -1.834320874317e+01 0.0 
2.957213339430e+01 -1.720496954591e+01 0.0 
4.142712790164e+00 -1.837794506222e+01 0.0 
6.698721532573e-01 -2.499999999997e+00 0.0 
8.037039123140e+00 -1.571229354954e+00 0.0 
1.203541361428e+01 -1.847784298001e+01 0.0 
2.899968332038e+01 -1.848264722179e+01 0.0 
1.469229460948e+01 -4.219485753730e+00 0.0 
4.049590781957e+01 -1.932812501995e+01 0.0 
1.996211678340e+01 -1.506329754720e+00 0.0 
4.250588298353e+01 -1.067383247529e+01 0.0 
5.831497011152e+00 -1.635396227234e+00 0.0 
5.317606125670e+00 -1.923927974868e+01 0.0 
4.208546426993e+01 -1.842830665025e+01 0.0 
2.327553405011e+00 -9.459409929662e+00 0.0 
3.568351902251e+01 -1.096637218582e+01 0.0 
1.682104374890e+00 -6.231413350963e+00 0.0 
2.451812238018e+01 -1.766524914339e+01 0.0 
1.058003429638e+01 -2.391839617098e+00 0.0 
4.399988753123e+01 -1.851998776342e+01 0.0 
1.400000000010e+01 -1.852293523028e+01 0.0 
3.604719565984e+01 -1.850662876800e+01 0.0 
1.951297136734e+01 -1.938092349694e+01 0.0 
1.821365318472e+01 -1.531276353287e+00 0.0 
2.298031859732e+01 -1.854635324722e+01 0.0 
1.552168066204e+01 -1.764280741977e+01 0.0 
4.572957713638e+01 -1.073347898229e+01 0.0 
3.429637429624e+01 -1.838861552790e+01 0.0 
2.427434426052e+00 -7.705577451869e+00 0.0 
4.662792031485e+00 -3.359424455416e+00 0.0 
4.926794919243e+01 -1.926794919243e+01 0.0 
7.320508075690e-01 -7.320508075688e-01 0.0 
4.926794919243e+01 -1.073205080757e+01 0.0 
7.320508075705e-01 -1.926794919243e+01 0.0 
2.917460242467e+00 -3.202866455310e+00 0.0 
4.838200575963e+01 -1.232674147454e+01 0.0 
2.998445708009e+01 -1.854403752148e+01 0.0 
5.949940090766e-01 -1.152762038165e+01 0.0 
4.844763495759e+01 -1.678092548787e+01 0.0 
1.301685480160e+01 -3.170056592566e+00 0.0 
1.650046335855e+01 -6.731535384067e-01 0.0 
4.854881540991e+01 -1.405224059779e+01 0.0 
2.119545114693e+01 -1.846813384545e+01 0.0 
3.797852849897e+01 -1.857978513215e+01 0.0 
4.649823708745e+01 -1.338351810816e+01 0.0 
2.012685900976e+01 -2.889659035009e+00 0.0 
2.953271913273e+01 -1.791558075192e+01 0.0 
2.408509097292e+00 -1.021949208421e+01 0.0 
2.642589566221e+01 -1.773216561448e+01 0.0 
1.730010270775e+01 -1.763165076721e+01 0.0 
2.017406551304e+01 -8.513536440582e-01 0.0 
5.254761581934e-01 -1.249999999999e+01 0.0 
6.640448215642e+00 -1.545337834885e+00 0.0 
7.843361506349e+00 -1.852719839527e+01 0.0 
1.588442191088e+00 -1.066158564320e+01 0.0 
2.131250000000e+01 -4.209183673460e-01 0.0 
4.950862068966e+01 -5.000000000001e-01 0.0 
2.280866189488e+01 -1.416779325160e+00 0.0 
4.950862068966e+01 -1.500000000000e+00 0.0 
2.431250000000e+01 -2.420918367347e+00 0.0 
4.950961538461e+01 -2.500000000000e+00 0.0 
2.580823483239e+01 -3.416278049680e+00 0.0 
4.950961538461e+01 -3.500000000000e+00 0.0 
2.731250000000e+01 -4.420918367347e+00 0.0 
4.951086956522e+01 -4.500000000000e+00 0.0 
2.880770112393e+01 -5.415638864241e+00 0.0 
4.951086956522e+01 -5.500000000000e+00 0.0 
3.031250000000e+01 -6.420918367347e+00 0.0 
4.951250000000e+01 -6.500000000000e+00 0.0 
3.180701530612e+01 -7.414795918363e+00 0.0 
4.951250000000e+01 -7.500000000000e+00 0.0 
3.331250000000e+01 -8.420918367347e+00 0.0 
4.951470588234e+01 -8.500000000000e+00 0.0 
3.480610198624e+01 -9.413633635267e+00 0.0 
4.951470588234e+01 -9.500000000000e+00 0.0 

SCALARS node_number int
LOOKUP_TABLE default
1
2
3
4
5
6
7
8
9
10
11
12
13
14
15
16
17
18
19
20
21
22
23
24
25
26
27
28
29
30
31
32
33
34
35
36
37
38
39
40
41
42
43
44
45
46
47
48
49
50
51
52
53
54
55
56
57
58
59
60
61
62
63
64
65
66
67
68
69
70
71
72
73
74
75
76
77
78
79
80
81
82
83
84
85
86
87
88
89
90
91
92
93
94
95
96
97
98
99
100
101
102
104
105
106
107
108
109
110
111
112
113
114
115
116
117
118
119
120
121
122
123
124
125
126
127
128
129
130
131
132
133
134
135
136
137
138
139
140
141
142
143
144
145
146
147
148
149
150
151
152
153
154
155
156
157
158
159
160
161
162
163
164
165
166
167
168
169
170
171
172
173
174
175
176
177
178
179
180
181
182
183
184
185
186
187
188
189
190
191
192
193
194
195
196
197
198
199
200
201
202
203
204
205
206
207
208
209
210
211
212
213
214
215
216
217
218
219
220
221
222
223
224
225
226
227
228
229
230
231
232
233
234
235
236
237
238
239
240
241
242
243
244
245
246
247
248
249
250
251
252
253
254
255
256
257
258
259
260
261
262
263
264
265
266
267
268
269
270
271
272
273
274
275
276
277
278
279
280
281
282
283
284
285
286
287
288
289
290
291
292
293
294
295
296
297
298
299
300
301
302
303
304
305
306
307
308
309
310
311
312
313
314
315
316
317
318
319
320
321
322
323
324
325
326
327
328
329
330
331
332
333
334
335
336
337
338
339
340
341
342
343
344
345
346
347
348
349
350
351
352
353
354
355
356
357
358
359
360
361
362
363
364
365
366
367
368
369
370
371
372
373
374
375
376
377
378
379
380
381
382
383
384
385
386
387
388
389
390
391
392
393
394
395
396
397
398
399
400
401
402
403
404
405
406
407
408
409
410
411
412
413
414
415
416
417
418
419
420
421
422
423
424
425
426
427
428
429
430
431
432
433
434
435
436
437
438
439
440
441
442
443
444
445
446
447
448
449
450
451
452
453
454
455
456
457
458
459
460
461
462
463
464
465
466
467
468
469
470
471
472
473
474
475
476
477
478
479
480
481
482
483
484
485
486
487
488
489
490
491
492
493
494
495
496
497
498
499
500
501
502
503
504
505
506
507
508
509
510
511
512
513
514
515
516
517
518
519
520
521
522
523
524
525
526
527
528
529
530
531
532
533
534
535
536
537
538
539
540
541
542
543
544
545
546
547
548
549
550
551
552
553
554
555
556
557
558
559
560
561
562
563
564
565
566
567
568
569
570
571
572
573
574
575
576
577
578
579
580
581
582
583
584
585
586
587
588
589
590
591
592
593
594
595
596
597
598
599
600
601
602
603
604
605
606
607
608
609
610
611
612
613
614
615
616
617
618
619
620
621
622
623
624
625
626
627
628
629
630
631
632
633
634
635
636
637
638
639
640
641
642
643
644
645
646
647
648
649
650
651
652
653
654
655
656
657
658
659
660
661
662
663
664
665
666
667
668
669
670
671
672
673
674
675
676
677
678
679
680
681
682
683
684
685
686
687
688
689
690
691
692
693
694
695
696
697
698
699
700
701
702
703
704
705
706
707
708
709
710
711
712
713
714
715
716
717
718
719
720
721
722
723
724
725
726
727
728
729
730
731
732
733
734
735
736
737
738
739
740
741
742
743
744
745
746
747
748
749
750
751
752
753
754
755
756
757
758
759
760
761
762
763
764
765
766
767
768
769
770
771
772
773
774
775
776
777
778
779
780
781
782
783
784
785
786
787
788
789
790
791
792
793
794
795
796
797
798
799
800
801
802
803
804
805
806
807
808
809
810
811
812
813
814
815
816
817
818
819
820
821
822
823
824
825
826
827
828
829
830
831
832
833
834
835
836
837
838
839
840
841
842
843
844
845
846
847
848
849
850
851
852
853
854
855
856
857
858
859
860
861
862
863
864
865
866
867
868
869
870
871
872
873
874
875
876
877
878
879
880
881
882
883
884
885
886
887
888
889
890
891
892
893
894
895
896
897
898
899
900
901
902
903
904
905
906
907
908
909
910
911
912
913
914
915
916
917
918
919
920
921
922
923
924
925
926
927
928
929
930
931
932
933
934
935
936
937
938
939
940
941
942
943
944
945
946
947
948
949
950
951
952
953
954
955
956
957
958
959
960
961
962
963
964
965
966
967
968
969
970
971
972
973
974
975
976
977
978
979
980
981
982
983
984
985
986
987
988
989
990
991
992
993
994
995
996
997
998
999
1000
1001
1002
1003
1004
1005
1006
1007
1008
1009
1010
1011
1012
1013
1014
1015
1016
1017
1018
1019
1020
1021
1022
1023
1024
1025
1026
1027
1028
1029
1030
1031
1032
1033
1034
1035
1036
1037
1038
1039
1040
1041
1042
1043
1044
1045
1046
1047
1048
1049
1050
1051
1052
1053
1054
1055
1056
1057
1058
1059
1060
1061
1062
1063
1064
1065
1066
1067
1068
1069
1070
1071
1072
1073
1074
1075
1076
1077
1078
1079
1080
1081
1082
1083
1084
1085
1086
1087
1088
1089
1090
1091
1092
1093
1094
1095
1096
1097
1098
1099
1100
1101
1102
1103
1104
1105
1106
1107
1108
1109
1110
1111
1112
1113
1114
1115
1116
1117
1118
1119
1120
1121
1122
1123
1124
1125
1126
1127
1128
1129
1130
1131
1132
1133
1134
1135
1136
1137
1138
1139
1140
1141
1142
1143
1144
1145
1146
1147
1148
1149
1150
1151
1152
1153
1154
1155
1156
1157
1158
1159
1160
1161
1162
1163
1164
1165
1166
1167
1168
1169
1170
1171
1172
1173
1174
1175
1176
1177
1178
1179
1180
1181
1182
1183
1184
1185
1186
1187
1188
1189
1190
1191
1192
1193
1194
1195
1196
1197
1198
1199
1200
1201
1202
1203
1204
1205
1206
1207
1208
1209
1210
1211
1212
1213
1214
1215
1216
1217
1218
1219
1220
1221
1222
1223
1224
1225
1226
1227
1228
1229
1230
1231
1232
1233
1234
1235
1236
1237
1238
1239
1240
1241
1242
1243
1244
1245
1246
1247
1248
1249
1250
1251
1252
1253
1254
1255
1256
1257
1258
1259
1260
1261
1262
1263
1264
1265
1266
1267
1268
1269
1270
1271
1272
1273
1274
1275
1276
1277
1278
1279
1280
1281
1282
1283
1284

VECTORS node_mesh_deformation float
0.0 1.235526618577e-02 0.0 
0.000000000000e+00 9.367471848147e-03 0.0 
0.0 0.000000000000e+00 0.0 
0.000000000000e+00 0.000000000000e+00 0.0 
0.0 1.233830981532e-02 0.0 
0.0 1.226113675646e-02 0.0 
0.0 1.212296513288e-02 0.0 
0.0 1.192256287739e-02 0.0 
0.0 1.165656357322e-02 0.0 
0.0 1.132684504904e-02 0.0 
0.0 1.093366564947e-02 0.0 
0.0 1.047644720910e-02 0.0 
0.0 9.955594050702e-03 0.0 
0.0 9.370749222443e-03 0.0 
0.0 8.720877709443e-03 0.0 
0.0 8.006341323716e-03 0.0 
0.0 7.228173939689e-03 0.0 
0.0 6.389227653441e-03 0.0 
0.0 5.484551210523e-03 0.0 
0.0 4.515640179815e-03 0.0 
0.0 3.482975559855e-03 0.0 
0.0 2.385661359124e-03 0.0 
0.0 1.223678146275e-03 0.0 
0.000000000000e+00 0.000000000000e+00 0.0 
0.000000000000e+00 0.000000000000e+00 0.0 
0.000000000000e+00 0.000000000000e+00 0.0 
0.000000000000e+00 0.000000000000e+00 0.0 
0.000000000000e+00 0.000000000000e+00 0.0 
0.000000000000e+00 0.000000000000e+00 0.0 
0.000000000000e+00 0.000000000000e+00 0.0 
0.000000000000e+00 0.000000000000e+00 0.0 
0.000000000000e+00 0.000000000000e+00 0.0 
0.000000000000e+00 0.000000000000e+00 0.0 
0.000000000000e+00 0.000000000000e+00 0.0 
0.000000000000e+00 0.000000000000e+00 0.0 
0.000000000000e+00 0.000000000000e+00 0.0 
0.000000000000e+00 0.000000000000e+00 0.0 
0.000000000000e+00 0.000000000000e+00 0.0 
0.000000000000e+00 0.000000000000e+00 0.0 
0.000000000000e+00 0.000000000000e+00 0.0 
0.000000000000e+00 0.000000000000e+00 0.0 
0.000000000000e+00 0.000000000000e+00 0.0 
0.000000000000e+00 0.000000000000e+00 0.0 
0.000000000000e+00 0.000000000000e+00 0.0 
0.000000000000e+00 0.000000000000e+00 0.0 
0.000000000000e+00 0.000000000000e+00 0.0 
0.000000000000e+00 0.000000000000e+00 0.0 
0.000000000000e+00 0.000000000000e+00 0.0 
0.000000000000e+00 0.000000000000e+00 0.0 
0.000000000000e+00 0.000000000000e+00 0.0 
0.000000000000e+00 0.000000000000e+00 0.0 
0.000000000000e+00 0.000000000000e+00 0.0 
0.000000000000e+00 0.000000000000e+00 0.0 
0.000000000000e+00 0.000000000000e+00 0.0 
0.000000000000e+00 0.000000000000e+00 0.0 
0.000000000000e+00 0.000000000000e+00 0.0 
0.000000000000e+00 0.000000000000e+00 0.0 
0.000000000000e+00 0.000000000000e+00 0.0 
0.000000000000e+00 0.000000000000e+00 0.0 
0.000000000000e+00 0.000000000000e+00 0.0 
0.000000000000e+00 0.000000000000e+00 0.0 
0.000000000000e+00 0.000000000000e+00 0.0 
0.000000000000e+00 0.000000000000e+00 0.0 
0.000000000000e+00 0.000000000000e+00 0.0 
0.000000000000e+00 0.000000000000e+00 0.0 
0.000000000000e+00 0.000000000000e+00 0.0 
0.000000000000e+00 0.000000000000e+00 0.0 
0.000000000000e+00 0.000000000000e+00 0.0 
0.000000000000e+00 0.000000000000e+00 0.0 
0.000000000000e+00 0.000000000000e+00 0.0 
0.000000000000e+00 0.000000000000e+00 0.0 
0.000000000000e+00 0.000000000000e+00 0.0 
0.000000000000e+00 8.718215495836e-03 0.0 
0.000000000000e+00 8.005339973442e-03 0.0 
0.000000000000e+00 7.227775030719e-03 0.0 
0.000000000000e+00 6.387368077251e-03 0.0 
0.000000000000e+00 5.482153982562e-03 0.0 
0.000000000000e+00 4.513504891978e-03 0.0 
0.000000000000e+00 3.480923865315e-03 0.0 
0.000000000000e+00 2.384296456345e-03 0.0 
0.000000000000e+00 1.223875455977e-03 0.0 
2.936005497389e-06 1.235028307395e-02 0.0 
0.000000000000e+00 1.235044625188e-02 0.0 
-1.294432770749e-06 9.370472106914e-03 0.0 
2.184721026310e-08 1.233630527387e-02 0.0 
-2.493288469907e-06 1.225796760125e-02 0.0 
-2.382543250690e-06 1.212198901703e-02 0.0 
-2.061444519086e-06 1.192211114436e-02 0.0 
-2.114858496327e-06 1.165655175028e-02 0.0 
-2.281040693219e-06 1.132705294620e-02 0.0 
-2.095358908605e-06 1.093372328787e-02 0.0 
-2.005275799632e-06 1.047643607646e-02 0.0 
-2.079720999859e-06 9.955074571733e-03 0.0 
0.000000000000e+00 1.233834097690e-02 0.0 
0.000000000000e+00 1.225966375815e-02 0.0 
0.000000000000e+00 1.212265492543e-02 0.0 
0.000000000000e+00 1.191814832711e-02 0.0 
0.000000000000e+00 1.165466125066e-02 0.0 
0.000000000000e+00 1.132271234939e-02 0.0 
0.000000000000e+00 1.093160034208e-02 0.0 
0.000000000000e+00 1.047190199652e-02 0.0 
0.000000000000e+00 9.953438223931e-03 0.0 
1.149654380583e-06 9.367621392039e-03 0.0 
4.554810217883e-07 9.367987964300e-03 0.0 
6.131153327260e-07 9.368351136795e-03 0.0 
7.407718243257e-07 9.367646280030e-03 0.0 
3.124320855363e-07 9.368641782538e-03 0.0 
1.174292307837e-07 9.368016261647e-03 0.0 
5.848596629221e-08 9.368324539293e-03 0.0 
-1.101240783896e-06 9.368028052029e-03 0.0 
-7.639916503877e-07 9.369372456179e-03 0.0 
-4.124520600612e-07 9.368871227377e-03 0.0 
-4.393598658226e-07 9.368705738726e-03 0.0 
-4.847771748473e-07 9.369562441778e-03 0.0 
-8.117107270778e-07 9.369877474596e-03 0.0 
-1.204194681748e-06 9.369620630574e-03 0.0 
1.601128381878e-06 1.235243590874e-02 0.0 
2.533279538142e-06 1.235418405210e-02 0.0 
4.152810511471e-06 1.235326796939e-02 0.0 
-6.295993273397e-07 1.235272314536e-02 0.0 
-1.067543953681e-06 1.235444627716e-02 0.0 
6.730569346303e-08 1.235440456945e-02 0.0 
8.457640614523e-07 1.235386605023e-02 0.0 
7.754618991385e-07 1.235366068024e-02 0.0 
4.342124828582e-07 1.235340997325e-02 0.0 
3.983364038618e-07 1.235406585781e-02 0.0 
-8.690225090646e-07 1.235399393972e-02 0.0 
-5.411925041443e-08 1.235546469198e-02 0.0 
3.609587316156e-06 1.235434178312e-02 0.0 
2.364534382515e-06 1.235290306437e-02 0.0 
2.138940740082e-07 1.235369559123e-02 0.0 
9.326676186916e-08 1.235424450023e-02 0.0 
1.206357880257e-06 1.235425696711e-02 0.0 
2.660516113417e-06 1.235477832990e-02 0.0 
3.907743388876e-07 1.235354730489e-02 0.0 
5.259769604748e-06 1.235086668237e-02 0.0 
5.600394867855e-06 1.235172283468e-02 0.0 
2.793067288565e-07 1.235338178357e-02 0.0 
4.858390916240e-07 1.235395454902e-02 0.0 
-3.124639569307e-07 1.235468783880e-02 0.0 
7.373785493314e-08 1.235526573879e-02 0.0 
2.888188355143e-07 1.235586180813e-02 0.0 
6.640373939604e-07 1.235613660909e-02 0.0 
8.592380815742e-07 1.235636376830e-02 0.0 
1.017943116466e-06 1.235654395117e-02 0.0 
1.102691442156e-06 1.235673632799e-02 0.0 
1.165216740873e-06 1.235692441133e-02 0.0 
1.205367162527e-06 1.235710281025e-02 0.0 
1.237864644565e-06 1.235725317378e-02 0.0 
1.265952185747e-06 1.235735999785e-02 0.0 
1.293829114957e-06 1.235740996008e-02 0.0 
1.323138597797e-06 1.235739540724e-02 0.0 
1.355865677510e-06 1.235731387701e-02 0.0 
1.393995916033e-06 1.235716802248e-02 0.0 
1.440673166542e-06 1.235696363121e-02 0.0 
1.501314649488e-06 1.235670579975e-02 0.0 
1.584070865590e-06 1.235639450560e-02 0.0 
1.698450560639e-06 1.235602086120e-02 0.0 
1.850721019991e-06 1.235556430187e-02 0.0 
2.031222479104e-06 1.235499266099e-02 0.0 
2.181458519601e-06 1.235427283637e-02 0.0 
2.112325027781e-06 1.235341832656e-02 0.0 
1.287959342733e-06 1.235270376446e-02 0.0 
-3.364052673760e-06 1.235142019027e-02 0.0 
1.615133712107e-06 1.233247241229e-02 0.0 
2.262622231797e-06 1.233021324664e-02 0.0 
1.738761945091e-06 1.233079021968e-02 0.0 
1.419335681874e-06 1.233153195486e-02 0.0 
1.272418721499e-06 1.233217842415e-02 0.0 
1.200238308741e-06 1.233270316747e-02 0.0 
1.163682789240e-06 1.233312859938e-02 0.0 
1.149326507743e-06 1.233348066042e-02 0.0 
1.152724443898e-06 1.233377678329e-02 0.0 
1.172065360322e-06 1.233402474975e-02 0.0 
1.205730079334e-06 1.233422471024e-02 0.0 
1.251084889020e-06 1.233437218731e-02 0.0 
1.303683248466e-06 1.233446164329e-02 0.0 
1.357349681541e-06 1.233449011457e-02 0.0 
1.404969964369e-06 1.233445875431e-02 0.0 
1.439557472338e-06 1.233437407003e-02 0.0 
1.453786808270e-06 1.233424613718e-02 0.0 
1.442409626407e-06 1.233409113714e-02 0.0 
1.397868910402e-06 1.233392173091e-02 0.0 
1.321960095169e-06 1.233375517510e-02 0.0 
1.193538246014e-06 1.233358761814e-02 0.0 
1.054177108273e-06 1.233342267602e-02 0.0 
8.300793226113e-07 1.233318031241e-02 0.0 
7.351125610455e-07 1.233280828238e-02 0.0 
2.866331136886e-07 1.233215982190e-02 0.0 
2.442556201743e-07 1.233147573883e-02 0.0 
-1.220296944382e-06 1.233163614526e-02 0.0 
1.459331890885e-07 1.232899671973e-02 0.0 
-7.060585964780e-07 1.225719273874e-02 0.0 
1.526379342920e-07 1.225899181724e-02 0.0 
1.055646087877e-06 1.225875622615e-02 0.0 
1.066198915822e-06 1.225951411555e-02 0.0 
1.339943764833e-06 1.225952578808e-02 0.0 
1.355695300020e-06 1.225975851167e-02 0.0 
1.431611881486e-06 1.225987202390e-02 0.0 
1.435833294039e-06 1.226005455867e-02 0.0 
1.447186917858e-06 1.226021615252e-02 0.0 
1.431546110098e-06 1.226037928500e-02 0.0 
1.405491737216e-06 1.226051443159e-02 0.0 
1.363800585352e-06 1.226061084077e-02 0.0 
1.313318293228e-06 1.226065406455e-02 0.0 
1.256442928366e-06 1.226063768594e-02 0.0 
1.198243687384e-06 1.226055891817e-02 0.0 
1.142717906077e-06 1.226042038970e-02 0.0 
1.093661310847e-06 1.226022850021e-02 0.0 
1.054401209899e-06 1.225998990644e-02 0.0 
1.028875431075e-06 1.225970776006e-02 0.0 
1.022563047570e-06 1.225938002625e-02 0.0 
1.044123195015e-06 1.225900011345e-02 0.0 
1.107906953735e-06 1.225856351608e-02 0.0 
1.236956407524e-06 1.225809170479e-02 0.0 
1.464493678327e-06 1.225771325623e-02 0.0 
1.836103898256e-06 1.225803044286e-02 0.0 
2.603058682382e-06 1.226293010753e-02 0.0 
1.052703773041e-07 1.212089404875e-02 0.0 
2.103619888061e-06 1.212280652306e-02 0.0 
1.480264756992e-06 1.212176464867e-02 0.0 
1.670366660989e-06 1.212241528115e-02 0.0 
1.470038494489e-06 1.212225215422e-02 0.0 
1.490860448428e-06 1.212257173693e-02 0.0 
1.426016051909e-06 1.212267627706e-02 0.0 
1.398486809023e-06 1.212288669246e-02 0.0 
1.352354658479e-06 1.212303331238e-02 0.0 
1.314109717043e-06 1.212317404688e-02 0.0 
1.271937087211e-06 1.212325625173e-02 0.0 
1.231126340429e-06 1.212328740940e-02 0.0 
1.187358925847e-06 1.212325366083e-02 0.0 
1.138724698535e-06 1.212315715122e-02 0.0 
1.084543086449e-06 1.212300222652e-02 0.0 
1.027943007159e-06 1.212279993993e-02 0.0 
9.728367871276e-07 1.212255921605e-02 0.0 
9.240556479995e-07 1.212228571989e-02 0.0 
8.885125382108e-07 1.212198229737e-02 0.0 
8.776297306667e-07 1.212165201618e-02 0.0 
9.097976487737e-07 1.212130677472e-02 0.0 
1.011137470641e-06 1.212098901299e-02 0.0 
1.200743867003e-06 1.212081511335e-02 0.0 
1.375893184274e-06 1.212089962767e-02 0.0 
8.104818149945e-07 1.211847188296e-02 0.0 
5.562039575580e-07 1.192222733496e-02 0.0 
7.919487288177e-07 1.191951301721e-02 0.0 
8.014507670850e-07 1.191932646781e-02 0.0 
7.584875731936e-07 1.191946189965e-02 0.0 
7.328769910941e-07 1.191971241510e-02 0.0 
7.410744586878e-07 1.192000103167e-02 0.0 
7.788556786181e-07 1.192029544017e-02 0.0 
8.353134433037e-07 1.192058176841e-02 0.0 
9.012904200745e-07 1.192085118427e-02 0.0 
9.699296228405e-07 1.192109595444e-02 0.0 
1.036465135940e-06 1.192130569004e-02 0.0 
1.095739428081e-06 1.192146706839e-02 0.0 
1.141775072711e-06 1.192156099324e-02 0.0 
1.184605736171e-06 1.192157838758e-02 0.0 
1.226077948502e-06 1.192151618563e-02 0.0 
1.293425221149e-06 1.192140111169e-02 0.0 
1.340071634104e-06 1.192121098817e-02 0.0 
1.453165552334e-06 1.192105140118e-02 0.0 
1.450905742217e-06 1.192075913023e-02 0.0 
1.669637853752e-06 1.192077594620e-02 0.0 
1.436131807253e-06 1.192009176979e-02 0.0 
2.109985892673e-06 1.192103103056e-02 0.0 
3.870787033122e-07 1.191934616718e-02 0.0 
1.105847040606e-07 1.165388637839e-02 0.0 
1.989847202566e-06 1.165600670105e-02 0.0 
1.466472372869e-06 1.165498547772e-02 0.0 
1.642008037095e-06 1.165577382386e-02 0.0 
1.422333738788e-06 1.165568607192e-02 0.0 
1.369937592699e-06 1.165606917203e-02 0.0 
1.240543902270e-06 1.165617293290e-02 0.0 
1.178532720303e-06 1.165634593471e-02 0.0 
1.127044271243e-06 1.165638354035e-02 0.0 
1.083511911304e-06 1.165634772130e-02 0.0 
1.015630779477e-06 1.165620835395e-02 0.0 
9.376177700915e-07 1.165601724232e-02 0.0 
8.586042810066e-07 1.165578928907e-02 0.0 
7.801799668528e-07 1.165553643138e-02 0.0 
7.047462915466e-07 1.165527224960e-02 0.0 
6.383393227338e-07 1.165500729909e-02 0.0 
5.963355178551e-07 1.165475696396e-02 0.0 
5.864831322810e-07 1.165452763941e-02 0.0 
6.030066259655e-07 1.165432897236e-02 0.0 
6.093830506870e-07 1.165416913832e-02 0.0 
5.201556234624e-07 1.165388622087e-02 0.0 
2.763330613220e-07 1.165065348654e-02 0.0 
2.340817388813e-07 1.132689114287e-02 0.0 
3.760477085279e-07 1.132452805597e-02 0.0 
4.280782377464e-07 1.132460612212e-02 0.0 
4.351180962203e-07 1.132477738397e-02 0.0 
4.390887866634e-07 1.132495330403e-02 0.0 
4.620187610271e-07 1.132514775410e-02 0.0 
5.193808760851e-07 1.132536922739e-02 0.0 
5.944108352196e-07 1.132563283883e-02 0.0 
6.696888661395e-07 1.132590745595e-02 0.0 
7.503075565296e-07 1.132617369726e-02 0.0 
8.495908971895e-07 1.132640869647e-02 0.0 
9.593753205195e-07 1.132661333124e-02 0.0 
1.051097122229e-06 1.132678327583e-02 0.0 
1.079805812765e-06 1.132678825271e-02 0.0 
1.194102644320e-06 1.132668796724e-02 0.0 
1.265613242651e-06 1.132636887475e-02 0.0 
1.628074748794e-06 1.132632431997e-02 0.0 
1.494561807647e-06 1.132563069741e-02 0.0 
2.141715373938e-06 1.132636080230e-02 0.0 
4.016789105776e-07 1.132467022619e-02 0.0 
4.529534436415e-07 1.093166597020e-02 0.0 
2.206857828924e-06 1.093363056975e-02 0.0 
1.395956537920e-06 1.093258940471e-02 0.0 
1.334142680776e-06 1.093355844714e-02 0.0 
1.066095030922e-06 1.093359226177e-02 0.0 
1.073083851111e-06 1.093389203379e-02 0.0 
9.384135282176e-07 1.093366561075e-02 0.0 
7.871940042037e-07 1.093343688806e-02 0.0 
6.393013407546e-07 1.093322401972e-02 0.0 
5.421325113275e-07 1.093299939557e-02 0.0 
4.938591331438e-07 1.093273042873e-02 0.0 
4.125946304612e-07 1.093243502994e-02 0.0 
3.427673362921e-07 1.093219154192e-02 0.0 
3.213465618046e-07 1.093203725308e-02 0.0 
3.305671611997e-07 1.093189109491e-02 0.0 
3.455386448081e-07 1.093174462468e-02 0.0 
3.637808489998e-07 1.093155446340e-02 0.0 
3.041202774057e-07 1.093110285508e-02 0.0 
1.515053114076e-07 1.092763578134e-02 0.0 
1.991635372178e-07 1.047603073258e-02 0.0 
3.531665910828e-07 1.047384840119e-02 0.0 
3.081354194023e-07 1.047414051521e-02 0.0 
3.079933392769e-07 1.047426221587e-02 0.0 
2.366063256432e-07 1.047440446670e-02 0.0 
1.934094484568e-07 1.047450173723e-02 0.0 
1.635339401673e-07 1.047459565978e-02 0.0 
2.684153628252e-07 1.047482636983e-02 0.0 
2.320775962517e-07 1.047526574175e-02 0.0 
2.605988598248e-07 1.047547728841e-02 0.0 
4.437740841468e-07 1.047562332960e-02 0.0 
6.272800590068e-07 1.047587806477e-02 0.0 
8.272960698719e-07 1.047616546530e-02 0.0 
1.119647883741e-06 1.047659778418e-02 0.0 
9.173122421657e-07 1.047574906389e-02 0.0 
1.855913396298e-06 1.047594401865e-02 0.0 
4.051637247926e-07 1.047412473083e-02 0.0 
1.231757167375e-07 9.953296869195e-03 0.0 
1.454819660296e-06 9.956519138720e-03 0.0 
5.837911132289e-07 9.955273980799e-03 0.0 
3.178171823492e-07 9.955099991341e-03 0.0 
2.063644402028e-07 9.954778009840e-03 0.0 
-3.559951267107e-08 9.954443343439e-03 0.0 
-1.696944877949e-07 9.954557895405e-03 0.0 
-6.450290612747e-08 9.954410369264e-03 0.0 
-1.537517917427e-07 9.953557758694e-03 0.0 
2.925655451236e-08 9.953693035456e-03 0.0 
8.317022803794e-08 9.953584034573e-03 0.0 
3.449530865396e-07 9.953641208989e-03 0.0 
3.207887004919e-07 9.953344420722e-03 0.0 
4.814512877260e-07 9.953444203701e-03 0.0 
6.296867951505e-07 9.952643699243e-03 0.0 
1.843012853442e-09 9.948599758362e-03 0.0 
3.042112428631e-06 1.235012008174e-02 0.0 
-1.118778190090e-06 1.230378202214e-02 0.0 
-1.256133437266e-06 1.219864577167e-02 0.0 
-8.512972584640e-07 1.203046127481e-02 0.0 
-1.347267623686e-06 1.179736415529e-02 0.0 
-1.884578846756e-06 1.149965844116e-02 0.0 
-8.363844976600e-07 1.113868765186e-02 0.0 
-6.482433612121e-07 1.071351677868e-02 0.0 
-8.127323098961e-07 1.022411696103e-02 0.0 
-5.589035652065e-07 9.670819159881e-03 0.0 
-1.311941268511e-06 1.221089346519e-02 0.0 
2.617023753260e-08 1.063006392776e-03 0.0 
2.831358614230e-08 1.233859103282e-02 0.0 
2.635062232414e-06 1.234150488273e-02 0.0 
-8.545731411402e-08 1.064202837970e-03 0.0 
-7.197382352331e-07 1.181517024579e-02 0.0 
-5.689184962021e-07 9.041358641475e-03 0.0 
-2.022595104734e-07 1.065318504704e-03 0.0 
-1.188214948655e-06 1.117719171506e-02 0.0 
2.629587179115e-07 1.037766840536e-03 0.0 
-1.267479039058e-06 1.027858675698e-02 0.0 
3.547693587791e-07 9.804559869657e-04 0.0 
2.402836532411e-06 1.233906907678e-02 0.0 
3.220051816299e-07 1.053627488069e-03 0.0 
-5.479257012553e-07 9.115579072580e-03 0.0 
4.326114290132e-07 1.112497311209e-02 0.0 
7.633138221497e-08 6.987692313754e-03 0.0 
1.079274234428e-07 1.100401280546e-03 0.0 
-2.687380629141e-07 1.049449638110e-03 0.0 
4.723026378883e-07 1.051681367493e-03 0.0 
-3.079101915660e-07 1.142853196502e-03 0.0 
1.916626288789e-07 1.024667413450e-03 0.0 
-7.699642097236e-07 8.797767086104e-03 0.0 
-1.343183242852e-06 8.786473372556e-03 0.0 
-1.041377615252e-07 8.770750651721e-03 0.0 
8.353341769407e-07 5.929458340495e-03 0.0 
-1.127740465456e-06 1.064743944404e-03 0.0 
1.448359633116e-06 1.234037817338e-02 0.0 
4.045815304998e-07 1.233866447920e-02 0.0 
1.841121154422e-07 4.086585392685e-03 0.0 
4.924797991634e-08 8.814046938966e-03 0.0 
3.867205419228e-07 1.203380859223e-02 0.0 
-4.520158114474e-08 1.210569293630e-03 0.0 
2.047118350390e-07 9.694183323141e-04 0.0 
-3.147696148176e-08 1.030988526562e-03 0.0 
1.247038667884e-07 1.126851843367e-03 0.0 
-5.309414188304e-07 1.011947099322e-03 0.0 
8.902725898707e-07 1.233845383605e-02 0.0 
-1.539448156507e-06 8.826645705085e-03 0.0 
-1.210048949929e-08 1.216323580245e-03 0.0 
-3.067921667821e-07 4.049861790378e-03 0.0 
-5.200061412580e-07 1.233795442146e-02 0.0 
2.388746545012e-07 1.022370255581e-02 0.0 
-6.792308795411e-07 8.566675963309e-04 0.0 
-8.135011100308e-07 1.152558891244e-02 0.0 
-1.270653150698e-06 1.204626468353e-02 0.0 
-1.147344331542e-06 1.076311025262e-02 0.0 
-1.200375621124e-06 9.730430818035e-03 0.0 
2.495631360233e-06 1.231863217719e-02 0.0 
8.647505467252e-07 7.532093776788e-03 0.0 
1.616350484568e-07 8.433870153439e-04 0.0 
-1.678574170549e-06 1.234257418865e-02 0.0 
-3.943776718529e-07 1.901079707441e-03 0.0 
-1.685185083034e-06 8.780274014887e-03 0.0 
-2.628158512152e-06 8.499000746633e-03 0.0 
-1.792047484628e-06 8.172740397704e-03 0.0 
-1.597402864206e-06 7.824714745780e-03 0.0 
-2.397175812519e-06 7.414673600236e-03 0.0 
-1.565851903251e-06 7.075376886895e-03 0.0 
-1.369497681480e-06 7.495731285667e-03 0.0 
-1.158753619279e-06 6.725139299981e-03 0.0 
-1.107740935424e-06 7.161808260442e-03 0.0 
-9.442042312457e-07 6.628888496797e-03 0.0 
-8.037013330409e-07 6.363029360843e-03 0.0 
-8.236213702162e-07 6.815453709770e-03 0.0 
-5.202356838652e-07 5.990781075228e-03 0.0 
-6.021934630951e-07 6.456067128003e-03 0.0 
-7.884700679028e-07 7.251198281022e-03 0.0 
-5.599778596377e-07 6.908276444609e-03 0.0 
-6.980396847212e-07 7.668184685238e-03 0.0 
-4.977358543101e-07 7.341077862346e-03 0.0 
-3.056926729528e-07 6.555127506886e-03 0.0 
-2.901859232907e-07 7.003857638495e-03 0.0 
-4.461622005181e-07 7.756092683726e-03 0.0 
-2.632128541791e-07 7.434499428754e-03 0.0 
-3.929704242012e-07 8.152476029943e-03 0.0 
-2.594502994668e-07 7.844743903192e-03 0.0 
-3.449221210872e-07 8.533303091680e-03 0.0 
-2.566757615341e-07 8.238504039364e-03 0.0 
-1.726058549423e-07 7.525259697339e-03 0.0 
-1.974028194240e-07 7.933709065124e-03 0.0 
-2.585631833085e-07 8.613987329882e-03 0.0 
-2.166860504360e-07 8.324262436616e-03 0.0 
-2.616979983827e-07 8.971841726526e-03 0.0 
-2.391328344231e-07 8.696725612817e-03 0.0 
-1.884760045812e-07 8.022261138043e-03 0.0 
-2.366373976770e-07 8.410526775446e-03 0.0 
-2.802627037113e-07 9.053057903252e-03 0.0 
-2.617962842066e-07 8.781565512955e-03 0.0 
-3.090712965559e-07 9.392609598212e-03 0.0 
-2.563417531576e-07 9.134704908117e-03 0.0 
-2.631482374227e-07 9.713874436880e-03 0.0 
-2.429309304830e-07 9.471520533221e-03 0.0 
-1.997448570989e-07 8.860750751634e-03 0.0 
-1.816422958711e-07 9.212071573563e-03 0.0 
-1.725733831393e-07 9.792507309083e-03 0.0 
-1.233851989468e-07 9.547920845202e-03 0.0 
-1.221864494028e-07 8.940234341859e-03 0.0 
-8.728958178494e-08 9.291916412336e-03 0.0 
-9.642439025015e-08 8.656452328218e-03 0.0 
-6.093606330637e-08 9.023939955636e-03 0.0 
-3.183881602808e-08 9.621814834206e-03 0.0 
-1.819397965619e-09 9.368919961190e-03 0.0 
-2.969037282696e-08 8.742870017251e-03 0.0 
2.782712549276e-08 9.107494512580e-03 0.0 
8.349062063928e-08 9.698844621852e-03 0.0 
1.280175290219e-07 9.448657681778e-03 0.0 
6.248155592914e-08 8.830819405214e-03 0.0 
1.402891385283e-07 9.189740318027e-03 0.0 
2.144991100295e-07 9.772265826145e-03 0.0 
2.236820115797e-07 9.526906420914e-03 0.0 
1.537758453907e-07 8.912120026190e-03 0.0 
2.107780883165e-07 9.270730364394e-03 0.0 
3.078649069010e-07 9.847059614620e-03 0.0 
2.625118860067e-07 9.604711444224e-03 0.0 
1.898149335489e-07 8.996910138428e-03 0.0 
2.000037291339e-07 9.351877382308e-03 0.0 
1.402136167172e-07 8.711880931223e-03 0.0 
2.767464728493e-07 9.926481258010e-03 0.0 
1.730951257883e-07 9.687370410289e-03 0.0 
2.810579911028e-07 1.023241175904e-02 0.0 
1.205103377089e-07 1.000424591693e-02 0.0 
-1.720957456541e-07 7.708073425647e-03 0.0 
2.241238927780e-07 1.051434245966e-02 0.0 
4.138677294208e-07 1.070742854901e-02 0.0 
1.715574970973e-08 1.030141821223e-02 0.0 
-1.769201229962e-08 9.763533129370e-03 0.0 
1.095462822676e-07 1.077628263559e-02 0.0 
-1.175903490136e-07 1.057839430074e-02 0.0 
2.121645525932e-08 1.101831704044e-02 0.0 
-2.922376971526e-07 9.965761152314e-03 0.0 
-7.496899812054e-08 6.190090121345e-03 0.0 
-2.594334125305e-07 1.083559191229e-02 0.0 
1.178091668663e-07 1.124038831929e-02 0.0 
3.313983336639e-07 1.139574634620e-02 0.0 
4.256517192047e-07 1.158235320355e-02 0.0 
-1.056576600433e-06 6.992217203283e-03 0.0 
-5.211055338350e-07 6.162153390793e-03 0.0 
-6.165920112267e-07 6.547219797813e-03 0.0 
-3.484277826260e-07 5.679156433970e-03 0.0 
-4.731856151352e-07 6.077553220431e-03 0.0 
1.975771093399e-07 1.144263427406e-02 0.0 
-3.853329531012e-07 5.488327295060e-03 0.0 
-2.214222902808e-07 5.263629329006e-03 0.0 
-5.352693293048e-07 8.449896494485e-03 0.0 
-2.894278452459e-07 9.235911578941e-03 0.0 
-9.792881172643e-08 8.270646670661e-03 0.0 
-3.146281715161e-07 1.036806171844e-02 0.0 
-6.547494226794e-07 1.064092352878e-02 0.0 
-3.745340411143e-07 1.014547282887e-02 0.0 
1.405759775253e-07 8.322208359232e-03 0.0 
1.244692917624e-07 8.008540492213e-03 0.0 
1.344040363449e-07 7.582692179932e-03 0.0 
1.418786084173e-07 7.241601795000e-03 0.0 
1.663541677743e-07 6.779584283379e-03 0.0 
1.826931868010e-07 6.411064582693e-03 0.0 
1.597213934446e-07 6.889036483040e-03 0.0 
2.182639793347e-07 6.030281426044e-03 0.0 
1.887655578514e-07 6.524543085302e-03 0.0 
2.079788714582e-07 5.913479655851e-03 0.0 
2.011056938755e-07 6.297479117340e-03 0.0 
2.830997720693e-07 5.637913942227e-03 0.0 
2.325438908102e-07 6.147592775584e-03 0.0 
3.455957529042e-07 5.233166133573e-03 0.0 
2.659741458189e-07 5.758362302480e-03 0.0 
1.773348001777e-07 6.638439053416e-03 0.0 
1.961491689073e-07 6.264726112740e-03 0.0 
1.405770504448e-07 7.109664291995e-03 0.0 
-4.997002989171e-08 7.959371763816e-03 0.0 
-2.076478367030e-08 7.538133896286e-03 0.0 
2.571633217485e-08 7.199928062116e-03 0.0 
5.719420670403e-08 6.743344200226e-03 0.0 
1.089207977145e-07 6.377620167740e-03 0.0 
1.436769494489e-07 5.886583356062e-03 0.0 
2.132080396677e-07 5.492120057379e-03 0.0 
1.305294787812e-07 6.000177331080e-03 0.0 
-3.088409101792e-07 5.604641584110e-03 0.0 
-1.243729634837e-07 1.009470808980e-02 0.0 
-1.784418159900e-07 1.031280297661e-02 0.0 
-8.476658308609e-08 1.058163708678e-02 0.0 
-1.386090495714e-07 1.077267266160e-02 0.0 
3.771117462747e-08 1.100826367598e-02 0.0 
-3.551187433004e-08 1.117369243707e-02 0.0 
2.721085472501e-07 1.137717675678e-02 0.0 
3.110115684990e-07 1.122448501072e-02 0.0 
6.940798513710e-07 1.156167467393e-02 0.0 
6.124741389613e-07 1.142274829687e-02 0.0 
1.137864476419e-06 1.172661241116e-02 0.0 
8.735381733516e-07 1.160358583493e-02 0.0 
-1.349399987305e-07 7.194556630965e-03 0.0 
5.280788428763e-08 6.267623432873e-03 0.0 
7.113720812413e-08 5.376384953463e-03 0.0 
3.073862586689e-08 5.773418431360e-03 0.0 
6.419089828569e-07 1.171036014510e-02 0.0 
2.392319569111e-07 5.356368853169e-03 0.0 
2.641838854345e-07 5.395756112536e-03 0.0 
2.161383640953e-07 5.803223281054e-03 0.0 
2.477572422777e-07 5.085869222270e-03 0.0 
6.015007825155e-07 1.174902010133e-02 0.0 
1.214142244521e-07 1.151615885885e-02 0.0 
-1.375370679568e-07 1.132879722742e-02 0.0 
-3.163022270769e-07 5.170722768373e-03 0.0 
-3.788818858652e-07 5.585724724220e-03 0.0 
3.357709967844e-07 4.859380082651e-03 0.0 
3.102294501289e-07 1.162499815499e-02 0.0 
3.058714188597e-07 5.109390487748e-03 0.0 
1.030018580650e-06 1.183912096973e-02 0.0 
1.272316056955e-07 5.878750659491e-03 0.0 
1.043180928306e-07 4.942217692809e-03 0.0 
1.284916724131e-07 7.345300191687e-03 0.0 
-5.252591606109e-08 4.847076549858e-03 0.0 
-1.943256933146e-08 5.275644666453e-03 0.0 
5.123794117878e-07 1.127042787059e-02 0.0 
7.327419382364e-07 1.146895494128e-02 0.0 
1.227221794409e-06 1.176579902968e-02 0.0 
1.266987272430e-06 1.163846261131e-02 0.0 
7.948040696704e-07 1.131832880372e-02 0.0 
1.087689932788e-06 1.151124766305e-02 0.0 
1.174420313887e-06 1.179706191730e-02 0.0 
1.061614886666e-06 1.168448254999e-02 0.0 
9.025110667693e-07 1.136771728621e-02 0.0 
9.000672651638e-07 1.155588707194e-02 0.0 
8.938111069057e-07 1.183912436820e-02 0.0 
8.024167641452e-07 1.172429804016e-02 0.0 
2.954084710183e-07 4.384019539586e-03 0.0 
1.488123601234e-06 1.197015617788e-02 0.0 
-8.539287783549e-07 7.983617177532e-03 0.0 
3.112288275986e-07 4.430724735002e-03 0.0 
2.388899815742e-07 4.555796695184e-03 0.0 
-2.775051370918e-07 4.640806820214e-03 0.0 
-2.877604785567e-07 5.072419361046e-03 0.0 
-2.661710851726e-07 5.993192520135e-03 0.0 
-2.793439932702e-07 5.493670363943e-03 0.0 
-2.276637047771e-07 4.536671752247e-03 0.0 
-3.537891757333e-07 4.974070271787e-03 0.0 
-3.317611430020e-07 5.905067993124e-03 0.0 
-4.570432778905e-07 5.400260157696e-03 0.0 
-3.874319389752e-07 6.304639545851e-03 0.0 
-4.803785813579e-07 5.814453850228e-03 0.0 
-4.828250155242e-07 4.874605144277e-03 0.0 
-5.242898382107e-07 5.304548162528e-03 0.0 
-4.533102284654e-07 6.217134170635e-03 0.0 
-6.035283774963e-07 5.722443866992e-03 0.0 
-5.443577251185e-07 6.607256671128e-03 0.0 
-7.326795881113e-07 6.127708049917e-03 0.0 
-4.783301221778e-07 5.207955759968e-03 0.0 
9.547526715892e-07 1.188616933263e-02 0.0 
1.479246112268e-07 5.611674406858e-03 0.0 
2.720640104314e-07 4.667065917113e-03 0.0 
-1.314764687343e-06 1.043293025397e-02 0.0 
4.881325272876e-07 9.909067552016e-03 0.0 
4.981832812945e-08 9.585953914494e-03 0.0 
-5.738078119322e-07 9.324370928899e-03 0.0 
-2.352725232413e-07 5.632978737893e-03 0.0 
-7.134513850815e-07 4.674479948333e-03 0.0 
-5.960522742043e-08 1.164151105517e-02 0.0 
-2.448152116585e-07 1.147210783190e-02 0.0 
-2.345261975734e-07 4.198140350969e-03 0.0 
-1.260719302287e-07 5.480579946161e-03 0.0 
1.726699094817e-07 6.381593391025e-03 0.0 
-2.995449897014e-07 9.559831480486e-03 0.0 
-3.073195813386e-07 9.798854920323e-03 0.0 
-3.166479629613e-07 1.008959638875e-02 0.0 
-3.070878022982e-07 1.031494877879e-02 0.0 
-3.695376840085e-07 1.002902878828e-02 0.0 
-3.970092343764e-07 1.057532796262e-02 0.0 
1.876659396771e-07 6.684213194781e-03 0.0 
-3.905319303499e-07 4.328819443188e-03 0.0 
5.643514464637e-07 1.153927508424e-02 0.0 
6.955705487144e-07 1.182708825932e-02 0.0 
7.040292038241e-08 4.515720553297e-03 0.0 
6.833671761797e-08 6.490978867070e-03 0.0 
-5.835259386799e-08 6.751231897470e-03 0.0 
-2.537919741030e-08 6.392229272215e-03 0.0 
1.023593760863e-07 5.912813655636e-03 0.0 
1.013398396310e-07 5.526308548289e-03 0.0 
2.459818340128e-07 5.010347695546e-03 0.0 
2.812458035351e-07 4.595265976373e-03 0.0 
7.205460761384e-08 5.127955186337e-03 0.0 
-1.325183554002e-07 4.294413792891e-03 0.0 
4.374405051522e-07 4.165943308259e-03 0.0 
-7.164704527440e-07 6.527861997215e-03 0.0 
-2.495739437336e-08 6.645278524143e-03 0.0 
7.858615784784e-07 1.121100526840e-02 0.0 
1.442076693614e-06 1.198214383872e-02 0.0 
3.093747960037e-07 1.197947513834e-02 0.0 
3.777792909609e-07 1.178501316524e-02 0.0 
1.118392449762e-07 1.148814794619e-02 0.0 
3.438272422329e-07 3.857116673355e-03 0.0 
3.955794198873e-07 4.043390679115e-03 0.0 
3.341343308705e-07 4.476734628732e-03 0.0 
-4.013269396808e-07 1.052174391612e-02 0.0 
-5.319186122676e-07 1.024610852794e-02 0.0 
-2.697183703049e-07 3.857086309168e-03 0.0 
-4.113239100434e-07 6.928658979700e-03 0.0 
-2.708629693871e-07 6.775160158965e-03 0.0 
-6.254873596845e-08 7.146945182120e-03 0.0 
2.747361409483e-07 1.203455871233e-02 0.0 
2.043972102683e-09 1.205581592556e-02 0.0 
-2.447471842970e-07 3.980404636799e-03 0.0 
-2.695922205476e-07 1.112792584036e-02 0.0 
-3.226764349051e-07 1.128568650939e-02 0.0 
1.954488173084e-06 1.205644156388e-02 0.0 
2.357442031808e-06 1.215335174405e-02 0.0 
-7.694813248804e-07 5.104656274632e-03 0.0 
-6.036671251763e-07 4.120755921910e-03 0.0 
-3.039436240471e-07 8.964489141118e-03 0.0 
-2.333788353681e-07 8.674739399433e-03 0.0 
4.621466356269e-07 4.300512543924e-03 0.0 
6.324630845711e-07 1.187272972293e-02 0.0 
-3.514439015362e-07 3.654336790731e-03 0.0 
1.180906341602e-07 6.117376602015e-03 0.0 
4.948823040252e-08 6.962937155000e-03 0.0 
-5.934237767846e-08 9.666372485775e-03 0.0 
-1.562572187197e-07 1.175734808530e-02 0.0 
2.409970853989e-07 1.189429065728e-02 0.0 
6.664130296485e-07 1.098762074724e-02 0.0 
8.105982729489e-07 1.159729151972e-02 0.0 
4.652679264083e-08 1.166467882527e-02 0.0 
3.559888721583e-07 3.263540369424e-03 0.0 
-1.622038965365e-07 3.516252801788e-03 0.0 
1.503354738475e-07 4.714723558362e-03 0.0 
5.264294600238e-08 5.643028592317e-03 0.0 
8.364727257515e-07 3.724985088869e-03 0.0 
6.108126786586e-07 1.208555838533e-02 0.0 
2.068412925382e-07 3.401178961909e-03 0.0 
-5.559017601797e-08 5.070106215236e-03 0.0 
3.406172766063e-07 3.517449766488e-03 0.0 
2.140437516118e-07 3.923388832135e-03 0.0 
-3.305981515211e-07 1.091259206210e-02 0.0 
-3.950086799875e-07 1.107459684125e-02 0.0 
-3.485226436339e-07 1.142812024400e-02 0.0 
-4.300236184918e-07 1.123148054409e-02 0.0 
-1.408311071316e-06 7.901285420189e-03 0.0 
-4.493409981876e-07 1.067344084715e-02 0.0 
-7.792514686855e-07 8.366235631843e-03 0.0 
-1.018271273523e-06 8.654583978846e-03 0.0 
-9.196114518772e-07 9.002735908542e-03 0.0 
-4.870348710995e-07 9.736144213749e-03 0.0 
-6.590603653933e-07 9.961228882084e-03 0.0 
-2.454594785206e-07 1.052239578967e-02 0.0 
-7.569299143029e-08 7.865370780573e-03 0.0 
-5.357204280187e-08 9.241728742648e-03 0.0 
8.501524018101e-08 7.452228098071e-03 0.0 
1.371588211896e-07 7.911829089156e-03 0.0 
-3.359519666901e-07 3.871786481326e-03 0.0 
-1.737753621001e-07 3.289445956870e-03 0.0 
-6.997714052659e-08 7.066993617848e-03 0.0 
-4.241876183642e-09 7.429097543266e-03 0.0 
7.046907688490e-07 1.196221863183e-02 0.0 
9.610146092243e-07 1.205152701691e-02 0.0 
9.958755242678e-08 8.414750915428e-03 0.0 
2.587979750501e-07 3.991017763703e-03 0.0 
-2.045738938250e-07 3.631290379342e-03 0.0 
-1.749039597598e-07 3.159848672038e-03 0.0 
-2.083334678105e-07 3.742826486445e-03 0.0 
6.612769372083e-07 3.719801802092e-03 0.0 
-3.495417288946e-08 1.037740189496e-02 0.0 
-8.560149922232e-09 7.638252653255e-03 0.0 
1.559477407653e-06 1.208263301946e-02 0.0 
-1.466633783309e-07 7.289868441639e-03 0.0 
1.451901243676e-06 1.215053570306e-02 0.0 
-5.026206295611e-08 5.712668293919e-03 0.0 
2.374092944457e-07 4.076897107275e-03 0.0 
4.588403550443e-07 3.486806496209e-03 0.0 
1.401483515906e-07 3.273902668159e-03 0.0 
-1.448205182442e-06 8.851899501096e-03 0.0 
-1.351108736003e-07 6.946696526384e-03 0.0 
-1.218903236122e-07 7.383730052242e-03 0.0 
-1.068294487538e-06 9.263049155475e-03 0.0 
-9.433490184563e-07 9.577812383293e-03 0.0 
-8.104629500849e-07 9.332205346984e-03 0.0 
-8.288189619066e-07 9.878977224544e-03 0.0 
5.567981116172e-07 1.080715338841e-02 0.0 
6.694314134137e-07 1.104559711727e-02 0.0 
4.795895769405e-07 2.977209107744e-03 0.0 
1.336656996642e-06 3.174437960642e-03 0.0 
-7.631671046227e-07 2.957131267735e-03 0.0 
-3.279767568642e-08 3.347507812272e-03 0.0 
-1.394393578380e-08 2.806245559238e-03 0.0 
-6.332476836235e-07 3.405780107936e-03 0.0 
-9.437419601355e-08 1.133876754345e-02 0.0 
-6.426111234248e-07 1.044345836423e-02 0.0 
2.865061787816e-08 2.922219145834e-03 0.0 
-1.183561685991e-06 8.935409352270e-03 0.0 
6.361468010141e-07 2.961580445596e-03 0.0 
4.769844768049e-07 3.542705748057e-03 0.0 
3.115636861395e-06 1.223139059799e-02 0.0 
1.662723727591e-06 1.217660542178e-02 0.0 
3.301218001184e-07 3.088867275469e-03 0.0 
-4.531248798401e-07 1.155384972069e-02 0.0 
-4.839107461407e-07 1.137872232038e-02 0.0 
-4.246437690369e-07 1.171338518615e-02 0.0 
-1.867055113847e-07 1.818562251177e-03 0.0 
-1.029618346138e-08 8.822385320917e-03 0.0 
4.063833847212e-07 3.020772843964e-03 0.0 
-5.721847067264e-07 9.414563938538e-03 0.0 
-4.956714860782e-07 2.551349276974e-03 0.0 
-7.699202697609e-08 6.592053512506e-03 0.0 
-2.909646568128e-07 9.878516627342e-03 0.0 
3.444934346675e-07 4.731626002343e-03 0.0 
-1.784832903695e-07 3.657671878713e-03 0.0 
5.265271596500e-08 2.456927078725e-03 0.0 
1.826950750683e-07 7.569841875419e-03 0.0 
9.742185085315e-07 7.926902457607e-03 0.0 
-2.617710137542e-07 7.224588045863e-03 0.0 
8.594034746068e-07 1.193606778105e-02 0.0 
1.145897424948e-06 1.214555903158e-02 0.0 
-3.148872593783e-07 3.763005709590e-03 0.0 
1.707285406383e-07 1.089430197129e-02 0.0 
-2.301121173609e-07 1.065379923156e-02 0.0 
6.942110761798e-07 1.177149424167e-02 0.0 
6.393766778245e-07 1.146766938048e-02 0.0 
-9.943793521927e-08 8.588447360980e-03 0.0 
-1.419137785064e-08 8.879998208382e-03 0.0 
1.688359212437e-07 5.314262895078e-03 0.0 
1.266797475807e-07 4.809230902918e-03 0.0 
4.685651688874e-08 6.291044526531e-03 0.0 
1.412627277375e-07 6.602455494564e-03 0.0 
6.598262736190e-08 7.414556508905e-03 0.0 
1.431811647024e-08 7.740987982142e-03 0.0 
1.421189210760e-07 2.840110996999e-03 0.0 
1.058046237290e-07 2.129677977528e-03 0.0 
4.316614266031e-07 1.055695520373e-02 0.0 
4.441691956458e-07 1.074969670895e-02 0.0 
4.778145665796e-07 1.062798625408e-02 0.0 
-6.904281377729e-07 2.450177410687e-03 0.0 
9.604609974012e-07 2.426619278928e-03 0.0 
7.957445360418e-07 2.918156703668e-03 0.0 
1.101076875898e-06 1.220983350272e-02 0.0 
2.337426092680e-07 1.212563613401e-02 0.0 
-1.094301858018e-07 1.198069722853e-02 0.0 
6.179703824216e-07 1.209028241518e-02 0.0 
1.740741595313e-08 2.719336995977e-03 0.0 
-2.852609100046e-07 3.283230721578e-03 0.0 
-2.673977519407e-07 2.059040927108e-03 0.0 
1.506476321467e-07 1.154919468567e-02 0.0 
1.393107673664e-07 5.226487593042e-03 0.0 
3.038245015574e-07 2.702020496290e-03 0.0 
1.043758798502e-06 3.178139135464e-03 0.0 
-6.118387574361e-08 2.091965703094e-03 0.0 
2.147927986584e-07 3.760709132884e-03 0.0 
4.819020524849e-07 2.728726740457e-03 0.0 
5.013588264546e-07 2.667200501648e-03 0.0 
2.368928381458e-06 1.227388583331e-02 0.0 
3.674349429161e-07 2.913619773896e-03 0.0 
-7.537929036516e-08 7.854887941962e-03 0.0 
4.148940202953e-06 1.230873669013e-02 0.0 
4.539583571272e-07 8.213914961695e-03 0.0 
9.594122687417e-07 7.783317533695e-03 0.0 
3.691007819384e-07 8.556006818083e-03 0.0 
-3.560733874419e-07 1.182206147613e-02 0.0 
-2.191089834014e-07 8.108494339352e-03 0.0 
-3.724456831833e-07 7.685520162228e-03 0.0 
-3.928146643517e-07 1.227874509801e-02 0.0 
1.802370519499e-08 1.833883064986e-03 0.0 
9.794087292292e-07 1.226728983293e-02 0.0 
2.058712098574e-06 1.222286152404e-02 0.0 
8.505787842950e-07 2.473289668128e-03 0.0 
6.502059068936e-07 3.077837176544e-03 0.0 
-4.984487773640e-07 1.993588911503e-03 0.0 
4.437593466022e-07 2.658922050067e-03 0.0 
6.801850043203e-07 3.686699995914e-03 0.0 
5.676156193957e-07 3.228443097662e-03 0.0 
1.180956772373e-07 8.322352302169e-03 0.0 
4.705469480726e-07 2.017079681188e-03 0.0 
4.212466366837e-07 2.734870703815e-03 0.0 
-3.194648794391e-07 1.556140143361e-03 0.0 
-1.127343864482e-06 1.008511145091e-02 0.0 
-7.561580730453e-07 1.103703158225e-02 0.0 
-1.492706449113e-06 1.119643224908e-02 0.0 
-3.389111284946e-07 1.152149876203e-02 0.0 
-1.608098081363e-07 2.149992821824e-03 0.0 
7.848043566128e-07 2.809711947997e-03 0.0 
1.103918279011e-07 4.626453420208e-03 0.0 
9.898186648094e-08 5.584229276947e-03 0.0 
5.404577478885e-07 8.180715206107e-03 0.0 
-2.320561520719e-10 8.211366975024e-03 0.0 
7.845309326626e-07 7.521349808705e-03 0.0 
3.394111587340e-07 7.608900787430e-03 0.0 
-3.566136115296e-07 6.886196146990e-03 0.0 
-4.042698691364e-07 6.981048510251e-03 0.0 
3.611272632043e-07 6.212786503069e-03 0.0 
-2.726307286594e-07 2.079635182760e-03 0.0 
-5.801913900427e-07 1.182557662631e-02 0.0 
-1.101441654328e-06 9.517110234373e-03 0.0 
-9.028464269534e-07 2.323171505303e-03 0.0 
-1.248116394237e-06 3.027428078674e-03 0.0 
-8.025693709612e-07 1.017269730191e-02 0.0 
-8.464782403905e-07 1.063843611456e-02 0.0 
3.383711018046e-07 2.180820241890e-03 0.0 
-3.669193553435e-07 1.048181742027e-02 0.0 
-2.316205964803e-07 1.187904353195e-03 0.0 
3.223235651717e-06 1.234121119851e-02 0.0 
3.061247127789e-06 1.228819928013e-02 0.0 
-3.694575134716e-07 1.020917316522e-02 0.0 
-6.975827133715e-07 9.650937829480e-03 0.0 
-4.409046887588e-07 1.079831875781e-02 0.0 
-2.088913468867e-07 1.094244366690e-02 0.0 
2.451513232415e-07 5.716018382030e-03 0.0 
-1.056377902486e-06 1.219260687555e-02 0.0 
-4.260600405814e-07 1.185500685133e-02 0.0 
-4.610207327005e-08 6.123829204133e-03 0.0 
-7.649920981123e-07 1.205943318066e-02 0.0 
1.054040931203e-07 5.070089261039e-03 0.0 
-2.895053370366e-07 1.025611323185e-02 0.0 
-3.949106464063e-07 9.164878498177e-03 0.0 
-3.061716391528e-07 1.160075901011e-02 0.0 
-5.798965503345e-07 1.082349505766e-02 0.0 
-1.053092837822e-06 7.583968924273e-03 0.0 
-1.948715727451e-06 8.206977940862e-03 0.0 
-1.367739550062e-06 8.582392066431e-03 0.0 
-2.211040026623e-07 1.002690678346e-02 0.0 
-5.245013419142e-07 1.069624959747e-02 0.0 
-1.660028843276e-07 1.110260725007e-02 0.0 
-6.372191236892e-07 8.069392469075e-03 0.0 
-1.806163680840e-07 4.303549572494e-03 0.0 
-1.510488658596e-07 3.851476491459e-03 0.0 
8.906660298180e-09 2.842361732643e-03 0.0 
9.853591365072e-08 3.396712124641e-03 0.0 
-1.183855999898e-07 4.405499198967e-03 0.0 
9.560826441657e-08 3.962522349028e-03 0.0 
3.326261364123e-07 2.945508906389e-03 0.0 
-7.824039727211e-08 3.511843662491e-03 0.0 
3.186674355504e-07 2.255499835336e-03 0.0 
-4.414383596441e-07 3.028728343455e-03 0.0 
-5.025836102845e-08 4.088296619464e-03 0.0 
-7.421020242759e-08 3.661683522598e-03 0.0 
-6.567811539071e-08 2.692307698862e-03 0.0 
-1.597887298033e-07 4.692553798739e-03 0.0 
1.791075199264e-07 1.726964076621e-03 0.0 
-3.251822953132e-07 9.650330632173e-03 0.0 
2.024091724451e-06 1.221455064592e-02 0.0 
9.057788545874e-07 1.223175355304e-02 0.0 
-4.755543052681e-07 8.812351581529e-03 0.0 
9.486740566444e-07 1.105495174777e-03 0.0 
-8.966365783181e-07 1.082679083357e-03 0.0 
-1.945641088241e-07 1.095756379683e-02 0.0 
-7.630971765593e-08 1.039456720289e-03 0.0 
-1.087518501919e-06 8.287252893135e-03 0.0 
5.379098837466e-07 1.168872083173e-02 0.0 
6.154360221444e-08 1.046762903517e-03 0.0 
-2.054776402360e-07 4.838226438054e-03 0.0 
-3.658684804009e-07 5.369132593787e-03 0.0 
-4.190111724256e-07 5.771608143137e-03 0.0 
-7.077310684167e-07 1.006735472885e-03 0.0 
6.955707476664e-08 6.859937452417e-03 0.0 
-6.344225376154e-07 9.826875916197e-04 0.0 
2.836127777073e-09 7.098031146567e-03 0.0 
-6.170520450155e-08 7.454268581832e-03 0.0 
-1.343190305647e-07 8.191045814435e-03 0.0 
-5.418724668971e-08 4.535360209035e-03 0.0 
2.083625290084e-07 1.047451804109e-03 0.0 
1.921923242776e-07 2.011733047418e-03 0.0 
-7.020489967147e-07 2.013797764757e-03 0.0 
4.321713831246e-08 3.012830941504e-03 0.0 
-4.112013485269e-08 1.043324809395e-03 0.0 
8.022997732837e-08 9.970495349449e-04 0.0 
1.122787871566e-07 9.487466613258e-04 0.0 
7.609847543222e-07 1.115979493588e-02 0.0 
4.581872712350e-07 1.093141903352e-02 0.0 
2.409724260133e-07 1.049339804058e-02 0.0 
2.148480326980e-07 1.068876830170e-02 0.0 
4.492977563331e-07 1.110663923418e-02 0.0 
2.519447974692e-07 1.087833822722e-02 0.0 
9.617798468753e-08 1.043380311428e-02 0.0 
2.912603491723e-07 1.105930607287e-02 0.0 
2.630840043594e-07 3.819721020683e-03 0.0 
1.820953201559e-07 1.006350979470e-03 0.0 
1.615705631508e-07 7.138280281048e-03 0.0 
1.567134884084e-07 7.493896895497e-03 0.0 
1.334918557916e-07 8.235692392509e-03 0.0 
-8.898956327386e-08 9.507820593797e-03 0.0 
-2.426738809902e-09 9.161924730119e-03 0.0 
3.011478710846e-08 8.498283308953e-03 0.0 
-2.116561956811e-07 9.836863232502e-03 0.0 
-1.301404850551e-08 6.022664747922e-03 0.0 
-6.421433802473e-07 1.016242975211e-03 0.0 
2.265273657542e-08 7.305236814693e-03 0.0 
6.913297134759e-08 9.432359634106e-03 0.0 
-7.176839673662e-07 8.812495397418e-03 0.0 
-2.343580753461e-06 8.215856929395e-03 0.0 
-1.559434750220e-06 8.201119101981e-03 0.0 
-1.324401459613e-06 7.472340888405e-03 0.0 
-1.707093318259e-06 8.130326593200e-03 0.0 
-5.523649182493e-08 8.282981518979e-03 0.0 
5.921118217955e-08 7.965656031827e-03 0.0 
-1.938035065763e-08 8.373543296164e-03 0.0 
2.011902751065e-07 7.636203337647e-03 0.0 
-1.744161437500e-08 8.057953900176e-03 0.0 
-1.040760726490e-07 8.745920417839e-03 0.0 
2.363572093600e-07 7.294222473623e-03 0.0 
-4.696734874354e-07 7.816863709664e-03 0.0 
-7.177301384331e-07 8.810416935528e-03 0.0 
1.454935357970e-06 1.233922707861e-02 0.0 
1.524061518765e-06 1.228494287648e-02 0.0 
1.055101861880e-06 1.228708618815e-02 0.0 
1.910688350648e-06 1.219577283372e-02 0.0 
1.326586261285e-06 1.218701328400e-02 0.0 
1.875605494916e-06 1.203547448876e-02 0.0 
2.096188408629e-06 1.205748778862e-02 0.0 
2.398966771011e-06 1.228560452651e-02 0.0 
5.876186115472e-07 1.233853456567e-02 0.0 
7.218866144854e-07 1.228833037679e-02 0.0 
4.003316949053e-07 1.233851535534e-02 0.0 
1.650097996020e-07 1.229023720222e-02 0.0 
6.405176815605e-07 1.217900483087e-02 0.0 
7.655592799694e-07 1.192368661998e-02 0.0 
-3.345813253119e-07 1.212732152620e-03 0.0 
1.203794091076e-07 9.669190934172e-03 0.0 
7.735964746569e-07 9.954451338288e-03 0.0 
-4.186488671287e-07 1.045744802528e-02 0.0 
-2.125054265889e-08 1.019246913161e-02 0.0 
-1.074824142133e-06 9.426086374237e-03 0.0 
8.512852778253e-08 1.070743603679e-02 0.0 
8.178701593753e-07 1.086300884545e-02 0.0 
-2.149928293171e-07 1.233931011108e-02 0.0 
-1.658111548064e-06 1.228840676113e-02 0.0 
-1.897020090347e-06 1.229742055335e-02 0.0 
-1.019990850448e-06 1.218977313925e-02 0.0 
-1.376337767311e-06 1.219231532800e-02 0.0 
-5.459448688683e-07 1.228619551561e-02 0.0 
2.383790396188e-07 1.228683398810e-02 0.0 
7.773108201548e-07 1.233918040822e-02 0.0 
1.134118174484e-06 1.228782426642e-02 0.0 
1.315289246406e-07 1.218647530865e-02 0.0 
1.950539578743e-06 1.233980579213e-02 0.0 
-3.393000866936e-07 5.000368362955e-03 0.0 
-2.318623444353e-07 4.515528466513e-03 0.0 
-8.639265320909e-07 1.083481113255e-03 0.0 
-6.961551974882e-07 8.753614961831e-03 0.0 
1.481431635142e-07 1.233929031412e-02 0.0 
-2.437349593265e-07 1.261703974730e-03 0.0 
-8.327618274961e-07 1.052033555066e-03 0.0 
4.955047998578e-07 1.017955190239e-03 0.0 
-1.363446680003e-07 2.981626029968e-03 0.0 
-1.378094198756e-07 2.442713071570e-03 0.0 
-1.167887937470e-06 1.225163325579e-03 0.0 
2.649975678892e-07 1.118928101059e-02 0.0 
-2.293594150160e-07 2.398841241607e-03 0.0 
-3.541207149738e-07 3.175322878281e-03 0.0 
2.959108265088e-07 1.179606477938e-02 0.0 
7.211372583527e-07 1.126597596832e-02 0.0 
-1.660679669335e-07 5.991581496174e-03 0.0 
1.465461982875e-07 6.996487385457e-03 0.0 
2.348079188863e-07 3.950159969346e-03 0.0 
1.959137740926e-07 6.751501041586e-03 0.0 
3.588477310856e-07 4.814594715569e-03 0.0 
-3.902709106995e-07 2.084653724715e-03 0.0 
6.005870649695e-07 1.191817015530e-02 0.0 
-2.292895615597e-07 6.691747203364e-03 0.0 
-4.780266564808e-07 6.987853806175e-03 0.0 
-4.670512154803e-07 4.774664710776e-03 0.0 
2.025119894000e-08 1.107335829960e-02 0.0 
-3.805776973564e-07 9.016132652423e-03 0.0 
8.660605637090e-07 1.185943660656e-02 0.0 
4.293788080645e-07 1.964260869190e-03 0.0 
-7.270391471081e-07 8.731235368469e-03 0.0 
1.522107826446e-07 8.624387701964e-03 0.0 
-1.468002919225e-07 1.007518088485e-02 0.0 
3.497477027992e-07 1.095741863224e-02 0.0 
8.130746511625e-07 1.141437851116e-02 0.0 
-2.756613035615e-07 9.316287391361e-03 0.0 
1.234779070103e-07 9.081986310793e-03 0.0 
2.243543519853e-07 5.517596229771e-03 0.0 
-4.583516073353e-07 4.225000316865e-03 0.0 
1.334874263570e-06 1.233602372025e-02 0.0 
2.444635729404e-07 4.984188121037e-03 0.0 
1.204708048874e-07 7.683003456723e-03 0.0 
-1.484477678559e-07 6.391103063535e-03 0.0 
1.580146786750e-07 4.968580986725e-03 0.0 
1.444125910410e-06 1.193088925141e-02 0.0 
-4.211008359789e-07 4.434417033597e-03 0.0 
-1.806211784583e-07 2.621659149618e-03 0.0 
3.757211430866e-07 7.305398728533e-03 0.0 
7.380379729582e-07 1.207796051202e-02 0.0 
3.125875025489e-07 7.518110353141e-03 0.0 
3.618250588033e-07 2.789269413018e-03 0.0 
-2.287958977831e-07 4.741803616055e-03 0.0 
9.384858135064e-08 1.129107726700e-02 0.0 
-6.248120953956e-08 8.361048487377e-03 0.0 
-2.940709933341e-07 8.893783358772e-03 0.0 
-5.467762989042e-07 9.431947229357e-03 0.0 
-4.532311237426e-08 2.724216209913e-03 0.0 
-2.051226388744e-07 8.112729626751e-03 0.0 
1.892384311475e-07 4.103806193591e-03 0.0 
5.671810399122e-08 6.850701698683e-03 0.0 
-1.250073244918e-07 1.111968237800e-02 0.0 
5.021618871837e-07 4.125986235671e-03 0.0 
-1.370408746482e-07 8.571345983050e-03 0.0 
-1.727303029497e-07 3.408759265991e-03 0.0 
1.927907291588e-07 5.415479328839e-03 0.0 
-8.171248566669e-08 9.864529332527e-03 0.0 
-1.571720673610e-07 4.089904538709e-03 0.0 
1.046937772031e-07 8.542286773675e-03 0.0 
-6.491000092979e-08 4.422789411628e-03 0.0 
-6.695306069560e-07 9.077749242154e-03 0.0 
-1.240305209649e-07 7.099142708297e-03 0.0 
-3.240567743035e-07 6.095254128075e-03 0.0 
-1.652557592990e-07 7.617110895087e-03 0.0 
-1.715214341669e-07 6.487057359903e-03 0.0 
2.792181117428e-07 4.561368277946e-03 0.0 
1.647681866501e-06 1.187248622188e-02 0.0 
-4.206188748412e-07 1.038214883920e-02 0.0 
-3.507266939096e-07 6.470626438903e-03 0.0 
6.032944810386e-07 3.633014990641e-03 0.0 
8.304869894005e-07 2.310897064284e-03 0.0 
-3.396791115051e-07 9.490590987140e-03 0.0 
4.312394343842e-07 4.691366584032e-03 0.0 
-3.307698221988e-07 3.074473476310e-03 0.0 
6.413743669498e-08 8.797961691913e-03 0.0 
-5.750536100635e-07 1.178914022819e-02 0.0 
1.182592992421e-06 1.201409337419e-02 0.0 
7.144695501893e-08 1.083028966602e-02 0.0 
-2.152037019698e-07 8.495645269853e-03 0.0 
7.940526636219e-08 8.102527782208e-03 0.0 
1.143521330960e-07 2.122260984244e-03 0.0 
4.585894730624e-07 4.260904641701e-03 0.0 
2.654239157351e-07 5.279830846426e-03 0.0 
1.749661251438e-07 1.227231986162e-02 0.0 
-1.120490573214e-06 9.189893603336e-03 0.0 
3.859490824709e-07 3.817048566397e-03 0.0 
-2.430278911447e-08 8.055986445610e-03 0.0 
-1.061301091454e-07 3.995695157350e-03 0.0 
1.117925778615e-07 8.470811329351e-03 0.0 
-6.470284859006e-07 1.990793095874e-03 0.0 
-9.460442988996e-07 1.036061722116e-02 0.0 
2.096026738840e-07 3.359921149713e-03 0.0 
2.272895880395e-07 5.199080513290e-03 0.0 
-2.933077887235e-07 1.072431603685e-02 0.0 
-5.347499154595e-08 8.821197669560e-03 0.0 
8.171887344588e-08 2.094586947550e-03 0.0 
4.673334110805e-07 4.165872487725e-03 0.0 
-1.098023787449e-07 6.851587628042e-03 0.0 
-8.475087298621e-09 8.453689399872e-03 0.0 
-9.718183697771e-07 1.001701369716e-02 0.0 
7.258620016160e-08 7.779646333999e-03 0.0 
-1.031053713518e-07 6.657478827695e-03 0.0 
4.806257578593e-07 9.794888968919e-04 0.0 
3.125962209083e-07 3.660098484488e-03 0.0 
-7.916724342749e-07 6.275261046705e-03 0.0 
3.829204509032e-09 8.195234122493e-03 0.0 
7.759474840441e-09 6.201748191977e-03 0.0 
-1.086872725153e-07 1.219102092259e-02 0.0 
-1.025995107540e-06 9.803440158848e-03 0.0 
3.902347689433e-08 7.877389474775e-03 0.0 
7.238994470526e-08 1.063855724182e-02 0.0 
2.047604930056e-08 8.152712513875e-03 0.0 
9.856154541410e-07 2.257590247083e-03 0.0 
1.273302023819e-07 7.546245100732e-03 0.0 
-8.342546209406e-09 1.015813551320e-02 0.0 
2.617335952415e-07 7.203038293396e-03 0.0 
-7.607625569506e-07 1.053463667422e-02 0.0 
-5.567644123516e-07 5.875410218225e-03 0.0 
3.072882983624e-07 6.847359415403e-03 0.0 
1.332613095428e-07 5.812143798018e-03 0.0 
8.773660917782e-07 1.217875672046e-02 0.0 
-9.776850973253e-08 6.499878551651e-03 0.0 
1.615702160951e-07 3.555947557608e-03 0.0 
3.959050793867e-07 1.043871652088e-02 0.0 
1.118325609895e-07 7.839159050292e-03 0.0 
-2.006350854344e-07 4.954941390249e-03 0.0 
-6.471696529786e-07 1.098902855050e-02 0.0 
1.303804371133e-07 7.061418996793e-03 0.0 
2.778042720308e-07 4.905040685012e-03 0.0 
1.905175750494e-08 6.130651758319e-03 0.0 
-1.336653845385e-07 7.794856744894e-03 0.0 
1.912419751449e-07 6.207274452338e-03 0.0 
-4.424804629366e-07 1.085526670844e-02 0.0 
4.831265592031e-07 1.134923961817e-02 0.0 
6.842775235327e-07 1.166217513356e-02 0.0 
2.431069034969e-08 9.931829285705e-03 0.0 
2.539032237792e-07 4.368332919388e-03 0.0 
-1.437483820421e-06 1.205377874833e-02 0.0 
-3.480002774836e-07 5.082113764566e-03 0.0 
5.058445200490e-07 1.201195117976e-02 0.0 
1.338339394863e-07 1.022156725600e-02 0.0 
9.400409695104e-08 4.724922851397e-03 0.0 
-3.099907459614e-07 6.769011943062e-03 0.0 
1.853789921569e-07 1.000015375870e-02 0.0 
-1.515634954208e-07 1.148720647935e-02 0.0 
3.015680896112e-07 1.028893432759e-02 0.0 
-5.959013904544e-08 7.026985312974e-03 0.0 
3.296663706465e-07 1.006969859729e-02 0.0 
4.442596850396e-07 1.035628642794e-02 0.0 
-9.310397857121e-07 2.110181491581e-03 0.0 
3.681228957220e-07 1.014509969648e-02 0.0 
-1.301092538597e-06 1.017743931193e-03 0.0 
1.319271549782e-07 1.104887181299e-03 0.0 
1.900758874740e-07 8.300285310018e-03 0.0 
-2.368546496712e-06 1.140369976682e-02 0.0 
1.600829644843e-06 1.234116845707e-02 0.0 
-1.815357357771e-06 1.126990638751e-02 0.0 
5.225291861422e-07 1.088143123501e-02 0.0 
-1.351677489936e-07 5.221296127246e-03 0.0 
3.931355294640e-07 8.266431738631e-03 0.0 
5.490838717037e-07 1.112011747308e-02 0.0 
4.205944073021e-07 1.982520119803e-03 0.0 
-4.182262145491e-07 9.744031551939e-04 0.0 
7.492338482962e-08 5.423795051088e-03 0.0 
-1.700206766486e-07 3.601929820260e-03 0.0 
3.052356944977e-08 5.708023090424e-03 0.0 
-8.286806263413e-08 3.019789546499e-03 0.0 
-3.596440478759e-08 8.868318129212e-03 0.0 
1.423532225431e-08 1.229192793166e-02 0.0 
1.104224903736e-07 6.017854054489e-03 0.0 
-1.042678587027e-06 1.172724422058e-02 0.0 
-6.872995150786e-07 1.169247124694e-02 0.0 
-7.843950449171e-07 1.195738576781e-02 0.0 
3.512481603352e-07 1.097605322804e-02 0.0 
1.326403086921e-06 1.219965502412e-02 0.0 
-6.134623475873e-07 1.193625972041e-02 0.0 
-5.615004710080e-07 2.073559734495e-03 0.0 
1.796067650162e-07 8.251770782929e-03 0.0 
3.971090443144e-07 4.283365378988e-03 0.0 
-1.003497970942e-06 1.213527474212e-02 0.0 
-9.193312422440e-07 2.044022759844e-03 0.0 
2.795372324726e-07 2.054561377982e-03 0.0 
8.475928261475e-07 9.600228341213e-04 0.0 
4.320794602108e-07 3.219691795067e-03 0.0 
-7.189474011682e-07 1.215668585226e-02 0.0 
-3.363667460121e-07 7.623504476218e-03 0.0 
2.052917231765e-07 1.947474461730e-03 0.0 
2.249368051821e-07 4.657697681974e-03 0.0 
-7.948606617347e-07 9.246174931761e-04 0.0 
-1.031953402730e-06 8.318576344774e-03 0.0 
-1.950256702798e-07 1.972165861037e-03 0.0 
2.517539224201e-06 1.199429808977e-02 0.0 
-9.947479640005e-07 1.913629062653e-03 0.0 
5.677235748180e-08 4.255776826810e-03 0.0 
2.095578608419e-07 7.355087102955e-03 0.0 
-2.314702015838e-06 7.661079175433e-03 0.0 
2.632182827256e-07 1.917094676703e-03 0.0 
-6.374020955491e-07 1.994227764595e-03 0.0 
3.754682644797e-07 1.223434126691e-02 0.0 
1.363321189274e-08 5.515860109975e-03 0.0 
-2.577879847365e-07 1.018336841713e-02 0.0 
3.332491552044e-06 1.229974103909e-02 0.0 
9.578108173258e-07 1.993710805500e-03 0.0 
4.612284492111e-07 3.262807051627e-03 0.0 
4.605248600242e-07 1.954098651694e-03 0.0 
-8.337356229848e-07 1.219978692694e-02 0.0 
-1.072970713167e-06 1.229839723831e-02 0.0 
-1.329175045583e-07 1.837727058515e-03 0.0 
-3.620986994690e-07 1.832400252901e-03 0.0 
1.987195689779e-06 1.187058987497e-02 0.0 
-3.911207642204e-07 8.288340980513e-04 0.0 
3.920419636927e-06 1.230592495101e-02 0.0 
-3.792551268589e-07 8.936846043810e-03 0.0 
2.511834471974e-06 1.229540384075e-02 0.0 
-4.098942962827e-08 9.370703675060e-04 0.0 
7.281169800422e-07 1.895620859116e-03 0.0 
-7.701870075039e-07 9.692773722929e-03 0.0 
-1.199210373670e-06 8.744938452057e-03 0.0 
3.826899690473e-07 1.124291078071e-02 0.0 
7.970704523075e-07 2.759423286744e-03 0.0 
-6.019173337535e-07 1.221246465510e-02 0.0 
-2.598014106070e-07 1.788609452653e-03 0.0 
-5.856223239675e-08 1.785313787796e-03 0.0 
-4.248575322663e-07 1.804754295812e-03 0.0 
-3.110273922857e-07 7.648275485153e-04 0.0 
1.461619969945e-06 1.230221568690e-02 0.0 
2.779203711611e-08 1.758203468636e-03 0.0 
6.847361788687e-07 2.784389729502e-03 0.0 
5.939835645563e-07 8.897631875719e-03 0.0 
4.534518964761e-07 1.941542553258e-03 0.0 
6.621742718593e-07 1.061670252303e-02 0.0 
1.209780442046e-06 1.205775290178e-02 0.0 
-2.767574471818e-07 9.021739969448e-04 0.0 
-1.548628832837e-06 1.234289824534e-02 0.0 
-1.796325861392e-07 8.897866601993e-03 0.0 
3.917722233293e-07 9.019238104102e-04 0.0 
-1.267527948823e-06 1.208694889588e-02 0.0 
3.322967501163e-07 7.758545396893e-03 0.0 
-4.904718409193e-08 1.760969732672e-03 0.0 
-9.565830541014e-07 8.353079588399e-03 0.0 
8.001209934605e-07 3.712568769714e-03 0.0 
9.429898319979e-07 1.209229264548e-02 0.0 
2.733195625382e-06 1.234423537895e-02 0.0 
2.635881841684e-07 6.342504869346e-03 0.0 
9.107999154878e-07 1.849530362144e-03 0.0 
-3.965217274526e-07 1.719376337761e-03 0.0 
2.057923111920e-07 6.913599506678e-03 0.0 
1.045732140881e-07 1.213981221333e-02 0.0 
2.041268487574e-07 2.479633587360e-03 0.0 
-9.633442341617e-07 9.233007162342e-03 0.0 
-1.018811524034e-07 2.684361780318e-03 0.0 
-9.702713974491e-07 2.795853758212e-03 0.0 
4.428514067456e-06 1.234159689440e-02 0.0 
5.182506094270e-07 7.625685758047e-03 0.0 
2.932560400737e-06 1.230008060642e-02 0.0 
1.950291839137e-07 1.780513272326e-03 0.0 
-1.297230485475e-06 8.945790572227e-03 0.0 
4.029124962557e-06 1.234812698704e-02 0.0 
-1.399516868617e-06 1.234977684654e-02 0.0 
4.631221663942e-07 1.230633070061e-02 0.0 
2.349961668813e-06 1.230672167260e-02 0.0 
5.039858024247e-07 1.220707692653e-02 0.0 
-2.293626906180e-07 1.219891652715e-02 0.0 
1.357746441499e-06 1.204504048331e-02 0.0 
1.523483966537e-06 1.202856585387e-02 0.0 
1.262837333371e-06 1.181550382494e-02 0.0 
-9.596229588738e-07 1.179460421128e-02 0.0 
9.730394836538e-07 1.152487772634e-02 0.0 
1.305210112434e-06 1.149694169097e-02 0.0 
1.459367268808e-06 1.116695711698e-02 0.0 
-1.083940802005e-06 1.113540697344e-02 0.0 
1.585764525913e-06 1.074979607045e-02 0.0 
1.258811103355e-06 1.071000654077e-02 0.0 
1.406306587626e-06 1.026249730829e-02 0.0 
-1.253201070028e-06 1.022065805656e-02 0.0 
1.545529514146e-06 9.719309949324e-03 0.0 
1.046015114525e-06 9.667666630193e-03 0.0 

VECTORS node_bounda_dof_materi_velocity_x float
1.000000000000e+00 0.0 0.0 
1.000000000000e+00 0.0 0.0 
1.000000000000e+00 0.0 0.0 
1.000000000000e+00 0.0 0.0 
1.000000000000e+00 0.0 0.0 
1.000000000000e+00 0.0 0.0 
1.000000000000e+00 0.0 0.0 
1.000000000000e+00 0.0 0.0 
1.000000000000e+00 0.0 0.0 
1.000000000000e+00 0.0 0.0 
1.000000000000e+00 0.0 0.0 
1.000000000000e+00 0.0 0.0 
1.000000000000e+00 0.0 0.0 
1.000000000000e+00 0.0 0.0 
1.000000000000e+00 0.0 0.0 
1.000000000000e+00 0.0 0.0 
1.000000000000e+00 0.0 0.0 
1.000000000000e+00 0.0 0.0 
1.000000000000e+00 0.0 0.0 
1.000000000000e+00 0.0 0.0 
1.000000000000e+00 0.0 0.0 
1.000000000000e+00 0.0 0.0 
1.000000000000e+00 0.0 0.0 
1.000000000000e+00 0.0 0.0 
1.000000000000e+00 0.0 0.0 
1.000000000000e+00 0.0 0.0 
1.000000000000e+00 0.0 0.0 
1.000000000000e+00 0.0 0.0 
1.000000000000e+00 0.0 0.0 
1.000000000000e+00 0.0 0.0 
1.000000000000e+00 0.0 0.0 
1.000000000000e+00 0.0 0.0 
1.000000000000e+00 0.0 0.0 
1.000000000000e+00 0.0 0.0 
1.000000000000e+00 0.0 0.0 
1.000000000000e+00 0.0 0.0 
1.000000000000e+00 0.0 0.0 
1.000000000000e+00 0.0 0.0 
1.000000000000e+00 0.0 0.0 
1.000000000000e+00 0.0 0.0 
1.000000000000e+00 0.0 0.0 
1.000000000000e+00 0.0 0.0 
1.000000000000e+00 0.0 0.0 
1.000000000000e+00 0.0 0.0 
1.000000000000e+00 0.0 0.0 
1.000000000000e+00 0.0 0.0 
1.000000000000e+00 0.0 0.0 
1.000000000000e+00 0.0 0.0 
1.000000000000e+00 0.0 0.0 
1.000000000000e+00 0.0 0.0 
1.000000000000e+00 0.0 0.0 
1.000000000000e+00 0.0 0.0 
1.000000000000e+00 0.0 0.0 
1.000000000000e+00 0.0 0.0 
1.000000000000e+00 0.0 0.0 
1.000000000000e+00 0.0 0.0 
1.000000000000e+00 0.0 0.0 
1.000000000000e+00 0.0 0.0 
1.000000000000e+00 0.0 0.0 
1.000000000000e+00 0.0 0.0 
1.000000000000e+00 0.0 0.0 
1.000000000000e+00 0.0 0.0 
1.000000000000e+00 0.0 0.0 
1.000000000000e+00 0.0 0.0 
1.000000000000e+00 0.0 0.0 
1.000000000000e+00 0.0 0.0 
1.000000000000e+00 0.0 0.0 
1.000000000000e+00 0.0 0.0 
1.000000000000e+00 0.0 0.0 
1.000000000000e+00 0.0 0.0 
1.000000000000e+00 0.0 0.0 
1.000000000000e+00 0.0 0.0 
1.000000000000e+00 0.0 0.0 
1.000000000000e+00 0.0 0.0 
1.000000000000e+00 0.0 0.0 
1.000000000000e+00 0.0 0.0 
1.000000000000e+00 0.0 0.0 
1.000000000000e+00 0.0 0.0 
1.000000000000e+00 0.0 0.0 
1.000000000000e+00 0.0 0.0 
1.000000000000e+00 0.0 0.0 
0.0 0.0 0.0 
1.000000000000e+00 0.0 0.0 
0.0 0.0 0.0 
0.0 0.0 0.0 
0.0 0.0 0.0 
0.0 0.0 0.0 
0.0 0.0 0.0 
0.0 0.0 0.0 
0.0 0.0 0.0 
0.0 0.0 0.0 
0.0 0.0 0.0 
0.0 0.0 0.0 
1.000000000000e+00 0.0 0.0 
1.000000000000e+00 0.0 0.0 
1.000000000000e+00 0.0 0.0 
1.000000000000e+00 0.0 0.0 
1.000000000000e+00 0.0 0.0 
1.000000000000e+00 0.0 0.0 
1.000000000000e+00 0.0 0.0 
1.000000000000e+00 0.0 0.0 
1.000000000000e+00 0.0 0.0 
0.0 0.0 0.0 
0.0 0.0 0.0 
0.0 0.0 0.0 
0.0 0.0 0.0 
0.0 0.0 0.0 
0.0 0.0 0.0 
0.0 0.0 0.0 
0.0 0.0 0.0 
0.0 0.0 0.0 
0.0 0.0 0.0 
0.0 0.0 0.0 
0.0 0.0 0.0 
0.0 0.0 0.0 
0.0 0.0 0.0 
0.0 0.0 0.0 
0.0 0.0 0.0 
0.0 0.0 0.0 
0.0 0.0 0.0 
0.0 0.0 0.0 
0.0 0.0 0.0 
0.0 0.0 0.0 
0.0 0.0 0.0 
0.0 0.0 0.0 
0.0 0.0 0.0 
0.0 0.0 0.0 
0.0 0.0 0.0 
0.0 0.0 0.0 
0.0 0.0 0.0 
0.0 0.0 0.0 
0.0 0.0 0.0 
0.0 0.0 0.0 
0.0 0.0 0.0 
0.0 0.0 0.0 
0.0 0.0 0.0 
0.0 0.0 0.0 
0.0 0.0 0.0 
0.0 0.0 0.0 
0.0 0.0 0.0 
0.0 0.0 0.0 
0.0 0.0 0.0 
0.0 0.0 0.0 
0.0 0.0 0.0 
0.0 0.0 0.0 
0.0 0.0 0.0 
0.0 0.0 0.0 
0.0 0.0 0.0 
0.0 0.0 0.0 
0.0 0.0 0.0 
0.0 0.0 0.0 
0.0 0.0 0.0 
0.0 0.0 0.0 
0.0 0.0 0.0 
0.0 0.0 0.0 
0.0 0.0 0.0 
0.0 0.0 0.0 
0.0 0.0 0.0 
0.0 0.0 0.0 
0.0 0.0 0.0 
0.0 0.0 0.0 
0.0 0.0 0.0 
0.0 0.0 0.0 
0.0 0.0 0.0 
0.0 0.0 0.0 
0.0 0.0 0.0 
0.0 0.0 0.0 
0.0 0.0 0.0 
0.0 0.0 0.0 
0.0 0.0 0.0 
0.0 0.0 0.0 
0.0 0.0 0.0 
0.0 0.0 0.0 
0.0 0.0 0.0 
0.0 0.0 0.0 
0.0 0.0 0.0 
0.0 0.0 0.0 
0.0 0.0 0.0 
0.0 0.0 0.0 
0.0 0.0 0.0 
0.0 0.0 0.0 
0.0 0.0 0.0 
0.0 0.0 0.0 
0.0 0.0 0.0 
0.0 0.0 0.0 
0.0 0.0 0.0 
0.0 0.0 0.0 
0.0 0.0 0.0 
0.0 0.0 0.0 
0.0 0.0 0.0 
0.0 0.0 0.0 
0.0 0.0 0.0 
0.0 0.0 0.0 
0.0 0.0 0.0 
0.0 0.0 0.0 
0.0 0.0 0.0 
0.0 0.0 0.0 
0.0 0.0 0.0 
0.0 0.0 0.0 
0.0 0.0 0.0 
0.0 0.0 0.0 
0.0 0.0 0.0 
0.0 0.0 0.0 
0.0 0.0 0.0 
0.0 0.0 0.0 
0.0 0.0 0.0 
0.0 0.0 0.0 
0.0 0.0 0.0 
0.0 0.0 0.0 
0.0 0.0 0.0 
0.0 0.0 0.0 
0.0 0.0 0.0 
0.0 0.0 0.0 
0.0 0.0 0.0 
0.0 0.0 0.0 
0.0 0.0 0.0 
0.0 0.0 0.0 
0.0 0.0 0.0 
0.0 0.0 0.0 
0.0 0.0 0.0 
0.0 0.0 0.0 
0.0 0.0 0.0 
0.0 0.0 0.0 
0.0 0.0 0.0 
0.0 0.0 0.0 
0.0 0.0 0.0 
0.0 0.0 0.0 
0.0 0.0 0.0 
0.0 0.0 0.0 
0.0 0.0 0.0 
0.0 0.0 0.0 
0.0 0.0 0.0 
0.0 0.0 0.0 
0.0 0.0 0.0 
0.0 0.0 0.0 
0.0 0.0 0.0 
0.0 0.0 0.0 
0.0 0.0 0.0 
0.0 0.0 0.0 
0.0 0.0 0.0 
0.0 0.0 0.0 
0.0 0.0 0.0 
0.0 0.0 0.0 
0.0 0.0 0.0 
0.0 0.0 0.0 
0.0 0.0 0.0 
0.0 0.0 0.0 
0.0 0.0 0.0 
0.0 0.0 0.0 
0.0 0.0 0.0 
0.0 0.0 0.0 
0.0 0.0 0.0 
0.0 0.0 0.0 
0.0 0.0 0.0 
0.0 0.0 0.0 
0.0 0.0 0.0 
0.0 0.0 0.0 
0.0 0.0 0.0 
0.0 0.0 0.0 
0.0 0.0 0.0 
0.0 0.0 0.0 
0.0 0.0 0.0 
0.0 0.0 0.0 
0.0 0.0 0.0 
0.0 0.0 0.0 
0.0 0.0 0.0 
0.0 0.0 0.0 
0.0 0.0 0.0 
0.0 0.0 0.0 
0.0 0.0 0.0 
0.0 0.0 0.0 
0.0 0.0 0.0 
0.0 0.0 0.0 
0.0 0.0 0.0 
0.0 0.0 0.0 
0.0 0.0 0.0 
0.0 0.0 0.0 
0.0 0.0 0.0 
0.0 0.0 0.0 
0.0 0.0 0.0 
0.0 0.0 0.0 
0.0 0.0 0.0 
0.0 0.0 0.0 
0.0 0.0 0.0 
0.0 0.0 0.0 
0.0 0.0 0.0 
0.0 0.0 0.0 
0.0 0.0 0.0 
0.0 0.0 0.0 
0.0 0.0 0.0 
0.0 0.0 0.0 
0.0 0.0 0.0 
0.0 0.0 0.0 
0.0 0.0 0.0 
0.0 0.0 0.0 
0.0 0.0 0.0 
0.0 0.0 0.0 
0.0 0.0 0.0 
0.0 0.0 0.0 
0.0 0.0 0.0 
0.0 0.0 0.0 
0.0 0.0 0.0 
0.0 0.0 0.0 
0.0 0.0 0.0 
0.0 0.0 0.0 
0.0 0.0 0.0 
0.0 0.0 0.0 
0.0 0.0 0.0 
0.0 0.0 0.0 
0.0 0.0 0.0 
0.0 0.0 0.0 
0.0 0.0 0.0 
0.0 0.0 0.0 
0.0 0.0 0.0 
0.0 0.0 0.0 
0.0 0.0 0.0 
0.0 0.0 0.0 
0.0 0.0 0.0 
0.0 0.0 0.0 
0.0 0.0 0.0 
0.0 0.0 0.0 
0.0 0.0 0.0 
0.0 0.0 0.0 
0.0 0.0 0.0 
0.0 0.0 0.0 
0.0 0.0 0.0 
0.0 0.0 0.0 
0.0 0.0 0.0 
0.0 0.0 0.0 
0.0 0.0 0.0 
0.0 0.0 0.0 
0.0 0.0 0.0 
0.0 0.0 0.0 
0.0 0.0 0.0 
0.0 0.0 0.0 
0.0 0.0 0.0 
0.0 0.0 0.0 
0.0 0.0 0.0 
0.0 0.0 0.0 
0.0 0.0 0.0 
0.0 0.0 0.0 
0.0 0.0 0.0 
0.0 0.0 0.0 
0.0 0.0 0.0 
0.0 0.0 0.0 
0.0 0.0 0.0 
0.0 0.0 0.0 
0.0 0.0 0.0 
0.0 0.0 0.0 
0.0 0.0 0.0 
0.0 0.0 0.0 
0.0 0.0 0.0 
0.0 0.0 0.0 
0.0 0.0 0.0 
0.0 0.0 0.0 
0.0 0.0 0.0 
0.0 0.0 0.0 
0.0 0.0 0.0 
0.0 0.0 0.0 
0.0 0.0 0.0 
0.0 0.0 0.0 
0.0 0.0 0.0 
0.0 0.0 0.0 
0.0 0.0 0.0 
0.0 0.0 0.0 
0.0 0.0 0.0 
0.0 0.0 0.0 
0.0 0.0 0.0 
0.0 0.0 0.0 
0.0 0.0 0.0 
0.0 0.0 0.0 
0.0 0.0 0.0 
0.0 0.0 0.0 
0.0 0.0 0.0 
0.0 0.0 0.0 
0.0 0.0 0.0 
0.0 0.0 0.0 
0.0 0.0 0.0 
0.0 0.0 0.0 
0.0 0.0 0.0 
0.0 0.0 0.0 
0.0 0.0 0.0 
0.0 0.0 0.0 
0.0 0.0 0.0 
0.0 0.0 0.0 
0.0 0.0 0.0 
0.0 0.0 0.0 
0.0 0.0 0.0 
0.0 0.0 0.0 
0.0 0.0 0.0 
0.0 0.0 0.0 
0.0 0.0 0.0 
0.0 0.0 0.0 
0.0 0.0 0.0 
0.0 0.0 0.0 
0.0 0.0 0.0 
0.0 0.0 0.0 
0.0 0.0 0.0 
0.0 0.0 0.0 
0.0 0.0 0.0 
0.0 0.0 0.0 
0.0 0.0 0.0 
0.0 0.0 0.0 
0.0 0.0 0.0 
0.0 0.0 0.0 
0.0 0.0 0.0 
0.0 0.0 0.0 
0.0 0.0 0.0 
0.0 0.0 0.0 
0.0 0.0 0.0 
0.0 0.0 0.0 
0.0 0.0 0.0 
0.0 0.0 0.0 
0.0 0.0 0.0 
0.0 0.0 0.0 
0.0 0.0 0.0 
0.0 0.0 0.0 
0.0 0.0 0.0 
0.0 0.0 0.0 
0.0 0.0 0.0 
0.0 0.0 0.0 
0.0 0.0 0.0 
0.0 0.0 0.0 
0.0 0.0 0.0 
0.0 0.0 0.0 
0.0 0.0 0.0 
0.0 0.0 0.0 
0.0 0.0 0.0 
0.0 0.0 0.0 
0.0 0.0 0.0 
0.0 0.0 0.0 
0.0 0.0 0.0 
0.0 0.0 0.0 
0.0 0.0 0.0 
0.0 0.0 0.0 
0.0 0.0 0.0 
0.0 0.0 0.0 
0.0 0.0 0.0 
0.0 0.0 0.0 
0.0 0.0 0.0 
0.0 0.0 0.0 
0.0 0.0 0.0 
0.0 0.0 0.0 
0.0 0.0 0.0 
0.0 0.0 0.0 
0.0 0.0 0.0 
0.0 0.0 0.0 
0.0 0.0 0.0 
0.0 0.0 0.0 
0.0 0.0 0.0 
0.0 0.0 0.0 
0.0 0.0 0.0 
0.0 0.0 0.0 
0.0 0.0 0.0 
0.0 0.0 0.0 
0.0 0.0 0.0 
0.0 0.0 0.0 
0.0 0.0 0.0 
0.0 0.0 0.0 
0.0 0.0 0.0 
0.0 0.0 0.0 
0.0 0.0 0.0 
0.0 0.0 0.0 
0.0 0.0 0.0 
0.0 0.0 0.0 
0.0 0.0 0.0 
0.0 0.0 0.0 
0.0 0.0 0.0 
0.0 0.0 0.0 
0.0 0.0 0.0 
0.0 0.0 0.0 
0.0 0.0 0.0 
0.0 0.0 0.0 
0.0 0.0 0.0 
0.0 0.0 0.0 
0.0 0.0 0.0 
0.0 0.0 0.0 
0.0 0.0 0.0 
0.0 0.0 0.0 
0.0 0.0 0.0 
0.0 0.0 0.0 
0.0 0.0 0.0 
0.0 0.0 0.0 
0.0 0.0 0.0 
0.0 0.0 0.0 
0.0 0.0 0.0 
0.0 0.0 0.0 
0.0 0.0 0.0 
0.0 0.0 0.0 
0.0 0.0 0.0 
0.0 0.0 0.0 
0.0 0.0 0.0 
0.0 0.0 0.0 
0.0 0.0 0.0 
0.0 0.0 0.0 
0.0 0.0 0.0 
0.0 0.0 0.0 
0.0 0.0 0.0 
0.0 0.0 0.0 
0.0 0.0 0.0 
0.0 0.0 0.0 
0.0 0.0 0.0 
0.0 0.0 0.0 
0.0 0.0 0.0 
0.0 0.0 0.0 
0.0 0.0 0.0 
0.0 0.0 0.0 
0.0 0.0 0.0 
0.0 0.0 0.0 
0.0 0.0 0.0 
0.0 0.0 0.0 
0.0 0.0 0.0 
0.0 0.0 0.0 
0.0 0.0 0.0 
0.0 0.0 0.0 
0.0 0.0 0.0 
0.0 0.0 0.0 
0.0 0.0 0.0 
0.0 0.0 0.0 
0.0 0.0 0.0 
0.0 0.0 0.0 
0.0 0.0 0.0 
0.0 0.0 0.0 
0.0 0.0 0.0 
0.0 0.0 0.0 
0.0 0.0 0.0 
0.0 0.0 0.0 
0.0 0.0 0.0 
0.0 0.0 0.0 
0.0 0.0 0.0 
0.0 0.0 0.0 
0.0 0.0 0.0 
0.0 0.0 0.0 
0.0 0.0 0.0 
0.0 0.0 0.0 
0.0 0.0 0.0 
0.0 0.0 0.0 
0.0 0.0 0.0 
0.0 0.0 0.0 
0.0 0.0 0.0 
0.0 0.0 0.0 
0.0 0.0 0.0 
0.0 0.0 0.0 
0.0 0.0 0.0 
0.0 0.0 0.0 
0.0 0.0 0.0 
0.0 0.0 0.0 
0.0 0.0 0.0 
0.0 0.0 0.0 
0.0 0.0 0.0 
0.0 0.0 0.0 
0.0 0.0 0.0 
0.0 0.0 0.0 
0.0 0.0 0.0 
0.0 0.0 0.0 
0.0 0.0 0.0 
0.0 0.0 0.0 
0.0 0.0 0.0 
0.0 0.0 0.0 
0.0 0.0 0.0 
0.0 0.0 0.0 
0.0 0.0 0.0 
0.0 0.0 0.0 
0.0 0.0 0.0 
0.0 0.0 0.0 
0.0 0.0 0.0 
0.0 0.0 0.0 
0.0 0.0 0.0 
0.0 0.0 0.0 
0.0 0.0 0.0 
0.0 0.0 0.0 
0.0 0.0 0.0 
0.0 0.0 0.0 
0.0 0.0 0.0 
0.0 0.0 0.0 
0.0 0.0 0.0 
0.0 0.0 0.0 
0.0 0.0 0.0 
0.0 0.0 0.0 
0.0 0.0 0.0 
0.0 0.0 0.0 
0.0 0.0 0.0 
0.0 0.0 0.0 
0.0 0.0 0.0 
0.0 0.0 0.0 
0.0 0.0 0.0 
0.0 0.0 0.0 
0.0 0.0 0.0 
0.0 0.0 0.0 
0.0 0.0 0.0 
0.0 0.0 0.0 
0.0 0.0 0.0 
0.0 0.0 0.0 
0.0 0.0 0.0 
0.0 0.0 0.0 
0.0 0.0 0.0 
0.0 0.0 0.0 
0.0 0.0 0.0 
0.0 0.0 0.0 
0.0 0.0 0.0 
0.0 0.0 0.0 
0.0 0.0 0.0 
0.0 0.0 0.0 
0.0 0.0 0.0 
0.0 0.0 0.0 
0.0 0.0 0.0 
0.0 0.0 0.0 
0.0 0.0 0.0 
0.0 0.0 0.0 
0.0 0.0 0.0 
0.0 0.0 0.0 
0.0 0.0 0.0 
0.0 0.0 0.0 
0.0 0.0 0.0 
0.0 0.0 0.0 
0.0 0.0 0.0 
0.0 0.0 0.0 
0.0 0.0 0.0 
0.0 0.0 0.0 
0.0 0.0 0.0 
0.0 0.0 0.0 
0.0 0.0 0.0 
0.0 0.0 0.0 
0.0 0.0 0.0 
0.0 0.0 0.0 
0.0 0.0 0.0 
0.0 0.0 0.0 
0.0 0.0 0.0 
0.0 0.0 0.0 
0.0 0.0 0.0 
0.0 0.0 0.0 
0.0 0.0 0.0 
0.0 0.0 0.0 
0.0 0.0 0.0 
0.0 0.0 0.0 
0.0 0.0 0.0 
0.0 0.0 0.0 
0.0 0.0 0.0 
0.0 0.0 0.0 
0.0 0.0 0.0 
0.0 0.0 0.0 
0.0 0.0 0.0 
0.0 0.0 0.0 
0.0 0.0 0.0 
0.0 0.0 0.0 
0.0 0.0 0.0 
0.0 0.0 0.0 
0.0 0.0 0.0 
0.0 0.0 0.0 
0.0 0.0 0.0 
0.0 0.0 0.0 
0.0 0.0 0.0 
0.0 0.0 0.0 
0.0 0.0 0.0 
0.0 0.0 0.0 
0.0 0.0 0.0 
0.0 0.0 0.0 
0.0 0.0 0.0 
0.0 0.0 0.0 
0.0 0.0 0.0 
0.0 0.0 0.0 
0.0 0.0 0.0 
0.0 0.0 0.0 
0.0 0.0 0.0 
0.0 0.0 0.0 
0.0 0.0 0.0 
0.0 0.0 0.0 
0.0 0.0 0.0 
0.0 0.0 0.0 
0.0 0.0 0.0 
0.0 0.0 0.0 
0.0 0.0 0.0 
0.0 0.0 0.0 
0.0 0.0 0.0 
0.0 0.0 0.0 
0.0 0.0 0.0 
0.0 0.0 0.0 
0.0 0.0 0.0 
0.0 0.0 0.0 
0.0 0.0 0.0 
0.0 0.0 0.0 
0.0 0.0 0.0 
0.0 0.0 0.0 
0.0 0.0 0.0 
0.0 0.0 0.0 
0.0 0.0 0.0 
0.0 0.0 0.0 
0.0 0.0 0.0 
0.0 0.0 0.0 
0.0 0.0 0.0 
0.0 0.0 0.0 
0.0 0.0 0.0 
0.0 0.0 0.0 
0.0 0.0 0.0 
0.0 0.0 0.0 
0.0 0.0 0.0 
0.0 0.0 0.0 
0.0 0.0 0.0 
0.0 0.0 0.0 
0.0 0.0 0.0 
0.0 0.0 0.0 
0.0 0.0 0.0 
0.0 0.0 0.0 
0.0 0.0 0.0 
0.0 0.0 0.0 
0.0 0.0 0.0 
0.0 0.0 0.0 
0.0 0.0 0.0 
0.0 0.0 0.0 
0.0 0.0 0.0 
0.0 0.0 0.0 
0.0 0.0 0.0 
0.0 0.0 0.0 
0.0 0.0 0.0 
0.0 0.0 0.0 
0.0 0.0 0.0 
0.0 0.0 0.0 
0.0 0.0 0.0 
0.0 0.0 0.0 
0.0 0.0 0.0 
0.0 0.0 0.0 
0.0 0.0 0.0 
0.0 0.0 0.0 
0.0 0.0 0.0 
0.0 0.0 0.0 
0.0 0.0 0.0 
0.0 0.0 0.0 
0.0 0.0 0.0 
0.0 0.0 0.0 
0.0 0.0 0.0 
0.0 0.0 0.0 
0.0 0.0 0.0 
0.0 0.0 0.0 
0.0 0.0 0.0 
0.0 0.0 0.0 
0.0 0.0 0.0 
0.0 0.0 0.0 
0.0 0.0 0.0 
0.0 0.0 0.0 
0.0 0.0 0.0 
0.0 0.0 0.0 
0.0 0.0 0.0 
0.0 0.0 0.0 
0.0 0.0 0.0 
0.0 0.0 0.0 
0.0 0.0 0.0 
0.0 0.0 0.0 
0.0 0.0 0.0 
0.0 0.0 0.0 
0.0 0.0 0.0 
0.0 0.0 0.0 
0.0 0.0 0.0 
0.0 0.0 0.0 
0.0 0.0 0.0 
0.0 0.0 0.0 
0.0 0.0 0.0 
0.0 0.0 0.0 
0.0 0.0 0.0 
0.0 0.0 0.0 
0.0 0.0 0.0 
0.0 0.0 0.0 
0.0 0.0 0.0 
0.0 0.0 0.0 
0.0 0.0 0.0 
0.0 0.0 0.0 
0.0 0.0 0.0 
0.0 0.0 0.0 
0.0 0.0 0.0 
0.0 0.0 0.0 
0.0 0.0 0.0 
0.0 0.0 0.0 
0.0 0.0 0.0 
0.0 0.0 0.0 
0.0 0.0 0.0 
0.0 0.0 0.0 
0.0 0.0 0.0 
0.0 0.0 0.0 
0.0 0.0 0.0 
0.0 0.0 0.0 
0.0 0.0 0.0 
0.0 0.0 0.0 
0.0 0.0 0.0 
0.0 0.0 0.0 
0.0 0.0 0.0 
0.0 0.0 0.0 
0.0 0.0 0.0 
0.0 0.0 0.0 
0.0 0.0 0.0 
0.0 0.0 0.0 
0.0 0.0 0.0 
0.0 0.0 0.0 
0.0 0.0 0.0 
0.0 0.0 0.0 
0.0 0.0 0.0 
0.0 0.0 0.0 
0.0 0.0 0.0 
0.0 0.0 0.0 
0.0 0.0 0.0 
0.0 0.0 0.0 
0.0 0.0 0.0 
0.0 0.0 0.0 
0.0 0.0 0.0 
0.0 0.0 0.0 
0.0 0.0 0.0 
0.0 0.0 0.0 
0.0 0.0 0.0 
0.0 0.0 0.0 
0.0 0.0 0.0 
0.0 0.0 0.0 
0.0 0.0 0.0 
0.0 0.0 0.0 
0.0 0.0 0.0 
0.0 0.0 0.0 
0.0 0.0 0.0 
0.0 0.0 0.0 
0.0 0.0 0.0 
0.0 0.0 0.0 
0.0 0.0 0.0 
0.0 0.0 0.0 
0.0 0.0 0.0 
0.0 0.0 0.0 
0.0 0.0 0.0 
0.0 0.0 0.0 
0.0 0.0 0.0 
0.0 0.0 0.0 
0.0 0.0 0.0 
0.0 0.0 0.0 
0.0 0.0 0.0 
0.0 0.0 0.0 
0.0 0.0 0.0 
0.0 0.0 0.0 
0.0 0.0 0.0 
0.0 0.0 0.0 
0.0 0.0 0.0 
0.0 0.0 0.0 
0.0 0.0 0.0 
0.0 0.0 0.0 
0.0 0.0 0.0 
0.0 0.0 0.0 
0.0 0.0 0.0 
0.0 0.0 0.0 
0.0 0.0 0.0 
0.0 0.0 0.0 
0.0 0.0 0.0 
0.0 0.0 0.0 
0.0 0.0 0.0 
0.0 0.0 0.0 
0.0 0.0 0.0 
0.0 0.0 0.0 
0.0 0.0 0.0 
0.0 0.0 0.0 
0.0 0.0 0.0 
0.0 0.0 0.0 
0.0 0.0 0.0 
0.0 0.0 0.0 
0.0 0.0 0.0 
0.0 0.0 0.0 
0.0 0.0 0.0 
0.0 0.0 0.0 
0.0 0.0 0.0 
0.0 0.0 0.0 
0.0 0.0 0.0 
0.0 0.0 0.0 
0.0 0.0 0.0 
0.0 0.0 0.0 
0.0 0.0 0.0 
0.0 0.0 0.0 
0.0 0.0 0.0 
0.0 0.0 0.0 
0.0 0.0 0.0 
0.0 0.0 0.0 
0.0 0.0 0.0 
0.0 0.0 0.0 
0.0 0.0 0.0 
0.0 0.0 0.0 
0.0 0.0 0.0 
0.0 0.0 0.0 
0.0 0.0 0.0 
0.0 0.0 0.0 
0.0 0.0 0.0 
0.0 0.0 0.0 
0.0 0.0 0.0 
0.0 0.0 0.0 
0.0 0.0 0.0 
0.0 0.0 0.0 
0.0 0.0 0.0 
0.0 0.0 0.0 
0.0 0.0 0.0 
0.0 0.0 0.0 
0.0 0.0 0.0 
0.0 0.0 0.0 
0.0 0.0 0.0 
0.0 0.0 0.0 
0.0 0.0 0.0 
0.0 0.0 0.0 
0.0 0.0 0.0 
0.0 0.0 0.0 
0.0 0.0 0.0 
0.0 0.0 0.0 
0.0 0.0 0.0 
0.0 0.0 0.0 
0.0 0.0 0.0 
0.0 0.0 0.0 
0.0 0.0 0.0 
0.0 0.0 0.0 
0.0 0.0 0.0 
0.0 0.0 0.0 
0.0 0.0 0.0 
0.0 0.0 0.0 
0.0 0.0 0.0 
0.0 0.0 0.0 
0.0 0.0 0.0 
0.0 0.0 0.0 
0.0 0.0 0.0 
0.0 0.0 0.0 
0.0 0.0 0.0 
0.0 0.0 0.0 
0.0 0.0 0.0 
0.0 0.0 0.0 
0.0 0.0 0.0 
0.0 0.0 0.0 
0.0 0.0 0.0 
0.0 0.0 0.0 
0.0 0.0 0.0 
0.0 0.0 0.0 
0.0 0.0 0.0 
0.0 0.0 0.0 
0.0 0.0 0.0 
0.0 0.0 0.0 
0.0 0.0 0.0 
0.0 0.0 0.0 
0.0 0.0 0.0 
0.0 0.0 0.0 
0.0 0.0 0.0 
0.0 0.0 0.0 
0.0 0.0 0.0 
0.0 0.0 0.0 
0.0 0.0 0.0 
0.0 0.0 0.0 
0.0 0.0 0.0 
0.0 0.0 0.0 
0.0 0.0 0.0 
0.0 0.0 0.0 
0.0 0.0 0.0 
0.0 0.0 0.0 
0.0 0.0 0.0 
0.0 0.0 0.0 
0.0 0.0 0.0 
0.0 0.0 0.0 
0.0 0.0 0.0 
0.0 0.0 0.0 
0.0 0.0 0.0 
0.0 0.0 0.0 
0.0 0.0 0.0 
0.0 0.0 0.0 
0.0 0.0 0.0 
0.0 0.0 0.0 
0.0 0.0 0.0 
0.0 0.0 0.0 
0.0 0.0 0.0 
0.0 0.0 0.0 
0.0 0.0 0.0 
0.0 0.0 0.0 
0.0 0.0 0.0 
0.0 0.0 0.0 
0.0 0.0 0.0 
0.0 0.0 0.0 
0.0 0.0 0.0 
0.0 0.0 0.0 
0.0 0.0 0.0 
0.0 0.0 0.0 
0.0 0.0 0.0 
0.0 0.0 0.0 
0.0 0.0 0.0 
0.0 0.0 0.0 
0.0 0.0 0.0 
0.0 0.0 0.0 
0.0 0.0 0.0 
0.0 0.0 0.0 
0.0 0.0 0.0 
0.0 0.0 0.0 
0.0 0.0 0.0 
0.0 0.0 0.0 
0.0 0.0 0.0 
0.0 0.0 0.0 
0.0 0.0 0.0 
0.0 0.0 0.0 
0.0 0.0 0.0 
0.0 0.0 0.0 
0.0 0.0 0.0 
0.0 0.0 0.0 
0.0 0.0 0.0 
0.0 0.0 0.0 
0.0 0.0 0.0 
0.0 0.0 0.0 
0.0 0.0 0.0 
0.0 0.0 0.0 
0.0 0.0 0.0 
0.0 0.0 0.0 
0.0 0.0 0.0 
0.0 0.0 0.0 
0.0 0.0 0.0 
0.0 0.0 0.0 
0.0 0.0 0.0 
0.0 0.0 0.0 
0.0 0.0 0.0 
0.0 0.0 0.0 
0.0 0.0 0.0 
0.0 0.0 0.0 
0.0 0.0 0.0 
0.0 0.0 0.0 
0.0 0.0 0.0 
0.0 0.0 0.0 
0.0 0.0 0.0 
0.0 0.0 0.0 
0.0 0.0 0.0 
0.0 0.0 0.0 
0.0 0.0 0.0 
0.0 0.0 0.0 
0.0 0.0 0.0 
0.0 0.0 0.0 
0.0 0.0 0.0 
0.0 0.0 0.0 
0.0 0.0 0.0 
0.0 0.0 0.0 
0.0 0.0 0.0 
0.0 0.0 0.0 
0.0 0.0 0.0 
0.0 0.0 0.0 
0.0 0.0 0.0 
0.0 0.0 0.0 
0.0 0.0 0.0 
0.0 0.0 0.0 
0.0 0.0 0.0 
0.0 0.0 0.0 
0.0 0.0 0.0 
0.0 0.0 0.0 
0.0 0.0 0.0 
0.0 0.0 0.0 
0.0 0.0 0.0 
0.0 0.0 0.0 
0.0 0.0 0.0 
0.0 0.0 0.0 
0.0 0.0 0.0 
0.0 0.0 0.0 
0.0 0.0 0.0 
0.0 0.0 0.0 
0.0 0.0 0.0 
0.0 0.0 0.0 
0.0 0.0 0.0 
0.0 0.0 0.0 
0.0 0.0 0.0 
0.0 0.0 0.0 
0.0 0.0 0.0 
0.0 0.0 0.0 
0.0 0.0 0.0 
0.0 0.0 0.0 
0.0 0.0 0.0 
0.0 0.0 0.0 
0.0 0.0 0.0 
0.0 0.0 0.0 
0.0 0.0 0.0 
0.0 0.0 0.0 
0.0 0.0 0.0 
0.0 0.0 0.0 
0.0 0.0 0.0 
0.0 0.0 0.0 
0.0 0.0 0.0 
0.0 0.0 0.0 
0.0 0.0 0.0 
0.0 0.0 0.0 
0.0 0.0 0.0 
0.0 0.0 0.0 
0.0 0.0 0.0 
0.0 0.0 0.0 
0.0 0.0 0.0 
0.0 0.0 0.0 
0.0 0.0 0.0 
0.0 0.0 0.0 
0.0 0.0 0.0 
0.0 0.0 0.0 
0.0 0.0 0.0 
0.0 0.0 0.0 
0.0 0.0 0.0 
0.0 0.0 0.0 
0.0 0.0 0.0 
0.0 0.0 0.0 
0.0 0.0 0.0 
0.0 0.0 0.0 
0.0 0.0 0.0 
0.0 0.0 0.0 
0.0 0.0 0.0 
0.0 0.0 0.0 
0.0 0.0 0.0 
0.0 0.0 0.0 
0.0 0.0 0.0 
0.0 0.0 0.0 
0.0 0.0 0.0 
0.0 0.0 0.0 
0.0 0.0 0.0 
0.0 0.0 0.0 
0.0 0.0 0.0 
0.0 0.0 0.0 
0.0 0.0 0.0 
0.0 0.0 0.0 
0.0 0.0 0.0 
0.0 0.0 0.0 
0.0 0.0 0.0 
0.0 0.0 0.0 
0.0 0.0 0.0 
0.0 0.0 0.0 
0.0 0.0 0.0 
0.0 0.0 0.0 
0.0 0.0 0.0 
0.0 0.0 0.0 
0.0 0.0 0.0 
0.0 0.0 0.0 
0.0 0.0 0.0 
0.0 0.0 0.0 
0.0 0.0 0.0 
0.0 0.0 0.0 
0.0 0.0 0.0 
0.0 0.0 0.0 
0.0 0.0 0.0 
0.0 0.0 0.0 
0.0 0.0 0.0 
0.0 0.0 0.0 
0.0 0.0 0.0 
0.0 0.0 0.0 
0.0 0.0 0.0 
0.0 0.0 0.0 
0.0 0.0 0.0 
0.0 0.0 0.0 
0.0 0.0 0.0 
0.0 0.0 0.0 
0.0 0.0 0.0 
0.0 0.0 0.0 
0.0 0.0 0.0 
0.0 0.0 0.0 
0.0 0.0 0.0 
0.0 0.0 0.0 
0.0 0.0 0.0 
0.0 0.0 0.0 
0.0 0.0 0.0 
0.0 0.0 0.0 
0.0 0.0 0.0 
0.0 0.0 0.0 
0.0 0.0 0.0 
0.0 0.0 0.0 
0.0 0.0 0.0 
0.0 0.0 0.0 
0.0 0.0 0.0 
0.0 0.0 0.0 
0.0 0.0 0.0 
0.0 0.0 0.0 
0.0 0.0 0.0 
0.0 0.0 0.0 
0.0 0.0 0.0 
0.0 0.0 0.0 
0.0 0.0 0.0 
0.0 0.0 0.0 
0.0 0.0 0.0 
0.0 0.0 0.0 
0.0 0.0 0.0 
0.0 0.0 0.0 
0.0 0.0 0.0 
0.0 0.0 0.0 
0.0 0.0 0.0 
0.0 0.0 0.0 
0.0 0.0 0.0 
0.0 0.0 0.0 
0.0 0.0 0.0 
0.0 0.0 0.0 
0.0 0.0 0.0 
0.0 0.0 0.0 
0.0 0.0 0.0 
0.0 0.0 0.0 
0.0 0.0 0.0 
0.0 0.0 0.0 
0.0 0.0 0.0 
0.0 0.0 0.0 
0.0 0.0 0.0 
0.0 0.0 0.0 
0.0 0.0 0.0 
0.0 0.0 0.0 
0.0 0.0 0.0 
0.0 0.0 0.0 
0.0 0.0 0.0 
0.0 0.0 0.0 
0.0 0.0 0.0 
0.0 0.0 0.0 
0.0 0.0 0.0 
0.0 0.0 0.0 
0.0 0.0 0.0 
0.0 0.0 0.0 
0.0 0.0 0.0 
0.0 0.0 0.0 
0.0 0.0 0.0 
0.0 0.0 0.0 
0.0 0.0 0.0 
0.0 0.0 0.0 
0.0 0.0 0.0 
0.0 0.0 0.0 
0.0 0.0 0.0 
0.0 0.0 0.0 
0.0 0.0 0.0 
0.0 0.0 0.0 
0.0 0.0 0.0 
0.0 0.0 0.0 
0.0 0.0 0.0 
0.0 0.0 0.0 
0.0 0.0 0.0 
0.0 0.0 0.0 
0.0 0.0 0.0 
0.0 0.0 0.0 
0.0 0.0 0.0 
0.0 0.0 0.0 
0.0 0.0 0.0 
0.0 0.0 0.0 
0.0 0.0 0.0 
0.0 0.0 0.0 
0.0 0.0 0.0 
0.0 0.0 0.0 
0.0 0.0 0.0 
0.0 0.0 0.0 
0.0 0.0 0.0 
0.0 0.0 0.0 
0.0 0.0 0.0 
0.0 0.0 0.0 
0.0 0.0 0.0 
0.0 0.0 0.0 
0.0 0.0 0.0 
0.0 0.0 0.0 
0.0 0.0 0.0 
0.0 0.0 0.0 
0.0 0.0 0.0 
0.0 0.0 0.0 
0.0 0.0 0.0 
0.0 0.0 0.0 
0.0 0.0 0.0 
0.0 0.0 0.0 
0.0 0.0 0.0 
0.0 0.0 0.0 
0.0 0.0 0.0 
0.0 0.0 0.0 
0.0 0.0 0.0 
0.0 0.0 0.0 
0.0 0.0 0.0 
0.0 0.0 0.0 
0.0 0.0 0.0 
0.0 0.0 0.0 
0.0 0.0 0.0 
0.0 0.0 0.0 
0.0 0.0 0.0 
0.0 0.0 0.0 
0.0 0.0 0.0 
0.0 0.0 0.0 
0.0 0.0 0.0 
0.0 0.0 0.0 
0.0 0.0 0.0 
0.0 0.0 0.0 
0.0 0.0 0.0 
0.0 0.0 0.0 
0.0 0.0 0.0 
0.0 0.0 0.0 
0.0 0.0 0.0 
0.0 0.0 0.0 
0.0 0.0 0.0 
0.0 0.0 0.0 
0.0 0.0 0.0 
0.0 0.0 0.0 
0.0 0.0 0.0 
0.0 0.0 0.0 
0.0 0.0 0.0 
0.0 0.0 0.0 
0.0 0.0 0.0 
0.0 0.0 0.0 
0.0 0.0 0.0 
0.0 0.0 0.0 
0.0 0.0 0.0 
0.0 0.0 0.0 
0.0 0.0 0.0 
0.0 0.0 0.0 

VECTORS node_bounda_dof_materi_velocity_y float
0.0 0.0 0.0 
0.0 0.0 0.0 
0.0 1.000000000000e+00 0.0 
0.0 1.000000000000e+00 0.0 
0.0 0.0 0.0 
0.0 0.0 0.0 
0.0 0.0 0.0 
0.0 0.0 0.0 
0.0 0.0 0.0 
0.0 0.0 0.0 
0.0 0.0 0.0 
0.0 0.0 0.0 
0.0 0.0 0.0 
0.0 0.0 0.0 
0.0 0.0 0.0 
0.0 0.0 0.0 
0.0 0.0 0.0 
0.0 0.0 0.0 
0.0 0.0 0.0 
0.0 0.0 0.0 
0.0 0.0 0.0 
0.0 0.0 0.0 
0.0 0.0 0.0 
0.0 1.000000000000e+00 0.0 
0.0 1.000000000000e+00 0.0 
0.0 1.000000000000e+00 0.0 
0.0 1.000000000000e+00 0.0 
0.0 1.000000000000e+00 0.0 
0.0 1.000000000000e+00 0.0 
0.0 1.000000000000e+00 0.0 
0.0 1.000000000000e+00 0.0 
0.0 1.000000000000e+00 0.0 
0.0 1.000000000000e+00 0.0 
0.0 1.000000000000e+00 0.0 
0.0 1.000000000000e+00 0.0 
0.0 1.000000000000e+00 0.0 
0.0 1.000000000000e+00 0.0 
0.0 1.000000000000e+00 0.0 
0.0 1.000000000000e+00 0.0 
0.0 1.000000000000e+00 0.0 
0.0 1.000000000000e+00 0.0 
0.0 1.000000000000e+00 0.0 
0.0 1.000000000000e+00 0.0 
0.0 1.000000000000e+00 0.0 
0.0 1.000000000000e+00 0.0 
0.0 1.000000000000e+00 0.0 
0.0 1.000000000000e+00 0.0 
0.0 1.000000000000e+00 0.0 
0.0 1.000000000000e+00 0.0 
0.0 1.000000000000e+00 0.0 
0.0 1.000000000000e+00 0.0 
0.0 1.000000000000e+00 0.0 
0.0 1.000000000000e+00 0.0 
0.0 1.000000000000e+00 0.0 
0.0 1.000000000000e+00 0.0 
0.0 1.000000000000e+00 0.0 
0.0 1.000000000000e+00 0.0 
0.0 1.000000000000e+00 0.0 
0.0 1.000000000000e+00 0.0 
0.0 1.000000000000e+00 0.0 
0.0 1.000000000000e+00 0.0 
0.0 1.000000000000e+00 0.0 
0.0 1.000000000000e+00 0.0 
0.0 1.000000000000e+00 0.0 
0.0 1.000000000000e+00 0.0 
0.0 1.000000000000e+00 0.0 
0.0 1.000000000000e+00 0.0 
0.0 1.000000000000e+00 0.0 
0.0 1.000000000000e+00 0.0 
0.0 1.000000000000e+00 0.0 
0.0 1.000000000000e+00 0.0 
0.0 1.000000000000e+00 0.0 
0.0 0.0 0.0 
0.0 0.0 0.0 
0.0 0.0 0.0 
0.0 0.0 0.0 
0.0 0.0 0.0 
0.0 0.0 0.0 
0.0 0.0 0.0 
0.0 0.0 0.0 
0.0 0.0 0.0 
0.0 0.0 0.0 
0.0 0.0 0.0 
0.0 0.0 0.0 
0.0 0.0 0.0 
0.0 0.0 0.0 
0.0 0.0 0.0 
0.0 0.0 0.0 
0.0 0.0 0.0 
0.0 0.0 0.0 
0.0 0.0 0.0 
0.0 0.0 0.0 
0.0 0.0 0.0 
0.0 0.0 0.0 
0.0 0.0 0.0 
0.0 0.0 0.0 
0.0 0.0 0.0 
0.0 0.0 0.0 
0.0 0.0 0.0 
0.0 0.0 0.0 
0.0 0.0 0.0 
0.0 0.0 0.0 
0.0 0.0 0.0 
0.0 0.0 0.0 
0.0 0.0 0.0 
0.0 0.0 0.0 
0.0 0.0 0.0 
0.0 0.0 0.0 
0.0 0.0 0.0 
0.0 0.0 0.0 
0.0 0.0 0.0 
0.0 0.0 0.0 
0.0 0.0 0.0 
0.0 0.0 0.0 
0.0 0.0 0.0 
0.0 0.0 0.0 
0.0 0.0 0.0 
0.0 0.0 0.0 
0.0 0.0 0.0 
0.0 0.0 0.0 
0.0 0.0 0.0 
0.0 0.0 0.0 
0.0 0.0 0.0 
0.0 0.0 0.0 
0.0 0.0 0.0 
0.0 0.0 0.0 
0.0 0.0 0.0 
0.0 0.0 0.0 
0.0 0.0 0.0 
0.0 0.0 0.0 
0.0 0.0 0.0 
0.0 0.0 0.0 
0.0 0.0 0.0 
0.0 0.0 0.0 
0.0 0.0 0.0 
0.0 0.0 0.0 
0.0 0.0 0.0 
0.0 0.0 0.0 
0.0 0.0 0.0 
0.0 0.0 0.0 
0.0 0.0 0.0 
0.0 0.0 0.0 
0.0 0.0 0.0 
0.0 0.0 0.0 
0.0 0.0 0.0 
0.0 0.0 0.0 
0.0 0.0 0.0 
0.0 0.0 0.0 
0.0 0.0 0.0 
0.0 0.0 0.0 
0.0 0.0 0.0 
0.0 0.0 0.0 
0.0 0.0 0.0 
0.0 0.0 0.0 
0.0 0.0 0.0 
0.0 0.0 0.0 
0.0 0.0 0.0 
0.0 0.0 0.0 
0.0 0.0 0.0 
0.0 0.0 0.0 
0.0 0.0 0.0 
0.0 0.0 0.0 
0.0 0.0 0.0 
0.0 0.0 0.0 
0.0 0.0 0.0 
0.0 0.0 0.0 
0.0 0.0 0.0 
0.0 0.0 0.0 
0.0 0.0 0.0 
0.0 0.0 0.0 
0.0 0.0 0.0 
0.0 0.0 0.0 
0.0 0.0 0.0 
0.0 0.0 0.0 
0.0 0.0 0.0 
0.0 0.0 0.0 
0.0 0.0 0.0 
0.0 0.0 0.0 
0.0 0.0 0.0 
0.0 0.0 0.0 
0.0 0.0 0.0 
0.0 0.0 0.0 
0.0 0.0 0.0 
0.0 0.0 0.0 
0.0 0.0 0.0 
0.0 0.0 0.0 
0.0 0.0 0.0 
0.0 0.0 0.0 
0.0 0.0 0.0 
0.0 0.0 0.0 
0.0 0.0 0.0 
0.0 0.0 0.0 
0.0 0.0 0.0 
0.0 0.0 0.0 
0.0 0.0 0.0 
0.0 0.0 0.0 
0.0 0.0 0.0 
0.0 0.0 0.0 
0.0 0.0 0.0 
0.0 0.0 0.0 
0.0 0.0 0.0 
0.0 0.0 0.0 
0.0 0.0 0.0 
0.0 0.0 0.0 
0.0 0.0 0.0 
0.0 0.0 0.0 
0.0 0.0 0.0 
0.0 0.0 0.0 
0.0 0.0 0.0 
0.0 0.0 0.0 
0.0 0.0 0.0 
0.0 0.0 0.0 
0.0 0.0 0.0 
0.0 0.0 0.0 
0.0 0.0 0.0 
0.0 0.0 0.0 
0.0 0.0 0.0 
0.0 0.0 0.0 
0.0 0.0 0.0 
0.0 0.0 0.0 
0.0 0.0 0.0 
0.0 0.0 0.0 
0.0 0.0 0.0 
0.0 0.0 0.0 
0.0 0.0 0.0 
0.0 0.0 0.0 
0.0 0.0 0.0 
0.0 0.0 0.0 
0.0 0.0 0.0 
0.0 0.0 0.0 
0.0 0.0 0.0 
0.0 0.0 0.0 
0.0 0.0 0.0 
0.0 0.0 0.0 
0.0 0.0 0.0 
0.0 0.0 0.0 
0.0 0.0 0.0 
0.0 0.0 0.0 
0.0 0.0 0.0 
0.0 0.0 0.0 
0.0 0.0 0.0 
0.0 0.0 0.0 
0.0 0.0 0.0 
0.0 0.0 0.0 
0.0 0.0 0.0 
0.0 0.0 0.0 
0.0 0.0 0.0 
0.0 0.0 0.0 
0.0 0.0 0.0 
0.0 0.0 0.0 
0.0 0.0 0.0 
0.0 0.0 0.0 
0.0 0.0 0.0 
0.0 0.0 0.0 
0.0 0.0 0.0 
0.0 0.0 0.0 
0.0 0.0 0.0 
0.0 0.0 0.0 
0.0 0.0 0.0 
0.0 0.0 0.0 
0.0 0.0 0.0 
0.0 0.0 0.0 
0.0 0.0 0.0 
0.0 0.0 0.0 
0.0 0.0 0.0 
0.0 0.0 0.0 
0.0 0.0 0.0 
0.0 0.0 0.0 
0.0 0.0 0.0 
0.0 0.0 0.0 
0.0 0.0 0.0 
0.0 0.0 0.0 
0.0 0.0 0.0 
0.0 0.0 0.0 
0.0 0.0 0.0 
0.0 0.0 0.0 
0.0 0.0 0.0 
0.0 0.0 0.0 
0.0 0.0 0.0 
0.0 0.0 0.0 
0.0 0.0 0.0 
0.0 0.0 0.0 
0.0 0.0 0.0 
0.0 0.0 0.0 
0.0 0.0 0.0 
0.0 0.0 0.0 
0.0 0.0 0.0 
0.0 0.0 0.0 
0.0 0.0 0.0 
0.0 0.0 0.0 
0.0 0.0 0.0 
0.0 0.0 0.0 
0.0 0.0 0.0 
0.0 0.0 0.0 
0.0 0.0 0.0 
0.0 0.0 0.0 
0.0 0.0 0.0 
0.0 0.0 0.0 
0.0 0.0 0.0 
0.0 0.0 0.0 
0.0 0.0 0.0 
0.0 0.0 0.0 
0.0 0.0 0.0 
0.0 0.0 0.0 
0.0 0.0 0.0 
0.0 0.0 0.0 
0.0 0.0 0.0 
0.0 0.0 0.0 
0.0 0.0 0.0 
0.0 0.0 0.0 
0.0 0.0 0.0 
0.0 0.0 0.0 
0.0 0.0 0.0 
0.0 0.0 0.0 
0.0 0.0 0.0 
0.0 0.0 0.0 
0.0 0.0 0.0 
0.0 0.0 0.0 
0.0 0.0 0.0 
0.0 0.0 0.0 
0.0 0.0 0.0 
0.0 0.0 0.0 
0.0 0.0 0.0 
0.0 0.0 0.0 
0.0 0.0 0.0 
0.0 0.0 0.0 
0.0 0.0 0.0 
0.0 0.0 0.0 
0.0 0.0 0.0 
0.0 0.0 0.0 
0.0 0.0 0.0 
0.0 0.0 0.0 
0.0 0.0 0.0 
0.0 0.0 0.0 
0.0 0.0 0.0 
0.0 0.0 0.0 
0.0 0.0 0.0 
0.0 0.0 0.0 
0.0 0.0 0.0 
0.0 0.0 0.0 
0.0 0.0 0.0 
0.0 0.0 0.0 
0.0 0.0 0.0 
0.0 0.0 0.0 
0.0 0.0 0.0 
0.0 0.0 0.0 
0.0 0.0 0.0 
0.0 0.0 0.0 
0.0 0.0 0.0 
0.0 0.0 0.0 
0.0 0.0 0.0 
0.0 0.0 0.0 
0.0 0.0 0.0 
0.0 0.0 0.0 
0.0 0.0 0.0 
0.0 0.0 0.0 
0.0 0.0 0.0 
0.0 0.0 0.0 
0.0 0.0 0.0 
0.0 0.0 0.0 
0.0 0.0 0.0 
0.0 0.0 0.0 
0.0 0.0 0.0 
0.0 0.0 0.0 
0.0 0.0 0.0 
0.0 0.0 0.0 
0.0 0.0 0.0 
0.0 0.0 0.0 
0.0 0.0 0.0 
0.0 0.0 0.0 
0.0 0.0 0.0 
0.0 0.0 0.0 
0.0 0.0 0.0 
0.0 0.0 0.0 
0.0 0.0 0.0 
0.0 0.0 0.0 
0.0 0.0 0.0 
0.0 0.0 0.0 
0.0 0.0 0.0 
0.0 0.0 0.0 
0.0 0.0 0.0 
0.0 0.0 0.0 
0.0 0.0 0.0 
0.0 0.0 0.0 
0.0 0.0 0.0 
0.0 0.0 0.0 
0.0 0.0 0.0 
0.0 0.0 0.0 
0.0 0.0 0.0 
0.0 0.0 0.0 
0.0 0.0 0.0 
0.0 0.0 0.0 
0.0 0.0 0.0 
0.0 0.0 0.0 
0.0 0.0 0.0 
0.0 0.0 0.0 
0.0 0.0 0.0 
0.0 0.0 0.0 
0.0 0.0 0.0 
0.0 0.0 0.0 
0.0 0.0 0.0 
0.0 0.0 0.0 
0.0 0.0 0.0 
0.0 0.0 0.0 
0.0 0.0 0.0 
0.0 0.0 0.0 
0.0 0.0 0.0 
0.0 0.0 0.0 
0.0 0.0 0.0 
0.0 0.0 0.0 
0.0 0.0 0.0 
0.0 0.0 0.0 
0.0 0.0 0.0 
0.0 0.0 0.0 
0.0 0.0 0.0 
0.0 0.0 0.0 
0.0 0.0 0.0 
0.0 0.0 0.0 
0.0 0.0 0.0 
0.0 0.0 0.0 
0.0 0.0 0.0 
0.0 0.0 0.0 
0.0 0.0 0.0 
0.0 0.0 0.0 
0.0 0.0 0.0 
0.0 0.0 0.0 
0.0 0.0 0.0 
0.0 0.0 0.0 
0.0 0.0 0.0 
0.0 0.0 0.0 
0.0 0.0 0.0 
0.0 0.0 0.0 
0.0 0.0 0.0 
0.0 0.0 0.0 
0.0 0.0 0.0 
0.0 0.0 0.0 
0.0 0.0 0.0 
0.0 0.0 0.0 
0.0 0.0 0.0 
0.0 0.0 0.0 
0.0 0.0 0.0 
0.0 0.0 0.0 
0.0 0.0 0.0 
0.0 0.0 0.0 
0.0 0.0 0.0 
0.0 0.0 0.0 
0.0 0.0 0.0 
0.0 0.0 0.0 
0.0 0.0 0.0 
0.0 0.0 0.0 
0.0 0.0 0.0 
0.0 0.0 0.0 
0.0 0.0 0.0 
0.0 0.0 0.0 
0.0 0.0 0.0 
0.0 0.0 0.0 
0.0 0.0 0.0 
0.0 0.0 0.0 
0.0 0.0 0.0 
0.0 0.0 0.0 
0.0 0.0 0.0 
0.0 0.0 0.0 
0.0 0.0 0.0 
0.0 0.0 0.0 
0.0 0.0 0.0 
0.0 0.0 0.0 
0.0 0.0 0.0 
0.0 0.0 0.0 
0.0 0.0 0.0 
0.0 0.0 0.0 
0.0 0.0 0.0 
0.0 0.0 0.0 
0.0 0.0 0.0 
0.0 0.0 0.0 
0.0 0.0 0.0 
0.0 0.0 0.0 
0.0 0.0 0.0 
0.0 0.0 0.0 
0.0 0.0 0.0 
0.0 0.0 0.0 
0.0 0.0 0.0 
0.0 0.0 0.0 
0.0 0.0 0.0 
0.0 0.0 0.0 
0.0 0.0 0.0 
0.0 0.0 0.0 
0.0 0.0 0.0 
0.0 0.0 0.0 
0.0 0.0 0.0 
0.0 0.0 0.0 
0.0 0.0 0.0 
0.0 0.0 0.0 
0.0 0.0 0.0 
0.0 0.0 0.0 
0.0 0.0 0.0 
0.0 0.0 0.0 
0.0 0.0 0.0 
0.0 0.0 0.0 
0.0 0.0 0.0 
0.0 0.0 0.0 
0.0 0.0 0.0 
0.0 0.0 0.0 
0.0 0.0 0.0 
0.0 0.0 0.0 
0.0 0.0 0.0 
0.0 0.0 0.0 
0.0 0.0 0.0 
0.0 0.0 0.0 
0.0 0.0 0.0 
0.0 0.0 0.0 
0.0 0.0 0.0 
0.0 0.0 0.0 
0.0 0.0 0.0 
0.0 0.0 0.0 
0.0 0.0 0.0 
0.0 0.0 0.0 
0.0 0.0 0.0 
0.0 0.0 0.0 
0.0 0.0 0.0 
0.0 0.0 0.0 
0.0 0.0 0.0 
0.0 0.0 0.0 
0.0 0.0 0.0 
0.0 0.0 0.0 
0.0 0.0 0.0 
0.0 0.0 0.0 
0.0 0.0 0.0 
0.0 0.0 0.0 
0.0 0.0 0.0 
0.0 0.0 0.0 
0.0 0.0 0.0 
0.0 0.0 0.0 
0.0 0.0 0.0 
0.0 0.0 0.0 
0.0 0.0 0.0 
0.0 0.0 0.0 
0.0 0.0 0.0 
0.0 0.0 0.0 
0.0 0.0 0.0 
0.0 0.0 0.0 
0.0 0.0 0.0 
0.0 0.0 0.0 
0.0 0.0 0.0 
0.0 0.0 0.0 
0.0 0.0 0.0 
0.0 0.0 0.0 
0.0 0.0 0.0 
0.0 0.0 0.0 
0.0 0.0 0.0 
0.0 0.0 0.0 
0.0 0.0 0.0 
0.0 0.0 0.0 
0.0 0.0 0.0 
0.0 0.0 0.0 
0.0 0.0 0.0 
0.0 0.0 0.0 
0.0 0.0 0.0 
0.0 0.0 0.0 
0.0 0.0 0.0 
0.0 0.0 0.0 
0.0 0.0 0.0 
0.0 0.0 0.0 
0.0 0.0 0.0 
0.0 0.0 0.0 
0.0 0.0 0.0 
0.0 0.0 0.0 
0.0 0.0 0.0 
0.0 0.0 0.0 
0.0 0.0 0.0 
0.0 0.0 0.0 
0.0 0.0 0.0 
0.0 0.0 0.0 
0.0 0.0 0.0 
0.0 0.0 0.0 
0.0 0.0 0.0 
0.0 0.0 0.0 
0.0 0.0 0.0 
0.0 0.0 0.0 
0.0 0.0 0.0 
0.0 0.0 0.0 
0.0 0.0 0.0 
0.0 0.0 0.0 
0.0 0.0 0.0 
0.0 0.0 0.0 
0.0 0.0 0.0 
0.0 0.0 0.0 
0.0 0.0 0.0 
0.0 0.0 0.0 
0.0 0.0 0.0 
0.0 0.0 0.0 
0.0 0.0 0.0 
0.0 0.0 0.0 
0.0 0.0 0.0 
0.0 0.0 0.0 
0.0 0.0 0.0 
0.0 0.0 0.0 
0.0 0.0 0.0 
0.0 0.0 0.0 
0.0 0.0 0.0 
0.0 0.0 0.0 
0.0 0.0 0.0 
0.0 0.0 0.0 
0.0 0.0 0.0 
0.0 0.0 0.0 
0.0 0.0 0.0 
0.0 0.0 0.0 
0.0 0.0 0.0 
0.0 0.0 0.0 
0.0 0.0 0.0 
0.0 0.0 0.0 
0.0 0.0 0.0 
0.0 0.0 0.0 
0.0 0.0 0.0 
0.0 0.0 0.0 
0.0 0.0 0.0 
0.0 0.0 0.0 
0.0 0.0 0.0 
0.0 0.0 0.0 
0.0 0.0 0.0 
0.0 0.0 0.0 
0.0 0.0 0.0 
0.0 0.0 0.0 
0.0 0.0 0.0 
0.0 0.0 0.0 
0.0 0.0 0.0 
0.0 0.0 0.0 
0.0 0.0 0.0 
0.0 0.0 0.0 
0.0 0.0 0.0 
0.0 0.0 0.0 
0.0 0.0 0.0 
0.0 0.0 0.0 
0.0 0.0 0.0 
0.0 0.0 0.0 
0.0 0.0 0.0 
0.0 0.0 0.0 
0.0 0.0 0.0 
0.0 0.0 0.0 
0.0 0.0 0.0 
0.0 0.0 0.0 
0.0 0.0 0.0 
0.0 0.0 0.0 
0.0 0.0 0.0 
0.0 0.0 0.0 
0.0 0.0 0.0 
0.0 0.0 0.0 
0.0 0.0 0.0 
0.0 0.0 0.0 
0.0 0.0 0.0 
0.0 0.0 0.0 
0.0 0.0 0.0 
0.0 0.0 0.0 
0.0 0.0 0.0 
0.0 0.0 0.0 
0.0 0.0 0.0 
0.0 0.0 0.0 
0.0 0.0 0.0 
0.0 0.0 0.0 
0.0 0.0 0.0 
0.0 0.0 0.0 
0.0 0.0 0.0 
0.0 0.0 0.0 
0.0 0.0 0.0 
0.0 0.0 0.0 
0.0 0.0 0.0 
0.0 0.0 0.0 
0.0 0.0 0.0 
0.0 0.0 0.0 
0.0 0.0 0.0 
0.0 0.0 0.0 
0.0 0.0 0.0 
0.0 0.0 0.0 
0.0 0.0 0.0 
0.0 0.0 0.0 
0.0 0.0 0.0 
0.0 0.0 0.0 
0.0 0.0 0.0 
0.0 0.0 0.0 
0.0 0.0 0.0 
0.0 0.0 0.0 
0.0 0.0 0.0 
0.0 0.0 0.0 
0.0 0.0 0.0 
0.0 0.0 0.0 
0.0 0.0 0.0 
0.0 0.0 0.0 
0.0 0.0 0.0 
0.0 0.0 0.0 
0.0 0.0 0.0 
0.0 0.0 0.0 
0.0 0.0 0.0 
0.0 0.0 0.0 
0.0 0.0 0.0 
0.0 0.0 0.0 
0.0 0.0 0.0 
0.0 0.0 0.0 
0.0 0.0 0.0 
0.0 0.0 0.0 
0.0 0.0 0.0 
0.0 0.0 0.0 
0.0 0.0 0.0 
0.0 0.0 0.0 
0.0 0.0 0.0 
0.0 0.0 0.0 
0.0 0.0 0.0 
0.0 0.0 0.0 
0.0 0.0 0.0 
0.0 0.0 0.0 
0.0 0.0 0.0 
0.0 0.0 0.0 
0.0 0.0 0.0 
0.0 0.0 0.0 
0.0 0.0 0.0 
0.0 0.0 0.0 
0.0 0.0 0.0 
0.0 0.0 0.0 
0.0 0.0 0.0 
0.0 0.0 0.0 
0.0 0.0 0.0 
0.0 0.0 0.0 
0.0 0.0 0.0 
0.0 0.0 0.0 
0.0 0.0 0.0 
0.0 0.0 0.0 
0.0 0.0 0.0 
0.0 0.0 0.0 
0.0 0.0 0.0 
0.0 0.0 0.0 
0.0 0.0 0.0 
0.0 0.0 0.0 
0.0 0.0 0.0 
0.0 0.0 0.0 
0.0 0.0 0.0 
0.0 0.0 0.0 
0.0 0.0 0.0 
0.0 0.0 0.0 
0.0 0.0 0.0 
0.0 0.0 0.0 
0.0 0.0 0.0 
0.0 0.0 0.0 
0.0 0.0 0.0 
0.0 0.0 0.0 
0.0 0.0 0.0 
0.0 0.0 0.0 
0.0 0.0 0.0 
0.0 0.0 0.0 
0.0 0.0 0.0 
0.0 0.0 0.0 
0.0 0.0 0.0 
0.0 0.0 0.0 
0.0 0.0 0.0 
0.0 0.0 0.0 
0.0 0.0 0.0 
0.0 0.0 0.0 
0.0 0.0 0.0 
0.0 0.0 0.0 
0.0 0.0 0.0 
0.0 0.0 0.0 
0.0 0.0 0.0 
0.0 0.0 0.0 
0.0 0.0 0.0 
0.0 0.0 0.0 
0.0 0.0 0.0 
0.0 0.0 0.0 
0.0 0.0 0.0 
0.0 0.0 0.0 
0.0 0.0 0.0 
0.0 0.0 0.0 
0.0 0.0 0.0 
0.0 0.0 0.0 
0.0 0.0 0.0 
0.0 0.0 0.0 
0.0 0.0 0.0 
0.0 0.0 0.0 
0.0 0.0 0.0 
0.0 0.0 0.0 
0.0 0.0 0.0 
0.0 0.0 0.0 
0.0 0.0 0.0 
0.0 0.0 0.0 
0.0 0.0 0.0 
0.0 0.0 0.0 
0.0 0.0 0.0 
0.0 0.0 0.0 
0.0 0.0 0.0 
0.0 0.0 0.0 
0.0 0.0 0.0 
0.0 0.0 0.0 
0.0 0.0 0.0 
0.0 0.0 0.0 
0.0 0.0 0.0 
0.0 0.0 0.0 
0.0 0.0 0.0 
0.0 0.0 0.0 
0.0 0.0 0.0 
0.0 0.0 0.0 
0.0 0.0 0.0 
0.0 0.0 0.0 
0.0 0.0 0.0 
0.0 0.0 0.0 
0.0 0.0 0.0 
0.0 0.0 0.0 
0.0 0.0 0.0 
0.0 0.0 0.0 
0.0 0.0 0.0 
0.0 0.0 0.0 
0.0 0.0 0.0 
0.0 0.0 0.0 
0.0 0.0 0.0 
0.0 0.0 0.0 
0.0 0.0 0.0 
0.0 0.0 0.0 
0.0 0.0 0.0 
0.0 0.0 0.0 
0.0 0.0 0.0 
0.0 0.0 0.0 
0.0 0.0 0.0 
0.0 0.0 0.0 
0.0 0.0 0.0 
0.0 0.0 0.0 
0.0 0.0 0.0 
0.0 0.0 0.0 
0.0 0.0 0.0 
0.0 0.0 0.0 
0.0 0.0 0.0 
0.0 0.0 0.0 
0.0 0.0 0.0 
0.0 0.0 0.0 
0.0 0.0 0.0 
0.0 0.0 0.0 
0.0 0.0 0.0 
0.0 0.0 0.0 
0.0 0.0 0.0 
0.0 0.0 0.0 
0.0 0.0 0.0 
0.0 0.0 0.0 
0.0 0.0 0.0 
0.0 0.0 0.0 
0.0 0.0 0.0 
0.0 0.0 0.0 
0.0 0.0 0.0 
0.0 0.0 0.0 
0.0 0.0 0.0 
0.0 0.0 0.0 
0.0 0.0 0.0 
0.0 0.0 0.0 
0.0 0.0 0.0 
0.0 0.0 0.0 
0.0 0.0 0.0 
0.0 0.0 0.0 
0.0 0.0 0.0 
0.0 0.0 0.0 
0.0 0.0 0.0 
0.0 0.0 0.0 
0.0 0.0 0.0 
0.0 0.0 0.0 
0.0 0.0 0.0 
0.0 0.0 0.0 
0.0 0.0 0.0 
0.0 0.0 0.0 
0.0 0.0 0.0 
0.0 0.0 0.0 
0.0 0.0 0.0 
0.0 0.0 0.0 
0.0 0.0 0.0 
0.0 0.0 0.0 
0.0 0.0 0.0 
0.0 0.0 0.0 
0.0 0.0 0.0 
0.0 0.0 0.0 
0.0 0.0 0.0 
0.0 0.0 0.0 
0.0 0.0 0.0 
0.0 0.0 0.0 
0.0 0.0 0.0 
0.0 0.0 0.0 
0.0 0.0 0.0 
0.0 0.0 0.0 
0.0 0.0 0.0 
0.0 0.0 0.0 
0.0 0.0 0.0 
0.0 0.0 0.0 
0.0 0.0 0.0 
0.0 0.0 0.0 
0.0 0.0 0.0 
0.0 0.0 0.0 
0.0 0.0 0.0 
0.0 0.0 0.0 
0.0 0.0 0.0 
0.0 0.0 0.0 
0.0 0.0 0.0 
0.0 0.0 0.0 
0.0 0.0 0.0 
0.0 0.0 0.0 
0.0 0.0 0.0 
0.0 0.0 0.0 
0.0 0.0 0.0 
0.0 0.0 0.0 
0.0 0.0 0.0 
0.0 0.0 0.0 
0.0 0.0 0.0 
0.0 0.0 0.0 
0.0 0.0 0.0 
0.0 0.0 0.0 
0.0 0.0 0.0 
0.0 0.0 0.0 
0.0 0.0 0.0 
0.0 0.0 0.0 
0.0 0.0 0.0 
0.0 0.0 0.0 
0.0 0.0 0.0 
0.0 0.0 0.0 
0.0 0.0 0.0 
0.0 0.0 0.0 
0.0 0.0 0.0 
0.0 0.0 0.0 
0.0 0.0 0.0 
0.0 0.0 0.0 
0.0 0.0 0.0 
0.0 0.0 0.0 
0.0 0.0 0.0 
0.0 0.0 0.0 
0.0 0.0 0.0 
0.0 0.0 0.0 
0.0 0.0 0.0 
0.0 0.0 0.0 
0.0 0.0 0.0 
0.0 0.0 0.0 
0.0 0.0 0.0 
0.0 0.0 0.0 
0.0 0.0 0.0 
0.0 0.0 0.0 
0.0 0.0 0.0 
0.0 0.0 0.0 
0.0 0.0 0.0 
0.0 0.0 0.0 
0.0 0.0 0.0 
0.0 0.0 0.0 
0.0 0.0 0.0 
0.0 0.0 0.0 
0.0 0.0 0.0 
0.0 0.0 0.0 
0.0 0.0 0.0 
0.0 0.0 0.0 
0.0 0.0 0.0 
0.0 0.0 0.0 
0.0 0.0 0.0 
0.0 0.0 0.0 
0.0 0.0 0.0 
0.0 0.0 0.0 
0.0 0.0 0.0 
0.0 0.0 0.0 
0.0 0.0 0.0 
0.0 0.0 0.0 
0.0 0.0 0.0 
0.0 0.0 0.0 
0.0 0.0 0.0 
0.0 0.0 0.0 
0.0 0.0 0.0 
0.0 0.0 0.0 
0.0 0.0 0.0 
0.0 0.0 0.0 
0.0 0.0 0.0 
0.0 0.0 0.0 
0.0 0.0 0.0 
0.0 0.0 0.0 
0.0 0.0 0.0 
0.0 0.0 0.0 
0.0 0.0 0.0 
0.0 0.0 0.0 
0.0 0.0 0.0 
0.0 0.0 0.0 
0.0 0.0 0.0 
0.0 0.0 0.0 
0.0 0.0 0.0 
0.0 0.0 0.0 
0.0 0.0 0.0 
0.0 0.0 0.0 
0.0 0.0 0.0 
0.0 0.0 0.0 
0.0 0.0 0.0 
0.0 0.0 0.0 
0.0 0.0 0.0 
0.0 0.0 0.0 
0.0 0.0 0.0 
0.0 0.0 0.0 
0.0 0.0 0.0 
0.0 0.0 0.0 
0.0 0.0 0.0 
0.0 0.0 0.0 
0.0 0.0 0.0 
0.0 0.0 0.0 
0.0 0.0 0.0 
0.0 0.0 0.0 
0.0 0.0 0.0 
0.0 0.0 0.0 
0.0 0.0 0.0 
0.0 0.0 0.0 
0.0 0.0 0.0 
0.0 0.0 0.0 
0.0 0.0 0.0 
0.0 0.0 0.0 
0.0 0.0 0.0 
0.0 0.0 0.0 
0.0 0.0 0.0 
0.0 0.0 0.0 
0.0 0.0 0.0 
0.0 0.0 0.0 
0.0 0.0 0.0 
0.0 0.0 0.0 
0.0 0.0 0.0 
0.0 0.0 0.0 
0.0 0.0 0.0 
0.0 0.0 0.0 
0.0 0.0 0.0 
0.0 0.0 0.0 
0.0 0.0 0.0 
0.0 0.0 0.0 
0.0 0.0 0.0 
0.0 0.0 0.0 
0.0 0.0 0.0 
0.0 0.0 0.0 
0.0 0.0 0.0 
0.0 0.0 0.0 
0.0 0.0 0.0 
0.0 0.0 0.0 
0.0 0.0 0.0 
0.0 0.0 0.0 
0.0 0.0 0.0 
0.0 0.0 0.0 
0.0 0.0 0.0 
0.0 0.0 0.0 
0.0 0.0 0.0 
0.0 0.0 0.0 
0.0 0.0 0.0 
0.0 0.0 0.0 
0.0 0.0 0.0 
0.0 0.0 0.0 
0.0 0.0 0.0 
0.0 0.0 0.0 
0.0 0.0 0.0 
0.0 0.0 0.0 
0.0 0.0 0.0 
0.0 0.0 0.0 
0.0 0.0 0.0 
0.0 0.0 0.0 
0.0 0.0 0.0 
0.0 0.0 0.0 
0.0 0.0 0.0 
0.0 0.0 0.0 
0.0 0.0 0.0 
0.0 0.0 0.0 
0.0 0.0 0.0 
0.0 0.0 0.0 
0.0 0.0 0.0 
0.0 0.0 0.0 
0.0 0.0 0.0 
0.0 0.0 0.0 
0.0 0.0 0.0 
0.0 0.0 0.0 
0.0 0.0 0.0 
0.0 0.0 0.0 
0.0 0.0 0.0 
0.0 0.0 0.0 
0.0 0.0 0.0 
0.0 0.0 0.0 
0.0 0.0 0.0 
0.0 0.0 0.0 
0.0 0.0 0.0 
0.0 0.0 0.0 
0.0 0.0 0.0 
0.0 0.0 0.0 
0.0 0.0 0.0 
0.0 0.0 0.0 
0.0 0.0 0.0 
0.0 0.0 0.0 
0.0 0.0 0.0 
0.0 0.0 0.0 
0.0 0.0 0.0 
0.0 0.0 0.0 
0.0 0.0 0.0 
0.0 0.0 0.0 
0.0 0.0 0.0 
0.0 0.0 0.0 
0.0 0.0 0.0 
0.0 0.0 0.0 
0.0 0.0 0.0 
0.0 0.0 0.0 
0.0 0.0 0.0 
0.0 0.0 0.0 
0.0 0.0 0.0 
0.0 0.0 0.0 
0.0 0.0 0.0 
0.0 0.0 0.0 
0.0 0.0 0.0 
0.0 0.0 0.0 
0.0 0.0 0.0 
0.0 0.0 0.0 
0.0 0.0 0.0 
0.0 0.0 0.0 
0.0 0.0 0.0 
0.0 0.0 0.0 
0.0 0.0 0.0 
0.0 0.0 0.0 
0.0 0.0 0.0 
0.0 0.0 0.0 
0.0 0.0 0.0 
0.0 0.0 0.0 
0.0 0.0 0.0 
0.0 0.0 0.0 
0.0 0.0 0.0 
0.0 0.0 0.0 
0.0 0.0 0.0 
0.0 0.0 0.0 
0.0 0.0 0.0 
0.0 0.0 0.0 
0.0 0.0 0.0 
0.0 0.0 0.0 
0.0 0.0 0.0 
0.0 0.0 0.0 
0.0 0.0 0.0 
0.0 0.0 0.0 
0.0 0.0 0.0 
0.0 0.0 0.0 
0.0 0.0 0.0 
0.0 0.0 0.0 
0.0 0.0 0.0 
0.0 0.0 0.0 
0.0 0.0 0.0 
0.0 0.0 0.0 
0.0 0.0 0.0 
0.0 0.0 0.0 
0.0 0.0 0.0 
0.0 0.0 0.0 
0.0 0.0 0.0 
0.0 0.0 0.0 
0.0 0.0 0.0 
0.0 0.0 0.0 
0.0 0.0 0.0 
0.0 0.0 0.0 
0.0 0.0 0.0 
0.0 0.0 0.0 
0.0 0.0 0.0 
0.0 0.0 0.0 
0.0 0.0 0.0 
0.0 0.0 0.0 
0.0 0.0 0.0 
0.0 0.0 0.0 
0.0 0.0 0.0 
0.0 0.0 0.0 
0.0 0.0 0.0 
0.0 0.0 0.0 
0.0 0.0 0.0 
0.0 0.0 0.0 
0.0 0.0 0.0 
0.0 0.0 0.0 
0.0 0.0 0.0 
0.0 0.0 0.0 
0.0 0.0 0.0 
0.0 0.0 0.0 
0.0 0.0 0.0 
0.0 0.0 0.0 
0.0 0.0 0.0 
0.0 0.0 0.0 
0.0 0.0 0.0 
0.0 0.0 0.0 
0.0 0.0 0.0 
0.0 0.0 0.0 
0.0 0.0 0.0 
0.0 0.0 0.0 
0.0 0.0 0.0 
0.0 0.0 0.0 
0.0 0.0 0.0 
0.0 0.0 0.0 
0.0 0.0 0.0 
0.0 0.0 0.0 
0.0 0.0 0.0 
0.0 0.0 0.0 
0.0 0.0 0.0 
0.0 0.0 0.0 
0.0 0.0 0.0 
0.0 0.0 0.0 
0.0 0.0 0.0 
0.0 0.0 0.0 
0.0 0.0 0.0 
0.0 0.0 0.0 
0.0 0.0 0.0 
0.0 0.0 0.0 
0.0 0.0 0.0 
0.0 0.0 0.0 
0.0 0.0 0.0 
0.0 0.0 0.0 
0.0 0.0 0.0 
0.0 0.0 0.0 
0.0 0.0 0.0 
0.0 0.0 0.0 
0.0 0.0 0.0 
0.0 0.0 0.0 
0.0 0.0 0.0 
0.0 0.0 0.0 
0.0 0.0 0.0 
0.0 0.0 0.0 
0.0 0.0 0.0 
0.0 0.0 0.0 
0.0 0.0 0.0 
0.0 0.0 0.0 
0.0 0.0 0.0 
0.0 0.0 0.0 
0.0 0.0 0.0 
0.0 0.0 0.0 
0.0 0.0 0.0 
0.0 0.0 0.0 
0.0 0.0 0.0 
0.0 0.0 0.0 
0.0 0.0 0.0 
0.0 0.0 0.0 
0.0 0.0 0.0 
0.0 0.0 0.0 
0.0 0.0 0.0 
0.0 0.0 0.0 
0.0 0.0 0.0 
0.0 0.0 0.0 
0.0 0.0 0.0 
0.0 0.0 0.0 
0.0 0.0 0.0 
0.0 0.0 0.0 
0.0 0.0 0.0 
0.0 0.0 0.0 
0.0 0.0 0.0 
0.0 0.0 0.0 
0.0 0.0 0.0 
0.0 0.0 0.0 
0.0 0.0 0.0 
0.0 0.0 0.0 
0.0 0.0 0.0 
0.0 0.0 0.0 
0.0 0.0 0.0 
0.0 0.0 0.0 
0.0 0.0 0.0 
0.0 0.0 0.0 
0.0 0.0 0.0 
0.0 0.0 0.0 
0.0 0.0 0.0 
0.0 0.0 0.0 
0.0 0.0 0.0 
0.0 0.0 0.0 
0.0 0.0 0.0 
0.0 0.0 0.0 
0.0 0.0 0.0 
0.0 0.0 0.0 
0.0 0.0 0.0 
0.0 0.0 0.0 
0.0 0.0 0.0 
0.0 0.0 0.0 
0.0 0.0 0.0 
0.0 0.0 0.0 
0.0 0.0 0.0 
0.0 0.0 0.0 
0.0 0.0 0.0 
0.0 0.0 0.0 
0.0 0.0 0.0 
0.0 0.0 0.0 
0.0 0.0 0.0 
0.0 0.0 0.0 
0.0 0.0 0.0 
0.0 0.0 0.0 
0.0 0.0 0.0 
0.0 0.0 0.0 
0.0 0.0 0.0 
0.0 0.0 0.0 
0.0 0.0 0.0 
0.0 0.0 0.0 
0.0 0.0 0.0 
0.0 0.0 0.0 
0.0 0.0 0.0 
0.0 0.0 0.0 
0.0 0.0 0.0 
0.0 0.0 0.0 
0.0 0.0 0.0 
0.0 0.0 0.0 
0.0 0.0 0.0 
0.0 0.0 0.0 
0.0 0.0 0.0 

SCALARS node_boundary float
LOOKUP_TABLE default
1.000000000000e+00 
1.000000000000e+00 
1.000000000000e+00 
1.000000000000e+00 
1.000000000000e+00 
1.000000000000e+00 
1.000000000000e+00 
1.000000000000e+00 
1.000000000000e+00 
1.000000000000e+00 
1.000000000000e+00 
1.000000000000e+00 
1.000000000000e+00 
1.000000000000e+00 
1.000000000000e+00 
1.000000000000e+00 
1.000000000000e+00 
1.000000000000e+00 
1.000000000000e+00 
1.000000000000e+00 
1.000000000000e+00 
1.000000000000e+00 
1.000000000000e+00 
1.000000000000e+00 
1.000000000000e+00 
1.000000000000e+00 
1.000000000000e+00 
1.000000000000e+00 
1.000000000000e+00 
1.000000000000e+00 
1.000000000000e+00 
1.000000000000e+00 
1.000000000000e+00 
1.000000000000e+00 
1.000000000000e+00 
1.000000000000e+00 
1.000000000000e+00 
1.000000000000e+00 
1.000000000000e+00 
1.000000000000e+00 
1.000000000000e+00 
1.000000000000e+00 
1.000000000000e+00 
1.000000000000e+00 
1.000000000000e+00 
1.000000000000e+00 
1.000000000000e+00 
1.000000000000e+00 
1.000000000000e+00 
1.000000000000e+00 
1.000000000000e+00 
1.000000000000e+00 
1.000000000000e+00 
1.000000000000e+00 
1.000000000000e+00 
1.000000000000e+00 
1.000000000000e+00 
1.000000000000e+00 
1.000000000000e+00 
1.000000000000e+00 
1.000000000000e+00 
1.000000000000e+00 
1.000000000000e+00 
1.000000000000e+00 
1.000000000000e+00 
1.000000000000e+00 
1.000000000000e+00 
1.000000000000e+00 
1.000000000000e+00 
1.000000000000e+00 
1.000000000000e+00 
1.000000000000e+00 
1.000000000000e+00 
1.000000000000e+00 
1.000000000000e+00 
1.000000000000e+00 
1.000000000000e+00 
1.000000000000e+00 
1.000000000000e+00 
1.000000000000e+00 
1.000000000000e+00 
1.000000000000e+00 
1.000000000000e+00 
0.0
0.0
0.0
0.0
0.0
0.0
0.0
0.0
0.0
0.0
1.000000000000e+00 
1.000000000000e+00 
1.000000000000e+00 
1.000000000000e+00 
1.000000000000e+00 
1.000000000000e+00 
1.000000000000e+00 
1.000000000000e+00 
1.000000000000e+00 
0.0
0.0
0.0
0.0
0.0
0.0
0.0
0.0
0.0
0.0
0.0
0.0
0.0
0.0
1.000000000000e+00 
1.000000000000e+00 
1.000000000000e+00 
1.000000000000e+00 
1.000000000000e+00 
1.000000000000e+00 
1.000000000000e+00 
1.000000000000e+00 
1.000000000000e+00 
1.000000000000e+00 
1.000000000000e+00 
1.000000000000e+00 
1.000000000000e+00 
1.000000000000e+00 
1.000000000000e+00 
1.000000000000e+00 
1.000000000000e+00 
1.000000000000e+00 
1.000000000000e+00 
1.000000000000e+00 
1.000000000000e+00 
1.000000000000e+00 
1.000000000000e+00 
1.000000000000e+00 
1.000000000000e+00 
1.000000000000e+00 
1.000000000000e+00 
1.000000000000e+00 
1.000000000000e+00 
1.000000000000e+00 
1.000000000000e+00 
1.000000000000e+00 
1.000000000000e+00 
1.000000000000e+00 
1.000000000000e+00 
1.000000000000e+00 
1.000000000000e+00 
1.000000000000e+00 
1.000000000000e+00 
1.000000000000e+00 
1.000000000000e+00 
1.000000000000e+00 
1.000000000000e+00 
1.000000000000e+00 
1.000000000000e+00 
1.000000000000e+00 
1.000000000000e+00 
1.000000000000e+00 
0.0
0.0
0.0
0.0
0.0
0.0
0.0
0.0
0.0
0.0
0.0
0.0
0.0
0.0
0.0
0.0
0.0
0.0
0.0
0.0
0.0
0.0
0.0
0.0
0.0
0.0
0.0
0.0
0.0
0.0
0.0
0.0
0.0
0.0
0.0
0.0
0.0
0.0
0.0
0.0
0.0
0.0
0.0
0.0
0.0
0.0
0.0
0.0
0.0
0.0
0.0
0.0
0.0
0.0
0.0
0.0
0.0
0.0
0.0
0.0
0.0
0.0
0.0
0.0
0.0
0.0
0.0
0.0
0.0
0.0
0.0
0.0
0.0
0.0
0.0
0.0
0.0
0.0
0.0
0.0
0.0
0.0
0.0
0.0
0.0
0.0
0.0
0.0
0.0
0.0
0.0
0.0
0.0
0.0
0.0
0.0
0.0
0.0
0.0
0.0
0.0
0.0
0.0
0.0
0.0
0.0
0.0
0.0
0.0
0.0
0.0
0.0
0.0
0.0
0.0
0.0
0.0
0.0
0.0
0.0
0.0
0.0
0.0
0.0
0.0
0.0
0.0
0.0
0.0
0.0
0.0
0.0
0.0
0.0
0.0
0.0
0.0
0.0
0.0
0.0
0.0
0.0
0.0
0.0
0.0
0.0
0.0
0.0
0.0
0.0
0.0
0.0
0.0
0.0
0.0
0.0
0.0
0.0
0.0
0.0
0.0
0.0
0.0
0.0
0.0
0.0
0.0
0.0
0.0
0.0
0.0
0.0
0.0
0.0
0.0
0.0
0.0
0.0
0.0
0.0
0.0
0.0
0.0
0.0
0.0
0.0
0.0
0.0
0.0
0.0
0.0
0.0
0.0
0.0
0.0
0.0
0.0
0.0
0.0
0.0
0.0
0.0
0.0
0.0
0.0
0.0
0.0
0.0
0.0
0.0
0.0
0.0
0.0
0.0
0.0
0.0
0.0
0.0
0.0
0.0
0.0
0.0
0.0
0.0
0.0
0.0
0.0
0.0
0.0
0.0
0.0
0.0
0.0
0.0
0.0
0.0
0.0
0.0
0.0
0.0
0.0
0.0
0.0
0.0
0.0
0.0
0.0
0.0
0.0
0.0
0.0
0.0
0.0
0.0
0.0
0.0
0.0
0.0
0.0
0.0
0.0
0.0
0.0
0.0
0.0
0.0
0.0
0.0
0.0
0.0
0.0
0.0
0.0
0.0
0.0
0.0
0.0
0.0
0.0
0.0
0.0
0.0
0.0
0.0
0.0
0.0
0.0
0.0
0.0
0.0
0.0
0.0
0.0
0.0
0.0
0.0
0.0
0.0
0.0
0.0
0.0
0.0
0.0
0.0
0.0
0.0
0.0
0.0
0.0
0.0
0.0
0.0
0.0
0.0
0.0
0.0
0.0
0.0
0.0
0.0
0.0
0.0
0.0
0.0
0.0
0.0
0.0
0.0
0.0
0.0
0.0
0.0
0.0
0.0
0.0
0.0
0.0
0.0
0.0
0.0
0.0
0.0
0.0
0.0
0.0
0.0
0.0
0.0
0.0
0.0
0.0
0.0
0.0
0.0
0.0
0.0
0.0
0.0
0.0
0.0
0.0
0.0
0.0
0.0
0.0
0.0
0.0
0.0
0.0
0.0
0.0
0.0
0.0
0.0
0.0
0.0
0.0
0.0
0.0
0.0
0.0
0.0
0.0
0.0
0.0
0.0
0.0
0.0
0.0
0.0
0.0
0.0
0.0
0.0
0.0
0.0
0.0
0.0
0.0
0.0
0.0
0.0
0.0
0.0
0.0
0.0
0.0
0.0
0.0
0.0
0.0
0.0
0.0
0.0
0.0
0.0
0.0
0.0
0.0
0.0
0.0
0.0
0.0
0.0
0.0
0.0
0.0
0.0
0.0
0.0
0.0
0.0
0.0
0.0
0.0
0.0
0.0
0.0
0.0
0.0
0.0
0.0
0.0
0.0
0.0
0.0
0.0
0.0
0.0
0.0
0.0
0.0
0.0
0.0
0.0
0.0
0.0
0.0
0.0
0.0
0.0
0.0
0.0
0.0
0.0
0.0
0.0
0.0
0.0
0.0
0.0
0.0
0.0
0.0
0.0
0.0
0.0
0.0
0.0
0.0
0.0
0.0
0.0
0.0
0.0
0.0
0.0
0.0
0.0
0.0
0.0
0.0
0.0
0.0
0.0
0.0
0.0
0.0
0.0
0.0
0.0
0.0
0.0
0.0
0.0
0.0
0.0
0.0
0.0
0.0
0.0
0.0
0.0
0.0
0.0
0.0
0.0
0.0
0.0
0.0
0.0
0.0
0.0
0.0
0.0
0.0
0.0
0.0
0.0
0.0
0.0
0.0
0.0
0.0
0.0
0.0
0.0
0.0
0.0
0.0
0.0
0.0
0.0
0.0
0.0
0.0
0.0
0.0
0.0
0.0
0.0
0.0
0.0
0.0
0.0
0.0
0.0
0.0
0.0
0.0
0.0
0.0
0.0
0.0
0.0
0.0
0.0
0.0
0.0
0.0
0.0
0.0
0.0
0.0
0.0
0.0
0.0
0.0
0.0
0.0
0.0
0.0
0.0
0.0
0.0
0.0
0.0
0.0
0.0
0.0
0.0
0.0
0.0
0.0
0.0
0.0
0.0
0.0
0.0
0.0
0.0
0.0
0.0
0.0
0.0
0.0
0.0
0.0
0.0
0.0
0.0
0.0
0.0
0.0
0.0
0.0
0.0
0.0
0.0
0.0
0.0
0.0
0.0
0.0
0.0
0.0
0.0
0.0
0.0
0.0
0.0
0.0
0.0
0.0
0.0
0.0
0.0
0.0
0.0
0.0
0.0
0.0
0.0
0.0
0.0
0.0
0.0
0.0
0.0
0.0
0.0
0.0
0.0
0.0
0.0
0.0
0.0
0.0
0.0
0.0
0.0
0.0
0.0
0.0
0.0
0.0
0.0
0.0
0.0
0.0
0.0
0.0
0.0
0.0
0.0
0.0
0.0
0.0
0.0
0.0
0.0
0.0
0.0
0.0
0.0
0.0
0.0
0.0
0.0
0.0
0.0
0.0
0.0
0.0
0.0
0.0
0.0
0.0
0.0
0.0
0.0
0.0
0.0
0.0
0.0
0.0
0.0
0.0
0.0
0.0
0.0
0.0
0.0
0.0
0.0
0.0
0.0
0.0
0.0
0.0
0.0
0.0
0.0
0.0
0.0
0.0
0.0
0.0
0.0
0.0
0.0
0.0
0.0
0.0
0.0
0.0
0.0
0.0
0.0
0.0
0.0
0.0
0.0
0.0
0.0
0.0
0.0
0.0
0.0
0.0
0.0
0.0
0.0
0.0
0.0
0.0
0.0
0.0
0.0
0.0
0.0
0.0
0.0
0.0
0.0
0.0
0.0
0.0
0.0
0.0
0.0
0.0
0.0
0.0
0.0
0.0
0.0
0.0
0.0
0.0
0.0
0.0
0.0
0.0
0.0
0.0
0.0
0.0
0.0
0.0
0.0
0.0
0.0
0.0
0.0
0.0
0.0
0.0
0.0
0.0
0.0
0.0
0.0
0.0
0.0
0.0
0.0
0.0
0.0
0.0
0.0
0.0
0.0
0.0
0.0
0.0
0.0
0.0
0.0
0.0
0.0
0.0
0.0
0.0
0.0
0.0
0.0
0.0
0.0
0.0
0.0
0.0
0.0
0.0
0.0
0.0
0.0
0.0
0.0
0.0
0.0
0.0
0.0
0.0
0.0
0.0
0.0
0.0
0.0
0.0
0.0
0.0
0.0
0.0
0.0
0.0
0.0
0.0
0.0
0.0
0.0
0.0
0.0
0.0
0.0
0.0
0.0
0.0
0.0
0.0
0.0
0.0
0.0
0.0
0.0
0.0
0.0
0.0
0.0
0.0
0.0
0.0
0.0
0.0
0.0
0.0
0.0
0.0
0.0
0.0
0.0
0.0
0.0
0.0
0.0
0.0
0.0
0.0
0.0
0.0
0.0
0.0
0.0
0.0
0.0
0.0
0.0
0.0
0.0
0.0
0.0
0.0
0.0
0.0
0.0
0.0
0.0
0.0
0.0
0.0
0.0
0.0
0.0
0.0
0.0
0.0
0.0
0.0
0.0
0.0
0.0
0.0
0.0
0.0
0.0
0.0
0.0
0.0
0.0
0.0
0.0
0.0
0.0
0.0
0.0
0.0
0.0
0.0
0.0
0.0
0.0
0.0
0.0
0.0
0.0
0.0
0.0
0.0
0.0
0.0
0.0
0.0
0.0
0.0
0.0
0.0
0.0
0.0
0.0
0.0
0.0
0.0
0.0
0.0
0.0
0.0
0.0
0.0
0.0
0.0
0.0
0.0
0.0
0.0
0.0
0.0
0.0
0.0
0.0
0.0
0.0
0.0
0.0
0.0
0.0
0.0
0.0
0.0
0.0
0.0
0.0
0.0
0.0
0.0
0.0
0.0
0.0
0.0
0.0
0.0
0.0
0.0
0.0
0.0
0.0
0.0
0.0
0.0
0.0
0.0
0.0
0.0
0.0
0.0
0.0
0.0
0.0
0.0
0.0
0.0
0.0
0.0
0.0
0.0
0.0
0.0
0.0
0.0
0.0
0.0
0.0
0.0
0.0
0.0
0.0
0.0
0.0
0.0
0.0
0.0
0.0
0.0
0.0
0.0
0.0
0.0
0.0
0.0
0.0
0.0
0.0
0.0
0.0
0.0
0.0
0.0
0.0
0.0
0.0
0.0
0.0
0.0
0.0
0.0
0.0
0.0
0.0
0.0
0.0
0.0
0.0
0.0
0.0
0.0
0.0
0.0
0.0
0.0
0.0
0.0
0.0
0.0
0.0
0.0
0.0
0.0
0.0
0.0
0.0
0.0
0.0
0.0
0.0
0.0
0.0
0.0
0.0
0.0
0.0
0.0
0.0
0.0
0.0
0.0
0.0
0.0
0.0
0.0
0.0

VECTORS node_force_gravity float
0.0 -1.962000000000e+01 0.0 
0.0 -1.962000000000e+01 0.0 
0.0 -1.962000000000e+01 0.0 
0.0 -1.962000000000e+01 0.0 
0.0 -1.962000000000e+01 0.0 
0.0 -1.962000000000e+01 0.0 
0.0 -1.962000000000e+01 0.0 
0.0 -1.962000000000e+01 0.0 
0.0 -1.962000000000e+01 0.0 
0.0 -1.962000000000e+01 0.0 
0.0 -1.962000000000e+01 0.0 
0.0 -1.962000000000e+01 0.0 
0.0 -1.962000000000e+01 0.0 
0.0 -1.962000000000e+01 0.0 
0.0 -1.962000000000e+01 0.0 
0.0 -1.962000000000e+01 0.0 
0.0 -1.962000000000e+01 0.0 
0.0 -1.962000000000e+01 0.0 
0.0 -1.962000000000e+01 0.0 
0.0 -1.962000000000e+01 0.0 
0.0 -1.962000000000e+01 0.0 
0.0 -1.962000000000e+01 0.0 
0.0 -1.962000000000e+01 0.0 
0.0 -1.962000000000e+01 0.0 
0.0 -1.962000000000e+01 0.0 
0.0 -1.962000000000e+01 0.0 
0.0 -1.962000000000e+01 0.0 
0.0 -1.962000000000e+01 0.0 
0.0 -1.962000000000e+01 0.0 
0.0 -1.962000000000e+01 0.0 
0.0 -1.962000000000e+01 0.0 
0.0 -1.962000000000e+01 0.0 
0.0 -1.962000000000e+01 0.0 
0.0 -1.962000000000e+01 0.0 
0.0 -1.962000000000e+01 0.0 
0.0 -1.962000000000e+01 0.0 
0.0 -1.962000000000e+01 0.0 
0.0 -1.962000000000e+01 0.0 
0.0 -1.962000000000e+01 0.0 
0.0 -1.962000000000e+01 0.0 
0.0 -1.962000000000e+01 0.0 
0.0 -1.962000000000e+01 0.0 
0.0 -1.962000000000e+01 0.0 
0.0 -1.962000000000e+01 0.0 
0.0 -1.962000000000e+01 0.0 
0.0 -1.962000000000e+01 0.0 
0.0 -1.962000000000e+01 0.0 
0.0 -1.962000000000e+01 0.0 
0.0 -1.962000000000e+01 0.0 
0.0 -1.962000000000e+01 0.0 
0.0 -1.962000000000e+01 0.0 
0.0 -1.962000000000e+01 0.0 
0.0 -1.962000000000e+01 0.0 
0.0 -1.962000000000e+01 0.0 
0.0 -1.962000000000e+01 0.0 
0.0 -1.962000000000e+01 0.0 
0.0 -1.962000000000e+01 0.0 
0.0 -1.962000000000e+01 0.0 
0.0 -1.962000000000e+01 0.0 
0.0 -1.962000000000e+01 0.0 
0.0 -1.962000000000e+01 0.0 
0.0 -1.962000000000e+01 0.0 
0.0 -1.962000000000e+01 0.0 
0.0 -1.962000000000e+01 0.0 
0.0 -1.962000000000e+01 0.0 
0.0 -1.962000000000e+01 0.0 
0.0 -1.962000000000e+01 0.0 
0.0 -1.962000000000e+01 0.0 
0.0 -1.962000000000e+01 0.0 
0.0 -1.962000000000e+01 0.0 
0.0 -1.962000000000e+01 0.0 
0.0 -1.962000000000e+01 0.0 
0.0 -1.962000000000e+01 0.0 
0.0 -1.962000000000e+01 0.0 
0.0 -1.962000000000e+01 0.0 
0.0 -1.962000000000e+01 0.0 
0.0 -1.962000000000e+01 0.0 
0.0 -1.962000000000e+01 0.0 
0.0 -1.962000000000e+01 0.0 
0.0 -1.962000000000e+01 0.0 
0.0 -1.962000000000e+01 0.0 
0.0 -1.962000000000e+01 0.0 
0.0 -1.962000000000e+01 0.0 
0.0 -1.962000000000e+01 0.0 
0.0 -1.962000000000e+01 0.0 
0.0 -1.962000000000e+01 0.0 
0.0 -1.962000000000e+01 0.0 
0.0 -1.962000000000e+01 0.0 
0.0 -1.962000000000e+01 0.0 
0.0 -1.962000000000e+01 0.0 
0.0 -1.962000000000e+01 0.0 
0.0 -1.962000000000e+01 0.0 
0.0 -1.962000000000e+01 0.0 
0.0 -1.962000000000e+01 0.0 
0.0 -1.962000000000e+01 0.0 
0.0 -1.962000000000e+01 0.0 
0.0 -1.962000000000e+01 0.0 
0.0 -1.962000000000e+01 0.0 
0.0 -1.962000000000e+01 0.0 
0.0 -1.962000000000e+01 0.0 
0.0 -1.962000000000e+01 0.0 
0.0 -1.962000000000e+01 0.0 
0.0 -1.962000000000e+01 0.0 
0.0 -1.962000000000e+01 0.0 
0.0 -1.962000000000e+01 0.0 
0.0 -1.962000000000e+01 0.0 
0.0 -1.962000000000e+01 0.0 
0.0 -1.962000000000e+01 0.0 
0.0 -1.962000000000e+01 0.0 
0.0 -1.962000000000e+01 0.0 
0.0 -1.962000000000e+01 0.0 
0.0 -1.962000000000e+01 0.0 
0.0 -1.962000000000e+01 0.0 
0.0 -1.962000000000e+01 0.0 
0.0 -1.962000000000e+01 0.0 
0.0 -1.962000000000e+01 0.0 
0.0 -1.962000000000e+01 0.0 
0.0 -1.962000000000e+01 0.0 
0.0 -1.962000000000e+01 0.0 
0.0 -1.962000000000e+01 0.0 
0.0 -1.962000000000e+01 0.0 
0.0 -1.962000000000e+01 0.0 
0.0 -1.962000000000e+01 0.0 
0.0 -1.962000000000e+01 0.0 
0.0 -1.962000000000e+01 0.0 
0.0 -1.962000000000e+01 0.0 
0.0 -1.962000000000e+01 0.0 
0.0 -1.962000000000e+01 0.0 
0.0 -1.962000000000e+01 0.0 
0.0 -1.962000000000e+01 0.0 
0.0 -1.962000000000e+01 0.0 
0.0 -1.962000000000e+01 0.0 
0.0 -1.962000000000e+01 0.0 
0.0 -1.962000000000e+01 0.0 
0.0 -1.962000000000e+01 0.0 
0.0 -1.962000000000e+01 0.0 
0.0 -1.962000000000e+01 0.0 
0.0 -1.962000000000e+01 0.0 
0.0 -1.962000000000e+01 0.0 
0.0 -1.962000000000e+01 0.0 
0.0 -1.962000000000e+01 0.0 
0.0 -1.962000000000e+01 0.0 
0.0 -1.962000000000e+01 0.0 
0.0 -1.962000000000e+01 0.0 
0.0 -1.962000000000e+01 0.0 
0.0 -1.962000000000e+01 0.0 
0.0 -1.962000000000e+01 0.0 
0.0 -1.962000000000e+01 0.0 
0.0 -1.962000000000e+01 0.0 
0.0 -1.962000000000e+01 0.0 
0.0 -1.962000000000e+01 0.0 
0.0 -1.962000000000e+01 0.0 
0.0 -1.962000000000e+01 0.0 
0.0 -1.962000000000e+01 0.0 
0.0 -1.962000000000e+01 0.0 
0.0 -1.962000000000e+01 0.0 
0.0 -1.962000000000e+01 0.0 
0.0 -1.962000000000e+01 0.0 
0.0 -1.962000000000e+01 0.0 
0.0 -1.962000000000e+01 0.0 
0.0 -1.962000000000e+01 0.0 
0.0 -1.962000000000e+01 0.0 
0.0 -1.962000000000e+01 0.0 
0.0 -1.962000000000e+01 0.0 
0.0 -1.962000000000e+01 0.0 
0.0 -1.962000000000e+01 0.0 
0.0 -1.962000000000e+01 0.0 
0.0 -1.962000000000e+01 0.0 
0.0 -1.962000000000e+01 0.0 
0.0 -1.962000000000e+01 0.0 
0.0 -1.962000000000e+01 0.0 
0.0 -1.962000000000e+01 0.0 
0.0 -1.962000000000e+01 0.0 
0.0 -1.962000000000e+01 0.0 
0.0 -1.962000000000e+01 0.0 
0.0 -1.962000000000e+01 0.0 
0.0 -1.962000000000e+01 0.0 
0.0 -1.962000000000e+01 0.0 
0.0 -1.962000000000e+01 0.0 
0.0 -1.962000000000e+01 0.0 
0.0 -1.962000000000e+01 0.0 
0.0 -1.962000000000e+01 0.0 
0.0 -1.962000000000e+01 0.0 
0.0 -1.962000000000e+01 0.0 
0.0 -1.962000000000e+01 0.0 
0.0 -1.962000000000e+01 0.0 
0.0 -1.962000000000e+01 0.0 
0.0 -1.962000000000e+01 0.0 
0.0 -1.962000000000e+01 0.0 
0.0 -1.962000000000e+01 0.0 
0.0 -1.962000000000e+01 0.0 
0.0 -1.962000000000e+01 0.0 
0.0 -1.962000000000e+01 0.0 
0.0 -1.962000000000e+01 0.0 
0.0 -1.962000000000e+01 0.0 
0.0 -1.962000000000e+01 0.0 
0.0 -1.962000000000e+01 0.0 
0.0 -1.962000000000e+01 0.0 
0.0 -1.962000000000e+01 0.0 
0.0 -1.962000000000e+01 0.0 
0.0 -1.962000000000e+01 0.0 
0.0 -1.962000000000e+01 0.0 
0.0 -1.962000000000e+01 0.0 
0.0 -1.962000000000e+01 0.0 
0.0 -1.962000000000e+01 0.0 
0.0 -1.962000000000e+01 0.0 
0.0 -1.962000000000e+01 0.0 
0.0 -1.962000000000e+01 0.0 
0.0 -1.962000000000e+01 0.0 
0.0 -1.962000000000e+01 0.0 
0.0 -1.962000000000e+01 0.0 
0.0 -1.962000000000e+01 0.0 
0.0 -1.962000000000e+01 0.0 
0.0 -1.962000000000e+01 0.0 
0.0 -1.962000000000e+01 0.0 
0.0 -1.962000000000e+01 0.0 
0.0 -1.962000000000e+01 0.0 
0.0 -1.962000000000e+01 0.0 
0.0 -1.962000000000e+01 0.0 
0.0 -1.962000000000e+01 0.0 
0.0 -1.962000000000e+01 0.0 
0.0 -1.962000000000e+01 0.0 
0.0 -1.962000000000e+01 0.0 
0.0 -1.962000000000e+01 0.0 
0.0 -1.962000000000e+01 0.0 
0.0 -1.962000000000e+01 0.0 
0.0 -1.962000000000e+01 0.0 
0.0 -1.962000000000e+01 0.0 
0.0 -1.962000000000e+01 0.0 
0.0 -1.962000000000e+01 0.0 
0.0 -1.962000000000e+01 0.0 
0.0 -1.962000000000e+01 0.0 
0.0 -1.962000000000e+01 0.0 
0.0 -1.962000000000e+01 0.0 
0.0 -1.962000000000e+01 0.0 
0.0 -1.962000000000e+01 0.0 
0.0 -1.962000000000e+01 0.0 
0.0 -1.962000000000e+01 0.0 
0.0 -1.962000000000e+01 0.0 
0.0 -1.962000000000e+01 0.0 
0.0 -1.962000000000e+01 0.0 
0.0 -1.962000000000e+01 0.0 
0.0 -1.962000000000e+01 0.0 
0.0 -1.962000000000e+01 0.0 
0.0 -1.962000000000e+01 0.0 
0.0 -1.962000000000e+01 0.0 
0.0 -1.962000000000e+01 0.0 
0.0 -1.962000000000e+01 0.0 
0.0 -1.962000000000e+01 0.0 
0.0 -1.962000000000e+01 0.0 
0.0 -1.962000000000e+01 0.0 
0.0 -1.962000000000e+01 0.0 
0.0 -1.962000000000e+01 0.0 
0.0 -1.962000000000e+01 0.0 
0.0 -1.962000000000e+01 0.0 
0.0 -1.962000000000e+01 0.0 
0.0 -1.962000000000e+01 0.0 
0.0 -1.962000000000e+01 0.0 
0.0 -1.962000000000e+01 0.0 
0.0 -1.962000000000e+01 0.0 
0.0 -1.962000000000e+01 0.0 
0.0 -1.962000000000e+01 0.0 
0.0 -1.962000000000e+01 0.0 
0.0 -1.962000000000e+01 0.0 
0.0 -1.962000000000e+01 0.0 
0.0 -1.962000000000e+01 0.0 
0.0 -1.962000000000e+01 0.0 
0.0 -1.962000000000e+01 0.0 
0.0 -1.962000000000e+01 0.0 
0.0 -1.962000000000e+01 0.0 
0.0 -1.962000000000e+01 0.0 
0.0 -1.962000000000e+01 0.0 
0.0 -1.962000000000e+01 0.0 
0.0 -1.962000000000e+01 0.0 
0.0 -1.962000000000e+01 0.0 
0.0 -1.962000000000e+01 0.0 
0.0 -1.962000000000e+01 0.0 
0.0 -1.962000000000e+01 0.0 
0.0 -1.962000000000e+01 0.0 
0.0 -1.962000000000e+01 0.0 
0.0 -1.962000000000e+01 0.0 
0.0 -1.962000000000e+01 0.0 
0.0 -1.962000000000e+01 0.0 
0.0 -1.962000000000e+01 0.0 
0.0 -1.962000000000e+01 0.0 
0.0 -1.962000000000e+01 0.0 
0.0 -1.962000000000e+01 0.0 
0.0 -1.962000000000e+01 0.0 
0.0 -1.962000000000e+01 0.0 
0.0 -1.962000000000e+01 0.0 
0.0 -1.962000000000e+01 0.0 
0.0 -1.962000000000e+01 0.0 
0.0 -1.962000000000e+01 0.0 
0.0 -1.962000000000e+01 0.0 
0.0 -1.962000000000e+01 0.0 
0.0 -1.962000000000e+01 0.0 
0.0 -1.962000000000e+01 0.0 
0.0 -1.962000000000e+01 0.0 
0.0 -1.962000000000e+01 0.0 
0.0 -1.962000000000e+01 0.0 
0.0 -1.962000000000e+01 0.0 
0.0 -1.962000000000e+01 0.0 
0.0 -1.962000000000e+01 0.0 
0.0 -1.962000000000e+01 0.0 
0.0 -1.962000000000e+01 0.0 
0.0 -1.962000000000e+01 0.0 
0.0 -1.962000000000e+01 0.0 
0.0 -1.962000000000e+01 0.0 
0.0 -1.962000000000e+01 0.0 
0.0 -1.962000000000e+01 0.0 
0.0 -1.962000000000e+01 0.0 
0.0 -1.962000000000e+01 0.0 
0.0 -1.962000000000e+01 0.0 
0.0 -1.962000000000e+01 0.0 
0.0 -1.962000000000e+01 0.0 
0.0 -1.962000000000e+01 0.0 
0.0 -1.962000000000e+01 0.0 
0.0 -1.962000000000e+01 0.0 
0.0 -1.962000000000e+01 0.0 
0.0 -1.962000000000e+01 0.0 
0.0 -1.962000000000e+01 0.0 
0.0 -1.962000000000e+01 0.0 
0.0 -1.962000000000e+01 0.0 
0.0 -1.962000000000e+01 0.0 
0.0 -1.962000000000e+01 0.0 
0.0 -1.962000000000e+01 0.0 
0.0 -1.962000000000e+01 0.0 
0.0 -1.962000000000e+01 0.0 
0.0 -1.962000000000e+01 0.0 
0.0 -1.962000000000e+01 0.0 
0.0 -1.962000000000e+01 0.0 
0.0 -1.962000000000e+01 0.0 
0.0 -1.962000000000e+01 0.0 
0.0 -1.962000000000e+01 0.0 
0.0 -1.962000000000e+01 0.0 
0.0 -1.962000000000e+01 0.0 
0.0 -1.962000000000e+01 0.0 
0.0 -1.962000000000e+01 0.0 
0.0 -1.962000000000e+01 0.0 
0.0 -1.962000000000e+01 0.0 
0.0 -1.962000000000e+01 0.0 
0.0 -1.962000000000e+01 0.0 
0.0 -1.962000000000e+01 0.0 
0.0 -1.962000000000e+01 0.0 
0.0 -1.962000000000e+01 0.0 
0.0 -1.962000000000e+01 0.0 
0.0 -1.962000000000e+01 0.0 
0.0 -1.962000000000e+01 0.0 
0.0 -1.962000000000e+01 0.0 
0.0 -1.962000000000e+01 0.0 
0.0 -1.962000000000e+01 0.0 
0.0 -1.962000000000e+01 0.0 
0.0 -1.962000000000e+01 0.0 
0.0 -1.962000000000e+01 0.0 
0.0 -1.962000000000e+01 0.0 
0.0 -1.962000000000e+01 0.0 
0.0 -1.962000000000e+01 0.0 
0.0 -1.962000000000e+01 0.0 
0.0 -1.962000000000e+01 0.0 
0.0 -1.962000000000e+01 0.0 
0.0 -1.962000000000e+01 0.0 
0.0 -1.962000000000e+01 0.0 
0.0 -1.962000000000e+01 0.0 
0.0 -1.962000000000e+01 0.0 
0.0 -1.962000000000e+01 0.0 
0.0 -1.962000000000e+01 0.0 
0.0 -1.962000000000e+01 0.0 
0.0 -1.962000000000e+01 0.0 
0.0 -1.962000000000e+01 0.0 
0.0 -1.962000000000e+01 0.0 
0.0 -1.962000000000e+01 0.0 
0.0 -1.962000000000e+01 0.0 
0.0 -1.962000000000e+01 0.0 
0.0 -1.962000000000e+01 0.0 
0.0 -1.962000000000e+01 0.0 
0.0 -1.962000000000e+01 0.0 
0.0 -1.962000000000e+01 0.0 
0.0 -1.962000000000e+01 0.0 
0.0 -1.962000000000e+01 0.0 
0.0 -1.962000000000e+01 0.0 
0.0 -1.962000000000e+01 0.0 
0.0 -1.962000000000e+01 0.0 
0.0 -1.962000000000e+01 0.0 
0.0 -1.962000000000e+01 0.0 
0.0 -1.962000000000e+01 0.0 
0.0 -1.962000000000e+01 0.0 
0.0 -1.962000000000e+01 0.0 
0.0 -1.962000000000e+01 0.0 
0.0 -1.962000000000e+01 0.0 
0.0 -1.962000000000e+01 0.0 
0.0 -1.962000000000e+01 0.0 
0.0 -1.962000000000e+01 0.0 
0.0 -1.962000000000e+01 0.0 
0.0 -1.962000000000e+01 0.0 
0.0 -1.962000000000e+01 0.0 
0.0 -1.962000000000e+01 0.0 
0.0 -1.962000000000e+01 0.0 
0.0 -1.962000000000e+01 0.0 
0.0 -1.962000000000e+01 0.0 
0.0 -1.962000000000e+01 0.0 
0.0 -1.962000000000e+01 0.0 
0.0 -1.962000000000e+01 0.0 
0.0 -1.962000000000e+01 0.0 
0.0 -1.962000000000e+01 0.0 
0.0 -1.962000000000e+01 0.0 
0.0 -1.962000000000e+01 0.0 
0.0 -1.962000000000e+01 0.0 
0.0 -1.962000000000e+01 0.0 
0.0 -1.962000000000e+01 0.0 
0.0 -1.962000000000e+01 0.0 
0.0 -1.962000000000e+01 0.0 
0.0 -1.962000000000e+01 0.0 
0.0 -1.962000000000e+01 0.0 
0.0 -1.962000000000e+01 0.0 
0.0 -1.962000000000e+01 0.0 
0.0 -1.962000000000e+01 0.0 
0.0 -1.962000000000e+01 0.0 
0.0 -1.962000000000e+01 0.0 
0.0 -1.962000000000e+01 0.0 
0.0 -1.962000000000e+01 0.0 
0.0 -1.962000000000e+01 0.0 
0.0 -1.962000000000e+01 0.0 
0.0 -1.962000000000e+01 0.0 
0.0 -1.962000000000e+01 0.0 
0.0 -1.962000000000e+01 0.0 
0.0 -1.962000000000e+01 0.0 
0.0 -1.962000000000e+01 0.0 
0.0 -1.962000000000e+01 0.0 
0.0 -1.962000000000e+01 0.0 
0.0 -1.962000000000e+01 0.0 
0.0 -1.962000000000e+01 0.0 
0.0 -1.962000000000e+01 0.0 
0.0 -1.962000000000e+01 0.0 
0.0 -1.962000000000e+01 0.0 
0.0 -1.962000000000e+01 0.0 
0.0 -1.962000000000e+01 0.0 
0.0 -1.962000000000e+01 0.0 
0.0 -1.962000000000e+01 0.0 
0.0 -1.962000000000e+01 0.0 
0.0 -1.962000000000e+01 0.0 
0.0 -1.962000000000e+01 0.0 
0.0 -1.962000000000e+01 0.0 
0.0 -1.962000000000e+01 0.0 
0.0 -1.962000000000e+01 0.0 
0.0 -1.962000000000e+01 0.0 
0.0 -1.962000000000e+01 0.0 
0.0 -1.962000000000e+01 0.0 
0.0 -1.962000000000e+01 0.0 
0.0 -1.962000000000e+01 0.0 
0.0 -1.962000000000e+01 0.0 
0.0 -1.962000000000e+01 0.0 
0.0 -1.962000000000e+01 0.0 
0.0 -1.962000000000e+01 0.0 
0.0 -1.962000000000e+01 0.0 
0.0 -1.962000000000e+01 0.0 
0.0 -1.962000000000e+01 0.0 
0.0 -1.962000000000e+01 0.0 
0.0 -1.962000000000e+01 0.0 
0.0 -1.962000000000e+01 0.0 
0.0 -1.962000000000e+01 0.0 
0.0 -1.962000000000e+01 0.0 
0.0 -1.962000000000e+01 0.0 
0.0 -1.962000000000e+01 0.0 
0.0 -1.962000000000e+01 0.0 
0.0 -1.962000000000e+01 0.0 
0.0 -1.962000000000e+01 0.0 
0.0 -1.962000000000e+01 0.0 
0.0 -1.962000000000e+01 0.0 
0.0 -1.962000000000e+01 0.0 
0.0 -1.962000000000e+01 0.0 
0.0 -1.962000000000e+01 0.0 
0.0 -1.962000000000e+01 0.0 
0.0 -1.962000000000e+01 0.0 
0.0 -1.962000000000e+01 0.0 
0.0 -1.962000000000e+01 0.0 
0.0 -1.962000000000e+01 0.0 
0.0 -1.962000000000e+01 0.0 
0.0 -1.962000000000e+01 0.0 
0.0 -1.962000000000e+01 0.0 
0.0 -1.962000000000e+01 0.0 
0.0 -1.962000000000e+01 0.0 
0.0 -1.962000000000e+01 0.0 
0.0 -1.962000000000e+01 0.0 
0.0 -1.962000000000e+01 0.0 
0.0 -1.962000000000e+01 0.0 
0.0 -1.962000000000e+01 0.0 
0.0 -1.962000000000e+01 0.0 
0.0 -1.962000000000e+01 0.0 
0.0 -1.962000000000e+01 0.0 
0.0 -1.962000000000e+01 0.0 
0.0 -1.962000000000e+01 0.0 
0.0 -1.962000000000e+01 0.0 
0.0 -1.962000000000e+01 0.0 
0.0 -1.962000000000e+01 0.0 
0.0 -1.962000000000e+01 0.0 
0.0 -1.962000000000e+01 0.0 
0.0 -1.962000000000e+01 0.0 
0.0 -1.962000000000e+01 0.0 
0.0 -1.962000000000e+01 0.0 
0.0 -1.962000000000e+01 0.0 
0.0 -1.962000000000e+01 0.0 
0.0 -1.962000000000e+01 0.0 
0.0 -1.962000000000e+01 0.0 
0.0 -1.962000000000e+01 0.0 
0.0 -1.962000000000e+01 0.0 
0.0 -1.962000000000e+01 0.0 
0.0 -1.962000000000e+01 0.0 
0.0 -1.962000000000e+01 0.0 
0.0 -1.962000000000e+01 0.0 
0.0 -1.962000000000e+01 0.0 
0.0 -1.962000000000e+01 0.0 
0.0 -1.962000000000e+01 0.0 
0.0 -1.962000000000e+01 0.0 
0.0 -1.962000000000e+01 0.0 
0.0 -1.962000000000e+01 0.0 
0.0 -1.962000000000e+01 0.0 
0.0 -1.962000000000e+01 0.0 
0.0 -1.962000000000e+01 0.0 
0.0 -1.962000000000e+01 0.0 
0.0 -1.962000000000e+01 0.0 
0.0 -1.962000000000e+01 0.0 
0.0 -1.962000000000e+01 0.0 
0.0 -1.962000000000e+01 0.0 
0.0 -1.962000000000e+01 0.0 
0.0 -1.962000000000e+01 0.0 
0.0 -1.962000000000e+01 0.0 
0.0 -1.962000000000e+01 0.0 
0.0 -1.962000000000e+01 0.0 
0.0 -1.962000000000e+01 0.0 
0.0 -1.962000000000e+01 0.0 
0.0 -1.962000000000e+01 0.0 
0.0 -1.962000000000e+01 0.0 
0.0 -1.962000000000e+01 0.0 
0.0 -1.962000000000e+01 0.0 
0.0 -1.962000000000e+01 0.0 
0.0 -1.962000000000e+01 0.0 
0.0 -1.962000000000e+01 0.0 
0.0 -1.962000000000e+01 0.0 
0.0 -1.962000000000e+01 0.0 
0.0 -1.962000000000e+01 0.0 
0.0 -1.962000000000e+01 0.0 
0.0 -1.962000000000e+01 0.0 
0.0 -1.962000000000e+01 0.0 
0.0 -1.962000000000e+01 0.0 
0.0 -1.962000000000e+01 0.0 
0.0 -1.962000000000e+01 0.0 
0.0 -1.962000000000e+01 0.0 
0.0 -1.962000000000e+01 0.0 
0.0 -1.962000000000e+01 0.0 
0.0 -1.962000000000e+01 0.0 
0.0 -1.962000000000e+01 0.0 
0.0 -1.962000000000e+01 0.0 
0.0 -1.962000000000e+01 0.0 
0.0 -1.962000000000e+01 0.0 
0.0 -1.962000000000e+01 0.0 
0.0 -1.962000000000e+01 0.0 
0.0 -1.962000000000e+01 0.0 
0.0 -1.962000000000e+01 0.0 
0.0 -1.962000000000e+01 0.0 
0.0 -1.962000000000e+01 0.0 
0.0 -1.962000000000e+01 0.0 
0.0 -1.962000000000e+01 0.0 
0.0 -1.962000000000e+01 0.0 
0.0 -1.962000000000e+01 0.0 
0.0 -1.962000000000e+01 0.0 
0.0 -1.962000000000e+01 0.0 
0.0 -1.962000000000e+01 0.0 
0.0 -1.962000000000e+01 0.0 
0.0 -1.962000000000e+01 0.0 
0.0 -1.962000000000e+01 0.0 
0.0 -1.962000000000e+01 0.0 
0.0 -1.962000000000e+01 0.0 
0.0 -1.962000000000e+01 0.0 
0.0 -1.962000000000e+01 0.0 
0.0 -1.962000000000e+01 0.0 
0.0 -1.962000000000e+01 0.0 
0.0 -1.962000000000e+01 0.0 
0.0 -1.962000000000e+01 0.0 
0.0 -1.962000000000e+01 0.0 
0.0 -1.962000000000e+01 0.0 
0.0 -1.962000000000e+01 0.0 
0.0 -1.962000000000e+01 0.0 
0.0 -1.962000000000e+01 0.0 
0.0 -1.962000000000e+01 0.0 
0.0 -1.962000000000e+01 0.0 
0.0 -1.962000000000e+01 0.0 
0.0 -1.962000000000e+01 0.0 
0.0 -1.962000000000e+01 0.0 
0.0 -1.962000000000e+01 0.0 
0.0 -1.962000000000e+01 0.0 
0.0 -1.962000000000e+01 0.0 
0.0 -1.962000000000e+01 0.0 
0.0 -1.962000000000e+01 0.0 
0.0 -1.962000000000e+01 0.0 
0.0 -1.962000000000e+01 0.0 
0.0 -1.962000000000e+01 0.0 
0.0 -1.962000000000e+01 0.0 
0.0 -1.962000000000e+01 0.0 
0.0 -1.962000000000e+01 0.0 
0.0 -1.962000000000e+01 0.0 
0.0 -1.962000000000e+01 0.0 
0.0 -1.962000000000e+01 0.0 
0.0 -1.962000000000e+01 0.0 
0.0 -1.962000000000e+01 0.0 
0.0 -1.962000000000e+01 0.0 
0.0 -1.962000000000e+01 0.0 
0.0 -1.962000000000e+01 0.0 
0.0 -1.962000000000e+01 0.0 
0.0 -1.962000000000e+01 0.0 
0.0 -1.962000000000e+01 0.0 
0.0 -1.962000000000e+01 0.0 
0.0 -1.962000000000e+01 0.0 
0.0 -1.962000000000e+01 0.0 
0.0 -1.962000000000e+01 0.0 
0.0 -1.962000000000e+01 0.0 
0.0 -1.962000000000e+01 0.0 
0.0 -1.962000000000e+01 0.0 
0.0 -1.962000000000e+01 0.0 
0.0 -1.962000000000e+01 0.0 
0.0 -1.962000000000e+01 0.0 
0.0 -1.962000000000e+01 0.0 
0.0 -1.962000000000e+01 0.0 
0.0 -1.962000000000e+01 0.0 
0.0 -1.962000000000e+01 0.0 
0.0 -1.962000000000e+01 0.0 
0.0 -1.962000000000e+01 0.0 
0.0 -1.962000000000e+01 0.0 
0.0 -1.962000000000e+01 0.0 
0.0 -1.962000000000e+01 0.0 
0.0 -1.962000000000e+01 0.0 
0.0 -1.962000000000e+01 0.0 
0.0 -1.962000000000e+01 0.0 
0.0 -1.962000000000e+01 0.0 
0.0 -1.962000000000e+01 0.0 
0.0 -1.962000000000e+01 0.0 
0.0 -1.962000000000e+01 0.0 
0.0 -1.962000000000e+01 0.0 
0.0 -1.962000000000e+01 0.0 
0.0 -1.962000000000e+01 0.0 
0.0 -1.962000000000e+01 0.0 
0.0 -1.962000000000e+01 0.0 
0.0 -1.962000000000e+01 0.0 
0.0 -1.962000000000e+01 0.0 
0.0 -1.962000000000e+01 0.0 
0.0 -1.962000000000e+01 0.0 
0.0 -1.962000000000e+01 0.0 
0.0 -1.962000000000e+01 0.0 
0.0 -1.962000000000e+01 0.0 
0.0 -1.962000000000e+01 0.0 
0.0 -1.962000000000e+01 0.0 
0.0 -1.962000000000e+01 0.0 
0.0 -1.962000000000e+01 0.0 
0.0 -1.962000000000e+01 0.0 
0.0 -1.962000000000e+01 0.0 
0.0 -1.962000000000e+01 0.0 
0.0 -1.962000000000e+01 0.0 
0.0 -1.962000000000e+01 0.0 
0.0 -1.962000000000e+01 0.0 
0.0 -1.962000000000e+01 0.0 
0.0 -1.962000000000e+01 0.0 
0.0 -1.962000000000e+01 0.0 
0.0 -1.962000000000e+01 0.0 
0.0 -1.962000000000e+01 0.0 
0.0 -1.962000000000e+01 0.0 
0.0 -1.962000000000e+01 0.0 
0.0 -1.962000000000e+01 0.0 
0.0 -1.962000000000e+01 0.0 
0.0 -1.962000000000e+01 0.0 
0.0 -1.962000000000e+01 0.0 
0.0 -1.962000000000e+01 0.0 
0.0 -1.962000000000e+01 0.0 
0.0 -1.962000000000e+01 0.0 
0.0 -1.962000000000e+01 0.0 
0.0 -1.962000000000e+01 0.0 
0.0 -1.962000000000e+01 0.0 
0.0 -1.962000000000e+01 0.0 
0.0 -1.962000000000e+01 0.0 
0.0 -1.962000000000e+01 0.0 
0.0 -1.962000000000e+01 0.0 
0.0 -1.962000000000e+01 0.0 
0.0 -1.962000000000e+01 0.0 
0.0 -1.962000000000e+01 0.0 
0.0 -1.962000000000e+01 0.0 
0.0 -1.962000000000e+01 0.0 
0.0 -1.962000000000e+01 0.0 
0.0 -1.962000000000e+01 0.0 
0.0 -1.962000000000e+01 0.0 
0.0 -1.962000000000e+01 0.0 
0.0 -1.962000000000e+01 0.0 
0.0 -1.962000000000e+01 0.0 
0.0 -1.962000000000e+01 0.0 
0.0 -1.962000000000e+01 0.0 
0.0 -1.962000000000e+01 0.0 
0.0 -1.962000000000e+01 0.0 
0.0 -1.962000000000e+01 0.0 
0.0 -1.962000000000e+01 0.0 
0.0 -1.962000000000e+01 0.0 
0.0 -1.962000000000e+01 0.0 
0.0 -1.962000000000e+01 0.0 
0.0 -1.962000000000e+01 0.0 
0.0 -1.962000000000e+01 0.0 
0.0 -1.962000000000e+01 0.0 
0.0 -1.962000000000e+01 0.0 
0.0 -1.962000000000e+01 0.0 
0.0 -1.962000000000e+01 0.0 
0.0 -1.962000000000e+01 0.0 
0.0 -1.962000000000e+01 0.0 
0.0 -1.962000000000e+01 0.0 
0.0 -1.962000000000e+01 0.0 
0.0 -1.962000000000e+01 0.0 
0.0 -1.962000000000e+01 0.0 
0.0 -1.962000000000e+01 0.0 
0.0 -1.962000000000e+01 0.0 
0.0 -1.962000000000e+01 0.0 
0.0 -1.962000000000e+01 0.0 
0.0 -1.962000000000e+01 0.0 
0.0 -1.962000000000e+01 0.0 
0.0 -1.962000000000e+01 0.0 
0.0 -1.962000000000e+01 0.0 
0.0 -1.962000000000e+01 0.0 
0.0 -1.962000000000e+01 0.0 
0.0 -1.962000000000e+01 0.0 
0.0 -1.962000000000e+01 0.0 
0.0 -1.962000000000e+01 0.0 
0.0 -1.962000000000e+01 0.0 
0.0 -1.962000000000e+01 0.0 
0.0 -1.962000000000e+01 0.0 
0.0 -1.962000000000e+01 0.0 
0.0 -1.962000000000e+01 0.0 
0.0 -1.962000000000e+01 0.0 
0.0 -1.962000000000e+01 0.0 
0.0 -1.962000000000e+01 0.0 
0.0 -1.962000000000e+01 0.0 
0.0 -1.962000000000e+01 0.0 
0.0 -1.962000000000e+01 0.0 
0.0 -1.962000000000e+01 0.0 
0.0 -1.962000000000e+01 0.0 
0.0 -1.962000000000e+01 0.0 
0.0 -1.962000000000e+01 0.0 
0.0 -1.962000000000e+01 0.0 
0.0 -1.962000000000e+01 0.0 
0.0 -1.962000000000e+01 0.0 
0.0 -1.962000000000e+01 0.0 
0.0 -1.962000000000e+01 0.0 
0.0 -1.962000000000e+01 0.0 
0.0 -1.962000000000e+01 0.0 
0.0 -1.962000000000e+01 0.0 
0.0 -1.962000000000e+01 0.0 
0.0 -1.962000000000e+01 0.0 
0.0 -1.962000000000e+01 0.0 
0.0 -1.962000000000e+01 0.0 
0.0 -1.962000000000e+01 0.0 
0.0 -1.962000000000e+01 0.0 
0.0 -1.962000000000e+01 0.0 
0.0 -1.962000000000e+01 0.0 
0.0 -1.962000000000e+01 0.0 
0.0 -1.962000000000e+01 0.0 
0.0 -1.962000000000e+01 0.0 
0.0 -1.962000000000e+01 0.0 
0.0 -1.962000000000e+01 0.0 
0.0 -1.962000000000e+01 0.0 
0.0 -1.962000000000e+01 0.0 
0.0 -1.962000000000e+01 0.0 
0.0 -1.962000000000e+01 0.0 
0.0 -1.962000000000e+01 0.0 
0.0 -1.962000000000e+01 0.0 
0.0 -1.962000000000e+01 0.0 
0.0 -1.962000000000e+01 0.0 
0.0 -1.962000000000e+01 0.0 
0.0 -1.962000000000e+01 0.0 
0.0 -1.962000000000e+01 0.0 
0.0 -1.962000000000e+01 0.0 
0.0 -1.962000000000e+01 0.0 
0.0 -1.962000000000e+01 0.0 
0.0 -1.962000000000e+01 0.0 
0.0 -1.962000000000e+01 0.0 
0.0 -1.962000000000e+01 0.0 
0.0 -1.962000000000e+01 0.0 
0.0 -1.962000000000e+01 0.0 
0.0 -1.962000000000e+01 0.0 
0.0 -1.962000000000e+01 0.0 
0.0 -1.962000000000e+01 0.0 
0.0 -1.962000000000e+01 0.0 
0.0 -1.962000000000e+01 0.0 
0.0 -1.962000000000e+01 0.0 
0.0 -1.962000000000e+01 0.0 
0.0 -1.962000000000e+01 0.0 
0.0 -1.962000000000e+01 0.0 
0.0 -1.962000000000e+01 0.0 
0.0 -1.962000000000e+01 0.0 
0.0 -1.962000000000e+01 0.0 
0.0 -1.962000000000e+01 0.0 
0.0 -1.962000000000e+01 0.0 
0.0 -1.962000000000e+01 0.0 
0.0 -1.962000000000e+01 0.0 
0.0 -1.962000000000e+01 0.0 
0.0 -1.962000000000e+01 0.0 
0.0 -1.962000000000e+01 0.0 
0.0 -1.962000000000e+01 0.0 
0.0 -1.962000000000e+01 0.0 
0.0 -1.962000000000e+01 0.0 
0.0 -1.962000000000e+01 0.0 
0.0 -1.962000000000e+01 0.0 
0.0 -1.962000000000e+01 0.0 
0.0 -1.962000000000e+01 0.0 
0.0 -1.962000000000e+01 0.0 
0.0 -1.962000000000e+01 0.0 
0.0 -1.962000000000e+01 0.0 
0.0 -1.962000000000e+01 0.0 
0.0 -1.962000000000e+01 0.0 
0.0 -1.962000000000e+01 0.0 
0.0 -1.962000000000e+01 0.0 
0.0 -1.962000000000e+01 0.0 
0.0 -1.962000000000e+01 0.0 
0.0 -1.962000000000e+01 0.0 
0.0 -1.962000000000e+01 0.0 
0.0 -1.962000000000e+01 0.0 
0.0 -1.962000000000e+01 0.0 
0.0 -1.962000000000e+01 0.0 
0.0 -1.962000000000e+01 0.0 
0.0 -1.962000000000e+01 0.0 
0.0 -1.962000000000e+01 0.0 
0.0 -1.962000000000e+01 0.0 
0.0 -1.962000000000e+01 0.0 
0.0 -1.962000000000e+01 0.0 
0.0 -1.962000000000e+01 0.0 
0.0 -1.962000000000e+01 0.0 
0.0 -1.962000000000e+01 0.0 
0.0 -1.962000000000e+01 0.0 
0.0 -1.962000000000e+01 0.0 
0.0 -1.962000000000e+01 0.0 
0.0 -1.962000000000e+01 0.0 
0.0 -1.962000000000e+01 0.0 
0.0 -1.962000000000e+01 0.0 
0.0 -1.962000000000e+01 0.0 
0.0 -1.962000000000e+01 0.0 
0.0 -1.962000000000e+01 0.0 
0.0 -1.962000000000e+01 0.0 
0.0 -1.962000000000e+01 0.0 
0.0 -1.962000000000e+01 0.0 
0.0 -1.962000000000e+01 0.0 
0.0 -1.962000000000e+01 0.0 
0.0 -1.962000000000e+01 0.0 
0.0 -1.962000000000e+01 0.0 
0.0 -1.962000000000e+01 0.0 
0.0 -1.962000000000e+01 0.0 
0.0 -1.962000000000e+01 0.0 
0.0 -1.962000000000e+01 0.0 
0.0 -1.962000000000e+01 0.0 
0.0 -1.962000000000e+01 0.0 
0.0 -1.962000000000e+01 0.0 
0.0 -1.962000000000e+01 0.0 
0.0 -1.962000000000e+01 0.0 
0.0 -1.962000000000e+01 0.0 
0.0 -1.962000000000e+01 0.0 
0.0 -1.962000000000e+01 0.0 
0.0 -1.962000000000e+01 0.0 
0.0 -1.962000000000e+01 0.0 
0.0 -1.962000000000e+01 0.0 
0.0 -1.962000000000e+01 0.0 
0.0 -1.962000000000e+01 0.0 
0.0 -1.962000000000e+01 0.0 
0.0 -1.962000000000e+01 0.0 
0.0 -1.962000000000e+01 0.0 
0.0 -1.962000000000e+01 0.0 
0.0 -1.962000000000e+01 0.0 
0.0 -1.962000000000e+01 0.0 
0.0 -1.962000000000e+01 0.0 
0.0 -1.962000000000e+01 0.0 
0.0 -1.962000000000e+01 0.0 
0.0 -1.962000000000e+01 0.0 
0.0 -1.962000000000e+01 0.0 
0.0 -1.962000000000e+01 0.0 
0.0 -1.962000000000e+01 0.0 
0.0 -1.962000000000e+01 0.0 
0.0 -1.962000000000e+01 0.0 
0.0 -1.962000000000e+01 0.0 
0.0 -1.962000000000e+01 0.0 
0.0 -1.962000000000e+01 0.0 
0.0 -1.962000000000e+01 0.0 
0.0 -1.962000000000e+01 0.0 
0.0 -1.962000000000e+01 0.0 
0.0 -1.962000000000e+01 0.0 
0.0 -1.962000000000e+01 0.0 
0.0 -1.962000000000e+01 0.0 
0.0 -1.962000000000e+01 0.0 
0.0 -1.962000000000e+01 0.0 
0.0 -1.962000000000e+01 0.0 
0.0 -1.962000000000e+01 0.0 
0.0 -1.962000000000e+01 0.0 
0.0 -1.962000000000e+01 0.0 
0.0 -1.962000000000e+01 0.0 
0.0 -1.962000000000e+01 0.0 
0.0 -1.962000000000e+01 0.0 
0.0 -1.962000000000e+01 0.0 
0.0 -1.962000000000e+01 0.0 
0.0 -1.962000000000e+01 0.0 
0.0 -1.962000000000e+01 0.0 
0.0 -1.962000000000e+01 0.0 
0.0 -1.962000000000e+01 0.0 
0.0 -1.962000000000e+01 0.0 
0.0 -1.962000000000e+01 0.0 
0.0 -1.962000000000e+01 0.0 
0.0 -1.962000000000e+01 0.0 
0.0 -1.962000000000e+01 0.0 
0.0 -1.962000000000e+01 0.0 
0.0 -1.962000000000e+01 0.0 
0.0 -1.962000000000e+01 0.0 
0.0 -1.962000000000e+01 0.0 
0.0 -1.962000000000e+01 0.0 
0.0 -1.962000000000e+01 0.0 
0.0 -1.962000000000e+01 0.0 
0.0 -1.962000000000e+01 0.0 
0.0 -1.962000000000e+01 0.0 
0.0 -1.962000000000e+01 0.0 
0.0 -1.962000000000e+01 0.0 
0.0 -1.962000000000e+01 0.0 
0.0 -1.962000000000e+01 0.0 
0.0 -1.962000000000e+01 0.0 
0.0 -1.962000000000e+01 0.0 
0.0 -1.962000000000e+01 0.0 
0.0 -1.962000000000e+01 0.0 
0.0 -1.962000000000e+01 0.0 
0.0 -1.962000000000e+01 0.0 
0.0 -1.962000000000e+01 0.0 
0.0 -1.962000000000e+01 0.0 
0.0 -1.962000000000e+01 0.0 
0.0 -1.962000000000e+01 0.0 
0.0 -1.962000000000e+01 0.0 
0.0 -1.962000000000e+01 0.0 
0.0 -1.962000000000e+01 0.0 
0.0 -1.962000000000e+01 0.0 
0.0 -1.962000000000e+01 0.0 
0.0 -1.962000000000e+01 0.0 
0.0 -1.962000000000e+01 0.0 
0.0 -1.962000000000e+01 0.0 
0.0 -1.962000000000e+01 0.0 
0.0 -1.962000000000e+01 0.0 
0.0 -1.962000000000e+01 0.0 
0.0 -1.962000000000e+01 0.0 
0.0 -1.962000000000e+01 0.0 
0.0 -1.962000000000e+01 0.0 
0.0 -1.962000000000e+01 0.0 
0.0 -1.962000000000e+01 0.0 
0.0 -1.962000000000e+01 0.0 
0.0 -1.962000000000e+01 0.0 
0.0 -1.962000000000e+01 0.0 
0.0 -1.962000000000e+01 0.0 
0.0 -1.962000000000e+01 0.0 
0.0 -1.962000000000e+01 0.0 
0.0 -1.962000000000e+01 0.0 
0.0 -1.962000000000e+01 0.0 
0.0 -1.962000000000e+01 0.0 
0.0 -1.962000000000e+01 0.0 
0.0 -1.962000000000e+01 0.0 
0.0 -1.962000000000e+01 0.0 
0.0 -1.962000000000e+01 0.0 
0.0 -1.962000000000e+01 0.0 
0.0 -1.962000000000e+01 0.0 
0.0 -1.962000000000e+01 0.0 
0.0 -1.962000000000e+01 0.0 
0.0 -1.962000000000e+01 0.0 
0.0 -1.962000000000e+01 0.0 
0.0 -1.962000000000e+01 0.0 
0.0 -1.962000000000e+01 0.0 
0.0 -1.962000000000e+01 0.0 
0.0 -1.962000000000e+01 0.0 
0.0 -1.962000000000e+01 0.0 
0.0 -1.962000000000e+01 0.0 
0.0 -1.962000000000e+01 0.0 
0.0 -1.962000000000e+01 0.0 
0.0 -1.962000000000e+01 0.0 
0.0 -1.962000000000e+01 0.0 
0.0 -1.962000000000e+01 0.0 
0.0 -1.962000000000e+01 0.0 
0.0 -1.962000000000e+01 0.0 
0.0 -1.962000000000e+01 0.0 
0.0 -1.962000000000e+01 0.0 
0.0 -1.962000000000e+01 0.0 
0.0 -1.962000000000e+01 0.0 
0.0 -1.962000000000e+01 0.0 
0.0 -1.962000000000e+01 0.0 
0.0 -1.962000000000e+01 0.0 
0.0 -1.962000000000e+01 0.0 
0.0 -1.962000000000e+01 0.0 
0.0 -1.962000000000e+01 0.0 
0.0 -1.962000000000e+01 0.0 
0.0 -1.962000000000e+01 0.0 
0.0 -1.962000000000e+01 0.0 
0.0 -1.962000000000e+01 0.0 
0.0 -1.962000000000e+01 0.0 
0.0 -1.962000000000e+01 0.0 
0.0 -1.962000000000e+01 0.0 
0.0 -1.962000000000e+01 0.0 
0.0 -1.962000000000e+01 0.0 
0.0 -1.962000000000e+01 0.0 
0.0 -1.962000000000e+01 0.0 
0.0 -1.962000000000e+01 0.0 
0.0 -1.962000000000e+01 0.0 
0.0 -1.962000000000e+01 0.0 
0.0 -1.962000000000e+01 0.0 
0.0 -1.962000000000e+01 0.0 
0.0 -1.962000000000e+01 0.0 
0.0 -1.962000000000e+01 0.0 
0.0 -1.962000000000e+01 0.0 
0.0 -1.962000000000e+01 0.0 
0.0 -1.962000000000e+01 0.0 
0.0 -1.962000000000e+01 0.0 
0.0 -1.962000000000e+01 0.0 
0.0 -1.962000000000e+01 0.0 
0.0 -1.962000000000e+01 0.0 
0.0 -1.962000000000e+01 0.0 
0.0 -1.962000000000e+01 0.0 
0.0 -1.962000000000e+01 0.0 
0.0 -1.962000000000e+01 0.0 
0.0 -1.962000000000e+01 0.0 
0.0 -1.962000000000e+01 0.0 
0.0 -1.962000000000e+01 0.0 
0.0 -1.962000000000e+01 0.0 
0.0 -1.962000000000e+01 0.0 
0.0 -1.962000000000e+01 0.0 
0.0 -1.962000000000e+01 0.0 
0.0 -1.962000000000e+01 0.0 
0.0 -1.962000000000e+01 0.0 
0.0 -1.962000000000e+01 0.0 
0.0 -1.962000000000e+01 0.0 
0.0 -1.962000000000e+01 0.0 
0.0 -1.962000000000e+01 0.0 
0.0 -1.962000000000e+01 0.0 
0.0 -1.962000000000e+01 0.0 
0.0 -1.962000000000e+01 0.0 
0.0 -1.962000000000e+01 0.0 
0.0 -1.962000000000e+01 0.0 
0.0 -1.962000000000e+01 0.0 
0.0 -1.962000000000e+01 0.0 
0.0 -1.962000000000e+01 0.0 
0.0 -1.962000000000e+01 0.0 
0.0 -1.962000000000e+01 0.0 
0.0 -1.962000000000e+01 0.0 
0.0 -1.962000000000e+01 0.0 
0.0 -1.962000000000e+01 0.0 
0.0 -1.962000000000e+01 0.0 
0.0 -1.962000000000e+01 0.0 
0.0 -1.962000000000e+01 0.0 
0.0 -1.962000000000e+01 0.0 
0.0 -1.962000000000e+01 0.0 
0.0 -1.962000000000e+01 0.0 
0.0 -1.962000000000e+01 0.0 
0.0 -1.962000000000e+01 0.0 
0.0 -1.962000000000e+01 0.0 
0.0 -1.962000000000e+01 0.0 
0.0 -1.962000000000e+01 0.0 
0.0 -1.962000000000e+01 0.0 
0.0 -1.962000000000e+01 0.0 
0.0 -1.962000000000e+01 0.0 
0.0 -1.962000000000e+01 0.0 
0.0 -1.962000000000e+01 0.0 
0.0 -1.962000000000e+01 0.0 
0.0 -1.962000000000e+01 0.0 
0.0 -1.962000000000e+01 0.0 
0.0 -1.962000000000e+01 0.0 
0.0 -1.962000000000e+01 0.0 
0.0 -1.962000000000e+01 0.0 
0.0 -1.962000000000e+01 0.0 
0.0 -1.962000000000e+01 0.0 
0.0 -1.962000000000e+01 0.0 
0.0 -1.962000000000e+01 0.0 
0.0 -1.962000000000e+01 0.0 
0.0 -1.962000000000e+01 0.0 
0.0 -1.962000000000e+01 0.0 
0.0 -1.962000000000e+01 0.0 
0.0 -1.962000000000e+01 0.0 
0.0 -1.962000000000e+01 0.0 
0.0 -1.962000000000e+01 0.0 
0.0 -1.962000000000e+01 0.0 
0.0 -1.962000000000e+01 0.0 
0.0 -1.962000000000e+01 0.0 
0.0 -1.962000000000e+01 0.0 
0.0 -1.962000000000e+01 0.0 
0.0 -1.962000000000e+01 0.0 
0.0 -1.962000000000e+01 0.0 
0.0 -1.962000000000e+01 0.0 
0.0 -1.962000000000e+01 0.0 
0.0 -1.962000000000e+01 0.0 
0.0 -1.962000000000e+01 0.0 
0.0 -1.962000000000e+01 0.0 
0.0 -1.962000000000e+01 0.0 
0.0 -1.962000000000e+01 0.0 
0.0 -1.962000000000e+01 0.0 
0.0 -1.962000000000e+01 0.0 
0.0 -1.962000000000e+01 0.0 
0.0 -1.962000000000e+01 0.0 
0.0 -1.962000000000e+01 0.0 
0.0 -1.962000000000e+01 0.0 
0.0 -1.962000000000e+01 0.0 
0.0 -1.962000000000e+01 0.0 
0.0 -1.962000000000e+01 0.0 
0.0 -1.962000000000e+01 0.0 
0.0 -1.962000000000e+01 0.0 
0.0 -1.962000000000e+01 0.0 
0.0 -1.962000000000e+01 0.0 
0.0 -1.962000000000e+01 0.0 
0.0 -1.962000000000e+01 0.0 
0.0 -1.962000000000e+01 0.0 
0.0 -1.962000000000e+01 0.0 
0.0 -1.962000000000e+01 0.0 
0.0 -1.962000000000e+01 0.0 
0.0 -1.962000000000e+01 0.0 
0.0 -1.962000000000e+01 0.0 
0.0 -1.962000000000e+01 0.0 
0.0 -1.962000000000e+01 0.0 
0.0 -1.962000000000e+01 0.0 
0.0 -1.962000000000e+01 0.0 
0.0 -1.962000000000e+01 0.0 
0.0 -1.962000000000e+01 0.0 
0.0 -1.962000000000e+01 0.0 
0.0 -1.962000000000e+01 0.0 
0.0 -1.962000000000e+01 0.0 
0.0 -1.962000000000e+01 0.0 
0.0 -1.962000000000e+01 0.0 
0.0 -1.962000000000e+01 0.0 
0.0 -1.962000000000e+01 0.0 
0.0 -1.962000000000e+01 0.0 
0.0 -1.962000000000e+01 0.0 
0.0 -1.962000000000e+01 0.0 
0.0 -1.962000000000e+01 0.0 
0.0 -1.962000000000e+01 0.0 
0.0 -1.962000000000e+01 0.0 
0.0 -1.962000000000e+01 0.0 
0.0 -1.962000000000e+01 0.0 
0.0 -1.962000000000e+01 0.0 
0.0 -1.962000000000e+01 0.0 
0.0 -1.962000000000e+01 0.0 
0.0 -1.962000000000e+01 0.0 
0.0 -1.962000000000e+01 0.0 
0.0 -1.962000000000e+01 0.0 
0.0 -1.962000000000e+01 0.0 
0.0 -1.962000000000e+01 0.0 
0.0 -1.962000000000e+01 0.0 
0.0 -1.962000000000e+01 0.0 
0.0 -1.962000000000e+01 0.0 
0.0 -1.962000000000e+01 0.0 
0.0 -1.962000000000e+01 0.0 
0.0 -1.962000000000e+01 0.0 
0.0 -1.962000000000e+01 0.0 
0.0 -1.962000000000e+01 0.0 
0.0 -1.962000000000e+01 0.0 
0.0 -1.962000000000e+01 0.0 
0.0 -1.962000000000e+01 0.0 
0.0 -1.962000000000e+01 0.0 
0.0 -1.962000000000e+01 0.0 
0.0 -1.962000000000e+01 0.0 
0.0 -1.962000000000e+01 0.0 
0.0 -1.962000000000e+01 0.0 
0.0 -1.962000000000e+01 0.0 
0.0 -1.962000000000e+01 0.0 
0.0 -1.962000000000e+01 0.0 
0.0 -1.962000000000e+01 0.0 
0.0 -1.962000000000e+01 0.0 
0.0 -1.962000000000e+01 0.0 
0.0 -1.962000000000e+01 0.0 
0.0 -1.962000000000e+01 0.0 
0.0 -1.962000000000e+01 0.0 
0.0 -1.962000000000e+01 0.0 
0.0 -1.962000000000e+01 0.0 
0.0 -1.962000000000e+01 0.0 
0.0 -1.962000000000e+01 0.0 
0.0 -1.962000000000e+01 0.0 
0.0 -1.962000000000e+01 0.0 
0.0 -1.962000000000e+01 0.0 
0.0 -1.962000000000e+01 0.0 
0.0 -1.962000000000e+01 0.0 
0.0 -1.962000000000e+01 0.0 
0.0 -1.962000000000e+01 0.0 
0.0 -1.962000000000e+01 0.0 
0.0 -1.962000000000e+01 0.0 
0.0 -1.962000000000e+01 0.0 
0.0 -1.962000000000e+01 0.0 
0.0 -1.962000000000e+01 0.0 
0.0 -1.962000000000e+01 0.0 
0.0 -1.962000000000e+01 0.0 
0.0 -1.962000000000e+01 0.0 
0.0 -1.962000000000e+01 0.0 
0.0 -1.962000000000e+01 0.0 
0.0 -1.962000000000e+01 0.0 
0.0 -1.962000000000e+01 0.0 
0.0 -1.962000000000e+01 0.0 
0.0 -1.962000000000e+01 0.0 
0.0 -1.962000000000e+01 0.0 
0.0 -1.962000000000e+01 0.0 
0.0 -1.962000000000e+01 0.0 
0.0 -1.962000000000e+01 0.0 
0.0 -1.962000000000e+01 0.0 
0.0 -1.962000000000e+01 0.0 
0.0 -1.962000000000e+01 0.0 
0.0 -1.962000000000e+01 0.0 
0.0 -1.962000000000e+01 0.0 
0.0 -1.962000000000e+01 0.0 
0.0 -1.962000000000e+01 0.0 
0.0 -1.962000000000e+01 0.0 
0.0 -1.962000000000e+01 0.0 
0.0 -1.962000000000e+01 0.0 
0.0 -1.962000000000e+01 0.0 
0.0 -1.962000000000e+01 0.0 
0.0 -1.962000000000e+01 0.0 
0.0 -1.962000000000e+01 0.0 
0.0 -1.962000000000e+01 0.0 
0.0 -1.962000000000e+01 0.0 
0.0 -1.962000000000e+01 0.0 
0.0 -1.962000000000e+01 0.0 
0.0 -1.962000000000e+01 0.0 
0.0 -1.962000000000e+01 0.0 
0.0 -1.962000000000e+01 0.0 
0.0 -1.962000000000e+01 0.0 
0.0 -1.962000000000e+01 0.0 
0.0 -1.962000000000e+01 0.0 
0.0 -1.962000000000e+01 0.0 
0.0 -1.962000000000e+01 0.0 
0.0 -1.962000000000e+01 0.0 
0.0 -1.962000000000e+01 0.0 
0.0 -1.962000000000e+01 0.0 
0.0 -1.962000000000e+01 0.0 
0.0 -1.962000000000e+01 0.0 
0.0 -1.962000000000e+01 0.0 
0.0 -1.962000000000e+01 0.0 
0.0 -1.962000000000e+01 0.0 
0.0 -1.962000000000e+01 0.0 
0.0 -1.962000000000e+01 0.0 
0.0 -1.962000000000e+01 0.0 
0.0 -1.962000000000e+01 0.0 
0.0 -1.962000000000e+01 0.0 
0.0 -1.962000000000e+01 0.0 
0.0 -1.962000000000e+01 0.0 
0.0 -1.962000000000e+01 0.0 
0.0 -1.962000000000e+01 0.0 
0.0 -1.962000000000e+01 0.0 
0.0 -1.962000000000e+01 0.0 
0.0 -1.962000000000e+01 0.0 
0.0 -1.962000000000e+01 0.0 
0.0 -1.962000000000e+01 0.0 
0.0 -1.962000000000e+01 0.0 
0.0 -1.962000000000e+01 0.0 
0.0 -1.962000000000e+01 0.0 
0.0 -1.962000000000e+01 0.0 
0.0 -1.962000000000e+01 0.0 
0.0 -1.962000000000e+01 0.0 
0.0 -1.962000000000e+01 0.0 
0.0 -1.962000000000e+01 0.0 
0.0 -1.962000000000e+01 0.0 
0.0 -1.962000000000e+01 0.0 
0.0 -1.962000000000e+01 0.0 
0.0 -1.962000000000e+01 0.0 
0.0 -1.962000000000e+01 0.0 
0.0 -1.962000000000e+01 0.0 
0.0 -1.962000000000e+01 0.0 
0.0 -1.962000000000e+01 0.0 
0.0 -1.962000000000e+01 0.0 
0.0 -1.962000000000e+01 0.0 
0.0 -1.962000000000e+01 0.0 
0.0 -1.962000000000e+01 0.0 
0.0 -1.962000000000e+01 0.0 
0.0 -1.962000000000e+01 0.0 
0.0 -1.962000000000e+01 0.0 
0.0 -1.962000000000e+01 0.0 
0.0 -1.962000000000e+01 0.0 
0.0 -1.962000000000e+01 0.0 
0.0 -1.962000000000e+01 0.0 
0.0 -1.962000000000e+01 0.0 
0.0 -1.962000000000e+01 0.0 
0.0 -1.962000000000e+01 0.0 
0.0 -1.962000000000e+01 0.0 
0.0 -1.962000000000e+01 0.0 
0.0 -1.962000000000e+01 0.0 
0.0 -1.962000000000e+01 0.0 
0.0 -1.962000000000e+01 0.0 
0.0 -1.962000000000e+01 0.0 
0.0 -1.962000000000e+01 0.0 
0.0 -1.962000000000e+01 0.0 
0.0 -1.962000000000e+01 0.0 
0.0 -1.962000000000e+01 0.0 
0.0 -1.962000000000e+01 0.0 
0.0 -1.962000000000e+01 0.0 
0.0 -1.962000000000e+01 0.0 

VECTORS node_rhside_materi_fixed float
-1.560876107827e+00 0.0 0.0 
8.336118011426e+01 0.0 0.0 
-8.233286888168e+01 -1.964161129250e+02 0.0 
8.234984036310e+01 -1.964439021524e+02 0.0 
-7.892827535268e+00 0.0 0.0 
-1.664132242436e+01 0.0 0.0 
-2.410555556432e+01 0.0 0.0 
-3.326120703991e+01 0.0 0.0 
-4.146034587975e+01 0.0 0.0 
-4.990552728872e+01 0.0 0.0 
-5.833753542942e+01 0.0 0.0 
-6.673204751796e+01 0.0 0.0 
-7.508504222066e+01 0.0 0.0 
-8.334045494222e+01 0.0 0.0 
-9.201229944295e+01 0.0 0.0 
-1.005654648940e+02 0.0 0.0 
-1.085943586962e+02 0.0 0.0 
-1.171826644917e+02 0.0 0.0 
-1.256052039103e+02 0.0 0.0 
-1.340125342765e+02 0.0 0.0 
-1.424134986597e+02 0.0 0.0 
-1.507752122898e+02 0.0 0.0 
-1.596587308297e+02 0.0 0.0 
-1.039185460833e-01 -3.918975556078e+02 0.0 
-2.991712261200e-01 -3.928836966480e+02 0.0 
6.563830796794e-01 -3.921381894381e+02 0.0 
-5.141861604110e-01 -3.922247380346e+02 0.0 
1.594399775258e-01 -3.926968551422e+02 0.0 
1.233818552058e-01 -3.921216972782e+02 0.0 
-9.226262443065e-02 -3.924455890459e+02 0.0 
-9.198324658797e-03 -3.927387500949e+02 0.0 
5.067601420440e-01 -3.920972914154e+02 0.0 
-4.589412073626e-01 -3.922515883785e+02 0.0 
1.061916721726e-01 -3.927497543566e+02 0.0 
1.684233273238e-01 -3.921396990837e+02 0.0 
-3.165514383600e-02 -3.925597848983e+02 0.0 
-9.210035381042e-02 -3.923444739636e+02 0.0 
-5.364407044119e-04 -3.922175074106e+02 0.0 
-2.861390686795e-01 -3.925528982640e+02 0.0 
1.586461621393e-01 -3.924609904968e+02 0.0 
1.131943615356e-01 -3.925081418998e+02 0.0 
8.817897516602e-02 -3.924390143715e+02 0.0 
1.020886090029e-01 -3.922063355238e+02 0.0 
-1.926001325830e-01 -3.923132960251e+02 0.0 
4.767117227451e-02 -3.925148492876e+02 0.0 
-6.734326136947e-02 -3.923647066244e+02 0.0 
2.614997164891e-02 -3.923264350315e+02 0.0 
6.580696548478e-02 -3.925873611946e+02 0.0 
5.119255851085e-02 -3.923786405375e+02 0.0 
5.448822261573e-02 -3.922211799017e+02 0.0 
3.263961774380e-03 -3.923572657724e+02 0.0 
-2.993221228233e-02 -3.926131756433e+02 0.0 
4.570940218327e-01 -3.923538344267e+02 0.0 
-4.593739521023e-01 -3.920502218122e+02 0.0 
-1.237147198240e-01 -3.927957919415e+02 0.0 
4.204817221257e-02 -3.922803426891e+02 0.0 
1.308998471248e-01 -3.925062239193e+02 0.0 
-4.377453433635e-02 -3.924433672223e+02 0.0 
1.174910651464e-01 -3.922338012551e+02 0.0 
-2.750268486915e-02 -3.925143996100e+02 0.0 
-8.607419965291e-02 -3.923121809852e+02 0.0 
-2.048066354243e-02 -3.923485134952e+02 0.0 
-1.367712752460e-01 -3.927299376025e+02 0.0 
3.336850952688e-01 -3.923630443508e+02 0.0 
2.842603047729e-02 -3.923413374696e+02 0.0 
8.783262815323e-02 -3.920908498252e+02 0.0 
-1.786661273841e-02 -3.928629605566e+02 0.0 
-1.856729360608e-01 -3.920677118098e+02 0.0 
-1.980007667109e-01 -3.927855137520e+02 0.0 
5.302435312742e-01 -3.920920092326e+02 0.0 
-1.939199532721e-01 -3.923991244981e+02 0.0 
6.888288441698e-02 -3.922173570984e+02 0.0 
9.145730337973e+01 0.0 0.0 
1.002879245964e+02 0.0 0.0 
1.086879163609e+02 0.0 0.0 
1.169870800257e+02 0.0 0.0 
1.253938845295e+02 0.0 0.0 
1.341276976764e+02 0.0 0.0 
1.424670556403e+02 0.0 0.0 
1.505394772197e+02 0.0 0.0 
1.597392395655e+02 0.0 0.0 
0.0 0.0 0.0 
1.565659627331e+00 0.0 0.0 
0.0 0.0 0.0 
0.0 0.0 0.0 
0.0 0.0 0.0 
0.0 0.0 0.0 
0.0 0.0 0.0 
0.0 0.0 0.0 
0.0 0.0 0.0 
0.0 0.0 0.0 
0.0 0.0 0.0 
0.0 0.0 0.0 
8.400883341862e+00 0.0 0.0 
1.645387837811e+01 0.0 0.0 
2.471273523917e+01 0.0 0.0 
3.305532752876e+01 0.0 0.0 
4.145017058409e+01 0.0 0.0 
4.985057654581e+01 0.0 0.0 
5.825439452592e+01 0.0 0.0 
6.667926983136e+01 0.0 0.0 
7.509735595981e+01 0.0 0.0 
0.0 0.0 0.0 
0.0 0.0 0.0 
0.0 0.0 0.0 
0.0 0.0 0.0 
0.0 0.0 0.0 
0.0 0.0 0.0 
0.0 0.0 0.0 
0.0 0.0 0.0 
0.0 0.0 0.0 
0.0 0.0 0.0 
0.0 0.0 0.0 
0.0 0.0 0.0 
0.0 0.0 0.0 
0.0 0.0 0.0 
0.0 0.0 0.0 
0.0 0.0 0.0 
0.0 0.0 0.0 
0.0 0.0 0.0 
0.0 0.0 0.0 
0.0 0.0 0.0 
0.0 0.0 0.0 
0.0 0.0 0.0 
0.0 0.0 0.0 
0.0 0.0 0.0 
0.0 0.0 0.0 
0.0 0.0 0.0 
0.0 0.0 0.0 
0.0 0.0 0.0 
0.0 0.0 0.0 
0.0 0.0 0.0 
0.0 0.0 0.0 
0.0 0.0 0.0 
0.0 0.0 0.0 
0.0 0.0 0.0 
0.0 0.0 0.0 
0.0 0.0 0.0 
0.0 0.0 0.0 
0.0 0.0 0.0 
0.0 0.0 0.0 
0.0 0.0 0.0 
0.0 0.0 0.0 
0.0 0.0 0.0 
0.0 0.0 0.0 
0.0 0.0 0.0 
0.0 0.0 0.0 
0.0 0.0 0.0 
0.0 0.0 0.0 
0.0 0.0 0.0 
0.0 0.0 0.0 
0.0 0.0 0.0 
0.0 0.0 0.0 
0.0 0.0 0.0 
0.0 0.0 0.0 
0.0 0.0 0.0 
0.0 0.0 0.0 
0.0 0.0 0.0 
0.0 0.0 0.0 
0.0 0.0 0.0 
0.0 0.0 0.0 
0.0 0.0 0.0 
0.0 0.0 0.0 
0.0 0.0 0.0 
0.0 0.0 0.0 
0.0 0.0 0.0 
0.0 0.0 0.0 
0.0 0.0 0.0 
0.0 0.0 0.0 
0.0 0.0 0.0 
0.0 0.0 0.0 
0.0 0.0 0.0 
0.0 0.0 0.0 
0.0 0.0 0.0 
0.0 0.0 0.0 
0.0 0.0 0.0 
0.0 0.0 0.0 
0.0 0.0 0.0 
0.0 0.0 0.0 
0.0 0.0 0.0 
0.0 0.0 0.0 
0.0 0.0 0.0 
0.0 0.0 0.0 
0.0 0.0 0.0 
0.0 0.0 0.0 
0.0 0.0 0.0 
0.0 0.0 0.0 
0.0 0.0 0.0 
0.0 0.0 0.0 
0.0 0.0 0.0 
0.0 0.0 0.0 
0.0 0.0 0.0 
0.0 0.0 0.0 
0.0 0.0 0.0 
0.0 0.0 0.0 
0.0 0.0 0.0 
0.0 0.0 0.0 
0.0 0.0 0.0 
0.0 0.0 0.0 
0.0 0.0 0.0 
0.0 0.0 0.0 
0.0 0.0 0.0 
0.0 0.0 0.0 
0.0 0.0 0.0 
0.0 0.0 0.0 
0.0 0.0 0.0 
0.0 0.0 0.0 
0.0 0.0 0.0 
0.0 0.0 0.0 
0.0 0.0 0.0 
0.0 0.0 0.0 
0.0 0.0 0.0 
0.0 0.0 0.0 
0.0 0.0 0.0 
0.0 0.0 0.0 
0.0 0.0 0.0 
0.0 0.0 0.0 
0.0 0.0 0.0 
0.0 0.0 0.0 
0.0 0.0 0.0 
0.0 0.0 0.0 
0.0 0.0 0.0 
0.0 0.0 0.0 
0.0 0.0 0.0 
0.0 0.0 0.0 
0.0 0.0 0.0 
0.0 0.0 0.0 
0.0 0.0 0.0 
0.0 0.0 0.0 
0.0 0.0 0.0 
0.0 0.0 0.0 
0.0 0.0 0.0 
0.0 0.0 0.0 
0.0 0.0 0.0 
0.0 0.0 0.0 
0.0 0.0 0.0 
0.0 0.0 0.0 
0.0 0.0 0.0 
0.0 0.0 0.0 
0.0 0.0 0.0 
0.0 0.0 0.0 
0.0 0.0 0.0 
0.0 0.0 0.0 
0.0 0.0 0.0 
0.0 0.0 0.0 
0.0 0.0 0.0 
0.0 0.0 0.0 
0.0 0.0 0.0 
0.0 0.0 0.0 
0.0 0.0 0.0 
0.0 0.0 0.0 
0.0 0.0 0.0 
0.0 0.0 0.0 
0.0 0.0 0.0 
0.0 0.0 0.0 
0.0 0.0 0.0 
0.0 0.0 0.0 
0.0 0.0 0.0 
0.0 0.0 0.0 
0.0 0.0 0.0 
0.0 0.0 0.0 
0.0 0.0 0.0 
0.0 0.0 0.0 
0.0 0.0 0.0 
0.0 0.0 0.0 
0.0 0.0 0.0 
0.0 0.0 0.0 
0.0 0.0 0.0 
0.0 0.0 0.0 
0.0 0.0 0.0 
0.0 0.0 0.0 
0.0 0.0 0.0 
0.0 0.0 0.0 
0.0 0.0 0.0 
0.0 0.0 0.0 
0.0 0.0 0.0 
0.0 0.0 0.0 
0.0 0.0 0.0 
0.0 0.0 0.0 
0.0 0.0 0.0 
0.0 0.0 0.0 
0.0 0.0 0.0 
0.0 0.0 0.0 
0.0 0.0 0.0 
0.0 0.0 0.0 
0.0 0.0 0.0 
0.0 0.0 0.0 
0.0 0.0 0.0 
0.0 0.0 0.0 
0.0 0.0 0.0 
0.0 0.0 0.0 
0.0 0.0 0.0 
0.0 0.0 0.0 
0.0 0.0 0.0 
0.0 0.0 0.0 
0.0 0.0 0.0 
0.0 0.0 0.0 
0.0 0.0 0.0 
0.0 0.0 0.0 
0.0 0.0 0.0 
0.0 0.0 0.0 
0.0 0.0 0.0 
0.0 0.0 0.0 
0.0 0.0 0.0 
0.0 0.0 0.0 
0.0 0.0 0.0 
0.0 0.0 0.0 
0.0 0.0 0.0 
0.0 0.0 0.0 
0.0 0.0 0.0 
0.0 0.0 0.0 
0.0 0.0 0.0 
0.0 0.0 0.0 
0.0 0.0 0.0 
0.0 0.0 0.0 
0.0 0.0 0.0 
0.0 0.0 0.0 
0.0 0.0 0.0 
0.0 0.0 0.0 
0.0 0.0 0.0 
0.0 0.0 0.0 
0.0 0.0 0.0 
0.0 0.0 0.0 
0.0 0.0 0.0 
0.0 0.0 0.0 
0.0 0.0 0.0 
0.0 0.0 0.0 
0.0 0.0 0.0 
0.0 0.0 0.0 
0.0 0.0 0.0 
0.0 0.0 0.0 
0.0 0.0 0.0 
0.0 0.0 0.0 
0.0 0.0 0.0 
0.0 0.0 0.0 
0.0 0.0 0.0 
0.0 0.0 0.0 
0.0 0.0 0.0 
0.0 0.0 0.0 
0.0 0.0 0.0 
0.0 0.0 0.0 
0.0 0.0 0.0 
0.0 0.0 0.0 
0.0 0.0 0.0 
0.0 0.0 0.0 
0.0 0.0 0.0 
0.0 0.0 0.0 
0.0 0.0 0.0 
0.0 0.0 0.0 
0.0 0.0 0.0 
0.0 0.0 0.0 
0.0 0.0 0.0 
0.0 0.0 0.0 
0.0 0.0 0.0 
0.0 0.0 0.0 
0.0 0.0 0.0 
0.0 0.0 0.0 
0.0 0.0 0.0 
0.0 0.0 0.0 
0.0 0.0 0.0 
0.0 0.0 0.0 
0.0 0.0 0.0 
0.0 0.0 0.0 
0.0 0.0 0.0 
0.0 0.0 0.0 
0.0 0.0 0.0 
0.0 0.0 0.0 
0.0 0.0 0.0 
0.0 0.0 0.0 
0.0 0.0 0.0 
0.0 0.0 0.0 
0.0 0.0 0.0 
0.0 0.0 0.0 
0.0 0.0 0.0 
0.0 0.0 0.0 
0.0 0.0 0.0 
0.0 0.0 0.0 
0.0 0.0 0.0 
0.0 0.0 0.0 
0.0 0.0 0.0 
0.0 0.0 0.0 
0.0 0.0 0.0 
0.0 0.0 0.0 
0.0 0.0 0.0 
0.0 0.0 0.0 
0.0 0.0 0.0 
0.0 0.0 0.0 
0.0 0.0 0.0 
0.0 0.0 0.0 
0.0 0.0 0.0 
0.0 0.0 0.0 
0.0 0.0 0.0 
0.0 0.0 0.0 
0.0 0.0 0.0 
0.0 0.0 0.0 
0.0 0.0 0.0 
0.0 0.0 0.0 
0.0 0.0 0.0 
0.0 0.0 0.0 
0.0 0.0 0.0 
0.0 0.0 0.0 
0.0 0.0 0.0 
0.0 0.0 0.0 
0.0 0.0 0.0 
0.0 0.0 0.0 
0.0 0.0 0.0 
0.0 0.0 0.0 
0.0 0.0 0.0 
0.0 0.0 0.0 
0.0 0.0 0.0 
0.0 0.0 0.0 
0.0 0.0 0.0 
0.0 0.0 0.0 
0.0 0.0 0.0 
0.0 0.0 0.0 
0.0 0.0 0.0 
0.0 0.0 0.0 
0.0 0.0 0.0 
0.0 0.0 0.0 
0.0 0.0 0.0 
0.0 0.0 0.0 
0.0 0.0 0.0 
0.0 0.0 0.0 
0.0 0.0 0.0 
0.0 0.0 0.0 
0.0 0.0 0.0 
0.0 0.0 0.0 
0.0 0.0 0.0 
0.0 0.0 0.0 
0.0 0.0 0.0 
0.0 0.0 0.0 
0.0 0.0 0.0 
0.0 0.0 0.0 
0.0 0.0 0.0 
0.0 0.0 0.0 
0.0 0.0 0.0 
0.0 0.0 0.0 
0.0 0.0 0.0 
0.0 0.0 0.0 
0.0 0.0 0.0 
0.0 0.0 0.0 
0.0 0.0 0.0 
0.0 0.0 0.0 
0.0 0.0 0.0 
0.0 0.0 0.0 
0.0 0.0 0.0 
0.0 0.0 0.0 
0.0 0.0 0.0 
0.0 0.0 0.0 
0.0 0.0 0.0 
0.0 0.0 0.0 
0.0 0.0 0.0 
0.0 0.0 0.0 
0.0 0.0 0.0 
0.0 0.0 0.0 
0.0 0.0 0.0 
0.0 0.0 0.0 
0.0 0.0 0.0 
0.0 0.0 0.0 
0.0 0.0 0.0 
0.0 0.0 0.0 
0.0 0.0 0.0 
0.0 0.0 0.0 
0.0 0.0 0.0 
0.0 0.0 0.0 
0.0 0.0 0.0 
0.0 0.0 0.0 
0.0 0.0 0.0 
0.0 0.0 0.0 
0.0 0.0 0.0 
0.0 0.0 0.0 
0.0 0.0 0.0 
0.0 0.0 0.0 
0.0 0.0 0.0 
0.0 0.0 0.0 
0.0 0.0 0.0 
0.0 0.0 0.0 
0.0 0.0 0.0 
0.0 0.0 0.0 
0.0 0.0 0.0 
0.0 0.0 0.0 
0.0 0.0 0.0 
0.0 0.0 0.0 
0.0 0.0 0.0 
0.0 0.0 0.0 
0.0 0.0 0.0 
0.0 0.0 0.0 
0.0 0.0 0.0 
0.0 0.0 0.0 
0.0 0.0 0.0 
0.0 0.0 0.0 
0.0 0.0 0.0 
0.0 0.0 0.0 
0.0 0.0 0.0 
0.0 0.0 0.0 
0.0 0.0 0.0 
0.0 0.0 0.0 
0.0 0.0 0.0 
0.0 0.0 0.0 
0.0 0.0 0.0 
0.0 0.0 0.0 
0.0 0.0 0.0 
0.0 0.0 0.0 
0.0 0.0 0.0 
0.0 0.0 0.0 
0.0 0.0 0.0 
0.0 0.0 0.0 
0.0 0.0 0.0 
0.0 0.0 0.0 
0.0 0.0 0.0 
0.0 0.0 0.0 
0.0 0.0 0.0 
0.0 0.0 0.0 
0.0 0.0 0.0 
0.0 0.0 0.0 
0.0 0.0 0.0 
0.0 0.0 0.0 
0.0 0.0 0.0 
0.0 0.0 0.0 
0.0 0.0 0.0 
0.0 0.0 0.0 
0.0 0.0 0.0 
0.0 0.0 0.0 
0.0 0.0 0.0 
0.0 0.0 0.0 
0.0 0.0 0.0 
0.0 0.0 0.0 
0.0 0.0 0.0 
0.0 0.0 0.0 
0.0 0.0 0.0 
0.0 0.0 0.0 
0.0 0.0 0.0 
0.0 0.0 0.0 
0.0 0.0 0.0 
0.0 0.0 0.0 
0.0 0.0 0.0 
0.0 0.0 0.0 
0.0 0.0 0.0 
0.0 0.0 0.0 
0.0 0.0 0.0 
0.0 0.0 0.0 
0.0 0.0 0.0 
0.0 0.0 0.0 
0.0 0.0 0.0 
0.0 0.0 0.0 
0.0 0.0 0.0 
0.0 0.0 0.0 
0.0 0.0 0.0 
0.0 0.0 0.0 
0.0 0.0 0.0 
0.0 0.0 0.0 
0.0 0.0 0.0 
0.0 0.0 0.0 
0.0 0.0 0.0 
0.0 0.0 0.0 
0.0 0.0 0.0 
0.0 0.0 0.0 
0.0 0.0 0.0 
0.0 0.0 0.0 
0.0 0.0 0.0 
0.0 0.0 0.0 
0.0 0.0 0.0 
0.0 0.0 0.0 
0.0 0.0 0.0 
0.0 0.0 0.0 
0.0 0.0 0.0 
0.0 0.0 0.0 
0.0 0.0 0.0 
0.0 0.0 0.0 
0.0 0.0 0.0 
0.0 0.0 0.0 
0.0 0.0 0.0 
0.0 0.0 0.0 
0.0 0.0 0.0 
0.0 0.0 0.0 
0.0 0.0 0.0 
0.0 0.0 0.0 
0.0 0.0 0.0 
0.0 0.0 0.0 
0.0 0.0 0.0 
0.0 0.0 0.0 
0.0 0.0 0.0 
0.0 0.0 0.0 
0.0 0.0 0.0 
0.0 0.0 0.0 
0.0 0.0 0.0 
0.0 0.0 0.0 
0.0 0.0 0.0 
0.0 0.0 0.0 
0.0 0.0 0.0 
0.0 0.0 0.0 
0.0 0.0 0.0 
0.0 0.0 0.0 
0.0 0.0 0.0 
0.0 0.0 0.0 
0.0 0.0 0.0 
0.0 0.0 0.0 
0.0 0.0 0.0 
0.0 0.0 0.0 
0.0 0.0 0.0 
0.0 0.0 0.0 
0.0 0.0 0.0 
0.0 0.0 0.0 
0.0 0.0 0.0 
0.0 0.0 0.0 
0.0 0.0 0.0 
0.0 0.0 0.0 
0.0 0.0 0.0 
0.0 0.0 0.0 
0.0 0.0 0.0 
0.0 0.0 0.0 
0.0 0.0 0.0 
0.0 0.0 0.0 
0.0 0.0 0.0 
0.0 0.0 0.0 
0.0 0.0 0.0 
0.0 0.0 0.0 
0.0 0.0 0.0 
0.0 0.0 0.0 
0.0 0.0 0.0 
0.0 0.0 0.0 
0.0 0.0 0.0 
0.0 0.0 0.0 
0.0 0.0 0.0 
0.0 0.0 0.0 
0.0 0.0 0.0 
0.0 0.0 0.0 
0.0 0.0 0.0 
0.0 0.0 0.0 
0.0 0.0 0.0 
0.0 0.0 0.0 
0.0 0.0 0.0 
0.0 0.0 0.0 
0.0 0.0 0.0 
0.0 0.0 0.0 
0.0 0.0 0.0 
0.0 0.0 0.0 
0.0 0.0 0.0 
0.0 0.0 0.0 
0.0 0.0 0.0 
0.0 0.0 0.0 
0.0 0.0 0.0 
0.0 0.0 0.0 
0.0 0.0 0.0 
0.0 0.0 0.0 
0.0 0.0 0.0 
0.0 0.0 0.0 
0.0 0.0 0.0 
0.0 0.0 0.0 
0.0 0.0 0.0 
0.0 0.0 0.0 
0.0 0.0 0.0 
0.0 0.0 0.0 
0.0 0.0 0.0 
0.0 0.0 0.0 
0.0 0.0 0.0 
0.0 0.0 0.0 
0.0 0.0 0.0 
0.0 0.0 0.0 
0.0 0.0 0.0 
0.0 0.0 0.0 
0.0 0.0 0.0 
0.0 0.0 0.0 
0.0 0.0 0.0 
0.0 0.0 0.0 
0.0 0.0 0.0 
0.0 0.0 0.0 
0.0 0.0 0.0 
0.0 0.0 0.0 
0.0 0.0 0.0 
0.0 0.0 0.0 
0.0 0.0 0.0 
0.0 0.0 0.0 
0.0 0.0 0.0 
0.0 0.0 0.0 
0.0 0.0 0.0 
0.0 0.0 0.0 
0.0 0.0 0.0 
0.0 0.0 0.0 
0.0 0.0 0.0 
0.0 0.0 0.0 
0.0 0.0 0.0 
0.0 0.0 0.0 
0.0 0.0 0.0 
0.0 0.0 0.0 
0.0 0.0 0.0 
0.0 0.0 0.0 
0.0 0.0 0.0 
0.0 0.0 0.0 
0.0 0.0 0.0 
0.0 0.0 0.0 
0.0 0.0 0.0 
0.0 0.0 0.0 
0.0 0.0 0.0 
0.0 0.0 0.0 
0.0 0.0 0.0 
0.0 0.0 0.0 
0.0 0.0 0.0 
0.0 0.0 0.0 
0.0 0.0 0.0 
0.0 0.0 0.0 
0.0 0.0 0.0 
0.0 0.0 0.0 
0.0 0.0 0.0 
0.0 0.0 0.0 
0.0 0.0 0.0 
0.0 0.0 0.0 
0.0 0.0 0.0 
0.0 0.0 0.0 
0.0 0.0 0.0 
0.0 0.0 0.0 
0.0 0.0 0.0 
0.0 0.0 0.0 
0.0 0.0 0.0 
0.0 0.0 0.0 
0.0 0.0 0.0 
0.0 0.0 0.0 
0.0 0.0 0.0 
0.0 0.0 0.0 
0.0 0.0 0.0 
0.0 0.0 0.0 
0.0 0.0 0.0 
0.0 0.0 0.0 
0.0 0.0 0.0 
0.0 0.0 0.0 
0.0 0.0 0.0 
0.0 0.0 0.0 
0.0 0.0 0.0 
0.0 0.0 0.0 
0.0 0.0 0.0 
0.0 0.0 0.0 
0.0 0.0 0.0 
0.0 0.0 0.0 
0.0 0.0 0.0 
0.0 0.0 0.0 
0.0 0.0 0.0 
0.0 0.0 0.0 
0.0 0.0 0.0 
0.0 0.0 0.0 
0.0 0.0 0.0 
0.0 0.0 0.0 
0.0 0.0 0.0 
0.0 0.0 0.0 
0.0 0.0 0.0 
0.0 0.0 0.0 
0.0 0.0 0.0 
0.0 0.0 0.0 
0.0 0.0 0.0 
0.0 0.0 0.0 
0.0 0.0 0.0 
0.0 0.0 0.0 
0.0 0.0 0.0 
0.0 0.0 0.0 
0.0 0.0 0.0 
0.0 0.0 0.0 
0.0 0.0 0.0 
0.0 0.0 0.0 
0.0 0.0 0.0 
0.0 0.0 0.0 
0.0 0.0 0.0 
0.0 0.0 0.0 
0.0 0.0 0.0 
0.0 0.0 0.0 
0.0 0.0 0.0 
0.0 0.0 0.0 
0.0 0.0 0.0 
0.0 0.0 0.0 
0.0 0.0 0.0 
0.0 0.0 0.0 
0.0 0.0 0.0 
0.0 0.0 0.0 
0.0 0.0 0.0 
0.0 0.0 0.0 
0.0 0.0 0.0 
0.0 0.0 0.0 
0.0 0.0 0.0 
0.0 0.0 0.0 
0.0 0.0 0.0 
0.0 0.0 0.0 
0.0 0.0 0.0 
0.0 0.0 0.0 
0.0 0.0 0.0 
0.0 0.0 0.0 
0.0 0.0 0.0 
0.0 0.0 0.0 
0.0 0.0 0.0 
0.0 0.0 0.0 
0.0 0.0 0.0 
0.0 0.0 0.0 
0.0 0.0 0.0 
0.0 0.0 0.0 
0.0 0.0 0.0 
0.0 0.0 0.0 
0.0 0.0 0.0 
0.0 0.0 0.0 
0.0 0.0 0.0 
0.0 0.0 0.0 
0.0 0.0 0.0 
0.0 0.0 0.0 
0.0 0.0 0.0 
0.0 0.0 0.0 
0.0 0.0 0.0 
0.0 0.0 0.0 
0.0 0.0 0.0 
0.0 0.0 0.0 
0.0 0.0 0.0 
0.0 0.0 0.0 
0.0 0.0 0.0 
0.0 0.0 0.0 
0.0 0.0 0.0 
0.0 0.0 0.0 
0.0 0.0 0.0 
0.0 0.0 0.0 
0.0 0.0 0.0 
0.0 0.0 0.0 
0.0 0.0 0.0 
0.0 0.0 0.0 
0.0 0.0 0.0 
0.0 0.0 0.0 
0.0 0.0 0.0 
0.0 0.0 0.0 
0.0 0.0 0.0 
0.0 0.0 0.0 
0.0 0.0 0.0 
0.0 0.0 0.0 
0.0 0.0 0.0 
0.0 0.0 0.0 
0.0 0.0 0.0 
0.0 0.0 0.0 
0.0 0.0 0.0 
0.0 0.0 0.0 
0.0 0.0 0.0 
0.0 0.0 0.0 
0.0 0.0 0.0 
0.0 0.0 0.0 
0.0 0.0 0.0 
0.0 0.0 0.0 
0.0 0.0 0.0 
0.0 0.0 0.0 
0.0 0.0 0.0 
0.0 0.0 0.0 
0.0 0.0 0.0 
0.0 0.0 0.0 
0.0 0.0 0.0 
0.0 0.0 0.0 
0.0 0.0 0.0 
0.0 0.0 0.0 
0.0 0.0 0.0 
0.0 0.0 0.0 
0.0 0.0 0.0 
0.0 0.0 0.0 
0.0 0.0 0.0 
0.0 0.0 0.0 
0.0 0.0 0.0 
0.0 0.0 0.0 
0.0 0.0 0.0 
0.0 0.0 0.0 
0.0 0.0 0.0 
0.0 0.0 0.0 
0.0 0.0 0.0 
0.0 0.0 0.0 
0.0 0.0 0.0 
0.0 0.0 0.0 
0.0 0.0 0.0 
0.0 0.0 0.0 
0.0 0.0 0.0 
0.0 0.0 0.0 
0.0 0.0 0.0 
0.0 0.0 0.0 
0.0 0.0 0.0 
0.0 0.0 0.0 
0.0 0.0 0.0 
0.0 0.0 0.0 
0.0 0.0 0.0 
0.0 0.0 0.0 
0.0 0.0 0.0 
0.0 0.0 0.0 
0.0 0.0 0.0 
0.0 0.0 0.0 
0.0 0.0 0.0 
0.0 0.0 0.0 
0.0 0.0 0.0 
0.0 0.0 0.0 
0.0 0.0 0.0 
0.0 0.0 0.0 
0.0 0.0 0.0 
0.0 0.0 0.0 
0.0 0.0 0.0 
0.0 0.0 0.0 
0.0 0.0 0.0 
0.0 0.0 0.0 
0.0 0.0 0.0 
0.0 0.0 0.0 
0.0 0.0 0.0 
0.0 0.0 0.0 
0.0 0.0 0.0 
0.0 0.0 0.0 
0.0 0.0 0.0 
0.0 0.0 0.0 
0.0 0.0 0.0 
0.0 0.0 0.0 
0.0 0.0 0.0 
0.0 0.0 0.0 
0.0 0.0 0.0 
0.0 0.0 0.0 
0.0 0.0 0.0 
0.0 0.0 0.0 
0.0 0.0 0.0 
0.0 0.0 0.0 
0.0 0.0 0.0 
0.0 0.0 0.0 
0.0 0.0 0.0 
0.0 0.0 0.0 
0.0 0.0 0.0 
0.0 0.0 0.0 
0.0 0.0 0.0 
0.0 0.0 0.0 
0.0 0.0 0.0 
0.0 0.0 0.0 
0.0 0.0 0.0 
0.0 0.0 0.0 
0.0 0.0 0.0 
0.0 0.0 0.0 
0.0 0.0 0.0 
0.0 0.0 0.0 
0.0 0.0 0.0 
0.0 0.0 0.0 
0.0 0.0 0.0 
0.0 0.0 0.0 
0.0 0.0 0.0 
0.0 0.0 0.0 
0.0 0.0 0.0 
0.0 0.0 0.0 
0.0 0.0 0.0 
0.0 0.0 0.0 
0.0 0.0 0.0 
0.0 0.0 0.0 
0.0 0.0 0.0 
0.0 0.0 0.0 
0.0 0.0 0.0 
0.0 0.0 0.0 
0.0 0.0 0.0 
0.0 0.0 0.0 
0.0 0.0 0.0 
0.0 0.0 0.0 
0.0 0.0 0.0 
0.0 0.0 0.0 
0.0 0.0 0.0 
0.0 0.0 0.0 
0.0 0.0 0.0 
0.0 0.0 0.0 
0.0 0.0 0.0 
0.0 0.0 0.0 
0.0 0.0 0.0 
0.0 0.0 0.0 
0.0 0.0 0.0 
0.0 0.0 0.0 
0.0 0.0 0.0 
0.0 0.0 0.0 
0.0 0.0 0.0 
0.0 0.0 0.0 
0.0 0.0 0.0 
0.0 0.0 0.0 
0.0 0.0 0.0 
0.0 0.0 0.0 
0.0 0.0 0.0 
0.0 0.0 0.0 
0.0 0.0 0.0 
0.0 0.0 0.0 
0.0 0.0 0.0 
0.0 0.0 0.0 
0.0 0.0 0.0 
0.0 0.0 0.0 
0.0 0.0 0.0 
0.0 0.0 0.0 
0.0 0.0 0.0 
0.0 0.0 0.0 
0.0 0.0 0.0 
0.0 0.0 0.0 
0.0 0.0 0.0 
0.0 0.0 0.0 
0.0 0.0 0.0 
0.0 0.0 0.0 
0.0 0.0 0.0 
0.0 0.0 0.0 
0.0 0.0 0.0 
0.0 0.0 0.0 
0.0 0.0 0.0 
0.0 0.0 0.0 
0.0 0.0 0.0 
0.0 0.0 0.0 
0.0 0.0 0.0 
0.0 0.0 0.0 
0.0 0.0 0.0 
0.0 0.0 0.0 
0.0 0.0 0.0 
0.0 0.0 0.0 
0.0 0.0 0.0 
0.0 0.0 0.0 
0.0 0.0 0.0 
0.0 0.0 0.0 
0.0 0.0 0.0 
0.0 0.0 0.0 
0.0 0.0 0.0 
0.0 0.0 0.0 
0.0 0.0 0.0 
0.0 0.0 0.0 
0.0 0.0 0.0 
0.0 0.0 0.0 
0.0 0.0 0.0 
0.0 0.0 0.0 
0.0 0.0 0.0 
0.0 0.0 0.0 
0.0 0.0 0.0 
0.0 0.0 0.0 
0.0 0.0 0.0 
0.0 0.0 0.0 
0.0 0.0 0.0 
0.0 0.0 0.0 
0.0 0.0 0.0 
0.0 0.0 0.0 
0.0 0.0 0.0 
0.0 0.0 0.0 
0.0 0.0 0.0 
0.0 0.0 0.0 
0.0 0.0 0.0 
0.0 0.0 0.0 
0.0 0.0 0.0 
0.0 0.0 0.0 
0.0 0.0 0.0 
0.0 0.0 0.0 
0.0 0.0 0.0 
0.0 0.0 0.0 
0.0 0.0 0.0 
0.0 0.0 0.0 
0.0 0.0 0.0 
0.0 0.0 0.0 
0.0 0.0 0.0 
0.0 0.0 0.0 
0.0 0.0 0.0 
0.0 0.0 0.0 
0.0 0.0 0.0 
0.0 0.0 0.0 
0.0 0.0 0.0 
0.0 0.0 0.0 
0.0 0.0 0.0 
0.0 0.0 0.0 
0.0 0.0 0.0 
0.0 0.0 0.0 
0.0 0.0 0.0 
0.0 0.0 0.0 
0.0 0.0 0.0 
0.0 0.0 0.0 
0.0 0.0 0.0 
0.0 0.0 0.0 
0.0 0.0 0.0 
0.0 0.0 0.0 
0.0 0.0 0.0 
0.0 0.0 0.0 
0.0 0.0 0.0 
0.0 0.0 0.0 
0.0 0.0 0.0 
0.0 0.0 0.0 
0.0 0.0 0.0 
0.0 0.0 0.0 
0.0 0.0 0.0 
0.0 0.0 0.0 
0.0 0.0 0.0 
0.0 0.0 0.0 
0.0 0.0 0.0 
0.0 0.0 0.0 
0.0 0.0 0.0 
0.0 0.0 0.0 
0.0 0.0 0.0 
0.0 0.0 0.0 
0.0 0.0 0.0 
0.0 0.0 0.0 
0.0 0.0 0.0 
0.0 0.0 0.0 
0.0 0.0 0.0 
0.0 0.0 0.0 
0.0 0.0 0.0 
0.0 0.0 0.0 
0.0 0.0 0.0 
0.0 0.0 0.0 
0.0 0.0 0.0 
0.0 0.0 0.0 
0.0 0.0 0.0 
0.0 0.0 0.0 
0.0 0.0 0.0 
0.0 0.0 0.0 
0.0 0.0 0.0 
0.0 0.0 0.0 
0.0 0.0 0.0 
0.0 0.0 0.0 
0.0 0.0 0.0 
0.0 0.0 0.0 
0.0 0.0 0.0 
0.0 0.0 0.0 
0.0 0.0 0.0 
0.0 0.0 0.0 
0.0 0.0 0.0 
0.0 0.0 0.0 
0.0 0.0 0.0 
0.0 0.0 0.0 
0.0 0.0 0.0 
0.0 0.0 0.0 
0.0 0.0 0.0 
0.0 0.0 0.0 
0.0 0.0 0.0 
0.0 0.0 0.0 
0.0 0.0 0.0 
0.0 0.0 0.0 
0.0 0.0 0.0 
0.0 0.0 0.0 
0.0 0.0 0.0 
0.0 0.0 0.0 
0.0 0.0 0.0 
0.0 0.0 0.0 
0.0 0.0 0.0 
0.0 0.0 0.0 
0.0 0.0 0.0 
0.0 0.0 0.0 
0.0 0.0 0.0 
0.0 0.0 0.0 
0.0 0.0 0.0 
0.0 0.0 0.0 
0.0 0.0 0.0 
0.0 0.0 0.0 
0.0 0.0 0.0 
0.0 0.0 0.0 
0.0 0.0 0.0 
0.0 0.0 0.0 
0.0 0.0 0.0 
0.0 0.0 0.0 
0.0 0.0 0.0 
0.0 0.0 0.0 
0.0 0.0 0.0 
0.0 0.0 0.0 
0.0 0.0 0.0 
0.0 0.0 0.0 
0.0 0.0 0.0 
0.0 0.0 0.0 
0.0 0.0 0.0 
0.0 0.0 0.0 
0.0 0.0 0.0 
0.0 0.0 0.0 
0.0 0.0 0.0 
0.0 0.0 0.0 
0.0 0.0 0.0 
0.0 0.0 0.0 
0.0 0.0 0.0 
0.0 0.0 0.0 
0.0 0.0 0.0 
0.0 0.0 0.0 
0.0 0.0 0.0 
0.0 0.0 0.0 
0.0 0.0 0.0 
0.0 0.0 0.0 
0.0 0.0 0.0 
0.0 0.0 0.0 
0.0 0.0 0.0 
0.0 0.0 0.0 
0.0 0.0 0.0 
0.0 0.0 0.0 
0.0 0.0 0.0 
0.0 0.0 0.0 
0.0 0.0 0.0 
0.0 0.0 0.0 
0.0 0.0 0.0 
0.0 0.0 0.0 
0.0 0.0 0.0 
0.0 0.0 0.0 
0.0 0.0 0.0 
0.0 0.0 0.0 
0.0 0.0 0.0 
0.0 0.0 0.0 
0.0 0.0 0.0 
0.0 0.0 0.0 
0.0 0.0 0.0 
0.0 0.0 0.0 
0.0 0.0 0.0 
0.0 0.0 0.0 
0.0 0.0 0.0 
0.0 0.0 0.0 
0.0 0.0 0.0 
0.0 0.0 0.0 
0.0 0.0 0.0 
0.0 0.0 0.0 
0.0 0.0 0.0 
0.0 0.0 0.0 
0.0 0.0 0.0 
0.0 0.0 0.0 
0.0 0.0 0.0 
0.0 0.0 0.0 
0.0 0.0 0.0 
0.0 0.0 0.0 
0.0 0.0 0.0 
0.0 0.0 0.0 
0.0 0.0 0.0 
0.0 0.0 0.0 
0.0 0.0 0.0 
0.0 0.0 0.0 
0.0 0.0 0.0 
0.0 0.0 0.0 
0.0 0.0 0.0 
0.0 0.0 0.0 
0.0 0.0 0.0 
0.0 0.0 0.0 
0.0 0.0 0.0 
0.0 0.0 0.0 
0.0 0.0 0.0 
0.0 0.0 0.0 
0.0 0.0 0.0 
0.0 0.0 0.0 
0.0 0.0 0.0 
0.0 0.0 0.0 
0.0 0.0 0.0 
0.0 0.0 0.0 
0.0 0.0 0.0 
0.0 0.0 0.0 
0.0 0.0 0.0 
0.0 0.0 0.0 
0.0 0.0 0.0 
0.0 0.0 0.0 
0.0 0.0 0.0 
0.0 0.0 0.0 
0.0 0.0 0.0 
0.0 0.0 0.0 
0.0 0.0 0.0 
0.0 0.0 0.0 
0.0 0.0 0.0 
0.0 0.0 0.0 
0.0 0.0 0.0 
0.0 0.0 0.0 
0.0 0.0 0.0 
0.0 0.0 0.0 
0.0 0.0 0.0 
0.0 0.0 0.0 
0.0 0.0 0.0 
0.0 0.0 0.0 
0.0 0.0 0.0 
0.0 0.0 0.0 
0.0 0.0 0.0 
0.0 0.0 0.0 
0.0 0.0 0.0 
0.0 0.0 0.0 
0.0 0.0 0.0 
0.0 0.0 0.0 
0.0 0.0 0.0 
0.0 0.0 0.0 
0.0 0.0 0.0 
0.0 0.0 0.0 
0.0 0.0 0.0 
0.0 0.0 0.0 
0.0 0.0 0.0 
0.0 0.0 0.0 
0.0 0.0 0.0 
0.0 0.0 0.0 
0.0 0.0 0.0 
0.0 0.0 0.0 
0.0 0.0 0.0 
0.0 0.0 0.0 
0.0 0.0 0.0 
0.0 0.0 0.0 
0.0 0.0 0.0 
0.0 0.0 0.0 
0.0 0.0 0.0 
0.0 0.0 0.0 
0.0 0.0 0.0 
0.0 0.0 0.0 
0.0 0.0 0.0 
0.0 0.0 0.0 
0.0 0.0 0.0 
0.0 0.0 0.0 
0.0 0.0 0.0 
0.0 0.0 0.0 
0.0 0.0 0.0 
0.0 0.0 0.0 
0.0 0.0 0.0 
0.0 0.0 0.0 
0.0 0.0 0.0 
0.0 0.0 0.0 

VECTORS node_materi_velocity float
0.0 -2.915542720734e-02 0.0 
0.0 -2.185908817784e-02 0.0 
0.0 0.0 0.0 
0.0 0.0 0.0 
0.0 -2.907896537482e-02 0.0 
0.0 -2.885774652078e-02 0.0 
0.0 -2.849380151571e-02 0.0 
0.0 -2.798619054416e-02 0.0 
0.0 -2.732905437300e-02 0.0 
0.0 -2.652673665795e-02 0.0 
0.0 -2.557982948387e-02 0.0 
0.0 -2.448699927621e-02 0.0 
0.0 -2.324914789160e-02 0.0 
0.0 -2.186545128144e-02 0.0 
0.0 -2.033354325209e-02 0.0 
0.0 -1.865424434381e-02 0.0 
0.0 -1.682990898885e-02 0.0 
0.0 -1.486703720776e-02 0.0 
0.0 -1.275434300457e-02 0.0 
0.0 -1.049523461831e-02 0.0 
0.0 -8.090807853772e-03 0.0 
0.0 -5.539019449450e-03 0.0 
0.0 -2.839823762781e-03 0.0 
0.0 0.0 0.0 
0.0 0.0 0.0 
0.0 0.0 0.0 
0.0 0.0 0.0 
0.0 0.0 0.0 
0.0 0.0 0.0 
0.0 0.0 0.0 
0.0 0.0 0.0 
0.0 0.0 0.0 
0.0 0.0 0.0 
0.0 0.0 0.0 
0.0 0.0 0.0 
0.0 0.0 0.0 
0.0 0.0 0.0 
0.0 0.0 0.0 
0.0 0.0 0.0 
0.0 0.0 0.0 
0.0 0.0 0.0 
0.0 0.0 0.0 
0.0 0.0 0.0 
0.0 0.0 0.0 
0.0 0.0 0.0 
0.0 0.0 0.0 
0.0 0.0 0.0 
0.0 0.0 0.0 
0.0 0.0 0.0 
0.0 0.0 0.0 
0.0 0.0 0.0 
0.0 0.0 0.0 
0.0 0.0 0.0 
0.0 0.0 0.0 
0.0 0.0 0.0 
0.0 0.0 0.0 
0.0 0.0 0.0 
0.0 0.0 0.0 
0.0 0.0 0.0 
0.0 0.0 0.0 
0.0 0.0 0.0 
0.0 0.0 0.0 
0.0 0.0 0.0 
0.0 0.0 0.0 
0.0 0.0 0.0 
0.0 0.0 0.0 
0.0 0.0 0.0 
0.0 0.0 0.0 
0.0 0.0 0.0 
0.0 0.0 0.0 
0.0 0.0 0.0 
0.0 0.0 0.0 
0.0 -2.032843770684e-02 0.0 
0.0 -1.865278246289e-02 0.0 
0.0 -1.682968439505e-02 0.0 
0.0 -1.486335509408e-02 0.0 
0.0 -1.274931619584e-02 0.0 
0.0 -1.049069506785e-02 0.0 
0.0 -8.086359272833e-03 0.0 
0.0 -5.536047785881e-03 0.0 
0.0 -2.840336997452e-03 0.0 
-1.025003660537e-07 -2.915296411461e-02 0.0 
0.0 -2.914407353720e-02 0.0 
2.625543717300e-06 -2.186541986101e-02 0.0 
-9.503660468294e-07 -2.907648340281e-02 0.0 
-1.070715198666e-07 -2.885865349813e-02 0.0 
9.788030014055e-07 -2.849524462087e-02 0.0 
1.900605907933e-06 -2.798720724211e-02 0.0 
3.041899153424e-06 -2.733048740078e-02 0.0 
3.976008329454e-06 -2.652831756239e-02 0.0 
3.902214389373e-06 -2.558087312231e-02 0.0 
3.938973662862e-06 -2.448775906625e-02 0.0 
4.285849407727e-06 -2.324865086897e-02 0.0 
0.0 -2.907784886907e-02 0.0 
0.0 -2.885277387947e-02 0.0 
0.0 -2.849292656398e-02 0.0 
0.0 -2.797687395510e-02 0.0 
0.0 -2.732596983960e-02 0.0 
0.0 -2.651872832646e-02 0.0 
0.0 -2.557656119422e-02 0.0 
0.0 -2.447800075158e-02 0.0 
0.0 -2.324548013385e-02 0.0 
-2.636797473395e-06 -2.185942220055e-02 0.0 
-1.070258122172e-06 -2.186023542135e-02 0.0 
-1.447608977820e-06 -2.186102637640e-02 0.0 
-1.758308898618e-06 -2.185937167233e-02 0.0 
-8.027494845444e-07 -2.186158561893e-02 0.0 
-3.780468757927e-07 -2.186010313519e-02 0.0 
-2.636218403203e-07 -2.186075181308e-02 0.0 
2.358545218864e-06 -2.186002734958e-02 0.0 
1.567490569342e-06 -2.186304972539e-02 0.0 
7.416072550154e-07 -2.186187201064e-02 0.0 
7.760989451298e-07 -2.186146545012e-02 0.0 
8.515809817871e-07 -2.186339285696e-02 0.0 
1.569333879152e-06 -2.186409004276e-02 0.0 
2.439152321277e-06 -2.186348877207e-02 0.0 
6.909415397629e-07 -2.915121896518e-02 0.0 
9.877266384167e-08 -2.915077623510e-02 0.0 
-6.936075146331e-07 -2.915079785419e-02 0.0 
3.716628296581e-06 -2.915071183246e-02 0.0 
3.688062781331e-06 -2.915313071753e-02 0.0 
2.149745788054e-06 -2.915211025957e-02 0.0 
6.199609316726e-07 -2.914973954325e-02 0.0 
-9.668417036980e-08 -2.914955066450e-02 0.0 
-2.047675543579e-07 -2.914928918061e-02 0.0 
-3.130177446545e-07 -2.915020254949e-02 0.0 
9.120685251300e-07 -2.915087101946e-02 0.0 
1.716893392647e-06 -2.915085787072e-02 0.0 
-3.197592963235e-07 -2.914799236427e-02 0.0 
1.294801100016e-06 -2.914869832716e-02 0.0 
2.423104052531e-06 -2.915064146301e-02 0.0 
1.289095888898e-06 -2.915073409205e-02 0.0 
-1.180210792427e-06 -2.915089575304e-02 0.0 
-3.436769354228e-06 -2.915345696493e-02 0.0 
-2.638493336523e-06 -2.914836237078e-02 0.0 
-7.763369398137e-06 -2.913992799278e-02 0.0 
-1.308892643797e-05 -2.914940846272e-02 0.0 
-9.114647200733e-06 -2.914554782956e-02 0.0 
-9.394954135687e-06 -2.914870670766e-02 0.0 
-7.910173457601e-06 -2.914824471533e-02 0.0 
-7.683892650438e-06 -2.914925204224e-02 0.0 
-7.042711121564e-06 -2.914935610543e-02 0.0 
-6.674264767139e-06 -2.914961192224e-02 0.0 
-6.076911895362e-06 -2.914962119650e-02 0.0 
-5.523775367842e-06 -2.914977007332e-02 0.0 
-4.971116390487e-06 -2.914998492916e-02 0.0 
-4.516228331915e-06 -2.915028757060e-02 0.0 
-4.152186780476e-06 -2.915060454824e-02 0.0 
-3.890011654920e-06 -2.915089343717e-02 0.0 
-3.711692184478e-06 -2.915110635607e-02 0.0 
-3.595960396948e-06 -2.915121103874e-02 0.0 
-3.512971023205e-06 -2.915118741290e-02 0.0 
-3.432591804865e-06 -2.915103013242e-02 0.0 
-3.325890555055e-06 -2.915074625286e-02 0.0 
-3.168726071471e-06 -2.915035305753e-02 0.0 
-2.942617822227e-06 -2.914987319344e-02 0.0 
-2.632436767604e-06 -2.914932901868e-02 0.0 
-2.220236106182e-06 -2.914873910897e-02 0.0 
-1.675451699038e-06 -2.914811906339e-02 0.0 
-9.392207816205e-07 -2.914748874164e-02 0.0 
1.021429066593e-07 -2.914689178080e-02 0.0 
1.663591499157e-06 -2.914644305354e-02 0.0 
4.122119432720e-06 -2.914655379444e-02 0.0 
7.177164612118e-06 -2.915267223319e-02 0.0 
6.639340596187e-07 -2.906715877519e-02 0.0 
1.021437759507e-06 -2.907283951732e-02 0.0 
5.566763552479e-07 -2.907336129776e-02 0.0 
-8.729185809566e-08 -2.907396931533e-02 0.0 
-7.090307866386e-07 -2.907465817554e-02 0.0 
-1.262169649223e-06 -2.907534771604e-02 0.0 
-1.739906656710e-06 -2.907600961906e-02 0.0 
-2.146381651809e-06 -2.907663332401e-02 0.0 
-2.488213606173e-06 -2.907720904550e-02 0.0 
-2.772643500861e-06 -2.907772159492e-02 0.0 
-3.008178987675e-06 -2.907814976192e-02 0.0 
-3.206028199618e-06 -2.907846942601e-02 0.0 
-3.381506265630e-06 -2.907866015827e-02 0.0 
-3.553598021616e-06 -2.907871093170e-02 0.0 
-3.742902340408e-06 -2.907862443464e-02 0.0 
-3.968303392413e-06 -2.907841481206e-02 0.0 
-4.247051221818e-06 -2.907811659372e-02 0.0 
-4.587843481481e-06 -2.907776433402e-02 0.0 
-4.999974905634e-06 -2.907742958065e-02 0.0 
-5.467009595025e-06 -2.907712095157e-02 0.0 
-6.013419283089e-06 -2.907698878654e-02 0.0 
-6.544883271057e-06 -2.907682882208e-02 0.0 
-7.180540908072e-06 -2.907698268232e-02 0.0 
-7.536113520578e-06 -2.907638378421e-02 0.0 
-8.375134798427e-06 -2.907658768376e-02 0.0 
-8.371823823200e-06 -2.907461850448e-02 0.0 
-1.040579987100e-05 -2.907658738002e-02 0.0 
-6.283758115984e-06 -2.907183208803e-02 0.0 
-5.627579897477e-06 -2.885384523314e-02 0.0 
-9.192428406646e-06 -2.885816883413e-02 0.0 
-7.535671057928e-06 -2.885657836272e-02 0.0 
-7.760098435608e-06 -2.885794706769e-02 0.0 
-6.771517000511e-06 -2.885738218584e-02 0.0 
-6.330898306065e-06 -2.885763919532e-02 0.0 
-5.662495347684e-06 -2.885770023031e-02 0.0 
-5.212934596461e-06 -2.885805374679e-02 0.0 
-4.756235445419e-06 -2.885841335720e-02 0.0 
-4.389108129051e-06 -2.885881925359e-02 0.0 
-4.060511464007e-06 -2.885917573802e-02 0.0 
-3.785530564004e-06 -2.885944479058e-02 0.0 
-3.540464019644e-06 -2.885958234898e-02 0.0 
-3.314792131271e-06 -2.885956951179e-02 0.0 
-3.089020675621e-06 -2.885939981599e-02 0.0 
-2.847570805060e-06 -2.885908440354e-02 0.0 
-2.578414880470e-06 -2.885864817080e-02 0.0 
-2.276428946542e-06 -2.885812144640e-02 0.0 
-1.941355408967e-06 -2.885753151669e-02 0.0 
-1.577646133317e-06 -2.885690011206e-02 0.0 
-1.196103095651e-06 -2.885624499908e-02 0.0 
-8.174617473288e-07 -2.885558768103e-02 0.0 
-4.785616682738e-07 -2.885497291917e-02 0.0 
-2.414160026410e-07 -2.885452606223e-02 0.0 
-1.972291585628e-07 -2.885480541287e-02 0.0 
-3.833902251594e-07 -2.886171036097e-02 0.0 
-4.533845348924e-06 -2.849108708805e-02 0.0 
-8.655947711927e-06 -2.849554930790e-02 0.0 
-6.771300378278e-06 -2.849243878184e-02 0.0 
-6.729034600717e-06 -2.849374526828e-02 0.0 
-5.833546807420e-06 -2.849310228871e-02 0.0 
-5.476164060628e-06 -2.849377755513e-02 0.0 
-4.972354910610e-06 -2.849397906208e-02 0.0 
-4.597560061819e-06 -2.849449781031e-02 0.0 
-4.227852665153e-06 -2.849488611217e-02 0.0 
-3.919084984021e-06 -2.849527512052e-02 0.0 
-3.639012875467e-06 -2.849552121575e-02 0.0 
-3.389658348462e-06 -2.849563627844e-02 0.0 
-3.149739811421e-06 -2.849558274639e-02 0.0 
-2.902511033568e-06 -2.849536752533e-02 0.0 
-2.635319878272e-06 -2.849500711989e-02 0.0 
-2.346575496686e-06 -2.849453825827e-02 0.0 
-2.039363952653e-06 -2.849399568041e-02 0.0 
-1.721213052972e-06 -2.849340936538e-02 0.0 
-1.405261672037e-06 -2.849280479546e-02 0.0 
-1.112608553816e-06 -2.849220597977e-02 0.0 
-8.721334656514e-07 -2.849164170218e-02 0.0 
-7.160305202201e-07 -2.849115703671e-02 0.0 
-6.628815775042e-07 -2.849081617701e-02 0.0 
-6.462689924462e-07 -2.849035907947e-02 0.0 
-3.702090879659e-07 -2.848347821993e-02 0.0 
-4.571973577472e-07 -2.798630636376e-02 0.0 
-6.383800947458e-07 -2.798049683806e-02 0.0 
-7.090291956923e-07 -2.798041389434e-02 0.0 
-7.802063793251e-07 -2.798072594220e-02 0.0 
-9.080311820532e-07 -2.798115470362e-02 0.0 
-1.105453459963e-06 -2.798165905670e-02 0.0 
-1.360696243907e-06 -2.798221656458e-02 0.0 
-1.650573903284e-06 -2.798280346055e-02 0.0 
-1.955560334578e-06 -2.798339008567e-02 0.0 
-2.261187686802e-06 -2.798394411040e-02 0.0 
-2.558392051499e-06 -2.798442694018e-02 0.0 
-2.838294318633e-06 -2.798479506817e-02 0.0 
-3.091040690274e-06 -2.798499505998e-02 0.0 
-3.343944905245e-06 -2.798500110936e-02 0.0 
-3.605422786340e-06 -2.798480690753e-02 0.0 
-3.941611282338e-06 -2.798447956969e-02 0.0 
-4.247341124061e-06 -2.798398061717e-02 0.0 
-4.723353722913e-06 -2.798356669304e-02 0.0 
-4.948524041725e-06 -2.798288801073e-02 0.0 
-5.694019271270e-06 -2.798296835093e-02 0.0 
-5.396199925468e-06 -2.798154421700e-02 0.0 
-7.181074231498e-06 -2.798390913895e-02 0.0 
-3.433716129980e-06 -2.798046012786e-02 0.0 
-1.951818586095e-06 -2.732410707174e-02 0.0 
-6.119245439269e-06 -2.732875676550e-02 0.0 
-4.801973072538e-06 -2.732632822961e-02 0.0 
-5.061421278673e-06 -2.732809442067e-02 0.0 
-4.413024978382e-06 -2.732790926852e-02 0.0 
-4.142463543903e-06 -2.732882629394e-02 0.0 
-3.697001882428e-06 -2.732911812642e-02 0.0 
-3.408099062711e-06 -2.732956656004e-02 0.0 
-3.147893514362e-06 -2.732969595082e-02 0.0 
-2.911427644859e-06 -2.732964329958e-02 0.0 
-2.625525930807e-06 -2.732934034775e-02 0.0 
-2.322658434666e-06 -2.732891005195e-02 0.0 
-2.023450727608e-06 -2.732839476224e-02 0.0 
-1.731146321416e-06 -2.732783220937e-02 0.0 
-1.450441602934e-06 -2.732726426424e-02 0.0 
-1.193272786663e-06 -2.732672368678e-02 0.0 
-9.911556528883e-07 -2.732624731732e-02 0.0 
-8.577192769426e-07 -2.732583664942e-02 0.0 
-7.838785176248e-07 -2.732547591172e-02 0.0 
-7.252143874526e-07 -2.732512172559e-02 0.0 
-5.975958278153e-07 -2.732436596086e-02 0.0 
-3.145819449405e-07 -2.731683110073e-02 0.0 
-3.545435239991e-07 -2.652827601503e-02 0.0 
-5.605320198553e-07 -2.652291788275e-02 0.0 
-6.471350310037e-07 -2.652311152630e-02 0.0 
-6.907141032845e-07 -2.652346472903e-02 0.0 
-7.538670196189e-07 -2.652378539555e-02 0.0 
-8.700056265380e-07 -2.652413648892e-02 0.0 
-1.069975476840e-06 -2.652456151100e-02 0.0 
-1.316273560069e-06 -2.652510502784e-02 0.0 
-1.570834032894e-06 -2.652569549119e-02 0.0 
-1.846254149421e-06 -2.652628224781e-02 0.0 
-2.172939564572e-06 -2.652680451851e-02 0.0 
-2.531421094949e-06 -2.652725599458e-02 0.0 
-2.854931937101e-06 -2.652762066528e-02 0.0 
-3.038660806571e-06 -2.652759896205e-02 0.0 
-3.418297374600e-06 -2.652732848588e-02 0.0 
-3.697834600116e-06 -2.652655657280e-02 0.0 
-4.634019975941e-06 -2.652641771585e-02 0.0 
-4.429267695964e-06 -2.652482133708e-02 0.0 
-5.988834258290e-06 -2.652650656105e-02 0.0 
-2.092180254034e-06 -2.652273198573e-02 0.0 
-1.875225761732e-06 -2.557611756405e-02 0.0 
-5.822857183579e-06 -2.558057389957e-02 0.0 
-3.911994901512e-06 -2.557820911564e-02 0.0 
-3.695760675562e-06 -2.558044243965e-02 0.0 
-3.001052310906e-06 -2.558055159585e-02 0.0 
-2.928532999958e-06 -2.558126653809e-02 0.0 
-2.532494711081e-06 -2.558077808753e-02 0.0 
-2.101484536832e-06 -2.558027938719e-02 0.0 
-1.683612110985e-06 -2.557981411864e-02 0.0 
-1.388829387177e-06 -2.557932390249e-02 0.0 
-1.213818267760e-06 -2.557874012454e-02 0.0 
-9.715947543981e-07 -2.557810886624e-02 0.0 
-7.618997040172e-07 -2.557761161118e-02 0.0 
-6.670083157935e-07 -2.557733183170e-02 0.0 
-6.459553028870e-07 -2.557707701459e-02 0.0 
-6.465319556557e-07 -2.557681436024e-02 0.0 
-6.755599541710e-07 -2.557643072433e-02 0.0 
-5.630722749296e-07 -2.557542320052e-02 0.0 
-2.760059496620e-07 -2.556751438291e-02 0.0 
-4.270978662570e-07 -2.448740927736e-02 0.0 
-7.613411495518e-07 -2.448241471241e-02 0.0 
-6.586965534301e-07 -2.448304340631e-02 0.0 
-6.732346171337e-07 -2.448326524696e-02 0.0 
-5.348815445184e-07 -2.448352137269e-02 0.0 
-4.661341288237e-07 -2.448367177413e-02 0.0 
-4.317047965686e-07 -2.448382032975e-02 0.0 
-7.091006752408e-07 -2.448429159934e-02 0.0 
-6.706661380258e-07 -2.448525043712e-02 0.0 
-7.869096996678e-07 -2.448569996357e-02 0.0 
-1.262262921886e-06 -2.448600631390e-02 0.0 
-1.743639852386e-06 -2.448656260842e-02 0.0 
-2.265461861715e-06 -2.448719286164e-02 0.0 
-2.997219059150e-06 -2.448815231462e-02 0.0 
-2.597460024963e-06 -2.448619379200e-02 0.0 
-4.789669801177e-06 -2.448661988672e-02 0.0 
-1.526553912774e-06 -2.448246966926e-02 0.0 
-7.101917189319e-07 -2.324459830402e-02 0.0 
-3.710962367444e-06 -2.325195348029e-02 0.0 
-1.686967565648e-06 -2.324913411541e-02 0.0 
-1.038047594618e-06 -2.324875894585e-02 0.0 
-7.405459746818e-07 -2.324804856748e-02 0.0 
-1.474302948783e-07 -2.324731167743e-02 0.0 
1.963656826179e-07 -2.324760260925e-02 0.0 
-9.539876102945e-09 -2.324730249256e-02 0.0 
2.236801451246e-07 -2.324540333143e-02 0.0 
-1.667935453526e-07 -2.324576404826e-02 0.0 
-2.650183745802e-07 -2.324557482335e-02 0.0 
-8.384854543612e-07 -2.324576758601e-02 0.0 
-7.624584271409e-07 -2.324515070798e-02 0.0 
-1.112133931339e-06 -2.324542891075e-02 0.0 
-1.440163369317e-06 -2.324364116676e-02 0.0 
-5.812431424726e-09 -2.323444228508e-02 0.0 
-2.058957657500e-06 -2.913075543150e-02 0.0 
-3.526110550022e-06 -2.898674142665e-02 0.0 
-2.350804991270e-06 -2.869602084743e-02 0.0 
-1.421554322052e-06 -2.825997285265e-02 0.0 
8.891484464977e-07 -2.767711007724e-02 0.0 
2.837378854053e-06 -2.694727403663e-02 0.0 
8.801209625766e-07 -2.607349468982e-02 0.0 
7.372108606108e-07 -2.505353818338e-02 0.0 
1.318286332308e-06 -2.388726020844e-02 0.0 
8.914356528892e-07 -2.257537240131e-02 0.0 
-1.283943383001e-06 -2.872895700891e-02 0.0 
-1.331800184724e-07 -2.466871403082e-03 0.0 
-4.216739752107e-07 -2.909624058683e-02 0.0 
1.757528597169e-06 -2.910322754370e-02 0.0 
1.107035533030e-07 -2.469605770343e-03 0.0 
-5.773122988329e-07 -2.772218719449e-02 0.0 
1.263551959523e-06 -2.108829007335e-02 0.0 
4.312731388746e-07 -2.472207870983e-03 0.0 
1.644149017231e-06 -2.616667457610e-02 0.0 
-5.753251427971e-07 -2.408252559249e-03 0.0 
2.327597776099e-06 -2.401684934421e-02 0.0 
-8.750743255682e-07 -2.275132793843e-03 0.0 
3.649292541063e-06 -2.909884536329e-02 0.0 
-6.883992085320e-07 -2.445056361035e-03 0.0 
9.546558999811e-07 -2.126401525507e-02 0.0 
-9.228366129727e-07 -2.603952246364e-02 0.0 
-2.190631448946e-07 -1.626670484675e-02 0.0 
-2.098810173215e-07 -2.553587407268e-03 0.0 
6.185853199614e-07 -2.435323713030e-03 0.0 
-1.098681949883e-06 -2.440557564752e-03 0.0 
6.777816449824e-07 -2.652121164484e-03 0.0 
-4.485310656714e-07 -2.377824275650e-03 0.0 
1.513257569857e-06 -2.051504942611e-02 0.0 
2.880439385114e-06 -2.048867583239e-02 0.0 
1.036614390131e-07 -2.045161701043e-02 0.0 
-1.922619925021e-06 -1.379347088503e-02 0.0 
2.520044891400e-06 -2.470788741458e-03 0.0 
-1.806962146698e-06 -2.910249274095e-02 0.0 
9.488719234717e-07 -2.909501028644e-02 0.0 
-4.547008779516e-07 -9.495855575858e-03 0.0 
-1.875206187290e-07 -2.055380708934e-02 0.0 
-7.384840687229e-07 -2.826538809668e-02 0.0 
1.263006178518e-07 -2.809382486072e-03 0.0 
-4.669298101822e-07 -2.249622459803e-03 0.0 
1.116763249023e-07 -2.392546015946e-03 0.0 
-3.416837699899e-07 -2.615033004100e-03 0.0 
1.131083474755e-06 -2.348342072006e-03 0.0 
-7.618944208043e-08 -2.909514879595e-02 0.0 
3.293436430647e-06 -2.058322169438e-02 0.0 
-6.315557876551e-08 -2.822702857244e-03 0.0 
6.848879123400e-07 -9.410711275776e-03 0.0 
-1.518880791878e-06 -2.909496122578e-02 0.0 
-5.485665785579e-07 -2.388558131524e-02 0.0 
1.534385061960e-06 -1.987872063946e-03 0.0 
3.464158824169e-07 -2.701098786057e-02 0.0 
-5.043607908544e-07 -2.830217095024e-02 0.0 
1.844306705065e-06 -2.517237142511e-02 0.0 
2.328076854190e-06 -2.271650079770e-02 0.0 
-2.667152549710e-06 -2.902156834368e-02 0.0 
-1.992579053683e-06 -1.754262933529e-02 0.0 
-3.933171162734e-07 -1.957015600861e-03 0.0 
-2.204739606916e-06 -2.910332224008e-02 0.0 
8.903772251246e-07 -4.413083854342e-03 0.0 
3.589934065387e-06 -2.047406684895e-02 0.0 
5.776197187751e-06 -1.981211648979e-02 0.0 
3.895436770234e-06 -1.904527769400e-02 0.0 
3.494733525348e-06 -1.822839345508e-02 0.0 
5.337348209859e-06 -1.726701223527e-02 0.0 
3.481432633150e-06 -1.647237657770e-02 0.0 
3.020613270372e-06 -1.745701324651e-02 0.0 
2.595135336937e-06 -1.565281787512e-02 0.0 
2.470770859400e-06 -1.667479154277e-02 0.0 
2.074472686321e-06 -1.542763570677e-02 0.0 
1.826851750037e-06 -1.480616616511e-02 0.0 
1.868418066062e-06 -1.586416462677e-02 0.0 
1.218293029456e-06 -1.393647801376e-02 0.0 
1.404045242142e-06 -1.502372874344e-02 0.0 
1.780467662346e-06 -1.688422788936e-02 0.0 
1.302008394683e-06 -1.608147371796e-02 0.0 
1.561940111614e-06 -1.786149818817e-02 0.0 
1.149008936790e-06 -1.709492205344e-02 0.0 
7.546851422063e-07 -1.525547132311e-02 0.0 
7.068930128622e-07 -1.630534725216e-02 0.0 
1.013815660849e-06 -1.806786199942e-02 0.0 
6.249332106216e-07 -1.731401701015e-02 0.0 
8.669096949357e-07 -1.899831522302e-02 0.0 
5.863382354644e-07 -1.827607090038e-02 0.0 
7.214776891899e-07 -1.989351673984e-02 0.0 
5.382897804109e-07 -1.920067263493e-02 0.0 
3.939348346133e-07 -1.752695543674e-02 0.0 
4.014229039496e-07 -1.848507925551e-02 0.0 
4.872058398134e-07 -2.008362188086e-02 0.0 
3.825597940218e-07 -1.940244092815e-02 0.0 
4.234072175201e-07 -2.092643412193e-02 0.0 
3.571163531020e-07 -2.027857701309e-02 0.0 
2.955908120054e-07 -1.869313605776e-02 0.0 
3.266054181976e-07 -1.960538497058e-02 0.0 
3.628210507694e-07 -2.111809437515e-02 0.0 
3.000840713122e-07 -2.047841824868e-02 0.0 
3.362735868154e-07 -2.191944752640e-02 0.0 
2.078924037134e-07 -2.131064689107e-02 0.0 
1.485570272432e-07 -2.267907466699e-02 0.0 
1.144911329645e-07 -2.210578985250e-02 0.0 
7.371045641209e-08 -2.066483877687e-02 0.0 
-1.154230091112e-08 -2.149300363276e-02 0.0 
-7.584188391733e-08 -2.286503579921e-02 0.0 
-1.541830300801e-07 -2.228611594530e-02 0.0 
-1.310860527151e-07 -2.085188270756e-02 0.0 
-2.030870346149e-07 -2.168115600055e-02 0.0 
-1.707817640335e-07 -2.018349288417e-02 0.0 
-2.288175887475e-07 -2.104886359754e-02 0.0 
-2.791404622562e-07 -2.246050278383e-02 0.0 
-2.999875449236e-07 -2.186263085093e-02 0.0 
-2.663805570524e-07 -2.038661819742e-02 0.0 
-3.251265152480e-07 -2.124556688673e-02 0.0 
-3.848760459571e-07 -2.264239018622e-02 0.0 
-4.438398586926e-07 -2.205069494783e-02 0.0 
-3.727381557949e-07 -2.059345889678e-02 0.0 
-4.471657039593e-07 -2.143934678242e-02 0.0 
-4.977056286574e-07 -2.281595363315e-02 0.0 
-5.132040847060e-07 -2.223546275447e-02 0.0 
-4.743941436965e-07 -2.078480830030e-02 0.0 
-5.025951826845e-07 -2.163035625528e-02 0.0 
-5.700378681836e-07 -2.299301517343e-02 0.0 
-5.193441483030e-07 -2.241937513870e-02 0.0 
-4.928819670237e-07 -2.098452103430e-02 0.0 
-4.454577754062e-07 -2.182187578740e-02 0.0 
-4.266203454179e-07 -2.031316255310e-02 0.0 
-4.614356710229e-07 -2.318123295912e-02 0.0 
-3.301044876896e-07 -2.261488993798e-02 0.0 
-4.063658285378e-07 -2.390742542103e-02 0.0 
-1.815008248228e-07 -2.336558772355e-02 0.0 
2.283309925206e-07 -1.795593332778e-02 0.0 
-2.514025817348e-07 -2.457857688551e-02 0.0 
-4.938018913437e-07 -2.503954553066e-02 0.0 
5.346921535840e-08 -2.407138609677e-02 0.0 
1.723218682900e-08 -2.279502234371e-02 0.0 
-7.453443228763e-09 -2.520413740649e-02 0.0 
3.374609270321e-07 -2.473107491477e-02 0.0 
1.466245843714e-07 -2.578425434843e-02 0.0 
1.989233866201e-07 -2.327591959879e-02 0.0 
2.492477172470e-07 -1.440231643542e-02 0.0 
6.373390861476e-07 -2.534561508444e-02 0.0 
-1.136389052703e-07 -2.631871732688e-02 0.0 
-3.887336146990e-07 -2.669512816820e-02 0.0 
-6.460003328021e-07 -2.714870195970e-02 0.0 
2.295419649192e-06 -1.627762621933e-02 0.0 
1.116539576503e-06 -1.433662863227e-02 0.0 
1.303113187606e-06 -1.523659353824e-02 0.0 
7.261771274158e-07 -1.320869617733e-02 0.0 
9.833371314086e-07 -1.413898174123e-02 0.0 
-2.733597906310e-07 -2.680784630389e-02 0.0 
9.095425214994e-07 -1.276346697032e-02 0.0 
4.665166000084e-07 -1.223912663952e-02 0.0 
1.148690305536e-06 -1.969708548207e-02 0.0 
4.836654879470e-07 -2.154904412430e-02 0.0 
-1.560147569371e-07 -1.927639579024e-02 0.0 
6.816904655791e-07 -2.422957049429e-02 0.0 
1.467470933190e-06 -2.487980663816e-02 0.0 
7.688328084350e-07 -2.370013864017e-02 0.0 
-4.809405111976e-07 -1.939674795630e-02 0.0 
-4.722722603983e-07 -1.865998143298e-02 0.0 
-5.332824989733e-07 -1.766105071367e-02 0.0 
-5.632259935411e-07 -1.686175812280e-02 0.0 
-6.437750351514e-07 -1.578033223651e-02 0.0 
-6.818678082970e-07 -1.491850887162e-02 0.0 
-6.132030928320e-07 -1.603633010826e-02 0.0 
-7.596742084359e-07 -1.402871063872e-02 0.0 
-6.816170218137e-07 -1.518370471720e-02 0.0 
-7.519150453830e-07 -1.375599987615e-02 0.0 
-7.427446623179e-07 -1.465311344753e-02 0.0 
-8.979306851124e-07 -1.311252412530e-02 0.0 
-7.745626907888e-07 -1.430265241504e-02 0.0 
-1.023652973431e-06 -1.216809610446e-02 0.0 
-8.344915475275e-07 -1.339359361327e-02 0.0 
-6.361749755544e-07 -1.544992230040e-02 0.0 
-6.615127249383e-07 -1.457623099697e-02 0.0 
-5.353602873603e-07 -1.655249437105e-02 0.0 
-2.573343465574e-07 -1.854527208796e-02 0.0 
-2.994858699510e-07 -1.755729764611e-02 0.0 
-4.052590422979e-07 -1.676477179710e-02 0.0 
-4.436688804868e-07 -1.569614612517e-02 0.0 
-5.659923258743e-07 -1.484085147051e-02 0.0 
-6.059409803266e-07 -1.369368049940e-02 0.0 
-7.703961018918e-07 -1.277277316381e-02 0.0 
-6.140424268873e-07 -1.395884764206e-02 0.0 
7.685227319024e-07 -1.303498266601e-02 0.0 
-1.671134381513e-07 -2.358141596464e-02 0.0 
-1.021881375343e-07 -2.409991024172e-02 0.0 
-2.494207404039e-07 -2.474021388264e-02 0.0 
-2.189190626145e-07 -2.519689629194e-02 0.0 
-4.728640322162e-07 -2.576140481912e-02 0.0 
-4.468247058104e-07 -2.615969858801e-02 0.0 
-8.576295980083e-07 -2.665116514431e-02 0.0 
-8.511112379860e-07 -2.628166795392e-02 0.0 
-1.407919785452e-06 -2.709941747686e-02 0.0 
-1.212531340583e-06 -2.676107937377e-02 0.0 
-1.941563129461e-06 -2.750301046406e-02 0.0 
-1.402920393446e-06 -2.720092791406e-02 0.0 
2.977878247350e-07 -1.675222306576e-02 0.0 
-3.858536872543e-07 -1.458389256051e-02 0.0 
-3.911863986500e-07 -1.250283072949e-02 0.0 
-2.795052673498e-07 -1.342953150680e-02 0.0 
-8.354588316311e-07 -2.746298479189e-02 0.0 
-7.487449135218e-07 -1.245540181230e-02 0.0 
-8.858648265246e-07 -1.254757734181e-02 0.0 
-7.883513278729e-07 -1.349863580712e-02 0.0 
-8.485766499061e-07 -1.182500697201e-02 0.0 
-9.680981587398e-07 -2.755657112819e-02 0.0 
-7.280036486675e-07 -2.698897313995e-02 0.0 
-4.482342736291e-07 -2.653456204973e-02 0.0 
6.547703819455e-07 -1.202242265969e-02 0.0 
7.735230190978e-07 -1.299065234644e-02 0.0 
-1.046187780470e-06 -1.129671284538e-02 0.0 
-4.249776406587e-07 -2.725163331124e-02 0.0 
-9.529258156142e-07 -1.187950253063e-02 0.0 
-1.567218252638e-06 -2.778102523293e-02 0.0 
-4.772748503154e-07 -1.367457939947e-02 0.0 
-4.096803609070e-07 -1.148949426574e-02 0.0 
-5.245512801351e-07 -1.710455718038e-02 0.0 
-5.486405975560e-08 -1.126841332843e-02 0.0 
-1.070978963413e-07 -1.226785615833e-02 0.0 
-9.581936612773e-07 -2.639188709948e-02 0.0 
-1.073900002495e-06 -2.687244076831e-02 0.0 
-1.695670411615e-06 -2.759835257817e-02 0.0 
-1.851315816762e-06 -2.728530502130e-02 0.0 
-1.191885759831e-06 -2.650702051331e-02 0.0 
-1.493895795321e-06 -2.697492557567e-02 0.0 
-1.245495659304e-06 -2.767510466291e-02 0.0 
-1.149198738704e-06 -2.739823260874e-02 0.0 
-1.126081630224e-06 -2.662656343208e-02 0.0 
-8.829175297352e-07 -2.708393925897e-02 0.0 
-6.307960621392e-07 -2.777953687126e-02 0.0 
-4.973020781339e-07 -2.749646631051e-02 0.0 
-8.557838930650e-07 -1.018867429937e-02 0.0 
-1.889365156098e-06 -2.810752741645e-02 0.0 
1.864030746349e-06 -1.860143109186e-02 0.0 
-9.724894778139e-07 -1.029770487408e-02 0.0 
-7.909725216759e-07 -1.058938723482e-02 0.0 
5.675953319422e-07 -1.078704688002e-02 0.0 
5.701049011898e-07 -1.179320763984e-02 0.0 
4.960067048026e-07 -1.394199207098e-02 0.0 
5.330237223937e-07 -1.277586943213e-02 0.0 
4.376249301353e-07 -1.054442408904e-02 0.0 
7.097066634081e-07 -1.156392661488e-02 0.0 
6.385710740581e-07 -1.373622565147e-02 0.0 
9.333138876152e-07 -1.255795905988e-02 0.0 
7.562033048455e-07 -1.466969190566e-02 0.0 
9.791282197969e-07 -1.352469639744e-02 0.0 
1.002215976685e-06 -1.133206783131e-02 0.0 
1.091358578160e-06 -1.233470913210e-02 0.0 
9.149009298677e-07 -1.446526584040e-02 0.0 
1.271314153265e-06 -1.330993887764e-02 0.0 
1.125042998634e-06 -1.537723895431e-02 0.0 
1.570023233921e-06 -1.425639913366e-02 0.0 
1.001503859354e-06 -1.210943914147e-02 0.0 
-1.591589878677e-06 -2.789519548827e-02 0.0 
-6.477112035467e-07 -1.305167655143e-02 0.0 
-8.973764246688e-07 -1.084859783100e-02 0.0 
2.947111129564e-06 -2.438359423941e-02 0.0 
-1.213418193061e-06 -2.313917965045e-02 0.0 
-2.441760363218e-07 -2.237441065168e-02 0.0 
1.174729226442e-06 -2.175620927607e-02 0.0 
4.538432587687e-07 -1.310114703727e-02 0.0 
1.554085759994e-06 -1.086567026220e-02 0.0 
-7.291351102632e-07 -2.729529396078e-02 0.0 
-5.406109625239e-07 -2.688249199868e-02 0.0 
4.922337448499e-07 -9.755766677674e-03 0.0 
1.343629894267e-07 -1.274512674825e-02 0.0 
-5.574510623239e-07 -1.484925878253e-02 0.0 
4.252734624047e-07 -2.231437529481e-02 0.0 
4.217310041600e-07 -2.287982632520e-02 0.0 
3.472068915202e-07 -2.356942899311e-02 0.0 
2.731559794046e-07 -2.410474964636e-02 0.0 
5.100247391481e-07 -2.342518792441e-02 0.0 
3.589224857445e-07 -2.472539750665e-02 0.0 
-7.181098572150e-07 -1.555733874442e-02 0.0 
8.034100908669e-07 -1.006023922843e-02 0.0 
-5.882395391096e-07 -2.704448939707e-02 0.0 
-5.212422488298e-07 -2.775144397447e-02 0.0 
-2.965055008431e-07 -1.049545349061e-02 0.0 
-4.891716673221e-07 -1.510570900202e-02 0.0 
1.668506755679e-07 -1.571446596876e-02 0.0 
7.565076882278e-08 -1.487502520534e-02 0.0 
-1.771046512754e-07 -1.375482840675e-02 0.0 
-1.946686203242e-07 -1.285257736324e-02 0.0 
-4.915625712488e-07 -1.164891540707e-02 0.0 
-5.938670111087e-07 -1.068137171202e-02 0.0 
-1.549522910201e-07 -1.192328038875e-02 0.0 
1.821979189766e-07 -9.980544355552e-03 0.0 
-9.765585445092e-07 -9.681240997783e-03 0.0 
1.541485392405e-06 -1.519169069097e-02 0.0 
-1.895018275105e-07 -1.546687540933e-02 0.0 
-9.246299349407e-07 -2.624792192318e-02 0.0 
-2.428416649338e-06 -2.813590953114e-02 0.0 
6.798115930480e-07 -2.812980289662e-02 0.0 
-4.734836685783e-07 -2.764427573635e-02 0.0 
-2.653609410347e-08 -2.691766089861e-02 0.0 
-1.031303697083e-06 -8.961879769732e-03 0.0 
-8.285613900236e-07 -9.395750251610e-03 0.0 
-6.714624704077e-07 -1.040509667962e-02 0.0 
3.964842787598e-07 -2.459692167011e-02 0.0 
7.919319320407e-07 -2.394044796888e-02 0.0 
4.746802549824e-07 -8.962107415944e-03 0.0 
8.080126368350e-07 -1.612886271893e-02 0.0 
4.797080097338e-07 -1.576981569522e-02 0.0 
-3.656064630705e-10 -1.664001115341e-02 0.0 
5.666166993120e-08 -2.826664367956e-02 0.0 
1.471256648785e-06 -2.832251383149e-02 0.0 
4.822041754245e-07 -9.248798290389e-03 0.0 
-2.363387119235e-07 -2.604993631160e-02 0.0 
-3.267926309510e-07 -2.643077009927e-02 0.0 
-2.538599699841e-06 -2.832558752445e-02 0.0 
-2.272908019274e-06 -2.857494694362e-02 0.0 
1.689218527370e-06 -1.186855460398e-02 0.0 
1.320684344260e-06 -9.575671421116e-03 0.0 
5.305704720496e-07 -2.090754226747e-02 0.0 
3.780026480864e-07 -2.022514319643e-02 0.0 
-1.321337586474e-06 -9.994447535921e-03 0.0 
-3.129560801797e-08 -2.786367524161e-02 0.0 
7.416158138708e-07 -8.489806955922e-03 0.0 
-5.919109049055e-07 -1.423250042656e-02 0.0 
-4.443619745522e-07 -1.620966365281e-02 0.0 
4.066334215760e-08 -2.256418745847e-02 0.0 
-1.121080555602e-06 -2.758024339540e-02 0.0 
-1.527844467106e-06 -2.791858543271e-02 0.0 
-8.983437230747e-07 -2.571032976758e-02 0.0 
-6.253105525024e-07 -2.718558020461e-02 0.0 
2.114530827243e-07 -2.734842733677e-02 0.0 
-1.034204265161e-06 -7.580528209151e-03 0.0 
3.096871380138e-07 -8.168383442971e-03 0.0 
-3.629219311331e-07 -1.095986839551e-02 0.0 
-1.588510028074e-07 -1.312510205478e-02 0.0 
-1.914101613220e-06 -8.654561768326e-03 0.0 
-2.002342962651e-07 -2.839901214775e-02 0.0 
-6.953264081708e-07 -7.900695271375e-03 0.0 
1.201949169241e-08 -1.178763026956e-02 0.0 
-6.884749631819e-07 -8.171414376431e-03 0.0 
-3.875704913376e-07 -9.116269301517e-03 0.0 
-3.538204619473e-08 -2.553257507696e-02 0.0 
4.266403833046e-09 -2.592168768866e-02 0.0 
-4.705203258255e-07 -2.677591876796e-02 0.0 
-3.476631887948e-08 -2.629962807535e-02 0.0 
3.091218358973e-06 -1.840810523292e-02 0.0 
3.682194277754e-07 -2.496005729213e-02 0.0 
1.672871469166e-06 -1.950018946394e-02 0.0 
2.153380202028e-06 -2.017821020200e-02 0.0 
1.895899847248e-06 -2.099816990738e-02 0.0 
8.476629431981e-07 -2.273087376395e-02 0.0 
1.155298900399e-06 -2.326390606711e-02 0.0 
-2.367686923500e-08 -2.459930170020e-02 0.0 
-1.689148132885e-07 -1.832486199584e-02 0.0 
-2.634793184635e-08 -2.156142634519e-02 0.0 
-4.163719688065e-07 -1.735496100767e-02 0.0 
-5.276766646426e-07 -1.843308960312e-02 0.0 
6.865330061501e-07 -8.995920115664e-03 0.0 
3.281992681205e-07 -7.640689377754e-03 0.0 
2.978556161417e-08 -1.645288075024e-02 0.0 
-1.133292236744e-07 -1.730103781757e-02 0.0 
-5.018058501544e-07 -2.808801725568e-02 0.0 
-5.740520790175e-07 -2.831407090154e-02 0.0 
-3.802590078318e-07 -1.961417293829e-02 0.0 
-8.322652467388e-07 -9.273568668644e-03 0.0 
4.226605916684e-07 -8.436066975070e-03 0.0 
3.747902388123e-07 -7.339150898090e-03 0.0 
4.554204776617e-07 -8.695655122991e-03 0.0 
-1.751884460263e-06 -8.642306929121e-03 0.0 
-2.940665917371e-07 -2.425321696629e-02 0.0 
-3.400711730301e-07 -1.779182849999e-02 0.0 
-1.328923985196e-06 -2.839147747909e-02 0.0 
2.411004928919e-07 -1.697562110392e-02 0.0 
-1.060849624430e-06 -2.856843367375e-02 0.0 
2.006654128673e-07 -1.328725526130e-02 0.0 
-6.396415140986e-07 -9.473307999828e-03 0.0 
-1.158642098880e-06 -8.099753619361e-03 0.0 
-4.097670210747e-07 -7.604855665025e-03 0.0 
3.049890039667e-06 -2.064256669502e-02 0.0 
1.823997675745e-07 -1.617211198686e-02 0.0 
8.208144945340e-08 -1.719560395928e-02 0.0 
2.159899382377e-06 -2.161199816815e-02 0.0 
1.826719507485e-06 -2.235562694468e-02 0.0 
1.608166662739e-06 -2.177545210717e-02 0.0 
1.507735223126e-06 -2.306858521138e-02 0.0 
-6.951384417248e-07 -2.527782661497e-02 0.0 
-7.575680362558e-07 -2.584981189779e-02 0.0 
-1.024721379695e-06 -6.914568158969e-03 0.0 
-3.021910364555e-06 -7.373435338068e-03 0.0 
1.829990406405e-06 -6.867867967747e-03 0.0 
1.746581136089e-07 -7.775932639072e-03 0.0 
-7.231195159956e-08 -6.517126552071e-03 0.0 
1.290987704972e-06 -7.911687068728e-03 0.0 
3.984725616691e-07 -2.655527165101e-02 0.0 
9.302181583750e-07 -2.440981699843e-02 0.0 
-1.199781966423e-07 -6.786529498309e-03 0.0 
2.463434897773e-06 -2.083936222253e-02 0.0 
-1.647743940118e-06 -6.878099212793e-03 0.0 
-1.305529657444e-06 -8.230012826021e-03 0.0 
-2.199049193406e-06 -2.878067363601e-02 0.0 
-6.506315439466e-07 -2.863231473283e-02 0.0 
-7.962183489479e-07 -7.174119369987e-03 0.0 
-4.271578831765e-07 -2.708169380029e-02 0.0 
-7.539811224507e-08 -2.665542666879e-02 0.0 
-8.388933831659e-07 -2.747269735941e-02 0.0 
4.082229446347e-07 -4.221304359151e-03 0.0 
-9.525982473440e-09 -2.057354799021e-02 0.0 
-1.003646482466e-06 -7.015605593008e-03 0.0 
1.097335902451e-06 -2.197026990270e-02 0.0 
1.085605204525e-06 -5.924237987391e-03 0.0 
1.794292392791e-08 -1.534242522526e-02 0.0 
3.023375742082e-07 -2.306892072297e-02 0.0 
-1.070245989258e-06 -1.099900821160e-02 0.0 
3.691641979337e-07 -8.497483216560e-03 0.0 
-1.482612700087e-07 -5.704752496739e-03 0.0 
-5.713899788308e-07 -1.763073755131e-02 0.0 
-2.375217122687e-06 -1.846828884074e-02 0.0 
4.472325067399e-07 -1.682173878701e-02 0.0 
-1.232261371885e-06 -2.802216664489e-02 0.0 
-7.807270657152e-07 -2.855312847090e-02 0.0 
6.440856512636e-07 -8.742721489874e-03 0.0 
-3.692313330584e-07 -2.548559458357e-02 0.0 
5.247643048142e-07 -2.490985028775e-02 0.0 
-2.600888913516e-07 -2.761353579989e-02 0.0 
-4.462461587942e-07 -2.686998770265e-02 0.0 
4.361273922726e-08 -2.002230903734e-02 0.0 
-1.281230960402e-07 -2.070872325692e-02 0.0 
-2.869692401014e-07 -1.235759228461e-02 0.0 
-1.877734830492e-07 -1.117984966454e-02 0.0 
-4.110476879780e-08 -1.463837435505e-02 0.0 
-6.404358142382e-07 -1.536624566671e-02 0.0 
-4.594294863548e-07 -1.726721129658e-02 0.0 
-3.586920429942e-07 -1.803255945565e-02 0.0 
-3.832955133746e-07 -6.595580252012e-03 0.0 
-2.869569776642e-07 -4.944161550014e-03 0.0 
-6.221442132488e-07 -2.468002080518e-02 0.0 
-6.531540541099e-07 -2.514032178198e-02 0.0 
-5.949333457207e-07 -2.484962359008e-02 0.0 
1.533489735535e-06 -5.689032327169e-03 0.0 
-2.273694716075e-06 -5.634213865437e-03 0.0 
-1.931861755651e-06 -6.776967882598e-03 0.0 
-6.066873138453e-07 -2.872447300115e-02 0.0 
9.627629157884e-07 -2.850306960741e-02 0.0 
-1.805110025177e-06 -2.813530979353e-02 0.0 
-2.576471186134e-06 -2.841154937116e-02 0.0 
-4.559392516182e-08 -6.314726739839e-03 0.0 
6.522521569745e-07 -7.626171730101e-03 0.0 
5.988035954563e-07 -4.780001921443e-03 0.0 
-1.101666467351e-07 -2.706622698406e-02 0.0 
-3.858659584451e-07 -1.215316313859e-02 0.0 
-8.842067109723e-07 -6.274629137984e-03 0.0 
-2.593406581227e-06 -7.381937084928e-03 0.0 
-1.691427473337e-08 -4.856598383593e-03 0.0 
-5.600898182799e-07 -8.737716499046e-03 0.0 
-1.148814562688e-06 -6.336841723892e-03 0.0 
-1.142130129883e-06 -6.193789451368e-03 0.0 
-4.725500386831e-07 -2.889815020342e-02 0.0 
-8.594752936902e-07 -6.766588080227e-03 0.0 
3.554609628834e-08 -1.829934561386e-02 0.0 
-5.461995500437e-07 -2.899789879577e-02 0.0 
-1.158657771773e-06 -1.914232865219e-02 0.0 
-2.298156634550e-06 -1.813159783314e-02 0.0 
-9.495065437236e-07 -1.994654802090e-02 0.0 
1.129696231199e-06 -2.773592622013e-02 0.0 
3.264264900947e-07 -1.889440061291e-02 0.0 
6.837995850555e-07 -1.790190743525e-02 0.0 
7.722216760029e-07 -2.890955726828e-02 0.0 
-7.551200469134e-08 -4.256951091696e-03 0.0 
1.392165647088e-06 -2.888051881109e-02 0.0 
-7.805587385095e-07 -2.875857907034e-02 0.0 
-2.105807968585e-06 -5.742831004888e-03 0.0 
-1.672590792893e-06 -7.148470663990e-03 0.0 
1.001832763683e-06 -4.628000437463e-03 0.0 
-1.173926672378e-06 -6.174293380336e-03 0.0 
-1.756793557518e-06 -8.565064058957e-03 0.0 
-1.470912124289e-06 -7.498727689609e-03 0.0 
-4.180670755690e-07 -1.939697724279e-02 0.0 
-1.195229667882e-06 -4.682518584008e-03 0.0 
-1.104174008427e-06 -6.350823270721e-03 0.0 
6.390959107202e-07 -3.611828176071e-03 0.0 
2.094234397626e-06 -2.355730946075e-02 0.0 
8.987312781145e-07 -2.583090850257e-02 0.0 
2.424162280642e-06 -2.621429799629e-02 0.0 
-6.626060129024e-07 -2.700176636352e-02 0.0 
4.456435543705e-07 -4.991439150846e-03 0.0 
-1.696790032132e-06 -6.525016929811e-03 0.0 
-3.264381181790e-07 -1.075345044329e-02 0.0 
-3.081374109935e-07 -1.298694516261e-02 0.0 
-1.326355982954e-06 -1.906437429757e-02 0.0 
-7.104811091002e-08 -1.913645932296e-02 0.0 
-1.869409073509e-06 -1.751733239750e-02 0.0 
-8.343124006200e-07 -1.772254140237e-02 0.0 
7.464688002048e-07 -1.602979564308e-02 0.0 
8.772320595443e-07 -1.625181958683e-02 0.0 
-8.749041314766e-07 -1.445517850716e-02 0.0 
6.476253095956e-07 -4.828087879133e-03 0.0 
-8.329452608422e-07 -2.774926978359e-02 0.0 
2.161308355235e-06 -2.221197342491e-02 0.0 
1.949173413161e-06 -5.394065520235e-03 0.0 
2.686390303970e-06 -7.031461749162e-03 0.0 
1.378696193344e-06 -2.376558816585e-02 0.0 
1.261164958998e-06 -2.487460426993e-02 0.0 
-9.300794524059e-07 -5.063025346218e-03 0.0 
2.324327453070e-07 -2.450276761754e-02 0.0 
5.090248312949e-07 -2.756677260345e-03 0.0 
-1.563426280309e-06 -2.910732320520e-02 0.0 
-3.832866469310e-06 -2.893535665540e-02 0.0 
3.534198494492e-07 -2.385379699794e-02 0.0 
1.302954869021e-06 -2.252885258350e-02 0.0 
3.480045331275e-07 -2.525799867104e-02 0.0 
-3.011706536422e-07 -2.560290773035e-02 0.0 
-8.692430466365e-07 -1.329515129366e-02 0.0 
2.981466096494e-06 -2.867703321854e-02 0.0 
-1.164930499489e-06 -2.782240887166e-02 0.0 
3.318784819288e-08 -1.424736297984e-02 0.0 
-1.302907466859e-06 -2.833563865739e-02 0.0 
-2.794977606268e-07 -1.178757501250e-02 0.0 
1.090911916600e-07 -2.396536520866e-02 0.0 
7.522022743135e-07 -2.138107693801e-02 0.0 
-7.808695498429e-07 -2.719644501006e-02 0.0 
6.220615260384e-07 -2.531885952719e-02 0.0 
2.334166423699e-06 -1.766391660592e-02 0.0 
4.272170933331e-06 -1.912576918760e-02 0.0 
2.917643823057e-06 -2.000824250475e-02 0.0 
-2.686666565355e-09 -2.342082476923e-02 0.0 
5.577653600685e-07 -2.501316047242e-02 0.0 
-5.713624004955e-07 -2.598733188494e-02 0.0 
1.405486384006e-06 -1.880297016350e-02 0.0 
3.978515449322e-07 -1.000128519548e-02 0.0 
3.552873647951e-07 -8.948599520272e-03 0.0 
-1.632053688041e-10 -6.600807151800e-03 0.0 
-1.923059318682e-07 -7.890260427628e-03 0.0 
2.898311758921e-07 -1.023883013196e-02 0.0 
-1.735033346351e-07 -9.207176837725e-03 0.0 
-7.099259857517e-07 -6.840695227915e-03 0.0 
2.419533202002e-07 -8.158161850845e-03 0.0 
-6.707147726316e-07 -5.236539068469e-03 0.0 
1.081530585312e-06 -7.034245733038e-03 0.0 
1.905881608255e-07 -9.500073946996e-03 0.0 
2.584335535939e-07 -8.506930213854e-03 0.0 
2.306799438586e-07 -6.252018739444e-03 0.0 
4.478984731651e-07 -1.090779845417e-02 0.0 
-4.751489320522e-07 -4.008736343199e-03 0.0 
3.785938138968e-07 -2.252870086612e-02 0.0 
-1.430423608771e-06 -2.873530277911e-02 0.0 
-4.012886420245e-07 -2.877956442083e-02 0.0 
9.800770069472e-07 -2.055006822698e-02 0.0 
-2.133244716274e-06 -2.565463674258e-03 0.0 
2.056966212461e-06 -2.512460675503e-03 0.0 
-2.252869129051e-07 -2.564016014569e-02 0.0 
2.180181349604e-07 -2.412159539277e-03 0.0 
2.337721243404e-06 -1.931442635264e-02 0.0 
-1.133670906375e-06 -2.741039012629e-02 0.0 
-1.065280088384e-07 -2.429151674667e-03 0.0 
4.602712278008e-07 -1.124719415728e-02 0.0 
8.293821224710e-07 -1.248530386825e-02 0.0 
9.169350874743e-07 -1.342456227170e-02 0.0 
1.612802744972e-06 -2.336148173140e-03 0.0 
-2.957431810023e-07 -1.596813847272e-02 0.0 
1.431878866566e-06 -2.280424361404e-03 0.0 
-3.091440980779e-07 -1.652631939765e-02 0.0 
-1.460327013592e-07 -1.736086978079e-02 0.0 
-2.528106913124e-08 -1.908955444552e-02 0.0 
1.776754753102e-07 -1.054142401011e-02 0.0 
-5.393786109463e-07 -2.430804054000e-03 0.0 
-5.641425958103e-07 -4.670333949981e-03 0.0 
1.462587041660e-06 -4.675112666821e-03 0.0 
-2.874047435500e-07 -6.997401359925e-03 0.0 
1.583410168101e-08 -2.421139002783e-03 0.0 
-1.447586587969e-07 -2.313722010735e-03 0.0 
-2.160725692790e-07 -2.201598560033e-03 0.0 
-1.100664562102e-06 -2.612432611361e-02 0.0 
-7.215111788241e-07 -2.557555689169e-02 0.0 
-4.385867752928e-07 -2.452860616035e-02 0.0 
-4.415126794701e-07 -2.499497393830e-02 0.0 
-7.584225545977e-07 -2.599667251441e-02 0.0 
-5.963046096304e-07 -2.544881100653e-02 0.0 
-3.835651832745e-07 -2.438702037797e-02 0.0 
-7.480215877275e-07 -2.588348682077e-02 0.0 
-4.968828852353e-07 -8.874871858696e-03 0.0 
-4.952694100911e-07 -2.335308011022e-03 0.0 
-6.308603974313e-07 -1.661989472137e-02 0.0 
-6.195610037676e-07 -1.745301560008e-02 0.0 
-5.126045545908e-07 -1.919356381903e-02 0.0 
9.886140002656e-08 -2.218997579412e-02 0.0 
-1.050527072627e-07 -2.137338029317e-02 0.0 
-2.422343059914e-07 -1.981043998869e-02 0.0 
3.831095978514e-07 -2.296838152918e-02 0.0 
2.202493944744e-08 -1.401152388903e-02 0.0 
1.382372552672e-06 -2.358272070237e-03 0.0 
-3.974324384664e-07 -1.701125118855e-02 0.0 
-1.909151152428e-07 -2.201187534588e-02 0.0 
1.405881757142e-06 -2.054974426619e-02 0.0 
5.144838852917e-06 -1.914660020507e-02 0.0 
3.358234886676e-06 -1.911197450640e-02 0.0 
2.868941789425e-06 -1.740200041201e-02 0.0 
3.704182260953e-06 -1.894566845279e-02 0.0 
-5.679797383071e-08 -1.930405336406e-02 0.0 
-3.000847530977e-07 -1.855880422171e-02 0.0 
-8.664971584552e-08 -1.951672024916e-02 0.0 
-5.942450638767e-07 -1.778592674065e-02 0.0 
-5.839483597353e-08 -1.877537327274e-02 0.0 
1.446318888650e-07 -2.039257991509e-02 0.0 
-6.364496247060e-07 -1.698446455376e-02 0.0 
1.011076582596e-06 -1.820946611232e-02 0.0 
1.438587268542e-06 -2.054501937374e-02 0.0 
7.244958390753e-07 -2.909648401249e-02 0.0 
-1.129396319893e-06 -2.892741199745e-02 0.0 
-2.122015460152e-07 -2.893437651974e-02 0.0 
-2.104288103683e-06 -2.868464898117e-02 0.0 
-1.615775598377e-07 -2.866036815577e-02 0.0 
-2.179897045864e-06 -2.827018235344e-02 0.0 
-2.488023713032e-06 -2.832616784526e-02 0.0 
-1.160533889252e-06 -2.892689970567e-02 0.0 
-4.157123419204e-07 -2.909514252416e-02 0.0 
2.412950262640e-07 -2.893767281280e-02 0.0 
-3.119539207327e-07 -2.909577833905e-02 0.0 
-9.842946292757e-07 -2.894361069924e-02 0.0 
-3.085648243710e-07 -2.863958679135e-02 0.0 
-3.231434467317e-07 -2.799157969813e-02 0.0 
7.159734171829e-07 -2.814309959596e-03 0.0 
-2.966715931379e-07 -2.257085197972e-02 0.0 
-1.795406214150e-06 -2.324654539352e-02 0.0 
9.604660268420e-07 -2.444174433308e-02 0.0 
1.092966568578e-08 -2.381123176422e-02 0.0 
2.397825193208e-06 -2.199631327032e-02 0.0 
-1.717378504152e-07 -2.503821620563e-02 0.0 
-1.807782868559e-06 -2.541044265621e-02 0.0 
-5.246548092756e-07 -2.909702849536e-02 0.0 
1.223315672116e-06 -2.893454184750e-02 0.0 
4.837869810720e-08 -2.896171755521e-02 0.0 
1.777367530219e-06 -2.866598798175e-02 0.0 
2.760955588290e-06 -2.867357350574e-02 0.0 
1.232214658480e-06 -2.893026164277e-02 0.0 
7.182459489373e-07 -2.893215208270e-02 0.0 
2.052485795697e-06 -2.909628400155e-02 0.0 
8.533444117971e-07 -2.893399326353e-02 0.0 
1.259061074921e-06 -2.865856228743e-02 0.0 
3.399470612333e-06 -2.909976831595e-02 0.0 
7.558415041554e-07 -1.162546445682e-02 0.0 
4.959280544740e-07 -1.049530046342e-02 0.0 
1.885392980373e-06 -2.514358547168e-03 0.0 
1.423209478883e-06 -2.041127222440e-02 0.0 
-8.291628708383e-08 -2.909699745858e-02 0.0 
5.317819046760e-07 -2.928024618559e-03 0.0 
1.874708900837e-06 -2.441340723551e-03 0.0 
-1.151991794469e-06 -2.362223566098e-03 0.0 
2.838347471595e-07 -6.924557989586e-03 0.0 
2.699580524085e-07 -5.671591504218e-03 0.0 
2.646763410778e-06 -2.843223662434e-03 0.0 
-1.681704564261e-07 -2.619605763770e-02 0.0 
5.565422595597e-07 -5.569784120443e-03 0.0 
7.478700287804e-07 -7.375220561222e-03 0.0 
-9.239976550206e-07 -2.767474723715e-02 0.0 
-7.232219738365e-07 -2.638100124579e-02 0.0 
2.537631761520e-07 -1.393797992802e-02 0.0 
-5.720330943096e-07 -1.628768576020e-02 0.0 
-6.839287705034e-07 -9.178234011380e-03 0.0 
-6.409022997080e-07 -1.571424883882e-02 0.0 
-1.030089267219e-06 -1.119206450705e-02 0.0 
7.390167890115e-07 -4.839683555909e-03 0.0 
-1.005047575982e-06 -2.797458339716e-02 0.0 
3.916459038505e-07 -1.557478431079e-02 0.0 
9.810991605657e-07 -1.626772492014e-02 0.0 
9.744829133768e-07 -1.109913991353e-02 0.0 
1.019723479680e-08 -2.591580460248e-02 0.0 
7.474791053752e-07 -2.102904435158e-02 0.0 
-1.334959616837e-06 -2.783052409156e-02 0.0 
-9.182776420172e-07 -4.560019256313e-03 0.0 
1.526842921540e-06 -2.035880589896e-02 0.0 
-4.835180864185e-07 -2.010734769016e-02 0.0 
3.064658848475e-07 -2.353365761853e-02 0.0 
-3.272137173899e-07 -2.563832780012e-02 0.0 
-7.807227284751e-07 -2.674002935012e-02 0.0 
3.675514701807e-07 -2.173907074247e-02 0.0 
-3.437953748900e-07 -2.118500320636e-02 0.0 
-7.803150690049e-07 -1.283180544024e-02 0.0 
9.695617770507e-07 -9.818448597684e-03 0.0 
1.766486279075e-06 -2.908230349954e-02 0.0 
-8.270276393606e-07 -1.158761405530e-02 0.0 
-4.886675164292e-07 -1.789614946471e-02 0.0 
2.115749196933e-07 -1.487171792496e-02 0.0 
-6.016134513499e-07 -1.155161683845e-02 0.0 
-1.673798308115e-06 -2.800771437387e-02 0.0 
8.710802595889e-07 -1.030621571539e-02 0.0 
3.842427522589e-07 -6.087653159111e-03 0.0 
-1.006604876099e-06 -1.701100419420e-02 0.0 
-2.891904427889e-07 -2.837980714029e-02 0.0 
-8.551454577089e-07 -1.750959164286e-02 0.0 
-1.021004607586e-06 -6.477442177119e-03 0.0 
4.813325587507e-07 -1.102240941001e-02 0.0 
-9.043598512338e-08 -2.644025020145e-02 0.0 
-2.265986144211e-07 -1.948861041653e-02 0.0 
5.575018606699e-07 -2.074219683407e-02 0.0 
9.000361860832e-07 -2.201068907076e-02 0.0 
4.774333103766e-08 -6.326139212006e-03 0.0 
2.270544312031e-07 -1.890565423068e-02 0.0 
-6.739481847072e-07 -9.536421501579e-03 0.0 
-4.710433132150e-07 -1.594716710910e-02 0.0 
3.817690217285e-07 -2.602660203170e-02 0.0 
-1.376192982717e-06 -9.587820758250e-03 0.0 
-7.030252326439e-08 -1.998348559405e-02 0.0 
3.253910996720e-07 -7.918287732370e-03 0.0 
-3.564386306578e-07 -1.259384223012e-02 0.0 
-2.140749878404e-07 -2.303529554391e-02 0.0 
2.950092242736e-07 -9.503724486180e-03 0.0 
-4.509465426050e-07 -1.991432092820e-02 0.0 
-4.392520262597e-08 -1.027957851848e-02 0.0 
1.362581351688e-06 -2.117525110678e-02 0.0 
3.197111446679e-07 -1.652860643393e-02 0.0 
8.022378402635e-07 -1.418061004849e-02 0.0 
3.109622692402e-07 -1.774248891566e-02 0.0 
3.047353355117e-07 -1.509567388125e-02 0.0 
-8.891738837953e-07 -1.060205220534e-02 0.0 
-2.578336583758e-06 -2.786299103269e-02 0.0 
4.577999013166e-07 -2.426514175296e-02 0.0 
6.806052102843e-07 -1.505757301210e-02 0.0 
-1.324878359509e-06 -8.440409054552e-03 0.0 
-1.939725553609e-06 -5.365349539043e-03 0.0 
5.698401423876e-07 -2.215030501513e-02 0.0 
-1.220197618517e-06 -1.090492551773e-02 0.0 
7.101295734693e-07 -7.140579599922e-03 0.0 
-2.726363128474e-07 -2.051570535126e-02 0.0 
1.467665207890e-06 -2.765494834788e-02 0.0 
-2.551950782155e-06 -2.821800503441e-02 0.0 
-4.637017260455e-07 -2.533431644451e-02 0.0 
1.744993183608e-07 -1.980555349143e-02 0.0 
-3.721291301254e-07 -1.888053490649e-02 0.0 
-2.497999943072e-07 -4.926894970043e-03 0.0 
-1.258537917466e-06 -9.901971743020e-03 0.0 
-9.013080826911e-07 -1.227722146500e-02 0.0 
-3.072391787770e-06 -2.889105358746e-02 0.0 
2.258788132566e-06 -2.143926647443e-02 0.0 
-1.064060209836e-06 -8.868414814826e-03 0.0 
-2.913824426992e-07 -1.877185325044e-02 0.0 
4.057997118841e-08 -9.284763650788e-03 0.0 
-3.144270696495e-07 -1.974531896934e-02 0.0 
1.520697210344e-06 -4.621661194369e-03 0.0 
1.599019301338e-06 -2.421218635027e-02 0.0 
-6.295047617451e-07 -7.804539785547e-03 0.0 
-8.182527827735e-07 -1.208896052267e-02 0.0 
-9.435924698968e-09 -2.508161323869e-02 0.0 
6.748505813306e-08 -2.057079574354e-02 0.0 
-2.892026788700e-07 -4.862560527533e-03 0.0 
-1.327209383984e-06 -9.680924457072e-03 0.0 
2.182303217442e-07 -1.594942674016e-02 0.0 
-2.846955328176e-07 -1.970615541336e-02 0.0 
1.735418595395e-06 -2.339556916360e-02 0.0 
-3.804332847068e-07 -1.812268215034e-02 0.0 
2.973162052414e-07 -1.549499144559e-02 0.0 
-1.101915876634e-06 -2.272906927238e-03 0.0 
-9.451067359568e-07 -8.503379116368e-03 0.0 
1.762947976288e-06 -1.460098526125e-02 0.0 
-2.080571671187e-07 -1.909809934480e-02 0.0 
-2.036852585815e-07 -1.443001996036e-02 0.0 
8.478694250207e-07 -2.867079376376e-02 0.0 
1.932146783147e-06 -2.288943647782e-02 0.0 
-2.938062202717e-07 -1.835182621497e-02 0.0 
-3.974299287610e-07 -2.487557617194e-02 0.0 
-3.277670026406e-07 -1.899878775141e-02 0.0 
-2.309790805026e-06 -5.241672045783e-03 0.0 
-4.832939518081e-07 -1.757515866645e-02 0.0 
-2.931125937233e-07 -2.373160278094e-02 0.0 
-7.646640506887e-07 -1.677100912834e-02 0.0 
1.074601268544e-06 -2.462662960029e-02 0.0 
1.265736460033e-06 -1.366698484814e-02 0.0 
-8.328386746399e-07 -1.593841256110e-02 0.0 
-2.172927721090e-07 -1.351962339446e-02 0.0 
1.646425208176e-07 -2.863807854590e-02 0.0 
1.605521491174e-07 -1.512681537851e-02 0.0 
-4.290127741788e-07 -8.260625063955e-03 0.0 
-5.261814392754e-07 -2.439831627147e-02 0.0 
-5.221764328444e-07 -1.826269204504e-02 0.0 
4.842213257496e-07 -1.151934290801e-02 0.0 
5.647896543557e-07 -2.571382988942e-02 0.0 
-5.951061829092e-07 -1.644005642535e-02 0.0 
-5.343496403692e-07 -1.140329023052e-02 0.0 
-1.378919440899e-07 -1.426387851550e-02 0.0 
3.871399012640e-08 -1.815952134095e-02 0.0 
-7.428676156500e-07 -1.444242826531e-02 0.0 
2.302423302809e-07 -2.539333823323e-02 0.0 
-3.646412776179e-07 -2.658273674862e-02 0.0 
-4.992912814554e-07 -2.734493930085e-02 0.0 
-3.067621313059e-07 -2.319439022229e-02 0.0 
-4.735163927802e-07 -1.015247743363e-02 0.0 
3.413413781838e-06 -2.831590021397e-02 0.0 
8.545527360000e-07 -1.181592628242e-02 0.0 
2.655918592294e-07 -2.821272122856e-02 0.0 
-4.022057715405e-07 -2.388187368376e-02 0.0 
-3.084143997879e-07 -1.098367471511e-02 0.0 
6.860752320441e-07 -1.575581433166e-02 0.0 
-4.649408641522e-07 -2.335606786633e-02 0.0 
4.567302910727e-07 -2.691570100781e-02 0.0 
-5.385755620266e-07 -2.404176897940e-02 0.0 
-8.745490435052e-08 -1.636007080436e-02 0.0 
-5.966651640891e-07 -2.352092359589e-02 0.0 
-6.833170622621e-07 -2.420196389701e-02 0.0 
2.080493192023e-06 -4.898896657553e-03 0.0 
-5.773981388435e-07 -2.369993984386e-02 0.0 
2.957536010808e-06 -2.361721876727e-03 0.0 
-3.213654316077e-07 -2.563880751647e-03 0.0 
-4.567872301089e-07 -1.934544707369e-02 0.0 
4.067373555170e-06 -2.671447654924e-02 0.0 
6.268111924296e-07 -2.910108937559e-02 0.0 
3.036638076003e-06 -2.639123766636e-02 0.0 
-5.624619553750e-07 -2.545593064607e-02 0.0 
3.955336755491e-07 -1.214061980538e-02 0.0 
-9.448334705408e-07 -1.926591235983e-02 0.0 
-5.389053424411e-07 -2.602937560837e-02 0.0 
-8.966505401209e-07 -4.602338216793e-03 0.0 
9.648813913571e-07 -2.261202354103e-03 0.0 
-2.074855698334e-07 -1.261292476149e-02 0.0 
1.836614630933e-07 -8.368067103558e-03 0.0 
-1.939250918367e-07 -1.327687982117e-02 0.0 
1.778145548176e-07 -7.013581756823e-03 0.0 
-3.388417994367e-08 -2.068172914550e-02 0.0 
-8.995618587408e-07 -2.894929096035e-02 0.0 
-2.946357305843e-07 -1.399932364935e-02 0.0 
4.053977213616e-07 -2.750467205055e-02 0.0 
-2.073863867829e-07 -2.742045119659e-02 0.0 
-9.218194080311e-07 -2.807827023479e-02 0.0 
-7.202376834262e-07 -2.568139037033e-02 0.0 
-1.219814992524e-06 -2.869554861942e-02 0.0 
-1.274420448066e-06 -2.802412250389e-02 0.0 
1.164106131029e-06 -4.813986591258e-03 0.0 
-5.759888867129e-07 -1.923115987489e-02 0.0 
-9.514507147446e-07 -9.954787644154e-03 0.0 
-1.669687018537e-06 -2.853122308053e-02 0.0 
2.068258816324e-06 -4.745139966350e-03 0.0 
-6.536190218685e-07 -4.769781920644e-03 0.0 
-2.001053701032e-06 -2.227763141433e-03 0.0 
-1.015476070015e-06 -7.478703297008e-03 0.0 
-9.659448508258e-07 -2.858349637342e-02 0.0 
6.041039518587e-07 -1.775652345700e-02 0.0 
-3.992228954627e-07 -4.521030183154e-03 0.0 
-5.606012860304e-07 -1.082652274854e-02 0.0 
1.753539108235e-06 -2.145538226125e-03 0.0 
2.164442764240e-06 -1.938811144450e-02 0.0 
4.144989760856e-07 -4.578223899874e-03 0.0 
-3.947241500621e-06 -2.816660297510e-02 0.0 
2.250413483709e-06 -4.442312692250e-03 0.0 
-3.175559131526e-08 -9.890205355842e-03 0.0 
-5.755530388958e-07 -1.712776451049e-02 0.0 
5.121534130968e-06 -1.784461958127e-02 0.0 
-6.530898003270e-07 -4.450193314619e-03 0.0 
1.492961260798e-06 -4.629547499305e-03 0.0 
-1.022845715890e-06 -2.878575706708e-02 0.0 
-8.635974693084e-08 -1.282788115277e-02 0.0 
5.248929881626e-07 -2.378995768825e-02 0.0 
1.487081645433e-06 -2.896921489697e-02 0.0 
-2.326020681183e-06 -4.628360785717e-03 0.0 
-9.569296032951e-07 -7.578824188025e-03 0.0 
-1.132177302620e-06 -4.536227447028e-03 0.0 
1.093733628376e-06 -2.869469670830e-02 0.0 
2.873071174159e-06 -2.896932557523e-02 0.0 
1.646845809628e-07 -4.266019233223e-03 0.0 
8.947323398396e-07 -4.253637924025e-03 0.0 
-2.954081256738e-06 -2.785704835704e-02 0.0 
8.758535745485e-07 -1.923249716870e-03 0.0 
-5.257215707835e-06 -2.898483084181e-02 0.0 
7.172914919423e-07 -2.084305165179e-02 0.0 
2.574198457619e-06 -2.895759338659e-02 0.0 
4.271801515935e-08 -2.174446865450e-03 0.0 
-1.699914145532e-06 -4.400436426346e-03 0.0 
1.692047053303e-06 -2.262689855813e-02 0.0 
2.488881978876e-06 -2.039060871296e-02 0.0 
-7.358581520557e-07 -2.632361708793e-02 0.0 
-1.772661229952e-06 -6.408231706265e-03 0.0 
1.818173816686e-06 -2.873018666332e-02 0.0 
5.545629931332e-07 -4.151882628115e-03 0.0 
-3.750966277814e-10 -4.144292101029e-03 0.0 
9.698119467330e-07 -4.189339426064e-03 0.0 
6.776379546017e-07 -1.774742230935e-03 0.0 
-1.041125393853e-06 -2.897908232400e-02 0.0 
-5.767657326954e-08 -4.081373956889e-03 0.0 
-1.747354788790e-06 -6.466231301917e-03 0.0 
-1.443544697848e-06 -2.075080355234e-02 0.0 
-1.011746382012e-06 -4.507115363419e-03 0.0 
-1.493537469872e-06 -2.482164824879e-02 0.0 
-1.629893175710e-06 -2.832656338721e-02 0.0 
6.273727160353e-07 -2.093481471174e-03 0.0 
-8.861264449019e-07 -2.911071605693e-02 0.0 
3.938305844777e-07 -2.075152472282e-02 0.0 
-9.010742127104e-07 -2.092867281201e-03 0.0 
3.104951808707e-06 -2.840063934307e-02 0.0 
-7.986295054482e-07 -1.807365219585e-02 0.0 
1.750621526553e-07 -4.087694305378e-03 0.0 
2.153594602080e-06 -1.946849830833e-02 0.0 
-1.848281039712e-06 -8.625466013153e-03 0.0 
-3.257414504132e-07 -2.841607293090e-02 0.0 
2.160613020501e-06 -2.911687700212e-02 0.0 
-6.356540998886e-07 -1.475843684782e-02 0.0 
-2.111206603150e-06 -4.293519851190e-03 0.0 
8.873725485197e-07 -3.991024726314e-03 0.0 
-5.514363688532e-07 -1.609405339111e-02 0.0 
1.456493448961e-07 -2.853856202193e-02 0.0 
-3.828617777418e-07 -5.757659503179e-03 0.0 
2.108620142657e-06 -2.154045443221e-02 0.0 
3.102284664254e-07 -6.233694183941e-03 0.0 
2.048805378672e-06 -6.492970030435e-03 0.0 
-2.736206554219e-06 -2.909555542596e-02 0.0 
-1.206953125987e-06 -1.776129038305e-02 0.0 
1.265727169573e-06 -2.897345486991e-02 0.0 
-5.611779478546e-07 -4.133050118115e-03 0.0 
2.893896324054e-06 -2.086336168204e-02 0.0 
-9.765917271134e-06 -2.912959049605e-02 0.0 
4.699148358222e-06 -2.913010822607e-02 0.0 
-8.682124977667e-06 -2.899885269197e-02 0.0 
-2.734221955743e-06 -2.898378837347e-02 0.0 
-7.556041840653e-06 -2.871853411243e-02 0.0 
2.453152767952e-06 -2.869147637935e-02 0.0 
-6.643688894745e-06 -2.829706071846e-02 0.0 
-2.912366677029e-06 -2.825365955495e-02 0.0 
-5.059204238587e-06 -2.772226042109e-02 0.0 
2.484434052931e-06 -2.767021008918e-02 0.0 
-3.689279128364e-06 -2.700890123556e-02 0.0 
-2.856375382727e-06 -2.694118868245e-02 0.0 
-4.359690985274e-06 -2.614187481646e-02 0.0 
2.536450656555e-06 -2.606646807979e-02 0.0 
-4.358347032793e-06 -2.514052542441e-02 0.0 
-2.846613102164e-06 -2.504610022690e-02 0.0 
-3.737104369239e-06 -2.397874576355e-02 0.0 
2.863669683548e-06 -2.387994819458e-02 0.0 
-3.901348245118e-06 -2.269028172304e-02 0.0 
-2.389012375355e-06 -2.256871932401e-02 0.0 

VECTORS node_materi_displacement float
0.0 1.235526618577e-02 0.0 
0.0 9.367471848147e-03 0.0 
0.0 0.0 0.0 
0.0 0.0 0.0 
0.0 1.233830981531e-02 0.0 
0.0 1.226113675646e-02 0.0 
0.0 1.212296513288e-02 0.0 
0.0 1.192256287739e-02 0.0 
0.0 1.165656357322e-02 0.0 
0.0 1.132684504904e-02 0.0 
0.0 1.093366564947e-02 0.0 
0.0 1.047644720910e-02 0.0 
0.0 9.955594050703e-03 0.0 
0.0 9.370749222443e-03 0.0 
0.0 8.720877709443e-03 0.0 
0.0 8.006341323715e-03 0.0 
0.0 7.228173939690e-03 0.0 
0.0 6.389227653441e-03 0.0 
0.0 5.484551210523e-03 0.0 
0.0 4.515640179815e-03 0.0 
0.0 3.482975559856e-03 0.0 
0.0 2.385661359124e-03 0.0 
0.0 1.223678146276e-03 0.0 
0.0 0.0 0.0 
0.0 0.0 0.0 
0.0 0.0 0.0 
0.0 0.0 0.0 
0.0 0.0 0.0 
0.0 0.0 0.0 
0.0 0.0 0.0 
0.0 0.0 0.0 
0.0 0.0 0.0 
0.0 0.0 0.0 
0.0 0.0 0.0 
0.0 0.0 0.0 
0.0 0.0 0.0 
0.0 0.0 0.0 
0.0 0.0 0.0 
0.0 0.0 0.0 
0.0 0.0 0.0 
0.0 0.0 0.0 
0.0 0.0 0.0 
0.0 0.0 0.0 
0.0 0.0 0.0 
0.0 0.0 0.0 
0.0 0.0 0.0 
0.0 0.0 0.0 
0.0 0.0 0.0 
0.0 0.0 0.0 
0.0 0.0 0.0 
0.0 0.0 0.0 
0.0 0.0 0.0 
0.0 0.0 0.0 
0.0 0.0 0.0 
0.0 0.0 0.0 
0.0 0.0 0.0 
0.0 0.0 0.0 
0.0 0.0 0.0 
0.0 0.0 0.0 
0.0 0.0 0.0 
0.0 0.0 0.0 
0.0 0.0 0.0 
0.0 0.0 0.0 
0.0 0.0 0.0 
0.0 0.0 0.0 
0.0 0.0 0.0 
0.0 0.0 0.0 
0.0 0.0 0.0 
0.0 0.0 0.0 
0.0 0.0 0.0 
0.0 0.0 0.0 
0.0 0.0 0.0 
0.0 8.718215495836e-03 0.0 
0.0 8.005339973441e-03 0.0 
0.0 7.227775030719e-03 0.0 
0.0 6.387368077251e-03 0.0 
0.0 5.482153982563e-03 0.0 
0.0 4.513504891979e-03 0.0 
0.0 3.480923865314e-03 0.0 
0.0 2.384296456346e-03 0.0 
0.0 1.223875455979e-03 0.0 
2.936005498531e-06 1.235028307395e-02 0.0 
0.0 1.235044625188e-02 0.0 
-1.294432767989e-06 9.370472106914e-03 0.0 
2.184721022469e-08 1.233630527387e-02 0.0 
-2.493288468434e-06 1.225796760125e-02 0.0 
-2.382543251685e-06 1.212198901703e-02 0.0 
-2.061444519572e-06 1.192211114436e-02 0.0 
-2.114858494787e-06 1.165655175028e-02 0.0 
-2.281040694782e-06 1.132705294620e-02 0.0 
-2.095358907181e-06 1.093372328787e-02 0.0 
-2.005275801183e-06 1.047643607646e-02 0.0 
-2.079720999577e-06 9.955074571733e-03 0.0 
0.0 1.233834097690e-02 0.0 
0.0 1.225966375815e-02 0.0 
0.0 1.212265492543e-02 0.0 
0.0 1.191814832711e-02 0.0 
0.0 1.165466125066e-02 0.0 
0.0 1.132271234939e-02 0.0 
0.0 1.093160034208e-02 0.0 
0.0 1.047190199652e-02 0.0 
0.0 9.953438223930e-03 0.0 
1.149654383116e-06 9.367621392039e-03 0.0 
4.554810234740e-07 9.367987964300e-03 0.0 
6.131153338707e-07 9.368351136795e-03 0.0 
7.407718227224e-07 9.367646280030e-03 0.0 
3.124320824242e-07 9.368641782539e-03 0.0 
1.174292275267e-07 9.368016261646e-03 0.0 
5.848596740997e-08 9.368324539293e-03 0.0 
-1.101240780775e-06 9.368028052029e-03 0.0 
-7.639916536030e-07 9.369372456179e-03 0.0 
-4.124520591855e-07 9.368871227376e-03 0.0 
-4.393598676994e-07 9.368705738726e-03 0.0 
-4.847771728596e-07 9.369562441778e-03 0.0 
-8.117107258583e-07 9.369877474595e-03 0.0 
-1.204194681026e-06 9.369620630574e-03 0.0 
1.601128382279e-06 1.235243590874e-02 0.0 
2.533279538764e-06 1.235418405210e-02 0.0 
4.152810510518e-06 1.235326796939e-02 0.0 
-6.295993270621e-07 1.235272314536e-02 0.0 
-1.067543953158e-06 1.235444627716e-02 0.0 
6.730569297529e-08 1.235440456945e-02 0.0 
8.457640620058e-07 1.235386605023e-02 0.0 
7.754618984811e-07 1.235366068024e-02 0.0 
4.342124820180e-07 1.235340997325e-02 0.0 
3.983364047056e-07 1.235406585781e-02 0.0 
-8.690225085673e-07 1.235399393972e-02 0.0 
-5.411925072145e-08 1.235546469198e-02 0.0 
3.609587316102e-06 1.235434178312e-02 0.0 
2.364534382465e-06 1.235290306437e-02 0.0 
2.138940740921e-07 1.235369559123e-02 0.0 
9.326676213457e-08 1.235424450023e-02 0.0 
1.206357880287e-06 1.235425696711e-02 0.0 
2.660516113604e-06 1.235477832990e-02 0.0 
3.907743388591e-07 1.235354730489e-02 0.0 
5.259769605337e-06 1.235086668237e-02 0.0 
5.600394866348e-06 1.235172283468e-02 0.0 
2.793067288169e-07 1.235338178357e-02 0.0 
4.858390906774e-07 1.235395454902e-02 0.0 
-3.124639555486e-07 1.235468783880e-02 0.0 
7.373785419394e-08 1.235526573879e-02 0.0 
2.888188363910e-07 1.235586180813e-02 0.0 
6.640373939818e-07 1.235613660909e-02 0.0 
8.592380798879e-07 1.235636376830e-02 0.0 
1.017943116802e-06 1.235654395117e-02 0.0 
1.102691440708e-06 1.235673632799e-02 0.0 
1.165216742099e-06 1.235692441133e-02 0.0 
1.205367164123e-06 1.235710281025e-02 0.0 
1.237864646471e-06 1.235725317378e-02 0.0 
1.265952186273e-06 1.235735999785e-02 0.0 
1.293829113685e-06 1.235740996008e-02 0.0 
1.323138595691e-06 1.235739540724e-02 0.0 
1.355865675149e-06 1.235731387701e-02 0.0 
1.393995913398e-06 1.235716802248e-02 0.0 
1.440673166876e-06 1.235696363121e-02 0.0 
1.501314649480e-06 1.235670579975e-02 0.0 
1.584070864031e-06 1.235639450560e-02 0.0 
1.698450562792e-06 1.235602086120e-02 0.0 
1.850721022355e-06 1.235556430187e-02 0.0 
2.031222479223e-06 1.235499266099e-02 0.0 
2.181458520509e-06 1.235427283637e-02 0.0 
2.112325029155e-06 1.235341832656e-02 0.0 
1.287959345494e-06 1.235270376446e-02 0.0 
-3.364052674550e-06 1.235142019027e-02 0.0 
1.615133714615e-06 1.233247241229e-02 0.0 
2.262622231833e-06 1.233021324664e-02 0.0 
1.738761946750e-06 1.233079021968e-02 0.0 
1.419335683232e-06 1.233153195486e-02 0.0 
1.272418724034e-06 1.233217842415e-02 0.0 
1.200238310462e-06 1.233270316747e-02 0.0 
1.163682786076e-06 1.233312859938e-02 0.0 
1.149326508416e-06 1.233348066042e-02 0.0 
1.152724440834e-06 1.233377678329e-02 0.0 
1.172065359553e-06 1.233402474975e-02 0.0 
1.205730081816e-06 1.233422471024e-02 0.0 
1.251084892533e-06 1.233437218731e-02 0.0 
1.303683247839e-06 1.233446164329e-02 0.0 
1.357349685081e-06 1.233449011457e-02 0.0 
1.404969965263e-06 1.233445875431e-02 0.0 
1.439557473468e-06 1.233437407003e-02 0.0 
1.453786809899e-06 1.233424613718e-02 0.0 
1.442409627577e-06 1.233409113714e-02 0.0 
1.397868911793e-06 1.233392173091e-02 0.0 
1.321960094711e-06 1.233375517510e-02 0.0 
1.193538247117e-06 1.233358761814e-02 0.0 
1.054177108775e-06 1.233342267602e-02 0.0 
8.300793231890e-07 1.233318031241e-02 0.0 
7.351125611584e-07 1.233280828238e-02 0.0 
2.866331146552e-07 1.233215982190e-02 0.0 
2.442556214400e-07 1.233147573883e-02 0.0 
-1.220296944674e-06 1.233163614526e-02 0.0 
1.459331880812e-07 1.232899671973e-02 0.0 
-7.060585960851e-07 1.225719273874e-02 0.0 
1.526379353251e-07 1.225899181724e-02 0.0 
1.055646086122e-06 1.225875622615e-02 0.0 
1.066198916646e-06 1.225951411555e-02 0.0 
1.339943764757e-06 1.225952578808e-02 0.0 
1.355695299100e-06 1.225975851167e-02 0.0 
1.431611882044e-06 1.225987202390e-02 0.0 
1.435833293503e-06 1.226005455867e-02 0.0 
1.447186918113e-06 1.226021615252e-02 0.0 
1.431546112134e-06 1.226037928500e-02 0.0 
1.405491735246e-06 1.226051443159e-02 0.0 
1.363800582282e-06 1.226061084077e-02 0.0 
1.313318294033e-06 1.226065406455e-02 0.0 
1.256442924826e-06 1.226063768594e-02 0.0 
1.198243689591e-06 1.226055891817e-02 0.0 
1.142717907580e-06 1.226042038970e-02 0.0 
1.093661313300e-06 1.226022850021e-02 0.0 
1.054401211041e-06 1.225998990644e-02 0.0 
1.028875428504e-06 1.225970776006e-02 0.0 
1.022563047160e-06 1.225938002625e-02 0.0 
1.044123192551e-06 1.225900011345e-02 0.0 
1.107906956506e-06 1.225856351608e-02 0.0 
1.236956404471e-06 1.225809170479e-02 0.0 
1.464493678164e-06 1.225771325623e-02 0.0 
1.836103899994e-06 1.225803044286e-02 0.0 
2.603058682983e-06 1.226293010753e-02 0.0 
1.052703770248e-07 1.212089404875e-02 0.0 
2.103619888883e-06 1.212280652306e-02 0.0 
1.480264756815e-06 1.212176464867e-02 0.0 
1.670366659554e-06 1.212241528115e-02 0.0 
1.470038496026e-06 1.212225215422e-02 0.0 
1.490860449617e-06 1.212257173693e-02 0.0 
1.426016053086e-06 1.212267627706e-02 0.0 
1.398486810806e-06 1.212288669246e-02 0.0 
1.352354655024e-06 1.212303331238e-02 0.0 
1.314109719997e-06 1.212317404688e-02 0.0 
1.271937086785e-06 1.212325625173e-02 0.0 
1.231126339114e-06 1.212328740940e-02 0.0 
1.187358928795e-06 1.212325366083e-02 0.0 
1.138724699381e-06 1.212315715122e-02 0.0 
1.084543086556e-06 1.212300222652e-02 0.0 
1.027943010401e-06 1.212279993993e-02 0.0 
9.728367875940e-07 1.212255921605e-02 0.0 
9.240556487971e-07 1.212228571989e-02 0.0 
8.885125399979e-07 1.212198229737e-02 0.0 
8.776297286371e-07 1.212165201618e-02 0.0 
9.097976512229e-07 1.212130677472e-02 0.0 
1.011137473316e-06 1.212098901299e-02 0.0 
1.200743867405e-06 1.212081511335e-02 0.0 
1.375893184637e-06 1.212089962767e-02 0.0 
8.104818172179e-07 1.211847188296e-02 0.0 
5.562039578226e-07 1.192222733496e-02 0.0 
7.919487265292e-07 1.191951301721e-02 0.0 
8.014507679779e-07 1.191932646781e-02 0.0 
7.584875701930e-07 1.191946189965e-02 0.0 
7.328769914535e-07 1.191971241510e-02 0.0 
7.410744612000e-07 1.192000103167e-02 0.0 
7.788556777807e-07 1.192029544017e-02 0.0 
8.353134448781e-07 1.192058176841e-02 0.0 
9.012904228879e-07 1.192085118427e-02 0.0 
9.699296246015e-07 1.192109595444e-02 0.0 
1.036465135203e-06 1.192130569004e-02 0.0 
1.095739429878e-06 1.192146706839e-02 0.0 
1.141775075970e-06 1.192156099324e-02 0.0 
1.184605738438e-06 1.192157838758e-02 0.0 
1.226077946133e-06 1.192151618563e-02 0.0 
1.293425218816e-06 1.192140111169e-02 0.0 
1.340071634693e-06 1.192121098817e-02 0.0 
1.453165553848e-06 1.192105140118e-02 0.0 
1.450905743157e-06 1.192075913023e-02 0.0 
1.669637853720e-06 1.192077594620e-02 0.0 
1.436131805924e-06 1.192009176979e-02 0.0 
2.109985893709e-06 1.192103103056e-02 0.0 
3.870787017296e-07 1.191934616718e-02 0.0 
1.105847040367e-07 1.165388637839e-02 0.0 
1.989847203385e-06 1.165600670105e-02 0.0 
1.466472373348e-06 1.165498547772e-02 0.0 
1.642008037542e-06 1.165577382386e-02 0.0 
1.422333741640e-06 1.165568607192e-02 0.0 
1.369937591086e-06 1.165606917203e-02 0.0 
1.240543899258e-06 1.165617293291e-02 0.0 
1.178532723368e-06 1.165634593471e-02 0.0 
1.127044273617e-06 1.165638354035e-02 0.0 
1.083511910235e-06 1.165634772130e-02 0.0 
1.015630779995e-06 1.165620835394e-02 0.0 
9.376177687513e-07 1.165601724232e-02 0.0 
8.586042781423e-07 1.165578928907e-02 0.0 
7.801799637113e-07 1.165553643138e-02 0.0 
7.047462919935e-07 1.165527224960e-02 0.0 
6.383393209756e-07 1.165500729909e-02 0.0 
5.963355208091e-07 1.165475696396e-02 0.0 
5.864831292879e-07 1.165452763941e-02 0.0 
6.030066230056e-07 1.165432897236e-02 0.0 
6.093830531581e-07 1.165416913832e-02 0.0 
5.201556209268e-07 1.165388622087e-02 0.0 
2.763330643514e-07 1.165065348654e-02 0.0 
2.340817410413e-07 1.132689114287e-02 0.0 
3.760477055552e-07 1.132452805597e-02 0.0 
4.280782401901e-07 1.132460612212e-02 0.0 
4.351180990272e-07 1.132477738397e-02 0.0 
4.390887852736e-07 1.132495330403e-02 0.0 
4.620187625619e-07 1.132514775410e-02 0.0 
5.193808763459e-07 1.132536922739e-02 0.0 
5.944108344523e-07 1.132563283883e-02 0.0 
6.696888693670e-07 1.132590745595e-02 0.0 
7.503075541160e-07 1.132617369726e-02 0.0 
8.495908992354e-07 1.132640869647e-02 0.0 
9.593753182121e-07 1.132661333124e-02 0.0 
1.051097123282e-06 1.132678327583e-02 0.0 
1.079805811311e-06 1.132678825271e-02 0.0 
1.194102643221e-06 1.132668796724e-02 0.0 
1.265613240509e-06 1.132636887475e-02 0.0 
1.628074745537e-06 1.132632431997e-02 0.0 
1.494561808296e-06 1.132563069741e-02 0.0 
2.141715375462e-06 1.132636080230e-02 0.0 
4.016789115489e-07 1.132467022619e-02 0.0 
4.529534434360e-07 1.093166597020e-02 0.0 
2.206857832032e-06 1.093363056975e-02 0.0 
1.395956536908e-06 1.093258940471e-02 0.0 
1.334142677298e-06 1.093355844714e-02 0.0 
1.066095028328e-06 1.093359226177e-02 0.0 
1.073083848731e-06 1.093389203379e-02 0.0 
9.384135268514e-07 1.093366561075e-02 0.0 
7.871940007988e-07 1.093343688806e-02 0.0 
6.393013407237e-07 1.093322401972e-02 0.0 
5.421325127147e-07 1.093299939557e-02 0.0 
4.938591326068e-07 1.093273042873e-02 0.0 
4.125946336059e-07 1.093243502994e-02 0.0 
3.427673338308e-07 1.093219154192e-02 0.0 
3.213465647597e-07 1.093203725308e-02 0.0 
3.305671600133e-07 1.093189109491e-02 0.0 
3.455386415603e-07 1.093174462469e-02 0.0 
3.637808496926e-07 1.093155446340e-02 0.0 
3.041202766566e-07 1.093110285508e-02 0.0 
1.515053084665e-07 1.092763578134e-02 0.0 
1.991635368366e-07 1.047603073258e-02 0.0 
3.531665917311e-07 1.047384840119e-02 0.0 
3.081354174495e-07 1.047414051521e-02 0.0 
3.079933393714e-07 1.047426221587e-02 0.0 
2.366063260417e-07 1.047440446670e-02 0.0 
1.934094465440e-07 1.047450173723e-02 0.0 
1.635339426483e-07 1.047459565978e-02 0.0 
2.684153650726e-07 1.047482636983e-02 0.0 
2.320775940336e-07 1.047526574175e-02 0.0 
2.605988626135e-07 1.047547728841e-02 0.0 
4.437740817395e-07 1.047562332960e-02 0.0 
6.272800561383e-07 1.047587806477e-02 0.0 
8.272960700385e-07 1.047616546530e-02 0.0 
1.119647881000e-06 1.047659778418e-02 0.0 
9.173122387255e-07 1.047574906389e-02 0.0 
1.855913398200e-06 1.047594401864e-02 0.0 
4.051637230324e-07 1.047412473083e-02 0.0 
1.231757176023e-07 9.953296869195e-03 0.0 
1.454819656757e-06 9.956519138721e-03 0.0 
5.837911113543e-07 9.955273980799e-03 0.0 
3.178171800797e-07 9.955099991340e-03 0.0 
2.063644412420e-07 9.954778009840e-03 0.0 
-3.559951100163e-08 9.954443343439e-03 0.0 
-1.696944902060e-07 9.954557895404e-03 0.0 
-6.450290698475e-08 9.954410369265e-03 0.0 
-1.537517942184e-07 9.953557758694e-03 0.0 
2.925655332402e-08 9.953693035457e-03 0.0 
8.317022764025e-08 9.953584034573e-03 0.0 
3.449530890199e-07 9.953641208990e-03 0.0 
3.207887009364e-07 9.953344420722e-03 0.0 
4.814512873201e-07 9.953444203701e-03 0.0 
6.296867971201e-07 9.952643699243e-03 0.0 
1.843016234872e-09 9.948599758361e-03 0.0 
3.042112427334e-06 1.235012008174e-02 0.0 
-1.118778190541e-06 1.230378202214e-02 0.0 
-1.256133436100e-06 1.219864577167e-02 0.0 
-8.512972587302e-07 1.203046127481e-02 0.0 
-1.347267624695e-06 1.179736415529e-02 0.0 
-1.884578847387e-06 1.149965844116e-02 0.0 
-8.363844966603e-07 1.113868765186e-02 0.0 
-6.482433594434e-07 1.071351677868e-02 0.0 
-8.127323077714e-07 1.022411696103e-02 0.0 
-5.589035649955e-07 9.670819159882e-03 0.0 
-1.311941267750e-06 1.221089346519e-02 0.0 
2.617023702454e-08 1.063006392777e-03 0.0 
2.831358619432e-08 1.233859103282e-02 0.0 
2.635062232305e-06 1.234150488273e-02 0.0 
-8.545731339706e-08 1.064202837969e-03 0.0 
-7.197382361912e-07 1.181517024579e-02 0.0 
-5.689184961591e-07 9.041358641476e-03 0.0 
-2.022595093316e-07 1.065318504703e-03 0.0 
-1.188214947801e-06 1.117719171506e-02 0.0 
2.629587186458e-07 1.037766840535e-03 0.0 
-1.267479039510e-06 1.027858675698e-02 0.0 
3.547693591888e-07 9.804559869648e-04 0.0 
2.402836532843e-06 1.233906907678e-02 0.0 
3.220051807638e-07 1.053627488069e-03 0.0 
-5.479256980630e-07 9.115579072579e-03 0.0 
4.326114290184e-07 1.112497311209e-02 0.0 
7.633138224104e-08 6.987692313753e-03 0.0 
1.079274229580e-07 1.100401280545e-03 0.0 
-2.687380608500e-07 1.049449638112e-03 0.0 
4.723026374256e-07 1.051681367491e-03 0.0 
-3.079101906970e-07 1.142853196503e-03 0.0 
1.916626317065e-07 1.024667413448e-03 0.0 
-7.699642130383e-07 8.797767086104e-03 0.0 
-1.343183244305e-06 8.786473372557e-03 0.0 
-1.041377646016e-07 8.770750651721e-03 0.0 
8.353341755037e-07 5.929458340494e-03 0.0 
-1.127740465849e-06 1.064743944404e-03 0.0 
1.448359633438e-06 1.234037817338e-02 0.0 
4.045815303803e-07 1.233866447920e-02 0.0 
1.841121154306e-07 4.086585392684e-03 0.0 
4.924797935236e-08 8.814046938966e-03 0.0 
3.867205418794e-07 1.203380859223e-02 0.0 
-4.520158153926e-08 1.210569293628e-03 0.0 
2.047118342663e-07 9.694183323158e-04 0.0 
-3.147696117457e-08 1.030988526563e-03 0.0 
1.247038652509e-07 1.126851843366e-03 0.0 
-5.309414181079e-07 1.011947099322e-03 0.0 
8.902725904837e-07 1.233845383605e-02 0.0 
-1.539448157258e-06 8.826645705085e-03 0.0 
-1.210049009814e-08 1.216323580244e-03 0.0 
-3.067921683779e-07 4.049861790379e-03 0.0 
-5.200061418082e-07 1.233795442146e-02 0.0 
2.388746544814e-07 1.022370255581e-02 0.0 
-6.792308782599e-07 8.566675963297e-04 0.0 
-8.135011101459e-07 1.152558891244e-02 0.0 
-1.270653152298e-06 1.204626468353e-02 0.0 
-1.147344332914e-06 1.076311025262e-02 0.0 
-1.200375618765e-06 9.730430818035e-03 0.0 
2.495631358997e-06 1.231863217719e-02 0.0 
8.647505437276e-07 7.532093776788e-03 0.0 
1.616350485588e-07 8.433870153439e-04 0.0 
-1.678574170550e-06 1.234257418865e-02 0.0 
-3.943776748645e-07 1.901079707440e-03 0.0 
-1.685185081680e-06 8.780274014888e-03 0.0 
-2.628158513851e-06 8.499000746633e-03 0.0 
-1.792047486043e-06 8.172740397703e-03 0.0 
-1.597402861091e-06 7.824714745780e-03 0.0 
-2.397175813119e-06 7.414673600235e-03 0.0 
-1.565851906425e-06 7.075376886895e-03 0.0 
-1.369497682874e-06 7.495731285666e-03 0.0 
-1.158753620854e-06 6.725139299980e-03 0.0 
-1.107740934254e-06 7.161808260442e-03 0.0 
-9.442042314381e-07 6.628888496798e-03 0.0 
-8.037013318215e-07 6.363029360842e-03 0.0 
-8.236213693163e-07 6.815453709770e-03 0.0 
-5.202356839891e-07 5.990781075228e-03 0.0 
-6.021934646884e-07 6.456067128003e-03 0.0 
-7.884700663419e-07 7.251198281022e-03 0.0 
-5.599778610387e-07 6.908276444608e-03 0.0 
-6.980396846908e-07 7.668184685238e-03 0.0 
-4.977358537301e-07 7.341077862345e-03 0.0 
-3.056926730447e-07 6.555127506885e-03 0.0 
-2.901859247853e-07 7.003857638495e-03 0.0 
-4.461622011905e-07 7.756092683726e-03 0.0 
-2.632128524603e-07 7.434499428755e-03 0.0 
-3.929704249509e-07 8.152476029943e-03 0.0 
-2.594502980764e-07 7.844743903193e-03 0.0 
-3.449221208430e-07 8.533303091679e-03 0.0 
-2.566757601919e-07 8.238504039363e-03 0.0 
-1.726058542451e-07 7.525259697339e-03 0.0 
-1.974028191760e-07 7.933709065124e-03 0.0 
-2.585631832067e-07 8.613987329882e-03 0.0 
-2.166860499160e-07 8.324262436616e-03 0.0 
-2.616979988720e-07 8.971841726525e-03 0.0 
-2.391328350650e-07 8.696725612816e-03 0.0 
-1.884760032036e-07 8.022261138043e-03 0.0 
-2.366373992176e-07 8.410526775446e-03 0.0 
-2.802627030272e-07 9.053057903251e-03 0.0 
-2.617962848495e-07 8.781565512955e-03 0.0 
-3.090712970527e-07 9.392609598212e-03 0.0 
-2.563417547297e-07 9.134704908117e-03 0.0 
-2.631482367097e-07 9.713874436880e-03 0.0 
-2.429309304383e-07 9.471520533222e-03 0.0 
-1.997448588607e-07 8.860750751634e-03 0.0 
-1.816422964460e-07 9.212071573563e-03 0.0 
-1.725733816457e-07 9.792507309083e-03 0.0 
-1.233851976628e-07 9.547920845203e-03 0.0 
-1.221864507236e-07 8.940234341859e-03 0.0 
-8.728958289248e-08 9.291916412336e-03 0.0 
-9.642439010475e-08 8.656452328217e-03 0.0 
-6.093606342060e-08 9.023939955637e-03 0.0 
-3.183881596171e-08 9.621814834206e-03 0.0 
-1.819396386784e-09 9.368919961190e-03 0.0 
-2.969037199117e-08 8.742870017251e-03 0.0 
2.782712471172e-08 9.107494512580e-03 0.0 
8.349061998659e-08 9.698844621852e-03 0.0 
1.280175298309e-07 9.448657681778e-03 0.0 
6.248155652245e-08 8.830819405213e-03 0.0 
1.402891389767e-07 9.189740318026e-03 0.0 
2.144991099898e-07 9.772265826145e-03 0.0 
2.236820109554e-07 9.526906420915e-03 0.0 
1.537758451177e-07 8.912120026190e-03 0.0 
2.107780889093e-07 9.270730364394e-03 0.0 
3.078649073684e-07 9.847059614620e-03 0.0 
2.625118862507e-07 9.604711444225e-03 0.0 
1.898149328118e-07 8.996910138429e-03 0.0 
2.000037287930e-07 9.351877382308e-03 0.0 
1.402136171851e-07 8.711880931224e-03 0.0 
2.767464722628e-07 9.926481258010e-03 0.0 
1.730951262631e-07 9.687370410289e-03 0.0 
2.810579919843e-07 1.023241175904e-02 0.0 
1.205103371062e-07 1.000424591693e-02 0.0 
-1.720957467866e-07 7.708073425648e-03 0.0 
2.241238924858e-07 1.051434245966e-02 0.0 
4.138677292434e-07 1.070742854901e-02 0.0 
1.715574973849e-08 1.030141821223e-02 0.0 
-1.769201189232e-08 9.763533129369e-03 0.0 
1.095462824241e-07 1.077628263559e-02 0.0 
-1.175903489542e-07 1.057839430074e-02 0.0 
2.121645492916e-08 1.101831704044e-02 0.0 
-2.922376976177e-07 9.965761152314e-03 0.0 
-7.496899976148e-08 6.190090121346e-03 0.0 
-2.594334122528e-07 1.083559191229e-02 0.0 
1.178091669187e-07 1.124038831929e-02 0.0 
3.313983340699e-07 1.139574634620e-02 0.0 
4.256517193364e-07 1.158235320355e-02 0.0 
-1.056576602980e-06 6.992217203284e-03 0.0 
-5.211055305972e-07 6.162153390794e-03 0.0 
-6.165920098885e-07 6.547219797813e-03 0.0 
-3.484277794453e-07 5.679156433970e-03 0.0 
-4.731856130677e-07 6.077553220431e-03 0.0 
1.975771088995e-07 1.144263427406e-02 0.0 
-3.853329533556e-07 5.488327295060e-03 0.0 
-2.214222932700e-07 5.263629329006e-03 0.0 
-5.352693307962e-07 8.449896494485e-03 0.0 
-2.894278457227e-07 9.235911578940e-03 0.0 
-9.792881252080e-08 8.270646670661e-03 0.0 
-3.146281713572e-07 1.036806171844e-02 0.0 
-6.547494225434e-07 1.064092352878e-02 0.0 
-3.745340408898e-07 1.014547282887e-02 0.0 
1.405759783792e-07 8.322208359232e-03 0.0 
1.244692918246e-07 8.008540492213e-03 0.0 
1.344040358872e-07 7.582692179933e-03 0.0 
1.418786086136e-07 7.241601795001e-03 0.0 
1.663541672263e-07 6.779584283380e-03 0.0 
1.826931875075e-07 6.411064582692e-03 0.0 
1.597213927863e-07 6.889036483039e-03 0.0 
2.182639787721e-07 6.030281426044e-03 0.0 
1.887655574040e-07 6.524543085301e-03 0.0 
2.079788711931e-07 5.913479655852e-03 0.0 
2.011056943085e-07 6.297479117339e-03 0.0 
2.830997724005e-07 5.637913942227e-03 0.0 
2.325438906460e-07 6.147592775584e-03 0.0 
3.455957532485e-07 5.233166133574e-03 0.0 
2.659741454066e-07 5.758362302480e-03 0.0 
1.773348000326e-07 6.638439053417e-03 0.0 
1.961491684756e-07 6.264726112740e-03 0.0 
1.405770501921e-07 7.109664291995e-03 0.0 
-4.997003060269e-08 7.959371763815e-03 0.0 
-2.076478505901e-08 7.538133896287e-03 0.0 
2.571633232001e-08 7.199928062117e-03 0.0 
5.719420755519e-08 6.743344200226e-03 0.0 
1.089207983550e-07 6.377620167739e-03 0.0 
1.436769490575e-07 5.886583356062e-03 0.0 
2.132080391612e-07 5.492120057380e-03 0.0 
1.305294787398e-07 6.000177331079e-03 0.0 
-3.088409117370e-07 5.604641584110e-03 0.0 
-1.243729621791e-07 1.009470808980e-02 0.0 
-1.784418162945e-07 1.031280297661e-02 0.0 
-8.476658452556e-08 1.058163708678e-02 0.0 
-1.386090502231e-07 1.077267266160e-02 0.0 
3.771117516779e-08 1.100826367598e-02 0.0 
-3.551187309765e-08 1.117369243707e-02 0.0 
2.721085487028e-07 1.137717675678e-02 0.0 
3.110115681736e-07 1.122448501072e-02 0.0 
6.940798510129e-07 1.156167467393e-02 0.0 
6.124741388325e-07 1.142274829687e-02 0.0 
1.137864475281e-06 1.172661241116e-02 0.0 
8.735381724186e-07 1.160358583493e-02 0.0 
-1.349399982915e-07 7.194556630965e-03 0.0 
5.280788429792e-08 6.267623432872e-03 0.0 
7.113720858948e-08 5.376384953463e-03 0.0 
3.073862675265e-08 5.773418431360e-03 0.0 
6.419089831027e-07 1.171036014510e-02 0.0 
2.392319566514e-07 5.356368853169e-03 0.0 
2.641838857987e-07 5.395756112536e-03 0.0 
2.161383641928e-07 5.803223281054e-03 0.0 
2.477572438924e-07 5.085869222270e-03 0.0 
6.015007825190e-07 1.174902010133e-02 0.0 
1.214142247472e-07 1.151615885885e-02 0.0 
-1.375370692363e-07 1.132879722742e-02 0.0 
-3.163022293084e-07 5.170722768373e-03 0.0 
-3.788818857096e-07 5.585724724221e-03 0.0 
3.357709961442e-07 4.859380082651e-03 0.0 
3.102294498387e-07 1.162499815499e-02 0.0 
3.058714187798e-07 5.109390487748e-03 0.0 
1.030018581192e-06 1.183912096973e-02 0.0 
1.272316056278e-07 5.878750659491e-03 0.0 
1.043180924488e-07 4.942217692810e-03 0.0 
1.284916728042e-07 7.345300191688e-03 0.0 
-5.252591641668e-08 4.847076549858e-03 0.0 
-1.943256940725e-08 5.275644666453e-03 0.0 
5.123794133402e-07 1.127042787059e-02 0.0 
7.327419378188e-07 1.146895494128e-02 0.0 
1.227221794541e-06 1.176579902968e-02 0.0 
1.266987271876e-06 1.163846261131e-02 0.0 
7.948040688724e-07 1.131832880372e-02 0.0 
1.087689933066e-06 1.151124766305e-02 0.0 
1.174420314682e-06 1.179706191730e-02 0.0 
1.061614885785e-06 1.168448254999e-02 0.0 
9.025110668328e-07 1.136771728621e-02 0.0 
9.000672647931e-07 1.155588707194e-02 0.0 
8.938111061422e-07 1.183912436820e-02 0.0 
8.024167643220e-07 1.172429804016e-02 0.0 
2.954084712774e-07 4.384019539585e-03 0.0 
1.488123600137e-06 1.197015617788e-02 0.0 
-8.539287793389e-07 7.983617177531e-03 0.0 
3.112288276088e-07 4.430724735003e-03 0.0 
2.388899809425e-07 4.555796695185e-03 0.0 
-2.775051376717e-07 4.640806820214e-03 0.0 
-2.877604786509e-07 5.072419361046e-03 0.0 
-2.661710878833e-07 5.993192520135e-03 0.0 
-2.793439934582e-07 5.493670363943e-03 0.0 
-2.276637031769e-07 4.536671752246e-03 0.0 
-3.537891790752e-07 4.974070271787e-03 0.0 
-3.317611454395e-07 5.905067993125e-03 0.0 
-4.570432766787e-07 5.400260157696e-03 0.0 
-3.874319414561e-07 6.304639545851e-03 0.0 
-4.803785842022e-07 5.814453850228e-03 0.0 
-4.828250131196e-07 4.874605144276e-03 0.0 
-5.242898357102e-07 5.304548162527e-03 0.0 
-4.533102258849e-07 6.217134170636e-03 0.0 
-6.035283779307e-07 5.722443866992e-03 0.0 
-5.443577272660e-07 6.607256671128e-03 0.0 
-7.326795883418e-07 6.127708049917e-03 0.0 
-4.783301238422e-07 5.207955759967e-03 0.0 
9.547526718477e-07 1.188616933263e-02 0.0 
1.479246115028e-07 5.611674406857e-03 0.0 
2.720640097801e-07 4.667065917113e-03 0.0 
-1.314764687632e-06 1.043293025397e-02 0.0 
4.881325276479e-07 9.909067552017e-03 0.0 
4.981832807342e-08 9.585953914493e-03 0.0 
-5.738078118233e-07 9.324370928899e-03 0.0 
-2.352725226469e-07 5.632978737892e-03 0.0 
-7.134513848669e-07 4.674479948334e-03 0.0 
-5.960522755049e-08 1.164151105517e-02 0.0 
-2.448152104674e-07 1.147210783190e-02 0.0 
-2.345261994726e-07 4.198140350968e-03 0.0 
-1.260719303863e-07 5.480579946161e-03 0.0 
1.726699096727e-07 6.381593391025e-03 0.0 
-2.995449895582e-07 9.559831480486e-03 0.0 
-3.073195797550e-07 9.798854920324e-03 0.0 
-3.166479623403e-07 1.008959638875e-02 0.0 
-3.070878031023e-07 1.031494877879e-02 0.0 
-3.695376826517e-07 1.002902878828e-02 0.0 
-3.970092356929e-07 1.057532796262e-02 0.0 
1.876659402658e-07 6.684213194780e-03 0.0 
-3.905319336402e-07 4.328819443189e-03 0.0 
5.643514466341e-07 1.153927508424e-02 0.0 
6.955705482857e-07 1.182708825932e-02 0.0 
7.040292034180e-08 4.515720553297e-03 0.0 
6.833671820875e-08 6.490978867071e-03 0.0 
-5.835259396162e-08 6.751231897469e-03 0.0 
-2.537919729453e-08 6.392229272215e-03 0.0 
1.023593752943e-07 5.912813655636e-03 0.0 
1.013398384719e-07 5.526308548289e-03 0.0 
2.459818350994e-07 5.010347695546e-03 0.0 
2.812458049921e-07 4.595265976374e-03 0.0 
7.205460810044e-08 5.127955186337e-03 0.0 
-1.325183557773e-07 4.294413792890e-03 0.0 
4.374405051819e-07 4.165943308258e-03 0.0 
-7.164704524216e-07 6.527861997216e-03 0.0 
-2.495739484986e-08 6.645278524142e-03 0.0 
7.858615777272e-07 1.121100526840e-02 0.0 
1.442076693838e-06 1.198214383872e-02 0.0 
3.093747955454e-07 1.197947513834e-02 0.0 
3.777792910160e-07 1.178501316524e-02 0.0 
1.118392450828e-07 1.148814794619e-02 0.0 
3.438272423294e-07 3.857116673355e-03 0.0 
3.955794193584e-07 4.043390679114e-03 0.0 
3.341343293169e-07 4.476734628731e-03 0.0 
-4.013269380467e-07 1.052174391612e-02 0.0 
-5.319186111154e-07 1.024610852794e-02 0.0 
-2.697183693345e-07 3.857086309166e-03 0.0 
-4.113239090309e-07 6.928658979699e-03 0.0 
-2.708629724646e-07 6.775160158965e-03 0.0 
-6.254873765607e-08 7.146945182120e-03 0.0 
2.747361408119e-07 1.203455871233e-02 0.0 
2.043972931820e-09 1.205581592556e-02 0.0 
-2.447471842080e-07 3.980404636800e-03 0.0 
-2.695922221390e-07 1.112792584036e-02 0.0 
-3.226764349673e-07 1.128568650939e-02 0.0 
1.954488171534e-06 1.205644156388e-02 0.0 
2.357442030221e-06 1.215335174405e-02 0.0 
-7.694813252003e-07 5.104656274632e-03 0.0 
-6.036671260287e-07 4.120755921909e-03 0.0 
-3.039436241351e-07 8.964489141118e-03 0.0 
-2.333788352460e-07 8.674739399434e-03 0.0 
4.621466347483e-07 4.300512543925e-03 0.0 
6.324630841052e-07 1.187272972293e-02 0.0 
-3.514438995766e-07 3.654336790733e-03 0.0 
1.180906338680e-07 6.117376602014e-03 0.0 
4.948822995701e-08 6.962937155000e-03 0.0 
-5.934237789491e-08 9.666372485775e-03 0.0 
-1.562572179721e-07 1.175734808530e-02 0.0 
2.409970837406e-07 1.189429065728e-02 0.0 
6.664130289357e-07 1.098762074724e-02 0.0 
8.105982733250e-07 1.159729151972e-02 0.0 
4.652679258433e-08 1.166467882527e-02 0.0 
3.559888718117e-07 3.263540369423e-03 0.0 
-1.622038946470e-07 3.516252801788e-03 0.0 
1.503354751384e-07 4.714723558362e-03 0.0 
5.264294739206e-08 5.643028592316e-03 0.0 
8.364727252469e-07 3.724985088870e-03 0.0 
6.108126780571e-07 1.208555838533e-02 0.0 
2.068412932219e-07 3.401178961910e-03 0.0 
-5.559017598658e-08 5.070106215235e-03 0.0 
3.406172777815e-07 3.517449766486e-03 0.0 
2.140437525282e-07 3.923388832136e-03 0.0 
-3.305981506553e-07 1.091259206210e-02 0.0 
-3.950086788311e-07 1.107459684125e-02 0.0 
-3.485226427028e-07 1.142812024400e-02 0.0 
-4.300236197555e-07 1.123148054409e-02 0.0 
-1.408311072687e-06 7.901285420189e-03 0.0 
-4.493409986399e-07 1.067344084715e-02 0.0 
-7.792514685705e-07 8.366235631844e-03 0.0 
-1.018271275222e-06 8.654583978847e-03 0.0 
-9.196114528294e-07 9.002735908541e-03 0.0 
-4.870348709169e-07 9.736144213748e-03 0.0 
-6.590603639242e-07 9.961228882083e-03 0.0 
-2.454594787435e-07 1.052239578967e-02 0.0 
-7.569298974882e-08 7.865370780574e-03 0.0 
-5.357204302591e-08 9.241728742648e-03 0.0 
8.501524024258e-08 7.452228098071e-03 0.0 
1.371588219655e-07 7.911829089157e-03 0.0 
-3.359519678258e-07 3.871786481327e-03 0.0 
-1.737753619168e-07 3.289445956871e-03 0.0 
-6.997713786428e-08 7.066993617848e-03 0.0 
-4.241873617118e-09 7.429097543265e-03 0.0 
7.046907691787e-07 1.196221863183e-02 0.0 
9.610146092697e-07 1.205152701691e-02 0.0 
9.958755269649e-08 8.414750915428e-03 0.0 
2.587979756681e-07 3.991017763704e-03 0.0 
-2.045738970505e-07 3.631290379344e-03 0.0 
-1.749039602012e-07 3.159848672039e-03 0.0 
-2.083334692762e-07 3.742826486444e-03 0.0 
6.612769365821e-07 3.719801802092e-03 0.0 
-3.495417457850e-08 1.037740189496e-02 0.0 
-8.560150113629e-09 7.638252653255e-03 0.0 
1.559477406531e-06 1.208263301946e-02 0.0 
-1.466633768616e-07 7.289868441639e-03 0.0 
1.451901243333e-06 1.215053570306e-02 0.0 
-5.026206181333e-08 5.712668293918e-03 0.0 
2.374092943468e-07 4.076897107277e-03 0.0 
4.588403549042e-07 3.486806496209e-03 0.0 
1.401483516692e-07 3.273902668159e-03 0.0 
-1.448205179541e-06 8.851899501095e-03 0.0 
-1.351108724561e-07 6.946696526384e-03 0.0 
-1.218903238161e-07 7.383730052241e-03 0.0 
-1.068294488123e-06 9.263049155475e-03 0.0 
-9.433490185919e-07 9.577812383294e-03 0.0 
-8.104629495570e-07 9.332205346985e-03 0.0 
-8.288189632253e-07 9.878977224544e-03 0.0 
5.567981114742e-07 1.080715338841e-02 0.0 
6.694314128579e-07 1.104559711727e-02 0.0 
4.795895752662e-07 2.977209107744e-03 0.0 
1.336656996835e-06 3.174437960641e-03 0.0 
-7.631671050732e-07 2.957131267736e-03 0.0 
-3.279767664391e-08 3.347507812270e-03 0.0 
-1.394393490386e-08 2.806245559238e-03 0.0 
-6.332476845733e-07 3.405780107938e-03 0.0 
-9.437419608813e-08 1.133876754345e-02 0.0 
-6.426111237590e-07 1.044345836423e-02 0.0 
2.865061894965e-08 2.922219145834e-03 0.0 
-1.183561685928e-06 8.935409352270e-03 0.0 
6.361468015554e-07 2.961580445596e-03 0.0 
4.769844766070e-07 3.542705748056e-03 0.0 
3.115636862330e-06 1.223139059799e-02 0.0 
1.662723727590e-06 1.217660542178e-02 0.0 
3.301217985246e-07 3.088867275470e-03 0.0 
-4.531248811823e-07 1.155384972069e-02 0.0 
-4.839107474577e-07 1.137872232038e-02 0.0 
-4.246437696734e-07 1.171338518615e-02 0.0 
-1.867055113541e-07 1.818562251176e-03 0.0 
-1.029618041047e-08 8.822385320917e-03 0.0 
4.063833845129e-07 3.020772843966e-03 0.0 
-5.721847051296e-07 9.414563938538e-03 0.0 
-4.956714878660e-07 2.551349276973e-03 0.0 
-7.699202752997e-08 6.592053512507e-03 0.0 
-2.909646584581e-07 9.878516627343e-03 0.0 
3.444934347672e-07 4.731626002342e-03 0.0 
-1.784832885855e-07 3.657671878714e-03 0.0 
5.265271547936e-08 2.456927078726e-03 0.0 
1.826950751103e-07 7.569841875419e-03 0.0 
9.742185089837e-07 7.926902457606e-03 0.0 
-2.617710158935e-07 7.224588045863e-03 0.0 
8.594034734623e-07 1.193606778105e-02 0.0 
1.145897426712e-06 1.214555903158e-02 0.0 
-3.148872607673e-07 3.763005709589e-03 0.0 
1.707285402962e-07 1.089430197129e-02 0.0 
-2.301121175273e-07 1.065379923156e-02 0.0 
6.942110763569e-07 1.177149424167e-02 0.0 
6.393766774360e-07 1.146766938048e-02 0.0 
-9.943793517826e-08 8.588447360981e-03 0.0 
-1.419137813319e-08 8.879998208383e-03 0.0 
1.688359210146e-07 5.314262895078e-03 0.0 
1.266797486366e-07 4.809230902918e-03 0.0 
4.685651714848e-08 6.291044526532e-03 0.0 
1.412627271385e-07 6.602455494563e-03 0.0 
6.598262687689e-08 7.414556508905e-03 0.0 
1.431811695504e-08 7.740987982142e-03 0.0 
1.421189191814e-07 2.840110996998e-03 0.0 
1.058046263649e-07 2.129677977528e-03 0.0 
4.316614269254e-07 1.055695520373e-02 0.0 
4.441691957946e-07 1.074969670895e-02 0.0 
4.778145672889e-07 1.062798625408e-02 0.0 
-6.904281402717e-07 2.450177410685e-03 0.0 
9.604609972561e-07 2.426619278929e-03 0.0 
7.957445358141e-07 2.918156703669e-03 0.0 
1.101076875391e-06 1.220983350272e-02 0.0 
2.337426096728e-07 1.212563613401e-02 0.0 
-1.094301856095e-07 1.198069722853e-02 0.0 
6.179703822420e-07 1.209028241518e-02 0.0 
1.740741668013e-08 2.719336995977e-03 0.0 
-2.852609127457e-07 3.283230721580e-03 0.0 
-2.673977500521e-07 2.059040927108e-03 0.0 
1.506476321314e-07 1.154919468567e-02 0.0 
1.393107688539e-07 5.226487593042e-03 0.0 
3.038245022422e-07 2.702020496291e-03 0.0 
1.043758798202e-06 3.178139135465e-03 0.0 
-6.118387528227e-08 2.091965703093e-03 0.0 
2.147927975836e-07 3.760709132882e-03 0.0 
4.819020507494e-07 2.728726740457e-03 0.0 
5.013588248475e-07 2.667200501648e-03 0.0 
2.368928380015e-06 1.227388583331e-02 0.0 
3.674349457649e-07 2.913619773895e-03 0.0 
-7.537928764530e-08 7.854887941961e-03 0.0 
4.148940203750e-06 1.230873669013e-02 0.0 
4.539583541208e-07 8.213914961695e-03 0.0 
9.594122680657e-07 7.783317533696e-03 0.0 
3.691007811404e-07 8.556006818082e-03 0.0 
-3.560733875493e-07 1.182206147613e-02 0.0 
-2.191089824998e-07 8.108494339351e-03 0.0 
-3.724456811378e-07 7.685520162228e-03 0.0 
-3.928146646629e-07 1.227874509801e-02 0.0 
1.802370596408e-08 1.833883064987e-03 0.0 
9.794087291307e-07 1.226728983293e-02 0.0 
2.058712098466e-06 1.222286152404e-02 0.0 
8.505787846183e-07 2.473289668129e-03 0.0 
6.502059066386e-07 3.077837176544e-03 0.0 
-4.984487773031e-07 1.993588911505e-03 0.0 
4.437593463388e-07 2.658922050065e-03 0.0 
6.801850046627e-07 3.686699995913e-03 0.0 
5.676156193591e-07 3.228443097663e-03 0.0 
1.180956771048e-07 8.322352302170e-03 0.0 
4.705469478334e-07 2.017079681187e-03 0.0 
4.212466369447e-07 2.734870703814e-03 0.0 
-3.194648796036e-07 1.556140143363e-03 0.0 
-1.127343863721e-06 1.008511145091e-02 0.0 
-7.561580738950e-07 1.103703158225e-02 0.0 
-1.492706449254e-06 1.119643224908e-02 0.0 
-3.389111299786e-07 1.152149876203e-02 0.0 
-1.608098087248e-07 2.149992821823e-03 0.0 
7.848043554392e-07 2.809711947997e-03 0.0 
1.103918278418e-07 4.626453420208e-03 0.0 
9.898186640099e-08 5.584229276946e-03 0.0 
5.404577455465e-07 8.180715206107e-03 0.0 
-2.320546554798e-10 8.211366975023e-03 0.0 
7.845309296275e-07 7.521349808706e-03 0.0 
3.394111607713e-07 7.608900787429e-03 0.0 
-3.566136144323e-07 6.886196146990e-03 0.0 
-4.042698694553e-07 6.981048510251e-03 0.0 
3.611272639126e-07 6.212786503069e-03 0.0 
-2.726307299559e-07 2.079635182759e-03 0.0 
-5.801913898101e-07 1.182557662631e-02 0.0 
-1.101441653504e-06 9.517110234374e-03 0.0 
-9.028464265704e-07 2.323171505302e-03 0.0 
-1.248116393821e-06 3.027428078676e-03 0.0 
-8.025693700844e-07 1.017269730191e-02 0.0 
-8.464782395282e-07 1.063843611456e-02 0.0 
3.383711013119e-07 2.180820241888e-03 0.0 
-3.669193561479e-07 1.048181742027e-02 0.0 
-2.316205972137e-07 1.187904353195e-03 0.0 
3.223235653035e-06 1.234121119851e-02 0.0 
3.061247129251e-06 1.228819928013e-02 0.0 
-3.694575128476e-07 1.020917316522e-02 0.0 
-6.975827118903e-07 9.650937829480e-03 0.0 
-4.409046889474e-07 1.079831875781e-02 0.0 
-2.088913464036e-07 1.094244366690e-02 0.0 
2.451513239249e-07 5.716018382030e-03 0.0 
-1.056377902132e-06 1.219260687555e-02 0.0 
-4.260600394086e-07 1.185500685133e-02 0.0 
-4.610207097158e-08 6.123829204134e-03 0.0 
-7.649920989973e-07 1.205943318066e-02 0.0 
1.054040931327e-07 5.070089261039e-03 0.0 
-2.895053370386e-07 1.025611323185e-02 0.0 
-3.949106450576e-07 9.164878498178e-03 0.0 
-3.061716376806e-07 1.160075901011e-02 0.0 
-5.798965502679e-07 1.082349505766e-02 0.0 
-1.053092836196e-06 7.583968924272e-03 0.0 
-1.948715725605e-06 8.206977940862e-03 0.0 
-1.367739549553e-06 8.582392066431e-03 0.0 
-2.211040036238e-07 1.002690678346e-02 0.0 
-5.245013405360e-07 1.069624959747e-02 0.0 
-1.660028828912e-07 1.110260725007e-02 0.0 
-6.372191221709e-07 8.069392469074e-03 0.0 
-1.806163677513e-07 4.303549572495e-03 0.0 
-1.510488643268e-07 3.851476491457e-03 0.0 
8.906663059770e-09 2.842361732642e-03 0.0 
9.853591047688e-08 3.396712124640e-03 0.0 
-1.183856016569e-07 4.405499198967e-03 0.0 
9.560826609630e-08 3.962522349028e-03 0.0 
3.326261377528e-07 2.945508906391e-03 0.0 
-7.824039804137e-08 3.511843662490e-03 0.0 
3.186674349193e-07 2.255499835335e-03 0.0 
-4.414383608379e-07 3.028728343457e-03 0.0 
-5.025836167522e-08 4.088296619465e-03 0.0 
-7.421020081000e-08 3.661683522599e-03 0.0 
-6.567811493673e-08 2.692307698861e-03 0.0 
-1.597887310467e-07 4.692553798739e-03 0.0 
1.791075194561e-07 1.726964076620e-03 0.0 
-3.251822952004e-07 9.650330632173e-03 0.0 
2.024091723674e-06 1.221455064592e-02 0.0 
9.057788549555e-07 1.223175355304e-02 0.0 
-4.755543058603e-07 8.812351581530e-03 0.0 
9.486740558896e-07 1.105495174777e-03 0.0 
-8.966365775213e-07 1.082679083357e-03 0.0 
-1.945641090518e-07 1.095756379683e-02 0.0 
-7.630971890973e-08 1.039456720288e-03 0.0 
-1.087518502246e-06 8.287252893135e-03 0.0 
5.379098838540e-07 1.168872083173e-02 0.0 
6.154360243736e-08 1.046762903517e-03 0.0 
-2.054776416519e-07 4.838226438053e-03 0.0 
-3.658684791921e-07 5.369132593787e-03 0.0 
-4.190111747903e-07 5.771608143136e-03 0.0 
-7.077310653628e-07 1.006735472885e-03 0.0 
6.955707148990e-08 6.859937452417e-03 0.0 
-6.344225387222e-07 9.826875916206e-04 0.0 
2.836129289894e-09 7.098031146567e-03 0.0 
-6.170520485321e-08 7.454268581831e-03 0.0 
-1.343190305496e-07 8.191045814435e-03 0.0 
-5.418724652474e-08 4.535360209035e-03 0.0 
2.083625299470e-07 1.047451804110e-03 0.0 
1.921923229477e-07 2.011733047418e-03 0.0 
-7.020489966460e-07 2.013797764759e-03 0.0 
4.321713654318e-08 3.012830941504e-03 0.0 
-4.112013525174e-08 1.043324809395e-03 0.0 
8.022997688773e-08 9.970495349443e-04 0.0 
1.122787868922e-07 9.487466613274e-04 0.0 
7.609847538480e-07 1.115979493588e-02 0.0 
4.581872715111e-07 1.093141903352e-02 0.0 
2.409724252039e-07 1.049339804058e-02 0.0 
2.148480320968e-07 1.068876830170e-02 0.0 
4.492977572152e-07 1.110663923418e-02 0.0 
2.519447962505e-07 1.087833822722e-02 0.0 
9.617798494572e-08 1.043380311428e-02 0.0 
2.912603491859e-07 1.105930607287e-02 0.0 
2.630840033123e-07 3.819721020684e-03 0.0 
1.820953203938e-07 1.006350979468e-03 0.0 
1.615705623711e-07 7.138280281048e-03 0.0 
1.567134882286e-07 7.493896895496e-03 0.0 
1.334918554820e-07 8.235692392508e-03 0.0 
-8.898956369639e-08 9.507820593796e-03 0.0 
-2.426738515314e-09 9.161924730120e-03 0.0 
3.011478746313e-08 8.498283308952e-03 0.0 
-2.116561957602e-07 9.836863232503e-03 0.0 
-1.301404871725e-08 6.022664747923e-03 0.0 
-6.421433803490e-07 1.016242975211e-03 0.0 
2.265273616719e-08 7.305236814693e-03 0.0 
6.913297191684e-08 9.432359634106e-03 0.0 
-7.176839673150e-07 8.812495397418e-03 0.0 
-2.343580753447e-06 8.215856929394e-03 0.0 
-1.559434751153e-06 8.201119101981e-03 0.0 
-1.324401462717e-06 7.472340888405e-03 0.0 
-1.707093317656e-06 8.130326593200e-03 0.0 
-5.523649161836e-08 8.282981518980e-03 0.0 
5.921118232832e-08 7.965656031826e-03 0.0 
-1.938035052864e-08 8.373543296165e-03 0.0 
2.011902751198e-07 7.636203337646e-03 0.0 
-1.744161422213e-08 8.057953900177e-03 0.0 
-1.040760727724e-07 8.745920417840e-03 0.0 
2.363572095003e-07 7.294222473623e-03 0.0 
-4.696734875068e-07 7.816863709663e-03 0.0 
-7.177301383954e-07 8.810416935529e-03 0.0 
1.454935357647e-06 1.233922707861e-02 0.0 
1.524061518308e-06 1.228494287648e-02 0.0 
1.055101861408e-06 1.228708618815e-02 0.0 
1.910688351409e-06 1.219577283372e-02 0.0 
1.326586261530e-06 1.218701328400e-02 0.0 
1.875605495508e-06 1.203547448876e-02 0.0 
2.096188408706e-06 1.205748778862e-02 0.0 
2.398966770331e-06 1.228560452651e-02 0.0 
5.876186123479e-07 1.233853456567e-02 0.0 
7.218866139029e-07 1.228833037679e-02 0.0 
4.003316956600e-07 1.233851535534e-02 0.0 
1.650097990941e-07 1.229023720222e-02 0.0 
6.405176818750e-07 1.217900483088e-02 0.0 
7.655592791060e-07 1.192368661998e-02 0.0 
-3.345813253750e-07 1.212732152619e-03 0.0 
1.203794091280e-07 9.669190934172e-03 0.0 
7.735964746006e-07 9.954451338288e-03 0.0 
-4.186488671409e-07 1.045744802528e-02 0.0 
-2.125054259266e-08 1.019246913161e-02 0.0 
-1.074824142196e-06 9.426086374237e-03 0.0 
8.512852782176e-08 1.070743603679e-02 0.0 
8.178701594283e-07 1.086300884545e-02 0.0 
-2.149928295150e-07 1.233931011108e-02 0.0 
-1.658111548159e-06 1.228840676113e-02 0.0 
-1.897020090366e-06 1.229742055335e-02 0.0 
-1.019990850547e-06 1.218977313925e-02 0.0 
-1.376337767530e-06 1.219231532800e-02 0.0 
-5.459448688266e-07 1.228619551561e-02 0.0 
2.383790395718e-07 1.228683398810e-02 0.0 
7.773108205028e-07 1.233918040822e-02 0.0 
1.134118174277e-06 1.228782426642e-02 0.0 
1.315289250831e-07 1.218647530865e-02 0.0 
1.950539578816e-06 1.233980579213e-02 0.0 
-3.393000863082e-07 5.000368362955e-03 0.0 
-2.318623457966e-07 4.515528466512e-03 0.0 
-8.639265322118e-07 1.083481113256e-03 0.0 
-6.961551986606e-07 8.753614961832e-03 0.0 
1.481431641959e-07 1.233929031412e-02 0.0 
-2.437349595465e-07 1.261703974731e-03 0.0 
-8.327618265432e-07 1.052033555067e-03 0.0 
4.955048019405e-07 1.017955190239e-03 0.0 
-1.363446679503e-07 2.981626029969e-03 0.0 
-1.378094197723e-07 2.442713071570e-03 0.0 
-1.167887937338e-06 1.225163325577e-03 0.0 
2.649975681460e-07 1.118928101059e-02 0.0 
-2.293594138402e-07 2.398841241606e-03 0.0 
-3.541207179156e-07 3.175322878282e-03 0.0 
2.959108253127e-07 1.179606477938e-02 0.0 
7.211372592197e-07 1.126597596832e-02 0.0 
-1.660679670859e-07 5.991581496174e-03 0.0 
1.465461983408e-07 6.996487385457e-03 0.0 
2.348079185854e-07 3.950159969344e-03 0.0 
1.959137742035e-07 6.751501041586e-03 0.0 
3.588477311925e-07 4.814594715568e-03 0.0 
-3.902709108902e-07 2.084653724715e-03 0.0 
6.005870650428e-07 1.191817015530e-02 0.0 
-2.292895614385e-07 6.691747203365e-03 0.0 
-4.780266547046e-07 6.987853806175e-03 0.0 
-4.670512176354e-07 4.774664710776e-03 0.0 
2.025119882596e-08 1.107335829960e-02 0.0 
-3.805776974115e-07 9.016132652423e-03 0.0 
8.660605638001e-07 1.185943660656e-02 0.0 
4.293788071241e-07 1.964260869190e-03 0.0 
-7.270391477236e-07 8.731235368469e-03 0.0 
1.522107821237e-07 8.624387701964e-03 0.0 
-1.468002916020e-07 1.007518088485e-02 0.0 
3.497477035476e-07 1.095741863224e-02 0.0 
8.130746519723e-07 1.141437851116e-02 0.0 
-2.756613030833e-07 9.316287391360e-03 0.0 
1.234779063309e-07 9.081986310793e-03 0.0 
2.243543513772e-07 5.517596229770e-03 0.0 
-4.583516098301e-07 4.225000316866e-03 0.0 
1.334874263370e-06 1.233602372025e-02 0.0 
2.444635724232e-07 4.984188121037e-03 0.0 
1.204708055358e-07 7.683003456724e-03 0.0 
-1.484477647586e-07 6.391103063535e-03 0.0 
1.580146781021e-07 4.968580986725e-03 0.0 
1.444125911103e-06 1.193088925141e-02 0.0 
-4.211008344915e-07 4.434417033598e-03 0.0 
-1.806211759186e-07 2.621659149619e-03 0.0 
3.757211413914e-07 7.305398728533e-03 0.0 
7.380379732865e-07 1.207796051202e-02 0.0 
3.125875036280e-07 7.518110353142e-03 0.0 
3.618250591503e-07 2.789269413019e-03 0.0 
-2.287958984349e-07 4.741803616054e-03 0.0 
9.384858154480e-08 1.129107726700e-02 0.0 
-6.248120840733e-08 8.361048487376e-03 0.0 
-2.940709922356e-07 8.893783358772e-03 0.0 
-5.467762995113e-07 9.431947229357e-03 0.0 
-4.532311522562e-08 2.724216209912e-03 0.0 
-2.051226388241e-07 8.112729626752e-03 0.0 
1.892384314963e-07 4.103806193592e-03 0.0 
5.671810569816e-08 6.850701698682e-03 0.0 
-1.250073244554e-07 1.111968237800e-02 0.0 
5.021618863674e-07 4.125986235670e-03 0.0 
-1.370408746102e-07 8.571345983051e-03 0.0 
-1.727303046489e-07 3.408759265992e-03 0.0 
1.927907304281e-07 5.415479328839e-03 0.0 
-8.171248446519e-08 9.864529332526e-03 0.0 
-1.571720708980e-07 4.089904538709e-03 0.0 
1.046937765876e-07 8.542286773675e-03 0.0 
-6.491000033600e-08 4.422789411626e-03 0.0 
-6.695306066520e-07 9.077749242153e-03 0.0 
-1.240305208339e-07 7.099142708296e-03 0.0 
-3.240567758603e-07 6.095254128076e-03 0.0 
-1.652557604570e-07 7.617110895086e-03 0.0 
-1.715214342527e-07 6.487057359904e-03 0.0 
2.792181109419e-07 4.561368277946e-03 0.0 
1.647681867232e-06 1.187248622188e-02 0.0 
-4.206188737283e-07 1.038214883920e-02 0.0 
-3.507266911226e-07 6.470626438903e-03 0.0 
6.032944811059e-07 3.633014990642e-03 0.0 
8.304869925906e-07 2.310897064284e-03 0.0 
-3.396791124140e-07 9.490590987140e-03 0.0 
4.312394346693e-07 4.691366584032e-03 0.0 
-3.307698215695e-07 3.074473476311e-03 0.0 
6.413743739827e-08 8.797961691913e-03 0.0 
-5.750536101158e-07 1.178914022819e-02 0.0 
1.182592993355e-06 1.201409337419e-02 0.0 
7.144695327335e-08 1.083028966602e-02 0.0 
-2.152037030187e-07 8.495645269854e-03 0.0 
7.940526716321e-08 8.102527782208e-03 0.0 
1.143521308144e-07 2.122260984242e-03 0.0 
4.585894734506e-07 4.260904641701e-03 0.0 
2.654239163089e-07 5.279830846427e-03 0.0 
1.749661262150e-07 1.227231986162e-02 0.0 
-1.120490571465e-06 9.189893603337e-03 0.0 
3.859490820536e-07 3.817048566397e-03 0.0 
-2.430278850621e-08 8.055986445610e-03 0.0 
-1.061301095355e-07 3.995695157350e-03 0.0 
1.117925778767e-07 8.470811329351e-03 0.0 
-6.470284850278e-07 1.990793095875e-03 0.0 
-9.460443004701e-07 1.036061722116e-02 0.0 
2.096026742326e-07 3.359921149713e-03 0.0 
2.272895884528e-07 5.199080513290e-03 0.0 
-2.933077899237e-07 1.072431603685e-02 0.0 
-5.347499431404e-08 8.821197669561e-03 0.0 
8.171887330884e-08 2.094586947550e-03 0.0 
4.673334111646e-07 4.165872487726e-03 0.0 
-1.098023804363e-07 6.851587628041e-03 0.0 
-8.475087997568e-09 8.453689399872e-03 0.0 
-9.718183696271e-07 1.001701369716e-02 0.0 
7.258620048112e-08 7.779646333999e-03 0.0 
-1.031053725108e-07 6.657478827695e-03 0.0 
4.806257555601e-07 9.794888968929e-04 0.0 
3.125962202426e-07 3.660098484487e-03 0.0 
-7.916724343944e-07 6.275261046704e-03 0.0 
3.829204148571e-09 8.195234122494e-03 0.0 
7.759476400165e-09 6.201748191977e-03 0.0 
-1.086872724529e-07 1.219102092259e-02 0.0 
-1.025995108113e-06 9.803440158848e-03 0.0 
3.902347720352e-08 7.877389474775e-03 0.0 
7.238994540354e-08 1.063855724182e-02 0.0 
2.047604855963e-08 8.152712513874e-03 0.0 
9.856154535101e-07 2.257590247083e-03 0.0 
1.273302028145e-07 7.546245100732e-03 0.0 
-8.342546113868e-09 1.015813551320e-02 0.0 
2.617335954531e-07 7.203038293396e-03 0.0 
-7.607625581976e-07 1.053463667422e-02 0.0 
-5.567644140156e-07 5.875410218226e-03 0.0 
3.072882985016e-07 6.847359415402e-03 0.0 
1.332613102406e-07 5.812143798017e-03 0.0 
8.773660914160e-07 1.217875672046e-02 0.0 
-9.776850811643e-08 6.499878551650e-03 0.0 
1.615702160129e-07 3.555947557608e-03 0.0 
3.959050788236e-07 1.043871652088e-02 0.0 
1.118325610114e-07 7.839159050291e-03 0.0 
-2.006350873076e-07 4.954941390249e-03 0.0 
-6.471696543381e-07 1.098902855050e-02 0.0 
1.303804369238e-07 7.061418996794e-03 0.0 
2.778042734602e-07 4.905040685012e-03 0.0 
1.905175779208e-08 6.130651758320e-03 0.0 
-1.336653844704e-07 7.794856744894e-03 0.0 
1.912419751451e-07 6.207274452339e-03 0.0 
-4.424804625967e-07 1.085526670844e-02 0.0 
4.831265596834e-07 1.134923961817e-02 0.0 
6.842775243236e-07 1.166217513356e-02 0.0 
2.431068952311e-08 9.931829285705e-03 0.0 
2.539032222326e-07 4.368332919386e-03 0.0 
-1.437483820505e-06 1.205377874833e-02 0.0 
-3.480002765340e-07 5.082113764566e-03 0.0 
5.058445198515e-07 1.201195117976e-02 0.0 
1.338339389461e-07 1.022156725600e-02 0.0 
9.400409679772e-08 4.724922851396e-03 0.0 
-3.099907471591e-07 6.769011943062e-03 0.0 
1.853789920463e-07 1.000015375870e-02 0.0 
-1.515634954514e-07 1.148720647935e-02 0.0 
3.015680890400e-07 1.028893432759e-02 0.0 
-5.959013735342e-08 7.026985312974e-03 0.0 
3.296663707749e-07 1.006969859729e-02 0.0 
4.442596856581e-07 1.035628642794e-02 0.0 
-9.310397843586e-07 2.110181491582e-03 0.0 
3.681228956532e-07 1.014509969648e-02 0.0 
-1.301092536937e-06 1.017743931192e-03 0.0 
1.319271550180e-07 1.104887181300e-03 0.0 
1.900758841163e-07 8.300285310017e-03 0.0 
-2.368546495481e-06 1.140369976682e-02 0.0 
1.600829644035e-06 1.234116845707e-02 0.0 
-1.815357356400e-06 1.126990638751e-02 0.0 
5.225291864379e-07 1.088143123501e-02 0.0 
-1.351677496228e-07 5.221296127247e-03 0.0 
3.931355282122e-07 8.266431738632e-03 0.0 
5.490838718044e-07 1.112011747308e-02 0.0 
4.205944081570e-07 1.982520119802e-03 0.0 
-4.182262135102e-07 9.744031551954e-04 0.0 
7.492338595140e-08 5.423795051088e-03 0.0 
-1.700206750221e-07 3.601929820259e-03 0.0 
3.052356799636e-08 5.708023090424e-03 0.0 
-8.286806195824e-08 3.019789546500e-03 0.0 
-3.596440191943e-08 8.868318129212e-03 0.0 
1.423532178998e-08 1.229192793166e-02 0.0 
1.104224903762e-07 6.017854054490e-03 0.0 
-1.042678586493e-06 1.172724422058e-02 0.0 
-6.872995143927e-07 1.169247124694e-02 0.0 
-7.843950434702e-07 1.195738576781e-02 0.0 
3.512481604721e-07 1.097605322804e-02 0.0 
1.326403086308e-06 1.219965502412e-02 0.0 
-6.134623477267e-07 1.193625972041e-02 0.0 
-5.615004712344e-07 2.073559734494e-03 0.0 
1.796067662254e-07 8.251770782929e-03 0.0 
3.971090431138e-07 4.283365378989e-03 0.0 
-1.003497969741e-06 1.213527474212e-02 0.0 
-9.193312428115e-07 2.044022759844e-03 0.0 
2.795372324189e-07 2.054561377981e-03 0.0 
8.475928253494e-07 9.600228341205e-04 0.0 
4.320794613341e-07 3.219691795067e-03 0.0 
-7.189474013201e-07 1.215668585226e-02 0.0 
-3.363667429790e-07 7.623504476218e-03 0.0 
2.052917216047e-07 1.947474461731e-03 0.0 
2.249368056055e-07 4.657697681974e-03 0.0 
-7.948606615680e-07 9.246174931772e-04 0.0 
-1.031953405615e-06 8.318576344773e-03 0.0 
-1.950256712992e-07 1.972165861039e-03 0.0 
2.517539223774e-06 1.199429808977e-02 0.0 
-9.947479629587e-07 1.913629062654e-03 0.0 
5.677235651113e-08 4.255776826808e-03 0.0 
2.095578583267e-07 7.355087102954e-03 0.0 
-2.314702015561e-06 7.661079175433e-03 0.0 
2.632182827168e-07 1.917094676701e-03 0.0 
-6.374020940386e-07 1.994227764593e-03 0.0 
3.754682631982e-07 1.223434126691e-02 0.0 
1.363321320100e-08 5.515860109976e-03 0.0 
-2.577879848030e-07 1.018336841713e-02 0.0 
3.332491552053e-06 1.229974103909e-02 0.0 
9.578108167952e-07 1.993710805501e-03 0.0 
4.612284505533e-07 3.262807051628e-03 0.0 
4.605248598373e-07 1.954098651693e-03 0.0 
-8.337356229791e-07 1.219978692694e-02 0.0 
-1.072970712842e-06 1.229839723831e-02 0.0 
-1.329175048025e-07 1.837727058516e-03 0.0 
-3.620986991756e-07 1.832400252902e-03 0.0 
1.987195690638e-06 1.187058987497e-02 0.0 
-3.911207646978e-07 8.288340980521e-04 0.0 
3.920419636696e-06 1.230592495101e-02 0.0 
-3.792551248050e-07 8.936846043809e-03 0.0 
2.511834472286e-06 1.229540384075e-02 0.0 
-4.098942976131e-08 9.370703675050e-04 0.0 
7.281169772898e-07 1.895620859116e-03 0.0 
-7.701870076448e-07 9.692773722928e-03 0.0 
-1.199210374202e-06 8.744938452057e-03 0.0 
3.826899689377e-07 1.124291078071e-02 0.0 
7.970704519599e-07 2.759423286742e-03 0.0 
-6.019173334863e-07 1.221246465510e-02 0.0 
-2.598014141457e-07 1.788609452654e-03 0.0 
-5.856223209760e-08 1.785313787795e-03 0.0 
-4.248575296808e-07 1.804754295813e-03 0.0 
-3.110273932772e-07 7.648275485166e-04 0.0 
1.461619969255e-06 1.230221568690e-02 0.0 
2.779203824048e-08 1.758203468635e-03 0.0 
6.847361784656e-07 2.784389729501e-03 0.0 
5.939835644488e-07 8.897631875718e-03 0.0 
4.534518982014e-07 1.941542553257e-03 0.0 
6.621742718541e-07 1.061670252303e-02 0.0 
1.209780441755e-06 1.205775290178e-02 0.0 
-2.767574493841e-07 9.021739969465e-04 0.0 
-1.548628832868e-06 1.234289824534e-02 0.0 
-1.796325843235e-07 8.897866601994e-03 0.0 
3.917722233064e-07 9.019238104089e-04 0.0 
-1.267527948686e-06 1.208694889588e-02 0.0 
3.322967468661e-07 7.758545396892e-03 0.0 
-4.904718313957e-08 1.760969732670e-03 0.0 
-9.565830540901e-07 8.353079588399e-03 0.0 
8.001209938278e-07 3.712568769714e-03 0.0 
9.429898316477e-07 1.209229264548e-02 0.0 
2.733195625506e-06 1.234423537895e-02 0.0 
2.635881830551e-07 6.342504869347e-03 0.0 
9.107999161838e-07 1.849530362143e-03 0.0 
-3.965217249716e-07 1.719376337760e-03 0.0 
2.057923090365e-07 6.913599506678e-03 0.0 
1.045732136873e-07 1.213981221333e-02 0.0 
2.041268473415e-07 2.479633587361e-03 0.0 
-9.633442340652e-07 9.233007162341e-03 0.0 
-1.018811510976e-07 2.684361780319e-03 0.0 
-9.702713961902e-07 2.795853758213e-03 0.0 
4.428514068318e-06 1.234159689440e-02 0.0 
5.182506094561e-07 7.625685758046e-03 0.0 
2.932560400557e-06 1.230008060642e-02 0.0 
1.950291842588e-07 1.780513272327e-03 0.0 
-1.297230485503e-06 8.945790572228e-03 0.0 
4.029124961855e-06 1.234812698704e-02 0.0 
-1.399516866143e-06 1.234977684654e-02 0.0 
4.631221651927e-07 1.230633070061e-02 0.0 
2.349961671315e-06 1.230672167260e-02 0.0 
5.039858015809e-07 1.220707692653e-02 0.0 
-2.293626918134e-07 1.219891652715e-02 0.0 
1.357746441259e-06 1.204504048331e-02 0.0 
1.523483965584e-06 1.202856585387e-02 0.0 
1.262837333910e-06 1.181550382494e-02 0.0 
-9.596229624170e-07 1.179460421128e-02 0.0 
9.730394837368e-07 1.152487772634e-02 0.0 
1.305210110661e-06 1.149694169097e-02 0.0 
1.459367269680e-06 1.116695711698e-02 0.0 
-1.083940804500e-06 1.113540697344e-02 0.0 
1.585764525735e-06 1.074979607045e-02 0.0 
1.258811102900e-06 1.071000654077e-02 0.0 
1.406306585571e-06 1.026249730829e-02 0.0 
-1.253201066564e-06 1.022065805655e-02 0.0 
1.545529512638e-06 9.719309949324e-03 0.0 
1.046015117955e-06 9.667666630193e-03 0.0 

TENSORS node_materi_stress float
-3.868141185047e+00 2.883328751898e-02 0.0 
2.883328751898e-02 -8.484309412121e+00 0.0 
0.0 0.0 -3.623988454230e+00 
-8.346399849609e+01 4.499497816177e-01 0.0 
4.499497816177e-01 -1.967151174456e+02 0.0 
0.0 0.0 -8.365373478250e+01 
-1.638986525384e+02 -3.907974350595e-01 0.0 
-3.907974350595e-01 -3.836052310804e+02 0.0 
0.0 0.0 -1.638511650856e+02 
-1.639111029782e+02 3.896326183688e-01 0.0 
3.896326183688e-01 -3.836835505108e+02 0.0 
0.0 0.0 -1.638783960467e+02 
-8.873278036795e+00 -2.463407989894e-01 0.0 
-2.463407989894e-01 -2.069461240524e+01 0.0 
0.0 0.0 -8.682535982665e+00 
-1.667035108762e+01 -5.697849882091e-01 0.0 
-5.697849882091e-01 -4.009237931993e+01 0.0 
0.0 0.0 -1.662881912227e+01 
-2.436669931317e+01 -4.332410711571e-01 0.0 
-4.332410711571e-01 -5.821054660352e+01 0.0 
0.0 0.0 -2.437317377501e+01 
-3.312667844728e+01 -3.785260986360e-01 0.0 
-3.785260986360e-01 -7.873126523915e+01 0.0 
0.0 0.0 -3.315738310593e+01 
-4.151031559924e+01 -2.788702453688e-01 0.0 
-2.788702453688e-01 -9.848349140960e+01 0.0 
0.0 0.0 -4.159814210265e+01 
-5.001808252220e+01 -2.632849254092e-01 0.0 
-2.632849254092e-01 -1.179769839115e+02 0.0 
0.0 0.0 -4.999851993012e+01 
-5.841425326700e+01 -2.916431527567e-01 0.0 
-2.916431527567e-01 -1.374635347953e+02 0.0 
0.0 0.0 -5.836333641868e+01 
-6.674131447020e+01 -2.607103174278e-01 0.0 
-2.607103174278e-01 -1.569527535171e+02 0.0 
0.0 0.0 -6.670822039620e+01 
-7.511011774192e+01 -2.605527185646e-01 0.0 
-2.605527185646e-01 -1.764602082927e+02 0.0 
0.0 0.0 -7.507109781040e+01 
-8.344707124893e+01 -3.330331871789e-01 0.0 
-3.330331871789e-01 -1.961788549610e+02 0.0 
0.0 0.0 -8.348777786299e+01 
-9.191096823210e+01 -5.016130420609e-01 0.0 
-5.016130420609e-01 -2.164160803135e+02 0.0 
0.0 0.0 -9.209811456368e+01 
-1.005084198346e+02 -5.324967594500e-01 0.0 
-5.324967594500e-01 -2.360391397004e+02 0.0 
0.0 0.0 -1.005642678605e+02 
-1.083749788547e+02 -6.941992328797e-01 0.0 
-6.941992328797e-01 -2.539203584140e+02 0.0 
0.0 0.0 -1.082886011806e+02 
-1.167232192972e+02 -2.717671691792e-01 0.0 
-2.717671691792e-01 -2.736086236895e+02 0.0 
0.0 0.0 -1.166995528960e+02 
-1.253917447416e+02 -2.582669054912e-01 0.0 
-2.582669054912e-01 -2.938272739983e+02 0.0 
0.0 0.0 -1.253657056220e+02 
-1.338116751372e+02 -2.653863835392e-01 0.0 
-2.653863835392e-01 -3.134506714952e+02 0.0 
0.0 0.0 -1.337787039897e+02 
-1.422586615011e+02 -2.446562560817e-01 0.0 
-2.446562560817e-01 -3.332472317098e+02 0.0 
0.0 0.0 -1.422517679633e+02 
-1.507639131997e+02 -3.039484068198e-01 0.0 
-3.039484068198e-01 -3.532168608601e+02 0.0 
0.0 0.0 -1.507942322179e+02 
-1.590470909165e+02 -3.921562592673e-01 0.0 
-3.921562592673e-01 -3.723283581999e+02 0.0 
0.0 0.0 -1.590126347349e+02 
-1.644269954686e+02 2.563897888977e-02 0.0 
2.563897888977e-02 -3.847601737810e+02 0.0 
0.0 0.0 -1.643561507749e+02 
-1.638527387157e+02 1.187300540082e-02 0.0 
1.187300540082e-02 -3.837247229026e+02 0.0 
0.0 0.0 -1.638732384855e+02 
-1.639776996243e+02 2.559645110191e-01 0.0 
2.559645110191e-01 -3.839810359708e+02 0.0 
0.0 0.0 -1.639876206785e+02 
-1.639206458942e+02 -1.214524447490e-01 0.0 
-1.214524447490e-01 -3.839425797628e+02 0.0 
0.0 0.0 -1.639589676971e+02 
-1.636394260869e+02 3.293214532504e-02 0.0 
3.293214532504e-02 -3.832946123253e+02 0.0 
0.0 0.0 -1.636802115237e+02 
-1.639576018062e+02 -5.141042088358e-03 0.0 
-5.141042088358e-03 -3.839093434982e+02 0.0 
0.0 0.0 -1.639600835913e+02 
-1.641499341127e+02 -1.273712508969e-02 0.0 
-1.273712508969e-02 -3.840931276745e+02 0.0 
0.0 0.0 -1.640729185362e+02 
-1.638426741519e+02 3.729330022564e-02 0.0 
3.729330022564e-02 -3.837348947047e+02 0.0 
0.0 0.0 -1.638732706570e+02 
-1.642001280604e+02 1.713370210621e-01 0.0 
1.713370210621e-01 -3.844256973437e+02 0.0 
0.0 0.0 -1.641877476212e+02 
-1.641280903557e+02 -1.107573293228e-01 0.0 
-1.107573293228e-01 -3.843543678291e+02 0.0 
0.0 0.0 -1.641447374554e+02 
-1.638395696775e+02 2.684596438088e-02 0.0 
2.684596438088e-02 -3.837009443087e+02 0.0 
0.0 0.0 -1.638621541959e+02 
-1.640772922850e+02 1.864581603595e-02 0.0 
1.864581603595e-02 -3.842406865261e+02 0.0 
0.0 0.0 -1.640953936433e+02 
-1.643592458227e+02 -1.068039027248e-04 0.0 
-1.068039027248e-04 -3.846034603570e+02 0.0 
0.0 0.0 -1.642888118539e+02 
-1.640546325377e+02 1.101171177521e-02 0.0 
1.101171177521e-02 -3.842174324724e+02 0.0 
0.0 0.0 -1.640816195030e+02 
-1.640254813473e+02 4.181886312631e-02 0.0 
4.181886312631e-02 -3.839282256147e+02 0.0 
0.0 0.0 -1.639861120886e+02 
-1.635984814838e+02 -4.002824450782e-02 0.0 
-4.002824450782e-02 -3.832240690406e+02 0.0 
0.0 0.0 -1.636467651573e+02 
-1.635147613514e+02 1.037195780165e-02 0.0 
1.037195780165e-02 -3.830558583697e+02 0.0 
0.0 0.0 -1.635711859163e+02 
-1.639485313636e+02 -6.279528920913e-03 0.0 
-6.279528920913e-03 -3.837120416052e+02 0.0 
0.0 0.0 -1.638981718906e+02 
-1.640406598841e+02 1.756876549349e-02 0.0 
1.756876549349e-02 -3.840903487753e+02 0.0 
0.0 0.0 -1.640393025978e+02 
-1.641876895739e+02 2.064441772114e-02 0.0 
2.064441772114e-02 -3.844444462165e+02 0.0 
0.0 0.0 -1.641896407371e+02 
-1.641265949409e+02 -6.721884471215e-02 0.0 
-6.721884471215e-02 -3.843312918093e+02 0.0 
0.0 0.0 -1.641373660251e+02 
-1.641000713308e+02 5.028795597867e-03 0.0 
5.028795597867e-03 -3.841556454509e+02 0.0 
0.0 0.0 -1.640767150345e+02 
-1.640415425368e+02 -1.220518709051e-02 0.0 
-1.220518709051e-02 -3.841058246903e+02 0.0 
0.0 0.0 -1.640442101681e+02 
-1.640010827198e+02 7.189062168748e-03 0.0 
7.189062168748e-03 -3.840210758575e+02 0.0 
0.0 0.0 -1.640066475732e+02 
-1.640646150570e+02 5.678073849885e-03 0.0 
5.678073849885e-03 -3.841898283993e+02 0.0 
0.0 0.0 -1.640763330369e+02 
-1.642425986871e+02 1.988426449280e-02 0.0 
1.988426449280e-02 -3.844278474064e+02 0.0 
0.0 0.0 -1.642011338281e+02 
-1.641663976937e+02 2.341424526333e-02 0.0 
2.341424526333e-02 -3.845105745773e+02 0.0 
0.0 0.0 -1.642030916813e+02 
-1.643358680899e+02 1.794723578562e-02 0.0 
1.794723578562e-02 -3.846166620180e+02 0.0 
0.0 0.0 -1.642857590324e+02 
-1.641296134252e+02 2.303487517916e-02 0.0 
2.303487517916e-02 -3.843919567349e+02 0.0 
0.0 0.0 -1.641564710480e+02 
-1.644729214319e+02 1.429082345151e-01 0.0 
1.429082345151e-01 -3.850665665193e+02 0.0 
0.0 0.0 -1.644618463854e+02 
-1.643076870687e+02 -1.394472185666e-01 0.0 
-1.394472185666e-01 -3.848207124301e+02 0.0 
0.0 0.0 -1.643385198497e+02 
-1.639187191434e+02 -4.518512616063e-02 0.0 
-4.518512616063e-02 -3.838285413139e+02 0.0 
0.0 0.0 -1.639241781372e+02 
-1.639216527251e+02 -1.294431940010e-03 0.0 
-1.294431940010e-03 -3.837831703395e+02 0.0 
0.0 0.0 -1.639114469194e+02 
-1.640454448463e+02 3.153427963075e-02 0.0 
3.153427963075e-02 -3.840937262384e+02 0.0 
0.0 0.0 -1.640417513254e+02 
-1.641344673157e+02 5.914489299829e-03 0.0 
5.914489299829e-03 -3.842170585244e+02 0.0 
0.0 0.0 -1.641054577520e+02 
-1.640371045036e+02 4.077043322231e-02 0.0 
4.077043322231e-02 -3.842250978110e+02 0.0 
0.0 0.0 -1.640786606944e+02 
-1.642381877795e+02 6.527985730125e-03 0.0 
6.527985730125e-03 -3.843957204720e+02 0.0 
0.0 0.0 -1.641901724754e+02 
-1.639755955159e+02 -1.884427001120e-04 0.0 
-1.884427001120e-04 -3.840549107610e+02 0.0 
0.0 0.0 -1.640091518831e+02 
-1.639870513616e+02 2.521331101371e-02 0.0 
2.521331101371e-02 -3.838146578539e+02 0.0 
0.0 0.0 -1.639405127647e+02 
-1.636557719569e+02 -9.182782680330e-03 0.0 
-9.182782680330e-03 -3.833597667308e+02 0.0 
0.0 0.0 -1.637046616063e+02 
-1.637901571661e+02 5.904066341793e-02 0.0 
5.904066341793e-02 -3.836926333948e+02 0.0 
0.0 0.0 -1.638448371683e+02 
-1.643207636631e+02 -4.441982681504e-02 0.0 
-4.441982681504e-02 -3.846471927214e+02 0.0 
0.0 0.0 -1.642903869153e+02 
-1.645379425296e+02 4.130817472335e-02 0.0 
4.130817472335e-02 -3.849675311606e+02 0.0 
0.0 0.0 -1.644516421070e+02 
-1.632232850747e+02 4.303487852853e-02 0.0 
4.303487852853e-02 -3.823472677942e+02 0.0 
0.0 0.0 -1.632711658607e+02 
-1.643190742204e+02 -1.624986791698e-02 0.0 
-1.624986791698e-02 -3.844989504445e+02 0.0 
0.0 0.0 -1.642454073995e+02 
-1.637549427157e+02 -3.380909298028e-03 0.0 
-3.380909298028e-03 -3.835930197050e+02 0.0 
0.0 0.0 -1.638043887262e+02 
-1.639894084420e+02 1.619738411078e-01 0.0 
1.619738411078e-01 -3.840715731284e+02 0.0 
0.0 0.0 -1.640182944711e+02 
-1.643361897537e+02 -6.736566217081e-02 0.0 
-6.736566217081e-02 -3.847690010378e+02 0.0 
0.0 0.0 -1.643315572374e+02 
-1.642542206358e+02 3.067475775986e-03 0.0 
3.067475775986e-03 -3.846658232372e+02 0.0 
0.0 0.0 -1.642760131619e+02 
-9.223226982972e+01 3.148224333563e-01 0.0 
3.148224333563e-01 -2.165357182015e+02 0.0 
0.0 0.0 -9.223039640938e+01 
-1.005125096457e+02 3.565167848153e-01 0.0 
3.565167848153e-01 -2.362176116812e+02 0.0 
0.0 0.0 -1.006190363981e+02 
-1.089153895013e+02 3.467316661962e-01 0.0 
3.467316661962e-01 -2.557040730318e+02 0.0 
0.0 0.0 -1.089858387599e+02 
-1.171122965148e+02 3.702113029338e-01 0.0 
3.702113029338e-01 -2.747924971449e+02 0.0 
0.0 0.0 -1.171714380979e+02 
-1.254650395904e+02 3.259882556174e-01 0.0 
3.259882556174e-01 -2.942850023230e+02 0.0 
0.0 0.0 -1.255250125740e+02 
-1.340287502638e+02 3.574979687676e-01 0.0 
3.574979687676e-01 -3.138533019833e+02 0.0 
0.0 0.0 -1.339646156741e+02 
-1.422725362766e+02 3.179345431000e-01 0.0 
3.179345431000e-01 -3.331767157714e+02 0.0 
0.0 0.0 -1.422347756144e+02 
-1.505096868640e+02 3.662434270776e-01 0.0 
3.662434270776e-01 -3.523676123519e+02 0.0 
0.0 0.0 -1.504631897648e+02 
-1.589725802235e+02 4.045255171434e-01 0.0 
4.045255171434e-01 -3.720390008801e+02 0.0 
0.0 0.0 -1.589034743311e+02 
-3.275874678929e+00 -5.575248834748e-02 0.0 
-5.575248834748e-02 -7.181856325761e+00 0.0 
0.0 0.0 -3.126663217835e+00 
-3.826213479585e+00 6.993529947134e-01 0.0 
6.993529947134e-01 -7.224891010827e+00 0.0 
0.0 0.0 -2.951018656742e+00 
-8.367715305262e+01 2.370300237329e-02 0.0 
2.370300237329e-02 -1.966983444369e+02 0.0 
0.0 0.0 -8.371264924687e+01 
-8.161353300153e+00 -6.697227396610e-02 0.0 
-6.697227396610e-02 -1.879331596306e+01 0.0 
0.0 0.0 -7.880595764235e+00 
-1.622590218999e+01 -1.154735216068e-01 0.0 
-1.154735216068e-01 -3.868232595695e+01 0.0 
0.0 0.0 -1.607246844408e+01 
-2.461340707290e+01 -1.007925387526e-01 0.0 
-1.007925387526e-01 -5.835599721294e+01 0.0 
0.0 0.0 -2.449082128575e+01 
-3.272391615446e+01 -7.312386128830e-02 0.0 
-7.312386128830e-02 -7.748184662637e+01 0.0 
0.0 0.0 -3.266172883425e+01 
-4.119732875586e+01 -7.115974029136e-02 0.0 
-7.115974029136e-02 -9.717914109085e+01 0.0 
0.0 0.0 -4.111294095401e+01 
-4.980852165619e+01 1.251517713230e-02 0.0 
1.251517713230e-02 -1.169916988644e+02 0.0 
0.0 0.0 -4.964006615619e+01 
-5.815679058425e+01 -6.199146722668e-03 0.0 
-6.199146722668e-03 -1.366297684846e+02 0.0 
0.0 0.0 -5.803596772064e+01 
-6.656277673785e+01 -4.430662115376e-03 0.0 
-4.430662115376e-03 -1.562925180246e+02 0.0 
0.0 0.0 -6.645658842874e+01 
-7.499306697051e+01 1.009003637161e-02 0.0 
1.009003637161e-02 -1.759768396183e+02 0.0 
0.0 0.0 -7.489097197664e+01 
-8.510224780308e+00 5.569070137537e-01 0.0 
5.569070137537e-01 -1.975342203387e+01 0.0 
0.0 0.0 -8.198973452747e+00 
-1.645404560354e+01 8.254012563118e-01 0.0 
8.254012563118e-01 -3.927961011524e+01 0.0 
0.0 0.0 -1.632009671563e+01 
-2.470567086660e+01 6.621900648643e-01 0.0 
6.621900648643e-01 -5.891284947081e+01 0.0 
0.0 0.0 -2.468555610122e+01 
-3.305528949692e+01 8.152428956504e-01 0.0 
8.152428956504e-01 -7.852265979538e+01 0.0 
0.0 0.0 -3.307338478769e+01 
-4.145183835603e+01 6.625144550385e-01 0.0 
6.625144550385e-01 -9.812791993741e+01 0.0 
0.0 0.0 -4.147392748803e+01 
-4.984983686009e+01 8.210978407679e-01 0.0 
8.210978407679e-01 -1.177363130637e+02 0.0 
0.0 0.0 -4.987584497712e+01 
-5.825495206096e+01 6.670677344650e-01 0.0 
6.670677344650e-01 -1.373458977520e+02 0.0 
0.0 0.0 -5.828025494390e+01 
-6.665908832170e+01 8.026373817643e-01 0.0 
8.026373817643e-01 -1.569335294900e+02 0.0 
0.0 0.0 -6.667778534350e+01 
-7.505433947576e+01 5.682922410746e-01 0.0 
5.682922410746e-01 -1.764108581644e+02 0.0 
0.0 0.0 -7.503955929204e+01 
-8.257249674720e+01 -2.207555857310e-01 0.0 
-2.207555857310e-01 -1.941095395408e+02 0.0 
0.0 0.0 -8.260461088641e+01 
-8.317975844183e+01 -1.766471871611e-02 0.0 
-1.766471871611e-02 -1.953119312299e+02 0.0 
0.0 0.0 -8.314750690152e+01 
-8.312420300908e+01 -1.831260229280e-02 0.0 
-1.831260229280e-02 -1.953562546987e+02 0.0 
0.0 0.0 -8.314413731233e+01 
-8.304337405706e+01 2.736386903730e-02 0.0 
2.736386903730e-02 -1.951181821571e+02 0.0 
0.0 0.0 -8.304846686426e+01 
-8.426422132819e+01 -1.978349800268e-02 0.0 
-1.978349800268e-02 -1.977593693738e+02 0.0 
0.0 0.0 -8.420707721060e+01 
-8.319982838747e+01 -2.284392000601e-02 0.0 
-2.284392000601e-02 -1.954206017796e+02 0.0 
0.0 0.0 -8.318612905013e+01 
-8.321462987320e+01 2.354297776861e-02 0.0 
2.354297776861e-02 -1.952208208474e+02 0.0 
0.0 0.0 -8.313063521617e+01 
-8.325012800319e+01 -4.850359841893e-02 0.0 
-4.850359841893e-02 -1.953932214949e+02 0.0 
0.0 0.0 -8.319300484942e+01 
-8.330838686474e+01 -1.085777561979e-02 0.0 
-1.085777561979e-02 -1.957967064228e+02 0.0 
0.0 0.0 -8.333152798626e+01 
-8.322758400870e+01 -5.192344017192e-02 0.0 
-5.192344017192e-02 -1.956811108552e+02 0.0 
0.0 0.0 -8.327260845918e+01 
-8.327761991227e+01 -2.978108333504e-02 0.0 
-2.978108333504e-02 -1.955901993880e+02 0.0 
0.0 0.0 -8.326034579007e+01 
-8.319270751384e+01 -1.530519801838e-02 0.0 
-1.530519801838e-02 -1.954846942564e+02 0.0 
0.0 0.0 -8.320322053107e+01 
-8.327104197166e+01 -6.373628734109e-02 0.0 
-6.373628734109e-02 -1.955269495352e+02 0.0 
0.0 0.0 -8.323939745206e+01 
-8.336837479069e+01 -8.649094289770e-02 0.0 
-8.649094289770e-02 -1.958141896150e+02 0.0 
0.0 0.0 -8.335476932172e+01 
-3.078352746918e+00 3.117778101893e-02 0.0 
3.117778101893e-02 -7.527090730802e+00 0.0 
0.0 0.0 -3.095532884934e+00 
-3.244151499640e+00 5.412906138424e-02 0.0 
5.412906138424e-02 -7.785731730490e+00 0.0 
0.0 0.0 -3.225835696634e+00 
-3.079327061439e+00 9.188555194169e-03 0.0 
9.188555194169e-03 -7.223319387181e+00 0.0 
0.0 0.0 -2.991212442333e+00 
-3.002938899689e+00 -1.398217085931e-02 0.0 
-1.398217085931e-02 -7.150241932005e+00 0.0 
0.0 0.0 -2.946096365244e+00 
-3.265826667397e+00 4.660865311158e-02 0.0 
4.660865311158e-02 -8.058844534068e+00 0.0 
0.0 0.0 -3.320179815490e+00 
-3.356783516438e+00 3.138725007983e-03 0.0 
3.138725007983e-03 -8.383982683269e+00 0.0 
0.0 0.0 -3.449213206824e+00 
-3.345384234084e+00 4.323946782345e-03 0.0 
4.323946782345e-03 -8.314096689966e+00 0.0 
0.0 0.0 -3.423336338175e+00 
-3.362835309114e+00 2.533315688715e-02 0.0 
2.533315688715e-02 -8.215069736209e+00 0.0 
0.0 0.0 -3.398120173346e+00 
-3.371609071339e+00 2.965998472159e-02 0.0 
2.965998472159e-02 -8.198850802912e+00 0.0 
0.0 0.0 -3.394442343205e+00 
-3.432922194777e+00 3.056672808545e-02 0.0 
3.056672808545e-02 -8.206855054227e+00 0.0 
0.0 0.0 -3.415879565625e+00 
-3.485979796587e+00 7.783472277869e-02 0.0 
7.783472277869e-02 -8.332227107651e+00 0.0 
0.0 0.0 -3.471137894917e+00 
-3.767536038899e+00 -2.542358984460e-02 0.0 
-2.542358984460e-02 -8.880622407736e+00 0.0 
0.0 0.0 -3.731116778659e+00 
-3.619205173117e+00 -9.656264199554e-02 0.0 
-9.656264199554e-02 -8.584219049911e+00 0.0 
0.0 0.0 -3.592917009149e+00 
-3.288296519090e+00 -6.153774148230e-02 0.0 
-6.153774148230e-02 -7.845876653620e+00 0.0 
0.0 0.0 -3.258476881362e+00 
-3.252582410421e+00 -2.776742360409e-02 0.0 
-2.776742360409e-02 -8.002557670897e+00 0.0 
0.0 0.0 -3.299504507942e+00 
-3.281621677272e+00 -2.299338920171e-02 0.0 
-2.299338920171e-02 -8.264558898081e+00 0.0 
0.0 0.0 -3.389605775038e+00 
-3.258773836257e+00 5.082821124992e-03 0.0 
5.082821124992e-03 -8.293925261055e+00 0.0 
0.0 0.0 -3.391193643311e+00 
-3.184320365405e+00 -5.237180219172e-02 0.0 
-5.237180219172e-02 -7.902751066655e+00 0.0 
0.0 0.0 -3.249014133508e+00 
-3.138783741038e+00 1.015336221119e-01 0.0 
1.015336221119e-01 -7.307937867714e+00 0.0 
0.0 0.0 -3.042432757015e+00 
-2.133206281538e+00 -7.123188040518e-02 0.0 
-7.123188040518e-02 -4.154703613245e+00 0.0 
0.0 0.0 -1.858700886766e+00 
-3.673729890072e+00 -7.018729318544e-02 0.0 
-7.018729318544e-02 -8.816029808524e+00 0.0 
0.0 0.0 -3.613594576246e+00 
-4.007361606508e+00 -1.694596036882e-03 0.0 
-1.694596036882e-03 -9.643990916066e+00 0.0 
0.0 0.0 -4.050961312328e+00 
-3.879217626557e+00 -3.082414713556e-02 0.0 
-3.082414713556e-02 -9.524615743826e+00 0.0 
0.0 0.0 -3.976705566671e+00 
-3.952091106996e+00 -1.301434291610e-02 0.0 
-1.301434291610e-02 -9.622450923323e+00 0.0 
0.0 0.0 -4.027918164651e+00 
-3.944921556258e+00 -9.854931169733e-03 0.0 
-9.854931169733e-03 -9.573861884137e+00 0.0 
0.0 0.0 -4.011190587674e+00 
-3.965286365865e+00 -4.462294452327e-03 0.0 
-4.462294452327e-03 -9.602872597316e+00 0.0 
0.0 0.0 -4.026003244510e+00 
-3.963936341671e+00 -1.788259256027e-03 0.0 
-1.788259256027e-03 -9.592130030529e+00 0.0 
0.0 0.0 -4.022375467216e+00 
-3.970573028518e+00 -2.628816314904e-03 0.0 
-2.628816314904e-03 -9.604179799711e+00 0.0 
0.0 0.0 -4.027981404024e+00 
-3.976513306918e+00 -5.244821461172e-03 0.0 
-5.244821461172e-03 -9.600739855781e+00 0.0 
0.0 0.0 -4.028731504365e+00 
-3.986420768023e+00 -7.484689347818e-03 0.0 
-7.484689347818e-03 -9.601788069134e+00 0.0 
0.0 0.0 -4.032018206703e+00 
-3.996936068948e+00 -8.384219977285e-03 0.0 
-8.384219977285e-03 -9.599620397934e+00 0.0 
0.0 0.0 -4.034522495620e+00 
-4.007606217738e+00 -8.170392999442e-03 0.0 
-8.170392999442e-03 -9.599155497678e+00 0.0 
0.0 0.0 -4.037584070180e+00 
-4.017033784291e+00 -6.999711073972e-03 0.0 
-6.999711073972e-03 -9.598241526972e+00 0.0 
0.0 0.0 -4.040138148934e+00 
-4.024449748057e+00 -5.167541834671e-03 0.0 
-5.167541834671e-03 -9.597787989133e+00 0.0 
0.0 0.0 -4.042226876713e+00 
-4.029214655915e+00 -2.892879529754e-03 0.0 
-2.892879529754e-03 -9.597414995123e+00 0.0 
0.0 0.0 -4.043544450867e+00 
-4.031037621906e+00 -4.580607211910e-04 0.0 
-4.580607211910e-04 -9.597280060819e+00 0.0 
0.0 0.0 -4.044050860373e+00 
-4.029875806466e+00 1.921955991449e-03 0.0 
1.921955991449e-03 -9.597272633025e+00 0.0 
0.0 0.0 -4.043700087403e+00 
-4.025924142575e+00 4.075352416453e-03 0.0 
4.075352416453e-03 -9.597380473487e+00 0.0 
0.0 0.0 -4.042546940374e+00 
-4.019495634664e+00 5.958669679310e-03 0.0 
5.958669679310e-03 -9.597472861528e+00 0.0 
0.0 0.0 -4.040646104413e+00 
-4.010802167160e+00 7.707556760618e-03 0.0 
7.707556760618e-03 -9.597366363233e+00 0.0 
0.0 0.0 -4.038006114674e+00 
-3.999719960606e+00 9.642542940560e-03 0.0 
9.642542940560e-03 -9.596862032986e+00 0.0 
0.0 0.0 -4.034530153633e+00 
-3.985617150193e+00 1.222159544690e-02 0.0 
1.222159544690e-02 -9.595763270073e+00 0.0 
0.0 0.0 -4.029969681635e+00 
-3.967234259575e+00 1.598146147146e-02 0.0 
1.598146147146e-02 -9.593819174051e+00 0.0 
0.0 0.0 -4.023871585643e+00 
-3.942646562783e+00 2.141345830673e-02 0.0 
2.141345830673e-02 -9.590680691678e+00 0.0 
0.0 0.0 -4.015553731894e+00 
-3.909601643806e+00 2.847175026456e-02 0.0 
2.847175026456e-02 -9.586044105040e+00 0.0 
0.0 0.0 -4.004249280209e+00 
-3.869891323077e+00 3.250727646025e-02 0.0 
3.250727646025e-02 -9.582984699759e+00 0.0 
0.0 0.0 -3.991418362407e+00 
-3.903778489279e+00 -3.919435921064e-02 0.0 
-3.919435921064e-02 -9.651052216431e+00 0.0 
0.0 0.0 -4.022004767268e+00 
-4.036522793118e+00 -1.971772083224e-01 0.0 
-1.971772083224e-01 -9.362753360926e+00 0.0 
0.0 0.0 -3.808101510002e+00 
-8.480478286162e+00 -3.921638637695e-01 0.0 
-3.921638637695e-01 -1.969549616770e+01 0.0 
0.0 0.0 -8.246361947807e+00 
-8.324126518633e+00 4.908160234323e-02 0.0 
4.908160234323e-02 -1.960734991547e+01 0.0 
0.0 0.0 -8.346584387962e+00 
-8.327483834065e+00 3.463422280191e-02 0.0 
3.463422280191e-02 -1.968784226816e+01 0.0 
0.0 0.0 -8.403244238444e+00 
-8.351007347906e+00 3.094597301000e-02 0.0 
3.094597301000e-02 -1.970080839606e+01 0.0 
0.0 0.0 -8.412380782115e+00 
-8.368885687485e+00 2.547837838770e-02 0.0 
2.547837838770e-02 -1.970152929238e+01 0.0 
0.0 0.0 -8.417287941056e+00 
-8.382473409725e+00 2.014000341224e-02 0.0 
2.014000341224e-02 -1.970258947879e+01 0.0 
0.0 0.0 -8.421350020087e+00 
-8.393178252863e+00 1.583355126818e-02 0.0 
1.583355126818e-02 -1.970372916324e+01 0.0 
0.0 0.0 -8.424735899184e+00 
-8.401887044892e+00 1.258074676807e-02 0.0 
1.258074676807e-02 -1.970458353989e+01 0.0 
0.0 0.0 -8.427527565522e+00 
-8.409114236984e+00 1.006026153333e-02 0.0 
1.006026153333e-02 -1.970502761637e+01 0.0 
0.0 0.0 -8.429803876050e+00 
-8.415076809518e+00 7.869902697545e-03 0.0 
7.869902697545e-03 -1.970506211161e+01 0.0 
0.0 0.0 -8.431607697386e+00 
-8.419739520013e+00 5.647997117688e-03 0.0 
5.647997117688e-03 -1.970476664569e+01 0.0 
0.0 0.0 -8.432935202637e+00 
-8.422874012412e+00 3.159994169438e-03 0.0 
3.159994169438e-03 -1.970431289361e+01 0.0 
0.0 0.0 -8.433751429639e+00 
-8.424174708928e+00 3.880195043088e-04 0.0 
3.880195043088e-04 -1.970389853525e+01 0.0 
0.0 0.0 -8.434014197249e+00 
-8.423428527646e+00 -2.509064385966e-03 0.0 
-2.509064385966e-03 -1.970370067847e+01 0.0 
0.0 0.0 -8.433706786190e+00 
-8.420594454538e+00 -5.282283054674e-03 0.0 
-5.282283054674e-03 -1.970372020597e+01 0.0 
0.0 0.0 -8.432829277611e+00 
-8.415845902989e+00 -7.726573402334e-03 0.0 
-7.726573402334e-03 -1.970417126892e+01 0.0 
0.0 0.0 -8.431472954782e+00 
-8.409463765202e+00 -9.498038177467e-03 0.0 
-9.498038177467e-03 -1.970466783179e+01 0.0 
0.0 0.0 -8.429665050922e+00 
-8.402058890515e+00 -1.056179243150e-02 0.0 
-1.056179243150e-02 -1.970604501808e+01 0.0 
0.0 0.0 -8.427724107814e+00 
-8.394021578193e+00 -1.042641927246e-02 0.0 
-1.042641927246e-02 -1.970619145040e+01 0.0 
0.0 0.0 -8.425403067683e+00 
-8.386405096293e+00 -9.716613962602e-03 0.0 
-9.716613962602e-03 -1.970995840297e+01 0.0 
0.0 0.0 -8.423892561835e+00 
-8.379254112773e+00 -6.346204719687e-03 0.0 
-6.346204719687e-03 -1.970637376048e+01 0.0 
0.0 0.0 -8.421230988041e+00 
-8.375255989625e+00 -5.051745747135e-03 0.0 
-5.051745747135e-03 -1.971554978134e+01 0.0 
0.0 0.0 -8.421845324795e+00 
-8.371027085280e+00 -5.970807095900e-04 0.0 
-5.970807095900e-04 -1.969034144613e+01 0.0 
0.0 0.0 -8.415693506303e+00 
-8.368120899826e+00 -1.257849478433e-02 0.0 
-1.257849478433e-02 -1.972577510307e+01 0.0 
0.0 0.0 -8.421535314058e+00 
-8.350314933404e+00 -2.916634267214e-03 0.0 
-2.916634267214e-03 -1.965134295069e+01 0.0 
0.0 0.0 -8.401811351056e+00 
-8.365214635137e+00 -4.748349164725e-02 0.0 
-4.748349164725e-02 -1.976908185937e+01 0.0 
0.0 0.0 -8.410531820514e+00 
-8.742306112446e+00 2.135279826177e-02 0.0 
2.135279826177e-02 -2.062604092390e+01 0.0 
0.0 0.0 -8.715266015666e+00 
-7.597123178344e+00 -2.071028813050e-02 0.0 
-2.071028813050e-02 -1.703172637336e+01 0.0 
0.0 0.0 -7.350745100716e+00 
-1.562363064138e+01 -7.545499239041e-02 0.0 
-7.545499239041e-02 -3.664109932188e+01 0.0 
0.0 0.0 -1.529410630558e+01 
-1.678613504534e+01 -1.773917947637e-02 0.0 
-1.773917947637e-02 -4.019252207687e+01 0.0 
0.0 0.0 -1.674540777684e+01 
-1.634266941267e+01 -6.468961373121e-02 0.0 
-6.468961373121e-02 -3.925192845680e+01 0.0 
0.0 0.0 -1.636194874875e+01 
-1.625158343275e+01 -8.083650338282e-04 0.0 
-8.083650338282e-04 -3.919088143905e+01 0.0 
0.0 0.0 -1.631227781050e+01 
-1.629041787460e+01 -1.458220702949e-02 0.0 
-1.458220702949e-02 -3.925552562551e+01 0.0 
0.0 0.0 -1.634455847931e+01 
-1.628378867806e+01 -8.905106314707e-03 0.0 
-8.905106314707e-03 -3.923773591179e+01 0.0 
0.0 0.0 -1.633549248542e+01 
-1.629916179539e+01 -1.778762325547e-02 0.0 
-1.778762325547e-02 -3.924763741965e+01 0.0 
0.0 0.0 -1.634345479152e+01 
-1.630335292733e+01 -1.694925406926e-02 0.0 
-1.694925406926e-02 -3.923938235700e+01 0.0 
0.0 0.0 -1.634203214535e+01 
-1.631105380520e+01 -1.834569904782e-02 0.0 
-1.834569904782e-02 -3.923949376295e+01 0.0 
0.0 0.0 -1.634468525367e+01 
-1.631687434875e+01 -1.655037078897e-02 0.0 
-1.655037078897e-02 -3.923626852447e+01 0.0 
0.0 0.0 -1.634555025792e+01 
-1.632287346342e+01 -1.427865478513e-02 0.0 
-1.427865478513e-02 -3.923477862144e+01 0.0 
0.0 0.0 -1.634707788938e+01 
-1.632752993071e+01 -1.035434883636e-02 0.0 
-1.035434883636e-02 -3.923308409503e+01 0.0 
0.0 0.0 -1.634807577928e+01 
-1.633088122570e+01 -5.910956711135e-03 0.0 
-5.910956711135e-03 -3.923228922686e+01 0.0 
0.0 0.0 -1.634894292847e+01 
-1.633240854273e+01 -1.035370294798e-03 0.0 
-1.035370294798e-03 -3.923191590138e+01 0.0 
0.0 0.0 -1.634934647047e+01 
-1.633209006363e+01 3.639456234254e-03 0.0 
3.639456234254e-03 -3.923219156957e+01 0.0 
0.0 0.0 -1.634936096068e+01 
-1.633019098315e+01 7.729384638428e-03 0.0 
7.729384638428e-03 -3.923287711972e+01 0.0 
0.0 0.0 -1.634898803051e+01 
-1.632716863365e+01 1.104579693758e-02 0.0 
1.104579693758e-02 -3.923355828414e+01 0.0 
0.0 0.0 -1.634825633820e+01 
-1.632336960664e+01 1.383149338281e-02 0.0 
1.383149338281e-02 -3.923375011291e+01 0.0 
0.0 0.0 -1.634715214585e+01 
-1.631908198897e+01 1.652692202399e-02 0.0 
1.652692202399e-02 -3.923319055061e+01 0.0 
0.0 0.0 -1.634571836090e+01 
-1.631460444246e+01 1.965212581999e-02 0.0 
1.965212581999e-02 -3.923178293538e+01 0.0 
0.0 0.0 -1.634405516668e+01 
-1.631035685708e+01 2.376814866916e-02 0.0 
2.376814866916e-02 -3.922966003577e+01 0.0 
0.0 0.0 -1.634238878463e+01 
-1.630706317624e+01 2.946145146618e-02 0.0 
2.946145146618e-02 -3.922745132825e+01 0.0 
0.0 0.0 -1.634123784086e+01 
-1.630626443755e+01 3.732507817577e-02 0.0 
3.732507817577e-02 -3.922687369504e+01 0.0 
0.0 0.0 -1.634182983469e+01 
-1.631153361055e+01 4.576668776831e-02 0.0 
4.576668776831e-02 -3.923128307014e+01 0.0 
0.0 0.0 -1.634721635980e+01 
-1.633356729092e+01 -8.394487917647e-03 0.0 
-8.394487917647e-03 -3.923823903800e+01 0.0 
0.0 0.0 -1.636815431150e+01 
-1.640183341798e+01 -2.592958896249e-01 0.0 
-2.592958896249e-01 -3.925471448695e+01 0.0 
0.0 0.0 -1.633710554193e+01 
-2.394647636177e+01 -1.072024090472e-01 0.0 
-1.072024090472e-01 -5.615572572604e+01 0.0 
0.0 0.0 -2.363066062634e+01 
-2.509344071472e+01 1.948376673978e-02 0.0 
1.948376673978e-02 -5.975108888026e+01 0.0 
0.0 0.0 -2.505335887849e+01 
-2.462026756200e+01 -4.932447545489e-02 0.0 
-4.932447545489e-02 -5.891454586146e+01 0.0 
0.0 0.0 -2.466044402704e+01 
-2.453972249978e+01 -1.058678632428e-02 0.0 
-1.058678632428e-02 -5.883241851742e+01 0.0 
0.0 0.0 -2.461164230516e+01 
-2.458545134734e+01 -2.763352746306e-02 0.0 
-2.763352746306e-02 -5.889153893802e+01 0.0 
0.0 0.0 -2.464309708561e+01 
-2.457445929626e+01 -2.166405322422e-02 0.0 
-2.166405322422e-02 -5.885745014882e+01 0.0 
0.0 0.0 -2.462957283352e+01 
-2.458886950398e+01 -2.408630581381e-02 0.0 
-2.408630581381e-02 -5.886819281520e+01 0.0 
0.0 0.0 -2.463711869575e+01 
-2.458905889255e+01 -2.236911224718e-02 0.0 
-2.236911224718e-02 -5.885827810768e+01 0.0 
0.0 0.0 -2.463420110007e+01 
-2.459675488742e+01 -2.086474024553e-02 0.0 
-2.086474024553e-02 -5.885756275533e+01 0.0 
0.0 0.0 -2.463629529282e+01 
-2.460040235246e+01 -1.682770455879e-02 0.0 
-1.682770455879e-02 -5.885301902797e+01 0.0 
0.0 0.0 -2.463602641413e+01 
-2.460531421716e+01 -1.176844186424e-02 0.0 
-1.176844186424e-02 -5.885163239952e+01 0.0 
0.0 0.0 -2.463708398501e+01 
-2.460786766207e+01 -5.550718946525e-03 0.0 
-5.550718946525e-03 -5.885047913934e+01 0.0 
0.0 0.0 -2.463750404042e+01 
-2.460878337991e+01 8.906947555764e-04 0.0 
8.906947555764e-04 -5.885109185851e+01 0.0 
0.0 0.0 -2.463796257152e+01 
-2.460782345102e+01 6.714953516592e-03 0.0 
6.714953516592e-03 -5.885263765746e+01 0.0 
0.0 0.0 -2.463813833255e+01 
-2.460613155823e+01 1.135641256316e-02 0.0 
1.135641256316e-02 -5.885450493159e+01 0.0 
0.0 0.0 -2.463819094695e+01 
-2.460411187891e+01 1.498416750813e-02 0.0 
1.498416750813e-02 -5.885568671467e+01 0.0 
0.0 0.0 -2.463793957807e+01 
-2.460210670328e+01 1.797258687122e-02 0.0 
1.797258687122e-02 -5.885573584551e+01 0.0 
0.0 0.0 -2.463735276464e+01 
-2.460064765180e+01 2.070800759062e-02 0.0 
2.070800759062e-02 -5.885445503726e+01 0.0 
0.0 0.0 -2.463653080672e+01 
-2.460044476124e+01 2.354914282286e-02 0.0 
2.354914282286e-02 -5.885187628601e+01 0.0 
0.0 0.0 -2.463569631417e+01 
-2.460241591652e+01 2.681859770939e-02 0.0 
2.681859770939e-02 -5.884847135640e+01 0.0 
0.0 0.0 -2.463526618188e+01 
-2.460750274122e+01 3.065036776747e-02 0.0 
3.065036776747e-02 -5.884553786011e+01 0.0 
0.0 0.0 -2.463591218040e+01 
-2.461697870810e+01 3.486244257013e-02 0.0 
3.486244257013e-02 -5.884527837965e+01 0.0 
0.0 0.0 -2.463867712632e+01 
-2.463265608669e+01 4.041419509100e-02 0.0 
4.041419509100e-02 -5.884955589106e+01 0.0 
0.0 0.0 -2.464466359333e+01 
-2.465078594924e+01 5.669918298218e-02 0.0 
5.669918298218e-02 -5.886061859245e+01 0.0 
0.0 0.0 -2.465342136251e+01 
-2.469525206933e+01 -4.191480337461e-01 0.0 
-4.191480337461e-01 -5.889658327602e+01 0.0 
0.0 0.0 -2.467755060360e+01 
-3.305926544057e+01 -2.998802774813e-01 0.0 
-2.998802774813e-01 -7.850190937204e+01 0.0 
0.0 0.0 -3.306835244378e+01 
-3.305298027310e+01 -5.508427709024e-02 0.0 
-5.508427709024e-02 -7.847036676807e+01 0.0 
0.0 0.0 -3.305700411235e+01 
-3.304324796683e+01 1.870814226311e-02 0.0 
1.870814226311e-02 -7.846205861146e+01 0.0 
0.0 0.0 -3.305159197349e+01 
-3.303425366562e+01 2.155428840443e-02 0.0 
2.155428840443e-02 -7.846010181676e+01 0.0 
0.0 0.0 -3.304830664471e+01 
-3.302656933102e+01 2.076207745173e-02 0.0 
2.076207745173e-02 -7.846230423642e+01 0.0 
0.0 0.0 -3.304666207023e+01 
-3.302056047503e+01 2.007612351989e-02 0.0 
2.007612351989e-02 -7.846598797810e+01 0.0 
0.0 0.0 -3.304596453594e+01 
-3.301643304011e+01 1.956370113799e-02 0.0 
1.956370113799e-02 -7.846893283444e+01 0.0 
0.0 0.0 -3.304560976237e+01 
-3.301423399134e+01 1.863639688174e-02 0.0 
1.863639688174e-02 -7.847032822688e+01 0.0 
0.0 0.0 -3.304536866546e+01 
-3.301314579765e+01 1.693646679208e-02 0.0 
1.693646679208e-02 -7.847019440999e+01 0.0 
0.0 0.0 -3.304500206229e+01 
-3.301257763925e+01 1.425844171173e-02 0.0 
1.425844171173e-02 -7.846862805232e+01 0.0 
0.0 0.0 -3.304436170747e+01 
-3.301229448599e+01 1.048220278586e-02 0.0 
1.048220278586e-02 -7.846590083727e+01 0.0 
0.0 0.0 -3.304345859698e+01 
-3.301265742408e+01 5.189695739892e-03 0.0 
5.189695739892e-03 -7.846234530908e+01 0.0 
0.0 0.0 -3.304250081995e+01 
-3.301339135425e+01 -2.406134708229e-03 0.0 
-2.406134708229e-03 -7.846048113594e+01 0.0 
0.0 0.0 -3.304216174706e+01 
-3.301194831935e+01 -1.042229193537e-02 0.0 
-1.042229193537e-02 -7.846077421059e+01 0.0 
0.0 0.0 -3.304181675898e+01 
-3.300898020223e+01 -1.822639249847e-02 0.0 
-1.822639249847e-02 -7.846527938094e+01 0.0 
0.0 0.0 -3.304227787495e+01 
-3.300388522620e+01 -2.165528036441e-02 0.0 
-2.165528036441e-02 -7.846712376925e+01 0.0 
0.0 0.0 -3.304130269863e+01 
-3.300464755953e+01 -2.722972061361e-02 0.0 
-2.722972061361e-02 -7.847774518297e+01 0.0 
0.0 0.0 -3.304471782275e+01 
-3.299735405296e+01 -2.291613322692e-02 0.0 
-2.291613322692e-02 -7.847215982641e+01 0.0 
0.0 0.0 -3.304085416381e+01 
-3.301244300339e+01 -3.247141513806e-02 0.0 
-3.247141513806e-02 -7.849765800623e+01 0.0 
0.0 0.0 -3.305303030288e+01 
-3.298381099677e+01 -1.819665876183e-02 0.0 
-1.819665876183e-02 -7.844889978269e+01 0.0 
0.0 0.0 -3.302981323384e+01 
-3.307689380628e+01 -6.529322777085e-02 0.0 
-6.529322777085e-02 -7.853877326396e+01 0.0 
0.0 0.0 -3.308470012107e+01 
-3.352754624074e+01 2.140519543484e-02 0.0 
2.140519543484e-02 -7.943959843374e+01 0.0 
0.0 0.0 -3.349014340234e+01 
-3.241150757760e+01 -5.993266485194e-02 0.0 
-5.993266485194e-02 -7.587407570922e+01 0.0 
0.0 0.0 -3.208567498605e+01 
-4.085428022257e+01 -1.029033292403e-01 0.0 
-1.029033292403e-01 -9.548907996492e+01 0.0 
0.0 0.0 -4.050300805625e+01 
-4.199513143377e+01 1.893938416983e-02 0.0 
1.893938416983e-02 -9.904122570603e+01 0.0 
0.0 0.0 -4.191090714194e+01 
-4.150485174124e+01 -4.922350401069e-02 0.0 
-4.922350401069e-02 -9.816382410405e+01 0.0 
0.0 0.0 -4.150060275359e+01 
-4.139878555608e+01 -1.313206270436e-02 0.0 
-1.313206270436e-02 -9.807008134567e+01 0.0 
0.0 0.0 -4.144066007052e+01 
-4.142876155280e+01 -2.791534824705e-02 0.0 
-2.791534824705e-02 -9.812236562584e+01 0.0 
0.0 0.0 -4.146533815359e+01 
-4.140309877906e+01 -2.293707742532e-02 0.0 
-2.293707742532e-02 -9.808628374471e+01 0.0 
0.0 0.0 -4.144681475713e+01 
-4.141664383246e+01 -2.491639237128e-02 0.0 
-2.491639237128e-02 -9.809236743843e+01 0.0 
0.0 0.0 -4.145270338127e+01 
-4.141705510322e+01 -1.821800462808e-02 0.0 
-1.821800462808e-02 -9.807752160494e+01 0.0 
0.0 0.0 -4.144837301245e+01 
-4.142299010918e+01 -8.606629606715e-03 0.0 
-8.606629606715e-03 -9.807712325332e+01 0.0 
0.0 0.0 -4.145003400875e+01 
-4.142076202800e+01 1.737080171991e-03 0.0 
1.737080171991e-03 -9.807903009539e+01 0.0 
0.0 0.0 -4.144993763702e+01 
-4.142054590827e+01 7.606357971406e-03 0.0 
7.606357971406e-03 -9.808572885240e+01 0.0 
0.0 0.0 -4.145188242820e+01 
-4.142263480105e+01 1.106066583321e-02 0.0 
1.106066583321e-02 -9.808975635573e+01 0.0 
0.0 0.0 -4.145371734704e+01 
-4.142570005393e+01 1.403732277269e-02 0.0 
1.403732277269e-02 -9.809263748149e+01 0.0 
0.0 0.0 -4.145550126063e+01 
-4.142831277312e+01 1.603503629009e-02 0.0 
1.603503629009e-02 -9.809457309852e+01 0.0 
0.0 0.0 -4.145686576149e+01 
-4.143085678821e+01 1.658912807821e-02 0.0 
1.658912807821e-02 -9.809476356804e+01 0.0 
0.0 0.0 -4.145768610687e+01 
-4.143507388728e+01 1.553776617705e-02 0.0 
1.553776617705e-02 -9.809263349750e+01 0.0 
0.0 0.0 -4.145831221543e+01 
-4.144118123176e+01 1.453992276373e-02 0.0 
1.453992276373e-02 -9.808838954369e+01 0.0 
0.0 0.0 -4.145887123263e+01 
-4.144758795311e+01 1.439976977793e-02 0.0 
1.439976977793e-02 -9.808472799742e+01 0.0 
0.0 0.0 -4.145969478516e+01 
-4.145374477531e+01 1.524141141854e-02 0.0 
1.524141141854e-02 -9.808473044760e+01 0.0 
0.0 0.0 -4.146154256687e+01 
-4.145823740762e+01 1.816739609913e-02 0.0 
1.816739609913e-02 -9.809153982308e+01 0.0 
0.0 0.0 -4.146493316921e+01 
-4.145852003491e+01 3.807734259401e-02 0.0 
3.807734259401e-02 -9.810816172017e+01 0.0 
0.0 0.0 -4.147000452652e+01 
-4.145368172079e+01 -4.295240410181e-01 0.0 
-4.295240410181e-01 -9.812435562799e+01 0.0 
0.0 0.0 -4.147341120463e+01 
-4.985178468317e+01 -2.927860240762e-01 0.0 
-2.927860240762e-01 -1.177284270456e+02 0.0 
0.0 0.0 -4.987406351863e+01 
-4.985956268227e+01 -5.493793549349e-02 0.0 
-5.493793549349e-02 -1.177079545578e+02 0.0 
0.0 0.0 -4.987025517202e+01 
-4.986362571580e+01 1.097701116206e-02 0.0 
1.097701116206e-02 -1.176993179253e+02 0.0 
0.0 0.0 -4.986888309234e+01 
-4.986196055665e+01 9.894097710004e-03 0.0 
9.894097710004e-03 -1.176989651177e+02 0.0 
0.0 0.0 -4.986827770231e+01 
-4.985869765711e+01 8.090244610960e-03 0.0 
8.090244610960e-03 -1.177032476877e+02 0.0 
0.0 0.0 -4.986858360345e+01 
-4.985297619986e+01 7.773137407735e-03 0.0 
7.773137407735e-03 -1.177093641929e+02 0.0 
0.0 0.0 -4.986870211783e+01 
-4.984608449688e+01 1.048807329177e-02 0.0 
1.048807329177e-02 -1.177133342374e+02 0.0 
0.0 0.0 -4.986782562028e+01 
-4.984137430272e+01 1.282338218536e-02 0.0 
1.282338218536e-02 -1.177110663592e+02 0.0 
0.0 0.0 -4.986573219857e+01 
-4.983914648157e+01 1.156026270511e-02 0.0 
1.156026270511e-02 -1.177075884837e+02 0.0 
0.0 0.0 -4.986402048959e+01 
-4.983222451577e+01 8.156706919959e-03 0.0 
8.156706919959e-03 -1.177047848587e+02 0.0 
0.0 0.0 -4.986110281234e+01 
-4.982498940103e+01 6.207444468367e-03 0.0 
6.207444468367e-03 -1.177020492117e+02 0.0 
0.0 0.0 -4.985811158382e+01 
-4.982171821435e+01 5.497821217344e-03 0.0 
5.497821217344e-03 -1.176952478278e+02 0.0 
0.0 0.0 -4.985508981265e+01 
-4.982254978907e+01 -7.011597965412e-05 0.0 
-7.011597965412e-05 -1.176795331733e+02 0.0 
0.0 0.0 -4.985062488872e+01 
-4.982758548633e+01 -1.797142142948e-02 0.0 
-1.797142142948e-02 -1.176835514864e+02 0.0 
0.0 0.0 -4.985334109183e+01 
-4.981330155713e+01 -2.482553269930e-02 0.0 
-2.482553269930e-02 -1.176871276076e+02 0.0 
0.0 0.0 -4.985012874941e+01 
-4.981653797324e+01 -3.448240196237e-02 0.0 
-3.448240196237e-02 -1.177278291974e+02 0.0 
0.0 0.0 -4.986331015118e+01 
-4.978855602219e+01 -7.155788416442e-03 0.0 
-7.155788416442e-03 -1.176869485875e+02 0.0 
0.0 0.0 -4.984265138291e+01 
-4.990111751606e+01 -4.823092069035e-02 0.0 
-4.823092069035e-02 -1.177612405836e+02 0.0 
0.0 0.0 -4.989870742989e+01 
-5.037653531526e+01 3.146776356932e-02 0.0 
3.146776356932e-02 -1.186935515510e+02 0.0 
0.0 0.0 -5.032102605987e+01 
-4.926596664629e+01 -2.138307264627e-02 0.0 
-2.138307264627e-02 -1.151203344188e+02 0.0 
0.0 0.0 -4.891589031952e+01 
-5.764967104957e+01 -4.069873433859e-02 0.0 
-4.069873433859e-02 -1.346935251244e+02 0.0 
0.0 0.0 -5.730295885220e+01 
-5.875915164021e+01 4.593375535692e-02 0.0 
4.593375535692e-02 -1.382991136472e+02 0.0 
0.0 0.0 -5.871747958624e+01 
-5.827865464774e+01 -5.199904871265e-02 0.0 
-5.199904871265e-02 -1.374201301924e+02 0.0 
0.0 0.0 -5.830963545205e+01 
-5.818217419321e+01 -3.342900629913e-02 0.0 
-3.342900629913e-02 -1.372945006833e+02 0.0 
0.0 0.0 -5.824300246294e+01 
-5.824078410541e+01 -3.762382081148e-02 0.0 
-3.762382081148e-02 -1.373127275362e+02 0.0 
0.0 0.0 -5.826605349249e+01 
-5.822003780902e+01 -5.429681246878e-03 0.0 
-5.429681246878e-03 -1.372781618911e+02 0.0 
0.0 0.0 -5.824945991003e+01 
-5.822433132976e+01 4.036039301402e-03 0.0 
4.036039301402e-03 -1.373161960201e+02 0.0 
0.0 0.0 -5.826215820497e+01 
-5.822942367253e+01 1.197629432292e-03 0.0 
1.197629432292e-03 -1.373289669557e+02 0.0 
0.0 0.0 -5.826751718847e+01 
-5.823610042813e+01 -2.200335255708e-03 0.0 
-2.200335255708e-03 -1.373299038248e+02 0.0 
0.0 0.0 -5.826980127589e+01 
-5.825183939392e+01 5.929790393798e-04 0.0 
5.929790393798e-04 -1.373265342230e+02 0.0 
0.0 0.0 -5.827351208508e+01 
-5.826089267273e+01 9.946321522253e-03 0.0 
9.946321522253e-03 -1.373342250581e+02 0.0 
0.0 0.0 -5.827853531926e+01 
-5.825857925337e+01 8.471851873322e-03 0.0 
8.471851873322e-03 -1.373437679968e+02 0.0 
0.0 0.0 -5.828070417505e+01 
-5.826980026207e+01 2.341987938931e-03 0.0 
2.341987938931e-03 -1.373406769246e+02 0.0 
0.0 0.0 -5.828314315600e+01 
-5.827489346381e+01 2.702496354945e-03 0.0 
2.702496354945e-03 -1.373301193643e+02 0.0 
0.0 0.0 -5.828150384842e+01 
-5.827868891302e+01 6.576843642116e-03 0.0 
6.576843642116e-03 -1.373245468590e+02 0.0 
0.0 0.0 -5.828097073160e+01 
-5.827651491318e+01 1.093043712228e-02 0.0 
1.093043712228e-02 -1.373197246333e+02 0.0 
0.0 0.0 -5.827887186396e+01 
-5.827625065972e+01 2.399793719508e-02 0.0 
2.399793719508e-02 -1.373245865372e+02 0.0 
0.0 0.0 -5.828025115907e+01 
-5.826190453341e+01 5.281881369181e-02 0.0 
5.281881369181e-02 -1.373419816728e+02 0.0 
0.0 0.0 -5.828116586185e+01 
-5.825607830608e+01 -4.209762381416e-01 0.0 
-4.209762381416e-01 -1.373510964423e+02 0.0 
0.0 0.0 -5.828215242452e+01 
-6.663717617011e+01 -2.875056923117e-01 0.0 
-2.875056923117e-01 -1.569737597588e+02 0.0 
0.0 0.0 -6.668328077867e+01 
-6.667591545524e+01 -2.508864389531e-02 0.0 
-2.508864389531e-02 -1.569303146246e+02 0.0 
0.0 0.0 -6.668186902396e+01 
-6.668556898221e+01 1.600345090139e-02 0.0 
1.600345090139e-02 -1.569179479973e+02 0.0 
0.0 0.0 -6.668105509385e+01 
-6.668451622628e+01 1.282339611739e-02 0.0 
1.282339611739e-02 -1.569322342851e+02 0.0 
0.0 0.0 -6.668502515342e+01 
-6.670078568691e+01 3.005728677473e-03 0.0 
3.005728677473e-03 -1.569353518288e+02 0.0 
0.0 0.0 -6.669084125471e+01 
-6.669188779908e+01 -4.105416823376e-03 0.0 
-4.105416823376e-03 -1.569477373584e+02 0.0 
0.0 0.0 -6.669188754724e+01 
-6.669131573458e+01 -8.906266998879e-03 0.0 
-8.906266998879e-03 -1.569685092327e+02 0.0 
0.0 0.0 -6.669794749020e+01 
-6.667500014770e+01 1.042208114558e-02 0.0 
1.042208114558e-02 -1.569596043765e+02 0.0 
0.0 0.0 -6.669038135725e+01 
-6.667540214561e+01 -3.986498106461e-03 0.0 
-3.986498106461e-03 -1.569253009970e+02 0.0 
0.0 0.0 -6.668021094279e+01 
-6.665112679358e+01 -2.059978196055e-02 0.0 
-2.059978196055e-02 -1.569428986264e+02 0.0 
0.0 0.0 -6.667820762598e+01 
-6.663487883433e+01 -1.064246367813e-02 0.0 
-1.064246367813e-02 -1.569533608730e+02 0.0 
0.0 0.0 -6.667647191219e+01 
-6.663161337316e+01 -6.040096883103e-03 0.0 
-6.040096883103e-03 -1.569378641523e+02 0.0 
0.0 0.0 -6.667084325764e+01 
-6.661072391021e+01 -2.617337086483e-03 0.0 
-2.617337086483e-03 -1.569247281703e+02 0.0 
0.0 0.0 -6.666063562415e+01 
-6.658332959168e+01 -8.138172058004e-03 0.0 
-8.138172058004e-03 -1.568282779835e+02 0.0 
0.0 0.0 -6.662348227255e+01 
-6.666736977841e+01 -9.243578486199e-02 0.0 
-9.243578486199e-02 -1.569546965105e+02 0.0 
0.0 0.0 -6.668661988669e+01 
-6.714646506472e+01 1.580269436335e-02 0.0 
1.580269436335e-02 -1.579734457314e+02 0.0 
0.0 0.0 -6.713597323885e+01 
-6.604131046233e+01 -2.488502182058e-02 0.0 
-2.488502182058e-02 -1.544018322921e+02 0.0 
0.0 0.0 -6.573294282633e+01 
-7.441032493276e+01 -6.745240251122e-02 0.0 
-6.745240251122e-02 -1.739827749486e+02 0.0 
0.0 0.0 -7.411792996440e+01 
-7.541691667586e+01 7.127556930328e-03 0.0 
7.127556930328e-03 -1.774471395978e+02 0.0 
0.0 0.0 -7.545921688211e+01 
-7.499222764109e+01 -4.863059155850e-02 0.0 
-4.863059155850e-02 -1.765540164515e+02 0.0 
0.0 0.0 -7.506387322776e+01 
-7.505043448085e+01 -4.264311634411e-02 0.0 
-4.264311634411e-02 -1.765355655102e+02 0.0 
0.0 0.0 -7.507579999732e+01 
-7.505854730004e+01 -1.247738421864e-02 0.0 
-1.247738421864e-02 -1.765752193322e+02 0.0 
0.0 0.0 -7.509012998969e+01 
-7.506852021116e+01 -3.184055249483e-02 0.0 
-3.184055249483e-02 -1.766037594379e+02 0.0 
0.0 0.0 -7.510168389471e+01 
-7.506279972419e+01 -4.191749090105e-02 0.0 
-4.191749090105e-02 -1.765410664591e+02 0.0 
0.0 0.0 -7.508115985500e+01 
-7.507092738478e+01 2.748781075807e-03 0.0 
2.748781075807e-03 -1.765418127372e+02 0.0 
0.0 0.0 -7.508382203658e+01 
-7.516954837292e+01 -1.942965663040e-02 0.0 
-1.942965663040e-02 -1.766230749433e+02 0.0 
0.0 0.0 -7.513778699487e+01 
-7.512147332599e+01 -1.945570076494e-03 0.0 
-1.945570076494e-03 -1.765755384768e+02 0.0 
0.0 0.0 -7.510910354084e+01 
-7.512813980483e+01 -9.844070194004e-03 0.0 
-9.844070194004e-03 -1.765605221359e+02 0.0 
0.0 0.0 -7.510659858222e+01 
-7.512677372995e+01 3.033879483177e-02 0.0 
3.033879483177e-02 -1.765475913361e+02 0.0 
0.0 0.0 -7.510230951983e+01 
-7.509952136147e+01 1.187511420472e-02 0.0 
1.187511420472e-02 -1.765651138258e+02 0.0 
0.0 0.0 -7.509939055619e+01 
-7.508720378478e+01 3.896976766579e-02 0.0 
3.896976766579e-02 -1.764995595117e+02 0.0 
0.0 0.0 -7.507602898893e+01 
-7.510068125579e+01 1.357450146722e-01 0.0 
1.357450146722e-01 -1.766246835850e+02 0.0 
0.0 0.0 -7.511760945223e+01 
-7.502088654360e+01 -4.509331775657e-01 0.0 
-4.509331775657e-01 -1.766933203355e+02 0.0 
0.0 0.0 -7.511426206374e+01 
-5.000000699632e+00 -1.010417861121e-02 0.0 
-1.010417861121e-02 -1.098699007821e+01 0.0 
0.0 0.0 -4.659314084881e+00 
-1.303581763694e+01 -2.008758214666e-01 0.0 
-2.008758214666e-01 -3.066698662764e+01 0.0 
0.0 0.0 -1.271737595902e+01 
-2.143126147035e+01 -1.944068147725e-01 0.0 
-1.944068147725e-01 -5.042527139098e+01 0.0 
0.0 0.0 -2.115695985840e+01 
-2.983439786341e+01 -1.943924981701e-01 0.0 
-1.943924981701e-01 -7.014579658435e+01 0.0 
0.0 0.0 -2.959405833433e+01 
-3.811567275035e+01 -7.800131261302e-02 0.0 
-7.800131261302e-02 -8.943097690785e+01 0.0 
0.0 0.0 -3.786399489746e+01 
-4.668745979296e+01 -1.328426815191e-01 0.0 
-1.328426815191e-01 -1.091479487512e+02 0.0 
0.0 0.0 -4.635062256323e+01 
-5.495199358243e+01 -8.606276521840e-02 0.0 
-8.606276521840e-02 -1.287272799810e+02 0.0 
0.0 0.0 -5.470378206902e+01 
-6.338580224114e+01 -1.185585511269e-01 0.0 
-1.185585511269e-01 -1.483827378322e+02 0.0 
0.0 0.0 -6.313056202200e+01 
-7.179642432698e+01 -9.415237592506e-02 0.0 
-9.415237592506e-02 -1.680257399946e+02 0.0 
0.0 0.0 -7.154664929648e+01 
-8.028936417725e+01 -1.022076340134e-01 0.0 
-1.022076340134e-01 -1.878211067556e+02 0.0 
0.0 0.0 -8.003314127986e+01 
-1.963678259828e+01 -7.609878839911e-02 0.0 
-7.609878839911e-02 -4.714913733465e+01 0.0 
0.0 0.0 -1.963577597988e+01 
-1.605245909685e+02 5.616890168804e-02 0.0 
5.616890168804e-02 -3.757542882011e+02 0.0 
0.0 0.0 -1.604836637509e+02 
-7.152444168928e+00 5.436704344702e-02 0.0 
5.436704344702e-02 -1.675796751866e+01 0.0 
0.0 0.0 -7.160423531132e+00 
-6.831504225364e+00 7.145861311549e-02 0.0 
7.145861311549e-02 -1.614619825387e+01 0.0 
0.0 0.0 -6.880218474334e+00 
-1.604819575704e+02 -8.530308857658e-02 0.0 
-8.530308857658e-02 -3.757838582367e+02 0.0 
0.0 0.0 -1.604797447421e+02 
-3.652887966280e+01 -1.088345438439e-01 0.0 
-1.088345438439e-01 -8.688940781867e+01 0.0 
0.0 0.0 -3.662548624444e+01 
-8.802009205366e+01 3.331656869598e-02 0.0 
3.331656869598e-02 -2.070289672487e+02 0.0 
0.0 0.0 -8.811471779070e+01 
-1.601950956785e+02 -5.326360906805e-02 0.0 
-5.326360906805e-02 -3.751102284638e+02 0.0 
0.0 0.0 -1.601915972427e+02 
-5.266449666498e+01 1.243391161215e-01 0.0 
1.243391161215e-01 -1.243778347145e+02 0.0 
0.0 0.0 -5.271269941384e+01 
-1.605984147449e+02 -1.526757345594e-02 0.0 
-1.526757345594e-02 -3.760029258922e+02 0.0 
0.0 0.0 -1.605804021911e+02 
-6.984509483543e+01 -1.647552664977e-02 0.0 
-1.647552664977e-02 -1.645013886757e+02 0.0 
0.0 0.0 -6.990394505334e+01 
-1.611886162415e+02 -5.079989561552e-02 0.0 
-5.079989561552e-02 -3.770910452926e+02 0.0 
0.0 0.0 -1.610838984602e+02 
-6.978618815492e+00 -2.612478021703e-02 0.0 
-2.612478021703e-02 -1.614676783707e+01 0.0 
0.0 0.0 -6.947299622921e+00 
-1.606124410745e+02 -2.339280249740e-02 0.0 
-2.339280249740e-02 -3.761016399218e+02 0.0 
0.0 0.0 -1.606142242989e+02 
-8.697602290051e+01 -6.529504498680e-02 0.0 
-6.529504498680e-02 -2.044385040292e+02 0.0 
0.0 0.0 -8.702435807890e+01 
-5.463471486836e+01 -2.578467197322e-02 0.0 
-2.578467197322e-02 -1.286377241559e+02 0.0 
0.0 0.0 -5.458173170728e+01 
-1.111418651089e+02 -5.339483695031e-02 0.0 
-5.339483695031e-02 -2.607097618999e+02 0.0 
0.0 0.0 -1.111554881027e+02 
-1.603340592219e+02 3.897329413277e-02 0.0 
3.897329413277e-02 -3.752903842046e+02 0.0 
0.0 0.0 -1.602873330280e+02 
-1.606087101442e+02 -6.997033262002e-02 0.0 
-6.997033262002e-02 -3.760948779633e+02 0.0 
0.0 0.0 -1.606110764322e+02 
-1.604276671948e+02 6.973158218029e-02 0.0 
6.973158218029e-02 -3.758136104542e+02 0.0 
0.0 0.0 -1.604723832947e+02 
-1.598022528852e+02 -4.419855872895e-02 0.0 
-4.419855872895e-02 -3.741954743448e+02 0.0 
0.0 0.0 -1.597993181690e+02 
-1.606898636832e+02 8.688540246822e-02 0.0 
8.688540246822e-02 -3.764138054009e+02 0.0 
0.0 0.0 -1.607311007252e+02 
-9.095102767926e+01 -4.765045394102e-02 0.0 
-4.765045394102e-02 -2.135064433424e+02 0.0 
0.0 0.0 -9.093724130649e+01 
-9.098622526412e+01 -4.787324680385e-02 0.0 
-4.787324680385e-02 -2.136200833527e+02 0.0 
0.0 0.0 -9.098189258505e+01 
-9.159343409431e+01 4.855164565027e-02 0.0 
4.855164565027e-02 -2.149645632595e+02 0.0 
0.0 0.0 -9.156739920614e+01 
-1.214007552657e+02 1.387489974137e-01 0.0 
1.387489974137e-01 -2.846758860419e+02 0.0 
0.0 0.0 -1.214229923923e+02 
-1.605457755869e+02 4.347360501753e-02 0.0 
4.347360501753e-02 -3.758781375128e+02 0.0 
0.0 0.0 -1.605271739299e+02 
-6.917482091865e+00 6.514305766855e-02 0.0 
6.514305766855e-02 -1.612966657933e+01 0.0 
0.0 0.0 -6.914408475070e+00 
-7.173814723716e+00 -1.132180652320e-02 0.0 
-1.132180652320e-02 -1.713183057138e+01 0.0 
0.0 0.0 -7.280693875100e+00 
-1.377296196950e+02 4.456036656329e-03 0.0 
4.456036656329e-03 -3.226454931911e+02 0.0 
0.0 0.0 -1.377125338658e+02 
-9.047248785726e+01 -7.959448630734e-02 0.0 
-7.959448630734e-02 -2.126590720893e+02 0.0 
0.0 0.0 -9.053946798397e+01 
-2.864028366652e+01 -1.053494962271e-02 0.0 
-1.053494962271e-02 -6.842390839011e+01 0.0 
0.0 0.0 -2.871925761699e+01 
-1.590735409116e+02 -2.121437435845e-02 0.0 
-2.121437435845e-02 -3.726436282166e+02 0.0 
0.0 0.0 -1.591151507385e+02 
-1.609842177077e+02 -5.435464780310e-02 0.0 
-5.435464780310e-02 -3.769483650639e+02 0.0 
0.0 0.0 -1.609797748315e+02 
-1.605703846301e+02 -1.951621127905e-02 0.0 
-1.951621127905e-02 -3.760467262751e+02 0.0 
0.0 0.0 -1.605851332715e+02 
-1.598454918122e+02 -5.123162036084e-02 0.0 
-5.123162036084e-02 -3.743451934885e+02 0.0 
0.0 0.0 -1.598572055902e+02 
-1.606785787259e+02 6.405141891087e-02 0.0 
6.405141891087e-02 -3.763399001629e+02 0.0 
0.0 0.0 -1.607055436666e+02 
-7.255624587596e+00 -1.411442677480e-02 0.0 
-1.411442677480e-02 -1.718262932063e+01 0.0 
0.0 0.0 -7.320677796688e+00 
-9.071343177764e+01 -5.854127123932e-02 0.0 
-5.854127123932e-02 -2.129293610274e+02 0.0 
0.0 0.0 -9.069283784152e+01 
-1.591463765287e+02 -4.239677587250e-02 0.0 
-4.239677587250e-02 -3.727684778701e+02 0.0 
0.0 0.0 -1.591744563196e+02 
-1.378166254427e+02 1.213676855258e-01 0.0 
1.213676855258e-01 -3.230505222281e+02 0.0 
0.0 0.0 -1.378601443012e+02 
-7.358210283253e+00 5.168819742856e-02 0.0 
5.168819742856e-02 -1.704767797632e+01 0.0 
0.0 0.0 -7.322635277377e+00 
-7.095173345240e+01 2.623571273222e-02 0.0 
2.623571273222e-02 -1.668233387522e+02 0.0 
0.0 0.0 -7.093252166139e+01 
-1.615971973580e+02 4.128748947049e-02 0.0 
4.128748947049e-02 -3.786049380588e+02 0.0 
0.0 0.0 -1.616606406250e+02 
-4.514991068587e+01 5.660720077171e-02 0.0 
5.660720077171e-02 -1.070607519474e+02 0.0 
0.0 0.0 -4.526319878998e+01 
-2.814688580884e+01 -4.714598236841e-02 0.0 
-4.714598236841e-02 -6.717898907916e+01 0.0 
0.0 0.0 -2.819776246640e+01 
-6.123501837976e+01 2.725490330343e-02 0.0 
2.725490330343e-02 -1.444606012680e+02 0.0 
0.0 0.0 -6.130868589433e+01 
-7.833861551024e+01 2.598948656302e-02 0.0 
2.598948656302e-02 -1.842347126916e+02 0.0 
0.0 0.0 -7.837199846056e+01 
-1.073872085510e+01 1.063323314833e-01 0.0 
1.063323314833e-01 -2.577358642345e+01 0.0 
0.0 0.0 -1.060296021725e+01 
-1.054954061565e+02 3.253775411851e-02 0.0 
3.253775411851e-02 -2.475247569800e+02 0.0 
0.0 0.0 -1.055060489410e+02 
-1.618488669526e+02 5.034614817686e-02 0.0 
5.034614817686e-02 -3.790884568569e+02 0.0 
0.0 0.0 -1.618811971428e+02 
-6.933731940663e+00 -8.261654340104e-02 0.0 
-8.261654340104e-02 -1.631949101563e+01 0.0 
0.0 0.0 -6.931832628364e+00 
-1.542966457283e+02 3.624186750495e-04 0.0 
3.624186750495e-04 -3.610954027971e+02 0.0 
0.0 0.0 -1.542176145576e+02 
-9.106818348558e+01 -4.488195415313e-02 0.0 
-4.488195415313e-02 -2.137139397948e+02 0.0 
0.0 0.0 -9.103463698410e+01 
-9.443767731702e+01 -2.154826683531e-02 0.0 
-2.154826683531e-02 -2.216809376799e+02 0.0 
0.0 0.0 -9.443558449906e+01 
-9.849436462943e+01 -8.867745065710e-02 0.0 
-8.867745065710e-02 -2.310098805669e+02 0.0 
0.0 0.0 -9.845127355890e+01 
-1.023089723394e+02 3.119517007131e-02 0.0 
3.119517007131e-02 -2.402153588210e+02 0.0 
0.0 0.0 -1.023572993481e+02 
-1.067425952782e+02 -1.767196306585e-03 0.0 
-1.767196306585e-03 -2.504512644622e+02 0.0 
0.0 0.0 -1.067581579221e+02 
-1.102435777319e+02 2.873822381620e-02 0.0 
2.873822381620e-02 -2.587296261510e+02 0.0 
0.0 0.0 -1.102919611648e+02 
-1.058852205566e+02 2.758930941142e-02 0.0 
2.758930941142e-02 -2.485180079769e+02 0.0 
0.0 0.0 -1.059209685600e+02 
-1.138502542691e+02 3.537375566674e-02 0.0 
3.537375566674e-02 -2.670707643443e+02 0.0 
0.0 0.0 -1.138763055840e+02 
-1.093987873602e+02 2.183853630884e-02 0.0 
2.183853630884e-02 -2.567135584772e+02 0.0 
0.0 0.0 -1.094337037512e+02 
-1.148632514398e+02 3.700531028357e-02 0.0 
3.700531028357e-02 -2.692392518151e+02 0.0 
0.0 0.0 -1.148307509765e+02 
-1.174082512035e+02 4.275713325538e-02 0.0 
4.275713325538e-02 -2.753588635607e+02 0.0 
0.0 0.0 -1.174301344293e+02 
-1.129243600970e+02 2.500603013660e-02 0.0 
2.500603013660e-02 -2.649155096139e+02 0.0 
0.0 0.0 -1.129519609133e+02 
-1.209526583194e+02 3.522450679472e-02 0.0 
3.522450679472e-02 -2.836067953816e+02 0.0 
0.0 0.0 -1.209678361103e+02 
-1.164505253749e+02 2.793392332456e-02 0.0 
2.793392332456e-02 -2.731331307324e+02 0.0 
0.0 0.0 -1.164750968322e+02 
-1.084846028007e+02 1.359772540910e-02 0.0 
1.359772540910e-02 -2.545691721488e+02 0.0 
0.0 0.0 -1.085161324848e+02 
-1.119861270602e+02 1.274797697889e-02 0.0 
1.274797697889e-02 -2.627370230688e+02 0.0 
0.0 0.0 -1.120169450387e+02 
-1.040596890511e+02 2.299403691058e-03 0.0 
2.299403691058e-03 -2.442233292896e+02 0.0 
0.0 0.0 -1.040849055022e+02 
-1.075457197571e+02 6.494772248504e-03 0.0 
6.494772248504e-03 -2.523644359442e+02 0.0 
0.0 0.0 -1.075730467104e+02 
-1.154976131009e+02 9.667637408046e-03 0.0 
9.667637408046e-03 -2.709224661063e+02 0.0 
0.0 0.0 -1.155260237621e+02 
-1.110415596342e+02 1.381961165109e-02 0.0 
1.381961165109e-02 -2.605110777689e+02 0.0 
0.0 0.0 -1.110657912209e+02 
-1.030921534870e+02 5.556287374209e-03 0.0 
5.556287374209e-03 -2.419656396495e+02 0.0 
0.0 0.0 -1.031173379409e+02 
-1.065754544355e+02 9.149040740823e-03 0.0 
9.149040740823e-03 -2.500760604304e+02 0.0 
0.0 0.0 -1.065954544598e+02 
-9.864942031564e+01 -4.194951437093e-04 0.0 
-4.194951437093e-04 -2.315821759960e+02 0.0 
0.0 0.0 -9.866947889348e+01 
-1.021264898756e+02 5.447035041568e-03 0.0 
5.447035041568e-03 -2.396743570206e+02 0.0 
0.0 0.0 -1.021402540688e+02 
-9.418615009677e+01 6.326610511551e-04 0.0 
6.326610511551e-04 -2.211587685495e+02 0.0 
0.0 0.0 -9.420347559387e+01 
-9.767008738807e+01 5.224696137168e-03 0.0 
5.224696137168e-03 -2.292642372034e+02 0.0 
0.0 0.0 -9.768029737743e+01 
-1.056215307199e+02 9.544814610666e-03 0.0 
9.544814610666e-03 -2.478033294057e+02 0.0 
0.0 0.0 -1.056274580377e+02 
-1.011489665270e+02 3.714382915092e-03 0.0 
3.714382915092e-03 -2.373695772707e+02 0.0 
0.0 0.0 -1.011555631393e+02 
-9.321220393560e+01 1.871849063228e-04 0.0 
1.871849063228e-04 -2.188527341507e+02 0.0 
0.0 0.0 -9.321948142589e+01 
-9.667901442340e+01 -8.895445294996e-04 0.0 
-8.895445294996e-04 -2.269402544522e+02 0.0 
0.0 0.0 -9.668578066268e+01 
-8.875054145614e+01 -4.123043440266e-03 0.0 
-4.123043440266e-03 -2.084397815663e+02 0.0 
0.0 0.0 -8.875709690673e+01 
-9.219656519371e+01 -7.155356739238e-03 0.0 
-7.155356739238e-03 -2.164728848769e+02 0.0 
0.0 0.0 -9.220083502117e+01 
-1.001506283231e+02 -4.131088511011e-03 0.0 
-4.131088511011e-03 -2.350349393245e+02 0.0 
0.0 0.0 -1.001556702943e+02 
-9.566007546225e+01 -2.487365275805e-03 0.0 
-2.487365275805e-03 -2.245572898167e+02 0.0 
0.0 0.0 -9.566520958368e+01 
-8.766923904133e+01 -2.001019149695e-03 0.0 
-2.001019149695e-03 -2.059079133910e+02 0.0 
0.0 0.0 -8.767314572969e+01 
-9.114941317321e+01 1.760853143463e-03 0.0 
1.760853143463e-03 -2.140469774672e+02 0.0 
0.0 0.0 -9.115891719214e+01 
-8.311628644034e+01 1.126024761462e-02 0.0 
1.126024761462e-02 -1.953068738020e+02 0.0 
0.0 0.0 -8.312694807270e+01 
-8.664168970786e+01 -2.009014854023e-03 0.0 
-2.009014854023e-03 -2.035390013907e+02 0.0 
0.0 0.0 -8.665420732957e+01 
-7.856557058282e+01 6.835894452675e-03 0.0 
6.835894452675e-03 -1.846903688922e+02 0.0 
0.0 0.0 -7.857678184250e+01 
-8.209333687918e+01 -5.006415851798e-03 0.0 
-5.006415851798e-03 -1.929235945658e+02 0.0 
0.0 0.0 -8.210507943348e+01 
-9.015563149485e+01 -1.654951539845e-03 0.0 
-1.654951539845e-03 -2.117400795942e+02 0.0 
0.0 0.0 -9.016871332671e+01 
-8.561747437764e+01 6.217622993542e-04 0.0 
6.217622993542e-04 -2.011489270580e+02 0.0 
0.0 0.0 -8.562992043069e+01 
-7.752140909132e+01 -7.715114388613e-04 0.0 
-7.715114388613e-04 -1.822525907628e+02 0.0 
0.0 0.0 -7.753219995622e+01 
-8.104294457234e+01 1.534963809512e-03 0.0 
1.534963809512e-03 -1.904607781297e+02 0.0 
0.0 0.0 -8.105111681060e+01 
-8.916127712197e+01 4.120297253573e-03 0.0 
4.120297253573e-03 -2.094025206500e+02 0.0 
0.0 0.0 -8.916913933159e+01 
-8.457211430679e+01 3.347305902561e-03 0.0 
3.347305902561e-03 -1.986853595513e+02 0.0 
0.0 0.0 -8.457724215744e+01 
-9.270801609731e+01 5.526694340431e-03 0.0 
5.526694340431e-03 -2.176672903680e+02 0.0 
0.0 0.0 -9.271259193961e+01 
-8.810979219324e+01 1.887114080502e-03 0.0 
1.887114080502e-03 -2.069355074479e+02 0.0 
0.0 0.0 -8.811358989233e+01 
-8.000843638320e+01 2.263931767334e-03 0.0 
2.263931767334e-03 -1.880300877238e+02 0.0 
0.0 0.0 -8.001155723210e+01 
-8.352744265070e+01 -1.951828763899e-03 0.0 
-1.951828763899e-03 -1.962397476546e+02 0.0 
0.0 0.0 -8.353015709158e+01 
-9.164498390234e+01 -2.529520653328e-04 0.0 
-2.529520653328e-04 -2.151798716439e+02 0.0 
0.0 0.0 -9.164745666388e+01 
-8.702995342914e+01 -1.052051217756e-03 0.0 
-1.052051217756e-03 -2.044140693953e+02 0.0 
0.0 0.0 -8.703320684732e+01 
-7.894637484917e+01 8.723217379134e-04 0.0 
8.723217379134e-04 -1.855536902821e+02 0.0 
0.0 0.0 -7.895001953939e+01 
-8.244922778702e+01 -7.236101828374e-03 0.0 
-7.236101828374e-03 -1.937209216168e+02 0.0 
0.0 0.0 -8.245104482113e+01 
-9.055614072417e+01 -5.687251568541e-03 0.0 
-5.687251568541e-03 -2.126440419492e+02 0.0 
0.0 0.0 -9.056005480202e+01 
-8.596127630780e+01 -1.101320252114e-02 0.0 
-1.101320252114e-02 -2.019112498345e+02 0.0 
0.0 0.0 -8.596175784268e+01 
-7.787683778630e+01 -8.484824163631e-03 0.0 
-8.484824163631e-03 -1.830465230640e+02 0.0 
0.0 0.0 -7.787700825509e+01 
-8.138091739687e+01 -1.382780538943e-02 0.0 
-1.382780538943e-02 -1.912179674835e+02 0.0 
0.0 0.0 -8.137966546411e+01 
-8.953012764116e+01 -1.233982642555e-02 0.0 
-1.233982642555e-02 -2.102334878028e+02 0.0 
0.0 0.0 -8.952908463319e+01 
-8.489986381727e+01 -8.956464006989e-03 0.0 
-8.956464006989e-03 -1.994228278224e+02 0.0 
0.0 0.0 -8.489680749189e+01 
-7.678153243968e+01 -1.283259452295e-02 0.0 
-1.283259452295e-02 -1.804741084022e+02 0.0 
0.0 0.0 -7.677669225256e+01 
-8.027382806033e+01 -1.489609056610e-02 0.0 
-1.489609056610e-02 -1.886143281943e+02 0.0 
0.0 0.0 -8.026644687639e+01 
-8.846935359445e+01 -8.997823667885e-03 0.0 
-8.997823667885e-03 -2.077429870806e+02 0.0 
0.0 0.0 -8.846370220250e+01 
-8.379372211393e+01 -1.139473285229e-02 0.0 
-1.139473285229e-02 -1.968166834428e+02 0.0 
0.0 0.0 -8.378312166701e+01 
-9.205097771497e+01 -6.898191008885e-03 0.0 
-6.898191008885e-03 -2.160916483659e+02 0.0 
0.0 0.0 -9.204278782426e+01 
-7.557245924493e+01 -1.669855040955e-02 0.0 
-1.669855040955e-02 -1.776306901334e+02 0.0 
0.0 0.0 -7.556094481350e+01 
-7.908928130884e+01 -9.247731846660e-03 0.0 
-9.247731846660e-03 -1.858256654249e+02 0.0 
0.0 0.0 -7.907448402012e+01 
-7.082537192675e+01 -1.862442024209e-02 0.0 
-1.862442024209e-02 -1.665408271464e+02 0.0 
0.0 0.0 -7.080985972194e+01 
-7.437857318000e+01 -6.553345176114e-03 0.0 
-6.553345176114e-03 -1.748147566825e+02 0.0 
0.0 0.0 -7.435799895874e+01 
-1.036330589550e+02 -5.628000683472e-03 0.0 
-5.628000683472e-03 -2.431690870033e+02 0.0 
0.0 0.0 -1.036406437875e+02 
-6.609338786264e+01 -1.604064900107e-02 0.0 
-1.604064900107e-02 -1.554727079415e+02 0.0 
0.0 0.0 -6.606982874123e+01 
-6.263696938352e+01 -2.414002971771e-02 0.0 
-2.414002971771e-02 -1.474393242407e+02 0.0 
0.0 0.0 -6.262288808727e+01 
-6.967009462457e+01 -5.448744608711e-04 0.0 
-5.448744608711e-04 -1.638094495859e+02 0.0 
0.0 0.0 -6.964386326315e+01 
-7.799362876606e+01 1.980562821449e-03 0.0 
1.980562821449e-03 -1.832542218908e+02 0.0 
0.0 0.0 -7.797435519706e+01 
-6.134930649856e+01 -6.760629922532e-03 0.0 
-6.760629922532e-03 -1.443951843670e+02 0.0 
0.0 0.0 -6.132334725967e+01 
-6.495681453483e+01 2.510154377996e-03 0.0 
2.510154377996e-03 -1.527959976998e+02 0.0 
0.0 0.0 -6.492584367038e+01 
-5.660422328534e+01 -1.102924163491e-02 0.0 
-1.102924163491e-02 -1.333448013401e+02 0.0 
0.0 0.0 -5.658470738762e+01 
-7.489974934598e+01 1.055655937289e-02 0.0 
1.055655937289e-02 -1.761406637698e+02 0.0 
0.0 0.0 -7.491212393473e+01 
-1.190252532122e+02 1.912014733542e-02 0.0 
1.912014733542e-02 -2.791341193423e+02 0.0 
0.0 0.0 -1.190478117664e+02 
-6.023689628700e+01 -6.674470227577e-03 0.0 
-6.674470227577e-03 -1.417923967320e+02 0.0 
0.0 0.0 -6.020878790571e+01 
-5.185321750119e+01 -1.109860929254e-03 0.0 
-1.109860929254e-03 -1.223063213344e+02 0.0 
0.0 0.0 -5.184786165066e+01 
-4.823553174232e+01 -1.456276838998e-02 0.0 
-1.456276838998e-02 -1.138716931502e+02 0.0 
0.0 0.0 -4.823216746776e+01 
-4.350498501833e+01 -7.520607224462e-03 0.0 
-7.520607224462e-03 -1.028286358280e+02 0.0 
0.0 0.0 -4.350008625389e+01 
-1.113400104885e+02 7.668530498520e-02 0.0 
7.668530498520e-02 -2.608754085505e+02 0.0 
0.0 0.0 -1.112646257117e+02 
-1.193691386741e+02 -4.356571790548e-03 0.0 
-4.356571790548e-03 -2.797997439718e+02 0.0 
0.0 0.0 -1.193506647938e+02 
-1.155380796450e+02 3.282062698076e-02 0.0 
3.282062698076e-02 -2.708093570334e+02 0.0 
0.0 0.0 -1.155042310035e+02 
-1.238476581995e+02 8.714646839112e-03 0.0 
8.714646839112e-03 -2.903198992451e+02 0.0 
0.0 0.0 -1.238502672334e+02 
-1.201573389715e+02 3.584074777533e-02 0.0 
3.584074777533e-02 -2.816583255948e+02 0.0 
0.0 0.0 -1.201446993699e+02 
-4.712303174681e+01 2.470568806973e-02 0.0 
2.470568806973e-02 -1.112468322755e+02 0.0 
0.0 0.0 -4.711095920670e+01 
-1.255573775825e+02 3.126917417456e-02 0.0 
3.126917417456e-02 -2.942870611070e+02 0.0 
0.0 0.0 -1.255533316068e+02 
-1.275347728632e+02 -1.405324631834e-02 0.0 
-1.405324631834e-02 -2.989044313379e+02 0.0 
0.0 0.0 -1.275317612603e+02 
-9.519510810550e+01 -4.398141120164e-03 0.0 
-4.398141120164e-03 -2.235387799096e+02 0.0 
0.0 0.0 -9.522016640453e+01 
-8.529937885411e+01 -3.211196792084e-03 0.0 
-3.211196792084e-03 -2.003867666578e+02 0.0 
0.0 0.0 -8.530584365359e+01 
-9.730897328441e+01 1.168644473583e-02 0.0 
1.168644473583e-02 -2.284082091974e+02 0.0 
0.0 0.0 -9.731515474453e+01 
-6.858632861333e+01 1.789891036172e-02 0.0 
1.789891036172e-02 -1.612445349256e+02 0.0 
0.0 0.0 -6.854925906168e+01 
-6.389291438139e+01 -7.800278293300e-03 0.0 
-7.800278293300e-03 -1.502932426268e+02 0.0 
0.0 0.0 -6.385584710247e+01 
-7.219603544647e+01 4.301039073466e-02 0.0 
4.301039073466e-02 -1.697560739589e+02 0.0 
0.0 0.0 -7.218563282160e+01 
-9.673270316674e+01 -3.200634024528e-03 0.0 
-3.200634024528e-03 -2.270266479329e+02 0.0 
0.0 0.0 -9.672780532990e+01 
-1.003359510110e+02 -3.832337794635e-03 0.0 
-3.832337794635e-03 -2.354332740507e+02 0.0 
0.0 0.0 -1.003307675185e+02 
-1.050267325798e+02 -2.341134518682e-03 0.0 
-2.341134518682e-03 -2.463810986496e+02 0.0 
0.0 0.0 -1.050223493688e+02 
-1.086364707065e+02 -2.436921298005e-03 0.0 
-2.436921298005e-03 -2.548082122816e+02 0.0 
0.0 0.0 -1.086334048964e+02 
-1.133364298205e+02 -2.200662493362e-03 0.0 
-2.200662493362e-03 -2.657717483136e+02 0.0 
0.0 0.0 -1.133324534402e+02 
-1.169502236824e+02 -4.427158768670e-03 0.0 
-4.427158768670e-03 -2.742120593478e+02 0.0 
0.0 0.0 -1.169486849090e+02 
-1.122455937290e+02 8.019510880051e-04 0.0 
8.019510880051e-04 -2.632330369234e+02 0.0 
0.0 0.0 -1.122435891957e+02 
-1.205614278155e+02 1.823422772288e-03 0.0 
1.823422772288e-03 -2.826497936592e+02 0.0 
0.0 0.0 -1.205633664424e+02 
-1.158559026847e+02 5.573663611628e-03 0.0 
5.573663611628e-03 -2.716592020737e+02 0.0 
0.0 0.0 -1.158545314275e+02 
-1.216570879780e+02 -6.263049745802e-03 0.0 
-6.263049745802e-03 -2.851847738078e+02 0.0 
0.0 0.0 -1.216525585357e+02 
-1.180181521322e+02 2.272358876316e-03 0.0 
2.272358876316e-03 -2.766981405187e+02 0.0 
0.0 0.0 -1.180148877953e+02 
-1.241742928073e+02 9.569106519381e-03 0.0 
9.569106519381e-03 -2.910793608380e+02 0.0 
0.0 0.0 -1.241760960936e+02 
-1.194700428919e+02 6.051083485128e-03 0.0 
6.051083485128e-03 -2.800870897350e+02 0.0 
0.0 0.0 -1.194671397881e+02 
-1.278016002105e+02 1.002192534220e-02 0.0 
1.002192534220e-02 -2.995179585646e+02 0.0 
0.0 0.0 -1.277958676325e+02 
-1.230927946173e+02 8.025829395116e-03 0.0 
8.025829395116e-03 -2.885191278205e+02 0.0 
0.0 0.0 -1.230835767314e+02 
-1.147449089536e+02 3.733979552608e-03 0.0 
3.733979552608e-03 -2.690577953795e+02 0.0 
0.0 0.0 -1.147408112999e+02 
-1.183594694472e+02 2.417401715476e-03 0.0 
2.417401715476e-03 -2.774746844837e+02 0.0 
0.0 0.0 -1.183502461793e+02 
-1.100352817230e+02 8.369427769935e-03 0.0 
8.369427769935e-03 -2.580841949338e+02 0.0 
0.0 0.0 -1.100358429971e+02 
-1.008691661632e+02 1.163646628346e-02 0.0 
1.163646628346e-02 -2.367084874514e+02 0.0 
0.0 0.0 -1.008732960844e+02 
-1.054848939380e+02 1.543016206607e-02 0.0 
1.543016206607e-02 -2.474864153277e+02 0.0 
0.0 0.0 -1.054913927797e+02 
-1.090526804399e+02 1.353008453330e-02 0.0 
1.353008453330e-02 -2.558011515476e+02 0.0 
0.0 0.0 -1.090561495962e+02 
-1.136770481218e+02 1.830949261006e-02 0.0 
1.830949261006e-02 -2.666083600723e+02 0.0 
0.0 0.0 -1.136856224582e+02 
-1.172585179669e+02 1.720673669998e-02 0.0 
1.720673669998e-02 -2.749463317634e+02 0.0 
0.0 0.0 -1.172614549191e+02 
-1.218777567796e+02 2.186642779284e-02 0.0 
2.186642779284e-02 -2.857634397225e+02 0.0 
0.0 0.0 -1.218923589506e+02 
-1.254571135735e+02 1.925859409614e-02 0.0 
1.925859409614e-02 -2.940917565872e+02 0.0 
0.0 0.0 -1.254646610482e+02 
-1.208412913653e+02 1.208492697808e-02 0.0 
1.208492697808e-02 -2.832875421139e+02 0.0 
0.0 0.0 -1.208386500438e+02 
-1.244441771651e+02 2.324487722556e-02 0.0 
2.324487722556e-02 -2.917764132396e+02 0.0 
0.0 0.0 -1.244661771214e+02 
-7.294468530918e+01 -9.006344590669e-04 0.0 
-9.006344590669e-04 -1.715622588210e+02 0.0 
0.0 0.0 -7.295208323906e+01 
-6.942879883718e+01 -7.161610387974e-04 0.0 
-7.161610387974e-04 -1.633636742919e+02 0.0 
0.0 0.0 -6.943774193874e+01 
-6.485769721180e+01 -5.815444236052e-03 0.0 
-5.815444236052e-03 -1.526951935626e+02 0.0 
0.0 0.0 -6.486586723232e+01 
-6.135131436060e+01 -3.390864636897e-03 0.0 
-3.390864636897e-03 -1.445155147378e+02 0.0 
0.0 0.0 -6.136004872952e+01 
-5.677742170787e+01 -1.226721250953e-02 0.0 
-1.226721250953e-02 -1.338483175905e+02 0.0 
0.0 0.0 -5.678772178950e+01 
-5.328980979993e+01 -8.416544253752e-03 0.0 
-8.416544253752e-03 -1.257087668326e+02 0.0 
0.0 0.0 -5.329957298975e+01 
-4.867574822053e+01 -1.691329671071e-02 0.0 
-1.691329671071e-02 -1.149663102826e+02 0.0 
0.0 0.0 -4.869261755094e+01 
-5.219032677603e+01 -2.503486693268e-02 0.0 
-2.503486693268e-02 -1.231346166152e+02 0.0 
0.0 0.0 -5.219748301736e+01 
-4.404574992752e+01 -3.143539999272e-02 0.0 
-3.143539999272e-02 -1.041623536395e+02 0.0 
0.0 0.0 -4.406243107011e+01 
-4.760196959376e+01 -3.176948730560e-02 0.0 
-3.176948730560e-02 -1.123793196485e+02 0.0 
0.0 0.0 -4.759438677269e+01 
-3.940619500404e+01 -3.461197029981e-02 0.0 
-3.461197029981e-02 -9.332008835213e+01 0.0 
0.0 0.0 -3.941788500685e+01 
-4.297313720322e+01 -3.562288198087e-02 0.0 
-3.562288198087e-02 -1.015289976902e+02 0.0 
0.0 0.0 -4.295064046802e+01 
-1.091140975154e+02 7.433908630874e-03 0.0 
7.433908630874e-03 -2.559402983295e+02 0.0 
0.0 0.0 -1.091163187535e+02 
-1.182896895977e+02 1.847979373092e-02 0.0 
1.847979373092e-02 -2.773936825720e+02 0.0 
0.0 0.0 -1.183050116509e+02 
-1.265079589194e+02 9.581814358758e-03 0.0 
9.581814358758e-03 -2.965869776736e+02 0.0 
0.0 0.0 -1.265284809779e+02 
-1.228663372477e+02 1.084245826519e-02 0.0 
1.084245826519e-02 -2.880620750703e+02 0.0 
0.0 0.0 -1.228785236954e+02 
-3.985909342626e+01 -5.630625837176e-03 0.0 
-5.630625837176e-03 -9.440258071376e+01 0.0 
0.0 0.0 -3.987850224201e+01 
-1.267326925040e+02 9.596857609416e-03 0.0 
9.596857609416e-03 -2.969669608130e+02 0.0 
0.0 0.0 -1.267098959951e+02 
-1.263563221321e+02 4.391235763522e-03 0.0 
4.391235763522e-03 -2.961445991194e+02 0.0 
0.0 0.0 -1.263502763754e+02 
-1.226653639093e+02 1.285156387740e-02 0.0 
1.285156387740e-02 -2.875508187857e+02 0.0 
0.0 0.0 -1.226648548085e+02 
-1.290700025702e+02 1.164417355980e-03 0.0 
1.164417355980e-03 -3.024993857101e+02 0.0 
0.0 0.0 -1.290708164841e+02 
-3.884246508885e+01 6.211198197310e-03 0.0 
6.211198197310e-03 -9.194036427688e+01 0.0 
0.0 0.0 -3.883484880972e+01 
-4.525338877493e+01 -1.219768315576e-03 0.0 
-1.219768315576e-03 -1.069527984546e+02 0.0 
0.0 0.0 -4.526185616887e+01 
-4.981108742881e+01 -5.881829903129e-03 0.0 
-5.881829903129e-03 -1.175664477433e+02 0.0 
0.0 0.0 -4.981326055162e+01 
-1.283716130652e+02 2.399397068566e-02 0.0 
2.399397068566e-02 -3.008793543493e+02 0.0 
0.0 0.0 -1.283752902243e+02 
-1.246737275655e+02 3.325160469223e-02 0.0 
3.325160469223e-02 -2.921964155061e+02 0.0 
0.0 0.0 -1.246610429215e+02 
-1.310549414382e+02 1.411118468895e-02 0.0 
1.411118468895e-02 -3.071017875038e+02 0.0 
0.0 0.0 -1.310470186826e+02 
-4.246523863899e+01 1.720072486950e-02 0.0 
1.720072486950e-02 -1.003360892533e+02 0.0 
0.0 0.0 -4.244039836768e+01 
-1.288758704131e+02 8.598156692296e-03 0.0 
8.598156692296e-03 -3.020778739203e+02 0.0 
0.0 0.0 -1.288861233000e+02 
-3.592182532625e+01 -4.266236538980e-02 0.0 
-4.266236538980e-02 -8.521271379211e+01 0.0 
0.0 0.0 -3.594036173551e+01 
-1.219979391380e+02 -6.826905919022e-03 0.0 
-6.826905919022e-03 -2.859128701820e+02 0.0 
0.0 0.0 -1.219732427960e+02 
-1.303636298600e+02 5.819543810880e-03 0.0 
5.819543810880e-03 -3.054066590891e+02 0.0 
0.0 0.0 -1.303310866847e+02 
-1.075546082299e+02 4.383235689608e-03 0.0 
4.383235689608e-03 -2.522789344314e+02 0.0 
0.0 0.0 -1.075500627984e+02 
-1.311447981389e+02 -6.546620039753e-03 0.0 
-6.546620039753e-03 -3.073753562879e+02 0.0 
0.0 0.0 -1.311560463280e+02 
-1.274233226006e+02 5.341626077454e-03 0.0 
5.341626077454e-03 -2.986447322843e+02 0.0 
0.0 0.0 -1.274204164655e+02 
-5.117527951374e+01 -1.919895253824e-02 0.0 
-1.919895253824e-02 -1.207019286334e+02 0.0 
0.0 0.0 -5.116316244415e+01 
-4.650587814222e+01 1.717121768417e-02 0.0 
1.717121768417e-02 -1.098594259856e+02 0.0 
0.0 0.0 -4.650959123835e+01 
-3.844575462792e+01 4.941210095762e-03 0.0 
4.941210095762e-03 -9.105737694714e+01 0.0 
0.0 0.0 -3.845093947252e+01 
-4.216342153550e+01 -1.259453983223e-03 0.0 
-1.259453983223e-03 -9.966557783795e+01 0.0 
0.0 0.0 -4.214869981203e+01 
-5.013103068680e+01 -4.811161655627e-03 0.0 
-4.811161655627e-03 -1.183265851973e+02 0.0 
0.0 0.0 -5.013728476522e+01 
-4.548445272557e+01 -3.453828711773e-02 0.0 
-3.453828711773e-02 -1.073801045719e+02 0.0 
0.0 0.0 -4.545936718925e+01 
-3.742453995126e+01 -6.796445487969e-02 0.0 
-6.796445487969e-02 -8.846259908608e+01 0.0 
0.0 0.0 -3.736614171120e+01 
-4.079121700278e+01 -2.382566925070e-02 0.0 
-2.382566925070e-02 -9.640331418054e+01 0.0 
0.0 0.0 -4.075835935499e+01 
-4.898897707331e+01 -2.262838699099e-02 0.0 
-2.262838699099e-02 -1.155588697669e+02 0.0 
0.0 0.0 -4.896435405206e+01 
-4.427310494801e+01 -1.152295235179e-02 0.0 
-1.152295235179e-02 -1.045491774286e+02 0.0 
0.0 0.0 -4.424668471298e+01 
-3.605751837630e+01 1.770652691672e-03 0.0 
1.770652691672e-03 -8.525887295471e+01 0.0 
0.0 0.0 -3.599491739930e+01 
-3.949104427738e+01 1.062754664044e-02 0.0 
1.062754664044e-02 -9.341470590619e+01 0.0 
0.0 0.0 -3.947172505507e+01 
-1.350677803344e+02 1.532093354268e-02 0.0 
1.532093354268e-02 -3.164133338561e+02 0.0 
0.0 0.0 -1.350443342572e+02 
-3.130179557820e+01 -1.369426400295e-02 0.0 
-1.369426400295e-02 -7.431702714400e+01 0.0 
0.0 0.0 -3.128564681666e+01 
-1.005673599977e+02 5.426077503571e-03 0.0 
5.426077503571e-03 -2.361008772090e+02 0.0 
0.0 0.0 -1.006004711620e+02 
-1.346893903910e+02 -1.162997201161e-03 0.0 
-1.162997201161e-03 -3.155735743407e+02 0.0 
0.0 0.0 -1.346788894195e+02 
-1.335778197743e+02 1.766997236313e-03 0.0 
1.766997236313e-03 -3.130833838983e+02 0.0 
0.0 0.0 -1.335983611018e+02 
-1.329370580201e+02 2.423044259659e-02 0.0 
2.423044259659e-02 -3.115005957827e+02 0.0 
0.0 0.0 -1.329312961408e+02 
-1.292186834293e+02 2.475494168317e-02 0.0 
2.475494168317e-02 -3.028174310187e+02 0.0 
0.0 0.0 -1.292108343344e+02 
-1.209158791570e+02 4.502499145835e-03 0.0 
4.502499145835e-03 -2.834123485950e+02 0.0 
0.0 0.0 -1.208984683256e+02 
-1.254725794158e+02 7.848136400065e-03 0.0 
7.848136400065e-03 -2.941229175539e+02 0.0 
0.0 0.0 -1.254786490909e+02 
-1.337899866428e+02 2.887258963987e-02 0.0 
2.887258963987e-02 -3.135369278698e+02 0.0 
0.0 0.0 -1.337980743538e+02 
-1.300420979558e+02 1.295985148100e-02 0.0 
1.295985148100e-02 -3.048292548683e+02 0.0 
0.0 0.0 -1.300614058472e+02 
-1.217042822980e+02 5.518552576087e-03 0.0 
5.518552576087e-03 -2.853796675326e+02 0.0 
0.0 0.0 -1.217251849492e+02 
-1.262911133374e+02 4.816765441037e-03 0.0 
4.816765441037e-03 -2.960610099073e+02 0.0 
0.0 0.0 -1.263056369734e+02 
-1.179539230148e+02 5.164553281964e-03 0.0 
5.164553281964e-03 -2.765744465696e+02 0.0 
0.0 0.0 -1.179585108753e+02 
-1.225340468223e+02 -4.073030059799e-03 0.0 
-4.073030059799e-03 -2.872690332271e+02 0.0 
0.0 0.0 -1.225409240148e+02 
-1.308936279361e+02 4.580096755468e-03 0.0 
4.580096755468e-03 -3.067634883603e+02 0.0 
0.0 0.0 -1.308971348889e+02 
-1.271338954512e+02 8.174287191851e-03 0.0 
8.174287191851e-03 -2.980036985119e+02 0.0 
0.0 0.0 -1.271412781889e+02 
-1.187519898337e+02 -1.515568635272e-02 0.0 
-1.515568635272e-02 -2.784948379849e+02 0.0 
0.0 0.0 -1.187740483456e+02 
-1.233566096269e+02 1.466630555249e-02 0.0 
1.466630555249e-02 -2.892140666247e+02 0.0 
0.0 0.0 -1.233712028755e+02 
-1.149501918740e+02 -5.423733127386e-03 0.0 
-5.423733127386e-03 -2.696663736382e+02 0.0 
0.0 0.0 -1.149849696537e+02 
-1.195722238708e+02 3.538453297108e-02 0.0 
3.538453297108e-02 -2.803145644424e+02 0.0 
0.0 0.0 -1.195660364940e+02 
-1.279870584510e+02 5.982210708667e-03 0.0 
5.982210708667e-03 -2.999592400042e+02 0.0 
0.0 0.0 -1.279838895366e+02 
-3.448677201398e+01 2.267693177311e-03 0.0 
2.267693177311e-03 -8.156267120335e+01 0.0 
0.0 0.0 -3.441483296520e+01 
-1.244243265921e+02 -5.322184966382e-03 0.0 
-5.322184966382e-03 -2.916582033741e+02 0.0 
0.0 0.0 -1.244247589898e+02 
-1.327213938248e+02 -3.794491712483e-02 0.0 
-3.794491712483e-02 -3.110675694688e+02 0.0 
0.0 0.0 -1.327366889881e+02 
-6.768296870038e+01 9.165046024344e-02 0.0 
9.165046024344e-02 -1.593568189148e+02 0.0 
0.0 0.0 -6.771193628456e+01 
-7.574394805939e+01 1.006163840822e-01 0.0 
1.006163840822e-01 -1.780623085557e+02 0.0 
0.0 0.0 -7.574187698454e+01 
-8.049615036272e+01 -9.852447165582e-03 0.0 
-9.852447165582e-03 -1.891751431434e+02 0.0 
0.0 0.0 -8.050138805183e+01 
-8.423820909406e+01 8.401726369517e-03 0.0 
8.401726369517e-03 -1.978267855184e+02 0.0 
0.0 0.0 -8.421949838373e+01 
-1.241464346372e+02 2.693568712634e-02 0.0 
2.693568712634e-02 -2.909511310943e+02 0.0 
0.0 0.0 -1.241292697195e+02 
-1.325517513137e+02 -1.893228487070e-02 0.0 
-1.893228487070e-02 -3.107040105887e+02 0.0 
0.0 0.0 -1.325767285707e+02 
-4.188017403585e+01 -5.528633587777e-03 0.0 
-5.528633587777e-03 -9.900101433974e+01 0.0 
0.0 0.0 -4.186435651268e+01 
-4.636335676731e+01 -2.361790814005e-02 0.0 
-2.361790814005e-02 -1.094877133406e+02 0.0 
0.0 0.0 -4.635532103236e+01 
-1.366307155724e+02 1.595701342081e-02 0.0 
1.595701342081e-02 -3.201424935881e+02 0.0 
0.0 0.0 -1.366319627481e+02 
-1.256512413036e+02 -2.036797572813e-03 0.0 
-2.036797572813e-03 -2.944291545646e+02 0.0 
0.0 0.0 -1.256241187605e+02 
-1.172845731757e+02 -2.161444998845e-02 0.0 
-2.161444998845e-02 -2.749439491845e+02 0.0 
0.0 0.0 -1.172685567081e+02 
-8.084147497244e+01 -4.336964189611e-03 0.0 
-4.336964189611e-03 -1.899821272965e+02 0.0 
0.0 0.0 -8.084708068069e+01 
-7.738514752827e+01 -9.873875444234e-03 0.0 
-9.873875444234e-03 -1.819200598535e+02 0.0 
0.0 0.0 -7.739156221453e+01 
-7.291010822112e+01 6.278498158737e-03 0.0 
6.278498158737e-03 -1.714516054195e+02 0.0 
0.0 0.0 -7.290851409220e+01 
-6.932864115111e+01 -1.717283220391e-02 0.0 
-1.717283220391e-02 -1.631123268654e+02 0.0 
0.0 0.0 -6.933229040495e+01 
-7.390466394210e+01 -3.704515615224e-02 0.0 
-3.704515615224e-02 -1.738472606151e+02 0.0 
0.0 0.0 -7.392557736717e+01 
-6.476311909151e+01 3.870692624786e-02 0.0 
3.870692624786e-02 -1.524112701772e+02 0.0 
0.0 0.0 -6.475231678061e+01 
-1.142928356249e+02 5.088257864782e-03 0.0 
5.088257864782e-03 -2.680163169325e+02 0.0 
0.0 0.0 -1.142927457672e+02 
-1.355066952152e+02 1.946083288070e-02 0.0 
1.946083288070e-02 -3.175189077280e+02 0.0 
0.0 0.0 -1.355076808830e+02 
-4.464258463719e+01 -3.287696244020e-02 0.0 
-3.287696244020e-02 -1.055246840076e+02 0.0 
0.0 0.0 -4.465018059345e+01 
-3.631469083359e+01 -1.544891330914e-02 0.0 
-1.544891330914e-02 -8.611117045437e+01 0.0 
0.0 0.0 -3.632775838639e+01 
-1.339843881364e+02 3.976398002122e-03 0.0 
3.976398002122e-03 -3.139356586281e+02 0.0 
0.0 0.0 -1.339760140293e+02 
-1.161735547780e+02 -1.085834828645e-03 0.0 
-1.085834828645e-03 -2.724046920058e+02 0.0 
0.0 0.0 -1.161734740351e+02 
-1.136079985672e+02 1.520394536787e-02 0.0 
1.520394536787e-02 -2.664172055570e+02 0.0 
0.0 0.0 -1.136075612373e+02 
-1.171242385872e+02 1.058509314120e-02 0.0 
1.058509314120e-02 -2.746108282601e+02 0.0 
0.0 0.0 -1.171205200542e+02 
-1.216501783974e+02 1.910785865341e-02 0.0 
1.910785865341e-02 -2.851689910093e+02 0.0 
0.0 0.0 -1.216457508220e+02 
-1.251886049763e+02 7.466617786731e-03 0.0 
7.466617786731e-03 -2.934070696352e+02 0.0 
0.0 0.0 -1.251787023834e+02 
-1.297352741479e+02 2.230400811873e-02 0.0 
2.230400811873e-02 -3.040378219141e+02 0.0 
0.0 0.0 -1.297319288186e+02 
-1.332473236664e+02 1.216911072228e-02 0.0 
1.216911072228e-02 -3.122422163758e+02 0.0 
0.0 0.0 -1.332468620127e+02 
-1.287336759297e+02 -1.763939480670e-03 0.0 
-1.763939480670e-03 -3.017030820323e+02 0.0 
0.0 0.0 -1.287310273886e+02 
-1.357886493186e+02 -3.165782245170e-02 0.0 
-3.165782245170e-02 -3.180796707543e+02 0.0 
0.0 0.0 -1.357604960219e+02 
-1.367997108447e+02 1.460707822212e-02 0.0 
1.460707822212e-02 -3.205844160876e+02 0.0 
0.0 0.0 -1.368152380797e+02 
-1.157217070295e+02 -3.371696660832e-02 0.0 
-3.371696660832e-02 -2.710937280769e+02 0.0 
0.0 0.0 -1.156446305319e+02 
-1.146055134268e+02 2.929384553583e-03 0.0 
2.929384553583e-03 -2.687846476222e+02 0.0 
0.0 0.0 -1.146170483147e+02 
-5.253221850658e+01 -1.692258274467e-02 0.0 
-1.692258274467e-02 -1.238516041951e+02 0.0 
0.0 0.0 -5.251514681050e+01 
-3.063010141381e+01 6.069489850833e-02 0.0 
6.069489850833e-02 -7.290255876374e+01 0.0 
0.0 0.0 -3.065979805326e+01 
-3.092818702206e+01 2.671513102419e-03 0.0 
2.671513102419e-03 -7.358799008640e+01 0.0 
0.0 0.0 -3.095485313254e+01 
-3.770109734186e+01 -2.569176406800e-02 0.0 
-2.569176406800e-02 -8.919053517322e+01 0.0 
0.0 0.0 -3.766748975453e+01 
-4.607041030939e+01 -1.324247488770e-02 0.0 
-1.324247488770e-02 -1.087255557694e+02 0.0 
0.0 0.0 -4.603878982364e+01 
-1.394165385266e+02 5.070688242524e-03 0.0 
5.070688242524e-03 -3.265840069561e+02 0.0 
0.0 0.0 -1.394001636448e+02 
-1.378088561706e+02 2.159215709568e-02 0.0 
2.159215709568e-02 -3.229358317705e+02 0.0 
0.0 0.0 -1.378234063823e+02 
-1.342138285987e+02 2.156158102245e-02 0.0 
2.156158102245e-02 -3.145316357436e+02 0.0 
0.0 0.0 -1.342236393027e+02 
-6.594236875310e+01 -8.159745577464e-02 0.0 
-8.159745577464e-02 -1.552422953884e+02 0.0 
0.0 0.0 -6.595539924244e+01 
-7.051898136315e+01 -2.361137079717e-02 0.0 
-2.361137079717e-02 -1.659627019016e+02 0.0 
0.0 0.0 -7.054450497943e+01 
-1.394523488281e+02 -1.305120437244e-02 0.0 
-1.305120437244e-02 -3.266137182905e+02 0.0 
0.0 0.0 -1.394198201356e+02 
-1.120264156097e+02 4.728511107815e-03 0.0 
4.728511107815e-03 -2.623928876842e+02 0.0 
0.0 0.0 -1.119257909882e+02 
-1.134106173121e+02 3.335208535333e-03 0.0 
3.335208535333e-03 -2.659609790998e+02 0.0 
0.0 0.0 -1.134114789235e+02 
-1.096049696768e+02 -8.521134582675e-03 0.0 
-8.521134582675e-03 -2.570381299234e+02 0.0 
0.0 0.0 -1.095929298801e+02 
-2.881440389110e+01 5.713985798569e-02 0.0 
5.713985798569e-02 -6.821214717081e+01 0.0 
0.0 0.0 -2.870796531857e+01 
-2.791985496032e+01 -1.774249990409e-02 0.0 
-1.774249990409e-02 -6.624126077149e+01 0.0 
0.0 0.0 -2.784833471954e+01 
-1.383881380178e+02 2.543352189496e-02 0.0 
2.543352189496e-02 -3.242788793267e+02 0.0 
0.0 0.0 -1.384001052034e+02 
-5.428382145564e+01 -1.501401420744e-02 0.0 
-1.501401420744e-02 -1.280061756203e+02 0.0 
0.0 0.0 -5.428699912280e+01 
-5.082538112488e+01 -1.993936481006e-02 0.0 
-1.993936481006e-02 -1.199309971271e+02 0.0 
0.0 0.0 -5.082691347558e+01 
-2.772616358082e+01 -1.762458011343e-02 0.0 
-1.762458011343e-02 -6.609368552002e+01 0.0 
0.0 0.0 -2.774595473025e+01 
-2.313114749729e+01 1.468383010560e-02 0.0 
1.468383010560e-02 -5.518456724140e+01 0.0 
0.0 0.0 -2.309471442161e+01 
-1.287137310581e+02 -7.694900311226e-02 0.0 
-7.694900311226e-02 -3.014258722327e+02 0.0 
0.0 0.0 -1.286418809872e+02 
-1.370901069659e+02 -5.517449080800e-02 0.0 
-5.517449080800e-02 -3.210291994562e+02 0.0 
0.0 0.0 -1.370357919266e+02 
-8.891111156081e+01 7.462059389771e-03 0.0 
7.462059389771e-03 -2.086708832362e+02 0.0 
0.0 0.0 -8.887459843911e+01 
-9.253620451725e+01 4.317029712570e-02 0.0 
4.317029712570e-02 -2.172401366066e+02 0.0 
0.0 0.0 -9.253290233714e+01 
-1.357879972844e+02 1.788405207187e-02 0.0 
1.788405207187e-02 -3.181184778888e+02 0.0 
0.0 0.0 -1.357719425520e+02 
-3.468644146349e+01 1.106363857207e-02 0.0 
1.106363857207e-02 -8.228151932059e+01 0.0 
0.0 0.0 -3.469038823522e+01 
-1.410265035990e+02 -4.521363899511e-03 0.0 
-4.521363899511e-03 -3.303189559438e+02 0.0 
0.0 0.0 -1.410036378628e+02 
-1.197659610849e+02 -1.459958467569e-02 0.0 
-1.459958467569e-02 -2.808184014776e+02 0.0 
0.0 0.0 -1.197753087687e+02 
-1.115010760694e+02 -6.888217545453e-03 0.0 
-6.888217545453e-03 -2.615195475763e+02 0.0 
0.0 0.0 -1.115061870937e+02 
-7.951621558564e+01 -5.787038015294e-02 0.0 
-5.787038015294e-02 -1.866169691603e+02 0.0 
0.0 0.0 -7.943995542379e+01 
-3.852637265258e+01 -4.356796628806e-02 0.0 
-4.356796628806e-02 -9.118936597323e+01 0.0 
0.0 0.0 -3.851472158774e+01 
-3.401325977421e+01 -2.837755295662e-02 0.0 
-2.837755295662e-02 -8.063775733883e+01 0.0 
0.0 0.0 -3.399530513391e+01 
-5.719978707651e+01 -2.613227530258e-02 0.0 
-2.613227530258e-02 -1.347635473987e+02 0.0 
0.0 0.0 -5.718900034258e+01 
-4.305112083434e+01 -3.714611645602e-03 0.0 
-3.714611645602e-03 -1.017413639963e+02 0.0 
0.0 0.0 -4.303774544919e+01 
-4.131311578079e+01 -4.327077681776e-03 0.0 
-4.327077681776e-03 -9.760134554623e+01 0.0 
0.0 0.0 -4.127433839810e+01 
-1.441256559625e+02 -3.090427006484e-02 0.0 
-3.090427006484e-02 -3.375761765556e+02 0.0 
0.0 0.0 -1.441105497554e+02 
-1.421054397282e+02 2.949259879793e-02 0.0 
2.949259879793e-02 -3.328564041027e+02 0.0 
0.0 0.0 -1.420885531493e+02 
-1.323089207960e+02 4.084878787646e-02 0.0 
4.084878787646e-02 -3.100897856629e+02 0.0 
0.0 0.0 -1.323196119377e+02 
-1.241574416160e+02 -3.622005749321e-05 0.0 
-3.622005749321e-05 -2.910739239393e+02 0.0 
0.0 0.0 -1.241694096666e+02 
-1.405429104421e+02 3.181513986355e-02 0.0 
3.181513986355e-02 -3.291190394794e+02 0.0 
0.0 0.0 -1.404985849765e+02 
-2.647730594204e+01 2.277211502046e-02 0.0 
2.277211502046e-02 -6.293229677871e+01 0.0 
0.0 0.0 -2.642288081623e+01 
-1.431049946802e+02 7.175295138577e-03 0.0 
7.175295138577e-03 -3.352779874165e+02 0.0 
0.0 0.0 -1.431148946290e+02 
-1.292836659914e+02 5.303776715153e-03 0.0 
5.303776715153e-03 -3.030298434729e+02 0.0 
0.0 0.0 -1.292940528393e+02 
-1.419298696189e+02 -3.384229434902e-02 0.0 
-3.384229434902e-02 -3.327507250078e+02 0.0 
0.0 0.0 -1.420041783880e+02 
-1.386940646034e+02 3.977184706051e-03 0.0 
3.977184706051e-03 -3.250116732372e+02 0.0 
0.0 0.0 -1.387117213522e+02 
-5.871167618145e+01 -2.153245309688e-02 0.0 
-2.153245309688e-02 -1.383671307189e+02 0.0 
0.0 0.0 -5.872364207010e+01 
-5.536834248209e+01 1.309938816709e-02 0.0 
1.309938816709e-02 -1.305831299860e+02 0.0 
0.0 0.0 -5.538544174043e+01 
-4.748646981125e+01 -1.738561428925e-02 0.0 
-1.738561428925e-02 -1.121651318208e+02 0.0 
0.0 0.0 -4.749548048961e+01 
-5.204343781984e+01 -4.455150541719e-02 0.0 
-4.455150541719e-02 -1.228563638726e+02 0.0 
0.0 0.0 -5.206994050775e+01 
-1.014328283319e+02 1.699368448288e-02 0.0 
1.699368448288e-02 -2.382183179287e+02 0.0 
0.0 0.0 -1.014953438782e+02 
-6.329504961051e+01 2.014594719590e-03 0.0 
2.014594719590e-03 -1.490862863363e+02 0.0 
0.0 0.0 -6.331440078404e+01 
-9.616272613153e+01 3.492950837080e-03 0.0 
3.492950837080e-03 -2.257976561186e+02 0.0 
0.0 0.0 -9.618811467503e+01 
-9.270033503848e+01 5.344736727663e-03 0.0 
5.344736727663e-03 -2.177307234137e+02 0.0 
0.0 0.0 -9.272931753566e+01 
-8.834357299216e+01 -3.586941482203e-03 0.0 
-3.586941482203e-03 -2.075599485973e+02 0.0 
0.0 0.0 -8.837105647682e+01 
-7.836358750991e+01 -3.991682950909e-03 0.0 
-3.991682950909e-03 -1.842701798819e+02 0.0 
0.0 0.0 -7.839013021753e+01 
-7.501215512659e+01 6.083931485109e-03 0.0 
6.083931485109e-03 -1.764375000501e+02 0.0 
0.0 0.0 -7.503489655301e+01 
-6.586823418938e+01 2.565612723856e-04 0.0 
2.565612723856e-04 -1.550572550646e+02 0.0 
0.0 0.0 -6.587764677618e+01 
-1.018881631488e+02 1.195809561887e-02 0.0 
1.195809561887e-02 -2.391023080979e+02 0.0 
0.0 0.0 -1.018971413740e+02 
-8.524055784750e+01 -3.508891811891e-03 0.0 
-3.508891811891e-03 -2.001961894868e+02 0.0 
0.0 0.0 -8.523102420029e+01 
-1.064501418200e+02 9.187758657379e-03 0.0 
9.187758657379e-03 -2.497049189658e+02 0.0 
0.0 0.0 -1.064465182357e+02 
-1.013974627437e+02 -3.893518673049e-03 0.0 
-3.893518673049e-03 -2.379123959716e+02 0.0 
0.0 0.0 -1.013929576146e+02 
-1.392047131624e+02 1.419642433833e-02 0.0 
1.419642433833e-02 -3.261517085997e+02 0.0 
0.0 0.0 -1.392069265286e+02 
-1.438524483431e+02 3.542820077400e-02 0.0 
3.542820077400e-02 -3.370297040724e+02 0.0 
0.0 0.0 -1.438646457247e+02 
-1.103660082785e+02 -3.785081697116e-02 0.0 
-3.785081697116e-02 -2.589573259258e+02 0.0 
0.0 0.0 -1.103970002613e+02 
-1.066331136345e+02 -4.825753881389e-03 0.0 
-4.825753881389e-03 -2.500275829910e+02 0.0 
0.0 0.0 -1.065982089877e+02 
-3.152210466870e+01 7.094402557969e-03 0.0 
7.094402557969e-03 -7.492917164847e+01 0.0 
0.0 0.0 -3.153538289515e+01 
-2.794076064995e+01 -2.365552164629e-02 0.0 
-2.365552164629e-02 -6.666966158986e+01 0.0 
0.0 0.0 -2.798312667194e+01 
-9.565059510436e+01 -2.445256840407e-03 0.0 
-2.445256840407e-03 -2.244922725464e+02 0.0 
0.0 0.0 -9.564286029521e+01 
-1.382486859526e+02 -1.901700882659e-02 0.0 
-1.901700882659e-02 -3.239556956690e+02 0.0 
0.0 0.0 -1.382613144865e+02 
-1.411157012099e+02 -1.965342155711e-04 0.0 
-1.965342155711e-04 -3.306126727078e+02 0.0 
0.0 0.0 -1.411185121753e+02 
-1.448073369726e+02 1.062575109454e-02 0.0 
1.062575109454e-02 -3.392460251260e+02 0.0 
0.0 0.0 -1.448160086296e+02 
-1.402822934719e+02 1.261871098991e-02 0.0 
1.261871098991e-02 -3.286451563944e+02 0.0 
0.0 0.0 -1.402782349599e+02 
-1.404281312255e+02 -5.288351252245e-03 0.0 
-5.288351252245e-03 -3.288877939128e+02 0.0 
0.0 0.0 -1.403947775415e+02 
-6.838262856846e+01 -4.976398174386e-03 0.0 
-4.976398174386e-03 -1.609072771092e+02 0.0 
0.0 0.0 -6.838697170329e+01 
-1.044197938935e+02 8.847373544146e-03 0.0 
8.847373544146e-03 -2.449853172761e+02 0.0 
0.0 0.0 -1.044215333509e+02 
-2.664717288088e+01 5.115343722722e-02 0.0 
5.115343722722e-02 -6.353589149922e+01 0.0 
0.0 0.0 -2.665491931403e+01 
-1.081141613427e+02 -2.822596522104e-03 0.0 
-2.822596522104e-03 -2.536149688275e+02 0.0 
0.0 0.0 -1.081187390510e+02 
-2.331048105849e+01 2.663796260447e-02 0.0 
2.663796260447e-02 -5.567075383959e+01 0.0 
0.0 0.0 -2.329437046942e+01 
-1.234596323278e+02 6.187032724222e-03 0.0 
6.187032724222e-03 -2.895081527364e+02 0.0 
0.0 0.0 -1.234903355193e+02 
-1.377009590675e+02 -2.703066857616e-03 0.0 
-2.703066857616e-03 -3.225870714723e+02 0.0 
0.0 0.0 -1.376864091619e+02 
-1.423153665447e+02 -8.269158915086e-04 0.0 
-8.269158915086e-04 -3.333417889937e+02 0.0 
0.0 0.0 -1.422971466615e+02 
-1.439598417021e+02 -8.017486116175e-03 0.0 
-8.017486116175e-03 -3.370957666641e+02 0.0 
0.0 0.0 -1.439166825099e+02 
-9.027961971353e+01 -4.752814607425e-02 0.0 
-4.752814607425e-02 -2.120736601307e+02 0.0 
0.0 0.0 -9.030598395328e+01 
-1.116243732248e+02 -1.146668866838e-02 0.0 
-1.146668866838e-02 -2.618222219832e+02 0.0 
0.0 0.0 -1.116339785624e+02 
-1.071514439871e+02 -7.921846050433e-03 0.0 
-7.921846050433e-03 -2.513977780931e+02 0.0 
0.0 0.0 -1.071647666241e+02 
-8.494390752596e+01 -1.626994945127e-02 0.0 
-1.626994945127e-02 -1.996036017370e+02 0.0 
0.0 0.0 -8.496425277889e+01 
-8.063544446751e+01 -1.686695456643e-02 0.0 
-1.686695456643e-02 -1.895583004401e+02 0.0 
0.0 0.0 -8.065812347229e+01 
-8.397557503281e+01 -1.442560958425e-02 0.0 
-1.442560958425e-02 -1.973555616964e+02 0.0 
0.0 0.0 -8.399934101875e+01 
-7.626027360415e+01 -1.620650370979e-02 0.0 
-1.620650370979e-02 -1.793681809026e+02 0.0 
0.0 0.0 -7.628853635202e+01 
-6.069076865764e+01 -1.596774657533e-02 0.0 
-1.596774657533e-02 -1.429118218669e+02 0.0 
0.0 0.0 -6.068077715736e+01 
-5.599565096866e+01 -6.815118254544e-03 0.0 
-6.815118254544e-03 -1.319468793679e+02 0.0 
0.0 0.0 -5.598275910097e+01 
-1.464787811832e+02 -7.660851831110e-03 0.0 
-7.660851831110e-03 -3.432387881143e+02 0.0 
0.0 0.0 -1.465152707892e+02 
-1.448071360898e+02 -8.747907186736e-02 0.0 
-8.747907186736e-02 -3.392414890241e+02 0.0 
0.0 0.0 -1.448145875342e+02 
-1.465656715757e+02 2.208073409619e-02 0.0 
2.208073409619e-02 -3.434404758717e+02 0.0 
0.0 0.0 -1.466018442342e+02 
-1.435733222032e+02 2.258335608201e-03 0.0 
2.258335608201e-03 -3.360391417397e+02 0.0 
0.0 0.0 -1.434837391829e+02 
-1.477456683075e+02 1.105157050207e-02 0.0 
1.105157050207e-02 -3.456305118882e+02 0.0 
0.0 0.0 -1.476128540587e+02 
-1.430395592350e+02 3.360128183445e-03 0.0 
3.360128183445e-03 -3.348891306059e+02 0.0 
0.0 0.0 -1.429786069523e+02 
-4.935486184263e+01 2.503542601006e-02 0.0 
2.503542601006e-02 -1.165917671999e+02 0.0 
0.0 0.0 -4.938398871275e+01 
-6.724969004953e+01 -9.693549121600e-03 0.0 
-9.693549121600e-03 -1.583401763072e+02 0.0 
0.0 0.0 -6.727695990703e+01 
-1.468032521390e+02 3.983069741872e-02 0.0 
3.983069741872e-02 -3.436194930019e+02 0.0 
0.0 0.0 -1.467268235423e+02 
-8.924469681551e+01 -1.417064609301e-02 0.0 
-1.417064609301e-02 -2.096328375400e+02 0.0 
0.0 0.0 -8.926326030665e+01 
-1.464296490760e+02 1.539354147742e-02 0.0 
1.539354147742e-02 -3.431494343089e+02 0.0 
0.0 0.0 -1.464737250155e+02 
-1.418886536350e+02 -1.588865010165e-02 0.0 
-1.588865010165e-02 -3.324566484458e+02 0.0 
0.0 0.0 -1.419035906243e+02 
-1.859596384662e+01 6.951640380574e-02 0.0 
6.951640380574e-02 -4.435840582036e+01 0.0 
0.0 0.0 -1.848631090009e+01 
-2.175044478488e+01 1.136066191405e-01 0.0 
1.136066191405e-01 -5.208322668878e+01 0.0 
0.0 0.0 -2.175010144210e+01 
-1.455830885070e+02 -7.628077281812e-03 0.0 
-7.628077281812e-03 -3.409047114436e+02 0.0 
0.0 0.0 -1.455463399852e+02 
-4.411281999328e+01 -2.821640077955e-03 0.0 
-2.821640077955e-03 -1.043323195195e+02 0.0 
0.0 0.0 -4.413354185382e+01 
-4.843701802350e+01 -3.263404938429e-02 0.0 
-3.263404938429e-02 -1.145129975658e+02 0.0 
0.0 0.0 -4.848500467679e+01 
-3.965050111018e+01 -3.333326638552e-03 0.0 
-3.333326638552e-03 -9.388055263732e+01 0.0 
0.0 0.0 -3.965931612425e+01 
-1.547350135296e+02 -1.912875165351e-02 0.0 
-1.912875165351e-02 -3.623823093804e+02 0.0 
0.0 0.0 -1.547351968730e+02 
-9.034330041908e+01 1.138957805872e-02 0.0 
1.138957805872e-02 -2.121548547621e+02 0.0 
0.0 0.0 -9.034944655435e+01 
-1.461628083770e+02 -9.370051117607e-03 0.0 
-9.370051117607e-03 -3.421372178511e+02 0.0 
0.0 0.0 -1.460900078684e+02 
-8.287052080722e+01 -3.471631654466e-04 0.0 
-3.471631654466e-04 -1.947771663894e+02 0.0 
0.0 0.0 -8.289430615899e+01 
-1.496417499479e+02 -1.534009753996e-02 0.0 
-1.534009753996e-02 -3.502574166883e+02 0.0 
0.0 0.0 -1.495697499909e+02 
-1.152468575343e+02 -9.425758589067e-03 0.0 
-9.425758589067e-03 -2.702778010173e+02 0.0 
0.0 0.0 -1.152573975655e+02 
-7.621419255422e+01 -3.162647414020e-02 0.0 
-3.162647414020e-02 -1.791731209937e+02 0.0 
0.0 0.0 -7.621619406437e+01 
-1.320487404079e+02 3.338773623412e-02 0.0 
3.338773623412e-02 -3.094603195817e+02 0.0 
0.0 0.0 -1.320527179969e+02 
-1.411460640855e+02 6.683421060314e-02 0.0 
6.683421060314e-02 -3.304747668680e+02 0.0 
0.0 0.0 -1.410862492860e+02 
-1.501956718174e+02 -5.184082484160e-02 0.0 
-5.184082484160e-02 -3.519191714438e+02 0.0 
0.0 0.0 -1.502344529784e+02 
-1.051563478150e+02 -3.973367605642e-02 0.0 
-3.973367605642e-02 -2.464587122974e+02 0.0 
0.0 0.0 -1.050845180337e+02 
-1.009893030914e+02 7.076067055035e-02 0.0 
7.076067055035e-02 -2.369437936881e+02 0.0 
0.0 0.0 -1.009799290339e+02 
-1.086496422388e+02 -1.407208012767e-02 0.0 
-1.407208012767e-02 -2.548179550807e+02 0.0 
0.0 0.0 -1.086402791959e+02 
-3.249607970614e+01 8.616782102802e-04 0.0 
8.616782102802e-04 -7.711704760699e+01 0.0 
0.0 0.0 -3.248393819394e+01 
-2.355989554763e+01 3.248068416066e-02 0.0 
3.248068416066e-02 -5.637362039599e+01 0.0 
0.0 0.0 -2.358005478309e+01 
-1.400660960692e+02 1.503771659486e-02 0.0 
1.503771659486e-02 -3.282077609337e+02 0.0 
0.0 0.0 -1.400821571009e+02 
-5.916254844857e+01 1.416150689537e-02 0.0 
1.416150689537e-02 -1.393996515136e+02 0.0 
0.0 0.0 -5.916865998864e+01 
-6.352584911652e+01 -5.953454766680e-02 0.0 
-5.953454766680e-02 -1.499058009869e+02 0.0 
0.0 0.0 -6.362949503103e+01 
-3.804418486774e+01 6.471633982114e-03 0.0 
6.471633982114e-03 -9.012140016887e+01 0.0 
0.0 0.0 -3.804967551098e+01 
-4.634304128386e+01 -5.755900416451e-03 0.0 
-5.755900416451e-03 -1.094299024111e+02 0.0 
0.0 0.0 -4.633188310848e+01 
-9.356464737491e+01 8.786360506852e-03 0.0 
8.786360506852e-03 -2.195861809367e+02 0.0 
0.0 0.0 -9.354524849347e+01 
-8.993748532973e+01 5.255510254976e-03 0.0 
5.255510254976e-03 -2.111542033711e+02 0.0 
0.0 0.0 -8.992750661024e+01 
-1.270584010015e+02 1.477696601843e-02 0.0 
1.477696601843e-02 -2.978667002620e+02 0.0 
0.0 0.0 -1.270775303790e+02 
-1.315171945387e+02 -1.897431627250e-03 0.0 
-1.897431627250e-03 -3.083006407680e+02 0.0 
0.0 0.0 -1.315453505920e+02 
-1.180941187361e+02 2.012263958898e-02 0.0 
2.012263958898e-02 -2.768994178293e+02 0.0 
0.0 0.0 -1.180980609696e+02 
-1.151220602178e+02 -4.119773216401e-03 0.0 
-4.119773216401e-03 -2.699750622563e+02 0.0 
0.0 0.0 -1.151291367422e+02 
-1.068543844576e+02 -2.904659075411e-03 0.0 
-2.904659075411e-03 -2.506829189642e+02 0.0 
0.0 0.0 -1.068611910265e+02 
-1.033097872318e+02 2.602429173042e-03 0.0 
2.602429173042e-03 -2.423960008868e+02 0.0 
0.0 0.0 -1.033117364356e+02 
-1.472869562379e+02 3.986917881755e-02 0.0 
3.986917881755e-02 -3.451503048632e+02 0.0 
0.0 0.0 -1.473311783303e+02 
-1.528780333693e+02 6.269233246788e-03 0.0 
6.269233246788e-03 -3.581599520713e+02 0.0 
0.0 0.0 -1.529113956322e+02 
-6.530311729868e+01 -1.299174567918e-02 0.0 
-1.299174567918e-02 -1.537006788027e+02 0.0 
0.0 0.0 -6.530113883042e+01 
-6.180919876795e+01 -1.949834253362e-02 0.0 
-1.949834253362e-02 -1.455555867849e+02 0.0 
0.0 0.0 -6.180943566587e+01 
-6.407034443724e+01 -1.265289954519e-02 0.0 
-1.265289954519e-02 -1.507934415097e+02 0.0 
0.0 0.0 -6.405913578407e+01 
-1.504639905626e+02 2.441319520500e-02 0.0 
2.441319520500e-02 -3.521873449926e+02 0.0 
0.0 0.0 -1.503954006666e+02 
-1.505870167326e+02 -6.852429229797e-02 0.0 
-6.852429229797e-02 -3.526099674383e+02 0.0 
0.0 0.0 -1.505590952513e+02 
-1.467804629813e+02 5.732254666435e-02 0.0 
5.732254666435e-02 -3.440006943175e+02 0.0 
0.0 0.0 -1.468343471896e+02 
-1.983651892344e+01 5.032990456220e-02 0.0 
5.032990456220e-02 -4.759248314416e+01 0.0 
0.0 0.0 -1.982870062028e+01 
-2.425933697313e+01 2.906744508814e-02 0.0 
2.906744508814e-02 -5.824493605075e+01 0.0 
0.0 0.0 -2.435128190716e+01 
-3.070692004171e+01 -2.315484803707e-02 0.0 
-2.315484803707e-02 -7.302983815649e+01 0.0 
0.0 0.0 -3.072102745946e+01 
-2.638987009369e+01 5.750836694771e-02 0.0 
5.750836694771e-02 -6.268539791240e+01 0.0 
0.0 0.0 -2.632258040183e+01 
-1.482682082224e+02 -1.462401623349e-03 0.0 
-1.462401623349e-03 -3.473305125342e+02 0.0 
0.0 0.0 -1.482796162270e+02 
-1.439864160814e+02 -4.592439808950e-04 0.0 
-4.592439808950e-04 -3.373094231070e+02 0.0 
0.0 0.0 -1.439887517565e+02 
-1.535558805711e+02 -7.222989206342e-05 0.0 
-7.222989206342e-05 -3.595787639633e+02 0.0 
0.0 0.0 -1.535403933603e+02 
-4.411658068351e+01 -5.065061904032e-02 0.0 
-5.065061904032e-02 -1.042322361950e+02 0.0 
0.0 0.0 -4.410464506354e+01 
-1.278845372456e+02 -2.453901641406e-02 0.0 
-2.453901641406e-02 -2.997367856613e+02 0.0 
0.0 0.0 -1.278863968721e+02 
-1.484138762428e+02 -5.025967774264e-02 0.0 
-5.025967774264e-02 -3.475631217280e+02 0.0 
0.0 0.0 -1.483930993913e+02 
-1.447488024116e+02 -7.216124802070e-02 0.0 
-7.216124802070e-02 -3.390965053638e+02 0.0 
0.0 0.0 -1.447535923326e+02 
-1.532001577209e+02 -4.077620337080e-02 0.0 
-4.077620337080e-02 -3.587419755428e+02 0.0 
0.0 0.0 -1.531826399791e+02 
-1.401800092294e+02 7.624587174217e-03 0.0 
7.624587174217e-03 -3.282900459697e+02 0.0 
0.0 0.0 -1.401410165597e+02 
-1.480065268437e+02 2.763518424494e-02 0.0 
2.763518424494e-02 -3.467818352397e+02 0.0 
0.0 0.0 -1.480365086250e+02 
-1.485412965104e+02 -2.545303032313e-02 0.0 
-2.545303032313e-02 -3.478643552233e+02 0.0 
0.0 0.0 -1.485216955201e+02 
-1.509615452215e+01 6.611469646995e-02 0.0 
6.611469646995e-02 -3.626056133679e+01 0.0 
0.0 0.0 -1.500701475768e+01 
-1.473712271480e+02 6.704757422735e-02 0.0 
6.704757422735e-02 -3.451388598874e+02 0.0 
0.0 0.0 -1.473530261106e+02 
-1.016133668889e+02 5.086182128674e-03 0.0 
5.086182128674e-03 -2.384358435018e+02 0.0 
0.0 0.0 -1.016147631172e+02 
-1.189054576696e+01 1.396024343139e-01 0.0 
1.396024343139e-01 -2.826173459468e+01 0.0 
0.0 0.0 -1.178607489944e+01 
-9.794875751931e+01 4.419229790486e-04 0.0 
4.419229790486e-04 -2.296478343242e+02 0.0 
0.0 0.0 -9.787897755305e+01 
-1.027077502949e+02 5.702411885884e-03 0.0 
5.702411885884e-03 -2.409297097947e+02 0.0 
0.0 0.0 -1.026912380269e+02 
-9.360784545749e+01 1.664869487153e-02 0.0 
1.664869487153e-02 -2.196179267724e+02 0.0 
0.0 0.0 -9.356773166896e+01 
-3.596927002437e+01 -3.608136561339e-02 0.0 
-3.608136561339e-02 -8.513583249989e+01 0.0 
0.0 0.0 -3.593153075728e+01 
-9.911753935537e+01 4.135784646556e-02 0.0 
4.135784646556e-02 -2.323981280263e+02 0.0 
0.0 0.0 -9.905470021451e+01 
-1.040912119789e+02 6.075330069876e-02 0.0 
6.075330069876e-02 -2.441069487962e+02 0.0 
0.0 0.0 -1.040594482325e+02 
-1.496742759986e+01 -2.203709553951e-02 0.0 
-2.203709553951e-02 -3.599541101801e+01 0.0 
0.0 0.0 -1.499946484414e+01 
-1.549445638209e+02 -1.470779950394e-02 0.0 
-1.470779950394e-02 -3.626118364419e+02 0.0 
0.0 0.0 -1.548669200788e+02 
-1.552833214323e+01 7.021923124802e-02 0.0 
7.021923124802e-02 -3.748897715236e+01 0.0 
0.0 0.0 -1.550376193153e+01 
-1.891002513512e+01 1.108235907802e-01 0.0 
1.108235907802e-01 -4.527120264153e+01 0.0 
0.0 0.0 -1.885436833300e+01 
-1.503309395768e+02 -6.033185521484e-02 0.0 
-6.033185521484e-02 -3.518458377300e+02 0.0 
0.0 0.0 -1.502530331920e+02 
-1.455006862100e+02 4.066690538141e-03 0.0 
4.066690538141e-03 -3.407743865940e+02 0.0 
0.0 0.0 -1.454825218412e+02 
-1.535157504729e+02 2.547930816627e-02 0.0 
2.547930816627e-02 -3.595600056631e+02 0.0 
0.0 0.0 -1.535227268408e+02 
-1.486932431296e+02 -5.648024165012e-02 0.0 
-5.648024165012e-02 -3.484240241789e+02 0.0 
0.0 0.0 -1.487351801926e+02 
-1.407413814854e+02 1.873498437725e-02 0.0 
1.873498437725e-02 -3.297036708767e+02 0.0 
0.0 0.0 -1.407335157086e+02 
-1.445031725919e+02 -2.703493436501e-02 0.0 
-2.703493436501e-02 -3.384476856998e+02 0.0 
0.0 0.0 -1.444852574875e+02 
-9.680698371882e+01 5.749290973844e-02 0.0 
5.749290973844e-02 -2.273169773503e+02 0.0 
0.0 0.0 -9.683718832074e+01 
-1.537230867460e+02 -7.204661771082e-02 0.0 
-7.204661771082e-02 -3.598751104617e+02 0.0 
0.0 0.0 -1.536794591623e+02 
-1.483792810354e+02 -1.903426685680e-02 0.0 
-1.903426685680e-02 -3.474191404901e+02 0.0 
0.0 0.0 -1.483395264577e+02 
-1.575180414238e+02 -4.077635310849e-02 0.0 
-4.077635310849e-02 -3.689485121361e+02 0.0 
0.0 0.0 -1.575399660679e+02 
-7.308736118656e+01 -1.815671327682e-02 0.0 
-1.815671327682e-02 -1.719516845380e+02 0.0 
0.0 0.0 -7.311171371736e+01 
-5.641469564141e+01 -1.171681621642e-02 0.0 
-1.171681621642e-02 -1.331446252793e+02 0.0 
0.0 0.0 -5.646779627620e+01 
-5.300283349589e+01 -1.043820117787e-02 0.0 
-1.043820117787e-02 -1.251772819516e+02 0.0 
0.0 0.0 -5.305403463424e+01 
-4.489286656845e+01 -1.631608774943e-01 0.0 
-1.631608774943e-01 -1.062491460809e+02 0.0 
0.0 0.0 -4.494260379480e+01 
-1.525950806716e+02 -2.112357312794e-02 0.0 
-2.112357312794e-02 -3.572619106627e+02 0.0 
0.0 0.0 -1.525570974003e+02 
-1.475556305517e+02 -8.709359917879e-02 0.0 
-8.709359917879e-02 -3.455475101896e+02 0.0 
0.0 0.0 -1.475309422224e+02 
-1.332479725349e+02 -4.728673666528e-03 0.0 
-4.728673666528e-03 -3.122491842453e+02 0.0 
0.0 0.0 -1.332491470341e+02 
-1.247810731720e+02 -1.847864257028e-02 0.0 
-1.847864257028e-02 -2.925442565284e+02 0.0 
0.0 0.0 -1.247975989101e+02 
-9.825627160898e+01 -2.986195577077e-02 0.0 
-2.986195577077e-02 -2.307515485211e+02 0.0 
0.0 0.0 -9.830234603901e+01 
-9.784892027189e+01 3.223625885036e-02 0.0 
3.223625885036e-02 -2.297262667761e+02 0.0 
0.0 0.0 -9.787255611441e+01 
-1.054446665408e+02 -1.283876000632e-01 0.0 
-1.283876000632e-01 -2.474876721470e+02 0.0 
0.0 0.0 -1.054797016063e+02 
-1.044297502109e+02 2.782926472465e-02 0.0 
2.782926472465e-02 -2.451130241183e+02 0.0 
0.0 0.0 -1.044628322987e+02 
-1.120486455125e+02 -1.223444785617e-01 0.0 
-1.223444785617e-01 -2.629532474328e+02 0.0 
0.0 0.0 -1.121005678836e+02 
-1.109879157435e+02 5.631410877002e-02 0.0 
5.631410877002e-02 -2.602421276507e+02 0.0 
0.0 0.0 -1.109690130182e+02 
-1.187855095865e+02 1.177067281753e-01 0.0 
1.177067281753e-01 -2.784283302729e+02 0.0 
0.0 0.0 -1.187641519578e+02 
-1.531324206004e+02 -1.042846636740e-01 0.0 
-1.042846636740e-01 -3.587015536801e+02 0.0 
0.0 0.0 -1.531501922841e+02 
-3.618375587096e+01 -4.543042525203e-02 0.0 
-4.543042525203e-02 -8.577030836201e+01 0.0 
0.0 0.0 -3.618621926989e+01 
-8.160570057236e+01 -1.772629281028e-02 0.0 
-1.772629281028e-02 -1.917791758178e+02 0.0 
0.0 0.0 -8.161546291703e+01 
-1.511449092517e+02 4.326640040521e-02 0.0 
4.326640040521e-02 -3.537204942739e+02 0.0 
0.0 0.0 -1.510596210577e+02 
-1.458718578453e+02 1.221507147696e-02 0.0 
1.221507147696e-02 -3.417722459030e+02 0.0 
0.0 0.0 -1.458932311245e+02 
-7.170727904426e+01 -8.885164645747e-03 0.0 
-8.885164645747e-03 -1.687258597831e+02 0.0 
0.0 0.0 -7.172994164820e+01 
-6.414121592145e+01 -4.552847223609e-02 0.0 
-4.552847223609e-02 -1.511488681685e+02 0.0 
0.0 0.0 -6.418702522698e+01 
-1.523741768633e+02 -5.758791957460e-02 0.0 
-5.758791957460e-02 -3.570278030302e+02 0.0 
0.0 0.0 -1.524205939681e+02 
-6.668950609666e+01 -9.454336844921e-03 0.0 
-9.454336844921e-03 -1.569915679244e+02 0.0 
0.0 0.0 -6.670432220633e+01 
-1.595697835436e+02 1.149294343765e-02 0.0 
1.149294343765e-02 -3.736565911356e+02 0.0 
0.0 0.0 -1.595679124037e+02 
-6.856874161198e+00 6.363196946955e-02 0.0 
6.363196946955e-02 -1.616949138834e+01 0.0 
0.0 0.0 -6.869615243961e+00 
-1.431105602146e+01 -1.539490261859e-02 0.0 
-1.539490261859e-02 -3.427261462651e+01 0.0 
0.0 0.0 -1.428739584923e+01 
-7.133083187177e+01 -1.233599740213e-02 0.0 
-1.233599740213e-02 -1.678019364077e+02 0.0 
0.0 0.0 -7.133983048383e+01 
-7.953709186774e+01 -4.922998003675e-03 0.0 
-4.922998003675e-03 -1.869825777928e+02 0.0 
0.0 0.0 -7.955590089815e+01 
-6.112443352782e+01 -3.554308303131e-02 0.0 
-3.554308303131e-02 -1.438879637911e+02 0.0 
0.0 0.0 -6.110371919566e+01 
-5.822093195527e+01 -1.177683360142e-02 0.0 
-1.177683360142e-02 -1.370254965520e+02 0.0 
0.0 0.0 -5.817392855218e+01 
-1.235306340150e+02 -4.366820628442e-03 0.0 
-4.366820628442e-03 -2.895910140705e+02 0.0 
0.0 0.0 -1.235364944257e+02 
-2.119095021823e+01 -2.937117800030e-03 0.0 
-2.937117800030e-03 -5.069448546716e+01 0.0 
0.0 0.0 -2.116563070562e+01 
-3.521529328886e+01 -1.292918754276e-02 0.0 
-1.292918754276e-02 -8.354434160245e+01 0.0 
0.0 0.0 -3.522789046739e+01 
-1.197726034146e+02 -1.152548080995e-01 0.0 
-1.152548080995e-01 -2.806344146232e+02 0.0 
0.0 0.0 -1.197221054113e+02 
-2.747753890227e+01 -3.932455149427e-02 0.0 
-3.932455149427e-02 -6.537725933006e+01 0.0 
0.0 0.0 -2.745643946970e+01 
-1.292413584243e+02 -1.459432977170e-02 0.0 
-1.459432977170e-02 -3.028455812763e+02 0.0 
0.0 0.0 -1.292260819102e+02 
-7.037542567614e+01 9.774944709843e-03 0.0 
9.774944709843e-03 -1.655813288061e+02 0.0 
0.0 0.0 -7.038702634467e+01 
-8.626060406907e+01 7.608064538755e-04 0.0 
7.608064538755e-04 -2.026802076609e+02 0.0 
0.0 0.0 -8.628224351899e+01 
-4.300634513415e+01 -3.498117768561e-02 0.0 
-3.498117768561e-02 -1.016746228738e+02 0.0 
0.0 0.0 -4.300429040238e+01 
-6.011531616798e+01 3.600038617706e-02 0.0 
3.600038617706e-02 -1.416671921956e+02 0.0 
0.0 0.0 -6.013475250908e+01 
-1.049562250032e+02 1.164680964441e-02 0.0 
1.164680964441e-02 -2.463810486880e+02 0.0 
0.0 0.0 -1.050011821073e+02 
-9.792539486135e+01 2.722242620205e-02 0.0 
2.722242620205e-02 -2.300904013310e+02 0.0 
0.0 0.0 -9.800473885772e+01 
-9.360955436937e+01 -1.826181238345e-02 0.0 
-1.826181238345e-02 -2.199409610302e+02 0.0 
0.0 0.0 -9.366515461987e+01 
-7.398655565278e+01 7.510933123661e-03 0.0 
7.510933123661e-03 -1.740053288826e+02 0.0 
0.0 0.0 -7.399756536061e+01 
-6.273343403177e+01 -4.177989176685e-02 0.0 
-4.177989176685e-02 -1.477691524549e+02 0.0 
0.0 0.0 -6.275077594601e+01 
-5.420935065976e+01 -1.431958386881e-02 0.0 
-1.431958386881e-02 -1.279088413492e+02 0.0 
0.0 0.0 -5.423545760269e+01 
-9.962084082585e+01 -3.180725029396e-03 0.0 
-3.180725029396e-03 -2.338646245091e+02 0.0 
0.0 0.0 -9.964563960047e+01 
-1.357469110616e+02 -2.000703931575e-02 0.0 
-2.000703931575e-02 -3.180818170845e+02 0.0 
0.0 0.0 -1.357486184438e+02 
-1.393541353080e+02 -3.459270474343e-02 0.0 
-3.459270474343e-02 -3.265648851397e+02 0.0 
0.0 0.0 -1.393757061343e+02 
-1.473180398631e+02 -1.106567443654e-04 0.0 
-1.106567443654e-04 -3.450895829260e+02 0.0 
0.0 0.0 -1.473222868367e+02 
-1.429474065175e+02 -1.711448593492e-02 0.0 
-1.711448593492e-02 -3.349703102849e+02 0.0 
0.0 0.0 -1.429753150407e+02 
-1.348420511967e+02 -1.028232352001e-02 0.0 
-1.028232352001e-02 -3.160080992641e+02 0.0 
0.0 0.0 -1.348550451382e+02 
-1.384706237428e+02 2.466192519035e-02 0.0 
2.466192519035e-02 -3.244125078000e+02 0.0 
0.0 0.0 -1.384649394628e+02 
-1.465568377747e+02 -4.300450670196e-02 0.0 
-4.300450670196e-02 -3.433696128952e+02 0.0 
0.0 0.0 -1.465779352010e+02 
-1.423648592853e+02 1.616501036769e-04 0.0 
1.616501036769e-04 -3.333543655742e+02 0.0 
0.0 0.0 -1.423157674579e+02 
-1.517922359851e+02 4.682061437191e-02 0.0 
4.682061437191e-02 -3.555485229951e+02 0.0 
0.0 0.0 -1.518022276941e+02 
-1.458322954582e+02 5.933905864214e-02 0.0 
5.933905864214e-02 -3.415829711487e+02 0.0 
0.0 0.0 -1.458245799821e+02 
-1.374411955582e+02 -1.171634324994e-02 0.0 
-1.171634324994e-02 -3.220040557738e+02 0.0 
0.0 0.0 -1.374335753996e+02 
-1.407219934429e+02 -6.112714412819e-03 0.0 
-6.112714412819e-03 -3.298729501377e+02 0.0 
0.0 0.0 -1.407784830742e+02 
-1.484565559467e+02 2.467470945076e-02 0.0 
2.467470945076e-02 -3.478827850576e+02 0.0 
0.0 0.0 -1.485018023013e+02 
-1.325938313745e+02 8.268015947432e-03 0.0 
8.268015947432e-03 -3.107790844078e+02 0.0 
0.0 0.0 -1.326118747347e+02 
-1.556002785676e+02 1.706174897654e-02 0.0 
1.706174897654e-02 -3.641299100502e+02 0.0 
0.0 0.0 -1.555190565853e+02 
-7.954760446135e+01 -1.044204503941e-02 0.0 
-1.044204503941e-02 -1.869589835810e+02 0.0 
0.0 0.0 -7.955197641270e+01 
-1.956850382392e+01 -1.646305988563e-02 0.0 
-1.646305988563e-02 -4.669802728521e+01 0.0 
0.0 0.0 -1.947995933274e+01 
-1.842204396437e+01 -1.115110854592e-01 0.0 
-1.115110854592e-01 -4.426072113968e+01 0.0 
0.0 0.0 -1.840482953121e+01 
-9.074828838154e+01 -6.936772248891e-03 0.0 
-6.936772248891e-03 -2.131584781300e+02 0.0 
0.0 0.0 -9.077202995346e+01 
-1.600146811960e+02 -1.071587973592e-02 0.0 
-1.071587973592e-02 -3.748369701950e+02 0.0 
0.0 0.0 -1.600554954173e+02 
-1.603291031970e+02 -6.924066403541e-04 0.0 
-6.924066403541e-04 -3.755012173858e+02 0.0 
0.0 0.0 -1.603490961749e+02 
-5.781207071106e+01 -6.344583722112e-03 0.0 
-6.344583722112e-03 -1.362509339853e+02 0.0 
0.0 0.0 -5.781890140891e+01 
-1.605073967571e+02 5.195555765311e-03 0.0 
5.195555765311e-03 -3.758174582315e+02 0.0 
0.0 0.0 -1.604974564966e+02 
-9.706199756447e+01 9.053136640727e-03 0.0 
9.053136640727e-03 -2.279630063953e+02 0.0 
0.0 0.0 -9.710750118794e+01 
-4.059901079106e+01 -1.051480550978e-02 0.0 
-1.051480550978e-02 -9.612427700054e+01 0.0 
0.0 0.0 -4.061698633748e+01 
-1.606035572549e+02 3.727109305801e-02 0.0 
3.727109305801e-02 -3.760293916825e+02 0.0 
0.0 0.0 -1.605898846812e+02 
-1.312075611686e+02 -2.956272198451e-02 0.0 
-2.956272198451e-02 -3.074666839885e+02 0.0 
0.0 0.0 -1.312022735471e+02 
-1.265913723010e+02 4.539093236732e-03 0.0 
4.539093236732e-03 -2.966937011870e+02 0.0 
0.0 0.0 -1.265855220464e+02 
-1.229889511181e+02 -1.179732131435e-02 0.0 
-1.179732131435e-02 -2.882425552316e+02 0.0 
0.0 0.0 -1.229694519049e+02 
-1.608987460409e+02 5.534660443877e-02 0.0 
5.534660443877e-02 -3.766101573718e+02 0.0 
0.0 0.0 -1.608526710238e+02 
-1.124651194682e+02 -2.536575297296e-03 0.0 
-2.536575297296e-03 -2.638263191672e+02 0.0 
0.0 0.0 -1.124874315906e+02 
-1.608710719602e+02 3.294160985190e-02 0.0 
3.294160985190e-02 -3.767054555624e+02 0.0 
0.0 0.0 -1.608729582568e+02 
-1.100780251314e+02 1.740742640501e-02 0.0 
1.740742640501e-02 -2.582209522460e+02 0.0 
0.0 0.0 -1.100896932132e+02 
-1.063924638282e+02 4.254167052733e-03 0.0 
4.254167052733e-03 -2.496238793417e+02 0.0 
0.0 0.0 -1.064049029510e+02 
-9.824234155788e+01 1.642697809458e-05 0.0 
1.642697809458e-05 -2.306091556515e+02 0.0 
0.0 0.0 -9.825544916282e+01 
-1.338334619998e+02 2.178937283438e-02 0.0 
2.178937283438e-02 -3.135602256191e+02 0.0 
0.0 0.0 -1.338181062857e+02 
-1.603764115930e+02 -2.192029015720e-02 0.0 
-2.192029015720e-02 -3.756014797336e+02 0.0 
0.0 0.0 -1.603933673980e+02 
-1.535836646914e+02 9.359981239367e-03 0.0 
9.359981239367e-03 -3.597916161964e+02 0.0 
0.0 0.0 -1.536125842663e+02 
-1.536290398827e+02 5.054808509891e-02 0.0 
5.054808509891e-02 -3.597620056774e+02 0.0 
0.0 0.0 -1.536173136680e+02 
-1.460500065590e+02 -3.626486770246e-03 0.0 
-3.626486770246e-03 -3.424238317922e+02 0.0 
0.0 0.0 -1.461421515054e+02 
-1.605364172609e+02 -1.997994003979e-04 0.0 
-1.997994003979e-04 -3.758395082136e+02 0.0 
0.0 0.0 -1.605127776423e+02 
-1.608821922358e+02 1.042364638415e-02 0.0 
1.042364638415e-02 -3.766809941844e+02 0.0 
0.0 0.0 -1.608689559261e+02 
-1.610654374760e+02 1.478327507541e-02 0.0 
1.478327507541e-02 -3.771741579720e+02 0.0 
0.0 0.0 -1.610718786344e+02 
-5.365862181318e+01 -2.927079791496e-02 0.0 
-2.927079791496e-02 -1.265138191378e+02 0.0 
0.0 0.0 -5.365173228530e+01 
-5.830973635051e+01 -1.001669228844e-02 0.0 
-1.001669228844e-02 -1.374007025199e+02 0.0 
0.0 0.0 -5.831313166113e+01 
-6.640438364090e+01 -4.315266940106e-03 0.0 
-4.315266940106e-03 -1.562826240685e+02 0.0 
0.0 0.0 -6.640610231282e+01 
-6.290360715368e+01 -1.799784585850e-03 0.0 
-1.799784585850e-03 -1.480998207683e+02 0.0 
0.0 0.0 -6.290102837660e+01 
-5.474446270067e+01 -1.735763408872e-04 0.0 
-1.735763408872e-04 -1.290670366527e+02 0.0 
0.0 0.0 -5.474344980600e+01 
-5.934482723359e+01 -1.196125032888e-02 0.0 
-1.196125032888e-02 -1.397862942528e+02 0.0 
0.0 0.0 -5.933933644592e+01 
-6.742784931233e+01 3.306394483693e-03 0.0 
3.306394483693e-03 -1.586621462705e+02 0.0 
0.0 0.0 -6.742699867486e+01 
-5.574760768690e+01 -2.071446290711e-02 0.0 
-2.071446290711e-02 -1.314068071221e+02 0.0 
0.0 0.0 -5.574632444268e+01 
-1.396885070944e+02 1.830192311567e-03 0.0 
1.830192311567e-03 -3.272279152839e+02 0.0 
0.0 0.0 -1.396749267135e+02 
-1.607906146330e+02 -3.635036854400e-02 0.0 
-3.635036854400e-02 -3.764972919803e+02 0.0 
0.0 0.0 -1.607863719840e+02 
-1.096959869330e+02 -1.227215490397e-03 0.0 
-1.227215490397e-03 -2.572744818284e+02 0.0 
0.0 0.0 -1.096911406284e+02 
-1.059783422163e+02 -1.034669520398e-03 0.0 
-1.034669520398e-03 -2.486146989316e+02 0.0 
0.0 0.0 -1.059779123444e+02 
-9.773525387309e+01 -1.115496002758e-02 0.0 
-1.115496002758e-02 -2.293783594117e+02 0.0 
0.0 0.0 -9.773408398545e+01 
-8.162233718223e+01 8.514180807373e-03 0.0 
8.514180807373e-03 -1.917483182620e+02 0.0 
0.0 0.0 -8.161119663327e+01 
-8.631521521147e+01 3.795947048725e-03 0.0 
3.795947048725e-03 -2.026974456428e+02 0.0 
0.0 0.0 -8.630379825630e+01 
-9.461574732401e+01 5.282409365105e-03 0.0 
5.282409365105e-03 -2.220746839518e+02 0.0 
0.0 0.0 -9.460712938275e+01 
-7.690291791187e+01 1.664676098351e-02 0.0 
1.664676098351e-02 -1.807640268564e+02 0.0 
0.0 0.0 -7.690008343048e+01 
-1.206324420630e+02 3.120238166971e-03 0.0 
3.120238166971e-03 -2.828075252088e+02 0.0 
0.0 0.0 -1.206319901816e+02 
-1.607202333024e+02 3.214120389895e-02 0.0 
3.214120389895e-02 -3.763032585438e+02 0.0 
0.0 0.0 -1.607070475539e+02 
-1.079613000031e+02 2.325968358750e-03 0.0 
2.325968358750e-03 -2.532443537485e+02 0.0 
0.0 0.0 -1.079616961255e+02 
-8.268496430739e+01 -3.210140831732e-03 0.0 
-3.210140831732e-03 -1.942138823797e+02 0.0 
0.0 0.0 -8.266965400613e+01 
-9.081274428938e+01 1.833114240784e-02 0.0 
1.833114240784e-02 -2.132917120843e+02 0.0 
0.0 0.0 -9.083133691209e+01 
-9.815719187125e+01 -5.845717883022e-02 0.0 
-5.845717883022e-02 -2.302891346246e+02 0.0 
0.0 0.0 -9.813389794874e+01 
-9.824495910227e+01 7.727263238633e-02 0.0 
7.727263238633e-02 -2.305415774829e+02 0.0 
0.0 0.0 -9.823596097556e+01 
-1.062694174221e+02 7.446070442025e-02 0.0 
7.446070442025e-02 -2.489327324817e+02 0.0 
0.0 0.0 -1.061606449712e+02 
-9.895783451617e+01 1.126395109478e-01 0.0 
1.126395109478e-01 -2.320657109041e+02 0.0 
0.0 0.0 -9.890706362607e+01 
-9.717260902006e+01 1.473815387096e-02 0.0 
1.473815387096e-02 -2.280464063591e+02 0.0 
0.0 0.0 -9.716570461375e+01 
-1.007831426401e+02 1.260944622340e-02 0.0 
1.260944622340e-02 -2.365067079113e+02 0.0 
0.0 0.0 -1.007869551654e+02 
-9.620140422059e+01 -4.309237731777e-03 0.0 
-4.309237731777e-03 -2.258055078880e+02 0.0 
0.0 0.0 -9.620207363259e+01 
-1.044201384832e+02 1.221704367218e-02 0.0 
1.221704367218e-02 -2.449537409793e+02 0.0 
0.0 0.0 -1.044121638388e+02 
-9.969217332050e+01 4.500017955101e-02 0.0 
4.500017955101e-02 -2.338394666966e+02 0.0 
0.0 0.0 -9.965949200514e+01 
-9.211102777987e+01 4.920129555516e-02 0.0 
4.920129555516e-02 -2.160564588906e+02 0.0 
0.0 0.0 -9.205024600116e+01 
-1.079421090970e+02 3.524629046631e-02 0.0 
3.524629046631e-02 -2.530433998379e+02 0.0 
0.0 0.0 -1.078956526805e+02 
-1.025881987783e+02 -3.018974410806e-02 0.0 
-3.018974410806e-02 -2.406510155000e+02 0.0 
0.0 0.0 -1.025717642835e+02 
-9.080211533833e+01 5.172855949740e-02 0.0 
5.172855949740e-02 -2.130951383618e+02 0.0 
0.0 0.0 -9.076917611003e+01 
-7.238299453328e+00 2.384436394631e-02 0.0 
2.384436394631e-02 -1.722127805591e+01 0.0 
0.0 0.0 -7.327733058970e+00 
-1.410856391028e+01 -2.912084471738e-02 0.0 
-2.912084471738e-02 -3.400435085278e+01 0.0 
0.0 0.0 -1.416181725442e+01 
-1.398771580455e+01 3.239579022391e-02 0.0 
3.239579022391e-02 -3.350792323871e+01 0.0 
0.0 0.0 -1.397724117616e+01 
-2.068978316857e+01 2.639750475855e-02 0.0 
2.639750475855e-02 -4.957567372592e+01 0.0 
0.0 0.0 -2.067963706835e+01 
-2.113885455044e+01 -6.064680340199e-02 0.0 
-6.064680340199e-02 -5.080653976138e+01 0.0 
0.0 0.0 -2.118361829354e+01 
-2.864047903238e+01 2.920063315388e-03 0.0 
2.920063315388e-03 -6.799468143277e+01 0.0 
0.0 0.0 -2.859054813954e+01 
-2.760878537581e+01 1.159920849456e-01 0.0 
1.159920849456e-01 -6.558111876949e+01 0.0 
0.0 0.0 -2.755697124359e+01 
-1.408486606170e+01 7.939075542622e-02 0.0 
7.939075542622e-02 -3.404151413521e+01 0.0 
0.0 0.0 -1.417834040946e+01 
-7.215514734305e+00 9.652147623256e-03 0.0 
9.652147623256e-03 -1.697313836471e+01 0.0 
0.0 0.0 -7.247301832958e+00 
-1.392879252792e+01 -1.423724666765e-02 0.0 
-1.423724666765e-02 -3.346611655912e+01 0.0 
0.0 0.0 -1.395523307381e+01 
-7.162186016500e+00 8.676267527955e-04 0.0 
8.676267527955e-04 -1.680684760469e+01 0.0 
0.0 0.0 -7.185911411500e+00 
-1.374121237619e+01 -3.889885094783e-03 0.0 
-3.889885094783e-03 -3.296439161791e+01 0.0 
0.0 0.0 -1.374653064196e+01 
-2.167109926647e+01 -2.054733455094e-02 0.0 
-2.054733455094e-02 -5.185457153732e+01 0.0 
0.0 0.0 -2.165770124114e+01 
-3.291610597470e+01 8.881459226196e-03 0.0 
8.881459226196e-03 -7.822778312115e+01 0.0 
0.0 0.0 -3.294316672875e+01 
-1.593588016083e+02 -7.307396955044e-02 0.0 
-7.307396955044e-02 -3.733578257944e+02 0.0 
0.0 0.0 -1.594149882208e+02 
-7.918920976959e+01 -1.872178589971e-02 0.0 
-1.872178589971e-02 -1.861795871191e+02 0.0 
0.0 0.0 -7.921063906661e+01 
-7.508605326501e+01 -7.515391282587e-02 0.0 
-7.515391282587e-02 -1.767710933391e+02 0.0 
0.0 0.0 -7.515714398124e+01 
-6.719620454031e+01 -7.108858281119e-02 0.0 
-7.108858281119e-02 -1.580116576867e+02 0.0 
0.0 0.0 -6.716235866811e+01 
-7.144269686554e+01 2.080979624919e-02 0.0 
2.080979624919e-02 -1.681453643394e+02 0.0 
0.0 0.0 -7.147641836149e+01 
-8.242706201281e+01 -8.409368255217e-02 0.0 
-8.409368255217e-02 -1.939415232774e+02 0.0 
0.0 0.0 -8.251057558707e+01 
-6.274500396771e+01 -5.464639109780e-02 0.0 
-5.464639109780e-02 -1.476502768143e+02 0.0 
0.0 0.0 -6.271858423461e+01 
-5.976417111387e+01 -8.982089575907e-02 0.0 
-8.982089575907e-02 -1.406725585392e+02 0.0 
0.0 0.0 -5.973101889592e+01 
-7.134731278485e+00 2.476468054557e-02 0.0 
2.476468054557e-02 -1.710400081831e+01 0.0 
0.0 0.0 -7.259506958790e+00 
-1.386471594457e+01 3.221044625695e-02 0.0 
3.221044625695e-02 -3.360400714204e+01 0.0 
0.0 0.0 -1.394457719907e+01 
-1.327550046721e+01 -1.264593892338e-01 0.0 
-1.264593892338e-01 -3.197555648915e+01 0.0 
0.0 0.0 -1.320978387463e+01 
-2.080239970812e+01 -5.799764825925e-02 0.0 
-5.799764825925e-02 -5.022868043917e+01 0.0 
0.0 0.0 -2.090932404419e+01 
-2.082958299773e+01 1.541012612719e-02 0.0 
1.541012612719e-02 -4.986997220803e+01 0.0 
0.0 0.0 -2.080986656173e+01 
-1.409104534973e+01 -8.814080366718e-03 0.0 
-8.814080366718e-03 -3.388611874085e+01 0.0 
0.0 0.0 -1.412033077622e+01 
-1.406806660250e+01 -3.358163942570e-02 0.0 
-3.358163942570e-02 -3.389959658694e+01 0.0 
0.0 0.0 -1.412395304679e+01 
-7.140570919962e+00 6.245148800388e-03 0.0 
6.245148800388e-03 -1.699269801764e+01 0.0 
0.0 0.0 -7.234559285930e+00 
-1.399178282128e+01 3.642871744450e-02 0.0 
3.642871744450e-02 -3.377780276731e+01 0.0 
0.0 0.0 -1.409224055165e+01 
-2.118228507885e+01 -3.677746218696e-02 0.0 
-3.677746218696e-02 -5.068568362153e+01 0.0 
0.0 0.0 -2.116039061011e+01 
-6.981448299606e+00 3.205279867569e-03 0.0 
3.205279867569e-03 -1.643058878260e+01 0.0 
0.0 0.0 -7.035348144625e+00 
-1.298276879933e+02 1.142558585488e-01 0.0 
1.142558585488e-01 -3.042597964080e+02 0.0 
0.0 0.0 -1.298262453204e+02 
-1.343330377238e+02 9.049123244866e-02 0.0 
9.049123244866e-02 -3.148918583598e+02 0.0 
0.0 0.0 -1.343674688251e+02 
-1.602146877676e+02 1.416926036583e-02 0.0 
1.416926036583e-02 -3.752441054629e+02 0.0 
0.0 0.0 -1.602376379691e+02 
-9.174605152301e+01 1.011564522813e-01 0.0 
1.011564522813e-01 -2.152546358407e+02 0.0 
0.0 0.0 -9.170020620912e+01 
-7.271953142380e+00 -7.086962729259e-04 0.0 
-7.086962729259e-04 -1.705327725661e+01 0.0 
0.0 0.0 -7.281732763538e+00 
-1.591123498236e+02 3.453531669214e-03 0.0 
3.453531669214e-03 -3.727016625062e+02 0.0 
0.0 0.0 -1.591442036989e+02 
-1.605448097798e+02 4.709784763619e-02 0.0 
4.709784763619e-02 -3.758596479681e+02 0.0 
0.0 0.0 -1.605213373244e+02 
-1.607552417963e+02 -3.847591215079e-02 0.0 
-3.847591215079e-02 -3.762335389453e+02 0.0 
0.0 0.0 -1.606966342225e+02 
-1.463047692153e+02 -3.569535128006e-02 0.0 
-3.569535128006e-02 -3.426992843207e+02 0.0 
0.0 0.0 -1.463012160608e+02 
-1.505655676209e+02 -1.603353559902e-02 0.0 
-1.603353559902e-02 -3.524738015075e+02 0.0 
0.0 0.0 -1.505118107385e+02 
-1.593169355101e+02 -2.426614146390e-02 0.0 
-2.426614146390e-02 -3.732614181608e+02 0.0 
0.0 0.0 -1.593735061013e+02 
-5.298607160159e+01 -1.376669790746e-02 0.0 
-1.376669790746e-02 -1.249264363965e+02 0.0 
0.0 0.0 -5.297375239944e+01 
-1.509620009480e+02 -4.401494933575e-02 0.0 
-4.401494933575e-02 -3.533991219183e+02 0.0 
0.0 0.0 -1.509083368599e+02 
-1.446541198023e+02 -1.123272819329e-02 0.0 
-1.123272819329e-02 -3.389405401546e+02 0.0 
0.0 0.0 -1.446783979871e+02 
-3.733630567507e+01 3.835914757535e-03 0.0 
3.835914757535e-03 -8.838096543943e+01 0.0 
0.0 0.0 -3.731518133435e+01 
-5.124801502833e+01 -2.786638438964e-03 0.0 
-2.786638438964e-03 -1.208606176287e+02 0.0 
0.0 0.0 -5.123258979712e+01 
-1.209645353347e+02 -1.120379532862e-02 0.0 
-1.120379532862e-02 -2.835454302328e+02 0.0 
0.0 0.0 -1.209529896702e+02 
-1.111566730175e+02 3.866099139580e-03 0.0 
3.866099139580e-03 -2.606846582762e+02 0.0 
0.0 0.0 -1.111523993881e+02 
-1.386163671800e+02 8.806737164934e-03 0.0 
8.806737164934e-03 -3.247762248456e+02 0.0 
0.0 0.0 -1.386177776077e+02 
-1.136455889566e+02 -1.173555594905e-03 0.0 
-1.173555594905e-03 -2.665087469762e+02 0.0 
0.0 0.0 -1.136463007799e+02 
-1.314394101127e+02 1.258690458711e-02 0.0 
1.258690458711e-02 -3.079728287515e+02 0.0 
0.0 0.0 -1.314236716593e+02 
-1.530524372244e+02 -9.419091033730e-02 0.0 
-9.419091033730e-02 -3.585098815585e+02 0.0 
0.0 0.0 -1.530686956349e+02 
-3.329001596098e+01 1.849927949297e-02 0.0 
1.849927949297e-02 -7.866339826794e+01 0.0 
0.0 0.0 -3.318602426867e+01 
-1.141538564895e+02 -2.662377743442e-02 0.0 
-2.662377743442e-02 -2.676974243154e+02 0.0 
0.0 0.0 -1.141553842415e+02 
-1.111797092478e+02 -2.739642861838e-02 0.0 
-2.739642861838e-02 -2.607284261917e+02 0.0 
0.0 0.0 -1.111724406319e+02 
-1.317468060357e+02 1.250706299481e-02 0.0 
1.250706299481e-02 -3.087562885086e+02 0.0 
0.0 0.0 -1.317509283633e+02 
-5.544674807158e+01 1.569826880692e-02 0.0 
1.569826880692e-02 -1.307567065866e+02 0.0 
0.0 0.0 -5.546103639745e+01 
-8.823524426483e+01 5.353221956437e-02 0.0 
5.353221956437e-02 -2.071480112523e+02 0.0 
0.0 0.0 -8.821497665514e+01 
-3.513146346000e+01 1.334903898278e-02 0.0 
1.334903898278e-02 -8.345836738898e+01 0.0 
0.0 0.0 -3.517694925469e+01 
-1.539938496852e+02 -1.679827583121e-02 0.0 
-1.679827583121e-02 -3.605738558657e+02 0.0 
0.0 0.0 -1.539703116653e+02 
-9.176521526319e+01 -1.023942317730e-04 0.0 
-1.023942317730e-04 -2.155336924720e+02 0.0 
0.0 0.0 -9.178967232054e+01 
-9.312432089585e+01 -7.698326492708e-03 0.0 
-7.698326492708e-03 -2.186133900050e+02 0.0 
0.0 0.0 -9.312131327025e+01 
-7.329210137927e+01 9.748600683369e-03 0.0 
9.748600683369e-03 -1.722687128371e+02 0.0 
0.0 0.0 -7.326824426490e+01 
-5.781026087641e+01 -1.630167236866e-02 0.0 
-1.630167236866e-02 -1.361543941859e+02 0.0 
0.0 0.0 -5.778939651870e+01 
-4.780823636320e+01 -3.999999437382e-03 0.0 
-3.999999437382e-03 -1.128389376213e+02 0.0 
0.0 0.0 -4.779415219534e+01 
-8.422818256421e+01 -1.905057409976e-02 0.0 
-1.905057409976e-02 -1.978774762624e+02 0.0 
0.0 0.0 -8.423169764797e+01 
-8.736790320614e+01 -5.047075365960e-03 0.0 
-5.047075365960e-03 -2.051530271101e+02 0.0 
0.0 0.0 -8.735627909487e+01 
-1.252672686803e+02 -7.798997307226e-03 0.0 
-7.798997307226e-03 -2.936311090795e+02 0.0 
0.0 0.0 -1.252695133279e+02 
-1.363390479643e+02 1.021255332290e-02 0.0 
1.021255332290e-02 -3.195163607067e+02 0.0 
0.0 0.0 -1.363566226013e+02 
-8.098949563279e+00 -6.509026266707e-02 0.0 
-6.509026266707e-02 -1.898906930302e+01 0.0 
0.0 0.0 -8.011704491013e+00 
-1.299776852259e+02 -1.402456806936e-02 0.0 
-1.402456806936e-02 -3.045980237205e+02 0.0 
0.0 0.0 -1.299727126839e+02 
-1.039420060517e+02 3.546946669828e-04 0.0 
3.546946669828e-04 -2.438492338096e+02 0.0 
0.0 0.0 -1.039373719584e+02 
-1.171221825160e+02 -1.450007721990e-02 0.0 
-1.450007721990e-02 -2.746851212735e+02 0.0 
0.0 0.0 -1.171421911368e+02 
-1.300645632424e+02 2.210000517964e-02 0.0 
2.210000517964e-02 -3.049014254299e+02 0.0 
0.0 0.0 -1.300897966017e+02 
-3.291937819994e+01 1.611140950501e-02 0.0 
1.611140950501e-02 -7.782918126799e+01 0.0 
0.0 0.0 -3.282456784038e+01 
-1.346344960309e+02 3.165798103271e-03 0.0 
3.165798103271e-03 -3.155235272783e+02 0.0 
0.0 0.0 -1.346474069928e+02 
-1.489240321994e+02 -2.821070473920e-02 0.0 
-2.821070473920e-02 -3.489560997950e+02 0.0 
0.0 0.0 -1.489640395983e+02 
-1.079494153105e+02 1.008243304372e-01 0.0 
1.008243304372e-01 -2.531174041223e+02 0.0 
0.0 0.0 -1.079200458298e+02 
-2.686636593291e+01 2.155525916266e-02 0.0 
2.155525916266e-02 -6.409493580327e+01 0.0 
0.0 0.0 -2.688839052086e+01 
-1.055710351832e+02 -2.145891169477e-02 0.0 
-2.145891169477e-02 -2.478459042842e+02 0.0 
0.0 0.0 -1.056250818402e+02 
-1.476824887312e+02 -1.979633587183e-02 0.0 
-1.979633587183e-02 -3.459543818366e+02 0.0 
0.0 0.0 -1.476910611704e+02 
-1.320638520805e+02 1.226962990323e-03 0.0 
1.226962990323e-03 -3.095032264432e+02 0.0 
0.0 0.0 -1.320701235571e+02 
-5.077209186218e+01 4.219749954172e-02 0.0 
4.219749954172e-02 -1.197377312723e+02 0.0 
0.0 0.0 -5.075294694034e+01 
-9.625336385119e+01 6.968631602257e-03 0.0 
6.968631602257e-03 -2.259356518884e+02 0.0 
0.0 0.0 -9.625670472186e+01 
-8.973779227812e+01 -1.418759634806e-03 0.0 
-1.418759634806e-03 -2.107600347261e+02 0.0 
0.0 0.0 -8.974934810126e+01 
-8.275797470871e+01 3.418599080433e-02 0.0 
3.418599080433e-02 -1.942312757852e+02 0.0 
0.0 0.0 -8.269677514817e+01 
-1.481175070239e+02 -3.302117900195e-02 0.0 
-3.302117900195e-02 -3.471564083260e+02 0.0 
0.0 0.0 -1.481821746050e+02 
-9.913520639723e+01 7.897310365596e-04 0.0 
7.897310365596e-04 -2.326845027481e+02 0.0 
0.0 0.0 -9.914591274360e+01 
-1.373052787149e+02 -2.857017357373e-02 0.0 
-2.857017357373e-02 -3.218061353230e+02 0.0 
0.0 0.0 -1.373334242114e+02 
-1.126166136199e+02 9.717503976401e-03 0.0 
9.717503976401e-03 -2.641038059153e+02 0.0 
0.0 0.0 -1.126161258606e+02 
-5.446152199256e+01 1.640175500427e-02 0.0 
1.640175500427e-02 -1.283933908243e+02 0.0 
0.0 0.0 -5.445647384505e+01 
-1.371900811663e+02 2.353695006804e-02 0.0 
2.353695006804e-02 -3.215060118606e+02 0.0 
0.0 0.0 -1.372088279081e+02 
-9.373508993090e+01 3.733219071151e-03 0.0 
3.733219071151e-03 -2.200814253245e+02 0.0 
0.0 0.0 -9.374495457663e+01 
-1.429744170512e+02 1.175452793185e-02 0.0 
1.175452793185e-02 -3.349522927464e+02 0.0 
0.0 0.0 -1.429780129393e+02 
-1.261619652127e+02 2.187828158710e-02 0.0 
2.187828158710e-02 -2.957099451306e+02 0.0 
0.0 0.0 -1.261615731030e+02 
-7.647079233742e+01 2.417016506870e-03 0.0 
2.417016506870e-03 -1.797823316794e+02 0.0 
0.0 0.0 -7.647593720505e+01 
-1.374736634815e+02 2.056336781135e-02 0.0 
2.056336781135e-02 -3.220860853403e+02 0.0 
0.0 0.0 -1.374679246466e+02 
-9.410238969942e+01 -8.485570060547e-03 0.0 
-8.485570060547e-03 -2.209196082339e+02 0.0 
0.0 0.0 -9.410659938001e+01 
-1.347372783148e+02 -5.345852738193e-03 0.0 
-5.345852738193e-03 -3.157841091122e+02 0.0 
0.0 0.0 -1.347564162281e+02 
-8.735320196886e+01 -6.413551913533e-03 0.0 
-6.413551913533e-03 -2.052368287809e+02 0.0 
0.0 0.0 -8.737700922493e+01 
-1.100833780353e+02 1.025458251484e-02 0.0 
1.025458251484e-02 -2.582273479157e+02 0.0 
0.0 0.0 -1.100932177853e+02 
-1.199340199721e+02 1.414767097645e-02 0.0 
1.414767097645e-02 -2.812804871504e+02 0.0 
0.0 0.0 -1.199643521368e+02 
-1.046296497997e+02 1.323661269709e-03 0.0 
1.323661269709e-03 -2.454866651839e+02 0.0 
0.0 0.0 -1.046348944951e+02 
-1.163459720315e+02 -6.972301773661e-02 0.0 
-6.972301773661e-02 -2.727902479794e+02 0.0 
0.0 0.0 -1.163408660032e+02 
-1.335776428328e+02 -1.166099324627e-02 0.0 
-1.166099324627e-02 -3.130652902059e+02 0.0 
0.0 0.0 -1.335928799116e+02 
-3.474302182980e+01 -2.851039308671e-03 0.0 
-2.851039308671e-03 -8.250631375998e+01 0.0 
0.0 0.0 -3.477480067693e+01 
-6.821126334080e+01 1.848733770754e-03 0.0 
1.848733770754e-03 -1.604959755019e+02 0.0 
0.0 0.0 -6.821217165282e+01 
-1.163957105703e+02 1.964815201436e-02 0.0 
1.964815201436e-02 -2.727939109373e+02 0.0 
0.0 0.0 -1.163568864523e+02 
-1.410570665059e+02 2.649529538504e-02 0.0 
2.649529538504e-02 -3.306463843678e+02 0.0 
0.0 0.0 -1.411110352621e+02 
-1.512674952979e+02 -2.773725515100e-02 0.0 
-2.773725515100e-02 -3.541565962631e+02 0.0 
0.0 0.0 -1.512272274683e+02 
-8.182600020498e+01 -1.301113345455e-02 0.0 
-1.301113345455e-02 -1.923132946569e+02 0.0 
0.0 0.0 -8.184178845856e+01 
-1.324878862916e+02 2.108020101942e-02 0.0 
2.108020101942e-02 -3.104717303472e+02 0.0 
0.0 0.0 -1.324878849916e+02 
-1.455233271662e+02 -1.035104821135e-02 0.0 
-1.035104821135e-02 -3.409463101567e+02 0.0 
0.0 0.0 -1.455408911969e+02 
-9.098410710818e+01 -1.908338719429e-03 0.0 
-1.908338719429e-03 -2.135948492103e+02 0.0 
0.0 0.0 -9.097368689554e+01 
-3.802968086607e+01 -1.104248902431e-02 0.0 
-1.104248902431e-02 -9.014406476710e+01 0.0 
0.0 0.0 -3.805212368995e+01 
-2.967613670689e+01 1.737894485711e-02 0.0 
1.737894485711e-02 -7.033948102486e+01 0.0 
0.0 0.0 -2.960468531952e+01 
-6.029427634365e+01 -1.409277801602e-02 0.0 
-1.409277801602e-02 -1.420381940151e+02 0.0 
0.0 0.0 -6.029974110764e+01 
-9.465101438487e+01 -1.634724696064e-03 0.0 
-1.634724696064e-03 -2.222316103044e+02 0.0 
0.0 0.0 -9.466478740678e+01 
-9.927076668038e+01 3.741236387068e-03 0.0 
3.741236387068e-03 -2.329413183473e+02 0.0 
0.0 0.0 -9.926362550831e+01 
-1.528370136114e+02 -3.483839109392e-02 0.0 
-3.483839109392e-02 -3.580543375430e+02 0.0 
0.0 0.0 -1.528674053463e+02 
-1.361229853344e+02 1.402162890602e-02 0.0 
1.402162890602e-02 -3.188886687370e+02 0.0 
0.0 0.0 -1.361034962214e+02 
-1.273467408844e+02 2.599679511393e-02 0.0 
2.599679511393e-02 -2.984706340275e+02 0.0 
0.0 0.0 -1.273452124736e+02 
-1.534559022002e+01 -7.366555652236e-02 0.0 
-7.366555652236e-02 -3.674835819364e+01 0.0 
0.0 0.0 -1.522818452410e+01 
-8.597006598321e+01 -3.849587016926e-02 0.0 
-3.849587016926e-02 -2.018656904980e+02 0.0 
0.0 0.0 -8.595072694436e+01 
-1.397821794376e+02 1.583287410455e-02 0.0 
1.583287410455e-02 -3.273962047010e+02 0.0 
0.0 0.0 -1.397535152416e+02 
-9.979005427177e+01 3.395463721047e-03 0.0 
3.395463721047e-03 -2.341826517685e+02 0.0 
0.0 0.0 -9.979181181208e+01 
-1.381362955446e+02 -7.114181175693e-03 0.0 
-7.114181175693e-03 -3.237561433247e+02 0.0 
0.0 0.0 -1.381677316608e+02 
-9.478511099990e+01 3.422859226935e-03 0.0 
3.422859226935e-03 -2.222598112128e+02 0.0 
0.0 0.0 -9.471347666382e+01 
-1.537880141844e+02 3.748126998670e-02 0.0 
3.748126998670e-02 -3.601109513681e+02 0.0 
0.0 0.0 -1.537696896658e+02 
-6.867917779873e+01 -4.398192553975e-02 0.0 
-4.398192553975e-02 -1.616202437171e+02 0.0 
0.0 0.0 -6.868982645476e+01 
-1.435066867348e+02 1.745260207783e-02 0.0 
1.745260207783e-02 -3.362146394882e+02 0.0 
0.0 0.0 -1.435163978669e+02 
-1.281896880993e+02 -3.028721661031e-02 0.0 
-3.028721661031e-02 -3.004771998206e+02 0.0 
0.0 0.0 -1.282000663760e+02 
-6.226362699491e+01 -1.211307294569e-02 0.0 
-1.211307294569e-02 -1.466462482884e+02 0.0 
0.0 0.0 -6.227296258498e+01 
-9.061554641256e+01 -1.589503832131e-02 0.0 
-1.589503832131e-02 -2.127728236481e+02 0.0 
0.0 0.0 -9.061651101820e+01 
-1.530062732052e+02 -2.775699348552e-02 0.0 
-2.775699348552e-02 -3.583984486957e+02 0.0 
0.0 0.0 -1.530214165703e+02 
-1.365912755322e+02 -1.054884191552e-02 0.0 
-1.054884191552e-02 -3.201313699149e+02 0.0 
0.0 0.0 -1.366167936341e+02 
-1.126085009586e+02 5.378897080190e-03 0.0 
5.378897080190e-03 -2.640906026020e+02 0.0 
0.0 0.0 -1.126097310682e+02 
-9.516340653878e+01 1.370647637709e-03 0.0 
1.370647637709e-03 -2.233875937990e+02 0.0 
0.0 0.0 -9.516530010133e+01 
-7.414631490615e+01 3.566121780027e-02 0.0 
3.566121780027e-02 -1.743047975248e+02 0.0 
0.0 0.0 -7.413533372927e+01 
-1.028829689724e+02 7.044901346993e-03 0.0 
7.044901346993e-03 -2.413692556831e+02 0.0 
0.0 0.0 -1.028756673967e+02 
-1.145426009793e+02 1.974986057156e-02 0.0 
1.974986057156e-02 -2.686583943282e+02 0.0 
0.0 0.0 -1.145602985922e+02 
-1.610068231233e+02 -7.692853897734e-03 0.0 
-7.692853897734e-03 -3.768795279905e+02 0.0 
0.0 0.0 -1.609659053341e+02 
-1.407699075748e+02 1.120160539308e-02 0.0 
1.120160539308e-02 -3.300311132474e+02 0.0 
0.0 0.0 -1.408403062467e+02 
-1.183779624030e+02 2.793838426327e-02 0.0 
2.793838426327e-02 -2.775014823020e+02 0.0 
0.0 0.0 -1.183638334115e+02 
-9.821028138694e+01 9.274201196086e-03 0.0 
9.274201196086e-03 -2.304585286684e+02 0.0 
0.0 0.0 -9.820064301662e+01 
-1.190372802685e+02 4.040956500536e-03 0.0 
4.040956500536e-03 -2.791169723518e+02 0.0 
0.0 0.0 -1.190462757861e+02 
-2.099003458689e+01 1.820315018059e-02 0.0 
1.820315018059e-02 -5.002102654148e+01 0.0 
0.0 0.0 -2.090331833851e+01 
-7.740033622227e+01 -2.132890297207e-02 0.0 
-2.132890297207e-02 -1.819341601807e+02 0.0 
0.0 0.0 -7.740034892088e+01 
-1.017964732280e+02 1.220488078295e-02 0.0 
1.220488078295e-02 -2.388499640877e+02 0.0 
0.0 0.0 -1.017939311947e+02 
-6.385756391888e+01 -6.597609594221e-03 0.0 
-6.597609594221e-03 -1.503372190479e+02 0.0 
0.0 0.0 -6.385843489003e+01 
-9.868631263588e+01 2.813513778266e-04 0.0 
2.813513778266e-04 -2.316219537541e+02 0.0 
0.0 0.0 -9.869247991700e+01 
-1.519174204759e+02 -5.189046705034e-02 0.0 
-5.189046705034e-02 -3.556205074012e+02 0.0 
0.0 0.0 -1.518613783631e+02 
-1.054006448384e+02 7.156202117923e-03 0.0 
7.156202117923e-03 -2.472838631372e+02 0.0 
0.0 0.0 -1.054053523927e+02 
-7.193620579669e+01 1.369782986941e-03 0.0 
1.369782986941e-03 -1.691907459944e+02 0.0 
0.0 0.0 -7.193808553731e+01 
-1.090105017288e+02 -3.469777047839e-03 0.0 
-3.469777047839e-03 -2.557091551380e+02 0.0 
0.0 0.0 -1.090158970600e+02 
-6.564553745665e+01 1.893517576648e-02 0.0 
1.893517576648e-02 -1.544867327175e+02 0.0 
0.0 0.0 -6.563968105224e+01 
-1.219836595838e+02 4.015260908005e-02 0.0 
4.015260908005e-02 -2.859650502231e+02 0.0 
0.0 0.0 -1.219846129421e+02 
-1.126507945122e+02 -1.193797755880e-03 0.0 
-1.193797755880e-03 -2.641039396385e+02 0.0 
0.0 0.0 -1.126264202452e+02 
-1.225731364227e+02 2.551483462328e-02 0.0 
2.551483462328e-02 -2.873716475413e+02 0.0 
0.0 0.0 -1.225834351892e+02 
-2.183092259874e+01 9.728751585810e-02 0.0 
9.728751585810e-02 -5.231856552290e+01 0.0 
0.0 0.0 -2.184484643649e+01 
-1.160979650444e+02 6.584307186473e-03 0.0 
6.584307186473e-03 -2.722529066147e+02 0.0 
0.0 0.0 -1.161052614977e+02 
-1.418352859584e+02 -3.633813889830e-02 0.0 
-3.633813889830e-02 -3.321691665485e+02 0.0 
0.0 0.0 -1.418013357521e+02 
-6.740104731493e+01 -1.305618004387e-02 0.0 
-1.305618004387e-02 -1.585702706417e+02 0.0 
0.0 0.0 -6.739139538698e+01 
-1.022697410474e+02 -8.595310185176e-03 0.0 
-8.595310185176e-03 -2.399845670713e+02 0.0 
0.0 0.0 -1.022762924356e+02 
-1.302177478747e+02 2.402992677028e-02 0.0 
2.402992677028e-02 -3.051873575617e+02 0.0 
0.0 0.0 -1.302215316309e+02 
-5.699579872307e+01 8.211606124083e-02 0.0 
8.211606124083e-02 -1.343998648750e+02 0.0 
0.0 0.0 -5.701869907943e+01 
-1.105242050315e+02 -2.504995651072e-03 0.0 
-2.504995651072e-03 -2.592389404974e+02 0.0 
0.0 0.0 -1.105289436587e+02 
-1.306599027318e+02 2.301502824384e-02 0.0 
2.301502824384e-02 -3.062283297432e+02 0.0 
0.0 0.0 -1.306664697425e+02 
-1.196892056227e+02 -1.999751065146e-02 0.0 
-1.999751065146e-02 -2.806320424567e+02 0.0 
0.0 0.0 -1.196963744238e+02 
-1.027076372463e+02 -4.353631631296e-03 0.0 
-4.353631631296e-03 -2.410313092891e+02 0.0 
0.0 0.0 -1.027216839606e+02 
-1.189002945728e+02 4.845332945132e-03 0.0 
4.845332945132e-03 -2.787663958240e+02 0.0 
0.0 0.0 -1.189000071191e+02 
-5.983353408424e+01 -7.074988242075e-02 0.0 
-7.074988242075e-02 -1.410761892289e+02 0.0 
0.0 0.0 -5.987291699395e+01 
-4.952079985753e+01 -2.958990250092e-02 0.0 
-2.958990250092e-02 -1.168618877171e+02 0.0 
0.0 0.0 -4.951480627240e+01 
-4.127074833623e+01 -1.668632768778e-03 0.0 
-1.668632768778e-03 -9.766463168138e+01 0.0 
0.0 0.0 -4.128061400528e+01 
-7.546169479083e+01 4.346493203340e-03 0.0 
4.346493203340e-03 -1.774176797557e+02 0.0 
0.0 0.0 -7.546381236396e+01 
-1.352031213948e+02 1.198263172117e-02 0.0 
1.198263172117e-02 -3.168218848594e+02 0.0 
0.0 0.0 -1.352075018763e+02 
-2.782628911879e+01 8.989394591020e-02 0.0 
8.989394591020e-02 -6.636997748049e+01 0.0 
0.0 0.0 -2.785887997978e+01 
-1.291231565282e+02 3.233561062496e-02 0.0 
3.233561062496e-02 -3.026187717230e+02 0.0 
0.0 0.0 -1.291225784754e+02 
-2.962756258337e+01 4.243001484000e-02 0.0 
4.243001484000e-02 -7.042578220135e+01 0.0 
0.0 0.0 -2.961600343542e+01 
-7.093729377392e+01 3.392954650881e-03 0.0 
3.392954650881e-03 -1.668554994391e+02 0.0 
0.0 0.0 -7.093783796391e+01 
-1.319608511526e+02 -2.197650709112e-02 0.0 
-2.197650709112e-02 -3.091348606065e+02 0.0 
0.0 0.0 -1.319287135277e+02 
-1.135994424277e+02 1.926408596190e-01 0.0 
1.926408596190e-01 -2.664197681404e+02 0.0 
0.0 0.0 -1.136057631704e+02 
-7.441464039252e+01 -4.212166563046e-03 0.0 
-4.212166563046e-03 -1.749720003993e+02 0.0 
0.0 0.0 -7.441599223753e+01 
-4.635999717718e+01 -3.458682427173e-02 0.0 
-3.458682427173e-02 -1.094911379063e+02 0.0 
0.0 0.0 -4.635534052504e+01 
-6.985877728239e+01 -7.602336802149e-03 0.0 
-7.602336802149e-03 -1.643427858567e+02 0.0 
0.0 0.0 -6.986046894173e+01 
-1.108150097440e+02 -6.579483806631e-03 0.0 
-6.579483806631e-03 -2.599439935404e+02 0.0 
0.0 0.0 -1.108277009853e+02 
-7.332812483385e+01 -9.617361071201e-03 0.0 
-9.617361071201e-03 -1.724319309270e+02 0.0 
0.0 0.0 -7.332801672825e+01 
-6.874032280257e+01 -1.206443053978e-02 0.0 
-1.206443053978e-02 -1.617073863993e+02 0.0 
0.0 0.0 -6.873431276057e+01 
-1.528524868149e+02 2.142556751720e-02 0.0 
2.142556751720e-02 -3.581435967126e+02 0.0 
0.0 0.0 -1.528988250582e+02 
-7.214921912580e+01 -1.832523124615e-02 0.0 
-1.832523124615e-02 -1.696478031627e+02 0.0 
0.0 0.0 -7.213910668654e+01 
-1.609430009809e+02 5.217723163817e-02 0.0 
5.217723163817e-02 -3.765979547099e+02 0.0 
0.0 0.0 -1.608622867073e+02 
-1.599544625866e+02 2.376547890740e-02 0.0 
2.376547890740e-02 -3.745449537942e+02 0.0 
0.0 0.0 -1.599498249142e+02 
-9.697126878149e+01 1.401034885419e-01 0.0 
1.401034885419e-01 -2.276765476650e+02 0.0 
0.0 0.0 -9.699434493396e+01 
-4.796210511860e+01 -9.274757751683e-02 0.0 
-9.274757751683e-02 -1.136032360399e+02 0.0 
0.0 0.0 -4.806960234754e+01 
-7.467201662861e+00 -3.648930999126e-03 0.0 
-3.648930999126e-03 -1.747828338965e+01 0.0 
0.0 0.0 -7.348198045186e+00 
-5.121583361543e+01 6.870027413715e-02 0.0 
6.870027413715e-02 -1.206267489440e+02 0.0 
0.0 0.0 -5.115277476782e+01 
-5.932199039572e+01 -1.451990444577e-02 0.0 
-1.451990444577e-02 -1.397141692251e+02 0.0 
0.0 0.0 -5.931084788625e+01 
-1.279318286163e+02 -1.643215197228e-03 0.0 
-1.643215197228e-03 -2.999414939697e+02 0.0 
0.0 0.0 -1.279619967758e+02 
-9.734611750530e+01 -3.476116764198e-02 0.0 
-3.476116764198e-02 -2.284438536304e+02 0.0 
0.0 0.0 -9.733699134070e+01 
-5.450253974576e+01 -3.564706663018e-02 0.0 
-3.564706663018e-02 -1.284562277384e+02 0.0 
0.0 0.0 -5.448763024524e+01 
-1.538624746197e+02 -4.249211494271e-03 0.0 
-4.249211494271e-03 -3.602565923814e+02 0.0 
0.0 0.0 -1.538357201003e+02 
-1.608424945635e+02 6.740245152850e-02 0.0 
6.740245152850e-02 -3.766599976647e+02 0.0 
0.0 0.0 -1.608507476685e+02 
-1.257532744246e+02 4.736722186605e-02 0.0 
4.736722186605e-02 -2.947565930207e+02 0.0 
0.0 0.0 -1.257529602336e+02 
-1.413069161963e+02 -5.551741488422e-02 0.0 
-5.551741488422e-02 -3.313261252110e+02 0.0 
0.0 0.0 -1.413899124222e+02 
-1.235601806967e+02 -2.306888454576e-02 0.0 
-2.306888454576e-02 -2.896307140037e+02 0.0 
0.0 0.0 -1.235572684101e+02 
-1.454642688336e+02 7.788837195430e-02 0.0 
7.788837195430e-02 -3.409450739343e+02 0.0 
0.0 0.0 -1.455228028304e+02 
-9.007334561667e+01 2.218135098630e-01 0.0 
2.218135098630e-01 -2.113790888788e+02 0.0 
0.0 0.0 -9.003573034863e+01 
-1.372833790898e+01 -4.680379049363e-03 0.0 
-4.680379049363e-03 -3.287947171858e+01 0.0 
0.0 0.0 -1.370537006375e+01 
-1.206356204439e+02 -4.337934884003e-02 0.0 
-4.337934884003e-02 -2.828099256763e+02 0.0 
0.0 0.0 -1.206336638361e+02 
-3.930177489996e+01 -3.609291047596e-02 0.0 
-3.609291047596e-02 -9.329529393020e+01 0.0 
0.0 0.0 -3.937912064905e+01 
-4.050161708221e+01 -5.156185619039e-03 0.0 
-5.156185619039e-03 -9.583151638411e+01 0.0 
0.0 0.0 -4.049994003990e+01 
-3.175962846610e+01 -1.297507496612e-02 0.0 
-1.297507496612e-02 -7.549182559282e+01 0.0 
0.0 0.0 -3.177543621768e+01 
-5.724161066503e+01 -1.109525353182e-02 0.0 
-1.109525353182e-02 -1.352000132017e+02 0.0 
0.0 0.0 -5.733248716002e+01 
-2.057830067962e+01 -2.395455345164e-02 0.0 
-2.395455345164e-02 -4.914549971931e+01 0.0 
0.0 0.0 -2.051714011968e+01 
-3.253886573990e+01 -4.410578775449e-02 0.0 
-4.410578775449e-02 -7.720411736973e+01 0.0 
0.0 0.0 -3.252289493289e+01 
-1.530250370044e+02 7.216421044509e-02 0.0 
7.216421044509e-02 -3.585972699041e+02 0.0 
0.0 0.0 -1.530866920726e+02 
-9.767257428823e+01 1.884927299769e-01 0.0 
1.884927299769e-01 -2.289084403369e+02 0.0 
0.0 0.0 -9.757430438753e+01 
-1.361510493678e+02 3.648071103914e-02 0.0 
3.648071103914e-02 -3.189130139470e+02 0.0 
0.0 0.0 -1.361192189944e+02 
-2.398701594270e+01 -5.782014280872e-02 0.0 
-5.782014280872e-02 -5.719609695191e+01 0.0 
0.0 0.0 -2.395493386838e+01 
-1.534248424825e+02 5.787276988725e-02 0.0 
5.787276988725e-02 -3.594423709775e+02 0.0 
0.0 0.0 -1.534601640380e+02 
-1.533590453369e+02 -2.687849887474e-02 0.0 
-2.687849887474e-02 -3.592740723338e+02 0.0 
0.0 0.0 -1.533899353012e+02 
-1.608340315258e+02 6.788749381870e-02 0.0 
6.788749381870e-02 -3.767140926860e+02 0.0 
0.0 0.0 -1.608644372635e+02 
-1.444450427150e+02 1.172216931968e-02 0.0 
1.172216931968e-02 -3.382620059983e+02 0.0 
0.0 0.0 -1.444121146140e+02 
-2.298721462893e+01 -2.561057744234e-02 0.0 
-2.561057744234e-02 -5.490608343017e+01 0.0 
0.0 0.0 -2.296798941773e+01 
-1.047050726230e+02 1.734039738602e-01 0.0 
1.734039738602e-01 -2.452152501591e+02 0.0 
0.0 0.0 -1.045760968346e+02 
-1.538056345228e+02 3.824281065469e-02 0.0 
3.824281065469e-02 -3.603725467793e+02 0.0 
0.0 0.0 -1.538534543906e+02 
-1.324369504537e+02 1.181360915292e-02 0.0 
1.181360915292e-02 -3.101614098851e+02 0.0 
0.0 0.0 -1.323795081016e+02 
-1.614551938664e+02 -2.382077268471e-01 0.0 
-2.382077268471e-01 -3.777932908361e+02 0.0 
0.0 0.0 -1.613745454107e+02 
-9.672292480707e+01 5.376392997425e-03 0.0 
5.376392997425e-03 -2.265598189308e+02 0.0 
0.0 0.0 -9.658482312135e+01 
-1.540220264265e+02 -4.653644123030e-02 0.0 
-4.653644123030e-02 -3.607566071977e+02 0.0 
0.0 0.0 -1.540335900873e+02 
-3.043589986003e+01 5.447683885317e-02 0.0 
5.447683885317e-02 -7.242186262789e+01 0.0 
0.0 0.0 -3.045732874638e+01 
-1.541508446333e+02 -7.315310557917e-02 0.0 
-7.315310557917e-02 -3.610048133470e+02 0.0 
0.0 0.0 -1.541466973941e+02 
-1.360660474755e+02 1.052554834928e-02 0.0 
1.052554834928e-02 -3.189470368048e+02 0.0 
0.0 0.0 -1.361039252841e+02 
-1.076302444335e+02 -1.194451923356e-01 0.0 
-1.194451923356e-01 -2.523353870417e+02 0.0 
0.0 0.0 -1.075896894426e+02 
-1.042215716048e+02 -5.256036500351e-02 0.0 
-5.256036500351e-02 -2.442043062568e+02 0.0 
0.0 0.0 -1.041277633585e+02 
-1.544967826848e+02 -3.488544491949e-02 0.0 
-3.488544491949e-02 -3.616981490189e+02 0.0 
0.0 0.0 -1.544584795111e+02 
-1.536179989623e+02 9.899640235404e-02 0.0 
9.899640235404e-02 -3.600362911164e+02 0.0 
0.0 0.0 -1.536962870236e+02 
-1.851322725749e+01 -5.161505386844e-02 0.0 
-5.161505386844e-02 -4.422310319628e+01 0.0 
0.0 0.0 -1.842089913613e+01 
-1.254063436294e+02 -1.496828713169e-01 0.0 
-1.496828713169e-01 -2.936753811533e+02 0.0 
0.0 0.0 -1.253245174348e+02 
-7.153653492567e+01 7.644969707610e-02 0.0 
7.644969707610e-02 -1.683880980959e+02 0.0 
0.0 0.0 -7.157738990647e+01 
-1.314608162702e+01 1.216965778834e-01 0.0 
1.216965778834e-01 -3.131338197873e+01 0.0 
0.0 0.0 -1.313027885269e+01 
-1.536071521051e+02 -1.546000300169e-01 0.0 
-1.546000300169e-01 -3.599400582147e+02 0.0 
0.0 0.0 -1.536641630959e+02 
-1.437717124015e+02 6.819166408046e-03 0.0 
6.819166408046e-03 -3.370427806292e+02 0.0 
0.0 0.0 -1.438443479092e+02 
-1.538388516004e+02 -1.504148780896e-01 0.0 
-1.504148780896e-01 -3.605279678218e+02 0.0 
0.0 0.0 -1.539100458267e+02 
-2.062951755285e+01 -1.445259036035e-01 0.0 
-1.445259036035e-01 -4.954755603552e+01 0.0 
0.0 0.0 -2.065312207651e+01 
-1.295551600069e+01 -8.553836937803e-02 0.0 
-8.553836937803e-02 -3.103739713514e+01 0.0 
0.0 0.0 -1.287979243060e+01 
-1.548869638230e+02 -4.484797615121e-02 0.0 
-4.484797615121e-02 -3.629021715572e+02 0.0 
0.0 0.0 -1.549367406141e+02 
-1.546841093576e+02 -2.756801672101e-02 0.0 
-2.756801672101e-02 -3.622762505037e+02 0.0 
0.0 0.0 -1.546881079584e+02 
-3.452739168563e+01 -4.963918649203e-02 0.0 
-4.963918649203e-02 -8.169326993983e+01 0.0 
0.0 0.0 -3.446619848764e+01 
-1.620203080313e+02 1.764060086501e-02 0.0 
1.764060086501e-02 -3.793963039435e+02 0.0 
0.0 0.0 -1.620249835924e+02 
-1.235355366706e+01 1.546727637124e-01 0.0 
1.546727637124e-01 -2.977528816293e+01 0.0 
0.0 0.0 -1.232045653404e+01 
-8.926393741153e+01 -2.600979493574e-02 0.0 
-2.600979493574e-02 -2.093103565030e+02 0.0 
0.0 0.0 -8.917228817436e+01 
-1.346332806591e+01 1.024375955137e-01 0.0 
1.024375955137e-01 -3.222176400343e+01 0.0 
0.0 0.0 -1.348129722547e+01 
-1.612519187441e+02 2.067859201728e-01 0.0 
2.067859201728e-01 -3.773534084275e+02 0.0 
0.0 0.0 -1.611815981515e+02 
-1.542894521506e+02 -9.891809347467e-02 0.0 
-9.891809347467e-02 -3.615583826902e+02 0.0 
0.0 0.0 -1.543543504522e+02 
-7.884547677352e+01 -1.495002670330e-01 0.0 
-1.495002670330e-01 -1.853446544196e+02 0.0 
0.0 0.0 -7.885703935794e+01 
-9.128317352269e+01 -1.128872376820e-01 0.0 
-1.128872376820e-01 -2.141013750570e+02 0.0 
0.0 0.0 -9.121536457392e+01 
-5.196673407464e+01 -7.103019001926e-02 0.0 
-7.103019001926e-02 -1.226549574197e+02 0.0 
0.0 0.0 -5.198650744831e+01 
-1.478317564149e+02 -1.592239005723e-01 0.0 
-1.592239005723e-01 -3.464929099204e+02 0.0 
0.0 0.0 -1.478973999006e+02 
-1.933731046195e+01 -5.727143666167e-02 0.0 
-5.727143666167e-02 -4.609385806783e+01 0.0 
0.0 0.0 -1.922935055893e+01 
-1.550808413109e+02 5.734868603109e-02 0.0 
5.734868603109e-02 -3.634484760142e+02 0.0 
0.0 0.0 -1.551587951975e+02 
-1.552446049230e+02 2.297018808887e-02 0.0 
2.297018808887e-02 -3.637630859257e+02 0.0 
0.0 0.0 -1.553023072546e+02 
-1.551516068236e+02 -3.769078601816e-02 0.0 
-3.769078601816e-02 -3.635094649844e+02 0.0 
0.0 0.0 -1.551983215424e+02 
-1.623722828467e+02 -5.574641948114e-03 0.0 
-5.574641948114e-03 -3.802812254915e+02 0.0 
0.0 0.0 -1.623960525015e+02 
-1.266289831689e+01 -1.524345663154e-01 0.0 
-1.524345663154e-01 -3.000784596597e+01 0.0 
0.0 0.0 -1.250307759178e+01 
-1.554291940624e+02 3.886796017950e-02 0.0 
3.886796017950e-02 -3.642399459723e+02 0.0 
0.0 0.0 -1.555007420104e+02 
-1.476672175440e+02 -1.270377081004e-01 0.0 
-1.270377081004e-01 -3.461516315823e+02 0.0 
0.0 0.0 -1.477456547379e+02 
-8.992272358475e+01 -1.876112278572e-01 0.0 
-1.876112278572e-01 -2.111929476367e+02 0.0 
0.0 0.0 -8.993470136643e+01 
-1.540734993357e+02 -1.608866182365e-01 0.0 
-1.608866182365e-01 -3.608440082726e+02 0.0 
0.0 0.0 -1.540752522825e+02 
-6.401726434983e+01 -1.105697743749e-01 0.0 
-1.105697743749e-01 -1.507749845963e+02 0.0 
0.0 0.0 -6.403767468384e+01 
-2.760205490395e+01 1.836306305379e-01 0.0 
1.836306305379e-01 -6.544973931320e+01 0.0 
0.0 0.0 -2.751553826514e+01 
-1.618790341814e+02 1.109583004535e-01 0.0 
1.109583004535e-01 -3.786644971285e+02 0.0 
0.0 0.0 -1.617630593930e+02 
-6.161921707377e+00 2.934151892486e-02 0.0 
2.934151892486e-02 -1.409250248830e+01 0.0 
0.0 0.0 -5.988678333367e+00 
-8.938084448450e+01 8.768278265763e-02 0.0 
8.768278265763e-02 -2.100767922735e+02 0.0 
0.0 0.0 -8.943729102740e+01 
-1.617734278871e+02 -1.658253195783e-01 0.0 
-1.658253195783e-01 -3.787731783135e+02 0.0 
0.0 0.0 -1.617639818602e+02 
-2.644230520625e+01 7.813718033951e-03 0.0 
7.813718033951e-03 -6.256094017662e+01 0.0 
0.0 0.0 -2.630097361486e+01 
-1.031857388274e+02 1.040291079286e-01 0.0 
1.040291079286e-01 -2.420071023604e+02 0.0 
0.0 0.0 -1.031578523563e+02 
-1.551377062641e+02 3.729623472990e-02 0.0 
3.729623472990e-02 -3.631945611819e+02 0.0 
0.0 0.0 -1.550996802338e+02 
-9.678371840883e+01 -3.857655132198e-02 0.0 
-3.857655132198e-02 -2.272617672422e+02 0.0 
0.0 0.0 -9.681364569531e+01 
-1.407358929323e+02 2.436978437122e-01 0.0 
2.436978437122e-01 -3.297947845487e+02 0.0 
0.0 0.0 -1.407592032443e+02 
-2.610460263212e+01 -4.267894987416e-02 0.0 
-4.267894987416e-02 -6.178330311481e+01 0.0 
0.0 0.0 -2.596637172408e+01 
-6.351077908767e+00 -2.317199021225e-02 0.0 
-2.317199021225e-02 -1.461415488252e+01 0.0 
0.0 0.0 -6.306842474921e+00 
-1.180343171050e+02 1.633403902415e-01 0.0 
1.633403902415e-01 -2.766903396204e+02 0.0 
0.0 0.0 -1.180173970176e+02 
-1.547935875863e+02 -1.449692669239e-01 0.0 
-1.449692669239e-01 -3.627356502905e+02 0.0 
0.0 0.0 -1.548587713630e+02 
-1.555956836981e+02 6.557868898736e-02 0.0 
6.557868898736e-02 -3.645892190626e+02 0.0 
0.0 0.0 -1.556554708282e+02 
-1.122142325521e+02 -1.598912055908e-01 0.0 
-1.598912055908e-01 -2.630769825530e+02 0.0 
0.0 0.0 -1.121873645315e+02 
-2.353912487909e+01 2.012229197601e-01 0.0 
2.012229197601e-01 -5.587003748271e+01 0.0 
0.0 0.0 -2.342274870854e+01 
-1.501128527858e+02 -3.897806322087e-02 0.0 
-3.897806322087e-02 -3.517661749482e+02 0.0 
0.0 0.0 -1.501637083202e+02 
-8.534717808884e+01 1.046364144034e-02 0.0 
1.046364144034e-02 -2.001000802847e+02 0.0 
0.0 0.0 -8.523417751207e+01 
-1.485627624495e+02 6.273182547507e-02 0.0 
6.273182547507e-02 -3.483400560630e+02 0.0 
0.0 0.0 -1.486708455538e+02 
-1.477921244273e+02 3.047286053491e-02 0.0 
3.047286053491e-02 -3.466474454721e+02 0.0 
0.0 0.0 -1.479318709698e+02 
-7.029302305810e+00 1.537034976641e-01 0.0 
1.537034976641e-01 -1.639523193533e+01 0.0 
0.0 0.0 -6.894439249448e+00 
-1.040492163017e+02 -7.669152950827e-02 0.0 
-7.669152950827e-02 -2.442510663299e+02 0.0 
0.0 0.0 -1.040900847895e+02 
-1.261967077593e+01 1.591764361166e-01 0.0 
1.591764361166e-01 -3.019449398335e+01 0.0 
0.0 0.0 -1.254580097729e+01 
-1.554424888444e+02 7.614805827547e-02 0.0 
7.614805827547e-02 -3.642218785800e+02 0.0 
0.0 0.0 -1.554993102273e+02 
-8.879437753336e+01 5.329801065453e-02 0.0 
5.329801065453e-02 -2.085054131082e+02 0.0 
0.0 0.0 -8.878993719248e+01 
-3.690021899055e+00 -8.836201969707e-02 0.0 
-8.836201969707e-02 -8.143188963833e+00 0.0 
0.0 0.0 -3.372986509598e+00 
-4.814380443541e+00 2.435642002418e-02 0.0 
2.435642002418e-02 -1.043004832608e+01 0.0 
0.0 0.0 -4.277763524138e+00 
-1.179437527262e+01 2.706462919969e-02 0.0 
2.706462919969e-02 -2.772632833960e+01 0.0 
0.0 0.0 -1.146601310314e+01 
-1.208534717229e+01 2.517705051242e-02 0.0 
2.517705051242e-02 -2.890367755807e+01 0.0 
0.0 0.0 -1.189670741911e+01 
-2.016573887238e+01 6.500090239893e-02 0.0 
6.500090239893e-02 -4.735043129031e+01 0.0 
0.0 0.0 -1.985485104881e+01 
-2.081717832134e+01 2.721364665682e-02 0.0 
2.721364665682e-02 -4.965891489072e+01 0.0 
0.0 0.0 -2.074282796362e+01 
-2.848931176606e+01 6.391531008877e-02 0.0 
6.391531008877e-02 -6.687924121551e+01 0.0 
0.0 0.0 -2.821056589447e+01 
-2.862728001516e+01 9.007442327912e-03 0.0 
9.007442327912e-03 -6.815485258402e+01 0.0 
0.0 0.0 -2.863463977975e+01 
-3.699512335517e+01 1.095882059419e-01 0.0 
1.095882059419e-01 -8.656007424123e+01 0.0 
0.0 0.0 -3.666655927892e+01 
-3.749355626707e+01 1.103085094647e-02 0.0 
1.103085094647e-02 -8.887822631144e+01 0.0 
0.0 0.0 -3.751153477355e+01 
-4.552813861834e+01 7.308596171736e-02 0.0 
7.308596171736e-02 -1.062579472513e+02 0.0 
0.0 0.0 -4.513582576090e+01 
-4.540849820598e+01 1.544081764724e-02 0.0 
1.544081764724e-02 -1.073743269503e+02 0.0 
0.0 0.0 -4.543484754687e+01 
-5.374924341625e+01 1.422323746045e-01 0.0 
1.422323746045e-01 -1.258200048742e+02 0.0 
0.0 0.0 -5.347077448713e+01 
-5.429347916837e+01 1.626365849393e-02 0.0 
1.626365849393e-02 -1.280952427068e+02 0.0 
0.0 0.0 -5.431661656254e+01 
-6.216389912868e+01 1.397082751887e-01 0.0 
1.397082751887e-01 -1.454965292694e+02 0.0 
0.0 0.0 -6.189812851943e+01 
-6.221049195660e+01 1.763412488258e-02 0.0 
1.763412488258e-02 -1.466007134007e+02 0.0 
0.0 0.0 -6.224336160719e+01 
-7.054462427840e+01 1.507447295298e-01 0.0 
1.507447295298e-01 -1.651131893025e+02 0.0 
0.0 0.0 -7.029734407425e+01 
-7.111110571387e+01 -3.063773531092e-02 0.0 
-3.063773531092e-02 -1.673158106187e+02 0.0 
0.0 0.0 -7.112807489977e+01 
-7.896258590479e+01 1.374259524899e-01 0.0 
1.374259524899e-01 -1.848075644709e+02 0.0 
0.0 0.0 -7.873104511270e+01 
-7.887980844506e+01 -1.493804560673e-01 0.0 
-1.493804560673e-01 -1.857473185898e+02 0.0 
0.0 0.0 -7.898813811046e+01 

TENSORS node_materi_strain_total float
-8.623459939461e-07 2.122023554411e-07 0.0 
2.122023554411e-07 1.606620520023e-05 0.0 
0.0 0.0 0.0 
-1.052337796070e-06 -2.568971555851e-06 0.0 
-2.568971555851e-06 6.192773466329e-04 0.0 
0.0 0.0 0.0 
2.675854047229e-07 2.226965457988e-06 0.0 
2.226965457988e-06 1.227864491785e-03 0.0 
0.0 0.0 0.0 
1.890288532369e-07 -2.223800047095e-06 0.0 
-2.223800047095e-06 1.228134027220e-03 0.0 
0.0 0.0 0.0 
-2.090252623876e-06 -5.192903797749e-07 0.0 
-5.192903797749e-07 4.747897854059e-05 0.0 
0.0 0.0 0.0 
-1.692582402420e-06 2.099867781336e-06 0.0 
2.099867781336e-06 1.097650456743e-04 0.0 
0.0 0.0 0.0 
-3.695206045965e-07 2.181619131956e-06 0.0 
2.181619131956e-06 1.676646248584e-04 0.0 
0.0 0.0 0.0 
-1.140097025306e-07 2.166785721659e-06 0.0 
2.166785721659e-06 2.343290346118e-04 0.0 
0.0 0.0 0.0 
-4.305874493626e-07 1.608091235095e-06 0.0 
1.608091235095e-06 2.988666551623e-04 0.0 
0.0 0.0 0.0 
1.587853234823e-07 1.515844103943e-06 0.0 
1.515844103943e-06 3.621705862384e-04 0.0 
0.0 0.0 0.0 
3.101194822423e-07 1.672271741170e-06 0.0 
1.672271741170e-06 4.256329597821e-04 0.0 
0.0 0.0 0.0 
1.873910115968e-07 1.490936501070e-06 0.0 
1.490936501070e-06 4.892132290914e-04 0.0 
0.0 0.0 0.0 
2.075125277538e-07 1.487177472651e-06 0.0 
1.487177472651e-06 5.527865501303e-04 0.0 
0.0 0.0 0.0 
-2.560531563815e-07 1.898902678505e-06 0.0 
1.898902678505e-06 6.172522388953e-04 0.0 
0.0 0.0 0.0 
-1.096061922778e-06 2.859777010421e-06 0.0 
2.859777010421e-06 6.835677618133e-04 0.0 
0.0 0.0 0.0 
-3.497692282102e-07 3.035892204180e-06 0.0 
3.035892204180e-06 7.472011600624e-04 0.0 
0.0 0.0 0.0 
4.607149686198e-07 3.957771426035e-06 0.0 
3.957771426035e-06 8.051301115595e-04 0.0 
0.0 0.0 0.0 
1.040590519678e-07 1.548263272195e-06 0.0 
1.548263272195e-06 8.694481329219e-04 0.0 
0.0 0.0 0.0 
1.197531532456e-07 1.471335369672e-06 0.0 
1.471335369672e-06 9.353352796007e-04 0.0 
0.0 0.0 0.0 
1.625031148903e-07 1.512035380312e-06 0.0 
1.512035380312e-06 9.992709237175e-04 0.0 
0.0 0.0 0.0 
1.818271011533e-08 1.393881124652e-06 0.0 
1.393881124652e-06 1.063851058561e-03 0.0 
0.0 0.0 0.0 
-1.883069457402e-07 1.732005130247e-06 0.0 
1.732005130247e-06 1.129021833317e-03 0.0 
0.0 0.0 0.0 
1.873954568188e-07 2.235070929257e-06 0.0 
2.235070929257e-06 1.191146119119e-03 0.0 
0.0 0.0 0.0 
4.058729675312e-07 -1.500535453916e-07 0.0 
-1.500535453916e-07 1.231550565426e-03 0.0 
0.0 0.0 0.0 
-1.152200984252e-07 -7.449606038787e-08 0.0 
-7.449606038787e-08 1.228399992168e-03 0.0 
0.0 0.0 0.0 
-5.510290594183e-08 -1.469517520109e-06 0.0 
-1.469517520109e-06 1.229210953982e-03 0.0 
0.0 0.0 0.0 
-2.174223004969e-07 6.806501552654e-07 0.0 
6.806501552654e-07 1.229157315733e-03 0.0 
0.0 0.0 0.0 
-2.315383345053e-07 -2.017921029006e-07 0.0 
-2.017921029006e-07 1.227053762055e-03 0.0 
0.0 0.0 0.0 
-1.347145739405e-08 1.380505054379e-08 0.0 
1.380505054379e-08 1.228966469357e-03 0.0 
0.0 0.0 0.0 
4.396389381434e-07 5.621093769298e-08 0.0 
5.621093769298e-08 1.229374031777e-03 0.0 
0.0 0.0 0.0 
-1.745102347073e-07 -2.294638985308e-07 0.0 
-2.294638985308e-07 1.228472337257e-03 0.0 
0.0 0.0 0.0 
7.034356948784e-08 -9.936899916570e-07 0.0 
-9.936899916570e-07 1.230621177134e-03 0.0 
0.0 0.0 0.0 
-9.553013731918e-08 6.160982222367e-07 0.0 
6.160982222367e-07 1.230461954169e-03 0.0 
0.0 0.0 0.0 
-1.297372802152e-07 -1.673626268116e-07 0.0 
-1.673626268116e-07 1.228348584807e-03 0.0 
0.0 0.0 0.0 
-1.043070000373e-07 -1.186928273877e-07 0.0 
-1.186928273877e-07 1.230097959766e-03 0.0 
0.0 0.0 0.0 
4.002986830158e-07 -9.339746002817e-09 0.0 
-9.339746002817e-09 1.231064331901e-03 0.0 
0.0 0.0 0.0 
-1.554022142451e-07 -7.006451500415e-08 0.0 
-7.006451500415e-08 1.230044193736e-03 0.0 
0.0 0.0 0.0 
2.227349567748e-07 -2.428020991102e-07 0.0 
-2.428020991102e-07 1.228938503737e-03 0.0 
0.0 0.0 0.0 
-2.771726111221e-07 2.271128331929e-07 0.0 
2.271128331929e-07 1.226855970640e-03 0.0 
0.0 0.0 0.0 
-3.237374031073e-07 -5.705078532860e-08 0.0 
-5.705078532860e-08 1.226324825594e-03 0.0 
0.0 0.0 0.0 
2.852983180812e-07 4.131042627051e-08 0.0 
4.131042627051e-08 1.228198231396e-03 0.0 
0.0 0.0 0.0 
6.164422602003e-09 -9.171399434766e-08 0.0 
-9.171399434766e-08 1.229545943263e-03 0.0 
0.0 0.0 0.0 
-1.227215181328e-08 -1.066996023096e-07 0.0 
-1.066996023096e-07 1.230702180008e-03 0.0 
0.0 0.0 0.0 
-6.204781995608e-08 3.962175916710e-07 0.0 
3.962175916710e-07 1.230348142083e-03 0.0 
0.0 0.0 0.0 
1.329555408732e-07 -1.492534046179e-08 0.0 
-1.492534046179e-08 1.229684990108e-03 0.0 
0.0 0.0 0.0 
-1.479349894436e-08 8.323578531769e-08 0.0 
8.323578531769e-08 1.229578461139e-03 0.0 
0.0 0.0 0.0 
-3.069240472886e-08 -2.874569039589e-08 0.0 
-2.874569039589e-08 1.229301626092e-03 0.0 
0.0 0.0 0.0 
-6.523496761298e-08 -2.260393853558e-08 0.0 
-2.260393853558e-08 1.229859461601e-03 0.0 
0.0 0.0 0.0 
2.387082360666e-07 -1.071255144752e-07 0.0 
-1.071255144752e-07 1.230498745248e-03 0.0 
0.0 0.0 0.0 
-2.069223330459e-07 -1.317355912976e-07 0.0 
-1.317355912976e-07 1.230954037052e-03 0.0 
0.0 0.0 0.0 
2.887069051975e-07 -1.056915807679e-07 0.0 
-1.056915807679e-07 1.231083734357e-03 0.0 
0.0 0.0 0.0 
-1.503577606495e-07 -1.402373968653e-07 0.0 
-1.402373968653e-07 1.230537200246e-03 0.0 
0.0 0.0 0.0 
6.570038772284e-08 -8.292496477565e-07 0.0 
-8.292496477565e-07 1.232642624917e-03 0.0 
0.0 0.0 0.0 
-1.735852598698e-07 7.760573558390e-07 0.0 
7.760573558390e-07 1.231944585356e-03 0.0 
0.0 0.0 0.0 
-2.877762805831e-08 2.340541471605e-07 0.0 
2.340541471605e-07 1.228650737657e-03 0.0 
0.0 0.0 0.0 
6.006030206507e-08 -2.032202327053e-08 0.0 
-2.032202327053e-08 1.228468057468e-03 0.0 
0.0 0.0 0.0 
2.244361326416e-08 -2.104692174823e-07 0.0 
-2.104692174823e-07 1.229500598173e-03 0.0 
0.0 0.0 0.0 
1.662978292109e-07 -6.635776686071e-08 0.0 
-6.635776686071e-08 1.229845612447e-03 0.0 
0.0 0.0 0.0 
-2.366484808114e-07 -2.662842444197e-07 0.0 
-2.662842444197e-07 1.230049649200e-03 0.0 
0.0 0.0 0.0 
2.738456689559e-07 -7.128988815057e-08 0.0 
-7.128988815057e-08 1.230392214794e-03 0.0 
0.0 0.0 0.0 
-1.917362124256e-07 -3.267233302244e-08 0.0 
-3.267233302244e-08 1.229486155879e-03 0.0 
0.0 0.0 0.0 
2.648038327132e-07 -1.767395736333e-07 0.0 
-1.767395736333e-07 1.228512521851e-03 0.0 
0.0 0.0 0.0 
-2.797264894161e-07 2.075462088843e-08 0.0 
2.075462088843e-08 1.227268317122e-03 0.0 
0.0 0.0 0.0 
-3.126883269348e-07 -3.668914466393e-07 0.0 
-3.668914466393e-07 1.228372102741e-03 0.0 
0.0 0.0 0.0 
1.721303008277e-07 2.251085915987e-07 0.0 
2.251085915987e-07 1.231279915565e-03 0.0 
0.0 0.0 0.0 
4.907594680266e-07 -2.616068967435e-07 0.0 
-2.616068967435e-07 1.232191291092e-03 0.0 
0.0 0.0 0.0 
-2.752146019414e-07 -2.682905862048e-07 0.0 
-2.682905862048e-07 1.223984335542e-03 0.0 
0.0 0.0 0.0 
4.182576428905e-07 7.297967586105e-08 0.0 
7.297967586105e-08 1.230703352337e-03 0.0 
0.0 0.0 0.0 
-2.840864135045e-07 2.908956534635e-09 0.0 
2.908956534635e-09 1.228054994898e-03 0.0 
0.0 0.0 0.0 
-1.666912372578e-07 -9.367186429817e-07 0.0 
-9.367186429817e-07 1.229566943610e-03 0.0 
0.0 0.0 0.0 
2.423702172294e-08 3.753922019584e-07 0.0 
3.753922019584e-07 1.231759895078e-03 0.0 
0.0 0.0 0.0 
-1.265985271800e-07 -2.251019184700e-08 0.0 
-2.251019184700e-08 1.231489389475e-03 0.0 
0.0 0.0 0.0 
4.276819509652e-08 -1.798192155601e-06 0.0 
-1.798192155601e-06 6.834098712740e-04 0.0 
0.0 0.0 0.0 
-5.758133860834e-07 -2.036037204977e-06 0.0 
-2.036037204977e-06 7.478255588157e-04 0.0 
0.0 0.0 0.0 
-3.715182868384e-07 -1.979840091803e-06 0.0 
-1.979840091803e-06 8.112510715631e-04 0.0 
0.0 0.0 0.0 
-3.094850753079e-07 -2.113517824861e-06 0.0 
-2.113517824861e-06 8.734399275889e-04 0.0 
0.0 0.0 0.0 
-3.173877020461e-07 -1.861059428315e-06 0.0 
-1.861059428315e-06 9.369756750390e-04 0.0 
0.0 0.0 0.0 
3.868571814743e-07 -2.040623334343e-06 0.0 
-2.040623334343e-06 1.000453035385e-03 0.0 
0.0 0.0 0.0 
2.322588849394e-07 -1.814703649841e-06 0.0 
-1.814703649841e-06 1.063499937428e-03 0.0 
0.0 0.0 0.0 
2.773904746641e-07 -2.090233660284e-06 0.0 
-2.090233660284e-06 1.126029042987e-03 0.0 
0.0 0.0 0.0 
4.013606376141e-07 -2.308565695499e-06 0.0 
-2.308565695499e-06 1.190090743305e-03 0.0 
0.0 0.0 0.0 
1.009126416041e-06 7.301319831635e-07 0.0 
7.301319831635e-07 9.044129984148e-06 0.0 
0.0 0.0 0.0 
3.106096130856e-06 -3.109076514829e-06 0.0 
-3.109076514829e-06 7.200616000125e-06 0.0 
0.0 0.0 0.0 
-1.877146416878e-07 -1.729262618145e-07 0.0 
-1.729262618145e-07 6.189078809252e-04 0.0 
0.0 0.0 0.0 
-1.294161437460e-06 -3.409902147760e-08 0.0 
-3.409902147760e-08 4.183103066960e-05 0.0 
0.0 0.0 0.0 
-1.538300049247e-07 -3.881211677076e-07 0.0 
-3.881211677076e-07 1.031231703303e-04 0.0 
0.0 0.0 0.0 
4.612676373718e-07 -5.715948568888e-09 0.0 
-5.715948568888e-09 1.675311113158e-04 0.0 
0.0 0.0 0.0 
4.154219100621e-07 1.700358100153e-07 0.0 
1.700358100153e-07 2.301037442612e-04 0.0 
0.0 0.0 0.0 
5.356776364072e-07 2.931021467639e-07 0.0 
2.931021467639e-07 2.942655744379e-04 0.0 
0.0 0.0 0.0 
9.962141787691e-07 -1.523673305463e-07 0.0 
-1.523673305463e-07 3.586474292586e-04 0.0 
0.0 0.0 0.0 
7.155073284018e-07 -3.219758217494e-08 0.0 
-3.219758217494e-08 4.227655057539e-04 0.0 
0.0 0.0 0.0 
6.284216820727e-07 -3.259857661405e-08 0.0 
-3.259857661405e-08 4.868790070583e-04 0.0 
0.0 0.0 0.0 
6.022698662646e-07 -1.049298480332e-07 0.0 
-1.049298480332e-07 5.510379627246e-04 0.0 
0.0 0.0 0.0 
-1.305294334619e-06 -2.777590735758e-06 0.0 
-2.777590735758e-06 4.422321040148e-05 0.0 
0.0 0.0 0.0 
-2.380193876272e-06 -4.113408193014e-06 0.0 
-4.113408193014e-06 1.078224610824e-04 0.0 
0.0 0.0 0.0 
-1.072934909113e-06 -3.430345316238e-06 0.0 
-3.430345316238e-06 1.705541943974e-04 0.0 
0.0 0.0 0.0 
-5.643061204152e-07 -4.575635194542e-06 0.0 
-4.575635194542e-06 2.339766820825e-04 0.0 
0.0 0.0 0.0 
-3.178703308904e-07 -3.746993070204e-06 0.0 
-3.746993070204e-06 2.976902545869e-04 0.0 
0.0 0.0 0.0 
-2.282811811249e-07 -4.672634864784e-06 0.0 
-4.672634864784e-06 3.615291792848e-04 0.0 
0.0 0.0 0.0 
-1.673721060358e-07 -3.801441422918e-06 0.0 
-3.801441422918e-06 4.254028045506e-04 0.0 
0.0 0.0 0.0 
-9.953749555147e-08 -4.578554047498e-06 0.0 
-4.578554047498e-06 4.892102178920e-04 0.0 
0.0 0.0 0.0 
1.057827227480e-07 -3.243565766012e-06 0.0 
-3.243565766012e-06 5.526032502751e-04 0.0 
0.0 0.0 0.0 
-1.550450815830e-07 1.254134564306e-06 0.0 
1.254134564306e-06 6.104016846805e-04 0.0 
0.0 0.0 0.0 
2.116008855172e-07 9.026175405461e-08 0.0 
9.026175405461e-08 6.141668327124e-04 0.0 
0.0 0.0 0.0 
-8.685933039487e-08 8.949908460837e-08 0.0 
8.949908460837e-08 6.144443692917e-04 0.0 
0.0 0.0 0.0 
-3.414992955086e-09 -1.743161524751e-07 0.0 
-1.743161524751e-07 6.136388010988e-04 0.0 
0.0 0.0 0.0 
3.497005558462e-07 9.220587060072e-08 0.0 
9.220587060072e-08 6.221024739707e-04 0.0 
0.0 0.0 0.0 
1.004641077736e-07 1.091268577768e-07 0.0 
1.091268577768e-07 6.145933890240e-04 0.0 
0.0 0.0 0.0 
5.008662808947e-07 -1.553289266672e-07 0.0 
-1.553289266672e-07 6.137759267450e-04 0.0 
0.0 0.0 0.0 
3.475925673032e-07 2.555960772775e-07 0.0 
2.555960772775e-07 6.144078392549e-04 0.0 
0.0 0.0 0.0 
-1.095979932734e-07 4.061975339386e-08 0.0 
4.061975339386e-08 6.159219420219e-04 0.0 
0.0 0.0 0.0 
-2.334487456124e-07 2.736382631060e-07 0.0 
2.736382631060e-07 6.156006210503e-04 0.0 
0.0 0.0 0.0 
1.227963337680e-07 1.450497250613e-07 0.0 
1.450497250613e-07 6.151536328142e-04 0.0 
0.0 0.0 0.0 
-3.584546559576e-08 5.920543537074e-08 0.0 
5.920543537074e-08 6.148795562771e-04 0.0 
0.0 0.0 0.0 
2.034168312866e-07 3.317398024151e-07 0.0 
3.317398024151e-07 6.149167784872e-04 0.0 
0.0 0.0 0.0 
9.779234977358e-08 4.579956586489e-07 0.0 
4.579956586489e-07 6.159007171122e-04 0.0 
0.0 0.0 0.0 
8.070131474932e-07 -7.872461724122e-07 0.0 
-7.872461724122e-07 1.423648950142e-05 0.0 
0.0 0.0 0.0 
-9.051665836868e-07 3.494700708703e-07 0.0 
3.494700708703e-07 1.565660429296e-05 0.0 
0.0 0.0 0.0 
8.277822016363e-07 6.336392463710e-07 0.0 
6.336392463710e-07 1.407318955164e-05 0.0 
0.0 0.0 0.0 
2.008302931807e-06 -1.748274072857e-06 0.0 
-1.748274072857e-06 1.355896301725e-05 0.0 
0.0 0.0 0.0 
2.211484920744e-07 -1.711561735996e-06 0.0 
-1.711561735996e-06 1.614311401443e-05 0.0 
0.0 0.0 0.0 
-4.602548355030e-07 -4.195748721370e-07 0.0 
-4.195748721370e-07 1.777412151416e-05 0.0 
0.0 0.0 0.0 
-1.348823812271e-07 9.814886438583e-08 0.0 
9.814886438583e-08 1.784103115917e-05 0.0 
0.0 0.0 0.0 
1.999822204872e-07 2.287532751136e-07 0.0 
2.287532751136e-07 1.756312047492e-05 0.0 
0.0 0.0 0.0 
2.504167653239e-07 1.040671232157e-07 0.0 
1.040671232157e-07 1.755631108876e-05 0.0 
0.0 0.0 0.0 
3.929521481168e-07 -1.947162228134e-07 0.0 
-1.947162228134e-07 1.749482253547e-05 0.0 
0.0 0.0 0.0 
3.750175535666e-07 -2.080104443699e-07 0.0 
-2.080104443699e-07 1.805456104620e-05 0.0 
0.0 0.0 0.0 
-2.041767266629e-06 1.834814228456e-08 0.0 
1.834814228456e-08 1.967667161680e-05 0.0 
0.0 0.0 0.0 
-1.066510012822e-06 9.353943880191e-07 0.0 
9.353943880191e-07 1.860425272186e-05 0.0 
0.0 0.0 0.0 
1.289164844801e-06 -1.035250099575e-07 0.0 
-1.035250099575e-07 1.662842978090e-05 0.0 
0.0 0.0 0.0 
1.182166043797e-06 -6.908489275679e-07 0.0 
-6.908489275679e-07 1.660544524499e-05 0.0 
0.0 0.0 0.0 
-2.064705690863e-07 -1.776344931291e-07 0.0 
-1.776344931291e-07 1.759199363116e-05 0.0 
0.0 0.0 0.0 
-6.462407905472e-07 4.893104263810e-07 0.0 
4.893104263810e-07 1.776446012380e-05 0.0 
0.0 0.0 0.0 
8.034228167568e-07 1.383520984582e-06 0.0 
1.383520984582e-06 1.585424556438e-05 0.0 
0.0 0.0 0.0 
9.520636295631e-07 1.671982885671e-06 0.0 
1.671982885671e-06 1.431781332140e-05 0.0 
0.0 0.0 0.0 
1.293681282840e-06 1.279965798309e-06 0.0 
1.279965798309e-06 3.952524010531e-06 0.0 
0.0 0.0 0.0 
-1.620665710772e-06 8.728592418227e-07 0.0 
8.728592418227e-07 1.706448276018e-05 0.0 
0.0 0.0 0.0 
-2.168251619361e-06 1.708549362310e-06 0.0 
1.708549362310e-06 2.284504994680e-05 0.0 
0.0 0.0 0.0 
2.994919288494e-07 5.886551953795e-07 0.0 
5.886551953795e-07 2.240847971676e-05 0.0 
0.0 0.0 0.0 
-1.229934262215e-07 1.463094272272e-07 0.0 
1.463094272272e-07 2.280423045635e-05 0.0 
0.0 0.0 0.0 
3.525434328910e-07 5.937643338517e-08 0.0 
5.937643338517e-08 2.273723664215e-05 0.0 
0.0 0.0 0.0 
2.289774617322e-07 -3.639266740204e-08 0.0 
-3.639266740204e-08 2.277539580516e-05 0.0 
0.0 0.0 0.0 
2.661495230131e-07 -4.393917564979e-08 0.0 
-4.393917564979e-08 2.279934745035e-05 0.0 
0.0 0.0 0.0 
1.652372644638e-07 -5.011912157036e-08 0.0 
-5.011912157036e-08 2.282613467034e-05 0.0 
0.0 0.0 0.0 
1.247094077635e-07 -4.458864439683e-08 0.0 
-4.458864439683e-08 2.284802322820e-05 0.0 
0.0 0.0 0.0 
7.483805863906e-08 -4.490416491506e-08 0.0 
-4.490416491506e-08 2.286714638925e-05 0.0 
0.0 0.0 0.0 
4.933261843476e-08 -4.394905382709e-08 0.0 
-4.394905382709e-08 2.288387361464e-05 0.0 
0.0 0.0 0.0 
2.807489544547e-08 -4.369526650441e-08 0.0 
-4.369526650441e-08 2.289742855447e-05 0.0 
0.0 0.0 0.0 
1.536868273385e-08 -4.186019957889e-08 0.0 
-4.186019957889e-08 2.290811077669e-05 0.0 
0.0 0.0 0.0 
6.923386900818e-09 -3.848604277008e-08 0.0 
-3.848604277008e-08 2.291542204717e-05 0.0 
0.0 0.0 0.0 
2.910228576643e-09 -3.269184104392e-08 0.0 
-3.269184104392e-08 2.291934852912e-05 0.0 
0.0 0.0 0.0 
2.476202576318e-09 -2.458222404179e-08 0.0 
-2.458222404179e-08 2.291969772698e-05 0.0 
0.0 0.0 0.0 
5.778728125646e-09 -1.420702882862e-08 0.0 
-1.420702882862e-08 2.291661989677e-05 0.0 
0.0 0.0 0.0 
1.288566083465e-08 -1.834805950343e-09 0.0 
-1.834805950343e-09 2.291030434298e-05 0.0 
0.0 0.0 0.0 
2.435446814590e-08 1.219867773825e-08 0.0 
1.219867773825e-08 2.290092560594e-05 0.0 
0.0 0.0 0.0 
4.123915464671e-08 2.743149147765e-08 0.0 
2.743149147765e-08 2.288833460273e-05 0.0 
0.0 0.0 0.0 
6.455945604037e-08 4.332724165339e-08 0.0 
4.332724165339e-08 2.287176809109e-05 0.0 
0.0 0.0 0.0 
9.375276688317e-08 5.862594262121e-08 0.0 
5.862594262121e-08 2.284949803536e-05 0.0 
0.0 0.0 0.0 
1.233229219485e-07 6.925589195632e-08 0.0 
6.925589195632e-08 2.281850368842e-05 0.0 
0.0 0.0 0.0 
1.347280783233e-07 6.343848945432e-08 0.0 
6.343848945432e-08 2.277412962296e-05 0.0 
0.0 0.0 0.0 
7.686566657246e-08 1.156627692117e-08 0.0 
1.156627692117e-08 2.270988268179e-05 0.0 
0.0 0.0 0.0 
-1.894896473435e-07 -1.408610833883e-07 0.0 
-1.408610833883e-07 2.262072158654e-05 0.0 
0.0 0.0 0.0 
-1.647775629092e-06 -7.242778517010e-07 0.0 
-7.242778517010e-07 2.250255885280e-05 0.0 
0.0 0.0 0.0 
-7.492305207080e-07 5.090556610418e-07 0.0 
5.090556610418e-07 1.573685572698e-05 0.0 
0.0 0.0 0.0 
-8.621697574207e-07 2.565247417930e-06 0.0 
2.565247417930e-06 4.384158057484e-05 0.0 
0.0 0.0 0.0 
-6.894419223302e-07 -1.756344982011e-08 0.0 
-1.756344982011e-08 4.627058513259e-05 0.0 
0.0 0.0 0.0 
2.105677728292e-07 -1.996170870354e-07 0.0 
-1.996170870354e-07 4.767168265633e-05 0.0 
0.0 0.0 0.0 
1.845755246051e-07 -1.284750565157e-07 0.0 
-1.284750565157e-07 4.800575028015e-05 0.0 
0.0 0.0 0.0 
1.208613103672e-07 -6.518306117515e-08 0.0 
-6.518306117515e-08 4.816967349142e-05 0.0 
0.0 0.0 0.0 
7.759539884707e-08 -3.277856384918e-08 0.0 
-3.277856384918e-08 4.825725862116e-05 0.0 
0.0 0.0 0.0 
4.624009804684e-08 -2.038252032671e-08 0.0 
-2.038252032671e-08 4.830610131334e-05 0.0 
0.0 0.0 0.0 
2.172808523844e-08 -1.813031424412e-08 0.0 
-1.813031424412e-08 4.833466558973e-05 0.0 
0.0 0.0 0.0 
1.825812556699e-09 -1.957377913131e-08 0.0 
-1.957377913131e-08 4.835233487003e-05 0.0 
0.0 0.0 0.0 
-1.441495815306e-08 -2.081952434173e-08 0.0 
-2.081952434173e-08 4.836380641112e-05 0.0 
0.0 0.0 0.0 
-2.719850369000e-08 -1.963520024068e-08 0.0 
-1.963520024068e-08 4.837133758791e-05 0.0 
0.0 0.0 0.0 
-3.612313814738e-08 -1.505528914346e-08 0.0 
-1.505528914346e-08 4.837600578704e-05 0.0 
0.0 0.0 0.0 
-4.028838832918e-08 -7.408078093309e-09 0.0 
-7.408078093309e-09 4.837829704592e-05 0.0 
0.0 0.0 0.0 
-3.894887366333e-08 1.955702987003e-09 0.0 
1.955702987003e-09 4.837832551093e-05 0.0 
0.0 0.0 0.0 
-3.165090354621e-08 1.120218111306e-08 0.0 
1.120218111306e-08 4.837599206549e-05 0.0 
0.0 0.0 0.0 
-1.882502901710e-08 1.850620736758e-08 0.0 
1.850620736758e-08 4.837158575680e-05 0.0 
0.0 0.0 0.0 
1.064535866864e-10 2.154001090745e-08 0.0 
2.154001090745e-08 4.836504213764e-05 0.0 
0.0 0.0 0.0 
2.305124062000e-08 1.907681804482e-08 0.0 
1.907681804482e-08 4.835746345440e-05 0.0 
0.0 0.0 0.0 
5.316738183048e-08 8.491556180780e-09 0.0 
8.491556180780e-09 4.834674583809e-05 0.0 
0.0 0.0 0.0 
8.413342692896e-08 -6.487591444198e-09 0.0 
-6.487591444198e-09 4.833816961169e-05 0.0 
0.0 0.0 0.0 
1.299305810350e-07 -3.385401544415e-08 0.0 
-3.385401544415e-08 4.831776331830e-05 0.0 
0.0 0.0 0.0 
1.584371687920e-07 -4.095144387458e-08 0.0 
-4.095144387458e-08 4.830413133720e-05 0.0 
0.0 0.0 0.0 
2.163812913292e-07 -5.446737794735e-08 0.0 
-5.446737794735e-08 4.823509169990e-05 0.0 
0.0 0.0 0.0 
2.219324195899e-07 6.451518582761e-08 0.0 
6.451518582761e-08 4.821662630553e-05 0.0 
0.0 0.0 0.0 
3.813578149936e-07 7.660654652990e-08 0.0 
7.660654652990e-08 4.804203307921e-05 0.0 
0.0 0.0 0.0 
5.211880571380e-07 3.978330621154e-07 0.0 
3.978330621154e-07 4.812364579413e-05 0.0 
0.0 0.0 0.0 
-3.699468464584e-07 -7.766705996234e-08 0.0 
-7.766705996234e-08 5.019728231507e-05 0.0 
0.0 0.0 0.0 
-8.685421769017e-07 1.371203897470e-08 0.0 
1.371203897470e-08 3.798984438304e-05 0.0 
0.0 0.0 0.0 
1.663571100134e-06 -7.843650739526e-08 0.0 
-7.843650739526e-08 9.627139620057e-05 0.0 
0.0 0.0 0.0 
4.470978171974e-07 -3.851908794114e-07 0.0 
-3.851908794114e-07 1.083700005741e-04 0.0 
0.0 0.0 0.0 
7.201670508457e-07 1.579780459086e-07 0.0 
1.579780459086e-07 1.053201187255e-04 0.0 
0.0 0.0 0.0 
4.941736871563e-09 -1.766593608623e-07 0.0 
-1.766593608623e-07 1.053749707136e-04 0.0 
0.0 0.0 0.0 
1.668085802449e-07 -3.958675053105e-08 0.0 
-3.958675053105e-08 1.056047157028e-04 0.0 
0.0 0.0 0.0 
2.014768975730e-08 -5.043156082220e-08 0.0 
-5.043156082220e-08 1.055942187321e-04 0.0 
0.0 0.0 0.0 
5.203017975723e-08 3.671527924367e-08 0.0 
3.671527924367e-08 1.056301466284e-04 0.0 
0.0 0.0 0.0 
7.045794614413e-09 5.752223695797e-08 0.0 
5.752223695797e-08 1.056118573720e-04 0.0 
0.0 0.0 0.0 
1.446456325086e-09 8.934649830478e-08 0.0 
8.934649830478e-08 1.056145100623e-04 0.0 
0.0 0.0 0.0 
-1.980838193472e-08 9.419563341089e-08 0.0 
9.419563341089e-08 1.056071919534e-04 0.0 
0.0 0.0 0.0 
-3.149414488461e-08 8.990817361728e-08 0.0 
8.990817361728e-08 1.056047919095e-04 0.0 
0.0 0.0 0.0 
-4.375678943254e-08 6.955257552523e-08 0.0 
6.955257552523e-08 1.056018799045e-04 0.0 
0.0 0.0 0.0 
-5.079699949562e-08 4.168764315210e-08 0.0 
4.168764315210e-08 1.056015995233e-04 0.0 
0.0 0.0 0.0 
-5.489712623374e-08 8.599354169342e-09 0.0 
8.599354169342e-09 1.056023446153e-04 0.0 
0.0 0.0 0.0 
-5.509316824970e-08 -2.384798494890e-08 0.0 
-2.384798494890e-08 1.056048058677e-04 0.0 
0.0 0.0 0.0 
-5.175987649597e-08 -5.162176526784e-08 0.0 
-5.162176526784e-08 1.056079237778e-04 0.0 
0.0 0.0 0.0 
-4.476643433726e-08 -7.235857626836e-08 0.0 
-7.235857626836e-08 1.056097623956e-04 0.0 
0.0 0.0 0.0 
-3.423978992926e-08 -8.693768326090e-08 0.0 
-8.693768326090e-08 1.056078029951e-04 0.0 
0.0 0.0 0.0 
-1.947858411603e-08 -9.810336643241e-08 0.0 
-9.810336643241e-08 1.055993067410e-04 0.0 
0.0 0.0 0.0 
1.477272970618e-09 -1.094777609248e-07 0.0 
-1.094777609248e-07 1.055797712337e-04 0.0 
0.0 0.0 0.0 
3.279807808676e-08 -1.238627109412e-07 0.0 
-1.238627109412e-07 1.055406713890e-04 0.0 
0.0 0.0 0.0 
8.198530450828e-08 -1.380049799054e-07 0.0 
-1.380049799054e-07 1.054661214308e-04 0.0 
0.0 0.0 0.0 
1.609991284364e-07 -1.252144048590e-07 0.0 
-1.252144048590e-07 1.053283787193e-04 0.0 
0.0 0.0 0.0 
2.861082317729e-07 3.566857456167e-08 0.0 
3.566857456167e-08 1.050868075559e-04 0.0 
0.0 0.0 0.0 
4.981274073224e-07 1.019834313683e-06 0.0 
1.019834313683e-06 1.047745484916e-04 0.0 
0.0 0.0 0.0 
-1.037261071021e-06 2.820751722136e-06 0.0 
2.820751722136e-06 1.066069576435e-04 0.0 
0.0 0.0 0.0 
2.332413443791e-06 1.181686779892e-07 0.0 
1.181686779892e-07 1.598157210032e-04 0.0 
0.0 0.0 0.0 
4.458198671184e-07 -4.608264494742e-07 0.0 
-4.608264494742e-07 1.722171554397e-04 0.0 
0.0 0.0 0.0 
1.855258764394e-07 7.049432584713e-08 0.0 
7.049432584713e-08 1.696817648478e-04 0.0 
0.0 0.0 0.0 
-1.131593508341e-07 -8.676439606340e-08 0.0 
-8.676439606340e-08 1.695253494098e-04 0.0 
0.0 0.0 0.0 
-9.438208066944e-09 5.451623654314e-08 0.0 
5.451623654314e-08 1.696998501550e-04 0.0 
0.0 0.0 0.0 
-5.071365921649e-08 5.210197686130e-08 0.0 
5.210197686130e-08 1.695940428686e-04 0.0 
0.0 0.0 0.0 
-2.912605627052e-08 8.861052082180e-08 0.0 
8.861052082180e-08 1.696179768053e-04 0.0 
0.0 0.0 0.0 
-4.649103391152e-08 9.700353901482e-08 0.0 
9.700353901482e-08 1.695831711344e-04 0.0 
0.0 0.0 0.0 
-4.079397997181e-08 1.010829358356e-07 0.0 
1.010829358356e-07 1.695719900558e-04 0.0 
0.0 0.0 0.0 
-4.550453203134e-08 8.632120100928e-08 0.0 
8.632120100928e-08 1.695525919864e-04 0.0 
0.0 0.0 0.0 
-4.352925133307e-08 6.151292768030e-08 0.0 
6.151292768030e-08 1.695432521279e-04 0.0 
0.0 0.0 0.0 
-4.536318972311e-08 2.743794505148e-08 0.0 
2.743794505148e-08 1.695380533508e-04 0.0 
0.0 0.0 0.0 
-4.877695908290e-08 -9.126507654606e-09 0.0 
-9.126507654606e-09 1.695415040738e-04 0.0 
0.0 0.0 0.0 
-5.407729247731e-08 -4.170910681151e-08 0.0 
-4.170910681151e-08 1.695506120456e-04 0.0 
0.0 0.0 0.0 
-5.691664378693e-08 -6.584343845609e-08 0.0 
-6.584343845609e-08 1.695609533735e-04 0.0 
0.0 0.0 0.0 
-5.594875683116e-08 -8.171115374126e-08 0.0 
-8.171115374126e-08 1.695675002468e-04 0.0 
0.0 0.0 0.0 
-5.055858294985e-08 -9.111525756372e-08 0.0 
-9.111525756372e-08 1.695668721059e-04 0.0 
0.0 0.0 0.0 
-3.912091282402e-08 -9.599813857894e-08 0.0 
-9.599813857894e-08 1.695550332151e-04 0.0 
0.0 0.0 0.0 
-1.848225598492e-08 -9.734400809065e-08 0.0 
-9.734400809065e-08 1.695261239582e-04 0.0 
0.0 0.0 0.0 
1.649853785072e-08 -9.277644711174e-08 0.0 
-9.277644711174e-08 1.694720316415e-04 0.0 
0.0 0.0 0.0 
7.115185237290e-08 -6.965486991276e-08 0.0 
-6.965486991276e-08 1.693851214421e-04 0.0 
0.0 0.0 0.0 
1.439670932468e-07 9.807882973725e-09 0.0 
9.807882973725e-09 1.692712841840e-04 0.0 
0.0 0.0 0.0 
1.843206247816e-07 2.261406933620e-07 0.0 
2.261406933620e-07 1.692164232115e-04 0.0 
0.0 0.0 0.0 
-4.410307998433e-08 5.841133903809e-07 0.0 
5.841133903809e-07 1.696369459445e-04 0.0 
0.0 0.0 0.0 
-8.329544487299e-07 3.077018394685e-06 0.0 
3.077018394685e-06 1.703511440429e-04 0.0 
0.0 0.0 0.0 
-4.351421180326e-07 1.940749693323e-06 0.0 
1.940749693323e-06 2.338239466126e-04 0.0 
0.0 0.0 0.0 
-6.718671112053e-08 6.574540650903e-07 0.0 
6.574540650903e-07 2.334453201680e-04 0.0 
0.0 0.0 0.0 
4.446076799317e-08 1.118352995594e-07 0.0 
1.118352995594e-07 2.333252682368e-04 0.0 
0.0 0.0 0.0 
4.289418553682e-08 -1.375998133214e-08 0.0 
-1.375998133214e-08 2.333503298341e-04 0.0 
0.0 0.0 0.0 
9.592258469008e-09 -6.173524392120e-08 0.0 
-6.173524392120e-08 2.334090339845e-04 0.0 
0.0 0.0 0.0 
-2.433179840944e-08 -7.925423848656e-08 0.0 
-7.925423848656e-08 2.334601780359e-04 0.0 
0.0 0.0 0.0 
-4.876678024364e-08 -8.577298224249e-08 0.0 
-8.577298224249e-08 2.334921639091e-04 0.0 
0.0 0.0 0.0 
-6.195284957267e-08 -8.645873812062e-08 0.0 
-8.645873812062e-08 2.335056388508e-04 0.0 
0.0 0.0 0.0 
-6.759769557071e-08 -8.223431507383e-08 0.0 
-8.223431507383e-08 2.335059845821e-04 0.0 
0.0 0.0 0.0 
-6.813810872937e-08 -7.272489140787e-08 0.0 
-7.272489140787e-08 2.334972278228e-04 0.0 
0.0 0.0 0.0 
-6.443504030340e-08 -5.746733090094e-08 0.0 
-5.746733090094e-08 2.334824700107e-04 0.0 
0.0 0.0 0.0 
-5.493288718350e-08 -3.428179555354e-08 0.0 
-3.428179555354e-08 2.334635262139e-04 0.0 
0.0 0.0 0.0 
-4.447632686218e-08 1.140627589809e-09 0.0 
1.140627589809e-09 2.334517215606e-04 0.0 
0.0 0.0 0.0 
-4.380822269760e-08 3.779278862785e-08 0.0 
3.779278862785e-08 2.334538218527e-04 0.0 
0.0 0.0 0.0 
-5.400461836983e-08 7.192161099494e-08 0.0 
7.192161099494e-08 2.334770326871e-04 0.0 
0.0 0.0 0.0 
-6.654188664893e-08 7.923367307861e-08 0.0 
7.923367307861e-08 2.334953057795e-04 0.0 
0.0 0.0 0.0 
-7.001298120886e-08 9.750036883135e-08 0.0 
9.750036883135e-08 2.335400112252e-04 0.0 
0.0 0.0 0.0 
-7.904886582348e-08 5.680976427154e-08 0.0 
5.680976427154e-08 2.335359106630e-04 0.0 
0.0 0.0 0.0 
-5.327066632255e-08 9.526468687190e-08 0.0 
9.526468687190e-08 2.336163603732e-04 0.0 
0.0 0.0 0.0 
-8.070454667516e-08 -7.819120208658e-09 0.0 
-7.819120208658e-09 2.334789939659e-04 0.0 
0.0 0.0 0.0 
1.393452735976e-07 2.454752196932e-07 0.0 
2.454752196932e-07 2.336767783669e-04 0.0 
0.0 0.0 0.0 
3.735528643871e-07 -2.787932448809e-07 0.0 
-2.787932448809e-07 2.365151237779e-04 0.0 
0.0 0.0 0.0 
2.028963167255e-06 1.658970457368e-07 0.0 
1.658970457368e-07 2.241502565172e-04 0.0 
0.0 0.0 0.0 
2.095604036985e-06 4.718118108159e-07 0.0 
4.718118108159e-07 2.880961762834e-04 0.0 
0.0 0.0 0.0 
5.766240113487e-07 -2.128953481974e-07 0.0 
-2.128953481974e-07 3.003204557964e-04 0.0 
0.0 0.0 0.0 
1.350277505548e-07 1.825937848378e-07 0.0 
1.825937848378e-07 2.976445705911e-04 0.0 
0.0 0.0 0.0 
-1.225221227807e-07 -1.335729806796e-08 0.0 
-1.335729806796e-08 2.974399408807e-04 0.0 
0.0 0.0 0.0 
-8.930231580144e-08 8.247820893500e-08 0.0 
8.247820893500e-08 2.975865175463e-04 0.0 
0.0 0.0 0.0 
-1.301278590438e-07 6.654654760893e-08 0.0 
6.654654760893e-08 2.974765617461e-04 0.0 
0.0 0.0 0.0 
-8.836241473705e-08 9.075331010199e-08 0.0 
9.075331010199e-08 2.974702882180e-04 0.0 
0.0 0.0 0.0 
-6.463545308237e-08 6.546336112506e-08 0.0 
6.546336112506e-08 2.974056921855e-04 0.0 
0.0 0.0 0.0 
-4.430068730373e-08 2.310509947612e-08 0.0 
2.310509947612e-08 2.973923679850e-04 0.0 
0.0 0.0 0.0 
-6.092269153971e-08 -2.428308297099e-08 0.0 
-2.428308297099e-08 2.974051093016e-04 0.0 
0.0 0.0 0.0 
-7.788853014408e-08 -4.740666797030e-08 0.0 
-4.740666797030e-08 2.974359586919e-04 0.0 
0.0 0.0 0.0 
-8.114180253630e-08 -5.835734344497e-08 0.0 
-5.835734344497e-08 2.974537142659e-04 0.0 
0.0 0.0 0.0 
-7.852178873780e-08 -6.837940086852e-08 0.0 
-6.837940086852e-08 2.974654850516e-04 0.0 
0.0 0.0 0.0 
-7.596818631569e-08 -7.459716329245e-08 0.0 
-7.459716329245e-08 2.974729006416e-04 0.0 
0.0 0.0 0.0 
-7.024550654119e-08 -7.393427391521e-08 0.0 
-7.393427391521e-08 2.974700201958e-04 0.0 
0.0 0.0 0.0 
-5.279718823248e-08 -6.403080462256e-08 0.0 
-6.403080462256e-08 2.974491007131e-04 0.0 
0.0 0.0 0.0 
-2.285742500829e-08 -5.082358170649e-08 0.0 
-5.082358170649e-08 2.974088972685e-04 0.0 
0.0 0.0 0.0 
5.879765045217e-09 -3.227327502833e-08 0.0 
-3.227327502833e-08 2.973657716043e-04 0.0 
0.0 0.0 0.0 
1.379016021745e-08 -1.264141355082e-09 0.0 
-1.264141355082e-09 2.973487487831e-04 0.0 
0.0 0.0 0.0 
-3.848614112586e-08 3.072684150537e-08 0.0 
3.072684150537e-08 2.974071516928e-04 0.0 
0.0 0.0 0.0 
-1.764354887560e-07 -8.002526590683e-08 0.0 
-8.002526590683e-08 2.975535642483e-04 0.0 
0.0 0.0 0.0 
-2.858678000798e-07 2.521663631143e-06 0.0 
2.521663631143e-06 2.976661970642e-04 0.0 
0.0 0.0 0.0 
-2.014159577179e-07 1.704258480074e-06 0.0 
1.704258480074e-06 3.614906150858e-04 0.0 
0.0 0.0 0.0 
-9.006559896034e-08 3.745660960782e-07 0.0 
3.745660960782e-07 3.613642448252e-04 0.0 
0.0 0.0 0.0 
-1.548545018141e-08 -9.002450740058e-09 0.0 
-9.002450740058e-09 3.613011212979e-04 0.0 
0.0 0.0 0.0 
1.704159665235e-09 -2.307578386995e-08 0.0 
-2.307578386995e-08 3.613004624082e-04 0.0 
0.0 0.0 0.0 
-9.069273295322e-09 -2.804019652605e-08 0.0 
-2.804019652605e-08 3.613321449067e-04 0.0 
0.0 0.0 0.0 
-3.758190329310e-08 -3.332440930566e-08 0.0 
-3.332440930566e-08 3.613759933974e-04 0.0 
0.0 0.0 0.0 
-6.738076147039e-08 -5.107610156054e-08 0.0 
-5.107610156054e-08 3.614090522275e-04 0.0 
0.0 0.0 0.0 
-7.684569428938e-08 -6.552369535053e-08 0.0 
-6.552369535053e-08 3.614086461276e-04 0.0 
0.0 0.0 0.0 
-7.357861255460e-08 -6.060307181997e-08 0.0 
-6.060307181997e-08 3.613956099785e-04 0.0 
0.0 0.0 0.0 
-9.003895701243e-08 -4.568086412761e-08 0.0 
-4.568086412761e-08 3.613914931417e-04 0.0 
0.0 0.0 0.0 
-1.082611569096e-07 -4.153199981333e-08 0.0 
-4.153199981333e-08 3.613880251182e-04 0.0 
0.0 0.0 0.0 
-1.045831662938e-07 -4.673751032774e-08 0.0 
-4.673751032774e-08 3.613627698510e-04 0.0 
0.0 0.0 0.0 
-7.058069038483e-08 -2.600353837705e-08 0.0 
-2.600353837705e-08 3.612971949429e-04 0.0 
0.0 0.0 0.0 
-5.524594272795e-08 6.404181354557e-08 0.0 
6.404181354557e-08 3.613062125079e-04 0.0 
0.0 0.0 0.0 
-1.183207876676e-07 9.081783682612e-08 0.0 
9.081783682612e-08 3.613497872602e-04 0.0 
0.0 0.0 0.0 
-1.772686903934e-07 1.342381280748e-07 0.0 
1.342381280748e-07 3.615147533588e-04 0.0 
0.0 0.0 0.0 
-2.238585468846e-07 -3.186562410422e-08 0.0 
-3.186562410422e-08 3.614099419082e-04 0.0 
0.0 0.0 0.0 
9.117318148603e-08 1.947849129362e-07 0.0 
1.947849129362e-07 3.615260291505e-04 0.0 
0.0 0.0 0.0 
3.815196808159e-07 -2.638020841773e-07 0.0 
-2.638020841773e-07 3.644490309009e-04 0.0 
0.0 0.0 0.0 
2.054332232955e-06 3.451275473947e-08 0.0 
3.451275473947e-08 3.520919314800e-04 0.0 
0.0 0.0 0.0 
2.020544852099e-06 1.604033794690e-07 0.0 
1.604033794690e-07 4.158899211230e-04 0.0 
0.0 0.0 0.0 
2.872293732224e-07 -3.303020673973e-07 0.0 
-3.303020673973e-07 4.283777685332e-04 0.0 
0.0 0.0 0.0 
-1.169827938223e-07 2.334004930852e-07 0.0 
2.334004930852e-07 4.256782954736e-04 0.0 
0.0 0.0 0.0 
-2.811251247903e-07 1.353588957424e-07 0.0 
1.353588957424e-07 4.253323724095e-04 0.0 
0.0 0.0 0.0 
-7.457774651535e-08 1.690239695577e-07 0.0 
1.690239695577e-07 4.252979353629e-04 0.0 
0.0 0.0 0.0 
-9.716187856131e-08 -4.203691734979e-09 0.0 
-4.203691734979e-09 4.251913862159e-04 0.0 
0.0 0.0 0.0 
-1.463630887784e-07 -4.800703376291e-08 0.0 
-4.800703376291e-08 4.253348434508e-04 0.0 
0.0 0.0 0.0 
-1.511423086871e-07 -2.275615764809e-08 0.0 
-2.275615764809e-08 4.253784883225e-04 0.0 
0.0 0.0 0.0 
-1.308581326816e-07 3.829307398941e-09 0.0 
3.829307398941e-09 4.253737798583e-04 0.0 
0.0 0.0 0.0 
-6.791382404595e-08 -7.189833560427e-09 0.0 
-7.189833560427e-09 4.253368097067e-04 0.0 
0.0 0.0 0.0 
-5.077649837630e-08 -5.796313854938e-08 0.0 
-5.796313854938e-08 4.253544945402e-04 0.0 
0.0 0.0 0.0 
-8.164054593474e-08 -4.882684752992e-08 0.0 
-4.882684752992e-08 4.253966542237e-04 0.0 
0.0 0.0 0.0 
-3.577702265926e-08 -1.385931525138e-08 0.0 
-1.385931525138e-08 4.253618051191e-04 0.0 
0.0 0.0 0.0 
-7.931825936798e-10 -1.485334070432e-08 0.0 
-1.485334070432e-08 4.253043823571e-04 0.0 
0.0 0.0 0.0 
1.950684998716e-08 -3.298035694838e-08 0.0 
-3.298035694838e-08 4.252681056813e-04 0.0 
0.0 0.0 0.0 
1.020547748161e-08 -5.083454516847e-08 0.0 
-5.083454516847e-08 4.252484978308e-04 0.0 
0.0 0.0 0.0 
-1.532668479169e-08 -1.192619590920e-07 0.0 
-1.192619590920e-07 4.252711536968e-04 0.0 
0.0 0.0 0.0 
-1.219010045313e-07 -2.843018002243e-07 0.0 
-2.843018002243e-07 4.253714596024e-04 0.0 
0.0 0.0 0.0 
-1.683919604867e-07 2.410033207291e-06 0.0 
2.410033207291e-06 4.254200328818e-04 0.0 
0.0 0.0 0.0 
-2.562732539652e-07 1.641471991079e-06 0.0 
1.641471991079e-06 4.894097070180e-04 0.0 
0.0 0.0 0.0 
-2.106776625377e-08 1.445801425413e-07 0.0 
1.445801425413e-07 4.891697675001e-04 0.0 
0.0 0.0 0.0 
4.576460195989e-08 -9.305415441614e-08 0.0 
-9.305415441614e-08 4.891064014102e-04 0.0 
0.0 0.0 0.0 
2.225281773664e-08 -7.930700768224e-08 0.0 
-7.930700768224e-08 4.891706760921e-04 0.0 
0.0 0.0 0.0 
8.472341361809e-08 -2.661974629721e-08 0.0 
-2.661974629721e-08 4.891624464444e-04 0.0 
0.0 0.0 0.0 
2.995369482080e-08 1.267437087225e-08 0.0 
1.267437087225e-08 4.892338977520e-04 0.0 
0.0 0.0 0.0 
-5.512587590110e-09 4.019346079147e-08 0.0 
4.019346079147e-08 4.893226064929e-04 0.0 
0.0 0.0 0.0 
-5.206481766088e-08 -6.981289526210e-08 0.0 
-6.981289526210e-08 4.893171524583e-04 0.0 
0.0 0.0 0.0 
1.241684212857e-08 1.157225141568e-08 0.0 
1.157225141568e-08 4.891794458955e-04 0.0 
0.0 0.0 0.0 
-1.102019625369e-07 1.037626017948e-07 0.0 
1.037626017948e-07 4.892899275037e-04 0.0 
0.0 0.0 0.0 
-1.890572266331e-07 4.236654049273e-08 0.0 
4.236654049273e-08 4.893580236392e-04 0.0 
0.0 0.0 0.0 
-1.728285034900e-07 9.706037582378e-09 0.0 
9.706037582378e-09 4.893011164408e-04 0.0 
0.0 0.0 0.0 
-2.328154673492e-07 -1.748833680835e-08 0.0 
-1.748833680835e-08 4.892855065916e-04 0.0 
0.0 0.0 0.0 
-1.783812777489e-07 5.877412119339e-09 0.0 
5.877412119339e-09 4.889504721703e-04 0.0 
0.0 0.0 0.0 
-6.257581904497e-08 4.792640088710e-07 0.0 
4.792640088710e-07 4.893169816981e-04 0.0 
0.0 0.0 0.0 
1.000602948751e-07 -1.441414278135e-07 0.0 
-1.441414278135e-07 4.925732541218e-04 0.0 
0.0 0.0 0.0 
1.794263470375e-06 8.333896543781e-08 0.0 
8.333896543781e-08 4.802113624551e-04 0.0 
0.0 0.0 0.0 
1.696644365334e-06 3.389063637956e-07 0.0 
3.389063637956e-07 5.440651554096e-04 0.0 
0.0 0.0 0.0 
-2.101887745124e-07 -8.171511960728e-08 0.0 
-8.171511960728e-08 5.561705121341e-04 0.0 
0.0 0.0 0.0 
-3.737970083832e-07 2.420768479338e-07 0.0 
2.420768479338e-07 5.533264208267e-04 0.0 
0.0 0.0 0.0 
-1.084683574626e-07 2.136796659527e-07 0.0 
2.136796659527e-07 5.531503616161e-04 0.0 
0.0 0.0 0.0 
-1.443902074572e-07 4.682675676414e-08 0.0 
4.682675676414e-08 5.532935493515e-04 0.0 
0.0 0.0 0.0 
-1.551961206769e-07 1.614357592886e-07 0.0 
1.614357592886e-07 5.533900756191e-04 0.0 
0.0 0.0 0.0 
-7.326989600228e-08 2.215759863791e-07 0.0 
2.215759863791e-07 5.531492946340e-04 0.0 
0.0 0.0 0.0 
-4.467662338229e-08 -3.199821247217e-08 0.0 
-3.199821247217e-08 5.531374093825e-04 0.0 
0.0 0.0 0.0 
2.080077729690e-07 9.453668598573e-08 0.0 
9.453668598573e-08 5.532906182770e-04 0.0 
0.0 0.0 0.0 
9.617028632706e-08 -5.663694822575e-09 0.0 
-5.663694822575e-09 5.531786414151e-04 0.0 
0.0 0.0 0.0 
1.481209881785e-07 3.923348606792e-08 0.0 
3.923348606792e-08 5.531010139828e-04 0.0 
0.0 0.0 0.0 
1.648941366413e-07 -1.890355113372e-07 0.0 
-1.890355113372e-07 5.530444637272e-04 0.0 
0.0 0.0 0.0 
2.562576734144e-08 -8.152466247455e-08 0.0 
-8.152466247455e-08 5.531540013422e-04 0.0 
0.0 0.0 0.0 
8.731902551018e-08 -2.327991211138e-07 0.0 
-2.327991211138e-07 5.529075772650e-04 0.0 
0.0 0.0 0.0 
-7.468556756374e-08 -7.809788950506e-07 0.0 
-7.809788950506e-07 5.533800249733e-04 0.0 
0.0 0.0 0.0 
-5.107353800068e-07 2.569019006557e-06 0.0 
2.569019006557e-06 5.537883610869e-04 0.0 
0.0 0.0 0.0 
-5.493978121329e-07 8.483975367108e-07 0.0 
8.483975367108e-07 1.861677514518e-05 0.0 
0.0 0.0 0.0 
-7.182560194755e-08 -5.657223366220e-07 0.0 
-5.657223366220e-07 7.733661858840e-05 0.0 
0.0 0.0 0.0 
9.996421058885e-07 6.281381857921e-07 0.0 
6.281381857921e-07 1.414776612288e-04 0.0 
0.0 0.0 0.0 
1.367025813566e-06 9.053337413529e-07 0.0 
9.053337413529e-07 2.058373653142e-04 0.0 
0.0 0.0 0.0 
1.510142680498e-06 2.961242113983e-07 0.0 
2.961242113983e-07 2.685868737998e-04 0.0 
0.0 0.0 0.0 
1.960269854995e-06 6.688050938492e-07 0.0 
6.688050938492e-07 3.326726435006e-04 0.0 
0.0 0.0 0.0 
1.441680269110e-06 4.191204362036e-07 0.0 
4.191204362036e-07 3.967034131088e-04 0.0 
0.0 0.0 0.0 
1.477223002459e-06 6.145058631859e-07 0.0 
6.145058631859e-07 4.607408731561e-04 0.0 
0.0 0.0 0.0 
1.443994688414e-06 4.852031976050e-07 0.0 
4.852031976050e-07 5.247668903602e-04 0.0 
0.0 0.0 0.0 
1.478044747834e-06 5.407731794746e-07 0.0 
5.407731794746e-07 5.892635078030e-04 0.0 
0.0 0.0 0.0 
-9.983725257068e-07 -7.667246747702e-07 0.0 
-7.667246747702e-07 1.314781988992e-04 0.0 
0.0 0.0 0.0 
2.380324141127e-07 -3.495624857401e-07 0.0 
-3.495624857401e-07 1.202226105176e-03 0.0 
0.0 0.0 0.0 
1.144394919568e-07 -1.426252959205e-07 0.0 
-1.426252959205e-07 3.816031586668e-05 0.0 
0.0 0.0 0.0 
8.378043783545e-07 -1.254987852961e-06 0.0 
-1.254987852961e-06 3.549915964870e-05 0.0 
0.0 0.0 0.0 
1.124330127148e-08 4.538350456182e-07 0.0 
4.538350456182e-07 1.202444864763e-03 0.0 
0.0 0.0 0.0 
-6.073612562330e-07 5.153951389677e-07 0.0 
5.153951389677e-07 2.611690182211e-04 0.0 
0.0 0.0 0.0 
-5.670896699212e-07 -1.917582442744e-07 0.0 
-1.917582442744e-07 6.527477255244e-04 0.0 
0.0 0.0 0.0 
2.882162656156e-08 2.918329886631e-07 0.0 
2.918329886631e-07 1.200208244982e-03 0.0 
0.0 0.0 0.0 
-2.750849047069e-07 -7.693010393495e-07 0.0 
-7.693010393495e-07 3.832570473285e-04 0.0 
0.0 0.0 0.0 
1.084117522791e-07 9.453613230826e-08 0.0 
9.453613230826e-08 1.203098642455e-03 0.0 
0.0 0.0 0.0 
-3.322256185527e-07 4.466187383881e-08 0.0 
4.466187383881e-08 5.140471932310e-04 0.0 
0.0 0.0 0.0 
5.934803097666e-07 2.632450667102e-07 0.0 
2.632450667102e-07 1.206474960052e-03 0.0 
0.0 0.0 0.0 
1.284244432465e-07 2.786289292752e-07 0.0 
2.786289292752e-07 3.618879816373e-05 0.0 
0.0 0.0 0.0 
-1.148427329160e-08 1.460580786760e-07 0.0 
1.460580786760e-07 1.203501108480e-03 0.0 
0.0 0.0 0.0 
-2.708964720322e-07 3.357442882554e-07 0.0 
3.357442882554e-07 6.441728902222e-04 0.0 
0.0 0.0 0.0 
3.270376681315e-07 1.714024798016e-07 0.0 
1.714024798016e-07 3.968602593197e-04 0.0 
0.0 0.0 0.0 
-1.089870292586e-07 3.006878224947e-07 0.0 
3.006878224947e-07 8.275007919786e-04 0.0 
0.0 0.0 0.0 
2.616018147846e-07 -2.160263153597e-07 0.0 
-2.160263153597e-07 1.200758566791e-03 0.0 
0.0 0.0 0.0 
-1.810722172202e-08 3.926334264513e-07 0.0 
3.926334264513e-07 1.203512349404e-03 0.0 
0.0 0.0 0.0 
-2.526163137377e-07 -4.126438715061e-07 0.0 
-4.126438715061e-07 1.202682151973e-03 0.0 
0.0 0.0 0.0 
1.626136297046e-08 2.353806709587e-07 0.0 
2.353806709587e-07 1.197301342501e-03 0.0 
0.0 0.0 0.0 
-2.380674183159e-07 -5.090551112863e-07 0.0 
-5.090551112863e-07 1.204645689138e-03 0.0 
0.0 0.0 0.0 
9.030118143979e-08 2.402997733699e-07 0.0 
2.402997733699e-07 6.735664305756e-04 0.0 
0.0 0.0 0.0 
4.110889375205e-08 2.492511187055e-07 0.0 
2.492511187055e-07 6.739488093018e-04 0.0 
0.0 0.0 0.0 
1.675439850349e-07 -2.998409784232e-07 0.0 
-2.998409784232e-07 6.782644788263e-04 0.0 
0.0 0.0 0.0 
-1.008554862218e-07 -7.952530360397e-07 0.0 
-7.952530360397e-07 9.055639878810e-04 0.0 
0.0 0.0 0.0 
1.005008545089e-07 -2.661404660439e-07 0.0 
-2.661404660439e-07 1.202744565685e-03 0.0 
0.0 0.0 0.0 
7.320661815265e-07 -5.251123400619e-07 0.0 
-5.251123400619e-07 3.529472972881e-05 0.0 
0.0 0.0 0.0 
2.782897453590e-07 2.671685705990e-07 0.0 
2.671685705990e-07 3.914589161654e-05 0.0 
0.0 0.0 0.0 
7.411136239884e-08 -2.896437619145e-08 0.0 
-2.896437619145e-08 1.029274990347e-03 0.0 
0.0 0.0 0.0 
-3.554137723016e-07 4.362326945939e-07 0.0 
4.362326945939e-07 6.709563077067e-04 0.0 
0.0 0.0 0.0 
-4.706313899071e-07 3.392359976007e-08 0.0 
3.392359976007e-08 2.008681264585e-04 0.0 
0.0 0.0 0.0 
-2.432072256602e-07 1.203673599359e-07 0.0 
1.203673599359e-07 1.192357106453e-03 0.0 
0.0 0.0 0.0 
3.293963196649e-08 3.089132407855e-07 0.0 
3.089132407855e-07 1.206202182806e-03 0.0 
0.0 0.0 0.0 
-8.204486715938e-08 1.236900047065e-07 0.0 
1.236900047065e-07 1.203337300898e-03 0.0 
0.0 0.0 0.0 
-5.888510775812e-08 2.708433407772e-07 0.0 
2.708433407772e-07 1.197753806376e-03 0.0 
0.0 0.0 0.0 
-1.521357333445e-07 -3.982127623970e-07 0.0 
-3.982127623970e-07 1.204311510685e-03 0.0 
0.0 0.0 0.0 
2.237164590061e-07 4.103036126703e-09 0.0 
4.103036126703e-09 3.935787954941e-05 0.0 
0.0 0.0 0.0 
1.333129424075e-07 3.070848958848e-07 0.0 
3.070848958848e-07 6.716628519380e-04 0.0 
0.0 0.0 0.0 
-1.632345329064e-07 2.120535307438e-07 0.0 
2.120535307438e-07 1.192702327541e-03 0.0 
0.0 0.0 0.0 
-2.293862086204e-07 -6.955492183243e-07 0.0 
-6.955492183243e-07 1.030693932295e-03 0.0 
0.0 0.0 0.0 
-3.623724644242e-07 -4.397073804100e-07 0.0 
-4.397073804100e-07 3.934962922170e-05 0.0 
0.0 0.0 0.0 
9.804337813835e-08 -1.442969448222e-07 0.0 
-1.442969448222e-07 5.214259317252e-04 0.0 
0.0 0.0 0.0 
-3.582933195467e-07 -2.464479472945e-07 0.0 
-2.464479472945e-07 1.211820296997e-03 0.0 
0.0 0.0 0.0 
-6.562763312155e-07 -3.992809194230e-07 0.0 
-3.992809194230e-07 3.269643108749e-04 0.0 
0.0 0.0 0.0 
-4.504711599666e-07 -5.463538993843e-08 0.0 
-5.463538993843e-08 1.965960045898e-04 0.0 
0.0 0.0 0.0 
-4.196370779012e-07 -2.083059154846e-07 0.0 
-2.083059154846e-07 4.487741360426e-04 0.0 
0.0 0.0 0.0 
-1.853960746590e-07 -1.917244629604e-07 0.0 
-1.917244629604e-07 5.782925765819e-04 0.0 
0.0 0.0 0.0 
-2.573846923315e-06 2.907041404255e-07 0.0 
2.907041404255e-07 6.422933828620e-05 0.0 
0.0 0.0 0.0 
-2.990091668709e-08 -1.903208977613e-07 0.0 
-1.903208977613e-07 7.844458753344e-04 0.0 
0.0 0.0 0.0 
-1.898992370686e-07 -2.979715551364e-07 0.0 
-2.979715551364e-07 1.213336923706e-03 0.0 
0.0 0.0 0.0 
9.509974799315e-07 1.120862323681e-06 0.0 
1.120862323681e-06 3.598768376996e-05 0.0 
0.0 0.0 0.0 
4.603353214489e-07 -5.318903802797e-09 0.0 
-5.318903802797e-09 1.154397342800e-03 0.0 
0.0 0.0 0.0 
1.945076615328e-07 2.223284407640e-07 0.0 
2.223284407640e-07 6.742021911583e-04 0.0 
0.0 0.0 0.0 
8.265620410342e-09 9.233298703109e-08 0.0 
9.233298703109e-08 7.002486293605e-04 0.0 
0.0 0.0 0.0 
2.434728553372e-07 4.770688947478e-07 0.0 
4.770688947478e-07 7.305510830344e-04 0.0 
0.0 0.0 0.0 
-2.849079132246e-07 -2.027833527281e-07 0.0 
-2.027833527281e-07 7.607800719784e-04 0.0 
0.0 0.0 0.0 
-9.790510831683e-08 -1.358921886921e-08 0.0 
-1.358921886921e-08 7.940597561608e-04 0.0 
0.0 0.0 0.0 
-2.892885987612e-07 -1.837128446303e-07 0.0 
-1.837128446303e-07 8.211218159739e-04 0.0 
0.0 0.0 0.0 
-2.180766950725e-07 -1.770781530153e-07 0.0 
-1.770781530153e-07 7.878100818871e-04 0.0 
0.0 0.0 0.0 
-1.649500158685e-07 -2.165107876020e-07 0.0 
-2.165107876020e-07 8.482517713231e-04 0.0 
0.0 0.0 0.0 
-2.163255958624e-07 -1.381704982928e-07 0.0 
-1.381704982928e-07 8.145172281086e-04 0.0 
0.0 0.0 0.0 
1.727927276448e-07 -2.304634803558e-07 0.0 
-2.304634803558e-07 8.551760021095e-04 0.0 
0.0 0.0 0.0 
-1.425856689941e-07 -2.530811402043e-07 0.0 
-2.530811402043e-07 8.752510990851e-04 0.0 
0.0 0.0 0.0 
-1.755979543068e-07 -1.497148587522e-07 0.0 
-1.497148587522e-07 8.412268357969e-04 0.0 
0.0 0.0 0.0 
-1.040018784426e-07 -2.045320048376e-07 0.0 
-2.045320048376e-07 9.021111254174e-04 0.0 
0.0 0.0 0.0 
-1.572346011169e-07 -1.600849865727e-07 0.0 
-1.600849865727e-07 8.679954804181e-04 0.0 
0.0 0.0 0.0 
-1.980859813770e-07 -8.161924585730e-08 0.0 
-8.161924585730e-08 8.075135289214e-04 0.0 
0.0 0.0 0.0 
-1.918986141843e-07 -6.979604464090e-08 0.0 
-6.979604464090e-08 8.341237176241e-04 0.0 
0.0 0.0 0.0 
-1.617394509990e-07 -1.320263491660e-08 0.0 
-1.320263491660e-08 7.737757038669e-04 0.0 
0.0 0.0 0.0 
-1.702982400468e-07 -2.965827843399e-08 0.0 
-2.965827843399e-08 8.003033026871e-04 0.0 
0.0 0.0 0.0 
-1.739664707660e-07 -4.659808278706e-08 0.0 
-4.659808278706e-08 8.607848971898e-04 0.0 
0.0 0.0 0.0 
-1.469624365350e-07 -6.597622247761e-08 0.0 
-6.597622247761e-08 8.268340507482e-04 0.0 
0.0 0.0 0.0 
-1.554222866518e-07 -1.919488500828e-08 0.0 
-1.919488500828e-08 7.663987998681e-04 0.0 
0.0 0.0 0.0 
-1.184878613928e-07 -3.485699433289e-08 0.0 
-3.485699433289e-08 7.928039159773e-04 0.0 
0.0 0.0 0.0 
-1.223582402991e-07 2.030988465647e-08 0.0 
2.030988465647e-08 7.325344656111e-04 0.0 
0.0 0.0 0.0 
-7.733586299130e-08 -9.737965159236e-09 0.0 
-9.737965159236e-09 7.588748945634e-04 0.0 
0.0 0.0 0.0 
-1.015588551589e-07 1.934422367589e-08 0.0 
1.934422367589e-08 6.985426323608e-04 0.0 
0.0 0.0 0.0 
-5.020509065886e-08 -5.819866154199e-09 0.0 
-5.819866154199e-09 7.249221165954e-04 0.0 
0.0 0.0 0.0 
-2.304368732868e-08 -3.362953566658e-08 0.0 
-3.362953566658e-08 7.853320608118e-04 0.0 
0.0 0.0 0.0 
-1.930345015314e-08 -6.584767595981e-10 0.0 
-6.584767595981e-10 7.513118697278e-04 0.0 
0.0 0.0 0.0 
-2.554208130186e-08 2.295560422972e-08 0.0 
2.295560422972e-08 6.909634302964e-04 0.0 
0.0 0.0 0.0 
-1.256188014720e-08 2.186892546320e-08 0.0 
2.186892546320e-08 7.173033330725e-04 0.0 
0.0 0.0 0.0 
-1.324949583381e-08 4.320395425185e-08 0.0 
4.320395425185e-08 6.570030933743e-04 0.0 
0.0 0.0 0.0 
8.227594864666e-09 4.906506372512e-08 0.0 
4.906506372512e-08 6.831640589296e-04 0.0 
0.0 0.0 0.0 
4.273197758605e-09 3.031180046661e-08 0.0 
3.031180046661e-08 7.436691176713e-04 0.0 
0.0 0.0 0.0 
7.647934526419e-09 9.648766255638e-09 0.0 
9.648766255638e-09 7.095071502253e-04 0.0 
0.0 0.0 0.0 
1.357164384578e-08 5.396202216061e-09 0.0 
5.396202216061e-09 6.487141576951e-04 0.0 
0.0 0.0 0.0 
-1.763446392615e-08 -3.000467330476e-08 0.0 
-3.000467330476e-08 6.752534147264e-04 0.0 
0.0 0.0 0.0 
-2.760502569125e-08 -8.979511919342e-08 0.0 
-8.979511919342e-08 6.141699740702e-04 0.0 
0.0 0.0 0.0 
-4.118000370331e-08 -2.659344561101e-08 0.0 
-2.659344561101e-08 6.410107210196e-04 0.0 
0.0 0.0 0.0 
-4.192607677700e-08 -8.653777386658e-08 0.0 
-8.653777386658e-08 5.795697785403e-04 0.0 
0.0 0.0 0.0 
-5.006030071956e-08 -2.748327853645e-08 0.0 
-2.748327853645e-08 6.064170673989e-04 0.0 
0.0 0.0 0.0 
-4.949425602696e-08 -3.752071313263e-08 0.0 
-3.752071313263e-08 6.677510663575e-04 0.0 
0.0 0.0 0.0 
-6.028997036796e-08 -6.479020275903e-08 0.0 
-6.479020275903e-08 6.332412425699e-04 0.0 
0.0 0.0 0.0 
-6.424245711327e-08 -6.621746457370e-08 0.0 
-6.621746457370e-08 5.716503650871e-04 0.0 
0.0 0.0 0.0 
-5.504379665030e-08 -8.088635014082e-08 0.0 
-8.088635014082e-08 5.984134634353e-04 0.0 
0.0 0.0 0.0 
-4.125785687166e-08 -8.669324017526e-08 0.0 
-8.669324017526e-08 6.601459562658e-04 0.0 
0.0 0.0 0.0 
-4.463721448023e-08 -8.936910528531e-08 0.0 
-8.936910528531e-08 6.252299275189e-04 0.0 
0.0 0.0 0.0 
-2.987779821699e-08 -9.318087627993e-08 0.0 
-9.318087627993e-08 6.870903975486e-04 0.0 
0.0 0.0 0.0 
-4.377277853148e-08 -7.507688507053e-08 0.0 
-7.507688507053e-08 6.521328347625e-04 0.0 
0.0 0.0 0.0 
-5.503898318585e-08 -8.483346006975e-08 0.0 
-8.483346006975e-08 5.905235058585e-04 0.0 
0.0 0.0 0.0 
-5.752861503838e-08 -4.929773446755e-08 0.0 
-4.929773446755e-08 6.172962642275e-04 0.0 
0.0 0.0 0.0 
-4.093227721584e-08 -5.355465501705e-08 0.0 
-5.355465501705e-08 6.790135712466e-04 0.0 
0.0 0.0 0.0 
-6.165315868945e-08 -4.032182935124e-08 0.0 
-4.032182935124e-08 6.439500286317e-04 0.0 
0.0 0.0 0.0 
-8.180995923294e-08 -5.262239181476e-08 0.0 
-5.262239181476e-08 5.824981090674e-04 0.0 
0.0 0.0 0.0 
-6.664054271373e-08 1.127064724664e-08 0.0 
1.127064724664e-08 6.091161446360e-04 0.0 
0.0 0.0 0.0 
-6.257362827888e-08 -5.192495160903e-10 0.0 
-5.192495160903e-10 6.707792573185e-04 0.0 
0.0 0.0 0.0 
-5.027547504236e-08 4.668806259725e-08 0.0 
4.668806259725e-08 6.358041887899e-04 0.0 
0.0 0.0 0.0 
-6.399007244455e-08 4.171689112895e-08 0.0 
4.171689112895e-08 5.743369737034e-04 0.0 
0.0 0.0 0.0 
-4.106063977716e-08 8.339239464011e-08 0.0 
8.339239464011e-08 6.009552444670e-04 0.0 
0.0 0.0 0.0 
-3.112910231436e-08 6.286258159890e-08 0.0 
6.286258159890e-08 6.629184730436e-04 0.0 
0.0 0.0 0.0 
-1.596047545978e-08 5.993325983398e-08 0.0 
5.993325983398e-08 6.276807024888e-04 0.0 
0.0 0.0 0.0 
-1.309971420227e-08 9.955819844115e-08 0.0 
9.955819844115e-08 5.659279675766e-04 0.0 
0.0 0.0 0.0 
1.931021300268e-08 1.088605102054e-07 0.0 
1.088605102054e-07 5.924364462178e-04 0.0 
0.0 0.0 0.0 
1.123159700430e-08 5.852167872946e-08 0.0 
5.852167872946e-08 6.547820779747e-04 0.0 
0.0 0.0 0.0 
5.061654243891e-08 8.012413943839e-08 0.0 
8.012413943839e-08 6.191511200352e-04 0.0 
0.0 0.0 0.0 
3.412193738672e-08 4.076376477304e-08 0.0 
4.076376477304e-08 6.819805597051e-04 0.0 
0.0 0.0 0.0 
6.038530090772e-08 1.294733646411e-07 0.0 
1.294733646411e-07 5.566134737070e-04 0.0 
0.0 0.0 0.0 
8.946518448294e-08 6.934922448653e-08 0.0 
6.934922448653e-08 5.833064133820e-04 0.0 
0.0 0.0 0.0 
1.057726896070e-07 1.414221556204e-07 0.0 
1.414221556204e-07 5.204376387296e-04 0.0 
0.0 0.0 0.0 
1.381437145046e-07 4.593299788104e-08 0.0 
4.593299788104e-08 5.473917784609e-04 0.0 
0.0 0.0 0.0 
-6.666148003968e-09 2.798171345494e-08 0.0 
2.798171345494e-08 7.701796623465e-04 0.0 
0.0 0.0 0.0 
1.748710809861e-07 1.136583699047e-07 0.0 
1.136583699047e-07 4.843210174363e-04 0.0 
0.0 0.0 0.0 
1.130093185697e-07 1.980317582590e-07 0.0 
1.980317582590e-07 4.581665555147e-04 0.0 
0.0 0.0 0.0 
1.817391404405e-07 -7.449934436506e-09 0.0 
-7.449934436506e-09 5.115009111643e-04 0.0 
0.0 0.0 0.0 
1.239624876822e-07 -2.400940156736e-08 0.0 
-2.400940156736e-08 5.749133022375e-04 0.0 
0.0 0.0 0.0 
2.051173771574e-07 3.112365248372e-08 0.0 
3.112365248372e-08 4.481949773726e-04 0.0 
0.0 0.0 0.0 
2.091842301229e-07 -5.256807957822e-08 0.0 
-5.256807957822e-08 4.756002409082e-04 0.0 
0.0 0.0 0.0 
1.682670295692e-07 1.228832182461e-08 0.0 
1.228832182461e-08 4.122018795209e-04 0.0 
0.0 0.0 0.0 
-4.509103979089e-08 -9.525681358415e-08 0.0 
-9.525681358415e-08 5.516987204361e-04 0.0 
0.0 0.0 0.0 
-1.348772522743e-07 -9.673190513074e-08 0.0 
-9.673190513074e-08 8.875216243552e-04 0.0 
0.0 0.0 0.0 
1.773502904719e-07 -2.624375371509e-08 0.0 
-2.624375371509e-08 4.397734197292e-04 0.0 
0.0 0.0 0.0 
6.300764071598e-08 -8.428900537831e-08 0.0 
-8.428900537831e-08 3.763047287087e-04 0.0 
0.0 0.0 0.0 
1.069071478010e-07 1.897658347776e-08 0.0 
1.897658347776e-08 3.487281688090e-04 0.0 
0.0 0.0 0.0 
7.911407362560e-08 -7.806523241610e-08 0.0 
-7.806523241610e-08 3.128010608051e-04 0.0 
0.0 0.0 0.0 
4.215273614605e-07 -4.600678185288e-07 0.0 
-4.600678185288e-07 8.278104218313e-04 0.0 
0.0 0.0 0.0 
9.375256545171e-08 5.851946028175e-09 0.0 
5.851946028175e-09 8.896279026039e-04 0.0 
0.0 0.0 0.0 
1.851220154392e-07 -2.090751695056e-07 0.0 
-2.090751695056e-07 8.602872483308e-04 0.0 
0.0 0.0 0.0 
-2.546219910841e-08 -6.826911886752e-08 0.0 
-6.826911886752e-08 9.239651659277e-04 0.0 
0.0 0.0 0.0 
6.482081558549e-08 -2.254345957907e-07 0.0 
-2.254345957907e-07 8.956961895534e-04 0.0 
0.0 0.0 0.0 
6.209275734322e-08 -2.342456389577e-07 0.0 
-2.342456389577e-07 3.403234671545e-04 0.0 
0.0 0.0 0.0 
5.815243619978e-09 -1.840393453479e-07 0.0 
-1.840393453479e-07 9.368751253103e-04 0.0 
0.0 0.0 0.0 
4.007331078082e-09 6.462243077251e-08 0.0 
6.462243077251e-08 9.519308602203e-04 0.0 
0.0 0.0 0.0 
-1.580644401108e-07 3.568115426611e-08 0.0 
3.568115426611e-08 7.063486724342e-04 0.0 
0.0 0.0 0.0 
-2.463883017982e-08 4.531383897182e-08 0.0 
4.531383897182e-08 6.307781138127e-04 0.0 
0.0 0.0 0.0 
-2.358227363386e-08 -1.211965790517e-07 0.0 
-1.211965790517e-07 7.220849498699e-04 0.0 
0.0 0.0 0.0 
2.169066997867e-07 -1.480969913459e-07 0.0 
-1.480969913459e-07 5.031601804291e-04 0.0 
0.0 0.0 0.0 
1.993554750723e-07 -6.533741078237e-09 0.0 
-6.533741078237e-09 4.675000852313e-04 0.0 
0.0 0.0 0.0 
4.534293270482e-08 -2.833303841082e-07 0.0 
-2.833303841082e-07 5.309941164101e-04 0.0 
0.0 0.0 0.0 
8.964094522224e-09 1.349219066428e-08 0.0 
1.349219066428e-08 7.176306858712e-04 0.0 
0.0 0.0 0.0 
1.575069774606e-08 1.370774969212e-08 0.0 
1.370774969212e-08 7.450272281530e-04 0.0 
0.0 0.0 0.0 
8.245133057786e-09 3.803335081314e-10 0.0 
3.803335081314e-10 7.807095340634e-04 0.0 
0.0 0.0 0.0 
3.587689423323e-09 -7.408119000678e-10 0.0 
-7.408119000678e-10 8.081792348542e-04 0.0 
0.0 0.0 0.0 
8.198620042125e-09 -5.857067780808e-09 0.0 
-5.857067780808e-09 8.439062463446e-04 0.0 
0.0 0.0 0.0 
-4.423033198956e-09 6.300643745428e-09 0.0 
6.300643745428e-09 8.714233234426e-04 0.0 
0.0 0.0 0.0 
-1.646130972273e-09 -2.149627669120e-08 0.0 
-2.149627669120e-08 8.356428565885e-04 0.0 
0.0 0.0 0.0 
-2.420841936172e-08 -3.026342821543e-08 0.0 
-3.026342821543e-08 8.989357065415e-04 0.0 
0.0 0.0 0.0 
-6.083212248746e-09 -5.063804269121e-08 0.0 
-5.063804269121e-08 8.631114059595e-04 0.0 
0.0 0.0 0.0 
1.357776084158e-08 1.377338014926e-08 0.0 
1.377338014926e-08 9.071737205288e-04 0.0 
0.0 0.0 0.0 
5.359645449676e-09 -3.577748067546e-08 0.0 
-3.577748067546e-08 8.795143119617e-04 0.0 
0.0 0.0 0.0 
-2.432360411235e-08 -7.508582933322e-08 0.0 
-7.508582933322e-08 9.264134853986e-04 0.0 
0.0 0.0 0.0 
8.178211441390e-10 -5.431292558973e-08 0.0 
-5.431292558973e-08 8.905811570283e-04 0.0 
0.0 0.0 0.0 
1.727749524931e-08 -7.763593492614e-08 0.0 
-7.763593492614e-08 9.539029428299e-04 0.0 
0.0 0.0 0.0 
3.465469577968e-08 -6.532270961426e-08 0.0 
-6.532270961426e-08 9.180528529226e-04 0.0 
0.0 0.0 0.0 
5.637682302477e-09 -4.097333652094e-08 0.0 
-4.097333652094e-08 8.546372009394e-04 0.0 
0.0 0.0 0.0 
3.190564962230e-08 -3.254331476904e-08 0.0 
-3.254331476904e-08 8.820629975057e-04 0.0 
0.0 0.0 0.0 
-2.346879971841e-08 -6.744839136525e-08 0.0 
-6.744839136525e-08 8.188898590768e-04 0.0 
0.0 0.0 0.0 
-1.890766735772e-08 -1.199705121189e-07 0.0 
-1.199705121189e-07 7.491457663211e-04 0.0 
0.0 0.0 0.0 
-2.017904719246e-08 -1.348766501445e-07 0.0 
-1.348766501445e-07 7.842661857524e-04 0.0 
0.0 0.0 0.0 
-9.369224377812e-09 -1.237125444833e-07 0.0 
-1.237125444833e-07 8.113696657387e-04 0.0 
0.0 0.0 0.0 
-2.902890633427e-08 -1.448212569838e-07 0.0 
-1.448212569838e-07 8.465949532869e-04 0.0 
0.0 0.0 0.0 
-2.771452900507e-09 -1.387440815586e-07 0.0 
-1.387440815586e-07 8.737660834041e-04 0.0 
0.0 0.0 0.0 
-6.222104648179e-08 -1.598126338769e-07 0.0 
-1.598126338769e-07 9.090418875003e-04 0.0 
0.0 0.0 0.0 
-2.737333433996e-08 -1.456038918690e-07 0.0 
-1.456038918690e-07 9.361767081825e-04 0.0 
0.0 0.0 0.0 
2.372054482465e-08 -1.081614436131e-07 0.0 
-1.081614436131e-07 9.009474495803e-04 0.0 
0.0 0.0 0.0 
-1.408629807613e-07 -1.310035895578e-07 0.0 
-1.310035895578e-07 9.287468592090e-04 0.0 
0.0 0.0 0.0 
-6.838294908107e-08 -7.454273804665e-08 0.0 
-7.454273804665e-08 5.368217573392e-04 0.0 
0.0 0.0 0.0 
-7.586429271826e-08 -7.502506477349e-08 0.0 
-7.502506477349e-08 5.100878099224e-04 0.0 
0.0 0.0 0.0 
-9.933053520446e-08 -4.910796867599e-08 0.0 
-4.910796867599e-08 4.753408316348e-04 0.0 
0.0 0.0 0.0 
-1.119886326451e-07 -6.453048554060e-08 0.0 
-6.453048554060e-08 4.486717555758e-04 0.0 
0.0 0.0 0.0 
-1.520358438404e-07 -2.569362241400e-09 0.0 
-2.569362241400e-09 4.139370864192e-04 0.0 
0.0 0.0 0.0 
-1.819624233882e-07 -3.065757251853e-08 0.0 
-3.065757251853e-08 3.874131654489e-04 0.0 
0.0 0.0 0.0 
-2.530898707091e-07 6.100875226404e-08 0.0 
6.100875226404e-08 3.524439878245e-04 0.0 
0.0 0.0 0.0 
-1.530873791992e-07 8.557882561452e-08 0.0 
8.557882561452e-08 3.790333723995e-04 0.0 
0.0 0.0 0.0 
-2.492607824034e-07 1.842146423497e-07 0.0 
1.842146423497e-07 3.172293500976e-04 0.0 
0.0 0.0 0.0 
-8.104634737401e-08 1.301880758616e-07 0.0 
1.301880758616e-07 3.439728578917e-04 0.0 
0.0 0.0 0.0 
-1.989826539280e-07 2.072949848170e-07 0.0 
2.072949848170e-07 2.818797737243e-04 0.0 
0.0 0.0 0.0 
-1.664239370388e-08 1.588285261173e-07 0.0 
1.588285261173e-07 3.086388642167e-04 0.0 
0.0 0.0 0.0 
6.862736083117e-09 -2.542856234474e-08 0.0 
-2.542856234474e-08 8.118275126834e-04 0.0 
0.0 0.0 0.0 
-6.090755103975e-08 -1.381737408947e-07 0.0 
-1.381737408947e-07 8.817568217804e-04 0.0 
0.0 0.0 0.0 
-9.137856993302e-08 -8.318719438276e-08 0.0 
-8.318719438276e-08 9.443278739299e-04 0.0 
0.0 0.0 0.0 
-3.933845786156e-08 -8.657056291257e-08 0.0 
-8.657056291257e-08 9.165171776456e-04 0.0 
0.0 0.0 0.0 
7.409605003635e-09 -3.364163775823e-08 0.0 
-3.364163775823e-08 2.852638633446e-04 0.0 
0.0 0.0 0.0 
1.101129603794e-07 -7.291460551115e-08 0.0 
-7.291460551115e-08 9.455577533667e-04 0.0 
0.0 0.0 0.0 
2.433563041822e-08 -5.026683615712e-08 0.0 
-5.026683615712e-08 9.428845306181e-04 0.0 
0.0 0.0 0.0 
-7.467059063663e-09 -1.002393453670e-07 0.0 
-1.002393453670e-07 9.148855089702e-04 0.0 
0.0 0.0 0.0 
6.051470102797e-09 -4.187218171292e-08 0.0 
-4.187218171292e-08 9.635706492868e-04 0.0 
0.0 0.0 0.0 
4.778191089091e-08 -1.427325682921e-07 0.0 
-1.427325682921e-07 2.774309265947e-04 0.0 
0.0 0.0 0.0 
-2.877898818143e-07 -4.456270740926e-08 0.0 
-4.456270740926e-08 3.263532897908e-04 0.0 
0.0 0.0 0.0 
-1.759386626943e-07 -8.277518061913e-08 0.0 
-8.277518061913e-08 3.608654200625e-04 0.0 
0.0 0.0 0.0 
-3.024967141589e-08 -1.550496724643e-07 0.0 
-1.550496724643e-07 9.583811630096e-04 0.0 
0.0 0.0 0.0 
6.610341744355e-08 -2.099574491612e-07 0.0 
-2.099574491612e-07 9.300394861690e-04 0.0 
0.0 0.0 0.0 
3.814266500794e-08 -1.086420883283e-07 0.0 
-1.086420883283e-07 9.785848967960e-04 0.0 
0.0 0.0 0.0 
1.191505757392e-07 -1.404717004337e-07 0.0 
-1.404717004337e-07 3.047945446496e-04 0.0 
0.0 0.0 0.0 
-7.078654266450e-08 -7.094645530899e-08 0.0 
-7.094645530899e-08 9.622753411612e-04 0.0 
0.0 0.0 0.0 
-3.160832221701e-07 3.938423062456e-07 0.0 
3.938423062456e-07 2.554708771911e-04 0.0 
0.0 0.0 0.0 
1.177832449536e-07 2.229736067674e-08 0.0 
2.229736067674e-08 9.095318453758e-04 0.0 
0.0 0.0 0.0 
1.642749143382e-07 -4.915392236090e-08 0.0 
-4.915392236090e-08 9.730445591510e-04 0.0 
0.0 0.0 0.0 
1.356460632707e-08 -4.147234153860e-08 0.0 
-4.147234153860e-08 7.999380121761e-04 0.0 
0.0 0.0 0.0 
-3.637276679846e-08 1.560757007910e-08 0.0 
1.560757007910e-08 9.794652657458e-04 0.0 
0.0 0.0 0.0 
4.766401086783e-08 -4.753848987674e-08 0.0 
-4.753848987674e-08 9.509722382097e-04 0.0 
0.0 0.0 0.0 
-5.863901246054e-08 4.775103521779e-08 0.0 
4.775103521779e-08 3.711390870346e-04 0.0 
0.0 0.0 0.0 
-1.686628723537e-07 -1.109845956760e-07 0.0 
-1.109845956760e-07 3.359099582328e-04 0.0 
0.0 0.0 0.0 
-1.890903661798e-07 -6.183296829962e-09 0.0 
-6.183296829962e-09 2.746773164714e-04 0.0 
0.0 0.0 0.0 
-3.830506746979e-08 8.665967342743e-08 0.0 
8.665967342743e-08 3.026696593173e-04 0.0 
0.0 0.0 0.0 
-1.656083730521e-07 5.502072520855e-08 0.0 
5.502072520855e-08 3.635119173078e-04 0.0 
0.0 0.0 0.0 
5.019514659477e-08 2.886687246138e-07 0.0 
2.886687246138e-07 3.277512686262e-04 0.0 
0.0 0.0 0.0 
3.025029929142e-07 5.469545374028e-07 0.0 
5.469545374028e-07 2.659970920461e-04 0.0 
0.0 0.0 0.0 
1.570365485426e-07 2.519166504719e-07 0.0 
2.519166504719e-07 2.919127826139e-04 0.0 
0.0 0.0 0.0 
6.410843531960e-08 2.219381634254e-07 0.0 
2.219381634254e-07 3.543779865970e-04 0.0 
0.0 0.0 0.0 
1.064661143320e-07 1.759325025871e-07 0.0 
1.759325025871e-07 3.184690035637e-04 0.0 
0.0 0.0 0.0 
3.751953553029e-07 7.018739632211e-08 0.0 
7.018739632211e-08 2.554900751404e-04 0.0 
0.0 0.0 0.0 
8.662315625907e-08 6.299029149039e-08 0.0 
6.299029149039e-08 2.821800207830e-04 0.0 
0.0 0.0 0.0 
1.157522814266e-07 -1.052931181905e-07 0.0 
-1.052931181905e-07 1.008933745622e-03 0.0 
0.0 0.0 0.0 
-2.114837686455e-08 2.424835598422e-07 0.0 
2.424835598422e-07 2.197938336330e-04 0.0 
0.0 0.0 0.0 
-2.074532460261e-07 -3.974344528078e-08 0.0 
-3.974344528078e-08 7.473303707442e-04 0.0 
0.0 0.0 0.0 
5.229764291996e-08 -2.023352942017e-08 0.0 
-2.023352942017e-08 1.006194301178e-03 0.0 
0.0 0.0 0.0 
-1.014083046054e-07 -4.202773638957e-08 0.0 
-4.202773638957e-08 9.981072535317e-04 0.0 
0.0 0.0 0.0 
2.514691070192e-08 -1.560661046410e-07 0.0 
-1.560661046410e-07 9.929724100104e-04 0.0 
0.0 0.0 0.0 
3.985065015015e-08 -1.608581555918e-07 0.0 
-1.608581555918e-07 9.646645969324e-04 0.0 
0.0 0.0 0.0 
9.657468680313e-08 -4.750292871167e-08 0.0 
-4.750292871167e-08 9.013957706929e-04 0.0 
0.0 0.0 0.0 
-3.627451289345e-08 -6.577401807446e-08 0.0 
-6.577401807446e-08 9.363580767456e-04 0.0 
0.0 0.0 0.0 
-4.945657272604e-08 -1.837490839018e-07 0.0 
-1.837490839018e-07 9.996374337563e-04 0.0 
0.0 0.0 0.0 
-1.103612806882e-07 -9.411735079641e-08 0.0 
-9.411735079641e-08 9.712811851063e-04 0.0 
0.0 0.0 0.0 
-1.173292445422e-07 -5.342417163881e-08 0.0 
-5.342417163881e-08 9.078942997048e-04 0.0 
0.0 0.0 0.0 
-7.962111855016e-08 -4.845725988018e-08 0.0 
-4.845725988018e-08 9.426877438158e-04 0.0 
0.0 0.0 0.0 
-2.055123898836e-08 -5.201765537487e-08 0.0 
-5.201765537487e-08 8.791518514373e-04 0.0 
0.0 0.0 0.0 
-3.228376414347e-08 1.795221018764e-09 0.0 
1.795221018764e-09 9.140093926154e-04 0.0 
0.0 0.0 0.0 
-1.524175343344e-08 -4.593171727201e-08 0.0 
-4.593171727201e-08 9.775385657746e-04 0.0 
0.0 0.0 0.0 
-3.360426984826e-08 -6.657188172419e-08 0.0 
-6.657188172419e-08 9.489930838856e-04 0.0 
0.0 0.0 0.0 
-1.149534408588e-07 6.489790315801e-08 0.0 
6.489790315801e-08 8.854442669352e-04 0.0 
0.0 0.0 0.0 
-7.076418367946e-08 -1.033388035291e-07 0.0 
-1.033388035291e-07 9.203580412053e-04 0.0 
0.0 0.0 0.0 
-1.834831550955e-07 9.723056600883e-09 0.0 
9.723056600883e-09 8.566958459569e-04 0.0 
0.0 0.0 0.0 
5.182353559248e-08 -2.207305216694e-07 0.0 
-2.207305216694e-07 8.912961972463e-04 0.0 
0.0 0.0 0.0 
3.200238215169e-08 -5.145433472209e-08 0.0 
-5.145433472209e-08 9.553316568481e-04 0.0 
0.0 0.0 0.0 
4.475277004904e-07 -2.248424629952e-08 0.0 
-2.248424629952e-08 2.434976639419e-04 0.0 
0.0 0.0 0.0 
1.747748168412e-09 -6.638591229372e-09 0.0 
-6.638591229372e-09 9.282450863783e-04 0.0 
0.0 0.0 0.0 
-8.078007753450e-08 1.823513764329e-07 0.0 
1.823513764329e-07 9.915391377190e-04 0.0 
0.0 0.0 0.0 
-1.901600282054e-07 -5.526174354668e-07 0.0 
-5.526174354668e-07 4.972192605789e-04 0.0 
0.0 0.0 0.0 
-1.200289536281e-08 -5.990625961559e-07 0.0 
-5.990625961559e-07 5.581006996897e-04 0.0 
0.0 0.0 0.0 
-4.657614853058e-08 2.622959358101e-08 0.0 
2.622959358101e-08 5.943215953003e-04 0.0 
0.0 0.0 0.0 
8.208517345472e-08 -6.967654665623e-08 0.0 
-6.967654665623e-08 6.224715554062e-04 0.0 
0.0 0.0 0.0 
1.158415892840e-07 -1.696946835972e-07 0.0 
-1.696946835972e-07 9.259326708398e-04 0.0 
0.0 0.0 0.0 
-1.275635305535e-07 9.333909017981e-08 0.0 
9.333909017981e-08 9.904168957784e-04 0.0 
0.0 0.0 0.0 
-2.338578507325e-07 -1.118093169073e-07 0.0 
-1.118093169073e-07 3.004248384666e-04 0.0 
0.0 0.0 0.0 
-1.278832214939e-07 -4.875524139138e-08 0.0 
-4.875524139138e-08 3.344873309378e-04 0.0 
0.0 0.0 0.0 
-1.701340261266e-08 -1.066041530764e-07 0.0 
-1.066041530764e-07 1.021156775921e-03 0.0 
0.0 0.0 0.0 
1.300980286834e-07 -2.142541765843e-09 0.0 
-2.142541765843e-09 9.372857063362e-04 0.0 
0.0 0.0 0.0 
6.519261880333e-08 1.086601619895e-07 0.0 
1.086601619895e-07 8.738093151118e-04 0.0 
0.0 0.0 0.0 
-1.119409035836e-08 4.655390397269e-08 0.0 
4.655390397269e-08 5.968408130570e-04 0.0 
0.0 0.0 0.0 
-2.974943067816e-08 8.488006197551e-08 0.0 
8.488006197551e-08 5.705936274313e-04 0.0 
0.0 0.0 0.0 
2.459645544646e-08 -1.356856580631e-08 0.0 
-1.356856580631e-08 5.364260832628e-04 0.0 
0.0 0.0 0.0 
-2.163652527513e-08 1.248950387199e-07 0.0 
1.248950387199e-07 5.092932078813e-04 0.0 
0.0 0.0 0.0 
-1.274074410233e-07 2.374113859102e-07 0.0 
2.374113859102e-07 5.443499695242e-04 0.0 
0.0 0.0 0.0 
6.889383128798e-08 -2.021000334143e-07 0.0 
-2.021000334143e-07 4.743451620242e-04 0.0 
0.0 0.0 0.0 
-1.431986605220e-08 -5.395537819730e-08 0.0 
-5.395537819730e-08 8.512238230034e-04 0.0 
0.0 0.0 0.0 
6.745556705804e-10 -1.293563142310e-07 0.0 
-1.293563142310e-07 1.012582745044e-03 0.0 
0.0 0.0 0.0 
7.663135091300e-08 2.058265762456e-07 0.0 
2.058265762456e-07 3.214814570620e-04 0.0 
0.0 0.0 0.0 
4.561402751809e-08 1.560141280838e-07 0.0 
1.560141280838e-07 2.581525509357e-04 0.0 
0.0 0.0 0.0 
2.578996632918e-08 -3.589326281277e-08 0.0 
-3.589326281277e-08 1.000904061512e-03 0.0 
0.0 0.0 0.0 
5.924226849826e-10 -3.443116081463e-08 0.0 
-3.443116081463e-08 8.654953208312e-04 0.0 
0.0 0.0 0.0 
1.487940609612e-08 -6.919879473973e-08 0.0 
-6.919879473973e-08 8.459816823957e-04 0.0 
0.0 0.0 0.0 
4.098998148313e-08 -4.674452278817e-08 0.0 
-4.674452278817e-08 8.726650608086e-04 0.0 
0.0 0.0 0.0 
3.830377555876e-08 -9.455758387206e-08 0.0 
-9.455758387206e-08 9.070873082355e-04 0.0 
0.0 0.0 0.0 
7.567122173313e-08 -3.188340943178e-08 0.0 
-3.188340943178e-08 9.339120010119e-04 0.0 
0.0 0.0 0.0 
3.194713090367e-08 -1.154500861734e-07 0.0 
-1.154500861734e-07 9.685873874662e-04 0.0 
0.0 0.0 0.0 
2.037099459488e-08 -6.103871062477e-08 0.0 
-6.103871062477e-08 9.953242465597e-04 0.0 
0.0 0.0 0.0 
3.878232398187e-08 1.585430602675e-08 0.0 
1.585430602675e-08 9.609592165578e-04 0.0 
0.0 0.0 0.0 
1.881299206419e-07 1.653371952423e-07 0.0 
1.653371952423e-07 1.014257876020e-03 0.0 
0.0 0.0 0.0 
-6.749814253822e-08 -7.913049929078e-08 0.0 
-7.913049929078e-08 1.022544676961e-03 0.0 
0.0 0.0 0.0 
4.600120609248e-07 1.746925904305e-07 0.0 
1.746925904305e-07 8.610647638183e-04 0.0 
0.0 0.0 0.0 
-3.441118621531e-08 -4.530234863721e-08 0.0 
-4.530234863721e-08 8.536818954115e-04 0.0 
0.0 0.0 0.0 
3.979235796425e-08 1.968424236735e-07 0.0 
1.968424236735e-07 3.813933764511e-04 0.0 
0.0 0.0 0.0 
-1.350523273769e-07 -4.066245030510e-07 0.0 
-4.066245030510e-07 2.155159678457e-04 0.0 
0.0 0.0 0.0 
-1.236438291937e-07 4.514097262827e-08 0.0 
4.514097262827e-08 2.176890913098e-04 0.0 
0.0 0.0 0.0 
2.030348918991e-07 1.507654026527e-07 0.0 
1.507654026527e-07 2.684525374329e-04 0.0 
0.0 0.0 0.0 
1.474979558491e-07 7.849484580870e-08 0.0 
7.849484580870e-08 3.321149937414e-04 0.0 
0.0 0.0 0.0 
8.878443465606e-08 -5.802851624491e-08 0.0 
-5.802851624491e-08 1.042058591858e-03 0.0 
0.0 0.0 0.0 
-7.116600797552e-08 -1.133409424422e-07 0.0 
-1.133409424422e-07 1.030224248924e-03 0.0 
0.0 0.0 0.0 
-4.893350606198e-08 -1.112296375291e-07 0.0 
-1.112296375291e-07 1.002831847552e-03 0.0 
0.0 0.0 0.0 
-8.982712514557e-08 4.846138162111e-07 0.0 
4.846138162111e-07 4.837039541761e-04 0.0 
0.0 0.0 0.0 
-1.648472616189e-07 1.479904539980e-07 0.0 
1.479904539980e-07 5.186950815571e-04 0.0 
0.0 0.0 0.0 
2.097512306250e-07 5.495928866278e-08 0.0 
5.495928866278e-08 1.042064420460e-03 0.0 
0.0 0.0 0.0 
5.705490119986e-07 -5.078883125988e-08 0.0 
-5.078883125988e-08 8.326901718781e-04 0.0 
0.0 0.0 0.0 
-1.366699161250e-10 -4.243487461935e-08 0.0 
-4.243487461935e-08 8.445548266473e-04 0.0 
0.0 0.0 0.0 
7.720737232875e-08 2.489375963904e-08 0.0 
2.489375963904e-08 8.154371858067e-04 0.0 
0.0 0.0 0.0 
8.223059777546e-07 -3.234371369155e-07 0.0 
-3.234371369155e-07 1.997951389310e-04 0.0 
0.0 0.0 0.0 
5.770737475467e-07 1.292230580613e-07 0.0 
1.292230580613e-07 1.933842041701e-04 0.0 
0.0 0.0 0.0 
-6.986925095894e-08 -1.635493916054e-07 0.0 
-1.635493916054e-07 1.034653726464e-03 0.0 
0.0 0.0 0.0 
-9.605786629082e-08 -3.373315412624e-08 0.0 
-3.373315412624e-08 3.948226463654e-04 0.0 
0.0 0.0 0.0 
-6.849188890120e-08 -1.910279558215e-08 0.0 
-1.910279558215e-08 3.684606108095e-04 0.0 
0.0 0.0 0.0 
-4.729208010016e-07 4.807704643432e-07 0.0 
4.807704643432e-07 1.931932628088e-04 0.0 
0.0 0.0 0.0 
-1.627485942864e-07 3.524126202268e-07 0.0 
3.524126202268e-07 1.573820805278e-04 0.0 
0.0 0.0 0.0 
4.284631147285e-07 4.261155073893e-07 0.0 
4.261155073893e-07 9.599357903695e-04 0.0 
0.0 0.0 0.0 
3.251690661177e-07 3.030264488376e-07 0.0 
3.030264488376e-07 1.023872690003e-03 0.0 
0.0 0.0 0.0 
1.885228231672e-07 -6.729392790513e-08 0.0 
-6.729392790513e-08 6.577595733776e-04 0.0 
0.0 0.0 0.0 
-6.816848271048e-09 -2.654109748551e-07 0.0 
-2.654109748551e-07 6.857782900147e-04 0.0 
0.0 0.0 0.0 
8.822575942036e-08 -1.323536983816e-07 0.0 
-1.323536983816e-07 1.014463347347e-03 0.0 
0.0 0.0 0.0 
-4.057589899261e-08 6.926939778348e-08 0.0 
6.926939778348e-08 2.459038014380e-04 0.0 
0.0 0.0 0.0 
1.421795370142e-07 1.227435494005e-08 0.0 
1.227435494005e-08 1.054231466752e-03 0.0 
0.0 0.0 0.0 
-5.641662331746e-08 4.657778905454e-08 0.0 
4.657778905454e-08 8.929480820954e-04 0.0 
0.0 0.0 0.0 
-3.820034856957e-08 1.113864097156e-10 0.0 
1.113864097156e-10 8.300435574058e-04 0.0 
0.0 0.0 0.0 
4.067593090922e-07 3.160872673321e-07 0.0 
3.160872673321e-07 5.858059298966e-04 0.0 
0.0 0.0 0.0 
-2.771315679717e-07 -5.305101721593e-08 0.0 
-5.305101721593e-08 2.749450185247e-04 0.0 
0.0 0.0 0.0 
-5.019477680723e-07 -2.730159486506e-08 0.0 
-2.730159486506e-08 2.407961194330e-04 0.0 
0.0 0.0 0.0 
-2.072256682917e-08 2.159412155851e-07 0.0 
2.159412155851e-07 4.169900997384e-04 0.0 
0.0 0.0 0.0 
7.947975220561e-08 1.751383395281e-07 0.0 
1.751383395281e-07 3.092580957038e-04 0.0 
0.0 0.0 0.0 
2.110541683827e-07 6.695768715491e-08 0.0 
6.695768715491e-08 2.958308875269e-04 0.0 
0.0 0.0 0.0 
8.465737240855e-08 1.454995041397e-07 0.0 
1.454995041397e-07 1.077880503855e-03 0.0 
0.0 0.0 0.0 
9.228129623414e-08 -1.855387813628e-07 0.0 
-1.855387813628e-07 1.062542154468e-03 0.0 
0.0 0.0 0.0 
-3.481465142100e-08 -2.326102451994e-07 0.0 
-2.326102451994e-07 9.883197210290e-04 0.0 
0.0 0.0 0.0 
-3.922905187729e-08 1.839840228672e-09 0.0 
1.839840228672e-09 9.263422784725e-04 0.0 
0.0 0.0 0.0 
2.752962126410e-07 -1.819046096862e-07 0.0 
-1.819046096862e-07 1.050209215513e-03 0.0 
0.0 0.0 0.0 
3.709496172455e-07 -1.254416304403e-07 0.0 
-1.254416304403e-07 1.826823033857e-04 0.0 
0.0 0.0 0.0 
-6.193165328720e-08 -6.926829698498e-08 0.0 
-6.926829698498e-08 1.070463021976e-03 0.0 
0.0 0.0 0.0 
-8.438838805525e-08 -4.074478002524e-08 0.0 
-4.074478002524e-08 9.654108707627e-04 0.0 
0.0 0.0 0.0 
-4.174986350895e-07 2.036068988024e-07 0.0 
2.036068988024e-07 1.062369201824e-03 0.0 
0.0 0.0 0.0 
-9.876414593564e-08 -1.156504310134e-08 0.0 
-1.156504310134e-08 1.037017325437e-03 0.0 
0.0 0.0 0.0 
-8.379378357848e-08 4.261992896818e-08 0.0 
4.261992896818e-08 4.285732843144e-04 0.0 
0.0 0.0 0.0 
-1.007816719338e-07 -1.344429189848e-07 0.0 
-1.344429189848e-07 4.032020300933e-04 0.0 
0.0 0.0 0.0 
-7.975326745309e-08 -1.135774365109e-08 0.0 
-1.135774365109e-08 3.431331074456e-04 0.0 
0.0 0.0 0.0 
-1.509744012954e-07 2.255440077797e-07 0.0 
2.255440077797e-07 3.780567848593e-04 0.0 
0.0 0.0 0.0 
-3.717153550890e-07 -1.160681340736e-07 0.0 
-1.160681340736e-07 7.543075207126e-04 0.0 
0.0 0.0 0.0 
-9.608964809023e-08 -4.350659172434e-08 0.0 
-4.350659172434e-08 4.635277997258e-04 0.0 
0.0 0.0 0.0 
-1.638720898608e-07 -2.479529206846e-08 0.0 
-2.479529206846e-08 7.137292468126e-04 0.0 
0.0 0.0 0.0 
-1.829102859359e-07 -4.588419420420e-08 0.0 
-4.588419420420e-08 6.874530480186e-04 0.0 
0.0 0.0 0.0 
-1.756938533733e-07 8.479253978229e-09 0.0 
8.479253978229e-09 6.543001894677e-04 0.0 
0.0 0.0 0.0 
-1.649317598051e-07 4.323957366995e-08 0.0 
4.323957366995e-08 5.783538953462e-04 0.0 
0.0 0.0 0.0 
-1.504935988420e-07 -2.888265565036e-08 0.0 
-2.888265565036e-08 5.528404467905e-04 0.0 
0.0 0.0 0.0 
-7.927358323482e-08 -8.175670688449e-08 0.0 
-8.175670688449e-08 4.830018346526e-04 0.0 
0.0 0.0 0.0 
-2.773994141799e-08 -1.128348492658e-07 0.0 
-1.128348492658e-07 7.569353163251e-04 0.0 
0.0 0.0 0.0 
4.423490886548e-08 -7.756343765077e-09 0.0 
-7.756343765077e-09 6.301908686475e-04 0.0 
0.0 0.0 0.0 
4.620930138532e-09 -7.241376629820e-08 0.0 
-7.241376629820e-08 7.915623840650e-04 0.0 
0.0 0.0 0.0 
4.078957912175e-09 9.144614860127e-09 0.0 
9.144614860127e-09 7.531090981672e-04 0.0 
0.0 0.0 0.0 
-9.690320601496e-09 -9.925871206036e-08 0.0 
-9.925871206036e-08 1.040726391353e-03 0.0 
0.0 0.0 0.0 
-6.526954256699e-08 -2.191598744278e-07 0.0 
-2.191598744278e-07 1.076200926099e-03 0.0 
0.0 0.0 0.0 
-1.634333915979e-07 1.930183077827e-07 0.0 
1.930183077827e-07 8.217880076741e-04 0.0 
0.0 0.0 0.0 
2.162802616446e-07 5.134859014303e-09 0.0 
5.134859014303e-09 7.925171555280e-04 0.0 
0.0 0.0 0.0 
3.787829838675e-08 -3.744895214463e-08 0.0 
-3.744895214463e-08 2.217008870093e-04 0.0 
0.0 0.0 0.0 
-3.207879214114e-07 2.743783245016e-07 0.0 
2.743783245016e-07 1.948751977761e-04 0.0 
0.0 0.0 0.0 
3.536657918376e-08 7.865642980640e-09 0.0 
7.865642980640e-09 7.093606026266e-04 0.0 
0.0 0.0 0.0 
-8.005582707860e-08 8.237270550123e-08 0.0 
8.237270550123e-08 1.033574187943e-03 0.0 
0.0 0.0 0.0 
-2.394784178369e-08 -1.456316674657e-08 0.0 
-1.456316674657e-08 1.055282554394e-03 0.0 
0.0 0.0 0.0 
-5.863230552923e-08 -7.394148092114e-08 0.0 
-7.394148092114e-08 1.083435560214e-03 0.0 
0.0 0.0 0.0 
1.180113181250e-08 -8.485886809313e-08 0.0 
-8.485886809313e-08 1.048856138603e-03 0.0 
0.0 0.0 0.0 
1.907145310750e-07 -1.388861706377e-09 0.0 
-1.388861706377e-09 1.049512963682e-03 0.0 
0.0 0.0 0.0 
-7.618846024441e-08 -5.477464704770e-08 0.0 
-5.477464704770e-08 5.021152101559e-04 0.0 
0.0 0.0 0.0 
-1.139819783003e-08 -1.005398767288e-07 0.0 
-1.005398767288e-07 7.761281934141e-04 0.0 
0.0 0.0 0.0 
-8.623278485720e-08 -1.363403720726e-07 0.0 
-1.363403720726e-07 1.847631977775e-04 0.0 
0.0 0.0 0.0 
6.351379255864e-09 2.107797000074e-08 0.0 
2.107797000074e-08 8.042291452990e-04 0.0 
0.0 0.0 0.0 
-2.049400349979e-07 7.087308299520e-08 0.0 
7.087308299520e-08 1.589626660869e-04 0.0 
0.0 0.0 0.0 
-1.847302295207e-07 -2.639871801720e-08 0.0 
-2.639871801720e-08 9.213604420867e-04 0.0 
0.0 0.0 0.0 
6.122470658232e-08 5.311654967404e-09 0.0 
5.311654967404e-09 1.029087184865e-03 0.0 
0.0 0.0 0.0 
8.555277830613e-08 -8.291166993210e-09 0.0 
-8.291166993210e-09 1.064124939414e-03 0.0 
0.0 0.0 0.0 
2.690796012672e-07 3.179212892070e-08 0.0 
3.179212892070e-08 1.076203341720e-03 0.0 
0.0 0.0 0.0 
-1.541813743714e-07 2.386468558414e-07 0.0 
2.386468558414e-07 6.690079798815e-04 0.0 
0.0 0.0 0.0 
-1.950378329211e-08 6.124185327744e-08 0.0 
6.124185327744e-08 8.309850817861e-04 0.0 
0.0 0.0 0.0 
-3.894475301506e-08 3.097222445719e-08 0.0 
3.097222445719e-08 7.970112111247e-04 0.0 
0.0 0.0 0.0 
-1.305204183621e-07 6.857091528418e-08 0.0 
6.857091528418e-08 6.283560410443e-04 0.0 
0.0 0.0 0.0 
-1.457554090756e-07 7.435490002773e-08 0.0 
7.435490002773e-08 5.956230863280e-04 0.0 
0.0 0.0 0.0 
-1.555641590175e-07 7.495653167089e-08 0.0 
7.495653167089e-08 6.210309931843e-04 0.0 
0.0 0.0 0.0 
-1.797055594333e-07 7.440467602257e-08 0.0 
7.440467602257e-08 5.624245738861e-04 0.0 
0.0 0.0 0.0 
1.812199353542e-09 1.662952951397e-07 0.0 
1.662952951397e-07 4.435173894465e-04 0.0 
0.0 0.0 0.0 
4.663770421705e-08 1.440340488866e-07 0.0 
1.440340488866e-07 4.077465887583e-04 0.0 
0.0 0.0 0.0 
-1.984448922172e-07 5.272345345494e-08 0.0 
5.272345345494e-08 1.096450806368e-03 0.0 
0.0 0.0 0.0 
-2.489169420583e-08 5.025351242265e-07 0.0 
5.025351242265e-07 1.083335181249e-03 0.0 
0.0 0.0 0.0 
-2.041840341619e-07 -1.150445574071e-07 0.0 
-1.150445574071e-07 1.097124874097e-03 0.0 
0.0 0.0 0.0 
5.090559898428e-07 -2.550352543532e-09 0.0 
-2.550352543532e-09 1.072704480729e-03 0.0 
0.0 0.0 0.0 
7.770136127479e-07 -8.096472642068e-08 0.0 
-8.096472642068e-08 1.103803422676e-03 0.0 
0.0 0.0 0.0 
3.678979325443e-07 -4.209332136929e-08 0.0 
-4.209332136929e-08 1.068970628433e-03 0.0 
0.0 0.0 0.0 
-1.830320831934e-07 -1.067501489885e-07 0.0 
-1.067501489885e-07 3.578688836738e-04 0.0 
0.0 0.0 0.0 
-1.779941917375e-07 4.787830454066e-08 0.0 
4.787830454066e-08 4.938800300437e-04 0.0 
0.0 0.0 0.0 
4.337087904186e-07 -2.442727881945e-07 0.0 
-2.442727881945e-07 1.097472415564e-03 0.0 
0.0 0.0 0.0 
-1.185723020880e-07 5.524191183269e-08 0.0 
5.524191183269e-08 6.610375351476e-04 0.0 
0.0 0.0 0.0 
-2.573030111937e-07 -1.155012390316e-07 0.0 
-1.155012390316e-07 1.096205682755e-03 0.0 
0.0 0.0 0.0 
-9.357810239659e-08 6.503664783857e-08 0.0 
6.503664783857e-08 1.061290300486e-03 0.0 
0.0 0.0 0.0 
2.688923920561e-08 4.183531663016e-07 0.0 
4.183531663016e-07 1.220961256712e-04 0.0 
0.0 0.0 0.0 
3.696515944451e-07 -1.627628588729e-07 0.0 
-1.627628588729e-07 1.474925687933e-04 0.0 
0.0 0.0 0.0 
2.213365897970e-07 3.256550501430e-08 0.0 
3.256550501430e-08 1.088696891788e-03 0.0 
0.0 0.0 0.0 
-1.350157041354e-07 -5.399368611275e-08 0.0 
-5.399368611275e-08 3.176465720765e-04 0.0 
0.0 0.0 0.0 
-2.892178201930e-07 1.749596217589e-07 0.0 
1.749596217589e-07 3.509662339851e-04 0.0 
0.0 0.0 0.0 
-1.121362560215e-07 -1.857361239075e-07 0.0 
-1.857361239075e-07 2.834974510662e-04 0.0 
0.0 0.0 0.0 
-1.291675337060e-08 1.055684968676e-07 0.0 
1.055684968676e-07 1.158817297649e-03 0.0 
0.0 0.0 0.0 
-4.472256805628e-09 -7.400028976697e-08 0.0 
-7.400028976697e-08 6.691535412364e-04 0.0 
0.0 0.0 0.0 
3.979400135338e-07 4.345724359995e-08 0.0 
4.345724359995e-08 1.092658487389e-03 0.0 
0.0 0.0 0.0 
-1.524537344884e-07 1.528480433515e-08 0.0 
1.528480433515e-08 6.126050457284e-04 0.0 
0.0 0.0 0.0 
4.190440854683e-07 7.463368815076e-08 0.0 
7.463368815076e-08 1.119097387585e-03 0.0 
0.0 0.0 0.0 
-2.460567614474e-08 4.121588469887e-08 0.0 
4.121588469887e-08 8.585444190743e-04 0.0 
0.0 0.0 0.0 
1.567491699402e-08 1.884212152506e-07 0.0 
1.884212152506e-07 5.615776566285e-04 0.0 
0.0 0.0 0.0 
-2.421420795355e-08 -2.225286703090e-07 0.0 
-2.225286703090e-07 9.862879633019e-04 0.0 
0.0 0.0 0.0 
3.567832544325e-07 -3.896666054339e-07 0.0 
-3.896666054339e-07 1.054642621969e-03 0.0 
0.0 0.0 0.0 
-2.105053526121e-07 2.874205793030e-07 0.0 
2.874205793030e-07 1.124779231544e-03 0.0 
0.0 0.0 0.0 
4.182600092569e-07 2.023443829013e-07 0.0 
2.023443829013e-07 7.808137401465e-04 0.0 
0.0 0.0 0.0 
6.538172978946e-08 -4.276184900694e-07 0.0 
-4.276184900694e-07 7.499508418128e-04 0.0 
0.0 0.0 0.0 
5.807802403816e-08 5.608807998957e-08 0.0 
5.608807998957e-08 8.082153611619e-04 0.0 
0.0 0.0 0.0 
-3.775049822001e-07 2.330257349209e-07 0.0 
2.330257349209e-07 2.291869397159e-04 0.0 
0.0 0.0 0.0 
-8.420206585155e-07 3.001131384579e-07 0.0 
3.001131384579e-07 1.618867957391e-04 0.0 
0.0 0.0 0.0 
-8.404967007566e-08 -1.024479772182e-07 0.0 
-1.024479772182e-07 1.047453271225e-03 0.0 
0.0 0.0 0.0 
-6.383653405884e-08 -1.162733590523e-07 0.0 
-1.162733590523e-07 4.321354394817e-04 0.0 
0.0 0.0 0.0 
-6.202668647751e-07 3.309967840322e-07 0.0 
3.309967840322e-07 4.666137228398e-04 0.0 
0.0 0.0 0.0 
-9.421414962999e-09 1.155013160807e-07 0.0 
1.155013160807e-07 2.713621544640e-04 0.0 
0.0 0.0 0.0 
1.181721956585e-07 1.624245022785e-07 0.0 
1.624245022785e-07 3.342487145891e-04 0.0 
0.0 0.0 0.0 
9.543756144629e-08 -7.379634451084e-08 0.0 
-7.379634451084e-08 6.933659162446e-04 0.0 
0.0 0.0 0.0 
5.020151424192e-08 -5.202829592487e-08 0.0 
-5.202829592487e-08 6.658944566466e-04 0.0 
0.0 0.0 0.0 
-1.133202862473e-07 -7.285976242795e-08 0.0 
-7.285976242795e-08 9.485629035703e-04 0.0 
0.0 0.0 0.0 
-1.682249757458e-07 1.970278219683e-08 0.0 
1.970278219683e-08 9.825990609447e-04 0.0 
0.0 0.0 0.0 
-1.662323393751e-08 -9.846150188031e-08 0.0 
-9.846150188031e-08 8.801688360689e-04 0.0 
0.0 0.0 0.0 
-5.071897503835e-08 -1.039269685855e-08 0.0 
-1.039269685855e-08 8.576126947780e-04 0.0 
0.0 0.0 0.0 
-5.651599149781e-08 -1.787153413764e-08 0.0 
-1.787153413764e-08 7.947415060257e-04 0.0 
0.0 0.0 0.0 
-2.848135940055e-08 -5.661336619442e-08 0.0 
-5.661336619442e-08 7.677151060143e-04 0.0 
0.0 0.0 0.0 
-2.507548677403e-07 -2.445800697846e-07 0.0 
-2.445800697846e-07 1.102750000617e-03 0.0 
0.0 0.0 0.0 
-1.878347444092e-07 -5.219381108689e-08 0.0 
-5.219381108689e-08 1.145121487313e-03 0.0 
0.0 0.0 0.0 
-6.222572588680e-08 1.158451747083e-07 0.0 
1.158451747083e-07 4.787117702630e-04 0.0 
0.0 0.0 0.0 
-9.827497079081e-08 1.369186432976e-07 0.0 
1.369186432976e-07 4.521935125127e-04 0.0 
0.0 0.0 0.0 
3.839736872902e-08 1.463012325444e-07 0.0 
1.463012325444e-07 4.691687285129e-04 0.0 
0.0 0.0 0.0 
3.873976788619e-07 -1.552497142794e-07 0.0 
-1.552497142794e-07 1.125418337737e-03 0.0 
0.0 0.0 0.0 
1.454562974882e-07 3.775143732180e-07 0.0 
3.775143732180e-07 1.126895954542e-03 0.0 
0.0 0.0 0.0 
-3.218550446715e-07 -3.426702965904e-07 0.0 
-3.426702965904e-07 1.099035290900e-03 0.0 
0.0 0.0 0.0 
-7.354057593630e-07 -3.203585316872e-07 0.0 
-3.203585316872e-07 1.329111069928e-04 0.0 
0.0 0.0 0.0 
-8.071373350238e-07 -1.574826758367e-07 0.0 
-1.574826758367e-07 1.678151825345e-04 0.0 
0.0 0.0 0.0 
-6.864771415020e-07 -3.595504376002e-07 0.0 
-3.595504376002e-07 2.160191087034e-04 0.0 
0.0 0.0 0.0 
-6.303499884841e-07 -5.255331192718e-07 0.0 
-5.255331192718e-07 1.825831454223e-04 0.0 
0.0 0.0 0.0 
-7.469131857452e-08 -2.312367331257e-09 0.0 
-2.312367331257e-09 1.109790978611e-03 0.0 
0.0 0.0 0.0 
-2.527197952758e-08 -7.155340623787e-09 0.0 
-7.155340623787e-09 1.077109491436e-03 0.0 
0.0 0.0 0.0 
8.133897771196e-08 -1.107021909092e-08 0.0 
-1.107021909092e-08 1.149642373076e-03 0.0 
0.0 0.0 0.0 
9.424018176940e-08 3.579011265513e-07 0.0 
3.579011265513e-07 3.174387292152e-04 0.0 
0.0 0.0 0.0 
1.975447305735e-08 1.353267339401e-07 0.0 
1.353267339401e-07 9.545477809676e-04 0.0 
0.0 0.0 0.0 
1.200030984768e-07 2.550671642282e-07 0.0 
2.550671642282e-07 1.110409121017e-03 0.0 
0.0 0.0 0.0 
-2.332719893176e-08 3.796703980686e-07 0.0 
3.796703980686e-07 1.082871317511e-03 0.0 
0.0 0.0 0.0 
9.958158293204e-08 2.006644776371e-07 0.0 
2.006644776371e-07 1.146856806586e-03 0.0 
0.0 0.0 0.0 
2.478820069577e-07 -5.303692657854e-08 0.0 
-5.303692657854e-08 1.047512646410e-03 0.0 
0.0 0.0 0.0 
-1.511342478944e-07 -1.667149906790e-07 0.0 
-1.667149906790e-07 1.107954550962e-03 0.0 
0.0 0.0 0.0 
1.291566090929e-07 1.446397135362e-07 0.0 
1.446397135362e-07 1.111368613377e-03 0.0 
0.0 0.0 0.0 
-1.329916370992e-06 -9.921455756550e-08 0.0 
-9.921455756550e-08 9.633588359259e-05 0.0 
0.0 0.0 0.0 
1.169324138813e-07 -3.881135483289e-07 0.0 
-3.881135483289e-07 1.102538438925e-03 0.0 
0.0 0.0 0.0 
7.901962343719e-09 -5.248506313290e-08 0.0 
-5.248506313290e-08 7.548306463249e-04 0.0 
0.0 0.0 0.0 
-8.239230236518e-07 -5.510054078006e-07 0.0 
-5.510054078006e-07 7.029546200088e-05 0.0 
0.0 0.0 0.0 
4.173888764984e-07 -2.546310211543e-08 0.0 
-2.546310211543e-08 7.260086421476e-04 0.0 
0.0 0.0 0.0 
1.150552413713e-07 -5.407147877992e-08 0.0 
-5.407147877992e-08 7.629041244937e-04 0.0 
0.0 0.0 0.0 
2.512046060610e-07 -1.164752793850e-07 0.0 
-1.164752793850e-07 6.933856116316e-04 0.0 
0.0 0.0 0.0 
2.337214009366e-07 2.779367892091e-07 0.0 
2.779367892091e-07 2.551527536547e-04 0.0 
0.0 0.0 0.0 
3.686586099886e-07 -2.606605028313e-07 0.0 
-2.606605028313e-07 7.350113940133e-04 0.0 
0.0 0.0 0.0 
1.867642124102e-07 -3.717045028626e-07 0.0 
-3.717045028626e-07 7.732534092523e-04 0.0 
0.0 0.0 0.0 
-8.083056965028e-08 -4.006193418221e-08 0.0 
-4.006193418221e-08 9.500466514496e-05 0.0 
0.0 0.0 0.0 
4.409168298802e-07 6.760639267812e-08 0.0 
6.760639267812e-08 1.159368580965e-03 0.0 
0.0 0.0 0.0 
-1.758412873143e-06 -5.215022977566e-08 0.0 
-5.215022977566e-08 1.006920974368e-04 0.0 
0.0 0.0 0.0 
-1.920365059564e-07 1.853176476433e-07 0.0 
1.853176476433e-07 1.251090113997e-04 0.0 
0.0 0.0 0.0 
4.381386739157e-07 3.166570924503e-07 0.0 
3.166570924503e-07 1.124254853071e-03 0.0 
0.0 0.0 0.0 
9.496203109046e-08 -4.822499840271e-08 0.0 
-4.822499840271e-08 1.088322638493e-03 0.0 
0.0 0.0 0.0 
-4.580680570040e-08 -1.720764595796e-07 0.0 
-1.720764595796e-07 1.149607987849e-03 0.0 
0.0 0.0 0.0 
-2.476694497081e-07 2.978670700429e-07 0.0 
2.978670700429e-07 1.113404836408e-03 0.0 
0.0 0.0 0.0 
3.363318516284e-08 -1.298123088664e-07 0.0 
-1.298123088664e-07 1.052271950413e-03 0.0 
0.0 0.0 0.0 
9.067019314986e-08 1.320933767034e-07 0.0 
1.320933767034e-07 1.080749559989e-03 0.0 
0.0 0.0 0.0 
-1.567011456520e-07 -3.517631774205e-07 0.0 
-3.517631774205e-07 7.186668266000e-04 0.0 
0.0 0.0 0.0 
2.412553707127e-07 3.871334929383e-07 0.0 
3.871334929383e-07 1.150519407907e-03 0.0 
0.0 0.0 0.0 
2.154970773494e-07 8.802299864851e-08 0.0 
8.802299864851e-08 1.109939122281e-03 0.0 
0.0 0.0 0.0 
-1.319764446432e-07 2.102649540514e-07 0.0 
2.102649540514e-07 1.180254492954e-03 0.0 
0.0 0.0 0.0 
-1.490620505732e-07 6.863488301127e-08 0.0 
6.863488301127e-08 5.382475567930e-04 0.0 
0.0 0.0 0.0 
-3.057681378649e-07 7.700114283161e-08 0.0 
7.700114283161e-08 4.117053844815e-04 0.0 
0.0 0.0 0.0 
-3.156356663629e-07 6.254313647402e-08 0.0 
6.254313647402e-08 3.857923409883e-04 0.0 
0.0 0.0 0.0 
-3.134311029290e-07 8.908307751607e-07 0.0 
8.908307751607e-07 3.241212060274e-04 0.0 
0.0 0.0 0.0 
2.156285875410e-07 1.315085873197e-07 0.0 
1.315085873197e-07 1.141998374957e-03 0.0 
0.0 0.0 0.0 
1.363137637581e-07 5.061468034879e-07 0.0 
5.061468034879e-07 1.103860007148e-03 0.0 
0.0 0.0 0.0 
-3.146999351851e-08 1.990326171961e-08 0.0 
1.990326171961e-08 9.954367372587e-04 0.0 
0.0 0.0 0.0 
-1.220523639563e-07 9.809739797595e-08 0.0 
9.809739797595e-08 9.312557821621e-04 0.0 
0.0 0.0 0.0 
-2.382437374366e-07 1.508001546303e-07 0.0 
1.508001546303e-07 7.298773845071e-04 0.0 
0.0 0.0 0.0 
-1.069164747477e-07 -1.997741573446e-07 0.0 
-1.997741573446e-07 7.264739583804e-04 0.0 
0.0 0.0 0.0 
-1.743522177744e-07 7.158052601033e-07 0.0 
7.158052601033e-07 7.843942626326e-04 0.0 
0.0 0.0 0.0 
-1.602919056746e-07 -1.715609121733e-07 0.0 
-1.715609121733e-07 7.766447014832e-04 0.0 
0.0 0.0 0.0 
-2.704945270734e-07 6.844512025313e-07 0.0 
6.844512025313e-07 8.348403795968e-04 0.0 
0.0 0.0 0.0 
1.362824244090e-07 -3.303083015547e-07 0.0 
-3.303083015547e-07 8.258266229545e-04 0.0 
0.0 0.0 0.0 
1.467506134945e-07 -6.817233318672e-07 0.0 
-6.817233318672e-07 8.850976981113e-04 0.0 
0.0 0.0 0.0 
-8.915502954946e-08 5.988417600565e-07 0.0 
5.988417600565e-07 1.146789295332e-03 0.0 
0.0 0.0 0.0 
-5.115780230917e-08 1.034893205978e-07 0.0 
1.034893205978e-07 2.570679770885e-04 0.0 
0.0 0.0 0.0 
-6.187741545075e-08 6.583874311756e-08 0.0 
6.583874311756e-08 6.028285093471e-04 0.0 
0.0 0.0 0.0 
5.018803748332e-07 -2.683198976543e-07 0.0 
-2.683198976543e-07 1.130290572019e-03 0.0 
0.0 0.0 0.0 
-1.058661174280e-07 -9.541013936990e-08 0.0 
-9.541013936990e-08 1.091610474976e-03 0.0 
0.0 0.0 0.0 
-1.500063325777e-07 3.749992871254e-08 0.0 
3.749992871254e-08 5.277234527389e-04 0.0 
0.0 0.0 0.0 
-2.762321494506e-07 2.287963657427e-07 0.0 
2.287963657427e-07 4.705006961953e-04 0.0 
0.0 0.0 0.0 
-2.681676405856e-07 2.982397756439e-07 0.0 
2.982397756439e-07 1.141437731887e-03 0.0 
0.0 0.0 0.0 
-7.395744270703e-08 2.552791415001e-09 0.0 
2.552791415001e-09 4.892860628115e-04 0.0 
0.0 0.0 0.0 
8.371797667804e-09 -8.081718834868e-08 0.0 
-8.081718834868e-08 1.195552324374e-03 0.0 
0.0 0.0 0.0 
1.610860713486e-06 4.057193742907e-07 0.0 
4.057193742907e-07 3.354057674894e-05 0.0 
0.0 0.0 0.0 
6.261573281937e-07 6.652095652086e-07 0.0 
6.652095652086e-07 8.876955025047e-05 0.0 
0.0 0.0 0.0 
-2.544140180009e-08 5.306397285056e-08 0.0 
5.306397285056e-08 5.245120584741e-04 0.0 
0.0 0.0 0.0 
-1.280707485803e-07 2.681798045576e-08 0.0 
2.681798045576e-08 5.872069079744e-04 0.0 
0.0 0.0 0.0 
1.077729899953e-07 2.226955186937e-07 0.0 
2.226955186937e-07 4.465850535608e-04 0.0 
0.0 0.0 0.0 
2.455855010279e-07 7.115328885493e-08 0.0 
7.115328885493e-08 4.241977536921e-04 0.0 
0.0 0.0 0.0 
-3.852237417945e-08 -8.111508011391e-09 0.0 
-8.111508011391e-09 9.215375241140e-04 0.0 
0.0 0.0 0.0 
4.321894917873e-08 -2.286828683068e-07 0.0 
-2.286828683068e-07 1.428922866017e-04 0.0 
0.0 0.0 0.0 
-3.197182530390e-07 -3.371136336728e-07 0.0 
-3.371136336728e-07 2.499165832007e-04 0.0 
0.0 0.0 0.0 
3.101198633607e-07 6.433810540229e-07 0.0 
6.433810540229e-07 8.922212570667e-04 0.0 
0.0 0.0 0.0 
-3.531069945328e-07 -4.705543516539e-07 0.0 
-4.705543516539e-07 1.906682552258e-04 0.0 
0.0 0.0 0.0 
6.005382111966e-08 7.961288279534e-08 0.0 
7.961288279534e-08 9.647517608908e-04 0.0 
0.0 0.0 0.0 
-6.036867474431e-08 -1.172711730934e-07 0.0 
-1.172711730934e-07 5.172869521969e-04 0.0 
0.0 0.0 0.0 
-1.311634550231e-07 1.873061637656e-08 0.0 
1.873061637656e-08 6.383347745225e-04 0.0 
0.0 0.0 0.0 
-1.190257600814e-07 -3.293398461899e-08 0.0 
-3.293398461899e-08 3.089578849785e-04 0.0 
0.0 0.0 0.0 
-9.965351440340e-08 -2.122475093134e-07 0.0 
-2.122475093134e-07 4.393624072822e-04 0.0 
0.0 0.0 0.0 
-2.743504097051e-07 -7.811584529381e-08 0.0 
-7.811584529381e-08 7.808656003485e-04 0.0 
0.0 0.0 0.0 
-4.626903470362e-07 -1.808766667674e-07 0.0 
-1.808766667674e-07 7.278581349774e-04 0.0 
0.0 0.0 0.0 
-3.282402528485e-07 7.822254652046e-08 0.0 
7.822254652046e-08 6.947225162239e-04 0.0 
0.0 0.0 0.0 
-6.108227329493e-08 -1.098530775379e-07 0.0 
-1.098530775379e-07 5.447556806012e-04 0.0 
0.0 0.0 0.0 
-1.219451233140e-07 2.371790375362e-07 0.0 
2.371790375362e-07 4.593924316438e-04 0.0 
0.0 0.0 0.0 
-1.661380118399e-07 4.814133225469e-08 0.0 
4.814133225469e-08 3.946974110666e-04 0.0 
0.0 0.0 0.0 
-1.583939106357e-07 2.297262538111e-08 0.0 
2.297262538111e-08 7.400088820536e-04 0.0 
0.0 0.0 0.0 
-2.297438446893e-08 1.016183546057e-07 0.0 
1.016183546057e-07 1.014443693998e-03 0.0 
0.0 0.0 0.0 
-1.368736683068e-07 1.882400032556e-07 0.0 
1.882400032556e-07 1.042138818028e-03 0.0 
0.0 0.0 0.0 
-3.591131153557e-08 -5.884885586133e-09 0.0 
-5.884885586133e-09 1.102469215957e-03 0.0 
0.0 0.0 0.0 
-1.727479645441e-07 9.218549181084e-08 0.0 
9.218549181084e-08 1.069546403005e-03 0.0 
0.0 0.0 0.0 
-8.953884224801e-08 5.046386317457e-08 0.0 
5.046386317457e-08 1.007711384217e-03 0.0 
0.0 0.0 0.0 
1.743983313318e-08 -1.448644747677e-07 0.0 
-1.448644747677e-07 1.035053744663e-03 0.0 
0.0 0.0 0.0 
-1.325163021352e-07 2.434810163476e-07 0.0 
2.434810163476e-07 1.096900680558e-03 0.0 
0.0 0.0 0.0 
2.665994284223e-07 -1.149920712239e-09 0.0 
-1.149920712239e-09 1.064085661875e-03 0.0 
0.0 0.0 0.0 
-6.657410619607e-08 -2.646492551349e-07 0.0 
-2.646492551349e-07 1.136560922621e-03 0.0 
0.0 0.0 0.0 
3.307684344941e-08 -3.349331265443e-07 0.0 
-3.349331265443e-07 1.090998879567e-03 0.0 
0.0 0.0 0.0 
2.978245901749e-08 6.820014207069e-08 0.0 
6.820014207069e-08 1.027191548101e-03 0.0 
0.0 0.0 0.0 
-3.330448934043e-07 3.969925910480e-08 0.0 
3.969925910480e-08 1.052987217525e-03 0.0 
0.0 0.0 0.0 
-2.663932333613e-07 -1.340889320689e-07 0.0 
-1.340889320689e-07 1.111653542365e-03 0.0 
0.0 0.0 0.0 
-1.161950145915e-07 -4.378472951053e-08 0.0 
-4.378472951053e-08 9.906664048016e-04 0.0 
0.0 0.0 0.0 
4.761619191533e-07 -1.143267150551e-07 0.0 
-1.143267150551e-07 1.164227861509e-03 0.0 
0.0 0.0 0.0 
7.697878075715e-09 4.984920402484e-08 0.0 
4.984920402484e-08 5.869477851987e-04 0.0 
0.0 0.0 0.0 
-1.680680057163e-07 3.722823196757e-07 0.0 
3.722823196757e-07 1.298182897696e-04 0.0 
0.0 0.0 0.0 
-9.038599092070e-07 1.372252787473e-06 0.0 
1.372252787473e-06 1.228057288121e-04 0.0 
0.0 0.0 0.0 
-1.475833259490e-07 5.647387953012e-08 0.0 
5.647387953012e-08 6.725042453729e-04 0.0 
0.0 0.0 0.0 
-2.380469906194e-07 6.432947174550e-08 0.0 
6.432947174550e-08 1.199499378460e-03 0.0 
0.0 0.0 0.0 
-1.193111595262e-07 2.708994650315e-10 0.0 
2.708994650315e-10 1.201619490658e-03 0.0 
0.0 0.0 0.0 
-1.137230172995e-07 -6.023900465992e-08 0.0 
-6.023900465992e-08 4.217223839833e-04 0.0 
0.0 0.0 0.0 
5.696588800674e-08 -1.656293089817e-08 0.0 
-1.656293089817e-08 1.202538209652e-03 0.0 
0.0 0.0 0.0 
-2.758118706573e-07 -6.941071716198e-08 0.0 
-6.941071716198e-08 7.208423086985e-04 0.0 
0.0 0.0 0.0 
-3.637037946369e-07 1.167607213602e-07 0.0 
1.167607213602e-07 2.910945001724e-04 0.0 
0.0 0.0 0.0 
8.186037000109e-08 -2.021246628020e-07 0.0 
-2.021246628020e-07 1.203203207431e-03 0.0 
0.0 0.0 0.0 
1.531690132136e-08 1.565903995266e-07 0.0 
1.565903995266e-07 9.798307116900e-04 0.0 
0.0 0.0 0.0 
1.725802393585e-08 -3.736395475837e-08 0.0 
-3.736395475837e-08 9.447184557684e-04 0.0 
0.0 0.0 0.0 
9.680965973313e-08 5.180334397974e-08 0.0 
5.180334397974e-08 9.171424145463e-04 0.0 
0.0 0.0 0.0 
2.585931493382e-07 -3.247692313906e-07 0.0 
-3.247692313906e-07 1.205073652588e-03 0.0 
0.0 0.0 0.0 
-1.266309266890e-07 -9.268219197120e-09 0.0 
-9.268219197120e-09 8.376569594600e-04 0.0 
0.0 0.0 0.0 
-2.535242386396e-09 -1.939762903233e-07 0.0 
-1.939762903233e-07 1.205422832019e-03 0.0 
0.0 0.0 0.0 
-4.068830424438e-08 -1.373855341084e-07 0.0 
-1.373855341084e-07 8.192566737901e-04 0.0 
0.0 0.0 0.0 
-3.970865810240e-08 -5.773488937727e-08 0.0 
-5.773488937727e-08 7.912304079567e-04 0.0 
0.0 0.0 0.0 
-4.536508770488e-08 -3.962713913817e-08 0.0 
-3.962713913817e-08 7.292541890602e-04 0.0 
0.0 0.0 0.0 
7.182633234478e-08 -1.270635147059e-07 0.0 
-1.270635147059e-07 9.996588917991e-04 0.0 
0.0 0.0 0.0 
-9.076541614602e-08 9.902633880579e-08 0.0 
9.902633880579e-08 1.201865166470e-03 0.0 
0.0 0.0 0.0 
-1.557851976493e-07 -8.127143488682e-08 0.0 
-8.127143488682e-08 1.150366516578e-03 0.0 
0.0 0.0 0.0 
7.349598366938e-08 -3.183860962085e-07 0.0 
-3.183860962085e-07 1.150176108742e-03 0.0 
0.0 0.0 0.0 
-5.154329708918e-07 -9.442706850143e-09 0.0 
-9.442706850143e-09 1.093917039071e-03 0.0 
0.0 0.0 0.0 
1.378846294734e-07 -3.032833246891e-08 0.0 
-3.032833246891e-08 1.202551375130e-03 0.0 
0.0 0.0 0.0 
7.176686741180e-08 -5.033602781842e-08 0.0 
-5.033602781842e-08 1.205366762097e-03 0.0 
0.0 0.0 0.0 
-3.931250501058e-08 -7.297409573788e-08 0.0 
-7.297409573788e-08 1.207015515075e-03 0.0 
0.0 0.0 0.0 
-6.718888184709e-08 2.193492960026e-07 0.0 
2.193492960026e-07 3.901408755896e-04 0.0 
0.0 0.0 0.0 
-1.360598144891e-07 5.695242720923e-08 0.0 
5.695242720923e-08 4.256382006163e-04 0.0 
0.0 0.0 0.0 
-1.060710145828e-07 8.908096818446e-09 0.0 
8.908096818446e-09 4.871433982442e-04 0.0 
0.0 0.0 0.0 
-9.062828635701e-08 -3.377540169023e-08 0.0 
-3.377540169023e-08 4.604605720498e-04 0.0 
0.0 0.0 0.0 
-1.227210769117e-07 -3.348296165576e-08 0.0 
-3.348296165576e-08 3.984639130334e-04 0.0 
0.0 0.0 0.0 
-7.401107140111e-08 -7.516485242383e-10 0.0 
-7.516485242383e-10 4.333356422876e-04 0.0 
0.0 0.0 0.0 
-7.711271506524e-08 -8.794008166785e-08 0.0 
-8.794008166785e-08 4.948471251271e-04 0.0 
0.0 0.0 0.0 
-9.438007179489e-08 4.322752255483e-08 0.0 
4.322752255483e-08 4.059996439948e-04 0.0 
0.0 0.0 0.0 
7.150879669885e-08 -1.535884918239e-09 0.0 
-1.535884918239e-09 1.044182040822e-03 0.0 
0.0 0.0 0.0 
2.465888935636e-08 1.738872126064e-07 0.0 
1.738872126064e-07 1.204754062342e-03 0.0 
0.0 0.0 0.0 
1.058442570627e-08 -1.202164671092e-08 0.0 
-1.202164671092e-08 8.162085258947e-04 0.0 
0.0 0.0 0.0 
-1.815890017983e-08 -1.561182509344e-08 0.0 
-1.561182509344e-08 7.879948213273e-04 0.0 
0.0 0.0 0.0 
-2.127138234072e-08 4.765084225108e-08 0.0 
4.765084225108e-08 7.253053499209e-04 0.0 
0.0 0.0 0.0 
6.561620084315e-08 -7.327402536429e-08 0.0 
-7.327402536429e-08 6.026355209913e-04 0.0 
0.0 0.0 0.0 
6.666436014324e-08 -3.631641909546e-08 0.0 
-3.631641909546e-08 6.383153546386e-04 0.0 
0.0 0.0 0.0 
4.244596378082e-08 -4.654893717362e-08 0.0 
-4.654893717362e-08 7.014848810569e-04 0.0 
0.0 0.0 0.0 
1.285921243562e-08 -1.294942632159e-07 0.0 
-1.294942632159e-07 5.668688383493e-04 0.0 
0.0 0.0 0.0 
2.806035148684e-08 -9.780332899495e-09 0.0 
-9.780332899495e-09 8.993772638235e-04 0.0 
0.0 0.0 0.0 
7.476579092873e-08 -2.166881422698e-07 0.0 
-2.166881422698e-07 1.204105265674e-03 0.0 
0.0 0.0 0.0 
-8.380738862150e-09 -5.817222710090e-08 0.0 
-5.817222710090e-08 8.030532698681e-04 0.0 
0.0 0.0 0.0 
9.391376557903e-08 1.717143973860e-08 0.0 
1.717143973860e-08 6.106463428206e-04 0.0 
0.0 0.0 0.0 
-9.193403555097e-08 -1.336239728957e-07 0.0 
-1.336239728957e-07 6.729424870515e-04 0.0 
0.0 0.0 0.0 
1.382046963168e-07 3.050605772259e-07 0.0 
3.050605772259e-07 7.282436580471e-04 0.0 
0.0 0.0 0.0 
5.328284132429e-08 -4.695933230127e-07 0.0 
-4.695933230127e-07 7.291046179951e-04 0.0 
0.0 0.0 0.0 
6.177168978391e-07 -4.502350143978e-07 0.0 
-4.502350143978e-07 7.888021940020e-04 0.0 
0.0 0.0 0.0 
2.969289596105e-07 -6.691691108027e-07 0.0 
-6.691691108027e-07 7.339633330705e-04 0.0 
0.0 0.0 0.0 
1.740708619839e-08 -1.054389694408e-07 0.0 
-1.054389694408e-07 7.209802721942e-04 0.0 
0.0 0.0 0.0 
-4.828349942088e-08 -8.917432011601e-08 0.0 
-8.917432011601e-08 7.485871511151e-04 0.0 
0.0 0.0 0.0 
-3.278510157800e-08 1.087393321875e-08 0.0 
1.087393321875e-08 7.137088175863e-04 0.0 
0.0 0.0 0.0 
1.625205353628e-08 -8.243726936273e-08 0.0 
-8.243726936273e-08 7.760929422769e-04 0.0 
0.0 0.0 0.0 
1.557942341616e-07 -2.655725535226e-07 0.0 
-2.655725535226e-07 7.398136995641e-04 0.0 
0.0 0.0 0.0 
3.168381433512e-07 -2.896138011885e-07 0.0 
-2.896138011885e-07 6.817892009492e-04 0.0 
0.0 0.0 0.0 
2.342658288468e-07 -2.093979945179e-07 0.0 
-2.093979945179e-07 8.023669399273e-04 0.0 
0.0 0.0 0.0 
6.251199202723e-08 1.671628354909e-07 0.0 
1.671628354909e-07 7.620543583258e-04 0.0 
0.0 0.0 0.0 
2.042795868758e-07 -3.198346164858e-07 0.0 
-3.198346164858e-07 6.721704476856e-04 0.0 
0.0 0.0 0.0 
5.536049490495e-07 -2.987825158307e-07 0.0 
-2.987825158307e-07 3.904933685088e-05 0.0 
0.0 0.0 0.0 
4.128667591141e-07 3.964826591816e-07 0.0 
3.964826591816e-07 8.818765958966e-05 0.0 
0.0 0.0 0.0 
3.987547397832e-07 -2.198463641654e-07 0.0 
-2.198463641654e-07 8.664740234443e-05 0.0 
0.0 0.0 0.0 
2.666072530522e-07 2.659213652683e-08 0.0 
2.659213652683e-08 1.391216617794e-04 0.0 
0.0 0.0 0.0 
8.691377839654e-08 6.697453096209e-07 0.0 
6.697453096209e-07 1.433682080534e-04 0.0 
0.0 0.0 0.0 
4.027207805647e-07 2.276886747285e-07 0.0 
2.276886747285e-07 1.992174331132e-04 0.0 
0.0 0.0 0.0 
2.875079437192e-07 -3.936295596126e-07 0.0 
-3.936295596126e-07 1.915499914758e-04 0.0 
0.0 0.0 0.0 
8.225705815009e-07 1.816101159611e-07 0.0 
1.816101159611e-07 8.843957815289e-05 0.0 
0.0 0.0 0.0 
2.300246569886e-07 -4.853176822306e-08 0.0 
-4.853176822306e-08 3.876383362141e-05 0.0 
0.0 0.0 0.0 
4.459190014646e-07 4.978723944862e-10 0.0 
4.978723944862e-10 8.659436883351e-05 0.0 
0.0 0.0 0.0 
3.373846432971e-07 1.370179349894e-07 0.0 
1.370179349894e-07 3.823213265353e-05 0.0 
0.0 0.0 0.0 
5.424003728383e-07 -2.668630333903e-08 0.0 
-2.668630333903e-08 8.497432723857e-05 0.0 
0.0 0.0 0.0 
4.909223200337e-07 5.659594441437e-08 0.0 
5.659594441437e-08 1.465499849489e-04 0.0 
0.0 0.0 0.0 
-1.478987190680e-07 9.801516891238e-08 0.0 
9.801516891238e-08 2.325905835777e-04 0.0 
0.0 0.0 0.0 
-3.274037547264e-07 4.025670472487e-07 0.0 
4.025670472487e-07 1.194717357822e-03 0.0 
0.0 0.0 0.0 
-1.433656136215e-07 1.075735992484e-07 0.0 
1.075735992484e-07 5.846154070966e-04 0.0 
0.0 0.0 0.0 
-4.267796654226e-07 4.303490897856e-07 0.0 
4.303490897856e-07 5.540758530133e-04 0.0 
0.0 0.0 0.0 
1.790543540843e-07 4.156853944056e-07 0.0 
4.156853944056e-07 4.926783260802e-04 0.0 
0.0 0.0 0.0 
-2.176195302057e-07 -1.213569908257e-07 0.0 
-1.213569908257e-07 5.258784168579e-04 0.0 
0.0 0.0 0.0 
-5.025806667317e-07 4.769912901406e-07 0.0 
4.769912901406e-07 6.100680084947e-04 0.0 
0.0 0.0 0.0 
1.538571704485e-07 3.245779762439e-07 0.0 
3.245779762439e-07 4.589094408470e-04 0.0 
0.0 0.0 0.0 
1.859878169623e-07 5.366410294282e-07 0.0 
5.366410294282e-07 4.361644364741e-04 0.0 
0.0 0.0 0.0 
6.747292216243e-07 1.518059463616e-07 0.0 
1.518059463616e-07 3.871876216566e-05 0.0 
0.0 0.0 0.0 
6.351237311630e-07 -7.150254647562e-07 0.0 
-7.150254647562e-07 8.703991966219e-05 0.0 
0.0 0.0 0.0 
-8.602399903841e-07 -3.477377451432e-07 0.0 
-3.477377451432e-07 8.218411469249e-05 0.0 
0.0 0.0 0.0 
-4.740040703092e-07 -2.218630892217e-08 0.0 
-2.218630892217e-08 1.416484749583e-04 0.0 
0.0 0.0 0.0 
5.388535831985e-07 -4.024622475602e-07 0.0 
-4.024622475602e-07 1.401536040002e-04 0.0 
0.0 0.0 0.0 
9.575668397099e-07 -7.265859028737e-08 0.0 
-7.265859028737e-08 8.761519149736e-05 0.0 
0.0 0.0 0.0 
6.756914961622e-07 4.007133158846e-07 0.0 
4.007133158846e-07 8.780252116806e-05 0.0 
0.0 0.0 0.0 
7.171321542154e-07 -8.583741094136e-08 0.0 
-8.583741094136e-08 3.845288471471e-05 0.0 
0.0 0.0 0.0 
1.156674583595e-06 1.882557939012e-07 0.0 
1.882557939012e-07 8.744730034120e-05 0.0 
0.0 0.0 0.0 
6.816899553730e-07 3.294052201990e-07 0.0 
3.294052201990e-07 1.426703240947e-04 0.0 
0.0 0.0 0.0 
1.199457037286e-06 -3.436464348651e-07 0.0 
-3.436464348651e-07 3.667951711924e-05 0.0 
0.0 0.0 0.0 
3.083637053110e-08 -6.553261712474e-07 0.0 
-6.553261712474e-07 9.693378436962e-04 0.0 
0.0 0.0 0.0 
-1.768754494721e-07 -5.227799853293e-07 0.0 
-5.227799853293e-07 1.004080920275e-03 0.0 
0.0 0.0 0.0 
-1.328729059188e-07 -1.124909031755e-07 0.0 
-1.124909031755e-07 1.200752272360e-03 0.0 
0.0 0.0 0.0 
2.781881913875e-07 -6.002070839816e-07 0.0 
-6.002070839816e-07 6.791708767131e-04 0.0 
0.0 0.0 0.0 
4.479251337619e-07 1.426788792696e-07 0.0 
1.426788792696e-07 3.906169351716e-05 0.0 
0.0 0.0 0.0 
-1.776564576720e-07 -3.265640055929e-08 0.0 
-3.265640055929e-08 1.192504690929e-03 0.0 
0.0 0.0 0.0 
1.345305916667e-07 -2.853016584275e-07 0.0 
-2.853016584275e-07 1.202671564960e-03 0.0 
0.0 0.0 0.0 
3.358137908675e-07 2.033532806860e-07 0.0 
2.033532806860e-07 1.203801282488e-03 0.0 
0.0 0.0 0.0 
1.933812573037e-09 2.000749251092e-07 0.0 
2.000749251092e-07 1.094662657498e-03 0.0 
0.0 0.0 0.0 
2.914526383938e-07 8.462996454857e-08 0.0 
8.462996454857e-08 1.126393448466e-03 0.0 
0.0 0.0 0.0 
-3.173976677516e-07 1.301649052434e-07 0.0 
1.301649052434e-07 1.194385024168e-03 0.0 
0.0 0.0 0.0 
1.589032524822e-07 7.794258837076e-08 0.0 
7.794258837076e-08 3.847292076404e-04 0.0 
0.0 0.0 0.0 
2.952326195182e-07 2.480859723219e-07 0.0 
2.480859723219e-07 1.129406725651e-03 0.0 
0.0 0.0 0.0 
-1.301554622043e-07 4.919837438127e-08 0.0 
4.919837438127e-08 1.082450820570e-03 0.0 
0.0 0.0 0.0 
-3.175468213564e-07 -6.830254888465e-09 0.0 
-6.830254888465e-09 2.658989392743e-04 0.0 
0.0 0.0 0.0 
9.920247745487e-08 1.430645513798e-07 0.0 
1.430645513798e-07 3.715601606263e-04 0.0 
0.0 0.0 0.0 
3.831893313766e-08 5.289087978947e-08 0.0 
5.289087978947e-08 9.018569820037e-04 0.0 
0.0 0.0 0.0 
9.697181002633e-09 -4.101880984382e-08 0.0 
-4.101880984382e-08 8.273405741918e-04 0.0 
0.0 0.0 0.0 
-2.656070887304e-08 -6.587680120165e-08 0.0 
-6.587680120165e-08 1.036254045612e-03 0.0 
0.0 0.0 0.0 
-2.778164988800e-08 -1.097569570643e-08 0.0 
-1.097569570643e-08 8.463536766277e-04 0.0 
0.0 0.0 0.0 
7.292045389740e-08 -9.138271542507e-08 0.0 
-9.138271542507e-08 9.814392321543e-04 0.0 
0.0 0.0 0.0 
-8.895270775522e-08 5.056102592258e-07 0.0 
5.056102592258e-07 1.146170834735e-03 0.0 
0.0 0.0 0.0 
6.515827303266e-07 -1.133523601092e-07 0.0 
-1.133523601092e-07 2.339542908087e-04 0.0 
0.0 0.0 0.0 
7.329866343516e-10 1.289886525064e-07 0.0 
1.289886525064e-07 8.502072974514e-04 0.0 
0.0 0.0 0.0 
6.026041904361e-08 1.358392957197e-07 0.0 
1.358392957197e-07 8.274566442415e-04 0.0 
0.0 0.0 0.0 
-1.349830782334e-08 -8.941854685723e-08 0.0 
-8.941854685723e-08 9.840261910048e-04 0.0 
0.0 0.0 0.0 
-9.210482389740e-08 -1.595068587465e-07 0.0 
-1.595068587465e-07 4.039606307614e-04 0.0 
0.0 0.0 0.0 
8.732877844938e-08 -3.196800495931e-07 0.0 
-3.196800495931e-07 6.528523064894e-04 0.0 
0.0 0.0 0.0 
-1.869728946113e-07 -2.081727060972e-07 0.0 
-2.081727060972e-07 2.497562745862e-04 0.0 
0.0 0.0 0.0 
1.396496312293e-07 1.058919448584e-07 0.0 
1.058919448584e-07 1.152808755703e-03 0.0 
0.0 0.0 0.0 
-1.585883857939e-07 7.272074494287e-10 0.0 
7.272074494287e-10 6.802711582731e-04 0.0 
0.0 0.0 0.0 
-9.883042106917e-09 3.984729267099e-08 0.0 
3.984729267099e-08 6.902193008111e-04 0.0 
0.0 0.0 0.0 
1.507891496851e-07 -8.533895755021e-08 0.0 
-8.533895755021e-08 5.391033739079e-04 0.0 
0.0 0.0 0.0 
1.842767028970e-07 1.346445864546e-07 0.0 
1.346445864546e-07 4.213319555865e-04 0.0 
0.0 0.0 0.0 
5.164708814324e-08 1.528545561708e-07 0.0 
1.528545561708e-07 3.454794814026e-04 0.0 
0.0 0.0 0.0 
1.069087942248e-08 1.176311508112e-07 0.0 
1.176311508112e-07 6.225497174487e-04 0.0 
0.0 0.0 0.0 
6.291321889377e-08 3.206153460632e-08 0.0 
3.206153460632e-08 6.463150462082e-04 0.0 
0.0 0.0 0.0 
-2.476427122626e-08 2.265671152208e-08 0.0 
2.265671152208e-08 9.347220382690e-04 0.0 
0.0 0.0 0.0 
-8.908867031125e-08 -7.416945169462e-08 0.0 
-7.416945169462e-08 1.019125073646e-03 0.0 
0.0 0.0 0.0 
-2.126183368669e-06 4.806619830342e-07 0.0 
4.806619830342e-07 4.520900659598e-05 0.0 
0.0 0.0 0.0 
1.825062935964e-08 5.566971118706e-08 0.0 
5.566971118706e-08 9.704423853129e-04 0.0 
0.0 0.0 0.0 
1.466069939523e-08 -1.456742460031e-08 0.0 
-1.456742460031e-08 7.724594352466e-04 0.0 
0.0 0.0 0.0 
-1.131351921405e-07 5.988163333855e-08 0.0 
5.988163333855e-08 8.730396404440e-04 0.0 
0.0 0.0 0.0 
-1.231896133621e-07 -1.569453007085e-07 0.0 
-1.569453007085e-07 9.714447690221e-04 0.0 
0.0 0.0 0.0 
6.439502537129e-07 3.706225945590e-08 0.0 
3.706225945590e-08 2.311406236823e-04 0.0 
0.0 0.0 0.0 
-7.228179973081e-08 -3.737849435954e-08 0.0 
-3.737849435954e-08 1.006116749374e-03 0.0 
0.0 0.0 0.0 
-2.350762778880e-07 1.468696398511e-07 0.0 
1.468696398511e-07 1.115156830197e-03 0.0 
0.0 0.0 0.0 
1.683511021329e-07 -5.999249451250e-07 0.0 
-5.999249451250e-07 8.026301691188e-04 0.0 
0.0 0.0 0.0 
-1.587665756272e-08 -9.700496233128e-08 0.0 
-9.700496233128e-08 1.865058390017e-04 0.0 
0.0 0.0 0.0 
-2.960562454265e-07 9.865474719318e-08 0.0 
9.865474719318e-08 7.856343137456e-04 0.0 
0.0 0.0 0.0 
-5.166826938519e-08 8.275490106639e-08 0.0 
8.275490106639e-08 1.105249888342e-03 0.0 
0.0 0.0 0.0 
-4.743176966008e-08 -2.257196671978e-08 0.0 
-2.257196671978e-08 9.864955925553e-04 0.0 
0.0 0.0 0.0 
7.582980108648e-08 -2.828984217629e-07 0.0 
-2.828984217629e-07 3.680151193628e-04 0.0 
0.0 0.0 0.0 
-2.932525198599e-08 -9.659437300044e-08 0.0 
-9.659437300044e-08 7.140501894645e-04 0.0 
0.0 0.0 0.0 
-6.187513686603e-08 3.466322197901e-08 0.0 
3.466322197901e-08 6.646200731964e-04 0.0 
0.0 0.0 0.0 
3.546530529993e-07 -2.352861054794e-07 0.0 
-2.352861054794e-07 6.106395040862e-04 0.0 
0.0 0.0 0.0 
-3.636485928493e-07 1.725764163732e-07 0.0 
1.725764163732e-07 1.109331075487e-03 0.0 
0.0 0.0 0.0 
-2.351737199424e-08 -2.100719242340e-08 0.0 
-2.100719242340e-08 7.360075364002e-04 0.0 
0.0 0.0 0.0 
-1.493864941193e-07 1.307603762651e-07 0.0 
1.307603762651e-07 1.026562342592e-03 0.0 
0.0 0.0 0.0 
7.484164380826e-09 -9.961151694665e-08 0.0 
-9.961151694665e-08 8.384307105145e-04 0.0 
0.0 0.0 0.0 
-4.627780954743e-09 -9.672371726773e-08 0.0 
-9.672371726773e-08 3.962551409705e-04 0.0 
0.0 0.0 0.0 
-1.176794271659e-07 -1.577404614976e-07 0.0 
-1.577404614976e-07 1.025615043427e-03 0.0 
0.0 0.0 0.0 
-3.752130428580e-08 -7.369645950364e-08 0.0 
-7.369645950364e-08 6.949417399883e-04 0.0 
0.0 0.0 0.0 
-2.047008610765e-08 -8.493171173056e-08 0.0 
-8.493171173056e-08 1.069416625711e-03 0.0 
0.0 0.0 0.0 
9.098579741481e-09 -1.109836815789e-07 0.0 
-1.109836815789e-07 9.414639704846e-04 0.0 
0.0 0.0 0.0 
-6.025757078495e-08 -9.207105085280e-08 0.0 
-9.207105085280e-08 5.636270008550e-04 0.0 
0.0 0.0 0.0 
2.680518101927e-08 -1.348599900679e-07 0.0 
-1.348599900679e-07 1.027469899694e-03 0.0 
0.0 0.0 0.0 
-5.863901416288e-08 2.586042763078e-08 0.0 
2.586042763078e-08 6.977517972913e-04 0.0 
0.0 0.0 0.0 
-8.556604924603e-08 5.213321511936e-09 0.0 
5.213321511936e-09 1.006895448506e-03 0.0 
0.0 0.0 0.0 
-1.542033249609e-07 4.284241201635e-08 0.0 
4.284241201635e-08 6.467042583754e-04 0.0 
0.0 0.0 0.0 
-5.211105132593e-08 -3.954280284608e-08 0.0 
-3.954280284608e-08 8.193296449141e-04 0.0 
0.0 0.0 0.0 
-1.870907776110e-07 -7.594600923706e-08 0.0 
-7.594600923706e-08 8.945544288165e-04 0.0 
0.0 0.0 0.0 
-3.182747843056e-09 6.154368902344e-09 0.0 
6.154368902344e-09 7.777491375211e-04 0.0 
0.0 0.0 0.0 
-7.312280780880e-10 3.899739182452e-07 0.0 
3.899739182452e-07 8.668240897504e-04 0.0 
0.0 0.0 0.0 
-9.723095676743e-08 4.263476721428e-08 0.0 
4.263476721428e-08 9.980922957771e-04 0.0 
0.0 0.0 0.0 
-3.108211401407e-07 6.116760315956e-09 0.0 
6.116760315956e-09 2.467560167826e-04 0.0 
0.0 0.0 0.0 
1.564730310137e-08 -6.771744503348e-09 0.0 
-6.771744503348e-09 5.006942380586e-04 0.0 
0.0 0.0 0.0 
2.180896381265e-07 -1.347871700909e-07 0.0 
-1.347871700909e-07 8.667382943307e-04 0.0 
0.0 0.0 0.0 
-2.923552033796e-07 -1.442410924876e-07 0.0 
-1.442410924876e-07 1.055442079565e-03 0.0 
0.0 0.0 0.0 
2.290952298978e-07 1.412288134199e-07 0.0 
1.412288134199e-07 1.131900108858e-03 0.0 
0.0 0.0 0.0 
-9.136359613304e-08 1.020092165136e-07 0.0 
1.020092165136e-07 6.045141696989e-04 0.0 
0.0 0.0 0.0 
-1.307737305482e-08 -1.420099607185e-07 0.0 
-1.420099607185e-07 9.896118987068e-04 0.0 
0.0 0.0 0.0 
-1.059756533639e-07 4.319739287121e-08 0.0 
4.319739287121e-08 1.088995223056e-03 0.0 
0.0 0.0 0.0 
5.651035054714e-08 2.804641563604e-09 0.0 
2.804641563604e-09 6.738349486888e-04 0.0 
0.0 0.0 0.0 
-6.375139699477e-08 1.099284786371e-07 0.0 
1.099284786371e-07 2.715246482349e-04 0.0 
0.0 0.0 0.0 
-3.820417622443e-07 3.428378886391e-08 0.0 
3.428378886391e-08 2.072659152687e-04 0.0 
0.0 0.0 0.0 
-1.092279966660e-07 7.694263145013e-10 0.0 
7.694263145013e-10 4.406294355648e-04 0.0 
0.0 0.0 0.0 
-4.452220742079e-08 -2.199300437567e-08 0.0 
-2.199300437567e-08 7.019435933068e-04 0.0 
0.0 0.0 0.0 
3.180391194846e-08 -3.435976720759e-08 0.0 
-3.435976720759e-08 7.369031290346e-04 0.0 
0.0 0.0 0.0 
-1.822664493619e-07 1.915476380171e-07 0.0 
1.915476380171e-07 1.144786357778e-03 0.0 
0.0 0.0 0.0 
9.719670142812e-08 -1.011257842483e-07 0.0 
-1.011257842483e-07 1.017001048327e-03 0.0 
0.0 0.0 0.0 
2.457497686829e-09 -1.784154793955e-07 0.0 
-1.784154793955e-07 9.504651539869e-04 0.0 
0.0 0.0 0.0 
-1.643874699531e-06 -3.916775506619e-07 0.0 
-3.916775506619e-07 9.890237362364e-05 0.0 
0.0 0.0 0.0 
1.056705118962e-07 1.854443068948e-07 0.0 
1.854443068948e-07 6.356286237327e-04 0.0 
0.0 0.0 0.0 
1.488263176771e-07 -1.101832660991e-07 0.0 
-1.101832660991e-07 1.044710333783e-03 0.0 
0.0 0.0 0.0 
-2.497287554526e-08 -6.911203213272e-08 0.0 
-6.911203213272e-08 7.409368879119e-04 0.0 
0.0 0.0 0.0 
-1.602347399210e-07 1.282716062257e-08 0.0 
1.282716062257e-08 1.032913924695e-03 0.0 
0.0 0.0 0.0 
3.782749766756e-07 -2.466976430762e-08 0.0 
-2.466976430762e-08 7.019810646442e-04 0.0 
0.0 0.0 0.0 
1.131898512696e-07 -2.059889975424e-07 0.0 
-2.059889975424e-07 1.151303925445e-03 0.0 
0.0 0.0 0.0 
-7.327103016911e-08 2.178513001515e-07 0.0 
2.178513001515e-07 5.045434962011e-04 0.0 
0.0 0.0 0.0 
-7.033359988862e-08 -1.175876695551e-07 0.0 
-1.175876695551e-07 1.073548495303e-03 0.0 
0.0 0.0 0.0 
-5.835482214112e-08 1.382527644515e-07 0.0 
1.382527644515e-07 9.570195305668e-04 0.0 
0.0 0.0 0.0 
-7.726640079605e-08 -1.428246148547e-08 0.0 
-1.428246148547e-08 4.555714595766e-04 0.0 
0.0 0.0 0.0 
2.346256927632e-08 7.679169746033e-08 0.0 
7.679169746033e-08 6.711595764310e-04 0.0 
0.0 0.0 0.0 
-9.655508719548e-08 1.395838525519e-07 0.0 
1.395838525519e-07 1.145859414157e-03 0.0 
0.0 0.0 0.0 
-1.424536802963e-07 2.742184034162e-08 0.0 
2.742184034162e-08 1.021111659757e-03 0.0 
0.0 0.0 0.0 
1.948737251197e-08 -1.996049598956e-08 0.0 
-1.996049598956e-08 8.383762744674e-04 0.0 
0.0 0.0 0.0 
-3.936258461771e-08 -5.206936465969e-08 0.0 
-5.206936465969e-08 7.057722502725e-04 0.0 
0.0 0.0 0.0 
6.739186932577e-08 -2.502381344725e-07 0.0 
-2.502381344725e-07 5.458240530991e-04 0.0 
0.0 0.0 0.0 
2.979727527682e-08 -5.804487837704e-08 0.0 
-5.804487837704e-08 7.643778830236e-04 0.0 
0.0 0.0 0.0 
-1.026218669672e-07 -9.677762279723e-08 0.0 
-9.677762279723e-08 8.533575337492e-04 0.0 
0.0 0.0 0.0 
2.299005146256e-07 3.240020487975e-08 0.0 
3.240020487975e-08 1.205963800950e-03 0.0 
0.0 0.0 0.0 
-3.943719662317e-07 -9.590949780965e-08 0.0 
-9.590949780965e-08 1.053479411327e-03 0.0 
0.0 0.0 0.0 
6.511699803443e-08 -1.746879658814e-07 0.0 
-1.746879658814e-07 8.821489774154e-04 0.0 
0.0 0.0 0.0 
4.242955864431e-08 -7.358200410702e-08 0.0 
-7.358200410702e-08 7.288170580864e-04 0.0 
0.0 0.0 0.0 
-1.767304584159e-08 -4.248365049483e-08 0.0 
-4.248365049483e-08 8.873511723870e-04 0.0 
0.0 0.0 0.0 
9.617636919830e-07 -2.269284832123e-07 0.0 
-2.269284832123e-07 1.403188057791e-04 0.0 
0.0 0.0 0.0 
-7.985287838371e-09 8.605501976262e-08 0.0 
8.605501976262e-08 5.707204994852e-04 0.0 
0.0 0.0 0.0 
-3.987576028634e-09 -9.083908933362e-08 0.0 
-9.083908933362e-08 7.561934529890e-04 0.0 
0.0 0.0 0.0 
-8.270539982499e-08 -4.347671949096e-08 0.0 
-4.347671949096e-08 4.676922190265e-04 0.0 
0.0 0.0 0.0 
-6.264948835636e-08 -3.588445928919e-08 0.0 
-3.588445928919e-08 7.326253534590e-04 0.0 
0.0 0.0 0.0 
3.369261961280e-07 2.830125228211e-07 0.0 
2.830125228211e-07 1.136552683762e-03 0.0 
0.0 0.0 0.0 
-5.020106841336e-08 -5.998333578444e-08 0.0 
-5.998333578444e-08 7.837067628750e-04 0.0 
0.0 0.0 0.0 
-6.654410191394e-08 -8.620567280021e-08 0.0 
-8.620567280021e-08 5.291300658303e-04 0.0 
0.0 0.0 0.0 
-5.750980327142e-08 4.046442460828e-09 0.0 
4.046442460828e-09 8.111736902950e-04 0.0 
0.0 0.0 0.0 
3.581900563191e-08 -1.595383977268e-07 0.0 
-1.595383977268e-07 4.812536949768e-04 0.0 
0.0 0.0 0.0 
-2.252735812706e-08 -2.396135030059e-07 0.0 
-2.396135030059e-07 9.097682317795e-04 0.0 
0.0 0.0 0.0 
1.101726445074e-07 -4.965924959955e-09 0.0 
-4.965924959955e-09 8.384648471486e-04 0.0 
0.0 0.0 0.0 
-5.844154412256e-08 -1.314729778662e-07 0.0 
-1.314729778662e-07 9.143264878493e-04 0.0 
0.0 0.0 0.0 
5.611534329431e-07 -2.220806046173e-07 0.0 
-2.220806046173e-07 1.481035712672e-04 0.0 
0.0 0.0 0.0 
-1.051609512433e-08 -3.434061442194e-08 0.0 
-3.434061442194e-08 8.649851840709e-04 0.0 
0.0 0.0 0.0 
1.730443145627e-07 2.003810141256e-07 0.0 
2.003810141256e-07 1.060269852575e-03 0.0 
0.0 0.0 0.0 
5.604306019258e-08 1.342094758790e-07 0.0 
1.342094758790e-07 4.944899513771e-04 0.0 
0.0 0.0 0.0 
-6.181941974992e-08 2.248939989382e-08 0.0 
2.248939989382e-08 7.598838957220e-04 0.0 
0.0 0.0 0.0 
-3.814200288943e-08 -1.441747309578e-07 0.0 
-1.441747309578e-07 9.724215393702e-04 0.0 
0.0 0.0 0.0 
-1.305419922160e-07 -5.242033812996e-07 0.0 
-5.242033812996e-07 4.158619668004e-04 0.0 
0.0 0.0 0.0 
-4.358096877821e-08 -1.444677606695e-08 0.0 
-1.444677606695e-08 8.226258451559e-04 0.0 
0.0 0.0 0.0 
-3.593204717101e-08 -1.189329135025e-07 0.0 
-1.189329135025e-07 9.757728382130e-04 0.0 
0.0 0.0 0.0 
-7.671533056956e-09 1.096785864069e-07 0.0 
1.096785864069e-07 8.922895630047e-04 0.0 
0.0 0.0 0.0 
-4.476106363338e-08 -1.469873174790e-09 0.0 
-1.469873174790e-09 7.632229276107e-04 0.0 
0.0 0.0 0.0 
-8.962368588013e-09 -5.740056892082e-08 0.0 
-5.740056892082e-08 8.862519970031e-04 0.0 
0.0 0.0 0.0 
-2.416682415111e-07 3.747828301021e-07 0.0 
3.747828301021e-07 4.376525916797e-04 0.0 
0.0 0.0 0.0 
1.242976481371e-07 2.393681711801e-07 0.0 
2.393681711801e-07 3.584478835379e-04 0.0 
0.0 0.0 0.0 
3.755940973053e-08 1.230719104340e-07 0.0 
1.230719104340e-07 2.958809098415e-04 0.0 
0.0 0.0 0.0 
-7.257164134448e-08 -9.029141237795e-08 0.0 
-9.029141237795e-08 5.559646674490e-04 0.0 
0.0 0.0 0.0 
-2.784575085328e-08 -5.776912248549e-08 0.0 
-5.776912248549e-08 1.010303106289e-03 0.0 
0.0 0.0 0.0 
-1.503459409931e-07 -5.560376131550e-07 0.0 
-5.560376131550e-07 1.942265571546e-04 0.0 
0.0 0.0 0.0 
-1.263675945366e-08 -1.853051899493e-07 0.0 
-1.853051899493e-07 9.640323466435e-04 0.0 
0.0 0.0 0.0 
-1.239317927911e-08 -1.790527584825e-07 0.0 
-1.790527584825e-07 2.071908290579e-04 0.0 
0.0 0.0 0.0 
-8.514714816554e-08 -6.679228259915e-08 0.0 
-6.679228259915e-08 5.215705582010e-04 0.0 
0.0 0.0 0.0 
2.130431829099e-07 1.150741396455e-07 0.0 
1.150741396455e-07 9.850939308688e-04 0.0 
0.0 0.0 0.0 
-7.186933344746e-09 -1.103117551795e-06 0.0 
-1.103117551795e-06 8.460214743047e-04 0.0 
0.0 0.0 0.0 
-8.295637023611e-08 -7.019702471677e-10 0.0 
-7.019702471677e-10 5.480292371951e-04 0.0 
0.0 0.0 0.0 
7.694486362878e-08 2.346913753848e-07 0.0 
2.346913753848e-07 3.345474915094e-04 0.0 
0.0 0.0 0.0 
-8.993117093607e-08 5.009315908036e-08 0.0 
5.009315908036e-08 5.134030679002e-04 0.0 
0.0 0.0 0.0 
-3.730489515445e-08 1.506921307707e-08 0.0 
1.506921307707e-08 8.248659625660e-04 0.0 
0.0 0.0 0.0 
-6.026331158167e-08 7.563451306576e-08 0.0 
7.563451306576e-08 5.397464664376e-04 0.0 
0.0 0.0 0.0 
-1.415685465152e-08 1.176328812752e-07 0.0 
1.176328812752e-07 5.047721087967e-04 0.0 
0.0 0.0 0.0 
-2.589619437406e-07 -1.366536071069e-07 0.0 
-1.366536071069e-07 1.145093535171e-03 0.0 
0.0 0.0 0.0 
3.341070640521e-08 1.507197398109e-07 0.0 
1.507197398109e-07 5.306172387936e-04 0.0 
0.0 0.0 0.0 
4.655771655796e-07 -3.025891956173e-07 0.0 
-3.025891956173e-07 1.204922799528e-03 0.0 
0.0 0.0 0.0 
1.899061121056e-08 -1.423800341165e-07 0.0 
-1.423800341165e-07 1.198441378884e-03 0.0 
0.0 0.0 0.0 
-9.987378371942e-08 -8.047895404777e-07 0.0 
-8.047895404777e-07 7.197839224943e-04 0.0 
0.0 0.0 0.0 
-6.043752357243e-07 4.532800289202e-07 0.0 
4.532800289202e-07 3.482803858691e-04 0.0 
0.0 0.0 0.0 
-1.157755019838e-06 2.056111486155e-07 0.0 
2.056111486155e-07 3.977228004302e-05 0.0 
0.0 0.0 0.0 
3.298746043434e-07 -4.123344740317e-07 0.0 
-4.123344740317e-07 3.707254486817e-04 0.0 
0.0 0.0 0.0 
7.116429689979e-08 1.744888442019e-07 0.0 
1.744888442019e-07 4.330233066424e-04 0.0 
0.0 0.0 0.0 
-1.840189128114e-07 1.525149590430e-08 0.0 
1.525149590430e-08 9.553695784601e-04 0.0 
0.0 0.0 0.0 
8.233712385971e-08 1.868725444625e-07 0.0 
1.868725444625e-07 7.222092972775e-04 0.0 
0.0 0.0 0.0 
1.335694054990e-07 2.958717029526e-07 0.0 
2.958717029526e-07 3.962715272534e-04 0.0 
0.0 0.0 0.0 
1.451425997723e-07 3.027733989978e-08 0.0 
3.027733989978e-08 1.151808677215e-03 0.0 
0.0 0.0 0.0 
-4.043267539296e-08 -3.808420369649e-07 0.0 
-3.808420369649e-07 1.205298255543e-03 0.0 
0.0 0.0 0.0 
2.498767107514e-08 -2.776556826224e-07 0.0 
-2.776556826224e-07 9.383676947843e-04 0.0 
0.0 0.0 0.0 
-4.588837812144e-07 2.874244507962e-07 0.0 
2.874244507962e-07 1.057718326686e-03 0.0 
0.0 0.0 0.0 
4.970292262948e-08 1.203144310698e-07 0.0 
1.203144310698e-07 9.215922247968e-04 0.0 
0.0 0.0 0.0 
-3.191378013708e-07 -4.472711718902e-07 0.0 
-4.472711718902e-07 1.089055636134e-03 0.0 
0.0 0.0 0.0 
2.361338738321e-07 -1.287602774031e-06 0.0 
-1.287602774031e-06 6.665441139472e-04 0.0 
0.0 0.0 0.0 
1.767797367195e-07 3.157032915247e-09 0.0 
3.157032915247e-09 8.474625635313e-05 0.0 
0.0 0.0 0.0 
-1.857010167861e-08 2.436816365561e-07 0.0 
2.436816365561e-07 8.994879825434e-04 0.0 
0.0 0.0 0.0 
-4.522695583598e-07 7.349603927441e-08 0.0 
7.349603927441e-08 2.820096795728e-04 0.0 
0.0 0.0 0.0 
-2.485771331366e-08 -2.368302189395e-08 0.0 
-2.368302189395e-08 2.899500328363e-04 0.0 
0.0 0.0 0.0 
-2.432482814618e-07 -2.834094512615e-07 0.0 
-2.834094512615e-07 2.235199913060e-04 0.0 
0.0 0.0 0.0 
-5.372280862762e-07 8.280364107929e-08 0.0 
8.280364107929e-08 4.186538077937e-04 0.0 
0.0 0.0 0.0 
6.005458952722e-07 2.407913085070e-07 0.0 
2.407913085070e-07 1.375634529233e-04 0.0 
0.0 0.0 0.0 
5.207843069751e-08 9.113164293334e-08 0.0 
9.113164293334e-08 2.291717951987e-04 0.0 
0.0 0.0 0.0 
-3.401233309071e-07 -4.365027920225e-07 0.0 
-4.365027920225e-07 1.146548930617e-03 0.0 
0.0 0.0 0.0 
5.731029960820e-07 -1.099341786901e-06 0.0 
-1.099341786901e-06 7.235472094829e-04 0.0 
0.0 0.0 0.0 
2.082674756728e-07 -2.128606537274e-07 0.0 
-2.128606537274e-07 1.016969283033e-03 0.0 
0.0 0.0 0.0 
-1.928179337492e-07 -2.338822364050e-07 0.0 
-2.338822364050e-07 1.637047756675e-04 0.0 
0.0 0.0 0.0 
-2.061919358957e-07 -3.446569826346e-07 0.0 
-3.446569826346e-07 1.149319499107e-03 0.0 
0.0 0.0 0.0 
-1.609746515609e-07 1.489598979519e-07 0.0 
1.489598979519e-07 1.148677634319e-03 0.0 
0.0 0.0 0.0 
-1.765503380528e-07 -4.156380204209e-07 0.0 
-4.156380204209e-07 1.205572197636e-03 0.0 
0.0 0.0 0.0 
2.097892028985e-07 -7.167167417984e-08 0.0 
-7.167167417984e-08 1.080033374916e-03 0.0 
0.0 0.0 0.0 
-9.966772559674e-07 -5.522783754022e-07 0.0 
-5.522783754022e-07 1.572729325337e-04 0.0 
0.0 0.0 0.0 
7.369297984061e-07 -1.015053827546e-06 0.0 
-1.015053827546e-06 7.766333646074e-04 0.0 
0.0 0.0 0.0 
-2.704056033346e-07 -2.068847397276e-07 0.0 
-2.068847397276e-07 1.152336253514e-03 0.0 
0.0 0.0 0.0 
3.468476720096e-07 -7.707443018771e-08 0.0 
-7.707443018771e-08 9.884402458563e-04 0.0 
0.0 0.0 0.0 
4.558803294419e-07 1.333805042965e-06 0.0 
1.333805042965e-06 1.208825922075e-03 0.0 
0.0 0.0 0.0 
7.983701144187e-07 -5.644050970159e-08 0.0 
-5.644050970159e-08 7.158013923978e-04 0.0 
0.0 0.0 0.0 
-5.856552300528e-08 2.547925344588e-07 0.0 
2.547925344588e-07 1.153519401568e-03 0.0 
0.0 0.0 0.0 
-2.627075254558e-07 -2.282063947673e-07 0.0 
-2.282063947673e-07 2.140506755599e-04 0.0 
0.0 0.0 0.0 
3.257925098588e-08 4.113258892425e-07 0.0 
4.113258892425e-07 1.154286312401e-03 0.0 
0.0 0.0 0.0 
-2.258732119675e-07 -5.333808116480e-08 0.0 
-5.333808116480e-08 1.017327498611e-03 0.0 
0.0 0.0 0.0 
2.536988360687e-07 6.622509912890e-07 0.0 
6.622509912890e-07 8.000148656323e-04 0.0 
0.0 0.0 0.0 
5.305586935789e-07 2.737974850636e-07 0.0 
2.737974850636e-07 7.734302196374e-04 0.0 
0.0 0.0 0.0 
2.071588713348e-07 1.887413772762e-07 0.0 
1.887413772762e-07 1.156490857345e-03 0.0 
0.0 0.0 0.0 
-4.556387362076e-07 -5.645153925708e-07 0.0 
-5.645153925708e-07 1.151357507653e-03 0.0 
0.0 0.0 0.0 
-9.459927027119e-07 5.288431183640e-07 0.0 
5.288431183640e-07 1.228628192473e-04 0.0 
0.0 0.0 0.0 
4.885488220197e-07 8.429618256735e-07 0.0 
8.429618256735e-07 9.346470830740e-04 0.0 
0.0 0.0 0.0 
-2.612190719065e-07 -4.521666743721e-07 0.0 
-4.521666743721e-07 5.266866296178e-04 0.0 
0.0 0.0 0.0 
8.329170340845e-07 -1.472958137657e-07 0.0 
-1.472958137657e-07 7.972439632609e-05 0.0 
0.0 0.0 0.0 
-3.293775717061e-07 8.525114669772e-07 0.0 
8.525114669772e-07 1.150960426568e-03 0.0 
0.0 0.0 0.0 
-4.219972135067e-07 -3.146349402224e-08 0.0 
-3.146349402224e-08 1.076387028619e-03 0.0 
0.0 0.0 0.0 
-4.164916616256e-07 8.418282099102e-07 0.0 
8.418282099102e-07 1.152940152140e-03 0.0 
0.0 0.0 0.0 
-8.060449820047e-07 1.530274107485e-07 0.0 
1.530274107485e-07 1.394134337489e-04 0.0 
0.0 0.0 0.0 
-1.127160711478e-06 8.572686093784e-08 0.0 
8.572686093784e-08 7.930159097884e-05 0.0 
0.0 0.0 0.0 
-2.855501441745e-07 2.240784049598e-07 0.0 
2.240784049598e-07 1.160585849614e-03 0.0 
0.0 0.0 0.0 
-2.651451084616e-08 1.675077591667e-07 0.0 
1.675077591667e-07 1.158452553949e-03 0.0 
0.0 0.0 0.0 
2.553768146396e-07 4.482669997742e-07 0.0 
4.482669997742e-07 2.440005597561e-04 0.0 
0.0 0.0 0.0 
-2.779387053842e-08 -1.168882128432e-07 0.0 
-1.168882128432e-07 1.214272625908e-03 0.0 
0.0 0.0 0.0 
-4.521919332867e-07 1.199325554407e-06 0.0 
1.199325554407e-06 7.550110547572e-05 0.0 
0.0 0.0 0.0 
5.412300463359e-07 1.256568701115e-07 0.0 
1.256568701115e-07 6.596809533668e-04 0.0 
0.0 0.0 0.0 
8.768052681315e-07 -6.269200016512e-08 0.0 
-6.269200016512e-08 8.243925538850e-05 0.0 
0.0 0.0 0.0 
3.964811904122e-07 -1.200085638018e-06 0.0 
-1.200085638018e-06 1.207423242849e-03 0.0 
0.0 0.0 0.0 
-3.695857737407e-07 5.474390961528e-07 0.0 
5.474390961528e-07 1.156278417459e-03 0.0 
0.0 0.0 0.0 
-9.276113543955e-08 8.474764045992e-07 0.0 
8.474764045992e-07 5.818758088278e-04 0.0 
0.0 0.0 0.0 
3.947389110396e-07 6.107085470852e-07 0.0 
6.107085470852e-07 6.753774221256e-04 0.0 
0.0 0.0 0.0 
-1.013989994007e-07 4.499305437527e-07 0.0 
4.499305437527e-07 3.775656149999e-04 0.0 
0.0 0.0 0.0 
-3.612675972375e-07 9.145778075825e-07 0.0 
9.145778075825e-07 1.107118832982e-03 0.0 
0.0 0.0 0.0 
7.568463193941e-07 9.611829058404e-08 0.0 
9.611829058404e-08 1.275597796040e-04 0.0 
0.0 0.0 0.0 
-4.411842198904e-07 -3.426533132089e-07 0.0 
-3.426533132089e-07 1.162463732002e-03 0.0 
0.0 0.0 0.0 
-3.274617901727e-07 -1.633832303953e-07 0.0 
-1.633832303953e-07 1.163399137508e-03 0.0 
0.0 0.0 0.0 
-2.737583906898e-07 2.060201003096e-07 0.0 
2.060201003096e-07 1.162605101846e-03 0.0 
0.0 0.0 0.0 
-1.291093669309e-07 1.489066429280e-08 0.0 
1.489066429280e-08 1.217130140887e-03 0.0 
0.0 0.0 0.0 
2.577853727370e-07 5.733486451611e-07 0.0 
5.733486451611e-07 7.540349594106e-05 0.0 
0.0 0.0 0.0 
-3.957967013912e-07 -2.213611169812e-07 0.0 
-2.213611169812e-07 1.164967293045e-03 0.0 
0.0 0.0 0.0 
-4.408481407259e-07 6.934199324750e-07 0.0 
6.934199324750e-07 1.106039959213e-03 0.0 
0.0 0.0 0.0 
-4.382216025611e-08 1.049764710203e-06 0.0 
1.049764710203e-06 6.660491521944e-04 0.0 
0.0 0.0 0.0 
-1.881259643621e-08 9.132747267149e-07 0.0 
9.132747267149e-07 1.153806770799e-03 0.0 
0.0 0.0 0.0 
-1.366047482465e-07 6.397336352993e-07 0.0 
6.397336352993e-07 4.692354883757e-04 0.0 
0.0 0.0 0.0 
6.796109321527e-07 -9.653818374758e-07 0.0 
-9.653818374758e-07 1.909172063453e-04 0.0 
0.0 0.0 0.0 
6.660282119153e-07 -6.353907280094e-07 0.0 
-6.353907280094e-07 1.211571572770e-03 0.0 
0.0 0.0 0.0 
-7.470926494335e-07 6.748896982681e-08 0.0 
6.748896982681e-08 2.931544656466e-05 0.0 
0.0 0.0 0.0 
-2.904508648482e-07 -5.043226548010e-07 0.0 
-5.043226548010e-07 6.625013632050e-04 0.0 
0.0 0.0 0.0 
4.795561183712e-08 9.425909947746e-07 0.0 
9.425909947746e-07 1.212210024915e-03 0.0 
0.0 0.0 0.0 
1.020347098057e-06 -1.741446682250e-07 0.0 
-1.741446682250e-07 1.813037188367e-04 0.0 
0.0 0.0 0.0 
1.896319125505e-07 -6.024435621469e-07 0.0 
-6.024435621469e-07 7.663692556864e-04 0.0 
0.0 0.0 0.0 
2.113733147402e-07 -2.041000608828e-07 0.0 
-2.041000608828e-07 1.161349880661e-03 0.0 
0.0 0.0 0.0 
-2.011419327578e-07 2.179096683651e-07 0.0 
2.179096683651e-07 7.185313932090e-04 0.0 
0.0 0.0 0.0 
-1.162982713243e-07 -1.395580006014e-06 0.0 
-1.395580006014e-06 1.052627361190e-03 0.0 
0.0 0.0 0.0 
9.988932131222e-07 3.776746353261e-07 0.0 
3.776746353261e-07 1.785933107890e-04 0.0 
0.0 0.0 0.0 
8.257359906764e-07 -4.793311100201e-07 0.0 
-4.793311100201e-07 3.112421170122e-05 0.0 
0.0 0.0 0.0 
1.232720135080e-07 -9.389019776343e-07 0.0 
-9.389019776343e-07 8.794415078613e-04 0.0 
0.0 0.0 0.0 
-3.573830976267e-07 8.181158435527e-07 0.0 
8.181158435527e-07 1.160041655670e-03 0.0 
0.0 0.0 0.0 
-3.462550725697e-07 -3.870621872616e-07 0.0 
-3.870621872616e-07 1.166154694894e-03 0.0 
0.0 0.0 0.0 
1.765711480362e-07 8.956450329078e-07 0.0 
8.956450329078e-07 8.350549510082e-04 0.0 
0.0 0.0 0.0 
-4.531429536936e-07 -8.833392718058e-07 0.0 
-8.833392718058e-07 1.604294621885e-04 0.0 
0.0 0.0 0.0 
-2.961331840634e-07 2.308825445983e-07 0.0 
2.308825445983e-07 1.124317829044e-03 0.0 
0.0 0.0 0.0 
6.157590285068e-07 -6.789805082284e-08 0.0 
-6.789805082284e-08 6.296591288471e-04 0.0 
0.0 0.0 0.0 
-6.113897744520e-07 -3.471475314746e-07 0.0 
-3.471475314746e-07 1.113261793017e-03 0.0 
0.0 0.0 0.0 
-7.843488932124e-07 -2.014715089594e-07 0.0 
-2.014715089594e-07 1.107793685280e-03 0.0 
0.0 0.0 0.0 
-5.849410418257e-07 6.693714928391e-07 0.0 
6.693714928391e-07 3.342270891387e-05 0.0 
0.0 0.0 0.0 
-2.646974128107e-07 4.352496610189e-07 0.0 
4.352496610189e-07 7.739278717390e-04 0.0 
0.0 0.0 0.0 
-9.917155663342e-07 -1.689243306463e-07 0.0 
-1.689243306463e-07 7.652384847727e-05 0.0 
0.0 0.0 0.0 
-3.298014424447e-07 -4.602153499254e-07 0.0 
-4.602153499254e-07 1.164926716240e-03 0.0 
0.0 0.0 0.0 
-3.631400091741e-09 -3.089918610285e-07 0.0 
-3.089918610285e-07 6.573182715242e-04 0.0 
0.0 0.0 0.0 
1.691447276131e-07 6.472089782017e-07 0.0 
6.472089782017e-07 1.188378004890e-05 0.0 
0.0 0.0 0.0 
8.796520238885e-07 -2.689411491067e-08 0.0 
-2.689411491067e-08 1.558983316496e-05 0.0 
0.0 0.0 0.0 
-3.890639989346e-07 -1.362877140801e-06 0.0 
-1.362877140801e-06 6.699354189171e-05 0.0 
0.0 0.0 0.0 
-2.136793817442e-06 3.871574517331e-07 0.0 
3.871574517331e-07 7.404607867290e-05 0.0 
0.0 0.0 0.0 
8.517914334705e-07 -1.280497336664e-06 0.0 
-1.280497336664e-06 1.316242860344e-04 0.0 
0.0 0.0 0.0 
-1.708494546337e-06 6.339789434388e-07 0.0 
6.339789434388e-07 1.407968205409e-04 0.0 
0.0 0.0 0.0 
1.693159133009e-06 -7.766881652055e-07 0.0 
-7.766881652055e-07 1.951202620239e-04 0.0 
0.0 0.0 0.0 
-7.022519548927e-07 5.710784169230e-08 0.0 
5.710784169230e-08 2.003161814146e-04 0.0 
0.0 0.0 0.0 
1.972815560969e-06 -7.609867550732e-07 0.0 
-7.609867550732e-07 2.590257486356e-04 0.0 
0.0 0.0 0.0 
-4.071412174067e-07 8.748027634125e-09 0.0 
8.748027634125e-09 2.675970308844e-04 0.0 
0.0 0.0 0.0 
2.300831563468e-06 -5.146573250637e-07 0.0 
-5.146573250637e-07 3.231100000356e-04 0.0 
0.0 0.0 0.0 
-2.712449209130e-07 -7.199278173275e-08 0.0 
-7.199278173275e-08 3.277895357337e-04 0.0 
0.0 0.0 0.0 
1.631375181804e-06 -8.889435008421e-07 0.0 
-8.889435008421e-07 3.871454095016e-04 0.0 
0.0 0.0 0.0 
-1.798680356047e-07 -8.180688684832e-08 0.0 
-8.180688684832e-08 3.952593608516e-04 0.0 
0.0 0.0 0.0 
1.550256054389e-06 -8.621222179640e-07 0.0 
-8.621222179640e-07 4.513001459600e-04 0.0 
0.0 0.0 0.0 
-1.924442143975e-07 -9.931985287433e-08 0.0 
-9.931985287433e-08 4.555753357091e-04 0.0 
0.0 0.0 0.0 
1.439806525672e-06 -9.127635709028e-07 0.0 
-9.127635709028e-07 5.152735032194e-04 0.0 
0.0 0.0 0.0 
-8.152934385941e-08 1.738893567235e-07 0.0 
1.738893567235e-07 5.230397034519e-04 0.0 
0.0 0.0 0.0 
1.344518460289e-06 -8.256846106233e-07 0.0 
-8.256846106233e-07 5.794969421625e-04 0.0 
0.0 0.0 0.0 
-5.916113758331e-07 8.497406388816e-07 0.0 
8.497406388816e-07 5.833329404198e-04 0.0 
0.0 0.0 0.0 

TENSORS node_materi_strain_plasti float
-2.612663767757e-06 -3.252607646113e-07 0.0 
-3.252607646113e-07 2.093720605042e-05 0.0 
0.0 0.0 -4.924303274428e-06 
-1.079056608654e-04 -1.683663743376e-05 0.0 
-1.683663743376e-05 6.796608024097e-04 0.0 
0.0 0.0 -1.043867513459e-04 
-1.990082416844e-04 1.461466422752e-05 0.0 
1.461466422752e-05 1.338163054070e-03 0.0 
0.0 0.0 -1.998931639748e-04 
-1.992789450115e-04 -1.457804817178e-05 0.0 
-1.457804817178e-05 1.339096739606e-03 0.0 
0.0 0.0 -1.998931639748e-04 
-1.229078891716e-05 5.366280014175e-06 0.0 
5.366280014175e-06 5.053145956954e-05 0.0 
0.0 0.0 -1.268018299698e-05 
-2.543886988905e-05 1.901414525611e-05 0.0 
1.901414525611e-05 1.267844857367e-04 0.0 
0.0 0.0 -2.428620303623e-05 
-3.444505010393e-05 1.562750611400e-05 0.0 
1.562750611400e-05 1.836714106930e-04 0.0 
0.0 0.0 -3.399136149544e-05 
-4.457783022682e-05 1.417525000785e-05 0.0 
1.417525000785e-05 2.618842628781e-04 0.0 
0.0 0.0 -4.406465996183e-05 
-5.572937533165e-05 1.046680884978e-05 0.0 
1.046680884978e-05 3.321775894220e-04 0.0 
0.0 0.0 -5.415704333790e-05 
-6.374532394610e-05 9.877096268525e-06 0.0 
9.877096268525e-06 3.996726964643e-04 0.0 
0.0 0.0 -6.415842296661e-05 
-7.312975922456e-05 1.092726545402e-05 0.0 
1.092726545402e-05 4.685103703879e-04 0.0 
0.0 0.0 -7.410179773499e-05 
-8.340975388222e-05 9.760341255261e-06 0.0 
9.760341255261e-06 5.380090096821e-04 0.0 
0.0 0.0 -8.402736785582e-05 
-9.329317044903e-05 9.748725627981e-06 0.0 
9.748725627981e-06 6.067337971893e-04 0.0 
0.0 0.0 -9.400794208654e-05 
-1.048395173574e-04 1.245666822366e-05 0.0 
1.245666822366e-05 6.774763461161e-04 0.0 
0.0 0.0 -1.040542782181e-04 
-1.176369272068e-04 1.876149311443e-05 0.0 
1.876149311443e-05 7.541898349339e-04 0.0 
0.0 0.0 -1.141079629734e-04 
-1.251371721908e-04 1.991670015406e-05 0.0 
1.991670015406e-05 8.235151932197e-04 0.0 
0.0 0.0 -1.240613786258e-04 
-1.319668018372e-04 2.596472290694e-05 0.0 
2.596472290694e-05 8.806369836317e-04 0.0 
0.0 0.0 -1.335504265687e-04 
-1.429595426911e-04 1.016247294305e-05 0.0 
1.016247294305e-05 9.540683438175e-04 0.0 
0.0 0.0 -1.433712649586e-04 
-1.532202596459e-04 9.657610282115e-06 0.0 
9.657610282115e-06 1.025836369529e-03 0.0 
0.0 0.0 -1.536785213545e-04 
-1.630955816410e-04 9.924116732642e-06 0.0 
9.924116732642e-06 1.095392565861e-03 0.0 
0.0 0.0 -1.636867096734e-04 
-1.736417197982e-04 9.148824907428e-06 0.0 
9.148824907428e-06 1.166298828267e-03 0.0 
0.0 0.0 -1.737495185000e-04 
-1.844935295981e-04 1.136666883781e-05 0.0 
1.136666883781e-05 1.237760949854e-03 0.0 
0.0 0.0 -1.839110754151e-04 
-1.928395893447e-04 1.466620459946e-05 0.0 
1.466620459946e-05 1.307601711888e-03 0.0 
0.0 0.0 -1.934749151625e-04 
-1.992084498246e-04 -9.667205419172e-07 0.0 
-9.667205419172e-07 1.341308611164e-03 0.0 
0.0 0.0 -2.005353038101e-04 
-2.003235822205e-04 -4.576902611969e-07 0.0 
-4.576902611969e-07 1.339283177977e-03 0.0 
0.0 0.0 -1.999418651152e-04 
-2.004195521241e-04 -9.594112326717e-06 0.0 
-9.594112326717e-06 1.337828695600e-03 0.0 
0.0 0.0 -2.002354755130e-04 
-2.008845907091e-04 4.519063874005e-06 0.0 
4.519063874005e-06 1.338578482993e-03 0.0 
0.0 0.0 -2.001689849711e-04 
-2.005719087583e-04 -1.259819984252e-06 0.0 
-1.259819984252e-06 1.336698736025e-03 0.0 
0.0 0.0 -1.998101597465e-04 
-2.003033749392e-04 1.612771953849e-07 0.0 
1.612771953849e-07 1.336699884288e-03 0.0 
0.0 0.0 -2.002576402756e-04 
-1.988174270910e-04 4.435871277180e-07 0.0 
4.435871277180e-07 1.338020991228e-03 0.0 
0.0 0.0 -2.002582685247e-04 
-2.006018029555e-04 -1.428553602928e-06 0.0 
-1.428553602928e-06 1.338259915715e-03 0.0 
0.0 0.0 -2.000295381545e-04 
-2.002076965602e-04 -6.442142530929e-06 0.0 
-6.442142530929e-06 1.339568721789e-03 0.0 
0.0 0.0 -2.004389858384e-04 
-2.006688150029e-04 4.111887006866e-06 0.0 
4.111887006866e-06 1.340190933063e-03 0.0 
0.0 0.0 -2.003568725688e-04 
-2.004204281591e-04 -1.032720327526e-06 0.0 
-1.032720327526e-06 1.338293566306e-03 0.0 
0.0 0.0 -1.999970921405e-04 
-2.007190085647e-04 -7.221768717102e-07 0.0 
-7.221768717102e-07 1.338675392550e-03 0.0 
0.0 0.0 -2.003793839065e-04 
-1.990986785052e-04 -1.590259053479e-08 0.0 
-1.590259053479e-08 1.341350099485e-03 0.0 
0.0 0.0 -2.004146187826e-04 
-2.007914892723e-04 -4.264335361637e-07 0.0 
-4.264335361637e-07 1.339816171211e-03 0.0 
0.0 0.0 -2.002852565091e-04 
-1.994100966532e-04 -1.572894639504e-06 0.0 
-1.572894639504e-06 1.338161131957e-03 0.0 
0.0 0.0 -2.001446319728e-04 
-2.007511256741e-04 1.494960023589e-06 0.0 
1.494960023589e-06 1.335513206817e-03 0.0 
0.0 0.0 -1.998462653075e-04 
-2.008601944157e-04 -3.837724735001e-07 0.0 
-3.837724735001e-07 1.334384440132e-03 0.0 
0.0 0.0 -1.998029376683e-04 
-1.990688471561e-04 2.458886044848e-07 0.0 
2.458886044848e-07 1.337655076969e-03 0.0 
0.0 0.0 -2.000088186226e-04 
-2.001853082778e-04 -6.402158915260e-07 0.0 
-6.402158915260e-07 1.339281899659e-03 0.0 
0.0 0.0 -2.002091174222e-04 
-2.005241707287e-04 -7.501540653689e-07 0.0 
-7.501540653689e-07 1.339203182872e-03 0.0 
0.0 0.0 -2.004865334549e-04 
-2.005853306472e-04 2.540125145858e-06 0.0 
2.540125145858e-06 1.339503555012e-03 0.0 
0.0 0.0 -2.003832587333e-04 
-1.997808965748e-04 -1.605993664681e-07 0.0 
-1.605993664681e-07 1.339666309980e-03 0.0 
0.0 0.0 -2.002174839672e-04 
-2.003075530794e-04 4.838064349887e-07 0.0 
4.838064349887e-07 1.338766324707e-03 0.0 
0.0 0.0 -2.002580803729e-04 
-2.003470639015e-04 -2.444069971792e-07 0.0 
-2.444069971792e-07 1.338072796155e-03 0.0 
0.0 0.0 -2.002440284024e-04 
-2.004510673748e-04 -1.928377971682e-07 0.0 
-1.928377971682e-07 1.340065919944e-03 0.0 
0.0 0.0 -2.002334986692e-04 
-1.995883615915e-04 -7.312419057630e-07 0.0 
-7.312419057630e-07 1.340320439837e-03 0.0 
0.0 0.0 -2.003661129950e-04 
-2.011747927060e-04 -8.722415594417e-07 0.0 
-8.722415594417e-07 1.340079435223e-03 0.0 
0.0 0.0 -2.004908485340e-04 
-1.995361419384e-04 -6.780112919620e-07 0.0 
-6.780112919620e-07 1.340717740891e-03 0.0 
0.0 0.0 -2.004762665914e-04 
-2.008009995012e-04 -8.793815483888e-07 0.0 
-8.793815483888e-07 1.341377617168e-03 0.0 
0.0 0.0 -2.003014926434e-04 
-2.004900975472e-04 -5.374113392905e-06 0.0 
-5.374113392905e-06 1.342707157093e-03 0.0 
0.0 0.0 -2.006997735404e-04 
-2.011614755125e-04 5.177742394411e-06 0.0 
5.177742394411e-06 1.341994191491e-03 0.0 
0.0 0.0 -2.005870641008e-04 
-2.001672680472e-04 1.642921574497e-06 0.0 
1.642921574497e-06 1.338462129955e-03 0.0 
0.0 0.0 -2.000675234999e-04 
-1.999895739659e-04 -6.988816100794e-09 0.0 
-6.988816100794e-09 1.336248125534e-03 0.0 
0.0 0.0 -2.001823097425e-04 
-2.001225026340e-04 -1.240829705364e-06 0.0 
-1.240829705364e-06 1.339474803775e-03 0.0 
0.0 0.0 -2.001929620191e-04 
-1.997428951088e-04 -2.864922555170e-07 0.0 
-2.864922555170e-07 1.339287980767e-03 0.0 
0.0 0.0 -2.002863172658e-04 
-2.011305945918e-04 -1.592599752619e-06 0.0 
-1.592599752619e-06 1.339001312879e-03 0.0 
0.0 0.0 -2.003537156312e-04 
-1.994489271156e-04 -3.123074052844e-07 0.0 
-3.123074052844e-07 1.340206734430e-03 0.0 
0.0 0.0 -2.003469717371e-04 
-2.008676553467e-04 -6.044515584196e-08 0.0 
-6.044515584196e-08 1.338725412238e-03 0.0 
0.0 0.0 -2.002396863610e-04 
-1.992453131624e-04 -1.009025233623e-06 0.0 
-1.009025233623e-06 1.337264745438e-03 0.0 
0.0 0.0 -2.001151187552e-04 
-2.007508866938e-04 2.802615914654e-07 0.0 
2.802615914654e-07 1.337086357069e-03 0.0 
0.0 0.0 -1.998355947622e-04 
-2.010860201950e-04 -2.268840142145e-06 0.0 
-2.268840142145e-06 1.337518567927e-03 0.0 
0.0 0.0 -2.000624918399e-04 
-1.999308478327e-04 1.605132680389e-06 0.0 
1.605132680389e-06 1.340948129084e-03 0.0 
0.0 0.0 -2.004978758543e-04 
-1.989515291925e-04 -1.597226336294e-06 0.0 
-1.597226336294e-06 1.342999130641e-03 0.0 
0.0 0.0 -2.005641941534e-04 
-2.002462740351e-04 -1.655488014151e-06 0.0 
-1.655488014151e-06 1.333093131656e-03 0.0 
0.0 0.0 -1.993486092159e-04 
-1.990090833406e-04 5.684559175637e-07 0.0 
5.684559175637e-07 1.340609276749e-03 0.0 
0.0 0.0 -2.003850096553e-04 
-2.008054096670e-04 9.372155481800e-08 0.0 
9.372155481800e-08 1.339007845984e-03 0.0 
0.0 0.0 -1.998785251170e-04 
-2.008250670669e-04 -6.084757154766e-06 0.0 
-6.084757154766e-06 1.338299561836e-03 0.0 
0.0 0.0 -2.002828574513e-04 
-2.004005035862e-04 2.502291620358e-06 0.0 
2.502291620358e-06 1.342657178018e-03 0.0 
0.0 0.0 -2.004849633189e-04 
-2.007882536758e-04 -1.247747538696e-07 0.0 
-1.247747538696e-07 1.343259988120e-03 0.0 
0.0 0.0 -2.003783523096e-04 
-1.146671904274e-04 -1.178176757847e-05 0.0 
-1.178176757847e-05 7.450986713540e-04 0.0 
0.0 0.0 -1.147343130870e-04 
-1.264453810116e-04 -1.334151081515e-05 0.0 
-1.334151081515e-05 8.198209596703e-04 0.0 
0.0 0.0 -1.244847198447e-04 
-1.356765189360e-04 -1.297470350471e-05 0.0 
-1.297470350471e-05 8.891398730811e-04 0.0 
0.0 0.0 -1.343891602869e-04 
-1.452353386135e-04 -1.385252952600e-05 0.0 
-1.385252952600e-05 9.563155137830e-04 0.0 
0.0 0.0 -1.441570129583e-04 
-1.551452079967e-04 -1.219781350268e-05 0.0 
-1.219781350268e-05 1.026181140671e-03 0.0 
0.0 0.0 -1.540481715075e-04 
-1.626979226826e-04 -1.337619385664e-05 0.0 
-1.337619385664e-05 1.096146543984e-03 0.0 
0.0 0.0 -1.639185295300e-04 
-1.730204163278e-04 -1.189570542028e-05 0.0 
-1.189570542028e-05 1.165335265964e-03 0.0 
0.0 0.0 -1.737435638217e-04 
-1.827904030233e-04 -1.370279642459e-05 0.0 
-1.370279642459e-05 1.231374955592e-03 0.0 
0.0 0.0 -1.836722557877e-04 
-1.920175721782e-04 -1.513479483673e-05 0.0 
-1.513479483673e-05 1.306410256595e-03 0.0 
0.0 0.0 -1.933173094176e-04 
-7.497332614260e-07 2.909828663361e-06 0.0 
2.909828663361e-06 1.136640984800e-05 0.0 
0.0 0.0 -3.698608671677e-06 
7.507168590663e-06 -2.440133089221e-05 0.0 
-2.440133089221e-05 1.245116303274e-05 0.0 
0.0 0.0 -6.976460237148e-06 
-1.048316007749e-04 -9.621305853345e-07 0.0 
-9.621305853345e-07 6.811678198845e-04 0.0 
0.0 0.0 -1.041824356080e-04 
-9.346526880540e-06 1.673081080163e-06 0.0 
1.673081080163e-06 4.662005742906e-05 0.0 
0.0 0.0 -1.170221341000e-05 
-2.190865156101e-05 2.226069226360e-06 0.0 
2.226069226360e-06 1.165588744570e-04 0.0 
0.0 0.0 -2.374946025290e-05 
-3.172273434562e-05 2.609174110429e-06 0.0 
2.609174110429e-06 1.868917573465e-04 0.0 
0.0 0.0 -3.377761721591e-05 
-4.239577254127e-05 2.241292013526e-06 0.0 
2.241292013526e-06 2.540904609616e-04 0.0 
0.0 0.0 -4.361962961408e-05 
-5.200855234888e-05 2.436357541103e-06 0.0 
2.436357541103e-06 3.241483764866e-04 0.0 
0.0 0.0 -5.364127140931e-05 
-6.051274250007e-05 -6.301292665322e-07 0.0 
-6.301292665322e-07 3.944343599617e-04 0.0 
0.0 0.0 -6.369887817887e-05 
-7.141834889080e-05 9.678265043949e-08 0.0 
9.678265043949e-08 4.646211674391e-04 0.0 
0.0 0.0 -7.370455344612e-05 
-8.170243524055e-05 5.000006177168e-08 0.0 
5.000006177168e-08 5.347878226306e-04 0.0 
0.0 0.0 -8.371130494101e-05 
-9.180060726483e-05 -4.722006417284e-07 0.0 
-4.722006417284e-07 6.049326733472e-04 0.0 
0.0 0.0 -9.373011205136e-05 
-1.006023299141e-05 -2.003476382911e-05 0.0 
-2.003476382911e-05 5.162983604106e-05 0.0 
0.0 0.0 -1.280120591508e-05 
-2.463885833346e-05 -2.968724905013e-05 0.0 
-2.968724905013e-05 1.222961352773e-04 0.0 
0.0 0.0 -2.400000000000e-05 
-3.481144295916e-05 -2.407763231895e-05 0.0 
-2.407763231895e-05 1.915090082020e-04 0.0 
0.0 0.0 -3.400000000000e-05 
-4.479954490040e-05 -3.034758567600e-05 0.0 
-3.034758567600e-05 2.608172571825e-04 0.0 
0.0 0.0 -4.400000000000e-05 
-5.460502904689e-05 -2.471936197141e-05 0.0 
-2.471936197141e-05 3.301921564289e-04 0.0 
0.0 0.0 -5.400000000000e-05 
-6.456638670251e-05 -3.069381358953e-05 0.0 
-3.069381358953e-05 3.997152644097e-04 0.0 
0.0 0.0 -6.400000000000e-05 
-7.449630958426e-05 -2.494664394193e-05 0.0 
-2.494664394193e-05 4.692561610563e-04 0.0 
0.0 0.0 -7.400000000000e-05 
-8.434259877890e-05 -3.002568002087e-05 0.0 
-3.002568002087e-05 5.385348917960e-04 0.0 
0.0 0.0 -8.400000000000e-05 
-9.370207488884e-05 -2.126272979996e-05 0.0 
-2.126272979996e-05 6.064301356153e-04 0.0 
0.0 0.0 -9.400000000000e-05 
-1.036969649510e-04 8.247914357618e-06 0.0 
8.247914357618e-06 6.682236523530e-04 0.0 
0.0 0.0 -1.031244360596e-04 
-1.030331121809e-04 6.398061947281e-07 0.0 
6.398061947281e-07 6.730085857154e-04 0.0 
0.0 0.0 -1.036639830904e-04 
-1.040246848300e-04 6.551258288294e-07 0.0 
6.551258288294e-07 6.737003815122e-04 0.0 
0.0 0.0 -1.036786795573e-04 
-1.036199691061e-04 -1.060092899920e-06 0.0 
-1.060092899920e-06 6.728402332334e-04 0.0 
0.0 0.0 -1.035503476195e-04 
-1.036187730866e-04 6.987826892712e-07 0.0 
6.987826892712e-07 6.843234116976e-04 0.0 
0.0 0.0 -1.047113471711e-04 
-1.033931728263e-04 8.121956357098e-07 0.0 
8.121956357098e-07 6.742373380345e-04 0.0 
0.0 0.0 -1.036717283195e-04 
-1.019647128334e-04 -9.227752753182e-07 0.0 
-9.227752753182e-07 6.731432047700e-04 0.0 
0.0 0.0 -1.035575096558e-04 
-1.024936313905e-04 1.772285713447e-06 0.0 
1.772285713447e-06 6.748371062497e-04 0.0 
0.0 0.0 -1.035838249569e-04 
-1.042470993802e-04 3.635416729023e-07 0.0 
3.635416729023e-07 6.762559263978e-04 0.0 
0.0 0.0 -1.038366668071e-04 
-1.045602445557e-04 1.897285970682e-06 0.0 
1.897285970682e-06 6.765304608455e-04 0.0 
0.0 0.0 -1.037414779538e-04 
-1.033276288020e-04 1.064407616834e-06 0.0 
1.064407616834e-06 6.759918874459e-04 0.0 
0.0 0.0 -1.036749887244e-04 
-1.038467522998e-04 5.163460192194e-07 0.0 
5.163460192194e-07 6.750993881616e-04 0.0 
0.0 0.0 -1.036742376103e-04 
-1.031100844336e-04 2.320623075698e-06 0.0 
2.320623075698e-06 6.745066352922e-04 0.0 
0.0 0.0 -1.037248800197e-04 
-1.035625589850e-04 3.164755832638e-06 0.0 
3.164755832638e-06 6.761520668862e-04 0.0 
0.0 0.0 -1.038372224314e-04 
-3.888660396223e-06 -2.385114651317e-06 0.0 
-2.385114651317e-06 2.042711759429e-05 0.0 
0.0 0.0 -4.472331749510e-06 
-5.169101753905e-06 -7.084154542495e-07 0.0 
-7.084154542495e-07 2.271348961565e-05 0.0 
0.0 0.0 -4.502040609288e-06 
-2.364246160799e-06 1.028376057694e-06 0.0 
1.028376057694e-06 2.131091607623e-05 0.0 
0.0 0.0 -4.337518410806e-06 
-1.587498611084e-06 -3.133011703373e-06 0.0 
-3.133011703373e-06 2.050781746996e-05 0.0 
0.0 0.0 -4.334754490686e-06 
-5.046560316982e-06 -4.634948452893e-06 0.0 
-4.634948452893e-06 2.392890582554e-05 0.0 
0.0 0.0 -4.561117883842e-06 
-6.265007612969e-06 -9.207565944816e-07 0.0 
-9.207565944816e-07 2.697395437511e-05 0.0 
0.0 0.0 -4.603166802451e-06 
-5.736513677339e-06 8.387511243070e-08 0.0 
8.387511243070e-08 2.687139260663e-05 0.0 
0.0 0.0 -4.588253942932e-06 
-4.839540945368e-06 -2.011555288387e-07 0.0 
-2.011555288387e-07 2.583465999306e-05 0.0 
0.0 0.0 -4.580819930830e-06 
-4.612792911559e-06 -5.630253563300e-07 0.0 
-5.630253563300e-07 2.605477154738e-05 0.0 
0.0 0.0 -4.566377142626e-06 
-3.958290915494e-06 -1.184167375848e-06 0.0 
-1.184167375848e-06 2.564531167106e-05 0.0 
0.0 0.0 -4.572797242577e-06 
-4.022129294500e-06 -2.439723680986e-06 0.0 
-2.439723680986e-06 2.664958176089e-05 0.0 
0.0 0.0 -4.590091569785e-06 
-6.268342663527e-06 6.977096205287e-07 0.0 
6.977096205287e-07 2.905288206764e-05 0.0 
0.0 0.0 -4.700025780019e-06 
-5.376994636987e-06 4.381417467922e-06 0.0 
4.381417467922e-06 2.721428218001e-05 0.0 
0.0 0.0 -4.652230755744e-06 
-2.838762493559e-06 1.392931258625e-06 0.0 
1.392931258625e-06 2.367722917541e-05 0.0 
0.0 0.0 -4.515582628821e-06 
-3.990779392774e-06 -6.597448414294e-07 0.0 
-6.597448414294e-07 2.387859913914e-05 0.0 
0.0 0.0 -4.562958168800e-06 
-6.201113197701e-06 2.425591329864e-07 0.0 
2.425591329864e-07 2.634678490736e-05 0.0 
0.0 0.0 -4.590849357655e-06 
-6.954870756755e-06 8.464675035122e-07 0.0 
8.464675035122e-07 2.697964767619e-05 0.0 
0.0 0.0 -4.587172474505e-06 
-4.599856540822e-06 4.128708826148e-06 0.0 
4.128708826148e-06 2.250512897823e-05 0.0 
0.0 0.0 -4.562260372237e-06 
-2.212869655358e-06 7.040915964333e-07 0.0 
7.040915964333e-07 1.983031900883e-05 0.0 
0.0 0.0 -4.417496077222e-06 
2.539045337415e-06 4.411960487153e-06 0.0 
4.411960487153e-06 4.873044987283e-06 0.0 
0.0 0.0 -2.323206077460e-06 
-6.207103909933e-06 3.570588106467e-06 0.0 
3.570588106467e-06 2.687471220839e-05 0.0 
0.0 0.0 -5.368197278910e-06 
-7.623936683911e-06 3.461158221580e-06 0.0 
3.461158221580e-06 3.288776812873e-05 0.0 
0.0 0.0 -4.888888888889e-06 
-5.856740181518e-06 1.978738216284e-06 0.0 
1.978738216284e-06 3.186464535312e-05 0.0 
0.0 0.0 -4.888888888889e-06 
-5.997634064634e-06 6.309917702729e-07 0.0 
6.309917702729e-07 3.286648965242e-05 0.0 
0.0 0.0 -4.888888888889e-06 
-5.397842864409e-06 3.749810771834e-07 0.0 
3.749810771834e-07 3.238529682949e-05 0.0 
0.0 0.0 -4.888888888889e-06 
-5.449230849535e-06 4.323432095642e-08 0.0 
4.323432095642e-08 3.260803072497e-05 0.0 
0.0 0.0 -4.888888888889e-06 
-5.382447997953e-06 -4.138361064288e-08 0.0 
-4.138361064288e-08 3.253949010675e-05 0.0 
0.0 0.0 -4.888888888889e-06 
-5.469960506008e-06 -3.188901895322e-08 0.0 
-3.188901895322e-08 3.265004714761e-05 0.0 
0.0 0.0 -4.888888888889e-06 
-5.443016047936e-06 4.718806919682e-08 0.0 
4.718806919682e-08 3.261746512993e-05 0.0 
0.0 0.0 -4.888888888889e-06 
-5.406817533084e-06 1.047935932131e-07 0.0 
1.047935932131e-07 3.260748793420e-05 0.0 
0.0 0.0 -4.888888888889e-06 
-5.328179817189e-06 1.300916117552e-07 0.0 
1.300916117552e-07 3.256347967804e-05 0.0 
0.0 0.0 -4.888888888889e-06 
-5.250526075197e-06 1.250396849767e-07 0.0 
1.250396849767e-07 3.253119044528e-05 0.0 
0.0 0.0 -4.888888888889e-06 
-5.173876946523e-06 9.827208876550e-08 0.0 
9.827208876550e-08 3.249678802451e-05 0.0 
0.0 0.0 -4.888888888889e-06 
-5.113068174505e-06 5.738400216129e-08 0.0 
5.738400216129e-08 3.247104984196e-05 0.0 
0.0 0.0 -4.888888888889e-06 
-5.072265994685e-06 9.831185685760e-09 0.0 
9.831185685760e-09 3.245299893778e-05 0.0 
0.0 0.0 -4.888888888889e-06 
-5.055584786382e-06 -3.725486933261e-08 0.0 
-3.725486933261e-08 3.244501066611e-05 0.0 
0.0 0.0 -4.888888888889e-06 
-5.062825812938e-06 -7.838491343490e-08 0.0 
-7.838491343490e-08 3.244639632318e-05 0.0 
0.0 0.0 -4.888888888889e-06 
-5.092099599444e-06 -1.096287747285e-07 0.0 
-1.096287747285e-07 3.245647360678e-05 0.0 
0.0 0.0 -4.888888888889e-06 
-5.139490527478e-06 -1.305280561856e-07 0.0 
-1.305280561856e-07 3.247300678176e-05 0.0 
0.0 0.0 -4.888888888889e-06 
-5.201301051917e-06 -1.455334928208e-07 0.0 
-1.455334928208e-07 3.249335116734e-05 0.0 
0.0 0.0 -4.888888888889e-06 
-5.276861942203e-06 -1.640516331478e-07 0.0 
-1.640516331478e-07 3.251541585601e-05 0.0 
0.0 0.0 -4.888888888889e-06 
-5.371719030757e-06 -2.005095963770e-07 0.0 
-2.005095963770e-07 3.253814801839e-05 0.0 
0.0 0.0 -4.888888888889e-06 
-5.501851205830e-06 -2.770062143454e-07 0.0 
-2.770062143454e-07 3.256115567106e-05 0.0 
0.0 0.0 -4.888888888889e-06 
-5.701954009009e-06 -4.298729370662e-07 0.0 
-4.298729370662e-07 3.258411343349e-05 0.0 
0.0 0.0 -4.888888888889e-06 
-6.042442495562e-06 -7.171329530361e-07 0.0 
-7.171329530361e-07 3.260654873792e-05 0.0 
0.0 0.0 -4.888888888889e-06 
-6.658230047512e-06 -1.126911354743e-06 0.0 
-1.126911354743e-06 3.264441730546e-05 0.0 
0.0 0.0 -4.888888888889e-06 
-8.073606131847e-06 -4.295023639255e-07 0.0 
-4.295023639255e-07 3.301350902524e-05 0.0 
0.0 0.0 -4.888888888889e-06 
-4.063233868980e-06 6.144718738465e-06 0.0 
6.144718738465e-06 2.749718309355e-05 0.0 
0.0 0.0 -6.283480028778e-06 
-9.882961242332e-06 1.532675529387e-05 0.0 
1.532675529387e-05 5.061602154996e-05 0.0 
0.0 0.0 -1.206430388352e-05 
-1.130997964628e-05 -1.311248560564e-06 0.0 
-1.311248560564e-06 5.233195156747e-05 0.0 
0.0 0.0 -1.032858542268e-05 
-1.078785340633e-05 -1.299723966920e-06 0.0 
-1.299723966920e-06 5.435792112039e-05 0.0 
0.0 0.0 -1.001353592223e-05 
-1.064491853088e-05 -1.061545411292e-06 0.0 
-1.061545411292e-06 5.472366985072e-05 0.0 
0.0 0.0 -1.003163941075e-05 
-1.054673351510e-05 -7.928039604306e-07 0.0 
-7.928039604306e-07 5.482644552960e-05 0.0 
0.0 0.0 -1.003836552903e-05 
-1.046948900053e-05 -5.891972164166e-07 0.0 
-5.891972164166e-07 5.487168311959e-05 0.0 
0.0 0.0 -1.004168846466e-05 
-1.040737256059e-05 -4.524373736262e-07 0.0 
-4.524373736262e-07 5.488965048961e-05 0.0 
0.0 0.0 -1.004336325648e-05 
-1.035573478207e-05 -3.633600444580e-07 0.0 
-3.633600444580e-07 5.489225715737e-05 0.0 
0.0 0.0 -1.004413609912e-05 
-1.031152629486e-05 -3.007143581293e-07 0.0 
-3.007143581293e-07 5.488585669464e-05 0.0 
0.0 0.0 -1.004438679957e-05 
-1.027365628995e-05 -2.462565188196e-07 0.0 
-2.462565188196e-07 5.487437400648e-05 0.0 
0.0 0.0 -1.004433978952e-05 
-1.024290884854e-05 -1.861183255412e-07 0.0 
-1.861183255412e-07 5.486097987688e-05 0.0 
0.0 0.0 -1.004416647075e-05 
-1.022157598377e-05 -1.122704266923e-07 0.0 
-1.122704266923e-07 5.484925839696e-05 0.0 
0.0 0.0 -1.004404642166e-05 
-1.021227949655e-05 -2.490466329865e-08 0.0 
-2.490466329865e-08 5.484271567991e-05 0.0 
0.0 0.0 -1.004407776004e-05 
-1.021688599119e-05 6.914708000912e-08 0.0 
6.914708000912e-08 5.484392635412e-05 0.0 
0.0 0.0 -1.004431975645e-05 
-1.023535480891e-05 1.597437216476e-07 0.0 
1.597437216476e-07 5.485292292874e-05 0.0 
0.0 0.0 -1.004465120542e-05 
-1.026729867024e-05 2.379033231958e-07 0.0 
2.379033231958e-07 5.487134187272e-05 0.0 
0.0 0.0 -1.004532196792e-05 
-1.030825454255e-05 2.900290144290e-07 0.0 
2.900290144290e-07 5.489433400721e-05 0.0 
0.0 0.0 -1.004574428177e-05 
-1.035766723191e-05 3.127602393088e-07 0.0 
3.127602393088e-07 5.492856464023e-05 0.0 
0.0 0.0 -1.004707064765e-05 
-1.040140039049e-05 2.880700134456e-07 0.0 
2.880700134456e-07 5.495038640449e-05 0.0 
0.0 0.0 -1.004660840896e-05 
-1.045336850457e-05 2.396567801393e-07 0.0 
2.396567801393e-07 5.500686066706e-05 0.0 
0.0 0.0 -1.005016487945e-05 
-1.046034253679e-05 9.729329182358e-08 0.0 
9.729329182358e-08 5.498004562063e-05 0.0 
0.0 0.0 -1.004457373934e-05 
-1.050118825337e-05 4.944250167636e-08 0.0 
4.944250167636e-08 5.506832520738e-05 0.0 
0.0 0.0 -1.005396406496e-05 
-1.039145271317e-05 -9.341065744536e-08 0.0 
-9.341065744536e-08 5.477834438643e-05 0.0 
0.0 0.0 -1.002717053119e-05 
-1.053878983354e-05 4.560712360478e-07 0.0 
4.560712360478e-07 5.510540869459e-05 0.0 
0.0 0.0 -1.006633486811e-05 
-1.027495575621e-05 2.290455840073e-07 0.0 
2.290455840073e-07 5.429908373274e-05 0.0 
0.0 0.0 -9.986860141720e-06 
-1.036550663115e-05 2.030236907059e-06 0.0 
2.030236907059e-06 5.548722502090e-05 0.0 
0.0 0.0 -1.029757127839e-05 
-1.136773923132e-05 -7.105068747308e-07 0.0 
-7.105068747308e-07 5.852791750092e-05 0.0 
0.0 0.0 -1.134931364301e-05 
-6.841146288080e-06 5.658915693423e-07 0.0 
5.658915693423e-07 4.031360266583e-05 0.0 
0.0 0.0 -9.175519120339e-06 
-1.670675977664e-05 1.804956787360e-06 0.0 
1.804956787360e-06 1.067148928642e-04 0.0 
0.0 0.0 -2.265414724211e-05 
-2.290621592614e-05 -3.091630924370e-07 0.0 
-3.091630924370e-07 1.240883479783e-04 0.0 
0.0 0.0 -2.388276823376e-05 
-2.269477043907e-05 1.997886048829e-06 0.0 
1.997886048829e-06 1.197255488093e-04 0.0 
0.0 0.0 -2.316430612094e-05 
-2.398870168427e-05 -3.323012308451e-07 0.0 
-3.323012308451e-07 1.195922013744e-04 0.0 
0.0 0.0 -2.320461651041e-05 
-2.372926498822e-05 2.999638817045e-07 0.0 
2.999638817045e-07 1.202550428962e-04 0.0 
0.0 0.0 -2.319224570726e-05 
-2.386165072123e-05 1.306696425380e-07 0.0 
1.306696425380e-07 1.201137343596e-04 0.0 
0.0 0.0 -2.320964891541e-05 
-2.372962849983e-05 5.359087631297e-07 0.0 
5.359087631297e-07 1.201786710641e-04 0.0 
0.0 0.0 -2.320584972990e-05 
-2.370366843909e-05 5.557250797166e-07 0.0 
5.557250797166e-07 1.200695257240e-04 0.0 
0.0 0.0 -2.320788439953e-05 
-2.364055254153e-05 6.556811718528e-07 0.0 
6.556811718528e-07 1.200422305152e-04 0.0 
0.0 0.0 -2.320479016773e-05 
-2.359652124157e-05 6.187009073350e-07 0.0 
6.187009073350e-07 1.199826033781e-04 0.0 
0.0 0.0 -2.320392604053e-05 
-2.354832904311e-05 5.510613716479e-07 0.0 
5.510613716479e-07 1.199427240655e-04 0.0 
0.0 0.0 -2.320217736079e-05 
-2.351193710526e-05 4.083182207957e-07 0.0 
4.083182207957e-07 1.199059037248e-04 0.0 
0.0 0.0 -2.320108428444e-05 
-2.348568120850e-05 2.370601607937e-07 0.0 
2.370601607937e-07 1.198850193294e-04 0.0 
0.0 0.0 -2.320008207297e-05 
-2.347459881453e-05 4.411833600342e-08 0.0 
4.411833600342e-08 1.198762385895e-04 0.0 
0.0 0.0 -2.319950862760e-05 
-2.347885012267e-05 -1.423218319884e-07 0.0 
-1.423218319884e-07 1.198823684905e-04 0.0 
0.0 0.0 -2.319923529282e-05 
-2.349544549566e-05 -3.042075311348e-07 0.0 
-3.042075311348e-07 1.198991579340e-04 0.0 
0.0 0.0 -2.319932400352e-05 
-2.351852396485e-05 -4.319078729137e-07 0.0 
-4.319078729137e-07 1.199190703214e-04 0.0 
0.0 0.0 -2.319961737138e-05 
-2.354325049981e-05 -5.334941944749e-07 0.0 
-5.334941944749e-07 1.199337388668e-04 0.0 
0.0 0.0 -2.319983770020e-05 
-2.356538542893e-05 -6.259067054886e-07 0.0 
-6.259067054886e-07 1.199368111975e-04 0.0 
0.0 0.0 -2.319963400980e-05 
-2.357999260863e-05 -7.299107931692e-07 0.0 
-7.299107931692e-07 1.199216217601e-04 0.0 
0.0 0.0 -2.319861046671e-05 
-2.357977981231e-05 -8.656972872806e-07 0.0 
-8.656972872806e-07 1.198790348215e-04 0.0 
0.0 0.0 -2.319616283225e-05 
-2.355345044047e-05 -1.042007697932e-06 0.0 
-1.042007697932e-06 1.197957316620e-04 0.0 
0.0 0.0 -2.319116510481e-05 
-2.348246708526e-05 -1.220880842288e-06 0.0 
-1.220880842288e-06 1.196528328530e-04 0.0 
0.0 0.0 -2.318111605090e-05 
-2.333405395254e-05 -1.118596732853e-06 0.0 
-1.118596732853e-06 1.194233883462e-04 0.0 
0.0 0.0 -2.315628644409e-05 
-2.298537973196e-05 2.257925313224e-06 0.0 
2.257925313224e-06 1.190517740643e-04 0.0 
0.0 0.0 -2.303387587177e-05 
-2.379438697783e-05 1.238319657452e-05 0.0 
1.238319657452e-05 1.209372856332e-04 0.0 
0.0 0.0 -2.359858829549e-05 
-2.635784649527e-05 3.023599991205e-06 0.0 
3.023599991205e-06 1.754994643042e-04 0.0 
0.0 0.0 -3.279586449964e-05 
-3.342957154738e-05 -1.428230834183e-06 0.0 
-1.428230834183e-06 1.937372714669e-04 0.0 
0.0 0.0 -3.439645528541e-05 
-3.433676816902e-05 1.423425013521e-06 0.0 
1.423425013521e-06 1.909850886953e-04 0.0 
0.0 0.0 -3.400000000000e-05 
-3.504811682074e-05 1.017276523045e-07 0.0 
1.017276523045e-07 1.903954401692e-04 0.0 
0.0 0.0 -3.400000000000e-05 
-3.475883280557e-05 8.275041871259e-07 0.0 
8.275041871259e-07 1.909295942363e-04 0.0 
0.0 0.0 -3.400000000000e-05 
-3.476718964368e-05 6.674693375523e-07 0.0 
6.674693375523e-07 1.905564479674e-04 0.0 
0.0 0.0 -3.400000000000e-05 
-3.465636554937e-05 8.034649928025e-07 0.0 
8.034649928025e-07 1.906219403581e-04 0.0 
0.0 0.0 -3.400000000000e-05 
-3.463333973170e-05 7.756039964563e-07 0.0 
7.756039964563e-07 1.904961722334e-04 0.0 
0.0 0.0 -3.400000000000e-05 
-3.455481925026e-05 7.446491180549e-07 0.0 
7.446491180549e-07 1.904484670683e-04 0.0 
0.0 0.0 -3.400000000000e-05 
-3.450861733375e-05 6.101627205472e-07 0.0 
6.101627205472e-07 1.903734959664e-04 0.0 
0.0 0.0 -3.400000000000e-05 
-3.445653623328e-05 4.290053438309e-07 0.0 
4.290053438309e-07 1.903323815166e-04 0.0 
0.0 0.0 -3.400000000000e-05 
-3.443063610829e-05 1.991945827126e-07 0.0 
1.991945827126e-07 1.903067296367e-04 0.0 
0.0 0.0 -3.400000000000e-05 
-3.442810645012e-05 -4.141107895420e-08 0.0 
-4.141107895420e-08 1.903121848046e-04 0.0 
0.0 0.0 -3.400000000000e-05 
-3.444817075231e-05 -2.580070050544e-07 0.0 
-2.580070050544e-07 1.903391032696e-04 0.0 
0.0 0.0 -3.400000000000e-05 
-3.447368869704e-05 -4.269536035544e-07 0.0 
-4.269536035544e-07 1.903730351739e-04 0.0 
0.0 0.0 -3.400000000000e-05 
-3.449570884593e-05 -5.530106626938e-07 0.0 
-5.530106626938e-07 1.903982130225e-04 0.0 
0.0 0.0 -3.400000000000e-05 
-3.450875738063e-05 -6.495177737791e-07 0.0 
-6.495177737791e-07 1.904058521572e-04 0.0 
0.0 0.0 -3.400000000000e-05 
-3.450560192681e-05 -7.304044745140e-07 0.0 
-7.304044745140e-07 1.903880482122e-04 0.0 
0.0 0.0 -3.400000000000e-05 
-3.447675244413e-05 -8.069657295755e-07 0.0 
-8.069657295755e-07 1.903364635921e-04 0.0 
0.0 0.0 -3.400000000000e-05 
-3.441055491183e-05 -8.828364346676e-07 0.0 
-8.828364346676e-07 1.902436989104e-04 0.0 
0.0 0.0 -3.400000000000e-05 
-3.429817085697e-05 -9.362193017797e-07 0.0 
-9.362193017797e-07 1.901102552784e-04 0.0 
0.0 0.0 -3.400000000000e-05 
-3.413811234369e-05 -8.868077408759e-07 0.0 
-8.868077408759e-07 1.899571004772e-04 0.0 
0.0 0.0 -3.400000000000e-05 
-3.397177696146e-05 -5.984876856420e-07 0.0 
-5.984876856420e-07 1.898800230821e-04 0.0 
0.0 0.0 -3.400000000000e-05 
-3.407836345250e-05 -3.059519767749e-07 0.0 
-3.059519767749e-07 1.903305099338e-04 0.0 
0.0 0.0 -3.400000000000e-05 
-3.460283539434e-05 1.705188566677e-05 0.0 
1.705188566677e-05 1.911985687843e-04 0.0 
0.0 0.0 -3.400000000000e-05 
-4.455327315977e-05 1.167838660116e-05 0.0 
1.167838660116e-05 2.604601866799e-04 0.0 
0.0 0.0 -4.400000000000e-05 
-4.411949662139e-05 2.747099334527e-06 0.0 
2.747099334527e-06 2.598190346923e-04 0.0 
0.0 0.0 -4.400000000000e-05 
-4.406401131858e-05 -2.627410997222e-07 0.0 
-2.627410997222e-07 2.596613345305e-04 0.0 
0.0 0.0 -4.400000000000e-05 
-4.413979454266e-05 -5.879314611794e-07 0.0 
-5.879314611794e-07 2.597036670706e-04 0.0 
0.0 0.0 -4.400000000000e-05 
-4.425161335125e-05 -6.632845015873e-07 0.0 
-6.632845015873e-07 2.598123821449e-04 0.0 
0.0 0.0 -4.400000000000e-05 
-4.435458459021e-05 -6.804876884903e-07 0.0 
-6.804876884903e-07 2.599204827840e-04 0.0 
0.0 0.0 -4.400000000000e-05 
-4.442806416961e-05 -6.802021940728e-07 0.0 
-6.802021940728e-07 2.599953638461e-04 0.0 
0.0 0.0 -4.400000000000e-05 
-4.446670361324e-05 -6.574637951664e-07 0.0 
-6.574637951664e-07 2.600301131491e-04 0.0 
0.0 0.0 -4.400000000000e-05 
-4.448172913590e-05 -6.048167667418e-07 0.0 
-6.048167667418e-07 2.600334851022e-04 0.0 
0.0 0.0 -4.400000000000e-05 
-4.448133099563e-05 -5.161692673206e-07 0.0 
-5.161692673206e-07 2.600126903058e-04 0.0 
0.0 0.0 -4.400000000000e-05 
-4.446956848312e-05 -3.874719342341e-07 0.0 
-3.874719342341e-07 2.599742191345e-04 0.0 
0.0 0.0 -4.400000000000e-05 
-4.444289703346e-05 -2.034956803443e-07 0.0 
-2.034956803443e-07 2.599215045726e-04 0.0 
0.0 0.0 -4.400000000000e-05 
-4.441849143332e-05 6.484075759357e-08 0.0 
6.484075759357e-08 2.598898736161e-04 0.0 
0.0 0.0 -4.400000000000e-05 
-4.443209793791e-05 3.465651675754e-07 0.0 
3.465651675754e-07 2.599002687236e-04 0.0 
0.0 0.0 -4.400000000000e-05 
-4.448687436373e-05 6.177294269502e-07 0.0 
6.177294269502e-07 2.599760522650e-04 0.0 
0.0 0.0 -4.400000000000e-05 
-4.455296902831e-05 7.215046356319e-07 0.0 
7.215046356319e-07 2.600309796975e-04 0.0 
0.0 0.0 -4.400000000000e-05 
-4.459092640311e-05 9.029734736165e-07 0.0 
9.029734736165e-07 2.601693669081e-04 0.0 
0.0 0.0 -4.400000000000e-05 
-4.464455030691e-05 7.094389924431e-07 0.0 
7.094389924431e-07 2.601428842768e-04 0.0 
0.0 0.0 -4.400000000000e-05 
-4.458090555975e-05 1.034786167333e-06 0.0 
1.034786167333e-06 2.603965205166e-04 0.0 
0.0 0.0 -4.400000000000e-05 
-4.467873362862e-05 4.574748873904e-07 0.0 
4.574748873904e-07 2.599271191011e-04 0.0 
0.0 0.0 -4.400000000000e-05 
-4.396213681874e-05 2.188574361429e-06 0.0 
2.188574361429e-06 2.605797292245e-04 0.0 
0.0 0.0 -4.400000000000e-05 
-4.354108487199e-05 -1.114121571067e-06 0.0 
-1.114121571067e-06 2.642457942881e-04 0.0 
0.0 0.0 -4.440087463557e-05 
-3.653623355074e-05 1.890043377624e-06 0.0 
1.890043377624e-06 2.461851802042e-04 0.0 
0.0 0.0 -4.280102040816e-05 
-4.613301209441e-05 3.619110181881e-06 0.0 
3.619110181881e-06 3.157829509857e-04 0.0 
0.0 0.0 -5.279515429360e-05 
-5.272430673223e-05 -9.182146848104e-07 0.0 
-9.182146848104e-07 3.334727456063e-04 0.0 
0.0 0.0 -5.439584653737e-05 
-5.380973540994e-05 1.644998673954e-06 0.0 
1.644998673954e-06 3.302664481471e-04 0.0 
0.0 0.0 -5.400000000000e-05 
-5.466689081061e-05 3.147190341774e-07 0.0 
3.147190341774e-07 3.296224174576e-04 0.0 
0.0 0.0 -5.400000000000e-05 
-5.456479812606e-05 8.907554722933e-07 0.0 
8.907554722933e-07 3.301278746856e-04 0.0 
0.0 0.0 -5.400000000000e-05 
-5.469843557399e-05 7.294571082761e-07 0.0 
7.294571082761e-07 3.297896585847e-04 0.0 
0.0 0.0 -5.400000000000e-05 
-5.455713654919e-05 8.293328218573e-07 0.0 
8.293328218573e-07 3.297859209611e-04 0.0 
0.0 0.0 -5.400000000000e-05 
-5.447176827306e-05 6.045948425803e-07 0.0 
6.045948425803e-07 3.295846238880e-04 0.0 
0.0 0.0 -5.400000000000e-05 
-5.439587138175e-05 2.699825687268e-07 0.0 
2.699825687268e-07 3.295445281644e-04 0.0 
0.0 0.0 -5.400000000000e-05 
-5.444020560872e-05 -9.373025041376e-08 0.0 
-9.373025041376e-08 3.295833112604e-04 0.0 
0.0 0.0 -5.400000000000e-05 
-5.448526328926e-05 -2.925786431971e-07 0.0 
-2.925786431971e-07 3.296759622065e-04 0.0 
0.0 0.0 -5.400000000000e-05 
-5.448521490030e-05 -4.042919985534e-07 0.0 
-4.042919985534e-07 3.297222213790e-04 0.0 
0.0 0.0 -5.400000000000e-05 
-5.446593747581e-05 -5.017291938270e-07 0.0 
-5.017291938270e-07 3.297482559229e-04 0.0 
0.0 0.0 -5.400000000000e-05 
-5.444715703514e-05 -5.661052701272e-07 0.0 
-5.661052701272e-07 3.297630960230e-04 0.0 
0.0 0.0 -5.400000000000e-05 
-5.441902664921e-05 -5.791858778638e-07 0.0 
-5.791858778638e-07 3.297520271910e-04 0.0 
0.0 0.0 -5.400000000000e-05 
-5.435489545421e-05 -5.320435298485e-07 0.0 
-5.320435298485e-07 3.296952773800e-04 0.0 
0.0 0.0 -5.400000000000e-05 
-5.425282743638e-05 -4.796851552699e-07 0.0 
-4.796851552699e-07 3.295926353122e-04 0.0 
0.0 0.0 -5.400000000000e-05 
-5.415150905155e-05 -4.389405642830e-07 0.0 
-4.389405642830e-07 3.294912033637e-04 0.0 
0.0 0.0 -5.400000000000e-05 
-5.408758113007e-05 -3.988049795922e-07 0.0 
-3.988049795922e-07 3.294501912325e-04 0.0 
0.0 0.0 -5.400000000000e-05 
-5.412553104182e-05 -4.108986155667e-07 0.0 
-4.108986155667e-07 3.295530381932e-04 0.0 
0.0 0.0 -5.400000000000e-05 
-5.432573387972e-05 -1.150061439258e-06 0.0 
-1.150061439258e-06 3.298496077656e-04 0.0 
0.0 0.0 -5.400000000000e-05 
-5.454235109009e-05 1.621095232876e-05 0.0 
1.621095232876e-05 3.301284745679e-04 0.0 
0.0 0.0 -5.400000000000e-05 
-6.449104081877e-05 1.102095358613e-05 0.0 
1.102095358613e-05 3.995973409364e-04 0.0 
0.0 0.0 -6.400000000000e-05 
-6.422906796569e-05 2.177518514987e-06 0.0 
2.177518514987e-06 3.992543368403e-04 0.0 
0.0 0.0 -6.400000000000e-05 
-6.408383134524e-05 -3.034071916938e-07 0.0 
-3.034071916938e-07 3.990967741269e-04 0.0 
0.0 0.0 -6.400000000000e-05 
-6.408041873393e-05 -3.033981082000e-07 0.0 
-3.033981082000e-07 3.990993988085e-04 0.0 
0.0 0.0 -6.400000000000e-05 
-6.413758657569e-05 -2.664267529371e-07 0.0 
-2.664267529371e-07 3.991827780022e-04 0.0 
0.0 0.0 -6.400000000000e-05 
-6.424201883682e-05 -2.687503912124e-07 0.0 
-2.687503912124e-07 3.993046003732e-04 0.0 
0.0 0.0 -6.400000000000e-05 
-6.435001536577e-05 -3.748421087071e-07 0.0 
-3.748421087071e-07 3.994006642501e-04 0.0 
0.0 0.0 -6.400000000000e-05 
-6.439349834041e-05 -4.644553275205e-07 0.0 
-4.644553275205e-07 3.993979902157e-04 0.0 
0.0 0.0 -6.400000000000e-05 
-6.439694071681e-05 -4.217729739727e-07 0.0 
-4.217729739727e-07 3.993619939022e-04 0.0 
0.0 0.0 -6.400000000000e-05 
-6.446545681239e-05 -3.034361081742e-07 0.0 
-3.034361081742e-07 3.993593597444e-04 0.0 
0.0 0.0 -6.400000000000e-05 
-6.453884953312e-05 -2.444575558042e-07 0.0 
-2.444575558042e-07 3.993592142806e-04 0.0 
0.0 0.0 -6.400000000000e-05 
-6.453841394424e-05 -2.364183723064e-07 0.0 
-2.364183723064e-07 3.992848240483e-04 0.0 
0.0 0.0 -6.400000000000e-05 
-6.443555698589e-05 -5.018406128309e-08 0.0 
-5.018406128309e-08 3.990730026429e-04 0.0 
0.0 0.0 -6.400000000000e-05 
-6.439006881427e-05 5.953405842576e-07 0.0 
5.953405842576e-07 3.990989476378e-04 0.0 
0.0 0.0 -6.400000000000e-05 
-6.459707428735e-05 8.270995238340e-07 0.0 
8.270995238340e-07 3.992307724164e-04 0.0 
0.0 0.0 -6.400000000000e-05 
-6.478530700370e-05 1.165018707171e-06 0.0 
1.165018707171e-06 3.997535009593e-04 0.0 
0.0 0.0 -6.400000000000e-05 
-6.492709823616e-05 1.223192506191e-07 0.0 
1.223192506191e-07 3.993858055679e-04 0.0 
0.0 0.0 -6.400000000000e-05 
-6.387749569822e-05 1.643573763821e-06 0.0 
1.643573763821e-06 3.997389601482e-04 0.0 
0.0 0.0 -6.400000000000e-05 
-6.329773463465e-05 -1.345766021157e-06 0.0 
-1.345766021157e-06 4.036796173873e-04 0.0 
0.0 0.0 -6.440087463557e-05 
-5.619569592719e-05 6.249853982819e-07 0.0 
6.249853982819e-07 3.855354190560e-04 0.0 
0.0 0.0 -6.280102040816e-05 
-6.626641426913e-05 1.378973851741e-06 0.0 
1.378973851741e-06 4.548482350430e-04 0.0 
0.0 0.0 -7.279421768707e-05 
-7.356607765690e-05 -1.854881774075e-06 0.0 
-1.854881774075e-06 4.734083990815e-04 0.0 
0.0 0.0 -7.439504373177e-05 
-7.451973324986e-05 1.818776252699e-06 0.0 
1.818776252699e-06 4.701147270985e-04 0.0 
0.0 0.0 -7.400000000000e-05 
-7.507189263132e-05 1.139871955262e-06 0.0 
1.139871955262e-06 4.690018492736e-04 0.0 
0.0 0.0 -7.400000000000e-05 
-7.440307977863e-05 1.316267280214e-06 0.0 
1.316267280214e-06 4.689046979315e-04 0.0 
0.0 0.0 -7.400000000000e-05 
-7.447964919174e-05 1.327643289489e-07 0.0 
1.327643289489e-07 4.685645119696e-04 0.0 
0.0 0.0 -7.400000000000e-05 
-7.463811246650e-05 -2.009510893623e-07 0.0 
-2.009510893623e-07 4.690373350481e-04 0.0 
0.0 0.0 -7.400000000000e-05 
-7.464635801585e-05 -7.665068053576e-08 0.0 
-7.665068053576e-08 4.691773352964e-04 0.0 
0.0 0.0 -7.400000000000e-05 
-7.456896915362e-05 6.486733144630e-08 0.0 
6.486733144630e-08 4.691551129947e-04 0.0 
0.0 0.0 -7.400000000000e-05 
-7.434965880918e-05 -2.979712214473e-08 0.0 
-2.979712214473e-08 4.690260974999e-04 0.0 
0.0 0.0 -7.400000000000e-05 
-7.428013090329e-05 -3.745306366773e-07 0.0 
-3.745306366773e-07 4.690784611457e-04 0.0 
0.0 0.0 -7.400000000000e-05 
-7.436926452788e-05 -3.179218437662e-07 0.0 
-3.179218437662e-07 4.692164839065e-04 0.0 
0.0 0.0 -7.400000000000e-05 
-7.420923464376e-05 -8.861031691496e-08 0.0 
-8.861031691496e-08 4.691097441108e-04 0.0 
0.0 0.0 -7.400000000000e-05 
-7.408672818249e-05 -9.997158663719e-08 0.0 
-9.997158663719e-08 4.689363840629e-04 0.0 
0.0 0.0 -7.400000000000e-05 
-7.401015679154e-05 -2.369586485918e-07 0.0 
-2.369586485918e-07 4.688345953373e-04 0.0 
0.0 0.0 -7.400000000000e-05 
-7.402043488264e-05 -3.858604555162e-07 0.0 
-3.858604555162e-07 4.687795838329e-04 0.0 
0.0 0.0 -7.400000000000e-05 
-7.406733317633e-05 -8.624702852559e-07 0.0 
-8.624702852559e-07 4.688475136122e-04 0.0 
0.0 0.0 -7.400000000000e-05 
-7.437229827430e-05 -1.941892756436e-06 0.0 
-1.941892756436e-06 4.691620651443e-04 0.0 
0.0 0.0 -7.400000000000e-05 
-7.450735550024e-05 1.576544860626e-05 0.0 
1.576544860626e-05 4.693163051132e-04 0.0 
0.0 0.0 -7.400000000000e-05 
-8.485563316515e-05 1.075809198226e-05 0.0 
1.075809198226e-05 5.391859337594e-04 0.0 
0.0 0.0 -8.400000000000e-05 
-8.409846415960e-05 9.414650263605e-07 0.0 
9.414650263605e-07 5.383995603087e-04 0.0 
0.0 0.0 -8.400000000000e-05 
-8.389555484943e-05 -6.021980322684e-07 0.0 
-6.021980322684e-07 5.381860091551e-04 0.0 
0.0 0.0 -8.400000000000e-05 
-8.398436323506e-05 -4.920223144165e-07 0.0 
-4.920223144165e-07 5.383843948043e-04 0.0 
0.0 0.0 -8.400000000000e-05 
-8.378599896788e-05 -1.313884382087e-07 0.0 
-1.313884382087e-07 5.383410839076e-04 0.0 
0.0 0.0 -8.400000000000e-05 
-8.397004303126e-05 1.320895791523e-07 0.0 
1.320895791523e-07 5.385599452968e-04 0.0 
0.0 0.0 -8.400000000000e-05 
-8.409172541067e-05 3.119498635538e-07 0.0 
3.119498635538e-07 5.388399091460e-04 0.0 
0.0 0.0 -8.400000000000e-05 
-8.425202054181e-05 -4.105999003094e-07 0.0 
-4.105999003094e-07 5.388170517081e-04 0.0 
0.0 0.0 -8.400000000000e-05 
-8.405009752117e-05 1.267934535994e-07 0.0 
1.267934535994e-07 5.383656166005e-04 0.0 
0.0 0.0 -8.400000000000e-05 
-8.446225278370e-05 7.431195345640e-07 0.0 
7.431195345640e-07 5.387309105085e-04 0.0 
0.0 0.0 -8.400000000000e-05 
-8.472976723877e-05 3.614371366169e-07 0.0 
3.614371366169e-07 5.389575801292e-04 0.0 
0.0 0.0 -8.400000000000e-05 
-8.468281700183e-05 1.764545941254e-07 0.0 
1.764545941254e-07 5.387723880717e-04 0.0 
0.0 0.0 -8.400000000000e-05 
-8.488166774851e-05 3.307409063185e-08 0.0 
3.307409063185e-08 5.387187096913e-04 0.0 
0.0 0.0 -8.400000000000e-05 
-8.470036612902e-05 2.233472977468e-07 0.0 
2.233472977468e-07 5.376128164124e-04 0.0 
0.0 0.0 -8.400000000000e-05 
-8.431282722659e-05 3.361858424154e-06 0.0 
3.361858424154e-06 5.388019778082e-04 0.0 
0.0 0.0 -8.400000000000e-05 
-8.416442060440e-05 -6.991529090742e-07 0.0 
-6.991529090742e-07 5.438481516276e-04 0.0 
0.0 0.0 -8.440087463557e-05 
-7.699797766990e-05 8.136884982108e-07 0.0 
8.136884982108e-07 5.256926397960e-04 0.0 
0.0 0.0 -8.280102040816e-05 
-8.729514730737e-05 2.431575192883e-06 0.0 
2.431575192883e-06 5.952071725442e-04 0.0 
0.0 0.0 -9.279292626141e-05 
-9.515402825116e-05 -3.487467194031e-07 0.0 
-3.487467194031e-07 6.124983923015e-04 0.0 
0.0 0.0 -9.439393679549e-05 
-9.530518963518e-05 1.748549076388e-06 0.0 
1.748549076388e-06 6.086982827348e-04 0.0 
0.0 0.0 -9.400000000000e-05 
-9.443822007151e-05 1.536080356852e-06 0.0 
1.536080356852e-06 6.081273132837e-04 0.0 
0.0 0.0 -9.400000000000e-05 
-9.455496517287e-05 4.180655032130e-07 0.0 
4.180655032130e-07 6.085997108048e-04 0.0 
0.0 0.0 -9.400000000000e-05 
-9.458632400686e-05 1.150725883443e-06 0.0 
1.150725883443e-06 6.089170576803e-04 0.0 
0.0 0.0 -9.400000000000e-05 
-9.431195159654e-05 1.533006736186e-06 0.0 
1.533006736186e-06 6.081280804878e-04 0.0 
0.0 0.0 -9.400000000000e-05 
-9.421230709675e-05 -1.354647329153e-07 0.0 
-1.354647329153e-07 6.080912884899e-04 0.0 
0.0 0.0 -9.400000000000e-05 
-9.337909431243e-05 6.942444443618e-07 0.0 
6.942444443618e-07 6.085993616068e-04 0.0 
0.0 0.0 -9.400000000000e-05 
-9.374302250683e-05 3.925743234368e-08 0.0 
3.925743234368e-08 6.082422955829e-04 0.0 
0.0 0.0 -9.400000000000e-05 
-9.357184311787e-05 3.344127971799e-07 0.0 
3.344127971799e-07 6.080020201806e-04 0.0 
0.0 0.0 -9.400000000000e-05 
-9.351707113181e-05 -1.166879688300e-06 0.0 
-1.166879688300e-06 6.078331273393e-04 0.0 
0.0 0.0 -9.400000000000e-05 
-9.397267376399e-05 -4.718022942719e-07 0.0 
-4.718022942719e-07 6.082084038474e-04 0.0 
0.0 0.0 -9.400000000000e-05 
-9.376740862845e-05 -1.478812201538e-06 0.0 
-1.478812201538e-06 6.074134740605e-04 0.0 
0.0 0.0 -9.400000000000e-05 
-9.429475212128e-05 -5.091328171579e-06 0.0 
-5.091328171579e-06 6.089719886990e-04 0.0 
0.0 0.0 -9.400000000000e-05 
-9.572461714176e-05 1.686230062982e-05 0.0 
1.686230062982e-05 6.103161186201e-04 0.0 
0.0 0.0 -9.400000000000e-05 
-3.146443340347e-06 1.959503717313e-06 0.0 
1.959503717313e-06 2.029477108027e-05 0.0 
0.0 0.0 -7.025971519970e-06 
-1.565128404079e-05 4.091326684888e-06 0.0 
4.091326684888e-06 8.576324540085e-05 0.0 
0.0 0.0 -1.971920025178e-05 
-2.526708561103e-05 6.310853555671e-06 0.0 
6.310853555671e-06 1.563086297405e-04 0.0 
0.0 0.0 -2.983264867227e-05 
-3.537296998936e-05 6.864872435128e-06 0.0 
6.864872435128e-06 2.269082270308e-04 0.0 
0.0 0.0 -3.986440968097e-05 
-4.488160423805e-05 2.620282550735e-06 0.0 
2.620282550735e-06 2.956678138489e-04 0.0 
0.0 0.0 -4.966355900614e-05 
-5.332449771990e-05 4.791519907196e-06 0.0 
4.791519907196e-06 3.657467620854e-04 0.0 
0.0 0.0 -5.966365156130e-05 
-6.508558424635e-05 3.075872768086e-06 0.0 
3.075872768086e-06 4.344526873071e-04 0.0 
0.0 0.0 -6.975401418979e-05 
-7.497012245692e-05 4.311534055672e-06 0.0 
4.311534055672e-06 5.043026023732e-04 0.0 
0.0 0.0 -7.976546830823e-05 
-8.509296828041e-05 3.418368169261e-06 0.0 
3.418368169261e-06 5.740185323213e-04 0.0 
0.0 0.0 -8.978403836533e-05 
-9.498556415872e-05 3.738944843297e-06 0.0 
3.738944843297e-06 6.453839669724e-04 0.0 
0.0 0.0 -9.979450657254e-05 
-2.903947000217e-05 4.451191488364e-07 0.0 
4.451191488364e-07 1.483933272917e-04 0.0 
0.0 0.0 -2.805418351568e-05 
-1.947382551544e-04 -2.159516415369e-06 0.0 
-2.159516415369e-06 1.315627443457e-03 0.0 
0.0 0.0 -1.955083413980e-04 
-8.567559438263e-06 -1.698793721464e-06 0.0 
-1.698793721464e-06 4.448364337142e-05 0.0 
0.0 0.0 -8.578267221574e-06 
-8.136868517871e-06 -4.367899646924e-06 0.0 
-4.367899646924e-06 4.087946457471e-05 0.0 
0.0 0.0 -8.341387659605e-06 
-1.954641214955e-04 3.125550394228e-06 0.0 
3.125550394228e-06 1.316340498285e-03 0.0 
0.0 0.0 -1.955041315648e-04 
-5.006254034077e-05 3.860488417876e-06 0.0 
3.860488417876e-06 2.918098893608e-04 0.0 
0.0 0.0 -4.819929352323e-05 
-1.113057377054e-04 -1.249747274644e-06 0.0 
-1.249747274644e-06 7.175137801225e-04 0.0 
0.0 0.0 -1.095085134540e-04 
-1.950754387674e-04 1.968519813096e-06 0.0 
1.968519813096e-06 1.314054090021e-03 0.0 
0.0 0.0 -1.951497400597e-04 
-6.837076637649e-05 -4.771419097857e-06 0.0 
-4.771419097857e-06 4.223371659246e-04 0.0 
0.0 0.0 -6.746904573659e-05 
-1.952596228174e-04 5.860291744710e-07 0.0 
5.860291744710e-07 1.317160681800e-03 0.0 
0.0 0.0 -1.956021977692e-04 
-8.896698281549e-05 5.176874405716e-07 0.0 
5.176874405716e-07 5.656380992247e-04 0.0 
0.0 0.0 -8.786970436408e-05 
-1.941939648637e-04 1.847287419424e-06 0.0 
1.847287419424e-06 1.320485000250e-03 0.0 
0.0 0.0 -1.961487763302e-04 
-7.650674215329e-06 1.236502144193e-06 0.0 
1.236502144193e-06 3.991553915001e-05 0.0 
0.0 0.0 -8.186248162006e-06 
-1.957069062092e-04 9.003290222843e-07 0.0 
9.003290222843e-07 1.317426151316e-03 0.0 
0.0 0.0 -1.956722400187e-04 
-1.089453835626e-04 2.369159746168e-06 0.0 
2.369159746168e-06 7.099109707760e-04 0.0 
0.0 0.0 -1.080461297714e-04 
-6.859129019067e-05 1.013206430907e-06 0.0 
1.013206430907e-06 4.370886358119e-04 0.0 
0.0 0.0 -6.960710895285e-05 
-1.371687672462e-04 1.989641405698e-06 0.0 
1.989641405698e-06 9.073488131676e-04 0.0 
0.0 0.0 -1.368826812983e-04 
-1.943229683407e-04 -1.445358278171e-06 0.0 
-1.445358278171e-06 1.315110082613e-03 0.0 
0.0 0.0 -1.951920106767e-04 
-1.956930830492e-04 2.604495501023e-06 0.0 
2.604495501023e-06 1.317782772153e-03 0.0 
0.0 0.0 -1.956442140825e-04 
-1.963197173795e-04 -2.638308879700e-06 0.0 
-2.638308879700e-06 1.317317020312e-03 0.0 
0.0 0.0 -1.954857917668e-04 
-1.946046977129e-04 1.619923868870e-06 0.0 
1.619923868870e-06 1.311223827380e-03 0.0 
0.0 0.0 -1.946591103862e-04 
-1.965700765428e-04 -3.277130686746e-06 0.0 
-3.277130686746e-06 1.319377863823e-03 0.0 
0.0 0.0 -1.957959275784e-04 
-1.125606473740e-04 1.719511349206e-06 0.0 
1.719511349206e-06 7.393436574216e-04 0.0 
0.0 0.0 -1.128301714015e-04 
-1.128503086942e-04 1.743206654311e-06 0.0 
1.743206654311e-06 7.389768954601e-04 0.0 
0.0 0.0 -1.129477424158e-04 
-1.131980592598e-04 -1.862024743753e-06 0.0 
-1.862024743753e-06 7.425708164452e-04 0.0 
0.0 0.0 -1.137040567910e-04 
-1.496411633683e-04 -5.197980004835e-06 0.0 
-5.197980004835e-06 9.903344520159e-04 0.0 
0.0 0.0 -1.492512252364e-04 
-1.950888054502e-04 -1.662594662544e-06 0.0 
-1.662594662544e-06 1.318271302421e-03 0.0 
0.0 0.0 -1.954311278458e-04 
-7.420624434335e-06 -2.743944179506e-06 0.0 
-2.743944179506e-06 4.036171462300e-05 0.0 
0.0 0.0 -8.192647634203e-06 
-9.873734262922e-06 8.287041108010e-07 0.0 
8.287041108010e-07 4.596430085012e-05 0.0 
0.0 0.0 -8.762595040287e-06 
-1.681367322331e-04 -1.737857054475e-07 0.0 
-1.737857054475e-07 1.127342030325e-03 0.0 
0.0 0.0 -1.684329593750e-04 
-1.137312378447e-04 2.941922033179e-06 0.0 
2.941922033179e-06 7.354400071240e-04 0.0 
0.0 0.0 -1.125050824252e-04 
-4.041482156002e-05 3.417558897106e-07 0.0 
3.417558897106e-07 2.241831831132e-04 0.0 
0.0 0.0 -3.891752881399e-05 
-1.947641557456e-04 7.923084531915e-07 0.0 
7.923084531915e-07 1.304507022875e-03 0.0 
0.0 0.0 -1.939800207710e-04 
-1.960054809974e-04 2.031047324452e-06 0.0 
2.031047324452e-06 1.320447363547e-03 0.0 
0.0 0.0 -1.960961780200e-04 
-1.959837947468e-04 7.548015026684e-07 0.0 
7.548015026684e-07 1.316397764372e-03 0.0 
0.0 0.0 -1.957100175409e-04 
-1.949003992159e-04 1.873708810936e-06 0.0 
1.873708810936e-06 1.312448359133e-03 0.0 
0.0 0.0 -1.946892349944e-04 
-1.963394652884e-04 -2.461762416477e-06 0.0 
-2.461762416477e-06 1.317843150582e-03 0.0 
0.0 0.0 -1.958367853254e-04 
-9.399904561967e-06 3.751811683982e-07 0.0 
3.751811683982e-07 4.607602797327e-05 0.0 
0.0 0.0 -8.777929302786e-06 
-1.121136777944e-04 2.136242843992e-06 0.0 
2.136242843992e-06 7.375316866664e-04 0.0 
0.0 0.0 -1.125147119063e-04 
-1.945054015985e-04 1.526423234173e-06 0.0 
1.526423234173e-06 1.305744790732e-03 0.0 
0.0 0.0 -1.939771297832e-04 
-1.693349048774e-04 -4.546658260319e-06 0.0 
-4.546658260319e-06 1.130612016236e-03 0.0 
0.0 0.0 -1.685397735077e-04 
-8.598075030748e-06 -2.223307893963e-06 0.0 
-2.223307893963e-06 4.388775337437e-05 0.0 
0.0 0.0 -8.698177642707e-06 
-8.871376934976e-05 -9.707224206822e-07 0.0 
-9.707224206822e-07 5.731446297532e-04 0.0 
0.0 0.0 -8.906156601093e-05 
-1.979802513817e-04 -1.566370620822e-06 0.0 
-1.566370620822e-06 1.328935425363e-03 0.0 
0.0 0.0 -1.967971955909e-04 
-6.059110968862e-05 -2.270349058910e-06 0.0 
-2.270349058910e-06 3.638632698663e-04 0.0 
0.0 0.0 -5.846208800394e-05 
-3.934380255029e-05 1.116524761702e-06 0.0 
1.116524761702e-06 2.201048627676e-04 0.0 
0.0 0.0 -3.823193484201e-05 
-7.905584954535e-05 -1.125239316858e-06 0.0 
-1.125239316858e-06 4.942495490073e-04 0.0 
0.0 0.0 -7.767853477808e-05 
-9.853492259670e-05 -1.059175576559e-06 0.0 
-1.059175576559e-06 6.356901872357e-04 0.0 
0.0 0.0 -9.791554816786e-05 
-1.758731503853e-05 -2.183232337716e-06 0.0 
-2.183232337716e-06 7.214564488676e-05 0.0 
0.0 0.0 -1.677835640721e-05 
-1.304400768820e-04 -1.226623402604e-06 0.0 
-1.226623402604e-06 8.588836031036e-04 0.0 
0.0 0.0 -1.302718197671e-04 
-1.976961881145e-04 -1.904942962871e-06 0.0 
-1.904942962871e-06 1.329827350337e-03 0.0 
0.0 0.0 -1.970859964037e-04 
-7.778984465367e-06 4.389754775789e-06 0.0 
4.389754775789e-06 4.119927433976e-05 0.0 
0.0 0.0 -8.754673005183e-06 
-1.866018908338e-04 -2.006069315688e-08 0.0 
-2.006069315688e-08 1.262553750678e-03 0.0 
0.0 0.0 -1.880896313740e-04 
-1.123534650814e-04 1.611587689509e-06 0.0 
1.611587689509e-06 7.392560460262e-04 0.0 
0.0 0.0 -1.129840772622e-04 
-1.171047806051e-04 7.449209117803e-07 0.0 
7.449209117803e-07 7.664746806855e-04 0.0 
0.0 0.0 -1.171402528589e-04 
-1.209300272193e-04 3.259751506580e-06 0.0 
3.259751506580e-06 8.015413982557e-04 0.0 
0.0 0.0 -1.217336839916e-04 
-1.273390226549e-04 -1.216641127310e-06 0.0 
-1.216641127310e-06 8.349727543367e-04 0.0 
0.0 0.0 -1.264258636278e-04 
-1.320700965903e-04 1.876866623279e-08 0.0 
1.876866623279e-08 8.692918616205e-04 0.0 
0.0 0.0 -1.317698771115e-04 
-1.368244106801e-04 -1.114619508482e-06 0.0 
-1.114619508482e-06 9.001255364591e-04 0.0 
0.0 0.0 -1.359061374524e-04 
-1.313516644010e-04 -1.071478350727e-06 0.0 
-1.071478350727e-06 8.642075030487e-04 0.0 
0.0 0.0 -1.306688636612e-04 
-1.406252513591e-04 -1.352739222539e-06 0.0 
-1.352739222539e-06 9.300768557182e-04 0.0 
0.0 0.0 -1.401216342492e-04 
-1.355168506451e-04 -8.441429406154e-07 0.0 
-8.441429406154e-07 8.933027720166e-04 0.0 
0.0 0.0 -1.348466119664e-04 
-1.406309551036e-04 -1.423065028084e-06 0.0 
-1.423065028084e-06 9.373189590449e-04 0.0 
0.0 0.0 -1.412262538548e-04 
-1.447717080924e-04 -1.617847745048e-06 0.0 
-1.617847745048e-06 9.594996109507e-04 0.0 
0.0 0.0 -1.443446404888e-04 
-1.395639979808e-04 -9.495865010562e-07 0.0 
-9.495865010562e-07 9.223387170950e-04 0.0 
0.0 0.0 -1.390295894150e-04 
-1.488518955481e-04 -1.324901186338e-06 0.0 
-1.324901186338e-06 9.887094425207e-04 0.0 
0.0 0.0 -1.485505823874e-04 
-1.436922961000e-04 -1.046451979584e-06 0.0 
-1.046451979584e-06 9.515310653716e-04 0.0 
0.0 0.0 -1.432156325536e-04 
-1.343600788387e-04 -5.167793523512e-07 0.0 
-5.167793523512e-07 8.856735470671e-04 0.0 
0.0 0.0 -1.337521069633e-04 
-1.385105152453e-04 -4.710394907329e-07 0.0 
-4.710394907329e-07 9.146329712672e-04 0.0 
0.0 0.0 -1.379179829106e-04 
-1.289648752830e-04 -8.618976580070e-08 0.0 
-8.618976580070e-08 8.489207055611e-04 0.0 
0.0 0.0 -1.284753219673e-04 
-1.331501462654e-04 -2.281806353291e-07 0.0 
-2.281806353291e-07 8.778469958775e-04 0.0 
0.0 0.0 -1.326245976321e-04 
-1.426230691977e-04 -3.445547381833e-07 0.0 
-3.445547381833e-07 9.438219498313e-04 0.0 
0.0 0.0 -1.420797641308e-04 
-1.372349024752e-04 -4.912623478835e-07 0.0 
-4.912623478835e-07 9.068017641173e-04 0.0 
0.0 0.0 -1.367729294110e-04 
-1.278087679959e-04 -1.828532417460e-07 0.0 
-1.828532417460e-07 8.408634527744e-04 0.0 
0.0 0.0 -1.273259478075e-04 
-1.318398283045e-04 -3.075890479272e-07 0.0 
-3.075890479272e-07 8.695930318134e-04 0.0 
0.0 0.0 -1.314613401273e-04 
-1.224174681950e-04 5.152664304938e-08 0.0 
5.152664304938e-08 8.039186497448e-04 0.0 
0.0 0.0 -1.220343484428e-04 
-1.264174440320e-04 -1.610988413992e-07 0.0 
-1.610988413992e-07 8.325618017429e-04 0.0 
0.0 0.0 -1.261611736566e-04 
-1.170510544419e-04 2.223926002174e-08 0.0 
2.223926002174e-08 7.668217430428e-04 0.0 
0.0 0.0 -1.167242641243e-04 
-1.210374224200e-04 -1.474818318748e-07 0.0 
-1.474818318748e-07 7.955505097843e-04 0.0 
0.0 0.0 -1.208544874677e-04 
-1.304043414113e-04 -3.154242512105e-07 0.0 
-3.154242512105e-07 8.613589922912e-04 0.0 
0.0 0.0 -1.303042425932e-04 
-1.250914766715e-04 -9.789090931159e-08 0.0 
-9.789090931159e-08 8.242842117775e-04 0.0 
0.0 0.0 -1.249864172613e-04 
-1.156698454984e-04 4.104440089505e-08 0.0 
4.104440089505e-08 7.584999711117e-04 0.0 
0.0 0.0 -1.155496960434e-04 
-1.197696986214e-04 6.686600869340e-08 0.0 
6.686600869340e-08 7.872430335080e-04 0.0 
0.0 0.0 -1.196691756306e-04 
-1.103345672185e-04 1.936070379506e-07 0.0 
1.936070379506e-07 7.215726378401e-04 0.0 
0.0 0.0 -1.102360968649e-04 
-1.143831646187e-04 2.841694026704e-07 0.0 
2.841694026704e-07 7.499983246613e-04 0.0 
0.0 0.0 -1.143358844566e-04 
-1.238585560106e-04 1.680319022195e-07 0.0 
1.680319022195e-07 8.159376449007e-04 0.0 
0.0 0.0 -1.237972835831e-04 
-1.185140209161e-04 8.396902968220e-08 0.0 
8.396902968220e-08 7.787352394438e-04 0.0 
0.0 0.0 -1.184549252722e-04 
-1.089992092054e-04 6.281890232420e-08 0.0 
6.281890232420e-08 7.122982226840e-04 0.0 
0.0 0.0 -1.089619939006e-04 
-1.132389115670e-04 -1.057915283395e-07 0.0 
-1.057915283395e-07 7.414300503039e-04 0.0 
0.0 0.0 -1.130977248571e-04 
-1.037240861722e-04 -4.723566763670e-07 0.0 
-4.723566763670e-07 6.746986895894e-04 0.0 
0.0 0.0 -1.035578799258e-04 
-1.079391861501e-04 -9.525050174143e-10 0.0 
-9.525050174143e-10 7.042191649168e-04 0.0 
0.0 0.0 -1.077352770641e-04 
-9.832371136087e-05 -3.508088035027e-07 0.0 
-3.508088035027e-07 6.371418654706e-04 0.0 
0.0 0.0 -9.813603890825e-05 
-1.025291601956e-04 7.520025507386e-08 0.0 
7.520025507386e-08 6.664875104737e-04 0.0 
0.0 0.0 -1.023264466889e-04 
-1.121330899491e-04 -3.201268622930e-08 0.0 
-3.201268622930e-08 7.333893815298e-04 0.0 
0.0 0.0 -1.119135318789e-04 
-1.067345759512e-04 -1.457462253013e-07 0.0 
-1.457462253013e-07 6.958135066491e-04 0.0 
0.0 0.0 -1.065124872911e-04 
-9.708388481881e-05 -1.123756317370e-07 0.0 
-1.123756317370e-07 6.287043899204e-04 0.0 
0.0 0.0 -9.687936111797e-05 
-1.012280793484e-04 -2.016817593290e-07 0.0 
-2.016817593290e-07 6.578039102236e-04 0.0 
0.0 0.0 -1.010667964543e-04 
-1.108655634829e-04 -2.805142089434e-07 0.0 
-2.805142089434e-07 7.250705567917e-04 0.0 
0.0 0.0 -1.107220969010e-04 
-1.053738009019e-04 -2.657681640372e-07 0.0 
-2.657681640372e-07 6.869604308345e-04 0.0 
0.0 0.0 -1.052625016289e-04 
-1.150267739913e-04 -3.300558054111e-07 0.0 
-3.300558054111e-07 7.543777337130e-04 0.0 
0.0 0.0 -1.149374102432e-04 
-1.095605670490e-04 -1.992187362341e-07 0.0 
-1.992187362341e-07 7.162738244309e-04 0.0 
0.0 0.0 -1.094674241824e-04 
-9.992608341546e-05 -2.285291460902e-07 0.0 
-2.285291460902e-07 6.491377746979e-04 0.0 
0.0 0.0 -9.983047339662e-05 
-1.041038271013e-04 -4.784792107372e-08 0.0 
-4.784792107372e-08 6.783667909797e-04 0.0 
0.0 0.0 -1.040110107548e-04 
-1.137411101647e-04 -1.005325563354e-07 0.0 
-1.005325563354e-07 7.455825181624e-04 0.0 
0.0 0.0 -1.136680319875e-04 
-1.082869868131e-04 -5.329032704082e-08 0.0 
-5.329032704082e-08 7.073386927023e-04 0.0 
0.0 0.0 -1.081830392180e-04 
-9.869624350956e-05 -1.279251488153e-07 0.0 
-1.279251488153e-07 6.404070926404e-04 0.0 
0.0 0.0 -9.856705257735e-05 
-1.028159541346e-04 2.106799420310e-07 0.0 
2.106799420310e-07 6.694648529012e-04 0.0 
0.0 0.0 -1.027256921484e-04 
-1.124881435347e-04 1.468300417499e-07 0.0 
1.468300417499e-07 7.366254737130e-04 0.0 
0.0 0.0 -1.123746868942e-04 
-1.069630032943e-04 3.797193907441e-07 0.0 
3.797193907441e-07 6.984570345631e-04 0.0 
0.0 0.0 -1.069064678657e-04 
-9.735694714147e-05 3.040392105123e-07 0.0 
3.040392105123e-07 6.314702925721e-04 0.0 
0.0 0.0 -9.729074097479e-05 
-1.014698791265e-04 5.263077294053e-07 0.0 
5.263077294053e-07 6.606218601415e-04 0.0 
0.0 0.0 -1.014450936127e-04 
-1.111588134786e-04 4.465606502621e-07 0.0 
4.465606502621e-07 7.280983055299e-04 0.0 
0.0 0.0 -1.111412434799e-04 
-1.056103560307e-04 3.527345838497e-07 0.0 
3.527345838497e-07 6.896411777924e-04 0.0 
0.0 0.0 -1.056341277852e-04 
-9.592602067126e-05 5.327638544790e-07 0.0 
5.327638544790e-07 6.223325700671e-04 0.0 
0.0 0.0 -9.597584338962e-05 
-1.000042351432e-04 6.050193751295e-07 0.0 
6.050193751295e-07 6.512858928885e-04 0.0 
0.0 0.0 -1.001195007473e-04 
-1.097885953069e-04 3.509867728239e-07 0.0 
3.509867728239e-07 7.191866513993e-04 0.0 
0.0 0.0 -1.098732949993e-04 
-1.041219874635e-04 4.565113330363e-07 0.0 
4.565113330363e-07 6.802416856987e-04 0.0 
0.0 0.0 -1.043104098158e-04 
-1.139943776011e-04 2.608804957771e-07 0.0 
2.608804957771e-07 7.487261930972e-04 0.0 
0.0 0.0 -1.141349681178e-04 
-9.432131286435e-05 6.931090399305e-07 0.0 
6.931090399305e-07 6.120807620329e-04 0.0 
0.0 0.0 -9.453138577379e-05 
-9.843300825502e-05 3.791394769862e-07 0.0 
3.791394769862e-07 6.410640369442e-04 0.0 
0.0 0.0 -9.871483819285e-05 
-8.857532524913e-05 7.670792375352e-07 0.0 
7.670792375352e-07 5.725816228305e-04 0.0 
0.0 0.0 -8.888275660121e-05 
-9.270105845016e-05 2.622529703411e-07 0.0 
2.622529703411e-07 6.018362902946e-04 0.0 
0.0 0.0 -9.310666704106e-05 
-1.280450341640e-04 2.022914446802e-07 0.0 
2.022914446802e-07 8.448927114390e-04 0.0 
0.0 0.0 -1.279397651938e-04 
-8.276712932225e-05 6.443736138370e-07 0.0 
6.443736138370e-07 5.330826812988e-04 0.0 
0.0 0.0 -8.324826898147e-05 
-7.884768894366e-05 1.023704289178e-06 0.0 
1.023704289178e-06 5.047676539199e-04 0.0 
0.0 0.0 -7.914375511354e-05 
-8.697616798037e-05 -7.331328903611e-10 0.0 
-7.331328903611e-10 5.626687258914e-04 0.0 
0.0 0.0 -8.749891481922e-05 
-9.702972984445e-05 -9.951343649239e-08 0.0 
-9.951343649239e-08 6.318920870484e-04 0.0 
0.0 0.0 -9.740424872913e-05 
-7.706547232469e-05 2.380236829533e-07 0.0 
2.380236829533e-07 4.936160224660e-04 0.0 
0.0 0.0 -7.760805980730e-05 
-8.127460870577e-05 -1.704001729843e-07 0.0 
-1.704001729843e-07 5.235024448564e-04 0.0 
0.0 0.0 -8.188641417383e-05 
-7.155045226520e-05 3.113369261567e-07 0.0 
3.113369261567e-07 4.544691373911e-04 0.0 
0.0 0.0 -7.197242596511e-05 
-9.398834813403e-05 -4.649841708634e-07 0.0 
-4.649841708634e-07 6.067163141264e-04 0.0 
0.0 0.0 -9.378238744040e-05 
-1.466888889075e-04 -6.905876409825e-07 0.0 
-6.905876409825e-07 9.729931165237e-04 0.0 
0.0 0.0 -1.462607504514e-04 
-7.572467440231e-05 1.210487184868e-07 0.0 
1.210487184868e-07 4.846162633768e-04 0.0 
0.0 0.0 -7.626743364961e-05 
-6.621416197033e-05 -1.397216265960e-07 0.0 
-1.397216265960e-07 4.154095652474e-04 0.0 
0.0 0.0 -6.634679566782e-05 
-6.190172954625e-05 4.165851450949e-07 0.0 
4.165851450949e-07 3.853087909955e-04 0.0 
0.0 0.0 -6.205237226325e-05 
-5.628575454228e-05 3.940532300381e-08 0.0 
3.940532300381e-08 3.460724695174e-04 0.0 
0.0 0.0 -5.642855255362e-05 
-1.354938510920e-04 -2.913953566673e-06 0.0 
-2.913953566673e-06 9.082152710087e-04 0.0 
0.0 0.0 -1.368953805519e-04 
-1.462552660591e-04 1.249747586106e-07 0.0 
1.249747586106e-07 9.752174249571e-04 0.0 
0.0 0.0 -1.465891790687e-04 
-1.414040401139e-04 -1.271486640511e-06 0.0 
-1.271486640511e-06 9.428451641582e-04 0.0 
0.0 0.0 -1.420291944686e-04 
-1.520026480131e-04 -3.631190555520e-07 0.0 
-3.631190555520e-07 1.012864624851e-03 0.0 
0.0 0.0 -1.519432683735e-04 
-1.472985787471e-04 -1.382728633740e-06 0.0 
-1.382728633740e-06 9.819853291120e-04 0.0 
0.0 0.0 -1.475277143832e-04 
-6.049783873772e-05 -1.110839167728e-06 0.0 
-1.110839167728e-06 3.760535738177e-04 0.0 
0.0 0.0 -6.071687451653e-05 
-1.539446624240e-04 -1.181077219234e-06 0.0 
-1.181077219234e-06 1.026370553893e-03 0.0 
0.0 0.0 -1.540030753513e-04 
-1.562964739112e-04 4.946292658219e-07 0.0 
4.946292658219e-07 1.043020722120e-03 0.0 
0.0 0.0 -1.563396320792e-04 
-1.184118913967e-04 1.857139776565e-07 0.0 
1.857139776565e-07 7.754976810309e-04 0.0 
0.0 0.0 -1.179280690692e-04 
-1.062500152817e-04 1.741187945378e-07 0.0 
1.741187945378e-07 6.928514360504e-04 0.0 
0.0 0.0 -1.061413340584e-04 
-1.205167248159e-04 -5.462407212351e-07 0.0 
-5.462407212351e-07 7.925156879070e-04 0.0 
0.0 0.0 -1.204127835607e-04 
-8.548976471001e-05 -7.615656520967e-07 0.0 
-7.615656520967e-07 5.535587085213e-04 0.0 
0.0 0.0 -8.618857558133e-05 
-7.988885271144e-05 1.897397534693e-07 0.0 
1.897397534693e-07 5.152050676733e-04 0.0 
0.0 0.0 -8.057008281249e-05 
-9.032121231226e-05 -1.684930927318e-06 0.0 
-1.684930927318e-06 5.843848000393e-04 0.0 
0.0 0.0 -9.050178936823e-05 
-1.196337930892e-04 1.102008659663e-07 0.0 
1.102008659663e-07 7.876256328336e-04 0.0 
0.0 0.0 -1.197064290626e-04 
-1.239088484819e-04 1.270562820447e-07 0.0 
1.270562820447e-07 8.174720289214e-04 0.0 
0.0 0.0 -1.239919845821e-04 
-1.295076006245e-04 6.163016450200e-08 0.0 
6.163016450200e-08 8.563536897128e-04 0.0 
0.0 0.0 -1.295728275001e-04 
-1.338245653935e-04 6.187832994799e-08 0.0 
6.187832994799e-08 8.862996102706e-04 0.0 
0.0 0.0 -1.338680086136e-04 
-1.393975761356e-04 4.550308926580e-08 0.0 
4.550308926580e-08 9.252125319019e-04 0.0 
0.0 0.0 -1.394574676997e-04 
-1.437406368722e-04 1.277074154763e-07 0.0 
1.277074154763e-07 9.552601406530e-04 0.0 
0.0 0.0 -1.437562178924e-04 
-1.381365115215e-04 -6.384328167054e-08 0.0 
-6.384328167054e-08 9.162527365186e-04 0.0 
0.0 0.0 -1.381609243235e-04 
-1.481035666194e-04 -1.079358485103e-07 0.0 
-1.079358485103e-07 9.853010756590e-04 0.0 
0.0 0.0 -1.480541560501e-04 
-1.424433669279e-04 -2.461913392847e-07 0.0 
-2.461913392847e-07 9.462005835288e-04 0.0 
0.0 0.0 -1.424551100593e-04 
-1.492800736972e-04 1.903860536894e-07 0.0 
1.903860536894e-07 9.941570401524e-04 0.0 
0.0 0.0 -1.493525342080e-04 
-1.449751840430e-04 -1.306362921351e-07 0.0 
-1.306362921351e-07 9.640748764024e-04 0.0 
0.0 0.0 -1.450229800689e-04 
-1.523999948246e-04 -3.989684281704e-07 0.0 
-3.989684281704e-07 1.015224728092e-03 0.0 
0.0 0.0 -1.523522284989e-04 
-1.467103464147e-04 -2.659540217928e-07 0.0 
-2.659540217928e-07 9.761558421408e-04 0.0 
0.0 0.0 -1.467489045856e-04 
-1.565625592364e-04 -4.158419287493e-07 0.0 
-4.158419287493e-07 1.045129081510e-03 0.0 
0.0 0.0 -1.566543602455e-04 
-1.508966779748e-04 -3.393169835015e-07 0.0 
-3.393169835015e-07 1.005998704446e-03 0.0 
0.0 0.0 -1.510511651883e-04 
-1.410712457468e-04 -1.790301414097e-07 0.0 
-1.790301414097e-07 9.369358529960e-04 0.0 
0.0 0.0 -1.411301529270e-04 
-1.452736367783e-04 -1.279390741405e-07 0.0 
-1.279390741405e-07 9.667244667063e-04 0.0 
0.0 0.0 -1.454254449112e-04 
-1.355658465602e-04 -3.525019047488e-07 0.0 
-3.525019047488e-07 8.980272974833e-04 0.0 
0.0 0.0 -1.355350811980e-04 
-1.247169685603e-04 -5.424891476077e-07 0.0 
-5.424891476077e-07 8.219820472476e-04 0.0 
0.0 0.0 -1.246443719175e-04 
-1.302412994967e-04 -6.709375140069e-07 0.0 
-6.709375140069e-07 8.602885817839e-04 0.0 
0.0 0.0 -1.301366355066e-04 
-1.344319823677e-04 -5.992072868323e-07 0.0 
-5.992072868323e-07 8.897694935505e-04 0.0 
0.0 0.0 -1.343775141111e-04 
-1.400237331498e-04 -7.656893218292e-07 0.0 
-7.656893218292e-07 9.282252120942e-04 0.0 
0.0 0.0 -1.398832378697e-04 
-1.441786028548e-04 -7.248633173167e-07 0.0 
-7.248633173167e-07 9.577423680475e-04 0.0 
0.0 0.0 -1.441376510237e-04 
-1.498975004286e-04 -8.881523903677e-07 0.0 
-8.881523903677e-07 9.963296213112e-04 0.0 
0.0 0.0 -1.496454511588e-04 
-1.540303661717e-04 -7.919312302375e-07 0.0 
-7.919312302375e-07 1.025660690864e-03 0.0 
0.0 0.0 -1.539048756661e-04 
-1.483333586792e-04 -5.305309886562e-07 0.0 
-5.305309886562e-07 9.873032168340e-04 0.0 
0.0 0.0 -1.483914164041e-04 
-1.531422374596e-04 -8.663739869802e-07 0.0 
-8.663739869802e-07 1.017764678093e-03 0.0 
0.0 0.0 -1.527153750466e-04 
-9.159847415972e-05 -1.256689801576e-07 0.0 
-1.256689801576e-07 5.906791861929e-04 0.0 
0.0 0.0 -9.143391812226e-05 
-8.744560526880e-05 -1.314299425382e-07 0.0 
-1.314299425382e-07 5.615762013321e-04 0.0 
0.0 0.0 -8.725348065585e-05 
-8.202336977827e-05 5.298561278537e-08 0.0 
5.298561278537e-08 5.236724682599e-04 0.0 
0.0 0.0 -8.181782897632e-05 
-7.787136643021e-05 -4.089849052187e-08 0.0 
-4.089849052187e-08 4.946511796611e-04 0.0 
0.0 0.0 -7.764583100160e-05 
-7.249839660415e-05 3.138088007650e-07 0.0 
3.138088007650e-07 4.567503960433e-04 0.0 
0.0 0.0 -7.221245969917e-05 
-6.836637044469e-05 1.575150055605e-07 0.0 
1.575150055605e-07 4.279278736544e-04 0.0 
0.0 0.0 -6.805748655366e-05 
-6.305635467696e-05 5.617632190064e-07 0.0 
5.617632190064e-07 3.898265041818e-04 0.0 
0.0 0.0 -6.258396351101e-05 
-6.700103591366e-05 8.220641914788e-07 0.0 
8.220641914788e-07 4.186472656110e-04 0.0 
0.0 0.0 -6.675491739715e-05 
-5.754489831194e-05 1.185749684510e-06 0.0 
1.185749684510e-06 3.514253860379e-04 0.0 
0.0 0.0 -5.707878267586e-05 
-6.126290636031e-05 1.086382821669e-06 0.0 
1.086382821669e-06 3.802508716618e-04 0.0 
0.0 0.0 -6.128043668686e-05 
-5.191997638371e-05 1.314501197429e-06 0.0 
1.314501197429e-06 3.126420855080e-04 0.0 
0.0 0.0 -5.156902369321e-05 
-5.548063518944e-05 1.243851983737e-06 0.0 
1.243851983737e-06 3.415672031581e-04 0.0 
0.0 0.0 -5.575645035334e-05 
-1.344754893882e-04 -2.441387490922e-07 0.0 
-2.441387490922e-07 8.901905827652e-04 0.0 
0.0 0.0 -1.344534760290e-04 
-1.456336275119e-04 -7.568221187932e-07 0.0 
-7.568221187932e-07 9.666800779835e-04 0.0 
0.0 0.0 -1.453735332694e-04 
-1.555049783814e-04 -4.155015620932e-07 0.0 
-4.155015620932e-07 1.035032948266e-03 0.0 
0.0 0.0 -1.551468130506e-04 
-1.509958831296e-04 -4.550450407200e-07 0.0 
-4.550450407200e-07 1.004729653599e-03 0.0 
0.0 0.0 -1.507981208515e-04 
-5.237773532105e-05 7.911299625012e-08 0.0 
7.911299625012e-08 3.162172589784e-04 0.0 
0.0 0.0 -5.213283032136e-05 
-1.549595763032e-04 -3.953475088671e-07 0.0 
-3.953475088671e-07 1.035774981690e-03 0.0 
0.0 0.0 -1.553660438793e-04 
-1.548355158551e-04 -2.147058021658e-07 0.0 
-2.147058021658e-07 1.033072477775e-03 0.0 
0.0 0.0 -1.549384463224e-04 
-1.505618374828e-04 -5.346193515463e-07 0.0 
-5.346193515463e-07 1.002549198399e-03 0.0 
0.0 0.0 -1.505609887339e-04 
-1.581943545466e-04 -1.140192146813e-07 0.0 
-1.140192146813e-07 1.055484497313e-03 0.0 
0.0 0.0 -1.581898251365e-04 
-5.074202381651e-05 -4.469562897144e-07 0.0 
-4.469562897144e-07 3.073591846823e-04 0.0 
0.0 0.0 -5.088881735611e-05 
-5.888894202551e-05 -5.741143861354e-08 0.0 
-5.741143861354e-08 3.614604751917e-04 0.0 
0.0 0.0 -5.849107602244e-05 
-6.412075790079e-05 -1.262278375691e-08 0.0 
-1.262278375691e-08 3.988248925712e-04 0.0 
0.0 0.0 -6.391656864161e-05 
-1.574092422667e-04 -9.339425827558e-07 0.0 
-9.339425827558e-07 1.050297343269e-03 0.0 
0.0 0.0 -1.573311895261e-04 
-1.526877283991e-04 -1.284456620320e-06 0.0 
-1.284456620320e-06 1.019137079127e-03 0.0 
0.0 0.0 -1.529187321887e-04 
-1.603825137223e-04 -5.841749785693e-07 0.0 
-5.841749785693e-07 1.071965760526e-03 0.0 
0.0 0.0 -1.605236522104e-04 
-5.469413786455e-05 -7.281622474744e-07 0.0 
-7.281622474744e-07 3.375315586186e-04 0.0 
0.0 0.0 -5.513621196740e-05 
-1.581536908889e-04 -3.654449846177e-07 0.0 
-3.654449846177e-07 1.054473463793e-03 0.0 
0.0 0.0 -1.579496168166e-04 
-4.796468630861e-05 1.896906112626e-06 0.0 
1.896906112626e-06 2.843046372018e-04 0.0 
0.0 0.0 -4.740762976608e-05 
-1.492957563781e-04 2.220942752480e-07 0.0 
2.220942752480e-07 9.964627124321e-04 0.0 
0.0 0.0 -1.497345920687e-04 
-1.590878470858e-04 -2.496159838047e-07 0.0 
-2.496159838047e-07 1.065574434498e-03 0.0 
0.0 0.0 -1.596751832792e-04 
-1.325072402165e-04 -1.969088110070e-07 0.0 
-1.969088110070e-07 8.772948073459e-04 0.0 
0.0 0.0 -1.325798954328e-04 
-1.608189791387e-04 2.014272611918e-07 0.0 
2.014272611918e-07 1.073406976442e-03 0.0 
0.0 0.0 -1.606363799130e-04 
-1.561309716741e-04 -2.339592577673e-07 0.0 
-2.339592577673e-07 1.041858527671e-03 0.0 
0.0 0.0 -1.562164154417e-04 
-6.542148837338e-05 5.946748364299e-07 0.0 
5.946748364299e-07 4.098578497775e-04 0.0 
0.0 0.0 -6.552037126556e-05 
-6.021736437679e-05 -6.684208511404e-07 0.0 
-6.684208511404e-07 3.714517723808e-04 0.0 
0.0 0.0 -6.000043125475e-05 
-5.068915045621e-05 -1.408380561497e-07 0.0 
-1.408380561497e-07 3.045038040978e-04 0.0 
0.0 0.0 -5.043265711026e-05 
-5.453954142818e-05 2.060651504186e-07 0.0 
2.060651504186e-07 3.366924109337e-04 0.0 
0.0 0.0 -5.469261876575e-05 
-6.451407366441e-05 2.351316534634e-07 0.0 
2.351316534634e-07 4.022325511173e-04 0.0 
0.0 0.0 -6.426716227193e-05 
-5.833627625562e-05 1.475332914289e-06 0.0 
1.475332914289e-06 3.627446873596e-04 0.0 
0.0 0.0 -5.871258337438e-05 
-4.807156131251e-05 2.860984901678e-06 0.0 
2.860984901678e-06 2.943856579529e-04 0.0 
0.0 0.0 -4.913324142619e-05 
-5.254361987426e-05 1.123300701462e-06 0.0 
1.123300701462e-06 3.235079135303e-04 0.0 
0.0 0.0 -5.312780584397e-05 
-6.250659233249e-05 1.032214388617e-06 0.0 
1.032214388617e-06 3.916354902735e-04 0.0 
0.0 0.0 -6.289080004402e-05 
-5.683371271564e-05 6.514617663209e-07 0.0 
6.514617663209e-07 3.524304224725e-04 0.0 
0.0 0.0 -5.728364188530e-05 
-4.626688611708e-05 9.433782266074e-08 0.0 
9.433782266074e-08 2.835389789337e-04 0.0 
0.0 0.0 -4.745589417336e-05 
-5.129426302525e-05 -1.503356296708e-07 0.0 
-1.503356296708e-07 3.125902668457e-04 0.0 
0.0 0.0 -5.163203607156e-05 
-1.648607225605e-04 -6.089305084908e-07 0.0 
-6.089305084908e-07 1.104792906558e-03 0.0 
0.0 0.0 -1.652812738464e-04 
-4.167405797836e-05 8.410179837610e-07 0.0 
8.410179837610e-07 2.451219688669e-04 0.0 
0.0 0.0 -4.186284350154e-05 
-1.249684890118e-04 -2.205649056544e-07 0.0 
-2.205649056544e-07 8.202073805391e-04 0.0 
0.0 0.0 -1.243305906297e-04 
-1.646630308387e-04 -1.022913161017e-08 0.0 
-1.022913161017e-08 1.101899429601e-03 0.0 
0.0 0.0 -1.648518411109e-04 
-1.639675080930e-04 -1.299974009233e-07 0.0 
-1.299974009233e-07 1.093025674446e-03 0.0 
0.0 0.0 -1.635990625314e-04 
-1.626548351363e-04 -9.421237167934e-07 0.0 
-9.421237167934e-07 1.087804894673e-03 0.0 
0.0 0.0 -1.627548864773e-04 
-1.581986558715e-04 -9.653447949462e-07 0.0 
-9.653447949462e-07 1.056782727253e-03 0.0 
0.0 0.0 -1.583405447554e-04 
-1.481377693349e-04 -2.120708352151e-07 0.0 
-2.120708352151e-07 9.876266265678e-04 0.0 
0.0 0.0 -1.484606848305e-04 
-1.540154319252e-04 -3.355995825506e-07 0.0 
-3.355995825506e-07 1.026130043866e-03 0.0 
0.0 0.0 -1.539002516356e-04 
-1.639459642661e-04 -1.118185498440e-06 0.0 
-1.118185498440e-06 1.095163385158e-03 0.0 
0.0 0.0 -1.637913674505e-04 
-1.597127986535e-04 -5.251908400988e-07 0.0 
-5.251908400988e-07 1.064343135399e-03 0.0 
0.0 0.0 -1.593514347843e-04 
-1.498284746973e-04 -2.503307102559e-07 0.0 
-2.503307102559e-07 9.952508194671e-04 0.0 
0.0 0.0 -1.494394109873e-04 
-1.551654717719e-04 -2.221504212273e-07 0.0 
-2.221504212273e-07 1.032948984562e-03 0.0 
0.0 0.0 -1.548970433853e-04 
-1.450485534152e-04 -2.383136960808e-07 0.0 
-2.383136960808e-07 9.636019756158e-04 0.0 
0.0 0.0 -1.449683599891e-04 
-1.505550421048e-04 1.094892235923e-07 0.0 
1.094892235923e-07 1.001407844642e-03 0.0 
0.0 0.0 -1.504333548381e-04 
-1.604309941691e-04 -2.109459501862e-07 0.0 
-2.109459501862e-07 1.070618892500e-03 0.0 
0.0 0.0 -1.603701620288e-04 
-1.560376916017e-04 -3.456752304365e-07 0.0 
-3.456752304365e-07 1.039490983705e-03 0.0 
0.0 0.0 -1.559081117414e-04 
-1.463603444154e-04 5.238436514868e-07 0.0 
5.238436514868e-07 9.703937077682e-04 0.0 
0.0 0.0 -1.459586303199e-04 
-1.516966554836e-04 -5.880015514228e-07 0.0 
-5.880015514228e-07 1.008208762980e-03 0.0 
0.0 0.0 -1.514361790689e-04 
-1.421096498293e-04 1.604631745138e-07 0.0 
1.604631745138e-07 9.389173202103e-04 0.0 
0.0 0.0 -1.414740555389e-04 
-1.468086585315e-04 -1.361458900587e-06 0.0 
-1.361458900587e-06 9.758542090481e-04 0.0 
0.0 0.0 -1.469409179663e-04 
-1.568420766373e-04 -2.584461478695e-07 0.0 
-2.584461478695e-07 1.046197364230e-03 0.0 
0.0 0.0 -1.569152749070e-04 
-4.415663167365e-05 -1.039285152091e-07 0.0 
-1.039285152091e-07 2.708684229223e-04 0.0 
0.0 0.0 -4.553936700826e-05 
-1.526637656570e-04 1.250996266672e-07 0.0 
1.250996266672e-07 1.017041372094e-03 0.0 
0.0 0.0 -1.526598922342e-04 
-1.628543927015e-04 1.351270598111e-06 0.0 
1.351270598111e-06 1.085793726948e-03 0.0 
0.0 0.0 -1.625747755015e-04 
-8.563655870662e-05 -3.488146837263e-06 0.0 
-3.488146837263e-06 5.496252535939e-04 0.0 
0.0 0.0 -8.506982008416e-05 
-9.486581924080e-05 -3.814151178450e-06 0.0 
-3.814151178450e-06 6.119359456549e-04 0.0 
0.0 0.0 -9.488074031859e-05 
-1.005495603609e-04 3.086228134672e-07 0.0 
3.086228134672e-07 6.529918919365e-04 0.0 
0.0 0.0 -1.004348942539e-04 
-1.044776236545e-04 -3.577979789199e-07 0.0 
-3.577979789199e-07 6.841250152862e-04 0.0 
0.0 0.0 -1.048029480622e-04 
-1.519826796643e-04 -1.039717232479e-06 0.0 
-1.039717232479e-06 1.014113556129e-03 0.0 
0.0 0.0 -1.523216651845e-04 
-1.628631714461e-04 6.789175869979e-07 0.0 
6.789175869979e-07 1.084318911977e-03 0.0 
0.0 0.0 -1.624109035739e-04 
-5.449179525623e-05 -7.987416053236e-08 0.0 
-7.987416053236e-08 3.327114773236e-04 0.0 
0.0 0.0 -5.446356520677e-05 
-5.983794664642e-05 5.165551288585e-07 0.0 
5.165551288585e-07 3.698050392348e-04 0.0 
0.0 0.0 -5.981452797925e-05 
-1.671906361362e-04 -6.280906550939e-07 0.0 
-6.280906550939e-07 1.118589944564e-03 0.0 
0.0 0.0 -1.671574094483e-04 
-1.535741135101e-04 4.867165336146e-08 0.0 
4.867165336146e-08 1.026955907390e-03 0.0 
0.0 0.0 -1.540568046000e-04 
-1.438756782793e-04 7.792960236787e-07 0.0 
7.792960236787e-07 9.575022276215e-04 0.0 
0.0 0.0 -1.441490849774e-04 
-1.009130978815e-04 2.058688768753e-07 0.0 
2.058688768753e-07 6.559900048877e-04 0.0 
0.0 0.0 -1.008290295839e-04 
-9.685773395831e-05 4.264808855011e-07 0.0 
4.264808855011e-07 6.270397862493e-04 0.0 
0.0 0.0 -9.674459360631e-05 
-9.135164612507e-05 -1.903780837398e-07 0.0 
-1.903780837398e-07 5.899287429268e-04 0.0 
0.0 0.0 -9.139696625653e-05 
-8.725354889556e-05 6.962837147414e-07 0.0 
6.962837147414e-07 5.598510728809e-04 0.0 
0.0 0.0 -8.718447207042e-05 
-9.300425525152e-05 1.437996831779e-06 0.0 
1.437996831779e-06 5.988622257639e-04 0.0 
0.0 0.0 -9.260497328457e-05 
-8.151290837503e-05 -1.410580149273e-06 0.0 
-1.410580149273e-06 5.218003047074e-04 0.0 
0.0 0.0 -8.172223224803e-05 
-1.406089208823e-04 -2.402054608789e-07 0.0 
-2.402054608789e-07 9.332894798307e-04 0.0 
0.0 0.0 -1.405957691658e-04 
-1.658683700673e-04 -7.646942833602e-07 0.0 
-7.646942833602e-07 1.108741460833e-03 0.0 
0.0 0.0 -1.658562309426e-04 
-5.781518420954e-05 1.266454175936e-06 0.0 
1.266454175936e-06 3.557470476378e-04 0.0 
0.0 0.0 -5.779306812918e-05 
-4.802865254420e-05 7.137000022052e-07 0.0 
7.137000022052e-07 2.866754704248e-04 0.0 
0.0 0.0 -4.790438838533e-05 
-1.638603738935e-04 -1.751728736807e-07 0.0 
-1.751728736807e-07 1.096449059773e-03 0.0 
0.0 0.0 -1.639950272516e-04 
-1.428406885554e-04 -4.063061608448e-08 0.0 
-4.063061608448e-08 9.487085255522e-04 0.0 
0.0 0.0 -1.428423306355e-04 
-1.397754667912e-04 -5.337001690441e-07 0.0 
-5.337001690441e-07 9.273626177410e-04 0.0 
0.0 0.0 -1.397960314865e-04 
-1.438858799674e-04 -3.687014672475e-07 0.0 
-3.687014672475e-07 9.563861152014e-04 0.0 
0.0 0.0 -1.439752108775e-04 
-1.492610894434e-04 -6.859194927328e-07 0.0 
-6.859194927328e-07 9.938921068845e-04 0.0 
0.0 0.0 -1.493569516990e-04 
-1.533583656652e-04 -2.578988813186e-07 0.0 
-2.578988813186e-07 1.023001986965e-03 0.0 
0.0 0.0 -1.535627705943e-04 
-1.589055659580e-04 -8.108043834337e-07 0.0 
-8.108043834337e-07 1.060829964530e-03 0.0 
0.0 0.0 -1.589810023698e-04 
-1.631518145122e-04 -4.384743000289e-07 0.0 
-4.384743000289e-07 1.089769235200e-03 0.0 
0.0 0.0 -1.631781870057e-04 
-1.576954622164e-04 7.757103855092e-08 0.0 
7.757103855092e-08 1.052834468886e-03 0.0 
0.0 0.0 -1.577686755743e-04 
-1.655653749574e-04 1.153777774229e-06 0.0 
1.153777774229e-06 1.110734179248e-03 0.0 
0.0 0.0 -1.661194977352e-04 
-1.676568937117e-04 -5.380450323566e-07 0.0 
-5.380450323566e-07 1.120118409862e-03 0.0 
0.0 0.0 -1.673875415144e-04 
-1.408452494755e-04 1.226026312677e-06 0.0 
1.226026312677e-06 9.416014478326e-04 0.0 
0.0 0.0 -1.423072560050e-04 
-1.411610954119e-04 -1.667686956676e-07 0.0 
-1.667686956676e-07 9.361864568386e-04 0.0 
0.0 0.0 -1.409767306836e-04 
-6.685806001299e-05 8.336719987083e-07 0.0 
8.336719987083e-07 4.210903405702e-04 0.0 
0.0 0.0 -6.711978442003e-05 
-4.180859338127e-05 -2.391316367319e-06 0.0 
-2.391316367319e-06 2.386470707080e-04 0.0 
0.0 0.0 -4.128748474099e-05 
-4.202443748219e-05 2.082260459365e-08 0.0 
2.082260459365e-08 2.421619926750e-04 0.0 
0.0 0.0 -4.155413421678e-05 
-4.885629556399e-05 9.695166710736e-07 0.0 
9.695166710736e-07 2.973049205982e-04 0.0 
0.0 0.0 -4.949622909127e-05 
-5.886475257555e-05 5.012940386976e-07 0.0 
5.012940386976e-07 3.671165151901e-04 0.0 
0.0 0.0 -5.942331684616e-05 
-1.701524326179e-04 -2.478949267954e-07 0.0 
-2.478949267954e-07 1.141091287684e-03 0.0 
0.0 0.0 -1.704540905158e-04 
-1.688701131472e-04 -7.880779693720e-07 0.0 
-7.880779693720e-07 1.128148657559e-03 0.0 
0.0 0.0 -1.686097943865e-04 
-1.645187862567e-04 -7.830603816419e-07 0.0 
-7.830603816419e-07 1.098043410909e-03 0.0 
0.0 0.0 -1.643423135982e-04 
-8.335621055865e-05 3.090761482563e-06 0.0 
3.090761482563e-06 5.330757850641e-04 0.0 
0.0 0.0 -8.309698707208e-05 
-8.907622380058e-05 9.098765487225e-07 0.0 
9.098765487225e-07 5.710176681635e-04 0.0 
0.0 0.0 -8.857956952730e-05 
-1.698091735536e-04 4.492498910090e-07 0.0 
4.492498910090e-07 1.141399927452e-03 0.0 
0.0 0.0 -1.704417977873e-04 
-1.357890576857e-04 -2.245189513229e-07 0.0 
-2.245189513229e-07 9.134142540395e-04 0.0 
0.0 0.0 -1.376677267776e-04 
-1.395432965358e-04 -1.715851711574e-07 0.0 
-1.715851711574e-07 9.262509041073e-04 0.0 
0.0 0.0 -1.395319589165e-04 
-1.347947841220e-04 2.713370184276e-07 0.0 
2.713370184276e-07 8.938256624501e-04 0.0 
0.0 0.0 -1.350285088515e-04 
-3.672231146069e-05 -2.132510581459e-06 0.0 
-2.132510581459e-06 2.203530386721e-04 0.0 
0.0 0.0 -3.892831888128e-05 
-3.637712963261e-05 7.197511136289e-07 0.0 
7.197511136289e-07 2.141167117019e-04 0.0 
0.0 0.0 -3.788396651025e-05 
-1.694800178962e-04 -9.883703524796e-07 0.0 
-9.883703524796e-07 1.133513736801e-03 0.0 
0.0 0.0 -1.692545752333e-04 
-6.937545800042e-05 3.228980611411e-07 0.0 
3.228980611411e-07 4.358386743780e-04 0.0 
0.0 0.0 -6.923809046111e-05 
-6.522800914265e-05 4.802178938972e-07 0.0 
4.802178938972e-07 4.068593445534e-04 0.0 
0.0 0.0 -6.513959669466e-05 
-3.835293382449e-05 1.419780011636e-06 0.0 
1.419780011636e-06 2.169955699432e-04 0.0 
0.0 0.0 -3.762272808090e-05 
-3.184713987987e-05 3.230456577081e-07 0.0 
3.230456577081e-07 1.763378694127e-04 0.0 
0.0 0.0 -3.215802126946e-05 
-1.564097184147e-04 2.852905095697e-06 0.0 
2.852905095697e-06 1.049316422252e-03 0.0 
0.0 0.0 -1.577722324506e-04 
-1.666476506988e-04 2.040589658683e-06 0.0 
2.040589658683e-06 1.120282174027e-03 0.0 
0.0 0.0 -1.676789152757e-04 
-1.096907460405e-04 -3.286013999443e-07 0.0 
-3.286013999443e-07 7.221561234987e-04 0.0 
0.0 0.0 -1.103539394458e-04 
-1.146883842954e-04 -1.653249674978e-06 0.0 
-1.653249674978e-06 7.528293944776e-04 0.0 
0.0 0.0 -1.147244957885e-04 
-1.658368221067e-04 -7.296927506316e-07 0.0 
-7.296927506316e-07 1.111095675298e-03 0.0 
0.0 0.0 -1.661337593878e-04 
-4.600380394054e-05 -1.491158073068e-07 0.0 
-1.491158073068e-07 2.738216254214e-04 0.0 
0.0 0.0 -4.591192000902e-05 
-1.719378156417e-04 1.421041712674e-07 0.0 
1.421041712674e-07 1.154049105325e-03 0.0 
0.0 0.0 -1.723772497485e-04 
-1.472965570201e-04 4.727447796770e-07 0.0 
4.727447796770e-07 9.788476002172e-04 0.0 
0.0 0.0 -1.471186205066e-04 
-1.373907042142e-04 1.793164290012e-07 0.0 
1.793164290012e-07 9.102123959892e-04 0.0 
0.0 0.0 -1.372860605493e-04 
-9.767120859221e-05 2.136804418641e-06 0.0 
2.136804418641e-06 6.441362083975e-04 0.0 
0.0 0.0 -9.906935000530e-05 
-5.062215510686e-05 1.026665089058e-06 0.0 
1.026665089058e-06 3.047645721911e-04 0.0 
0.0 0.0 -5.049648738178e-05 
-4.540502709285e-05 6.832131871420e-07 0.0 
6.832131871420e-07 2.672371430162e-04 0.0 
0.0 0.0 -4.513648964862e-05 
-7.256428344436e-05 1.111321589037e-06 0.0 
1.111321589037e-06 4.598861736081e-04 0.0 
0.0 0.0 -7.268378841861e-05 
-5.559787971176e-05 4.468565818418e-07 0.0 
4.468565818418e-07 3.424877842220e-04 0.0 
0.0 0.0 -5.585123947100e-05 
-5.303663475667e-05 2.464193940360e-07 0.0 
2.464193940360e-07 3.275568518533e-04 0.0 
0.0 0.0 -5.375179489994e-05 
-1.757934592010e-04 1.094510029965e-06 0.0 
1.094510029965e-06 1.179890690537e-03 0.0 
0.0 0.0 -1.760744972657e-04 
-1.733244805152e-04 -1.137885131472e-06 0.0 
-1.137885131472e-06 1.163616194136e-03 0.0 
0.0 0.0 -1.736362873376e-04 
-1.621997224677e-04 -1.527288975187e-06 0.0 
-1.527288975187e-06 1.082969057806e-03 0.0 
0.0 0.0 -1.620259229750e-04 
-1.525464893974e-04 4.621401952170e-09 0.0 
4.621401952170e-09 1.015177504387e-03 0.0 
0.0 0.0 -1.523516756879e-04 
-1.708917266004e-04 -1.191002855825e-06 0.0 
-1.191002855825e-06 1.149869569914e-03 0.0 
0.0 0.0 -1.717432538670e-04 
-3.490930834727e-05 -8.429582514125e-07 0.0 
-8.429582514125e-07 2.054757264963e-04 0.0 
0.0 0.0 -3.598778460012e-05 
-1.750597953055e-04 -3.250942675730e-07 0.0 
-3.250942675730e-07 1.172414927759e-03 0.0 
0.0 0.0 -1.748691643181e-04 
-1.586399412700e-04 -2.193877546445e-07 0.0 
-2.193877546445e-07 1.058088814965e-03 0.0 
0.0 0.0 -1.584205238596e-04 
-1.750232827386e-04 1.287113450679e-06 0.0 
1.287113450679e-06 1.163117526416e-03 0.0 
0.0 0.0 -1.736397701047e-04 
-1.700112759458e-04 -1.265368885600e-07 0.0 
-1.265368885600e-07 1.135355063019e-03 0.0 
0.0 0.0 -1.696829740659e-04 
-7.476684779119e-05 6.450836384553e-07 0.0 
6.450836384553e-07 4.725536723755e-04 0.0 
0.0 0.0 -7.452749745521e-05 
-7.091016921093e-05 -6.094699303138e-07 0.0 
-6.094699303138e-07 4.445526167574e-04 0.0 
0.0 0.0 -7.058709718060e-05 
-6.137074756451e-05 4.293104842184e-07 0.0 
4.293104842184e-07 3.794045980526e-04 0.0 
0.0 0.0 -6.117385547845e-05 
-6.706588179639e-05 1.609427156406e-06 0.0 
1.609427156406e-06 4.182950742711e-04 0.0 
0.0 0.0 -6.657037245228e-05 
-1.266094766854e-04 -6.739720647019e-07 0.0 
-6.739720647019e-07 8.277553541706e-04 0.0 
0.0 0.0 -1.254250592285e-04 
-8.035638793885e-05 -1.393926461580e-07 0.0 
-1.393926461580e-07 5.104400494154e-04 0.0 
0.0 0.0 -8.000873303496e-05 
-1.195834177750e-04 -1.404073059010e-07 0.0 
-1.404073059010e-07 7.834003609027e-04 0.0 
0.0 0.0 -1.190894946197e-04 
-1.155376331103e-04 -2.307315433276e-07 0.0 
-2.307315433276e-07 7.547800193782e-04 0.0 
0.0 0.0 -1.149779503611e-04 
-1.103258532928e-04 1.102189864937e-07 0.0 
1.102189864937e-07 7.186555490901e-04 0.0 
0.0 0.0 -1.097928741388e-04 
-9.842809374509e-05 1.902629040635e-07 0.0 
1.902629040635e-07 6.359410459750e-04 0.0 
0.0 0.0 -9.791810678625e-05 
-9.437419777145e-05 -2.159475299136e-07 0.0 
-2.159475299136e-07 6.080813734442e-04 0.0 
0.0 0.0 -9.392806562918e-05 
-8.322610419495e-05 -1.701840068510e-07 0.0 
-1.701840068510e-07 5.319942046353e-04 0.0 
0.0 0.0 -8.302446698330e-05 
-1.259991147617e-04 -5.365801846221e-07 0.0 
-5.365801846221e-07 8.306372732465e-04 0.0 
0.0 0.0 -1.258546578921e-04 
-1.058761433090e-04 7.571849957901e-08 0.0 
7.571849957901e-08 6.921175985289e-04 0.0 
0.0 0.0 -1.060443156317e-04 
-1.312139144854e-04 -3.837092576883e-07 0.0 
-3.837092576883e-07 8.682026054100e-04 0.0 
0.0 0.0 -1.312656420104e-04 
-1.251895528939e-04 1.195207152195e-07 0.0 
1.195207152195e-07 8.263310173887e-04 0.0 
0.0 0.0 -1.252521985300e-04 
-1.703049238627e-04 -5.676244569173e-07 0.0 
-5.676244569173e-07 1.139278121345e-03 0.0 
0.0 0.0 -1.702664597809e-04 
-1.760146123077e-04 -1.359452968980e-06 0.0 
-1.359452968980e-06 1.178275809354e-03 0.0 
0.0 0.0 -1.757907768048e-04 
-1.365524219146e-04 1.370157856815e-06 0.0 
1.370157856815e-06 9.012669428523e-04 0.0 
0.0 0.0 -1.359860927471e-04 
-1.307920283978e-04 1.357393189447e-07 0.0 
1.357393189447e-07 8.686300506088e-04 0.0 
0.0 0.0 -1.314620690688e-04 
-4.233213601894e-05 -2.593523707964e-07 0.0 
-2.593523707964e-07 2.470565775743e-04 0.0 
0.0 0.0 -4.219739737344e-05 
-3.886008786518e-05 1.163800211807e-06 0.0 
1.163800211807e-06 2.179605684997e-04 0.0 
0.0 0.0 -3.798854165781e-05 
-1.182815464932e-04 7.930796381185e-08 0.0 
7.930796381185e-08 7.785584436133e-04 0.0 
0.0 0.0 -1.184174655913e-04 
-1.693736305393e-04 6.591876404938e-07 0.0 
6.591876404938e-07 1.131789490517e-03 0.0 
0.0 0.0 -1.691294037713e-04 
-1.725748694788e-04 -2.401644388829e-08 0.0 
-2.401644388829e-08 1.155505334098e-03 0.0 
0.0 0.0 -1.725143790870e-04 
-1.770772882819e-04 -4.241524903004e-07 0.0 
-4.241524903004e-07 1.186342832568e-03 0.0 
0.0 0.0 -1.769059244357e-04 
-1.714408370001e-04 -4.978042219239e-07 0.0 
-4.978042219239e-07 1.148550534216e-03 0.0 
0.0 0.0 -1.715053987883e-04 
-1.710166963781e-04 1.347194091456e-07 0.0 
1.347194091456e-07 1.148948053295e-03 0.0 
0.0 0.0 -1.716410088010e-04 
-8.613875064520e-05 1.983705843862e-08 0.0 
1.983705843862e-08 5.527937603815e-04 0.0 
0.0 0.0 -8.600610143220e-05 
-1.288985122743e-04 -4.311114656055e-07 0.0 
-4.311114656055e-07 8.513543686181e-04 0.0 
0.0 0.0 -1.288645011303e-04 
-3.653516155706e-05 -1.602670112053e-06 0.0 
-1.602670112053e-06 2.073406842075e-04 0.0 
0.0 0.0 -3.634822514125e-05 
-1.333225735758e-04 1.155434495762e-07 0.0 
1.155434495762e-07 8.819083259488e-04 0.0 
0.0 0.0 -1.332694147460e-04 
-3.243355553450e-05 -5.508408617257e-07 0.0 
-5.508408617257e-07 1.777229056962e-04 0.0 
0.0 0.0 -3.243805315734e-05 
-1.521318087540e-04 -2.136602868642e-07 0.0 
-2.136602868642e-07 1.009920947414e-03 0.0 
0.0 0.0 -1.515479370354e-04 
-1.681720023865e-04 8.090304823282e-08 0.0 
8.090304823282e-08 1.126882532784e-03 0.0 
0.0 0.0 -1.684223758654e-04 
-1.735596513314e-04 4.917479192802e-09 0.0 
4.917479192802e-09 1.165356413454e-03 0.0 
0.0 0.0 -1.738820625913e-04 
-1.749637471521e-04 2.720388968619e-07 0.0 
2.720388968619e-07 1.178416888185e-03 0.0 
0.0 0.0 -1.757938962529e-04 
-1.125612094541e-04 1.713025509613e-06 0.0 
1.713025509613e-06 7.350876687057e-04 0.0 
0.0 0.0 -1.120642929630e-04 
-1.375852130868e-04 4.206176119327e-07 0.0 
4.206176119327e-07 9.112604874474e-04 0.0 
0.0 0.0 -1.374408399149e-04 
-1.323430315928e-04 2.679124462256e-07 0.0 
2.679124462256e-07 8.742078643875e-04 0.0 
0.0 0.0 -1.321308925596e-04 
-1.061253817389e-04 5.601605163015e-07 0.0 
5.601605163015e-07 6.904423550458e-04 0.0 
0.0 0.0 -1.057303730324e-04 
-1.010535408523e-04 5.872506187825e-07 0.0 
5.872506187825e-07 6.547439695766e-04 0.0 
0.0 0.0 -1.006129583810e-04 
-1.050589004756e-04 5.249789125323e-07 0.0 
5.249789125323e-07 6.823405630018e-04 0.0 
0.0 0.0 -1.045943784994e-04 
-9.594121695788e-05 5.701784484997e-07 0.0 
5.701784484997e-07 6.189426135763e-04 0.0 
0.0 0.0 -9.539409567622e-05 
-7.670722250222e-05 7.477520012380e-07 0.0 
7.477520012380e-07 4.887760317978e-04 0.0 
0.0 0.0 -7.683892420519e-05 
-7.103860008569e-05 4.652611723913e-07 0.0 
4.652611723913e-07 4.497405032502e-04 0.0 
0.0 0.0 -7.125283206988e-05 
-1.794791303054e-04 3.046290545187e-07 0.0 
3.046290545187e-07 1.202568044115e-03 0.0 
0.0 0.0 -1.788063205342e-04 
-1.769207863009e-04 3.279526117005e-06 0.0 
3.279526117005e-06 1.187698538996e-03 0.0 
0.0 0.0 -1.767990258302e-04 
-1.796288049769e-04 -8.041882013151e-07 0.0 
-8.041882013151e-07 1.202665816041e-03 0.0 
0.0 0.0 -1.789543763817e-04 
-1.735511399808e-04 -6.381743090030e-08 0.0 
-6.381743090030e-08 1.174777860682e-03 0.0 
0.0 0.0 -1.752247752347e-04 
-1.776329748734e-04 -4.492702858952e-07 0.0 
-4.492702858952e-07 1.208120942378e-03 0.0 
0.0 0.0 -1.801365737201e-04 
-1.734650378150e-04 -1.715499755082e-07 0.0 
-1.715499755082e-07 1.171053020005e-03 0.0 
0.0 0.0 -1.746253154232e-04 
-6.397194449559e-05 -8.644213742386e-07 0.0 
-8.644213742386e-07 3.958263205946e-04 0.0 
0.0 0.0 -6.341026310084e-05 
-8.522640710731e-05 3.477888862429e-07 0.0 
3.477888862429e-07 5.439871764934e-04 0.0 
0.0 0.0 -8.469390476807e-05 
-1.776955029070e-04 -1.524143709276e-06 0.0 
-1.524143709276e-06 1.201358150170e-03 0.0 
0.0 0.0 -1.791227834549e-04 
-1.112229346520e-04 4.789206220835e-07 0.0 
4.789206220835e-07 7.257595216689e-04 0.0 
0.0 0.0 -1.108630369651e-04 
-1.797556034384e-04 -6.312345564761e-07 0.0 
-6.312345564761e-07 1.200035518570e-03 0.0 
0.0 0.0 -1.789253132142e-04 
-1.736948380453e-04 5.431781983200e-07 0.0 
5.431781983200e-07 1.162780945010e-03 0.0 
0.0 0.0 -1.734070790826e-04 
-2.519516585345e-05 -9.707201663460e-07 0.0 
-9.707201663460e-07 1.373677520700e-04 0.0 
0.0 0.0 -2.664754339747e-05 
-3.015018737399e-05 -3.279297815400e-06 0.0 
-3.279297815400e-06 1.664829630556e-04 0.0 
0.0 0.0 -3.052430242461e-05 
-1.769892636273e-04 2.634610193557e-07 0.0 
2.634610193557e-07 1.192719086742e-03 0.0 
0.0 0.0 -1.776883310004e-04 
-5.758327952376e-05 -3.462473019866e-08 0.0 
-3.462473019866e-08 3.517263668732e-04 0.0 
0.0 0.0 -5.717887963261e-05 
-6.329339839047e-05 1.198404527509e-06 0.0 
1.198404527509e-06 3.880051844578e-04 0.0 
0.0 0.0 -6.238035407746e-05 
-5.212222281800e-05 -2.848057552127e-07 0.0 
-2.848057552127e-07 3.138366464287e-04 0.0 
0.0 0.0 -5.189549137910e-05 
-1.887618442225e-04 7.084845367266e-07 0.0 
7.084845367266e-07 1.267778144178e-03 0.0 
0.0 0.0 -1.887465440047e-04 
-1.122732225603e-04 -4.441296090606e-07 0.0 
-4.441296090606e-07 7.339799403067e-04 0.0 
0.0 0.0 -1.121888505450e-04 
-1.770685012225e-04 3.305358162577e-07 0.0 
3.305358162577e-07 1.195492347302e-03 0.0 
0.0 0.0 -1.784128478473e-04 
-1.037318983505e-04 3.959585097192e-08 0.0 
3.959585097192e-08 6.732989381237e-04 0.0 
0.0 0.0 -1.032702350429e-04 
-1.811215610528e-04 5.481099123404e-07 0.0 
5.481099123404e-07 1.225364590535e-03 0.0 
0.0 0.0 -1.824766045798e-04 
-1.418983722809e-04 3.275014927135e-07 0.0 
3.275014927135e-07 9.414952171589e-04 0.0 
0.0 0.0 -1.417367461992e-04 
-9.531983498029e-05 1.199130758146e-06 0.0 
1.199130758146e-06 6.176848429937e-04 0.0 
0.0 0.0 -9.530949026541e-05 
-1.618025468886e-04 -1.313138482705e-06 0.0 
-1.313138482705e-06 1.080414047570e-03 0.0 
0.0 0.0 -1.617266240239e-04 
-1.712367337160e-04 -2.517022686550e-06 0.0 
-2.517022686550e-06 1.155497819449e-03 0.0 
0.0 0.0 -1.723711093632e-04 
-1.839585546077e-04 1.922702604488e-06 0.0 
1.922702604488e-06 1.233266053318e-03 0.0 
0.0 0.0 -1.832438941626e-04 
-1.282285700338e-04 1.437764343269e-06 0.0 
1.437764343269e-06 8.565496247714e-04 0.0 
0.0 0.0 -1.295806172002e-04 
-1.247283955189e-04 -2.695014414448e-06 0.0 
-2.695014414448e-06 8.206621223611e-04 0.0 
0.0 0.0 -1.249156399969e-04 
-1.336973054243e-04 4.780502432986e-07 0.0 
4.780502432986e-07 8.862457055751e-04 0.0 
0.0 0.0 -1.338771030064e-04 
-4.352546499244e-05 4.436478363745e-07 0.0 
4.436478363745e-07 2.551361667223e-04 0.0 
0.0 0.0 -4.330579966881e-05 
-3.389814883689e-05 -2.442715112613e-07 0.0 
-2.442715112613e-07 1.810863350630e-04 0.0 
0.0 0.0 -3.279405811742e-05 
-1.716063829927e-04 -5.958765859028e-07 0.0 
-5.958765859028e-07 1.146696562296e-03 0.0 
0.0 0.0 -1.713135399111e-04 
-7.523536838437e-05 -6.007458973842e-07 0.0 
-6.007458973842e-07 4.758491836951e-04 0.0 
0.0 0.0 -7.509208182934e-05 
-8.235594042686e-05 2.209891807401e-06 0.0 
2.209891807401e-06 5.147698268391e-04 0.0 
0.0 0.0 -8.038827667338e-05 
-5.001146581911e-05 6.274014862649e-08 0.0 
6.274014862649e-08 3.012652504281e-04 0.0 
0.0 0.0 -4.993066604202e-05 
-5.951991557963e-05 4.745024153846e-07 0.0 
4.745024153846e-07 3.695589487495e-04 0.0 
0.0 0.0 -5.978314405524e-05 
-1.155737714789e-04 -3.760380621998e-07 0.0 
-3.760380621998e-07 7.609985150200e-04 0.0 
0.0 0.0 -1.159213944990e-04 
-1.114463395749e-04 -2.406998584791e-07 0.0 
-2.406998584791e-07 7.310738123434e-04 0.0 
0.0 0.0 -1.116262644424e-04 
-1.561658126362e-04 -5.299206413351e-07 0.0 
-5.299206413351e-07 1.039568765867e-03 0.0 
0.0 0.0 -1.558038104416e-04 
-1.616536575182e-04 8.873878670216e-08 0.0 
8.873878670216e-08 1.076746179334e-03 0.0 
0.0 0.0 -1.611194038499e-04 
-1.452021797269e-04 -7.201116330741e-07 0.0 
-7.201116330741e-07 9.647061708381e-04 0.0 
0.0 0.0 -1.451343074576e-04 
-1.417360905196e-04 8.632870990932e-08 0.0 
8.632870990932e-08 9.403024522762e-04 0.0 
0.0 0.0 -1.415933767274e-04 
-1.319020358547e-04 3.977806768540e-08 0.0 
3.977806768540e-08 8.718254866790e-04 0.0 
0.0 0.0 -1.317570344669e-04 
-1.275952978262e-04 -1.808898908879e-07 0.0 
-1.808898908879e-07 8.422298684311e-04 0.0 
0.0 0.0 -1.275414768178e-04 
-1.808056931016e-04 -1.525758788825e-06 0.0 
-1.525758788825e-06 1.206677931101e-03 0.0 
0.0 0.0 -1.799800510317e-04 
-1.870307763930e-04 -2.673876865903e-07 0.0 
-2.673876865903e-07 1.255623469781e-03 0.0 
0.0 0.0 -1.864092322314e-04 
-8.236599237368e-05 5.694757370753e-07 0.0 
5.694757370753e-07 5.272929756111e-04 0.0 
0.0 0.0 -8.232948673513e-05 
-7.828325005813e-05 7.807941924694e-07 0.0 
7.807941924694e-07 4.983469412597e-04 0.0 
0.0 0.0 -7.818189541436e-05 
-8.066781870606e-05 6.215778532638e-07 0.0 
6.215778532638e-07 5.167877030226e-04 0.0 
0.0 0.0 -8.085192856594e-05 
-1.821793884671e-04 -9.452425038887e-07 0.0 
-9.452425038887e-07 1.232295246858e-03 0.0 
0.0 0.0 -1.834584547941e-04 
-1.830922366977e-04 2.536660346183e-06 0.0 
2.536660346183e-06 1.235147881441e-03 0.0 
0.0 0.0 -1.836006722523e-04 
-1.803954664386e-04 -2.175726806454e-06 0.0 
-2.175726806454e-06 1.202974169961e-03 0.0 
0.0 0.0 -1.793731166858e-04 
-2.884547195492e-05 -1.949294581992e-06 0.0 
-1.949294581992e-06 1.508764218898e-04 0.0 
0.0 0.0 -2.821170413667e-05 
-3.570881000968e-05 -1.070718923965e-06 0.0 
-1.070718923965e-06 1.885432469507e-04 0.0 
0.0 0.0 -3.370638853217e-05 
-4.213783208319e-05 -1.170748262366e-07 0.0 
-1.170748262366e-07 2.402822286115e-04 0.0 
0.0 0.0 -4.126795851095e-05 
-3.586246974089e-05 -2.546283779184e-06 0.0 
-2.546283779184e-06 2.018033726068e-04 0.0 
0.0 0.0 -3.610688574664e-05 
-1.813118037091e-04 3.339770754455e-08 0.0 
3.339770754455e-08 1.214209313964e-03 0.0 
0.0 0.0 -1.810888083315e-04 
-1.759503644858e-04 -2.370337744304e-09 0.0 
-2.370337744304e-09 1.179752016776e-03 0.0 
0.0 0.0 -1.758947287297e-04 
-1.868380600491e-04 -2.026246098820e-08 0.0 
-2.026246098820e-08 1.260450932184e-03 0.0 
0.0 0.0 -1.871207327665e-04 
-5.677368414960e-05 2.032718348151e-06 0.0 
2.032718348151e-06 3.527741904510e-04 0.0 
0.0 0.0 -5.702308739092e-05 
-1.568027754872e-04 9.086678946458e-07 0.0 
9.086678946458e-07 1.045425867798e-03 0.0 
0.0 0.0 -1.567983548164e-04 
-1.807947804281e-04 1.816885949765e-06 0.0 
1.816885949765e-06 1.215031055035e-03 0.0 
0.0 0.0 -1.811848825972e-04 
-1.767874529665e-04 2.635533244676e-06 0.0 
2.635533244676e-06 1.187503191795e-03 0.0 
0.0 0.0 -1.767018567944e-04 
-1.863663002342e-04 1.461510242915e-06 0.0 
1.461510242915e-06 1.257417594462e-03 0.0 
0.0 0.0 -1.866936124609e-04 
-1.705605319310e-04 -3.043131196867e-07 0.0 
-3.043131196867e-07 1.147035567734e-03 0.0 
0.0 0.0 -1.713153186433e-04 
-1.813551999588e-04 -1.051944771726e-06 0.0 
-1.051944771726e-06 1.212243561196e-03 0.0 
0.0 0.0 -1.808143025540e-04 
-1.810144852020e-04 9.510582154737e-07 0.0 
9.510582154737e-07 1.215244823925e-03 0.0 
0.0 0.0 -1.813984546852e-04 
-2.289882463440e-05 -1.917411223350e-06 0.0 
-1.917411223350e-06 1.064438362998e-04 0.0 
0.0 0.0 -2.272772520152e-05 
-1.796453692485e-04 -2.519464026569e-06 0.0 
-2.519464026569e-06 1.205769465943e-03 0.0 
0.0 0.0 -1.799989151485e-04 
-1.255838269039e-04 -2.372108616113e-07 0.0 
-2.372108616113e-07 8.274746007515e-04 0.0 
0.0 0.0 -1.255735778981e-04 
-1.648487917531e-05 -4.731674107763e-06 0.0 
-4.731674107763e-06 7.996115120316e-05 0.0 
0.0 0.0 -1.701907742944e-05 
-1.197277503755e-04 -6.241620168613e-08 0.0 
-6.241620168613e-08 7.962718767862e-04 0.0 
0.0 0.0 -1.210522788133e-04 
-1.264445161814e-04 -2.564056665928e-07 0.0 
-2.564056665928e-07 8.371650247824e-04 0.0 
0.0 0.0 -1.267742309066e-04 
-1.154487627705e-04 -6.658166254296e-07 0.0 
-6.658166254296e-07 7.569378951924e-04 0.0 
0.0 0.0 -1.162214466274e-04 
-4.660515595758e-05 1.493989084367e-06 0.0 
1.493989084367e-06 2.841958466787e-04 0.0 
0.0 0.0 -4.732948783071e-05 
-1.214260254664e-04 -1.596625013767e-06 0.0 
-1.596625013767e-06 8.039136548600e-04 0.0 
0.0 0.0 -1.226115929076e-04 
-1.277494935593e-04 -2.322994823893e-06 0.0 
-2.322994823893e-06 8.489823059285e-04 0.0 
0.0 0.0 -1.283491864751e-04 
-2.181725480317e-05 4.928406156629e-07 0.0 
4.928406156629e-07 1.070930809537e-04 0.0 
0.0 0.0 -2.131994005793e-05 
-1.874449477591e-04 5.176155724587e-07 0.0 
5.176155724587e-07 1.267519228381e-03 0.0 
0.0 0.0 -1.888952332360e-04 
-2.478565018414e-05 -1.930000472000e-06 0.0 
-1.930000472000e-06 1.118328058531e-04 0.0 
0.0 0.0 -2.334665006309e-05 
-2.656716960799e-05 -2.510778064998e-06 0.0 
-2.510778064998e-06 1.411464559949e-04 0.0 
0.0 0.0 -2.709867152969e-05 
-1.817312836183e-04 2.201942420487e-06 0.0 
2.201942420487e-06 1.232410437945e-03 0.0 
0.0 0.0 -1.831822052943e-04 
-1.773206336066e-04 -2.021839507971e-07 0.0 
-2.021839507971e-07 1.191992626232e-03 0.0 
0.0 0.0 -1.776517324320e-04 
-1.872954897737e-04 -1.006614931482e-06 0.0 
-1.006614931482e-06 1.259866749947e-03 0.0 
0.0 0.0 -1.871589901852e-04 
-1.824456739670e-04 2.064220422989e-06 0.0 
2.064220422989e-06 1.218220290450e-03 0.0 
0.0 0.0 -1.816528226986e-04 
-1.719240551568e-04 -7.467342115413e-07 0.0 
-7.467342115413e-07 1.152044759436e-03 0.0 
0.0 0.0 -1.720599434401e-04 
-1.761500249536e-04 9.670950468971e-07 0.0 
9.670950468971e-07 1.183630845697e-03 0.0 
0.0 0.0 -1.764735915037e-04 
-1.203392003903e-04 -2.198342008040e-06 0.0 
-2.198342008040e-06 7.898463321084e-04 0.0 
0.0 0.0 -1.197898394197e-04 
-1.865443414806e-04 2.647479046358e-06 0.0 
2.647479046358e-06 1.260124298644e-03 0.0 
0.0 0.0 -1.873527554397e-04 
-1.803841241731e-04 6.709369355739e-07 0.0 
6.709369355739e-07 1.214344074041e-03 0.0 
0.0 0.0 -1.811164307615e-04 
-1.921061091143e-04 1.480715088923e-06 0.0 
1.480715088923e-06 1.296918019707e-03 0.0 
0.0 0.0 -1.916891122952e-04 
-9.208569695246e-05 6.093443112199e-07 0.0 
6.093443112199e-07 5.924864494399e-04 0.0 
0.0 0.0 -9.162005200151e-05 
-7.283645161877e-05 4.586395072900e-07 0.0 
4.586395072900e-07 4.547389083214e-04 0.0 
0.0 0.0 -7.184037522857e-05 
-6.889002091575e-05 3.964795035727e-07 0.0 
3.964795035727e-07 4.246717698014e-04 0.0 
0.0 0.0 -6.790877045087e-05 
-5.909497143754e-05 6.023844365174e-06 0.0 
6.023844365174e-06 3.592168662585e-04 0.0 
0.0 0.0 -5.813495639200e-05 
-1.853176739262e-04 8.122300759658e-07 0.0 
8.122300759658e-07 1.250781756793e-03 0.0 
0.0 0.0 -1.860270850411e-04 
-1.796312402729e-04 3.276727185624e-06 0.0 
3.276727185624e-06 1.208836358275e-03 0.0 
0.0 0.0 -1.800885023177e-04 
-1.631801230170e-04 1.627520387689e-07 0.0 
1.627520387689e-07 1.090569837524e-03 0.0 
0.0 0.0 -1.631333845344e-04 
-1.534477329204e-04 6.766395027793e-07 0.0 
6.766395027793e-07 1.020410487752e-03 0.0 
0.0 0.0 -1.531108459605e-04 
-1.224599435499e-04 1.078011159301e-06 0.0 
1.078011159301e-06 8.009987656654e-04 0.0 
0.0 0.0 -1.216227322220e-04 
-1.215744765480e-04 -1.237691044798e-06 0.0 
-1.237691044798e-06 7.963280792961e-04 0.0 
0.0 0.0 -1.211602941205e-04 
-1.308077100931e-04 4.769688121849e-06 0.0 
4.769688121849e-06 8.600072513362e-04 0.0 
0.0 0.0 -1.301779020232e-04 
-1.297276618714e-04 -1.066682707188e-06 0.0 
-1.066682707188e-06 8.491749556053e-04 0.0 
0.0 0.0 -1.291373028237e-04 
-1.389532460221e-04 4.549858847667e-06 0.0 
4.549858847667e-06 9.158165643447e-04 0.0 
0.0 0.0 -1.380077606708e-04 
-1.362521981567e-04 -2.124783431130e-06 0.0 
-2.124783431130e-06 9.054980890478e-04 0.0 
0.0 0.0 -1.366342160092e-04 
-1.454793170856e-04 -4.423821596291e-06 0.0 
-4.423821596291e-06 9.700799799999e-04 0.0 
0.0 0.0 -1.459037168719e-04 
-1.870833549466e-04 3.909084775636e-06 0.0 
3.909084775636e-06 1.256272641087e-03 0.0 
0.0 0.0 -1.867631680280e-04 
-4.779563930822e-05 1.388169697748e-06 0.0 
1.388169697748e-06 2.856867328083e-04 0.0 
0.0 0.0 -4.771245731983e-05 
-1.019348355349e-04 5.925610993024e-07 0.0 
5.925610993024e-07 6.625121101145e-04 0.0 
0.0 0.0 -1.017460476387e-04 
-1.826285801103e-04 -1.661566205844e-06 0.0 
-1.661566205844e-06 1.237533025725e-03 0.0 
0.0 0.0 -1.842392070075e-04 
-1.784932399449e-04 -5.084121371406e-07 0.0 
-5.084121371406e-07 1.196504370322e-03 0.0 
0.0 0.0 -1.781095211982e-04 
-9.045878749083e-05 3.060141382145e-07 0.0 
3.060141382145e-07 5.804720461946e-04 0.0 
0.0 0.0 -9.001416730698e-05 
-8.189605333165e-05 1.641333009624e-06 0.0 
1.641333009624e-06 5.186644514913e-04 0.0 
0.0 0.0 -8.102430021026e-05 
-1.866907463054e-04 2.093765460227e-06 0.0 
2.093765460227e-06 1.251863261449e-03 0.0 
0.0 0.0 -1.858191563033e-04 
-8.427129088721e-05 2.509183407979e-07 0.0 
2.509183407979e-07 5.389541208829e-04 0.0 
0.0 0.0 -8.400472401885e-05 
-1.942862609106e-04 -4.604509060764e-07 0.0 
-4.604509060764e-07 1.310239742523e-03 0.0 
0.0 0.0 -1.943189575261e-04 
-7.089778492893e-06 -8.429924576269e-07 0.0 
-8.429924576269e-07 3.992716951653e-05 0.0 
0.0 0.0 -8.535005130452e-06 
-1.936791033226e-05 1.730686598501e-06 0.0 
1.730686598501e-06 1.017559906333e-04 0.0 
0.0 0.0 -2.030164989952e-05 
-8.968053387105e-05 4.268638781566e-07 0.0 
4.268638781566e-07 5.769858883096e-04 0.0 
0.0 0.0 -8.953811051246e-05 
-9.967591826382e-05 1.816339090071e-07 0.0 
1.816339090071e-07 6.455070859268e-04 0.0 
0.0 0.0 -9.930333011984e-05 
-7.698272719919e-05 1.369511196201e-06 0.0 
1.369511196201e-06 4.917432221998e-04 0.0 
0.0 0.0 -7.735978650723e-05 
-7.290112700995e-05 4.485042513468e-07 0.0 
4.485042513468e-07 4.686595431743e-04 0.0 
0.0 0.0 -7.375775675111e-05 
-1.516976068027e-04 9.731432031672e-08 0.0 
9.731432031672e-08 1.010085692234e-03 0.0 
0.0 0.0 -1.515828990902e-04 
-2.955388113014e-05 -3.810006738129e-07 0.0 
-3.810006738129e-07 1.597998460951e-04 0.0 
0.0 0.0 -2.992625374333e-05 
-4.708750000530e-05 -3.380683912339e-07 0.0 
-3.380683912339e-07 2.775741899182e-04 0.0 
0.0 0.0 -4.660401843130e-05 
-1.459872513037e-04 4.283387118632e-06 0.0 
4.283387118632e-06 9.787274438894e-04 0.0 
0.0 0.0 -1.469538452094e-04 
-3.739432352920e-05 8.132963554317e-08 0.0 
8.132963554317e-08 2.132217851977e-04 0.0 
0.0 0.0 -3.731550915806e-05 
-1.581113812495e-04 5.386783396549e-07 0.0 
5.386783396549e-07 1.056624836089e-03 0.0 
0.0 0.0 -1.583700297543e-04 
-8.859117282002e-05 -4.886909086428e-07 0.0 
-4.886909086428e-07 5.694929478328e-04 0.0 
0.0 0.0 -8.837999545446e-05 
-1.077149909289e-04 1.768026495235e-08 0.0 
1.768026495235e-08 7.012731036170e-04 0.0 
0.0 0.0 -1.073025146250e-04 
-5.592229804259e-05 8.436426505878e-07 0.0 
8.436426505878e-07 3.420524339702e-04 0.0 
0.0 0.0 -5.582998379547e-05 
-7.655387121575e-05 -1.360505059230e-06 0.0 
-1.360505059230e-06 4.844624894690e-04 0.0 
0.0 0.0 -7.620154526702e-05 
-1.304375061833e-04 -4.590487413422e-07 0.0 
-4.590487413422e-07 8.567018780296e-04 0.0 
0.0 0.0 -1.295787134191e-04 
-1.227913220526e-04 -1.069536414788e-06 0.0 
-1.069536414788e-06 7.988115105914e-04 0.0 
0.0 0.0 -1.212971597528e-04 
-1.171271358387e-04 6.312522150107e-07 0.0 
6.312522150107e-07 7.632427069466e-04 0.0 
0.0 0.0 -1.160760923294e-04 
-9.288654497448e-05 -4.149904162910e-07 0.0 
-4.149904162910e-07 5.993038953958e-04 0.0 
0.0 0.0 -9.268233649937e-05 
-7.967235479004e-05 1.560635261011e-06 0.0 
1.560635261011e-06 5.060818193185e-04 0.0 
0.0 0.0 -7.932496478153e-05 
-6.976412058096e-05 4.685918450985e-07 0.0 
4.685918450985e-07 4.348311074162e-04 0.0 
0.0 0.0 -6.925859231108e-05 
-1.236762265939e-04 1.286441015265e-07 0.0 
1.286441015265e-07 8.121194052814e-04 0.0 
0.0 0.0 -1.231954486131e-04 
-1.661664385129e-04 7.234197314207e-07 0.0 
7.234197314207e-07 1.111077522090e-03 0.0 
0.0 0.0 -1.661212681597e-04 
-1.708685371099e-04 1.275890329840e-06 0.0 
1.275890329840e-06 1.141280747299e-03 0.0 
0.0 0.0 -1.704512426999e-04 
-1.799814060202e-04 -8.892695818767e-09 0.0 
-8.892695818767e-09 1.206980088396e-03 0.0 
0.0 0.0 -1.798902840516e-04 
-1.752252711223e-04 6.293476179296e-07 0.0 
6.293476179296e-07 1.171825368199e-03 0.0 
0.0 0.0 -1.746897123557e-04 
-1.653204529079e-04 3.682681378693e-07 0.0 
3.682681378693e-07 1.103833188294e-03 0.0 
0.0 0.0 -1.650619928257e-04 
-1.692700239592e-04 -9.309390044845e-07 0.0 
-9.309390044845e-07 1.133313101005e-03 0.0 
0.0 0.0 -1.693613594316e-04 
-1.794459408941e-04 1.605079206946e-06 0.0 
1.605079206946e-06 1.200644277872e-03 0.0 
0.0 0.0 -1.790391580507e-04 
-1.729836631084e-04 -6.502744120077e-09 0.0 
-6.502744120077e-09 1.165149049271e-03 0.0 
0.0 0.0 -1.738884562940e-04 
-1.853394956414e-04 -1.746634483939e-06 0.0 
-1.746634483939e-06 1.245260351070e-03 0.0 
0.0 0.0 -1.851430293189e-04 
-1.779629991439e-04 -2.212681777784e-06 0.0 
-2.212681777784e-06 1.194508684255e-03 0.0 
0.0 0.0 -1.780963771770e-04 
-1.680008323397e-04 4.410252086398e-07 0.0 
4.410252086398e-07 1.124792316923e-03 0.0 
0.0 0.0 -1.681296768602e-04 
-1.732313668130e-04 2.383290929429e-07 0.0 
2.383290929429e-07 1.152919895369e-03 0.0 
0.0 0.0 -1.721639567129e-04 
-1.820197878976e-04 -9.097203098576e-07 0.0 
-9.097203098576e-07 1.219293629434e-03 0.0 
0.0 0.0 -1.811651920545e-04 
-1.627398560099e-04 -3.025378736543e-07 0.0 
-3.025378736543e-07 1.085392768176e-03 0.0 
0.0 0.0 -1.623890973126e-04 
-1.881496038472e-04 -6.722589035003e-07 0.0 
-6.722589035003e-07 1.272625835057e-03 0.0 
0.0 0.0 -1.896816515354e-04 
-9.936624462153e-05 3.711915790744e-07 0.0 
3.711915790744e-07 6.447993785367e-04 0.0 
0.0 0.0 -9.931710713211e-05 
-2.678077344496e-05 1.172604196378e-06 0.0 
1.172604196378e-06 1.469601996083e-04 0.0 
0.0 0.0 -2.776378382453e-05 
-2.718822131563e-05 5.643793796886e-06 0.0 
5.643793796886e-06 1.398182331985e-04 0.0 
0.0 0.0 -2.650814903740e-05 
-1.130938350532e-04 2.933038375314e-07 0.0 
2.933038375314e-07 7.386015135744e-04 0.0 
0.0 0.0 -1.126376112924e-04 
-1.957395771822e-04 4.072718166249e-07 0.0 
4.072718166249e-07 1.314065316165e-03 0.0 
0.0 0.0 -1.949709453146e-04 
-1.956422709446e-04 1.854437157927e-08 0.0 
1.854437157927e-08 1.316914351373e-03 0.0 
0.0 0.0 -1.952630510734e-04 
-7.363791568969e-05 4.448116745507e-08 0.0 
4.448116745507e-08 4.652432970724e-04 0.0 
0.0 0.0 -7.343539360029e-05 
-1.953259047097e-04 -1.682103116944e-07 0.0 
-1.682103116944e-07 1.316528916423e-03 0.0 
0.0 0.0 -1.955120939844e-04 
-1.210496703093e-04 -3.742029869829e-07 0.0 
-3.742029869829e-07 7.914115177246e-04 0.0 
0.0 0.0 -1.201823113336e-04 
-5.355766991560e-05 5.069063859746e-07 0.0 
5.069063859746e-07 3.232453025466e-04 0.0 
0.0 0.0 -5.296028401754e-05 
-1.953834150830e-04 -1.373297745112e-06 0.0 
-1.373297745112e-06 1.316914533701e-03 0.0 
0.0 0.0 -1.956430189105e-04 
-1.606320410693e-04 1.081811570651e-06 0.0 
1.081811570651e-06 1.073242688732e-03 0.0 
0.0 0.0 -1.607160970497e-04 
-1.551352503420e-04 -1.927443336718e-07 0.0 
-1.927443336718e-07 1.034924921134e-03 0.0 
0.0 0.0 -1.552285616758e-04 
-1.505583948677e-04 4.103370421326e-07 0.0 
4.103370421326e-07 1.004971037607e-03 0.0 
0.0 0.0 -1.509086942990e-04 
-1.950225372489e-04 -2.088550178189e-06 0.0 
-2.088550178189e-06 1.319599496419e-03 0.0 
0.0 0.0 -1.958801056209e-04 
-1.389109183028e-04 4.741451933546e-08 0.0 
4.741451933546e-08 9.181432809719e-04 0.0 
0.0 0.0 -1.384942297845e-04 
-1.959295069713e-04 -1.244434436796e-06 0.0 
-1.244434436796e-06 1.320610998766e-03 0.0 
0.0 0.0 -1.959024498733e-04 
-1.357909290755e-04 -7.273641547470e-07 0.0 
-7.273641547470e-07 8.985832613114e-04 0.0 
0.0 0.0 -1.355985557075e-04 
-1.314159132553e-04 -2.260781221256e-07 0.0 
-2.260781221256e-07 8.680741570170e-04 0.0 
0.0 0.0 -1.312144960014e-04 
-1.217410062802e-04 -7.968137970680e-08 0.0 
-7.968137970680e-08 8.004989808175e-04 0.0 
0.0 0.0 -1.215252423283e-04 
-1.635653543320e-04 -8.206507231058e-07 0.0 
-8.206507231058e-07 1.094591173860e-03 0.0 
0.0 0.0 -1.638368049481e-04 
-1.957128907948e-04 7.679802216987e-07 0.0 
7.679802216987e-07 1.315946828038e-03 0.0 
0.0 0.0 -1.954016999139e-04 
-1.877918467821e-04 -4.059023819972e-07 0.0 
-4.059023819972e-07 1.261052432128e-03 0.0 
0.0 0.0 -1.872601071101e-04 
-1.870380449284e-04 -1.951022404989e-06 0.0 
-1.951022404989e-06 1.260361361027e-03 0.0 
0.0 0.0 -1.872639817026e-04 
-1.800805456319e-04 7.540324232611e-08 0.0 
7.540324232611e-08 1.200437685780e-03 0.0 
0.0 0.0 -1.783672283586e-04 
-1.950646193177e-04 -5.546188052748e-08 0.0 
-5.546188052748e-08 1.316661406715e-03 0.0 
0.0 0.0 -1.955098189886e-04 
-1.957560602186e-04 -3.716868616247e-07 0.0 
-3.716868616247e-07 1.318924671883e-03 0.0 
0.0 0.0 -1.959998991124e-04 
-1.963981539868e-04 -5.303133434365e-07 0.0 
-5.303133434365e-07 1.320493656548e-03 0.0 
0.0 0.0 -1.962751064225e-04 
-6.844923036856e-05 1.199739337794e-06 0.0 
1.199739337794e-06 4.307455297825e-04 0.0 
0.0 0.0 -6.847160534926e-05 
-7.419643775584e-05 3.743388539179e-07 0.0 
3.743388539179e-07 4.695492771341e-04 0.0 
0.0 0.0 -7.401623890332e-05 
-8.376895134064e-05 1.300131340796e-07 0.0 
1.300131340796e-07 5.365706547931e-04 0.0 
0.0 0.0 -8.364053759108e-05 
-7.953934562445e-05 -2.075640414835e-08 0.0 
-2.075640414835e-08 5.072934929808e-04 0.0 
0.0 0.0 -7.948224144010e-05 
-6.989506786319e-05 -6.245293844846e-08 0.0 
-6.245293844846e-08 4.396733402016e-04 0.0 
0.0 0.0 -6.978551441703e-05 
-7.524805855893e-05 3.094892115024e-07 0.0 
3.094892115024e-07 4.777101055957e-04 0.0 
0.0 0.0 -7.524542772725e-05 
-8.492603218944e-05 -2.618464199117e-07 0.0 
-2.618464199117e-07 5.448643552104e-04 0.0 
0.0 0.0 -8.485997776147e-05 
-7.105462536305e-05 6.250310806944e-07 0.0 
6.250310806944e-07 4.479089343025e-04 0.0 
0.0 0.0 -7.097692746601e-05 
-1.705288852515e-04 -5.065676993723e-08 0.0 
-5.065676993723e-08 1.143493746239e-03 0.0 
0.0 0.0 -1.707769389999e-04 
-1.957870609060e-04 1.292884007357e-06 0.0 
1.292884007357e-06 1.318859783043e-03 0.0 
0.0 0.0 -1.958668742322e-04 
-1.350455497016e-04 7.864309328499e-09 0.0 
7.864309328499e-09 8.951240562794e-04 0.0 
0.0 0.0 -1.351191360868e-04 
-1.307165790976e-04 -4.322242656538e-09 0.0 
-4.322242656538e-09 8.644169275053e-04 0.0 
0.0 0.0 -1.307040085326e-04 
-1.209043728309e-04 3.853306452192e-07 0.0 
3.853306452192e-07 7.961045906332e-04 0.0 
0.0 0.0 -1.208983099878e-04 
-1.015178106691e-04 -3.679167517203e-07 0.0 
-3.679167517203e-07 6.622225460757e-04 0.0 
0.0 0.0 -1.017282540064e-04 
-1.070947291555e-04 -1.713274614578e-07 0.0 
-1.713274614578e-07 7.010953756025e-04 0.0 
0.0 0.0 -1.073098139330e-04 
-1.170318119329e-04 -2.304405178400e-07 0.0 
-2.304405178400e-07 7.699550145936e-04 0.0 
0.0 0.0 -1.171862911330e-04 
-9.606943952016e-05 -6.918043120030e-07 0.0 
-6.918043120030e-07 6.234320450168e-04 0.0 
0.0 0.0 -9.611914699067e-05 
-1.481119786321e-04 -1.006868581402e-07 0.0 
-1.006868581402e-07 9.856164309774e-04 0.0 
0.0 0.0 -1.481459134429e-04 
-1.955042779643e-04 -1.269047585912e-06 0.0 
-1.269047585912e-06 1.318349589731e-03 0.0 
0.0 0.0 -1.957504584866e-04 
-1.330884753948e-04 -1.768196315293e-07 0.0 
-1.768196315293e-07 8.806785880526e-04 0.0 
0.0 0.0 -1.330749450653e-04 
-1.026965489879e-04 1.178065411022e-07 0.0 
1.178065411022e-07 6.708683582992e-04 0.0 
0.0 0.0 -1.029894966699e-04 
-1.130854337220e-04 -7.438576483953e-07 0.0 
-7.438576483953e-07 7.384022260134e-04 0.0 
0.0 0.0 -1.127517955912e-04 
-1.209813153641e-04 2.130007804037e-06 0.0 
2.130007804037e-06 7.983489600902e-04 0.0 
0.0 0.0 -1.214223410530e-04 
-1.212906592670e-04 -2.948275088070e-06 0.0 
-2.948275088070e-06 8.006247840124e-04 0.0 
0.0 0.0 -1.214609177556e-04 
-1.289650632578e-04 -2.836448343722e-06 0.0 
-2.836448343722e-06 8.628838233816e-04 0.0 
0.0 0.0 -1.309968220184e-04 
-1.213818105996e-04 -4.266965506249e-06 0.0 
-4.266965506249e-06 8.042830918570e-04 0.0 
0.0 0.0 -1.223387611305e-04 
-1.201218344436e-04 -5.940699395266e-07 0.0 
-5.940699395266e-07 7.912234115192e-04 0.0 
0.0 0.0 -1.202289988118e-04 
-1.246396976616e-04 -5.061942420403e-07 0.0 
-5.061942420403e-07 8.213580181559e-04 0.0 
0.0 0.0 -1.245418513326e-04 
-1.191093718333e-04 1.337880474637e-07 0.0 
1.337880474637e-07 7.836030816467e-04 0.0 
0.0 0.0 -1.190678843757e-04 
-1.287401379332e-04 -4.825176742022e-07 0.0 
-4.825176742022e-07 8.510925999983e-04 0.0 
0.0 0.0 -1.288600603647e-04 
-1.226230270594e-04 -1.701149775371e-06 0.0 
-1.701149775371e-06 8.113018730487e-04 0.0 
0.0 0.0 -1.232036783932e-04 
-1.130241629680e-04 -1.858461286811e-06 0.0 
-1.858461286811e-06 7.480336692277e-04 0.0 
0.0 0.0 -1.141311642346e-04 
-1.321533265726e-04 -1.335199541160e-06 0.0 
-1.335199541160e-06 8.794062915419e-04 0.0 
0.0 0.0 -1.329915258165e-04 
-1.262846614202e-04 1.119259017791e-06 0.0 
1.119259017791e-06 8.372331183149e-04 0.0 
0.0 0.0 -1.265608218447e-04 
-1.120104832196e-04 -1.984611779904e-06 0.0 
-1.984611779904e-06 7.374063381166e-04 0.0 
0.0 0.0 -1.126429727744e-04 
-9.422976514582e-06 -1.217518494265e-06 0.0 
-1.217518494265e-06 4.558842274141e-05 0.0 
0.0 0.0 -8.813944590281e-06 
-2.032999859278e-05 1.550107281015e-06 0.0 
1.550107281015e-06 1.008000227599e-04 0.0 
0.0 0.0 -2.005057187811e-05 
-1.923634066646e-05 -1.281983274152e-06 0.0 
-1.281983274152e-06 9.903712088906e-05 0.0 
0.0 0.0 -1.977126557535e-05 
-2.892124709552e-05 -6.331508506686e-07 0.0 
-6.331508506686e-07 1.562935872075e-04 0.0 
0.0 0.0 -2.931975365146e-05 
-3.044620434302e-05 2.916307507694e-06 0.0 
2.916307507694e-06 1.611495346811e-04 0.0 
0.0 0.0 -2.995118946101e-05 
-3.774799277366e-05 3.794557032570e-07 0.0 
3.794557032570e-07 2.202737536706e-04 0.0 
0.0 0.0 -3.879981516104e-05 
-3.645995758034e-05 -3.803053327811e-06 0.0 
-3.803053327811e-06 2.139692199118e-04 0.0 
0.0 0.0 -3.742104924291e-05 
-2.033881415161e-05 -1.700939409159e-06 0.0 
-1.700939409159e-06 1.011583560657e-04 0.0 
0.0 0.0 -1.994621821224e-05 
-8.875489974186e-06 -3.480193746508e-07 0.0 
-3.480193746508e-07 4.471598822964e-05 0.0 
0.0 0.0 -8.692282348679e-06 
-1.963315251852e-05 3.711641581478e-07 0.0 
3.711641581478e-07 9.816218701372e-05 0.0 
0.0 0.0 -1.973534442338e-05 
-8.550733775924e-06 2.514775744061e-07 0.0 
2.514775744061e-07 4.381249491722e-05 0.0 
0.0 0.0 -8.579688284227e-06 
-1.901805583189e-05 4.776440578629e-08 0.0 
4.776440578629e-08 9.639762974465e-05 0.0 
0.0 0.0 -1.949131874972e-05 
-2.991788690013e-05 6.474225871532e-07 0.0 
6.474225871532e-07 1.629475291055e-04 0.0 
0.0 0.0 -3.058298354955e-05 
-4.437694804010e-05 -3.488760205633e-08 0.0 
-3.488760205633e-08 2.590089634221e-04 0.0 
0.0 0.0 -4.387725951834e-05 
-1.952890502554e-04 2.705057302809e-06 0.0 
2.705057302809e-06 1.308737158744e-03 0.0 
0.0 0.0 -1.942312205382e-04 
-9.935449687594e-05 7.019136318893e-07 0.0 
7.019136318893e-07 6.421560261642e-04 0.0 
0.0 0.0 -9.893255040107e-05 
-9.532292627254e-05 2.814699913044e-06 0.0 
2.814699913044e-06 6.114496525194e-04 0.0 
0.0 0.0 -9.397196729617e-05 
-8.400669900114e-05 2.679673941902e-06 0.0 
2.679673941902e-06 5.409587176071e-04 0.0 
0.0 0.0 -8.462574969392e-05 
-9.027594374168e-05 -7.837686841303e-07 0.0 
-7.837686841303e-07 5.798954878733e-04 0.0 
0.0 0.0 -8.961994476413e-05 
-1.045740752791e-04 3.140418326637e-06 0.0 
3.140418326637e-06 6.688688744112e-04 0.0 
0.0 0.0 -1.029858181470e-04 
-7.880649475037e-05 2.069962121031e-06 0.0 
2.069962121031e-06 5.047681260686e-04 0.0 
0.0 0.0 -7.930380845106e-05 
-7.495741100239e-05 3.408625348592e-06 0.0 
3.408625348592e-06 4.823631646977e-04 0.0 
0.0 0.0 -7.557437765277e-05 
-9.687066653002e-06 -3.402698014617e-07 0.0 
-3.402698014617e-07 4.591586104220e-05 0.0 
0.0 0.0 -8.739712030662e-06 
-2.047661094667e-05 -2.267522532193e-06 0.0 
-2.267522532193e-06 1.000681362490e-04 0.0 
0.0 0.0 -2.007353836932e-05 
-1.994917007271e-05 2.592468629793e-06 0.0 
2.592468629793e-06 9.445303527474e-05 0.0 
0.0 0.0 -1.994324578594e-05 
-3.151456459980e-05 1.463566236896e-06 0.0 
1.463566236896e-06 1.596924898443e-04 0.0 
0.0 0.0 -2.965054416063e-05 
-2.861510418730e-05 -1.205587774427e-06 0.0 
-1.205587774427e-06 1.581911772624e-04 0.0 
0.0 0.0 -2.941027143855e-05 
-1.937098915206e-05 8.384890895992e-08 0.0 
8.384890895992e-08 1.007669973979e-04 0.0 
0.0 0.0 -1.994784544742e-05 
-1.998172865117e-05 1.674549256837e-06 0.0 
1.674549256837e-06 1.004783062935e-04 0.0 
0.0 0.0 -1.993089637160e-05 
-9.184527398116e-06 -3.340486906928e-07 0.0 
-3.340486906928e-07 4.449611849599e-05 0.0 
0.0 0.0 -8.679810794752e-06 
-1.977844276233e-05 -5.706350657546e-07 0.0 
-5.706350657546e-07 9.957383946922e-05 0.0 
0.0 0.0 -1.962916685114e-05 
-2.895230255585e-05 1.615024457259e-06 0.0 
1.615024457259e-06 1.596384447765e-04 0.0 
0.0 0.0 -2.991862060476e-05 
-7.803011911719e-06 -7.706301462869e-07 0.0 
-7.706301462869e-07 4.106703932536e-05 0.0 
0.0 0.0 -8.301770963759e-06 
-1.590145051585e-04 -4.281304664763e-06 0.0 
-4.281304664763e-06 1.062076659957e-03 0.0 
0.0 0.0 -1.590640962770e-04 
-1.651868147433e-04 -3.398332014324e-06 0.0 
-3.398332014324e-06 1.099025294548e-03 0.0 
0.0 0.0 -1.645623349770e-04 
-1.955657779701e-04 -5.933825758626e-07 0.0 
-5.933825758626e-07 1.315952615564e-03 0.0 
0.0 0.0 -1.951345524439e-04 
-1.128859712793e-04 -3.830481927276e-06 0.0 
-3.830481927276e-06 7.447363822067e-04 0.0 
0.0 0.0 -1.137601485512e-04 
-8.506649409316e-06 3.037838616352e-07 0.0 
3.037838616352e-07 4.456634567568e-05 0.0 
0.0 0.0 -8.827439468020e-06 
-1.944078863341e-04 -1.551046245181e-07 0.0 
-1.551046245181e-07 1.307325842461e-03 0.0 
0.0 0.0 -1.938161294973e-04 
-1.950362438059e-04 -1.795147355396e-06 0.0 
-1.795147355396e-06 1.317406774879e-03 0.0 
0.0 0.0 -1.954759163179e-04 
-1.946257604888e-04 1.407080277293e-06 0.0 
1.407080277293e-06 1.317652425531e-03 0.0 
0.0 0.0 -1.957234727395e-04 
-1.786106491459e-04 1.328228983500e-06 0.0 
1.328228983500e-06 1.198614709334e-03 0.0 
0.0 0.0 -1.786587739673e-04 
-1.826581066041e-04 5.861318546716e-07 0.0 
5.861318546716e-07 1.232821746468e-03 0.0 
0.0 0.0 -1.836483987139e-04 
-1.952382200043e-04 8.912494885484e-07 0.0 
8.912494885484e-07 1.308332215826e-03 0.0 
0.0 0.0 -1.941854046512e-04 
-6.737308308447e-05 5.138193223355e-07 0.0 
5.138193223355e-07 4.244241960940e-04 0.0 
0.0 0.0 -6.769213596492e-05 
-1.828682302183e-04 1.640560627373e-06 0.0 
1.640560627373e-06 1.239731587643e-03 0.0 
0.0 0.0 -1.838610959833e-04 
-1.772400966804e-04 3.904476817882e-07 0.0 
3.904476817882e-07 1.184738121319e-03 0.0 
0.0 0.0 -1.767943248163e-04 
-4.906868359316e-05 -1.133942934728e-07 0.0 
-1.133942934728e-07 2.953935878240e-04 0.0 
0.0 0.0 -4.902575320116e-05 
-6.530462737817e-05 3.585817021727e-07 0.0 
3.585817021727e-07 4.102635123792e-04 0.0 
0.0 0.0 -6.560435786130e-05 
-1.483067082024e-04 3.970804381230e-07 0.0 
3.970804381230e-07 9.886270184883e-04 0.0 
0.0 0.0 -1.484951207735e-04 
-1.367944353413e-04 -1.825561973167e-07 0.0 
-1.825561973167e-07 9.072242838815e-04 0.0 
0.0 0.0 -1.368596897040e-04 
-1.696034640066e-04 -3.607287686916e-07 0.0 
-3.607287686916e-07 1.134493911371e-03 0.0 
0.0 0.0 -1.695585677381e-04 
-1.398704134916e-04 8.561054054661e-09 0.0 
8.561054054661e-09 9.278981832241e-04 0.0 
0.0 0.0 -1.398333781397e-04 
-1.606909834555e-04 -5.100249501151e-07 0.0 
-5.100249501151e-07 1.075019221100e-03 0.0 
0.0 0.0 -1.609685038039e-04 
-1.869198009603e-04 3.460184187221e-06 0.0 
3.460184187221e-06 1.256233406915e-03 0.0 
0.0 0.0 -1.866194889163e-04 
-4.208478570565e-05 -7.076859870355e-07 0.0 
-7.076859870355e-07 2.599245066963e-04 0.0 
0.0 0.0 -4.408826043591e-05 
-1.404915308446e-04 9.501955183076e-07 0.0 
9.501955183076e-07 9.316401756296e-04 0.0 
0.0 0.0 -1.404724030559e-04 
-1.368005256677e-04 9.839857355172e-07 0.0 
9.839857355172e-07 9.063105631980e-04 0.0 
0.0 0.0 -1.369552780944e-04 
-1.614580578208e-04 -5.040207315794e-07 0.0 
-5.040207315794e-07 1.077622303329e-03 0.0 
0.0 0.0 -1.613909692546e-04 
-7.092154026938e-05 -7.271687064730e-07 0.0 
-7.271687064730e-07 4.457927222897e-04 0.0 
0.0 0.0 -7.064368720930e-05 
-1.092130498400e-04 -2.031197807860e-06 0.0 
-2.031197807860e-06 7.170877506305e-04 0.0 
0.0 0.0 -1.095638575444e-04 
-4.734326755177e-05 -7.634204257468e-07 0.0 
-7.634204257468e-07 2.775049997667e-04 0.0 
0.0 0.0 -4.656497932609e-05 
-1.872735419036e-04 6.485390613283e-07 0.0 
6.485390613283e-07 1.262586229201e-03 0.0 
0.0 0.0 -1.877191857934e-04 
-1.143324629321e-04 4.116664924954e-09 0.0 
4.116664924954e-09 7.469603610316e-04 0.0 
0.0 0.0 -1.138559328007e-04 
-1.153850895440e-04 2.798510741524e-07 0.0 
2.798510741524e-07 7.578160194775e-04 0.0 
0.0 0.0 -1.154143056347e-04 
-9.134271070788e-05 -4.241415328680e-07 0.0 
-4.241415328680e-07 5.928584725244e-04 0.0 
0.0 0.0 -9.180364234441e-05 
-7.295992473616e-05 6.931326544943e-07 0.0 
6.931326544943e-07 4.642607920090e-04 0.0 
0.0 0.0 -7.341543808938e-05 
-6.127928487910e-05 4.097090977135e-07 0.0 
4.097090977135e-07 3.818653258479e-04 0.0 
0.0 0.0 -6.151402614941e-05 
-1.048886373049e-04 7.305772282163e-07 0.0 
7.305772282163e-07 6.839939901015e-04 0.0 
0.0 0.0 -1.048536320953e-04 
-1.083489495467e-04 1.953470287276e-07 0.0 
1.953470287276e-07 7.097911034353e-04 0.0 
0.0 0.0 -1.085629762122e-04 
-1.537049609822e-04 2.480873530320e-07 0.0 
2.480873530320e-07 1.024308554960e-03 0.0 
0.0 0.0 -1.536510162914e-04 
-1.672004607334e-04 -4.138652897846e-07 0.0 
-4.138652897846e-07 1.115841044060e-03 0.0 
0.0 0.0 -1.668829017826e-04 
-1.175626501518e-05 2.653670795412e-06 0.0 
2.653670795412e-06 5.212615490244e-05 0.0 
0.0 0.0 -1.076426758597e-05 
-1.591679461113e-04 4.759781921774e-07 0.0 
4.759781921774e-07 1.063059671778e-03 0.0 
0.0 0.0 -1.592508397865e-04 
-1.282088974266e-04 -3.835691054216e-08 0.0 
-3.835691054216e-08 8.473404205640e-04 0.0 
0.0 0.0 -1.282838013392e-04 
-1.443596124248e-04 4.967652743944e-07 0.0 
4.967652743944e-07 9.572886199512e-04 0.0 
0.0 0.0 -1.439863651620e-04 
-1.598472287202e-04 -8.884907360877e-07 0.0 
-8.884907360877e-07 1.064451867688e-03 0.0 
0.0 0.0 -1.593960054358e-04 
-4.175998057522e-05 -3.447721282185e-07 0.0 
-3.447721282185e-07 2.572900811957e-04 0.0 
0.0 0.0 -4.363646550326e-05 
-1.650522666270e-04 -1.570677394041e-07 0.0 
-1.570677394041e-07 1.102136320565e-03 0.0 
0.0 0.0 -1.648121423230e-04 
-1.826232045261e-04 1.027217602921e-06 0.0 
1.027217602921e-06 1.220901163882e-03 0.0 
0.0 0.0 -1.818680320623e-04 
-1.325762676814e-04 -3.821282481616e-06 0.0 
-3.821282481616e-06 8.784259184788e-04 0.0 
0.0 0.0 -1.331264220316e-04 
-3.693963444370e-05 -7.544466628917e-07 0.0 
-7.544466628917e-07 2.092667936724e-04 0.0 
0.0 0.0 -3.663743814291e-05 
-1.313856992864e-04 7.552411984502e-07 0.0 
7.552411984502e-07 8.610864945210e-04 0.0 
0.0 0.0 -1.303870364997e-04 
-1.805690084043e-04 6.802145348003e-07 0.0 
6.802145348003e-07 1.208990479033e-03 0.0 
0.0 0.0 -1.804058984264e-04 
-1.618620090762e-04 -7.704497118794e-08 0.0 
-7.704497118794e-08 1.080863256528e-03 0.0 
0.0 0.0 -1.617330481104e-04 
-6.471559328570e-05 -1.662931831611e-06 0.0 
-1.662931831611e-06 4.062530166876e-04 0.0 
0.0 0.0 -6.504030707074e-05 
-1.192254745372e-04 -3.743731676596e-07 0.0 
-3.743731676596e-07 7.837384510995e-04 0.0 
0.0 0.0 -1.191527179664e-04 
-1.116344855219e-04 1.062141944630e-07 0.0 
1.062141944630e-07 7.298456137402e-04 0.0 
0.0 0.0 -1.114223846842e-04 
-1.018383685965e-04 -1.359407971871e-06 0.0 
-1.359407971871e-06 6.707473892556e-04 0.0 
0.0 0.0 -1.029886159366e-04 
-1.821879658306e-04 1.203703486797e-06 0.0 
1.203703486797e-06 1.214225172284e-03 0.0 
0.0 0.0 -1.809836386841e-04 
-1.227568816259e-04 -6.254739179736e-08 0.0 
-6.254739179736e-08 8.076906619440e-04 0.0 
0.0 0.0 -1.225941817511e-04 
-1.685234158846e-04 1.004345265447e-06 0.0 
1.004345265447e-06 1.124593655933e-03 0.0 
0.0 0.0 -1.680081379364e-04 
-1.385983115983e-04 -4.518781372797e-07 0.0 
-4.518781372797e-07 9.192006383534e-04 0.0 
0.0 0.0 -1.386121366338e-04 
-6.938466731060e-05 -6.198930646466e-07 0.0 
-6.198930646466e-07 4.371957454374e-04 0.0 
0.0 0.0 -6.944566544735e-05 
-1.681992938910e-04 -9.274416247642e-07 0.0 
-9.274416247642e-07 1.123747739326e-03 0.0 
0.0 0.0 -1.678379068203e-04 
-1.163255558547e-04 -2.444566148572e-07 0.0 
-2.444566148572e-07 7.630787415271e-04 0.0 
0.0 0.0 -1.161597941560e-04 
-1.747594319775e-04 -4.754811496893e-07 0.0 
-4.754811496893e-07 1.171391248362e-03 0.0 
0.0 0.0 -1.746922153459e-04 
-1.547158004377e-04 -7.908026844223e-07 0.0 
-7.908026844223e-07 1.031372856638e-03 0.0 
0.0 0.0 -1.547299964433e-04 
-9.575522477032e-05 -2.469845308842e-07 0.0 
-2.469845308842e-07 6.198169541374e-04 0.0 
0.0 0.0 -9.562808392031e-05 
-1.680741224093e-04 -8.043675432309e-07 0.0 
-8.043675432309e-07 1.125048534485e-03 0.0 
0.0 0.0 -1.681755324449e-04 
-1.167097397872e-04 2.723456768358e-07 0.0 
2.723456768358e-07 7.659716634377e-04 0.0 
0.0 0.0 -1.165963749253e-04 
-1.652487966176e-04 1.494188142169e-07 0.0 
1.494188142169e-07 1.103453328263e-03 0.0 
0.0 0.0 -1.649144376955e-04 
-1.090718422596e-04 2.524371737845e-07 0.0 
2.524371737845e-07 7.103678881211e-04 0.0 
0.0 0.0 -1.086081446058e-04 
-1.357966733163e-04 -3.457047510779e-07 0.0 
-3.457047510779e-07 8.984402994021e-04 0.0 
0.0 0.0 -1.356166455148e-04 
-1.479451278654e-04 -5.197314638620e-07 0.0 
-5.197314638620e-07 9.805721187296e-04 0.0 
0.0 0.0 -1.473637189475e-04 
-1.291946076143e-04 -2.210645520776e-08 0.0 
-2.210645520776e-08 8.530967429073e-04 0.0 
0.0 0.0 -1.291232438263e-04 
-1.429493388473e-04 2.592746297642e-06 0.0 
2.592746297642e-06 9.504562516353e-04 0.0 
0.0 0.0 -1.430149859860e-04 
-1.638426906912e-04 3.884553588315e-07 0.0 
3.884553588315e-07 1.093570341671e-03 0.0 
0.0 0.0 -1.635473777094e-04 
-4.679395941113e-05 8.636054265735e-08 0.0 
8.636054265735e-08 2.742855012463e-04 0.0 
0.0 0.0 -4.607001325828e-05 
-8.578179911004e-05 -6.161056704631e-08 0.0 
-6.161056704631e-08 5.513847511004e-04 0.0 
0.0 0.0 -8.578563835690e-05 
-1.423249179194e-04 -7.804262925553e-07 0.0 
-7.804262925553e-07 9.497515173482e-04 0.0 
0.0 0.0 -1.430477210920e-04 
-1.735818036023e-04 -9.773598649861e-07 0.0 
-9.773598649861e-07 1.155171653987e-03 0.0 
0.0 0.0 -1.725878545680e-04 
-1.836468666056e-04 1.003626260766e-06 0.0 
1.003626260766e-06 1.240389692506e-03 0.0 
0.0 0.0 -1.843994436203e-04 
-1.023143520992e-04 5.423079028455e-07 0.0 
5.423079028455e-07 6.643953733865e-04 0.0 
0.0 0.0 -1.020177412065e-04 
-1.622496068517e-04 -8.321051479419e-07 0.0 
-8.321051479419e-07 1.084090239035e-03 0.0 
0.0 0.0 -1.622365463781e-04 
-1.781376606747e-04 3.555220392374e-07 0.0 
3.555220392374e-07 1.192018732814e-03 0.0 
0.0 0.0 -1.778033526228e-04 
-1.126735395111e-04 5.522608983236e-08 0.0 
5.522608983236e-08 7.397928820176e-04 0.0 
0.0 0.0 -1.128655126259e-04 
-5.035207840853e-05 5.069616719063e-07 0.0 
5.069616719063e-07 3.007678980219e-04 0.0 
0.0 0.0 -4.999657030114e-05 
-3.927566979207e-05 -3.832849885569e-07 0.0 
-3.832849885569e-07 2.313033145196e-04 0.0 
0.0 0.0 -3.982249606560e-05 
-7.656825341724e-05 3.679510810454e-07 0.0 
3.679510810454e-07 4.857975545201e-04 0.0 
0.0 0.0 -7.638798348873e-05 
-1.174853009841e-04 -1.483166653668e-09 0.0 
-1.483166653668e-09 7.706480780895e-04 0.0 
0.0 0.0 -1.172617294919e-04 
-1.226008469953e-04 -1.659916804789e-07 0.0 
-1.659916804789e-07 8.085563299237e-04 0.0 
0.0 0.0 -1.227254861441e-04 
-1.869186648422e-04 1.288893444476e-06 0.0 
1.288893444476e-06 1.255438194585e-03 0.0 
0.0 0.0 -1.863413058393e-04 
-1.661774130078e-04 -5.668139200530e-07 0.0 
-5.668139200530e-07 1.113816736532e-03 0.0 
0.0 0.0 -1.665279681784e-04 
-1.561062454374e-04 -1.032747631753e-06 0.0 
-1.032747631753e-06 1.041295622328e-03 0.0 
0.0 0.0 -1.561285722757e-04 
-2.290814551487e-05 1.131949368258e-06 0.0 
1.131949368258e-06 1.115970032557e-04 0.0 
0.0 0.0 -2.279054486229e-05 
-1.065384879856e-04 1.371781238190e-06 0.0 
1.371781238190e-06 6.979852258937e-04 0.0 
0.0 0.0 -1.068955660026e-04 
-1.703396393732e-04 -6.320212589166e-07 0.0 
-6.320212589166e-07 1.144009893404e-03 0.0 
0.0 0.0 -1.708611002394e-04 
-1.234023393735e-04 -2.265061210127e-07 0.0 
-2.265061210127e-07 8.130545487096e-04 0.0 
0.0 0.0 -1.233545184740e-04 
-1.695777077806e-04 2.106230318132e-07 0.0 
2.106230318132e-07 1.131440026902e-03 0.0 
0.0 0.0 -1.690088035303e-04 
-1.159592254194e-04 -1.383338685156e-07 0.0 
-1.383338685156e-07 7.703209590687e-04 0.0 
0.0 0.0 -1.172687467652e-04 
-1.871117190239e-04 -1.386491014739e-06 0.0 
-1.386491014739e-06 1.261256540934e-03 0.0 
0.0 0.0 -1.874631276173e-04 
-8.657535319631e-05 1.579232664336e-06 0.0 
1.579232664336e-06 5.555478256840e-04 0.0 
0.0 0.0 -8.636364963772e-05 
-1.755150914368e-04 -6.889429931338e-07 0.0 
-6.889429931338e-07 1.176166452702e-03 0.0 
0.0 0.0 -1.753185131199e-04 
-1.573111243631e-04 1.063973160771e-06 0.0 
1.063973160771e-06 1.048972338121e-03 0.0 
0.0 0.0 -1.571178519447e-04 
-7.892866904534e-05 2.863749736169e-07 0.0 
2.863749736169e-07 5.022036140890e-04 0.0 
0.0 0.0 -7.873003997367e-05 
-1.124601082612e-04 5.668543912746e-07 0.0 
5.668543912746e-07 7.365972072198e-04 0.0 
0.0 0.0 -1.124710309571e-04 
-1.868644922347e-04 1.000849535727e-06 0.0 
1.000849535727e-06 1.255765804165e-03 0.0 
0.0 0.0 -1.865710734017e-04 
-1.676555622800e-04 3.291135704867e-07 0.0 
3.291135704867e-07 1.118261925556e-03 0.0 
0.0 0.0 -1.671813732751e-04 
-1.386017071923e-04 -1.797723160640e-07 0.0 
-1.797723160640e-07 9.191547604494e-04 0.0 
0.0 0.0 -1.386052031399e-04 
-1.179182420809e-04 -1.397755678998e-07 0.0 
-1.397755678998e-07 7.747023837777e-04 0.0 
0.0 0.0 -1.178542631832e-04 
-9.266051543288e-05 -1.427667931752e-06 0.0 
-1.427667931752e-06 5.998378060181e-04 0.0 
0.0 0.0 -9.287066260160e-05 
-1.268908472920e-04 -2.992571917759e-07 0.0 
-2.992571917759e-07 8.385766200168e-04 0.0 
0.0 0.0 -1.270155650522e-04 
-1.412610616596e-04 -7.070516204550e-07 0.0 
-7.070516204550e-07 9.356355867827e-04 0.0 
0.0 0.0 -1.409283708239e-04 
-1.952715328492e-04 2.648146111006e-07 0.0 
2.648146111006e-07 1.320373790754e-03 0.0 
0.0 0.0 -1.960333646234e-04 
-1.736029799723e-04 -4.830607358394e-07 0.0 
-4.830607358394e-07 1.152851948528e-03 0.0 
0.0 0.0 -1.722934252721e-04 
-1.452011068003e-04 -1.075773922608e-06 0.0 
-1.075773922608e-06 9.666398033647e-04 0.0 
0.0 0.0 -1.454499006876e-04 
-1.212938627555e-04 -3.882932393123e-07 0.0 
-3.882932393123e-07 7.997072957628e-04 0.0 
0.0 0.0 -1.214615911284e-04 
-1.463822189693e-04 -1.900321700036e-07 0.0 
-1.900321700036e-07 9.728037690076e-04 0.0 
0.0 0.0 -1.462476041952e-04 
-2.746226357204e-05 -9.271388711199e-07 0.0 
-9.271388711199e-07 1.571302735165e-04 0.0 
0.0 0.0 -2.955133849294e-05 
-9.672248826248e-05 7.266615167990e-07 0.0 
7.266615167990e-07 6.276593153662e-04 0.0 
0.0 0.0 -9.671433789260e-05 
-1.257056545510e-04 -4.990050790239e-07 0.0 
-4.990050790239e-07 8.296358928903e-04 0.0 
0.0 0.0 -1.257347134077e-04 
-8.071247393308e-05 8.458441046782e-08 0.0 
8.458441046782e-08 5.152581703620e-04 0.0 
0.0 0.0 -8.061844590833e-05 
-1.221886675709e-04 -7.908405440187e-08 0.0 
-7.908405440187e-08 8.040667053497e-04 0.0 
0.0 0.0 -1.220458434280e-04 
-1.840762203294e-04 1.915177188951e-06 0.0 
1.915177188951e-06 1.245437645367e-03 0.0 
0.0 0.0 -1.851416939921e-04 
-1.301442044184e-04 -3.060279266349e-07 0.0 
-3.060279266349e-07 8.596681305344e-04 0.0 
0.0 0.0 -1.300328051442e-04 
-9.031994090937e-05 -2.080257032609e-07 0.0 
-2.080257032609e-07 5.822092092616e-04 0.0 
0.0 0.0 -9.022896017931e-05 
-1.344673763446e-04 9.830708816547e-08 0.0 
9.830708816547e-08 8.894298640129e-04 0.0 
0.0 0.0 -1.343397272354e-04 
-8.268637292058e-05 -8.113913653822e-07 0.0 
-8.113913653822e-07 5.290888140562e-04 0.0 
0.0 0.0 -8.279832518349e-05 
-1.497839366065e-04 -1.523194842093e-06 0.0 
-1.523194842093e-06 9.970276981604e-04 0.0 
0.0 0.0 -1.497490155909e-04 
-1.382259707113e-04 2.110689173297e-08 0.0 
2.110689173297e-08 9.185304756848e-04 0.0 
0.0 0.0 -1.386530088269e-04 
-1.506650140695e-04 -9.263316559378e-07 0.0 
-9.263316559378e-07 1.001955608578e-03 0.0 
0.0 0.0 -1.504726885606e-04 
-3.022468714226e-05 -2.973636621545e-06 0.0 
-2.973636621545e-06 1.677942898081e-04 0.0 
0.0 0.0 -3.060483068446e-05 
-1.428673620023e-04 -2.398732156922e-07 0.0 
-2.398732156922e-07 9.482366823991e-04 0.0 
0.0 0.0 -1.427619920137e-04 
-1.726984643621e-04 1.345553639607e-06 0.0 
1.345553639607e-06 1.160671593896e-03 0.0 
0.0 0.0 -1.733128613594e-04 
-8.463363897670e-05 6.078796328985e-07 0.0 
6.078796328985e-07 5.444031302841e-04 0.0 
0.0 0.0 -8.481515710027e-05 
-1.264518580475e-04 2.684568646022e-07 0.0 
2.684568646022e-07 8.338232778496e-04 0.0 
0.0 0.0 -1.263048705811e-04 
-1.596353680421e-04 -9.131275579431e-07 0.0 
-9.131275579431e-07 1.065304755547e-03 0.0 
0.0 0.0 -1.595480372087e-04 
-7.302589173434e-05 -3.183424354861e-06 0.0 
-3.183424354861e-06 4.574500906094e-04 0.0 
0.0 0.0 -7.259764510955e-05 
-1.362250571880e-04 3.623633479398e-08 0.0 
3.623633479398e-08 9.021775671400e-04 0.0 
0.0 0.0 -1.361198740657e-04 
-1.602145110429e-04 -8.362565613448e-07 0.0 
-8.362565613448e-07 1.068772108230e-03 0.0 
0.0 0.0 -1.600932078566e-04 
-1.471273090538e-04 7.392924497516e-07 0.0 
7.392924497516e-07 9.780830439502e-04 0.0 
0.0 0.0 -1.470264431059e-04 
-1.270633471131e-04 1.102546760641e-07 0.0 
1.102546760641e-07 8.375443541897e-04 0.0 
0.0 0.0 -1.268359787636e-04 
-1.460791581632e-04 -2.407797944151e-07 0.0 
-2.407797944151e-07 9.714799924540e-04 0.0 
0.0 0.0 -1.460739326938e-04 
-7.660927585480e-05 2.589062603144e-06 0.0 
2.589062603144e-06 4.833163137169e-04 0.0 
0.0 0.0 -7.585562978697e-05 
-6.337475630904e-05 1.248073807384e-06 0.0 
1.248073807384e-06 3.958823544252e-04 0.0 
0.0 0.0 -6.357697056388e-05 
-5.388339958482e-05 2.895282728563e-07 0.0 
2.895282728563e-07 3.277752654746e-04 0.0 
0.0 0.0 -5.379270529687e-05 
-9.451957039609e-05 -2.935916480427e-07 0.0 
-2.935916480427e-07 6.114923592848e-04 0.0 
0.0 0.0 -9.441947030406e-05 
-1.655470867204e-04 -4.270866697214e-07 0.0 
-4.270866697214e-07 1.106817959118e-03 0.0 
0.0 0.0 -1.654622947108e-04 
-3.839223720892e-05 -3.449317819975e-06 0.0 
-3.449317819975e-06 2.174158836143e-04 0.0 
0.0 0.0 -3.781821007497e-05 
-1.582398840472e-04 -1.211336256148e-06 0.0 
-1.211336256148e-06 1.056196191213e-03 0.0 
0.0 0.0 -1.582347619750e-04 
-3.976493932031e-05 -1.461285902805e-06 0.0 
-1.461285902805e-06 2.310785421131e-04 0.0 
0.0 0.0 -3.990281506442e-05 
-8.912786947884e-05 -2.218013861212e-07 0.0 
-2.218013861212e-07 5.740010873261e-04 0.0 
0.0 0.0 -8.903564786089e-05 
-1.609314023663e-04 8.015374636601e-07 0.0 
8.015374636601e-07 1.078902557479e-03 0.0 
0.0 0.0 -1.615622346724e-04 
-1.398208268631e-04 -7.214897453684e-06 0.0 
-7.214897453684e-06 9.283629550766e-04 0.0 
0.0 0.0 -1.397314702741e-04 
-9.326712864409e-05 1.081123901449e-07 0.0 
1.081123901449e-07 6.029249672552e-04 0.0 
0.0 0.0 -9.316659828873e-05 
-5.971178892461e-05 1.368640181835e-06 0.0 
1.368640181835e-06 3.694230737418e-04 0.0 
0.0 0.0 -5.984927026599e-05 
-8.786689087998e-05 2.978470750166e-07 0.0 
2.978470750166e-07 5.651036338672e-04 0.0 
0.0 0.0 -8.775496813769e-05 
-1.366866866355e-04 2.012050051265e-07 0.0 
2.012050051265e-07 9.045962273325e-04 0.0 
0.0 0.0 -1.364843956035e-04 
-9.193121234076e-05 4.013204139827e-07 0.0 
4.013204139827e-07 5.938843893935e-04 0.0 
0.0 0.0 -9.187235440198e-05 
-8.634860532519e-05 5.489409565849e-07 0.0 
5.489409565849e-07 5.556459598693e-04 0.0 
0.0 0.0 -8.641257901652e-05 
-1.873076348652e-04 -8.303719696611e-07 0.0 
-8.303719696611e-07 1.255027706073e-03 0.0 
0.0 0.0 -1.864462757575e-04 
-9.029085277060e-05 7.778954920217e-07 0.0 
7.778954920217e-07 5.838501403615e-04 0.0 
0.0 0.0 -9.045572518728e-05 
-1.942906890229e-04 -1.961786413827e-06 0.0 
-1.961786413827e-06 1.320208759113e-03 0.0 
0.0 0.0 -1.958055517464e-04 
-1.946815352992e-04 -9.026625198254e-07 0.0 
-9.026625198254e-07 1.313526635210e-03 0.0 
0.0 0.0 -1.947608156509e-04 
-1.203676963192e-04 -5.252269783046e-06 0.0 
-5.252269783046e-06 7.911029022502e-04 0.0 
0.0 0.0 -1.199678325534e-04 
-6.382312409295e-05 3.317997073278e-06 0.0 
3.317997073278e-06 3.867196355365e-04 0.0 
0.0 0.0 -6.182128488093e-05 
-9.762668327602e-06 5.060945032083e-07 0.0 
5.060945032083e-07 4.694411596940e-05 0.0 
0.0 0.0 -1.015196033753e-05 
-6.438901127768e-05 -2.610876075629e-06 0.0 
-2.610876075629e-06 4.083460003589e-04 0.0 
0.0 0.0 -6.553865090092e-05 
-7.498804079240e-05 7.264952039937e-07 0.0 
7.264952039937e-07 4.774096760748e-04 0.0 
0.0 0.0 -7.520405771235e-05 
-1.574390158364e-04 7.322658693653e-08 0.0 
7.322658693653e-08 1.047023690082e-03 0.0 
0.0 0.0 -1.568628108499e-04 
-1.202462798349e-04 1.277535447616e-06 0.0 
1.277535447616e-06 7.923369076637e-04 0.0 
0.0 0.0 -1.204472570985e-04 
-6.913329999888e-05 1.518567138290e-06 0.0 
1.518567138290e-06 4.374135939075e-04 0.0 
0.0 0.0 -6.946069291118e-05 
-1.870210423738e-04 1.710341786506e-07 0.0 
1.710341786506e-07 1.262084104717e-03 0.0 
0.0 0.0 -1.875139937252e-04 
-1.961583819331e-04 -2.514147813671e-06 0.0 
-2.514147813671e-06 1.318669280984e-03 0.0 
0.0 0.0 -1.960106588935e-04 
-1.542863799404e-04 -1.786859133762e-06 0.0 
-1.786859133762e-06 1.026998591695e-03 0.0 
0.0 0.0 -1.543154520944e-04 
-1.744631732482e-04 2.018301688582e-06 0.0 
2.018301688582e-06 1.157934353510e-03 0.0 
0.0 0.0 -1.729253385307e-04 
-1.515018167516e-04 8.404198603292e-07 0.0 
8.404198603292e-07 1.010295705910e-03 0.0 
0.0 0.0 -1.515893794002e-04 
-1.789376768634e-04 -2.919640014592e-06 0.0 
-2.919640014592e-06 1.191538801034e-03 0.0 
0.0 0.0 -1.778575971036e-04 
-1.110411603683e-04 -8.342356804498e-06 0.0 
-8.342356804498e-06 7.312796766666e-04 0.0 
0.0 0.0 -1.117662927266e-04 
-1.911119346146e-05 1.280039211139e-07 0.0 
1.280039211139e-07 9.580427244612e-05 0.0 
0.0 0.0 -1.958655518621e-05 
-1.481869069540e-04 1.615226342953e-06 0.0 
1.615226342953e-06 9.850665679094e-04 0.0 
0.0 0.0 -1.481937727541e-04 
-5.301773043500e-05 1.085407750924e-06 0.0 
1.085407750924e-06 3.130804062890e-04 0.0 
0.0 0.0 -5.155996613848e-05 
-5.287064574584e-05 8.669478230711e-08 0.0 
8.669478230711e-08 3.211142711540e-04 0.0 
0.0 0.0 -5.286758958265e-05 
-4.293484566845e-05 -2.294669534039e-07 0.0 
-2.294669534039e-07 2.490277005517e-04 0.0 
0.0 0.0 -4.248609661651e-05 
-7.457102542764e-05 4.540838739860e-07 0.0 
4.540838739860e-07 4.629980056454e-04 0.0 
0.0 0.0 -7.285240290645e-05 
-2.774703220549e-05 1.104401006757e-06 0.0 
1.104401006757e-06 1.537348123985e-04 0.0 
0.0 0.0 -2.914266538000e-05 
-4.307384339748e-05 1.329013767483e-06 0.0 
1.329013767483e-06 2.553580944067e-04 0.0 
0.0 0.0 -4.333354231935e-05 
-1.879084470079e-04 -2.749275055617e-06 0.0 
-2.749275055617e-06 1.255451133352e-03 0.0 
0.0 0.0 -1.867668077911e-04 
-1.189011343897e-04 -7.099494553202e-06 0.0 
-7.099494553202e-06 7.923665314969e-04 0.0 
0.0 0.0 -1.207517460948e-04 
-1.659393230097e-04 -1.374219794473e-06 0.0 
-1.374219794473e-06 1.113429222670e-03 0.0 
0.0 0.0 -1.665613853390e-04 
-3.293815057038e-05 1.035559240217e-06 0.0 
1.035559240217e-06 1.835663013155e-04 0.0 
0.0 0.0 -3.316239960270e-05 
-1.877702954761e-04 -2.194005982338e-06 0.0 
-2.194005982338e-06 1.259619262861e-03 0.0 
0.0 0.0 -1.871049233185e-04 
-1.875538609812e-04 9.967607666469e-07 0.0 
9.967607666469e-07 1.259292980625e-03 0.0 
0.0 0.0 -1.869913167940e-04 
-1.965092283334e-04 -2.596350880128e-06 0.0 
-2.596350880128e-06 1.320494070457e-03 0.0 
0.0 0.0 -1.959374034051e-04 
-1.758179036347e-04 -4.481197506713e-07 0.0 
-4.481197506713e-07 1.181701348802e-03 0.0 
0.0 0.0 -1.764557581508e-04 
-3.270582193410e-05 -4.386817373036e-07 0.0 
-4.386817373036e-07 1.770411407639e-04 0.0 
0.0 0.0 -3.195907242369e-05 
-1.266388969174e-04 -6.538610975457e-06 0.0 
-6.538610975457e-06 8.502071903162e-04 0.0 
0.0 0.0 -1.290525119649e-04 
-1.885161697494e-04 -1.408082556477e-06 0.0 
-1.408082556477e-06 1.262346972473e-03 0.0 
0.0 0.0 -1.876241058639e-04 
-1.609443742117e-04 -4.613026983514e-07 0.0 
-4.613026983514e-07 1.083073354588e-03 0.0 
0.0 0.0 -1.620379724609e-04 
-1.949934473796e-04 8.861010983955e-06 0.0 
8.861010983955e-06 1.323301005755e-03 0.0 
0.0 0.0 -1.964977576321e-04 
-1.170915995552e-04 -2.526672373362e-07 0.0 
-2.526672373362e-07 7.818822557443e-04 0.0 
0.0 0.0 -1.196852915840e-04 
-1.881251343584e-04 1.719532540905e-06 0.0 
1.719532540905e-06 1.262091246564e-03 0.0 
0.0 0.0 -1.879162412457e-04 
-4.159837246659e-05 -1.872810599717e-06 0.0 
-1.872810599717e-06 2.367903641582e-04 0.0 
0.0 0.0 -4.105708941867e-05 
-1.880384365163e-04 2.724632523543e-06 0.0 
2.724632523543e-06 1.261692801511e-03 0.0 
0.0 0.0 -1.881249298770e-04 
-1.672657211226e-04 -3.803404194110e-07 0.0 
-3.803404194110e-07 1.114623838802e-03 0.0 
0.0 0.0 -1.665474363985e-04 
-1.318213223878e-04 4.430076983304e-06 0.0 
4.430076983304e-06 8.772776289306e-04 0.0 
0.0 0.0 -1.326022361065e-04 
-1.268048282990e-04 1.914164460218e-06 0.0 
1.914164460218e-06 8.466567585872e-04 0.0 
0.0 0.0 -1.285548941949e-04 
-1.877454760479e-04 1.284504322459e-06 0.0 
1.284504322459e-06 1.264298494462e-03 0.0 
0.0 0.0 -1.884505761775e-04 
-1.888991999446e-04 -3.702937246346e-06 0.0 
-3.702937246346e-06 1.261816131107e-03 0.0 
0.0 0.0 -1.874258164109e-04 
-2.628632611275e-05 2.399677637307e-06 0.0 
2.399677637307e-06 1.387230862011e-04 0.0 
0.0 0.0 -2.654059898772e-05 
-1.521013519928e-04 5.577678305588e-06 0.0 
5.577678305588e-06 1.024057332589e-03 0.0 
0.0 0.0 -1.536536413446e-04 
-9.055668035440e-05 -2.892025472723e-06 0.0 
-2.892025472723e-06 5.805249846311e-04 0.0 
0.0 0.0 -8.976434653209e-05 
-1.704710855302e-05 -3.458702652501e-06 0.0 
-3.458702652501e-06 8.989110359220e-05 0.0 
0.0 0.0 -1.808546165336e-05 
-1.884986873262e-04 5.724623714394e-06 0.0 
5.724623714394e-06 1.260552726885e-03 0.0 
0.0 0.0 -1.874281668734e-04 
-1.771946189262e-04 -2.402253146537e-07 0.0 
-2.402253146537e-07 1.178369612400e-03 0.0 
0.0 0.0 -1.758283601128e-04 
-1.891214672248e-04 5.594443250151e-06 0.0 
5.594443250151e-06 1.262060829366e-03 0.0 
0.0 0.0 -1.877794506222e-04 
-3.041019390796e-05 4.063728315188e-06 0.0 
4.063728315188e-06 1.568790135595e-04 0.0 
0.0 0.0 -2.929729011833e-05 
-1.923826485663e-05 2.395451325704e-06 0.0 
2.395451325704e-06 8.936390066832e-05 0.0 
0.0 0.0 -1.909551055642e-05 
-1.897110782286e-04 1.614204189851e-06 0.0 
1.614204189851e-06 1.273238434675e-03 0.0 
0.0 0.0 -1.887784298001e-04 
-1.886445185701e-04 1.051783953080e-06 0.0 
1.051783953080e-06 1.269174095551e-03 0.0 
0.0 0.0 -1.885660222491e-04 
-4.447382147791e-05 2.187152848341e-06 0.0 
2.187152848341e-06 2.726065505036e-04 0.0 
0.0 0.0 -4.552470986649e-05 
-1.972951013402e-04 -6.924320481766e-07 0.0 
-6.924320481766e-07 1.331208438024e-03 0.0 
0.0 0.0 -1.972065251748e-04 
-1.846003121508e-05 -1.622840747709e-06 0.0 
-1.622840747709e-06 8.564597044111e-05 0.0 
0.0 0.0 -1.843810201100e-05 
-1.091119861245e-04 9.275684085525e-07 0.0 
9.275684085525e-07 7.216506540820e-04 0.0 
0.0 0.0 -1.108446562541e-04 
-1.806806328908e-05 -2.788761483685e-06 0.0 
-2.788761483685e-06 9.325750213385e-05 0.0 
0.0 0.0 -1.871126948293e-05 
-1.949690694268e-04 -7.776605200528e-06 0.0 
-7.776605200528e-06 1.321740719942e-03 0.0 
0.0 0.0 -1.962797183211e-04 
-1.894401262255e-04 3.666748622647e-06 0.0 
3.666748622647e-06 1.266754761130e-03 0.0 
0.0 0.0 -1.882268625302e-04 
-9.871077405525e-05 5.581959752057e-06 0.0 
5.581959752057e-06 6.396670141167e-04 0.0 
0.0 0.0 -9.846769932235e-05 
-1.118450688366e-04 4.156485273902e-06 0.0 
4.156485273902e-06 7.411970212637e-04 0.0 
0.0 0.0 -1.131213240816e-04 
-6.675482278899e-05 2.746646028006e-06 0.0 
2.746646028006e-06 4.187062855815e-04 0.0 
0.0 0.0 -6.639636993191e-05 
-1.817394697373e-04 5.968977030046e-06 0.0 
5.968977030046e-06 1.213512747672e-03 0.0 
0.0 0.0 -1.805248368263e-04 
-2.549001927232e-05 1.681293934371e-06 0.0 
1.681293934371e-06 1.416935565870e-04 0.0 
0.0 0.0 -2.765034433090e-05 
-1.904991185222e-04 -2.176372463226e-06 0.0 
-2.176372463226e-06 1.275606109758e-03 0.0 
0.0 0.0 -1.890445337758e-04 
-1.902901370943e-04 -9.239913511013e-07 0.0 
-9.239913511013e-07 1.276413630327e-03 0.0 
0.0 0.0 -1.892125449932e-04 
-1.899738152617e-04 1.392000637091e-06 0.0 
1.392000637091e-06 1.275351249225e-03 0.0 
0.0 0.0 -1.890927655262e-04 
-1.980969591010e-04 1.747220192366e-07 0.0 
1.747220192366e-07 1.334413570643e-03 0.0 
0.0 0.0 -1.976588442224e-04 
-1.595876566451e-05 5.109996014523e-06 0.0 
5.109996014523e-06 8.560533841461e-05 0.0 
0.0 0.0 -1.829422046362e-05 
-1.907894524984e-04 -1.453289198629e-06 0.0 
-1.453289198629e-06 1.278087489939e-03 0.0 
0.0 0.0 -1.894635324722e-04 
-1.817965180967e-04 4.689820275562e-06 0.0 
4.689820275562e-06 1.212613848096e-03 0.0 
0.0 0.0 -1.803359864353e-04 
-1.117957005377e-04 6.977421344692e-06 0.0 
6.977421344692e-06 7.320600126907e-04 0.0 
0.0 0.0 -1.115961672155e-04 
-1.879277561833e-04 6.009601527580e-06 0.0 
6.009601527580e-06 1.263394424764e-03 0.0 
0.0 0.0 -1.878861552790e-04 
-8.116031042482e-05 4.154281404345e-06 0.0 
4.154281404345e-06 5.182033185543e-04 0.0 
0.0 0.0 -8.075837133452e-05 
-3.557600018319e-05 -6.705160068937e-06 0.0 
-6.705160068937e-06 2.127372360934e-04 0.0 
0.0 0.0 -3.738032741976e-05 
-1.948498336035e-04 -4.155697267809e-06 0.0 
-4.155697267809e-06 1.324960786423e-03 0.0 
0.0 0.0 -1.970235340649e-04 
-6.441570103541e-06 -6.279015523928e-07 0.0 
-6.279015523928e-07 3.480654244499e-05 0.0 
0.0 0.0 -7.946641316233e-06 
-1.120604214633e-04 -3.288397658700e-06 0.0 
-3.288397658700e-06 7.283085618337e-04 0.0 
0.0 0.0 -1.110361655408e-04 
-1.968531726492e-04 6.196640298584e-06 0.0 
6.196640298584e-06 1.326994606246e-03 0.0 
0.0 0.0 -1.970239266116e-04 
-3.317100676700e-05 -5.514460053326e-07 0.0 
-5.514460053326e-07 2.002819803963e-04 0.0 
0.0 0.0 -3.602866455310e-05 
-1.267924167818e-04 -3.909643930437e-06 0.0 
-3.909643930437e-06 8.405854862832e-04 0.0 
0.0 0.0 -1.273445728183e-04 
-1.883260687280e-04 -1.377902224743e-06 0.0 
-1.377902224743e-06 1.272138406880e-03 0.0 
0.0 0.0 -1.890317804362e-04 
-1.203896409836e-04 1.438809671102e-06 0.0 
1.438809671102e-06 7.891647527459e-04 0.0 
0.0 0.0 -1.197994443266e-04 
-1.726861375007e-04 -9.127303948545e-06 0.0 
-9.127303948545e-06 1.150354645725e-03 0.0 
0.0 0.0 -1.722668051730e-04 
-3.289244603068e-05 1.865001967380e-06 0.0 
1.865001967380e-06 1.965766441920e-04 0.0 
0.0 0.0 -3.568834104832e-05 
-5.881706171023e-06 -3.561904745217e-07 0.0 
-3.561904745217e-07 3.491879089690e-05 0.0 
0.0 0.0 -7.282502801701e-06 
-1.446887067247e-04 -6.124654101547e-06 0.0 
-6.124654101547e-06 9.637426034631e-04 0.0 
0.0 0.0 -1.450319398739e-04 
-1.900119233844e-04 5.405432627128e-06 0.0 
5.405432627128e-06 1.271140965081e-03 0.0 
0.0 0.0 -1.888071511890e-04 
-1.907231428786e-04 -2.479170288195e-06 0.0 
-2.479170288195e-06 1.279898250331e-03 0.0 
0.0 0.0 -1.895996551150e-04 
-1.374681624272e-04 5.948461411176e-06 0.0 
5.948461411176e-06 9.167037354941e-04 0.0 
0.0 0.0 -1.379940178424e-04 
-3.140963832924e-05 -6.998474457374e-06 0.0 
-6.998474457374e-06 1.796728179544e-04 0.0 
0.0 0.0 -3.246938559274e-05 
-1.841130626501e-04 1.475194732939e-06 0.0 
1.475194732939e-06 1.232968589940e-03 0.0 
0.0 0.0 -1.831558075192e-04 
-1.038243241623e-04 -4.078507790945e-07 0.0 
-4.078507790945e-07 6.921885952500e-04 0.0 
0.0 0.0 -1.059090906887e-04 
-1.833573372240e-04 -2.325322525301e-06 0.0 
-2.325322525301e-06 1.222189390314e-03 0.0 
0.0 0.0 -1.813408670945e-04 
-1.831720387608e-04 -1.195237391827e-06 0.0 
-1.195237391827e-06 1.215102366402e-03 0.0 
0.0 0.0 -1.805709848148e-04 
-8.505788794989e-06 -2.657547953589e-06 0.0 
-2.657547953589e-06 3.877580200424e-05 0.0 
0.0 0.0 -9.674067485877e-06 
-1.292364309074e-04 2.864479089253e-06 0.0 
2.864479089253e-06 8.498544276161e-04 0.0 
0.0 0.0 -1.284404431535e-04 
-1.837715794025e-05 -4.476436000323e-06 0.0 
-4.476436000323e-06 8.791465953263e-05 0.0 
0.0 0.0 -1.834574975625e-05 
-1.906256035079e-04 -2.900280215013e-06 0.0 
-2.900280215013e-06 1.276520367600e-03 0.0 
0.0 0.0 -1.895571240875e-04 
-1.101124519025e-04 -2.003731999075e-06 0.0 
-2.003731999075e-06 7.232878293546e-04 0.0 
0.0 0.0 -1.101665449339e-04 
-1.382223926612e-06 3.591830468527e-06 0.0 
3.591830468527e-06 1.748378731844e-05 0.0 
0.0 0.0 -5.672828717175e-06 
-9.997909136135e-08 -6.870551504499e-07 0.0 
-6.870551504499e-07 2.261388452272e-05 0.0 
0.0 0.0 -7.955651067477e-06 
-1.391160001821e-05 -3.429434640793e-06 0.0 
-3.429434640793e-06 8.002595831967e-05 0.0 
0.0 0.0 -1.779124422244e-05 
-1.868447702606e-05 1.197115901433e-07 0.0 
1.197115901433e-07 8.113669047937e-05 0.0 
0.0 0.0 -1.900000000000e-05 
-2.300972808461e-05 -4.251018135700e-06 0.0 
-4.251018135700e-06 1.504239720311e-04 0.0 
0.0 0.0 -2.790306122449e-05 
-2.974193989597e-05 5.604030738002e-07 0.0 
5.604030738002e-07 1.627059505933e-04 0.0 
0.0 0.0 -2.900000000000e-05 
-3.257073803526e-05 -3.215174392719e-06 0.0 
-3.215174392719e-06 2.193867322123e-04 0.0 
0.0 0.0 -3.788759349893e-05 
-3.979792889465e-05 -1.199778171411e-07 0.0 
-1.199778171411e-07 2.200789478701e-04 0.0 
0.0 0.0 -3.900000000000e-05 
-4.165891267230e-05 -4.371266864637e-06 0.0 
-4.371266864637e-06 2.889985860028e-04 0.0 
0.0 0.0 -4.790306122449e-05 
-4.964086180168e-05 -2.693060693399e-07 0.0 
-2.693060693399e-07 3.013640208770e-04 0.0 
0.0 0.0 -4.900000000000e-05 
-5.048456417060e-05 -2.929549654779e-06 0.0 
-2.929549654779e-06 3.593010990798e-04 0.0 
0.0 0.0 -5.788546288080e-05 
-5.961378635258e-05 -5.454468222937e-07 0.0 
-5.454468222937e-07 3.590027679778e-04 0.0 
0.0 0.0 -5.900000000000e-05 
-6.265158996412e-05 -5.475928741401e-06 0.0 
-5.475928741401e-06 4.290425473903e-04 0.0 
0.0 0.0 -6.790306122449e-05 
-6.948065415978e-05 -5.864688945389e-07 0.0 
-5.864688945389e-07 4.403815007264e-04 0.0 
0.0 0.0 -6.900000000000e-05 
-7.287737908661e-05 -5.356659590834e-06 0.0 
-5.356659590834e-06 4.997222128530e-04 0.0 
0.0 0.0 -7.788265306121e-05 
-7.961974967197e-05 -6.571269526957e-07 0.0 
-6.571269526957e-07 4.982209090245e-04 0.0 
0.0 0.0 -7.900000000000e-05 
-8.324861204494e-05 -5.744890109580e-06 0.0 
-5.744890109580e-06 5.692366340431e-04 0.0 
0.0 0.0 -8.790306122449e-05 
-8.930212876051e-05 1.144359831531e-06 0.0 
1.144359831531e-06 5.794802677978e-04 0.0 
0.0 0.0 -8.900000000000e-05 
-9.352423002678e-05 -5.224443985984e-06 0.0 
-5.224443985984e-06 6.401887908398e-04 0.0 
0.0 0.0 -9.787877878422e-05 
-1.009998970260e-04 5.583373135514e-06 0.0 
5.583373135514e-06 6.372022866514e-04 0.0 
0.0 0.0 -9.900000000000e-05 

SCALARS node_materi_plasti_kappa_shear float
LOOKUP_TABLE default
1.731369050501e-05
4.545550431279e-04
8.879540853347e-04
8.885778472785e-04
4.289921439406e-05
9.327668990988e-05
1.307750198866e-04
1.795624514288e-04
2.257201379956e-04
2.695509172566e-04
3.144422750007e-04
3.602182894153e-04
4.054873038984e-04
4.525148308088e-04
5.038541824834e-04
5.495995247736e-04
5.862111262393e-04
6.342650658052e-04
6.814841447557e-04
7.273130426229e-04
7.742201728224e-04
8.215906888973e-04
8.669064806701e-04
8.898091793777e-04
8.888004860446e-04
8.881476431534e-04
8.886611550675e-04
8.873292207379e-04
8.873796625284e-04
8.877145688059e-04
8.882991997087e-04
8.891081577287e-04
8.895674516380e-04
8.882569121584e-04
8.886773248083e-04
8.897614672626e-04
8.893270601288e-04
8.879317372578e-04
8.867155421258e-04
8.860750537291e-04
8.875036930769e-04
8.888199397314e-04
8.889528056050e-04
8.891193998000e-04
8.889269682469e-04
8.885711942666e-04
8.881774963459e-04
8.893558715015e-04
8.892926716099e-04
8.896475655307e-04
8.895391621796e-04
8.902345752377e-04
8.910618100376e-04
8.908268286946e-04
8.883017444198e-04
8.870033247227e-04
8.889101297818e-04
8.887178507321e-04
8.889749525521e-04
8.891814831339e-04
8.887055024058e-04
8.873576980909e-04
8.876113339264e-04
8.880420548052e-04
8.897938021992e-04
8.907165225603e-04
8.860205656141e-04
8.893069775074e-04
8.887535151655e-04
8.885180406595e-04
8.909163501419e-04
8.913403494152e-04
4.970460226215e-04
5.465414378926e-04
5.921313660911e-04
6.364287587029e-04
6.825537522220e-04
7.278134995944e-04
7.735342273326e-04
8.173136017165e-04
8.659377019958e-04
1.157756075444e-05
2.689061145200e-05
4.539930109995e-04
3.584864007264e-05
8.308175112589e-05
1.286994926032e-04
1.725075511252e-04
2.183476322774e-04
2.642608575334e-04
3.107394956161e-04
3.570654865108e-04
4.033178026184e-04
4.916058165302e-05
9.289808527674e-05
1.362380341837e-04
1.805100708743e-04
2.254865019445e-04
2.707860879461e-04
3.162883577622e-04
3.616329343761e-04
4.060157178949e-04
4.461572723987e-04
4.482375507592e-04
4.489251939510e-04
4.482810220245e-04
4.560054951225e-04
4.490487455221e-04
4.479848053994e-04
4.491487522400e-04
4.505166080725e-04
4.507339705437e-04
4.500429840668e-04
4.496777136800e-04
4.491474461797e-04
4.502737102712e-04
1.443236451681e-05
1.609184950887e-05
1.444777850682e-05
1.445196928896e-05
1.742545827470e-05
1.883427368881e-05
1.852391460304e-05
1.764215548380e-05
1.771561269883e-05
1.733046749832e-05
1.810073159380e-05
2.048990176091e-05
1.919122443325e-05
1.606222747872e-05
1.631184331598e-05
1.838276961406e-05
1.899682157401e-05
1.674761483558e-05
1.515472777583e-05
8.175676892209e-06
2.177596249545e-05
2.299520278999e-05
2.166255053054e-05
2.214824640670e-05
2.167589386352e-05
2.181437884128e-05
2.175455209226e-05
2.184447460752e-05
2.181761862816e-05
2.180125453450e-05
2.175251279219e-05
2.171077333158e-05
2.166809249346e-05
2.163516243508e-05
2.161267511097e-05
2.160320016436e-05
2.160623653661e-05
2.162078880526e-05
2.164440185727e-05
2.167450666449e-05
2.170981785952e-05
2.175161026506e-05
2.180499160467e-05
2.188183694773e-05
2.200825743647e-05
2.224357426447e-05
2.293492699950e-05
2.762923185043e-05
4.425473989934e-05
3.718572403652e-05
3.742654834545e-05
3.758452101487e-05
3.760782417692e-05
3.760767543581e-05
3.759809759199e-05
3.758358457121e-05
3.756640209901e-05
3.754826118035e-05
3.753113919121e-05
3.751781040483e-05
3.751116283799e-05
3.751332375403e-05
3.752427641219e-05
3.754485369491e-05
3.757060359843e-05
3.760543921758e-05
3.763052096704e-05
3.767919976162e-05
3.766334314498e-05
3.772924133308e-05
3.752321828382e-05
3.777210130025e-05
3.721625489724e-05
3.813816565047e-05
4.092381706597e-05
2.827406155528e-05
7.322610101345e-05
8.558397596405e-05
8.245155045854e-05
8.269682946404e-05
8.298072161591e-05
8.293780431474e-05
8.293711407348e-05
8.286691910571e-05
8.283266984996e-05
8.278492757481e-05
8.274689967718e-05
8.271389746387e-05
8.269322957237e-05
8.268443642109e-05
8.268924659788e-05
8.270424097307e-05
8.272312249593e-05
8.273946799025e-05
8.274832025944e-05
8.274446845839e-05
8.272067077929e-05
8.266602597411e-05
8.256336232217e-05
8.238101031315e-05
8.224582491175e-05
8.836637517285e-05
1.185638359136e-04
1.317450063700e-04
1.300557092033e-04
1.298692064916e-04
1.300895360239e-04
1.298722039598e-04
1.298782040022e-04
1.297986302856e-04
1.297480882160e-04
1.296907079062e-04
1.296511257970e-04
1.296282552404e-04
1.296305185578e-04
1.296521209985e-04
1.296795537219e-04
1.297009574791e-04
1.297096142338e-04
1.296988834258e-04
1.296612610424e-04
1.295891537710e-04
1.294801914640e-04
1.293455106666e-04
1.292521579067e-04
1.297801592430e-04
1.340221478094e-04
1.781988047114e-04
1.755201894282e-04
1.753379703646e-04
1.753848561580e-04
1.754802128008e-04
1.755724470979e-04
1.756369081575e-04
1.756680449584e-04
1.756741383737e-04
1.756617249940e-04
1.756357698326e-04
1.755973091705e-04
1.755718929635e-04
1.755821672844e-04
1.756425224492e-04
1.756937924859e-04
1.757856167632e-04
1.757854304704e-04
1.759163536534e-04
1.756787495987e-04
1.758919282271e-04
1.781750100815e-04
1.651336438905e-04
2.109708302842e-04
2.236620319499e-04
2.218312568736e-04
2.216843488834e-04
2.219428590784e-04
2.217846971553e-04
2.217415831349e-04
2.215999074723e-04
2.215541127844e-04
2.215891944876e-04
2.216558522700e-04
2.216827294030e-04
2.216923896073e-04
2.216956791642e-04
2.216811887582e-04
2.216297808589e-04
2.215409133773e-04
2.214529972215e-04
2.214107640670e-04
2.214815066151e-04
2.218511843967e-04
2.241914065437e-04
2.692547529093e-04
2.675660618296e-04
2.673934583820e-04
2.673939568732e-04
2.674585768179e-04
2.675591031638e-04
2.676459040090e-04
2.676570538580e-04
2.676372015587e-04
2.676553404665e-04
2.676764041519e-04
2.676333042631e-04
2.674812840926e-04
2.674838661980e-04
2.676204239189e-04
2.679795855057e-04
2.678105543472e-04
2.677301033404e-04
2.700799073531e-04
2.570066425718e-04
3.028056095170e-04
3.161844696852e-04
3.143201194648e-04
3.138173456820e-04
3.135666727045e-04
3.133894152578e-04
3.137072245185e-04
3.137903749499e-04
3.137552108189e-04
3.136173653508e-04
3.136276881298e-04
3.137330253685e-04
3.136250543478e-04
3.134895440990e-04
3.134087321469e-04
3.133800931571e-04
3.134342156714e-04
3.138051608859e-04
3.154278010076e-04
3.611485313111e-04
3.593958689772e-04
3.591898798686e-04
3.593297202165e-04
3.592471895824e-04
3.594265497814e-04
3.596237032014e-04
3.596571460670e-04
3.593377794373e-04
3.596684783014e-04
3.598758848307e-04
3.597552388914e-04
3.597821813941e-04
3.590976444273e-04
3.597033129801e-04
3.627706280632e-04
3.496857881406e-04
3.956894430432e-04
4.084843113251e-04
4.060961241034e-04
4.055043726269e-04
4.058070391746e-04
4.060008361141e-04
4.054675210445e-04
4.054158394705e-04
4.054705070724e-04
4.053661824669e-04
4.051783298875e-04
4.050677983318e-04
4.054138231738e-04
4.048987951044e-04
4.060536754366e-04
4.085853059390e-04
2.023055736257e-05
6.237756654620e-05
1.080821571076e-04
1.542628667609e-04
1.987126948131e-04
2.444555121765e-04
2.902585631940e-04
3.362497538655e-04
3.823052700951e-04
4.292533059372e-04
1.065540971725e-04
8.722366970816e-04
3.071877777411e-05
2.955753103127e-05
8.728796448070e-04
1.993419400918e-04
4.786993620079e-04
8.715410235367e-04
2.838574358308e-04
8.733046452917e-04
3.784478368563e-04
8.750925786310e-04
2.796371051266e-05
8.736269387387e-04
4.733271556655e-04
2.936877367691e-04
6.035474916513e-04
8.717572086583e-04
8.738199405046e-04
8.737494710065e-04
8.696287808285e-04
8.750806370792e-04
4.919558859900e-04
4.918398764198e-04
4.949307231399e-04
6.589482462508e-04
8.738674271820e-04
2.813705699443e-05
3.195365789908e-05
7.486411905948e-04
4.900146372997e-04
1.541367175474e-04
8.655890379535e-04
8.755682138923e-04
8.730973644309e-04
8.703784410466e-04
8.740973276145e-04
3.187356296986e-05
4.907091952207e-04
8.662583448289e-04
7.508115515426e-04
3.074176072344e-05
3.834518994422e-04
8.815314033999e-04
2.457863140164e-04
1.527805289882e-04
3.313833785311e-04
4.244970235113e-04
5.636808983146e-05
5.718052096935e-04
8.819662471530e-04
3.001251584579e-05
8.373343036417e-04
4.924452570696e-04
5.108818745462e-04
5.332387487364e-04
5.560142054344e-04
5.787643014481e-04
5.991259251811e-04
5.752635265182e-04
6.186942134972e-04
5.944516730932e-04
6.231926228760e-04
6.380835551573e-04
6.135840024034e-04
6.573144048118e-04
6.328089844586e-04
5.894129404993e-04
6.085043193505e-04
5.651248587261e-04
5.842235601993e-04
6.277370129424e-04
6.033008816137e-04
5.598285256637e-04
5.787470750073e-04
5.354343962972e-04
5.543066005166e-04
5.109771159406e-04
5.298843866555e-04
5.732568666386e-04
5.488106401566e-04
5.054467442157e-04
5.243830125588e-04
4.810781478793e-04
4.998224426771e-04
5.432974154275e-04
5.187745459682e-04
4.750268661506e-04
4.942061513858e-04
4.503195040673e-04
4.696890934292e-04
4.255957344176e-04
4.448505048632e-04
4.889334273357e-04
4.641717549476e-04
4.199472596373e-04
4.391094936345e-04
4.834394634788e-04
4.583112576687e-04
5.027462790146e-04
4.776197235482e-04
4.333642288832e-04
4.526081348578e-04
4.969211450957e-04
4.717210733978e-04
4.275809977385e-04
4.467222286567e-04
4.910180813087e-04
4.658552900682e-04
4.216677957086e-04
4.408729284411e-04
4.853895838457e-04
4.600318407553e-04
4.156094397672e-04
4.346988666159e-04
4.795014301536e-04
4.538188443789e-04
4.989809666093e-04
4.088754149089e-04
4.280167623936e-04
3.828819013324e-04
4.021805478245e-04
5.624042399684e-04
3.568746175437e-04
3.381624883377e-04
3.763715402787e-04
4.219792148569e-04
3.309364607346e-04
3.505799184385e-04
3.052633941202e-04
4.056941669208e-04
6.469586485139e-04
3.250320809889e-04
2.796631607038e-04
2.599302819126e-04
2.342013255709e-04
6.036748186582e-04
6.482174305303e-04
6.269535787043e-04
6.731337752938e-04
6.527067380216e-04
2.538439629180e-04
6.821261244064e-04
6.930466000944e-04
5.166862193674e-04
4.621843229341e-04
5.278976428177e-04
3.703184973447e-04
3.451321418538e-04
3.906862459586e-04
5.246371866953e-04
5.443146240762e-04
5.699547953913e-04
5.897069522284e-04
6.153672919097e-04
6.351883362805e-04
6.094609170451e-04
6.550126832138e-04
6.292102542344e-04
6.608318434088e-04
6.410047653727e-04
6.747478106556e-04
6.489569127364e-04
6.944404496434e-04
6.686255413523e-04
6.230894205853e-04
6.427296395524e-04
5.974326100299e-04
5.473118415211e-04
5.725790691740e-04
5.920079111203e-04
6.173889614791e-04
6.368362109388e-04
6.623309645012e-04
6.816599341203e-04
6.563140336921e-04
6.764880034757e-04
3.948980065668e-04
3.757422617964e-04
3.507921955189e-04
3.317100384563e-04
3.067998146490e-04
2.878591714287e-04
2.628952814348e-04
2.817770972622e-04
2.377365497028e-04
2.565509120403e-04
2.123913595215e-04
2.311386405196e-04
5.922576399657e-04
6.427827676104e-04
6.878682679612e-04
6.678822000469e-04
2.148067718258e-04
6.882180801932e-04
6.864985118878e-04
6.664359755593e-04
7.013124766121e-04
2.087760264216e-04
2.441964081010e-04
2.687157839923e-04
6.978563593589e-04
6.772610625539e-04
7.121601343833e-04
2.283568469402e-04
7.006628053783e-04
1.937776703377e-04
6.622880887680e-04
7.078272471647e-04
5.837558227301e-04
7.131417687537e-04
6.924127382572e-04
2.759772220359e-04
2.508908842006e-04
2.067202652783e-04
2.273131006144e-04
2.708850174898e-04
2.448672349258e-04
1.998980645288e-04
2.191272268305e-04
2.639108306055e-04
2.381925193768e-04
1.928266391849e-04
2.123220651939e-04
7.337275495344e-04
1.682265145296e-04
5.462050413710e-04
7.318865140830e-04
7.261568958084e-04
7.225832230558e-04
7.021288971226e-04
6.565124913041e-04
6.819655065462e-04
7.275032532751e-04
7.072262295563e-04
6.616628008332e-04
6.865235503483e-04
6.407465733666e-04
6.657182290584e-04
7.113460086993e-04
6.908411643582e-04
6.453255735266e-04
6.702622678794e-04
6.246789880057e-04
6.489319520512e-04
6.952190037192e-04
1.840273521277e-04
6.759567359458e-04
7.214607443990e-04
3.679720332759e-04
4.092817550487e-04
4.360686121868e-04
4.564588720529e-04
6.740705970757e-04
7.205777350965e-04
2.252804046805e-04
2.496360743898e-04
7.429139095365e-04
6.823424879043e-04
6.366049028177e-04
4.378451378818e-04
4.188880438556e-04
3.943752891281e-04
3.748640538969e-04
4.003452629813e-04
3.498940421147e-04
6.207438251872e-04
7.364909888472e-04
2.405871186205e-04
1.954370079604e-04
7.282805554458e-04
6.308606560243e-04
6.167686675707e-04
6.359024740525e-04
6.606418547102e-04
6.798245018956e-04
7.048195630289e-04
7.239151784800e-04
6.995250348687e-04
7.376440826471e-04
7.439657402355e-04
6.261993285558e-04
6.226819723499e-04
2.832721408126e-04
1.644730842850e-04
1.669301588230e-04
2.020973455329e-04
2.478170423544e-04
7.577119654081e-04
7.492733009352e-04
7.294398050137e-04
3.569060949548e-04
3.819409900850e-04
7.577870500628e-04
6.069742862614e-04
6.160208837845e-04
5.947078797033e-04
1.502552835389e-04
1.472236624068e-04
7.528104372185e-04
2.930236053531e-04
2.739490413792e-04
1.500905215988e-04
1.240537225359e-04
6.973593058681e-04
7.439041173789e-04
4.813505419260e-04
5.017144862583e-04
7.379119109569e-04
1.870277448814e-04
7.663141417339e-04
6.508032487137e-04
6.054849935165e-04
4.293291398523e-04
2.069471688254e-04
1.825426121622e-04
3.087667916428e-04
2.317056376954e-04
2.217281548421e-04
7.833146767017e-04
7.725249111761e-04
7.195048383756e-04
6.747855449436e-04
7.634484368176e-04
1.418552388889e-04
7.784896772249e-04
7.030108063973e-04
7.725824598691e-04
7.540604595900e-04
3.171474948001e-04
2.987852970653e-04
2.558668176592e-04
2.815832131691e-04
5.513698858348e-04
3.420076733764e-04
5.219255427951e-04
5.030668813377e-04
4.792452590639e-04
4.247335201093e-04
4.063236056300e-04
3.563244576484e-04
5.530404887445e-04
4.617109805981e-04
5.777394579271e-04
5.501611182387e-04
7.566237315057e-04
7.823745579098e-04
5.997434588476e-04
5.780237946273e-04
1.697495562144e-04
1.508805515530e-04
5.186529117619e-04
7.516991623626e-04
7.672690893153e-04
7.876001356161e-04
7.626509320592e-04
7.627778325953e-04
3.699499845101e-04
5.666666454918e-04
1.438245311811e-04
5.868006376026e-04
1.247175489974e-04
6.713548583210e-04
7.483917891977e-04
7.736774679398e-04
7.821572245300e-04
4.899015071153e-04
6.061770746778e-04
5.817931729752e-04
4.605724853742e-04
4.370223372958e-04
4.552736079605e-04
4.133656439147e-04
3.276923247088e-04
3.020339028758e-04
7.979659689173e-04
7.883460447529e-04
7.982408092041e-04
7.795524967648e-04
8.013069214063e-04
7.771428291273e-04
2.665794004091e-04
3.640873967819e-04
7.971681631113e-04
4.838853975756e-04
7.968536680470e-04
7.720983615569e-04
9.810668217613e-05
1.158569237012e-04
7.915840785144e-04
2.380574401882e-04
2.618006099049e-04
2.132008951494e-04
8.415052523991e-04
4.886663809025e-04
7.934056144555e-04
4.492884086887e-04
8.130387548701e-04
6.261760504981e-04
4.125814814439e-04
7.178732318399e-04
7.666642762268e-04
8.185709815987e-04
5.696834584242e-04
5.469719599133e-04
5.897324846542e-04
1.746640571462e-04
1.267235960322e-04
7.616042996352e-04
3.196076646027e-04
3.449992437643e-04
2.048866664362e-04
2.493062780569e-04
5.070116633323e-04
4.873520815403e-04
6.908734956118e-04
7.154878992919e-04
6.414340301825e-04
6.254037858679e-04
5.801902790572e-04
5.606256376154e-04
8.012681753723e-04
8.329963825512e-04
3.530470634913e-04
3.340524441574e-04
3.460614324759e-04
8.175524335045e-04
8.195011765415e-04
7.988609115481e-04
1.072300634752e-04
1.330632502214e-04
1.652810804939e-04
1.397493906304e-04
8.060647275400e-04
7.832275887001e-04
8.359053686964e-04
2.373558503067e-04
6.948259004067e-04
8.063839968108e-04
7.881231808626e-04
8.339301416529e-04
7.615215817857e-04
8.048887775842e-04
8.067360300635e-04
8.088210451328e-05
8.001969768968e-04
5.513628864854e-04
5.991210265794e-05
5.303750343771e-04
5.575493484435e-04
5.056018791105e-04
1.923253731113e-04
5.350945061517e-04
5.648908884563e-04
7.689491788832e-05
8.408831798945e-04
8.340401133038e-05
9.990498025281e-05
8.174634215095e-04
7.911886027123e-04
8.358366351121e-04
8.088717682168e-04
7.649515697637e-04
7.857574983214e-04
5.264350640623e-04
8.358546589260e-04
8.061222461893e-04
8.605711697752e-04
3.958089654574e-04
3.059852068258e-04
2.858172523062e-04
2.426109781750e-04
8.296191495191e-04
8.022538523192e-04
7.244602053986e-04
6.782170569491e-04
5.336023792134e-04
5.298854478294e-04
5.720377334188e-04
5.651841783924e-04
6.088002111604e-04
6.018654128492e-04
6.443068834977e-04
8.334708182106e-04
1.951336418689e-04
4.420082584187e-04
8.207982746555e-04
7.940700745775e-04
3.881584802576e-04
3.471998577605e-04
8.305993334525e-04
3.609425281377e-04
8.689143425974e-04
2.787060135920e-05
7.286647819476e-05
3.859558184678e-04
4.309545412117e-04
3.298825060451e-04
3.137520652760e-04
6.714664482733e-04
1.125731627303e-04
1.894537224626e-04
6.501544121412e-04
1.477430287242e-04
7.019854955118e-04
3.810844111669e-04
4.677711350311e-04
2.313148587081e-04
3.252238421852e-04
5.703579268460e-04
5.324043867603e-04
5.086674172278e-04
4.006419728863e-04
3.391204703335e-04
2.923835719857e-04
5.408511218791e-04
7.379651171000e-04
7.579706773122e-04
8.011548755258e-04
7.780826984350e-04
7.332840892905e-04
7.526479975870e-04
7.971803115054e-04
7.735197813416e-04
8.262472905690e-04
7.929598925790e-04
7.470527542952e-04
7.659248830045e-04
8.091032939205e-04
7.211619544472e-04
8.442167902149e-04
4.306865788467e-04
1.044765289972e-04
9.827683643382e-05
4.923540219683e-04
8.714790847238e-04
8.731736799155e-04
3.123792524490e-04
8.729287150019e-04
5.272649318487e-04
2.191398239417e-04
8.732031985156e-04
7.130087249815e-04
6.877858420163e-04
6.679067510146e-04
8.747254954737e-04
6.109742344751e-04
8.755701857100e-04
5.978551322893e-04
5.777687862342e-04
5.331862976259e-04
7.271016044260e-04
8.726832412974e-04
8.363453721647e-04
8.357287884966e-04
7.967949130083e-04
8.729311769591e-04
8.746048210339e-04
8.757603934564e-04
2.896480078818e-04
3.151536061376e-04
3.591713235696e-04
3.399576539233e-04
2.956226792121e-04
3.205301867894e-04
3.646701735677e-04
3.009725532030e-04
7.593675824400e-04
8.745186206880e-04
5.955179239956e-04
5.752952465899e-04
5.302262826699e-04
4.419860638094e-04
4.675978432361e-04
5.129738354448e-04
4.164548397465e-04
6.551879346242e-04
8.741019856414e-04
5.859901048920e-04
4.476603996913e-04
4.915230817815e-04
5.309240068605e-04
5.323700613709e-04
5.736894063965e-04
5.351590388547e-04
5.269854541203e-04
5.469085242661e-04
5.219164243980e-04
5.664660482549e-04
5.401131126200e-04
4.979524260253e-04
5.848853311671e-04
5.569185072007e-04
4.906420102381e-04
3.170448400109e-05
6.995385727615e-05
6.849074955060e-05
1.073511835087e-04
1.105991917856e-04
1.504731351132e-04
1.458387750102e-04
7.076324639262e-05
3.090762372850e-05
6.811155019588e-05
3.024275800373e-05
6.701952661023e-05
1.132561805515e-04
1.774278331148e-04
8.683268420300e-04
4.289563965157e-04
4.087467011713e-04
3.620022030675e-04
3.871398276738e-04
4.468882401977e-04
3.382483447187e-04
3.227666928477e-04
3.186373403238e-05
6.968070788243e-05
6.930431433067e-05
1.103830641038e-04
1.084283513711e-04
6.955844240917e-05
6.957251263225e-05
3.087829288754e-05
6.916668823128e-05
1.092093195758e-04
2.860096868461e-05
7.056820037004e-04
7.299566898429e-04
8.725577123160e-04
4.959692094609e-04
3.091218048916e-05
8.671852048698e-04
8.733432179252e-04
8.734531321064e-04
7.957971286484e-04
8.182028176353e-04
8.680808008300e-04
2.856246407715e-04
8.221505899075e-04
7.867365561803e-04
2.006879828875e-04
2.760157267466e-04
6.570374827172e-04
6.034788526751e-04
7.534404223277e-04
6.171445062617e-04
7.141191166494e-04
8.333331487220e-04
1.769391207037e-04
6.197356729893e-04
6.031369019689e-04
7.159815276405e-04
2.996957630434e-04
4.779314782195e-04
1.896480084331e-04
8.372249201876e-04
4.978685116583e-04
5.049912460344e-04
3.962534712183e-04
3.116673154321e-04
2.575495564398e-04
4.563132910929e-04
4.733113038568e-04
6.807420950213e-04
7.412727405057e-04
3.900894407946e-05
7.062809791721e-04
5.640134143322e-04
6.366157628327e-04
7.072992914154e-04
1.751116105001e-04
7.321461800821e-04
8.104970881191e-04
5.847505123753e-04
1.450668962481e-04
5.736378135269e-04
8.027337595558e-04
7.180376744355e-04
2.736317130801e-04
5.220914710743e-04
4.865818052908e-04
4.471177866967e-04
8.063363278817e-04
5.378993798996e-04
7.470022916029e-04
6.114026488664e-04
2.939212611736e-04
7.463767332909e-04
5.084976424556e-04
7.777626792266e-04
6.854084072495e-04
4.140791467985e-04
7.471678807682e-04
5.103813785756e-04
7.329713830172e-04
4.737289604077e-04
5.977356866437e-04
6.519892618683e-04
5.678021419543e-04
6.319192717496e-04
7.264774776897e-04
1.875624189713e-04
3.688310981205e-04
6.314501505079e-04
7.672682440834e-04
8.229065015772e-04
4.434680652511e-04
7.201561125460e-04
7.914028017314e-04
4.930979507901e-04
2.040260336769e-04
1.581177402907e-04
3.258736548738e-04
5.134927945261e-04
5.384299011222e-04
8.328361271424e-04
7.396786737532e-04
6.920128991829e-04
8.196000574170e-05
4.652440764187e-04
7.595631118992e-04
5.413940581115e-04
7.514691837904e-04
5.124079232766e-04
8.363223980306e-04
3.713304271161e-04
7.809543171495e-04
6.971423152539e-04
3.367042725643e-04
4.902204304360e-04
8.332513049421e-04
7.429330284217e-04
6.113513461743e-04
5.161141755974e-04
4.006034501526e-04
5.581912762765e-04
6.223072189553e-04
8.752979443996e-04
7.659203639430e-04
6.426709006855e-04
5.325586862054e-04
6.468672484863e-04
1.073528278852e-04
4.189303666797e-04
5.523127417924e-04
3.452338039030e-04
5.354806018552e-04
8.261173123730e-04
5.721454322879e-04
3.892915712256e-04
5.917818965199e-04
3.539736687271e-04
6.627781278346e-04
6.108539446376e-04
6.660506999495e-04
1.163652973912e-04
6.305577701447e-04
7.706780509161e-04
3.642601618824e-04
5.551389630622e-04
7.078379568633e-04
3.068275794996e-04
6.002627334512e-04
7.101300016245e-04
6.503083964526e-04
5.576201452771e-04
6.459702225838e-04
3.237473504565e-04
2.667167922262e-04
2.221184360012e-04
4.085364404529e-04
7.352038309621e-04
1.486189434306e-04
7.017840156360e-04
1.592352416656e-04
3.838129177836e-04
7.166805507109e-04
6.173636955304e-04
4.028477991315e-04
2.492989866975e-04
3.779520455053e-04
6.018674573376e-04
3.968794592392e-04
3.716672737304e-04
8.329159667528e-04
3.902334651909e-04
8.748882416506e-04
8.711247298713e-04
5.265534076551e-04
2.606176973493e-04
3.608218628589e-05
2.743663405466e-04
3.201182020186e-04
6.958586502563e-04
5.269760115519e-04
2.937831755636e-04
8.369611183303e-04
8.745831491043e-04
6.824073644152e-04
7.692285890476e-04
6.715862034514e-04
7.913186766418e-04
4.873605112046e-04
6.716351408429e-05
6.550406917342e-04
2.121979415798e-04
2.182245527634e-04
1.712289286332e-04
3.107224161433e-04
1.057301483358e-04
1.752557479945e-04
8.331013379116e-04
5.272790897640e-04
7.395202468706e-04
1.285853407158e-04
8.358234000511e-04
8.354665319098e-04
8.757509275415e-04
7.846429612781e-04
1.241570316100e-04
5.651773772313e-04
8.374854402619e-04
7.189201776621e-04
8.774612593526e-04
5.201256590730e-04
8.377629979176e-04
1.628222754370e-04
8.372912793325e-04
7.405810874684e-04
5.837048570091e-04
5.629391932633e-04
8.390585364860e-04
8.374355334258e-04
9.795501197394e-05
6.799231894058e-04
3.879757720191e-04
6.464184088928e-05
8.366012277656e-04
7.827055704325e-04
8.377349647591e-04
1.105757531249e-04
6.604595936869e-05
8.445536335797e-04
8.418018754541e-04
1.845877810614e-04
8.826549608499e-04
6.138757031092e-05
4.804799717199e-04
6.556100966196e-05
8.765991424528e-04
8.406352288089e-04
4.268003565693e-04
4.929667183317e-04
2.809817149082e-04
8.054666026434e-04
9.866382460825e-05
8.462920394623e-04
8.466481683937e-04
8.459200057126e-04
8.848347209820e-04
6.317410965350e-05
8.478579638221e-04
8.049072796093e-04
4.880930937126e-04
8.381519655459e-04
3.464907722736e-04
1.453132550396e-04
8.782340449193e-04
2.788672853684e-05
4.852288266984e-04
8.800271141742e-04
1.366420641944e-04
5.591160485789e-04
8.434724703118e-04
5.260519714094e-04
7.639465125204e-04
1.346350386641e-04
2.489926233996e-05
6.405845470091e-04
8.434966522637e-04
8.489495605041e-04
6.092101199236e-04
1.233072216685e-04
8.180905916336e-04
4.606593074043e-04
8.111203909914e-04
8.066949311416e-04
3.153365254742e-05
5.661385301693e-04
6.389298898293e-05
8.469003976225e-04
4.815533645814e-04
1.555126794066e-05
3.133488609838e-05
5.642905384665e-05
6.874259108237e-05
1.021879639731e-04
1.173513282371e-04
1.474995886566e-04
1.546977997438e-04
1.930912926159e-04
2.061381711949e-04
2.390794373089e-04
2.445931968886e-04
2.856605147877e-04
2.967755800048e-04
3.322884574065e-04
3.356786539240e-04
3.782594336362e-04
3.879906112582e-04
4.250700443092e-04
4.273709822799e-04

SCALARS node_materi_plasti_phimob float
LOOKUP_TABLE default
-5.954747996710e+01
1.758167173604e+01
2.049213672757e+01
2.049375253540e+01
-3.187181898558e+01
-7.368987853713e+00
2.373786652256e+00
8.027722739676e+00
1.128215445373e+01
1.331486721268e+01
1.479369646878e+01
1.591381453759e+01
1.677895457345e+01
1.750115906410e+01
1.813510283778e+01
1.856778520914e+01
1.888302358212e+01
1.923130620747e+01
1.953485877660e+01
1.979108102773e+01
2.002255592837e+01
2.023306544007e+01
2.039947863319e+01
2.049992558164e+01
2.050072042321e+01
2.050056354644e+01
2.050645553472e+01
2.050168645018e+01
2.049824001367e+01
2.049411009202e+01
2.050300951734e+01
2.050107145560e+01
2.050499948594e+01
2.050097066910e+01
2.050435985392e+01
2.049868018733e+01
2.050612237649e+01
2.049525099572e+01
2.050277748544e+01
2.050319807281e+01
2.049276984461e+01
2.049906951944e+01
2.050245657408e+01
2.050348450484e+01
2.049814909109e+01
2.049987118772e+01
2.049982044668e+01
2.050254055396e+01
2.049916273499e+01
2.051062220740e+01
2.050012303784e+01
2.050750313263e+01
2.050632996306e+01
2.051189249082e+01
2.049823857984e+01
2.049599365175e+01
2.049894318849e+01
2.049827489254e+01
2.050938879944e+01
2.049847170139e+01
2.050625191138e+01
2.049385521154e+01
2.050400075879e+01
2.050799588702e+01
2.050167025224e+01
2.050058335476e+01
2.049681198826e+01
2.049762389520e+01
2.050601858355e+01
2.050542643939e+01
2.050434717044e+01
2.050860172229e+01
1.806885427075e+01
1.857055455236e+01
1.895323950993e+01
1.927481577663e+01
1.956628694056e+01
1.979355891709e+01
2.001797742108e+01
2.021379272320e+01
2.039227254661e+01
-2.192585733034e+01
1.747487548689e+01
1.753790359095e+01
-3.516242972329e+01
-8.276324490530e+00
2.458921421529e+00
7.843599205654e+00
1.110461159875e+01
1.323318128754e+01
1.477512545617e+01
1.591107267370e+01
1.678785287342e+01
-3.326588771975e+01
-7.836237497345e+00
2.674248166449e+00
8.071242975410e+00
1.123513254835e+01
1.336705122332e+01
1.484945145212e+01
1.597667586912e+01
1.681165148380e+01
1.744275957305e+01
1.744919572693e+01
1.746105136259e+01
1.745368587381e+01
1.751813917850e+01
1.745206230629e+01
1.743756417975e+01
1.745317134298e+01
1.747980714988e+01
1.747984660897e+01
1.745932391060e+01
1.746506238419e+01
1.745563751455e+01
1.747236436241e+01
-6.254975597936e+01
-6.169051398879e+01
-1.113472636372e+01
-1.136427197657e+01
-6.076354514881e+01
-5.968401694558e+01
-5.991686336136e+01
-6.025972706040e+01
-6.031131471361e+01
-6.029438685684e+01
-5.987463278435e+01
-5.810771846255e+01
-5.907790283746e+01
-6.148642909695e+01
-6.096015732535e+01
-6.007422049712e+01
-5.996477751719e+01
-6.128545099953e+01
-6.324617446061e+01
8.999999999514e+01
-1.732213385259e+01
-5.570219852765e+01
-5.606136694461e+01
-5.576466124258e+01
-5.592098700797e+01
-5.583241940940e+01
-5.586692916547e+01
-5.582937782548e+01
-5.584239267841e+01
-5.584190369352e+01
-5.585212524437e+01
-5.585681704572e+01
-5.586250598433e+01
-5.586604580476e+01
-5.586860334323e+01
-5.586956896197e+01
-5.586929196586e+01
-5.586786365720e+01
-5.586579714495e+01
-5.586375041476e+01
-5.586234126739e+01
-5.586191873934e+01
-5.586301955560e+01
-5.586622564870e+01
-5.587173343409e+01
-5.586962667430e+01
-5.565285676614e+01
-1.632921194944e+01
-3.306471567116e+01
-3.517859413756e+01
-3.550289419646e+01
-3.549757347195e+01
-3.550433569987e+01
-3.551005628377e+01
-3.551475365412e+01
-3.551886045331e+01
-3.552259460527e+01
-3.552623827938e+01
-3.552966048579e+01
-3.553240440307e+01
-3.553395433101e+01
-3.553388620780e+01
-3.553222584245e+01
-3.552860940339e+01
-3.552404943910e+01
-3.551690828850e+01
-3.551204621095e+01
-3.549971059278e+01
-3.550335697544e+01
-3.548184784387e+01
-3.553150032658e+01
-3.545473740236e+01
-3.559972673501e+01
-3.532605056904e+01
-3.339804226222e+01
-3.884344113897e+01
-9.996976198272e+00
-7.767980515851e+00
-8.591116526476e+00
-8.617765386085e+00
-8.592948535002e+00
-8.602388238438e+00
-8.606379050017e+00
-8.617325526517e+00
-8.623995639052e+00
-8.631656340521e+00
-8.638040126154e+00
-8.643363643591e+00
-8.646869475192e+00
-8.648468813170e+00
-8.647998573689e+00
-8.645877088340e+00
-8.642894667630e+00
-8.639827001863e+00
-8.637214585516e+00
-8.635230140603e+00
-8.633905442337e+00
-8.633194614621e+00
-8.632398999093e+00
-8.631356887088e+00
-8.663554226320e+00
-8.597617574253e+00
1.555275404256e+00
2.761092153809e+00
2.448526121839e+00
2.418128526017e+00
2.425031890085e+00
2.408859655830e+00
2.405282485448e+00
2.398325674426e+00
2.392213379922e+00
2.386446581491e+00
2.381942549102e+00
2.379291516086e+00
2.379005889444e+00
2.380713608013e+00
2.383219847391e+00
2.385549177137e+00
2.387133914202e+00
2.387445136084e+00
2.385973985045e+00
2.382340785296e+00
2.376679157619e+00
2.369648707547e+00
2.364750350777e+00
2.429997786017e+00
2.707003743635e+00
7.899740723924e+00
7.856183297767e+00
7.861921563319e+00
7.866825043498e+00
7.872626995121e+00
7.878050807978e+00
7.881963527556e+00
7.883972617168e+00
7.884572651033e+00
7.884174008569e+00
7.883061204681e+00
7.881217799230e+00
7.879958562254e+00
7.881000061963e+00
7.884858079983e+00
7.888852319336e+00
7.893351708324e+00
7.895347138556e+00
7.899279488985e+00
7.895672313304e+00
7.913804467189e+00
8.111811762815e+00
7.364659014691e+00
1.076329393487e+01
1.125785149336e+01
1.114451149012e+01
1.113978205716e+01
1.114193349999e+01
1.114125098351e+01
1.113666904617e+01
1.113120170250e+01
1.112805688576e+01
1.112976304235e+01
1.113219934712e+01
1.113257257828e+01
1.113202871865e+01
1.113134123023e+01
1.113004477775e+01
1.112707021482e+01
1.112237276197e+01
1.111769050464e+01
1.111445482028e+01
1.111533316471e+01
1.113741307963e+01
1.123918716753e+01
1.329582212629e+01
1.326470716922e+01
1.326143295030e+01
1.326212682085e+01
1.326483889010e+01
1.326915060926e+01
1.327336253150e+01
1.327488087969e+01
1.327496927515e+01
1.327723675866e+01
1.327965344259e+01
1.327919123693e+01
1.327446666684e+01
1.327347653314e+01
1.328070237990e+01
1.329077639129e+01
1.329280555661e+01
1.328748300956e+01
1.338051837143e+01
1.299944170029e+01
1.457346317422e+01
1.487518514467e+01
1.481620792857e+01
1.480730820590e+01
1.479097872957e+01
1.478891640050e+01
1.479617108728e+01
1.479719253141e+01
1.479477086705e+01
1.478789858020e+01
1.478613386590e+01
1.478911740998e+01
1.478405832630e+01
1.477970221234e+01
1.477720764971e+01
1.477639261644e+01
1.477834150252e+01
1.479372398312e+01
1.484729262348e+01
1.594740571474e+01
1.591094642067e+01
1.590548685055e+01
1.590756522601e+01
1.590539805859e+01
1.590785849752e+01
1.591331127057e+01
1.591552159513e+01
1.590945511670e+01
1.592058814329e+01
1.592838048603e+01
1.592656189802e+01
1.593107262625e+01
1.592432758430e+01
1.593482493033e+01
1.599788072277e+01
1.575645931842e+01
1.665780382900e+01
1.685626222064e+01
1.681555287524e+01
1.679324814553e+01
1.679482399894e+01
1.679640950504e+01
1.678840961122e+01
1.678592366510e+01
1.678142880792e+01
1.677842228544e+01
1.677662708396e+01
1.677667753603e+01
1.678211138378e+01
1.677748792042e+01
1.680153492877e+01
1.685094724569e+01
1.138355028683e+00
-1.571318413563e+01
-8.682709971713e-01
6.077030859257e+00
9.919771267585e+00
1.241974783658e+01
1.417968887159e+01
1.544794345620e+01
1.641802941248e+01
1.718337214620e+01
-2.620237048278e+00
2.042575706795e+01
-4.051547810901e+01
-4.186333378984e+01
2.043580484803e+01
9.606429914797e+00
1.785418119900e+01
2.042598431855e+01
1.390785509940e+01
2.043314949943e+01
1.631466091997e+01
2.043444243523e+01
-4.153030200444e+01
2.043571161453e+01
1.775986753526e+01
1.417337273641e+01
1.902437425332e+01
2.042202629819e+01
2.043851992237e+01
2.043941023882e+01
2.041854776627e+01
2.044370219323e+01
1.798855360065e+01
1.800005272594e+01
1.801921767561e+01
1.941833899818e+01
2.043770716488e+01
-4.181977876829e+01
-3.983306693060e+01
1.990211515718e+01
1.798676393625e+01
5.577402176858e+00
2.041703252357e+01
2.044579058255e+01
2.043443856532e+01
2.042143368978e+01
2.044428533601e+01
-3.976388456186e+01
1.798014744162e+01
2.041575528073e+01
1.992412671737e+01
-3.984288638461e+01
1.638921287690e+01
2.046762931716e+01
1.232448275812e+01
5.327039269645e+00
1.529105810274e+01
1.710283465801e+01
-2.239373568851e+01
1.878347004101e+01
2.046531002702e+01
-4.156793572210e+01
2.029593464968e+01
1.800268814228e+01
1.820831545066e+01
1.841628585783e+01
1.863895048956e+01
1.884058216136e+01
1.899824035274e+01
1.880066983700e+01
1.913524745476e+01
1.895533798763e+01
1.916084004157e+01
1.926953374674e+01
1.909857308650e+01
1.939490779419e+01
1.923453210668e+01
1.891468408055e+01
1.906178857246e+01
1.871144045289e+01
1.887181477181e+01
1.919971133943e+01
1.902046335425e+01
1.866526511168e+01
1.882561952978e+01
1.843912210518e+01
1.861354259754e+01
1.819128646047e+01
1.838268409881e+01
1.877658943058e+01
1.856198423978e+01
1.812969351698e+01
1.832722849999e+01
1.785182420276e+01
1.806744721727e+01
1.851067597804e+01
1.826982518259e+01
1.777880371754e+01
1.800578277090e+01
1.746021705670e+01
1.771344211974e+01
1.710102342977e+01
1.738341584786e+01
1.794514540612e+01
1.764213568499e+01
1.701220068660e+01
1.730000946405e+01
1.787888529163e+01
1.756395904120e+01
1.809812872282e+01
1.780793615342e+01
1.721499527771e+01
1.748643633458e+01
1.803275022428e+01
1.773507757784e+01
1.712846655177e+01
1.740521459020e+01
1.796585672608e+01
1.766003319139e+01
1.703664838089e+01
1.732135204089e+01
1.789826760417e+01
1.758315913455e+01
1.693928055970e+01
1.723112926018e+01
1.782739205705e+01
1.750044439268e+01
1.805324903690e+01
1.682886188615e+01
1.713238405918e+01
1.636802695190e+01
1.671613838878e+01
1.868396678666e+01
1.584052045121e+01
1.541009187598e+01
1.624308606756e+01
1.703922330650e+01
1.523063815021e+01
1.570015209406e+01
1.452111366100e+01
1.677985715213e+01
1.932878222551e+01
1.507472632149e+01
1.368426889003e+01
1.293003756720e+01
1.175009120665e+01
1.901132676303e+01
1.932978791728e+01
1.918467893000e+01
1.948922129949e+01
1.935927382857e+01
1.266660904163e+01
1.954430082532e+01
1.960739472830e+01
1.825258434522e+01
1.761703490560e+01
1.836113717169e+01
1.612178674440e+01
1.557149885406e+01
1.651725694737e+01
1.832482722651e+01
1.851569139976e+01
1.874470406159e+01
1.890756256879e+01
1.910318404751e+01
1.924374547993e+01
1.905982467863e+01
1.937614714504e+01
1.920239976102e+01
1.941251626767e+01
1.928295068255e+01
1.949964442880e+01
1.933576008414e+01
1.961473728449e+01
1.946083167939e+01
1.915875084093e+01
1.929456963970e+01
1.896904320367e+01
1.854661261311e+01
1.877028976855e+01
1.892820304946e+01
1.912132518210e+01
1.925692449952e+01
1.942637979483e+01
1.954371679545e+01
1.938454053644e+01
1.951548039564e+01
1.659207287445e+01
1.623395444563e+01
1.570752956563e+01
1.525098903682e+01
1.457009870458e+01
1.397035847289e+01
1.305019678174e+01
1.376165746341e+01
1.192393883734e+01
1.278544024800e+01
1.052449012733e+01
1.158847946948e+01
1.893057423255e+01
1.929938385148e+01
1.958182588469e+01
1.945941390999e+01
1.067898195261e+01
1.957857089626e+01
1.956898195673e+01
1.944820662966e+01
1.965571517951e+01
1.030620029570e+01
1.223238582628e+01
1.328145659030e+01
1.963503406582e+01
1.951339385777e+01
1.971395598622e+01
1.144161888902e+01
1.965263071061e+01
9.246186664035e+00
1.942141536526e+01
1.968990345964e+01
1.885964114360e+01
1.972167989148e+01
1.960446361986e+01
1.354681750566e+01
1.253709562029e+01
1.018669543037e+01
1.138073490459e+01
1.335081877721e+01
1.226136990169e+01
9.748279954856e+00
1.093224126323e+01
1.308368073452e+01
1.194316454479e+01
9.212206422671e+00
1.051248964525e+01
1.982781341324e+01
7.051217165858e+00
1.854377477888e+01
1.981874702762e+01
1.979543060133e+01
1.976970303788e+01
1.965852540499e+01
1.938528225143e+01
1.954413300708e+01
1.979772766896e+01
1.969112226052e+01
1.942257157855e+01
1.957293167518e+01
1.928355395616e+01
1.944636027342e+01
1.971170322137e+01
1.959745202286e+01
1.931857711218e+01
1.947691187138e+01
1.918078427605e+01
1.934206019603e+01
1.962292351127e+01
8.557795423804e+00
1.950763278500e+01
1.976915143905e+01
1.606368223193e+01
1.685847823831e+01
1.726253794491e+01
1.753458454075e+01
1.949848887371e+01
1.976725206367e+01
1.128119238627e+01
1.249437849445e+01
1.987495588231e+01
1.954326528617e+01
1.925439173833e+01
1.728322276561e+01
1.699849021397e+01
1.658383494137e+01
1.621952581967e+01
1.669270737980e+01
1.568406117544e+01
1.914245718848e+01
1.984394218622e+01
1.206958914888e+01
9.387385399948e+00
1.979951326613e+01
1.921501483801e+01
1.911549609193e+01
1.924998123962e+01
1.941262457479e+01
1.953058570084e+01
1.967503117635e+01
1.978004252497e+01
1.964528710843e+01
1.984784526836e+01
1.988411931181e+01
1.918677505547e+01
1.915900609127e+01
1.380746863188e+01
6.757731668680e+00
6.891561722945e+00
9.872380827323e+00
1.240117912255e+01
1.994683145874e+01
1.991074785778e+01
1.981026459684e+01
1.584457139007e+01
1.636036201953e+01
1.994674137251e+01
1.903546647288e+01
1.910962327528e+01
1.894909280255e+01
5.428940137915e+00
4.960529560430e+00
1.992578287961e+01
1.414424354690e+01
1.349073419003e+01
4.964978846532e+00
1.147714231583e+00
1.963806274099e+01
1.988109400719e+01
1.784930981489e+01
1.808501390049e+01
1.984910153177e+01
8.703827930458e+00
1.998997559247e+01
1.935056787643e+01
1.903201830617e+01
1.715364768754e+01
1.020003309100e+01
8.389659454477e+00
1.462173727967e+01
1.161675066089e+01
1.108873211829e+01
2.006771685017e+01
2.001730427070e+01
1.975631099116e+01
1.950268217235e+01
1.997421455143e+01
3.983601351563e+00
2.004790495378e+01
1.966535090366e+01
2.003553602553e+01
1.993746312780e+01
1.487380155398e+01
1.434322252363e+01
1.277721446892e+01
1.375148616010e+01
1.859978363860e+01
1.551852966035e+01
1.830705601533e+01
1.810934067318e+01
1.783547930426e+01
1.709312496629e+01
1.679701244828e+01
1.583111400940e+01
1.859959412519e+01
1.760761855798e+01
1.881049181450e+01
1.856956226316e+01
1.994469490613e+01
2.006564948044e+01
1.899480873800e+01
1.881620257119e+01
7.199520700890e+00
5.139738376225e+00
1.826393454731e+01
1.992227288691e+01
1.999462060041e+01
2.008814973321e+01
1.997195911628e+01
1.997186172607e+01
1.611681352750e+01
1.871874014874e+01
4.184426190207e+00
1.888800324559e+01
1.371183669106e+00
1.948571852745e+01
1.990173082979e+01
2.002164350521e+01
2.006061134342e+01
1.796495001644e+01
1.903903281821e+01
1.884880285561e+01
1.759906578599e+01
1.727649526334e+01
1.753084575151e+01
1.691294408482e+01
1.514596788157e+01
1.442470322124e+01
2.013976513087e+01
2.009248755472e+01
2.014381186528e+01
2.004555709314e+01
2.014120468163e+01
2.003630572948e+01
1.320994448245e+01
1.600612387954e+01
2.012549895250e+01
1.788976037974e+01
2.013691823574e+01
2.001746195566e+01
-4.326145646429e+00
-3.413562965687e-01
2.010238149666e+01
1.195186522406e+01
1.303200914927e+01
1.060653754817e+01
2.031420536950e+01
1.795661718366e+01
2.010997481507e+01
1.744879213103e+01
2.019171292206e+01
1.918360198201e+01
1.689294197684e+01
1.974607372079e+01
1.999061722157e+01
2.022437806113e+01
1.873960013714e+01
1.855644024246e+01
1.891031486596e+01
7.674625764483e+00
1.569395738865e+00
1.997094468244e+01
1.494113531343e+01
1.560081351806e+01
1.003207694395e+01
1.248348916308e+01
1.814157434738e+01
1.792152085782e+01
1.959902554479e+01
1.973815428230e+01
1.928836663250e+01
1.917736004293e+01
1.883275055880e+01
1.866594783370e+01
2.015734441515e+01
2.028511069222e+01
1.575529016473e+01
1.530695457460e+01
1.559718183294e+01
2.021078462660e+01
2.021951279028e+01
2.014843441753e+01
-2.387866013482e+00
2.389788048569e+00
6.789481804201e+00
3.916110973529e+00
2.017280331690e+01
2.006784818731e+01
2.028716456739e+01
1.191994692885e+01
1.962073226890e+01
2.017111304131e+01
2.009075912468e+01
2.027775178163e+01
1.996433993164e+01
2.017138628573e+01
2.017498820464e+01
-1.052217574703e+01
2.015223517438e+01
1.858790649290e+01
-1.886947294324e+01
1.837871144545e+01
1.863887954794e+01
1.813983637991e+01
9.204614266164e+00
1.844370781639e+01
1.870180831294e+01
-1.140996942044e+01
2.030827125869e+01
-9.273824901846e+00
-3.696357068889e+00
2.020729645224e+01
2.010296672393e+01
2.029727077654e+01
2.018979555506e+01
1.998354443646e+01
2.007605334193e+01
1.834777128839e+01
2.028738762306e+01
2.016601337268e+01
2.037924985716e+01
1.661760478805e+01
1.454948411353e+01
1.396424139441e+01
1.218135803015e+01
2.026420251669e+01
2.015388208172e+01
1.978058425341e+01
1.952456404940e+01
1.843102592006e+01
1.840119416800e+01
1.878554138257e+01
1.873261674231e+01
1.907377277465e+01
1.900767088640e+01
1.930902904229e+01
2.028468588813e+01
9.337191376318e+00
1.734582730196e+01
2.022564755661e+01
2.012129975161e+01
1.647972414806e+01
1.564707069811e+01
2.027576685107e+01
1.593166470030e+01
2.041383008071e+01
-4.168182426593e+01
-1.296572802262e+01
1.643219406329e+01
1.718569748107e+01
1.520708012394e+01
1.477480394650e+01
1.947964293482e+01
-9.026960283351e-01
8.958876469554e+00
1.934403438677e+01
4.741045547060e+00
1.965808470065e+01
1.633583973492e+01
1.769187080709e+01
1.162229861554e+01
1.508640373673e+01
1.876155238657e+01
1.842730236400e+01
1.817486130148e+01
1.669407658173e+01
1.544413958365e+01
1.416923816497e+01
1.849184371109e+01
1.985088530401e+01
1.995394101565e+01
2.015054460899e+01
2.004835281848e+01
1.982900493343e+01
1.992535057162e+01
2.013652334960e+01
2.001901428352e+01
2.025674610640e+01
2.011273009133e+01
1.989655284345e+01
1.999993536930e+01
2.018761145392e+01
1.976672383800e+01
2.032312220919e+01
1.717804647069e+01
-2.954691047718e+00
-4.117980788732e+00
1.798764591206e+01
2.043793807224e+01
2.043737461804e+01
1.473155487505e+01
2.043053578733e+01
1.836508170285e+01
1.091991711172e+01
2.043260818780e+01
1.971910615558e+01
1.957713751003e+01
1.945603089848e+01
2.043693436410e+01
1.908050655126e+01
2.044516565599e+01
1.897516171742e+01
1.881423190306e+01
1.841444183121e+01
1.979419010474e+01
2.043278885764e+01
2.030370508340e+01
2.029343409983e+01
2.014436405642e+01
2.042910612011e+01
2.043597726892e+01
2.044367356902e+01
1.402315561529e+01
1.480467402619e+01
1.588931352628e+01
1.545157888737e+01
1.421986029770e+01
1.495394793143e+01
1.600639552835e+01
1.439117098512e+01
1.995712023989e+01
2.044157338160e+01
1.895270315450e+01
1.879023517444e+01
1.838095582684e+01
1.733630584011e+01
1.768012874443e+01
1.820489409630e+01
1.695233070248e+01
1.937825911260e+01
2.043789424420e+01
1.887943482907e+01
1.741655556343e+01
1.799341594411e+01
1.841012851329e+01
1.841807749191e+01
1.878740658607e+01
1.843999147157e+01
1.834876445521e+01
1.854211334997e+01
1.829910322349e+01
1.871633065155e+01
1.847925163749e+01
1.805051840660e+01
1.886982380281e+01
1.864038583227e+01
1.797992166800e+01
-3.972032621277e+01
-1.288959836081e+01
-1.339513482472e+01
-1.406615566847e+00
-7.930762046332e-01
5.396235819720e+00
4.823196899880e+00
-1.301530483671e+01
-4.017184504097e+01
-1.352192756969e+01
-4.046939759253e+01
-1.395187451042e+01
-4.990106291490e-01
7.920736602538e+00
2.042125350377e+01
1.716561044219e+01
1.683830662577e+01
1.598033615069e+01
1.646881342391e+01
1.745324118617e+01
1.542683828085e+01
1.501647402923e+01
-3.989860235125e+01
-1.324601648261e+01
-1.505443516585e+01
-1.136136406113e+00
-1.263041246419e+00
-1.304823765382e+01
-1.307124361972e+01
-4.012838383721e+01
-1.330565675458e+01
-9.196954243746e-01
-4.122196169011e+01
1.968258843290e+01
1.982716471108e+01
2.043684545136e+01
1.802708063052e+01
-4.009557181917e+01
2.041230691570e+01
2.043649374650e+01
2.043185700589e+01
2.012233237201e+01
2.021405634235e+01
2.042012520677e+01
1.389550368647e+01
2.022580740078e+01
2.008985676975e+01
9.757448343765e+00
1.356023708602e+01
1.938947607083e+01
1.901434900491e+01
1.993003073354e+01
1.911747020650e+01
1.972417295893e+01
2.028229297881e+01
7.985181545762e+00
1.913834604659e+01
1.901812791634e+01
1.973726128638e+01
1.435190964340e+01
1.781376000531e+01
8.955222524672e+00
2.029917607513e+01
1.805079914920e+01
1.811931072398e+01
1.661178518412e+01
1.471224531229e+01
1.282601063585e+01
1.753845599328e+01
1.775222442047e+01
1.953574627237e+01
1.987204046374e+01
-3.588973915916e+01
1.968213535007e+01
1.869358652573e+01
1.925827956308e+01
1.969366270470e+01
7.815346356327e+00
1.982305822574e+01
2.019421602535e+01
1.887846840001e+01
4.361657935353e+00
1.879423138566e+01
2.015775178711e+01
1.974718276064e+01
1.346258747847e+01
1.830193688359e+01
1.791808022380e+01
1.741609562488e+01
2.018213318091e+01
1.846055252468e+01
1.990116797589e+01
1.907552532111e+01
1.417257849471e+01
1.989536396172e+01
1.816142236550e+01
2.004308367729e+01
1.956401179918e+01
1.691747491530e+01
1.989698652653e+01
1.818016707794e+01
1.982836375684e+01
1.776755555447e+01
1.897487826772e+01
1.936403708577e+01
1.873023547517e+01
1.922343600545e+01
1.979367909711e+01
8.779548390723e+00
1.609631056410e+01
1.921692836093e+01
2.000745981532e+01
2.023505730035e+01
1.736553667509e+01
1.975815702299e+01
2.010831930409e+01
1.798711568371e+01
1.004094777330e+01
6.113813155151e+00
1.510006346169e+01
1.821638449804e+01
1.846029507850e+01
2.028142072536e+01
1.985769360012e+01
1.960129701654e+01
-9.923037145257e+00
1.765870306788e+01
1.995496816008e+01
1.849050690015e+01
1.992562595757e+01
1.821507348973e+01
2.029601853946e+01
1.615768559449e+01
2.005962943224e+01
1.963156004005e+01
1.537567470274e+01
1.796856333306e+01
2.028471929954e+01
1.988146850689e+01
1.907601985798e+01
1.824007556345e+01
1.670568592793e+01
1.864218140500e+01
1.915890420135e+01
2.044019964988e+01
2.000493578100e+01
1.929535437190e+01
1.840395831328e+01
1.932446565044e+01
-1.239405451451e+00
1.699818817449e+01
1.859032374071e+01
1.557711264926e+01
1.843481407173e+01
2.024714216805e+01
1.876558423463e+01
1.648930556015e+01
1.892711987269e+01
1.580748391509e+01
1.942585846949e+01
1.907306410026e+01
1.944893495406e+01
-2.529236937677e-01
1.921494452340e+01
2.000757970171e+01
1.599796652141e+01
1.861737403249e+01
1.969153984874e+01
1.462773557729e+01
1.899132979223e+01
1.970576932648e+01
1.934732648516e+01
1.864202432316e+01
1.931614169669e+01
1.506431406199e+01
1.321036817123e+01
1.111534876655e+01
1.682538279531e+01
1.983755606038e+01
5.074268955309e+00
1.965863070681e+01
6.095904507574e+00
1.638725659604e+01
1.973766114398e+01
1.912233445507e+01
1.672857333989e+01
1.249705019673e+01
1.627521679642e+01
1.900668464274e+01
1.662465506746e+01
1.615057263848e+01
2.028716366172e+01
1.650433114662e+01
2.043234050852e+01
2.041973552346e+01
1.835136224997e+01
1.301823157118e+01
-3.893996967050e+01
1.356191021472e+01
1.494741679490e+01
1.963001287596e+01
1.836119194352e+01
1.416854399378e+01
2.029106629531e+01
2.044479533283e+01
1.955441868147e+01
2.002233201563e+01
1.947823732994e+01
2.012060769556e+01
1.792568765036e+01
-1.393734165491e+01
1.937944824991e+01
1.060031088282e+01
1.087501362965e+01
7.350946297128e+00
1.470809290346e+01
-1.636358182626e+00
7.707775008882e+00
2.029069468325e+01
1.836007055262e+01
1.985835825274e+01
1.992820658485e+00
2.029493657181e+01
2.029361602018e+01
2.044852510338e+01
2.007340265629e+01
1.080956565857e+00
1.871117591050e+01
2.030401915844e+01
1.975389959798e+01
2.044597848352e+01
1.830089695246e+01
2.030306677576e+01
6.647744523306e+00
2.030555942609e+01
1.987069510088e+01
1.886246780961e+01
1.869473364346e+01
2.030488921966e+01
2.031221559096e+01
-4.543068478399e+00
1.952886754417e+01
1.648482704935e+01
-1.606407391311e+01
2.030591800154e+01
2.008113154490e+01
2.031142385329e+01
-1.342149630047e+00
-1.537125729767e+01
2.032798583808e+01
2.031540384711e+01
8.596798607787e+00
2.046214860566e+01
-1.693351677795e+01
1.786299358761e+01
-1.487288139340e+01
2.044201548881e+01
2.032174406723e+01
1.714956290585e+01
1.799188269558e+01
1.373438455144e+01
2.017667523418e+01
-3.181250836074e+00
2.033984615772e+01
2.033827463386e+01
2.033340379699e+01
2.047369839336e+01
-1.668185602757e+01
2.034517432041e+01
2.017711130795e+01
1.793869377351e+01
2.030628022466e+01
1.564023773307e+01
4.801690030511e+00
2.044580797290e+01
-4.592698571877e+01
1.791964606231e+01
2.045690221807e+01
3.908630737585e+00
1.865870680118e+01
2.031820579349e+01
1.836327641588e+01
2.000448210815e+01
3.662249444678e+00
-1.870932780437e+01
1.928541857843e+01
2.033277005065e+01
2.034580238279e+01
1.906658193096e+01
1.600425815463e+00
2.022664150905e+01
1.759267474185e+01
2.020475106409e+01
2.019555859952e+01
-3.955559490368e+01
1.872981536155e+01
-1.631223567916e+01
2.034455159577e+01
1.787356282867e+01
2.007907057556e+01
-1.339142234306e+01
-1.855816582258e+01
-1.692700635882e+01
-2.180461103671e+00
-8.882442750852e-01
5.322908084297e+00
5.783753318176e+00
9.508570304543e+00
9.996791503048e+00
1.214420172751e+01
1.238661401441e+01
1.398870786696e+01
1.423280189170e+01
1.531610454995e+01
1.544032414247e+01
1.632039161636e+01
1.646589982278e+01
1.711274416446e+01
1.720185553950e+01

SCALARS node_materi_stress_average_a_sig float
LOOKUP_TABLE default
-5.325479683800e+00
-1.212776169081e+02
-2.371183495681e+02
-2.371576831786e+02
-1.275014214157e+01
-2.446384984327e+01
-3.565013989723e+01
-4.833844226412e+01
-6.053064970383e+01
-7.266452878795e+01
-8.474704149365e+01
-9.680076279451e+01
-1.088804746150e+02
-1.210379013577e+02
-1.334750543698e+02
-1.457039424651e+02
-1.568613128164e+02
-1.690104652943e+02
-1.815282414540e+02
-1.936803502074e+02
-2.059192203914e+02
-2.182583354259e+02
-2.301293612838e+02
-2.378477733415e+02
-2.371502333679e+02
-2.373154520912e+02
-2.372740644514e+02
-2.368714166453e+02
-2.372756762986e+02
-2.374386601078e+02
-2.371502798378e+02
-2.376045243418e+02
-2.375423985467e+02
-2.371342227274e+02
-2.374711241515e+02
-2.377505060112e+02
-2.374512281711e+02
-2.373132730169e+02
-2.368231052272e+02
-2.367139352124e+02
-2.371862482865e+02
-2.373901037524e+02
-2.376072588425e+02
-2.375317509251e+02
-2.374441439387e+02
-2.373971924651e+02
-2.373429353835e+02
-2.374435921644e+02
-2.376238599739e+02
-2.376266879841e+02
-2.377460963801e+02
-2.375593470694e+02
-2.380004447789e+02
-2.378223064495e+02
-2.372238128648e+02
-2.372054233280e+02
-2.373936408034e+02
-2.374856611974e+02
-2.374469543363e+02
-2.376080269090e+02
-2.373465527200e+02
-2.372474073267e+02
-2.369067334314e+02
-2.371092092431e+02
-2.377527810999e+02
-2.379857052657e+02
-2.362805729099e+02
-2.376878106881e+02
-2.370507837156e+02
-2.373597586805e+02
-2.378122493430e+02
-2.377320190116e+02
-1.336661281469e+02
-1.457830525750e+02
-1.578684337644e+02
-1.696920772525e+02
-1.817583514958e+02
-1.939488893071e+02
-2.058946758875e+02
-2.177801629936e+02
-2.299716851449e+02
-4.528131407508e+00
-4.667374382384e+00
-1.213627155788e+02
-1.161175500915e+01
-2.366023219701e+01
-3.582007519053e+01
-4.762249720503e+01
-5.982980360024e+01
-7.214676222560e+01
-8.427417559648e+01
-9.643729439707e+01
-1.086202928552e+02
-1.215420675564e+01
-2.401791747814e+01
-3.610135881288e+01
-4.821711136000e+01
-6.035122859383e+01
-7.248733163362e+01
-8.462703491896e+01
-9.675680105172e+01
-1.088349189774e+02
-1.197622157248e+02
-1.205463988577e+02
-1.205415316734e+02
-1.204033410262e+02
-1.220768893042e+02
-1.206021864057e+02
-1.205220286456e+02
-1.206121181158e+02
-1.208122070913e+02
-1.207271011077e+02
-1.207093883634e+02
-1.206268741004e+02
-1.206791296530e+02
-1.208457779091e+02
-4.566992120884e+00
-4.751906308921e+00
-4.431286296984e+00
-4.366425732313e+00
-4.881617005651e+00
-5.063326468844e+00
-5.027605754075e+00
-4.992008406223e+00
-4.988300739152e+00
-5.018552271543e+00
-5.096448266385e+00
-5.459758408431e+00
-5.265447077392e+00
-4.797550018024e+00
-4.851548196420e+00
-4.978595450131e+00
-4.981297580208e+00
-4.778695188523e+00
-4.496384788589e+00
-2.715536927183e+00
-5.367784758281e+00
-5.900771278300e+00
-5.793512979018e+00
-5.867486731657e+00
-5.843324676023e+00
-5.864720735897e+00
-5.859480613139e+00
-5.867578077418e+00
-5.868661555688e+00
-5.873409014620e+00
-5.877026320834e+00
-5.881448595199e+00
-5.885137820066e+00
-5.888154871301e+00
-5.890058033969e+00
-5.890789514366e+00
-5.890282842298e+00
-5.888617185479e+00
-5.885871533535e+00
-5.882058215022e+00
-5.877037382408e+00
-5.870450033967e+00
-5.861641673090e+00
-5.849626995451e+00
-5.833298343018e+00
-5.814764795081e+00
-5.858945157659e+00
-5.735792554682e+00
-1.214077880056e+01
-1.209268694069e+01
-1.213952344689e+01
-1.215473217536e+01
-1.216256764031e+01
-1.216880430287e+01
-1.217388110510e+01
-1.217799938343e+01
-1.218131524314e+01
-1.218391553950e+01
-1.218581378945e+01
-1.218697944522e+01
-1.218736248048e+01
-1.218694533077e+01
-1.218571464604e+01
-1.218383004223e+01
-1.218126554931e+01
-1.217860933880e+01
-1.217520536543e+01
-1.217341868703e+01
-1.216895295376e+01
-1.217088369859e+01
-1.215902067924e+01
-1.217181043898e+01
-1.213448974505e+01
-1.218160943834e+01
-1.269453768400e+01
-1.065986488414e+01
-2.251961208961e+01
-2.457468829968e+01
-2.398551553941e+01
-2.391824756077e+01
-2.396350065981e+01
-2.395233902509e+01
-2.396341800219e+01
-2.396158914323e+01
-2.396507760728e+01
-2.396623104371e+01
-2.396824332475e+01
-2.396956326834e+01
-2.397070446034e+01
-2.397122363819e+01
-2.397121419796e+01
-2.397068537779e+01
-2.396966108533e+01
-2.396809062180e+01
-2.396599696683e+01
-2.396348084817e+01
-2.396080189249e+01
-2.395858411511e+01
-2.395832265576e+01
-2.396334434683e+01
-2.397998688014e+01
-2.399788448229e+01
-3.457762090472e+01
-3.663262949116e+01
-3.606508581683e+01
-3.599459444079e+01
-3.604002912365e+01
-3.602049409287e+01
-3.603139367164e+01
-3.602717936677e+01
-3.603020431186e+01
-3.602981593152e+01
-3.603134353390e+01
-3.603195028061e+01
-3.603261260331e+01
-3.603286648034e+01
-3.603294247892e+01
-3.603257939055e+01
-3.603173177114e+01
-3.603054449859e+01
-3.602933912047e+01
-3.602871781827e+01
-3.602965092724e+01
-3.603364473802e+01
-3.604229185703e+01
-3.605494196807e+01
-3.608979531632e+01
-4.820984241880e+01
-4.819345038451e+01
-4.818563285059e+01
-4.818088737570e+01
-4.817851187922e+01
-4.817750432969e+01
-4.817699187897e+01
-4.817664362789e+01
-4.817611408998e+01
-4.817518913301e+01
-4.817388464008e+01
-4.817250118437e+01
-4.817201141241e+01
-4.817151309631e+01
-4.817217915271e+01
-4.817077056469e+01
-4.817570352175e+01
-4.817012268106e+01
-4.818771043750e+01
-4.815417467110e+01
-4.823345573044e+01
-4.881909602561e+01
-4.679041942429e+01
-5.894878941458e+01
-6.098242142725e+01
-6.038975953296e+01
-6.030317565742e+01
-6.033882177741e+01
-6.031206576030e+01
-6.032057155072e+01
-6.031431657354e+01
-6.031671579042e+01
-6.031657658680e+01
-6.031938572962e+01
-6.032203616794e+01
-6.032461293202e+01
-6.032658387771e+01
-6.032776882104e+01
-6.032867320007e+01
-6.032948066936e+01
-6.033067024523e+01
-6.033333926326e+01
-6.033823679997e+01
-6.034556209387e+01
-6.035048285114e+01
-7.248475841580e+01
-7.247925747070e+01
-7.247727557783e+01
-7.247640112556e+01
-7.247684298276e+01
-7.247701417019e+01
-7.247574811819e+01
-7.247272428683e+01
-7.247025181829e+01
-7.246603739560e+01
-7.246171673218e+01
-7.245735195161e+01
-7.245090261705e+01
-7.245482602153e+01
-7.245018597138e+01
-7.246922577393e+01
-7.243938533087e+01
-7.252035517650e+01
-7.313037097537e+01
-7.110073046153e+01
-8.321538500873e+01
-8.525858162457e+01
-8.466947343074e+01
-8.457322577980e+01
-8.460652171138e+01
-8.458255320338e+01
-8.460089518496e+01
-8.460863593890e+01
-8.461193517629e+01
-8.461729523401e+01
-8.462455101671e+01
-8.462768380841e+01
-8.463120678089e+01
-8.462883889216e+01
-8.462806883453e+01
-8.462503713683e+01
-8.462702945199e+01
-8.462835068935e+01
-8.462977572430e+01
-9.676473890252e+01
-9.676269970128e+01
-9.676152402446e+01
-9.676725855494e+01
-9.677565959014e+01
-9.677717090157e+01
-9.678592415251e+01
-9.677499529381e+01
-9.676030469514e+01
-9.675741101531e+01
-9.675490387316e+01
-9.674677359438e+01
-9.673202923488e+01
-9.667836328257e+01
-9.676956205855e+01
-9.741862801167e+01
-9.539202852693e+01
-1.075036766152e+02
-1.094410910519e+02
-1.088700391068e+02
-1.088872666628e+02
-1.089079655407e+02
-1.089246545146e+02
-1.088950086794e+02
-1.088988540528e+02
-1.089768034370e+02
-1.089353717812e+02
-1.089317535076e+02
-1.089255581953e+02
-1.089213419145e+02
-1.088875974285e+02
-1.089476580977e+02
-1.089428229810e+02
-6.882101620909e+00
-1.880672674120e+01
-3.100449757324e+01
-4.319141759403e+01
-5.513688151855e+01
-6.739534370245e+01
-7.946101854414e+01
-9.163303403177e+01
-1.037896045394e+02
-1.160478707376e+02
-2.880723197094e+01
-2.322541809735e+02
-1.035694507291e+01
-9.952640317855e+00
-2.322485201831e+02
-5.334792457531e+01
-1.277212590310e+02
-2.318323071283e+02
-7.658501026444e+01
-2.323939142761e+02
-1.014168095215e+02
-2.331211866648e+02
-1.002422875850e+01
-2.324427684317e+02
-1.261462950029e+02
-7.928472357718e+01
-1.610023717038e+02
-2.319705921515e+02
-2.324382215132e+02
-2.322378869812e+02
-2.312656817997e+02
-2.326115899364e+02
-1.317982374427e+02
-1.318627337340e+02
-1.327084655200e+02
-1.758332112333e+02
-2.323170290099e+02
-9.987185715422e+00
-1.052877972340e+01
-1.993625489173e+02
-1.312236759769e+02
-4.192781655787e+01
-2.302774399556e+02
-2.329707858677e+02
-2.324007480589e+02
-2.313492969637e+02
-2.325746741851e+02
-1.058631056831e+01
-1.314452102155e+02
-2.303631035728e+02
-1.995757639907e+02
-1.057617451232e+01
-1.029025312887e+02
-2.339542586806e+02
-6.582462047442e+01
-4.117454578480e+01
-8.900143518070e+01
-1.136484422208e+02
-1.570508916527e+01
-1.528420706925e+02
-2.342728403174e+02
-1.006168519488e+01
-2.232032210277e+02
-1.319389200881e+02
-1.368513998320e+02
-1.426518395851e+02
-1.482938768362e+02
-1.546506725542e+02
-1.597550550159e+02
-1.534413990312e+02
-1.649324413992e+02
-1.585153498629e+02
-1.663110847438e+02
-1.700657497312e+02
-1.635972768747e+02
-1.751757632704e+02
-1.686862509798e+02
-1.571899691448e+02
-1.622466983892e+02
-1.507893079476e+02
-1.558277341372e+02
-1.673153676564e+02
-1.608728095413e+02
-1.493917103591e+02
-1.544156564419e+02
-1.429670250684e+02
-1.479803669883e+02
-1.365161314134e+02
-1.415382073230e+02
-1.530174393878e+02
-1.465580356456e+02
-1.350948065041e+02
-1.401016831794e+02
-1.286491399764e+02
-1.336234283639e+02
-1.451137459806e+02
-1.386275249542e+02
-1.270834327207e+02
-1.321184359442e+02
-1.205167027717e+02
-1.256116328094e+02
-1.139442404392e+02
-1.190406702928e+02
-1.306881414719e+02
-1.241321072888e+02
-1.124353999368e+02
-1.175182798375e+02
-1.292443123679e+02
-1.226115720052e+02
-1.343626328017e+02
-1.277196298445e+02
-1.160166937797e+02
-1.210991157990e+02
-1.328241040700e+02
-1.261590765572e+02
-1.144833615569e+02
-1.195403980750e+02
-1.312534124918e+02
-1.246114279950e+02
-1.129334563685e+02
-1.179928501148e+02
-1.297642333591e+02
-1.230731663772e+02
-1.113441110315e+02
-1.163848677103e+02
-1.282253476258e+02
-1.214645090746e+02
-1.333951379684e+02
-1.095880313973e+02
-1.146631435846e+02
-1.027253529317e+02
-1.078504429404e+02
-1.501475965820e+02
-9.587864151511e+01
-9.089972723716e+01
-1.010411358245e+02
-1.130740686180e+02
-8.902261270842e+01
-9.422621863499e+01
-8.217791067101e+01
-1.086508456835e+02
-1.724023947737e+02
-8.741269364158e+01
-7.533580016207e+01
-7.011313078677e+01
-6.327790236673e+01
-1.611600149169e+02
-1.728398491466e+02
-1.672838892273e+02
-1.793392748926e+02
-1.739867879787e+02
-6.849360774301e+01
-1.817992567654e+02
-1.846569884872e+02
-1.379846848065e+02
-1.236639963885e+02
-1.410107790754e+02
-9.946004086687e+01
-9.268066803690e+01
-1.047125807423e+02
-1.401623854765e+02
-1.453666641934e+02
-1.521433935327e+02
-1.573593626282e+02
-1.641468771915e+02
-1.693703226464e+02
-1.625740732827e+02
-1.745915293057e+02
-1.677898787286e+02
-1.761648067738e+02
-1.709103934821e+02
-1.798099165796e+02
-1.730080908050e+02
-1.850384754692e+02
-1.782318330564e+02
-1.661811718777e+02
-1.713948000367e+02
-1.593851065513e+02
-1.461503165663e+02
-1.528209006818e+02
-1.579699938612e+02
-1.646570102174e+02
-1.698221015498e+02
-1.765111851509e+02
-1.816711770697e+02
-1.749891611743e+02
-1.802289225087e+02
-1.058196757898e+02
-1.007434050226e+02
-9.413958600223e+01
-8.907562594264e+01
-8.247115369594e+01
-7.743271654075e+01
-7.077822535135e+01
-7.584080880286e+01
-6.409017821238e+01
-6.919189200500e+01
-5.738138945434e+01
-6.248425845381e+01
-1.580569048661e+02
-1.713294612736e+02
-1.832078058570e+02
-1.779356453378e+02
-5.804672546067e+01
-1.834698497707e+02
-1.829503992090e+02
-1.776270125012e+02
-1.868800682548e+02
-5.653922605849e+01
-6.582268113282e+01
-7.239693190790e+01
-1.858754192129e+02
-1.805103953310e+02
-1.897345825415e+02
-6.174724208664e+01
-1.866132892111e+02
-5.235830028462e+01
-1.766280173720e+02
-1.887004585446e+02
-1.557945351532e+02
-1.898920669183e+02
-1.844961571168e+02
-7.434679019711e+01
-6.762496512207e+01
-5.598469034919e+01
-6.132589972849e+01
-7.286496688309e+01
-6.610797482891e+01
-5.441776024951e+01
-5.931763017943e+01
-7.117073363075e+01
-6.435632236320e+01
-5.243710291010e+01
-5.745915841288e+01
-1.955084828159e+02
-4.563482317962e+01
-1.457562361229e+02
-1.949806180504e+02
-1.934198549248e+02
-1.924563166478e+02
-1.870823162608e+02
-1.750755653592e+02
-1.816913820202e+02
-1.937083296221e+02
-1.883109195571e+02
-1.762697115932e+02
-1.828859200727e+02
-1.708289601532e+02
-1.774480013547e+02
-1.895180837284e+02
-1.840929573840e+02
-1.720069587214e+02
-1.786472930424e+02
-1.665338450553e+02
-1.731509416024e+02
-1.853100626639e+02
-5.015475872751e+01
-1.801690963187e+02
-1.921752174272e+02
-9.825057463325e+01
-1.098493778666e+02
-1.167242271860e+02
-1.220948309987e+02
-1.797422784837e+02
-1.919441634910e+02
-6.091518162942e+01
-6.740213038007e+01
-1.978017239695e+02
-1.819015048762e+02
-1.698323596894e+02
-1.172235609832e+02
-1.122322565321e+02
-1.057567425776e+02
-1.005910861405e+02
-1.072258339748e+02
-9.397556868310e+01
-1.655339661082e+02
-1.961777612754e+02
-6.493914974609e+01
-5.291787322478e+01
-1.939653535979e+02
-1.682505736063e+02
-1.645442551205e+02
-1.696185289672e+02
-1.761549734096e+02
-1.812581256650e+02
-1.878350082935e+02
-1.929121340183e+02
-1.863892617835e+02
-1.965429386982e+02
-1.980664550040e+02
-1.674866885461e+02
-1.660024031212e+02
-7.629965650405e+01
-4.473081941027e+01
-4.515701008033e+01
-5.485304075654e+01
-6.694491863415e+01
-2.018002363758e+02
-1.995226981078e+02
-1.943230345483e+02
-9.571335446131e+01
-1.023420627481e+02
-2.018286290847e+02
-1.621150314274e+02
-1.642610251118e+02
-1.587453431601e+02
-4.191150546016e+01
-4.066981681712e+01
-2.003557075160e+02
-7.885899873293e+01
-7.386109724251e+01
-4.052193461037e+01
-3.380347638677e+01
-1.862604947593e+02
-1.983850327829e+02
-1.288188644120e+02
-1.341030811536e+02
-1.965594725751e+02
-5.055278300644e+01
-2.041163658019e+02
-1.734532237770e+02
-1.615089369131e+02
-1.151910467233e+02
-5.607682007118e+01
-4.954877408232e+01
-8.305077827261e+01
-6.261007675993e+01
-6.006293324171e+01
-2.086041274245e+02
-2.056834656601e+02
-1.915727727989e+02
-1.798002584073e+02
-2.033868449660e+02
-3.861082784566e+01
-2.071659589086e+02
-1.872025207679e+02
-2.055615910049e+02
-2.008058197309e+02
-8.526748299014e+01
-8.044563806950e+01
-6.904902737388e+01
-7.565658073341e+01
-1.470488300462e+02
-9.189857891027e+01
-1.393828323084e+02
-1.343867919959e+02
-1.280915260221e+02
-1.136746325364e+02
-1.088281839099e+02
-9.560104534338e+01
-1.476292042069e+02
-1.235559238449e+02
-1.542005263405e+02
-1.469009387766e+02
-2.015211160969e+02
-2.082489327134e+02
-1.599067781552e+02
-1.544196352044e+02
-4.599555307077e+01
-4.086451630392e+01
-1.385952426486e+02
-2.001552320360e+02
-2.042822953643e+02
-2.096231235761e+02
-2.030685616088e+02
-2.032369008933e+02
-9.922562579364e+01
-1.512755481735e+02
-3.894599456471e+01
-1.566159564071e+02
-3.409186845583e+01
-1.788193735278e+02
-1.993248132339e+02
-2.059847674000e+02
-2.083240969587e+02
-1.308864212658e+02
-1.616935245901e+02
-1.552379962348e+02
-1.231705873473e+02
-1.169506227933e+02
-1.217768259160e+02
-1.106389969529e+02
-8.809445589397e+01
-8.130842981252e+01
-2.120776133622e+02
-2.096210708827e+02
-2.122026638938e+02
-2.076987343752e+02
-2.136630114181e+02
-2.069690989310e+02
-7.177687258508e+01
-9.762227542126e+01
-2.123831895611e+02
-1.293802648874e+02
-2.120176028001e+02
-2.054162975684e+02
-2.714689352236e+01
-3.186125763859e+01
-2.106780466452e+02
-6.419289378885e+01
-7.047834008870e+01
-5.773012329059e+01
-2.239508399276e+02
-1.309492005785e+02
-2.114633446988e+02
-1.201806644519e+02
-2.164896388757e+02
-1.669273520390e+02
-1.105345025374e+02
-1.911872593288e+02
-2.042356934132e+02
-2.174497654132e+02
-1.522331927154e+02
-1.463043419378e+02
-1.573692921718e+02
-4.736568850235e+01
-3.450452357557e+01
-2.027853380346e+02
-8.591028665026e+01
-9.235371504483e+01
-5.540508684920e+01
-6.736827560114e+01
-1.355653589350e+02
-1.303397317703e+02
-1.840008772141e+02
-1.904543952996e+02
-1.710305325117e+02
-1.667420864054e+02
-1.547994981494e+02
-1.496725081847e+02
-2.132561464771e+02
-2.213164603576e+02
-9.476831164394e+01
-8.972474040625e+01
-9.297430724366e+01
-2.176822454072e+02
-2.179186931407e+02
-2.125385014961e+02
-2.908590089596e+01
-3.561851831035e+01
-4.481926188589e+01
-3.846594946931e+01
-2.146261123279e+02
-2.084281969816e+02
-2.222250126316e+02
-6.415115398067e+01
-1.851692399263e+02
-2.147900324540e+02
-2.095329667027e+02
-2.217082577476e+02
-2.028703572529e+02
-2.142749569028e+02
-2.149757824179e+02
-2.212124353888e+01
-2.132877043820e+02
-1.472213245026e+02
-1.731278508703e+01
-1.418251897989e+02
-1.487762327055e+02
-1.355978346329e+02
-5.234554442718e+01
-1.435234558654e+02
-1.507525363359e+02
-2.198743448734e+01
-2.241411067805e+02
-2.284035707571e+01
-2.767853203655e+01
-2.174766034996e+02
-2.105858648817e+02
-2.221994943256e+02
-2.152841491670e+02
-2.037261893569e+02
-2.091453719264e+02
-1.403203831300e+02
-2.224258854567e+02
-2.147126493277e+02
-2.280021732093e+02
-1.060502531473e+02
-8.200903906563e+01
-7.707805002723e+01
-6.536153881471e+01
-2.208046962449e+02
-2.135446943212e+02
-1.929154346048e+02
-1.807076428702e+02
-1.424367220564e+02
-1.418159143875e+02
-1.528040134314e+02
-1.513352022093e+02
-1.623674869429e+02
-1.607330188041e+02
-1.719926639391e+02
-2.216613888548e+02
-5.271342783429e+01
-1.183334464357e+02
-2.186416748611e+02
-2.111791116243e+02
-1.040543601585e+02
-9.315903643897e+01
-2.206075246206e+02
-9.679513207580e+01
-2.309314290276e+02
-9.965326931166e+00
-2.095702216573e+01
-1.034908662544e+02
-1.153585235196e+02
-8.870537217152e+01
-8.447345235315e+01
-1.788860475037e+02
-3.101702213033e+01
-5.132917511957e+01
-1.733763744830e+02
-4.010374590067e+01
-1.871043405369e+02
-1.021145936090e+02
-1.250743517496e+02
-6.256175280344e+01
-8.730575362422e+01
-1.521128185995e+02
-1.420068450167e+02
-1.357385566731e+02
-1.073298166320e+02
-9.108445414424e+01
-7.878454987055e+01
-1.443770349785e+02
-1.965257821966e+02
-2.017649088607e+02
-2.132433032086e+02
-2.069643439477e+02
-1.952350651997e+02
-2.004493570019e+02
-2.121681286237e+02
-2.060116641058e+02
-2.197143288914e+02
-2.110799488630e+02
-1.989596089105e+02
-2.037911422182e+02
-2.149470477685e+02
-1.919949301723e+02
-2.250830817344e+02
-1.153528548183e+02
-2.858216348062e+01
-2.702919821175e+01
-1.315595988217e+02
-2.316357156027e+02
-2.320598055859e+02
-8.396063536843e+01
-2.322741038284e+02
-1.407108350493e+02
-5.911342470969e+01
-2.324076112062e+02
-1.899588395681e+02
-1.832901985115e+02
-1.780669860849e+02
-2.327871914788e+02
-1.629262900753e+02
-2.328164952598e+02
-1.594628901968e+02
-1.541404153736e+02
-1.423689821241e+02
-1.937372646348e+02
-2.321237529082e+02
-2.223292883847e+02
-2.223361197427e+02
-2.115386632856e+02
-2.322962343723e+02
-2.328107141154e+02
-2.331038246941e+02
-7.794139107876e+01
-8.467452351052e+01
-9.636437000741e+01
-9.130148543287e+01
-7.951831638644e+01
-8.615681931078e+01
-9.783899808592e+01
-8.096691308388e+01
-2.021971163639e+02
-2.326914261991e+02
-1.588872031300e+02
-1.535236511641e+02
-1.416158990901e+02
-1.183272840258e+02
-1.251054863702e+02
-1.370991868862e+02
-1.115223427329e+02
-1.746906524845e+02
-2.325768464667e+02
-1.563891166257e+02
-1.198561668977e+02
-1.316452644286e+02
-1.421934081482e+02
-1.423408325202e+02
-1.537875982917e+02
-1.433102030154e+02
-1.407949066643e+02
-1.460256019056e+02
-1.394029952471e+02
-1.512620144338e+02
-1.443970440074e+02
-1.334059108906e+02
-1.562937205384e+02
-1.486036595206e+02
-1.315554766034e+02
-1.059577018940e+01
-2.075824400583e+01
-2.049096007314e+01
-3.031503132095e+01
-3.104300420179e+01
-4.174190286823e+01
-4.024895846296e+01
-2.076824020212e+01
-1.047865164399e+01
-2.045004738695e+01
-1.038498167756e+01
-2.015071154535e+01
-3.172779068164e+01
-4.802901860820e+01
-2.307105385412e+02
-1.148598119851e+02
-1.090047635285e+02
-9.745674029837e+01
-1.036881598555e+02
-1.196263869591e+02
-9.103795500555e+01
-8.672258284966e+01
-1.049941301853e+01
-2.047110009522e+01
-1.948694694366e+01
-3.064680139716e+01
-3.050314058916e+01
-2.069916495560e+01
-2.069720541208e+01
-1.045594274118e+01
-2.062060871342e+01
-3.100945310350e+01
-1.014912840895e+01
-1.879712432406e+02
-1.945307883029e+02
-2.318988103999e+02
-1.329002978576e+02
-1.053565438751e+01
-2.303194053429e+02
-2.323085983574e+02
-2.325618049880e+02
-2.117684231990e+02
-2.178503932890e+02
-2.306506199241e+02
-7.696208679919e+01
-2.184231532420e+02
-2.094243526480e+02
-5.434415081628e+01
-7.444707415140e+01
-1.751543184126e+02
-1.609979102273e+02
-2.006701232111e+02
-1.646002122376e+02
-1.902786368412e+02
-2.215436714726e+02
-4.837981283253e+01
-1.653355550155e+02
-1.610268586905e+02
-1.907513409692e+02
-8.055483035187e+01
-1.278660773908e+02
-5.125559336789e+01
-2.228460057387e+02
-1.330295266852e+02
-1.349530080570e+02
-1.062763528271e+02
-8.391801719367e+01
-6.948044205994e+01
-1.221124521582e+02
-1.266257364704e+02
-1.813892970292e+02
-1.974040104241e+02
-1.169990778577e+01
-1.881828072101e+02
-1.505762039399e+02
-1.696498316421e+02
-1.883519284246e+02
-4.785770910277e+01
-1.949351434340e+02
-2.156147238642e+02
-1.563289550875e+02
-3.928323075235e+01
-1.530140071025e+02
-2.137759772461e+02
-1.912124006936e+02
-7.375425669160e+01
-1.394819068205e+02
-1.300823917018e+02
-1.198953418807e+02
-2.144853633183e+02
-1.436552072963e+02
-1.988149460831e+02
-1.631121817986e+02
-7.910379555395e+01
-1.986349736450e+02
-1.358538232774e+02
-2.069682409123e+02
-1.826778278154e+02
-1.109096870740e+02
-1.990092244895e+02
-1.363761991045e+02
-1.950926012184e+02
-1.266556799916e+02
-1.594679812454e+02
-1.737262864198e+02
-1.515837364929e+02
-1.684923620047e+02
-1.934119376501e+02
-5.067471208890e+01
-9.897313683185e+01
-1.685155026533e+02
-2.042714953786e+02
-2.188837730097e+02
-1.186603611068e+02
-1.918158338768e+02
-2.106701761732e+02
-1.318508810713e+02
-5.540862310771e+01
-4.320676768376e+01
-8.754407048881e+01
-1.371824706987e+02
-1.438252368453e+02
-2.212529188336e+02
-1.970383834309e+02
-1.843875291285e+02
-2.244071097925e+01
-1.245954944752e+02
-2.023106331268e+02
-1.445881726175e+02
-2.000200568434e+02
-1.372527996255e+02
-2.225562184061e+02
-9.966308265688e+01
-2.077459080300e+02
-1.856223180986e+02
-9.039427928942e+01
-1.313349603596e+02
-2.214753794904e+02
-1.977798130271e+02
-1.631029448763e+02
-1.379054334797e+02
-1.075288153867e+02
-1.490426306841e+02
-1.659204312999e+02
-2.329507521493e+02
-2.038804423563e+02
-1.714144260388e+02
-1.422898176907e+02
-1.724001761355e+02
-3.063812648896e+01
-1.122449484413e+02
-1.474801228368e+02
-9.268440595227e+01
-1.430002487690e+02
-2.197997687467e+02
-1.526966201227e+02
-1.043550124428e+02
-1.579118513089e+02
-9.525731707546e+01
-1.766444409164e+02
-1.631270514653e+02
-1.775094063844e+02
-3.199811151938e+01
-1.681520443856e+02
-2.052685960863e+02
-9.778757111452e+01
-1.481768668514e+02
-1.885422123558e+02
-8.280478755917e+01
-1.600973630625e+02
-1.891849007392e+02
-1.733392075010e+02
-1.488202101653e+02
-1.721888991720e+02
-8.692754676904e+01
-7.196583128236e+01
-6.007199800763e+01
-1.094477289702e+02
-1.957441693768e+02
-4.068504885969e+01
-1.869548355755e+02
-4.322311607338e+01
-1.029102103923e+02
-1.910081417623e+02
-1.645416579129e+02
-1.079342110098e+02
-6.740215853617e+01
-1.013540106936e+02
-1.605289014232e+02
-1.063626908297e+02
-9.972734065416e+01
-2.212983028619e+02
-1.046453763250e+02
-2.328010807994e+02
-2.314830804317e+02
-1.405473871268e+02
-6.987831450200e+01
-1.076456103257e+01
-7.433178577575e+01
-8.611566916903e+01
-1.852784397873e+02
-1.410423208255e+02
-7.914879924312e+01
-2.226515957005e+02
-2.327844132989e+02
-1.820876092263e+02
-2.046743179432e+02
-1.789160543702e+02
-2.106440485328e+02
-1.304960549480e+02
-2.010439323044e+01
-1.746930699854e+02
-5.732539649307e+01
-5.894435783541e+01
-4.634229675886e+01
-8.325803700892e+01
-3.008031350620e+01
-4.742195934750e+01
-2.215696663270e+02
-1.413851063376e+02
-1.970610941031e+02
-3.504601558766e+01
-2.221091258327e+02
-2.220076843240e+02
-2.328041871584e+02
-2.090397211091e+02
-3.362042915894e+01
-1.514988065389e+02
-2.226772118976e+02
-1.916592894802e+02
-2.335410100377e+02
-1.399558556197e+02
-2.229374079039e+02
-4.443836374477e+01
-2.231007851248e+02
-1.970390031881e+02
-1.558517736393e+02
-1.508512137400e+02
-2.235511370716e+02
-2.224501923674e+02
-2.705240986330e+01
-1.814687474058e+02
-1.038340076427e+02
-1.919658081948e+01
-2.224037911386e+02
-2.082196136467e+02
-2.227589550830e+02
-3.027673188829e+01
-1.895756852214e+01
-2.242419586647e+02
-2.238828226066e+02
-5.022895337103e+01
-2.344805318557e+02
-1.814976612134e+01
-1.292488606963e+02
-1.972212976494e+01
-2.332623084410e+02
-2.234007284310e+02
-1.143490568504e+02
-1.321999710512e+02
-7.553606631422e+01
-2.140740220786e+02
-2.822017302957e+01
-2.245627041742e+02
-2.247699993678e+02
-2.246197977835e+02
-2.350165202799e+02
-1.839127395821e+01
-2.250566273484e+02
-2.138548346214e+02
-1.303501241960e+02
-2.229975866303e+02
-9.294330787665e+01
-4.018911082743e+01
-2.341021969010e+02
-8.747700843014e+00
-1.296316425951e+02
-2.341035293536e+02
-3.843473966591e+01
-1.494502311814e+02
-2.244773158933e+02
-1.402863771154e+02
-2.037632935751e+02
-3.795142582367e+01
-9.090691755404e+00
-1.709140179143e+02
-2.241293364133e+02
-2.252801245297e+02
-1.624928598789e+02
-3.427730369011e+01
-2.173475786848e+02
-1.235604786286e+02
-2.151912213554e+02
-2.141238136231e+02
-1.010632449686e+01
-1.507967891404e+02
-1.845332191219e+01
-2.250545592173e+02
-1.286965759447e+02
-5.068732457495e+00
-6.507397431253e+00
-1.699557223845e+01
-1.762857738315e+01
-2.912367373717e+01
-3.040630705856e+01
-4.119303962535e+01
-4.180559079298e+01
-5.340725229177e+01
-5.462777245069e+01
-6.564063721018e+01
-6.607255756771e+01
-7.768000759252e+01
-7.890177947922e+01
-8.985285230585e+01
-9.035152232149e+01
-1.019850525517e+02
-1.031849970774e+02
-1.141670651628e+02
-1.145384217151e+02

SCALARS node_materi_stress_size_dev_sd_sig float
LOOKUP_TABLE default
3.872825308959e+00
9.239398054292e+01
1.794099112524e+02
1.794576519912e+02
9.737118182489e+00
1.915793759051e+01
2.763753503373e+01
3.722730943797e+01
4.648426275945e+01
5.549744780836e+01
6.456558221490e+01
7.367176846791e+01
8.276875704421e+01
9.202970723284e+01
1.015841592969e+02
1.106401394359e+02
1.188766379663e+02
1.281066356765e+02
1.375381503736e+02
1.466885687281e+02
1.559447127561e+02
1.652903221908e+02
1.741583769234e+02
1.799302196090e+02
1.795163557049e+02
1.796282865447e+02
1.796315960825e+02
1.793310663284e+02
1.795888320318e+02
1.796143161779e+02
1.795287643336e+02
1.798186421145e+02
1.798072750469e+02
1.795068452987e+02
1.797552711845e+02
1.798574095795e+02
1.797511576992e+02
1.795659231606e+02
1.793038417837e+02
1.792315248974e+02
1.794567176464e+02
1.796703744442e+02
1.798380945410e+02
1.797920101130e+02
1.796841599509e+02
1.796806457457e+02
1.796433006216e+02
1.797267005951e+02
1.797974352976e+02
1.798952917137e+02
1.798789773038e+02
1.798324895943e+02
1.801185919124e+02
1.800356531569e+02
1.795534007022e+02
1.795203440668e+02
1.796701828229e+02
1.797085277138e+02
1.797657901012e+02
1.797774783177e+02
1.796803106679e+02
1.795074949549e+02
1.793676052348e+02
1.795273205410e+02
1.799081895191e+02
1.800152572747e+02
1.788944489970e+02
1.798061994937e+02
1.794768554395e+02
1.796846894873e+02
1.799845531984e+02
1.799564238713e+02
1.014950819588e+02
1.107604356416e+02
1.198247111140e+02
1.287222717870e+02
1.378172161040e+02
1.468531917769e+02
1.558886762828e+02
1.648361053795e+02
1.739971636835e+02
3.252803809425e+00
3.342530354168e+00
9.226693458021e+01
8.798329930736e+00
1.839927690493e+01
2.760125910189e+01
3.657025771892e+01
4.574355915918e+01
5.492373817484e+01
6.412230139299e+01
7.330741688599e+01
8.249461802503e+01
9.342956641543e+00
1.872833251638e+01
2.795395057449e+01
3.713446922512e+01
4.627629747586e+01
5.543062530968e+01
6.457405072056e+01
7.370988126850e+01
8.276718768251e+01
9.105704157078e+01
9.156870857723e+01
9.162895307394e+01
9.150662674569e+01
9.269174234920e+01
9.163347672175e+01
9.148698798574e+01
9.158780743421e+01
9.183688373165e+01
9.179957391805e+01
9.170989975222e+01
9.168173417596e+01
9.166953058133e+01
9.181725973082e+01
3.625654059240e+00
3.716473150411e+00
3.420120482859e+00
3.409758860912e+00
3.892041111863e+00
4.067484218608e+00
4.025494959112e+00
3.947669255874e+00
3.932361590242e+00
3.905115340991e+00
3.964545836983e+00
4.189919050734e+00
4.066984795866e+00
3.734496125126e+00
3.859525095606e+00
4.025322514592e+00
4.058210492405e+00
3.827161604595e+00
3.447101098606e+00
1.776126598207e+00
4.224600753921e+00
4.584593340234e+00
4.570376786182e+00
4.599222514581e+00
4.569217856842e+00
4.578487971193e+00
4.571730686639e+00
4.576565341903e+00
4.570998910896e+00
4.566439221709e+00
4.559320887403e+00
4.553306465150e+00
4.547644841575e+00
4.543377402715e+00
4.540579573705e+00
4.539514659988e+00
4.540128071545e+00
4.542307680619e+00
4.545797103876e+00
4.550358314956e+00
4.555923065484e+00
4.562698803227e+00
4.571196567158e+00
4.582226417051e+00
4.596819715871e+00
4.616136883987e+00
4.645446699702e+00
4.453775126710e+00
9.270686164908e+00
9.203820381891e+00
9.245049725097e+00
9.242223658226e+00
9.233438355876e+00
9.227049666620e+00
9.222196973245e+00
9.218180344559e+00
9.214650740049e+00
9.211499831431e+00
9.208807140146e+00
9.206819884825e+00
9.205841629259e+00
9.206111114249e+00
9.207645847294e+00
9.210512458656e+00
9.214269223745e+00
9.219218205093e+00
9.223575062716e+00
9.230386655776e+00
9.231469558195e+00
9.240352578434e+00
9.224000596178e+00
9.251773678937e+00
9.206300349584e+00
9.293015807447e+00
9.714133668739e+00
7.805903994240e+00
1.729711775217e+01
1.912789995138e+01
1.869768970716e+01
1.870512928533e+01
1.872887963045e+01
1.872075137968e+01
1.871931244826e+01
1.871143422668e+01
1.870729595670e+01
1.870192572916e+01
1.869762954588e+01
1.869393023233e+01
1.869155390463e+01
1.869045847801e+01
1.869080846669e+01
1.869229898386e+01
1.869439228509e+01
1.869655596555e+01
1.869844113593e+01
1.869980692478e+01
1.870049962892e+01
1.870052883922e+01
1.870017098933e+01
1.869945868459e+01
1.868748585110e+01
1.868937816655e+01
2.642905155359e+01
2.831424216361e+01
2.798486036017e+01
2.797055814999e+01
2.798732641631e+01
2.796948873801e+01
2.796929418089e+01
2.796230720524e+01
2.795771973278e+01
2.795262242175e+01
2.794904573536e+01
2.794688515190e+01
2.794682308562e+01
2.794840754929e+01
2.795060537823e+01
2.795250191127e+01
2.795360460031e+01
2.795349423345e+01
2.795181629999e+01
2.794841149970e+01
2.794368134728e+01
2.793847902607e+01
2.793313941865e+01
2.793125064353e+01
2.793878831262e+01
3.710247805872e+01
3.708157999866e+01
3.708090708277e+01
3.708432645565e+01
3.708993371910e+01
3.709568022512e+01
3.709991538255e+01
3.710205074101e+01
3.710253407453e+01
3.710174623999e+01
3.710000098774e+01
3.709733797497e+01
3.709565369064e+01
3.709662614826e+01
3.710133556797e+01
3.710532528059e+01
3.711230091204e+01
3.711229148363e+01
3.712199233444e+01
3.710333239374e+01
3.711639749615e+01
3.750232482714e+01
3.562090484024e+01
4.475345935805e+01
4.661237109354e+01
4.626364432538e+01
4.625483725555e+01
4.627522561886e+01
4.626380144631e+01
4.626083374381e+01
4.625030416725e+01
4.624687093719e+01
4.624937593228e+01
4.625414160919e+01
4.625582947061e+01
4.625620342942e+01
4.625616106592e+01
4.625494296434e+01
4.625122483646e+01
4.624503625641e+01
4.623909388307e+01
4.623582809395e+01
4.623817163619e+01
4.624958228481e+01
4.626734672826e+01
5.541350035966e+01
5.539366979911e+01
5.538546673930e+01
5.538610526817e+01
5.539080883662e+01
5.539809091800e+01
5.540450571188e+01
5.540543308843e+01
5.540420128032e+01
5.540592890735e+01
5.540787082978e+01
5.540488653761e+01
5.539353687130e+01
5.539365837702e+01
5.540372951013e+01
5.543027374685e+01
5.541673516691e+01
5.540858438879e+01
5.580330328329e+01
5.391336096014e+01
6.304809102665e+01
6.496115873330e+01
6.460614189759e+01
6.457014268379e+01
6.455167967646e+01
6.453868029519e+01
6.456280013469e+01
6.456896067157e+01
6.456606620511e+01
6.455537195120e+01
6.455590569282e+01
6.456375675670e+01
6.455565400669e+01
6.454562325637e+01
6.453974189121e+01
6.453755013370e+01
6.454107175996e+01
6.456079384842e+01
6.457291436271e+01
7.374181765164e+01
7.368998646322e+01
7.367627528730e+01
7.368674769542e+01
7.368027499196e+01
7.369359290542e+01
7.370831364944e+01
7.371079358669e+01
7.368677095214e+01
7.371187552801e+01
7.372775887854e+01
7.371873517831e+01
7.372070785730e+01
7.366830591488e+01
7.371155192735e+01
7.416420617860e+01
7.227229202425e+01
8.142025313078e+01
8.329006516084e+01
8.289564813794e+01
8.285193096120e+01
8.287512692990e+01
8.288965220330e+01
8.284918456087e+01
8.284536732733e+01
8.284943169672e+01
8.284194776797e+01
8.282799010650e+01
8.281975120275e+01
8.284636443220e+01
8.280742252259e+01
8.288731305161e+01
8.297955096674e+01
5.033229752748e+00
1.453031491755e+01
2.378787279741e+01
3.301381950884e+01
4.200203932115e+01
5.113718868442e+01
6.033897904357e+01
6.950434524687e+01
7.867318838373e+01
8.790420826469e+01
2.246441232516e+01
1.757510407050e+02
7.839998463809e+00
7.586279659090e+00
1.757942105444e+02
4.108010471724e+01
9.713174337521e+01
1.754789155239e+02
5.853429068123e+01
1.758844022489e+02
7.726252950271e+01
1.763263761725e+02
7.498672056255e+00
1.759454692021e+02
9.588803202882e+01
6.044485695650e+01
1.221161385092e+02
1.755301920489e+02
1.759427810628e+02
1.758436614750e+02
1.750525415606e+02
1.761210711616e+02
1.000717292904e+02
1.001319175793e+02
1.007427589280e+02
1.333046531035e+02
1.758257426113e+02
7.523536316436e+00
8.087421634533e+00
1.509901543442e+02
9.973765850332e+01
3.245100405205e+01
1.743622639958e+02
1.763358184985e+02
1.759296775903e+02
1.751335060815e+02
1.760757475332e+02
8.078963177138e+00
9.979733120941e+01
1.744102632655e+02
1.512251774337e+02
7.926317666921e+00
7.828669108708e+01
1.771601930138e+02
5.050386751660e+01
3.184889866666e+01
6.792336014774e+01
8.645018378573e+01
1.233263086944e+01
1.159621438142e+02
1.773621994187e+02
7.665106217486e+00
1.688827516739e+02
1.001535589157e+02
1.038945459015e+02
1.082161344949e+02
1.125803774619e+02
1.173312841583e+02
1.212186100370e+02
1.164445984759e+02
1.250933985589e+02
1.202677588799e+02
1.260607577001e+02
1.289572162605e+02
1.240889924997e+02
1.328003602547e+02
1.279207875897e+02
1.192646830935e+02
1.230750130254e+02
1.144328398875e+02
1.182328323750e+02
1.268922647930e+02
1.220314607740e+02
1.133794467938e+02
1.171595907482e+02
1.085309525546e+02
1.123017447154e+02
1.036656364613e+02
1.074420056802e+02
1.160885335402e+02
1.112209700903e+02
1.025820924530e+02
1.063550949204e+02
9.772317935618e+01
1.014694475113e+02
1.101305205900e+02
1.052420389366e+02
9.653987852207e+01
1.003415613069e+02
9.159888009434e+01
9.544114546375e+01
8.664595889561e+01
9.048773324466e+01
9.926794599018e+01
9.432595543790e+01
8.550824674650e+01
8.933595090305e+01
9.817335482383e+01
9.317098133529e+01
1.020269524682e+02
9.701923990139e+01
8.819803499025e+01
9.202810355971e+01
1.008648039814e+02
9.584240117831e+01
8.704302066125e+01
9.085221635036e+01
9.968275637023e+01
9.467256163917e+01
8.587061969136e+01
8.968208909075e+01
9.855430823251e+01
9.350885717032e+01
8.466661175325e+01
8.846266395343e+01
9.738882202063e+01
9.228719081698e+01
1.012821276267e+02
8.333490106670e+01
8.715593526848e+01
7.815767996763e+01
8.201420163582e+01
1.139275937270e+02
7.298753264747e+01
6.924659059194e+01
7.687517260668e+01
8.595278392046e+01
6.781727631279e+01
7.173303995888e+01
6.266639039256e+01
8.265781038371e+01
1.307191360502e+02
6.660126610242e+01
5.752690505843e+01
5.359307884403e+01
4.843955925792e+01
1.221259767370e+02
1.309985834280e+02
1.267922965087e+02
1.359229510707e+02
1.318701735341e+02
5.236180483431e+01
1.377688685882e+02
1.399239711288e+02
1.047819408868e+02
9.396581962724e+01
1.070395556798e+02
7.567025100366e+01
7.056071098708e+01
7.966170829585e+01
1.063865601034e+02
1.103086187004e+02
1.154171461227e+02
1.193499789055e+02
1.244645397833e+02
1.284043794900e+02
1.232815494919e+02
1.323438051107e+02
1.272134213096e+02
1.335216458363e+02
1.295630006996e+02
1.362766818759e+02
1.311444550686e+02
1.402081605756e+02
1.350737992761e+02
1.259976171639e+02
1.299207946429e+02
1.208812028877e+02
1.109106566134e+02
1.159411057049e+02
1.198182101916e+02
1.248643956982e+02
1.287503641294e+02
1.338061424463e+02
1.376865310002e+02
1.326378877500e+02
1.366172220300e+02
8.051789157957e+01
7.669385390016e+01
7.171568075503e+01
6.789971992262e+01
6.292392079949e+01
5.912584660708e+01
5.411913699646e+01
5.792285960809e+01
4.907821289222e+01
5.289359986851e+01
4.401576515300e+01
4.781987331734e+01
1.198821846100e+02
1.299016141542e+02
1.388605606245e+02
1.348767811664e+02
4.452665009333e+01
1.390050062640e+02
1.386340160165e+02
1.346286192181e+02
1.416041660979e+02
4.335736369867e+01
5.037390063500e+01
5.532113350930e+01
1.408504838595e+02
1.367868887928e+02
1.437448838415e+02
4.726150218436e+01
1.414146586585e+02
4.023832181311e+01
1.338460644873e+02
1.429353226657e+02
1.181687733915e+02
1.438870566473e+02
1.398028822323e+02
5.677322520157e+01
5.172644510546e+01
4.295509376161e+01
4.695632532303e+01
5.567888446679e+01
5.054785594577e+01
4.169637299122e+01
4.542051972272e+01
5.436415429026e+01
4.922599935028e+01
4.019831898230e+01
4.403637707420e+01
1.480775987511e+02
3.512838940000e+01
1.106491385711e+02
1.476956049383e+02
1.465572941440e+02
1.457988744227e+02
1.417459926716e+02
1.326849203750e+02
1.376999470418e+02
1.467594669415e+02
1.427052354255e+02
1.336318599997e+02
1.386106113920e+02
1.295112424079e+02
1.345027457678e+02
1.435957081846e+02
1.395115965694e+02
1.304204866873e+02
1.354160908729e+02
1.263110380823e+02
1.312481070856e+02
1.404159922295e+02
3.846671349405e+01
1.365457122899e+02
1.456128087002e+02
7.483967433434e+01
8.354355821526e+01
8.873388891771e+01
9.275232460307e+01
1.362024777559e+02
1.454505171967e+02
4.664543028085e+01
5.154411302548e+01
1.498362318544e+02
1.378176632101e+02
1.287348842851e+02
8.911068124127e+01
8.534978097923e+01
8.045944684024e+01
7.657257282567e+01
8.159426876174e+01
7.156884705272e+01
1.255147337865e+02
1.486119493566e+02
4.970694697505e+01
4.065332746745e+01
1.469330160319e+02
1.275622223533e+02
1.247683754337e+02
1.285887809929e+02
1.335143617364e+02
1.373538445438e+02
1.423188035382e+02
1.461489073837e+02
1.412300099847e+02
1.488514973356e+02
1.500532463141e+02
1.268922109689e+02
1.258820271550e+02
5.823901022755e+01
3.450330645005e+01
3.482070226134e+01
4.205469259301e+01
5.117062936682e+01
1.528282836580e+02
1.511496059504e+02
1.472248711323e+02
7.290785700481e+01
7.791906076296e+01
1.528299008763e+02
1.228148109577e+02
1.245564971583e+02
1.203835873874e+02
3.221176533659e+01
3.131854572027e+01
1.517742736197e+02
6.019275662316e+01
5.642388066581e+01
3.131888382390e+01
2.618640227514e+01
1.410482565521e+02
1.502078393160e+02
9.779835450258e+01
1.018217006186e+02
1.488787709106e+02
3.885961032662e+01
1.545659760106e+02
1.314949525418e+02
1.224874829351e+02
8.747858709278e+01
4.300395544358e+01
3.807609606618e+01
6.333496001426e+01
4.792584457479e+01
4.597498653405e+01
1.579578621337e+02
1.557544101796e+02
1.451531153703e+02
1.362818514440e+02
1.539898701620e+02
2.978763660947e+01
1.569045503629e+02
1.418589198384e+02
1.557742557810e+02
1.521204826950e+02
6.503352890823e+01
6.140564007398e+01
5.280623390404e+01
5.780772970335e+01
1.116593740480e+02
7.004035277120e+01
1.058361139116e+02
1.020750549026e+02
9.732854505890e+01
8.646153677575e+01
8.280416520945e+01
7.281868823348e+01
1.120312163171e+02
9.386477266029e+01
1.169685158130e+02
1.114658156189e+02
1.526406803147e+02
1.577235974496e+02
1.213116641799e+02
1.170953465160e+02
3.543630362801e+01
3.160475124804e+01
1.052019470340e+02
1.516239855585e+02
1.547224817653e+02
1.587549847178e+02
1.537992914927e+02
1.538902888005e+02
7.554428649789e+01
1.147705597963e+02
3.011643754209e+01
1.187990431031e+02
2.642865850825e+01
1.355655166771e+02
1.509648190126e+02
1.559798595690e+02
1.577124454125e+02
9.943367888770e+01
1.226321098715e+02
1.177712005747e+02
9.361094631204e+01
8.892588546681e+01
9.256467280691e+01
8.417572104990e+01
6.713729200801e+01
6.201918280704e+01
1.606389785408e+02
1.587519906384e+02
1.607328422210e+02
1.571842685082e+02
1.616265474313e+02
1.566694087424e+02
5.488682762497e+01
7.436394147536e+01
1.607310085356e+02
9.828892969179e+01
1.606030426160e+02
1.555920201780e+02
2.108008326173e+01
2.476727399992e+01
1.594944423118e+02
4.916055814975e+01
5.393125132992e+01
4.427505363073e+01
1.695432344097e+02
9.945620988860e+01
1.600421647956e+02
9.136168472117e+01
1.638314091804e+02
1.265779332635e+02
8.406480784397e+01
1.448543316914e+02
1.546106924589e+02
1.646907339964e+02
1.154022467201e+02
1.110102489795e+02
1.193497519645e+02
3.643782551213e+01
2.678410735490e+01
1.536104710951e+02
6.551082849417e+01
7.048671048072e+01
4.251862785417e+01
5.151476296520e+01
1.029040725011e+02
9.897711015778e+01
1.394565850264e+02
1.443315861483e+02
1.296623774855e+02
1.264340579650e+02
1.174327280648e+02
1.135626222124e+02
1.615367069166e+02
1.675983665545e+02
7.217711678874e+01
6.837854832797e+01
7.081369086494e+01
1.647344416508e+02
1.649624770632e+02
1.610076713563e+02
2.266595412784e+01
2.771169584152e+01
3.455077556413e+01
2.966279492407e+01
1.625290337771e+02
1.578466207256e+02
1.682233028664e+02
4.908915286908e+01
1.403160183645e+02
1.626131763448e+02
1.586823123463e+02
1.678313534414e+02
1.536071233804e+02
1.622871257578e+02
1.627546025806e+02
1.731742408503e+01
1.614840548430e+02
1.117145145766e+02
1.341132647213e+01
1.075603447938e+02
1.128644993380e+02
1.029031835445e+02
4.015977843182e+01
1.088488237093e+02
1.143353723705e+02
1.715624067754e+01
1.695913261530e+02
1.794110555550e+01
2.154713904674e+01
1.645680618348e+02
1.594477249022e+02
1.682315857236e+02
1.630624013581e+02
1.542902767774e+02
1.583623507750e+02
1.065486657633e+02
1.683402670629e+02
1.625315991116e+02
1.726233160702e+02
8.071244603446e+01
6.262806040846e+01
5.890930059216e+01
5.007743126169e+01
1.671252783506e+02
1.616698196050e+02
1.461533980115e+02
1.369713220031e+02
1.081631439315e+02
1.076677641791e+02
1.159634702057e+02
1.148539155586e+02
1.231920212688e+02
1.218732974706e+02
1.303566436347e+02
1.678393043106e+02
4.048629590636e+01
8.995228414434e+01
1.654371136170e+02
1.599432730938e+02
7.920609010818e+01
7.102278557587e+01
1.670800594089e+02
7.372527803843e+01
1.748019110709e+02
7.599056792797e+00
1.630822669024e+01
7.876465553295e+01
8.772119442393e+01
6.758461635563e+01
6.436285735007e+01
1.355853402442e+02
2.409987931194e+01
3.945536517322e+01
1.313638405514e+02
3.095365950953e+01
1.417534929182e+02
7.773056009871e+01
9.504737525500e+01
4.790331259095e+01
6.657891397634e+01
1.154545368874e+02
1.078799053083e+02
1.031264736231e+02
8.166049273826e+01
6.942431976874e+01
6.016473028948e+01
1.095994678259e+02
1.488751330092e+02
1.528481394876e+02
1.614780549239e+02
1.567746538894e+02
1.479161550729e+02
1.518232372408e+02
1.606883571822e+02
1.559623243959e+02
1.663622459152e+02
1.598329293687e+02
1.506980562563e+02
1.544180530334e+02
1.628123693525e+02
1.454802847319e+02
1.702969012571e+02
8.769924026003e+01
2.218741184113e+01
2.110481203982e+01
9.993781083569e+01
1.753850051679e+02
1.756791340187e+02
6.404227586526e+01
1.758039874216e+02
1.068616549849e+02
4.532885575022e+01
1.759000472215e+02
1.439171359234e+02
1.388903585096e+02
1.349369650009e+02
1.761464602690e+02
1.235767942127e+02
1.762272723432e+02
1.209534327899e+02
1.169428832831e+02
1.080717003759e+02
1.467525605773e+02
1.757236132318e+02
1.683562827592e+02
1.683116643800e+02
1.603009521936e+02
1.758038892548e+02
1.762043885254e+02
1.764494030991e+02
5.948884675818e+01
6.457611892820e+01
7.338457462788e+01
6.956346997614e+01
6.068454103479e+01
6.568242668367e+01
7.449283895020e+01
6.177600848934e+01
1.531308300662e+02
1.761255041194e+02
1.204993150574e+02
1.164622730781e+02
1.074866243405e+02
8.992203628424e+01
9.503035467493e+01
1.040733046716e+02
8.480340080816e+01
1.324155854539e+02
1.760281921906e+02
1.186229549795e+02
9.106923144158e+01
9.999607225833e+01
1.078948221227e+02
1.080234655089e+02
1.165285881000e+02
1.087029757413e+02
1.068608289166e+02
1.108162720059e+02
1.058210344089e+02
1.147484630178e+02
1.095441693968e+02
1.012258678195e+02
1.184936885683e+02
1.127345358446e+02
9.986531206426e+01
8.114873260011e+00
1.622319740088e+01
1.594252642821e+01
2.358940363610e+01
2.420546146407e+01
3.215297555653e+01
3.102588869594e+01
1.625689625559e+01
7.954132773980e+00
1.594138764322e+01
7.865165346750e+00
1.569349036725e+01
2.465019057853e+01
3.698578904208e+01
1.747065685632e+02
8.734853415122e+01
8.299654816423e+01
7.416439651077e+01
7.894363970259e+01
9.101717892666e+01
6.933569637877e+01
6.607508229637e+01
8.089492015663e+00
1.608462418541e+01
1.529647658315e+01
2.398306536048e+01
2.371944180927e+01
1.615067210353e+01
1.616967891461e+01
8.006138221813e+00
1.611444485667e+01
2.409842351577e+01
7.693282120335e+00
1.424239007558e+02
1.474116608276e+02
1.755614168602e+02
1.008631597418e+02
7.982428240879e+00
1.743819407609e+02
1.758134251938e+02
1.759612326214e+02
1.603569086312e+02
1.648793347257e+02
1.746618516975e+02
5.874409505108e+01
1.653111414717e+02
1.586242881353e+02
4.168641717734e+01
5.684475052003e+01
1.327514595028e+02
1.220908335785e+02
1.519983119988e+02
1.248119552842e+02
1.441453594635e+02
1.677487166388e+02
3.708974806895e+01
1.253671801098e+02
1.221089897217e+02
1.445259554094e+02
6.148449529089e+01
9.710017246136e+01
3.944019995959e+01
1.686814805848e+02
1.010465553957e+02
1.024626243299e+02
8.082380740959e+01
6.397624067622e+01
5.310309630516e+01
9.279282864688e+01
9.617589709136e+01
1.374675841159e+02
1.495564759558e+02
8.928050894385e+00
1.425789407959e+02
1.142356650202e+02
1.286414347035e+02
1.427434032572e+02
3.670747511452e+01
1.476900050128e+02
1.633091736390e+02
1.185412441398e+02
3.038802779222e+01
1.161448899698e+02
1.618848256653e+02
1.448760822478e+02
5.631805790588e+01
1.058837813695e+02
9.880952988816e+01
9.104257693101e+01
1.624881951001e+02
1.090381732767e+02
1.506328349815e+02
1.236889744544e+02
6.036718358216e+01
1.504856781623e+02
1.031573240078e+02
1.567478120059e+02
1.384355094422e+02
8.435141840741e+01
1.507377569739e+02
1.035441074795e+02
1.478163061263e+02
9.624186086748e+01
1.209550289008e+02
1.317264590071e+02
1.150071303980e+02
1.277383390522e+02
1.465448312115e+02
3.898559757940e+01
7.534978118273e+01
1.277144517160e+02
1.547770064023e+02
1.656747036087e+02
9.020605519594e+01
1.453232037203e+02
1.595550281158e+02
1.001155060529e+02
4.254205985401e+01
3.323069900832e+01
6.674140139748e+01
1.041634980293e+02
1.091444640231e+02
1.675468445857e+02
1.492355139599e+02
1.397227024786e+02
1.752372387634e+01
9.463629293757e+01
1.531979152478e+02
1.097303789574e+02
1.515451392883e+02
1.041119139084e+02
1.684694625681e+02
7.588174112056e+01
1.573414220734e+02
1.406679340558e+02
6.889431298312e+01
9.974060793508e+01
1.676958317206e+02
1.498494436341e+02
1.236841161105e+02
1.046938374730e+02
8.178355757416e+01
1.130765610173e+02
1.258277970384e+02
1.762760327673e+02
1.545023960279e+02
1.299295844710e+02
1.079841775988e+02
1.307008491370e+02
2.373920058115e+01
8.535150999914e+01
1.119047458174e+02
7.060998777931e+01
1.085389787628e+02
1.663457740027e+02
1.158452412709e+02
7.940723218495e+01
1.197767464618e+02
7.254092810390e+01
1.338898676291e+02
1.236709271317e+02
1.345532214518e+02
2.488775407750e+01
1.274969975669e+02
1.554208332002e+02
7.444330211790e+01
1.124410107510e+02
1.428605474307e+02
6.319091511562e+01
1.214231386030e+02
1.433483431731e+02
1.314063524900e+02
1.129350713418e+02
1.305302426104e+02
6.631835347001e+01
5.498623095084e+01
4.604138588300e+01
8.324584887373e+01
1.482893120777e+02
3.145774992444e+01
1.416588199832e+02
3.331638086774e+01
7.831666495765e+01
1.446750982018e+02
1.247749905081e+02
8.210418896586e+01
5.154828493721e+01
7.714518009469e+01
1.217581248956e+02
8.091796410899e+01
7.590974519139e+01
1.676005777596e+02
7.961139343674e+01
1.761145085505e+02
1.752142989466e+02
1.067111777105e+02
5.355208798257e+01
8.223029210209e+00
5.669961948538e+01
6.564449174247e+01
1.404329891875e+02
1.070445905373e+02
6.038904213343e+01
1.685310151318e+02
1.762109099492e+02
1.379907763268e+02
1.551161823759e+02
1.355972155143e+02
1.595855559797e+02
9.906158123453e+01
1.564622168896e+01
1.324155787367e+02
4.405401093017e+01
4.517735885678e+01
3.570074240838e+01
6.361570334199e+01
2.335005366073e+01
3.647560037703e+01
1.678238914134e+02
1.071941084157e+02
1.492375245129e+02
2.712833127252e+01
1.681982094297e+02
1.681163104457e+02
1.762529461969e+02
1.582643332685e+02
2.606952460708e+01
1.147790318938e+02
1.686416672732e+02
1.451348708603e+02
1.766725714740e+02
1.060678051325e+02
1.687933705427e+02
3.427273668184e+01
1.688972830191e+02
1.493062420978e+02
1.181679349039e+02
1.143337646929e+02
1.691948537412e+02
1.685079360699e+02
2.102994661837e+01
1.374246744333e+02
7.906237041122e+01
1.484099223358e+01
1.684469844471e+02
1.577755217329e+02
1.687320333847e+02
2.360273393128e+01
1.479529957905e+01
1.698234000974e+02
1.694966455588e+02
3.853584858431e+01
1.774848504324e+02
1.423999786330e+01
9.805493470000e+01
1.530955363528e+01
1.764750850299e+02
1.692079425473e+02
8.695175144199e+01
1.003084630192e+02
5.770870934778e+01
1.621795167242e+02
2.189098702607e+01
1.700996650365e+02
1.702310779100e+02
1.701044191522e+02
1.779122036707e+02
1.422941888283e+01
1.704640720380e+02
1.620299326746e+02
9.901218925206e+01
1.688268512705e+02
7.082922354472e+01
3.093897558462e+01
1.770520243295e+02
6.547296039123e+00
9.852487061554e+01
1.771835659308e+02
2.954861140633e+01
1.133586504710e+02
1.698932450562e+02
1.065226790673e+02
1.543568078334e+02
2.918819555416e+01
6.764984822159e+00
1.295492140223e+02
1.697575021217e+02
1.706181295108e+02
1.231900973802e+02
2.644724904390e+01
1.646284995494e+02
9.374151980885e+01
1.630733944809e+02
1.623076742468e+02
7.705963840219e+00
1.144577017322e+02
1.438179700371e+01
1.704444994106e+02
9.774549312020e+01
3.774161579235e+00
4.819330907244e+00
1.314454508909e+01
1.380981122888e+01
2.232439948142e+01
2.357962272093e+01
3.145979097451e+01
3.227112617729e+01
4.060470910061e+01
4.194807253586e+01
4.974672301037e+01
5.058413837536e+01
5.895988670262e+01
6.024944840545e+01
6.814985350574e+01
6.889091672874e+01
7.731635335509e+01
7.854389785026e+01
8.651696244725e+01
8.721302074729e+01

SCALARS node_materi_strain_total_average_a_ept float
LOOKUP_TABLE default
5.067953068760e-06
2.060750029456e-04
4.093773590633e-04
4.094410186910e-04
1.512957530557e-05
3.602415442395e-05
5.576503475128e-05
7.807167496977e-05
9.947868923764e-05
1.207764571873e-04
1.419810264215e-04
1.631335400343e-04
1.843313542194e-04
2.056653952463e-04
2.274905666302e-04
2.489504636114e-04
2.685302755094e-04
2.898507306580e-04
3.118183442513e-04
3.331444756108e-04
3.546230804238e-04
3.762778421239e-04
3.971111715254e-04
4.106521461313e-04
4.094282573565e-04
4.097186170253e-04
4.096466311443e-04
4.089407412403e-04
4.096509992999e-04
4.099378902383e-04
4.094326090075e-04
4.102305069012e-04
4.101221413439e-04
4.094062825088e-04
4.099978842554e-04
4.104882101948e-04
4.099629305072e-04
4.097204128981e-04
4.088595993429e-04
4.086670293969e-04
4.094945099046e-04
4.098507025619e-04
4.102299692855e-04
4.100953647542e-04
4.099393152164e-04
4.098545558800e-04
4.097569778958e-04
4.099314088778e-04
4.102458178280e-04
4.102490382396e-04
4.104574804209e-04
4.101289474953e-04
4.109027751014e-04
4.105903333652e-04
4.095406533428e-04
4.095093725900e-04
4.098410139288e-04
4.100039700922e-04
4.099376669063e-04
4.102220201543e-04
4.097648065556e-04
4.095924418946e-04
4.089961968775e-04
4.093531381380e-04
4.104840152887e-04
4.108940168535e-04
4.079030403135e-04
4.103738699934e-04
4.092569694949e-04
4.098000841242e-04
4.105947106998e-04
4.104542636492e-04
2.278175464897e-04
2.490832484765e-04
2.702931844254e-04
2.910434808378e-04
3.122194291123e-04
3.336132975222e-04
3.545773987709e-04
3.754354778205e-04
3.968307013143e-04
3.351085466730e-06
3.435570710327e-06
2.062400554278e-04
1.351228974405e-05
3.432311344179e-05
5.599745965107e-05
7.683972205709e-05
9.826708402479e-05
1.198812144791e-04
1.411603376941e-04
1.625024762468e-04
1.838800775303e-04
1.430597202229e-05
3.514742240205e-05
5.649375316275e-05
7.780412532070e-05
9.912412808534e-05
1.204336327012e-04
1.417451441482e-04
1.630368934655e-04
1.842363443326e-04
2.034155465330e-04
2.047928111993e-04
2.047858366538e-04
2.045451287019e-04
2.074840581755e-04
2.048979510439e-04
2.047589310086e-04
2.049184772741e-04
2.052707813429e-04
2.051223907682e-04
2.050921430493e-04
2.049479036038e-04
2.050400651062e-04
2.053328364873e-04
5.014500882972e-06
4.917145903091e-06
4.966990584424e-06
5.189088649684e-06
5.454754168836e-06
5.771288892885e-06
5.902049592647e-06
5.921034231804e-06
5.935575951361e-06
5.962591561196e-06
6.143192866589e-06
5.878301450059e-06
5.845914236345e-06
5.972531541899e-06
5.929203762930e-06
5.795174354025e-06
5.706073111085e-06
5.552556127047e-06
5.089958983653e-06
1.748735097790e-06
5.147939016468e-06
6.892266109146e-06
7.569323881869e-06
7.560412343375e-06
7.696593358345e-06
7.668124422297e-06
7.688498991120e-06
7.663790644936e-06
7.657577545321e-06
7.647328149297e-06
7.644402077690e-06
7.641834483306e-06
7.641159819808e-06
7.640781811357e-06
7.640752919233e-06
7.640724643185e-06
7.640799541631e-06
7.641063334606e-06
7.641760024694e-06
7.643191252460e-06
7.645442515710e-06
7.647750267416e-06
7.647275536790e-06
7.636285900429e-06
7.595582782787e-06
7.477077313066e-06
6.951594407901e-06
4.995875068757e-06
1.432647027247e-05
1.519371440342e-05
1.596075014305e-05
1.606344193492e-05
1.609684493393e-05
1.611161800667e-05
1.611744713713e-05
1.611879789166e-05
1.611805356086e-05
1.611646381766e-05
1.611471302807e-05
1.611329421630e-05
1.611266955253e-05
1.611312554576e-05
1.611478038732e-05
1.611758690926e-05
1.612171619708e-05
1.612683823167e-05
1.613330440664e-05
1.614076767954e-05
1.614923129978e-05
1.615418950200e-05
1.615049099708e-05
1.614618624171e-05
1.614113029807e-05
1.621494461709e-05
1.660911182287e-05
1.237376740205e-05
3.264498910024e-05
3.627236613043e-05
3.534676192546e-05
3.512663748351e-05
3.525717476103e-05
3.520478880727e-05
3.522739226939e-05
3.520630105555e-05
3.520531883953e-05
3.519579452382e-05
3.519109925486e-05
3.518604103835e-05
3.518360084128e-05
3.518248249636e-05
3.518323756650e-05
3.518538796711e-05
3.518833198707e-05
3.519118773507e-05
3.519327605229e-05
3.519374950221e-05
3.519115648902e-05
3.518270224511e-05
3.516312594925e-05
3.512430526255e-05
3.509089196631e-05
3.518989885749e-05
5.404937814900e-05
5.755432510226e-05
5.662243024142e-05
5.647073001967e-05
5.656347064896e-05
5.651444306979e-05
5.652961691634e-05
5.651222670016e-05
5.651039869193e-05
5.650236248479e-05
5.649990762553e-05
5.649756338702e-05
5.649757570490e-05
5.649884491772e-05
5.650134557658e-05
5.650385049665e-05
5.650543784097e-05
5.650530410077e-05
5.650254723408e-05
5.649617672645e-05
5.648542443150e-05
5.647175042574e-05
5.646691461210e-05
5.653094762150e-05
5.650606319805e-05
7.779626816486e-05
7.779271115228e-05
7.778990966825e-05
7.779774133987e-05
7.780620874766e-05
7.781194874584e-05
7.781446570962e-05
7.781456200039e-05
7.781279562885e-05
7.780969657135e-05
7.780601165681e-05
7.780286444222e-05
7.780241507793e-05
7.780333787665e-05
7.780767602291e-05
7.780958796428e-05
7.782333274799e-05
7.781895393238e-05
7.785436323562e-05
7.779942980642e-05
7.793870788018e-05
7.896289221410e-05
7.539307322815e-05
9.673059344012e-05
1.002990266026e-04
9.925986611389e-05
9.910580625265e-05
9.916573841018e-05
9.911547796235e-05
9.912730860110e-05
9.911368557749e-05
9.911602243256e-05
9.911472887001e-05
9.911935672059e-05
9.912419082113e-05
9.912898775430e-05
9.913231081844e-05
9.913325822975e-05
9.913210117497e-05
9.912867994784e-05
9.912388378979e-05
9.912084631443e-05
9.912288851722e-05
9.912570958651e-05
9.912677642138e-05
1.204297330427e-04
1.204247264087e-04
1.204285452826e-04
1.204340555226e-04
1.204410252111e-04
1.204461371647e-04
1.204472238220e-04
1.204439334778e-04
1.204406771220e-04
1.204338180616e-04
1.204265879871e-04
1.204193955616e-04
1.204088714175e-04
1.204169888550e-04
1.204104888242e-04
1.204458282228e-04
1.203953611204e-04
1.205390674440e-04
1.216101835272e-04
1.180487545710e-04
1.393034886584e-04
1.428883326355e-04
1.418537708933e-04
1.416837490949e-04
1.417411192055e-04
1.416980747791e-04
1.417294934540e-04
1.417424486713e-04
1.417476405752e-04
1.417562986275e-04
1.417679060140e-04
1.417716712259e-04
1.417753426988e-04
1.417678630582e-04
1.417625375104e-04
1.417529011028e-04
1.417519423373e-04
1.417498528660e-04
1.417505469738e-04
1.630511445880e-04
1.630495665779e-04
1.630507220041e-04
1.630643096366e-04
1.630823899527e-04
1.630879504823e-04
1.631056979684e-04
1.630883625469e-04
1.630639542459e-04
1.630599085137e-04
1.630563221375e-04
1.630427626458e-04
1.630175637081e-04
1.629240302975e-04
1.630848019597e-04
1.642244381389e-04
1.606685419752e-04
1.819205999250e-04
1.853201077865e-04
1.843175412728e-04
1.843472977529e-04
1.843830530480e-04
1.844116264995e-04
1.843586749127e-04
1.843642442530e-04
1.844995420167e-04
1.844249372338e-04
1.844163783237e-04
1.844031192879e-04
1.843932090365e-04
1.843316320968e-04
1.844351131352e-04
1.844258752356e-04
6.022459111015e-06
2.575493099549e-05
4.749243444490e-05
6.906813037591e-05
9.003233882677e-05
1.115443044519e-04
1.327150311260e-04
1.540726987195e-04
1.754036283495e-04
1.969138508503e-04
4.349327545783e-05
4.008213791967e-04
1.275825178621e-05
1.211232134235e-05
4.008187026880e-04
8.685388565495e-05
2.173935452848e-04
4.000790222030e-04
1.276606541413e-04
4.010690180690e-04
1.712383225375e-04
4.023561467871e-04
1.210574086899e-05
4.011632080690e-04
2.146339979167e-04
1.323957656626e-04
2.757972683164e-04
4.003400562019e-04
4.011647473940e-04
4.008098452198e-04
3.991058679548e-04
4.014692072399e-04
2.245522439190e-04
2.246633060652e-04
2.261440076038e-04
3.018210441316e-04
4.009483555132e-04
1.200893197011e-05
1.314139378730e-05
3.431163672364e-04
2.235336313115e-04
6.679916502286e-05
3.973712997425e-04
4.020783741460e-04
4.010850853437e-04
3.992316404228e-04
4.013864583174e-04
1.319386533614e-05
2.239320549601e-04
3.975130310028e-04
3.434881820289e-04
1.299575225242e-05
1.738413250344e-04
4.038206678925e-04
1.087693448479e-04
6.538184447662e-05
1.494514996549e-04
1.927023935024e-04
2.055183045430e-05
2.614719914726e-04
4.043823414896e-04
1.231289374996e-05
3.849525593738e-04
2.247988996066e-04
2.334189649936e-04
2.435981852966e-04
2.534983880217e-04
2.646539503508e-04
2.736108424584e-04
2.625306683973e-04
2.826956071024e-04
2.714336341709e-04
2.851162649457e-04
2.917028378054e-04
2.803504126142e-04
3.006690411796e-04
2.892794152723e-04
2.691051476467e-04
2.779772730033e-04
2.578713214720e-04
2.667110014823e-04
2.868703102397e-04
2.755623627705e-04
2.554144591938e-04
2.642284760386e-04
2.441373691236e-04
2.529325195668e-04
2.328136911685e-04
2.416239705016e-04
2.617696723748e-04
2.504308554259e-04
2.303126294050e-04
2.390969237308e-04
2.189966146261e-04
2.277240955081e-04
2.478911302897e-04
2.365049327199e-04
2.162425764463e-04
2.250785934208e-04
2.047141230148e-04
2.136565136720e-04
1.931759508212e-04
2.021223356994e-04
2.225671907005e-04
2.110603175332e-04
1.905287075433e-04
1.994528065462e-04
2.200348994696e-04
2.083950967681e-04
2.290201732501e-04
2.173630206613e-04
1.968228222918e-04
2.057462452042e-04
2.263242129898e-04
2.146294584910e-04
1.941387663694e-04
2.030165013644e-04
2.235722278968e-04
2.119179711049e-04
1.914243278770e-04
2.003047279424e-04
2.209624479804e-04
2.092215806711e-04
1.886382892875e-04
1.974852521436e-04
2.182644365239e-04
2.064005788592e-04
2.273382272142e-04
1.855579530026e-04
1.944652928555e-04
1.735144704731e-04
1.825099740585e-04
2.567243320662e-04
1.614986295058e-04
1.527598549444e-04
1.705608834349e-04
1.916790882417e-04
1.494666982499e-04
1.586031417128e-04
1.374567155168e-04
1.838845431321e-04
2.957955823676e-04
1.466502566732e-04
1.254559121165e-04
1.162783586523e-04
1.042933916262e-04
2.760773163976e-04
2.965738850565e-04
2.868241234487e-04
3.079799012429e-04
2.985870034563e-04
1.134618533039e-04
3.122936468513e-04
3.173116225171e-04
2.353968693314e-04
2.102511583275e-04
2.406871225321e-04
1.677923623763e-04
1.558998135688e-04
1.770131531143e-04
2.392132166552e-04
2.483476596169e-04
2.602392597322e-04
2.693942741812e-04
2.813048149882e-04
2.904729668031e-04
2.785470701525e-04
2.996371660407e-04
2.877017742491e-04
3.023957660965e-04
2.931732238690e-04
3.087963872648e-04
2.968606582832e-04
3.179734067750e-04
3.060291692061e-04
2.848809462072e-04
2.940316343851e-04
2.729554634257e-04
2.497089528846e-04
2.614153355684e-04
2.704534321715e-04
2.821886414602e-04
2.912544373171e-04
3.029932221513e-04
3.120497782827e-04
3.003237233750e-04
3.095353320761e-04
1.789177914634e-04
1.700039818766e-04
1.584138336999e-04
1.495199223144e-04
1.379283501918e-04
1.290770676752e-04
1.173969659846e-04
1.262934283401e-04
1.056600297717e-04
1.146306038481e-04
9.389359702347e-05
1.028740739410e-04
2.706114584732e-04
2.938986380764e-04
3.147454984533e-04
3.054926130626e-04
9.509042431653e-05
3.152226221090e-04
3.143029554162e-04
3.049593473037e-04
3.211922335856e-04
9.249290283520e-05
1.086884999697e-04
1.202298271333e-04
3.194503044461e-04
3.100351965288e-04
3.262076798203e-04
1.016378984084e-04
3.207348515395e-04
8.505159798964e-05
3.032165428736e-04
3.244029446885e-04
2.666505255942e-04
3.264762976597e-04
3.170066340735e-04
1.236934826740e-04
1.119137651201e-04
9.149607536841e-05
1.008771180833e-04
1.211154363116e-04
1.092671545909e-04
8.876653167969e-05
9.735660638747e-05
1.181473650108e-04
1.061918232260e-04
8.528842349857e-05
9.408888131308e-05
3.363498326346e-04
7.325756175205e-05
2.490409724994e-04
3.354155329404e-04
3.326686150757e-04
3.309991856404e-04
3.215681491942e-04
3.004974484599e-04
3.121072674109e-04
3.331959923945e-04
3.237236079419e-04
3.025923234867e-04
3.142027075657e-04
2.930437667328e-04
3.046590362838e-04
3.258411080070e-04
3.163198265386e-04
2.951097711648e-04
3.067624256739e-04
2.855041209339e-04
2.971160069273e-04
3.184545530767e-04
8.131506388080e-05
3.094156113755e-04
3.304861192138e-04
1.656763668502e-04
1.860295655981e-04
1.980916730506e-04
2.075178801932e-04
3.086828374764e-04
3.300964440826e-04
1.000636602053e-04
1.114531492388e-04
3.403799208393e-04
3.124719347883e-04
2.912915025769e-04
1.989432063222e-04
1.901879593335e-04
1.788168932394e-04
1.697571904520e-04
1.814075206944e-04
1.581380186185e-04
2.837365010458e-04
3.375278065332e-04
1.071860294710e-04
8.606605498773e-05
3.336432838261e-04
2.884986377513e-04
2.819988539339e-04
2.909020169300e-04
3.023752040037e-04
3.113292240779e-04
3.228731115324e-04
3.317815391848e-04
3.203326662939e-04
3.381486686468e-04
3.408257262729e-04
2.871749252931e-04
2.845491614084e-04
1.271443896030e-04
7.179363850612e-05
7.252181582687e-05
8.955185744159e-05
1.107541638991e-04
3.473824587642e-04
3.433843609719e-04
3.342609713487e-04
1.612047090170e-04
1.728434114318e-04
3.474247238970e-04
2.777535736300e-04
2.815182299925e-04
2.718381310597e-04
6.687248163624e-05
6.465375930590e-05
3.448612857376e-04
1.315755294997e-04
1.227973729735e-04
6.424011400258e-05
5.240644397785e-05
3.201214178281e-04
3.413992863564e-04
2.193160320669e-04
2.285904910555e-04
3.381838577023e-04
8.195440851300e-05
3.514578820964e-04
2.976305551574e-04
2.766684523524e-04
1.954042297352e-04
9.155596231892e-05
8.009805722165e-05
1.389897923905e-04
1.031125251520e-04
9.868064723176e-05
3.593217204092e-04
3.542114785881e-04
3.294283021259e-04
3.087676831402e-04
3.501615039087e-04
6.101775100099e-05
3.568003634409e-04
3.217754941249e-04
3.539839010630e-04
3.456395204304e-04
1.428298301769e-04
1.343670828071e-04
1.143511180594e-04
1.259686034860e-04
2.513119351192e-04
1.544772366926e-04
2.378551249076e-04
2.290900459109e-04
2.180414985381e-04
1.927296545288e-04
1.842299843972e-04
1.609741870231e-04
2.523025254612e-04
2.100783678521e-04
2.638556683317e-04
2.510377257084e-04
3.469055670109e-04
3.587118855189e-04
2.738748580942e-04
2.642444785965e-04
7.391292176924e-05
6.485146995155e-05
2.364653230686e-04
3.444980440387e-04
3.517528688508e-04
3.611256426363e-04
3.496226465784e-04
3.499012260711e-04
1.673463405652e-04
2.587055984054e-04
6.155898833089e-05
2.680784988927e-04
5.291924201729e-05
3.070585706191e-04
3.430494698571e-04
3.547368307306e-04
3.588241404405e-04
2.229512661690e-04
2.769885260009e-04
2.656574221239e-04
2.094085068753e-04
1.984924436396e-04
2.069584763418e-04
1.874149561089e-04
1.478397338819e-04
1.359310754875e-04
3.654174538253e-04
3.611034298517e-04
3.656402300209e-04
3.577378455729e-04
3.681934787631e-04
3.564461754551e-04
1.192286171969e-04
1.645673452840e-04
3.659687081180e-04
2.203063209485e-04
3.653161265812e-04
3.537322407947e-04
4.070767163679e-05
4.928740679592e-05
3.629727427927e-04
1.058371854574e-04
1.168923387216e-04
9.446177160340e-05
3.862681269651e-04
2.230496896599e-04
3.643521424676e-04
2.041508639980e-04
3.731721438902e-04
2.861732711327e-04
1.871977771818e-04
3.287545830313e-04
3.516664684078e-04
3.748562420637e-04
2.604106667186e-04
2.500054078475e-04
2.694244797286e-04
7.626981157790e-05
5.368159169353e-05
3.491230738516e-04
1.440238676492e-04
1.553311519917e-04
9.045091101633e-05
1.114556289283e-04
2.311537846020e-04
2.219815527203e-04
3.161498610947e-04
3.274769453230e-04
2.933840709450e-04
2.858539919343e-04
2.648949966781e-04
2.558955415516e-04
3.674997485831e-04
3.816445508561e-04
1.595498481791e-04
1.506984125140e-04
1.564023752939e-04
3.752685784719e-04
3.756804702800e-04
3.662378119516e-04
4.405856707782e-05
5.566934839981e-05
7.177754385395e-05
6.065093181127e-05
3.699054290976e-04
3.590280731523e-04
3.832412373513e-04
1.058443231323e-04
3.181891784802e-04
3.701763747051e-04
3.609493301042e-04
3.823187960564e-04
3.492535094724e-04
3.692678055715e-04
3.704992566619e-04
3.166865574053e-05
3.675517904463e-04
2.516128494291e-04
2.315717965908e-05
2.421420103414e-04
2.543397265784e-04
2.312122720792e-04
8.512882501856e-05
2.451266842078e-04
2.578133911549e-04
3.164127819177e-05
3.866031659315e-04
3.297789485455e-05
4.163899163123e-05
3.748976639151e-04
3.628058668415e-04
3.831873936810e-04
3.710523889861e-04
3.507685278660e-04
3.602800767274e-04
2.395033751515e-04
3.835868877594e-04
3.700515397861e-04
3.933741721697e-04
1.793661649141e-04
1.371332054479e-04
1.284922351073e-04
1.079359249748e-04
3.807380011814e-04
3.679987736374e-04
3.318017557551e-04
3.103779099327e-04
2.432130469232e-04
2.421223473019e-04
2.614066368049e-04
2.588281365258e-04
2.781899616899e-04
2.753209684597e-04
2.950814829082e-04
3.822333801009e-04
8.567227309539e-05
2.009222106439e-04
3.769308174647e-04
3.638348696196e-04
1.758578154688e-04
1.567414880153e-04
3.803898547488e-04
1.630707017896e-04
3.985202320573e-04
1.171714582081e-05
2.979856919289e-05
1.748288723574e-04
1.956929457419e-04
1.488976088503e-04
1.414811130644e-04
3.071663339133e-04
4.764516851696e-05
8.319895498255e-05
2.975104589767e-04
6.343838274376e-05
3.216039382373e-04
1.724088611741e-04
2.127345370225e-04
1.029462864061e-04
1.464209179226e-04
2.601970833129e-04
2.424651482101e-04
2.314647586570e-04
1.815648661093e-04
1.530901621735e-04
1.315104243516e-04
2.466168293810e-04
3.381402398712e-04
3.473339814534e-04
3.674777682151e-04
3.564578850134e-04
3.358739484583e-04
3.450237281655e-04
3.655893880852e-04
3.547840871011e-04
3.788314495050e-04
3.636773188034e-04
3.424071101866e-04
3.508847242104e-04
3.704623830440e-04
3.301834032623e-04
3.882346744760e-04
1.956518276923e-04
4.321674058796e-05
4.063395630095e-05
2.241188873490e-04
3.997537771563e-04
4.005000598328e-04
1.405362203220e-04
4.008650585133e-04
2.401888322760e-04
9.691026545925e-05
4.010950226004e-04
3.266153428638e-04
3.149119045975e-04
3.057464080687e-04
4.017774152459e-04
2.791767761778e-04
4.018067655922e-04
2.730719951619e-04
2.637302330995e-04
2.430696079908e-04
3.332435727105e-04
4.005914670180e-04
3.834035771268e-04
3.834165349085e-04
3.644672020335e-04
4.008964199197e-04
4.018128429881e-04
4.023254008566e-04
1.300245622359e-04
1.418340469339e-04
1.623457757432e-04
1.534566479212e-04
1.327803973188e-04
1.444205437387e-04
1.649233374707e-04
1.353017546410e-04
3.480845165396e-04
4.015929070772e-04
2.720730367735e-04
2.626588874757e-04
2.417613595128e-04
2.009003790640e-04
2.127940063329e-04
2.338424423402e-04
1.889605658539e-04
2.998017747250e-04
4.013933438217e-04
2.676816297097e-04
2.035800855287e-04
2.242835176720e-04
2.427939542478e-04
2.430526336121e-04
2.631399702999e-04
2.447534206767e-04
2.403325597601e-04
2.495129558719e-04
2.378920108283e-04
2.587030647768e-04
2.466564979328e-04
2.273686796975e-04
2.675337352520e-04
2.540389567726e-04
2.241249090908e-04
1.320098059997e-05
2.953350878292e-05
2.901538569474e-05
4.646275634415e-05
4.781837394393e-05
6.654005129793e-05
6.394583313985e-05
2.975404957813e-05
1.299795275947e-05
2.901342927833e-05
1.285650576561e-05
2.850557587047e-05
4.901363575632e-05
7.748089495287e-05
3.981299846893e-04
1.948240138277e-04
1.845496911159e-04
1.642857934781e-04
1.752202657759e-04
2.031884759426e-04
1.530210993391e-04
1.454501414303e-04
1.313116379576e-05
2.922501446445e-05
2.710795823403e-05
4.705815696267e-05
4.689748586113e-05
2.952425277902e-05
2.949273755474e-05
1.305667228964e-05
2.953465830826e-05
4.778400468337e-05
1.262632471884e-05
3.231228933556e-04
3.346346816084e-04
4.002064664845e-04
2.264830216348e-04
1.316987288364e-05
3.974423448238e-04
4.009353651840e-04
4.013790320928e-04
3.648881971035e-04
3.755616337016e-04
3.980225421667e-04
1.282960369643e-04
3.765673194234e-04
3.607735550358e-04
8.852713081764e-05
1.238864543679e-04
3.006317669790e-04
2.757834237909e-04
3.454091616342e-04
2.821086316593e-04
3.271707175361e-04
3.820272940092e-04
7.820195784633e-05
2.834026768127e-04
2.758389682202e-04
3.280042308990e-04
1.346228419792e-04
2.176465450893e-04
8.318976723052e-05
3.843161351114e-04
2.267041899624e-04
2.300698059230e-04
1.797513876859e-04
1.405054107631e-04
1.151770428302e-04
2.075201361094e-04
2.154593198090e-04
3.115657579993e-04
3.396786616587e-04
1.436094107577e-05
3.234868786474e-04
2.574913653153e-04
2.909755017506e-04
3.237738598029e-04
7.726152464535e-05
3.353481558581e-04
3.716405846398e-04
2.675995067403e-04
6.216332078138e-05
2.617794191667e-04
3.683994066908e-04
3.288160535952e-04
1.226969830546e-04
2.380069547375e-04
2.215193993532e-04
2.036647190464e-04
3.696558089648e-04
2.453280063427e-04
3.421376520326e-04
2.794793982263e-04
1.320835043965e-04
3.418324546667e-04
2.316347395613e-04
3.564653852083e-04
3.138243563548e-04
1.878555810947e-04
3.424989016251e-04
2.325643860924e-04
3.356032941522e-04
2.155166850168e-04
2.730925112876e-04
2.981224460130e-04
2.592486515911e-04
2.889411195074e-04
3.326650216068e-04
8.214839854747e-05
1.669032951206e-04
2.889854613229e-04
3.517165747871e-04
3.773764013625e-04
2.014742687009e-04
3.298662737779e-04
3.629630824675e-04
2.246304863464e-04
9.048696561263e-05
6.896129116880e-05
1.468400691894e-04
2.339663570331e-04
2.456449776489e-04
3.815346971096e-04
3.390327483428e-04
3.168225371615e-04
3.241949964137e-05
2.119114314149e-04
3.482863867002e-04
2.469706383454e-04
3.442512299851e-04
2.341197798736e-04
3.838057050987e-04
1.681567417236e-04
3.578260539012e-04
3.189870585816e-04
1.518313977253e-04
2.237276796668e-04
3.819209530234e-04
3.403230686921e-04
2.794652539467e-04
2.352442958959e-04
1.819638149895e-04
2.548025600996e-04
2.844183039607e-04
4.020645671547e-04
3.510283464538e-04
2.940713648045e-04
2.429531625483e-04
2.957778331137e-04
4.709352315704e-05
1.902375047325e-04
2.520631551377e-04
1.558698378755e-04
2.441875679902e-04
3.789632033193e-04
2.612188539355e-04
1.763545072428e-04
2.703720601639e-04
1.604298379941e-04
3.032485681405e-04
2.795250065977e-04
3.047560154351e-04
4.955490823339e-05
2.883248893252e-04
3.534809656298e-04
1.648486648124e-04
2.532740254341e-04
3.241277991224e-04
1.385771416027e-04
2.741940880624e-04
3.252456353886e-04
2.974272971572e-04
2.543927221824e-04
2.954143448782e-04
1.458036411461e-04
1.195240603953e-04
9.863948975042e-05
1.852973652692e-04
3.367584201793e-04
6.469207040454e-05
3.213399032947e-04
6.905947862620e-05
1.738284703509e-04
3.284356580172e-04
2.820047624571e-04
1.826487602750e-04
1.115414787910e-04
1.711043789097e-04
2.749428858903e-04
1.798954010420e-04
1.682526506474e-04
3.816115244090e-04
1.768835498333e-04
4.017961255646e-04
3.994867898316e-04
2.398946829035e-04
1.158920035445e-04
1.287150834106e-05
1.236851077620e-04
1.443648236464e-04
3.183951865158e-04
2.407638781338e-04
1.321350322196e-04
3.839846066050e-04
4.017526076226e-04
3.127975608185e-04
3.524198143016e-04
3.072139759065e-04
3.629121661107e-04
2.222600826070e-04
2.830767869662e-05
2.998231374806e-04
9.385247000482e-05
9.664172504100e-05
7.442558100818e-05
1.393721932358e-04
4.605466627286e-05
7.640795787645e-05
3.820696024287e-04
2.413734374930e-04
3.390591835029e-04
5.450398591126e-05
3.830377690570e-04
3.828388865557e-04
4.017985490994e-04
3.600810547062e-04
5.209208509258e-05
2.591234314686e-04
3.840219493035e-04
3.295956978428e-04
4.030939341349e-04
2.388665875041e-04
3.844869453485e-04
7.126265601150e-05
3.847729638840e-04
3.390338751330e-04
2.667561881561e-04
2.579869261103e-04
3.855660054056e-04
3.836339563055e-04
4.063894218154e-05
3.117118772987e-04
1.754751368486e-04
2.685243778672e-05
3.835436829987e-04
3.586550104685e-04
3.841745534926e-04
4.620246292231e-05
2.605814342245e-05
3.867667664900e-04
3.861420131462e-04
8.141864552358e-05
4.047482773457e-04
2.501630451414e-05
2.200740611377e-04
2.777202021888e-05
4.026065746797e-04
3.853029438952e-04
1.939276825641e-04
2.252573870122e-04
1.258214053335e-04
3.689191884618e-04
4.277220864113e-05
3.873408492607e-04
3.876905585726e-04
3.874437811517e-04
4.056670105067e-04
2.522042710460e-05
3.881904987813e-04
3.685330370241e-04
2.220017766780e-04
3.845959860674e-04
1.563662945425e-04
6.386560575916e-05
4.040792003274e-04
9.522784638409e-06
2.207369707801e-04
4.040859935091e-04
6.077468864493e-05
2.555196291996e-04
3.871870846586e-04
2.394434170921e-04
3.508370209728e-04
5.986406800069e-05
1.064998256397e-05
2.931882599583e-04
3.865614241908e-04
3.886028132739e-04
2.784105073854e-04
5.332543974495e-05
3.746738986200e-04
2.100916292919e-04
3.708834677475e-04
3.690031121289e-04
1.094592262401e-05
2.578877247754e-04
2.517737763698e-05
3.881989715991e-04
2.191048800414e-04
4.017641592173e-06
5.489828396284e-06
2.220149263093e-05
2.396976161848e-05
4.415869248930e-05
4.636277533152e-05
6.560447371897e-05
6.653797648658e-05
8.699952139885e-05
8.906329655567e-05
1.084702771997e-04
1.091727636043e-04
1.295922615611e-04
1.316931642720e-04
1.509501340048e-04
1.517942971649e-04
1.722377699150e-04
1.743193913693e-04
1.936138202076e-04
1.942471096813e-04

SCALARS node_materi_strain_total_size_dev_sd_ept float
LOOKUP_TABLE default
1.348718669356e-05
5.060810391430e-04
1.002442883260e-03
1.002695004356e-03
3.965412636165e-05
9.037051438706e-05
1.370834220321e-04
1.913999479710e-04
2.442101677878e-04
2.956540148275e-04
3.474093695073e-04
3.993700148538e-04
4.512685364781e-04
5.040960615218e-04
5.585933845599e-04
6.102451386312e-04
6.572218119570e-04
7.098623265952e-04
7.636520083305e-04
8.158377614492e-04
8.686255657266e-04
9.219226062041e-04
9.724953756412e-04
1.005391192323e-03
1.003031440867e-03
1.003671189174e-03
1.003691981356e-03
1.001979780478e-03
1.003452420240e-03
1.003600263078e-03
1.003114766720e-03
1.004770249869e-03
1.004707358625e-03
1.002995416827e-03
1.004413378244e-03
1.004996436594e-03
1.004390332162e-03
1.003333226425e-03
1.001836931219e-03
1.001422221860e-03
1.002703206081e-03
1.003917550541e-03
1.004869143569e-03
1.004600539505e-03
1.003979315793e-03
1.003952655878e-03
1.003733105813e-03
1.004202679051e-03
1.004600591705e-03
1.005154266135e-03
1.005057827686e-03
1.004790825202e-03
1.006422351018e-03
1.005950013912e-03
1.003200929681e-03
1.003015450497e-03
1.003873916342e-03
1.004096858099e-03
1.004428028814e-03
1.004499263277e-03
1.003949528772e-03
1.002968216629e-03
1.002174602621e-03
1.003089435033e-03
1.005265627100e-03
1.005879752409e-03
9.994914719320e-04
1.004694375184e-03
1.002818702446e-03
1.004006137752e-03
1.005717988396e-03
1.005558564076e-03
5.579901589707e-04
6.108390089534e-04
6.625413662793e-04
7.132933573138e-04
7.651715674856e-04
8.167136934729e-04
8.682530518197e-04
9.192903930368e-04
9.715466951340e-04
7.084595069827e-06
6.739434634190e-06
5.054128794624e-04
3.469533662919e-05
8.426437473634e-05
1.366006575013e-04
1.877097090331e-04
2.400488026618e-04
2.924286248525e-04
3.448948594365e-04
3.972787436979e-04
4.496749630295e-04
3.686249646453e-05
8.921415126627e-05
1.397812094474e-04
1.913813818632e-04
2.432506738442e-04
2.953545106528e-04
3.474498789436e-04
3.995315852587e-04
4.511788039383e-04
4.984573529329e-04
5.013787719046e-04
5.017272065944e-04
5.010354378392e-04
5.078018552781e-04
5.017724152605e-04
5.009416412013e-04
5.015201864653e-04
5.029429122240e-04
5.027312833992e-04
5.022207559436e-04
5.020616968543e-04
5.019946424513e-04
5.028413280578e-04
1.136365959101e-05
1.317793123728e-05
1.120401260805e-05
1.064010151238e-05
1.331333522313e-05
1.471597736492e-05
1.462317627248e-05
1.426295588945e-05
1.423429808283e-05
1.412945722157e-05
1.459376214819e-05
1.696106155233e-05
1.569972765663e-05
1.308337337133e-05
1.313874046604e-05
1.445101521210e-05
1.479171082022e-05
1.278038390017e-05
1.156608013266e-05
3.376160375093e-06
1.469159853041e-05
1.974654166293e-05
1.819446884149e-05
1.867113715285e-05
1.842282877691e-05
1.850333313608e-05
1.850799532157e-05
1.857050591790e-05
1.860473629427e-05
1.864057762038e-05
1.866460069169e-05
1.868432333131e-05
1.869821675804e-05
1.870761710689e-05
1.871243884328e-05
1.871287629896e-05
1.870899387086e-05
1.870092701475e-05
1.868860068435e-05
1.867147420433e-05
1.864852069877e-05
1.861856523993e-05
1.858134662698e-05
1.854045828892e-05
1.851124830686e-05
1.854865438988e-05
1.910904188661e-05
1.318529282076e-05
3.633517938881e-05
3.806436816115e-05
3.883911333500e-05
3.912181794569e-05
3.928123341888e-05
3.937027400419e-05
3.942291321657e-05
3.945623006296e-05
3.947878044229e-05
3.949477974759e-05
3.950614993837e-05
3.951360452565e-05
3.951717345218e-05
3.951664787588e-05
3.951176306221e-05
3.950293058288e-05
3.948985983153e-05
3.947430552780e-05
3.945326692284e-05
3.943364883149e-05
3.939838082341e-05
3.937567834616e-05
3.929582353395e-05
3.927852645211e-05
3.907154785001e-05
3.908580531337e-05
4.113791791278e-05
3.137917555706e-05
7.793507271903e-05
8.830345424055e-05
8.570131403441e-05
8.603664865445e-05
8.615788891106e-05
8.620912397974e-05
8.622543581565e-05
8.622888253242e-05
8.623338842698e-05
8.623610191678e-05
8.623890556347e-05
8.624149915953e-05
8.624411036972e-05
8.624637456742e-05
8.624847000435e-05
8.624967822649e-05
8.624835224345e-05
8.624247943752e-05
8.622953771334e-05
8.620505817308e-05
8.616038876298e-05
8.607949796667e-05
8.593479133671e-05
8.568646955132e-05
8.535761342501e-05
8.756166777927e-05
1.295473925829e-04
1.404345793998e-04
1.384689382543e-04
1.384631427739e-04
1.385632221773e-04
1.384936841562e-04
1.385044470094e-04
1.384831311494e-04
1.384716809683e-04
1.384577463473e-04
1.384492871759e-04
1.384457694964e-04
1.384499764095e-04
1.384595898361e-04
1.384692119688e-04
1.384741790399e-04
1.384714763376e-04
1.384571452680e-04
1.384251150109e-04
1.383666615978e-04
1.382733691371e-04
1.381506886692e-04
1.380898142529e-04
1.385284578504e-04
1.395003105366e-04
1.911140558823e-04
1.906370079203e-04
1.904912009784e-04
1.905122383982e-04
1.905737823023e-04
1.906294042906e-04
1.906655041641e-04
1.906818921281e-04
1.906844761362e-04
1.906775392645e-04
1.906639667304e-04
1.906446073039e-04
1.906306924514e-04
1.906321419885e-04
1.906552771629e-04
1.906753231735e-04
1.907132596269e-04
1.907135692582e-04
1.907687584434e-04
1.906677566455e-04
1.907397444769e-04
1.929618711775e-04
1.821953971964e-04
2.343796502180e-04
2.449757439045e-04
2.429708053512e-04
2.429087303920e-04
2.430148678214e-04
2.429417557015e-04
2.429195890028e-04
2.428571400778e-04
2.428379415524e-04
2.428551327287e-04
2.428872566733e-04
2.429030874812e-04
2.429116334690e-04
2.429166490222e-04
2.429119596079e-04
2.428877478433e-04
2.428426904364e-04
2.427957397213e-04
2.427786071176e-04
2.428476398145e-04
2.430235557129e-04
2.431863704218e-04
2.952479509755e-04
2.950899218163e-04
2.950074526116e-04
2.949998983311e-04
2.950301661456e-04
2.950776107462e-04
2.951167762266e-04
2.951203155545e-04
2.951083352842e-04
2.951116907156e-04
2.951163001030e-04
2.950941786254e-04
2.950267453291e-04
2.950278577302e-04
2.950892098874e-04
2.952480173535e-04
2.951814176326e-04
2.951476810131e-04
2.974159892346e-04
2.866468655144e-04
3.387509036070e-04
3.496520934630e-04
3.476127974111e-04
3.473973062966e-04
3.472848426049e-04
3.472069861043e-04
3.473442199615e-04
3.473818028355e-04
3.473696718457e-04
3.473137800396e-04
3.473212314221e-04
3.473682549851e-04
3.473210669197e-04
3.472598984993e-04
3.472219940348e-04
3.472097856724e-04
3.472387411841e-04
3.473643516491e-04
3.474394861714e-04
3.997127576218e-04
3.994140961496e-04
3.993350441357e-04
3.993971159022e-04
3.993648831191e-04
3.994455772074e-04
3.995324897390e-04
3.995470512388e-04
3.994082763111e-04
3.995485771979e-04
3.996363622914e-04
3.995832644829e-04
3.995950244226e-04
3.992992326306e-04
3.995517663472e-04
4.021435862918e-04
3.913605048569e-04
4.435365685227e-04
4.541971697969e-04
4.519419396880e-04
4.516897686168e-04
4.518212547392e-04
4.519045342083e-04
4.516745317900e-04
4.516530460709e-04
4.516750229998e-04
4.516292131934e-04
4.515446322404e-04
4.514916901880e-04
4.516379042261e-04
4.514116228433e-04
4.518647414900e-04
4.523895435065e-04
1.547629381639e-05
6.317949355118e-05
1.151135223932e-04
1.675151010403e-04
2.186867590498e-04
2.708309979030e-04
3.233205673596e-04
3.755927317550e-04
4.278826318848e-04
4.805299752833e-04
1.077668512892e-04
9.815164669787e-04
3.111180678570e-05
2.870395889178e-05
9.817877405936e-04
2.134932408074e-04
5.331980192348e-04
9.799542491702e-04
3.130423226970e-04
9.822816812602e-04
4.198534767220e-04
9.848405523100e-04
2.949837262582e-05
9.826592503949e-04
5.260758045619e-04
3.239017055256e-04
6.756961993361e-04
9.803085308681e-04
9.826712675978e-04
9.820891848323e-04
9.775858705609e-04
9.836865548658e-04
5.499279309995e-04
5.502602295506e-04
5.537324034156e-04
7.394319327237e-04
9.819958710101e-04
2.853352435776e-05
3.185172431294e-05
8.403692572478e-04
5.479790331632e-04
1.642006171706e-04
9.736548196658e-04
9.848466077914e-04
9.825543038466e-04
9.779860033377e-04
9.833785071375e-04
3.204463321409e-05
5.483561774359e-04
9.739040657325e-04
8.416523086676e-04
3.228378213639e-05
4.257025189754e-04
9.895934956384e-04
2.672341651045e-04
1.607042039074e-04
3.665941022595e-04
4.722496952178e-04
5.352633368162e-05
6.405096390324e-04
9.907630744724e-04
2.904665878440e-05
9.423736085669e-04
5.504044835053e-04
5.717472521877e-04
5.963934705812e-04
6.212907396262e-04
6.483870495313e-04
6.705613383760e-04
6.433333349410e-04
6.926620891099e-04
6.651388927036e-04
6.981778262437e-04
7.146978369419e-04
6.869305666294e-04
7.366131685717e-04
7.087795776562e-04
6.594129286591e-04
6.811375264600e-04
6.318512570929e-04
6.535144467549e-04
7.028989608373e-04
6.751671870383e-04
6.258254608406e-04
6.473700665070e-04
5.981618460725e-04
6.196503315628e-04
5.703991373605e-04
5.919169269032e-04
6.412303520625e-04
6.134514535963e-04
5.641797071172e-04
5.856808481918e-04
5.364461920444e-04
5.577977637734e-04
6.072015489152e-04
5.793070402324e-04
5.296673512990e-04
5.513493053975e-04
5.014789701000e-04
5.233998758778e-04
4.732338755897e-04
4.951579019703e-04
5.452366722423e-04
5.170639326140e-04
4.667768070571e-04
4.886250333519e-04
5.390237743865e-04
5.105163377997e-04
5.610191738211e-04
5.324821115413e-04
4.821829095576e-04
5.040437815830e-04
5.544289757871e-04
5.258081713621e-04
4.756411225661e-04
4.973684578584e-04
5.477145175223e-04
5.191524765791e-04
4.689703050606e-04
4.906946803652e-04
5.412833828249e-04
5.125056704662e-04
4.620836200568e-04
4.837144740842e-04
5.346227491038e-04
5.055141224361e-04
5.568208685428e-04
4.544483848774e-04
4.762311824514e-04
4.248924247431e-04
4.468871340031e-04
6.288517837122e-04
3.953751159976e-04
3.740454035924e-04
4.175645703215e-04
4.693641475461e-04
3.658659591918e-04
3.882406067805e-04
3.364927520383e-04
4.504785485493e-04
7.247134543800e-04
3.590011144606e-04
3.072258279716e-04
2.846917241468e-04
2.553687284643e-04
6.757326702290e-04
7.263398695219e-04
7.023460955676e-04
7.544248001681e-04
7.313064842627e-04
2.778477990341e-04
7.649530067978e-04
7.772466620414e-04
5.767958185590e-04
5.150382362939e-04
5.895895452801e-04
4.107400972244e-04
3.816308607895e-04
4.335365557182e-04
5.859393421513e-04
6.083057547004e-04
6.374432992259e-04
6.598741173729e-04
6.890432177655e-04
7.115159698900e-04
6.823002079896e-04
7.339878153582e-04
7.047299990383e-04
7.406986983399e-04
7.181182423201e-04
7.564233810719e-04
7.271561399352e-04
7.788514456841e-04
7.495728738951e-04
6.978060533437e-04
7.201883980233e-04
6.686303581998e-04
6.116826995167e-04
6.403589258331e-04
6.624844060492e-04
6.912537664364e-04
7.134281780559e-04
7.422550304127e-04
7.643962844721e-04
7.356108444009e-04
7.583761713335e-04
4.383410620006e-04
4.165159412107e-04
3.881547278941e-04
3.663846934775e-04
3.380403012681e-04
3.163958399764e-04
2.878727030913e-04
3.095419928702e-04
2.591186309208e-04
2.808858156206e-04
2.302353354405e-04
2.520094719793e-04
6.628515877021e-04
7.199763234026e-04
7.710777971653e-04
7.483492122989e-04
2.329139490426e-04
7.719997300789e-04
7.698520639543e-04
7.470039518982e-04
7.867496723628e-04
2.265019885891e-04
2.665839201359e-04
2.947172578205e-04
7.825273232134e-04
7.593471334689e-04
7.989956659313e-04
2.488151541425e-04
7.857234324546e-04
2.087210010113e-04
7.425815625259e-04
7.944205022180e-04
6.531411168724e-04
7.997448904569e-04
7.764461259465e-04
3.030577452494e-04
2.743382595486e-04
2.243503255895e-04
2.471444118323e-04
2.968738802364e-04
2.675876119100e-04
2.170637034704e-04
2.382819712357e-04
2.893224160527e-04
2.599855178855e-04
2.084537924115e-04
2.303636837871e-04
8.237437155374e-04
1.794698757044e-04
6.102774051874e-04
8.215328575683e-04
8.149925649966e-04
8.107483417829e-04
7.876291095338e-04
7.359471446171e-04
7.645479832836e-04
8.162207795058e-04
7.930928365712e-04
7.413404995085e-04
7.697338300031e-04
7.178328747396e-04
7.462987241513e-04
7.981631218157e-04
7.748633332862e-04
7.230091564948e-04
7.514980991065e-04
6.995641479694e-04
7.277192086499e-04
7.800119702732e-04
1.986325622738e-04
7.579082258348e-04
8.096213372182e-04
4.060562330829e-04
4.556930008902e-04
4.852805677025e-04
5.082123984495e-04
7.559736103086e-04
8.087241024925e-04
2.453914321625e-04
2.731599938505e-04
8.337779755397e-04
7.652374678136e-04
7.134357214352e-04
4.873230576990e-04
4.658999069898e-04
4.379800222093e-04
4.158450337917e-04
4.445120387442e-04
3.872731857142e-04
6.950271914097e-04
8.267700940879e-04
2.624573929136e-04
2.107621713036e-04
8.172242171315e-04
7.066737300898e-04
6.907350837240e-04
7.125113080116e-04
7.406180608941e-04
7.625050662773e-04
7.908352650109e-04
8.126705325190e-04
7.846040827126e-04
8.280613279285e-04
8.349317974499e-04
7.028687551629e-04
6.970424004804e-04
3.113902684020e-04
1.760241509928e-04
1.777929090994e-04
2.191078410829e-04
2.711105838647e-04
8.508010375587e-04
8.412036470124e-04
8.188287676326e-04
3.949798962325e-04
4.235801269917e-04
8.507564223099e-04
6.796558761865e-04
6.895761867701e-04
6.657701575639e-04
1.627980237907e-04
1.576625861030e-04
8.448197872104e-04
3.224105669741e-04
3.008747957398e-04
1.579365251867e-04
1.285693899670e-04
7.836096616971e-04
8.358559424596e-04
5.369815035948e-04
5.599385378637e-04
8.282698600691e-04
2.007962040986e-04
8.607183496032e-04
7.291120920337e-04
6.777433224082e-04
4.781427755203e-04
2.246049040735e-04
1.968144513603e-04
3.404795879406e-04
2.524758580391e-04
2.414588103823e-04
8.800512109104e-04
8.675244046689e-04
8.069739535309e-04
7.563713188481e-04
8.573799052095e-04
1.490083730315e-04
8.740546875311e-04
7.882891309479e-04
8.675913620857e-04
8.467614239138e-04
3.499628401948e-04
3.292542855482e-04
2.801995743030e-04
3.087438904966e-04
6.160413417292e-04
3.785081031748e-04
5.828244028050e-04
5.613777547166e-04
5.343056088938e-04
4.722913295833e-04
4.514537877472e-04
3.944017308115e-04
6.180464434578e-04
5.145306318243e-04
6.463061018149e-04
6.149093386342e-04
8.497535079000e-04
8.787410786015e-04
6.710538853857e-04
6.469992698835e-04
1.810025622110e-04
1.592465281111e-04
5.791760689907e-04
8.439424831837e-04
8.616443746535e-04
8.846453742609e-04
8.563826417122e-04
8.568458982189e-04
4.100064669897e-04
6.337106855812e-04
1.508938591643e-04
6.566477551713e-04
1.298762592963e-04
7.523630788319e-04
8.402211741856e-04
8.688194501208e-04
8.786065193627e-04
5.463057875975e-04
6.785044461343e-04
6.507728300299e-04
5.131038613197e-04
4.863837401915e-04
5.071332143959e-04
4.592911357269e-04
3.621297686053e-04
3.329047197940e-04
8.953293634437e-04
8.845499191585e-04
8.958820927413e-04
8.756517936151e-04
9.009346809631e-04
8.726607103307e-04
2.922735101199e-04
4.033240470653e-04
8.959055331897e-04
5.397833064177e-04
8.951532688702e-04
8.665781122265e-04
9.968184927767e-05
1.202767727745e-04
8.888269445000e-04
2.594124887802e-04
2.866809824717e-04
2.315206415161e-04
9.461756465152e-04
5.463634143583e-04
8.919895072448e-04
5.002521763550e-04
9.135681708067e-04
7.010086306132e-04
4.585199148671e-04
8.053106969278e-04
8.609666521071e-04
9.184644373101e-04
6.373611280954e-04
6.123059066077e-04
6.598813748332e-04
1.872849486049e-04
1.325257858268e-04
8.552763421073e-04
3.528632111913e-04
3.812422718613e-04
2.215701778989e-04
2.728647985234e-04
5.660919513669e-04
5.436800585661e-04
7.745446413718e-04
8.023574605444e-04
7.186616452822e-04
7.002585400539e-04
6.489267966710e-04
6.268483920900e-04
9.004940592540e-04
9.350644746975e-04
3.908919640243e-04
3.692546347811e-04
3.830590438877e-04
9.187421375071e-04
9.200474723113e-04
8.974901138006e-04
1.088238780967e-04
1.373514015493e-04
1.766605154633e-04
1.493383678590e-04
9.061710337287e-04
8.794665345247e-04
9.386458623004e-04
2.591496665161e-04
7.793769583849e-04
9.065963354147e-04
8.841704148095e-04
9.363640530309e-04
8.551893181186e-04
9.047028400159e-04
9.073759726599e-04
7.920656262545e-05
9.001712994002e-04
6.163134204361e-04
5.774056746947e-05
5.926132503300e-04
6.228616481264e-04
5.660444791484e-04
2.082363711600e-04
5.999839557807e-04
6.312827513510e-04
7.760402493413e-05
9.464405350322e-04
8.294197546618e-05
1.022299047465e-04
9.177715358065e-04
8.885729503437e-04
9.386697241396e-04
9.091924671980e-04
8.591627389707e-04
8.823913267224e-04
5.868532010294e-04
9.392968458043e-04
9.061735434289e-04
9.637276876729e-04
4.395381674970e-04
3.362809552358e-04
3.151270765354e-04
2.647749042000e-04
9.323497695915e-04
9.012425612101e-04
8.127835408646e-04
7.604170073261e-04
5.960397135052e-04
5.932072237141e-04
6.405272243293e-04
6.341932387919e-04
6.817554584779e-04
6.742291457212e-04
7.226199841999e-04
9.363863211678e-04
2.099160635815e-04
4.922326888676e-04
9.226736419813e-04
8.913394535407e-04
4.309456509825e-04
3.842751669368e-04
9.320895991242e-04
3.995305938196e-04
9.761609741084e-04
2.675854739617e-05
7.223189014813e-05
4.282726957609e-04
4.795047273739e-04
3.645913151757e-04
3.462558138334e-04
7.524479649096e-04
1.166538716924e-04
2.041872418617e-04
7.283696012415e-04
1.558257548121e-04
7.876920065328e-04
4.223877079516e-04
5.212517170655e-04
2.523116671348e-04
3.587787191930e-04
6.376861350118e-04
5.944827162148e-04
5.673726209707e-04
4.448161166120e-04
3.751422934928e-04
3.223369407938e-04
6.042793973490e-04
8.282991995724e-04
8.509587073578e-04
9.001770065351e-04
8.733515235309e-04
8.228294593854e-04
8.451107487340e-04
8.956698259364e-04
8.687134864298e-04
9.280253627665e-04
8.907834776387e-04
8.386862341545e-04
8.598964619585e-04
9.077701104502e-04
8.089231753191e-04
9.503937494472e-04
4.792377223684e-04
1.060661764780e-04
1.006601953764e-04
5.491576833701e-04
9.794843423025e-04
9.811669179023e-04
3.443813317759e-04
9.818450814950e-04
5.886779206557e-04
2.378263419452e-04
9.823779289652e-04
8.000222036073e-04
7.713523454219e-04
7.488041300356e-04
9.838330710940e-04
6.839957462352e-04
9.842246941556e-04
6.689369128173e-04
6.460531395841e-04
5.954520757156e-04
8.161887656319e-04
9.813558660762e-04
9.393339401310e-04
9.390849650260e-04
8.933900212929e-04
9.818228007969e-04
9.841485451981e-04
9.855400962435e-04
3.185762753164e-04
3.475877043486e-04
3.977942296687e-04
3.760014900687e-04
3.253945383010e-04
3.538472890870e-04
4.040724897001e-04
3.315358640358e-04
8.525418743556e-04
9.836675367052e-04
6.664271499022e-04
6.434024912494e-04
5.922180263695e-04
4.920230678331e-04
5.211550936676e-04
5.727426830329e-04
4.628412549146e-04
7.343270056838e-04
9.831173586752e-04
6.556936757602e-04
4.985523159489e-04
5.494928080910e-04
5.945521996027e-04
5.952900467329e-04
6.438025756016e-04
5.991581153873e-04
5.886708397639e-04
6.112385750313e-04
5.827541944629e-04
6.336706098070e-04
6.039918803054e-04
5.565493986588e-04
6.550343123609e-04
6.221893041218e-04
5.487416809715e-04
3.166288146258e-05
7.183915183775e-05
7.058576472763e-05
1.134836820370e-04
1.170280184062e-04
1.624965114835e-04
1.562836621526e-04
7.187761245199e-05
3.155712425466e-05
7.052266531025e-05
3.108018857665e-05
6.916088739315e-05
1.194576746354e-04
1.899698750036e-04
9.756164934389e-04
4.773950448222e-04
4.525757814565e-04
4.021975196619e-04
4.294668340100e-04
4.983242040576e-04
3.746354744860e-04
3.560516750095e-04
3.134264675104e-05
7.081715264287e-05
6.745877529909e-05
1.158494959513e-04
1.142170061281e-04
7.114987538593e-05
7.141845503349e-05
3.110825105490e-05
7.093342646021e-05
1.162134664458e-04
2.947523759552e-05
7.914489891622e-04
8.199011903496e-04
9.804643874675e-04
5.544278135109e-04
3.171309818616e-05
9.737485400274e-04
9.819223863886e-04
9.827626066266e-04
8.937875724285e-04
9.195774452929e-04
9.753409087930e-04
3.140652500831e-04
9.220362921423e-04
8.838705372926e-04
2.172353289961e-04
3.033371771036e-04
7.363475029505e-04
6.755167937584e-04
8.461087339158e-04
6.910562254868e-04
8.013120198720e-04
9.358811577814e-04
1.907574947738e-04
6.941910761761e-04
6.755909483326e-04
8.034595411681e-04
3.298701590409e-04
5.330162195821e-04
2.040017308999e-04
9.412074128655e-04
5.555038295908e-04
5.635657367984e-04
4.401145316128e-04
3.439409479161e-04
2.820618157094e-04
5.083053784993e-04
5.276883450402e-04
7.632074592093e-04
8.321485174625e-04
3.781702155447e-05
7.923554428234e-04
6.307045030004e-04
7.128800782044e-04
7.932316602511e-04
1.884631947194e-04
8.215203980899e-04
9.106177474021e-04
6.552766198474e-04
1.522879236907e-04
6.415886448119e-04
9.024538567126e-04
8.054896436913e-04
3.004524004575e-04
5.830315266647e-04
5.426852817774e-04
4.984404549149e-04
9.059135585381e-04
6.009572388991e-04
8.382456566697e-04
6.845727675974e-04
3.235428859934e-04
8.374592525769e-04
5.674328828445e-04
8.731833837389e-04
7.686984145383e-04
4.602241395587e-04
8.389147388307e-04
5.697358987844e-04
8.221616255094e-04
5.280947838112e-04
6.690011313248e-04
7.304770319479e-04
6.350308110205e-04
7.077594189446e-04
8.149786464546e-04
2.016024562134e-04
4.088087457422e-04
7.075998616375e-04
8.618842517754e-04
9.240990768807e-04
4.936210770217e-04
8.080200955659e-04
8.892041459072e-04
5.501608629254e-04
2.217250324039e-04
1.693881014116e-04
3.598170280288e-04
5.731527217627e-04
6.016659038215e-04
9.347886051196e-04
8.303382135320e-04
7.760505862720e-04
8.143473941774e-05
5.189455298592e-04
8.529416782294e-04
6.049826389500e-04
8.434361112702e-04
5.730107725374e-04
9.399895577190e-04
4.119880708036e-04
8.765774066318e-04
7.814270233948e-04
3.720040875490e-04
5.479899318713e-04
9.356297356479e-04
8.337923423946e-04
6.845234066678e-04
5.762767043459e-04
4.456361035923e-04
6.240997690930e-04
6.968054210365e-04
9.845714781927e-04
8.603233949947e-04
7.202450838660e-04
5.950593241097e-04
7.245264159258e-04
1.141796631092e-04
4.659946124011e-04
6.174310101776e-04
3.819028715269e-04
5.982116765397e-04
9.278539477027e-04
6.399143934449e-04
4.320600758945e-04
6.623440242164e-04
3.929274390524e-04
7.428319249024e-04
6.845587075999e-04
7.465683341376e-04
1.206980304927e-04
7.062617402337e-04
8.656361194755e-04
4.037265216787e-04
6.204678427865e-04
7.939944601613e-04
3.396039892674e-04
6.716889828262e-04
7.967298735189e-04
7.285545258126e-04
6.231871853147e-04
7.236253888460e-04
3.574409392018e-04
2.926209360534e-04
2.415704818435e-04
4.539728981958e-04
8.249204042462e-04
1.586486827680e-04
7.871343175484e-04
1.691758527530e-04
4.258953533920e-04
8.042388825060e-04
6.907783368256e-04
4.474978690603e-04
2.731256774512e-04
4.192285746336e-04
6.735154686722e-04
4.407257618480e-04
4.121505141874e-04
9.350707149806e-04
4.332335744713e-04
9.836254231917e-04
9.785155562255e-04
5.877429912575e-04
2.846175221582e-04
3.295803433874e-05
3.025620424155e-04
3.535330863345e-04
7.801311308915e-04
5.896478700496e-04
3.235001020303e-04
9.403885991862e-04
9.841385590133e-04
7.661639140958e-04
8.638108924240e-04
7.524566294815e-04
8.893407443790e-04
5.441376613296e-04
6.912297170483e-05
7.344365245140e-04
2.304448227794e-04
2.367533615912e-04
1.826031352408e-04
3.420489560940e-04
1.120762389624e-04
1.870967743072e-04
9.362923708716e-04
5.905420399266e-04
8.302669852972e-04
1.337435857014e-04
9.384997568177e-04
9.379571091991e-04
9.844178372106e-04
8.817579301272e-04
1.288239989607e-04
6.338194763080e-04
9.409890686101e-04
8.069165258583e-04
9.868179753991e-04
5.841237345349e-04
9.418686265254e-04
1.748792910947e-04
9.424577068641e-04
8.307366554303e-04
6.531065265252e-04
6.312867604658e-04
9.441863077337e-04
9.402658762809e-04
1.007082704686e-04
7.629377080738e-04
4.301449895173e-04
6.475767342322e-05
9.398905230193e-04
8.790386600364e-04
9.415425229784e-04
1.141612864009e-04
6.521462263449e-05
9.477310279306e-04
9.458834038205e-04
1.991224566656e-04
9.914608081432e-04
6.185508624630e-05
5.384064520297e-04
6.695634515077e-05
9.856965877254e-04
9.442486107652e-04
4.751389941292e-04
5.512829517181e-04
3.083230946049e-04
9.041071899493e-04
1.038446106945e-04
9.493279502722e-04
9.500451600606e-04
9.493749164639e-04
9.938353116728e-04
6.146707476979e-05
9.513534876636e-04
9.032584066870e-04
5.438467730221e-04
9.420878490559e-04
3.831860207829e-04
1.556125273779e-04
9.889726621953e-04
2.424690459473e-05
5.410491830559e-04
9.897466611764e-04
1.476192801950e-04
6.256610545488e-04
9.481519697413e-04
5.867606398592e-04
8.595163898859e-04
1.454157275184e-04
2.509166245462e-05
7.180118917449e-04
9.473166868699e-04
9.523028680508e-04
6.817486156003e-04
1.311814418323e-04
9.181226410961e-04
5.138633367194e-04
9.092242818285e-04
9.048301803368e-04
2.754770548125e-05
6.320178508826e-04
6.289069026788e-05
9.512935729431e-04
5.366997816944e-04
9.678133354273e-06
1.238561604925e-05
5.489336999193e-05
6.135176460620e-05
1.071400354792e-04
1.156673967777e-04
1.586321184795e-04
1.638449427727e-04
2.106956062386e-04
2.186584653634e-04
2.628849417252e-04
2.677498585196e-04
3.154415114639e-04
3.228013933212e-04
3.678557906008e-04
3.720543203817e-04
4.201344716655e-04
4.270934884623e-04
4.726107733533e-04
4.765325745870e-04


CELL_DATA 2424

SCALARS element_number int
LOOKUP_TABLE default
407
408
409
410
411
412
413
414
415
416
417
418
419
420
421
422
423
424
425
426
427
428
429
430
431
432
433
434
435
436
437
438
439
440
441
442
443
444
445
446
447
448
449
450
451
452
453
454
455
456
457
458
459
460
461
462
463
464
465
466
467
468
469
470
471
472
473
474
475
476
477
478
479
480
481
482
483
484
485
486
487
488
489
490
491
492
493
494
495
496
497
498
499
500
501
502
503
504
505
506
507
508
509
510
511
512
513
514
515
516
517
518
519
520
521
522
523
524
525
526
527
528
529
530
531
532
533
534
535
536
537
538
539
540
541
542
543
544
545
546
547
548
549
550
551
552
553
554
555
556
557
558
559
560
561
562
563
564
565
566
567
568
569
570
571
572
573
574
575
576
577
578
579
580
581
582
583
584
585
586
587
588
589
590
591
592
593
594
595
596
597
598
599
600
601
602
603
604
605
606
607
608
609
610
611
612
613
614
615
616
617
618
619
620
621
622
623
624
625
626
627
628
629
630
631
632
633
634
635
636
637
638
639
640
641
642
643
644
645
646
647
648
649
650
651
652
653
654
655
656
657
658
659
660
661
662
663
664
665
666
667
668
669
670
671
672
673
674
675
676
677
678
679
680
681
682
683
684
685
686
687
688
689
690
691
692
693
694
695
696
697
698
699
700
701
702
703
704
705
706
707
708
709
710
711
712
713
714
715
716
717
718
719
720
721
722
723
724
725
726
727
728
729
730
731
732
733
734
735
736
737
738
739
740
741
742
743
744
745
746
747
748
749
750
751
752
753
754
755
756
757
758
759
760
761
762
763
764
765
766
767
768
769
770
771
772
773
774
775
776
777
778
779
780
781
782
783
784
785
786
787
788
789
790
791
792
793
794
795
796
797
798
799
800
801
802
803
804
805
806
807
808
809
810
811
812
813
814
815
816
817
818
819
820
821
822
823
824
825
826
827
828
829
830
831
832
833
834
835
836
837
838
839
840
841
842
843
844
845
846
847
848
849
850
851
852
853
854
855
856
857
858
859
860
861
862
863
864
865
866
867
868
869
870
871
872
873
874
875
876
877
878
879
880
881
882
883
884
885
886
887
888
889
890
891
892
893
894
895
896
897
898
899
900
901
902
903
904
905
906
907
908
909
910
911
912
913
914
915
916
917
918
919
920
921
922
923
924
925
926
927
928
929
930
931
932
933
934
935
936
937
938
939
940
941
942
943
944
945
946
947
948
949
950
951
952
953
954
955
956
957
958
959
960
961
962
963
964
965
966
967
968
969
970
971
972
973
974
975
976
977
978
979
980
981
982
983
984
985
986
987
988
989
990
991
992
993
994
995
996
997
998
999
1000
1001
1002
1003
1004
1005
1006
1007
1008
1009
1010
1011
1012
1013
1014
1015
1016
1017
1018
1019
1020
1021
1022
1023
1024
1025
1026
1027
1028
1029
1030
1031
1032
1033
1034
1035
1036
1037
1038
1039
1040
1041
1042
1043
1044
1045
1046
1047
1048
1049
1050
1051
1052
1053
1054
1055
1056
1057
1058
1059
1060
1061
1062
1063
1064
1065
1066
1067
1068
1069
1070
1071
1072
1073
1074
1075
1076
1077
1078
1079
1080
1081
1082
1083
1084
1085
1086
1087
1088
1089
1090
1091
1092
1093
1094
1095
1096
1097
1098
1099
1100
1101
1102
1103
1104
1105
1106
1107
1108
1109
1110
1111
1112
1113
1114
1115
1116
1117
1118
1119
1120
1121
1122
1123
1124
1125
1126
1127
1128
1129
1130
1131
1132
1133
1134
1135
1136
1137
1138
1139
1140
1141
1142
1143
1144
1145
1146
1147
1148
1149
1150
1151
1152
1153
1154
1155
1156
1157
1158
1159
1160
1161
1162
1163
1164
1165
1166
1167
1168
1169
1170
1171
1172
1173
1174
1175
1176
1177
1178
1179
1180
1181
1182
1183
1184
1185
1186
1187
1188
1189
1190
1191
1192
1193
1194
1195
1196
1197
1198
1199
1200
1201
1202
1203
1204
1205
1206
1207
1208
1209
1210
1211
1212
1213
1214
1215
1216
1217
1218
1219
1220
1221
1222
1223
1224
1225
1226
1227
1228
1229
1230
1231
1232
1233
1234
1235
1236
1237
1238
1239
1240
1241
1242
1243
1244
1245
1246
1247
1248
1249
1250
1251
1252
1253
1254
1255
1256
1257
1258
1259
1260
1261
1262
1263
1264
1265
1266
1267
1268
1269
1270
1271
1272
1273
1274
1275
1276
1277
1278
1279
1280
1281
1282
1283
1284
1285
1286
1287
1288
1289
1290
1291
1292
1293
1294
1295
1296
1297
1298
1299
1300
1301
1302
1303
1304
1305
1306
1307
1308
1309
1310
1311
1312
1313
1314
1315
1316
1317
1318
1319
1320
1321
1322
1323
1324
1325
1326
1327
1328
1329
1330
1331
1332
1333
1334
1335
1336
1337
1338
1339
1340
1341
1342
1343
1344
1345
1346
1347
1348
1349
1350
1351
1352
1353
1354
1355
1356
1357
1358
1359
1360
1361
1362
1363
1364
1365
1366
1367
1368
1369
1370
1371
1372
1373
1374
1375
1376
1377
1378
1379
1380
1381
1382
1383
1384
1385
1386
1387
1388
1389
1390
1391
1392
1393
1394
1395
1396
1397
1398
1399
1400
1401
1402
1403
1404
1405
1406
1407
1408
1409
1410
1411
1412
1413
1414
1415
1416
1417
1418
1419
1420
1421
1422
1423
1424
1425
1426
1427
1428
1429
1430
1431
1432
1433
1434
1435
1436
1437
1438
1439
1440
1441
1442
1443
1444
1445
1446
1447
1448
1449
1450
1451
1452
1453
1454
1455
1456
1457
1458
1459
1460
1461
1462
1463
1464
1465
1466
1467
1468
1469
1470
1471
1472
1473
1474
1475
1476
1477
1478
1479
1480
1481
1482
1483
1484
1485
1486
1487
1488
1489
1490
1491
1492
1493
1494
1495
1496
1497
1498
1499
1500
1501
1502
1503
1504
1505
1506
1507
1508
1509
1510
1511
1512
1513
1514
1515
1516
1517
1518
1519
1520
1521
1522
1523
1524
1525
1526
1527
1528
1529
1530
1531
1532
1533
1534
1535
1536
1537
1538
1539
1540
1541
1542
1543
1544
1545
1546
1547
1548
1549
1550
1551
1552
1553
1554
1555
1556
1557
1558
1559
1560
1561
1562
1563
1564
1565
1566
1567
1568
1569
1570
1571
1572
1573
1574
1575
1576
1577
1578
1579
1580
1581
1582
1583
1584
1585
1586
1587
1588
1589
1590
1591
1592
1593
1594
1595
1596
1597
1598
1599
1600
1601
1602
1603
1604
1605
1606
1607
1608
1609
1610
1611
1612
1613
1614
1615
1616
1617
1618
1619
1620
1621
1622
1623
1624
1625
1626
1627
1628
1629
1630
1631
1632
1633
1634
1635
1636
1637
1638
1639
1640
1641
1642
1643
1644
1645
1646
1647
1648
1649
1650
1651
1652
1653
1654
1655
1656
1657
1658
1659
1660
1661
1662
1663
1664
1665
1666
1667
1668
1669
1670
1671
1672
1673
1674
1675
1676
1677
1678
1679
1680
1681
1682
1683
1684
1685
1686
1687
1688
1689
1690
1691
1692
1693
1694
1695
1696
1697
1698
1699
1700
1701
1702
1703
1704
1705
1706
1707
1708
1709
1710
1711
1712
1713
1714
1715
1716
1717
1718
1719
1720
1721
1722
1723
1724
1725
1726
1727
1728
1729
1730
1731
1732
1733
1734
1735
1736
1737
1738
1739
1740
1741
1742
1743
1744
1745
1746
1747
1748
1749
1750
1751
1752
1753
1754
1755
1756
1757
1758
1759
1760
1761
1762
1763
1764
1765
1766
1767
1768
1769
1770
1771
1772
1773
1774
1775
1776
1777
1778
1779
1780
1781
1782
1783
1784
1785
1786
1787
1788
1789
1790
1791
1792
1793
1794
1795
1796
1797
1798
1799
1800
1801
1802
1803
1804
1805
1806
1807
1808
1809
1810
1811
1812
1813
1814
1815
1816
1817
1818
1819
1820
1821
1822
1823
1824
1825
1826
1827
1828
1829
1830
1831
1832
1833
1834
1835
1836
1837
1838
1839
1840
1841
1842
1843
1844
1845
1846
1847
1848
1849
1850
1851
1852
1853
1854
1855
1856
1857
1858
1859
1860
1861
1862
1863
1864
1865
1866
1867
1868
1869
1870
1871
1872
1873
1874
1875
1876
1877
1878
1879
1880
1881
1882
1883
1884
1885
1886
1887
1888
1889
1890
1891
1892
1893
1894
1895
1896
1897
1898
1899
1900
1901
1902
1903
1904
1905
1906
1907
1908
1909
1910
1911
1912
1913
1914
1915
1916
1917
1918
1919
1920
1921
1922
1923
1924
1925
1926
1927
1928
1929
1930
1931
1932
1933
1934
1935
1936
1937
1938
1939
1940
1941
1942
1943
1944
1945
1946
1947
1948
1949
1950
1951
1952
1953
1954
1955
1956
1957
1958
1959
1960
1961
1962
1963
1964
1965
1966
1967
1968
1969
1970
1971
1972
1973
1974
1975
1976
1977
1978
1979
1980
1981
1982
1983
1984
1985
1986
1987
1988
1989
1990
1991
1992
1993
1994
1995
1996
1997
1998
1999
2000
2001
2002
2003
2004
2005
2006
2007
2008
2009
2010
2011
2012
2013
2014
2015
2016
2017
2018
2019
2020
2021
2022
2023
2024
2025
2026
2027
2028
2029
2030
2031
2032
2033
2034
2035
2036
2037
2038
2039
2040
2041
2042
2043
2044
2045
2046
2047
2048
2049
2050
2051
2052
2053
2054
2055
2056
2057
2058
2059
2060
2061
2062
2063
2064
2065
2066
2067
2068
2069
2070
2071
2072
2073
2074
2075
2076
2077
2078
2079
2080
2081
2082
2083
2084
2085
2086
2087
2088
2089
2090
2091
2092
2093
2094
2095
2096
2097
2098
2099
2100
2101
2102
2103
2104
2105
2106
2107
2108
2109
2110
2111
2112
2113
2114
2115
2116
2117
2118
2119
2120
2121
2122
2123
2124
2125
2126
2127
2128
2129
2130
2131
2132
2133
2134
2135
2136
2137
2138
2139
2140
2141
2142
2143
2144
2145
2146
2147
2148
2149
2150
2151
2152
2153
2154
2155
2156
2157
2158
2159
2160
2161
2162
2163
2164
2165
2166
2167
2168
2169
2170
2171
2172
2173
2174
2175
2176
2177
2178
2179
2180
2181
2182
2183
2184
2185
2186
2187
2188
2189
2190
2191
2192
2193
2194
2195
2196
2197
2198
2199
2200
2201
2202
2203
2204
2205
2206
2207
2208
2209
2210
2211
2212
2213
2214
2215
2216
2217
2218
2219
2220
2221
2222
2223
2224
2225
2226
2227
2228
2229
2230
2231
2232
2233
2234
2235
2236
2237
2238
2239
2240
2241
2242
2243
2244
2245
2246
2247
2248
2249
2250
2251
2252
2253
2254
2255
2256
2257
2258
2259
2260
2261
2262
2263
2264
2265
2266
2267
2268
2269
2270
2271
2272
2273
2274
2275
2276
2277
2278
2279
2280
2281
2282
2283
2284
2285
2286
2287
2288
2289
2290
2291
2292
2293
2294
2295
2296
2297
2298
2299
2300
2301
2302
2303
2304
2305
2306
2307
2308
2309
2310
2311
2312
2313
2314
2315
2316
2317
2318
2319
2320
2321
2322
2323
2324
2325
2326
2327
2328
2329
2330
2331
2332
2333
2334
2335
2336
2337
2338
2339
2340
2341
2342
2343
2344
2345
2346
2347
2348
2349
2350
2351
2352
2353
2354
2355
2356
2357
2358
2359
2360
2361
2362
2363
2364
2365
2366
2367
2368
2369
2370
2371
2372
2373
2374
2375
2376
2377
2378
2379
2380
2381
2382
2383
2384
2385
2386
2387
2388
2389
2390
2391
2392
2393
2394
2395
2396
2397
2398
2399
2400
2401
2402
2403
2404
2405
2406
2407
2408
2409
2410
2411
2412
2413
2414
2415
2416
2417
2418
2419
2420
2421
2422
2423
2424
2425
2426
2427
2428
2429
2430
2431
2432
2433
2434
2435
2436
2437
2438
2439
2440
2441
2442
2443
2444
2445
2446
2447
2448
2449
2450
2451
2452
2453
2454
2455
2456
2457
2458
2459
2460
2461
2462
2463
2464
2465
2466
2467
2468
2469
2470
2471
2472
2473
2474
2475
2476
2477
2478
2479
2480
2481
2482
2483
2484
2485
2486
2487
2488
2489
2490
2491
2492
2493
2494
2495
2496
2497
2498
2499
2500
2501
2502
2503
2504
2505
2506
2507
2508
2509
2510
2511
2512
2513
2514
2515
2516
2517
2518
2519
2520
2521
2522
2523
2524
2525
2526
2527
2528
2529
2530
2531
2532
2533
2534
2535
2536
2537
2538
2539
2540
2541
2542
2543
2544
2545
2546
2547
2548
2549
2550
2551
2552
2553
2554
2555
2556
2557
2558
2559
2560
2561
2562
2563
2564
2565
2566
2567
2568
2569
2570
2571
2572
2573
2574
2575
2576
2577
2578
2579
2580
2581
2582
2583
2584
2585
2586
2587
2588
2589
2590
2591
2592
2593
2594
2595
2596
2597
2598
2599
2600
2601
2602
2603
2604
2605
2606
2607
2608
2609
2610
2611
2612
2613
2614
2615
2616
2617
2618
2619
2620
2621
2622
2623
2624
2625
2626
2627
2628
2629
2630
2631
2632
2633
2634
2635
2636
2637
2638
2639
2640
2641
2642
2643
2644
2645
2646
2647
2648
2649
2650
2651
2652
2653
2654
2655
2656
2657
2658
2659
2660
2661
2662
2663
2664
2665
2666
2667
2668
2669
2670
2671
2672
2673
2674
2675
2676
2677
2678
2679
2680
2681
2682
2683
2684
2685
2686
2687
2688
2689
2690
2691
2692
2693
2694
2695
2696
2697
2698
2699
2700
2701
2702
2703
2704
2705
2706
2707
2708
2709
2710
2711
2712
2713
2714
2715
2716
2717
2718
2719
2720
2721
2722
2723
2724
2725
2726
2727
2728
2729
2730
2731
2732
2733
2734
2735
2736
2737
2738
2739
2740
2741
2742
2743
2744
2745
2746
2747
2748
2749
2750
2751
2752
2753
2754
2755
2756
2757
2758
2759
2760
2761
2762
2763
2764
2765
2766
2767
2768
2769
2770
2771
2772
2773
2774
2775
2776
2777
2778
2779
2780
2781
2782
2783
2784
2785
2786
2787
2788
2789
2790
2791
2792
2793
2794
2795
2796
2797
2798
2799
2800
2801
2802
2803
2804
2805
2806
2807
2808
2809
2810
2811
2812
2813
2814
2815
2816
2817
2818
2819
2820
2821
2822
2823
2824
2825
2826
2827
2828
2829
2830

SCALARS element_group int
LOOKUP_TABLE default
0
0
0
0
0
0
0
0
0
0
0
0
0
0
0
0
0
0
0
0
0
0
0
0
0
0
0
0
0
0
0
0
0
0
0
0
0
0
0
0
0
0
0
0
0
0
0
0
0
0
0
0
0
0
0
0
0
0
0
0
0
0
0
0
0
0
0
0
0
0
0
0
0
0
0
0
0
0
0
0
0
0
0
0
0
0
0
0
0
0
0
0
0
0
0
0
0
0
0
0
0
0
0
0
0
0
0
0
0
0
0
0
0
0
0
0
0
0
0
0
0
0
0
0
0
0
0
0
0
0
0
0
0
0
0
0
0
0
0
0
0
0
0
0
0
0
0
0
0
0
0
0
0
0
0
0
0
0
0
0
0
0
0
0
0
0
0
0
0
0
0
0
0
0
0
0
0
0
0
0
0
0
0
0
0
0
0
0
0
0
0
0
0
0
0
0
0
0
0
0
0
0
0
0
0
0
0
0
0
0
0
0
0
0
0
0
0
0
0
0
0
0
0
0
0
0
0
0
0
0
0
0
0
0
0
0
0
0
0
0
0
0
0
0
0
0
0
0
0
0
0
0
0
0
0
0
0
0
0
0
0
0
0
0
0
0
0
0
0
0
0
0
0
0
0
0
0
0
0
0
0
0
0
0
0
0
0
0
0
0
0
0
0
0
0
0
0
0
0
0
0
0
0
0
0
0
0
0
0
0
0
0
0
0
0
0
0
0
0
0
0
0
0
0
0
0
0
0
0
0
0
0
0
0
0
0
0
0
0
0
0
0
0
0
0
0
0
0
0
0
0
0
0
0
0
0
0
0
0
0
0
0
0
0
0
0
0
0
0
0
0
0
0
0
0
0
0
0
0
0
0
0
0
0
0
0
0
0
0
0
0
0
0
0
0
0
0
0
0
0
0
0
0
0
0
0
0
0
0
0
0
0
0
0
0
0
0
0
0
0
0
0
0
0
0
0
0
0
0
0
0
0
0
0
0
0
0
0
0
0
0
0
0
0
0
0
0
0
0
0
0
0
0
0
0
0
0
0
0
0
0
0
0
0
0
0
0
0
0
0
0
0
0
0
0
0
0
0
0
0
0
0
0
0
0
0
0
0
0
0
0
0
0
0
0
0
0
0
0
0
0
0
0
0
0
0
0
0
0
0
0
0
0
0
0
0
0
0
0
0
0
0
0
0
0
0
0
0
0
0
0
0
0
0
0
0
0
0
0
0
0
0
0
0
0
0
0
0
0
0
0
0
0
0
0
0
0
0
0
0
0
0
0
0
0
0
0
0
0
0
0
0
0
0
0
0
0
0
0
0
0
0
0
0
0
0
0
0
0
0
0
0
0
0
0
0
0
0
0
0
0
0
0
0
0
0
0
0
0
0
0
0
0
0
0
0
0
0
0
0
0
0
0
0
0
0
0
0
0
0
0
0
0
0
0
0
0
0
0
0
0
0
0
0
0
0
0
0
0
0
0
0
0
0
0
0
0
0
0
0
0
0
0
0
0
0
0
0
0
0
0
0
0
0
0
0
0
0
0
0
0
0
0
0
0
0
0
0
0
0
0
0
0
0
0
0
0
0
0
0
0
0
0
0
0
0
0
0
0
0
0
0
0
0
0
0
0
0
0
0
0
0
0
0
0
0
0
0
0
0
0
0
0
0
0
0
0
0
0
0
0
0
0
0
0
0
0
0
0
0
0
0
0
0
0
0
0
0
0
0
0
0
0
0
0
0
0
0
0
0
0
0
0
0
0
0
0
0
0
0
0
0
0
0
0
0
0
0
0
0
0
0
0
0
0
0
0
0
0
0
0
0
0
0
0
0
0
0
0
0
0
0
0
0
0
0
0
0
0
0
0
0
0
0
0
0
0
0
0
0
0
0
0
0
0
0
0
0
0
0
0
0
0
0
0
0
0
0
0
0
0
0
0
0
0
0
0
0
0
0
0
0
0
0
0
0
0
0
0
0
0
0
0
0
0
0
0
0
0
0
0
0
0
0
0
0
0
0
0
0
0
0
0
0
0
0
0
0
0
0
0
0
0
0
0
0
0
0
0
0
0
0
0
0
0
0
0
0
0
0
0
0
0
0
0
0
0
0
0
0
0
0
0
0
0
0
0
0
0
0
0
0
0
0
0
0
0
0
0
0
0
0
0
0
0
0
0
0
0
0
0
0
0
0
0
0
0
0
0
0
0
0
0
0
0
0
0
0
0
0
0
0
0
0
0
0
0
0
0
0
0
0
0
0
0
0
0
0
0
0
0
0
0
0
0
0
0
0
0
0
0
0
0
0
0
0
0
0
0
0
0
0
0
0
0
0
0
0
0
0
0
0
0
0
0
0
0
0
0
0
0
0
0
0
0
0
0
0
0
0
0
0
0
0
0
0
0
0
0
0
0
0
0
0
0
0
0
0
0
0
0
0
0
0
0
0
0
0
0
0
0
0
0
0
0
0
0
0
0
0
0
0
0
0
0
0
0
0
0
0
0
0
0
0
0
0
0
0
0
0
0
0
0
0
0
0
0
0
0
0
0
0
0
0
0
0
0
0
0
0
0
0
0
0
0
0
0
0
0
0
0
0
0
0
0
0
0
0
0
0
0
0
0
0
0
0
0
0
0
0
0
0
0
0
0
0
0
0
0
0
0
0
0
0
0
0
0
0
0
0
0
0
0
0
0
0
0
0
0
0
0
0
0
0
0
0
0
0
0
0
0
0
0
0
0
0
0
0
0
0
0
0
0
0
0
0
0
0
0
0
0
0
0
0
0
0
0
0
0
0
0
0
0
0
0
0
0
0
0
0
0
0
0
0
0
0
0
0
0
0
0
0
0
0
0
0
0
0
0
0
0
0
0
0
0
0
0
0
0
0
0
0
0
0
0
0
0
0
0
0
0
0
0
0
0
0
0
0
0
0
0
0
0
0
0
0
0
0
0
0
0
0
0
0
0
0
0
0
0
0
0
0
0
0
0
0
0
0
0
0
0
0
0
0
0
0
0
0
0
0
0
0
0
0
0
0
0
0
0
0
0
0
0
0
0
0
0
0
0
0
0
0
0
0
0
0
0
0
0
0
0
0
0
0
0
0
0
0
0
0
0
0
0
0
0
0
0
0
0
0
0
0
0
0
0
0
0
0
0
0
0
0
0
0
0
0
0
0
0
0
0
0
0
0
0
0
0
0
0
0
0
0
0
0
0
0
0
0
0
0
0
0
0
0
0
0
0
0
0
0
0
0
0
0
0
0
0
0
0
0
0
0
0
0
0
0
0
0
0
0
0
0
0
0
0
0
0
0
0
0
0
0
0
0
0
0
0
0
0
0
0
0
0
0
0
0
0
0
0
0
0
0
0
0
0
0
0
0
0
0
0
0
0
0
0
0
0
0
0
0
0
0
0
0
0
0
0
0
0
0
0
0
0
0
0
0
0
0
0
0
0
0
0
0
0
0
0
0
0
0
0
0
0
0
0
0
0
0
0
0
0
0
0
0
0
0
0
0
0
0
0
0
0
0
0
0
0
0
0
0
0
0
0
0
0
0
0
0
0
0
0
0
0
0
0
0
0
0
0
0
0
0
0
0
0
0
0
0
0
0
0
0
0
0
0
0
0
0
0
0
0
0
0
0
0
0
0
0
0
0
0
0
0
0
0
0
0
0
0
0
0
0
0
0
0
0
0
0
0
0
0
0
0
0
0
0
0
0
0
0
0
0
0
0
0
0
0
0
0
0
0
0
0
0
0
0
0
0
0
0
0
0
0
0
0
0
0
0
0
0
0
0
0
0
0
0
0
0
0
0
0
0
0
0
0
0
0
0
0
0
0
0
0
0
0
0
0
0
0
0
0
0
0
0
0
0
0
0
0
0
0
0
0
0
0
0
0
0
0
0
0
0
0
0
0
0
0
0
0
0
0
0
0
0
0
0
0
0
0
0
0
0
0
0
0
0
0
0
0
0
0
0
0
0
0
0
0
0
0
0
0
0
0
0
0
0
0
0
0
0
0
0
0
0
0
0
0
0
0
0
0
0
0
0
0
0
0
0
0
0
0
0
0
0
0
0
0
0
0
0
0
0
0
0
0
0
0
0
0
0
0
0
0
0
0
0
0
0
0
0
0
0
0
0
0
0
0
0
0
0
0
0
0
0
0
0
0
0
0
0
0
0
0
0
0
0
0
0
0
0
0
0
0
0
0
0
0
0
0
0
0
0
0
0
0
0
0
0
0
0
0
0
0
0
0
0
0
0
0
0
0
0
0
0
0
0
0
0
0
0
0
0
0
0
0
0
0
0
0
0
0
0
0
0
0
0
0
0
0
0
0
0
0
0
0
0
0
0
0
0
0
0
0
0
0
0
0
0
0
0
0
0
0
0
0
0
0
0
0
0
0
0
0
0
0
0
0
0
0
0
0
0
0
0
0
0
0
0
0
0
0
0
0
0
0
0
0
0
0
0
0
0
0
0
0
0
0
0
0
0
0
0
0
0
0
0
0
0
0
0
0
0
0
0
0
0
0
0
0
0
0
0
0
0
0
0
0
0
0
0
0
0
0
0
0
0
0
0
0
0
0
0
0
0
0
0
0
0
0
0
0
0
0
0
0
0
0
0
0
0
0
0
0
0
0
0
0
0
0
0
0
0
0
0
0
0
0
0
0
0
0
0
0
0
0
0
0
0
0
0
0
0
0
0
0
0
0
0
0
0
0
0
0
0
0
0
0
0
0
0
0
0
0
0
0
0
0
0
0
0
0
0
0
0
0
0
0
0
0
0
0
0
0
0
0
0
0
0
0
0
0
0
0
0
0
0
0
0
0
0
0
0
0
0
0
0
0
0
0
0
0
0
0
0
0
0
0
0
0
0
0
0
0
0
0
0
0
0
0
0
0
0
0
0
0
0
0
0
0
0
0
0
0
0
0
0
0
0
0
0
0
0
0
0
0
0
0
0
0
0
0
0
0
0
0
0
0
0
0
0
0
0
0
0
0
0
0
0
0
0
0
0
0
0
0
0
0
0
0
0
0
0
0
0
0
0
0
0
0
0
0
0
0
0
0
0
0
0
0
0
0
0
0
0
0
0
0
0
0
0
0
0
0
0
0
0
0
0
0
0
0
0
0
0
0
0
0
0
0
0
0
0
0
0
0
0
0
0
0
0
0
0
0
0
0
0
0
0
0
0
0
0
0
0
0
0
0
0
0
0
0
0
0
0
0
0
0
0
0
0
0
0
0
0
0
0
0
0
0
0
0
0
0
0
0
0
0
0
0
0
0
0
0
0
0
0
0
0
0
0
0
0
0
0
0
0
0
0
0
0
0
0
0
0
0
0
0
0
0
0
0
0
0
0
0
0
0
0
0
0
0
0
0
0
0
0
0
0
0
0
0
0
0
0
0
0
0
0
0
0
0
0
0
0
0
0
0
0
0
0
0
0
0
0
0
0
0
0
0
0
0
0
0
0
0
0
0
0
0
0
0
0
0
0


VECTORS element_materi_velocity float
1.280809012364e-06 -2.657093209825e-02 0.0 
9.372305193080e-07 -2.646318580396e-02 0.0 
-1.004613502076e-06 -3.451863383332e-03 0.0 
9.710003722850e-07 -4.375400019683e-03 0.0 
-4.566915731240e-07 -1.942551276931e-02 0.0 
-1.671627392350e-06 -2.875601651571e-02 0.0 
-3.398167454904e-07 -1.929776375883e-02 0.0 
9.068159818390e-07 -2.680133063015e-02 0.0 
-9.295318008917e-08 -1.938264662236e-02 0.0 
6.772953617622e-07 -4.476828835275e-03 0.0 
5.185460433195e-08 -1.715354517094e-02 0.0 
2.973586362539e-08 -2.717247542488e-02 0.0 
-2.348323931754e-07 -4.228555190161e-03 0.0 
1.127125656637e-06 -1.795286002742e-02 0.0 
-4.559241160694e-07 -2.990363222375e-03 0.0 
1.531882482941e-06 -3.136439875418e-03 0.0 
1.548484381250e-06 -1.997603193968e-02 0.0 
-2.014672381265e-06 -2.874126263514e-02 0.0 
1.268208648105e-06 -2.810573817693e-02 0.0 
6.196257901219e-07 -2.788542088823e-02 0.0 
1.232626767075e-06 -4.583719754501e-03 0.0 
8.130603339559e-07 -2.575794756625e-02 0.0 
6.853989812116e-07 -2.532725746419e-02 0.0 
-9.128655010626e-07 -6.165416592940e-03 0.0 
1.660022537956e-06 -1.625581888973e-02 0.0 
-1.835924780296e-07 -1.611561442726e-02 0.0 
2.517859339151e-06 -2.137317244868e-02 0.0 
5.309991257141e-07 -3.952667210917e-03 0.0 
2.155824875408e-06 -1.630540672319e-02 0.0 
-4.852167286289e-08 -5.086201598307e-03 0.0 
-1.100077605606e-06 -2.853961691129e-02 0.0 
-2.765251343197e-07 -2.903383865088e-02 0.0 
-4.369994093692e-07 -4.143850080678e-03 0.0 
-2.447328795261e-07 -1.059288840222e-02 0.0 
-3.890435945558e-07 -4.397844766532e-03 0.0 
7.975450063184e-07 -1.919122134065e-03 0.0 
2.272713086265e-07 -1.928758347173e-03 0.0 
3.774469037061e-07 -4.005944955845e-03 0.0 
-5.953800694039e-07 -2.082995426178e-02 0.0 
-1.065266908705e-06 -2.085297906406e-02 0.0 
1.589284989169e-06 -2.413204180377e-02 0.0 
3.553390270899e-07 -3.348996554577e-03 0.0 
-6.863730445607e-07 -2.772225363166e-02 0.0 
2.901453253854e-06 -2.091003180764e-02 0.0 
6.957216208401e-08 -6.064417897131e-03 0.0 
-7.715840318972e-07 -2.773128116135e-02 0.0 
-6.575809976787e-07 -2.873986086476e-02 0.0 
7.604384717144e-07 -5.207328208940e-03 0.0 
-5.218114566899e-07 -2.898359857187e-02 0.0 
2.184141536749e-06 -1.874522911085e-02 0.0 
1.568163655134e-06 -2.475305401510e-02 0.0 
8.290649307845e-07 -2.748570051736e-02 0.0 
-2.865664389658e-06 -2.787400130344e-02 0.0 
1.505975758316e-06 -2.467039579189e-02 0.0 
8.085838460383e-07 -3.291559786192e-03 0.0 
-3.525410912709e-07 -2.618675970309e-02 0.0 
6.047429507424e-07 -2.721229211325e-02 0.0 
-3.535455855858e-07 -1.067896034388e-02 0.0 
7.211973899578e-07 -2.853199991025e-02 0.0 
8.268886475739e-07 -3.164706860793e-03 0.0 
1.801741087701e-06 -2.906310648093e-02 0.0 
-9.370750739223e-07 -6.147424889674e-03 0.0 
3.392149304306e-07 -2.465322332917e-02 0.0 
-3.129782156797e-06 -2.811660639247e-02 0.0 
-7.369370330731e-07 -4.299572379884e-03 0.0 
1.223420439473e-06 -2.525360186149e-02 0.0 
1.033831705297e-06 -2.902799689829e-02 0.0 
-5.924154433580e-07 -4.130821564177e-03 0.0 
5.700415747062e-08 -2.838946727857e-02 0.0 
-8.245839733708e-09 -3.282885017053e-03 0.0 
-9.144672099205e-08 -1.499068879012e-02 0.0 
1.696749437650e-07 -9.188924201151e-04 0.0 
1.318870966627e-07 -5.285993593256e-03 0.0 
1.612623270240e-08 -2.896614315027e-02 0.0 
-1.087959568014e-06 -2.580515003816e-02 0.0 
-4.458186377727e-07 -4.091473931741e-03 0.0 
2.651399453806e-07 -3.982157002989e-03 0.0 
-1.298137964476e-06 -2.831504399091e-02 0.0 
-1.047234769526e-07 -2.841725645140e-02 0.0 
-1.031955739141e-06 -2.830388808852e-02 0.0 
6.141678058208e-07 -2.836396783982e-02 0.0 
8.769589961654e-07 -1.953807877340e-02 0.0 
4.343429823388e-07 -2.584911489809e-02 0.0 
1.713386723969e-06 -2.628949433676e-02 0.0 
-1.216143218655e-06 -1.845828590879e-02 0.0 
-4.125554789965e-07 -1.840197149984e-02 0.0 
-9.934593535536e-08 -1.402731423107e-02 0.0 
-9.316592020893e-08 -1.167905087846e-02 0.0 
4.976797899969e-07 -1.074126622787e-02 0.0 
-5.093321768387e-07 -1.937024031334e-02 0.0 
-7.008548994058e-08 -2.898528189574e-02 0.0 
3.247517878596e-06 -1.951595363779e-02 0.0 
-9.071960046326e-08 -1.131158265782e-02 0.0 
-2.848155342649e-07 -1.208910955427e-02 0.0 
2.016458854115e-08 -1.711500511998e-03 0.0 
-4.639824914679e-08 -2.799503859411e-03 0.0 
1.309818840959e-06 -1.960917714371e-02 0.0 
-4.569023844056e-07 -4.068581559701e-03 0.0 
-1.430905873648e-07 -1.651675441793e-02 0.0 
1.477727194150e-07 -2.515260935717e-02 0.0 
5.741446317523e-07 -2.021710037299e-02 0.0 
-1.101444998058e-07 -3.073839625025e-03 0.0 
-2.031457959886e-07 -1.217613689820e-02 0.0 
-9.393032181907e-07 -6.195108980515e-03 0.0 
1.971872036640e-07 -2.584672509707e-02 0.0 
-8.171692563276e-07 -2.883822661963e-02 0.0 
4.159334179639e-08 -6.952258185920e-03 0.0 
1.014969887924e-07 -9.939768809506e-03 0.0 
4.404968489973e-07 -2.904220375395e-02 0.0 
7.578534092298e-07 -3.169265378147e-03 0.0 
6.903246470225e-07 -1.191956913420e-02 0.0 
-2.792492489316e-07 -2.905046632899e-02 0.0 
3.447837458514e-07 -2.315047286235e-02 0.0 
2.069571452772e-06 -2.136417408007e-02 0.0 
3.535289862209e-07 -2.417034658007e-02 0.0 
8.236653867092e-07 -2.569173479923e-02 0.0 
3.266943327589e-07 -2.469604860802e-02 0.0 
-3.541255053712e-07 -3.226155478713e-03 0.0 
-6.379921665289e-07 -1.728936703932e-02 0.0 
5.352194323288e-07 -2.527143489342e-02 0.0 
1.403273623837e-06 -2.846427468484e-02 0.0 
3.324750938166e-06 -1.996998441864e-02 0.0 
-3.277295957681e-07 -9.206083231045e-03 0.0 
6.265717632991e-07 -2.529172184547e-02 0.0 
-1.687060784829e-06 -2.875343567599e-02 0.0 
1.942957911259e-06 -2.283232635544e-02 0.0 
-3.192811664574e-07 -2.451424343359e-02 0.0 
1.998387718214e-06 -2.343395166188e-02 0.0 
4.927077382799e-07 -2.944107324350e-03 0.0 
-1.521753917617e-06 -2.859360093722e-02 0.0 
-3.881843212780e-07 -1.600618366537e-02 0.0 
1.582971874826e-06 -4.330096283808e-03 0.0 
1.185196557290e-06 -2.258767618444e-02 0.0 
2.117992985624e-06 -2.348786509426e-02 0.0 
-1.498328076178e-06 -4.397964882616e-03 0.0 
1.189385218118e-07 -4.152258871672e-03 0.0 
8.345370022341e-08 -1.400686632396e-02 0.0 
1.254290707720e-06 -2.189145786433e-02 0.0 
-1.708529271508e-07 -3.778732831881e-03 0.0 
1.396462095164e-06 -2.312100865358e-02 0.0 
1.452533762345e-07 -3.249241946554e-03 0.0 
2.173255618927e-07 -3.896711145302e-03 0.0 
1.100560445571e-06 -1.790439870133e-02 0.0 
6.761721664555e-07 -1.418006690270e-02 0.0 
1.278983320921e-06 -2.318611560549e-02 0.0 
1.832144480756e-06 -2.406692946842e-02 0.0 
1.146664753696e-06 -2.123186307882e-02 0.0 
4.826936183768e-07 -2.484801952409e-02 0.0 
-3.629601709010e-07 -2.009189160271e-02 0.0 
3.103123499887e-07 -2.321947248762e-02 0.0 
7.088040194279e-07 -2.899128135643e-02 0.0 
-7.334167353660e-07 -1.889500387645e-02 0.0 
1.484099081111e-06 -2.841575876413e-02 0.0 
2.249391113997e-06 -2.212258023235e-02 0.0 
2.900629559492e-07 -3.183392821617e-03 0.0 
4.953421617578e-07 -2.581646536837e-02 0.0 
-2.940903007349e-07 -1.292461460815e-02 0.0 
-4.824348995060e-07 -2.738146825153e-02 0.0 
-2.960684833566e-07 -1.213790589162e-02 0.0 
-5.283082375310e-07 -1.958488023662e-02 0.0 
2.615919937921e-07 -2.387749473809e-02 0.0 
-4.033839234364e-07 -9.503310361033e-03 0.0 
1.015607886486e-06 -2.842958886495e-02 0.0 
-3.875670680786e-07 -6.982607387061e-03 0.0 
2.572933321411e-06 -2.005401035997e-02 0.0 
3.662216366365e-07 -3.956525572006e-03 0.0 
-4.703822277077e-07 -1.972830247457e-02 0.0 
3.315157858823e-07 -2.540020150266e-02 0.0 
1.828967057613e-06 -2.205548544763e-02 0.0 
-1.383132294283e-07 -1.741248711404e-02 0.0 
-2.781735301245e-07 -2.740954186952e-02 0.0 
1.801491078624e-07 -2.391468414166e-02 0.0 
7.254165447771e-07 -1.307235487370e-02 0.0 
-9.858070998436e-07 -2.012299497975e-02 0.0 
3.931463928471e-07 -2.435966534768e-02 0.0 
2.074934601607e-06 -2.277468112874e-02 0.0 
-2.652470548022e-07 -8.934427310464e-03 0.0 
1.921619986687e-07 -2.338845897031e-02 0.0 
3.457271860519e-07 -3.165847597495e-03 0.0 
8.814626462270e-08 -3.974876291092e-03 0.0 
1.719876567668e-06 -2.606948113100e-02 0.0 
5.812133537153e-07 -2.300077259361e-02 0.0 
-6.354865547380e-07 -8.345733992624e-03 0.0 
1.495150239269e-06 -2.368211990917e-02 0.0 
1.599398114581e-06 -2.653576734206e-02 0.0 
2.742107331763e-06 -2.069669189140e-02 0.0 
3.711857749913e-07 -2.372928649129e-02 0.0 
5.045310489388e-07 -3.422492946955e-03 0.0 
5.238131075197e-07 -1.160807796281e-02 0.0 
-1.999596349903e-07 -8.227012876467e-03 0.0 
-7.530418199092e-07 -2.804323698954e-02 0.0 
2.532613257536e-08 -2.454876004918e-02 0.0 
4.076054573786e-07 -1.061914141318e-02 0.0 
-3.249950355333e-07 -2.913716876166e-02 0.0 
1.733662974030e-06 -2.361269367414e-02 0.0 
-1.071902718672e-06 -1.092296439712e-02 0.0 
1.197395130078e-06 -2.884322173201e-02 0.0 
-1.096345015334e-07 -4.295427323311e-03 0.0 
1.369315783433e-06 -1.439627553691e-02 0.0 
-5.216717497139e-07 -2.375982969148e-02 0.0 
-1.014279530476e-06 -1.087282760358e-02 0.0 
4.125068595959e-06 -1.866729059389e-02 0.0 
1.427019459373e-06 -1.709579552931e-02 0.0 
-3.004986941112e-07 -5.091839874202e-03 0.0 
-4.102534458163e-07 -2.608348005237e-02 0.0 
8.179189901502e-07 -2.060822063494e-02 0.0 
2.118377397261e-06 -1.936468921550e-02 0.0 
8.333304213284e-07 -1.333343918116e-02 0.0 
2.782194475145e-06 -1.924359136344e-02 0.0 
2.546622284465e-06 -2.076229040057e-02 0.0 
-1.602139968142e-07 -1.541898872468e-02 0.0 
-3.860575870216e-07 -1.006906631895e-02 0.0 
-2.401084965439e-06 -2.904839086718e-02 0.0 
7.213683406216e-07 -2.599382576055e-02 0.0 
2.176929950620e-07 -2.507099662429e-02 0.0 
9.432050612372e-07 -2.130047168923e-02 0.0 
1.627978221416e-07 -1.042264791862e-02 0.0 
-1.521646406585e-06 -2.826443338340e-02 0.0 
-9.469323728617e-07 -1.219046032342e-02 0.0 
-1.239802408175e-06 -1.992057529027e-02 0.0 
1.106960040893e-07 -2.451658202163e-02 0.0 
-8.108423420713e-07 -1.340609517914e-02 0.0 
1.474793031912e-06 -2.897875906018e-02 0.0 
6.145743050945e-07 -1.230362768950e-02 0.0 
2.227168663237e-06 -2.905153457758e-02 0.0 
7.590160025121e-07 -2.874354469895e-02 0.0 
-8.705754999210e-07 -2.802518774590e-02 0.0 
-4.367262392892e-07 -2.693255458404e-02 0.0 
4.415464575805e-07 -1.116253533076e-02 0.0 
-4.018754438671e-07 -2.727615426779e-02 0.0 
-9.282311441659e-07 -2.749718374704e-02 0.0 
-1.699730337761e-06 -2.798433379674e-02 0.0 
3.017371094287e-07 -2.823579017804e-02 0.0 
-8.388104484443e-07 -9.629466149651e-03 0.0 
2.318178781068e-06 -2.011066625906e-02 0.0 
-8.966328671709e-07 -4.328250424020e-03 0.0 
-8.931489624146e-07 -2.912034497044e-02 0.0 
-5.260608355398e-07 -2.680104462576e-02 0.0 
1.521905351745e-07 -2.330678649148e-02 0.0 
1.412960151227e-06 -2.428412626202e-02 0.0 
-9.192472728892e-07 -1.212770667598e-02 0.0 
1.308704156699e-07 -3.549611856351e-03 0.0 
8.865001024273e-07 -1.264993157549e-02 0.0 
-3.734486307815e-07 -2.611147359447e-02 0.0 
-1.056564181537e-06 -9.677633801482e-03 0.0 
-6.965451332240e-08 -1.512056745912e-02 0.0 
1.163782888057e-06 -2.047413493861e-02 0.0 
1.169755062078e-06 -1.350361713374e-02 0.0 
-6.178085750071e-07 -5.014981776300e-03 0.0 
8.498718411264e-08 -2.335508821496e-02 0.0 
-6.967610862781e-07 -2.714835371248e-02 0.0 
2.632051880691e-06 -1.758227112720e-02 0.0 
4.616261352811e-07 -1.559975659072e-03 0.0 
6.770606080577e-07 -2.067226350397e-02 0.0 
-7.291045327847e-09 -1.991262627215e-02 0.0 
-1.088937722458e-06 -1.857272200601e-02 0.0 
-1.904105603665e-08 -2.855254974742e-02 0.0 
3.427011038454e-06 -1.918070564175e-02 0.0 
-3.032866328192e-07 -2.607488616900e-02 0.0 
-1.096643311094e-06 -2.770243466944e-02 0.0 
-2.361965585867e-06 -2.837502851773e-02 0.0 
4.485669012305e-07 -1.108760708167e-02 0.0 
2.178639471151e-06 -1.852659135014e-02 0.0 
4.795946376998e-07 -2.476979959560e-02 0.0 
4.448681937815e-07 -9.906449909493e-03 0.0 
6.472569109366e-07 -1.170693908762e-02 0.0 
1.360339870361e-06 -1.961962051484e-02 0.0 
-1.055882950717e-07 -3.034396534658e-03 0.0 
-8.816613522805e-08 -1.913263401180e-02 0.0 
1.546765988262e-06 -1.872155260520e-02 0.0 
3.494942860952e-07 -2.244556411052e-02 0.0 
-1.134095279263e-07 -1.825842874072e-02 0.0 
-9.064347176837e-07 -2.701684280352e-02 0.0 
3.338777103150e-06 -1.959120804586e-02 0.0 
1.198752749395e-08 -2.279721680698e-02 0.0 
-7.709736085018e-07 -2.594579020681e-02 0.0 
8.597799694178e-07 -1.255721054147e-02 0.0 
-3.390826476977e-07 -2.913482931374e-02 0.0 
3.461334187559e-06 -1.833029588901e-02 0.0 
-2.970102271100e-07 -2.566558500855e-02 0.0 
-5.494243811059e-07 -2.683656903600e-02 0.0 
-1.133073429945e-06 -2.705365758249e-02 0.0 
2.224451783054e-06 -1.673429092515e-02 0.0 
9.513753045854e-07 -2.884529381572e-02 0.0 
7.599718168281e-07 -2.445447514658e-02 0.0 
-2.080305375752e-07 -1.740401705809e-02 0.0 
2.587702008692e-06 -1.846214939716e-02 0.0 
3.790671843006e-06 -1.855352504116e-02 0.0 
-1.583250124776e-06 -2.853800625815e-02 0.0 
-7.675066195451e-07 -2.590806164226e-02 0.0 
-1.008069438975e-06 -2.645871126534e-02 0.0 
-1.049225646897e-07 -2.553446669590e-02 0.0 
1.286022186264e-06 -1.358442465921e-02 0.0 
5.820605236230e-07 -2.451684337047e-02 0.0 
-6.023889600566e-08 -2.346192360339e-02 0.0 
2.757588528656e-08 -2.399516389270e-02 0.0 
-1.517196045814e-06 -2.830029421341e-02 0.0 
3.696554449490e-07 -2.179528866125e-02 0.0 
-1.424315997175e-06 -2.809778577419e-02 0.0 
8.918505108073e-07 -1.649261462844e-03 0.0 
-6.689813661407e-07 -1.791615386777e-03 0.0 
6.057564434236e-07 -1.994546206961e-02 0.0 
-5.410208760357e-07 -2.656107792590e-02 0.0 
-7.969422094630e-07 -2.725267645162e-02 0.0 
1.372145144137e-06 -1.791979680170e-02 0.0 
-6.351243441866e-07 -2.693960971682e-02 0.0 
-9.301720727899e-07 -2.642033346074e-02 0.0 
1.346038192921e-06 -2.041038082927e-02 0.0 
-3.738740745311e-08 -3.928646233303e-03 0.0 
-8.613323561302e-08 -2.510702502819e-02 0.0 
-9.106574633471e-08 -1.537750532999e-02 0.0 
-1.363707026756e-06 -2.784598735353e-02 0.0 
3.823058588121e-07 -1.589827024930e-03 0.0 
-5.726601154721e-07 -2.690411600306e-02 0.0 
9.985590024729e-07 -1.974848964402e-02 0.0 
-1.779359774788e-06 -2.804292646742e-02 0.0 
-4.525491396678e-07 -1.602137576656e-02 0.0 
8.678716454747e-08 -2.273522976290e-02 0.0 
-8.906064977510e-07 -2.602641663981e-02 0.0 
1.896760805848e-06 -1.942661025260e-02 0.0 
-1.202770760253e-07 -1.505106856923e-03 0.0 
-1.149280231279e-07 -2.463203607796e-02 0.0 
-2.591815937725e-07 -1.746949301320e-02 0.0 
-1.484678349295e-06 -2.787804620721e-02 0.0 
1.372794811645e-07 -1.492728282289e-02 0.0 
-8.378062483258e-07 -1.333826700799e-02 0.0 
-3.108148426272e-07 -2.671908021453e-02 0.0 
1.210214151436e-07 -1.588719839490e-02 0.0 
1.098981532875e-07 -1.601568518408e-03 0.0 
-1.097630552808e-06 -1.109022573751e-02 0.0 
-1.182132253728e-07 -1.622436472668e-03 0.0 
1.606709903402e-07 -1.606581330841e-02 0.0 
5.373182935389e-07 -1.202780030852e-02 0.0 
-6.996655090615e-07 -2.743455364776e-02 0.0 
2.069726477218e-06 -2.092945942584e-02 0.0 
1.699614109043e-06 -1.865437291466e-02 0.0 
1.735479506770e-06 -1.778238572313e-02 0.0 
5.370024970015e-07 -2.148051532450e-02 0.0 
-2.272843838785e-07 -1.612468077972e-03 0.0 
3.428631856528e-06 -1.717474873754e-02 0.0 
3.413234932018e-06 -1.992552612912e-02 0.0 
-4.285055777822e-08 -2.404001223705e-02 0.0 
-3.608412065129e-07 -2.765001826629e-02 0.0 
2.261547545128e-06 -2.155444460519e-02 0.0 
-1.670067469573e-07 -2.633241151066e-02 0.0 
-6.369455716866e-08 -2.008702071861e-02 0.0 
-1.004687166919e-06 -2.606896783954e-02 0.0 
-1.559609482515e-07 -2.514545271261e-02 0.0 
5.264948420547e-07 -1.132377605249e-02 0.0 
-2.643488509812e-07 -2.637612551863e-02 0.0 
1.907383839481e-06 -2.022552319111e-02 0.0 
-3.507662828385e-07 -1.659325438964e-02 0.0 
-5.079331018840e-07 -1.924466703744e-02 0.0 
3.216496854613e-07 -1.510015607069e-03 0.0 
1.809563042746e-06 -2.299384053894e-02 0.0 
-9.372213887656e-07 -2.630874471615e-02 0.0 
-5.661709746132e-07 -2.431595990180e-02 0.0 
5.620527184983e-07 -2.662383034287e-02 0.0 
-1.791074381003e-07 -2.667891618148e-02 0.0 
2.034056521120e-07 -9.399886602651e-03 0.0 
1.009805220440e-06 -1.892108756817e-02 0.0 
1.190026436906e-06 -2.435000314474e-02 0.0 
1.960839579037e-06 -2.165526500674e-02 0.0 
-2.936874603121e-07 -1.681945686033e-03 0.0 
9.238652580667e-07 -4.274361705198e-03 0.0 
8.204182029176e-08 -9.302254232893e-03 0.0 
7.355294792487e-07 -1.238568676574e-02 0.0 
-4.901722615686e-07 -2.002857326983e-02 0.0 
3.932216657708e-07 -2.404228641363e-02 0.0 
-6.774859841621e-07 -2.659994562409e-02 0.0 
-3.795359335470e-07 -2.570599989969e-02 0.0 
8.561547970243e-07 -1.981396672994e-02 0.0 
-4.028489749038e-07 -1.691674893255e-02 0.0 
3.680293197618e-09 -2.211945947700e-02 0.0 
1.509375362730e-07 -9.025896693285e-03 0.0 
-9.729155298627e-07 -2.634548443134e-02 0.0 
4.435566515039e-07 -2.224774858144e-02 0.0 
1.535066924904e-06 -1.955398850880e-02 0.0 
3.473646250283e-07 -2.351800165489e-02 0.0 
-7.810419111985e-07 -1.706350360509e-03 0.0 
7.277556101041e-07 -1.773947720525e-03 0.0 
7.252680460698e-07 -4.336238035273e-03 0.0 
-5.532807410004e-07 -1.835988967408e-02 0.0 
4.763289270874e-07 -9.824610403557e-03 0.0 
-5.788571973893e-07 -2.711010330922e-02 0.0 
-1.901759801842e-07 -2.467900680544e-02 0.0 
-1.311050176966e-06 -2.773786066804e-02 0.0 
9.591496636049e-07 -2.387139034480e-02 0.0 
3.418300957004e-06 -1.954733764135e-02 0.0 
-2.072476156056e-07 -1.601223855967e-02 0.0 
7.391459774509e-07 -3.978645075171e-03 0.0 
2.989733958615e-07 -9.638267538342e-03 0.0 
2.860867496248e-06 -1.751330334073e-02 0.0 
1.548138722881e-06 -1.694239993183e-02 0.0 
-1.369602981488e-06 -2.743027761203e-02 0.0 
-3.505214757942e-07 -2.884029010113e-02 0.0 
3.045969291108e-07 -2.257468933044e-02 0.0 
4.647595150935e-07 -2.085303337570e-02 0.0 
3.592294838272e-07 -2.185541425589e-02 0.0 
-1.774093340532e-06 -2.873450232327e-02 0.0 
-9.249231950129e-07 -1.812544437428e-02 0.0 
-1.058801596180e-07 -2.793927890886e-02 0.0 
-3.679141017995e-07 -2.645439946985e-02 0.0 
5.278033893671e-09 -8.070463342609e-04 0.0 
-2.849535940382e-07 -1.449343315888e-02 0.0 
4.366086053583e-06 -1.986015079080e-02 0.0 
7.108723632907e-07 -2.854202426224e-02 0.0 
6.265147591237e-07 -2.142452626240e-02 0.0 
2.279180002262e-07 -2.262481393073e-02 0.0 
1.994350717369e-06 -1.680410304069e-02 0.0 
-3.014905926036e-07 -1.548884973689e-03 0.0 
2.258904827393e-06 -2.087652353089e-02 0.0 
1.189436993882e-06 -1.798858473879e-02 0.0 
-9.291187855882e-08 -2.206009266092e-02 0.0 
4.044700458427e-07 -1.006569295768e-02 0.0 
-5.926993552805e-07 -1.750199997486e-02 0.0 
-1.567936911905e-07 -1.619071966771e-03 0.0 
-6.996033910717e-08 -8.511958024226e-04 0.0 
2.061951066538e-07 -8.117745710099e-04 0.0 
4.210020595061e-08 -9.364608286905e-04 0.0 
1.684310323517e-06 -1.592404041986e-02 0.0 
3.684632561627e-07 -1.014487460317e-02 0.0 
5.046906887792e-07 -8.230827176960e-03 0.0 
4.016372409042e-07 -2.346992129866e-02 0.0 
5.661469833162e-07 -2.398751918780e-02 0.0 
2.628122942418e-07 -2.289733831394e-02 0.0 
-2.532603020375e-08 -9.112089132436e-03 0.0 
1.716105354624e-09 -1.607232563538e-03 0.0 
5.018413931895e-07 -8.774370682858e-03 0.0 
-2.148928756492e-07 -1.645135486259e-02 0.0 
4.684636889006e-07 -8.858685481952e-03 0.0 
-3.233097068467e-08 -1.391304215254e-02 0.0 
4.441153892906e-07 -2.159661784701e-02 0.0 
1.154737750706e-06 -2.381310374380e-02 0.0 
-1.126020044324e-06 -2.759804092963e-02 0.0 
7.095841939823e-07 -3.293213834115e-03 0.0 
3.264284522231e-07 -2.413319204871e-02 0.0 
-1.407672704562e-07 -5.365416203217e-03 0.0 
1.408531572343e-07 -2.283955191879e-02 0.0 
-1.240213995882e-06 -2.657527170712e-02 0.0 
6.286447884826e-07 -3.203054876899e-03 0.0 
-1.193027577709e-07 -2.596167762163e-02 0.0 
-4.825288626565e-08 -7.712406702451e-04 0.0 
3.905068161003e-07 -3.276319508331e-03 0.0 
8.352195221354e-07 -1.812673141086e-02 0.0 
-3.516511745815e-07 -2.899235395036e-02 0.0 
-2.294664028440e-07 -8.150187870116e-04 0.0 
-4.122337417430e-07 -3.189336469021e-03 0.0 
-1.262148705752e-06 -2.653542406753e-02 0.0 
-3.795555552730e-07 -1.560211936111e-02 0.0 
6.210506684802e-07 -1.584210744129e-03 0.0 
-3.127984834337e-07 -2.911376936883e-02 0.0 
3.980704526950e-07 -2.292121020437e-02 0.0 
9.565725368336e-07 -1.715604376834e-02 0.0 
7.249085398633e-07 -1.905596762108e-02 0.0 
1.189330783464e-06 -1.885597254833e-02 0.0 
-8.141870226562e-07 -2.721972680138e-02 0.0 
3.722544163410e-08 -7.975153386486e-04 0.0 
-1.150478198676e-07 -2.351545400186e-02 0.0 
-2.080643775962e-06 -2.854527908239e-02 0.0 
-8.771606471015e-07 -3.696900498655e-03 0.0 
-5.726408417397e-07 -2.904520987504e-02 0.0 
1.647540464450e-06 -2.239988808774e-02 0.0 
-1.609832772911e-06 -2.841890611816e-02 0.0 
2.294510461858e-06 -2.149686737396e-02 0.0 
-2.241862098062e-07 -1.632558485694e-03 0.0 
-1.917750475990e-07 -8.027508530831e-04 0.0 
1.992888277465e-06 -1.771652519572e-02 0.0 
-1.131753994471e-06 -2.875747637813e-02 0.0 
-1.391960555576e-06 -2.873613330872e-02 0.0 
-1.481920903128e-06 -2.853839983013e-02 0.0 
-1.190298841319e-06 -9.473295263202e-03 0.0 
2.687992726639e-06 -2.007046463246e-02 0.0 
4.514367215477e-06 -1.905542637749e-02 0.0 
-1.556432700607e-07 -7.498741532676e-04 0.0 
2.801166816247e-06 -2.002621147112e-02 0.0 
7.437960216446e-07 -1.590490628723e-03 0.0 
-1.091986572990e-07 -1.292912721367e-02 0.0 
2.784296369310e-07 -1.689726156500e-02 0.0 
1.082498482171e-06 -2.623354438922e-02 0.0 
-2.948332042809e-07 -1.552569578916e-02 0.0 
-1.569403269687e-06 -2.797163963882e-02 0.0 
1.437577129582e-07 -8.240692903275e-04 0.0 
-7.110815720913e-07 -8.551545580860e-04 0.0 
6.856554041535e-07 -8.374868918345e-04 0.0 
-5.639398536824e-07 -1.757134501272e-02 0.0 
6.112109572885e-07 -2.363269688788e-02 0.0 
4.054107167019e-07 -2.165996005307e-02 0.0 
-6.026393105187e-07 -1.668709255718e-02 0.0 
-1.138945899966e-07 -8.716776680334e-04 0.0 
-4.083946493588e-07 -2.648899678667e-02 0.0 
-5.987466145660e-07 -2.548015248642e-02 0.0 
-5.338702111957e-07 -2.503304566345e-02 0.0 
3.795051453890e-07 -1.582109080240e-02 0.0 
2.119380215548e-07 -1.561216694343e-03 0.0 
-1.148628656531e-06 -2.884881249945e-02 0.0 
-4.439333949081e-08 -8.222904676940e-04 0.0 
-8.251099316787e-07 -2.561340159576e-02 0.0 
-7.202418975966e-08 -7.338661866777e-04 0.0 
5.101840999105e-07 -8.347083297963e-03 0.0 
-2.044685484868e-07 -2.913153939472e-02 0.0 
3.650541689312e-07 -2.237412225342e-02 0.0 
4.408148204413e-07 -8.596857566252e-03 0.0 
7.267271165345e-08 -8.040531797591e-04 0.0 
1.495507099723e-06 -1.599647678359e-02 0.0 
-2.255750749869e-07 -1.200275027968e-02 0.0 
-1.969808559472e-06 -2.815514819913e-02 0.0 
2.036799007667e-07 -5.447615992242e-03 0.0 
-7.245473301445e-07 -2.517689078491e-02 0.0 
-6.044173360756e-07 -2.508149494468e-02 0.0 
-1.603633076328e-07 -2.903968160196e-02 0.0 
-3.550933627947e-08 -8.097172248889e-04 0.0 
-9.285574033545e-07 -2.735803683446e-02 0.0 
-1.381156011998e-06 -9.878587558881e-03 0.0 
4.858195272967e-07 -1.787268227839e-02 0.0 
-7.538375795225e-07 -2.632361416457e-02 0.0 
-6.404821376306e-07 -2.552240111480e-02 0.0 
1.337652481029e-06 -1.701263131986e-02 0.0 
4.772929555220e-07 -7.601414538013e-04 0.0 
3.025887899882e-07 -2.301431027368e-02 0.0 
-7.497352824686e-07 -1.456969599969e-02 0.0 
4.756395080580e-07 -1.925645792377e-02 0.0 
-4.208278346337e-07 -1.716981146835e-02 0.0 
-4.737941574583e-07 -2.494360177427e-02 0.0 
-6.561770861380e-07 -1.654341635529e-02 0.0 
5.276658269647e-07 -2.000883044995e-02 0.0 
-1.915493502436e-07 -1.366234833064e-02 0.0 
-3.521817844180e-07 -1.350541826560e-02 0.0 
4.310576171185e-07 -2.013749897698e-02 0.0 
-2.341734759184e-07 -2.266411766914e-02 0.0 
-1.995044630231e-07 -2.600442716261e-02 0.0 
4.570886494260e-07 -2.357720321400e-02 0.0 
-9.725945146002e-08 -1.301996877752e-02 0.0 
-2.081384800589e-07 -1.838618514406e-02 0.0 
-3.911530559714e-08 -1.629336801955e-03 0.0 
3.540262364915e-07 -7.545517864310e-03 0.0 
-7.097517516047e-07 -2.676887026684e-02 0.0 
-1.797928703154e-07 -8.102680180001e-04 0.0 
2.550881424592e-07 -3.937439339961e-03 0.0 
3.330595696323e-07 -2.117198671674e-02 0.0 
-4.725957693296e-07 -2.898564577105e-02 0.0 
2.957010475269e-07 -1.564526693753e-03 0.0 
5.427274251935e-08 -7.813222366567e-03 0.0 
-1.041696638467e-06 -2.615373977109e-02 0.0 
3.770278249185e-07 -7.827806906687e-04 0.0 
-6.724600316336e-07 -1.568444680180e-02 0.0 
9.316312585460e-07 -2.331174259998e-02 0.0 
3.595839243017e-06 -1.827039196306e-02 0.0 
-1.317440311633e-07 -1.919491446004e-02 0.0 
-4.973784207529e-07 -1.931239508319e-02 0.0 
-4.436553601135e-07 -1.610887461446e-02 0.0 
1.584785250028e-06 -1.448439441324e-02 0.0 
1.424567627816e-06 -2.182651859915e-02 0.0 
-1.471557411489e-07 -1.232193366452e-02 0.0 
-6.524175579746e-07 -1.708988981432e-02 0.0 
-1.183945844122e-07 -2.272416180438e-02 0.0 
-4.784878493559e-07 -1.465790639503e-02 0.0 
-7.385421260161e-07 -2.522272572924e-02 0.0 
-5.415266795568e-07 -1.636418968942e-02 0.0 
3.585480646079e-08 -2.913147757731e-02 0.0 
1.123679284712e-07 -2.547144001925e-02 0.0 
-8.840541130956e-07 -2.565832588772e-02 0.0 
-4.477146775879e-08 -2.142402644807e-02 0.0 
3.488476073563e-07 -2.033401878628e-02 0.0 
-6.972383056547e-07 -1.561011563777e-02 0.0 
1.185168458810e-07 -1.674076401118e-02 0.0 
-9.830184294131e-07 -2.619493837428e-02 0.0 
-1.650898033637e-07 -7.784360036738e-04 0.0 
7.818806281109e-07 -1.722907542058e-02 0.0 
-3.695276288644e-08 -2.076415287982e-02 0.0 
6.927270470072e-07 -1.819613437785e-02 0.0 
-1.853654262001e-08 -2.148670846541e-02 0.0 
-2.747834776743e-07 -2.911349050924e-02 0.0 
3.332259809623e-06 -1.738592775976e-02 0.0 
-2.746701738741e-07 -2.383317383027e-02 0.0 
2.781188084470e-06 -2.911577066880e-02 0.0 
8.668216796047e-08 -2.161445975478e-02 0.0 
-8.056536055718e-07 -1.356644219882e-02 0.0 
8.196825399007e-07 -8.561158704943e-03 0.0 
-3.491689747199e-07 -1.793855463155e-02 0.0 
-4.001621520042e-07 -1.708449143234e-02 0.0 
3.260247709133e-06 -2.057289947996e-02 0.0 
1.850299723192e-06 -2.099878627251e-02 0.0 
3.698968212649e-07 -3.129685673940e-03 0.0 
6.153685683551e-07 -1.912342009172e-02 0.0 
2.372458588293e-06 -2.913303603537e-02 0.0 
2.185579667977e-08 -2.826957340236e-02 0.0 
-1.288729538905e-07 -2.898906395223e-02 0.0 
-4.499309262844e-07 -2.649403335321e-02 0.0 
-2.288095901696e-07 -9.014893124738e-03 0.0 
7.871724856983e-07 -8.645463549593e-03 0.0 
-1.072764227375e-06 -1.068979183140e-02 0.0 
-9.666438427825e-09 -2.572814979754e-02 0.0 
-5.293024105737e-07 -1.645245922637e-02 0.0 
-1.369142103966e-06 -8.739094224731e-03 0.0 
-1.998394369526e-06 -2.807138005794e-02 0.0 
-4.611689219553e-07 -2.385795701394e-02 0.0 
-9.674524439824e-07 -2.549606044183e-02 0.0 
4.976920353250e-07 -1.609292613527e-03 0.0 
4.607908508906e-07 -7.860906900789e-04 0.0 
1.019157953065e-07 -2.260457021452e-02 0.0 
1.826117598102e-07 -2.083042588333e-02 0.0 
-5.139665582712e-07 -1.849696275769e-02 0.0 
-1.743165917487e-06 -7.432957717344e-03 0.0 
-4.728125915263e-07 -2.801903152471e-02 0.0 
-1.132943021342e-06 -1.008434671701e-02 0.0 
9.435504785520e-07 -2.884156921122e-02 0.0 
3.752854322773e-08 -2.230140617535e-02 0.0 
-1.584700364314e-07 -2.063084784626e-02 0.0 
9.664441769629e-07 -2.898580800397e-02 0.0 
-8.802147952820e-07 -2.323432622949e-02 0.0 
2.615389304374e-07 -7.449844253640e-03 0.0 
1.921561912375e-06 -2.913255318554e-02 0.0 
1.496157735384e-06 -2.097629457835e-02 0.0 
1.840581256762e-06 -2.141420941365e-02 0.0 
-5.247524691415e-07 -1.500390791773e-02 0.0 
-3.648581544626e-07 -2.555252271772e-02 0.0 
-8.393706999134e-07 -2.574535943524e-02 0.0 
-1.022293534978e-06 -2.753303242571e-02 0.0 
-1.534437007596e-06 -7.295942701095e-03 0.0 
-3.043764419844e-07 -3.127238982308e-03 0.0 
8.532764141414e-07 -1.021140122079e-02 0.0 
2.628556156633e-07 -2.626198774890e-02 0.0 
1.572150229428e-06 -2.869655336474e-02 0.0 
1.776928672491e-06 -2.170974965308e-02 0.0 
1.957046477780e-06 -2.092099926073e-02 0.0 
1.783081755696e-06 -2.137811643312e-02 0.0 
2.625020153520e-06 -2.911556459350e-02 0.0 
1.208025385477e-06 -2.898747644926e-02 0.0 
1.920546263542e-06 -2.875803444500e-02 0.0 
-6.041439951466e-07 -2.706753411905e-02 0.0 
5.521439242252e-07 -2.904076680819e-02 0.0 
1.121568519864e-06 -2.188515177446e-02 0.0 
2.056695739192e-06 -2.911761409124e-02 0.0 
-1.367598289179e-07 -2.622514671811e-02 0.0 
-3.174916102629e-08 -1.491077904336e-02 0.0 
1.640372119188e-06 -2.143602666715e-02 0.0 
-6.730049345863e-07 -7.725273809193e-03 0.0 
-7.128115809508e-07 -1.472981518673e-02 0.0 
2.631294863764e-07 -1.666805221076e-02 0.0 
-5.724595013839e-08 -2.503501498857e-02 0.0 
1.738828639629e-06 -2.884612566534e-02 0.0 
6.249029669457e-07 -8.137802411836e-04 0.0 
8.508301819398e-07 -1.697820629345e-03 0.0 
6.742300600126e-08 -1.778229231708e-02 0.0 
1.686877969557e-06 -2.096518907226e-02 0.0 
-3.396848973775e-07 -2.496346773164e-02 0.0 
-7.502245814508e-07 -1.600927043617e-03 0.0 
-3.817145367449e-07 -2.664522506766e-02 0.0 
1.275598872694e-06 -2.142574238863e-02 0.0 
1.836040881440e-06 -2.099656883941e-02 0.0 
2.084451506920e-06 -2.223780269029e-02 0.0 
5.376009149908e-07 -7.787160577135e-04 0.0 
2.409057021226e-07 -1.601188096549e-03 0.0 
1.239867889369e-06 -2.904114879023e-02 0.0 
1.430151202689e-06 -2.911400946001e-02 0.0 
-7.265882569144e-08 -2.851387117004e-02 0.0 
-2.066411087005e-07 -2.056650854437e-02 0.0 
3.206719147342e-07 -5.605817950985e-03 0.0 
3.054073225027e-06 -2.913569003123e-02 0.0 
6.455524903231e-07 -1.051049206534e-02 0.0 
9.326840616829e-07 -2.911458102267e-02 0.0 
-5.084815155933e-07 -1.518262436046e-02 0.0 
8.978390925486e-07 -2.913233286626e-02 0.0 
2.187434802820e-06 -2.913390832987e-02 0.0 
-5.147424250484e-07 -1.628104020537e-02 0.0 
-1.788066190202e-06 -6.836978455799e-03 0.0 
2.495989094242e-07 -1.557893124569e-02 0.0 
1.499196978656e-06 -2.110316970430e-02 0.0 
6.436251737734e-07 -2.898727732854e-02 0.0 
-6.125917706689e-07 -1.561432473561e-02 0.0 
8.822544702594e-07 -9.477412208114e-04 0.0 
1.393716157579e-06 -1.610365242127e-03 0.0 
9.854311562291e-07 -2.142278561150e-02 0.0 
-5.836417659187e-07 -1.403874439850e-02 0.0 
-3.839972648231e-07 -7.874078553659e-04 0.0 
-3.025462974619e-07 -1.207937786296e-02 0.0 
1.016353966814e-06 -2.885408246149e-02 0.0 
-5.020262480252e-07 -2.904496419431e-02 0.0 
-3.110150788976e-07 -2.899986054760e-02 0.0 
-1.828555261860e-07 -2.387390949435e-02 0.0 
1.075521003032e-07 -1.590441853486e-03 0.0 
2.967924083749e-07 -4.263156212558e-03 0.0 
-2.055387923473e-06 -2.911793590012e-02 0.0 
3.222934554617e-07 -2.184153111150e-02 0.0 
-1.311057054245e-07 -6.523385336202e-04 0.0 
1.078672769528e-06 -1.761699567018e-03 0.0 
6.653655112252e-07 -1.661321439171e-03 0.0 
-3.889261402886e-07 -1.272275051256e-02 0.0 
2.282959707800e-07 -9.329255205487e-03 0.0 
2.386578057276e-07 -9.381033198654e-04 0.0 
8.400149638000e-07 -8.235962471527e-04 0.0 
4.802431388318e-07 -1.050895693348e-02 0.0 
-2.760000765889e-06 -2.913504719193e-02 0.0 
-1.793357590333e-07 -2.139082398623e-02 0.0 
1.729845736490e-06 -2.140453252281e-02 0.0 
-2.519978927438e-07 -2.911431151161e-02 0.0 
-2.916914418561e-07 -7.583775979476e-04 0.0 
6.074124672024e-07 -1.779020468137e-03 0.0 
-2.105185958850e-08 -9.409009524145e-04 0.0 
-1.713878318644e-06 -2.913379373778e-02 0.0 
3.525856733141e-07 -2.913221337718e-02 0.0 
3.690118443432e-08 -8.232019234478e-04 0.0 
6.284643267909e-07 -8.381195157228e-04 0.0 
-6.408733083404e-07 -1.380204739165e-02 0.0 
-1.131146165056e-06 -2.142473504602e-02 0.0 
2.519471680518e-07 -1.162182524017e-02 0.0 
-6.641930178943e-07 -1.767503206441e-02 0.0 
-1.238860526013e-06 -2.143106853737e-02 0.0 
1.541444781585e-06 -2.913184535157e-02 0.0 
3.700270419664e-07 -2.913223003865e-02 0.0 
1.720448311306e-07 -2.913269034251e-02 0.0 
-3.131530914077e-07 -2.913191077231e-02 0.0 
4.211839865076e-07 -2.109576153563e-02 0.0 
-9.889053104598e-08 -2.256181705092e-02 0.0 
-2.299095179440e-07 -2.911427656794e-02 0.0 
-7.302104829821e-08 -1.598788368112e-02 0.0 
-2.725360023163e-07 -2.911448019830e-02 0.0 
-1.495103552238e-07 -7.926080918832e-04 0.0 
-3.662273166276e-07 -8.135191882508e-04 0.0 
2.259272149941e-07 -8.840403881614e-04 0.0 
-2.461613562410e-07 -2.824846005218e-02 0.0 
-3.076122043242e-07 -2.604869620182e-02 0.0 
1.772606348920e-07 -9.760082061863e-04 0.0 
-1.515669593172e-07 -9.360632682646e-03 0.0 
5.114616873201e-07 -6.626240213152e-04 0.0 
9.461158238650e-08 -6.851461764270e-03 0.0 
1.360743148782e-07 -4.200049190461e-03 0.0 
-2.817460572320e-07 -2.323519372885e-02 0.0 
-1.889666817356e-07 -1.789527394437e-03 0.0 
6.887223222121e-07 -1.638632227501e-03 0.0 
-5.695537693069e-08 -8.170407139739e-03 0.0 
2.306858972647e-07 -5.561627266063e-03 0.0 
-5.644163224842e-08 -1.384412181960e-02 0.0 
4.268638255724e-08 -2.911334362112e-02 0.0 
-2.295871403159e-07 -2.307124298077e-02 0.0 
2.101766939942e-06 -2.904334852701e-02 0.0 
-1.467210784728e-06 -7.412695042967e-03 0.0 
1.518743553439e-07 -2.223992788950e-02 0.0 
-6.497976748252e-07 -1.028546752550e-02 0.0 
-6.483135398568e-07 -2.741963938781e-02 0.0 
6.527607466423e-07 -2.878475033428e-02 0.0 
-1.258144208345e-06 -8.018318504447e-03 0.0 
4.870412207233e-07 -2.167938739840e-02 0.0 
8.005386595630e-08 -2.445518061798e-02 0.0 
-4.633715440845e-07 -1.038772725591e-02 0.0 
-2.128574552551e-07 -6.989607931175e-03 0.0 
-2.401014763244e-07 -2.447026559903e-02 0.0 
-9.068013116225e-07 -1.244764199810e-02 0.0 
-6.064571315936e-07 -1.610819733528e-02 0.0 
-3.001209744042e-07 -1.375632164342e-02 0.0 
1.333818857570e-07 -1.282357898194e-02 0.0 
-1.729074386965e-07 -2.414051336300e-02 0.0 
1.472952251629e-06 -2.245762996735e-02 0.0 
3.624962913507e-07 -2.104524737690e-02 0.0 
-6.110159959510e-07 -1.552621588947e-02 0.0 
-6.982630379406e-07 -9.356171703267e-03 0.0 
-2.075186791600e-07 -1.184267529182e-02 0.0 
-4.438818675494e-07 -2.722303456905e-02 0.0 
3.436675564826e-07 -7.196054771100e-03 0.0 
1.205461972708e-06 -9.643716213079e-03 0.0 
-1.524673053743e-06 -1.904750671720e-02 0.0 
-7.484097379569e-07 -1.438205610957e-02 0.0 
-5.932299583206e-07 -1.465501974509e-02 0.0 
-1.917718070076e-07 -7.125451694429e-03 0.0 
2.978767310820e-07 -8.415758002554e-03 0.0 
-5.421406297988e-07 -1.701234558445e-02 0.0 
-1.478661099140e-06 -6.916524359269e-03 0.0 
8.307196912340e-07 -1.012940905847e-02 0.0 
-3.046910965998e-07 -1.184265687280e-02 0.0 
-1.256771933532e-06 -6.177356514779e-03 0.0 
8.583636823921e-07 -7.263088501512e-03 0.0 
1.280947082180e-06 -1.322525905092e-02 0.0 
-7.935081780752e-07 -1.365223022183e-02 0.0 
-3.083324677801e-07 -2.727118998206e-02 0.0 
-3.846360795514e-07 -2.751524058557e-02 0.0 
3.760990926487e-07 -2.871236662562e-02 0.0 
-2.347011100053e-07 -2.904155594662e-02 0.0 
4.220272697277e-07 -8.413199249008e-03 0.0 
-9.339766984814e-07 -8.196222404066e-03 0.0 
-1.621237454630e-07 -2.904286455867e-02 0.0 
-2.138253333956e-07 -8.068677972161e-03 0.0 
-1.190047876666e-06 -1.819165476763e-02 0.0 
-6.714030558313e-07 -1.137785679247e-02 0.0 
-3.080425077498e-07 -1.058546392000e-02 0.0 
-6.825466079005e-07 -2.532575403428e-02 0.0 
-3.180200468617e-07 -1.067146290422e-02 0.0 
-1.468773650016e-06 -1.907349150208e-02 0.0 
-4.609936887437e-07 -1.359346792980e-02 0.0 
-5.534359218627e-07 -4.881723343600e-03 0.0 
4.103275557294e-07 -2.738352684699e-02 0.0 
-6.148949005293e-07 -5.983588160597e-03 0.0 
1.003144292706e-06 -1.202541881365e-02 0.0 
1.944631834300e-07 -2.694045329546e-02 0.0 
-5.982595617110e-07 -2.681218971768e-02 0.0 
-1.375543180091e-10 -1.956155781233e-02 0.0 
6.899098300387e-07 -1.543179518165e-02 0.0 
5.521634929196e-07 -2.476875349783e-02 0.0 
1.521329543875e-06 -1.076996542910e-02 0.0 
1.188450628365e-06 -1.418307895397e-02 0.0 
1.724617458154e-07 -2.007796822296e-02 0.0 
-1.411824771637e-08 -1.290418512006e-02 0.0 
-5.004100657467e-08 -1.167607016947e-02 0.0 
1.232382515377e-06 -1.194512396782e-02 0.0 
-1.662701562251e-06 -2.786255871587e-02 0.0 
6.944341155260e-07 -2.096296491332e-02 0.0 
-2.625529734593e-07 -8.774372173208e-03 0.0 
9.818495165939e-07 -1.100900921756e-02 0.0 
-9.428833431356e-08 -2.242326652607e-02 0.0 
-5.927337987528e-07 -1.619198255259e-02 0.0 
-1.694642806308e-06 -7.040438164967e-03 0.0 
1.008456784015e-06 -1.315566177080e-02 0.0 
-1.648169083788e-06 -2.875125692768e-02 0.0 
-1.497475719505e-07 -2.873584385173e-02 0.0 
-1.638900389184e-06 -2.746115105795e-02 0.0 
-7.130254567422e-07 -9.257813707117e-03 0.0 
1.322126795274e-06 -1.431452565520e-02 0.0 
1.054107073057e-07 -1.798976797961e-02 0.0 
-1.599918859064e-08 -1.735108806056e-02 0.0 
-1.128948516239e-06 -8.845618504934e-03 0.0 
7.039973719350e-09 -1.936266692740e-02 0.0 
-1.906076241078e-07 -1.157669150153e-02 0.0 
-9.618889331915e-08 -2.730345465724e-02 0.0 
-1.280022821516e-06 -6.118513217984e-03 0.0 
2.839250487684e-07 -2.014557960932e-02 0.0 
1.665863325528e-07 -2.698997532395e-02 0.0 
7.667369933012e-07 -2.100346560803e-02 0.0 
9.726647357348e-07 -2.426983859088e-02 0.0 
-1.185826451993e-07 -2.626603328117e-02 0.0 
-4.296965081854e-07 -1.784858818905e-02 0.0 
1.698673174605e-06 -2.910971374236e-02 0.0 
6.548329599480e-07 -2.910937419868e-02 0.0 
-5.585427374491e-07 -1.474602900694e-02 0.0 
-8.300170626379e-07 -2.759703484529e-02 0.0 
-7.107264160067e-07 -1.447324897021e-02 0.0 
-6.609235868843e-07 -1.534675349188e-02 0.0 
-3.693314087847e-08 -2.341066538801e-02 0.0 
-9.778763649666e-07 -2.665280820474e-02 0.0 
6.060474550459e-07 -8.898949573949e-03 0.0 
-3.454554542812e-07 -2.862375163789e-02 0.0 
8.341752483127e-07 -2.374097084334e-02 0.0 
-1.223431812132e-06 -7.499154758752e-03 0.0 
-6.694706257746e-07 -2.793537163473e-02 0.0 
3.471664455247e-07 -1.637705250738e-02 0.0 
-4.121469663862e-07 -1.824757069454e-02 0.0 
-5.323667260005e-07 -2.805117737723e-02 0.0 
-1.261846281434e-06 -8.127226902486e-03 0.0 
9.715526946991e-07 -1.247157442954e-02 0.0 
-9.948885593584e-07 -2.756779997590e-02 0.0 
2.095428641492e-07 -7.836596033349e-03 0.0 
2.104789202987e-07 -7.744063248477e-03 0.0 
-5.554785300098e-07 -2.720535024777e-02 0.0 
1.223632697295e-06 -2.576773505663e-02 0.0 
-6.233975930440e-07 -2.710227163993e-02 0.0 
-2.508640739319e-07 -1.263640013782e-02 0.0 
-3.269931776066e-07 -1.862048373717e-02 0.0 
3.357921054669e-07 -7.725192800725e-03 0.0 
5.918983367504e-07 -8.814550032019e-03 0.0 
-6.291774962585e-07 -1.356873740291e-02 0.0 
-7.482497286625e-07 -1.347507547418e-02 0.0 
-6.195023102051e-07 -2.776748200735e-02 0.0 
-5.452333749148e-07 -1.253982515917e-02 0.0 
1.024234258214e-06 -1.239715778695e-02 0.0 
-2.464298718986e-07 -1.869267342085e-02 0.0 
1.103752693922e-06 -1.438414789079e-02 0.0 
9.656615485706e-07 -1.124233873061e-02 0.0 
-2.711455921141e-09 -2.071377600123e-02 0.0 
8.627101138971e-07 -9.886770000363e-03 0.0 
6.542905579916e-07 -2.178314702871e-02 0.0 
-2.910606952252e-09 -1.943355588910e-02 0.0 
1.348450243232e-06 -2.491633182038e-02 0.0 
-3.838567672054e-07 -2.450851594573e-02 0.0 
1.092524553764e-06 -1.336997128338e-02 0.0 
-4.668142745464e-07 -2.023147718123e-02 0.0 
-3.443330095678e-07 -2.675842186349e-02 0.0 
-7.471963390975e-07 -2.853565919215e-02 0.0 
9.951292426081e-07 -1.344155712331e-02 0.0 
-3.827909509238e-07 -2.672084915159e-02 0.0 
-9.255219992651e-07 -5.839767368781e-03 0.0 
1.082433641999e-06 -1.217283931088e-02 0.0 
-8.782060246019e-07 -1.127871353957e-02 0.0 
4.484137082896e-07 -3.187707690895e-03 0.0 
6.581251795846e-10 -2.248652546166e-02 0.0 
-6.291527607243e-07 -2.717103979726e-02 0.0 
-7.122358512005e-07 -2.832350727699e-02 0.0 
-8.775690705823e-07 -1.328811404426e-02 0.0 
1.364202595631e-06 -1.523860491492e-02 0.0 
-9.179043039577e-08 -2.872447516200e-02 0.0 
9.288334949723e-07 -2.481833073896e-02 0.0 
1.120339126470e-07 -2.768631231802e-02 0.0 
4.454441317774e-07 -1.549764363381e-02 0.0 
1.727804957063e-06 -2.432117983925e-02 0.0 
-6.760709356374e-07 -1.525801429748e-02 0.0 
1.034214700440e-06 -2.492634637024e-02 0.0 
1.088421116972e-06 -9.724641938602e-03 0.0 
2.234415884162e-07 -2.581619558658e-02 0.0 
-8.701769030542e-07 -1.300691243155e-02 0.0 
-3.055650172907e-07 -2.755426374870e-02 0.0 
-7.847034659050e-07 -1.419962708585e-02 0.0 
2.684870927982e-07 -2.031278150528e-02 0.0 
-9.627445960590e-07 -1.225125140826e-02 0.0 
-4.590999072220e-07 -2.490380251881e-02 0.0 
-4.223593872787e-07 -2.765576215676e-02 0.0 
-4.767955658864e-07 -1.723345352362e-02 0.0 
-5.589028978986e-07 -1.526946991536e-02 0.0 
4.917455448315e-07 -2.219305848821e-02 0.0 
1.225388464374e-06 -1.530045433604e-02 0.0 
-6.344451197038e-07 -2.714069195508e-02 0.0 
6.248274628792e-07 -1.472524441745e-02 0.0 
-4.739565248764e-07 -2.796183427102e-02 0.0 
-1.601859111043e-06 -8.433785160399e-03 0.0 
-5.762645919247e-07 -1.412996199334e-02 0.0 
-2.418519085851e-07 -1.240025852157e-02 0.0 
-1.140177409728e-07 -6.393477059927e-03 0.0 
-4.954984235231e-07 -1.857259336765e-02 0.0 
-1.577158141638e-06 -2.784100158363e-02 0.0 
-6.194322982233e-07 -1.593886570089e-02 0.0 
-1.686360522049e-06 -6.950314347901e-03 0.0 
-7.924454709738e-07 -2.579185347865e-02 0.0 
-8.711085760894e-07 -1.234701997754e-02 0.0 
1.112385214934e-06 -1.224792930776e-02 0.0 
-1.256392054750e-06 -2.699990720550e-02 0.0 
-6.848314410272e-07 -1.508291515473e-02 0.0 
-9.823242359935e-07 -1.757967918182e-02 0.0 
2.512351630980e-07 -2.649984486044e-02 0.0 
3.738081991837e-07 -2.528698144921e-02 0.0 
4.237295125950e-07 -1.932371402151e-02 0.0 
-8.987154497773e-07 -1.319442421493e-02 0.0 
7.165398714623e-07 -2.336550321908e-02 0.0 
3.876944548813e-07 -2.020248402106e-02 0.0 
8.895484707525e-07 -1.358411578766e-02 0.0 
6.642709785085e-07 -1.631533389734e-02 0.0 
-3.068252518666e-08 -1.668018813331e-02 0.0 
3.462773458720e-07 -2.025696926573e-02 0.0 
-8.333603775745e-07 -9.157322938031e-03 0.0 
-5.800945092219e-07 -1.676771369099e-02 0.0 
-2.632712666021e-07 -1.742060600232e-02 0.0 
2.175897109602e-07 -6.809648884117e-03 0.0 
6.745320959893e-09 -1.117227128077e-02 0.0 
-7.797406384540e-07 -1.410831316041e-02 0.0 
9.564171941345e-07 -1.116469609135e-02 0.0 
-1.264780637331e-07 -2.400518356861e-02 0.0 
1.278255663872e-07 -2.466886613934e-02 0.0 
-8.907414328741e-07 -2.779384204638e-02 0.0 
-6.925192962772e-07 -1.481828032809e-02 0.0 
4.418724258195e-07 -2.416476767586e-02 0.0 
7.089924761643e-07 -1.458972420463e-02 0.0 
4.118485693721e-07 -1.569317291810e-02 0.0 
-1.526275245619e-07 -2.010392379399e-02 0.0 
-1.676125390149e-07 -2.567950761477e-02 0.0 
-3.137346117449e-07 -2.523283833123e-02 0.0 
1.588773560583e-07 -2.523982222323e-02 0.0 
-6.846226986838e-08 -2.461803346292e-02 0.0 
-9.388062604233e-07 -2.748073694772e-02 0.0 
-1.016660318456e-06 -1.018543249640e-02 0.0 
-4.754125315774e-07 -2.247416129507e-02 0.0 
8.073262185024e-07 -9.967366877279e-03 0.0 
-5.049404326704e-07 -2.167808414276e-02 0.0 
-6.296229456632e-07 -1.585353307697e-02 0.0 
-4.599443723379e-07 -1.945663064746e-02 0.0 
3.298368467597e-07 -2.040063253147e-02 0.0 
-9.830193694596e-07 -2.751193239315e-02 0.0 
-1.058445198343e-06 -8.017454384270e-03 0.0 
-1.091049933565e-06 -6.613939943462e-03 0.0 
-1.711958150177e-08 -1.470255624352e-02 0.0 
-2.797564116984e-07 -2.395053001003e-02 0.0 
-5.229269176376e-07 -1.772759675648e-02 0.0 
7.618916845050e-07 -1.452158218288e-02 0.0 
1.257224290116e-07 -2.346668868633e-02 0.0 
3.582726427110e-07 -2.298424167030e-02 0.0 
1.779658052247e-07 -2.586004567126e-02 0.0 
-8.627567310503e-07 -2.669063017742e-02 0.0 
-3.059903803500e-07 -2.329596769419e-02 0.0 
-1.256004870348e-07 -2.634745607775e-02 0.0 
-1.806499066285e-07 -2.686984813710e-02 0.0 
-4.263838712160e-07 -1.952910564145e-02 0.0 
-6.849150365216e-07 -1.499451653953e-02 0.0 
-5.825026416424e-07 -9.230926785857e-03 0.0 
1.054540125133e-06 -2.912705124484e-02 0.0 
-4.629037304365e-07 -2.210199845447e-02 0.0 
-5.286123785247e-07 -2.228627806106e-02 0.0 
-3.993019957501e-07 -2.323451610604e-02 0.0 
3.824945340776e-07 -1.562816245662e-02 0.0 
-4.549866959493e-07 -2.103985312493e-02 0.0 
7.050024180449e-07 -2.538040877502e-02 0.0 
-4.123326447062e-07 -2.253933289483e-02 0.0 
1.175050465466e-06 -1.093118600045e-02 0.0 
3.694789449762e-07 -2.542706860807e-02 0.0 
-7.101996019094e-07 -2.856893996146e-02 0.0 
-7.086519699267e-07 -2.809944949584e-02 0.0 
-8.209735665572e-07 -2.627925439036e-02 0.0 
-3.574727301561e-07 -2.508548340543e-02 0.0 
-4.782546441206e-07 -2.148653927906e-02 0.0 
-4.858946302443e-07 -2.174192398680e-02 0.0 
5.040463563203e-08 -2.782998148291e-02 0.0 
-1.350855569655e-06 -2.811541358766e-02 0.0 
-2.061828240152e-07 -1.696035003406e-02 0.0 
-1.178661803192e-07 -2.638796703594e-02 0.0 
-9.681806949361e-07 -1.138066502042e-02 0.0 
-6.638621438934e-07 -1.048325411277e-02 0.0 
2.695506488903e-06 -1.659487422147e-02 0.0 
4.098387478579e-07 -9.320535274134e-03 0.0 
5.390260095589e-07 -7.920023302779e-03 0.0 
-7.097695896353e-08 -2.077612397813e-02 0.0 
-3.417019510607e-07 -1.266586201465e-02 0.0 
-6.703385566694e-07 -2.745331414691e-02 0.0 
-2.882716592741e-07 -2.193725616341e-02 0.0 
2.309076725907e-07 -2.196972302815e-02 0.0 
-1.372367193029e-06 -2.688825543430e-02 0.0 
5.067573932313e-07 -2.807728453312e-02 0.0 
2.324653424127e-07 -2.411203954335e-02 0.0 
-5.306590663903e-07 -2.234758218914e-02 0.0 
-4.967311370290e-07 -2.155020910335e-02 0.0 
-1.498233611283e-07 -2.594721646250e-02 0.0 
-4.857801882133e-07 -2.016287222692e-02 0.0 
-4.860251391076e-07 -2.216358772335e-02 0.0 
-3.805681765785e-07 -2.129657357712e-02 0.0 
-1.953565807845e-07 -2.514034736404e-02 0.0 
-6.501436182178e-07 -1.385749075879e-02 0.0 
7.760294221729e-07 -1.365462553901e-02 0.0 
-3.366633687096e-07 -2.191686264129e-02 0.0 
-8.997065276894e-07 -9.053426638394e-03 0.0 
-1.052732632888e-06 -2.703624509993e-02 0.0 
-6.451084169555e-07 -6.237251910243e-03 0.0 
-4.868358042665e-07 -2.084083741525e-02 0.0 
-3.588294547176e-07 -6.430796239910e-03 0.0 
8.701956972860e-07 -1.621858020957e-02 0.0 
-7.203141121147e-07 -2.710681163986e-02 0.0 
2.055346891833e-06 -1.578170744488e-02 0.0 
4.298948584436e-07 -8.510328183611e-03 0.0 
-4.793150802974e-07 -1.996423101584e-02 0.0 
3.180240075105e-07 -2.443887396920e-02 0.0 
1.496918779220e-06 -1.494145712799e-02 0.0 
5.094577294768e-07 -2.079162094641e-02 0.0 
-1.494288490750e-07 -2.780193535946e-02 0.0 
6.556675207129e-07 -4.234220226404e-03 0.0 
1.494272295883e-07 -2.813083009533e-02 0.0 
1.975517140701e-06 -6.779071446042e-03 0.0 
4.798996703606e-07 -7.481360421034e-03 0.0 
-7.034434267800e-07 -1.294517705517e-02 0.0 
-1.445713307481e-07 -1.651241890130e-02 0.0 
5.431785896560e-07 -1.045238299810e-02 0.0 
-4.212479061490e-07 -2.136116687568e-02 0.0 
-2.376116578152e-07 -1.845965517477e-02 0.0 
5.743995589689e-07 -6.881315089483e-03 0.0 
-8.309716976850e-07 -1.291333953653e-02 0.0 
6.271004866200e-07 -1.269200723283e-02 0.0 
-7.005299219267e-07 -1.429796579564e-02 0.0 
-8.876374435260e-07 -2.742056957966e-02 0.0 
5.135845179063e-07 -1.170450038700e-02 0.0 
1.652971864961e-07 -3.870277375116e-03 0.0 
-8.821368227208e-07 -6.480387598237e-03 0.0 
-3.731192126619e-07 -2.187392297725e-02 0.0 
-1.546217201071e-07 -1.657479570236e-02 0.0 
-1.076909395619e-06 -1.753929721234e-02 0.0 
-4.929984120422e-07 -2.090740832658e-02 0.0 
-7.380326408950e-07 -1.383543806267e-02 0.0 
-8.216025037561e-07 -1.263039709109e-02 0.0 
-6.172819724577e-07 -2.834541935657e-02 0.0 
-5.924394453450e-07 -2.619075618382e-02 0.0 
-2.650618969078e-07 -2.109937088196e-02 0.0 
-3.846141399659e-07 -2.197955067360e-02 0.0 
3.826916802676e-07 -2.098136062583e-02 0.0 
4.459998447339e-07 -5.577504305725e-03 0.0 
-3.585784174184e-07 -7.979377497756e-03 0.0 
3.400094168073e-07 -7.569850026545e-03 0.0 
1.033432582016e-06 -2.265501657792e-02 0.0 
5.715331529126e-07 -1.085507873913e-02 0.0 
-7.406190285793e-07 -1.392634165019e-02 0.0 
-6.658766557706e-07 -6.626405841142e-03 0.0 
6.132115416967e-07 -1.290861735242e-02 0.0 
-4.052911652380e-07 -2.110668051562e-02 0.0 
-2.370150285395e-07 -2.173017412731e-02 0.0 
5.601184386457e-07 -1.162807337868e-02 0.0 
2.239710389320e-07 -8.067903743890e-03 0.0 
9.355367079631e-07 -1.139874753552e-02 0.0 
7.605305416938e-07 -1.261937044208e-02 0.0 
-1.008989595993e-06 -9.368544566667e-03 0.0 
5.644520027850e-07 -7.796973678914e-03 0.0 
-8.772607879711e-07 -1.038629586601e-02 0.0 
-5.550322009341e-07 -1.693141256526e-02 0.0 
1.951033562753e-06 -2.293412429442e-02 0.0 
-8.033150911579e-07 -1.172905579021e-02 0.0 
7.697444346422e-07 -1.326148381637e-02 0.0 
-2.629244721377e-07 -2.683324327219e-02 0.0 
-2.971648724080e-07 -2.116493864503e-02 0.0 
-3.115900061704e-07 -1.883685603982e-02 0.0 
-3.828045975785e-07 -1.667273852279e-02 0.0 
-1.191215131769e-06 -2.678463146244e-02 0.0 
-2.693151986424e-07 -2.179066574410e-02 0.0 
-5.385340622292e-07 -1.474355936503e-02 0.0 
1.676969810509e-06 -2.104414263784e-02 0.0 
-3.835582427132e-07 -2.037077956592e-02 0.0 
2.936229113615e-07 -1.498923451860e-02 0.0 
1.342952851288e-07 -2.023054863500e-02 0.0 
-1.639041817630e-06 -2.885811731123e-02 0.0 
-5.080552567895e-07 -1.780596300683e-02 0.0 
-7.978880927072e-07 -1.190842711815e-02 0.0 
1.213577074409e-07 -6.686950566624e-03 0.0 
-1.947102891760e-07 -1.933505358746e-02 0.0 
-4.470662615531e-07 -1.872343461199e-02 0.0 
4.432846678284e-07 -1.479258642388e-02 0.0 
-6.254542602396e-07 -2.849781213951e-02 0.0 
-7.443383928951e-07 -1.285220925929e-02 0.0 
-3.342215206285e-07 -1.770062412835e-02 0.0 
1.698538079318e-06 -2.028572175676e-02 0.0 
-7.864192512495e-07 -1.272513979056e-02 0.0 
-1.512365790638e-06 -2.692241703676e-02 0.0 
-8.951273145664e-07 -1.147763209039e-02 0.0 
-1.028837523277e-06 -7.673283385334e-03 0.0 
-6.474431360309e-07 -1.376910171124e-02 0.0 
8.380336035374e-07 -1.147603379671e-02 0.0 
-4.981442555541e-07 -1.085479659401e-02 0.0 
-9.158782376132e-07 -7.780005739408e-03 0.0 
-3.275357098397e-08 -2.798978909642e-02 0.0 
4.135351156299e-07 -1.386319314269e-02 0.0 
-7.062238006809e-07 -7.559804629321e-03 0.0 
6.876636994739e-07 -1.037298020688e-02 0.0 
-4.716400828863e-07 -1.576725646426e-02 0.0 
-2.008954624653e-07 -2.097117082742e-02 0.0 
-1.527502160544e-07 -1.915741153237e-02 0.0 
-2.233624291738e-06 -2.833602062817e-02 0.0 
6.276681218037e-07 -9.073474521141e-03 0.0 
8.826564750054e-08 -2.646150437725e-02 0.0 
1.425821160780e-06 -2.733952844619e-02 0.0 
-3.144959741510e-07 -1.181907648800e-02 0.0 
2.966187383132e-08 -6.303663379925e-03 0.0 
-1.296196731109e-06 -2.734942094911e-02 0.0 
4.445491729913e-07 -1.840423577573e-02 0.0 
5.330451094620e-07 -1.283702304765e-02 0.0 
-2.956665829881e-07 -1.973556008215e-02 0.0 
-1.145004685739e-06 -2.682175192729e-02 0.0 
1.884233756292e-07 -2.499846666221e-02 0.0 
-2.777792404896e-07 -2.803658835887e-02 0.0 
-1.530235757129e-06 -2.731177841996e-02 0.0 
-1.356164235374e-06 -2.769368388184e-02 0.0 
-3.206930862688e-07 -1.762244717705e-02 0.0 
1.702956227795e-07 -1.536351700126e-03 0.0 
2.819178733579e-06 -2.654742205837e-02 0.0 
-1.451437811018e-06 -8.322101416087e-03 0.0 
-1.323794507163e-07 -2.291085590305e-02 0.0 
8.124884535969e-07 -1.406240236659e-02 0.0 
-1.799382179399e-06 -2.779718770448e-02 0.0 
-6.907077158266e-07 -6.304856256621e-03 0.0 
-1.151264369653e-06 -2.772849461796e-02 0.0 
1.791006644948e-07 -2.547401563434e-02 0.0 
-5.329136101088e-07 -1.258270935578e-02 0.0 
-4.575021300869e-07 -2.071282533697e-02 0.0 
8.237038429476e-08 -8.849169145507e-03 0.0 
3.879764261938e-07 -2.418665608424e-02 0.0 
5.580087620583e-07 -1.215674407562e-02 0.0 
1.055949722178e-06 -6.607626380345e-03 0.0 
4.610565720484e-07 -1.379460433619e-02 0.0 
-1.152298860201e-07 -6.766913258662e-03 0.0 
4.775698191352e-07 -1.069465966868e-02 0.0 
4.941632228202e-07 -9.659626844255e-03 0.0 
-7.937121379838e-07 -2.731967144596e-02 0.0 
-1.451061386251e-06 -9.685936778313e-03 0.0 
6.370744174100e-07 -1.185696895544e-02 0.0 
7.430956854722e-08 -1.985331557127e-02 0.0 
2.208880685671e-06 -2.560891307908e-02 0.0 
4.672375098362e-07 -5.306642805168e-03 0.0 
-1.038886873815e-06 -2.667741685836e-02 0.0 
-2.596609881777e-08 -2.598414893891e-02 0.0 
2.006713714011e-07 -1.007035503331e-02 0.0 
2.430603797222e-07 -2.796884232957e-02 0.0 
3.264375277683e-07 -1.952569934714e-02 0.0 
-7.209940249725e-07 -1.163792574569e-02 0.0 
3.938978609132e-07 -7.287623677424e-03 0.0 
3.093333030356e-07 -6.144626519791e-03 0.0 
-6.593168445228e-07 -1.267269016722e-02 0.0 
3.474404308076e-07 -9.405510672731e-03 0.0 
9.035649378695e-09 -2.215460976149e-02 0.0 
-5.064878907714e-07 -1.154928477227e-02 0.0 
2.334594099857e-06 -2.451938219794e-02 0.0 
5.235480275882e-07 -7.264398228779e-03 0.0 
2.644070864742e-06 -2.328413729170e-02 0.0 
2.025773748900e-06 -2.261157078035e-02 0.0 
-1.191344443055e-07 -2.003725469728e-02 0.0 
1.490545090057e-06 -2.190160250580e-02 0.0 
1.642707365162e-07 -1.710788309130e-02 0.0 
2.814166872803e-07 -2.123617088872e-02 0.0 
-2.405989200736e-07 -2.030803073716e-02 0.0 
-1.390830269185e-06 -2.722390708685e-02 0.0 
-1.683182837878e-07 -2.090551053076e-02 0.0 
2.292056928181e-07 -7.984538507023e-03 0.0 
-3.795624793944e-07 -6.745132049076e-03 0.0 
-1.023684706414e-06 -1.196565072455e-02 0.0 
-2.466239230608e-09 -7.694696544347e-03 0.0 
-4.236168007864e-07 -2.064904220247e-02 0.0 
4.284217159614e-07 -9.575612780424e-03 0.0 
-2.087326557340e-07 -2.024032229941e-02 0.0 
-1.495414533091e-06 -8.655254497195e-03 0.0 
4.342463518662e-07 -1.061378540502e-02 0.0 
5.427788951820e-07 -1.093353291579e-02 0.0 
-5.503593553256e-07 -1.491562207389e-02 0.0 
-9.893712790212e-08 -2.154366742854e-02 0.0 
-7.294996078711e-07 -9.324087102554e-03 0.0 
1.068567491226e-06 -1.614395569817e-02 0.0 
-1.540295410291e-06 -2.725203278926e-02 0.0 
-1.157187454674e-06 -2.671405493485e-02 0.0 
3.691147890150e-07 -2.363449715635e-02 0.0 
5.061876168295e-07 -1.833456632402e-02 0.0 
-1.213048780850e-06 -7.572655258385e-03 0.0 
6.652962443285e-07 -1.193337396205e-02 0.0 
-1.627853724700e-07 -2.160638488447e-02 0.0 
1.484856838126e-07 -1.562714891925e-02 0.0 
-7.711657854297e-07 -1.065027190280e-02 0.0 
5.595585115618e-07 -9.157767246049e-03 0.0 
2.513149839620e-07 -8.051850548565e-03 0.0 
8.239849928426e-07 -1.510847249076e-02 0.0 
-1.383113277835e-06 -9.774079865932e-03 0.0 
-2.182382416707e-07 -1.940579179622e-02 0.0 
-8.066337530940e-07 -1.073667543486e-02 0.0 
3.450889863764e-07 -1.945805133300e-02 0.0 
8.511021490061e-07 -6.999331790021e-03 0.0 
8.167640247949e-07 -6.545079919222e-03 0.0 
-4.054578428477e-07 -1.683458913540e-02 0.0 
-1.520671418499e-06 -2.712116910489e-02 0.0 
-1.084527362954e-06 -9.765223720539e-03 0.0 
2.550074324726e-07 -1.787489682982e-02 0.0 
-8.052240496953e-08 -2.221471845909e-02 0.0 
-4.807648937957e-07 -1.585093012557e-02 0.0 
-1.089611149878e-06 -1.118946061544e-02 0.0 
-1.519004954497e-06 -2.715500591730e-02 0.0 
-2.746680446695e-07 -1.860857033482e-02 0.0 
1.637854281852e-06 -1.486893626855e-02 0.0 
-9.325796600025e-07 -7.674592623698e-03 0.0 
1.130287001167e-06 -1.399839647440e-02 0.0 
-5.751259488793e-07 -1.076196436618e-02 0.0 
2.297585982125e-06 -1.571125852766e-02 0.0 
4.104504789453e-06 -1.732259408935e-02 0.0 
5.702752907718e-07 -1.532104500356e-02 0.0 
5.739142524429e-07 -9.051124334386e-03 0.0 
-1.183105472283e-06 -1.079074960220e-02 0.0 
8.038768441506e-07 -1.305068558246e-02 0.0 
4.526121955092e-07 -6.068935326215e-03 0.0 
3.032393746819e-06 -1.652740256644e-02 0.0 
-2.368669234308e-07 -2.419161560453e-02 0.0 
-1.970856840762e-06 -8.569746034726e-03 0.0 
-5.781042168599e-07 -6.690055589907e-03 0.0 
2.845813069043e-07 -1.966315248331e-02 0.0 
2.835090742412e-07 -1.875148478537e-02 0.0 
-1.784571520239e-07 -2.296760915129e-02 0.0 
6.207600227040e-07 -1.208450941568e-02 0.0 
6.425092749113e-07 -2.276878890116e-02 0.0 
9.414138031859e-08 -1.623671372380e-02 0.0 
5.005319618986e-07 -2.281843975491e-02 0.0 
-1.633252203439e-07 -1.135027419213e-02 0.0 
-1.172138394948e-06 -6.131770889523e-03 0.0 
-2.321008282372e-07 -2.239231810943e-02 0.0 
-1.830399053523e-06 -2.835798394639e-02 0.0 
1.189527458352e-07 -6.289264479994e-03 0.0 
8.990670399875e-07 -2.202740686822e-02 0.0 
-3.284002304177e-07 -1.976613402052e-02 0.0 
-2.026047369220e-06 -7.407262185921e-03 0.0 
7.880948802566e-07 -1.312336685942e-02 0.0 
-8.741382561381e-07 -1.177112005873e-02 0.0 
1.569801879737e-07 -2.203183713685e-02 0.0 
-1.933627065959e-06 -2.858236601957e-02 0.0 
-9.501897320887e-07 -6.481356065226e-03 0.0 
3.643818544326e-07 -1.758808591934e-02 0.0 
-1.967628074242e-07 -1.337580254183e-02 0.0 
-8.472525776336e-07 -8.160577595670e-03 0.0 
-1.072599594044e-06 -2.889224087840e-02 0.0 
-8.321721973870e-07 -1.167382390029e-02 0.0 
-1.570205165092e-07 -2.559056989866e-02 0.0 
1.031487651950e-06 -1.516814599947e-02 0.0 
-4.257045649891e-07 -1.803592474574e-02 0.0 
-1.904483508451e-07 -2.233418916326e-02 0.0 
-1.264503417197e-06 -8.756371415818e-03 0.0 
2.172770843290e-07 -1.703455547285e-02 0.0 
-2.250850059096e-07 -2.362330949162e-02 0.0 
2.861911116387e-07 -1.666454815709e-02 0.0 
-1.392868240849e-06 -2.860148861598e-02 0.0 
-2.877786142828e-07 -1.275210705902e-02 0.0 
-3.455750175420e-07 -1.144467536214e-02 0.0 
-1.188047126407e-07 -5.256698001561e-03 0.0 
-6.379969907937e-07 -1.057534579023e-02 0.0 
-6.876115172530e-07 -2.583315707307e-02 0.0 
-1.047260425687e-06 -1.206184858249e-02 0.0 
-7.117385849810e-07 -5.469610043016e-03 0.0 
-7.845555327344e-07 -3.907538753322e-03 0.0 
1.252969975336e-07 -1.017003308762e-02 0.0 
5.888642948850e-08 -2.142121075404e-02 0.0 
2.179893103842e-08 -1.478143986029e-02 0.0 
-1.081765095967e-06 -7.919913893175e-03 0.0 
-7.606333891934e-08 -1.963775738572e-02 0.0 
-4.266994008939e-07 -1.172762149411e-02 0.0 
6.500449780616e-07 -1.399673914318e-02 0.0 
-1.411843031167e-06 -9.790653773236e-03 0.0 
-8.494889232982e-07 -1.048774497643e-02 0.0 
-5.225481794722e-07 -2.099520973643e-02 0.0 
-3.374330155040e-07 -2.100152638503e-02 0.0 
1.318229100331e-06 -1.383537038306e-02 0.0 
-9.870750092560e-08 -1.382747699178e-02 0.0 
-4.562794492743e-07 -1.725510963940e-02 0.0 
4.015327574402e-07 -1.431501433994e-02 0.0 
1.791556243924e-07 -1.801906383925e-02 0.0 
-9.932887560991e-07 -7.322337259403e-03 0.0 
1.320313310300e-07 -2.136042517348e-02 0.0 
-5.168156474352e-07 -1.550243734296e-03 0.0 
4.388789161111e-06 -1.902859587962e-02 0.0 
2.606636139738e-07 -1.882232417635e-02 0.0 
-4.617826422299e-07 -1.796041385053e-02 0.0 
-7.272016227368e-07 -2.623141263912e-02 0.0 
-3.322302318564e-07 -2.043829383197e-02 0.0 
1.800964230419e-07 -1.578057141329e-02 0.0 
5.103275302513e-07 -1.737289811482e-02 0.0 
1.004209148810e-06 -1.419475715227e-02 0.0 
5.431463000430e-08 -1.334905466044e-02 0.0 
-9.135910342777e-08 -1.227489907015e-02 0.0 
2.650578966783e-06 -2.855182056715e-02 0.0 
-2.691156009934e-07 -2.123752796783e-02 0.0 
7.232351199664e-07 -2.208741857236e-02 0.0 
1.169430492363e-06 -1.509527083663e-02 0.0 
9.916019381025e-07 -1.407977381931e-02 0.0 
1.339319326710e-06 -8.075970822893e-03 0.0 
4.892217359632e-07 -2.765673108834e-02 0.0 
-1.892309129607e-06 -2.755409050831e-02 0.0 
3.649816557372e-07 -1.854333636644e-02 0.0 
-1.895347117843e-07 -2.130032033010e-02 0.0 
2.504654149333e-06 -2.265861357914e-02 0.0 
9.153759129845e-07 -2.195002557571e-02 0.0 
1.048609963842e-06 -1.426063944928e-02 0.0 
-1.060325744130e-06 -2.762954221022e-02 0.0 
-3.315989069412e-07 -1.893788568184e-02 0.0 
-7.877801369963e-07 -1.199641163504e-02 0.0 
-1.974273368888e-06 -2.752230980360e-02 0.0 
2.796146862361e-07 -3.153021809428e-03 0.0 
4.759331298038e-07 -8.360123687058e-03 0.0 
-9.752250797723e-08 -1.994304387969e-02 0.0 
-1.167462836471e-06 -1.099166445507e-02 0.0 
9.417254829598e-07 -2.875383604463e-02 0.0 
-7.598022447718e-07 -1.320553741430e-02 0.0 
3.367243326416e-07 -1.765993041231e-02 0.0 
1.613679890597e-06 -2.875820963742e-02 0.0 
4.382753119189e-07 -8.270895843024e-03 0.0 
-2.136421623106e-06 -2.782450963773e-02 0.0 
9.529771257175e-07 -1.517251836319e-02 0.0 
4.333280715819e-07 -1.744387759035e-02 0.0 
-3.275200679535e-07 -2.051506039896e-02 0.0 
-6.442590146306e-07 -1.648347025662e-02 0.0 
5.056776391322e-07 -7.221433244701e-03 0.0 
-7.497762669126e-07 -1.449946760562e-02 0.0 
2.825511913792e-07 -1.780374869245e-02 0.0 
3.297042917558e-07 -1.861268863386e-02 0.0 
-2.516289461540e-06 -2.898475947231e-02 0.0 
-1.932208575017e-06 -2.812066530941e-02 0.0 
-9.651013050423e-07 -9.601007254785e-03 0.0 
3.631084509777e-06 -1.638900817325e-02 0.0 
-1.774449089524e-06 -8.498361796801e-03 0.0 
-9.371889427240e-08 -2.555470820908e-02 0.0 
2.001830556689e-07 -1.032178329256e-02 0.0 
-1.059387043076e-06 -8.250242488377e-03 0.0 
1.634860708577e-06 -2.130575700695e-02 0.0 
-9.157689202138e-07 -9.505843672727e-03 0.0 
-1.104093386039e-06 -1.108737745151e-02 0.0 
1.053020100048e-07 -1.494532527818e-02 0.0 
-3.416748169349e-07 -1.967013773201e-02 0.0 
-4.136852181288e-07 -1.879695243650e-02 0.0 
1.340963190995e-07 -6.384624617315e-03 0.0 
-5.514473304010e-07 -1.830309048805e-02 0.0 
2.934988849497e-07 -1.659000927981e-02 0.0 
-4.419992678802e-08 -1.820331518909e-02 0.0 
-9.119490636780e-07 -1.235752337250e-02 0.0 
2.338792736254e-07 -1.972987532359e-02 0.0 
-5.363844141780e-07 -2.536445981241e-02 0.0 
-3.429620180652e-07 -1.785831097966e-02 0.0 
-3.357296860622e-07 -2.477591576448e-02 0.0 
5.858627984457e-07 -1.424111221097e-02 0.0 
-3.850660821812e-07 -2.482103652758e-02 0.0 
4.178189784502e-07 -1.540088504439e-02 0.0 
4.292141578449e-07 -9.158676412667e-03 0.0 
-2.016528942625e-07 -1.037198633591e-02 0.0 
2.274919311288e-07 -2.053153954372e-02 0.0 
1.571690804434e-06 -1.528361612995e-02 0.0 
-1.117562464840e-06 -9.987483688299e-03 0.0 
-9.833111233733e-07 -1.008305120708e-02 0.0 
-2.218755478465e-06 -2.818271327943e-02 0.0 
1.097570501265e-07 -1.447231042515e-02 0.0 
-6.742938163472e-07 -6.339307861267e-03 0.0 
8.072084825514e-07 -2.489258650053e-02 0.0 
-3.060784520656e-07 -1.826829552248e-02 0.0 
-2.627481906931e-06 -2.886891734101e-02 0.0 
-8.497829548820e-07 -8.953876299915e-03 0.0 
-5.958923320826e-07 -2.579246307252e-02 0.0 
2.127515589911e-07 -1.891005278480e-02 0.0 
-1.682360822532e-07 -1.332491864662e-02 0.0 
1.828810637338e-06 -1.534729685279e-02 0.0 
3.235746848457e-06 -1.632409138713e-02 0.0 
2.756601385731e-07 -1.681471290719e-02 0.0 
2.667330011452e-06 -2.396672585802e-02 0.0 
1.793927260631e-06 -2.333311005658e-02 0.0 
-7.230724751045e-07 -9.057149365433e-03 0.0 
-6.853612185914e-07 -1.547994114502e-02 0.0 
-3.237181928175e-07 -1.891250087347e-02 0.0 
-6.859582970752e-07 -1.312437916689e-02 0.0 
-2.614538713909e-07 -1.954902728813e-02 0.0 
-3.953288328885e-07 -2.527864504876e-02 0.0 
2.330892863522e-06 -2.392352947943e-02 0.0 
4.242506168481e-06 -1.818022779479e-02 0.0 
-8.167940139530e-07 -2.143068584710e-02 0.0 
-4.506686672791e-07 -1.047525590802e-02 0.0 
1.520340594954e-07 -2.059367971979e-02 0.0 
-9.524172295591e-07 -5.255844980351e-03 0.0 
-4.650308021521e-07 -9.495794502356e-03 0.0 
-2.860174100501e-07 -1.868409738898e-02 0.0 
-2.514269255254e-07 -4.941737324775e-03 0.0 
-3.580359019196e-07 -2.433139977695e-02 0.0 
-1.289457462929e-06 -6.394456478233e-03 0.0 
2.567643612921e-07 -1.688917891991e-02 0.0 
7.908695252479e-09 -1.408781377411e-02 0.0 
-1.890833475158e-06 -8.568389490374e-03 0.0 
-4.646609796120e-07 -2.382899155054e-02 0.0 
1.919741937038e-07 -1.555399074486e-02 0.0 
-2.808195108564e-07 -1.962154228707e-02 0.0 
4.139868535103e-07 -1.644587162989e-02 0.0 
6.253825813775e-08 -2.503898531106e-02 0.0 
-2.275363017808e-07 -1.318071456962e-02 0.0 
-2.920675350393e-07 -2.044611349917e-02 0.0 
-4.923392197172e-07 -1.717164169697e-02 0.0 
5.430474762417e-07 -1.637145190263e-02 0.0 
-2.982404657812e-06 -2.893071875086e-02 0.0 
-1.409964777401e-07 -1.639593866483e-02 0.0 
-1.184265233562e-06 -2.854936401324e-02 0.0 
-8.509881904364e-07 -2.838459840578e-02 0.0 
-3.349541402107e-07 -1.819191416760e-02 0.0 
-5.311275340381e-07 -1.030821873722e-02 0.0 
2.439617765253e-06 -1.550033251524e-02 0.0 
2.273707454327e-06 -2.512662471590e-02 0.0 
-3.673052922113e-07 -7.576356424127e-04 0.0 
-1.892158751346e-06 -2.907626905933e-02 0.0 
1.379803301751e-06 -2.456567237596e-02 0.0 
-3.819628439965e-07 -1.809951950121e-02 0.0 
-1.023304849584e-07 -1.922606287212e-02 0.0 
1.972921891003e-06 -2.228568719688e-02 0.0 
-4.352444703285e-07 -2.392218257015e-02 0.0 
-5.789478731738e-07 -1.738525469016e-02 0.0 
1.972229717673e-07 -1.585889167042e-02 0.0 
-2.242307844806e-07 -1.444214229216e-02 0.0 
-2.434172136722e-07 -8.658653252574e-03 0.0 
-1.667930968094e-06 -2.793711256809e-02 0.0 
-1.928048563834e-07 -1.987242086347e-02 0.0 
-2.779660486368e-07 -1.841034608183e-02 0.0 
-2.866751504780e-07 -2.613904072881e-02 0.0 
3.440262384373e-06 -2.051673286460e-02 0.0 
2.613171982125e-06 -1.557539323802e-02 0.0 
-1.913778304037e-07 -1.284708055547e-02 0.0 
9.327766774792e-07 -2.884440249641e-02 0.0 
-1.306461320991e-07 -2.899904612493e-02 0.0 
-4.478923256723e-07 -2.769598765782e-02 0.0 
-2.800588929122e-07 -1.847933875074e-02 0.0 
-2.930050624285e-07 -2.312883192902e-02 0.0 
-4.274350754345e-07 -2.446848459414e-02 0.0 
-5.805853753730e-07 -2.540262466641e-02 0.0 
-4.151794921462e-07 -1.741976053123e-02 0.0 
1.334043577190e-06 -1.374553932785e-02 0.0 
-5.160142518648e-07 -1.763499067216e-02 0.0 
-2.621093479400e-07 -2.307580036956e-02 0.0 
1.297288811155e-08 -1.455099639837e-02 0.0 
1.058222946463e-06 -1.872813983089e-02 0.0 
-7.777145905088e-08 -1.107735840966e-02 0.0 
-5.529979558877e-07 -1.770524669690e-02 0.0 
-4.374868198134e-07 -1.749315975082e-02 0.0 
2.061649000347e-06 -2.613627400930e-02 0.0 
-3.305419073955e-07 -2.256647041981e-02 0.0 
-7.305825964018e-07 -1.683178281003e-02 0.0 
-4.121815643257e-07 -1.480421343692e-02 0.0 
-4.355012738796e-07 -1.670937602067e-02 0.0 
1.096405773999e-06 -2.565323200145e-02 0.0 
-5.531855129588e-07 -1.661396729211e-02 0.0 
-6.046246097951e-07 -2.462070385552e-02 0.0 
-1.129885791460e-06 -2.807877258795e-02 0.0 
-9.306232592333e-07 -6.454551420959e-03 0.0 
-8.597546713391e-09 -2.789664409002e-02 0.0 
-5.857949797881e-07 -2.408090446016e-02 0.0 
-6.492453852778e-08 -1.729348730870e-02 0.0 
1.904675506176e-06 -2.508701363532e-02 0.0 
-6.878444544075e-07 -1.690293461850e-02 0.0 
-1.553687739667e-07 -2.649398670980e-02 0.0 
4.420522674457e-06 -1.977715367758e-02 0.0 
-6.296201007349e-07 -1.668680554454e-02 0.0 
-3.838172336801e-07 -1.983552252547e-02 0.0 
-2.769082526056e-07 -1.901040716127e-02 0.0 
-3.163790273057e-06 -2.889991730601e-02 0.0 
-3.285261908515e-07 -8.349919681918e-03 0.0 
-4.688287838341e-07 -2.274090548244e-02 0.0 
-2.592304883880e-07 -8.300629988354e-03 0.0 
-4.539693259329e-08 -1.417193198293e-02 0.0 
-6.543391375735e-07 -1.577817224990e-02 0.0 
-7.183179292175e-07 -1.585289349065e-02 0.0 
-3.278133027679e-07 -2.377100446040e-02 0.0 
4.364582320168e-07 -2.858959520081e-02 0.0 
-2.227116688583e-06 -2.885005077657e-02 0.0 
-3.788421869373e-07 -1.490855042388e-02 0.0 
-1.621907567056e-06 -8.522080219456e-03 0.0 
-6.577962832359e-07 -2.477647136735e-02 0.0 
-2.049453905215e-07 -1.358394665988e-02 0.0 
7.221509661797e-08 -2.546461019686e-02 0.0 
-8.500476498778e-08 -1.342651070483e-02 0.0 
-2.182304393801e-07 -3.932883449928e-03 0.0 
1.065878054604e-08 -2.913422115496e-02 0.0 
9.858453369359e-07 -7.872406255757e-04 0.0 
-1.071218105359e-07 -8.546269172156e-04 0.0 
-1.522624100363e-07 -1.944222241447e-02 0.0 
-5.599690389929e-07 -2.291646717460e-02 0.0 
1.336024701030e-07 -1.502925533590e-02 0.0 
-2.670847244336e-07 -2.367337176372e-02 0.0 
-3.017022201603e-07 -2.859215491885e-02 0.0 
-2.229970128103e-06 -2.899636844465e-02 0.0 
9.587021839472e-07 -6.200085476927e-03 0.0 
1.895907849002e-06 -1.470865629612e-02 0.0 
2.390044560889e-06 -2.120116732168e-02 0.0 
1.298520828533e-07 -1.556484971117e-03 0.0 
6.414651663208e-07 -2.729990124289e-02 0.0 
1.659838603916e-07 -1.503608271302e-03 0.0 
1.874606591086e-06 -1.464026266150e-02 0.0 
-5.193926527231e-07 -2.310018264723e-02 0.0 
2.066276545845e-07 -1.601728774086e-02 0.0 
-6.166733648449e-07 -2.357196755544e-02 0.0 
-8.645526840131e-07 -2.776674579260e-02 0.0 
-6.185495156088e-07 -2.425050911031e-02 0.0 
9.941294289850e-07 -1.283862375550e-02 0.0 
-6.907669235810e-07 -8.249846218930e-03 0.0 
-5.004073516121e-07 -2.340459682629e-02 0.0 
-3.462038841932e-07 -1.242683530319e-02 0.0 
6.979388994325e-07 -2.912292141063e-02 0.0 
-3.646146496012e-07 -2.323955136409e-02 0.0 
5.344782080376e-07 -1.141449230274e-02 0.0 
-4.754497197190e-07 -2.444842907439e-02 0.0 
-6.383211124505e-07 -2.538512204465e-02 0.0 
1.946841365279e-07 -1.609151615643e-02 0.0 
-2.126491320635e-06 -2.793411179113e-02 0.0 
2.485229530337e-06 -2.701865060353e-02 0.0 
2.849633808818e-06 -2.660947505399e-02 0.0 
-5.317230630533e-07 -2.550828392837e-02 0.0 
-4.364576406132e-07 -1.817623036434e-02 0.0 
1.467559132301e-07 -1.895690968769e-02 0.0 
-3.693603477120e-07 -1.250558528503e-02 0.0 
-1.619449091468e-07 -5.624374339433e-03 0.0 
1.806972982129e-06 -2.610521404721e-02 0.0 
-4.580879968997e-07 -1.267728670112e-02 0.0 
6.254703551044e-07 -5.460112433915e-03 0.0 
-3.282030380738e-07 -2.428679863972e-02 0.0 
-1.418845956132e-06 -2.853193958228e-02 0.0 
5.727419495748e-07 -2.493877190136e-02 0.0 
-4.952425100134e-07 -1.912352559742e-02 0.0 
1.361418684557e-07 -1.220257491041e-02 0.0 
-4.336299926966e-07 -1.905860024155e-02 0.0 
-1.062342834325e-06 -2.843656517574e-02 0.0 
-5.649904945007e-07 -1.635783779621e-02 0.0 
-4.891631769338e-07 -2.741713826016e-02 0.0 
6.264407978532e-08 -1.901820975930e-02 0.0 
-5.255707007028e-07 -1.732331992232e-02 0.0 
6.835332420067e-08 -1.518760196029e-02 0.0 
3.410789572482e-07 -1.517770235398e-02 0.0 
-4.533069837249e-07 -2.556908297972e-02 0.0 
-1.357987447621e-06 -2.835148160811e-02 0.0 
-6.594698709325e-07 -1.541624345245e-02 0.0 
-3.151301706434e-07 -2.702588140963e-02 0.0 
-2.956214133687e-07 -2.899277396767e-02 0.0 
3.560639266474e-07 -5.654237799015e-03 0.0 
2.875674890525e-07 -8.170217435144e-03 0.0 
-7.685101544091e-07 -2.899638074880e-02 0.0 
-7.508488255082e-07 -1.436794174189e-02 0.0 
-4.840573660610e-07 -2.699072181551e-02 0.0 
-3.736837577179e-07 -2.660776126113e-02 0.0 
-4.651455081623e-07 -1.022401232189e-02 0.0 
2.081691580416e-08 -1.525947190921e-02 0.0 
-5.207502471449e-07 -1.146740971342e-02 0.0 
-4.173408938833e-07 -2.329344391210e-02 0.0 
-4.048935134269e-07 -2.146780596654e-02 0.0 
-1.679277598588e-07 -3.321807396710e-03 0.0 
-5.362576897983e-07 -2.738029089079e-02 0.0 
-4.270864144300e-07 -9.497958613319e-03 0.0 
1.159499569276e-07 -1.808692651030e-02 0.0 
1.179354145685e-06 -2.800880327709e-02 0.0 
6.554314159050e-07 -1.311873750663e-02 0.0 
-2.952967128286e-07 -2.250584128568e-02 0.0 
-4.290282635437e-07 -2.875760274119e-02 0.0 
-4.090945447617e-07 -2.442128933334e-02 0.0 
-9.821191019477e-08 -1.387356795389e-02 0.0 
9.471228324527e-07 -1.292912898740e-02 0.0 
1.135398498211e-08 -2.815846953931e-02 0.0 
9.500813716755e-07 -1.914109446333e-02 0.0 
-3.160863719769e-07 -1.122997312759e-02 0.0 
-2.287687663638e-07 -9.900645189902e-03 0.0 
-5.611922467904e-07 -2.490129016921e-02 0.0 
-4.006548246519e-07 -2.642628018646e-02 0.0 
1.111351174309e-08 -1.723839870153e-02 0.0 
2.286917440147e-07 -1.581628460693e-02 0.0 
-1.178768214074e-06 -2.877152470678e-02 0.0 
-4.019414041925e-07 -3.824531818471e-03 0.0 
-1.713276125414e-07 -3.334797886545e-03 0.0 
-1.082665263080e-06 -1.832057620161e-02 0.0 
1.370257794385e-06 -4.396949851288e-03 0.0 
-4.170967387465e-07 -3.156549211599e-03 0.0 
-4.312189229340e-07 -2.268305100013e-02 0.0 
-5.443154515910e-07 -2.345954873615e-02 0.0 
2.019497475762e-08 -3.971708198413e-03 0.0 
-3.604594301421e-07 -2.911811945055e-02 0.0 
1.522434303576e-07 -2.692383067958e-02 0.0 
6.525726862298e-07 -1.847975160123e-02 0.0 
-5.274817619980e-07 -2.496459748274e-02 0.0 
-5.434387971431e-07 -2.457023230724e-02 0.0 
5.762304434874e-07 -2.773802216238e-02 0.0 
5.469873500921e-07 -2.739758999612e-02 0.0 
-2.736507918163e-07 -1.858543267970e-02 0.0 
-3.641776953737e-07 -2.382109476134e-02 0.0 
2.000129999046e-08 -2.608775468435e-02 0.0 
-5.667462014409e-07 -1.102260639275e-02 0.0 
-9.587093421999e-07 -1.500965311758e-03 0.0 
-6.880697599323e-07 -1.683488666225e-03 0.0 
-5.358582924842e-07 -2.285744666117e-02 0.0 
3.054020485280e-06 -1.963900053056e-02 0.0 
7.470748876290e-07 -2.907195505783e-02 0.0 
-2.666594125051e-07 -2.827384602500e-02 0.0 
-2.540667338545e-06 -2.815113285191e-02 0.0 
-1.091095689651e-06 -2.800209418368e-02 0.0 
4.189823010263e-09 -1.629936666297e-02 0.0 
-6.668665724119e-07 -2.471993710572e-02 0.0 
-4.807010671572e-07 -2.397548100203e-02 0.0 
-1.080279292552e-07 -2.884280977849e-02 0.0 
-8.433139261949e-07 -7.468545283401e-03 0.0 
-6.340421465333e-07 -2.413430276602e-02 0.0 
1.304656141776e-06 -6.066118402056e-03 0.0 
3.764157520545e-07 -9.633225795404e-03 0.0 
1.868099807195e-06 -1.734981846387e-03 0.0 
-2.382275159604e-07 -1.506965450836e-03 0.0 
-8.164554279306e-07 -1.851361962396e-02 0.0 
-6.102510230964e-07 -2.363163963810e-02 0.0 
3.315550520882e-06 -2.699741266221e-02 0.0 
-5.555933851100e-07 -2.303744338533e-02 0.0 
5.845130360783e-07 -7.151794087082e-04 0.0 
-1.020233973802e-06 -2.870627786253e-02 0.0 
-1.508284266887e-06 -2.850980495940e-02 0.0 
9.702105794172e-07 -8.228097501170e-03 0.0 
1.242553325762e-06 -2.004370264389e-02 0.0 
-1.766602142903e-07 -5.819031922200e-03 0.0 
-4.316117577502e-07 -1.130445331625e-02 0.0 
-9.081268169945e-07 -7.517753839982e-03 0.0 
2.248588118146e-07 -9.768311341290e-03 0.0 
-1.257106031786e-06 -1.790315706852e-02 0.0 
-6.081964238842e-07 -2.595543583341e-02 0.0 
-6.810839884891e-07 -2.589558126322e-02 0.0 
-9.219198649144e-07 -1.372161083145e-02 0.0 
-8.423388676799e-07 -8.723735813403e-03 0.0 
2.147097290004e-06 -2.092304897038e-02 0.0 
-2.956247982937e-07 -2.013675203119e-02 0.0 
-6.167313273569e-07 -1.870830436172e-02 0.0 
-1.400021885467e-06 -1.810791221373e-02 0.0 
-1.975599009921e-06 -2.839679839567e-02 0.0 
-5.694578250239e-07 -2.642678818560e-02 0.0 
-2.947952596668e-07 -3.819422581409e-03 0.0 
6.490105046916e-07 -1.619572670720e-02 0.0 
2.112540538080e-07 -2.751895481706e-03 0.0 
1.385199963499e-07 -5.962867563092e-03 0.0 
4.661456428933e-07 -1.320282837172e-02 0.0 
1.054210380684e-06 -5.991124241794e-03 0.0 
-2.159539542469e-07 -2.316444159906e-02 0.0 
1.332256140847e-06 -2.436113407180e-02 0.0 
-1.634614691236e-06 -5.523161781576e-03 0.0 
6.946921177831e-07 -2.899978071545e-02 0.0 
-1.297648359060e-07 -2.676851502660e-02 0.0 
3.216271304524e-07 -7.537341180342e-04 0.0 
1.184165198843e-07 -2.848462877356e-02 0.0 
-3.161321744393e-07 -1.965772247544e-02 0.0 
-1.907241635600e-07 -6.046248442888e-03 0.0 
1.012868512105e-06 -2.886778528155e-02 0.0 
3.207653870338e-06 -2.905206902194e-02 0.0 
5.178784065103e-07 -1.525123627118e-03 0.0 
1.499682063230e-06 -2.103811707525e-02 0.0 
-9.872860180530e-07 -4.139302376624e-03 0.0 
8.829229712970e-07 -5.325763523891e-03 0.0 
1.857770302117e-07 -2.105180682510e-02 0.0 
-7.404254493735e-07 -2.906088814685e-02 0.0 
2.618237635098e-06 -3.215752743804e-03 0.0 
-1.297889101410e-06 -2.836685048808e-02 0.0 
-7.900555455236e-07 -5.313392742791e-03 0.0 
1.423933838645e-08 -7.248156218166e-04 0.0 
3.744016747158e-08 -5.568927265230e-03 0.0 
-2.740416165332e-06 -2.787598219532e-02 0.0 
3.151041688576e-06 -1.861626403829e-02 0.0 
-3.080983172054e-08 -2.322822523862e-02 0.0 
-5.485770243259e-07 -1.103054183262e-02 0.0 
3.696370311588e-07 -1.415650033973e-03 0.0 
3.480946629320e-07 -1.157789656058e-02 0.0 
1.119847282040e-07 -1.463258411678e-03 0.0 
-4.541996973065e-07 -2.879406775527e-02 0.0 
3.991351170244e-07 -3.479961662068e-03 0.0 
-2.167022495039e-06 -2.758023531884e-02 0.0 
3.093107059612e-06 -2.846337102093e-02 0.0 
6.232417223797e-07 -3.777439242981e-03 0.0 
1.060472762387e-06 -3.768496506882e-03 0.0 
4.364554670507e-07 -2.978959356304e-03 0.0 
-7.140161651466e-07 -1.992353527287e-02 0.0 
4.784773037020e-06 -1.805230317018e-02 0.0 
-9.752144302287e-07 -2.779112548862e-02 0.0 
-2.887823487542e-07 -3.667918177636e-03 0.0 
-7.802847705298e-07 -2.489127841269e-02 0.0 
-1.151222519043e-06 -2.857862282005e-02 0.0 
-6.066516442708e-07 -9.892059619436e-03 0.0 
-1.334867693670e-06 -2.149058694787e-02 0.0 
5.076738723425e-07 -5.094689362449e-03 0.0 
2.091242386784e-07 -1.644606156209e-03 0.0 
2.091242386784e-07 -6.978271570579e-04 0.0 
-1.174873260475e-06 -2.913816854502e-02 0.0 
-2.953754816340e-07 -2.911503621303e-02 0.0 
1.312768614926e-07 -2.097968353584e-02 0.0 
-7.476556296392e-07 -2.149001170041e-02 0.0 
-3.003580709035e-07 -6.976224270671e-04 0.0 
-3.003580709035e-07 -1.644230347994e-03 0.0 
-1.014162451237e-06 -2.905858528407e-02 0.0 
2.544923304750e-06 -2.912360545942e-02 0.0 
-1.117747245714e-06 -5.391918619053e-03 0.0 
-1.382315428304e-06 -6.203251641155e-03 0.0 
-1.054940461485e-06 -2.816280085168e-02 0.0 
-9.767780960381e-07 -4.996620694153e-03 0.0 
-4.753387569605e-07 -1.695263473955e-02 0.0 
1.139048853868e-06 -2.029677721125e-02 0.0 
7.607342651483e-08 -1.545707067134e-02 0.0 
-1.393145601464e-06 -2.823132321940e-02 0.0 
-2.392276647905e-07 -1.323130715842e-02 0.0 
-6.872985999047e-08 -2.854106807352e-02 0.0 
9.655875300632e-07 -2.171122874742e-02 0.0 
-1.636361478690e-07 -4.980683753872e-03 0.0 
5.927151827253e-08 -6.878662938512e-03 0.0 
1.034239830651e-06 -2.010070245034e-02 0.0 
-2.519032821746e-07 -1.734933772835e-02 0.0 
-5.442568517624e-07 -5.902760533074e-03 0.0 
-4.951893599486e-07 -8.781300467521e-03 0.0 
5.866820039488e-08 -1.107022494192e-02 0.0 
-1.027565389077e-07 -2.099781643037e-02 0.0 
-1.265558088301e-07 -1.434977500226e-02 0.0 
-4.205698605625e-07 -5.344939161754e-03 0.0 
-1.491840790405e-07 -2.664837190767e-02 0.0 
-4.680507070118e-07 -2.904750966859e-02 0.0 
-4.676559588173e-07 -7.106558906447e-03 0.0 
-1.889103624647e-07 -9.414072663056e-03 0.0 
-1.536642199987e-06 -2.845696808850e-02 0.0 
-5.726812670662e-07 -1.394218003882e-02 0.0 
7.012803353208e-07 -3.273775382694e-03 0.0 
-1.374086989719e-06 -7.254402973262e-03 0.0 
-4.255617997676e-07 -5.981487019867e-03 0.0 
-1.712329584930e-07 -1.504435523462e-02 0.0 
-3.551169485818e-06 -2.900917023414e-02 0.0 
1.065050691931e-06 -2.772299645663e-02 0.0 
-2.366474607348e-07 -2.705252388856e-02 0.0 
2.872628198067e-06 -1.810170802469e-02 0.0 
-1.046247039995e-07 -1.429439452065e-02 0.0 
1.051164488355e-07 -5.140727796712e-03 0.0 
9.434791669778e-08 -3.286607883119e-03 0.0 
-3.969071707585e-07 -2.885586598399e-02 0.0 
-2.189422377667e-08 -2.887436277430e-02 0.0 
-5.723905895711e-07 -2.825977999247e-02 0.0 
5.453488762106e-07 -1.298126624553e-02 0.0 
6.209854770549e-08 -2.553928089659e-02 0.0 
6.234729654116e-07 -4.952893268956e-03 0.0 
1.837772671521e-06 -2.823037431807e-02 0.0 
1.933223282720e-06 -5.746504620218e-03 0.0 
-1.174198662743e-06 -1.844339542231e-02 0.0 
1.037766781718e-07 -3.099942913950e-03 0.0 
-1.076158086366e-06 -9.856405935996e-03 0.0 
3.782903602357e-06 -1.811953149989e-02 0.0 
5.100476196338e-07 -3.826963229018e-03 0.0 
1.280867557807e-07 -3.681311191665e-03 0.0 
2.032775573214e-06 -3.739039474440e-03 0.0 
-1.375854509891e-06 -2.869529914203e-02 0.0 
1.437292708443e-06 -5.858250631147e-03 0.0 
-2.317614520002e-08 -3.108578579459e-03 0.0 
1.966433937890e-06 -6.112806123618e-03 0.0 
-1.293676132660e-06 -8.696017569830e-03 0.0 
-6.670179003438e-07 -7.425877138109e-04 0.0 
2.705588524663e-07 -1.097954120513e-02 0.0 
-1.467377733527e-06 -2.911861424859e-02 0.0 
-1.782508687379e-06 -2.837678517937e-02 0.0 
-1.559387019475e-07 -7.445924380441e-03 0.0 
1.351705708650e-07 -1.696546345671e-02 0.0 
-4.622594101280e-07 -5.712463470615e-03 0.0 
-1.357235937706e-06 -7.442351505568e-03 0.0 
-1.145768658151e-06 -2.878648684463e-03 0.0 
8.164338618666e-07 -1.075691625788e-02 0.0 
-8.268486590331e-08 -3.015384027859e-03 0.0 
-5.954664930096e-07 -5.268828918853e-03 0.0 
-2.910781004520e-07 -5.200019931312e-03 0.0 
-1.340519340619e-06 -2.530449375844e-02 0.0 
2.928215942223e-07 -1.473557006656e-03 0.0 
2.298822154476e-06 -2.017211750421e-02 0.0 
2.346286105542e-07 -5.892193752418e-03 0.0 
1.751047876799e-07 -2.877112805130e-02 0.0 
-7.795307118229e-07 -7.963179103313e-03 0.0 
-3.093586767382e-07 -1.384347421326e-02 0.0 
3.807041088277e-07 -2.883805359476e-02 0.0 
-2.618167356525e-06 -2.814035716229e-02 0.0 
-2.388039865333e-07 -9.981642293026e-03 0.0 
2.841921334291e-07 -3.164632771460e-03 0.0 
4.142256400032e-07 -5.637884423072e-03 0.0 
-1.329908089767e-06 -4.002466589318e-03 0.0 
-6.308701709602e-07 -1.717569575459e-02 0.0 
1.040225553785e-06 -2.904886343351e-02 0.0 
-2.101471823978e-06 -2.888324725284e-02 0.0 
2.010574366774e-06 -2.897738262862e-02 0.0 
1.533135205638e-06 -2.860207734320e-02 0.0 
-1.632554859258e-06 -2.912642499069e-02 0.0 
1.280443512706e-06 -2.224384681627e-02 0.0 
-1.310143666289e-06 -5.700004257688e-03 0.0 
4.465258448686e-07 -5.680008949221e-03 0.0 
4.251433996673e-06 -1.712975267862e-02 0.0 
7.528619748885e-07 -2.377091052604e-02 0.0 
-2.026524196629e-06 -5.749763667800e-03 0.0 
-1.200581527002e-06 -6.229283980918e-03 0.0 
-3.927418017734e-07 -3.700259445779e-03 0.0 
-3.357573570182e-07 -5.104914541136e-03 0.0 
-1.050200840221e-06 -7.659570992177e-03 0.0 
1.300026018147e-06 -2.878550361407e-02 0.0 
-4.193890326723e-07 -2.891592910958e-02 0.0 
-1.779244591449e-06 -5.649136398354e-03 0.0 
9.731599522341e-07 -2.877413408175e-02 0.0 
3.645778761253e-07 -2.868208158159e-02 0.0 
-2.254130017790e-06 -2.889945966607e-02 0.0 
1.219516502467e-06 -2.885810579582e-02 0.0 
5.525868956459e-07 -3.031299024601e-03 0.0 
-3.246479323765e-09 -2.966764281698e-03 0.0 
8.942665053981e-07 -5.125639499225e-03 0.0 
1.467583359685e-07 -2.864066256931e-03 0.0 
-1.761956035325e-06 -7.450515834404e-03 0.0 
1.381653282186e-07 -1.613783619752e-02 0.0 
2.919511915162e-07 -6.410832389568e-04 0.0 
-2.016964244268e-06 -2.760581934708e-02 0.0 
9.374049568287e-07 -2.152127693815e-02 0.0 
-1.216614848874e-06 -2.859875684383e-02 0.0 
2.275671160583e-06 -2.899711832202e-02 0.0 
8.542543021864e-07 -1.548411868969e-03 0.0 
2.453458145137e-06 -2.000587754849e-02 0.0 
2.237925607339e-06 -2.858166887086e-02 0.0 
7.648220107867e-07 -2.262325240732e-02 0.0 
2.845739744053e-07 -3.514310263145e-03 0.0 
-1.340978404172e-06 -5.453788739134e-03 0.0 
1.067066670556e-06 -2.986937104078e-03 0.0 
-1.155492544529e-06 -2.592452740260e-02 0.0 
-9.813663471021e-07 -2.887084510218e-02 0.0 
-5.201329617342e-07 -3.662937899003e-03 0.0 
1.194969575614e-06 -1.485067782634e-03 0.0 
-4.074798814394e-07 -1.552249344283e-03 0.0 
-2.098554854371e-08 -2.014180316778e-02 0.0 
1.514163472938e-07 -5.327009174882e-03 0.0 
1.336494301220e-06 -2.844602559546e-02 0.0 
1.113291372367e-06 -4.941272617258e-03 0.0 
2.496406056085e-06 -2.900996453993e-02 0.0 
2.118129893455e-07 -2.942647394686e-03 0.0 
4.461990907958e-07 -3.850519369712e-03 0.0 
-2.226984669953e-06 -2.900564390678e-02 0.0 
-2.039816651339e-06 -7.407358699628e-03 0.0 
3.474191648029e-07 -1.184098616843e-02 0.0 
-5.653702504064e-07 -2.984887919655e-03 0.0 
2.258793182006e-07 -5.915807436450e-04 0.0 
-6.240662642886e-07 -1.476924068817e-02 0.0 
-6.192302514019e-08 -2.867671625382e-03 0.0 
2.248060090880e-07 -5.143653711982e-03 0.0 
-3.895831494136e-07 -1.329866147381e-02 0.0 
2.289775715844e-07 -4.699663910861e-03 0.0 
-1.740472591148e-07 -2.435820811536e-02 0.0 
-1.129791405065e-06 -2.105466077134e-02 0.0 
-1.840604645190e-07 -5.034417095797e-03 0.0 
5.059166470533e-07 -3.115634107656e-03 0.0 
-1.909786462780e-06 -2.912080022260e-02 0.0 
-7.508309571304e-07 -2.106149830453e-02 0.0 
-1.642837560252e-07 -3.051331801044e-03 0.0 
-1.883299901242e-06 -2.811922280221e-02 0.0 
3.990860131039e-07 -6.053568446780e-03 0.0 
-1.517891092736e-07 -5.559235545221e-03 0.0 
5.121247450912e-07 -3.830445616807e-03 0.0 
7.188553008853e-07 -2.821395547326e-02 0.0 
-4.261616710062e-07 -2.870129450328e-02 0.0 
7.178648673599e-07 -1.948542863474e-02 0.0 
-2.224883576327e-07 -9.510492584117e-03 0.0 
1.727877934150e-06 -2.913946222959e-02 0.0 
-2.210247979286e-07 -2.880585309734e-03 0.0 
-2.111087239403e-07 -1.515514498061e-02 0.0 
-1.760943699143e-07 -2.824876704542e-02 0.0 
-5.581255473857e-07 -1.654706047723e-02 0.0 
5.182767092277e-07 -3.723554730041e-03 0.0 
3.155471586976e-07 -1.862801101173e-02 0.0 
-2.487438920476e-06 -2.908262640038e-02 0.0 
-5.630036161614e-07 -2.513762963562e-02 0.0 
1.000243712299e-06 -2.098735956630e-02 0.0 
-4.023177086623e-07 -1.774848123857e-02 0.0 
-1.856603990288e-06 -5.290677873622e-03 0.0 
2.185091158928e-06 -2.131598834190e-02 0.0 
9.080337144230e-07 -2.033375352216e-02 0.0 
6.257780260505e-07 -2.887085091711e-02 0.0 
-2.444239521830e-07 -4.978447978638e-03 0.0 
4.839146365496e-07 -7.090992176040e-03 0.0 
-1.660924207798e-06 -2.838937214250e-02 0.0 
1.491761983989e-06 -2.956095734081e-03 0.0 
-2.714055665611e-07 -2.959350797333e-03 0.0 
-2.416087603486e-08 -2.022350659557e-02 0.0 
3.092177305666e-07 -1.558869025544e-02 0.0 
2.466780553306e-06 -2.146670979486e-02 0.0 
1.715716118525e-06 -2.093213200978e-02 0.0 
1.281007071309e-06 -2.056565690824e-02 0.0 
1.639619048578e-06 -7.297499627718e-03 0.0 
-2.476659805073e-08 -2.847804512727e-02 0.0 
5.803319924560e-07 -5.874197444947e-03 0.0 
-8.592584588697e-07 -1.835403531935e-02 0.0 
8.357000997240e-07 -3.704662989438e-03 0.0 
6.483540327384e-07 -7.286146164639e-03 0.0 
-9.987994937525e-07 -1.691305009970e-02 0.0 
-3.697038123928e-07 -6.529500810216e-03 0.0 
-1.304546729236e-06 -5.133381165242e-03 0.0 
-4.443155861510e-07 -3.781242044413e-03 0.0 
-3.553524937255e-06 -2.903398487048e-02 0.0 
-1.012193804390e-06 -6.620500207005e-03 0.0 
-3.949731566781e-07 -5.512104785672e-03 0.0 
1.019788962894e-06 -2.889654244228e-02 0.0 
2.066164129722e-06 -2.205455542022e-02 0.0 
-3.185616180788e-06 -2.906256982432e-02 0.0 
7.626772924062e-09 -5.365790849334e-03 0.0 
2.954178810415e-06 -2.909755684190e-02 0.0 
4.106907268115e-06 -2.912402184832e-02 0.0 
1.900077849158e-06 -2.909758486984e-02 0.0 
2.114129095708e-06 -2.912211938191e-02 0.0 
7.109919987698e-07 -2.909792455554e-02 0.0 
5.594808492403e-07 -2.912243471656e-02 0.0 
-2.313932460250e-07 -2.909850642389e-02 0.0 
-5.153695538666e-07 -2.912301289933e-02 0.0 
-9.701404058274e-07 -2.909916487774e-02 0.0 
-1.292280709961e-06 -2.912365184036e-02 0.0 
-1.559176001657e-06 -2.909982546617e-02 0.0 
-1.878531487310e-06 -2.912428926381e-02 0.0 
-2.035508138234e-06 -2.910046068401e-02 0.0 
-2.333018175198e-06 -2.912490048389e-02 0.0 
-2.422344008529e-06 -2.910105712940e-02 0.0 
-2.687756065335e-06 -2.912547041920e-02 0.0 
-2.734491643087e-06 -2.910160127795e-02 0.0 
-2.961329131520e-06 -2.912598261530e-02 0.0 
-2.983182853335e-06 -2.910207480479e-02 0.0 
-3.167598538067e-06 -2.912641635744e-02 0.0 
-3.180032580782e-06 -2.910245514693e-02 0.0 
-3.321503519846e-06 -2.912674860376e-02 0.0 
-3.340042090038e-06 -2.910271990557e-02 0.0 
-7.935069918645e-06 -2.911849412053e-02 0.0 
-3.442356364567e-06 -2.912695923453e-02 0.0 
-3.482691770150e-06 -2.910285283429e-02 0.0 
-3.554176480589e-06 -2.912703646111e-02 0.0 
-1.020607103575e-05 -2.913964231718e-02 0.0 
-3.630820252991e-06 -2.910284880170e-02 0.0 
-3.683518307278e-06 -2.912698060982e-02 0.0 
-6.774350200262e-06 -2.909924131785e-02 0.0 
-3.807632639100e-06 -2.910271520093e-02 0.0 
-3.856669077270e-06 -2.912680486844e-02 0.0 
-4.035122089717e-06 -2.910247494765e-02 0.0 
-4.096416552405e-06 -2.912653819304e-02 0.0 
-4.329027161259e-06 -2.910216182533e-02 0.0 
-4.418752864624e-06 -2.912621881762e-02 0.0 
-4.701348906343e-06 -2.910182716176e-02 0.0 
-4.829106542679e-06 -2.912590069347e-02 0.0 
-5.146033630382e-06 -2.910151182046e-02 0.0 
-4.258413658488e-06 -2.911227644346e-02 0.0 
-5.320633784452e-06 -2.912562531802e-02 0.0 
-5.668068081986e-06 -2.910129327047e-02 0.0 
-5.871368848764e-06 -2.912546001879e-02 0.0 
-6.211738149836e-06 -2.910114626837e-02 0.0 
-6.432019977853e-06 -2.912535398027e-02 0.0 
-6.965838932258e-06 -2.912531690333e-02 0.0 
-6.799896315422e-06 -2.910114114221e-02 0.0 
-7.420905764193e-06 -2.912499731062e-02 0.0 
-7.253121850071e-06 -2.910090752398e-02 0.0 
-7.989733635489e-06 -2.912469481378e-02 0.0 
-7.865046989814e-06 -2.910074117007e-02 0.0 
-8.558983805496e-06 -2.912385664249e-02 0.0 
-8.219044026409e-06 -2.909981696786e-02 0.0 
-9.638467069141e-06 -2.912361397241e-02 0.0 
-9.495777251563e-06 -2.912226279344e-02 0.0 
-9.390859276630e-06 -2.909997086405e-02 0.0 
-8.601401729240e-06 -2.909798909920e-02 0.0 
-6.529414775590e-06 -2.913342464011e-02 0.0 
1.566382786074e-06 -2.911734354411e-02 0.0 
4.180082343319e-06 -2.911664641149e-02 0.0 
3.958770990113e-06 -2.914228466549e-02 0.0 
1.787694139280e-06 -2.909170529011e-02 0.0 
-3.308275807230e-06 -2.914121584630e-02 0.0 
4.339938646556e-07 -2.900056955116e-02 0.0 
1.469394585951e-07 -2.892978509705e-02 0.0 
4.602949853975e-07 -2.900033540932e-02 0.0 
3.934373134804e-08 -2.892756425762e-02 0.0 
7.598949817042e-08 -2.900061889177e-02 0.0 
-2.690898430035e-07 -2.892782276558e-02 0.0 
-4.249614376694e-07 -2.900120013668e-02 0.0 
-6.683514007471e-07 -2.892840625858e-02 0.0 
-9.295540610635e-07 -2.900186452421e-02 0.0 
-1.091911497401e-06 -2.892906013205e-02 0.0 
-1.399393133861e-06 -2.900253411140e-02 0.0 
-1.504551961893e-06 -2.892971824340e-02 0.0 
-1.821311480612e-06 -2.900318101838e-02 0.0 
-1.888461064698e-06 -2.893035498425e-02 0.0 
-2.191983555650e-06 -2.900379129540e-02 0.0 
-2.235332653894e-06 -2.893095400286e-02 0.0 
-2.512428684525e-06 -2.900435069561e-02 0.0 
-2.542495775958e-06 -2.893149707071e-02 0.0 
-2.786412456335e-06 -2.900483984255e-02 0.0 
-2.811388224402e-06 -2.893196077875e-02 0.0 
-3.020592664117e-06 -2.900523453049e-02 0.0 
-3.047539893433e-06 -2.893231788185e-02 0.0 
-6.398332122845e-06 -2.897803119004e-02 0.0 
-3.225518380290e-06 -2.900550980009e-02 0.0 
-3.261773024174e-06 -2.893254316202e-02 0.0 
-3.416632139505e-06 -2.900564686726e-02 0.0 
-5.380150429448e-06 -2.892969537043e-02 0.0 
-3.469618057510e-06 -2.893262093082e-02 0.0 
-3.612321460556e-06 -2.900563923844e-02 0.0 
-3.689632308019e-06 -2.893255052473e-02 0.0 
-3.832245432275e-06 -2.900549467910e-02 0.0 
-3.938115140141e-06 -2.893234511355e-02 0.0 
-8.457227654884e-06 -2.904909072000e-02 0.0 
-4.091955359413e-06 -2.900523571460e-02 0.0 
-4.232223604959e-06 -2.893203719511e-02 0.0 
-4.408000944117e-06 -2.900490006044e-02 0.0 
-4.577729018650e-06 -2.893166564827e-02 0.0 
-4.781351277511e-06 -2.900453575729e-02 0.0 
-4.989714982504e-06 -2.893129889488e-02 0.0 
-5.226639699040e-06 -2.900420142634e-02 0.0 
-5.447479846390e-06 -2.893095830956e-02 0.0 
-5.714308075266e-06 -2.900393665614e-02 0.0 
-6.002270978946e-06 -2.893077607072e-02 0.0 
-6.296400286737e-06 -2.900381893464e-02 0.0 
-6.549099525878e-06 -2.893061673441e-02 0.0 
-4.105102349185e-06 -2.894808253892e-02 0.0 
-7.237385448064e-06 -2.893077064528e-02 0.0 
-6.832313726547e-06 -2.900373123008e-02 0.0 
-7.610627671371e-06 -2.893030307154e-02 0.0 
-7.492250954752e-06 -2.900377117807e-02 0.0 
-8.367744754334e-06 -2.893044496021e-02 0.0 
-7.815639792311e-06 -2.900318327690e-02 0.0 
-7.730610709108e-06 -2.892887752392e-02 0.0 
-8.646462342758e-06 -2.900312500746e-02 0.0 
-8.135067863893e-06 -2.900168370588e-02 0.0 
-6.163997881224e-06 -2.901914206888e-02 0.0 
-9.114073185812e-07 -2.897147037400e-02 0.0 
-8.178927070948e-07 -2.897088583654e-02 0.0 
-1.039204060301e-06 -2.889942420464e-02 0.0 
-6.900959653749e-07 -2.904293200591e-02 0.0 
-3.586744904278e-06 -2.904501897250e-02 0.0 
-4.666227685238e-07 -2.861184922012e-02 0.0 
-4.089627920561e-07 -2.873562495110e-02 0.0 
-5.021265761711e-07 -2.861199355645e-02 0.0 
-3.671755795693e-07 -2.873338255070e-02 0.0 
-5.401093667884e-07 -2.861216642532e-02 0.0 
-4.786693970450e-07 -2.873355200604e-02 0.0 
-6.889085513818e-07 -2.861259055269e-02 0.0 
-7.227189604180e-07 -2.873406743413e-02 0.0 
-9.340679222653e-07 -2.861314512100e-02 0.0 
-1.042057798932e-06 -2.873467955329e-02 0.0 
-1.237991107168e-06 -2.861375192477e-02 0.0 
-1.393003633668e-06 -2.873531663553e-02 0.0 
-1.568040286108e-06 -2.861437142430e-02 0.0 
-1.746738198418e-06 -2.873594699804e-02 0.0 
-1.900644138197e-06 -2.861497885416e-02 0.0 
-2.085716102721e-06 -2.873654954783e-02 0.0 
-2.220789465294e-06 -2.861555179502e-02 0.0 
-2.400473107900e-06 -2.873710262516e-02 0.0 
-2.520103418476e-06 -2.861606451632e-02 0.0 
-2.687101854601e-06 -2.873757989808e-02 0.0 
-5.256555748631e-06 -2.869064918915e-02 0.0 
-2.795133905633e-06 -2.861648634959e-02 0.0 
-2.946367504750e-06 -2.873795058162e-02 0.0 
-3.047090506870e-06 -2.861678336257e-02 0.0 
-7.458683381592e-06 -2.881018272657e-02 0.0 
-3.184517539438e-06 -2.873818402473e-02 0.0 
-3.284730097051e-06 -2.861692951221e-02 0.0 
-4.249156918055e-06 -2.861483351435e-02 0.0 
-3.414971499792e-06 -2.873826271307e-02 0.0 
-3.523045081191e-06 -2.861691328106e-02 0.0 
-3.655002486372e-06 -2.873818278510e-02 0.0 
-3.781209474497e-06 -2.861674704228e-02 0.0 
-3.921709004010e-06 -2.873796521638e-02 0.0 
-4.069149704393e-06 -2.861644565691e-02 0.0 
-4.225824086070e-06 -2.873762703459e-02 0.0 
-4.404840285341e-06 -2.861606772536e-02 0.0 
-4.580967878763e-06 -2.873724347370e-02 0.0 
-2.976014610172e-06 -2.863659986024e-02 0.0 
-4.775383472616e-06 -2.861563007653e-02 0.0 
-4.980508317496e-06 -2.873681538869e-02 0.0 
-5.220484522566e-06 -2.861527012133e-02 0.0 
-5.450531334924e-06 -2.873651051074e-02 0.0 
-5.942313487056e-06 -2.873614723811e-02 0.0 
-5.657402071911e-06 -2.861486002472e-02 0.0 
-6.610483302431e-06 -2.873625554981e-02 0.0 
-6.297826571401e-06 -2.861482891744e-02 0.0 
-7.100971938132e-06 -2.873592267846e-02 0.0 
-6.757283993169e-06 -2.861452207866e-02 0.0 
-7.983905735154e-06 -2.873669157944e-02 0.0 
-7.087314937833e-06 -2.873527809497e-02 0.0 
-7.729115508604e-06 -2.861531171914e-02 0.0 
-6.908488039593e-06 -2.861440491956e-02 0.0 
-5.178142243133e-06 -2.875613339767e-02 0.0 
8.177175893173e-07 -2.867905894094e-02 0.0 
5.665178182756e-07 -2.867888832008e-02 0.0 
6.899208475975e-07 -2.880198687326e-02 0.0 
6.943145599954e-07 -2.855596038776e-02 0.0 
-2.695152136204e-06 -2.880283985957e-02 0.0 
-4.912251460531e-07 -2.832004788772e-02 0.0 
-5.806154816464e-07 -2.815238742710e-02 0.0 
-6.491768882321e-07 -2.832055736485e-02 0.0 
-6.700969559808e-07 -2.815057563647e-02 0.0 
-6.959804311389e-07 -2.832079570269e-02 0.0 
-7.350886984125e-07 -2.815076562442e-02 0.0 
-7.894567883988e-07 -2.832117489370e-02 0.0 
-8.534570090099e-07 -2.815117411600e-02 0.0 
-9.642577338401e-07 -2.832166746186e-02 0.0 
-1.042031065277e-06 -2.815167324670e-02 0.0 
-1.207774561938e-06 -2.832222327731e-02 0.0 
-1.290470458635e-06 -2.815222680558e-02 0.0 
-1.495723656305e-06 -2.832281024181e-02 0.0 
-1.577494400054e-06 -2.815280979684e-02 0.0 
-1.803716969636e-06 -2.832340283545e-02 0.0 
-1.881832730171e-06 -2.815339640888e-02 0.0 
-2.113833261306e-06 -2.832397467478e-02 0.0 
-2.187774506022e-06 -2.815395748478e-02 0.0 
-2.414361020587e-06 -2.832449649618e-02 0.0 
-4.466343566246e-06 -2.825993908949e-02 0.0 
-2.484966538858e-06 -2.815445939015e-02 0.0 
-2.698740987779e-06 -2.832493386180e-02 0.0 
-2.766399134567e-06 -2.815486317789e-02 0.0 
-3.396352644658e-06 -2.815440555929e-02 0.0 
-2.963515054541e-06 -2.832524844663e-02 0.0 
-3.026358273443e-06 -2.815512429151e-02 0.0 
-3.210146283385e-06 -2.832540469494e-02 0.0 
-3.274881314660e-06 -2.815521081593e-02 0.0 
-3.457538709724e-06 -2.832538620118e-02 0.0 
-6.611160651865e-06 -2.842789903814e-02 0.0 
-3.529460189017e-06 -2.815510974421e-02 0.0 
-3.721173548609e-06 -2.832520108127e-02 0.0 
-3.822039684233e-06 -2.815485386592e-02 0.0 
-4.029516310504e-06 -2.832488026746e-02 0.0 
-4.138935023851e-06 -2.815444876635e-02 0.0 
-4.357584617011e-06 -2.832445484655e-02 0.0 
-4.522751636264e-06 -2.815401504017e-02 0.0 
-4.764422898447e-06 -2.832401452181e-02 0.0 
-4.881410891749e-06 -2.815347792195e-02 0.0 
-5.132347670987e-06 -2.832354820931e-02 0.0 
-5.372902457874e-06 -2.815321130560e-02 0.0 
-2.054879102955e-06 -2.818141360441e-02 0.0 
-5.641255334719e-06 -2.815253828555e-02 0.0 
-5.667910046439e-06 -2.832328273159e-02 0.0 
-6.435436252561e-06 -2.815306620808e-02 0.0 
-5.986260444535e-06 -2.832279725800e-02 0.0 
-5.795363579919e-06 -2.815226934955e-02 0.0 
-6.893803070164e-06 -2.832336439636e-02 0.0 
-6.286988073395e-06 -2.832281607254e-02 0.0 
-4.199696188574e-06 -2.834937355306e-02 0.0 
-9.707888923430e-07 -2.824115335801e-02 0.0 
-1.246591040914e-06 -2.824114804622e-02 0.0 
-1.123188011592e-06 -2.807227995794e-02 0.0 
-1.094191921665e-06 -2.841002144629e-02 0.0 
-1.658865556524e-06 -2.841543485386e-02 0.0 
-4.564583768343e-07 -2.754250114179e-02 0.0 
-5.643910934361e-07 -2.776372305423e-02 0.0 
-6.537301033379e-07 -2.754332817484e-02 0.0 
-6.908745592969e-07 -2.776201081933e-02 0.0 
-7.393740335899e-07 -2.754367051055e-02 0.0 
-7.577046975474e-07 -2.776220524942e-02 0.0 
-8.072680579642e-07 -2.754401283445e-02 0.0 
-8.486522794403e-07 -2.776257243175e-02 0.0 
-9.189687039613e-07 -2.754441289012e-02 0.0 
-1.001546764968e-06 -2.776302035921e-02 0.0 
-1.096627299838e-06 -2.754487668693e-02 0.0 
-1.219807496844e-06 -2.776353310269e-02 0.0 
-1.334803544501e-06 -2.754540150520e-02 0.0 
-1.487237250041e-06 -2.776409476313e-02 0.0 
-1.610720609211e-06 -2.754596664472e-02 0.0 
-1.779093519759e-06 -2.776467525187e-02 0.0 
-1.903385794534e-06 -2.754653901909e-02 0.0 
-2.080066249663e-06 -2.776524298610e-02 0.0 
-3.066126438887e-06 -2.767888565361e-02 0.0 
-2.202432283026e-06 -2.754708297486e-02 0.0 
-2.380746057656e-06 -2.776576036751e-02 0.0 
-2.502192138991e-06 -2.754755911329e-02 0.0 
-5.224664866688e-06 -2.789554322930e-02 0.0 
-2.674070766980e-06 -2.776618745203e-02 0.0 
-2.030331221390e-06 -2.754616787049e-02 0.0 
-2.791749298100e-06 -2.754792623850e-02 0.0 
-2.946920884589e-06 -2.776647780924e-02 0.0 
-3.050120616498e-06 -2.754811143679e-02 0.0 
-3.194293036627e-06 -2.776656404005e-02 0.0 
-3.299979160773e-06 -2.754808787340e-02 0.0 
-3.452488918099e-06 -2.776645819231e-02 0.0 
-3.570174577160e-06 -2.754783053133e-02 0.0 
-3.748011983702e-06 -2.776613486788e-02 0.0 
-3.760522128884e-07 -2.757661929970e-02 0.0 
-3.927025569556e-06 -2.754747466335e-02 0.0 
-4.110471983434e-06 -2.776576216027e-02 0.0 
-4.267609882115e-06 -2.754690539321e-02 0.0 
-4.461239941785e-06 -2.776515219291e-02 0.0 
-4.911099681103e-06 -2.776484970815e-02 0.0 
-4.732599993322e-06 -2.754652346074e-02 0.0 
-5.148172128511e-06 -2.776406153042e-02 0.0 
-4.937306130978e-06 -2.754577022033e-02 0.0 
-5.736488212002e-06 -2.776442311114e-02 0.0 
-4.843030914354e-06 -2.776318680923e-02 0.0 
-5.538412594359e-06 -2.754601778201e-02 0.0 
-4.489087983611e-06 -2.754480268475e-02 0.0 
-2.534590640690e-06 -2.779327687540e-02 0.0 
8.281446843103e-07 -2.765768462796e-02 0.0 
5.708849167477e-07 -2.765778251789e-02 0.0 
6.757455650612e-07 -2.787779680268e-02 0.0 
7.232840359968e-07 -2.743767034317e-02 0.0 
-2.146539251829e-07 -2.788159248240e-02 0.0 
-4.222404322516e-07 -2.705649102554e-02 0.0 
-5.042237905566e-07 -2.679185328621e-02 0.0 
-6.277807450411e-07 -2.705746852307e-02 0.0 
-6.442938127705e-07 -2.679038371154e-02 0.0 
-7.187426453604e-07 -2.705790305453e-02 0.0 
-7.072425506377e-07 -2.679068405568e-02 0.0 
-7.774372992840e-07 -2.705825909672e-02 0.0 
-7.674334666153e-07 -2.679102892467e-02 0.0 
-8.675806498166e-07 -2.705862312076e-02 0.0 
-8.716760996817e-07 -2.679138973393e-02 0.0 
-1.018144688697e-06 -2.705903583101e-02 0.0 
-1.044417963347e-06 -2.679180722890e-02 0.0 
-1.237896622146e-06 -2.705951648734e-02 0.0 
-1.278896879947e-06 -2.679231026770e-02 0.0 
-1.499287161473e-06 -2.706006716715e-02 0.0 
-1.539417971459e-06 -2.679287757614e-02 0.0 
-1.775143693973e-06 -2.706064082093e-02 0.0 
-1.944172079393e-06 -2.695532518782e-02 0.0 
-1.813512969974e-06 -2.679345750041e-02 0.0 
-2.064121103899e-06 -2.706119568733e-02 0.0 
-1.411805787950e-06 -2.679326877121e-02 0.0 
-2.113950716220e-06 -2.679399893942e-02 0.0 
-2.373707976682e-06 -2.706168497274e-02 0.0 
-2.443295530109e-06 -2.679446695361e-02 0.0 
-2.689458223538e-06 -2.706207988064e-02 0.0 
-2.765926892303e-06 -2.679483998648e-02 0.0 
-3.920114384576e-06 -2.722058835760e-02 0.0 
-2.971417698774e-06 -2.706231997189e-02 0.0 
-3.013828752678e-06 -2.679497185938e-02 0.0 
-3.198217794548e-06 -2.706228715764e-02 0.0 
-3.288352414627e-06 -2.679483133599e-02 0.0 
-3.507799439913e-06 -2.706200439078e-02 0.0 
-3.604377952381e-06 -2.679433439504e-02 0.0 
-3.845766675482e-06 -2.706150033105e-02 0.0 
-4.158106039987e-06 -2.679393352753e-02 0.0 
-4.396502832742e-06 -2.706105109277e-02 0.0 
-4.492104216762e-06 -2.679304944048e-02 0.0 
1.041369351714e-06 -2.682816427819e-02 0.0 
-5.159841077642e-06 -2.679314077293e-02 0.0 
-4.634571317673e-06 -2.706027500876e-02 0.0 
-4.294329194954e-06 -2.679185559213e-02 0.0 
-5.284076203167e-06 -2.706030973711e-02 0.0 
-4.337799588613e-06 -2.705927232695e-02 0.0 
-9.345729534686e-07 -2.709342744798e-02 0.0 
-9.521251275755e-07 -2.692862894950e-02 0.0 
-1.175166950555e-06 -2.692876526607e-02 0.0 
-1.070306302242e-06 -2.666273100798e-02 0.0 
-1.056985775889e-06 -2.719466320759e-02 0.0 
1.309153140461e-06 -2.720062283638e-02 0.0 
-3.978739161969e-07 -2.589040453282e-02 0.0 
-4.927159395947e-07 -2.620887236610e-02 0.0 
-5.997214163186e-07 -2.589159060253e-02 0.0 
-6.277423350100e-07 -2.620748671112e-02 0.0 
-6.564089802768e-07 -2.589211887029e-02 0.0 
-6.614603633147e-07 -2.620779687185e-02 0.0 
-6.610671206091e-07 -2.589245203462e-02 0.0 
-6.968454752635e-07 -2.620810904639e-02 0.0 
-6.889435460998e-07 -2.589273141395e-02 0.0 
-7.636269873168e-07 -2.620841790539e-02 0.0 
-7.663045487829e-07 -2.589302664393e-02 0.0 
-9.006269357983e-07 -2.620876987037e-02 0.0 
-9.344899784184e-07 -2.589342732947e-02 0.0 
-1.119281263769e-06 -2.620925846836e-02 0.0 
-1.167228860742e-06 -2.589398467287e-02 0.0 
-1.366975286908e-06 -2.620984688119e-02 0.0 
-2.148770284731e-06 -2.608308483327e-02 0.0 
-1.391160562610e-06 -2.589458650607e-02 0.0 
-1.601972523164e-06 -2.621043388050e-02 0.0 
-4.146901832533e-06 -2.639703778775e-02 0.0 
-1.639565215861e-06 -2.589514008965e-02 0.0 
-1.900935274993e-06 -2.621096696165e-02 0.0 
-1.320615210217e-06 -2.589449908247e-02 0.0 
-1.986012070796e-06 -2.589563267478e-02 0.0 
-2.268615065451e-06 -2.621144663343e-02 0.0 
-2.388466780954e-06 -2.589610448977e-02 0.0 
-2.639615914377e-06 -2.621188491580e-02 0.0 
-2.771986549380e-06 -2.589655509697e-02 0.0 
-2.940708581210e-06 -2.621216205514e-02 0.0 
1.408814555584e-07 -2.593208087619e-02 0.0 
-2.989415372478e-06 -2.589647236533e-02 0.0 
-3.152670164026e-06 -2.621182634793e-02 0.0 
-3.371703453690e-06 -2.589610750713e-02 0.0 
-3.603964216760e-06 -2.621144249944e-02 0.0 
-4.081283159190e-06 -2.621039446810e-02 0.0 
-3.768530059064e-06 -2.589506937603e-02 0.0 
-4.962048285161e-06 -2.621060431750e-02 0.0 
-4.789624020344e-06 -2.589506691035e-02 0.0 
-4.097775905329e-06 -2.620914848739e-02 0.0 
-4.042450213759e-06 -2.589383760023e-02 0.0 
-1.857250092244e-06 -2.624603383067e-02 0.0 
8.454835521850e-07 -2.605391920015e-02 0.0 
6.353003942980e-07 -2.605408615924e-02 0.0 
7.273023775187e-07 -2.637115747376e-02 0.0 
7.534815689644e-07 -2.573684788564e-02 0.0 
9.213163459989e-07 -2.637484807931e-02 0.0 
-4.220586969495e-07 -2.521011562026e-02 0.0 
-5.838370969128e-07 -2.484841573010e-02 0.0 
-6.666577928841e-07 -2.521142287909e-02 0.0 
-6.985325523843e-07 -2.484729628102e-02 0.0 
-6.602628210856e-07 -2.521209616363e-02 0.0 
-6.594877087399e-07 -2.484770767117e-02 0.0 
-6.552406252255e-07 -2.521238554059e-02 0.0 
-6.180238215130e-07 -2.484795454475e-02 0.0 
-6.159483877330e-07 -2.521264340633e-02 0.0 
-5.560079963785e-07 -2.484817499284e-02 0.0 
-6.316807162115e-07 -2.521287173900e-02 0.0 
-5.532462098032e-07 -2.484836790502e-02 0.0 
-7.217330849946e-07 -2.521318026906e-02 0.0 
-7.041334087358e-07 -2.484874026511e-02 0.0 
-9.648378991329e-07 -2.521371353004e-02 0.0 
-2.080743517837e-06 -2.506961946341e-02 0.0 
-8.645283603421e-07 -2.484942738700e-02 0.0 
-1.136812477830e-06 -2.485026754502e-02 0.0 
-1.091104597654e-06 -2.521443815472e-02 0.0 
-9.488017416237e-07 -2.485009143439e-02 0.0 
-1.286450399277e-06 -2.521494599490e-02 0.0 
-1.244261577513e-06 -2.485050679870e-02 0.0 
-1.682453189901e-06 -2.521536660658e-02 0.0 
-1.702462437035e-06 -2.485094943650e-02 0.0 
-4.018809992701e-06 -2.543240562934e-02 0.0 
-2.125873033433e-06 -2.521587336104e-02 0.0 
-2.180532141727e-06 -2.485151118586e-02 0.0 
-2.575496524251e-06 -2.521641249575e-02 0.0 
-2.730404640274e-06 -2.485220390479e-02 0.0 
-2.975601456671e-06 -2.521665681619e-02 0.0 
-2.865243798340e-06 -2.485163256749e-02 0.0 
-3.098091003811e-06 -2.521572927583e-02 0.0 
-3.694296833901e-06 -2.485108537279e-02 0.0 
-3.409406205154e-06 -2.484909955720e-02 0.0 
-4.132475126084e-06 -2.521509048067e-02 0.0 
1.059458302268e-07 -2.489394089135e-02 0.0 
-3.753801999288e-06 -2.521375089482e-02 0.0 
-1.832120644638e-06 -2.525672705728e-02 0.0 
-9.488710340548e-07 -2.503355405757e-02 0.0 
-1.183238972694e-06 -2.503367462906e-02 0.0 
-1.091236989474e-06 -2.467050341861e-02 0.0 
-1.040873017275e-06 -2.539672526801e-02 0.0 
9.213998294170e-07 -2.540350962325e-02 0.0 
-6.243578889994e-07 -2.365516424306e-02 0.0 
-8.762007950418e-07 -2.407115505218e-02 0.0 
-1.104546150069e-06 -2.365716159664e-02 0.0 
-8.440572114405e-07 -2.407029567649e-02 0.0 
-8.444296373035e-07 -2.365787434168e-02 0.0 
-6.981298659016e-07 -2.407048645375e-02 0.0 
-7.580594995453e-07 -2.365806118032e-02 0.0 
-6.822005386711e-07 -2.407085140189e-02 0.0 
-5.461284578199e-07 -2.365828792735e-02 0.0 
-4.220113493074e-07 -2.407092265672e-02 0.0 
-2.993153495855e-07 -2.365833688191e-02 0.0 
-3.548774902483e-07 -2.407108538405e-02 0.0 
-1.249393989322e-07 -2.365832923648e-02 0.0 
-1.413641587563e-06 -2.390467217308e-02 0.0 
-3.057084422282e-07 -2.407117175351e-02 0.0 
-1.649868020730e-07 -2.365899914111e-02 0.0 
-3.351109361063e-06 -2.431594510651e-02 0.0 
-4.631022297898e-07 -2.407228150967e-02 0.0 
-1.612801105036e-07 -2.366005184631e-02 0.0 
-4.046707041272e-07 -2.365995635324e-02 0.0 
-4.204033850252e-07 -2.407285100331e-02 0.0 
-2.459914373094e-07 -2.366020475008e-02 0.0 
-7.322009721441e-07 -2.407300598497e-02 0.0 
-7.167463971488e-07 -2.366045551960e-02 0.0 
-1.248816249652e-06 -2.407353916326e-02 0.0 
6.223437902653e-07 -2.370488561365e-02 0.0 
-1.174077807229e-06 -2.366112337392e-02 0.0 
-1.682383102907e-06 -2.407417147197e-02 0.0 
-2.316549495504e-06 -2.407482643056e-02 0.0 
-1.663492340660e-06 -2.366169530763e-02 0.0 
-3.101880483853e-06 -2.407543319564e-02 0.0 
-2.798382997414e-06 -2.366307997011e-02 0.0 
-2.699107181691e-06 -2.407247066091e-02 0.0 
-2.339538037113e-06 -2.366091519210e-02 0.0 
-1.315123983235e-06 -2.411615854708e-02 0.0 
9.545565611826e-07 -2.386780969334e-02 0.0 
8.102531286221e-07 -2.386726658567e-02 0.0 
8.121906057636e-07 -2.428178607451e-02 0.0 
9.526190840411e-07 -2.345329020450e-02 0.0 
1.243568694132e-06 -2.428582964798e-02 0.0 
-1.360924424712e-06 -2.277916855080e-02 0.0 
-1.715739654961e-06 -2.232109959622e-02 0.0 
-1.207518474276e-06 -2.278310183295e-02 0.0 
-1.210000343777e-06 -2.232223023617e-02 0.0 
-1.107400445434e-06 -2.278386866504e-02 0.0 
-1.322792101193e-06 -2.232184958557e-02 0.0 
-1.119750926707e-06 -2.278342998877e-02 0.0 
-1.133181279175e-06 -2.232224162575e-02 0.0 
-6.354177711619e-07 -2.278430934276e-02 0.0 
-4.819382449724e-07 -2.232242119249e-02 0.0 
-2.699529319085e-07 -2.278381400226e-02 0.0 
-2.694874204885e-07 -2.232220633217e-02 0.0 
-1.662255631754e-06 -2.260255168811e-02 0.0 
-6.891174684944e-08 -2.278397306426e-02 0.0 
4.512445570443e-07 -2.232695403779e-02 0.0 
7.728678412228e-07 -2.232206083136e-02 0.0 
8.575618292953e-07 -2.278424439119e-02 0.0 
1.305498637368e-06 -2.232345985584e-02 0.0 
5.847721252855e-07 -2.278598494240e-02 0.0 
8.351545023249e-07 -2.232417478176e-02 0.0 
2.635142142516e-07 -2.278559543244e-02 0.0 
4.567586350890e-07 -2.232354971273e-02 0.0 
-2.774167443831e-06 -2.306227783578e-02 0.0 
-3.729244147677e-08 -2.278560856501e-02 0.0 
2.957113174117e-07 -2.232430229152e-02 0.0 
-3.090041958377e-07 -2.278673345677e-02 0.0 
4.609557554404e-07 -2.232541394852e-02 0.0 
7.738395449273e-07 -2.232557097675e-02 0.0 
-3.852270937046e-07 -2.278732770134e-02 0.0 
-9.862592039382e-07 -2.278819212259e-02 0.0 
-1.281229583095e-07 -2.237702466179e-02 0.0 
-1.240034770387e-06 -2.283675080946e-02 0.0 
-7.963374584517e-07 -2.255776254523e-02 0.0 
-1.677207426725e-06 -2.255419460321e-02 0.0 
-1.675269949583e-06 -2.209574323413e-02 0.0 
-7.982749355932e-07 -2.301621391431e-02 0.0 
1.489031113895e-06 -2.302287385810e-02 0.0 

VECTORS element_materi_displacement float
0.0 0.0 0.0 
0.0 0.0 0.0 
0.0 0.0 0.0 
0.0 0.0 0.0 
0.0 0.0 0.0 
0.0 0.0 0.0 
0.0 0.0 0.0 
0.0 0.0 0.0 
0.0 0.0 0.0 
0.0 0.0 0.0 
0.0 0.0 0.0 
0.0 0.0 0.0 
0.0 0.0 0.0 
0.0 0.0 0.0 
0.0 0.0 0.0 
0.0 0.0 0.0 
0.0 0.0 0.0 
0.0 0.0 0.0 
0.0 0.0 0.0 
0.0 0.0 0.0 
0.0 0.0 0.0 
0.0 0.0 0.0 
0.0 0.0 0.0 
0.0 0.0 0.0 
0.0 0.0 0.0 
0.0 0.0 0.0 
0.0 0.0 0.0 
0.0 0.0 0.0 
0.0 0.0 0.0 
0.0 0.0 0.0 
0.0 0.0 0.0 
0.0 0.0 0.0 
0.0 0.0 0.0 
0.0 0.0 0.0 
0.0 0.0 0.0 
0.0 0.0 0.0 
0.0 0.0 0.0 
0.0 0.0 0.0 
0.0 0.0 0.0 
0.0 0.0 0.0 
0.0 0.0 0.0 
0.0 0.0 0.0 
0.0 0.0 0.0 
0.0 0.0 0.0 
0.0 0.0 0.0 
0.0 0.0 0.0 
0.0 0.0 0.0 
0.0 0.0 0.0 
0.0 0.0 0.0 
0.0 0.0 0.0 
0.0 0.0 0.0 
0.0 0.0 0.0 
0.0 0.0 0.0 
0.0 0.0 0.0 
0.0 0.0 0.0 
0.0 0.0 0.0 
0.0 0.0 0.0 
0.0 0.0 0.0 
0.0 0.0 0.0 
0.0 0.0 0.0 
0.0 0.0 0.0 
0.0 0.0 0.0 
0.0 0.0 0.0 
0.0 0.0 0.0 
0.0 0.0 0.0 
0.0 0.0 0.0 
0.0 0.0 0.0 
0.0 0.0 0.0 
0.0 0.0 0.0 
0.0 0.0 0.0 
0.0 0.0 0.0 
0.0 0.0 0.0 
0.0 0.0 0.0 
0.0 0.0 0.0 
0.0 0.0 0.0 
0.0 0.0 0.0 
0.0 0.0 0.0 
0.0 0.0 0.0 
0.0 0.0 0.0 
0.0 0.0 0.0 
0.0 0.0 0.0 
0.0 0.0 0.0 
0.0 0.0 0.0 
0.0 0.0 0.0 
0.0 0.0 0.0 
0.0 0.0 0.0 
0.0 0.0 0.0 
0.0 0.0 0.0 
0.0 0.0 0.0 
0.0 0.0 0.0 
0.0 0.0 0.0 
0.0 0.0 0.0 
0.0 0.0 0.0 
0.0 0.0 0.0 
0.0 0.0 0.0 
0.0 0.0 0.0 
0.0 0.0 0.0 
0.0 0.0 0.0 
0.0 0.0 0.0 
0.0 0.0 0.0 
0.0 0.0 0.0 
0.0 0.0 0.0 
0.0 0.0 0.0 
0.0 0.0 0.0 
0.0 0.0 0.0 
0.0 0.0 0.0 
0.0 0.0 0.0 
0.0 0.0 0.0 
0.0 0.0 0.0 
0.0 0.0 0.0 
0.0 0.0 0.0 
0.0 0.0 0.0 
0.0 0.0 0.0 
0.0 0.0 0.0 
0.0 0.0 0.0 
0.0 0.0 0.0 
0.0 0.0 0.0 
0.0 0.0 0.0 
0.0 0.0 0.0 
0.0 0.0 0.0 
0.0 0.0 0.0 
0.0 0.0 0.0 
0.0 0.0 0.0 
0.0 0.0 0.0 
0.0 0.0 0.0 
0.0 0.0 0.0 
0.0 0.0 0.0 
0.0 0.0 0.0 
0.0 0.0 0.0 
0.0 0.0 0.0 
0.0 0.0 0.0 
0.0 0.0 0.0 
0.0 0.0 0.0 
0.0 0.0 0.0 
0.0 0.0 0.0 
0.0 0.0 0.0 
0.0 0.0 0.0 
0.0 0.0 0.0 
0.0 0.0 0.0 
0.0 0.0 0.0 
0.0 0.0 0.0 
0.0 0.0 0.0 
0.0 0.0 0.0 
0.0 0.0 0.0 
0.0 0.0 0.0 
0.0 0.0 0.0 
0.0 0.0 0.0 
0.0 0.0 0.0 
0.0 0.0 0.0 
0.0 0.0 0.0 
0.0 0.0 0.0 
0.0 0.0 0.0 
0.0 0.0 0.0 
0.0 0.0 0.0 
0.0 0.0 0.0 
0.0 0.0 0.0 
0.0 0.0 0.0 
0.0 0.0 0.0 
0.0 0.0 0.0 
0.0 0.0 0.0 
0.0 0.0 0.0 
0.0 0.0 0.0 
0.0 0.0 0.0 
0.0 0.0 0.0 
0.0 0.0 0.0 
0.0 0.0 0.0 
0.0 0.0 0.0 
0.0 0.0 0.0 
0.0 0.0 0.0 
0.0 0.0 0.0 
0.0 0.0 0.0 
0.0 0.0 0.0 
0.0 0.0 0.0 
0.0 0.0 0.0 
0.0 0.0 0.0 
0.0 0.0 0.0 
0.0 0.0 0.0 
0.0 0.0 0.0 
0.0 0.0 0.0 
0.0 0.0 0.0 
0.0 0.0 0.0 
0.0 0.0 0.0 
0.0 0.0 0.0 
0.0 0.0 0.0 
0.0 0.0 0.0 
0.0 0.0 0.0 
0.0 0.0 0.0 
0.0 0.0 0.0 
0.0 0.0 0.0 
0.0 0.0 0.0 
0.0 0.0 0.0 
0.0 0.0 0.0 
0.0 0.0 0.0 
0.0 0.0 0.0 
0.0 0.0 0.0 
0.0 0.0 0.0 
0.0 0.0 0.0 
0.0 0.0 0.0 
0.0 0.0 0.0 
0.0 0.0 0.0 
0.0 0.0 0.0 
0.0 0.0 0.0 
0.0 0.0 0.0 
0.0 0.0 0.0 
0.0 0.0 0.0 
0.0 0.0 0.0 
0.0 0.0 0.0 
0.0 0.0 0.0 
0.0 0.0 0.0 
0.0 0.0 0.0 
0.0 0.0 0.0 
0.0 0.0 0.0 
0.0 0.0 0.0 
0.0 0.0 0.0 
0.0 0.0 0.0 
0.0 0.0 0.0 
0.0 0.0 0.0 
0.0 0.0 0.0 
0.0 0.0 0.0 
0.0 0.0 0.0 
0.0 0.0 0.0 
0.0 0.0 0.0 
0.0 0.0 0.0 
0.0 0.0 0.0 
0.0 0.0 0.0 
0.0 0.0 0.0 
0.0 0.0 0.0 
0.0 0.0 0.0 
0.0 0.0 0.0 
0.0 0.0 0.0 
0.0 0.0 0.0 
0.0 0.0 0.0 
0.0 0.0 0.0 
0.0 0.0 0.0 
0.0 0.0 0.0 
0.0 0.0 0.0 
0.0 0.0 0.0 
0.0 0.0 0.0 
0.0 0.0 0.0 
0.0 0.0 0.0 
0.0 0.0 0.0 
0.0 0.0 0.0 
0.0 0.0 0.0 
0.0 0.0 0.0 
0.0 0.0 0.0 
0.0 0.0 0.0 
0.0 0.0 0.0 
0.0 0.0 0.0 
0.0 0.0 0.0 
0.0 0.0 0.0 
0.0 0.0 0.0 
0.0 0.0 0.0 
0.0 0.0 0.0 
0.0 0.0 0.0 
0.0 0.0 0.0 
0.0 0.0 0.0 
0.0 0.0 0.0 
0.0 0.0 0.0 
0.0 0.0 0.0 
0.0 0.0 0.0 
0.0 0.0 0.0 
0.0 0.0 0.0 
0.0 0.0 0.0 
0.0 0.0 0.0 
0.0 0.0 0.0 
0.0 0.0 0.0 
0.0 0.0 0.0 
0.0 0.0 0.0 
0.0 0.0 0.0 
0.0 0.0 0.0 
0.0 0.0 0.0 
0.0 0.0 0.0 
0.0 0.0 0.0 
0.0 0.0 0.0 
0.0 0.0 0.0 
0.0 0.0 0.0 
0.0 0.0 0.0 
0.0 0.0 0.0 
0.0 0.0 0.0 
0.0 0.0 0.0 
0.0 0.0 0.0 
0.0 0.0 0.0 
0.0 0.0 0.0 
0.0 0.0 0.0 
0.0 0.0 0.0 
0.0 0.0 0.0 
0.0 0.0 0.0 
0.0 0.0 0.0 
0.0 0.0 0.0 
0.0 0.0 0.0 
0.0 0.0 0.0 
0.0 0.0 0.0 
0.0 0.0 0.0 
0.0 0.0 0.0 
0.0 0.0 0.0 
0.0 0.0 0.0 
0.0 0.0 0.0 
0.0 0.0 0.0 
0.0 0.0 0.0 
0.0 0.0 0.0 
0.0 0.0 0.0 
0.0 0.0 0.0 
0.0 0.0 0.0 
0.0 0.0 0.0 
0.0 0.0 0.0 
0.0 0.0 0.0 
0.0 0.0 0.0 
0.0 0.0 0.0 
0.0 0.0 0.0 
0.0 0.0 0.0 
0.0 0.0 0.0 
0.0 0.0 0.0 
0.0 0.0 0.0 
0.0 0.0 0.0 
0.0 0.0 0.0 
0.0 0.0 0.0 
0.0 0.0 0.0 
0.0 0.0 0.0 
0.0 0.0 0.0 
0.0 0.0 0.0 
0.0 0.0 0.0 
0.0 0.0 0.0 
0.0 0.0 0.0 
0.0 0.0 0.0 
0.0 0.0 0.0 
0.0 0.0 0.0 
0.0 0.0 0.0 
0.0 0.0 0.0 
0.0 0.0 0.0 
0.0 0.0 0.0 
0.0 0.0 0.0 
0.0 0.0 0.0 
0.0 0.0 0.0 
0.0 0.0 0.0 
0.0 0.0 0.0 
0.0 0.0 0.0 
0.0 0.0 0.0 
0.0 0.0 0.0 
0.0 0.0 0.0 
0.0 0.0 0.0 
0.0 0.0 0.0 
0.0 0.0 0.0 
0.0 0.0 0.0 
0.0 0.0 0.0 
0.0 0.0 0.0 
0.0 0.0 0.0 
0.0 0.0 0.0 
0.0 0.0 0.0 
0.0 0.0 0.0 
0.0 0.0 0.0 
0.0 0.0 0.0 
0.0 0.0 0.0 
0.0 0.0 0.0 
0.0 0.0 0.0 
0.0 0.0 0.0 
0.0 0.0 0.0 
0.0 0.0 0.0 
0.0 0.0 0.0 
0.0 0.0 0.0 
0.0 0.0 0.0 
0.0 0.0 0.0 
0.0 0.0 0.0 
0.0 0.0 0.0 
0.0 0.0 0.0 
0.0 0.0 0.0 
0.0 0.0 0.0 
0.0 0.0 0.0 
0.0 0.0 0.0 
0.0 0.0 0.0 
0.0 0.0 0.0 
0.0 0.0 0.0 
0.0 0.0 0.0 
0.0 0.0 0.0 
0.0 0.0 0.0 
0.0 0.0 0.0 
0.0 0.0 0.0 
0.0 0.0 0.0 
0.0 0.0 0.0 
0.0 0.0 0.0 
0.0 0.0 0.0 
0.0 0.0 0.0 
0.0 0.0 0.0 
0.0 0.0 0.0 
0.0 0.0 0.0 
0.0 0.0 0.0 
0.0 0.0 0.0 
0.0 0.0 0.0 
0.0 0.0 0.0 
0.0 0.0 0.0 
0.0 0.0 0.0 
0.0 0.0 0.0 
0.0 0.0 0.0 
0.0 0.0 0.0 
0.0 0.0 0.0 
0.0 0.0 0.0 
0.0 0.0 0.0 
0.0 0.0 0.0 
0.0 0.0 0.0 
0.0 0.0 0.0 
0.0 0.0 0.0 
0.0 0.0 0.0 
0.0 0.0 0.0 
0.0 0.0 0.0 
0.0 0.0 0.0 
0.0 0.0 0.0 
0.0 0.0 0.0 
0.0 0.0 0.0 
0.0 0.0 0.0 
0.0 0.0 0.0 
0.0 0.0 0.0 
0.0 0.0 0.0 
0.0 0.0 0.0 
0.0 0.0 0.0 
0.0 0.0 0.0 
0.0 0.0 0.0 
0.0 0.0 0.0 
0.0 0.0 0.0 
0.0 0.0 0.0 
0.0 0.0 0.0 
0.0 0.0 0.0 
0.0 0.0 0.0 
0.0 0.0 0.0 
0.0 0.0 0.0 
0.0 0.0 0.0 
0.0 0.0 0.0 
0.0 0.0 0.0 
0.0 0.0 0.0 
0.0 0.0 0.0 
0.0 0.0 0.0 
0.0 0.0 0.0 
0.0 0.0 0.0 
0.0 0.0 0.0 
0.0 0.0 0.0 
0.0 0.0 0.0 
0.0 0.0 0.0 
0.0 0.0 0.0 
0.0 0.0 0.0 
0.0 0.0 0.0 
0.0 0.0 0.0 
0.0 0.0 0.0 
0.0 0.0 0.0 
0.0 0.0 0.0 
0.0 0.0 0.0 
0.0 0.0 0.0 
0.0 0.0 0.0 
0.0 0.0 0.0 
0.0 0.0 0.0 
0.0 0.0 0.0 
0.0 0.0 0.0 
0.0 0.0 0.0 
0.0 0.0 0.0 
0.0 0.0 0.0 
0.0 0.0 0.0 
0.0 0.0 0.0 
0.0 0.0 0.0 
0.0 0.0 0.0 
0.0 0.0 0.0 
0.0 0.0 0.0 
0.0 0.0 0.0 
0.0 0.0 0.0 
0.0 0.0 0.0 
0.0 0.0 0.0 
0.0 0.0 0.0 
0.0 0.0 0.0 
0.0 0.0 0.0 
0.0 0.0 0.0 
0.0 0.0 0.0 
0.0 0.0 0.0 
0.0 0.0 0.0 
0.0 0.0 0.0 
0.0 0.0 0.0 
0.0 0.0 0.0 
0.0 0.0 0.0 
0.0 0.0 0.0 
0.0 0.0 0.0 
0.0 0.0 0.0 
0.0 0.0 0.0 
0.0 0.0 0.0 
0.0 0.0 0.0 
0.0 0.0 0.0 
0.0 0.0 0.0 
0.0 0.0 0.0 
0.0 0.0 0.0 
0.0 0.0 0.0 
0.0 0.0 0.0 
0.0 0.0 0.0 
0.0 0.0 0.0 
0.0 0.0 0.0 
0.0 0.0 0.0 
0.0 0.0 0.0 
0.0 0.0 0.0 
0.0 0.0 0.0 
0.0 0.0 0.0 
0.0 0.0 0.0 
0.0 0.0 0.0 
0.0 0.0 0.0 
0.0 0.0 0.0 
0.0 0.0 0.0 
0.0 0.0 0.0 
0.0 0.0 0.0 
0.0 0.0 0.0 
0.0 0.0 0.0 
0.0 0.0 0.0 
0.0 0.0 0.0 
0.0 0.0 0.0 
0.0 0.0 0.0 
0.0 0.0 0.0 
0.0 0.0 0.0 
0.0 0.0 0.0 
0.0 0.0 0.0 
0.0 0.0 0.0 
0.0 0.0 0.0 
0.0 0.0 0.0 
0.0 0.0 0.0 
0.0 0.0 0.0 
0.0 0.0 0.0 
0.0 0.0 0.0 
0.0 0.0 0.0 
0.0 0.0 0.0 
0.0 0.0 0.0 
0.0 0.0 0.0 
0.0 0.0 0.0 
0.0 0.0 0.0 
0.0 0.0 0.0 
0.0 0.0 0.0 
0.0 0.0 0.0 
0.0 0.0 0.0 
0.0 0.0 0.0 
0.0 0.0 0.0 
0.0 0.0 0.0 
0.0 0.0 0.0 
0.0 0.0 0.0 
0.0 0.0 0.0 
0.0 0.0 0.0 
0.0 0.0 0.0 
0.0 0.0 0.0 
0.0 0.0 0.0 
0.0 0.0 0.0 
0.0 0.0 0.0 
0.0 0.0 0.0 
0.0 0.0 0.0 
0.0 0.0 0.0 
0.0 0.0 0.0 
0.0 0.0 0.0 
0.0 0.0 0.0 
0.0 0.0 0.0 
0.0 0.0 0.0 
0.0 0.0 0.0 
0.0 0.0 0.0 
0.0 0.0 0.0 
0.0 0.0 0.0 
0.0 0.0 0.0 
0.0 0.0 0.0 
0.0 0.0 0.0 
0.0 0.0 0.0 
0.0 0.0 0.0 
0.0 0.0 0.0 
0.0 0.0 0.0 
0.0 0.0 0.0 
0.0 0.0 0.0 
0.0 0.0 0.0 
0.0 0.0 0.0 
0.0 0.0 0.0 
0.0 0.0 0.0 
0.0 0.0 0.0 
0.0 0.0 0.0 
0.0 0.0 0.0 
0.0 0.0 0.0 
0.0 0.0 0.0 
0.0 0.0 0.0 
0.0 0.0 0.0 
0.0 0.0 0.0 
0.0 0.0 0.0 
0.0 0.0 0.0 
0.0 0.0 0.0 
0.0 0.0 0.0 
0.0 0.0 0.0 
0.0 0.0 0.0 
0.0 0.0 0.0 
0.0 0.0 0.0 
0.0 0.0 0.0 
0.0 0.0 0.0 
0.0 0.0 0.0 
0.0 0.0 0.0 
0.0 0.0 0.0 
0.0 0.0 0.0 
0.0 0.0 0.0 
0.0 0.0 0.0 
0.0 0.0 0.0 
0.0 0.0 0.0 
0.0 0.0 0.0 
0.0 0.0 0.0 
0.0 0.0 0.0 
0.0 0.0 0.0 
0.0 0.0 0.0 
0.0 0.0 0.0 
0.0 0.0 0.0 
0.0 0.0 0.0 
0.0 0.0 0.0 
0.0 0.0 0.0 
0.0 0.0 0.0 
0.0 0.0 0.0 
0.0 0.0 0.0 
0.0 0.0 0.0 
0.0 0.0 0.0 
0.0 0.0 0.0 
0.0 0.0 0.0 
0.0 0.0 0.0 
0.0 0.0 0.0 
0.0 0.0 0.0 
0.0 0.0 0.0 
0.0 0.0 0.0 
0.0 0.0 0.0 
0.0 0.0 0.0 
0.0 0.0 0.0 
0.0 0.0 0.0 
0.0 0.0 0.0 
0.0 0.0 0.0 
0.0 0.0 0.0 
0.0 0.0 0.0 
0.0 0.0 0.0 
0.0 0.0 0.0 
0.0 0.0 0.0 
0.0 0.0 0.0 
0.0 0.0 0.0 
0.0 0.0 0.0 
0.0 0.0 0.0 
0.0 0.0 0.0 
0.0 0.0 0.0 
0.0 0.0 0.0 
0.0 0.0 0.0 
0.0 0.0 0.0 
0.0 0.0 0.0 
0.0 0.0 0.0 
0.0 0.0 0.0 
0.0 0.0 0.0 
0.0 0.0 0.0 
0.0 0.0 0.0 
0.0 0.0 0.0 
0.0 0.0 0.0 
0.0 0.0 0.0 
0.0 0.0 0.0 
0.0 0.0 0.0 
0.0 0.0 0.0 
0.0 0.0 0.0 
0.0 0.0 0.0 
0.0 0.0 0.0 
0.0 0.0 0.0 
0.0 0.0 0.0 
0.0 0.0 0.0 
0.0 0.0 0.0 
0.0 0.0 0.0 
0.0 0.0 0.0 
0.0 0.0 0.0 
0.0 0.0 0.0 
0.0 0.0 0.0 
0.0 0.0 0.0 
0.0 0.0 0.0 
0.0 0.0 0.0 
0.0 0.0 0.0 
0.0 0.0 0.0 
0.0 0.0 0.0 
0.0 0.0 0.0 
0.0 0.0 0.0 
0.0 0.0 0.0 
0.0 0.0 0.0 
0.0 0.0 0.0 
0.0 0.0 0.0 
0.0 0.0 0.0 
0.0 0.0 0.0 
0.0 0.0 0.0 
0.0 0.0 0.0 
0.0 0.0 0.0 
0.0 0.0 0.0 
0.0 0.0 0.0 
0.0 0.0 0.0 
0.0 0.0 0.0 
0.0 0.0 0.0 
0.0 0.0 0.0 
0.0 0.0 0.0 
0.0 0.0 0.0 
0.0 0.0 0.0 
0.0 0.0 0.0 
0.0 0.0 0.0 
0.0 0.0 0.0 
0.0 0.0 0.0 
0.0 0.0 0.0 
0.0 0.0 0.0 
0.0 0.0 0.0 
0.0 0.0 0.0 
0.0 0.0 0.0 
0.0 0.0 0.0 
0.0 0.0 0.0 
0.0 0.0 0.0 
0.0 0.0 0.0 
0.0 0.0 0.0 
0.0 0.0 0.0 
0.0 0.0 0.0 
0.0 0.0 0.0 
0.0 0.0 0.0 
0.0 0.0 0.0 
0.0 0.0 0.0 
0.0 0.0 0.0 
0.0 0.0 0.0 
0.0 0.0 0.0 
0.0 0.0 0.0 
0.0 0.0 0.0 
0.0 0.0 0.0 
0.0 0.0 0.0 
0.0 0.0 0.0 
0.0 0.0 0.0 
0.0 0.0 0.0 
0.0 0.0 0.0 
0.0 0.0 0.0 
0.0 0.0 0.0 
0.0 0.0 0.0 
0.0 0.0 0.0 
0.0 0.0 0.0 
0.0 0.0 0.0 
0.0 0.0 0.0 
0.0 0.0 0.0 
0.0 0.0 0.0 
0.0 0.0 0.0 
0.0 0.0 0.0 
0.0 0.0 0.0 
0.0 0.0 0.0 
0.0 0.0 0.0 
0.0 0.0 0.0 
0.0 0.0 0.0 
0.0 0.0 0.0 
0.0 0.0 0.0 
0.0 0.0 0.0 
0.0 0.0 0.0 
0.0 0.0 0.0 
0.0 0.0 0.0 
0.0 0.0 0.0 
0.0 0.0 0.0 
0.0 0.0 0.0 
0.0 0.0 0.0 
0.0 0.0 0.0 
0.0 0.0 0.0 
0.0 0.0 0.0 
0.0 0.0 0.0 
0.0 0.0 0.0 
0.0 0.0 0.0 
0.0 0.0 0.0 
0.0 0.0 0.0 
0.0 0.0 0.0 
0.0 0.0 0.0 
0.0 0.0 0.0 
0.0 0.0 0.0 
0.0 0.0 0.0 
0.0 0.0 0.0 
0.0 0.0 0.0 
0.0 0.0 0.0 
0.0 0.0 0.0 
0.0 0.0 0.0 
0.0 0.0 0.0 
0.0 0.0 0.0 
0.0 0.0 0.0 
0.0 0.0 0.0 
0.0 0.0 0.0 
0.0 0.0 0.0 
0.0 0.0 0.0 
0.0 0.0 0.0 
0.0 0.0 0.0 
0.0 0.0 0.0 
0.0 0.0 0.0 
0.0 0.0 0.0 
0.0 0.0 0.0 
0.0 0.0 0.0 
0.0 0.0 0.0 
0.0 0.0 0.0 
0.0 0.0 0.0 
0.0 0.0 0.0 
0.0 0.0 0.0 
0.0 0.0 0.0 
0.0 0.0 0.0 
0.0 0.0 0.0 
0.0 0.0 0.0 
0.0 0.0 0.0 
0.0 0.0 0.0 
0.0 0.0 0.0 
0.0 0.0 0.0 
0.0 0.0 0.0 
0.0 0.0 0.0 
0.0 0.0 0.0 
0.0 0.0 0.0 
0.0 0.0 0.0 
0.0 0.0 0.0 
0.0 0.0 0.0 
0.0 0.0 0.0 
0.0 0.0 0.0 
0.0 0.0 0.0 
0.0 0.0 0.0 
0.0 0.0 0.0 
0.0 0.0 0.0 
0.0 0.0 0.0 
0.0 0.0 0.0 
0.0 0.0 0.0 
0.0 0.0 0.0 
0.0 0.0 0.0 
0.0 0.0 0.0 
0.0 0.0 0.0 
0.0 0.0 0.0 
0.0 0.0 0.0 
0.0 0.0 0.0 
0.0 0.0 0.0 
0.0 0.0 0.0 
0.0 0.0 0.0 
0.0 0.0 0.0 
0.0 0.0 0.0 
0.0 0.0 0.0 
0.0 0.0 0.0 
0.0 0.0 0.0 
0.0 0.0 0.0 
0.0 0.0 0.0 
0.0 0.0 0.0 
0.0 0.0 0.0 
0.0 0.0 0.0 
0.0 0.0 0.0 
0.0 0.0 0.0 
0.0 0.0 0.0 
0.0 0.0 0.0 
0.0 0.0 0.0 
0.0 0.0 0.0 
0.0 0.0 0.0 
0.0 0.0 0.0 
0.0 0.0 0.0 
0.0 0.0 0.0 
0.0 0.0 0.0 
0.0 0.0 0.0 
0.0 0.0 0.0 
0.0 0.0 0.0 
0.0 0.0 0.0 
0.0 0.0 0.0 
0.0 0.0 0.0 
0.0 0.0 0.0 
0.0 0.0 0.0 
0.0 0.0 0.0 
0.0 0.0 0.0 
0.0 0.0 0.0 
0.0 0.0 0.0 
0.0 0.0 0.0 
0.0 0.0 0.0 
0.0 0.0 0.0 
0.0 0.0 0.0 
0.0 0.0 0.0 
0.0 0.0 0.0 
0.0 0.0 0.0 
0.0 0.0 0.0 
0.0 0.0 0.0 
0.0 0.0 0.0 
0.0 0.0 0.0 
0.0 0.0 0.0 
0.0 0.0 0.0 
0.0 0.0 0.0 
0.0 0.0 0.0 
0.0 0.0 0.0 
0.0 0.0 0.0 
0.0 0.0 0.0 
0.0 0.0 0.0 
0.0 0.0 0.0 
0.0 0.0 0.0 
0.0 0.0 0.0 
0.0 0.0 0.0 
0.0 0.0 0.0 
0.0 0.0 0.0 
0.0 0.0 0.0 
0.0 0.0 0.0 
0.0 0.0 0.0 
0.0 0.0 0.0 
0.0 0.0 0.0 
0.0 0.0 0.0 
0.0 0.0 0.0 
0.0 0.0 0.0 
0.0 0.0 0.0 
0.0 0.0 0.0 
0.0 0.0 0.0 
0.0 0.0 0.0 
0.0 0.0 0.0 
0.0 0.0 0.0 
0.0 0.0 0.0 
0.0 0.0 0.0 
0.0 0.0 0.0 
0.0 0.0 0.0 
0.0 0.0 0.0 
0.0 0.0 0.0 
0.0 0.0 0.0 
0.0 0.0 0.0 
0.0 0.0 0.0 
0.0 0.0 0.0 
0.0 0.0 0.0 
0.0 0.0 0.0 
0.0 0.0 0.0 
0.0 0.0 0.0 
0.0 0.0 0.0 
0.0 0.0 0.0 
0.0 0.0 0.0 
0.0 0.0 0.0 
0.0 0.0 0.0 
0.0 0.0 0.0 
0.0 0.0 0.0 
0.0 0.0 0.0 
0.0 0.0 0.0 
0.0 0.0 0.0 
0.0 0.0 0.0 
0.0 0.0 0.0 
0.0 0.0 0.0 
0.0 0.0 0.0 
0.0 0.0 0.0 
0.0 0.0 0.0 
0.0 0.0 0.0 
0.0 0.0 0.0 
0.0 0.0 0.0 
0.0 0.0 0.0 
0.0 0.0 0.0 
0.0 0.0 0.0 
0.0 0.0 0.0 
0.0 0.0 0.0 
0.0 0.0 0.0 
0.0 0.0 0.0 
0.0 0.0 0.0 
0.0 0.0 0.0 
0.0 0.0 0.0 
0.0 0.0 0.0 
0.0 0.0 0.0 
0.0 0.0 0.0 
0.0 0.0 0.0 
0.0 0.0 0.0 
0.0 0.0 0.0 
0.0 0.0 0.0 
0.0 0.0 0.0 
0.0 0.0 0.0 
0.0 0.0 0.0 
0.0 0.0 0.0 
0.0 0.0 0.0 
0.0 0.0 0.0 
0.0 0.0 0.0 
0.0 0.0 0.0 
0.0 0.0 0.0 
0.0 0.0 0.0 
0.0 0.0 0.0 
0.0 0.0 0.0 
0.0 0.0 0.0 
0.0 0.0 0.0 
0.0 0.0 0.0 
0.0 0.0 0.0 
0.0 0.0 0.0 
0.0 0.0 0.0 
0.0 0.0 0.0 
0.0 0.0 0.0 
0.0 0.0 0.0 
0.0 0.0 0.0 
0.0 0.0 0.0 
0.0 0.0 0.0 
0.0 0.0 0.0 
0.0 0.0 0.0 
0.0 0.0 0.0 
0.0 0.0 0.0 
0.0 0.0 0.0 
0.0 0.0 0.0 
0.0 0.0 0.0 
0.0 0.0 0.0 
0.0 0.0 0.0 
0.0 0.0 0.0 
0.0 0.0 0.0 
0.0 0.0 0.0 
0.0 0.0 0.0 
0.0 0.0 0.0 
0.0 0.0 0.0 
0.0 0.0 0.0 
0.0 0.0 0.0 
0.0 0.0 0.0 
0.0 0.0 0.0 
0.0 0.0 0.0 
0.0 0.0 0.0 
0.0 0.0 0.0 
0.0 0.0 0.0 
0.0 0.0 0.0 
0.0 0.0 0.0 
0.0 0.0 0.0 
0.0 0.0 0.0 
0.0 0.0 0.0 
0.0 0.0 0.0 
0.0 0.0 0.0 
0.0 0.0 0.0 
0.0 0.0 0.0 
0.0 0.0 0.0 
0.0 0.0 0.0 
0.0 0.0 0.0 
0.0 0.0 0.0 
0.0 0.0 0.0 
0.0 0.0 0.0 
0.0 0.0 0.0 
0.0 0.0 0.0 
0.0 0.0 0.0 
0.0 0.0 0.0 
0.0 0.0 0.0 
0.0 0.0 0.0 
0.0 0.0 0.0 
0.0 0.0 0.0 
0.0 0.0 0.0 
0.0 0.0 0.0 
0.0 0.0 0.0 
0.0 0.0 0.0 
0.0 0.0 0.0 
0.0 0.0 0.0 
0.0 0.0 0.0 
0.0 0.0 0.0 
0.0 0.0 0.0 
0.0 0.0 0.0 
0.0 0.0 0.0 
0.0 0.0 0.0 
0.0 0.0 0.0 
0.0 0.0 0.0 
0.0 0.0 0.0 
0.0 0.0 0.0 
0.0 0.0 0.0 
0.0 0.0 0.0 
0.0 0.0 0.0 
0.0 0.0 0.0 
0.0 0.0 0.0 
0.0 0.0 0.0 
0.0 0.0 0.0 
0.0 0.0 0.0 
0.0 0.0 0.0 
0.0 0.0 0.0 
0.0 0.0 0.0 
0.0 0.0 0.0 
0.0 0.0 0.0 
0.0 0.0 0.0 
0.0 0.0 0.0 
0.0 0.0 0.0 
0.0 0.0 0.0 
0.0 0.0 0.0 
0.0 0.0 0.0 
0.0 0.0 0.0 
0.0 0.0 0.0 
0.0 0.0 0.0 
0.0 0.0 0.0 
0.0 0.0 0.0 
0.0 0.0 0.0 
0.0 0.0 0.0 
0.0 0.0 0.0 
0.0 0.0 0.0 
0.0 0.0 0.0 
0.0 0.0 0.0 
0.0 0.0 0.0 
0.0 0.0 0.0 
0.0 0.0 0.0 
0.0 0.0 0.0 
0.0 0.0 0.0 
0.0 0.0 0.0 
0.0 0.0 0.0 
0.0 0.0 0.0 
0.0 0.0 0.0 
0.0 0.0 0.0 
0.0 0.0 0.0 
0.0 0.0 0.0 
0.0 0.0 0.0 
0.0 0.0 0.0 
0.0 0.0 0.0 
0.0 0.0 0.0 
0.0 0.0 0.0 
0.0 0.0 0.0 
0.0 0.0 0.0 
0.0 0.0 0.0 
0.0 0.0 0.0 
0.0 0.0 0.0 
0.0 0.0 0.0 
0.0 0.0 0.0 
0.0 0.0 0.0 
0.0 0.0 0.0 
0.0 0.0 0.0 
0.0 0.0 0.0 
0.0 0.0 0.0 
0.0 0.0 0.0 
0.0 0.0 0.0 
0.0 0.0 0.0 
0.0 0.0 0.0 
0.0 0.0 0.0 
0.0 0.0 0.0 
0.0 0.0 0.0 
0.0 0.0 0.0 
0.0 0.0 0.0 
0.0 0.0 0.0 
0.0 0.0 0.0 
0.0 0.0 0.0 
0.0 0.0 0.0 
0.0 0.0 0.0 
0.0 0.0 0.0 
0.0 0.0 0.0 
0.0 0.0 0.0 
0.0 0.0 0.0 
0.0 0.0 0.0 
0.0 0.0 0.0 
0.0 0.0 0.0 
0.0 0.0 0.0 
0.0 0.0 0.0 
0.0 0.0 0.0 
0.0 0.0 0.0 
0.0 0.0 0.0 
0.0 0.0 0.0 
0.0 0.0 0.0 
0.0 0.0 0.0 
0.0 0.0 0.0 
0.0 0.0 0.0 
0.0 0.0 0.0 
0.0 0.0 0.0 
0.0 0.0 0.0 
0.0 0.0 0.0 
0.0 0.0 0.0 
0.0 0.0 0.0 
0.0 0.0 0.0 
0.0 0.0 0.0 
0.0 0.0 0.0 
0.0 0.0 0.0 
0.0 0.0 0.0 
0.0 0.0 0.0 
0.0 0.0 0.0 
0.0 0.0 0.0 
0.0 0.0 0.0 
0.0 0.0 0.0 
0.0 0.0 0.0 
0.0 0.0 0.0 
0.0 0.0 0.0 
0.0 0.0 0.0 
0.0 0.0 0.0 
0.0 0.0 0.0 
0.0 0.0 0.0 
0.0 0.0 0.0 
0.0 0.0 0.0 
0.0 0.0 0.0 
0.0 0.0 0.0 
0.0 0.0 0.0 
0.0 0.0 0.0 
0.0 0.0 0.0 
0.0 0.0 0.0 
0.0 0.0 0.0 
0.0 0.0 0.0 
0.0 0.0 0.0 
0.0 0.0 0.0 
0.0 0.0 0.0 
0.0 0.0 0.0 
0.0 0.0 0.0 
0.0 0.0 0.0 
0.0 0.0 0.0 
0.0 0.0 0.0 
0.0 0.0 0.0 
0.0 0.0 0.0 
0.0 0.0 0.0 
0.0 0.0 0.0 
0.0 0.0 0.0 
0.0 0.0 0.0 
0.0 0.0 0.0 
0.0 0.0 0.0 
0.0 0.0 0.0 
0.0 0.0 0.0 
0.0 0.0 0.0 
0.0 0.0 0.0 
0.0 0.0 0.0 
0.0 0.0 0.0 
0.0 0.0 0.0 
0.0 0.0 0.0 
0.0 0.0 0.0 
0.0 0.0 0.0 
0.0 0.0 0.0 
0.0 0.0 0.0 
0.0 0.0 0.0 
0.0 0.0 0.0 
0.0 0.0 0.0 
0.0 0.0 0.0 
0.0 0.0 0.0 
0.0 0.0 0.0 
0.0 0.0 0.0 
0.0 0.0 0.0 
0.0 0.0 0.0 
0.0 0.0 0.0 
0.0 0.0 0.0 
0.0 0.0 0.0 
0.0 0.0 0.0 
0.0 0.0 0.0 
0.0 0.0 0.0 
0.0 0.0 0.0 
0.0 0.0 0.0 
0.0 0.0 0.0 
0.0 0.0 0.0 
0.0 0.0 0.0 
0.0 0.0 0.0 
0.0 0.0 0.0 
0.0 0.0 0.0 
0.0 0.0 0.0 
0.0 0.0 0.0 
0.0 0.0 0.0 
0.0 0.0 0.0 
0.0 0.0 0.0 
0.0 0.0 0.0 
0.0 0.0 0.0 
0.0 0.0 0.0 
0.0 0.0 0.0 
0.0 0.0 0.0 
0.0 0.0 0.0 
0.0 0.0 0.0 
0.0 0.0 0.0 
0.0 0.0 0.0 
0.0 0.0 0.0 
0.0 0.0 0.0 
0.0 0.0 0.0 
0.0 0.0 0.0 
0.0 0.0 0.0 
0.0 0.0 0.0 
0.0 0.0 0.0 
0.0 0.0 0.0 
0.0 0.0 0.0 
0.0 0.0 0.0 
0.0 0.0 0.0 
0.0 0.0 0.0 
0.0 0.0 0.0 
0.0 0.0 0.0 
0.0 0.0 0.0 
0.0 0.0 0.0 
0.0 0.0 0.0 
0.0 0.0 0.0 
0.0 0.0 0.0 
0.0 0.0 0.0 
0.0 0.0 0.0 
0.0 0.0 0.0 
0.0 0.0 0.0 
0.0 0.0 0.0 
0.0 0.0 0.0 
0.0 0.0 0.0 
0.0 0.0 0.0 
0.0 0.0 0.0 
0.0 0.0 0.0 
0.0 0.0 0.0 
0.0 0.0 0.0 
0.0 0.0 0.0 
0.0 0.0 0.0 
0.0 0.0 0.0 
0.0 0.0 0.0 
0.0 0.0 0.0 
0.0 0.0 0.0 
0.0 0.0 0.0 
0.0 0.0 0.0 
0.0 0.0 0.0 
0.0 0.0 0.0 
0.0 0.0 0.0 
0.0 0.0 0.0 
0.0 0.0 0.0 
0.0 0.0 0.0 
0.0 0.0 0.0 
0.0 0.0 0.0 
0.0 0.0 0.0 
0.0 0.0 0.0 
0.0 0.0 0.0 
0.0 0.0 0.0 
0.0 0.0 0.0 
0.0 0.0 0.0 
0.0 0.0 0.0 
0.0 0.0 0.0 
0.0 0.0 0.0 
0.0 0.0 0.0 
0.0 0.0 0.0 
0.0 0.0 0.0 
0.0 0.0 0.0 
0.0 0.0 0.0 
0.0 0.0 0.0 
0.0 0.0 0.0 
0.0 0.0 0.0 
0.0 0.0 0.0 
0.0 0.0 0.0 
0.0 0.0 0.0 
0.0 0.0 0.0 
0.0 0.0 0.0 
0.0 0.0 0.0 
0.0 0.0 0.0 
0.0 0.0 0.0 
0.0 0.0 0.0 
0.0 0.0 0.0 
0.0 0.0 0.0 
0.0 0.0 0.0 
0.0 0.0 0.0 
0.0 0.0 0.0 
0.0 0.0 0.0 
0.0 0.0 0.0 
0.0 0.0 0.0 
0.0 0.0 0.0 
0.0 0.0 0.0 
0.0 0.0 0.0 
0.0 0.0 0.0 
0.0 0.0 0.0 
0.0 0.0 0.0 
0.0 0.0 0.0 
0.0 0.0 0.0 
0.0 0.0 0.0 
0.0 0.0 0.0 
0.0 0.0 0.0 
0.0 0.0 0.0 
0.0 0.0 0.0 
0.0 0.0 0.0 
0.0 0.0 0.0 
0.0 0.0 0.0 
0.0 0.0 0.0 
0.0 0.0 0.0 
0.0 0.0 0.0 
0.0 0.0 0.0 
0.0 0.0 0.0 
0.0 0.0 0.0 
0.0 0.0 0.0 
0.0 0.0 0.0 
0.0 0.0 0.0 
0.0 0.0 0.0 
0.0 0.0 0.0 
0.0 0.0 0.0 
0.0 0.0 0.0 
0.0 0.0 0.0 
0.0 0.0 0.0 
0.0 0.0 0.0 
0.0 0.0 0.0 
0.0 0.0 0.0 
0.0 0.0 0.0 
0.0 0.0 0.0 
0.0 0.0 0.0 
0.0 0.0 0.0 
0.0 0.0 0.0 
0.0 0.0 0.0 
0.0 0.0 0.0 
0.0 0.0 0.0 
0.0 0.0 0.0 
0.0 0.0 0.0 
0.0 0.0 0.0 
0.0 0.0 0.0 
0.0 0.0 0.0 
0.0 0.0 0.0 
0.0 0.0 0.0 
0.0 0.0 0.0 
0.0 0.0 0.0 
0.0 0.0 0.0 
0.0 0.0 0.0 
0.0 0.0 0.0 
0.0 0.0 0.0 
0.0 0.0 0.0 
0.0 0.0 0.0 
0.0 0.0 0.0 
0.0 0.0 0.0 
0.0 0.0 0.0 
0.0 0.0 0.0 
0.0 0.0 0.0 
0.0 0.0 0.0 
0.0 0.0 0.0 
0.0 0.0 0.0 
0.0 0.0 0.0 
0.0 0.0 0.0 
0.0 0.0 0.0 
0.0 0.0 0.0 
0.0 0.0 0.0 
0.0 0.0 0.0 
0.0 0.0 0.0 
0.0 0.0 0.0 
0.0 0.0 0.0 
0.0 0.0 0.0 
0.0 0.0 0.0 
0.0 0.0 0.0 
0.0 0.0 0.0 
0.0 0.0 0.0 
0.0 0.0 0.0 
0.0 0.0 0.0 
0.0 0.0 0.0 
0.0 0.0 0.0 
0.0 0.0 0.0 
0.0 0.0 0.0 
0.0 0.0 0.0 
0.0 0.0 0.0 
0.0 0.0 0.0 
0.0 0.0 0.0 
0.0 0.0 0.0 
0.0 0.0 0.0 
0.0 0.0 0.0 
0.0 0.0 0.0 
0.0 0.0 0.0 
0.0 0.0 0.0 
0.0 0.0 0.0 
0.0 0.0 0.0 
0.0 0.0 0.0 
0.0 0.0 0.0 
0.0 0.0 0.0 
0.0 0.0 0.0 
0.0 0.0 0.0 
0.0 0.0 0.0 
0.0 0.0 0.0 
0.0 0.0 0.0 
0.0 0.0 0.0 
0.0 0.0 0.0 
0.0 0.0 0.0 
0.0 0.0 0.0 
0.0 0.0 0.0 
0.0 0.0 0.0 
0.0 0.0 0.0 
0.0 0.0 0.0 
0.0 0.0 0.0 
0.0 0.0 0.0 
0.0 0.0 0.0 
0.0 0.0 0.0 
0.0 0.0 0.0 
0.0 0.0 0.0 
0.0 0.0 0.0 
0.0 0.0 0.0 
0.0 0.0 0.0 
0.0 0.0 0.0 
0.0 0.0 0.0 
0.0 0.0 0.0 
0.0 0.0 0.0 
0.0 0.0 0.0 
0.0 0.0 0.0 
0.0 0.0 0.0 
0.0 0.0 0.0 
0.0 0.0 0.0 
0.0 0.0 0.0 
0.0 0.0 0.0 
0.0 0.0 0.0 
0.0 0.0 0.0 
0.0 0.0 0.0 
0.0 0.0 0.0 
0.0 0.0 0.0 
0.0 0.0 0.0 
0.0 0.0 0.0 
0.0 0.0 0.0 
0.0 0.0 0.0 
0.0 0.0 0.0 
0.0 0.0 0.0 
0.0 0.0 0.0 
0.0 0.0 0.0 
0.0 0.0 0.0 
0.0 0.0 0.0 
0.0 0.0 0.0 
0.0 0.0 0.0 
0.0 0.0 0.0 
0.0 0.0 0.0 
0.0 0.0 0.0 
0.0 0.0 0.0 
0.0 0.0 0.0 
0.0 0.0 0.0 
0.0 0.0 0.0 
0.0 0.0 0.0 
0.0 0.0 0.0 
0.0 0.0 0.0 
0.0 0.0 0.0 
0.0 0.0 0.0 
0.0 0.0 0.0 
0.0 0.0 0.0 
0.0 0.0 0.0 
0.0 0.0 0.0 
0.0 0.0 0.0 
0.0 0.0 0.0 
0.0 0.0 0.0 
0.0 0.0 0.0 
0.0 0.0 0.0 
0.0 0.0 0.0 
0.0 0.0 0.0 
0.0 0.0 0.0 
0.0 0.0 0.0 
0.0 0.0 0.0 
0.0 0.0 0.0 
0.0 0.0 0.0 
0.0 0.0 0.0 
0.0 0.0 0.0 
0.0 0.0 0.0 
0.0 0.0 0.0 
0.0 0.0 0.0 
0.0 0.0 0.0 
0.0 0.0 0.0 
0.0 0.0 0.0 
0.0 0.0 0.0 
0.0 0.0 0.0 
0.0 0.0 0.0 
0.0 0.0 0.0 
0.0 0.0 0.0 
0.0 0.0 0.0 
0.0 0.0 0.0 
0.0 0.0 0.0 
0.0 0.0 0.0 
0.0 0.0 0.0 
0.0 0.0 0.0 
0.0 0.0 0.0 
0.0 0.0 0.0 
0.0 0.0 0.0 
0.0 0.0 0.0 
0.0 0.0 0.0 
0.0 0.0 0.0 
0.0 0.0 0.0 
0.0 0.0 0.0 
0.0 0.0 0.0 
0.0 0.0 0.0 
0.0 0.0 0.0 
0.0 0.0 0.0 
0.0 0.0 0.0 
0.0 0.0 0.0 
0.0 0.0 0.0 
0.0 0.0 0.0 
0.0 0.0 0.0 
0.0 0.0 0.0 
0.0 0.0 0.0 
0.0 0.0 0.0 
0.0 0.0 0.0 
0.0 0.0 0.0 
0.0 0.0 0.0 
0.0 0.0 0.0 
0.0 0.0 0.0 
0.0 0.0 0.0 
0.0 0.0 0.0 
0.0 0.0 0.0 
0.0 0.0 0.0 
0.0 0.0 0.0 
0.0 0.0 0.0 
0.0 0.0 0.0 
0.0 0.0 0.0 
0.0 0.0 0.0 
0.0 0.0 0.0 
0.0 0.0 0.0 
0.0 0.0 0.0 
0.0 0.0 0.0 
0.0 0.0 0.0 
0.0 0.0 0.0 
0.0 0.0 0.0 
0.0 0.0 0.0 
0.0 0.0 0.0 
0.0 0.0 0.0 
0.0 0.0 0.0 
0.0 0.0 0.0 
0.0 0.0 0.0 
0.0 0.0 0.0 
0.0 0.0 0.0 
0.0 0.0 0.0 
0.0 0.0 0.0 
0.0 0.0 0.0 
0.0 0.0 0.0 
0.0 0.0 0.0 
0.0 0.0 0.0 
0.0 0.0 0.0 
0.0 0.0 0.0 
0.0 0.0 0.0 
0.0 0.0 0.0 
0.0 0.0 0.0 
0.0 0.0 0.0 
0.0 0.0 0.0 
0.0 0.0 0.0 
0.0 0.0 0.0 
0.0 0.0 0.0 
0.0 0.0 0.0 
0.0 0.0 0.0 
0.0 0.0 0.0 
0.0 0.0 0.0 
0.0 0.0 0.0 
0.0 0.0 0.0 
0.0 0.0 0.0 
0.0 0.0 0.0 
0.0 0.0 0.0 
0.0 0.0 0.0 
0.0 0.0 0.0 
0.0 0.0 0.0 
0.0 0.0 0.0 
0.0 0.0 0.0 
0.0 0.0 0.0 
0.0 0.0 0.0 
0.0 0.0 0.0 
0.0 0.0 0.0 
0.0 0.0 0.0 
0.0 0.0 0.0 
0.0 0.0 0.0 
0.0 0.0 0.0 
0.0 0.0 0.0 
0.0 0.0 0.0 
0.0 0.0 0.0 
0.0 0.0 0.0 
0.0 0.0 0.0 
0.0 0.0 0.0 
0.0 0.0 0.0 
0.0 0.0 0.0 
0.0 0.0 0.0 
0.0 0.0 0.0 
0.0 0.0 0.0 
0.0 0.0 0.0 
0.0 0.0 0.0 
0.0 0.0 0.0 
0.0 0.0 0.0 
0.0 0.0 0.0 
0.0 0.0 0.0 
0.0 0.0 0.0 
0.0 0.0 0.0 
0.0 0.0 0.0 
0.0 0.0 0.0 
0.0 0.0 0.0 
0.0 0.0 0.0 
0.0 0.0 0.0 
0.0 0.0 0.0 
0.0 0.0 0.0 
0.0 0.0 0.0 
0.0 0.0 0.0 
0.0 0.0 0.0 
0.0 0.0 0.0 
0.0 0.0 0.0 
0.0 0.0 0.0 
0.0 0.0 0.0 
0.0 0.0 0.0 
0.0 0.0 0.0 
0.0 0.0 0.0 
0.0 0.0 0.0 
0.0 0.0 0.0 
0.0 0.0 0.0 
0.0 0.0 0.0 
0.0 0.0 0.0 
0.0 0.0 0.0 
0.0 0.0 0.0 
0.0 0.0 0.0 
0.0 0.0 0.0 
0.0 0.0 0.0 
0.0 0.0 0.0 
0.0 0.0 0.0 
0.0 0.0 0.0 
0.0 0.0 0.0 
0.0 0.0 0.0 
0.0 0.0 0.0 
0.0 0.0 0.0 
0.0 0.0 0.0 
0.0 0.0 0.0 
0.0 0.0 0.0 
0.0 0.0 0.0 
0.0 0.0 0.0 
0.0 0.0 0.0 
0.0 0.0 0.0 
0.0 0.0 0.0 
0.0 0.0 0.0 
0.0 0.0 0.0 
0.0 0.0 0.0 
0.0 0.0 0.0 
0.0 0.0 0.0 
0.0 0.0 0.0 
0.0 0.0 0.0 
0.0 0.0 0.0 
0.0 0.0 0.0 
0.0 0.0 0.0 
0.0 0.0 0.0 
0.0 0.0 0.0 
0.0 0.0 0.0 
0.0 0.0 0.0 
0.0 0.0 0.0 
0.0 0.0 0.0 
0.0 0.0 0.0 
0.0 0.0 0.0 
0.0 0.0 0.0 
0.0 0.0 0.0 
0.0 0.0 0.0 
0.0 0.0 0.0 
0.0 0.0 0.0 
0.0 0.0 0.0 
0.0 0.0 0.0 
0.0 0.0 0.0 
0.0 0.0 0.0 
0.0 0.0 0.0 
0.0 0.0 0.0 
0.0 0.0 0.0 
0.0 0.0 0.0 
0.0 0.0 0.0 
0.0 0.0 0.0 
0.0 0.0 0.0 
0.0 0.0 0.0 
0.0 0.0 0.0 
0.0 0.0 0.0 
0.0 0.0 0.0 
0.0 0.0 0.0 
0.0 0.0 0.0 
0.0 0.0 0.0 
0.0 0.0 0.0 
0.0 0.0 0.0 
0.0 0.0 0.0 
0.0 0.0 0.0 
0.0 0.0 0.0 
0.0 0.0 0.0 
0.0 0.0 0.0 
0.0 0.0 0.0 
0.0 0.0 0.0 
0.0 0.0 0.0 
0.0 0.0 0.0 
0.0 0.0 0.0 
0.0 0.0 0.0 
0.0 0.0 0.0 
0.0 0.0 0.0 
0.0 0.0 0.0 
0.0 0.0 0.0 
0.0 0.0 0.0 
0.0 0.0 0.0 
0.0 0.0 0.0 
0.0 0.0 0.0 
0.0 0.0 0.0 
0.0 0.0 0.0 
0.0 0.0 0.0 
0.0 0.0 0.0 
0.0 0.0 0.0 
0.0 0.0 0.0 
0.0 0.0 0.0 
0.0 0.0 0.0 
0.0 0.0 0.0 
0.0 0.0 0.0 
0.0 0.0 0.0 
0.0 0.0 0.0 
0.0 0.0 0.0 
0.0 0.0 0.0 
0.0 0.0 0.0 
0.0 0.0 0.0 
0.0 0.0 0.0 
0.0 0.0 0.0 
0.0 0.0 0.0 
0.0 0.0 0.0 
0.0 0.0 0.0 
0.0 0.0 0.0 
0.0 0.0 0.0 
0.0 0.0 0.0 
0.0 0.0 0.0 
0.0 0.0 0.0 
0.0 0.0 0.0 
0.0 0.0 0.0 
0.0 0.0 0.0 
0.0 0.0 0.0 
0.0 0.0 0.0 
0.0 0.0 0.0 
0.0 0.0 0.0 
0.0 0.0 0.0 
0.0 0.0 0.0 
0.0 0.0 0.0 
0.0 0.0 0.0 
0.0 0.0 0.0 
0.0 0.0 0.0 
0.0 0.0 0.0 
0.0 0.0 0.0 
0.0 0.0 0.0 
0.0 0.0 0.0 
0.0 0.0 0.0 
0.0 0.0 0.0 
0.0 0.0 0.0 
0.0 0.0 0.0 
0.0 0.0 0.0 
0.0 0.0 0.0 
0.0 0.0 0.0 
0.0 0.0 0.0 
0.0 0.0 0.0 
0.0 0.0 0.0 
0.0 0.0 0.0 
0.0 0.0 0.0 
0.0 0.0 0.0 
0.0 0.0 0.0 
0.0 0.0 0.0 
0.0 0.0 0.0 
0.0 0.0 0.0 
0.0 0.0 0.0 
0.0 0.0 0.0 
0.0 0.0 0.0 
0.0 0.0 0.0 
0.0 0.0 0.0 
0.0 0.0 0.0 
0.0 0.0 0.0 
0.0 0.0 0.0 
0.0 0.0 0.0 
0.0 0.0 0.0 
0.0 0.0 0.0 
0.0 0.0 0.0 
0.0 0.0 0.0 
0.0 0.0 0.0 
0.0 0.0 0.0 
0.0 0.0 0.0 
0.0 0.0 0.0 
0.0 0.0 0.0 
0.0 0.0 0.0 
0.0 0.0 0.0 
0.0 0.0 0.0 
0.0 0.0 0.0 
0.0 0.0 0.0 
0.0 0.0 0.0 
0.0 0.0 0.0 
0.0 0.0 0.0 
0.0 0.0 0.0 
0.0 0.0 0.0 
0.0 0.0 0.0 
0.0 0.0 0.0 
0.0 0.0 0.0 
0.0 0.0 0.0 
0.0 0.0 0.0 
0.0 0.0 0.0 
0.0 0.0 0.0 
0.0 0.0 0.0 
0.0 0.0 0.0 
0.0 0.0 0.0 
0.0 0.0 0.0 
0.0 0.0 0.0 
0.0 0.0 0.0 
0.0 0.0 0.0 
0.0 0.0 0.0 
0.0 0.0 0.0 
0.0 0.0 0.0 
0.0 0.0 0.0 
0.0 0.0 0.0 
0.0 0.0 0.0 
0.0 0.0 0.0 
0.0 0.0 0.0 
0.0 0.0 0.0 
0.0 0.0 0.0 
0.0 0.0 0.0 
0.0 0.0 0.0 
0.0 0.0 0.0 
0.0 0.0 0.0 
0.0 0.0 0.0 
0.0 0.0 0.0 
0.0 0.0 0.0 
0.0 0.0 0.0 
0.0 0.0 0.0 
0.0 0.0 0.0 
0.0 0.0 0.0 
0.0 0.0 0.0 
0.0 0.0 0.0 
0.0 0.0 0.0 
0.0 0.0 0.0 
0.0 0.0 0.0 
0.0 0.0 0.0 
0.0 0.0 0.0 
0.0 0.0 0.0 
0.0 0.0 0.0 
0.0 0.0 0.0 
0.0 0.0 0.0 
0.0 0.0 0.0 
0.0 0.0 0.0 
0.0 0.0 0.0 
0.0 0.0 0.0 
0.0 0.0 0.0 
0.0 0.0 0.0 
0.0 0.0 0.0 
0.0 0.0 0.0 
0.0 0.0 0.0 
0.0 0.0 0.0 
0.0 0.0 0.0 
0.0 0.0 0.0 
0.0 0.0 0.0 
0.0 0.0 0.0 
0.0 0.0 0.0 
0.0 0.0 0.0 
0.0 0.0 0.0 
0.0 0.0 0.0 
0.0 0.0 0.0 
0.0 0.0 0.0 
0.0 0.0 0.0 
0.0 0.0 0.0 
0.0 0.0 0.0 
0.0 0.0 0.0 
0.0 0.0 0.0 
0.0 0.0 0.0 
0.0 0.0 0.0 
0.0 0.0 0.0 
0.0 0.0 0.0 
0.0 0.0 0.0 
0.0 0.0 0.0 
0.0 0.0 0.0 
0.0 0.0 0.0 
0.0 0.0 0.0 
0.0 0.0 0.0 
0.0 0.0 0.0 
0.0 0.0 0.0 
0.0 0.0 0.0 
0.0 0.0 0.0 
0.0 0.0 0.0 
0.0 0.0 0.0 
0.0 0.0 0.0 
0.0 0.0 0.0 
0.0 0.0 0.0 
0.0 0.0 0.0 
0.0 0.0 0.0 
0.0 0.0 0.0 
0.0 0.0 0.0 
0.0 0.0 0.0 
0.0 0.0 0.0 
0.0 0.0 0.0 
0.0 0.0 0.0 
0.0 0.0 0.0 
0.0 0.0 0.0 
0.0 0.0 0.0 
0.0 0.0 0.0 
0.0 0.0 0.0 
0.0 0.0 0.0 
0.0 0.0 0.0 
0.0 0.0 0.0 
0.0 0.0 0.0 
0.0 0.0 0.0 
0.0 0.0 0.0 
0.0 0.0 0.0 
0.0 0.0 0.0 
0.0 0.0 0.0 
0.0 0.0 0.0 
0.0 0.0 0.0 
0.0 0.0 0.0 
0.0 0.0 0.0 
0.0 0.0 0.0 
0.0 0.0 0.0 
0.0 0.0 0.0 
0.0 0.0 0.0 
0.0 0.0 0.0 
0.0 0.0 0.0 
0.0 0.0 0.0 
0.0 0.0 0.0 
0.0 0.0 0.0 
0.0 0.0 0.0 
0.0 0.0 0.0 
0.0 0.0 0.0 
0.0 0.0 0.0 
0.0 0.0 0.0 
0.0 0.0 0.0 
0.0 0.0 0.0 
0.0 0.0 0.0 
0.0 0.0 0.0 
0.0 0.0 0.0 
0.0 0.0 0.0 
0.0 0.0 0.0 
0.0 0.0 0.0 
0.0 0.0 0.0 
0.0 0.0 0.0 
0.0 0.0 0.0 
0.0 0.0 0.0 
0.0 0.0 0.0 
0.0 0.0 0.0 
0.0 0.0 0.0 
0.0 0.0 0.0 
0.0 0.0 0.0 
0.0 0.0 0.0 
0.0 0.0 0.0 
0.0 0.0 0.0 
0.0 0.0 0.0 
0.0 0.0 0.0 
0.0 0.0 0.0 
0.0 0.0 0.0 
0.0 0.0 0.0 
0.0 0.0 0.0 
0.0 0.0 0.0 
0.0 0.0 0.0 
0.0 0.0 0.0 
0.0 0.0 0.0 
0.0 0.0 0.0 
0.0 0.0 0.0 
0.0 0.0 0.0 
0.0 0.0 0.0 
0.0 0.0 0.0 
0.0 0.0 0.0 
0.0 0.0 0.0 
0.0 0.0 0.0 
0.0 0.0 0.0 
0.0 0.0 0.0 
0.0 0.0 0.0 
0.0 0.0 0.0 
0.0 0.0 0.0 
0.0 0.0 0.0 
0.0 0.0 0.0 
0.0 0.0 0.0 
0.0 0.0 0.0 
0.0 0.0 0.0 
0.0 0.0 0.0 
0.0 0.0 0.0 
0.0 0.0 0.0 
0.0 0.0 0.0 
0.0 0.0 0.0 
0.0 0.0 0.0 
0.0 0.0 0.0 
0.0 0.0 0.0 
0.0 0.0 0.0 
0.0 0.0 0.0 
0.0 0.0 0.0 
0.0 0.0 0.0 
0.0 0.0 0.0 
0.0 0.0 0.0 
0.0 0.0 0.0 
0.0 0.0 0.0 
0.0 0.0 0.0 
0.0 0.0 0.0 
0.0 0.0 0.0 
0.0 0.0 0.0 
0.0 0.0 0.0 
0.0 0.0 0.0 
0.0 0.0 0.0 
0.0 0.0 0.0 
0.0 0.0 0.0 
0.0 0.0 0.0 
0.0 0.0 0.0 
0.0 0.0 0.0 
0.0 0.0 0.0 
0.0 0.0 0.0 
0.0 0.0 0.0 
0.0 0.0 0.0 
0.0 0.0 0.0 
0.0 0.0 0.0 
0.0 0.0 0.0 
0.0 0.0 0.0 
0.0 0.0 0.0 
0.0 0.0 0.0 
0.0 0.0 0.0 
0.0 0.0 0.0 
0.0 0.0 0.0 
0.0 0.0 0.0 
0.0 0.0 0.0 
0.0 0.0 0.0 
0.0 0.0 0.0 
0.0 0.0 0.0 
0.0 0.0 0.0 
0.0 0.0 0.0 
0.0 0.0 0.0 
0.0 0.0 0.0 
0.0 0.0 0.0 
0.0 0.0 0.0 
0.0 0.0 0.0 
0.0 0.0 0.0 
0.0 0.0 0.0 
0.0 0.0 0.0 
0.0 0.0 0.0 
0.0 0.0 0.0 
0.0 0.0 0.0 
0.0 0.0 0.0 
0.0 0.0 0.0 
0.0 0.0 0.0 
0.0 0.0 0.0 
0.0 0.0 0.0 
0.0 0.0 0.0 
0.0 0.0 0.0 
0.0 0.0 0.0 
0.0 0.0 0.0 
0.0 0.0 0.0 
0.0 0.0 0.0 
0.0 0.0 0.0 
0.0 0.0 0.0 
0.0 0.0 0.0 
0.0 0.0 0.0 
0.0 0.0 0.0 
0.0 0.0 0.0 
0.0 0.0 0.0 
0.0 0.0 0.0 
0.0 0.0 0.0 
0.0 0.0 0.0 
0.0 0.0 0.0 
0.0 0.0 0.0 
0.0 0.0 0.0 
0.0 0.0 0.0 
0.0 0.0 0.0 
0.0 0.0 0.0 
0.0 0.0 0.0 
0.0 0.0 0.0 
0.0 0.0 0.0 
0.0 0.0 0.0 
0.0 0.0 0.0 
0.0 0.0 0.0 
0.0 0.0 0.0 
0.0 0.0 0.0 
0.0 0.0 0.0 
0.0 0.0 0.0 
0.0 0.0 0.0 
0.0 0.0 0.0 
0.0 0.0 0.0 
0.0 0.0 0.0 
0.0 0.0 0.0 
0.0 0.0 0.0 
0.0 0.0 0.0 
0.0 0.0 0.0 
0.0 0.0 0.0 
0.0 0.0 0.0 
0.0 0.0 0.0 
0.0 0.0 0.0 
0.0 0.0 0.0 
0.0 0.0 0.0 
0.0 0.0 0.0 
0.0 0.0 0.0 
0.0 0.0 0.0 
0.0 0.0 0.0 
0.0 0.0 0.0 
0.0 0.0 0.0 
0.0 0.0 0.0 
0.0 0.0 0.0 
0.0 0.0 0.0 
0.0 0.0 0.0 
0.0 0.0 0.0 
0.0 0.0 0.0 
0.0 0.0 0.0 
0.0 0.0 0.0 
0.0 0.0 0.0 
0.0 0.0 0.0 
0.0 0.0 0.0 
0.0 0.0 0.0 
0.0 0.0 0.0 
0.0 0.0 0.0 
0.0 0.0 0.0 
0.0 0.0 0.0 
0.0 0.0 0.0 
0.0 0.0 0.0 
0.0 0.0 0.0 
0.0 0.0 0.0 
0.0 0.0 0.0 
0.0 0.0 0.0 
0.0 0.0 0.0 
0.0 0.0 0.0 
0.0 0.0 0.0 
0.0 0.0 0.0 
0.0 0.0 0.0 
0.0 0.0 0.0 
0.0 0.0 0.0 
0.0 0.0 0.0 
0.0 0.0 0.0 
0.0 0.0 0.0 
0.0 0.0 0.0 
0.0 0.0 0.0 
0.0 0.0 0.0 
0.0 0.0 0.0 
0.0 0.0 0.0 
0.0 0.0 0.0 
0.0 0.0 0.0 
0.0 0.0 0.0 
0.0 0.0 0.0 
0.0 0.0 0.0 
0.0 0.0 0.0 
0.0 0.0 0.0 
0.0 0.0 0.0 
0.0 0.0 0.0 
0.0 0.0 0.0 
0.0 0.0 0.0 
0.0 0.0 0.0 
0.0 0.0 0.0 
0.0 0.0 0.0 
0.0 0.0 0.0 
0.0 0.0 0.0 
0.0 0.0 0.0 
0.0 0.0 0.0 
0.0 0.0 0.0 
0.0 0.0 0.0 
0.0 0.0 0.0 
0.0 0.0 0.0 
0.0 0.0 0.0 
0.0 0.0 0.0 
0.0 0.0 0.0 
0.0 0.0 0.0 
0.0 0.0 0.0 
0.0 0.0 0.0 
0.0 0.0 0.0 
0.0 0.0 0.0 
0.0 0.0 0.0 
0.0 0.0 0.0 
0.0 0.0 0.0 
0.0 0.0 0.0 
0.0 0.0 0.0 
0.0 0.0 0.0 
0.0 0.0 0.0 
0.0 0.0 0.0 
0.0 0.0 0.0 
0.0 0.0 0.0 
0.0 0.0 0.0 
0.0 0.0 0.0 
0.0 0.0 0.0 
0.0 0.0 0.0 
0.0 0.0 0.0 
0.0 0.0 0.0 
0.0 0.0 0.0 
0.0 0.0 0.0 
0.0 0.0 0.0 
0.0 0.0 0.0 
0.0 0.0 0.0 
0.0 0.0 0.0 
0.0 0.0 0.0 
0.0 0.0 0.0 
0.0 0.0 0.0 
0.0 0.0 0.0 
0.0 0.0 0.0 
0.0 0.0 0.0 
0.0 0.0 0.0 
0.0 0.0 0.0 
0.0 0.0 0.0 
0.0 0.0 0.0 
0.0 0.0 0.0 
0.0 0.0 0.0 
0.0 0.0 0.0 
0.0 0.0 0.0 
0.0 0.0 0.0 
0.0 0.0 0.0 
0.0 0.0 0.0 
0.0 0.0 0.0 
0.0 0.0 0.0 
0.0 0.0 0.0 
0.0 0.0 0.0 
0.0 0.0 0.0 
0.0 0.0 0.0 
0.0 0.0 0.0 
0.0 0.0 0.0 
0.0 0.0 0.0 
0.0 0.0 0.0 
0.0 0.0 0.0 
0.0 0.0 0.0 
0.0 0.0 0.0 
0.0 0.0 0.0 
0.0 0.0 0.0 
0.0 0.0 0.0 
0.0 0.0 0.0 
0.0 0.0 0.0 
0.0 0.0 0.0 
0.0 0.0 0.0 
0.0 0.0 0.0 
0.0 0.0 0.0 
0.0 0.0 0.0 
0.0 0.0 0.0 
0.0 0.0 0.0 
0.0 0.0 0.0 
0.0 0.0 0.0 
0.0 0.0 0.0 
0.0 0.0 0.0 
0.0 0.0 0.0 
0.0 0.0 0.0 
0.0 0.0 0.0 
0.0 0.0 0.0 
0.0 0.0 0.0 
0.0 0.0 0.0 
0.0 0.0 0.0 
0.0 0.0 0.0 
0.0 0.0 0.0 
0.0 0.0 0.0 
0.0 0.0 0.0 
0.0 0.0 0.0 
0.0 0.0 0.0 
0.0 0.0 0.0 
0.0 0.0 0.0 
0.0 0.0 0.0 
0.0 0.0 0.0 
0.0 0.0 0.0 
0.0 0.0 0.0 
0.0 0.0 0.0 
0.0 0.0 0.0 
0.0 0.0 0.0 
0.0 0.0 0.0 
0.0 0.0 0.0 
0.0 0.0 0.0 
0.0 0.0 0.0 
0.0 0.0 0.0 
0.0 0.0 0.0 
0.0 0.0 0.0 
0.0 0.0 0.0 
0.0 0.0 0.0 
0.0 0.0 0.0 
0.0 0.0 0.0 
0.0 0.0 0.0 
0.0 0.0 0.0 
0.0 0.0 0.0 
0.0 0.0 0.0 
0.0 0.0 0.0 
0.0 0.0 0.0 
0.0 0.0 0.0 
0.0 0.0 0.0 
0.0 0.0 0.0 
0.0 0.0 0.0 
0.0 0.0 0.0 
0.0 0.0 0.0 
0.0 0.0 0.0 
0.0 0.0 0.0 
0.0 0.0 0.0 
0.0 0.0 0.0 
0.0 0.0 0.0 
0.0 0.0 0.0 
0.0 0.0 0.0 
0.0 0.0 0.0 
0.0 0.0 0.0 
0.0 0.0 0.0 
0.0 0.0 0.0 
0.0 0.0 0.0 
0.0 0.0 0.0 
0.0 0.0 0.0 
0.0 0.0 0.0 
0.0 0.0 0.0 
0.0 0.0 0.0 
0.0 0.0 0.0 
0.0 0.0 0.0 
0.0 0.0 0.0 
0.0 0.0 0.0 
0.0 0.0 0.0 
0.0 0.0 0.0 
0.0 0.0 0.0 
0.0 0.0 0.0 
0.0 0.0 0.0 
0.0 0.0 0.0 
0.0 0.0 0.0 
0.0 0.0 0.0 
0.0 0.0 0.0 
0.0 0.0 0.0 
0.0 0.0 0.0 
0.0 0.0 0.0 
0.0 0.0 0.0 
0.0 0.0 0.0 
0.0 0.0 0.0 
0.0 0.0 0.0 
0.0 0.0 0.0 
0.0 0.0 0.0 
0.0 0.0 0.0 
0.0 0.0 0.0 
0.0 0.0 0.0 
0.0 0.0 0.0 
0.0 0.0 0.0 
0.0 0.0 0.0 
0.0 0.0 0.0 
0.0 0.0 0.0 
0.0 0.0 0.0 
0.0 0.0 0.0 
0.0 0.0 0.0 
0.0 0.0 0.0 
0.0 0.0 0.0 
0.0 0.0 0.0 
0.0 0.0 0.0 
0.0 0.0 0.0 
0.0 0.0 0.0 
0.0 0.0 0.0 
0.0 0.0 0.0 
0.0 0.0 0.0 
0.0 0.0 0.0 
0.0 0.0 0.0 
0.0 0.0 0.0 
0.0 0.0 0.0 
0.0 0.0 0.0 
0.0 0.0 0.0 
0.0 0.0 0.0 
0.0 0.0 0.0 
0.0 0.0 0.0 
0.0 0.0 0.0 
0.0 0.0 0.0 
0.0 0.0 0.0 
0.0 0.0 0.0 
0.0 0.0 0.0 
0.0 0.0 0.0 
0.0 0.0 0.0 
0.0 0.0 0.0 
0.0 0.0 0.0 
0.0 0.0 0.0 
0.0 0.0 0.0 
0.0 0.0 0.0 
0.0 0.0 0.0 
0.0 0.0 0.0 
0.0 0.0 0.0 
0.0 0.0 0.0 
0.0 0.0 0.0 
0.0 0.0 0.0 
0.0 0.0 0.0 
0.0 0.0 0.0 
0.0 0.0 0.0 
0.0 0.0 0.0 
0.0 0.0 0.0 
0.0 0.0 0.0 
0.0 0.0 0.0 
0.0 0.0 0.0 
0.0 0.0 0.0 
0.0 0.0 0.0 
0.0 0.0 0.0 
0.0 0.0 0.0 
0.0 0.0 0.0 
0.0 0.0 0.0 
0.0 0.0 0.0 
0.0 0.0 0.0 
0.0 0.0 0.0 
0.0 0.0 0.0 
0.0 0.0 0.0 
0.0 0.0 0.0 
0.0 0.0 0.0 
0.0 0.0 0.0 
0.0 0.0 0.0 
0.0 0.0 0.0 
0.0 0.0 0.0 
0.0 0.0 0.0 
0.0 0.0 0.0 
0.0 0.0 0.0 
0.0 0.0 0.0 
0.0 0.0 0.0 
0.0 0.0 0.0 
0.0 0.0 0.0 
0.0 0.0 0.0 
0.0 0.0 0.0 
0.0 0.0 0.0 
0.0 0.0 0.0 
0.0 0.0 0.0 
0.0 0.0 0.0 
0.0 0.0 0.0 
0.0 0.0 0.0 
0.0 0.0 0.0 
0.0 0.0 0.0 
0.0 0.0 0.0 
0.0 0.0 0.0 
0.0 0.0 0.0 
0.0 0.0 0.0 
0.0 0.0 0.0 
0.0 0.0 0.0 
0.0 0.0 0.0 
0.0 0.0 0.0 
0.0 0.0 0.0 
0.0 0.0 0.0 
0.0 0.0 0.0 
0.0 0.0 0.0 
0.0 0.0 0.0 
0.0 0.0 0.0 
0.0 0.0 0.0 
0.0 0.0 0.0 
0.0 0.0 0.0 
0.0 0.0 0.0 
0.0 0.0 0.0 
0.0 0.0 0.0 
0.0 0.0 0.0 
0.0 0.0 0.0 
0.0 0.0 0.0 
0.0 0.0 0.0 
0.0 0.0 0.0 
0.0 0.0 0.0 
0.0 0.0 0.0 
0.0 0.0 0.0 
0.0 0.0 0.0 
0.0 0.0 0.0 
0.0 0.0 0.0 
0.0 0.0 0.0 
0.0 0.0 0.0 
0.0 0.0 0.0 
0.0 0.0 0.0 
0.0 0.0 0.0 
0.0 0.0 0.0 
0.0 0.0 0.0 
0.0 0.0 0.0 
0.0 0.0 0.0 

TENSORS element_materi_stress float
-4.967305069255e+01 -9.425835280791e-01 0.0 
-9.425835280791e-01 -1.186325714851e+02 0.0 
0.0 0.0 -5.009168665330e+01 
-4.989862336502e+01 1.055221781506e+00 0.0 
1.055221781506e+00 -1.166712590206e+02 0.0 
0.0 0.0 -4.957096471568e+01 
-1.564362698238e+02 1.240704220587e-01 0.0 
1.240704220587e-01 -3.658451498713e+02 0.0 
0.0 0.0 -1.562844259085e+02 
-1.545972944005e+02 7.004321237711e-01 0.0 
7.004321237711e-01 -3.622186986389e+02 0.0 
0.0 0.0 -1.546447979118e+02 
-9.655806720774e+01 -9.248399002680e-01 0.0 
-9.248399002680e-01 -2.266951869060e+02 0.0 
0.0 0.0 -9.657597623412e+01 
-1.880412872165e+01 -8.408075938566e-01 0.0 
-8.408075938566e-01 -4.577331169511e+01 0.0 
0.0 0.0 -1.897323212503e+01 
-9.688723860176e+01 -1.082019415503e+00 0.0 
-1.082019415503e+00 -2.270535197383e+02 0.0 
0.0 0.0 -9.678222750201e+01 
-4.805772570696e+01 -1.647305725774e-01 0.0 
-1.647305725774e-01 -1.136834260183e+02 0.0 
0.0 0.0 -4.812234551757e+01 
-9.680854723410e+01 1.152708478542e+00 0.0 
1.152708478542e+00 -2.273609743132e+02 0.0 
0.0 0.0 -9.685085646420e+01 
-1.540417271849e+02 -8.997244732538e-01 0.0 
-8.997244732538e-01 -3.606456861838e+02 0.0 
0.0 0.0 -1.540062240106e+02 
-1.067292797833e+02 -5.939744988862e-01 0.0 
-5.939744988862e-01 -2.501422205069e+02 0.0 
0.0 0.0 -1.066614500871e+02 
-4.223752979804e+01 -6.089213061948e-03 0.0 
-6.089213061948e-03 -1.000914201867e+02 0.0 
0.0 0.0 -4.229868499541e+01 
-1.550088150385e+02 -9.062688748306e-01 0.0 
-9.062688748306e-01 -3.628230876224e+02 0.0 
0.0 0.0 -1.549495707983e+02 
-1.037171959052e+02 -7.473291616449e-01 0.0 
-7.473291616449e-01 -2.432152150338e+02 0.0 
0.0 0.0 -1.036797232817e+02 
-1.584357063882e+02 7.344422329815e-01 0.0 
7.344422329815e-01 -3.709793169344e+02 0.0 
0.0 0.0 -1.584245069968e+02 
-1.579009223724e+02 -8.184311307300e-01 0.0 
-8.184311307300e-01 -3.701759047674e+02 0.0 
0.0 0.0 -1.580230481420e+02 
-9.452645250135e+01 -2.016513291010e-02 0.0 
-2.016513291010e-02 -2.222946420107e+02 0.0 
0.0 0.0 -9.464632835360e+01 
-1.897097755191e+01 8.184447903462e-01 0.0 
8.184447903462e-01 -4.525090860173e+01 0.0 
0.0 0.0 -1.886656584609e+01 
-3.173550483586e+01 4.827988760382e-01 0.0 
4.827988760382e-01 -7.625170948251e+01 0.0 
0.0 0.0 -3.199616429551e+01 
-3.337193276494e+01 -4.371832275729e-01 0.0 
-4.371832275729e-01 -7.917585365559e+01 0.0 
0.0 0.0 -3.336433592616e+01 
-1.543953088926e+02 9.108782792609e-01 0.0 
9.108782792609e-01 -3.612317701302e+02 0.0 
0.0 0.0 -1.542881237068e+02 
-5.615717491750e+01 -3.733541071217e-01 0.0 
-3.733541071217e-01 -1.323064322985e+02 0.0 
0.0 0.0 -5.613908216480e+01 
-6.070935872329e+01 3.995181822734e-01 0.0 
3.995181822734e-01 -1.431509514521e+02 0.0 
0.0 0.0 -6.075809305260e+01 
-1.487341606150e+02 6.082261128955e-01 0.0 
6.082261128955e-01 -3.483146539127e+02 0.0 
0.0 0.0 -1.487146443583e+02 
-1.111617577607e+02 -8.822902557753e-01 0.0 
-8.822902557753e-01 -2.603728635663e+02 0.0 
0.0 0.0 -1.110603863981e+02 
-1.123135167084e+02 5.814270925771e-01 0.0 
5.814270925771e-01 -2.633793067897e+02 0.0 
0.0 0.0 -1.123078470494e+02 
-8.741608703514e+01 7.148274424191e-02 0.0 
7.148274424191e-02 -2.052618515479e+02 0.0 
0.0 0.0 -8.740338157491e+01 
-1.567936036655e+02 -5.252542848367e-02 0.0 
-5.252542848367e-02 -3.674266562085e+02 0.0 
0.0 0.0 -1.568660779622e+02 
-1.111484010154e+02 1.014358073747e+00 0.0 
1.014358073747e+00 -2.606003441763e+02 0.0 
0.0 0.0 -1.111246235575e+02 
-1.520725910797e+02 -6.034935829626e-01 0.0 
-6.034935829626e-01 -3.564572755871e+02 0.0 
0.0 0.0 -1.521589600000e+02 
-2.472494989631e+01 -1.182469689848e-01 0.0 
-1.182469689848e-01 -5.899086286891e+01 0.0 
0.0 0.0 -2.471474382957e+01 
-1.031076509654e+01 -1.216800834239e-01 0.0 
-1.216800834239e-01 -2.572946919033e+01 0.0 
0.0 0.0 -1.041207028606e+01 
-1.560939794911e+02 -2.229046788049e-01 0.0 
-2.229046788049e-01 -3.663525859016e+02 0.0 
0.0 0.0 -1.563339696178e+02 
-1.334140011883e+02 7.389653507313e-01 0.0 
7.389653507313e-01 -3.125203876300e+02 0.0 
0.0 0.0 -1.333803166455e+02 
-1.548713977358e+02 8.332780259147e-01 0.0 
8.332780259147e-01 -3.620211592663e+02 0.0 
0.0 0.0 -1.546677671007e+02 
-1.620419618605e+02 -1.553512982100e+00 0.0 
-1.553512982100e+00 -3.799392857585e+02 0.0 
0.0 0.0 -1.621943742857e+02 
-1.620926449935e+02 1.635915693458e+00 0.0 
1.635915693458e+00 -3.796798740469e+02 0.0 
0.0 0.0 -1.621317557121e+02 
-1.553916736030e+02 -7.048657755822e-01 0.0 
-7.048657755822e-01 -3.635499947745e+02 0.0 
0.0 0.0 -1.552825005132e+02 
-8.876692487818e+01 1.271626294984e+00 0.0 
1.271626294984e+00 -2.081420894771e+02 0.0 
0.0 0.0 -8.867270430658e+01 
-8.904131379320e+01 -1.431854588512e+00 0.0 
-1.431854588512e+00 -2.088928545047e+02 0.0 
0.0 0.0 -8.898025048937e+01 
-6.951145258333e+01 5.458666052528e-01 0.0 
5.458666052528e-01 -1.634955892761e+02 0.0 
0.0 0.0 -6.950211255782e+01 
-1.568704240027e+02 -4.249957836799e-02 0.0 
-4.249957836799e-02 -3.668860594773e+02 0.0 
0.0 0.0 -1.567269450440e+02 
-3.650077557313e+01 -8.767086083476e-01 0.0 
-8.767086083476e-01 -8.654855102458e+01 0.0 
0.0 0.0 -3.651479797931e+01 
-8.784578795078e+01 -2.237746169300e-01 0.0 
-2.237746169300e-01 -2.059821511949e+02 0.0 
0.0 0.0 -8.774838174369e+01 
-1.497836875247e+02 3.934282895032e-01 0.0 
3.934282895032e-01 -3.511571396828e+02 0.0 
0.0 0.0 -1.498822481622e+02 
-3.640968450487e+01 7.576022540325e-01 0.0 
7.576022540325e-01 -8.629680417523e+01 0.0 
0.0 0.0 -3.641194660403e+01 
-1.809689303611e+01 4.309193778343e-02 0.0 
4.309193778343e-02 -4.346389507042e+01 0.0 
0.0 0.0 -1.806823643196e+01 
-1.508745746141e+02 -2.535669683080e-01 0.0 
-2.535669683080e-01 -3.529949798430e+02 0.0 
0.0 0.0 -1.507608663371e+02 
-1.099989699854e+01 1.376253655496e-02 0.0 
1.376253655496e-02 -2.591051823399e+01 0.0 
0.0 0.0 -1.106299800106e+01 
-1.002440837871e+02 7.252650084301e-01 0.0 
7.252650084301e-01 -2.346832654687e+02 0.0 
0.0 0.0 -1.000782047767e+02 
-6.517688242997e+01 4.526170354000e-01 0.0 
4.526170354000e-01 -1.535413264036e+02 0.0 
0.0 0.0 -6.521546265008e+01 
-4.053119217201e+01 2.878454298283e-01 0.0 
2.878454298283e-01 -9.576862932938e+01 0.0 
0.0 0.0 -4.048994645042e+01 
-3.448575693354e+01 5.948763522339e-01 0.0 
5.948763522339e-01 -8.184621544722e+01 0.0 
0.0 0.0 -3.449959171423e+01 
-6.481974751702e+01 -5.214767042287e-01 0.0 
-5.214767042287e-01 -1.523977197222e+02 0.0 
0.0 0.0 -6.476524017177e+01 
-1.570669139312e+02 3.131055956003e-02 0.0 
3.131055956003e-02 -3.674045163520e+02 0.0 
0.0 0.0 -1.569414290849e+02 
-5.348267253803e+01 5.846152201812e-01 0.0 
5.846152201812e-01 -1.263524723547e+02 0.0 
0.0 0.0 -5.355054346783e+01 
-4.195509016967e+01 -5.758137370743e-01 0.0 
-5.758137370743e-01 -9.901755508063e+01 0.0 
0.0 0.0 -4.189179357509e+01 
-1.333829198051e+02 -7.329074521228e-01 0.0 
-7.329074521228e-01 -3.125649589652e+02 0.0 
0.0 0.0 -1.333843636311e+02 
-2.445375689774e+01 -8.512131280140e-02 0.0 
-8.512131280140e-02 -5.855269258845e+01 0.0 
0.0 0.0 -2.450193484586e+01 
-1.580440512421e+02 8.247338801055e-01 0.0 
8.247338801055e-01 -3.702706595455e+02 0.0 
0.0 0.0 -1.580944132363e+02 
-9.072698058293e+00 4.930320250927e-01 0.0 
4.930320250927e-01 -2.251158878225e+01 0.0 
0.0 0.0 -9.075286052163e+00 
-1.486691129822e+02 -9.151361594688e-01 0.0 
-9.151361594688e-01 -3.481320415271e+02 0.0 
0.0 0.0 -1.486403463528e+02 
-6.507235708939e+01 -9.064930070123e-01 0.0 
-9.064930070123e-01 -1.531956675583e+02 0.0 
0.0 0.0 -6.508040739431e+01 
-3.105139077009e+01 -4.775967733164e-01 0.0 
-4.775967733164e-01 -7.338905595705e+01 0.0 
0.0 0.0 -3.093213401814e+01 
-1.548009660466e+02 7.309856985531e-01 0.0 
7.309856985531e-01 -3.624332402617e+02 0.0 
0.0 0.0 -1.547702618925e+02 
-6.014749127054e+01 -4.223236421804e-01 0.0 
-4.223236421804e-01 -1.418942850800e+02 0.0 
0.0 0.0 -6.021253290517e+01 
-9.470766858357e+00 -2.076320835237e-01 0.0 
-2.076320835237e-01 -2.134143471848e+01 0.0 
0.0 0.0 -9.545614427805e+00 
-1.562961807682e+02 3.185024080932e-01 0.0 
3.185024080932e-01 -3.661113708002e+02 0.0 
0.0 0.0 -1.563222654705e+02 
-2.652992981572e+01 8.489300807750e-01 0.0 
8.489300807750e-01 -6.335921404220e+01 0.0 
0.0 0.0 -2.656674315737e+01 
-1.568681934401e+02 1.572107798642e-02 0.0 
1.572107798642e-02 -3.671224608037e+02 0.0 
0.0 0.0 -1.567971962731e+02 
-1.169274834345e+02 6.791375034578e-01 0.0 
6.791375034578e-01 -2.739856470844e+02 0.0 
0.0 0.0 -1.168739391557e+02 
-1.638027268285e+02 1.838340514933e-02 0.0 
1.838340514933e-02 -3.835396959331e+02 0.0 
0.0 0.0 -1.638027268285e+02 
-1.505341939455e+02 -6.467866970958e-03 0.0 
-6.467866970958e-03 -3.527041067605e+02 0.0 
0.0 0.0 -1.505714902118e+02 
-1.235300545473e+01 -9.513364915084e-01 0.0 
-9.513364915084e-01 -2.967119646096e+01 0.0 
0.0 0.0 -1.220726057471e+01 
-5.578747475109e+01 -6.077023639974e-01 0.0 
-6.077023639974e-01 -1.317306526651e+02 0.0 
0.0 0.0 -5.585543822486e+01 
-1.554784100659e+02 6.934972641682e-01 0.0 
6.934972641682e-01 -3.638890771570e+02 0.0 
0.0 0.0 -1.554102461669e+02 
-1.567287999026e+02 2.166989625813e-02 0.0 
2.166989625813e-02 -3.673961854537e+02 0.0 
0.0 0.0 -1.568374956069e+02 
-2.784573230062e+01 7.291119610778e-01 0.0 
7.291119610778e-01 -6.622023979117e+01 0.0 
0.0 0.0 -2.781979162754e+01 
-2.490643461904e+01 5.224185841662e-02 0.0 
5.224185841662e-02 -5.886308516267e+01 0.0 
0.0 0.0 -2.473085593451e+01 
-2.772941237419e+01 -8.160677270588e-01 0.0 
-8.160677270588e-01 -6.626399382052e+01 0.0 
0.0 0.0 -2.779802185842e+01 
-2.621651744514e+01 -8.746673194294e-01 0.0 
-8.746673194294e-01 -6.284625893109e+01 0.0 
0.0 0.0 -2.631883291287e+01 
-9.481800889815e+01 -1.295937259851e-01 0.0 
-1.295937259851e-01 -2.221444875838e+02 0.0 
0.0 0.0 -9.468874894459e+01 
-5.646767038029e+01 3.968366430103e-01 0.0 
3.968366430103e-01 -1.335574493984e+02 0.0 
0.0 0.0 -5.660753593361e+01 
-5.090809043567e+01 -8.998409123341e-02 0.0 
-8.998409123341e-02 -1.204047540273e+02 0.0 
0.0 0.0 -5.099385333888e+01 
-1.009773781699e+02 9.878491761235e-01 0.0 
9.878491761235e-01 -2.374921513430e+02 0.0 
0.0 0.0 -1.011408588539e+02 
-1.011394428372e+02 -8.948048634185e-01 0.0 
-8.948048634185e-01 -2.375342517328e+02 0.0 
0.0 0.0 -1.012021083710e+02 
-1.204528946723e+02 7.404331382300e-01 0.0 
7.404331382300e-01 -2.824624919705e+02 0.0 
0.0 0.0 -1.204746159929e+02 
-1.298060999332e+02 -7.789911976390e-01 0.0 
-7.789911976390e-01 -3.041292662350e+02 0.0 
0.0 0.0 -1.297806098505e+02 
-1.334261335832e+02 8.421563789816e-01 0.0 
8.421563789816e-01 -3.127012981871e+02 0.0 
0.0 0.0 -1.334382295311e+02 
-9.629955700896e+01 1.175959118915e+00 0.0 
1.175959118915e+00 -2.259157072093e+02 0.0 
0.0 0.0 -9.626457926549e+01 
-1.094859178102e+01 -1.317458113374e-01 0.0 
-1.317458113374e-01 -2.574462731362e+01 0.0 
0.0 0.0 -1.096408094772e+01 
-9.521220885857e+01 -8.516475631425e-02 0.0 
-8.516475631425e-02 -2.233777622183e+02 0.0 
0.0 0.0 -9.517699132305e+01 
-1.301429331108e+02 4.414960113870e-01 0.0 
4.414960113870e-01 -3.052971317129e+02 0.0 
0.0 0.0 -1.302320194471e+02 
-1.287453599732e+02 -4.514295844717e-01 0.0 
-4.514295844717e-01 -3.017281297223e+02 0.0 
0.0 0.0 -1.287420469086e+02 
-1.637581993669e+02 8.461574003034e-02 0.0 
8.461574003034e-02 -3.836616437062e+02 0.0 
0.0 0.0 -1.638259529219e+02 
-1.593057576882e+02 5.961435490298e-01 0.0 
5.961435490298e-01 -3.732148981547e+02 0.0 
0.0 0.0 -1.593561967529e+02 
-9.463039330578e+01 4.392718070340e-01 0.0 
4.392718070340e-01 -2.216646058619e+02 0.0 
0.0 0.0 -9.448849975031e+01 
-1.564543847559e+02 5.007441556887e-03 0.0 
5.007441556887e-03 -3.669706018747e+02 0.0 
0.0 0.0 -1.566274959892e+02 
-1.096963048466e+02 6.196971794601e-01 0.0 
6.196971794601e-01 -2.570515975244e+02 0.0 
0.0 0.0 -1.096243707113e+02 
-6.215765006696e+01 5.533997483930e-01 0.0 
5.533997483930e-01 -1.462400775213e+02 0.0 
0.0 0.0 -6.211931827648e+01 
-9.272068506481e+01 7.251553645185e-01 0.0 
7.251553645185e-01 -2.174019070799e+02 0.0 
0.0 0.0 -9.263677764341e+01 
-1.581702032977e+02 -7.760360332349e-01 0.0 
-7.760360332349e-01 -3.707307737088e+02 0.0 
0.0 0.0 -1.582702931019e+02 
-1.279305557147e+02 8.890009578026e-01 0.0 
8.890009578026e-01 -2.998003818083e+02 0.0 
0.0 0.0 -1.279192812569e+02 
-1.487817633727e+02 8.617304911569e-01 0.0 
8.617304911569e-01 -3.485845509751e+02 0.0 
0.0 0.0 -1.488098943043e+02 
-5.621911875615e+01 8.170605610680e-01 0.0 
8.170605610680e-01 -1.325756462761e+02 0.0 
0.0 0.0 -5.623842950966e+01 
-1.773448328942e+01 -2.112269740910e-01 0.0 
-2.112269740910e-01 -4.283736063491e+01 0.0 
0.0 0.0 -1.777155317730e+01 
-1.461565771862e+02 7.995302980516e-01 0.0 
7.995302980516e-01 -3.422574299231e+02 0.0 
0.0 0.0 -1.461242021328e+02 
-1.366370584723e+02 -2.928815294659e-01 0.0 
-2.928815294659e-01 -3.204499004904e+02 0.0 
0.0 0.0 -1.367260876888e+02 
-1.016702311798e+01 2.193601375453e-01 0.0 
2.193601375453e-01 -2.545125476715e+01 0.0 
0.0 0.0 -1.028548336554e+01 
-1.576643277768e+02 3.438638092217e-01 0.0 
3.438638092217e-01 -3.683995504349e+02 0.0 
0.0 0.0 -1.574191634635e+02 
-1.283155793048e+02 -7.340618399538e-01 0.0 
-7.340618399538e-01 -3.008172661419e+02 0.0 
0.0 0.0 -1.283398536340e+02 
-9.082644153151e+00 5.378093038833e-01 0.0 
5.378093038833e-01 -2.199419147673e+01 0.0 
0.0 0.0 -8.923050688963e+00 
-7.529325519250e+01 -8.382352040556e-01 0.0 
-8.382352040556e-01 -1.770018832285e+02 0.0 
0.0 0.0 -7.528854152630e+01 
-8.657402042645e+01 5.878402971773e-01 0.0 
5.878402971773e-01 -2.032118361370e+02 0.0 
0.0 0.0 -8.653575696902e+01 
-6.791798424243e+01 2.857696144732e-01 0.0 
2.857696144732e-01 -1.599484306261e+02 0.0 
0.0 0.0 -6.795992446055e+01 
-5.697897002940e+01 -6.713024996516e-01 0.0 
-6.713024996516e-01 -1.338753342874e+02 0.0 
0.0 0.0 -5.685629129505e+01 
-6.519856414295e+01 9.008531283686e-01 0.0 
9.008531283686e-01 -1.534431928499e+02 0.0 
0.0 0.0 -6.519252709784e+01 
-1.572937773013e+02 -4.449029795206e-01 0.0 
-4.449029795206e-01 -3.686681689924e+02 0.0 
0.0 0.0 -1.573885838881e+02 
-1.070171168277e+02 -7.468816012607e-01 0.0 
-7.468816012607e-01 -2.505189401991e+02 0.0 
0.0 0.0 -1.068608171080e+02 
-6.056996760792e+01 -9.448953817737e-01 0.0 
-9.448953817737e-01 -1.425780808412e+02 0.0 
0.0 0.0 -6.054441453474e+01 
-2.528516729263e+01 9.292938564313e-01 0.0 
9.292938564313e-01 -6.054996066085e+01 0.0 
0.0 0.0 -2.535053838604e+01 
-9.475908394667e+01 -5.162157143336e-01 0.0 
-5.162157143336e-01 -2.221143646592e+02 0.0 
0.0 0.0 -9.466203458177e+01 
-1.378264168067e+02 3.677150738199e-01 0.0 
3.677150738199e-01 -3.222518094555e+02 0.0 
0.0 0.0 -1.376234678787e+02 
-6.059521379435e+01 1.006624129957e+00 0.0 
1.006624129957e+00 -1.427228500862e+02 0.0 
0.0 0.0 -6.059541916417e+01 
-1.929367458063e+01 5.868970843374e-01 0.0 
5.868970843374e-01 -4.579154844598e+01 0.0 
0.0 0.0 -1.912556690798e+01 
-7.801406400775e+01 6.088301744756e-01 0.0 
6.088301744756e-01 -1.833640920276e+02 0.0 
0.0 0.0 -7.801344681060e+01 
-6.708316783265e+01 -2.892616672597e-01 0.0 
-2.892616672597e-01 -1.584809192621e+02 0.0 
0.0 0.0 -6.726922612842e+01 
-7.353087038714e+01 -6.273644063925e-01 0.0 
-6.273644063925e-01 -1.727938771769e+02 0.0 
0.0 0.0 -7.349742426922e+01 
-1.586686038680e+02 -6.651797099299e-01 0.0 
-6.651797099299e-01 -3.715860538101e+02 0.0 
0.0 0.0 -1.586763973034e+02 
-2.236450100405e+01 -7.287033242975e-01 0.0 
-7.287033242975e-01 -5.367037869123e+01 0.0 
0.0 0.0 -2.241046390859e+01 
-1.119496041742e+02 -6.758674374290e-01 0.0 
-6.758674374290e-01 -2.623426600992e+02 0.0 
0.0 0.0 -1.118876792820e+02 
-1.545017754316e+02 -9.209264256884e-01 0.0 
-9.209264256884e-01 -3.622467028882e+02 0.0 
0.0 0.0 -1.546245434959e+02 
-7.889513090368e+01 -7.068710307036e-01 0.0 
-7.068710307036e-01 -1.854739058304e+02 0.0 
0.0 0.0 -7.891071102022e+01 
-7.385865857684e+01 6.197730222490e-01 0.0 
6.197730222490e-01 -1.736908556890e+02 0.0 
0.0 0.0 -7.386485427976e+01 
-1.547289679886e+02 -1.012342616355e+00 0.0 
-1.012342616355e+00 -3.620131181501e+02 0.0 
0.0 0.0 -1.546226258416e+02 
-1.552568487277e+02 1.051529695866e+00 0.0 
1.051529695866e+00 -3.634633677183e+02 0.0 
0.0 0.0 -1.552160649338e+02 
-1.204816966064e+02 -7.121048847874e-01 0.0 
-7.121048847874e-01 -2.825310284789e+02 0.0 
0.0 0.0 -1.205038175256e+02 
-8.352975007167e+01 7.023205338488e-01 0.0 
7.023205338488e-01 -1.963020699195e+02 0.0 
0.0 0.0 -8.354954599735e+01 
-1.573369310928e+02 -2.946330405467e-01 0.0 
-2.946330405467e-01 -3.684982398329e+02 0.0 
0.0 0.0 -1.573505512777e+02 
-7.559924335465e+01 -7.192222169379e-01 0.0 
-7.192222169379e-01 -1.777817526961e+02 0.0 
0.0 0.0 -7.561429881521e+01 
-1.573052074609e+02 3.120345143231e-02 0.0 
3.120345143231e-02 -3.676014336923e+02 0.0 
0.0 0.0 -1.570719923460e+02 
-1.568975425501e+02 -3.054006888222e-01 0.0 
-3.054006888222e-01 -3.676636576428e+02 0.0 
0.0 0.0 -1.569683600579e+02 
-1.033492820984e+02 1.079449441974e+00 0.0 
1.079449441974e+00 -2.425393016676e+02 0.0 
0.0 0.0 -1.033665751298e+02 
-1.200509516727e+02 -7.813255898665e-01 0.0 
-7.813255898665e-01 -2.811762305280e+02 0.0 
0.0 0.0 -1.199681546602e+02 
-7.564286504760e+01 7.326962976710e-01 0.0 
7.326962976710e-01 -1.778876167066e+02 0.0 
0.0 0.0 -7.565914452626e+01 
-6.912286919350e+01 -6.535482844495e-01 0.0 
-6.535482844495e-01 -1.628131556331e+02 0.0 
0.0 0.0 -6.918080744798e+01 
-8.672548820389e+01 -7.249354191791e-01 0.0 
-7.249354191791e-01 -2.037915659930e+02 0.0 
0.0 0.0 -8.675511625908e+01 
-6.437415657119e+01 6.768358332769e-01 0.0 
6.768358332769e-01 -1.515974554142e+02 0.0 
0.0 0.0 -6.439148359561e+01 
-9.385018716186e+01 7.880821942100e-01 0.0 
7.880821942100e-01 -2.202329935000e+02 0.0 
0.0 0.0 -9.382495419855e+01 
-7.541256662844e+01 8.662909759284e-01 0.0 
8.662909759284e-01 -1.773516520049e+02 0.0 
0.0 0.0 -7.542926558999e+01 
-1.078307206961e+01 2.689183040622e-01 0.0 
2.689183040622e-01 -2.517826930350e+01 0.0 
0.0 0.0 -1.080658000402e+01 
-1.001715189400e+02 5.413227287182e-02 0.0 
5.413227287182e-02 -2.352002968519e+02 0.0 
0.0 0.0 -1.002115447376e+02 
-2.465583618349e+01 -1.696093802822e-02 0.0 
-1.696093802822e-02 -5.975943283572e+01 0.0 
0.0 0.0 -2.492458070576e+01 
-8.228747533439e+01 6.152194136177e-01 0.0 
6.152194136177e-01 -1.933788226503e+02 0.0 
0.0 0.0 -8.229988939540e+01 
-1.573486876666e+02 -1.852334717546e-02 0.0 
-1.852334717546e-02 -3.679978576430e+02 0.0 
0.0 0.0 -1.572039635929e+02 
-5.605142933190e+01 -9.157341498802e-01 0.0 
-9.157341498802e-01 -1.323209455390e+02 0.0 
0.0 0.0 -5.611171246128e+01 
-1.249384235623e+02 -8.199040776624e-01 0.0 
-8.199040776624e-01 -2.928453373814e+02 0.0 
0.0 0.0 -1.249351282831e+02 
-4.075366654769e+01 8.885425880899e-01 0.0 
8.885425880899e-01 -9.627657668965e+01 0.0 
0.0 0.0 -4.070907297120e+01 
-1.278058883820e+02 -9.500355316769e-01 0.0 
-9.500355316769e-01 -2.995094281939e+02 0.0 
0.0 0.0 -1.277945949728e+02 
-9.438985170142e+01 -2.652590744819e-02 0.0 
-2.652590744819e-02 -2.218857381209e+02 0.0 
0.0 0.0 -9.448267694669e+01 
-7.064603542492e+01 -8.360177011373e-01 0.0 
-8.360177011373e-01 -1.662228986849e+02 0.0 
0.0 0.0 -7.066068023295e+01 
-1.374880102431e+02 8.657025876584e-01 0.0 
8.657025876584e-01 -3.221567783667e+02 0.0 
0.0 0.0 -1.374934365829e+02 
-2.539326918013e+01 -7.080500341723e-01 0.0 
-7.080500341723e-01 -6.015184132582e+01 0.0 
0.0 0.0 -2.526353315178e+01 
-1.461149744572e+02 -8.829054755638e-01 0.0 
-8.829054755638e-01 -3.419854049790e+02 0.0 
0.0 0.0 -1.460301138309e+02 
-9.308672070143e+01 -7.227527371712e-01 0.0 
-7.227527371712e-01 -2.186922816288e+02 0.0 
0.0 0.0 -9.313370069905e+01 
-1.567691644366e+02 -5.278972381228e-02 0.0 
-5.278972381228e-02 -3.675024912217e+02 0.0 
0.0 0.0 -1.568814966975e+02 
-9.400687929744e+01 -9.775525963712e-02 0.0 
-9.775525963712e-02 -2.208060568238e+02 0.0 
0.0 0.0 -9.404388083637e+01 
-5.918827153622e+01 -6.526450967551e-01 0.0 
-6.526450967551e-01 -1.395563953257e+02 0.0 
0.0 0.0 -5.922340005856e+01 
-8.217187392107e+01 -6.211507906823e-01 0.0 
-6.211507906823e-01 -1.926387831946e+02 0.0 
0.0 0.0 -8.204319713471e+01 
-1.067627211871e+02 5.000562948326e-01 0.0 
5.000562948326e-01 -2.512029591897e+02 0.0 
0.0 0.0 -1.069897041130e+02 
-4.087356346002e+01 -9.950149549453e-01 0.0 
-9.950149549453e-01 -9.708445276430e+01 0.0 
0.0 0.0 -4.098740486730e+01 
-7.082314737125e+01 8.443940518534e-01 0.0 
8.443940518534e-01 -1.666241936715e+02 0.0 
0.0 0.0 -7.083420231282e+01 
-1.243734196452e+02 9.293304657891e-01 0.0 
9.293304657891e-01 -2.916638969619e+02 0.0 
0.0 0.0 -1.244111949821e+02 
-9.380010206802e+01 -6.196323390709e-01 0.0 
-6.196323390709e-01 -2.206134541533e+02 0.0 
0.0 0.0 -9.392406686640e+01 
-6.707907872805e+01 -6.868648160083e-01 0.0 
-6.868648160083e-01 -1.578844883230e+02 0.0 
0.0 0.0 -6.708907011531e+01 
-7.760733295636e+01 -5.868527399057e-01 0.0 
-5.868527399057e-01 -1.825198439237e+02 0.0 
0.0 0.0 -7.763815306402e+01 
-1.393650419974e+02 -8.292456284452e-01 0.0 
-8.292456284452e-01 -3.263988419421e+02 0.0 
0.0 0.0 -1.393291651819e+02 
-7.512295899629e+01 2.262213193226e-01 0.0 
2.262213193226e-01 -1.767608170260e+02 0.0 
0.0 0.0 -7.516513280670e+01 
-1.572344521478e+02 -2.146931881617e-01 0.0 
-2.146931881617e-01 -3.677974336179e+02 0.0 
0.0 0.0 -1.571095657297e+02 
-1.567600201266e+02 1.389770578683e-01 0.0 
1.389770578683e-01 -3.673232697483e+02 0.0 
0.0 0.0 -1.568249869625e+02 
-5.452831594569e+01 5.483216029043e-01 0.0 
5.483216029043e-01 -1.285022353168e+02 0.0 
0.0 0.0 -5.450916537876e+01 
-7.589670845210e+01 -2.887370522739e-01 0.0 
-2.887370522739e-01 -1.779072422510e+02 0.0 
0.0 0.0 -7.574118521094e+01 
-1.415287657525e+02 7.809635165361e-01 0.0 
7.809635165361e-01 -3.316982256421e+02 0.0 
0.0 0.0 -1.415680974184e+02 
-7.246781895519e+01 6.281152981448e-01 0.0 
6.281152981448e-01 -1.704778093121e+02 0.0 
0.0 0.0 -7.248368848018e+01 
-4.873192251131e+01 -6.619496576920e-01 0.0 
-6.619496576920e-01 -1.154604037328e+02 0.0 
0.0 0.0 -4.885769787323e+01 
-8.972048268558e+01 -7.127864173447e-01 0.0 
-7.127864173447e-01 -2.108104141060e+02 0.0 
0.0 0.0 -8.975926903749e+01 
-7.232387267093e+01 6.786862613967e-01 0.0 
6.786862613967e-01 -1.701054390899e+02 0.0 
0.0 0.0 -7.232879352825e+01 
-1.565075440827e+02 -4.946897695878e-01 0.0 
-4.946897695878e-01 -3.667775421071e+02 0.0 
0.0 0.0 -1.565855258569e+02 
-1.295275353507e+02 -7.775791028021e-01 0.0 
-7.775791028021e-01 -3.035575665749e+02 0.0 
0.0 0.0 -1.295255305777e+02 
-1.419219418621e+02 -9.165489107318e-01 0.0 
-9.165489107318e-01 -3.323812114070e+02 0.0 
0.0 0.0 -1.418909459807e+02 
-3.213131338829e+01 8.573106441451e-01 0.0 
8.573106441451e-01 -7.635940969643e+01 0.0 
0.0 0.0 -3.214721692541e+01 
-6.638826664138e+01 7.841291523184e-01 0.0 
7.841291523184e-01 -1.562609159864e+02 0.0 
0.0 0.0 -6.639475478832e+01 
-1.331858694476e+02 -7.782470493651e-01 0.0 
-7.782470493651e-01 -3.120039527538e+02 0.0 
0.0 0.0 -1.331569466604e+02 
-2.407723248805e+00 -2.856609470426e-02 0.0 
-2.856609470426e-02 -6.674696639733e+00 0.0 
0.0 0.0 -2.324725966562e+00 
-7.239243270215e+01 -6.254238158274e-01 0.0 
-6.254238158274e-01 -1.704113418422e+02 0.0 
0.0 0.0 -7.244113236331e+01 
-1.325436700726e+02 9.270934530879e-01 0.0 
9.270934530879e-01 -3.106072614671e+02 0.0 
0.0 0.0 -1.325452794619e+02 
-1.709626010937e+01 3.640288783052e-01 0.0 
3.640288783052e-01 -4.221619351873e+01 0.0 
0.0 0.0 -1.739373608843e+01 
-1.550508963417e+02 -9.442767784606e-01 0.0 
-9.442767784606e-01 -3.626114618766e+02 0.0 
0.0 0.0 -1.548987074655e+02 
-1.188386610466e+02 -7.814663029867e-01 0.0 
-7.814663029867e-01 -2.785240662788e+02 0.0 
0.0 0.0 -1.188088181976e+02 
-7.138132768969e+01 -7.509380246407e-01 0.0 
-7.509380246407e-01 -1.678512484410e+02 0.0 
0.0 0.0 -7.136977283922e+01 
-1.324188290346e+02 -9.610571986564e-01 0.0 
-9.610571986564e-01 -3.103703798408e+02 0.0 
0.0 0.0 -1.324367626626e+02 
-1.013914390488e+02 3.955771558385e-02 0.0 
3.955771558385e-02 -2.378039897720e+02 0.0 
0.0 0.0 -1.013586286462e+02 
-1.083851206561e+02 6.462580223349e-01 0.0 
6.462580223349e-01 -2.535963127043e+02 0.0 
0.0 0.0 -1.081944300081e+02 
-1.520300445122e+02 5.689575993912e-01 0.0 
5.689575993912e-01 -3.559987711635e+02 0.0 
0.0 0.0 -1.520086447027e+02 
-5.355595993591e+01 -8.125778751813e-01 0.0 
-8.125778751813e-01 -1.262352134212e+02 0.0 
0.0 0.0 -5.353735200714e+01 
-9.013054100495e+01 -7.422956861595e-01 0.0 
-7.422956861595e-01 -2.117111663467e+02 0.0 
0.0 0.0 -9.015251220548e+01 
-9.656192004907e+01 -7.085515068530e-01 0.0 
-7.085515068530e-01 -2.267473074783e+02 0.0 
0.0 0.0 -9.659276825821e+01 
-1.235365263859e+02 7.699921193987e-01 0.0 
7.699921193987e-01 -2.895554226440e+02 0.0 
0.0 0.0 -1.235275847090e+02 
-9.758991814836e+01 7.291132093574e-01 0.0 
7.291132093574e-01 -2.292443781689e+02 0.0 
0.0 0.0 -9.765028889517e+01 
-8.977069068833e+01 6.449648561391e-01 0.0 
6.449648561391e-01 -2.108209176112e+02 0.0 
0.0 0.0 -8.977748248987e+01 
-1.149566447818e+02 7.927058564022e-01 0.0 
7.927058564022e-01 -2.695866734339e+02 0.0 
0.0 0.0 -1.149629954647e+02 
-1.355936231334e+02 8.317534964840e-01 0.0 
8.317534964840e-01 -3.177615176417e+02 0.0 
0.0 0.0 -1.356065422325e+02 
-9.934133002969e+00 1.253253292624e-03 0.0 
1.253253292624e-03 -2.449537661701e+01 0.0 
0.0 0.0 -9.928852885992e+00 
-5.486258054817e+01 -4.333617834547e-01 0.0 
-4.333617834547e-01 -1.288164206314e+02 0.0 
0.0 0.0 -5.470370035387e+01 
-6.186104111763e+01 -7.436859071175e-01 0.0 
-7.436859071175e-01 -1.458117602268e+02 0.0 
0.0 0.0 -6.190184040334e+01 
-8.687939514217e+01 7.205974915105e-01 0.0 
7.205974915105e-01 -2.041383635611e+02 0.0 
0.0 0.0 -8.690532761097e+01 
-1.344993761903e+02 8.415980653073e-01 0.0 
8.415980653073e-01 -3.151683438365e+02 0.0 
0.0 0.0 -1.345003160080e+02 
-2.828695913511e+01 -7.135833048883e-01 0.0 
-7.135833048883e-01 -6.677553022854e+01 0.0 
0.0 0.0 -2.811874680910e+01 
-1.278599377319e+02 8.851409078699e-01 0.0 
8.851409078699e-01 -2.996541104718e+02 0.0 
0.0 0.0 -1.278542144611e+02 
-9.346888617949e+01 9.390422214214e-01 0.0 
9.390422214214e-01 -2.192891915630e+02 0.0 
0.0 0.0 -9.342742332276e+01 
-6.620200243198e+01 -7.907258846071e-01 0.0 
-7.907258846071e-01 -1.558643671626e+02 0.0 
0.0 0.0 -6.621991087839e+01 
-1.232189969913e+02 8.417663378907e-01 0.0 
8.417663378907e-01 -2.888339049965e+02 0.0 
0.0 0.0 -1.232158705963e+02 
-1.191641263085e+01 8.061621934195e-01 0.0 
8.061621934195e-01 -2.875733764678e+01 0.0 
0.0 0.0 -1.180212508329e+01 
-1.270165423348e+02 -8.131424243871e-01 0.0 
-8.131424243871e-01 -2.976424130083e+02 0.0 
0.0 0.0 -1.269976866029e+02 
-9.857755356097e+00 -2.556962830393e-01 0.0 
-2.556962830393e-01 -2.383279462559e+01 0.0 
0.0 0.0 -9.707164994506e+00 
-1.789897784807e+01 3.948189100830e-02 0.0 
3.948189100830e-02 -4.289322892090e+01 0.0 
0.0 0.0 -1.783766203069e+01 
-3.233115642139e+01 -9.389822518962e-01 0.0 
-9.389822518962e-01 -7.657481457436e+01 0.0 
0.0 0.0 -3.227179129872e+01 
-4.524577199025e+01 -6.889358195140e-01 0.0 
-6.889358195140e-01 -1.068956587917e+02 0.0 
0.0 0.0 -4.524242923457e+01 
-1.317209870353e+02 7.442360686365e-01 0.0 
7.442360686365e-01 -3.086717816607e+02 0.0 
0.0 0.0 -1.317178306088e+02 
-4.234489017837e+01 7.805965773705e-01 0.0 
7.805965773705e-01 -1.001868408205e+02 0.0 
0.0 0.0 -4.235951929965e+01 
-3.907232134961e+01 -7.211438105789e-01 0.0 
-7.211438105789e-01 -9.251645465727e+01 0.0 
0.0 0.0 -3.907663280207e+01 
-3.316071564076e+01 7.374896758304e-01 0.0 
7.374896758304e-01 -7.869253344444e+01 0.0 
0.0 0.0 -3.315597472556e+01 
-2.865967874031e+01 -7.524712825215e-01 0.0 
-7.524712825215e-01 -6.822237279998e+01 0.0 
0.0 0.0 -2.866461546209e+01 
-1.367995625960e+02 -8.024567613502e-01 0.0 
-8.024567613502e-01 -3.206106696706e+02 0.0 
0.0 0.0 -1.368230696800e+02 
-9.317161301565e+01 7.533512056629e-01 0.0 
7.533512056629e-01 -2.188105385051e+02 0.0 
0.0 0.0 -9.319464545623e+01 
-1.548272588028e+02 -9.946438949872e-01 0.0 
-9.946438949872e-01 -3.625804037964e+02 0.0 
0.0 0.0 -1.548222987798e+02 
-4.318524635832e+00 -8.968178179596e-03 0.0 
-8.968178179596e-03 -8.788408678403e+00 0.0 
0.0 0.0 -4.473779519123e+00 
-4.680056022666e+01 -7.503513854444e-01 0.0 
-7.503513854444e-01 -1.105422584757e+02 0.0 
0.0 0.0 -4.680284561070e+01 
-7.441645824855e+01 -8.228275639242e-01 0.0 
-8.228275639242e-01 -1.749991930771e+02 0.0 
0.0 0.0 -7.442469539769e+01 
-6.770673260470e+01 -7.435899719801e-01 0.0 
-7.435899719801e-01 -1.593976757467e+02 0.0 
0.0 0.0 -6.773132250541e+01 
-1.277327578446e+02 -8.961646879774e-01 0.0 
-8.961646879774e-01 -2.994250655973e+02 0.0 
0.0 0.0 -1.277473470326e+02 
-1.575718905605e+02 -7.860411614432e-01 0.0 
-7.860411614432e-01 -3.692525816224e+02 0.0 
0.0 0.0 -1.576473416549e+02 
-1.262150897382e+02 8.241274465221e-01 0.0 
8.241274465221e-01 -2.958375909010e+02 0.0 
0.0 0.0 -1.262158041918e+02 
-5.388880306163e+01 7.496930174603e-01 0.0 
7.496930174603e-01 -1.270911939079e+02 0.0 
0.0 0.0 -5.389399909086e+01 
-1.367827820127e+02 7.650628881164e-01 0.0 
7.650628881164e-01 -3.206188854046e+02 0.0 
0.0 0.0 -1.368205002252e+02 
-1.159506365929e+02 -1.031363518468e+00 0.0 
-1.031363518468e+00 -2.720403534533e+02 0.0 
0.0 0.0 -1.159972970139e+02 
-9.136018861028e+01 7.175683354607e-01 0.0 
7.175683354607e-01 -2.145924375957e+02 0.0 
0.0 0.0 -9.138578786178e+01 
-1.223446454053e+02 -8.208508441125e-01 0.0 
-8.208508441125e-01 -2.867026945167e+02 0.0 
0.0 0.0 -1.223142019766e+02 
-1.521862555372e+02 6.379947215344e-01 0.0 
6.379947215344e-01 -3.565112447791e+02 0.0 
0.0 0.0 -1.522092500949e+02 
-7.458892851711e+01 8.218971465235e-01 0.0 
8.218971465235e-01 -1.754184674453e+02 0.0 
0.0 0.0 -7.460221878873e+01 
-4.365538608228e+01 6.753979621541e-01 0.0 
6.753979621541e-01 -1.032026567328e+02 0.0 
0.0 0.0 -4.365741284451e+01 
-1.054984576611e+02 7.624071014442e-01 0.0 
7.624071014442e-01 -2.476417686784e+02 0.0 
0.0 0.0 -1.055420679018e+02 
-1.640097477103e+02 -3.989017774564e-01 0.0 
-3.989017774564e-01 -3.841892156550e+02 0.0 
0.0 0.0 -1.640596890096e+02 
-9.028206913911e+01 7.545802582487e-01 0.0 
7.545802582487e-01 -2.120455560560e+02 0.0 
0.0 0.0 -9.029828755853e+01 
-9.427166015746e+01 7.652118623553e-01 0.0 
7.652118623553e-01 -2.213374078802e+02 0.0 
0.0 0.0 -9.428272041129e+01 
-1.017002370296e+02 2.084739372404e-01 0.0 
2.084739372404e-01 -2.389333462555e+02 0.0 
0.0 0.0 -1.017900749855e+02 
-2.403236135746e+01 4.698265061791e-01 0.0 
4.698265061791e-01 -5.736254949139e+01 0.0 
0.0 0.0 -2.401847325465e+01 
-9.731482402205e+01 -7.404435597412e-01 0.0 
-7.404435597412e-01 -2.287956441278e+02 0.0 
0.0 0.0 -9.743314044494e+01 
-5.371725971217e+01 -7.585002361754e-01 0.0 
-7.585002361754e-01 -1.266926807653e+02 0.0 
0.0 0.0 -5.372298214323e+01 
-3.649999407960e+01 -6.967425643995e-01 0.0 
-6.967425643995e-01 -8.652264264976e+01 0.0 
0.0 0.0 -3.650679101881e+01 
-2.624561125614e+01 7.868214189194e-01 0.0 
7.868214189194e-01 -6.241366619190e+01 0.0 
0.0 0.0 -2.619778323441e+01 
-1.315610351030e+02 -7.819485452269e-01 0.0 
-7.819485452269e-01 -3.083224714693e+02 0.0 
0.0 0.0 -1.315650519717e+02 
-1.010987452270e+02 7.296683893703e-01 0.0 
7.296683893703e-01 -2.373722280302e+02 0.0 
0.0 0.0 -1.011412919772e+02 
-6.426370701805e+01 -7.161389606047e-01 0.0 
-7.161389606047e-01 -1.512298605326e+02 0.0 
0.0 0.0 -6.424807026518e+01 
-1.362607701085e+02 7.693069834424e-01 0.0 
7.693069834424e-01 -3.192940228132e+02 0.0 
0.0 0.0 -1.362664378765e+02 
-1.298151092228e+02 8.367594849752e-01 0.0 
8.367594849752e-01 -3.041498273016e+02 0.0 
0.0 0.0 -1.297894809573e+02 
-9.577022218688e+01 7.165668930832e-01 0.0 
7.165668930832e-01 -2.248929507003e+02 0.0 
0.0 0.0 -9.579895186615e+01 
-1.579784776760e+02 -3.047254492662e-01 0.0 
-3.047254492662e-01 -3.691333445519e+02 0.0 
0.0 0.0 -1.577335466684e+02 
-9.774176991500e+01 -7.770193367941e-01 0.0 
-7.770193367941e-01 -2.294349587741e+02 0.0 
0.0 0.0 -9.775301860672e+01 
-1.001894139603e+02 7.347589887090e-01 0.0 
7.347589887090e-01 -2.351718180207e+02 0.0 
0.0 0.0 -1.002083695943e+02 
-8.033722712714e+01 7.182212151864e-01 0.0 
7.182212151864e-01 -1.887749621225e+02 0.0 
0.0 0.0 -8.033365677490e+01 
-1.023769791129e+02 7.944677680120e-01 0.0 
7.944677680120e-01 -2.402466719902e+02 0.0 
0.0 0.0 -1.023870953309e+02 
-4.452622689863e+01 -7.678374993938e-01 0.0 
-7.678374993938e-01 -1.052762665226e+02 0.0 
0.0 0.0 -4.454074802638e+01 
-9.433902176665e+01 -1.816423109584e-01 0.0 
-1.816423109584e-01 -2.219710895560e+02 0.0 
0.0 0.0 -9.449303339679e+01 
-7.813540426414e+01 7.655339839198e-01 0.0 
7.655339839198e-01 -1.836917241322e+02 0.0 
0.0 0.0 -7.814813851891e+01 
-5.538241660638e+01 7.616849867554e-01 0.0 
7.616849867554e-01 -1.305254641239e+02 0.0 
0.0 0.0 -5.537236421909e+01 
-1.259900010504e+02 -7.812942490863e-01 0.0 
-7.812942490863e-01 -2.953065755836e+02 0.0 
0.0 0.0 -1.259889729902e+02 
-2.508810356116e+00 1.310676159407e-01 0.0 
1.310676159407e-01 -7.118166874270e+00 0.0 
0.0 0.0 -2.488093169116e+00 
-1.019696314535e+02 7.988927431044e-01 0.0 
7.988927431044e-01 -2.394575579264e+02 0.0 
0.0 0.0 -1.020281568140e+02 
-5.724946151115e+01 -7.680677175708e-01 0.0 
-7.680677175708e-01 -1.349390932436e+02 0.0 
0.0 0.0 -5.725656642644e+01 
-4.697615007553e+01 7.065814277346e-01 0.0 
7.065814277346e-01 -1.109065997979e+02 0.0 
0.0 0.0 -4.696482496204e+01 
-4.469295261645e+01 7.413236769229e-01 0.0 
7.413236769229e-01 -1.057137264334e+02 0.0 
0.0 0.0 -4.472200371496e+01 
-1.088572410859e+02 -7.307092195853e-01 0.0 
-7.307092195853e-01 -2.554531642497e+02 0.0 
0.0 0.0 -1.088931216007e+02 
-1.721026302488e+01 4.427653053703e-01 0.0 
4.427653053703e-01 -4.125277232110e+01 0.0 
0.0 0.0 -1.713891060379e+01 
-6.655084440080e+01 -7.334936469683e-01 0.0 
-7.334936469683e-01 -1.566918504434e+02 0.0 
0.0 0.0 -6.657280845327e+01 
-1.059142453684e+02 -7.674694969541e-01 0.0 
-7.674694969541e-01 -2.485039058710e+02 0.0 
0.0 0.0 -1.059254453718e+02 
-1.008630682453e+02 -7.265097405221e-01 0.0 
-7.265097405221e-01 -2.369113045608e+02 0.0 
0.0 0.0 -1.009323118418e+02 
-1.015462040031e+02 1.015554047493e-01 0.0 
1.015554047493e-01 -2.387619003053e+02 0.0 
0.0 0.0 -1.016924312925e+02 
-2.349817608341e+01 -7.327455608587e-01 0.0 
-7.327455608587e-01 -5.637029126958e+01 0.0 
0.0 0.0 -2.356054020590e+01 
-5.519394382171e+01 -7.895154218513e-01 0.0 
-7.895154218513e-01 -1.301032752036e+02 0.0 
0.0 0.0 -5.518916570758e+01 
-5.067555999136e+01 8.132532822891e-01 0.0 
8.132532822891e-01 -1.196276499262e+02 0.0 
0.0 0.0 -5.069096297528e+01 
-5.893703402378e+01 6.759678373180e-01 0.0 
6.759678373180e-01 -1.389071513282e+02 0.0 
0.0 0.0 -5.895325560560e+01 
-1.225159919452e+02 8.511270866255e-01 0.0 
8.511270866255e-01 -2.872242034953e+02 0.0 
0.0 0.0 -1.225220586322e+02 
-6.670962418177e+01 6.858118841877e-01 0.0 
6.858118841877e-01 -1.570633606683e+02 0.0 
0.0 0.0 -6.673189545502e+01 
-7.338755925272e+01 -7.632529202362e-01 0.0 
-7.632529202362e-01 -1.726012243365e+02 0.0 
0.0 0.0 -7.339663507676e+01 
-6.983375084661e+01 -7.782172339049e-01 0.0 
-7.782172339049e-01 -1.643208354936e+02 0.0 
0.0 0.0 -6.984637590206e+01 
-2.821475190804e+01 8.370611470822e-01 0.0 
8.370611470822e-01 -6.751919968460e+01 0.0 
0.0 0.0 -2.832018547779e+01 
-8.355689554079e+01 -7.937722572980e-01 0.0 
-7.937722572980e-01 -1.963042678144e+02 0.0 
0.0 0.0 -8.355834900656e+01 
-3.137338873892e+01 7.257754965786e-01 0.0 
7.257754965786e-01 -7.464485264178e+01 0.0 
0.0 0.0 -3.140547241421e+01 
-1.641583034164e+02 1.027231462822e-02 0.0 
1.027231462822e-02 -3.839756820514e+02 0.0 
0.0 0.0 -1.640401956403e+02 
-1.633141649895e+02 1.188830171818e-01 0.0 
1.188830171818e-01 -3.829639639583e+02 0.0 
0.0 0.0 -1.634834386843e+02 
-9.362013463422e+01 -7.486646824371e-01 0.0 
-7.486646824371e-01 -2.198340610939e+02 0.0 
0.0 0.0 -9.363625871844e+01 
-4.918973143403e+01 -7.639474089928e-01 0.0 
-7.639474089928e-01 -1.161291074880e+02 0.0 
0.0 0.0 -4.919565167660e+01 
-4.251769464817e+01 7.242491558012e-01 0.0 
7.242491558012e-01 -1.004551568084e+02 0.0 
0.0 0.0 -4.249185543698e+01 
-1.034991375010e+02 -7.449833473597e-01 0.0 
-7.449833473597e-01 -2.429210265576e+02 0.0 
0.0 0.0 -1.035260492176e+02 
-4.592184794440e+01 7.502131477918e-01 0.0 
7.502131477918e-01 -1.084910400758e+02 0.0 
0.0 0.0 -4.592386640606e+01 
-5.053925624067e+01 -7.966227002001e-01 0.0 
-7.966227002001e-01 -1.192119709307e+02 0.0 
0.0 0.0 -5.052536815142e+01 
-9.117021931582e+01 -7.116596115675e-01 0.0 
-7.116596115675e-01 -2.141479655404e+02 0.0 
0.0 0.0 -9.119545545688e+01 
-1.568163496224e+02 1.538701318686e-01 0.0 
1.538701318686e-01 -3.678089975975e+02 0.0 
0.0 0.0 -1.569876041660e+02 
-6.174607095592e+01 -7.841631419692e-01 0.0 
-7.841631419692e-01 -1.454402112397e+02 0.0 
0.0 0.0 -6.175588465869e+01 
-1.147940411058e+02 -7.872147765796e-01 0.0 
-7.872147765796e-01 -2.692457519295e+02 0.0 
0.0 0.0 -1.148119379106e+02 
-3.453699591156e+01 -7.534153264639e-01 0.0 
-7.534153264639e-01 -8.194616956058e+01 0.0 
0.0 0.0 -3.454494964164e+01 
-1.642364781389e+02 -3.186832093816e-02 0.0 
-3.186832093816e-02 -3.842616866873e+02 0.0 
0.0 0.0 -1.641494494478e+02 
-4.574983225925e+01 -7.566209017701e-01 0.0 
-7.566209017701e-01 -1.080695998574e+02 0.0 
0.0 0.0 -4.574582963501e+01 
-9.461328485719e+01 -7.444579405921e-01 0.0 
-7.444579405921e-01 -2.221672771473e+02 0.0 
0.0 0.0 -9.463416860134e+01 
-3.169391431798e+01 -8.125910381521e-01 0.0 
-8.125910381521e-01 -7.544283869925e+01 0.0 
0.0 0.0 -3.174102590517e+01 
-1.119715029925e+02 -7.604412623045e-01 0.0 
-7.604412623045e-01 -2.625951087601e+02 0.0 
0.0 0.0 -1.119699835258e+02 
-7.795682136237e+01 -7.726304206442e-01 0.0 
-7.726304206442e-01 -1.832650165140e+02 0.0 
0.0 0.0 -7.796655136292e+01 
-5.415350999049e+01 -7.670265316674e-01 0.0 
-7.670265316674e-01 -1.277156259838e+02 0.0 
0.0 0.0 -5.416074079229e+01 
-9.669948940053e+01 7.411816842291e-01 0.0 
7.411816842291e-01 -2.270718645534e+02 0.0 
0.0 0.0 -9.673140618617e+01 
-1.641795429316e+02 7.980341632044e-02 0.0 
7.980341632044e-02 -3.844384451393e+02 0.0 
0.0 0.0 -1.641853964213e+02 
-6.530669893060e+01 -7.611036780850e-01 0.0 
-7.611036780850e-01 -1.537564598772e+02 0.0 
0.0 0.0 -6.531894764234e+01 
-1.060841660586e+02 7.877356493439e-01 0.0 
7.877356493439e-01 -2.488894511310e+02 0.0 
0.0 0.0 -1.060920851569e+02 
-3.473598345798e+01 6.580229455625e-01 0.0 
6.580229455625e-01 -8.230665625955e+01 0.0 
0.0 0.0 -3.471279191526e+01 
-1.166275524445e+02 -8.431672057771e-01 0.0 
-8.431672057771e-01 -2.734866550761e+02 0.0 
0.0 0.0 -1.166342622562e+02 
-1.230624675116e+02 -8.323199874437e-01 0.0 
-8.323199874437e-01 -2.884647596852e+02 0.0 
0.0 0.0 -1.230581681591e+02 
-4.817698546733e+01 7.124599814449e-01 0.0 
7.124599814449e-01 -1.137992213668e+02 0.0 
0.0 0.0 -4.819286205024e+01 
-1.129734757586e+02 7.503487338098e-01 0.0 
7.503487338098e-01 -2.651278914798e+02 0.0 
0.0 0.0 -1.130304101715e+02 
-1.640322137781e+02 -5.221102139097e-02 0.0 
-5.221102139097e-02 -3.841018417956e+02 0.0 
0.0 0.0 -1.640402166721e+02 
-1.314987035535e+02 -7.627213062617e-01 0.0 
-7.627213062617e-01 -3.081831585025e+02 0.0 
0.0 0.0 -1.315045586168e+02 
-1.640430266983e+02 6.923464130332e-02 0.0 
6.923464130332e-02 -3.840868227666e+02 0.0 
0.0 0.0 -1.640389548395e+02 
-1.123541586437e+02 8.399843900904e-01 0.0 
8.399843900904e-01 -2.631796758105e+02 0.0 
0.0 0.0 -1.122601503363e+02 
-1.285470151396e+02 7.566401437382e-01 0.0 
7.566401437382e-01 -3.013466006221e+02 0.0 
0.0 0.0 -1.285680847285e+02 
-4.022837330989e+01 7.763189526955e-01 0.0 
7.763189526955e-01 -9.524026795820e+01 0.0 
0.0 0.0 -4.024059238043e+01 
-8.887520553282e+01 7.224609828543e-01 0.0 
7.224609828543e-01 -2.087883927326e+02 0.0 
0.0 0.0 -8.889907947963e+01 
-1.000255580765e+02 -7.371741950100e-01 0.0 
-7.371741950100e-01 -2.348016797273e+02 0.0 
0.0 0.0 -1.000481713411e+02 
-1.046076677519e+02 7.486110076755e-01 0.0 
7.486110076755e-01 -2.454959355706e+02 0.0 
0.0 0.0 -1.046310809967e+02 
-8.587071404025e+01 7.455539286782e-01 0.0 
7.455539286782e-01 -2.017220922183e+02 0.0 
0.0 0.0 -8.587784187757e+01 
-1.640215885435e+02 4.761334194837e-02 0.0 
4.761334194837e-02 -3.841675530667e+02 0.0 
0.0 0.0 -1.640567424831e+02 
-1.077002827755e+02 -5.782950463103e-01 0.0 
-5.782950463103e-01 -2.522181783299e+02 0.0 
0.0 0.0 -1.075755383316e+02 
-9.417468997047e+01 6.923337744598e-01 0.0 
6.923337744598e-01 -2.212821305385e+02 0.0 
0.0 0.0 -9.423704615268e+01 
-7.001686967375e+01 7.717350430840e-01 0.0 
7.717350430840e-01 -1.647347053739e+02 0.0 
0.0 0.0 -7.002547251431e+01 
-3.701289713581e+01 -7.489372965850e-01 0.0 
-7.489372965850e-01 -8.774653243505e+01 0.0 
0.0 0.0 -3.702782887126e+01 
-8.540095527579e+01 7.252396939543e-01 0.0 
7.252396939543e-01 -2.006442780594e+02 0.0 
0.0 0.0 -8.541357000056e+01 
-5.130534559731e+01 -7.526277270628e-01 0.0 
-7.526277270628e-01 -1.210954961484e+02 0.0 
0.0 0.0 -5.132025252372e+01 
-9.432516851120e+01 1.650692650714e-01 0.0 
1.650692650714e-01 -2.215041514635e+02 0.0 
0.0 0.0 -9.434879599240e+01 
-5.432906332454e+01 7.444987351818e-01 0.0 
7.444987351818e-01 -1.281113434661e+02 0.0 
0.0 0.0 -5.433212203720e+01 
-6.191774808803e+01 7.691592261910e-01 0.0 
7.691592261910e-01 -1.458304024166e+02 0.0 
0.0 0.0 -6.192444515139e+01 
-1.306453374633e+02 -8.293341548750e-01 0.0 
-8.293341548750e-01 -3.061485884232e+02 0.0 
0.0 0.0 -1.306381777660e+02 
-5.147287536496e+01 7.291563874664e-01 0.0 
7.291563874664e-01 -1.214428707187e+02 0.0 
0.0 0.0 -5.147472382510e+01 
-9.215143386439e+01 -7.356096303069e-01 0.0 
-7.356096303069e-01 -2.164705970662e+02 0.0 
0.0 0.0 -9.218660927919e+01 
-1.094945986531e+02 -7.559309818867e-01 0.0 
-7.559309818867e-01 -2.568482952550e+02 0.0 
0.0 0.0 -1.095028681725e+02 
-9.717842279101e+01 -7.941080969242e-01 0.0 
-7.941080969242e-01 -2.280733379010e+02 0.0 
0.0 0.0 -9.717552820760e+01 
-1.645108774077e+02 8.267552524150e-03 0.0 
8.267552524150e-03 -3.846909567093e+02 0.0 
0.0 0.0 -1.643605502351e+02 
-7.690021474652e+01 6.718248809569e-01 0.0 
6.718248809569e-01 -1.809122333887e+02 0.0 
0.0 0.0 -7.694373444057e+01 
-5.157464125167e+01 -7.905748296233e-01 0.0 
-7.905748296233e-01 -1.216869070999e+02 0.0 
0.0 0.0 -5.157846450547e+01 
-6.819237817034e+01 7.211101475106e-01 0.0 
7.211101475106e-01 -1.604190220184e+02 0.0 
0.0 0.0 -6.818342005662e+01 
-4.895414618094e+01 5.947022376756e-01 0.0 
5.947022376756e-01 -1.158130210764e+02 0.0 
0.0 0.0 -4.903015017719e+01 
-4.805983096006e+01 -7.845730927745e-01 0.0 
-7.845730927745e-01 -1.135136959924e+02 0.0 
0.0 0.0 -4.807205808575e+01 
-1.380849522798e+02 8.049247720858e-01 0.0 
8.049247720858e-01 -3.235322948857e+02 0.0 
0.0 0.0 -1.380851741497e+02 
-9.921664126767e+01 7.496292740580e-01 0.0 
7.496292740580e-01 -2.329043491966e+02 0.0 
0.0 0.0 -9.923629713927e+01 
-6.778189048244e+01 7.528280577361e-01 0.0 
7.528280577361e-01 -1.596074601668e+02 0.0 
0.0 0.0 -6.781680519476e+01 
-8.438505093390e+01 -7.427765379741e-01 0.0 
-7.427765379741e-01 -1.983240946915e+02 0.0 
0.0 0.0 -8.441274368762e+01 
-1.638947834989e+02 -9.407098342927e-02 0.0 
-9.407098342927e-02 -3.838090847686e+02 0.0 
0.0 0.0 -1.639111604803e+02 
-1.555034791555e+02 5.789261406999e-01 0.0 
5.789261406999e-01 -3.642622107467e+02 0.0 
0.0 0.0 -1.555297069707e+02 
-1.378879295076e+02 -7.967199331947e-01 0.0 
-7.967199331947e-01 -3.229493683618e+02 0.0 
0.0 0.0 -1.378511893608e+02 
-1.272118506718e+02 7.819900710005e-01 0.0 
7.819900710005e-01 -2.981227117332e+02 0.0 
0.0 0.0 -1.272003687215e+02 
-9.372849592770e+01 7.567809143364e-01 0.0 
7.567809143364e-01 -2.200218375711e+02 0.0 
0.0 0.0 -9.372510004963e+01 
-7.001241102360e+01 7.211823065888e-01 0.0 
7.211823065888e-01 -1.647450186093e+02 0.0 
0.0 0.0 -7.002722888988e+01 
-4.934964155099e+01 7.517746232693e-01 0.0 
7.517746232693e-01 -1.165405423550e+02 0.0 
0.0 0.0 -4.936705517180e+01 
-5.742041401746e+01 7.511997271058e-01 0.0 
7.511997271058e-01 -1.353444708612e+02 0.0 
0.0 0.0 -5.742946546360e+01 
-9.478083247078e+01 7.319025854662e-01 0.0 
7.319025854662e-01 -2.225500581362e+02 0.0 
0.0 0.0 -9.479926718208e+01 
-1.086053983233e+02 7.764999577043e-01 0.0 
7.764999577043e-01 -2.547467705455e+02 0.0 
0.0 0.0 -1.086056506606e+02 
-8.224204337920e+01 7.953723507192e-01 0.0 
7.953723507192e-01 -1.931829734724e+02 0.0 
0.0 0.0 -8.222750505550e+01 
-1.388743536699e+02 -8.131411103527e-01 0.0 
-8.131411103527e-01 -3.254712954233e+02 0.0 
0.0 0.0 -1.389036947280e+02 
-5.177846515214e+01 7.468818883605e-01 0.0 
7.468818883605e-01 -1.221157268323e+02 0.0 
0.0 0.0 -5.176825759534e+01 
-8.143646566074e+01 7.475238894830e-01 0.0 
7.475238894830e-01 -1.913585882353e+02 0.0 
0.0 0.0 -8.143851616880e+01 
-9.557866658464e+01 -7.288480179985e-01 0.0 
-7.288480179985e-01 -2.244138586157e+02 0.0 
0.0 0.0 -9.559775756011e+01 
-7.348125689625e+01 7.881059547050e-01 0.0 
7.881059547050e-01 -1.727850438514e+02 0.0 
0.0 0.0 -7.347989022428e+01 
-1.641221361165e+02 8.238334270334e-02 0.0 
8.238334270334e-02 -3.837813895423e+02 0.0 
0.0 0.0 -1.639710576976e+02 
-1.633997693544e+02 -2.127329945272e-01 0.0 
-2.127329945272e-01 -3.830822985618e+02 0.0 
0.0 0.0 -1.635446203748e+02 
-1.551984592699e+02 9.038980108242e-01 0.0 
9.038980108242e-01 -3.630656894430e+02 0.0 
0.0 0.0 -1.550792446139e+02 
-1.019444192172e+02 7.778404216196e-01 0.0 
7.778404216196e-01 -2.391866187861e+02 0.0 
0.0 0.0 -1.019393114010e+02 
-1.361197825529e+02 -7.739718926870e-01 0.0 
-7.739718926870e-01 -3.189517045513e+02 0.0 
0.0 0.0 -1.361214461313e+02 
-4.350766612898e+01 -7.183489042937e-01 0.0 
-7.183489042937e-01 -1.029082874823e+02 0.0 
0.0 0.0 -4.352478608337e+01 
-6.549037479204e+01 7.524039071244e-01 0.0 
7.524039071244e-01 -1.541670495620e+02 0.0 
0.0 0.0 -6.549722730620e+01 
-3.665255747598e+01 7.031861772034e-01 0.0 
7.031861772034e-01 -8.692852406405e+01 0.0 
0.0 0.0 -3.667432446201e+01 
-7.117168628149e+01 7.118088135491e-01 0.0 
7.118088135491e-01 -1.674688844916e+02 0.0 
0.0 0.0 -7.119217123192e+01 
-9.488093180103e+01 7.021239065409e-02 0.0 
7.021239065409e-02 -2.222941119020e+02 0.0 
0.0 0.0 -9.475251311091e+01 
-1.121015596669e+02 -8.595302700976e-01 0.0 
-8.595302700976e-01 -2.628424910575e+02 0.0 
0.0 0.0 -1.120832152173e+02 
-1.567398354745e+02 7.044852220436e-03 0.0 
7.044852220436e-03 -3.672451007804e+02 0.0 
0.0 0.0 -1.567954808765e+02 
-1.365863665664e+02 -8.599199326633e-01 0.0 
-8.599199326633e-01 -3.199858016029e+02 0.0 
0.0 0.0 -1.365716504508e+02 
-1.053610704609e+02 -7.214976467454e-01 0.0 
-7.214976467454e-01 -2.472592541098e+02 0.0 
0.0 0.0 -1.053860973712e+02 
-1.079370678866e+02 -7.389679114274e-01 0.0 
-7.389679114274e-01 -2.532960458446e+02 0.0 
0.0 0.0 -1.079699341194e+02 
-3.987923727395e+01 -7.846890028185e-01 0.0 
-7.846890028185e-01 -9.445346666223e+01 0.0 
0.0 0.0 -3.989981118085e+01 
-1.710163422144e+01 -1.628014294855e-01 0.0 
-1.628014294855e-01 -4.184117114603e+01 0.0 
0.0 0.0 -1.728284161024e+01 
-7.896501837210e+01 -8.061955259213e-01 0.0 
-8.061955259213e-01 -1.856233122818e+02 0.0 
0.0 0.0 -7.897649919618e+01 
-8.933844460314e+01 7.475666262092e-01 0.0 
7.475666262092e-01 -2.098096860508e+02 0.0 
0.0 0.0 -8.934443919620e+01 
-8.372066390717e+01 7.910385259237e-01 0.0 
7.910385259237e-01 -1.966978240337e+02 0.0 
0.0 0.0 -8.372554638227e+01 
-1.901690817742e+01 -8.202038515147e-01 0.0 
-8.202038515147e-01 -4.571343266671e+01 0.0 
0.0 0.0 -1.901910225324e+01 
-1.013964819953e+02 -3.196539741945e-01 0.0 
-3.196539741945e-01 -2.381748363155e+02 0.0 
0.0 0.0 -1.014713954933e+02 
-3.390249049522e+01 7.972722352947e-01 0.0 
7.972722352947e-01 -8.053991568959e+01 0.0 
0.0 0.0 -3.393272185544e+01 
-5.022359323804e+01 -7.789206648427e-01 0.0 
-7.789206648427e-01 -1.185255642994e+02 0.0 
0.0 0.0 -5.022474726124e+01 
-1.641339595402e+02 -1.211447624630e-03 0.0 
-1.211447624630e-03 -3.843125722605e+02 0.0 
0.0 0.0 -1.641339595402e+02 
-1.188500843598e+02 8.132582001061e-01 0.0 
8.132582001061e-01 -2.787038101351e+02 0.0 
0.0 0.0 -1.188661683485e+02 
-9.380433563951e+01 -7.399712713392e-01 0.0 
-7.399712713392e-01 -2.208740381704e+02 0.0 
0.0 0.0 -9.400351214297e+01 
-2.443680798587e+01 -5.628844057490e-01 0.0 
-5.628844057490e-01 -5.858968728400e+01 0.0 
0.0 0.0 -2.450794858096e+01 
-8.569841675834e+01 -7.546190336734e-01 0.0 
-7.546190336734e-01 -2.013542622679e+02 0.0 
0.0 0.0 -8.571580370788e+01 
-7.913527003060e+01 8.176951194384e-01 0.0 
8.176951194384e-01 -1.860227328986e+02 0.0 
0.0 0.0 -7.914740087877e+01 
-1.090090583183e+02 7.762032415498e-01 0.0 
7.762032415498e-01 -2.557915787144e+02 0.0 
0.0 0.0 -1.090401911098e+02 
-1.640846732196e+02 -1.601076921873e-01 0.0 
-1.601076921873e-01 -3.843052816873e+02 0.0 
0.0 0.0 -1.641169864721e+02 
-8.874234836841e+01 -7.407643152205e-01 0.0 
-7.407643152205e-01 -2.084956401466e+02 0.0 
0.0 0.0 -8.877139655451e+01 
-1.036475123271e+02 7.574569305527e-01 0.0 
7.574569305527e-01 -2.432603938827e+02 0.0 
0.0 0.0 -1.036723718629e+02 
-8.206530491558e+01 -7.859216865329e-01 0.0 
-7.859216865329e-01 -1.927691617958e+02 0.0 
0.0 0.0 -8.205034001341e+01 
-1.352600789358e+02 -8.002002943168e-01 0.0 
-8.002002943168e-01 -3.169359448813e+02 0.0 
0.0 0.0 -1.352588071451e+02 
-1.054728150256e+02 -7.873012976983e-01 0.0 
-7.873012976983e-01 -2.474195565417e+02 0.0 
0.0 0.0 -1.054677114702e+02 
-1.641815996491e+02 3.566558616278e-02 0.0 
3.566558616278e-02 -3.841901695518e+02 0.0 
0.0 0.0 -1.641115307602e+02 
-1.639716459946e+02 -9.451172684141e-03 0.0 
-9.451172684141e-03 -3.839338406540e+02 0.0 
0.0 0.0 -1.639716459946e+02 
-1.640007726133e+02 2.653962675207e-02 0.0 
2.653962675207e-02 -3.840018027644e+02 0.0 
0.0 0.0 -1.640007726133e+02 
-1.634783070850e+02 4.003613005094e-03 0.0 
4.003613005094e-03 -3.827827165316e+02 0.0 
0.0 0.0 -1.634783070850e+02 
-1.123983194301e+02 -7.342891538436e-01 0.0 
-7.342891538436e-01 -2.636847507473e+02 0.0 
0.0 0.0 -1.124249210532e+02 
-1.353905705706e+02 7.390744020348e-01 0.0 
7.390744020348e-01 -3.172786642241e+02 0.0 
0.0 0.0 -1.354007704384e+02 
-1.416391848970e+02 -8.355784883397e-01 0.0 
-8.355784883397e-01 -3.316877584466e+02 0.0 
0.0 0.0 -1.415980830031e+02 
-7.330795023277e+01 -8.129276473656e-01 0.0 
-8.129276473656e-01 -1.724320487037e+02 0.0 
0.0 0.0 -7.332199968093e+01 
-6.984112903928e+01 -7.997997596875e-01 0.0 
-7.997997596875e-01 -1.643978877461e+02 0.0 
0.0 0.0 -6.987170503563e+01 
-7.754983977539e+01 8.028639998476e-01 0.0 
8.028639998476e-01 -1.822245830104e+02 0.0 
0.0 0.0 -7.753232683573e+01 
-1.390675605577e+02 8.043795213921e-01 0.0 
8.043795213921e-01 -3.258959790399e+02 0.0 
0.0 0.0 -1.390890618793e+02 
-1.639816315525e+02 2.068453077212e-02 0.0 
2.068453077212e-02 -3.840127888233e+02 0.0 
0.0 0.0 -1.639983261128e+02 
-1.397805652260e+02 -7.830707522916e-01 0.0 
-7.830707522916e-01 -3.274604397054e+02 0.0 
0.0 0.0 -1.397723014794e+02 
-1.105850774543e+02 8.152221728238e-01 0.0 
8.152221728238e-01 -2.594152554040e+02 0.0 
0.0 0.0 -1.106000998575e+02 
-1.398980299610e+02 7.316343038619e-01 0.0 
7.316343038619e-01 -3.278062419769e+02 0.0 
0.0 0.0 -1.399112815814e+02 
-1.212331650717e+02 7.664811839747e-01 0.0 
7.664811839747e-01 -2.841933211565e+02 0.0 
0.0 0.0 -1.212279458685e+02 
-8.472085415924e+01 -7.371333638596e-01 0.0 
-7.371333638596e-01 -1.990356892785e+02 0.0 
0.0 0.0 -8.472696303132e+01 
-7.104512382095e+01 -7.041384525083e-01 0.0 
-7.041384525083e-01 -1.672028440704e+02 0.0 
0.0 0.0 -7.107439036739e+01 
-3.783390882700e+01 -7.698933126491e-01 0.0 
-7.698933126491e-01 -8.954844563173e+01 0.0 
0.0 0.0 -3.781470633762e+01 
-1.569320360877e+02 -3.777073890668e-01 0.0 
-3.777073890668e-01 -3.676484098502e+02 0.0 
0.0 0.0 -1.569741337814e+02 
-6.889930752171e+01 -7.937577285079e-01 0.0 
-7.937577285079e-01 -1.620729896197e+02 0.0 
0.0 0.0 -6.889168914243e+01 
-1.506690688439e+02 3.853414095960e-02 0.0 
3.853414095960e-02 -3.522735310316e+02 0.0 
0.0 0.0 -1.504827799627e+02 
-7.737239914691e+01 -7.807983964706e-01 0.0 
-7.807983964706e-01 -1.818093524882e+02 0.0 
0.0 0.0 -7.735452549054e+01 
-4.965835614355e+01 7.365652168950e-01 0.0 
7.365652168950e-01 -1.171226789950e+02 0.0 
0.0 0.0 -4.963431054156e+01 
-1.571271298332e+02 -1.755205308583e-01 0.0 
-1.755205308583e-01 -3.676773942805e+02 0.0 
0.0 0.0 -1.570413572341e+02 
-5.464774796803e+01 -7.526866291065e-01 0.0 
-7.526866291065e-01 -1.288930146510e+02 0.0 
0.0 0.0 -5.466222878572e+01 
-1.641073069594e+02 -7.077172138722e-03 0.0 
-7.077172138722e-03 -3.842503829052e+02 0.0 
0.0 0.0 -1.641073069594e+02 
-1.567034645655e+02 5.668113624004e-02 0.0 
5.668113624004e-02 -3.673414298676e+02 0.0 
0.0 0.0 -1.568134683300e+02 
-1.025210234379e+02 -7.382548763736e-01 0.0 
-7.382548763736e-01 -2.406347766823e+02 0.0 
0.0 0.0 -1.025467400360e+02 
-1.067273011968e+01 8.617003623518e-03 0.0 
8.617003623518e-03 -2.495690973550e+01 0.0 
0.0 0.0 -1.071594078538e+01 
-1.640188927724e+02 -3.075585093083e-02 0.0 
-3.075585093083e-02 -3.840440831356e+02 0.0 
0.0 0.0 -1.640188927724e+02 
-1.570617029092e+02 8.799297443501e-02 0.0 
8.799297443501e-02 -3.677088405680e+02 0.0 
0.0 0.0 -1.570311630431e+02 
-4.944487972412e+01 -7.991912788155e-01 0.0 
-7.991912788155e-01 -1.167007715092e+02 0.0 
0.0 0.0 -4.944369537001e+01 
-1.142818121891e+02 7.906942061226e-01 0.0 
7.906942061226e-01 -2.680267946549e+02 0.0 
0.0 0.0 -1.142925820532e+02 
-1.640329499036e+02 -1.787993592623e-02 0.0 
-1.787993592623e-02 -3.843454593369e+02 0.0 
0.0 0.0 -1.641135227721e+02 
-4.646130600389e+00 1.288638130328e-02 0.0 
1.288638130328e-02 -9.037190361421e+00 0.0 
0.0 0.0 -4.674909431331e+00 
-7.684590221060e+01 -7.377037811280e-01 0.0 
-7.377037811280e-01 -1.806510230737e+02 0.0 
0.0 0.0 -7.684907758528e+01 
-1.069822944376e+02 -7.420477250928e-01 0.0 
-7.420477250928e-01 -2.510513660448e+02 0.0 
0.0 0.0 -1.070100981447e+02 
-9.807000908450e+01 -7.507435944498e-01 0.0 
-7.507435944498e-01 -2.302304879481e+02 0.0 
0.0 0.0 -9.809014910977e+01 
-9.904009239513e+01 -7.540357971632e-01 0.0 
-7.540357971632e-01 -2.325276992773e+02 0.0 
0.0 0.0 -9.907033750174e+01 
-4.231382022145e+01 -7.808678680308e-01 0.0 
-7.808678680308e-01 -1.000442949149e+02 0.0 
0.0 0.0 -4.230743454092e+01 
-1.639926922615e+02 5.418808557783e-03 0.0 
5.418808557783e-03 -3.839829486101e+02 0.0 
0.0 0.0 -1.639926922615e+02 
-7.356984430567e+01 7.583805268867e-01 0.0 
7.583805268867e-01 -1.730211427242e+02 0.0 
0.0 0.0 -7.357729610896e+01 
-2.378961524348e+01 7.262759342388e-01 0.0 
7.262759342388e-01 -5.684326209503e+01 0.0 
0.0 0.0 -2.378986320155e+01 
-1.574794759831e+02 -2.405820319719e-01 0.0 
-2.405820319719e-01 -3.689656544300e+02 0.0 
0.0 0.0 -1.575335391239e+02 
-1.006982949982e+01 -8.849508401377e-03 0.0 
-8.849508401377e-03 -2.493600055059e+01 0.0 
0.0 0.0 -1.010174901512e+01 
-8.002177730417e+01 -7.448836724097e-01 0.0 
-7.448836724097e-01 -1.881330045942e+02 0.0 
0.0 0.0 -8.004643456951e+01 
-2.470905360918e+01 -3.354934187424e-02 0.0 
-3.354934187424e-02 -5.882094973393e+01 0.0 
0.0 0.0 -2.465900100293e+01 
-8.529585284346e+01 -7.450625799227e-01 0.0 
-7.450625799227e-01 -2.003333692888e+02 0.0 
0.0 0.0 -8.528876663967e+01 
-1.639581933697e+02 2.968424116763e-02 0.0 
2.968424116763e-02 -3.838003931386e+02 0.0 
0.0 0.0 -1.639275759525e+02 
-1.641433322823e+02 -2.604296757505e-02 0.0 
-2.604296757505e-02 -3.843344419920e+02 0.0 
0.0 0.0 -1.641433322823e+02 
-1.044107794813e+02 -7.411789143905e-01 0.0 
-7.411789143905e-01 -2.451162478946e+02 0.0 
0.0 0.0 -1.044581082128e+02 
-1.728647598183e+01 1.133633002491e-01 0.0 
1.133633002491e-01 -4.219066141981e+01 0.0 
0.0 0.0 -1.744314122049e+01 
-1.902898589100e+01 -7.481239610086e-01 0.0 
-7.481239610086e-01 -4.558817364106e+01 0.0 
0.0 0.0 -1.898514785962e+01 
-2.428127148977e+01 -1.573127734944e-01 0.0 
-1.573127734944e-01 -5.853550884029e+01 0.0 
0.0 0.0 -2.444503409902e+01 
-1.378350552405e+02 7.924701870118e-01 0.0 
7.924701870118e-01 -3.230358623289e+02 0.0 
0.0 0.0 -1.378612752708e+02 
-9.452072163307e+01 -1.180472191574e-01 0.0 
-1.180472191574e-01 -2.218827300448e+02 0.0 
0.0 0.0 -9.452103550335e+01 
-9.835772505721e+01 8.463226703110e-01 0.0 
8.463226703110e-01 -2.309902137080e+02 0.0 
0.0 0.0 -9.840438162956e+01 
-1.642631979523e+02 -2.297761547650e-02 0.0 
-2.297761547650e-02 -3.846141285554e+02 0.0 
0.0 0.0 -1.642631979523e+02 
-9.437977837532e+01 1.698300046942e-01 0.0 
1.698300046942e-01 -2.220518650493e+02 0.0 
0.0 0.0 -9.452949302738e+01 
-1.639556398106e+02 -6.784319313385e-02 0.0 
-6.784319313385e-02 -3.841663625444e+02 0.0 
0.0 0.0 -1.640366007065e+02 
-1.245873043058e+02 -7.691770003497e-01 0.0 
-7.691770003497e-01 -2.920041469349e+02 0.0 
0.0 0.0 -1.245774353722e+02 
-1.082022573199e+02 -8.092173029373e-01 0.0 
-8.092173029373e-01 -2.538989869468e+02 0.0 
0.0 0.0 -1.082303732800e+02 
-5.205455407770e+01 -7.275804037917e-01 0.0 
-7.275804037917e-01 -1.234172676078e+02 0.0 
0.0 0.0 -5.224154650564e+01 
-1.141082510646e+02 -7.658069910194e-01 0.0 
-7.658069910194e-01 -2.676420111598e+02 0.0 
0.0 0.0 -1.141250786673e+02 
-3.362830132010e+01 6.878396524159e-01 0.0 
6.878396524159e-01 -7.951355031575e+01 0.0 
0.0 0.0 -3.354255549075e+01 
-1.641223614623e+02 1.843279115450e-02 0.0 
1.843279115450e-02 -3.842855100786e+02 0.0 
0.0 0.0 -1.641223614623e+02 
-1.637518119796e+02 -9.177075678194e-02 0.0 
-9.177075678194e-02 -3.834208946192e+02 0.0 
0.0 0.0 -1.637518119796e+02 
-1.639173680122e+02 8.864464799863e-02 0.0 
8.864464799863e-02 -3.838071920284e+02 0.0 
0.0 0.0 -1.639173680122e+02 
-1.056478626122e+02 7.784259685172e-01 0.0 
7.784259685172e-01 -2.478263993606e+02 0.0 
0.0 0.0 -1.056422785918e+02 
-7.283335326838e+01 8.130373171717e-01 0.0 
8.130373171717e-01 -1.712035163698e+02 0.0 
0.0 0.0 -7.281106089144e+01 
-8.488963806181e+01 7.287403022520e-01 0.0 
7.287403022520e-01 -1.994289841891e+02 0.0 
0.0 0.0 -8.489558667528e+01 
-1.090951439410e+02 -7.835038149299e-01 0.0 
-7.835038149299e-01 -2.558718054975e+02 0.0 
0.0 0.0 -1.090900848316e+02 
-1.639991525450e+02 -1.560720236890e-02 0.0 
-1.560720236890e-02 -3.839980226051e+02 0.0 
0.0 0.0 -1.639991525450e+02 
-5.039905016140e+01 7.438714022675e-01 0.0 
7.438714022675e-01 -1.189250643652e+02 0.0 
0.0 0.0 -5.039723435797e+01 
-5.878348218192e+01 -7.786316805510e-01 0.0 
-7.786316805510e-01 -1.384696139681e+02 0.0 
0.0 0.0 -5.877592884500e+01 
-6.231317804127e+01 -7.440738664303e-01 0.0 
-7.440738664303e-01 -1.467460967159e+02 0.0 
0.0 0.0 -6.231778242715e+01 
-1.129169467022e+02 -7.726607955066e-01 0.0 
-7.726607955066e-01 -2.648564024035e+02 0.0 
0.0 0.0 -1.129320047317e+02 
-1.638914421850e+02 9.685416423692e-02 0.0 
9.685416423692e-02 -3.841622603393e+02 0.0 
0.0 0.0 -1.640161107573e+02 
-1.743002862862e+01 -7.281333675450e-02 0.0 
-7.281333675450e-02 -4.173792230301e+01 0.0 
0.0 0.0 -1.735038527949e+01 
-1.639445434193e+02 -7.690344303934e-03 0.0 
-7.690344303934e-03 -3.838706013118e+02 0.0 
0.0 0.0 -1.639445434193e+02 
-5.765982660565e+01 -7.832492861845e-01 0.0 
-7.832492861845e-01 -1.358858963294e+02 0.0 
0.0 0.0 -5.766371688052e+01 
-1.642762188307e+02 -1.079299101829e-02 0.0 
-1.079299101829e-02 -3.846445106050e+02 0.0 
0.0 0.0 -1.642762188307e+02 
-1.417246665751e+02 7.563662598010e-01 0.0 
7.563662598010e-01 -3.321132287667e+02 0.0 
0.0 0.0 -1.417513686025e+02 
-2.714406424122e+00 1.303753197863e-02 0.0 
1.303753197863e-02 -7.722905555929e+00 0.0 
0.0 0.0 -2.731193594015e+00 
-8.014857210069e+01 -7.499012912045e-01 0.0 
-7.499012912045e-01 -1.883765126821e+02 0.0 
0.0 0.0 -8.015752543484e+01 
-1.408460512332e+02 7.960002736303e-01 0.0 
7.960002736303e-01 -3.299673277281e+02 0.0 
0.0 0.0 -1.408440136884e+02 
-1.640997215709e+02 1.017665156165e-02 0.0 
1.017665156165e-02 -3.842326836653e+02 0.0 
0.0 0.0 -1.640997215709e+02 
-1.125447239359e+02 7.712080828907e-01 0.0 
7.712080828907e-01 -2.640304741212e+02 0.0 
0.0 0.0 -1.125725594171e+02 
-1.281086810153e+02 -7.899718557149e-01 0.0 
-7.899718557149e-01 -3.002944832134e+02 0.0 
0.0 0.0 -1.281209492686e+02 
-2.999534779451e+01 -7.924724944837e-01 0.0 
-7.924724944837e-01 -7.128067082361e+01 0.0 
0.0 0.0 -2.998280558544e+01 
-1.504220690008e+02 -2.650107293889e-02 0.0 
-2.650107293889e-02 -3.517850226782e+02 0.0 
0.0 0.0 -1.502621275037e+02 
-6.119911567032e+01 -7.634609969679e-01 0.0 
-7.634609969679e-01 -1.441366721000e+02 0.0 
0.0 0.0 -6.120073633111e+01 
-6.247028894791e+01 7.234496100411e-01 0.0 
7.234496100411e-01 -1.470933576411e+02 0.0 
0.0 0.0 -6.246909397670e+01 
-1.031555034044e+01 -5.504278599649e-02 0.0 
-5.504278599649e-02 -2.576642724322e+01 0.0 
0.0 0.0 -1.042459327510e+01 
-1.640289243453e+02 -4.536152823662e-03 0.0 
-4.536152823662e-03 -3.840674901391e+02 0.0 
0.0 0.0 -1.640289243453e+02 
-4.134309640176e+01 7.416703794268e-01 0.0 
7.416703794268e-01 -9.785103567112e+01 0.0 
0.0 0.0 -4.135823962186e+01 
-1.364338403716e+02 8.212735372034e-01 0.0 
8.212735372034e-01 -3.196650000415e+02 0.0 
0.0 0.0 -1.364296521239e+02 
-1.041890636407e+02 9.271307220955e-01 0.0 
9.271307220955e-01 -2.443609519973e+02 0.0 
0.0 0.0 -1.041650046914e+02 
-5.201131885799e+01 7.572021333694e-01 0.0 
7.572021333694e-01 -1.226663134379e+02 0.0 
0.0 0.0 -5.200328968878e+01 
-5.893255119321e+01 7.663011853287e-01 0.0 
7.663011853287e-01 -1.388518949832e+02 0.0 
0.0 0.0 -5.893533385292e+01 
-1.080992891301e+02 7.515518795589e-01 0.0 
7.515518795589e-01 -2.536534700168e+02 0.0 
0.0 0.0 -1.081258277441e+02 
-1.642335289097e+02 6.855177030922e-02 0.0 
6.855177030922e-02 -3.845449007894e+02 0.0 
0.0 0.0 -1.642335289097e+02 
-7.627946460573e+01 -7.582283640616e-01 0.0 
-7.582283640616e-01 -1.793647159158e+02 0.0 
0.0 0.0 -7.629325415645e+01 
-1.185653861337e+02 8.085493189804e-01 0.0 
8.085493189804e-01 -2.779795524387e+02 0.0 
0.0 0.0 -1.185634815717e+02 
-9.709417095320e+01 -7.457735203735e-01 0.0 
-7.457735203735e-01 -2.279183333137e+02 0.0 
0.0 0.0 -9.710375128006e+01 
-1.074839300673e+02 7.544195824775e-01 0.0 
7.544195824775e-01 -2.521451911400e+02 0.0 
0.0 0.0 -1.074887363622e+02 
-6.349889243496e+01 7.438173979176e-01 0.0 
7.438173979176e-01 -1.494629417039e+02 0.0 
0.0 0.0 -6.348855024166e+01 
-1.102188321332e+02 7.919341723428e-01 0.0 
7.919341723428e-01 -2.584951139859e+02 0.0 
0.0 0.0 -1.102141838357e+02 
-9.378863923156e+01 7.506395333225e-01 0.0 
7.506395333225e-01 -2.201921715372e+02 0.0 
0.0 0.0 -9.379424323064e+01 
-1.222033552406e+02 7.882992507998e-01 0.0 
7.882992507998e-01 -2.864732812771e+02 0.0 
0.0 0.0 -1.222029909553e+02 
-1.223290252008e+02 -7.682317377003e-01 0.0 
-7.682317377003e-01 -2.868070894264e+02 0.0 
0.0 0.0 -1.223408343882e+02 
-9.262568173412e+01 -7.459923200202e-01 0.0 
-7.459923200202e-01 -2.174894766077e+02 0.0 
0.0 0.0 -9.263454750256e+01 
-7.843862531561e+01 -7.844721353407e-01 0.0 
-7.844721353407e-01 -1.843052941126e+02 0.0 
0.0 0.0 -7.842317582847e+01 
-5.483135987607e+01 7.265846753323e-01 0.0 
7.265846753323e-01 -1.292756748196e+02 0.0 
0.0 0.0 -5.483211040869e+01 
-7.265321682112e+01 -7.680325810794e-01 0.0 
-7.680325810794e-01 -1.707873853991e+02 0.0 
0.0 0.0 -7.263218066607e+01 
-1.247533738586e+02 7.633757079600e-01 0.0 
7.633757079600e-01 -2.924601811750e+02 0.0 
0.0 0.0 -1.247640665101e+02 
-1.013118034389e+02 -7.540356458735e-01 0.0 
-7.540356458735e-01 -2.377540117376e+02 0.0 
0.0 0.0 -1.013197445530e+02 
-1.640578315794e+02 1.035046308208e-01 0.0 
1.035046308208e-01 -3.840980051428e+02 0.0 
0.0 0.0 -1.640467510167e+02 
-1.444877137702e+02 7.589226567647e-01 0.0 
7.589226567647e-01 -3.383405658134e+02 0.0 
0.0 0.0 -1.444484838751e+02 
-4.713405036478e+01 -7.551146230822e-01 0.0 
-7.551146230822e-01 -1.112704021999e+02 0.0 
0.0 0.0 -4.712133576939e+01 
-1.638622213863e+02 -2.587719268372e-02 0.0 
-2.587719268372e-02 -3.836785165680e+02 0.0 
0.0 0.0 -1.638622213863e+02 
-1.572020055343e+02 2.666988803128e-02 0.0 
2.666988803128e-02 -3.676055989154e+02 0.0 
0.0 0.0 -1.570422813349e+02 
-8.708063230860e+01 -7.446370110619e-01 0.0 
-7.446370110619e-01 -2.045430330943e+02 0.0 
0.0 0.0 -8.708709962087e+01 
-1.088494822284e+01 3.723219173368e-02 0.0 
3.723219173368e-02 -2.558321528176e+01 0.0 
0.0 0.0 -1.091823257308e+01 
-1.644062211423e+02 -1.735095705607e-02 0.0 
-1.735095705607e-02 -3.844676962916e+02 0.0 
0.0 0.0 -1.642621752302e+02 
-1.434505506111e+02 6.725641183329e-01 0.0 
6.725641183329e-01 -3.361650479362e+02 0.0 
0.0 0.0 -1.434846795642e+02 
-5.302026541067e+01 -8.035656381408e-01 0.0 
-8.035656381408e-01 -1.249929345395e+02 0.0 
0.0 0.0 -5.300395998505e+01 
-1.640329642680e+02 5.082323646228e-02 0.0 
5.082323646228e-02 -3.840769166253e+02 0.0 
0.0 0.0 -1.640329642680e+02 
-1.139587751162e+02 7.857199162909e-01 0.0 
7.857199162909e-01 -2.672208987547e+02 0.0 
0.0 0.0 -1.139539021612e+02 
-7.434206175355e+01 -7.245161482006e-01 0.0 
-7.245161482006e-01 -1.748986687557e+02 0.0 
0.0 0.0 -7.437221915276e+01 
-1.019311630254e+02 -6.937997995825e-01 0.0 
-6.937997995825e-01 -2.391428235152e+02 0.0 
0.0 0.0 -1.019221959622e+02 
-9.790001499867e+01 7.880696359790e-01 0.0 
7.880696359790e-01 -2.297848490836e+02 0.0 
0.0 0.0 -9.790545922467e+01 
-9.735229275837e+01 7.825288114406e-01 0.0 
7.825288114406e-01 -2.284738060935e+02 0.0 
0.0 0.0 -9.734782965556e+01 
-1.121533885215e+02 7.581886924662e-01 0.0 
7.581886924662e-01 -2.630261272870e+02 0.0 
0.0 0.0 -1.121538547425e+02 
-1.189854808642e+02 7.926934532011e-01 0.0 
7.926934532011e-01 -2.789080232084e+02 0.0 
0.0 0.0 -1.189680512218e+02 
-8.337540726659e+01 -7.308120757148e-01 0.0 
-7.308120757148e-01 -1.959571780219e+02 0.0 
0.0 0.0 -8.339977558656e+01 
-1.269659169118e+02 -7.990747989609e-01 0.0 
-7.990747989609e-01 -2.976086226815e+02 0.0 
0.0 0.0 -1.269723618780e+02 
-1.083936629637e+02 9.970249729907e-02 0.0 
9.970249729907e-02 -2.546202902362e+02 0.0 
0.0 0.0 -1.085041859599e+02 
-7.862352485134e+01 7.796502450516e-01 0.0 
7.796502450516e-01 -1.847200215558e+02 0.0 
0.0 0.0 -7.860306392215e+01 
-1.176843277949e+02 -7.499688244776e-01 0.0 
-7.499688244776e-01 -2.759808279891e+02 0.0 
0.0 0.0 -1.176995467352e+02 
-6.136550766248e+01 7.165763159847e-01 0.0 
7.165763159847e-01 -1.444767584189e+02 0.0 
0.0 0.0 -6.135267982443e+01 
-1.104863791948e+02 -7.704656105348e-01 0.0 
-7.704656105348e-01 -2.591189604724e+02 0.0 
0.0 0.0 -1.104816019002e+02 
-2.670762295567e+00 4.682100632017e-02 0.0 
4.682100632017e-02 -7.813697001175e+00 0.0 
0.0 0.0 -2.745337789023e+00 
-5.937669566985e+01 6.903388333926e-01 0.0 
6.903388333926e-01 -1.399353567961e+02 0.0 
0.0 0.0 -5.939361573979e+01 
-5.783933967058e+01 7.293174635743e-01 0.0 
7.293174635743e-01 -1.362692899875e+02 0.0 
0.0 0.0 -5.783258889743e+01 
-8.570521918063e+01 -7.745480444188e-01 0.0 
-7.745480444188e-01 -2.012810784962e+02 0.0 
0.0 0.0 -8.569588930305e+01 
-9.159287344214e+01 -7.555760459936e-01 0.0 
-7.555760459936e-01 -2.150604634952e+02 0.0 
0.0 0.0 -9.159600108119e+01 
-1.137824927699e+02 -7.926382374651e-01 0.0 
-7.926382374651e-01 -2.668131168303e+02 0.0 
0.0 0.0 -1.137786828801e+02 
-1.094259503507e+02 7.476716755464e-01 0.0 
7.476716755464e-01 -2.565003166680e+02 0.0 
0.0 0.0 -1.093778801056e+02 
-5.319957481404e+01 7.547609036645e-01 0.0 
7.547609036645e-01 -1.254157719774e+02 0.0 
0.0 0.0 -5.318460403742e+01 
-1.641869070579e+02 -2.536610103228e-02 0.0 
-2.536610103228e-02 -3.844361164684e+02 0.0 
0.0 0.0 -1.641869070579e+02 
-1.071453570563e+02 7.605899182641e-01 0.0 
7.605899182641e-01 -2.514152528133e+02 0.0 
0.0 0.0 -1.071681829609e+02 
-8.931810137453e+01 -7.791599518175e-01 0.0 
-7.791599518175e-01 -2.096917973315e+02 0.0 
0.0 0.0 -8.930296961180e+01 
-1.026947307758e+02 7.494075810291e-01 0.0 
7.494075810291e-01 -2.410061068654e+02 0.0 
0.0 0.0 -1.027102512924e+02 
-8.586324898252e+01 7.830058155681e-01 0.0 
7.830058155681e-01 -2.016800683871e+02 0.0 
0.0 0.0 -8.586299521089e+01 
-4.703337207653e+00 1.614093236265e-02 0.0 
1.614093236265e-02 -9.108606651522e+00 0.0 
0.0 0.0 -4.717829137002e+00 
-1.063848410962e+02 7.489152035400e-01 0.0 
7.489152035400e-01 -2.497072751097e+02 0.0 
0.0 0.0 -1.064276348618e+02 
-7.103030572742e+01 -8.372070815506e-01 0.0 
-8.372070815506e-01 -1.672224093021e+02 0.0 
0.0 0.0 -7.107581450885e+01 
-4.543699563568e+00 -3.463003909855e-02 0.0 
-3.463003909855e-02 -8.874024376550e+00 0.0 
0.0 0.0 -4.579991970682e+00 
-8.460374381837e+01 -8.163484397947e-01 0.0 
-8.163484397947e-01 -1.986673606511e+02 0.0 
0.0 0.0 -8.458133134084e+01 
-1.221005695093e+02 -7.829941687727e-01 0.0 
-7.829941687727e-01 -2.862411065652e+02 0.0 
0.0 0.0 -1.221025028224e+02 
-1.404933446373e+02 -7.837216517135e-01 0.0 
-7.837216517135e-01 -3.291236691726e+02 0.0 
0.0 0.0 -1.404851041430e+02 
-1.039653136707e+02 7.596692420164e-01 0.0 
7.596692420164e-01 -2.439236512253e+02 0.0 
0.0 0.0 -1.039666894688e+02 
-1.072958808567e+02 -7.607878523813e-01 0.0 
-7.607878523813e-01 -2.516924510428e+02 0.0 
0.0 0.0 -1.072964995698e+02 
-9.085908684534e+01 5.999664490888e-01 0.0 
5.999664490888e-01 -2.133465307997e+02 0.0 
0.0 0.0 -9.086168529350e+01 
-8.683688828412e+01 2.918845879805e-02 0.0 
2.918845879805e-02 -2.044550750072e+02 0.0 
0.0 0.0 -8.698758898739e+01 
-1.576327798123e+02 8.972879868861e-02 0.0 
8.972879868861e-02 -3.684393944781e+02 0.0 
0.0 0.0 -1.574216522871e+02 
-9.823331424706e+01 7.590170856385e-01 0.0 
7.590170856385e-01 -2.305812817161e+02 0.0 
0.0 0.0 -9.824437878894e+01 
-2.608540287837e+00 -1.726837184211e-02 0.0 
-1.726837184211e-02 -7.227348681675e+00 0.0 
0.0 0.0 -2.550766690854e+00 
-2.873062395050e+01 8.020777222092e-01 0.0 
8.020777222092e-01 -6.864283244433e+01 0.0 
0.0 0.0 -2.881203691845e+01 
-1.079242306891e+01 4.885835593811e-02 0.0 
4.885835593811e-02 -2.528193561559e+01 0.0 
0.0 0.0 -1.081582086274e+01 
-5.053908524280e+01 6.420113387154e-01 0.0 
6.420113387154e-01 -1.192230725317e+02 0.0 
0.0 0.0 -5.052864733235e+01 
-1.393246834705e+02 8.228412982908e-01 0.0 
8.228412982908e-01 -3.264850997105e+02 0.0 
0.0 0.0 -1.393429349543e+02 
-1.405837614090e+02 7.965191055018e-01 0.0 
7.965191055018e-01 -3.294327811068e+02 0.0 
0.0 0.0 -1.406049627547e+02 
-1.329239275340e+02 -7.739732809094e-01 0.0 
-7.739732809094e-01 -3.115750407091e+02 0.0 
0.0 0.0 -1.329496904730e+02 
-5.726051665411e+01 7.801844066278e-01 0.0 
7.801844066278e-01 -1.348645536275e+02 0.0 
0.0 0.0 -5.723752108449e+01 
-1.106652797449e+02 7.815411241428e-01 0.0 
7.815411241428e-01 -2.595526337364e+02 0.0 
0.0 0.0 -1.106653740444e+02 
-1.399232113264e+02 -7.666409432457e-01 0.0 
-7.666409432457e-01 -3.276440044206e+02 0.0 
0.0 0.0 -1.398701647241e+02 
-3.201770640408e+01 6.989459529926e-01 0.0 
6.989459529926e-01 -7.593716288807e+01 0.0 
0.0 0.0 -3.198646078765e+01 
-7.110595938322e+01 8.998903689512e-01 0.0 
8.998903689512e-01 -1.672994609379e+02 0.0 
0.0 0.0 -7.112162609634e+01 
-5.870391606066e+01 -7.762639505983e-01 0.0 
-7.762639505983e-01 -1.378847737622e+02 0.0 
0.0 0.0 -5.857660694687e+01 
-1.638569217357e+02 -6.578303837026e-02 0.0 
-6.578303837026e-02 -3.840017143884e+02 0.0 
0.0 0.0 -1.639575908372e+02 
-1.641214351382e+02 6.230101527872e-02 0.0 
6.230101527872e-02 -3.842833486559e+02 0.0 
0.0 0.0 -1.641214351382e+02 
-7.893709262228e+01 6.800742221858e-01 0.0 
6.800742221858e-01 -1.857812069199e+02 0.0 
0.0 0.0 -7.901548986267e+01 
-8.955661990901e+01 7.812090311500e-01 0.0 
7.812090311500e-01 -2.101339501077e+02 0.0 
0.0 0.0 -8.950717100501e+01 
-1.007889640575e+02 -7.807469189933e-01 0.0 
-7.807469189933e-01 -2.364946571465e+02 0.0 
0.0 0.0 -1.007850863612e+02 
-1.446844394047e+02 -7.149576026867e-01 0.0 
-7.149576026867e-01 -3.385500800790e+02 0.0 
0.0 0.0 -1.445703558451e+02 
-3.197896680049e+01 -7.897599419550e-01 0.0 
-7.897599419550e-01 -7.601310003229e+01 0.0 
0.0 0.0 -3.199762004983e+01 
-1.351777871197e+02 -7.784858934291e-01 0.0 
-7.784858934291e-01 -3.166622461003e+02 0.0 
0.0 0.0 -1.351520099660e+02 
-1.757099414692e+01 -1.226676848643e-01 0.0 
-1.226676848643e-01 -4.253145756313e+01 0.0 
0.0 0.0 -1.763073551302e+01 
-8.110036037189e+01 7.850508344240e-01 0.0 
7.850508344240e-01 -1.906921067256e+02 0.0 
0.0 0.0 -8.113774012925e+01 
-9.056234518045e+01 7.908698956164e-01 0.0 
7.908698956164e-01 -2.126263492169e+02 0.0 
0.0 0.0 -9.055660831920e+01 
-1.083916006000e+01 -4.092141566361e-02 0.0 
-4.092141566361e-02 -2.555196273834e+01 0.0 
0.0 0.0 -1.089793200927e+01 
-7.525071260889e+01 -7.866351404796e-01 0.0 
-7.866351404796e-01 -1.764878095034e+02 0.0 
0.0 0.0 -7.512155663367e+01 
-1.441988779409e+02 -6.914750029194e-01 0.0 
-6.914750029194e-01 -3.378568777553e+02 0.0 
0.0 0.0 -1.442167267088e+02 
-2.591791874555e+00 -2.141382488242e-02 0.0 
-2.141382488242e-02 -7.715665156758e+00 0.0 
0.0 0.0 -2.692237109394e+00 
-8.712623795284e+01 -5.628086870592e-02 0.0 
-5.628086870592e-02 -2.046028578748e+02 0.0 
0.0 0.0 -8.711872874830e+01 
-8.725431137801e+01 -6.281242068340e-03 0.0 
-6.281242068340e-03 -2.047098618567e+02 0.0 
0.0 0.0 -8.718925197041e+01 
-1.168183402800e+02 7.777995905558e-01 0.0 
7.777995905558e-01 -2.738977646656e+02 0.0 
0.0 0.0 -1.168148314837e+02 
-5.852903724287e+01 7.663389116116e-01 0.0 
7.663389116116e-01 -1.377286096285e+02 0.0 
0.0 0.0 -5.847729406142e+01 
-5.657491923095e+01 -7.904216999304e-01 0.0 
-7.904216999304e-01 -1.332898573691e+02 0.0 
0.0 0.0 -5.655943298002e+01 
-3.921983284934e+01 6.604966080517e-01 0.0 
6.604966080517e-01 -9.283547266413e+01 0.0 
0.0 0.0 -3.921659165404e+01 
-1.447374200701e+02 -7.011957209334e-01 0.0 
-7.011957209334e-01 -3.389705246603e+02 0.0 
0.0 0.0 -1.447123834191e+02 
-1.571558065970e+02 3.220022650256e-02 0.0 
3.220022650256e-02 -3.680820483122e+02 0.0 
0.0 0.0 -1.571713564728e+02 
-1.351385162635e+02 7.853078340651e-01 0.0 
7.853078340651e-01 -3.166555691141e+02 0.0 
0.0 0.0 -1.351382256133e+02 
-5.244791680626e+01 6.561053947015e-01 0.0 
6.561053947015e-01 -1.238331779131e+02 0.0 
0.0 0.0 -5.248432841581e+01 
-1.946814698286e+01 -9.751473474713e-01 0.0 
-9.751473474713e-01 -4.735526528920e+01 0.0 
0.0 0.0 -1.964702368162e+01 
-8.453572247498e+01 7.201140911119e-01 0.0 
7.201140911119e-01 -1.986589827327e+02 0.0 
0.0 0.0 -8.455841156230e+01 
-8.760020035974e+01 1.063471547649e-03 0.0 
1.063471547649e-03 -2.053860582716e+02 0.0 
0.0 0.0 -8.749587758939e+01 
-8.723054373749e+01 1.374747998402e-01 0.0 
1.374747998402e-01 -2.050809514151e+02 0.0 
0.0 0.0 -8.729344854578e+01 
-4.557415068873e+00 -4.462007408775e-02 0.0 
-4.462007408775e-02 -9.064659174259e+00 0.0 
0.0 0.0 -4.655509723579e+00 
-1.082932532777e+01 -8.273455281643e-03 0.0 
-8.273455281643e-03 -2.543337993967e+01 0.0 
0.0 0.0 -1.090014095019e+01 
-1.730924286203e+01 1.742995159734e-01 0.0 
1.742995159734e-01 -4.199794477081e+01 0.0 
0.0 0.0 -1.739215628985e+01 
-4.396389774663e+01 -8.011078587937e-01 0.0 
-8.011078587937e-01 -1.039156171642e+02 0.0 
0.0 0.0 -4.396385447326e+01 
-1.015265542008e+01 -6.834825205106e-04 0.0 
-6.834825205106e-04 -2.561268824949e+01 0.0 
0.0 0.0 -1.032960310087e+01 
-8.312683716858e+01 -7.523741764032e-01 0.0 
-7.523741764032e-01 -1.959852859014e+02 0.0 
0.0 0.0 -8.333363692098e+01 
-4.544042433248e+00 -8.165735093351e-02 0.0 
-8.165735093351e-02 -9.057122279954e+00 0.0 
0.0 0.0 -4.648684779113e+00 
-5.232191801098e+01 -8.141967007410e-01 0.0 
-8.141967007410e-01 -1.233906591844e+02 0.0 
0.0 0.0 -5.231377315861e+01 
-1.159782546889e+02 -2.387410392110e-01 0.0 
-2.387410392110e-01 -2.716916413606e+02 0.0 
0.0 0.0 -1.159009688148e+02 
-8.712966263929e+01 -4.187013849880e-02 0.0 
-4.187013849880e-02 -2.046232807001e+02 0.0 
0.0 0.0 -8.712588300182e+01 
-1.438671568298e+02 8.099905940554e-01 0.0 
8.099905940554e-01 -3.366304418674e+02 0.0 
0.0 0.0 -1.437492796092e+02 
-1.174099071418e+02 -7.844524092720e-01 0.0 
-7.844524092720e-01 -2.752735092891e+02 0.0 
0.0 0.0 -1.174050249293e+02 
-1.083069300348e+02 -3.145979093372e-01 0.0 
-3.145979093372e-01 -2.541510715111e+02 0.0 
0.0 0.0 -1.083374004638e+02 
-6.250574311768e+01 -8.138251919398e-01 0.0 
-8.138251919398e-01 -1.471258960193e+02 0.0 
0.0 0.0 -6.248949174109e+01 
-1.750828485437e+01 2.812949815823e-02 0.0 
2.812949815823e-02 -4.230031503900e+01 0.0 
0.0 0.0 -1.754257996801e+01 
-1.639433892901e+02 8.240139451902e-02 0.0 
8.240139451902e-02 -3.838679083436e+02 0.0 
0.0 0.0 -1.639433892901e+02 
-1.637366913369e+02 3.342410589982e-03 0.0 
3.342410589982e-03 -3.836915781706e+02 0.0 
0.0 0.0 -1.638284808523e+02 
-1.041901596607e+02 -9.277055137737e-01 0.0 
-9.277055137737e-01 -2.441631809889e+02 0.0 
0.0 0.0 -1.041060021949e+02 
-8.704933008231e+01 2.887807369974e-02 0.0 
2.887807369974e-02 -2.048161922653e+02 0.0 
0.0 0.0 -8.715965670428e+01 
-6.340189862465e+01 4.846929686284e-01 0.0 
4.846929686284e-01 -1.491027763451e+02 0.0 
0.0 0.0 -6.335140249093e+01 
-1.639475822182e+02 9.070260171840e-02 0.0 
9.070260171840e-02 -3.839025096934e+02 0.0 
0.0 0.0 -1.639550275735e+02 
-4.889302611983e+01 7.676647395060e-01 0.0 
7.676647395060e-01 -1.154127309258e+02 0.0 
0.0 0.0 -4.889172711368e+01 
-8.713190768991e+01 1.508408816405e-02 0.0 
1.508408816405e-02 -2.044636326276e+02 0.0 
0.0 0.0 -8.707866209524e+01 
-8.734917843381e+01 -3.030840274341e-02 0.0 
-3.030840274341e-02 -2.046659147348e+02 0.0 
0.0 0.0 -8.720452795059e+01 
-8.102852301640e+01 -7.237317190810e-01 0.0 
-7.237317190810e-01 -1.904346489568e+02 0.0 
0.0 0.0 -8.103895159195e+01 
-1.642074851893e+02 7.433870170740e-02 0.0 
7.433870170740e-02 -3.844841321083e+02 0.0 
0.0 0.0 -1.642074851893e+02 
-1.644179170367e+02 -6.537627447882e-02 0.0 
-6.537627447882e-02 -3.842049839864e+02 0.0 
0.0 0.0 -1.641868703069e+02 
-1.014031032550e+01 -5.905874758965e-03 0.0 
-5.905874758965e-03 -2.543972406139e+01 0.0 
0.0 0.0 -1.027401031607e+01 
-4.701452055424e+00 -2.582056408122e-03 0.0 
-2.582056408122e-03 -9.141526489356e+00 0.0 
0.0 0.0 -4.730148370731e+00 
-2.360273183845e+01 -7.636761844814e-01 0.0 
-7.636761844814e-01 -5.682663083120e+01 0.0 
0.0 0.0 -2.372880880090e+01 
-9.039491799472e+01 -7.860723954348e-01 0.0 
-7.860723954348e-01 -2.122194119317e+02 0.0 
0.0 0.0 -9.038429897792e+01 
-1.505901615973e+02 -9.416541771899e-01 0.0 
-9.416541771899e-01 -3.526856560953e+02 0.0 
0.0 0.0 -1.505827453078e+02 
-2.556452395573e+00 1.624719973898e-01 0.0 
1.624719973898e-01 -7.158478524465e+00 0.0 
0.0 0.0 -2.514479276011e+00 
-1.337953552240e+02 8.559636775739e-01 0.0 
8.559636775739e-01 -3.135934419984e+02 0.0 
0.0 0.0 -1.338166391667e+02 
-4.706298656388e+00 -1.236766637086e-02 0.0 
-1.236766637086e-02 -9.181413013383e+00 0.0 
0.0 0.0 -4.747263541666e+00 
-1.155299572167e+02 -7.808439138900e-01 0.0 
-7.808439138900e-01 -2.709149665384e+02 0.0 
0.0 0.0 -1.155334771265e+02 
-2.667066719557e+00 -3.722747148367e-02 0.0 
-3.722747148367e-02 -8.009602238641e+00 0.0 
0.0 0.0 -2.803000687460e+00 
-2.696985173370e+00 5.901131287848e-02 0.0 
5.901131287848e-02 -7.960932797784e+00 0.0 
0.0 0.0 -2.797375391346e+00 
-1.108542260454e+02 -7.810168589116e-01 0.0 
-7.810168589116e-01 -2.600262777631e+02 0.0 
0.0 0.0 -1.108641511425e+02 
-1.463966324748e+02 -7.845185780418e-01 0.0 
-7.845185780418e-01 -3.428712996673e+02 0.0 
0.0 0.0 -1.463803796426e+02 
-1.152816769661e+02 3.778109168480e-01 0.0 
3.778109168480e-01 -2.703078113882e+02 0.0 
0.0 0.0 -1.152768465063e+02 
-8.795815834493e+01 7.090369256707e-01 0.0 
7.090369256707e-01 -2.066297556148e+02 0.0 
0.0 0.0 -8.797637418791e+01 
-1.079850629269e+01 4.218537641652e-02 0.0 
4.218537641652e-02 -2.553919915893e+01 0.0 
0.0 0.0 -1.088380575998e+01 
-1.142557171819e+02 7.860385070817e-01 0.0 
7.860385070817e-01 -2.679385082132e+02 0.0 
0.0 0.0 -1.142582676185e+02 
-1.636083519887e+02 1.010499715908e-01 0.0 
1.010499715908e-01 -3.830861546402e+02 0.0 
0.0 0.0 -1.636083519887e+02 
-1.638676775381e+02 5.830369468746e-01 0.0 
5.830369468746e-01 -3.837904581314e+02 0.0 
0.0 0.0 -1.638974407009e+02 
-8.714877302176e+01 -4.839639764924e-02 0.0 
-4.839639764924e-02 -2.046784194062e+02 0.0 
0.0 0.0 -8.714815772838e+01 
-1.202031927686e+02 -7.639015320414e-01 0.0 
-7.639015320414e-01 -2.817989098691e+02 0.0 
0.0 0.0 -1.202006307913e+02 
-1.640884960114e+02 -5.523649530928e-02 0.0 
-5.523649530928e-02 -3.842064906933e+02 0.0 
0.0 0.0 -1.640884960114e+02 
-1.282819569596e+02 8.349451483730e-01 0.0 
8.349451483730e-01 -3.007058786231e+02 0.0 
0.0 0.0 -1.282963506748e+02 
-1.694650209671e+01 -1.946226166352e-01 0.0 
-1.946226166352e-01 -4.124089923677e+01 0.0 
0.0 0.0 -1.705622040005e+01 
-1.009153215339e+01 3.549289104413e-04 0.0 
3.549289104413e-04 -2.541787564402e+01 0.0 
0.0 0.0 -1.025282233922e+01 
-1.053422740821e+01 1.429159747184e-01 0.0 
1.429159747184e-01 -2.512780900269e+01 0.0 
0.0 0.0 -1.053987843729e+01 
-7.093083077660e+01 -7.833676209340e-01 0.0 
-7.833676209340e-01 -1.666718850657e+02 0.0 
0.0 0.0 -7.088081475268e+01 
-1.638330239903e+02 4.813469147039e-01 0.0 
4.813469147039e-01 -3.838992496018e+02 0.0 
0.0 0.0 -1.639196820776e+02 
-1.550790846619e+02 9.324183266945e-01 0.0 
9.324183266945e-01 -3.629395164643e+02 0.0 
0.0 0.0 -1.550055803379e+02 
-4.540993397814e+00 4.649851077741e-02 0.0 
4.649851077741e-02 -9.108951122352e+00 0.0 
0.0 0.0 -4.663661467721e+00 
-8.342109376865e+01 7.448949140585e-01 0.0 
7.448949140585e-01 -1.961144805775e+02 0.0 
0.0 0.0 -8.346067230384e+01 
-1.644761636703e+02 -2.261060673424e-02 0.0 
-2.261060673424e-02 -3.851110485641e+02 0.0 
0.0 0.0 -1.644761636703e+02 
-1.635792982100e+02 -1.483870798694e-01 0.0 
-1.483870798694e-01 -3.835128225950e+02 0.0 
0.0 0.0 -1.637276362415e+02 
-1.641487641243e+02 -7.578650207194e-03 0.0 
-7.578650207194e-03 -3.838817303207e+02 0.0 
0.0 0.0 -1.640091483335e+02 
-1.254767675360e+02 -8.592234325624e-01 0.0 
-8.592234325624e-01 -2.943120358138e+02 0.0 
0.0 0.0 -1.255366410049e+02 
-1.382490927390e+02 8.671861327626e-01 0.0 
8.671861327626e-01 -3.237086373773e+02 0.0 
0.0 0.0 -1.381873190349e+02 
-1.636590376655e+02 2.718521535366e-02 0.0 
2.718521535366e-02 -3.832044212194e+02 0.0 
0.0 0.0 -1.636590376655e+02 
-1.640264922717e+02 1.110591366216e-01 0.0 
1.110591366216e-01 -3.840618153005e+02 0.0 
0.0 0.0 -1.640264922717e+02 
-1.339860147389e+02 -7.043629307879e-01 0.0 
-7.043629307879e-01 -3.137537369088e+02 0.0 
0.0 0.0 -1.339219254943e+02 
-2.444956670924e+00 -2.367003905155e-01 0.0 
-2.367003905155e-01 -6.762608184183e+00 0.0 
0.0 0.0 -2.362269456532e+00 
-8.703135274661e+01 4.858863166060e-03 0.0 
4.858863166060e-03 -2.043846460369e+02 0.0 
0.0 0.0 -8.702479963507e+01 
-8.723859102436e+01 -1.222063898956e-01 0.0 
-1.222063898956e-01 -2.051085797307e+02 0.0 
0.0 0.0 -8.730415122651e+01 
-4.657689379455e+00 2.714627652664e-02 0.0 
2.714627652664e-02 -9.108596841607e+00 0.0 
0.0 0.0 -4.706037608670e+00 
-1.643490349198e+02 -4.374004348147e-02 0.0 
-4.374004348147e-02 -3.848144148128e+02 0.0 
0.0 0.0 -1.643490349198e+02 
-1.634810042166e+02 -1.036373097134e-01 0.0 
-1.036373097134e-01 -3.832779063327e+02 0.0 
0.0 0.0 -1.636276731648e+02 
-1.636223513674e+02 -4.212926584668e-03 0.0 
-4.212926584668e-03 -3.831188198573e+02 0.0 
0.0 0.0 -1.636223513674e+02 
-2.567011027477e+00 3.308647316293e-02 0.0 
3.308647316293e-02 -7.836693893429e+00 0.0 
0.0 0.0 -2.721111476272e+00 
-2.551621101838e+00 -4.498428631460e-02 0.0 
-4.498428631460e-02 -7.936485048130e+00 0.0 
0.0 0.0 -2.746431844990e+00 
-1.639484296737e+02 2.916694991200e-03 0.0 
2.916694991200e-03 -3.838796692386e+02 0.0 
0.0 0.0 -1.639484296737e+02 
-1.638639602868e+02 8.030188825712e-02 0.0 
8.030188825712e-02 -3.836825740025e+02 0.0 
0.0 0.0 -1.638639602868e+02 
-1.210672079217e+02 9.275174950865e-01 0.0 
9.275174950865e-01 -2.844454394914e+02 0.0 
0.0 0.0 -1.212537942239e+02 
-8.684024439948e+01 -1.283241286403e-01 0.0 
-1.283241286403e-01 -2.040505673637e+02 0.0 
0.0 0.0 -8.686724352895e+01 
-1.298511433136e+02 9.096707043280e-01 0.0 
9.096707043280e-01 -3.040975316639e+02 0.0 
0.0 0.0 -1.297846024932e+02 
-1.042840067944e+02 9.008223076583e-01 0.0 
9.008223076583e-01 -2.452824315264e+02 0.0 
0.0 0.0 -1.044699314962e+02 
-8.708294403570e+01 -5.327538408451e-02 0.0 
-5.327538408451e-02 -2.041377429492e+02 0.0 
0.0 0.0 -8.696620609548e+01 
-2.712649705864e+00 -1.327148135062e-01 0.0 
-1.327148135062e-01 -7.436256902636e+00 0.0 
0.0 0.0 -2.644671982550e+00 
-2.975737603013e+00 1.616360861615e-01 0.0 
1.616360861615e-01 -8.170821692211e+00 0.0 
0.0 0.0 -2.943967788567e+00 
-2.826813173680e+00 5.130567715794e-02 0.0 
5.130567715794e-02 -7.714250332801e+00 0.0 
0.0 0.0 -2.762319051944e+00 
-2.754290189506e+00 6.305604088286e-02 0.0 
6.305604088286e-02 -7.836456491387e+00 0.0 
0.0 0.0 -2.777224004268e+00 
-8.761406671427e+01 -9.293561876911e-01 0.0 
-9.293561876911e-01 -2.061346163688e+02 0.0 
0.0 0.0 -8.772460492493e+01 
-7.930605326385e+01 -8.146382879041e-01 0.0 
-8.146382879041e-01 -1.862874679368e+02 0.0 
0.0 0.0 -7.927805636020e+01 
-4.655388613070e+00 2.056240501662e-02 0.0 
2.056240501662e-02 -9.111609297942e+00 0.0 
0.0 0.0 -4.707126844239e+00 
-1.127059985266e+02 -8.852963055923e-01 0.0 
-8.852963055923e-01 -2.642467955133e+02 0.0 
0.0 0.0 -1.126858382120e+02 
-4.717663221144e+00 -2.266153378447e-02 0.0 
-2.266153378447e-02 -9.069858338494e+00 0.0 
0.0 0.0 -4.708095640664e+00 
-1.639577828373e+02 -2.246125203703e-02 0.0 
-2.246125203703e-02 -3.839014932869e+02 0.0 
0.0 0.0 -1.639577828373e+02 
-1.638367271891e+02 -5.088923267419e-02 0.0 
-5.088923267419e-02 -3.836190301079e+02 0.0 
0.0 0.0 -1.638367271891e+02 
-1.638479418285e+02 2.613609556790e-02 0.0 
2.613609556790e-02 -3.836451975998e+02 0.0 
0.0 0.0 -1.638479418285e+02 
-2.883005698978e+01 -9.530522395306e-01 0.0 
-9.530522395306e-01 -6.838967989607e+01 0.0 
0.0 0.0 -2.876592106576e+01 
-5.420797944045e+01 -8.274431779419e-01 0.0 
-8.274431779419e-01 -1.275360987379e+02 0.0 
0.0 0.0 -5.412322345352e+01 
-1.635886020453e+02 1.854491465057e-02 0.0 
1.854491465057e-02 -3.830400714389e+02 0.0 
0.0 0.0 -1.635886020453e+02 
-1.382149242902e+02 -7.561333037098e-01 0.0 
-7.561333037098e-01 -3.237023606207e+02 0.0 
0.0 0.0 -1.381751854733e+02 
-1.644570693461e+02 8.380661459207e-02 0.0 
8.380661459207e-02 -3.850664951409e+02 0.0 
0.0 0.0 -1.644570693461e+02 
-1.466051394317e+02 -8.054934126480e-01 0.0 
-8.054934126480e-01 -3.434920723516e+02 0.0 
0.0 0.0 -1.466291635350e+02 
-1.550877257340e+02 -9.286879545366e-01 0.0 
-9.286879545366e-01 -3.633264362386e+02 0.0 
0.0 0.0 -1.551242485918e+02 
-7.509346918530e+01 8.163477531443e-01 0.0 
8.163477531443e-01 -1.764212718757e+02 0.0 
0.0 0.0 -7.505442231831e+01 
-1.634929490264e+02 1.311407539988e-01 0.0 
1.311407539988e-01 -3.832247354289e+02 0.0 
0.0 0.0 -1.636153053366e+02 
-1.637162662913e+02 -4.667088634896e-01 0.0 
-4.667088634896e-01 -3.837211727086e+02 0.0 
0.0 0.0 -1.638312317000e+02 
-1.419559207814e+02 8.276579481126e-01 0.0 
8.276579481126e-01 -3.325472621571e+02 0.0 
0.0 0.0 -1.419509548816e+02 
-1.505988744333e+02 8.223361467251e-01 0.0 
8.223361467251e-01 -3.528320739901e+02 0.0 
0.0 0.0 -1.506292845270e+02 
-1.215591511591e+02 7.477735606011e-01 0.0 
7.477735606011e-01 -2.848228709173e+02 0.0 
0.0 0.0 -1.215146066229e+02 
-4.698323687129e+00 3.378305510531e-03 0.0 
3.378305510531e-03 -9.118990830082e+00 0.0 
0.0 0.0 -4.721670538043e+00 
-7.622645708146e+01 8.092815446725e-01 0.0 
8.092815446725e-01 -1.796589982779e+02 0.0 
0.0 0.0 -7.636563660782e+01 
-1.002313086765e+01 1.202661782212e-01 0.0 
1.202661782212e-01 -2.516123328441e+01 0.0 
0.0 0.0 -1.015530924562e+01 
-1.448044539943e+02 6.939041966998e-01 0.0 
6.939041966998e-01 -3.392009873240e+02 0.0 
0.0 0.0 -1.448016323955e+02 
-8.100127262870e+01 -7.748106404011e-01 0.0 
-7.748106404011e-01 -1.903118537178e+02 0.0 
0.0 0.0 -8.099393790394e+01 
-1.344229214209e+02 -7.482232833731e-01 0.0 
-7.482232833731e-01 -3.148968208868e+02 0.0 
0.0 0.0 -1.343959226923e+02 
-4.050621778906e+01 7.791499479960e-01 0.0 
7.791499479960e-01 -9.593904737802e+01 0.0 
0.0 0.0 -4.053357955013e+01 
-1.736849564011e+01 -4.229405347922e-01 0.0 
-4.229405347922e-01 -4.133450409394e+01 0.0 
0.0 0.0 -1.721089992021e+01 
-1.428184178028e+02 7.589522513448e-01 0.0 
7.589522513448e-01 -3.345447156208e+02 0.0 
0.0 0.0 -1.428089400271e+02 
-8.493133862702e+01 7.906446315965e-01 0.0 
7.906446315965e-01 -1.991756634374e+02 0.0 
0.0 0.0 -8.483210061932e+01 
-6.654205924405e+01 -8.038829448792e-01 0.0 
-8.038829448792e-01 -1.569991256644e+02 0.0 
0.0 0.0 -6.666235547253e+01 
-1.345944482753e+02 7.648785689114e-01 0.0 
7.648785689114e-01 -3.153135141909e+02 0.0 
0.0 0.0 -1.345723887398e+02 
-1.457936795222e+02 -7.821756983865e-01 0.0 
-7.821756983865e-01 -3.412462774303e+02 0.0 
0.0 0.0 -1.457119870857e+02 
-6.678736951632e+01 8.150618605906e-01 0.0 
8.150618605906e-01 -1.570604794664e+02 0.0 
0.0 0.0 -6.675435469483e+01 
-1.269549572774e+02 8.132050556355e-01 0.0 
8.132050556355e-01 -2.975535931810e+02 0.0 
0.0 0.0 -1.269525651375e+02 
-1.116042667871e+02 -7.754239470485e-01 0.0 
-7.754239470485e-01 -2.617367002065e+02 0.0 
0.0 0.0 -1.116022900981e+02 
-1.213524059986e+02 -8.121175195088e-01 0.0 
-8.121175195088e-01 -2.843908532786e+02 0.0 
0.0 0.0 -1.213229777832e+02 
-1.250548418560e+02 -7.472733617235e-01 0.0 
-7.472733617235e-01 -2.931274013775e+02 0.0 
0.0 0.0 -1.250546729701e+02 
-6.880144606831e+01 -7.624598450067e-01 0.0 
-7.624598450067e-01 -1.619014638779e+02 0.0 
0.0 0.0 -6.881087298385e+01 
-8.018015456223e+01 6.923505038145e-01 0.0 
6.923505038145e-01 -1.884929435821e+02 0.0 
0.0 0.0 -8.020192944331e+01 
-8.830637233822e+01 7.406789501900e-01 0.0 
7.406789501900e-01 -2.073859622146e+02 0.0 
0.0 0.0 -8.830770036584e+01 
-1.140870661366e+02 -7.808744956673e-01 0.0 
-7.808744956673e-01 -2.675212095123e+02 0.0 
0.0 0.0 -1.140824826947e+02 
-1.382739431118e+02 8.193308448148e-01 0.0 
8.193308448148e-01 -3.239592564319e+02 0.0 
0.0 0.0 -1.382699598631e+02 
-1.288445914518e+02 -7.832866562512e-01 0.0 
-7.832866562512e-01 -3.020601233444e+02 0.0 
0.0 0.0 -1.288714144388e+02 
-4.221056251438e+01 -7.917504219323e-01 0.0 
-7.917504219323e-01 -9.974310340294e+01 0.0 
0.0 0.0 -4.218609977520e+01 
-1.453880117998e+02 -8.783812868391e-01 0.0 
-8.783812868391e-01 -3.400677902003e+02 0.0 
0.0 0.0 -1.452367406000e+02 
-1.366820611394e+02 -8.377240990089e-01 0.0 
-8.377240990089e-01 -3.203286535020e+02 0.0 
0.0 0.0 -1.367032143924e+02 
-9.829345295376e+01 -9.399577404048e-01 0.0 
-9.399577404048e-01 -2.307781285829e+02 0.0 
0.0 0.0 -9.832147446099e+01 
-1.188201053811e+02 -7.786864822138e-01 0.0 
-7.786864822138e-01 -2.785664571391e+02 0.0 
0.0 0.0 -1.188159687560e+02 
-1.177141521795e+02 -7.912105230809e-01 0.0 
-7.912105230809e-01 -2.759599015940e+02 0.0 
0.0 0.0 -1.177022161321e+02 
-1.458624680762e+02 8.465125275797e-01 0.0 
8.465125275797e-01 -3.419360737542e+02 0.0 
0.0 0.0 -1.459395625491e+02 
-1.412606618444e+02 -7.436644086392e-01 0.0 
-7.436644086392e-01 -3.309512872601e+02 0.0 
0.0 0.0 -1.412635847313e+02 
-1.081843838152e+02 7.817393139047e-01 0.0 
7.817393139047e-01 -2.537512154304e+02 0.0 
0.0 0.0 -1.081806797737e+02 
-1.465747931841e+02 7.789361599435e-01 0.0 
7.789361599435e-01 -3.431483399323e+02 0.0 
0.0 0.0 -1.465169399349e+02 
-1.350026221368e+02 -7.759858552131e-01 0.0 
-7.759858552131e-01 -3.163346044639e+02 0.0 
0.0 0.0 -1.350011679802e+02 
-1.288985975861e+02 7.247078312570e-01 0.0 
7.247078312570e-01 -3.020812417485e+02 0.0 
0.0 0.0 -1.288939518004e+02 
-1.488835479229e+02 8.767243359854e-01 0.0 
8.767243359854e-01 -3.486539718638e+02 0.0 
0.0 0.0 -1.488612559360e+02 
-1.453109913447e+02 8.269910671526e-01 0.0 
8.269910671526e-01 -3.404398686612e+02 0.0 
0.0 0.0 -1.453252580018e+02 
-1.238366756367e+02 8.267391595735e-01 0.0 
8.267391595735e-01 -2.903039761213e+02 0.0 
0.0 0.0 -1.238421955274e+02 
-1.222917821226e+02 7.794497334964e-01 0.0 
7.794497334964e-01 -2.866606592344e+02 0.0 
0.0 0.0 -1.222857324071e+02 
-4.178782493067e+01 -7.642732146678e-01 0.0 
-7.642732146678e-01 -9.876301457901e+01 0.0 
0.0 0.0 -4.176525185290e+01 
-3.887598288340e+01 -7.629529918185e-01 0.0 
-7.629529918185e-01 -9.199494420614e+01 0.0 
0.0 0.0 -3.886127812686e+01 
-1.980967303400e+01 9.343279063626e-01 0.0 
9.343279063626e-01 -4.787255427894e+01 0.0 
0.0 0.0 -1.990466819388e+01 
-1.026155989923e+01 -2.065913404200e-02 0.0 
-2.065913404200e-02 -2.543612731672e+01 0.0 
0.0 0.0 -1.030930616478e+01 
-1.414392259620e+02 8.159937514822e-01 0.0 
8.159937514822e-01 -3.312444233961e+02 0.0 
0.0 0.0 -1.414050948074e+02 
-1.417575869069e+02 -7.743117505667e-01 0.0 
-7.743117505667e-01 -3.320048600644e+02 0.0 
0.0 0.0 -1.417287340914e+02 
-1.016668224734e+01 -3.662658034993e-02 0.0 
-3.662658034993e-02 -2.507947277317e+01 0.0 
0.0 0.0 -1.017384650615e+01 
-1.427059501586e+02 7.802153810969e-01 0.0 
7.802153810969e-01 -3.341134513418e+02 0.0 
0.0 0.0 -1.426458204501e+02 
-1.024356510616e+02 -8.566661746835e-01 0.0 
-8.566661746835e-01 -2.398286707660e+02 0.0 
0.0 0.0 -1.022792965483e+02 
-1.310235588529e+02 8.011861727811e-01 0.0 
8.011861727811e-01 -3.069360216607e+02 0.0 
0.0 0.0 -1.309878741541e+02 
-1.333360178872e+02 -7.731455953207e-01 0.0 
-7.731455953207e-01 -3.124640827458e+02 0.0 
0.0 0.0 -1.333400301899e+02 
-5.997704802581e+01 -7.391406654198e-01 0.0 
-7.391406654198e-01 -1.412530943184e+02 0.0 
0.0 0.0 -5.996904270326e+01 
-1.335079944969e+02 7.957154327311e-01 0.0 
7.957154327311e-01 -3.128600549765e+02 0.0 
0.0 0.0 -1.335104148420e+02 
-9.837331964186e+01 1.084523128984e+00 0.0 
1.084523128984e+00 -2.307481333248e+02 0.0 
0.0 0.0 -9.833643589001e+01 
-1.224846369772e+02 7.909339093541e-01 0.0 
7.909339093541e-01 -2.872015620669e+02 0.0 
0.0 0.0 -1.225058597132e+02 
-1.527285167400e+02 -8.972506695261e-01 0.0 
-8.972506695261e-01 -3.573828573998e+02 0.0 
0.0 0.0 -1.526334122419e+02 
-4.036529500772e+01 -5.869141423129e-01 0.0 
-5.869141423129e-01 -9.545894050880e+01 0.0 
0.0 0.0 -4.034727065495e+01 
-1.495474818632e+02 6.700158985041e-01 0.0 
6.700158985041e-01 -3.504434649200e+02 0.0 
0.0 0.0 -1.495972840350e+02 
-1.284840174455e+02 7.536411354017e-01 0.0 
7.536411354017e-01 -3.011204499090e+02 0.0 
0.0 0.0 -1.284813402063e+02 
-4.541058629796e+01 -8.156745514259e-01 0.0 
-8.156745514259e-01 -1.071765671254e+02 0.0 
0.0 0.0 -4.537614602702e+01 
-4.730302656417e+01 7.277913252129e-01 0.0 
7.277913252129e-01 -1.116354777248e+02 0.0 
0.0 0.0 -4.728155128668e+01 
-9.557161808886e+01 -7.998128487049e-01 0.0 
-7.998128487049e-01 -2.242908821719e+02 0.0 
0.0 0.0 -9.555875007822e+01 
-1.144537960857e+02 -8.144055165710e-01 0.0 
-8.144055165710e-01 -2.685777808490e+02 0.0 
0.0 0.0 -1.145094730804e+02 
-6.430777847488e+01 -7.773120032431e-01 0.0 
-7.773120032431e-01 -1.512800578304e+02 0.0 
0.0 0.0 -6.427635089160e+01 
-1.330751525528e+02 8.057839591213e-01 0.0 
8.057839591213e-01 -3.118392354592e+02 0.0 
0.0 0.0 -1.330743164036e+02 
-1.199407856257e+02 8.968550746935e-01 0.0 
8.968550746935e-01 -2.810418080109e+02 0.0 
0.0 0.0 -1.198947780910e+02 
-9.295769258490e+01 -7.552274041830e-01 0.0 
-7.552274041830e-01 -2.181799076206e+02 0.0 
0.0 0.0 -9.294128006165e+01 
-1.250702351529e+02 7.392827937922e-01 0.0 
7.392827937922e-01 -2.932853162467e+02 0.0 
0.0 0.0 -1.251066654199e+02 
-1.298883151037e+02 8.005300470630e-01 0.0 
8.005300470630e-01 -3.043820821466e+02 0.0 
0.0 0.0 -1.298811191751e+02 
-1.282026123320e+02 -8.732353744436e-01 0.0 
-8.732353744436e-01 -3.006699451558e+02 0.0 
0.0 0.0 -1.282617672463e+02 
-3.489708898271e+01 7.346147998337e-01 0.0 
7.346147998337e-01 -8.269716878623e+01 0.0 
0.0 0.0 -3.487827733068e+01 
-8.828457432903e+01 -7.509455192925e-01 0.0 
-7.509455192925e-01 -2.072645095088e+02 0.0 
0.0 0.0 -8.826472515134e+01 
-1.398801117100e+02 -8.358918563601e-01 0.0 
-8.358918563601e-01 -3.275927379031e+02 0.0 
0.0 0.0 -1.398418548839e+02 
-1.322458258797e+02 7.947133117774e-01 0.0 
7.947133117774e-01 -3.099153217760e+02 0.0 
0.0 0.0 -1.322483442967e+02 
-7.983553767182e+01 -8.695148898301e-01 0.0 
-8.695148898301e-01 -1.874920138525e+02 0.0 
0.0 0.0 -7.979826545731e+01 
-1.117948562290e+02 7.820542010864e-01 0.0 
7.820542010864e-01 -2.621752089773e+02 0.0 
0.0 0.0 -1.117910195619e+02 
-1.461638626610e+02 8.109556454702e-01 0.0 
8.109556454702e-01 -3.423838572397e+02 0.0 
0.0 0.0 -1.461643159702e+02 
-1.238268211022e+02 -7.636515888161e-01 0.0 
-7.636515888161e-01 -2.900344560003e+02 0.0 
0.0 0.0 -1.237583831308e+02 
-1.900114848001e+01 8.762825495058e-01 0.0 
8.762825495058e-01 -4.582394856188e+01 0.0 
0.0 0.0 -1.904752911257e+01 
-1.929570232022e+01 8.433729112846e-01 0.0 
8.433729112846e-01 -4.659517080939e+01 0.0 
0.0 0.0 -1.936726193888e+01 
-4.004467168351e+01 7.279011675039e-01 0.0 
7.279011675039e-01 -9.488113797272e+01 0.0 
0.0 0.0 -4.007774289687e+01 
-1.380708257879e+02 -8.033504228437e-01 0.0 
-8.033504228437e-01 -3.235222622453e+02 0.0 
0.0 0.0 -1.380779264099e+02 
-1.190805889916e+02 -7.765178271607e-01 0.0 
-7.765178271607e-01 -2.793017669898e+02 0.0 
0.0 0.0 -1.191147067944e+02 
-1.041727667613e+02 8.610369104016e-01 0.0 
8.610369104016e-01 -2.440193797466e+02 0.0 
0.0 0.0 -1.040576439524e+02 
-1.062166534805e+02 -7.616311334942e-01 0.0 
-7.616311334942e-01 -2.491350355999e+02 0.0 
0.0 0.0 -1.062055067241e+02 
-1.400246627978e+02 7.768835142321e-01 0.0 
7.768835142321e-01 -3.280071990003e+02 0.0 
0.0 0.0 -1.400095585394e+02 
-9.657259336580e+01 -7.599860071367e-01 0.0 
-7.599860071367e-01 -2.266456985942e+02 0.0 
0.0 0.0 -9.656548758799e+01 
-1.297427786525e+02 -7.843850546121e-01 0.0 
-7.843850546121e-01 -3.039727540079e+02 0.0 
0.0 0.0 -1.297146597981e+02 
-4.201508386835e+01 7.336464177017e-01 0.0 
7.336464177017e-01 -9.920652079705e+01 0.0 
0.0 0.0 -4.196648139962e+01 
-1.488767425233e+02 -9.627993726055e-01 0.0 
-9.627993726055e-01 -3.487602417489e+02 0.0 
0.0 0.0 -1.488910952817e+02 
-9.313270009653e+01 7.954400568624e-01 0.0 
7.954400568624e-01 -2.186039080917e+02 0.0 
0.0 0.0 -9.312098245647e+01 
-4.548292949196e+01 7.819937217483e-01 0.0 
7.819937217483e-01 -1.075630151462e+02 0.0 
0.0 0.0 -4.551378339146e+01 
-8.844507670146e+01 8.574258017032e-01 0.0 
8.574258017032e-01 -2.077089492910e+02 0.0 
0.0 0.0 -8.844620779775e+01 
-6.793396035578e+01 -7.484085271075e-01 0.0 
-7.484085271075e-01 -1.597198689442e+02 0.0 
0.0 0.0 -6.789614878998e+01 
-5.250357845744e+01 7.763432948259e-01 0.0 
7.763432948259e-01 -1.238234524104e+02 0.0 
0.0 0.0 -5.249810926034e+01 
-1.037737171817e+02 -7.537226239575e-01 0.0 
-7.537226239575e-01 -2.434034531643e+02 0.0 
0.0 0.0 -1.037531511038e+02 
-4.974798910015e+00 6.339124858208e-02 0.0 
6.339124858208e-02 -9.422075314981e+00 0.0 
0.0 0.0 -4.914731494222e+00 
-5.156703610213e+00 -1.754249463284e-02 0.0 
-1.754249463284e-02 -9.576720598883e+00 0.0 
0.0 0.0 -5.030034996734e+00 
-1.178786486594e+02 7.726922371571e-01 0.0 
7.726922371571e-01 -2.763736007406e+02 0.0 
0.0 0.0 -1.178756748200e+02 
-3.854921717364e+01 7.042283081751e-01 0.0 
7.042283081751e-01 -9.108402545218e+01 0.0 
0.0 0.0 -3.848997278775e+01 
-1.190063078049e+02 7.909059873822e-01 0.0 
7.909059873822e-01 -2.789906658642e+02 0.0 
0.0 0.0 -1.189990921007e+02 
-1.154043154595e+02 7.799833542065e-01 0.0 
7.799833542065e-01 -2.705968455528e+02 0.0 
0.0 0.0 -1.154003483037e+02 
-7.373459728168e+01 -7.854824318462e-01 0.0 
-7.854824318462e-01 -1.733090082176e+02 0.0 
0.0 0.0 -7.371308164978e+01 
-4.832834209782e+01 -7.895395989281e-01 0.0 
-7.895395989281e-01 -1.140138724246e+02 0.0 
0.0 0.0 -4.830266435673e+01 
-1.397745254432e+02 8.166398768381e-01 0.0 
8.166398768381e-01 -3.274478333326e+02 0.0 
0.0 0.0 -1.397667076327e+02 
-2.083453146836e+01 3.821938863641e-01 0.0 
3.821938863641e-01 -5.006677714861e+01 0.0 
0.0 0.0 -2.087039258509e+01 
-7.156000032369e+01 -6.977670664995e-01 0.0 
-6.977670664995e-01 -1.683480132888e+02 0.0 
0.0 0.0 -7.157240408375e+01 
-1.444376165036e+02 6.657891755756e-01 0.0 
6.657891755756e-01 -3.382636851635e+02 0.0 
0.0 0.0 -1.444103905001e+02 
-3.335217023944e+01 -7.579135457170e-01 0.0 
-7.579135457170e-01 -7.874761267248e+01 0.0 
0.0 0.0 -3.322993487358e+01 
-1.108374304611e+02 7.692966151569e-01 0.0 
7.692966151569e-01 -2.600828700400e+02 0.0 
0.0 0.0 -1.108760901503e+02 
-1.024429733503e+02 8.922189521104e-01 0.0 
8.922189521104e-01 -2.401665254343e+02 0.0 
0.0 0.0 -1.023828496354e+02 
-3.221344965818e+01 7.722913408169e-01 0.0 
7.722913408169e-01 -7.648983219649e+01 0.0 
0.0 0.0 -3.221098455640e+01 
-1.424665062378e+02 7.178976178299e-01 0.0 
7.178976178299e-01 -3.337862029903e+02 0.0 
0.0 0.0 -1.424758127684e+02 
-1.267828595118e+02 7.952644119877e-01 0.0 
7.952644119877e-01 -2.971793391834e+02 0.0 
0.0 0.0 -1.267886596086e+02 
-3.824147358816e+01 -7.203052271535e-01 0.0 
-7.203052271535e-01 -9.054383381610e+01 0.0 
0.0 0.0 -3.823559222128e+01 
-1.434028445519e+02 7.407246604829e-01 0.0 
7.407246604829e-01 -3.359036317726e+02 0.0 
0.0 0.0 -1.433919428974e+02 
-1.431774650477e+02 -6.830552024299e-01 0.0 
-6.830552024299e-01 -3.354898985281e+02 0.0 
0.0 0.0 -1.432002090727e+02 
-4.305109722942e+01 8.228115822944e-01 0.0 
8.228115822944e-01 -1.016995172979e+02 0.0 
0.0 0.0 -4.302518435820e+01 
-5.676909223031e+01 8.551795134882e-01 0.0 
8.551795134882e-01 -1.339954296882e+02 0.0 
0.0 0.0 -5.682935657556e+01 
-4.414836529344e+01 7.768005156795e-01 0.0 
7.768005156795e-01 -1.043464084819e+02 0.0 
0.0 0.0 -4.414843213261e+01 
-1.263099550519e+02 7.832515427435e-01 0.0 
7.832515427435e-01 -2.958789656595e+02 0.0 
0.0 0.0 -1.262566762134e+02 
-1.001857323134e+02 -7.657379052062e-01 0.0 
-7.657379052062e-01 -2.351140757344e+02 0.0 
0.0 0.0 -1.001899424143e+02 
-1.432512280997e+02 -7.374876480207e-01 0.0 
-7.374876480207e-01 -3.357321163962e+02 0.0 
0.0 0.0 -1.432950033488e+02 
-1.396040522041e+02 -7.665719767179e-01 0.0 
-7.665719767179e-01 -3.271093496119e+02 0.0 
0.0 0.0 -1.396140205448e+02 
-1.226443560317e+02 7.882135107605e-01 0.0 
7.882135107605e-01 -2.874320216911e+02 0.0 
0.0 0.0 -1.226229133168e+02 
-1.224492173487e+02 -7.785685761834e-01 0.0 
-7.785685761834e-01 -2.870058000275e+02 0.0 
0.0 0.0 -1.224365052129e+02 
-3.560409083288e+01 -7.911501959175e-01 0.0 
-7.911501959175e-01 -8.446340874354e+01 0.0 
0.0 0.0 -3.562024987293e+01 
-1.260881169068e+02 -7.817906835855e-01 0.0 
-7.817906835855e-01 -2.954418781285e+02 0.0 
0.0 0.0 -1.260589985106e+02 
-1.266369419239e+02 -7.906997953976e-01 0.0 
-7.906997953976e-01 -2.968522627784e+02 0.0 
0.0 0.0 -1.266467614107e+02 
-1.004131283215e+02 7.618797742601e-01 0.0 
7.618797742601e-01 -2.355493513856e+02 0.0 
0.0 0.0 -1.003887439121e+02 
-1.192321551846e+02 7.992506313922e-01 0.0 
7.992506313922e-01 -2.796286279824e+02 0.0 
0.0 0.0 -1.192582349501e+02 
-1.314006144256e+02 8.066495060707e-01 0.0 
8.066495060707e-01 -3.079259467897e+02 0.0 
0.0 0.0 -1.313979683646e+02 
-8.958770086876e+01 -7.646615431109e-01 0.0 
-7.646615431109e-01 -2.104143253254e+02 0.0 
0.0 0.0 -8.960060785825e+01 
-1.358446914476e+02 -7.841761153336e-01 0.0 
-7.841761153336e-01 -3.183606126782e+02 0.0 
0.0 0.0 -1.358615912377e+02 
-8.385056091103e+01 -8.444897804710e-01 0.0 
-8.444897804710e-01 -1.972015475472e+02 0.0 
0.0 0.0 -8.391563253748e+01 
-9.672193726888e+01 7.997753808817e-01 0.0 
7.997753808817e-01 -2.270602173858e+02 0.0 
0.0 0.0 -9.673464639639e+01 
-6.330434631430e+01 -9.002549178432e-01 0.0 
-9.002549178432e-01 -1.490201194665e+02 0.0 
0.0 0.0 -6.329733973424e+01 
-6.680200394795e+01 7.303819261364e-01 0.0 
7.303819261364e-01 -1.571368166786e+02 0.0 
0.0 0.0 -6.678164618798e+01 
-1.228582761434e+02 -7.899458657086e-01 0.0 
-7.899458657086e-01 -2.880839442271e+02 0.0 
0.0 0.0 -1.228826661112e+02 
-9.268849364870e+01 7.666117898684e-01 0.0 
7.666117898684e-01 -2.175793219233e+02 0.0 
0.0 0.0 -9.268034467160e+01 
-4.778498946395e+01 7.935853096730e-01 0.0 
7.935853096730e-01 -1.127791369598e+02 0.0 
0.0 0.0 -4.776923792714e+01 
-2.392144163143e+01 6.687912823689e-01 0.0 
6.687912823689e-01 -5.721921251036e+01 0.0 
0.0 0.0 -2.394219624254e+01 
-1.230346876095e+02 7.885484316889e-01 0.0 
7.885484316889e-01 -2.884226191078e+02 0.0 
0.0 0.0 -1.230371920152e+02 
-4.758240482557e+01 -7.928806008165e-01 0.0 
-7.928806008165e-01 -1.123412907346e+02 0.0 
0.0 0.0 -4.757710866806e+01 
-1.498315699763e+02 -8.076368141804e-01 0.0 
-8.076368141804e-01 -3.503528963970e+02 0.0 
0.0 0.0 -1.496553399120e+02 
-1.275077329401e+02 -7.837753878602e-01 0.0 
-7.837753878602e-01 -2.988247874431e+02 0.0 
0.0 0.0 -1.274997561150e+02 
-1.308191668275e+02 -7.706329533306e-01 0.0 
-7.706329533306e-01 -3.065077734866e+02 0.0 
0.0 0.0 -1.307980820942e+02 
-1.569232689993e+02 9.685201997742e-02 0.0 
9.685201997742e-02 -3.674422901299e+02 0.0 
0.0 0.0 -1.569096677388e+02 
-8.008216632398e+01 8.672901145110e-01 0.0 
8.672901145110e-01 -1.881180294733e+02 0.0 
0.0 0.0 -8.006005873917e+01 
-4.283614392957e+01 -7.873622135075e-01 0.0 
-7.873622135075e-01 -1.012525102269e+02 0.0 
0.0 0.0 -4.282659624693e+01 
-2.719735002062e+01 -8.316573488363e-01 0.0 
-8.316573488363e-01 -6.482636152450e+01 0.0 
0.0 0.0 -2.720711346353e+01 
-1.237320386707e+02 7.916402899993e-01 0.0 
7.916402899993e-01 -2.900215957224e+02 0.0 
0.0 0.0 -1.237260903179e+02 
-1.153440659823e+02 -8.062186408707e-01 0.0 
-8.062186408707e-01 -2.705514262796e+02 0.0 
0.0 0.0 -1.153686476786e+02 
-1.930756863523e+01 -6.724355678611e-01 0.0 
-6.724355678611e-01 -4.606801687503e+01 0.0 
0.0 0.0 -1.921267565308e+01 
-6.456518718313e+01 7.910299324855e-01 0.0 
7.910299324855e-01 -1.517341046998e+02 0.0 
0.0 0.0 -6.448978756487e+01 
-3.756228866576e+01 7.054307661205e-01 0.0 
7.054307661205e-01 -8.849083268016e+01 0.0 
0.0 0.0 -3.741593640378e+01 
-1.146783342164e+02 7.457327194353e-01 0.0 
7.457327194353e-01 -2.689317557114e+02 0.0 
0.0 0.0 -1.146830269783e+02 
-6.834297704376e+01 8.401474402326e-01 0.0 
8.401474402326e-01 -1.602413309568e+02 0.0 
0.0 0.0 -6.817529240016e+01 
-1.152155121404e+02 -7.725528794002e-01 0.0 
-7.725528794002e-01 -2.701646168448e+02 0.0 
0.0 0.0 -1.152140386956e+02 
-6.330318120486e+01 8.350160155506e-01 0.0 
8.350160155506e-01 -1.492785681605e+02 0.0 
0.0 0.0 -6.337452480960e+01 
-1.368453867107e+02 8.297140355296e-01 0.0 
8.297140355296e-01 -3.207093307308e+02 0.0 
0.0 0.0 -1.368664152325e+02 
-5.596058068951e+01 -8.026708583204e-01 0.0 
-8.026708583204e-01 -1.318520096614e+02 0.0 
0.0 0.0 -5.594377710527e+01 
-1.248178422509e+02 7.893200941245e-01 0.0 
7.893200941245e-01 -2.925859835383e+02 0.0 
0.0 0.0 -1.248211477368e+02 
-3.903686273566e+01 7.758099127295e-01 0.0 
7.758099127295e-01 -9.240831998364e+01 0.0 
0.0 0.0 -3.903355481579e+01 
-1.201072036546e+02 7.900343583427e-01 0.0 
7.900343583427e-01 -2.815774100487e+02 0.0 
0.0 0.0 -1.201053841110e+02 
-9.225566398910e+01 6.607281026426e-01 0.0 
6.607281026426e-01 -2.166609838827e+02 0.0 
0.0 0.0 -9.227499436155e+01 
-1.271773594424e+02 -7.763099178279e-01 0.0 
-7.763099178279e-01 -2.980519782865e+02 0.0 
0.0 0.0 -1.271688013187e+02 
-6.331786878800e+01 -7.564099359459e-01 0.0 
-7.564099359459e-01 -1.490867451999e+02 0.0 
0.0 0.0 -6.332138419638e+01 
-3.704251135298e+01 -8.444446779224e-01 0.0 
-8.444446779224e-01 -8.771219701969e+01 0.0 
0.0 0.0 -3.702641251180e+01 
-1.071731988191e+02 7.730945396108e-01 0.0 
7.730945396108e-01 -2.511991533908e+02 0.0 
0.0 0.0 -1.071117056630e+02 
-1.156890737088e+02 7.687110449664e-01 0.0 
7.687110449664e-01 -2.713122716866e+02 0.0 
0.0 0.0 -1.157004036186e+02 
-8.126301479608e+01 -7.667756993157e-01 0.0 
-7.667756993157e-01 -1.909824789810e+02 0.0 
0.0 0.0 -8.127364813312e+01 
-1.154044058864e+02 8.351010204070e-01 0.0 
8.351010204070e-01 -2.706539532527e+02 0.0 
0.0 0.0 -1.154175077417e+02 
-4.374623994366e+01 7.839291290169e-01 0.0 
7.839291290169e-01 -1.033959364603e+02 0.0 
0.0 0.0 -4.374265292119e+01 
-1.174795381062e+02 -7.774157509633e-01 0.0 
-7.774157509633e-01 -2.755108919514e+02 0.0 
0.0 0.0 -1.174971290173e+02 
-3.345977648609e+01 7.746061280223e-01 0.0 
7.746061280223e-01 -7.962984051894e+01 0.0 
0.0 0.0 -3.352688510151e+01 
-1.414572584043e+02 8.213585849342e-01 0.0 
8.213585849342e-01 -3.314728130051e+02 0.0 
0.0 0.0 -1.414790214228e+02 
-1.203649468889e+02 7.626834162420e-01 0.0 
7.626834162420e-01 -2.821952749147e+02 0.0 
0.0 0.0 -1.203680665411e+02 
-1.271050920707e+02 7.765396842004e-01 0.0 
7.765396842004e-01 -2.979808591030e+02 0.0 
0.0 0.0 -1.271257853521e+02 
-1.481946881152e+02 8.267680390910e-01 0.0 
8.267680390910e-01 -3.472590461302e+02 0.0 
0.0 0.0 -1.482361202736e+02 
-1.009669115611e+02 7.766025320078e-01 0.0 
7.766025320078e-01 -2.369056795096e+02 0.0 
0.0 0.0 -1.009617773212e+02 
-3.457799578958e+01 -7.732172334747e-01 0.0 
-7.732172334747e-01 -8.209135970784e+01 0.0 
0.0 0.0 -3.460080664922e+01 
-1.128814115467e+02 7.791923918862e-01 0.0 
7.791923918862e-01 -2.647165736139e+02 0.0 
0.0 0.0 -1.128793955482e+02 
-1.459596188606e+02 -8.305503998048e-01 0.0 
-8.305503998048e-01 -3.419332229815e+02 0.0 
0.0 0.0 -1.459678525526e+02 
-5.673531225736e+01 7.455066452904e-01 0.0 
7.455066452904e-01 -1.336788137032e+02 0.0 
0.0 0.0 -5.672423778818e+01 
-1.273717390562e+02 7.991736752143e-01 0.0 
7.991736752143e-01 -2.984782698834e+02 0.0 
0.0 0.0 -1.273550026819e+02 
-1.276242288651e+02 8.122471230787e-01 0.0 
8.122471230787e-01 -2.991412969845e+02 0.0 
0.0 0.0 -1.276296577549e+02 
-4.478560039424e+01 -7.945661420855e-01 0.0 
-7.945661420855e-01 -1.057039226229e+02 0.0 
0.0 0.0 -4.474685690514e+01 
-1.164943641971e+02 7.856187673668e-01 0.0 
7.856187673668e-01 -2.731489490577e+02 0.0 
0.0 0.0 -1.164929939764e+02 
-1.055718126240e+02 7.730825480211e-01 0.0 
7.730825480211e-01 -2.474643015865e+02 0.0 
0.0 0.0 -1.055108342632e+02 
-5.033257042993e+01 7.524357855875e-01 0.0 
7.524357855875e-01 -1.186886640087e+02 0.0 
0.0 0.0 -5.030637033158e+01 
-6.089244891422e+01 7.818949761884e-01 0.0 
7.818949761884e-01 -1.432868864410e+02 0.0 
0.0 0.0 -6.085380060657e+01 
-9.725950722636e+01 7.506853522476e-01 0.0 
7.506853522476e-01 -2.282946722115e+02 0.0 
0.0 0.0 -9.726625383136e+01 
-1.235410820452e+02 -7.741121400237e-01 0.0 
-7.741121400237e-01 -2.895956131025e+02 0.0 
0.0 0.0 -1.235410085443e+02 
-7.449854252202e+01 7.185206323366e-01 0.0 
7.185206323366e-01 -1.752555593047e+02 0.0 
0.0 0.0 -7.452623054801e+01 
-9.279823996192e+01 7.403508585015e-01 0.0 
7.403508585015e-01 -2.178806847201e+02 0.0 
0.0 0.0 -9.280367740462e+01 
-1.220532459077e+02 -7.895892110074e-01 0.0 
-7.895892110074e-01 -2.861642609155e+02 0.0 
0.0 0.0 -1.220652520469e+02 
-1.106927746346e+02 -8.452673219887e-01 0.0 
-8.452673219887e-01 -2.597532427150e+02 0.0 
0.0 0.0 -1.107338052049e+02 
-1.091896274396e+02 -7.727648003663e-01 0.0 
-7.727648003663e-01 -2.561130079040e+02 0.0 
0.0 0.0 -1.091907906031e+02 
-9.206034534179e+01 -6.826879302638e-01 0.0 
-6.826879302638e-01 -2.161575367679e+02 0.0 
0.0 0.0 -9.206536463290e+01 
-1.389233426877e+02 7.597497788816e-01 0.0 
7.597497788816e-01 -3.254794237703e+02 0.0 
0.0 0.0 -1.389208299374e+02 
-1.092676408408e+02 7.787744009233e-01 0.0 
7.787744009233e-01 -2.562792227239e+02 0.0 
0.0 0.0 -1.092640590694e+02 
-1.061853458295e+02 7.240450745359e-01 0.0 
7.240450745359e-01 -2.493647541924e+02 0.0 
0.0 0.0 -1.062650300066e+02 
-1.470233528974e+02 1.020256649957e+00 0.0 
1.020256649957e+00 -3.440309172959e+02 0.0 
0.0 0.0 -1.469162810580e+02 
-1.316842048005e+02 8.126169848870e-01 0.0 
8.126169848870e-01 -3.086252063636e+02 0.0 
0.0 0.0 -1.316928233492e+02 
-1.199192131003e+02 -7.762885186774e-01 0.0 
-7.762885186774e-01 -2.811523273071e+02 0.0 
0.0 0.0 -1.199214621222e+02 
-1.312486237397e+02 -7.777536765811e-01 0.0 
-7.777536765811e-01 -3.075961211839e+02 0.0 
0.0 0.0 -1.312534234771e+02 
-7.031875471590e+01 7.787965093967e-01 0.0 
7.787965093967e-01 -1.653219562917e+02 0.0 
0.0 0.0 -7.029221330228e+01 
-6.560111332354e+01 7.828132359177e-01 0.0 
7.828132359177e-01 -1.543016529016e+02 0.0 
0.0 0.0 -6.557082986756e+01 
-3.570497331175e+01 7.985159715794e-01 0.0 
7.985159715794e-01 -8.485632977656e+01 0.0 
0.0 0.0 -3.576839092649e+01 
-1.175829684883e+02 7.760236057326e-01 0.0 
7.760236057326e-01 -2.756855077693e+02 0.0 
0.0 0.0 -1.175805428773e+02 
-6.922447557671e+01 7.970793239432e-01 0.0 
7.970793239432e-01 -1.627422763103e+02 0.0 
0.0 0.0 -6.919002556610e+01 
-1.184418562184e+02 7.921525007226e-01 0.0 
7.921525007226e-01 -2.776714173453e+02 0.0 
0.0 0.0 -1.184339820691e+02 
-1.138625086605e+02 8.045930345053e-01 0.0 
8.045930345053e-01 -2.669743728697e+02 0.0 
0.0 0.0 -1.138510644590e+02 
-9.332161658361e+01 7.744157008736e-01 0.0 
7.744157008736e-01 -2.190955600847e+02 0.0 
0.0 0.0 -9.332515300048e+01 
-5.709249764044e+01 -7.877262009009e-01 0.0 
-7.877262009009e-01 -1.344704167486e+02 0.0 
0.0 0.0 -5.706887431670e+01 
-6.072318882430e+01 -7.639366525868e-01 0.0 
-7.639366525868e-01 -1.430556124662e+02 0.0 
0.0 0.0 -6.073364038713e+01 
-6.068629698580e+01 -7.877305683900e-01 0.0 
-7.877305683900e-01 -1.428512467157e+02 0.0 
0.0 0.0 -6.066126311046e+01 
-6.541342547077e+01 -7.867758180928e-01 0.0 
-7.867758180928e-01 -1.538754002902e+02 0.0 
0.0 0.0 -6.538664772830e+01 
-3.922701558379e+01 -7.959921355667e-01 0.0 
-7.959921355667e-01 -9.289467273825e+01 0.0 
0.0 0.0 -3.923650649661e+01 
-1.353161810667e+02 7.984819273554e-01 0.0 
7.984819273554e-01 -3.170487816069e+02 0.0 
0.0 0.0 -1.353094888021e+02 
-7.957898398580e+01 -7.699963362440e-01 0.0 
-7.699963362440e-01 -1.869865148960e+02 0.0 
0.0 0.0 -7.956964966455e+01 
-1.360097333421e+02 8.137871228875e-01 0.0 
8.137871228875e-01 -3.186995909857e+02 0.0 
0.0 0.0 -1.360127972983e+02 
-8.426319308892e+01 -7.723679777276e-01 0.0 
-7.723679777276e-01 -1.979366840012e+02 0.0 
0.0 0.0 -8.425996312703e+01 
-1.127041433953e+02 -7.857656737051e-01 0.0 
-7.857656737051e-01 -2.642995458469e+02 0.0 
0.0 0.0 -1.127011067726e+02 
-9.609805127982e+01 -7.844247149963e-01 0.0 
-7.844247149963e-01 -2.255449519472e+02 0.0 
0.0 0.0 -9.609290096810e+01 
-9.175799671105e+01 7.502617233416e-01 0.0 
7.502617233416e-01 -2.154559296936e+02 0.0 
0.0 0.0 -9.176417792141e+01 
-3.945099101367e+01 7.607254811915e-01 0.0 
7.607254811915e-01 -9.335779582636e+01 0.0 
0.0 0.0 -3.944263605201e+01 
-1.421892029690e+02 -7.319043525412e-01 0.0 
-7.319043525412e-01 -3.332852523901e+02 0.0 
0.0 0.0 -1.422423366077e+02 
-1.475797478267e+02 8.560051293371e-01 0.0 
8.560051293371e-01 -3.459411172119e+02 0.0 
0.0 0.0 -1.476562595116e+02 
-1.175464295245e+02 -7.372086460434e-01 0.0 
-7.372086460434e-01 -2.756036286776e+02 0.0 
0.0 0.0 -1.175450174606e+02 
-7.012450883896e+01 -7.995121329070e-01 0.0 
-7.995121329070e-01 -1.648907951862e+02 0.0 
0.0 0.0 -7.010459120755e+01 
-1.043938724660e+02 -7.835989746372e-01 0.0 
-7.835989746372e-01 -2.449088276594e+02 0.0 
0.0 0.0 -1.043908100376e+02 
-1.182546897625e+02 -8.201145183531e-01 0.0 
-8.201145183531e-01 -2.773243000319e+02 0.0 
0.0 0.0 -1.182736969383e+02 
-7.392390302167e+01 7.890632960076e-01 0.0 
7.890632960076e-01 -1.737348138150e+02 0.0 
0.0 0.0 -7.389761505100e+01 
-7.700741764156e+01 7.224524593194e-01 0.0 
7.224524593194e-01 -1.810419663205e+02 0.0 
0.0 0.0 -7.701481518861e+01 
-5.608974116563e+01 7.857076588436e-01 0.0 
7.857076588436e-01 -1.322579284923e+02 0.0 
0.0 0.0 -5.610430089738e+01 
-4.849052876042e+01 7.608633841709e-01 0.0 
7.608633841709e-01 -1.144250958176e+02 0.0 
0.0 0.0 -4.847468737342e+01 
-7.503142807655e+01 7.716998745889e-01 0.0 
7.716998745889e-01 -1.763414647309e+02 0.0 
0.0 0.0 -7.501186784223e+01 
-5.119801040502e+01 -7.667439697811e-01 0.0 
-7.667439697811e-01 -1.207841097476e+02 0.0 
0.0 0.0 -5.119463604580e+01 
-4.668554512475e+01 8.031886191190e-01 0.0 
8.031886191190e-01 -1.101746895029e+02 0.0 
0.0 0.0 -4.665807038828e+01 
-9.628284087576e+01 7.740923030444e-01 0.0 
7.740923030444e-01 -2.259654096691e+02 0.0 
0.0 0.0 -9.627447516345e+01 
-1.163123346001e+02 -7.844921403605e-01 0.0 
-7.844921403605e-01 -2.727270887350e+02 0.0 
0.0 0.0 -1.163118270005e+02 
-1.381423447152e+02 -7.009081455553e-01 0.0 
-7.009081455553e-01 -3.237553309998e+02 0.0 
0.0 0.0 -1.381693027145e+02 
-3.170166903472e+00 -2.203643610625e-01 0.0 
-2.203643610625e-01 -8.894324932115e+00 0.0 
0.0 0.0 -3.219347550676e+00 
-8.179387860883e+01 -7.568958236922e-01 0.0 
-7.568958236922e-01 -1.921816355319e+02 0.0 
0.0 0.0 -8.179265424223e+01 
-8.070541825645e+01 -7.597437218508e-01 0.0 
-7.597437218508e-01 -1.896386980209e+02 0.0 
0.0 0.0 -8.070323488320e+01 
-7.484919664348e+01 -7.870764340203e-01 0.0 
-7.870764340203e-01 -1.759419818040e+02 0.0 
0.0 0.0 -7.483735353423e+01 
-1.137063146718e+02 -8.003373931364e-01 0.0 
-8.003373931364e-01 -2.666445879055e+02 0.0 
0.0 0.0 -1.137052707732e+02 
-8.782022192055e+01 -7.858364031899e-01 0.0 
-7.858364031899e-01 -2.062198658116e+02 0.0 
0.0 0.0 -8.781202631965e+01 
-5.960564129465e+01 -8.186965273195e-01 0.0 
-8.186965273195e-01 -1.403433932672e+02 0.0 
0.0 0.0 -5.958471036857e+01 
-7.976215792621e+01 7.540058640420e-01 0.0 
7.540058640420e-01 -1.873986662795e+02 0.0 
0.0 0.0 -7.974824726171e+01 
-1.320212777016e+02 -7.917733658243e-01 0.0 
-7.917733658243e-01 -3.095564487756e+02 0.0 
0.0 0.0 -1.320733179432e+02 
-5.960537409672e+01 7.893809297924e-01 0.0 
7.893809297924e-01 -1.407006384266e+02 0.0 
0.0 0.0 -5.969180375701e+01 
-2.265895252886e+01 -6.888023826320e-01 0.0 
-6.888023826320e-01 -5.399251181585e+01 0.0 
0.0 0.0 -2.259543930341e+01 
-3.093089297418e+01 -7.459922335973e-01 0.0 
-7.459922335973e-01 -7.361584814733e+01 0.0 
0.0 0.0 -3.096402233646e+01 
-5.186463387888e+01 -7.827051307354e-01 0.0 
-7.827051307354e-01 -1.222862138785e+02 0.0 
0.0 0.0 -5.184525432723e+01 
-6.185964528556e+01 -7.778055438429e-01 0.0 
-7.778055438429e-01 -1.456034432835e+02 0.0 
0.0 0.0 -6.183892657073e+01 
-8.535097190640e+01 -7.773159430205e-01 0.0 
-7.773159430205e-01 -2.004877350729e+02 0.0 
0.0 0.0 -8.535161209380e+01 
-8.445931223716e+01 7.465028967067e-01 0.0 
7.465028967067e-01 -1.983763888518e+02 0.0 
0.0 0.0 -8.445071032668e+01 
-3.529294032058e+01 8.765165730614e-01 0.0 
8.765165730614e-01 -8.372391516487e+01 0.0 
0.0 0.0 -3.530505664563e+01 
-3.089691208700e+01 8.360543837645e-01 0.0 
8.360543837645e-01 -7.393419813755e+01 0.0 
0.0 0.0 -3.104933306736e+01 
-1.080396072115e+02 9.282378390403e-01 0.0 
9.282378390403e-01 -2.538120806804e+02 0.0 
0.0 0.0 -1.081555063676e+02 
-5.139167566561e+01 8.283891382899e-01 0.0 
8.283891382899e-01 -1.212142645494e+02 0.0 
0.0 0.0 -5.138178206449e+01 
-1.304403836476e+02 -7.726488000564e-01 0.0 
-7.726488000564e-01 -3.056582336258e+02 0.0 
0.0 0.0 -1.304295851820e+02 
-1.337128661224e+02 -7.450723221849e-01 0.0 
-7.450723221849e-01 -3.133333063553e+02 0.0 
0.0 0.0 -1.337138517433e+02 
-1.099366844360e+02 7.650448316969e-01 0.0 
7.650448316969e-01 -2.579611364311e+02 0.0 
0.0 0.0 -1.099693462601e+02 
-1.378781382057e+02 -7.616244642983e-01 0.0 
-7.616244642983e-01 -3.230834792529e+02 0.0 
0.0 0.0 -1.378884852376e+02 
-1.427341405866e+02 -6.988071780534e-01 0.0 
-6.988071780534e-01 -3.341433527800e+02 0.0 
0.0 0.0 -1.426632480100e+02 
-8.976551635176e+01 7.730883880136e-01 0.0 
7.730883880136e-01 -2.108195050643e+02 0.0 
0.0 0.0 -8.977550642482e+01 
-1.256029901464e+02 -7.448282361040e-01 0.0 
-7.448282361040e-01 -2.944064033601e+02 0.0 
0.0 0.0 -1.256028180519e+02 
-4.021836276785e+01 7.637969457167e-01 0.0 
7.637969457167e-01 -9.508895625243e+01 0.0 
0.0 0.0 -4.019219570609e+01 
-8.331861935209e+01 7.726840918587e-01 0.0 
7.726840918587e-01 -1.956918062455e+02 0.0 
0.0 0.0 -8.330312767927e+01 
-8.255589170470e+01 -7.465909276447e-01 0.0 
-7.465909276447e-01 -1.940189544844e+02 0.0 
0.0 0.0 -8.257245385672e+01 
-4.598768102318e+01 -7.122608721011e-01 0.0 
-7.122608721011e-01 -1.087288684076e+02 0.0 
0.0 0.0 -4.601496482923e+01 
-3.193154812619e+01 7.861262075253e-01 0.0 
7.861262075253e-01 -7.583239912318e+01 0.0 
0.0 0.0 -3.192918417481e+01 
-6.902877393385e+01 -7.816840381482e-01 0.0 
-7.816840381482e-01 -1.623138659994e+02 0.0 
0.0 0.0 -6.900279197998e+01 
-8.090529047664e+01 7.421920762674e-01 0.0 
7.421920762674e-01 -1.900942398000e+02 0.0 
0.0 0.0 -8.089985908298e+01 
-8.554007287843e+01 7.477971236037e-01 0.0 
7.477971236037e-01 -2.009174576252e+02 0.0 
0.0 0.0 -8.553725915109e+01 
-5.479004580187e+01 -7.238476169837e-01 0.0 
-7.238476169837e-01 -1.292399050362e+02 0.0 
0.0 0.0 -5.480898525142e+01 
-9.250150569486e+01 -7.797753034744e-01 0.0 
-7.797753034744e-01 -2.171614709775e+02 0.0 
0.0 0.0 -9.249889300170e+01 
-8.198629348760e+01 7.387033425202e-01 0.0 
7.387033425202e-01 -1.926336316288e+02 0.0 
0.0 0.0 -8.198597753493e+01 
-8.640096842974e+01 -7.582978763156e-01 0.0 
-7.582978763156e-01 -2.029511604762e+02 0.0 
0.0 0.0 -8.640563867180e+01 
-6.204198891668e+01 7.586711653031e-01 0.0 
7.586711653031e-01 -1.460078359185e+02 0.0 
0.0 0.0 -6.201494745055e+01 
-1.214632716703e+02 7.890501254659e-01 0.0 
7.890501254659e-01 -2.847383809074e+02 0.0 
0.0 0.0 -1.214604957733e+02 
-1.221800745241e+02 8.015841395709e-01 0.0 
8.015841395709e-01 -2.864811484304e+02 0.0 
0.0 0.0 -1.221983668864e+02 
-8.286733365688e+01 -7.523238954379e-01 0.0 
-7.523238954379e-01 -1.946987565829e+02 0.0 
0.0 0.0 -8.286982707194e+01 
-1.387790758880e+02 -7.755371625244e-01 0.0 
-7.755371625244e-01 -3.250852736598e+02 0.0 
0.0 0.0 -1.387593048644e+02 
-4.494172357951e+01 7.605749366489e-01 0.0 
7.605749366489e-01 -1.061040380420e+02 0.0 
0.0 0.0 -4.491372848645e+01 
-1.485244053418e+02 -8.260797686689e-01 0.0 
-8.260797686689e-01 -3.477942644623e+02 0.0 
0.0 0.0 -1.484956009412e+02 
-8.890181322663e+01 -7.824943401442e-01 0.0 
-7.824943401442e-01 -2.087656965689e+02 0.0 
0.0 0.0 -8.890025293866e+01 
-1.480748774424e+02 -9.322462954702e-01 0.0 
-9.322462954702e-01 -3.462111778916e+02 0.0 
0.0 0.0 -1.478858166002e+02 
-1.116081824923e+02 7.625679725937e-01 0.0 
7.625679725937e-01 -2.618324439844e+02 0.0 
0.0 0.0 -1.116321879430e+02 
-4.360264637346e+01 -7.881748893639e-01 0.0 
-7.881748893639e-01 -1.029896639333e+02 0.0 
0.0 0.0 -4.357769309203e+01 
-1.134572595090e+02 7.754360977224e-01 0.0 
7.754360977224e-01 -2.661612184293e+02 0.0 
0.0 0.0 -1.134855433815e+02 
-1.406959377638e+02 -7.672639134836e-01 0.0 
-7.672639134836e-01 -3.296209001910e+02 0.0 
0.0 0.0 -1.406950513864e+02 
-9.354328809228e+01 -7.769559931039e-01 0.0 
-7.769559931039e-01 -2.196058638309e+02 0.0 
0.0 0.0 -9.354474557696e+01 
-6.723018258577e+01 7.421244994633e-01 0.0 
7.421244994633e-01 -1.582452571148e+02 0.0 
0.0 0.0 -6.724263191017e+01 
-1.169997516734e+02 7.832321022115e-01 0.0 
7.832321022115e-01 -2.743827467029e+02 0.0 
0.0 0.0 -1.170147495129e+02 
-8.916677986523e+01 -7.560025619477e-01 0.0 
-7.560025619477e-01 -2.094120651831e+02 0.0 
0.0 0.0 -8.917365351450e+01 
-3.521009337535e+01 -8.093494867699e-01 0.0 
-8.093494867699e-01 -8.329481942006e+01 0.0 
0.0 0.0 -3.515147383862e+01 
-1.548265822119e+02 -8.245975262482e-01 0.0 
-8.245975262482e-01 -3.622800899258e+02 0.0 
0.0 0.0 -1.547320016413e+02 
-3.038809304939e+01 -8.115269765478e-01 0.0 
-8.115269765478e-01 -7.247133383702e+01 0.0 
0.0 0.0 -3.045782806592e+01 
-1.473498223859e+02 7.844056789605e-01 0.0 
7.844056789605e-01 -3.447864769343e+02 0.0 
0.0 0.0 -1.472408897961e+02 
-1.440997413011e+02 -7.570007988383e-01 0.0 
-7.570007988383e-01 -3.377026412899e+02 0.0 
0.0 0.0 -1.441407147773e+02 
-1.250540982806e+02 7.871229087853e-01 0.0 
7.871229087853e-01 -2.931076863900e+02 0.0 
0.0 0.0 -1.250485354012e+02 
-1.098244895980e+02 -8.901426608898e-01 0.0 
-8.901426608898e-01 -2.576517591619e+02 0.0 
0.0 0.0 -1.098428746280e+02 
-1.342912215376e+02 8.175489041000e-01 0.0 
8.175489041000e-01 -3.147307611459e+02 0.0 
0.0 0.0 -1.343065948051e+02 
-8.659161861611e+01 7.403229253338e-01 0.0 
7.403229253338e-01 -2.033806688077e+02 0.0 
0.0 0.0 -8.659168622716e+01 
-1.014804551526e+02 7.831852670415e-01 0.0 
7.831852670415e-01 -2.381365561017e+02 0.0 
0.0 0.0 -1.014851033763e+02 
-1.463115239561e+02 -7.688456816520e-01 0.0 
-7.688456816520e-01 -3.423912407696e+02 0.0 
0.0 0.0 -1.462108294177e+02 
-1.246288691379e+02 -7.822093746774e-01 0.0 
-7.822093746774e-01 -2.921554284392e+02 0.0 
0.0 0.0 -1.246352892731e+02 
-1.259583892866e+02 7.990077732034e-01 0.0 
7.990077732034e-01 -2.952783693820e+02 0.0 
0.0 0.0 -1.259710276006e+02 
-1.191866762504e+02 -8.172912948651e-01 0.0 
-8.172912948651e-01 -2.794877407217e+02 0.0 
0.0 0.0 -1.192023250916e+02 
-4.005702610899e+01 -7.766584923553e-01 0.0 
-7.766584923553e-01 -9.467343810165e+01 0.0 
0.0 0.0 -4.001913926319e+01 
-1.297285879336e+02 8.105877017218e-01 0.0 
8.105877017218e-01 -3.040096097802e+02 0.0 
0.0 0.0 -1.297214593141e+02 
-1.574222031820e+02 1.240607373325e-02 0.0 
1.240607373325e-02 -3.680417699127e+02 0.0 
0.0 0.0 -1.572391919284e+02 
-1.474559171566e+02 -8.775076870777e-01 0.0 
-8.775076870777e-01 -3.453366937637e+02 0.0 
0.0 0.0 -1.474377832761e+02 
-8.313566053910e+01 -7.823276522085e-01 0.0 
-7.823276522085e-01 -1.952747793769e+02 0.0 
0.0 0.0 -8.312313197482e+01 
-1.100174544701e+02 8.129666876149e-01 0.0 
8.129666876149e-01 -2.579607257363e+02 0.0 
0.0 0.0 -1.099934540619e+02 
-1.052821001945e+02 -8.686668841346e-01 0.0 
-8.686668841346e-01 -2.470717835387e+02 0.0 
0.0 0.0 -1.053061651200e+02 
-8.908339497654e+01 7.708780558095e-01 0.0 
7.708780558095e-01 -2.091841909180e+02 0.0 
0.0 0.0 -8.908027576837e+01 
-1.210245404570e+02 -7.905128450229e-01 0.0 
-7.905128450229e-01 -2.837146552434e+02 0.0 
0.0 0.0 -1.210217587101e+02 
-1.257351973059e+02 -7.875656309840e-01 0.0 
-7.875656309840e-01 -2.946843246419e+02 0.0 
0.0 0.0 -1.257258565843e+02 
-2.748187121456e+01 8.405588813026e-01 0.0 
8.405588813026e-01 -6.532324950239e+01 0.0 
0.0 0.0 -2.744153621508e+01 
-5.264080722432e+01 -7.711515067943e-01 0.0 
-7.711515067943e-01 -1.242081931397e+02 0.0 
0.0 0.0 -5.265470010920e+01 
-8.749273432487e+01 -7.599957396100e-01 0.0 
-7.599957396100e-01 -2.054962443824e+02 0.0 
0.0 0.0 -8.749669361219e+01 
-8.305261099877e+01 7.521650718186e-01 0.0 
7.521650718186e-01 -1.951387106438e+02 0.0 
0.0 0.0 -8.305739649276e+01 
-8.813039021659e+01 -7.582703637246e-01 0.0 
-7.582703637246e-01 -2.069941685515e+02 0.0 
0.0 0.0 -8.813736763041e+01 
-1.510121671783e+02 7.696801001719e-01 0.0 
7.696801001719e-01 -3.532130066062e+02 0.0 
0.0 0.0 -1.508675521354e+02 
-1.424288483938e+02 -6.932322342719e-01 0.0 
-6.932322342719e-01 -3.337512691160e+02 0.0 
0.0 0.0 -1.424540352529e+02 
-1.442545967115e+02 7.876689620696e-01 0.0 
7.876689620696e-01 -3.379415899296e+02 0.0 
0.0 0.0 -1.442588559923e+02 
-7.897606295227e+01 7.275241091031e-01 0.0 
7.275241091031e-01 -1.856930804460e+02 0.0 
0.0 0.0 -7.900074301949e+01 
-1.324274209620e+02 -7.592329357162e-01 0.0 
-7.592329357162e-01 -3.103300360186e+02 0.0 
0.0 0.0 -1.324272370942e+02 
-1.211959436068e+02 7.789917088577e-01 0.0 
7.789917088577e-01 -2.841289848781e+02 0.0 
0.0 0.0 -1.211974785455e+02 
-1.470193058544e+02 -8.035763797753e-01 0.0 
-8.035763797753e-01 -3.445250480390e+02 0.0 
0.0 0.0 -1.470633061680e+02 
-1.251558304283e+02 8.126786983627e-01 0.0 
8.126786983627e-01 -2.932901067720e+02 0.0 
0.0 0.0 -1.251337811601e+02 
-8.800599607474e+01 7.692832337800e-01 0.0 
7.692832337800e-01 -2.066438854408e+02 0.0 
0.0 0.0 -8.799496445466e+01 
-8.395118074199e+01 -7.551171934060e-01 0.0 
-7.551171934060e-01 -1.972334086986e+02 0.0 
0.0 0.0 -8.395537683218e+01 
-1.295417328832e+02 -7.709547265854e-01 0.0 
-7.709547265854e-01 -3.036663296639e+02 0.0 
0.0 0.0 -1.295624187641e+02 
-1.426691995584e+02 8.413121520045e-01 0.0 
8.413121520045e-01 -3.341995889913e+02 0.0 
0.0 0.0 -1.426606365649e+02 
-1.304002133548e+02 -7.930555209801e-01 0.0 
-7.930555209801e-01 -3.056332078322e+02 0.0 
0.0 0.0 -1.304100263561e+02 
-1.258016005955e+02 -7.841004937496e-01 0.0 
-7.841004937496e-01 -2.949480726479e+02 0.0 
0.0 0.0 -1.258249019730e+02 
-1.376403545252e+02 -8.170075005512e-01 0.0 
-8.170075005512e-01 -3.225779817930e+02 0.0 
0.0 0.0 -1.376655008955e+02 
-1.437529942877e+02 7.944367439466e-01 0.0 
7.944367439466e-01 -3.364439516017e+02 0.0 
0.0 0.0 -1.436590837668e+02 
-1.340623161260e+02 -7.939249521257e-01 0.0 
-7.939249521257e-01 -3.141000559138e+02 0.0 
0.0 0.0 -1.340487116119e+02 
-1.079968014280e+02 -7.818226792207e-01 0.0 
-7.818226792207e-01 -2.533176944967e+02 0.0 
0.0 0.0 -1.079943487774e+02 
-7.673853931704e+01 -6.674326878429e-01 0.0 
-6.674326878429e-01 -1.803869313987e+02 0.0 
0.0 0.0 -7.673764121472e+01 
-1.296195192660e+02 7.661789663579e-01 0.0 
7.661789663579e-01 -3.038026233778e+02 0.0 
0.0 0.0 -1.296266427931e+02 
-1.233614324382e+02 -7.728057562778e-01 0.0 
-7.728057562778e-01 -2.891640428557e+02 0.0 
0.0 0.0 -1.233576425882e+02 
-4.647627378731e+01 -7.424457185502e-01 0.0 
-7.424457185502e-01 -1.097514548715e+02 0.0 
0.0 0.0 -4.646831859764e+01 
-8.767901506320e+01 7.510981997204e-01 0.0 
7.510981997204e-01 -2.059237911007e+02 0.0 
0.0 0.0 -8.768084184918e+01 
-9.913743874120e+01 -7.498171573068e-01 0.0 
-7.498171573068e-01 -2.326622157837e+02 0.0 
0.0 0.0 -9.913989635746e+01 
-1.096668453745e+02 7.862775696827e-01 0.0 
7.862775696827e-01 -2.572397354940e+02 0.0 
0.0 0.0 -1.096719742606e+02 
-4.697972498144e+01 -8.028075361375e-01 0.0 
-8.028075361375e-01 -1.109084183421e+02 0.0 
0.0 0.0 -4.696644299705e+01 
-8.414450216215e+01 7.534862182512e-01 0.0 
7.534862182512e-01 -1.976793662889e+02 0.0 
0.0 0.0 -8.414716053532e+01 
-1.178720269220e+02 7.921022106669e-01 0.0 
7.921022106669e-01 -2.763878443365e+02 0.0 
0.0 0.0 -1.178779613776e+02 
-8.778223024400e+01 -7.323594299783e-01 0.0 
-7.323594299783e-01 -2.062615056325e+02 0.0 
0.0 0.0 -8.781312076294e+01 
-9.141026249028e+01 -7.811153545600e-01 0.0 
-7.811153545600e-01 -2.145964554034e+02 0.0 
0.0 0.0 -9.140201536810e+01 
-1.168462644076e+02 8.181087541782e-01 0.0 
8.181087541782e-01 -2.737898097624e+02 0.0 
0.0 0.0 -1.167908222510e+02 
-9.263778179917e+01 -7.011107970669e-01 0.0 
-7.011107970669e-01 -2.174173927269e+02 0.0 
0.0 0.0 -9.261655235783e+01 
-1.557965299774e+01 -9.051098099031e-01 0.0 
-9.051098099031e-01 -3.824402107083e+01 0.0 
0.0 0.0 -1.574710222057e+01 
-1.045749545622e+02 7.785990069655e-01 0.0 
7.785990069655e-01 -2.453274093489e+02 0.0 
0.0 0.0 -1.045707091733e+02 
-1.284611670701e+02 -7.659170548944e-01 0.0 
-7.659170548944e-01 -3.010603231680e+02 0.0 
0.0 0.0 -1.284564470714e+02 
-1.469325150229e+02 -8.114302001326e-01 0.0 
-8.114302001326e-01 -3.441030593543e+02 0.0 
0.0 0.0 -1.469106723131e+02 
-9.669607223893e+01 -7.592265975897e-01 0.0 
-7.592265975897e-01 -2.269807723569e+02 0.0 
0.0 0.0 -9.670305337874e+01 
-9.969907532111e+01 -7.842641791520e-01 0.0 
-7.842641791520e-01 -2.339473661697e+02 0.0 
0.0 0.0 -9.969393244724e+01 
-1.175891326132e+02 7.905878879966e-01 0.0 
7.905878879966e-01 -2.758108828020e+02 0.0 
0.0 0.0 -1.176200046246e+02 
-2.396445769015e+01 -9.072849305348e-01 0.0 
-9.072849305348e-01 -5.806470399215e+01 0.0 
0.0 0.0 -2.420874850469e+01 
-1.248717415086e+02 -7.587375810165e-01 0.0 
-7.587375810165e-01 -2.926968968202e+02 0.0 
0.0 0.0 -1.248705914986e+02 
-1.050477280783e+02 7.796003600927e-01 0.0 
7.796003600927e-01 -2.464524913505e+02 0.0 
0.0 0.0 -1.050500658286e+02 
-9.233179490285e+01 7.466488753997e-01 0.0 
7.466488753997e-01 -2.168561187280e+02 0.0 
0.0 0.0 -9.235637408926e+01 
-1.258981323527e+02 7.694792475751e-01 0.0 
7.694792475751e-01 -2.950899866683e+02 0.0 
0.0 0.0 -1.258964357063e+02 
-4.619549006710e+01 6.918596951793e-01 0.0 
6.918596951793e-01 -1.090752518906e+02 0.0 
0.0 0.0 -4.618122258730e+01 
-1.306150429300e+02 7.769012252624e-01 0.0 
7.769012252624e-01 -3.060696774679e+02 0.0 
0.0 0.0 -1.306054161193e+02 
-1.434988427339e+02 -8.031643209348e-01 0.0 
-8.031643209348e-01 -3.361603776662e+02 0.0 
0.0 0.0 -1.434977661200e+02 
-1.212712587033e+02 -7.481204468447e-01 0.0 
-7.481204468447e-01 -2.843268385467e+02 0.0 
0.0 0.0 -1.212794291750e+02 
-1.305286861306e+02 7.987972668246e-01 0.0 
7.987972668246e-01 -3.059600304346e+02 0.0 
0.0 0.0 -1.305466149696e+02 
-1.329140869354e+02 8.059570811566e-01 0.0 
8.059570811566e-01 -3.114225251285e+02 0.0 
0.0 0.0 -1.329009836192e+02 
-1.437026815534e+02 8.122460647560e-01 0.0 
8.122460647560e-01 -3.365401637032e+02 0.0 
0.0 0.0 -1.436728535770e+02 
-3.238522994007e+01 -9.411726976162e-01 0.0 
-9.411726976162e-01 -7.791261117956e+01 0.0 
0.0 0.0 -3.268935233589e+01 
-1.214090289155e+02 7.844431567595e-01 0.0 
7.844431567595e-01 -2.845802558977e+02 0.0 
0.0 0.0 -1.213967854440e+02 
-1.443837011432e+02 7.652805659685e-01 0.0 
7.652805659685e-01 -3.380943533030e+02 0.0 
0.0 0.0 -1.443434163339e+02 
-1.341309573013e+02 -7.825396149070e-01 0.0 
-7.825396149070e-01 -3.143919659352e+02 0.0 
0.0 0.0 -1.341568769710e+02 
-1.130626777969e+02 -7.533172244475e-01 0.0 
-7.533172244475e-01 -2.651666627042e+02 0.0 
0.0 0.0 -1.130688021503e+02 
-8.872221694613e+01 7.674398435878e-01 0.0 
7.674398435878e-01 -2.083637901545e+02 0.0 
0.0 0.0 -8.872580213019e+01 
-9.759080349237e+01 -7.513938101871e-01 0.0 
-7.513938101871e-01 -2.290189941337e+02 0.0 
0.0 0.0 -9.758293928783e+01 
-2.714281752795e+01 -8.226939159833e-01 0.0 
-8.226939159833e-01 -6.444935848359e+01 0.0 
0.0 0.0 -2.707765280346e+01 
-1.387323055310e+02 -7.984527677131e-01 0.0 
-7.984527677131e-01 -3.250787143868e+02 0.0 
0.0 0.0 -1.387433059753e+02 
-5.019085120468e+01 -7.887779056408e-01 0.0 
-7.887779056408e-01 -1.183438786034e+02 0.0 
0.0 0.0 -5.016041894243e+01 
-4.067203082089e+01 -7.424233220634e-01 0.0 
-7.424233220634e-01 -9.704186644243e+01 0.0 
0.0 0.0 -4.091416917900e+01 
-1.293251347841e+02 7.557119818234e-01 0.0 
7.557119818234e-01 -3.030293249529e+02 0.0 
0.0 0.0 -1.293063379211e+02 
-1.481093625369e+02 -7.688804942069e-01 0.0 
-7.688804942069e-01 -3.469305069023e+02 0.0 
0.0 0.0 -1.481119608318e+02 
-4.145711396670e+01 7.323550983682e-01 0.0 
7.323550983682e-01 -9.799211508695e+01 0.0 
0.0 0.0 -4.143476871610e+01 
-1.017250185781e+02 7.572733979301e-01 0.0 
7.572733979301e-01 -2.387148131807e+02 0.0 
0.0 0.0 -1.017319495276e+02 
-1.249807788135e+02 -7.794428460974e-01 0.0 
-7.794428460974e-01 -2.929543006179e+02 0.0 
0.0 0.0 -1.249805238294e+02 
-9.521713448892e+01 7.829590625252e-01 0.0 
7.829590625252e-01 -2.234765501875e+02 0.0 
0.0 0.0 -9.520810540293e+01 
-4.717787028010e+01 7.651850678435e-01 0.0 
7.651850678435e-01 -1.113467163680e+02 0.0 
0.0 0.0 -4.715737599443e+01 
-6.252191257200e+01 -7.577016850520e-01 0.0 
-7.577016850520e-01 -1.472987650439e+02 0.0 
0.0 0.0 -6.254620328477e+01 
-3.204820823182e+01 -6.576481277692e-01 0.0 
-6.576481277692e-01 -7.553659682087e+01 0.0 
0.0 0.0 -3.187544151581e+01 
-4.136527605769e+01 -7.742523122479e-01 0.0 
-7.742523122479e-01 -9.768588732690e+01 0.0 
0.0 0.0 -4.131534901538e+01 
-3.662596631960e+01 -7.690162858830e-01 0.0 
-7.690162858830e-01 -8.681934321969e+01 0.0 
0.0 0.0 -3.663359286179e+01 
-1.048714949500e+02 -7.546508859114e-01 0.0 
-7.546508859114e-01 -2.460504422471e+02 0.0 
0.0 0.0 -1.048765811591e+02 
-1.646051846674e+02 -1.971939271496e-02 0.0 
-1.971939271496e-02 -3.847077578693e+02 0.0 
0.0 0.0 -1.643938827610e+02 
-4.910465370731e+01 -6.969901131553e-01 0.0 
-6.969901131553e-01 -1.165109727281e+02 0.0 
0.0 0.0 -4.928468793062e+01 
-1.412665242850e+02 -7.690974505658e-01 0.0 
-7.690974505658e-01 -3.310227633417e+02 0.0 
0.0 0.0 -1.412867862880e+02 
-7.689966333437e+01 -7.610434110136e-01 0.0 
-7.610434110136e-01 -1.807948684365e+02 0.0 
0.0 0.0 -7.690835953127e+01 
-1.206162288732e+02 8.305753570286e-01 0.0 
8.305753570286e-01 -2.826920774527e+02 0.0 
0.0 0.0 -1.205924918978e+02 
-3.524286480199e+01 -7.887274490681e-01 0.0 
-7.887274490681e-01 -8.363315246634e+01 0.0 
0.0 0.0 -3.526280518050e+01 
-1.483451970717e+02 7.677867226528e-01 0.0 
7.677867226528e-01 -3.475875286205e+02 0.0 
0.0 0.0 -1.483798177076e+02 
-3.687987164760e+01 7.043568698024e-01 0.0 
7.043568698024e-01 -8.712702801004e+01 0.0 
0.0 0.0 -3.680206989729e+01 
-5.887418368479e+01 -7.920038501599e-01 0.0 
-7.920038501599e-01 -1.384564829213e+02 0.0 
0.0 0.0 -5.879919998183e+01 
-1.258888350504e+02 -7.492987472074e-01 0.0 
-7.492987472074e-01 -2.951433128496e+02 0.0 
0.0 0.0 -1.259096443700e+02 
-9.011612381552e+01 7.581492797752e-01 0.0 
7.581492797752e-01 -2.116023361479e+02 0.0 
0.0 0.0 -9.011553798902e+01 
-1.400550474483e+02 7.746303632073e-01 0.0 
7.746303632073e-01 -3.279670868059e+02 0.0 
0.0 0.0 -1.400066402763e+02 
-6.905195446409e+01 7.795563700475e-01 0.0 
7.795563700475e-01 -1.624206471335e+02 0.0 
0.0 0.0 -6.904178047929e+01 
-1.280121138819e+02 7.693490599466e-01 0.0 
7.693490599466e-01 -3.000704563897e+02 0.0 
0.0 0.0 -1.280247710815e+02 
-1.472498252330e+02 -7.857092401515e-01 0.0 
-7.857092401515e-01 -3.444001718596e+02 0.0 
0.0 0.0 -1.470949991278e+02 
-1.212169586622e+02 -7.965522406016e-01 0.0 
-7.965522406016e-01 -2.842486399816e+02 0.0 
0.0 0.0 -1.212396795931e+02 
-1.469306108495e+02 7.381729894227e-01 0.0 
7.381729894227e-01 -3.444352108398e+02 0.0 
0.0 0.0 -1.470097465068e+02 
-1.334351923038e+02 8.108504737568e-01 0.0 
8.108504737568e-01 -3.126452127075e+02 0.0 
0.0 0.0 -1.334241215034e+02 
-1.371380290839e+02 8.076418547199e-01 0.0 
8.076418547199e-01 -3.213237140217e+02 0.0 
0.0 0.0 -1.371385229317e+02 
-4.118978841978e+01 -7.191918519949e-01 0.0 
-7.191918519949e-01 -9.742879861535e+01 0.0 
0.0 0.0 -4.118557611054e+01 
-1.365115743549e+02 -7.337564812723e-01 0.0 
-7.337564812723e-01 -3.199011446167e+02 0.0 
0.0 0.0 -1.365238156915e+02 
-1.287364675993e+02 -7.568012506890e-01 0.0 
-7.568012506890e-01 -3.016908571887e+02 0.0 
0.0 0.0 -1.287281974364e+02 
-9.410209730174e+01 -7.646337524523e-01 0.0 
-7.646337524523e-01 -2.209607764379e+02 0.0 
0.0 0.0 -9.411886212188e+01 
-5.738326586122e+01 -7.433525255158e-01 0.0 
-7.433525255158e-01 -1.360331430304e+02 0.0 
0.0 0.0 -5.762492266750e+01 
-1.519963828380e+02 7.764583026987e-01 0.0 
7.764583026987e-01 -3.553253830162e+02 0.0 
0.0 0.0 -1.517965297563e+02 
-4.802156473872e+01 -7.958800303736e-01 0.0 
-7.958800303736e-01 -1.134353788041e+02 0.0 
0.0 0.0 -4.803708306283e+01 
-5.509815958888e+01 8.766784810161e-01 0.0 
8.766784810161e-01 -1.297021950703e+02 0.0 
0.0 0.0 -5.504010639777e+01 
-1.352166393205e+02 -8.078735494917e-01 0.0 
-8.078735494917e-01 -3.168252735503e+02 0.0 
0.0 0.0 -1.352125738612e+02 
-3.343311485112e+01 6.583565435362e-01 0.0 
6.583565435362e-01 -7.943120889184e+01 0.0 
0.0 0.0 -3.345929712289e+01 
-9.626384783321e+01 7.412585184353e-01 0.0 
7.412585184353e-01 -2.259550545728e+02 0.0 
0.0 0.0 -9.626567072179e+01 
-1.294514350630e+02 -7.283699646515e-01 0.0 
-7.283699646515e-01 -3.034455473251e+02 0.0 
0.0 0.0 -1.294690947164e+02 
-1.451893161139e+02 7.247959586945e-01 0.0 
7.247959586945e-01 -3.401155625519e+02 0.0 
0.0 0.0 -1.451914635997e+02 
-1.489766498581e+02 7.072685910412e-01 0.0 
7.072685910412e-01 -3.490928828554e+02 0.0 
0.0 0.0 -1.490208598141e+02 
-1.260654552299e+02 7.955504652658e-01 0.0 
7.955504652658e-01 -2.955402525462e+02 0.0 
0.0 0.0 -1.260817123328e+02 
-1.380249957995e+02 8.270212498569e-01 0.0 
8.270212498569e-01 -3.234168883304e+02 0.0 
0.0 0.0 -1.380325652390e+02 
-8.147415157899e+01 -7.655862290280e-01 0.0 
-7.655862290280e-01 -1.914930231465e+02 0.0 
0.0 0.0 -8.149015241763e+01 
-1.302960481306e+02 7.969596681878e-01 0.0 
7.969596681878e-01 -3.053563084650e+02 0.0 
0.0 0.0 -1.302957069787e+02 
-6.582409344913e+01 -7.551555420424e-01 0.0 
-7.551555420424e-01 -1.556787450925e+02 0.0 
0.0 0.0 -6.605085156247e+01 
-1.445934735523e+02 -7.180863411350e-01 0.0 
-7.180863411350e-01 -3.389761220097e+02 0.0 
0.0 0.0 -1.446708786686e+02 
-7.423746262750e+01 -7.405479278130e-01 0.0 
-7.405479278130e-01 -1.753404802786e+02 0.0 
0.0 0.0 -7.447338287182e+01 
-7.902859314549e+01 -5.917919298448e-01 0.0 
-5.917919298448e-01 -1.852553856354e+02 0.0 
0.0 0.0 -7.888519363426e+01 
-9.314387729376e+01 -7.622896920160e-01 0.0 
-7.622896920160e-01 -2.186975058196e+02 0.0 
0.0 0.0 -9.315241493402e+01 
-8.286255152413e+01 -8.175066630002e-01 0.0 
-8.175066630002e-01 -1.952387159312e+02 0.0 
0.0 0.0 -8.303038023661e+01 
-1.077099219482e+02 7.456648843841e-01 0.0 
7.456648843841e-01 -2.527017196137e+02 0.0 
0.0 0.0 -1.077234924685e+02 
-8.724024231888e+01 7.562513049536e-01 0.0 
7.562513049536e-01 -2.049353860191e+02 0.0 
0.0 0.0 -8.725268850140e+01 
-9.226218643686e+01 7.686329267066e-01 0.0 
7.686329267066e-01 -2.166214034022e+02 0.0 
0.0 0.0 -9.226507695173e+01 
-4.227161085960e+01 -7.899210973194e-01 0.0 
-7.899210973194e-01 -9.991266775142e+01 0.0 
0.0 0.0 -4.225528358331e+01 
-8.854410000898e+01 -7.627397230550e-01 0.0 
-7.627397230550e-01 -2.079556701763e+02 0.0 
0.0 0.0 -8.854993105557e+01 
-1.424830138998e+02 -7.710334368596e-01 0.0 
-7.710334368596e-01 -3.338458046677e+02 0.0 
0.0 0.0 -1.424986455702e+02 
-1.468477859717e+02 -9.721284809828e-01 0.0 
-9.721284809828e-01 -3.438124031135e+02 0.0 
0.0 0.0 -1.467980567256e+02 
-1.282273393210e+02 -7.633505727086e-01 0.0 
-7.633505727086e-01 -3.005635848992e+02 0.0 
0.0 0.0 -1.282372772661e+02 
-1.435016148489e+02 -7.785812228206e-01 0.0 
-7.785812228206e-01 -3.360020429447e+02 0.0 
0.0 0.0 -1.434510973381e+02 
-8.992877141231e+01 -7.690429960432e-01 0.0 
-7.690429960432e-01 -2.111814918175e+02 0.0 
0.0 0.0 -8.993307896895e+01 
-1.370266656878e+02 -7.728955363316e-01 0.0 
-7.728955363316e-01 -3.210036489165e+02 0.0 
0.0 0.0 -1.370090943813e+02 
-9.208593254747e+01 -7.631233710466e-01 0.0 
-7.631233710466e-01 -2.162188317604e+02 0.0 
0.0 0.0 -9.209142929237e+01 
-1.401964334635e+02 -7.609222933467e-01 0.0 
-7.609222933467e-01 -3.283425261273e+02 0.0 
0.0 0.0 -1.401616878772e+02 
-1.332752434973e+02 -7.493431269559e-01 0.0 
-7.493431269559e-01 -3.123144990456e+02 0.0 
0.0 0.0 -1.332769227629e+02 
-1.325570718384e+02 7.925686940614e-01 0.0 
7.925686940614e-01 -3.106612790181e+02 0.0 
0.0 0.0 -1.325655052569e+02 
-1.166371036836e+02 -7.588239498806e-01 0.0 
-7.588239498806e-01 -2.734856140311e+02 0.0 
0.0 0.0 -1.166368153144e+02 
-8.500216174781e+01 -7.627180438490e-01 0.0 
-7.627180438490e-01 -1.997161596964e+02 0.0 
0.0 0.0 -8.501549643328e+01 
-1.382382791051e+02 7.340958159668e-01 0.0 
7.340958159668e-01 -3.239342643893e+02 0.0 
0.0 0.0 -1.382517630483e+02 
-1.114379026543e+02 -7.455770767619e-01 0.0 
-7.455770767619e-01 -2.614679151792e+02 0.0 
0.0 0.0 -1.114717453500e+02 
-4.238329045844e+01 8.233936255931e-01 0.0 
8.233936255931e-01 -1.003286825298e+02 0.0 
0.0 0.0 -4.241359189646e+01 
-4.823438695887e+01 7.340141401317e-01 0.0 
7.340141401317e-01 -1.138764136343e+02 0.0 
0.0 0.0 -4.823324017796e+01 
-7.217481059251e+01 -7.209822854836e-01 0.0 
-7.209822854836e-01 -1.697379625185e+02 0.0 
0.0 0.0 -7.217383193329e+01 
-1.015592466843e+02 -7.411436372573e-01 0.0 
-7.411436372573e-01 -2.383447623785e+02 0.0 
0.0 0.0 -1.015712027189e+02 
-1.438963329979e+02 -7.978999650542e-01 0.0 
-7.978999650542e-01 -3.369736532586e+02 0.0 
0.0 0.0 -1.438609958769e+02 
-1.288585724836e+02 8.158200498397e-01 0.0 
8.158200498397e-01 -3.020101058429e+02 0.0 
0.0 0.0 -1.288606034980e+02 
-8.519039074592e+01 7.649651535542e-01 0.0 
7.649651535542e-01 -2.001307230587e+02 0.0 
0.0 0.0 -8.519633414138e+01 
-1.141550540160e+02 7.745004631557e-01 0.0 
7.745004631557e-01 -2.676926820838e+02 0.0 
0.0 0.0 -1.141543208299e+02 
-1.331652262604e+02 -7.890974647406e-01 0.0 
-7.890974647406e-01 -3.120439627900e+02 0.0 
0.0 0.0 -1.331627567151e+02 
-1.388762976042e+02 8.089375913302e-01 0.0 
8.089375913302e-01 -3.254216759672e+02 0.0 
0.0 0.0 -1.388893920714e+02 
-1.425109668415e+02 5.748861284566e-01 0.0 
5.748861284566e-01 -3.342442786477e+02 0.0 
0.0 0.0 -1.426265736468e+02 
-1.159802318978e+02 -7.456437565624e-01 0.0 
-7.456437565624e-01 -2.718864480972e+02 0.0 
0.0 0.0 -1.159600039985e+02 
-1.362235328733e+02 -7.742954865175e-01 0.0 
-7.742954865175e-01 -3.192273214097e+02 0.0 
0.0 0.0 -1.362352562849e+02 
-9.687815825875e+01 7.763943132724e-01 0.0 
7.763943132724e-01 -2.273891176756e+02 0.0 
0.0 0.0 -9.688018278029e+01 
-1.332482630357e+02 7.674367296442e-01 0.0 
7.674367296442e-01 -3.122848217145e+02 0.0 
0.0 0.0 -1.332599254250e+02 
-9.608766737019e+01 -7.513740578442e-01 0.0 
-7.513740578442e-01 -2.255609757071e+02 0.0 
0.0 0.0 -9.609459292319e+01 
-1.462346346641e+02 7.566391495633e-01 0.0 
7.566391495633e-01 -3.425819501626e+02 0.0 
0.0 0.0 -1.462449754480e+02 
-1.480740328923e+02 8.410172232719e-01 0.0 
8.410172232719e-01 -3.463659362467e+02 0.0 
0.0 0.0 -1.479319907417e+02 
-1.084225674144e+02 -7.590790174565e-01 0.0 
-7.590790174565e-01 -2.543249274351e+02 0.0 
0.0 0.0 -1.084242484548e+02 
-4.340168629362e+01 -8.112823513227e-01 0.0 
-8.112823513227e-01 -1.026139983304e+02 0.0 
0.0 0.0 -4.340470538719e+01 
-1.362364595006e+02 -7.351568267120e-01 0.0 
-7.351568267120e-01 -3.193011333033e+02 0.0 
0.0 0.0 -1.362612778412e+02 
-1.042119942071e+02 7.421796132851e-01 0.0 
7.421796132851e-01 -2.445131972453e+02 0.0 
0.0 0.0 -1.042175574357e+02 
-8.166183181203e+01 7.613389808381e-01 0.0 
7.613389808381e-01 -1.919135618006e+02 0.0 
0.0 0.0 -8.167261808380e+01 
-1.132447690254e+02 7.823497052399e-01 0.0 
7.823497052399e-01 -2.655726500546e+02 0.0 
0.0 0.0 -1.132452257240e+02 
-1.316697785373e+02 8.169954039322e-01 0.0 
8.169954039322e-01 -3.085492592675e+02 0.0 
0.0 0.0 -1.316657113415e+02 
-4.364291292484e+01 7.331517647577e-01 0.0 
7.331517647577e-01 -1.030744536523e+02 0.0 
0.0 0.0 -4.361520997313e+01 
-1.002410883007e+02 -7.554836592048e-01 0.0 
-7.554836592048e-01 -2.352415449769e+02 0.0 
0.0 0.0 -1.002447899833e+02 
-1.168245305653e+02 -7.198368872351e-01 0.0 
-7.198368872351e-01 -2.740195988398e+02 0.0 
0.0 0.0 -1.168532388215e+02 
-1.440768035007e+02 8.280591960000e-01 0.0 
8.280591960000e-01 -3.373760327207e+02 0.0 
0.0 0.0 -1.440358508664e+02 
-1.203535320168e+02 -7.056296876607e-01 0.0 
-7.056296876607e-01 -2.822052090932e+02 0.0 
0.0 0.0 -1.203676223330e+02 
-1.327134746789e+02 -7.764795517594e-01 0.0 
-7.764795517594e-01 -3.110078307894e+02 0.0 
0.0 0.0 -1.327163916405e+02 
-1.132820110085e+02 -7.196499466797e-01 0.0 
-7.196499466797e-01 -2.658048089648e+02 0.0 
0.0 0.0 -1.133260459920e+02 
-1.059711818046e+02 -7.980840472011e-01 0.0 
-7.980840472011e-01 -2.491842001150e+02 0.0 
0.0 0.0 -1.061466145759e+02 
-1.149445525658e+02 -7.420650666377e-01 0.0 
-7.420650666377e-01 -2.696291883849e+02 0.0 
0.0 0.0 -1.149721222852e+02 
-1.388397877300e+02 -8.229172084381e-01 0.0 
-8.229172084381e-01 -3.252273595613e+02 0.0 
0.0 0.0 -1.388201441874e+02 
-1.331461471789e+02 8.042201412096e-01 0.0 
8.042201412096e-01 -3.120284471623e+02 0.0 
0.0 0.0 -1.331523783023e+02 
-1.241994460756e+02 -7.371576638376e-01 0.0 
-7.371576638376e-01 -2.911223823366e+02 0.0 
0.0 0.0 -1.241965485237e+02 
-1.489371889258e+02 -7.055714003958e-01 0.0 
-7.055714003958e-01 -3.488225996743e+02 0.0 
0.0 0.0 -1.489279365800e+02 
-1.097279328677e+02 -7.320194755449e-01 0.0 
-7.320194755449e-01 -2.575800007690e+02 0.0 
0.0 0.0 -1.097923800910e+02 
-6.898956749599e+01 7.592769494209e-01 0.0 
7.592769494209e-01 -1.623311116827e+02 0.0 
0.0 0.0 -6.899620375361e+01 
-1.409754347711e+02 8.069370848359e-01 0.0 
8.069370848359e-01 -3.302829814301e+02 0.0 
0.0 0.0 -1.409775248604e+02 
-1.473327348656e+02 8.939275001261e-01 0.0 
8.939275001261e-01 -3.449388816454e+02 0.0 
0.0 0.0 -1.472814849533e+02 
-9.505089556085e+01 -7.503246250740e-01 0.0 
-7.503246250740e-01 -2.231469331324e+02 0.0 
0.0 0.0 -9.505934860797e+01 
-9.956343234873e+01 -7.577163333377e-01 0.0 
-7.577163333377e-01 -2.336614756232e+02 0.0 
0.0 0.0 -9.956747239159e+01 
-7.708546038331e+01 7.648785504342e-01 0.0 
7.648785504342e-01 -1.812156501978e+02 0.0 
0.0 0.0 -7.709033317435e+01 
-1.278723389982e+02 -7.679425215946e-01 0.0 
-7.679425215946e-01 -2.997194244178e+02 0.0 
0.0 0.0 -1.278775290248e+02 
-7.779165546177e+01 -7.717804997415e-01 0.0 
-7.717804997415e-01 -1.829418730511e+02 0.0 
0.0 0.0 -7.782005855387e+01 
-1.110775165736e+02 -7.879708602389e-01 0.0 
-7.879708602389e-01 -2.605635698855e+02 0.0 
0.0 0.0 -1.110923259377e+02 
-7.797629537318e+01 7.225340309558e-01 0.0 
7.225340309558e-01 -1.833111762759e+02 0.0 
0.0 0.0 -7.798624149473e+01 
-1.305489263963e+02 -7.834856882351e-01 0.0 
-7.834856882351e-01 -3.059955807498e+02 0.0 
0.0 0.0 -1.305633521438e+02 
-1.487930648969e+02 6.217020720868e-01 0.0 
6.217020720868e-01 -3.484761360607e+02 0.0 
0.0 0.0 -1.487807602873e+02 
-8.060663798711e+01 7.637472018411e-01 0.0 
7.637472018411e-01 -1.894348596320e+02 0.0 
0.0 0.0 -8.061244928574e+01 
-2.736219609052e+01 8.230206726902e-01 0.0 
8.230206726902e-01 -6.492347099837e+01 0.0 
0.0 0.0 -2.728570012667e+01 
-1.481113498553e+02 -7.869511587741e-01 0.0 
-7.869511587741e-01 -3.468508650452e+02 0.0 
0.0 0.0 -1.480886644702e+02 
-8.221729756962e+01 -7.207186635723e-01 0.0 
-7.207186635723e-01 -1.932640125865e+02 0.0 
0.0 0.0 -8.224439304685e+01 
-9.452566152479e+01 -7.556264380573e-01 0.0 
-7.556264380573e-01 -2.219064667722e+02 0.0 
0.0 0.0 -9.452963848909e+01 
-1.446805079748e+02 -8.041840870842e-01 0.0 
-8.041840870842e-01 -3.384564760836e+02 0.0 
0.0 0.0 -1.445410952175e+02 
-1.243148280331e+02 7.999082013613e-01 0.0 
7.999082013613e-01 -2.914328984616e+02 0.0 
0.0 0.0 -1.243243179484e+02 
-1.295110970560e+02 7.775819331151e-01 0.0 
7.775819331151e-01 -3.035587587737e+02 0.0 
0.0 0.0 -1.295209567489e+02 
-8.274005363359e+01 7.434720129673e-01 0.0 
7.434720129673e-01 -1.944178489336e+02 0.0 
0.0 0.0 -8.274737077016e+01 
-2.246212175078e+01 -7.666582988093e-01 0.0 
-7.666582988093e-01 -5.347918966849e+01 0.0 
0.0 0.0 -2.238239342578e+01 
-1.480155063620e+02 9.312766582605e-01 0.0 
9.312766582605e-01 -3.471250232726e+02 0.0 
0.0 0.0 -1.481421588904e+02 
-1.050409065749e+02 -7.441417642678e-01 0.0 
-7.441417642678e-01 -2.464459042588e+02 0.0 
0.0 0.0 -1.050460432501e+02 
-1.232429370235e+02 8.572829269970e-01 0.0 
8.572829269970e-01 -2.889436264711e+02 0.0 
0.0 0.0 -1.232559690484e+02 
-1.419280948393e+02 -7.440971705999e-01 0.0 
-7.440971705999e-01 -3.325711577011e+02 0.0 
0.0 0.0 -1.419497757621e+02 
-1.461341100997e+01 -5.016703176131e-01 0.0 
-5.016703176131e-01 -3.543947237758e+01 0.0 
0.0 0.0 -1.461586501626e+01 
-1.293450294712e+02 -8.001246536909e-01 0.0 
-8.001246536909e-01 -3.031388404742e+02 0.0 
0.0 0.0 -1.293451609836e+02 
-5.835308093744e+01 7.538113497315e-01 0.0 
7.538113497315e-01 -1.375120223388e+02 0.0 
0.0 0.0 -5.835953098287e+01 
-1.161425363630e+02 8.059289232984e-01 0.0 
8.059289232984e-01 -2.722063654427e+02 0.0 
0.0 0.0 -1.161046705417e+02 
-1.035068695000e+02 7.812536962092e-01 0.0 
7.812536962092e-01 -2.428246671452e+02 0.0 
0.0 0.0 -1.034994609936e+02 
-8.041815941059e+01 -7.582114471068e-01 0.0 
-7.582114471068e-01 -1.889937055879e+02 0.0 
0.0 0.0 -8.042355949955e+01 
-1.403615246492e+02 7.887834921311e-01 0.0 
7.887834921311e-01 -3.287547338760e+02 0.0 
0.0 0.0 -1.403348775576e+02 
-1.075519215318e+02 -7.645620556451e-01 0.0 
-7.645620556451e-01 -2.523055515126e+02 0.0 
0.0 0.0 -1.075572419133e+02 
-7.232213026745e+01 -7.644365774758e-01 0.0 
-7.644365774758e-01 -1.701093160069e+02 0.0 
0.0 0.0 -7.232943388231e+01 
-1.096905223982e+02 7.651547853282e-01 0.0 
7.651547853282e-01 -2.572775383703e+02 0.0 
0.0 0.0 -1.096904182306e+02 
-2.267697692166e+01 7.757218587840e-01 0.0 
7.757218587840e-01 -5.396661204732e+01 0.0 
0.0 0.0 -2.259307669069e+01 
-1.257771535000e+02 7.766758293396e-01 0.0 
7.766758293396e-01 -2.947778580492e+02 0.0 
0.0 0.0 -1.257665034647e+02 
-1.306912378208e+02 7.910334657409e-01 0.0 
7.910334657409e-01 -3.063934618460e+02 0.0 
0.0 0.0 -1.307254099001e+02 
-1.512542675893e+02 5.876840899561e-01 0.0 
5.876840899561e-01 -3.541561100770e+02 0.0 
0.0 0.0 -1.512231132999e+02 
-1.338803884034e+02 7.910111230641e-01 0.0 
7.910111230641e-01 -3.137082937488e+02 0.0 
0.0 0.0 -1.338766046456e+02 
-5.633955475689e+01 7.377441665200e-01 0.0 
7.377441665200e-01 -1.328003857062e+02 0.0 
0.0 0.0 -5.634198213893e+01 
-1.284330764718e+02 7.918114180589e-01 0.0 
7.918114180589e-01 -3.010012461321e+02 0.0 
0.0 0.0 -1.284302967812e+02 
-1.510108733758e+02 -7.260564492785e-01 0.0 
-7.260564492785e-01 -3.531284353312e+02 0.0 
0.0 0.0 -1.508417926121e+02 
-1.559986795746e+02 7.341111139306e-01 0.0 
7.341111139306e-01 -3.651594978369e+02 0.0 
0.0 0.0 -1.559474532234e+02 
-1.353480093334e+02 7.619976473618e-01 0.0 
7.619976473618e-01 -3.172165952791e+02 0.0 
0.0 0.0 -1.353693813838e+02 
-8.621348390650e+01 7.622690209323e-01 0.0 
7.622690209323e-01 -2.025369873148e+02 0.0 
0.0 0.0 -8.622514136639e+01 
-1.177044683612e+02 7.756792284059e-01 0.0 
7.756792284059e-01 -2.759597694807e+02 0.0 
0.0 0.0 -1.176992713526e+02 
-1.424962097308e+02 -6.891028873012e-01 0.0 
-6.891028873012e-01 -3.340500526307e+02 0.0 
0.0 0.0 -1.425638787084e+02 
-9.570774267245e+01 7.702436539967e-01 0.0 
7.702436539967e-01 -2.247589088390e+02 0.0 
0.0 0.0 -9.573999545345e+01 
-1.291421985846e+02 -7.409220135902e-01 0.0 
-7.409220135902e-01 -3.026447615062e+02 0.0 
0.0 0.0 -1.291360880272e+02 
-1.204758199329e+02 -7.656055625510e-01 0.0 
-7.656055625510e-01 -2.823729634436e+02 0.0 
0.0 0.0 -1.204546350129e+02 
-1.367411486254e+02 7.930216201819e-01 0.0 
7.930216201819e-01 -3.203340295268e+02 0.0 
0.0 0.0 -1.367225534457e+02 
-1.342103931697e+02 7.510873555470e-01 0.0 
7.510873555470e-01 -3.145052571566e+02 0.0 
0.0 0.0 -1.342146950979e+02 
-8.697199739120e+01 3.717244162290e-02 0.0 
3.717244162290e-02 -2.043523130958e+02 0.0 
0.0 0.0 -8.699729314611e+01 
-8.698567689402e+01 -1.369989767831e-01 0.0 
-1.369989767831e-01 -2.042919728957e+02 0.0 
0.0 0.0 -8.698329493693e+01 
-1.215418880496e+02 8.261748243407e-01 0.0 
8.261748243407e-01 -2.849929317003e+02 0.0 
0.0 0.0 -1.215604459250e+02 
-1.210666736118e+02 -7.439702744775e-01 0.0 
-7.439702744775e-01 -2.837930052113e+02 0.0 
0.0 0.0 -1.210579036469e+02 
-1.071160100333e+02 7.716270559931e-01 0.0 
7.716270559931e-01 -2.512499389312e+02 0.0 
0.0 0.0 -1.071097846894e+02 
-1.195676056426e+02 7.723226506880e-01 0.0 
7.723226506880e-01 -2.804022785010e+02 0.0 
0.0 0.0 -1.195909652431e+02 
-1.030296768169e+02 -7.565066837608e-01 0.0 
-7.565066837608e-01 -2.417686956424e+02 0.0 
0.0 0.0 -1.030395117378e+02 
-1.443536521833e+02 -5.282720729959e-01 0.0 
-5.282720729959e-01 -3.385142095271e+02 0.0 
0.0 0.0 -1.444603585131e+02 
-8.604010652948e+01 -7.630968632579e-01 0.0 
-7.630968632579e-01 -2.021369673535e+02 0.0 
0.0 0.0 -8.605312216488e+01 
-1.640090264063e+02 1.333384208455e-01 0.0 
1.333384208455e-01 -3.842020751978e+02 0.0 
0.0 0.0 -1.640633304812e+02 
-9.850026984451e+01 -6.184189810296e-01 0.0 
-6.184189810296e-01 -2.309605974206e+02 0.0 
0.0 0.0 -9.843826017952e+01 
-9.973140687754e+01 7.571725709735e-01 0.0 
7.571725709735e-01 -2.340638823828e+02 0.0 
0.0 0.0 -9.973858677810e+01 
-1.033143080005e+02 -7.758743235006e-01 0.0 
-7.758743235006e-01 -2.423834359499e+02 0.0 
0.0 0.0 -1.033093231851e+02 
-5.282329629410e+01 7.402909561052e-01 0.0 
7.402909561052e-01 -1.246237544407e+02 0.0 
0.0 0.0 -5.283411522044e+01 
-9.159462998918e+01 7.754701513044e-01 0.0 
7.754701513044e-01 -2.150199245693e+02 0.0 
0.0 0.0 -9.158436636755e+01 
-1.130241453412e+02 -7.452268633238e-01 0.0 
-7.452268633238e-01 -2.650559708180e+02 0.0 
0.0 0.0 -1.130240348478e+02 
-1.060155201399e+02 -7.456566259573e-01 0.0 
-7.456566259573e-01 -2.487601888811e+02 0.0 
0.0 0.0 -1.060327127063e+02 
-1.196907625860e+02 -7.385665746363e-01 0.0 
-7.385665746363e-01 -2.806097817780e+02 0.0 
0.0 0.0 -1.196901633092e+02 
-1.229552649288e+02 -7.496360934323e-01 0.0 
-7.496360934323e-01 -2.883039289963e+02 0.0 
0.0 0.0 -1.229777581775e+02 
-1.275195896737e+02 7.731268405123e-01 0.0 
7.731268405123e-01 -2.989734804802e+02 0.0 
0.0 0.0 -1.275479210462e+02 
-2.443200920496e+01 4.090899379804e-01 0.0 
4.090899379804e-01 -5.861175379797e+01 0.0 
0.0 0.0 -2.451312890088e+01 
-8.674225079147e+01 -7.842769223704e-01 0.0 
-7.842769223704e-01 -2.036913116245e+02 0.0 
0.0 0.0 -8.673006872480e+01 
-8.235590480024e+01 7.470204723692e-01 0.0 
7.470204723692e-01 -1.935678851471e+02 0.0 
0.0 0.0 -8.237713698421e+01 
-1.158598635649e+02 -7.180458272609e-01 0.0 
-7.180458272609e-01 -2.717880913431e+02 0.0 
0.0 0.0 -1.158943864724e+02 
-1.205469616279e+02 7.711280236103e-01 0.0 
7.711280236103e-01 -2.827075123870e+02 0.0 
0.0 0.0 -1.205763422045e+02 
-1.421348847433e+02 -7.221816287909e-01 0.0 
-7.221816287909e-01 -3.328682221225e+02 0.0 
0.0 0.0 -1.421009320598e+02 
-3.711686350094e+01 -8.408825999136e-01 0.0 
-8.408825999136e-01 -8.837290692954e+01 0.0 
0.0 0.0 -3.724693112914e+01 
-3.903328205876e+01 7.062421663217e-01 0.0 
7.062421663217e-01 -9.226465489193e+01 0.0 
0.0 0.0 -3.898938108521e+01 
-1.005685318633e+02 -7.494225217408e-01 0.0 
-7.494225217408e-01 -2.360144622320e+02 0.0 
0.0 0.0 -1.005748982286e+02 
-8.692146061826e+01 7.830755623432e-01 0.0 
7.830755623432e-01 -2.041056989441e+02 0.0 
0.0 0.0 -8.690814786870e+01 
-7.892119508763e+01 8.582627956905e-01 0.0 
8.582627956905e-01 -1.856385876177e+02 0.0 
0.0 0.0 -7.896793481158e+01 
-8.330706295780e+01 6.845072809729e-01 0.0 
6.845072809729e-01 -1.957260510936e+02 0.0 
0.0 0.0 -8.330993421543e+01 
-1.198344732594e+02 7.623454722355e-01 0.0 
7.623454722355e-01 -2.809227915677e+02 0.0 
0.0 0.0 -1.198271794481e+02 
-3.806797211651e+01 7.380719612945e-01 0.0 
7.380719612945e-01 -9.001304504966e+01 0.0 
0.0 0.0 -3.802430514985e+01 
-9.866952614300e+01 -7.670365552322e-01 0.0 
-7.670365552322e-01 -2.315387773347e+02 0.0 
0.0 0.0 -9.866249104330e+01 
-1.286177591999e+02 7.692618943915e-01 0.0 
7.692618943915e-01 -3.014603370143e+02 0.0 
0.0 0.0 -1.286234288642e+02 
-3.873342211460e+01 -8.255876573513e-01 0.0 
-8.255876573513e-01 -9.166707513546e+01 0.0 
0.0 0.0 -3.872014917502e+01 
-1.570111893088e+02 1.152585382154e-01 0.0 
1.152585382154e-01 -3.678046998409e+02 0.0 
0.0 0.0 -1.570447667449e+02 
-1.415657374153e+02 7.252939592288e-01 0.0 
7.252939592288e-01 -3.316709859326e+02 0.0 
0.0 0.0 -1.415710170044e+02 
-9.418795710976e+01 7.752356250755e-01 0.0 
7.752356250755e-01 -2.210357404656e+02 0.0 
0.0 0.0 -9.416710927259e+01 
-1.318680317976e+02 -7.654649193530e-01 0.0 
-7.654649193530e-01 -3.090019297462e+02 0.0 
0.0 0.0 -1.318609884631e+02 
-1.749163269304e+01 1.976399747381e-02 0.0 
1.976399747381e-02 -4.229270742313e+01 0.0 
0.0 0.0 -1.753530203485e+01 
-1.239803171001e+02 8.003259817738e-01 0.0 
8.003259817738e-01 -2.906734661155e+02 0.0 
0.0 0.0 -1.239961349647e+02 
-1.052056639660e+02 7.536653536950e-01 0.0 
7.536653536950e-01 -2.468292784272e+02 0.0 
0.0 0.0 -1.052104827180e+02 
-1.771068840948e+01 -3.810905513143e-02 0.0 
-3.810905513143e-02 -4.216419946336e+01 0.0 
0.0 0.0 -1.756246636185e+01 
-1.415141461855e+02 -7.175468126869e-01 0.0 
-7.175468126869e-01 -3.314652771094e+02 0.0 
0.0 0.0 -1.414938269885e+02 
-3.537161220566e+01 7.568727036816e-01 0.0 
7.568727036816e-01 -8.405071255565e+01 0.0 
0.0 0.0 -3.542669742839e+01 
-1.160379151892e+02 7.563187148739e-01 0.0 
7.563187148739e-01 -2.721861419077e+02 0.0 
0.0 0.0 -1.160672171291e+02 
-1.061861183219e+02 7.618014012463e-01 0.0 
7.618014012463e-01 -2.491233143341e+02 0.0 
0.0 0.0 -1.061928297968e+02 
-9.117941681178e+01 7.612733896044e-01 0.0 
7.612733896044e-01 -2.140980808433e+02 0.0 
0.0 0.0 -9.118324929651e+01 
-1.100278893473e+02 -7.978002685812e-01 0.0 
-7.978002685812e-01 -2.580839659017e+02 0.0 
0.0 0.0 -1.100335565747e+02 
-1.450785211948e+02 -7.187515281214e-01 0.0 
-7.187515281214e-01 -3.399412246328e+02 0.0 
0.0 0.0 -1.451059237483e+02 
-1.183817125634e+02 -8.105365751656e-01 0.0 
-8.105365751656e-01 -2.775581442918e+02 0.0 
0.0 0.0 -1.183819570566e+02 
-1.040423697949e+02 -7.495496932835e-01 0.0 
-7.495496932835e-01 -2.441176775637e+02 0.0 
0.0 0.0 -1.040480142076e+02 
-1.007344583845e+02 7.504154216790e-01 0.0 
7.504154216790e-01 -2.364012552347e+02 0.0 
0.0 0.0 -1.007407140858e+02 
-1.185196143689e+01 -7.268682531572e-01 0.0 
-7.268682531572e-01 -2.824606244811e+01 0.0 
0.0 0.0 -1.162940716550e+01 
-3.067357643900e+01 -7.495835483307e-01 0.0 
-7.495835483307e-01 -7.290830547195e+01 0.0 
0.0 0.0 -3.067456457329e+01 
-1.373123065466e+02 7.122784557604e-01 0.0 
7.122784557604e-01 -3.217466196865e+02 0.0 
0.0 0.0 -1.373176778699e+02 
-1.107929111002e+02 8.614937112726e-01 0.0 
8.614937112726e-01 -2.599796162497e+02 0.0 
0.0 0.0 -1.108317582049e+02 
-1.406465026357e+02 -7.258937739488e-01 0.0 
-7.258937739488e-01 -3.297454061875e+02 0.0 
0.0 0.0 -1.407175726470e+02 
-5.817858480871e+01 -7.769306115578e-01 0.0 
-7.769306115578e-01 -1.371060471338e+02 0.0 
0.0 0.0 -5.818538958277e+01 
-1.342340776486e+02 -7.882692491874e-01 0.0 
-7.882692491874e-01 -3.145966351043e+02 0.0 
0.0 0.0 -1.342492138259e+02 
-1.419830695521e+02 7.622008272925e-01 0.0 
7.622008272925e-01 -3.327515008575e+02 0.0 
0.0 0.0 -1.420203711229e+02 
-8.654510271383e+01 -7.125517084876e-01 0.0 
-7.125517084876e-01 -2.029170110328e+02 0.0 
0.0 0.0 -8.643863412400e+01 
-1.371104390011e+02 -6.685853309646e-01 0.0 
-6.685853309646e-01 -3.213164675710e+02 0.0 
0.0 0.0 -1.371280719716e+02 
-1.320580128355e+02 7.925668211996e-01 0.0 
7.925668211996e-01 -3.094353883979e+02 0.0 
0.0 0.0 -1.320480203700e+02 
-1.165215986785e+02 -7.553801371200e-01 0.0 
-7.553801371200e-01 -2.732101524429e+02 0.0 
0.0 0.0 -1.165195253364e+02 
-9.503424876656e+01 -7.826054906842e-01 0.0 
-7.826054906842e-01 -2.230561980046e+02 0.0 
0.0 0.0 -9.502713403136e+01 
-9.988251318329e+01 7.837510290050e-01 0.0 
7.837510290050e-01 -2.343682814620e+02 0.0 
0.0 0.0 -9.987523839360e+01 
-1.483896095761e+02 8.141971345744e-01 0.0 
8.141971345744e-01 -3.476663097046e+02 0.0 
0.0 0.0 -1.484167757842e+02 
-1.017616236927e+02 -7.852508815237e-01 0.0 
-7.852508815237e-01 -2.387853014594e+02 0.0 
0.0 0.0 -1.017640775456e+02 
-1.095273717621e+02 -7.416752953155e-01 0.0 
-7.416752953155e-01 -2.569136439115e+02 0.0 
0.0 0.0 -1.095323047021e+02 
-1.022204082831e+02 -7.887339644958e-01 0.0 
-7.887339644958e-01 -2.398957307695e+02 0.0 
0.0 0.0 -1.022348417158e+02 
-1.267705609806e+02 -7.928805853039e-01 0.0 
-7.928805853039e-01 -2.971386112412e+02 0.0 
0.0 0.0 -1.267727516666e+02 
-9.521160828458e+01 7.560849091384e-01 0.0 
7.560849091384e-01 -2.235297445638e+02 0.0 
0.0 0.0 -9.522240585451e+01 
-5.970668157039e+01 -7.761097325504e-01 0.0 
-7.761097325504e-01 -1.406648225728e+02 0.0 
0.0 0.0 -5.971145124297e+01 
-1.037763156542e+02 -7.591729673487e-01 0.0 
-7.591729673487e-01 -2.434820136303e+02 0.0 
0.0 0.0 -1.037774987854e+02 
-6.423329885903e+01 -7.659748298372e-01 0.0 
-7.659748298372e-01 -1.512429091577e+02 0.0 
0.0 0.0 -6.424286240502e+01 
-1.193895200613e+02 -7.455613703077e-01 0.0 
-7.455613703077e-01 -2.800168286803e+02 0.0 
0.0 0.0 -1.194219046225e+02 
-6.442929898854e+01 7.497895266584e-01 0.0 
7.497895266584e-01 -1.516631720192e+02 0.0 
0.0 0.0 -6.442774130231e+01 
-1.151146398266e+02 7.790249474792e-01 0.0 
7.790249474792e-01 -2.699971035466e+02 0.0 
0.0 0.0 -1.151335230120e+02 
-1.389100410299e+02 7.721264235740e-01 0.0 
7.721264235740e-01 -3.256086015558e+02 0.0 
0.0 0.0 -1.389555927757e+02 
-1.340856675784e+02 -7.508297564327e-01 0.0 
-7.508297564327e-01 -3.142630556814e+02 0.0 
0.0 0.0 -1.341046169779e+02 
-9.055510385530e+01 -7.570711824369e-01 0.0 
-7.570711824369e-01 -2.126708383003e+02 0.0 
0.0 0.0 -9.056778264667e+01 
-1.152505468855e+02 -7.648518769843e-01 0.0 
-7.648518769843e-01 -2.701439956694e+02 0.0 
0.0 0.0 -1.152183627665e+02 
-1.355127606354e+02 -7.638549473769e-01 0.0 
-7.638549473769e-01 -3.174634047477e+02 0.0 
0.0 0.0 -1.354928496149e+02 
-1.356974218792e+02 7.945787496442e-01 0.0 
7.945787496442e-01 -3.179001577071e+02 0.0 
0.0 0.0 -1.356792738759e+02 
-3.015766473658e+01 7.246376707337e-01 0.0 
7.246376707337e-01 -7.172100593348e+01 0.0 
0.0 0.0 -3.016360120102e+01 
-1.184488779292e+02 -7.456472095777e-01 0.0 
-7.456472095777e-01 -2.777875894013e+02 0.0 
0.0 0.0 -1.184709401992e+02 
-1.480079877894e+02 -9.805342700269e-01 0.0 
-9.805342700269e-01 -3.464974989100e+02 0.0 
0.0 0.0 -1.479516460098e+02 
-6.332494001774e+01 -7.122204946656e-01 0.0 
-7.122204946656e-01 -1.493015101618e+02 0.0 
0.0 0.0 -6.338793505387e+01 
-1.024124444585e+02 7.717989331565e-01 0.0 
7.717989331565e-01 -2.402864792732e+02 0.0 
0.0 0.0 -1.024096771195e+02 
-1.588794039533e+01 5.917716092698e-01 0.0 
5.917716092698e-01 -3.828366545515e+01 0.0 
0.0 0.0 -1.585148175514e+01 
-1.391482329635e+02 -7.546692807169e-01 0.0 
-7.546692807169e-01 -3.259092458960e+02 0.0 
0.0 0.0 -1.391172436579e+02 
-5.614851665595e+01 -7.758036043561e-01 0.0 
-7.758036043561e-01 -1.323848600059e+02 0.0 
0.0 0.0 -5.616001299854e+01 
-9.851406689704e+01 -5.696237886898e-01 0.0 
-5.696237886898e-01 -2.310148248724e+02 0.0 
0.0 0.0 -9.845866753082e+01 
-1.231144463986e+02 -8.725470182120e-01 0.0 
-8.725470182120e-01 -2.885934014304e+02 0.0 
0.0 0.0 -1.231123543487e+02 
-1.153931920290e+02 7.606469138714e-01 0.0 
7.606469138714e-01 -2.704881448153e+02 0.0 
0.0 0.0 -1.153644010533e+02 
-1.109116244749e+02 -6.994963997779e-01 0.0 
-6.994963997779e-01 -2.597391589447e+02 0.0 
0.0 0.0 -1.107952350259e+02 
-1.085279663533e+02 -7.507754810342e-01 0.0 
-7.507754810342e-01 -2.545803476512e+02 0.0 
0.0 0.0 -1.085324942013e+02 
-7.041022192485e+01 7.870484895117e-01 0.0 
7.870484895117e-01 -1.658364003762e+02 0.0 
0.0 0.0 -7.047398669032e+01 
-7.480635313448e+01 6.310061684709e-01 0.0 
6.310061684709e-01 -1.758917584849e+02 0.0 
0.0 0.0 -7.480943348583e+01 
-1.392953800625e+02 7.696861962514e-01 0.0 
7.696861962514e-01 -3.263299834992e+02 0.0 
0.0 0.0 -1.392876090685e+02 
-1.147807008017e+02 8.310211370774e-01 0.0 
8.310211370774e-01 -2.691680081465e+02 0.0 
0.0 0.0 -1.147846126845e+02 
-9.932910653920e+01 7.583192032031e-01 0.0 
7.583192032031e-01 -2.330998662135e+02 0.0 
0.0 0.0 -9.932869182580e+01 
-1.238447953444e+02 -8.211827422812e-01 0.0 
-8.211827422812e-01 -2.903266888884e+02 0.0 
0.0 0.0 -1.238514452699e+02 
-9.562715197342e+01 -7.553279875919e-01 0.0 
-7.553279875919e-01 -2.244788577968e+02 0.0 
0.0 0.0 -9.563180293106e+01 
-6.090830723111e+01 7.457978054691e-01 0.0 
7.457978054691e-01 -1.434730146291e+02 0.0 
0.0 0.0 -6.091439655807e+01 
-7.050904702632e+01 -5.987003793584e-01 0.0 
-5.987003793584e-01 -1.654228131592e+02 0.0 
0.0 0.0 -7.037955805565e+01 
-1.027086532084e+02 7.022359743900e-01 0.0 
7.022359743900e-01 -2.413070430577e+02 0.0 
0.0 0.0 -1.028047088798e+02 
-8.702372198185e+01 -3.121524163219e-02 0.0 
-3.121524163219e-02 -2.044969319386e+02 0.0 
0.0 0.0 -8.705619617614e+01 
-1.342047487117e+02 7.745145683627e-01 0.0 
7.745145683627e-01 -3.146229223308e+02 0.0 
0.0 0.0 -1.342483013128e+02 
-9.071874020518e+01 7.549815662945e-01 0.0 
7.549815662945e-01 -2.130540132534e+02 0.0 
0.0 0.0 -9.073182603757e+01 
-1.517534011857e+02 -7.089956807358e-01 0.0 
-7.089956807358e-01 -3.548024212952e+02 0.0 
0.0 0.0 -1.515667467443e+02 
-1.373657216264e+02 -8.983037852717e-01 0.0 
-8.983037852717e-01 -3.217719480706e+02 0.0 
0.0 0.0 -1.373413009091e+02 
-1.004256655899e+02 7.707195674778e-01 0.0 
7.707195674778e-01 -2.356641557182e+02 0.0 
0.0 0.0 -1.004269463924e+02 
-1.526824972617e+02 8.566957714811e-01 0.0 
8.566957714811e-01 -3.576308287877e+02 0.0 
0.0 0.0 -1.526939978148e+02 
-6.799178534268e+01 7.635119045837e-01 0.0 
7.635119045837e-01 -1.599806607794e+02 0.0 
0.0 0.0 -6.799173383661e+01 
-1.477187836109e+02 -7.422432867671e-01 0.0 
-7.422432867671e-01 -3.461092784161e+02 0.0 
0.0 0.0 -1.477484186081e+02 
-1.086989084362e+02 7.536088883028e-01 0.0 
7.536088883028e-01 -2.549769699947e+02 0.0 
0.0 0.0 -1.087027635293e+02 
-1.199905011183e+02 -7.502229319054e-01 0.0 
-7.502229319054e-01 -2.813284202966e+02 0.0 
0.0 0.0 -1.199956764245e+02 
-1.408661468733e+02 7.371012121574e-01 0.0 
7.371012121574e-01 -3.299766723626e+02 0.0 
0.0 0.0 -1.408528457708e+02 
-7.154815929709e+01 7.370557366672e-01 0.0 
7.370557366672e-01 -1.682423392988e+02 0.0 
0.0 0.0 -7.153714957876e+01 
-1.139944401954e+02 -7.514030722228e-01 0.0 
-7.514030722228e-01 -2.673753327827e+02 0.0 
0.0 0.0 -1.140109318934e+02 
-9.580844000124e+01 7.543020850794e-01 0.0 
7.543020850794e-01 -2.248850164567e+02 0.0 
0.0 0.0 -9.580803693737e+01 
-1.106217637763e+02 7.639606241826e-01 0.0 
7.639606241826e-01 -2.594989255008e+02 0.0 
0.0 0.0 -1.106362067831e+02 
-6.271375619405e+01 7.412006984101e-01 0.0 
7.412006984101e-01 -1.476939258688e+02 0.0 
0.0 0.0 -6.272230461885e+01 
-1.236261275438e+02 -8.437437691794e-01 0.0 
-8.437437691794e-01 -2.898367774914e+02 0.0 
0.0 0.0 -1.236388715106e+02 
-9.100037561444e+01 -7.602271966965e-01 0.0 
-7.602271966965e-01 -2.136739167246e+02 0.0 
0.0 0.0 -9.100228770172e+01 
-1.069229650477e+02 -7.674495265135e-01 0.0 
-7.674495265135e-01 -2.508023788789e+02 0.0 
0.0 0.0 -1.069176031780e+02 
-1.104543314266e+02 -7.351523766999e-01 0.0 
-7.351523766999e-01 -2.591411118395e+02 0.0 
0.0 0.0 -1.104786329798e+02 
-1.380163221570e+01 4.746222240772e-01 0.0 
4.746222240772e-01 -3.440588649225e+01 0.0 
0.0 0.0 -1.406225561239e+01 
-1.104280549811e+02 -8.230834059400e-01 0.0 
-8.230834059400e-01 -2.590316929952e+02 0.0 
0.0 0.0 -1.104379243929e+02 
-2.364839966417e+01 7.851863362367e-01 0.0 
7.851863362367e-01 -5.626046112370e+01 0.0 
0.0 0.0 -2.357265823636e+01 
-2.625783838843e+01 -8.335360915053e-01 0.0 
-8.335360915053e-01 -6.289060372993e+01 0.0 
0.0 0.0 -2.634453263551e+01 
-1.022199231241e+02 -7.509699895844e-01 0.0 
-7.509699895844e-01 -2.398229430979e+02 0.0 
0.0 0.0 -1.022128598666e+02 
-1.347458665764e+02 8.007185304125e-01 0.0 
8.007185304125e-01 -3.158014020233e+02 0.0 
0.0 0.0 -1.347641805799e+02 
-1.142576391242e+02 -7.118395138790e-01 0.0 
-7.118395138790e-01 -2.677965013939e+02 0.0 
0.0 0.0 -1.142162421554e+02 
-6.200730792036e+01 7.795290052499e-01 0.0 
7.795290052499e-01 -1.462889731572e+02 0.0 
0.0 0.0 -6.208888432328e+01 
-1.642650676115e+02 -5.493972070062e-02 0.0 
-5.493972070062e-02 -3.846184910934e+02 0.0 
0.0 0.0 -1.642650676115e+02 
-7.818820233497e+00 -4.723337764436e-01 0.0 
-4.723337764436e-01 -1.779656765841e+01 0.0 
0.0 0.0 -7.392194383991e+00 
-6.632385548110e+01 5.303935612251e-01 0.0 
5.303935612251e-01 -1.561952980865e+02 0.0 
0.0 0.0 -6.635574607028e+01 
-1.026470535158e+02 -7.461884429706e-01 0.0 
-7.461884429706e-01 -2.408526299156e+02 0.0 
0.0 0.0 -1.026499050294e+02 
-9.777670977887e+01 7.820546730033e-01 0.0 
7.820546730033e-01 -2.294566959609e+02 0.0 
0.0 0.0 -9.777002172194e+01 
-8.123136202842e+01 6.619521987592e-01 0.0 
6.619521987592e-01 -1.909345558351e+02 0.0 
0.0 0.0 -8.124977535905e+01 
-7.034090896896e+01 -7.327077934615e-01 0.0 
-7.327077934615e-01 -1.654620354704e+02 0.0 
0.0 0.0 -7.034088333182e+01 
-1.064444738820e+02 7.943698367183e-01 0.0 
7.943698367183e-01 -2.497176369150e+02 0.0 
0.0 0.0 -1.064486332391e+02 
-1.131953804585e+02 7.659274213877e-01 0.0 
7.659274213877e-01 -2.654527504514e+02 0.0 
0.0 0.0 -1.131944392730e+02 
-1.187049679195e+02 -8.147195250511e-01 0.0 
-8.147195250511e-01 -2.783284426049e+02 0.0 
0.0 0.0 -1.187100231573e+02 
-1.399087515306e+02 -8.142691919710e-01 0.0 
-8.142691919710e-01 -3.280762716229e+02 0.0 
0.0 0.0 -1.399955069460e+02 
-3.328868171267e+01 -7.286320881976e-01 0.0 
-7.286320881976e-01 -7.895672033494e+01 0.0 
0.0 0.0 -3.327362061428e+01 
-9.398804015048e+01 -7.638702784937e-01 0.0 
-7.638702784937e-01 -2.206101863293e+02 0.0 
0.0 0.0 -9.397946794393e+01 
-1.012085812100e+02 -7.503587595115e-01 0.0 
-7.503587595115e-01 -2.374795692837e+02 0.0 
0.0 0.0 -1.012064451481e+02 
-5.366505700364e+01 8.165995946139e-01 0.0 
8.165995946139e-01 -1.264963620308e+02 0.0 
0.0 0.0 -5.364842571032e+01 
-9.065093434702e+01 -8.789546570356e-01 0.0 
-8.789546570356e-01 -2.128437781785e+02 0.0 
0.0 0.0 -9.064841375766e+01 
-1.143269603984e+02 8.039634647096e-01 0.0 
8.039634647096e-01 -2.681301632685e+02 0.0 
0.0 0.0 -1.143371371001e+02 
-1.250081084709e+02 7.805635668056e-01 0.0 
7.805635668056e-01 -2.929322956975e+02 0.0 
0.0 0.0 -1.249821212505e+02 
-1.753697706177e+01 -4.348540345950e-02 0.0 
-4.348540345950e-02 -4.214834779600e+01 0.0 
0.0 0.0 -1.750559745733e+01 
-1.105339073137e+01 1.009077726641e+00 0.0 
1.009077726641e+00 -2.665602953818e+01 0.0 
0.0 0.0 -1.091282608086e+01 
-3.721197872587e+01 7.451073189148e-01 0.0 
7.451073189148e-01 -8.820194532564e+01 0.0 
0.0 0.0 -3.722417721545e+01 
-1.013873770843e+02 7.765063641913e-01 0.0 
7.765063641913e-01 -2.379126586037e+02 0.0 
0.0 0.0 -1.013900107064e+02 
-7.607245624411e+01 7.502866846515e-01 0.0 
7.502866846515e-01 -1.788350153094e+02 0.0 
0.0 0.0 -7.607224146606e+01 
-6.702914905101e+01 7.343949574115e-01 0.0 
7.343949574115e-01 -1.577219765360e+02 0.0 
0.0 0.0 -6.702533767610e+01 
-5.989235956858e+01 7.472871517018e-01 0.0 
7.472871517018e-01 -1.410697253175e+02 0.0 
0.0 0.0 -5.988862546582e+01 
-1.058008143642e+02 -7.484049612290e-01 0.0 
-7.484049612290e-01 -2.481985582838e+02 0.0 
0.0 0.0 -1.057998117944e+02 
-1.213529378651e+02 -7.479482893995e-01 0.0 
-7.479482893995e-01 -2.844734547263e+02 0.0 
0.0 0.0 -1.213479177774e+02 
-1.048206073746e+02 -7.529997289595e-01 0.0 
-7.529997289595e-01 -2.459302062767e+02 0.0 
0.0 0.0 -1.048252440954e+02 
-7.587827943140e+01 -7.506167428518e-01 0.0 
-7.506167428518e-01 -1.784014932619e+02 0.0 
0.0 0.0 -7.588393180798e+01 
-1.186215527216e+02 8.077162502680e-01 0.0 
8.077162502680e-01 -2.781503028984e+02 0.0 
0.0 0.0 -1.186315566860e+02 
-1.001550640092e+02 -6.595673007910e-01 0.0 
-6.595673007910e-01 -2.346711926500e+02 0.0 
0.0 0.0 -1.000478769978e+02 
-1.316018747545e+02 -8.552292960490e-01 0.0 
-8.552292960490e-01 -3.082971549509e+02 0.0 
0.0 0.0 -1.315697089116e+02 
-1.050106084336e+02 7.780985735699e-01 0.0 
7.780985735699e-01 -2.463773908734e+02 0.0 
0.0 0.0 -1.050163997921e+02 
-1.059894860640e+02 7.695332094655e-01 0.0 
7.695332094655e-01 -2.486594875906e+02 0.0 
0.0 0.0 -1.059946920964e+02 
-5.348574255573e+01 7.915863603992e-01 0.0 
7.915863603992e-01 -1.263925367365e+02 0.0 
0.0 0.0 -5.356348378766e+01 
-7.958350896464e+01 7.442268223749e-01 0.0 
7.442268223749e-01 -1.870439444206e+02 0.0 
0.0 0.0 -7.958823601556e+01 
-1.084238746760e+02 -7.397938567251e-01 0.0 
-7.397938567251e-01 -2.543047959975e+02 0.0 
0.0 0.0 -1.084186012020e+02 
-1.172889617448e+02 -6.805946482899e-01 0.0 
-6.805946482899e-01 -2.751834127605e+02 0.0 
0.0 0.0 -1.173417123516e+02 
-1.094814418314e+02 -7.243383710745e-01 0.0 
-7.243383710745e-01 -2.570811483864e+02 0.0 
0.0 0.0 -1.095687770653e+02 
-5.787541527945e+01 6.185362510956e-01 0.0 
6.185362510956e-01 -1.366081602145e+02 0.0 
0.0 0.0 -5.794507264818e+01 
-1.094133268466e+02 -7.576168171741e-01 0.0 
-7.576168171741e-01 -2.566347722668e+02 0.0 
0.0 0.0 -1.094144297340e+02 
-6.592421812390e+01 7.165801980572e-01 0.0 
7.165801980572e-01 -1.551439091389e+02 0.0 
0.0 0.0 -6.592043817884e+01 
-3.141205294316e+01 -8.159811681525e-01 0.0 
-8.159811681525e-01 -7.469166125532e+01 0.0 
0.0 0.0 -3.143111425954e+01 
-1.482197914514e+02 7.687005200750e-01 0.0 
7.687005200750e-01 -3.468091006117e+02 0.0 
0.0 0.0 -1.481086676190e+02 
-3.375740614700e+01 -7.741612029848e-01 0.0 
-7.741612029848e-01 -8.010368868150e+01 0.0 
0.0 0.0 -3.375832844855e+01 
-6.925234421153e+01 -7.448854900434e-01 0.0 
-7.448854900434e-01 -1.629251964913e+02 0.0 
0.0 0.0 -6.925326221084e+01 
-1.068300177695e+02 7.951219288705e-01 0.0 
7.951219288705e-01 -2.506500190202e+02 0.0 
0.0 0.0 -1.068440110369e+02 
-6.208799204456e+01 -5.671531284507e-01 0.0 
-5.671531284507e-01 -1.457296604298e+02 0.0 
0.0 0.0 -6.194529574232e+01 
-1.087137699731e+02 7.925783000919e-01 0.0 
7.925783000919e-01 -2.549733787206e+02 0.0 
0.0 0.0 -1.087061446081e+02 
-5.020207656715e+01 8.747391949574e-01 0.0 
8.747391949574e-01 -1.184155204130e+02 0.0 
0.0 0.0 -5.018527909405e+01 
-9.445371216852e+01 6.617661889927e-01 0.0 
6.617661889927e-01 -2.210704678020e+02 0.0 
0.0 0.0 -9.425725399116e+01 
-1.095844904509e+02 7.578729446958e-01 0.0 
7.578729446958e-01 -2.570864848016e+02 0.0 
0.0 0.0 -1.096012925757e+02 
-9.471040755026e+01 7.472474860668e-01 0.0 
7.472474860668e-01 -2.223463829786e+02 0.0 
0.0 0.0 -9.471703715864e+01 
-9.886251998647e+01 7.748447272097e-01 0.0 
7.748447272097e-01 -2.319768287109e+02 0.0 
0.0 0.0 -9.885180460922e+01 
-1.553859570284e+01 5.363125677398e-01 0.0 
5.363125677398e-01 -3.742777351100e+01 0.0 
0.0 0.0 -1.548991076415e+01 
-1.414321655518e+02 8.001336087311e-01 0.0 
8.001336087311e-01 -3.321748537644e+02 0.0 
0.0 0.0 -1.416821057949e+02 
-7.852988787137e+01 7.214250331727e-01 0.0 
7.214250331727e-01 -1.845692317102e+02 0.0 
0.0 0.0 -7.852973587447e+01 
-1.415483946338e+02 -8.299979880036e-01 0.0 
-8.299979880036e-01 -3.318267864102e+02 0.0 
0.0 0.0 -1.416125543132e+02 
-1.201840092004e+02 7.854003801218e-01 0.0 
7.854003801218e-01 -2.818178028363e+02 0.0 
0.0 0.0 -1.202005436110e+02 
-1.130271984215e+02 -7.748176822490e-01 0.0 
-7.748176822490e-01 -2.650592142411e+02 0.0 
0.0 0.0 -1.130259237988e+02 
-1.131962310164e+02 7.108210873809e-01 0.0 
7.108210873809e-01 -2.654968386375e+02 0.0 
0.0 0.0 -1.132079208962e+02 
-7.135323796218e+01 -7.464496906492e-01 0.0 
-7.464496906492e-01 -1.678301528270e+02 0.0 
0.0 0.0 -7.135501723676e+01 
-2.284887159850e+01 -6.377636080966e-01 0.0 
-6.377636080966e-01 -5.427839916142e+01 0.0 
0.0 0.0 -2.273818122798e+01 
-1.551554229214e+01 -4.429819967962e-01 0.0 
-4.429819967962e-01 -3.714001178644e+01 0.0 
0.0 0.0 -1.539666622357e+01 
-1.166938037993e+02 -7.740383833118e-01 0.0 
-7.740383833118e-01 -2.735203172918e+02 0.0 
0.0 0.0 -1.166642363273e+02 
-1.407126923270e+02 -7.571979196809e-01 0.0 
-7.571979196809e-01 -3.299876990045e+02 0.0 
0.0 0.0 -1.408101173994e+02 
-6.482491088431e+01 7.017941361138e-01 0.0 
7.017941361138e-01 -1.525479444350e+02 0.0 
0.0 0.0 -6.481185659579e+01 
-1.220438807188e+02 -7.611684084234e-01 0.0 
-7.611684084234e-01 -2.861012792560e+02 0.0 
0.0 0.0 -1.220435479924e+02 
-5.871840517286e+01 -7.623339461483e-01 0.0 
-7.623339461483e-01 -1.383722835534e+02 0.0 
0.0 0.0 -5.872720661788e+01 
-1.231205783804e+02 8.007216554930e-01 0.0 
8.007216554930e-01 -2.886846272239e+02 0.0 
0.0 0.0 -1.231415616813e+02 
-1.567543911110e+02 -4.383046368457e-01 0.0 
-4.383046368457e-01 -3.673403962360e+02 0.0 
0.0 0.0 -1.568284362041e+02 
-2.628203729449e+00 2.104789038302e-02 0.0 
2.104789038302e-02 -7.393712480662e+00 0.0 
0.0 0.0 -2.606574863033e+00 
-1.641717451622e+02 1.370078898411e-01 0.0 
1.370078898411e-01 -3.844007387118e+02 0.0 
0.0 0.0 -1.641717451622e+02 
-1.642031681745e+02 -1.407461294610e-02 0.0 
-1.407461294610e-02 -3.844740590738e+02 0.0 
0.0 0.0 -1.642031681745e+02 
-9.603260582596e+01 7.911870037761e-01 0.0 
7.911870037761e-01 -2.255442953275e+02 0.0 
0.0 0.0 -9.607307034604e+01 
-7.745510562497e+01 7.113796437681e-01 0.0 
7.113796437681e-01 -1.820509745024e+02 0.0 
0.0 0.0 -7.745182403822e+01 
-1.167087093454e+02 7.636446064422e-01 0.0 
7.636446064422e-01 -2.736489292470e+02 0.0 
0.0 0.0 -1.167072915777e+02 
-7.251408654464e+01 7.591411142004e-01 0.0 
7.591411142004e-01 -1.705389653899e+02 0.0 
0.0 0.0 -7.251591558037e+01 
-2.297172840446e+01 7.210489976434e-01 0.0 
7.210489976434e-01 -5.481320348658e+01 0.0 
0.0 0.0 -2.293547956731e+01 
-1.157169561014e+01 6.674584096878e-01 0.0 
6.674584096878e-01 -2.811487411636e+01 0.0 
0.0 0.0 -1.150597091795e+01 
-1.486642312569e+02 6.414383762287e-01 0.0 
6.414383762287e-01 -3.486084857749e+02 0.0 
0.0 0.0 -1.487818151095e+02 
-1.179908802236e+02 8.423670007835e-01 0.0 
8.423670007835e-01 -2.767011687036e+02 0.0 
0.0 0.0 -1.180076146782e+02 
-8.763139901491e+01 7.327690285409e-01 0.0 
7.327690285409e-01 -2.065589371392e+02 0.0 
0.0 0.0 -8.785710084622e+01 
-1.643863225217e+02 3.878426332103e-02 0.0 
3.878426332103e-02 -3.844867706270e+02 0.0 
0.0 0.0 -1.642619279446e+02 
-4.176989173777e+01 8.414226570504e-01 0.0 
8.414226570504e-01 -9.909823471561e+01 0.0 
0.0 0.0 -4.186043793601e+01 
-1.640378538715e+02 4.630885353408e-02 0.0 
4.630885353408e-02 -3.844552655763e+02 0.0 
0.0 0.0 -1.641479358343e+02 
-1.178370566805e+02 -7.474633409650e-01 0.0 
-7.474633409650e-01 -2.762473079291e+02 0.0 
0.0 0.0 -1.178253093829e+02 
-7.631492992730e+01 7.167578917385e-01 0.0 
7.167578917385e-01 -1.793633900812e+02 0.0 
0.0 0.0 -7.630349600255e+01 
-1.119984424795e+02 -7.447519154974e-01 0.0 
-7.447519154974e-01 -2.626744658249e+02 0.0 
0.0 0.0 -1.120018724913e+02 
-7.265408748594e+01 -7.270039102989e-01 0.0 
-7.270039102989e-01 -1.708504303941e+02 0.0 
0.0 0.0 -7.265135536401e+01 
-3.576209184979e+01 -8.589172351167e-01 0.0 
-8.589172351167e-01 -8.478421015783e+01 0.0 
0.0 0.0 -3.576389060228e+01 
-6.803738617337e+01 -7.530617470619e-01 0.0 
-7.530617470619e-01 -1.600428507398e+02 0.0 
0.0 0.0 -6.802407107394e+01 
-1.248917052687e+02 -7.739193185891e-01 0.0 
-7.739193185891e-01 -2.927109954377e+02 0.0 
0.0 0.0 -1.248808102119e+02 
-1.419644903756e+02 8.144964524675e-01 0.0 
8.144964524675e-01 -3.324622265443e+02 0.0 
0.0 0.0 -1.419280150760e+02 
-7.375435930826e+01 -7.295863767445e-01 0.0 
-7.295863767445e-01 -1.734267290493e+02 0.0 
0.0 0.0 -7.375432650726e+01 
-1.265259786886e+02 -7.569647557748e-01 0.0 
-7.569647557748e-01 -2.965928902713e+02 0.0 
0.0 0.0 -1.265356606880e+02 
-4.295214064855e+00 6.934866740776e-02 0.0 
6.934866740776e-02 -8.177075365960e+00 0.0 
0.0 0.0 -4.242942352486e+00 
-7.482248251510e+01 -7.217576714627e-01 0.0 
-7.217576714627e-01 -1.759346064150e+02 0.0 
0.0 0.0 -7.482712667904e+01 
-1.308404072701e+02 8.255966498682e-01 0.0 
8.255966498682e-01 -3.066574333697e+02 0.0 
0.0 0.0 -1.308493521919e+02 
-6.659693475647e+01 -7.642954919179e-01 0.0 
-7.642954919179e-01 -1.566915651799e+02 0.0 
0.0 0.0 -6.658654998092e+01 
-6.014097387236e+01 7.133770268889e-01 0.0 
7.133770268889e-01 -1.416114629428e+02 0.0 
0.0 0.0 -6.012573104456e+01 
-1.121813316066e+02 7.461395837056e-01 0.0 
7.461395837056e-01 -2.631019508236e+02 0.0 
0.0 0.0 -1.121849847291e+02 
-3.326548945628e+01 -8.013499275310e-01 0.0 
-8.013499275310e-01 -7.845851226614e+01 0.0 
0.0 0.0 -3.311720051673e+01 
-4.430694281549e+01 4.740856420178e-01 0.0 
4.740856420178e-01 -1.057043294257e+02 0.0 
0.0 0.0 -4.460338167237e+01 
-4.986364799339e+01 7.179400048297e-01 0.0 
7.179400048297e-01 -1.170948630982e+02 0.0 
0.0 0.0 -4.968755332748e+01 
-5.847870135614e+01 -7.368767418983e-01 0.0 
-7.368767418983e-01 -1.377598522811e+02 0.0 
0.0 0.0 -5.847156609116e+01 
-1.028451728766e+02 7.630113725135e-01 0.0 
7.630113725135e-01 -2.413419989381e+02 0.0 
0.0 0.0 -1.028561515444e+02 
-9.857740208536e+01 -7.699758739636e-01 0.0 
-7.699758739636e-01 -2.313949012136e+02 0.0 
0.0 0.0 -9.859169098969e+01 
-1.266779500975e+02 8.084314757546e-01 0.0 
8.084314757546e-01 -2.969131961967e+02 0.0 
0.0 0.0 -1.266773438882e+02 
-1.498216769275e+02 -5.321591774450e-01 0.0 
-5.321591774450e-01 -3.508456081632e+02 0.0 
0.0 0.0 -1.498001855272e+02 
-5.359960959195e+01 -5.212666770211e-01 0.0 
-5.212666770211e-01 -1.260468234685e+02 0.0 
0.0 0.0 -5.349392991815e+01 
-1.257183072095e+02 9.900335516981e-01 0.0 
9.900335516981e-01 -2.946178346497e+02 0.0 
0.0 0.0 -1.257008425578e+02 
-1.502366306607e+02 -4.936174766858e-01 0.0 
-4.936174766858e-01 -3.519907622288e+02 0.0 
0.0 0.0 -1.502682178668e+02 
-6.780738925511e+01 -7.676545720130e-01 0.0 
-7.676545720130e-01 -1.595581883986e+02 0.0 
0.0 0.0 -6.780967329611e+01 
-2.367363512108e+01 -8.810034538041e-01 0.0 
-8.810034538041e-01 -5.635763897711e+01 0.0 
0.0 0.0 -2.360938222946e+01 
-6.362365529375e+01 6.270544281274e-01 0.0 
6.270544281274e-01 -1.497685085095e+02 0.0 
0.0 0.0 -6.361764914097e+01 
-9.825527351760e+01 7.547638754303e-01 0.0 
7.547638754303e-01 -2.305971969220e+02 0.0 
0.0 0.0 -9.825574113188e+01 
-1.273533868299e+02 -7.841097001398e-01 0.0 
-7.841097001398e-01 -2.986206518536e+02 0.0 
0.0 0.0 -1.273922116050e+02 
-9.806047380854e+01 -7.650750724884e-01 0.0 
-7.650750724884e-01 -2.301843777068e+02 0.0 
0.0 0.0 -9.807345545461e+01 
-2.630974396491e+01 4.768014249357e-01 0.0 
4.768014249357e-01 -6.285932414376e+01 0.0 
0.0 0.0 -2.635072043260e+01 
-1.110444957335e+02 8.057373841999e-01 0.0 
8.057373841999e-01 -2.604505255420e+02 0.0 
0.0 0.0 -1.110485063827e+02 
-4.023991575156e+01 -8.659149153724e-01 0.0 
-8.659149153724e-01 -9.536634361005e+01 0.0 
0.0 0.0 -4.028187780848e+01 
-9.874113457708e+01 7.708059852435e-01 0.0 
7.708059852435e-01 -2.317793880573e+02 0.0 
0.0 0.0 -9.875615679033e+01 
-1.062514285069e+02 -8.133909917611e-01 0.0 
-8.133909917611e-01 -2.492808904862e+02 0.0 
0.0 0.0 -1.062596956979e+02 
-1.155247965160e+02 -7.607038797478e-01 0.0 
-7.607038797478e-01 -2.709458706595e+02 0.0 
0.0 0.0 -1.155412001527e+02 
-1.155635292329e+02 6.839344320271e-01 0.0 
6.839344320271e-01 -2.703976828986e+02 0.0 
0.0 0.0 -1.153883636395e+02 
-5.864641647627e+01 7.050288257962e-01 0.0 
7.050288257962e-01 -1.381130937129e+02 0.0 
0.0 0.0 -5.862785305675e+01 
-2.691202464565e+01 -7.790364809020e-01 0.0 
-7.790364809020e-01 -6.408870219126e+01 0.0 
0.0 0.0 -2.690021805107e+01 
-1.145962419174e+02 -8.349670715598e-01 0.0 
-8.349670715598e-01 -2.687326159927e+02 0.0 
0.0 0.0 -1.145986573730e+02 
-4.464151177416e+01 -7.975865699491e-01 0.0 
-7.975865699491e-01 -1.053347220982e+02 0.0 
0.0 0.0 -4.459287016170e+01 
-1.104323926783e+01 -8.567772466742e-01 0.0 
-8.567772466742e-01 -2.637297025619e+01 0.0 
0.0 0.0 -1.082486285720e+01 
-1.498606614508e+02 -6.882204974580e-01 0.0 
-6.882204974580e-01 -3.508396048862e+02 0.0 
0.0 0.0 -1.498100799011e+02 
-1.419792016116e+02 -7.679149554592e-01 0.0 
-7.679149554592e-01 -3.324977942316e+02 0.0 
0.0 0.0 -1.419430987530e+02 
-1.055425453389e+01 8.180371194814e-02 0.0 
8.180371194814e-02 -2.471845030357e+01 0.0 
0.0 0.0 -1.056385928481e+01 
-1.193616476516e+02 8.341081568718e-01 0.0 
8.341081568718e-01 -2.798409418313e+02 0.0 
0.0 0.0 -1.193607768449e+02 
-4.543551079204e+01 7.104893729109e-01 0.0 
7.104893729109e-01 -1.073971236652e+02 0.0 
0.0 0.0 -4.544979033719e+01 
-4.868341418056e+01 -8.451260265504e-01 0.0 
-8.451260265504e-01 -1.149238958623e+02 0.0 
0.0 0.0 -4.868219301284e+01 
-1.347063854303e+02 -7.748675253148e-01 0.0 
-7.748675253148e-01 -3.156405752621e+02 0.0 
0.0 0.0 -1.347040882077e+02 
-1.157007511728e+02 7.526321955318e-01 0.0 
7.526321955318e-01 -2.713146694044e+02 0.0 
0.0 0.0 -1.157046261732e+02 
-1.301475669423e+02 -7.564240606921e-01 0.0 
-7.564240606921e-01 -3.050092022291e+02 0.0 
0.0 0.0 -1.301470307514e+02 
-7.502591076229e+01 7.250595444221e-01 0.0 
7.250595444221e-01 -1.764020011000e+02 0.0 
0.0 0.0 -7.502837355869e+01 
-8.705977021273e+01 -8.464661265606e-02 0.0 
-8.464661265606e-02 -2.043720880621e+02 0.0 
0.0 0.0 -8.702955748245e+01 
-1.564695892191e+02 1.534217706696e-01 0.0 
1.534217706696e-01 -3.667657607695e+02 0.0 
0.0 0.0 -1.565706049966e+02 
-4.037344119504e+01 -8.083319497099e-01 0.0 
-8.083319497099e-01 -9.555968905020e+01 0.0 
0.0 0.0 -4.037993907357e+01 
-1.375414600111e+02 7.017309264716e-01 0.0 
7.017309264716e-01 -3.223723457105e+02 0.0 
0.0 0.0 -1.375741417165e+02 
-1.032102487581e+02 7.682880889058e-01 0.0 
7.682880889058e-01 -2.422028595537e+02 0.0 
0.0 0.0 -1.032239324935e+02 
-3.224940669994e+01 -6.684658957817e-01 0.0 
-6.684658957817e-01 -7.566902934293e+01 0.0 
0.0 0.0 -3.197553081286e+01 
-1.237974325588e+02 -7.499333840816e-01 0.0 
-7.499333840816e-01 -2.902526006774e+02 0.0 
0.0 0.0 -1.238150099709e+02 
-7.939756173245e+01 -7.482025778821e-01 0.0 
-7.482025778821e-01 -1.865963831519e+02 0.0 
0.0 0.0 -7.939818346530e+01 
-1.755142922474e+01 -7.728793442637e-02 0.0 
-7.728793442637e-02 -4.206072637349e+01 0.0 
0.0 0.0 -1.748364667947e+01 
-6.686439001970e+01 -7.326067011916e-01 0.0 
-7.326067011916e-01 -1.573464007029e+02 0.0 
0.0 0.0 -6.686323721677e+01 
-1.213610258208e+02 -7.763730856401e-01 0.0 
-7.763730856401e-01 -2.844202600624e+02 0.0 
0.0 0.0 -1.213343857649e+02 
-1.251045423424e+02 8.013260077010e-01 0.0 
8.013260077010e-01 -2.933292905160e+02 0.0 
0.0 0.0 -1.251301498575e+02 
-3.076736364492e+01 7.626965169926e-01 0.0 
7.626965169926e-01 -7.298691405037e+01 0.0 
0.0 0.0 -3.072628330859e+01 
-9.899374245487e+01 4.730294103531e-01 0.0 
4.730294103531e-01 -2.315386476368e+02 0.0 
0.0 0.0 -9.875971702750e+01 
-1.310733256814e+02 -7.957823557654e-01 0.0 
-7.957823557654e-01 -3.072325621229e+02 0.0 
0.0 0.0 -1.310917663413e+02 
-1.362940178776e+02 7.218004190963e-01 0.0 
7.218004190963e-01 -3.191705649520e+02 0.0 
0.0 0.0 -1.362393748489e+02 
-6.324936949724e+01 -7.199962953027e-01 0.0 
-7.199962953027e-01 -1.488862746037e+02 0.0 
0.0 0.0 -6.324069323029e+01 
-5.023811068796e+01 -7.724086215504e-01 0.0 
-7.724086215504e-01 -1.184830368141e+02 0.0 
0.0 0.0 -5.021634425061e+01 
-1.066666120048e+02 -8.016279543482e-01 0.0 
-8.016279543482e-01 -2.502649571201e+02 0.0 
0.0 0.0 -1.066794707375e+02 
-1.129807198781e+02 8.637110620048e-01 0.0 
8.637110620048e-01 -2.647486391827e+02 0.0 
0.0 0.0 -1.129188077182e+02 
-1.726947872231e+01 6.793955977389e-02 0.0 
6.793955977389e-02 -4.143185520428e+01 0.0 
0.0 0.0 -1.721040017798e+01 
-1.571573316138e+02 -6.033794519545e-03 0.0 
-6.033794519545e-03 -3.681664062849e+02 0.0 
0.0 0.0 -1.571971213696e+02 
-1.563697247754e+02 -7.495662477252e-02 0.0 
-7.495662477252e-02 -3.666578372773e+02 0.0 
0.0 0.0 -1.565082686158e+02 
-1.012726503220e+02 7.683859669164e-01 0.0 
7.683859669164e-01 -2.373883160542e+02 0.0 
0.0 0.0 -1.011982899129e+02 
-1.549884463740e+02 9.142486275624e-01 0.0 
9.142486275624e-01 -3.627027270577e+02 0.0 
0.0 0.0 -1.549073520295e+02 
-1.571350959299e+02 -3.508998766779e-01 0.0 
-3.508998766779e-01 -3.679837315934e+02 0.0 
0.0 0.0 -1.571356482570e+02 
-7.832640219731e+01 -7.421359412875e-01 0.0 
-7.421359412875e-01 -1.841041225306e+02 0.0 
0.0 0.0 -7.832915741837e+01 
-7.394896521441e+01 7.192321571193e-01 0.0 
7.192321571193e-01 -1.738886024131e+02 0.0 
0.0 0.0 -7.395127028826e+01 
-1.567614493950e+02 1.460686347633e-01 0.0 
1.460686347633e-01 -3.675796745885e+02 0.0 
0.0 0.0 -1.569023371951e+02 
-4.595440413354e+00 1.027167782904e-02 0.0 
1.027167782904e-02 -8.845315836538e+00 0.0 
0.0 0.0 -4.582839057754e+00 
-4.564419155900e+01 -8.371507932431e-01 0.0 
-8.371507932431e-01 -1.079793325837e+02 0.0 
0.0 0.0 -4.568705724280e+01 
-1.003566155862e+02 -8.516627926596e-01 0.0 
-8.516627926596e-01 -2.359880610480e+02 0.0 
0.0 0.0 -1.005034029903e+02 
-6.343811447873e+01 6.987268474202e-01 0.0 
6.987268474202e-01 -1.493311743081e+02 0.0 
0.0 0.0 -6.343078663606e+01 
-6.576240358932e+01 -7.396270437219e-01 0.0 
-7.396270437219e-01 -1.548043955127e+02 0.0 
0.0 0.0 -6.577003973060e+01 
-3.591935314153e+01 5.153535410775e-01 0.0 
5.153535410775e-01 -8.571482073412e+01 0.0 
0.0 0.0 -3.609025216269e+01 
-4.120347160216e+01 7.227696176604e-01 0.0 
7.227696176604e-01 -9.760039105303e+01 0.0 
0.0 0.0 -4.124115879656e+01 
-1.013136334718e+02 6.601340695893e-01 0.0 
6.601340695893e-01 -2.374878350917e+02 0.0 
0.0 0.0 -1.012404405690e+02 
-7.154092132648e+01 7.479753921876e-01 0.0 
7.479753921876e-01 -1.682659764102e+02 0.0 
0.0 0.0 -7.154206932101e+01 
-5.340605737969e+01 -6.804522793698e-01 0.0 
-6.804522793698e-01 -1.261377552901e+02 0.0 
0.0 0.0 -5.346314380095e+01 
-1.317818552207e+02 -8.102672999870e-01 0.0 
-8.102672999870e-01 -3.089406011001e+02 0.0 
0.0 0.0 -1.318167368962e+02 
-1.644226838103e+02 1.076425067946e-02 0.0 
1.076425067946e-02 -3.846824947465e+02 0.0 
0.0 0.0 -1.643315535670e+02 
-1.635575478717e+02 2.816186044816e-01 0.0 
2.816186044816e-01 -3.835144117223e+02 0.0 
0.0 0.0 -1.637215878782e+02 
-7.724764222736e+01 -7.437872773572e-01 0.0 
-7.437872773572e-01 -1.815793080506e+02 0.0 
0.0 0.0 -7.724808508339e+01 
-9.447651824830e+01 -4.191789592393e-01 0.0 
-4.191789592393e-01 -2.213289747815e+02 0.0 
0.0 0.0 -9.434164790895e+01 
-8.815424167601e+00 -2.893620402825e-01 0.0 
-2.893620402825e-01 -2.136258315690e+01 0.0 
0.0 0.0 -8.653402197351e+00 
-2.842977095987e+01 8.630743149121e-01 0.0 
8.630743149121e-01 -6.781392252264e+01 0.0 
0.0 0.0 -2.847310804475e+01 
-3.131292134732e+01 4.225320899841e-01 0.0 
4.225320899841e-01 -7.429105909565e+01 0.0 
0.0 0.0 -3.128119413289e+01 
-3.274068931439e+01 7.559928686786e-01 0.0 
7.559928686786e-01 -7.779943451983e+01 0.0 
0.0 0.0 -3.276203715027e+01 
-1.112146878212e+02 7.846214487553e-01 0.0 
7.846214487553e-01 -2.608848667432e+02 0.0 
0.0 0.0 -1.112298663693e+02 
-6.466691388493e+01 -7.301212114908e-01 0.0 
-7.301212114908e-01 -1.522244629568e+02 0.0 
0.0 0.0 -6.466741305251e+01 
-7.051037324695e+01 7.326725345204e-01 0.0 
7.326725345204e-01 -1.658678825350e+02 0.0 
0.0 0.0 -7.051347673458e+01 
-1.699989149455e+01 6.342244074065e-01 0.0 
6.342244074065e-01 -4.208038789201e+01 0.0 
0.0 0.0 -1.732408381597e+01 
-1.431405823833e+02 -1.246286655878e-01 0.0 
-1.246286655878e-01 -3.356773353358e+02 0.0 
0.0 0.0 -1.432453753157e+02 
-6.941060423892e+01 7.273607103850e-01 0.0 
7.273607103850e-01 -1.632970737104e+02 0.0 
0.0 0.0 -6.941230338480e+01 
-1.487726488648e+02 -7.916224674910e-01 0.0 
-7.916224674910e-01 -3.483357949220e+02 0.0 
0.0 0.0 -1.487325331360e+02 
-1.368197867478e+02 5.742648880503e-01 0.0 
5.742648880503e-01 -3.201927645857e+02 0.0 
0.0 0.0 -1.367037654001e+02 
-1.637781189963e+02 -2.024388452294e-01 0.0 
-2.024388452294e-01 -3.836872753556e+02 0.0 
0.0 0.0 -1.638396183056e+02 
-1.643292374162e+02 -1.654117668321e-01 0.0 
-1.654117668321e-01 -3.847218954755e+02 0.0 
0.0 0.0 -1.643153398675e+02 
-1.012209163168e+02 -6.224589569885e-01 0.0 
-6.224589569885e-01 -2.378261081897e+02 0.0 
0.0 0.0 -1.013141073519e+02 
-7.284803414794e+01 7.086454391141e-01 0.0 
7.086454391141e-01 -1.712815561599e+02 0.0 
0.0 0.0 -7.283887709236e+01 
-4.505879365588e+01 -6.231959151192e-01 0.0 
-6.231959151192e-01 -1.061796621630e+02 0.0 
0.0 0.0 -4.497153674567e+01 
-7.612125864613e+01 -7.524650941376e-01 0.0 
-7.524650941376e-01 -1.789287515358e+02 0.0 
0.0 0.0 -7.611500305458e+01 
-1.644213506366e+02 8.860963844429e-02 0.0 
8.860963844429e-02 -3.849831514853e+02 0.0 
0.0 0.0 -1.644213506366e+02 
-2.001415923394e+01 7.727664393208e-01 0.0 
7.727664393208e-01 -4.803560471439e+01 0.0 
0.0 0.0 -2.001492918450e+01 
-2.429520401915e+01 6.590740562221e-01 0.0 
6.590740562221e-01 -5.799708986886e+01 0.0 
0.0 0.0 -2.428768816640e+01 
-1.419979018705e+02 5.980403546150e-01 0.0 
5.980403546150e-01 -3.329611564022e+02 0.0 
0.0 0.0 -1.420877174818e+02 
-9.468476871881e+01 -4.521577727973e-02 0.0 
-4.521577727973e-02 -2.219705402543e+02 0.0 
0.0 0.0 -9.459659269194e+01 
-1.496063517586e+02 -8.260473432051e-01 0.0 
-8.260473432051e-01 -3.504051040185e+02 0.0 
0.0 0.0 -1.496034367331e+02 
-1.311556686559e+02 8.171965050777e-01 0.0 
8.171965050777e-01 -3.074127124771e+02 0.0 
0.0 0.0 -1.311705143399e+02 
-1.440419106948e+02 -7.893101732480e-01 0.0 
-7.893101732480e-01 -3.373892725344e+02 0.0 
0.0 0.0 -1.440293549688e+02 
-1.368043669180e+02 8.854130144024e-01 0.0 
8.854130144024e-01 -3.206717167158e+02 0.0 
0.0 0.0 -1.368428250901e+02 
-1.030485603044e+02 -7.317889777721e-01 0.0 
-7.317889777721e-01 -2.414348644759e+02 0.0 
0.0 0.0 -1.029450274341e+02 
-5.538016425027e+01 6.927804551382e-01 0.0 
6.927804551382e-01 -1.305108732884e+02 0.0 
0.0 0.0 -5.536731126161e+01 
-5.524461891956e+01 -7.351307189208e-01 0.0 
-7.351307189208e-01 -1.301853779266e+02 0.0 
0.0 0.0 -5.522899905384e+01 
-1.214881433001e+02 -7.469512146473e-01 0.0 
-7.469512146473e-01 -2.843128109839e+02 0.0 
0.0 0.0 -1.213402862852e+02 
-1.403428939788e+02 9.293406694795e-01 0.0 
9.293406694795e-01 -3.286666175030e+02 0.0 
0.0 0.0 -1.403028534445e+02 
-8.742992752681e+01 -1.602929017815e-01 0.0 
-1.602929017815e-01 -2.050391924523e+02 0.0 
0.0 0.0 -8.734073599374e+01 
-9.411894952754e+01 -3.843587717486e-02 0.0 
-3.843587717486e-02 -2.209360319435e+02 0.0 
0.0 0.0 -9.411649444132e+01 
-1.010140182242e+02 2.570160734650e-01 0.0 
2.570160734650e-01 -2.368039879500e+02 0.0 
0.0 0.0 -1.009454018523e+02 
-1.030928110261e+02 9.613551156387e-01 0.0 
9.613551156387e-01 -2.423261164959e+02 0.0 
0.0 0.0 -1.032256782566e+02 
-2.618640203964e+01 -6.721900645444e-01 0.0 
-6.721900645444e-01 -6.273510366627e+01 0.0 
0.0 0.0 -2.627645171177e+01 
-5.041491121318e+01 -7.042484023513e-01 0.0 
-7.042484023513e-01 -1.188952611949e+02 0.0 
0.0 0.0 -5.039305172242e+01 
-1.570458955651e+02 -3.540285902063e-01 0.0 
-3.540285902063e-01 -3.681293086239e+02 0.0 
0.0 0.0 -1.571525612567e+02 
-1.115857418978e+02 8.670462289609e-01 0.0 
8.670462289609e-01 -2.615147253045e+02 0.0 
0.0 0.0 -1.115301401607e+02 
-1.591557765159e+02 -5.904810154820e-01 0.0 
-5.904810154820e-01 -3.727272652238e+02 0.0 
0.0 0.0 -1.591649125219e+02 
-1.501914178999e+02 6.652354490149e-01 0.0 
6.652354490149e-01 -3.518441922101e+02 0.0 
0.0 0.0 -1.502106830330e+02 
-1.239724268306e+02 7.709798690248e-01 0.0 
7.709798690248e-01 -2.907317479071e+02 0.0 
0.0 0.0 -1.240112524213e+02 
-1.493363345465e+02 5.929044409155e-01 0.0 
5.929044409155e-01 -3.500633676686e+02 0.0 
0.0 0.0 -1.494199106645e+02 
-7.505442407396e+01 -6.025037384356e-01 0.0 
-6.025037384356e-01 -1.759783612111e+02 0.0 
0.0 0.0 -7.490983558552e+01 
-6.788220443423e+01 -6.241510500550e-01 0.0 
-6.241510500550e-01 -1.604744463856e+02 0.0 
0.0 0.0 -6.810699524595e+01 
-1.499525983234e+02 -5.633917736224e-01 0.0 
-5.633917736224e-01 -3.515800379341e+02 0.0 
0.0 0.0 -1.500597908773e+02 
-1.051100843361e+01 -2.228675126419e-01 0.0 
-2.228675126419e-01 -2.450566821276e+01 0.0 
0.0 0.0 -1.055768766494e+01 
-4.835062234151e+01 2.616903542296e-01 0.0 
2.616903542296e-01 -1.139531478308e+02 0.0 
0.0 0.0 -4.829113105170e+01 
-1.641981412572e+02 4.691149773240e-02 0.0 
4.691149773240e-02 -3.844623296002e+02 0.0 
0.0 0.0 -1.641981412572e+02 
-2.401873205456e+01 7.551807439473e-01 0.0 
7.551807439473e-01 -5.736978668503e+01 0.0 
0.0 0.0 -2.401655562188e+01 
-9.426776416955e+01 -9.096184103199e-02 0.0 
-9.096184103199e-02 -2.210555405514e+02 0.0 
0.0 0.0 -9.419699141629e+01 
-1.500570606679e+02 1.826696686697e-01 0.0 
1.826696686697e-01 -3.520517735382e+02 0.0 
0.0 0.0 -1.502326502618e+02 
-1.624148121012e+01 -5.716979423390e-01 0.0 
-5.716979423390e-01 -3.883491942941e+01 0.0 
0.0 0.0 -1.612292019186e+01 
-9.623895381786e+00 1.697474887344e-01 0.0 
1.697474887344e-01 -2.382494380171e+01 0.0 
0.0 0.0 -9.634651755048e+00 
-1.641806458244e+02 4.396285832798e-01 0.0 
4.396285832798e-01 -3.842977025322e+02 0.0 
0.0 0.0 -1.641435045070e+02 
-8.712853856350e+01 -3.615019113051e-01 0.0 
-3.615019113051e-01 -2.043320997489e+02 0.0 
0.0 0.0 -8.703819149373e+01 
-1.556541733410e+02 -8.839605266646e-01 0.0 
-8.839605266646e-01 -3.642757251258e+02 0.0 
0.0 0.0 -1.555789695400e+02 
-1.501502526838e+02 -4.603096693742e-02 0.0 
-4.603096693742e-02 -3.521275309632e+02 0.0 
0.0 0.0 -1.502833350941e+02 
-8.695226058456e+01 2.198493761842e-01 0.0 
2.198493761842e-01 -2.040113063281e+02 0.0 
0.0 0.0 -8.688907007381e+01 
-9.839499265575e+00 1.085080770155e-02 0.0 
1.085080770155e-02 -2.354029709313e+01 0.0 
0.0 0.0 -9.613938907611e+00 
-1.569644078430e+02 3.874143691641e-01 0.0 
3.874143691641e-01 -3.676247327040e+02 0.0 
0.0 0.0 -1.569767421641e+02 
-2.645124353253e+01 9.372929927022e-01 0.0 
9.372929927022e-01 -6.310129483935e+01 0.0 
0.0 0.0 -2.646576151157e+01 
-1.508179595733e+02 -5.013911049816e-01 0.0 
-5.013911049816e-01 -3.535417944296e+02 0.0 
0.0 0.0 -1.509079262009e+02 
-1.643371828083e+02 1.127164311554e-03 0.0 
1.127164311554e-03 -3.847867598860e+02 0.0 
0.0 0.0 -1.643371828083e+02 
-1.500264060160e+02 5.921071577274e-01 0.0 
5.921071577274e-01 -3.518416258199e+02 0.0 
0.0 0.0 -1.501604095508e+02 
-3.412447411712e+01 -8.016599037469e-01 0.0 
-8.016599037469e-01 -8.094446736196e+01 0.0 
0.0 0.0 -3.412068244372e+01 
-1.016570513978e+02 -8.977214823347e-02 0.0 
-8.977214823347e-02 -2.383472424256e+02 0.0 
0.0 0.0 -1.016012881470e+02 
-7.556207967647e+01 5.298478105686e-01 0.0 
5.298478105686e-01 -1.785129615737e+02 0.0 
0.0 0.0 -7.582251237506e+01 
-1.319953502149e+02 8.080765101712e-01 0.0 
8.080765101712e-01 -3.092049041111e+02 0.0 
0.0 0.0 -1.319600762978e+02 
-1.644759713684e+02 3.691987100426e-01 0.0 
3.691987100426e-01 -3.849998493938e+02 0.0 
0.0 0.0 -1.644427462287e+02 
-1.301385399378e+02 -5.065464189572e-01 0.0 
-5.065464189572e-01 -3.051841974134e+02 0.0 
0.0 0.0 -1.301968212054e+02 
-1.641034771960e+02 -4.438276556791e-01 0.0 
-4.438276556791e-01 -3.845497745998e+02 0.0 
0.0 0.0 -1.641959755388e+02 
-1.732238884975e+01 -6.541762553803e-01 0.0 
-6.541762553803e-01 -4.093205908465e+01 0.0 
0.0 0.0 -1.707633438032e+01 
-1.579907371264e+02 4.995352294790e-01 0.0 
4.995352294790e-01 -3.698056452011e+02 0.0 
0.0 0.0 -1.579389146982e+02 
-3.837611334005e+01 -5.032838825079e-01 0.0 
-5.032838825079e-01 -9.104757370054e+01 0.0 
0.0 0.0 -3.842710611218e+01 
-2.403826101085e+01 -3.609714413513e-01 0.0 
-3.609714413513e-01 -5.735799885927e+01 0.0 
0.0 0.0 -2.401887796104e+01 
-1.572099592770e+02 4.031028942528e-01 0.0 
4.031028942528e-01 -3.684395617384e+02 0.0 
0.0 0.0 -1.572948563046e+02 
-1.574527451141e+02 2.281868692883e-01 0.0 
2.281868692883e-01 -3.686845371189e+02 0.0 
0.0 0.0 -1.574411846699e+02 
-1.586707462255e+02 6.644095240929e-01 0.0 
6.644095240929e-01 -3.715743558209e+02 0.0 
0.0 0.0 -1.586735306139e+02 
-9.370317529847e+01 -8.234871472428e-01 0.0 
-8.234871472428e-01 -2.198571631818e+02 0.0 
0.0 0.0 -9.366810154407e+01 
-1.024351853307e+02 -8.045025818888e-01 0.0 
-8.045025818888e-01 -2.404349390384e+02 0.0 
0.0 0.0 -1.024610373107e+02 
-3.567716794055e+01 8.266930753084e-01 0.0 
8.266930753084e-01 -8.463143883563e+01 0.0 
0.0 0.0 -3.569258203286e+01 
-1.577424944920e+02 3.249777178795e-01 0.0 
3.249777178795e-01 -3.691148840251e+02 0.0 
0.0 0.0 -1.576572135551e+02 
-6.361133113108e+01 -6.890604384812e-01 0.0 
-6.890604384812e-01 -1.492614035357e+02 0.0 
0.0 0.0 -6.346182040004e+01 
-2.274845795338e+01 6.821812641045e-01 0.0 
6.821812641045e-01 -5.331759937125e+01 0.0 
0.0 0.0 -2.241981719739e+01 
-1.361374199718e+02 -7.454721018909e-01 0.0 
-7.454721018909e-01 -3.188267296228e+02 0.0 
0.0 0.0 -1.360892448784e+02 
-8.679575281076e+01 7.971481625469e-02 0.0 
7.971481625469e-02 -2.036210296237e+02 0.0 
0.0 0.0 -8.672503473035e+01 
-1.518304622607e+02 -6.111489536563e-01 0.0 
-6.111489536563e-01 -3.555769127556e+02 0.0 
0.0 0.0 -1.518222125049e+02 
-1.634084213795e+02 7.465583052024e-01 0.0 
7.465583052024e-01 -3.824016036753e+02 0.0 
0.0 0.0 -1.633430075165e+02 
-1.644137845769e+02 3.270693153517e-02 0.0 
3.270693153517e-02 -3.849654973462e+02 0.0 
0.0 0.0 -1.644137845769e+02 
-2.552097867587e+00 3.831617843811e-01 0.0 
3.831617843811e-01 -6.550169546199e+00 0.0 
0.0 0.0 -2.330680224136e+00 
-5.184184502508e+00 -3.254952093432e-01 0.0 
-3.254952093432e-01 -1.041844927804e+01 0.0 
0.0 0.0 -4.917296684325e+00 
-8.780364345412e+01 6.801188113698e-01 0.0 
6.801188113698e-01 -2.060837414777e+02 0.0 
0.0 0.0 -8.776621547954e+01 
-8.637466599952e+01 -1.096693490365e-01 0.0 
-1.096693490365e-01 -2.035637781302e+02 0.0 
0.0 0.0 -8.658153323893e+01 
-1.643661300591e+02 -4.748745273923e-02 0.0 
-4.748745273923e-02 -3.848543034712e+02 0.0 
0.0 0.0 -1.643661300591e+02 
-1.634311750176e+02 -7.341074173798e-01 0.0 
-7.341074173798e-01 -3.823561586895e+02 0.0 
0.0 0.0 -1.633362001121e+02 
-9.571385329038e+00 -6.069077567669e-01 0.0 
-6.069077567669e-01 -2.288866626775e+01 0.0 
0.0 0.0 -9.338015479038e+00 
-4.137800913484e+00 -1.415876177594e-01 0.0 
-1.415876177594e-01 -8.193076956628e+00 0.0 
0.0 0.0 -4.199689708239e+00 
-1.503325382495e+02 -5.067700380796e-01 0.0 
-5.067700380796e-01 -3.523811666208e+02 0.0 
0.0 0.0 -1.504141114611e+02 
-1.490366806687e+02 -9.863053925279e-01 0.0 
-9.863053925279e-01 -3.490271864824e+02 0.0 
0.0 0.0 -1.490191601453e+02 
-3.118115239729e+01 5.900212841959e-01 0.0 
5.900212841959e-01 -7.360265911159e+01 0.0 
0.0 0.0 -3.103514345266e+01 
-1.521241092505e+02 5.247716339296e-01 0.0 
5.247716339296e-01 -3.564240580361e+02 0.0 
0.0 0.0 -1.521644501860e+02 
-1.074282694198e+02 2.090191931900e-01 0.0 
2.090191931900e-01 -2.517978823538e+02 0.0 
0.0 0.0 -1.073678455321e+02 
-9.229205379366e+01 7.811369969541e-01 0.0 
7.811369969541e-01 -2.172626345286e+02 0.0 
0.0 0.0 -9.246640649669e+01 
-1.155334088103e+02 -3.937380724347e-01 0.0 
-3.937380724347e-01 -2.713440388279e+02 0.0 
0.0 0.0 -1.156632342915e+02 
-2.936107437039e+01 -5.905107622176e-01 0.0 
-5.905107622176e-01 -6.948866072354e+01 0.0 
0.0 0.0 -2.925492052818e+01 
-1.238160451528e+02 8.137908438148e-01 0.0 
8.137908438148e-01 -2.902231244482e+02 0.0 
0.0 0.0 -1.238117508803e+02 
-2.477191426825e+01 -1.243635223548e-01 0.0 
-1.243635223548e-01 -5.898093007089e+01 0.0 
0.0 0.0 -2.472585330174e+01 
-8.436826403906e+01 7.583757371580e-01 0.0 
7.583757371580e-01 -1.976401735377e+02 0.0 
0.0 0.0 -8.420253127301e+01 
-1.519879817005e+02 -4.511517898304e-01 0.0 
-4.511517898304e-01 -3.556397674963e+02 0.0 
0.0 0.0 -1.518883247590e+02 
-1.465893144793e+02 8.545324519965e-01 0.0 
8.545324519965e-01 -3.433237157052e+02 0.0 
0.0 0.0 -1.465739090553e+02 
-9.252530773221e+01 -4.427932304662e-01 0.0 
-4.427932304662e-01 -2.163802385137e+02 0.0 
0.0 0.0 -9.227166387377e+01 
-1.069698331743e+02 7.370712754602e-01 0.0 
7.370712754602e-01 -2.510667510351e+02 0.0 
0.0 0.0 -1.070109752628e+02 
-1.504770872777e+02 -3.265975731239e-01 0.0 
-3.265975731239e-01 -3.528804434161e+02 0.0 
0.0 0.0 -1.506072592082e+02 
-1.402363977551e+02 8.690020073394e-01 0.0 
8.690020073394e-01 -3.285667768035e+02 0.0 
0.0 0.0 -1.402409523676e+02 
-1.320371836039e+02 8.371834490956e-01 0.0 
8.371834490956e-01 -3.095455395809e+02 0.0 
0.0 0.0 -1.320748169555e+02 
-8.698667053210e+01 -4.250717997998e-02 0.0 
-4.250717997998e-02 -2.042911101729e+02 0.0 
0.0 0.0 -8.698333421151e+01 
-1.194106443821e+02 8.487382754468e-01 0.0 
8.487382754468e-01 -2.800039382409e+02 0.0 
0.0 0.0 -1.194243747869e+02 
-1.506262369238e+02 -4.912154807560e-01 0.0 
-4.912154807560e-01 -3.529553713093e+02 0.0 
0.0 0.0 -1.506744824699e+02 
-4.801435491820e+01 -4.727053406610e-01 0.0 
-4.727053406610e-01 -1.136321292740e+02 0.0 
0.0 0.0 -4.809394525765e+01 
-1.017249696882e+01 1.999671687337e-01 0.0 
1.999671687337e-01 -2.494984906651e+01 0.0 
0.0 0.0 -1.013670381060e+01 
-1.454168659005e+02 5.825497214507e-01 0.0 
5.825497214507e-01 -3.409223753351e+02 0.0 
0.0 0.0 -1.455017723707e+02 
-1.374845293337e+02 -7.143550483823e-01 0.0 
-7.143550483823e-01 -3.222129018554e+02 0.0 
0.0 0.0 -1.375092293567e+02 
-2.439282731293e+01 4.431414825105e-01 0.0 
4.431414825105e-01 -5.767554592540e+01 0.0 
0.0 0.0 -2.422051197150e+01 
-1.216747499878e+02 6.408420324378e-01 0.0 
6.408420324378e-01 -2.853563826692e+02 0.0 
0.0 0.0 -1.217093397971e+02 
-1.566418232453e+02 1.680313926276e-01 0.0 
1.680313926276e-01 -3.671438693776e+02 0.0 
0.0 0.0 -1.567357077869e+02 
-1.445794557080e+02 -4.838980712634e-01 0.0 
-4.838980712634e-01 -3.388575640039e+02 0.0 
0.0 0.0 -1.446311059136e+02 
-1.502978261606e+02 1.176821624666e-01 0.0 
1.176821624666e-01 -3.524149444548e+02 0.0 
0.0 0.0 -1.504138311846e+02 
-1.161026335443e+02 8.463678836948e-01 0.0 
8.463678836948e-01 -2.721588154929e+02 0.0 
0.0 0.0 -1.160784347111e+02 
-1.033455587260e+01 -8.882151527938e-02 0.0 
-8.882151527938e-02 -2.451774312610e+01 0.0 
0.0 0.0 -1.033248074883e+01 
-3.627495649804e+01 -4.174835431104e-01 0.0 
-4.174835431104e-01 -8.598538491285e+01 0.0 
0.0 0.0 -3.627810242327e+01 
-4.446414834187e+01 8.631281378325e-01 0.0 
8.631281378325e-01 -1.051661007070e+02 0.0 
0.0 0.0 -4.448907471466e+01 
-1.019992206258e+02 -1.330491900354e-01 0.0 
-1.330491900354e-01 -2.384777335138e+02 0.0 
0.0 0.0 -1.017430862419e+02 
-1.192835041501e+02 -8.673608344498e-01 0.0 
-8.673608344498e-01 -2.796540099003e+02 0.0 
0.0 0.0 -1.192812542151e+02 
-1.518567707115e+02 6.563431997304e-01 0.0 
6.563431997304e-01 -3.558485771233e+02 0.0 
0.0 0.0 -1.519116043504e+02 
-1.567201189990e+02 -2.753194151961e-01 0.0 
-2.753194151961e-01 -3.670323687701e+02 0.0 
0.0 0.0 -1.567257463307e+02 
-1.728785628543e+01 1.338171046943e-01 0.0 
1.338171046943e-01 -4.157648371092e+01 0.0 
0.0 0.0 -1.725930199890e+01 
-1.663187468000e+01 -2.320414508807e-01 0.0 
-2.320414508807e-01 -4.010013635615e+01 0.0 
0.0 0.0 -1.661960331084e+01 
-2.882111766576e+01 -8.256133039063e-01 0.0 
-8.256133039063e-01 -6.819117740171e+01 0.0 
0.0 0.0 -2.870368852024e+01 
-1.243546374002e+02 -1.123004938558e+00 0.0 
-1.123004938558e+00 -2.910816230198e+02 0.0 
0.0 0.0 -1.242308781260e+02 
-5.886730966740e+01 7.305302985926e-01 0.0 
7.305302985926e-01 -1.390313690516e+02 0.0 
0.0 0.0 -5.896960361571e+01 
-1.525678893524e+02 6.040222363620e-01 0.0 
6.040222363620e-01 -3.573519801544e+02 0.0 
0.0 0.0 -1.525759608521e+02 
-2.984671677761e+01 6.938731366038e-01 0.0 
6.938731366038e-01 -7.056994056455e+01 0.0 
0.0 0.0 -2.972499720265e+01 
-1.493782722946e+02 -3.896167041942e-01 0.0 
-3.896167041942e-01 -3.499987283119e+02 0.0 
0.0 0.0 -1.494131001820e+02 
-1.012469033435e+02 -7.188200353553e-01 0.0 
-7.188200353553e-01 -2.370236315453e+02 0.0 
0.0 0.0 -1.010811604666e+02 
-1.576686111182e+02 -5.774598423753e-03 0.0 
-5.774598423753e-03 -3.687207110903e+02 0.0 
0.0 0.0 -1.575167966625e+02 
-1.365304851447e+02 9.395864801430e-01 0.0 
9.395864801430e-01 -3.198740926088e+02 0.0 
0.0 0.0 -1.365213733260e+02 
-1.019449351184e+02 3.526879222320e-01 0.0 
3.526879222320e-01 -2.385017947763e+02 0.0 
0.0 0.0 -1.017340189684e+02 
-1.572753193566e+02 1.927728733763e-01 0.0 
1.927728733763e-01 -3.683553545249e+02 0.0 
0.0 0.0 -1.572892021645e+02 
-1.574934486741e+02 -3.129917505725e-01 0.0 
-3.129917505725e-01 -3.690830407065e+02 0.0 
0.0 0.0 -1.575729468142e+02 
-1.576010035627e+02 -2.498463699431e-01 0.0 
-2.498463699431e-01 -3.686954793674e+02 0.0 
0.0 0.0 -1.574889448790e+02 
-2.036395260719e+01 -8.108021326101e-01 0.0 
-8.108021326101e-01 -4.830201453941e+01 0.0 
0.0 0.0 -2.019979014398e+01 
-1.494105889909e+02 -7.006454981674e-01 0.0 
-7.006454981674e-01 -3.499550554339e+02 0.0 
0.0 0.0 -1.494096933274e+02 
-1.571026319778e+02 -1.171560175963e-01 0.0 
-1.171560175963e-01 -3.679343238241e+02 0.0 
0.0 0.0 -1.571110867406e+02 
-1.496366494985e+02 4.189575735351e-01 0.0 
4.189575735351e-01 -3.505831060444e+02 0.0 
0.0 0.0 -1.496659266629e+02 
-1.401182916758e+02 -9.023799916809e-01 0.0 
-9.023799916809e-01 -3.279651387361e+02 0.0 
0.0 0.0 -1.400250291236e+02 
-1.641905722593e+02 -1.002836876431e-01 0.0 
-1.002836876431e-01 -3.844446686049e+02 0.0 
0.0 0.0 -1.641905722593e+02 
-1.318835267349e+02 -8.406196688205e-01 0.0 
-8.406196688205e-01 -3.091518231773e+02 0.0 
0.0 0.0 -1.319106049737e+02 
-4.703496339126e+00 -8.358510573022e-03 0.0 
-8.358510573022e-03 -9.537538193136e+00 0.0 
0.0 0.0 -4.824053260204e+00 
-2.668777970164e+01 8.021967714861e-01 0.0 
8.021967714861e-01 -6.391197746214e+01 0.0 
0.0 0.0 -2.677992714913e+01 
-1.447143355149e+02 7.138199050890e-01 0.0 
7.138199050890e-01 -3.394145601080e+02 0.0 
0.0 0.0 -1.448386686869e+02 
-1.081346883370e+02 -6.358662567391e-01 0.0 
-6.358662567391e-01 -2.531156604842e+02 0.0 
0.0 0.0 -1.079751046464e+02 
-1.502660287188e+02 7.835673200726e-01 0.0 
7.835673200726e-01 -3.516278627069e+02 0.0 
0.0 0.0 -1.501681674277e+02 
-1.447162835859e+02 8.860881796795e-01 0.0 
8.860881796795e-01 -3.388344147143e+02 0.0 
0.0 0.0 -1.446652094901e+02 
-1.580585830277e+02 1.944289711398e-01 0.0 
1.944289711398e-01 -3.698453360310e+02 0.0 
0.0 0.0 -1.579711757176e+02 
-1.332637535493e+02 -9.457010358538e-01 0.0 
-9.457010358538e-01 -3.116188325342e+02 0.0 
0.0 0.0 -1.330647758250e+02 
-1.575054596562e+02 5.345778641122e-02 0.0 
5.345778641122e-02 -3.690200275818e+02 0.0 
0.0 0.0 -1.575576461714e+02 
-1.515517748671e+02 6.575756679976e-01 0.0 
6.575756679976e-01 -3.551397147139e+02 0.0 
0.0 0.0 -1.516074468743e+02 
-1.515405190048e+02 -6.757144626247e-01 0.0 
-6.757144626247e-01 -3.549618125522e+02 0.0 
0.0 0.0 -1.515506994671e+02 
-6.115323690471e+01 4.690787982118e-01 0.0 
4.690787982118e-01 -1.442774393473e+02 0.0 
0.0 0.0 -6.122920287562e+01 
-1.648434420324e+02 7.905492920724e-02 0.0 
7.905492920724e-02 -3.851050271836e+02 0.0 
0.0 0.0 -1.645845407648e+02 
-9.410856468498e+01 -5.890859044667e-02 0.0 
-5.890859044667e-02 -2.204510558917e+02 0.0 
0.0 0.0 -9.396788617300e+01 
-1.499418116007e+02 7.398182959307e-01 0.0 
7.398182959307e-01 -3.508235900323e+02 0.0 
0.0 0.0 -1.498296204899e+02 
-1.741695120233e+01 2.899323626273e-01 0.0 
2.899323626273e-01 -4.123368161560e+01 0.0 
0.0 0.0 -1.719518984538e+01 
-1.438223771287e+02 4.980686212636e-01 0.0 
4.980686212636e-01 -3.362952550998e+02 0.0 
0.0 0.0 -1.436352896685e+02 
-1.225540224518e+02 1.167610855579e-01 0.0 
1.167610855579e-01 -2.870857887653e+02 0.0 
0.0 0.0 -1.224919433651e+02 
-1.740673891297e+01 3.438332447690e-01 0.0 
3.438332447690e-01 -4.173376826938e+01 0.0 
0.0 0.0 -1.734215215470e+01 
-3.052176404366e+01 8.966100035734e-01 0.0 
8.966100035734e-01 -7.320266714292e+01 0.0 
0.0 0.0 -3.071732935598e+01 
-1.355260583102e+02 -8.735563199501e-01 0.0 
-8.735563199501e-01 -3.176700929287e+02 0.0 
0.0 0.0 -1.355588453717e+02 
-1.570493039315e+02 7.714597188601e-02 0.0 
7.714597188601e-02 -3.679829860181e+02 0.0 
0.0 0.0 -1.571096869849e+02 
-1.508124617152e+02 6.711598668796e-01 0.0 
6.711598668796e-01 -3.534621719326e+02 0.0 
0.0 0.0 -1.508823900943e+02 
-1.560744712688e+02 -9.396847136071e-01 0.0 
-9.396847136071e-01 -3.652339897948e+02 0.0 
0.0 0.0 -1.559925383191e+02 
-1.068780682668e+02 -9.881343978296e-01 0.0 
-9.881343978296e-01 -2.506980562077e+02 0.0 
0.0 0.0 -1.068728373424e+02 
-1.026759470707e+01 -1.765032612190e-03 0.0 
-1.765032612190e-03 -2.451917777506e+01 0.0 
0.0 0.0 -1.003603174464e+01 
-1.628651642093e+01 -7.805289899999e-01 0.0 
-7.805289899999e-01 -3.845275445801e+01 0.0 
0.0 0.0 -1.602178126368e+01 
-1.134921482523e+01 -8.298171093243e-01 0.0 
-8.298171093243e-01 -2.792105422773e+01 0.0 
0.0 0.0 -1.137249557302e+01 
-2.293630836360e+01 6.823467111719e-01 0.0 
6.823467111719e-01 -5.434607825546e+01 0.0 
0.0 0.0 -2.278471598572e+01 
-4.211387370534e+00 -4.476723327032e-01 0.0 
-4.476723327032e-01 -9.451812163696e+00 0.0 
0.0 0.0 -3.894581659580e+00 
-8.223842630305e+01 -5.212492608817e-01 0.0 
-5.212492608817e-01 -1.927126130760e+02 0.0 
0.0 0.0 -8.208531181372e+01 
-1.502989766191e+02 -7.760030130588e-01 0.0 
-7.760030130588e-01 -3.515946128793e+02 0.0 
0.0 0.0 -1.501680768495e+02 
-1.504014252588e+02 -7.031618532040e-01 0.0 
-7.031618532040e-01 -3.522637171403e+02 0.0 
0.0 0.0 -1.503995427197e+02 
-1.076360157508e+02 7.277501653657e-01 0.0 
7.277501653657e-01 -2.520626293674e+02 0.0 
0.0 0.0 -1.075095935355e+02 
-7.170510288145e+01 1.096912340075e+00 0.0 
1.096912340075e+00 -1.687784352307e+02 0.0 
0.0 0.0 -7.174506143365e+01 
-1.504302202384e+02 6.443050276660e-01 0.0 
6.443050276660e-01 -3.523707723452e+02 0.0 
0.0 0.0 -1.504402977751e+02 
-1.490533846722e+02 -9.152492725425e-01 0.0 
-9.152492725425e-01 -3.489929365886e+02 0.0 
0.0 0.0 -1.490138963782e+02 
-1.575589631061e+02 -3.515752946956e-01 0.0 
-3.515752946956e-01 -3.691544803411e+02 0.0 
0.0 0.0 -1.576140330342e+02 
-1.510816005965e+02 1.487012714607e-01 0.0 
1.487012714607e-01 -3.539989362368e+02 0.0 
0.0 0.0 -1.511241610500e+02 
-1.435427645404e+02 -7.969629956141e-01 0.0 
-7.969629956141e-01 -3.363398205200e+02 0.0 
0.0 0.0 -1.435647755181e+02 
-1.685254646530e+01 -3.888311981302e-01 0.0 
-3.888311981302e-01 -4.051099495051e+01 0.0 
0.0 0.0 -1.680906242474e+01 
-1.549973606753e+01 6.875988863474e-01 0.0 
6.875988863474e-01 -3.650915318224e+01 0.0 
0.0 0.0 -1.520266677493e+01 
-1.506234732681e+02 6.340978738033e-01 0.0 
6.340978738033e-01 -3.530319080925e+02 0.0 
0.0 0.0 -1.506966144082e+02 
-1.703399991567e+01 -1.569073830968e-01 0.0 
-1.569073830968e-01 -4.117236470975e+01 0.0 
0.0 0.0 -1.706190938763e+01 
-2.025130889516e+01 -1.101851717888e+00 0.0 
-1.101851717888e+00 -4.887217322946e+01 0.0 
0.0 0.0 -2.033704463739e+01 
-1.445136111970e+01 -7.410483377574e-01 0.0 
-7.410483377574e-01 -3.434056602955e+01 0.0 
0.0 0.0 -1.423757814477e+01 
-1.613621719143e+01 7.066699333232e-01 0.0 
7.066699333232e-01 -3.873356494002e+01 0.0 
0.0 0.0 -1.606093463944e+01 
-1.573128147752e+02 3.943067734045e-02 0.0 
3.943067734045e-02 -3.687135797591e+02 0.0 
0.0 0.0 -1.574079183603e+02 
-1.576237448157e+02 3.045207528068e-01 0.0 
3.045207528068e-01 -3.692841867097e+02 0.0 
0.0 0.0 -1.576723794576e+02 
-1.517203396257e+02 -7.576963189952e-01 0.0 
-7.576963189952e-01 -3.559066489361e+02 0.0 
0.0 0.0 -1.518880965686e+02 
-1.578658027903e+02 -3.767842809284e-04 0.0 
-3.767842809284e-04 -3.700546481110e+02 0.0 
0.0 0.0 -1.579761352704e+02 
-1.444419905776e+02 6.091099817329e-01 0.0 
6.091099817329e-01 -3.387569902358e+02 0.0 
0.0 0.0 -1.445596942440e+02 
-1.118451677656e+02 -1.062593304594e+00 0.0 
-1.062593304594e+00 -2.618804954399e+02 0.0 
0.0 0.0 -1.117176989617e+02 
-1.645717965282e+02 4.824638433864e-02 0.0 
4.824638433864e-02 -3.853341918991e+02 0.0 
0.0 0.0 -1.645717965282e+02 
-3.867267826652e+01 4.669870221851e-01 0.0 
4.669870221851e-01 -9.112720317235e+01 0.0 
0.0 0.0 -3.853996443166e+01 
-8.688042104561e+01 -1.244100700947e-02 0.0 
-1.244100700947e-02 -2.033890766312e+02 0.0 
0.0 0.0 -8.668084930303e+01 
-2.347861687596e+01 -2.359332037333e-01 0.0 
-2.359332037333e-01 -5.588254866273e+01 0.0 
0.0 0.0 -2.340834966161e+01 
-1.053200862792e+01 -1.742635027218e-01 0.0 
-1.742635027218e-01 -2.443132337702e+01 0.0 
0.0 0.0 -1.063585948197e+01 
-1.645935475812e+02 -1.609359046841e-01 0.0 
-1.609359046841e-01 -3.846482761471e+02 0.0 
0.0 0.0 -1.643725471185e+02 
-9.503594581816e+01 2.366418190255e-01 0.0 
2.366418190255e-01 -2.228329282696e+02 0.0 
0.0 0.0 -9.496066222634e+01 
-2.397901164470e+01 -1.199776988661e-01 0.0 
-1.199776988661e-01 -5.678762131776e+01 0.0 
0.0 0.0 -2.382998988874e+01 
-7.863016957180e+01 -9.368936566308e-01 0.0 
-9.368936566308e-01 -1.853227117977e+02 0.0 
0.0 0.0 -7.878586441085e+01 
-1.581427586550e+02 -7.122698708742e-02 0.0 
-7.122698708742e-02 -3.701608250139e+02 0.0 
0.0 0.0 -1.580910751007e+02 
-1.511094742846e+02 6.597450605182e-01 0.0 
6.597450605182e-01 -3.541824102800e+02 0.0 
0.0 0.0 -1.511875653694e+02 
-1.575386416520e+02 2.738784279707e-02 0.0 
2.738784279707e-02 -3.691787601115e+02 0.0 
0.0 0.0 -1.576152205291e+02 
-5.592716921104e+01 5.803296116823e-01 0.0 
5.803296116823e-01 -1.317783055796e+02 0.0 
0.0 0.0 -5.591164243719e+01 
-1.583675175275e+01 6.178994279684e-01 0.0 
6.178994279684e-01 -3.768277364587e+01 0.0 
0.0 0.0 -1.565585761959e+01 
-1.574810248846e+02 4.656998037752e-01 0.0 
4.656998037752e-01 -3.691294760187e+02 0.0 
0.0 0.0 -1.575831502710e+02 
-1.646954566665e+02 -9.279788470695e-02 0.0 
-9.279788470695e-02 -3.849142852849e+02 0.0 
0.0 0.0 -1.644829225854e+02 
-1.641933636739e+02 7.076449301329e-02 0.0 
7.076449301329e-02 -3.846691071665e+02 0.0 
0.0 0.0 -1.642587412521e+02 
-9.286056020909e+01 -5.268385150770e-01 0.0 
-5.268385150770e-01 -2.179791177994e+02 0.0 
0.0 0.0 -9.285190340255e+01 
-1.504299996191e+02 1.655315463349e-02 0.0 
1.655315463349e-02 -3.524422480219e+02 0.0 
0.0 0.0 -1.504616742923e+02 
-2.476814081461e+01 3.761483738681e-01 0.0 
3.761483738681e-01 -5.818059066017e+01 0.0 
0.0 0.0 -2.448461944243e+01 
-1.524349430630e+02 -6.666639358900e-01 0.0 
-6.666639358900e-01 -3.574418640880e+02 0.0 
0.0 0.0 -1.525630421453e+02 
-1.015891397562e+01 3.315371702535e-02 0.0 
3.315371702535e-02 -2.349051200098e+01 0.0 
0.0 0.0 -1.020258554052e+01 
-1.575734986532e+02 4.091707030965e-02 0.0 
4.091707030965e-02 -3.694215813065e+02 0.0 
0.0 0.0 -1.576985239879e+02 
-1.569319894416e+02 -4.474891463237e-01 0.0 
-4.474891463237e-01 -3.678421439561e+02 0.0 
0.0 0.0 -1.570322400193e+02 
-1.030848487734e+01 2.463831694270e-01 0.0 
2.463831694270e-01 -2.399043437664e+01 0.0 
0.0 0.0 -1.039894731082e+01 
-1.447106255918e+02 5.628696654340e-01 0.0 
5.628696654340e-01 -3.394607479004e+02 0.0 
0.0 0.0 -1.448514120476e+02 
-1.290128108691e+02 7.451329052715e-01 0.0 
7.451329052715e-01 -3.016817002651e+02 0.0 
0.0 0.0 -1.288083533402e+02 
-1.577263524856e+02 1.218798339390e-01 0.0 
1.218798339390e-01 -3.693565069824e+02 0.0 
0.0 0.0 -1.577248578404e+02 
-1.648204314652e+02 4.109320234809e-02 0.0 
4.109320234809e-02 -3.859143400854e+02 0.0 
0.0 0.0 -1.648204314652e+02 
-1.173651438820e+02 1.201712233197e+00 0.0 
1.201712233197e+00 -2.751837825519e+02 0.0 
0.0 0.0 -1.173646779302e+02 
-1.580856864034e+02 -5.349684838173e-02 0.0 
-5.349684838173e-02 -3.702116986769e+02 0.0 
0.0 0.0 -1.580892155241e+02 
-1.520041956495e+02 6.146094578037e-01 0.0 
6.146094578037e-01 -3.562649709800e+02 0.0 
0.0 0.0 -1.520807499889e+02 
-1.223648874527e+02 -3.587382438428e-02 0.0 
-3.587382438428e-02 -2.867996639938e+02 0.0 
0.0 0.0 -1.223493654340e+02 
-1.527174200082e+02 5.790563832945e-02 0.0 
5.790563832945e-02 -3.574612954381e+02 0.0 
0.0 0.0 -1.526536146339e+02 
-6.748567313146e+01 5.190356304641e-01 0.0 
5.190356304641e-01 -1.581847703350e+02 0.0 
0.0 0.0 -6.730113303994e+01 
-8.650756307227e+01 9.467375062104e-02 0.0 
9.467375062104e-02 -2.035482083387e+02 0.0 
0.0 0.0 -8.661673142330e+01 
-1.522025540855e+02 -5.791829086864e-01 0.0 
-5.791829086864e-01 -3.567758181748e+02 0.0 
0.0 0.0 -1.522935116781e+02 
-1.584302346291e+02 -4.654000804666e-01 0.0 
-4.654000804666e-01 -3.707758825005e+02 0.0 
0.0 0.0 -1.583618351389e+02 
-4.419296684603e+00 1.581394724700e-01 0.0 
1.581394724700e-01 -8.611035872761e+00 0.0 
0.0 0.0 -4.434348590376e+00 
-8.663160220062e+01 -2.192689419000e-01 0.0 
-2.192689419000e-01 -2.037656813515e+02 0.0 
0.0 0.0 -8.671918506565e+01 
-1.586223719980e+02 4.863265941147e-01 0.0 
4.863265941147e-01 -3.713024796716e+02 0.0 
0.0 0.0 -1.585774555009e+02 
-3.069952970261e+01 -5.370394602704e-01 0.0 
-5.370394602704e-01 -7.270072738152e+01 0.0 
0.0 0.0 -3.062007712524e+01 
-1.499045086253e+02 -1.320395699170e-01 0.0 
-1.320395699170e-01 -3.519430294652e+02 0.0 
0.0 0.0 -1.501542614272e+02 
-1.512580989450e+02 5.527081355358e-01 0.0 
5.527081355358e-01 -3.539155928555e+02 0.0 
0.0 0.0 -1.511521075402e+02 
-1.570548481664e+02 6.202453056876e-01 0.0 
6.202453056876e-01 -3.680013384053e+02 0.0 
0.0 0.0 -1.571168559715e+02 
-2.957939578347e+01 -5.500037800848e-01 0.0 
-5.500037800848e-01 -6.990854948136e+01 0.0 
0.0 0.0 -2.944638357945e+01 
-2.141742163684e+01 -1.922722907470e-01 0.0 
-1.922722907470e-01 -5.089573155724e+01 0.0 
0.0 0.0 -2.129394595822e+01 
-9.582678418836e+01 -1.356619935446e+00 0.0 
-1.356619935446e+00 -2.258509900431e+02 0.0 
0.0 0.0 -9.610333226943e+01 
-1.374579227908e+02 -3.227994196658e-01 0.0 
-3.227994196658e-01 -3.225746690881e+02 0.0 
0.0 0.0 -1.376097775637e+02 
-2.314563390012e+00 -6.283089220827e-02 0.0 
-6.283089220827e-02 -6.099170314922e+00 0.0 
0.0 0.0 -2.124120111480e+00 
-1.580354315685e+02 1.184265210676e-01 0.0 
1.184265210676e-01 -3.702264085975e+02 0.0 
0.0 0.0 -1.580785520498e+02 
-1.148594659716e+02 -1.545588021969e-01 0.0 
-1.545588021969e-01 -2.693286934601e+02 0.0 
0.0 0.0 -1.148564478295e+02 
-2.944043298948e+01 6.719970872671e-01 0.0 
6.719970872671e-01 -6.931092538934e+01 0.0 
0.0 0.0 -2.922540751365e+01 
-1.087979396110e+02 -2.645032645346e-01 0.0 
-2.645032645346e-01 -2.556046312725e+02 0.0 
0.0 0.0 -1.089207712651e+02 
-1.573323947926e+02 4.874800670261e-01 0.0 
4.874800670261e-01 -3.687035384557e+02 0.0 
0.0 0.0 -1.574107799745e+02 
-1.007078066977e+02 1.165450243332e+00 0.0 
1.165450243332e+00 -2.365500316830e+02 0.0 
0.0 0.0 -1.007773515142e+02 
-7.300631900322e+00 7.756430290638e-01 0.0 
7.756430290638e-01 -1.782649525802e+01 0.0 
0.0 0.0 -7.112135472136e+00 
-6.075291274926e+01 -5.626411948093e-01 0.0 
-5.626411948093e-01 -1.436703905013e+02 0.0 
0.0 0.0 -6.092699097517e+01 
-8.843155460652e+01 -4.281586133827e-01 0.0 
-4.281586133827e-01 -2.075188764873e+02 0.0 
0.0 0.0 -8.838512932815e+01 
-1.049906686177e+02 -1.406320586237e+00 0.0 
-1.406320586237e+00 -2.457163973749e+02 0.0 
0.0 0.0 -1.048121197978e+02 
-1.517393957643e+02 5.767692448023e-01 0.0 
5.767692448023e-01 -3.556087564523e+02 0.0 
0.0 0.0 -1.518044456650e+02 
-8.585725770375e+01 6.925257814090e-01 0.0 
6.925257814090e-01 -2.021997429183e+02 0.0 
0.0 0.0 -8.601710018660e+01 
-9.166577874836e+01 -3.495007728430e-01 0.0 
-3.495007728430e-01 -2.147404754827e+02 0.0 
0.0 0.0 -9.152187626931e+01 
-1.516487725642e+01 -4.326369733537e-01 0.0 
-4.326369733537e-01 -3.685871841519e+01 0.0 
0.0 0.0 -1.520707870148e+01 
-1.520692510761e+02 -5.635780854953e-01 0.0 
-5.635780854953e-01 -3.567448683843e+02 0.0 
0.0 0.0 -1.522442358381e+02 
-1.453426663117e+02 -6.495801158130e-01 0.0 
-6.495801158130e-01 -3.410769429740e+02 0.0 
0.0 0.0 -1.455258827857e+02 
-2.638546937198e+01 -3.427896858568e-01 0.0 
-3.427896858568e-01 -6.221075519268e+01 0.0 
0.0 0.0 -2.617886736940e+01 
-1.584472736549e+02 3.337242307033e-01 0.0 
3.337242307033e-01 -3.702652168358e+02 0.0 
0.0 0.0 -1.582137471472e+02 
-1.582540986871e+02 -6.046228149002e-01 0.0 
-6.046228149002e-01 -3.706838425684e+02 0.0 
0.0 0.0 -1.582813823767e+02 
-9.323375055917e+01 6.140719079319e-01 0.0 
6.140719079319e-01 -2.189916426086e+02 0.0 
0.0 0.0 -9.326761795033e+01 
-1.147840823833e+02 -1.243422975834e-01 0.0 
-1.243422975834e-01 -2.692700284367e+02 0.0 
0.0 0.0 -1.148162332460e+02 
-8.611101514627e+01 -6.574250899265e-01 0.0 
-6.574250899265e-01 -2.020924487276e+02 0.0 
0.0 0.0 -8.606103916216e+01 
-8.903380857393e+01 4.417082516224e-01 0.0 
4.417082516224e-01 -2.083686264803e+02 0.0 
0.0 0.0 -8.882073051626e+01 
-9.130402749449e+01 1.391818830108e-01 0.0 
1.391818830108e-01 -2.151257719324e+02 0.0 
0.0 0.0 -9.152893982806e+01 
-1.447336162791e+02 -6.163148452638e-01 0.0 
-6.163148452638e-01 -3.394357856030e+02 0.0 
0.0 0.0 -1.448508205646e+02 
-2.385006161183e+01 -5.020893531975e-01 0.0 
-5.020893531975e-01 -5.655883487306e+01 0.0 
0.0 0.0 -2.372266894547e+01 
-1.504955921612e+02 5.585858234008e-01 0.0 
5.585858234008e-01 -3.528215823530e+02 0.0 
0.0 0.0 -1.505951523543e+02 
-1.004975748731e+02 -2.925623743447e-01 0.0 
-2.925623743447e-01 -2.358612076616e+02 0.0 
0.0 0.0 -1.005076347604e+02 
-1.574467058327e+02 5.851003739698e-01 0.0 
5.851003739698e-01 -3.688428017666e+02 0.0 
0.0 0.0 -1.574868522798e+02 
-1.445355950498e+02 5.277921112578e-01 0.0 
5.277921112578e-01 -3.391477752846e+02 0.0 
0.0 0.0 -1.447050111003e+02 
-1.093311173405e+02 2.374441815825e-01 0.0 
2.374441815825e-01 -2.561580643261e+02 0.0 
0.0 0.0 -1.092467545000e+02 
-1.471022306874e+02 -4.785386439039e-01 0.0 
-4.785386439039e-01 -3.448431720801e+02 0.0 
0.0 0.0 -1.471836208303e+02 
-1.513736064765e+02 -5.064157364429e-01 0.0 
-5.064157364429e-01 -3.549047997571e+02 0.0 
0.0 0.0 -1.514835218701e+02 
-1.572750047658e+02 9.102708421680e-02 0.0 
9.102708421680e-02 -3.689106778665e+02 0.0 
0.0 0.0 -1.574557047897e+02 
-9.488184051215e+00 -6.634755972776e-02 0.0 
-6.634755972776e-02 -2.215712898612e+01 0.0 
0.0 0.0 -9.307626772263e+00 
-1.471257943809e+02 5.478639175088e-01 0.0 
5.478639175088e-01 -3.450160826408e+02 0.0 
0.0 0.0 -1.472425631065e+02 
-1.514689225274e+02 -7.388909055087e-01 0.0 
-7.388909055087e-01 -3.549314281409e+02 0.0 
0.0 0.0 -1.515201052005e+02 
-1.600039466068e+01 6.448995265310e-01 0.0 
6.448995265310e-01 -3.803310722822e+01 0.0 
0.0 0.0 -1.581005056667e+01 
-8.189999986419e+01 4.695308240526e-01 0.0 
4.695308240526e-01 -1.922677433996e+02 0.0 
0.0 0.0 -8.185032297914e+01 
-9.442811867854e+00 5.152528622609e-01 0.0 
5.152528622609e-01 -2.300318507566e+01 0.0 
0.0 0.0 -9.333799083055e+00 
-1.521498963252e+02 4.167696774700e-01 0.0 
4.167696774700e-01 -3.565788964411e+02 0.0 
0.0 0.0 -1.522186378299e+02 
-5.728681844792e+00 1.265499873439e-01 0.0 
1.265499873439e-01 -1.158530738185e+01 0.0 
0.0 0.0 -5.609249484108e+00 
-3.292530753176e+00 -1.213898918129e-01 0.0 
-1.213898918129e-01 -9.439002200798e+00 0.0 
0.0 0.0 -3.419459886192e+00 
-5.298547913581e+00 -5.936066151001e-02 0.0 
-5.936066151001e-02 -1.027773593931e+01 0.0 
0.0 0.0 -5.339551822533e+00 
-3.120256801079e+00 6.316747569099e-02 0.0 
6.316747569099e-02 -9.236418509188e+00 0.0 
0.0 0.0 -3.307002593080e+00 
-5.319697124489e+00 -1.401434923037e-02 0.0 
-1.401434923037e-02 -1.027374548696e+01 0.0 
0.0 0.0 -5.344699450101e+00 
-3.169720043664e+00 4.836870292014e-02 0.0 
4.836870292014e-02 -9.238790103133e+00 0.0 
0.0 0.0 -3.322553044039e+00 
-5.337185765089e+00 4.408536272355e-03 0.0 
4.408536272355e-03 -1.026954313983e+01 0.0 
0.0 0.0 -5.348685338143e+00 
-3.221899122664e+00 3.263801160117e-02 0.0 
3.263801160117e-02 -9.249799072153e+00 0.0 
0.0 0.0 -3.341509458445e+00 
-5.343229217601e+00 8.891770161289e-03 0.0 
8.891770161289e-03 -1.026414511543e+01 0.0 
0.0 0.0 -5.348878966577e+00 
-3.262811348083e+00 2.271059315772e-02 0.0 
2.271059315772e-02 -9.258097887446e+00 0.0 
0.0 0.0 -3.356272770659e+00 
-5.345331393077e+00 8.516732150656e-03 0.0 
8.516732150656e-03 -1.025975534864e+01 0.0 
0.0 0.0 -5.348192689183e+00 
-3.293560037565e+00 1.671705910601e-02 0.0 
1.671705910601e-02 -9.263604286063e+00 0.0 
0.0 0.0 -3.367149297088e+00 
-5.346487132752e+00 6.857433552580e-03 0.0 
6.857433552580e-03 -1.025666009837e+01 0.0 
0.0 0.0 -5.347610836002e+00 
-3.316804280262e+00 1.309029368212e-02 0.0 
1.309029368212e-02 -9.267025425789e+00 0.0 
0.0 0.0 -3.375148911815e+00 
-5.347577255319e+00 5.113440114778e-03 0.0 
5.113440114778e-03 -1.025457149012e+01 0.0 
0.0 0.0 -5.347311290300e+00 
-3.334778346237e+00 1.072389502478e-02 0.0 
1.072389502478e-02 -9.268989183044e+00 0.0 
0.0 0.0 -3.381130258784e+00 
-5.348746860194e+00 3.585370685881e-03 0.0 
3.585370685881e-03 -1.025314090461e+01 0.0 
0.0 0.0 -5.347232996108e+00 
-3.348881295050e+00 8.813404571191e-03 0.0 
8.813404571191e-03 -9.269969002044e+00 0.0 
0.0 0.0 -3.385655089128e+00 
-5.349904845374e+00 2.278197935173e-03 0.0 
2.278197935173e-03 -1.025210566533e+01 0.0 
0.0 0.0 -5.347269819877e+00 
-3.359700763570e+00 6.784406531566e-03 0.0 
6.784406531566e-03 -9.270343917213e+00 0.0 
0.0 0.0 -3.389013404235e+00 
-5.350868557245e+00 1.132644432489e-03 0.0 
1.132644432489e-03 -1.025130428079e+01 0.0 
0.0 0.0 -5.347318518076e+00 
-3.367203106910e+00 4.309006285304e-03 0.0 
4.309006285304e-03 -9.270493222461e+00 0.0 
0.0 0.0 -3.391308898811e+00 
-5.351398923382e+00 1.031562711832e-04 0.0 
1.031562711832e-04 -1.025065189813e+01 0.0 
0.0 0.0 -5.347281913120e+00 
-3.956437274832e+00 2.916065991866e-01 0.0 
2.916065991866e-01 -1.098487226803e+01 0.0 
0.0 0.0 -4.082392862860e+00 
-3.371025389106e+00 1.353705417859e-03 0.0 
1.353705417859e-03 -9.270672778485e+00 0.0 
0.0 0.0 -3.392509450277e+00 
-5.351290593300e+00 -8.367361119277e-04 0.0 
-8.367361119277e-04 -1.025012045606e+01 0.0 
0.0 0.0 -5.347089981476e+00 
-3.370796883313e+00 -1.891151469504e-03 0.0 
-1.891151469504e-03 -9.271046947909e+00 0.0 
0.0 0.0 -3.392553149367e+00 
-1.915377385201e+00 -4.672057018000e-01 0.0 
-4.672057018000e-01 -3.804196504620e+00 0.0 
0.0 0.0 -1.315872166946e+00 
-5.350446397074e+00 -1.665628448715e-03 0.0 
-1.665628448715e-03 -1.024972815976e+01 0.0 
0.0 0.0 -5.346719033716e+00 
-3.366400687359e+00 -5.121858671042e-03 0.0 
-5.121858671042e-03 -9.271469877703e+00 0.0 
0.0 0.0 -3.391361169518e+00 
-5.545672734461e+00 -7.389839195796e-02 0.0 
-7.389839195796e-02 -1.075005593377e+01 0.0 
0.0 0.0 -5.555385267137e+00 
-5.348893080475e+00 -2.382684045233e-03 0.0 
-2.382684045233e-03 -1.024950411771e+01 0.0 
0.0 0.0 -5.346185826123e+00 
-3.358055476339e+00 -7.998082787738e-03 0.0 
-7.998082787738e-03 -9.272389971983e+00 0.0 
0.0 0.0 -3.389133634497e+00 
-5.346595678837e+00 -2.904220665488e-03 0.0 
-2.904220665488e-03 -1.024945513765e+01 0.0 
0.0 0.0 -5.345481911613e+00 
-3.346450197697e+00 -1.009682976869e-02 0.0 
-1.009682976869e-02 -9.272879471281e+00 0.0 
0.0 0.0 -3.385798900693e+00 
-5.343787033411e+00 -3.357966081649e-03 0.0 
-3.357966081649e-03 -1.024958259471e+01 0.0 
0.0 0.0 -5.344677555102e+00 
-3.332581422105e+00 -1.105638314799e-02 0.0 
-1.105638314799e-02 -9.275004427046e+00 0.0 
0.0 0.0 -3.382275754745e+00 
-5.340174982048e+00 -3.490351136765e-03 0.0 
-3.490351136765e-03 -1.024980712867e+01 0.0 
0.0 0.0 -5.343661299881e+00 
-3.318051802691e+00 -1.060592564710e-02 0.0 
-1.060592564710e-02 -9.274049638089e+00 0.0 
0.0 0.0 -3.377630432234e+00 
-5.336839149600e+00 -3.861410902534e-03 0.0 
-3.861410902534e-03 -1.025020772957e+01 0.0 
0.0 0.0 -5.342780730417e+00 
-6.184923234025e+00 -1.697720521687e-01 0.0 
-1.697720521687e-01 -1.218715105404e+01 0.0 
0.0 0.0 -5.296742500230e+00 
-3.304371351778e+00 -7.986731493816e-03 0.0 
-7.986731493816e-03 -9.281106839745e+00 0.0 
0.0 0.0 -3.375643457457e+00 
-5.330946897282e+00 -3.402312743579e-03 0.0 
-3.402312743579e-03 -1.025016024643e+01 0.0 
0.0 0.0 -5.340998809781e+00 
-3.294221671695e+00 -4.345420146122e-03 0.0 
-4.345420146122e-03 -9.270952481165e+00 0.0 
0.0 0.0 -3.369552245858e+00 
-5.330062869875e+00 -4.427720813237e-03 0.0 
-4.427720813237e-03 -1.025095167176e+01 0.0 
0.0 0.0 -5.340971029157e+00 
-3.287434543984e+00 8.866920146488e-04 0.0 
8.866920146488e-04 -9.290635246211e+00 0.0 
0.0 0.0 -3.373420937059e+00 
-3.284220045941e+00 -4.057999396203e-03 0.0 
-4.057999396203e-03 -9.235814327867e+00 0.0 
0.0 0.0 -3.356010312142e+00 
-5.320154435089e+00 -2.193470386526e-03 0.0 
-2.193470386526e-03 -1.024994051751e+01 0.0 
0.0 0.0 -5.337695152446e+00 
-3.275189100942e+00 -4.544895598659e-03 0.0 
-4.544895598659e-03 -9.318531481945e+00 0.0 
0.0 0.0 -3.378116174866e+00 
-5.336449950714e+00 -4.783988362119e-03 0.0 
-4.783988362119e-03 -1.025427198214e+01 0.0 
0.0 0.0 -5.343883246521e+00 
-3.265714858148e+00 -3.222357965922e-02 0.0 
-3.222357965922e-02 -9.155922555507e+00 0.0 
0.0 0.0 -3.326491224097e+00 
-5.293860709682e+00 7.203681748681e-03 0.0 
7.203681748681e-03 -1.024713161496e+01 0.0 
0.0 0.0 -5.328964364059e+00 
-3.246699617781e+00 -1.126460596978e-02 0.0 
-1.126460596978e-02 -9.453591809008e+00 0.0 
0.0 0.0 -3.410087428037e+00 
-5.343858845058e+00 4.445156880712e-03 0.0 
4.445156880712e-03 -1.025783840545e+01 0.0 
0.0 0.0 -5.347175841820e+00 
-3.217529909299e+00 -1.099156973482e-01 0.0 
-1.099156973482e-01 -8.889042008933e+00 0.0 
0.0 0.0 -3.231971575469e+00 
-3.277432165796e+00 -3.125167817036e-02 0.0 
-3.125167817036e-02 -9.724994527670e+00 0.0 
0.0 0.0 -3.500728008040e+00 
-5.173423352591e+00 2.870786191134e-02 0.0 
2.870786191134e-02 -1.023121341354e+01 0.0 
0.0 0.0 -5.288057696505e+00 
-5.527122744428e+00 1.360835874080e-01 0.0 
1.360835874080e-01 -1.031793621159e+01 0.0 
0.0 0.0 -5.420184353473e+00 
-2.703349702163e+00 -8.076924006106e-03 0.0 
-8.076924006106e-03 -5.596536028635e+00 0.0 
0.0 0.0 -2.796938508355e+00 
-5.230332010000e+00 9.579616428394e-01 0.0 
9.579616428394e-01 -9.656095946489e+00 0.0 
0.0 0.0 -4.137303006184e+00 
-4.702783625335e+00 -1.234613275408e+00 0.0 
-1.234613275408e+00 -1.163301778589e+01 0.0 
0.0 0.0 -4.438962362408e+00 
-2.422094949169e+00 4.407443465873e-01 0.0 
4.407443465873e-01 -4.793686075164e+00 0.0 
0.0 0.0 -1.764734307300e+00 
-6.902311189658e+00 -6.666703392229e-02 0.0 
-6.666703392229e-02 -1.563739349677e+01 0.0 
0.0 0.0 -6.770054420661e+00 
-1.780891757250e+00 2.615869845906e-01 0.0 
2.615869845906e-01 -3.063378306480e+00 0.0 
0.0 0.0 -1.463291984996e+00 
-1.130614235100e+01 3.702046656032e-01 0.0 
3.702046656032e-01 -2.757466691019e+01 0.0 
0.0 0.0 -1.126424277836e+01 
-1.242768550194e+01 -1.273097024901e-01 0.0 
-1.273097024901e-01 -2.939446359681e+01 0.0 
0.0 0.0 -1.246777409323e+01 
-1.189117074732e+01 1.057952169253e-01 0.0 
1.057952169253e-01 -2.937292346384e+01 0.0 
0.0 0.0 -1.197922826335e+01 
-1.240173613070e+01 4.957328945747e-02 0.0 
4.957328945747e-02 -2.950376504738e+01 0.0 
0.0 0.0 -1.243019546675e+01 
-1.193349428722e+01 6.264436547807e-02 0.0 
6.264436547807e-02 -2.946246516228e+01 0.0 
0.0 0.0 -1.201878783485e+01 
-1.239796722057e+01 3.946363138179e-02 0.0 
3.946363138179e-02 -2.949341020780e+01 0.0 
0.0 0.0 -1.241509624873e+01 
-1.194797964640e+01 4.480495123805e-02 0.0 
4.480495123805e-02 -2.946689627638e+01 0.0 
0.0 0.0 -1.202446277683e+01 
-1.240021344187e+01 2.894829576470e-02 0.0 
2.894829576470e-02 -2.948716551979e+01 0.0 
0.0 0.0 -1.240986103774e+01 
-1.196280693129e+01 3.317870528867e-02 0.0 
3.317870528867e-02 -2.947162663069e+01 0.0 
0.0 0.0 -1.203033006860e+01 
-1.240355889568e+01 2.236557631358e-02 0.0 
2.236557631358e-02 -2.948520206725e+01 0.0 
0.0 0.0 -1.240828187675e+01 
-1.197710267261e+01 2.517664340153e-02 0.0 
2.517664340153e-02 -2.947670982326e+01 0.0 
0.0 0.0 -1.203614374876e+01 
-1.240651715338e+01 1.812912158725e-02 0.0 
1.812912158725e-02 -2.948482766326e+01 0.0 
0.0 0.0 -1.240805215777e+01 
-1.199007112779e+01 1.960431781108e-02 0.0 
1.960431781108e-02 -2.948081775985e+01 0.0 
0.0 0.0 -1.204126666629e+01 
-1.240886801222e+01 1.526411867132e-02 0.0 
1.526411867132e-02 -2.948482867681e+01 0.0 
0.0 0.0 -1.240829401390e+01 
-1.200151446100e+01 1.555487677653e-02 0.0 
1.555487677653e-02 -2.948359778838e+01 0.0 
0.0 0.0 -1.204553367482e+01 
-1.241070762548e+01 1.310498708019e-02 0.0 
1.310498708019e-02 -2.948477128050e+01 0.0 
0.0 0.0 -1.240867825872e+01 
-1.201136087367e+01 1.227899951784e-02 0.0 
1.227899951784e-02 -2.948509505157e+01 0.0 
0.0 0.0 -1.204893677757e+01 
-1.241214991037e+01 1.109553937128e-02 0.0 
1.109553937128e-02 -2.948458230462e+01 0.0 
0.0 0.0 -1.240908245745e+01 
-1.201941707245e+01 9.167904103907e-03 0.0 
9.167904103907e-03 -2.948547974148e+01 0.0 
0.0 0.0 -1.205146904418e+01 
-1.241325852576e+01 8.744142644903e-03 0.0 
8.744142644903e-03 -2.948437118954e+01 0.0 
0.0 0.0 -1.240945569881e+01 
-1.202528735568e+01 5.780687058086e-03 0.0 
5.780687058086e-03 -2.948499507981e+01 0.0 
0.0 0.0 -1.205308473065e+01 
-1.241404187498e+01 5.672785091930e-03 0.0 
5.672785091930e-03 -2.948435780993e+01 0.0 
0.0 0.0 -1.240975871914e+01 
-1.208968898763e+01 4.850096847703e-01 0.0 
4.850096847703e-01 -3.082032429561e+01 0.0 
0.0 0.0 -1.247300398497e+01 
-1.202844425627e+01 1.961685877634e-03 0.0 
1.961685877634e-03 -2.948407507053e+01 0.0 
0.0 0.0 -1.205375579804e+01 
-1.241440927123e+01 1.881306496908e-03 0.0 
1.881306496908e-03 -2.948462837095e+01 0.0 
0.0 0.0 -1.240993130329e+01 
-1.202847982028e+01 -2.135000925804e-03 0.0 
-2.135000925804e-03 -2.948324263735e+01 0.0 
0.0 0.0 -1.205351673729e+01 
-1.294386235535e+01 -1.533460377943e-01 0.0 
-1.533460377943e-01 -3.008384986560e+01 0.0 
0.0 0.0 -1.250831366628e+01 
-1.241432530835e+01 -2.343096952203e-03 0.0 
-2.343096952203e-03 -2.948525110638e+01 0.0 
0.0 0.0 -1.240994773722e+01 
-1.202523216356e+01 -6.182772407641e-03 0.0 
-6.182772407641e-03 -2.948281476336e+01 0.0 
0.0 0.0 -1.205241407808e+01 
-1.241366784847e+01 -6.462921806606e-03 0.0 
-6.462921806606e-03 -2.948597058365e+01 0.0 
0.0 0.0 -1.240976747305e+01 
-1.201892655028e+01 -9.877832948804e-03 0.0 
-9.877832948804e-03 -2.948283373364e+01 0.0 
0.0 0.0 -1.205052808518e+01 
-1.241272175635e+01 -1.042680130696e-02 0.0 
-1.042680130696e-02 -2.948727763081e+01 0.0 
0.0 0.0 -1.240947330207e+01 
-1.039242368835e+01 -1.967011458720e-01 0.0 
-1.967011458720e-01 -2.433044653378e+01 0.0 
0.0 0.0 -1.001686106664e+01 
-1.200988287565e+01 -1.276981865978e-02 0.0 
-1.276981865978e-02 -2.948356702175e+01 0.0 
0.0 0.0 -1.204803496922e+01 
-1.241097240435e+01 -1.313013305251e-02 0.0 
-1.313013305251e-02 -2.948798041549e+01 0.0 
0.0 0.0 -1.240890594356e+01 
-1.199909440127e+01 -1.472926083669e-02 0.0 
-1.472926083669e-02 -2.948454234989e+01 0.0 
0.0 0.0 -1.204509102535e+01 
-1.240975397678e+01 -1.571329595667e-02 0.0 
-1.571329595667e-02 -2.949040337737e+01 0.0 
0.0 0.0 -1.240847148432e+01 
-1.198696152748e+01 -1.502349742927e-02 0.0 
-1.502349742927e-02 -2.948693023081e+01 0.0 
0.0 0.0 -1.204216752749e+01 
-1.240668569161e+01 -1.467213368812e-02 0.0 
-1.467213368812e-02 -2.948930228992e+01 0.0 
0.0 0.0 -1.240749801575e+01 
-1.197541631573e+01 -1.490519683099e-02 0.0 
-1.490519683099e-02 -2.948685168537e+01 0.0 
0.0 0.0 -1.203868040033e+01 
-1.240730759412e+01 -1.752353408719e-02 0.0 
-1.752353408719e-02 -2.949601647539e+01 0.0 
0.0 0.0 -1.240756495985e+01 
-1.196354926925e+01 -1.062049771750e-02 0.0 
-1.062049771750e-02 -2.949540744133e+01 0.0 
0.0 0.0 -1.203768701317e+01 
-1.239944821085e+01 -5.950904967164e-03 0.0 
-5.950904967164e-03 -2.948509853713e+01 0.0 
0.0 0.0 -1.240528644746e+01 
-1.195729575769e+01 -9.330371930517e-03 0.0 
-9.330371930517e-03 -2.948567218504e+01 0.0 
0.0 0.0 -1.203289038282e+01 
-1.240638929488e+01 -1.630828700219e-02 0.0 
-1.630828700219e-02 -2.950454556482e+01 0.0 
0.0 0.0 -1.240756868560e+01 
-1.405526325467e+01 -2.065543748186e-01 0.0 
-2.065543748186e-01 -3.216124575841e+01 0.0 
0.0 0.0 -1.346495270392e+01 
-1.238031007314e+01 2.194796952900e-02 0.0 
2.194796952900e-02 -2.945570157741e+01 0.0 
0.0 0.0 -1.240116784312e+01 
-1.195019903624e+01 1.062683635013e-03 0.0 
1.062683635013e-03 -2.951155350272e+01 0.0 
0.0 0.0 -1.203852576169e+01 
-1.241197416615e+01 -5.635327580997e-02 0.0 
-5.635327580997e-02 -2.953819563711e+01 0.0 
0.0 0.0 -1.241191668678e+01 
-1.195482897055e+01 -1.555767927671e-02 0.0 
-1.555767927671e-02 -2.943476676913e+01 0.0 
0.0 0.0 -1.201687872191e+01 
-1.231911447948e+01 6.203585190142e-02 0.0 
6.203585190142e-02 -2.939065182454e+01 0.0 
0.0 0.0 -1.238748047284e+01 
-1.193642250091e+01 -1.434811407205e-03 0.0 
-1.434811407205e-03 -2.956175313314e+01 0.0 
0.0 0.0 -1.204945269022e+01 
-1.263229603878e+01 -2.088945923955e-01 0.0 
-2.088945923955e-01 -2.966761321945e+01 0.0 
0.0 0.0 -1.237809667710e+01 
-1.194291820714e+01 -5.752610506767e-02 0.0 
-5.752610506767e-02 -2.929476017054e+01 0.0 
0.0 0.0 -1.197130351330e+01 
-1.185209174948e+01 -4.036866524260e-02 0.0 
-4.036866524260e-02 -2.970947413824e+01 0.0 
0.0 0.0 -1.206846976632e+01 
-1.064012515981e+01 2.650435271906e-02 0.0 
2.650435271906e-02 -2.359329677062e+01 0.0 
0.0 0.0 -9.909234657031e+00 
-1.190267038595e+01 1.476549637351e+00 0.0 
1.476549637351e+00 -2.986352432061e+01 0.0 
0.0 0.0 -1.212985841197e+01 
-1.223736517057e+01 -1.408241334980e+00 0.0 
-1.408241334980e+00 -2.788591705989e+01 0.0 
0.0 0.0 -1.163698466914e+01 
-1.419576759702e+01 1.726160909324e-01 0.0 
1.726160909324e-01 -3.400859448014e+01 0.0 
0.0 0.0 -1.406130862315e+01 
-1.000558553562e+01 -1.402161912534e-01 0.0 
-1.402161912534e-01 -2.385667437162e+01 0.0 
0.0 0.0 -9.758677972172e+00 
-1.019996257722e+01 1.500154709034e-02 0.0 
1.500154709034e-02 -2.347362826271e+01 0.0 
0.0 0.0 -9.702077251978e+00 
-2.122359332943e+01 3.345733705579e-01 0.0 
3.345733705579e-01 -5.083180346415e+01 0.0 
0.0 0.0 -2.121661903807e+01 
-2.044433447904e+01 -1.862788841789e-01 0.0 
-1.862788841789e-01 -4.910196139556e+01 0.0 
0.0 0.0 -2.046388876238e+01 
-2.045621961625e+01 7.202110373876e-02 0.0 
7.202110373876e-02 -4.907863804361e+01 0.0 
0.0 0.0 -2.046045729796e+01 
-2.038025727028e+01 3.583204904160e-02 0.0 
3.583204904160e-02 -4.897768268077e+01 0.0 
0.0 0.0 -2.040738198531e+01 
-2.039844689585e+01 4.879696882996e-02 0.0 
4.879696882996e-02 -4.898328861414e+01 0.0 
0.0 0.0 -2.041452065300e+01 
-2.035729985867e+01 3.828982242100e-02 0.0 
3.828982242100e-02 -4.896708670846e+01 0.0 
0.0 0.0 -2.039731597014e+01 
-2.038456957047e+01 4.008866290316e-02 0.0 
4.008866290316e-02 -4.897824531640e+01 0.0 
0.0 0.0 -2.040884446606e+01 
-2.034955688731e+01 3.235510534594e-02 0.0 
3.235510534594e-02 -4.896843814141e+01 0.0 
0.0 0.0 -2.039539850862e+01 
-2.037682792223e+01 3.283931208494e-02 0.0 
3.283931208494e-02 -4.897978553065e+01 0.0 
0.0 0.0 -2.040698403587e+01 
-2.034941497903e+01 2.708171399926e-02 0.0 
2.708171399926e-02 -4.897249007969e+01 0.0 
0.0 0.0 -2.039657151761e+01 
-2.037257869987e+01 2.697643456567e-02 0.0 
2.697643456567e-02 -4.898219910145e+01 0.0 
0.0 0.0 -2.040643334040e+01 
-2.035296874191e+01 2.287940214769e-02 0.0 
2.287940214769e-02 -4.897653147970e+01 0.0 
0.0 0.0 -2.039885006648e+01 
-2.037106134732e+01 2.245516392240e-02 0.0 
2.245516392240e-02 -4.898418016219e+01 0.0 
0.0 0.0 -2.040657245285e+01 
-2.035814027214e+01 1.958063078017e-02 0.0 
1.958063078017e-02 -4.897951187047e+01 0.0 
0.0 0.0 -2.040129564278e+01 
-2.037146641882e+01 1.886091279382e-02 0.0 
1.886091279382e-02 -4.898528256016e+01 0.0 
0.0 0.0 -2.040702469369e+01 
-2.036379514416e+01 1.679600604194e-02 0.0 
1.679600604194e-02 -4.898115112736e+01 0.0 
0.0 0.0 -2.040348388146e+01 
-2.037295825331e+01 1.565278506995e-02 0.0 
1.565278506995e-02 -4.898542387058e+01 0.0 
0.0 0.0 -2.040751463717e+01 
-2.036924583284e+01 1.406064321568e-02 0.0 
1.406064321568e-02 -4.898147704285e+01 0.0 
0.0 0.0 -2.040521686271e+01 
-2.037493016558e+01 1.229546467957e-02 0.0 
1.229546467957e-02 -4.898472431205e+01 0.0 
0.0 0.0 -2.040789634329e+01 
-2.037401029490e+01 1.091108761013e-02 0.0 
1.091108761013e-02 -4.898071511431e+01 0.0 
0.0 0.0 -2.040641762276e+01 
-2.048890450341e+01 5.074493202131e-01 0.0 
5.074493202131e-01 -5.041292866881e+01 0.0 
0.0 0.0 -2.087054995167e+01 
-2.037690899124e+01 8.301486215152e-03 0.0 
8.301486215152e-03 -4.898345752577e+01 0.0 
0.0 0.0 -2.040810995510e+01 
-2.037763885635e+01 6.966119210370e-03 0.0 
6.966119210370e-03 -4.897936599894e+01 0.0 
0.0 0.0 -2.040710145659e+01 
-2.037848415046e+01 3.286797226158e-03 0.0 
3.286797226158e-03 -4.898217324957e+01 0.0 
0.0 0.0 -2.040819722001e+01 
-1.874483237391e+01 -1.302962491171e-01 0.0 
-1.302962491171e-01 -4.393019800141e+01 0.0 
0.0 0.0 -1.840250911260e+01 
-2.037952197252e+01 2.068043502523e-03 0.0 
2.068043502523e-03 -4.897854891752e+01 0.0 
0.0 0.0 -2.040742126701e+01 
-2.037852926579e+01 -2.312334804592e-03 0.0 
-2.312334804592e-03 -4.898139047063e+01 0.0 
0.0 0.0 -2.040797592093e+01 
-2.124364653785e+01 -1.698385484292e-01 0.0 
-1.698385484292e-01 -4.948021648588e+01 0.0 
0.0 0.0 -2.081715890712e+01 
-2.037918561820e+01 -3.371139085618e-03 0.0 
-3.371139085618e-03 -4.897843390546e+01 0.0 
0.0 0.0 -2.040728585710e+01 
-2.037662465284e+01 -8.260145551575e-03 0.0 
-8.260145551575e-03 -4.898137409237e+01 0.0 
0.0 0.0 -2.040739962356e+01 
-2.037625176277e+01 -8.845664463167e-03 0.0 
-8.845664463167e-03 -4.897989090995e+01 0.0 
0.0 0.0 -2.040684280181e+01 
-2.037221648533e+01 -1.296463620357e-02 0.0 
-1.296463620357e-02 -4.898196604009e+01 0.0 
0.0 0.0 -2.040625475762e+01 
-2.037139518105e+01 -1.354823628903e-02 0.0 
-1.354823628903e-02 -4.898056567206e+01 0.0 
0.0 0.0 -2.040558825593e+01 
-2.036818695613e+01 -1.824452306733e-02 0.0 
-1.824452306733e-02 -4.898375235877e+01 0.0 
0.0 0.0 -2.040558179447e+01 
-2.036408160701e+01 -1.755241633516e-02 0.0 
-1.755241633516e-02 -4.898552862979e+01 0.0 
0.0 0.0 -2.040488307104e+01 
-2.036032311544e+01 -1.872576419382e-02 0.0 
-1.872576419382e-02 -4.898541010560e+01 0.0 
0.0 0.0 -2.040371996631e+01 
-2.035702058767e+01 -1.945135435896e-02 0.0 
-1.945135435896e-02 -4.898374626870e+01 0.0 
0.0 0.0 -2.040223005691e+01 
-2.239525317483e+01 -1.876034719196e-01 0.0 
-1.876034719196e-01 -5.173235923884e+01 0.0 
0.0 0.0 -2.183828372410e+01 
-2.035962369708e+01 -2.434327498899e-02 0.0 
-2.434327498899e-02 -4.898969354680e+01 0.0 
0.0 0.0 -2.040479517317e+01 
-2.034627735059e+01 -2.087063786490e-02 0.0 
-2.087063786490e-02 -4.899688686414e+01 0.0 
0.0 0.0 -2.040294926442e+01 
-2.034304222192e+01 -1.443923626019e-02 0.0 
-1.443923626019e-02 -4.898875278234e+01 0.0 
0.0 0.0 -2.039953850128e+01 
-2.034138839003e+01 -1.928478568417e-02 0.0 
-1.928478568417e-02 -4.897848404483e+01 0.0 
0.0 0.0 -2.039596173046e+01 
-2.032024024685e+01 -1.925249093056e-02 0.0 
-1.925249093056e-02 -4.902847231242e+01 0.0 
0.0 0.0 -2.040461376778e+01 
-2.036303706125e+01 -3.409352614626e-02 0.0 
-3.409352614626e-02 -4.900234570678e+01 0.0 
0.0 0.0 -2.040961483041e+01 
-2.032603664385e+01 -1.363127600670e-02 0.0 
-1.363127600670e-02 -4.893942075816e+01 0.0 
0.0 0.0 -2.037963722060e+01 
-2.029332191427e+01 1.104269294889e-02 0.0 
1.104269294889e-02 -4.898320611318e+01 0.0 
0.0 0.0 -2.038295840824e+01 
-2.027461544890e+01 -1.672223594782e-02 0.0 
-1.672223594782e-02 -4.909544120073e+01 0.0 
0.0 0.0 -2.041101699489e+01 
-2.040495675059e+01 -6.384209638422e-02 0.0 
-6.384209638422e-02 -4.902649114923e+01 0.0 
0.0 0.0 -2.042943436994e+01 
-2.033708828941e+01 -3.361380883064e-02 0.0 
-3.361380883064e-02 -4.871197991995e+01 0.0 
0.0 0.0 -2.031472046281e+01 
-2.013123317678e+01 -1.271039334397e-01 0.0 
-1.271039334397e-01 -4.917128616744e+01 0.0 
0.0 0.0 -2.039075580327e+01 
-2.015068364835e+01 9.544884013316e-02 0.0 
9.544884013316e-02 -4.890920352998e+01 0.0 
0.0 0.0 -2.031796615350e+01 
-2.092018386330e+01 -2.316677048012e-01 0.0 
-2.316677048012e-01 -4.913770405861e+01 0.0 
0.0 0.0 -2.061736637657e+01 
-1.903396543735e+01 7.045401041929e-02 0.0 
7.045401041929e-02 -4.332623925219e+01 0.0 
0.0 0.0 -1.830806140686e+01 
-2.100336251053e+01 1.478462924353e+00 0.0 
1.478462924353e+00 -4.869429375820e+01 0.0 
0.0 0.0 -2.050929688062e+01 
-2.066539699419e+01 -1.403907695053e+00 0.0 
-1.403907695053e+00 -5.068828108685e+01 0.0 
0.0 0.0 -2.100610342431e+01 
-1.871438192067e+01 1.739763726102e-01 0.0 
1.739763726102e-01 -4.455202790199e+01 0.0 
0.0 0.0 -1.857992294680e+01 
-2.288557185997e+01 -1.396770152831e-01 0.0 
-1.396770152831e-01 -5.470105681586e+01 0.0 
0.0 0.0 -2.287598860275e+01 
-1.853473589340e+01 9.721579787761e-03 0.0 
9.721579787761e-03 -4.312922145439e+01 0.0 
0.0 0.0 -1.809918720434e+01 
-2.811990358014e+01 2.869016484591e-01 0.0 
2.869016484591e-01 -6.692319404912e+01 0.0 
0.0 0.0 -2.811292928878e+01 
-2.882530972458e+01 -2.085574334099e-01 0.0 
-2.085574334099e-01 -6.859816074263e+01 0.0 
0.0 0.0 -2.882704114016e+01 
-2.883535496598e+01 4.153529272616e-02 0.0 
4.153529272616e-02 -6.862995385966e+01 0.0 
0.0 0.0 -2.883959264769e+01 
-2.887251685807e+01 1.519804956292e-02 0.0 
1.519804956292e-02 -6.871686415901e+01 0.0 
0.0 0.0 -2.887681430512e+01 
-2.885314091373e+01 2.910170664660e-02 0.0 
2.910170664660e-02 -6.871090798918e+01 0.0 
0.0 0.0 -2.886921467087e+01 
-2.886689351949e+01 2.446210591230e-02 0.0 
2.446210591230e-02 -6.872100852021e+01 0.0 
0.0 0.0 -2.887637061191e+01 
-2.884152149037e+01 2.843538870774e-02 0.0 
2.843538870774e-02 -6.871113312949e+01 0.0 
0.0 0.0 -2.886579638596e+01 
-2.885852725127e+01 2.304078867597e-02 0.0 
2.304078867597e-02 -6.872240690407e+01 0.0 
0.0 0.0 -2.887428024660e+01 
-2.883401332567e+01 2.714294888706e-02 0.0 
2.714294888706e-02 -6.871321813867e+01 0.0 
0.0 0.0 -2.886416943930e+01 
-2.885089860184e+01 2.163393016677e-02 0.0 
2.163393016677e-02 -6.872517522179e+01 0.0 
0.0 0.0 -2.887282214709e+01 
-2.883076197047e+01 2.523724655265e-02 0.0 
2.523724655265e-02 -6.871796006618e+01 0.0 
0.0 0.0 -2.886461661099e+01 
-2.884489513188e+01 2.071934730551e-02 0.0 
2.071934730551e-02 -6.872774364408e+01 0.0 
0.0 0.0 -2.887179163279e+01 
-2.883040267600e+01 2.302726244321e-02 0.0 
2.302726244321e-02 -6.872264326245e+01 0.0 
0.0 0.0 -2.886591378154e+01 
-2.884114082335e+01 1.982934228831e-02 0.0 
1.982934228831e-02 -6.872934458139e+01 0.0 
0.0 0.0 -2.887114562142e+01 
-2.883167437315e+01 2.049473331581e-02 0.0 
2.049473331581e-02 -6.872576778692e+01 0.0 
0.0 0.0 -2.886723264802e+01 
-2.883908993303e+01 1.850582371906e-02 0.0 
1.850582371906e-02 -6.872973755508e+01 0.0 
0.0 0.0 -2.887064824643e+01 
-2.883365609719e+01 1.752526028673e-02 0.0 
1.752526028673e-02 -6.872705217296e+01 0.0 
0.0 0.0 -2.886821248104e+01 
-2.883819265963e+01 1.649295096060e-02 0.0 
1.649295096060e-02 -6.872894967903e+01 0.0 
0.0 0.0 -2.887014270160e+01 
-2.883568826493e+01 1.387790083623e-02 0.0 
1.387790083623e-02 -6.872649321055e+01 0.0 
0.0 0.0 -2.886865444264e+01 
-2.879350662827e+01 5.672273840992e-01 0.0 
5.672273840992e-01 -6.988959756696e+01 0.0 
0.0 0.0 -2.920493125857e+01 
-2.883792884593e+01 1.345035618690e-02 0.0 
1.345035618690e-02 -6.872721637803e+01 0.0 
0.0 0.0 -2.886954356719e+01 
-2.883732278683e+01 9.302179850999e-03 0.0 
9.302179850999e-03 -6.872442304882e+01 0.0 
0.0 0.0 -2.886852375069e+01 
-2.883848981157e+01 8.972640213772e-03 0.0 
8.972640213772e-03 -6.872513830059e+01 0.0 
0.0 0.0 -2.886908843365e+01 
-2.964055926362e+01 -6.979305872077e-02 0.0 
-6.979305872077e-02 -6.916610596810e+01 0.0 
0.0 0.0 -2.924199956952e+01 
-2.883809610968e+01 3.460498383101e-03 0.0 
3.460498383101e-03 -6.872126782110e+01 0.0 
0.0 0.0 -2.886780917923e+01 
-2.884059746149e+01 2.248413660557e-03 0.0 
2.248413660557e-03 -6.872424876293e+01 0.0 
0.0 0.0 -2.886945386732e+01 
-2.883747131950e+01 -3.407249434287e-03 0.0 
-3.407249434287e-03 -6.871892192929e+01 0.0 
0.0 0.0 -2.886691797464e+01 
-2.883997708670e+01 -5.481615237214e-03 0.0 
-5.481615237214e-03 -6.872419580056e+01 0.0 
0.0 0.0 -2.886925186618e+01 
-2.883541802941e+01 -1.047182956586e-02 0.0 
-1.047182956586e-02 -6.871855863772e+01 0.0 
0.0 0.0 -2.886619300014e+01 
-2.705508915418e+01 -1.417354391709e-01 0.0 
-1.417354391709e-01 -6.345248307067e+01 0.0 
0.0 0.0 -2.675227166745e+01 
-2.883934572503e+01 -1.367180796318e-02 0.0 
-1.367180796318e-02 -6.872647696496e+01 0.0 
0.0 0.0 -2.886974680700e+01 
-2.883202864760e+01 -1.639656743811e-02 0.0 
-1.639656743811e-02 -6.872152775205e+01 0.0 
0.0 0.0 -2.886606691990e+01 
-2.883053648730e+01 -1.850382258716e-02 0.0 
-1.850382258716e-02 -6.872686871662e+01 0.0 
0.0 0.0 -2.886722156118e+01 
-2.882805035734e+01 -2.130844176758e-02 0.0 
-2.130844176758e-02 -6.872343362826e+01 0.0 
0.0 0.0 -2.886544519568e+01 
-2.883640561037e+01 -2.604010548181e-02 0.0 
-2.604010548181e-02 -6.873447172417e+01 0.0 
0.0 0.0 -2.887126320036e+01 
-2.882348167820e+01 -2.331719062746e-02 0.0 
-2.331719062746e-02 -6.873278008538e+01 0.0 
0.0 0.0 -2.886687852907e+01 
-2.881516935231e+01 -2.228953928827e-02 0.0 
-2.228953928827e-02 -6.873041889535e+01 0.0 
0.0 0.0 -2.886367647430e+01 
-2.881873492457e+01 -2.608755002556e-02 0.0 
-2.608755002556e-02 -6.872761974427e+01 0.0 
0.0 0.0 -2.886390640065e+01 
-2.885122661752e+01 -3.636405936499e-02 0.0 
-3.636405936499e-02 -6.875115452741e+01 0.0 
0.0 0.0 -2.888071434348e+01 
-2.881431221216e+01 -2.241307637820e-02 0.0 
-2.241307637820e-02 -6.875504942623e+01 0.0 
0.0 0.0 -2.887080849152e+01 
-2.878059812014e+01 -7.271424164630e-03 0.0 
-7.271424164630e-03 -6.872126156750e+01 0.0 
0.0 0.0 -2.885055790629e+01 
-3.073064482170e+01 -1.826930277345e-01 0.0 
-1.826930277345e-01 -7.127889183135e+01 0.0 
0.0 0.0 -3.020286099591e+01 
-2.892897964100e+01 -7.642560045327e-02 0.0 
-7.642560045327e-02 -6.879786043719e+01 0.0 
0.0 0.0 -2.891805202346e+01 
-2.880437777203e+01 -3.248227071187e-02 0.0 
-3.248227071187e-02 -6.869880736525e+01 0.0 
0.0 0.0 -2.885095554118e+01 
-2.864169723437e+01 6.739866478025e-02 0.0 
6.739866478025e-02 -6.866292697643e+01 0.0 
0.0 0.0 -2.879138726324e+01 
-2.880275144860e+01 -1.458996948531e-02 0.0 
-1.458996948531e-02 -6.883854169328e+01 0.0 
0.0 0.0 -2.889238794257e+01 
-2.936480436129e+01 -2.114527812014e-01 0.0 
-2.114527812014e-01 -6.892166682704e+01 0.0 
0.0 0.0 -2.908594135650e+01 
-2.876957100700e+01 -4.989873379860e-02 0.0 
-4.989873379860e-02 -6.854392441421e+01 0.0 
0.0 0.0 -2.879404862636e+01 
-2.875697415590e+01 -4.947984553041e-02 0.0 
-4.947984553041e-02 -6.899054804758e+01 0.0 
0.0 0.0 -2.892425666104e+01 
-2.737800646009e+01 1.286232316124e-02 0.0 
1.286232316124e-02 -6.289599239308e+01 0.0 
0.0 0.0 -2.668219965595e+01 
-2.843884190097e+01 1.470309323984e+00 0.0 
1.470309323984e+00 -6.913320804504e+01 0.0 
0.0 0.0 -2.887161498380e+01 
-2.878213945728e+01 -1.432443537560e+00 0.0 
-1.432443537560e+00 -6.711232497602e+01 0.0 
0.0 0.0 -2.836833932999e+01 
-3.079323150743e+01 1.584989564848e-01 0.0 
1.584989564848e-01 -7.325103805090e+01 0.0 
0.0 0.0 -3.081328086750e+01 
-2.649490719494e+01 -1.603349735975e-01 0.0 
-1.603349735975e-01 -6.312283926412e+01 0.0 
0.0 0.0 -2.648532393772e+01 
-2.695069897843e+01 1.426884839656e-02 0.0 
1.426884839656e-02 -6.279667218056e+01 0.0 
0.0 0.0 -2.652421134770e+01 
-3.801083596939e+01 2.935992747790e-01 0.0 
2.935992747790e-01 -9.008540741385e+01 0.0 
0.0 0.0 -3.802887301497e+01 
-3.729193099597e+01 -2.195452894049e-01 0.0 
-2.195452894049e-01 -8.835361037588e+01 0.0 
0.0 0.0 -3.729366241156e+01 
-3.726464587145e+01 3.484120057319e-02 0.0 
3.484120057319e-02 -8.831033246179e+01 0.0 
0.0 0.0 -3.727249349997e+01 
-3.722812322254e+01 6.022517411111e-03 0.0 
6.022517411111e-03 -8.821327900945e+01 0.0 
0.0 0.0 -3.723242066960e+01 
-3.722300039972e+01 2.010962854491e-02 0.0 
2.010962854491e-02 -8.820847161222e+01 0.0 
0.0 0.0 -3.722944160358e+01 
-3.721581288742e+01 1.735484550084e-02 0.0 
1.735484550084e-02 -8.820182037871e+01 0.0 
0.0 0.0 -3.722528997984e+01 
-3.721548905761e+01 1.842384699417e-02 0.0 
1.842384699417e-02 -8.820141714595e+01 0.0 
0.0 0.0 -3.722507186107e+01 
-3.720727778757e+01 1.760875463555e-02 0.0 
1.760875463555e-02 -8.820282482211e+01 0.0 
0.0 0.0 -3.722303078290e+01 
-3.720850176908e+01 1.763841427579e-02 0.0 
1.763841427579e-02 -8.820332826268e+01 0.0 
0.0 0.0 -3.722354900953e+01 
-3.720019725072e+01 1.750762806922e-02 0.0 
1.750762806922e-02 -8.820687206918e+01 0.0 
0.0 0.0 -3.722212079597e+01 
-3.720189396058e+01 1.766073159536e-02 0.0 
1.766073159536e-02 -8.820751801669e+01 0.0 
0.0 0.0 -3.722282359318e+01 
-3.719471593471e+01 1.769785742985e-02 0.0 
1.769785742985e-02 -8.821065885068e+01 0.0 
0.0 0.0 -3.722161243562e+01 
-3.719658507644e+01 1.823742287176e-02 0.0 
1.823742287176e-02 -8.821118727856e+01 0.0 
0.0 0.0 -3.722233170650e+01 
-3.719085859826e+01 1.787097448932e-02 0.0 
1.787097448932e-02 -8.821201938951e+01 0.0 
0.0 0.0 -3.722086339633e+01 
-3.719406558672e+01 1.803399134267e-02 0.0 
1.803399134267e-02 -8.821323152547e+01 0.0 
0.0 0.0 -3.722218913366e+01 
-3.718857463352e+01 1.708351613524e-02 0.0 
1.708351613524e-02 -8.821186852290e+01 0.0 
0.0 0.0 -3.722013294692e+01 
-3.719210236677e+01 1.675711994792e-02 0.0 
1.675711994792e-02 -8.821345383324e+01 0.0 
0.0 0.0 -3.722166686000e+01 
-3.718725909580e+01 1.525412970294e-02 0.0 
1.525412970294e-02 -8.821010469676e+01 0.0 
0.0 0.0 -3.721920913777e+01 
-3.730616102923e+01 5.883108829780e-01 0.0 
5.883108829780e-01 -8.957799440415e+01 0.0 
0.0 0.0 -3.766524663002e+01 
-3.718991508455e+01 1.416180757564e-02 0.0 
1.416180757564e-02 -8.821183088118e+01 0.0 
0.0 0.0 -3.722052378972e+01 
-3.718648188465e+01 1.231350500804e-02 0.0 
1.231350500804e-02 -8.820717346837e+01 0.0 
0.0 0.0 -3.721809660591e+01 
-3.718754312466e+01 1.058137618429e-02 0.0 
1.058137618429e-02 -8.820879067544e+01 0.0 
0.0 0.0 -3.721890014003e+01 
-3.545391759843e+01 -1.023930580585e-01 0.0 
-1.023930580585e-01 -8.312959771370e+01 0.0 
0.0 0.0 -3.517505459364e+01 
-3.718600046233e+01 8.273159271132e-03 0.0 
8.273159271132e-03 -8.820266315236e+01 0.0 
0.0 0.0 -3.721659908441e+01 
-3.798996265055e+01 -5.437599248901e-02 0.0 
-5.437599248901e-02 -8.868645572765e+01 0.0 
0.0 0.0 -3.760292551346e+01 
-3.718721520258e+01 5.869467130907e-03 0.0 
5.869467130907e-03 -8.820495963872e+01 0.0 
0.0 0.0 -3.721765245239e+01 
-3.718554549684e+01 2.313995779885e-03 0.0 
2.313995779885e-03 -8.819579417876e+01 0.0 
0.0 0.0 -3.721440190268e+01 
-3.719139371880e+01 -3.734963505004e-03 0.0 
-3.734963505004e-03 -8.820296311405e+01 0.0 
0.0 0.0 -3.721830704986e+01 
-3.718536304218e+01 -6.375389513310e-03 0.0 
-6.375389513310e-03 -8.819676303002e+01 0.0 
0.0 0.0 -3.721463782166e+01 
-3.718817372847e+01 -1.182963570528e-02 0.0 
-1.182963570528e-02 -8.820268518032e+01 0.0 
0.0 0.0 -3.721725767264e+01 
-3.718341230431e+01 -1.470347362739e-02 0.0 
-1.470347362739e-02 -8.819596564995e+01 0.0 
0.0 0.0 -3.721381338628e+01 
-3.718633106565e+01 -2.468088182852e-02 0.0 
-2.468088182852e-02 -8.820669066099e+01 0.0 
0.0 0.0 -3.721790651799e+01 
-3.718222698349e+01 -2.140180154647e-02 0.0 
-2.140180154647e-02 -8.821414654107e+01 0.0 
0.0 0.0 -3.721891205737e+01 
-3.929078749467e+01 -1.043933825642e-01 0.0 
-1.043933825642e-01 -9.092168333985e+01 0.0 
0.0 0.0 -3.866374125035e+01 
-3.716872698472e+01 -1.886857638167e-02 0.0 
-1.886857638167e-02 -8.820711185947e+01 0.0 
0.0 0.0 -3.721275165326e+01 
-3.717736493397e+01 -2.380893442179e-02 0.0 
-2.380893442179e-02 -8.819671014590e+01 0.0 
0.0 0.0 -3.721222252396e+01 
-3.719452429772e+01 -4.120360272671e-02 0.0 
-4.120360272671e-02 -8.822154104303e+01 0.0 
0.0 0.0 -3.722481960222e+01 
-3.718093948459e+01 -2.671895113561e-02 0.0 
-2.671895113561e-02 -8.825054920399e+01 0.0 
0.0 0.0 -3.722944660658e+01 
-3.717087721248e+01 -2.526943308356e-02 0.0 
-2.526943308356e-02 -8.816367258232e+01 0.0 
0.0 0.0 -3.720036493844e+01 
-3.714717672629e+01 -7.672664635610e-04 0.0 
-7.672664635610e-04 -8.820954400514e+01 0.0 
0.0 0.0 -3.720701621943e+01 
-3.718797097148e+01 -2.705101944971e-02 0.0 
-2.705101944971e-02 -8.833846488729e+01 0.0 
0.0 0.0 -3.725793075763e+01 
-3.726967288657e+01 -7.645947838725e-02 0.0 
-7.645947838725e-02 -8.825634504660e+01 0.0 
0.0 0.0 -3.725780537995e+01 
-3.714636716325e+01 -4.132479636393e-02 0.0 
-4.132479636393e-02 -8.797176465576e+01 0.0 
0.0 0.0 -3.713543954570e+01 
-3.716670980433e+01 -8.775261416689e-02 0.0 
-8.775261416689e-02 -8.855462297300e+01 0.0 
0.0 0.0 -3.731639983320e+01 
-3.705457231269e+01 7.537515857241e-02 0.0 
7.537515857241e-02 -8.816523978317e+01 0.0 
0.0 0.0 -3.716594362876e+01 
-3.777485754610e+01 -2.390650509359e-01 0.0 
-2.390650509359e-01 -8.840692284811e+01 0.0 
0.0 0.0 -3.745453411826e+01 
-3.592962729835e+01 5.682838141240e-02 0.0 
5.682838141240e-02 -8.261102150724e+01 0.0 
0.0 0.0 -3.516219464168e+01 
-3.768137605321e+01 1.476969894621e+00 0.0 
1.476969894621e+00 -8.792157532449e+01 0.0 
0.0 0.0 -3.728088541331e+01 
-3.734306376372e+01 -1.432689246710e+00 0.0 
-1.432689246710e+00 -8.990672160683e+01 0.0 
0.0 0.0 -3.777493561116e+01 
-3.530770852608e+01 1.551934075116e-01 0.0 
1.551934075116e-01 -8.378481776109e+01 0.0 
0.0 0.0 -3.532775788615e+01 
-3.964207672528e+01 -1.553506516366e-01 0.0 
-1.553506516366e-01 -9.389979055337e+01 0.0 
0.0 0.0 -3.966256018360e+01 
-3.532316278801e+01 1.669437298705e-02 0.0 
1.669437298705e-02 -8.242551419168e+01 0.0 
0.0 0.0 -3.492460309391e+01 
-4.490148329462e+01 2.969784824623e-01 0.0 
2.969784824623e-01 -1.061635845061e+02 0.0 
0.0 0.0 -4.491952034020e+01 
-4.562681452983e+01 -2.066047943824e-01 0.0 
-2.066047943824e-01 -1.078472545225e+02 0.0 
0.0 0.0 -4.564222071571e+01 
-4.565540954820e+01 2.919518153687e-02 0.0 
2.919518153687e-02 -1.078887810409e+02 0.0 
0.0 0.0 -4.566325717672e+01 
-4.568807098897e+01 6.329691791927e-03 0.0 
6.329691791927e-03 -1.079631638334e+02 0.0 
0.0 0.0 -4.569537044670e+01 
-4.569017441483e+01 1.250615673678e-02 0.0 
1.250615673678e-02 -1.079652109808e+02 0.0 
0.0 0.0 -4.569661561869e+01 
-4.569277144489e+01 1.157863461987e-02 0.0 
1.157863461987e-02 -1.079673388458e+02 0.0 
0.0 0.0 -4.569803308720e+01 
-4.568522044741e+01 1.147535611467e-02 0.0 
1.147535611467e-02 -1.079641237221e+02 0.0 
0.0 0.0 -4.569480325087e+01 
-4.569072117265e+01 9.048635021240e-03 0.0 
9.048635021240e-03 -1.079704424333e+02 0.0 
0.0 0.0 -4.569834908179e+01 
-4.567831748436e+01 1.220361162619e-02 0.0 
1.220361162619e-02 -1.079662315983e+02 0.0 
0.0 0.0 -4.569336472480e+01 
-4.568614911854e+01 8.724601478648e-03 0.0 
8.724601478648e-03 -1.079752236563e+02 0.0 
0.0 0.0 -4.569841183244e+01 
-4.567202780728e+01 1.350454953715e-02 0.0 
1.350454953715e-02 -1.079711636590e+02 0.0 
0.0 0.0 -4.569295743988e+01 
-4.567775171052e+01 1.066872697365e-02 0.0 
1.066872697365e-02 -1.079786904668e+02 0.0 
0.0 0.0 -4.569693265321e+01 
-4.566746883415e+01 1.545730865456e-02 0.0 
1.545730865456e-02 -1.079765827132e+02 0.0 
0.0 0.0 -4.569321546421e+01 
-4.567211289409e+01 1.422342188058e-02 0.0 
1.422342188058e-02 -1.079790326194e+02 0.0 
0.0 0.0 -4.569534365403e+01 
-4.566404973958e+01 1.571164923034e-02 0.0 
1.571164923034e-02 -1.079765278821e+02 0.0 
0.0 0.0 -4.569217328651e+01 
-4.567009260964e+01 1.462370950883e-02 0.0 
1.462370950883e-02 -1.079781612108e+02 0.0 
0.0 0.0 -4.569447614613e+01 
-4.566099170251e+01 1.400023157552e-02 0.0 
1.400023157552e-02 -1.079741956166e+02 0.0 
0.0 0.0 -4.569055619574e+01 
-4.581446782819e+01 6.118333394332e-01 0.0 
6.118333394332e-01 -1.092395612208e+02 0.0 
0.0 0.0 -4.611620871469e+01 
-4.566586434407e+01 1.320680276046e-02 0.0 
1.320680276046e-02 -1.079753861409e+02 0.0 
0.0 0.0 -4.569237514549e+01 
-4.565806772988e+01 1.084384507366e-02 0.0 
1.084384507366e-02 -1.079708537203e+02 0.0 
0.0 0.0 -4.568867643505e+01 
-4.656238567358e+01 -7.453425821093e-02 0.0 
-7.453425821093e-02 -1.084373029442e+02 0.0 
0.0 0.0 -4.609990658534e+01 
-4.565777739319e+01 1.070577898264e-02 0.0 
1.070577898264e-02 -1.079713109626e+02 0.0 
0.0 0.0 -4.568872650674e+01 
-4.565602358941e+01 7.757682174993e-03 0.0 
7.757682174993e-03 -1.079685784265e+02 0.0 
0.0 0.0 -4.568738060477e+01 
-4.565131531916e+01 9.012471862202e-03 0.0 
9.012471862202e-03 -1.079658423018e+02 0.0 
0.0 0.0 -4.568514728630e+01 
-4.565517775148e+01 4.143991204914e-03 0.0 
4.143991204914e-03 -1.079635389195e+02 0.0 
0.0 0.0 -4.568561500130e+01 
-4.565113844534e+01 6.555543411010e-03 0.0 
6.555543411010e-03 -1.079576433275e+02 0.0 
0.0 0.0 -4.568263453186e+01 
-4.395704606833e+01 -1.608055216933e-01 0.0 
-1.608055216933e-01 -1.028320294000e+02 0.0 
0.0 0.0 -4.363672264050e+01 
-4.565410155297e+01 -4.725552989763e-03 0.0 
-4.725552989763e-03 -1.079492813938e+02 0.0 
0.0 0.0 -4.568101488402e+01 
-4.566751771237e+01 -9.714481802294e-03 0.0 
-9.714481802294e-03 -1.079608548873e+02 0.0 
0.0 0.0 -4.568851177989e+01 
-4.565139090027e+01 -1.525975412464e-02 0.0 
-1.525975412464e-02 -1.079501919145e+02 0.0 
0.0 0.0 -4.568047484444e+01 
-4.564427174071e+01 -1.812122093476e-02 0.0 
-1.812122093476e-02 -1.079572593296e+02 0.0 
0.0 0.0 -4.568045932110e+01 
-4.564875087990e+01 -2.471306154791e-02 0.0 
-2.471306154791e-02 -1.079523368942e+02 0.0 
0.0 0.0 -4.568032633224e+01 
-4.566580479967e+01 -3.760618787192e-02 0.0 
-3.760618787192e-02 -1.079817844566e+02 0.0 
0.0 0.0 -4.569427677688e+01 
-4.564802228133e+01 -2.222784505119e-02 0.0 
-2.222784505119e-02 -1.079921342182e+02 0.0 
0.0 0.0 -4.569204694987e+01 
-4.558107954336e+01 -4.827822618424e-03 0.0 
-4.827822618424e-03 -1.079518467090e+02 0.0 
0.0 0.0 -4.565987787572e+01 
-4.564887463326e+01 -2.668568335212e-02 0.0 
-2.668568335212e-02 -1.079483584926e+02 0.0 
0.0 0.0 -4.567916993776e+01 
-4.574089876287e+01 -6.360616947009e-02 0.0 
-6.360616947009e-02 -1.080310400716e+02 0.0 
0.0 0.0 -4.573158165034e+01 
-4.786055813504e+01 -1.193892695131e-01 0.0 
-1.193892695131e-01 -1.106477456768e+02 0.0 
0.0 0.0 -4.715249114356e+01 
-4.549351387310e+01 6.898667401469e-02 0.0 
6.898667401469e-02 -1.079042503295e+02 0.0 
0.0 0.0 -4.561932926079e+01 
-4.566015541210e+01 -8.510416334200e-03 0.0 
-8.510416334200e-03 -1.080731609387e+02 0.0 
0.0 0.0 -4.571999490523e+01 
-4.620935360653e+01 -1.915300472146e-01 0.0 
-1.915300472146e-01 -1.081736206453e+02 0.0 
0.0 0.0 -4.591489227555e+01 
-4.565131722592e+01 -3.677245597227e-02 0.0 
-3.677245597227e-02 -1.078135151718e+02 0.0 
0.0 0.0 -4.563944971930e+01 
-4.565622344426e+01 -3.890318161268e-02 0.0 
-3.890318161268e-02 -1.082357590902e+02 0.0 
0.0 0.0 -4.576759476033e+01 
-4.448048244179e+01 -3.929470135735e-02 0.0 
-3.929470135735e-02 -1.023124527077e+02 0.0 
0.0 0.0 -4.363788054483e+01 
-4.521937918589e+01 1.480647693334e+00 0.0 
1.480647693334e+00 -1.083381522713e+02 0.0 
0.0 0.0 -4.566725943716e+01 
-4.556010911194e+01 -1.427472988839e+00 0.0 
-1.427472988839e+00 -1.063384680873e+02 0.0 
0.0 0.0 -4.516957315978e+01 
-4.758998306631e+01 1.607976822579e-01 0.0 
1.607976822579e-01 -1.124685258419e+02 0.0 
0.0 0.0 -4.761755267248e+01 
-4.326452145976e+01 -1.522091161643e-01 0.0 
-1.522091161643e-01 -1.023521616005e+02 0.0 
0.0 0.0 -4.328500491808e+01 
-4.375662282433e+01 -3.612609479959e-02 0.0 
-3.612609479959e-02 -1.021419961331e+02 0.0 
0.0 0.0 -4.336958568724e+01 
-5.480534066933e+01 3.081815666843e-01 0.0 
3.081815666843e-01 -1.292951397789e+02 0.0 
0.0 0.0 -5.483014413448e+01 
-5.408238726348e+01 -2.062309674630e-01 0.0 
-2.062309674630e-01 -1.275769242344e+02 0.0 
0.0 0.0 -5.409779344937e+01 
-5.407185397945e+01 3.933720581110e-02 0.0 
3.933720581110e-02 -1.275373126945e+02 0.0 
0.0 0.0 -5.408275000219e+01 
-5.403283978371e+01 8.346069744491e-03 0.0 
8.346069744491e-03 -1.274342910211e+02 0.0 
0.0 0.0 -5.404013924144e+01 
-5.404479513108e+01 1.564679430022e-02 0.0 
1.564679430022e-02 -1.274377914902e+02 0.0 
0.0 0.0 -5.404477598639e+01 
-5.403310253133e+01 1.145471977910e-02 0.0 
1.145471977910e-02 -1.274281113808e+02 0.0 
0.0 0.0 -5.403836417364e+01 
-5.403833376318e+01 8.185011709476e-03 0.0 
8.185011709476e-03 -1.274312486728e+02 0.0 
0.0 0.0 -5.404087473081e+01 
-5.403161398045e+01 7.622229015676e-03 0.0 
7.622229015676e-03 -1.274325256515e+02 0.0 
0.0 0.0 -5.403924188958e+01 
-5.403746549919e+01 5.531198678991e-03 0.0 
5.531198678991e-03 -1.274357101365e+02 0.0 
0.0 0.0 -5.404195269069e+01 
-5.402791868748e+01 5.411191845014e-03 0.0 
5.411191845014e-03 -1.274393526505e+02 0.0 
0.0 0.0 -5.404018140139e+01 
-5.403136788044e+01 3.362204408671e-03 0.0 
3.362204408671e-03 -1.274416535944e+02 0.0 
0.0 0.0 -5.404190644244e+01 
-5.402264199491e+01 4.967550203274e-03 0.0 
4.967550203274e-03 -1.274501011304e+02 0.0 
0.0 0.0 -5.404182293760e+01 
-5.402042618265e+01 8.831202730202e-03 0.0 
8.831202730202e-03 -1.274472501099e+02 0.0 
0.0 0.0 -5.404030288778e+01 
-5.401610536494e+01 8.780229308350e-03 0.0 
8.780229308350e-03 -1.274483483847e+02 0.0 
0.0 0.0 -5.403933612488e+01 
-5.401554347874e+01 1.315019102954e-02 0.0 
1.315019102954e-02 -1.274455855682e+02 0.0 
0.0 0.0 -5.403833871408e+01 
-5.401034172932e+01 1.045109215453e-02 0.0 
1.045109215453e-02 -1.274387424900e+02 0.0 
0.0 0.0 -5.403472526581e+01 
-5.407014870520e+01 5.917343831572e-01 0.0 
5.917343831572e-01 -1.288737140052e+02 0.0 
0.0 0.0 -5.448315881313e+01 
-5.402150609605e+01 1.030669405859e-02 0.0 
1.030669405859e-02 -1.274431504877e+02 0.0 
0.0 0.0 -5.403939697513e+01 
-5.400608240782e+01 6.773046172710e-03 0.0 
6.773046172710e-03 -1.274358949563e+02 0.0 
0.0 0.0 -5.403259320924e+01 
-5.230538829936e+01 -5.614438687602e-02 0.0 
-5.614438687602e-02 -1.223977015953e+02 0.0 
0.0 0.0 -5.201092696839e+01 
-5.400508975003e+01 3.831872249111e-03 0.0 
3.831872249111e-03 -1.274376802310e+02 0.0 
0.0 0.0 -5.403283099432e+01 
-5.400046546966e+01 3.578896281176e-03 0.0 
3.578896281176e-03 -1.274375831410e+02 0.0 
0.0 0.0 -5.403141458321e+01 
-5.491492961476e+01 -8.486109241890e-02 0.0 
-8.486109241890e-02 -1.279601174262e+02 0.0 
0.0 0.0 -5.446251411228e+01 
-5.398914929400e+01 2.832539213362e-03 0.0 
2.832539213362e-03 -1.274340614192e+02 0.0 
0.0 0.0 -5.402696321395e+01 
-5.399520534079e+01 3.357298295832e-03 0.0 
3.357298295832e-03 -1.274349190190e+02 0.0 
0.0 0.0 -5.402903730793e+01 
-5.398488215447e+01 6.465652854786e-03 0.0 
6.465652854786e-03 -1.274285124694e+02 0.0 
0.0 0.0 -5.402401838716e+01 
-5.399259027485e+01 3.451969675322e-03 0.0 
3.451969675322e-03 -1.274210309297e+02 0.0 
0.0 0.0 -5.402408636136e+01 
-5.398116760805e+01 9.538238945045e-03 0.0 
9.538238945045e-03 -1.274112476148e+02 0.0 
0.0 0.0 -5.401772456685e+01 
-5.398878314085e+01 -5.526413117244e-03 0.0 
-5.526413117244e-03 -1.273771408871e+02 0.0 
0.0 0.0 -5.400977720837e+01 
-5.599122190794e+01 -1.031070779057e-01 0.0 
-1.031070779057e-01 -1.301979309346e+02 0.0 
0.0 0.0 -5.545674585277e+01 
-5.402043975853e+01 -3.453299389358e-02 0.0 
-3.453299389358e-02 -1.274179807467e+02 0.0 
0.0 0.0 -5.403152615156e+01 
-5.399310966523e+01 -2.467366470435e-02 0.0 
-2.467366470435e-02 -1.274378811535e+02 0.0 
0.0 0.0 -5.402929724562e+01 
-5.394777480201e+01 -1.389712612107e-02 0.0 
-1.389712612107e-02 -1.274117031586e+02 0.0 
0.0 0.0 -5.400784338818e+01 
-5.398009745526e+01 -2.994193501578e-02 0.0 
-2.994193501578e-02 -1.273818006529e+02 0.0 
0.0 0.0 -5.400856943246e+01 
-5.399808478582e+01 -2.301089071851e-02 0.0 
-2.301089071851e-02 -1.275915256081e+02 0.0 
0.0 0.0 -5.407688311819e+01 
-5.402613897397e+01 -8.927973049839e-02 0.0 
-8.927973049839e-02 -1.274678835393e+02 0.0 
0.0 0.0 -5.404820675399e+01 
-5.396139909343e+01 -1.716246044198e-02 0.0 
-1.716246044198e-02 -1.272122075096e+02 0.0 
0.0 0.0 -5.395208198090e+01 
-5.380099931442e+01 9.235829610247e-02 0.0 
9.235829610247e-02 -1.273867131341e+02 0.0 
0.0 0.0 -5.395631373454e+01 
-5.399109588197e+01 -7.113872970477e-02 0.0 
-7.113872970477e-02 -1.277319416836e+02 0.0 
0.0 0.0 -5.411691126966e+01 
-5.455964207290e+01 -1.979544222058e-01 0.0 
-1.979544222058e-01 -1.276148429684e+02 0.0 
0.0 0.0 -5.425234551240e+01 
-5.263021475249e+01 1.364465800426e-01 0.0 
1.364465800426e-01 -1.218106729616e+02 0.0 
0.0 0.0 -5.193226631423e+01 
-5.448585743655e+01 1.484507919938e+00 0.0 
1.484507919938e+00 -1.271370440337e+02 0.0 
0.0 0.0 -5.408687044107e+01 
-5.414403177820e+01 -1.426375240872e+00 0.0 
-1.426375240872e+00 -1.291359892860e+02 0.0 
0.0 0.0 -5.458400631925e+01 
-5.210412775162e+01 1.584380675421e-01 0.0 
1.584380675421e-01 -1.230015301077e+02 0.0 
0.0 0.0 -5.213169735779e+01 
-5.643989970712e+01 -1.515161126314e-01 0.0 
-1.515161126314e-01 -1.331064073997e+02 0.0 
0.0 0.0 -5.646389213205e+01 
-5.223223410154e+01 9.636685799404e-02 0.0 
9.636685799404e-02 -1.216669492761e+02 0.0 
0.0 0.0 -5.176975501330e+01 
-6.171373142332e+01 3.161507241274e-01 0.0 
3.161507241274e-01 -1.454147182049e+02 0.0 
0.0 0.0 -6.173853488848e+01 
-6.242477432525e+01 -1.858084146669e-01 0.0 
-1.858084146669e-01 -1.470870161222e+02 0.0 
0.0 0.0 -6.245353713424e+01 
-6.247333953964e+01 4.528276765787e-02 0.0 
4.528276765787e-02 -1.471407790016e+02 0.0 
0.0 0.0 -6.248423556238e+01 
-6.252229721643e+01 2.273519470694e-02 0.0 
2.273519470694e-02 -1.472018594459e+02 0.0 
0.0 0.0 -6.251724699869e+01 
-6.251237830801e+01 1.263959094983e-02 0.0 
1.263959094983e-02 -1.471954855697e+02 0.0 
0.0 0.0 -6.251235916332e+01 
-6.251401195519e+01 8.166534780454e-03 0.0 
8.166534780454e-03 -1.472121492837e+02 0.0 
0.0 0.0 -6.251784837168e+01 
-6.251646779029e+01 9.489971214602e-03 0.0 
9.489971214602e-03 -1.472135614028e+02 0.0 
0.0 0.0 -6.251900875791e+01 
-6.253505737288e+01 4.763442062415e-03 0.0 
4.763442062415e-03 -1.472218228170e+02 0.0 
0.0 0.0 -6.252706405696e+01 
-6.251319507214e+01 3.869209171538e-03 0.0 
3.869209171538e-03 -1.472124124734e+02 0.0 
0.0 0.0 -6.251768226365e+01 
-6.253066691354e+01 -3.069544110169e-03 0.0 
-3.069544110169e-03 -1.472293830874e+02 0.0 
0.0 0.0 -6.252801500027e+01 
-6.250874673009e+01 1.110718135624e-03 0.0 
1.110718135624e-03 -1.472222042435e+02 0.0 
0.0 0.0 -6.251928529209e+01 
-6.253332441842e+01 -8.240141923535e-03 0.0 
-8.240141923535e-03 -1.472445765985e+02 0.0 
0.0 0.0 -6.253337030507e+01 
-6.250229436589e+01 4.020394079351e-03 0.0 
4.020394079351e-03 -1.472382758708e+02 0.0 
0.0 0.0 -6.252217107102e+01 
-6.249629938699e+01 4.467298286789e-03 0.0 
4.467298286789e-03 -1.472386148672e+02 0.0 
0.0 0.0 -6.252047427625e+01 
-6.250080674098e+01 1.158179580570e-02 0.0 
1.158179580570e-02 -1.472445331801e+02 0.0 
0.0 0.0 -6.252360197632e+01 
-6.245880618057e+01 6.378495246331e-01 0.0 
6.378495246331e-01 -1.485345222086e+02 0.0 
0.0 0.0 -6.289799851674e+01 
-6.252644259550e+01 1.489978725549e-02 0.0 
1.489978725549e-02 -1.472286997690e+02 0.0 
0.0 0.0 -6.252654270936e+01 
-6.334197031517e+01 -8.233062655510e-02 0.0 
-8.233062655510e-02 -1.477392129998e+02 0.0 
0.0 0.0 -6.292435499449e+01 
-6.249071539579e+01 -7.116311703223e-04 0.0 
-7.116311703223e-04 -1.472046388538e+02 0.0 
0.0 0.0 -6.250860627486e+01 
-6.250694101317e+01 -8.488133839590e-03 0.0 
-8.488133839590e-03 -1.472237326935e+02 0.0 
0.0 0.0 -6.251920211200e+01 
-6.248070170065e+01 -8.153973234215e-03 0.0 
-8.153973234215e-03 -1.472141081158e+02 0.0 
0.0 0.0 -6.250844294494e+01 
-6.246716853173e+01 -1.117418872393e-02 0.0 
-1.117418872393e-02 -1.472238787225e+02 0.0 
0.0 0.0 -6.250731417627e+01 
-6.247402782270e+01 -4.117157319759e-03 0.0 
-4.117157319759e-03 -1.472321113195e+02 0.0 
0.0 0.0 -6.251184174266e+01 
-6.246552441268e+01 1.170582881715e-05 0.0 
1.170582881715e-05 -1.472223197069e+02 0.0 
0.0 0.0 -6.250635323587e+01 
-6.076058589782e+01 -7.576381755924e-02 0.0 
-7.576381755924e-02 -1.420837118932e+02 0.0 
0.0 0.0 -6.045328933732e+01 
-6.246775301054e+01 -1.364262279290e-03 0.0 
-1.364262279290e-03 -1.472218778002e+02 0.0 
0.0 0.0 -6.250688924323e+01 
-6.245442276287e+01 4.926847350350e-03 0.0 
4.926847350350e-03 -1.472072490525e+02 0.0 
0.0 0.0 -6.249850154463e+01 
-6.246517216780e+01 1.197789262196e-03 0.0 
1.197789262196e-03 -1.472072582542e+02 0.0 
0.0 0.0 -6.250172912660e+01 
-6.240641019965e+01 2.663804447670e-02 0.0 
2.663804447670e-02 -1.471491299155e+02 0.0 
0.0 0.0 -6.246666203456e+01 
-6.245825397922e+01 -2.989275315439e-02 0.0 
-2.989275315439e-02 -1.471062139283e+02 0.0 
0.0 0.0 -6.246934037225e+01 
-6.256869448657e+01 -8.868796822992e-02 0.0 
-8.868796822992e-02 -1.472373497478e+02 0.0 
0.0 0.0 -6.254181327031e+01 
-6.245643194087e+01 -3.405841876558e-02 0.0 
-3.405841876558e-02 -1.472652364826e+02 0.0 
0.0 0.0 -6.251650052704e+01 
-6.224128039164e+01 2.056401643158e-02 0.0 
2.056401643158e-02 -1.471370706099e+02 0.0 
0.0 0.0 -6.241350530047e+01 
-6.297472460957e+01 -2.026409168610e-01 0.0 
-2.026409168610e-01 -1.474487643998e+02 0.0 
0.0 0.0 -6.272704670281e+01 
-6.244132159548e+01 -5.396084382551e-02 0.0 
-5.396084382551e-02 -1.471033096562e+02 0.0 
0.0 0.0 -6.246338937549e+01 
-6.440709964205e+01 -1.049618533506e-01 0.0 
-1.049618533506e-01 -1.499221866091e+02 0.0 
0.0 0.0 -6.389878587534e+01 
-6.243065860716e+01 -3.546020647501e-02 0.0 
-3.546020647501e-02 -1.475225848171e+02 0.0 
0.0 0.0 -6.258597302728e+01 
-6.102910479428e+01 1.017092470317e-01 0.0 
1.017092470317e-01 -1.414456963668e+02 0.0 
0.0 0.0 -6.034244034833e+01 
-6.201926405621e+01 1.484239850054e+00 0.0 
1.484239850054e+00 -1.475523283891e+02 0.0 
0.0 0.0 -6.247147773360e+01 
-6.235867921454e+01 -1.423337646657e+00 0.0 
-1.423337646657e+00 -1.455665127987e+02 0.0 
0.0 0.0 -6.197755760397e+01 
-6.438923751172e+01 1.585950156333e-01 0.0 
1.585950156333e-01 -1.516962012293e+02 0.0 
0.0 0.0 -6.442563162230e+01 
-6.007478704395e+01 -1.489607195006e-01 0.0 
-1.489607195006e-01 -1.415878111856e+02 0.0 
0.0 0.0 -6.009877946887e+01 
-6.064266803570e+01 8.381640882546e-02 0.0 
8.381640882546e-02 -1.413248404084e+02 0.0 
0.0 0.0 -6.019025253322e+01 
-7.149694244709e+01 3.487311771633e-01 0.0 
3.487311771633e-01 -1.685507722027e+02 0.0 
0.0 0.0 -7.161431439493e+01 
-7.086561238581e+01 -1.666009429728e-01 0.0 
-1.666009429728e-01 -1.667823049302e+02 0.0 
0.0 0.0 -7.089437519480e+01 
-7.093232536153e+01 9.449960530563e-02 0.0 
9.449960530563e-02 -1.667667598672e+02 0.0 
0.0 0.0 -7.090972556862e+01 
-7.083714390279e+01 3.935992659739e-02 0.0 
3.935992659739e-02 -1.666031683807e+02 0.0 
0.0 0.0 -7.083209368504e+01 
-7.087607827923e+01 3.300250719401e-03 0.0 
3.300250719401e-03 -1.666287273752e+02 0.0 
0.0 0.0 -7.085144169632e+01 
-7.085150423159e+01 9.819207654322e-03 0.0 
9.819207654322e-03 -1.666662979287e+02 0.0 
0.0 0.0 -7.085534064807e+01 
-7.083991969656e+01 2.627448971849e-02 0.0 
2.627448971849e-02 -1.666559006056e+02 0.0 
0.0 0.0 -7.084874609064e+01 
-7.085013631119e+01 1.842673127403e-02 0.0 
1.842673127403e-02 -1.666236736730e+02 0.0 
0.0 0.0 -7.084214299527e+01 
-7.091493188311e+01 -1.241750686404e-03 0.0 
-1.241750686404e-03 -1.666586299730e+02 0.0 
0.0 0.0 -7.087206855684e+01 
-7.086072656857e+01 -4.713715646570e-03 0.0 
-4.713715646570e-03 -1.666661889491e+02 0.0 
0.0 0.0 -7.085807465530e+01 
-7.086483621448e+01 -2.783134155132e-03 0.0 
-2.783134155132e-03 -1.666668577678e+02 0.0 
0.0 0.0 -7.085950819469e+01 
-7.085302594937e+01 -6.936683240472e-03 0.0 
-6.936683240472e-03 -1.666572135040e+02 0.0 
0.0 0.0 -7.085307183601e+01 
-7.090907179547e+01 -2.944274923863e-02 0.0 
-2.944274923863e-02 -1.666927417788e+02 0.0 
0.0 0.0 -7.088054407228e+01 
-7.086094869243e+01 6.002206989076e-01 0.0 
6.002206989076e-01 -1.681725588740e+02 0.0 
0.0 0.0 -7.131005226992e+01 
-7.085387849130e+01 -1.730571995678e-02 0.0 
-1.730571995678e-02 -1.667396327772e+02 0.0 
0.0 0.0 -7.087805338055e+01 
-7.083923833960e+01 3.982403643117e-02 0.0 
3.982403643117e-02 -1.666946961781e+02 0.0 
0.0 0.0 -7.086018035532e+01 
-6.908006387444e+01 -5.533391158437e-02 0.0 
-5.533391158437e-02 -1.616945560178e+02 0.0 
0.0 0.0 -6.883238596768e+01 
-7.083333533184e+01 9.065289051134e-03 0.0 
9.065289051134e-03 -1.666114494872e+02 0.0 
0.0 0.0 -7.083343544570e+01 
-7.086739343331e+01 -1.745569946833e-02 0.0 
-1.745569946833e-02 -1.666447162730e+02 0.0 
0.0 0.0 -7.085363291190e+01 
-7.165762184537e+01 -9.340618098159e-02 0.0 
-9.340618098159e-02 -1.672220904967e+02 0.0 
0.0 0.0 -7.126391370263e+01 
-7.082758510406e+01 -2.122860046714e-02 0.0 
-2.122860046714e-02 -1.666385689056e+02 0.0 
0.0 0.0 -7.083984620289e+01 
-7.080927755441e+01 -4.722076732213e-02 0.0 
-4.722076732213e-02 -1.666547485048e+02 0.0 
0.0 0.0 -7.083920781776e+01 
-7.081508685748e+01 -2.733302817630e-02 0.0 
-2.733302817630e-02 -1.667023548159e+02 0.0 
0.0 0.0 -7.085523250203e+01 
-7.078966269909e+01 -8.181195713607e-03 0.0 
-8.181195713607e-03 -1.666751983370e+02 0.0 
0.0 0.0 -7.083945831082e+01 
-7.079780268231e+01 -1.306091796402e-02 0.0 
-1.306091796402e-02 -1.666643023360e+02 0.0 
0.0 0.0 -7.083863150550e+01 
-7.280523780597e+01 -8.312764740181e-02 0.0 
-8.312764740181e-02 -1.694935125268e+02 0.0 
0.0 0.0 -7.228962509983e+01 
-7.081934694608e+01 -8.693814629029e-03 0.0 
-8.693814629029e-03 -1.666665690887e+02 0.0 
0.0 0.0 -7.084577481044e+01 
-7.078483042445e+01 -1.806013960545e-02 0.0 
-1.806013960545e-02 -1.666448669296e+02 0.0 
0.0 0.0 -7.082890920621e+01 
-7.078120458140e+01 -5.091806405174e-03 0.0 
-5.091806405174e-03 -1.666903168063e+02 0.0 
0.0 0.0 -7.084145641631e+01 
-7.077230332508e+01 -2.531475759752e-02 0.0 
-2.531475759752e-02 -1.666495480635e+02 0.0 
0.0 0.0 -7.082655541658e+01 
-7.073051580339e+01 -4.290488719205e-02 0.0 
-4.290488719205e-02 -1.662815994870e+02 0.0 
0.0 0.0 -7.070363458713e+01 
-7.055489849984e+01 9.111033815680e-02 0.0 
9.111033815680e-02 -1.665050580159e+02 0.0 
0.0 0.0 -7.071798695473e+01 
-7.076929444411e+01 -1.048240015433e-01 0.0 
-1.048240015433e-01 -1.670357700657e+02 0.0 
0.0 0.0 -7.094151935295e+01 
-7.123800160391e+01 -3.047034498727e-01 0.0 
-3.047034498727e-01 -1.667711526702e+02 0.0 
0.0 0.0 -7.100274628222e+01 
-6.943224674076e+01 1.412197781977e-01 0.0 
1.412197781977e-01 -1.610921297912e+02 0.0 
0.0 0.0 -6.875731295958e+01 
-7.132679310692e+01 1.442555569045e+00 0.0 
1.442555569045e+00 -1.662618045449e+02 0.0 
0.0 0.0 -7.087657929556e+01 
-7.094737344122e+01 -1.472934543447e+00 0.0 
-1.472934543447e+00 -1.684687687857e+02 0.0 
0.0 0.0 -7.142484266807e+01 
-6.890105861196e+01 1.251590923249e-01 0.0 
1.251590923249e-01 -1.622237837965e+02 0.0 
0.0 0.0 -6.893745272254e+01 
-7.326919769539e+01 -2.173310591668e-01 0.0 
-2.173310591668e-01 -1.723088853476e+02 0.0 
0.0 0.0 -7.327342491291e+01 
-6.898819862685e+01 8.523575235426e-02 0.0 
8.523575235426e-02 -1.609137457270e+02 0.0 
0.0 0.0 -6.857058330617e+01 
-7.857025642835e+01 4.628068484625e-01 0.0 
4.628068484625e-01 -1.850551714923e+02 0.0 
0.0 0.0 -7.868762837619e+01 
-7.945014188670e+01 1.958400513138e-02 0.0 
1.958400513138e-02 -1.863278712682e+02 0.0 
0.0 0.0 -7.933340394648e+01 
-7.928880902527e+01 5.544939494330e-02 0.0 
5.544939494330e-02 -1.862652217493e+02 0.0 
0.0 0.0 -7.926620923236e+01 
-7.924725682743e+01 4.046789012840e-02 0.0 
4.046789012840e-02 -1.863518465783e+02 0.0 
0.0 0.0 -7.927973102172e+01 
-7.934160931246e+01 7.415383005994e-04 0.0 
7.415383005994e-04 -1.863816331194e+02 0.0 
0.0 0.0 -7.931697272955e+01 
-7.932038814207e+01 -2.871811353618e-02 0.0 
-2.871811353618e-02 -1.865042360964e+02 0.0 
0.0 0.0 -7.934738727154e+01 
-7.936762850689e+01 5.983331237170e-02 0.0 
5.983331237170e-02 -1.865538878297e+02 0.0 
0.0 0.0 -7.937645490098e+01 
-7.942866741087e+01 8.700357715283e-02 0.0 
8.700357715283e-02 -1.864311636906e+02 0.0 
0.0 0.0 -7.935794933046e+01 
-7.935935857107e+01 -8.263590840027e-03 0.0 
-8.263590840027e-03 -1.863622922449e+02 0.0 
0.0 0.0 -7.931649524479e+01 
-7.939776162048e+01 -5.206438240179e-02 0.0 
-5.206438240179e-02 -1.864940680135e+02 0.0 
0.0 0.0 -7.936754889019e+01 
-7.937122397127e+01 1.000215256590e-02 0.0 
1.000215256590e-02 -1.865150958670e+02 0.0 
0.0 0.0 -7.936589595149e+01 
-7.935219124161e+01 2.729363926984e-02 0.0 
2.729363926984e-02 -1.864666025253e+02 0.0 
0.0 0.0 -7.934563813006e+01 
-7.924520924891e+01 6.540472875305e-01 0.0 
6.540472875305e-01 -1.878388944267e+02 0.0 
0.0 0.0 -7.972523110269e+01 
-7.937849078372e+01 -9.806645660470e-03 0.0 
-9.806645660470e-03 -1.864547194180e+02 0.0 
0.0 0.0 -7.934996306053e+01 
-7.949052433819e+01 -1.695545149132e-01 0.0 
-1.695545149132e-01 -1.867688719217e+02 0.0 
0.0 0.0 -7.947781887796e+01 
-7.969306283711e+01 -8.849635933852e-02 0.0 
-8.849635933852e-02 -1.866185741446e+02 0.0 
0.0 0.0 -7.949349109453e+01 
-7.934354799031e+01 -1.135050201915e-02 0.0 
-1.135050201915e-02 -1.865380853631e+02 0.0 
0.0 0.0 -7.936449000603e+01 
-7.922465384514e+01 4.529338931855e-02 0.0 
4.529338931855e-02 -1.864005416663e+02 0.0 
0.0 0.0 -7.928755865343e+01 
-7.931739536850e+01 -4.888382685853e-02 0.0 
-4.888382685853e-02 -1.863613874552e+02 0.0 
0.0 0.0 -7.930363484710e+01 
-7.923893685321e+01 -7.788809767101e-02 0.0 
-7.788809767101e-02 -1.864427199980e+02 0.0 
0.0 0.0 -7.930449705536e+01 
-7.931621003163e+01 -3.882795361917e-02 0.0 
-3.882795361917e-02 -1.865042576183e+02 0.0 
0.0 0.0 -7.934614029498e+01 
-7.937366303892e+01 -5.309987589625e-02 0.0 
-5.309987589625e-02 -1.865364961129e+02 0.0 
0.0 0.0 -7.937304774555e+01 
-7.750756652339e+01 -9.486853931836e-02 0.0 
-9.486853931836e-02 -1.814001374823e+02 0.0 
0.0 0.0 -7.727231120170e+01 
-7.930722108541e+01 -1.638049424155e-02 0.0 
-1.638049424155e-02 -1.865495012384e+02 0.0 
0.0 0.0 -7.935701669713e+01 
-7.935722125443e+01 1.136880901900e-02 0.0 
1.136880901900e-02 -1.864875841354e+02 0.0 
0.0 0.0 -7.935344161696e+01 
-7.928002913291e+01 -3.991669178266e-02 0.0 
-3.991669178266e-02 -1.864081608580e+02 0.0 
0.0 0.0 -7.930645699726e+01 
-7.942053608241e+01 -6.568571380994e-02 0.0 
-6.568571380994e-02 -1.864704322101e+02 0.0 
0.0 0.0 -7.936729048774e+01 
-7.946769775259e+01 -1.710664069863e-01 0.0 
-1.710664069863e-01 -1.865410967307e+02 0.0 
0.0 0.0 -7.940263834498e+01 
-7.922556097419e+01 -9.818758064004e-02 0.0 
-9.818758064004e-02 -1.863738159114e+02 0.0 
0.0 0.0 -7.927981306568e+01 
-7.915170071342e+01 -8.323333587870e-02 0.0 
-8.323333587870e-02 -1.865642631809e+02 0.0 
0.0 0.0 -7.931478916830e+01 
-8.124851225625e+01 -8.154224885685e-02 0.0 
-8.154224885685e-02 -1.892389888970e+02 0.0 
0.0 0.0 -8.074625034596e+01 
-7.784905559062e+01 7.206731060426e-02 0.0 
7.206731060426e-02 -1.807522370776e+02 0.0 
0.0 0.0 -7.718038780045e+01 
-7.874622093862e+01 1.302172233638e+00 0.0 
1.302172233638e+00 -1.863499776615e+02 0.0 
0.0 0.0 -7.912885958005e+01 
-7.896640308743e+01 -1.572643709189e+00 0.0 
-1.572643709189e+00 -1.850535590815e+02 0.0 
0.0 0.0 -7.880598865067e+01 
-8.093146359208e+01 -7.282256950013e-02 0.0 
-7.282256950013e-02 -1.908629725129e+02 0.0 
0.0 0.0 -8.113833083149e+01 
-7.687514616213e+01 -2.542277792172e-01 0.0 
-2.542277792172e-01 -1.807227651033e+02 0.0 
0.0 0.0 -7.687937337964e+01 
-7.744040958919e+01 1.210204460444e-01 0.0 
1.210204460444e-01 -1.807152618990e+02 0.0 
0.0 0.0 -7.704670144645e+01 

TENSORS element_materi_strain_total float
-2.375233532637e-06 5.317851436989e-06 0.0 
5.317851436989e-06 3.654206847206e-04 0.0 
0.0 0.0 0.0 
1.824839560127e-06 -6.059099185581e-06 0.0 
-6.059099185581e-06 3.572226520649e-04 0.0 
0.0 0.0 0.0 
8.603072649827e-07 -7.049649024377e-07 0.0 
-7.049649024377e-07 1.169722412524e-03 0.0 
0.0 0.0 0.0 
-2.624193045087e-07 -4.003746829868e-06 0.0 
-4.003746829868e-06 1.158370360618e-03 0.0 
0.0 0.0 0.0 
-8.848568366915e-08 5.250256507348e-06 0.0 
5.250256507348e-06 7.166146044191e-04 0.0 
0.0 0.0 0.0 
-1.789962161491e-06 5.626553825052e-06 0.0 
5.626553825052e-06 1.275907503742e-04 0.0 
0.0 0.0 0.0 
6.157020699948e-07 6.148114075331e-06 0.0 
6.148114075331e-06 7.174726425034e-04 0.0 
0.0 0.0 0.0 
-3.987143426532e-07 9.191951074071e-07 0.0 
9.191951074071e-07 3.484078178477e-04 0.0 
0.0 0.0 0.0 
-2.237066576427e-07 -6.598038650586e-06 0.0 
-6.598038650586e-06 7.188348227889e-04 0.0 
0.0 0.0 0.0 
2.090582174041e-07 5.119289903352e-06 0.0 
5.119289903352e-06 1.153045281215e-03 0.0 
0.0 0.0 0.0 
3.553043650406e-07 3.381604865151e-06 0.0 
3.381604865151e-06 7.928622243378e-04 0.0 
0.0 0.0 0.0 
-3.775751291624e-07 -6.272746052288e-08 0.0 
-6.272746052288e-08 3.041310735081e-04 0.0 
0.0 0.0 0.0 
3.255322258422e-07 5.161406316701e-06 0.0 
5.161406316701e-06 1.160107949765e-03 0.0 
0.0 0.0 0.0 
2.181643852239e-07 4.235875499613e-06 0.0 
4.235875499613e-06 7.703360313935e-04 0.0 
0.0 0.0 0.0 
5.682393999784e-08 -4.198615161838e-06 0.0 
-4.198615161838e-06 1.186803539478e-03 0.0 
0.0 0.0 0.0 
-6.918343157247e-07 4.657738922879e-06 0.0 
4.657738922879e-06 1.184490566930e-03 0.0 
0.0 0.0 0.0 
-6.679241040253e-07 8.955475120662e-08 0.0 
8.955475120662e-08 7.025268894507e-04 0.0 
0.0 0.0 0.0 
-7.926720557716e-08 -4.244624299729e-06 0.0 
-4.244624299729e-06 1.251161762634e-04 0.0 
0.0 0.0 0.0 
-1.530193657562e-06 -2.639987635026e-06 0.0 
-2.639987635026e-06 2.269520199563e-04 0.0 
0.0 0.0 0.0 
1.089153820466e-07 2.575937038971e-06 0.0 
2.575937038971e-06 2.356583768901e-04 0.0 
0.0 0.0 0.0 
6.181053886500e-07 -5.208648947732e-06 0.0 
-5.208648947732e-06 1.154780390833e-03 0.0 
0.0 0.0 0.0 
9.943723555672e-08 2.073225014341e-06 0.0 
2.073225014341e-06 4.089473479769e-04 0.0 
0.0 0.0 0.0 
-2.953020206142e-07 -2.308593140618e-06 0.0 
-2.308593140618e-06 4.444371430867e-04 0.0 
0.0 0.0 0.0 
1.150731732125e-07 -3.500809337618e-06 0.0 
-3.500809337618e-06 1.112855340137e-03 0.0 
0.0 0.0 0.0 
5.736005936896e-07 5.007556636823e-06 0.0 
5.007556636823e-06 8.261073692328e-04 0.0 
0.0 0.0 0.0 
1.391271986506e-09 -3.322533088990e-06 0.0 
-3.322533088990e-06 8.361516056843e-04 0.0 
0.0 0.0 0.0 
9.023808700270e-08 -4.430932560173e-07 0.0 
-4.430932560173e-07 6.466987189298e-04 0.0 
0.0 0.0 0.0 
-4.027745368340e-07 3.073369523144e-07 0.0 
3.073369523144e-07 1.175366004065e-03 0.0 
0.0 0.0 0.0 
1.278382879555e-07 -5.808040819942e-06 0.0 
-5.808040819942e-06 8.270382676701e-04 0.0 
0.0 0.0 0.0 
-4.908019205496e-07 3.410167824859e-06 0.0 
3.410167824859e-06 1.139658220523e-03 0.0 
0.0 0.0 0.0 
2.194078911888e-07 9.791749608829e-07 0.0 
9.791749608829e-07 1.700804981379e-04 0.0 
0.0 0.0 0.0 
6.716398075479e-07 7.375057906721e-07 0.0 
7.375057906721e-07 6.154425434213e-05 0.0 
0.0 0.0 0.0 
-1.377797135937e-06 1.274500386689e-06 0.0 
1.274500386689e-06 1.172335365057e-03 0.0 
0.0 0.0 0.0 
1.667565958652e-07 -4.217117099891e-06 0.0 
-4.217117099891e-06 9.962371204886e-04 0.0 
0.0 0.0 0.0 
1.157197117685e-06 -4.781006838185e-06 0.0 
-4.781006838185e-06 1.157109917497e-03 0.0 
0.0 0.0 0.0 
-8.749055009361e-07 8.836525985444e-06 0.0 
8.836525985444e-06 1.216392448120e-03 0.0 
0.0 0.0 0.0 
-2.259529068294e-07 -9.352998410128e-06 0.0 
-9.352998410128e-06 1.215270121085e-03 0.0 
0.0 0.0 0.0 
6.350110433040e-07 4.000028664142e-06 0.0 
4.000028664142e-06 1.162270525082e-03 0.0 
0.0 0.0 0.0 
5.611506157521e-07 -7.274213375764e-06 0.0 
-7.274213375764e-06 6.558510720371e-04 0.0 
0.0 0.0 0.0 
3.703524091847e-07 8.145841011871e-06 0.0 
8.145841011871e-06 6.583791051218e-04 0.0 
0.0 0.0 0.0 
4.058557689923e-08 -3.147594473862e-06 0.0 
-3.147594473862e-06 5.106053956103e-04 0.0 
0.0 0.0 0.0 
8.165892135814e-07 2.122731271536e-07 0.0 
2.122731271536e-07 1.173102770904e-03 0.0 
0.0 0.0 0.0 
-9.140674350760e-08 4.948844122058e-06 0.0 
4.948844122058e-06 2.597165064335e-04 0.0 
0.0 0.0 0.0 
5.606268014269e-07 1.240553107133e-06 0.0 
1.240553107133e-06 6.488450932804e-04 0.0 
0.0 0.0 0.0 
-5.483193334932e-07 -2.247863203138e-06 0.0 
-2.247863203138e-06 1.122438509218e-03 0.0 
0.0 0.0 0.0 
-9.247468224505e-08 -4.433238237057e-06 0.0 
-4.433238237057e-06 2.588618849957e-04 0.0 
0.0 0.0 0.0 
3.482169326219e-07 2.318404209958e-07 0.0 
2.318404209958e-07 1.193575385041e-04 0.0 
0.0 0.0 0.0 
6.580762719199e-07 1.441339698407e-06 0.0 
1.441339698407e-06 1.127911010066e-03 0.0 
0.0 0.0 0.0 
8.221627998406e-07 5.227091078525e-07 0.0 
5.227091078525e-07 6.126195274558e-05 0.0 
0.0 0.0 0.0 
9.544027248509e-07 -4.161532883281e-06 0.0 
-4.161532883281e-06 7.422106116239e-04 0.0 
0.0 0.0 0.0 
-2.345263858672e-07 -2.613925144773e-06 0.0 
-2.613925144773e-06 4.782783848409e-04 0.0 
0.0 0.0 0.0 
2.940769776583e-07 -1.540167883702e-06 0.0 
-1.540167883702e-06 2.897826803361e-04 0.0 
0.0 0.0 0.0 
-2.140718002863e-07 -3.275078543842e-06 0.0 
-3.275078543842e-06 2.447082022110e-04 0.0 
0.0 0.0 0.0 
3.094084803923e-07 2.922417885893e-06 0.0 
2.922417885893e-06 4.743356564518e-04 0.0 
0.0 0.0 0.0 
7.101133923104e-07 -1.849553633459e-07 0.0 
-1.849553633459e-07 1.174877962623e-03 0.0 
0.0 0.0 0.0 
-3.923256552962e-07 -3.291406460752e-06 0.0 
-3.291406460752e-06 3.897693401582e-04 0.0 
0.0 0.0 0.0 
4.121506154142e-07 3.345737462516e-06 0.0 
3.345737462516e-06 3.002398467000e-04 0.0 
0.0 0.0 0.0 
-3.380008739562e-08 4.175385254612e-06 0.0 
4.175385254612e-06 9.964681871748e-04 0.0 
0.0 0.0 0.0 
2.357281365661e-07 5.281835344792e-07 0.0 
5.281835344792e-07 1.685596629706e-04 0.0 
0.0 0.0 0.0 
-2.820566626927e-07 -4.714977385623e-06 0.0 
-4.714977385623e-06 1.184623983131e-03 0.0 
0.0 0.0 0.0 
2.231630094052e-07 -3.066125748392e-06 0.0 
-3.066125748392e-06 5.119712505608e-05 0.0 
0.0 0.0 0.0 
1.835159597618e-07 5.216185341168e-06 0.0 
5.216185341168e-06 1.112214072025e-03 0.0 
0.0 0.0 0.0 
-4.786961183001e-08 5.193291579187e-06 0.0 
5.193291579187e-06 4.769877050246e-04 0.0 
0.0 0.0 0.0 
4.948956320305e-07 2.878559337108e-06 0.0 
2.878559337108e-06 2.168763434525e-04 0.0 
0.0 0.0 0.0 
1.641940627906e-07 -4.182295496555e-06 0.0 
-4.182295496555e-06 1.158902977569e-03 0.0 
0.0 0.0 0.0 
-3.756852281489e-07 2.354535157326e-06 0.0 
2.354535157326e-06 4.404000355118e-04 0.0 
0.0 0.0 0.0 
1.261727902380e-06 7.049469481857e-07 0.0 
7.049469481857e-07 4.732801501062e-05 0.0 
0.0 0.0 0.0 
-1.579326590617e-07 -1.810586264182e-06 0.0 
-1.810586264182e-06 1.171022581559e-03 0.0 
0.0 0.0 0.0 
-1.613715282511e-07 -4.739201027979e-06 0.0 
-4.739201027979e-06 1.843994625748e-04 0.0 
0.0 0.0 0.0 
4.043026724521e-07 -7.962692815904e-08 0.0 
-7.962692815904e-08 1.174054865724e-03 0.0 
0.0 0.0 0.0 
2.762411781543e-07 -3.883305646588e-06 0.0 
-3.883305646588e-06 8.705986401181e-04 0.0 
0.0 0.0 0.0 
0.0 -1.196965630472e-07 0.0 
-1.196965630472e-07 1.227767046771e-03 0.0 
0.0 0.0 0.0 
-2.025069330003e-07 4.189711456473e-08 0.0 
4.189711456473e-08 1.127293797571e-03 0.0 
0.0 0.0 0.0 
-2.059396346232e-06 4.145069962282e-06 0.0 
4.145069962282e-06 7.717305885646e-05 0.0 
0.0 0.0 0.0 
-3.994565989096e-07 3.493202101211e-06 0.0 
3.493202101211e-06 4.072681321901e-04 0.0 
0.0 0.0 0.0 
3.878228520549e-07 -3.972017850275e-06 0.0 
-3.972017850275e-06 1.163551890135e-03 0.0 
0.0 0.0 0.0 
-6.291266023695e-07 -1.280212946873e-07 0.0 
-1.280212946873e-07 1.175422243918e-03 0.0 
0.0 0.0 0.0 
-1.829321361058e-07 -4.802174059301e-06 0.0 
-4.802174059301e-06 1.930934808971e-04 0.0 
0.0 0.0 0.0 
1.208342529369e-06 -2.230163664750e-07 0.0 
-2.230163664750e-07 1.691378399558e-04 0.0 
0.0 0.0 0.0 
-5.079708988998e-07 4.398297149810e-06 0.0 
4.398297149810e-06 1.934835227524e-04 0.0 
0.0 0.0 0.0 
-4.872900040143e-07 4.928708651948e-06 0.0 
4.928708651948e-06 1.829125411803e-04 0.0 
0.0 0.0 0.0 
7.485748871883e-07 7.152274605845e-07 0.0 
7.152274605845e-07 7.014281702931e-04 0.0 
0.0 0.0 0.0 
-8.188978596335e-07 -2.292028498582e-06 0.0 
-2.292028498582e-06 4.133881298014e-04 0.0 
0.0 0.0 0.0 
-4.970481177757e-07 4.447280337948e-07 0.0 
4.447280337948e-07 3.704014073758e-04 0.0 
0.0 0.0 0.0 
-9.188043985642e-07 -5.657782920505e-06 0.0 
-5.657782920505e-06 7.521563784785e-04 0.0 
0.0 0.0 0.0 
-3.437764428682e-07 5.079427030646e-06 0.0 
5.079427030646e-06 7.520471665898e-04 0.0 
0.0 0.0 0.0 
-1.532551573424e-07 -4.228948562487e-06 0.0 
-4.228948562487e-06 8.984120596405e-04 0.0 
0.0 0.0 0.0 
1.178987203421e-07 4.441678857744e-06 0.0 
4.441678857744e-06 9.689110307065e-04 0.0 
0.0 0.0 0.0 
-8.497676662333e-08 -4.801041199269e-06 0.0 
-4.801041199269e-06 9.969219519548e-04 0.0 
0.0 0.0 0.0 
2.131249590143e-07 -6.730288563690e-06 0.0 
-6.730288563690e-06 7.139451980147e-04 0.0 
0.0 0.0 0.0 
3.207723875409e-07 1.066793764332e-06 0.0 
1.066793764332e-06 6.129022007628e-05 0.0 
0.0 0.0 0.0 
2.008266044573e-07 4.555658468672e-07 0.0 
4.555658468672e-07 7.056937718433e-04 0.0 
0.0 0.0 0.0 
-4.883940135647e-07 -2.525783468893e-06 0.0 
-2.525783468893e-06 9.729418097000e-04 0.0 
0.0 0.0 0.0 
4.113127127781e-08 2.565026942237e-06 0.0 
2.565026942237e-06 9.610853869861e-04 0.0 
0.0 0.0 0.0 
-3.892118406457e-07 -4.973278183139e-07 0.0 
-4.973278183139e-07 1.228330883376e-03 0.0 
0.0 0.0 0.0 
-2.786587305348e-07 -3.417730369207e-06 0.0 
-3.417730369207e-06 1.194162454250e-03 0.0 
0.0 0.0 0.0 
8.198511713964e-07 -2.529741550421e-06 0.0 
-2.529741550421e-06 6.998357383812e-04 0.0 
0.0 0.0 0.0 
-9.910944586133e-07 -6.032153789491e-08 0.0 
-6.032153789491e-08 1.174155010952e-03 0.0 
0.0 0.0 0.0 
4.397914701304e-07 -3.540901138600e-06 0.0 
-3.540901138600e-06 8.152954407803e-04 0.0 
0.0 0.0 0.0 
1.926599189073e-07 -3.134478526427e-06 0.0 
-3.134478526427e-06 4.542447480822e-04 0.0 
0.0 0.0 0.0 
4.965610187480e-07 -4.158887259135e-06 0.0 
-4.158887259135e-06 6.860721721418e-04 0.0 
0.0 0.0 0.0 
-5.789574787363e-07 4.415146082334e-06 0.0 
4.415146082334e-06 1.186265611408e-03 0.0 
0.0 0.0 0.0 
9.538593959135e-08 -5.083999308238e-06 0.0 
-5.083999308238e-06 9.547193794377e-04 0.0 
0.0 0.0 0.0 
-1.412126782174e-07 -4.920843618274e-06 0.0 
-4.920843618274e-06 1.113828368922e-03 0.0 
0.0 0.0 0.0 
-1.159598436162e-07 -4.693213555835e-06 0.0 
-4.693213555835e-06 4.097236493246e-04 0.0 
0.0 0.0 0.0 
8.417682495487e-07 1.585013021875e-06 0.0 
1.585013021875e-06 1.171720275559e-04 0.0 
0.0 0.0 0.0 
1.665183393396e-07 -4.566159811956e-06 0.0 
-4.566159811956e-06 1.093151144256e-03 0.0 
0.0 0.0 0.0 
-4.886382454217e-07 1.661512379556e-06 0.0 
1.661512379556e-06 1.022332063788e-03 0.0 
0.0 0.0 0.0 
1.199721592959e-06 -4.792436005638e-07 0.0 
-4.792436005638e-07 5.986991345019e-05 0.0 
0.0 0.0 0.0 
1.393089685831e-06 -1.980022160951e-06 0.0 
-1.980022160951e-06 1.177816645685e-03 0.0 
0.0 0.0 0.0 
-1.522685720845e-07 4.187291447337e-06 0.0 
4.187291447337e-06 9.582168161086e-04 0.0 
0.0 0.0 0.0 
-2.095895198617e-06 -5.733665919502e-06 0.0 
-5.733665919502e-06 4.830750630735e-05 0.0 
0.0 0.0 0.0 
6.206526403929e-08 4.780300672084e-06 0.0 
4.780300672084e-06 5.544648311862e-04 0.0 
0.0 0.0 0.0 
2.147388991069e-07 -3.386093984383e-06 0.0 
-3.386093984383e-06 6.399665586740e-04 0.0 
0.0 0.0 0.0 
-2.679667592265e-07 -1.636759753429e-06 0.0 
-1.636759753429e-06 4.991921669373e-04 0.0 
0.0 0.0 0.0 
6.892259329927e-07 3.835504513993e-06 0.0 
3.835504513993e-06 4.137110398308e-04 0.0 
0.0 0.0 0.0 
2.538657994933e-08 -5.113015560202e-06 0.0 
-5.113015560202e-06 4.777598590147e-04 0.0 
0.0 0.0 0.0 
-5.452284066454e-07 2.510324586092e-06 0.0 
2.510324586092e-06 1.179506729541e-03 0.0 
0.0 0.0 0.0 
9.220253340825e-07 4.252598369407e-06 0.0 
4.252598369407e-06 7.937985799393e-04 0.0 
0.0 0.0 0.0 
1.540683491896e-07 5.412476322715e-06 0.0 
5.412476322715e-06 4.422585800257e-04 0.0 
0.0 0.0 0.0 
-7.446110823484e-07 -5.373049243650e-06 0.0 
-5.373049243650e-06 1.752370289139e-04 0.0 
0.0 0.0 0.0 
5.590301523917e-07 2.911965994141e-06 0.0 
2.911965994141e-06 7.014247533483e-04 0.0 
0.0 0.0 0.0 
1.174349119948e-06 -2.104088744814e-06 0.0 
-2.104088744814e-06 1.027489125782e-03 0.0 
0.0 0.0 0.0 
-4.359749783411e-09 -5.734286624715e-06 0.0 
-5.734286624715e-06 4.427941548222e-04 0.0 
0.0 0.0 0.0 
-6.508684621265e-07 -3.880754149175e-06 0.0 
-3.880754149175e-06 1.276508286194e-04 0.0 
0.0 0.0 0.0 
-3.301686701818e-09 -3.508388396840e-06 0.0 
-3.508388396840e-06 5.753753026669e-04 0.0 
0.0 0.0 0.0 
-1.087093933982e-06 1.647410913452e-06 0.0 
1.647410913452e-06 4.947533569246e-04 0.0 
0.0 0.0 0.0 
1.929933173273e-07 3.530127277533e-06 0.0 
3.530127277533e-06 5.408517308518e-04 0.0 
0.0 0.0 0.0 
-4.590518531966e-08 3.777628970983e-06 0.0 
3.777628970983e-06 1.188825689094e-03 0.0 
0.0 0.0 0.0 
-1.577864298219e-06 3.819141263421e-06 0.0 
3.819141263421e-06 1.537546411035e-04 0.0 
0.0 0.0 0.0 
3.229748131162e-07 3.845228443378e-06 0.0 
3.845228443378e-06 8.326370438445e-04 0.0 
0.0 0.0 0.0 
-6.918370097919e-07 5.244886982012e-06 0.0 
5.244886982012e-06 1.158645640108e-03 0.0 
0.0 0.0 0.0 
-1.053139628837e-07 4.035559591235e-06 0.0 
4.035559591235e-06 5.822703929226e-04 0.0 
0.0 0.0 0.0 
-4.480217330460e-08 -3.571373710479e-06 0.0 
-3.571373710479e-06 5.438676477953e-04 0.0 
0.0 0.0 0.0 
6.005982280399e-07 5.745030136888e-06 0.0 
5.745030136888e-06 1.157321509083e-03 0.0 
0.0 0.0 0.0 
2.207662364029e-07 -6.003488313842e-06 0.0 
-6.003488313842e-06 1.162239564241e-03 0.0 
0.0 0.0 0.0 
-1.548688132180e-07 4.052648448058e-06 0.0 
4.052648448058e-06 8.986363265679e-04 0.0 
0.0 0.0 0.0 
-1.358798076279e-07 -3.996334504529e-06 0.0 
-3.996334504529e-06 6.175787037608e-04 0.0 
0.0 0.0 0.0 
-7.709153437840e-08 1.646887581225e-06 0.0 
1.646887581225e-06 1.178727615465e-03 0.0 
0.0 0.0 0.0 
-1.023940060518e-07 4.088226309212e-06 0.0 
4.088226309212e-06 5.572163966379e-04 0.0 
0.0 0.0 0.0 
1.331372171176e-06 -1.936727643038e-07 0.0 
-1.936727643038e-07 1.175241862578e-03 0.0 
0.0 0.0 0.0 
-4.058113423078e-07 1.754820658385e-06 0.0 
1.754820658385e-06 1.176168719774e-03 0.0 
0.0 0.0 0.0 
-9.688689750487e-08 -6.181918873131e-06 0.0 
-6.181918873131e-06 7.682672727369e-04 0.0 
0.0 0.0 0.0 
4.927048755654e-07 4.440336672362e-06 0.0 
4.440336672362e-06 8.939124546643e-04 0.0 
0.0 0.0 0.0 
-1.197797010466e-07 -4.177434247825e-06 0.0 
-4.177434247825e-06 5.575637737287e-04 0.0 
0.0 0.0 0.0 
-3.299466824203e-07 3.676609648110e-06 0.0 
3.676609648110e-06 5.085504346345e-04 0.0 
0.0 0.0 0.0 
-1.825898302554e-07 4.145503479869e-06 0.0 
4.145503479869e-06 6.419956222115e-04 0.0 
0.0 0.0 0.0 
-8.744320101339e-08 -3.872707049391e-06 0.0 
-3.872707049391e-06 4.717282955762e-04 0.0 
0.0 0.0 0.0 
1.652153243104e-07 -4.518656999031e-06 0.0 
-4.518656999031e-06 6.954321569264e-04 0.0 
0.0 0.0 0.0 
-7.006455082781e-08 -4.966398349843e-06 0.0 
-4.966398349843e-06 5.556602120356e-04 0.0 
0.0 0.0 0.0 
8.049113724429e-07 -1.998623092459e-06 0.0 
-1.998623092459e-06 5.888527953157e-05 0.0 
0.0 0.0 0.0 
-1.968026124288e-07 -3.179792403530e-07 0.0 
-3.179792403530e-07 7.443506429443e-04 0.0 
0.0 0.0 0.0 
-1.538714772042e-06 1.466478345910e-08 0.0 
1.466478345910e-08 1.732725696928e-04 0.0 
0.0 0.0 0.0 
-7.540099367098e-08 -3.544234355612e-06 0.0 
-3.544234355612e-06 6.080441578666e-04 0.0 
0.0 0.0 0.0 
8.254731673762e-07 7.420761775831e-08 0.0 
7.420761775831e-08 1.176712252715e-03 0.0 
0.0 0.0 0.0 
-3.253068591169e-07 5.228245313936e-06 0.0 
5.228245313936e-06 4.089908189353e-04 0.0 
0.0 0.0 0.0 
-9.888028951188e-09 4.671200901314e-06 0.0 
4.671200901314e-06 9.321904952759e-04 0.0 
0.0 0.0 0.0 
1.753116576353e-07 -5.105523409785e-06 0.0 
-5.105523409785e-06 2.914093123643e-04 0.0 
0.0 0.0 0.0 
9.667417999459e-08 5.410737698127e-06 0.0 
5.410737698127e-06 9.537705476184e-04 0.0 
0.0 0.0 0.0 
-5.028955879505e-07 1.344000092658e-07 0.0 
1.344000092658e-07 7.010908578438e-04 0.0 
0.0 0.0 0.0 
-5.292203786311e-08 4.741194506369e-06 0.0 
4.741194506369e-06 5.193717888294e-04 0.0 
0.0 0.0 0.0 
-5.405614655896e-08 -4.943505241566e-06 0.0 
-4.943505241566e-06 1.027736002351e-03 0.0 
0.0 0.0 0.0 
7.953643899050e-07 3.969191087293e-06 0.0 
3.969191087293e-06 1.734580873445e-04 0.0 
0.0 0.0 0.0 
4.657613654757e-07 5.028054014556e-06 0.0 
5.028054014556e-06 1.092136447625e-03 0.0 
0.0 0.0 0.0 
-2.792605848789e-07 4.097038518051e-06 0.0 
4.097038518051e-06 6.906327322604e-04 0.0 
0.0 0.0 0.0 
-6.512120821478e-07 2.824645154078e-07 0.0 
2.824645154078e-07 1.175768772127e-03 0.0 
0.0 0.0 0.0 
-1.796177787616e-07 5.491604343252e-07 0.0 
5.491604343252e-07 6.974241986812e-04 0.0 
0.0 0.0 0.0 
-1.769095085979e-07 3.701008861868e-06 0.0 
3.701008861868e-06 4.324919980172e-04 0.0 
0.0 0.0 0.0 
7.373618611251e-07 3.500645011952e-06 0.0 
3.500645011952e-06 6.052896993760e-04 0.0 
0.0 0.0 0.0 
-1.325862063362e-06 -2.855567973959e-06 0.0 
-2.855567973959e-06 7.970382309250e-04 0.0 
0.0 0.0 0.0 
-6.509138823496e-07 5.591089494845e-06 0.0 
5.591089494845e-06 2.944151269448e-04 0.0 
0.0 0.0 0.0 
-5.336744435258e-08 -4.872532715992e-06 0.0 
-4.872532715992e-06 5.206749864359e-04 0.0 
0.0 0.0 0.0 
-1.958120191548e-07 -5.315130825514e-06 0.0 
-5.315130825514e-06 9.283860949816e-04 0.0 
0.0 0.0 0.0 
-6.823549874024e-07 3.513576514244e-06 0.0 
3.513576514244e-06 6.970255222056e-04 0.0 
0.0 0.0 0.0 
-2.676017374359e-08 3.909979459792e-06 0.0 
3.909979459792e-06 4.921805628093e-04 0.0 
0.0 0.0 0.0 
-1.734804339071e-07 3.301596086345e-06 0.0 
3.301596086345e-06 5.727040409880e-04 0.0 
0.0 0.0 0.0 
2.017823024225e-07 4.739226252469e-06 0.0 
4.739226252469e-06 1.041417172913e-03 0.0 
0.0 0.0 0.0 
-2.694386318502e-07 -1.302162409280e-06 0.0 
-1.302162409280e-06 5.539734876017e-04 0.0 
0.0 0.0 0.0 
7.194579358938e-07 1.227870704469e-06 0.0 
1.227870704469e-06 1.176087745177e-03 0.0 
0.0 0.0 0.0 
-3.701080316665e-07 -7.790525018805e-07 0.0 
-7.790525018805e-07 1.175037510794e-03 0.0 
0.0 0.0 0.0 
6.890010939564e-08 -3.123715181718e-06 0.0 
-3.123715181718e-06 3.964958014682e-04 0.0 
0.0 0.0 0.0 
8.581408141861e-07 1.639258697169e-06 0.0 
1.639258697169e-06 5.572320918095e-04 0.0 
0.0 0.0 0.0 
-2.145590138891e-07 -4.486029180423e-06 0.0 
-4.486029180423e-06 1.058830174986e-03 0.0 
0.0 0.0 0.0 
-1.144728527525e-07 -3.599169820997e-06 0.0 
-3.599169820997e-06 5.334227912908e-04 0.0 
0.0 0.0 0.0 
-7.404002515532e-07 3.746742127571e-06 0.0 
3.746742127571e-06 3.543253150602e-04 0.0 
0.0 0.0 0.0 
-2.258399611765e-07 4.032357080221e-06 0.0 
4.032357080221e-06 6.649236965028e-04 0.0 
0.0 0.0 0.0 
-5.922152213067e-09 -3.873858923082e-06 0.0 
-3.873858923082e-06 5.320277692789e-04 0.0 
0.0 0.0 0.0 
-4.418202420586e-07 2.807783589044e-06 0.0 
2.807783589044e-06 1.173311436164e-03 0.0 
0.0 0.0 0.0 
-3.978154583528e-09 4.429040414281e-06 0.0 
4.429040414281e-06 9.670933071355e-04 0.0 
0.0 0.0 0.0 
1.555691444555e-07 5.223077234504e-06 0.0 
5.223077234504e-06 1.060969657113e-03 0.0 
0.0 0.0 0.0 
-2.438548930561e-07 -5.156287307122e-06 0.0 
-5.156287307122e-06 2.264078978762e-04 0.0 
0.0 0.0 0.0 
-5.626587917806e-08 -4.556244229806e-06 0.0 
-4.556244229806e-06 4.868976211458e-04 0.0 
0.0 0.0 0.0 
1.509101135166e-07 4.437390059289e-06 0.0 
4.437390059289e-06 9.945498147115e-04 0.0 
0.0 0.0 0.0 
1.334877116177e-06 -1.713033066878e-06 0.0 
-1.713033066878e-06 1.276234597514e-05 0.0 
0.0 0.0 0.0 
-2.882221766809e-07 3.534679130868e-06 0.0 
3.534679130868e-06 5.332867113943e-04 0.0 
0.0 0.0 0.0 
-7.927794087870e-09 -5.321194248127e-06 0.0 
-5.321194248127e-06 9.900128651057e-04 0.0 
0.0 0.0 0.0 
1.478846325620e-06 -1.430808769859e-06 0.0 
-1.430808769859e-06 1.154184129517e-04 0.0 
0.0 0.0 0.0 
8.597890557294e-07 5.383280454693e-06 0.0 
5.383280454693e-06 1.159189172748e-03 0.0 
0.0 0.0 0.0 
1.582938529143e-07 4.438366294085e-06 0.0 
4.438366294085e-06 8.854435204966e-04 0.0 
0.0 0.0 0.0 
4.853458079879e-08 4.330841546511e-06 0.0 
4.330841546511e-06 5.247370995916e-04 0.0 
0.0 0.0 0.0 
-9.874865414261e-08 5.447867961672e-06 0.0 
5.447867961672e-06 9.892807340164e-04 0.0 
0.0 0.0 0.0 
1.868762919965e-07 -2.528915066201e-07 0.0 
-2.528915066201e-07 7.527177169355e-04 0.0 
0.0 0.0 0.0 
1.086187807475e-06 -3.710264342965e-06 0.0 
-3.710264342965e-06 8.037991123269e-04 0.0 
0.0 0.0 0.0 
1.239038163181e-07 -3.276694552311e-06 0.0 
-3.276694552311e-06 1.137900518683e-03 0.0 
0.0 0.0 0.0 
1.687068706957e-07 4.709643579247e-06 0.0 
4.709643579247e-06 3.889831471042e-04 0.0 
0.0 0.0 0.0 
-1.312813173726e-07 4.254303771858e-06 0.0 
4.254303771858e-06 6.677663016927e-04 0.0 
0.0 0.0 0.0 
-1.915788544471e-07 4.025395992021e-06 0.0 
4.025395992021e-06 7.168430054592e-04 0.0 
0.0 0.0 0.0 
3.653239155632e-08 -4.407622613732e-06 0.0 
-4.407622613732e-06 9.214466006839e-04 0.0 
0.0 0.0 0.0 
-3.611401905301e-07 -4.177737383979e-06 0.0 
-4.177737383979e-06 7.250551270643e-04 0.0 
0.0 0.0 0.0 
-5.140174752505e-08 -3.705090806679e-06 0.0 
-3.705090806679e-06 6.648797597162e-04 0.0 
0.0 0.0 0.0 
-3.493441980140e-09 -4.546223140886e-06 0.0 
-4.546223140886e-06 8.562807700621e-04 0.0 
0.0 0.0 0.0 
-8.027140274702e-08 -4.734046604595e-06 0.0 
-4.734046604595e-06 1.013395463357e-03 0.0 
0.0 0.0 0.0 
2.012104047600e-06 -3.683337298079e-07 0.0 
-3.683337298079e-07 5.630934617740e-05 0.0 
0.0 0.0 0.0 
8.947479464005e-07 2.455204762162e-06 0.0 
2.455204762162e-06 3.971756569674e-04 0.0 
0.0 0.0 0.0 
-2.459279205835e-07 4.246758413462e-06 0.0 
4.246758413462e-06 4.530448607671e-04 0.0 
0.0 0.0 0.0 
-1.632637357529e-07 -4.089376948036e-06 0.0 
-4.089376948036e-06 6.431155382753e-04 0.0 
0.0 0.0 0.0 
-2.280612476646e-08 -4.804155320430e-06 0.0 
-4.804155320430e-06 1.004942907211e-03 0.0 
0.0 0.0 0.0 
2.767433271433e-07 4.405452075068e-06 0.0 
4.405452075068e-06 1.952120448780e-04 0.0 
0.0 0.0 0.0 
2.887173744526e-08 -5.080631310333e-06 0.0 
-5.080631310333e-06 9.543051569101e-04 0.0 
0.0 0.0 0.0 
2.615118550597e-07 -5.376396178071e-06 0.0 
-5.376396178071e-06 6.923051350782e-04 0.0 
0.0 0.0 0.0 
-9.270404188744e-08 4.452186405879e-06 0.0 
4.452186405879e-06 4.856292892603e-04 0.0 
0.0 0.0 0.0 
9.516465171444e-09 -4.830505785170e-06 0.0 
-4.830505785170e-06 9.190549491065e-04 0.0 
0.0 0.0 0.0 
-2.648266949068e-06 -3.967965140300e-06 0.0 
-3.967965140300e-06 7.308785310500e-05 0.0 
0.0 0.0 0.0 
9.423872548986e-08 4.622846605279e-06 0.0 
4.622846605279e-06 9.477796411099e-04 0.0 
0.0 0.0 0.0 
-1.229681663495e-06 1.823158708400e-06 0.0 
1.823158708400e-06 5.558256949567e-05 0.0 
0.0 0.0 0.0 
7.883085879623e-07 1.137096579817e-07 0.0 
1.137096579817e-07 1.171131071922e-04 0.0 
0.0 0.0 0.0 
3.914028301466e-07 5.167471358885e-06 0.0 
5.167471358885e-06 2.269297945308e-04 0.0 
0.0 0.0 0.0 
9.679870283108e-08 4.044546499232e-06 0.0 
4.044546499232e-06 3.259416268802e-04 0.0 
0.0 0.0 0.0 
2.861260783860e-09 -4.257639542366e-06 0.0 
-4.257639542366e-06 9.837635790639e-04 0.0 
0.0 0.0 0.0 
-1.293743112640e-08 -4.318538589895e-06 0.0 
-4.318538589895e-06 3.041812901110e-04 0.0 
0.0 0.0 0.0 
-8.462432532497e-08 3.862615279491e-06 0.0 
3.862615279491e-06 2.791042151866e-04 0.0 
0.0 0.0 0.0 
1.180823485658e-07 -3.982446165718e-06 0.0 
-3.982446165718e-06 2.342553813595e-04 0.0 
0.0 0.0 0.0 
-5.642807932027e-08 4.412423485936e-06 0.0 
4.412423485936e-06 2.000033163609e-04 0.0 
0.0 0.0 0.0 
-1.253646952915e-07 4.544505482470e-06 0.0 
4.544505482470e-06 1.022661733299e-03 0.0 
0.0 0.0 0.0 
-1.501930541048e-07 -4.314231142362e-06 0.0 
-4.314231142362e-06 6.909593161744e-04 0.0 
0.0 0.0 0.0 
1.665624993485e-08 5.658581223958e-06 0.0 
5.658581223958e-06 1.159445463954e-03 0.0 
0.0 0.0 0.0 
2.018313482788e-06 -1.165863163347e-07 0.0 
-1.165863163347e-07 1.433075916024e-05 0.0 
0.0 0.0 0.0 
-4.036626854997e-08 4.143324224536e-06 0.0 
4.143324224536e-06 3.378502119136e-04 0.0 
0.0 0.0 0.0 
-2.099172335956e-08 4.650950508551e-06 0.0 
4.650950508551e-06 5.479713860366e-04 0.0 
0.0 0.0 0.0 
-1.523988230057e-07 4.210700223780e-06 0.0 
4.210700223780e-06 4.973320376183e-04 0.0 
0.0 0.0 0.0 
-8.529686534864e-08 5.078389006249e-06 0.0 
5.078389006249e-06 9.536083608794e-04 0.0 
0.0 0.0 0.0 
-4.395037556115e-07 4.462552091878e-06 0.0 
4.462552091878e-06 1.181379796292e-03 0.0 
0.0 0.0 0.0 
-2.281909805557e-08 -4.707417473625e-06 0.0 
-4.707417473625e-06 9.419426801438e-04 0.0 
0.0 0.0 0.0 
-1.533215537863e-07 -4.385621079891e-06 0.0 
-4.385621079891e-06 3.918850087417e-04 0.0 
0.0 0.0 0.0 
-2.093652494706e-07 -4.396794553125e-06 0.0 
-4.396794553125e-06 1.022723253206e-03 0.0 
0.0 0.0 0.0 
-2.968706611650e-07 5.876753916100e-06 0.0 
5.876753916100e-06 8.645088626469e-04 0.0 
0.0 0.0 0.0 
-1.642367785104e-07 -4.078832279435e-06 0.0 
-4.078832279435e-06 6.771958375247e-04 0.0 
0.0 0.0 0.0 
1.593357050744e-07 4.666801556233e-06 0.0 
4.666801556233e-06 9.120972512642e-04 0.0 
0.0 0.0 0.0 
-1.171987642490e-07 -3.640314691158e-06 0.0 
-3.640314691158e-06 1.139656769762e-03 0.0 
0.0 0.0 0.0 
-6.903033966665e-08 -4.752971835048e-06 0.0 
-4.752971835048e-06 5.493537313330e-04 0.0 
0.0 0.0 0.0 
-1.069731886405e-07 -4.053960517812e-06 0.0 
-4.053960517812e-06 3.138832951088e-04 0.0 
0.0 0.0 0.0 
-2.678404351641e-07 -4.361733620187e-06 0.0 
-4.361733620187e-06 7.849728944846e-04 0.0 
0.0 0.0 0.0 
-2.865904119576e-07 2.259057853989e-06 0.0 
2.259057853989e-06 1.230005237818e-03 0.0 
0.0 0.0 0.0 
-9.655545984977e-08 -4.277638522677e-06 0.0 
-4.277638522677e-06 6.688413642619e-04 0.0 
0.0 0.0 0.0 
-4.022309074703e-08 -4.414152662267e-06 0.0 
-4.414152662267e-06 6.990283196455e-04 0.0 
0.0 0.0 0.0 
-4.857053234053e-07 -1.207860289155e-06 0.0 
-1.207860289155e-06 7.566475441825e-04 0.0 
0.0 0.0 0.0 
4.372210369308e-07 -2.707467235851e-06 0.0 
-2.707467235851e-06 1.644953720463e-04 0.0 
0.0 0.0 0.0 
-6.854170766513e-07 4.197737442313e-06 0.0 
4.197737442313e-06 7.237352093830e-04 0.0 
0.0 0.0 0.0 
-1.217914613605e-07 4.224305039152e-06 0.0 
4.224305039152e-06 3.905860891846e-04 0.0 
0.0 0.0 0.0 
-4.478996201707e-07 4.102619085089e-06 0.0 
4.102619085089e-06 2.598202761406e-04 0.0 
0.0 0.0 0.0 
1.893540533260e-07 -4.172055368506e-06 0.0 
-4.172055368506e-06 1.814143743073e-04 0.0 
0.0 0.0 0.0 
-3.490498723391e-08 4.444875659376e-06 0.0 
4.444875659376e-06 9.826429160218e-04 0.0 
0.0 0.0 0.0 
-2.629216219185e-07 -4.172652422157e-06 0.0 
-4.172652422157e-06 7.514997346749e-04 0.0 
0.0 0.0 0.0 
1.120580757075e-07 4.097467998257e-06 0.0 
4.097467998257e-06 4.704455270179e-04 0.0 
0.0 0.0 0.0 
-4.560837596479e-08 -4.401123396326e-06 0.0 
-4.401123396326e-06 1.018403644799e-03 0.0 
0.0 0.0 0.0 
1.280809345250e-07 -4.774816914602e-06 0.0 
-4.774816914602e-06 9.689651359548e-04 0.0 
0.0 0.0 0.0 
-1.837239372859e-07 -4.079475846934e-06 0.0 
-4.079475846934e-06 7.107811497709e-04 0.0 
0.0 0.0 0.0 
1.392227618524e-06 1.714095588570e-06 0.0 
1.714095588570e-06 1.180200452435e-03 0.0 
0.0 0.0 0.0 
-3.709853302336e-08 4.388571360289e-06 0.0 
4.388571360289e-06 7.254302321178e-04 0.0 
0.0 0.0 0.0 
-1.287618556223e-07 -4.188764325837e-06 0.0 
-4.188764325837e-06 7.442625035896e-04 0.0 
0.0 0.0 0.0 
4.912850082306e-08 -4.095700330015e-06 0.0 
-4.095700330015e-06 5.928623033622e-04 0.0 
0.0 0.0 0.0 
-3.088225297709e-08 -4.573056651229e-06 0.0 
-4.573056651229e-06 7.606600155705e-04 0.0 
0.0 0.0 0.0 
-3.162344285323e-07 4.382898652361e-06 0.0 
4.382898652361e-06 3.208787213902e-04 0.0 
0.0 0.0 0.0 
-8.751230259341e-07 1.006367475979e-06 0.0 
1.006367475979e-06 7.015677955424e-04 0.0 
0.0 0.0 0.0 
-6.946988029277e-08 -4.436808282396e-06 0.0 
-4.436808282396e-06 5.763301406572e-04 0.0 
0.0 0.0 0.0 
-5.986883400144e-08 -4.407862707911e-06 0.0 
-4.407862707911e-06 4.031509413376e-04 0.0 
0.0 0.0 0.0 
-9.612136975257e-09 4.445650767749e-06 0.0 
4.445650767749e-06 9.402083911889e-04 0.0 
0.0 0.0 0.0 
-9.321511564853e-07 -5.321191340236e-07 0.0 
-5.321191340236e-07 1.561636336889e-05 0.0 
0.0 0.0 0.0 
-3.492623931178e-07 -4.576528635979e-06 0.0 
-4.576528635979e-06 7.583363329298e-04 0.0 
0.0 0.0 0.0 
-1.226906002350e-07 4.301993805094e-06 0.0 
4.301993805094e-06 4.174683426901e-04 0.0 
0.0 0.0 0.0 
-8.446751853519e-08 -4.238981750711e-06 0.0 
-4.238981750711e-06 3.390150704694e-04 0.0 
0.0 0.0 0.0 
-3.220050214248e-07 -4.235754269305e-06 0.0 
-4.235754269305e-06 3.223413195852e-04 0.0 
0.0 0.0 0.0 
-2.209870088032e-07 4.155514528443e-06 0.0 
4.155514528443e-06 8.104100095381e-04 0.0 
0.0 0.0 0.0 
1.867348451423e-07 -3.027582773991e-06 0.0 
-3.027582773991e-06 1.119669330714e-04 0.0 
0.0 0.0 0.0 
-1.419175280626e-07 4.182159738587e-06 0.0 
4.182159738587e-06 4.884803423544e-04 0.0 
0.0 0.0 0.0 
-3.437348683466e-08 4.340374781229e-06 0.0 
4.340374781229e-06 7.875829005906e-04 0.0 
0.0 0.0 0.0 
-4.097769180644e-07 4.125722135455e-06 0.0 
4.125722135455e-06 7.500639365581e-04 0.0 
0.0 0.0 0.0 
-8.307946023356e-07 -6.072799935152e-07 0.0 
-6.072799935152e-07 7.562749175232e-04 0.0 
0.0 0.0 0.0 
-8.982818973102e-07 4.698336034982e-06 0.0 
4.698336034982e-06 1.616559961779e-04 0.0 
0.0 0.0 0.0 
-8.988692912215e-08 4.432311581495e-06 0.0 
4.432311581495e-06 4.017889527634e-04 0.0 
0.0 0.0 0.0 
-2.176095811324e-07 -4.643202393395e-06 0.0 
-4.643202393395e-06 3.677581998558e-04 0.0 
0.0 0.0 0.0 
-1.260929809455e-07 -3.852354248343e-06 0.0 
-3.852354248343e-06 4.305144150367e-04 0.0 
0.0 0.0 0.0 
-5.257111390655e-08 -4.866114411979e-06 0.0 
-4.866114411979e-06 9.138855979336e-04 0.0 
0.0 0.0 0.0 
-1.547172276961e-07 -3.894063030246e-06 0.0 
-3.894063030246e-06 4.896891484021e-04 0.0 
0.0 0.0 0.0 
-5.499587574231e-08 4.285858454437e-06 0.0 
4.285858454437e-06 5.401896505062e-04 0.0 
0.0 0.0 0.0 
-6.985262002157e-08 4.374984827856e-06 0.0 
4.374984827856e-06 5.131946989698e-04 0.0 
0.0 0.0 0.0 
-1.051435192245e-06 -4.393370804450e-06 0.0 
-4.393370804450e-06 1.982821644497e-04 0.0 
0.0 0.0 0.0 
2.891510009206e-08 4.529474264507e-06 0.0 
4.529474264507e-06 6.174009613200e-04 0.0 
0.0 0.0 0.0 
-6.748306551341e-07 -4.773032102126e-06 0.0 
-4.773032102126e-06 2.209349328992e-04 0.0 
0.0 0.0 0.0 
6.682048703244e-07 -6.225485773769e-08 0.0 
-6.225485773769e-08 1.228900621084e-03 0.0 
0.0 0.0 0.0 
-9.712122093219e-07 -6.749087269892e-07 0.0 
-6.749087269892e-07 1.226301213540e-03 0.0 
0.0 0.0 0.0 
-8.775993309840e-08 4.294985205160e-06 0.0 
4.294985205160e-06 6.942035309259e-04 0.0 
0.0 0.0 0.0 
-2.055598716799e-07 4.284613995426e-06 0.0 
4.284613995426e-06 3.562119718177e-04 0.0 
0.0 0.0 0.0 
-1.652096347504e-07 -4.364953366554e-06 0.0 
-4.364953366554e-06 3.050459605716e-04 0.0 
0.0 0.0 0.0 
-1.685353718806e-07 4.251928216540e-06 0.0 
4.251928216540e-06 7.695281931275e-04 0.0 
0.0 0.0 0.0 
-2.587265757192e-07 -4.397693450040e-06 0.0 
-4.397693450040e-06 3.313318444114e-04 0.0 
0.0 0.0 0.0 
-6.982745737183e-08 4.496146701638e-06 0.0 
4.496146701638e-06 3.663385705783e-04 0.0 
0.0 0.0 0.0 
-1.595811818245e-07 4.063084775344e-06 0.0 
4.063084775344e-06 6.757480536463e-04 0.0 
0.0 0.0 0.0 
-9.753719032446e-07 -8.947396854705e-07 0.0 
-8.947396854705e-07 1.176908679638e-03 0.0 
0.0 0.0 0.0 
-8.615518454214e-08 4.393106816792e-06 0.0 
4.393106816792e-06 4.516639766008e-04 0.0 
0.0 0.0 0.0 
-6.558455489802e-08 4.473180398278e-06 0.0 
4.473180398278e-06 8.551968666268e-04 0.0 
0.0 0.0 0.0 
-3.606775026421e-07 3.890005601407e-06 0.0 
3.890005601407e-06 2.449590547755e-04 0.0 
0.0 0.0 0.0 
4.988934876327e-07 1.477027983515e-07 0.0 
1.477027983515e-07 1.229849218107e-03 0.0 
0.0 0.0 0.0 
-1.724950674520e-07 4.177061530081e-06 0.0 
4.177061530081e-06 3.299463994955e-04 0.0 
0.0 0.0 0.0 
-1.293914951850e-07 4.260347014580e-06 0.0 
4.260347014580e-06 7.018558264607e-04 0.0 
0.0 0.0 0.0 
-6.524243345574e-07 4.957488239577e-06 0.0 
4.957488239577e-06 2.236717623925e-04 0.0 
0.0 0.0 0.0 
9.549793400510e-09 4.294707711502e-06 0.0 
4.294707711502e-06 8.335221329336e-04 0.0 
0.0 0.0 0.0 
-3.560360706256e-08 4.354557452522e-06 0.0 
4.354557452522e-06 5.749290507342e-04 0.0 
0.0 0.0 0.0 
-1.815553816176e-07 4.364888731481e-06 0.0 
4.364888731481e-06 3.941060335113e-04 0.0 
0.0 0.0 0.0 
-2.035208348516e-07 -4.234933403096e-06 0.0 
-4.234933403096e-06 7.179023647221e-04 0.0 
0.0 0.0 0.0 
-3.681645543985e-08 -4.424504151128e-07 0.0 
-4.424504151128e-07 1.230692210219e-03 0.0 
0.0 0.0 0.0 
-1.014083559348e-07 4.266047407434e-06 0.0 
4.266047407434e-06 4.787872331105e-04 0.0 
0.0 0.0 0.0 
-2.439705903967e-08 -4.538377392439e-06 0.0 
-4.538377392439e-06 7.888326874192e-04 0.0 
0.0 0.0 0.0 
-4.602284129351e-07 -4.121091990914e-06 0.0 
-4.121091990914e-06 2.460537625442e-04 0.0 
0.0 0.0 0.0 
-3.863092989942e-08 4.785641372042e-06 0.0 
4.785641372042e-06 8.691046105234e-04 0.0 
0.0 0.0 0.0 
1.666011395507e-08 4.716520647414e-06 0.0 
4.716520647414e-06 9.178491249440e-04 0.0 
0.0 0.0 0.0 
-1.178623606490e-07 -4.133511107524e-06 0.0 
-4.133511107524e-06 3.485015105267e-04 0.0 
0.0 0.0 0.0 
-3.228984924997e-07 -4.302802049230e-06 0.0 
-4.302802049230e-06 8.419803921667e-04 0.0 
0.0 0.0 0.0 
-4.438049683309e-08 3.136197761349e-07 0.0 
3.136197761349e-07 1.229578522189e-03 0.0 
0.0 0.0 0.0 
-3.747687904454e-08 4.319759506736e-06 0.0 
4.319759506736e-06 9.821368475014e-04 0.0 
0.0 0.0 0.0 
1.849326780601e-08 -3.849044170127e-07 0.0 
-3.849044170127e-07 1.229527910423e-03 0.0 
0.0 0.0 0.0 
5.337597690502e-07 -4.814058879729e-06 0.0 
-4.814058879729e-06 8.352679874066e-04 0.0 
0.0 0.0 0.0 
-1.351637931579e-07 -4.311035887840e-06 0.0 
-4.311035887840e-06 9.599333851347e-04 0.0 
0.0 0.0 0.0 
-1.311809141313e-07 -4.562041048764e-06 0.0 
-4.562041048764e-06 2.879727113554e-04 0.0 
0.0 0.0 0.0 
-1.570201982881e-07 -4.135314249957e-06 0.0 
-4.135314249957e-06 6.582977058414e-04 0.0 
0.0 0.0 0.0 
-1.458141327682e-07 4.198365293435e-06 0.0 
4.198365293435e-06 7.430662382166e-04 0.0 
0.0 0.0 0.0 
-1.542572152236e-07 -4.272349406319e-06 0.0 
-4.272349406319e-06 7.779244668771e-04 0.0 
0.0 0.0 0.0 
-3.739020526528e-08 -4.223401721828e-06 0.0 
-4.223401721828e-06 6.351553139685e-04 0.0 
0.0 0.0 0.0 
-1.957049028389e-07 -2.598257368504e-07 0.0 
-2.598257368504e-07 1.229844271998e-03 0.0 
0.0 0.0 0.0 
7.076725121458e-07 3.272504091395e-06 0.0 
3.272504091395e-06 7.994735855992e-04 0.0 
0.0 0.0 0.0 
-3.663819563293e-07 -3.974969570804e-06 0.0 
-3.974969570804e-06 6.991085724164e-04 0.0 
0.0 0.0 0.0 
-6.754131698372e-08 -4.484739082598e-06 0.0 
-4.484739082598e-06 5.145368114066e-04 0.0 
0.0 0.0 0.0 
-2.518254960115e-08 4.435559779027e-06 0.0 
4.435559779027e-06 2.635527893848e-04 0.0 
0.0 0.0 0.0 
-8.695609110543e-08 -4.162312482140e-06 0.0 
-4.162312482140e-06 6.317282870034e-04 0.0 
0.0 0.0 0.0 
-6.737425106706e-08 4.245652718537e-06 0.0 
4.245652718537e-06 3.722532329671e-04 0.0 
0.0 0.0 0.0 
-1.065102175346e-07 -9.591461672218e-07 0.0 
-9.591461672218e-07 6.996765659875e-04 0.0 
0.0 0.0 0.0 
-1.294258846762e-07 -4.214185641651e-06 0.0 
-4.214185641651e-06 3.953791583797e-04 0.0 
0.0 0.0 0.0 
-9.441814274869e-08 -4.483695980984e-06 0.0 
-4.483695980984e-06 4.529306666821e-04 0.0 
0.0 0.0 0.0 
2.633750240122e-08 4.719017614966e-06 0.0 
4.719017614966e-06 9.755297976766e-04 0.0 
0.0 0.0 0.0 
-5.561563998224e-08 -4.273215800936e-06 0.0 
-4.273215800936e-06 3.733625142059e-04 0.0 
0.0 0.0 0.0 
-2.169614254921e-07 4.182813149911e-06 0.0 
4.182813149911e-06 6.833586504440e-04 0.0 
0.0 0.0 0.0 
-2.392812592511e-08 4.271124970359e-06 0.0 
4.271124970359e-06 8.147825180793e-04 0.0 
0.0 0.0 0.0 
-1.210976519062e-08 4.518349739934e-06 0.0 
4.518349739934e-06 7.210488703431e-04 0.0 
0.0 0.0 0.0 
8.661207155924e-07 -4.971376659390e-08 0.0 
-4.971376659390e-08 1.231080864151e-03 0.0 
0.0 0.0 0.0 
-2.681839988972e-07 -3.852797352093e-06 0.0 
-3.852797352093e-06 5.674963669029e-04 0.0 
0.0 0.0 0.0 
-1.421510821276e-07 4.452916549803e-06 0.0 
4.452916549803e-06 3.743308882507e-04 0.0 
0.0 0.0 0.0 
4.288651234141e-08 -4.050392947590e-06 0.0 
-4.050392947590e-06 5.005437968415e-04 0.0 
0.0 0.0 0.0 
-4.763677673436e-07 -3.387222998099e-06 0.0 
-3.387222998099e-06 3.553482005811e-04 0.0 
0.0 0.0 0.0 
-5.550454751369e-08 4.454469189608e-06 0.0 
4.454469189608e-06 3.475564332860e-04 0.0 
0.0 0.0 0.0 
-1.710730601623e-08 -4.590964717956e-06 0.0 
-4.590964717956e-06 1.032195885755e-03 0.0 
0.0 0.0 0.0 
-1.258062077847e-07 -4.259963756304e-06 0.0 
-4.259963756304e-06 7.368559120140e-04 0.0 
0.0 0.0 0.0 
-2.272487172883e-07 -4.305459154974e-06 0.0 
-4.305459154974e-06 4.980394702030e-04 0.0 
0.0 0.0 0.0 
-1.719605370321e-07 4.214408842708e-06 0.0 
4.214408842708e-06 6.242034767736e-04 0.0 
0.0 0.0 0.0 
-8.633288417492e-08 5.119941596362e-07 0.0 
5.119941596362e-07 1.228614109535e-03 0.0 
0.0 0.0 0.0 
-1.363379187325e-07 -3.324513006282e-06 0.0 
-3.324513006282e-06 1.164923551096e-03 0.0 
0.0 0.0 0.0 
1.958585313933e-07 4.541125391181e-06 0.0 
4.541125391181e-06 1.030206300026e-03 0.0 
0.0 0.0 0.0 
4.876615067317e-08 -4.472448256171e-06 0.0 
-4.472448256171e-06 9.493626107322e-04 0.0 
0.0 0.0 0.0 
-8.504155490918e-09 -4.325607894304e-06 0.0 
-4.325607894304e-06 6.948095747419e-04 0.0 
0.0 0.0 0.0 
-9.908231590749e-08 -4.084652148669e-06 0.0 
-4.084652148669e-06 5.146744615159e-04 0.0 
0.0 0.0 0.0 
-2.608754258171e-07 -4.356041559093e-06 0.0 
-4.356041559093e-06 3.575802513880e-04 0.0 
0.0 0.0 0.0 
-1.409192375013e-07 -4.373799882657e-06 0.0 
-4.373799882657e-06 4.187959558499e-04 0.0 
0.0 0.0 0.0 
-1.147367986176e-07 -4.153101761655e-06 0.0 
-4.153101761655e-06 7.030963460728e-04 0.0 
0.0 0.0 0.0 
-3.501778200743e-09 -4.476897922506e-06 0.0 
-4.476897922506e-06 8.079373571326e-04 0.0 
0.0 0.0 0.0 
9.052738025872e-08 -4.555190570922e-06 0.0 
-4.555190570922e-06 6.072922134437e-04 0.0 
0.0 0.0 0.0 
-1.807187569591e-07 4.629895007906e-06 0.0 
4.629895007906e-06 1.038592626727e-03 0.0 
0.0 0.0 0.0 
-4.875082337819e-08 -4.338356025575e-06 0.0 
-4.338356025575e-06 3.756975777265e-04 0.0 
0.0 0.0 0.0 
5.055267315868e-11 -4.236657507469e-06 0.0 
-4.236657507469e-06 6.013438273291e-04 0.0 
0.0 0.0 0.0 
-1.254456113431e-07 4.155396152000e-06 0.0 
4.155396152000e-06 7.091978690621e-04 0.0 
0.0 0.0 0.0 
1.176490149746e-08 -4.467027546571e-06 0.0 
-4.467027546571e-06 5.408039444228e-04 0.0 
0.0 0.0 0.0 
8.558949542437e-07 -4.629731177125e-07 0.0 
-4.629731177125e-07 1.228178110102e-03 0.0 
0.0 0.0 0.0 
-8.315178333662e-07 1.212972239336e-06 0.0 
1.212972239336e-06 1.226629816955e-03 0.0 
0.0 0.0 0.0 
6.695060090767e-07 -5.156230345185e-06 0.0 
-5.156230345185e-06 1.160749948181e-03 0.0 
0.0 0.0 0.0 
7.853088623833e-09 -4.453578013003e-06 0.0 
-4.453578013003e-06 7.572587691960e-04 0.0 
0.0 0.0 0.0 
-1.989229370114e-08 4.399409900260e-06 0.0 
4.399409900260e-06 1.017278380413e-03 0.0 
0.0 0.0 0.0 
-9.032789582974e-08 4.003564021293e-06 0.0 
4.003564021293e-06 3.129478799517e-04 0.0 
0.0 0.0 0.0 
-8.489952785240e-08 -4.381869992060e-06 0.0 
-4.381869992060e-06 4.801146962941e-04 0.0 
0.0 0.0 0.0 
-3.622013103888e-07 -3.878691802550e-06 0.0 
-3.878691802550e-06 2.611779134956e-04 0.0 
0.0 0.0 0.0 
-1.450893037935e-07 -4.050973599577e-06 0.0 
-4.050973599577e-06 5.236101230366e-04 0.0 
0.0 0.0 0.0 
7.389841147898e-07 -4.282268447312e-07 0.0 
-4.282268447312e-07 7.019267680901e-04 0.0 
0.0 0.0 0.0 
1.040856434376e-07 4.877946550494e-06 0.0 
4.877946550494e-06 8.343541104869e-04 0.0 
0.0 0.0 0.0 
-3.120828214742e-07 -7.220138914705e-08 0.0 
-7.220138914705e-08 1.174733458858e-03 0.0 
0.0 0.0 0.0 
7.256723533189e-08 4.907057446755e-06 0.0 
4.907057446755e-06 1.020591398376e-03 0.0 
0.0 0.0 0.0 
-1.568551170061e-07 4.096131257936e-06 0.0 
4.096131257936e-06 7.836816238560e-04 0.0 
0.0 0.0 0.0 
-2.035294826008e-07 4.213137546067e-06 0.0 
4.213137546067e-06 8.033621312540e-04 0.0 
0.0 0.0 0.0 
-3.575133663558e-07 4.565212852649e-06 0.0 
4.565212852649e-06 2.855822944137e-04 0.0 
0.0 0.0 0.0 
5.566696115178e-07 7.332178913354e-07 0.0 
7.332178913354e-07 1.141179457373e-04 0.0 
0.0 0.0 0.0 
-2.851335390019e-08 4.580144004592e-06 0.0 
4.580144004592e-06 5.826036337739e-04 0.0 
0.0 0.0 0.0 
-1.743029420798e-08 -4.239594631292e-06 0.0 
-4.239594631292e-06 6.614876748379e-04 0.0 
0.0 0.0 0.0 
4.656308227879e-09 -4.528725037175e-06 0.0 
-4.528725037175e-06 6.186947695144e-04 0.0 
0.0 0.0 0.0 
-1.279645352348e-06 3.642908926941e-06 0.0 
3.642908926941e-06 1.278023793660e-04 0.0 
0.0 0.0 0.0 
-4.003059181912e-07 1.808843804602e-06 0.0 
1.808843804602e-06 7.541351757852e-04 0.0 
0.0 0.0 0.0 
-2.149972072596e-07 -4.411069399450e-06 0.0 
-4.411069399450e-06 2.402120234712e-04 0.0 
0.0 0.0 0.0 
-7.863158790755e-08 4.308828551755e-06 0.0 
4.308828551755e-06 3.639325680800e-04 0.0 
0.0 0.0 0.0 
0.0 -2.424318290997e-08 0.0 
-2.424318290997e-08 1.230225242880e-03 0.0 
0.0 0.0 0.0 
-6.307757560720e-08 -4.668461698941e-06 0.0 
-4.668461698941e-06 8.860239781483e-04 0.0 
0.0 0.0 0.0 
-1.140473794847e-06 4.189013364685e-06 0.0 
4.189013364685e-06 6.981135872173e-04 0.0 
0.0 0.0 0.0 
-3.814642610678e-07 3.273014561700e-06 0.0 
3.273014561700e-06 1.687861235027e-04 0.0 
0.0 0.0 0.0 
-9.908059273034e-08 4.330286836746e-06 0.0 
4.330286836746e-06 6.339819451073e-04 0.0 
0.0 0.0 0.0 
-4.468712844208e-08 -4.704898835181e-06 0.0 
-4.704898835181e-06 5.839103155052e-04 0.0 
0.0 0.0 0.0 
-1.979496573323e-07 -4.433258967748e-06 0.0 
-4.433258967748e-06 8.115006123202e-04 0.0 
0.0 0.0 0.0 
-1.861434598682e-07 9.279320436015e-07 0.0 
9.279320436015e-07 1.230315912298e-03 0.0 
0.0 0.0 0.0 
-1.781873484319e-07 4.200964488258e-06 0.0 
4.200964488258e-06 6.573572454709e-04 0.0 
0.0 0.0 0.0 
-1.582496476082e-07 -4.310175461828e-06 0.0 
-4.310175461828e-06 7.706283215827e-04 0.0 
0.0 0.0 0.0 
9.087861019275e-08 4.473766942791e-06 0.0 
4.473766942791e-06 6.059410074670e-04 0.0 
0.0 0.0 0.0 
-5.925295476494e-09 4.552445153803e-06 0.0 
4.552445153803e-06 1.010701947084e-03 0.0 
0.0 0.0 0.0 
7.159194792550e-09 4.472758458789e-06 0.0 
4.472758458789e-06 7.840912617338e-04 0.0 
0.0 0.0 0.0 
3.988666226196e-07 -1.874866790245e-07 0.0 
-1.874866790245e-07 1.229683347472e-03 0.0 
0.0 0.0 0.0 
0.0 6.027224711872e-08 0.0 
6.027224711872e-08 1.229041815194e-03 0.0 
0.0 0.0 0.0 
0.0 -1.573934782375e-07 0.0 
-1.573934782375e-07 1.229275289515e-03 0.0 
0.0 0.0 0.0 
0.0 -2.287577840189e-08 0.0 
-2.287577840189e-08 1.225298494351e-03 0.0 
0.0 0.0 0.0 
-1.682797869940e-07 4.182940113945e-06 0.0 
4.182940113945e-06 8.372092590987e-04 0.0 
0.0 0.0 0.0 
-7.437693594348e-08 -4.224679178350e-06 0.0 
-4.224679178350e-06 1.011846694473e-03 0.0 
0.0 0.0 0.0 
2.229902842377e-07 4.766891515286e-06 0.0 
4.766891515286e-06 1.058669133684e-03 0.0 
0.0 0.0 0.0 
-7.683745617548e-08 4.665815094039e-06 0.0 
4.665815094039e-06 5.396910035693e-04 0.0 
0.0 0.0 0.0 
-1.840255937635e-07 4.580826609960e-06 0.0 
4.580826609960e-06 5.135828012648e-04 0.0 
0.0 0.0 0.0 
1.042274273555e-07 -4.610621384798e-06 0.0 
-4.610621384798e-06 5.715743005579e-04 0.0 
0.0 0.0 0.0 
-1.388383600309e-07 -4.593283491751e-06 0.0 
-4.593283491751e-06 1.039957235885e-03 0.0 
0.0 0.0 0.0 
-9.207721418658e-08 -1.036151515677e-07 0.0 
-1.036151515677e-07 1.229301817080e-03 0.0 
0.0 0.0 0.0 
3.560356054422e-08 4.454265955703e-06 0.0 
4.454265955703e-06 1.044985345732e-03 0.0 
0.0 0.0 0.0 
-5.713590667256e-08 -4.684916179061e-06 0.0 
-4.684916179061e-06 8.231513506542e-04 0.0 
0.0 0.0 0.0 
-8.987246946646e-08 -4.183113702555e-06 0.0 
-4.183113702555e-06 1.046164731287e-03 0.0 
0.0 0.0 0.0 
5.152990922852e-08 -4.360719930792e-06 0.0 
-4.360719930792e-06 9.038932989194e-04 0.0 
0.0 0.0 0.0 
-1.365404300735e-08 4.229645059816e-06 0.0 
4.229645059816e-06 6.263497244683e-04 0.0 
0.0 0.0 0.0 
-1.837438953212e-07 4.008136263079e-06 0.0 
4.008136263079e-06 5.227662469547e-04 0.0 
0.0 0.0 0.0 
-2.789505980649e-07 4.188334795984e-06 0.0 
4.188334795984e-06 2.697168160648e-04 0.0 
0.0 0.0 0.0 
-2.430651993013e-07 2.140168797475e-06 0.0 
2.140168797475e-06 1.176080338929e-03 0.0 
0.0 0.0 0.0 
5.681875081542e-08 4.554958814536e-06 0.0 
4.554958814536e-06 5.058422737405e-04 0.0 
0.0 0.0 0.0 
1.069798599707e-06 -2.124331887459e-07 0.0 
-2.124331887459e-07 1.125353019626e-03 0.0 
0.0 0.0 0.0 
1.121089221456e-07 4.431167051444e-06 0.0 
4.431167051444e-06 5.702186857495e-04 0.0 
0.0 0.0 0.0 
5.251752721591e-08 -4.111871961264e-06 0.0 
-4.111871961264e-06 3.595024742797e-04 0.0 
0.0 0.0 0.0 
4.915568669883e-07 9.704900127871e-07 0.0 
9.704900127871e-07 1.175800135255e-03 0.0 
0.0 0.0 0.0 
-8.237796456090e-08 4.216637108129e-06 0.0 
4.216637108129e-06 3.976910331929e-04 0.0 
0.0 0.0 0.0 
0.0 4.949018685095e-08 0.0 
4.949018685095e-08 1.230068104173e-03 0.0 
0.0 0.0 0.0 
-6.335407840563e-07 -3.273573654194e-07 0.0 
-3.273573654194e-07 1.175246698754e-03 0.0 
0.0 0.0 0.0 
-1.537269295193e-07 4.225994019774e-06 0.0 
4.225994019774e-06 7.620501572514e-04 0.0 
0.0 0.0 0.0 
5.621903607089e-07 -5.282544332901e-08 0.0 
-5.282544332901e-08 5.902240139388e-05 0.0 
0.0 0.0 0.0 
0.0 1.878593100786e-07 0.0 
1.878593100786e-07 1.229382288316e-03 0.0 
0.0 0.0 0.0 
1.797913118384e-07 -5.286329753441e-07 0.0 
-5.286329753441e-07 1.176025833064e-03 0.0 
0.0 0.0 0.0 
-1.246583670733e-07 4.608507426107e-06 0.0 
4.608507426107e-06 3.581894120845e-04 0.0 
0.0 0.0 0.0 
-3.835499495786e-08 -4.548540718204e-06 0.0 
-4.548540718204e-06 8.512154311819e-04 0.0 
0.0 0.0 0.0 
-4.510732819485e-07 9.341941821212e-08 0.0 
9.341941821212e-08 1.230516919811e-03 0.0 
0.0 0.0 0.0 
3.741248022493e-07 1.675229569426e-07 0.0 
1.675229569426e-07 1.737905647126e-05 0.0 
0.0 0.0 0.0 
-3.453752839278e-10 4.235067376976e-06 0.0 
4.235067376976e-06 5.664205107416e-04 0.0 
0.0 0.0 0.0 
-1.692234417039e-07 4.242399420984e-06 0.0 
4.242399420984e-06 7.960150627866e-04 0.0 
0.0 0.0 0.0 
-1.170186667565e-07 4.302481074438e-06 0.0 
4.302481074438e-06 7.281138070954e-04 0.0 
0.0 0.0 0.0 
-1.856470400741e-07 4.308927018345e-06 0.0 
4.308927018345e-06 7.356552551887e-04 0.0 
0.0 0.0 0.0 
-1.227580741503e-07 4.224830705524e-06 0.0 
4.224830705524e-06 3.037527802863e-04 0.0 
0.0 0.0 0.0 
0.0 -1.876376774225e-08 0.0 
-1.876376774225e-08 1.229167526691e-03 0.0 
0.0 0.0 0.0 
-6.139634400881e-08 -4.408748112661e-06 0.0 
-4.408748112661e-06 5.415568628682e-04 0.0 
0.0 0.0 0.0 
-4.283859704746e-07 -3.723735899904e-06 0.0 
-3.723735899904e-06 1.630616526478e-04 0.0 
0.0 0.0 0.0 
-3.152992208433e-07 1.345695559828e-06 0.0 
1.345695559828e-06 1.180382484782e-03 0.0 
0.0 0.0 0.0 
3.724398744964e-07 2.541679086015e-07 0.0 
2.541679086015e-07 5.872470365254e-05 0.0 
0.0 0.0 0.0 
-1.558797878554e-07 4.229741090706e-06 0.0 
4.229741090706e-06 5.909804847346e-04 0.0 
0.0 0.0 0.0 
3.195272724188e-07 4.730094860745e-07 0.0 
4.730094860745e-07 1.694465092368e-04 0.0 
0.0 0.0 0.0 
3.456501351806e-08 4.215082895869e-06 0.0 
4.215082895869e-06 6.306678702606e-04 0.0 
0.0 0.0 0.0 
1.801809061952e-07 -1.982455639516e-07 0.0 
-1.982455639516e-07 1.228474338515e-03 0.0 
0.0 0.0 0.0 
0.0 1.558720731214e-07 0.0 
1.558720731214e-07 1.230298578300e-03 0.0 
0.0 0.0 0.0 
-2.866268169477e-07 4.217713274432e-06 0.0 
4.217713274432e-06 7.767464145154e-04 0.0 
0.0 0.0 0.0 
-5.983485409367e-07 -5.089738759842e-07 0.0 
-5.089738759842e-07 1.153172988753e-04 0.0 
0.0 0.0 0.0 
-3.933410300805e-07 4.941928690718e-06 0.0 
4.941928690718e-06 1.261573947691e-04 0.0 
0.0 0.0 0.0 
-6.090891344623e-07 1.258407843881e-06 0.0 
1.258407843881e-06 1.688353760103e-04 0.0 
0.0 0.0 0.0 
-1.584672707500e-07 -4.544640429230e-06 0.0 
-4.544640429230e-06 1.030614464519e-03 0.0 
0.0 0.0 0.0 
1.103461944041e-08 6.433949031193e-07 0.0 
6.433949031193e-07 7.009009599115e-04 0.0 
0.0 0.0 0.0 
-2.758322494856e-07 -4.852683198672e-06 0.0 
-4.852683198672e-06 7.307088615778e-04 0.0 
0.0 0.0 0.0 
0.0 1.299960509394e-07 0.0 
1.299960509394e-07 1.231199508919e-03 0.0 
0.0 0.0 0.0 
-8.393118041683e-07 -9.966060314839e-07 0.0 
-9.966060314839e-07 7.018139486068e-04 0.0 
0.0 0.0 0.0 
-4.662066427352e-07 3.798404428803e-07 0.0 
3.798404428803e-07 1.230009673457e-03 0.0 
0.0 0.0 0.0 
7.948143587733e-08 4.395600917026e-06 0.0 
4.395600917026e-06 9.293287829806e-04 0.0 
0.0 0.0 0.0 
-1.570299807963e-07 4.590170010853e-06 0.0 
4.590170010853e-06 8.053153400149e-04 0.0 
0.0 0.0 0.0 
-1.068338792432e-06 4.161555574200e-06 0.0 
4.161555574200e-06 3.803252996022e-04 0.0 
0.0 0.0 0.0 
-6.594025203643e-08 4.336021333466e-06 0.0 
4.336021333466e-06 8.499751548150e-04 0.0 
0.0 0.0 0.0 
-2.781276298158e-08 -3.795342383210e-06 0.0 
-3.795342383210e-06 2.369574769390e-04 0.0 
0.0 0.0 0.0 
0.0 -1.167745821588e-07 0.0 
-1.167745821588e-07 1.230123850926e-03 0.0 
0.0 0.0 0.0 
0.0 5.266321494053e-07 0.0 
5.266321494053e-07 1.227374768891e-03 0.0 
0.0 0.0 0.0 
0.0 -5.087579613555e-07 0.0 
-5.087579613555e-07 1.228639600614e-03 0.0 
0.0 0.0 0.0 
1.555755790861e-08 -4.455114536421e-06 0.0 
-4.455114536421e-06 7.854156808849e-04 0.0 
0.0 0.0 0.0 
1.209291469184e-07 -4.678099350716e-06 0.0 
-4.678099350716e-06 5.356584849046e-04 0.0 
0.0 0.0 0.0 
-9.433277825543e-09 -4.139828179523e-06 0.0 
-4.139828179523e-06 6.276324760035e-04 0.0 
0.0 0.0 0.0 
1.066855825904e-08 4.452266317297e-06 0.0 
4.452266317297e-06 8.116390000950e-04 0.0 
0.0 0.0 0.0 
0.0 6.801450383889e-08 0.0 
6.801450383889e-08 1.229188347486e-03 0.0 
0.0 0.0 0.0 
-1.437374461677e-07 -4.399317118443e-06 0.0 
-4.399317118443e-06 3.652312067239e-04 0.0 
0.0 0.0 0.0 
-7.704688564925e-08 4.386432570313e-06 0.0 
4.386432570313e-06 4.290812984573e-04 0.0 
0.0 0.0 0.0 
-1.402547290530e-07 4.219921801101e-06 0.0 
4.219921801101e-06 4.560883370730e-04 0.0 
0.0 0.0 0.0 
-8.262079242982e-08 4.382858181679e-06 0.0 
4.382858181679e-06 8.409932986588e-04 0.0 
0.0 0.0 0.0 
-7.099454424342e-07 -5.876594637471e-07 0.0 
-5.876594637471e-07 1.230048001528e-03 0.0 
0.0 0.0 0.0 
4.291804516221e-07 5.079705369106e-07 0.0 
5.079705369106e-07 1.134714237907e-04 0.0 
0.0 0.0 0.0 
0.0 1.512571613362e-08 0.0 
1.512571613362e-08 1.228780077940e-03 0.0 
0.0 0.0 0.0 
-1.414696257918e-07 4.489107733141e-06 0.0 
4.489107733141e-06 4.207052916760e-04 0.0 
0.0 0.0 0.0 
0.0 7.286142133298e-08 0.0 
7.286142133298e-08 1.231346225633e-03 0.0 
0.0 0.0 0.0 
-1.656888063417e-07 -4.310132251682e-06 0.0 
-4.310132251682e-06 1.060221104124e-03 0.0 
0.0 0.0 0.0 
3.412494165023e-07 2.445230597135e-07 0.0 
2.445230597135e-07 1.747999081370e-05 0.0 
0.0 0.0 0.0 
-2.117158448556e-08 4.293994761219e-06 0.0 
4.293994761219e-06 5.915918427966e-04 0.0 
0.0 0.0 0.0 
4.645361872946e-10 -4.553767282022e-06 0.0 
-4.553767282022e-06 1.053169203224e-03 0.0 
0.0 0.0 0.0 
0.0 -4.514865243955e-08 0.0 
-4.514865243955e-08 1.229989334536e-03 0.0 
0.0 0.0 0.0 
-1.778729291635e-07 -4.397898035521e-06 0.0 
-4.397898035521e-06 8.383382894632e-04 0.0 
0.0 0.0 0.0 
-4.307918899382e-08 4.508586891401e-06 0.0 
4.508586891401e-06 9.563960079677e-04 0.0 
0.0 0.0 0.0 
-6.327415992269e-07 4.185650292882e-06 0.0 
4.185650292882e-06 2.105314879277e-04 0.0 
0.0 0.0 0.0 
9.205263895584e-07 1.227648514752e-07 0.0 
1.227648514752e-07 1.123811298635e-03 0.0 
0.0 0.0 0.0 
-1.034557238766e-07 4.397119455461e-06 0.0 
4.397119455461e-06 4.475625798466e-04 0.0 
0.0 0.0 0.0 
-9.323494409852e-08 -4.120717388755e-06 0.0 
-4.120717388755e-06 4.572019485978e-04 0.0 
0.0 0.0 0.0 
5.417009427688e-07 5.027335528818e-07 0.0 
5.027335528818e-07 6.137673291029e-05 0.0 
0.0 0.0 0.0 
0.0 3.614184812231e-08 0.0 
3.614184812231e-08 1.229435534506e-03 0.0 
0.0 0.0 0.0 
-3.763690209491e-07 -4.235720190083e-06 0.0 
-4.235720190083e-06 2.967664760092e-04 0.0 
0.0 0.0 0.0 
2.287965150671e-08 -4.716034714344e-06 0.0 
-4.716034714344e-06 1.019526079684e-03 0.0 
0.0 0.0 0.0 
1.439813670512e-07 -5.312041189233e-06 0.0 
-5.312041189233e-06 7.740970796686e-04 0.0 
0.0 0.0 0.0 
3.651176561092e-08 -4.187986600405e-06 0.0 
-4.187986600405e-06 3.775177256831e-04 0.0 
0.0 0.0 0.0 
-1.304183216977e-07 -4.397300672060e-06 0.0 
-4.397300672060e-06 4.303484344601e-04 0.0 
0.0 0.0 0.0 
-1.695386478984e-07 -4.281533133386e-06 0.0 
-4.281533133386e-06 8.045106901364e-04 0.0 
0.0 0.0 0.0 
0.0 -3.973570266492e-07 0.0 
-3.973570266492e-07 1.230970830002e-03 0.0 
0.0 0.0 0.0 
-8.935012207889e-08 4.288624078365e-06 0.0 
4.288624078365e-06 5.623694873713e-04 0.0 
0.0 0.0 0.0 
-7.998905982021e-10 -4.636926853717e-06 0.0 
-4.636926853717e-06 8.836892895656e-04 0.0 
0.0 0.0 0.0 
-3.967789186099e-08 4.277445984187e-06 0.0 
4.277445984187e-06 7.205152621805e-04 0.0 
0.0 0.0 0.0 
-4.244163009925e-08 -4.342444832380e-06 0.0 
-4.342444832380e-06 7.994929209449e-04 0.0 
0.0 0.0 0.0 
-3.768630751910e-08 -4.308515233073e-06 0.0 
-4.308515233073e-06 4.648513276901e-04 0.0 
0.0 0.0 0.0 
1.055242782044e-08 -4.539039076293e-06 0.0 
-4.539039076293e-06 8.201837033324e-04 0.0 
0.0 0.0 0.0 
-2.344176985858e-08 -4.255327282918e-06 0.0 
-4.255327282918e-06 6.953448005511e-04 0.0 
0.0 0.0 0.0 
1.052606779517e-08 -4.480648646095e-06 0.0 
-4.480648646095e-06 9.113605513369e-04 0.0 
0.0 0.0 0.0 
-3.828489336666e-08 4.353946249423e-06 0.0 
4.353946249423e-06 9.124293691687e-04 0.0 
0.0 0.0 0.0 
-2.714270030957e-08 4.276933458802e-06 0.0 
4.276933458802e-06 6.865040513975e-04 0.0 
0.0 0.0 0.0 
9.500406106255e-08 4.483549427077e-06 0.0 
4.483549427077e-06 5.783431174740e-04 0.0 
0.0 0.0 0.0 
-6.949235387133e-08 -4.271209106266e-06 0.0 
-4.271209106266e-06 3.989122669952e-04 0.0 
0.0 0.0 0.0 
1.269877563104e-07 4.342717028858e-06 0.0 
4.342717028858e-06 5.343047730078e-04 0.0 
0.0 0.0 0.0 
-3.461066577781e-08 -4.348913728426e-06 0.0 
-4.348913728426e-06 9.308659315390e-04 0.0 
0.0 0.0 0.0 
-2.506533580693e-08 4.253843055677e-06 0.0 
4.253843055677e-06 7.525483149158e-04 0.0 
0.0 0.0 0.0 
6.733083979249e-08 -6.222901856706e-07 0.0 
-6.222901856706e-07 1.229496473699e-03 0.0 
0.0 0.0 0.0 
2.115178123763e-07 -4.339514174085e-06 0.0 
-4.339514174085e-06 1.080368474045e-03 0.0 
0.0 0.0 0.0 
6.281513065254e-08 4.450391569307e-06 0.0 
4.450391569307e-06 3.403120132259e-04 0.0 
0.0 0.0 0.0 
0.0 1.221537780064e-07 0.0 
1.221537780064e-07 1.228149755949e-03 0.0 
0.0 0.0 0.0 
9.192820229487e-07 -1.819038573834e-07 0.0 
-1.819038573834e-07 1.175376185858e-03 0.0 
0.0 0.0 0.0 
2.419520805930e-09 4.233849445793e-06 0.0 
4.233849445793e-06 6.442640552873e-04 0.0 
0.0 0.0 0.0 
4.407366518411e-07 -2.305563884459e-07 0.0 
-2.305563884459e-07 6.052652166022e-05 0.0 
0.0 0.0 0.0 
8.215370068676e-07 6.344288031393e-08 0.0 
6.344288031393e-08 1.230392062816e-03 0.0 
0.0 0.0 0.0 
-2.090526088905e-07 -3.842827844638e-06 0.0 
-3.842827844638e-06 1.073457022886e-03 0.0 
0.0 0.0 0.0 
-8.807820583989e-09 4.650515643055e-06 0.0 
4.650515643055e-06 3.851447664018e-04 0.0 
0.0 0.0 0.0 
0.0 -3.225329160236e-07 0.0 
-3.225329160236e-07 1.229462376355e-03 0.0 
0.0 0.0 0.0 
1.445520436683e-08 -4.501860961290e-06 0.0 
-4.501860961290e-06 8.486238498333e-04 0.0 
0.0 0.0 0.0 
-1.862666676455e-07 4.143881078697e-06 0.0 
4.143881078697e-06 5.478263496033e-04 0.0 
0.0 0.0 0.0 
4.122538821427e-08 3.932170597853e-06 0.0 
3.932170597853e-06 7.571462463400e-04 0.0 
0.0 0.0 0.0 
-1.462298082622e-08 -4.548364249121e-06 0.0 
-4.548364249121e-06 7.265577473370e-04 0.0 
0.0 0.0 0.0 
5.930446578262e-09 -4.470604988856e-06 0.0 
-4.470604988856e-06 7.223496805813e-04 0.0 
0.0 0.0 0.0 
-8.387644911956e-09 -4.367246124543e-06 0.0 
-4.367246124543e-06 8.349318542800e-04 0.0 
0.0 0.0 0.0 
8.369113269069e-08 -4.537123521815e-06 0.0 
-4.537123521815e-06 8.867248629911e-04 0.0 
0.0 0.0 0.0 
-1.559764795100e-07 4.165142036202e-06 0.0 
4.165142036202e-06 6.164674884404e-04 0.0 
0.0 0.0 0.0 
-5.690541482473e-09 4.537192070662e-06 0.0 
4.537192070662e-06 9.476187778510e-04 0.0 
0.0 0.0 0.0 
-6.032503558906e-07 -5.838054589316e-07 0.0 
-5.838054589316e-07 8.078237744893e-04 0.0 
0.0 0.0 0.0 
1.346074709474e-07 -4.449792631426e-06 0.0 
-4.449792631426e-06 5.796843190613e-04 0.0 
0.0 0.0 0.0 
-6.244108285980e-08 4.242455804012e-06 0.0 
4.242455804012e-06 8.771581065050e-04 0.0 
0.0 0.0 0.0 
8.560322006801e-09 -4.021721023476e-06 0.0 
-4.021721023476e-06 4.486326650102e-04 0.0 
0.0 0.0 0.0 
1.034971175429e-08 4.374903451319e-06 0.0 
4.374903451319e-06 8.222424746880e-04 0.0 
0.0 0.0 0.0 
7.030216342407e-08 2.319046449129e-07 0.0 
2.319046449129e-07 1.763750099748e-05 0.0 
0.0 0.0 0.0 
-1.064528237782e-07 -4.003526845671e-06 0.0 
-4.003526845671e-06 4.336897528523e-04 0.0 
0.0 0.0 0.0 
-5.128912017316e-08 -4.105977423372e-06 0.0 
-4.105977423372e-06 4.219241507157e-04 0.0 
0.0 0.0 0.0 
5.160402216653e-08 4.397233061947e-06 0.0 
4.397233061947e-06 6.337130098335e-04 0.0 
0.0 0.0 0.0 
1.996281495664e-08 4.311885250830e-06 0.0 
4.311885250830e-06 6.785443171753e-04 0.0 
0.0 0.0 0.0 
5.113611090124e-09 4.498859917651e-06 0.0 
4.498859917651e-06 8.472976594887e-04 0.0 
0.0 0.0 0.0 
2.801577663192e-07 -4.287881818187e-06 0.0 
-4.287881818187e-06 8.136003839634e-04 0.0 
0.0 0.0 0.0 
1.710950914280e-08 -4.211309361821e-06 0.0 
-4.211309361821e-06 3.865218591028e-04 0.0 
0.0 0.0 0.0 
0.0 1.113396465117e-07 0.0 
1.113396465117e-07 1.230638569717e-03 0.0 
0.0 0.0 0.0 
-1.398804532204e-07 -4.322350551021e-06 0.0 
-4.322350551021e-06 7.971880903850e-04 0.0 
0.0 0.0 0.0 
7.550528424716e-08 4.418904759088e-06 0.0 
4.418904759088e-06 6.611270513619e-04 0.0 
0.0 0.0 0.0 
-9.346934393140e-08 -4.253897282894e-06 0.0 
-4.253897282894e-06 7.632347447724e-04 0.0 
0.0 0.0 0.0 
-3.239450707682e-09 -4.491718537525e-06 0.0 
-4.491718537525e-06 6.350363873642e-04 0.0 
0.0 0.0 0.0 
1.883950815351e-07 2.098321207144e-07 0.0 
2.098321207144e-07 1.757186961360e-05 0.0 
0.0 0.0 0.0 
-2.583125479072e-07 -4.291696073195e-06 0.0 
-4.291696073195e-06 7.917026837896e-04 0.0 
0.0 0.0 0.0 
-2.831761872768e-07 4.776509860633e-06 0.0 
4.776509860633e-06 5.228934605803e-04 0.0 
0.0 0.0 0.0 
4.718012924787e-07 -4.501905082812e-07 0.0 
-4.501905082812e-07 1.628530124775e-05 0.0 
0.0 0.0 0.0 
1.123367241451e-07 4.627245459435e-06 0.0 
4.627245459435e-06 6.251914434412e-04 0.0 
0.0 0.0 0.0 
-2.341907323622e-08 4.441186422935e-06 0.0 
4.441186422935e-06 9.106280633060e-04 0.0 
0.0 0.0 0.0 
5.737082431345e-08 4.455167514625e-06 0.0 
4.455167514625e-06 1.050375058441e-03 0.0 
0.0 0.0 0.0 
-2.154959932721e-08 -4.379929797558e-06 0.0 
-4.379929797558e-06 7.726803567401e-04 0.0 
0.0 0.0 0.0 
-1.363521628939e-08 4.297796844895e-06 0.0 
4.297796844895e-06 7.980074037690e-04 0.0 
0.0 0.0 0.0 
-1.777686986504e-08 -3.453610160740e-06 0.0 
-3.453610160740e-06 6.730957046990e-04 0.0 
0.0 0.0 0.0 
-8.449444153236e-07 -1.942299208259e-07 0.0 
-1.942299208259e-07 6.444620972290e-04 0.0 
0.0 0.0 0.0 
1.199865030888e-06 -5.224827209503e-07 0.0 
-5.224827209503e-07 1.178041670831e-03 0.0 
0.0 0.0 0.0 
-6.200095525877e-08 -4.304964425069e-06 0.0 
-4.304964425069e-06 7.292344441161e-04 0.0 
0.0 0.0 0.0 
2.150640308285e-06 -8.577460809081e-07 0.0 
-8.577460809081e-07 1.609470241237e-05 0.0 
0.0 0.0 0.0 
-5.940643897917e-07 -4.417380132120e-06 0.0 
-4.417380132120e-06 2.015549600538e-04 0.0 
0.0 0.0 0.0 
3.297663528912e-07 -6.264111207967e-07 0.0 
-6.264111207967e-07 5.990324908067e-05 0.0 
0.0 0.0 0.0 
1.399150437731e-07 -3.564315726315e-06 0.0 
-3.564315726315e-06 3.661771534267e-04 0.0 
0.0 0.0 0.0 
-1.059186698349e-07 -4.682056067217e-06 0.0 
-4.682056067217e-06 1.041830546501e-03 0.0 
0.0 0.0 0.0 
-1.118255945620e-07 -4.558790456519e-06 0.0 
-4.558790456519e-06 1.051454595588e-03 0.0 
0.0 0.0 0.0 
-1.590818247132e-07 4.391742692650e-06 0.0 
4.391742692650e-06 9.932658807168e-04 0.0 
0.0 0.0 0.0 
2.053257837087e-07 -4.477508343892e-06 0.0 
-4.477508343892e-06 4.171181084052e-04 0.0 
0.0 0.0 0.0 
-1.824405082562e-08 -4.477672653086e-06 0.0 
-4.477672653086e-06 8.236679045792e-04 0.0 
0.0 0.0 0.0 
3.006134927652e-07 4.342113871435e-06 0.0 
4.342113871435e-06 1.045417677335e-03 0.0 
0.0 0.0 0.0 
8.131043238713e-08 -3.776725910627e-06 0.0 
-3.776725910627e-06 2.251080233655e-04 0.0 
0.0 0.0 0.0 
-1.028354744692e-07 -5.123505101924e-06 0.0 
-5.123505101924e-06 5.230715021196e-04 0.0 
0.0 0.0 0.0 
7.294155652815e-07 4.449662121656e-06 0.0 
4.449662121656e-06 4.268256028164e-04 0.0 
0.0 0.0 0.0 
-5.752086372768e-07 3.399739951038e-07 0.0 
3.399739951038e-07 1.229476865849e-03 0.0 
0.0 0.0 0.0 
0.0 -3.886521912774e-07 0.0 
-3.886521912774e-07 1.230146011850e-03 0.0 
0.0 0.0 0.0 
-4.689342183450e-07 -3.877205124783e-06 0.0 
-3.877205124783e-06 5.834592494947e-04 0.0 
0.0 0.0 0.0 
2.664458293999e-07 -4.481383792583e-06 0.0 
-4.481383792583e-06 6.624843454635e-04 0.0 
0.0 0.0 0.0 
8.322476041656e-11 4.443057028718e-06 0.0 
4.443057028718e-06 7.484903262640e-04 0.0 
0.0 0.0 0.0 
6.524631532834e-07 4.046344739673e-06 0.0 
4.046344739673e-06 1.080806318965e-03 0.0 
0.0 0.0 0.0 
-4.055077618137e-08 4.704624534011e-06 0.0 
4.704624534011e-06 2.251817196355e-04 0.0 
0.0 0.0 0.0 
1.413501586889e-07 4.411344534798e-06 0.0 
4.411344534798e-06 1.009699607558e-03 0.0 
0.0 0.0 0.0 
9.293262004384e-07 8.803017132841e-07 0.0 
8.803017132841e-07 1.161052450269e-04 0.0 
0.0 0.0 0.0 
-2.241078377319e-07 -4.509072178673e-06 0.0 
-4.509072178673e-06 5.993274552554e-04 0.0 
0.0 0.0 0.0 
3.015411187413e-08 -4.529322526398e-06 0.0 
-4.529322526398e-06 6.706942751269e-04 0.0 
0.0 0.0 0.0 
7.822339593844e-07 5.415376090164e-07 0.0 
5.415376090164e-07 6.033156705221e-05 0.0 
0.0 0.0 0.0 
7.164489344014e-07 4.488410589092e-06 0.0 
4.488410589092e-06 5.526582611757e-04 0.0 
0.0 0.0 0.0 
-1.112784485668e-07 3.931575787912e-06 0.0 
3.931575787912e-06 1.078931783407e-03 0.0 
0.0 0.0 0.0 
1.206273119170e-07 -6.347397386549e-07 0.0 
-6.347397386549e-07 1.708520759824e-05 0.0 
0.0 0.0 0.0 
5.569971905928e-08 2.901386656264e-07 0.0 
2.901386656264e-07 6.445597296343e-04 0.0 
0.0 0.0 0.0 
3.924839551139e-07 2.638005107137e-09 0.0 
2.638005107137e-09 6.447679030130e-04 0.0 
0.0 0.0 0.0 
2.367731766206e-08 -4.478850454643e-06 0.0 
-4.478850454643e-06 8.703427988501e-04 0.0 
0.0 0.0 0.0 
3.151432022008e-07 -4.356889802773e-06 0.0 
-4.356889802773e-06 4.265010394044e-04 0.0 
0.0 0.0 0.0 
1.354743250914e-08 4.587020003664e-06 0.0 
4.587020003664e-06 4.121545773534e-04 0.0 
0.0 0.0 0.0 
-2.749651852874e-07 -4.135431848742e-06 0.0 
-4.135431848742e-06 2.801417369060e-04 0.0 
0.0 0.0 0.0 
1.324352592036e-07 3.975832243465e-06 0.0 
3.975832243465e-06 1.082431641835e-03 0.0 
0.0 0.0 0.0 
-8.568259757258e-08 -1.746545454845e-07 0.0 
-1.746545454845e-07 1.177375741751e-03 0.0 
0.0 0.0 0.0 
4.472748615925e-09 -4.498111118908e-06 0.0 
-4.498111118908e-06 1.009770080215e-03 0.0 
0.0 0.0 0.0 
-2.238385458098e-07 -3.748378512043e-06 0.0 
-3.748378512043e-06 3.813150641163e-04 0.0 
0.0 0.0 0.0 
-1.208487302340e-06 5.225734489381e-06 0.0 
5.225734489381e-06 1.328077637988e-04 0.0 
0.0 0.0 0.0 
-1.523972471551e-07 -4.117899418432e-06 0.0 
-4.117899418432e-06 6.252812712564e-04 0.0 
0.0 0.0 0.0 
6.116102766462e-07 -2.789879044636e-08 0.0 
-2.789879044636e-08 6.468661231243e-04 0.0 
0.0 0.0 0.0 
-3.372491271803e-07 -8.071649950347e-07 0.0 
-8.071649950347e-07 6.462773266320e-04 0.0 
0.0 0.0 0.0 
1.275230511188e-06 -5.800609631407e-07 0.0 
-5.800609631407e-07 1.663642572436e-05 0.0 
0.0 0.0 0.0 
9.286653814833e-07 5.967937505099e-07 0.0 
5.967937505099e-07 6.000193585098e-05 0.0 
0.0 0.0 0.0 
-3.385817584078e-07 -1.574728152632e-06 0.0 
-1.574728152632e-06 1.148524612840e-04 0.0 
0.0 0.0 0.0 
1.141622163470e-07 4.538896243255e-06 0.0 
4.538896243255e-06 3.162413156419e-04 0.0 
0.0 0.0 0.0 
6.264254033272e-07 1.586256770677e-07 0.0 
1.586256770677e-07 6.082574405952e-05 0.0 
0.0 0.0 0.0 
-1.204853303349e-06 4.288957035714e-06 0.0 
4.288957035714e-06 6.170280644882e-04 0.0 
0.0 0.0 0.0 
1.360350496249e-06 -1.061545562136e-06 0.0 
-1.061545562136e-06 1.657390995891e-05 0.0 
0.0 0.0 0.0 
1.278534933480e-07 4.608999972114e-06 0.0 
4.608999972114e-06 3.797574705076e-04 0.0 
0.0 0.0 0.0 
4.646559350618e-07 1.349672555846e-06 0.0 
1.349672555846e-06 8.630051407532e-04 0.0 
0.0 0.0 0.0 
4.541730524998e-08 2.117614549145e-07 0.0 
2.117614549145e-07 6.446302650391e-04 0.0 
0.0 0.0 0.0 
6.671223191645e-07 -4.610079002228e-06 0.0 
-4.610079002228e-06 1.074570807863e-03 0.0 
0.0 0.0 0.0 
1.300362750811e-08 4.453462316257e-06 0.0 
4.453462316257e-06 8.748712122972e-04 0.0 
0.0 0.0 0.0 
-1.466234195169e-07 1.783145690518e-06 0.0 
1.783145690518e-06 8.060960249636e-04 0.0 
0.0 0.0 0.0 
9.936958789147e-08 4.645475663290e-06 0.0 
4.645475663290e-06 4.572184403699e-04 0.0 
0.0 0.0 0.0 
1.122132645914e-06 -7.042652773604e-07 0.0 
-7.042652773604e-07 1.153705254924e-04 0.0 
0.0 0.0 0.0 
0.0 -4.863544622358e-07 0.0 
-4.863544622358e-07 1.228829654818e-03 0.0 
0.0 0.0 0.0 
-5.235307041218e-07 -3.659754526297e-08 0.0 
-3.659754526297e-08 1.228480707166e-03 0.0 
0.0 0.0 0.0 
4.868782765843e-07 5.266225344056e-06 0.0 
5.266225344056e-06 7.733056724990e-04 0.0 
0.0 0.0 0.0 
-6.132704382100e-07 -1.875957630525e-07 0.0 
-1.875957630525e-07 6.455359627056e-04 0.0 
0.0 0.0 0.0 
2.880743406042e-07 -2.743832002975e-06 0.0 
-2.743832002975e-06 4.636005575676e-04 0.0 
0.0 0.0 0.0 
-4.041437218216e-08 -5.336741805129e-07 0.0 
-5.336741805129e-07 1.228956314140e-03 0.0 
0.0 0.0 0.0 
1.200890520359e-07 -4.409510121090e-06 0.0 
-4.409510121090e-06 3.537182280762e-04 0.0 
0.0 0.0 0.0 
3.269335528966e-07 -1.162146090791e-07 0.0 
-1.162146090791e-07 6.439914188372e-04 0.0 
0.0 0.0 0.0 
8.414239685006e-07 1.480136562433e-07 0.0 
1.480136562433e-07 6.444248996509e-04 0.0 
0.0 0.0 0.0 
-6.669030083728e-08 4.093288711084e-06 0.0 
4.093288711084e-06 5.984513972970e-04 0.0 
0.0 0.0 0.0 
0.0 -4.326405096552e-07 0.0 
-4.326405096552e-07 1.230847618236e-03 0.0 
0.0 0.0 0.0 
1.318916814430e-06 3.556438512282e-07 0.0 
3.556438512282e-07 1.229362110798e-03 0.0 
0.0 0.0 0.0 
3.725911488228e-07 4.481102833956e-07 0.0 
4.481102833956e-07 6.036080881477e-05 0.0 
0.0 0.0 0.0 
3.730520989897e-07 -3.356673330558e-08 0.0 
-3.356673330558e-08 1.769520940642e-05 0.0 
0.0 0.0 0.0 
-8.993792537382e-07 4.595896901429e-06 0.0 
4.595896901429e-06 1.630341980798e-04 0.0 
0.0 0.0 0.0 
5.620947285401e-08 4.470719771242e-06 0.0 
4.470719771242e-06 6.693551990855e-04 0.0 
0.0 0.0 0.0 
2.660071163341e-08 5.366532232000e-06 0.0 
5.366532232000e-06 1.127198501516e-03 0.0 
0.0 0.0 0.0 
4.379446261193e-07 -2.956570715654e-06 0.0 
-2.956570715654e-06 1.452148220737e-05 0.0 
0.0 0.0 0.0 
-1.008451765427e-07 -4.886702350018e-06 0.0 
-4.886702350018e-06 9.998151637616e-04 0.0 
0.0 0.0 0.0 
5.325435086245e-07 -1.607796628212e-07 0.0 
-1.607796628212e-07 1.787956216326e-05 0.0 
0.0 0.0 0.0 
-2.343877369970e-08 4.415278733511e-06 0.0 
4.415278733511e-06 8.606587219369e-04 0.0 
0.0 0.0 0.0 
-7.784583689885e-07 1.862397660772e-08 0.0 
1.862397660772e-08 1.810885250220e-05 0.0 
0.0 0.0 0.0 
-1.134849646145e-06 -1.116568930198e-06 0.0 
-1.116568930198e-06 1.733394987702e-05 0.0 
0.0 0.0 0.0 
-6.900641291718e-08 4.419171569433e-06 0.0 
4.419171569433e-06 8.251978401383e-04 0.0 
0.0 0.0 0.0 
7.659296752394e-08 4.460809134478e-06 0.0 
4.460809134478e-06 1.095186515459e-03 0.0 
0.0 0.0 0.0 
5.482240905685e-08 -2.166702033292e-06 0.0 
-2.166702033292e-06 8.586709139604e-04 0.0 
0.0 0.0 0.0 
-1.269558720374e-07 -4.041509035353e-06 0.0 
-4.041509035353e-06 6.512398446687e-04 0.0 
0.0 0.0 0.0 
1.125332011798e-06 -4.706686331775e-07 0.0 
-4.706686331775e-07 5.995129718395e-05 0.0 
0.0 0.0 0.0 
-3.609269538796e-08 -4.502068763220e-06 0.0 
-4.502068763220e-06 8.510118291705e-04 0.0 
0.0 0.0 0.0 
0.0 -5.844710327958e-07 0.0 
-5.844710327958e-07 1.226269150234e-03 0.0 
0.0 0.0 0.0 
-1.653087178255e-07 -3.335382481832e-06 0.0 
-3.335382481832e-06 1.228638138689e-03 0.0 
0.0 0.0 0.0 
2.690780842585e-08 2.512434067643e-07 0.0 
2.512434067643e-07 6.448154739023e-04 0.0 
0.0 0.0 0.0 
1.999484244841e-08 4.318642883088e-06 0.0 
4.318642883088e-06 8.961052777376e-04 0.0 
0.0 0.0 0.0 
0.0 2.993434240865e-07 0.0 
2.993434240865e-07 1.229930329714e-03 0.0 
0.0 0.0 0.0 
-5.345506315368e-08 -4.763352930393e-06 0.0 
-4.763352930393e-06 9.577426042440e-04 0.0 
0.0 0.0 0.0 
1.454252309685e-07 5.519776523228e-07 0.0 
5.519776523228e-07 1.122078241966e-04 0.0 
0.0 0.0 0.0 
1.527564259307e-06 -7.141302923965e-07 0.0 
-7.141302923965e-07 6.009832626086e-05 0.0 
0.0 0.0 0.0 
2.288699973985e-07 -1.378338085294e-06 0.0 
-1.378338085294e-06 5.975908355538e-05 0.0 
0.0 0.0 0.0 
2.758266157699e-07 4.468717345168e-06 0.0 
4.468717345168e-06 5.208531583980e-04 0.0 
0.0 0.0 0.0 
-5.000737117733e-07 -2.759083889187e-06 0.0 
-2.759083889187e-06 1.229146393446e-03 0.0 
0.0 0.0 0.0 
4.291221578079e-07 -5.318936033262e-06 0.0 
-5.318936033262e-06 1.160421000368e-03 0.0 
0.0 0.0 0.0 
1.594684908790e-06 6.044806401063e-07 0.0 
6.044806401063e-07 1.613938900702e-05 0.0 
0.0 0.0 0.0 
-2.495660619273e-07 -4.247535977316e-06 0.0 
-4.247535977316e-06 6.170403754282e-04 0.0 
0.0 0.0 0.0 
0.0 1.181411737908e-07 0.0 
1.181411737908e-07 1.232885229300e-03 0.0 
0.0 0.0 0.0 
-8.522592405136e-07 8.290413446824e-07 0.0 
8.290413446824e-07 1.228035370780e-03 0.0 
0.0 0.0 0.0 
7.944114981395e-07 8.779331219373e-09 0.0 
8.779331219373e-09 1.228503677066e-03 0.0 
0.0 0.0 0.0 
-3.168213676963e-07 4.898393076435e-06 0.0 
4.898393076435e-06 9.370638398447e-04 0.0 
0.0 0.0 0.0 
3.714130669685e-07 -4.947113535743e-06 0.0 
-4.947113535743e-06 1.032581026665e-03 0.0 
0.0 0.0 0.0 
0.0 -1.692132135489e-07 0.0 
-1.692132135489e-07 1.226669208084e-03 0.0 
0.0 0.0 0.0 
0.0 -6.511012615296e-07 0.0 
-6.511012615296e-07 1.229460405831e-03 0.0 
0.0 0.0 0.0 
3.865605493480e-07 4.014997503070e-06 0.0 
4.014997503070e-06 1.000128988907e-03 0.0 
0.0 0.0 0.0 
2.269741774752e-06 2.566455621916e-06 0.0 
2.566455621916e-06 1.379198768103e-05 0.0 
0.0 0.0 0.0 
5.894326005063e-08 -5.126413842502e-08 0.0 
-5.126413842502e-08 6.438290945656e-04 0.0 
0.0 0.0 0.0 
-3.515395944342e-07 6.735121562292e-07 0.0 
6.735121562292e-07 6.463770223224e-04 0.0 
0.0 0.0 0.0 
6.285269797957e-07 3.529015948463e-07 0.0 
3.529015948463e-07 1.766645647749e-05 0.0 
0.0 0.0 0.0 
0.0 2.228763239781e-07 0.0 
2.228763239781e-07 1.231901349636e-03 0.0 
0.0 0.0 0.0 
-8.391794682483e-07 5.580233102403e-07 0.0 
5.580233102403e-07 1.227240607085e-03 0.0 
0.0 0.0 0.0 
0.0 -6.100198349400e-09 0.0 
-6.100198349400e-09 1.226366045732e-03 0.0 
0.0 0.0 0.0 
-1.454158233272e-06 9.796266917233e-07 0.0 
9.796266917233e-07 1.763136000510e-05 0.0 
0.0 0.0 0.0 
-1.113091118166e-06 1.354029925733e-07 0.0 
1.354029925733e-07 1.799556388882e-05 0.0 
0.0 0.0 0.0 
0.0 -4.933880289367e-08 0.0 
-4.933880289367e-08 1.228835589939e-03 0.0 
0.0 0.0 0.0 
0.0 -4.896592492256e-07 0.0 
-4.896592492256e-07 1.228198298549e-03 0.0 
0.0 0.0 0.0 
-1.037939666548e-06 -5.291817391024e-06 0.0 
-5.291817391024e-06 9.052140946886e-04 0.0 
0.0 0.0 0.0 
-1.276564888242e-07 7.127591539976e-07 0.0 
7.127591539976e-07 6.428016527531e-04 0.0 
0.0 0.0 0.0 
4.025979281064e-07 -5.189753970357e-06 0.0 
-5.189753970357e-06 9.686490905836e-04 0.0 
0.0 0.0 0.0 
-1.029290243149e-06 -5.140269144556e-06 0.0 
-5.140269144556e-06 7.775649427224e-04 0.0 
0.0 0.0 0.0 
6.941733596832e-07 2.942523848196e-07 0.0 
2.942523848196e-07 6.427245804306e-04 0.0 
0.0 0.0 0.0 
1.245052933641e-06 9.973615593169e-07 0.0 
9.973615593169e-07 1.750528568256e-05 0.0 
0.0 0.0 0.0 
-8.149032578730e-07 -7.016385160927e-07 0.0 
-7.016385160927e-07 1.936997957874e-05 0.0 
0.0 0.0 0.0 
1.267358913370e-06 -1.897040822329e-07 0.0 
-1.897040822329e-07 1.703840423639e-05 0.0 
0.0 0.0 0.0 
3.587607722011e-08 -9.984464700908e-08 0.0 
-9.984464700908e-08 1.780988598132e-05 0.0 
0.0 0.0 0.0 
-6.576245082934e-07 5.298972560513e-06 0.0 
5.298972560513e-06 6.498715129990e-04 0.0 
0.0 0.0 0.0 
1.390311010763e-07 4.645271452318e-06 0.0 
4.645271452318e-06 5.848448282588e-04 0.0 
0.0 0.0 0.0 
6.725970052024e-07 2.673112652161e-07 0.0 
2.673112652161e-07 1.775529932346e-05 0.0 
0.0 0.0 0.0 
8.316177613210e-08 5.047541303477e-06 0.0 
5.047541303477e-06 8.389462862477e-04 0.0 
0.0 0.0 0.0 
-1.243785462401e-07 -2.945999391980e-07 0.0 
-2.945999391980e-07 1.763617738870e-05 0.0 
0.0 0.0 0.0 
0.0 1.149365009264e-07 0.0 
1.149365009264e-07 1.228947824273e-03 0.0 
0.0 0.0 0.0 
0.0 2.757459080578e-07 0.0 
2.757459080578e-07 1.228012764218e-03 0.0 
0.0 0.0 0.0 
0.0 -1.654396880935e-07 0.0 
-1.654396880935e-07 1.228106649787e-03 0.0 
0.0 0.0 0.0 
4.100660546680e-07 5.442634162371e-06 0.0 
5.442634162371e-06 2.004022554900e-04 0.0 
0.0 0.0 0.0 
5.158456566345e-07 4.728229362994e-06 0.0 
4.728229362994e-06 3.931793995720e-04 0.0 
0.0 0.0 0.0 
0.0 -1.184307423075e-07 0.0 
-1.184307423075e-07 1.226123150964e-03 0.0 
0.0 0.0 0.0 
2.028540284638e-07 4.311544383082e-06 0.0 
4.311544383082e-06 1.032664619957e-03 0.0 
0.0 0.0 0.0 
0.0 -4.886990457007e-07 0.0 
-4.886990457007e-07 1.232725573023e-03 0.0 
0.0 0.0 0.0 
-1.556505376810e-07 4.593269778764e-06 0.0 
4.593269778764e-06 1.097314200730e-03 0.0 
0.0 0.0 0.0 
-2.204908776671e-07 5.295844706743e-06 0.0 
5.295844706743e-06 1.161983212846e-03 0.0 
0.0 0.0 0.0 
2.076798664152e-07 -4.652456379535e-06 0.0 
-4.652456379535e-06 5.526616637341e-04 0.0 
0.0 0.0 0.0 
-6.946150035159e-07 -7.626914744520e-07 0.0 
-7.626914744520e-07 1.227025370984e-03 0.0 
0.0 0.0 0.0 
-6.522669014908e-07 2.649080253804e-06 0.0 
2.649080253804e-06 1.228623223212e-03 0.0 
0.0 0.0 0.0 
7.344639563200e-09 -4.723170787891e-06 0.0 
-4.723170787891e-06 1.061574354996e-03 0.0 
0.0 0.0 0.0 
-1.887794218725e-07 -4.693099094765e-06 0.0 
-4.693099094765e-06 1.127768086375e-03 0.0 
0.0 0.0 0.0 
2.276737494089e-07 -4.278055097219e-06 0.0 
-4.278055097219e-06 9.059357313295e-04 0.0 
0.0 0.0 0.0 
3.035090618830e-07 4.391797163690e-08 0.0 
4.391797163690e-08 1.777673997783e-05 0.0 
0.0 0.0 0.0 
-8.131220021745e-07 -4.646492932273e-06 0.0 
-4.646492932273e-06 5.636344057789e-04 0.0 
0.0 0.0 0.0 
1.232626472891e-06 -3.115610644525e-07 0.0 
-3.115610644525e-07 5.893772089349e-05 0.0 
0.0 0.0 0.0 
6.274405217610e-09 -3.981365477919e-06 0.0 
-3.981365477919e-06 1.083237077535e-03 0.0 
0.0 0.0 0.0 
3.846890384018e-08 4.389486227669e-06 0.0 
4.389486227669e-06 5.979785289991e-04 0.0 
0.0 0.0 0.0 
1.343348445815e-07 4.251313048686e-06 0.0 
4.251313048686e-06 1.003987340170e-03 0.0 
0.0 0.0 0.0 
-3.620635014023e-09 -4.468759431377e-06 0.0 
-4.468759431377e-06 2.902453347129e-04 0.0 
0.0 0.0 0.0 
7.291363055550e-07 3.551265184750e-06 0.0 
3.551265184750e-06 1.115697922305e-04 0.0 
0.0 0.0 0.0 
3.679696591874e-08 -4.343952380634e-06 0.0 
-4.343952380634e-06 1.068063436483e-03 0.0 
0.0 0.0 0.0 
5.445863946463e-07 -4.534583504995e-06 0.0 
-4.534583504995e-06 6.266597369577e-04 0.0 
0.0 0.0 0.0 
-6.958365044163e-07 4.594435383514e-06 0.0 
4.594435383514e-06 4.897429164175e-04 0.0 
0.0 0.0 0.0 
1.051011502273e-07 -4.377761492247e-06 0.0 
-4.377761492247e-06 1.005357339857e-03 0.0 
0.0 0.0 0.0 
4.788653116261e-07 4.453702790556e-06 0.0 
4.453702790556e-06 1.089697495114e-03 0.0 
0.0 0.0 0.0 
1.869768311291e-07 -4.641383505249e-06 0.0 
-4.641383505249e-06 4.895680885062e-04 0.0 
0.0 0.0 0.0 
5.362542632170e-09 -4.665378731988e-06 0.0 
-4.665378731988e-06 9.474802888925e-04 0.0 
0.0 0.0 0.0 
-3.293866734921e-09 4.405564014501e-06 0.0 
4.405564014501e-06 8.307698194809e-04 0.0 
0.0 0.0 0.0 
1.428999418795e-07 4.616791316549e-06 0.0 
4.616791316549e-06 9.045649723962e-04 0.0 
0.0 0.0 0.0 
-2.506224561216e-08 4.250242172573e-06 0.0 
4.250242172573e-06 9.331130183308e-04 0.0 
0.0 0.0 0.0 
-8.494433578754e-08 4.273300936808e-06 0.0 
4.273300936808e-06 5.053416053489e-04 0.0 
0.0 0.0 0.0 
-1.490805343618e-07 -3.954251301561e-06 0.0 
-3.954251301561e-06 5.921446923562e-04 0.0 
0.0 0.0 0.0 
2.493669315484e-08 -4.222371561318e-06 0.0 
-4.222371561318e-06 6.535378942314e-04 0.0 
0.0 0.0 0.0 
6.073000990980e-09 4.434315950202e-06 0.0 
4.434315950202e-06 8.496344241775e-04 0.0 
0.0 0.0 0.0 
1.836990781712e-09 -4.685413378211e-06 0.0 
-4.685413378211e-06 1.033581993690e-03 0.0 
0.0 0.0 0.0 
-1.792273638390e-07 4.459067670559e-06 0.0 
4.459067670559e-06 9.622934572162e-04 0.0 
0.0 0.0 0.0 
1.735782970691e-07 4.677435044771e-06 0.0 
4.677435044771e-06 3.026349762114e-04 0.0 
0.0 0.0 0.0 
8.734051111237e-07 4.997424359721e-06 0.0 
4.997424359721e-06 1.085692114472e-03 0.0 
0.0 0.0 0.0 
-1.066332981914e-07 4.764698437594e-06 0.0 
4.764698437594e-06 1.021777284202e-03 0.0 
0.0 0.0 0.0 
-1.378449542289e-07 5.339884946138e-06 0.0 
5.339884946138e-06 7.299258781865e-04 0.0 
0.0 0.0 0.0 
5.772984534858e-09 4.421742709605e-06 0.0 
4.421742709605e-06 8.856277938281e-04 0.0 
0.0 0.0 0.0 
4.519691443328e-08 4.494907061303e-06 0.0 
4.494907061303e-06 8.771254521653e-04 0.0 
0.0 0.0 0.0 
-4.267827367066e-07 -4.837296135827e-06 0.0 
-4.837296135827e-06 1.092334272413e-03 0.0 
0.0 0.0 0.0 
-2.273605304026e-09 4.230902038426e-06 0.0 
4.230902038426e-06 1.056351900106e-03 0.0 
0.0 0.0 0.0 
1.051387643614e-08 -4.474403947006e-06 0.0 
-4.474403947006e-06 8.047351244069e-04 0.0 
0.0 0.0 0.0 
3.133883852424e-07 -4.455081858879e-06 0.0 
-4.455081858879e-06 1.095987629478e-03 0.0 
0.0 0.0 0.0 
1.298155538620e-08 4.406934007112e-06 0.0 
4.406934007112e-06 1.008721135715e-03 0.0 
0.0 0.0 0.0 
-2.221307582317e-10 -4.139305668309e-06 0.0 
-4.139305668309e-06 9.622853665201e-04 0.0 
0.0 0.0 0.0 
1.175613482118e-07 -5.022889323305e-06 0.0 
-5.022889323305e-06 1.114001825412e-03 0.0 
0.0 0.0 0.0 
-7.163247395248e-08 -4.730513140447e-06 0.0 
-4.730513140447e-06 1.087309634049e-03 0.0 
0.0 0.0 0.0 
-1.718418529695e-08 -4.734164625760e-06 0.0 
-4.734164625760e-06 9.238833692478e-04 0.0 
0.0 0.0 0.0 
2.380439356742e-08 -4.469385725890e-06 0.0 
-4.469385725890e-06 9.119757972793e-04 0.0 
0.0 0.0 0.0 
9.515067622701e-08 4.334724761823e-06 0.0 
4.334724761823e-06 2.996900256040e-04 0.0 
0.0 0.0 0.0 
7.988009476101e-08 4.499486415750e-06 0.0 
4.499486415750e-06 2.775040858540e-04 0.0 
0.0 0.0 0.0 
-1.339853902604e-06 -5.388521555996e-06 0.0 
-5.388521555996e-06 1.342538279996e-04 0.0 
0.0 0.0 0.0 
3.022669579078e-07 -1.493212330991e-07 0.0 
-1.493212330991e-07 6.047886808269e-05 0.0 
0.0 0.0 0.0 
2.078118421789e-07 -4.666087828247e-06 0.0 
-4.666087828247e-06 1.057216846222e-03 0.0 
0.0 0.0 0.0 
1.451560462939e-07 4.405697202928e-06 0.0 
4.405697202928e-06 1.059745001900e-03 0.0 
0.0 0.0 0.0 
1.859083242906e-07 -1.112992706811e-09 0.0 
-1.112992706811e-09 5.921477397619e-05 0.0 
0.0 0.0 0.0 
3.276866362700e-07 -4.451780743532e-06 0.0 
-4.451780743532e-06 1.066536395700e-03 0.0 
0.0 0.0 0.0 
9.104631026879e-07 4.863739309454e-06 0.0 
4.863739309454e-06 7.589790503917e-04 0.0 
0.0 0.0 0.0 
1.838156202805e-07 -4.587229144169e-06 0.0 
-4.587229144169e-06 9.780165076181e-04 0.0 
0.0 0.0 0.0 
-4.610437109864e-08 4.398540970087e-06 0.0 
4.398540970087e-06 9.961419238282e-04 0.0 
0.0 0.0 0.0 
7.693445880363e-11 4.300132196379e-06 0.0 
4.300132196379e-06 4.380879659971e-04 0.0 
0.0 0.0 0.0 
-3.801361114775e-08 -4.547774754215e-06 0.0 
-4.547774754215e-06 9.974283256651e-04 0.0 
0.0 0.0 0.0 
2.321021310703e-07 -6.208220179825e-06 0.0 
-6.208220179825e-06 7.296694349253e-04 0.0 
0.0 0.0 0.0 
-9.734650741056e-08 -4.544463415123e-06 0.0 
-4.544463415123e-06 9.137388908633e-04 0.0 
0.0 0.0 0.0 
5.329363106377e-07 5.096197849389e-06 0.0 
5.096197849389e-06 1.142275861254e-03 0.0 
0.0 0.0 0.0 
1.119214643186e-07 3.413214658419e-06 0.0 
3.413214658419e-06 2.888374211687e-04 0.0 
0.0 0.0 0.0 
-2.910898058150e-07 -3.847477659062e-06 0.0 
-3.847477659062e-06 1.120001324959e-03 0.0 
0.0 0.0 0.0 
3.088437905419e-08 -4.314531389416e-06 0.0 
-4.314531389416e-06 9.591133120319e-04 0.0 
0.0 0.0 0.0 
1.673778791123e-07 4.675003231588e-06 0.0 
4.675003231588e-06 3.270460595175e-04 0.0 
0.0 0.0 0.0 
1.549873398510e-07 -4.005173278329e-06 0.0 
-4.005173278329e-06 3.414799283272e-04 0.0 
0.0 0.0 0.0 
4.281025267616e-08 4.550317997395e-06 0.0 
4.550317997395e-06 7.087434491655e-04 0.0 
0.0 0.0 0.0 
-3.046386748418e-07 4.622895338941e-06 0.0 
4.622895338941e-06 8.532040573395e-04 0.0 
0.0 0.0 0.0 
2.004522563492e-07 4.382265041111e-06 0.0 
4.382265041111e-06 4.706920566486e-04 0.0 
0.0 0.0 0.0 
2.117608111085e-08 -4.609051255871e-06 0.0 
-4.609051255871e-06 9.940501726919e-04 0.0 
0.0 0.0 0.0 
2.807967218743e-07 -5.132996225875e-06 0.0 
-5.132996225875e-06 8.935642132260e-04 0.0 
0.0 0.0 0.0 
7.446948280254e-08 4.283362304318e-06 0.0 
4.283362304318e-06 6.888007452175e-04 0.0 
0.0 0.0 0.0 
-2.348526896290e-07 -4.226078401279e-06 0.0 
-4.226078401279e-06 9.337169877521e-04 0.0 
0.0 0.0 0.0 
1.692995299507e-08 -4.578466337876e-06 0.0 
-4.578466337876e-06 9.697715117838e-04 0.0 
0.0 0.0 0.0 
-3.201631112448e-07 4.966063697959e-06 0.0 
4.966063697959e-06 9.577959420697e-04 0.0 
0.0 0.0 0.0 
1.304726273688e-07 -4.236829647721e-06 0.0 
-4.236829647721e-06 2.473027922725e-04 0.0 
0.0 0.0 0.0 
8.941400575502e-08 4.259907196690e-06 0.0 
4.259907196690e-06 6.532274492697e-04 0.0 
0.0 0.0 0.0 
2.443875890545e-07 4.754980445534e-06 0.0 
4.754980445534e-06 1.045240060700e-03 0.0 
0.0 0.0 0.0 
-2.670904941660e-09 -4.549846713272e-06 0.0 
-4.549846713272e-06 9.877955169757e-04 0.0 
0.0 0.0 0.0 
1.901999520104e-07 4.931656639628e-06 0.0 
4.931656639628e-06 5.887470429975e-04 0.0 
0.0 0.0 0.0 
9.405811240981e-09 -4.479000059806e-06 0.0 
-4.479000059806e-06 8.321946608711e-04 0.0 
0.0 0.0 0.0 
-9.388510191499e-09 -4.651702184727e-06 0.0 
-4.651702184727e-06 1.093608775010e-03 0.0 
0.0 0.0 0.0 
4.066386896096e-07 4.338089968900e-06 0.0 
4.338089968900e-06 9.228240080654e-04 0.0 
0.0 0.0 0.0 
-9.353664258693e-07 -4.615902473327e-06 0.0 
-4.615902473327e-06 1.271776560214e-04 0.0 
0.0 0.0 0.0 
-1.088892483181e-06 -4.485125719543e-06 0.0 
-4.485125719543e-06 1.298886181287e-04 0.0 
0.0 0.0 0.0 
-2.993327296030e-07 -4.126964968786e-06 0.0 
-4.126964968786e-06 2.870165505997e-04 0.0 
0.0 0.0 0.0 
-6.045468592397e-08 4.568194278359e-06 0.0 
4.568194278359e-06 1.032185059470e-03 0.0 
0.0 0.0 0.0 
-1.799307112194e-07 4.408857659028e-06 0.0 
4.408857659028e-06 8.880986638657e-04 0.0 
0.0 0.0 0.0 
6.255920923515e-07 -4.917748138994e-06 0.0 
-4.917748138994e-06 7.727889840132e-04 0.0 
0.0 0.0 0.0 
7.874882679282e-08 4.320757133071e-06 0.0 
4.320757133071e-06 7.896714839128e-04 0.0 
0.0 0.0 0.0 
8.368729154107e-08 -4.461489367314e-06 0.0 
-4.461489367314e-06 1.046694143885e-03 0.0 
0.0 0.0 0.0 
1.537625116121e-08 4.314422003445e-06 0.0 
4.314422003445e-06 7.164231434771e-04 0.0 
0.0 0.0 0.0 
1.374307609936e-07 4.459546383012e-06 0.0 
4.459546383012e-06 9.683865404422e-04 0.0 
0.0 0.0 0.0 
2.495905986333e-07 -4.151393138357e-06 0.0 
-4.151393138357e-06 3.010625424678e-04 0.0 
0.0 0.0 0.0 
-9.232810882498e-08 5.468239344728e-06 0.0 
5.468239344728e-06 1.114437722668e-03 0.0 
0.0 0.0 0.0 
4.388450225434e-08 -4.558311230295e-06 0.0 
-4.558311230295e-06 6.901937199162e-04 0.0 
0.0 0.0 0.0 
-1.779155717196e-07 -4.391643433137e-06 0.0 
-4.391643433137e-06 3.284578885945e-04 0.0 
0.0 0.0 0.0 
-3.279770777187e-08 -4.907679578141e-06 0.0 
-4.907679578141e-06 6.547263012586e-04 0.0 
0.0 0.0 0.0 
2.100085783052e-07 4.220537399885e-06 0.0 
4.220537399885e-06 4.982206871074e-04 0.0 
0.0 0.0 0.0 
9.170963455318e-08 -4.509508332377e-06 0.0 
-4.509508332377e-06 3.811819931179e-04 0.0 
0.0 0.0 0.0 
8.660216588297e-08 4.288118843871e-06 0.0 
4.288118843871e-06 7.710134758014e-04 0.0 
0.0 0.0 0.0 
-7.808764053152e-07 8.240862315671e-07 0.0 
8.240862315671e-07 1.884152980414e-05 0.0 
0.0 0.0 0.0 
-1.646691975221e-06 -2.280524302269e-07 0.0 
-2.280524302269e-07 2.019409259280e-05 0.0 
0.0 0.0 0.0 
-7.471494201106e-09 -4.423443297447e-06 0.0 
-4.423443297447e-06 8.784954625165e-04 0.0 
0.0 0.0 0.0 
3.523273799377e-07 -4.007293184684e-06 0.0 
-4.007293184684e-06 2.745682491894e-04 0.0 
0.0 0.0 0.0 
2.264861453938e-08 -4.530592686659e-06 0.0 
-4.530592686659e-06 8.870028536481e-04 0.0 
0.0 0.0 0.0 
7.225832820978e-09 -4.468536790507e-06 0.0 
-4.468536790507e-06 8.596477547156e-04 0.0 
0.0 0.0 0.0 
1.431035299149e-07 4.476556195525e-06 0.0 
4.476556195525e-06 5.424824729099e-04 0.0 
0.0 0.0 0.0 
7.841537219555e-08 4.600057426663e-06 0.0 
4.600057426663e-06 3.493197636597e-04 0.0 
0.0 0.0 0.0 
4.901634143017e-08 -4.675613035961e-06 0.0 
-4.675613035961e-06 1.044922246346e-03 0.0 
0.0 0.0 0.0 
-1.159046706722e-06 -1.653496624895e-06 0.0 
-1.653496624895e-06 1.420299478914e-04 0.0 
0.0 0.0 0.0 
-9.228930231142e-08 3.946231262838e-06 0.0 
3.946231262838e-06 5.264801747207e-04 0.0 
0.0 0.0 0.0 
1.559633209247e-07 -3.828885696986e-06 0.0 
-3.828885696986e-06 1.080085217291e-03 0.0 
0.0 0.0 0.0 
7.321398134419e-07 4.312242238776e-06 0.0 
4.312242238776e-06 2.341902114429e-04 0.0 
0.0 0.0 0.0 
-2.052262484398e-07 -4.410034266037e-06 0.0 
-4.410034266037e-06 8.254700103825e-04 0.0 
0.0 0.0 0.0 
3.608950513989e-07 -5.112006917963e-06 0.0 
-5.112006917963e-06 7.603155236984e-04 0.0 
0.0 0.0 0.0 
1.639166551382e-07 -4.390033200383e-06 0.0 
-4.390033200383e-06 2.267145328203e-04 0.0 
0.0 0.0 0.0 
-5.966962879356e-08 -4.121528788141e-06 0.0 
-4.121528788141e-06 1.065604907782e-03 0.0 
0.0 0.0 0.0 
-2.830565426493e-08 -4.556477015534e-06 0.0 
-4.556477015534e-06 9.463070398097e-04 0.0 
0.0 0.0 0.0 
9.631935249388e-10 4.034104382769e-06 0.0 
4.034104382769e-06 2.729553710366e-04 0.0 
0.0 0.0 0.0 
6.351986137076e-08 -4.242480252265e-06 0.0 
-4.242480252265e-06 1.072478229836e-03 0.0 
0.0 0.0 0.0 
-1.268479121741e-07 3.878312789137e-06 0.0 
3.878312789137e-06 1.071212005532e-03 0.0 
0.0 0.0 0.0 
1.344371660661e-07 -4.768639443701e-06 0.0 
-4.768639443701e-06 3.091869052148e-04 0.0 
0.0 0.0 0.0 
-3.668332292373e-07 -4.857605217104e-06 0.0 
-4.857605217104e-06 4.145483893871e-04 0.0 
0.0 0.0 0.0 
9.467335249091e-08 -4.540962004825e-06 0.0 
-4.540962004825e-06 3.176582332842e-04 0.0 
0.0 0.0 0.0 
2.807160124352e-07 -4.482913687634e-06 0.0 
-4.482913687634e-06 9.419424637347e-04 0.0 
0.0 0.0 0.0 
-5.280522763496e-08 4.352055287650e-06 0.0 
4.352055287650e-06 7.440552312508e-04 0.0 
0.0 0.0 0.0 
-2.612959431048e-07 4.197720583369e-06 0.0 
4.197720583369e-06 1.072069885713e-03 0.0 
0.0 0.0 0.0 
-5.082817899904e-08 4.354756605959e-06 0.0 
4.354756605959e-06 1.043862488600e-03 0.0 
0.0 0.0 0.0 
1.011069976631e-07 -4.513678586897e-06 0.0 
-4.513678586897e-06 9.144855583578e-04 0.0 
0.0 0.0 0.0 
5.250106549504e-08 4.421857136657e-06 0.0 
4.421857136657e-06 9.131178675150e-04 0.0 
0.0 0.0 0.0 
3.083951116700e-08 4.523676631029e-06 0.0 
4.523676631029e-06 2.527935470316e-04 0.0 
0.0 0.0 0.0 
1.442510975114e-07 4.442121358186e-06 0.0 
4.442121358186e-06 9.405771630844e-04 0.0 
0.0 0.0 0.0 
-4.924635987891e-08 4.489185783045e-06 0.0 
4.489185783045e-06 9.452508556045e-04 0.0 
0.0 0.0 0.0 
1.093444927935e-07 -4.356485449611e-06 0.0 
-4.356485449611e-06 7.454033124539e-04 0.0 
0.0 0.0 0.0 
-1.360300904141e-07 -4.579494431270e-06 0.0 
-4.579494431270e-06 8.891444206052e-04 0.0 
0.0 0.0 0.0 
2.146648481194e-08 -4.620103418229e-06 0.0 
-4.620103418229e-06 9.813078755800e-04 0.0 
0.0 0.0 0.0 
-5.151639892453e-08 4.310712801928e-06 0.0 
4.310712801928e-06 6.634392536444e-04 0.0 
0.0 0.0 0.0 
-8.676111262762e-08 4.455597894185e-06 0.0 
4.455597894185e-06 1.015360607199e-03 0.0 
0.0 0.0 0.0 
-3.990230381667e-07 4.798198075127e-06 0.0 
4.798198075127e-06 6.206461912455e-04 0.0 
0.0 0.0 0.0 
-9.984341442504e-08 -4.577622212599e-06 0.0 
-4.577622212599e-06 7.178219302344e-04 0.0 
0.0 0.0 0.0 
1.655145864810e-08 5.090920801233e-06 0.0 
5.090920801233e-06 4.634531973537e-04 0.0 
0.0 0.0 0.0 
1.554582711449e-07 -4.127045216639e-06 0.0 
-4.127045216639e-06 4.897675472342e-04 0.0 
0.0 0.0 0.0 
-1.284711543814e-07 4.484918994618e-06 0.0 
4.484918994618e-06 9.167034956823e-04 0.0 
0.0 0.0 0.0 
3.289359851166e-08 -4.371090833828e-06 0.0 
-4.371090833828e-06 6.868333062051e-04 0.0 
0.0 0.0 0.0 
1.096158093183e-07 -4.642902549804e-06 0.0 
-4.642902549804e-06 3.452166430915e-04 0.0 
0.0 0.0 0.0 
-4.776592379407e-07 -3.796084215193e-06 0.0 
-3.796084215193e-06 1.640847589037e-04 0.0 
0.0 0.0 0.0 
-5.627579846568e-09 -4.518491724704e-06 0.0 
-4.518491724704e-06 9.177538507925e-04 0.0 
0.0 0.0 0.0 
9.295513803131e-08 4.425943743789e-06 0.0 
4.425943743789e-06 3.438117722265e-04 0.0 
0.0 0.0 0.0 
9.971609280512e-07 4.580551747931e-06 0.0 
4.580551747931e-06 1.119153624250e-03 0.0 
0.0 0.0 0.0 
5.774676514747e-08 4.451828486796e-06 0.0 
4.451828486796e-06 9.516269342191e-04 0.0 
0.0 0.0 0.0 
1.015264743387e-07 4.377001999407e-06 0.0 
4.377001999407e-06 9.766565645293e-04 0.0 
0.0 0.0 0.0 
8.160940390134e-08 -5.814280482243e-07 0.0 
-5.814280482243e-07 1.175203721979e-03 0.0 
0.0 0.0 0.0 
1.001314342552e-07 -4.965558108245e-06 0.0 
-4.965558108245e-06 5.908226107081e-04 0.0 
0.0 0.0 0.0 
6.167592703221e-08 4.360010295763e-06 0.0 
4.360010295763e-06 3.077784102803e-04 0.0 
0.0 0.0 0.0 
-7.699052595456e-08 4.949246059265e-06 0.0 
4.949246059265e-06 1.886810171632e-04 0.0 
0.0 0.0 0.0 
1.809120830920e-08 -4.535470843721e-06 0.0 
-4.535470843721e-06 9.229522238554e-04 0.0 
0.0 0.0 0.0 
-1.214695926066e-07 4.579271876420e-06 0.0 
4.579271876420e-06 8.595503960123e-04 0.0 
0.0 0.0 0.0 
-1.688872528494e-07 4.167971421114e-06 0.0 
4.167971421114e-06 1.277622401066e-04 0.0 
0.0 0.0 0.0 
4.295988642600e-07 -4.568400547955e-06 0.0 
-4.568400547955e-06 4.720653688193e-04 0.0 
0.0 0.0 0.0 
8.152300299269e-07 -3.952099351885e-06 0.0 
-3.952099351885e-06 2.658906139279e-04 0.0 
0.0 0.0 0.0 
-1.553538309107e-08 -4.275758381051e-06 0.0 
-4.275758381051e-06 8.542331408692e-04 0.0 
0.0 0.0 0.0 
9.358812975702e-07 -4.830782762748e-06 0.0 
-4.830782762748e-06 4.996014585779e-04 0.0 
0.0 0.0 0.0 
-7.373901156349e-09 4.387307079139e-06 0.0 
4.387307079139e-06 8.582450064574e-04 0.0 
0.0 0.0 0.0 
-4.360313485829e-07 -4.783230064712e-06 0.0 
-4.783230064712e-06 4.644846536854e-04 0.0 
0.0 0.0 0.0 
-1.072447833872e-07 -4.747043213606e-06 0.0 
-4.747043213606e-06 1.023017863126e-03 0.0 
0.0 0.0 0.0 
1.357858805395e-07 4.506748579204e-06 0.0 
4.506748579204e-06 4.073944748768e-04 0.0 
0.0 0.0 0.0 
-3.102195289539e-08 -4.523098304753e-06 0.0 
-4.523098304753e-06 9.313228485697e-04 0.0 
0.0 0.0 0.0 
9.743330808831e-09 -4.257091716190e-06 0.0 
-4.257091716190e-06 2.788761314421e-04 0.0 
0.0 0.0 0.0 
-3.295708261852e-09 -4.526121890312e-06 0.0 
-4.526121890312e-06 8.954359790310e-04 0.0 
0.0 0.0 0.0 
-1.392819862778e-07 -3.779839995293e-06 0.0 
-3.779839995293e-06 6.839517864812e-04 0.0 
0.0 0.0 0.0 
3.143779481185e-08 4.408087822684e-06 0.0 
4.408087822684e-06 9.491235195935e-04 0.0 
0.0 0.0 0.0 
-1.102197829672e-07 4.240292503679e-06 0.0 
4.240292503679e-06 4.636601695076e-04 0.0 
0.0 0.0 0.0 
1.001206100248e-07 4.808664156301e-06 0.0 
4.808664156301e-06 2.636907994851e-04 0.0 
0.0 0.0 0.0 
3.699643342792e-07 -4.431201926112e-06 0.0 
-4.431201926112e-06 7.962654742946e-04 0.0 
0.0 0.0 0.0 
-7.229241349993e-08 -4.421887872457e-06 0.0 
-4.421887872457e-06 8.619726033656e-04 0.0 
0.0 0.0 0.0 
-5.238613087766e-08 4.402817017213e-06 0.0 
4.402817017213e-06 6.001386579086e-04 0.0 
0.0 0.0 0.0 
-5.790970880604e-08 -4.783441782729e-06 0.0 
-4.783441782729e-06 8.598565330604e-04 0.0 
0.0 0.0 0.0 
-4.125679908817e-09 -4.314217998141e-06 0.0 
-4.314217998141e-06 3.147414391624e-04 0.0 
0.0 0.0 0.0 
-9.635837927569e-08 4.410924273851e-06 0.0 
4.410924273851e-06 8.757215399151e-04 0.0 
0.0 0.0 0.0 
-3.111197268701e-07 -4.392352417942e-06 0.0 
-4.392352417942e-06 2.375133964081e-04 0.0 
0.0 0.0 0.0 
-1.335780180911e-07 -4.708961178155e-06 0.0 
-4.708961178155e-06 1.058105468959e-03 0.0 
0.0 0.0 0.0 
-1.784099878943e-08 -4.389119713803e-06 0.0 
-4.389119713803e-06 8.974111392490e-04 0.0 
0.0 0.0 0.0 
-9.056890593051e-08 -4.454894775229e-06 0.0 
-4.454894775229e-06 9.488675681455e-04 0.0 
0.0 0.0 0.0 
-2.333910181784e-07 -4.732428403470e-06 0.0 
-4.732428403470e-06 1.109612446430e-03 0.0 
0.0 0.0 0.0 
1.561927964744e-08 -4.438221681049e-06 0.0 
-4.438221681049e-06 7.498266279613e-04 0.0 
0.0 0.0 0.0 
-1.284367038279e-07 4.250108651331e-06 0.0 
4.250108651331e-06 2.454550094908e-04 0.0 
0.0 0.0 0.0 
-1.632028956422e-10 -4.461371339321e-06 0.0 
-4.461371339321e-06 8.404748948414e-04 0.0 
0.0 0.0 0.0 
-5.483553877639e-08 4.710586751280e-06 0.0 
4.710586751280e-06 1.092159124364e-03 0.0 
0.0 0.0 0.0 
2.157167333650e-08 -4.152611713676e-06 0.0 
-4.152611713676e-06 4.134298522878e-04 0.0 
0.0 0.0 0.0 
7.747650698775e-08 -4.577560396251e-06 0.0 
-4.577560396251e-06 9.504928590955e-04 0.0 
0.0 0.0 0.0 
-2.071572591245e-08 -4.651978904587e-06 0.0 
-4.651978904587e-06 9.526913636115e-04 0.0 
0.0 0.0 0.0 
1.366731665620e-07 4.626548013000e-06 0.0 
4.626548013000e-06 3.222260347830e-04 0.0 
0.0 0.0 0.0 
-4.251541230182e-09 -4.499763355444e-06 0.0 
-4.499763355444e-06 8.679625651138e-04 0.0 
0.0 0.0 0.0 
3.576879150646e-07 -4.433016513153e-06 0.0 
-4.433016513153e-06 7.841138536999e-04 0.0 
0.0 0.0 0.0 
1.206558191136e-07 -4.269425384761e-06 0.0 
-4.269425384761e-06 3.645875377232e-04 0.0 
0.0 0.0 0.0 
2.552357343255e-07 -4.517331056641e-06 0.0 
-4.517331056641e-06 4.445750450943e-04 0.0 
0.0 0.0 0.0 
-1.853697118026e-08 -4.260798720791e-06 0.0 
-4.260798720791e-06 7.217353084474e-04 0.0 
0.0 0.0 0.0 
-1.551348938200e-08 4.395202182257e-06 0.0 
4.395202182257e-06 9.215781842826e-04 0.0 
0.0 0.0 0.0 
-1.770672487522e-07 -4.073888073433e-06 0.0 
-4.073888073433e-06 5.489817246815e-04 0.0 
0.0 0.0 0.0 
-3.606504428433e-09 -4.208149932290e-06 0.0 
-4.208149932290e-06 6.877718065601e-04 0.0 
0.0 0.0 0.0 
-6.326026324999e-08 4.481483274729e-06 0.0 
4.481483274729e-06 9.104257337065e-04 0.0 
0.0 0.0 0.0 
-2.171634968517e-07 4.799555821673e-06 0.0 
4.799555821673e-06 8.244013904879e-04 0.0 
0.0 0.0 0.0 
2.232987128536e-10 4.383094013804e-06 0.0 
4.383094013804e-06 8.124585395244e-04 0.0 
0.0 0.0 0.0 
-5.693472659996e-08 3.876817971771e-06 0.0 
3.876817971771e-06 6.822771959323e-04 0.0 
0.0 0.0 0.0 
8.195617073881e-09 -4.360764979689e-06 0.0 
-4.360764979689e-06 1.038498028943e-03 0.0 
0.0 0.0 0.0 
7.433281989933e-09 -4.457446544167e-06 0.0 
-4.457446544167e-06 8.129703024962e-04 0.0 
0.0 0.0 0.0 
-4.404510736133e-07 -4.153163049296e-06 0.0 
-4.153163049296e-06 7.906422384563e-04 0.0 
0.0 0.0 0.0 
5.973752197352e-07 -5.816811271606e-06 0.0 
-5.816811271606e-06 1.098739077104e-03 0.0 
0.0 0.0 0.0 
-2.051368519496e-08 -4.653383383823e-06 0.0 
-4.653383383823e-06 9.835312767361e-04 0.0 
0.0 0.0 0.0 
-2.769006735015e-08 4.408185955775e-06 0.0 
4.408185955775e-06 8.940604048027e-04 0.0 
0.0 0.0 0.0 
-1.903128388214e-08 4.417037979512e-06 0.0 
4.417037979512e-06 9.802510620427e-04 0.0 
0.0 0.0 0.0 
1.884260756313e-07 -4.437214133817e-06 0.0 
-4.437214133817e-06 5.164274988998e-04 0.0 
0.0 0.0 0.0 
2.168639594569e-07 -4.487938530490e-06 0.0 
-4.487938530490e-06 4.804887892436e-04 0.0 
0.0 0.0 0.0 
-2.197817746685e-07 -4.679370033407e-06 0.0 
-4.679370033407e-06 2.542105147225e-04 0.0 
0.0 0.0 0.0 
2.016913747127e-09 -4.446241509018e-06 0.0 
-4.446241509018e-06 8.762198902574e-04 0.0 
0.0 0.0 0.0 
2.134635965767e-07 -4.587601519259e-06 0.0 
-4.587601519259e-06 5.080197120868e-04 0.0 
0.0 0.0 0.0 
5.215503495748e-08 -4.540246613838e-06 0.0 
-4.540246613838e-06 8.826922394571e-04 0.0 
0.0 0.0 0.0 
7.153980918773e-08 -4.612046433213e-06 0.0 
-4.612046433213e-06 8.478235466494e-04 0.0 
0.0 0.0 0.0 
-1.803734572814e-08 -4.480165269270e-06 0.0 
-4.480165269270e-06 6.917267541822e-04 0.0 
0.0 0.0 0.0 
2.033642405586e-07 4.509626887194e-06 0.0 
4.509626887194e-06 4.158256462969e-04 0.0 
0.0 0.0 0.0 
-1.275959315983e-07 4.284141729930e-06 0.0 
4.284141729930e-06 4.439336388284e-04 0.0 
0.0 0.0 0.0 
1.936916509404e-07 4.462329112539e-06 0.0 
4.462329112539e-06 4.431841851236e-04 0.0 
0.0 0.0 0.0 
1.940940819178e-07 4.491591783709e-06 0.0 
4.491591783709e-06 4.791039338872e-04 0.0 
0.0 0.0 0.0 
2.818495969947e-08 4.424668768775e-06 0.0 
4.424668768775e-06 2.804342346745e-04 0.0 
0.0 0.0 0.0 
3.256217473435e-08 -4.582671866718e-06 0.0 
-4.582671866718e-06 1.011006000069e-03 0.0 
0.0 0.0 0.0 
3.447016538871e-08 4.416887403058e-06 0.0 
4.416887403058e-06 5.871135936575e-04 0.0 
0.0 0.0 0.0 
-9.557584723652e-09 -4.659150023778e-06 0.0 
-4.659150023778e-06 1.016431661980e-03 0.0 
0.0 0.0 0.0 
-1.274892547087e-08 4.418840307023e-06 0.0 
4.418840307023e-06 6.228291651227e-04 0.0 
0.0 0.0 0.0 
1.614134381711e-09 4.464677974235e-06 0.0 
4.464677974235e-06 8.391132230887e-04 0.0 
0.0 0.0 0.0 
1.077730105159e-08 4.470584234088e-06 0.0 
4.470584234088e-06 7.127988671418e-04 0.0 
0.0 0.0 0.0 
5.394258373315e-10 -4.291735149340e-06 0.0 
-4.291735149340e-06 6.798429486421e-04 0.0 
0.0 0.0 0.0 
8.757925518132e-08 -4.495149648195e-06 0.0 
-4.495149648195e-06 2.819070712734e-04 0.0 
0.0 0.0 0.0 
-3.104669531462e-07 4.147644809696e-06 0.0 
4.147644809696e-06 1.064079332260e-03 0.0 
0.0 0.0 0.0 
-4.404185388607e-07 -4.911599343463e-06 0.0 
-4.911599343463e-06 1.105378388920e-03 0.0 
0.0 0.0 0.0 
1.875419575192e-08 4.220964060172e-06 0.0 
4.220964060172e-06 8.759193431411e-04 0.0 
0.0 0.0 0.0 
1.351555292128e-07 4.584302107470e-06 0.0 
4.584302107470e-06 5.150355364738e-04 0.0 
0.0 0.0 0.0 
1.088957812811e-10 4.457741416670e-06 0.0 
4.457741416670e-06 7.759152666793e-04 0.0 
0.0 0.0 0.0 
-9.941776257794e-08 4.655317622414e-06 0.0 
4.655317622414e-06 8.816266363223e-04 0.0 
0.0 0.0 0.0 
1.725490126336e-07 -4.520563396816e-06 0.0 
-4.520563396816e-06 5.438611147934e-04 0.0 
0.0 0.0 0.0 
-2.261081422095e-08 -4.102898087183e-06 0.0 
-4.102898087183e-06 5.677064970027e-04 0.0 
0.0 0.0 0.0 
-7.611532815144e-08 -4.562871552804e-06 0.0 
-4.562871552804e-06 4.087958727974e-04 0.0 
0.0 0.0 0.0 
4.387910457204e-08 -4.216562976105e-06 0.0 
-4.216562976105e-06 3.506798884796e-04 0.0 
0.0 0.0 0.0 
1.325656202589e-07 -4.381802977543e-06 0.0 
-4.381802977543e-06 5.523777259469e-04 0.0 
0.0 0.0 0.0 
2.409471000497e-08 4.276856079722e-06 0.0 
4.276856079722e-06 3.714276161422e-04 0.0 
0.0 0.0 0.0 
1.203933794880e-07 -4.596339734219e-06 0.0 
-4.596339734219e-06 3.368447743546e-04 0.0 
0.0 0.0 0.0 
3.933434689074e-08 -4.419576951546e-06 0.0 
-4.419576951546e-06 7.141614570301e-04 0.0 
0.0 0.0 0.0 
-1.176041219964e-08 4.456167087154e-06 0.0 
4.456167087154e-06 8.665896627387e-04 0.0 
0.0 0.0 0.0 
-1.482338516379e-07 4.008467564912e-06 0.0 
4.008467564912e-06 1.032935577638e-03 0.0 
0.0 0.0 0.0 
-3.663706566792e-06 9.847353731733e-07 0.0 
9.847353731733e-07 1.946594267888e-05 0.0 
0.0 0.0 0.0 
-5.200268626826e-08 4.299004004224e-06 0.0 
4.299004004224e-06 6.040994433356e-04 0.0 
0.0 0.0 0.0 
-3.389206670867e-08 4.346480715326e-06 0.0 
4.346480715326e-06 5.958000959876e-04 0.0 
0.0 0.0 0.0 
6.708719402226e-08 4.519321257207e-06 0.0 
4.519321257207e-06 5.510931928443e-04 0.0 
0.0 0.0 0.0 
1.360097212633e-08 4.541297139151e-06 0.0 
4.541297139151e-06 8.467741911018e-04 0.0 
0.0 0.0 0.0 
2.759780470818e-08 4.490510925729e-06 0.0 
4.490510925729e-06 6.498052485517e-04 0.0 
0.0 0.0 0.0 
1.191443355086e-07 4.602127014794e-06 0.0 
4.602127014794e-06 4.351177001389e-04 0.0 
0.0 0.0 0.0 
8.224956604685e-08 -4.278266525126e-06 0.0 
-4.278266525126e-06 5.884460013010e-04 0.0 
0.0 0.0 0.0 
-2.834004506624e-07 4.499898264419e-06 0.0 
4.499898264419e-06 9.867468005487e-04 0.0 
0.0 0.0 0.0 
-5.150516838581e-07 -4.553604351679e-06 0.0 
-4.553604351679e-06 4.365420993908e-04 0.0 
0.0 0.0 0.0 
1.311167781015e-07 4.401653771268e-06 0.0 
4.401653771268e-06 1.531476457706e-04 0.0 
0.0 0.0 0.0 
-1.223865871980e-07 4.184209649568e-06 0.0 
4.184209649568e-06 2.175939938700e-04 0.0 
0.0 0.0 0.0 
6.423105602948e-08 4.574461163316e-06 0.0 
4.574461163316e-06 3.762543178232e-04 0.0 
0.0 0.0 0.0 
1.587279816473e-07 4.481674672863e-06 0.0 
4.481674672863e-06 4.521423868433e-04 0.0 
0.0 0.0 0.0 
-5.196462893320e-08 4.426956916518e-06 0.0 
4.426956916518e-06 6.311665197281e-04 0.0 
0.0 0.0 0.0 
3.646087942677e-08 -4.241879555386e-06 0.0 
-4.241879555386e-06 6.242486161914e-04 0.0 
0.0 0.0 0.0 
-1.174428008177e-07 -4.855920467297e-06 0.0 
-4.855920467297e-06 2.506934415842e-04 0.0 
0.0 0.0 0.0 
-7.669965168544e-07 -4.933503624656e-06 0.0 
-4.933503624656e-06 2.189368234857e-04 0.0 
0.0 0.0 0.0 
-6.592372975289e-07 -5.318200123860e-06 0.0 
-5.318200123860e-06 8.052466819308e-04 0.0 
0.0 0.0 0.0 
3.110127244632e-08 -4.791411231136e-06 0.0 
-4.791411231136e-06 3.728092857000e-04 0.0 
0.0 0.0 0.0 
5.240756539848e-08 4.380489468958e-06 0.0 
4.380489468958e-06 9.738786387969e-04 0.0 
0.0 0.0 0.0 
5.346767029124e-09 4.260531999191e-06 0.0 
4.260531999191e-06 9.988940116135e-04 0.0 
0.0 0.0 0.0 
-2.042673734604e-07 -4.378283161444e-06 0.0 
-4.378283161444e-06 8.185787470658e-04 0.0 
0.0 0.0 0.0 
-6.189318468852e-08 4.325537233604e-06 0.0 
4.325537233604e-06 1.030757151447e-03 0.0 
0.0 0.0 0.0 
4.055576314776e-07 3.995756375958e-06 0.0 
3.995756375958e-06 1.066562515296e-03 0.0 
0.0 0.0 0.0 
-4.768909589448e-08 -4.472313433229e-06 0.0 
-4.472313433229e-06 6.647546016014e-04 0.0 
0.0 0.0 0.0 
1.217980982737e-08 4.261514142943e-06 0.0 
4.261514142943e-06 9.372041882121e-04 0.0 
0.0 0.0 0.0 
1.093462347335e-07 -4.238358056779e-06 0.0 
-4.238358056779e-06 2.876343726872e-04 0.0 
0.0 0.0 0.0 
9.586730542743e-08 -4.401302506595e-06 0.0 
-4.401302506595e-06 6.154656566968e-04 0.0 
0.0 0.0 0.0 
-6.039939015601e-08 4.225651020218e-06 0.0 
4.225651020218e-06 6.099868558345e-04 0.0 
0.0 0.0 0.0 
-3.184355471531e-07 4.081071232541e-06 0.0 
4.081071232541e-06 3.323096753369e-04 0.0 
0.0 0.0 0.0 
4.068034309412e-08 -4.439605632718e-06 0.0 
-4.439605632718e-06 2.248791896600e-04 0.0 
0.0 0.0 0.0 
1.753981830888e-07 4.432868475269e-06 0.0 
4.432868475269e-06 5.066416572521e-04 0.0 
0.0 0.0 0.0 
3.849043972437e-09 -4.212638103666e-06 0.0 
-4.212638103666e-06 5.972754531167e-04 0.0 
0.0 0.0 0.0 
-1.987540942938e-08 -4.262800874018e-06 0.0 
-4.262800874018e-06 6.325571285786e-04 0.0 
0.0 0.0 0.0 
-1.358022493347e-07 4.071862888624e-06 0.0 
4.071862888624e-06 3.990712103987e-04 0.0 
0.0 0.0 0.0 
-1.151928341603e-08 4.447229384914e-06 0.0 
4.447229384914e-06 6.854853070735e-04 0.0 
0.0 0.0 0.0 
-4.842806211602e-08 -4.219021347021e-06 0.0 
-4.219021347021e-06 6.055726212502e-04 0.0 
0.0 0.0 0.0 
-7.449900307765e-08 4.288436205203e-06 0.0 
4.288436205203e-06 6.391990438712e-04 0.0 
0.0 0.0 0.0 
2.173645463621e-07 -4.311358994158e-06 0.0 
-4.311358994158e-06 4.534492012793e-04 0.0 
0.0 0.0 0.0 
2.782808805613e-08 -4.540106500754e-06 0.0 
-4.540106500754e-06 9.056665443927e-04 0.0 
0.0 0.0 0.0 
-1.009846076760e-07 -4.593517572929e-06 0.0 
-4.593517572929e-06 9.114738577940e-04 0.0 
0.0 0.0 0.0 
-6.300327770603e-08 4.239477648016e-06 0.0 
4.239477648016e-06 6.122932111208e-04 0.0 
0.0 0.0 0.0 
1.060202137193e-07 4.395672778998e-06 0.0 
4.395672778998e-06 1.037171266329e-03 0.0 
0.0 0.0 0.0 
1.087428573854e-07 -4.222310779081e-06 0.0 
-4.222310779081e-06 3.235530213550e-04 0.0 
0.0 0.0 0.0 
1.634170476716e-07 4.680280007752e-06 0.0 
4.680280007752e-06 1.111149110503e-03 0.0 
0.0 0.0 0.0 
-2.780100338828e-08 4.462197670413e-06 0.0 
4.462197670413e-06 6.581315474230e-04 0.0 
0.0 0.0 0.0 
1.076989697424e-06 5.327267490560e-06 0.0 
5.327267490560e-06 1.105613300255e-03 0.0 
0.0 0.0 0.0 
-1.501198747533e-07 -4.338390468052e-06 0.0 
-4.338390468052e-06 8.311504055887e-04 0.0 
0.0 0.0 0.0 
1.065711519033e-07 4.611042179053e-06 0.0 
4.611042179053e-06 3.133715040413e-04 0.0 
0.0 0.0 0.0 
-1.810547541892e-07 -4.431507230141e-06 0.0 
-4.431507230141e-06 8.452912792083e-04 0.0 
0.0 0.0 0.0 
-3.538577764139e-09 4.361115168940e-06 0.0 
4.361115168940e-06 1.052043100964e-03 0.0 
0.0 0.0 0.0 
-4.438753109515e-08 4.416119616749e-06 0.0 
4.416119616749e-06 6.934666814391e-04 0.0 
0.0 0.0 0.0 
-5.904476019225e-08 -4.272833528216e-06 0.0 
-4.272833528216e-06 4.933671867056e-04 0.0 
0.0 0.0 0.0 
-1.049936558806e-07 -4.469904371944e-06 0.0 
-4.469904371944e-06 8.720496222678e-04 0.0 
0.0 0.0 0.0 
-2.702286039380e-08 4.339074817391e-06 0.0 
4.339074817391e-06 6.601934843637e-04 0.0 
0.0 0.0 0.0 
3.455099368832e-07 4.675909676355e-06 0.0 
4.675909676355e-06 2.491352813687e-04 0.0 
0.0 0.0 0.0 
5.365066011453e-07 4.687420522485e-06 0.0 
4.687420522485e-06 1.158248535830e-03 0.0 
0.0 0.0 0.0 
-3.619489220563e-07 4.700954635461e-06 0.0 
4.700954635461e-06 2.141146314909e-04 0.0 
0.0 0.0 0.0 
6.390010001134e-07 -4.497360220891e-06 0.0 
-4.497360220891e-06 1.101112790203e-03 0.0 
0.0 0.0 0.0 
-2.267339535011e-07 4.301759693461e-06 0.0 
4.301759693461e-06 1.078460600088e-03 0.0 
0.0 0.0 0.0 
3.906874890269e-08 -4.527474576437e-06 0.0 
-4.527474576437e-06 9.329457035014e-04 0.0 
0.0 0.0 0.0 
-9.349779639400e-08 5.053413071069e-06 0.0 
5.053413071069e-06 8.175071150844e-04 0.0 
0.0 0.0 0.0 
-8.982208665742e-08 -4.682018403023e-06 0.0 
-4.682018403023e-06 1.003542801190e-03 0.0 
0.0 0.0 0.0 
-4.740236470013e-08 -4.249468561794e-06 0.0 
-4.249468561794e-06 6.405860767136e-04 0.0 
0.0 0.0 0.0 
-1.698115636994e-08 -4.521252028545e-06 0.0 
-4.521252028545e-06 7.537881536075e-04 0.0 
0.0 0.0 0.0 
5.710019892469e-07 4.368357863813e-06 0.0 
4.368357863813e-06 1.093413011368e-03 0.0 
0.0 0.0 0.0 
-5.028413840868e-08 4.440553716527e-06 0.0 
4.440553716527e-06 9.299271628549e-04 0.0 
0.0 0.0 0.0 
-7.245456945526e-08 -4.577991303244e-06 0.0 
-4.577991303244e-06 9.401363983177e-04 0.0 
0.0 0.0 0.0 
-9.546396950721e-08 4.627288750213e-06 0.0 
4.627288750213e-06 8.886350569788e-04 0.0 
0.0 0.0 0.0 
1.918419652025e-07 4.521727221771e-06 0.0 
4.521727221771e-06 2.862554711596e-04 0.0 
0.0 0.0 0.0 
3.680835458653e-08 -4.642895934436e-06 0.0 
-4.642895934436e-06 9.685487970073e-04 0.0 
0.0 0.0 0.0 
1.051259625351e-06 -5.988774682200e-08 0.0 
-5.988774682200e-08 1.176754851028e-03 0.0 
0.0 0.0 0.0 
9.835696279659e-08 4.975756684466e-06 0.0 
4.975756684466e-06 1.103177092775e-03 0.0 
0.0 0.0 0.0 
6.401736007966e-08 4.474596671899e-06 0.0 
4.474596671899e-06 6.141127860291e-04 0.0 
0.0 0.0 0.0 
1.470928547853e-07 -4.660090922706e-06 0.0 
-4.660090922706e-06 8.184104618734e-04 0.0 
0.0 0.0 0.0 
-1.269006159044e-07 4.930125273951e-06 0.0 
4.930125273951e-06 7.830425219915e-04 0.0 
0.0 0.0 0.0 
-5.294491733920e-09 -4.392480156075e-06 0.0 
-4.392480156075e-06 6.594908247040e-04 0.0 
0.0 0.0 0.0 
1.996771858970e-09 4.488197317975e-06 0.0 
4.488197317975e-06 9.023906745600e-04 0.0 
0.0 0.0 0.0 
4.126560182449e-08 4.468484674945e-06 0.0 
4.468484674945e-06 9.381220000078e-04 0.0 
0.0 0.0 0.0 
4.516725118364e-07 -4.812422818940e-06 0.0 
-4.812422818940e-06 1.902117164485e-04 0.0 
0.0 0.0 0.0 
-2.084078513098e-07 4.344909286010e-06 0.0 
4.344909286010e-06 3.825374622062e-04 0.0 
0.0 0.0 0.0 
-5.139526138009e-08 4.275528736003e-06 0.0 
4.275528736003e-06 6.474620635324e-04 0.0 
0.0 0.0 0.0 
-8.088784275717e-08 -4.332805833685e-06 0.0 
-4.332805833685e-06 6.137312833099e-04 0.0 
0.0 0.0 0.0 
-8.230155223998e-09 4.340217949998e-06 0.0 
4.340217949998e-06 6.522728269784e-04 0.0 
0.0 0.0 0.0 
8.218603861909e-07 -4.406364677774e-06 0.0 
-4.406364677774e-06 1.128572739566e-03 0.0 
0.0 0.0 0.0 
-1.563331447629e-07 3.949983090301e-06 0.0 
3.949983090301e-06 1.065564764431e-03 0.0 
0.0 0.0 0.0 
-1.859159604045e-08 -4.508861576618e-06 0.0 
-4.508861576618e-06 1.079149673894e-03 0.0 
0.0 0.0 0.0 
-1.627680623617e-07 -4.132465019511e-06 0.0 
-4.132465019511e-06 5.830057944973e-04 0.0 
0.0 0.0 0.0 
-7.476668506534e-09 4.312735332894e-06 0.0 
4.312735332894e-06 9.891732931813e-04 0.0 
0.0 0.0 0.0 
-2.024240408627e-08 -4.463625668552e-06 0.0 
-4.463625668552e-06 9.037515951693e-04 0.0 
0.0 0.0 0.0 
-2.508413022850e-07 4.565834753661e-06 0.0 
4.565834753661e-06 1.100715071877e-03 0.0 
0.0 0.0 0.0 
1.204543087496e-07 -4.655377870377e-06 0.0 
-4.655377870377e-06 9.335783832665e-04 0.0 
0.0 0.0 0.0 
5.890347898330e-08 -4.381104083544e-06 0.0 
-4.381104083544e-06 6.511804744804e-04 0.0 
0.0 0.0 0.0 
-4.637540063079e-08 4.239596537678e-06 0.0 
4.239596537678e-06 6.205163775399e-04 0.0 
0.0 0.0 0.0 
-1.196077040744e-07 4.376789390631e-06 0.0 
4.376789390631e-06 9.674980539054e-04 0.0 
0.0 0.0 0.0 
4.585961388415e-08 -4.816021873919e-06 0.0 
-4.816021873919e-06 1.066937157881e-03 0.0 
0.0 0.0 0.0 
-5.281929527090e-08 4.502981458882e-06 0.0 
4.502981458882e-06 9.738744077235e-04 0.0 
0.0 0.0 0.0 
-1.312481120452e-07 4.450789779457e-06 0.0 
4.450789779457e-06 9.390860270566e-04 0.0 
0.0 0.0 0.0 
-1.533399992537e-07 4.635097497718e-06 0.0 
4.635097497718e-06 1.029119535296e-03 0.0 
0.0 0.0 0.0 
5.570530450250e-07 -4.551318452187e-06 0.0 
-4.551318452187e-06 1.073955293027e-03 0.0 
0.0 0.0 0.0 
6.800753427072e-08 4.502870547832e-06 0.0 
4.502870547832e-06 1.001389477505e-03 0.0 
0.0 0.0 0.0 
-9.216392093947e-10 4.444829879969e-06 0.0 
4.444829879969e-06 8.033250729493e-04 0.0 
0.0 0.0 0.0 
-3.802849035672e-09 3.772286055524e-06 0.0 
3.772286055524e-06 5.656787844206e-04 0.0 
0.0 0.0 0.0 
-2.706708002176e-08 -4.405045463497e-06 0.0 
-4.405045463497e-06 9.678258282726e-04 0.0 
0.0 0.0 0.0 
1.052590592465e-08 4.389356254223e-06 0.0 
4.389356254223e-06 9.201839535875e-04 0.0 
0.0 0.0 0.0 
1.163165919138e-08 4.160613015410e-06 0.0 
4.160613015410e-06 3.355219424981e-04 0.0 
0.0 0.0 0.0 
-4.885435167523e-08 -4.340320638468e-06 0.0 
-4.340320638468e-06 6.488499183031e-04 0.0 
0.0 0.0 0.0 
-3.359945244252e-08 4.231861224604e-06 0.0 
4.231861224604e-06 7.359967364939e-04 0.0 
0.0 0.0 0.0 
-1.478678302025e-08 -4.531155760223e-06 0.0 
-4.531155760223e-06 8.160515539757e-04 0.0 
0.0 0.0 0.0 
-6.745712100020e-08 4.523103100033e-06 0.0 
4.523103100033e-06 3.392239359483e-04 0.0 
0.0 0.0 0.0 
-5.038872119556e-08 -4.366790760900e-06 0.0 
-4.366790760900e-06 6.219664974279e-04 0.0 
0.0 0.0 0.0 
-1.649020497929e-08 -4.557952371429e-06 0.0 
-4.557952371429e-06 8.784627467535e-04 0.0 
0.0 0.0 0.0 
-1.930950331852e-07 4.168515818463e-06 0.0 
4.168515818463e-06 6.500721776495e-04 0.0 
0.0 0.0 0.0 
3.522509417486e-08 4.455259297738e-06 0.0 
4.455259297738e-06 6.771040048215e-04 0.0 
0.0 0.0 0.0 
3.139254971529e-07 -4.688365075482e-06 0.0 
-4.688365075482e-06 8.699406216370e-04 0.0 
0.0 0.0 0.0 
1.380052900846e-07 3.974446227709e-06 0.0 
3.974446227709e-06 6.862758151820e-04 0.0 
0.0 0.0 0.0 
-1.714901124661e-06 3.853790904338e-06 0.0 
3.853790904338e-06 1.029252111924e-04 0.0 
0.0 0.0 0.0 
1.345466649205e-08 -4.452876258787e-06 0.0 
-4.452876258787e-06 7.772766490701e-04 0.0 
0.0 0.0 0.0 
3.478354915210e-08 4.333548620933e-06 0.0 
4.333548620933e-06 9.588749615403e-04 0.0 
0.0 0.0 0.0 
1.132718561170e-07 4.622764694209e-06 0.0 
4.622764694209e-06 1.099188848246e-03 0.0 
0.0 0.0 0.0 
-3.280909677272e-08 4.275391591571e-06 0.0 
4.275391591571e-06 7.174484435937e-04 0.0 
0.0 0.0 0.0 
1.520969661328e-08 4.464595738776e-06 0.0 
4.464595738776e-06 7.401845010355e-04 0.0 
0.0 0.0 0.0 
-1.737617220110e-07 -4.531557465650e-06 0.0 
-4.531557465650e-06 8.767316511726e-04 0.0 
0.0 0.0 0.0 
-1.539090206615e-06 4.695425450949e-06 0.0 
4.695425450949e-06 1.674835091441e-04 0.0 
0.0 0.0 0.0 
1.943341110255e-08 4.291367248944e-06 0.0 
4.291367248944e-06 9.316173315674e-04 0.0 
0.0 0.0 0.0 
-1.019928663748e-08 -4.498736120407e-06 0.0 
-4.498736120407e-06 7.808982579758e-04 0.0 
0.0 0.0 0.0 
-1.627286790873e-07 -4.261648618824e-06 0.0 
-4.261648618824e-06 6.845878548412e-04 0.0 
0.0 0.0 0.0 
-6.207434566363e-10 -4.411876793374e-06 0.0 
-4.411876793374e-06 9.394627487709e-04 0.0 
0.0 0.0 0.0 
-2.196547665978e-08 -3.866955003831e-06 0.0 
-3.866955003831e-06 3.333290246783e-04 0.0 
0.0 0.0 0.0 
4.659275232299e-08 -4.456997125904e-06 0.0 
-4.456997125904e-06 9.752223954262e-04 0.0 
0.0 0.0 0.0 
2.363990558862e-09 4.551292554685e-06 0.0 
4.551292554685e-06 1.073306510678e-03 0.0 
0.0 0.0 0.0 
-2.810618315863e-08 4.230583746674e-06 0.0 
4.230583746674e-06 9.043514737437e-04 0.0 
0.0 0.0 0.0 
-1.011087787939e-07 -4.576003483887e-06 0.0 
-4.576003483887e-06 9.749593968045e-04 0.0 
0.0 0.0 0.0 
9.858560900966e-08 -4.593420110820e-06 0.0 
-4.593420110820e-06 9.926127866522e-04 0.0 
0.0 0.0 0.0 
1.667227786939e-07 -4.662319731919e-06 0.0 
-4.662319731919e-06 1.074474022628e-03 0.0 
0.0 0.0 0.0 
-1.772414475743e-06 5.142130346135e-06 0.0 
5.142130346135e-06 2.324841427386e-04 0.0 
0.0 0.0 0.0 
6.826886078670e-08 -4.495657497492e-06 0.0 
-4.495657497492e-06 9.052115661699e-04 0.0 
0.0 0.0 0.0 
2.526998295060e-07 -4.375499901996e-06 0.0 
-4.375499901996e-06 1.079466042407e-03 0.0 
0.0 0.0 0.0 
-1.479264331028e-07 4.443729915287e-06 0.0 
4.443729915287e-06 1.002464433364e-03 0.0 
0.0 0.0 0.0 
-1.817224626333e-08 4.255140533583e-06 0.0 
4.255140533583e-06 8.418993632260e-04 0.0 
0.0 0.0 0.0 
-3.585187280386e-08 -4.446268681105e-06 0.0 
-4.446268681105e-06 6.567678510330e-04 0.0 
0.0 0.0 0.0 
2.910572849402e-08 4.263358751411e-06 0.0 
4.263358751411e-06 7.241386009664e-04 0.0 
0.0 0.0 0.0 
1.116921561906e-07 5.122631126482e-06 0.0 
5.122631126482e-06 1.873799778191e-04 0.0 
0.0 0.0 0.0 
-6.128451823795e-08 4.535405338522e-06 0.0 
4.535405338522e-06 1.037254650478e-03 0.0 
0.0 0.0 0.0 
1.318193825206e-07 4.478399338778e-06 0.0 
4.478399338778e-06 3.634590227815e-04 0.0 
0.0 0.0 0.0 
-1.339186512239e-06 4.097164409790e-06 0.0 
4.097164409790e-06 2.946267002935e-04 0.0 
0.0 0.0 0.0 
1.276866152811e-07 -4.301725825825e-06 0.0 
-4.301725825825e-06 9.652518137042e-04 0.0 
0.0 0.0 0.0 
-1.097489144009e-08 4.368874374386e-06 0.0 
4.368874374386e-06 1.108446695795e-03 0.0 
0.0 0.0 0.0 
9.017958202406e-08 -4.038397963720e-06 0.0 
-4.038397963720e-06 2.971604105950e-04 0.0 
0.0 0.0 0.0 
-2.747316929508e-08 -4.296607744074e-06 0.0 
-4.296607744074e-06 7.557141974688e-04 0.0 
0.0 0.0 0.0 
-1.493942414221e-09 4.424303977411e-06 0.0 
4.424303977411e-06 9.325373211011e-04 0.0 
0.0 0.0 0.0 
4.745874826462e-08 -4.478731943491e-06 0.0 
-4.478731943491e-06 7.060483450625e-04 0.0 
0.0 0.0 0.0 
-1.604290988944e-08 -4.418836438373e-06 0.0 
-4.418836438373e-06 3.406345438535e-04 0.0 
0.0 0.0 0.0 
-1.199274212160e-07 4.277039551272e-06 0.0 
4.277039551272e-06 4.577090023941e-04 0.0 
0.0 0.0 0.0 
1.089914431596e-06 3.796343948822e-06 0.0 
3.796343948822e-06 2.234978336164e-04 0.0 
0.0 0.0 0.0 
1.684244474998e-07 4.514181837391e-06 0.0 
4.514181837391e-06 2.961002553366e-04 0.0 
0.0 0.0 0.0 
-5.909750022681e-08 4.518826190379e-06 0.0 
4.518826190379e-06 2.607434554400e-04 0.0 
0.0 0.0 0.0 
-1.591582299287e-08 4.256557254303e-06 0.0 
4.256557254303e-06 7.795938865167e-04 0.0 
0.0 0.0 0.0 
1.200896049047e-06 1.025313222355e-07 0.0 
1.025313222355e-07 1.231059921422e-03 0.0 
0.0 0.0 0.0 
-1.001650397070e-06 3.888433530179e-06 0.0 
3.888433530179e-06 3.579406183694e-04 0.0 
0.0 0.0 0.0 
-1.257676666144e-07 4.362407040131e-06 0.0 
4.362407040131e-06 1.056634995947e-03 0.0 
0.0 0.0 0.0 
-5.811392311816e-08 4.270281863089e-06 0.0 
4.270281863089e-06 5.669114039248e-04 0.0 
0.0 0.0 0.0 
1.289114051062e-07 -4.758088216158e-06 0.0 
-4.758088216158e-06 8.990357830116e-04 0.0 
0.0 0.0 0.0 
-3.063380245028e-07 4.622735427211e-06 0.0 
4.622735427211e-06 2.502687188797e-04 0.0 
0.0 0.0 0.0 
-1.981009090102e-07 -4.410314344733e-06 0.0 
-4.410314344733e-06 1.110630363441e-03 0.0 
0.0 0.0 0.0 
4.738792203085e-07 -3.894892779518e-06 0.0 
-3.894892779518e-06 2.615383023505e-04 0.0 
0.0 0.0 0.0 
3.914792565674e-07 4.496925380254e-06 0.0 
4.496925380254e-06 4.288769956176e-04 0.0 
0.0 0.0 0.0 
-9.474807638465e-08 4.242898217464e-06 0.0 
4.242898217464e-06 9.396284520251e-04 0.0 
0.0 0.0 0.0 
-3.424188554924e-08 -4.339689945765e-06 0.0 
-4.339689945765e-06 6.673793863510e-04 0.0 
0.0 0.0 0.0 
3.010478080157e-07 -4.434506229161e-06 0.0 
-4.434506229161e-06 1.046435815490e-03 0.0 
0.0 0.0 0.0 
6.939098184944e-08 -4.430201151077e-06 0.0 
-4.430201151077e-06 5.069705775245e-04 0.0 
0.0 0.0 0.0 
-8.520931005229e-08 -4.404081778145e-06 0.0 
-4.404081778145e-06 9.557684708545e-04 0.0 
0.0 0.0 0.0 
9.019695053070e-07 4.460649703688e-06 0.0 
4.460649703688e-06 1.099741142179e-03 0.0 
0.0 0.0 0.0 
-1.291680767901e-07 4.520807258682e-06 0.0 
4.520807258682e-06 9.042163239725e-04 0.0 
0.0 0.0 0.0 
-4.648167727384e-07 -4.213418505161e-06 0.0 
-4.213418505161e-06 1.100517919853e-03 0.0 
0.0 0.0 0.0 
5.623968513113e-08 -4.642842727638e-06 0.0 
-4.642842727638e-06 9.966874499545e-04 0.0 
0.0 0.0 0.0 
-1.220623813136e-08 -4.622570379224e-06 0.0 
-4.622570379224e-06 1.025002917991e-03 0.0 
0.0 0.0 0.0 
-3.089739681883e-07 4.054566306973e-06 0.0 
4.054566306973e-06 2.953504737284e-04 0.0 
0.0 0.0 0.0 
-8.240631921286e-08 4.162747587829e-06 0.0 
4.162747587829e-06 1.020373561232e-03 0.0 
0.0 0.0 0.0 
4.118442054057e-08 4.296770177641e-06 0.0 
4.296770177641e-06 9.609947685207e-04 0.0 
0.0 0.0 0.0 
-6.256665185944e-08 4.324703097786e-06 0.0 
4.324703097786e-06 6.978128573338e-04 0.0 
0.0 0.0 0.0 
-1.360098363823e-06 4.168525120361e-06 0.0 
4.168525120361e-06 4.217176014401e-04 0.0 
0.0 0.0 0.0 
1.156325208029e-06 -4.446991498116e-06 0.0 
-4.446991498116e-06 1.135239295904e-03 0.0 
0.0 0.0 0.0 
-2.434652354166e-07 4.520683192479e-06 0.0 
4.520683192479e-06 3.474396427217e-04 0.0 
0.0 0.0 0.0 
2.958353622073e-07 -5.020514808034e-06 0.0 
-5.020514808034e-06 4.003844804439e-04 0.0 
0.0 0.0 0.0 
5.071514141974e-08 4.589345306009e-06 0.0 
4.589345306009e-06 1.010228571497e-03 0.0 
0.0 0.0 0.0 
-8.901962700314e-08 -3.756798032499e-06 0.0 
-3.756798032499e-06 2.365855441733e-04 0.0 
0.0 0.0 0.0 
2.367771667622e-08 -4.225598464219e-06 0.0 
-4.225598464219e-06 7.140654972222e-04 0.0 
0.0 0.0 0.0 
-8.213401792023e-08 4.121975402279e-06 0.0 
4.121975402279e-06 9.666874160073e-04 0.0 
0.0 0.0 0.0 
-2.103789331631e-08 -4.148160292280e-06 0.0 
-4.148160292280e-06 1.086252147775e-03 0.0 
0.0 0.0 0.0 
-2.616480808681e-07 -4.045765176629e-06 0.0 
-4.045765176629e-06 1.115614289439e-03 0.0 
0.0 0.0 0.0 
-7.419422409782e-08 -4.572397784859e-06 0.0 
-4.572397784859e-06 9.409116551111e-04 0.0 
0.0 0.0 0.0 
-4.813588982966e-08 -4.734800234034e-06 0.0 
-4.734800234034e-06 1.031836937244e-03 0.0 
0.0 0.0 0.0 
-7.816985059250e-08 4.307726028396e-06 0.0 
4.307726028396e-06 6.017769640840e-04 0.0 
0.0 0.0 0.0 
1.070534527692e-08 -4.532544325489e-06 0.0 
-4.532544325489e-06 9.729030356063e-04 0.0 
0.0 0.0 0.0 
-1.277217837936e-06 4.246023317140e-06 0.0 
4.246023317140e-06 4.857021172002e-04 0.0 
0.0 0.0 0.0 
-4.503705398617e-07 4.099951794969e-06 0.0 
4.099951794969e-06 1.082705909479e-03 0.0 
0.0 0.0 0.0 
-1.331097481794e-06 4.173023050482e-06 0.0 
4.173023050482e-06 5.497978510123e-04 0.0 
0.0 0.0 0.0 
8.334979260116e-07 3.328158227706e-06 0.0 
3.328158227706e-06 5.811823803561e-04 0.0 
0.0 0.0 0.0 
-3.397772629921e-08 4.293367425378e-06 0.0 
4.293367425378e-06 6.904402855834e-04 0.0 
0.0 0.0 0.0 
-9.450679497869e-07 4.621615977508e-06 0.0 
4.621615977508e-06 6.144787691460e-04 0.0 
0.0 0.0 0.0 
-4.123588348559e-08 -4.261804230184e-06 0.0 
-4.261804230184e-06 8.012663996684e-04 0.0 
0.0 0.0 0.0 
-3.910611068303e-08 -4.344791313407e-06 0.0 
-4.344791313407e-06 6.455602145057e-04 0.0 
0.0 0.0 0.0 
-3.765597911265e-08 -4.445477214937e-06 0.0 
-4.445477214937e-06 6.836951293328e-04 0.0 
0.0 0.0 0.0 
-8.424172570631e-08 4.473540220912e-06 0.0 
4.473540220912e-06 3.034804601465e-04 0.0 
0.0 0.0 0.0 
-3.531501613363e-08 4.287410499461e-06 0.0 
4.287410499461e-06 6.554421862763e-04 0.0 
0.0 0.0 0.0 
-9.040889359380e-08 4.379749854473e-06 0.0 
4.379749854473e-06 1.065843287240e-03 0.0 
0.0 0.0 0.0 
2.727932049140e-07 5.544640302354e-06 0.0 
5.544640302354e-06 1.098167178980e-03 0.0 
0.0 0.0 0.0 
-7.080059927222e-08 4.332789767408e-06 0.0 
4.332789767408e-06 9.573440616724e-04 0.0 
0.0 0.0 0.0 
3.109511590438e-07 4.423638471621e-06 0.0 
4.423638471621e-06 1.072620626251e-03 0.0 
0.0 0.0 0.0 
-6.761322268733e-08 4.362347309422e-06 0.0 
4.362347309422e-06 6.660210853608e-04 0.0 
0.0 0.0 0.0 
9.333165040815e-08 4.391003765833e-06 0.0 
4.391003765833e-06 1.023915736392e-03 0.0 
0.0 0.0 0.0 
-4.096943606591e-08 4.292950072839e-06 0.0 
4.292950072839e-06 6.823890897094e-04 0.0 
0.0 0.0 0.0 
1.851668651742e-07 4.318337396847e-06 0.0 
4.318337396847e-06 1.047774900178e-03 0.0 
0.0 0.0 0.0 
-1.408892569277e-08 4.254893443847e-06 0.0 
4.254893443847e-06 9.956408617444e-04 0.0 
0.0 0.0 0.0 
-5.943117376006e-08 -4.536547659307e-06 0.0 
-4.536547659307e-06 9.902737597500e-04 0.0 
0.0 0.0 0.0 
1.232086077607e-08 4.287452738123e-06 0.0 
4.287452738123e-06 8.690070414326e-04 0.0 
0.0 0.0 0.0 
-7.029687887350e-08 4.287627485024e-06 0.0 
4.287627485024e-06 6.285885776862e-04 0.0 
0.0 0.0 0.0 
-6.863110346700e-08 -4.175922388767e-06 0.0 
-4.175922388767e-06 1.033485798167e-03 0.0 
0.0 0.0 0.0 
-2.061224564365e-07 4.257821755137e-06 0.0 
4.257821755137e-06 8.299871429005e-04 0.0 
0.0 0.0 0.0 
-3.058200128692e-07 -4.654626897380e-06 0.0 
-4.654626897380e-06 3.049382996256e-04 0.0 
0.0 0.0 0.0 
-1.003606692196e-07 -4.240153227223e-06 0.0 
-4.240153227223e-06 3.488416129340e-04 0.0 
0.0 0.0 0.0 
3.256028802134e-08 4.128689198481e-06 0.0 
4.128689198481e-06 5.308126961447e-04 0.0 
0.0 0.0 0.0 
-6.087682458134e-08 4.249549065789e-06 0.0 
4.249549065789e-06 7.545204643298e-04 0.0 
0.0 0.0 0.0 
1.883037163974e-07 4.530538186047e-06 0.0 
4.530538186047e-06 1.075907711717e-03 0.0 
0.0 0.0 0.0 
-2.019138523046e-08 -4.671492797352e-06 0.0 
-4.671492797352e-06 9.620602940223e-04 0.0 
0.0 0.0 0.0 
-4.223107830104e-08 -4.436086148416e-06 0.0 
-4.436086148416e-06 6.299233322651e-04 0.0 
0.0 0.0 0.0 
1.135784266637e-08 -4.399090032243e-06 0.0 
-4.399090032243e-06 8.501518996178e-04 0.0 
0.0 0.0 0.0 
2.738357207654e-08 4.467937363186e-06 0.0 
4.467937363186e-06 9.946701789434e-04 0.0 
0.0 0.0 0.0 
-7.502452159525e-08 -4.632273076054e-06 0.0 
-4.632273076054e-06 1.038377527661e-03 0.0 
0.0 0.0 0.0 
-6.565214314413e-07 -3.267340363828e-06 0.0 
-3.267340363828e-06 1.067347161469e-03 0.0 
0.0 0.0 0.0 
1.109311875691e-07 4.229405078702e-06 0.0 
4.229405078702e-06 8.638291419825e-04 0.0 
0.0 0.0 0.0 
-6.633509819221e-08 4.384539737966e-06 0.0 
4.384539737966e-06 1.018138469731e-03 0.0 
0.0 0.0 0.0 
-1.628402179765e-08 -4.488403471176e-06 0.0 
-4.488403471176e-06 7.187680604970e-04 0.0 
0.0 0.0 0.0 
-5.729338059535e-08 -4.411566283406e-06 0.0 
-4.411566283406e-06 9.954898918954e-04 0.0 
0.0 0.0 0.0 
-7.374995947274e-09 4.298407139350e-06 0.0 
4.298407139350e-06 7.127920114101e-04 0.0 
0.0 0.0 0.0 
-6.396571783363e-08 -4.331903466677e-06 0.0 
-4.331903466677e-06 1.094305939935e-03 0.0 
0.0 0.0 0.0 
8.088026584030e-07 -4.785417164802e-06 0.0 
-4.785417164802e-06 1.106232541544e-03 0.0 
0.0 0.0 0.0 
-3.132175518950e-09 4.283501461392e-06 0.0 
4.283501461392e-06 8.065656018623e-04 0.0 
0.0 0.0 0.0 
-1.728876724005e-07 4.622264274285e-06 0.0 
4.622264274285e-06 3.121546803315e-04 0.0 
0.0 0.0 0.0 
-1.177667483532e-07 4.194279167047e-06 0.0 
4.194279167047e-06 1.018377239557e-03 0.0 
0.0 0.0 0.0 
2.366558726763e-09 -4.231506407394e-06 0.0 
-4.231506407394e-06 7.745647287913e-04 0.0 
0.0 0.0 0.0 
-6.330886892503e-08 -4.415614738307e-06 0.0 
-4.415614738307e-06 6.031371684820e-04 0.0 
0.0 0.0 0.0 
5.990968166003e-09 -4.507582635548e-06 0.0 
-4.507582635548e-06 8.432093308759e-04 0.0 
0.0 0.0 0.0 
1.830084106480e-08 -4.689816021599e-06 0.0 
-4.689816021599e-06 9.833057281212e-04 0.0 
0.0 0.0 0.0 
4.532928388201e-08 -4.238646216153e-06 0.0 
-4.238646216153e-06 3.135884521595e-04 0.0 
0.0 0.0 0.0 
-2.125661957564e-08 4.256619701540e-06 0.0 
4.256619701540e-06 7.443777957359e-04 0.0 
0.0 0.0 0.0 
-1.803228626418e-07 4.097926774931e-06 0.0 
4.097926774931e-06 8.709002323484e-04 0.0 
0.0 0.0 0.0 
2.201893916087e-07 -4.742822093267e-06 0.0 
-4.742822093267e-06 1.077205356567e-03 0.0 
0.0 0.0 0.0 
-9.595995964506e-08 4.022749290576e-06 0.0 
4.022749290576e-06 8.975360215455e-04 0.0 
0.0 0.0 0.0 
4.630138494832e-09 4.434997692806e-06 0.0 
4.434997692806e-06 9.912999765032e-04 0.0 
0.0 0.0 0.0 
-2.669488865514e-07 4.090855235636e-06 0.0 
4.090855235636e-06 8.441688144987e-04 0.0 
0.0 0.0 0.0 
-1.010000397761e-06 4.527639334554e-06 0.0 
4.527639334554e-06 7.903227190942e-04 0.0 
0.0 0.0 0.0 
-1.654526015082e-07 4.242994766165e-06 0.0 
4.242994766165e-06 8.565580459605e-04 0.0 
0.0 0.0 0.0 
1.355653411750e-07 4.671313499589e-06 0.0 
4.671313499589e-06 1.037579437299e-03 0.0 
0.0 0.0 0.0 
-4.677546361354e-08 -4.609738482212e-06 0.0 
-4.609738482212e-06 9.946958891902e-04 0.0 
0.0 0.0 0.0 
9.337429052181e-09 4.184006489653e-06 0.0 
4.184006489653e-06 9.265655667332e-04 0.0 
0.0 0.0 0.0 
4.524463115274e-08 4.011352908552e-06 0.0 
4.011352908552e-06 1.114602836478e-03 0.0 
0.0 0.0 0.0 
-3.809881271577e-07 4.155737096738e-06 0.0 
4.155737096738e-06 8.174148573412e-04 0.0 
0.0 0.0 0.0 
-8.009905272388e-08 -4.420034989696e-06 0.0 
-4.420034989696e-06 5.067374044809e-04 0.0 
0.0 0.0 0.0 
8.528213468750e-09 -4.600003994976e-06 0.0 
-4.600003994976e-06 1.054122960330e-03 0.0 
0.0 0.0 0.0 
2.912188576953e-07 -5.115826888721e-06 0.0 
-5.115826888721e-06 1.101830987174e-03 0.0 
0.0 0.0 0.0 
-8.358491010441e-09 4.268757438580e-06 0.0 
4.268757438580e-06 7.049114457944e-04 0.0 
0.0 0.0 0.0 
1.433056362465e-08 4.323362673290e-06 0.0 
4.323362673290e-06 7.391788422928e-04 0.0 
0.0 0.0 0.0 
-5.044153383871e-08 -4.445134153491e-06 0.0 
-4.445134153491e-06 5.682754608880e-04 0.0 
0.0 0.0 0.0 
-3.954447724830e-08 4.362035473823e-06 0.0 
4.362035473823e-06 9.546063834931e-04 0.0 
0.0 0.0 0.0 
-1.666889556384e-07 4.427100895899e-06 0.0 
4.427100895899e-06 5.740060054975e-04 0.0 
0.0 0.0 0.0 
-4.699205569114e-08 4.485481436639e-06 0.0 
4.485481436639e-06 8.268900829480e-04 0.0 
0.0 0.0 0.0 
-6.074307590254e-08 -4.090734062335e-06 0.0 
-4.090734062335e-06 5.751638206164e-04 0.0 
0.0 0.0 0.0 
-5.535349867358e-08 4.444103066749e-06 0.0 
4.444103066749e-06 9.749786210458e-04 0.0 
0.0 0.0 0.0 
8.573086218711e-08 -3.543517298944e-06 0.0 
-3.543517298944e-06 1.113385853476e-03 0.0 
0.0 0.0 0.0 
-6.217942216669e-08 -4.434474430585e-06 0.0 
-4.434474430585e-06 5.950849806335e-04 0.0 
0.0 0.0 0.0 
5.117336452365e-07 -4.536936598087e-06 0.0 
-4.536936598087e-06 1.889394742340e-04 0.0 
0.0 0.0 0.0 
1.196216843358e-07 4.479147879271e-06 0.0 
4.479147879271e-06 1.108144711518e-03 0.0 
0.0 0.0 0.0 
-1.649070080489e-07 4.128822226982e-06 0.0 
4.128822226982e-06 6.076642227029e-04 0.0 
0.0 0.0 0.0 
-5.536148628416e-08 4.272813408732e-06 0.0 
4.272813408732e-06 7.009618211542e-04 0.0 
0.0 0.0 0.0 
8.152472192879e-07 4.587151237505e-06 0.0 
4.587151237505e-06 1.080410718907e-03 0.0 
0.0 0.0 0.0 
-6.419175280215e-08 -4.581034874496e-06 0.0 
-4.581034874496e-06 9.276076808777e-04 0.0 
0.0 0.0 0.0 
-6.675527708389e-08 -4.457928121475e-06 0.0 
-4.457928121475e-06 9.670962039634e-04 0.0 
0.0 0.0 0.0 
-2.084427197513e-08 -4.292514954261e-06 0.0 
-4.292514954261e-06 6.112673317984e-04 0.0 
0.0 0.0 0.0 
1.571760592789e-07 4.926490875480e-06 0.0 
4.926490875480e-06 1.515763276756e-04 0.0 
0.0 0.0 0.0 
-7.356522515600e-07 -5.329620819502e-06 0.0 
-5.329620819502e-06 1.109391819500e-03 0.0 
0.0 0.0 0.0 
-1.255610249107e-08 4.264470424752e-06 0.0 
4.264470424752e-06 7.808897855308e-04 0.0 
0.0 0.0 0.0 
-4.311744428165e-08 -4.910977768821e-06 0.0 
-4.910977768821e-06 9.193907020721e-04 0.0 
0.0 0.0 0.0 
-1.136501482923e-07 4.253659224080e-06 0.0 
4.253659224080e-06 1.061645615754e-03 0.0 
0.0 0.0 0.0 
-1.681650015017e-06 4.155356205718e-06 0.0 
4.155356205718e-06 9.376827228857e-05 0.0 
0.0 0.0 0.0 
-1.267983618103e-08 4.540619818032e-06 0.0 
4.540619818032e-06 9.657038442954e-04 0.0 
0.0 0.0 0.0 
-1.039611611242e-07 -4.411522628122e-06 0.0 
-4.411522628122e-06 4.258002200004e-04 0.0 
0.0 0.0 0.0 
2.085937040874e-07 -4.618177636254e-06 0.0 
-4.618177636254e-06 8.648284895623e-04 0.0 
0.0 0.0 0.0 
3.279060378780e-08 -4.472177613772e-06 0.0 
-4.472177613772e-06 7.691163215378e-04 0.0 
0.0 0.0 0.0 
-4.587049684535e-08 4.253607591255e-06 0.0 
4.253607591255e-06 5.936448373653e-04 0.0 
0.0 0.0 0.0 
1.390429327230e-07 -4.520299866179e-06 0.0 
-4.520299866179e-06 1.049138122425e-03 0.0 
0.0 0.0 0.0 
5.772141209448e-09 4.361345412390e-06 0.0 
4.361345412390e-06 7.999536085339e-04 0.0 
0.0 0.0 0.0 
-7.530250500931e-08 4.283078027670e-06 0.0 
4.283078027670e-06 5.321078065244e-04 0.0 
0.0 0.0 0.0 
1.480166700318e-08 -4.345117981285e-06 0.0 
-4.345117981285e-06 8.161949502707e-04 0.0 
0.0 0.0 0.0 
8.321184381543e-07 -4.203887782066e-06 0.0 
-4.203887782066e-06 1.532092968131e-04 0.0 
0.0 0.0 0.0 
7.591150730235e-08 -4.417151649699e-06 0.0 
-4.417151649699e-06 9.383892865709e-04 0.0 
0.0 0.0 0.0 
-1.719695378322e-07 -4.540712509580e-06 0.0 
-4.540712509580e-06 9.763243423311e-04 0.0 
0.0 0.0 0.0 
1.735053867247e-07 -3.342397012552e-06 0.0 
-3.342397012552e-06 1.131900755486e-03 0.0 
0.0 0.0 0.0 
3.576043150488e-08 -4.501260329412e-06 0.0 
-4.501260329412e-06 1.000104578013e-03 0.0 
0.0 0.0 0.0 
-1.009773454852e-07 -4.291288648544e-06 0.0 
-4.291288648544e-06 4.105183911924e-04 0.0 
0.0 0.0 0.0 
2.380192487550e-09 -4.537472686375e-06 0.0 
-4.537472686375e-06 9.587394340331e-04 0.0 
0.0 0.0 0.0 
9.627207890883e-07 4.124468992961e-06 0.0 
4.124468992961e-06 1.128237310152e-03 0.0 
0.0 0.0 0.0 
3.056045112526e-07 -4.200503619973e-06 0.0 
-4.200503619973e-06 1.167656345177e-03 0.0 
0.0 0.0 0.0 
-9.682511092901e-08 -4.368716863893e-06 0.0 
-4.368716863893e-06 1.011566779199e-03 0.0 
0.0 0.0 0.0 
-5.075872899774e-08 -4.406879360366e-06 0.0 
-4.406879360366e-06 6.377508899214e-04 0.0 
0.0 0.0 0.0 
4.481213444762e-08 -4.408509797828e-06 0.0 
-4.408509797828e-06 8.770708810373e-04 0.0 
0.0 0.0 0.0 
-4.023516387841e-07 3.914440254988e-06 0.0 
3.914440254988e-06 1.066639928855e-03 0.0 
0.0 0.0 0.0 
-2.140829661323e-07 -4.399659901434e-06 0.0 
-4.399659901434e-06 7.103782197087e-04 0.0 
0.0 0.0 0.0 
5.177892448138e-08 4.236209645425e-06 0.0 
4.236209645425e-06 9.640292247817e-04 0.0 
0.0 0.0 0.0 
1.169243264432e-07 4.344437521627e-06 0.0 
4.344437521627e-06 8.980021214595e-04 0.0 
0.0 0.0 0.0 
9.390691868560e-08 -4.545464425266e-06 0.0 
-4.545464425266e-06 1.021709052739e-03 0.0 
0.0 0.0 0.0 
-3.306153262272e-08 -4.309082854409e-06 0.0 
-4.309082854409e-06 1.002753845872e-03 0.0 
0.0 0.0 0.0 
-1.161055336318e-07 -2.266450373411e-07 0.0 
-2.266450373411e-07 6.437757381030e-04 0.0 
0.0 0.0 0.0 
4.379971962898e-08 7.710225494800e-07 0.0 
7.710225494800e-07 6.435052546612e-04 0.0 
0.0 0.0 0.0 
-1.251685264325e-07 -4.717309190137e-06 0.0 
-4.717309190137e-06 9.066405152114e-04 0.0 
0.0 0.0 0.0 
6.763893822814e-08 4.256486387274e-06 0.0 
4.256486387274e-06 9.025795991147e-04 0.0 
0.0 0.0 0.0 
2.215041305931e-08 -4.420403214484e-06 0.0 
-4.420403214484e-06 7.965852045637e-04 0.0 
0.0 0.0 0.0 
-1.436291959811e-07 -4.394033748243e-06 0.0 
-4.394033748243e-06 8.916667352779e-04 0.0 
0.0 0.0 0.0 
-1.696584517319e-08 4.305271984235e-06 0.0 
4.305271984235e-06 7.656145445676e-04 0.0 
0.0 0.0 0.0 
-6.007273765096e-07 2.982272953653e-06 0.0 
2.982272953653e-06 1.081216199458e-03 0.0 
0.0 0.0 0.0 
-4.551546539666e-08 4.309019444887e-06 0.0 
4.309019444887e-06 6.364480271981e-04 0.0 
0.0 0.0 0.0 
-3.129210001118e-07 -7.731049325008e-07 0.0 
-7.731049325008e-07 1.230060598979e-03 0.0 
0.0 0.0 0.0 
3.498521634615e-07 3.497642361898e-06 0.0 
3.497642361898e-06 7.303468818278e-04 0.0 
0.0 0.0 0.0 
-4.264422925893e-09 -4.328779151607e-06 0.0 
-4.328779151607e-06 7.404998502247e-04 0.0 
0.0 0.0 0.0 
1.554599493581e-08 4.411566881576e-06 0.0 
4.411566881576e-06 7.676838029052e-04 0.0 
0.0 0.0 0.0 
-1.675512617538e-07 -4.290642788868e-06 0.0 
-4.290642788868e-06 3.838865296557e-04 0.0 
0.0 0.0 0.0 
5.695349236667e-08 -4.426992771678e-06 0.0 
-4.426992771678e-06 6.784798218715e-04 0.0 
0.0 0.0 0.0 
1.822296891163e-08 4.267017344104e-06 0.0 
4.267017344104e-06 8.415317817598e-04 0.0 
0.0 0.0 0.0 
-9.716406501603e-08 4.272018394603e-06 0.0 
4.272018394603e-06 7.884941783431e-04 0.0 
0.0 0.0 0.0 
-4.657079499815e-09 4.191281583809e-06 0.0 
4.191281583809e-06 8.923104751533e-04 0.0 
0.0 0.0 0.0 
-1.343475758420e-07 4.285952458100e-06 0.0 
4.285952458100e-06 9.174061683090e-04 0.0 
0.0 0.0 0.0 
-1.696888097813e-07 -4.399106237732e-06 0.0 
-4.399106237732e-06 9.522020867123e-04 0.0 
0.0 0.0 0.0 
-3.742879217672e-07 -2.407635489355e-06 0.0 
-2.407635489355e-06 1.690328995023e-04 0.0 
0.0 0.0 0.0 
6.651258233070e-08 4.471912599817e-06 0.0 
4.471912599817e-06 6.415475333497e-04 0.0 
0.0 0.0 0.0 
-1.318926163840e-07 -4.234013666614e-06 0.0 
-4.234013666614e-06 6.086392750948e-04 0.0 
0.0 0.0 0.0 
-2.116018567033e-07 4.096753985155e-06 0.0 
4.096753985155e-06 8.636301516833e-04 0.0 
0.0 0.0 0.0 
-1.846994183152e-07 -4.395150901648e-06 0.0 
-4.395150901648e-06 8.992095384499e-04 0.0 
0.0 0.0 0.0 
2.126908931199e-07 4.093767178523e-06 0.0 
4.093767178523e-06 1.062453219489e-03 0.0 
0.0 0.0 0.0 
-6.630755352566e-07 4.814521035106e-06 0.0 
4.814521035106e-06 2.659993041723e-04 0.0 
0.0 0.0 0.0 
1.053702700649e-07 -4.069717090683e-06 0.0 
-4.069717090683e-06 2.783909501662e-04 0.0 
0.0 0.0 0.0 
-1.173192998305e-08 4.292861310919e-06 0.0 
4.292861310919e-06 7.468777655373e-04 0.0 
0.0 0.0 0.0 
8.061256351333e-08 -4.475105193233e-06 0.0 
-4.475105193233e-06 6.428964228749e-04 0.0 
0.0 0.0 0.0 
-2.593940746642e-07 -4.937470139632e-06 0.0 
-4.937470139632e-06 5.828951684257e-04 0.0 
0.0 0.0 0.0 
-8.931730466344e-09 -3.942140154589e-06 0.0 
-3.942140154589e-06 6.156634579064e-04 0.0 
0.0 0.0 0.0 
3.030351902744e-08 -4.367171372419e-06 0.0 
-4.367171372419e-06 8.933140315999e-04 0.0 
0.0 0.0 0.0 
-2.187912602203e-07 -4.328171717888e-06 0.0 
-4.328171717888e-06 2.711575365277e-04 0.0 
0.0 0.0 0.0 
2.955127964555e-08 4.359275527848e-06 0.0 
4.359275527848e-06 7.323364737013e-04 0.0 
0.0 0.0 0.0 
-2.869203485911e-08 -4.423452969946e-06 0.0 
-4.423452969946e-06 9.602042523573e-04 0.0 
0.0 0.0 0.0 
-8.281215957417e-08 4.683527580967e-06 0.0 
4.683527580967e-06 2.765148430259e-04 0.0 
0.0 0.0 0.0 
-1.866326907463e-07 -6.509066442096e-07 0.0 
-6.509066442096e-07 1.176507028224e-03 0.0 
0.0 0.0 0.0 
-3.733640052683e-08 -4.153011977452e-06 0.0 
-4.153011977452e-06 1.058735683897e-03 0.0 
0.0 0.0 0.0 
1.077085418633e-07 -4.444286811184e-06 0.0 
-4.444286811184e-06 6.980767144922e-04 0.0 
0.0 0.0 0.0 
2.523103259655e-08 4.345078474304e-06 0.0 
4.345078474304e-06 9.848093933740e-04 0.0 
0.0 0.0 0.0 
2.566221843914e-07 -1.421392375680e-07 0.0 
-1.421392375680e-07 1.152653467167e-04 0.0 
0.0 0.0 0.0 
-9.263596656428e-08 -4.600117371927e-06 0.0 
-4.600117371927e-06 9.250817871580e-04 0.0 
0.0 0.0 0.0 
-5.844636108421e-09 -4.281322115549e-06 0.0 
-4.281322115549e-06 7.821388992022e-04 0.0 
0.0 0.0 0.0 
1.304566915383e-06 -4.085669394020e-08 0.0 
-4.085669394020e-08 1.144617916493e-04 0.0 
0.0 0.0 0.0 
1.108209666256e-07 4.075597789036e-06 0.0 
4.075597789036e-06 1.058002728933e-03 0.0 
0.0 0.0 0.0 
-3.778546213695e-07 -4.319146188621e-06 0.0 
-4.319146188621e-06 2.517353973497e-04 0.0 
0.0 0.0 0.0 
-1.827263123033e-07 -4.307058385298e-06 0.0 
-4.307058385298e-06 8.649139003070e-04 0.0 
0.0 0.0 0.0 
-3.348532240377e-08 -4.323614617823e-06 0.0 
-4.323614617823e-06 7.896517287238e-04 0.0 
0.0 0.0 0.0 
-5.937528024802e-08 -4.384536783923e-06 0.0 
-4.384536783923e-06 6.755064853330e-04 0.0 
0.0 0.0 0.0 
-5.108692902045e-08 4.525441005822e-06 0.0 
4.525441005822e-06 8.188693153648e-04 0.0 
0.0 0.0 0.0 
-1.628995913716e-07 4.084244713704e-06 0.0 
4.084244713704e-06 1.085745739346e-03 0.0 
0.0 0.0 0.0 
-1.433510588011e-08 4.596008789159e-06 0.0 
4.596008789159e-06 8.823213456126e-04 0.0 
0.0 0.0 0.0 
-3.824774941208e-10 4.285245564984e-06 0.0 
4.285245564984e-06 7.732745712288e-04 0.0 
0.0 0.0 0.0 
-6.978179034611e-09 -4.268039703210e-06 0.0 
-4.268039703210e-06 7.481390550828e-04 0.0 
0.0 0.0 0.0 
-1.639163946354e-06 2.322659649138e-06 0.0 
2.322659649138e-06 7.228072507148e-05 0.0 
0.0 0.0 0.0 
-1.474338491292e-07 4.342343502696e-06 0.0 
4.342343502696e-06 2.153314101501e-04 0.0 
0.0 0.0 0.0 
-1.233634117082e-08 -4.055701644972e-06 0.0 
-4.055701644972e-06 1.026316013348e-03 0.0 
0.0 0.0 0.0 
-2.348195997648e-07 -4.933613476817e-06 0.0 
-4.933613476817e-06 8.251714514820e-04 0.0 
0.0 0.0 0.0 
-3.866297266786e-07 4.145065895170e-06 0.0 
4.145065895170e-06 1.052539085378e-03 0.0 
0.0 0.0 0.0 
-5.873318731364e-08 4.346516337166e-06 0.0 
4.346516337166e-06 4.244735272083e-04 0.0 
0.0 0.0 0.0 
-1.009285393039e-07 4.488924225624e-06 0.0 
4.488924225624e-06 1.003114864726e-03 0.0 
0.0 0.0 0.0 
-2.005281936057e-07 -4.338302357974e-06 0.0 
-4.338302357974e-06 1.062271616985e-03 0.0 
0.0 0.0 0.0 
6.106454368826e-07 4.025184406070e-06 0.0 
4.025184406070e-06 6.388397597792e-04 0.0 
0.0 0.0 0.0 
-8.529380102207e-08 3.821248198229e-06 0.0 
3.821248198229e-06 1.024943873009e-03 0.0 
0.0 0.0 0.0 
4.203823267268e-08 -4.541240558705e-06 0.0 
-4.541240558705e-06 9.862149018405e-04 0.0 
0.0 0.0 0.0 
3.620002808624e-08 4.319849087998e-06 0.0 
4.319849087998e-06 8.680915065942e-04 0.0 
0.0 0.0 0.0 
3.131524395350e-08 4.455025386724e-06 0.0 
4.455025386724e-06 7.046823698886e-04 0.0 
0.0 0.0 0.0 
3.416160110348e-08 -4.481116842130e-06 0.0 
-4.481116842130e-06 7.415514611124e-04 0.0 
0.0 0.0 0.0 
-1.672065218505e-07 -4.651438585445e-06 0.0 
-4.651438585445e-06 1.110923800322e-03 0.0 
0.0 0.0 0.0 
-4.039462508931e-08 4.457525284913e-06 0.0 
4.457525284913e-06 7.559699058159e-04 0.0 
0.0 0.0 0.0 
-1.867237220399e-08 4.249543638642e-06 0.0 
4.249543638642e-06 8.150212385472e-04 0.0 
0.0 0.0 0.0 
-4.753462334861e-08 4.467659881492e-06 0.0 
4.467659881492e-06 7.595253981902e-04 0.0 
0.0 0.0 0.0 
-2.112729247106e-08 4.494180086579e-06 0.0 
4.494180086579e-06 9.461391173380e-04 0.0 
0.0 0.0 0.0 
-2.647154473401e-08 -4.337711191116e-06 0.0 
-4.337711191116e-06 7.061669777495e-04 0.0 
0.0 0.0 0.0 
-1.151565615087e-07 4.350950283799e-06 0.0 
4.350950283799e-06 4.361808900659e-04 0.0 
0.0 0.0 0.0 
-1.275998784411e-08 4.282535925606e-06 0.0 
4.282535925606e-06 7.712405143534e-04 0.0 
0.0 0.0 0.0 
-1.147222635778e-07 4.291796896866e-06 0.0 
4.291796896866e-06 4.706318825245e-04 0.0 
0.0 0.0 0.0 
-1.957483836135e-07 4.259077583568e-06 0.0 
4.259077583568e-06 8.904331531041e-04 0.0 
0.0 0.0 0.0 
-5.677102854484e-08 -4.366817456370e-06 0.0 
-4.366817456370e-06 4.719765176313e-04 0.0 
0.0 0.0 0.0 
-1.142168911672e-07 -4.428372788782e-06 0.0 
-4.428372788782e-06 8.577353270698e-04 0.0 
0.0 0.0 0.0 
-2.388921894747e-07 -4.429611636937e-06 0.0 
-4.429611636937e-06 1.038981888400e-03 0.0 
0.0 0.0 0.0 
-8.592129974172e-08 4.254904373146e-06 0.0 
4.254904373146e-06 1.001941622761e-03 0.0 
0.0 0.0 0.0 
-3.482958377266e-08 4.291602729662e-06 0.0 
4.291602729662e-06 6.707748463797e-04 0.0 
0.0 0.0 0.0 
1.750530673750e-07 4.340100590950e-06 0.0 
4.340100590950e-06 8.581248567663e-04 0.0 
0.0 0.0 0.0 
9.779422671663e-08 4.336834273509e-06 0.0 
4.336834273509e-06 1.012359919405e-03 0.0 
0.0 0.0 0.0 
8.724948785677e-08 -4.551419433194e-06 0.0 
-4.551419433194e-06 1.013787628462e-03 0.0 
0.0 0.0 0.0 
-8.955404423583e-07 -4.249598319042e-06 0.0 
-4.249598319042e-06 2.119757172330e-04 0.0 
0.0 0.0 0.0 
-1.278230796764e-07 4.266530602011e-06 0.0 
4.266530602011e-06 8.831206783906e-04 0.0 
0.0 0.0 0.0 
3.082256379017e-07 5.573901820323e-06 0.0 
5.573901820323e-06 1.106899433943e-03 0.0 
0.0 0.0 0.0 
-3.722317217791e-07 4.035520253715e-06 0.0 
4.035520253715e-06 4.645171059110e-04 0.0 
0.0 0.0 0.0 
4.203686287951e-10 -4.423003598263e-06 0.0 
-4.423003598263e-06 7.608667768746e-04 0.0 
0.0 0.0 0.0 
-1.820579488498e-06 -5.299023825284e-06 0.0 
-5.299023825284e-06 1.025300128785e-04 0.0 
0.0 0.0 0.0 
1.603781507598e-07 4.286069336489e-06 0.0 
4.286069336489e-06 1.039863264121e-03 0.0 
0.0 0.0 0.0 
-1.640186811924e-07 4.361957876040e-06 0.0 
4.361957876040e-06 4.091831696424e-04 0.0 
0.0 0.0 0.0 
2.844993673978e-07 3.242021327637e-06 0.0 
3.242021327637e-06 7.305547562422e-04 0.0 
0.0 0.0 0.0 
4.598961322877e-08 4.961690385950e-06 0.0 
4.961690385950e-06 9.182115037705e-04 0.0 
0.0 0.0 0.0 
1.518066559125e-07 -4.357917476937e-06 0.0 
-4.357917476937e-06 8.592544524895e-04 0.0 
0.0 0.0 0.0 
6.544578428080e-07 3.966781473506e-06 0.0 
3.966781473506e-06 8.240086499043e-04 0.0 
0.0 0.0 0.0 
-9.833908132251e-10 4.296971181396e-06 0.0 
4.296971181396e-06 8.073863619109e-04 0.0 
0.0 0.0 0.0 
-3.578823413175e-07 -4.537895732513e-06 0.0 
-4.537895732513e-06 5.184035980570e-04 0.0 
0.0 0.0 0.0 
-1.036532504273e-08 -3.643906431298e-06 0.0 
-3.643906431298e-06 5.510245418228e-04 0.0 
0.0 0.0 0.0 
2.720911074228e-08 -4.407494516362e-06 0.0 
-4.407494516362e-06 1.041291168834e-03 0.0 
0.0 0.0 0.0 
-3.536330972498e-08 -4.768076051806e-06 0.0 
-4.768076051806e-06 8.549816246561e-04 0.0 
0.0 0.0 0.0 
-2.239733376541e-08 -4.366488244941e-06 0.0 
-4.366488244941e-06 7.374155704298e-04 0.0 
0.0 0.0 0.0 
-3.682761784418e-08 4.648024208789e-06 0.0 
4.648024208789e-06 9.239291838841e-04 0.0 
0.0 0.0 0.0 
-4.224611616088e-08 4.255006979730e-06 0.0 
4.255006979730e-06 7.093214280876e-04 0.0 
0.0 0.0 0.0 
-1.037220996869e-07 -4.341982393904e-06 0.0 
-4.341982393904e-06 4.452857623323e-04 0.0 
0.0 0.0 0.0 
7.563876855965e-07 3.357038389939e-06 0.0 
3.357038389939e-06 5.165851042084e-04 0.0 
0.0 0.0 0.0 
-5.563798358699e-07 -4.029773138806e-06 0.0 
-4.029773138806e-06 7.644530392410e-04 0.0 
0.0 0.0 0.0 
-1.576343103826e-07 1.631296955832e-07 0.0 
1.631296955832e-07 6.442645012641e-04 0.0 
0.0 0.0 0.0 
-2.301705241958e-07 -4.448339502700e-06 0.0 
-4.448339502700e-06 1.003175125898e-03 0.0 
0.0 0.0 0.0 
-4.638520023637e-08 -4.348527600764e-06 0.0 
-4.348527600764e-06 6.720270504015e-04 0.0 
0.0 0.0 0.0 
1.081922970547e-06 4.027438756938e-06 0.0 
4.027438756938e-06 1.133566719364e-03 0.0 
0.0 0.0 0.0 
1.164993785885e-07 5.115552309236e-06 0.0 
5.115552309236e-06 1.026409084625e-03 0.0 
0.0 0.0 0.0 
-1.753933920323e-08 -4.450262305998e-06 0.0 
-4.450262305998e-06 7.457496334247e-04 0.0 
0.0 0.0 0.0 
-7.423394066119e-08 -4.906788447296e-06 0.0 
-4.906788447296e-06 1.143344544792e-03 0.0 
0.0 0.0 0.0 
-7.072990548807e-08 -4.437746311648e-06 0.0 
-4.437746311648e-06 4.991132548438e-04 0.0 
0.0 0.0 0.0 
-1.484685665520e-07 4.221345327995e-06 0.0 
4.221345327995e-06 1.105760046141e-03 0.0 
0.0 0.0 0.0 
6.824126375093e-09 -4.288790025125e-06 0.0 
-4.288790025125e-06 8.086781721648e-04 0.0 
0.0 0.0 0.0 
-3.490242539428e-10 4.283894935275e-06 0.0 
4.283894935275e-06 8.945602014143e-04 0.0 
0.0 0.0 0.0 
7.870266616194e-08 -4.236411107981e-06 0.0 
-4.236411107981e-06 1.053104019087e-03 0.0 
0.0 0.0 0.0 
7.546493496768e-08 -4.159770312757e-06 0.0 
-4.159770312757e-06 5.260134605536e-04 0.0 
0.0 0.0 0.0 
-9.089737118551e-08 4.302654632043e-06 0.0 
4.302654632043e-06 8.491598718392e-04 0.0 
0.0 0.0 0.0 
-2.214275829360e-08 -4.353884219179e-06 0.0 
-4.353884219179e-06 7.106326583717e-04 0.0 
0.0 0.0 0.0 
-8.380501981264e-08 -4.338768832299e-06 0.0 
-4.338768832299e-06 8.234989524136e-04 0.0 
0.0 0.0 0.0 
-6.577895073079e-08 -4.309737470822e-06 0.0 
-4.309737470822e-06 4.589641232438e-04 0.0 
0.0 0.0 0.0 
-4.085719107483e-08 4.810698789398e-06 0.0 
4.810698789398e-06 9.223050195917e-04 0.0 
0.0 0.0 0.0 
-4.329919667256e-08 4.287818426750e-06 0.0 
4.287818426750e-06 6.741202298521e-04 0.0 
0.0 0.0 0.0 
1.642521829659e-08 4.359616675275e-06 0.0 
4.359616675275e-06 7.951283438550e-04 0.0 
0.0 0.0 0.0 
-1.428813568571e-07 4.207862285840e-06 0.0 
4.207862285840e-06 8.223573726984e-04 0.0 
0.0 0.0 0.0 
-2.413263841539e-06 -1.561273208809e-06 0.0 
-1.561273208809e-06 9.210717533992e-05 0.0 
0.0 0.0 0.0 
-2.152855449467e-08 4.667993048169e-06 0.0 
4.667993048169e-06 8.218874483019e-04 0.0 
0.0 0.0 0.0 
-4.813007440374e-07 -5.556131866750e-06 0.0 
-5.556131866750e-06 1.607943320399e-04 0.0 
0.0 0.0 0.0 
-5.257971106287e-07 4.613328325057e-06 0.0 
4.613328325057e-06 1.831431315062e-04 0.0 
0.0 0.0 0.0 
2.604054283317e-08 4.263674085637e-06 0.0 
4.263674085637e-06 7.593452628196e-04 0.0 
0.0 0.0 0.0 
-1.014009618494e-07 -4.554656856790e-06 0.0 
-4.554656856790e-06 1.007001303776e-03 0.0 
0.0 0.0 0.0 
2.233264813079e-07 4.040725825843e-06 0.0 
4.040725825843e-06 8.504530752935e-04 0.0 
0.0 0.0 0.0 
-4.621754106093e-07 -4.499530867915e-06 0.0 
-4.499530867915e-06 4.547449915047e-04 0.0 
0.0 0.0 0.0 
0.0 3.020899494113e-07 0.0 
3.020899494113e-07 1.231285456047e-03 0.0 
0.0 0.0 0.0 
-3.578012464978e-06 3.921249834544e-06 0.0 
3.921249834544e-06 3.838309764981e-05 0.0 
0.0 0.0 0.0 
-1.764979936647e-07 -3.075519556757e-06 0.0 
-3.075519556757e-06 4.869076308471e-04 0.0 
0.0 0.0 0.0 
-3.726492447953e-08 4.219524608215e-06 0.0 
4.219524608215e-06 7.626976477080e-04 0.0 
0.0 0.0 0.0 
1.939050187083e-08 -4.482733278115e-06 0.0 
-4.482733278115e-06 7.255680399663e-04 0.0 
0.0 0.0 0.0 
-1.223080344781e-07 -3.799609818246e-06 0.0 
-3.799609818246e-06 6.000981338796e-04 0.0 
0.0 0.0 0.0 
-8.870244894155e-08 4.147837245814e-06 0.0 
4.147837245814e-06 5.170463761699e-04 0.0 
0.0 0.0 0.0 
-4.303655820603e-08 -4.556778610788e-06 0.0 
-4.556778610788e-06 7.915959725207e-04 0.0 
0.0 0.0 0.0 
2.753590999660e-08 -4.354590227485e-06 0.0 
-4.354590227485e-06 8.428232974260e-04 0.0 
0.0 0.0 0.0 
4.708613499105e-09 4.623772545430e-06 0.0 
4.623772545430e-06 8.847726704877e-04 0.0 
0.0 0.0 0.0 
-5.030481188273e-07 4.649950999191e-06 0.0 
4.649950999191e-06 1.047199677426e-03 0.0 
0.0 0.0 0.0 
-5.254342956285e-07 4.161067369788e-06 0.0 
4.161067369788e-06 2.353413963008e-04 0.0 
0.0 0.0 0.0 
3.947657600811e-08 4.337020278523e-06 0.0 
4.337020278523e-06 6.967193017011e-04 0.0 
0.0 0.0 0.0 
-9.382178700612e-09 4.258540686795e-06 0.0 
4.258540686795e-06 7.517365689174e-04 0.0 
0.0 0.0 0.0 
1.904765216665e-07 -4.625354602616e-06 0.0 
-4.625354602616e-06 3.898429887288e-04 0.0 
0.0 0.0 0.0 
1.669540039551e-08 4.977928113753e-06 0.0 
4.977928113753e-06 6.714452814807e-04 0.0 
0.0 0.0 0.0 
-7.493740128428e-08 -4.601069774904e-06 0.0 
-4.601069774904e-06 8.516661088429e-04 0.0 
0.0 0.0 0.0 
1.195778576157e-07 -4.454164948698e-06 0.0 
-4.454164948698e-06 9.324183651791e-04 0.0 
0.0 0.0 0.0 
7.847101024527e-07 7.967577666975e-08 0.0 
7.967577666975e-08 1.147502235468e-04 0.0 
0.0 0.0 0.0 
-3.090614805745e-06 -5.864503229884e-06 0.0 
-5.864503229884e-06 6.585032708251e-05 0.0 
0.0 0.0 0.0 
4.383068774594e-08 -4.136067253930e-06 0.0 
-4.136067253930e-06 2.650386925598e-04 0.0 
0.0 0.0 0.0 
-3.929604219799e-08 -4.447914302792e-06 0.0 
-4.447914302792e-06 7.531594156707e-04 0.0 
0.0 0.0 0.0 
-5.082589249472e-08 -4.356186849333e-06 0.0 
-4.356186849333e-06 5.605516638814e-04 0.0 
0.0 0.0 0.0 
-7.208517127655e-08 -4.225761906457e-06 0.0 
-4.225761906457e-06 4.918044367879e-04 0.0 
0.0 0.0 0.0 
-6.935768914751e-08 -4.347168605648e-06 0.0 
-4.347168605648e-06 4.374811639698e-04 0.0 
0.0 0.0 0.0 
-1.299140461875e-08 4.248019331088e-06 0.0 
4.248019331088e-06 7.866666808647e-04 0.0 
0.0 0.0 0.0 
1.239650693208e-08 4.256504221457e-06 0.0 
4.256504221457e-06 9.048906212208e-04 0.0 
0.0 0.0 0.0 
-5.234103761520e-08 4.276773104297e-06 0.0 
4.276773104297e-06 7.793017141280e-04 0.0 
0.0 0.0 0.0 
-7.151298653252e-08 4.206796290033e-06 0.0 
4.206796290033e-06 5.591525880846e-04 0.0 
0.0 0.0 0.0 
-5.610748310403e-08 -4.590571635597e-06 0.0 
-4.590571635597e-06 8.842730000833e-04 0.0 
0.0 0.0 0.0 
6.203040756603e-07 3.735501668733e-06 0.0 
3.735501668733e-06 7.423147108820e-04 0.0 
0.0 0.0 0.0 
2.139301833459e-07 4.864247065010e-06 0.0 
4.864247065010e-06 9.823617893909e-04 0.0 
0.0 0.0 0.0 
-6.079152581329e-08 -4.452759800697e-06 0.0 
-4.452759800697e-06 7.807614719300e-04 0.0 
0.0 0.0 0.0 
-5.046847184609e-08 -4.409216428917e-06 0.0 
-4.409216428917e-06 7.881840503448e-04 0.0 
0.0 0.0 0.0 
-4.454798715470e-07 -4.573819726843e-06 0.0 
-4.573819726843e-06 3.898948781518e-04 0.0 
0.0 0.0 0.0 
-8.257860217853e-08 -4.305739844145e-06 0.0 
-4.305739844145e-06 5.873369673972e-04 0.0 
0.0 0.0 0.0 
1.432151286451e-09 4.205506394134e-06 0.0 
4.205506394134e-06 8.065758563429e-04 0.0 
0.0 0.0 0.0 
-2.729552288638e-07 3.879383756012e-06 0.0 
3.879383756012e-06 8.746987346102e-04 0.0 
0.0 0.0 0.0 
-4.677042868551e-07 4.128868708720e-06 0.0 
4.128868708720e-06 8.157813184992e-04 0.0 
0.0 0.0 0.0 
-3.947455593512e-07 -3.581857643799e-06 0.0 
-3.581857643799e-06 4.231681465063e-04 0.0 
0.0 0.0 0.0 
-2.908917662303e-08 4.301932215742e-06 0.0 
4.301932215742e-06 8.141742653243e-04 0.0 
0.0 0.0 0.0 
-5.766568411669e-08 -4.059741502470e-06 0.0 
-4.059741502470e-06 4.834212598306e-04 0.0 
0.0 0.0 0.0 
-2.650205485066e-07 4.224301986699e-06 0.0 
4.224301986699e-06 2.210584415154e-04 0.0 
0.0 0.0 0.0 
6.538597885353e-07 -4.399205340468e-06 0.0 
-4.399205340468e-06 1.107697459333e-03 0.0 
0.0 0.0 0.0 
1.326707033122e-08 4.566712778221e-06 0.0 
4.566712778221e-06 2.387157161632e-04 0.0 
0.0 0.0 0.0 
-8.432251830115e-08 4.270335671877e-06 0.0 
4.270335671877e-06 5.087763789775e-04 0.0 
0.0 0.0 0.0 
-4.679712428679e-08 -4.564464216862e-06 0.0 
-4.564464216862e-06 7.945753344325e-04 0.0 
0.0 0.0 0.0 
8.335400631942e-07 3.166386978171e-06 0.0 
3.166386978171e-06 4.523780608121e-04 0.0 
0.0 0.0 0.0 
1.373026470297e-08 -4.531058891523e-06 0.0 
-4.531058891523e-06 8.087483058825e-04 0.0 
0.0 0.0 0.0 
1.436409318156e-07 -4.970108469913e-06 0.0 
-4.970108469913e-06 3.636138349663e-04 0.0 
0.0 0.0 0.0 
1.117129072803e-06 -3.804292558737e-06 0.0 
-3.804292558737e-06 6.977814593603e-04 0.0 
0.0 0.0 0.0 
-1.206295034972e-07 -4.340015289831e-06 0.0 
-4.340015289831e-06 8.156845628651e-04 0.0 
0.0 0.0 0.0 
-7.119041267600e-08 -4.292707074735e-06 0.0 
-4.292707074735e-06 7.024010314785e-04 0.0 
0.0 0.0 0.0 
5.182559403849e-08 -4.438254730767e-06 0.0 
-4.438254730767e-06 7.337556916642e-04 0.0 
0.0 0.0 0.0 
-1.366042791107e-07 -1.677568122155e-06 0.0 
-1.677568122155e-06 1.005733446098e-04 0.0 
0.0 0.0 0.0 
-1.408608139797e-06 -4.567564102467e-06 0.0 
-4.567564102467e-06 1.060937983135e-03 0.0 
0.0 0.0 0.0 
-6.267621643907e-08 -4.135460000476e-06 0.0 
-4.135460000476e-06 5.792936039333e-04 0.0 
0.0 0.0 0.0 
-3.536292458861e-07 4.703503378783e-06 0.0 
4.703503378783e-06 1.059309933486e-03 0.0 
0.0 0.0 0.0 
-6.302317800966e-08 -4.479874915882e-06 0.0 
-4.479874915882e-06 8.961839060782e-04 0.0 
0.0 0.0 0.0 
-1.860394405195e-08 4.402833899214e-06 0.0 
4.402833899214e-06 8.416304877248e-04 0.0 
0.0 0.0 0.0 
-9.412495993733e-08 -4.068059652352e-06 0.0 
-4.068059652352e-06 8.430880487795e-04 0.0 
0.0 0.0 0.0 
-7.595991535769e-08 4.186573194904e-06 0.0 
4.186573194904e-06 5.247252383977e-04 0.0 
0.0 0.0 0.0 
9.398298708163e-07 3.589895866748e-06 0.0 
3.589895866748e-06 1.542403448609e-04 0.0 
0.0 0.0 0.0 
-7.342783764352e-07 3.191649734352e-06 0.0 
3.191649734352e-06 9.961544396120e-05 0.0 
0.0 0.0 0.0 
1.407824197219e-07 4.401893803192e-06 0.0 
4.401893803192e-06 8.691411879240e-04 0.0 
0.0 0.0 0.0 
-5.510479520465e-07 4.286523251645e-06 0.0 
4.286523251645e-06 1.053410617395e-03 0.0 
0.0 0.0 0.0 
3.799866177268e-08 -3.933398119034e-06 0.0 
-3.933398119034e-06 4.749091983716e-04 0.0 
0.0 0.0 0.0 
6.627344451005e-09 4.355922610438e-06 0.0 
4.355922610438e-06 9.101483503950e-04 0.0 
0.0 0.0 0.0 
-6.528109841586e-08 4.322687025344e-06 0.0 
4.322687025344e-06 4.287589314995e-04 0.0 
0.0 0.0 0.0 
-1.237941694709e-07 -4.553462720036e-06 0.0 
-4.553462720036e-06 9.186427911234e-04 0.0 
0.0 0.0 0.0 
-4.251914901277e-07 2.467378936417e-06 0.0 
2.467378936417e-06 1.175113506726e-03 0.0 
0.0 0.0 0.0 
-1.619530971775e-06 1.446997534857e-06 0.0 
1.446997534857e-06 1.518606387196e-05 0.0 
0.0 0.0 0.0 
0.0 -7.865745162809e-07 0.0 
-7.865745162809e-07 1.230552658860e-03 0.0 
0.0 0.0 0.0 
0.0 7.348141286645e-08 0.0 
7.348141286645e-08 1.230810611035e-03 0.0 
0.0 0.0 0.0 
-1.985027165974e-07 -4.515416441543e-06 0.0 
-4.515416441543e-06 7.128755223951e-04 0.0 
0.0 0.0 0.0 
-2.682023070300e-08 -4.039243777144e-06 0.0 
-4.039243777144e-06 5.710804053123e-04 0.0 
0.0 0.0 0.0 
3.611042576068e-08 -4.348393278478e-06 0.0 
-4.348393278478e-06 8.695238614933e-04 0.0 
0.0 0.0 0.0 
-5.623848031711e-08 -4.416299629999e-06 0.0 
-4.416299629999e-06 5.334963316339e-04 0.0 
0.0 0.0 0.0 
7.371309793669e-07 -4.035295076284e-06 0.0 
-4.035295076284e-06 1.560017229292e-04 0.0 
0.0 0.0 0.0 
-3.213778669298e-06 -3.716317819064e-06 0.0 
-3.716317819064e-06 7.224715688925e-05 0.0 
0.0 0.0 0.0 
-6.640075327358e-07 -3.673452334185e-06 0.0 
-3.673452334185e-06 1.114189703594e-03 0.0 
0.0 0.0 0.0 
-1.144154910815e-07 -4.814956652972e-06 0.0 
-4.814956652972e-06 8.796151320232e-04 0.0 
0.0 0.0 0.0 
-1.280943119353e-06 -4.214512452470e-06 0.0 
-4.214512452470e-06 6.515143683219e-04 0.0 
0.0 0.0 0.0 
7.161247081999e-07 -2.131305549953e-07 0.0 
-2.131305549953e-07 1.230488226966e-03 0.0 
0.0 0.0 0.0 
-4.455561948280e-07 -4.779658748570e-06 0.0 
-4.779658748570e-06 3.008821371375e-04 0.0 
0.0 0.0 0.0 
-6.207669991376e-07 -2.610847632805e-07 0.0 
-2.610847632805e-07 1.230953171758e-03 0.0 
0.0 0.0 0.0 
5.185718432443e-08 4.248652531334e-06 0.0 
4.248652531334e-06 8.780669681669e-04 0.0 
0.0 0.0 0.0 
5.450536422202e-08 -4.052173181047e-06 0.0 
-4.052173181047e-06 5.622774942942e-04 0.0 
0.0 0.0 0.0 
1.123713566642e-08 4.255190285757e-06 0.0 
4.255190285757e-06 8.337544472155e-04 0.0 
0.0 0.0 0.0 
-4.168206924060e-08 4.178200130087e-06 0.0 
4.178200130087e-06 5.345750293850e-04 0.0 
0.0 0.0 0.0 
-1.519910863834e-09 4.726546241111e-06 0.0 
4.726546241111e-06 2.537754868734e-04 0.0 
0.0 0.0 0.0 
3.459074360279e-08 4.351492794948e-06 0.0 
4.351492794948e-06 4.993082203764e-04 0.0 
0.0 0.0 0.0 
4.637979933442e-08 4.409762870538e-06 0.0 
4.409762870538e-06 9.317184921958e-04 0.0 
0.0 0.0 0.0 
1.879738060762e-07 -4.654732420021e-06 0.0 
-4.654732420021e-06 1.061216779478e-03 0.0 
0.0 0.0 0.0 
-7.766734166914e-08 4.151991656348e-06 0.0 
4.151991656348e-06 5.429968490052e-04 0.0 
0.0 0.0 0.0 
-5.549201975708e-08 4.329635329026e-06 0.0 
4.329635329026e-06 9.443777682594e-04 0.0 
0.0 0.0 0.0 
-6.795322607944e-07 9.015326763008e-07 0.0 
9.015326763008e-07 1.401948884627e-05 0.0 
0.0 0.0 0.0 
-9.531188582823e-08 4.062362245521e-06 0.0 
4.062362245521e-06 5.511620449412e-04 0.0 
0.0 0.0 0.0 
-6.870796365188e-08 -4.717090999347e-06 0.0 
-4.717090999347e-06 9.772270858150e-04 0.0 
0.0 0.0 0.0 
6.890458803532e-08 4.413528075984e-06 0.0 
4.413528075984e-06 4.883383693246e-04 0.0 
0.0 0.0 0.0 
8.029817122335e-08 -3.973471617509e-06 0.0 
-3.973471617509e-06 4.392365576267e-04 0.0 
0.0 0.0 0.0 
1.229079105158e-08 -4.255017010607e-06 0.0 
-4.255017010607e-06 8.351493438596e-04 0.0 
0.0 0.0 0.0 
7.891160020979e-07 4.766670547159e-06 0.0 
4.766670547159e-06 2.331458797022e-04 0.0 
0.0 0.0 0.0 
-1.703769609951e-06 -2.789671461783e-06 0.0 
-2.789671461783e-06 3.230003199743e-04 0.0 
0.0 0.0 0.0 
1.013129582228e-06 -4.156344588987e-06 0.0 
-4.156344588987e-06 3.589699022959e-04 0.0 
0.0 0.0 0.0 
6.201045810172e-08 4.288791636095e-06 0.0 
4.288791636095e-06 4.266223163327e-04 0.0 
0.0 0.0 0.0 
-8.536704576567e-08 -4.384445793902e-06 0.0 
-4.384445793902e-06 7.643117488549e-04 0.0 
0.0 0.0 0.0 
-4.299488964854e-08 4.369462799079e-06 0.0 
4.369462799079e-06 7.318115164732e-04 0.0 
0.0 0.0 0.0 
5.940142822070e-09 -4.596892053039e-06 0.0 
-4.596892053039e-06 9.453963388439e-04 0.0 
0.0 0.0 0.0 
1.146594263979e-07 3.038371336882e-06 0.0 
3.038371336882e-06 1.121152627575e-03 0.0 
0.0 0.0 0.0 
6.285234908088e-07 2.891290051796e-06 0.0 
2.891290051796e-06 3.883242495686e-04 0.0 
0.0 0.0 0.0 
1.237611098048e-07 -5.651903108206e-06 0.0 
-5.651903108206e-06 9.378716751183e-04 0.0 
0.0 0.0 0.0 
-1.782809282425e-07 2.824965569687e-06 0.0 
2.824965569687e-06 1.124980931119e-03 0.0 
0.0 0.0 0.0 
-7.399743129355e-08 4.299629269242e-06 0.0 
4.299629269242e-06 4.977413181404e-04 0.0 
0.0 0.0 0.0 
1.423847062476e-08 4.313419027838e-06 0.0 
4.313419027838e-06 1.611522405109e-04 0.0 
0.0 0.0 0.0 
2.266015819430e-09 -3.582113673587e-06 0.0 
-3.582113673587e-06 4.658668918027e-04 0.0 
0.0 0.0 0.0 
-3.008530580217e-08 -4.326903680782e-06 0.0 
-4.326903680782e-06 7.292782979893e-04 0.0 
0.0 0.0 0.0 
-2.303387931502e-07 4.479557890620e-06 0.0 
4.479557890620e-06 9.510782048421e-04 0.0 
0.0 0.0 0.0 
-1.043157271674e-07 4.335996340896e-06 0.0 
4.335996340896e-06 7.279643011289e-04 0.0 
0.0 0.0 0.0 
-1.192894773405e-06 -2.338058236823e-06 0.0 
-2.338058236823e-06 1.833204901391e-04 0.0 
0.0 0.0 0.0 
-3.729867925628e-08 -4.628577615218e-06 0.0 
-4.628577615218e-06 8.265657304858e-04 0.0 
0.0 0.0 0.0 
-2.293192437053e-07 4.878484916533e-06 0.0 
4.878484916533e-06 2.884600868993e-04 0.0 
0.0 0.0 0.0 
-5.388537427375e-08 -4.431487860900e-06 0.0 
-4.431487860900e-06 7.330683115032e-04 0.0 
0.0 0.0 0.0 
-6.771725646892e-08 4.609542859027e-06 0.0 
4.609542859027e-06 7.901831480224e-04 0.0 
0.0 0.0 0.0 
-5.936272096108e-08 4.338156297403e-06 0.0 
4.338156297403e-06 8.607393443643e-04 0.0 
0.0 0.0 0.0 
1.020958269038e-06 -3.916829379187e-06 0.0 
-3.916829379187e-06 8.585519634794e-04 0.0 
0.0 0.0 0.0 
1.670200564519e-07 -3.956364023801e-06 0.0 
-3.956364023801e-06 4.277483632666e-04 0.0 
0.0 0.0 0.0 
-5.287963540379e-07 3.770290903718e-06 0.0 
3.770290903718e-06 1.869761034923e-04 0.0 
0.0 0.0 0.0 
-2.698307999260e-08 4.731767756562e-06 0.0 
4.731767756562e-06 8.535592798855e-04 0.0 
0.0 0.0 0.0 
2.746419949240e-07 4.534262564709e-06 0.0 
4.534262564709e-06 3.208115958853e-04 0.0 
0.0 0.0 0.0 
-9.598895435170e-07 4.572120505800e-06 0.0 
4.572120505800e-06 6.475443691767e-05 0.0 
0.0 0.0 0.0 
3.003376880528e-07 3.922949190802e-06 0.0 
3.922949190802e-06 1.121038719625e-03 0.0 
0.0 0.0 0.0 
2.226520097182e-07 4.377716724611e-06 0.0 
4.377716724611e-06 1.061291376651e-03 0.0 
0.0 0.0 0.0 
1.490135088655e-07 -1.517645316876e-07 0.0 
-1.517645316876e-07 5.830626597025e-05 0.0 
0.0 0.0 0.0 
-3.269295056896e-09 -4.790118769685e-06 0.0 
-4.790118769685e-06 8.897456578139e-04 0.0 
0.0 0.0 0.0 
4.357832628088e-08 -3.989712460983e-06 0.0 
-3.989712460983e-06 3.276295812593e-04 0.0 
0.0 0.0 0.0 
1.063104235755e-07 4.861401738515e-06 0.0 
4.861401738515e-06 3.521128038280e-04 0.0 
0.0 0.0 0.0 
1.393240767200e-08 4.430439088357e-06 0.0 
4.430439088357e-06 1.006426847943e-03 0.0 
0.0 0.0 0.0 
1.250502812411e-08 -4.300710785977e-06 0.0 
-4.300710785977e-06 8.619117113422e-04 0.0 
0.0 0.0 0.0 
8.612768276350e-09 4.326746181769e-06 0.0 
4.326746181769e-06 9.717713585131e-04 0.0 
0.0 0.0 0.0 
-8.670300388758e-08 -4.176946636605e-06 0.0 
-4.176946636605e-06 5.526777309834e-04 0.0 
0.0 0.0 0.0 
1.950028549746e-07 4.591425017989e-07 0.0 
4.591425017989e-07 6.437246769917e-04 0.0 
0.0 0.0 0.0 
-5.779642203718e-07 -9.040404005456e-07 0.0 
-9.040404005456e-07 1.173313269601e-03 0.0 
0.0 0.0 0.0 
7.926872225283e-08 4.702643489153e-06 0.0 
4.702643489153e-06 2.889414788541e-04 0.0 
0.0 0.0 0.0 
-1.728562011305e-07 -4.033788503019e-06 0.0 
-4.033788503019e-06 1.028412142942e-03 0.0 
0.0 0.0 0.0 
-4.204903847338e-08 -4.403045033712e-06 0.0 
-4.403045033712e-06 7.670408835916e-04 0.0 
0.0 0.0 0.0 
1.602378209231e-06 3.810723908478e-06 0.0 
3.810723908478e-06 2.237954096493e-04 0.0 
0.0 0.0 0.0 
-1.131400759746e-07 4.280541917217e-06 0.0 
4.280541917217e-06 9.237635250798e-04 0.0 
0.0 0.0 0.0 
-4.895147609485e-08 4.202058452689e-06 0.0 
4.202058452689e-06 5.858689275839e-04 0.0 
0.0 0.0 0.0 
7.123700307421e-07 5.280860556177e-07 0.0 
5.280860556177e-07 1.142964802985e-04 0.0 
0.0 0.0 0.0 
-8.627830294650e-08 4.122571030035e-06 0.0 
4.122571030035e-06 4.905895978307e-04 0.0 
0.0 0.0 0.0 
1.217828817790e-07 4.426492199970e-06 0.0 
4.426492199970e-06 9.046764429166e-04 0.0 
0.0 0.0 0.0 
-1.639460653902e-07 -4.570417402990e-06 0.0 
-4.570417402990e-06 9.338218689354e-04 0.0 
0.0 0.0 0.0 
1.330458330173e-07 -4.238525259245e-06 0.0 
-4.238525259245e-06 2.155188020936e-04 0.0 
0.0 0.0 0.0 
1.304307915007e-06 -2.701290786222e-06 0.0 
-2.701290786222e-06 7.318245855332e-04 0.0 
0.0 0.0 0.0 
-1.094145224423e-07 4.548691766411e-06 0.0 
4.548691766411e-06 9.790851950744e-04 0.0 
0.0 0.0 0.0 
3.392124872104e-07 -4.128660032115e-06 0.0 
-4.128660032115e-06 1.017749742304e-03 0.0 
0.0 0.0 0.0 
3.453318897506e-08 4.183445088073e-06 0.0 
4.183445088073e-06 4.629266318641e-04 0.0 
0.0 0.0 0.0 
1.503709943229e-07 4.446117258497e-06 0.0 
4.446117258497e-06 3.638222179143e-04 0.0 
0.0 0.0 0.0 
-3.530533176921e-08 4.553055191855e-06 0.0 
4.553055191855e-06 7.933161214735e-04 0.0 
0.0 0.0 0.0 
3.824396694885e-07 -4.928119839572e-06 0.0 
-4.928119839572e-06 8.404069534678e-04 0.0 
0.0 0.0 0.0 
5.619686958003e-07 -2.427928238075e-07 0.0 
-2.427928238075e-07 1.124929889378e-04 0.0 
0.0 0.0 0.0 
-2.232434558325e-07 4.723631691906e-08 0.0 
4.723631691906e-08 1.177714520482e-03 0.0 
0.0 0.0 0.0 
-7.954748176831e-07 4.276910415181e-07 0.0 
4.276910415181e-07 1.173084400644e-03 0.0 
0.0 0.0 0.0 
4.554194241724e-07 -4.389796152705e-06 0.0 
-4.389796152705e-06 7.511987587356e-04 0.0 
0.0 0.0 0.0 
4.584678983122e-07 -5.229845508718e-06 0.0 
-5.229845508718e-06 1.159658906883e-03 0.0 
0.0 0.0 0.0 
-7.151939263039e-09 2.006998562068e-06 0.0 
2.006998562068e-06 1.177058570943e-03 0.0 
0.0 0.0 0.0 
-8.237514304010e-08 4.197918070008e-06 0.0 
4.197918070008e-06 5.777874166522e-04 0.0 
0.0 0.0 0.0 
-7.778268740211e-08 -4.094195700481e-06 0.0 
-4.094195700481e-06 5.445046287511e-04 0.0 
0.0 0.0 0.0 
-7.931103461756e-07 -8.598605229277e-07 0.0 
-8.598605229277e-07 1.176021701659e-03 0.0 
0.0 0.0 0.0 
-1.638176228003e-07 1.335318117775e-07 0.0 
1.335318117775e-07 1.616738563803e-05 0.0 
0.0 0.0 0.0 
-1.831306180033e-07 4.789411418748e-06 0.0 
4.789411418748e-06 3.297185241771e-04 0.0 
0.0 0.0 0.0 
-8.687697242715e-07 4.853957719331e-06 0.0 
4.853957719331e-06 7.472573689031e-04 0.0 
0.0 0.0 0.0 
6.593455603721e-08 -3.912394594947e-06 0.0 
-3.912394594947e-06 4.643803500870e-04 0.0 
0.0 0.0 0.0 
-1.425347266881e-07 4.221720985781e-06 0.0 
4.221720985781e-06 4.823458444096e-04 0.0 
0.0 0.0 0.0 
-1.064060061395e-06 -3.110816030420e-06 0.0 
-3.110816030420e-06 2.575467865320e-04 0.0 
0.0 0.0 0.0 
-2.242947519937e-07 -4.217679282259e-06 0.0 
-4.217679282259e-06 2.959409277148e-04 0.0 
0.0 0.0 0.0 
4.289445960648e-07 -3.789350004745e-06 0.0 
-3.789350004745e-06 7.515714969188e-04 0.0 
0.0 0.0 0.0 
-8.180207611286e-08 -4.330815673904e-06 0.0 
-4.330815673904e-06 5.261431624928e-04 0.0 
0.0 0.0 0.0 
-3.569991222641e-07 3.893354528950e-06 0.0 
3.893354528950e-06 3.890463257183e-04 0.0 
0.0 0.0 0.0 
-1.703635654771e-07 4.618898745502e-06 0.0 
4.618898745502e-06 9.846274746392e-04 0.0 
0.0 0.0 0.0 
5.163909024830e-07 -9.083228854738e-08 0.0 
-9.083228854738e-08 1.231246348819e-03 0.0 
0.0 0.0 0.0 
-9.380649808044e-07 -1.637855880934e-06 0.0 
-1.637855880934e-06 1.228058214250e-03 0.0 
0.0 0.0 0.0 
-6.538344077267e-08 4.247982734180e-06 0.0 
4.247982734180e-06 5.695546959452e-04 0.0 
0.0 0.0 0.0 
7.786034850188e-07 2.364052416117e-06 0.0 
2.364052416117e-06 6.987621790793e-04 0.0 
0.0 0.0 0.0 
-1.437906876234e-06 8.719109667023e-07 0.0 
8.719109667023e-07 4.804523445001e-05 0.0 
0.0 0.0 0.0 
-4.556751029838e-07 -5.303296847028e-06 0.0 
-5.303296847028e-06 1.986129827638e-04 0.0 
0.0 0.0 0.0 
2.143548696321e-07 -2.126836213623e-06 0.0 
-2.126836213623e-06 2.199322322447e-04 0.0 
0.0 0.0 0.0 
-2.406840320379e-07 -4.373353689027e-06 0.0 
-4.373353689027e-06 2.314422343133e-04 0.0 
0.0 0.0 0.0 
-5.112036349786e-08 -4.493126002090e-06 0.0 
-4.493126002090e-06 8.279392344992e-04 0.0 
0.0 0.0 0.0 
-7.088182796267e-08 4.218350426982e-06 0.0 
4.218350426982e-06 4.738900776589e-04 0.0 
0.0 0.0 0.0 
-9.961406743919e-08 -4.189552156573e-06 0.0 
-4.189552156573e-06 5.183734464269e-04 0.0 
0.0 0.0 0.0 
7.224617004642e-07 -2.644855794247e-06 0.0 
-2.644855794247e-06 1.152849003496e-04 0.0 
0.0 0.0 0.0 
-5.836006108373e-07 7.058484972422e-07 0.0 
7.058484972422e-07 1.071999819205e-03 0.0 
0.0 0.0 0.0 
-6.558892307051e-08 -4.109271980124e-06 0.0 
-4.109271980124e-06 5.099876602546e-04 0.0 
0.0 0.0 0.0 
2.358959572124e-07 4.501018969352e-06 0.0 
4.501018969352e-06 1.112915331659e-03 0.0 
0.0 0.0 0.0 
6.781051014038e-07 -3.284932435303e-06 0.0 
-3.284932435303e-06 1.020992673406e-03 0.0 
0.0 0.0 0.0 
-3.456602952756e-07 1.147557367913e-06 0.0 
1.147557367913e-06 1.228378167410e-03 0.0 
0.0 0.0 0.0 
7.271106516882e-08 9.345540192181e-07 0.0 
9.345540192181e-07 1.231583844898e-03 0.0 
0.0 0.0 0.0 
-4.996471985041e-07 3.547573971167e-06 0.0 
3.547573971167e-06 7.530362113297e-04 0.0 
0.0 0.0 0.0 
2.062228698918e-08 -3.999575965207e-06 0.0 
-3.999575965207e-06 5.359624667340e-04 0.0 
0.0 0.0 0.0 
5.410454995136e-07 3.449836724587e-06 0.0 
3.449836724587e-06 3.236096149790e-04 0.0 
0.0 0.0 0.0 
-6.752495229634e-10 4.324126191250e-06 0.0 
4.324126191250e-06 5.608743549241e-04 0.0 
0.0 0.0 0.0 
0.0 -5.297487221782e-07 0.0 
-5.297487221782e-07 1.232454841954e-03 0.0 
0.0 0.0 0.0 
-7.080469153209e-07 -5.555311215703e-06 0.0 
-5.555311215703e-06 1.336650174075e-04 0.0 
0.0 0.0 0.0 
-3.476386883916e-07 -4.129422145124e-06 0.0 
-4.129422145124e-06 1.666583204718e-04 0.0 
0.0 0.0 0.0 
-4.955097427928e-07 -3.438851733710e-06 0.0 
-3.438851733710e-06 1.063058862496e-03 0.0 
0.0 0.0 0.0 
5.192023353473e-07 2.327068977118e-07 0.0 
2.327068977118e-07 7.009586879145e-04 0.0 
0.0 0.0 0.0 
2.642661511842e-08 4.701219611355e-06 0.0 
4.701219611355e-06 1.119744644235e-03 0.0 
0.0 0.0 0.0 
-8.718462018997e-08 -4.648869170337e-06 0.0 
-4.648869170337e-06 9.796634119434e-04 0.0 
0.0 0.0 0.0 
9.480185902966e-08 4.493886626542e-06 0.0 
4.493886626542e-06 1.077235159613e-03 0.0 
0.0 0.0 0.0 
-2.322682147726e-07 -5.044215565774e-06 0.0 
-5.044215565774e-06 1.022956125578e-03 0.0 
0.0 0.0 0.0 
6.142486113081e-07 4.156206623777e-06 0.0 
4.156206623777e-06 7.643314496519e-04 0.0 
0.0 0.0 0.0 
1.070727824182e-07 -3.843118311716e-06 0.0 
-3.843118311716e-06 4.030208708119e-04 0.0 
0.0 0.0 0.0 
7.713662464326e-08 4.303680865216e-06 0.0 
4.303680865216e-06 4.019531131318e-04 0.0 
0.0 0.0 0.0 
8.688913313293e-07 4.254337917707e-06 0.0 
4.254337917707e-06 9.039657661820e-04 0.0 
0.0 0.0 0.0 
2.530525338162e-07 -5.307057560755e-06 0.0 
-5.307057560755e-06 1.048740487762e-03 0.0 
0.0 0.0 0.0 
5.187333642631e-07 8.805256973695e-07 0.0 
8.805256973695e-07 6.457858076350e-04 0.0 
0.0 0.0 0.0 
4.421840160695e-08 2.067627236752e-07 0.0 
2.067627236752e-07 6.977567289350e-04 0.0 
0.0 0.0 0.0 
4.209108426245e-07 -1.480508722145e-06 0.0 
-1.480508722145e-06 7.493149368483e-04 0.0 
0.0 0.0 0.0 
-7.346657754370e-07 -5.504210543786e-06 0.0 
-5.504210543786e-06 7.678153044008e-04 0.0 
0.0 0.0 0.0 
-6.842265569684e-07 3.799643449100e-06 0.0 
3.799643449100e-06 1.827416333855e-04 0.0 
0.0 0.0 0.0 
1.566912215534e-07 4.140593064207e-06 0.0 
4.140593064207e-06 3.650773125781e-04 0.0 
0.0 0.0 0.0 
-6.054892514040e-07 2.002622163933e-06 0.0 
2.002622163933e-06 1.177791854123e-03 0.0 
0.0 0.0 0.0 
3.378283683908e-07 -4.964727736386e-06 0.0 
-4.964727736386e-06 8.298964668305e-04 0.0 
0.0 0.0 0.0 
-4.323348767876e-08 3.351797775884e-06 0.0 
3.351797775884e-06 1.192471829275e-03 0.0 
0.0 0.0 0.0 
-1.205045234709e-07 -3.787869883115e-06 0.0 
-3.787869883115e-06 1.124505425434e-03 0.0 
0.0 0.0 0.0 
-2.346286187560e-07 -4.389840254417e-06 0.0 
-4.389840254417e-06 9.253763042747e-04 0.0 
0.0 0.0 0.0 
-4.829880931867e-07 -3.396579682578e-06 0.0 
-3.396579682578e-06 1.118870353388e-03 0.0 
0.0 0.0 0.0 
7.963823061008e-07 3.416932640260e-06 0.0 
3.416932640260e-06 5.509714144141e-04 0.0 
0.0 0.0 0.0 
-1.311752514499e-06 3.538301229731e-06 0.0 
3.538301229731e-06 5.013475296167e-04 0.0 
0.0 0.0 0.0 
-6.165272262715e-07 3.185406194925e-06 0.0 
3.185406194925e-06 1.123836174978e-03 0.0 
0.0 0.0 0.0 
1.001092213571e-06 1.874197539854e-06 0.0 
1.874197539854e-06 5.769113631193e-05 0.0 
0.0 0.0 0.0 
3.841934530513e-07 -1.423350668969e-06 0.0 
-1.423350668969e-06 3.490083881610e-04 0.0 
0.0 0.0 0.0 
0.0 -2.641180615516e-07 0.0 
-2.641180615516e-07 1.230709430478e-03 0.0 
0.0 0.0 0.0 
-2.740088483888e-07 -4.671999680656e-06 0.0 
-4.671999680656e-06 1.644199955042e-04 0.0 
0.0 0.0 0.0 
4.330073559711e-07 5.056264205865e-07 0.0 
5.056264205865e-07 6.979786696355e-04 0.0 
0.0 0.0 0.0 
-9.932310154337e-07 -1.073245073226e-06 0.0 
-1.073245073226e-06 1.125503879664e-03 0.0 
0.0 0.0 0.0 
-1.531195281679e-09 3.104259838785e-06 0.0 
3.104259838785e-06 1.042843771950e-04 0.0 
0.0 0.0 0.0 
4.841691056967e-07 -1.143419468351e-06 0.0 
-1.143419468351e-06 5.501557230558e-05 0.0 
0.0 0.0 0.0 
2.110307084635e-07 -2.524563662645e-06 0.0 
-2.524563662645e-06 1.230143303697e-03 0.0 
0.0 0.0 0.0 
5.325535608058e-07 2.039826615375e-06 0.0 
2.039826615375e-06 6.434620247451e-04 0.0 
0.0 0.0 0.0 
4.286146979560e-07 5.024743816525e-06 0.0 
5.024743816525e-06 1.164794782866e-03 0.0 
0.0 0.0 0.0 
-7.486416659930e-07 2.362913650913e-07 0.0 
2.362913650913e-07 1.125638789114e-03 0.0 
0.0 0.0 0.0 
3.793036138511e-07 -1.274949267460e-06 0.0 
-1.274949267460e-06 6.424772004774e-04 0.0 
0.0 0.0 0.0 
-1.529930580002e-07 -6.223122252448e-07 0.0 
-6.223122252448e-07 5.438302349470e-05 0.0 
0.0 0.0 0.0 
-6.472403113467e-08 -2.215428591605e-06 0.0 
-2.215428591605e-06 1.175903145188e-03 0.0 
0.0 0.0 0.0 
4.863684921474e-08 -5.186155573459e-06 0.0 
-5.186155573459e-06 1.836380893545e-04 0.0 
0.0 0.0 0.0 
-5.120043200524e-07 2.843110637860e-06 0.0 
2.843110637860e-06 1.130211639086e-03 0.0 
0.0 0.0 0.0 
0.0 -2.694119795675e-08 0.0 
-2.694119795675e-08 1.231819931010e-03 0.0 
0.0 0.0 0.0 
-7.754240644031e-07 -3.377694373644e-06 0.0 
-3.377694373644e-06 1.124787215550e-03 0.0 
0.0 0.0 0.0 
-1.754320351210e-07 4.545388437095e-06 0.0 
4.545388437095e-06 2.417824555965e-04 0.0 
0.0 0.0 0.0 
3.245467090629e-07 4.841729412788e-07 0.0 
4.841729412788e-07 7.544265199628e-04 0.0 
0.0 0.0 0.0 
-1.507733639605e-06 -3.022192817321e-06 0.0 
-3.022192817321e-06 5.602180077824e-04 0.0 
0.0 0.0 0.0 
2.299185641874e-07 -4.616009448229e-06 0.0 
-4.616009448229e-06 9.853177407875e-04 0.0 
0.0 0.0 0.0 
1.971011631685e-07 -2.119771648892e-06 0.0 
-2.119771648892e-06 1.232371012329e-03 0.0 
0.0 0.0 0.0 
-3.102348198336e-07 2.883011821593e-06 0.0 
2.883011821593e-06 9.724983039625e-04 0.0 
0.0 0.0 0.0 
-5.207557796094e-07 2.511360275897e-06 0.0 
2.511360275897e-06 1.231212397085e-03 0.0 
0.0 0.0 0.0 
9.602287023291e-07 4.870800101729e-06 0.0 
4.870800101729e-06 1.103597400556e-04 0.0 
0.0 0.0 0.0 
2.898011255414e-07 -2.873899344978e-06 0.0 
-2.873899344978e-06 1.182864186180e-03 0.0 
0.0 0.0 0.0 
-4.603468931608e-07 2.943394092917e-06 0.0 
2.943394092917e-06 2.747635310827e-04 0.0 
0.0 0.0 0.0 
2.098934175354e-07 1.870761393396e-06 0.0 
1.870761393396e-06 1.648072590106e-04 0.0 
0.0 0.0 0.0 
-4.812994509606e-07 -2.332382019327e-06 0.0 
-2.332382019327e-06 1.178703461054e-03 0.0 
0.0 0.0 0.0 
5.832387550697e-08 -1.311144793144e-06 0.0 
-1.311144793144e-06 1.179328346226e-03 0.0 
0.0 0.0 0.0 
-1.750446387838e-08 -3.805497602311e-06 0.0 
-3.805497602311e-06 1.188775321011e-03 0.0 
0.0 0.0 0.0 
2.199555795279e-07 4.674252099342e-06 0.0 
4.674252099342e-06 6.941830444405e-04 0.0 
0.0 0.0 0.0 
-1.530244618797e-07 4.561265264492e-06 0.0 
4.561265264492e-06 7.614399586844e-04 0.0 
0.0 0.0 0.0 
-2.581913013389e-07 -5.091140718765e-06 0.0 
-5.091140718765e-06 2.533011179213e-04 0.0 
0.0 0.0 0.0 
4.792815271326e-07 -1.844517302807e-06 0.0 
-1.844517302807e-06 1.180532908936e-03 0.0 
0.0 0.0 0.0 
8.341683237489e-07 3.942067654189e-06 0.0 
3.942067654189e-06 4.638751734265e-04 0.0 
0.0 0.0 0.0 
7.129463601707e-07 -3.821448849726e-06 0.0 
-3.821448849726e-06 1.517893495664e-04 0.0 
0.0 0.0 0.0 
3.031377431295e-07 4.244128863318e-06 0.0 
4.244128863318e-06 1.016644385675e-03 0.0 
0.0 0.0 0.0 
4.283397403437e-07 -4.766494916474e-07 0.0 
-4.766494916474e-07 6.411684892189e-04 0.0 
0.0 0.0 0.0 
3.963679318097e-08 3.475372225456e-06 0.0 
3.475372225456e-06 1.136618574107e-03 0.0 
0.0 0.0 0.0 
3.780577064738e-07 -4.258571240917e-06 0.0 
-4.258571240917e-06 1.223875455979e-03 0.0 
0.0 0.0 0.0 
0.0 -1.890288532723e-07 0.0 
-1.890288532723e-07 1.232392598461e-03 0.0 
0.0 0.0 0.0 
3.907743388876e-07 3.936798929875e-07 0.0 
3.936798929875e-07 1.517603994250e-05 0.0 
0.0 0.0 0.0 
-2.115466326780e-06 3.072481789476e-08 0.0 
3.072481789476e-08 1.695637045795e-05 0.0 
0.0 0.0 0.0 
2.453826735138e-07 -3.881828157545e-06 0.0 
-3.881828157545e-06 6.492563523104e-04 0.0 
0.0 0.0 0.0 
-1.149654383137e-06 6.227465821578e-07 0.0 
6.227465821578e-07 6.416422398876e-04 0.0 
0.0 0.0 0.0 
0.0 2.675854047667e-07 0.0 
2.675854047667e-07 1.232050837296e-03 0.0 
0.0 0.0 0.0 
5.351708094459e-07 4.186345511210e-06 0.0 
4.186345511210e-06 1.223678146274e-03 0.0 
0.0 0.0 0.0 
-1.105508357080e-07 3.590892915644e-06 0.0 
3.590892915644e-06 5.215190377483e-05 0.0 
0.0 0.0 0.0 
8.045543318236e-07 -1.840639030873e-06 0.0 
-1.840639030873e-06 1.314139090769e-05 0.0 
0.0 0.0 0.0 
-4.765989041200e-07 2.874599968004e-06 0.0 
2.874599968004e-06 1.126414886762e-03 0.0 
0.0 0.0 0.0 
1.155170614719e-07 5.630689041083e-06 0.0 
5.630689041083e-06 1.115169626516e-03 0.0 
0.0 0.0 0.0 
1.037456298203e-06 -3.290434118079e-06 0.0 
-3.290434118079e-06 2.173493987454e-04 0.0 
0.0 0.0 0.0 
-2.361114782579e-07 -3.017505223664e-06 0.0 
-3.017505223664e-06 1.139473322622e-03 0.0 
0.0 0.0 0.0 
3.127336085651e-07 -1.193740577454e-06 0.0 
-1.193740577454e-06 7.982766644068e-04 0.0 
0.0 0.0 0.0 
-1.022842460396e-06 -4.455719004616e-06 0.0 
-4.455719004616e-06 6.862953867139e-04 0.0 
0.0 0.0 0.0 
-7.162559316765e-07 2.230507328149e-06 0.0 
2.230507328149e-06 8.623820711775e-04 0.0 
0.0 0.0 0.0 
7.966173416474e-07 3.546073422302e-06 0.0 
3.546073422302e-06 2.038333823646e-04 0.0 
0.0 0.0 0.0 
5.660991386769e-08 -4.649012450764e-06 0.0 
-4.649012450764e-06 9.235232989249e-04 0.0 
0.0 0.0 0.0 
6.718120935112e-07 8.193920194919e-07 0.0 
8.193920194919e-07 1.698407427062e-04 0.0 
0.0 0.0 0.0 
9.171258550378e-07 -4.335874267823e-06 0.0 
-4.335874267823e-06 6.215108205561e-04 0.0 
0.0 0.0 0.0 
5.625037668988e-07 2.579267590553e-06 0.0 
2.579267590553e-06 1.136579948844e-03 0.0 
0.0 0.0 0.0 
1.027115781316e-07 -4.874714138391e-06 0.0 
-4.874714138391e-06 1.096627408967e-03 0.0 
0.0 0.0 0.0 
1.416009878907e-06 2.522347021238e-06 0.0 
2.522347021238e-06 6.823749219405e-04 0.0 
0.0 0.0 0.0 
-2.047891172197e-07 -4.215214437770e-06 0.0 
-4.215214437770e-06 7.960676901921e-04 0.0 
0.0 0.0 0.0 
-7.350778308268e-07 1.874260209280e-06 0.0 
1.874260209280e-06 1.128109025675e-03 0.0 
0.0 0.0 0.0 
-3.522663560851e-08 -4.948119180609e-06 0.0 
-4.948119180609e-06 1.048597021322e-03 0.0 
0.0 0.0 0.0 
-2.257822195872e-07 -4.766950071882e-06 0.0 
-4.766950071882e-06 9.866872997719e-04 0.0 
0.0 0.0 0.0 
3.934499459568e-08 2.214619035000e-07 0.0 
2.214619035000e-07 6.435296193403e-04 0.0 
0.0 0.0 0.0 
-4.454106061758e-08 -4.856344322920e-06 0.0 
-4.856344322920e-06 8.902545213025e-04 0.0 
0.0 0.0 0.0 
-2.838338925004e-07 2.795508631381e-06 0.0 
2.795508631381e-06 1.128211882529e-03 0.0 
0.0 0.0 0.0 
-4.589858481063e-07 2.743616624180e-06 0.0 
2.743616624180e-06 3.483061503311e-04 0.0 
0.0 0.0 0.0 
-1.204387648501e-07 -7.312335231722e-07 0.0 
-7.312335231722e-07 5.910580573598e-05 0.0 
0.0 0.0 0.0 
-4.780523528147e-07 -3.312596729199e-06 0.0 
-3.312596729199e-06 1.089028468600e-03 0.0 
0.0 0.0 0.0 
-1.236055764409e-07 4.045094285415e-06 0.0 
4.045094285415e-06 1.027872829127e-03 0.0 
0.0 0.0 0.0 
1.190436764054e-06 -2.341058196977e-06 0.0 
-2.341058196977e-06 1.650732708744e-04 0.0 
0.0 0.0 0.0 
-1.712124627629e-07 -3.663850777571e-06 0.0 
-3.663850777571e-06 9.078142454360e-04 0.0 
0.0 0.0 0.0 
-5.413861647874e-07 -9.742067209423e-07 0.0 
-9.742067209423e-07 1.174556479517e-03 0.0 
0.0 0.0 0.0 
-2.815993628280e-07 2.766417489100e-06 0.0 
2.766417489100e-06 1.082199045780e-03 0.0 
0.0 0.0 0.0 
-6.500049568592e-07 -6.619404723560e-07 0.0 
-6.619404723560e-07 1.126548852156e-03 0.0 
0.0 0.0 0.0 
1.072324979923e-07 -4.829243686863e-06 0.0 
-4.829243686863e-06 8.647216696014e-04 0.0 
0.0 0.0 0.0 
1.056385025011e-06 2.619217293432e-06 0.0 
2.619217293432e-06 5.422442951186e-05 0.0 
0.0 0.0 0.0 
5.549603310229e-08 2.167613474729e-06 0.0 
2.167613474729e-06 2.580144831643e-04 0.0 
0.0 0.0 0.0 
-1.858992629833e-07 -4.964928087822e-06 0.0 
-4.964928087822e-06 3.204408104398e-04 0.0 
0.0 0.0 0.0 
1.460580362878e-06 7.319349812244e-07 0.0 
7.319349812244e-07 7.543649872526e-04 0.0 
0.0 0.0 0.0 
4.809894971203e-08 4.938814584264e-06 0.0 
4.938814584264e-06 8.890740977270e-04 0.0 
0.0 0.0 0.0 
-3.089839977211e-07 -3.759123000542e-06 0.0 
-3.759123000542e-06 1.137637233539e-03 0.0 
0.0 0.0 0.0 
-2.512148455924e-08 1.546749157416e-06 0.0 
1.546749157416e-06 1.173905260099e-03 0.0 
0.0 0.0 0.0 
3.286093286370e-07 -5.779671557537e-07 0.0 
-5.779671557537e-07 1.130113625145e-04 0.0 
0.0 0.0 0.0 
1.750616589469e-07 9.941549459641e-07 0.0 
9.941549459641e-07 1.082868987330e-04 0.0 
0.0 0.0 0.0 
8.013083148128e-07 4.540363149768e-06 0.0 
4.540363149768e-06 1.994673681549e-04 0.0 
0.0 0.0 0.0 
7.266958192975e-07 6.393081426485e-06 0.0 
6.393081426485e-06 9.260929912160e-04 0.0 
0.0 0.0 0.0 
-6.105573838733e-07 -4.159081358793e-06 0.0 
-4.159081358793e-06 4.311764835385e-04 0.0 
0.0 0.0 0.0 
-5.275723347076e-08 -3.458156064209e-06 0.0 
-3.458156064209e-06 1.142441813449e-03 0.0 
0.0 0.0 0.0 
7.288490786461e-07 -3.984752639883e-06 0.0 
-3.984752639883e-06 2.074991851164e-04 0.0 
0.0 0.0 0.0 
-1.846865890220e-07 2.198266971533e-06 0.0 
2.198266971533e-06 1.118456127652e-03 0.0 
0.0 0.0 0.0 
9.556682027956e-07 4.074995275633e-06 0.0 
4.074995275633e-06 7.498324942734e-04 0.0 
0.0 0.0 0.0 
8.745592214865e-07 2.838862430429e-08 0.0 
2.838862430429e-08 1.179021897064e-03 0.0 
0.0 0.0 0.0 
7.719104844206e-08 -5.360653233933e-06 0.0 
-5.360653233933e-06 1.020162213114e-03 0.0 
0.0 0.0 0.0 
1.198933323066e-06 -2.038055653805e-06 0.0 
-2.038055653805e-06 7.545571184091e-04 0.0 
0.0 0.0 0.0 
-8.006601470711e-08 -1.133044842227e-06 0.0 
-1.133044842227e-06 1.178267622723e-03 0.0 
0.0 0.0 0.0 
-4.592921724056e-07 1.773332087288e-06 0.0 
1.773332087288e-06 1.180849081003e-03 0.0 
0.0 0.0 0.0 
6.486660153460e-07 1.420074299808e-06 0.0 
1.420074299808e-06 1.179088789869e-03 0.0 
0.0 0.0 0.0 
5.754425655979e-07 4.371897824051e-06 0.0 
4.371897824051e-06 1.341760719653e-04 0.0 
0.0 0.0 0.0 
5.149161097506e-10 3.980836981194e-06 0.0 
3.980836981194e-06 1.118310892837e-03 0.0 
0.0 0.0 0.0 
-4.688543853160e-08 6.783173999796e-07 0.0 
6.783173999796e-07 1.176885677196e-03 0.0 
0.0 0.0 0.0 
-1.528419809604e-07 -2.415950716965e-06 0.0 
-2.415950716965e-06 1.120348154083e-03 0.0 
0.0 0.0 0.0 
5.566685299385e-07 5.143528711732e-06 0.0 
5.143528711732e-06 1.046323396221e-03 0.0 
0.0 0.0 0.0 
0.0 5.432817393655e-07 0.0 
5.432817393655e-07 1.230692048241e-03 0.0 
0.0 0.0 0.0 
-1.650599762426e-07 4.799235381728e-06 0.0 
4.799235381728e-06 9.853787516576e-04 0.0 
0.0 0.0 0.0 
1.567239974021e-06 -1.086606374493e-07 0.0 
-1.086606374493e-07 1.045127294019e-05 0.0 
0.0 0.0 0.0 
-1.461588325036e-06 -5.109125330568e-06 0.0 
-5.109125330568e-06 1.866593105813e-04 0.0 
0.0 0.0 0.0 
-7.194609159544e-07 -4.064416868830e-06 0.0 
-4.064416868830e-06 1.084249090165e-03 0.0 
0.0 0.0 0.0 
9.102210101197e-07 3.600806155863e-06 0.0 
3.600806155863e-06 8.023089307578e-04 0.0 
0.0 0.0 0.0 
5.435369516693e-07 -4.478564650167e-06 0.0 
-4.478564650167e-06 1.123527083396e-03 0.0 
0.0 0.0 0.0 
3.119090130621e-07 -5.055729545492e-06 0.0 
-5.055729545492e-06 1.081858764951e-03 0.0 
0.0 0.0 0.0 
4.952841543560e-07 -1.134416491537e-06 0.0 
-1.134416491537e-06 1.182901442951e-03 0.0 
0.0 0.0 0.0 
1.152828275508e-06 5.382629736427e-06 0.0 
5.382629736427e-06 9.928472633898e-04 0.0 
0.0 0.0 0.0 
-2.891760713108e-07 -3.136890097480e-07 0.0 
-3.136890097480e-07 1.180493648785e-03 0.0 
0.0 0.0 0.0 
-3.188879466043e-07 -3.781215632096e-06 0.0 
-3.781215632096e-06 1.135301177953e-03 0.0 
0.0 0.0 0.0 
-6.046449274599e-08 3.823329875995e-06 0.0 
3.823329875995e-06 1.134610162576e-03 0.0 
0.0 0.0 0.0 
-4.440843874853e-07 -2.652658105861e-06 0.0 
-2.652658105861e-06 4.481976915991e-04 0.0 
0.0 0.0 0.0 
1.472278404080e-06 -4.779482920302e-07 0.0 
-4.779482920302e-07 1.232217681687e-03 0.0 
0.0 0.0 0.0 
8.186891151674e-07 3.095178003441e-07 0.0 
3.095178003441e-07 6.958837220228e-04 0.0 
0.0 0.0 0.0 
6.494323123718e-07 -4.230769015342e-06 0.0 
-4.230769015342e-06 1.120841573282e-03 0.0 
0.0 0.0 0.0 
1.439027222494e-06 -1.937068590919e-06 0.0 
-1.937068590919e-06 1.113877479444e-04 0.0 
0.0 0.0 0.0 
1.083857835482e-06 -2.847466130631e-06 0.0 
-2.847466130631e-06 1.073300823173e-03 0.0 
0.0 0.0 0.0 
3.778920953934e-07 -6.779703999813e-07 0.0 
-6.779703999813e-07 9.132180831946e-04 0.0 
0.0 0.0 0.0 
-1.773731840959e-06 -3.619689532427e-06 0.0 
-3.619689532427e-06 1.139504545853e-04 0.0 
0.0 0.0 0.0 
-1.186764445715e-06 -5.145695679559e-06 0.0 
-5.145695679559e-06 2.167810444069e-04 0.0 
0.0 0.0 0.0 
-1.938541067670e-07 4.990069950359e-06 0.0 
4.990069950359e-06 1.013146115910e-03 0.0 
0.0 0.0 0.0 
-3.442028282397e-07 -4.560893445198e-07 0.0 
-4.560893445198e-07 1.177206374764e-03 0.0 
0.0 0.0 0.0 
-3.872849914099e-07 -3.834242942410e-06 0.0 
-3.834242942410e-06 1.129882976775e-03 0.0 
0.0 0.0 0.0 
4.825285524479e-07 5.348352587317e-06 0.0 
5.348352587317e-06 1.167824108574e-03 0.0 
0.0 0.0 0.0 
5.031260985611e-08 5.615579521452e-06 0.0 
5.615579521452e-06 7.947696047632e-04 0.0 
0.0 0.0 0.0 
-1.861787738644e-06 -7.147472995695e-07 0.0 
-7.147472995695e-07 5.834886996148e-05 0.0 
0.0 0.0 0.0 
1.709504474867e-06 4.346076436405e-06 0.0 
4.346076436405e-06 1.026113042830e-04 0.0 
0.0 0.0 0.0 
-3.052272282145e-06 4.643418438195e-06 0.0 
4.643418438195e-06 7.094218853387e-05 0.0 
0.0 0.0 0.0 
8.807780600417e-07 -4.034965084919e-06 0.0 
-4.034965084919e-06 1.543624919498e-04 0.0 
0.0 0.0 0.0 
-1.189375532951e-06 2.813701276454e-06 0.0 
2.813701276454e-06 1.176150397919e-05 0.0 
0.0 0.0 0.0 
8.439964240825e-07 2.961816244117e-06 0.0 
2.961816244117e-06 6.054848929415e-04 0.0 
0.0 0.0 0.0 
7.318235264453e-07 4.415371173182e-06 0.0 
4.415371173182e-06 1.123337982458e-03 0.0 
0.0 0.0 0.0 
9.963279090641e-10 4.009156327768e-06 0.0 
4.009156327768e-06 1.125830608832e-03 0.0 
0.0 0.0 0.0 
7.123358025662e-07 -4.173834770145e-06 0.0 
-4.173834770145e-06 7.989627185587e-04 0.0 
0.0 0.0 0.0 
-2.533197600574e-07 -6.277145079143e-06 0.0 
-6.277145079143e-06 5.279485495191e-04 0.0 
0.0 0.0 0.0 
-6.190018131402e-08 -3.703517058486e-06 0.0 
-3.703517058486e-06 1.126176168224e-03 0.0 
0.0 0.0 0.0 
2.300132759814e-07 5.188309783772e-06 0.0 
5.188309783772e-06 1.115017119864e-03 0.0 
0.0 0.0 0.0 
-3.001084099008e-07 2.004035414546e-06 0.0 
2.004035414546e-06 1.180943235447e-03 0.0 
0.0 0.0 0.0 
-2.391565534499e-07 -8.391693759962e-07 0.0 
-8.391693759962e-07 1.131545375656e-03 0.0 
0.0 0.0 0.0 
-1.304996962714e-07 4.553733275096e-06 0.0 
4.553733275096e-06 1.073965663567e-03 0.0 
0.0 0.0 0.0 
3.495347846716e-07 1.868574316046e-06 0.0 
1.868574316046e-06 1.095214145319e-04 0.0 
0.0 0.0 0.0 
8.288286763580e-07 -2.622737929724e-06 0.0 
-2.622737929724e-06 9.648546117269e-05 0.0 
0.0 0.0 0.0 
-4.299174070077e-07 -3.632297936877e-06 0.0 
-3.632297936877e-06 1.128515158338e-03 0.0 
0.0 0.0 0.0 
-3.564009395385e-07 9.588790971105e-09 0.0 
9.588790971105e-09 1.117389715715e-04 0.0 
0.0 0.0 0.0 
-1.244619020069e-06 5.774222914154e-06 0.0 
5.774222914154e-06 1.381716235811e-04 0.0 
0.0 0.0 0.0 
-1.259212278559e-06 4.580461913473e-06 0.0 
4.580461913473e-06 9.090313891713e-05 0.0 
0.0 0.0 0.0 
-1.525123713764e-06 -4.605673580262e-06 0.0 
-4.605673580262e-06 1.040472396723e-04 0.0 
0.0 0.0 0.0 
-5.431407766876e-07 -2.560563132905e-07 0.0 
-2.560563132905e-07 1.179636778093e-03 0.0 
0.0 0.0 0.0 
-2.801201326452e-07 -1.727149932826e-06 0.0 
-1.727149932826e-06 1.181401517299e-03 0.0 
0.0 0.0 0.0 
-9.525995856574e-07 4.306261341738e-06 0.0 
4.306261341738e-06 1.138102546014e-03 0.0 
0.0 0.0 0.0 
-6.221667362416e-07 1.857884798195e-09 0.0 
1.857884798195e-09 1.184014419497e-03 0.0 
0.0 0.0 0.0 
-6.651675101832e-07 -3.505934941079e-06 0.0 
-3.505934941079e-06 1.082034489622e-03 0.0 
0.0 0.0 0.0 
7.492537232867e-07 6.043100335249e-06 0.0 
6.043100335249e-06 8.309130886972e-04 0.0 
0.0 0.0 0.0 
0.0 -2.910666242320e-07 0.0 
-2.910666242320e-07 1.233613577918e-03 0.0 
0.0 0.0 0.0 
7.083130775243e-07 -2.497107221074e-06 0.0 
-2.497107221074e-06 2.745771698436e-04 0.0 
0.0 0.0 0.0 
1.159726748190e-06 4.784803406850e-08 0.0 
4.784803406850e-08 6.401175542876e-04 0.0 
0.0 0.0 0.0 
6.254952822360e-07 1.485999335138e-06 0.0 
1.485999335138e-06 1.595396121878e-04 0.0 
0.0 0.0 0.0 
1.582274533174e-06 1.281099475943e-06 0.0 
1.281099475943e-06 5.710738013187e-05 0.0 
0.0 0.0 0.0 
1.254772928672e-06 8.969814870695e-07 0.0 
8.969814870695e-07 1.230829720171e-03 0.0 
0.0 0.0 0.0 
4.389784566960e-07 -1.381266106982e-06 0.0 
-1.381266106982e-06 7.038163877171e-04 0.0 
0.0 0.0 0.0 
1.309398200533e-06 4.419507345295e-07 0.0 
4.419507345295e-07 1.623966870625e-04 0.0 
0.0 0.0 0.0 
-9.144474072409e-07 5.340077133016e-06 0.0 
5.340077133016e-06 5.821546369269e-04 0.0 
0.0 0.0 0.0 
2.904102136547e-07 4.175950894733e-07 0.0 
4.175950894733e-07 1.184016357111e-03 0.0 
0.0 0.0 0.0 
-4.449645151228e-07 -3.779829943630e-06 0.0 
-3.779829943630e-06 1.132270610942e-03 0.0 
0.0 0.0 0.0 
-4.413194166775e-07 -1.647191297096e-07 0.0 
-1.647191297096e-07 1.181154685358e-03 0.0 
0.0 0.0 0.0 
1.078096585339e-07 -3.268595591651e-06 0.0 
-3.268595591651e-06 4.072194612448e-04 0.0 
0.0 0.0 0.0 
-9.186364057223e-07 -3.784287044417e-06 0.0 
-3.784287044417e-06 1.003072144763e-04 0.0 
0.0 0.0 0.0 
-5.876836977059e-07 -2.684329786964e-06 0.0 
-2.684329786964e-06 1.181028402016e-03 0.0 
0.0 0.0 0.0 
1.217618902594e-06 5.254427333785e-07 0.0 
5.254427333785e-07 1.231706438958e-03 0.0 
0.0 0.0 0.0 
-3.797955815399e-07 -4.085973931742e-07 0.0 
-4.085973931742e-07 1.231606720093e-03 0.0 
0.0 0.0 0.0 
8.142462837313e-08 3.002668132284e-06 0.0 
3.002668132284e-06 6.880977391166e-04 0.0 
0.0 0.0 0.0 
-1.751280774842e-07 -1.243030607456e-07 0.0 
-1.243030607456e-07 1.126428107457e-03 0.0 
0.0 0.0 0.0 
1.879556612572e-06 -2.228385013444e-06 0.0 
-2.228385013444e-06 1.664791227289e-04 0.0 
0.0 0.0 0.0 
-7.360194871353e-07 3.788516255918e-06 0.0 
3.788516255918e-06 1.143028090749e-03 0.0 
0.0 0.0 0.0 
5.800813964729e-07 -3.792229470008e-07 0.0 
-3.792229470008e-07 5.390253044668e-05 0.0 
0.0 0.0 0.0 
-7.120198612931e-07 -2.648949864230e-07 0.0 
-2.648949864230e-07 1.182005871814e-03 0.0 
0.0 0.0 0.0 
-5.794355335542e-07 2.545282944858e-06 0.0 
2.545282944858e-06 1.176855864386e-03 0.0 
0.0 0.0 0.0 
1.610941396057e-06 -1.644854446738e-06 0.0 
-1.644854446738e-06 5.496150053363e-05 0.0 
0.0 0.0 0.0 
-7.877437949722e-07 -3.204174134479e-06 0.0 
-3.204174134479e-06 1.084382842889e-03 0.0 
0.0 0.0 0.0 
1.186053642854e-06 -4.260899735150e-06 0.0 
-4.260899735150e-06 9.604422778680e-04 0.0 
0.0 0.0 0.0 
1.049738318493e-08 -7.101428103151e-07 0.0 
-7.101428103151e-07 1.181525223573e-03 0.0 
0.0 0.0 0.0 
0.0 -2.512027122188e-07 0.0 
-2.512027122188e-07 1.235433011495e-03 0.0 
0.0 0.0 0.0 
2.993090464365e-08 -6.859912467162e-06 0.0 
-6.859912467162e-06 8.745698168424e-04 0.0 
0.0 0.0 0.0 
-2.320519576493e-08 3.133672191036e-07 0.0 
3.133672191036e-07 1.184320867888e-03 0.0 
0.0 0.0 0.0 
-4.459976719051e-07 -3.514690745913e-06 0.0 
-3.514690745913e-06 1.139068039151e-03 0.0 
0.0 0.0 0.0 
1.109712812752e-07 1.955708947765e-07 0.0 
1.955708947765e-07 9.123966761055e-04 0.0 
0.0 0.0 0.0 
3.590963919553e-07 -3.224771210715e-07 0.0 
-3.224771210715e-07 1.142598749230e-03 0.0 
0.0 0.0 0.0 
1.033931626315e-06 -2.951563427005e-06 0.0 
-2.951563427005e-06 4.928863463698e-04 0.0 
0.0 0.0 0.0 
-5.969598184663e-07 -5.575483053811e-07 0.0 
-5.575483053811e-07 6.413675093473e-04 0.0 
0.0 0.0 0.0 
-5.042646354925e-07 3.304063238137e-06 0.0 
3.304063238137e-06 1.140685501139e-03 0.0 
0.0 0.0 0.0 
3.969020485606e-07 2.651810187682e-06 0.0 
2.651810187682e-06 1.185975773570e-03 0.0 
0.0 0.0 0.0 
1.956747750498e-07 2.055813142110e-06 0.0 
2.055813142110e-06 1.398541234066e-05 0.0 
0.0 0.0 0.0 
-4.680170107019e-07 1.244537655617e-06 0.0 
1.244537655617e-06 6.420061004533e-04 0.0 
0.0 0.0 0.0 
2.475064386775e-07 -2.776977430182e-06 0.0 
-2.776977430182e-06 1.187776998238e-03 0.0 
0.0 0.0 0.0 
4.318068904663e-07 3.053304851142e-06 0.0 
3.053304851142e-06 2.146199609647e-04 0.0 
0.0 0.0 0.0 
-1.412558898073e-06 7.237125297678e-07 0.0 
7.237125297678e-07 1.125325291139e-03 0.0 
0.0 0.0 0.0 
5.926492410158e-07 -3.157036792393e-06 0.0 
-3.157036792393e-06 1.130963856045e-03 0.0 
0.0 0.0 0.0 
-3.493456478543e-07 -3.552884260858e-06 0.0 
-3.552884260858e-06 1.177261802761e-03 0.0 
0.0 0.0 0.0 
9.740381810008e-07 3.029702184277e-06 0.0 
3.029702184277e-06 2.053363402652e-04 0.0 
0.0 0.0 0.0 
-6.994080222755e-07 1.374125125013e-06 0.0 
1.374125125013e-06 1.442191572238e-04 0.0 
0.0 0.0 0.0 
-1.607718799645e-06 7.736077475365e-06 0.0 
7.736077475365e-06 7.145363857268e-04 0.0 
0.0 0.0 0.0 
-8.474895614174e-07 1.835370450602e-06 0.0 
1.835370450602e-06 1.029409054653e-03 0.0 
0.0 0.0 0.0 
4.782409837478e-06 -4.476124720450e-07 0.0 
-4.476124720450e-07 1.301401593667e-05 0.0 
0.0 0.0 0.0 
-2.491448196640e-07 -6.879644762048e-07 0.0 
-6.879644762048e-07 1.184486077415e-03 0.0 
0.0 0.0 0.0 
4.337442294222e-08 8.729397690188e-07 0.0 
8.729397690188e-07 8.554811292178e-04 0.0 
0.0 0.0 0.0 
1.444305680387e-06 -3.761531059531e-06 0.0 
-3.761531059531e-06 2.029753869630e-04 0.0 
0.0 0.0 0.0 
-6.763157994749e-07 1.493889132898e-06 0.0 
1.493889132898e-06 8.110643522368e-04 0.0 
0.0 0.0 0.0 
-4.352449610723e-07 -2.776447431229e-06 0.0 
-2.776447431229e-06 1.179536539383e-03 0.0 
0.0 0.0 0.0 
-4.278384061474e-07 -6.647914414905e-06 0.0 
-6.647914414905e-06 7.488997104361e-04 0.0 
0.0 0.0 0.0 
-2.817179522552e-06 -3.982110804430e-06 0.0 
-3.982110804430e-06 3.841452821840e-05 0.0 
0.0 0.0 0.0 
-1.019945369829e-06 3.213411141721e-06 0.0 
3.213411141721e-06 4.464648735583e-04 0.0 
0.0 0.0 0.0 
2.348842744748e-07 2.430297496802e-06 0.0 
2.430297496802e-06 6.540015434628e-04 0.0 
0.0 0.0 0.0 
9.862495211621e-07 8.019513552081e-06 0.0 
8.019513552081e-06 7.781673840241e-04 0.0 
0.0 0.0 0.0 
-3.538900794631e-07 -3.299352574882e-06 0.0 
-3.299352574882e-06 1.136811423981e-03 0.0 
0.0 0.0 0.0 
-9.393821513992e-07 -3.951472514030e-06 0.0 
-3.951472514030e-06 6.371693517366e-04 0.0 
0.0 0.0 0.0 
7.902847478647e-07 1.986420584358e-06 0.0 
1.986420584358e-06 6.772994390762e-04 0.0 
0.0 0.0 0.0 
-2.067034557851e-06 3.934473202143e-06 0.0 
3.934473202143e-06 9.842444507435e-05 0.0 
0.0 0.0 0.0 
-1.005196969772e-06 3.189479192710e-06 0.0 
3.189479192710e-06 1.140847928829e-03 0.0 
0.0 0.0 0.0 
-1.039902922884e-06 3.715374085617e-06 0.0 
3.715374085617e-06 1.089772589318e-03 0.0 
0.0 0.0 0.0 
7.268837376451e-08 2.022182227403e-06 0.0 
2.022182227403e-06 1.807883661220e-04 0.0 
0.0 0.0 0.0 
1.337562401948e-06 -1.906606466918e-06 0.0 
-1.906606466918e-06 1.183907596884e-03 0.0 
0.0 0.0 0.0 
-1.631036073979e-07 3.444598881253e-06 0.0 
3.444598881253e-06 1.185937422676e-03 0.0 
0.0 0.0 0.0 
-1.613902322894e-07 -3.509737486518e-06 0.0 
-3.509737486518e-06 6.915043842572e-04 0.0 
0.0 0.0 0.0 
-1.546241286121e-07 7.019756698347e-07 0.0 
7.019756698347e-07 8.553765816282e-04 0.0 
0.0 0.0 0.0 
2.558949485643e-07 3.743168444912e-06 0.0 
3.743168444912e-06 6.363073336428e-04 0.0 
0.0 0.0 0.0 
1.186414537502e-06 -2.525218988959e-06 0.0 
-2.525218988959e-06 6.563607678007e-04 0.0 
0.0 0.0 0.0 
-1.311369082990e-06 -7.978568314231e-07 0.0 
-7.978568314231e-07 6.794544653645e-04 0.0 
0.0 0.0 0.0 
-6.538502850262e-07 3.487667685290e-06 0.0 
3.487667685290e-06 1.084233695934e-03 0.0 
0.0 0.0 0.0 
9.376109972870e-07 2.958889675699e-06 0.0 
2.958889675699e-06 1.615449015548e-04 0.0 
0.0 0.0 0.0 
-5.647592122848e-07 -3.173605847074e-06 0.0 
-3.173605847074e-06 1.127853505837e-03 0.0 
0.0 0.0 0.0 
-2.769346585385e-08 1.658173650686e-06 0.0 
1.658173650686e-06 7.464306066205e-04 0.0 
0.0 0.0 0.0 
-2.340616501728e-07 -3.351038739099e-06 0.0 
-3.351038739099e-06 1.179968411856e-03 0.0 
0.0 0.0 0.0 
-9.538516360097e-07 -3.039078407982e-06 0.0 
-3.039078407982e-06 1.083422496130e-03 0.0 
0.0 0.0 0.0 
5.052154790075e-07 -1.372442252571e-06 0.0 
-1.372442252571e-06 8.123632794501e-04 0.0 
0.0 0.0 0.0 
-4.706803723442e-07 2.736369614558e-06 0.0 
2.736369614558e-06 1.101830428314e-03 0.0 
0.0 0.0 0.0 
-6.107358516694e-07 2.880174196542e-06 0.0 
2.880174196542e-06 1.134626264710e-03 0.0 
0.0 0.0 0.0 
-1.015642038138e-06 -5.249059814649e-07 0.0 
-5.249059814649e-07 1.180452832300e-03 0.0 
0.0 0.0 0.0 
-2.161634762965e-06 2.502214926839e-06 0.0 
2.502214926839e-06 5.332093270272e-05 0.0 
0.0 0.0 0.0 
-6.730675420341e-07 -3.116298803538e-06 0.0 
-3.116298803538e-06 1.102480290921e-03 0.0 
0.0 0.0 0.0 
-2.961675824587e-07 4.224654873591e-06 0.0 
4.224654873591e-06 1.134629224798e-03 0.0 
0.0 0.0 0.0 
4.063239422702e-07 -2.255065476473e-06 0.0 
-2.255065476473e-06 1.016218442647e-04 0.0 
0.0 0.0 0.0 
2.562381313798e-07 -2.681577233985e-06 0.0 
-2.681577233985e-06 6.042894146787e-04 0.0 
0.0 0.0 0.0 
1.676244635318e-06 2.121712702782e-06 0.0 
2.121712702782e-06 5.316530672883e-05 0.0 
0.0 0.0 0.0 
-3.998468154354e-07 -2.367835840548e-06 0.0 
-2.367835840548e-06 1.140050451957e-03 0.0 
0.0 0.0 0.0 
-6.588479648517e-07 -1.345872850938e-06 0.0 
-1.345872850938e-06 1.898741246253e-05 0.0 
0.0 0.0 0.0 
-4.652012020046e-06 -1.209325641726e-06 0.0 
-1.209325641726e-06 2.244625663783e-05 0.0 
0.0 0.0 0.0 
5.330508163759e-07 -7.716885996301e-07 0.0 
-7.716885996301e-07 2.247027314861e-05 0.0 
0.0 0.0 0.0 
-8.243656836049e-07 -1.918193137473e-07 0.0 
-1.918193137473e-07 2.259114677194e-05 0.0 
0.0 0.0 0.0 
3.250302329505e-07 -1.821865399949e-07 0.0 
-1.821865399949e-07 2.258906818753e-05 0.0 
0.0 0.0 0.0 
-6.913349137605e-08 -4.857739642283e-08 0.0 
-4.857739642283e-08 2.268194980015e-05 0.0 
0.0 0.0 0.0 
1.494944497082e-07 5.731097154062e-08 0.0 
5.731097154062e-08 2.269551524470e-05 0.0 
0.0 0.0 0.0 
1.502360413852e-07 2.596525564571e-08 0.0 
2.596525564571e-08 2.275218300052e-05 0.0 
0.0 0.0 0.0 
7.344673669252e-08 1.155930120968e-07 0.0 
1.155930120968e-07 2.276820673153e-05 0.0 
0.0 0.0 0.0 
1.805014568923e-07 4.875720062049e-08 0.0 
4.875720062049e-08 2.280199913685e-05 0.0 
0.0 0.0 0.0 
3.719684937842e-08 1.107175179585e-07 0.0 
1.107175179585e-07 2.281635209367e-05 0.0 
0.0 0.0 0.0 
1.522704595747e-07 4.829295728993e-08 0.0 
4.829295728993e-08 2.283715983475e-05 0.0 
0.0 0.0 0.0 
1.460814225140e-08 8.914663618354e-08 0.0 
8.914663618354e-08 2.284902625593e-05 0.0 
0.0 0.0 0.0 
1.143796988234e-07 3.843823439018e-08 0.0 
3.843823439018e-08 2.286230801540e-05 0.0 
0.0 0.0 0.0 
-3.457545250107e-09 6.647472149212e-08 0.0 
6.647472149212e-08 2.287228406894e-05 0.0 
0.0 0.0 0.0 
8.275621454779e-08 2.506876907786e-08 0.0 
2.506876907786e-08 2.288071218892e-05 0.0 
0.0 0.0 0.0 
-1.968023310983e-08 4.660981891645e-08 0.0 
4.660981891645e-08 2.288986385612e-05 0.0 
0.0 0.0 0.0 
6.064148250218e-08 1.061588643865e-08 0.0 
1.061588643865e-08 2.289442776315e-05 0.0 
0.0 0.0 0.0 
-3.425533146029e-08 2.961657315725e-08 0.0 
2.961657315725e-08 2.290380067582e-05 0.0 
0.0 0.0 0.0 
4.667725339580e-08 -3.636426381140e-09 0.0 
-3.636426381140e-09 2.290454837883e-05 0.0 
0.0 0.0 0.0 
-4.615050919199e-08 1.472437762236e-08 0.0 
1.472437762236e-08 2.291485175143e-05 0.0 
0.0 0.0 0.0 
3.813023830013e-08 -1.659236909225e-08 0.0 
-1.659236909225e-08 2.291151289868e-05 0.0 
0.0 0.0 0.0 
-5.352113341406e-08 1.341031525382e-09 0.0 
1.341031525382e-09 2.292285686156e-05 0.0 
0.0 0.0 0.0 
-1.628462891423e-06 1.634343131575e-07 0.0 
1.634343131575e-07 1.845051604588e-05 0.0 
0.0 0.0 0.0 
3.272707949087e-08 -2.736974891898e-08 0.0 
-2.736974891898e-08 2.291548993005e-05 0.0 
0.0 0.0 0.0 
-5.460795371448e-08 -1.087756945506e-08 0.0 
-1.087756945506e-08 2.292727049702e-05 0.0 
0.0 0.0 0.0 
2.930948195257e-08 -3.549935375132e-08 0.0 
-3.549935375132e-08 2.291633275386e-05 0.0 
0.0 0.0 0.0 
3.406252611082e-07 2.016377046480e-06 0.0 
2.016377046480e-06 7.144480168142e-06 0.0 
0.0 0.0 0.0 
-4.845572365575e-08 -2.165316983330e-08 0.0 
-2.165316983330e-08 2.292754802813e-05 0.0 
0.0 0.0 0.0 
2.787692743311e-08 -4.092299954714e-08 0.0 
-4.092299954714e-08 2.291416480538e-05 0.0 
0.0 0.0 0.0 
1.262629247822e-07 -9.606790954535e-07 0.0 
-9.606790954535e-07 1.913594800040e-05 0.0 
0.0 0.0 0.0 
-3.519430658017e-08 -3.097489258803e-08 0.0 
-3.097489258803e-08 2.292352887601e-05 0.0 
0.0 0.0 0.0 
2.808753984951e-08 -4.356023617506e-08 0.0 
-4.356023617506e-08 2.290857246012e-05 0.0 
0.0 0.0 0.0 
-1.447897390872e-08 -3.775486865134e-08 0.0 
-3.775486865134e-08 2.291501472818e-05 0.0 
0.0 0.0 0.0 
3.249748226075e-08 -4.426549391026e-08 0.0 
-4.426549391026e-08 2.290074514177e-05 0.0 
0.0 0.0 0.0 
1.157678197750e-08 -4.365355906144e-08 0.0 
-4.365355906144e-08 2.290290115181e-05 0.0 
0.0 0.0 0.0 
4.015042209815e-08 -4.316674654153e-08 0.0 
-4.316674654153e-08 2.288863936983e-05 0.0 
0.0 0.0 0.0 
4.532213182529e-08 -4.537456477794e-08 0.0 
-4.537456477794e-08 2.288677089246e-05 0.0 
0.0 0.0 0.0 
6.252530138084e-08 -4.330585016179e-08 0.0 
-4.330585016179e-08 2.287621058161e-05 0.0 
0.0 0.0 0.0 
7.724055062219e-08 -5.019834173295e-08 0.0 
-5.019834173295e-08 2.287011567770e-05 0.0 
0.0 0.0 0.0 
7.477620602714e-07 5.140245652490e-07 0.0 
5.140245652490e-07 1.842842916022e-05 0.0 
0.0 0.0 0.0 
8.474832391414e-08 -4.120830285045e-08 0.0 
-4.120830285045e-08 2.285511290845e-05 0.0 
0.0 0.0 0.0 
1.306748624863e-07 -4.423006566652e-08 0.0 
-4.423006566652e-08 2.284756799020e-05 0.0 
0.0 0.0 0.0 
1.587050368901e-07 -4.832756467352e-08 0.0 
-4.832756467352e-08 2.284138878594e-05 0.0 
0.0 0.0 0.0 
1.418060706637e-07 -5.756037057208e-08 0.0 
-5.756037057208e-08 2.283691831284e-05 0.0 
0.0 0.0 0.0 
1.952006858374e-07 -4.446942946547e-08 0.0 
-4.446942946547e-08 2.280009691225e-05 0.0 
0.0 0.0 0.0 
3.752185575578e-07 -5.883298245906e-08 0.0 
-5.883298245906e-08 2.279046851794e-05 0.0 
0.0 0.0 0.0 
2.280293256440e-07 -2.851511502484e-08 0.0 
-2.851511502484e-08 2.280747692085e-05 0.0 
0.0 0.0 0.0 
2.150809821355e-07 1.184682896049e-08 0.0 
1.184682896049e-08 2.270410579386e-05 0.0 
0.0 0.0 0.0 
9.663284550321e-08 -6.219184870754e-08 0.0 
-6.219184870754e-08 2.283161310368e-05 0.0 
0.0 0.0 0.0 
3.862018096434e-07 7.263460846217e-08 0.0 
7.263460846217e-08 2.277711172760e-05 0.0 
0.0 0.0 0.0 
4.563475068942e-07 9.364786273285e-08 0.0 
9.364786273285e-08 2.273049240498e-05 0.0 
0.0 0.0 0.0 
-7.983030462233e-07 3.085066337701e-07 0.0 
3.085066337701e-07 2.280752630202e-05 0.0 
0.0 0.0 0.0 
4.312095791548e-08 5.778703944926e-08 0.0 
5.778703944926e-08 2.282805333942e-05 0.0 
0.0 0.0 0.0 
2.065323618794e-07 1.084256747521e-06 0.0 
1.084256747521e-06 2.201227050302e-05 0.0 
0.0 0.0 0.0 
-5.321088137555e-06 2.272304703107e-06 0.0 
2.272304703107e-06 2.352698682628e-05 0.0 
0.0 0.0 0.0 
1.490246470892e-06 3.732022048474e-07 0.0 
3.732022048474e-07 2.240564234524e-05 0.0 
0.0 0.0 0.0 
-1.390199082407e-06 1.769086636303e-06 0.0 
1.769086636303e-06 2.299589251109e-05 0.0 
0.0 0.0 0.0 
1.216654480496e-06 -1.050000120794e-07 0.0 
-1.050000120794e-07 3.511694821379e-06 0.0 
0.0 0.0 0.0 
2.848139587286e-06 -5.477674816642e-06 0.0 
-5.477674816642e-06 1.210527497220e-05 0.0 
0.0 0.0 0.0 
-1.050114772361e-06 5.331899349847e-06 0.0 
5.331899349847e-06 1.921779677949e-05 0.0 
0.0 0.0 0.0 
3.364052674426e-06 -7.404782130153e-07 0.0 
-7.404782130153e-07 2.295957028053e-06 0.0 
0.0 0.0 0.0 
-1.643469393797e-06 7.786772201682e-07 0.0 
7.786772201682e-07 2.874030388011e-05 0.0 
0.0 0.0 0.0 
2.323764106915e-06 1.928520360528e-06 0.0 
1.928520360528e-06 1.201397042072e-06 0.0 
0.0 0.0 0.0 
-6.588479648517e-07 6.611173071339e-07 0.0 
6.611173071339e-07 6.950267027817e-05 0.0 
0.0 0.0 0.0 
7.669547830158e-07 2.649868139420e-06 0.0 
2.649868139420e-06 7.201384982314e-05 0.0 
0.0 0.0 0.0 
5.330508163759e-07 -8.947905318007e-08 0.0 
-8.947905318007e-08 7.220304844524e-05 0.0 
0.0 0.0 0.0 
3.716102219276e-07 2.861168398556e-07 0.0 
2.861168398556e-07 7.306055724321e-05 0.0 
0.0 0.0 0.0 
3.250302329505e-07 -2.486458555154e-07 0.0 
-2.486458555154e-07 7.311600214144e-05 0.0 
0.0 0.0 0.0 
2.275372736893e-07 -1.058807489335e-07 0.0 
-1.058807489335e-07 7.346634997063e-05 0.0 
0.0 0.0 0.0 
1.494944497082e-07 -2.428707697684e-07 0.0 
-2.428707697684e-07 7.348561633647e-05 0.0 
0.0 0.0 0.0 
1.290494480166e-07 -1.592122396049e-07 0.0 
-1.592122396049e-07 7.365558145334e-05 0.0 
0.0 0.0 0.0 
7.344673669252e-08 -1.878845969606e-07 0.0 
-1.878845969606e-07 7.366093818195e-05 0.0 
0.0 0.0 0.0 
6.378376404825e-08 -1.435402878414e-07 0.0 
-1.435402878414e-07 7.374821926120e-05 0.0 
0.0 0.0 0.0 
3.719684937842e-08 -1.403142289688e-07 0.0 
-1.403142289688e-07 7.374783632175e-05 0.0 
0.0 0.0 0.0 
2.156014544674e-08 -1.206975700638e-07 0.0 
-1.206975700638e-07 7.379442467537e-05 0.0 
0.0 0.0 0.0 
1.460814225140e-08 -1.094404343597e-07 0.0 
-1.094404343597e-07 7.379180869860e-05 0.0 
0.0 0.0 0.0 
-6.312381395368e-09 -1.032060296071e-07 0.0 
-1.032060296071e-07 7.381810502927e-05 0.0 
0.0 0.0 0.0 
-3.457545250107e-09 -9.019501356375e-08 0.0 
-9.019501356375e-08 7.381446147026e-05 0.0 
0.0 0.0 0.0 
-2.552578248771e-08 -8.993112947282e-08 0.0 
-8.993112947282e-08 7.383065818689e-05 0.0 
0.0 0.0 0.0 
-1.968023310983e-08 -7.546984123773e-08 0.0 
-7.546984123773e-08 7.382602944905e-05 0.0 
0.0 0.0 0.0 
-3.926010228028e-08 -7.671036757398e-08 0.0 
-7.671036757398e-08 7.383738639533e-05 0.0 
0.0 0.0 0.0 
-3.425533146029e-08 -5.957921575101e-08 0.0 
-5.957921575101e-08 7.383133032723e-05 0.0 
0.0 0.0 0.0 
-4.905659423127e-08 -5.978674181331e-08 0.0 
-5.978674181331e-08 7.384071337047e-05 0.0 
0.0 0.0 0.0 
-4.615050919199e-08 -3.914976827824e-08 0.0 
-3.914976827824e-08 7.383278102369e-05 0.0 
0.0 0.0 0.0 
-5.552578197232e-08 -3.709958628853e-08 0.0 
-3.709958628853e-08 7.384193020576e-05 0.0 
0.0 0.0 0.0 
-4.783484936377e-06 -4.081616589922e-06 0.0 
-4.081616589922e-06 7.909788063243e-05 0.0 
0.0 0.0 0.0 
-5.352113341406e-08 -1.355542034948e-08 0.0 
-1.355542034948e-08 7.383210198109e-05 0.0 
0.0 0.0 0.0 
-5.819923520889e-08 -9.241393246897e-09 0.0 
-9.241393246897e-09 7.384161220036e-05 0.0 
0.0 0.0 0.0 
-5.460795371448e-08 1.525463188518e-08 0.0 
1.525463188518e-08 7.383045080545e-05 0.0 
0.0 0.0 0.0 
1.787229872319e-06 -1.669286528114e-07 0.0 
-1.669286528114e-07 7.402925586586e-05 0.0 
0.0 0.0 0.0 
-5.687536919208e-08 2.069065851747e-08 0.0 
2.069065851747e-08 7.384000347965e-05 0.0 
0.0 0.0 0.0 
-4.845572365575e-08 4.381902055904e-08 0.0 
4.381902055904e-08 7.382834750147e-05 0.0 
0.0 0.0 0.0 
-5.048228823856e-08 4.872446384476e-08 0.0 
4.872446384476e-08 7.383673497752e-05 0.0 
0.0 0.0 0.0 
-3.519430658017e-08 6.822066424300e-08 0.0 
6.822066424300e-08 7.382562820446e-05 0.0 
0.0 0.0 0.0 
-4.169115297437e-08 7.098796371835e-08 0.0 
7.098796371835e-08 7.383304280606e-05 0.0 
0.0 0.0 0.0 
-1.390199082407e-06 4.188041767286e-07 0.0 
4.188041767286e-07 5.648386641655e-05 0.0 
0.0 0.0 0.0 
-1.447897390872e-08 8.411861365854e-08 0.0 
8.411861365854e-08 7.382372746600e-05 0.0 
0.0 0.0 0.0 
-2.605437687819e-08 8.251195542875e-08 0.0 
8.251195542875e-08 7.382724024407e-05 0.0 
0.0 0.0 0.0 
1.157678197750e-08 8.828341798043e-08 0.0 
8.828341798043e-08 7.382062409400e-05 0.0 
0.0 0.0 0.0 
-1.564080598371e-08 8.160461717346e-08 0.0 
8.160461717346e-08 7.382435729997e-05 0.0 
0.0 0.0 0.0 
4.532213182529e-08 7.676774349597e-08 0.0 
7.676774349597e-08 7.382148791835e-05 0.0 
0.0 0.0 0.0 
1.135362470706e-08 5.995508633672e-08 0.0 
5.995508633672e-08 7.381423632458e-05 0.0 
0.0 0.0 0.0 
7.724055062219e-08 5.310526392468e-08 0.0 
5.310526392468e-08 7.381165363385e-05 0.0 
0.0 0.0 0.0 
4.221411442629e-09 3.571366544357e-08 0.0 
3.571366544357e-08 7.382020817337e-05 0.0 
0.0 0.0 0.0 
1.306748624863e-07 7.892232216481e-09 0.0 
7.892232216481e-09 7.382435928660e-05 0.0 
0.0 0.0 0.0 
7.591658301997e-08 -3.806593373356e-08 0.0 
-3.806593373356e-08 7.378800721658e-05 0.0 
0.0 0.0 0.0 
1.418060706637e-07 -2.283239023567e-08 0.0 
-2.283239023567e-08 7.376833831763e-05 0.0 
0.0 0.0 0.0 
1.575153429911e-08 -2.950889017109e-08 0.0 
-2.950889017109e-08 7.380861347084e-05 0.0 
0.0 0.0 0.0 
1.979720631651e-06 -8.545165610856e-07 0.0 
-8.545165610856e-07 8.048738984412e-05 0.0 
0.0 0.0 0.0 
2.737448481227e-07 -1.665005301550e-07 0.0 
-1.665005301550e-07 7.366156809341e-05 0.0 
0.0 0.0 0.0 
2.280293256440e-07 -6.282246777832e-08 0.0 
-6.282246777832e-08 7.380334408880e-05 0.0 
0.0 0.0 0.0 
1.055283060936e-08 2.164945929694e-07 0.0 
2.164945929694e-07 7.373844682079e-05 0.0 
0.0 0.0 0.0 
9.663284550321e-08 5.205867644066e-08 0.0 
5.205867644066e-08 7.351607947470e-05 0.0 
0.0 0.0 0.0 
9.030081506989e-07 -2.454117784194e-07 0.0 
-2.454117784194e-07 7.326955254228e-05 0.0 
0.0 0.0 0.0 
4.563475068942e-07 7.523500256985e-08 0.0 
7.523500256985e-08 7.377902023520e-05 0.0 
0.0 0.0 0.0 
8.586965314361e-07 1.182229892644e-06 0.0 
1.182229892644e-06 7.347651662104e-05 0.0 
0.0 0.0 0.0 
4.312095791548e-08 4.057465443846e-07 0.0 
4.057465443846e-07 7.286796822581e-05 0.0 
0.0 0.0 0.0 
1.490246470892e-06 5.952605759652e-08 0.0 
5.952605759652e-08 7.435616793128e-05 0.0 
0.0 0.0 0.0 
2.637707391395e-06 -9.341795889233e-07 0.0 
-9.341795889233e-07 5.190503067376e-05 0.0 
0.0 0.0 0.0 
-4.782378138168e-06 -7.854731476169e-06 0.0 
-7.854731476169e-06 7.867721875487e-05 0.0 
0.0 0.0 0.0 
4.817309451344e-07 8.522297351760e-06 0.0 
8.522297351760e-06 6.923125604996e-05 0.0 
0.0 0.0 0.0 
-2.603058682937e-06 -5.623021982707e-07 0.0 
-5.623021982707e-07 9.090579588800e-05 0.0 
0.0 0.0 0.0 
-1.643469393797e-06 1.443366129613e-06 0.0 
1.443366129613e-06 5.737004399875e-05 0.0 
0.0 0.0 0.0 
1.262629247822e-07 -2.483064597914e-06 0.0 
-2.483064597914e-06 5.389134187017e-05 0.0 
0.0 0.0 0.0 
-5.764978647793e-07 -3.469285902256e-07 0.0 
-3.469285902256e-07 1.444106217341e-04 0.0 
0.0 0.0 0.0 
7.669547830158e-07 2.694686819940e-06 0.0 
2.694686819940e-06 1.373192638374e-04 0.0 
0.0 0.0 0.0 
1.785836176715e-07 2.766253903080e-07 0.0 
2.766253903080e-07 1.371341294838e-04 0.0 
0.0 0.0 0.0 
3.716102219276e-07 3.011877457520e-07 0.0 
3.011877457520e-07 1.369164421168e-04 0.0 
0.0 0.0 0.0 
1.933241664531e-07 4.879684246329e-08 0.0 
4.879684246329e-08 1.368879134973e-04 0.0 
0.0 0.0 0.0 
2.275372736893e-07 -6.756337625200e-08 0.0 
-6.756337625200e-08 1.370735803659e-04 0.0 
0.0 0.0 0.0 
1.033268774986e-07 -4.511260045322e-08 0.0 
-4.511260045322e-08 1.370777693042e-04 0.0 
0.0 0.0 0.0 
1.290494480166e-07 -1.306466941421e-07 0.0 
-1.306466941421e-07 1.372113748854e-04 0.0 
0.0 0.0 0.0 
3.279866622741e-08 -7.537393878184e-08 0.0 
-7.537393878184e-08 1.372228941541e-04 0.0 
0.0 0.0 0.0 
6.378376404825e-08 -1.313721221017e-07 0.0 
-1.313721221017e-07 1.372977206489e-04 0.0 
0.0 0.0 0.0 
-1.109619984785e-08 -8.577207761816e-08 0.0 
-8.577207761816e-08 1.373092406587e-04 0.0 
0.0 0.0 0.0 
2.156014544674e-08 -1.214799790532e-07 0.0 
-1.214799790532e-07 1.373465867680e-04 0.0 
0.0 0.0 0.0 
-3.624003253044e-08 -9.009996831536e-08 0.0 
-9.009996831536e-08 1.373560826470e-04 0.0 
0.0 0.0 0.0 
-6.312381395368e-09 -1.119425841496e-07 0.0 
-1.119425841496e-07 1.373716195838e-04 0.0 
0.0 0.0 0.0 
-4.973763167992e-08 -9.084549856081e-08 0.0 
-9.084549856081e-08 1.373791388113e-04 0.0 
0.0 0.0 0.0 
-2.552578248771e-08 -1.024999432404e-07 0.0 
-1.024999432404e-07 1.373818573644e-04 0.0 
0.0 0.0 0.0 
-5.618673692975e-08 -8.680207738489e-08 0.0 
-8.680207738489e-08 1.373882097089e-04 0.0 
0.0 0.0 0.0 
-3.926010228028e-08 -9.021274065558e-08 0.0 
-9.021274065558e-08 1.373826768662e-04 0.0 
0.0 0.0 0.0 
-5.770988154019e-08 -7.581637673524e-08 0.0 
-7.581637673524e-08 1.373888962437e-04 0.0 
0.0 0.0 0.0 
-4.905659423127e-08 -7.204601508104e-08 0.0 
-7.204601508104e-08 1.373775711704e-04 0.0 
0.0 0.0 0.0 
-2.973439889975e-06 -4.017992950695e-06 0.0 
-4.017992950695e-06 1.430317437239e-04 0.0 
0.0 0.0 0.0 
-5.524399737666e-08 -5.573692007812e-08 0.0 
-5.573692007812e-08 1.373847480493e-04 0.0 
0.0 0.0 0.0 
-5.552578197232e-08 -4.591156006782e-08 0.0 
-4.591156006782e-08 1.373697988474e-04 0.0 
0.0 0.0 0.0 
-4.958784172171e-08 -2.516316051547e-08 0.0 
-2.516316051547e-08 1.373790588099e-04 0.0 
0.0 0.0 0.0 
8.586965314361e-07 -2.190882636581e-07 0.0 
-2.190882636581e-07 1.203987000264e-04 0.0 
0.0 0.0 0.0 
-5.819923520889e-08 -1.211678922523e-08 0.0 
-1.211678922523e-08 1.373643331619e-04 0.0 
0.0 0.0 0.0 
-4.462559488605e-08 1.175864502777e-08 0.0 
1.175864502777e-08 1.373754225265e-04 0.0 
0.0 0.0 0.0 
2.536594288172e-06 7.522289617868e-08 0.0 
7.522289617868e-08 1.375610193324e-04 0.0 
0.0 0.0 0.0 
-5.687536919208e-08 2.525037205775e-08 0.0 
2.525037205775e-08 1.373622455181e-04 0.0 
0.0 0.0 0.0 
-4.161095845667e-08 5.137880519642e-08 0.0 
5.137880519642e-08 1.373752082303e-04 0.0 
0.0 0.0 0.0 
-5.048228823856e-08 6.026253873716e-08 0.0 
6.026253873716e-08 1.373670574329e-04 0.0 
0.0 0.0 0.0 
-4.299954758924e-08 8.163824776447e-08 0.0 
8.163824776447e-08 1.373787669334e-04 0.0 
0.0 0.0 0.0 
-4.169115297437e-08 8.748157484365e-08 0.0 
8.748157484365e-08 1.373700490725e-04 0.0 
0.0 0.0 0.0 
-3.899483569381e-08 1.114388013362e-07 0.0 
1.114388013362e-07 1.373845367085e-04 0.0 
0.0 0.0 0.0 
-2.605437687819e-08 1.029101327182e-07 0.0 
1.029101327182e-07 1.373901551596e-04 0.0 
0.0 0.0 0.0 
-4.703670786199e-08 1.066544452599e-07 0.0 
1.066544452599e-07 1.373948459282e-04 0.0 
0.0 0.0 0.0 
-1.564080598371e-08 1.032092319046e-07 0.0 
1.032092319046e-07 1.373859289946e-04 0.0 
0.0 0.0 0.0 
2.322581770020e-06 1.572860630199e-07 0.0 
1.572860630199e-07 1.451803290329e-04 0.0 
0.0 0.0 0.0 
-2.806903132146e-08 1.267625482268e-07 0.0 
1.267625482268e-07 1.374037243176e-04 0.0 
0.0 0.0 0.0 
1.135362470706e-08 8.777976269117e-08 0.0 
8.777976269117e-08 1.374373255185e-04 0.0 
0.0 0.0 0.0 
-6.611585523508e-08 4.612472857080e-08 0.0 
4.612472857080e-08 1.374172279354e-04 0.0 
0.0 0.0 0.0 
4.221411442629e-09 6.245491478086e-08 0.0 
6.245491478086e-08 1.373704926466e-04 0.0 
0.0 0.0 0.0 
7.591658301997e-08 1.491382313729e-08 0.0 
1.491382313729e-08 1.375521989295e-04 0.0 
0.0 0.0 0.0 
2.123022713185e-08 1.373829736174e-07 0.0 
1.373829736174e-07 1.374256135178e-04 0.0 
0.0 0.0 0.0 
1.575153429911e-08 -4.551759427517e-08 0.0 
-4.551759427517e-08 1.372089669143e-04 0.0 
0.0 0.0 0.0 
-2.042561667581e-07 -1.815783796550e-07 0.0 
-1.815783796550e-07 1.374391875435e-04 0.0 
0.0 0.0 0.0 
2.737448481227e-07 -1.406569317417e-07 0.0 
-1.406569317417e-07 1.377546297290e-04 0.0 
0.0 0.0 0.0 
1.938293909820e-07 2.074859109350e-07 0.0 
2.074859109350e-07 1.373911719207e-04 0.0 
0.0 0.0 0.0 
1.055283060936e-08 -1.426069331008e-07 0.0 
-1.426069331008e-07 1.362994982022e-04 0.0 
0.0 0.0 0.0 
9.030081506989e-07 1.229575036850e-07 0.0 
1.229575036850e-07 1.379845035467e-04 0.0 
0.0 0.0 0.0 
-6.355777817380e-07 -8.787450395863e-07 0.0 
-8.787450395863e-07 1.372796019619e-04 0.0 
0.0 0.0 0.0 
2.037532835564e-06 9.211998877477e-07 0.0 
9.211998877477e-07 1.368496910061e-04 0.0 
0.0 0.0 0.0 
3.199327322401e-06 -1.042194195323e-06 0.0 
-1.042194195323e-06 1.178863713545e-04 0.0 
0.0 0.0 0.0 
4.677199989533e-07 -7.909287031366e-06 0.0 
-7.909287031366e-06 1.370088327175e-04 0.0 
0.0 0.0 0.0 
-3.872265883831e-06 9.074587013583e-06 0.0 
9.074587013583e-06 1.447742065679e-04 0.0 
0.0 0.0 0.0 
-2.603058682937e-06 -1.273120662499e-07 0.0 
-1.273120662499e-07 1.246979969693e-04 0.0 
0.0 0.0 0.0 
-8.263736175351e-07 1.497927857788e-06 0.0 
1.497927857788e-06 1.567062459089e-04 0.0 
0.0 0.0 0.0 
1.787229872319e-06 -2.841638828200e-07 0.0 
-2.841638828200e-07 1.174813654043e-04 0.0 
0.0 0.0 0.0 
-5.764978647793e-07 -1.104991596016e-06 0.0 
-1.104991596016e-06 1.962921508292e-04 0.0 
0.0 0.0 0.0 
-2.357447687062e-07 1.653664657267e-06 0.0 
1.653664657267e-06 2.012822136166e-04 0.0 
0.0 0.0 0.0 
1.785836176715e-07 3.316236610115e-07 0.0 
3.316236610115e-07 2.013832961658e-04 0.0 
0.0 0.0 0.0 
-9.502041486975e-09 2.931953511336e-07 0.0 
2.931953511336e-07 2.014778830743e-04 0.0 
0.0 0.0 0.0 
1.933241664531e-07 1.054151695037e-07 0.0 
1.054151695037e-07 2.014988749310e-04 0.0 
0.0 0.0 0.0 
4.296319788821e-08 5.695659838590e-08 0.0 
5.695659838590e-08 2.015375311755e-04 0.0 
0.0 0.0 0.0 
1.033268774986e-07 -3.964533580528e-08 0.0 
-3.964533580528e-08 2.015520358301e-04 0.0 
0.0 0.0 0.0 
2.561057876882e-08 -3.802867085646e-08 0.0 
-3.802867085646e-08 2.016184476503e-04 0.0 
0.0 0.0 0.0 
3.279866622741e-08 -8.912197943772e-08 0.0 
-8.912197943772e-08 2.016282068287e-04 0.0 
0.0 0.0 0.0 
-8.197469703042e-09 -7.555771962228e-08 0.0 
-7.555771962228e-08 2.016842864301e-04 0.0 
0.0 0.0 0.0 
-1.109619984785e-08 -9.946084510870e-08 0.0 
-9.946084510870e-08 2.016898411286e-04 0.0 
0.0 0.0 0.0 
-3.778121659970e-08 -8.983285357204e-08 0.0 
-8.983285357204e-08 2.017264891165e-04 0.0 
0.0 0.0 0.0 
-3.624003253044e-08 -9.741832487641e-08 0.0 
-9.741832487641e-08 2.017285034306e-04 0.0 
0.0 0.0 0.0 
-5.645776712804e-08 -9.445011245361e-08 0.0 
-9.445011245361e-08 2.017480019787e-04 0.0 
0.0 0.0 0.0 
-4.973763167992e-08 -9.123234311788e-08 0.0 
-9.123234311788e-08 2.017468528395e-04 0.0 
0.0 0.0 0.0 
-6.597697799204e-08 -9.322520387235e-08 0.0 
-9.322520387235e-08 2.017546614481e-04 0.0 
0.0 0.0 0.0 
-5.618673692975e-08 -8.208647920604e-08 0.0 
-8.208647920604e-08 2.017505124630e-04 0.0 
0.0 0.0 0.0 
-6.863920176681e-08 -8.677846732279e-08 0.0 
-8.677846732279e-08 2.017510566730e-04 0.0 
0.0 0.0 0.0 
-5.770988154019e-08 -6.857078114301e-08 0.0 
-6.857078114301e-08 2.017436495259e-04 0.0 
0.0 0.0 0.0 
-2.142247089720e-06 -3.688660992331e-06 0.0 
-3.688660992331e-06 2.064789706175e-04 0.0 
0.0 0.0 0.0 
-6.653551065661e-08 -7.379141299681e-08 0.0 
-7.379141299681e-08 2.017409036339e-04 0.0 
0.0 0.0 0.0 
-5.524399737666e-08 -4.909912470231e-08 0.0 
-4.909912470231e-08 2.017299516182e-04 0.0 
0.0 0.0 0.0 
-5.927429469477e-08 -5.235720272834e-08 0.0 
-5.235720272834e-08 2.017273239816e-04 0.0 
0.0 0.0 0.0 
2.448523221288e-06 1.349997929105e-07 0.0 
1.349997929105e-07 2.019715220158e-04 0.0 
0.0 0.0 0.0 
-4.958784172171e-08 -2.198667277700e-08 0.0 
-2.198667277700e-08 2.017127909675e-04 0.0 
0.0 0.0 0.0 
-4.603564607297e-08 -1.841604056588e-08 0.0 
-1.841604056588e-08 2.017161488057e-04 0.0 
0.0 0.0 0.0 
-4.462559488605e-08 1.116497212817e-08 0.0 
1.116497212817e-08 2.017012701712e-04 0.0 
0.0 0.0 0.0 
-4.283066246114e-08 2.032879748750e-08 0.0 
2.032879748750e-08 2.017137049179e-04 0.0 
0.0 0.0 0.0 
-4.161095845667e-08 4.474607841128e-08 0.0 
4.474607841128e-08 2.017004687407e-04 0.0 
0.0 0.0 0.0 
2.037532835564e-06 2.720262880926e-07 0.0 
2.720262880926e-07 1.837524578587e-04 0.0 
0.0 0.0 0.0 
-4.147220766804e-08 6.001210998351e-08 0.0 
6.001210998351e-08 2.017221232304e-04 0.0 
0.0 0.0 0.0 
-4.299954758924e-08 7.103978598899e-08 0.0 
7.103978598899e-08 2.017158881997e-04 0.0 
0.0 0.0 0.0 
-6.734727264757e-08 7.824034083389e-08 0.0 
7.824034083389e-08 2.017375278183e-04 0.0 
0.0 0.0 0.0 
-3.899483569381e-08 8.808845528847e-08 0.0 
8.808845528847e-08 2.017287831859e-04 0.0 
0.0 0.0 0.0 
-4.664641584107e-08 1.088281682819e-07 0.0 
1.088281682819e-07 2.017601684452e-04 0.0 
0.0 0.0 0.0 
-4.703670786199e-08 8.857761212884e-08 0.0 
8.857761212884e-08 2.017734509072e-04 0.0 
0.0 0.0 0.0 
-1.130939191185e-07 7.202807036005e-08 0.0 
7.202807036005e-08 2.017800496339e-04 0.0 
0.0 0.0 0.0 
-2.806903132146e-08 8.478932620873e-08 0.0 
8.478932620873e-08 2.017610270248e-04 0.0 
0.0 0.0 0.0 
2.259810782945e-09 1.332777795533e-07 0.0 
1.332777795533e-07 2.018103555244e-04 0.0 
0.0 0.0 0.0 
-6.611585523508e-08 5.292897968006e-08 0.0 
5.292897968006e-08 2.018782005111e-04 0.0 
0.0 0.0 0.0 
-2.187321105351e-07 -5.573281883825e-08 0.0 
-5.573281883825e-08 2.018022584178e-04 0.0 
0.0 0.0 0.0 
2.934132521615e-06 8.052571490101e-07 0.0 
8.052571490101e-07 2.088837924030e-04 0.0 
0.0 0.0 0.0 
2.335060478309e-07 3.118912876115e-07 0.0 
3.118912876115e-07 2.018840824176e-04 0.0 
0.0 0.0 0.0 
2.123022713185e-08 6.945308335698e-08 0.0 
6.945308335698e-08 2.016704641827e-04 0.0 
0.0 0.0 0.0 
-6.738540877516e-07 -5.468939434763e-07 0.0 
-5.468939434763e-07 2.017816301432e-04 0.0 
0.0 0.0 0.0 
-2.042561667581e-07 -2.496536880926e-08 0.0 
-2.496536880926e-08 2.022275543385e-04 0.0 
0.0 0.0 0.0 
1.722907192026e-06 1.007997166628e-06 0.0 
1.007997166628e-06 2.016732534611e-04 0.0 
0.0 0.0 0.0 
1.938293909820e-07 7.088299890032e-08 0.0 
7.088299890032e-08 2.011035855989e-04 0.0 
0.0 0.0 0.0 
-6.355777817380e-07 1.560018499475e-07 0.0 
1.560018499475e-07 2.028883464154e-04 0.0 
0.0 0.0 0.0 
3.943218264579e-06 -4.953751055941e-07 0.0 
-4.953751055941e-07 1.813658272163e-04 0.0 
0.0 0.0 0.0 
-3.106712400336e-06 -8.324310492608e-06 0.0 
-8.324310492608e-06 2.045065983181e-04 0.0 
0.0 0.0 0.0 
1.680282156080e-06 8.327227281743e-06 0.0 
8.327227281743e-06 1.959285385722e-04 0.0 
0.0 0.0 0.0 
-5.562039577800e-07 -7.887738236006e-07 0.0 
-7.887738236006e-07 2.168344881233e-04 0.0 
0.0 0.0 0.0 
-8.263736175351e-07 1.014288401235e-06 0.0 
1.014288401235e-06 1.839951006450e-04 0.0 
0.0 0.0 0.0 
2.536594288172e-06 -1.870194021748e-07 0.0 
-1.870194021748e-07 1.813808270590e-04 0.0 
0.0 0.0 0.0 
-2.492408356369e-07 -1.515060129278e-06 0.0 
-1.515060129278e-06 2.715020098882e-04 0.0 
0.0 0.0 0.0 
-2.357447687062e-07 1.487930541496e-06 0.0 
1.487930541496e-06 2.657448101619e-04 0.0 
0.0 0.0 0.0 
-9.121026400827e-08 -1.068853266944e-08 0.0 
-1.068853266944e-08 2.656142222377e-04 0.0 
0.0 0.0 0.0 
-9.502041486975e-09 1.889987123030e-07 0.0 
1.889987123030e-07 2.651694957514e-04 0.0 
0.0 0.0 0.0 
6.518128703448e-09 1.455344980792e-08 0.0 
1.455344980792e-08 2.651466738828e-04 0.0 
0.0 0.0 0.0 
4.296319788821e-08 1.189251622219e-08 0.0 
1.189251622219e-08 2.651211506055e-04 0.0 
0.0 0.0 0.0 
1.689068240829e-08 -2.306608338352e-08 0.0 
-2.306608338352e-08 2.651152679949e-04 0.0 
0.0 0.0 0.0 
2.561057876882e-08 -5.066891255568e-08 0.0 
-5.066891255568e-08 2.651575457482e-04 0.0 
0.0 0.0 0.0 
-1.007133354491e-08 -4.456074937082e-08 0.0 
-4.456074937082e-08 2.651592951823e-04 0.0 
0.0 0.0 0.0 
-8.197469703042e-09 -7.247343168424e-08 0.0 
-7.247343168424e-08 2.652064220674e-04 0.0 
0.0 0.0 0.0 
-4.293721800330e-08 -5.837985037131e-08 0.0 
-5.837985037131e-08 2.652106896892e-04 0.0 
0.0 0.0 0.0 
-3.778121659970e-08 -7.982073056080e-08 0.0 
-7.982073056080e-08 2.652433397838e-04 0.0 
0.0 0.0 0.0 
-6.788268147595e-08 -7.032595781015e-08 0.0 
-7.032595781015e-08 2.652469265538e-04 0.0 
0.0 0.0 0.0 
-5.645776712804e-08 -8.278991418192e-08 0.0 
-8.278991418192e-08 2.652597225912e-04 0.0 
0.0 0.0 0.0 
-7.710997551591e-08 -7.644788270188e-08 0.0 
-7.644788270188e-08 2.652625531567e-04 0.0 
0.0 0.0 0.0 
-6.597697799204e-08 -8.060697239605e-08 0.0 
-8.060697239605e-08 2.652620410903e-04 0.0 
0.0 0.0 0.0 
-8.016707697678e-08 -7.652557461964e-08 0.0 
-7.652557461964e-08 2.652641813530e-04 0.0 
0.0 0.0 0.0 
-6.863920176681e-08 -7.418319302612e-08 0.0 
-7.418319302612e-08 2.652534544654e-04 0.0 
0.0 0.0 0.0 
-1.951963040980e-06 -3.475567378415e-06 0.0 
-3.475567378415e-06 2.705552606090e-04 0.0 
0.0 0.0 0.0 
-8.076934598922e-08 -6.962604595011e-08 0.0 
-6.962604595011e-08 2.652560090919e-04 0.0 
0.0 0.0 0.0 
-6.653551065661e-08 -6.339944800840e-08 0.0 
-6.339944800840e-08 2.652382935466e-04 0.0 
0.0 0.0 0.0 
-7.974663374100e-08 -5.779051300102e-08 0.0 
-5.779051300102e-08 2.652417315372e-04 0.0 
0.0 0.0 0.0 
1.722907192026e-06 4.417006220646e-07 0.0 
4.417006220646e-07 2.479551146639e-04 0.0 
0.0 0.0 0.0 
-5.927429469477e-08 -4.836628396878e-08 0.0 
-4.836628396878e-08 2.652166157469e-04 0.0 
0.0 0.0 0.0 
2.274897492160e-06 1.813966297127e-07 0.0 
1.813966297127e-07 2.658415814678e-04 0.0 
0.0 0.0 0.0 
-6.938959984382e-08 -4.022869646383e-08 0.0 
-4.022869646383e-08 2.652215498209e-04 0.0 
0.0 0.0 0.0 
-4.603564607297e-08 -2.433587681740e-08 0.0 
-2.433587681740e-08 2.651867279606e-04 0.0 
0.0 0.0 0.0 
-4.449974921883e-08 4.536059351137e-09 0.0 
4.536059351137e-09 2.652029242127e-04 0.0 
0.0 0.0 0.0 
-4.283066246114e-08 1.356585395532e-08 0.0 
1.356585395532e-08 2.651895532957e-04 0.0 
0.0 0.0 0.0 
-5.263263747057e-08 3.999208229870e-08 0.0 
3.999208229870e-08 2.652065467594e-04 0.0 
0.0 0.0 0.0 
-4.147220766804e-08 4.811180963077e-08 0.0 
4.811180963077e-08 2.651905341717e-04 0.0 
0.0 0.0 0.0 
-6.338920199855e-08 1.018605575443e-07 0.0 
1.018605575443e-07 2.652279181963e-04 0.0 
0.0 0.0 0.0 
-6.734727264757e-08 7.226506198818e-08 0.0 
7.226506198818e-08 2.652682045061e-04 0.0 
0.0 0.0 0.0 
3.653822134186e-06 4.749638232597e-07 0.0 
4.749638232597e-07 2.725258290794e-04 0.0 
0.0 0.0 0.0 
-1.322691072225e-07 5.647067347303e-08 0.0 
5.647067347303e-08 2.652650715427e-04 0.0 
0.0 0.0 0.0 
-4.664641584107e-08 7.150933860616e-08 0.0 
7.150933860616e-08 2.652120791788e-04 0.0 
0.0 0.0 0.0 
-5.356050947203e-08 1.709766943089e-07 0.0 
1.709766943089e-07 2.652865428450e-04 0.0 
0.0 0.0 0.0 
-1.130939191185e-07 7.308232930227e-08 0.0 
7.308232930227e-08 2.654277763410e-04 0.0 
0.0 0.0 0.0 
2.259810782945e-09 5.105102746022e-08 0.0 
5.105102746022e-08 2.651060269734e-04 0.0 
0.0 0.0 0.0 
-2.245559469483e-07 -7.336994725533e-08 0.0 
-7.336994725533e-08 2.653302284803e-04 0.0 
0.0 0.0 0.0 
-2.187321105351e-07 4.562429716727e-08 0.0 
4.562429716727e-08 2.657831571871e-04 0.0 
0.0 0.0 0.0 
1.794364568042e-07 3.444388562088e-07 0.0 
3.444388562088e-07 2.653181636254e-04 0.0 
0.0 0.0 0.0 
2.335060478309e-07 1.185307969968e-07 0.0 
1.185307969968e-07 2.643974101473e-04 0.0 
0.0 0.0 0.0 
-6.738540877516e-07 3.689311904195e-07 0.0 
3.689311904195e-07 2.666954405015e-04 0.0 
0.0 0.0 0.0 
-5.350053817743e-07 -5.366813675463e-07 0.0 
-5.366813675463e-07 2.653365914431e-04 0.0 
0.0 0.0 0.0 
1.921023888185e-06 1.245357355417e-06 0.0 
1.245357355417e-06 2.650745526536e-04 0.0 
0.0 0.0 0.0 
4.466495958644e-06 -4.850440872021e-07 0.0 
-4.850440872021e-07 2.450667901899e-04 0.0 
0.0 0.0 0.0 
1.961895834235e-06 -8.381631782845e-06 0.0 
-8.381631782845e-06 2.634870764573e-04 0.0 
0.0 0.0 0.0 
-2.751782946953e-06 8.273825294085e-06 0.0 
8.273825294085e-06 2.719287962780e-04 0.0 
0.0 0.0 0.0 
-5.562039577800e-07 -8.078246791147e-07 0.0 
-8.078246791147e-07 2.510785654315e-04 0.0 
0.0 0.0 0.0 
-2.824737991292e-07 9.506232784107e-07 0.0 
9.506232784107e-07 2.838936853709e-04 0.0 
0.0 0.0 0.0 
2.448523221288e-06 -2.602730699276e-07 0.0 
-2.602730699276e-07 2.453465123571e-04 0.0 
0.0 0.0 0.0 
-2.492408356369e-07 -1.628451635326e-06 0.0 
-1.628451635326e-06 3.238341822058e-04 0.0 
0.0 0.0 0.0 
-1.419659645396e-07 1.256683624468e-06 0.0 
1.256683624468e-06 3.292554219891e-04 0.0 
0.0 0.0 0.0 
-9.121026400827e-08 -7.056546413149e-08 0.0 
-7.056546413149e-08 3.293707390069e-04 0.0 
0.0 0.0 0.0 
-5.203053465852e-08 5.331598018359e-08 0.0 
5.331598018359e-08 3.295681074729e-04 0.0 
0.0 0.0 0.0 
6.518128703448e-09 8.746903538627e-09 0.0 
8.746903538627e-09 3.295736718052e-04 0.0 
0.0 0.0 0.0 
-7.039858807012e-09 -1.380584331034e-09 0.0 
-1.380584331034e-09 3.295664807261e-04 0.0 
0.0 0.0 0.0 
1.689068240829e-08 -1.833104998467e-08 0.0 
-1.833104998467e-08 3.295692476839e-04 0.0 
0.0 0.0 0.0 
-3.970686224264e-09 -1.404705659749e-08 0.0 
-1.404705659749e-08 3.295934571281e-04 0.0 
0.0 0.0 0.0 
-1.007133354491e-08 -4.296579827780e-08 0.0 
-4.296579827780e-08 3.295998158885e-04 0.0 
0.0 0.0 0.0 
-2.292997725029e-08 -2.857122577858e-08 0.0 
-2.857122577858e-08 3.296345729098e-04 0.0 
0.0 0.0 0.0 
-4.293721800330e-08 -5.799043475617e-08 0.0 
-5.799043475617e-08 3.296425878738e-04 0.0 
0.0 0.0 0.0 
-5.736211383667e-08 -4.689291360508e-08 0.0 
-4.689291360508e-08 3.296717741557e-04 0.0 
0.0 0.0 0.0 
-6.788268147595e-08 -7.077494063184e-08 0.0 
-7.077494063184e-08 3.296792862224e-04 0.0 
0.0 0.0 0.0 
-7.502995813535e-08 -7.011364831496e-08 0.0 
-7.011364831496e-08 3.296852562344e-04 0.0 
0.0 0.0 0.0 
-7.710997551591e-08 -7.315329985049e-08 0.0 
-7.315329985049e-08 3.296863764162e-04 0.0 
0.0 0.0 0.0 
-7.527803491669e-08 -7.469885603182e-08 0.0 
-7.469885603182e-08 3.296827048662e-04 0.0 
0.0 0.0 0.0 
-8.016707697678e-08 -6.615039415484e-08 0.0 
-6.615039415484e-08 3.296795469674e-04 0.0 
0.0 0.0 0.0 
-1.651894587451e-06 -3.583470481039e-06 0.0 
-3.583470481039e-06 3.345196471869e-04 0.0 
0.0 0.0 0.0 
-8.061868472797e-08 -7.020939375671e-08 0.0 
-7.020939375671e-08 3.296734703495e-04 0.0 
0.0 0.0 0.0 
-8.076934598922e-08 -5.358180370370e-08 0.0 
-5.358180370370e-08 3.296662480827e-04 0.0 
0.0 0.0 0.0 
2.682719606240e-06 3.317240363860e-07 0.0 
3.317240363860e-07 3.300415183272e-04 0.0 
0.0 0.0 0.0 
-9.928334510079e-08 -6.161533572489e-08 0.0 
-6.161533572489e-08 3.296647413134e-04 0.0 
0.0 0.0 0.0 
-7.974663374100e-08 -4.413091428166e-08 0.0 
-4.413091428166e-08 3.296552620238e-04 0.0 
0.0 0.0 0.0 
-1.097844190001e-07 -5.986994431937e-08 0.0 
-5.986994431937e-08 3.296484056883e-04 0.0 
0.0 0.0 0.0 
-6.938959984382e-08 -3.405365578713e-08 0.0 
-3.405365578713e-08 3.296321873345e-04 0.0 
0.0 0.0 0.0 
-9.172180504002e-08 -5.580421415489e-08 0.0 
-5.580421415489e-08 3.296124732874e-04 0.0 
0.0 0.0 0.0 
1.921023888185e-06 8.075285636647e-07 0.0 
8.075285636647e-07 3.121043422585e-04 0.0 
0.0 0.0 0.0 
-4.449974921883e-08 4.187886046145e-09 0.0 
4.187886046145e-09 3.295747931933e-04 0.0 
0.0 0.0 0.0 
-2.870868798244e-08 2.549950535553e-08 0.0 
2.549950535553e-08 3.295968023429e-04 0.0 
0.0 0.0 0.0 
-5.263263747057e-08 5.084920984987e-08 0.0 
5.084920984987e-08 3.295835881059e-04 0.0 
0.0 0.0 0.0 
-1.142968318879e-07 6.099312923054e-08 0.0 
6.099312923054e-08 3.296252656810e-04 0.0 
0.0 0.0 0.0 
-6.338920199855e-08 9.097337819621e-08 0.0 
9.097337819621e-08 3.296003001989e-04 0.0 
0.0 0.0 0.0 
-7.151059733257e-08 1.594482003616e-07 0.0 
1.594482003616e-07 3.296930694638e-04 0.0 
0.0 0.0 0.0 
-1.322691072225e-07 6.350198904858e-08 0.0 
6.350198904858e-08 3.297671654003e-04 0.0 
0.0 0.0 0.0 
-3.624615050324e-07 -3.981460638242e-08 0.0 
-3.981460638242e-08 3.297283861612e-04 0.0 
0.0 0.0 0.0 
-5.356050947203e-08 7.663519659934e-08 0.0 
7.663519659934e-08 3.296001253486e-04 0.0 
0.0 0.0 0.0 
1.335129371505e-07 2.845751489826e-07 0.0 
2.845751489826e-07 3.297839569814e-04 0.0 
0.0 0.0 0.0 
4.078561404164e-06 6.032477716340e-07 0.0 
6.032477716340e-07 3.366545845407e-04 0.0 
0.0 0.0 0.0 
-6.471535671793e-07 -4.812548327206e-07 0.0 
-4.812548327206e-07 3.297145866235e-04 0.0 
0.0 0.0 0.0 
-2.245559469483e-07 -3.703016832772e-08 0.0 
-3.703016832772e-08 3.300904752819e-04 0.0 
0.0 0.0 0.0 
1.740036463804e-06 9.994159882309e-07 0.0 
9.994159882309e-07 3.295802184331e-04 0.0 
0.0 0.0 0.0 
1.794364568042e-07 1.160212762269e-07 0.0 
1.160212762269e-07 3.290801642999e-04 0.0 
0.0 0.0 0.0 
-5.350053817743e-07 1.267436587391e-07 0.0 
1.267436587391e-07 3.307691285581e-04 0.0 
0.0 0.0 0.0 
4.855635548973e-06 1.140648454858e-07 0.0 
1.140648454858e-07 3.091614261563e-04 0.0 
0.0 0.0 0.0 
-2.668429559538e-06 -8.438332970900e-06 0.0 
-8.438332970900e-06 3.319489012701e-04 0.0 
0.0 0.0 0.0 
2.100005416006e-06 8.167675784448e-06 0.0 
8.167675784448e-06 3.234071533929e-04 0.0 
0.0 0.0 0.0 
-2.340817409907e-07 -8.986831349959e-07 0.0 
-8.986831349959e-07 3.443707330224e-04 0.0 
0.0 0.0 0.0 
-2.824737991292e-07 8.813691945170e-07 0.0 
8.813691945170e-07 3.114313552495e-04 0.0 
0.0 0.0 0.0 
2.274897492160e-06 1.135922801956e-07 0.0 
1.135922801956e-07 3.096997146625e-04 0.0 
0.0 0.0 0.0 
-1.565281725346e-07 -1.738654918463e-06 0.0 
-1.738654918463e-06 3.991664622038e-04 0.0 
0.0 0.0 0.0 
-1.419659645396e-07 1.213958015503e-06 0.0 
1.213958015503e-06 3.935433552364e-04 0.0 
0.0 0.0 0.0 
-6.119033135743e-08 -1.971600555873e-07 0.0 
-1.971600555873e-07 3.934020414902e-04 0.0 
0.0 0.0 0.0 
-5.203053465852e-08 -8.835523966714e-09 0.0 
-8.835523966714e-09 3.930458037558e-04 0.0 
0.0 0.0 0.0 
1.870995713915e-08 -6.466828851762e-08 0.0 
-6.466828851762e-08 3.930370309257e-04 0.0 
0.0 0.0 0.0 
-7.039858807012e-09 -4.119319134719e-08 0.0 
-4.119319134719e-08 3.930156331018e-04 0.0 
0.0 0.0 0.0 
1.535536564568e-08 -2.955543892916e-08 0.0 
-2.955543892916e-08 3.930177367000e-04 0.0 
0.0 0.0 0.0 
-3.970686224264e-09 -3.394738203014e-08 0.0 
-3.394738203014e-08 3.930402191090e-04 0.0 
0.0 0.0 0.0 
9.457020722081e-09 -2.010102887525e-08 0.0 
-2.010102887525e-08 3.930434708894e-04 0.0 
0.0 0.0 0.0 
-2.292997725029e-08 -2.860868759704e-08 0.0 
-2.860868759704e-08 3.930813335153e-04 0.0 
0.0 0.0 0.0 
-2.197001958137e-08 -1.043413582714e-08 0.0 
-1.043413582714e-08 3.930867642816e-04 0.0 
0.0 0.0 0.0 
-5.736211383667e-08 -2.744905826997e-08 0.0 
-2.744905826997e-08 3.931389276479e-04 0.0 
0.0 0.0 0.0 
-7.161774340236e-08 -4.282543189412e-08 0.0 
-4.282543189412e-08 3.931339824959e-04 0.0 
0.0 0.0 0.0 
-7.502995813535e-08 -4.840061664726e-08 0.0 
-4.840061664726e-08 3.931450866088e-04 0.0 
0.0 0.0 0.0 
-8.334820411626e-08 -6.891328192744e-08 0.0 
-6.891328192744e-08 3.931372142725e-04 0.0 
0.0 0.0 0.0 
-7.527803491669e-08 -5.786246933122e-08 0.0 
-5.786246933122e-08 3.931152383676e-04 0.0 
0.0 0.0 0.0 
-2.308218177371e-06 -3.451320703940e-06 0.0 
-3.451320703940e-06 3.987844268247e-04 0.0 
0.0 0.0 0.0 
-4.951115906149e-08 -5.558684647810e-08 0.0 
-5.558684647810e-08 3.931149579499e-04 0.0 
0.0 0.0 0.0 
-8.061868472797e-08 -3.911047116711e-08 0.0 
-3.911047116711e-08 3.931077413701e-04 0.0 
0.0 0.0 0.0 
1.740036463804e-06 2.348051157708e-07 0.0 
2.348051157708e-07 3.759432387094e-04 0.0 
0.0 0.0 0.0 
-9.966033642783e-08 -2.356189450468e-08 0.0 
-2.356189450468e-08 3.931167057616e-04 0.0 
0.0 0.0 0.0 
-9.928334510079e-08 -2.600628590859e-08 0.0 
-2.600628590859e-08 3.931200519731e-04 0.0 
0.0 0.0 0.0 
2.613653693029e-06 4.100890173062e-07 0.0 
4.100890173062e-07 3.936925491359e-04 0.0 
0.0 0.0 0.0 
-1.516847795147e-07 -2.487513248659e-08 0.0 
-2.487513248659e-08 3.931246369659e-04 0.0 
0.0 0.0 0.0 
-1.097844190001e-07 -3.269438615891e-08 0.0 
-3.269438615891e-08 3.931150527445e-04 0.0 
0.0 0.0 0.0 
-1.550969498387e-07 -5.446756896981e-08 0.0 
-5.446756896981e-08 3.931060669624e-04 0.0 
0.0 0.0 0.0 
-9.172180504002e-08 -4.353529257634e-08 0.0 
-4.353529257634e-08 3.930624330890e-04 0.0 
0.0 0.0 0.0 
-1.381234070452e-07 -8.221763662778e-08 0.0 
-8.221763662778e-08 3.930421907345e-04 0.0 
0.0 0.0 0.0 
-2.870868798244e-08 -4.151478304954e-09 0.0 
-4.151478304954e-09 3.928944770100e-04 0.0 
0.0 0.0 0.0 
3.078195801365e-06 5.223773595539e-07 0.0 
5.223773595539e-07 4.007929962859e-04 0.0 
0.0 0.0 0.0 
7.168020843551e-09 1.583446275412e-07 0.0 
1.583446275412e-07 3.930038293871e-04 0.0 
0.0 0.0 0.0 
-1.142968318879e-07 9.271588760124e-08 0.0 
9.271588760124e-08 3.931333125202e-04 0.0 
0.0 0.0 0.0 
-2.749206655661e-07 2.979701804217e-08 0.0 
2.979701804217e-08 3.931087110947e-04 0.0 
0.0 0.0 0.0 
-7.151059733257e-08 1.109794075249e-07 0.0 
1.109794075249e-07 3.929380646028e-04 0.0 
0.0 0.0 0.0 
-3.624615050324e-07 6.131342290472e-08 0.0 
6.131342290472e-08 3.937538510468e-04 0.0 
0.0 0.0 0.0 
-6.339883040773e-08 4.500003549915e-07 0.0 
4.500003549915e-07 3.932079834779e-04 0.0 
0.0 0.0 0.0 
1.335129371505e-07 2.070367773512e-08 0.0 
2.070367773512e-08 3.923122578173e-04 0.0 
0.0 0.0 0.0 
-8.316936360719e-07 -5.946065844647e-07 0.0 
-5.946065844647e-07 3.932810740941e-04 0.0 
0.0 0.0 0.0 
-6.471535671793e-07 3.256295498843e-07 0.0 
3.256295498843e-07 3.943480322799e-04 0.0 
0.0 0.0 0.0 
1.798876295922e-06 1.056086102063e-06 0.0 
1.056086102063e-06 3.929068659190e-04 0.0 
0.0 0.0 0.0 
4.015486639419e-06 -8.616357747533e-07 0.0 
-8.616357747533e-07 3.730609761863e-04 0.0 
0.0 0.0 0.0 
2.223468317020e-06 -8.462182264616e-06 0.0 
-8.462182264616e-06 3.911120073081e-04 0.0 
0.0 0.0 0.0 
-2.553468658517e-06 8.152881193580e-06 0.0 
8.152881193580e-06 3.996625370968e-04 0.0 
0.0 0.0 0.0 
-2.340817409907e-07 -8.913410886256e-07 0.0 
-8.913410886256e-07 3.786850755387e-04 0.0 
0.0 0.0 0.0 
-1.553900599305e-07 8.734146122683e-07 0.0 
8.734146122683e-07 4.115778234626e-04 0.0 
0.0 0.0 0.0 
2.682719606240e-06 -6.239764959368e-07 0.0 
-6.239764959368e-07 3.731565086658e-04 0.0 
0.0 0.0 0.0 
-1.565281725346e-07 -1.799859044625e-06 0.0 
-1.799859044625e-06 4.516939480841e-04 0.0 
0.0 0.0 0.0 
-1.540030548641e-07 1.070492612835e-06 0.0 
1.070492612835e-06 4.571453373148e-04 0.0 
0.0 0.0 0.0 
-6.119033135743e-08 -2.545874110089e-07 0.0 
-2.545874110089e-07 4.572776132852e-04 0.0 
0.0 0.0 0.0 
4.503117434496e-08 -1.199229610477e-07 0.0 
-1.199229610477e-07 4.574358567420e-04 0.0 
0.0 0.0 0.0 
1.870995713915e-08 -7.039751442369e-08 0.0 
-7.039751442369e-08 4.574285759817e-04 0.0 
0.0 0.0 0.0 
1.420781270411e-10 -4.208478465656e-08 0.0 
-4.208478465656e-08 4.574945788773e-04 0.0 
0.0 0.0 0.0 
1.535536564568e-08 -5.710805313657e-08 0.0 
-5.710805313657e-08 4.574974313982e-04 0.0 
0.0 0.0 0.0 
7.138701341169e-08 -2.860668660331e-08 0.0 
-2.860668660331e-08 4.575044095594e-04 0.0 
0.0 0.0 0.0 
9.457020722081e-09 -2.856355211584e-08 0.0 
-2.856355211584e-08 4.575053664320e-04 0.0 
0.0 0.0 0.0 
4.319687940679e-08 1.209353287692e-08 0.0 
1.209353287692e-08 4.575501064286e-04 0.0 
0.0 0.0 0.0 
-2.197001958137e-08 -1.350617268755e-08 0.0 
-1.350617268755e-08 4.575592525955e-04 0.0 
0.0 0.0 0.0 
2.987550384859e-08 4.004130964744e-08 0.0 
4.004130964744e-08 4.576123185818e-04 0.0 
0.0 0.0 0.0 
-7.161774340236e-08 -2.898240247691e-08 0.0 
-2.898240247691e-08 4.576395851117e-04 0.0 
0.0 0.0 0.0 
-1.048814224358e-07 -3.277724496480e-08 0.0 
-3.277724496480e-08 4.576548021185e-04 0.0 
0.0 0.0 0.0 
-8.334820411626e-08 -7.106210726901e-08 0.0 
-7.106210726901e-08 4.576692547347e-04 0.0 
0.0 0.0 0.0 
-2.467712168497e-06 -3.702463835316e-06 0.0 
-3.702463835316e-06 4.629218825891e-04 0.0 
0.0 0.0 0.0 
3.633777101442e-08 -9.288319150920e-08 0.0 
-9.288319150920e-08 4.575635456652e-04 0.0 
0.0 0.0 0.0 
2.410439524203e-06 4.080451106263e-07 0.0 
4.080451106263e-07 4.582345988202e-04 0.0 
0.0 0.0 0.0 
-4.951115906149e-08 -1.470934781292e-09 0.0 
-1.470934781292e-09 4.575267562517e-04 0.0 
0.0 0.0 0.0 
-2.852126856911e-08 3.855865162701e-08 0.0 
3.855865162701e-08 4.575749938180e-04 0.0 
0.0 0.0 0.0 
-9.966033642783e-08 3.803249394161e-08 0.0 
3.803249394161e-08 4.575797030886e-04 0.0 
0.0 0.0 0.0 
-1.831752191039e-07 4.992963123510e-08 0.0 
4.992963123510e-08 4.576408514478e-04 0.0 
0.0 0.0 0.0 
-1.516847795147e-07 9.457032116785e-09 0.0 
9.457032116785e-09 4.576607299129e-04 0.0 
0.0 0.0 0.0 
-1.835059744160e-07 -1.988471997101e-08 0.0 
-1.988471997101e-08 4.576352438455e-04 0.0 
0.0 0.0 0.0 
1.798876295922e-06 3.619205441354e-07 0.0 
3.619205441354e-07 4.400691854480e-04 0.0 
0.0 0.0 0.0 
-1.550969498387e-07 -1.407217041902e-08 0.0 
-1.407217041902e-08 4.576291995035e-04 0.0 
0.0 0.0 0.0 
-2.000160138627e-07 -5.563893483158e-08 0.0 
-5.563893483158e-08 4.575935506201e-04 0.0 
0.0 0.0 0.0 
-1.381234070452e-07 -3.811059915293e-08 0.0 
-3.811059915293e-08 4.575756197953e-04 0.0 
0.0 0.0 0.0 
-2.923518109821e-07 -1.882798866580e-07 0.0 
-1.882798866580e-07 4.574455612223e-04 0.0 
0.0 0.0 0.0 
7.168020843551e-09 1.291928227926e-07 0.0 
1.291928227926e-07 4.571866391463e-04 0.0 
0.0 0.0 0.0 
2.023356422409e-07 4.608136063828e-07 0.0 
4.608136063828e-07 4.575249277736e-04 0.0 
0.0 0.0 0.0 
-2.749206655661e-07 1.432798549861e-07 0.0 
1.432798549861e-07 4.578301922553e-04 0.0 
0.0 0.0 0.0 
-9.386011594614e-07 -1.706425061698e-07 0.0 
-1.706425061698e-07 4.576924103998e-04 0.0 
0.0 0.0 0.0 
1.450749675058e-06 1.096756006560e-06 0.0 
1.096756006560e-06 4.576914765522e-04 0.0 
0.0 0.0 0.0 
-6.339883040773e-08 2.487392450797e-07 0.0 
2.487392450797e-07 4.572168726262e-04 0.0 
0.0 0.0 0.0 
2.924497388257e-06 5.414493771377e-07 0.0 
5.414493771377e-07 4.651345361215e-04 0.0 
0.0 0.0 0.0 
-8.316936360719e-07 1.382005134392e-07 0.0 
1.382005134392e-07 4.589185150443e-04 0.0 
0.0 0.0 0.0 
3.945362701874e-06 -6.493949578129e-07 0.0 
-6.493949578129e-07 4.370749796812e-04 0.0 
0.0 0.0 0.0 
-2.582176621302e-06 -8.467047661661e-06 0.0 
-8.467047661661e-06 4.596983455551e-04 0.0 
0.0 0.0 0.0 
2.166953360527e-06 8.122367778652e-06 0.0 
8.122367778652e-06 4.511963845670e-04 0.0 
0.0 0.0 0.0 
-1.991635368848e-07 -9.026491508240e-07 0.0 
-9.026491508240e-07 4.721835708377e-04 0.0 
0.0 0.0 0.0 
-1.553900599305e-07 8.500496223352e-07 0.0 
8.500496223352e-07 4.392230418764e-04 0.0 
0.0 0.0 0.0 
2.613653693029e-06 -5.419099787621e-07 0.0 
-5.419099787621e-07 4.372479142742e-04 0.0 
0.0 0.0 0.0 
-6.468693499739e-07 -1.994094796983e-06 0.0 
-1.994094796983e-06 5.273084305584e-04 0.0 
0.0 0.0 0.0 
-1.540030548641e-07 9.483760896943e-07 0.0 
9.483760896943e-07 5.213330743854e-04 0.0 
0.0 0.0 0.0 
1.527274948732e-07 -5.461492016082e-07 0.0 
-5.461492016082e-07 5.211561865293e-04 0.0 
0.0 0.0 0.0 
4.503117434496e-08 -2.307282736169e-07 0.0 
-2.307282736169e-07 5.206705367438e-04 0.0 
0.0 0.0 0.0 
1.655311496762e-07 -2.795173765634e-08 0.0 
-2.795173765634e-08 5.207053826897e-04 0.0 
0.0 0.0 0.0 
1.420781270411e-10 -6.723965509561e-08 0.0 
-6.723965509561e-08 5.209034774267e-04 0.0 
0.0 0.0 0.0 
-2.489664230332e-08 -1.607531149501e-07 0.0 
-1.607531149501e-07 5.208818208164e-04 0.0 
0.0 0.0 0.0 
7.138701341169e-08 -1.200497516513e-07 0.0 
-1.200497516513e-07 5.207423384748e-04 0.0 
0.0 0.0 0.0 
2.697156753495e-07 -4.887858837620e-09 0.0 
-4.887858837620e-09 5.207719205051e-04 0.0 
0.0 0.0 0.0 
4.319687940679e-08 1.029583854786e-08 0.0 
1.029583854786e-08 5.209005372664e-04 0.0 
0.0 0.0 0.0 
5.554742199543e-08 3.868882023286e-09 0.0 
3.868882023286e-09 5.208978843099e-04 0.0 
0.0 0.0 0.0 
2.987550384859e-08 2.325283482556e-08 0.0 
2.325283482556e-08 5.208832873298e-04 0.0 
0.0 0.0 0.0 
1.885540550361e-07 1.562367004100e-07 0.0 
1.562367004100e-07 5.209313193981e-04 0.0 
0.0 0.0 0.0 
-2.530127299893e-06 -3.475448523230e-06 0.0 
-3.475448523230e-06 5.269452444585e-04 0.0 
0.0 0.0 0.0 
-1.048814224358e-07 8.338956730749e-08 0.0 
8.338956730749e-08 5.212143264173e-04 0.0 
0.0 0.0 0.0 
-9.195339900625e-08 -2.389580949619e-07 0.0 
-2.389580949619e-07 5.210619176617e-04 0.0 
0.0 0.0 0.0 
1.450749675058e-06 2.589433998000e-07 0.0 
2.589433998000e-07 5.041261357133e-04 0.0 
0.0 0.0 0.0 
3.633777101442e-08 -6.658630017521e-08 0.0 
-6.658630017521e-08 5.207390681525e-04 0.0 
0.0 0.0 0.0 
1.083792069423e-07 8.663624311982e-08 0.0 
8.663624311982e-08 5.208151380833e-04 0.0 
0.0 0.0 0.0 
2.269651163234e-06 4.846182522010e-07 0.0 
4.846182522010e-07 5.217852330675e-04 0.0 
0.0 0.0 0.0 
-2.852126856911e-08 1.051790402130e-07 0.0 
1.051790402130e-07 5.208571734026e-04 0.0 
0.0 0.0 0.0 
-1.381584634474e-07 2.538408737027e-07 0.0 
2.538408737027e-07 5.209541057263e-04 0.0 
0.0 0.0 0.0 
-1.831752191039e-07 1.370349200497e-07 0.0 
1.370349200497e-07 5.211327375390e-04 0.0 
0.0 0.0 0.0 
-2.492961932443e-07 2.695556777450e-08 0.0 
2.695556777450e-08 5.210684306898e-04 0.0 
0.0 0.0 0.0 
-1.835059744160e-07 5.070681175131e-08 0.0 
5.070681175131e-08 5.210101484001e-04 0.0 
0.0 0.0 0.0 
2.963707667725e-06 4.269754143062e-07 0.0 
4.269754143062e-07 5.288963965171e-04 0.0 
0.0 0.0 0.0 
-1.148300945442e-07 2.432441507048e-08 0.0 
2.432441507048e-08 5.209829707509e-04 0.0 
0.0 0.0 0.0 
-2.000160138627e-07 7.280082389408e-08 0.0 
7.280082389408e-08 5.209555855248e-04 0.0 
0.0 0.0 0.0 
-2.923518109821e-07 -8.421131334243e-09 0.0 
-8.421131334243e-09 5.211457897254e-04 0.0 
0.0 0.0 0.0 
-2.740337473606e-07 1.127197072325e-07 0.0 
1.127197072325e-07 5.209969326614e-04 0.0 
0.0 0.0 0.0 
2.023356422409e-07 2.002392977524e-07 0.0 
2.002392977524e-07 5.196043605900e-04 0.0 
0.0 0.0 0.0 
-8.974233498549e-07 -5.582802362195e-07 0.0 
-5.582802362195e-07 5.207955545643e-04 0.0 
0.0 0.0 0.0 
-9.386011594614e-07 5.480441310638e-07 0.0 
5.480441310638e-07 5.225554060351e-04 0.0 
0.0 0.0 0.0 
1.371996785737e-06 1.693849669211e-06 0.0 
1.693849669211e-06 5.206945931346e-04 0.0 
0.0 0.0 0.0 
3.874896059797e-06 -8.615245744876e-07 0.0 
-8.615245744876e-07 5.011262361889e-04 0.0 
0.0 0.0 0.0 
2.582353712866e-06 -8.230005307433e-06 0.0 
-8.230005307433e-06 5.184637725928e-04 0.0 
0.0 0.0 0.0 
-2.707408686242e-06 8.401656509959e-06 0.0 
8.401656509959e-06 5.279217278140e-04 0.0 
0.0 0.0 0.0 
-1.991635368848e-07 -7.145140700737e-07 0.0 
-7.145140700737e-07 5.064951825824e-04 0.0 
0.0 0.0 0.0 
-1.898865176209e-09 1.238420294442e-06 0.0 
1.238420294442e-06 5.392781308182e-04 0.0 
0.0 0.0 0.0 
2.410439524203e-06 -5.403866633114e-07 0.0 
-5.403866633114e-07 5.011712124117e-04 0.0 
0.0 0.0 0.0 
-6.468693499739e-07 -2.647635171621e-06 0.0 
-2.647635171621e-06 5.811009099850e-04 0.0 
0.0 0.0 0.0 
6.941733596832e-07 -1.166001074106e-07 0.0 
-1.166001074106e-07 5.846772980171e-04 0.0 
0.0 0.0 0.0 
1.527274948732e-07 -3.297701823749e-07 0.0 
-3.297701823749e-07 5.847042503644e-04 0.0 
0.0 0.0 0.0 
-1.576343103826e-07 -2.404638157696e-07 0.0 
-2.404638157696e-07 5.851251115372e-04 0.0 
0.0 0.0 0.0 
1.655311496762e-07 -2.173151565684e-08 0.0 
-2.173151565684e-08 5.850839957255e-04 0.0 
0.0 0.0 0.0 
-1.276564888242e-07 1.499460268369e-07 0.0 
1.499460268369e-07 5.856152163670e-04 0.0 
0.0 0.0 0.0 
-2.489664230332e-08 -3.614179783253e-07 0.0 
-3.614179783253e-07 5.857341150277e-04 0.0 
0.0 0.0 0.0 
4.283397403437e-07 -5.129863203314e-07 0.0 
-5.129863203314e-07 5.851458238786e-04 0.0 
0.0 0.0 0.0 
2.697156753495e-07 2.588195607237e-08 0.0 
2.588195607237e-08 5.849907636604e-04 0.0 
0.0 0.0 0.0 
1.950028549746e-07 2.784248122056e-07 0.0 
2.784248122056e-07 5.854573868864e-04 0.0 
0.0 0.0 0.0 
5.554742199543e-08 -7.818271360394e-08 0.0 
-7.818271360394e-08 5.855875912688e-04 0.0 
0.0 0.0 0.0 
5.894326005063e-08 -1.748212188147e-07 0.0 
-1.748212188147e-07 5.854319650911e-04 0.0 
0.0 0.0 0.0 
-2.713042022595e-06 -3.771164629480e-06 0.0 
-3.771164629480e-06 5.911154929776e-04 0.0 
0.0 0.0 0.0 
1.885540550361e-07 3.566334622434e-08 0.0 
3.566334622434e-08 5.853398010929e-04 0.0 
0.0 0.0 0.0 
9.023808700270e-08 9.289825820016e-07 0.0 
9.289825820016e-07 5.864226831334e-04 0.0 
0.0 0.0 0.0 
1.159726748190e-06 4.855496844039e-07 0.0 
4.855496844039e-07 5.854599449555e-04 0.0 
0.0 0.0 0.0 
-9.195339900625e-08 4.533891253051e-08 0.0 
4.533891253051e-08 5.857364001365e-04 0.0 
0.0 0.0 0.0 
-3.372491271803e-07 -2.778217876778e-07 0.0 
-2.778217876778e-07 5.853937847728e-04 0.0 
0.0 0.0 0.0 
1.083792069423e-07 2.594017523315e-07 0.0 
2.594017523315e-07 5.850781474879e-04 0.0 
0.0 0.0 0.0 
-3.515395944342e-07 4.236901849614e-07 0.0 
4.236901849614e-07 5.855392477923e-04 0.0 
0.0 0.0 0.0 
-1.381584634474e-07 2.007078239465e-07 0.0 
2.007078239465e-07 5.856519553116e-04 0.0 
0.0 0.0 0.0 
2.690780842585e-08 2.802717697872e-07 0.0 
2.802717697872e-07 5.856840642680e-04 0.0 
0.0 0.0 0.0 
1.371996785737e-06 4.970559426980e-07 0.0 
4.970559426980e-07 5.683793014986e-04 0.0 
0.0 0.0 0.0 
-2.492961932443e-07 6.980360047115e-08 0.0 
6.980360047115e-08 5.858491601802e-04 0.0 
0.0 0.0 0.0 
4.541730524998e-08 -9.079553781283e-08 0.0 
-9.079553781283e-08 5.855179338445e-04 0.0 
0.0 0.0 0.0 
-1.148300945442e-07 1.999656833302e-07 0.0 
1.999656833302e-07 5.853326522434e-04 0.0 
0.0 0.0 0.0 
3.269335528966e-07 3.447455416975e-07 0.0 
3.447455416975e-07 5.853429704694e-04 0.0 
0.0 0.0 0.0 
3.924839551139e-07 9.416093866471e-07 0.0 
9.416093866471e-07 5.855475909220e-04 0.0 
0.0 0.0 0.0 
-2.740337473606e-07 5.275218244915e-07 0.0 
5.275218244915e-07 5.852910580471e-04 0.0 
0.0 0.0 0.0 
-8.974233498549e-07 4.373115367853e-07 0.0 
4.373115367853e-07 5.861815990402e-04 0.0 
0.0 0.0 0.0 
2.883947624488e-06 4.271348386227e-07 0.0 
4.271348386227e-07 5.932800406871e-04 0.0 
0.0 0.0 0.0 
3.835171453526e-06 -4.557645943345e-07 0.0 
-4.557645943345e-07 5.652129334868e-04 0.0 
0.0 0.0 0.0 
-2.155425091521e-06 -7.430127310340e-06 0.0 
-7.430127310340e-06 5.859663757837e-04 0.0 
0.0 0.0 0.0 
9.405328365020e-07 8.968317944259e-06 0.0 
8.968317944259e-06 5.804162454404e-04 0.0 
0.0 0.0 0.0 
-1.149654383137e-06 4.133226623229e-07 0.0 
4.133226623229e-07 6.002444185498e-04 0.0 
0.0 0.0 0.0 
-1.898865176209e-09 1.447449259285e-06 0.0 
1.447449259285e-06 5.667047219056e-04 0.0 
0.0 0.0 0.0 
2.269651163234e-06 -7.343652180658e-07 0.0 
-7.343652180658e-07 5.657634652354e-04 0.0 
0.0 0.0 0.0 

TENSORS element_materi_strain_plasti float
-7.112834060814e-05 3.514287460403e-05 0.0 
3.514287460403e-05 4.221004333340e-04 0.0 
0.0 0.0 -6.331083958573e-05 
-5.846555959083e-05 -3.955396469031e-05 0.0 
-3.955396469031e-05 3.778270157352e-04 0.0 
0.0 0.0 -6.454996159239e-05 
-1.889012089990e-04 -4.635760778403e-06 0.0 
-4.635760778403e-06 1.261715003762e-03 0.0 
0.0 0.0 -1.917354871627e-04 
-1.892197240299e-04 -2.621872887778e-05 0.0 
-2.621872887778e-05 1.272074442975e-03 0.0 
0.0 0.0 -1.883397590782e-04 
-1.197492232907e-04 3.454635042166e-05 0.0 
3.454635042166e-05 7.881734594548e-04 0.0 
0.0 0.0 -1.194279202642e-04 
-3.089019924433e-05 3.311410509038e-05 0.0 
3.311410509038e-05 1.513652850395e-04 0.0 
0.0 0.0 -2.690189283898e-05 
-1.181845121128e-04 4.042873295375e-05 0.0 
4.042873295375e-05 7.806844228614e-04 0.0 
0.0 0.0 -1.201653584795e-04 
-6.192381097420e-05 6.121385101826e-06 0.0 
6.121385101826e-06 4.031113170469e-04 0.0 
0.0 0.0 -6.068503909357e-05 
-1.204422882212e-04 -4.316649774326e-05 0.0 
-4.316649774326e-05 7.921064928151e-04 0.0 
0.0 0.0 -1.196685615722e-04 
-1.872884217324e-04 3.363141611130e-05 0.0 
3.363141611130e-05 1.259931992447e-03 0.0 
0.0 0.0 -1.879590212157e-04 
-1.310105652939e-04 2.220654670134e-05 0.0 
2.220654670134e-05 8.586450598517e-04 0.0 
0.0 0.0 -1.322476557103e-04 
-5.719807020115e-05 3.286461856490e-08 0.0 
3.286461856490e-08 3.230799459092e-04 0.0 
0.0 0.0 -5.602547750609e-05 
-1.877824496395e-04 3.388580337900e-05 0.0 
3.388580337900e-05 1.270169470641e-03 0.0 
0.0 0.0 -1.888781569884e-04 
-1.271872132406e-04 2.790230920199e-05 0.0 
2.790230920199e-05 8.458021199286e-04 0.0 
0.0 0.0 -1.278925217316e-04 
-1.932284152260e-04 -2.749272838120e-05 0.0 
-2.749272838120e-05 1.293984431102e-03 0.0 
0.0 0.0 -1.934308312546e-04 
-1.951772105051e-04 3.059468724474e-05 0.0 
3.059468724474e-05 1.293909326463e-03 0.0 
0.0 0.0 -1.928977411855e-04 
-1.183364621444e-04 7.034029580759e-07 0.0 
7.034029580759e-07 7.884128395372e-04 0.0 
0.0 0.0 -1.161101519611e-04 
-2.611548289249e-05 -2.976881314846e-05 0.0 
-2.976881314846e-05 1.366026820107e-04 0.0 
0.0 0.0 -2.739356786257e-05 
-4.655901900947e-05 -1.783274604704e-05 0.0 
-1.783274604704e-05 2.713105741166e-04 0.0 
0.0 0.0 -4.164025237647e-05 
-4.525890771348e-05 1.651863799484e-05 0.0 
1.651863799484e-05 2.466759593770e-04 0.0 
0.0 0.0 -4.546658199970e-05 
-1.855467270519e-04 -3.410013315625e-05 0.0 
-3.410013315625e-05 1.271232436366e-03 0.0 
0.0 0.0 -1.875582398551e-04 
-7.183248799894e-05 1.385365681385e-05 0.0 
1.385365681385e-05 4.407830654411e-04 0.0 
0.0 0.0 -7.216713101957e-05 
-7.730219154025e-05 -1.500465902034e-05 0.0 
-1.500465902034e-05 4.983174969402e-04 0.0 
0.0 0.0 -7.637334323853e-05 
-1.811871610611e-04 -2.281549761052e-05 0.0 
-2.281549761052e-05 1.217872226341e-03 0.0 
0.0 0.0 -1.815559455716e-04 
-1.350733973102e-04 3.295465992380e-05 0.0 
3.295465992380e-05 9.016620137675e-04 0.0 
0.0 0.0 -1.369648256180e-04 
-1.376188637296e-04 -2.176217058498e-05 0.0 
-2.176217058498e-05 9.243651343577e-04 0.0 
0.0 0.0 -1.376939605679e-04 
-1.069658315495e-04 -2.744737862324e-06 0.0 
-2.744737862324e-06 7.297614599069e-04 0.0 
0.0 0.0 -1.072212406194e-04 
-1.912521162051e-04 1.980335045204e-06 0.0 
1.980335045204e-06 1.305953059909e-03 0.0 
0.0 0.0 -1.899071758113e-04 
-1.362716787782e-04 -3.798939155730e-05 0.0 
-3.798939155730e-05 9.083018994538e-04 0.0 
0.0 0.0 -1.367086240186e-04 
-1.873007466112e-04 2.251116880675e-05 0.0 
2.251116880675e-05 1.247916240988e-03 0.0 
0.0 0.0 -1.856871487262e-04 
-3.243755210516e-05 5.032771115372e-06 0.0 
5.032771115372e-06 2.086151015531e-04 0.0 
0.0 0.0 -3.278963886402e-05 
-1.654166470030e-05 4.638693750366e-06 0.0 
4.638693750366e-06 9.012172148024e-05 0.0 
0.0 0.0 -1.589633704410e-05 
-1.936928702910e-04 8.344522422306e-06 0.0 
8.344522422306e-06 1.305844555641e-03 0.0 
0.0 0.0 -1.891952015075e-04 
-1.629254088575e-04 -2.764733331880e-05 0.0 
-2.764733331880e-05 1.087637140145e-03 0.0 
0.0 0.0 -1.635300645102e-04 
-1.844440851533e-04 -3.122724235015e-05 0.0 
-3.122724235015e-05 1.269225288252e-03 0.0 
0.0 0.0 -1.882484805285e-04 
-2.000892196314e-04 5.806438950548e-05 0.0 
5.806438950548e-05 1.337814960827e-03 0.0 
0.0 0.0 -1.972329526028e-04 
-1.979323581362e-04 -6.123980485016e-05 0.0 
-6.123980485016e-05 1.334624137008e-03 0.0 
0.0 0.0 -1.971979658877e-04 
-1.876565914579e-04 2.632656749342e-05 0.0 
2.632656749342e-05 1.265796013128e-03 0.0 
0.0 0.0 -1.897108526679e-04 
-1.089254337778e-04 -4.761071042110e-05 0.0 
-4.761071042110e-05 7.109927537120e-04 0.0 
0.0 0.0 -1.107114518244e-04 
-1.094034421642e-04 5.351990132505e-05 0.0 
5.351990132505e-05 7.212963119965e-04 0.0 
0.0 0.0 -1.105676175232e-04 
-8.675634194158e-05 -2.048772068430e-05 0.0 
-2.048772068430e-05 5.676637230470e-04 0.0 
0.0 0.0 -8.691834785005e-05 
-1.894316575551e-04 1.529535291875e-06 0.0 
1.529535291875e-06 1.267582633286e-03 0.0 
0.0 0.0 -1.921134732322e-04 
-4.839148529355e-05 3.269211206116e-05 0.0 
3.269211206116e-05 2.885062742471e-04 0.0 
0.0 0.0 -4.811778726964e-05 
-1.084239785972e-04 8.299246254447e-06 0.0 
8.299246254447e-06 6.943716908755e-04 0.0 
0.0 0.0 -1.102508860907e-04 
-1.837583847109e-04 -1.472486193336e-05 0.0 
-1.472486193336e-05 1.244009219740e-03 0.0 
0.0 0.0 -1.819287770889e-04 
-4.809827435414e-05 -2.856413507896e-05 0.0 
-2.856413507896e-05 2.876955400614e-04 0.0 
0.0 0.0 -4.797639238285e-05 
-2.674214069172e-05 -6.567095403776e-07 0.0 
-6.567095403776e-07 1.170205921082e-04 0.0 
0.0 0.0 -2.746289347828e-05 
-1.830752196458e-04 9.475420572823e-06 0.0 
9.475420572823e-06 1.215993436390e-03 0.0 
0.0 0.0 -1.852115035180e-04 
-1.474418981779e-05 6.875922652760e-07 0.0 
6.875922652760e-07 4.915161551588e-05 0.0 
0.0 0.0 -1.474603958490e-05 
-1.203307146343e-04 -2.717995598574e-05 0.0 
-2.717995598574e-05 8.158947777103e-04 0.0 
0.0 0.0 -1.234415444935e-04 
-8.234981639965e-05 -1.699589320995e-05 0.0 
-1.699589320995e-05 5.359221535030e-04 0.0 
0.0 0.0 -8.161374715243e-05 
-5.082688459540e-05 -1.056431694294e-05 0.0 
-1.056431694294e-05 3.372053744103e-04 0.0 
0.0 0.0 -5.165715595373e-05 
-4.611236241503e-05 -2.201694224577e-05 0.0 
-2.201694224577e-05 2.721561722188e-04 0.0 
0.0 0.0 -4.571843846580e-05 
-8.132390918315e-05 1.940323008173e-05 0.0 
1.940323008173e-05 5.127711064819e-04 0.0 
0.0 0.0 -8.234191315183e-05 
-1.899869588384e-04 -1.183985275253e-06 0.0 
-1.183985275253e-06 1.270300843848e-03 0.0 
0.0 0.0 -1.923283752319e-04 
-6.895815039131e-05 -2.178280864622e-05 0.0 
-2.178280864622e-05 4.406253786073e-04 0.0 
0.0 0.0 -6.768350264862e-05 
-5.417817485919e-05 2.166263208896e-05 0.0 
2.166263208896e-05 3.190902094138e-04 0.0 
0.0 0.0 -5.541318120416e-05 
-1.632126763507e-04 2.740636426442e-05 0.0 
2.740636426442e-05 1.093574435161e-03 0.0 
0.0 0.0 -1.631601065255e-04 
-3.323583887555e-05 3.269521201795e-06 0.0 
3.269521201795e-06 2.033859620122e-04 0.0 
0.0 0.0 -3.284525368658e-05 
-1.937347679597e-04 -3.087303565399e-05 0.0 
-3.087303565399e-05 1.295743109935e-03 0.0 
0.0 0.0 -1.927980053726e-04 
-1.410948374280e-05 -1.895108414919e-05 0.0 
-1.895108414919e-05 7.768302090073e-05 0.0 
0.0 0.0 -1.429900283189e-05 
-1.810662248895e-04 3.422591082853e-05 0.0 
3.422591082853e-05 1.214874210850e-03 0.0 
0.0 0.0 -1.816237070315e-04 
-8.260879868620e-05 3.395540134069e-05 0.0 
3.395540134069e-05 5.200982356105e-04 0.0 
0.0 0.0 -8.245627511043e-05 
-3.949603130373e-05 1.817463478044e-05 0.0 
1.817463478044e-05 2.392386227040e-04 0.0 
0.0 0.0 -4.154126471103e-05 
-1.880584302466e-04 -2.737021915549e-05 0.0 
-2.737021915549e-05 1.269816799986e-03 0.0 
0.0 0.0 -1.886217783130e-04 
-7.828481688491e-05 1.568948501134e-05 0.0 
1.568948501134e-05 4.753725480920e-04 0.0 
0.0 0.0 -7.706359040663e-05 
-9.040619779534e-06 6.808328067989e-06 0.0 
6.808328067989e-06 3.080905476409e-05 0.0 
0.0 0.0 -9.329329279096e-06 
-1.897461617520e-04 -1.190223513879e-05 0.0 
-1.190223513879e-05 1.300793159363e-03 0.0 
0.0 0.0 -1.892491279630e-04 
-3.670459678346e-05 -3.155058415611e-05 0.0 
-3.155058415611e-05 2.097964586862e-04 0.0 
0.0 0.0 -3.606465181366e-05 
-1.910292024481e-04 -5.680018839651e-07 0.0 
-5.680018839651e-07 1.267292748539e-03 0.0 
0.0 0.0 -1.923564682915e-04 
-1.423720417950e-04 -2.542418638308e-05 0.0 
-2.542418638308e-05 9.582298228247e-04 0.0 
0.0 0.0 -1.433443585977e-04 
-2.007748921200e-04 -7.173616599770e-07 0.0 
-7.173616599770e-07 1.325499155450e-03 0.0 
0.0 0.0 -2.007748921200e-04 
-1.856237250837e-04 2.519587703744e-07 0.0 
2.519587703744e-07 1.217908679066e-03 0.0 
0.0 0.0 -1.849363666885e-04 
-1.959401746035e-05 3.302488870378e-05 0.0 
3.302488870378e-05 8.419396161668e-05 0.0 
0.0 0.0 -1.942930455437e-05 
-7.294356160709e-05 2.278666566635e-05 0.0 
2.278666566635e-05 4.423978020253e-04 0.0 
0.0 0.0 -7.166057984914e-05 
-1.881200936435e-04 -2.597496456892e-05 0.0 
-2.597496456892e-05 1.274260032451e-03 0.0 
0.0 0.0 -1.893940471826e-04 
-1.918449780582e-04 -8.194598920859e-07 0.0 
-8.194598920859e-07 1.307445909733e-03 0.0 
0.0 0.0 -1.898028072996e-04 
-3.750417093390e-05 -2.856125910662e-05 0.0 
-2.856125910662e-05 2.170807613547e-04 0.0 
0.0 0.0 -3.765846754783e-05 
-3.201050297440e-05 -1.804321051782e-06 0.0 
-1.804321051782e-06 1.678376622842e-04 0.0 
0.0 0.0 -3.550136840268e-05 
-3.928328821311e-05 3.001435520315e-05 0.0 
3.001435520315e-05 2.151736419894e-04 0.0 
0.0 0.0 -3.788339401932e-05 
-3.841727809162e-05 3.259876760906e-05 0.0 
3.259876760906e-05 1.973706613177e-04 0.0 
0.0 0.0 -3.659988700710e-05 
-1.163465053479e-04 4.799891796781e-06 0.0 
4.799891796781e-06 7.474963377636e-04 0.0 
0.0 0.0 -1.187754596314e-04 
-7.387818471422e-05 -1.490180971543e-05 0.0 
-1.490180971543e-05 4.683625195835e-04 0.0 
0.0 0.0 -7.124103466145e-05 
-6.818690854033e-05 3.229042439658e-06 0.0 
3.229042439658e-06 3.926939187943e-04 0.0 
0.0 0.0 -6.657494268075e-05 
-1.280956191016e-04 -3.699964442022e-05 0.0 
-3.699964442022e-05 8.260012594816e-04 0.0 
0.0 0.0 -1.250515658111e-04 
-1.265295814047e-04 3.342378051017e-05 0.0 
3.342378051017e-05 8.211688879782e-04 0.0 
0.0 0.0 -1.253711530225e-04 
-1.484422711167e-04 -2.770915871896e-05 0.0 
-2.770915871896e-05 9.841615042540e-04 0.0 
0.0 0.0 -1.480066387926e-04 
-1.583372546511e-04 2.913712885410e-05 0.0 
2.913712885410e-05 1.064432221446e-03 0.0 
0.0 0.0 -1.587865244471e-04 
-1.631334298294e-04 -3.149814825206e-05 0.0 
-3.149814825206e-05 1.098864964118e-03 0.0 
0.0 0.0 -1.628912057404e-04 
-1.190806096983e-04 -4.403551421918e-05 0.0 
-4.403551421918e-05 7.749316267703e-04 0.0 
0.0 0.0 -1.197484453225e-04 
-1.483799586843e-05 5.558978623438e-06 0.0 
5.558978623438e-06 4.973861707578e-05 0.0 
0.0 0.0 -1.495740908887e-05 
-1.182760976271e-04 3.125415357905e-06 0.0 
3.125415357905e-06 7.592172627745e-04 0.0 
0.0 0.0 -1.189347521933e-04 
-1.620624140011e-04 -1.653046323385e-05 0.0 
-1.653046323385e-05 1.054965702531e-03 0.0 
0.0 0.0 -1.604158976160e-04 
-1.568829102868e-04 1.686722308074e-05 0.0 
1.686722308074e-05 1.064364903998e-03 0.0 
0.0 0.0 -1.569671113975e-04 
-1.992656462665e-04 -3.194664877417e-06 0.0 
-3.194664877417e-06 1.366255928620e-03 0.0 
0.0 0.0 -1.979956382108e-04 
-1.950636109885e-04 -2.233519301319e-05 0.0 
-2.233519301319e-05 1.308516150632e-03 0.0 
0.0 0.0 -1.941292444173e-04 
-1.156817175628e-04 -1.648055008373e-05 0.0 
-1.648055008373e-05 7.482785284577e-04 0.0 
0.0 0.0 -1.183461849553e-04 
-1.927191275468e-04 -2.508365562689e-07 0.0 
-2.508365562689e-07 1.307929168688e-03 0.0 
0.0 0.0 -1.894775870554e-04 
-1.342251932282e-04 -2.319392894316e-05 0.0 
-2.319392894316e-05 8.854475909505e-04 0.0 
0.0 0.0 -1.356001284572e-04 
-7.729101182484e-05 -2.065735051107e-05 0.0 
-2.065735051107e-05 5.080668279858e-04 0.0 
0.0 0.0 -7.798198501994e-05 
-1.130620333788e-04 -2.717181399575e-05 0.0 
-2.717181399575e-05 7.549273825549e-04 0.0 
0.0 0.0 -1.146493908758e-04 
-1.950077973870e-04 2.900722902877e-05 0.0 
2.900722902877e-05 1.296464444951e-03 0.0 
0.0 0.0 -1.931276724533e-04 
-1.563208394466e-04 -3.328202351934e-05 0.0 
-3.328202351934e-05 1.049294579874e-03 0.0 
0.0 0.0 -1.565627933380e-04 
-1.819468009343e-04 -3.224668000663e-05 0.0 
-3.224668000663e-05 1.222740499621e-03 0.0 
0.0 0.0 -1.814398861444e-04 
-7.158014488702e-05 -3.063000169944e-05 0.0 
-3.063000169944e-05 4.571234338187e-04 0.0 
0.0 0.0 -7.121314524778e-05 
-2.401359942616e-05 8.661927370116e-06 0.0 
8.661927370116e-06 1.537990966386e-04 0.0 
0.0 0.0 -2.437345913330e-05 
-1.778980369956e-04 -2.992010737325e-05 0.0 
-2.992010737325e-05 1.196087071121e-03 0.0 
0.0 0.0 -1.784854310292e-04 
-1.679646052206e-04 1.093794452522e-05 0.0 
1.093794452522e-05 1.134281409959e-03 0.0 
0.0 0.0 -1.663185871606e-04 
-1.591223534516e-05 -6.661850777305e-06 0.0 
-6.661850777305e-06 9.101730959340e-05 0.0 
0.0 0.0 -1.557197371984e-05 
-1.881889712418e-04 -1.290050336167e-05 0.0 
-1.290050336167e-05 1.273792918307e-03 0.0 
0.0 0.0 -1.927691970005e-04 
-1.581915922847e-04 2.746019073347e-05 0.0 
2.746019073347e-05 1.044290574645e-03 0.0 
0.0 0.0 -1.577237574333e-04 
-1.522398741045e-05 -2.545037373997e-05 0.0 
-2.545037373997e-05 5.739303510054e-05 0.0 
0.0 0.0 -1.520280724627e-05 
-9.452563605332e-05 3.135471664961e-05 0.0 
3.135471664961e-05 6.036525676249e-04 0.0 
0.0 0.0 -9.464897897786e-05 
-1.065966120753e-04 -2.205603569538e-05 0.0 
-2.205603569538e-05 7.064327249630e-04 0.0 
0.0 0.0 -1.073087759210e-04 
-8.739882265024e-05 -1.070352948316e-05 0.0 
-1.070352948316e-05 5.348438843142e-04 0.0 
0.0 0.0 -8.658563305536e-05 
-7.050193455009e-05 2.512487401893e-05 0.0 
2.512487401893e-05 4.479548223167e-04 0.0 
0.0 0.0 -7.278598402964e-05 
-8.197347761458e-05 -3.364821245799e-05 0.0 
-3.364821245799e-05 5.279356728588e-04 0.0 
0.0 0.0 -8.207734578087e-05 
-1.943526740554e-04 1.658812663972e-05 0.0 
1.658812663972e-05 1.282091895606e-03 0.0 
0.0 0.0 -1.925749600208e-04 
-1.285507174143e-04 2.792411837159e-05 0.0 
2.792411837159e-05 8.722892326704e-04 0.0 
0.0 0.0 -1.315046391038e-04 
-7.635084208109e-05 3.539223257155e-05 0.0 
3.539223257155e-05 4.849768366675e-04 0.0 
0.0 0.0 -7.683710038160e-05 
-3.602345366775e-05 -3.490773875451e-05 0.0 
-3.490773875451e-05 2.028232612913e-04 0.0 
0.0 0.0 -3.442901837107e-05 
-1.143531422852e-04 1.924554056095e-05 0.0 
1.924554056095e-05 7.838716458168e-04 0.0 
0.0 0.0 -1.161738141813e-04 
-1.655806278350e-04 -1.376876940895e-05 0.0 
-1.376876940895e-05 1.108151184003e-03 0.0 
0.0 0.0 -1.693933130199e-04 
-7.665289294717e-05 -3.764080062832e-05 0.0 
-3.764080062832e-05 4.894086693533e-04 0.0 
0.0 0.0 -7.664586338968e-05 
-2.552121638192e-05 -2.302083249112e-05 0.0 
-2.302083249112e-05 1.475281213149e-04 0.0 
0.0 0.0 -2.705574766418e-05 
-9.705129782474e-05 -2.284636133005e-05 0.0 
-2.284636133005e-05 6.381494146743e-04 0.0 
0.0 0.0 -9.705601970096e-05 
-8.718862749644e-05 1.081562517566e-05 0.0 
1.081562517566e-05 5.609465076163e-04 0.0 
0.0 0.0 -8.368277571756e-05 
-9.188005610208e-05 2.337172912127e-05 0.0 
2.337172912127e-05 5.885957333175e-04 0.0 
0.0 0.0 -9.250784895245e-05 
-1.937480155634e-04 2.484993040014e-05 0.0 
2.484993040014e-05 1.298240083639e-03 0.0 
0.0 0.0 -1.936007957173e-04 
-3.355945300028e-05 2.658456895858e-05 0.0 
2.658456895858e-05 1.727565400742e-04 0.0 
0.0 0.0 -3.138407094312e-05 
-1.371246585787e-04 2.526301025991e-05 0.0 
2.526301025991e-05 9.050145966039e-04 0.0 
0.0 0.0 -1.382526569903e-04 
-1.907913629677e-04 3.443386103192e-05 0.0 
3.443386103192e-05 1.270684136511e-03 0.0 
0.0 0.0 -1.885035411211e-04 
-9.913884905617e-05 2.644976598077e-05 0.0 
2.644976598077e-05 6.359580153606e-04 0.0 
0.0 0.0 -9.883099357817e-05 
-9.221379330775e-05 -2.325684599943e-05 0.0 
-2.325684599943e-05 6.043674081660e-04 0.0 
0.0 0.0 -9.208844699642e-05 
-1.862615746056e-04 3.781096829900e-05 0.0 
3.781096829900e-05 1.269973218665e-03 0.0 
0.0 0.0 -1.882446207449e-04 
-1.884096905909e-04 -3.934674872020e-05 0.0 
-3.934674872020e-05 1.273205454370e-03 0.0 
0.0 0.0 -1.891606461478e-04 
-1.485481393432e-04 2.662002390059e-05 0.0 
2.662002390059e-05 9.835102888330e-04 0.0 
0.0 0.0 -1.481056985806e-04 
-1.041353074706e-04 -2.625300288913e-05 0.0 
-2.625300288913e-05 6.829723859406e-04 0.0 
0.0 0.0 -1.037420806291e-04 
-1.908037455824e-04 1.095423421666e-05 0.0 
1.095423421666e-05 1.307953283663e-03 0.0 
0.0 0.0 -1.905495916442e-04 
-9.518883604242e-05 2.687623025881e-05 0.0 
2.687623025881e-05 6.089232024020e-04 0.0 
0.0 0.0 -9.489072104906e-05 
-1.881130056819e-04 -1.198635265848e-06 0.0 
-1.198635265848e-06 1.269458159220e-03 0.0 
0.0 0.0 -1.924761743472e-04 
-1.914420449492e-04 1.145005922615e-05 0.0 
1.145005922615e-05 1.305589104302e-03 0.0 
0.0 0.0 -1.901156060054e-04 
-1.284773038693e-04 -4.042952323759e-05 0.0 
-4.042952323759e-05 8.353342118354e-04 0.0 
0.0 0.0 -1.281556075638e-04 
-1.456984047061e-04 2.919513868125e-05 0.0 
2.919513868125e-05 9.798728505287e-04 0.0 
0.0 0.0 -1.472674707441e-04 
-9.472925069399e-05 -2.740497223510e-05 0.0 
-2.740497223510e-05 6.169641832868e-04 0.0 
0.0 0.0 -9.439783777044e-05 
-8.853676466141e-05 2.434547469191e-05 0.0 
2.434547469191e-05 5.534202716498e-04 0.0 
0.0 0.0 -8.745362067080e-05 
-1.087467394465e-04 2.713932785839e-05 0.0 
2.713932785839e-05 7.009636801692e-04 0.0 
0.0 0.0 -1.081789848988e-04 
-8.105832168209e-05 -2.534314576398e-05 0.0 
-2.534314576398e-05 5.269671489274e-04 0.0 
0.0 0.0 -8.074562716359e-05 
-1.149166540237e-04 -2.952745104752e-05 0.0 
-2.952745104752e-05 7.749980976508e-04 0.0 
0.0 0.0 -1.154098978710e-04 
-9.441274236993e-05 -3.245636207382e-05 0.0 
-3.245636207382e-05 6.148929569629e-04 0.0 
0.0 0.0 -9.412559131899e-05 
-1.356916071786e-05 -1.098912209053e-05 0.0 
-1.098912209053e-05 4.639558825144e-05 0.0 
0.0 0.0 -1.406846894296e-05 
-1.232833288672e-04 -2.043397575373e-06 0.0 
-2.043397575373e-06 8.352777480186e-04 0.0 
0.0 0.0 -1.225661908866e-04 
-4.062993237950e-05 4.703139556520e-07 0.0 
4.703139556520e-07 1.797601039323e-04 0.0 
0.0 0.0 -3.559753881786e-05 
-1.023820434635e-04 -2.308417346528e-05 0.0 
-2.308417346528e-05 6.740366547045e-04 0.0 
0.0 0.0 -1.021452596768e-04 
-1.900125356384e-04 6.300222620786e-07 0.0 
6.300222620786e-07 1.270960970669e-03 0.0 
0.0 0.0 -1.927194217641e-04 
-7.262888074723e-05 3.426557852476e-05 0.0 
3.426557852476e-05 4.504323440592e-04 0.0 
0.0 0.0 -7.151989320621e-05 
-1.531305076902e-04 3.065990782185e-05 0.0 
3.065990782185e-05 1.022734797488e-03 0.0 
0.0 0.0 -1.531634582904e-04 
-5.235610672335e-05 -3.331315410991e-05 0.0 
-3.331315410991e-05 3.222309724492e-04 0.0 
0.0 0.0 -5.311113487535e-05 
-1.564923507781e-04 3.552239921985e-05 0.0 
3.552239921985e-05 1.043761629599e-03 0.0 
0.0 0.0 -1.567358392781e-04 
-1.202044561882e-04 9.584736121846e-07 0.0 
9.584736121846e-07 7.504029993438e-04 0.0 
0.0 0.0 -1.184948324117e-04 
-8.921525541755e-05 3.121884924231e-05 0.0 
3.121884924231e-05 5.680733164514e-04 0.0 
0.0 0.0 -8.897195087526e-05 
-1.682691344288e-04 -3.239527776225e-05 0.0 
-3.239527776225e-05 1.126335943431e-03 0.0 
0.0 0.0 -1.681445358648e-04 
-3.271371250102e-05 2.634768306306e-05 0.0 
2.634768306306e-05 1.862670599746e-04 0.0 
0.0 0.0 -3.519564525945e-05 
-1.767977369675e-04 3.301165039377e-05 0.0 
3.301165039377e-05 1.194421621902e-03 0.0 
0.0 0.0 -1.783666864750e-04 
-1.165583599501e-04 2.698564820255e-05 0.0 
2.698564820255e-05 7.555372528015e-04 0.0 
0.0 0.0 -1.156683593961e-04 
-1.920096128522e-04 1.937461849935e-06 0.0 
1.937461849935e-06 1.307268561636e-03 0.0 
0.0 0.0 -1.898980813789e-04 
-1.182997139398e-04 3.639957619216e-06 0.0 
3.639957619216e-06 7.503854203479e-04 0.0 
0.0 0.0 -1.176390761550e-04 
-7.627591541802e-05 2.437079023937e-05 0.0 
2.437079023937e-05 4.698282448248e-04 0.0 
0.0 0.0 -7.564233511891e-05 
-1.002018332227e-04 2.315121058164e-05 0.0 
2.315121058164e-05 6.584644118649e-04 0.0 
0.0 0.0 -1.026119933064e-04 
-1.351190133783e-04 -1.871259961356e-05 0.0 
-1.871259961356e-05 8.920173210254e-04 0.0 
0.0 0.0 -1.308423732783e-04 
-5.484982403945e-05 3.705256781827e-05 0.0 
3.705256781827e-05 3.376111435306e-04 0.0 
0.0 0.0 -5.271897186252e-05 
-8.886891279122e-05 -3.169931078017e-05 0.0 
-3.169931078017e-05 5.765392386080e-04 0.0 
0.0 0.0 -8.867183110647e-05 
-1.531566637255e-04 -3.479285376154e-05 0.0 
-3.479285376154e-05 1.020094408152e-03 0.0 
0.0 0.0 -1.524697723262e-04 
-1.174942329115e-04 2.313759384433e-05 0.0 
2.313759384433e-05 7.831828593042e-04 0.0 
0.0 0.0 -1.152003355451e-04 
-8.515004989233e-05 2.567844413580e-05 0.0 
2.567844413580e-05 5.346133759294e-04 0.0 
0.0 0.0 -8.499340168425e-05 
-9.805234325585e-05 2.186136341024e-05 0.0 
2.186136341024e-05 6.234712022513e-04 0.0 
0.0 0.0 -9.747820142233e-05 
-1.698406473465e-04 3.103883884451e-05 0.0 
3.103883884451e-05 1.138199375279e-03 0.0 
0.0 0.0 -1.705088282513e-04 
-9.365555901584e-05 -8.486079120948e-06 0.0 
-8.486079120948e-06 6.269873305719e-04 0.0 
0.0 0.0 -9.283786084866e-05 
-1.904373484596e-04 8.037764301143e-06 0.0 
8.037764301143e-06 1.268105410096e-03 0.0 
0.0 0.0 -1.927803298305e-04 
-1.910376123415e-04 -5.171508508336e-06 0.0 
-5.171508508336e-06 1.305994090806e-03 0.0 
0.0 0.0 -1.898229354431e-04 
-6.861783798480e-05 -2.050379203895e-05 0.0 
-2.050379203895e-05 4.453059741638e-04 0.0 
0.0 0.0 -6.893569546425e-05 
-9.290116882094e-05 1.078568075346e-05 0.0 
1.078568075346e-05 5.964552685483e-04 0.0 
0.0 0.0 -9.578111177017e-05 
-1.736492418864e-04 -2.927710979079e-05 0.0 
-2.927710979079e-05 1.161594644870e-03 0.0 
0.0 0.0 -1.729233712160e-04 
-9.087963058823e-05 -2.352933739376e-05 0.0 
-2.352933739376e-05 5.915224073559e-04 0.0 
0.0 0.0 -9.055885391067e-05 
-6.615167518160e-05 2.470417535513e-05 0.0 
2.470417535513e-05 3.792937580834e-04 0.0 
0.0 0.0 -6.377619522508e-05 
-1.123815242548e-04 2.659716101140e-05 0.0 
2.659716101140e-05 7.274681183303e-04 0.0 
0.0 0.0 -1.116514617188e-04 
-9.023769363097e-05 -2.539356064248e-05 0.0 
-2.539356064248e-05 5.927749569100e-04 0.0 
0.0 0.0 -9.016780033359e-05 
-1.933145694824e-04 1.847750118737e-05 0.0 
1.847750118737e-05 1.271781840963e-03 0.0 
0.0 0.0 -1.918589861752e-04 
-1.590817006198e-04 2.907513750142e-05 0.0 
2.907513750142e-05 1.054056791896e-03 0.0 
0.0 0.0 -1.591037845145e-04 
-1.728367159342e-04 3.427642614804e-05 0.0 
3.427642614804e-05 1.161809866144e-03 0.0 
0.0 0.0 -1.733952315365e-04 
-4.323292157822e-05 -3.260265136202e-05 0.0 
-3.260265136202e-05 2.542139140644e-04 0.0 
0.0 0.0 -4.278232070249e-05 
-8.351564551766e-05 -2.949984641989e-05 0.0 
-2.949984641989e-05 5.399072445252e-04 0.0 
0.0 0.0 -8.337503372822e-05 
-1.628911585660e-04 2.910920340207e-05 0.0 
2.910920340207e-05 1.083707985150e-03 0.0 
0.0 0.0 -1.634180649126e-04 
-4.265741739718e-06 -2.683347671446e-06 0.0 
-2.683347671446e-06 2.779779537552e-05 0.0 
0.0 0.0 -6.679583525061e-06 
-9.202938689146e-05 2.333037747325e-05 0.0 
2.333037747325e-05 5.833864669440e-04 0.0 
0.0 0.0 -9.110806911972e-05 
-1.621301817421e-04 -3.474681827654e-05 0.0 
-3.474681827654e-05 1.087399984763e-03 0.0 
0.0 0.0 -1.621013318865e-04 
-2.647246740284e-05 -1.232636837565e-05 0.0 
-1.232636837565e-05 1.529325955368e-04 0.0 
0.0 0.0 -2.408412600064e-05 
-1.857893834714e-04 3.531775714936e-05 0.0 
3.531775714936e-05 1.270668189248e-03 0.0 
0.0 0.0 -1.886276279175e-04 
-1.456981155765e-04 2.919485646583e-05 0.0 
2.919485646583e-05 9.663206150300e-04 0.0 
0.0 0.0 -1.462443664659e-04 
-8.972960447932e-05 2.818607173368e-05 0.0 
2.818607173368e-05 5.719993527864e-04 0.0 
0.0 0.0 -8.992835211633e-05 
-1.626522217749e-04 3.588322308841e-05 0.0 
3.588322308841e-05 1.081933053943e-03 0.0 
0.0 0.0 -1.623203359564e-04 
-1.232850647809e-04 -1.534283618420e-06 0.0 
-1.534283618420e-06 8.439287432935e-04 0.0 
0.0 0.0 -1.238984763055e-04 
-1.290139728958e-04 -2.422323726664e-05 0.0 
-2.422323726664e-05 8.899156396031e-04 0.0 
0.0 0.0 -1.325791391267e-04 
-1.852665524105e-04 -2.134628668879e-05 0.0 
-2.134628668879e-05 1.242411010167e-03 0.0 
0.0 0.0 -1.856686537505e-04 
-6.834313658287e-05 3.054631191321e-05 0.0 
3.054631191321e-05 4.235028941011e-04 0.0 
0.0 0.0 -6.875374652758e-05 
-1.126229297884e-04 2.780829538386e-05 0.0 
2.780829538386e-05 7.291444854309e-04 0.0 
0.0 0.0 -1.122060228641e-04 
-1.204186006984e-04 2.647313116222e-05 0.0 
2.647313116222e-05 7.832880835705e-04 0.0 
0.0 0.0 -1.198259951250e-04 
-1.511295492835e-04 -2.883504033183e-05 0.0 
-2.883504033183e-05 1.013855965193e-03 0.0 
0.0 0.0 -1.512823234748e-04 
-1.216859479991e-04 -2.731241821125e-05 0.0 
-2.731241821125e-05 8.002184542220e-04 0.0 
0.0 0.0 -1.205399881000e-04 
-1.113723575775e-04 -2.417926787298e-05 0.0 
-2.417926787298e-05 7.331871425551e-04 0.0 
0.0 0.0 -1.112326624099e-04 
-1.413007434337e-04 -2.970279854823e-05 0.0 
-2.970279854823e-05 9.413829080689e-04 0.0 
0.0 0.0 -1.412146911137e-04 
-1.660148486685e-04 -3.109368411777e-05 0.0 
-3.109368411777e-05 1.112677337996e-03 0.0 
0.0 0.0 -1.657666289772e-04 
-1.315732548335e-05 -7.692520452241e-07 0.0 
-7.692520452241e-07 8.434115995763e-05 0.0 
0.0 0.0 -1.523807105164e-05 
-6.678617265699e-05 1.617781589415e-05 0.0 
1.617781589415e-05 4.361919367653e-04 0.0 
0.0 0.0 -6.974636312929e-05 
-7.951724172922e-05 2.782935041198e-05 0.0 
2.782935041198e-05 4.935008951510e-04 0.0 
0.0 0.0 -7.874092309440e-05 
-1.082260438161e-04 -2.691428867534e-05 0.0 
-2.691428867534e-05 7.109857938248e-04 0.0 
0.0 0.0 -1.077256579858e-04 
-1.642964652876e-04 -3.148986033885e-05 0.0 
-3.148986033885e-05 1.105967087523e-03 0.0 
0.0 0.0 -1.642614415327e-04 
-3.618362754970e-05 2.736407007723e-05 0.0 
2.736407007723e-05 2.086903937200e-04 0.0 
0.0 0.0 -3.864713111506e-05 
-1.564000420693e-04 -3.317492622528e-05 0.0 
-3.317492622528e-05 1.048657376479e-03 0.0 
0.0 0.0 -1.565033163265e-04 
-1.156497145505e-04 -3.516789011310e-05 0.0 
-3.516789011310e-05 7.502047125979e-04 0.0 
0.0 0.0 -1.164502435431e-04 
-8.397727272476e-05 2.946324581154e-05 0.0 
2.946324581154e-05 5.318825966419e-04 0.0 
0.0 0.0 -8.365175887955e-05 
-1.508856871714e-04 -3.154693635550e-05 0.0 
-3.154693635550e-05 1.010987541511e-03 0.0 
0.0 0.0 -1.509358467712e-04 
-1.992206068345e-05 -2.889614730951e-05 0.0 
-2.889614730951e-05 8.287217049266e-05 0.0 
0.0 0.0 -1.875953185269e-05 
-1.556622730397e-04 3.038739624462e-05 0.0 
3.038739624462e-05 1.034138176467e-03 0.0 
0.0 0.0 -1.560016362795e-04 
-1.437982534633e-05 1.029442077582e-05 0.0 
1.029442077582e-05 7.970629733058e-05 0.0 
0.0 0.0 -1.510781838351e-05 
-2.570586355009e-05 -7.991098502523e-07 0.0 
-7.991098502523e-07 1.127575880689e-04 0.0 
0.0 0.0 -2.729127776400e-05 
-4.194184282385e-05 3.474848126707e-05 0.0 
3.474848126707e-05 2.513992056333e-04 0.0 
0.0 0.0 -4.310499224862e-05 
-5.889908142508e-05 2.600142430583e-05 0.0 
2.600142430583e-05 3.528829077978e-04 0.0 
0.0 0.0 -5.903933595174e-05 
-1.610257286591e-04 -2.786541686928e-05 0.0 
-2.786541686928e-05 1.081190214243e-03 0.0 
0.0 0.0 -1.610696234640e-04 
-5.476704679840e-05 -2.893258819142e-05 0.0 
-2.893258819142e-05 3.440414388131e-04 0.0 
0.0 0.0 -5.456393079061e-05 
-5.163315478531e-05 2.647496963403e-05 0.0 
2.647496963403e-05 3.049271572106e-04 0.0 
0.0 0.0 -5.149248157812e-05 
-4.366093994894e-05 -2.713962390303e-05 0.0 
-2.713962390303e-05 2.644614859736e-04 0.0 
0.0 0.0 -4.384065419509e-05 
-3.933534437072e-05 2.838910031743e-05 0.0 
2.838910031743e-05 2.172478170370e-04 0.0 
0.0 0.0 -3.921473890832e-05 
-1.680595828810e-04 2.995288676004e-05 0.0 
2.995288676004e-05 1.117099767863e-03 0.0 
0.0 0.0 -1.676286260939e-04 
-1.157691997288e-04 -2.821559363196e-05 0.0 
-2.821559363196e-05 7.614917365493e-04 0.0 
0.0 0.0 -1.153195849472e-04 
-1.884304056946e-04 3.717790371758e-05 0.0 
3.717790371758e-05 1.273139237753e-03 0.0 
0.0 0.0 -1.885115422441e-04 
0.0 0.0 0.0 
0.0 0.0 0.0 
0.0 0.0 0.0 
-6.073075435371e-05 2.779578447063e-05 0.0 
2.779578447063e-05 3.692130858621e-04 0.0 
0.0 0.0 -6.066067809259e-05 
-9.359168136837e-05 3.069541767913e-05 0.0 
3.069541767913e-05 5.989493619825e-04 0.0 
0.0 0.0 -9.346360670617e-05 
-8.611303417377e-05 2.775473971904e-05 0.0 
2.775473971904e-05 5.420210967722e-04 0.0 
0.0 0.0 -8.564096664159e-05 
-1.570602199792e-04 3.345705989991e-05 0.0 
3.345705989991e-05 1.042425010846e-03 0.0 
0.0 0.0 -1.567852636697e-04 
-1.928100163882e-04 2.936217438128e-05 0.0 
2.936217438128e-05 1.304792838197e-03 0.0 
0.0 0.0 -1.913896484052e-04 
-1.544569729700e-04 -3.084214855682e-05 0.0 
-3.084214855682e-05 1.037077783695e-03 0.0 
0.0 0.0 -1.544248659763e-04 
-6.869349223690e-05 -2.826326061375e-05 0.0 
-2.826326061375e-05 4.368318291179e-04 0.0 
0.0 0.0 -6.847262230322e-05 
-1.681247358756e-04 -2.868522419727e-05 0.0 
-2.868522419727e-05 1.120151786447e-03 0.0 
0.0 0.0 -1.674250338637e-04 
-1.435900585209e-04 3.856895931237e-05 0.0 
3.856895931237e-05 9.474561629382e-04 0.0 
0.0 0.0 -1.426866023873e-04 
-1.135532837026e-04 -2.681444128085e-05 0.0 
-2.681444128085e-05 7.480946909015e-04 0.0 
0.0 0.0 -1.130562566545e-04 
-1.499249798733e-04 3.067572505939e-05 0.0 
3.067572505939e-05 9.944265321611e-04 0.0 
0.0 0.0 -1.504800801517e-04 
-1.863757598195e-04 -2.386849214221e-05 0.0 
-2.386849214221e-05 1.244147855382e-03 0.0 
0.0 0.0 -1.859596318053e-04 
-9.333492539951e-05 -3.087526947971e-05 0.0 
-3.087526947971e-05 6.086612624671e-04 0.0 
0.0 0.0 -9.309312152870e-05 
-5.642363476155e-05 -2.566826805163e-05 0.0 
-2.566826805163e-05 3.519070743608e-04 0.0 
0.0 0.0 -5.629031366394e-05 
-1.307741012141e-04 -2.854605187792e-05 0.0 
-2.854605187792e-05 8.651184174892e-04 0.0 
0.0 0.0 -1.299393276493e-04 
-1.994711361555e-04 1.488956192184e-05 0.0 
1.488956192184e-05 1.364194760264e-03 0.0 
0.0 0.0 -1.985353088532e-04 
-1.121064498204e-04 -2.817436375982e-05 0.0 
-2.817436375982e-05 7.383690860162e-04 0.0 
0.0 0.0 -1.117990549081e-04 
-1.167106519063e-04 -2.872381374577e-05 0.0 
-2.872381374577e-05 7.713662195201e-04 0.0 
0.0 0.0 -1.165266455158e-04 
-1.260578035270e-04 -7.836042946561e-06 0.0 
-7.836042946561e-06 8.498512038137e-04 0.0 
0.0 0.0 -1.244042047770e-04 
-3.179935585513e-05 -1.763042363236e-05 0.0 
-1.763042363236e-05 1.961286519246e-04 0.0 
0.0 0.0 -3.241712222852e-05 
-1.231319864475e-04 2.764700743790e-05 0.0 
2.764700743790e-05 7.907293750341e-04 0.0 
0.0 0.0 -1.209084558732e-04 
-6.905505917890e-05 2.816961621887e-05 0.0 
2.816961621887e-05 4.271679056782e-04 0.0 
0.0 0.0 -6.885887611378e-05 
-4.897721551762e-05 2.632054484457e-05 0.0 
2.632054484457e-05 2.838529677145e-04 0.0 
0.0 0.0 -4.844095568774e-05 
-3.558784672985e-05 -2.880146762892e-05 0.0 
-2.880146762892e-05 1.946353418351e-04 0.0 
0.0 0.0 -3.639896506568e-05 
-1.614850212427e-04 2.922041349465e-05 0.0 
2.922041349465e-05 1.072918812013e-03 0.0 
0.0 0.0 -1.613978969627e-04 
-1.255033903270e-04 -2.731668296794e-05 0.0 
-2.731668296794e-05 8.288788500150e-04 0.0 
0.0 0.0 -1.246873609535e-04 
-8.112707161296e-05 2.681454897224e-05 0.0 
2.681454897224e-05 5.130150958306e-04 0.0 
0.0 0.0 -8.144240747594e-05 
-1.665837591113e-04 -2.880422836215e-05 0.0 
-2.880422836215e-05 1.119259672453e-03 0.0 
0.0 0.0 -1.664644697516e-04 
-1.582047777180e-04 -3.130538043856e-05 0.0 
-3.130538043856e-05 1.066325272985e-03 0.0 
0.0 0.0 -1.586660261033e-04 
-1.188629648026e-04 -2.678969091403e-05 0.0 
-2.678969091403e-05 7.847225641269e-04 0.0 
0.0 0.0 -1.183057550348e-04 
-1.886854844882e-04 1.135105285806e-05 0.0 
1.135105285806e-05 1.274732412044e-03 0.0 
0.0 0.0 -1.932618152055e-04 
-1.213677155165e-04 2.897964547722e-05 0.0 
2.897964547722e-05 7.927140784185e-04 0.0 
0.0 0.0 -1.211843839911e-04 
-1.239491645660e-04 -2.748126235811e-05 0.0 
-2.748126235811e-05 8.207516205795e-04 0.0 
0.0 0.0 -1.235739794681e-04 
-9.975160353529e-05 -2.686515225488e-05 0.0 
-2.686515225488e-05 6.567392202688e-04 0.0 
0.0 0.0 -9.984714661518e-05 
-1.263578697939e-04 -2.980227527077e-05 0.0 
-2.980227527077e-05 8.380978382458e-04 0.0 
0.0 0.0 -1.261954767068e-04 
-5.849212426998e-05 2.872957228896e-05 0.0 
2.872957228896e-05 3.506208493125e-04 0.0 
0.0 0.0 -5.798711518065e-05 
-1.213481477356e-04 6.735435036876e-06 0.0 
6.735435036876e-06 7.521902963625e-04 0.0 
0.0 0.0 -1.184708735178e-04 
-9.753040931020e-05 -2.877750014671e-05 0.0 
-2.877750014671e-05 6.382612359797e-04 0.0 
0.0 0.0 -9.729539411790e-05 
-7.014498760133e-05 -2.861953507146e-05 0.0 
-2.861953507146e-05 4.491200428710e-04 0.0 
0.0 0.0 -7.021579980210e-05 
-1.548439846447e-04 2.920495201174e-05 0.0 
2.920495201174e-05 1.025468902843e-03 0.0 
0.0 0.0 -1.548477372900e-04 
-7.400239448952e-06 -4.471996282504e-06 0.0 
-4.471996282504e-06 3.348355740734e-05 0.0 
0.0 0.0 -6.737411723468e-06 
-1.269059540153e-04 -2.992426859267e-05 0.0 
-2.992426859267e-05 8.357764802867e-04 0.0 
0.0 0.0 -1.257958619361e-04 
-7.326865481566e-05 2.857374826703e-05 0.0 
2.857374826703e-05 4.565907868803e-04 0.0 
0.0 0.0 -7.305360031667e-05 
-6.016605764575e-05 -2.684908062252e-05 0.0 
-2.684908062252e-05 3.790547108985e-04 0.0 
0.0 0.0 -6.022881660267e-05 
-5.821846839884e-05 -2.774592413861e-05 0.0 
-2.774592413861e-05 3.619705275702e-04 0.0 
0.0 0.0 -5.751879909679e-05 
-1.351640918224e-04 2.730946876611e-05 0.0 
2.730946876611e-05 8.850173502736e-04 0.0 
0.0 0.0 -1.344766581215e-04 
-2.303458757806e-05 -1.756706348761e-05 0.0 
-1.756706348761e-05 1.393624808345e-04 0.0 
0.0 0.0 -2.414890389727e-05 
-8.463000670150e-05 2.743515429835e-05 0.0 
2.743515429835e-05 5.331920973471e-04 0.0 
0.0 0.0 -8.420255649138e-05 
-1.310820143303e-04 2.863495648326e-05 0.0 
2.863495648326e-05 8.604743158959e-04 0.0 
0.0 0.0 -1.309020407989e-04 
-1.263625231525e-04 2.714069752448e-05 0.0 
2.714069752448e-05 8.190547291893e-04 0.0 
0.0 0.0 -1.250525794797e-04 
-1.272471088817e-04 -3.855000510512e-06 0.0 
-3.855000510512e-06 8.469629814487e-04 0.0 
0.0 0.0 -1.245153595172e-04 
-3.451533027297e-05 2.844805665229e-05 0.0 
2.844805665229e-05 1.808943530398e-04 0.0 
0.0 0.0 -3.280631478328e-05 
-7.063190463533e-05 2.939202413112e-05 0.0 
2.939202413112e-05 4.392145115516e-04 0.0 
0.0 0.0 -7.060413318996e-05 
-6.508843028441e-05 -3.043099012630e-05 0.0 
-3.043099012630e-05 4.105469834446e-04 0.0 
0.0 0.0 -6.467058191239e-05 
-7.469256331376e-05 -2.527987226695e-05 0.0 
-2.527987226695e-05 4.809368026629e-04 0.0 
0.0 0.0 -7.435558976913e-05 
-1.502309888333e-04 -3.186153307622e-05 0.0 
-3.186153307622e-05 1.005619770116e-03 0.0 
0.0 0.0 -1.500995507885e-04 
-8.411103689448e-05 -2.561923504937e-05 0.0 
-2.561923504937e-05 5.446630925718e-04 0.0 
0.0 0.0 -8.366679311450e-05 
-9.244608085661e-05 2.841629283501e-05 0.0 
2.841629283501e-05 5.900259211260e-04 0.0 
0.0 0.0 -9.227309926833e-05 
-8.825859911860e-05 2.898361773724e-05 0.0 
2.898361773724e-05 5.610179827723e-04 0.0 
0.0 0.0 -8.802462077767e-05 
-4.037281909572e-05 -3.055033143304e-05 0.0 
-3.055033143304e-05 2.285588841850e-04 0.0 
0.0 0.0 -3.795074749666e-05 
-1.043807176337e-04 2.969702721876e-05 0.0 
2.969702721876e-05 6.736275783202e-04 0.0 
0.0 0.0 -1.043907376787e-04 
-4.291565100880e-05 -2.841622711530e-05 0.0 
-2.841622711530e-05 2.495146198089e-04 0.0 
0.0 0.0 -4.182373257491e-05 
-1.960133420005e-04 -3.915898958092e-07 0.0 
-3.915898958092e-07 1.365024672998e-03 0.0 
0.0 0.0 -1.982169479593e-04 
-2.008761767446e-04 -4.440775900705e-06 0.0 
-4.440775900705e-06 1.363686351067e-03 0.0 
0.0 0.0 -1.977044065024e-04 
-1.166270540496e-04 2.805525215369e-05 0.0 
2.805525215369e-05 7.581594275037e-04 0.0 
0.0 0.0 -1.163296810217e-04 
-6.377729921261e-05 2.843186062466e-05 0.0 
2.843186062466e-05 3.894200307401e-04 0.0 
0.0 0.0 -6.349477618752e-05 
-5.472494021236e-05 -2.756038478394e-05 0.0 
-2.756038478394e-05 3.420299138774e-04 0.0 
0.0 0.0 -5.489564032307e-05 
-1.286062633098e-04 2.787342346443e-05 0.0 
2.787342346443e-05 8.404326398301e-04 0.0 
0.0 0.0 -1.280878756227e-04 
-5.924292318693e-05 -2.830092874267e-05 0.0 
-2.830092874267e-05 3.712937095837e-04 0.0 
0.0 0.0 -5.895795660960e-05 
-6.498740843255e-05 2.970448360848e-05 0.0 
2.970448360848e-05 3.998906408149e-04 0.0 
0.0 0.0 -6.509812613533e-05 
-1.139448242020e-04 2.662931945144e-05 0.0 
2.662931945144e-05 7.377302601230e-04 0.0 
0.0 0.0 -1.134571731864e-04 
-1.931977199045e-04 -5.790102799525e-06 0.0 
-5.790102799525e-06 1.309642249160e-03 0.0 
0.0 0.0 -1.899960389348e-04 
-7.860743769092e-05 2.917445532478e-05 0.0 
2.917445532478e-05 4.940483609679e-04 0.0 
0.0 0.0 -7.839370437043e-05 
-1.417199735287e-04 2.941394498762e-05 0.0 
2.941394498762e-05 9.349322217144e-04 0.0 
0.0 0.0 -1.414217305113e-04 
-4.661344112576e-05 2.736880969088e-05 0.0 
2.736880969088e-05 2.670838018735e-04 0.0 
0.0 0.0 -4.614936513201e-05 
-1.967992094278e-04 1.123981941095e-06 0.0 
1.123981941095e-06 1.365295639638e-03 0.0 
0.0 0.0 -1.984294758987e-04 
-5.951651457585e-05 2.802626650619e-05 0.0 
2.802626650619e-05 3.606106616578e-04 0.0 
0.0 0.0 -5.939605362352e-05 
-1.179287062834e-04 2.787660048455e-05 0.0 
2.787660048455e-05 7.663966719587e-04 0.0 
0.0 0.0 -1.175278261142e-04 
-4.409418717161e-05 3.104234347111e-05 0.0 
3.104234347111e-05 2.441849578649e-04 0.0 
0.0 0.0 -4.282931220362e-05 
-1.381450842626e-04 2.836088824292e-05 0.0 
2.836088824292e-05 9.092073412549e-04 0.0 
0.0 0.0 -1.381743871232e-04 
-9.791138306631e-05 2.879750584179e-05 0.0 
2.879750584179e-05 6.273190453691e-04 0.0 
0.0 0.0 -9.774928945211e-05 
-6.965606683394e-05 2.867246728631e-05 0.0 
2.867246728631e-05 4.309923865951e-04 0.0 
0.0 0.0 -6.938051102899e-05 
-1.200769966056e-04 -2.774059059615e-05 0.0 
-2.774059059615e-05 7.919085176899e-04 0.0 
0.0 0.0 -1.194585575575e-04 
-1.988427120039e-04 -2.959789654557e-06 0.0 
-2.959789654557e-06 1.363764641001e-03 0.0 
0.0 0.0 -1.987298001823e-04 
-8.291571741031e-05 2.832079044508e-05 0.0 
2.832079044508e-05 5.233038309385e-04 0.0 
0.0 0.0 -8.265507580179e-05 
-1.306758629051e-04 -2.955788166782e-05 0.0 
-2.955788166782e-05 8.695191991227e-04 0.0 
0.0 0.0 -1.305485175686e-04 
-4.578173906005e-05 -2.535078056645e-05 0.0 
-2.535078056645e-05 2.780519891852e-04 0.0 
0.0 0.0 -4.562300070248e-05 
-1.437792750518e-04 3.149363009429e-05 0.0 
3.149363009429e-05 9.490378851935e-04 0.0 
0.0 0.0 -1.436534165706e-04 
-1.511792253345e-04 3.107336096836e-05 0.0 
3.107336096836e-05 1.002609936336e-03 0.0 
0.0 0.0 -1.512517770320e-04 
-6.196699647241e-05 -2.679098173262e-05 0.0 
-2.679098173262e-05 3.903858421673e-04 0.0 
0.0 0.0 -6.164273853391e-05 
-1.399199792627e-04 -2.811467117751e-05 0.0 
-2.811467117751e-05 9.272505815491e-04 0.0 
0.0 0.0 -1.388569334018e-04 
-1.985355386787e-04 1.984726108435e-06 0.0 
1.984726108435e-06 1.364959960964e-03 0.0 
0.0 0.0 -1.983871205594e-04 
-1.614928444495e-04 2.847027297627e-05 0.0 
2.847027297627e-05 1.071649121551e-03 0.0 
0.0 0.0 -1.613792517474e-04 
-1.982422487002e-04 -2.569909507912e-06 0.0 
-2.569909507912e-06 1.365758727609e-03 0.0 
0.0 0.0 -1.983136761333e-04 
-1.361916076227e-04 -3.146771190181e-05 0.0 
-3.146771190181e-05 9.179571631392e-04 0.0 
0.0 0.0 -1.379474753881e-04 
-1.576486168105e-04 -2.829471551287e-05 0.0 
-2.829471551287e-05 1.056700414691e-03 0.0 
0.0 0.0 -1.572395483614e-04 
-5.266868770523e-05 -2.930837486761e-05 0.0 
-2.930837486761e-05 3.216672696281e-04 0.0 
0.0 0.0 -5.237865887416e-05 
-1.106230900853e-04 -2.705461405413e-05 0.0 
-2.705461405413e-05 7.266788580309e-04 0.0 
0.0 0.0 -1.101557085785e-04 
-1.243986606814e-04 2.756325965713e-05 0.0 
2.756325965713e-05 8.114376097232e-04 0.0 
0.0 0.0 -1.239588741081e-04 
-1.293044827764e-04 -2.800858501220e-05 0.0 
-2.800858501220e-05 8.573256290427e-04 0.0 
0.0 0.0 -1.288458533782e-04 
-1.066562308207e-04 -2.783120558929e-05 0.0 
-2.783120558929e-05 7.017640661734e-04 0.0 
0.0 0.0 -1.065261787303e-04 
-1.990029541207e-04 -1.757598364358e-06 0.0 
-1.757598364358e-06 1.366381337533e-03 0.0 
0.0 0.0 -1.983502480037e-04 
-1.298318789187e-04 2.158067938686e-05 0.0 
2.158067938686e-05 8.815706967553e-04 0.0 
0.0 0.0 -1.321612292015e-04 
-1.176326388033e-04 -2.595061727756e-05 0.0 
-2.595061727756e-05 7.723158987367e-04 0.0 
0.0 0.0 -1.164556264782e-04 
-8.783787209566e-05 -2.903458928538e-05 0.0 
-2.903458928538e-05 5.705379246605e-04 0.0 
0.0 0.0 -8.765849385151e-05 
-4.943082231834e-05 2.834348926926e-05 0.0 
2.834348926926e-05 2.859345548030e-04 0.0 
0.0 0.0 -4.921152720794e-05 
-1.062878110515e-04 -2.718085700709e-05 0.0 
-2.718085700709e-05 6.972114022315e-04 0.0 
0.0 0.0 -1.060368635384e-04 
-6.633274732441e-05 2.805962634071e-05 0.0 
2.805962634071e-05 4.063292376683e-04 0.0 
0.0 0.0 -6.607158303000e-05 
-1.158557996194e-04 -6.210093226299e-06 0.0 
-6.210093226299e-06 7.885063370646e-04 0.0 
0.0 0.0 -1.154421321462e-04 
-6.910380331659e-05 -2.778533839803e-05 0.0 
-2.778533839803e-05 4.414244386129e-04 0.0 
0.0 0.0 -6.893461416735e-05 
-7.822135333654e-05 -2.896553184294e-05 0.0 
-2.896553184294e-05 5.031498839476e-04 0.0 
0.0 0.0 -7.803987337015e-05 
-1.602384540181e-04 3.100072325668e-05 0.0 
3.100072325668e-05 1.064154990020e-03 0.0 
0.0 0.0 -1.603578675858e-04 
-6.566815985925e-05 -2.750449767600e-05 0.0 
-2.750449767600e-05 4.167092244980e-04 0.0 
0.0 0.0 -6.558851423748e-05 
-1.152845892592e-04 2.749147668780e-05 0.0 
2.749147668780e-05 7.465056274970e-04 0.0 
0.0 0.0 -1.146103474413e-04 
-1.353451354842e-04 2.819645546977e-05 0.0 
2.819645546977e-05 8.892812196543e-04 0.0 
0.0 0.0 -1.352137036071e-04 
-1.205044148237e-04 2.968350999990e-05 0.0 
2.968350999990e-05 7.873013113578e-04 0.0 
0.0 0.0 -1.205299346428e-04 
-1.958940259279e-04 -3.143838988157e-07 0.0 
-3.143838988157e-07 1.365374549896e-03 0.0 
0.0 0.0 -1.987143998872e-04 
-9.668730117965e-05 -2.517304160907e-05 0.0 
-2.517304160907e-05 6.291397970161e-04 0.0 
0.0 0.0 -9.585336115805e-05 
-6.653143432307e-05 2.946077866981e-05 0.0 
2.946077866981e-05 4.089865087981e-04 0.0 
0.0 0.0 -6.633958094145e-05 
-8.520951336944e-05 -2.684964973046e-05 0.0 
-2.684964973046e-05 5.564426473023e-04 0.0 
0.0 0.0 -8.536885536016e-05 
-6.423500688610e-05 -2.223670417576e-05 0.0 
-2.223670417576e-05 3.967373019254e-04 0.0 
0.0 0.0 -6.277058716750e-05 
-6.233409830209e-05 2.930783879135e-05 0.0 
2.930783879135e-05 3.806227503841e-04 0.0 
0.0 0.0 -6.211964112063e-05 
-1.686029388230e-04 -3.010997351014e-05 0.0 
-3.010997351014e-05 1.134847194407e-03 0.0 
0.0 0.0 -1.685829472084e-04 
-1.228035280568e-04 -2.801028863811e-05 0.0 
-2.801028863811e-05 8.126298515026e-04 0.0 
0.0 0.0 -1.224221955183e-04 
-8.576695021724e-05 -2.818444781109e-05 0.0 
-2.818444781109e-05 5.521166414815e-04 0.0 
0.0 0.0 -8.508581023982e-05 
-1.058888784043e-04 2.774100767274e-05 0.0 
2.774100767274e-05 6.820542708577e-04 0.0 
0.0 0.0 -1.053569120690e-04 
-1.984005188917e-04 3.469833888433e-06 0.0 
3.469833888433e-06 1.365869131785e-03 0.0 
0.0 0.0 -1.981012852499e-04 
-1.891870000816e-04 -2.170110567076e-05 0.0 
-2.170110567076e-05 1.288510292263e-03 0.0 
0.0 0.0 -1.887097005658e-04 
-1.683150849776e-04 2.979696904543e-05 0.0 
2.979696904543e-05 1.122642711197e-03 0.0 
0.0 0.0 -1.689885654173e-04 
-1.554302986174e-04 -2.927663835836e-05 0.0 
-2.927663835836e-05 1.044556448181e-03 0.0 
0.0 0.0 -1.556283301217e-04 
-1.157857925219e-04 -2.832751956135e-05 0.0 
-2.832751956135e-05 7.671670755825e-04 0.0 
0.0 0.0 -1.158214347813e-04 
-8.793389765940e-05 -2.692004426865e-05 0.0 
-2.692004426865e-05 5.710151647237e-04 0.0 
0.0 0.0 -8.764218308180e-05 
-6.353474277312e-05 -2.825822332319e-05 0.0 
-2.825822332319e-05 4.001707208949e-04 0.0 
0.0 0.0 -6.304749027677e-05 
-7.291093511829e-05 -2.827879267007e-05 0.0 
-2.827879267007e-05 4.665581668852e-04 0.0 
0.0 0.0 -7.265234708097e-05 
-1.174853072823e-04 -2.733567074543e-05 0.0 
-2.733567074543e-05 7.760237591612e-04 0.0 
0.0 0.0 -1.171309192368e-04 
-1.335212434515e-04 -2.914279474533e-05 0.0 
-2.914279474533e-05 8.905694576090e-04 0.0 
0.0 0.0 -1.335144612876e-04 
-1.018718395078e-04 -2.979006226054e-05 0.0 
-2.979006226054e-05 6.715941915170e-04 0.0 
0.0 0.0 -1.021513650962e-04 
-1.706976735812e-04 3.040145888498e-05 0.0 
3.040145888498e-05 1.134074140794e-03 0.0 
0.0 0.0 -1.701355210695e-04 
-6.585088392687e-05 -2.809564114852e-05 0.0 
-2.809564114852e-05 4.191270390209e-04 0.0 
0.0 0.0 -6.593483134189e-05 
-1.012822856145e-04 -2.790893614150e-05 0.0 
-2.790893614150e-05 6.647252503200e-04 0.0 
0.0 0.0 -1.012556795624e-04 
-1.190728906021e-04 2.726084077196e-05 0.0 
2.726084077196e-05 7.740175104497e-04 0.0 
0.0 0.0 -1.186992623097e-04 
-9.180435571147e-05 -2.942480991547e-05 0.0 
-2.942480991547e-05 5.980965186942e-04 0.0 
0.0 0.0 -9.183388734860e-05 
-1.951933135343e-04 -3.067913145712e-06 0.0 
-3.067913145712e-06 1.365527233008e-03 0.0 
0.0 0.0 -1.980132279339e-04 
-2.004839790609e-04 7.957002336378e-06 0.0 
7.957002336378e-06 1.363848061926e-03 0.0 
0.0 0.0 -1.977693979613e-04 
-1.862548850903e-04 -3.381380897180e-05 0.0 
-3.381380897180e-05 1.277935188165e-03 0.0 
0.0 0.0 -1.884741816281e-04 
-1.255545849599e-04 -2.913100698812e-05 0.0 
-2.913100698812e-05 8.346700099746e-04 0.0 
0.0 0.0 -1.256288396591e-04 
-1.668512740992e-04 2.892208901038e-05 0.0 
2.892208901038e-05 1.110735165857e-03 0.0 
0.0 0.0 -1.668097552869e-04 
-5.710219261571e-05 2.668419955422e-05 0.0 
2.668419955422e-05 3.418831237588e-04 0.0 
0.0 0.0 -5.678930531275e-05 
-8.241925476564e-05 -2.832624156936e-05 0.0 
-2.832624156936e-05 5.333885698677e-04 0.0 
0.0 0.0 -8.224527255366e-05 
-4.853944390359e-05 -2.604022421239e-05 0.0 
-2.604022421239e-05 2.959627034739e-04 0.0 
0.0 0.0 -4.789427177487e-05 
-8.945478626281e-05 -2.660897635143e-05 0.0 
-2.660897635143e-05 5.805998989638e-04 0.0 
0.0 0.0 -8.904339260345e-05 
-1.163162734636e-04 -2.681975846469e-06 0.0 
-2.681975846469e-06 7.498217446733e-04 0.0 
0.0 0.0 -1.187247005501e-04 
-1.378749770551e-04 3.210368012353e-05 0.0 
3.210368012353e-05 9.111791288023e-04 0.0 
0.0 0.0 -1.382175405433e-04 
-1.908460110853e-04 -3.275689360254e-07 0.0 
-3.275689360254e-07 1.305230985071e-03 0.0 
0.0 0.0 -1.898105380384e-04 
-1.673198694714e-04 3.217203314276e-05 0.0 
3.217203314276e-05 1.110802916425e-03 0.0 
0.0 0.0 -1.675837462092e-04 
-1.307963472837e-04 2.695120133125e-05 0.0 
2.695120133125e-05 8.556346688023e-04 0.0 
0.0 0.0 -1.303141423325e-04 
-1.340100066794e-04 2.763944078925e-05 0.0 
2.763944078925e-05 8.772925572874e-04 0.0 
0.0 0.0 -1.333792161710e-04 
-5.307775534030e-05 2.953233977858e-05 0.0 
2.953233977858e-05 3.124408790926e-04 0.0 
0.0 0.0 -5.245278118421e-05 
-2.595268965567e-05 5.699272949294e-06 0.0 
5.699272949294e-06 1.472249447242e-04 0.0 
0.0 0.0 -2.415366321274e-05 
-9.908936880668e-05 3.012137168314e-05 0.0 
3.012137168314e-05 6.362497375305e-04 0.0 
0.0 0.0 -9.891160473977e-05 
-1.107375038864e-04 -2.791592154402e-05 0.0 
-2.791592154402e-05 7.305458695935e-04 0.0 
0.0 0.0 -1.106421438825e-04 
-1.040373993302e-04 -2.962445174837e-05 0.0 
-2.962445174837e-05 6.836342105130e-04 0.0 
0.0 0.0 -1.039785834622e-04 
-2.890800069675e-05 2.861111799326e-05 0.0 
2.861111799326e-05 1.404310217184e-04 0.0 
0.0 0.0 -2.759983235877e-05 
-1.283084597460e-04 1.192869093826e-05 0.0 
1.192869093826e-05 8.062000095070e-04 0.0 
0.0 0.0 -1.269342783548e-04 
-4.518956868723e-05 -2.955121691656e-05 0.0 
-2.955121691656e-05 2.739636501554e-04 0.0 
0.0 0.0 -4.458156379712e-05 
-6.480437248805e-05 2.886959438942e-05 0.0 
2.886959438942e-05 3.978928491972e-04 0.0 
0.0 0.0 -6.471073859852e-05 
-2.011730791700e-04 -1.698872757957e-08 0.0 
-1.698872757957e-08 1.328124099864e-03 0.0 
0.0 0.0 -2.011730791700e-04 
-1.460374838192e-04 -3.048163660064e-05 0.0 
-3.048163660064e-05 9.751989198997e-04 0.0 
0.0 0.0 -1.457653143910e-04 
-1.205798788541e-04 2.761727978419e-05 0.0 
2.761727978419e-05 7.635288783755e-04 0.0 
0.0 0.0 -1.168501105142e-04 
-3.395354607204e-05 2.118102367287e-05 0.0 
2.118102367287e-05 2.067871695949e-04 0.0 
0.0 0.0 -3.264725407480e-05 
-1.072259052960e-04 2.828066854900e-05 0.0 
2.828066854900e-05 6.926707853574e-04 0.0 
0.0 0.0 -1.069007943593e-04 
-9.875212805042e-05 -3.066987077576e-05 0.0 
-3.066987077576e-05 6.455932732231e-04 0.0 
0.0 0.0 -9.854973989574e-05 
-1.347121276017e-04 -2.904780221579e-05 0.0 
-2.904780221579e-05 8.937363280174e-04 0.0 
0.0 0.0 -1.341094516545e-04 
-1.991811038418e-04 6.018664084073e-06 0.0 
6.018664084073e-06 1.364715316697e-03 0.0 
0.0 0.0 -1.985748880999e-04 
-1.110533222846e-04 2.766180117225e-05 0.0 
2.766180117225e-05 7.188072929314e-04 0.0 
0.0 0.0 -1.104975085169e-04 
-1.281880349500e-04 -2.831423111803e-05 0.0 
-2.831423111803e-05 8.493800491293e-04 0.0 
0.0 0.0 -1.277066113365e-04 
-1.022800064688e-04 2.938149773544e-05 0.0 
2.938149773544e-05 6.613696873366e-04 0.0 
0.0 0.0 -1.025654288072e-04 
-1.657781793003e-04 2.991009795984e-05 0.0 
2.991009795984e-05 1.103461715683e-03 0.0 
0.0 0.0 -1.657887872837e-04 
-1.303012997508e-04 2.941535065773e-05 0.0 
2.941535065773e-05 8.562179753406e-04 0.0 
0.0 0.0 -1.303748051659e-04 
-1.970164637737e-04 -1.302278598281e-06 0.0 
-1.302278598281e-06 1.366138488450e-03 0.0 
0.0 0.0 -1.983262259508e-04 
-2.010155577921e-04 3.662749840251e-07 0.0 
3.662749840251e-07 1.326332536677e-03 0.0 
0.0 0.0 -2.010155577921e-04 
-2.011542863586e-04 -1.004817252029e-06 0.0 
-1.004817252029e-06 1.325128672458e-03 0.0 
0.0 0.0 -2.011542863586e-04 
-2.007067363607e-04 -1.498454949362e-07 0.0 
-1.498454949362e-07 1.318361508107e-03 0.0 
0.0 0.0 -2.007067363607e-04 
-1.391843029499e-04 2.745739822782e-05 0.0 
2.745739822782e-05 9.142042162451e-04 0.0 
0.0 0.0 -1.386702020626e-04 
-1.656573127809e-04 -2.766529280961e-05 0.0 
-2.766529280961e-05 1.111954587801e-03 0.0 
0.0 0.0 -1.654503375633e-04 
-1.726299045536e-04 3.125882372740e-05 0.0 
3.125882372740e-05 1.154413842026e-03 0.0 
0.0 0.0 -1.733872194588e-04 
-9.246943249656e-05 3.046774901958e-05 0.0 
3.046774901958e-05 5.891823098647e-04 0.0 
0.0 0.0 -9.220995221430e-05 
-8.867527655773e-05 2.995644697180e-05 0.0 
2.995644697180e-05 5.611104943418e-04 0.0 
0.0 0.0 -8.809376301141e-05 
-9.622211545223e-05 -3.009570676563e-05 0.0 
-3.009570676563e-05 6.328174754954e-04 0.0 
0.0 0.0 -9.655401109520e-05 
-1.701961923366e-04 -3.010043453970e-05 0.0 
-3.010043453970e-05 1.143557443824e-03 0.0 
0.0 0.0 -1.697778367964e-04 
-1.986751491008e-04 -7.450281032106e-07 0.0 
-7.450281032106e-07 1.364365235868e-03 0.0 
0.0 0.0 -1.983660426036e-04 
-1.710340879663e-04 2.926837147099e-05 0.0 
2.926837147099e-05 1.140451459410e-03 0.0 
0.0 0.0 -1.711771202328e-04 
-1.362026136940e-04 -3.056560885154e-05 0.0 
-3.056560885154e-05 9.064457611163e-04 0.0 
0.0 0.0 -1.359501865459e-04 
-1.710918547977e-04 -2.738871930552e-05 0.0 
-2.738871930552e-05 1.149183258739e-03 0.0 
0.0 0.0 -1.708297112636e-04 
-1.484338095600e-04 -2.864995064493e-05 0.0 
-2.864995064493e-05 9.946985301084e-04 0.0 
0.0 0.0 -1.485531891111e-04 
-1.058391682515e-04 2.762475757998e-05 0.0 
2.762475757998e-05 6.839177814814e-04 0.0 
0.0 0.0 -1.057460988714e-04 
-9.007502322936e-05 2.632387229137e-05 0.0 
2.632387229137e-05 5.712847458693e-04 0.0 
0.0 0.0 -8.951081423028e-05 
-5.003262353380e-05 2.839389572085e-05 0.0 
2.839389572085e-05 2.942091527215e-04 0.0 
0.0 0.0 -5.000330529763e-05 
-1.931223455613e-04 1.410072971069e-05 0.0 
1.410072971069e-05 1.274197783005e-03 0.0 
0.0 0.0 -1.923320103442e-04 
-8.673133120512e-05 2.974761857028e-05 0.0 
2.974761857028e-05 5.527785355338e-04 0.0 
0.0 0.0 -8.688718888654e-05 
-1.811235048976e-04 -1.426754042441e-06 0.0 
-1.426754042441e-06 1.216021958167e-03 0.0 
0.0 0.0 -1.846150589539e-04 
-9.663648622258e-05 2.916309241112e-05 0.0 
2.916309241112e-05 6.223980992345e-04 0.0 
0.0 0.0 -9.698095267749e-05 
-6.297861531256e-05 -2.737443956180e-05 0.0 
-2.737443956180e-05 4.020391048555e-04 0.0 
0.0 0.0 -6.334372566563e-05 
-1.910403343780e-04 6.504513827889e-06 0.0 
6.504513827889e-06 1.269011526396e-03 0.0 
0.0 0.0 -1.926469350330e-04 
-7.031800198741e-05 2.800312657303e-05 0.0 
2.800312657303e-05 4.340280219417e-04 0.0 
0.0 0.0 -7.004737339288e-05 
-2.012981183411e-04 2.829868493087e-07 0.0 
2.829868493087e-07 1.325754434692e-03 0.0 
0.0 0.0 -2.012981183411e-04 
-1.944617061092e-04 -2.128424273080e-06 0.0 
-2.128424273080e-06 1.270536569317e-03 0.0 
0.0 0.0 -1.923981163876e-04 
-1.274261734323e-04 2.764661482526e-05 0.0 
2.764661482526e-05 8.320608034777e-04 0.0 
0.0 0.0 -1.269381307268e-04 
-1.388257339176e-05 -3.296929808695e-07 0.0 
-3.296929808695e-07 4.627629862134e-05 0.0 
0.0 0.0 -1.388302509839e-05 
-2.011432062587e-04 1.175370744359e-06 0.0 
1.175370744359e-06 1.325704875416e-03 0.0 
0.0 0.0 -2.011432062587e-04 
-1.921224080021e-04 -3.345083285999e-06 0.0 
-3.345083285999e-06 1.269046594870e-03 0.0 
0.0 0.0 -1.926992175726e-04 
-6.391416598869e-05 2.999598810142e-05 0.0 
2.999598810142e-05 3.912627427439e-04 0.0 
0.0 0.0 -6.380490422505e-05 
-1.404753262357e-04 -2.965513079560e-05 0.0 
-2.965513079560e-05 9.376027128924e-04 0.0 
0.0 0.0 -1.402969630079e-04 
-1.999507595383e-04 6.517171705063e-07 0.0 
6.517171705063e-07 1.367200749641e-03 0.0 
0.0 0.0 -1.984522389651e-04 
0.0 0.0 0.0 
0.0 0.0 0.0 
0.0 0.0 0.0 
-9.642422921866e-05 2.765043306328e-05 0.0 
2.765043306328e-05 6.184893464754e-04 0.0 
0.0 0.0 -9.638260397252e-05 
-1.327711764227e-04 2.777803969438e-05 0.0 
2.777803969438e-05 8.691844784454e-04 0.0 
0.0 0.0 -1.322405047887e-04 
-1.220159274826e-04 2.812429560457e-05 0.0 
2.812429560457e-05 7.950189731712e-04 0.0 
0.0 0.0 -1.216370884873e-04 
-1.233780413330e-04 2.822278476293e-05 0.0 
2.822278476293e-05 8.034120475729e-04 0.0 
0.0 0.0 -1.227992079070e-04 
-5.537653594295e-05 2.875222597985e-05 0.0 
2.875222597985e-05 3.316168811288e-04 0.0 
0.0 0.0 -5.533679171570e-05 
-2.012041008673e-04 -1.784165579869e-07 0.0 
-1.784165579869e-07 1.324183447082e-03 0.0 
0.0 0.0 -2.012041008673e-04 
-9.201494534921e-05 -2.853538992438e-05 0.0 
-2.853538992438e-05 6.003334109930e-04 0.0 
0.0 0.0 -9.185667556238e-05 
-3.303106360170e-05 -2.633064609002e-05 0.0 
-2.633064609002e-05 1.883634797952e-04 0.0 
0.0 0.0 -3.259945417627e-05 
-1.918713440306e-04 8.946523950926e-06 0.0 
8.946523950926e-06 1.309054848055e-03 0.0 
0.0 0.0 -1.908532239790e-04 
-1.533408055875e-05 7.384230356388e-07 0.0 
7.384230356388e-07 8.948803933365e-05 0.0 
0.0 0.0 -1.529156673429e-05 
-1.006599210971e-04 2.782645766406e-05 0.0 
2.782645766406e-05 6.455369390174e-04 0.0 
0.0 0.0 -1.001834968599e-04 
-3.451081164849e-05 1.818301860879e-06 0.0 
1.818301860879e-06 1.688175235099e-04 0.0 
0.0 0.0 -3.548102280213e-05 
-1.062965573196e-04 2.780179286973e-05 0.0 
2.780179286973e-05 6.883223029444e-04 0.0 
0.0 0.0 -1.064232429825e-04 
-1.976952572840e-04 -1.168281398261e-06 0.0 
-1.168281398261e-06 1.362992457342e-03 0.0 
0.0 0.0 -1.982734646138e-04 
-2.011883062674e-04 9.888613031941e-07 0.0 
9.888613031941e-07 1.328146716782e-03 0.0 
0.0 0.0 -2.011883062674e-04 
-1.301088029822e-04 2.770607832302e-05 0.0 
2.770607832302e-05 8.484055931934e-04 0.0 
0.0 0.0 -1.292069026561e-04 
-2.954464874618e-05 -3.965393558445e-06 0.0 
-3.965393558445e-06 1.122999320296e-04 0.0 
0.0 0.0 -2.690965210263e-05 
-2.739399671943e-05 2.933508036766e-05 0.0 
2.933508036766e-05 1.380090285650e-04 0.0 
0.0 0.0 -2.757055009735e-05 
-3.542847344044e-05 6.606947798617e-06 0.0 
6.606947798617e-06 2.063449622469e-04 0.0 
0.0 0.0 -3.269047038571e-05 
-1.687743102681e-04 -2.969350572077e-05 0.0 
-2.969350572077e-05 1.134034339831e-03 0.0 
0.0 0.0 -1.682749826031e-04 
-1.155575491131e-04 4.356017504332e-06 0.0 
4.356017504332e-06 7.906999410851e-04 0.0 
0.0 0.0 -1.155645034189e-04 
-1.225223585343e-04 -3.170975582543e-05 0.0 
-3.170975582543e-05 8.033648067797e-04 0.0 
0.0 0.0 -1.216399908441e-04 
-2.013754095761e-04 8.574101042677e-07 0.0 
8.574101042677e-07 1.328505872694e-03 0.0 
0.0 0.0 -2.013754095761e-04 
-1.185922722511e-04 -6.408792185017e-06 0.0 
-6.408792185017e-06 7.903114053093e-04 0.0 
0.0 0.0 -1.158066699702e-04 
-1.999465830534e-04 2.523603907241e-06 0.0 
2.523603907241e-06 1.365706190659e-03 0.0 
0.0 0.0 -1.984278847636e-04 
-1.529420189163e-04 2.878980384314e-05 0.0 
2.878980384314e-05 1.013778882456e-03 0.0 
0.0 0.0 -1.531497964885e-04 
-1.341342697016e-04 3.021998989808e-05 0.0 
3.021998989808e-05 8.804430663277e-04 0.0 
0.0 0.0 -1.336117322397e-04 
-7.066337245358e-05 2.724020164699e-05 0.0 
2.724020164699e-05 4.173118245595e-04 0.0 
0.0 0.0 -6.716413209789e-05 
-1.409646218039e-04 2.858302443344e-05 0.0 
2.858302443344e-05 9.281763591865e-04 0.0 
0.0 0.0 -1.406799227165e-04 
-4.298549671642e-05 -2.547451572923e-05 0.0 
-2.547451572923e-05 2.695670933754e-04 0.0 
0.0 0.0 -4.407237973489e-05 
-2.011132486541e-04 -7.128017343346e-07 0.0 
-7.128017343346e-07 1.328659301781e-03 0.0 
0.0 0.0 -2.011132486541e-04 
-2.009976701417e-04 3.439303975141e-06 0.0 
3.439303975141e-06 1.321105461220e-03 0.0 
0.0 0.0 -2.009976701417e-04 
-2.010626616006e-04 -3.322276770675e-06 0.0 
-3.322276770675e-06 1.324330050416e-03 0.0 
0.0 0.0 -2.010626616006e-04 
-1.299093591511e-04 -2.914930425429e-05 0.0 
-2.914930425429e-05 8.658441252439e-04 0.0 
0.0 0.0 -1.299975089739e-04 
-9.052284020770e-05 -3.049516894790e-05 0.0 
-3.049516894790e-05 5.936904225557e-04 0.0 
0.0 0.0 -9.093357025479e-05 
-1.054046505950e-04 -2.722690421760e-05 0.0 
-2.722690421760e-05 6.941162488956e-04 0.0 
0.0 0.0 -1.053178853420e-04 
-1.346471619318e-04 2.927563182277e-05 0.0 
2.927563182277e-05 8.856709839770e-04 0.0 
0.0 0.0 -1.347235989126e-04 
-2.009441844947e-04 5.418162692691e-07 0.0 
5.418162692691e-07 1.327955075341e-03 0.0 
0.0 0.0 -2.009441844947e-04 
-6.443925901357e-05 -2.813929069584e-05 0.0 
-2.813929069584e-05 4.076252186495e-04 0.0 
0.0 0.0 -6.431912701200e-05 
-7.485675959243e-05 2.901728883495e-05 0.0 
2.901728883495e-05 4.688085198426e-04 0.0 
0.0 0.0 -7.487790608676e-05 
-7.928698614329e-05 2.778576412939e-05 0.0 
2.778576412939e-05 4.984401812577e-04 0.0 
0.0 0.0 -7.908687439778e-05 
-1.394721343079e-04 2.885489704653e-05 0.0 
2.885489704653e-05 9.192978405546e-04 0.0 
0.0 0.0 -1.391937591313e-04 
-2.008612103287e-04 -3.693527197654e-06 0.0 
-3.693527197654e-06 1.364519917838e-03 0.0 
0.0 0.0 -1.985305734468e-04 
-2.250927834624e-05 2.909087829438e-06 0.0 
2.909087829438e-06 1.468758923848e-04 0.0 
0.0 0.0 -2.397382233655e-05 
-2.011163638586e-04 2.302003841695e-07 0.0 
2.302003841695e-07 1.324189736521e-03 0.0 
0.0 0.0 -2.011163638586e-04 
-7.377337448231e-05 2.934269690708e-05 0.0 
2.934269690708e-05 4.594549865471e-04 0.0 
0.0 0.0 -7.358133128319e-05 
-2.014316818412e-04 4.263406091416e-07 0.0 
4.263406091416e-07 1.328090472923e-03 0.0 
0.0 0.0 -2.014316818412e-04 
-1.734276927947e-04 -2.828578725819e-05 0.0 
-2.828578725819e-05 1.166116999412e-03 0.0 
0.0 0.0 -1.729148776319e-04 
-6.741246855669e-06 1.500702879826e-07 0.0 
1.500702879826e-07 3.827256342879e-05 0.0 
0.0 0.0 -6.864263063556e-06 
-1.004959508363e-04 2.808542309375e-05 0.0 
2.808542309375e-05 6.454212743012e-04 0.0 
0.0 0.0 -1.003583859079e-04 
-1.718759866272e-04 -2.980354167843e-05 0.0 
-2.980354167843e-05 1.157131136303e-03 0.0 
0.0 0.0 -1.719029392456e-04 
-2.011830196921e-04 -3.548902454820e-07 0.0 
-3.548902454820e-07 1.327155566075e-03 0.0 
0.0 0.0 -2.011830196921e-04 
-1.388407500422e-04 -2.884720622620e-05 0.0 
-2.884720622620e-05 9.230769586163e-04 0.0 
0.0 0.0 -1.383010158571e-04 
-1.575526722260e-04 2.955644203139e-05 0.0 
2.955644203139e-05 1.043750468826e-03 0.0 
0.0 0.0 -1.573501057445e-04 
-4.123088931291e-05 2.897558544234e-05 0.0 
2.897558544234e-05 2.287469859808e-04 0.0 
0.0 0.0 -4.076119643165e-05 
-1.813025862255e-04 9.345575993616e-07 0.0 
9.345575993616e-07 1.215376006819e-03 0.0 
0.0 0.0 -1.843023520775e-04 
-7.788490820688e-05 2.864422483209e-05 0.0 
2.864422483209e-05 4.890843703452e-04 0.0 
0.0 0.0 -7.776038389268e-05 
-7.872164132443e-05 -2.705112463858e-05 0.0 
-2.705112463858e-05 5.083022021505e-04 0.0 
0.0 0.0 -7.864394100603e-05 
-1.651857613722e-05 2.436579541672e-06 0.0 
2.436579541672e-06 9.382250948335e-05 0.0 
0.0 0.0 -1.564271892946e-05 
-2.011619417363e-04 1.902236696598e-07 0.0 
1.902236696598e-07 1.325669705516e-03 0.0 
0.0 0.0 -2.011619417363e-04 
-5.404101206327e-05 -2.775487024526e-05 0.0 
-2.775487024526e-05 3.346238881161e-04 0.0 
0.0 0.0 -5.346778118095e-05 
-1.664978969876e-04 -3.078518139598e-05 0.0 
-3.078518139598e-05 1.121532468591e-03 0.0 
0.0 0.0 -1.665752238587e-04 
-1.278730840806e-04 -3.472948115295e-05 0.0 
-3.472948115295e-05 8.520267496029e-04 0.0 
0.0 0.0 -1.283298317887e-04 
-6.603291402412e-05 -2.806322866842e-05 0.0 
-2.806322866842e-05 4.217037645698e-04 0.0 
0.0 0.0 -6.617380498946e-05 
-7.463675443451e-05 -2.871843216267e-05 0.0 
-2.871843216267e-05 4.786814676414e-04 0.0 
0.0 0.0 -7.447016153659e-05 
-1.335206736850e-04 -2.810341513530e-05 0.0 
-2.810341513530e-05 8.862841769034e-04 0.0 
0.0 0.0 -1.330061330556e-04 
-2.013389903111e-04 -2.577060081338e-06 0.0 
-2.577060081338e-06 1.328272800082e-03 0.0 
0.0 0.0 -2.013389903111e-04 
-9.595163826972e-05 2.829118562233e-05 0.0 
2.829118562233e-05 6.147361544056e-04 0.0 
0.0 0.0 -9.568302398834e-05 
-1.453761414593e-04 -3.029613600092e-05 0.0 
-3.029613600092e-05 9.724967985982e-04 0.0 
0.0 0.0 -1.454001008742e-04 
-1.206262125757e-04 2.794500349809e-05 0.0 
2.794500349809e-05 7.866369625336e-04 0.0 
0.0 0.0 -1.204619904346e-04 
-1.322723275388e-04 -2.829979880917e-05 0.0 
-2.829979880917e-05 8.816831760065e-04 0.0 
0.0 0.0 -1.321674040750e-04 
-7.980000717296e-05 -2.795628281200e-05 0.0 
-2.795628281200e-05 5.159636454028e-04 0.0 
0.0 0.0 -7.989676937832e-05 
-1.354049195082e-04 -2.966836663350e-05 0.0 
-2.966836663350e-05 9.031731980439e-04 0.0 
0.0 0.0 -1.354758998029e-04 
-1.160382141721e-04 -2.802728243222e-05 0.0 
-2.802728243222e-05 7.673309827378e-04 0.0 
0.0 0.0 -1.159419204142e-04 
-1.497221933922e-04 -2.945707781298e-05 0.0 
-2.945707781298e-05 1.002549953165e-03 0.0 
0.0 0.0 -1.497374551683e-04 
-1.506619844600e-04 2.868191767905e-05 0.0 
2.868191767905e-05 9.959081628399e-04 0.0 
0.0 0.0 -1.504701801305e-04 
-1.152928167139e-04 2.794966723813e-05 0.0 
2.794966723813e-05 7.495122634304e-04 0.0 
0.0 0.0 -1.151504190239e-04 
-9.797200402357e-05 2.936337437301e-05 0.0 
2.936337437301e-05 6.310607353231e-04 0.0 
0.0 0.0 -9.826785141749e-05 
-6.968070852175e-05 -2.743361977117e-05 0.0 
-2.743361977117e-05 4.442581749229e-04 0.0 
0.0 0.0 -6.960145924383e-05 
-9.096858632181e-05 2.865428116578e-05 0.0 
2.865428116578e-05 5.831558172230e-04 0.0 
0.0 0.0 -9.136904409387e-05 
-1.529042345816e-04 -2.854559586381e-05 0.0 
-2.854559586381e-05 1.024686749938e-03 0.0 
0.0 0.0 -1.527306194461e-04 
-1.256058487050e-04 2.811261290406e-05 0.0 
2.811261290406e-05 8.215081039068e-04 0.0 
0.0 0.0 -1.254775488864e-04 
-1.980780648734e-04 -3.935700772683e-06 0.0 
-3.935700772683e-06 1.366110574938e-03 0.0 
0.0 0.0 -1.982894430286e-04 
-1.754272809192e-04 -2.841101742405e-05 0.0 
-2.841101742405e-05 1.186882516095e-03 0.0 
0.0 0.0 -1.761487873678e-04 
-6.082182731614e-05 2.853376333875e-05 0.0 
2.853376333875e-05 3.715508262051e-04 0.0 
0.0 0.0 -6.104993218691e-05 
-2.011571007552e-04 9.171145657895e-07 0.0 
9.171145657895e-07 1.321562182738e-03 0.0 
0.0 0.0 -2.011571007552e-04 
-1.869664199368e-04 -1.057224803580e-06 0.0 
-1.057224803580e-06 1.305229682683e-03 0.0 
0.0 0.0 -1.899621165515e-04 
-1.086484700099e-04 2.782826117920e-05 0.0 
2.782826117920e-05 7.032557878447e-04 0.0 
0.0 0.0 -1.085668144712e-04 
-1.464969908307e-05 -1.429149761968e-06 0.0 
-1.429149761968e-06 4.885109050726e-05 0.0 
0.0 0.0 -1.465773918179e-05 
-1.958263237412e-04 5.780106440857e-07 0.0 
5.780106440857e-07 1.365777430136e-03 0.0 
0.0 0.0 -1.985204576056e-04 
-1.757264082716e-04 -2.517232276593e-05 0.0 
-2.517232276593e-05 1.179270301901e-03 0.0 
0.0 0.0 -1.750736792729e-04 
-6.782541782712e-05 3.019373787777e-05 0.0 
3.019373787777e-05 4.206013080560e-04 0.0 
0.0 0.0 -6.802858053956e-05 
-2.012563967287e-04 -1.966469980066e-06 0.0 
-1.966469980066e-06 1.324444202799e-03 0.0 
0.0 0.0 -2.012563967287e-04 
-1.398061958654e-04 -2.943243974614e-05 0.0 
-2.943243974614e-05 9.347188127772e-04 0.0 
0.0 0.0 -1.398839994836e-04 
-9.402070193648e-05 2.712518201061e-05 0.0 
2.712518201061e-05 5.984767473335e-04 0.0 
0.0 0.0 -9.344238907910e-05 
-1.259751156612e-04 2.590313598485e-05 0.0 
2.590313598485e-05 8.271536243356e-04 0.0 
0.0 0.0 -1.261329128710e-04 
-1.209053773198e-04 -2.958653903370e-05 0.0 
-2.958653903370e-05 8.015101038896e-04 0.0 
0.0 0.0 -1.208199794009e-04 
-1.200662961737e-04 -2.928695907517e-05 0.0 
-2.928695907517e-05 7.971639168788e-04 0.0 
0.0 0.0 -1.201302469568e-04 
-1.377407696400e-04 -2.844739825321e-05 0.0 
-2.844739825321e-05 9.201029016575e-04 0.0 
0.0 0.0 -1.377263211214e-04 
-1.455051528160e-04 -2.968427682686e-05 0.0 
-2.968427682686e-05 9.765284886093e-04 0.0 
0.0 0.0 -1.458154293005e-04 
-1.046610403714e-04 2.733139804099e-05 0.0 
2.733139804099e-05 6.730778598484e-04 0.0 
0.0 0.0 -1.041882757323e-04 
-1.560008307498e-04 2.985032891431e-05 0.0 
2.985032891431e-05 1.035131189223e-03 0.0 
0.0 0.0 -1.559113556481e-04 
-1.346325198006e-04 -3.759875847639e-06 0.0 
-3.759875847639e-06 9.030385431769e-04 0.0 
0.0 0.0 -1.325924704931e-04 
-9.742891063834e-05 -2.917049163419e-05 0.0 
-2.917049163419e-05 6.415916256564e-04 0.0 
0.0 0.0 -9.782951018876e-05 
-1.452307842680e-04 2.798410104444e-05 0.0 
2.798410104444e-05 9.572278053497e-04 0.0 
0.0 0.0 -1.449704969611e-04 
-7.715625378280e-05 -2.667442626255e-05 0.0 
-2.667442626255e-05 4.986036227452e-04 0.0 
0.0 0.0 -7.733157599954e-05 
-1.363333543933e-04 2.878191277654e-05 0.0 
2.878191277654e-05 8.968468110316e-04 0.0 
0.0 0.0 -1.364058089354e-04 
-7.777375980435e-06 -7.535368744987e-07 0.0 
-7.535368744987e-07 3.923141655039e-05 0.0 
0.0 0.0 -6.878196728934e-06 
-7.528604578945e-05 -2.595586335955e-05 0.0 
-2.595586335955e-05 4.832975377931e-04 0.0 
0.0 0.0 -7.495963205652e-05 
-7.310000528410e-05 -2.717420889967e-05 0.0 
-2.717420889967e-05 4.696905978795e-04 0.0 
0.0 0.0 -7.313647621482e-05 
-1.067255440210e-04 2.893271527878e-05 0.0 
2.893271527878e-05 6.917423590188e-04 0.0 
0.0 0.0 -1.068984364518e-04 
-1.139491260445e-04 2.826874769749e-05 0.0 
2.826874769749e-05 7.405843148328e-04 0.0 
0.0 0.0 -1.139284295517e-04 
-1.402043620025e-04 2.960631400939e-05 0.0 
2.960631400939e-05 9.251192422938e-04 0.0 
0.0 0.0 -1.402590041820e-04 
-1.335394728763e-04 -2.801522720058e-05 0.0 
-2.801522720058e-05 8.959684456723e-04 0.0 
0.0 0.0 -1.344445438287e-04 
-6.737158343628e-05 -2.804640221892e-05 0.0 
-2.804640221892e-05 4.313606597416e-04 0.0 
0.0 0.0 -6.758331304146e-05 
-2.012741767181e-04 8.821979198627e-07 0.0 
8.821979198627e-07 1.328039817999e-03 0.0 
0.0 0.0 -2.012741767181e-04 
-1.322856537807e-04 -2.842003897691e-05 0.0 
-2.842003897691e-05 8.785134865185e-04 0.0 
0.0 0.0 -1.318490365677e-04 
-1.109362290093e-04 2.909596826543e-05 0.0 
2.909596826543e-05 7.212635507904e-04 0.0 
0.0 0.0 -1.112084472091e-04 
-1.268451666326e-04 -2.799239167254e-05 0.0 
-2.799239167254e-05 8.413818391972e-04 0.0 
0.0 0.0 -1.265499305732e-04 
-1.064793262471e-04 -2.934158827982e-05 0.0 
-2.934158827982e-05 7.019469370670e-04 0.0 
0.0 0.0 -1.064793858277e-04 
0.0 0.0 0.0 
0.0 0.0 0.0 
0.0 0.0 0.0 
-1.318178097822e-04 -2.805518743843e-05 0.0 
-2.805518743843e-05 8.722935110683e-04 0.0 
0.0 0.0 -1.310031782818e-04 
-9.021933528390e-05 3.132040384158e-05 0.0 
3.132040384158e-05 5.739755637610e-04 0.0 
0.0 0.0 -8.934454493796e-05 
0.0 0.0 0.0 
0.0 0.0 0.0 
0.0 0.0 0.0 
-1.052154278640e-04 3.047955035353e-05 0.0 
3.047955035353e-05 6.816420493296e-04 0.0 
0.0 0.0 -1.056191267961e-04 
-1.502367494217e-04 2.924022123396e-05 0.0 
2.924022123396e-05 9.937951500591e-04 0.0 
0.0 0.0 -1.501881972789e-04 
-1.718775265069e-04 2.928709797380e-05 0.0 
2.928709797380e-05 1.146088071217e-03 0.0 
0.0 0.0 -1.720420237578e-04 
-1.280234877616e-04 -2.851125988754e-05 0.0 
-2.851125988754e-05 8.523441205577e-04 0.0 
0.0 0.0 -1.279840527869e-04 
-1.326450779531e-04 2.837607785170e-05 0.0 
2.837607785170e-05 8.704271803974e-04 0.0 
0.0 0.0 -1.326233994657e-04 
-1.124800331858e-04 -2.250634799779e-05 0.0 
-2.250634799779e-05 7.434000254204e-04 0.0 
0.0 0.0 -1.124284764899e-04 
-1.124934330556e-04 -1.147359770401e-06 0.0 
-1.147359770401e-06 6.878881025193e-04 0.0 
0.0 0.0 -1.096893794977e-04 
-1.889722149430e-04 -3.377914207804e-06 0.0 
-3.377914207804e-06 1.272437990102e-03 0.0 
0.0 0.0 -1.929167378009e-04 
-1.214486582279e-04 -2.834437307674e-05 0.0 
-2.834437307674e-05 8.042147269737e-04 0.0 
0.0 0.0 -1.212428182282e-04 
-3.901684544272e-06 -1.266514493921e-06 0.0 
-1.266514493921e-06 3.364292570627e-05 0.0 
0.0 0.0 -6.803381613341e-06 
-4.019702923064e-05 -2.968878104168e-05 0.0 
-2.968878104168e-05 2.317309542851e-04 0.0 
0.0 0.0 -3.854459625752e-05 
-1.433007491539e-05 -2.523139495984e-06 0.0 
-2.523139495984e-06 4.782663812836e-05 0.0 
0.0 0.0 -1.435566994842e-05 
-6.398639061022e-05 -2.382092625923e-05 0.0 
-2.382092625923e-05 4.115367021604e-04 0.0 
0.0 0.0 -6.426199848985e-05 
-1.705216486236e-04 -3.075798588999e-05 0.0 
-3.075798588999e-05 1.144180239023e-03 0.0 
0.0 0.0 -1.701784606649e-04 
-1.720848907896e-04 -2.982707765609e-05 0.0 
-2.982707765609e-05 1.154451966353e-03 0.0 
0.0 0.0 -1.716974477008e-04 
-1.636081653310e-04 2.890679068895e-05 0.0 
2.890679068895e-05 1.083797119579e-03 0.0 
0.0 0.0 -1.631141653006e-04 
-7.191278251009e-05 -2.923981126011e-05 0.0 
-2.923981126011e-05 4.644308216806e-04 0.0 
0.0 0.0 -7.241705069886e-05 
-1.359669915306e-04 -2.927541453388e-05 0.0 
-2.927541453388e-05 9.079369783679e-04 0.0 
0.0 0.0 -1.359475215862e-04 
-1.703257054035e-04 2.861689226726e-05 0.0 
2.861689226726e-05 1.140054647222e-03 0.0 
0.0 0.0 -1.713159247262e-04 
-4.183047912369e-05 -2.572604659906e-05 0.0 
-2.572604659906e-05 2.560153946945e-04 0.0 
0.0 0.0 -4.231798256975e-05 
-8.943823586418e-05 -3.364415979658e-05 0.0 
-3.364415979658e-05 5.775390913927e-04 0.0 
0.0 0.0 -8.913173311910e-05 
-7.231586338472e-05 2.908218695887e-05 0.0 
2.908218695887e-05 4.640276074048e-04 0.0 
0.0 0.0 -7.470029742937e-05 
-2.002434364986e-04 2.390306987834e-06 0.0 
2.390306987834e-06 1.365017058433e-03 0.0 
0.0 0.0 -1.983595295415e-04 
-2.012462808875e-04 -2.397130779802e-06 0.0 
-2.397130779802e-06 1.326802955155e-03 0.0 
0.0 0.0 -2.012462808875e-04 
-1.001924190894e-04 -2.543634002640e-05 0.0 
-2.543634002640e-05 6.415530807948e-04 0.0 
0.0 0.0 -9.870432074603e-05 
-1.098744198639e-04 -2.927420239507e-05 0.0 
-2.927420239507e-05 7.316606535654e-04 0.0 
0.0 0.0 -1.107837014452e-04 
-1.248013625041e-04 2.918553395126e-05 0.0 
2.918553395126e-05 8.167887655362e-04 0.0 
0.0 0.0 -1.248518557812e-04 
-1.744561955947e-04 2.668158714920e-05 0.0 
2.668158714920e-05 1.182258303691e-03 0.0 
0.0 0.0 -1.765917450224e-04 
-4.348855545644e-05 2.994300755885e-05 0.0 
2.994300755885e-05 2.445057852649e-04 0.0 
0.0 0.0 -4.320551243875e-05 
-1.652296485327e-04 2.906332229875e-05 0.0 
2.906332229875e-05 1.101447253650e-03 0.0 
0.0 0.0 -1.657061016896e-04 
-2.403565913090e-05 4.949963233039e-06 0.0 
4.949963233039e-06 1.531777656687e-04 0.0 
0.0 0.0 -2.418834757213e-05 
-1.015799043054e-04 -2.942946605237e-05 0.0 
-2.942946605237e-05 6.633561862995e-04 0.0 
0.0 0.0 -1.008698596220e-04 
-1.119529650465e-04 -2.962126233882e-05 0.0 
-2.962126233882e-05 7.407931298335e-04 0.0 
0.0 0.0 -1.120576983545e-04 
-1.459957790495e-05 2.147032025287e-06 0.0 
2.147032025287e-06 4.870772312705e-05 0.0 
0.0 0.0 -1.461777652376e-05 
-9.161840063277e-05 2.942933483065e-05 0.0 
2.942933483065e-05 6.062252670522e-04 0.0 
0.0 0.0 -9.401387724495e-05 
-1.768726332775e-04 2.584150165173e-05 0.0 
2.584150165173e-05 1.176843255176e-03 0.0 
0.0 0.0 -1.765293208453e-04 
-8.070653634049e-06 -7.127200303669e-07 0.0 
-7.127200303669e-07 3.799287171116e-05 0.0 
0.0 0.0 -6.885492893058e-06 
-1.096879873477e-04 2.043579917607e-06 0.0 
2.043579917607e-06 6.860751141181e-04 0.0 
0.0 0.0 -1.098413067258e-04 
-1.057188370874e-04 1.685883039911e-07 0.0 
1.685883039911e-07 7.271365247556e-04 0.0 
0.0 0.0 -1.069570933414e-04 
-1.432107105009e-04 -2.918049026374e-05 0.0 
-2.918049026374e-05 9.585008998201e-04 0.0 
0.0 0.0 -1.432800021710e-04 
-7.316489204152e-05 -2.863859130745e-05 0.0 
-2.863859130745e-05 4.706303893412e-04 0.0 
0.0 0.0 -7.415269660255e-05 
-7.204753212897e-05 2.972500420552e-05 0.0 
2.972500420552e-05 4.499764828814e-04 0.0 
0.0 0.0 -7.226240082359e-05 
-5.120365076624e-05 -2.544377550683e-05 0.0 
-2.544377550683e-05 3.155956943602e-04 0.0 
0.0 0.0 -5.097082111979e-05 
-1.766764062378e-04 2.618275323120e-05 0.0 
2.618275323120e-05 1.179907026535e-03 0.0 
0.0 0.0 -1.771343179597e-04 
-1.932169887683e-04 -1.186514980036e-06 0.0 
-1.186514980036e-06 1.270206526665e-03 0.0 
0.0 0.0 -1.929291577857e-04 
-1.651550878866e-04 -2.941422592351e-05 0.0 
-2.941422592351e-05 1.109208798495e-03 0.0 
0.0 0.0 -1.651633390879e-04 
-6.755242304519e-05 -2.455549728632e-05 0.0 
-2.455549728632e-05 4.248768375292e-04 0.0 
0.0 0.0 -6.685523357515e-05 
-3.212136007057e-05 3.580530001302e-05 0.0 
3.580530001302e-05 1.447902451166e-04 0.0 
0.0 0.0 -2.858747568434e-05 
-1.054343223867e-04 -2.695876520577e-05 0.0 
-2.695876520577e-05 6.907711584095e-04 0.0 
0.0 0.0 -1.049869670044e-04 
-1.082088607967e-04 -8.344784113160e-08 0.0 
-8.344784113160e-08 6.889651327617e-04 0.0 
0.0 0.0 -1.101766670879e-04 
-1.083270449213e-04 -5.188674785914e-06 0.0 
-5.188674785914e-06 7.291063979252e-04 0.0 
0.0 0.0 -1.071720332863e-04 
0.0 0.0 0.0 
0.0 0.0 0.0 
0.0 0.0 0.0 
-1.419401195472e-05 1.408697338343e-06 0.0 
1.408697338343e-06 4.733218519253e-05 0.0 
0.0 0.0 -1.420207424477e-05 
-2.834770026484e-05 -7.681243720571e-06 0.0 
-7.681243720571e-06 1.096902963104e-04 0.0 
0.0 0.0 -2.693124394472e-05 
-5.719939767419e-05 2.990659681515e-05 0.0 
2.990659681515e-05 3.452165164042e-04 0.0 
0.0 0.0 -5.731412244432e-05 
-1.720930858718e-05 3.350218996686e-07 0.0 
3.350218996686e-07 9.401005302813e-05 0.0 
0.0 0.0 -1.553541414024e-05 
-1.076654832369e-04 2.813964265791e-05 0.0 
2.813964265791e-05 6.806882370998e-04 0.0 
0.0 0.0 -1.037722331524e-04 
0.0 0.0 0.0 
0.0 0.0 0.0 
0.0 0.0 0.0 
-6.700184681606e-05 3.038711416349e-05 0.0 
3.038711416349e-05 4.144588213805e-04 0.0 
0.0 0.0 -6.723558339016e-05 
-1.422690385554e-04 8.906612131176e-06 0.0 
8.906612131176e-06 9.279461319084e-04 0.0 
0.0 0.0 -1.437384108528e-04 
-1.067106135208e-04 1.512146510798e-06 0.0 
1.512146510798e-06 7.288241095318e-04 0.0 
0.0 0.0 -1.068051661132e-04 
-1.732229403376e-04 -3.027991344990e-05 0.0 
-3.027991344990e-05 1.178111385867e-03 0.0 
0.0 0.0 -1.754224665252e-04 
-1.445452663558e-04 2.930268727359e-05 0.0 
2.930268727359e-05 9.544571665351e-04 0.0 
0.0 0.0 -1.446217387457e-04 
-1.353694455665e-04 1.174583702380e-05 0.0 
1.174583702380e-05 8.660998565929e-04 0.0 
0.0 0.0 -1.348267065705e-04 
-7.873004197628e-05 3.045040631702e-05 0.0 
3.045040631702e-05 5.029221835495e-04 0.0 
0.0 0.0 -7.904067945980e-05 
-2.336863266121e-05 -2.139897506835e-06 0.0 
-2.139897506835e-06 1.525920777976e-04 0.0 
0.0 0.0 -2.404492882983e-05 
-2.011462452073e-04 -3.115145181966e-06 0.0 
-3.115145181966e-06 1.323800969612e-03 0.0 
0.0 0.0 -2.011462452073e-04 
-1.997611016349e-04 -1.600977658655e-07 0.0 
-1.600977658655e-07 1.366080671060e-03 0.0 
0.0 0.0 -1.980443072317e-04 
-1.272448923164e-04 3.465279404623e-05 0.0 
3.465279404623e-05 8.424875497443e-04 0.0 
0.0 0.0 -1.288258176484e-04 
-1.119386170519e-04 -1.126021442298e-06 0.0 
-1.126021442298e-06 6.885955176049e-04 0.0 
0.0 0.0 -1.098911005281e-04 
-7.877315288786e-05 -1.808968119029e-05 0.0 
-1.808968119029e-05 5.143209401366e-04 0.0 
0.0 0.0 -7.971767696681e-05 
-1.985236644042e-04 -3.425616005704e-06 0.0 
-3.425616005704e-06 1.362863135910e-03 0.0 
0.0 0.0 -1.983864604134e-04 
-6.236203446175e-05 -2.877830346934e-05 0.0 
-2.877830346934e-05 3.955051293210e-04 0.0 
0.0 0.0 -6.249901059374e-05 
-1.058650871008e-04 -6.246155104235e-07 0.0 
-6.246155104235e-07 7.256170483752e-04 0.0 
0.0 0.0 -1.068842133844e-04 
-1.069697525894e-04 1.084045783815e-06 0.0 
1.084045783815e-06 6.877400680898e-04 0.0 
0.0 0.0 -1.096916328397e-04 
-1.015389602943e-04 2.700360211827e-05 0.0 
2.700360211827e-05 6.538816838809e-04 0.0 
0.0 0.0 -1.013366985113e-04 
-2.012735984050e-04 -2.798087263703e-06 0.0 
-2.798087263703e-06 1.328613650514e-03 0.0 
0.0 0.0 -2.012735984050e-04 
-1.940648784859e-04 2.411070838906e-06 0.0 
2.411070838906e-06 1.364173949612e-03 0.0 
0.0 0.0 -1.983874027871e-04 
-1.690083312634e-05 1.049773310524e-06 0.0 
1.049773310524e-06 9.202054593460e-05 0.0 
0.0 0.0 -1.553532439781e-05 
0.0 0.0 0.0 
0.0 0.0 0.0 
0.0 0.0 0.0 
-3.585533076935e-05 2.904737459937e-05 0.0 
2.904737459937e-05 1.788685704198e-04 0.0 
0.0 0.0 -3.331695100386e-05 
-1.122713198486e-04 2.937932182379e-05 0.0 
2.937932182379e-05 7.306935959273e-04 0.0 
0.0 0.0 -1.124655765398e-04 
-1.835773402027e-04 3.521607307094e-05 0.0 
3.521607307094e-05 1.234731404255e-03 0.0 
0.0 0.0 -1.837003526785e-04 
-5.776823163620e-06 -1.013741336344e-05 0.0 
-1.013741336344e-05 3.224761562078e-05 0.0 
0.0 0.0 -6.760418344035e-06 
-1.642553307267e-04 -3.202846031696e-05 0.0 
-3.202846031696e-05 1.094624480443e-03 0.0 
0.0 0.0 -1.638777942950e-04 
0.0 0.0 0.0 
0.0 0.0 0.0 
0.0 0.0 0.0 
-1.424654463444e-04 2.913249922816e-05 0.0 
2.913249922816e-05 9.390706018894e-04 0.0 
0.0 0.0 -1.423962487430e-04 
-9.432165051581e-06 1.005162211791e-06 0.0 
1.005162211791e-06 4.138276126950e-05 0.0 
0.0 0.0 -6.886565099861e-06 
-9.362857787326e-06 -3.767431995236e-06 0.0 
-3.767431995236e-06 3.953910185584e-05 0.0 
0.0 0.0 -6.922935307491e-06 
-1.370365661157e-04 2.914478147057e-05 0.0 
2.914478147057e-05 9.005660180564e-04 0.0 
0.0 0.0 -1.368385334393e-04 
-1.786566956368e-04 2.931910129804e-05 0.0 
2.931910129804e-05 1.196344419870e-03 0.0 
0.0 0.0 -1.789445754221e-04 
-1.403014539755e-04 -1.415648790463e-05 0.0 
-1.415648790463e-05 9.602064443499e-04 0.0 
0.0 0.0 -1.404190723625e-04 
-1.093898583646e-04 -2.651797813815e-05 0.0 
-2.651797813815e-05 7.193684517441e-04 0.0 
0.0 0.0 -1.090260965338e-04 
-1.456607726240e-05 -2.038157053184e-06 0.0 
-2.038157053184e-06 4.859194839432e-05 0.0 
0.0 0.0 -1.458251619940e-05 
-1.403045830740e-04 -2.944113871056e-05 0.0 
-2.944113871056e-05 9.375602710699e-04 0.0 
0.0 0.0 -1.402353347023e-04 
-2.006696725991e-04 -3.796241326952e-06 0.0 
-3.796241326952e-06 1.322105168317e-03 0.0 
0.0 0.0 -2.006696725991e-04 
-1.989054431028e-04 -2.182972558240e-05 0.0 
-2.182972558240e-05 1.362302379513e-03 0.0 
0.0 0.0 -1.983532132695e-04 
-1.068515601043e-04 1.760793152409e-06 0.0 
1.760793152409e-06 7.282983415426e-04 0.0 
0.0 0.0 -1.068864667265e-04 
-1.479030554931e-04 2.849872559925e-05 0.0 
2.849872559925e-05 9.774939211832e-04 0.0 
0.0 0.0 -1.479563560404e-04 
-2.012411575798e-04 2.034835726214e-06 0.0 
2.034835726214e-06 1.326088054461e-03 0.0 
0.0 0.0 -2.012411575798e-04 
-1.572471139556e-04 -3.123527971848e-05 0.0 
-3.123527971848e-05 1.052974899250e-03 0.0 
0.0 0.0 -1.570065405944e-04 
-2.512952758235e-05 6.164143337161e-06 0.0 
6.164143337161e-06 1.447280408939e-04 0.0 
0.0 0.0 -2.384861487001e-05 
-1.601508775722e-05 -1.437488736464e-06 0.0 
-1.437488736464e-06 9.300170481307e-05 0.0 
0.0 0.0 -1.544587960073e-05 
-1.543264015197e-05 -6.472491513265e-06 0.0 
-6.472491513265e-06 5.180474928483e-05 0.0 
0.0 0.0 -1.558804677123e-05 
-8.807433739710e-05 2.930499283462e-05 0.0 
2.930499283462e-05 5.721318599331e-04 0.0 
0.0 0.0 -8.900037232384e-05 
-2.000509150237e-04 -1.803318756068e-05 0.0 
-1.803318756068e-05 1.362940764782e-03 0.0 
0.0 0.0 -1.984242861770e-04 
-1.873647884484e-04 -3.488074856058e-05 0.0 
-3.488074856058e-05 1.273069634555e-03 0.0 
0.0 0.0 -1.887494668184e-04 
0.0 0.0 0.0 
0.0 0.0 0.0 
0.0 0.0 0.0 
-1.048455043466e-04 -2.786233972015e-05 0.0 
-2.786233972015e-05 6.764000404035e-04 0.0 
0.0 0.0 -1.040814173273e-04 
-2.017197471554e-04 8.241581226717e-07 0.0 
8.241581226717e-07 1.329062272743e-03 0.0 
0.0 0.0 -2.017197471554e-04 
-2.005984413255e-04 5.516146765968e-06 0.0 
5.516146765968e-06 1.367793765917e-03 0.0 
0.0 0.0 -1.978177876756e-04 
-1.955632613542e-04 2.146035678258e-07 0.0 
2.146035678258e-07 1.364429749039e-03 0.0 
0.0 0.0 -1.981726781329e-04 
-1.551674337257e-04 3.213659539949e-05 0.0 
3.213659539949e-05 1.026132370703e-03 0.0 
0.0 0.0 -1.540722572613e-04 
-1.676819576491e-04 -3.244106652331e-05 0.0 
-3.244106652331e-05 1.132368160945e-03 0.0 
0.0 0.0 -1.688564288694e-04 
-2.007045390215e-04 -1.045242026293e-06 0.0 
-1.045242026293e-06 1.322895647985e-03 0.0 
0.0 0.0 -2.007045390215e-04 
-2.011132486540e-04 -4.189740075221e-06 0.0 
-4.189740075221e-06 1.326334124050e-03 0.0 
0.0 0.0 -2.011132486540e-04 
-1.626580735659e-04 2.634343120663e-05 0.0 
2.634343120663e-05 1.095653417165e-03 0.0 
0.0 0.0 -1.638777942950e-04 
-3.467643311259e-06 1.128712139723e-05 0.0 
1.128712139723e-05 2.762392691705e-05 0.0 
0.0 0.0 -6.812318873104e-06 
-1.069489536729e-04 -2.288587191676e-07 0.0 
-2.288587191676e-07 7.222038744284e-04 0.0 
0.0 0.0 -1.070930873830e-04 
-1.082084560241e-04 4.524390449744e-06 0.0 
4.524390449744e-06 7.317697196541e-04 0.0 
0.0 0.0 -1.070046338016e-04 
0.0 0.0 0.0 
0.0 0.0 0.0 
0.0 0.0 0.0 
-2.013470386860e-04 1.582993778474e-06 0.0 
1.582993778474e-06 1.331092746641e-03 0.0 
0.0 0.0 -2.013470386860e-04 
-2.004992679381e-04 3.810616673030e-06 0.0 
3.810616673030e-06 1.366146148260e-03 0.0 
0.0 0.0 -1.977533921434e-04 
-2.006939626645e-04 9.733569450258e-08 0.0 
9.733569450258e-08 1.322104658797e-03 0.0 
0.0 0.0 -2.006939626645e-04 
-1.033192631121e-05 1.099005081210e-06 0.0 
1.099005081210e-06 3.989146001766e-05 0.0 
0.0 0.0 -6.874462243606e-06 
-1.053268595906e-05 1.440397429326e-06 0.0 
1.440397429326e-06 4.104748301093e-05 0.0 
0.0 0.0 -6.887055179908e-06 
-2.011132486540e-04 -1.745116755585e-07 0.0 
-1.745116755585e-07 1.324356223126e-03 0.0 
0.0 0.0 -2.011132486540e-04 
-2.010594294788e-04 -3.067167593136e-06 0.0 
-3.067167593136e-06 1.323008264150e-03 0.0 
0.0 0.0 -2.010594294788e-04 
-1.525144534316e-04 -3.469908965430e-05 0.0 
-3.469908965430e-05 9.919929974676e-04 0.0 
0.0 0.0 -1.490508918356e-04 
-1.073514247561e-04 4.761945652643e-06 0.0 
4.761945652643e-06 7.219659484264e-04 0.0 
0.0 0.0 -1.068727795842e-04 
-1.577537368329e-04 -3.403094625324e-05 0.0 
-3.403094625324e-05 1.060418053842e-03 0.0 
0.0 0.0 -1.590213654257e-04 
-1.328454241957e-04 -3.370191828823e-05 0.0 
-3.370191828823e-05 8.485398635158e-04 0.0 
0.0 0.0 -1.293991128285e-04 
-1.046169236010e-04 1.973664755836e-06 0.0 
1.973664755836e-06 7.223528969599e-04 0.0 
0.0 0.0 -1.068286901835e-04 
-4.614602936406e-06 5.445308269796e-06 0.0 
5.445308269796e-06 3.738876181996e-05 0.0 
0.0 0.0 -6.743366273123e-06 
-7.288647016025e-06 -5.605815272385e-06 0.0 
-5.605815272385e-06 4.290456148284e-05 0.0 
0.0 0.0 -6.886751345948e-06 
-4.777740867475e-06 -1.713355770572e-06 0.0 
-1.713355770572e-06 3.704418379984e-05 0.0 
0.0 0.0 -6.883523363406e-06 
-7.097131879007e-06 -1.839146356973e-06 0.0 
-1.839146356973e-06 3.989175121334e-05 0.0 
0.0 0.0 -6.834868364323e-06 
-1.111644977682e-04 3.476120600100e-05 0.0 
3.476120600100e-05 7.142233904721e-04 0.0 
0.0 0.0 -1.090698765213e-04 
-9.850854995735e-05 3.047113839014e-05 0.0 
3.047113839014e-05 6.418056074726e-04 0.0 
0.0 0.0 -9.901154080588e-05 
0.0 0.0 0.0 
0.0 0.0 0.0 
0.0 0.0 0.0 
-1.379803939868e-04 3.311278655235e-05 0.0 
3.311278655235e-05 9.246797732210e-04 0.0 
0.0 0.0 -1.383256398532e-04 
0.0 0.0 0.0 
0.0 0.0 0.0 
0.0 0.0 0.0 
-2.012207460908e-04 8.138655548157e-07 0.0 
8.138655548157e-07 1.323125614848e-03 0.0 
0.0 0.0 -2.012207460908e-04 
-2.011453028336e-04 1.874611865645e-06 0.0 
1.874611865645e-06 1.321148462492e-03 0.0 
0.0 0.0 -2.011453028336e-04 
-2.008980620244e-04 -1.010417860953e-06 0.0 
-1.010417860953e-06 1.324898106472e-03 0.0 
0.0 0.0 -2.008980620244e-04 
-3.774320917617e-05 3.566462655254e-05 0.0 
3.566462655254e-05 2.216925288799e-04 0.0 
0.0 0.0 -3.898704224316e-05 
-6.749434365589e-05 3.096998135248e-05 0.0 
3.096998135248e-05 4.319785382730e-04 0.0 
0.0 0.0 -6.911201714261e-05 
-2.005699367862e-04 -7.190292655297e-07 0.0 
-7.190292655297e-07 1.323013138076e-03 0.0 
0.0 0.0 -2.005699367862e-04 
-1.680240814146e-04 2.828255466262e-05 0.0 
2.828255466262e-05 1.134108335992e-03 0.0 
0.0 0.0 -1.687435400630e-04 
-2.016835406704e-04 -3.156370070795e-06 0.0 
-3.156370070795e-06 1.329078538970e-03 0.0 
0.0 0.0 -2.016835406704e-04 
-1.793487015674e-04 3.012936828637e-05 0.0 
3.012936828637e-05 1.204201687729e-03 0.0 
0.0 0.0 -1.788807376869e-04 
-1.896811634642e-04 3.473757623144e-05 0.0 
3.473757623144e-05 1.274809396155e-03 0.0 
0.0 0.0 -1.889858754357e-04 
-9.329662399263e-05 -3.052995434082e-05 0.0 
-3.052995434082e-05 6.062639241622e-04 0.0 
0.0 0.0 -9.401191312989e-05 
-2.000004866553e-04 -4.935042552872e-06 0.0 
-4.935042552872e-06 1.365934607507e-03 0.0 
0.0 0.0 -1.977152396198e-04 
-2.004002946706e-04 1.743259095834e-05 0.0 
1.743259095834e-05 1.363643771933e-03 0.0 
0.0 0.0 -1.982534774566e-04 
-1.735523764126e-04 -3.096544822671e-05 0.0 
-3.096544822671e-05 1.160586461079e-03 0.0 
0.0 0.0 -1.736242777500e-04 
-1.844507237627e-04 -3.076693800438e-05 0.0 
-3.076693800438e-05 1.234271765678e-03 0.0 
0.0 0.0 -1.838666131227e-04 
-1.480705946354e-04 -2.799822277007e-05 0.0 
-2.799822277007e-05 9.966603041907e-04 0.0 
0.0 0.0 -1.488773473547e-04 
0.0 0.0 0.0 
0.0 0.0 0.0 
0.0 0.0 0.0 
-9.787607230901e-05 -3.033430602603e-05 0.0 
-3.033430602603e-05 6.248974769917e-04 0.0 
0.0 0.0 -9.525361646419e-05 
-1.594166567358e-05 -3.750042762657e-06 0.0 
-3.750042762657e-06 8.963110813763e-05 0.0 
0.0 0.0 -1.545597323287e-05 
-1.766298993527e-04 -2.600424007003e-05 0.0 
-2.600424007003e-05 1.189008728009e-03 0.0 
0.0 0.0 -1.766728545426e-04 
-1.011715525641e-04 2.892404910577e-05 0.0 
2.892404910577e-05 6.528362141215e-04 0.0 
0.0 0.0 -1.013053728898e-04 
-1.643672164407e-04 2.795643146507e-05 0.0 
2.795643146507e-05 1.094563530101e-03 0.0 
0.0 0.0 -1.648525347569e-04 
-5.293095072300e-05 -2.919541751065e-05 0.0 
-2.919541751065e-05 3.265136357570e-04 0.0 
0.0 0.0 -5.257162719418e-05 
-2.326140168062e-05 1.809898427410e-05 0.0 
1.809898427410e-05 1.126266936620e-04 0.0 
0.0 0.0 -2.603928234478e-05 
-1.740902369364e-04 -2.842066329623e-05 0.0 
-2.842066329623e-05 1.173125089393e-03 0.0 
0.0 0.0 -1.742502449863e-04 
-1.033465261807e-04 -2.962592743150e-05 0.0 
-2.962592743150e-05 6.925891601377e-04 0.0 
0.0 0.0 -1.051812066754e-04 
-8.643013593858e-05 3.008982733389e-05 0.0 
3.008982733389e-05 5.377346504154e-04 0.0 
0.0 0.0 -8.417044846400e-05 
-1.640235310558e-04 -2.864236577619e-05 0.0 
-2.864236577619e-05 1.105176284391e-03 0.0 
0.0 0.0 -1.644154061664e-04 
-1.767953130454e-04 2.924397373916e-05 0.0 
2.924397373916e-05 1.186936749162e-03 0.0 
0.0 0.0 -1.783361800307e-04 
-8.342488227328e-05 -3.047437538585e-05 0.0 
-3.047437538585e-05 5.389729855638e-04 0.0 
0.0 0.0 -8.404105178381e-05 
-1.553105581953e-04 -3.047408891050e-05 0.0 
-3.047408891050e-05 1.042435393668e-03 0.0 
0.0 0.0 -1.553470185564e-04 
-1.377037381347e-04 2.897215065226e-05 0.0 
2.897215065226e-05 9.063511737441e-04 0.0 
0.0 0.0 -1.377261412248e-04 
-1.487663362168e-04 3.034863814033e-05 0.0 
3.034863814033e-05 9.863621124124e-04 0.0 
0.0 0.0 -1.492918029589e-04 
-1.536565537427e-04 2.792959174996e-05 0.0 
2.792959174996e-05 1.019186869417e-03 0.0 
0.0 0.0 -1.536336870150e-04 
-8.703976113534e-05 2.837055784379e-05 0.0 
2.837055784379e-05 5.518675504069e-04 0.0 
0.0 0.0 -8.683226689744e-05 
-1.002022259484e-04 -2.590961570230e-05 0.0 
-2.590961570230e-05 6.551468687222e-04 0.0 
0.0 0.0 -9.977007195992e-05 
-1.093881919947e-04 -2.770239582758e-05 0.0 
-2.770239582758e-05 7.220131976624e-04 0.0 
0.0 0.0 -1.093958643288e-04 
-1.406127741505e-04 2.917136878775e-05 0.0 
2.917136878775e-05 9.268398262502e-04 0.0 
0.0 0.0 -1.406784318969e-04 
-1.687115161712e-04 -3.067342872161e-05 0.0 
-3.067342872161e-05 1.136830953558e-03 0.0 
0.0 0.0 -1.687651353947e-04 
-1.585913072065e-04 2.928358840365e-05 0.0 
2.928358840365e-05 1.052859338839e-03 0.0 
0.0 0.0 -1.580633810106e-04 
-5.479081598616e-05 2.994038105978e-05 0.0 
2.994038105978e-05 3.289222848753e-04 0.0 
0.0 0.0 -5.528240989263e-05 
-1.746871843674e-04 3.283276217726e-05 0.0 
3.283276217726e-05 1.185116148222e-03 0.0 
0.0 0.0 -1.775271150753e-04 
-1.679442359996e-04 3.131022344942e-05 0.0 
3.131022344942e-05 1.115031446851e-03 0.0 
0.0 0.0 -1.675626104125e-04 
-1.221593488371e-04 3.511867114280e-05 0.0 
3.511867114280e-05 8.006612417280e-04 0.0 
0.0 0.0 -1.216572242888e-04 
-1.462466688388e-04 2.908933395677e-05 0.0 
2.908933395677e-05 9.660970915257e-04 0.0 
0.0 0.0 -1.463062179487e-04 
-1.447835164611e-04 2.956128772271e-05 0.0 
2.956128772271e-05 9.567010152770e-04 0.0 
0.0 0.0 -1.449838819924e-04 
-1.792333390310e-04 -3.168391798873e-05 0.0 
-3.168391798873e-05 1.203028324022e-03 0.0 
0.0 0.0 -1.778043281469e-04 
-1.726861877255e-04 2.779707870147e-05 0.0 
2.779707870147e-05 1.157249200719e-03 0.0 
0.0 0.0 -1.726459165900e-04 
-1.329452909279e-04 -2.927403005553e-05 0.0 
-2.927403005553e-05 8.870966851266e-04 0.0 
0.0 0.0 -1.330039573441e-04 
-1.775653267684e-04 -2.916250387629e-05 0.0 
-2.916250387629e-05 1.203364525945e-03 0.0 
0.0 0.0 -1.786308073928e-04 
-1.654805505207e-04 2.898950024976e-05 0.0 
2.898950024976e-05 1.100881704438e-03 0.0 
0.0 0.0 -1.655124361118e-04 
-1.580020696379e-04 -2.712101494930e-05 0.0 
-2.712101494930e-05 1.052848737751e-03 0.0 
0.0 0.0 -1.580622427210e-04 
-1.810952274087e-04 -3.284061138223e-05 0.0 
-3.284061138223e-05 1.222270948259e-03 0.0 
0.0 0.0 -1.815025845867e-04 
-1.775177136140e-04 -3.096279402686e-05 0.0 
-3.096279402686e-05 1.194150968252e-03 0.0 
0.0 0.0 -1.772606145979e-04 
-1.518616300347e-04 -3.096354740043e-05 0.0 
-3.096354740043e-05 1.015068895178e-03 0.0 
0.0 0.0 -1.517726872707e-04 
-1.496823891535e-04 -2.920446452269e-05 0.0 
-2.920446452269e-05 1.003862088151e-03 0.0 
0.0 0.0 -1.497848398488e-04 
-5.427687096238e-05 2.854055310501e-05 0.0 
2.854055310501e-05 3.273443379495e-04 0.0 
0.0 0.0 -5.466547164956e-05 
-5.095033440368e-05 2.883575061878e-05 0.0 
2.883575061878e-05 3.031424762161e-04 0.0 
0.0 0.0 -5.122137633346e-05 
-3.072034194903e-05 -3.506956867742e-05 0.0 
-3.506956867742e-05 1.557986335542e-04 0.0 
0.0 0.0 -2.814555096794e-05 
-1.579898709992e-05 2.384950188939e-07 0.0 
2.384950188939e-07 9.239980657952e-05 0.0 
0.0 0.0 -1.548055260559e-05 
-1.719981887166e-04 -3.054801319503e-05 0.0 
-3.054801319503e-05 1.160032239923e-03 0.0 
0.0 0.0 -1.726497055680e-04 
-1.730057153277e-04 2.894349992059e-05 0.0 
2.894349992059e-05 1.155971227885e-03 0.0 
0.0 0.0 -1.735259579760e-04 
-1.534650184937e-05 9.500651036844e-07 0.0 
9.500651036844e-07 8.883806811954e-05 0.0 
0.0 0.0 -1.543927480913e-05 
-1.729354271187e-04 -2.918916139558e-05 0.0 
-2.918916139558e-05 1.170988397774e-03 0.0 
0.0 0.0 -1.740447999656e-04 
-1.236089081148e-04 3.200079916068e-05 0.0 
3.200079916068e-05 8.273931967603e-04 0.0 
0.0 0.0 -1.265519798902e-04 
-1.594739007149e-04 -3.000529878065e-05 0.0 
-3.000529878065e-05 1.075639781327e-03 0.0 
0.0 0.0 -1.601216174199e-04 
-1.636627678593e-04 2.889886741851e-05 0.0 
2.889886741851e-05 1.086851557310e-03 0.0 
0.0 0.0 -1.635645035532e-04 
-7.625528765098e-05 2.781792169367e-05 0.0 
2.781792169367e-05 4.777485640918e-04 0.0 
0.0 0.0 -7.635943377870e-05 
-1.632628531148e-04 -2.978415075944e-05 0.0 
-2.978415075944e-05 1.096266397172e-03 0.0 
0.0 0.0 -1.631933750172e-04 
-1.207910536096e-04 -4.061404171323e-05 0.0 
-4.061404171323e-05 8.019844783726e-04 0.0 
0.0 0.0 -1.215026445147e-04 
-1.504315644849e-04 -2.965320847345e-05 0.0 
-2.965320847345e-05 1.005966507733e-03 0.0 
0.0 0.0 -1.500583224091e-04 
-1.846754410923e-04 3.352091310646e-05 0.0 
3.352091310646e-05 1.245792346023e-03 0.0 
0.0 0.0 -1.864447358774e-04 
-5.279032525833e-05 2.208619701697e-05 0.0 
2.208619701697e-05 3.133772429488e-04 0.0 
0.0 0.0 -5.313656330857e-05 
-1.831953493923e-04 -2.511536867923e-05 0.0 
-2.511536867923e-05 1.231406037521e-03 0.0 
0.0 0.0 -1.822568313532e-04 
-1.571776203955e-04 -2.822373229928e-05 0.0 
-2.822373229928e-05 1.054015413805e-03 0.0 
0.0 0.0 -1.572433088830e-04 
-5.834406746481e-05 3.055754480025e-05 0.0 
3.055754480025e-05 3.570231696704e-04 0.0 
0.0 0.0 -5.895916886618e-05 
-6.008933693805e-05 -2.693292101219e-05 0.0 
-2.693292101219e-05 3.827519316289e-04 0.0 
0.0 0.0 -6.052350288525e-05 
-1.184340009129e-04 2.989577006112e-05 0.0 
2.989577006112e-05 7.732438321287e-04 0.0 
0.0 0.0 -1.186440953039e-04 
-1.421755537841e-04 3.042033410873e-05 0.0 
3.042033410873e-05 9.320324598368e-04 0.0 
0.0 0.0 -1.411471141782e-04 
-8.083756678408e-05 2.897464216654e-05 0.0 
2.897464216654e-05 5.134881601291e-04 0.0 
0.0 0.0 -8.144657762318e-05 
-1.627359267385e-04 -3.016848544890e-05 0.0 
-3.016848544890e-05 1.091242501789e-03 0.0 
0.0 0.0 -1.627679727590e-04 
-1.463730196707e-04 -3.358422439378e-05 0.0 
-3.358422439378e-05 9.789488013624e-04 0.0 
0.0 0.0 -1.472519143444e-04 
-1.152261228612e-04 2.820263711739e-05 0.0 
2.820263711739e-05 7.517075314357e-04 0.0 
0.0 0.0 -1.155139551463e-04 
-1.539721025279e-04 -2.767350944115e-05 0.0 
-2.767350944115e-05 1.026348259349e-03 0.0 
0.0 0.0 -1.532636563680e-04 
-1.586940631686e-04 -2.997071389939e-05 0.0 
-2.997071389939e-05 1.067020467702e-03 0.0 
0.0 0.0 -1.588045401937e-04 
-1.586913358411e-04 3.263624713145e-05 0.0 
3.263624713145e-05 1.044672031080e-03 0.0 
0.0 0.0 -1.576021588438e-04 
-4.550621427776e-05 -2.757364409112e-05 0.0 
-2.757364409112e-05 2.786110438531e-04 0.0 
0.0 0.0 -4.588123838153e-05 
-1.095812830794e-04 2.804439789498e-05 0.0 
2.804439789498e-05 7.132223363853e-04 0.0 
0.0 0.0 -1.099287363951e-04 
-1.704275424327e-04 3.124314915643e-05 0.0 
3.124314915643e-05 1.141631777300e-03 0.0 
0.0 0.0 -1.711692687607e-04 
-1.617652388930e-04 -2.976223953276e-05 0.0 
-2.976223953276e-05 1.085248624266e-03 0.0 
0.0 0.0 -1.617298285672e-04 
-9.932779323652e-05 3.247070041484e-05 0.0 
3.247070041484e-05 6.407303244551e-04 0.0 
0.0 0.0 -1.000025319772e-04 
-1.372362599773e-04 -2.929140934786e-05 0.0 
-2.929140934786e-05 9.170515288159e-04 0.0 
0.0 0.0 -1.372955424611e-04 
-1.781532306591e-04 -3.038825115168e-05 0.0 
-3.038825115168e-05 1.202531523701e-03 0.0 
0.0 0.0 -1.781379491294e-04 
-1.507990336472e-04 2.853112124702e-05 0.0 
2.853112124702e-05 1.007077831849e-03 0.0 
0.0 0.0 -1.520953659658e-04 
-2.863924773083e-05 -3.201515123380e-05 0.0 
-3.201515123380e-05 1.478580457183e-04 0.0 
0.0 0.0 -2.710093308172e-05 
-2.955220796048e-05 -3.089794713249e-05 0.0 
-3.089794713249e-05 1.503888673604e-04 0.0 
0.0 0.0 -2.753304043464e-05 
-5.273989345688e-05 -2.717936029267e-05 0.0 
-2.717936029267e-05 3.233117972350e-04 0.0 
0.0 0.0 -5.201063495363e-05 
-1.693284171481e-04 3.002349955065e-05 0.0 
3.002349955065e-05 1.126502264070e-03 0.0 
0.0 0.0 -1.691756543757e-04 
-1.472485094623e-04 2.900717882423e-05 0.0 
2.900717882423e-05 9.697797839987e-04 0.0 
0.0 0.0 -1.466250473148e-04 
-1.255735830660e-04 -3.222245594843e-05 0.0 
-3.222245594843e-05 8.565507458900e-04 0.0 
0.0 0.0 -1.276957716749e-04 
-1.309605655324e-04 2.844392373699e-05 0.0 
2.844392373699e-05 8.631762486065e-04 0.0 
0.0 0.0 -1.311842221922e-04 
-1.705994579248e-04 -2.912195010466e-05 0.0 
-2.912195010466e-05 1.150350461823e-03 0.0 
0.0 0.0 -1.708795005752e-04 
-1.197229653638e-04 2.838848019244e-05 0.0 
2.838848019244e-05 7.818358523863e-04 0.0 
0.0 0.0 -1.198307167265e-04 
-1.587419479578e-04 2.931310418594e-05 0.0 
2.931310418594e-05 1.056312831607e-03 0.0 
0.0 0.0 -1.592449238259e-04 
-5.334541196780e-05 -2.737759313696e-05 0.0 
-2.737759313696e-05 3.380073693947e-04 0.0 
0.0 0.0 -5.422683465997e-05 
-1.820085836177e-04 3.596926237720e-05 0.0 
3.596926237720e-05 1.220521251632e-03 0.0 
0.0 0.0 -1.817296696507e-04 
-1.149006963939e-04 -2.979806393901e-05 0.0 
-2.979806393901e-05 7.621150101384e-04 0.0 
0.0 0.0 -1.150969102169e-04 
-5.891651114318e-05 -2.911512363173e-05 0.0 
-2.911512363173e-05 3.703729731158e-04 0.0 
0.0 0.0 -5.833749487792e-05 
-1.097144826369e-04 -3.210843000057e-05 0.0 
-3.210843000057e-05 7.218042111898e-04 0.0 
0.0 0.0 -1.096669806773e-04 
-8.504854609334e-05 2.789969650457e-05 0.0 
2.789969650457e-05 5.434275787344e-04 0.0 
0.0 0.0 -8.575010502695e-05 
-6.662869610534e-05 -2.920394233023e-05 0.0 
-2.920394233023e-05 4.253303798385e-04 0.0 
0.0 0.0 -6.679150530213e-05 
-1.281203035701e-04 2.817302591064e-05 0.0 
2.817302591064e-05 8.398276961004e-04 0.0 
0.0 0.0 -1.284742647491e-04 
0.0 0.0 0.0 
0.0 0.0 0.0 
0.0 0.0 0.0 
0.0 0.0 0.0 
0.0 0.0 0.0 
0.0 0.0 0.0 
-1.445088964832e-04 -2.893688476098e-05 0.0 
-2.893688476098e-05 9.674073108634e-04 0.0 
0.0 0.0 -1.445400849015e-04 
-4.892423638284e-05 -2.632452238192e-05 0.0 
-2.632452238192e-05 3.096365629157e-04 0.0 
0.0 0.0 -5.004674077938e-05 
-1.457493822096e-04 -2.962474104526e-05 0.0 
-2.962474104526e-05 9.767716228798e-04 0.0 
0.0 0.0 -1.458658349781e-04 
-1.415183033580e-04 -2.921664079038e-05 0.0 
-2.921664079038e-05 9.471227879207e-04 0.0 
0.0 0.0 -1.415771022166e-04 
-9.224355795817e-05 2.937565561905e-05 0.0 
2.937565561905e-05 5.919004124542e-04 0.0 
0.0 0.0 -9.266636470267e-05 
-6.202111907479e-05 2.972814442546e-05 0.0 
2.972814442546e-05 3.814986374049e-04 0.0 
0.0 0.0 -6.243334508123e-05 
-1.705073254263e-04 -3.058386286971e-05 0.0 
-3.058386286971e-05 1.147565254188e-03 0.0 
0.0 0.0 -1.706579733040e-04 
-3.233825504350e-05 -1.324403429526e-05 0.0 
-1.324403429526e-05 1.436007537479e-04 0.0 
0.0 0.0 -3.071301381923e-05 
-9.032577727252e-05 2.603440625466e-05 0.0 
2.603440625466e-05 5.755517471348e-04 0.0 
0.0 0.0 -9.007223908940e-05 
-1.758201471036e-04 -2.496828995894e-05 0.0 
-2.496828995894e-05 1.183557369344e-03 0.0 
0.0 0.0 -1.763300484694e-04 
-4.234236352950e-05 2.833023666619e-05 0.0 
2.833023666619e-05 2.526301394403e-04 0.0 
0.0 0.0 -4.466356309917e-05 
-1.370406890181e-04 -2.882178052615e-05 0.0 
-2.882178052615e-05 9.084977336144e-04 0.0 
0.0 0.0 -1.363328868096e-04 
-1.251017907088e-04 -3.342170659080e-05 0.0 
-3.342170659080e-05 8.360831923250e-04 0.0 
0.0 0.0 -1.262442940543e-04 
-4.243995648314e-05 -2.885964126201e-05 0.0 
-2.885964126201e-05 2.574366796815e-04 0.0 
0.0 0.0 -4.263591946142e-05 
-1.739889600423e-04 -2.690839563986e-05 0.0 
-2.690839563986e-05 1.171323703451e-03 0.0 
0.0 0.0 -1.738083055154e-04 
-1.553384911707e-04 -2.978982874275e-05 0.0 
-2.978982874275e-05 1.040098894659e-03 0.0 
0.0 0.0 -1.552347842588e-04 
-5.039241409165e-05 2.679614467153e-05 0.0 
2.679614467153e-05 2.983848210045e-04 0.0 
0.0 0.0 -5.046983505462e-05 
-1.747728255798e-04 -2.774380167709e-05 0.0 
-2.774380167709e-05 1.177437247902e-03 0.0 
0.0 0.0 -1.749780669508e-04 
-1.757727651253e-04 2.551606084145e-05 0.0 
2.551606084145e-05 1.168074540028e-03 0.0 
0.0 0.0 -1.753502448874e-04 
-5.505726652839e-05 -3.093038002705e-05 0.0 
-3.093038002705e-05 3.465532391474e-04 0.0 
0.0 0.0 -5.552857102027e-05 
-7.317029843834e-05 -3.194987778490e-05 0.0 
-3.194987778490e-05 4.614269377597e-04 0.0 
0.0 0.0 -7.202002872087e-05 
-5.677279645057e-05 -2.927873741732e-05 0.0 
-2.927873741732e-05 3.560995133108e-04 0.0 
0.0 0.0 -5.686660089389e-05 
-1.535151853389e-04 -2.933036748660e-05 0.0 
-2.933036748660e-05 1.036192859014e-03 0.0 
0.0 0.0 -1.544885262514e-04 
-1.242530601195e-04 2.861329611066e-05 0.0 
2.861329611066e-05 8.120316343009e-04 0.0 
0.0 0.0 -1.241455235793e-04 
-1.762597939278e-04 2.757012001528e-05 0.0 
2.757012001528e-05 1.169740478878e-03 0.0 
0.0 0.0 -1.754294197466e-04 
-1.711850229745e-04 2.864038460658e-05 0.0 
2.864038460658e-05 1.139237277346e-03 0.0 
0.0 0.0 -1.710046063662e-04 
-1.497953027623e-04 -2.952090845357e-05 0.0 
-2.952090845357e-05 1.006551656477e-03 0.0 
0.0 0.0 -1.501751650533e-04 
-1.503962620125e-04 2.908649725408e-05 0.0 
2.908649725408e-05 9.959224082837e-04 0.0 
0.0 0.0 -1.506140208444e-04 
-4.755962799573e-05 2.961725835591e-05 0.0 
2.961725835591e-05 2.764290125414e-04 0.0 
0.0 0.0 -4.738039998630e-05 
-1.544053010064e-04 2.921080048960e-05 0.0 
2.921080048960e-05 1.025561320549e-03 0.0 
0.0 0.0 -1.549280912548e-04 
-1.557486119605e-04 2.953656624643e-05 0.0 
2.953656624643e-05 1.031918401575e-03 0.0 
0.0 0.0 -1.555717122721e-04 
-1.233043498576e-04 -2.852184502998e-05 0.0 
-2.852184502998e-05 8.222615261922e-04 0.0 
0.0 0.0 -1.237306916726e-04 
-1.467661945651e-04 -2.993950527874e-05 0.0 
-2.993950527874e-05 9.778837446955e-04 0.0 
0.0 0.0 -1.462911275235e-04 
-1.606564974618e-04 -3.021309399430e-05 0.0 
-3.021309399430e-05 1.078198516753e-03 0.0 
0.0 0.0 -1.607123627396e-04 
-1.117498861518e-04 2.850262572474e-05 0.0 
2.850262572474e-05 7.245894762642e-04 0.0 
0.0 0.0 -1.115305788895e-04 
-1.668451985095e-04 2.929977478704e-05 0.0 
2.929977478704e-05 1.108305524184e-03 0.0 
0.0 0.0 -1.665387401245e-04 
-1.057225299962e-04 3.155313044250e-05 0.0 
3.155313044250e-05 6.826770249726e-04 0.0 
0.0 0.0 -1.044775758143e-04 
-1.196746585436e-04 -2.994940432812e-05 0.0 
-2.994940432812e-05 7.923200024953e-04 0.0 
0.0 0.0 -1.194095964715e-04 
-8.002674295402e-05 3.358846946639e-05 0.0 
3.358846946639e-05 5.079680145232e-04 0.0 
0.0 0.0 -8.013437995356e-05 
-8.330364669841e-05 -2.724402051282e-05 0.0 
-2.724402051282e-05 5.442521817240e-04 0.0 
0.0 0.0 -8.372375584921e-05 
-1.515465133375e-04 2.950843049766e-05 0.0 
2.950843049766e-05 1.000906494757e-03 0.0 
0.0 0.0 -1.511009726023e-04 
-1.144286686682e-04 -2.867408820424e-05 0.0 
-2.867408820424e-05 7.585750249113e-04 0.0 
0.0 0.0 -1.145674989690e-04 
-6.084802831260e-05 -2.991902315111e-05 0.0 
-2.991902315111e-05 3.860715331104e-04 0.0 
0.0 0.0 -6.116241410045e-05 
-3.353257843682e-05 -2.498074177198e-05 0.0 
-2.498074177198e-05 1.896944408225e-04 0.0 
0.0 0.0 -3.278510925449e-05 
-1.508054349256e-04 -2.953924267332e-05 0.0 
-2.953924267332e-05 1.009022901988e-03 0.0 
0.0 0.0 -1.507672500721e-04 
-6.144560576959e-05 2.946678310881e-05 0.0 
2.946678310881e-05 3.752423857179e-04 0.0 
0.0 0.0 -6.160741095528e-05 
-1.795193782850e-04 3.015966066455e-05 0.0 
3.015966066455e-05 1.220916437867e-03 0.0 
0.0 0.0 -1.828075300492e-04 
-1.564210717973e-04 2.928181705796e-05 0.0 
2.928181705796e-05 1.038697099430e-03 0.0 
0.0 0.0 -1.565825172896e-04 
-1.601803915316e-04 2.879046078541e-05 0.0 
2.879046078541e-05 1.065098279090e-03 0.0 
0.0 0.0 -1.605560195386e-04 
-1.924510169718e-04 -3.681008615861e-06 0.0 
-3.681008615861e-06 1.266195614385e-03 0.0 
0.0 0.0 -1.927094427628e-04 
-9.917312679716e-05 -3.248065919378e-05 0.0 
-3.248065919378e-05 6.537270345769e-04 0.0 
0.0 0.0 -9.956065683388e-05 
-5.578848237072e-05 2.919143814272e-05 0.0 
2.919143814272e-05 3.356753976095e-04 0.0 
0.0 0.0 -5.597427817213e-05 
-3.764707681470e-05 3.152158318827e-05 0.0 
3.152158318827e-05 2.055269805242e-04 0.0 
0.0 0.0 -3.744316153082e-05 
-1.513908916278e-04 -2.965358922743e-05 0.0 
-2.965358922743e-05 1.015985434205e-03 0.0 
0.0 0.0 -1.514863114221e-04 
-1.425433722621e-04 3.012022841548e-05 0.0 
3.012022841548e-05 9.394937491690e-04 0.0 
0.0 0.0 -1.421023406183e-04 
-2.681800511095e-05 2.581926760662e-05 0.0 
2.581926760662e-05 1.385235032261e-04 0.0 
0.0 0.0 -2.788272662613e-05 
-7.959731755198e-05 -2.970357934053e-05 0.0 
-2.970357934053e-05 5.241419312225e-04 0.0 
0.0 0.0 -8.100711145360e-05 
-4.597324572621e-05 -2.624539862290e-05 0.0 
-2.624539862290e-05 3.001894932538e-04 0.0 
0.0 0.0 -4.869105516194e-05 
-1.408940546525e-04 -2.794056746742e-05 0.0 
-2.794056746742e-05 9.400214273018e-04 0.0 
0.0 0.0 -1.408175133641e-04 
-8.220239972126e-05 -3.150539897154e-05 0.0 
-3.150539897154e-05 5.540054204137e-04 0.0 
0.0 0.0 -8.531818138572e-05 
-1.420072539078e-04 2.886098902268e-05 0.0 
2.886098902268e-05 9.363360353424e-04 0.0 
0.0 0.0 -1.420190347897e-04 
-8.142682941929e-05 -3.127687653374e-05 0.0 
-3.127687653374e-05 5.123505803199e-04 0.0 
0.0 0.0 -8.006333120906e-05 
-1.676020446456e-04 -3.106665135098e-05 0.0 
-3.106665135098e-05 1.123875757488e-03 0.0 
0.0 0.0 -1.672214290798e-04 
-7.117572739314e-05 2.988293947474e-05 0.0 
2.988293947474e-05 4.447820599446e-04 0.0 
0.0 0.0 -7.152995986871e-05 
-1.528626195223e-04 -2.956851905674e-05 0.0 
-2.956851905674e-05 1.025224946446e-03 0.0 
0.0 0.0 -1.527886262531e-04 
-5.059375724921e-05 -2.868524116335e-05 0.0 
-2.868524116335e-05 3.156970290875e-04 0.0 
0.0 0.0 -5.064650353833e-05 
-1.471629417592e-04 -2.959313709753e-05 0.0 
-2.959313709753e-05 9.860061145689e-04 0.0 
0.0 0.0 -1.471833001180e-04 
-1.144539418112e-04 -2.473861065929e-05 0.0 
-2.473861065929e-05 7.560825404925e-04 0.0 
0.0 0.0 -1.140633649831e-04 
-1.560905633689e-04 2.900023350889e-05 0.0 
2.900023350889e-05 1.035339225371e-03 0.0 
0.0 0.0 -1.562332567718e-04 
-8.041016399686e-05 2.814724334195e-05 0.0 
2.814724334195e-05 5.070504478833e-04 0.0 
0.0 0.0 -8.025424390503e-05 
-4.885024697967e-05 3.157288993858e-05 0.0 
3.157288993858e-05 2.863708627365e-04 0.0 
0.0 0.0 -4.915965252508e-05 
-1.306396509784e-04 -2.896286188210e-05 0.0 
-2.896286188210e-05 8.760759259617e-04 0.0 
0.0 0.0 -1.318090263425e-04 
-1.421840376928e-04 -2.883026291404e-05 0.0 
-2.883026291404e-05 9.494244979280e-04 0.0 
0.0 0.0 -1.419644564515e-04 
-1.018318441446e-04 2.874180221663e-05 0.0 
2.874180221663e-05 6.553763140814e-04 0.0 
0.0 0.0 -1.016412246321e-04 
-1.420263861118e-04 -3.127951009604e-05 0.0 
-3.127951009604e-05 9.447561927313e-04 0.0 
0.0 0.0 -1.417981522837e-04 
-5.634120637729e-05 -2.901059335072e-05 0.0 
-2.901059335072e-05 3.528621573190e-04 0.0 
0.0 0.0 -5.638371198943e-05 
-1.449671090102e-04 2.903465807275e-05 0.0 
2.903465807275e-05 9.569114950414e-04 0.0 
0.0 0.0 -1.446420687869e-04 
-4.539864356175e-05 -2.892446416447e-05 0.0 
-2.892446416447e-05 2.698402511523e-04 0.0 
0.0 0.0 -4.421511183446e-05 
-1.729769140722e-04 -3.077324556460e-05 0.0 
-3.077324556460e-05 1.164178924141e-03 0.0 
0.0 0.0 -1.725604168134e-04 
-1.475790650913e-04 -2.860800824990e-05 0.0 
-2.860800824990e-05 9.878754875081e-04 0.0 
0.0 0.0 -1.475206686141e-04 
-1.559172333653e-04 -2.909982133967e-05 0.0 
-2.909982133967e-05 1.044176401684e-03 0.0 
0.0 0.0 -1.555576518016e-04 
-1.814415509393e-04 -3.096082582331e-05 0.0 
-3.096082582331e-05 1.219536896500e-03 0.0 
0.0 0.0 -1.806695418618e-04 
-1.243391768637e-04 -2.906810919430e-05 0.0 
-2.906810919430e-05 8.271957787415e-04 0.0 
0.0 0.0 -1.244215412621e-04 
-4.664731672080e-05 2.860386537301e-05 0.0 
2.860386537301e-05 2.677194554706e-04 0.0 
0.0 0.0 -4.622233884158e-05 
-1.385662832492e-04 -2.918174486768e-05 0.0 
-2.918174486768e-05 9.260656173097e-04 0.0 
0.0 0.0 -1.385923280275e-04 
-1.786563386237e-04 3.101548389749e-05 0.0 
3.101548389749e-05 1.192786428697e-03 0.0 
0.0 0.0 -1.784944650888e-04 
-7.162593897649e-05 -2.768839620490e-05 0.0 
-2.768839620490e-05 4.607586366936e-04 0.0 
0.0 0.0 -7.179147874927e-05 
-1.555062997913e-04 -2.993363634807e-05 0.0 
-2.993363634807e-05 1.045876444410e-03 0.0 
0.0 0.0 -1.558013491646e-04 
-1.563360137049e-04 -3.042238300922e-05 0.0 
-3.042238300922e-05 1.046916559821e-03 0.0 
0.0 0.0 -1.562447224125e-04 
-5.757013598642e-05 2.991181572022e-05 0.0 
2.991181572022e-05 3.517212459558e-04 0.0 
0.0 0.0 -5.821047451129e-05 
-1.428729262720e-04 -2.942561466243e-05 0.0 
-2.942561466243e-05 9.560791547854e-04 0.0 
0.0 0.0 -1.428864875989e-04 
-1.287965022508e-04 -2.896617927485e-05 0.0 
-2.896617927485e-05 8.622522049021e-04 0.0 
0.0 0.0 -1.299469088572e-04 
-6.374853467835e-05 -2.810218119480e-05 0.0 
-2.810218119480e-05 4.066202706617e-04 0.0 
0.0 0.0 -6.420979177598e-05 
-7.595105816060e-05 -2.936393149418e-05 0.0 
-2.936393149418e-05 4.942830544211e-04 0.0 
0.0 0.0 -7.670872189436e-05 
-1.201712666697e-04 -2.803941660002e-05 0.0 
-2.803941660002e-05 7.961944137223e-04 0.0 
0.0 0.0 -1.200650238334e-04 
-1.519360189963e-04 2.891732000513e-05 0.0 
2.891732000513e-05 1.005387589283e-03 0.0 
0.0 0.0 -1.519214610183e-04 
-9.356553445047e-05 -2.682931258762e-05 0.0 
-2.682931258762e-05 6.080636784229e-04 0.0 
0.0 0.0 -9.302852286394e-05 
-1.148225546297e-04 -2.766542218562e-05 0.0 
-2.766542218562e-05 7.592972424786e-04 0.0 
0.0 0.0 -1.147482613702e-04 
-1.503198881368e-04 2.949228603565e-05 0.0 
2.949228603565e-05 9.943051761167e-04 0.0 
0.0 0.0 -1.501005480629e-04 
-1.374005660342e-04 3.157606201505e-05 0.0 
3.157606201505e-05 9.005540063851e-04 0.0 
0.0 0.0 -1.366500051239e-04 
-1.347749466574e-04 2.885807283713e-05 0.0 
2.885807283713e-05 8.878066807984e-04 0.0 
0.0 0.0 -1.347600488312e-04 
-1.145362197550e-04 2.550352213040e-05 0.0 
2.550352213040e-05 7.456789542705e-04 0.0 
0.0 0.0 -1.144140342440e-04 
-1.695537970541e-04 -2.847502421030e-05 0.0 
-2.847502421030e-05 1.141434530816e-03 0.0 
0.0 0.0 -1.695946584253e-04 
-1.342454359541e-04 -2.916302751234e-05 0.0 
-2.916302751234e-05 8.959753783056e-04 0.0 
0.0 0.0 -1.342994322642e-04 
-1.322842234433e-04 -2.713149803653e-05 0.0 
-2.713149803653e-05 8.716283599231e-04 0.0 
0.0 0.0 -1.308078780678e-04 
-1.770483125758e-04 -3.816029544209e-05 0.0 
-3.816029544209e-05 1.206702644282e-03 0.0 
0.0 0.0 -1.790376217081e-04 
-1.611476114444e-04 -3.043480837471e-05 0.0 
-3.043480837471e-05 1.081441463167e-03 0.0 
0.0 0.0 -1.610150566254e-04 
-1.476770815163e-04 2.899987339716e-05 0.0 
2.899987339716e-05 9.753794939162e-04 0.0 
0.0 0.0 -1.476201541636e-04 
-1.611330782201e-04 2.905567155013e-05 0.0 
2.905567155013e-05 1.069983027336e-03 0.0 
0.0 0.0 -1.610516503497e-04 
-8.740593351110e-05 -2.912313751195e-05 0.0 
-2.912313751195e-05 5.726625862703e-04 0.0 
0.0 0.0 -8.793939796372e-05 
-8.171492670432e-05 -2.932902119484e-05 0.0 
-2.932902119484e-05 5.334328304052e-04 0.0 
0.0 0.0 -8.232547559154e-05 
-4.800447364230e-05 -3.012015532788e-05 0.0 
-3.012015532788e-05 2.869100395093e-04 0.0 
0.0 0.0 -4.696026287600e-05 
-1.441554214945e-04 -2.906909676709e-05 0.0 
-2.906909676709e-05 9.649388349351e-04 0.0 
0.0 0.0 -1.441889713514e-04 
-8.596373130116e-05 -2.989926546104e-05 0.0 
-2.989926546104e-05 5.634483412629e-04 0.0 
0.0 0.0 -8.662504503560e-05 
-1.451435112077e-04 -2.967645824646e-05 0.0 
-2.967645824646e-05 9.706064754812e-04 0.0 
0.0 0.0 -1.452980301833e-04 
-1.396166376490e-04 -3.014351176356e-05 0.0 
-3.014351176356e-05 9.327092269117e-04 0.0 
0.0 0.0 -1.398369520768e-04 
-1.154194635136e-04 -2.909513876125e-05 0.0 
-2.909513876125e-05 7.637657077962e-04 0.0 
0.0 0.0 -1.153554527486e-04 
-7.239252784308e-05 2.950013499781e-05 0.0 
2.950013499781e-05 4.534037638191e-04 0.0 
0.0 0.0 -7.290299529228e-05 
-7.749228313482e-05 2.843063642712e-05 0.0 
2.843063642712e-05 4.849158394470e-04 0.0 
0.0 0.0 -7.722881688633e-05 
-7.663260260599e-05 2.940565300322e-05 0.0 
2.940565300322e-05 4.835296870814e-04 0.0 
0.0 0.0 -7.715173463647e-05 
-8.222724475914e-05 2.943935483783e-05 0.0 
2.943935483783e-05 5.226854242882e-04 0.0 
0.0 0.0 -8.276944949314e-05 
-5.179916544049e-05 2.954513306229e-05 0.0 
2.954513306229e-05 3.061348363473e-04 0.0 
0.0 0.0 -5.170396853346e-05 
-1.651578227306e-04 -2.992587384468e-05 0.0 
-2.992587384468e-05 1.111733425696e-03 0.0 
0.0 0.0 -1.652773843454e-04 
-9.948855107052e-05 2.885367954846e-05 0.0 
2.885367954846e-05 6.405116978971e-04 0.0 
0.0 0.0 -9.964436741213e-05 
-1.662477458002e-04 -3.047676524263e-05 0.0 
-3.047676524263e-05 1.116582984939e-03 0.0 
0.0 0.0 -1.661983567841e-04 
-1.051663505476e-04 2.891924803496e-05 0.0 
2.891924803496e-05 6.798882607135e-04 0.0 
0.0 0.0 -1.051955911267e-04 
-1.389859752123e-04 2.935926346480e-05 0.0 
2.935926346480e-05 9.155140148814e-04 0.0 
0.0 0.0 -1.390270654409e-04 
-1.191970428493e-04 2.933621105808e-05 0.0 
2.933621105808e-05 7.778286910325e-04 0.0 
0.0 0.0 -1.192747742027e-04 
-1.135913502195e-04 -2.809027510556e-05 0.0 
-2.809027510556e-05 7.506742469309e-04 0.0 
0.0 0.0 -1.135115339107e-04 
-5.106044890974e-05 -2.876916180737e-05 0.0 
-2.876916180737e-05 3.172111510085e-04 0.0 
0.0 0.0 -5.125664266653e-05 
-1.752549930891e-04 2.732480278546e-05 0.0 
2.732480278546e-05 1.160084193771e-03 0.0 
0.0 0.0 -1.742537888328e-04 
-1.812425183446e-04 -3.207933204969e-05 0.0 
-3.207933204969e-05 1.217777268391e-03 0.0 
0.0 0.0 -1.798074479024e-04 
-1.447184212035e-04 2.760935291747e-05 0.0 
2.760935291747e-05 9.561038377489e-04 0.0 
0.0 0.0 -1.447555322295e-04 
-8.799170026550e-05 2.995591967052e-05 0.0 
2.995591967052e-05 5.618551981543e-04 0.0 
0.0 0.0 -8.838578500301e-05 
-1.291031073422e-04 2.928905617391e-05 0.0 
2.928905617391e-05 8.466471064723e-04 0.0 
0.0 0.0 -1.291430278065e-04 
-1.459743152275e-04 3.063361272201e-05 0.0 
3.063361272201e-05 9.624952180302e-04 0.0 
0.0 0.0 -1.456278041792e-04 
-9.171757827104e-05 -2.955677248983e-05 0.0 
-2.955677248983e-05 6.024985060915e-04 0.0 
0.0 0.0 -9.223187090241e-05 
-9.603230277326e-05 -2.698956011667e-05 0.0 
-2.698956011667e-05 6.292701278524e-04 0.0 
0.0 0.0 -9.591352384746e-05 
-7.135185944171e-05 -2.955414223554e-05 0.0 
-2.955414223554e-05 4.555824851191e-04 0.0 
0.0 0.0 -7.108646760088e-05 
-6.173474433371e-05 -2.821557394065e-05 0.0 
-2.821557394065e-05 3.922513376835e-04 0.0 
0.0 0.0 -6.198456146935e-05 
-9.316424430426e-05 -2.882780269440e-05 0.0 
-2.882780269440e-05 6.119471839096e-04 0.0 
0.0 0.0 -9.355109297069e-05 
-6.583505479960e-05 2.848905537375e-05 0.0 
2.848905537375e-05 4.054485477537e-04 0.0 
0.0 0.0 -6.590301617946e-05 
-5.935575914896e-05 -3.007558356553e-05 0.0 
-3.007558356553e-05 3.768942854085e-04 0.0 
0.0 0.0 -5.983332410254e-05 
-1.186940583282e-04 -2.896555378225e-05 0.0 
-2.896555378225e-05 7.883535485114e-04 0.0 
0.0 0.0 -1.188421469351e-04 
-1.433278607698e-04 2.930912982368e-05 0.0 
2.930912982368e-05 9.454702771552e-04 0.0 
0.0 0.0 -1.433226991522e-04 
-1.697903046334e-04 2.624054691426e-05 0.0 
2.624054691426e-05 1.127471310275e-03 0.0 
0.0 0.0 -1.692916167909e-04 
-1.151638097456e-05 7.698944133971e-06 0.0 
7.698944133971e-06 4.425408472007e-05 0.0 
0.0 0.0 -7.213325994108e-06 
-1.023191081859e-04 2.827729942445e-05 0.0 
2.827729942445e-05 6.591938883861e-04 0.0 
0.0 0.0 -1.022830222654e-04 
-1.009919753862e-04 2.844629819877e-05 0.0 
2.844629819877e-05 6.501505763727e-04 0.0 
0.0 0.0 -1.009864671718e-04 
-9.380039017869e-05 2.950262979894e-05 0.0 
2.950262979894e-05 6.011532312502e-04 0.0 
0.0 0.0 -9.402143779290e-05 
-1.401352914634e-04 2.989136649985e-05 0.0 
2.989136649985e-05 9.247108301771e-04 0.0 
0.0 0.0 -1.401624631175e-04 
-1.092974960508e-04 2.941276833440e-05 0.0 
2.941276833440e-05 7.090642486070e-04 0.0 
0.0 0.0 -1.094316366672e-04 
-7.543451708232e-05 3.049036373989e-05 0.0 
3.049036373989e-05 4.754198894243e-04 0.0 
0.0 0.0 -7.582576345695e-05 
-9.891173193058e-05 -2.816068551534e-05 0.0 
-2.816068551534e-05 6.514539666403e-04 0.0 
0.0 0.0 -9.917482013514e-05 
-1.630278650561e-04 2.958590404027e-05 0.0 
2.958590404027e-05 1.077076320853e-03 0.0 
0.0 0.0 -1.620679414655e-04 
-7.702359286569e-05 -2.963111287796e-05 0.0 
-2.963111287796e-05 4.862675717220e-04 0.0 
0.0 0.0 -7.538495559814e-05 
-3.103148260616e-05 2.671216949097e-05 0.0 
2.671216949097e-05 1.654737900210e-04 0.0 
0.0 0.0 -3.198827131509e-05 
-4.232169889993e-05 2.776421737267e-05 0.0 
2.776421737267e-05 2.393069009664e-04 0.0 
0.0 0.0 -4.176863060322e-05 
-6.634744212772e-05 2.949925572575e-05 0.0 
2.949925572575e-05 4.106962890164e-04 0.0 
0.0 0.0 -6.666360735527e-05 
-7.816150117384e-05 2.918629348564e-05 0.0 
2.918629348564e-05 4.928270898341e-04 0.0 
0.0 0.0 -7.858957244827e-05 
-1.065476951188e-04 2.906412835157e-05 0.0 
2.906412835157e-05 6.891124057052e-04 0.0 
0.0 0.0 -1.064874080537e-04 
-1.046128651473e-04 -2.789283442515e-05 0.0 
-2.789283442515e-05 6.906263249349e-04 0.0 
0.0 0.0 -1.047611508630e-04 
-4.666634849019e-05 -3.250127183419e-05 0.0 
-3.250127183419e-05 2.826590938430e-04 0.0 
0.0 0.0 -4.639139346366e-05 
-4.422650169735e-05 -3.160442122719e-05 0.0 
-3.160442122719e-05 2.477476152980e-04 0.0 
0.0 0.0 -4.147803243573e-05 
-1.354421094691e-04 -3.477058406277e-05 0.0 
-3.477058406277e-05 8.849155839961e-04 0.0 
0.0 0.0 -1.332761831430e-04 
-6.529992034190e-05 -3.112094005781e-05 0.0 
-3.112094005781e-05 4.161966199991e-04 0.0 
0.0 0.0 -6.545963842888e-05 
-1.599173792757e-04 2.884984773938e-05 0.0 
2.884984773938e-05 1.062308732050e-03 0.0 
0.0 0.0 -1.601101668940e-04 
-1.640145792258e-04 2.789294437519e-05 0.0 
2.789294437519e-05 1.089847340667e-03 0.0 
0.0 0.0 -1.640071129216e-04 
-1.358364218526e-04 -2.864773194701e-05 0.0 
-2.864773194701e-05 9.015663085663e-04 0.0 
0.0 0.0 -1.352075507658e-04 
-1.691090522456e-04 2.845331053896e-05 0.0 
2.845331053896e-05 1.125515006597e-03 0.0 
0.0 0.0 -1.689126476464e-04 
-1.733194685301e-04 2.616049938131e-05 0.0 
2.616049938131e-05 1.162751062090e-03 0.0 
0.0 0.0 -1.746466296582e-04 
-1.113103175969e-04 -2.904492495481e-05 0.0 
-2.904492495481e-05 7.344679781971e-04 0.0 
0.0 0.0 -1.111327575513e-04 
-1.543419338426e-04 2.788856242459e-05 0.0 
2.788856242459e-05 1.022661884889e-03 0.0 
0.0 0.0 -1.543563508806e-04 
-5.167148472389e-05 -2.833543670219e-05 0.0 
-2.833543670219e-05 3.235982211277e-04 0.0 
0.0 0.0 -5.212100276158e-05 
-1.031213424207e-04 -2.889239140152e-05 0.0 
-2.889239140152e-05 6.806580574394e-04 0.0 
0.0 0.0 -1.034186014727e-04 
-1.034709279330e-04 2.786266615920e-05 0.0 
2.786266615920e-05 6.660582760632e-04 0.0 
0.0 0.0 -1.031952205665e-04 
-6.028919658758e-05 2.668092513971e-05 0.0 
2.668092513971e-05 3.649654199911e-04 0.0 
0.0 0.0 -5.961607156176e-05 
-4.213494566204e-05 -2.931849266110e-05 0.0 
-2.931849266110e-05 2.567319807664e-04 0.0 
0.0 0.0 -4.220635737303e-05 
-8.654776667845e-05 2.918952194239e-05 0.0 
2.918952194239e-05 5.528325958387e-04 0.0 
0.0 0.0 -8.706093026186e-05 
-1.004769780148e-04 -2.772227019028e-05 0.0 
-2.772227019028e-05 6.610823099679e-04 0.0 
0.0 0.0 -1.005514351764e-04 
-1.060430099672e-04 -2.796832696173e-05 0.0 
-2.796832696173e-05 6.996637265558e-04 0.0 
0.0 0.0 -1.060597130133e-04 
-7.058429708504e-05 2.696376381882e-05 0.0 
2.696376381882e-05 4.358412197202e-04 0.0 
0.0 0.0 -7.020228199149e-05 
-1.149702114763e-04 2.916861666016e-05 0.0 
2.916861666016e-05 7.482016199016e-04 0.0 
0.0 0.0 -1.149926572041e-04 
-1.018961975089e-04 -2.764432959957e-05 0.0 
-2.764432959957e-05 6.700658488310e-04 0.0 
0.0 0.0 -1.018518768314e-04 
-1.078880338181e-04 2.829261719461e-05 0.0 
2.829261719461e-05 6.977513239731e-04 0.0 
0.0 0.0 -1.077528216683e-04 
-7.751274952550e-05 -2.834816828620e-05 0.0 
-2.834816828620e-05 5.042136075216e-04 0.0 
0.0 0.0 -7.808165313150e-05 
-1.487528116968e-04 -2.959551626362e-05 0.0 
-2.959551626362e-05 9.968448808877e-04 0.0 
0.0 0.0 -1.488167264463e-04 
-1.501088830239e-04 -3.002822277470e-05 0.0 
-3.002822277470e-05 1.002368649967e-03 0.0 
0.0 0.0 -1.497700977071e-04 
-1.036611104552e-04 2.803937657742e-05 0.0 
2.803937657742e-05 6.681495958179e-04 0.0 
0.0 0.0 -1.035656927818e-04 
-1.696613133079e-04 2.895531178363e-05 0.0 
2.895531178363e-05 1.131067865055e-03 0.0 
0.0 0.0 -1.700243568296e-04 
-5.727268235776e-05 -2.821956991103e-05 0.0 
-2.821956991103e-05 3.625919856272e-04 0.0 
0.0 0.0 -5.774536142498e-05 
-1.807378797874e-04 3.083863400090e-05 0.0 
3.083863400090e-05 1.216171179677e-03 0.0 
0.0 0.0 -1.812757540428e-04 
-1.107278423169e-04 2.926924818457e-05 0.0 
2.926924818457e-05 7.182977638167e-04 0.0 
0.0 0.0 -1.107203250571e-04 
-1.769840871489e-04 3.489293866335e-05 0.0 
3.489293866335e-05 1.208578847919e-03 0.0 
0.0 0.0 -1.805188677947e-04 
-1.376232392385e-04 -2.850354822354e-05 0.0 
-2.850354822354e-05 9.154990550666e-04 0.0 
0.0 0.0 -1.371610485043e-04 
-5.639757509564e-05 2.971463148157e-05 0.0 
2.971463148157e-05 3.421275802933e-04 0.0 
0.0 0.0 -5.682853890605e-05 
-1.399417025807e-04 -2.902435300106e-05 0.0 
-2.902435300106e-05 9.305736500539e-04 0.0 
0.0 0.0 -1.393929574840e-04 
-1.722474544452e-04 2.867109208845e-05 0.0 
2.867109208845e-05 1.148502992599e-03 0.0 
0.0 0.0 -1.722554387731e-04 
-1.162793321609e-04 2.903309505420e-05 0.0 
2.903309505420e-05 7.572372561352e-04 0.0 
0.0 0.0 -1.162159973290e-04 
-8.454182586218e-05 -2.784090404248e-05 0.0 
-2.784090404248e-05 5.479081559787e-04 0.0 
0.0 0.0 -8.432093988479e-05 
-1.438863246759e-04 -2.930384340139e-05 0.0 
-2.930384340139e-05 9.596245582464e-04 0.0 
0.0 0.0 -1.435863591065e-04 
-1.111530589725e-04 2.833421624542e-05 0.0 
2.833421624542e-05 7.207793346527e-04 0.0 
0.0 0.0 -1.110366786716e-04 
-4.573862906079e-05 3.039490600873e-05 0.0 
3.039490600873e-05 2.711520722753e-04 0.0 
0.0 0.0 -4.684619297515e-05 
-1.870955320648e-04 3.081437672742e-05 0.0 
3.081437672742e-05 1.264311478356e-03 0.0 
0.0 0.0 -1.888615860838e-04 
-4.248482680505e-05 3.050161066116e-05 0.0 
3.050161066116e-05 2.352616891617e-04 0.0 
0.0 0.0 -4.121632266810e-05 
-1.771088727211e-04 -2.938926809476e-05 0.0 
-2.938926809476e-05 1.212909459550e-03 0.0 
0.0 0.0 -1.791639973893e-04 
-1.771566623871e-04 2.828554015672e-05 0.0 
2.828554015672e-05 1.177203819354e-03 0.0 
0.0 0.0 -1.763972732427e-04 
-1.529661344135e-04 -2.952014478129e-05 0.0 
-2.952014478129e-05 1.026629378024e-03 0.0 
0.0 0.0 -1.530775205951e-04 
-1.359594450574e-04 3.325053532527e-05 0.0 
3.325053532527e-05 8.922454278314e-04 0.0 
0.0 0.0 -1.356269418710e-04 
-1.644239763161e-04 -3.062030831265e-05 0.0 
-3.062030831265e-05 1.103176739090e-03 0.0 
0.0 0.0 -1.641343017522e-04 
-1.073732254289e-04 -2.774733318227e-05 0.0 
-2.774733318227e-05 7.082936325730e-04 0.0 
0.0 0.0 -1.073249441206e-04 
-1.251403265974e-04 -2.940532100017e-05 0.0 
-2.940532100017e-05 8.313761795825e-04 0.0 
0.0 0.0 -1.250629185325e-04 
-1.768873143391e-04 2.872670345058e-05 0.0 
2.872670345058e-05 1.193015524360e-03 0.0 
0.0 0.0 -1.787673453274e-04 
-1.533533607312e-04 2.921855117467e-05 0.0 
2.921855117467e-05 1.014614364332e-03 0.0 
0.0 0.0 -1.532196148344e-04 
-1.544705070620e-04 -2.993018470978e-05 0.0 
-2.993018470978e-05 1.033859279725e-03 0.0 
0.0 0.0 -1.542337544108e-04 
-1.470105554746e-04 3.050415116692e-05 0.0 
3.050415116692e-05 9.703822682050e-04 0.0 
0.0 0.0 -1.467116565689e-04 
-5.190467070807e-05 2.923657524478e-05 0.0 
2.923657524478e-05 3.125147726987e-04 0.0 
0.0 0.0 -5.258904166863e-05 
-1.585497388479e-04 -3.036107211364e-05 0.0 
-3.036107211364e-05 1.064785683487e-03 0.0 
0.0 0.0 -1.586792192556e-04 
-1.867823602022e-04 -4.423334107085e-07 0.0 
-4.423334107085e-07 1.306209639085e-03 0.0 
0.0 0.0 -1.902127661242e-04 
-1.799952498831e-04 3.276671323295e-05 0.0 
3.276671323295e-05 1.203252067028e-03 0.0 
0.0 0.0 -1.803293472919e-04 
-1.036283366723e-04 2.928971230122e-05 0.0 
2.928971230122e-05 6.701110471026e-04 0.0 
0.0 0.0 -1.038552253682e-04 
-1.348425674588e-04 -3.045731572340e-05 0.0 
-3.045731572340e-05 8.997616749557e-04 0.0 
0.0 0.0 -1.353016656203e-04 
-1.306027592527e-04 3.244558953540e-05 0.0 
3.244558953540e-05 8.557133569559e-04 0.0 
0.0 0.0 -1.301630146057e-04 
-1.102559799513e-04 -2.882778976320e-05 0.0 
-2.882778976320e-05 7.287644293276e-04 0.0 
0.0 0.0 -1.102912351658e-04 
-1.488807296024e-04 2.952972860655e-05 0.0 
2.952972860655e-05 9.845338823176e-04 0.0 
0.0 0.0 -1.489188890839e-04 
-1.543542798127e-04 2.941367575548e-05 0.0 
2.941367575548e-05 1.023344437634e-03 0.0 
0.0 0.0 -1.545169747944e-04 
-3.601998227787e-05 -3.147937655175e-05 0.0 
-3.147937655175e-05 2.167298522228e-04 0.0 
0.0 0.0 -3.699600978290e-05 
-6.801309851159e-05 2.873975774867e-05 0.0 
2.873975774867e-05 4.179957074076e-04 0.0 
0.0 0.0 -6.762408315678e-05 
-1.091497725492e-04 2.831094670187e-05 0.0 
2.831094670187e-05 7.067995318092e-04 0.0 
0.0 0.0 -1.090469065526e-04 
-1.032766425254e-04 -2.822190353465e-05 0.0 
-2.822190353465e-05 6.789187616226e-04 0.0 
0.0 0.0 -1.031335432607e-04 
-1.099107092343e-04 2.839546535684e-05 0.0 
2.839546535684e-05 7.120464211608e-04 0.0 
0.0 0.0 -1.098117726994e-04 
-1.811121707674e-04 -2.882441196002e-05 0.0 
-2.882441196002e-05 1.237667273714e-03 0.0 
0.0 0.0 -1.838140267123e-04 
-1.748866853698e-04 2.592400427167e-05 0.0 
2.592400427167e-05 1.162787881872e-03 0.0 
0.0 0.0 -1.744029230557e-04 
-1.761187774956e-04 -2.949711616705e-05 0.0 
-2.949711616705e-05 1.184397801600e-03 0.0 
0.0 0.0 -1.760448152485e-04 
-9.882657544989e-05 -2.718055687570e-05 0.0 
-2.718055687570e-05 6.452046498512e-04 0.0 
0.0 0.0 -9.834296651366e-05 
-1.624121206718e-04 2.836552699441e-05 0.0 
2.836552699441e-05 1.080211199209e-03 0.0 
0.0 0.0 -1.624070342850e-04 
-1.485275509050e-04 -2.918103576740e-05 0.0 
-2.918103576740e-05 9.950382173190e-04 0.0 
0.0 0.0 -1.484873542982e-04 
-1.805851059428e-04 3.002465538148e-05 0.0 
3.002465538148e-05 1.203046068310e-03 0.0 
0.0 0.0 -1.797622605636e-04 
-1.528376056470e-04 -3.044040189818e-05 0.0 
-3.044040189818e-05 1.026184810031e-03 0.0 
0.0 0.0 -1.532447004422e-04 
-1.087929439093e-04 -2.876357224537e-05 0.0 
-2.876357224537e-05 7.196828290104e-04 0.0 
0.0 0.0 -1.089952584493e-04 
-1.049428023921e-04 2.811224010391e-05 0.0 
2.811224010391e-05 6.773445023375e-04 0.0 
0.0 0.0 -1.048418778190e-04 
-1.594051931958e-04 2.879840167248e-05 0.0 
2.879840167248e-05 1.056615529052e-03 0.0 
0.0 0.0 -1.590166690394e-04 
-1.738854057278e-04 -3.150615969996e-05 0.0 
-3.150615969996e-05 1.172347359832e-03 0.0 
0.0 0.0 -1.740425842566e-04 
-1.602067260144e-04 2.962540646325e-05 0.0 
2.962540646325e-05 1.063407039079e-03 0.0 
0.0 0.0 -1.600263377024e-04 
-1.549984104106e-04 2.928819239640e-05 0.0 
2.928819239640e-05 1.025787824362e-03 0.0 
0.0 0.0 -1.545642443906e-04 
-1.691936656852e-04 3.051239000977e-05 0.0 
3.051239000977e-05 1.122993866756e-03 0.0 
0.0 0.0 -1.687134228720e-04 
-1.733516422302e-04 -2.975799224699e-05 0.0 
-2.975799224699e-05 1.180345126224e-03 0.0 
0.0 0.0 -1.751295320469e-04 
-1.641761333923e-04 2.964778985093e-05 0.0 
2.964778985093e-05 1.092162958901e-03 0.0 
0.0 0.0 -1.644209996092e-04 
-1.334029697755e-04 2.921704941968e-05 0.0 
2.921704941968e-05 8.764535109902e-04 0.0 
0.0 0.0 -1.334339325936e-04 
-9.629059373289e-05 2.489782199496e-05 0.0 
2.489782199496e-05 6.169410298163e-04 0.0 
0.0 0.0 -9.629846621400e-05 
-1.586938225999e-04 -2.873074405230e-05 0.0 
-2.873074405230e-05 1.064075480535e-03 0.0 
0.0 0.0 -1.585741496670e-04 
-1.515595690388e-04 2.887166217167e-05 0.0 
2.887166217167e-05 1.004996075128e-03 0.0 
0.0 0.0 -1.516193629955e-04 
-6.015828007311e-05 2.762481471313e-05 0.0 
2.762481471313e-05 3.663761052862e-04 0.0 
0.0 0.0 -6.027332919800e-05 
-1.086909470084e-04 -2.820919446967e-05 0.0 
-2.820919446967e-05 7.173514364266e-04 0.0 
0.0 0.0 -1.086183444390e-04 
-1.229754690729e-04 2.795896853918e-05 0.0 
2.795896853918e-05 8.030480005080e-04 0.0 
0.0 0.0 -1.229099206091e-04 
-1.348799327205e-04 -2.950552833220e-05 0.0 
-2.950552833220e-05 8.992538641476e-04 0.0 
0.0 0.0 -1.347984704188e-04 
-6.075364579538e-05 2.991920213964e-05 0.0 
2.991920213964e-05 3.704456528343e-04 0.0 
0.0 0.0 -6.085885447137e-05 
-1.045153483669e-04 -2.832422319633e-05 0.0 
-2.832422319633e-05 6.878595611022e-04 0.0 
0.0 0.0 -1.044304007945e-04 
-1.446479183094e-04 -2.971056222020e-05 0.0 
-2.971056222020e-05 9.673313026673e-04 0.0 
0.0 0.0 -1.445542801823e-04 
-1.100060346855e-04 2.737837681636e-05 0.0 
2.737837681636e-05 7.101421002689e-04 0.0 
0.0 0.0 -1.094113629060e-04 
-1.135560558010e-04 2.921951781404e-05 0.0 
2.921951781404e-05 7.388528165105e-04 0.0 
0.0 0.0 -1.136984934835e-04 
-1.423148992764e-04 -3.064755775960e-05 0.0 
-3.064755775960e-05 9.560334399626e-04 0.0 
0.0 0.0 -1.433495728088e-04 
-1.141564569450e-04 2.617777317916e-05 0.0 
2.617777317916e-05 7.567005103659e-04 0.0 
0.0 0.0 -1.145704449725e-04 
-2.757145428849e-05 3.124043686616e-05 0.0 
3.124043686616e-05 1.158691705071e-04 0.0 
0.0 0.0 -2.367971326705e-05 
-1.286436208275e-04 -2.914932669868e-05 0.0 
-2.914932669868e-05 8.571420336644e-04 0.0 
0.0 0.0 -1.287122655492e-04 
-1.576792209224e-04 2.858094066912e-05 0.0 
2.858094066912e-05 1.045870248437e-03 0.0 
0.0 0.0 -1.577753644542e-04 
-1.791334658592e-04 3.034271459186e-05 0.0 
3.034271459186e-05 1.201260178593e-03 0.0 
0.0 0.0 -1.795306929420e-04 
-1.201199461226e-04 2.829067472047e-05 0.0 
2.829067472047e-05 7.831094393938e-04 0.0 
0.0 0.0 -1.199963822083e-04 
-1.234760846803e-04 2.932006013550e-05 0.0 
2.932006013550e-05 8.076650151061e-04 0.0 
0.0 0.0 -1.235581517372e-04 
-1.448894787138e-04 -2.961840001921e-05 0.0 
-2.961840001921e-05 9.648117356658e-04 0.0 
0.0 0.0 -1.443143808439e-04 
-3.842228905377e-05 3.298025909580e-05 0.0 
3.298025909580e-05 1.877070748678e-04 0.0 
0.0 0.0 -3.370741825810e-05 
-1.534698621194e-04 2.830991160432e-05 0.0 
2.830991160432e-05 1.016299861510e-03 0.0 
0.0 0.0 -1.535042456599e-04 
-1.293327155133e-04 -2.926708160322e-05 0.0 
-2.926708160322e-05 8.610400331546e-04 0.0 
0.0 0.0 -1.292921254718e-04 
-1.147182049359e-04 -2.793616799804e-05 0.0 
-2.793616799804e-05 7.557812794768e-04 0.0 
0.0 0.0 -1.142359468334e-04 
-1.540623557645e-04 -2.883021402370e-05 0.0 
-2.883021402370e-05 1.033805831342e-03 0.0 
0.0 0.0 -1.540837914240e-04 
-5.903277897526e-05 -2.572226208233e-05 0.0 
-2.572226208233e-05 3.742033353159e-04 0.0 
0.0 0.0 -5.919629073606e-05 
-1.595117392718e-04 -2.911342610863e-05 0.0 
-2.911342610863e-05 1.072689065088e-03 0.0 
0.0 0.0 -1.596834805621e-04 
-1.756154530572e-04 2.998485745368e-05 0.0 
2.998485745368e-05 1.171075078384e-03 0.0 
0.0 0.0 -1.756318130281e-04 
-1.493681148336e-04 2.791229911131e-05 0.0 
2.791229911131e-05 9.866947003208e-04 0.0 
0.0 0.0 -1.492337925182e-04 
-1.600204318750e-04 -2.992073590521e-05 0.0 
-2.992073590521e-05 1.071726323190e-03 0.0 
0.0 0.0 -1.596862481900e-04 
-1.621340043399e-04 -3.014172433171e-05 0.0 
-3.014172433171e-05 1.091751763439e-03 0.0 
0.0 0.0 -1.624029330596e-04 
-1.746509001542e-04 -3.044303714749e-05 0.0 
-3.044303714749e-05 1.180873641495e-03 0.0 
0.0 0.0 -1.752053866267e-04 
-4.948712705896e-05 3.475475083029e-05 0.0 
3.475475083029e-05 2.597308075809e-04 0.0 
0.0 0.0 -4.376112143753e-05 
-1.485603472495e-04 -2.938683707073e-05 0.0 
-2.938683707073e-05 9.955677447018e-04 0.0 
0.0 0.0 -1.487877812405e-04 
-1.753095903577e-04 -2.864829451917e-05 0.0 
-2.864829451917e-05 1.185024325076e-03 0.0 
0.0 0.0 -1.760859927092e-04 
-1.649582730615e-04 2.923348981816e-05 0.0 
2.923348981816e-05 1.094893116976e-03 0.0 
0.0 0.0 -1.644733909230e-04 
-1.395633018813e-04 2.809652890280e-05 0.0 
2.809652890280e-05 9.186543678537e-04 0.0 
0.0 0.0 -1.394655130409e-04 
-1.099611654985e-04 -2.884597329549e-05 0.0 
-2.884597329549e-05 7.257598080870e-04 0.0 
0.0 0.0 -1.098787062330e-04 
-1.209104407542e-04 2.806295656769e-05 0.0 
2.806295656769e-05 7.902223779801e-04 0.0 
0.0 0.0 -1.210417811417e-04 
-3.627372368124e-05 3.163530406853e-05 0.0 
3.163530406853e-05 2.039563500799e-04 0.0 
0.0 0.0 -3.723255725578e-05 
-1.701409886376e-04 2.983058263758e-05 0.0 
2.983058263758e-05 1.132501183017e-03 0.0 
0.0 0.0 -1.699366983435e-04 
-6.411787123099e-05 2.946502422422e-05 0.0 
2.946502422422e-05 3.968096580559e-04 0.0 
0.0 0.0 -6.464531002275e-05 
-5.822127891541e-05 2.749733519323e-05 0.0 
2.749733519323e-05 3.240066522493e-04 0.0 
0.0 0.0 -5.373429374777e-05 
-1.578004283830e-04 -2.825196317906e-05 0.0 
-2.825196317906e-05 1.061236006077e-03 0.0 
0.0 0.0 -1.581724742171e-04 
-1.810622318850e-04 2.872864159815e-05 0.0 
2.872864159815e-05 1.210843086462e-03 0.0 
0.0 0.0 -1.810174791607e-04 
-5.321706588155e-05 -2.711802848501e-05 0.0 
-2.711802848501e-05 3.340376413156e-04 0.0 
0.0 0.0 -5.359773372147e-05 
-1.254962992742e-04 -2.828232383433e-05 0.0 
-2.828232383433e-05 8.331892923083e-04 0.0 
0.0 0.0 -1.253787237607e-04 
-1.535703452329e-04 2.911412195335e-05 0.0 
2.911412195335e-05 1.018186094186e-03 0.0 
0.0 0.0 -1.535721660833e-04 
-1.174362539490e-04 -2.931439951264e-05 0.0 
-2.931439951264e-05 7.791228558505e-04 0.0 
0.0 0.0 -1.176010908151e-04 
-6.016009984885e-05 -2.873248464068e-05 0.0 
-2.873248464068e-05 3.813492115723e-04 0.0 
0.0 0.0 -6.041048265268e-05 
-7.982616898902e-05 2.825432291390e-05 0.0 
2.825432291390e-05 5.000258330386e-04 0.0 
0.0 0.0 -7.939046230173e-05 
-3.959656613655e-05 2.469153921964e-05 0.0 
2.469153921964e-05 2.420385823143e-04 0.0 
0.0 0.0 -4.293244787628e-05 
-5.330489538924e-05 2.915892379323e-05 0.0 
2.915892379323e-05 3.232040539711e-04 0.0 
0.0 0.0 -5.412237138681e-05 
-4.874214390061e-05 2.903207581372e-05 0.0 
2.903207581372e-05 2.849835911649e-04 0.0 
0.0 0.0 -4.858390135199e-05 
-1.298006905679e-04 2.813403754230e-05 0.0 
2.813403754230e-05 8.507929242894e-04 0.0 
0.0 0.0 -1.297186540265e-04 
-1.946741073417e-04 7.177668550599e-07 0.0 
7.177668550599e-07 1.366433303394e-03 0.0 
0.0 0.0 -1.986219281740e-04 
-6.700715880952e-05 2.589861000239e-05 0.0 
2.589861000239e-05 3.925714316040e-04 0.0 
0.0 0.0 -6.366506350946e-05 
-1.734025229933e-04 2.872134779497e-05 0.0 
2.872134779497e-05 1.153015807625e-03 0.0 
0.0 0.0 -1.730133492871e-04 
-9.662877635408e-05 2.832769241253e-05 0.0 
2.832769241253e-05 6.190294534954e-04 0.0 
0.0 0.0 -9.645761187127e-05 
-1.474086229932e-04 -3.111113571506e-05 0.0 
-3.111113571506e-05 9.884847841183e-04 0.0 
0.0 0.0 -1.478461150791e-04 
-4.750635885556e-05 2.975238453019e-05 0.0 
2.975238453019e-05 2.739120908498e-04 0.0 
0.0 0.0 -4.694079591042e-05 
-1.816621119292e-04 -2.878308347844e-05 0.0 
-2.878308347844e-05 1.218135406772e-03 0.0 
0.0 0.0 -1.810139427525e-04 
-4.655502041116e-05 -2.610306417390e-05 0.0 
-2.610306417390e-05 2.951982444198e-04 0.0 
0.0 0.0 -4.804032238546e-05 
-7.357331614798e-05 2.958595086467e-05 0.0 
2.958595086467e-05 4.672675042292e-04 0.0 
0.0 0.0 -7.493958354298e-05 
-1.550973332285e-04 2.796756386232e-05 0.0 
2.796756386232e-05 1.025417246301e-03 0.0 
0.0 0.0 -1.547320639971e-04 
-1.115692087861e-04 -2.839126116568e-05 0.0 
-2.839126116568e-05 7.371116053840e-04 0.0 
0.0 0.0 -1.115425826451e-04 
-1.699290889586e-04 -2.900940190171e-05 0.0 
-2.900940190171e-05 1.149889600330e-03 0.0 
0.0 0.0 -1.708594300032e-04 
-8.624183478928e-05 -2.912886792339e-05 0.0 
-2.912886792339e-05 5.626870180004e-04 0.0 
0.0 0.0 -8.644348757353e-05 
-1.569167022033e-04 -2.881123911490e-05 0.0 
-2.881123911490e-05 1.051025089677e-03 0.0 
0.0 0.0 -1.566669492989e-04 
-1.769191692022e-04 2.934973965132e-05 0.0 
2.934973965132e-05 1.199034094636e-03 0.0 
0.0 0.0 -1.798338780755e-04 
-1.495364599630e-04 2.975197277300e-05 0.0 
2.975197277300e-05 9.877659320422e-04 0.0 
0.0 0.0 -1.491119197843e-04 
-1.807112013151e-04 -2.761933473531e-05 0.0 
-2.761933473531e-05 1.210002262212e-03 0.0 
0.0 0.0 -1.792176209978e-04 
-1.628975544781e-04 -3.036779777295e-05 0.0 
-3.036779777295e-05 1.095193631651e-03 0.0 
0.0 0.0 -1.630977145684e-04 
-1.675201900776e-04 -3.024382898117e-05 0.0 
-3.024382898117e-05 1.126388508701e-03 0.0 
0.0 0.0 -1.675015638186e-04 
-5.424555064715e-05 2.680812076581e-05 0.0 
2.680812076581e-05 3.226336525028e-04 0.0 
0.0 0.0 -5.399133669915e-05 
-1.676277495680e-04 2.740316368874e-05 0.0 
2.740316368874e-05 1.112871955034e-03 0.0 
0.0 0.0 -1.673862058733e-04 
-1.578559859789e-04 2.827037287320e-05 0.0 
2.827037287320e-05 1.049443790061e-03 0.0 
0.0 0.0 -1.580046825171e-04 
-1.171678476607e-04 2.852988375933e-05 0.0 
2.852988375933e-05 7.623350065851e-04 0.0 
0.0 0.0 -1.168873383469e-04 
-7.813173762117e-05 2.766421590413e-05 0.0 
2.766421590413e-05 4.622030552975e-04 0.0 
0.0 0.0 -7.363010077577e-05 
-1.810895077962e-04 -2.908189886640e-05 0.0 
-2.908189886640e-05 1.245299465341e-03 0.0 
0.0 0.0 -1.848439230673e-04 
-6.258589564450e-05 2.973424717467e-05 0.0 
2.973424717467e-05 3.796477966190e-04 0.0 
0.0 0.0 -6.214069219561e-05 
-6.877743183419e-05 -3.283467012249e-05 0.0 
-3.283467012249e-05 4.454002116560e-04 0.0 
0.0 0.0 -6.982795868082e-05 
-1.656560229546e-04 3.018340289880e-05 0.0 
3.018340289880e-05 1.102559420523e-03 0.0 
0.0 0.0 -1.657595890666e-04 
-4.452637910278e-05 -2.463086619694e-05 0.0 
-2.463086619694e-05 2.688625379708e-04 0.0 
0.0 0.0 -4.409698994278e-05 
-1.188635475057e-04 -2.772391840776e-05 0.0 
-2.772391840776e-05 7.879380998938e-04 0.0 
0.0 0.0 -1.188635276708e-04 
-1.592882983328e-04 2.718156988550e-05 0.0 
2.718156988550e-05 1.054709056437e-03 0.0 
0.0 0.0 -1.589765888202e-04 
-1.772222272296e-04 -2.714101551062e-05 0.0 
-2.714101551062e-05 1.191839625875e-03 0.0 
0.0 0.0 -1.771732720199e-04 
-1.824779395496e-04 -2.648051372033e-05 0.0 
-2.648051372033e-05 1.225568720394e-03 0.0 
0.0 0.0 -1.816415620416e-04 
-1.546092874475e-04 -2.982910766663e-05 0.0 
-2.982910766663e-05 1.035340165495e-03 0.0 
0.0 0.0 -1.543237508850e-04 
-1.687071199467e-04 -3.097215296435e-05 0.0 
-3.097215296435e-05 1.133984998622e-03 0.0 
0.0 0.0 -1.685605813437e-04 
-1.021935529673e-04 2.852069401152e-05 0.0 
2.852069401152e-05 6.571110725585e-04 0.0 
0.0 0.0 -1.019073722143e-04 
-1.593527883530e-04 -2.978604002386e-05 0.0 
-2.978604002386e-05 1.069539853505e-03 0.0 
0.0 0.0 -1.593679286731e-04 
-8.787271678042e-05 2.812609072738e-05 0.0 
2.812609072738e-05 5.317977245242e-04 0.0 
0.0 0.0 -8.364764346898e-05 
-1.787194194283e-04 2.687014845945e-05 0.0 
2.687014845945e-05 1.178995119648e-03 0.0 
0.0 0.0 -1.772627823762e-04 
-9.805451043270e-05 2.760029222410e-05 0.0 
2.760029222410e-05 6.018798204524e-04 0.0 
0.0 0.0 -9.365644977482e-05 
-9.596485627522e-05 2.204290663138e-05 0.0 
2.204290663138e-05 6.347192065111e-04 0.0 
0.0 0.0 -9.866254784712e-05 
-1.159093866371e-04 2.840626684317e-05 0.0 
2.840626684317e-05 7.538245928729e-04 0.0 
0.0 0.0 -1.157644195874e-04 
-1.068023676316e-04 3.049840519302e-05 0.0 
3.049840519302e-05 6.737297633016e-04 0.0 
0.0 0.0 -1.036755264196e-04 
-1.327131526045e-04 -2.791089545436e-05 0.0 
-2.791089545436e-05 8.830463531689e-04 0.0 
0.0 0.0 -1.324954999561e-04 
-1.083462229029e-04 -2.835211655561e-05 0.0 
-2.835211655561e-05 7.134008523618e-04 0.0 
0.0 0.0 -1.081453164196e-04 
-1.141683981921e-04 -2.887541052425e-05 0.0 
-2.887541052425e-05 7.550230559135e-04 0.0 
0.0 0.0 -1.140931655197e-04 
-5.515908320108e-05 2.948502897213e-05 0.0 
2.948502897213e-05 3.310071093917e-04 0.0 
0.0 0.0 -5.528709606717e-05 
-1.104134789677e-04 2.840605379835e-05 0.0 
2.840605379835e-05 7.154837500031e-04 0.0 
0.0 0.0 -1.103023603459e-04 
-1.746713077398e-04 2.880636906730e-05 0.0 
2.880636906730e-05 1.164068735679e-03 0.0 
0.0 0.0 -1.743776871305e-04 
-1.783703106015e-04 3.636462111026e-05 0.0 
3.636462111026e-05 1.201299505939e-03 0.0 
0.0 0.0 -1.792895840060e-04 
-1.577150641991e-04 2.851269442524e-05 0.0 
2.851269442524e-05 1.044375076497e-03 0.0 
0.0 0.0 -1.575150703147e-04 
-1.745723709241e-04 2.909038873658e-05 0.0 
2.909038873658e-05 1.170222223010e-03 0.0 
0.0 0.0 -1.755400497234e-04 
-1.120725847370e-04 2.871981251597e-05 0.0 
2.871981251597e-05 7.269648264993e-04 0.0 
0.0 0.0 -1.119489732781e-04 
-1.675311839949e-04 2.887729147629e-05 0.0 
2.887729147629e-05 1.117903748534e-03 0.0 
0.0 0.0 -1.678529426297e-04 
-1.146259152953e-04 2.842710779289e-05 0.0 
2.842710779289e-05 7.448564873363e-04 0.0 
0.0 0.0 -1.145134881756e-04 
-1.710224470009e-04 2.842065442071e-05 0.0 
2.842065442071e-05 1.142895506605e-03 0.0 
0.0 0.0 -1.716593064874e-04 
-1.634807050442e-04 2.799270818855e-05 0.0 
2.799270818855e-05 1.086902354100e-03 0.0 
0.0 0.0 -1.634447856658e-04 
-1.622367908960e-04 -2.967988136421e-05 0.0 
-2.967988136421e-05 1.088570664713e-03 0.0 
0.0 0.0 -1.620677252808e-04 
-1.436975778517e-04 2.830432817314e-05 0.0 
2.830432817314e-05 9.480503595790e-04 0.0 
0.0 0.0 -1.437136475121e-04 
-1.063431585595e-04 2.840592411012e-05 0.0 
2.840592411012e-05 6.863040493332e-04 0.0 
0.0 0.0 -1.060995107696e-04 
-1.691497108962e-04 -2.743833599267e-05 0.0 
-2.743833599267e-05 1.134677276168e-03 0.0 
0.0 0.0 -1.689057885308e-04 
-1.381914899866e-04 2.790064750608e-05 0.0 
2.790064750608e-05 9.063015758904e-04 0.0 
0.0 0.0 -1.375454124849e-04 
-5.561996790627e-05 -3.071748806018e-05 0.0 
-3.071748806018e-05 3.409512690699e-04 0.0 
0.0 0.0 -5.492022919918e-05 
-6.179236649455e-05 -2.756467409787e-05 0.0 
-2.756467409787e-05 3.903060721867e-04 0.0 
0.0 0.0 -6.170691397715e-05 
-9.087582305261e-05 2.700291781953e-05 0.0 
2.700291781953e-05 5.782509110046e-04 0.0 
0.0 0.0 -9.092110591052e-05 
-1.259880962207e-04 2.776883270027e-05 0.0 
2.776883270027e-05 8.237716666486e-04 0.0 
0.0 0.0 -1.257717909469e-04 
-1.753841120844e-04 2.980647546350e-05 0.0 
2.980647546350e-05 1.173927080456e-03 0.0 
0.0 0.0 -1.760317983730e-04 
-1.577119756164e-04 -3.055430689054e-05 0.0 
-3.055430689054e-05 1.057688489879e-03 0.0 
0.0 0.0 -1.576653810449e-04 
-1.057975756223e-04 -2.876126628924e-05 0.0 
-2.876126628924e-05 6.965772625478e-04 0.0 
0.0 0.0 -1.056780804030e-04 
-1.401532218735e-04 -2.893519210654e-05 0.0 
-2.893519210654e-05 9.357130400283e-04 0.0 
0.0 0.0 -1.401741111350e-04 
-1.632303776345e-04 2.945240880963e-05 0.0 
2.945240880963e-05 1.086067743780e-03 0.0 
0.0 0.0 -1.632898652955e-04 
-1.698320922867e-04 -3.029692352669e-05 0.0 
-3.029692352669e-05 1.141081462631e-03 0.0 
0.0 0.0 -1.695868396911e-04 
-1.762766478419e-04 -2.148172006753e-05 0.0 
-2.148172006753e-05 1.172735995291e-03 0.0 
0.0 0.0 -1.741172379421e-04 
-1.423952570170e-04 2.784554782803e-05 0.0 
2.784554782803e-05 9.441048027351e-04 0.0 
0.0 0.0 -1.427691508950e-04 
-1.672340961037e-04 2.890076212539e-05 0.0 
2.890076212539e-05 1.110820323191e-03 0.0 
0.0 0.0 -1.670153566545e-04 
-1.196206745500e-04 -2.916305908743e-05 0.0 
-2.916305908743e-05 7.932912096618e-04 0.0 
0.0 0.0 -1.195780717481e-04 
-1.631267095900e-04 -2.877648753756e-05 0.0 
-2.877648753756e-05 1.093964271595e-03 0.0 
0.0 0.0 -1.629178051474e-04 
-1.193648583036e-04 2.813253978265e-05 0.0 
2.813253978265e-05 7.781106719393e-04 0.0 
0.0 0.0 -1.192674511187e-04 
-1.785040923208e-04 -2.833642482200e-05 0.0 
-2.833642482200e-05 1.202406861450e-03 0.0 
0.0 0.0 -1.783056964125e-04 
-1.774180478980e-04 -3.143728213467e-05 0.0 
-3.143728213467e-05 1.216846253912e-03 0.0 
0.0 0.0 -1.800733985141e-04 
-1.339733609669e-04 2.830305737665e-05 0.0 
2.830305737665e-05 8.799971748813e-04 0.0 
0.0 0.0 -1.339483752660e-04 
-5.685501053660e-05 3.033786968296e-05 0.0 
3.033786968296e-05 3.408752435242e-04 0.0 
0.0 0.0 -5.664287464774e-05 
-1.674932513127e-04 2.750263582860e-05 0.0 
2.750263582860e-05 1.111155514655e-03 0.0 
0.0 0.0 -1.670528461364e-04 
-1.284040368042e-04 -2.775968276020e-05 0.0 
-2.775968276020e-05 8.537309068525e-04 0.0 
0.0 0.0 -1.283340813903e-04 
-1.016895440755e-04 -2.862604297840e-05 0.0 
-2.862604297840e-05 6.674652453701e-04 0.0 
0.0 0.0 -1.014860136736e-04 
-1.390418925560e-04 -2.935625760733e-05 0.0 
-2.935625760733e-05 9.288785969762e-04 0.0 
0.0 0.0 -1.390419464427e-04 
-1.608753793423e-04 -3.062151254544e-05 0.0 
-3.062151254544e-05 1.081540098949e-03 0.0 
0.0 0.0 -1.609465537294e-04 
-5.579409708541e-05 -2.753923831601e-05 0.0 
-2.753923831601e-05 3.517647136068e-04 0.0 
0.0 0.0 -5.619956474153e-05 
-1.242874580104e-04 2.815581454240e-05 0.0 
2.815581454240e-05 8.122824974036e-04 0.0 
0.0 0.0 -1.242180795178e-04 
-1.444954382542e-04 2.691161261798e-05 0.0 
2.691161261798e-05 9.508761997336e-04 0.0 
0.0 0.0 -1.439419080609e-04 
-1.748732396412e-04 -3.101518328253e-05 0.0 
-3.101518328253e-05 1.183866334775e-03 0.0 
0.0 0.0 -1.756258132784e-04 
-1.484265095921e-04 2.639187046033e-05 0.0 
2.639187046033e-05 9.793613921147e-04 0.0 
0.0 0.0 -1.481473755224e-04 
-1.628394148518e-04 2.905846373136e-05 0.0 
2.905846373136e-05 1.081802942582e-03 0.0 
0.0 0.0 -1.628061244897e-04 
-1.405884391169e-04 2.689260908494e-05 0.0 
2.689260908494e-05 9.219062369141e-04 0.0 
0.0 0.0 -1.397490354451e-04 
-1.346362126131e-04 2.980546389634e-05 0.0 
2.980546389634e-05 8.629731244664e-04 0.0 
0.0 0.0 -1.313455861883e-04 
-1.422308942789e-04 2.777968126491e-05 0.0 
2.777968126491e-05 9.352014107076e-04 0.0 
0.0 0.0 -1.417070353249e-04 
-1.696348231764e-04 3.073847441857e-05 0.0 
3.073847441857e-05 1.132512673150e-03 0.0 
0.0 0.0 -1.700257545721e-04 
-1.628061011134e-04 -3.012920063587e-05 0.0 
-3.012920063587e-05 1.094588289745e-03 0.0 
0.0 0.0 -1.626783210446e-04 
-1.525480366069e-04 2.753411223908e-05 0.0 
2.753411223908e-05 1.012270815341e-03 0.0 
0.0 0.0 -1.525950422115e-04 
-1.817674885626e-04 2.636756222739e-05 0.0 
2.636756222739e-05 1.218171265063e-03 0.0 
0.0 0.0 -1.819330136886e-04 
-1.367783378107e-04 2.734398055764e-05 0.0 
2.734398055764e-05 8.928204252328e-04 0.0 
0.0 0.0 -1.355595357802e-04 
-8.657515392004e-05 -2.858127066433e-05 0.0 
-2.858127066433e-05 5.623682383036e-04 0.0 
0.0 0.0 -8.640878351826e-05 
-1.720286776127e-04 -3.018037219568e-05 0.0 
-3.018037219568e-05 1.158953410419e-03 0.0 
0.0 0.0 -1.720100346656e-04 
-1.785542716781e-04 -3.347376878072e-05 0.0 
-3.347376878072e-05 1.210212792631e-03 0.0 
0.0 0.0 -1.795117393957e-04 
-1.181566759780e-04 2.804595512908e-05 0.0 
2.804595512908e-05 7.695120543693e-04 0.0 
0.0 0.0 -1.180384278745e-04 
-1.234361083838e-04 2.834735001336e-05 0.0 
2.834735001336e-05 8.068300268397e-04 0.0 
0.0 0.0 -1.233979183903e-04 
-9.615008310342e-05 -2.877711061827e-05 0.0 
-2.877711061827e-05 6.293964481875e-04 0.0 
0.0 0.0 -9.603629528614e-05 
-1.570985069047e-04 2.869057650911e-05 0.0 
2.869057650911e-05 1.042670134457e-03 0.0 
0.0 0.0 -1.569914920818e-04 
-9.804713378094e-05 2.892049478508e-05 0.0 
2.892049478508e-05 6.274327291699e-04 0.0 
0.0 0.0 -9.751120462800e-05 
-1.373039782519e-04 2.945820523949e-05 0.0 
2.945820523949e-05 9.031137517948e-04 0.0 
0.0 0.0 -1.370644644624e-04 
-9.733425656402e-05 -2.696735292952e-05 0.0 
-2.696735292952e-05 6.363689780604e-04 0.0 
0.0 0.0 -9.714421390796e-05 
-1.604810832406e-04 2.925883402761e-05 0.0 
2.925883402761e-05 1.064262862584e-03 0.0 
0.0 0.0 -1.602381950242e-04 
-1.814386097987e-04 -2.325128847214e-05 0.0 
-2.325128847214e-05 1.217845530327e-03 0.0 
0.0 0.0 -1.816843005859e-04 
-1.003684445551e-04 -2.872637610904e-05 0.0 
-2.872637610904e-05 6.585462596242e-04 0.0 
0.0 0.0 -1.002307182508e-04 
-3.526749537505e-05 -3.047241068612e-05 0.0 
-3.047241068612e-05 2.153990238607e-04 0.0 
0.0 0.0 -3.677367655039e-05 
-1.806631145188e-04 2.941902588667e-05 0.0 
2.941902588667e-05 1.208966272057e-03 0.0 
0.0 0.0 -1.810776462098e-04 
-1.033178748637e-04 2.699632970684e-05 0.0 
2.699632970684e-05 6.637091035959e-04 0.0 
0.0 0.0 -1.028007266516e-04 
-1.175293277585e-04 2.819191420696e-05 0.0 
2.819191420696e-05 7.649488685247e-04 0.0 
0.0 0.0 -1.174222657364e-04 
-1.740611927883e-04 3.008308873920e-05 0.0 
3.008308873920e-05 1.179667388234e-03 0.0 
0.0 0.0 -1.766888058523e-04 
-1.524480229041e-04 -2.995968298439e-05 0.0 
-2.995968298439e-05 1.020372756015e-03 0.0 
0.0 0.0 -1.522604622525e-04 
-1.585768344365e-04 -2.913298650394e-05 0.0 
-2.913298650394e-05 1.064240986158e-03 0.0 
0.0 0.0 -1.583819031520e-04 
-1.028812223476e-04 -2.791530224567e-05 0.0 
-2.791530224567e-05 6.762699737186e-04 0.0 
0.0 0.0 -1.027652553003e-04 
-3.047731217096e-05 2.978609752000e-05 0.0 
2.978609752000e-05 1.644412884572e-04 0.0 
0.0 0.0 -3.167095645526e-05 
-1.827018091400e-04 -3.487243475378e-05 0.0 
-3.487243475378e-05 1.223693620193e-03 0.0 
0.0 0.0 -1.803196740198e-04 
-1.299869374800e-04 2.787662672047e-05 0.0 
2.787662672047e-05 8.523815142426e-04 0.0 
0.0 0.0 -1.299076046001e-04 
-1.512839301296e-04 -3.211131163956e-05 0.0 
-3.211131163956e-05 1.010330699503e-03 0.0 
0.0 0.0 -1.510713963618e-04 
-1.740688791628e-04 2.785384488376e-05 0.0 
2.785384488376e-05 1.160296302710e-03 0.0 
0.0 0.0 -1.736733770178e-04 
-2.424829434384e-05 2.135414066938e-05 0.0 
2.135414066938e-05 1.009887765283e-04 0.0 
0.0 0.0 -2.253474224696e-05 
-1.588289344536e-04 2.988448063203e-05 0.0 
2.988448063203e-05 1.053618048293e-03 0.0 
0.0 0.0 -1.588145449557e-04 
-7.398149687921e-05 -2.842214034926e-05 0.0 
-2.842214034926e-05 4.736710158424e-04 0.0 
0.0 0.0 -7.379368512750e-05 
-1.417757164372e-04 -3.019050727827e-05 0.0 
-3.019050727827e-05 9.514786018212e-04 0.0 
0.0 0.0 -1.424765658182e-04 
-1.273110853056e-04 -2.925695132898e-05 0.0 
-2.925695132898e-05 8.481813906053e-04 0.0 
0.0 0.0 -1.274401864931e-04 
-1.007593383753e-04 2.822071280729e-05 0.0 
2.822071280729e-05 6.480510024074e-04 0.0 
0.0 0.0 -1.006432667219e-04 
-1.707598802574e-04 -2.954897052777e-05 0.0 
-2.954897052777e-05 1.153161559221e-03 0.0 
0.0 0.0 -1.712453353817e-04 
-1.329505705343e-04 2.860130427155e-05 0.0 
2.860130427155e-05 8.732611453068e-04 0.0 
0.0 0.0 -1.328871777156e-04 
-9.118212509623e-05 2.844150706971e-05 0.0 
2.844150706971e-05 5.810800157713e-04 0.0 
0.0 0.0 -9.101187559806e-05 
-1.348270760039e-04 -2.858426038110e-05 0.0 
-2.858426038110e-05 8.990222661828e-04 0.0 
0.0 0.0 -1.348432318503e-04 
-2.929431270807e-05 -2.857654389252e-05 0.0 
-2.857654389252e-05 1.760253783659e-04 0.0 
0.0 0.0 -3.121713414881e-05 
-1.537482864892e-04 -2.902787486223e-05 0.0 
-2.902787486223e-05 1.032059817805e-03 0.0 
0.0 0.0 -1.539626484545e-04 
-1.604406715089e-04 -2.964829512842e-05 0.0 
-2.964829512842e-05 1.074466508454e-03 0.0 
0.0 0.0 -1.598244649411e-04 
-1.844616251081e-04 -2.196458036396e-05 0.0 
-2.196458036396e-05 1.231467805983e-03 0.0 
0.0 0.0 -1.850401362575e-04 
-1.635274807000e-04 -2.956880985849e-05 0.0 
-2.956880985849e-05 1.099342516608e-03 0.0 
0.0 0.0 -1.636124299818e-04 
-7.150477036681e-05 -2.776392562661e-05 0.0 
-2.776392562661e-05 4.572663187996e-04 0.0 
0.0 0.0 -7.137223705482e-05 
-1.570462429545e-04 -2.966204224228e-05 0.0 
-2.966204224228e-05 1.054975147839e-03 0.0 
0.0 0.0 -1.570847591254e-04 
-1.810625471898e-04 2.712640566716e-05 0.0 
2.712640566716e-05 1.230837214805e-03 0.0 
0.0 0.0 -1.842233179068e-04 
-1.891002400454e-04 -2.748789620214e-05 0.0 
-2.748789620214e-05 1.278407905451e-03 0.0 
0.0 0.0 -1.900717871215e-04 
-1.657110930776e-04 -2.854937255919e-05 0.0 
-2.854937255919e-05 1.112870521473e-03 0.0 
0.0 0.0 -1.653364313119e-04 
-1.071209963560e-04 -2.863275326497e-05 0.0 
-2.863275326497e-05 7.049432181714e-04 0.0 
0.0 0.0 -1.069186906485e-04 
-1.442583782278e-04 -2.898467953421e-05 0.0 
-2.898467953421e-05 9.652668360639e-04 0.0 
0.0 0.0 -1.443707514742e-04 
-1.759295624301e-04 2.574555557981e-05 0.0 
2.574555557981e-05 1.162894992702e-03 0.0 
0.0 0.0 -1.746475140816e-04 
-1.188179409512e-04 -2.882565480678e-05 0.0 
-2.882565480678e-05 7.850400880713e-04 0.0 
0.0 0.0 -1.181845718321e-04 
-1.584483271371e-04 2.773639164420e-05 0.0 
2.773639164420e-05 1.051528373706e-03 0.0 
0.0 0.0 -1.585795433073e-04 
-1.477641435519e-04 2.859461966958e-05 0.0 
2.859461966958e-05 9.807497853317e-04 0.0 
0.0 0.0 -1.481564718376e-04 
-1.666109147089e-04 -2.970949097526e-05 0.0 
-2.970949097526e-05 1.123406416293e-03 0.0 
0.0 0.0 -1.669465589644e-04 
-1.640742339727e-04 -2.814643695304e-05 0.0 
-2.814643695304e-05 1.102737689409e-03 0.0 
0.0 0.0 -1.639852473733e-04 
-1.101476556860e-04 -1.419773556877e-06 0.0 
-1.419773556877e-06 6.855531227093e-04 0.0 
0.0 0.0 -1.097027053386e-04 
-1.095838507761e-04 5.104018495320e-06 0.0 
5.104018495320e-06 6.852974449944e-04 0.0 
0.0 0.0 -1.096586159380e-04 
-1.492847548809e-04 -3.091516381313e-05 0.0 
-3.091516381313e-05 9.984061546489e-04 0.0 
0.0 0.0 -1.489183339744e-04 
-1.487773235054e-04 2.785619991096e-05 0.0 
2.785619991096e-05 9.847103116342e-04 0.0 
0.0 0.0 -1.489589719869e-04 
-1.316033445496e-04 -2.890310988479e-05 0.0 
-2.890310988479e-05 8.785172676280e-04 0.0 
0.0 0.0 -1.317064244343e-04 
-1.470787480711e-04 -2.886845641438e-05 0.0 
-2.886845641438e-05 9.813735906609e-04 0.0 
0.0 0.0 -1.466314440693e-04 
-1.276790192920e-04 2.827971774625e-05 0.0 
2.827971774625e-05 8.356151426700e-04 0.0 
0.0 0.0 -1.275341994755e-04 
-1.790311321725e-04 1.969961980520e-05 0.0 
1.969961980520e-05 1.177311147527e-03 0.0 
0.0 0.0 -1.770432225081e-04 
-1.075373971259e-04 2.845855733448e-05 0.0 
2.845855733448e-05 6.950205170450e-04 0.0 
0.0 0.0 -1.073226784003e-04 
-1.995879498343e-04 -5.013008806985e-06 0.0 
-5.013008806985e-06 1.363897218258e-03 0.0 
0.0 0.0 -1.985690758598e-04 
-1.206431140158e-04 2.307417823056e-05 0.0 
2.307417823056e-05 7.999499804229e-04 0.0 
0.0 0.0 -1.217990918242e-04 
-1.230873173652e-04 -2.834404514853e-05 0.0 
-2.834404514853e-05 8.168726937961e-04 0.0 
0.0 0.0 -1.229897142350e-04 
-1.277789710916e-04 2.899586617417e-05 0.0 
2.899586617417e-05 8.376167932335e-04 0.0 
0.0 0.0 -1.278593196867e-04 
-6.749379846372e-05 -2.782885043647e-05 0.0 
-2.782885043647e-05 4.285534232864e-04 0.0 
0.0 0.0 -6.718560115948e-05 
-1.130846881410e-04 -2.901620947727e-05 0.0 
-2.901620947727e-05 7.492911164906e-04 0.0 
0.0 0.0 -1.132750687146e-04 
-1.393795706141e-04 2.790993313463e-05 0.0 
2.790993313463e-05 9.183577294076e-04 0.0 
0.0 0.0 -1.393992299975e-04 
-1.313953089638e-04 2.793110906410e-05 0.0 
2.793110906410e-05 8.609063871163e-04 0.0 
0.0 0.0 -1.310746415357e-04 
-1.472158165240e-04 2.758529410816e-05 0.0 
2.758529410816e-05 9.752002146418e-04 0.0 
0.0 0.0 -1.472189500432e-04 
-1.516300742627e-04 2.806244334544e-05 0.0 
2.806244334544e-05 1.001799986608e-03 0.0 
0.0 0.0 -1.512033144533e-04 
-1.566655293626e-04 -2.889951032878e-05 0.0 
-2.889951032878e-05 1.046948901408e-03 0.0 
0.0 0.0 -1.561275327105e-04 
-3.388460750578e-05 -1.545160936620e-05 0.0 
-1.545160936620e-05 2.099343336454e-04 0.0 
0.0 0.0 -3.245576353708e-05 
-1.079103303358e-04 2.933502518126e-05 0.0 
2.933502518126e-05 7.001507540581e-04 0.0 
0.0 0.0 -1.081352097849e-04 
-1.027907419891e-04 -2.789055961483e-05 0.0 
-2.789055961483e-05 6.727593674768e-04 0.0 
0.0 0.0 -1.023828309811e-04 
-1.434897197293e-04 2.686269947909e-05 0.0 
2.686269947909e-05 9.426378339422e-04 0.0 
0.0 0.0 -1.428293200757e-04 
-1.483261696105e-04 -2.883963041716e-05 0.0 
-2.883963041716e-05 9.902814330651e-04 0.0 
0.0 0.0 -1.477595226970e-04 
-1.733622378423e-04 2.696425670561e-05 0.0 
2.696425670561e-05 1.158199599596e-03 0.0 
0.0 0.0 -1.740163136221e-04 
-5.146390240149e-05 3.149198966797e-05 0.0 
3.149198966797e-05 2.950977217837e-04 0.0 
0.0 0.0 -4.910994769955e-05 
-4.998322073950e-05 -2.650173050573e-05 0.0 
-2.650173050573e-05 3.137392583323e-04 0.0 
0.0 0.0 -5.065930366581e-05 
-1.246841514279e-04 2.807070818710e-05 0.0 
2.807070818710e-05 8.153369030926e-04 0.0 
0.0 0.0 -1.245896567492e-04 
-1.074667000404e-04 -2.931017500739e-05 0.0 
-2.931017500739e-05 7.103792899815e-04 0.0 
0.0 0.0 -1.077203783481e-04 
-9.918600810801e-05 -3.218977296722e-05 0.0 
-3.218977296722e-05 6.451476881974e-04 0.0 
0.0 0.0 -9.831899762194e-05 
-1.033843323464e-04 -2.568146961447e-05 0.0 
-2.568146961447e-05 6.823399375890e-04 0.0 
0.0 0.0 -1.033380742667e-04 
-1.467772705035e-04 -2.855532502296e-05 0.0 
-2.855532502296e-05 9.829234791858e-04 0.0 
0.0 0.0 -1.469023935692e-04 
-4.918821938130e-05 -2.784621442943e-05 0.0 
-2.784621442943e-05 3.054917735983e-04 0.0 
0.0 0.0 -4.953709868763e-05 
-1.222003796169e-04 2.866150149173e-05 0.0 
2.866150149173e-05 7.992287747919e-04 0.0 
0.0 0.0 -1.223213871927e-04 
-1.574838851652e-04 -2.884771519407e-05 0.0 
-2.884771519407e-05 1.055743233401e-03 0.0 
0.0 0.0 -1.573814874934e-04 
-5.103366446644e-05 3.083233425307e-05 0.0 
3.083233425307e-05 3.010972732110e-04 0.0 
0.0 0.0 -5.112340052147e-05 
-1.934610965695e-04 -4.298535282020e-06 0.0 
-4.298535282020e-06 1.268654757538e-03 0.0 
0.0 0.0 -1.928379572095e-04 
-1.729742724807e-04 -2.716366689485e-05 0.0 
-2.716366689485e-05 1.161879060048e-03 0.0 
0.0 0.0 -1.728683014225e-04 
-1.159629787201e-04 -2.904469987433e-05 0.0 
-2.904469987433e-05 7.705849919696e-04 0.0 
0.0 0.0 -1.163417091451e-04 
-1.616915685660e-04 2.859224485179e-05 0.0 
2.859224485179e-05 1.074324548804e-03 0.0 
0.0 0.0 -1.618083629464e-04 
-2.727429490673e-05 -7.981424094550e-07 0.0 
-7.981424094550e-07 1.116265976979e-04 0.0 
0.0 0.0 -2.696321564760e-05 
-1.521690046607e-04 -3.000871026997e-05 0.0 
-3.000871026997e-05 1.017696781759e-03 0.0 
0.0 0.0 -1.518707364543e-04 
-1.295839926014e-04 -2.815794342717e-05 0.0 
-2.815794342717e-05 8.619661847659e-04 0.0 
0.0 0.0 -1.295155041898e-04 
-2.359634361323e-05 9.091220455368e-07 0.0 
9.091220455368e-07 1.106951619002e-04 0.0 
0.0 0.0 -2.682779714776e-05 
-1.728538985111e-04 2.680741270793e-05 0.0 
2.680741270793e-05 1.154427413958e-03 0.0 
0.0 0.0 -1.732288690391e-04 
-4.759083390138e-05 -2.831698267297e-05 0.0 
-2.831698267297e-05 2.848913946214e-04 0.0 
0.0 0.0 -4.649687138448e-05 
-1.430104513494e-04 -2.827840335732e-05 0.0 
-2.827840335732e-05 9.522047249633e-04 0.0 
0.0 0.0 -1.424467998190e-04 
-1.308115066644e-04 -2.845406566805e-05 0.0 
-2.845406566805e-05 8.700772173504e-04 0.0 
0.0 0.0 -1.306907721685e-04 
-1.129064275361e-04 -2.856218169756e-05 0.0 
-2.856218169756e-05 7.462380760800e-04 0.0 
0.0 0.0 -1.127972299543e-04 
-1.359129833258e-04 2.979368899475e-05 0.0 
2.979368899475e-05 8.944895224544e-04 0.0 
0.0 0.0 -1.357882224401e-04 
-1.779538886446e-04 2.685602915856e-05 0.0 
2.685602915856e-05 1.186518068831e-03 0.0 
0.0 0.0 -1.774347558581e-04 
-1.457575943922e-04 3.026596853263e-05 0.0 
3.026596853263e-05 9.632506474158e-04 0.0 
0.0 0.0 -1.457400808753e-04 
-1.288002410826e-04 2.805878315534e-05 0.0 
2.805878315534e-05 8.440094574945e-04 0.0 
0.0 0.0 -1.287264812403e-04 
-1.242825439840e-04 -2.804688037007e-05 0.0 
-2.804688037007e-05 8.250067063846e-04 0.0 
0.0 0.0 -1.241942416882e-04 
-1.736395521226e-05 2.354389388036e-05 0.0 
2.354389388036e-05 7.964528863018e-05 0.0 
0.0 0.0 -1.861799679395e-05 
-4.157545693324e-05 2.817385926199e-05 0.0 
2.817385926199e-05 2.365575590948e-04 0.0 
0.0 0.0 -4.141517733842e-05 
-1.678318203631e-04 -2.663064313971e-05 0.0 
-2.663064313971e-05 1.127397061509e-03 0.0 
0.0 0.0 -1.677496568182e-04 
-1.370203440637e-04 -3.226606344672e-05 0.0 
-3.226606344672e-05 9.081664366392e-04 0.0 
0.0 0.0 -1.362805121017e-04 
-1.736141937904e-04 2.716336991301e-05 0.0 
2.716336991301e-05 1.149649766565e-03 0.0 
0.0 0.0 -1.723036539172e-04 
-7.429185192102e-05 2.889322857484e-05 0.0 
2.889322857484e-05 4.644168819778e-04 0.0 
0.0 0.0 -7.414465667103e-05 
-1.649902886651e-04 2.947284893012e-05 0.0 
2.947284893012e-05 1.093935083842e-03 0.0 
0.0 0.0 -1.646925898217e-04 
-1.739966132604e-04 -2.849382622555e-05 0.0 
-2.849382622555e-05 1.167419998479e-03 0.0 
0.0 0.0 -1.733111646468e-04 
-1.056965695515e-04 2.657671323282e-05 0.0 
2.657671323282e-05 6.973803664085e-04 0.0 
0.0 0.0 -1.076913066561e-04 
-1.684634156381e-04 2.502571500154e-05 0.0 
2.502571500154e-05 1.117308510720e-03 0.0 
0.0 0.0 -1.681488932201e-04 
-1.612200699048e-04 -2.968921846860e-05 0.0 
-2.968921846860e-05 1.084762543557e-03 0.0 
0.0 0.0 -1.613920101890e-04 
-1.435042771724e-04 2.827958174112e-05 0.0 
2.827958174112e-05 9.471256299073e-04 0.0 
0.0 0.0 -1.435674306479e-04 
-1.178719447516e-04 2.925779353124e-05 0.0 
2.925779353124e-05 7.691196797978e-04 0.0 
0.0 0.0 -1.179957515531e-04 
-1.230064472571e-04 -2.933976043839e-05 0.0 
-2.933976043839e-05 8.180684852634e-04 0.0 
0.0 0.0 -1.231351811242e-04 
-1.812260547849e-04 -3.047200266982e-05 0.0 
-3.047200266982e-05 1.223288115478e-03 0.0 
0.0 0.0 -1.807056875578e-04 
-1.260212927046e-04 2.933157348944e-05 0.0 
2.933157348944e-05 8.259598448106e-04 0.0 
0.0 0.0 -1.259489979917e-04 
-1.353161328246e-04 2.778264495549e-05 0.0 
2.778264495549e-05 8.897119970146e-04 0.0 
0.0 0.0 -1.352333322325e-04 
-1.267391738953e-04 2.944240283988e-05 0.0 
2.944240283988e-05 8.300608908324e-04 0.0 
0.0 0.0 -1.265040046469e-04 
-1.558042942572e-04 2.960325539106e-05 0.0 
2.960325539106e-05 1.032329659142e-03 0.0 
0.0 0.0 -1.557546880476e-04 
-1.178031641948e-04 -2.833363001983e-05 0.0 
-2.833363001983e-05 7.792538415973e-04 0.0 
0.0 0.0 -1.176363242409e-04 
-7.616423057155e-05 2.888075361391e-05 0.0 
2.888075361391e-05 4.767557616214e-04 0.0 
0.0 0.0 -7.598706826662e-05 
-1.284551892997e-04 2.830356900228e-05 0.0 
2.830356900228e-05 8.414205268390e-04 0.0 
0.0 0.0 -1.284270486071e-04 
-8.163145150663e-05 2.849893936950e-05 0.0 
2.849893936950e-05 5.141388462768e-04 0.0 
0.0 0.0 -8.139240314519e-05 
-1.476035922618e-04 2.790275079514e-05 0.0 
2.790275079514e-05 9.723513416991e-04 0.0 
0.0 0.0 -1.469868445827e-04 
-8.102880366192e-05 -2.822816260586e-05 0.0 
-2.822816260586e-05 5.241451611897e-04 0.0 
0.0 0.0 -8.099228255434e-05 
-1.416684014624e-04 -2.911139421202e-05 0.0 
-2.911139421202e-05 9.446400297649e-04 0.0 
0.0 0.0 -1.413087031611e-04 
-1.704134817182e-04 -2.893451028680e-05 0.0 
-2.893451028680e-05 1.143317166872e-03 0.0 
0.0 0.0 -1.695824168335e-04 
-1.648116269840e-04 2.803138241354e-05 0.0 
2.803138241354e-05 1.093290237044e-03 0.0 
0.0 0.0 -1.644793634901e-04 
-1.128875860972e-04 2.826705620268e-05 0.0 
2.826705620268e-05 7.324835187191e-04 0.0 
0.0 0.0 -1.126879322255e-04 
-1.413103611302e-04 2.856634998349e-05 0.0 
2.856634998349e-05 9.375047760794e-04 0.0 
0.0 0.0 -1.419038077447e-04 
-1.657595976086e-04 2.853389717882e-05 0.0 
2.853389717882e-05 1.104349844714e-03 0.0 
0.0 0.0 -1.661162351013e-04 
-1.653889785276e-04 -2.976188635714e-05 0.0 
-2.976188635714e-05 1.114688989457e-03 0.0 
0.0 0.0 -1.657121520580e-04 
-4.122208403583e-05 -2.733977607716e-05 0.0 
-2.733977607716e-05 2.407308049745e-04 0.0 
0.0 0.0 -4.024936955575e-05 
-1.462865341652e-04 2.791988865304e-05 0.0 
2.791988865304e-05 9.640304959560e-04 0.0 
0.0 0.0 -1.458719015759e-04 
-1.798320892613e-04 3.664169466135e-05 0.0 
3.664169466135e-05 1.207776909166e-03 0.0 
0.0 0.0 -1.808727580342e-04 
-8.155951077410e-05 2.658877336874e-05 0.0 
2.658877336874e-05 5.082367721589e-04 0.0 
0.0 0.0 -8.036834358255e-05 
-1.261065842356e-04 -2.891277945860e-05 0.0 
-2.891277945860e-05 8.392634847212e-04 0.0 
0.0 0.0 -1.261429800108e-04 
-2.464432722710e-05 -2.598410949158e-05 0.0 
-2.598410949158e-05 1.199804601247e-04 0.0 
0.0 0.0 -2.329771006100e-05 
-1.698720281199e-04 2.819353997162e-05 0.0 
2.819353997162e-05 1.134065551803e-03 0.0 
0.0 0.0 -1.704352672439e-04 
-7.209795018933e-05 2.889480946534e-05 0.0 
2.889480946534e-05 4.471234739761e-04 0.0 
0.0 0.0 -7.178447905439e-05 
-1.214879839983e-04 2.129426116121e-05 0.0 
2.129426116121e-05 7.908873499093e-04 0.0 
0.0 0.0 -1.224926751266e-04 
-1.512350690369e-04 3.260960324541e-05 0.0 
3.260960324541e-05 1.003149541653e-03 0.0 
0.0 0.0 -1.513082552986e-04 
-1.410567308220e-04 -2.849265471453e-05 0.0 
-2.849265471453e-05 9.457036391268e-04 0.0 
0.0 0.0 -1.415828201621e-04 
-1.344535840298e-04 2.612046934124e-05 0.0 
2.612046934124e-05 8.995841949147e-04 0.0 
0.0 0.0 -1.366211047096e-04 
-1.341134389053e-04 2.811410486968e-05 0.0 
2.811410486968e-05 8.812581479058e-04 0.0 
0.0 0.0 -1.340535934895e-04 
-8.946040519151e-05 -2.953905219233e-05 0.0 
-2.953905219233e-05 5.742848433877e-04 0.0 
0.0 0.0 -8.827358089900e-05 
-9.333279709743e-05 -2.369397324284e-05 0.0 
-2.369397324284e-05 6.111413459436e-04 0.0 
0.0 0.0 -9.328238720484e-05 
-1.698818200285e-04 -2.882683013526e-05 0.0 
-2.882683013526e-05 1.144701307571e-03 0.0 
0.0 0.0 -1.700100520615e-04 
-1.409975246060e-04 -3.114270166762e-05 0.0 
-3.114270166762e-05 9.412074701777e-04 0.0 
0.0 0.0 -1.409113068204e-04 
-1.224899796510e-04 -2.844927577316e-05 0.0 
-2.844927577316e-05 8.138192071892e-04 0.0 
0.0 0.0 -1.224729735915e-04 
-1.523712328566e-04 3.064679971689e-05 0.0 
3.064679971689e-05 1.008635964013e-03 0.0 
0.0 0.0 -1.522479562080e-04 
-1.188292947714e-04 2.814854163685e-05 0.0 
2.814854163685e-05 7.741609344606e-04 0.0 
0.0 0.0 -1.187265862058e-04 
-7.698231420718e-05 -2.807470773001e-05 0.0 
-2.807470773001e-05 4.953557652573e-04 0.0 
0.0 0.0 -7.679943085705e-05 
-8.618619312566e-05 2.228028664320e-05 0.0 
2.228028664320e-05 5.633842965339e-04 0.0 
0.0 0.0 -8.862593743002e-05 
-1.284395253225e-04 -2.631768161175e-05 0.0 
-2.631768161175e-05 8.441014789476e-04 0.0 
0.0 0.0 -1.266344217576e-04 
-1.074097245906e-04 1.137855673603e-06 0.0 
1.137855673603e-06 7.273751056144e-04 0.0 
0.0 0.0 -1.068299257544e-04 
-1.648361548193e-04 -2.903405778283e-05 0.0 
-2.903405778283e-05 1.103487992394e-03 0.0 
0.0 0.0 -1.640398004813e-04 
-1.125117604938e-04 -2.832657592519e-05 0.0 
-2.832657592519e-05 7.420818515929e-04 0.0 
0.0 0.0 -1.122952594724e-04 
-1.815273626527e-04 2.648876521301e-05 0.0 
2.648876521301e-05 1.237129381465e-03 0.0 
0.0 0.0 -1.850357933615e-04 
-1.677426973633e-04 3.358700303554e-05 0.0 
3.358700303554e-05 1.121534172788e-03 0.0 
0.0 0.0 -1.681766660669e-04 
-1.238211064038e-04 -2.893923336642e-05 0.0 
-2.893923336642e-05 8.228165218213e-04 0.0 
0.0 0.0 -1.237869166313e-04 
-1.864446355504e-04 -3.208766695310e-05 0.0 
-3.208766695310e-05 1.252430825566e-03 0.0 
0.0 0.0 -1.862208944195e-04 
-8.530940149586e-05 -2.872680214247e-05 0.0 
-2.872680214247e-05 5.536185287289e-04 0.0 
0.0 0.0 -8.523934116932e-05 
-1.812060938045e-04 2.774101611193e-05 0.0 
2.774101611193e-05 1.207038039800e-03 0.0 
0.0 0.0 -1.806723702746e-04 
-1.337032776849e-04 -2.817141114612e-05 0.0 
-2.817141114612e-05 8.910030578001e-04 0.0 
0.0 0.0 -1.336599856011e-04 
-1.477881411962e-04 2.807358610009e-05 0.0 
2.807358610009e-05 9.757986870607e-04 0.0 
0.0 0.0 -1.477205131922e-04 
-1.717661370758e-04 -2.763745373205e-05 0.0 
-2.763745373205e-05 1.155465207730e-03 0.0 
0.0 0.0 -1.720177540750e-04 
-8.915482971043e-05 -2.748298977886e-05 0.0 
-2.748298977886e-05 5.839530331415e-04 0.0 
0.0 0.0 -8.937342098373e-05 
-1.408472522219e-04 2.814178914188e-05 0.0 
2.814178914188e-05 9.273096045331e-04 0.0 
0.0 0.0 -1.405419627762e-04 
-1.183094889317e-04 -2.831962265042e-05 0.0 
-2.831962265042e-05 7.845371880710e-04 0.0 
0.0 0.0 -1.182925860037e-04 
-1.362566173497e-04 -2.854051389334e-05 0.0 
-2.854051389334e-05 9.069235503698e-04 0.0 
0.0 0.0 -1.359850532410e-04 
-7.919830953849e-05 -2.789069310031e-05 0.0 
-2.789069310031e-05 5.092955845790e-04 0.0 
0.0 0.0 -7.902140106529e-05 
-1.521909368861e-04 3.155873557746e-05 0.0 
3.155873557746e-05 1.007096083567e-03 0.0 
0.0 0.0 -1.519844081269e-04 
-1.132987595353e-04 2.834154396761e-05 0.0 
2.834154396761e-05 7.356229622935e-04 0.0 
0.0 0.0 -1.132306032040e-04 
-1.320680958621e-04 2.867292103990e-05 0.0 
2.867292103990e-05 8.674712725503e-04 0.0 
0.0 0.0 -1.321542253869e-04 
-1.368300496681e-04 2.752968636588e-05 0.0 
2.752968636588e-05 8.977721242010e-04 0.0 
0.0 0.0 -1.363712481195e-04 
-2.669160915437e-05 -1.546272424362e-05 0.0 
-1.546272424362e-05 1.161110005952e-04 0.0 
0.0 0.0 -2.089024115593e-05 
-1.363872734664e-04 3.073615465078e-05 0.0 
3.073615465078e-05 8.982822443154e-04 0.0 
0.0 0.0 -1.362374425583e-04 
-3.196098953400e-05 -3.152710847565e-05 0.0 
-3.152710847565e-05 1.832351866553e-04 0.0 
0.0 0.0 -3.246432735143e-05 
-3.780823483309e-05 3.089859502925e-05 0.0 
3.089859502925e-05 2.040662805879e-04 0.0 
0.0 0.0 -3.615541251042e-05 
-1.264532196870e-04 2.805256790047e-05 0.0 
2.805256790047e-05 8.282811887478e-04 0.0 
0.0 0.0 -1.265710825771e-04 
-1.650927065987e-04 -2.992799550430e-05 0.0 
-2.992799550430e-05 1.105940052269e-03 0.0 
0.0 0.0 -1.647532235908e-04 
-1.400518033137e-04 2.658927901254e-05 0.0 
2.658927901254e-05 9.276103799496e-04 0.0 
0.0 0.0 -1.408132903889e-04 
-7.975221115210e-05 -2.926681587233e-05 0.0 
-2.926681587233e-05 5.061325512957e-04 0.0 
0.0 0.0 -7.822954250360e-05 
-2.013483297690e-04 2.032612637039e-06 0.0 
2.032612637039e-06 1.329003344546e-03 0.0 
0.0 0.0 -2.013483297690e-04 
-1.035627632493e-05 2.012317785662e-05 0.0 
2.012317785662e-05 3.911320943316e-05 0.0 
0.0 0.0 -1.232439990353e-05 
-8.383816084979e-05 -1.994127170537e-05 0.0 
-1.994127170537e-05 5.413626143026e-04 0.0 
0.0 0.0 -8.324708519681e-05 
-1.271654449798e-04 2.783994873367e-05 0.0 
2.783994873367e-05 8.320575259278e-04 0.0 
0.0 0.0 -1.270911103786e-04 
-1.205324376648e-04 -2.929888805432e-05 0.0 
-2.929888805432e-05 8.005519843789e-04 0.0 
0.0 0.0 -1.206387729067e-04 
-1.013602283131e-04 -2.480997680423e-05 0.0 
-2.480997680423e-05 6.640206223424e-04 0.0 
0.0 0.0 -1.009985469804e-04 
-8.871913647433e-05 2.734607712163e-05 0.0 
2.734607712163e-05 5.647906116567e-04 0.0 
0.0 0.0 -8.863076730824e-05 
-1.311043943365e-04 -2.976717297625e-05 0.0 
-2.976717297625e-05 8.719910144079e-04 0.0 
0.0 0.0 -1.310072861357e-04 
-1.389619207248e-04 -2.862329341105e-05 0.0 
-2.862329341105e-05 9.281576540868e-04 0.0 
0.0 0.0 -1.390016920470e-04 
-1.460738362541e-04 3.043025274219e-05 0.0 
3.043025274219e-05 9.676325484449e-04 0.0 
0.0 0.0 -1.460128267758e-04 
-1.732762100729e-04 3.047090098963e-05 0.0 
3.047090098963e-05 1.141214836478e-03 0.0 
0.0 0.0 -1.716453415534e-04 
-4.497460723320e-05 2.726656903271e-05 0.0 
2.726656903271e-05 2.561921516371e-04 0.0 
0.0 0.0 -4.464496721659e-05 
-1.166209944052e-04 2.853466779788e-05 0.0 
2.853466779788e-05 7.601119053809e-04 0.0 
0.0 0.0 -1.167719096664e-04 
-1.253239379370e-04 2.802640912089e-05 0.0 
2.802640912089e-05 8.204946388047e-04 0.0 
0.0 0.0 -1.253423245625e-04 
-6.775366326737e-05 -3.048229866519e-05 0.0 
-3.048229866519e-05 4.346213084644e-04 0.0 
0.0 0.0 -6.816034660215e-05 
-1.127220931764e-04 3.280867731043e-05 0.0 
3.280867731043e-05 7.331832316127e-04 0.0 
0.0 0.0 -1.127715562385e-04 
-1.406419564968e-04 -3.010518963226e-05 0.0 
-3.010518963226e-05 9.368893413982e-04 0.0 
0.0 0.0 -1.404347219739e-04 
-1.530603703096e-04 -2.920298263434e-05 0.0 
-2.920298263434e-05 1.018521684544e-03 0.0 
0.0 0.0 -1.535177820318e-04 
-2.288599488340e-05 1.289972043286e-06 0.0 
1.289972043286e-06 1.500050201402e-04 0.0 
0.0 0.0 -2.407863984352e-05 
-1.904718743730e-05 -3.796502735245e-05 0.0 
-3.796502735245e-05 7.353718879473e-05 0.0 
0.0 0.0 -1.778391308807e-05 
-4.862036817725e-05 -2.764492479964e-05 0.0 
-2.764492479964e-05 3.006710189870e-04 0.0 
0.0 0.0 -4.850561850037e-05 
-1.250248464412e-04 -2.908499407456e-05 0.0 
-2.908499407456e-05 8.306354519711e-04 0.0 
0.0 0.0 -1.249513133117e-04 
-9.487833492244e-05 -2.821982749961e-05 0.0 
-2.821982749961e-05 6.208435078207e-04 0.0 
0.0 0.0 -9.483030114460e-05 
-8.410233070287e-05 -2.754579270561e-05 0.0 
-2.754579270561e-05 5.457436342908e-04 0.0 
0.0 0.0 -8.407979340540e-05 
-7.564452835468e-05 -2.812380315554e-05 0.0 
-2.812380315554e-05 4.861034660231e-04 0.0 
0.0 0.0 -7.562371400132e-05 
-1.308199925164e-04 2.795456765413e-05 0.0 
2.795456765413e-05 8.583699019635e-04 0.0 
0.0 0.0 -1.308200345188e-04 
-1.492653203134e-04 2.795966396730e-05 0.0 
2.795966396730e-05 9.867209101107e-04 0.0 
0.0 0.0 -1.493429779604e-04 
-1.297619321001e-04 2.813153916154e-05 0.0 
2.813153916154e-05 8.505758307982e-04 0.0 
0.0 0.0 -1.296493136919e-04 
-9.537410332307e-05 2.792962789421e-05 0.0 
2.792962789421e-05 6.106733548119e-04 0.0 
0.0 0.0 -9.522910944095e-05 
-1.456775150903e-04 -3.018176577816e-05 0.0 
-3.018176577816e-05 9.731377158713e-04 0.0 
0.0 0.0 -1.454913560695e-04 
-1.215295702296e-04 2.461975315803e-05 0.0 
2.461975315803e-05 8.148115380054e-04 0.0 
0.0 0.0 -1.235433054540e-04 
-1.607975492377e-04 3.196445582729e-05 0.0 
3.196445582729e-05 1.071803692603e-03 0.0 
0.0 0.0 -1.614296353785e-04 
-1.294007234012e-04 -2.913608251421e-05 0.0 
-2.913608251421e-05 8.607493369835e-04 0.0 
0.0 0.0 -1.292646442145e-04 
-1.305405341983e-04 -2.882629630394e-05 0.0 
-2.882629630394e-05 8.689129694931e-04 0.0 
0.0 0.0 -1.304223873054e-04 
-6.968339329854e-05 -2.972888482406e-05 0.0 
-2.972888482406e-05 4.334906827197e-04 0.0 
0.0 0.0 -6.822727741190e-05 
-9.912831729497e-05 -2.796137707004e-05 0.0 
-2.796137707004e-05 6.504811582310e-04 0.0 
0.0 0.0 -9.898428703081e-05 
-1.338904054535e-04 2.764565306312e-05 0.0 
2.764565306312e-05 8.796508899650e-04 0.0 
0.0 0.0 -1.339603927656e-04 
-1.451942325546e-04 2.545422836756e-05 0.0 
2.545422836756e-05 9.593435678016e-04 0.0 
0.0 0.0 -1.442355194375e-04 
-1.361868027580e-04 2.709053506538e-05 0.0 
2.709053506538e-05 9.012697796478e-04 0.0 
0.0 0.0 -1.345837404303e-04 
-7.449260603113e-05 -2.324565781608e-05 0.0 
-2.324565781608e-05 4.730958793735e-04 0.0 
0.0 0.0 -7.319231467821e-05 
-1.351502038915e-04 2.830190167801e-05 0.0 
2.830190167801e-05 8.885438377553e-04 0.0 
0.0 0.0 -1.351067771782e-04 
-8.277379542059e-05 -2.675056815443e-05 0.0 
-2.675056815443e-05 5.366126160003e-04 0.0 
0.0 0.0 -8.276526902223e-05 
-4.268302624522e-05 2.966411434536e-05 0.0 
2.966411434536e-05 2.450626322876e-04 0.0 
0.0 0.0 -4.217020858377e-05 
-1.783377964353e-04 -2.878462420289e-05 0.0 
-2.878462420289e-05 1.216695363592e-03 0.0 
0.0 0.0 -1.804362660462e-04 
-4.529678387534e-05 2.926161683405e-05 0.0 
2.926161683405e-05 2.590325448345e-04 0.0 
0.0 0.0 -4.529806102550e-05 
-8.742939480876e-05 2.790769408488e-05 0.0 
2.790769408488e-05 5.558475884308e-04 0.0 
0.0 0.0 -8.733313829944e-05 
-1.317265343520e-04 -2.980209858436e-05 0.0 
-2.980209858436e-05 8.750838916963e-04 0.0 
0.0 0.0 -1.314978247514e-04 
-7.591084973546e-05 2.107875529606e-05 0.0 
2.107875529606e-05 4.931826175602e-04 0.0 
0.0 0.0 -7.859944172783e-05 
-1.334719851974e-04 -2.966915358544e-05 0.0 
-2.966915358544e-05 8.920345164479e-04 0.0 
0.0 0.0 -1.335848452069e-04 
-6.387562636780e-05 -3.268343600872e-05 0.0 
-3.268343600872e-05 4.032800898130e-04 0.0 
0.0 0.0 -6.423763444998e-05 
-1.136812058642e-04 -2.481450603128e-05 0.0 
-2.481450603128e-05 7.554211615018e-04 0.0 
0.0 0.0 -1.173522912428e-04 
-1.350637719422e-04 -2.838472714175e-05 0.0 
-2.838472714175e-05 8.988460543843e-04 0.0 
0.0 0.0 -1.347247148155e-04 
-1.171592619295e-04 -2.801384878721e-05 0.0 
-2.801384878721e-05 7.755561146277e-04 0.0 
0.0 0.0 -1.170018866078e-04 
-1.217089587309e-04 -2.902247236899e-05 0.0 
-2.902247236899e-05 8.097798257773e-04 0.0 
0.0 0.0 -1.219000842292e-04 
-2.184335631700e-05 -1.729926300555e-05 0.0 
-1.729926300555e-05 1.250103729472e-04 0.0 
0.0 0.0 -2.233965624082e-05 
-1.775429286585e-04 -2.993860203194e-05 0.0 
-2.993860203194e-05 1.168952343716e-03 0.0 
0.0 0.0 -1.728850973588e-04 
-9.777928932074e-05 -2.702797086344e-05 0.0 
-2.702797086344e-05 6.417468029030e-04 0.0 
0.0 0.0 -9.771858906392e-05 
-1.742936274983e-04 3.098695444566e-05 0.0 
3.098695444566e-05 1.160612036868e-03 0.0 
0.0 0.0 -1.731059224200e-04 
-1.475958375390e-04 -2.938015971493e-05 0.0 
-2.938015971493e-05 9.867581376832e-04 0.0 
0.0 0.0 -1.473178670231e-04 
-1.394115090974e-04 2.895092753690e-05 0.0 
2.895092753690e-05 9.183306099949e-04 0.0 
0.0 0.0 -1.394094752486e-04 
-1.392759160733e-04 -2.661746757661e-05 0.0 
-2.661746757661e-05 9.284264619517e-04 0.0 
0.0 0.0 -1.390298226761e-04 
-8.994283602845e-05 2.778083834669e-05 0.0 
2.778083834669e-05 5.730895634602e-04 0.0 
0.0 0.0 -8.984374554363e-05 
-2.917258118515e-05 2.376164554401e-05 0.0 
2.376164554401e-05 1.745437757761e-04 0.0 
0.0 0.0 -3.155138587282e-05 
-2.317643182854e-05 1.790083138541e-05 0.0 
1.790083138541e-05 9.845334346925e-05 0.0 
0.0 0.0 -2.398754234351e-05 
-1.432208171698e-04 2.892878557249e-05 0.0 
2.892878557249e-05 9.478265663156e-04 0.0 
0.0 0.0 -1.437459767248e-04 
-1.740260011077e-04 2.826019241499e-05 0.0 
2.826019241499e-05 1.153801197259e-03 0.0 
0.0 0.0 -1.722084272143e-04 
-8.118601345419e-05 -2.611344377703e-05 0.0 
-2.611344377703e-05 5.279662901466e-04 0.0 
0.0 0.0 -8.139371786675e-05 
-1.500944745800e-04 2.850222383989e-05 0.0 
2.850222383989e-05 9.934228736818e-04 0.0 
0.0 0.0 -1.501054273671e-04 
-7.521111464244e-05 2.846605665054e-05 0.0 
2.846605665054e-05 4.657051250380e-04 0.0 
0.0 0.0 -7.503141475880e-05 
-1.512386812048e-04 -2.992568848289e-05 0.0 
-2.992568848289e-05 1.010913185445e-03 0.0 
0.0 0.0 -1.508421041237e-04 
-1.913679647201e-04 1.633067843082e-05 0.0 
1.633067843082e-05 1.304046368860e-03 0.0 
0.0 0.0 -1.899801870201e-04 
-8.107065812765e-06 2.346749919756e-06 0.0 
2.346749919756e-06 3.465691143960e-05 0.0 
0.0 0.0 -6.768710104396e-06 
-2.012431250738e-04 -5.135354168430e-06 0.0 
-5.135354168430e-06 1.328125823973e-03 0.0 
0.0 0.0 -2.012431250738e-04 
-2.010076978229e-04 5.129027623315e-07 0.0 
5.129027623315e-07 1.332224423205e-03 0.0 
0.0 0.0 -2.010076978229e-04 
-1.200525084162e-04 -2.960169498126e-05 0.0 
-2.960169498126e-05 7.774099100136e-04 0.0 
0.0 0.0 -1.193279669386e-04 
-9.640785059628e-05 -2.657435829226e-05 0.0 
-2.657435829226e-05 6.329376874412e-04 0.0 
0.0 0.0 -9.642369099328e-05 
-1.430993903661e-04 -2.855154632445e-05 0.0 
-2.855154632445e-05 9.576101063938e-04 0.0 
0.0 0.0 -1.431539317715e-04 
-9.069725416876e-05 -2.857026822921e-05 0.0 
-2.857026822921e-05 5.911546440220e-04 0.0 
0.0 0.0 -9.061723822400e-05 
-3.022990634783e-05 -2.681786409130e-05 0.0 
-2.681786409130e-05 1.822763229384e-04 0.0 
0.0 0.0 -3.143827221009e-05 
-2.037753453247e-05 -2.478655429001e-05 0.0 
-2.478655429001e-05 8.790842240506e-05 0.0 
0.0 0.0 -1.801817686168e-05 
-1.836175097671e-04 -2.402430245032e-05 0.0 
-2.402430245032e-05 1.223987652140e-03 0.0 
0.0 0.0 -1.814249121503e-04 
-1.450545934085e-04 -3.153145532632e-05 0.0 
-3.153145532632e-05 9.685145142433e-04 0.0 
0.0 0.0 -1.447226300079e-04 
-1.125869054840e-04 -2.748101964700e-05 0.0 
-2.748101964700e-05 7.294325003239e-04 0.0 
0.0 0.0 -1.083718385576e-04 
-1.962159152819e-04 -1.434651956337e-06 0.0 
-1.434651956337e-06 1.365722808943e-03 0.0 
0.0 0.0 -1.985491694924e-04 
-5.585822177885e-05 -3.143630658045e-05 0.0 
-3.143630658045e-05 3.376755851757e-04 0.0 
0.0 0.0 -5.423556500690e-05 
-2.007881053171e-04 -1.726199718447e-06 0.0 
-1.726199718447e-06 1.364640639189e-03 0.0 
0.0 0.0 -1.987362728011e-04 
-1.448517594688e-04 2.793135192776e-05 0.0 
2.793135192776e-05 9.587643079544e-04 0.0 
0.0 0.0 -1.450563315224e-04 
-9.484276981656e-05 -2.674005154729e-05 0.0 
-2.674005154729e-05 6.234132904817e-04 0.0 
0.0 0.0 -9.504591620249e-05 
-1.382279383007e-04 2.787393037445e-05 0.0 
2.787393037445e-05 9.097739666025e-04 0.0 
0.0 0.0 -1.381945852821e-04 
-9.142868377808e-05 2.725850192794e-05 0.0 
2.725850192794e-05 5.832477346610e-04 0.0 
0.0 0.0 -9.142251929393e-05 
-4.742959093977e-05 3.178494059526e-05 0.0 
3.178494059526e-05 2.793740196453e-04 0.0 
0.0 0.0 -4.740468724644e-05 
-8.571259270612e-05 2.828259101351e-05 0.0 
2.828259101351e-05 5.446684396391e-04 0.0 
0.0 0.0 -8.592027974235e-05 
-1.533744480417e-04 2.894142802439e-05 0.0 
2.894142802439e-05 1.015636410024e-03 0.0 
0.0 0.0 -1.535624635791e-04 
-1.726464644829e-04 -3.048637260420e-05 0.0 
-3.048637260420e-05 1.163840887987e-03 0.0 
0.0 0.0 -1.733086171842e-04 
-9.280503597506e-05 2.727322910805e-05 0.0 
2.727322910805e-05 5.925489514016e-04 0.0 
0.0 0.0 -9.272779504641e-05 
-1.556220947506e-04 2.834035430820e-05 0.0 
2.834035430820e-05 1.030951438499e-03 0.0 
0.0 0.0 -1.554407367389e-04 
0.0 0.0 0.0 
0.0 0.0 0.0 
0.0 0.0 0.0 
-9.414991845574e-05 2.689042394907e-05 0.0 
2.689042394907e-05 6.016400273679e-04 0.0 
0.0 0.0 -9.399423243866e-05 
-1.601427960654e-04 -3.089969489527e-05 0.0 
-3.089969489527e-05 1.075322883485e-03 0.0 
0.0 0.0 -1.599578041173e-04 
-8.403714033751e-05 2.869873894183e-05 0.0 
2.869873894183e-05 5.323289088036e-04 0.0 
0.0 0.0 -8.424104700772e-05 
-7.551475753824e-05 -2.649474593413e-05 0.0 
-2.649474593413e-05 4.894460977115e-04 0.0 
0.0 0.0 -7.579321247091e-05 
-1.378493770478e-04 -2.790966319756e-05 0.0 
-2.790966319756e-05 9.196714216363e-04 0.0 
0.0 0.0 -1.378141772466e-04 
-4.197657932346e-05 3.036843921012e-05 0.0 
3.036843921012e-05 2.488746108878e-04 0.0 
0.0 0.0 -4.469345153978e-05 
-6.356553012414e-05 -1.790556961603e-05 0.0 
-1.790556961603e-05 3.571998655218e-04 0.0 
0.0 0.0 -5.800805537474e-05 
-5.963646489739e-05 -2.697912930355e-05 0.0 
-2.697912930355e-05 4.061213774054e-04 0.0 
0.0 0.0 -6.293882513644e-05 
-7.444587698182e-05 2.773637856154e-05 0.0 
2.773637856154e-05 4.649609944167e-04 0.0 
0.0 0.0 -7.460064588462e-05 
-1.268907598115e-04 -2.860718727315e-05 0.0 
-2.860718727315e-05 8.433503837867e-04 0.0 
0.0 0.0 -1.266626700847e-04 
-1.224386685492e-04 2.875829832121e-05 0.0 
2.875829832121e-05 7.993143987396e-04 0.0 
0.0 0.0 -1.222099179032e-04 
-1.550707846259e-04 -3.021300247570e-05 0.0 
-3.021300247570e-05 1.039277942014e-03 0.0 
0.0 0.0 -1.550846054886e-04 
-1.832450820655e-04 1.991288128733e-05 0.0 
1.991288128733e-05 1.215795306098e-03 0.0 
0.0 0.0 -1.836391296960e-04 
-6.655985465225e-05 1.933551370614e-05 0.0 
1.933551370614e-05 4.236408710896e-04 0.0 
0.0 0.0 -6.856221390244e-05 
-1.539423275274e-04 -3.704467856056e-05 0.0 
-3.704467856056e-05 1.025688764769e-03 0.0 
0.0 0.0 -1.542931291103e-04 
-1.848510975897e-04 1.848398553320e-05 0.0 
1.848398553320e-05 1.219703446086e-03 0.0 
0.0 0.0 -1.842621829813e-04 
-8.571771551762e-05 2.855827741082e-05 0.0 
2.855827741082e-05 5.438756567258e-04 0.0 
0.0 0.0 -8.561402555334e-05 
-3.203347885951e-05 3.153292785458e-05 0.0 
3.153292785458e-05 1.785175093333e-04 0.0 
0.0 0.0 -3.288300492123e-05 
-7.987216545887e-05 -2.346764247849e-05 0.0 
-2.346764247849e-05 5.184929031400e-04 0.0 
0.0 0.0 -7.995251146095e-05 
-1.212808198145e-04 -2.827766812275e-05 0.0 
-2.827766812275e-05 8.042920459384e-04 0.0 
0.0 0.0 -1.212446555230e-04 
-1.571887129407e-04 2.934596798488e-05 0.0 
2.934596798488e-05 1.038696799089e-03 0.0 
0.0 0.0 -1.564536520703e-04 
-1.218972312950e-04 2.856394456649e-05 0.0 
2.856394456649e-05 7.946681320418e-04 0.0 
0.0 0.0 -1.216241541690e-04 
-3.687132775950e-05 -1.707295352198e-05 0.0 
-1.707295352198e-05 2.178919936982e-04 0.0 
0.0 0.0 -3.514573890614e-05 
-1.365304663594e-04 -3.020632721963e-05 0.0 
-3.020632721963e-05 9.106175701847e-04 0.0 
0.0 0.0 -1.364410292409e-04 
-5.340251844815e-05 3.227075763275e-05 0.0 
3.227075763275e-05 3.197704478175e-04 0.0 
0.0 0.0 -5.262769246444e-05 
-1.221027789088e-04 -2.890393133813e-05 0.0 
-2.890393133813e-05 8.084198513028e-04 0.0 
0.0 0.0 -1.218536047623e-04 
-1.315166503229e-04 3.036725150384e-05 0.0 
3.036725150384e-05 8.626782461118e-04 0.0 
0.0 0.0 -1.313414595827e-04 
-1.426434875643e-04 2.845461346825e-05 0.0 
2.845461346825e-05 9.398077750181e-04 0.0 
0.0 0.0 -1.423708775668e-04 
-1.391130870296e-04 -2.561595399108e-05 0.0 
-2.561595399108e-05 9.319163416573e-04 0.0 
0.0 0.0 -1.424111980137e-04 
-7.359597002428e-05 -2.624347751830e-05 0.0 
-2.624347751830e-05 4.769960883137e-04 0.0 
0.0 0.0 -7.400431453448e-05 
-3.726862459375e-05 2.779553031089e-05 0.0 
2.779553031089e-05 2.059200017464e-04 0.0 
0.0 0.0 -3.689331396917e-05 
-1.412883241773e-04 3.117267937368e-05 0.0 
3.117267937368e-05 9.320815795036e-04 0.0 
0.0 0.0 -1.412299401741e-04 
-5.695030605691e-05 2.980577594809e-05 0.0 
2.980577594809e-05 3.524536248651e-04 0.0 
0.0 0.0 -5.785728901387e-05 
-1.619887946569e-05 3.142044942513e-05 0.0 
3.142044942513e-05 6.578946746101e-05 0.0 
0.0 0.0 -1.807788326025e-05 
-1.825504858472e-04 2.573963131551e-05 0.0 
2.573963131551e-05 1.217305172889e-03 0.0 
0.0 0.0 -1.835083836816e-04 
-1.729233565602e-04 2.872122229116e-05 0.0 
2.872122229116e-05 1.159887577617e-03 0.0 
0.0 0.0 -1.736153457326e-04 
-1.409164917213e-05 -2.430425574027e-06 0.0 
-2.430425574027e-06 4.702851798331e-05 0.0 
0.0 0.0 -1.411580091908e-05 
-1.463665932977e-04 -3.126704961804e-05 0.0 
-3.126704961804e-05 9.787427797795e-04 0.0 
0.0 0.0 -1.463746444899e-04 
-5.845062236023e-05 -2.645214861765e-05 0.0 
-2.645214861765e-05 3.686249821293e-04 0.0 
0.0 0.0 -5.830856659963e-05 
-6.281564360845e-05 3.169608016734e-05 0.0 
3.169608016734e-05 3.841253318981e-04 0.0 
0.0 0.0 -6.293782921230e-05 
-1.650668794472e-04 2.900743383490e-05 0.0 
2.900743383490e-05 1.099051719168e-03 0.0 
0.0 0.0 -1.651106757487e-04 
-1.420507125182e-04 -2.816985865578e-05 0.0 
-2.816985865578e-05 9.486624777595e-04 0.0 
0.0 0.0 -1.420128425420e-04 
-1.597126278327e-04 2.832051794153e-05 0.0 
2.832051794153e-05 1.060784632571e-03 0.0 
0.0 0.0 -1.597282110823e-04 
-9.370204679761e-05 -2.720544142818e-05 0.0 
-2.720544142818e-05 6.123683048539e-04 0.0 
0.0 0.0 -9.358332744048e-05 
-1.060009958935e-04 3.119096932655e-06 0.0 
3.119096932655e-06 7.289348751363e-04 0.0 
0.0 0.0 -1.065887642422e-04 
-1.941219239478e-04 -5.797046838501e-06 0.0 
-5.797046838501e-06 1.266619729961e-03 0.0 
0.0 0.0 -1.922307546206e-04 
-5.313245642963e-05 3.042191767076e-05 0.0 
3.042191767076e-05 3.144966903172e-04 0.0 
0.0 0.0 -5.312725273093e-05 
-1.687809558173e-04 -2.631258109430e-05 0.0 
-2.631258109430e-05 1.128223470622e-03 0.0 
0.0 0.0 -1.681832374459e-04 
-1.273764443761e-04 -2.878158037897e-05 0.0 
-2.878158037897e-05 8.455758404914e-04 0.0 
0.0 0.0 -1.271565067773e-04 
-3.822255344261e-05 2.500156110728e-05 0.0 
2.500156110728e-05 2.364164359659e-04 0.0 
0.0 0.0 -4.338531818388e-05 
-1.526166386163e-04 2.805935182056e-05 0.0 
2.805935182056e-05 1.007602313688e-03 0.0 
0.0 0.0 -1.522749921841e-04 
-9.947746693308e-05 2.785738393031e-05 0.0 
2.785738393031e-05 6.395594624911e-04 0.0 
0.0 0.0 -9.942043292989e-05 
-2.527098467302e-05 3.065658406321e-06 0.0 
3.065658406321e-06 1.096951272292e-04 0.0 
0.0 0.0 -2.686452779226e-05 
-8.455323570062e-05 2.729291629105e-05 0.0 
2.729291629105e-05 5.361235094493e-04 0.0 
0.0 0.0 -8.448194383576e-05 
-1.482631539770e-04 2.903868462658e-05 0.0 
2.903868462658e-05 9.945552025979e-04 0.0 
0.0 0.0 -1.487312575846e-04 
-1.536438978435e-04 -2.997531100621e-05 0.0 
-2.997531100621e-05 1.028351940357e-03 0.0 
0.0 0.0 -1.531470540813e-04 
-4.003077281978e-05 -2.830715996030e-05 0.0 
-2.830715996030e-05 2.471369193858e-04 0.0 
0.0 0.0 -4.069786302508e-05 
-1.167976821101e-04 -1.770134624163e-05 0.0 
-1.770134624163e-05 8.139301953201e-04 0.0 
0.0 0.0 -1.211443205810e-04 
-1.611165232338e-04 2.978772478272e-05 0.0 
2.978772478272e-05 1.070172218379e-03 0.0 
0.0 0.0 -1.607673801326e-04 
-1.654344347163e-04 -2.702413096073e-05 0.0 
-2.702413096073e-05 1.117079121565e-03 0.0 
0.0 0.0 -1.664840065771e-04 
-8.012874751740e-05 2.708679385402e-05 0.0 
2.708679385402e-05 5.044541792441e-04 0.0 
0.0 0.0 -8.027607217676e-05 
-6.457567760665e-05 2.897485867730e-05 0.0 
2.897485867730e-05 3.931630492274e-04 0.0 
0.0 0.0 -6.500901228656e-05 
-1.319964825975e-04 2.994843719676e-05 0.0 
2.994843719676e-05 8.668112520758e-04 0.0 
0.0 0.0 -1.317940137408e-04 
-1.379973298544e-04 -3.231272729127e-05 0.0 
-3.231272729127e-05 9.176099760799e-04 0.0 
0.0 0.0 -1.391846276019e-04 
-2.511391392826e-05 -2.252014201736e-06 0.0 
-2.252014201736e-06 1.091572524748e-04 0.0 
0.0 0.0 -2.644390370036e-05 
-1.911173997413e-04 2.513512913463e-07 0.0 
2.513512913463e-07 1.307038771946e-03 0.0 
0.0 0.0 -1.903768894597e-04 
-1.947762233824e-04 2.804254327122e-06 0.0 
2.804254327122e-06 1.266513292292e-03 0.0 
0.0 0.0 -1.921796786394e-04 
-1.243941132727e-04 -2.875762744524e-05 0.0 
-2.875762744524e-05 8.122420463557e-04 0.0 
0.0 0.0 -1.258162180156e-04 
-1.867429468804e-04 -3.423015533406e-05 0.0 
-3.423015533406e-05 1.277419804644e-03 0.0 
0.0 0.0 -1.882556412575e-04 
-1.928393192665e-04 1.313739391776e-05 0.0 
1.313739391776e-05 1.270533835261e-03 0.0 
0.0 0.0 -1.928249870753e-04 
-9.825942552837e-05 2.769137061349e-05 0.0 
2.769137061349e-05 6.308847079493e-04 0.0 
0.0 0.0 -9.814123251156e-05 
-9.240950567659e-05 -2.688842748606e-05 0.0 
-2.688842748606e-05 6.034653479681e-04 0.0 
0.0 0.0 -9.230175702903e-05 
-1.924550016248e-04 -5.517505549701e-06 0.0 
-5.517505549701e-06 1.309202189480e-03 0.0 
0.0 0.0 -1.898303498781e-04 
0.0 0.0 0.0 
0.0 0.0 0.0 
0.0 0.0 0.0 
-5.986600181462e-05 3.134474346182e-05 0.0 
3.134474346182e-05 3.637594613067e-04 0.0 
0.0 0.0 -5.912561730725e-05 
-1.277191406744e-04 3.185114804781e-05 0.0 
3.185114804781e-05 8.113680378929e-04 0.0 
0.0 0.0 -1.249421346972e-04 
-7.954199844612e-05 -2.599168722282e-05 0.0 
-2.599168722282e-05 5.172406604270e-04 0.0 
0.0 0.0 -7.970319495692e-05 
-8.344577563047e-05 2.767374510833e-05 0.0 
2.767374510833e-05 5.269368746357e-04 0.0 
0.0 0.0 -8.320397106721e-05 
-5.123352415357e-05 -1.962082412885e-05 0.0 
-1.962082412885e-05 2.833973025222e-04 0.0 
0.0 0.0 -4.794777681703e-05 
-5.363517740645e-05 -2.722736862369e-05 0.0 
-2.722736862369e-05 3.397176592673e-04 0.0 
0.0 0.0 -5.292094912726e-05 
-1.229699465830e-04 -2.474218581881e-05 0.0 
-2.474218581881e-05 8.338820409090e-04 0.0 
0.0 0.0 -1.243503989146e-04 
-8.954054874187e-05 -2.810899154469e-05 0.0 
-2.810899154469e-05 5.833404363378e-04 0.0 
0.0 0.0 -8.944382273678e-05 
-6.985122537492e-05 2.547846832151e-05 0.0 
2.547846832151e-05 4.232868362094e-04 0.0 
0.0 0.0 -6.875210277632e-05 
-1.622986423916e-04 3.030474729067e-05 0.0 
3.030474729067e-05 1.075790270672e-03 0.0 
0.0 0.0 -1.616748170441e-04 
-1.970457297167e-04 -4.615350947608e-07 0.0 
-4.615350947608e-07 1.365353191212e-03 0.0 
0.0 0.0 -1.987468137814e-04 
-2.011643228250e-04 -1.059779547839e-05 0.0 
-1.059779547839e-05 1.364052595584e-03 0.0 
0.0 0.0 -1.980937377599e-04 
-9.693254618166e-05 2.783443467965e-05 0.0 
2.783443467965e-05 6.218009159431e-04 0.0 
0.0 0.0 -9.686140561256e-05 
-1.156312054849e-04 1.562675777246e-05 0.0 
1.562675777246e-05 7.473137010807e-04 0.0 
0.0 0.0 -1.181631233816e-04 
-1.315446083417e-05 9.267234980748e-06 0.0 
9.267234980748e-06 7.174483292748e-05 0.0 
0.0 0.0 -1.382283957119e-05 
-3.950432290439e-05 -3.304652588177e-05 0.0 
-3.304652588177e-05 2.232498512061e-04 0.0 
0.0 0.0 -3.848526569788e-05 
-4.026754611448e-05 -1.523950676683e-05 0.0 
-1.523950676683e-05 2.585395099571e-04 0.0 
0.0 0.0 -4.089435477168e-05 
-4.405717477573e-05 -2.840252196370e-05 0.0 
-2.840252196370e-05 2.593828358352e-04 0.0 
0.0 0.0 -4.353896887732e-05 
-1.369891124347e-04 -2.938640967182e-05 0.0 
-2.938640967182e-05 9.110848461242e-04 0.0 
0.0 0.0 -1.367406709454e-04 
-8.197230901988e-05 2.741985235272e-05 0.0 
2.741985235272e-05 5.176025942286e-04 0.0 
0.0 0.0 -8.189493801327e-05 
-8.833783776842e-05 -2.742859021068e-05 0.0 
-2.742859021068e-05 5.752104247670e-04 0.0 
0.0 0.0 -8.819787836180e-05 
-2.759805077317e-05 -2.177954618106e-05 0.0 
-2.177954618106e-05 1.516326812049e-04 0.0 
0.0 0.0 -2.410601229523e-05 
-1.783949706295e-04 4.652042299768e-06 0.0 
4.652042299768e-06 1.155328432911e-03 0.0 
0.0 0.0 -1.764490618968e-04 
-8.697929300319e-05 -2.712992243026e-05 0.0 
-2.712992243026e-05 5.660070619168e-04 0.0 
0.0 0.0 -8.689161518363e-05 
-1.811862770176e-04 2.958422209347e-05 0.0 
2.958422209347e-05 1.212546250600e-03 0.0 
0.0 0.0 -1.819436774484e-04 
-1.654326848783e-04 -2.150075195991e-05 0.0 
-2.150075195991e-05 1.111682717818e-03 0.0 
0.0 0.0 -1.676190675002e-04 
-1.990579489887e-04 7.558524711792e-06 0.0 
7.558524711792e-06 1.367618541641e-03 0.0 
0.0 0.0 -1.979127976728e-04 
-1.984740657803e-04 6.169813976071e-06 0.0 
6.169813976071e-06 1.366684838106e-03 0.0 
0.0 0.0 -1.987274449783e-04 
-1.264382104229e-04 2.327908082404e-05 0.0 
2.327908082404e-05 8.335131054815e-04 0.0 
0.0 0.0 -1.247270797671e-04 
-9.081273998971e-05 -2.642393334738e-05 0.0 
-2.642393334738e-05 5.943836386239e-04 0.0 
0.0 0.0 -9.095240399918e-05 
-5.659837629473e-05 2.310276724227e-05 0.0 
2.310276724227e-05 3.554825826269e-04 0.0 
0.0 0.0 -5.827376162698e-05 
-9.543789626242e-05 2.821234483008e-05 0.0 
2.821234483008e-05 6.121934733358e-04 0.0 
0.0 0.0 -9.551854370315e-05 
-2.014992525440e-04 -3.363348043908e-06 0.0 
-3.363348043908e-06 1.330768717372e-03 0.0 
0.0 0.0 -2.014992525441e-04 
-2.911856940717e-05 -3.120254985375e-05 0.0 
-3.120254985375e-05 1.523266154115e-04 0.0 
0.0 0.0 -2.840051313461e-05 
-3.367815072839e-05 -2.539476975202e-05 0.0 
-2.539476975202e-05 1.888854888445e-04 0.0 
0.0 0.0 -3.342821812567e-05 
-1.750673059660e-04 -2.242675268741e-05 0.0 
-2.242675268741e-05 1.168754862597e-03 0.0 
0.0 0.0 -1.734041932760e-04 
-1.140629508000e-04 1.641024004697e-06 0.0 
1.641024004697e-06 7.886218254393e-04 0.0 
0.0 0.0 -1.157284414847e-04 
-1.828276393895e-04 3.087967014604e-05 0.0 
3.087967014604e-05 1.221678860241e-03 0.0 
0.0 0.0 -1.828919613360e-04 
-1.607219730026e-04 -3.054484747269e-05 0.0 
-3.054484747269e-05 1.076626864861e-03 0.0 
0.0 0.0 -1.604417944905e-04 
-1.759974315114e-04 2.950983775753e-05 0.0 
2.950983775753e-05 1.175337678647e-03 0.0 
0.0 0.0 -1.762554578086e-04 
-1.677687622884e-04 -3.310916950601e-05 0.0 
-3.310916950601e-05 1.126220187005e-03 0.0 
0.0 0.0 -1.670365378361e-04 
-1.261810872000e-04 2.733892666963e-05 0.0 
2.733892666963e-05 8.227216474371e-04 0.0 
0.0 0.0 -1.281412631256e-04 
-6.984160407426e-05 -2.569852845702e-05 0.0 
-2.569852845702e-05 4.502664572317e-04 0.0 
0.0 0.0 -7.011576570921e-05 
-7.045526019658e-05 2.772076042237e-05 0.0 
2.772076042237e-05 4.380896674180e-04 0.0 
0.0 0.0 -7.073545507566e-05 
-1.466548664850e-04 2.792940741624e-05 0.0 
2.792940741624e-05 9.823660011168e-04 0.0 
0.0 0.0 -1.494458990106e-04 
-1.706023771645e-04 -3.477697252798e-05 0.0 
-3.477697252798e-05 1.150206027511e-03 0.0 
0.0 0.0 -1.713759566437e-04 
-1.085001106667e-04 5.928666841059e-06 0.0 
5.928666841059e-06 6.853690661460e-04 0.0 
0.0 0.0 -1.101783339608e-04 
-1.150649004483e-04 1.412858253897e-06 0.0 
1.412858253897e-06 7.864362268725e-04 0.0 
0.0 0.0 -1.151410349708e-04 
-1.223216217609e-04 -9.643435354381e-06 0.0 
-9.643435354381e-06 8.365929199838e-04 0.0 
0.0 0.0 -1.236345454382e-04 
-1.294729616351e-04 -3.600365409418e-05 0.0 
-3.600365409418e-05 8.499666954327e-04 0.0 
0.0 0.0 -1.270110218628e-04 
-3.781341392471e-05 2.507622857635e-05 0.0 
2.507622857635e-05 2.052845259731e-04 0.0 
0.0 0.0 -3.595854163006e-05 
-6.458682171984e-05 2.659164458955e-05 0.0 
2.659164458955e-05 3.972184272214e-04 0.0 
0.0 0.0 -6.502768632134e-05 
-1.923886982600e-04 1.320998767323e-05 0.0 
1.320998767323e-05 1.306937799646e-03 0.0 
0.0 0.0 -1.903965550180e-04 
-1.361980047059e-04 -3.247265742576e-05 0.0 
-3.247265742576e-05 9.100748945017e-04 0.0 
0.0 0.0 -1.372586556570e-04 
-1.944603101426e-04 2.205610195430e-05 0.0 
2.205610195430e-05 1.300606094326e-03 0.0 
0.0 0.0 -1.942983085767e-04 
-1.827075834453e-04 -2.487186144062e-05 0.0 
-2.487186144062e-05 1.245028194062e-03 0.0 
0.0 0.0 -1.823366321910e-04 
-1.526241956249e-04 -2.882515710348e-05 0.0 
-2.882515710348e-05 1.018355065020e-03 0.0 
0.0 0.0 -1.518848343264e-04 
-1.838055376607e-04 -2.220867482896e-05 0.0 
-2.220867482896e-05 1.227930453973e-03 0.0 
0.0 0.0 -1.822360600334e-04 
-9.189141723329e-05 2.249896247985e-05 0.0 
2.249896247985e-05 5.929179490977e-04 0.0 
0.0 0.0 -9.456744988920e-05 
-8.923687427635e-05 2.330452976089e-05 0.0 
2.330452976089e-05 5.640846174988e-04 0.0 
0.0 0.0 -8.500284120953e-05 
-1.860377161479e-04 2.101899850403e-05 0.0 
2.101899850403e-05 1.219211786622e-03 0.0 
0.0 0.0 -1.840276857211e-04 
-1.302266885565e-05 9.542950408396e-06 0.0 
9.542950408396e-06 4.432884133333e-05 0.0 
0.0 0.0 -1.341693106186e-05 
-5.991703112053e-05 -9.650650547908e-06 0.0 
-9.650650547908e-06 3.995700475142e-04 0.0 
0.0 0.0 -6.107461134110e-05 
-2.013608632250e-04 -1.747935064146e-06 0.0 
-1.747935064146e-06 1.327091793787e-03 0.0 
0.0 0.0 -2.013608632250e-04 
-3.423275746667e-05 -2.897869870394e-05 0.0 
-2.897869870394e-05 1.741934079208e-04 0.0 
0.0 0.0 -3.398704224317e-05 
-1.166987184465e-04 3.376260708005e-06 0.0 
3.376260708005e-06 7.464150060637e-04 0.0 
0.0 0.0 -1.180517715949e-04 
-1.852951862543e-04 -6.895901531865e-06 0.0 
-6.895901531865e-06 1.252882415007e-03 0.0 
0.0 0.0 -1.820192905179e-04 
-2.189567273794e-05 2.107266617838e-05 0.0 
2.107266617838e-05 1.234442803628e-04 0.0 
0.0 0.0 -2.343543478003e-05 
-1.465373239062e-05 -6.700273643796e-06 0.0 
-6.700273643796e-06 8.151640789741e-05 0.0 
0.0 0.0 -1.499806864391e-05 
-1.979646109231e-04 -1.647947049056e-05 0.0 
-1.647947049056e-05 1.362929175419e-03 0.0 
0.0 0.0 -1.986584787576e-04 
-1.077110760694e-04 1.347870292468e-05 0.0 
1.347870292468e-05 6.884288505410e-04 0.0 
0.0 0.0 -1.094181415373e-04 
-1.878064882795e-04 3.303246132633e-05 0.0 
3.303246132633e-05 1.280874072015e-03 0.0 
0.0 0.0 -1.892127523904e-04 
-1.872574646803e-04 1.669387870556e-06 0.0 
1.669387870556e-06 1.214710811889e-03 0.0 
0.0 0.0 -1.847787516803e-04 
-1.081384153803e-04 -8.265982315710e-06 0.0 
-8.265982315710e-06 6.863175329085e-04 0.0 
0.0 0.0 -1.093391956339e-04 
-1.183108474329e-05 -1.526745450730e-06 0.0 
-1.526745450730e-06 8.288041116295e-05 0.0 
0.0 0.0 -1.461037633882e-05 
-1.928461778371e-04 -1.450363078147e-05 0.0 
-1.450363078147e-05 1.269631515360e-03 0.0 
0.0 0.0 -1.926211076318e-04 
-3.664328028393e-05 -3.474192895717e-05 0.0 
-3.474192895717e-05 2.008554549357e-04 0.0 
0.0 0.0 -3.650318340572e-05 
-1.865092181227e-04 1.872239000524e-05 0.0 
1.872239000524e-05 1.228864859043e-03 0.0 
0.0 0.0 -1.848276476440e-04 
-2.014642658289e-04 -8.318866801392e-08 0.0 
-8.318866801392e-08 1.329164711416e-03 0.0 
0.0 0.0 -2.014642658289e-04 
-1.863725232052e-04 -2.215017484820e-05 0.0 
-2.215017484820e-05 1.224672282405e-03 0.0 
0.0 0.0 -1.838550531888e-04 
-4.579760219593e-05 2.993393437161e-05 0.0 
2.993393437161e-05 2.630911927245e-04 0.0 
0.0 0.0 -4.567146191493e-05 
-1.231376912533e-04 3.302421736628e-06 0.0 
3.302421736628e-06 8.455036824614e-04 0.0 
0.0 0.0 -1.241871602230e-04 
-9.897320674459e-05 -1.982042870943e-05 0.0 
-1.982042870943e-05 6.300759750379e-04 0.0 
0.0 0.0 -9.407984802336e-05 
-1.609514246157e-04 -3.024200816091e-05 0.0 
-3.024200816091e-05 1.078541844928e-03 0.0 
0.0 0.0 -1.616399041023e-04 
-1.984206323310e-04 -1.383870975889e-05 0.0 
-1.383870975889e-05 1.364918109129e-03 0.0 
0.0 0.0 -1.990496603105e-04 
-1.603101285724e-04 1.893623053607e-05 0.0 
1.893623053607e-05 1.069942872822e-03 0.0 
0.0 0.0 -1.592422372747e-04 
-2.006038303863e-04 1.656223959945e-05 0.0 
1.656223959945e-05 1.363483438763e-03 0.0 
0.0 0.0 -1.988805961511e-04 
-2.157799468526e-05 2.675018284335e-05 0.0 
2.675018284335e-05 1.121671203490e-04 0.0 
0.0 0.0 -2.573693149021e-05 
-1.906849838871e-04 -1.873571465641e-05 0.0 
-1.873571465641e-05 1.306053010621e-03 0.0 
0.0 0.0 -1.916484765783e-04 
-5.146266627946e-05 1.897216913104e-05 0.0 
1.897216913104e-05 3.060778228498e-04 0.0 
0.0 0.0 -5.033941334868e-05 
-3.400990015803e-05 1.312678026193e-05 0.0 
1.312678026193e-05 1.676110055634e-04 0.0 
0.0 0.0 -3.447177322316e-05 
-1.921352674404e-04 -1.514543928923e-05 0.0 
-1.514543928923e-05 1.307880338866e-03 0.0 
0.0 0.0 -1.905503066306e-04 
-1.903818942750e-04 -8.555148187785e-06 0.0 
-8.555148187785e-06 1.309224873111e-03 0.0 
0.0 0.0 -1.905905039252e-04 
-1.935313273260e-04 -2.488564283104e-05 0.0 
-2.488564283104e-05 1.299799287321e-03 0.0 
0.0 0.0 -1.934776258129e-04 
-1.157635836836e-04 3.075917002700e-05 0.0 
3.075917002700e-05 7.564878727472e-04 0.0 
0.0 0.0 -1.164394980702e-04 
-1.278320406392e-04 3.003959765809e-05 0.0 
3.003959765809e-05 8.242995150328e-04 0.0 
0.0 0.0 -1.273429404365e-04 
-4.747607610046e-05 -3.167630139555e-05 0.0 
-3.167630139555e-05 2.832612339686e-04 0.0 
0.0 0.0 -4.701750159920e-05 
-1.893682873149e-04 -1.213845527048e-05 0.0 
-1.213845527048e-05 1.308095530746e-03 0.0 
0.0 0.0 -1.909562210215e-04 
-7.758444785249e-05 2.579970670889e-05 0.0 
2.579970670889e-05 5.061981746731e-04 0.0 
0.0 0.0 -8.036225567980e-05 
-2.672886924063e-05 -2.537961056617e-05 0.0 
-2.537961056617e-05 1.614624818245e-04 0.0 
0.0 0.0 -3.171414542872e-05 
-1.655918154031e-04 2.787053237580e-05 0.0 
2.787053237580e-05 1.112934476303e-03 0.0 
0.0 0.0 -1.665212293607e-04 
-1.050972551552e-04 -3.025884205917e-06 0.0 
-3.025884205917e-06 7.225874036591e-04 0.0 
0.0 0.0 -1.064449299410e-04 
-1.855125743211e-04 2.284061724598e-05 0.0 
2.284061724598e-05 1.238197266214e-03 0.0 
0.0 0.0 -1.856594579394e-04 
-1.969980593816e-04 -2.792765841710e-05 0.0 
-2.792765841710e-05 1.348466243731e-03 0.0 
0.0 0.0 -1.982264973081e-04 
-2.015598306414e-04 -1.228437926459e-06 0.0 
-1.228437926459e-06 1.329727235481e-03 0.0 
0.0 0.0 -2.015598306414e-04 
-3.170965654814e-06 -9.174846607934e-06 0.0 
-9.174846607934e-06 3.186703010945e-05 0.0 
0.0 0.0 -6.440169358563e-06 
-2.054361880700e-06 8.524325078712e-06 0.0 
8.524325078712e-06 1.000738199139e-05 0.0 
0.0 0.0 -3.408437190294e-06 
-1.090415563488e-04 -2.544674541070e-05 0.0 
-2.544674541070e-05 7.025551525996e-04 0.0 
0.0 0.0 -1.097735026919e-04 
-1.102790978540e-04 4.096896239264e-06 0.0 
4.096896239264e-06 7.242490524547e-04 0.0 
0.0 0.0 -1.064401693586e-04 
-2.015598306414e-04 1.769844580753e-06 0.0 
1.769844580753e-06 1.328559462674e-03 0.0 
0.0 0.0 -2.015598306414e-04 
-1.964566527274e-04 2.745948387429e-05 0.0 
2.745948387429e-05 1.347766645467e-03 0.0 
0.0 0.0 -1.982264973081e-04 
-1.175853557175e-05 2.296138750723e-05 0.0 
2.296138750723e-05 7.476526502358e-05 0.0 
0.0 0.0 -1.468179278604e-05 
0.0 0.0 0.0 
0.0 0.0 0.0 
0.0 0.0 0.0 
-1.860643112087e-04 1.892522092608e-05 0.0 
1.892522092608e-05 1.220604956089e-03 0.0 
0.0 0.0 -1.845272605536e-04 
-1.810613338557e-04 3.690531828789e-05 0.0 
3.690531828789e-05 1.227609320804e-03 0.0 
0.0 0.0 -1.814046177210e-04 
-3.775454928550e-05 -2.192142162525e-05 0.0 
-2.192142162525e-05 2.530653962175e-04 0.0 
0.0 0.0 -4.069012186385e-05 
-1.867893258397e-04 -1.967907292950e-05 0.0 
-1.967907292950e-05 1.242445273872e-03 0.0 
0.0 0.0 -1.860287822001e-04 
-1.322273957044e-04 -7.821980177849e-06 0.0 
-7.821980177849e-06 8.613081851453e-04 0.0 
0.0 0.0 -1.333256398531e-04 
-1.174513720599e-04 -2.922099993004e-05 0.0 
-2.922099993004e-05 7.623791286875e-04 0.0 
0.0 0.0 -1.141619444601e-04 
-1.434157263431e-04 1.469820453960e-05 0.0 
1.469820453960e-05 9.640681819544e-04 0.0 
0.0 0.0 -1.410117391569e-04 
-3.721642999109e-05 2.244542666226e-05 0.0 
2.244542666226e-05 2.273693429633e-04 0.0 
0.0 0.0 -3.939304728150e-05 
-1.516361842959e-04 -3.045658684071e-05 0.0 
-3.045658684071e-05 1.014390478774e-03 0.0 
0.0 0.0 -1.517486197524e-04 
-3.145165589743e-05 4.872235620209e-06 0.0 
4.872235620209e-06 2.090450929269e-04 0.0 
0.0 0.0 -3.272226055558e-05 
-1.018895751593e-04 -2.838951770175e-05 0.0 
-2.838951770175e-05 6.787429923759e-04 0.0 
0.0 0.0 -1.049612269729e-04 
-1.842198203986e-04 1.688848171670e-05 0.0 
1.688848171670e-05 1.232258602772e-03 0.0 
0.0 0.0 -1.860778644041e-04 
-1.784559347742e-04 -3.196727202869e-05 0.0 
-3.196727202869e-05 1.203750059331e-03 0.0 
0.0 0.0 -1.787589168632e-04 
-1.106507503052e-04 1.655731803460e-05 0.0 
1.655731803460e-05 7.326885674445e-04 0.0 
0.0 0.0 -1.153641303439e-04 
-1.319245288081e-04 -2.759428203750e-05 0.0 
-2.759428203750e-05 8.842042796758e-04 0.0 
0.0 0.0 -1.311848925397e-04 
-1.849952147230e-04 1.224005731978e-05 0.0 
1.224005731978e-05 1.253709795229e-03 0.0 
0.0 0.0 -1.825679017964e-04 
-1.712361580956e-04 -3.249029055204e-05 0.0 
-3.249029055204e-05 1.152848638026e-03 0.0 
0.0 0.0 -1.711417214974e-04 
-1.621790656513e-04 -3.130066982025e-05 0.0 
-3.130066982025e-05 1.085309995837e-03 0.0 
0.0 0.0 -1.614640498619e-04 
-1.095991344629e-04 1.548110486480e-06 0.0 
1.548110486480e-06 6.849847840864e-04 0.0 
0.0 0.0 -1.096818516252e-04 
-1.466797614329e-04 -3.177988380746e-05 0.0 
-3.177988380746e-05 9.793946946612e-04 0.0 
0.0 0.0 -1.464567251102e-04 
-1.856217654582e-04 1.836261976242e-05 0.0 
1.836261976242e-05 1.223913084915e-03 0.0 
0.0 0.0 -1.847107394661e-04 
-6.401317792094e-05 1.777757210555e-05 0.0 
1.777757210555e-05 3.770292953028e-04 0.0 
0.0 0.0 -6.251951766002e-05 
-1.488249501970e-05 -6.661613433421e-06 0.0 
-6.661613433421e-06 9.049355169821e-05 0.0 
0.0 0.0 -1.522736731176e-05 
-1.794781203063e-04 -2.177148621612e-05 0.0 
-2.177148621612e-05 1.190948333360e-03 0.0 
0.0 0.0 -1.778962838413e-04 
-1.689754393540e-04 2.666341982877e-05 0.0 
2.666341982877e-05 1.121590302909e-03 0.0 
0.0 0.0 -1.685307334786e-04 
-3.117516894872e-05 -1.620379493923e-05 0.0 
-1.620379493923e-05 1.675088401558e-04 0.0 
0.0 0.0 -3.460570515138e-05 
-1.490209525484e-04 -2.398959439852e-05 0.0 
-2.398959439852e-05 1.009624786866e-03 0.0 
0.0 0.0 -1.484000725648e-04 
-1.941728230886e-04 -6.317229650202e-06 0.0 
-6.317229650202e-06 1.268109449836e-03 0.0 
0.0 0.0 -1.924109378829e-04 
-1.782640686020e-04 1.811418483105e-05 0.0 
1.811418483105e-05 1.176788769021e-03 0.0 
0.0 0.0 -1.773110165667e-04 
-1.844275111855e-04 -4.383617168842e-06 0.0 
-4.383617168842e-06 1.252791151838e-03 0.0 
0.0 0.0 -1.822694409164e-04 
-1.426350801095e-04 -3.166405234979e-05 0.0 
-3.166405234979e-05 9.429700556337e-04 0.0 
0.0 0.0 -1.430568974379e-04 
-1.367048638434e-05 7.547793984128e-06 0.0 
7.547793984128e-06 4.809613176051e-05 0.0 
0.0 0.0 -1.475384801836e-05 
-4.817205637438e-05 1.518979907033e-05 0.0 
1.518979907033e-05 2.815959802160e-04 0.0 
0.0 0.0 -4.818665537949e-05 
-5.802518359896e-05 -3.237118775929e-05 0.0 
-3.237118775929e-05 3.560287674836e-04 0.0 
0.0 0.0 -5.751524148975e-05 
-1.222811217371e-04 4.923148903369e-06 0.0 
4.923148903369e-06 8.049151145100e-04 0.0 
0.0 0.0 -1.270714490912e-04 
-1.466466955193e-04 3.242901086422e-05 0.0 
3.242901086422e-05 9.717833108994e-04 0.0 
0.0 0.0 -1.467240436239e-04 
-1.865030099579e-04 -2.458316919408e-05 0.0 
-2.458316919408e-05 1.244081238438e-03 0.0 
0.0 0.0 -1.854811886535e-04 
-1.924470582108e-04 1.025180310993e-05 0.0 
1.025180310993e-05 1.267008412016e-03 0.0 
0.0 0.0 -1.923487814140e-04 
-2.301609062590e-05 -4.635179033559e-06 0.0 
-4.635179033559e-06 1.491120452597e-04 0.0 
0.0 0.0 -2.371590567936e-05 
-2.273962015617e-05 8.021387614827e-06 0.0 
8.021387614827e-06 1.424948937247e-04 0.0 
0.0 0.0 -2.307420961409e-05 
-3.644996023323e-05 3.054667220110e-05 0.0 
3.054667220110e-05 2.219148594571e-04 0.0 
0.0 0.0 -3.877784743978e-05 
-1.505507532998e-04 4.198429125548e-05 0.0 
4.198429125548e-05 1.006744199268e-03 0.0 
0.0 0.0 -1.528863196834e-04 
-7.623962459717e-05 -2.731195048099e-05 0.0 
-2.731195048099e-05 4.837899918121e-04 0.0 
0.0 0.0 -7.429924588524e-05 
-1.863524508622e-04 -2.262089027383e-05 0.0 
-2.262089027383e-05 1.249803366509e-03 0.0 
0.0 0.0 -1.861947641336e-04 
-3.704741075814e-05 -2.601020683146e-05 0.0 
-2.601020683146e-05 2.394628484622e-04 0.0 
0.0 0.0 -3.935861431135e-05 
-1.838103394031e-04 1.452656825211e-05 0.0 
1.452656825211e-05 1.213648829434e-03 0.0 
0.0 0.0 -1.831728902790e-04 
-1.220456595190e-04 2.683931147050e-05 0.0 
2.683931147050e-05 8.169008266022e-04 0.0 
0.0 0.0 -1.251559851210e-04 
-1.901741937142e-04 2.069168076262e-07 0.0 
2.069168076262e-07 1.274360012601e-03 0.0 
0.0 0.0 -1.930223408588e-04 
-1.664726505804e-04 -3.515055495158e-05 0.0 
-3.515055495158e-05 1.122391429995e-03 0.0 
0.0 0.0 -1.666682952710e-04 
-1.230362842828e-04 -1.324599728564e-05 0.0 
-1.324599728564e-05 8.068584181325e-04 0.0 
0.0 0.0 -1.269771275557e-04 
-1.906319308292e-04 -7.278184392238e-06 0.0 
-7.278184392238e-06 1.308928167031e-03 0.0 
0.0 0.0 -1.903713883127e-04 
-1.924018578301e-04 1.168444968946e-05 0.0 
1.168444968946e-05 1.309753043894e-03 0.0 
0.0 0.0 -1.909090898364e-04 
-1.885954729481e-04 9.336154218136e-06 0.0 
9.336154218136e-06 1.306961112302e-03 0.0 
0.0 0.0 -1.907009018511e-04 
-2.601124528020e-05 2.982465109596e-05 0.0 
2.982465109596e-05 1.494137909599e-04 0.0 
0.0 0.0 -2.872079986757e-05 
-1.827342744304e-04 2.617845691474e-05 0.0 
2.617845691474e-05 1.218950538624e-03 0.0 
0.0 0.0 -1.827464329712e-04 
-1.931535913243e-04 4.402691257463e-06 0.0 
4.402691257463e-06 1.267632643707e-03 0.0 
0.0 0.0 -1.929967939697e-04 
-1.822938180469e-04 -1.572479834584e-05 0.0 
-1.572479834584e-05 1.239626265032e-03 0.0 
0.0 0.0 -1.817603729293e-04 
-1.697190279031e-04 3.374893720717e-05 0.0 
3.374893720717e-05 1.140711286613e-03 0.0 
0.0 0.0 -1.714881096122e-04 
-2.013997750954e-04 3.693939357452e-06 0.0 
3.693939357452e-06 1.326398449399e-03 0.0 
0.0 0.0 -2.013997750954e-04 
-1.623768653750e-04 3.145458215279e-05 0.0 
3.145458215279e-05 1.075477552169e-03 0.0 
0.0 0.0 -1.618597882954e-04 
0.0 0.0 0.0 
0.0 0.0 0.0 
0.0 0.0 0.0 
-3.901664739789e-05 -3.107536671977e-05 0.0 
-3.107536671977e-05 2.123759730741e-04 0.0 
0.0 0.0 -3.635714225545e-05 
-1.788762468223e-04 -2.668815126998e-05 0.0 
-2.668815126998e-05 1.194169313249e-03 0.0 
0.0 0.0 -1.765404546707e-04 
-1.302843948315e-04 2.373413498694e-05 0.0 
2.373413498694e-05 8.753673031711e-04 0.0 
0.0 0.0 -1.332692038199e-04 
-1.814833852286e-04 -2.932987962222e-05 0.0 
-2.932987962222e-05 1.228315456518e-03 0.0 
0.0 0.0 -1.832991189648e-04 
-1.755755594055e-04 -3.314975176265e-05 0.0 
-3.314975176265e-05 1.186338389567e-03 0.0 
0.0 0.0 -1.765514316642e-04 
-1.922058959132e-04 -7.323986232709e-06 0.0 
-7.323986232709e-06 1.275540875639e-03 0.0 
0.0 0.0 -1.938374750990e-04 
-1.590886801341e-04 3.535348640505e-05 0.0 
3.535348640505e-05 1.086454937064e-03 0.0 
0.0 0.0 -1.628282188246e-04 
-1.943136192193e-04 -2.017280466188e-06 0.0 
-2.017280466188e-06 1.274660348820e-03 0.0 
0.0 0.0 -1.933460184500e-04 
-1.860409899402e-04 -2.465939863213e-05 0.0 
-2.465939863213e-05 1.243243537266e-03 0.0 
0.0 0.0 -1.849983659001e-04 
-1.854493454621e-04 2.521523578023e-05 0.0 
2.521523578023e-05 1.237363143253e-03 0.0 
0.0 0.0 -1.852565349593e-04 
-7.800610219477e-05 -1.750136496523e-05 0.0 
-1.750136496523e-05 5.077823231346e-04 0.0 
0.0 0.0 -7.657446018549e-05 
-1.940082963474e-04 -3.011324743449e-06 0.0 
-3.011324743449e-06 1.367135927910e-03 0.0 
0.0 0.0 -1.988462912301e-04 
-1.122847898646e-04 2.150658952302e-06 0.0 
2.150658952302e-06 7.831127334676e-04 0.0 
0.0 0.0 -1.149322996356e-04 
-1.805030425337e-04 -2.769681372488e-05 0.0 
-2.769681372488e-05 1.229209747324e-03 0.0 
0.0 0.0 -1.826109592864e-04 
-2.210772205688e-05 -1.141237861015e-05 0.0 
-1.141237861015e-05 1.058730840806e-04 0.0 
0.0 0.0 -2.642964691976e-05 
-1.709643782764e-04 -1.864471641412e-05 0.0 
-1.864471641412e-05 1.187155150464e-03 0.0 
0.0 0.0 -1.744803730939e-04 
-1.477070854664e-04 -4.391729024467e-06 0.0 
-4.391729024467e-06 1.020449993757e-03 0.0 
0.0 0.0 -1.488920056885e-04 
-2.536340853786e-05 -1.617904342885e-05 0.0 
-1.617904342885e-05 1.410312003150e-04 0.0 
0.0 0.0 -2.442930455436e-05 
-4.478297823031e-05 -3.360325145203e-05 0.0 
-3.360325145203e-05 2.463363294936e-04 0.0 
0.0 0.0 -4.105386472454e-05 
-1.667572652522e-04 3.269260421942e-05 0.0 
3.269260421942e-05 1.106671823298e-03 0.0 
0.0 0.0 -1.661371793467e-04 
-1.939345119211e-04 -2.917973958076e-06 0.0 
-2.917973958076e-06 1.271284650607e-03 0.0 
0.0 0.0 -1.928053293992e-04 
-1.848839491830e-04 -2.511864242369e-05 0.0 
-2.511864242369e-05 1.245193806993e-03 0.0 
0.0 0.0 -1.835875952628e-04 
-1.881692614413e-04 3.512850772842e-05 0.0 
3.512850772842e-05 1.283926120996e-03 0.0 
0.0 0.0 -1.897169183402e-04 
-1.319951739136e-04 3.692265338647e-05 0.0 
3.692265338647e-05 8.669086104393e-04 0.0 
0.0 0.0 -1.321134885410e-04 
-1.418897775030e-05 -1.383603751222e-06 0.0 
-1.383603751222e-06 8.390464903167e-05 0.0 
0.0 0.0 -1.533750852324e-05 
-1.776342507387e-05 2.898590661281e-05 0.0 
2.898590661281e-05 1.254111435077e-04 0.0 
0.0 0.0 -2.291448659297e-05 
-2.228661035164e-05 3.086208171882e-05 0.0 
3.086208171882e-05 7.414588274207e-05 0.0 
0.0 0.0 -1.893168834827e-05 
-2.834935998913e-05 -2.581094466031e-05 0.0 
-2.581094466031e-05 1.798484559935e-04 0.0 
0.0 0.0 -3.120083896163e-05 
-3.619195444299e-06 1.726688320319e-05 0.0 
1.726688320319e-05 1.889854846973e-05 0.0 
0.0 0.0 -6.548294153755e-06 
-9.846508312271e-05 1.947611327116e-05 0.0 
1.947611327116e-05 6.774458586389e-04 0.0 
0.0 0.0 -1.012995679080e-04 
-1.809123785598e-04 2.900682068589e-05 0.0 
2.900682068589e-05 1.227040363573e-03 0.0 
0.0 0.0 -1.833458990909e-04 
-1.833994977543e-04 2.630052083884e-05 0.0 
2.630052083884e-05 1.234115337032e-03 0.0 
0.0 0.0 -1.834249670905e-04 
-1.300388728735e-04 -2.726917383980e-05 0.0 
-2.726917383980e-05 8.766264197221e-04 0.0 
0.0 0.0 -1.323946974752e-04 
-9.060072859628e-05 -4.107401100024e-05 0.0 
-4.107401100024e-05 5.837911416729e-04 0.0 
0.0 0.0 -8.982794765771e-05 
-1.833530943830e-04 -2.415896483629e-05 0.0 
-2.415896483629e-05 1.239029730488e-03 0.0 
0.0 0.0 -1.831601862249e-04 
-1.805620370494e-04 3.417310065365e-05 0.0 
3.417310065365e-05 1.228469068547e-03 0.0 
0.0 0.0 -1.813053981465e-04 
-1.918538788466e-04 1.314902849118e-05 0.0 
1.314902849118e-05 1.311238991232e-03 0.0 
0.0 0.0 -1.908378613718e-04 
-1.864057830892e-04 -5.544571809971e-06 0.0 
-5.544571809971e-06 1.222330684115e-03 0.0 
0.0 0.0 -1.856133406407e-04 
-1.761014518088e-04 2.982850443616e-05 0.0 
2.982850443616e-05 1.172453916966e-03 0.0 
0.0 0.0 -1.756848094018e-04 
-2.508081297429e-05 1.384675978348e-05 0.0 
1.384675978348e-05 1.057075733602e-04 0.0 
0.0 0.0 -2.599564028619e-05 
-1.693383348172e-05 -2.312304690448e-05 0.0 
-2.312304690448e-05 1.227259030012e-04 0.0 
0.0 0.0 -2.162456296189e-05 
-1.849301832798e-04 -2.375114059264e-05 0.0 
-2.375114059264e-05 1.241181941517e-03 0.0 
0.0 0.0 -1.835494310512e-04 
-2.714207379428e-05 4.098769542459e-06 0.0 
4.098769542459e-06 1.072549946886e-04 0.0 
0.0 0.0 -2.642284971932e-05 
-3.135918366895e-05 4.019659049340e-05 0.0 
4.019659049340e-05 1.551282952784e-04 0.0 
0.0 0.0 -2.899999999997e-05 
-2.063383903873e-05 2.842818060864e-05 0.0 
2.842818060864e-05 9.408870534127e-05 0.0 
0.0 0.0 -2.215380543414e-05 
-2.425090272541e-05 -2.758476542693e-05 0.0 
-2.758476542693e-05 1.189291029536e-04 0.0 
0.0 0.0 -2.370445218759e-05 
-1.950651601912e-04 -1.537310237433e-06 0.0 
-1.537310237433e-06 1.272610956963e-03 0.0 
0.0 0.0 -1.932856728082e-04 
-1.944294159836e-04 -1.137183943863e-05 0.0 
-1.137183943863e-05 1.275116374494e-03 0.0 
0.0 0.0 -1.935170455059e-04 
-1.886696034913e-04 2.831262697735e-05 0.0 
2.831262697735e-05 1.244837435708e-03 0.0 
0.0 0.0 -1.855361636489e-04 
-1.959472726026e-04 1.351216090053e-08 0.0 
1.351216090053e-08 1.278564115673e-03 0.0 
0.0 0.0 -1.938907836251e-04 
-1.787271859105e-04 -2.284872940721e-05 0.0 
-2.284872940721e-05 1.187153147202e-03 0.0 
0.0 0.0 -1.765318707366e-04 
-1.351456084785e-04 3.971362658995e-05 0.0 
3.971362658995e-05 9.093020497765e-04 0.0 
0.0 0.0 -1.375519566527e-04 
-2.017604167332e-04 -1.836539241269e-06 0.0 
-1.836539241269e-06 1.330878883476e-03 0.0 
0.0 0.0 -2.017604167332e-04 
-4.752774343128e-05 -1.713587701896e-05 0.0 
-1.713587701896e-05 3.107525644044e-04 0.0 
0.0 0.0 -4.996133636201e-05 
-1.024919488492e-04 4.191622503833e-07 0.0 
4.191622503833e-07 7.218789940397e-04 0.0 
0.0 0.0 -1.062461082510e-04 
-2.975599916326e-05 9.106261967341e-06 0.0 
9.106261967341e-06 1.955746439529e-04 0.0 
0.0 0.0 -3.129496823211e-05 
-1.232098886184e-05 7.093050022653e-06 0.0 
7.093050022653e-06 4.161179421085e-05 0.0 
0.0 0.0 -1.255320229243e-05 
-1.944497355390e-04 5.978296495926e-06 0.0 
5.978296495926e-06 1.366328994781e-03 0.0 
0.0 0.0 -1.985775144829e-04 
-1.145512522937e-04 -8.915219508627e-06 0.0 
-8.915219508627e-06 7.945910020626e-04 0.0 
0.0 0.0 -1.159689174441e-04 
-2.848344092071e-05 4.003321639578e-06 0.0 
4.003321639578e-06 1.986241883576e-04 0.0 
0.0 0.0 -3.173012194873e-05 
-1.014959600204e-04 3.503938933843e-05 0.0 
3.503938933843e-05 6.393289370777e-04 0.0 
0.0 0.0 -9.855747970559e-05 
-1.905583345653e-04 2.687091843219e-06 0.0 
2.687091843219e-06 1.311634272187e-03 0.0 
0.0 0.0 -1.915206309854e-04 
-1.857526928997e-04 -2.471303146073e-05 0.0 
-2.471303146073e-05 1.243107974826e-03 0.0 
0.0 0.0 -1.842925442824e-04 
-1.948868254755e-04 -1.041522172143e-06 0.0 
-1.041522172143e-06 1.275180970734e-03 0.0 
0.0 0.0 -1.934499806569e-04 
-7.012133808743e-05 -2.162576108704e-05 0.0 
-2.162576108704e-05 4.594521408120e-04 0.0 
0.0 0.0 -7.043099580601e-05 
-2.186534210929e-05 -2.363395921601e-05 0.0 
-2.363395921601e-05 1.124805107313e-04 0.0 
0.0 0.0 -2.329832943476e-05 
-1.928869723946e-04 -1.747685447208e-05 0.0 
-1.747685447208e-05 1.309527415302e-03 0.0 
0.0 0.0 -1.909716586738e-04 
-1.948223937585e-04 3.463630469138e-06 0.0 
3.463630469138e-06 1.366072774039e-03 0.0 
0.0 0.0 -1.988029557152e-04 
-1.997972325631e-04 -2.657071604694e-06 0.0 
-2.657071604694e-06 1.368996078479e-03 0.0 
0.0 0.0 -1.985675284643e-04 
-1.149075065172e-04 1.970313765657e-05 0.0 
1.970313765657e-05 7.553309514488e-04 0.0 
0.0 0.0 -1.151014696305e-04 
-1.853670490970e-04 -6.789881419621e-07 0.0 
-6.789881419621e-07 1.217253462195e-03 0.0 
0.0 0.0 -1.847801502676e-04 
-2.929766823262e-05 -1.423662774746e-05 0.0 
-1.423662774746e-05 1.684447109910e-04 0.0 
0.0 0.0 -3.486300268346e-05 
-1.886376341972e-04 2.491029484498e-05 0.0 
2.491029484498e-05 1.251144203043e-03 0.0 
0.0 0.0 -1.862363266401e-04 
-1.225588461862e-05 -1.620442536661e-06 0.0 
-1.620442536661e-06 4.088176785210e-05 0.0 
0.0 0.0 -1.226823567149e-05 
-1.959443734270e-04 -1.593633800897e-06 0.0 
-1.593633800897e-06 1.275907277954e-03 0.0 
0.0 0.0 -1.936070242144e-04 
-1.921705025686e-04 1.672528369413e-05 0.0 
1.672528369413e-05 1.305355282221e-03 0.0 
0.0 0.0 -1.902878095246e-04 
-1.213509693042e-05 -9.695671298578e-06 0.0 
-9.695671298578e-06 4.146515921011e-05 0.0 
0.0 0.0 -1.257002669129e-05 
-1.793207099600e-04 -2.104295957024e-05 0.0 
-2.104295957024e-05 1.192465817629e-03 0.0 
0.0 0.0 -1.767027422389e-04 
-1.542349507493e-04 -2.789525500736e-05 0.0 
-2.789525500736e-05 1.046690456158e-03 0.0 
0.0 0.0 -1.580789522666e-04 
-1.934231585208e-04 -4.589161303043e-06 0.0 
-4.589161303043e-06 1.276393454338e-03 0.0 
0.0 0.0 -1.934530862915e-04 
-2.019364116565e-04 -1.570828685488e-06 0.0 
-1.570828685488e-06 1.334544060367e-03 0.0 
0.0 0.0 -2.019364116565e-04 
-1.443736664853e-04 -4.496434299745e-05 0.0 
-4.496434299745e-05 9.564830102373e-04 0.0 
0.0 0.0 -1.444096547634e-04 
-1.939456756852e-04 2.017652496132e-06 0.0 
2.017652496132e-06 1.279640861987e-03 0.0 
0.0 0.0 -1.938765919206e-04 
-1.869172796684e-04 -2.300922739472e-05 0.0 
-2.300922739472e-05 1.248797853845e-03 0.0 
0.0 0.0 -1.854760755851e-04 
-1.511310601618e-04 1.323861223544e-06 0.0 
1.323861223544e-06 9.820371097651e-04 0.0 
0.0 0.0 -1.514438176870e-04 
-1.859523187257e-04 -2.150500838709e-06 0.0 
-2.150500838709e-06 1.237126209909e-03 0.0 
0.0 0.0 -1.871408849840e-04 
-8.159488617983e-05 -1.939805324608e-05 0.0 
-1.939805324608e-05 5.359838852638e-04 0.0 
0.0 0.0 -8.502783899585e-05 
-1.113338579071e-04 -3.576614126909e-06 0.0 
-3.576614126909e-06 6.830287758959e-04 0.0 
0.0 0.0 -1.093177095251e-04 
-1.875695645106e-04 2.166688210212e-05 0.0 
2.166688210212e-05 1.248595569192e-03 0.0 
0.0 0.0 -1.858828511717e-04 
-1.916898687047e-04 1.740402246749e-05 0.0 
1.740402246749e-05 1.297694891500e-03 0.0 
0.0 0.0 -1.929759641265e-04 
0.0 0.0 0.0 
0.0 0.0 0.0 
0.0 0.0 0.0 
-1.108754537982e-04 8.190067800634e-06 0.0 
8.190067800634e-06 6.858465185805e-04 0.0 
0.0 0.0 -1.092688595421e-04 
-1.923809518426e-04 -1.819844630735e-05 0.0 
-1.819844630735e-05 1.300229094043e-03 0.0 
0.0 0.0 -1.932123727438e-04 
-4.002001247467e-05 2.006963566931e-05 0.0 
2.006963566931e-05 2.328825741027e-04 0.0 
0.0 0.0 -4.148470287098e-05 
-1.866472002231e-04 4.880453877379e-06 0.0 
4.880453877379e-06 1.252749307024e-03 0.0 
0.0 0.0 -1.819878549007e-04 
-1.819209478198e-04 -2.068448510872e-05 0.0 
-2.068448510872e-05 1.244408370608e-03 0.0 
0.0 0.0 -1.838914853240e-04 
-1.915111223810e-04 -2.323214646959e-05 0.0 
-2.323214646959e-05 1.305780620660e-03 0.0 
0.0 0.0 -1.903556752671e-04 
-3.701661376552e-05 2.035950265076e-05 0.0 
2.035950265076e-05 2.272671486071e-04 0.0 
0.0 0.0 -3.971981059879e-05 
-2.769286414478e-05 7.747329809448e-06 0.0 
7.747329809448e-06 1.806614107884e-04 0.0 
0.0 0.0 -2.859863994447e-05 
-1.242949117924e-04 5.074427327232e-05 0.0 
5.074427327232e-05 7.859669856420e-04 0.0 
0.0 0.0 -1.190920679387e-04 
-1.709477821043e-04 1.206352581251e-05 0.0 
1.206352581251e-05 1.132186117532e-03 0.0 
0.0 0.0 -1.681261804956e-04 
1.014327330369e-06 7.383782533250e-07 0.0 
7.383782533250e-07 2.927583678911e-05 0.0 
0.0 0.0 -6.243845128022e-06 
-1.946447373769e-04 -4.455018500166e-06 0.0 
-4.455018500166e-06 1.280717844331e-03 0.0 
0.0 0.0 -1.938350263003e-04 
-1.424463118062e-04 5.764408395156e-06 0.0 
5.764408395156e-06 9.202154133526e-04 0.0 
0.0 0.0 -1.425289220759e-04 
-3.478878306297e-05 -2.499498638801e-05 0.0 
-2.499498638801e-05 2.296892403380e-04 0.0 
0.0 0.0 -3.902841992921e-05 
-1.377312918912e-04 9.864863143696e-06 0.0 
9.864863143696e-06 8.735402280856e-04 0.0 
0.0 0.0 -1.354581645892e-04 
-1.922007867126e-04 -1.822737660514e-05 0.0 
-1.822737660514e-05 1.307890918218e-03 0.0 
0.0 0.0 -1.907465343871e-04 
-1.254239889598e-04 -4.359753515645e-05 0.0 
-4.359753515645e-05 8.286556014884e-04 0.0 
0.0 0.0 -1.240920679387e-04 
-1.353144492439e-05 -2.813094036452e-05 0.0 
-2.813094036452e-05 4.877548767693e-05 0.0 
0.0 0.0 -1.316471896826e-05 
-8.142748840058e-05 2.105549334848e-05 0.0 
2.105549334848e-05 4.801057020835e-04 0.0 
0.0 0.0 -7.814452609390e-05 
-1.089615496817e-04 1.599271894156e-05 0.0 
1.599271894156e-05 7.175407804816e-04 0.0 
0.0 0.0 -1.097999625750e-04 
-1.256926158202e-04 5.260336234632e-05 0.0 
5.260336234632e-05 8.559229925288e-04 0.0 
0.0 0.0 -1.289999999999e-04 
-1.861165675973e-04 -2.159470551463e-05 0.0 
-2.159470551463e-05 1.249429060897e-03 0.0 
0.0 0.0 -1.849170288086e-04 
-1.106499789189e-04 -2.590861534469e-05 0.0 
-2.590861534469e-05 6.926866843830e-04 0.0 
0.0 0.0 -1.076326444904e-04 
-1.112884178496e-04 1.305986126263e-05 0.0 
1.305986126263e-05 7.358491413001e-04 0.0 
0.0 0.0 -1.139494348250e-04 
-2.588411427290e-05 1.911750771148e-05 0.0 
1.911750771148e-05 1.061373083438e-04 0.0 
0.0 0.0 -2.326846092920e-05 
-1.893744793615e-04 2.103198860830e-05 0.0 
2.103198860830e-05 1.246033425132e-03 0.0 
0.0 0.0 -1.860944804855e-04 
-1.813760335911e-04 2.431983118237e-05 0.0 
2.431983118237e-05 1.192575940689e-03 0.0 
0.0 0.0 -1.779543165055e-04 
-3.341687545780e-05 1.295689628708e-05 0.0 
1.295689628708e-05 1.947474497127e-04 0.0 
0.0 0.0 -3.617538986514e-05 
-1.891790155312e-04 -1.249004293212e-05 0.0 
-1.249004293212e-05 1.282842787366e-03 0.0 
0.0 0.0 -1.935524225335e-04 
-1.940711954716e-04 2.260939094991e-05 0.0 
2.260939094991e-05 1.289421750568e-03 0.0 
0.0 0.0 -1.935534039001e-04 
-1.151984927981e-04 -2.298534457927e-05 0.0 
-2.298534457927e-05 7.735611340850e-04 0.0 
0.0 0.0 -1.145968264807e-04 
-1.409477362984e-04 4.636851076838e-06 0.0 
4.636851076838e-06 9.500238057427e-04 0.0 
0.0 0.0 -1.403751509546e-04 
-1.057221588411e-04 2.457938922791e-05 0.0 
2.457938922791e-05 7.039272758311e-04 0.0 
0.0 0.0 -1.066277415830e-04 
-1.061891266013e-04 -1.653485252010e-05 0.0 
-1.653485252010e-05 7.204456328921e-04 0.0 
0.0 0.0 -1.101455558886e-04 
-1.167125773018e-04 -5.214442621127e-06 0.0 
-5.214442621127e-06 7.635304123669e-04 0.0 
0.0 0.0 -1.124773478824e-04 
-1.793168656901e-04 2.299952134744e-05 0.0 
2.299952134744e-05 1.185887205723e-03 0.0 
0.0 0.0 -1.771393596935e-04 
-3.152584898735e-05 1.897210253453e-05 0.0 
1.897210253453e-05 1.627411535502e-04 0.0 
0.0 0.0 -3.411956464738e-05 
-1.845315344105e-04 -2.087044310257e-05 0.0 
-2.087044310257e-05 1.251382198176e-03 0.0 
0.0 0.0 -1.826724926888e-04 
-1.258093955466e-04 1.092296903434e-05 0.0 
1.092296903434e-05 7.989141246955e-04 0.0 
0.0 0.0 -1.256509235457e-04 
-1.915790341267e-04 -2.191468720141e-05 0.0 
-2.191468720141e-05 1.308072793879e-03 0.0 
0.0 0.0 -1.908230686647e-04 
-1.803448451633e-04 -1.980075170866e-05 0.0 
-1.980075170866e-05 1.182538242344e-03 0.0 
0.0 0.0 -1.771885848702e-04 
-1.319350983937e-04 -8.918433226287e-06 0.0 
-8.918433226287e-06 9.046918759966e-04 0.0 
0.0 0.0 -1.335370307995e-04 
-1.816836816126e-04 1.791474397062e-05 0.0 
1.791474397062e-05 1.201235583197e-03 0.0 
0.0 0.0 -1.801549293832e-04 
-1.875547155475e-04 1.892715754060e-05 0.0 
1.892715754060e-05 1.233891763137e-03 0.0 
0.0 0.0 -1.855150795789e-04 
-1.939054531168e-04 -3.416516152567e-06 0.0 
-3.416516152567e-06 1.313797531553e-03 0.0 
0.0 0.0 -1.905407107676e-04 
-1.393318625630e-05 6.729466406601e-06 0.0 
6.729466406601e-06 4.687704386898e-05 0.0 
0.0 0.0 -1.411879611972e-05 
-1.819939651451e-04 -2.047705946231e-05 0.0 
-2.047705946231e-05 1.208295386483e-03 0.0 
0.0 0.0 -1.798029041703e-04 
-1.850233720890e-04 2.766047329041e-05 0.0 
2.766047329041e-05 1.254110806432e-03 0.0 
0.0 0.0 -1.840618297566e-04 
-1.944390477997e-05 -2.127751864275e-05 0.0 
-2.127751864275e-05 1.299757536440e-04 0.0 
0.0 0.0 -2.232470194434e-05 
-1.017184515676e-04 -1.757095589334e-05 0.0 
-1.757095589334e-05 6.550290312805e-04 0.0 
0.0 0.0 -1.026204892046e-04 
-1.144511734995e-05 -9.153149013219e-06 0.0 
-9.153149013219e-06 7.932793000554e-05 0.0 
0.0 0.0 -1.453852818766e-05 
-1.859119756783e-04 -1.557168329532e-05 0.0 
-1.557168329532e-05 1.264074963678e-03 0.0 
0.0 0.0 -1.846184893018e-04 
-1.622366781475e-06 -5.982045372818e-06 0.0 
-5.982045372818e-06 7.493358960993e-06 0.0 
0.0 0.0 -2.516139505508e-06 
-1.363542408259e-05 7.374859036841e-07 0.0 
7.374859036841e-07 5.003364006104e-05 0.0 
0.0 0.0 -7.333333333333e-06 
0.0 0.0 0.0 
0.0 0.0 0.0 
0.0 0.0 0.0 
-1.058539431295e-05 -2.025992995460e-06 0.0 
-2.025992995460e-06 4.900688701468e-05 0.0 
0.0 0.0 -7.333333333333e-06 
0.0 0.0 0.0 
0.0 0.0 0.0 
0.0 0.0 0.0 
-9.389295829584e-06 -1.354741068769e-06 0.0 
-1.354741068769e-06 4.892636490170e-05 0.0 
0.0 0.0 -7.333333333333e-06 
0.0 0.0 0.0 
0.0 0.0 0.0 
0.0 0.0 0.0 
-8.738031657104e-06 -7.966577903390e-07 0.0 
-7.966577903390e-07 4.889328131206e-05 0.0 
0.0 0.0 -7.333333333333e-06 
0.0 0.0 0.0 
0.0 0.0 0.0 
0.0 0.0 0.0 
-8.367830369923e-06 -4.929610208597e-07 0.0 
-4.929610208597e-07 4.885905898841e-05 0.0 
0.0 0.0 -7.333333333333e-06 
0.0 0.0 0.0 
0.0 0.0 0.0 
0.0 0.0 0.0 
-8.137723247566e-06 -3.380576221763e-07 0.0 
-3.380576221763e-07 4.882440802476e-05 0.0 
0.0 0.0 -7.333333333333e-06 
0.0 0.0 0.0 
0.0 0.0 0.0 
0.0 0.0 0.0 
-7.977433844704e-06 -2.634711669547e-07 0.0 
-2.634711669547e-07 4.879003603040e-05 0.0 
0.0 0.0 -7.333333333333e-06 
0.0 0.0 0.0 
0.0 0.0 0.0 
0.0 0.0 0.0 
-7.853151981903e-06 -2.286837324887e-07 0.0 
-2.286837324887e-07 4.875621153764e-05 0.0 
0.0 0.0 -7.333333333333e-06 
0.0 0.0 0.0 
0.0 0.0 0.0 
0.0 0.0 0.0 
-7.750751173848e-06 -2.079167459737e-07 0.0 
-2.079167459737e-07 4.872384196439e-05 0.0 
0.0 0.0 -7.333333333333e-06 
0.0 0.0 0.0 
0.0 0.0 0.0 
0.0 0.0 0.0 
-7.667720408585e-06 -1.836674225830e-07 0.0 
-1.836674225830e-07 4.869517838089e-05 0.0 
0.0 0.0 -7.333333333333e-06 
0.0 0.0 0.0 
0.0 0.0 0.0 
0.0 0.0 0.0 
-7.608578389747e-06 -1.452189016024e-07 0.0 
-1.452189016024e-07 4.867424243946e-05 0.0 
0.0 0.0 -7.333333333333e-06 
0.0 0.0 0.0 
0.0 0.0 0.0 
0.0 0.0 0.0 
-1.200228009361e-05 -7.254902952536e-06 0.0 
-7.254902952536e-06 3.787322450366e-05 0.0 
0.0 0.0 -8.736394557820e-06 
-7.579899049067e-06 -8.993583870229e-08 0.0 
-8.993583870229e-08 4.866494653008e-05 0.0 
0.0 0.0 -7.333333333333e-06 
0.0 0.0 0.0 
0.0 0.0 0.0 
0.0 0.0 0.0 
-7.586855310079e-06 -2.182876929554e-08 0.0 
-2.182876929554e-08 4.867008546825e-05 0.0 
0.0 0.0 -7.333333333333e-06 
2.731131873932e-06 1.618010233976e-05 0.0 
1.618010233976e-05 1.584983941508e-05 0.0 
0.0 0.0 -5.403061224487e-06 
0.0 0.0 0.0 
0.0 0.0 0.0 
0.0 0.0 0.0 
-7.629942673978e-06 5.132232635282e-08 0.0 
5.132232635282e-08 4.868891134511e-05 0.0 
0.0 0.0 -7.333333333333e-06 
0.0 0.0 0.0 
0.0 0.0 0.0 
0.0 0.0 0.0 
0.0 0.0 0.0 
0.0 0.0 0.0 
0.0 0.0 0.0 
-7.709261849539e-06 1.208296801311e-07 0.0 
1.208296801311e-07 4.872423818079e-05 0.0 
0.0 0.0 -7.333333333333e-06 
0.0 0.0 0.0 
0.0 0.0 0.0 
0.0 0.0 0.0 
-7.812368990031e-06 1.739865861654e-07 0.0 
1.739865861654e-07 4.876612589275e-05 0.0 
0.0 0.0 -7.333333333333e-06 
0.0 0.0 0.0 
0.0 0.0 0.0 
0.0 0.0 0.0 
-7.939209235560e-06 2.011324687646e-07 0.0 
2.011324687646e-07 4.882744544308e-05 0.0 
0.0 0.0 -7.333333333333e-06 
0.0 0.0 0.0 
0.0 0.0 0.0 
0.0 0.0 0.0 
-8.045330216007e-06 1.891423665011e-07 0.0 
1.891423665011e-07 4.886299359106e-05 0.0 
0.0 0.0 -7.333333333333e-06 
0.0 0.0 0.0 
0.0 0.0 0.0 
0.0 0.0 0.0 
3.742252513224e-06 5.442122486884e-06 0.0 
5.442122486884e-06 1.621208535502e-05 0.0 
0.0 0.0 -8.551859086392e-06 
-8.175122383244e-06 1.252384131383e-07 0.0 
1.252384131383e-07 4.895947021153e-05 0.0 
0.0 0.0 -7.333333333333e-06 
0.0 0.0 0.0 
0.0 0.0 0.0 
0.0 0.0 0.0 
-8.153925760564e-06 1.632579445215e-08 0.0 
1.632579445215e-08 4.889292517827e-05 0.0 
0.0 0.0 -7.333333333333e-06 
0.0 0.0 0.0 
0.0 0.0 0.0 
0.0 0.0 0.0 
-8.255955757460e-06 -1.119928513118e-07 0.0 
-1.119928513118e-07 4.905721626456e-05 0.0 
0.0 0.0 -7.333333333333e-06 
-7.891388236399e-06 -1.215798061685e-08 0.0 
-1.215798061685e-08 4.856125405570e-05 0.0 
0.0 0.0 -7.333333333333e-06 
0.0 0.0 0.0 
0.0 0.0 0.0 
0.0 0.0 0.0 
-8.456304312206e-06 1.418609434861e-07 0.0 
1.418609434861e-07 4.926283811921e-05 0.0 
0.0 0.0 -7.333333333333e-06 
0.0 0.0 0.0 
0.0 0.0 0.0 
0.0 0.0 0.0 
-7.737224281020e-06 9.830822880641e-07 0.0 
9.830822880641e-07 4.789305236927e-05 0.0 
0.0 0.0 -7.333333333333e-06 
0.0 0.0 0.0 
0.0 0.0 0.0 
0.0 0.0 0.0 
-1.025567791288e-05 9.098930227544e-07 0.0 
9.098930227544e-07 5.070641658797e-05 0.0 
0.0 0.0 -7.333333333333e-06 
0.0 0.0 0.0 
0.0 0.0 0.0 
0.0 0.0 0.0 
-7.314542631672e-06 5.026321626096e-06 0.0 
5.026321626096e-06 4.488751947138e-05 0.0 
0.0 0.0 -7.333333333333e-06 
-1.555726742006e-05 5.357153038643e-06 0.0 
5.357153038643e-06 5.377578491481e-05 0.0 
0.0 0.0 -7.333333333333e-06 
0.0 0.0 0.0 
0.0 0.0 0.0 
0.0 0.0 0.0 
0.0 0.0 0.0 
0.0 0.0 0.0 
0.0 0.0 0.0 
0.0 0.0 0.0 
0.0 0.0 0.0 
0.0 0.0 0.0 
8.771262829270e-06 -3.586235234711e-05 0.0 
-3.586235234711e-05 1.056332938853e-05 0.0 
0.0 0.0 -8.286253807628e-06 
-7.238218963915e-06 4.276374386030e-05 0.0 
4.276374386030e-05 3.812273667520e-05 0.0 
0.0 0.0 -9.617780609603e-06 
6.243074352056e-06 -1.294030943730e-05 0.0 
-1.294030943730e-05 1.433899667695e-05 0.0 
0.0 0.0 -5.666666666667e-06 
-8.176034582857e-06 3.290697322316e-06 0.0 
3.290697322316e-06 2.743047535022e-05 0.0 
0.0 0.0 -8.251903186011e-06 
4.886004138313e-06 -2.944220878300e-06 0.0 
-2.944220878300e-06 -1.230704453232e-06 0.0 
0.0 0.0 -1.566557007892e-06 
-1.744748685386e-05 -8.303086691415e-06 0.0 
-8.303086691415e-06 9.087151732535e-05 0.0 
0.0 0.0 -1.733333333333e-05 
-1.720956993442e-05 8.609788543582e-06 0.0 
8.609788543582e-06 5.793877367243e-05 0.0 
0.0 0.0 -1.745537303058e-05 
-1.794503022536e-05 -2.929633746418e-06 0.0 
-2.929633746418e-06 1.076544193850e-04 0.0 
0.0 0.0 -1.733333333333e-05 
-1.807957668014e-05 -7.166718461831e-07 0.0 
-7.166718461831e-07 6.026907959134e-05 0.0 
0.0 0.0 -1.808121553337e-05 
-1.811711921953e-05 -2.126045213460e-06 0.0 
-2.126045213460e-06 1.092171407313e-04 0.0 
0.0 0.0 -1.733333333333e-05 
-1.818497655685e-05 -1.237815913793e-06 0.0 
-1.237815913793e-06 6.062792830740e-05 0.0 
0.0 0.0 -1.818983646452e-05 
-1.817811957929e-05 -1.650670271726e-06 0.0 
-1.650670271726e-06 1.095705851639e-04 0.0 
0.0 0.0 -1.733333333333e-05 
-1.822656247260e-05 -1.071080169092e-06 0.0 
-1.071080169092e-06 6.076367987908e-05 0.0 
0.0 0.0 -1.823019317421e-05 
-1.813768738159e-05 -1.238415531427e-06 0.0 
-1.238415531427e-06 1.097311268226e-04 0.0 
0.0 0.0 -1.733333333333e-05 
-1.824774577778e-05 -8.685855598360e-07 0.0 
-8.685855598360e-07 6.083138428304e-05 0.0 
0.0 0.0 -1.825013078797e-05 
-1.806367047388e-05 -9.352211863773e-07 0.0 
-9.352211863773e-07 1.098085286235e-04 0.0 
0.0 0.0 -1.733333333333e-05 
-1.825857445053e-05 -7.127523013962e-07 0.0 
-7.127523013962e-07 6.086566004119e-05 0.0 
0.0 0.0 -1.826017953885e-05 
-1.798426719159e-05 -7.285931318074e-07 0.0 
-7.285931318074e-07 1.098393062482e-04 0.0 
0.0 0.0 -1.733333333333e-05 
-1.826366699798e-05 -6.032791446684e-07 0.0 
-6.032791446684e-07 6.088157238568e-05 0.0 
0.0 0.0 -1.826481659473e-05 
-1.790904065815e-05 -5.848168233172e-07 0.0 
-5.848168233172e-07 1.098426282800e-04 0.0 
0.0 0.0 -1.733333333333e-05 
-1.826546481197e-05 -5.205919230305e-07 0.0 
-5.205919230305e-07 6.088688000594e-05 0.0 
0.0 0.0 -1.826632079742e-05 
-1.784150031716e-05 -4.701936699394e-07 0.0 
-4.701936699394e-07 1.098294203443e-04 0.0 
0.0 0.0 -1.733333333333e-05 
-1.826542195144e-05 -4.419047588011e-07 0.0 
-4.419047588011e-07 6.088617900470e-05 0.0 
0.0 0.0 -1.826603873711e-05 
-1.778426429724e-05 -3.575239382036e-07 0.0 
-3.575239382036e-07 1.098068027254e-04 0.0 
0.0 0.0 -1.733333333333e-05 
-1.826461866834e-05 -3.469211923941e-07 0.0 
-3.469211923941e-07 6.088294925880e-05 0.0 
0.0 0.0 -1.826499882448e-05 
-1.774084971708e-05 -2.285974000667e-07 0.0 
-2.285974000667e-07 1.097809488961e-04 0.0 
0.0 0.0 -1.733333333333e-05 
-1.826412328605e-05 -2.216915849672e-07 0.0 
-2.216915849672e-07 6.088077318936e-05 0.0 
0.0 0.0 -1.826427852999e-05 
-2.848917765235e-05 -2.077348498387e-05 0.0 
-2.077348498387e-05 1.074966761632e-04 0.0 
0.0 0.0 -1.872259775053e-05 
-1.771590450974e-05 -7.811467351745e-08 0.0 
-7.811467351745e-08 1.097595858568e-04 0.0 
0.0 0.0 -1.733333333333e-05 
-1.826445221234e-05 -6.739675541340e-08 0.0 
-6.739675541340e-08 6.088154085296e-05 0.0 
0.0 0.0 -1.826446656026e-05 
-1.771342120817e-05 8.601928784127e-08 0.0 
8.601928784127e-08 1.097502208396e-04 0.0 
0.0 0.0 -1.733333333333e-05 
-1.321730383652e-05 3.653139677029e-06 0.0 
3.653139677029e-06 6.517789312364e-05 0.0 
0.0 0.0 -2.066666666667e-05 
-1.826588548319e-05 1.023018377922e-07 0.0 
1.023018377922e-07 6.088636207343e-05 0.0 
0.0 0.0 -1.826591853867e-05 
-1.773515394567e-05 2.483901237168e-07 0.0 
2.483901237168e-07 1.097568897435e-04 0.0 
0.0 0.0 -1.733333333333e-05 
-1.826768464028e-05 2.654848946613e-07 0.0 
2.654848946613e-07 6.089280151609e-05 0.0 
0.0 0.0 -1.826790723249e-05 
-1.777934759352e-05 3.932649851549e-07 0.0 
3.932649851549e-07 1.097789349678e-04 0.0 
0.0 0.0 -1.733333333333e-05 
-1.827139305473e-05 4.130727614178e-07 0.0 
4.130727614178e-07 6.090590060555e-05 0.0 
0.0 0.0 -1.827193180750e-05 
-1.189714941736e-05 5.951838146129e-06 0.0 
5.951838146129e-06 7.911077564858e-05 0.0 
0.0 0.0 -1.538926441720e-05 
-1.784378952365e-05 5.002525124713e-07 0.0 
5.002525124713e-07 1.098189774822e-04 0.0 
0.0 0.0 -1.733333333333e-05 
-1.827365607717e-05 5.064073702227e-07 0.0 
5.064073702227e-07 6.091407602189e-05 0.0 
0.0 0.0 -1.827446569059e-05 
-1.791971266442e-05 5.595276177148e-07 0.0 
5.595276177148e-07 1.098668246464e-04 0.0 
0.0 0.0 -1.733333333333e-05 
-1.828139228996e-05 5.717549292204e-07 0.0 
5.717549292204e-07 6.094038135707e-05 0.0 
0.0 0.0 -1.828242388591e-05 
-1.800568920154e-05 5.441464201529e-07 0.0 
5.441464201529e-07 1.099367363948e-04 0.0 
0.0 0.0 -1.733333333333e-05 
-1.827885704286e-05 5.013856485645e-07 0.0 
5.013856485645e-07 6.093137476835e-05 0.0 
0.0 0.0 -1.827965045378e-05 
-1.807852588256e-05 4.937456454551e-07 0.0 
4.937456454551e-07 1.099712136727e-04 0.0 
0.0 0.0 -1.733333333333e-05 
-1.830011361974e-05 5.270392171540e-07 0.0 
5.270392171540e-07 6.100242193206e-05 0.0 
0.0 0.0 -1.830098927671e-05 
-1.816644914190e-05 2.919174050881e-07 0.0 
2.919174050881e-07 1.101080581860e-04 0.0 
0.0 0.0 -1.733333333333e-05 
-1.826742292890e-05 7.859166167913e-08 0.0 
7.859166167913e-08 6.089145527964e-05 0.0 
0.0 0.0 -1.826744243603e-05 
-1.817425738939e-05 1.969248897221e-07 0.0 
1.969248897221e-07 1.099878350799e-04 0.0 
0.0 0.0 -1.733333333333e-05 
-1.832336493488e-05 3.649976817149e-07 0.0 
3.649976817149e-07 6.107886184431e-05 0.0 
0.0 0.0 -1.832378438976e-05 
-1.073550662582e-05 3.661380623111e-06 0.0 
3.661380623111e-06 9.008949771160e-05 0.0 
0.0 0.0 -2.038926441720e-05 
-1.816042934867e-05 -9.036482680640e-07 0.0 
-9.036482680640e-07 6.054081678535e-05 0.0 
0.0 0.0 -1.816302318715e-05 
-1.825355143849e-05 -1.532747100670e-07 0.0 
-1.532747100670e-07 1.102860380555e-04 0.0 
0.0 0.0 -1.733333333333e-05 
-1.838670914621e-05 1.898174356998e-06 0.0 
1.898174356998e-06 6.131539729976e-05 0.0 
0.0 0.0 -1.839800920867e-05 
-1.804334725543e-05 5.086170140757e-07 0.0 
5.086170140757e-07 1.092819574220e-04 0.0 
0.0 0.0 -1.733333333333e-05 
-1.790691061332e-05 -2.103755706276e-06 0.0 
-2.103755706276e-06 5.972295259740e-05 0.0 
0.0 0.0 -1.792116085032e-05 
-1.834637828737e-05 1.877751017270e-07 0.0 
1.877751017270e-07 1.107722593265e-04 0.0 
0.0 0.0 -1.733333333333e-05 
-1.562213943710e-05 7.795719187572e-06 0.0 
7.795719187572e-06 6.178813733454e-05 0.0 
0.0 0.0 -1.978542767033e-05 
-1.765922135557e-05 2.307171820529e-06 0.0 
2.307171820529e-06 1.074062381032e-04 0.0 
0.0 0.0 -1.733333333333e-05 
-1.865600108133e-05 1.168637411501e-06 0.0 
1.168637411501e-06 1.130225580996e-04 0.0 
0.0 0.0 -1.733333333333e-05 
-4.524566377310e-06 -2.557472348542e-06 0.0 
-2.557472348542e-06 4.340688375526e-05 0.0 
0.0 0.0 -1.666385030484e-05 
-2.673582247637e-05 -5.409975352347e-05 0.0 
-5.409975352347e-05 9.521487556723e-05 0.0 
0.0 0.0 -1.900000000000e-05 
-1.071332253622e-05 5.365886941301e-05 0.0 
5.365886941301e-05 6.646737712972e-05 0.0 
0.0 0.0 -1.900000000000e-05 
-2.318842535597e-05 -5.612622760783e-06 0.0 
-5.612622760783e-06 8.955384536226e-05 0.0 
0.0 0.0 -2.233333333333e-05 
-1.410033773566e-05 6.532353231815e-06 0.0 
6.532353231815e-06 7.331066385826e-05 0.0 
0.0 0.0 -1.566666666667e-05 
-9.067894513745e-06 -5.356169420177e-06 0.0 
-5.356169420177e-06 6.558817167631e-05 0.0 
0.0 0.0 -1.566666666667e-05 
-3.115249874379e-05 -9.392764814956e-06 0.0 
-9.392764814956e-06 1.520746859397e-04 0.0 
0.0 0.0 -3.066666666667e-05 
-2.682058423371e-05 1.023262462853e-05 0.0 
1.023262462853e-05 1.789475414021e-04 0.0 
0.0 0.0 -2.733333333333e-05 
-3.054317291122e-05 -1.319297916592e-06 0.0 
-1.319297916592e-06 1.318371458440e-04 0.0 
0.0 0.0 -3.066666666667e-05 
-2.731434440690e-05 -3.292577835775e-07 0.0 
-3.292577835775e-07 1.776636844910e-04 0.0 
0.0 0.0 -2.733333333333e-05 
-3.068230134311e-05 -1.171127504652e-06 0.0 
-1.171127504652e-06 1.309485636588e-04 0.0 
0.0 0.0 -3.066666666667e-05 
-2.762600550872e-05 -1.130662135450e-06 0.0 
-1.130662135450e-06 1.778139332973e-04 0.0 
0.0 0.0 -2.733333333333e-05 
-3.087891343183e-05 -1.132530436389e-06 0.0 
-1.132530436389e-06 1.311466470252e-04 0.0 
0.0 0.0 -3.066666666667e-05 
-2.780022496225e-05 -1.102526127279e-06 0.0 
-1.102526127279e-06 1.779942234450e-04 0.0 
0.0 0.0 -2.733333333333e-05 
-3.102589747765e-05 -1.004569991772e-06 0.0 
-1.004569991772e-06 1.313359802530e-04 0.0 
0.0 0.0 -3.066666666667e-05 
-2.788258457094e-05 -9.668688081841e-07 0.0 
-9.668688081841e-07 1.781179952891e-04 0.0 
0.0 0.0 -2.733333333333e-05 
-3.111787319336e-05 -8.729314539437e-07 0.0 
-8.729314539437e-07 1.314608622191e-04 0.0 
0.0 0.0 -3.066666666667e-05 
-2.790823040739e-05 -8.378244139465e-07 0.0 
-8.378244139465e-07 1.781897784732e-04 0.0 
0.0 0.0 -2.733333333333e-05 
-3.116455107115e-05 -7.640341986132e-07 0.0 
-7.640341986132e-07 1.315316495351e-04 0.0 
0.0 0.0 -3.066666666667e-05 
-2.790066553311e-05 -7.329815685835e-07 0.0 
-7.329815685835e-07 1.782217638771e-04 0.0 
0.0 0.0 -2.733333333333e-05 
-3.117866187168e-05 -6.720747297610e-07 0.0 
-6.720747297610e-07 1.315631577420e-04 0.0 
0.0 0.0 -3.066666666667e-05 
-2.787481270068e-05 -6.416960435711e-07 0.0 
-6.416960435711e-07 1.782248648945e-04 0.0 
0.0 0.0 -2.733333333333e-05 
-3.117208639374e-05 -5.805765665885e-07 0.0 
-5.805765665885e-07 1.315676964099e-04 0.0 
0.0 0.0 -3.066666666667e-05 
-2.784021682385e-05 -5.460022049189e-07 0.0 
-5.460022049189e-07 1.782073925414e-04 0.0 
0.0 0.0 -2.733333333333e-05 
-3.115293685845e-05 -4.713148351393e-07 0.0 
-4.713148351393e-07 1.315543265043e-04 0.0 
0.0 0.0 -3.066666666667e-05 
-2.780368518980e-05 -4.277803080253e-07 0.0 
-4.277803080253e-07 1.781767718938e-04 0.0 
0.0 0.0 -2.733333333333e-05 
-3.667122527508e-05 -2.122966822693e-05 0.0 
-2.122966822693e-05 1.767731432372e-04 0.0 
0.0 0.0 -2.873639455782e-05 
-3.112752319427e-05 -3.273124817502e-07 0.0 
-3.273124817502e-07 1.315309331346e-04 0.0 
0.0 0.0 -3.066666666667e-05 
-2.777187291842e-05 -2.729422196053e-07 0.0 
-2.729422196053e-07 1.781425712313e-04 0.0 
0.0 0.0 -2.733333333333e-05 
-3.110252441256e-05 -1.357830489110e-07 0.0 
-1.357830489110e-07 1.315074138609e-04 0.0 
0.0 0.0 -3.066666666667e-05 
-2.009416229602e-05 2.949525949728e-06 0.0 
2.949525949728e-06 1.486157984382e-04 0.0 
0.0 0.0 -2.540306122449e-05 
-2.775422339691e-05 -7.800270951605e-08 0.0 
-7.800270951605e-08 1.781223259519e-04 0.0 
0.0 0.0 -2.733333333333e-05 
-3.109409877837e-05 8.363799497494e-08 0.0 
8.363799497494e-08 1.314964783393e-04 0.0 
0.0 0.0 -3.066666666667e-05 
-2.258573317897e-05 4.566248051516e-06 0.0 
4.566248051516e-06 1.328474345229e-04 0.0 
0.0 0.0 -3.066666666667e-05 
-2.775551180818e-05 1.381503603416e-07 0.0 
1.381503603416e-07 1.781205034801e-04 0.0 
0.0 0.0 -2.733333333333e-05 
-3.110835224456e-05 3.175213947338e-07 0.0 
3.175213947338e-07 1.315035429915e-04 0.0 
0.0 0.0 -3.066666666667e-05 
-2.778149912914e-05 3.505123535167e-07 0.0 
3.505123535167e-07 1.781500161720e-04 0.0 
0.0 0.0 -2.733333333333e-05 
-3.115216375409e-05 5.003570368217e-07 0.0 
5.003570368217e-07 1.315296802721e-04 0.0 
0.0 0.0 -3.066666666667e-05 
-2.781953445980e-05 5.272172932021e-07 0.0 
5.272172932021e-07 1.781780888155e-04 0.0 
0.0 0.0 -2.733333333333e-05 
-3.119179440074e-05 6.972352024228e-07 0.0 
6.972352024228e-07 1.315674207111e-04 0.0 
0.0 0.0 -3.066666666667e-05 
-2.788980674257e-05 6.621830901506e-07 0.0 
6.621830901506e-07 1.782718807566e-04 0.0 
0.0 0.0 -2.733333333333e-05 
-3.127786243588e-05 7.001787595592e-07 0.0 
7.001787595592e-07 1.316234844057e-04 0.0 
0.0 0.0 -3.066666666667e-05 
-2.793669723939e-05 7.121536771423e-07 0.0 
7.121536771423e-07 1.782789730811e-04 0.0 
0.0 0.0 -2.733333333333e-05 
-2.083987659497e-05 5.192262395949e-06 0.0 
5.192262395949e-06 1.601604535816e-04 0.0 
0.0 0.0 -3.040306122449e-05 
-3.128196488704e-05 8.864502461672e-07 0.0 
8.864502461672e-07 1.316740698415e-04 0.0 
0.0 0.0 -3.066666666667e-05 
-2.805871458840e-05 7.181961098696e-07 0.0 
7.181961098696e-07 1.784918476482e-04 0.0 
0.0 0.0 -2.733333333333e-05 
-3.146723415352e-05 4.676695999066e-07 0.0 
4.676695999066e-07 1.317436802558e-04 0.0 
0.0 0.0 -3.066666666667e-05 
-2.803856534745e-05 6.263142573500e-07 0.0 
6.263142573500e-07 1.782766160668e-04 0.0 
0.0 0.0 -2.733333333333e-05 
-2.835427252241e-05 5.303924104693e-07 0.0 
5.303924104693e-07 1.789956933432e-04 0.0 
0.0 0.0 -2.733333333333e-05 
-3.125094743854e-05 1.161197627037e-06 0.0 
1.161197627037e-06 1.317977815772e-04 0.0 
0.0 0.0 -3.066666666667e-05 
-2.801438929685e-05 2.633779876239e-07 0.0 
2.633779876239e-07 1.778194862359e-04 0.0 
0.0 0.0 -2.733333333333e-05 
-3.203619725494e-05 -6.502667759813e-07 0.0 
-6.502667759813e-07 1.319090743744e-04 0.0 
0.0 0.0 -3.066666666667e-05 
-2.883280858308e-05 1.534642711598e-07 0.0 
1.534642711598e-07 1.799854777383e-04 0.0 
0.0 0.0 -2.733333333333e-05 
-3.079104632735e-05 2.074866327860e-06 0.0 
2.074866327860e-06 1.318195767180e-04 0.0 
0.0 0.0 -3.066666666667e-05 
-2.703199875693e-05 5.887451633951e-07 0.0 
5.887451633951e-07 1.747972044784e-04 0.0 
0.0 0.0 -2.733333333333e-05 
-2.980411932691e-05 3.550617276802e-06 0.0 
3.550617276802e-06 1.814647316143e-04 0.0 
0.0 0.0 -2.733333333333e-05 
-3.347691701532e-05 -4.239159922635e-06 0.0 
-4.239159922635e-06 1.316323545227e-04 0.0 
0.0 0.0 -3.066666666667e-05 
-2.469250650365e-05 7.865760100327e-06 0.0 
7.865760100327e-06 1.302807475393e-04 0.0 
0.0 0.0 -3.066666666667e-05 
-1.443364817236e-05 -3.916192661548e-06 0.0 
-3.916192661548e-06 1.161464928675e-04 0.0 
0.0 0.0 -2.706972789116e-05 
-2.210942681219e-05 -5.425861009592e-05 0.0 
-5.425861009592e-05 1.494137921260e-04 0.0 
0.0 0.0 -2.900000000000e-05 
-3.730144947539e-05 5.465077409855e-05 0.0 
5.465077409855e-05 1.766425161808e-04 0.0 
0.0 0.0 -2.900000000000e-05 
-2.652175868930e-05 -4.778009820364e-06 0.0 
-4.778009820364e-06 1.550020280535e-04 0.0 
0.0 0.0 -2.566666666667e-05 
-3.303512460698e-05 6.627458112937e-06 0.0 
6.627458112937e-06 1.697654660127e-04 0.0 
0.0 0.0 -3.233333333333e-05 
-1.821730383652e-05 -8.210888401218e-07 0.0 
-8.210888401218e-07 1.355384773217e-04 0.0 
0.0 0.0 -2.566666666667e-05 
-3.781916541046e-05 -9.669426051968e-06 0.0 
-9.669426051968e-06 2.301589260470e-04 0.0 
0.0 0.0 -3.733333333333e-05 
-4.092491983796e-05 8.729822583191e-06 0.0 
8.729822583191e-06 2.009734351153e-04 0.0 
0.0 0.0 -4.066666666667e-05 
-3.720983957789e-05 -4.166702888572e-07 0.0 
-4.166702888572e-07 2.479913252547e-04 0.0 
0.0 0.0 -3.733333333333e-05 
-4.073203551989e-05 1.912414136314e-07 0.0 
1.912414136314e-07 2.020651978415e-04 0.0 
0.0 0.0 -4.066666666667e-05 
-3.734896800978e-05 -5.458140338044e-07 0.0 
-5.458140338044e-07 2.487742214024e-04 0.0 
0.0 0.0 -3.733333333333e-05 
-4.074690567022e-05 -5.221015569479e-07 0.0 
-5.221015569479e-07 2.021844906501e-04 0.0 
0.0 0.0 -4.066666666667e-05 
-3.754558009850e-05 -8.186107780119e-07 0.0 
-8.186107780119e-07 2.488747468293e-04 0.0 
0.0 0.0 -3.733333333333e-05 
-4.084584502726e-05 -6.751178472883e-07 0.0 
-6.751178472883e-07 2.023107608641e-04 0.0 
0.0 0.0 -4.066666666667e-05 
-3.769256414432e-05 -8.839606299389e-07 0.0 
-8.839606299389e-07 2.489991732538e-04 0.0 
0.0 0.0 -3.733333333333e-05 
-4.095987022465e-05 -7.135976235807e-07 0.0 
-7.135976235807e-07 2.024315430679e-04 0.0 
0.0 0.0 -4.066666666667e-05 
-3.778453986003e-05 -8.550901005864e-07 0.0 
-8.550901005864e-07 2.491166393793e-04 0.0 
0.0 0.0 -3.733333333333e-05 
-4.105410239505e-05 -7.183687370872e-07 0.0 
-7.183687370872e-07 2.025205319300e-04 0.0 
0.0 0.0 -4.066666666667e-05 
-3.783121773782e-05 -7.935454732762e-07 0.0 
-7.935454732762e-07 2.491993200158e-04 0.0 
0.0 0.0 -3.733333333333e-05 
-4.111318680875e-05 -7.044631244033e-07 0.0 
-7.044631244033e-07 2.025712551249e-04 0.0 
0.0 0.0 -4.066666666667e-05 
-3.784532853834e-05 -7.153277524469e-07 0.0 
-7.153277524469e-07 2.492411429785e-04 0.0 
0.0 0.0 -3.733333333333e-05 
-4.114290171895e-05 -6.676018244403e-07 0.0 
-6.676018244403e-07 2.025894891273e-04 0.0 
0.0 0.0 -4.066666666667e-05 
-3.783875306040e-05 -6.198297258670e-07 0.0 
-6.198297258670e-07 2.492487617912e-04 0.0 
0.0 0.0 -3.733333333333e-05 
-4.115065641406e-05 -6.023736596212e-07 0.0 
-6.023736596212e-07 2.025822140463e-04 0.0 
0.0 0.0 -4.066666666667e-05 
-3.781960352511e-05 -4.979669840281e-07 0.0 
-4.979669840281e-07 2.492288868419e-04 0.0 
0.0 0.0 -3.733333333333e-05 
-4.621169411584e-05 -2.212523397124e-05 0.0 
-2.212523397124e-05 2.452866569748e-04 0.0 
0.0 0.0 -3.872092683227e-05 
-4.114419355370e-05 -4.972920868529e-07 0.0 
-4.972920868529e-07 2.025573168415e-04 0.0 
0.0 0.0 -4.066666666667e-05 
-3.779418986094e-05 -3.400549255306e-07 0.0 
-3.400549255306e-07 2.491899758271e-04 0.0 
0.0 0.0 -3.733333333333e-05 
-4.112372304841e-05 -3.380030510148e-07 0.0 
-3.380030510148e-07 2.025226389185e-04 0.0 
0.0 0.0 -4.066666666667e-05 
-3.303686742204e-05 2.084619112561e-06 0.0 
2.084619112561e-06 2.036515718641e-04 0.0 
0.0 0.0 -4.066666666667e-05 
-3.776919107923e-05 -1.339463035146e-07 0.0 
-1.339463035146e-07 2.491410866450e-04 0.0 
0.0 0.0 -3.733333333333e-05 
-4.108783558863e-05 -9.529083630623e-08 0.0 
-9.529083630623e-08 2.024951491152e-04 0.0 
0.0 0.0 -4.066666666667e-05 
-3.776076544504e-05 1.109184295478e-07 0.0 
1.109184295478e-07 2.491106549150e-04 0.0 
0.0 0.0 -3.733333333333e-05 
-4.109006946238e-05 1.831795911426e-07 0.0 
1.831795911426e-07 2.024946427316e-04 0.0 
0.0 0.0 -4.066666666667e-05 
-3.777501891122e-05 3.617597255350e-07 0.0 
3.617597255350e-07 2.491145553625e-04 0.0 
0.0 0.0 -3.733333333333e-05 
-2.941343333592e-05 4.229173994627e-06 0.0 
4.229173994627e-06 2.174288971154e-04 0.0 
0.0 0.0 -3.538759349893e-05 
-4.110335293992e-05 4.754912270096e-07 0.0 
4.754912270096e-07 2.025262819506e-04 0.0 
0.0 0.0 -4.066666666667e-05 
-3.781883042075e-05 5.683903253688e-07 0.0 
5.683903253688e-07 2.491702123511e-04 0.0 
0.0 0.0 -3.733333333333e-05 
-4.121091989970e-05 6.375800689339e-07 0.0 
6.375800689339e-07 2.025796075057e-04 0.0 
0.0 0.0 -4.066666666667e-05 
-3.785846106741e-05 7.301963965339e-07 0.0 
7.301963965339e-07 2.492159661428e-04 0.0 
0.0 0.0 -3.733333333333e-05 
-4.116646175243e-05 8.946990790910e-07 0.0 
8.946990790910e-07 2.026485459214e-04 0.0 
0.0 0.0 -4.066666666667e-05 
-3.794452910255e-05 7.834021805717e-07 0.0 
7.834021805717e-07 2.493635044725e-04 0.0 
0.0 0.0 -3.733333333333e-05 
-4.141035317160e-05 7.235841622150e-07 0.0 
7.235841622150e-07 2.027143677742e-04 0.0 
0.0 0.0 -4.066666666667e-05 
-3.794863155371e-05 8.478549530821e-07 0.0 
8.478549530821e-07 2.493226338252e-04 0.0 
0.0 0.0 -3.733333333333e-05 
-4.104774729339e-05 1.212021102596e-06 0.0 
1.212021102596e-06 2.027927445822e-04 0.0 
0.0 0.0 -4.066666666667e-05 
-3.813390082019e-05 6.885979451934e-07 0.0 
6.885979451934e-07 2.497066659957e-04 0.0 
0.0 0.0 -3.733333333333e-05 
-4.179487599718e-05 7.759139060389e-08 0.0 
7.759139060389e-08 2.027880726802e-04 0.0 
0.0 0.0 -4.066666666667e-05 
-3.059227124207e-05 6.360533019117e-06 0.0 
6.360533019117e-06 2.294458842785e-04 0.0 
0.0 0.0 -4.038759349893e-05 
-4.029110159074e-05 2.610848187008e-06 0.0 
2.610848187008e-06 2.029882584628e-04 0.0 
0.0 0.0 -4.066666666667e-05 
-3.791761410521e-05 9.834452052227e-07 0.0 
9.834452052227e-07 2.490258712289e-04 0.0 
0.0 0.0 -3.733333333333e-05 
-4.328649112970e-05 -2.846153171239e-06 0.0 
-2.846153171239e-06 2.027783130813e-04 0.0 
0.0 0.0 -4.066666666667e-05 
-3.870286392160e-05 3.294084689996e-07 0.0 
3.294084689996e-07 2.508608864312e-04 0.0 
0.0 0.0 -3.733333333333e-05 
-3.531854041237e-05 7.513766644493e-06 0.0 
7.513766644493e-06 2.022043512448e-04 0.0 
0.0 0.0 -4.066666666667e-05 
-3.745771299402e-05 1.439133076564e-06 0.0 
1.439133076564e-06 2.471853041742e-04 0.0 
0.0 0.0 -3.733333333333e-05 
-4.014358368198e-05 1.598479683686e-06 0.0 
1.598479683686e-06 2.530834677737e-04 0.0 
0.0 0.0 -3.733333333333e-05 
-2.406555344720e-05 -1.325170613380e-06 0.0 
-1.325170613380e-06 1.853854904806e-04 0.0 
0.0 0.0 -3.705426016560e-05 
-4.773276247715e-05 -5.487666340881e-05 0.0 
-5.487666340881e-05 2.339073081141e-04 0.0 
0.0 0.0 -3.900000000000e-05 
-3.194031618913e-05 5.389798654005e-05 0.0 
5.389798654005e-05 2.056003519706e-04 0.0 
0.0 0.0 -3.900000000000e-05 
-4.315017897202e-05 -5.698520515806e-06 0.0 
-5.698520515806e-06 2.278586648408e-04 0.0 
0.0 0.0 -4.233333333333e-05 
-3.636845794032e-05 6.197286116004e-06 0.0 
6.197286116004e-06 2.129494665549e-04 0.0 
0.0 0.0 -3.566666666667e-05 
-2.758573317897e-05 -7.450288626600e-07 0.0 
-7.450288626600e-07 2.055894845529e-04 0.0 
0.0 0.0 -3.566666666667e-05 
-5.115038909489e-05 -1.066370140281e-05 0.0 
-1.066370140281e-05 2.909036237404e-04 0.0 
0.0 0.0 -5.066666666667e-05 
-4.759158650463e-05 8.684038607520e-06 0.0 
8.684038607520e-06 3.188574670315e-04 0.0 
0.0 0.0 -4.733333333333e-05 
-5.085989610145e-05 -9.272482802418e-07 0.0 
-9.272482802418e-07 2.717727954080e-04 0.0 
0.0 0.0 -5.066666666667e-05 
-4.739870218655e-05 2.214119719171e-07 0.0 
2.214119719171e-07 3.172539875028e-04 0.0 
0.0 0.0 -4.733333333333e-05 
-5.074388418815e-05 -4.937434425518e-07 0.0 
-4.937434425518e-07 2.705407306617e-04 0.0 
0.0 0.0 -5.066666666667e-05 
-4.741357233689e-05 -4.274409505775e-07 0.0 
-4.274409505775e-07 3.171493791242e-04 0.0 
0.0 0.0 -4.733333333333e-05 
-5.077435242920e-05 -5.251521886155e-07 0.0 
-5.251521886155e-07 2.704744233650e-04 0.0 
0.0 0.0 -5.066666666667e-05 
-4.751251169393e-05 -5.591654456356e-07 0.0 
-5.591654456356e-07 3.172282015912e-04 0.0 
0.0 0.0 -4.733333333333e-05 
-5.087235212600e-05 -5.477202699122e-07 0.0 
-5.477202699122e-07 2.705630921400e-04 0.0 
0.0 0.0 -5.066666666667e-05 
-4.762653689132e-05 -6.001451931681e-07 0.0 
-6.001451931681e-07 3.173415219525e-04 0.0 
0.0 0.0 -4.733333333333e-05 
-5.098168910847e-05 -5.759387222219e-07 0.0 
-5.759387222219e-07 2.706783838615e-04 0.0 
0.0 0.0 -5.066666666667e-05 
-4.772076906172e-05 -6.197857542977e-07 0.0 
-6.197857542977e-07 3.174342765130e-04 0.0 
0.0 0.0 -4.733333333333e-05 
-5.106925553891e-05 -6.148249102859e-07 0.0 
-6.148249102859e-07 2.707687156573e-04 0.0 
0.0 0.0 -5.066666666667e-05 
-4.777985347542e-05 -6.302251650863e-07 0.0 
-6.302251650863e-07 3.174780838358e-04 0.0 
0.0 0.0 -4.733333333333e-05 
-5.110938275235e-05 -6.217795403131e-07 0.0 
-6.217795403131e-07 2.708127709170e-04 0.0 
0.0 0.0 -5.066666666667e-05 
-4.780956838562e-05 -6.053853643083e-07 0.0 
-6.053853643083e-07 3.174879369113e-04 0.0 
0.0 0.0 -4.733333333333e-05 
-5.113117215563e-05 -5.887362678852e-07 0.0 
-5.887362678852e-07 2.708240786717e-04 0.0 
0.0 0.0 -5.066666666667e-05 
-4.781732308072e-05 -5.449737583287e-07 0.0 
-5.449737583287e-07 3.174684300656e-04 0.0 
0.0 0.0 -4.733333333333e-05 
-5.535647040899e-05 -2.224721771426e-05 0.0 
-2.224721771426e-05 3.151114578633e-04 0.0 
0.0 0.0 -4.873639455782e-05 
-5.114534917985e-05 -5.074590888670e-07 0.0 
-5.074590888670e-07 2.708096679475e-04 0.0 
0.0 0.0 -5.066666666667e-05 
-4.781086022037e-05 -4.469500262259e-07 0.0 
-4.469500262259e-07 3.174296260920e-04 0.0 
0.0 0.0 -4.733333333333e-05 
-5.115405450020e-05 -3.906968067935e-07 0.0 
-3.906968067935e-07 2.707769751642e-04 0.0 
0.0 0.0 -5.066666666667e-05 
-4.005493497019e-05 3.545620753650e-06 0.0 
3.545620753650e-06 2.877213180819e-04 0.0 
0.0 0.0 -4.540306122449e-05 
-4.779038971508e-05 -3.118347089870e-07 0.0 
-3.118347089870e-07 3.173687819636e-04 0.0 
0.0 0.0 -4.733333333333e-05 
-4.336028639231e-05 1.776569064140e-06 0.0 
1.776569064140e-06 2.725941409189e-04 0.0 
0.0 0.0 -5.066666666667e-05 
-5.113174051410e-05 -2.330635383312e-07 0.0 
-2.330635383312e-07 2.707232099099e-04 0.0 
0.0 0.0 -5.066666666667e-05 
-4.775450225529e-05 -1.088356439118e-07 0.0 
-1.088356439118e-07 3.172781608830e-04 0.0 
0.0 0.0 -4.733333333333e-05 
-5.106103971955e-05 1.061811698324e-07 0.0 
1.061811698324e-07 2.706701197139e-04 0.0 
0.0 0.0 -5.066666666667e-05 
-4.775673612905e-05 1.928918352567e-07 0.0 
1.928918352567e-07 3.172905143377e-04 0.0 
0.0 0.0 -4.733333333333e-05 
-5.109739057832e-05 3.875546929347e-07 0.0 
3.875546929347e-07 2.706837710260e-04 0.0 
0.0 0.0 -5.066666666667e-05 
-4.777001960659e-05 4.785139335737e-07 0.0 
4.785139335737e-07 3.172918469328e-04 0.0 
0.0 0.0 -4.733333333333e-05 
-5.114053674906e-05 8.454240426302e-07 0.0 
8.454240426302e-07 2.707487787219e-04 0.0 
0.0 0.0 -5.066666666667e-05 
-4.787758656637e-05 7.009769641847e-07 0.0 
7.009769641847e-07 3.175395861276e-04 0.0 
0.0 0.0 -4.733333333333e-05 
-3.859763791424e-05 3.664155593188e-06 0.0 
3.664155593188e-06 2.982362191000e-04 0.0 
0.0 0.0 -5.040306122449e-05 
-5.137125646484e-05 6.035243328694e-07 0.0 
6.035243328694e-07 2.708584208901e-04 0.0 
0.0 0.0 -5.066666666667e-05 
-4.783312841910e-05 7.620509721787e-07 0.0 
7.620509721787e-07 3.173437515974e-04 0.0 
0.0 0.0 -4.733333333333e-05 
-5.111406613470e-05 1.413247059512e-06 0.0 
1.413247059512e-06 2.709105882421e-04 0.0 
0.0 0.0 -5.066666666667e-05 
-4.807701983827e-05 8.408573881303e-07 0.0 
8.408573881303e-07 3.180354434408e-04 0.0 
0.0 0.0 -4.733333333333e-05 
-4.771441396005e-05 7.591073150930e-07 0.0 
7.591073150930e-07 3.169623596771e-04 0.0 
0.0 0.0 -4.733333333333e-05 
-5.166913602441e-05 -1.267909664581e-07 0.0 
-1.267909664581e-07 2.710297563612e-04 0.0 
0.0 0.0 -5.066666666667e-05 
-4.846154266385e-05 7.945751000270e-07 0.0 
7.945751000270e-07 3.191634342060e-04 0.0 
0.0 0.0 -4.733333333333e-05 
-5.033295262382e-05 2.676824150486e-06 0.0 
2.676824150486e-06 2.709658459585e-04 0.0 
0.0 0.0 -5.066666666667e-05 
-4.695776825741e-05 1.311506299456e-06 0.0 
1.311506299456e-06 3.146029699114e-04 0.0 
0.0 0.0 -4.733333333333e-05 
-4.995315779637e-05 3.019430349178e-06 0.0 
3.019430349178e-06 3.221256746523e-04 0.0 
0.0 0.0 -4.733333333333e-05 
-5.264949915731e-05 -3.033116857975e-06 0.0 
-3.033116857975e-06 2.709941081171e-04 0.0 
0.0 0.0 -5.066666666667e-05 
-4.458143821664e-05 8.706406035169e-06 0.0 
8.706406035169e-06 2.701222728083e-04 0.0 
0.0 0.0 -5.066666666667e-05 
-3.262660739579e-05 -2.447626091127e-06 0.0 
-2.447626091127e-06 2.549253489660e-04 0.0 
0.0 0.0 -4.706972789116e-05 
-4.183172584708e-05 -5.516448082583e-05 0.0 
-5.516448082583e-05 2.878160453026e-04 0.0 
0.0 0.0 -4.900000000000e-05 
-5.736611696375e-05 5.379757100263e-05 0.0 
5.379757100263e-05 3.156420142217e-04 0.0 
0.0 0.0 -4.900000000000e-05 
-4.648351230535e-05 -5.650677953531e-06 0.0 
-5.650677953531e-06 2.936870104723e-04 0.0 
0.0 0.0 -4.566666666667e-05 
-5.288209209055e-05 5.940363499374e-06 0.0 
5.940363499374e-06 3.083110135112e-04 0.0 
0.0 0.0 -5.233333333333e-05 
-3.803686742204e-05 -9.545998375183e-07 0.0 
-9.545998375183e-07 2.755250232948e-04 0.0 
0.0 0.0 -4.566666666667e-05 
-5.781705576156e-05 -1.097834381467e-05 0.0 
-1.097834381467e-05 3.693403496953e-04 0.0 
0.0 0.0 -5.733333333333e-05 
-6.100891304768e-05 7.885091902878e-06 0.0 
7.885091902878e-06 3.405875281446e-04 0.0 
0.0 0.0 -6.066666666667e-05 
-5.752656276812e-05 -9.002056482216e-07 0.0 
-9.002056482216e-07 3.876358825742e-04 0.0 
0.0 0.0 -5.733333333333e-05 
-6.081359015182e-05 -5.794002622293e-08 0.0 
-5.794002622293e-08 3.417160881662e-04 0.0 
0.0 0.0 -6.066666666667e-05 
-5.741055085482e-05 -3.076662680791e-07 0.0 
-3.076662680791e-07 3.883987448460e-04 0.0 
0.0 0.0 -5.733333333333e-05 
-6.074210787550e-05 -3.038056687787e-07 0.0 
-3.038056687787e-07 3.417341222542e-04 0.0 
0.0 0.0 -6.066666666667e-05 
-5.744101909586e-05 -3.350213589507e-07 0.0 
-3.350213589507e-07 3.884037471439e-04 0.0 
0.0 0.0 -5.733333333333e-05 
-6.076980017163e-05 -2.633586237472e-07 0.0 
-2.633586237472e-07 3.417973373645e-04 0.0 
0.0 0.0 -6.066666666667e-05 
-5.753901879266e-05 -4.032254988366e-07 0.0 
-4.032254988366e-07 3.884804185775e-04 0.0 
0.0 0.0 -5.733333333333e-05 
-6.084901192467e-05 -2.839820900020e-07 0.0 
-2.839820900020e-07 3.418997932862e-04 0.0 
0.0 0.0 -6.066666666667e-05 
-5.764835577513e-05 -4.670991574783e-07 0.0 
-4.670991574783e-07 3.885926020556e-04 0.0 
0.0 0.0 -5.733333333333e-05 
-6.097338103546e-05 -3.711727285251e-07 0.0 
-3.711727285251e-07 3.420012923996e-04 0.0 
0.0 0.0 -6.066666666667e-05 
-5.773592220557e-05 -5.434399062823e-07 0.0 
-5.434399062823e-07 3.886963937928e-04 0.0 
0.0 0.0 -5.733333333333e-05 
-6.104369650402e-05 -5.100362655251e-07 0.0 
-5.100362655251e-07 3.420398794502e-04 0.0 
0.0 0.0 -6.066666666667e-05 
-5.777604941901e-05 -5.548094796899e-07 0.0 
-5.548094796899e-07 3.887163194926e-04 0.0 
0.0 0.0 -5.733333333333e-05 
-6.105893067594e-05 -5.296141592932e-07 0.0 
-5.296141592932e-07 3.420372773735e-04 0.0 
0.0 0.0 -6.066666666667e-05 
-5.779783882230e-05 -4.963068092733e-07 0.0 
-4.963068092733e-07 3.887001927722e-04 0.0 
0.0 0.0 -5.733333333333e-05 
-6.429332232619e-05 -2.307460778734e-05 0.0 
-2.307460778734e-05 3.850600827683e-04 0.0 
0.0 0.0 -5.871879621414e-05 
-6.109192576982e-05 -4.837956592854e-07 0.0 
-4.837956592854e-07 3.420192799563e-04 0.0 
0.0 0.0 -6.066666666667e-05 
-5.781201584652e-05 -3.891035793225e-07 0.0 
-3.891035793225e-07 3.886678861241e-04 0.0 
0.0 0.0 -5.733333333333e-05 
-5.197171891332e-05 2.601338786256e-06 0.0 
2.601338786256e-06 3.430943376592e-04 0.0 
0.0 0.0 -6.066666666667e-05 
-6.116828848797e-05 -4.015809249984e-07 0.0 
-4.015809249984e-07 3.420050059064e-04 0.0 
0.0 0.0 -6.066666666667e-05 
-5.782072116687e-05 -2.899615651131e-07 0.0 
-2.899615651131e-07 3.886441670397e-04 0.0 
0.0 0.0 -5.733333333333e-05 
-6.121626665852e-05 -3.540641570560e-07 0.0 
-3.540641570560e-07 3.419641075570e-04 0.0 
0.0 0.0 -6.066666666667e-05 
-5.779840718077e-05 -1.758510829020e-07 0.0 
-1.758510829020e-07 3.885785316046e-04 0.0 
0.0 0.0 -5.733333333333e-05 
-6.116783759642e-05 -2.820525569960e-07 0.0 
-2.820525569960e-07 3.418542542977e-04 0.0 
0.0 0.0 -6.066666666667e-05 
-4.930023443078e-05 5.796000691354e-06 0.0 
5.796000691354e-06 3.582468498007e-04 0.0 
0.0 0.0 -5.538546288080e-05 
-5.772770638621e-05 1.312401498261e-07 0.0 
1.312401498261e-07 3.883955911533e-04 0.0 
0.0 0.0 -5.733333333333e-05 
-6.096829823239e-05 3.035755375707e-07 0.0 
3.035755375707e-07 3.418039294054e-04 0.0 
0.0 0.0 -6.066666666667e-05 
-5.776405724498e-05 4.984520269403e-07 0.0 
4.984520269403e-07 3.884232433503e-04 0.0 
0.0 0.0 -5.733333333333e-05 
-6.125140204367e-05 5.931380027650e-07 0.0 
5.931380027650e-07 3.418903324586e-04 0.0 
0.0 0.0 -6.066666666667e-05 
-5.780720341573e-05 8.244863566380e-07 0.0 
8.244863566380e-07 3.884697708382e-04 0.0 
0.0 0.0 -5.733333333333e-05 
-6.110831296764e-05 1.296657285393e-06 0.0 
1.296657285393e-06 3.420973359667e-04 0.0 
0.0 0.0 -6.066666666667e-05 
-5.803792313151e-05 7.049279494282e-07 0.0 
7.049279494282e-07 3.890016332223e-04 0.0 
0.0 0.0 -5.733333333333e-05 
-6.205350649242e-05 4.589417531417e-08 0.0 
4.589417531417e-08 3.421906476610e-04 0.0 
0.0 0.0 -6.066666666667e-05 
-5.778073280136e-05 8.470981603539e-07 0.0 
8.470981603539e-07 3.884329098950e-04 0.0 
0.0 0.0 -5.733333333333e-05 
-6.041203126657e-05 2.222910704188e-06 0.0 
2.222910704188e-06 3.423435831242e-04 0.0 
0.0 0.0 -6.066666666667e-05 
-4.710203058735e-05 4.310616550608e-06 0.0 
4.310616550608e-06 3.686964131418e-04 0.0 
0.0 0.0 -6.038546288080e-05 
-6.294942027381e-05 -2.756163189823e-06 0.0 
-2.756163189823e-06 3.420852271838e-04 0.0 
0.0 0.0 -6.066666666667e-05 
-5.833580269108e-05 1.472104880338e-07 0.0 
1.472104880338e-07 3.900149670501e-04 0.0 
0.0 0.0 -5.733333333333e-05 
-5.509863290017e-05 6.978613204043e-06 0.0 
6.978613204043e-06 3.416103539067e-04 0.0 
0.0 0.0 -6.066666666667e-05 
-5.699961929049e-05 1.188126407733e-06 0.0 
1.188126407733e-06 3.866763485151e-04 0.0 
0.0 0.0 -5.733333333333e-05 
-5.931616582398e-05 1.264970039408e-06 0.0 
1.264970039408e-06 3.921885981794e-04 0.0 
0.0 0.0 -5.733333333333e-05 
-4.124266933807e-05 1.249791926263e-06 0.0 
1.249791926263e-06 3.252010506084e-04 0.0 
0.0 0.0 -5.705212954747e-05 
-6.749087282606e-05 -5.537350596849e-05 0.0 
-5.537350596849e-05 3.726705081140e-04 0.0 
0.0 0.0 -5.900000000000e-05 
-5.182302720593e-05 5.344964927870e-05 0.0 
5.344964927870e-05 3.446027874510e-04 0.0 
0.0 0.0 -5.900000000000e-05 
-6.292581995443e-05 -5.978106008697e-06 0.0 
-5.978106008697e-06 3.667667175588e-04 0.0 
0.0 0.0 -6.233333333333e-05 
-5.621542542388e-05 5.720175409305e-06 0.0 
5.720175409305e-06 3.519710587876e-04 0.0 
0.0 0.0 -5.566666666667e-05 
-4.836028639231e-05 1.166463025180e-06 0.0 
1.166463025180e-06 3.464077171258e-04 0.0 
0.0 0.0 -5.566666666667e-05 
-7.114563988620e-05 -1.149003057072e-05 0.0 
-1.149003057072e-05 4.298780722485e-04 0.0 
0.0 0.0 -7.066666666667e-05 
-6.767557971435e-05 7.789921185043e-06 0.0 
7.789921185043e-06 4.581053887753e-04 0.0 
0.0 0.0 -6.733333333333e-05 
-7.086950529367e-05 -1.417087462263e-06 0.0 
-1.417087462263e-06 4.109780231572e-04 0.0 
0.0 0.0 -7.066666666667e-05 
-6.748025681849e-05 -2.346688612902e-07 0.0 
-2.346688612902e-07 4.565031102245e-04 0.0 
0.0 0.0 -6.733333333333e-05 
-7.064770782861e-05 -5.361532288411e-07 0.0 
-5.361532288411e-07 4.098128991423e-04 0.0 
0.0 0.0 -7.066666666667e-05 
-6.740877454217e-05 -3.802090969509e-07 0.0 
-3.802090969509e-07 4.564156801283e-04 0.0 
0.0 0.0 -6.733333333333e-05 
-7.068434388014e-05 -2.719211823047e-07 0.0 
-2.719211823047e-07 4.097592646131e-04 0.0 
0.0 0.0 -7.066666666667e-05 
-6.743646683829e-05 -2.660727184679e-07 0.0 
-2.660727184679e-07 4.564862413471e-04 0.0 
0.0 0.0 -6.733333333333e-05 
-7.071554313554e-05 -1.840132234043e-07 0.0 
-1.840132234043e-07 4.098289843511e-04 0.0 
0.0 0.0 -7.066666666667e-05 
-6.751567859134e-05 -1.979083631644e-07 0.0 
-1.979083631644e-07 4.566038930868e-04 0.0 
0.0 0.0 -6.733333333333e-05 
-7.082563799221e-05 -1.082855862797e-07 0.0 
-1.082855862797e-07 4.099501439232e-04 0.0 
0.0 0.0 -7.066666666667e-05 
-6.764004770213e-05 -1.840544218251e-07 0.0 
-1.840544218251e-07 4.567798774879e-04 0.0 
0.0 0.0 -6.733333333333e-05 
-7.099668157673e-05 -3.152621347735e-07 0.0 
-3.152621347735e-07 4.100909630507e-04 0.0 
0.0 0.0 -7.066666666667e-05 
-6.771036317068e-05 -3.250871953116e-07 0.0 
-3.250871953116e-07 4.567955793193e-04 0.0 
0.0 0.0 -6.733333333333e-05 
-7.104635293021e-05 -4.797315306229e-07 0.0 
-4.797315306229e-07 4.100980900426e-04 0.0 
0.0 0.0 -7.066666666667e-05 
-6.772559734261e-05 -3.874533346802e-07 0.0 
-3.874533346802e-07 4.567007956159e-04 0.0 
0.0 0.0 -6.733333333333e-05 
-7.641374413823e-05 -2.228773536997e-05 0.0 
-2.228773536997e-05 4.555521205124e-04 0.0 
0.0 0.0 -6.873639455782e-05 
-7.094875925373e-05 -3.791477384794e-07 0.0 
-3.791477384794e-07 4.100304202801e-04 0.0 
0.0 0.0 -7.066666666667e-05 
-6.775859243649e-05 -2.543201428247e-07 0.0 
-2.543201428247e-07 4.566839974153e-04 0.0 
0.0 0.0 -6.733333333333e-05 
-5.983502745799e-05 1.929364290318e-06 0.0 
1.929364290318e-06 4.273284517158e-04 0.0 
0.0 0.0 -6.540306122449e-05 
-7.112696317891e-05 -1.467524674862e-07 0.0 
-1.467524674862e-07 4.100464125056e-04 0.0 
0.0 0.0 -7.066666666667e-05 
-6.783495515464e-05 -1.450638751277e-07 0.0 
-1.450638751277e-07 4.567335765583e-04 0.0 
0.0 0.0 -6.733333333333e-05 
-6.217161144140e-05 3.026566437504e-06 0.0 
3.026566437504e-06 4.118280588832e-04 0.0 
0.0 0.0 -7.066666666667e-05 
-7.130993240556e-05 -1.233962845206e-07 0.0 
-1.233962845206e-07 4.100835803005e-04 0.0 
0.0 0.0 -7.066666666667e-05 
-6.788293332518e-05 -1.526785280095e-07 0.0 
-1.526785280095e-07 4.567248483215e-04 0.0 
0.0 0.0 -6.733333333333e-05 
-7.133053464148e-05 -2.770421121641e-07 0.0 
-2.770421121641e-07 4.100311566981e-04 0.0 
0.0 0.0 -7.066666666667e-05 
-6.783450426309e-05 -1.768217967111e-07 0.0 
-1.768217967111e-07 4.565560458107e-04 0.0 
0.0 0.0 -6.733333333333e-05 
-7.128003053814e-05 -4.124294858267e-07 0.0 
-4.124294858267e-07 4.098246570243e-04 0.0 
0.0 0.0 -7.066666666667e-05 
-6.763496489906e-05 1.353837844384e-07 0.0 
1.353837844384e-07 4.560035381661e-04 0.0 
0.0 0.0 -6.733333333333e-05 
-6.037667670586e-05 3.725538744657e-06 0.0 
3.725538744657e-06 4.387855452071e-04 0.0 
0.0 0.0 -7.040306122449e-05 
-7.080362175516e-05 1.214547096316e-06 0.0 
1.214547096316e-06 4.096944057901e-04 0.0 
0.0 0.0 -7.066666666667e-05 
-6.791806871034e-05 8.269470575155e-07 0.0 
8.269470575155e-07 4.567782366562e-04 0.0 
0.0 0.0 -6.733333333333e-05 
-7.172247895238e-05 4.209193152321e-07 0.0 
4.209193152321e-07 4.100255547766e-04 0.0 
0.0 0.0 -7.066666666667e-05 
-6.777497963431e-05 1.000449125460e-06 0.0 
1.000449125460e-06 4.561234038025e-04 0.0 
0.0 0.0 -6.733333333333e-05 
-6.872017315909e-05 7.209100044906e-07 0.0 
7.209100044906e-07 4.587775367494e-04 0.0 
0.0 0.0 -6.733333333333e-05 
-7.101694663725e-05 3.221273702941e-06 0.0 
3.221273702941e-06 4.103304483538e-04 0.0 
0.0 0.0 -7.066666666667e-05 
-6.707869793323e-05 4.876313269616e-07 0.0 
4.876313269616e-07 4.540272230233e-04 0.0 
0.0 0.0 -6.733333333333e-05 
-7.351744776430e-05 -3.590528867594e-06 0.0 
-3.590528867594e-06 4.105429329544e-04 0.0 
0.0 0.0 -7.066666666667e-05 
-6.961608694047e-05 2.500866072093e-06 0.0 
2.500866072093e-06 4.606767609940e-04 0.0 
0.0 0.0 -6.733333333333e-05 
-6.487293508417e-05 7.258987181476e-06 0.0 
7.258987181476e-06 4.092859995140e-04 0.0 
0.0 0.0 -7.066666666667e-05 
-5.398091155439e-05 -5.270882630615e-06 0.0 
-5.270882630615e-06 3.945040721260e-04 0.0 
0.0 0.0 -6.706972789116e-05 
-6.158970074179e-05 -5.552157044761e-05 0.0 
-5.552157044761e-05 4.267642640122e-04 0.0 
0.0 0.0 -6.900000000000e-05 
-7.727313769225e-05 5.339151864984e-05 0.0 
5.339151864984e-05 4.548383156643e-04 0.0 
0.0 0.0 -6.900000000000e-05 
-6.625915328776e-05 -5.902071933345e-06 0.0 
-5.902071933345e-06 4.326595679538e-04 0.0 
0.0 0.0 -6.566666666667e-05 
-7.280062491732e-05 5.686248152954e-06 0.0 
5.686248152954e-06 4.472638552754e-04 0.0 
0.0 0.0 -7.233333333333e-05 
-5.697171891332e-05 -3.753491299719e-06 0.0 
-3.753491299719e-06 4.144867007492e-04 0.0 
0.0 0.0 -6.566666666667e-05 
-7.781230655286e-05 -1.181963691656e-05 0.0 
-1.181963691656e-05 5.088176645313e-04 0.0 
0.0 0.0 -7.733333333333e-05 
-8.119458623839e-05 6.972004007010e-06 0.0 
6.972004007010e-06 4.800472308251e-04 0.0 
0.0 0.0 -8.066666666667e-05 
-7.753617196034e-05 -1.686526781122e-06 0.0 
-1.686526781122e-06 5.271460113287e-04 0.0 
0.0 0.0 -7.733333333333e-05 
-8.055598266159e-05 -8.309609844759e-07 0.0 
-8.309609844759e-07 4.810024852218e-04 0.0 
0.0 0.0 -8.066666666667e-05 
-7.731437449528e-05 -4.694243935429e-07 0.0 
-4.694243935429e-07 5.276425525984e-04 0.0 
0.0 0.0 -7.733333333333e-05 
-8.071639800283e-05 -2.964994736049e-07 0.0 
-2.964994736049e-07 4.811871574007e-04 0.0 
0.0 0.0 -8.066666666667e-05 
-7.735101054680e-05 -3.609553578528e-07 0.0 
-3.609553578528e-07 5.278599491145e-04 0.0 
0.0 0.0 -7.733333333333e-05 
-8.049136654625e-05 -1.810628668294e-07 0.0 
-1.810628668294e-07 4.812029401063e-04 0.0 
0.0 0.0 -8.066666666667e-05 
-7.738220980221e-05 -1.577265426917e-07 0.0 
-1.577265426917e-07 5.278701924915e-04 0.0 
0.0 0.0 -7.733333333333e-05 
-8.058899491475e-05 1.039952126182e-07 0.0 
1.039952126182e-07 4.813345582273e-04 0.0 
0.0 0.0 -8.066666666667e-05 
-7.749230465888e-05 -5.589101690133e-08 0.0 
-5.589101690133e-08 5.280305322976e-04 0.0 
0.0 0.0 -7.733333333333e-05 
-8.063738768920e-05 2.943263093068e-07 0.0 
2.943263093068e-07 4.815246670627e-04 0.0 
0.0 0.0 -8.066666666667e-05 
-7.766334824340e-05 -1.624950510170e-07 0.0 
-1.624950510170e-07 5.282822808427e-04 0.0 
0.0 0.0 -7.733333333333e-05 
-8.108582164939e-05 -1.817042453861e-07 0.0 
-1.817042453861e-07 4.816572964670e-04 0.0 
0.0 0.0 -8.066666666667e-05 
-7.771301959687e-05 -4.432509054862e-07 0.0 
-4.432509054862e-07 5.283746937170e-04 0.0 
0.0 0.0 -7.733333333333e-05 
-8.689319893331e-05 -2.398901531109e-05 0.0 
-2.398901531109e-05 5.261728810593e-04 0.0 
0.0 0.0 -7.871598639454e-05 
-8.063163037591e-05 -5.731608516610e-07 0.0 
-5.731608516610e-07 4.813582541077e-04 0.0 
0.0 0.0 -8.066666666667e-05 
-7.282722797358e-05 2.956686511685e-06 0.0 
2.956686511685e-06 4.834944195558e-04 0.0 
0.0 0.0 -8.066666666667e-05 
-7.761542592040e-05 1.556054086580e-08 0.0 
1.556054086580e-08 5.279085131106e-04 0.0 
0.0 0.0 -7.733333333333e-05 
-8.085458222001e-05 2.978087830834e-07 0.0 
2.978087830834e-07 4.814005580441e-04 0.0 
0.0 0.0 -8.066666666667e-05 
-7.779362984557e-05 2.880682919728e-07 0.0 
2.880682919728e-07 5.280866836434e-04 0.0 
0.0 0.0 -7.733333333333e-05 
-8.137173526484e-05 3.903881692923e-07 0.0 
3.903881692923e-07 4.816228572156e-04 0.0 
0.0 0.0 -8.066666666667e-05 
-7.797659907223e-05 1.259601545473e-07 0.0 
1.259601545473e-07 5.283575677450e-04 0.0 
0.0 0.0 -7.733333333333e-05 
-8.138094734250e-05 -4.007379149127e-08 0.0 
-4.007379149127e-08 4.816094746352e-04 0.0 
0.0 0.0 -8.066666666667e-05 
-6.958892147872e-05 2.693700344811e-06 0.0 
2.693700344811e-06 4.979075358180e-04 0.0 
0.0 0.0 -7.538265306121e-05 
-7.799720130815e-05 7.326478423489e-09 0.0 
7.326478423489e-09 5.282573840779e-04 0.0 
0.0 0.0 -7.733333333333e-05 
-8.143970684332e-05 -2.393759007723e-07 0.0 
-2.393759007723e-07 4.814739348898e-04 0.0 
0.0 0.0 -8.066666666667e-05 
-7.794669720480e-05 -1.073637191230e-07 0.0 
-1.073637191230e-07 5.280808317875e-04 0.0 
0.0 0.0 -7.733333333333e-05 
-8.174229233143e-05 -1.069148929710e-06 0.0 
-1.069148929710e-06 4.809843103418e-04 0.0 
0.0 0.0 -8.066666666667e-05 
-7.747028842183e-05 1.035597227599e-06 0.0 
1.035597227599e-06 5.267993287079e-04 0.0 
0.0 0.0 -7.733333333333e-05 
-8.011487521303e-05 3.227514386744e-06 0.0 
3.227514386744e-06 4.812335686475e-04 0.0 
0.0 0.0 -8.066666666667e-05 
-7.838914561904e-05 1.172078597877e-06 0.0 
1.172078597877e-06 5.288970930108e-04 0.0 
0.0 0.0 -7.733333333333e-05 
-8.384419164103e-05 -8.759494395606e-07 0.0 
-8.759494395606e-07 4.817654260896e-04 0.0 
0.0 0.0 -8.066666666667e-05 
-7.599610420366e-05 7.462175851506e-06 0.0 
7.462175851506e-06 4.817404732796e-04 0.0 
0.0 0.0 -8.066666666667e-05 
-7.768361330392e-05 1.900460429623e-06 0.0 
1.900460429623e-06 5.268691696083e-04 0.0 
0.0 0.0 -7.733333333333e-05 
-7.085007670582e-05 3.811906941392e-06 0.0 
3.811906941392e-06 5.100816028034e-04 0.0 
0.0 0.0 -8.038265306121e-05 
-8.018411443096e-05 1.198366395229e-06 0.0 
1.198366395229e-06 5.324278016454e-04 0.0 
0.0 0.0 -7.733333333333e-05 
-6.417731922861e-05 -3.943230338450e-06 0.0 
-3.943230338450e-06 4.647268317312e-04 0.0 
0.0 0.0 -7.704931972788e-05 
-8.746095442730e-05 -5.552433142474e-05 0.0 
-5.552433142474e-05 5.117494040768e-04 0.0 
0.0 0.0 -7.900000000000e-05 
-7.187846570217e-05 5.325151437038e-05 0.0 
5.325151437038e-05 4.838528020986e-04 0.0 
0.0 0.0 -7.900000000000e-05 
-8.300562030776e-05 -5.928768708113e-06 0.0 
-5.928768708113e-06 5.060343090617e-04 0.0 
0.0 0.0 -8.233333333333e-05 
-7.613395825065e-05 5.573077951687e-06 0.0 
5.573077951687e-06 4.912471208609e-04 0.0 
0.0 0.0 -7.566666666667e-05 
-6.717161144140e-05 -3.263046586986e-06 0.0 
-3.263046586986e-06 4.846642233179e-04 0.0 
0.0 0.0 -7.566666666667e-05 
-9.283937133862e-05 -1.305520020021e-05 0.0 
-1.305520020021e-05 5.701490487258e-04 0.0 
0.0 0.0 -9.066666666667e-05 
-8.786125290506e-05 6.228376696680e-06 0.0 
6.228376696680e-06 5.972094942788e-04 0.0 
0.0 0.0 -8.733333333333e-05 
-9.022014186398e-05 -3.549288141163e-06 0.0 
-3.549288141163e-06 5.499642990775e-04 0.0 
0.0 0.0 -9.066666666667e-05 
-8.722264932826e-05 -1.484814638766e-06 0.0 
-1.484814638766e-06 5.950278411204e-04 0.0 
0.0 0.0 -8.733333333333e-05 
-9.018085993915e-05 -1.417099940171e-07 0.0 
-1.417099940171e-07 5.484767631814e-04 0.0 
0.0 0.0 -9.066666666667e-05 
-8.738306466949e-05 -3.897787092036e-07 0.0 
-3.897787092036e-07 5.957792554076e-04 0.0 
0.0 0.0 -8.733333333333e-05 
-9.080630643208e-05 -1.004642962581e-06 0.0 
-1.004642962581e-06 5.490414961774e-04 0.0 
0.0 0.0 -9.066666666667e-05 
-8.715803321291e-05 -7.191945164273e-07 0.0 
-7.191945164273e-07 5.952355706191e-04 0.0 
0.0 0.0 -8.733333333333e-05 
-8.983972774977e-05 2.250980017127e-08 0.0 
2.250980017127e-08 5.486638855821e-04 0.0 
0.0 0.0 -9.066666666667e-05 
-8.725566158141e-05 1.431482839066e-07 0.0 
1.431482839066e-07 5.957393564191e-04 0.0 
0.0 0.0 -8.733333333333e-05 
-9.054185498745e-05 8.009925208000e-08 0.0 
8.009925208000e-08 5.490600954273e-04 0.0 
0.0 0.0 -9.066666666667e-05 
-8.730405435587e-05 2.268594339034e-07 0.0 
2.268594339034e-07 5.956704623471e-04 0.0 
0.0 0.0 -8.733333333333e-05 
-9.010725221013e-05 1.077984881025e-06 0.0 
1.077984881025e-06 5.491565562495e-04 0.0 
0.0 0.0 -9.066666666667e-05 
-9.710486836519e-05 -2.255663521806e-05 0.0 
-2.255663521806e-05 5.958483065018e-04 0.0 
0.0 0.0 -8.873639455782e-05 
-8.775248831606e-05 6.167278534911e-07 0.0 
6.167278534911e-07 5.967481919071e-04 0.0 
0.0 0.0 -8.733333333333e-05 
-9.103086627003e-05 -1.513341137134e-06 0.0 
-1.513341137134e-06 5.495772900249e-04 0.0 
0.0 0.0 -9.066666666667e-05 
-8.073249876148e-05 1.956568500794e-06 0.0 
1.956568500794e-06 5.676914892222e-04 0.0 
0.0 0.0 -8.540306122449e-05 
-8.729829704258e-05 -3.688701156799e-07 0.0 
-3.688701156799e-07 5.951865840250e-04 0.0 
0.0 0.0 -8.733333333333e-05 
-9.037940068145e-05 6.271206724163e-07 0.0 
6.271206724163e-07 5.487658884447e-04 0.0 
0.0 0.0 -9.066666666667e-05 
-8.327880964785e-05 3.397797209923e-06 0.0 
3.397797209923e-06 5.519081980575e-04 0.0 
0.0 0.0 -9.066666666667e-05 
-8.752124888667e-05 7.623016925715e-07 0.0 
7.623016925715e-07 5.955739018708e-04 0.0 
0.0 0.0 -8.733333333333e-05 
-9.119391855359e-05 1.735421697781e-06 0.0 
1.735421697781e-06 5.492228013243e-04 0.0 
0.0 0.0 -9.066666666667e-05 
-8.803840193151e-05 9.847285726832e-07 0.0 
9.847285726832e-07 5.964786609531e-04 0.0 
0.0 0.0 -8.733333333333e-05 
-9.156330581238e-05 2.666222241028e-07 0.0 
2.666222241028e-07 5.495997176964e-04 0.0 
0.0 0.0 -9.066666666667e-05 
-8.804761400916e-05 4.409974905671e-07 0.0 
4.409974905671e-07 5.960772025302e-04 0.0 
0.0 0.0 -8.733333333333e-05 
-8.073638837697e-05 3.015269661060e-06 0.0 
3.015269661060e-06 5.789040759249e-04 0.0 
0.0 0.0 -9.040306122449e-05 
-9.112505899787e-05 2.746880104957e-07 0.0 
2.746880104957e-07 5.493199630352e-04 0.0 
0.0 0.0 -9.066666666667e-05 
-8.810637350998e-05 6.151652775298e-07 0.0 
6.151652775298e-07 5.958963692618e-04 0.0 
0.0 0.0 -8.733333333333e-05 
-8.840895899809e-05 1.155447038660e-07 0.0 
1.155447038660e-07 5.965143081286e-04 0.0 
0.0 0.0 -8.733333333333e-05 
-9.164597760346e-05 8.836231120007e-07 0.0 
8.836231120007e-07 5.493625037381e-04 0.0 
0.0 0.0 -9.066666666667e-05 
-8.678154187969e-05 1.516005662498e-06 0.0 
1.516005662498e-06 5.914512376222e-04 0.0 
0.0 0.0 -8.733333333333e-05 
-9.368423993004e-05 -3.485429264516e-06 0.0 
-3.485429264516e-06 5.486941450264e-04 0.0 
0.0 0.0 -9.066666666667e-05 
-9.051085830770e-05 3.821512302252e-06 0.0 
3.821512302252e-06 6.011139986344e-04 0.0 
0.0 0.0 -8.733333333333e-05 
-8.623635069903e-05 1.130998903511e-05 0.0 
1.130998903511e-05 5.483505428446e-04 0.0 
0.0 0.0 -9.066666666667e-05 
-7.442069267613e-05 -5.394763382115e-06 0.0 
-5.394763382115e-06 5.345026645236e-04 0.0 
0.0 0.0 -8.706972789116e-05 
-8.056486673946e-05 -5.396645541003e-05 0.0 
-5.396645541003e-05 5.644717008348e-04 0.0 
0.0 0.0 -8.900000000000e-05 
-9.791450863527e-05 5.509961114953e-05 0.0 
5.509961114953e-05 5.954927673430e-04 0.0 
0.0 0.0 -8.900000000000e-05 
-8.633895364109e-05 -4.683164540594e-06 0.0 
-4.683164540594e-06 5.718841532106e-04 0.0 
0.0 0.0 -8.566666666667e-05 
-9.239018602622e-05 8.127448127221e-06 0.0 
8.127448127221e-06 5.860724498030e-04 0.0 
0.0 0.0 -9.233333333333e-05 
-7.782722797358e-05 -3.296902887834e-06 0.0 
-3.296902887834e-06 5.542989905497e-04 0.0 
0.0 0.0 -8.566666666667e-05 
-9.950603800529e-05 -1.732824840327e-05 0.0 
-1.732824840327e-05 6.532123038277e-04 0.0 
0.0 0.0 -9.733333333333e-05 
-9.845490008412e-05 -7.423843482372e-07 0.0 
-7.423843482372e-07 6.182720398665e-04 0.0 
0.0 0.0 -1.006666666667e-04 
-9.688680853064e-05 -2.101224633275e-06 0.0 
-2.101224633275e-06 6.650247464175e-04 0.0 
0.0 0.0 -9.733333333333e-05 
-1.012464655028e-04 -1.533092774878e-06 0.0 
-1.533092774878e-06 6.197292804394e-04 0.0 
0.0 0.0 -1.006666666667e-04 
-9.684752660582e-05 -6.274302712926e-08 0.0 
-6.274302712926e-08 6.662579141266e-04 0.0 
0.0 0.0 -9.733333333333e-05 
-1.011453118386e-04 1.046563005614e-06 0.0 
1.046563005614e-06 6.213209177569e-04 0.0 
0.0 0.0 -1.006666666667e-04 
-9.747297309875e-05 -2.278502078315e-06 0.0 
-2.278502078315e-06 6.683740764344e-04 0.0 
0.0 0.0 -9.733333333333e-05 
-9.931899188090e-05 -3.288065646636e-06 0.0 
-3.288065646636e-06 6.197642772278e-04 0.0 
0.0 0.0 -1.006666666667e-04 
-9.650639441644e-05 2.666172739854e-07 0.0 
2.666172739854e-07 6.659194579952e-04 0.0 
0.0 0.0 -9.733333333333e-05 
-1.000788983180e-04 1.910523566858e-06 0.0 
1.910523566858e-06 6.207688021561e-04 0.0 
0.0 0.0 -1.006666666667e-04 
-9.720852165412e-05 -4.164213939214e-07 0.0 
-4.164213939214e-07 6.678605235040e-04 0.0 
0.0 0.0 -9.733333333333e-05 
-1.005225329566e-04 -1.059277058645e-06 0.0 
-1.059277058645e-06 6.206711688955e-04 0.0 
0.0 0.0 -1.006666666667e-04 
-1.076654382393e-04 -2.454755873475e-05 0.0 
-2.454755873475e-05 6.666235465443e-04 0.0 
0.0 0.0 -9.871211211756e-05 
-9.677391887680e-05 3.262994796209e-07 0.0 
3.262994796209e-07 6.670349670739e-04 0.0 
0.0 0.0 -9.733333333333e-05 
-1.004112575968e-04 6.266382551746e-06 0.0 
6.266382551746e-06 6.238730393685e-04 0.0 
0.0 0.0 -1.006666666667e-04 
-9.691250726487e-05 3.272004711609e-06 0.0 
3.272004711609e-06 6.207526912737e-04 0.0 
0.0 0.0 -1.006666666667e-04 
-9.769753293670e-05 3.857908775590e-07 0.0 
3.857908775590e-07 6.683264731120e-04 0.0 
0.0 0.0 -9.733333333333e-05 
-1.018216783017e-04 -1.733271697638e-06 0.0 
-1.733271697638e-06 6.205292306068e-04 0.0 
0.0 0.0 -1.006666666667e-04 
-9.704606734811e-05 1.789783002985e-06 0.0 
1.789783002985e-06 6.661622647259e-04 0.0 
0.0 0.0 -9.733333333333e-05 
-1.018704888891e-04 2.872470909369e-06 0.0 
2.872470909369e-06 6.210028127133e-04 0.0 
0.0 0.0 -1.006666666667e-04 
-9.786058522026e-05 1.410942441991e-06 0.0 
1.410942441991e-06 6.680408138480e-04 0.0 
0.0 0.0 -9.733333333333e-05 
-1.006317600444e-04 1.941140312877e-06 0.0 
1.941140312877e-06 6.214755597104e-04 0.0 
0.0 0.0 -1.006666666667e-04 
-9.094846281658e-05 3.460693907673e-06 0.0 
3.460693907673e-06 6.387381401671e-04 0.0 
0.0 0.0 -9.537877878422e-05 
-9.822997247904e-05 5.655000512226e-07 0.0 
5.655000512226e-07 6.686847925497e-04 0.0 
0.0 0.0 -9.733333333333e-05 
-1.005721140742e-04 -4.771801101198e-07 0.0 
-4.771801101198e-07 6.209284532513e-04 0.0 
0.0 0.0 -1.006666666667e-04 
-9.779172566454e-05 1.437765353010e-06 0.0 
1.437765353010e-06 6.669881357659e-04 0.0 
0.0 0.0 -9.733333333333e-05 
-9.964754038308e-05 2.397319642454e-06 0.0 
2.397319642454e-06 6.203504795262e-04 0.0 
0.0 0.0 -1.006666666667e-04 
-9.942841041269e-05 6.330945354939e-06 0.0 
6.330945354939e-06 6.210142166029e-04 0.0 
0.0 0.0 -1.006666666667e-04 
-9.831264427012e-05 3.607920745624e-06 0.0 
3.607920745624e-06 6.668464283750e-04 0.0 
0.0 0.0 -9.733333333333e-05 
-1.003509065967e-04 3.038689806417e-06 0.0 
3.038689806417e-06 6.697580945376e-04 0.0 
0.0 0.0 -9.733333333333e-05 
-9.096542632603e-05 2.974368147524e-06 0.0 
2.974368147524e-06 6.503827388710e-04 0.0 
0.0 0.0 -1.003787787842e-04 
-8.451759272524e-05 -2.785279264380e-06 0.0 
-2.785279264380e-06 6.050107377767e-04 0.0 
0.0 0.0 -9.704544545089e-05 
-1.061297274301e-04 -4.871673269526e-05 0.0 
-4.871673269526e-05 6.458409108431e-04 0.0 
0.0 0.0 -9.900000000000e-05 
-9.597407948562e-05 5.882537232744e-05 0.0 
5.882537232744e-05 6.276346610407e-04 0.0 
0.0 0.0 -9.900000000000e-05 
-1.061722618288e-04 2.720032131649e-06 0.0 
2.720032131649e-06 6.459980937412e-04 0.0 
0.0 0.0 -1.023333333333e-04 
-9.572351935955e-05 9.504820778219e-06 0.0 
9.504820778219e-06 6.293354809804e-04 0.0 
0.0 0.0 -9.566666666667e-05 
-8.827880964785e-05 -4.615262033286e-06 0.0 
-4.615262033286e-06 6.261214177850e-04 0.0 
0.0 0.0 -9.566666666667e-05 

SCALARS element_materi_plasti_kappa_shear float
LOOKUP_TABLE default
2.847132974464e-04
2.567335577462e-04
8.383458615127e-04
8.438320912051e-04
5.252340220498e-04
1.092332508777e-04
5.211056369626e-04
2.682011350187e-04
5.284032086376e-04
8.364231581825e-04
5.721664887116e-04
2.192159031084e-04
8.427469438430e-04
5.626516430071e-04
8.591411753051e-04
8.596118674820e-04
5.228709310720e-04
9.890289689114e-05
1.829897689724e-04
1.694158919351e-04
8.423436282844e-04
2.963793359042e-04
3.324051967767e-04
8.081759085961e-04
6.000118969986e-04
6.135444959901e-04
4.831662702076e-04
8.640260917564e-04
6.044060870881e-04
8.284633969501e-04
1.393644665420e-04
6.157167640348e-05
8.645031697050e-04
7.227162512376e-04
8.409567717064e-04
8.889842858592e-04
8.867272022491e-04
8.401574712595e-04
4.762820424766e-04
4.829160232604e-04
3.784313710213e-04
8.419842235364e-04
1.971583877801e-04
4.640967896192e-04
8.239259452907e-04
1.959288160543e-04
8.321288766212e-05
8.084255947212e-04
3.689720172040e-05
5.421120849717e-04
3.571518168043e-04
2.245192715023e-04
1.849539392691e-04
3.438430703420e-04
8.437751075118e-04
2.946472074171e-04
2.169482347232e-04
7.261086015540e-04
1.365401986572e-04
8.602343425103e-04
5.633449810247e-05
8.068338246298e-04
3.495820234045e-04
1.625404768038e-04
8.423121318073e-04
3.196875078224e-04
2.407380933191e-05
8.605021510781e-04
1.455927549119e-04
8.423461725362e-04
6.362218458080e-04
8.811950242161e-04
8.101315001547e-04
6.837837458653e-05
2.980351712693e-04
8.450728483081e-04
8.650274645365e-04
1.497776459891e-04
1.164171881254e-04
1.495511738586e-04
1.394737434445e-04
4.994656174592e-04
3.126596433046e-04
2.656451840487e-04
5.512146343309e-04
5.478404078236e-04
6.543703068282e-04
7.066969326251e-04
7.292257809066e-04
5.182254199727e-04
3.772961361312e-05
5.068209088843e-04
7.023712359703e-04
7.053137767572e-04
9.034935541177e-04
8.681099508839e-04
4.998503861448e-04
8.654654996241e-04
5.895620793702e-04
3.387865222816e-04
5.023282053966e-04
8.610484090904e-04
6.969273947015e-04
8.114912522944e-04
3.066747276919e-04
1.031286558348e-04
7.940042257422e-04
7.514569823258e-04
6.199677439276e-05
8.454993593349e-04
6.946613572604e-04
4.904031993171e-05
4.043465054524e-04
4.701260917007e-04
3.591769958220e-04
3.010429561773e-04
3.537650535641e-04
8.520744351586e-04
5.793631570773e-04
3.261491376649e-04
1.418039967851e-04
5.194733326263e-04
7.366211917707e-04
3.289742658715e-04
1.029625399055e-04
4.250840810499e-04
3.733497519716e-04
3.937484836423e-04
8.617156175713e-04
1.214391796965e-04
6.025351137927e-04
8.438264723838e-04
4.251430981113e-04
4.028071146060e-04
8.421798094545e-04
8.449973380302e-04
6.540085342923e-04
4.550812470554e-04
8.653037555385e-04
4.073208974334e-04
8.427923186268e-04
8.640045548534e-04
5.578310155526e-04
6.509573146725e-04
4.117138516470e-04
3.711211770560e-04
4.681101004950e-04
3.518672901193e-04
5.147824992523e-04
4.107193794640e-04
3.646113790962e-05
5.532223658630e-04
1.258155624666e-04
4.487912821367e-04
8.442761777728e-04
3.036097253508e-04
6.795876328870e-04
2.190343751187e-04
6.939470314270e-04
5.021535652402e-04
3.806977165922e-04
7.481063603695e-04
1.298522692207e-04
7.928147477738e-04
5.039709184499e-04
8.650019251011e-04
5.013582088109e-04
3.160516627979e-04
4.393239970158e-04
5.920825198173e-04
2.289923969885e-04
3.854224720753e-04
6.780718451191e-04
5.198603884199e-04
3.586956886529e-04
4.169796386473e-04
7.560276412873e-04
4.159140997811e-04
8.428055575623e-04
8.639767009483e-04
2.975132247583e-04
3.989799041527e-04
7.712498508063e-04
3.945945745463e-04
2.576819868644e-04
4.854060291149e-04
3.951341740237e-04
8.456558194475e-04
7.010154264104e-04
7.714816593417e-04
1.746707301352e-04
3.610997931363e-04
7.204647992586e-04
1.945331205908e-05
3.903836025195e-04
7.222445599691e-04
1.036327141325e-04
8.424473339204e-04
6.428453457772e-04
3.831449392291e-04
7.193613777923e-04
5.586004203897e-04
5.898087867421e-04
8.246624455494e-04
2.857235697232e-04
4.866694704310e-04
5.222557039026e-04
6.732665719341e-04
5.326319802480e-04
4.881655111683e-04
6.257681940146e-04
7.388362075692e-04
5.690614774354e-05
2.917017983456e-04
3.317775165376e-04
4.735931798939e-04
7.340526410142e-04
1.447054251006e-04
6.965604954019e-04
5.013674676710e-04
3.566918662294e-04
6.715636749960e-04
6.571013662794e-05
6.877012871154e-04
5.549518836130e-05
8.040745949318e-05
1.732184497000e-04
2.392003364027e-04
7.177475001527e-04
2.320046903568e-04
2.075153724814e-04
1.800041788403e-04
1.507998795129e-04
7.424671531813e-04
5.071426105021e-04
8.446796247734e-04
0.0
2.497594834345e-04
4.009784043095e-04
3.635781274630e-04
6.932515688423e-04
8.647303225506e-04
6.886146806345e-04
2.931670056878e-04
7.441379809633e-04
6.308353337863e-04
4.980516236996e-04
6.615635321969e-04
8.261379668094e-04
4.064024309512e-04
2.371048478647e-04
5.754464620744e-04
9.026357122934e-04
4.917413561400e-04
5.134823346619e-04
5.630191156583e-04
1.329471826665e-04
5.277021269871e-04
2.878196777098e-04
1.938006262720e-04
1.362334838042e-04
7.132570322814e-04
5.514544182274e-04
3.441653812797e-04
7.429062318585e-04
7.078085783757e-04
5.222121837301e-04
8.463050092743e-04
5.284876028695e-04
5.460070011469e-04
4.376131710040e-04
5.575789166973e-04
2.377977007102e-04
5.035541614816e-04
4.257154416742e-04
3.011811086088e-04
6.820805742593e-04
2.384378149136e-05
5.562902183290e-04
3.071842567668e-04
2.550196540710e-04
2.439773196071e-04
5.894366693464e-04
9.570931057482e-05
3.576303071845e-04
5.731391386351e-04
5.461339597621e-04
5.616867596350e-04
1.271009961872e-04
2.958157551279e-04
2.761694005421e-04
3.216903735558e-04
6.680530276719e-04
3.637979337747e-04
3.949989305544e-04
3.759115002993e-04
1.575634516332e-04
4.501668004301e-04
1.708993772794e-04
9.019026024371e-04
9.023973057295e-04
5.057511345693e-04
2.631127598012e-04
2.307674832005e-04
5.600193776098e-04
2.500946570906e-04
2.700679866253e-04
4.922948739685e-04
8.667616329614e-04
3.318462296128e-04
6.222149882880e-04
1.830371105394e-04
9.023475672024e-04
2.441397582287e-04
5.112104398270e-04
1.689503966276e-04
6.053623747982e-04
4.196544349858e-04
2.903890059932e-04
5.270871447235e-04
9.021440381368e-04
3.510699855254e-04
5.781821550489e-04
1.886309360797e-04
6.316875196563e-04
6.668857487106e-04
2.624435093985e-04
6.164660003841e-04
9.026438880277e-04
7.124911027791e-04
9.030006616607e-04
6.099328680256e-04
7.015574955173e-04
2.180182464546e-04
4.840383207087e-04
5.408811792003e-04
5.701871426172e-04
4.675332375955e-04
9.035883904622e-04
5.850053230518e-04
5.141279373987e-04
3.811690988531e-04
1.956242149518e-04
4.646237938930e-04
2.742553589397e-04
5.220512861019e-04
2.960117191843e-04
3.368501384635e-04
7.076177555195e-04
2.798327001462e-04
4.981195041245e-04
5.922020028832e-04
5.249691217824e-04
9.022141612185e-04
4.195717744466e-04
2.760615473356e-04
3.714756492195e-04
2.666495641069e-04
2.573536274962e-04
7.531436391681e-04
5.406886875803e-04
3.691632618911e-04
4.556110258937e-04
9.030518011548e-04
8.532871781874e-04
7.461245423291e-04
6.934880992847e-04
5.105698072065e-04
3.813116805693e-04
2.690679185397e-04
3.126694468458e-04
5.164893174634e-04
5.919748660066e-04
4.476339003619e-04
7.537614717665e-04
2.814322894241e-04
4.431267281225e-04
5.162384399113e-04
3.994083330778e-04
9.019027868778e-04
9.024199943996e-04
8.466674059490e-04
5.551721733312e-04
7.381697029613e-04
2.318050061718e-04
3.566133739436e-04
2.004113789535e-04
3.876518657495e-04
5.007689008681e-04
6.066206779727e-04
8.634617584911e-04
7.387016338322e-04
5.700145676085e-04
5.843478329972e-04
2.129102317008e-04
9.963202888369e-05
4.255642556790e-04
4.864892581303e-04
4.557093610504e-04
1.015080950596e-04
5.392744089157e-04
1.864447400827e-04
2.686669338435e-04
8.829401381496e-04
6.479849204365e-04
5.101152900271e-04
1.402250907171e-04
4.625920286436e-04
4.307827734044e-04
5.943113921106e-04
9.027611341500e-04
4.797580040648e-04
5.649702214781e-04
4.419535104601e-04
7.334092120784e-04
5.703474346401e-04
9.028672049198e-04
8.818149095568e-04
8.812004500202e-04
8.770344726619e-04
6.086454399872e-04
7.380884957385e-04
7.670249911297e-04
3.946547610248e-04
3.761808931614e-04
4.220813725199e-04
7.589723938571e-04
9.023328764655e-04
7.577932565222e-04
6.026760527823e-04
7.626774697069e-04
6.606437481448e-04
4.567756297563e-04
3.825801685651e-04
2.007576887360e-04
8.470469883245e-04
3.704624717408e-04
8.076533810370e-04
4.162571300339e-04
2.699749840163e-04
8.434505841465e-04
2.924500070844e-04
8.816442479766e-04
8.452247512919e-04
5.545088614739e-04
3.473443607641e-05
8.815269345483e-04
8.437795076667e-04
2.644715325930e-04
6.230832692164e-04
9.043633052623e-04
0.0
4.136686690805e-04
5.789929662663e-04
5.300876254499e-04
5.356595073985e-04
2.252617715596e-04
8.806829294995e-04
4.006991802615e-04
1.303841541133e-04
8.663125818617e-04
6.051131586377e-05
4.315774978662e-04
1.176867923368e-04
4.596515473754e-04
9.012311898413e-04
8.829625409697e-04
5.653646595553e-04
8.124087917367e-05
9.994837872237e-05
1.389614691644e-04
7.526188084606e-04
5.232481456078e-04
5.352467886841e-04
8.832777862968e-04
5.239926934470e-04
9.034954834455e-04
6.742815143354e-04
5.863949273689e-04
2.820464387522e-04
6.178481751699e-04
1.825530642902e-04
8.832148814275e-04
8.787933827959e-04
8.806921593160e-04
5.756624678762e-04
3.963242992692e-04
4.623808742286e-04
5.898300044950e-04
8.827105655163e-04
2.739608454354e-04
3.152297798322e-04
3.346486994201e-04
6.118815291473e-04
9.031087235632e-04
9.826315240639e-05
8.806359177385e-04
3.091995583178e-04
8.830701307018e-04
7.737556814763e-04
2.602550826630e-05
4.315307198807e-04
7.678889909001e-04
8.823867652727e-04
6.136211757286e-04
6.941437612341e-04
1.584089862020e-04
8.072406538751e-04
3.285549430036e-04
3.399738602395e-04
6.350089245098e-05
8.815166830728e-04
2.259416864064e-04
7.443039276558e-04
5.669420517884e-04
2.830302926058e-04
3.206987936709e-04
5.893066187854e-04
8.831255390234e-04
4.112126309151e-04
6.461218310913e-04
5.245062035981e-04
5.860608677982e-04
3.451263767299e-04
6.003773440688e-04
5.107552153637e-04
6.659208771778e-04
6.625383459481e-04
5.000360828217e-04
4.220154532181e-04
2.979654696955e-04
3.903746207876e-04
6.804313980790e-04
5.475016889342e-04
9.031543334572e-04
7.872511197512e-04
2.513213857487e-04
8.791428665884e-04
8.623865534779e-04
4.695549206328e-04
3.669236207070e-05
9.023712677025e-04
7.825243345501e-04
2.836634880462e-04
8.808658468443e-04
6.210975252764e-04
4.005662234096e-04
5.509439591359e-04
5.333534302821e-04
5.303907689406e-04
6.114043158285e-04
6.485756697789e-04
4.497226363466e-04
6.883221258394e-04
5.985234349652e-04
4.277851164570e-04
6.370445780655e-04
3.335340985590e-04
5.972217102501e-04
2.690095818511e-05
3.234473257319e-04
3.145667651333e-04
4.619525145775e-04
4.941683527065e-04
6.157927676169e-04
5.953076823754e-04
2.893667186736e-04
8.829502872488e-04
5.841509097847e-04
4.814294041827e-04
5.596214459887e-04
4.676664971932e-04
0.0
5.801676505400e-04
3.844985916664e-04
0.0
4.554300220234e-04
6.611400294946e-04
7.615386503395e-04
5.667217612568e-04
5.798125605848e-04
4.946399896660e-04
4.612945919967e-04
8.448933154629e-04
5.351237915901e-04
2.265059230248e-05
1.593136185292e-04
3.598215869650e-05
2.756541644964e-04
7.595674519949e-04
7.663452637067e-04
7.206272217663e-04
3.111805889127e-04
6.034032161236e-04
7.573752906356e-04
1.740144548794e-04
3.864583664951e-04
3.117083041406e-04
9.031633853049e-04
8.822228944503e-04
4.285735382123e-04
4.870038452019e-04
5.444247428616e-04
7.843706278062e-04
1.688678543700e-04
7.320309974875e-04
1.024779424926e-04
4.424111468176e-04
4.932536473152e-04
3.661873855527e-05
4.046650665538e-04
7.818962903618e-04
2.628493764547e-05
4.594828512294e-04
4.812071489687e-04
6.367624673799e-04
3.155481759348e-04
3.029147364412e-04
2.132280228371e-04
7.837934729915e-04
8.448257163848e-04
7.363444438744e-04
2.851623301377e-04
1.072863423375e-04
4.603504121984e-04
4.608177344525e-04
4.831872055831e-04
0.0
3.555241354687e-05
7.966173186171e-05
2.342846998403e-04
6.373569268983e-05
4.549076851565e-04
0.0
2.796945326255e-04
6.183777696222e-04
4.824258644607e-04
7.814158546744e-04
6.352076666034e-04
5.781612852690e-04
3.372841396968e-04
1.018092465349e-04
8.804341959840e-04
9.035439950554e-04
5.614027168615e-04
4.616000397093e-04
3.431731325220e-04
9.014339937115e-04
2.659509024599e-04
4.803513075401e-04
4.596149613707e-04
4.369192074101e-04
8.832852469207e-04
9.009032309479e-04
6.250414495270e-05
0.0
1.266214781953e-04
4.876279566065e-04
8.196533199701e-04
2.444433938167e-05
7.274110977346e-04
0.0
6.250843933025e-04
2.867078562402e-05
2.783203544243e-05
5.997115799954e-04
7.944815531001e-04
6.355701656843e-04
4.791132808813e-04
3.652595870710e-05
6.229816343343e-04
8.791826602914e-04
9.014687340808e-04
4.821873124554e-04
6.503883133201e-04
8.818062794857e-04
6.993504510242e-04
9.789390783998e-05
6.279365927203e-05
3.939974307887e-05
3.825618914400e-04
9.021047273405e-04
8.443030366409e-04
0.0
4.516920689161e-04
8.837977955305e-04
9.047268419961e-04
9.014166279866e-04
6.824648899155e-04
7.516239818065e-04
8.796515991076e-04
8.818821043928e-04
7.273160736883e-04
2.211575098140e-05
4.787532764467e-04
4.846356056311e-04
0.0
8.847559387122e-04
9.037195635447e-04
8.791881994104e-04
2.812709352533e-05
2.886337119670e-05
8.807302274622e-04
8.799262388240e-04
6.606959234620e-04
4.786921816039e-04
7.045004432885e-04
5.666139951839e-04
4.780950833957e-04
2.553609013369e-05
2.943212211666e-05
2.487007266475e-05
2.712132983020e-05
4.772021594015e-04
4.286502641088e-04
0.0
6.145195953194e-04
0.0
8.800821581416e-04
8.788987143881e-04
8.809194080868e-04
1.543232978874e-04
2.904945093705e-04
8.796413922759e-04
7.525259440061e-04
8.837915350881e-04
7.992262474011e-04
8.460368269156e-04
4.052497561465e-04
9.034475555497e-04
9.025505378386e-04
7.709083270600e-04
8.195089923752e-04
6.617362762152e-04
0.0
4.176416125064e-04
6.092826118018e-05
7.888929342564e-04
4.363249681698e-04
7.275214838645e-04
2.209065391860e-04
8.130906403886e-05
7.783803544764e-04
4.610171208733e-04
3.609674789086e-04
7.334454872420e-04
7.883388593484e-04
3.608088371091e-04
6.922006084626e-04
6.034876983327e-04
6.562206089320e-04
6.777106223571e-04
3.699030016403e-04
4.367455166762e-04
4.808107450877e-04
6.170029851943e-04
7.543946188843e-04
6.998918906108e-04
2.236916744938e-04
7.865894495828e-04
7.412777532416e-04
5.338023001125e-04
6.428876137913e-04
6.366868729429e-04
7.982659732682e-04
7.683299234494e-04
5.896655507063e-04
7.981209395122e-04
7.317182777282e-04
6.996282799597e-04
8.110166413215e-04
7.924641880625e-04
6.744131504159e-04
6.666687721535e-04
2.222812676772e-04
2.065367340502e-04
1.125541859685e-04
6.237733767345e-05
7.698425966602e-04
7.679810230490e-04
6.018528781591e-05
7.767838420586e-04
5.508431979073e-04
7.139111020130e-04
7.225345758280e-04
3.210916204918e-04
7.277792051553e-04
5.345154592761e-04
6.681973168260e-04
8.270717611794e-04
2.126569924615e-04
8.168359037540e-04
6.998709092975e-04
2.419277465397e-04
2.572139128868e-04
5.157383088969e-04
6.206435762795e-04
3.445305893728e-04
7.246223149107e-04
6.508258121003e-04
5.014012835763e-04
6.818156971164e-04
7.083328473163e-04
6.952144219196e-04
1.892569743241e-04
4.759731321316e-04
7.583758524429e-04
7.205684773619e-04
4.286991399852e-04
6.094148028769e-04
7.977133214395e-04
6.694832793452e-04
1.063908867657e-04
1.078325644387e-04
2.185995729447e-04
7.487063186168e-04
6.453888805748e-04
5.685571839540e-04
5.747340170202e-04
7.632873978513e-04
5.213198554590e-04
7.022694847875e-04
2.278532579141e-04
8.104690401051e-04
5.072778477496e-04
2.493887876613e-04
4.811363962896e-04
3.641239825016e-04
2.855768811343e-04
5.596568083914e-04
0.0
0.0
6.426259570283e-04
2.090044132862e-04
6.487981239576e-04
6.292228741945e-04
3.962033144448e-04
2.579044153745e-04
7.616473441749e-04
1.019762165519e-04
3.852520764996e-04
7.853811998397e-04
1.733076863571e-04
6.041255787992e-04
5.562754309982e-04
1.755785073398e-04
7.771304788849e-04
6.907987842018e-04
2.031638653013e-04
7.812508794649e-04
7.761681869909e-04
2.340588006308e-04
3.099693431780e-04
2.401902132467e-04
6.877850878179e-04
5.412899770906e-04
7.773630800326e-04
7.570625316910e-04
6.683791686238e-04
6.625290522613e-04
1.893340517518e-04
6.820308372633e-04
6.862847063831e-04
5.467902184326e-04
6.498698714300e-04
7.159072219897e-04
4.836380743717e-04
7.367030404168e-04
4.559169101876e-04
5.273150536082e-04
3.411674526490e-04
3.634633618335e-04
6.658946142908e-04
5.048839066708e-04
2.598481237302e-04
1.310675626010e-04
6.702674056581e-04
2.538844621688e-04
8.100545142142e-04
6.906694072020e-04
7.081089564605e-04
8.422326803080e-04
4.360105328501e-04
2.279423584864e-04
1.438342882826e-04
6.746645813760e-04
6.253129879063e-04
9.918819555368e-05
3.502385490955e-04
2.023555415197e-04
6.246699331793e-04
3.695628740598e-04
6.232537801749e-04
3.438500574503e-04
7.461722125166e-04
2.994852823397e-04
6.807902368990e-04
2.134297640903e-04
6.549102842848e-04
5.031003560477e-04
6.885245121902e-04
3.402916395448e-04
1.961866029563e-04
5.822861240524e-04
6.308362435894e-04
4.380632245669e-04
6.281676019648e-04
2.380403549024e-04
6.367384190698e-04
1.839508450066e-04
7.725002622058e-04
6.561620715166e-04
6.933815038025e-04
8.092250112126e-04
5.501611933615e-04
1.836188012187e-04
6.153653481655e-04
7.923633784811e-04
3.086645625323e-04
6.943493645373e-04
6.953376833628e-04
2.383737125918e-04
6.351661673105e-04
5.732469191631e-04
2.731502544442e-04
3.307497968412e-04
5.297758459476e-04
6.688023425967e-04
4.058187172305e-04
5.054096064123e-04
6.614441040854e-04
5.998784189862e-04
5.910883509517e-04
4.972646323121e-04
7.574466861930e-04
5.955283378909e-04
5.798186174699e-04
8.003940697799e-04
7.180161900282e-04
6.490287924266e-04
7.113553544645e-04
3.823555630989e-04
3.565404549641e-04
1.953976897051e-04
6.410050228313e-04
3.763189430417e-04
6.449063337001e-04
6.199045494020e-04
5.084125206731e-04
3.051454170769e-04
3.258730291925e-04
3.248932828680e-04
3.506411482378e-04
2.087274372249e-04
7.378551383479e-04
4.282574386795e-04
7.412552030348e-04
4.541815597642e-04
6.095351943613e-04
5.187506594856e-04
4.997510169959e-04
2.146153585684e-04
7.711538397404e-04
8.079476018067e-04
6.361701368165e-04
3.764967077337e-04
5.641220258623e-04
6.406080403220e-04
4.020423173836e-04
4.195882062222e-04
3.055816158326e-04
2.636950223364e-04
4.082271319947e-04
2.736025990170e-04
2.537953830401e-04
5.245273162057e-04
6.292993035880e-04
7.492900454241e-04
3.203758316606e-05
4.405577458711e-04
4.346027194587e-04
4.023785191973e-04
6.155232675037e-04
4.734346387430e-04
3.196066524516e-04
4.342139395113e-04
7.163087986927e-04
3.260933403649e-04
1.168244718053e-04
1.647945889040e-04
2.770873895178e-04
3.310730520104e-04
4.602757153186e-04
4.600207765890e-04
1.928157764076e-04
1.707341749778e-04
5.895058594021e-04
2.797745439378e-04
7.062976887918e-04
7.244525292787e-04
5.994482200641e-04
7.479362706432e-04
7.722073383501e-04
4.891222082220e-04
6.801196645123e-04
2.186358735565e-04
4.535223376976e-04
4.450813002302e-04
2.467733830818e-04
1.750442891068e-04
3.704464435431e-04
4.405809917950e-04
4.660198440887e-04
2.935158266565e-04
4.992118488517e-04
4.465362306875e-04
4.659568211177e-04
3.372178723478e-04
6.620913788087e-04
6.659627664384e-04
4.464589383721e-04
7.516390930913e-04
2.441816649308e-04
8.072504021232e-04
4.795300791222e-04
8.017371460895e-04
6.085549533664e-04
2.321228935279e-04
6.185852731565e-04
7.630767509020e-04
5.051417859831e-04
3.661414466216e-04
6.376993777508e-04
4.811178594329e-04
1.857807587189e-04
8.390465361483e-04
1.628736303485e-04
8.036589317589e-04
7.822328340233e-04
6.817113985780e-04
5.944690303378e-04
7.324063707552e-04
4.717283072585e-04
5.530050660420e-04
7.919782093494e-04
6.749206336022e-04
6.866667910661e-04
6.457616521014e-04
2.126152465348e-04
7.069826387246e-04
8.629714234730e-04
7.993865070988e-04
4.477431927428e-04
5.982374328927e-04
5.702467583063e-04
4.852758503030e-04
6.550541832802e-04
6.806275031618e-04
1.495582113029e-04
2.819536409307e-04
4.719088448474e-04
4.524404810498e-04
4.753774359264e-04
8.204202764357e-04
7.726022105671e-04
7.860269249390e-04
4.302864262974e-04
7.179879766962e-04
6.608709654568e-04
7.991666135651e-04
6.815066276248e-04
4.792430800077e-04
4.524987585418e-04
7.025482517894e-04
7.779314873333e-04
7.070226180185e-04
6.822309135255e-04
7.465300404061e-04
7.826368761699e-04
7.260240088116e-04
5.837814341675e-04
4.125387530949e-04
7.065160572798e-04
6.683788434956e-04
2.478373517058e-04
4.777284192442e-04
5.353515613939e-04
5.977625510039e-04
2.507745920709e-04
4.583293862520e-04
6.426616075672e-04
4.741323037944e-04
4.930461985426e-04
6.351704220665e-04
5.035899061353e-04
8.748336872995e-05
5.699093729231e-04
6.954848808431e-04
7.976626567999e-04
5.222109466484e-04
5.384171766190e-04
6.412047717611e-04
1.333587154635e-04
6.759698665895e-04
5.725287969111e-04
5.032199876639e-04
6.864279124225e-04
2.514950635447e-04
7.120564692623e-04
7.780948302509e-04
6.564610749456e-04
7.116821158201e-04
7.246360851013e-04
7.833643354194e-04
1.802790547338e-04
6.612816129093e-04
7.861355491829e-04
7.278229343817e-04
6.115797601383e-04
4.833414631771e-04
5.268286526492e-04
1.425296761520e-04
7.526132568007e-04
2.678943445110e-04
2.211120256558e-04
7.044851606333e-04
8.041173484502e-04
2.253293374700e-04
5.541855973425e-04
6.771406016496e-04
5.185055617143e-04
2.565916003583e-04
3.358426263350e-04
1.654267237843e-04
2.195587793392e-04
1.948064560472e-04
5.668209511317e-04
9.024478657275e-04
2.656438147348e-04
7.662341416689e-04
4.141061097714e-04
6.566720836641e-04
1.877799869201e-04
8.084989395093e-04
1.994569434083e-04
3.140464818660e-04
6.820386484981e-04
4.908002713549e-04
7.628181862507e-04
3.758479425673e-04
6.979283655874e-04
7.957911377226e-04
6.571731431381e-04
8.029731230695e-04
7.270515574910e-04
7.476451225947e-04
2.191637260577e-04
7.397348748796e-04
6.976508043859e-04
5.085012302089e-04
3.119003519742e-04
8.251246623771e-04
2.569217320374e-04
2.989728286296e-04
7.328562567959e-04
1.824812964156e-04
5.242757088580e-04
7.013386659934e-04
7.908799406318e-04
8.131260850100e-04
6.875825611049e-04
7.527048348784e-04
4.392290927810e-04
7.101308226447e-04
3.576610988848e-04
7.839173444398e-04
4.037880571281e-04
4.232159837033e-04
5.029022043263e-04
4.507734252293e-04
5.870500808989e-04
4.752244134070e-04
5.026363052125e-04
2.249310114461e-04
4.776453301646e-04
7.733738486002e-04
7.976476035845e-04
6.945548351068e-04
7.772416007150e-04
4.852334699188e-04
7.428006378953e-04
4.970035832582e-04
7.593068717160e-04
7.224411528600e-04
7.227149131648e-04
6.309607774765e-04
4.584456414079e-04
7.531944029664e-04
6.034972236900e-04
2.308119231500e-04
2.624460620044e-04
3.872761120801e-04
5.489843774695e-04
7.797820896700e-04
7.023632392718e-04
4.641088760790e-04
6.218312804433e-04
7.219008359154e-04
7.573917115974e-04
7.785266204009e-04
6.280166874005e-04
7.383877363914e-04
5.278638301658e-04
7.262918204668e-04
5.188928070716e-04
7.977154867570e-04
8.063595481927e-04
5.860927408408e-04
2.315643799225e-04
7.386133228481e-04
5.676947967437e-04
4.449348027813e-04
6.172626666964e-04
7.179827493323e-04
2.370266014843e-04
5.414414582278e-04
6.328258620691e-04
7.852987061870e-04
6.515827953541e-04
7.191722898294e-04
6.137788463093e-04
5.757943947390e-04
6.225247935544e-04
7.525361268811e-04
7.265450907645e-04
6.730854564585e-04
8.087327558910e-04
5.947165434318e-04
3.757083337357e-04
7.690299236002e-04
8.027797653313e-04
5.132285230033e-04
5.378259550272e-04
4.198490164914e-04
6.932498007595e-04
4.196989786401e-04
6.013383056530e-04
4.244065472614e-04
7.076412824923e-04
8.082825049946e-04
4.390606027736e-04
1.483230989868e-04
8.029617023960e-04
4.435164002791e-04
5.102475381477e-04
7.829133683486e-04
6.777367698023e-04
7.065388141309e-04
4.506750626244e-04
1.167461404750e-04
8.120451166423e-04
5.678324770761e-04
6.713655535843e-04
7.707853918245e-04
7.492364537136e-05
7.006400612350e-04
3.174082064534e-04
6.321144681099e-04
5.639974680990e-04
4.332125152761e-04
7.650774128591e-04
5.816219672421e-04
3.891223975006e-04
5.975818898239e-04
1.224806412890e-04
6.853035704159e-04
7.134125102004e-04
8.179492543020e-04
7.297421601193e-04
3.065079168190e-04
7.004003726196e-04
8.165253916176e-04
8.479924542833e-04
7.386332535642e-04
4.696607101220e-04
6.412724926972e-04
7.730297312435e-04
5.224557452220e-04
6.991686312028e-04
6.522881639181e-04
7.454810025326e-04
7.319099201394e-04
4.592718609033e-04
4.589748948830e-04
6.632348156822e-04
6.550643866417e-04
5.839389106664e-04
6.520225668259e-04
5.568349206801e-04
7.827592798598e-04
4.641682869918e-04
9.023985271437e-04
5.323389960366e-04
5.433977192185e-04
5.581483784776e-04
2.876533767836e-04
4.987925639303e-04
6.113280308229e-04
5.734936793022e-04
6.486149626944e-04
6.664011184541e-04
6.953526663877e-04
1.412062264109e-04
4.675204502198e-04
4.485143747990e-04
6.274607649306e-04
6.578443530004e-04
7.694390836844e-04
2.018827599834e-04
2.118548485698e-04
5.434196226545e-04
4.731655300953e-04
4.306957946138e-04
4.543511483622e-04
6.528939094235e-04
2.067591147696e-04
5.327937831684e-04
7.010212531472e-04
2.056531891882e-04
8.439841012356e-04
7.711259233898e-04
5.127813030370e-04
7.142204993727e-04
8.010879403205e-05
6.760026335023e-04
5.731440943210e-04
7.848797575394e-05
7.668831780950e-04
1.937244266693e-04
6.327922999710e-04
5.785286832994e-04
4.968174943866e-04
5.956127873224e-04
7.880861604784e-04
6.409960854337e-04
5.623311144195e-04
5.487641104452e-04
6.109272857415e-05
1.629874435700e-04
7.482510755206e-04
6.040877386252e-04
7.640917445135e-04
3.123204989809e-04
7.273523556962e-04
7.747935678475e-04
4.649937047846e-04
7.426717535746e-04
7.200303897050e-04
6.303284010483e-04
5.129756421741e-04
5.441585730997e-04
8.113189037914e-04
5.503878304791e-04
5.924281748205e-04
5.531250535128e-04
6.865936238777e-04
5.186424646122e-04
3.204813496190e-04
5.606647508770e-04
3.450779890532e-04
6.470302402465e-04
3.505252796099e-04
6.277520247305e-04
7.587948185469e-04
7.268103064184e-04
4.888355696636e-04
6.236801479114e-04
7.339558663339e-04
7.397456106695e-04
1.647892676569e-04
6.415300113061e-04
8.022742046257e-04
3.412132358055e-04
5.581165807734e-04
8.708025055710e-05
7.535189856760e-04
3.010719485934e-04
5.274804108231e-04
6.673026496075e-04
6.282397646401e-04
5.981992314315e-04
5.868815627898e-04
3.840091498006e-04
4.074033715262e-04
7.595591585227e-04
6.255621355899e-04
5.413215478798e-04
6.709724982699e-04
5.163063894937e-04
3.315774455480e-04
3.763959762493e-04
5.615934434708e-04
4.817973037771e-04
7.326130562770e-04
4.941499276580e-04
8.205042127968e-04
7.452468947420e-04
5.472972600878e-04
8.312900741524e-04
3.699819044739e-04
8.018291199323e-04
5.922723470957e-04
6.492908331354e-04
7.668482132430e-04
3.896525471501e-04
6.172543904820e-04
5.220226255599e-04
6.028779115149e-04
3.408590409728e-04
6.699987248021e-04
4.909242862164e-04
5.778210378881e-04
5.978296419795e-04
8.229029560999e-05
5.981137410256e-04
1.283223021349e-04
1.425604046919e-04
5.519635169088e-04
7.343432326654e-04
6.172079870032e-04
3.390874049380e-04
8.835512891396e-04
3.541794485888e-05
3.613399971481e-04
5.544855267789e-04
5.326254913468e-04
4.424845602747e-04
3.782682788717e-04
5.798739096979e-04
6.167777849602e-04
6.437007506706e-04
7.590632464972e-04
1.759096795290e-04
5.070291229362e-04
5.467926510370e-04
2.917605163705e-04
4.894986857120e-04
6.227812367473e-04
6.771752748072e-04
1.001730422140e-04
6.527003657202e-05
2.035166912421e-04
5.524955955532e-04
4.141708406182e-04
3.646770521929e-04
3.255364608925e-04
5.717928128404e-04
6.564800500114e-04
5.666644769925e-04
4.085506308660e-04
6.465993337185e-04
5.417387641993e-04
7.125425157821e-04
5.723661868930e-04
5.777202621077e-04
2.916076193924e-04
4.336480661839e-04
5.858412025591e-04
6.379366452071e-04
5.991263956497e-04
3.166301193058e-04
5.916947495787e-04
3.585996022864e-04
1.686121238923e-04
8.065430386563e-04
1.781249146415e-04
3.724154870578e-04
5.819798147523e-04
3.300189918571e-04
5.928518961627e-04
2.717893358977e-04
5.034514971512e-04
5.975048584584e-04
5.161248570229e-04
5.386329409282e-04
8.667360441849e-05
7.766355700003e-04
4.278027150325e-04
7.709884658024e-04
6.554981013868e-04
6.113729652278e-04
6.169416889889e-04
3.837801442347e-04
1.206709874370e-04
7.269670928316e-05
6.307319205139e-04
7.666183021714e-04
3.527221907689e-04
6.608281624570e-04
3.135411494528e-04
6.715213762121e-04
8.631320342243e-04
2.443176703526e-05
8.829965077119e-04
8.852121263970e-04
5.187863560737e-04
4.219301114264e-04
6.361517130024e-04
3.946797178832e-04
1.259295258068e-04
6.663094765465e-05
8.124043100395e-04
6.435964837156e-04
4.857059802390e-04
9.024611897643e-04
2.289087475018e-04
9.032106261994e-04
6.378439507150e-04
4.156051056860e-04
6.056962681492e-04
3.904754317435e-04
1.913315701783e-04
3.651077128310e-04
6.756031953244e-04
7.724144175276e-04
3.966058680347e-04
6.856021964007e-04
0.0
4.025686827041e-04
7.139120631654e-04
3.570731400853e-04
3.273347299656e-04
6.111873319657e-04
1.714241601602e-04
2.420040212522e-04
2.712090176002e-04
3.127039070016e-04
5.608332313648e-04
5.328849272093e-04
6.902231196026e-04
8.080955017943e-04
2.842556977963e-04
6.821682045895e-04
8.109606697113e-04
3.645861892778e-04
1.258230046435e-04
3.462855414954e-04
5.351169772372e-04
6.908562819822e-04
5.298709099370e-04
1.475829349837e-04
6.052995487488e-04
2.176340386909e-04
5.379426478048e-04
5.747509196573e-04
6.255223732288e-04
6.198429424376e-04
3.190834650638e-04
1.430237184057e-04
6.204770996910e-04
2.385014860191e-04
5.727538746632e-05
8.088933360730e-04
7.702342677557e-04
3.537830069708e-05
6.503365910815e-04
2.479462791813e-04
2.600158871832e-04
7.304280687047e-04
6.303423890784e-04
7.052277971026e-04
4.085225165101e-04
4.822303009211e-04
8.428341203802e-04
2.144184038726e-04
7.491156234449e-04
5.624077246742e-04
1.620147722767e-04
6.703416370318e-04
4.275751542475e-04
7.844671194514e-05
3.593652216936e-04
6.605802268349e-04
6.829403826903e-04
1.683856497506e-04
5.389059366488e-04
7.114080209456e-04
7.412554945830e-04
3.386366915786e-04
2.659836531276e-04
5.773807037095e-04
6.106537074396e-04
7.794080869892e-05
8.647472179011e-04
8.429320017221e-04
5.419416684598e-04
8.464641737961e-04
8.449768812639e-04
4.218473016108e-04
4.026312649594e-04
8.662430778611e-04
0.0
2.463689065015e-04
5.423185032493e-04
3.455780040321e-04
3.534199359639e-04
1.932563100895e-04
2.285242578868e-04
5.533910755366e-04
3.894757547290e-04
2.855356333337e-04
7.152732176559e-04
9.025430170279e-04
9.028555141478e-04
4.158729496666e-04
4.991986293731e-04
5.007569812017e-05
1.549723110472e-04
1.733686555641e-04
1.773311158401e-04
6.057473022357e-04
3.472267394595e-04
3.840401147294e-04
1.047743844350e-04
7.694785082956e-04
3.779515105815e-04
8.054340909103e-04
7.382880291593e-04
9.042222901304e-04
9.037391284983e-04
5.542239624201e-04
3.965200569981e-04
2.395169663989e-04
4.095473271816e-04
8.846617183911e-04
1.091075619098e-04
1.309117937249e-04
7.757007018757e-04
5.216493301951e-04
8.114985139276e-04
7.149555952708e-04
7.808260194802e-04
7.476070933347e-04
5.490969887376e-04
3.014610573917e-04
2.949948221418e-04
6.532450277148e-04
7.635848575454e-04
4.588641132707e-04
5.205058156000e-04
5.540928897098e-04
5.659168286544e-04
1.420511469143e-04
2.680728897049e-04
8.651629045309e-04
6.052440982456e-04
8.634119896889e-04
8.245717668539e-04
6.764662760295e-04
8.149161431282e-04
3.967880254959e-04
3.767005960415e-04
8.110139756078e-04
3.456957431071e-05
2.657950424331e-04
8.824542840959e-04
1.237061144379e-04
4.987214213507e-04
8.294168402688e-04
8.695215841110e-05
5.602562008274e-05
9.015334466947e-04
4.603425485764e-04
8.489922161072e-04
8.087138917439e-04
4.591008030381e-04
5.552241480747e-05
8.444214902365e-04
1.414135789209e-04
8.168961864666e-04
8.837090559571e-04
8.142426765288e-04
1.807958899793e-04
5.595583047635e-04
4.199792468794e-04
7.164591502921e-04
9.028817437699e-04
7.102313129860e-04
9.026811156520e-04
8.288145526137e-05
8.646233726606e-04
2.069739792553e-04
1.172764018555e-04
8.657097316282e-04
8.659008612292e-04
8.625184092857e-04
5.047279818662e-04
5.503926425959e-04
1.934303277458e-04
8.651050625011e-04
3.388354453695e-04
1.130064855855e-04
7.389517174799e-04
4.782630476822e-04
8.223389270151e-04
8.930658412704e-04
8.840898532866e-04
2.334843234610e-05
1.127894866393e-05
4.694771593736e-04
4.807281389759e-04
8.834165587509e-04
8.924916119184e-04
5.576594174246e-05
0.0
8.119181321879e-04
8.142322994912e-04
1.701766019211e-04
8.251842060796e-04
5.739886326733e-04
5.078648088346e-04
6.388823889726e-04
1.550243662730e-04
6.739268272391e-04
1.393043346543e-04
4.524792319836e-04
8.185153464905e-04
7.987444324357e-04
4.885491561285e-04
5.870976835178e-04
8.300271616539e-04
7.651236002798e-04
7.207118451451e-04
4.587797315069e-04
6.508513547530e-04
8.137396714987e-04
2.548267730587e-04
6.130172025363e-05
7.910594940571e-04
7.454571359396e-04
1.168423234533e-04
6.691954016891e-04
8.437645600948e-04
7.822748954745e-04
8.291678905268e-04
6.276953752614e-04
3.676099362061e-05
1.910008398258e-04
2.410902129174e-04
5.367277688070e-04
6.465619629802e-04
8.260192756098e-04
8.426510046720e-04
9.968867775761e-05
9.583122356830e-05
1.529254075451e-04
6.701562114990e-04
3.239280242567e-04
8.294279570789e-04
1.624109286017e-04
8.067702666274e-04
5.436640056567e-04
8.463726308532e-04
7.450121923899e-04
5.381792224530e-04
8.657268182902e-04
8.669176791877e-04
8.641188598614e-04
1.063408641689e-04
8.096899185402e-04
8.433515583067e-04
8.209426083778e-04
7.578403458604e-04
8.820824508574e-04
7.152183658321e-04
0.0
1.476863544574e-04
7.925042984467e-04
5.819610102914e-04
8.150003304523e-04
7.872814678585e-04
8.479070143319e-04
7.210640868520e-04
8.478357315245e-04
8.252654922692e-04
8.217924527872e-04
3.382456616413e-04
9.027319105777e-04
5.177284306761e-04
8.149780141979e-04
7.602985457211e-05
7.853489742656e-04
6.747924126657e-04
9.715604780866e-05
1.703587158512e-04
7.357623737217e-04
8.456239339759e-04
8.256639794594e-04
8.510870588008e-04
5.779321806582e-04
5.698562791086e-05
8.903845588755e-05
6.283407249005e-05
1.237561416650e-04
2.218122983909e-05
4.492152745151e-04
8.141022284179e-04
8.188324132241e-04
5.825183578263e-04
3.912991429550e-04
8.215127337613e-04
8.144364166830e-04
8.676175675571e-04
8.131246206762e-04
7.790398171077e-04
7.703091579876e-05
8.521732389425e-05
8.233105816384e-04
7.749586532649e-05
1.142956473345e-04
7.248547269918e-05
8.699680012182e-05
8.468513703274e-04
8.482556314247e-04
8.272172742286e-04
8.507165112290e-04
7.882896166762e-04
6.050128159723e-04
8.848716184046e-04
2.082654753157e-04
4.770383954530e-04
1.308584681555e-04
3.200133854228e-05
9.023297721724e-04
5.253788953819e-04
1.321285258096e-04
4.283053972209e-04
8.675733916602e-04
8.249021745336e-04
8.483302000566e-04
3.066024421432e-04
8.148429218192e-05
8.670431337253e-04
9.023411771345e-04
9.053923630978e-04
5.028745524170e-04
8.096342445588e-04
1.166784308444e-04
8.309395715062e-04
3.072536449822e-05
8.491015123023e-04
8.642157995562e-04
3.254999792424e-05
7.915264275696e-04
6.950269549080e-04
8.486200653356e-04
8.870888049155e-04
6.371787866159e-04
8.507580346646e-04
8.288142407060e-04
6.543265911992e-04
8.219609091343e-04
3.580802034436e-04
4.580585415293e-04
8.289670477400e-04
8.604442280761e-04
0.0
4.595975431843e-04
8.621910031762e-04
1.592545715764e-04
8.297085483634e-04
8.243206064822e-04
8.644406776067e-04
1.547160338610e-04
1.208044010377e-04
5.264955792143e-04
7.516483182700e-04
1.891156848520e-05
8.515789897366e-04
6.135789601255e-04
1.559509946477e-04
5.832862224491e-04
8.658507257749e-04
5.521778443811e-04
4.558321396471e-05
3.239427989419e-04
4.776913424967e-04
5.701251507252e-04
8.287479897685e-04
4.636624967177e-04
4.900391319366e-04
7.786229875005e-05
8.280550521141e-04
7.926388045417e-04
1.331660701839e-04
8.512291248288e-04
8.566440339274e-04
5.134667395409e-04
6.297245589001e-04
4.683583638001e-04
4.786896715519e-04
5.070171589005e-04
7.879088551411e-04
1.144990407912e-04
8.287518740281e-04
5.339553679767e-04
8.658836050112e-04
7.862007520820e-04
5.990262297868e-04
7.981889298720e-04
8.203027348467e-04
8.695097463781e-04
3.580066420134e-05
8.023135303917e-04
8.310675113497e-04
8.967195667714e-05
4.375219600786e-04
5.410315473195e-05
8.369220774202e-04
8.152653413661e-06
3.520658585359e-05
0.0
3.359819514491e-05
0.0
3.313252764850e-05
0.0
3.289224466090e-05
0.0
3.275326618228e-05
0.0
3.266170863171e-05
0.0
3.259312216348e-05
0.0
3.253633141508e-05
0.0
3.248718857839e-05
0.0
3.244601699343e-05
0.0
3.241634942235e-05
0.0
2.882848781248e-05
3.240236018748e-05
0.0
3.240724030560e-05
1.985132955702e-05
0.0
3.243078502731e-05
0.0
0.0
3.247470227793e-05
0.0
3.252957520244e-05
0.0
3.260274479230e-05
0.0
3.265479358426e-05
0.0
1.352525439315e-05
3.274897001924e-05
0.0
3.270388586525e-05
0.0
3.282953795732e-05
3.243411831947e-05
0.0
3.300901820438e-05
0.0
3.201866338618e-05
0.0
3.442607583393e-05
0.0
3.056157575768e-05
3.842403261230e-05
0.0
0.0
0.0
3.734105662281e-05
5.071752185330e-05
1.644016628118e-05
2.084079963623e-05
4.675701119604e-06
6.305415251340e-05
4.430271262516e-05
7.239823981334e-05
4.524076774984e-05
7.332208736462e-05
4.552088745807e-05
7.353162361801e-05
4.561866148901e-05
7.360441529362e-05
4.566530683141e-05
7.362306430756e-05
4.568842134645e-05
7.361539126620e-05
4.569883930221e-05
7.359415469538e-05
4.570183983172e-05
7.356608665189e-05
4.570051273717e-05
7.353577911461e-05
4.569729627414e-05
7.350774276507e-05
4.569490987834e-05
7.864272555732e-05
7.348786036321e-05
4.569501424605e-05
7.348174223121e-05
4.769811480479e-05
4.569869548349e-05
7.349226450390e-05
4.570416332516e-05
7.351844561679e-05
4.571505359638e-05
5.390955562842e-05
7.356092067837e-05
4.572209667244e-05
7.361102903735e-05
4.574258357666e-05
7.367627789918e-05
4.573502608572e-05
7.371702823309e-05
4.578862631170e-05
7.382057400570e-05
4.570247284829e-05
7.375312615063e-05
4.584447110701e-05
6.129827032504e-05
4.544791901607e-05
7.394831278350e-05
4.605842570788e-05
7.330895958388e-05
4.487307831855e-05
7.425620430535e-05
4.659858698195e-05
7.214958337334e-05
7.565474771358e-05
3.186566387583e-05
8.711826587208e-05
7.142110749846e-05
6.508878647798e-05
5.134220448096e-05
4.544511721514e-05
1.060630185137e-04
1.193878995555e-04
9.379526954330e-05
1.183500601834e-04
9.332045924007e-05
1.185317998829e-04
9.349115067675e-05
1.186860508083e-04
9.364153366354e-05
1.187801877588e-04
9.373896066041e-05
1.188280837711e-04
9.379241071714e-05
1.188436643472e-04
9.381398973907e-05
1.188374336410e-04
9.381409216621e-05
1.188168429135e-04
9.380020741011e-05
1.187880965260e-04
1.228548079313e-04
9.377872003291e-05
1.187586803619e-04
9.375742194130e-05
9.901683105838e-05
1.187415927965e-04
9.374860535478e-05
9.227381004680e-05
1.187409684146e-04
9.375731560614e-05
1.187659701010e-04
9.378590440150e-05
1.187938477424e-04
9.382044357158e-05
1.188690358019e-04
9.387780799165e-05
1.188870123689e-04
1.074932437662e-04
9.390977703856e-05
1.190453421308e-04
9.400077709541e-05
1.189147147776e-04
1.194211077150e-04
9.397518878269e-05
1.186424205607e-04
9.426322750681e-05
1.201308702069e-04
9.387033602125e-05
1.166147161399e-04
1.213211340380e-04
9.462008612956e-05
9.158574424152e-05
7.938697313666e-05
1.147193361149e-04
1.329473715565e-04
1.046659526420e-04
1.170726526350e-04
9.100135238535e-05
1.548793020190e-04
1.398583083142e-04
1.646971575123e-04
1.401603119576e-04
1.651896890035e-04
1.402343217064e-04
1.653056434901e-04
1.403364600330e-04
1.654203101123e-04
1.404393468954e-04
1.655145835356e-04
1.405180074321e-04
1.655755201380e-04
1.405643214736e-04
1.656033941395e-04
1.405832710722e-04
1.656055046448e-04
1.405810214083e-04
1.655880763316e-04
1.676429061094e-04
1.405643649430e-04
1.655578570877e-04
1.405379441217e-04
1.389227043048e-04
1.655221024453e-04
1.405113109071e-04
1.655020779017e-04
1.405117521784e-04
1.655088119870e-04
1.443319784934e-04
1.405345488367e-04
1.655542038496e-04
1.405971232595e-04
1.655927246128e-04
1.406254501371e-04
1.657030671808e-04
1.407331409774e-04
1.656809761560e-04
1.406767154371e-04
1.659556361556e-04
1.408854959846e-04
1.531712737841e-04
1.405901903800e-04
1.655014109628e-04
1.413440324429e-04
1.667860907958e-04
1.389069220690e-04
1.643091316219e-04
1.684969091712e-04
1.248521962396e-04
1.692850054625e-04
1.492953996098e-04
1.563356513805e-04
1.438751425223e-04
1.370181524225e-04
1.976333862393e-04
2.116731572351e-04
1.862186243852e-04
2.105135771650e-04
1.854721293060e-04
2.104577930494e-04
1.854427323826e-04
2.105321862864e-04
1.855223010247e-04
2.106306724529e-04
1.856205509068e-04
2.107115213645e-04
1.856981488192e-04
2.107539297177e-04
1.857352136190e-04
2.107681397284e-04
1.857479377639e-04
2.107589556243e-04
2.131686355800e-04
1.857434794709e-04
2.107344521858e-04
1.857268407030e-04
1.908372584021e-04
2.106931599542e-04
1.845702532177e-04
1.856890788764e-04
2.106302587185e-04
1.856378609051e-04
2.106380971703e-04
1.856566304066e-04
2.106431631274e-04
1.857081639528e-04
2.108179316691e-04
1.980009761142e-04
1.858373073386e-04
2.106922178983e-04
1.857973773904e-04
2.111624469953e-04
2.104376803483e-04
1.860216229082e-04
2.119249337184e-04
1.856176602761e-04
2.088598079787e-04
2.140888372367e-04
1.863106585679e-04
1.836826105287e-04
1.703583003672e-04
2.001760913214e-04
2.196716975602e-04
1.962435353328e-04
2.084613605653e-04
1.832797690290e-04
2.467242924841e-04
2.318971739121e-04
2.569604721247e-04
2.323582238135e-04
2.573660128964e-04
2.323481834884e-04
2.573777332793e-04
2.323926280916e-04
2.574504022643e-04
2.324746838914e-04
2.575468697238e-04
2.325693421246e-04
2.576322522147e-04
2.326122074981e-04
2.576553806804e-04
2.326151529556e-04
2.576522502379e-04
2.588705843304e-04
2.326142016961e-04
2.576375128508e-04
2.306571559578e-04
2.326278861306e-04
2.576262050767e-04
2.326180735072e-04
2.575817555027e-04
2.325405437276e-04
2.371444383033e-04
2.574556691956e-04
2.324538276695e-04
2.574825913594e-04
2.325861304384e-04
2.575227655495e-04
2.326671156115e-04
2.578962146880e-04
2.329911614336e-04
2.574939041830e-04
2.326152256377e-04
2.440244319060e-04
2.332069693135e-04
2.585665773561e-04
2.307697375987e-04
2.562555830984e-04
2.601089679822e-04
2.162782946957e-04
2.577307751470e-04
2.370799216689e-04
2.479843099940e-04
2.355777807444e-04
2.300605477233e-04
2.893562250950e-04
3.035610020743e-04
2.781398742463e-04
3.024796248070e-04
2.774000520103e-04
3.024086532762e-04
2.773792771481e-04
3.024572659554e-04
2.774284649834e-04
3.025480157212e-04
2.775301685476e-04
3.026855389739e-04
2.776610420386e-04
3.027150412041e-04
2.776797469847e-04
3.026647938250e-04
3.057519497818e-04
2.776123204034e-04
3.026644902344e-04
2.828915978971e-04
2.776728359796e-04
3.027151159073e-04
2.761654015987e-04
2.777471929607e-04
3.027239513287e-04
2.777229964406e-04
3.026125050717e-04
2.775893337710e-04
3.022358251205e-04
2.911528140928e-04
2.773787975288e-04
3.027660250717e-04
2.778333905826e-04
3.023471162595e-04
3.041522434489e-04
2.778236615926e-04
3.009345726581e-04
2.786762187220e-04
3.055181121834e-04
2.755391628935e-04
2.628456973792e-04
2.894887970220e-04
3.094946284243e-04
2.879404696216e-04
3.001784249515e-04
2.747666986158e-04
3.387590509463e-04
3.239558570236e-04
3.490589559299e-04
3.242489538052e-04
3.492778332294e-04
3.244009492226e-04
3.494137940559e-04
3.243450263155e-04
3.494285644229e-04
3.244491555650e-04
3.495528953540e-04
3.245729995313e-04
3.497476816412e-04
3.247790095566e-04
3.498156307860e-04
3.524344535621e-04
3.244756318896e-04
3.234927653718e-04
3.495180048904e-04
3.245640602665e-04
3.496724803304e-04
3.248419696225e-04
3.498816701128e-04
3.248366754099e-04
3.293404958308e-04
3.498297634467e-04
3.247755033259e-04
3.497132450553e-04
3.245820555673e-04
3.488372345038e-04
3.242701434091e-04
3.503144451308e-04
3.256426464242e-04
3.234521601643e-04
3.489428141026e-04
3.382079507074e-04
3.528736187585e-04
3.091709295256e-04
3.479959789487e-04
3.272882465017e-04
3.399401601187e-04
3.274902301269e-04
3.210995550700e-04
3.823738146998e-04
3.954225263856e-04
3.697566624949e-04
3.939322582241e-04
3.688694981486e-04
3.944097865815e-04
3.693773633782e-04
3.940314017453e-04
3.688791821506e-04
3.943498072948e-04
3.693104022334e-04
3.943240387101e-04
3.692423004483e-04
3.983221388088e-04
3.950761893213e-04
3.697532978986e-04
3.757283910689e-04
3.940431169502e-04
3.690941919872e-04
3.688922250286e-04
3.943316706399e-04
3.695967294386e-04
3.950039595106e-04
3.699171745464e-04
3.947738597822e-04
3.836764221872e-04
3.696289525295e-04
3.946866788540e-04
3.951305091693e-04
3.698050963930e-04
3.917401968718e-04
3.700257270424e-04
3.984140208452e-04
3.678384251997e-04
3.553107824800e-04
3.787353646523e-04
4.015883610286e-04
3.798602337846e-04
3.917784855672e-04
3.672570110000e-04
4.343021193814e-04
4.144431140943e-04
4.400238155636e-04
4.160910928413e-04
4.407194433539e-04
4.169792812266e-04
4.421275663541e-04
4.155655137509e-04
4.404257626118e-04
4.163557751546e-04
4.417490498800e-04
4.164243392235e-04
4.451512402664e-04
4.411469643058e-04
4.182864247912e-04
4.154450539294e-04
4.421592365309e-04
4.167200733669e-04
4.407251200889e-04
4.170139093125e-04
4.420435047998e-04
4.169234513539e-04
4.225836555007e-04
4.425201970351e-04
4.165861177248e-04
4.414159334299e-04
4.159924669279e-04
4.163537947849e-04
4.414971076271e-04
4.437645096039e-04
4.307709466435e-04
4.017743348262e-04
4.348445271149e-04
4.227645607119e-04
4.331703470473e-04
4.187044942453e-04
4.146339968586e-04

SCALARS element_materi_plasti_phimob float
LOOKUP_TABLE default
1.369180163615e+01
1.317939032648e+01
2.033332547300e+01
2.032266002878e+01
1.833244113358e+01
-2.615770672747e+00
1.832167006219e+01
1.300439950960e+01
1.835824538951e+01
2.029445072965e+01
1.881700581589e+01
1.153447956085e+01
2.031273701582e+01
1.868255558298e+01
2.038851514725e+01
2.041064513119e+01
1.826185757334e+01
-3.167616176270e+00
7.882806773085e+00
8.237619923692e+00
2.029483699065e+01
1.448077689790e+01
1.521365328876e+01
2.017778094445e+01
1.900396044802e+01
1.906563554663e+01
1.776348474923e+01
2.037451583103e+01
1.901559357765e+01
2.027844105501e+01
2.955863558383e+00
-2.057503917545e+01
2.040362874347e+01
1.978211281511e+01
2.029530032321e+01
2.050155302240e+01
2.047451413850e+01
2.031575003631e+01
1.783772479111e+01
1.786309953478e+01
1.624860208315e+01
2.034320792976e+01
9.589074695998e+00
1.777419014387e+01
2.023068875357e+01
9.534135620614e+00
-4.215498254991e+00
2.021654805096e+01
-2.083422615895e+01
1.848821356885e+01
1.578580836488e+01
1.092471399448e+01
8.764396185041e+00
1.569703414700e+01
2.034906235276e+01
1.409056407731e+01
1.134389754189e+01
1.978630791890e+01
2.856525643382e+00
2.039513226361e+01
-2.550712980698e+01
2.017549874960e+01
1.575610912160e+01
6.983776270764e+00
2.031106397351e+01
1.514718659537e+01
-2.820117143049e+01
2.035230397776e+01
4.439774071062e+00
2.035030314718e+01
1.923855414338e+01
2.049468896288e+01
2.023074527098e+01
-1.572160725169e+01
1.448606948559e+01
2.032166575809e+01
2.038255619979e+01
5.208453714141e+00
2.859088207639e+00
5.309566507849e+00
4.351718613534e+00
1.819972192053e+01
1.465300181385e+01
1.361983692749e+01
1.862540990832e+01
1.859086894931e+01
1.938248371574e+01
1.967668789005e+01
1.979110010562e+01
1.830260948805e+01
-2.107554807905e+01
1.824023075500e+01
1.971827539459e+01
1.964684083160e+01
2.051059540738e+01
2.042019057215e+01
1.818667639025e+01
2.039360857837e+01
1.894651463623e+01
1.536123531854e+01
1.808611810792e+01
2.041035281580e+01
1.962088547658e+01
2.018942258322e+01
1.451933704274e+01
-4.544446139500e+00
2.011603420306e+01
1.990301488868e+01
-2.093805757203e+01
2.034971823676e+01
1.964258206813e+01
-2.642932430717e+01
1.682006539308e+01
1.770116968112e+01
1.610493791626e+01
1.457234561138e+01
1.576165447142e+01
2.039075881538e+01
1.881569893510e+01
1.514966999591e+01
3.588581654567e+00
1.820280557083e+01
1.988480739392e+01
1.516776250217e+01
-2.897929156231e+00
1.705900972045e+01
1.610659340796e+01
1.664712477664e+01
2.039660790025e+01
1.013175469265e+00
1.904230139996e+01
2.034083623420e+01
1.714211099328e+01
1.669229187294e+01
2.030213823762e+01
2.031994608720e+01
1.938355485487e+01
1.750500124157e+01
2.037057490676e+01
1.685828570839e+01
2.034340740206e+01
2.037632784916e+01
1.868091781186e+01
1.934858696076e+01
1.686300473280e+01
1.624879112946e+01
1.773605993825e+01
1.567449002339e+01
1.816451347197e+01
1.684355566465e+01
-2.192148084960e+01
1.853047361427e+01
3.504268212313e+00
1.740800179341e+01
2.035300705175e+01
1.452700153671e+01
1.952636473190e+01
1.099648348316e+01
1.961705138351e+01
1.824189852304e+01
1.638275394570e+01
1.990197614500e+01
3.323855448372e+00
2.010944054875e+01
1.814712156137e+01
2.038432868745e+01
1.819467861175e+01
1.498819452893e+01
1.736146230298e+01
1.891912979698e+01
1.120940820742e+01
1.639876763901e+01
1.952180821005e+01
1.822335362558e+01
1.599162171438e+01
1.704205107052e+01
1.994544261933e+01
1.682880598017e+01
2.035260924697e+01
2.037189934758e+01
1.420630984760e+01
1.683293812470e+01
2.001740142072e+01
1.656464961983e+01
1.321527393818e+01
1.793733757094e+01
1.654420911705e+01
2.037031897278e+01
1.967146199156e+01
2.001207488403e+01
7.697545078780e+00
1.591037809426e+01
1.977616126430e+01
-6.531778460867e+01
1.657724838905e+01
1.976265188762e+01
-4.614982069650e+00
2.030436261314e+01
1.931248367954e+01
1.644258260679e+01
1.976420116920e+01
1.856936822031e+01
1.887087781158e+01
2.025189162453e+01
1.403597453965e+01
1.795541151681e+01
1.833730098191e+01
1.947901382577e+01
1.840596959372e+01
1.792493233338e+01
1.917460417214e+01
1.985236610205e+01
-2.246859850791e+01
1.420417745173e+01
1.536789117160e+01
1.774466121637e+01
1.981816134356e+01
5.319742894398e+00
1.961938771153e+01
1.813929621971e+01
1.589635668613e+01
1.946943829443e+01
-1.679007665394e+01
1.959109539015e+01
-2.350751399356e+01
-4.579225311345e+00
7.703770991273e+00
1.227711220104e+01
1.973664283382e+01
1.152100938011e+01
1.049343185080e+01
8.150969368571e+00
5.771982164476e+00
1.988859015452e+01
1.814129650319e+01
2.031437147305e+01
-5.855218897872e+01
1.266182233752e+01
1.674711159664e+01
1.607277096305e+01
1.962178678950e+01
2.039191361106e+01
1.956903731616e+01
1.411094756923e+01
1.989231128680e+01
1.922808637210e+01
1.803343074307e+01
1.943583604671e+01
2.026403428210e+01
1.676604049902e+01
1.186857886128e+01
1.879065159206e+01
2.051109840488e+01
1.796227693878e+01
1.820001376349e+01
1.862788295782e+01
2.377710371408e+00
1.841650852042e+01
1.408102080407e+01
9.573320705603e+00
4.082101689775e+00
1.973426553954e+01
1.857970955622e+01
1.564163678642e+01
1.986842508323e+01
1.967699481896e+01
1.829263979051e+01
2.035621502808e+01
1.839296778358e+01
1.852396201470e+01
1.724854466942e+01
1.862959909641e+01
1.211412828181e+01
1.826668402288e+01
1.707767006484e+01
1.435701808065e+01
1.956111903947e+01
-6.377929435068e+01
1.862970310846e+01
1.467346117496e+01
1.269004959671e+01
1.217216184458e+01
1.893663883760e+01
-5.633767984968e+00
1.593921684330e+01
1.879677024973e+01
1.857909202071e+01
1.864364423437e+01
2.098716939898e+00
1.432904943722e+01
1.351578083282e+01
1.493686427813e+01
1.944879055776e+01
1.595737545176e+01
1.665035189405e+01
1.629638389447e+01
5.687673507125e+00
1.749803712371e+01
7.338337829289e+00
2.049044153333e+01
2.052734065185e+01
1.816443482705e+01
1.319953268413e+01
1.153151609497e+01
1.869041919189e+01
1.245124974943e+01
1.346309918379e+01
1.802156211213e+01
2.040055732865e+01
1.533022493299e+01
1.917248711223e+01
8.782368979729e+00
2.049481302204e+01
1.240298962034e+01
1.822395500453e+01
7.528902802446e+00
1.905304308513e+01
1.706098929839e+01
1.415961903255e+01
1.834543950401e+01
2.050326970335e+01
1.578579055257e+01
1.880327907800e+01
8.827037030022e+00
1.923856914272e+01
1.946376360824e+01
1.298857896663e+01
1.911514045077e+01
2.050101337869e+01
1.973295599152e+01
2.049886336178e+01
1.905409531173e+01
1.964875646405e+01
1.088134692197e+01
1.787599606539e+01
1.851715871716e+01
1.874131446828e+01
1.766612936501e+01
2.050751131737e+01
1.885118123429e+01
1.821729822904e+01
1.631302383962e+01
9.779708195080e+00
1.763592871350e+01
1.363886145930e+01
1.820704243112e+01
1.418646778786e+01
1.535088274249e+01
1.970430595239e+01
1.365929247744e+01
1.808604254305e+01
1.895342423727e+01
1.835650492791e+01
2.049412589472e+01
1.698903399151e+01
1.368176167872e+01
1.610582801349e+01
1.321394029014e+01
1.296024598795e+01
1.991630601326e+01
1.847427863640e+01
1.608804236227e+01
1.757146008083e+01
2.050048784761e+01
2.033603755815e+01
1.990605519679e+01
1.959819616167e+01
1.816191167532e+01
1.631607050440e+01
1.324416248698e+01
1.470156511242e+01
1.823235705332e+01
1.891217281927e+01
1.739397079703e+01
1.994591126899e+01
1.370874017913e+01
1.733806190018e+01
1.827770459391e+01
1.665321754546e+01
2.048668863347e+01
2.052294024079e+01
2.031077065495e+01
1.860218529929e+01
1.986335263098e+01
1.184615271135e+01
1.580409563854e+01
9.652129091200e+00
1.643903491921e+01
1.820348160461e+01
1.905538233013e+01
2.036904760308e+01
1.987339059898e+01
1.877677699624e+01
1.889555378001e+01
1.078037870232e+01
-5.006499321405e+00
1.714626618814e+01
1.789740596088e+01
1.751180978513e+01
-2.847866133543e+00
1.860685567338e+01
8.541383080882e+00
1.341064103169e+01
2.050095909899e+01
1.932363714356e+01
1.825820884956e+01
2.906541255196e+00
1.765933214387e+01
1.716068787865e+01
1.894149686712e+01
2.050802436800e+01
1.786996844154e+01
1.869669689087e+01
1.738038419880e+01
1.983871118138e+01
1.877030708580e+01
2.049535037256e+01
2.049788965816e+01
2.049844156267e+01
2.048852232438e+01
1.908076474711e+01
1.984568541408e+01
2.000369541243e+01
1.664613585015e+01
1.630874677253e+01
1.701480054802e+01
1.994866756342e+01
2.050219990715e+01
1.995945276321e+01
1.900222828326e+01
1.996781442287e+01
1.940091014267e+01
1.758447953635e+01
1.643159150202e+01
1.003936739432e+01
2.036966486959e+01
1.618396742498e+01
2.020436006888e+01
1.699943202127e+01
1.327669582226e+01
2.035422675104e+01
1.425149060757e+01
2.050045553837e+01
2.038237749043e+01
1.864281700866e+01
-2.223825416823e+01
2.049878466599e+01
2.035829334704e+01
1.324735680470e+01
1.914996625006e+01
2.051892518030e+01
-5.782878989115e+01
1.696179971705e+01
1.885139064278e+01
1.841422608511e+01
1.846963978465e+01
1.148807550835e+01
2.049828794972e+01
1.666668842029e+01
2.208903125777e+00
2.038389184864e+01
-2.178471010726e+01
1.723884053876e+01
2.883834014476e+00
1.761931472544e+01
2.049478700086e+01
2.050113686136e+01
1.874172544571e+01
-4.811731286356e+00
-2.960276118302e+00
2.973520880188e+00
1.991732087538e+01
1.820771682071e+01
1.844134634891e+01
2.050339932016e+01
1.826705026231e+01
2.051757231612e+01
1.951378003076e+01
1.890555262116e+01
1.393611245434e+01
1.914530220618e+01
8.285985586125e+00
2.050074031895e+01
2.049373124219e+01
2.049686989115e+01
1.877826148014e+01
1.658358441695e+01
1.759639263025e+01
1.893150107383e+01
2.049841042817e+01
1.344299911464e+01
1.489681263159e+01
1.540183522155e+01
1.909746581402e+01
2.052715410338e+01
-5.324126419931e+00
2.049737649064e+01
1.473508298346e+01
2.050364448053e+01
2.001866366608e+01
-6.174432196927e+01
1.724048359249e+01
1.998800721286e+01
2.050031223474e+01
1.908724917509e+01
1.963244545837e+01
6.525818224351e+00
2.020150822225e+01
1.524947877394e+01
1.541820710693e+01
-2.051645173740e+01
2.049897348317e+01
1.122738404484e+01
1.987042014961e+01
1.870748241174e+01
1.375442445549e+01
1.492683202483e+01
1.890023454527e+01
2.050284389864e+01
1.691838226285e+01
1.930700284453e+01
1.835716853997e+01
1.886471647188e+01
1.554689858523e+01
1.897941045115e+01
1.816948474485e+01
1.943575753721e+01
1.944412071655e+01
1.810236175624e+01
1.709046278633e+01
1.427110908927e+01
1.656626640970e+01
1.952478304846e+01
1.857598250845e+01
2.049849397585e+01
2.007492430465e+01
1.272639544513e+01
2.049581746374e+01
2.034849532363e+01
1.774878903698e+01
-2.130660842270e+01
2.049272888630e+01
2.006378805812e+01
1.393960770283e+01
2.049905255661e+01
1.913173135977e+01
1.675240563820e+01
1.860074912762e+01
1.839896603500e+01
1.836518707474e+01
1.906118437012e+01
1.931956028705e+01
1.749617594895e+01
1.959474971266e+01
1.894424403093e+01
1.710462540003e+01
1.928060497169e+01
1.526365477067e+01
1.899060935960e+01
-6.142154455005e+01
1.500215902581e+01
1.475372259062e+01
1.764764633483e+01
1.803735029085e+01
1.912500747630e+01
1.893885562403e+01
1.397272018174e+01
2.050195973831e+01
1.885676770672e+01
1.788885964969e+01
1.864709884308e+01
1.766211710024e+01
-5.761331466188e+01
1.883054065173e+01
1.644130470903e+01
-5.833046690918e+01
1.756673867390e+01
1.943300396653e+01
1.997797164089e+01
1.870224851310e+01
1.885475910676e+01
1.799118642437e+01
1.780165234762e+01
2.035236490416e+01
1.841901234172e+01
-6.342373269541e+01
5.957497266760e+00
-2.175876002996e+01
1.346382004451e+01
1.995450769849e+01
1.998802567069e+01
1.978072865916e+01
1.465738283323e+01
1.899980444719e+01
1.995805704575e+01
7.572359455897e+00
1.643101024016e+01
1.483895088368e+01
2.052057922704e+01
2.050072647954e+01
1.718006337176e+01
1.789704534670e+01
1.854492771109e+01
2.007152318677e+01
7.624096489474e+00
1.983306064177e+01
-4.711711866920e+00
1.733108233810e+01
1.796980327948e+01
-2.132376744459e+01
1.678221232843e+01
2.007759270273e+01
-6.174230259923e+01
1.774504793641e+01
1.774128786937e+01
1.924186213837e+01
1.484160562147e+01
1.455123965824e+01
1.053183353860e+01
2.008253229521e+01
2.036725104042e+01
1.983558124616e+01
1.387489196727e+01
-1.741611819693e+00
1.757959208047e+01
1.775617171935e+01
1.778480027193e+01
-5.771443668140e+01
-2.152322837918e+01
-5.023879937702e+00
1.195150053092e+01
-2.064945773760e+01
1.757272518094e+01
-5.773159424050e+01
1.381403249398e+01
1.919892944608e+01
1.774608313532e+01
2.005106249695e+01
1.926365428815e+01
1.890971211339e+01
1.541612793914e+01
-4.890410782978e+00
2.049736161318e+01
2.051612015984e+01
1.869739227402e+01
1.779596490255e+01
1.551997046974e+01
2.049928080846e+01
1.312917906836e+01
1.773554669301e+01
1.773052996277e+01
1.731065778843e+01
2.050235325069e+01
2.048486555829e+01
-2.094428253476e+01
-5.750675709376e+01
2.340090509729e+00
1.795829550374e+01
2.022149826586e+01
-6.363678133373e+01
1.980450013194e+01
-5.737936769555e+01
1.919559814887e+01
-6.075042326899e+01
-6.092225987220e+01
1.901139408973e+01
2.012348261557e+01
1.918291585787e+01
1.781310334285e+01
-2.131291264651e+01
1.914592664703e+01
2.049100767896e+01
2.050362441073e+01
1.774805951975e+01
1.936536542488e+01
2.050010310459e+01
1.963862882303e+01
-5.488082768247e+00
-2.094209049003e+01
-2.181872227018e+01
1.638571110107e+01
2.051690691859e+01
2.031282245045e+01
-5.756642248016e+01
1.750750915276e+01
2.050741110874e+01
2.052715423194e+01
2.048825918571e+01
1.956484198085e+01
1.991289043042e+01
2.049196129083e+01
2.049894022787e+01
1.979477169152e+01
-6.496973473976e+01
1.773882191905e+01
1.778663418363e+01
-5.760053497454e+01
2.050501898781e+01
2.052488261533e+01
2.049126323969e+01
-6.132019577867e+01
-6.097360179836e+01
2.049745002755e+01
2.049585642136e+01
1.946100421147e+01
1.774069828707e+01
1.967301462934e+01
1.879236414943e+01
1.771847690257e+01
-6.270508768626e+01
-6.025074063218e+01
-6.178273565797e+01
-6.136083228042e+01
1.783678424098e+01
1.715918379857e+01
-5.759042206290e+01
1.907963286663e+01
-5.773959263215e+01
2.049762763704e+01
2.049533612797e+01
2.049554677900e+01
5.787630045271e+00
1.412335584573e+01
2.049062182387e+01
1.991444237803e+01
2.050705854964e+01
2.013744860505e+01
2.033058624313e+01
1.679196882070e+01
2.051910139870e+01
2.052168623065e+01
2.001577680203e+01
2.023116147204e+01
1.940680794221e+01
-5.757862226504e+01
1.698601152328e+01
-2.133929573495e+01
2.008658151346e+01
1.729986823926e+01
1.981167110941e+01
1.098700945006e+01
-5.611231891110e+00
2.003692168107e+01
1.757290685377e+01
1.600477019848e+01
1.981711897772e+01
2.010199818846e+01
1.593960457257e+01
1.959156498961e+01
1.903789114453e+01
1.940177275192e+01
1.953100308434e+01
1.618377632873e+01
1.724960626139e+01
1.782801562748e+01
1.913681713215e+01
1.992020593422e+01
1.965982137522e+01
1.144485153789e+01
2.008472208359e+01
1.988477105308e+01
1.843039523361e+01
1.931543978098e+01
1.927390922603e+01
2.013473036705e+01
1.999995758712e+01
1.889232336744e+01
2.012324713709e+01
1.983140534675e+01
1.965156592398e+01
2.018109334068e+01
2.010386392677e+01
1.949296227548e+01
1.943730416000e+01
1.132240708725e+01
1.040624863585e+01
-1.577811484422e+00
-2.105183398149e+01
1.999936644089e+01
2.000803512802e+01
-2.160699475738e+01
2.002849334185e+01
1.860026193106e+01
1.971202166247e+01
1.978585004821e+01
1.507098722277e+01
1.979034143889e+01
1.841443262221e+01
1.945267182086e+01
2.025990806214e+01
1.088996822706e+01
2.021244767514e+01
1.963917529138e+01
1.229966506320e+01
1.276061572790e+01
1.826542466547e+01
1.917313303227e+01
1.564207457393e+01
1.977693349907e+01
1.934992558090e+01
1.811365911264e+01
1.954359369472e+01
1.968149578061e+01
1.965069116816e+01
8.899739946843e+00
1.782047990368e+01
1.995867053072e+01
1.975390632986e+01
1.720010601757e+01
1.904503158004e+01
2.012040528410e+01
1.948074603099e+01
-2.728591853962e+00
-2.282893459399e+00
1.084722763318e+01
1.991796853528e+01
1.933812784531e+01
1.869123172917e+01
1.880328552806e+01
1.996503181097e+01
1.832208010806e+01
1.967444032076e+01
1.137213679032e+01
2.018805999613e+01
1.812502899863e+01
1.237406288663e+01
1.783768862205e+01
1.606827454361e+01
1.384989102342e+01
1.868812566055e+01
-5.666325779908e+01
-5.620705172842e+01
1.928139967936e+01
1.026113070976e+01
1.932175059637e+01
1.918808372927e+01
1.667016559364e+01
1.299023181151e+01
1.995937110955e+01
-6.109853774324e-01
1.647308221637e+01
2.007495380156e+01
8.126898443541e+00
1.902150799007e+01
1.861732070724e+01
7.705017684255e+00
2.003227492359e+01
1.958872686236e+01
1.019547798990e+01
2.005130613466e+01
2.005379860399e+01
1.168247974251e+01
1.464146622480e+01
1.199994235159e+01
1.956407183718e+01
1.851767257666e+01
2.006173574848e+01
1.995925941042e+01
1.944724184678e+01
1.944177238986e+01
9.237442891406e+00
1.956009685030e+01
1.958538906991e+01
1.852208279770e+01
1.934083388057e+01
1.972750588719e+01
1.791677178203e+01
1.986039777068e+01
1.755266973366e+01
1.833849478822e+01
1.552463680951e+01
1.594500910688e+01
1.946639497255e+01
1.809927443814e+01
1.287405078824e+01
2.366352220149e+00
1.946496611418e+01
1.283567993494e+01
2.018663519402e+01
1.960796817922e+01
1.970771650840e+01
2.035709626970e+01
1.722365611375e+01
1.163277636057e+01
4.845376086984e+00
1.948597187184e+01
1.919616834949e+01
-2.715932599671e+00
1.565948408480e+01
9.843464369556e+00
1.916306224986e+01
1.607420672115e+01
1.918169110705e+01
1.557940085126e+01
1.988915840961e+01
1.445065733120e+01
1.952451708353e+01
1.047332961776e+01
1.936230268238e+01
1.808463353060e+01
1.959747931753e+01
1.553223774400e+01
9.753095372957e+00
1.883816745663e+01
1.920445764969e+01
1.732930934791e+01
1.919443109401e+01
1.188906300085e+01
1.927396963005e+01
8.398616560117e+00
2.001059333660e+01
1.937303586070e+01
1.960372077890e+01
2.017947799601e+01
1.855351229897e+01
8.822211386293e+00
1.908974189313e+01
2.011774656117e+01
1.457857748514e+01
1.960257611975e+01
1.961518407513e+01
1.213844512368e+01
1.923048043833e+01
1.876558367795e+01
1.341496970345e+01
1.518927256563e+01
1.836491677669e+01
1.948107133333e+01
1.676539249216e+01
1.811104301648e+01
1.943482490821e+01
1.901667181410e+01
1.893771394854e+01
1.806631098229e+01
1.993768040566e+01
1.893925904728e+01
1.883604832106e+01
2.012879619078e+01
1.973940978175e+01
1.935700161380e+01
1.972527201822e+01
1.632924529801e+01
1.580066940875e+01
9.344415035201e+00
1.927069921959e+01
1.621103643741e+01
1.930118226217e+01
1.912697491968e+01
1.814131044258e+01
1.463064241968e+01
1.519013899997e+01
1.516544571854e+01
1.577926041661e+01
1.055358145650e+01
1.983921241252e+01
1.718591940103e+01
1.986083934517e+01
1.754700013403e+01
1.908225929647e+01
1.829626134917e+01
1.804882044110e+01
1.060451634809e+01
2.003794144379e+01
2.017496127184e+01
1.926958899668e+01
1.631095508503e+01
1.872076275821e+01
1.930307242368e+01
1.668676182821e+01
1.697811921733e+01
1.449392961924e+01
1.303077777091e+01
1.679137616963e+01
1.360140464311e+01
1.261370778237e+01
1.830588318363e+01
1.922391854174e+01
1.992555124158e+01
-5.786536302704e+01
1.736393716752e+01
1.727873481378e+01
1.677677728867e+01
1.912303844055e+01
1.779225823814e+01
1.501293975414e+01
1.719960344809e+01
1.976278296071e+01
1.508945121113e+01
1.060171179193e+00
7.110843920116e+00
1.372126488371e+01
1.532822469630e+01
1.762665491978e+01
1.755931365177e+01
9.108536293470e+00
7.295767001833e+00
1.893301983144e+01
1.363443269300e+01
1.969766137991e+01
1.979563192708e+01
1.898152699639e+01
1.991368118615e+01
2.002795018710e+01
1.792675214324e+01
1.954881537095e+01
1.083945081350e+01
1.747448022798e+01
1.743117290462e+01
1.249274153382e+01
7.566612152257e+00
1.619241386010e+01
1.729272183130e+01
1.763803784926e+01
1.427929993974e+01
1.808980048695e+01
1.737904487024e+01
1.770163397358e+01
1.535042810442e+01
1.940946663572e+01
1.944133357633e+01
1.744719670531e+01
1.993178271995e+01
1.218438376512e+01
2.017208763552e+01
1.786575478564e+01
2.014473696721e+01
1.904774911753e+01
1.183413825902e+01
1.912388026274e+01
1.998441698245e+01
1.815338943547e+01
1.601095854489e+01
1.925525337817e+01
1.788682332323e+01
8.997500868818e+00
2.030526894370e+01
6.885228338528e+00
2.013612996419e+01
2.008185060945e+01
1.952967540813e+01
1.897181530666e+01
1.981664201161e+01
1.771231858622e+01
1.858312622207e+01
2.011235607737e+01
1.951933052098e+01
1.956463843445e+01
1.933562165095e+01
1.078000484865e+01
1.967667239349e+01
2.035076754740e+01
2.014837138918e+01
1.746160443436e+01
1.896790559664e+01
1.877334023195e+01
1.787670539329e+01
1.939421925682e+01
1.955131074552e+01
4.954028587381e+00
1.389248180962e+01
1.777538061230e+01
1.746221176428e+01
1.781926231636e+01
2.021665200617e+01
2.003584388457e+01
2.007529528820e+01
1.715392690417e+01
1.975826794117e+01
1.940163467184e+01
2.015275801778e+01
1.953084657237e+01
1.780396718267e+01
1.752807041066e+01
1.967910289741e+01
2.003334736439e+01
1.970161091587e+01
1.956305648003e+01
1.991183753120e+01
2.005086556731e+01
1.980309874888e+01
1.888459268662e+01
1.694966126220e+01
1.967713485228e+01
1.947383675414e+01
1.257451002233e+01
1.778674280606e+01
1.846281003939e+01
1.895966429194e+01
1.269052296166e+01
1.754131641010e+01
1.928436237708e+01
1.780775633664e+01
1.802184982964e+01
1.923537493132e+01
1.809354424170e+01
-7.481395036985e+00
1.872875973104e+01
1.963809965645e+01
2.013560767752e+01
1.833437513639e+01
1.848896907750e+01
1.928275971537e+01
2.926235521607e+00
1.952472104513e+01
1.875344144927e+01
1.809202871918e+01
1.955790993596e+01
1.250294667151e+01
1.970304649879e+01
2.005520867492e+01
1.940643422113e+01
1.970803730828e+01
1.977026711745e+01
2.005669249229e+01
8.277221135928e+00
1.940607062052e+01
2.007226750892e+01
1.981525643135e+01
1.909992896455e+01
1.785648008319e+01
1.837733237862e+01
4.693317248050e+00
1.993670699569e+01
1.338418830870e+01
1.129398585661e+01
1.966287086124e+01
2.016669447449e+01
1.122399803953e+01
1.859609495483e+01
1.952864206149e+01
1.824614219943e+01
1.273247519147e+01
1.544375412471e+01
7.447717174988e+00
1.117877694847e+01
9.624663124604e+00
1.874626227355e+01
2.049025015364e+01
1.334663084636e+01
2.000518655853e+01
1.696977734614e+01
1.937684550868e+01
9.096122299169e+00
2.018096213230e+01
9.641952677815e+00
1.488463694421e+01
1.956495096916e+01
1.794385695953e+01
1.996202937417e+01
1.619967587173e+01
1.962951402637e+01
2.012886606173e+01
1.940967163510e+01
2.016029845828e+01
1.978552021863e+01
1.989089587990e+01
1.115785771049e+01
1.987719598822e+01
1.964614237068e+01
1.819280644727e+01
1.488047971423e+01
2.023295111543e+01
1.295516893637e+01
1.428938612469e+01
1.983675636330e+01
8.320548366009e+00
1.830823434644e+01
1.967528960936e+01
2.009730944101e+01
2.019798547077e+01
1.956925440905e+01
1.991693871182e+01
1.734852377738e+01
1.969528174682e+01
1.599301115565e+01
2.010409859066e+01
1.686429506496e+01
1.710723069982e+01
1.813306268568e+01
1.753352310462e+01
1.887808721341e+01
1.776257654670e+01
1.807791123165e+01
1.146759603674e+01
1.784591515487e+01
2.003461382705e+01
2.013073954603e+01
1.963530830190e+01
2.004940933138e+01
1.793438664503e+01
1.988499485339e+01
1.806845817261e+01
1.996725244715e+01
1.978332881329e+01
1.976479464652e+01
1.923615256644e+01
1.760833780893e+01
1.992417853700e+01
1.904439824253e+01
1.155088094310e+01
1.298497386505e+01
1.652622987166e+01
1.858990918445e+01
2.006085645780e+01
1.965239696349e+01
1.761793351447e+01
1.914074234652e+01
1.977898019337e+01
1.994115645708e+01
2.006363846865e+01
1.920768190354e+01
1.986923979493e+01
1.834223334727e+01
1.978567992173e+01
1.830077770599e+01
2.012474231333e+01
2.014964258979e+01
1.890471908527e+01
1.180372204253e+01
1.987345357113e+01
1.871553004220e+01
1.736019261693e+01
1.910520223216e+01
1.973508355101e+01
1.184292076094e+01
1.852023725009e+01
1.925340442627e+01
2.006470549496e+01
1.937625911423e+01
1.976757613431e+01
1.912255324075e+01
1.886459337398e+01
1.918167457308e+01
1.993344178463e+01
1.978115835243e+01
1.950194155119e+01
2.018358658945e+01
1.898472214159e+01
1.620232469614e+01
1.999255324155e+01
2.014196063150e+01
1.824330979205e+01
1.848562128424e+01
1.698373100922e+01
1.962274463718e+01
1.705748173649e+01
1.902252606445e+01
1.706241692308e+01
1.970749689799e+01
2.017990430497e+01
1.727527059543e+01
4.827971642276e+00
2.016313053480e+01
1.741099249256e+01
1.821137285883e+01
2.006871679100e+01
1.951005865538e+01
1.967474134564e+01
1.744013840131e+01
8.449613456598e-01
2.019902950792e+01
1.875411178407e+01
1.947572543446e+01
2.002233376818e+01
-1.000254843560e+01
1.966664190295e+01
1.484279202658e+01
1.921134383049e+01
1.867766491045e+01
1.726008448861e+01
1.997247629635e+01
1.886796253846e+01
1.654613944621e+01
1.895859520196e+01
1.045846411765e+00
1.955248484349e+01
1.971799412469e+01
2.023369296183e+01
1.979910622322e+01
1.452407431018e+01
1.963766555783e+01
2.021406380853e+01
2.033431952250e+01
1.984794581426e+01
1.769223598142e+01
1.927449932006e+01
2.004971741734e+01
1.829096110344e+01
1.965886694656e+01
1.937219018017e+01
1.987711103814e+01
1.981080426833e+01
1.774873658950e+01
1.773664868103e+01
1.941958386265e+01
1.939460138032e+01
1.884458712471e+01
1.935180077457e+01
1.866098470075e+01
2.010625564537e+01
1.768093756383e+01
2.051201476706e+01
1.841580460116e+01
1.849561494088e+01
1.866884473036e+01
1.392307733110e+01
1.803273643345e+01
1.909605598427e+01
1.880367837483e+01
1.934777152216e+01
1.946891387768e+01
1.961921660274e+01
2.918668560185e+00
1.771870841475e+01
1.741855053415e+01
1.921915255709e+01
1.938851366838e+01
2.001698911141e+01
9.974989807749e+00
1.043796152779e+01
1.853796498393e+01
1.773067235270e+01
1.716250356772e+01
1.747970815402e+01
1.935140220172e+01
1.010417374805e+01
1.843494987114e+01
1.964602644559e+01
1.035940033829e+01
2.036894583133e+01
2.000837659092e+01
1.818496351784e+01
1.974050289940e+01
-4.884006284669e+00
1.950110003415e+01
1.876164839920e+01
-5.072412103019e+00
2.000275997115e+01
9.197547689855e+00
1.922414313479e+01
1.880733075608e+01
1.801232608207e+01
1.897521003711e+01
2.010172985481e+01
1.930107674038e+01
1.870758572875e+01
1.854630676061e+01
-1.745403217021e+01
6.919984659900e+00
1.989685950956e+01
1.902006982478e+01
2.000400629684e+01
1.481689921516e+01
1.981488209955e+01
2.002826121626e+01
1.768449934360e+01
1.989497547495e+01
1.974573272700e+01
1.923115942994e+01
1.823613919822e+01
1.849802956142e+01
2.018003134985e+01
1.859616070996e+01
1.895349470210e+01
1.862370493014e+01
1.958715294248e+01
1.825348040529e+01
1.504172919558e+01
1.869320108001e+01
1.565240141512e+01
1.934850219406e+01
1.566884687492e+01
1.918520040657e+01
1.995154188759e+01
1.981176203189e+01
1.797772040329e+01
1.917800199994e+01
1.984308619266e+01
1.984844688822e+01
6.645592062639e+00
1.931098676434e+01
2.015729986228e+01
1.557496261431e+01
1.862592332347e+01
-7.726053078376e+00
1.994023763050e+01
1.450088865907e+01
1.841768386864e+01
1.946636265049e+01
1.918398904258e+01
1.899098076021e+01
1.891037284531e+01
1.638884555073e+01
1.677869414847e+01
1.994678668043e+01
1.916703558139e+01
1.847158979620e+01
1.949359391423e+01
1.827411209144e+01
1.521244031529e+01
1.631839030079e+01
1.868066883394e+01
1.775578583599e+01
1.982272508402e+01
1.798810689870e+01
2.022886173289e+01
1.989349271847e+01
1.852866920851e+01
2.027221701823e+01
1.608860028930e+01
2.016501703433e+01
1.891753413320e+01
1.936046898075e+01
1.998697637781e+01
1.645952109813e+01
1.914066586023e+01
1.828200046846e+01
1.900335756657e+01
1.545739726134e+01
1.948841524055e+01
1.800035413576e+01
1.883609112881e+01
1.899999767882e+01
-1.059362475591e+01
1.899373506870e+01
1.955030453834e+00
4.346882101565e+00
1.861535693569e+01
1.983029587789e+01
1.913795665526e+01
1.541749140199e+01
2.050343715764e+01
-3.452638531338e+01
1.591790103442e+01
1.863956307488e+01
1.838758607878e+01
1.733038362627e+01
1.634108245358e+01
1.881813746334e+01
1.910266118047e+01
1.931452967381e+01
1.998979310290e+01
8.195968267481e+00
1.817573526484e+01
1.856660517919e+01
1.405644986422e+01
1.797718966817e+01
1.915155946909e+01
1.952546892396e+01
-5.040465208217e+00
-1.938485757324e+01
9.849752418555e+00
1.857762725395e+01
1.689194732587e+01
1.597713159445e+01
1.506167110987e+01
1.878666969635e+01
1.940508102281e+01
1.874370676319e+01
1.687804590163e+01
1.931321693156e+01
1.849402586149e+01
1.972964866320e+01
1.875309860977e+01
1.879782578786e+01
1.410232128421e+01
1.719266045112e+01
1.890236159996e+01
1.927910520802e+01
1.898301646997e+01
1.481834839299e+01
1.894721551141e+01
1.584823731094e+01
7.340397538408e+00
2.015627428102e+01
8.432179851975e+00
1.622681479201e+01
1.883935379011e+01
1.531508369453e+01
1.891464266469e+01
1.339368924485e+01
1.816615681177e+01
1.896052491219e+01
1.822310221077e+01
1.844443845921e+01
-8.394831036839e+00
2.007585881862e+01
1.710321574790e+01
2.002518585267e+01
1.937135148294e+01
1.909584526294e+01
1.910718208809e+01
1.644607111152e+01
1.159912317943e+00
-8.653618878559e+00
1.923334270547e+01
2.001343052500e+01
1.571189942382e+01
1.943022812281e+01
1.489959472095e+01
1.947411695684e+01
2.037432933589e+01
-6.285720267059e+01
2.050169219497e+01
2.050226625788e+01
1.831275556423e+01
1.701057118703e+01
1.923845304299e+01
1.656157805069e+01
1.402254822029e+00
-1.756533597134e+01
2.021082429926e+01
1.929269966522e+01
1.789309851676e+01
2.049417790851e+01
1.144391700598e+01
2.052629386695e+01
1.927842321551e+01
1.690876747417e+01
1.905593851595e+01
1.657222534978e+01
9.282825863100e+00
1.608737860892e+01
1.952364593976e+01
2.001245971096e+01
1.667948003579e+01
1.958172118217e+01
-6.054697641571e+01
1.678169468731e+01
1.971457730215e+01
1.592452296303e+01
1.509164116174e+01
1.906346851499e+01
8.063146894253e+00
1.235575612345e+01
1.324456282658e+01
1.485105436003e+01
1.865257218593e+01
1.843863386731e+01
1.958333976662e+01
2.020242696658e+01
1.400412700448e+01
1.954991035852e+01
2.022281475411e+01
1.606959068190e+01
1.999001694035e+00
1.556389503616e+01
1.841558291307e+01
1.961743777035e+01
1.841068430378e+01
4.274009057081e+00
1.901715091154e+01
1.092352378217e+01
1.844755896640e+01
1.881110661886e+01
1.919998660279e+01
1.916895126196e+01
1.487175224949e+01
4.605052052653e+00
1.915933814114e+01
1.209552122166e+01
-1.981786025314e+01
2.020035446597e+01
2.001284057963e+01
-2.256885043560e+01
1.933619781455e+01
1.234351693861e+01
1.308533543937e+01
1.982283529311e+01
1.920216597515e+01
1.969064825068e+01
1.679906540089e+01
1.773564195873e+01
2.037525797765e+01
1.092099346594e+01
1.991117031234e+01
1.867129144180e+01
7.449112309101e+00
1.949547101498e+01
1.717532102259e+01
-5.109920992322e+00
1.595996326656e+01
1.940241951577e+01
1.954130004407e+01
6.917444845172e+00
1.841045218105e+01
1.972440906088e+01
1.986055689700e+01
1.551535656690e+01
1.339795982315e+01
1.883160294321e+01
1.908433791040e+01
-5.518343945421e+00
2.037354287272e+01
2.038291368947e+01
1.855668211188e+01
2.031012484112e+01
2.036308668496e+01
1.708797030171e+01
1.669914385863e+01
2.039157964908e+01
-5.843504494510e+01
1.242755654745e+01
1.858681160191e+01
1.553998788011e+01
1.583699868171e+01
9.570825728041e+00
1.121156629369e+01
1.855879828337e+01
1.646460217347e+01
1.406864725814e+01
1.975048014405e+01
2.049795310377e+01
2.053068575622e+01
1.699506860524e+01
1.817912728238e+01
-2.754465457706e+01
5.707035876579e+00
7.210408966002e+00
7.995566238237e+00
1.902832477006e+01
1.569944872875e+01
1.636062609946e+01
-4.649195700056e+00
2.007570230235e+01
1.624410661206e+01
2.017660447144e+01
1.986766875201e+01
2.050946139571e+01
2.050336414471e+01
1.860654394342e+01
1.658837710753e+01
1.217920034222e+01
1.689305306878e+01
2.050638711700e+01
-1.620140188632e+00
2.618081641781e+00
2.004345407394e+01
1.819996605624e+01
2.019971317109e+01
1.972577558843e+01
2.006693667958e+01
1.989341437554e+01
1.863911255488e+01
1.435513668199e+01
1.433132411859e+01
1.939015146806e+01
1.997058505338e+01
1.774798582305e+01
1.818389032960e+01
1.854420929149e+01
1.871524232576e+01
4.293796865754e+00
1.343352608701e+01
2.038867224952e+01
1.902855106545e+01
2.040666027584e+01
2.021869972147e+01
1.950843994532e+01
2.021674351648e+01
1.675962455702e+01
1.622237779140e+01
2.023703210074e+01
-2.291040519471e+01
1.297528101704e+01
2.050217343510e+01
2.402400662437e+00
1.817927613113e+01
2.025757072257e+01
-7.344526549889e+00
-2.345834095428e+01
2.049845649773e+01
1.772745763653e+01
2.032478685205e+01
2.024809170993e+01
1.772124049292e+01
-2.399319125868e+01
2.036264156780e+01
4.344679426472e+00
2.025161700430e+01
2.050479367514e+01
2.024600184715e+01
8.588399912613e+00
1.857859418803e+01
1.699580199503e+01
1.974080152337e+01
2.050437407451e+01
1.970849180523e+01
2.052339154858e+01
-5.902408646612e+00
2.037539329065e+01
1.031093797696e+01
2.372427781270e+00
2.038644997988e+01
2.036823032716e+01
2.039536913540e+01
1.815406987805e+01
1.863896621179e+01
9.266889080489e+00
2.036698703202e+01
1.551364945246e+01
6.922223125680e-01
1.985702292024e+01
1.770886532631e+01
2.024885162356e+01
2.048126738802e+01
2.050623768278e+01
-6.563043453634e+01
-5.346452539786e+01
1.778471596991e+01
1.779841448647e+01
2.050534142253e+01
2.047893203261e+01
-2.497229024675e+01
-6.045603459111e+01
2.023852817307e+01
2.018519781849e+01
7.026415303700e+00
2.026715179511e+01
1.884926313503e+01
1.815904091880e+01
1.924033820021e+01
6.050840802561e+00
1.948901649888e+01
2.941157065666e+00
1.751719290076e+01
2.024289338905e+01
2.012820125320e+01
1.804017291083e+01
1.885605566176e+01
2.025471944974e+01
1.997436755337e+01
1.975887264539e+01
1.773648815196e+01
1.934308485952e+01
2.023606283892e+01
1.301175790599e+01
-2.181009330748e+01
2.012579520708e+01
1.990728355659e+01
2.440929811987e+00
1.942912166144e+01
2.037696382266e+01
2.009610951881e+01
2.024677668714e+01
1.921186624001e+01
-2.275397138650e+01
9.475274624076e+00
1.211134297428e+01
1.856065020916e+01
1.933302311066e+01
2.026534839049e+01
2.035576783750e+01
-5.411136148841e+00
-6.407163565758e+00
5.717066630591e+00
1.949134584763e+01
1.499364262904e+01
2.026835837131e+01
6.318330095900e+00
2.020415060383e+01
1.853925701492e+01
2.035891583796e+01
1.987259083293e+01
1.856593858744e+01
2.036932043832e+01
2.039077468533e+01
2.036144090029e+01
-1.558039418261e+00
2.019556357787e+01
2.036433624324e+01
2.020854074101e+01
1.995866904249e+01
2.050203866515e+01
1.975109941567e+01
-5.623613403175e+01
4.658276709165e+00
2.012025188167e+01
1.886483953190e+01
2.020468193338e+01
2.007930382949e+01
2.037323168364e+01
1.975786671096e+01
2.038387763719e+01
2.025885735171e+01
2.024641868226e+01
1.529552888436e+01
2.049034395947e+01
1.815644165934e+01
2.019579933025e+01
-5.705769464264e+00
2.004214337374e+01
1.943828078067e+01
-5.316685558506e+00
7.173996215887e+00
1.985662351241e+01
2.037665041696e+01
2.024633037720e+01
2.033299322059e+01
1.883477771835e+01
-2.251258385913e+01
-7.668953809465e+00
-1.768232705294e+01
1.175393088299e+00
-5.614951067607e+01
1.736064640269e+01
2.020198443222e+01
2.021776301973e+01
1.884821396348e+01
1.650838900189e+01
2.022155311329e+01
2.018321806049e+01
2.038584850984e+01
2.024441547165e+01
2.006285915524e+01
-6.128626556588e+00
-9.214132699827e+00
2.024292711021e+01
-5.634333758422e+00
-1.068670750940e+00
-1.104700636184e+01
-7.395368176787e+00
2.039100338222e+01
2.038547928431e+01
2.029278602355e+01
2.040616006568e+01
2.011162565356e+01
1.902846711424e+01
2.050921109006e+01
1.024812535370e+01
1.768660745896e+01
1.800057558451e+00
-2.306549716542e+01
2.048913778260e+01
1.822259913149e+01
2.117359003729e+00
1.719944711020e+01
2.037842228484e+01
2.025510873416e+01
2.039083523285e+01
1.444467499956e+01
-8.238920247949e+00
2.039648259614e+01
2.049184686716e+01
2.051819748646e+01
1.810909127812e+01
2.022688645775e+01
2.586566240087e+00
2.029756837901e+01
-2.451714468425e+01
2.040401560311e+01
2.038476653650e+01
-2.369035456862e+01
2.012454687549e+01
1.962973101005e+01
2.037481291241e+01
2.051387549570e+01
1.926502076217e+01
2.038320129306e+01
2.027433526489e+01
1.943813925088e+01
2.026254149547e+01
1.597131183425e+01
1.775885416117e+01
2.028247127067e+01
2.038272780135e+01
-5.913835410573e+01
1.775669795096e+01
2.038891762384e+01
6.837110149078e+00
2.027426224844e+01
2.022604198104e+01
2.037761121261e+01
6.148470566941e+00
-3.146979780843e-01
1.840948335357e+01
1.994389865211e+01
8.999999999514e+01
2.039235623147e+01
1.916678725680e+01
5.975934989422e+00
1.896649699941e+01
2.038735747378e+01
1.857369752915e+01
-3.418727520069e+01
1.531410508630e+01
1.782406426252e+01
1.872017474470e+01
2.026538721695e+01
1.774147928041e+01
1.800961416617e+01
-8.776351468338e+00
2.030200005533e+01
2.015171893069e+01
3.961581063185e+00
2.036696012520e+01
2.039312252493e+01
1.814931062608e+01
1.917601174366e+01
1.766675127705e+01
1.782841271143e+01
1.812155670828e+01
2.011853401529e+01
2.043484060971e+00
2.024710626132e+01
1.853462368289e+01
2.037995424681e+01
2.012836428293e+01
1.892865607897e+01
2.016453587421e+01
2.026928669140e+01
2.041230548713e+01
-2.644278652788e+01
2.017498170204e+01
2.025595920704e+01
-7.970091595710e+00
1.735898089663e+01
-2.476226808203e+01
2.027518926649e+01
-5.022036482805e+01
-5.612463541025e+01
-5.408822524262e+01
-5.674570964556e+01
-5.410977373550e+01
-5.675339664183e+01
-5.412861062790e+01
-5.673319303255e+01
-5.414726759969e+01
-5.671821631386e+01
-5.416156521442e+01
-5.670927713852e+01
-5.417155570341e+01
-5.670492337607e+01
-5.417831595527e+01
-5.670378447083e+01
-5.418273554048e+01
-5.670473123296e+01
-5.418596291549e+01
-5.670669728639e+01
-5.418846656245e+01
-5.670842712275e+01
-5.419047885007e+01
-5.137701905997e+01
-5.670896992477e+01
-5.419206455146e+01
-5.670767240969e+01
8.999999999514e+01
-5.419315989053e+01
-5.670497772948e+01
-5.271757695205e+01
-5.419368034690e+01
-5.669947933791e+01
-5.419360266800e+01
-5.669443594707e+01
-5.419265614089e+01
-5.668335904920e+01
-5.419078963465e+01
-5.668222704926e+01
-5.418846490750e+01
-4.830669862806e+01
-5.665501912380e+01
-5.418670620886e+01
-5.668545270258e+01
-5.418395898204e+01
-5.661872179182e+01
-5.679816938357e+01
-5.418389632102e+01
-5.652336243288e+01
-5.417572641176e+01
-5.705553858595e+01
-5.418406000508e+01
-5.607137621577e+01
-5.416706892601e+01
-5.791878918871e+01
-5.519393939350e+01
-5.419393542936e+01
-5.399386700074e+01
8.999999999514e+01
-5.505024902137e+01
-4.897184755460e+01
8.999999999514e+01
-3.954359279143e+01
8.999999999514e+01
-1.825810995897e+01
-1.640307072715e+01
-1.597715865829e+01
-1.621795238502e+01
-1.587854551178e+01
-1.623048988255e+01
-1.588462443216e+01
-1.624191562373e+01
-1.589040288321e+01
-1.624776428174e+01
-1.589512140967e+01
-1.625086382634e+01
-1.590013863236e+01
-1.625239519131e+01
-1.590583386141e+01
-1.625281328907e+01
-1.591208451458e+01
-1.625344567497e+01
-1.591846979779e+01
-1.625408500158e+01
-1.592428135104e+01
-1.625436625619e+01
-1.396749370498e+01
-1.592840627591e+01
-1.625410714037e+01
-1.592969924346e+01
-1.544087140370e+01
-1.625318160343e+01
-1.592753954822e+01
-1.625194020034e+01
-1.592205733922e+01
-1.624971321257e+01
-2.283750502519e+01
-1.591312351571e+01
-1.624816606951e+01
-1.590231229339e+01
-1.624413642883e+01
-1.588819618406e+01
-1.624427330520e+01
-1.587832618504e+01
-1.623466312845e+01
-1.585508400300e+01
-1.624449471240e+01
-1.586444524374e+01
-1.622102955047e+01
-1.329986606590e+01
-1.627255570155e+01
-1.581903517415e+01
-1.617467228121e+01
-1.593961896744e+01
-1.631847866599e+01
-1.573098431582e+01
-1.594785884896e+01
-1.614222991123e+01
-1.543383408289e+01
-2.412779849428e+01
-1.495935894456e+01
-1.788402877222e+01
-1.135428759684e+01
-2.351035012166e+01
-2.418995996805e+01
-3.026671841129e-01
-1.099437626538e+00
-1.130075125797e+00
-1.153630835121e+00
-1.163479364494e+00
-1.144043343559e+00
-1.156603105108e+00
-1.136717607450e+00
-1.149132799229e+00
-1.133234492363e+00
-1.143724893353e+00
-1.132723750547e+00
-1.140864147210e+00
-1.134395295848e+00
-1.140276805048e+00
-1.137573070409e+00
-1.141362857393e+00
-1.141682604749e+00
-1.143535847024e+00
-1.146149079665e+00
-4.748389128819e-02
-1.146187540168e+00
-1.150193301401e+00
-1.148528339408e+00
-4.044922410504e+00
-1.152390128855e+00
-1.149218912855e+00
-1.084509412493e+00
-1.152215850053e+00
-1.147700123033e+00
-1.148639526078e+00
-1.143660872494e+00
-1.144170710833e+00
-1.138923408386e+00
-1.134143839911e+00
-1.131221743685e+00
-1.129957667797e+00
-8.153328458357e-02
-1.127067141401e+00
-1.110343107025e+00
-1.114552198584e+00
-1.121795234801e+00
-1.063030075043e+00
-1.119207146402e+00
-1.142131151068e+00
-1.079198697896e+00
-9.704083994153e-01
-1.132531233356e+00
-1.323796403287e+00
-7.903804704881e-01
-1.025540563610e+00
-1.208387022062e+00
-4.547904828307e+00
-1.428333327632e+00
1.236313921563e-01
-3.602970120346e+00
1.354694955481e+00
-4.566465615264e+00
5.401022474223e+00
5.850878883166e+00
5.860265295159e+00
5.882819027852e+00
5.892603107061e+00
5.888876554340e+00
5.900538397043e+00
5.895263049284e+00
5.906727011176e+00
5.901904330376e+00
5.911505555167e+00
5.907345064325e+00
5.914306081886e+00
5.910744545009e+00
5.915156437714e+00
5.912337341299e+00
5.914522439049e+00
5.912507748832e+00
5.912846184104e+00
6.580742560815e+00
5.911734301513e+00
5.910611065586e+00
5.910217181776e+00
5.880367780358e+00
5.908362581691e+00
5.908310692807e+00
5.907499443283e+00
5.908699733798e+00
5.908684805379e+00
4.314197135877e+00
5.910377017457e+00
5.912593993379e+00
5.916521797174e+00
5.916318690105e+00
5.916742551688e+00
5.924508029720e+00
5.928808868536e+00
5.924883701181e+00
5.915917513068e+00
5.942856145449e+00
5.947063221063e+00
6.371598956081e+00
5.896584027599e+00
5.918793148256e+00
6.008993439715e+00
5.996250083995e+00
5.852186624129e+00
5.857388714714e+00
6.110061588573e+00
4.025093684414e+00
6.468062756206e+00
5.362772542323e+00
7.001609692433e+00
4.302568281741e+00
4.075638510288e+00
1.013744435783e+01
9.855646911297e+00
9.852866342669e+00
9.834623326459e+00
9.835603213993e+00
9.837004150209e+00
9.837026552865e+00
9.842241557246e+00
9.841750163243e+00
9.847875859402e+00
9.847173771239e+00
9.852500267358e+00
9.851653492517e+00
9.855231714241e+00
9.853900713059e+00
9.856464951686e+00
9.855101447785e+00
9.856501977549e+00
1.033902062467e+01
9.855688519516e+00
9.855765319901e+00
9.855811745968e+00
8.906623416643e+00
9.854227613340e+00
9.812334117812e+00
9.854459633747e+00
9.851729092021e+00
9.851290625445e+00
9.852221786168e+00
9.853006211786e+00
9.853010817190e+00
9.855665834472e+00
9.860979020229e+00
1.009908615270e+01
9.865808234551e+00
9.856743622267e+00
9.856998940861e+00
9.876308236875e+00
9.847167534131e+00
9.878996977547e+00
9.907540843989e+00
9.835131676212e+00
9.790149190551e+00
1.000613540202e+01
9.913903448363e+00
9.784714659257e+00
8.689551024161e+00
9.705020286112e+00
1.047827176323e+01
9.110279166889e+00
1.069359479596e+01
8.749163654281e+00
1.220758576958e+01
1.238615695873e+01
1.238477813766e+01
1.239225211463e+01
1.239187585283e+01
1.239128398690e+01
1.239393516487e+01
1.239324891422e+01
1.239794067540e+01
1.239696180986e+01
1.240253429269e+01
1.240211731627e+01
1.240644214887e+01
1.240495830283e+01
1.240808229500e+01
1.240566462106e+01
1.240883335281e+01
1.273280577784e+01
1.240684417155e+01
1.240920284271e+01
1.234160300868e+01
1.240948678847e+01
1.240948025312e+01
1.241090589831e+01
1.240831093823e+01
1.240842240704e+01
1.174880610166e+01
1.240436555761e+01
1.240148943418e+01
1.240596769940e+01
1.241163505254e+01
1.240792459963e+01
1.240889313316e+01
1.242074345499e+01
1.244059234903e+01
1.240661929937e+01
1.239245592378e+01
1.252031967587e+01
1.246827260769e+01
1.244022162148e+01
1.234861277907e+01
1.236890192593e+01
1.249297826716e+01
1.157487535468e+01
1.276528177043e+01
1.214159297769e+01
1.286294796864e+01
1.177663334089e+01
1.165289797378e+01
1.428299202012e+01
1.414906760679e+01
1.414297857097e+01
1.413300962652e+01
1.412886383645e+01
1.413131228444e+01
1.412990623300e+01
1.413307434165e+01
1.413141849740e+01
1.413638910208e+01
1.413552173835e+01
1.414137939633e+01
1.414158465863e+01
1.414369336607e+01
1.414322247109e+01
1.414366422211e+01
1.448750546146e+01
1.414007579285e+01
1.414473349053e+01
1.367660930388e+01
1.414561135861e+01
1.414754190006e+01
1.408670038976e+01
1.415142346187e+01
1.414908235372e+01
1.415180379496e+01
1.414662202934e+01
1.414894174146e+01
1.413695883143e+01
1.423833127487e+01
1.413407339284e+01
1.415073478845e+01
1.416318871423e+01
1.414183799140e+01
1.418805175147e+01
1.414453966772e+01
1.411008090170e+01
1.421903311429e+01
1.422702613226e+01
1.408684087045e+01
1.355238542761e+01
1.404154947762e+01
1.453780803213e+01
1.379842567661e+01
1.455342438046e+01
1.358446141536e+01
1.533316153387e+01
1.543043690863e+01
1.542370725833e+01
1.542052277164e+01
1.542096695122e+01
1.542395883853e+01
1.542334755499e+01
1.542117867429e+01
1.542432059692e+01
1.542246070872e+01
1.542810263056e+01
1.542376835038e+01
1.543399318354e+01
1.543630621364e+01
1.543590456689e+01
1.573218533118e+01
1.542290147243e+01
1.538504236657e+01
1.543103467003e+01
1.542910862593e+01
1.543682754326e+01
1.544400122803e+01
1.544321971048e+01
1.544427723060e+01
1.507085427239e+01
1.544334863682e+01
1.544516316454e+01
1.544114715658e+01
1.545053086804e+01
1.542184641268e+01
1.541905347778e+01
1.545697559144e+01
1.550974633012e+01
1.539580294137e+01
1.542756094048e+01
1.549230747216e+01
1.552225915609e+01
1.496907112408e+01
1.569811857404e+01
1.527165639798e+01
1.568680822151e+01
1.510471337634e+01
1.500028625638e+01
1.652960469550e+01
1.641043928252e+01
1.639262913518e+01
1.638794316769e+01
1.638625315241e+01
1.639327622178e+01
1.639520987715e+01
1.638842018933e+01
1.638495295050e+01
1.639105523177e+01
1.639070057992e+01
1.639106348376e+01
1.638851125732e+01
1.667284028741e+01
1.640622513479e+01
1.640271455299e+01
1.612965575624e+01
1.638907763003e+01
1.638851772221e+01
1.635952369923e+01
1.639609057957e+01
1.640526625092e+01
1.641223463203e+01
1.641565967401e+01
1.641089044102e+01
1.644080127040e+01
1.640409702794e+01
1.641159488719e+01
1.642132723898e+01
1.641667244214e+01
1.637063283426e+01
1.646257467406e+01
1.649003510457e+01
1.636250624382e+01
1.603826915140e+01
1.631306446758e+01
1.670842646457e+01
1.620871221335e+01
1.663339614564e+01
1.606772653884e+01
1.717039049821e+01
1.714806033711e+01
1.715808562409e+01
1.717811698076e+01
1.716189946236e+01
1.718107101987e+01
1.717495856915e+01
1.715766787930e+01
1.715885575073e+01
1.716511900854e+01
1.716907898229e+01
1.716722381714e+01
1.742454125801e+01
1.716395559218e+01
1.717703436623e+01
1.714753579824e+01
1.717963051198e+01
1.719299638022e+01
1.716260519315e+01
1.719563515099e+01
1.718234277050e+01
1.717044312643e+01
1.695444000551e+01
1.719251057635e+01
1.716831714296e+01
1.717746913133e+01
1.716130585491e+01
1.716228720394e+01
1.718834952968e+01
1.724210616262e+01
1.719945299790e+01
1.687254239644e+01
1.733743010251e+01
1.710115045078e+01
1.740612638526e+01
1.696271521946e+01
1.690777552442e+01


