# vtk DataFile Version 2.0
Calculation  at time 2.000000000000e+00 
ASCII
DATASET UNSTRUCTURED_GRID
Field FieldData 1
Time 1 1 double
2.000000000000e+00

POINTS 1251 float
0.0 0.0 0.0 
5.000000000000e+01 -1.000000000000e+01 0.0 
0.0 -2.000000000000e+01 0.0 
5.000000000000e+01 -2.000000000000e+01 0.0 
0.0 -9.999999999991e-01 0.0 
0.0 -1.999999999998e+00 0.0 
0.0 -2.999999999997e+00 0.0 
0.0 -3.999999999994e+00 0.0 
0.0 -4.999999999991e+00 0.0 
0.0 -5.999999999988e+00 0.0 
0.0 -6.999999999985e+00 0.0 
0.0 -7.999999999982e+00 0.0 
0.0 -8.999999999983e+00 0.0 
0.0 -9.999999999985e+00 0.0 
0.0 -1.099999999999e+01 0.0 
0.0 -1.199999999999e+01 0.0 
0.0 -1.299999999999e+01 0.0 
0.0 -1.399999999999e+01 0.0 
0.0 -1.499999999999e+01 0.0 
0.0 -1.599999999999e+01 0.0 
0.0 -1.700000000000e+01 0.0 
0.0 -1.800000000000e+01 0.0 
0.0 -1.900000000000e+01 0.0 
4.900000000001e+01 -2.000000000000e+01 0.0 
4.800000000001e+01 -2.000000000000e+01 0.0 
4.700000000002e+01 -2.000000000000e+01 0.0 
4.600000000003e+01 -2.000000000000e+01 0.0 
4.500000000004e+01 -2.000000000000e+01 0.0 
4.400000000004e+01 -2.000000000000e+01 0.0 
4.300000000005e+01 -2.000000000000e+01 0.0 
4.200000000006e+01 -2.000000000000e+01 0.0 
4.100000000006e+01 -2.000000000000e+01 0.0 
4.000000000007e+01 -2.000000000000e+01 0.0 
3.900000000008e+01 -2.000000000000e+01 0.0 
3.800000000009e+01 -2.000000000000e+01 0.0 
3.700000000009e+01 -2.000000000000e+01 0.0 
3.600000000010e+01 -2.000000000000e+01 0.0 
3.500000000011e+01 -2.000000000000e+01 0.0 
3.400000000011e+01 -2.000000000000e+01 0.0 
3.300000000012e+01 -2.000000000000e+01 0.0 
3.200000000013e+01 -2.000000000000e+01 0.0 
3.100000000013e+01 -2.000000000000e+01 0.0 
3.000000000013e+01 -2.000000000000e+01 0.0 
2.900000000013e+01 -2.000000000000e+01 0.0 
2.800000000013e+01 -2.000000000000e+01 0.0 
2.700000000013e+01 -2.000000000000e+01 0.0 
2.600000000013e+01 -2.000000000000e+01 0.0 
2.500000000013e+01 -2.000000000000e+01 0.0 
2.400000000013e+01 -2.000000000000e+01 0.0 
2.300000000013e+01 -2.000000000000e+01 0.0 
2.200000000013e+01 -2.000000000000e+01 0.0 
2.100000000013e+01 -2.000000000000e+01 0.0 
2.000000000013e+01 -2.000000000000e+01 0.0 
1.900000000013e+01 -2.000000000000e+01 0.0 
1.800000000013e+01 -2.000000000000e+01 0.0 
1.700000000012e+01 -2.000000000000e+01 0.0 
1.600000000011e+01 -2.000000000000e+01 0.0 
1.500000000011e+01 -2.000000000000e+01 0.0 
1.400000000010e+01 -2.000000000000e+01 0.0 
1.300000000009e+01 -2.000000000000e+01 0.0 
1.200000000009e+01 -2.000000000000e+01 0.0 
1.100000000008e+01 -2.000000000000e+01 0.0 
1.000000000007e+01 -2.000000000000e+01 0.0 
9.000000000064e+00 -2.000000000000e+01 0.0 
8.000000000057e+00 -2.000000000000e+01 0.0 
7.000000000050e+00 -2.000000000000e+01 0.0 
6.000000000043e+00 -2.000000000000e+01 0.0 
5.000000000036e+00 -2.000000000000e+01 0.0 
4.000000000028e+00 -2.000000000000e+01 0.0 
3.000000000021e+00 -2.000000000000e+01 0.0 
2.000000000014e+00 -2.000000000000e+01 0.0 
1.000000000007e+00 -2.000000000000e+01 0.0 
5.000000000000e+01 -1.100000000000e+01 0.0 
5.000000000000e+01 -1.200000000000e+01 0.0 
5.000000000000e+01 -1.300000000000e+01 0.0 
5.000000000000e+01 -1.400000000000e+01 0.0 
5.000000000000e+01 -1.500000000000e+01 0.0 
5.000000000000e+01 -1.600000000000e+01 0.0 
5.000000000000e+01 -1.700000000000e+01 0.0 
5.000000000000e+01 -1.800000000000e+01 0.0 
5.000000000000e+01 -1.900000000000e+01 0.0 
2.000000000000e+01 0.0 0.0 
3.500000000000e+01 -1.000000000000e+01 0.0 
2.150000000000e+01 -1.000000000000e+00 0.0 
2.300000000000e+01 -2.000000000000e+00 0.0 
2.450000000000e+01 -3.000000000000e+00 0.0 
2.600000000000e+01 -4.000000000000e+00 0.0 
2.750000000000e+01 -5.000000000000e+00 0.0 
2.900000000000e+01 -6.000000000000e+00 0.0 
3.050000000000e+01 -7.000000000000e+00 0.0 
3.200000000000e+01 -8.000000000000e+00 0.0 
3.350000000000e+01 -9.000000000000e+00 0.0 
5.000000000000e+01 -1.000000000000e+00 0.0 
5.000000000000e+01 -2.000000000000e+00 0.0 
5.000000000000e+01 -3.000000000000e+00 0.0 
5.000000000000e+01 -4.000000000000e+00 0.0 
5.000000000000e+01 -5.000000000000e+00 0.0 
5.000000000000e+01 -6.000000000000e+00 0.0 
5.000000000000e+01 -7.000000000000e+00 0.0 
5.000000000000e+01 -8.000000000000e+00 0.0 
5.000000000000e+01 -9.000000000000e+00 0.0 
4.900000000000e+01 -1.000000000000e+01 0.0 
4.800000000000e+01 -1.000000000000e+01 0.0 
4.700000000000e+01 -1.000000000000e+01 0.0 
4.600000000000e+01 -1.000000000000e+01 0.0 
4.500000000000e+01 -1.000000000000e+01 0.0 
4.400000000000e+01 -1.000000000000e+01 0.0 
4.300000000000e+01 -1.000000000000e+01 0.0 
4.200000000000e+01 -1.000000000000e+01 0.0 
4.100000000000e+01 -1.000000000000e+01 0.0 
4.000000000000e+01 -1.000000000000e+01 0.0 
3.900000000000e+01 -1.000000000000e+01 0.0 
3.800000000000e+01 -1.000000000000e+01 0.0 
3.700000000000e+01 -1.000000000000e+01 0.0 
3.600000000000e+01 -1.000000000000e+01 0.0 
1.900000000000e+01 0.0 0.0 
1.800000000000e+01 0.0 0.0 
1.700000000000e+01 0.0 0.0 
1.600000000000e+01 0.0 0.0 
1.500000000000e+01 0.0 0.0 
1.400000000000e+01 0.0 0.0 
1.300000000000e+01 0.0 0.0 
1.200000000000e+01 0.0 0.0 
1.100000000000e+01 0.0 0.0 
1.000000000000e+01 0.0 0.0 
9.000000000000e+00 0.0 0.0 
8.000000000000e+00 0.0 0.0 
7.000000000000e+00 0.0 0.0 
6.000000000000e+00 0.0 0.0 
5.000000000000e+00 0.0 0.0 
4.000000000000e+00 0.0 0.0 
3.000000000000e+00 0.0 0.0 
2.000000000000e+00 0.0 0.0 
1.000000000000e+00 0.0 0.0 
4.901724137931e+01 -1.000000000000e+00 0.0 
4.803448275862e+01 -1.000000000000e+00 0.0 
4.705172413793e+01 -1.000000000000e+00 0.0 
4.606896551724e+01 -1.000000000000e+00 0.0 
4.508620689655e+01 -1.000000000000e+00 0.0 
4.410344827586e+01 -1.000000000000e+00 0.0 
4.312068965517e+01 -1.000000000000e+00 0.0 
4.213793103448e+01 -1.000000000000e+00 0.0 
4.115517241379e+01 -1.000000000000e+00 0.0 
4.017241379310e+01 -1.000000000000e+00 0.0 
3.918965517241e+01 -1.000000000000e+00 0.0 
3.820689655172e+01 -1.000000000000e+00 0.0 
3.722413793103e+01 -1.000000000000e+00 0.0 
3.624137931034e+01 -1.000000000000e+00 0.0 
3.525862068966e+01 -1.000000000000e+00 0.0 
3.427586206897e+01 -1.000000000000e+00 0.0 
3.329310344828e+01 -1.000000000000e+00 0.0 
3.231034482759e+01 -1.000000000000e+00 0.0 
3.132758620690e+01 -1.000000000000e+00 0.0 
3.034482758621e+01 -1.000000000000e+00 0.0 
2.936206896552e+01 -1.000000000000e+00 0.0 
2.837931034483e+01 -1.000000000000e+00 0.0 
2.739655172414e+01 -1.000000000000e+00 0.0 
2.641379310345e+01 -1.000000000000e+00 0.0 
2.543103448276e+01 -1.000000000000e+00 0.0 
2.444827586207e+01 -1.000000000000e+00 0.0 
2.346551724138e+01 -1.000000000000e+00 0.0 
2.248275862069e+01 -1.000000000000e+00 0.0 
2.400000000000e+01 -2.000000000000e+00 0.0 
2.500000000000e+01 -2.000000000000e+00 0.0 
2.600000000000e+01 -2.000000000000e+00 0.0 
2.700000000000e+01 -2.000000000000e+00 0.0 
2.800000000000e+01 -2.000000000000e+00 0.0 
2.900000000000e+01 -2.000000000000e+00 0.0 
3.000000000000e+01 -2.000000000000e+00 0.0 
3.100000000000e+01 -2.000000000000e+00 0.0 
3.200000000000e+01 -2.000000000000e+00 0.0 
3.300000000000e+01 -2.000000000000e+00 0.0 
3.400000000000e+01 -2.000000000000e+00 0.0 
3.500000000000e+01 -2.000000000000e+00 0.0 
3.600000000000e+01 -2.000000000000e+00 0.0 
3.700000000000e+01 -2.000000000000e+00 0.0 
3.800000000000e+01 -2.000000000000e+00 0.0 
3.900000000000e+01 -2.000000000000e+00 0.0 
4.000000000000e+01 -2.000000000000e+00 0.0 
4.100000000000e+01 -2.000000000000e+00 0.0 
4.200000000000e+01 -2.000000000000e+00 0.0 
4.300000000000e+01 -2.000000000000e+00 0.0 
4.400000000000e+01 -2.000000000000e+00 0.0 
4.500000000000e+01 -2.000000000000e+00 0.0 
4.600000000000e+01 -2.000000000000e+00 0.0 
4.700000000000e+01 -2.000000000000e+00 0.0 
4.800000000000e+01 -2.000000000000e+00 0.0 
4.900000000000e+01 -2.000000000000e+00 0.0 
2.548076923077e+01 -3.000000000000e+00 0.0 
2.646153846153e+01 -3.000000000000e+00 0.0 
2.744230769230e+01 -3.000000000000e+00 0.0 
2.842307692306e+01 -3.000000000000e+00 0.0 
2.940384615383e+01 -3.000000000000e+00 0.0 
3.038461538459e+01 -3.000000000000e+00 0.0 
3.136538461536e+01 -3.000000000000e+00 0.0 
3.234615384612e+01 -3.000000000000e+00 0.0 
3.332692307687e+01 -3.000000000000e+00 0.0 
3.430769230762e+01 -3.000000000000e+00 0.0 
3.528846153837e+01 -3.000000000000e+00 0.0 
3.626923076912e+01 -3.000000000000e+00 0.0 
3.724999999988e+01 -3.000000000000e+00 0.0 
3.823076923065e+01 -3.000000000000e+00 0.0 
3.921153846143e+01 -3.000000000000e+00 0.0 
4.019230769221e+01 -3.000000000000e+00 0.0 
4.117307692299e+01 -3.000000000000e+00 0.0 
4.215384615377e+01 -3.000000000000e+00 0.0 
4.313461538455e+01 -3.000000000000e+00 0.0 
4.411538461533e+01 -3.000000000000e+00 0.0 
4.509615384611e+01 -3.000000000000e+00 0.0 
4.607692307688e+01 -3.000000000000e+00 0.0 
4.705769230766e+01 -3.000000000000e+00 0.0 
4.803846153844e+01 -3.000000000000e+00 0.0 
4.901923076922e+01 -3.000000000000e+00 0.0 
4.900000000000e+01 -4.000000000000e+00 0.0 
4.800000000000e+01 -4.000000000000e+00 0.0 
4.700000000000e+01 -4.000000000000e+00 0.0 
4.600000000000e+01 -4.000000000000e+00 0.0 
4.500000000000e+01 -4.000000000000e+00 0.0 
4.400000000000e+01 -4.000000000000e+00 0.0 
4.300000000000e+01 -4.000000000000e+00 0.0 
4.200000000000e+01 -4.000000000000e+00 0.0 
4.100000000000e+01 -4.000000000000e+00 0.0 
4.000000000000e+01 -4.000000000000e+00 0.0 
3.900000000000e+01 -4.000000000000e+00 0.0 
3.800000000000e+01 -4.000000000000e+00 0.0 
3.700000000000e+01 -4.000000000000e+00 0.0 
3.600000000000e+01 -4.000000000000e+00 0.0 
3.500000000000e+01 -4.000000000000e+00 0.0 
3.400000000000e+01 -4.000000000000e+00 0.0 
3.300000000000e+01 -4.000000000000e+00 0.0 
3.200000000000e+01 -4.000000000000e+00 0.0 
3.100000000000e+01 -4.000000000000e+00 0.0 
3.000000000000e+01 -4.000000000000e+00 0.0 
2.900000000000e+01 -4.000000000000e+00 0.0 
2.800000000000e+01 -4.000000000000e+00 0.0 
2.700000000000e+01 -4.000000000000e+00 0.0 
2.847826086957e+01 -5.000000000000e+00 0.0 
2.945652173913e+01 -5.000000000000e+00 0.0 
3.043478260870e+01 -5.000000000000e+00 0.0 
3.141304347826e+01 -5.000000000000e+00 0.0 
3.239130434783e+01 -5.000000000000e+00 0.0 
3.336956521739e+01 -5.000000000000e+00 0.0 
3.434782608696e+01 -5.000000000000e+00 0.0 
3.532608695652e+01 -5.000000000000e+00 0.0 
3.630434782609e+01 -5.000000000000e+00 0.0 
3.728260869565e+01 -5.000000000000e+00 0.0 
3.826086956522e+01 -5.000000000000e+00 0.0 
3.923913043478e+01 -5.000000000000e+00 0.0 
4.021739130435e+01 -5.000000000000e+00 0.0 
4.119565217391e+01 -5.000000000000e+00 0.0 
4.217391304348e+01 -5.000000000000e+00 0.0 
4.315217391304e+01 -5.000000000000e+00 0.0 
4.413043478261e+01 -5.000000000000e+00 0.0 
4.510869565217e+01 -5.000000000000e+00 0.0 
4.608695652174e+01 -5.000000000000e+00 0.0 
4.706521739130e+01 -5.000000000000e+00 0.0 
4.804347826087e+01 -5.000000000000e+00 0.0 
4.902173913043e+01 -5.000000000000e+00 0.0 
4.900000000001e+01 -6.000000000000e+00 0.0 
4.800000000003e+01 -6.000000000000e+00 0.0 
4.700000000004e+01 -6.000000000000e+00 0.0 
4.600000000006e+01 -6.000000000000e+00 0.0 
4.500000000007e+01 -6.000000000000e+00 0.0 
4.400000000009e+01 -6.000000000000e+00 0.0 
4.300000000010e+01 -6.000000000000e+00 0.0 
4.200000000012e+01 -6.000000000000e+00 0.0 
4.100000000013e+01 -6.000000000000e+00 0.0 
4.000000000014e+01 -6.000000000000e+00 0.0 
3.900000000014e+01 -6.000000000000e+00 0.0 
3.800000000012e+01 -6.000000000000e+00 0.0 
3.700000000010e+01 -6.000000000000e+00 0.0 
3.600000000008e+01 -6.000000000000e+00 0.0 
3.500000000006e+01 -6.000000000000e+00 0.0 
3.400000000005e+01 -6.000000000000e+00 0.0 
3.300000000003e+01 -6.000000000000e+00 0.0 
3.200000000001e+01 -6.000000000000e+00 0.0 
3.100000000000e+01 -6.000000000000e+00 0.0 
3.000000000000e+01 -6.000000000000e+00 0.0 
3.147499999998e+01 -7.000000000000e+00 0.0 
3.244999999998e+01 -7.000000000000e+00 0.0 
3.342499999998e+01 -7.000000000000e+00 0.0 
3.439999999998e+01 -7.000000000000e+00 0.0 
3.537499999998e+01 -7.000000000000e+00 0.0 
3.634999999998e+01 -7.000000000000e+00 0.0 
3.732499999998e+01 -7.000000000000e+00 0.0 
3.829999999998e+01 -7.000000000000e+00 0.0 
3.927499999999e+01 -7.000000000000e+00 0.0 
4.024999999999e+01 -7.000000000000e+00 0.0 
4.122499999999e+01 -7.000000000000e+00 0.0 
4.219999999999e+01 -7.000000000000e+00 0.0 
4.317499999999e+01 -7.000000000000e+00 0.0 
4.414999999999e+01 -7.000000000000e+00 0.0 
4.512499999999e+01 -7.000000000000e+00 0.0 
4.609999999999e+01 -7.000000000000e+00 0.0 
4.707500000000e+01 -7.000000000000e+00 0.0 
4.805000000000e+01 -7.000000000000e+00 0.0 
4.902500000000e+01 -7.000000000000e+00 0.0 
4.900000000000e+01 -8.000000000000e+00 0.0 
4.800000000000e+01 -8.000000000000e+00 0.0 
4.700000000000e+01 -8.000000000000e+00 0.0 
4.600000000000e+01 -8.000000000000e+00 0.0 
4.500000000000e+01 -8.000000000000e+00 0.0 
4.400000000000e+01 -8.000000000000e+00 0.0 
4.300000000000e+01 -8.000000000000e+00 0.0 
4.200000000000e+01 -8.000000000000e+00 0.0 
4.100000000000e+01 -8.000000000000e+00 0.0 
4.000000000000e+01 -8.000000000000e+00 0.0 
3.900000000000e+01 -8.000000000000e+00 0.0 
3.800000000000e+01 -8.000000000000e+00 0.0 
3.700000000000e+01 -8.000000000000e+00 0.0 
3.600000000000e+01 -8.000000000000e+00 0.0 
3.500000000000e+01 -8.000000000000e+00 0.0 
3.400000000000e+01 -8.000000000000e+00 0.0 
3.300000000000e+01 -8.000000000000e+00 0.0 
3.447058823527e+01 -9.000000000000e+00 0.0 
3.544117647055e+01 -9.000000000000e+00 0.0 
3.641176470582e+01 -9.000000000000e+00 0.0 
3.738235294109e+01 -9.000000000000e+00 0.0 
3.835294117637e+01 -9.000000000000e+00 0.0 
3.932352941164e+01 -9.000000000000e+00 0.0 
4.029411764691e+01 -9.000000000000e+00 0.0 
4.126470588219e+01 -9.000000000000e+00 0.0 
4.223529411748e+01 -9.000000000000e+00 0.0 
4.320588235279e+01 -9.000000000000e+00 0.0 
4.417647058811e+01 -9.000000000000e+00 0.0 
4.514705882342e+01 -9.000000000000e+00 0.0 
4.611764705874e+01 -9.000000000000e+00 0.0 
4.708823529405e+01 -9.000000000000e+00 0.0 
4.805882352937e+01 -9.000000000000e+00 0.0 
4.902941176468e+01 -9.000000000000e+00 0.0 
2.075000000000e+01 -5.000000000006e-01 0.0 
2.225000000000e+01 -1.500000000000e+00 0.0 
2.375000000000e+01 -2.500000000000e+00 0.0 
2.525000000000e+01 -3.500000000000e+00 0.0 
2.675000000000e+01 -4.500000000000e+00 0.0 
2.825000000000e+01 -5.500000000000e+00 0.0 
2.975000000000e+01 -6.500000000000e+00 0.0 
3.125000000000e+01 -7.500000000000e+00 0.0 
3.275000000000e+01 -8.500000000000e+00 0.0 
3.425000000000e+01 -9.500000000000e+00 0.0 
2.226951693683e+01 -2.403913980114e+00 0.0 
1.650149491944e+01 -1.913490915758e+01 0.0 
1.050042386896e+01 -8.504605092970e-01 0.0 
1.553146524712e+01 -8.281255032105e-01 0.0 
1.150000000008e+01 -1.913397459621e+01 0.0 
2.530060260647e+01 -4.428336431260e+00 0.0 
8.651114563942e-01 -1.052096295641e+01 0.0 
2.050000000013e+01 -1.913397459622e+01 0.0 
2.819198729811e+01 -6.399519052838e+00 0.0 
2.445670302931e+01 -1.915649188023e+01 0.0 
3.117591465718e+01 -8.394293040695e+00 0.0 
7.465053044742e+00 -1.920411160581e+01 0.0 
6.398295709691e+00 -8.230098819370e-01 0.0 
2.849659607461e+01 -1.914296187762e+01 0.0 
3.418732642882e+01 -1.040265792588e+01 0.0 
8.386450935063e-01 -6.533605142809e+00 0.0 
9.178661865596e-01 -1.329769195597e+01 0.0 
3.149448624493e+01 -1.910466733764e+01 0.0 
3.552916747426e+01 -1.914628590759e+01 0.0 
4.449210346537e+01 -1.914359085008e+01 0.0 
4.140975975145e+01 -1.906941860733e+01 0.0 
3.847475958753e+01 -1.916622382724e+01 0.0 
3.653774794640e+01 -1.088712800241e+01 0.0 
4.047886341787e+01 -1.090139014048e+01 0.0 
4.348006339825e+01 -1.092792621489e+01 0.0 
4.919519968029e+01 -1.451526755068e+01 0.0 
4.500000000032e+00 -1.913397459621e+01 0.0 
1.856136921614e+01 -8.212235170404e-01 0.0 
3.499895312306e+00 -8.661165539723e-01 0.0 
9.076088696565e-01 -1.642306201891e+01 0.0 
4.655174095477e+01 -1.086183387525e+01 0.0 
9.430688970604e-01 -3.496112672958e+00 0.0 
3.353992337063e+01 -1.901202090820e+01 0.0 
2.249746016977e+01 -1.921262287282e+01 0.0 
2.650122741777e+01 -1.916123026018e+01 0.0 
1.863571384842e+01 -1.908325534840e+01 0.0 
1.450089971693e+01 -1.917691901860e+01 0.0 
1.350044695317e+01 -8.659695299584e-01 0.0 
3.849987469880e+01 -1.084154983397e+01 0.0 
9.454419857884e+00 -1.900818879936e+01 0.0 
4.917398660523e+01 -1.645692866081e+01 0.0 
8.500000000000e+00 -8.660254037844e-01 0.0 
8.660319230785e-01 -8.500111697188e+00 0.0 
4.649022621545e+01 -1.930506220113e+01 0.0 
2.667688107845e+01 -5.420288124331e+00 0.0 
2.379251615665e+01 -3.412225477429e+00 0.0 
2.966631491830e+01 -7.389030232731e+00 0.0 
3.267915035995e+01 -9.396934932445e+00 0.0 
2.074836922338e+01 -1.320054020319e+00 0.0 
4.915985743621e+01 -1.261973384855e+01 0.0 
2.527129768623e+00 -1.931592414663e+01 0.0 
1.538676247410e+00 -8.436956619311e-01 0.0 
4.908096641539e+01 -1.842484004551e+01 0.0 
3.478612492673e+01 -1.090889364140e+01 0.0 
3.409757055860e+01 -1.131991530427e+01 0.0 
3.501895309466e+01 -1.177687842717e+01 0.0 
3.407758073088e+01 -1.224293381580e+01 0.0 
3.484541875390e+01 -1.277051428430e+01 0.0 
3.400322025842e+01 -1.319022775640e+01 0.0 
3.321672625034e+01 -1.266779191233e+01 0.0 
3.315244139236e+01 -1.360984106532e+01 0.0 
3.236335186892e+01 -1.308463225210e+01 0.0 
3.478337442841e+01 -1.372341158982e+01 0.0 
3.230105923633e+01 -1.403023731610e+01 0.0 
3.150954055289e+01 -1.350301767700e+01 0.0 
3.144604792090e+01 -1.444931742516e+01 0.0 
3.065653897123e+01 -1.392357262981e+01 0.0 
3.071897610812e+01 -1.297447031198e+01 0.0 
2.986790411740e+01 -1.339226181535e+01 0.0 
2.993181466745e+01 -1.244703272398e+01 0.0 
2.908023061869e+01 -1.286254537734e+01 0.0 
2.901619051372e+01 -1.380881655279e+01 0.0 
2.822986160390e+01 -1.327695262116e+01 0.0 
2.829453476870e+01 -1.233265343811e+01 0.0 
2.744542905518e+01 -1.274510491105e+01 0.0 
2.751120089246e+01 -1.180368086886e+01 0.0 
2.666218649885e+01 -1.221619339205e+01 0.0 
2.672371209234e+01 -1.127125228527e+01 0.0 
2.587763216302e+01 -1.168539979114e+01 0.0 
2.581165585299e+01 -1.262994410089e+01 0.0 
2.502890882577e+01 -1.209827323619e+01 0.0 
2.509631327757e+01 -1.115492410304e+01 0.0 
2.424662989877e+01 -1.156630981079e+01 0.0 
2.431704046904e+01 -1.062389179334e+01 0.0 
2.346445438728e+01 -1.103427680694e+01 0.0 
2.339382552877e+01 -1.197964871788e+01 0.0 
2.260936050780e+01 -1.144513277642e+01 0.0 
2.268075012022e+01 -1.049911928216e+01 0.0 
2.182525737661e+01 -1.090920811464e+01 0.0 
2.189682319817e+01 -9.961716944568e+00 0.0 
2.104174127792e+01 -1.037266986667e+01 0.0 
2.111304367575e+01 -9.424179358711e+00 0.0 
2.025306185381e+01 -9.832727364719e+00 0.0 
2.018141124247e+01 -1.079140628871e+01 0.0 
1.938594498257e+01 -1.025147354112e+01 0.0 
1.946106490453e+01 -9.288010758448e+00 0.0 
1.858929958352e+01 -9.706319802516e+00 0.0 
1.851540991219e+01 -1.067205988724e+01 0.0 
1.771485303178e+01 -1.012504443115e+01 0.0 
1.764134552256e+01 -1.109360378538e+01 0.0 
1.683745148095e+01 -1.054496365337e+01 0.0 
1.691852964353e+01 -9.582555261178e+00 0.0 
1.603603813062e+01 -1.000160132379e+01 0.0 
1.595824239350e+01 -1.096750698862e+01 0.0 
1.515080624291e+01 -1.041639501931e+01 0.0 
1.523171602559e+01 -9.451711491453e+00 0.0 
1.434621060709e+01 -9.871956467464e+00 0.0 
1.426777178765e+01 -1.083749501371e+01 0.0 
1.345775282374e+01 -1.028803175500e+01 0.0 
1.354103873368e+01 -9.324918457162e+00 0.0 
1.265072018622e+01 -9.742612837270e+00 0.0 
1.257285762070e+01 -1.071557782384e+01 0.0 
1.175874815690e+01 -1.015972324288e+01 0.0 
1.184203019714e+01 -9.193604071377e+00 0.0 
1.094927709905e+01 -9.612103238656e+00 0.0 
1.086938022910e+01 -1.058685085646e+01 0.0 
1.005424098961e+01 -1.002939116380e+01 0.0 
9.977974613295e+00 -1.101324897989e+01 0.0 
1.012915646404e+01 -9.051815821181e+00 0.0 
9.237127782494e+00 -9.471239055559e+00 0.0 
9.308426593771e+00 -8.483376461131e+00 0.0 
8.418806073345e+00 -8.910712374517e+00 0.0 
2.253688464062e+01 -1.239459402279e+01 0.0 
8.495126726666e+00 -7.921646665254e+00 0.0 
9.389727383206e+00 -7.512103628377e+00 0.0 
7.601560812974e+00 -8.349460349344e+00 0.0 
7.525680547759e+00 -9.339736686940e+00 0.0 
7.677888324502e+00 -7.359727833346e+00 0.0 
6.782001206724e+00 -7.788454494773e+00 0.0 
6.858778622885e+00 -6.797338062822e+00 0.0 
2.196596590865e+01 -8.979025665442e+00 0.0 
2.816540108272e+01 -1.422634142353e+01 0.0 
5.961601194403e+00 -7.226824010712e+00 0.0 
6.038171749656e+00 -6.234825887079e+00 0.0 
6.936257279557e+00 -5.805287640737e+00 0.0 
6.115068918323e+00 -5.242109758768e+00 0.0 
3.564391741903e+01 -1.329240553876e+01 0.0 
3.558115605778e+01 -1.425902892003e+01 0.0 
3.645445282201e+01 -1.381970786460e+01 0.0 
3.639744204358e+01 -1.479198128612e+01 0.0 
3.727266909778e+01 -1.435399586226e+01 0.0 
5.216667013081e+00 -5.671788584287e+00 0.0 
3.220697293295e+01 -1.499594545107e+01 0.0 
3.551112158269e+01 -1.523479869250e+01 0.0 
2.836056961467e+01 -1.139032434851e+01 0.0 
2.516730388602e+01 -1.021382726837e+01 0.0 
1.844436907403e+01 -1.164097215196e+01 0.0 
5.885434318740e+00 -8.218694781467e+00 0.0 
5.064071066867e+00 -7.656614643901e+00 0.0 
4.988089103470e+00 -8.649722082718e+00 0.0 
1.079421050408e+01 -1.157014985435e+01 0.0 
9.902420005256e+00 -1.199903342656e+01 0.0 
1.071994252214e+01 -1.255727909771e+01 0.0 
9.826974788171e+00 -1.298659581767e+01 0.0 
1.064607883789e+01 -1.354595476388e+01 0.0 
9.751541265343e+00 -1.397556905071e+01 0.0 
8.932296185869e+00 -1.341553353988e+01 0.0 
8.856399248106e+00 -1.440570715508e+01 0.0 
8.036186803543e+00 -1.384470558472e+01 0.0 
1.057112875118e+01 -1.453516759081e+01 0.0 
1.146582585687e+01 -1.410539926903e+01 0.0 
7.959894480382e+00 -1.483563350928e+01 0.0 
7.138792279156e+00 -1.427465094140e+01 0.0 
7.062506792418e+00 -1.526615385482e+01 0.0 
6.240693558277e+00 -1.470508863040e+01 0.0 
6.316957575451e+00 -1.371212581281e+01 0.0 
5.418183007107e+00 -1.414253605022e+01 0.0 
5.494748364428e+00 -1.314886770603e+01 0.0 
1.756825565873e+01 -1.206433872514e+01 0.0 
1.837565773345e+01 -1.261356468266e+01 0.0 
1.749574831391e+01 -1.303769280014e+01 0.0 
1.830539187332e+01 -1.358828364284e+01 0.0 
1.742278925170e+01 -1.401367746928e+01 0.0 
1.823303007798e+01 -1.456432294258e+01 0.0 
1.734941694138e+01 -1.499213734361e+01 0.0 
1.653760041637e+01 -1.443920312098e+01 0.0 
3.056237977307e+01 -1.487132260174e+01 0.0 
1.866469084762e+01 -8.742953000418e+00 0.0 
1.953669694916e+01 -8.326038909849e+00 0.0 
1.874194303780e+01 -7.780688158966e+00 0.0 
1.961032016741e+01 -7.366854697285e+00 0.0 
1.881715755159e+01 -6.821102209649e+00 0.0 
1.968369797150e+01 -6.407747217358e+00 0.0 
1.889237123259e+01 -5.858375520026e+00 0.0 
1.802038875366e+01 -6.276202618170e+00 0.0 
1.809793837984e+01 -5.307629520489e+00 0.0 
1.721985207997e+01 -5.728242054488e+00 0.0 
1.729850893523e+01 -4.756990819347e+00 0.0 
1.641745664240e+01 -5.174636548624e+00 0.0 
2.495978509456e+01 -1.304406404294e+01 0.0 
1.911567814831e+01 -1.413854250293e+01 0.0 
1.904387332608e+01 -1.511463127723e+01 0.0 
1.992115934240e+01 -1.468788025898e+01 0.0 
7.013706899628e+00 -4.812582868662e+00 0.0 
5.342091874585e+00 -1.513658157269e+01 0.0 
1.139098043784e+01 -1.509488509480e+01 0.0 
1.228151810610e+01 -1.465617481983e+01 0.0 
1.646373110164e+01 -1.541993323337e+01 0.0 
5.293328636712e+00 -4.678385108584e+00 0.0 
1.975965862987e+01 -5.448124345648e+00 0.0 
2.054318374236e+01 -5.992561293251e+00 0.0 
3.721453439063e+01 -1.533216152738e+01 0.0 
3.809302733893e+01 -1.489235527381e+01 0.0 
1.220852788900e+01 -1.565304565230e+01 0.0 
4.394120899730e+00 -5.108397613210e+00 0.0 
8.779354620288e+00 -1.539524721159e+01 0.0 
1.817791047702e+01 -4.338570146253e+00 0.0 
4.518860013839e+00 -1.457343189307e+01 0.0 
4.442712140414e+00 -1.556841391069e+01 0.0 
8.115343466391e+00 -1.285760324283e+01 0.0 
1.985334703171e+01 -1.566478400426e+01 0.0 
2.071953850276e+01 -1.522074243119e+01 0.0 
1.634012953883e+01 -6.154777738301e+00 0.0 
1.553479994708e+01 -5.593730508879e+00 0.0 
1.561265946942e+01 -4.617761762647e+00 0.0 
1.470674212978e+01 -5.064576488228e+00 0.0 
1.464498299883e+01 -6.026514471420e+00 0.0 
1.383271561817e+01 -5.467796261169e+00 0.0 
1.389241253067e+01 -4.504338666645e+00 0.0 
1.301868735463e+01 -4.907185188626e+00 0.0 
1.294514184846e+01 -5.888160903592e+00 0.0 
1.212955968622e+01 -5.328262335277e+00 0.0 
1.220721122383e+01 -4.341264976687e+00 0.0 
1.131324345897e+01 -4.766773516508e+00 0.0 
5.266597955397e+00 -1.613148974258e+01 0.0 
1.737805990867e+01 -3.786677807525e+00 0.0 
3.078438094513e+01 -1.203225297748e+01 0.0 
1.131569882285e+01 -1.608511932110e+01 0.0 
1.728478341782e+01 -1.596017432313e+01 0.0 
3.803465906019e+01 -1.587509751228e+01 0.0 
3.891681276677e+01 -1.543395196905e+01 0.0 
3.897340985302e+01 -1.444710288980e+01 0.0 
3.980095968193e+01 -1.499059496613e+01 0.0 
3.974334598189e+01 -1.597921884150e+01 0.0 
4.062964983717e+01 -1.553518690417e+01 0.0 
4.068729602479e+01 -1.454434445295e+01 0.0 
4.151772679790e+01 -1.508974196007e+01 0.0 
4.157505195739e+01 -1.409694289912e+01 0.0 
4.240699932656e+01 -1.464347955968e+01 0.0 
4.234898051011e+01 -1.563721375790e+01 0.0 
4.323934606035e+01 -1.519082036405e+01 0.0 
4.329740528208e+01 -1.419587509788e+01 0.0 
4.413056841369e+01 -1.474359631875e+01 0.0 
4.418850110108e+01 -1.374786684042e+01 0.0 
4.502219770667e+01 -1.429605103525e+01 0.0 
4.496411937907e+01 -1.529215882720e+01 0.0 
4.490027319897e+00 -4.154167794594e+00 0.0 
1.565080385988e+01 -1.486411982419e+01 0.0 
1.557610691279e+01 -1.584855627870e+01 0.0 
4.195350646612e+00 -8.089117689096e+00 0.0 
4.124027797830e+00 -9.082831955007e+00 0.0 
4.917944318925e+00 -9.643530901533e+00 0.0 
4.020105689502e+00 -1.007439673661e+01 0.0 
4.587185899277e+01 -1.484039992728e+01 0.0 
4.580078661551e+01 -1.584043391042e+01 0.0 
2.061956522375e+01 -5.046701343981e+00 0.0 
2.139572955529e+01 -5.579553449826e+00 0.0 
3.715344357292e+01 -1.631485124583e+01 0.0 
3.618886196443e+00 -1.500471207167e+01 0.0 
3.695606940204e+00 -1.400939692294e+01 0.0 
2.438890661143e+01 -9.686110599723e+00 0.0 
2.523267572778e+01 -9.276766000622e+00 0.0 
2.446094171539e+01 -8.751904591412e+00 0.0 
2.529089822738e+01 -8.321495612547e+00 0.0 
2.606882688827e+01 -8.864724051119e+00 0.0 
2.452116646430e+01 -7.792756462004e+00 0.0 
1.235543269617e+01 -1.365845617339e+01 0.0 
4.318116874181e+01 -1.618567469992e+01 0.0 
7.835066111909e+00 -5.376366223896e+00 0.0 
7.905687335704e+00 -4.382539065697e+00 0.0 
3.542640009567e+00 -1.600035116542e+01 0.0 
1.572431503071e+01 -1.388358386695e+01 0.0 
2.574684696680e+01 -1.357896141127e+01 0.0 
2.488842657651e+01 -1.399674354505e+01 0.0 
2.568301775611e+01 -1.453552048595e+01 0.0 
2.481535572009e+01 -1.495542756508e+01 0.0 
2.561729699688e+01 -1.549784648532e+01 0.0 
2.474623061296e+01 -1.592058894178e+01 0.0 
2.394234041695e+01 -1.537572575827e+01 0.0 
2.065825452567e+01 -1.621899055217e+01 0.0 
2.387180528935e+01 -1.634552264687e+01 0.0 
4.585364400844e+01 -1.383912334080e+01 0.0 
1.998744432052e+01 -1.370317155541e+01 0.0 
1.205356951443e+01 -6.313580285498e+00 0.0 
5.396543905849e+00 -3.731818611283e+00 0.0 
1.139652573295e+01 -3.745819399350e+00 0.0 
3.574124306703e+00 -4.551456826011e+00 0.0 
3.494140761930e+00 -5.539787055649e+00 0.0 
1.213651452413e+01 -1.664505033022e+01 0.0 
2.555045568519e+01 -1.646529356744e+01 0.0 
2.641671114986e+01 -1.603899382371e+01 0.0 
2.612920721894e+01 -7.906435260873e+00 0.0 
2.690339829698e+01 -8.456969591431e+00 0.0 
1.978024383368e+01 -1.664410216353e+01 0.0 
3.732829979082e+01 -1.336926601859e+01 0.0 
4.074336584605e+01 -1.355133328401e+01 0.0 
4.163204691081e+01 -1.310280943992e+01 0.0 
3.773826114429e+00 -3.493444309145e+00 0.0 
1.228783001032e+01 -3.374822835872e+00 0.0 
4.057110462520e+01 -1.652588478000e+01 0.0 
2.132535497898e+01 -6.523623360525e+00 0.0 
2.216932532211e+01 -6.110044769206e+00 0.0 
1.825781152128e+01 -3.370146817147e+00 0.0 
1.745679445888e+01 -2.812942552063e+00 0.0 
4.666517057280e+01 -1.539981381543e+01 0.0 
4.660575894464e+01 -1.639014410186e+01 0.0 
4.838230979954e+00 -1.063643436446e+01 0.0 
3.938942630206e+00 -1.106778981745e+01 0.0 
1.302967218620e+01 -1.621373452436e+01 0.0 
1.049548003190e+01 -4.204825123240e+00 0.0 
4.573571907195e+01 -1.683820511148e+01 0.0 
1.483686335807e+01 -1.430849689310e+01 0.0 
1.490982658890e+01 -1.332679386284e+01 0.0 
3.190805600162e+00 -9.510968358545e+00 0.0 
2.146625721848e+01 -4.642437303115e+00 0.0 
2.069866208266e+01 -4.111852942193e+00 0.0 
1.286859345584e+01 -6.873252723348e+00 0.0 
1.041794493184e+01 -5.194814260291e+00 0.0 
2.671081808965e+00 -4.976806516331e+00 0.0 
1.295786792925e+01 -1.720506531799e+01 0.0 
3.968438206511e+01 -1.696869067241e+01 0.0 
2.308550456051e+01 -1.579963151273e+01 0.0 
2.315593682844e+01 -1.482967445235e+01 0.0 
2.299471449450e+01 -1.677069968132e+01 0.0 
1.057344714696e+01 -3.214252277840e+00 0.0 
1.124057603753e+01 -1.707713739755e+01 0.0 
2.718402535754e+00 -1.543629882103e+01 0.0 
2.638549692805e+01 -1.696744916809e+01 0.0 
2.723416349007e+01 -1.658104204545e+01 0.0 
2.210193351704e+01 -7.046769643417e+00 0.0 
2.295180925161e+01 -6.657397605239e+00 0.0 
2.301355235833e+01 -5.709111896800e+00 0.0 
2.379052718281e+01 -6.254965406962e+00 0.0 
3.243528601237e+01 -1.214181853533e+01 0.0 
2.287977995457e+01 -7.583722368300e+00 0.0 
2.999876029544e+01 -1.150837653096e+01 0.0 
3.084435366963e+01 -1.109693775882e+01 0.0 
3.006650579669e+01 -1.057778994262e+01 0.0 
2.683802665066e+01 -9.386863216633e+00 0.0 
2.768641973621e+01 -8.988883915666e+00 0.0 
2.040296980397e+01 -7.903629133404e+00 0.0 
1.925235024054e+01 -1.218872783130e+01 0.0 
5.735667000424e+00 -1.020577277283e+01 0.0 
6.396559909872e+00 -1.272326295703e+01 0.0 
1.161199420714e+01 -1.212812778229e+01 0.0 
4.229046132615e+01 -1.663084237572e+01 0.0 
4.312275399692e+01 -1.718087491556e+01 0.0 
4.335502068163e+01 -1.320039231514e+01 0.0 
4.424630298089e+01 -1.275160688731e+01 0.0 
7.090116643816e+00 -3.818998061530e+00 0.0 
7.989472176569e+00 -3.389238711200e+00 0.0 
9.085824861778e+00 -1.144036167408e+01 0.0 
1.041972423731e+01 -1.651614080893e+01 0.0 
3.797525112640e+01 -1.686052038746e+01 0.0 
3.709114253394e+01 -1.730125999865e+01 0.0 
3.626966748340e+01 -1.675477052919e+01 0.0 
1.385164591440e+01 -1.677597757552e+01 0.0 
1.787152588784e+01 -8.198993896093e+00 0.0 
1.668849729812e+01 -1.248560611628e+01 0.0 
1.659546177905e+01 -3.232482605530e+00 0.0 
2.332214717345e+01 -1.292598167641e+01 0.0 
7.168238450786e+00 -2.824711686516e+00 0.0 
2.894878403906e+01 -1.475427524446e+01 0.0 
2.646763248247e+00 -1.643270107952e+01 0.0 
3.467431944285e+00 -1.699648837348e+01 0.0 
2.059475877282e+01 -1.719473628526e+01 0.0 
3.333868355437e+01 -1.080596971682e+01 0.0 
2.246451062637e+01 -1.334557761546e+01 0.0 
2.167821896388e+01 -1.280847834858e+01 0.0 
3.089653185767e+01 -1.017198487212e+01 0.0 
3.012604365669e+01 -9.657298805968e+00 0.0 
2.929627299435e+01 -1.006100135274e+01 0.0 
2.936201435219e+01 -9.136748899251e+00 0.0 
1.198219052702e+01 -7.291887238230e+00 0.0 
1.116702076035e+01 -6.731976101053e+00 0.0 
2.551388807505e+01 -1.746927036981e+01 0.0 
2.378639090370e+01 -1.728678807149e+01 0.0 
2.718543627188e+01 -1.748668016909e+01 0.0 
2.804681050301e+01 -1.712626668293e+01 0.0 
1.970737034667e+01 -1.762317646822e+01 0.0 
1.889535776135e+01 -1.707158098231e+01 0.0 
2.593777711283e+00 -5.971157087874e+00 0.0 
2.773468281110e+01 -8.067164273938e+00 0.0 
4.051205884347e+01 -1.751819982458e+01 0.0 
3.166903145421e+01 -1.068032992414e+01 0.0 
1.033042452886e+01 -1.748285844336e+01 0.0 
9.519274604626e+00 -1.694349240233e+01 0.0 
1.668308673328e+01 -2.255861778986e+00 0.0 
1.570531902832e+01 -2.676795860126e+00 0.0 
4.655826903379e+01 -1.736656245706e+01 0.0 
2.384148070773e+01 -5.328744256413e+00 0.0 
2.460255123641e+01 -5.852182672816e+00 0.0 
2.306638135119e+01 -4.798935440613e+00 0.0 
8.467720450578e-01 -1.849576263072e+01 0.0 
4.849657322345e+01 -1.084860705506e+01 0.0 
2.565860899507e+00 -1.742859793981e+01 0.0 
2.764418872564e+01 -9.927142821799e+00 0.0 
4.565165880064e+01 -1.785336695404e+01 0.0 
2.162231831329e+01 -1.376528337468e+01 0.0 
2.360646352969e+01 -9.136041963102e+00 0.0 
1.392738739903e+01 -1.578285505772e+01 0.0 
4.756405947478e+01 -1.683706841809e+01 0.0 
4.740895034054e+01 -1.793766756892e+01 0.0 
4.080779328826e+01 -1.257387192544e+01 0.0 
4.168907939671e+01 -1.210739129181e+01 0.0 
3.991197722154e+01 -1.300815793917e+01 0.0 
1.905536506762e+01 -3.940076697685e+00 0.0 
1.923879596617e+01 -2.875000734166e+00 0.0 
4.401386745746e+01 -1.673483229438e+01 0.0 
4.247233362525e+00 -7.094581653070e+00 0.0 
3.286051630211e+00 -7.635300020553e+00 0.0 
9.609533347623e+00 -4.594311677967e+00 0.0 
9.523554636369e+00 -5.595597029530e+00 0.0 
5.660336628893e+00 -1.119290329628e+01 0.0 
6.558070063295e+00 -1.076385809362e+01 0.0 
2.809866407414e+01 -1.518037766799e+01 0.0 
2.888868674504e+01 -1.570360690070e+01 0.0 
2.654431550819e+01 -1.411217777162e+01 0.0 
1.402158265969e+01 -1.375404617952e+01 0.0 
1.409592494026e+01 -1.277071998942e+01 0.0 
1.499355196178e+01 -1.235270737023e+01 0.0 
4.221535326155e+01 -1.759335617494e+01 0.0 
4.305583287033e+01 -1.822663146802e+01 0.0 
1.280748808359e+01 -7.834332838285e+00 0.0 
1.368988389326e+01 -7.420529606172e+00 0.0 
1.110091796060e+01 -7.683966794328e+00 0.0 
3.963446145980e+01 -1.794331310122e+01 0.0 
3.423932362213e+00 -1.796415590455e+01 0.0 
4.280814572302e+00 -1.752272834860e+01 0.0 
8.050136380041e+00 -2.421582378631e+00 0.0 
8.888674091650e+00 -2.984264211327e+00 0.0 
2.152839430898e+01 -3.732609965436e+00 0.0 
2.077799585292e+01 -3.183896021866e+00 0.0 
3.618719395821e+01 -1.770276572576e+01 0.0 
3.538165138340e+01 -1.718709995539e+01 0.0 
3.702925326420e+01 -1.828844288807e+01 0.0 
1.756739438711e+00 -5.353284859169e+00 0.0 
2.233710191104e+01 -1.527265621324e+01 0.0 
1.389483555057e+01 -1.771797164730e+01 0.0 
1.475634224300e+01 -1.728357428390e+01 0.0 
1.298797563052e+01 -1.825968924755e+01 0.0 
2.145331271866e+01 -1.673705379077e+01 0.0 
2.133282821169e+01 -1.769400773673e+01 0.0 
2.292139194136e+01 -1.774915400288e+01 0.0 
1.750750053243e+01 -1.861475593469e+00 0.0 
4.830478841772e+01 -1.752611802221e+01 0.0 
4.341203507805e+01 -1.220326745522e+01 0.0 
1.685254151866e+01 -1.443085301632e+00 0.0 
4.431538535165e+01 -1.171841387375e+01 0.0 
4.511308610496e+01 -1.229557320599e+01 0.0 
4.510133242889e+01 -1.123680627466e+01 0.0 
1.846818030617e+00 -4.410877617069e+00 0.0 
3.995468694584e+01 -1.186571542989e+01 0.0 
3.901387459804e+01 -1.242507616755e+01 0.0 
8.966735877533e+00 -1.837818700423e+00 0.0 
4.049310011091e+01 -1.848269508791e+01 0.0 
7.278862053803e+00 -1.918523922691e+00 0.0 
6.429715522129e+00 -2.316676521184e+00 0.0 
9.443505505022e+00 -1.792198868094e+01 0.0 
8.620386951051e+00 -1.737590365556e+01 0.0 
8.571868171503e+00 -1.834436667826e+01 0.0 
7.758629848526e+00 -1.775677907213e+01 0.0 
7.806648388584e+00 -1.680761266021e+01 0.0 
6.908555145436e+00 -1.723746463044e+01 0.0 
4.251709122090e+01 -1.156937480156e+01 0.0 
6.931136405615e+00 -1.832465719263e+01 0.0 
6.015545461353e+00 -1.768865355295e+01 0.0 
5.960535926343e+00 -1.872011001764e+01 0.0 
3.023253444786e+01 -8.761960642196e+00 0.0 
2.454622702599e+01 -6.749421992767e+00 0.0 
2.537499741604e+01 -6.347634963783e+00 0.0 
2.544077378460e+01 -5.431358513649e+00 0.0 
2.801367161747e+01 -1.820907270221e+01 0.0 
2.884507806914e+01 -1.762032095326e+01 0.0 
1.821474531936e+00 -1.588901260460e+01 0.0 
1.821006262604e+00 -1.489370287756e+01 0.0 
4.599962488908e+01 -1.176478780598e+01 0.0 
4.705457470007e+01 -1.172182804229e+01 0.0 
4.667668314802e+01 -1.263464558483e+01 0.0 
4.759648056504e+01 -1.252380987933e+01 0.0 
4.728041618103e+01 -1.341928568376e+01 0.0 
4.825209352360e+01 -1.330491640804e+01 0.0 
4.778118233428e+01 -1.420151961695e+01 0.0 
2.388192727579e+01 -1.826934810142e+01 0.0 
2.381714684947e+01 -4.385917965223e+00 0.0 
3.172733219247e+01 -9.758744265248e+00 0.0 
1.882012070658e+01 -1.805540597212e+01 0.0 
1.805667505243e+01 -1.742221226236e+01 0.0 
2.852599958080e+01 -8.597196079481e+00 0.0 
2.856486123437e+01 -7.661382718527e+00 0.0 
1.111792842875e+01 -1.818223852980e+01 0.0 
2.203322722466e+01 -7.986646678802e+00 0.0 
3.955703676900e+01 -1.903246763601e+01 0.0 
1.944842206513e+01 -8.038750575182e-01 0.0 
1.909882767783e+01 -1.746322740933e+00 0.0 
2.281147422941e+01 -8.525912918334e+00 0.0 
2.850633001468e+01 -9.533271335986e+00 0.0 
2.532883344309e+01 -7.308951659710e+00 0.0 
2.620475466461e+01 -6.979208585400e+00 0.0 
1.396278270396e+01 -1.475095389807e+01 0.0 
9.791001166724e+00 -2.554159793552e+00 0.0 
2.229293380421e+01 -4.269762271052e+00 0.0 
4.677238984118e+01 -1.430071795514e+01 0.0 
2.228658385918e+01 -3.344747535984e+00 0.0 
8.940223674553e-01 -1.543595733415e+01 0.0 
2.118566862474e+01 -8.435876987696e+00 0.0 
2.678325936437e+01 -1.032621195706e+01 0.0 
2.223400220487e+01 -5.179046761770e+00 0.0 
2.375370625384e+01 -7.251580562134e+00 0.0 
3.156971327386e+01 -1.255534750737e+01 0.0 
3.328226391312e+01 -1.172914813316e+01 0.0 
3.250948774219e+01 -1.120157009348e+01 0.0 
2.032993445717e+01 -8.867880112202e+00 0.0 
2.697226974856e+01 -7.536633082045e+00 0.0 
2.707377810386e+01 -6.590835263295e+00 0.0 
2.914099246827e+01 -1.191678458549e+01 0.0 
3.544824072239e+01 -1.621126558525e+01 0.0 
3.456511855436e+01 -1.665054783843e+01 0.0 
3.448395810225e+01 -1.759117813016e+01 0.0 
3.368378673938e+01 -1.708037781328e+01 0.0 
3.375560452567e+01 -1.610973066913e+01 0.0 
3.288001547988e+01 -1.654324255651e+01 0.0 
3.282475929147e+01 -1.749725654692e+01 0.0 
3.199880906313e+01 -1.697294088625e+01 0.0 
3.197001272932e+01 -1.811667776864e+01 0.0 
3.111884713021e+01 -1.742166785755e+01 0.0 
3.120418962865e+01 -1.642155709385e+01 0.0 
3.034666704371e+01 -1.683123833816e+01 0.0 
3.026224379976e+01 -1.772592851714e+01 0.0 
3.046632362943e+01 -1.582232843075e+01 0.0 
1.961344017324e+01 -1.857459447985e+01 0.0 
2.274975894774e+01 -9.532738811922e+00 0.0 
1.833923246887e+01 -2.396746883672e+00 0.0 
1.988859500848e+01 -2.249244376594e+00 0.0 
2.758045562861e+01 -1.086434261689e+01 0.0 
3.247300178163e+01 -1.909930104252e+01 0.0 
3.461947482503e+01 -1.911879848019e+01 0.0 
2.047161538662e+01 -6.941478180358e+00 0.0 
2.750230940214e+01 -1.915490590764e+01 0.0 
3.165081350803e+01 -1.161860780120e+01 0.0 
1.897456727641e+01 -4.889634688522e+00 0.0 
2.549338539756e+01 -1.914858252089e+01 0.0 
3.462873135081e+01 -1.567482276144e+01 0.0 
3.384432415243e+01 -1.512280684518e+01 0.0 
3.471433767690e+01 -1.469086942990e+01 0.0 
3.651470373046e+01 -1.918207952149e+01 0.0 
3.901742690249e+01 -1.345028556517e+01 0.0 
2.153224102692e+01 -1.920169709333e+01 0.0 
1.918382939341e+01 -1.316226275662e+01 0.0 
2.005389162382e+01 -1.271962165174e+01 0.0 
2.011472087878e+01 -1.175029352900e+01 0.0 
3.210679478412e+01 -1.598038618242e+01 0.0 
1.752175226543e+01 -1.914713022656e+01 0.0 
1.696897240059e+01 -1.832772588765e+01 0.0 
1.599682523337e+01 -1.832599992024e+01 0.0 
1.644507199462e+01 -1.743697981535e+01 0.0 
1.549987712903e+01 -1.915192375101e+01 0.0 
3.050250861901e+01 -1.918943550234e+01 0.0 
2.949944061527e+01 -1.922950455235e+01 0.0 
1.375892575273e+01 -6.447160534926e+00 0.0 
1.457223670180e+01 -7.006709243857e+00 0.0 
1.450818793236e+01 -7.965943451779e+00 0.0 
1.538804712402e+01 -7.553409623699e+00 0.0 
1.545817644768e+01 -6.580929593419e+00 0.0 
1.626506893751e+01 -7.129032608911e+00 0.0 
1.619833811522e+01 -8.086588580887e+00 0.0 
1.714448609609e+01 -6.697429609777e+00 0.0 
2.887616543568e+01 -1.668015232137e+01 0.0 
1.349814589130e+01 -1.918225301544e+01 0.0 
1.153887772210e+01 -1.311384581217e+01 0.0 
1.242708159886e+01 -1.267046795531e+01 0.0 
1.249799674267e+01 -1.169005616014e+01 0.0 
6.631723893693e+00 -9.774184881867e+00 0.0 
7.451471631867e+00 -1.033148796006e+01 0.0 
7.377795355458e+00 -1.132196345268e+01 0.0 
5.810931797536e+00 -9.211654212252e+00 0.0 
2.402683899133e+01 -1.441378562320e+01 0.0 
1.249768692036e+01 -1.917388426624e+01 0.0 
1.580373499437e+01 -1.290751860664e+01 0.0 
8.344650507834e+00 -9.898403995170e+00 0.0 
3.750622115305e+01 -1.086526401533e+01 0.0 
3.699391251667e+01 -1.171695900794e+01 0.0 
3.606517829518e+01 -1.173717504500e+01 0.0 
3.650257641795e+01 -1.270047380221e+01 0.0 
3.808951488918e+01 -1.183518714175e+01 0.0 
4.760380962420e+00 -1.162484888315e+01 0.0 
3.861210370848e+00 -1.205657631736e+01 0.0 
3.038284309476e+00 -1.149851280664e+01 0.0 
2.961598794889e+00 -1.248856794980e+01 0.0 
2.138953225512e+00 -1.193212674534e+01 0.0 
2.227383593457e+00 -1.096258903918e+01 0.0 
2.043265419276e+00 -1.292158472959e+01 0.0 
1.252449446028e+00 -1.225502002753e+01 0.0 
3.949985210740e+01 -1.086594001795e+01 0.0 
1.453499444792e+01 -8.768805922472e-01 0.0 
1.403518950933e+01 -1.749965556633e+00 0.0 
1.300715031023e+01 -1.714737233040e+00 0.0 
1.350929389899e+01 -2.527443911291e+00 0.0 
1.449600910711e+01 -2.595486162864e+00 0.0 
1.395693872901e+01 -3.484211041558e+00 0.0 
1.495105865208e+01 -3.364609636216e+00 0.0 
1.508822528740e+01 -1.766586020494e+00 0.0 
1.250223858430e+01 -8.634590186802e-01 0.0 
1.200279523409e+01 -1.709044504992e+00 0.0 
1.150086239419e+01 -8.592789190668e-01 0.0 
1.101482754194e+01 -1.677730591922e+00 0.0 
1.148018564526e+01 -2.659323866909e+00 0.0 
8.800552119754e+00 -3.989875954728e+00 0.0 
3.452790439430e+00 -1.901136170646e+01 0.0 
8.658451825200e-01 -9.503462241795e+00 0.0 
1.694787786797e+00 -9.000589234502e+00 0.0 
1.703436717094e+00 -8.038819004041e+00 0.0 
2.594197971110e+00 -8.563955242845e+00 0.0 
1.630513735412e+00 -9.907244747511e+00 0.0 
8.566859292791e-01 -7.512203837972e+00 0.0 
1.685461277022e+00 -7.164280248030e+00 0.0 
2.506394468801e+00 -8.623386730818e-01 0.0 
2.007475081581e+00 -1.727729545205e+00 0.0 
9.211534699767e-01 -1.628791366312e+00 0.0 
1.500000000020e+00 -2.598063549486e+00 0.0 
2.482078929963e+00 -2.553580088725e+00 0.0 
2.999795253092e+00 -1.732169015019e+00 0.0 
3.999712607169e+00 -1.728832897453e+00 0.0 
4.499752199340e+00 -8.656478679175e-01 0.0 
4.964377774841e+00 -1.730129617941e+00 0.0 
4.425017908337e+00 -2.597541756243e+00 0.0 
5.446573195014e+00 -8.410144840023e-01 0.0 
4.915722346614e+01 -1.550640962770e+01 0.0 
4.826794919243e+01 -1.600000000000e+01 0.0 
1.053139533193e+01 -1.911782884365e+01 0.0 
4.156049861949e+01 -1.095160998589e+01 0.0 
9.494526624416e+00 -8.650570090219e-01 0.0 
4.555762166964e+01 -1.897098103585e+01 0.0 
4.250656411371e+01 -1.914387356218e+01 0.0 
4.350906466345e+01 -1.917234727395e+01 0.0 
8.759665722424e-01 -1.746422130609e+01 0.0 
1.698936011838e+00 -1.795012186674e+01 0.0 
4.742476811029e+01 -1.900090177972e+01 0.0 
7.749196752349e+00 -6.368049313489e+00 0.0 
3.361572113416e+01 -1.798765193915e+01 0.0 
4.484660149212e+01 -1.728661231383e+01 0.0 
1.984038172228e+01 -4.502575320116e+00 0.0 
1.035080352627e+01 -6.166639575753e+00 0.0 
2.753558010652e+00 -1.444909521181e+01 0.0 
7.217069543032e+00 -1.328635391078e+01 0.0 
4.364336727739e+00 -1.655585677381e+01 0.0 
4.595208426108e+00 -1.357919665443e+01 0.0 
6.164967006980e+00 -1.569873454630e+01 0.0 
1.487855768353e+01 -1.826523774028e+01 0.0 
2.791876456372e+00 -4.019632415181e+00 0.0 
4.246464893515e+01 -1.364898659620e+01 0.0 
4.503855590351e+01 -1.329552780944e+01 0.0 
4.407239109604e+01 -1.573900004093e+01 0.0 
5.141054449252e+00 -6.664290382472e+00 0.0 
3.141083947149e+00 -1.055790764912e+01 0.0 
6.196463198741e+00 -4.256497932609e+00 0.0 
2.599618716181e+01 -1.836893455464e+01 0.0 
2.923057372337e+01 -1.098461757645e+01 0.0 
1.168343877486e+01 -1.114079645041e+01 0.0 
6.706222096238e+00 -8.780364234441e+00 0.0 
8.567858614669e+00 -6.943121440850e+00 0.0 
1.123755132901e+01 -5.753525820030e+00 0.0 
2.353456234423e+01 -1.008536320953e+01 0.0 
9.162073319168e+00 -1.045593739109e+01 0.0 
9.676343469685e+00 -1.496493008366e+01 0.0 
4.490637882905e+01 -1.628778970202e+01 0.0 
7.398129387772e+00 -9.639977982323e-01 0.0 
1.049641705805e+01 -1.552503975272e+01 0.0 
9.010356286268e+00 -1.242805042052e+01 0.0 
3.985573925497e+01 -1.399863651620e+01 0.0 
1.816196318262e+01 -1.554066497931e+01 0.0 
1.306332244168e+01 -3.963646550326e+00 0.0 
4.145850903932e+01 -1.608094559275e+01 0.0 
3.794664933633e+01 -1.779020121986e+01 0.0 
3.819614412903e+01 -1.290749321016e+01 0.0 
6.270014188119e+00 -3.255093186826e+00 0.0 
4.251165370388e+01 -1.263870364997e+01 0.0 
1.207347709171e+01 -1.763942826023e+01 0.0 
3.633240829927e+01 -1.577330481104e+01 0.0 
4.319052668832e+00 -6.101812561904e+00 0.0 
1.676492415806e+01 -1.151547901392e+01 0.0 
2.594059220037e+01 -1.074225223009e+01 0.0 
3.340750911501e+01 -9.898764354137e+00 0.0 
4.397619591281e+01 -1.769773736461e+01 0.0 
2.175611595028e+01 -1.185718747128e+01 0.0 
1.641818733106e+01 -1.640685203215e+01 0.0 
1.661211421753e+01 -1.346121366338e+01 0.0 
3.428853504935e+00 -6.551993389271e+00 0.0 
8.700728832502e+00 -1.638460872825e+01 0.0 
1.931369795309e+01 -1.121629383702e+01 0.0 
4.139798872363e+01 -1.706922153459e+01 0.0 
2.647837478700e+01 -1.507353829290e+01 0.0 
1.779469616424e+01 -9.161615782908e+00 0.0 
3.885879219319e+01 -1.642026488918e+01 0.0 
1.338194936770e+01 -1.125916521471e+01 0.0 
1.897071181111e+01 -1.609204322578e+01 0.0 
2.844308548793e+01 -1.046221003096e+01 0.0 
2.659854702194e+01 -1.316109415760e+01 0.0 
2.979604503271e+01 -1.433296157755e+01 0.0 
2.417694041347e+01 -1.251231397779e+01 0.0 
1.807401327411e+00 -1.388891148480e+01 0.0 
9.599810618782e+00 -1.595439365034e+01 0.0 
1.652144692160e+01 -4.205392788472e+00 0.0 
2.367839450246e+01 -8.188385218643e+00 0.0 
3.814894930468e+01 -1.390748338767e+01 0.0 
2.466448215774e+01 -1.685878545680e+01 0.0 
4.134044524611e+01 -1.806610045954e+01 0.0 
2.600511411958e+01 -9.801774120648e+00 0.0 
7.882158050716e+00 -1.582364037353e+01 0.0 
3.881607873422e+01 -1.737970515013e+01 0.0 
8.270182347708e+00 -1.088622154920e+01 0.0 
8.672520392520e-01 -4.532984309881e+00 0.0 
1.993447205337e+01 -3.579061902667e+00 0.0 
1.794616079549e+01 -7.238038888498e+00 0.0 
2.097277068165e+01 -1.132450168636e+01 0.0 
8.194803300681e+00 -1.187214224265e+01 0.0 
3.522279404911e+01 -1.823342818178e+01 0.0 
6.984481050295e+00 -1.625271465557e+01 0.0 
1.309433007797e+01 -1.521718594215e+01 0.0 
2.150246167611e+01 -1.885399038185e+00 0.0 
3.250689370209e+01 -1.028789870535e+01 0.0 
6.085886272238e+00 -1.668342132851e+01 0.0 
1.588455661727e+01 -1.193498985921e+01 0.0 
1.809323400821e+01 -1.651110084195e+01 0.0 
1.348885082381e+00 -1.136065576512e+01 0.0 
2.497670221995e+01 -1.834631276173e+01 0.0 
2.937062818424e+01 -8.233711194470e+00 0.0 
5.185823744469e+00 -1.711566910207e+01 0.0 
1.477497877209e+01 -1.530177014512e+01 0.0 
2.125346158933e+01 -7.473003997367e+00 0.0 
4.751561118290e+01 -1.084897772632e+01 0.0 
5.056026576843e+00 -1.825750475525e+01 0.0 
1.473948554523e+01 -1.634577436309e+01 0.0 
2.410566630936e+01 -1.345970002612e+01 0.0 
1.507337507513e+01 -1.138527895328e+01 0.0 
3.189857338687e+01 -8.887781229006e+00 0.0 
7.298712468334e+00 -1.230231046246e+01 0.0 
2.738235495295e+01 -1.368931690364e+01 0.0 
3.750141041969e+01 -1.920449893070e+01 0.0 
1.557271965640e+01 -1.683317951731e+01 0.0 
3.393731848929e+01 -1.413034777044e+01 0.0 
6.482156824153e+00 -1.174575135362e+01 0.0 
2.077971718439e+01 -1.421279621836e+01 0.0 
3.455084320178e+00 -2.562590040585e+00 0.0 
3.099056096250e+01 -9.270280416035e+00 0.0 
5.580176125418e+00 -1.217387969259e+01 0.0 
1.707247630389e+01 -7.660651981710e+00 0.0 
1.418658814174e+01 -1.180390575393e+01 0.0 
2.049103025389e+01 -1.811296706038e+01 0.0 
4.680386172316e+00 -1.260396879301e+01 0.0 
1.699679896554e+01 -8.624561788199e+00 0.0 
3.779470168555e+00 -1.303424899720e+01 0.0 
3.036589870126e+01 -7.879832518349e+00 0.0 
3.306993001774e+01 -1.457671062095e+01 0.0 
2.840150110165e+00 -1.346530088269e+01 0.0 
2.732011135052e+01 -1.464591214560e+01 0.0 
5.423639259568e+00 -2.659711955016e+00 0.0 
2.324455961696e+01 -1.387269388211e+01 0.0 
1.752768355571e+00 -1.693128613594e+01 0.0 
1.020244783051e+01 -8.076834012808e+00 0.0 
1.330873875224e+01 -1.222417528206e+01 0.0 
3.297727364880e+01 -1.555480372087e+01 0.0 
2.890929955439e+01 -6.868664170731e+00 0.0 
1.323294664622e+01 -1.320754260334e+01 0.0 
2.726532861246e+01 -1.560593120806e+01 0.0 
2.240020643398e+01 -1.429299177247e+01 0.0 
2.090445823633e+01 -1.228128621332e+01 0.0 
1.315809881502e+01 -1.420739326938e+01 0.0 
2.781328038068e+01 -7.181956082300e+00 0.0 
8.614200829057e+00 -5.936933226306e+00 0.0 
8.714765730069e+00 -4.979270529687e+00 0.0 
1.611881701099e+01 -9.041973294003e+00 0.0 
2.806830314340e+01 -1.614622947108e+01 0.0 
2.084435391396e+00 -3.385085422913e+00 0.0 
3.133211811152e+01 -1.542347619750e+01 0.0 
9.693114650768e+00 -3.590281506442e+00 0.0 
1.531883592202e+01 -8.504584946143e+00 0.0 
2.151589117094e+01 -1.578915763018e+01 0.0 
4.918943882696e+01 -1.355538828056e+01 0.0 
1.443236615188e+01 -8.918701794549e+00 0.0 
8.276250966452e-01 -5.537685192197e+00 0.0 
1.362790867918e+01 -8.374718262212e+00 0.0 
2.083767477370e+01 -1.324843956035e+01 0.0 
1.273834678703e+01 -8.790890389337e+00 0.0 
1.192275845670e+01 -8.242261327467e+00 0.0 
4.477236023583e+01 -1.824312396664e+01 0.0 
1.102989384254e+01 -8.649855800911e+00 0.0 
4.849096516045e+01 -1.917293752213e+01 0.0 
1.588996752238e+00 -1.910230934687e+01 0.0 
4.904245197583e+01 -1.159839008158e+01 0.0 
2.753852929608e+01 -5.782128488093e+00 0.0 
1.756133602833e+01 -8.306130313187e-01 0.0 
2.615423700951e+01 -6.153865090092e+00 0.0 
1.028818761294e+01 -7.122020845892e+00 0.0 
2.970818901196e+01 -1.527821347593e+01 0.0 
4.801461623449e+01 -1.164472570985e+01 0.0 
9.455722100419e+00 -6.546069291118e+00 0.0 
3.089099236677e+01 -1.835339328261e+01 0.0 
2.350000000013e+01 -1.920825896750e+01 0.0 
4.830620531887e+01 -1.506626155470e+01 0.0 
1.725381944701e+01 -1.688794487850e+01 0.0 
2.156246225273e+01 -1.475893794002e+01 0.0 
4.919319648787e+01 -1.742767505896e+01 0.0 
4.437935623576e+01 -1.077662927266e+01 0.0 
1.001520521978e+01 -1.652692675208e+00 0.0 
9.067160240050e-01 -1.441937727541e+01 0.0 
2.603365149390e+01 -4.755996613848e+00 0.0 
2.458344439002e+01 -4.873645517696e+00 0.0 
2.304312390142e+01 -3.836552768096e+00 0.0 
2.546923202198e+00 -6.902480355749e+00 0.0 
1.251534969393e+01 -2.490989965776e+00 0.0 
2.454061833377e+01 -3.933354231935e+00 0.0 
1.788186558740e+01 -1.827424884923e+01 0.0 
4.090785243552e+01 -1.166553231904e+01 0.0 
2.230128851568e+01 -1.623015738726e+01 0.0 
2.302362347568e+01 -2.916239960270e+00 0.0 
3.878119254461e+01 -1.830091164002e+01 0.0 
2.210081359958e+01 -1.829238229150e+01 0.0 
8.443704882233e+00 -1.921993252862e+01 0.0 
2.218405824691e+01 -1.724557581508e+01 0.0 
2.151157503963e+01 -2.790636689331e+00 0.0 
3.741658958955e+01 -1.250400191722e+01 0.0 
2.697247663737e+01 -1.838290202309e+01 0.0 
4.743362342862e+01 -1.585850773010e+01 0.0 
6.671345075358e+00 -1.924977576322e+01 0.0 
3.900825404537e+01 -1.157220003875e+01 0.0 
4.649692961375e+01 -1.836335837481e+01 0.0 
1.578831424832e+01 -3.678284023361e+00 0.0 
4.814208768888e+01 -1.841249298770e+01 0.0 
2.964123298315e+01 -1.625739458193e+01 0.0 
4.580760351902e+01 -1.284294554687e+01 0.0 
3.561520879615e+01 -1.245548941949e+01 0.0 
2.555418095658e+00 -1.841101588290e+01 0.0 
3.288468366144e+01 -1.834258164109e+01 0.0 
2.065894391445e+01 -2.240688571739e+00 0.0 
4.739171429915e+01 -1.496536413446e+01 0.0 
3.478086729185e+00 -8.576434653209e+00 0.0 
1.606010630246e+01 -1.588421807951e+00 0.0 
1.018329200594e+01 -1.834320874317e+01 0.0 
2.957213339430e+01 -1.720496954591e+01 0.0 
4.142712790164e+00 -1.837794506222e+01 0.0 
6.698721532573e-01 -2.499999999997e+00 0.0 
8.037039123140e+00 -1.571229354954e+00 0.0 
1.203541361428e+01 -1.847784298001e+01 0.0 
2.899968332038e+01 -1.848264722179e+01 0.0 
1.469229460948e+01 -4.219485753730e+00 0.0 
4.049590781957e+01 -1.932812501995e+01 0.0 
1.996211678340e+01 -1.506329754720e+00 0.0 
4.250588298353e+01 -1.067383247529e+01 0.0 
5.831497011152e+00 -1.635396227234e+00 0.0 
5.317606125670e+00 -1.923927974868e+01 0.0 
4.208546426993e+01 -1.842830665025e+01 0.0 
2.327553405011e+00 -9.459409929662e+00 0.0 
3.568351902251e+01 -1.096637218582e+01 0.0 
1.682104374890e+00 -6.231413350963e+00 0.0 
2.451812238018e+01 -1.766524914339e+01 0.0 
1.058003429638e+01 -2.391839617098e+00 0.0 
4.399988753123e+01 -1.851998776342e+01 0.0 
1.400000000010e+01 -1.852293523028e+01 0.0 
3.604719565984e+01 -1.850662876800e+01 0.0 
1.951297136734e+01 -1.938092349694e+01 0.0 
1.821365318472e+01 -1.531276353287e+00 0.0 
2.298031859732e+01 -1.854635324722e+01 0.0 
1.552168066204e+01 -1.764280741977e+01 0.0 
4.572957713638e+01 -1.073347898229e+01 0.0 
3.429637429624e+01 -1.838861552790e+01 0.0 
2.427434426052e+00 -7.705577451869e+00 0.0 
4.662792031485e+00 -3.359424455416e+00 0.0 
4.926794919243e+01 -1.926794919243e+01 0.0 
7.320508075690e-01 -7.320508075688e-01 0.0 
4.926794919243e+01 -1.073205080757e+01 0.0 
7.320508075705e-01 -1.926794919243e+01 0.0 
2.917460242467e+00 -3.202866455310e+00 0.0 
4.838200575963e+01 -1.232674147454e+01 0.0 
2.998445708009e+01 -1.854403752148e+01 0.0 
5.949940090766e-01 -1.152762038165e+01 0.0 
4.844763495759e+01 -1.678092548787e+01 0.0 
1.301685480160e+01 -3.170056592566e+00 0.0 
1.650046335855e+01 -6.731535384067e-01 0.0 
4.854881540991e+01 -1.405224059779e+01 0.0 
2.119545114693e+01 -1.846813384545e+01 0.0 
3.797852849897e+01 -1.857978513215e+01 0.0 
4.649823708745e+01 -1.338351810816e+01 0.0 
2.012685900976e+01 -2.889659035009e+00 0.0 
2.953271913273e+01 -1.791558075192e+01 0.0 
2.408509097292e+00 -1.021949208421e+01 0.0 
2.642589566221e+01 -1.773216561448e+01 0.0 
1.730010270775e+01 -1.763165076721e+01 0.0 
2.017406551304e+01 -8.513536440582e-01 0.0 
5.254761581934e-01 -1.249999999999e+01 0.0 
6.640448215642e+00 -1.545337834885e+00 0.0 
7.843361506349e+00 -1.852719839527e+01 0.0 
1.588442191088e+00 -1.066158564320e+01 0.0 
2.280866189488e+01 -1.416779325160e+00 0.0 
4.950862068966e+01 -1.500000000000e+00 0.0 
2.431250000000e+01 -2.420918367347e+00 0.0 
4.950961538461e+01 -2.500000000000e+00 0.0 
2.580823483239e+01 -3.416278049680e+00 0.0 
4.950961538461e+01 -3.500000000000e+00 0.0 
2.731250000000e+01 -4.420918367347e+00 0.0 
4.951086956522e+01 -4.500000000000e+00 0.0 
2.880770112393e+01 -5.415638864241e+00 0.0 
4.951086956522e+01 -5.500000000000e+00 0.0 
3.031250000000e+01 -6.420918367347e+00 0.0 
4.951250000000e+01 -6.500000000000e+00 0.0 
3.180701530612e+01 -7.414795918363e+00 0.0 
4.951250000000e+01 -7.500000000000e+00 0.0 
3.331250000000e+01 -8.420918367347e+00 0.0 
4.951470588234e+01 -8.500000000000e+00 0.0 
3.480610198624e+01 -9.413633635267e+00 0.0 
4.951470588234e+01 -9.500000000000e+00 0.0 

CELLS 2360 9440 
3 384 854 1130 
3 854 384 1132 
3 864 357 875 
3 977 742 1166 
3 744 804 970 
3 834 747 873 
3 364 786 788 
3 384 811 1132 
3 786 364 804 
3 737 972 1166 
3 356 931 932 
3 811 384 1146 
3 976 1128 1172 
3 793 924 1014 
3 1128 390 1172 
3 383 977 1166 
3 792 363 933 
3 747 834 872 
3 371 791 1113 
3 791 371 1051 
3 972 737 1125 
3 1102 348 1108 
3 829 1102 1108 
3 779 778 988 
3 478 634 923 
3 931 356 1040 
3 114 82 1193 
3 823 349 1065 
3 476 478 923 
3 988 778 1198 
3 728 938 940 
3 381 794 971 
3 864 875 1173 
3 19 369 844 
3 379 798 800 
3 807 66 1164 
3 66 807 1190 
3 826 375 870 
3 790 105 1143 
3 105 790 1204 
3 1066 808 1092 
3 344 830 969 
3 1147 345 1151 
3 82 393 1193 
3 785 392 1142 
3 824 1147 1151 
3 938 728 941 
3 392 785 1168 
3 934 935 941 
3 924 793 1165 
3 386 829 1066 
3 776 791 1051 
3 554 1167 1185 
3 386 1066 1092 
3 876 358 1056 
3 1149 721 1194 
3 776 1051 1120 
3 369 814 844 
3 637 965 1083 
3 972 383 1166 
3 343 1177 1218 
3 1157 783 1159 
3 603 631 837 
3 1167 940 1185 
3 948 767 1172 
3 829 386 1102 
3 1177 787 1218 
3 357 864 1137 
3 664 625 946 
3 353 812 878 
3 1040 983 1094 
3 33 32 832 
3 823 1065 1195 
3 4 5 958 
3 955 1149 1194 
3 795 360 1046 
3 876 1056 1205 
3 843 1148 1155 
3 965 637 1207 
3 1148 385 1155 
3 625 638 946 
3 363 792 1153 
3 348 854 1108 
3 854 348 1130 
3 804 744 1016 
3 786 804 1016 
3 815 1040 1145 
3 18 19 844 
3 869 866 1114 
3 744 970 1153 
3 971 794 1144 
3 395 922 1193 
3 968 1139 1163 
3 1163 1139 1175 
3 361 33 832 
3 870 375 1200 
3 792 933 1165 
3 969 830 1178 
3 389 821 1118 
3 837 631 838 
3 970 804 1188 
3 390 948 1172 
3 551 1117 1141 
3 782 1157 1159 
3 672 670 848 
3 935 938 941 
3 975 976 1098 
3 741 968 1163 
3 343 934 941 
3 1071 366 1190 
3 516 869 1114 
3 4 958 1209 
3 739 835 871 
3 706 1022 1060 
3 750 952 1176 
3 810 837 838 
3 605 603 837 
3 379 800 1158 
3 821 389 1213 
3 809 605 837 
3 840 770 1115 
3 393 395 1193 
3 968 741 1216 
3 605 809 848 
3 1160 1059 1174 
3 825 1075 1084 
3 952 750 1206 
3 1075 350 1084 
3 360 795 1186 
3 772 1160 1174 
3 931 1040 1094 
3 742 977 1168 
3 679 736 836 
3 350 808 1084 
3 798 379 1178 
3 976 733 1128 
3 815 983 1040 
3 836 736 1036 
3 780 908 1198 
3 712 828 836 
3 762 973 974 
3 812 353 1184 
3 1014 924 1161 
3 621 593 842 
3 828 679 836 
3 808 350 1092 
3 736 874 1036 
3 848 674 1043 
3 364 788 1143 
3 835 470 871 
3 794 381 1182 
3 1129 1135 1213 
3 959 371 1113 
3 387 825 1060 
3 908 780 917 
3 809 672 848 
3 844 815 1145 
3 811 345 1147 
3 1117 777 1141 
3 370 816 817 
3 831 470 835 
3 814 369 1098 
3 664 840 1115 
3 976 735 1098 
3 851 724 879 
3 366 1071 1180 
3 1129 734 1135 
3 670 674 848 
3 1022 387 1060 
3 356 932 1229 
3 345 811 1146 
3 470 831 845 
3 593 644 842 
3 816 370 1204 
3 674 835 1043 
3 825 387 1075 
3 718 907 1112 
3 952 653 1176 
3 349 823 1138 
3 878 812 1162 
3 810 838 1132 
3 653 952 1192 
3 895 1025 1079 
3 828 712 1066 
3 811 810 1132 
3 851 706 1060 
3 835 739 1043 
3 359 972 1125 
3 482 891 1101 
3 369 975 1098 
3 824 385 1148 
3 680 845 1069 
3 866 891 1114 
3 81 115 833 
3 712 808 1066 
3 1068 740 1072 
3 964 1096 1189 
3 979 372 1205 
3 477 402 884 
3 1099 458 1126 
3 588 1068 1072 
3 922 395 1171 
3 923 634 1161 
3 778 780 1198 
3 1109 1000 1136 
3 846 417 874 
3 676 566 879 
3 483 477 884 
3 673 851 879 
3 724 851 1060 
3 622 1082 1122 
3 907 756 1112 
3 833 367 834 
3 838 854 1132 
3 838 631 853 
3 736 846 874 
3 891 861 1101 
3 747 746 1052 
3 740 839 1058 
3 790 816 1204 
3 845 831 1069 
3 536 1058 1107 
3 796 1006 1230 
3 882 483 884 
3 1006 352 1230 
3 964 965 1096 
3 385 824 1151 
3 1109 752 1110 
3 856 483 882 
3 752 751 1110 
3 732 841 847 
3 558 939 1011 
3 770 947 1115 
3 1025 588 1079 
3 724 676 879 
3 767 948 1180 
3 115 367 833 
3 641 671 847 
3 431 470 845 
3 829 828 1066 
3 839 740 1068 
3 807 1071 1190 
3 1093 482 1101 
3 540 522 877 
3 588 1072 1079 
3 1040 356 1145 
3 874 484 1036 
3 883 884 1080 
3 783 1157 1202 
3 431 845 852 
3 671 732 847 
3 401 673 849 
3 832 32 1186 
3 417 846 1021 
3 890 433 1029 
3 817 816 818 
3 946 638 1150 
3 673 850 851 
3 640 540 877 
3 746 880 981 
3 728 940 1167 
3 483 856 1018 
3 566 849 879 
3 605 848 1043 
3 856 695 1018 
3 891 482 1114 
3 484 855 997 
3 351 805 1164 
3 681 890 1029 
3 409 675 855 
3 739 871 1002 
3 681 889 890 
3 523 539 880 
3 921 362 922 
3 435 432 852 
3 552 903 904 
3 883 1093 1101 
3 115 116 367 
3 673 399 850 
3 522 520 877 
3 596 641 847 
3 525 523 880 
3 404 401 849 
3 794 840 1144 
3 632 722 853 
3 681 888 889 
3 849 673 879 
3 921 922 923 
3 642 747 872 
3 552 904 906 
3 553 556 903 
3 838 853 854 
3 883 1080 1093 
3 631 632 853 
3 518 435 852 
3 845 680 852 
3 642 746 747 
3 871 427 1002 
3 771 841 843 
3 37 358 876 
3 39 372 875 
3 418 417 1021 
3 539 522 540 
3 595 596 654 
3 410 409 855 
3 539 540 595 
3 552 553 903 
3 484 997 1036 
3 973 762 1191 
3 877 680 1069 
3 1082 738 1122 
3 771 654 841 
3 376 57 896 
3 595 540 596 
3 415 484 874 
3 642 546 746 
3 918 611 1026 
3 432 431 852 
3 556 900 903 
3 675 566 676 
3 42 897 898 
3 520 518 680 
3 681 509 888 
3 655 654 771 
3 886 571 1009 
3 1058 839 1107 
3 671 672 730 
3 745 886 1009 
3 374 45 878 
3 648 740 1058 
3 41 357 897 
3 1014 634 1044 
3 869 516 1134 
3 732 730 824 
3 677 676 709 
3 409 566 675 
3 409 407 566 
3 485 1021 1047 
3 349 47 881 
3 476 923 1171 
3 850 706 851 
3 680 518 852 
3 751 947 1110 
3 709 724 825 
3 671 670 672 
3 370 817 1070 
3 556 899 900 
3 520 680 877 
3 860 882 883 
3 641 670 671 
3 675 676 677 
3 509 511 888 
3 684 911 998 
3 50 373 887 
3 712 710 808 
3 524 526 906 
3 765 1099 1126 
3 731 810 811 
3 730 672 731 
3 866 863 891 
3 415 413 484 
3 722 828 829 
3 677 709 710 
3 54 375 892 
3 375 826 1152 
3 863 861 891 
3 883 882 884 
3 911 451 998 
3 603 604 631 
3 523 522 539 
3 521 520 522 
3 417 415 874 
3 698 918 1026 
3 466 912 913 
3 859 857 860 
3 526 552 906 
3 600 485 601 
3 855 675 997 
3 602 601 603 
3 357 40 875 
3 372 38 876 
3 372 979 1173 
3 684 910 911 
3 695 597 1018 
3 671 730 732 
3 519 518 520 
3 746 546 880 
3 632 679 722 
3 920 921 924 
3 886 1014 1044 
3 896 894 988 
3 867 866 869 
3 401 399 673 
3 408 407 409 
3 546 525 880 
3 943 945 946 
3 470 429 871 
3 423 421 485 
3 429 427 871 
3 340 1059 1160 
3 817 818 819 
3 947 751 1115 
3 596 640 641 
3 57 56 896 
3 530 532 622 
3 394 706 850 
3 371 959 1181 
3 1021 846 1047 
3 431 429 470 
3 407 404 849 
3 353 43 898 
3 709 676 724 
3 413 410 855 
3 466 913 919 
3 857 856 882 
3 684 909 910 
3 44 353 878 
3 41 40 357 
3 37 36 358 
3 39 38 372 
3 406 404 407 
3 860 857 882 
3 865 863 866 
3 603 601 604 
3 631 604 632 
3 915 912 999 
3 859 860 861 
3 46 374 881 
3 774 695 856 
3 888 622 889 
3 774 856 857 
3 615 613 916 
3 423 485 600 
3 722 679 828 
3 595 654 655 
3 361 832 1156 
3 602 603 605 
3 996 715 1065 
3 912 466 999 
3 557 560 899 
3 376 896 988 
3 641 669 670 
3 42 41 897 
3 372 876 1205 
3 414 413 415 
3 943 944 945 
3 44 43 353 
3 341 892 893 
3 556 557 899 
3 511 530 888 
3 347 51 887 
3 123 342 944 
3 600 601 602 
3 412 410 413 
3 416 415 417 
3 484 413 855 
3 654 596 847 
3 46 45 374 
3 517 435 518 
3 643 642 872 
3 805 351 1231 
3 944 342 945 
3 711 710 712 
3 938 939 940 
3 825 724 1060 
3 341 55 892 
3 48 47 349 
3 566 407 849 
3 935 937 938 
3 784 643 872 
3 938 937 939 
3 1028 726 1041 
3 920 362 921 
3 396 394 850 
3 50 49 373 
3 378 920 924 
3 358 36 885 
3 618 615 916 
3 745 793 886 
3 731 809 810 
3 530 622 888 
3 746 981 1052 
3 52 51 347 
3 40 39 875 
3 38 37 876 
3 684 492 909 
3 487 489 915 
3 423 600 1002 
3 492 494 909 
3 54 53 375 
3 596 540 640 
3 903 902 904 
3 900 901 902 
3 635 745 1009 
3 58 376 908 
3 935 936 937 
3 56 55 341 
3 899 764 900 
3 43 42 898 
3 865 866 867 
3 122 123 944 
3 600 739 1002 
3 694 597 695 
3 45 44 878 
3 406 407 408 
3 661 618 662 
3 655 771 772 
3 894 893 895 
3 656 763 764 
3 900 764 901 
3 934 377 935 
3 47 46 881 
3 880 539 981 
3 648 696 740 
3 745 792 793 
3 982 714 1001 
3 900 902 903 
3 408 409 410 
3 51 50 887 
3 489 591 915 
3 500 536 606 
3 420 418 421 
3 759 652 760 
3 904 902 905 
3 909 606 910 
3 421 418 1021 
3 757 614 1031 
3 530 531 532 
3 422 421 423 
3 459 461 919 
3 641 640 669 
3 487 915 999 
3 662 618 916 
3 486 509 681 
3 56 341 896 
3 773 695 774 
3 657 982 1001 
3 55 54 892 
3 341 893 894 
3 428 427 429 
3 935 377 936 
3 59 908 917 
3 858 857 859 
3 560 656 899 
3 58 57 376 
3 494 500 909 
3 632 678 679 
3 399 396 850 
3 486 681 1029 
3 490 684 998 
3 652 611 918 
3 884 402 1080 
3 711 836 1036 
3 532 550 551 
3 819 818 820 
3 461 466 919 
3 511 513 530 
3 656 713 763 
3 683 505 984 
3 121 122 942 
3 670 669 674 
3 656 764 899 
3 912 754 913 
3 426 424 427 
3 500 606 909 
3 635 743 745 
3 560 623 656 
3 59 58 908 
3 412 413 414 
3 682 753 754 
3 414 415 416 
3 682 754 912 
3 942 122 944 
3 398 396 399 
3 951 950 952 
3 352 128 966 
3 591 646 682 
3 500 535 536 
3 980 650 1005 
3 760 918 1062 
3 760 652 918 
3 394 354 706 
3 378 112 920 
3 775 885 1078 
3 416 417 418 
3 128 129 966 
3 770 690 947 
3 936 942 943 
3 752 1109 1136 
3 668 718 1112 
3 748 980 1005 
3 545 1028 1041 
3 469 467 978 
3 507 505 683 
3 648 659 696 
3 565 546 642 
3 382 950 951 
3 355 954 955 
3 344 60 917 
3 60 59 917 
3 950 949 953 
3 682 646 753 
3 490 492 684 
3 696 778 779 
3 690 609 947 
3 543 628 648 
3 964 962 965 
3 591 682 915 
3 913 754 914 
3 368 961 962 
3 382 949 950 
3 694 695 773 
3 129 130 963 
3 113 362 920 
3 113 114 362 
3 611 515 1026 
3 355 10 954 
3 656 623 713 
3 841 654 847 
3 801 799 802 
3 881 374 996 
3 685 579 1012 
3 731 672 809 
3 794 770 840 
3 677 710 711 
3 109 363 970 
3 108 109 970 
3 129 963 966 
3 963 962 964 
3 957 959 960 
3 533 474 608 
3 368 956 961 
3 949 346 953 
3 343 119 934 
3 474 469 978 
3 822 820 842 
3 111 112 378 
3 718 813 907 
3 494 499 500 
3 819 820 821 
3 10 11 954 
3 957 960 961 
3 30 29 973 
3 360 30 973 
3 745 743 792 
3 363 110 933 
3 954 951 955 
3 28 359 974 
3 608 474 978 
3 112 113 920 
3 111 378 933 
3 709 825 1084 
3 36 35 885 
3 973 29 974 
3 368 962 963 
3 130 368 963 
3 769 690 770 
3 913 914 1050 
3 975 733 976 
3 118 119 343 
3 380 967 968 
3 120 377 934 
3 651 611 652 
3 120 121 377 
3 119 120 934 
3 758 652 759 
3 704 767 768 
3 821 820 822 
3 997 711 1036 
3 956 957 961 
3 506 507 986 
3 25 24 977 
3 383 25 977 
3 110 111 933 
3 587 515 611 
3 29 28 974 
3 661 662 777 
3 957 958 959 
3 956 391 957 
3 957 391 958 
3 11 12 382 
3 390 69 948 
3 80 79 392 
3 132 391 956 
3 13 346 949 
3 70 69 390 
3 68 366 948 
3 61 344 969 
3 76 365 967 
3 78 77 380 
3 69 68 948 
3 68 67 366 
3 380 77 967 
3 132 133 391 
3 106 107 364 
3 109 110 363 
3 368 131 956 
3 65 64 351 
3 379 62 969 
3 63 62 379 
3 131 132 956 
3 130 131 368 
3 61 60 344 
3 62 61 969 
3 76 75 365 
3 103 104 370 
3 77 76 967 
3 74 73 389 
3 101 102 734 
3 127 128 352 
3 125 126 381 
3 124 125 971 
3 123 124 342 
3 13 14 346 
3 12 13 949 
3 125 381 971 
3 16 17 356 
3 342 124 971 
3 34 33 361 
3 28 27 359 
3 31 30 360 
3 6 7 371 
3 9 10 355 
3 27 26 972 
3 19 20 369 
3 26 25 383 
3 20 21 975 
3 21 22 733 
3 382 12 949 
3 359 27 972 
3 26 383 972 
3 369 20 975 
3 21 733 975 
3 598 599 983 
3 377 121 942 
3 489 590 591 
3 963 964 966 
3 801 802 803 
3 682 912 915 
3 564 548 985 
3 533 608 609 
3 1096 797 1189 
3 704 768 985 
3 591 592 646 
3 382 951 954 
3 548 610 985 
3 741 742 785 
3 11 382 954 
3 536 535 543 
3 498 496 549 
3 598 547 599 
3 666 598 983 
3 517 518 519 
3 711 712 836 
3 427 424 1002 
3 506 505 507 
3 610 703 704 
3 814 666 815 
3 657 751 752 
3 729 650 737 
3 645 594 650 
3 790 789 816 
3 504 502 505 
3 547 506 986 
3 741 729 742 
3 645 729 741 
3 549 496 1008 
3 704 735 767 
3 607 579 685 
3 814 815 844 
3 805 803 806 
3 737 650 980 
3 584 582 585 
3 500 499 535 
3 544 626 627 
3 563 649 657 
3 769 770 794 
3 936 377 942 
3 645 650 729 
3 704 703 735 
3 943 942 944 
3 862 861 863 
3 788 688 789 
3 534 548 564 
3 610 666 703 
3 713 714 765 
3 703 666 814 
3 788 789 790 
3 530 513 531 
3 805 806 807 
3 776 658 791 
3 800 799 801 
3 593 585 594 
3 627 658 721 
3 657 752 982 
3 929 927 930 
3 581 583 687 
3 468 472 487 
3 644 594 645 
3 584 593 621 
3 753 646 925 
3 815 666 983 
3 610 598 666 
3 593 594 644 
3 586 538 624 
3 646 592 647 
3 619 705 781 
3 585 992 1005 
3 591 590 592 
3 498 549 984 
3 798 726 799 
3 584 585 593 
3 727 643 784 
3 701 796 797 
3 527 525 546 
3 610 704 985 
3 583 582 584 
3 931 929 932 
3 687 688 786 
3 648 628 659 
3 925 647 926 
3 548 598 610 
3 627 626 658 
3 801 803 805 
3 646 647 925 
3 721 658 776 
3 647 592 994 
3 487 488 489 
3 473 469 474 
3 928 929 931 
3 127 352 1006 
3 381 126 1006 
3 599 547 986 
3 544 586 626 
3 504 505 506 
3 505 502 984 
3 461 465 466 
3 560 561 623 
3 607 685 686 
3 873 747 1223 
3 489 589 590 
3 696 659 778 
3 626 586 637 
3 687 583 688 
3 786 688 788 
3 689 609 690 
3 725 692 726 
3 578 576 579 
3 544 538 586 
3 761 685 1030 
3 686 685 761 
3 481 538 544 
3 810 809 837 
3 475 474 533 
3 548 547 598 
3 926 927 928 
3 774 857 858 
3 607 686 748 
3 534 506 547 
3 504 506 534 
3 533 609 689 
3 534 547 548 
3 578 579 580 
3 928 927 929 
3 581 582 583 
3 580 579 607 
3 433 434 1029 
3 992 748 1005 
3 592 653 994 
3 926 647 927 
3 589 488 749 
3 463 460 464 
3 581 580 582 
3 455 457 490 
3 473 475 481 
3 701 690 769 
3 578 580 581 
3 473 474 475 
3 798 799 800 
3 585 582 992 
3 534 564 987 
3 341 894 896 
3 592 590 653 
3 481 475 538 
3 689 690 701 
3 503 502 504 
3 584 621 991 
3 701 769 796 
3 487 472 488 
3 791 658 989 
3 581 687 990 
3 489 488 589 
3 502 498 984 
3 589 749 750 
3 650 594 1005 
3 472 469 473 
3 497 501 545 
3 657 649 751 
3 501 498 502 
3 930 927 994 
3 503 504 987 
3 904 905 1086 
3 658 626 989 
3 789 688 991 
3 651 652 758 
3 601 485 1047 
3 583 584 991 
3 563 657 1001 
3 575 577 635 
3 626 637 989 
3 802 799 1028 
3 587 611 651 
3 532 531 550 
3 686 761 762 
3 490 491 492 
3 624 538 995 
3 495 493 496 
3 725 726 798 
3 713 623 714 
3 504 534 987 
3 582 580 992 
3 557 559 560 
3 497 496 498 
3 743 636 744 
3 627 721 1027 
3 468 469 472 
3 420 421 422 
3 501 502 503 
3 632 604 678 
3 422 423 424 
3 577 576 578 
3 688 583 991 
3 635 636 743 
3 927 647 994 
3 665 567 692 
3 492 493 494 
3 687 786 1016 
3 864 863 865 
3 551 550 619 
3 497 498 501 
3 580 607 992 
3 461 463 465 
3 465 467 468 
3 533 689 995 
3 494 495 499 
3 468 487 999 
3 577 578 990 
3 635 577 636 
3 437 439 486 
3 978 467 1000 
3 519 520 521 
3 468 467 469 
3 465 463 467 
3 475 533 995 
3 543 567 628 
3 456 454 458 
3 607 748 992 
3 452 454 455 
3 494 493 495 
3 490 457 491 
3 426 427 428 
3 538 475 995 
3 665 692 725 
3 665 725 830 
3 612 614 757 
3 461 460 463 
3 492 491 493 
3 578 581 990 
3 466 465 999 
3 600 602 739 
3 472 473 993 
3 623 561 1001 
3 459 460 461 
3 473 481 993 
3 544 627 1019 
3 491 457 691 
3 495 496 497 
3 630 667 668 
3 126 127 1006 
3 448 446 449 
3 452 450 453 
3 459 458 460 
3 636 577 990 
3 455 456 457 
3 488 472 993 
3 456 458 459 
3 594 585 1005 
3 749 488 993 
3 701 797 1015 
3 995 689 1015 
3 714 623 1001 
3 463 464 1000 
3 448 450 451 
3 455 454 456 
3 563 625 649 
3 624 995 1015 
3 886 793 1014 
3 993 481 1019 
3 543 535 567 
3 616 629 630 
3 400 399 401 
3 639 573 660 
3 668 717 718 
3 434 437 1029 
3 614 616 1031 
3 561 562 563 
3 459 919 1003 
3 430 429 431 
3 553 555 556 
3 625 562 638 
3 465 468 999 
3 452 453 454 
3 451 450 452 
3 749 993 1019 
3 455 490 998 
3 448 449 450 
3 444 446 447 
3 467 463 1000 
3 514 512 515 
3 575 576 577 
3 444 442 445 
3 628 567 665 
3 560 559 561 
3 778 659 780 
3 451 452 998 
3 718 812 813 
3 411 410 412 
3 561 563 1001 
3 403 401 404 
3 693 597 694 
3 451 911 1034 
3 674 831 835 
3 405 404 406 
3 485 421 1021 
3 563 562 625 
3 795 766 832 
3 649 625 664 
3 826 720 827 
3 980 748 1023 
3 537 515 587 
3 990 687 1016 
3 574 573 639 
3 447 446 448 
3 486 508 509 
3 723 660 766 
3 497 545 1004 
3 572 574 575 
3 651 758 839 
3 561 559 562 
3 572 570 573 
3 881 996 1065 
3 665 830 1017 
3 456 459 1003 
3 636 990 1016 
3 744 636 1016 
3 452 455 998 
3 499 495 1004 
3 535 499 1007 
3 689 701 1015 
3 521 522 523 
3 440 442 443 
3 444 445 446 
3 424 423 1002 
3 723 766 795 
3 859 861 862 
3 748 686 1023 
3 679 678 736 
3 569 541 597 
3 495 497 1004 
3 761 1030 1046 
3 542 570 571 
3 457 456 1003 
3 440 438 441 
3 572 573 574 
3 639 660 723 
3 579 576 1012 
3 575 574 576 
3 726 692 1041 
3 719 633 720 
3 692 567 1007 
3 496 493 1008 
3 808 710 1084 
3 514 537 568 
3 479 477 483 
3 481 544 1019 
3 443 442 444 
3 760 1062 1074 
3 509 510 511 
3 526 528 552 
3 440 441 442 
3 511 512 513 
3 677 711 997 
3 691 457 1003 
3 571 886 1044 
3 804 364 1188 
3 84 331 340 
3 493 491 1008 
3 537 587 588 
3 858 859 979 
3 486 439 508 
3 491 691 1008 
3 575 635 1009 
3 85 332 385 
3 514 515 537 
3 510 508 698 
3 675 677 997 
3 499 1004 1007 
3 556 555 557 
3 567 535 1007 
3 659 628 1017 
3 513 512 514 
3 576 574 1012 
3 620 618 661 
3 628 665 1017 
3 86 333 345 
3 571 572 1009 
3 781 705 782 
3 574 639 1012 
3 511 510 512 
3 439 438 440 
3 1081 753 1085 
3 565 642 643 
3 685 1012 1030 
3 1019 627 1027 
3 87 334 384 
3 617 615 618 
3 686 762 1023 
3 557 558 559 
3 419 418 420 
3 571 570 572 
3 1050 914 1055 
3 552 528 553 
3 674 669 831 
3 638 562 1011 
3 557 555 558 
3 559 558 1011 
3 509 508 510 
3 885 35 1078 
3 88 335 348 
3 799 726 1028 
3 436 435 517 
3 480 542 1044 
3 527 546 565 
3 780 659 1017 
3 562 559 1011 
3 750 749 1027 
3 531 513 1010 
3 448 451 1034 
3 619 633 705 
3 602 605 1043 
3 479 483 1018 
3 719 720 826 
3 572 575 1009 
3 859 862 979 
3 570 569 1033 
3 569 597 693 
3 539 595 981 
3 802 1028 1048 
3 542 569 570 
3 433 890 1054 
3 89 336 386 
3 719 826 870 
3 524 523 525 
3 749 1019 1027 
3 619 550 633 
3 371 7 1051 
3 425 424 426 
3 514 568 1010 
3 693 694 1013 
3 694 773 775 
3 513 514 1010 
3 660 573 1033 
3 434 432 435 
3 616 630 1031 
3 90 337 350 
3 865 867 868 
3 91 338 387 
3 339 91 1022 
3 437 486 1029 
3 82 339 354 
3 707 462 708 
3 428 429 430 
3 440 443 1020 
3 553 528 554 
3 437 438 439 
3 639 723 1030 
3 862 863 864 
3 545 501 1048 
3 705 633 719 
3 447 448 1034 
3 569 693 1033 
3 439 440 1020 
3 803 802 1057 
3 573 570 1033 
3 597 541 1018 
3 515 512 1026 
3 434 436 437 
3 630 629 667 
3 408 410 411 
3 553 554 555 
3 524 525 526 
3 739 602 1043 
3 416 418 419 
3 806 803 1061 
3 542 541 569 
3 437 436 438 
3 612 757 1037 
3 568 537 1025 
3 1012 639 1030 
3 668 667 717 
3 634 480 1044 
3 740 696 1072 
3 508 439 1020 
3 537 588 1025 
3 422 424 425 
3 766 660 1049 
3 718 717 812 
3 510 698 1026 
3 526 525 527 
3 620 661 663 
3 425 462 700 
3 434 435 436 
3 512 510 1026 
3 543 648 1058 
3 526 527 528 
3 698 508 1020 
3 403 404 405 
3 806 1061 1067 
3 405 406 516 
3 617 618 620 
3 400 401 403 
3 397 396 398 
3 411 412 471 
3 720 633 1035 
3 1028 545 1048 
3 480 541 542 
3 694 775 1013 
3 398 399 400 
3 517 519 697 
3 620 663 716 
3 1030 723 1046 
3 426 428 1024 
3 425 426 462 
3 436 517 1032 
3 541 479 1018 
3 678 604 1047 
3 707 708 738 
3 604 601 1047 
3 550 531 1035 
3 716 783 823 
3 441 438 1032 
3 565 643 699 
3 773 774 1056 
3 736 678 846 
3 1074 447 1087 
3 716 663 783 
3 480 479 541 
3 1004 545 1041 
3 430 431 432 
3 699 643 727 
3 1067 768 1071 
3 419 420 529 
3 532 551 1082 
3 667 629 715 
3 727 784 787 
3 1007 1004 1041 
3 640 877 1069 
3 478 480 634 
3 549 1055 1076 
3 438 436 1032 
3 803 1057 1061 
3 700 462 707 
3 517 697 1032 
3 419 529 612 
3 699 727 728 
3 614 615 616 
3 531 1010 1035 
3 813 812 1184 
3 616 617 629 
3 524 906 1053 
3 501 503 1048 
3 723 795 1046 
3 870 347 1088 
3 633 550 1035 
3 433 432 434 
3 612 613 614 
3 985 768 1067 
3 929 930 1064 
3 616 615 617 
3 542 571 1044 
3 802 1048 1057 
3 692 1007 1041 
3 103 370 1070 
3 734 102 1070 
3 403 405 482 
3 614 613 615 
3 683 984 1076 
3 411 471 702 
3 708 462 1024 
3 895 1079 1203 
3 430 432 433 
3 34 361 1078 
3 395 394 396 
3 462 426 1024 
3 549 1008 1055 
3 521 523 524 
3 691 1003 1050 
3 612 529 613 
3 414 416 1037 
3 478 479 480 
3 702 471 755 
3 702 755 756 
3 960 959 1113 
3 1003 919 1050 
3 846 678 1047 
3 406 408 1038 
3 516 406 1038 
3 827 720 1063 
3 7 8 1051 
3 554 528 1042 
3 420 422 1039 
3 919 913 1050 
3 91 387 1022 
3 354 339 1022 
3 478 477 479 
3 595 655 981 
3 1055 914 1076 
3 588 587 1068 
3 528 527 1042 
3 349 881 1065 
3 1033 693 1049 
3 754 753 1081 
3 1048 503 1057 
3 965 962 1083 
3 651 839 1068 
3 529 420 1039 
3 961 960 1083 
3 660 1033 1049 
3 527 565 1042 
3 408 411 1038 
3 416 419 1037 
3 444 447 1074 
3 910 606 1103 
3 693 1013 1049 
3 606 536 1107 
3 425 700 1039 
3 422 425 1039 
3 331 83 1059 
3 565 699 1042 
3 617 620 1045 
3 397 398 402 
3 620 716 1045 
3 669 640 1069 
3 861 860 1101 
3 715 629 1045 
3 706 354 1022 
3 629 617 1045 
3 503 987 1057 
3 916 613 1073 
3 691 1050 1055 
3 1008 691 1055 
3 774 858 1056 
3 911 910 1100 
3 419 612 1037 
3 890 889 1106 
3 536 543 1058 
3 1024 428 1054 
3 1053 906 1086 
3 918 698 1062 
3 697 519 1053 
3 411 702 1038 
3 697 1053 1086 
3 471 412 1077 
3 720 1035 1063 
3 1035 1010 1063 
3 428 430 1054 
3 476 477 478 
3 1057 987 1061 
3 987 564 1061 
3 655 772 1052 
3 471 1077 1095 
3 806 1067 1071 
3 722 829 1108 
3 683 1081 1085 
3 340 331 1059 
3 1061 564 1067 
3 521 524 1053 
3 932 929 1064 
3 1082 551 1141 
3 476 402 477 
3 397 402 476 
3 529 1039 1073 
3 90 350 1075 
3 387 338 1075 
3 564 985 1067 
3 1103 606 1107 
3 760 1074 1087 
3 587 651 1068 
3 1020 443 1062 
3 519 521 1053 
3 338 90 1075 
3 395 396 397 
3 102 103 1070 
3 1010 568 1063 
3 430 433 1054 
3 719 870 1088 
3 703 814 1098 
3 698 1020 1062 
3 807 806 1071 
3 1086 905 1090 
3 782 705 1088 
3 1039 700 1073 
3 662 916 1097 
3 696 779 1072 
3 460 458 1099 
3 1037 757 1077 
3 1062 443 1074 
3 414 1037 1077 
3 831 669 1069 
3 777 662 1105 
3 443 444 1074 
3 984 549 1076 
3 412 414 1077 
3 1174 388 1187 
3 889 622 1122 
3 843 340 1160 
3 624 1015 1096 
3 683 1076 1081 
3 630 668 1104 
3 402 398 1080 
3 89 386 1092 
3 35 34 1078 
3 83 330 388 
3 350 337 1092 
3 759 760 1087 
3 753 925 1085 
3 710 709 1084 
3 1116 901 1119 
3 1100 910 1103 
3 613 529 1073 
3 622 532 1082 
3 867 1169 1179 
3 981 655 1052 
3 914 754 1081 
3 1085 925 1089 
3 978 1000 1109 
3 393 354 394 
3 398 400 1080 
3 18 844 1145 
3 962 961 1083 
3 787 784 1131 
3 947 609 1110 
3 925 926 1089 
3 441 1090 1111 
3 902 901 1116 
3 906 904 1086 
3 507 683 1085 
3 403 482 1093 
3 1089 926 1091 
3 441 1032 1090 
3 1077 757 1095 
3 793 792 1165 
3 551 619 1117 
3 926 928 1091 
3 507 1085 1089 
3 88 348 1102 
3 445 442 1111 
3 1091 928 1094 
3 365 75 1118 
3 74 389 1118 
3 386 336 1102 
3 986 507 1089 
3 764 763 1121 
3 843 841 1148 
3 705 719 1088 
3 751 649 1115 
3 1121 763 1123 
3 1106 889 1122 
3 337 89 1092 
3 928 931 1094 
3 9 355 1120 
3 393 394 395 
3 986 1089 1091 
3 447 1034 1087 
3 1076 914 1081 
3 834 873 1187 
3 1142 380 1216 
3 449 446 1119 
3 1025 895 1140 
3 662 1097 1105 
3 599 986 1091 
3 599 1091 1094 
3 1090 905 1111 
3 664 946 1196 
3 873 1174 1187 
3 983 599 1094 
3 1072 779 1079 
3 713 765 1124 
3 757 1031 1095 
3 854 853 1108 
3 755 471 1095 
3 830 344 1183 
3 116 117 1131 
3 24 23 1127 
3 71 70 1128 
3 73 72 1129 
3 453 450 1123 
3 916 1073 1097 
3 1032 697 1090 
3 1015 797 1096 
3 83 388 1059 
3 980 1023 1125 
3 400 403 1093 
3 82 354 393 
3 48 349 1138 
3 1051 8 1120 
3 373 49 1138 
3 1080 400 1093 
3 458 454 1126 
3 1073 700 1097 
3 453 1123 1124 
3 732 824 1148 
3 1124 765 1126 
3 482 405 1114 
3 735 703 1098 
3 449 1119 1121 
3 755 1095 1104 
3 1131 117 1218 
3 445 1111 1116 
3 860 883 1101 
3 464 460 1099 
3 765 714 1133 
3 700 707 1097 
3 939 558 1185 
3 87 384 1130 
3 348 335 1130 
3 464 1133 1136 
3 759 1087 1100 
3 1024 1054 1106 
3 1095 1031 1104 
3 864 865 1137 
3 336 88 1102 
3 967 365 1139 
3 812 717 1162 
3 697 1086 1090 
3 340 843 1155 
3 853 722 1108 
3 1034 911 1100 
3 702 756 1134 
3 1087 1034 1100 
3 747 1052 1223 
3 758 759 1103 
3 824 730 1147 
3 1054 890 1106 
3 759 1100 1103 
3 1097 707 1105 
3 621 842 1222 
3 1000 464 1136 
3 771 843 1160 
3 758 1103 1107 
3 731 811 1147 
3 1131 784 1201 
3 392 79 1142 
3 78 380 1142 
3 945 342 1144 
3 839 758 1107 
3 608 1109 1110 
3 608 978 1109 
3 1104 668 1112 
3 707 738 1105 
3 1031 630 1104 
3 445 1116 1119 
3 105 106 1143 
3 379 969 1178 
3 609 608 1110 
3 568 1025 1140 
3 708 1024 1106 
3 791 989 1113 
3 516 1038 1134 
3 442 441 1111 
3 943 946 1150 
3 905 902 1116 
3 17 18 1145 
3 405 516 1114 
3 649 664 1115 
3 932 1064 1215 
3 756 755 1112 
3 619 781 1117 
3 1099 765 1133 
3 1120 355 1194 
3 708 1106 1122 
3 75 74 1118 
3 937 936 1150 
3 996 374 1162 
3 875 372 1173 
3 389 1129 1213 
3 832 766 1156 
3 897 357 1137 
3 446 445 1119 
3 449 1121 1123 
3 893 892 1152 
3 367 116 1131 
3 8 9 1120 
3 932 1215 1229 
3 464 1099 1133 
3 901 764 1121 
3 86 345 1146 
3 384 334 1146 
3 792 743 1153 
3 1111 905 1116 
3 1027 721 1149 
3 661 777 1154 
3 351 64 1158 
3 63 379 1158 
3 450 449 1123 
3 378 924 1165 
3 787 1131 1218 
3 85 385 1151 
3 940 939 1185 
3 345 333 1151 
3 738 708 1122 
3 763 713 1124 
3 1119 901 1121 
3 941 728 1177 
3 785 1142 1216 
3 1123 763 1124 
3 737 980 1125 
3 645 741 1163 
3 977 24 1127 
3 70 390 1128 
3 389 73 1129 
3 453 1124 1126 
3 335 87 1130 
3 454 453 1126 
3 66 65 1164 
3 84 340 1155 
3 385 332 1155 
3 827 1063 1140 
3 970 363 1153 
3 742 729 1166 
3 755 1104 1112 
3 781 782 1159 
3 867 869 1169 
3 818 816 1170 
3 1133 982 1136 
3 714 982 1133 
3 1139 365 1219 
3 1154 781 1159 
3 362 114 1193 
3 734 1070 1135 
3 817 819 1135 
3 816 789 1170 
3 699 728 1167 
3 982 752 1136 
3 762 974 1197 
3 991 621 1170 
3 347 870 1200 
3 865 868 1137 
3 1038 702 1134 
3 1049 1013 1156 
3 653 590 1176 
3 589 750 1176 
3 830 725 1178 
3 343 941 1177 
3 776 1120 1194 
3 49 48 1138 
3 6 371 1181 
3 1070 817 1135 
3 894 895 1203 
3 769 794 1182 
3 352 966 1189 
3 31 360 1186 
3 108 970 1188 
3 1046 360 1191 
3 893 1152 1227 
3 364 107 1188 
3 367 1131 1201 
3 977 1127 1168 
3 624 1096 1207 
3 762 761 1191 
3 67 66 1190 
3 862 864 1173 
3 554 1042 1167 
3 924 921 1161 
3 952 950 1192 
3 777 1117 1154 
3 52 347 1200 
3 968 967 1139 
3 375 53 1200 
3 728 727 1177 
3 805 807 1164 
3 555 554 1185 
3 960 1113 1212 
3 376 988 1198 
3 885 775 1199 
3 795 832 1186 
3 788 790 1143 
3 395 397 1171 
3 841 732 1148 
3 897 1137 1214 
3 955 951 1206 
3 772 1174 1223 
3 1117 781 1154 
3 104 105 1204 
3 775 773 1199 
3 3 80 1208 
3 23 3 1208 
3 133 0 1209 
3 0 4 1209 
3 72 1 1210 
3 1 101 1210 
3 2 71 1211 
3 22 2 1211 
3 958 391 1209 
3 118 343 1218 
3 1071 768 1180 
3 716 823 1195 
3 637 586 1207 
3 801 805 1231 
3 16 356 1229 
3 346 14 1215 
3 842 820 1222 
3 1011 939 1217 
3 777 1105 1141 
3 1096 965 1207 
3 994 653 1225 
3 1137 868 1214 
3 79 78 1142 
3 1064 346 1215 
3 819 821 1213 
3 715 996 1226 
3 1169 907 1179 
3 1134 756 1169 
3 106 364 1143 
3 738 1082 1141 
3 1056 858 1205 
3 721 776 1194 
3 342 971 1144 
3 667 715 1226 
3 1063 568 1140 
3 939 937 1217 
3 822 1139 1219 
3 948 366 1180 
3 715 1045 1195 
3 1065 715 1195 
3 356 17 1145 
3 833 834 1187 
3 334 86 1146 
3 730 731 1147 
3 921 923 1161 
3 1105 738 1141 
3 1023 762 1197 
3 892 375 1152 
3 936 943 1150 
3 945 1144 1196 
3 333 85 1151 
3 842 644 1175 
3 750 1027 1149 
3 1013 775 1221 
3 1113 989 1212 
3 826 827 1152 
3 743 744 1153 
3 887 373 1157 
3 663 661 1154 
3 923 922 1171 
3 917 780 1183 
3 775 1078 1221 
3 1127 392 1168 
3 332 84 1155 
3 766 1049 1156 
3 374 878 1162 
3 1152 827 1227 
3 663 1154 1159 
3 64 63 1158 
3 869 1134 1169 
3 81 833 1228 
3 772 771 1160 
3 868 867 1179 
3 634 1014 1161 
3 735 976 1172 
3 783 663 1159 
3 351 1158 1231 
3 644 645 1163 
3 347 887 1220 
3 1017 830 1183 
3 780 1017 1183 
3 1149 955 1206 
3 65 351 1164 
3 933 378 1165 
3 729 737 1166 
3 946 945 1196 
3 741 785 1216 
3 822 842 1175 
3 958 5 1181 
3 1042 699 1167 
3 756 907 1169 
3 360 973 1191 
3 785 742 1168 
3 1088 347 1220 
3 789 991 1170 
3 381 1006 1182 
3 872 834 1201 
3 1006 796 1182 
3 840 664 1196 
3 330 81 1228 
3 653 1192 1225 
3 767 735 1172 
3 979 862 1173 
3 397 476 1171 
3 590 589 1176 
3 725 798 1178 
3 779 988 1203 
3 1157 373 1202 
3 996 1162 1226 
3 907 813 1179 
3 1144 840 1196 
3 727 787 1177 
3 768 767 1180 
3 959 958 1181 
3 5 6 1181 
3 1059 388 1174 
3 796 769 1182 
3 344 917 1183 
3 353 898 1184 
3 1125 1023 1197 
3 373 1138 1202 
3 1079 779 1203 
3 1170 621 1222 
3 32 31 1186 
3 558 555 1185 
3 107 108 1188 
3 937 1150 1217 
3 966 964 1189 
3 366 67 1190 
3 922 362 1193 
3 1083 960 1212 
3 950 953 1192 
3 1184 898 1214 
3 761 1046 1191 
3 358 885 1199 
3 355 955 1194 
3 784 872 1201 
3 1158 800 1231 
3 1127 23 1208 
3 71 1128 1211 
3 1129 72 1210 
3 988 894 1203 
3 637 1083 1212 
3 1156 1013 1221 
3 352 1189 1230 
3 908 376 1198 
3 1056 358 1199 
3 834 367 1201 
3 1045 716 1195 
3 644 1163 1175 
3 974 359 1197 
3 53 52 1200 
3 365 1118 1219 
3 898 897 1214 
3 773 1056 1199 
3 1139 822 1175 
3 1184 1214 1224 
3 951 952 1206 
3 370 104 1204 
3 823 783 1202 
3 80 392 1208 
3 391 133 1209 
3 101 734 1210 
3 733 22 1211 
3 586 624 1207 
3 895 893 1227 
3 858 979 1205 
3 359 1125 1197 
3 989 637 1212 
3 1174 873 1223 
3 14 15 1215 
3 380 968 1216 
3 117 118 1218 
3 1078 361 1221 
3 821 822 1219 
3 638 1011 1217 
3 820 818 1222 
3 1138 823 1202 
3 1215 15 1229 
3 388 330 1228 
3 750 1149 1206 
3 930 994 1225 
3 15 16 1229 
3 782 1088 1220 
3 953 346 1232 
3 1064 930 1232 
3 797 796 1230 
3 800 801 1231 
3 717 667 1226 
3 1052 772 1223 
3 392 1127 1208 
3 1128 733 1211 
3 734 1129 1210 
3 1118 821 1219 
3 1225 953 1232 
3 930 1225 1232 
3 346 1064 1232 
3 827 1140 1227 
3 1150 638 1217 
3 1162 717 1226 
3 1135 819 1213 
3 361 1156 1221 
3 1140 895 1227 
3 818 1170 1222 
3 868 1179 1224 
3 1157 782 1220 
3 887 1157 1220 
3 1187 388 1228 
3 1179 813 1224 
3 813 1184 1224 
3 1189 797 1230 
3 1192 953 1225 
3 833 1187 1228 
3 1214 868 1224 
3 135 187 134 
3 186 187 135 
3 136 186 135 
3 185 186 136 
3 137 185 136 
3 184 185 137 
3 138 184 137 
3 183 184 138 
3 139 183 138 
3 182 183 139 
3 140 182 139 
3 181 182 140 
3 181 140 141 
3 180 181 141 
3 142 180 141 
3 179 180 142 
3 143 179 142 
3 178 179 143 
3 144 178 143 
3 177 178 144 
3 177 144 145 
3 176 177 145 
3 84 160 1233 
3 176 145 146 
3 175 176 146 
3 175 146 147 
3 84 162 160 
3 174 175 147 
3 174 147 148 
3 173 174 148 
3 173 148 149 
3 172 173 149 
3 160 161 1233 
3 150 172 149 
3 171 172 150 
3 171 150 151 
3 170 171 151 
3 170 151 152 
3 169 170 152 
3 169 152 153 
3 168 169 153 
3 168 153 154 
3 167 168 154 
3 167 154 155 
3 166 167 155 
3 331 84 1233 
3 165 166 156 
3 166 155 156 
3 164 165 157 
3 165 156 157 
3 163 164 158 
3 164 157 158 
3 162 163 159 
3 159 163 158 
3 162 159 160 
3 161 331 1233 
3 93 92 1234 
3 134 187 1234 
3 187 93 1234 
3 92 134 1234 
3 161 83 331 
3 212 211 187 
3 211 186 187 
3 211 210 186 
3 210 185 186 
3 210 209 185 
3 209 184 185 
3 209 208 184 
3 208 183 184 
3 208 207 183 
3 207 182 183 
3 207 206 182 
3 206 181 182 
3 206 205 181 
3 205 180 181 
3 205 204 180 
3 180 204 179 
3 204 203 179 
3 203 178 179 
3 203 202 178 
3 202 177 178 
3 163 85 1235 
3 202 201 177 
3 201 176 177 
3 201 200 176 
3 162 163 1235 
3 200 175 176 
3 200 199 175 
3 188 85 163 
3 199 174 175 
3 199 198 174 
3 198 173 174 
3 198 197 173 
3 197 172 173 
3 197 196 172 
3 196 171 172 
3 196 195 171 
3 171 195 170 
3 85 332 1235 
3 195 194 170 
3 170 194 169 
3 194 193 169 
3 169 193 168 
3 192 167 168 
3 193 192 168 
3 167 191 166 
3 192 191 167 
3 166 190 165 
3 191 190 166 
3 165 189 164 
3 188 163 164 
3 190 189 165 
3 189 188 164 
3 332 162 1235 
3 93 94 1236 
3 212 187 1236 
3 187 93 1236 
3 94 212 1236 
3 162 332 84 
3 211 212 213 
3 211 213 214 
3 210 211 214 
3 215 210 214 
3 209 210 215 
3 216 209 215 
3 208 209 216 
3 217 208 216 
3 207 208 217 
3 218 207 217 
3 206 207 218 
3 219 206 218 
3 205 206 219 
3 220 205 219 
3 204 205 220 
3 221 204 220 
3 203 204 221 
3 203 221 222 
3 202 203 222 
3 189 86 1237 
3 223 202 222 
3 201 202 223 
3 201 223 224 
3 86 189 235 
3 200 201 224 
3 200 224 225 
3 199 200 225 
3 199 225 226 
3 198 199 226 
3 188 189 1237 
3 198 226 227 
3 197 198 227 
3 197 227 228 
3 196 197 228 
3 196 228 229 
3 195 196 229 
3 195 229 230 
3 194 195 230 
3 194 230 231 
3 193 194 231 
3 193 231 232 
3 86 333 1237 
3 192 232 233 
3 192 193 232 
3 191 233 234 
3 191 192 233 
3 190 234 235 
3 190 191 234 
3 189 190 235 
3 333 188 1237 
3 94 95 1238 
3 213 212 1238 
3 95 213 1238 
3 212 94 1238 
3 188 333 85 
3 213 256 257 
3 213 214 256 
3 214 255 256 
3 214 215 255 
3 215 254 255 
3 215 216 254 
3 216 253 254 
3 216 217 253 
3 217 252 253 
3 217 218 252 
3 218 251 252 
3 218 219 251 
3 219 250 251 
3 219 220 250 
3 250 220 249 
3 220 221 249 
3 221 248 249 
3 221 222 248 
3 87 234 1239 
3 222 247 248 
3 222 223 247 
3 223 246 247 
3 234 235 1239 
3 246 223 224 
3 234 87 236 
3 245 246 224 
3 225 245 224 
3 244 245 225 
3 226 244 225 
3 244 226 243 
3 226 227 243 
3 243 227 242 
3 227 228 242 
3 334 87 1239 
3 242 228 241 
3 228 229 241 
3 241 229 240 
3 229 230 240 
3 230 231 239 
3 230 239 240 
3 231 232 238 
3 239 231 238 
3 232 233 237 
3 233 234 236 
3 238 232 237 
3 237 233 236 
3 235 334 1239 
3 96 95 1240 
3 213 257 1240 
3 95 213 1240 
3 257 96 1240 
3 334 235 86 
3 256 257 258 
3 256 258 259 
3 255 256 259 
3 255 259 260 
3 254 255 260 
3 261 254 260 
3 261 253 254 
3 261 262 253 
3 262 252 253 
3 262 263 252 
3 263 251 252 
3 263 264 251 
3 264 250 251 
3 264 265 250 
3 250 265 249 
3 265 266 249 
3 266 248 249 
3 237 88 1241 
3 266 267 248 
3 267 247 248 
3 277 88 237 
3 267 268 247 
3 268 246 247 
3 268 269 246 
3 246 269 245 
3 269 270 245 
3 236 237 1241 
3 245 270 244 
3 270 271 244 
3 244 271 243 
3 271 272 243 
3 243 272 242 
3 272 273 242 
3 242 273 241 
3 273 274 241 
3 241 274 240 
3 274 275 240 
3 88 335 1241 
3 275 276 239 
3 275 239 240 
3 276 277 238 
3 239 276 238 
3 238 277 237 
3 335 236 1241 
3 96 97 1242 
3 258 257 1242 
3 97 258 1242 
3 257 96 1242 
3 335 87 236 
3 295 296 258 
3 259 295 258 
3 294 295 259 
3 260 294 259 
3 293 294 260 
3 261 293 260 
3 292 293 261 
3 262 292 261 
3 291 292 262 
3 291 262 263 
3 290 291 263 
3 264 290 263 
3 289 290 264 
3 265 289 264 
3 288 289 265 
3 266 288 265 
3 89 276 1243 
3 287 288 266 
3 287 266 267 
3 276 277 1243 
3 287 267 286 
3 286 267 268 
3 276 89 278 
3 285 286 268 
3 285 268 269 
3 284 285 269 
3 284 269 270 
3 283 284 270 
3 271 283 270 
3 336 89 1243 
3 282 283 271 
3 282 271 272 
3 281 282 272 
3 281 272 273 
3 280 273 274 
3 280 281 273 
3 274 275 279 
3 280 274 279 
3 275 276 278 
3 275 278 279 
3 277 336 1243 
3 98 97 1244 
3 258 296 1244 
3 97 258 1244 
3 296 98 1244 
3 277 88 336 
3 295 296 297 
3 298 295 297 
3 294 295 298 
3 299 294 298 
3 293 294 299 
3 300 293 299 
3 292 293 300 
3 301 292 300 
3 291 292 301 
3 302 291 301 
3 290 291 302 
3 303 290 302 
3 289 290 303 
3 289 303 304 
3 288 289 304 
3 279 90 1245 
3 305 288 304 
3 90 279 313 
3 288 305 287 
3 305 306 287 
3 287 306 286 
3 306 307 286 
3 307 285 286 
3 285 307 308 
3 278 279 1245 
3 285 308 284 
3 308 309 284 
3 309 283 284 
3 309 310 283 
3 310 282 283 
3 311 282 310 
3 282 311 281 
3 281 311 312 
3 280 312 313 
3 280 281 312 
3 90 337 1245 
3 279 280 313 
3 337 278 1245 
3 98 99 1246 
3 297 296 1246 
3 99 297 1246 
3 296 98 1246 
3 89 278 337 
3 328 329 297 
3 298 328 297 
3 327 328 298 
3 299 327 298 
3 326 327 299 
3 300 326 299 
3 325 326 300 
3 301 325 300 
3 324 325 301 
3 302 324 301 
3 323 324 302 
3 303 323 302 
3 322 323 303 
3 91 312 1247 
3 322 303 304 
3 321 322 304 
3 312 313 1247 
3 305 321 304 
3 321 305 320 
3 312 91 314 
3 305 306 320 
3 306 319 320 
3 306 307 319 
3 307 318 319 
3 307 308 318 
3 338 91 1247 
3 308 317 318 
3 308 309 317 
3 309 310 316 
3 309 316 317 
3 310 311 315 
3 310 315 316 
3 311 312 314 
3 311 314 315 
3 313 338 1247 
3 100 99 1248 
3 297 329 1248 
3 99 297 1248 
3 329 100 1248 
3 90 338 313 
3 328 329 101 
3 328 101 102 
3 327 328 102 
3 327 102 103 
3 326 327 103 
3 326 103 104 
3 325 326 104 
3 325 104 105 
3 324 325 105 
3 324 105 106 
3 323 324 106 
3 323 106 107 
3 315 82 1249 
3 322 323 107 
3 114 82 315 
3 322 107 108 
3 321 322 108 
3 109 321 108 
3 320 321 109 
3 110 320 109 
3 319 320 110 
3 319 110 111 
3 314 315 1249 
3 319 111 318 
3 111 112 318 
3 112 317 318 
3 112 113 317 
3 113 114 316 
3 317 113 316 
3 316 114 315 
3 82 339 1249 
3 339 314 1249 
3 100 1 1250 
3 101 329 1250 
3 1 101 1250 
3 329 100 1250 
3 339 91 314 

CELL_TYPES 2360
5
5
5
5
5
5
5
5
5
5
5
5
5
5
5
5
5
5
5
5
5
5
5
5
5
5
5
5
5
5
5
5
5
5
5
5
5
5
5
5
5
5
5
5
5
5
5
5
5
5
5
5
5
5
5
5
5
5
5
5
5
5
5
5
5
5
5
5
5
5
5
5
5
5
5
5
5
5
5
5
5
5
5
5
5
5
5
5
5
5
5
5
5
5
5
5
5
5
5
5
5
5
5
5
5
5
5
5
5
5
5
5
5
5
5
5
5
5
5
5
5
5
5
5
5
5
5
5
5
5
5
5
5
5
5
5
5
5
5
5
5
5
5
5
5
5
5
5
5
5
5
5
5
5
5
5
5
5
5
5
5
5
5
5
5
5
5
5
5
5
5
5
5
5
5
5
5
5
5
5
5
5
5
5
5
5
5
5
5
5
5
5
5
5
5
5
5
5
5
5
5
5
5
5
5
5
5
5
5
5
5
5
5
5
5
5
5
5
5
5
5
5
5
5
5
5
5
5
5
5
5
5
5
5
5
5
5
5
5
5
5
5
5
5
5
5
5
5
5
5
5
5
5
5
5
5
5
5
5
5
5
5
5
5
5
5
5
5
5
5
5
5
5
5
5
5
5
5
5
5
5
5
5
5
5
5
5
5
5
5
5
5
5
5
5
5
5
5
5
5
5
5
5
5
5
5
5
5
5
5
5
5
5
5
5
5
5
5
5
5
5
5
5
5
5
5
5
5
5
5
5
5
5
5
5
5
5
5
5
5
5
5
5
5
5
5
5
5
5
5
5
5
5
5
5
5
5
5
5
5
5
5
5
5
5
5
5
5
5
5
5
5
5
5
5
5
5
5
5
5
5
5
5
5
5
5
5
5
5
5
5
5
5
5
5
5
5
5
5
5
5
5
5
5
5
5
5
5
5
5
5
5
5
5
5
5
5
5
5
5
5
5
5
5
5
5
5
5
5
5
5
5
5
5
5
5
5
5
5
5
5
5
5
5
5
5
5
5
5
5
5
5
5
5
5
5
5
5
5
5
5
5
5
5
5
5
5
5
5
5
5
5
5
5
5
5
5
5
5
5
5
5
5
5
5
5
5
5
5
5
5
5
5
5
5
5
5
5
5
5
5
5
5
5
5
5
5
5
5
5
5
5
5
5
5
5
5
5
5
5
5
5
5
5
5
5
5
5
5
5
5
5
5
5
5
5
5
5
5
5
5
5
5
5
5
5
5
5
5
5
5
5
5
5
5
5
5
5
5
5
5
5
5
5
5
5
5
5
5
5
5
5
5
5
5
5
5
5
5
5
5
5
5
5
5
5
5
5
5
5
5
5
5
5
5
5
5
5
5
5
5
5
5
5
5
5
5
5
5
5
5
5
5
5
5
5
5
5
5
5
5
5
5
5
5
5
5
5
5
5
5
5
5
5
5
5
5
5
5
5
5
5
5
5
5
5
5
5
5
5
5
5
5
5
5
5
5
5
5
5
5
5
5
5
5
5
5
5
5
5
5
5
5
5
5
5
5
5
5
5
5
5
5
5
5
5
5
5
5
5
5
5
5
5
5
5
5
5
5
5
5
5
5
5
5
5
5
5
5
5
5
5
5
5
5
5
5
5
5
5
5
5
5
5
5
5
5
5
5
5
5
5
5
5
5
5
5
5
5
5
5
5
5
5
5
5
5
5
5
5
5
5
5
5
5
5
5
5
5
5
5
5
5
5
5
5
5
5
5
5
5
5
5
5
5
5
5
5
5
5
5
5
5
5
5
5
5
5
5
5
5
5
5
5
5
5
5
5
5
5
5
5
5
5
5
5
5
5
5
5
5
5
5
5
5
5
5
5
5
5
5
5
5
5
5
5
5
5
5
5
5
5
5
5
5
5
5
5
5
5
5
5
5
5
5
5
5
5
5
5
5
5
5
5
5
5
5
5
5
5
5
5
5
5
5
5
5
5
5
5
5
5
5
5
5
5
5
5
5
5
5
5
5
5
5
5
5
5
5
5
5
5
5
5
5
5
5
5
5
5
5
5
5
5
5
5
5
5
5
5
5
5
5
5
5
5
5
5
5
5
5
5
5
5
5
5
5
5
5
5
5
5
5
5
5
5
5
5
5
5
5
5
5
5
5
5
5
5
5
5
5
5
5
5
5
5
5
5
5
5
5
5
5
5
5
5
5
5
5
5
5
5
5
5
5
5
5
5
5
5
5
5
5
5
5
5
5
5
5
5
5
5
5
5
5
5
5
5
5
5
5
5
5
5
5
5
5
5
5
5
5
5
5
5
5
5
5
5
5
5
5
5
5
5
5
5
5
5
5
5
5
5
5
5
5
5
5
5
5
5
5
5
5
5
5
5
5
5
5
5
5
5
5
5
5
5
5
5
5
5
5
5
5
5
5
5
5
5
5
5
5
5
5
5
5
5
5
5
5
5
5
5
5
5
5
5
5
5
5
5
5
5
5
5
5
5
5
5
5
5
5
5
5
5
5
5
5
5
5
5
5
5
5
5
5
5
5
5
5
5
5
5
5
5
5
5
5
5
5
5
5
5
5
5
5
5
5
5
5
5
5
5
5
5
5
5
5
5
5
5
5
5
5
5
5
5
5
5
5
5
5
5
5
5
5
5
5
5
5
5
5
5
5
5
5
5
5
5
5
5
5
5
5
5
5
5
5
5
5
5
5
5
5
5
5
5
5
5
5
5
5
5
5
5
5
5
5
5
5
5
5
5
5
5
5
5
5
5
5
5
5
5
5
5
5
5
5
5
5
5
5
5
5
5
5
5
5
5
5
5
5
5
5
5
5
5
5
5
5
5
5
5
5
5
5
5
5
5
5
5
5
5
5
5
5
5
5
5
5
5
5
5
5
5
5
5
5
5
5
5
5
5
5
5
5
5
5
5
5
5
5
5
5
5
5
5
5
5
5
5
5
5
5
5
5
5
5
5
5
5
5
5
5
5
5
5
5
5
5
5
5
5
5
5
5
5
5
5
5
5
5
5
5
5
5
5
5
5
5
5
5
5
5
5
5
5
5
5
5
5
5
5
5
5
5
5
5
5
5
5
5
5
5
5
5
5
5
5
5
5
5
5
5
5
5
5
5
5
5
5
5
5
5
5
5
5
5
5
5
5
5
5
5
5
5
5
5
5
5
5
5
5
5
5
5
5
5
5
5
5
5
5
5
5
5
5
5
5
5
5
5
5
5
5
5
5
5
5
5
5
5
5
5
5
5
5
5
5
5
5
5
5
5
5
5
5
5
5
5
5
5
5
5
5
5
5
5
5
5
5
5
5
5
5
5
5
5
5
5
5
5
5
5
5
5
5
5
5
5
5
5
5
5
5
5
5
5
5
5
5
5
5
5
5
5
5
5
5
5
5
5
5
5
5
5
5
5
5
5
5
5
5
5
5
5
5
5
5
5
5
5
5
5
5
5
5
5
5
5
5
5
5
5
5
5
5
5
5
5
5
5
5
5
5
5
5
5
5
5
5
5
5
5
5
5
5
5
5
5
5
5
5
5
5
5
5
5
5
5
5
5
5
5
5
5
5
5
5
5
5
5
5
5
5
5
5
5
5
5
5
5
5
5
5
5
5
5
5
5
5
5
5
5
5
5
5
5
5
5
5
5
5
5
5
5
5
5
5
5
5
5
5
5
5
5
5
5
5
5
5
5
5
5
5
5
5
5
5
5
5
5
5
5
5
5
5
5
5
5
5
5
5
5
5
5
5
5
5
5
5
5
5
5
5
5
5
5
5
5
5
5
5
5
5
5
5
5
5
5
5
5
5
5
5
5
5
5
5
5
5
5
5
5
5
5
5
5
5
5
5
5
5
5
5
5
5
5
5
5
5
5
5
5
5
5
5
5
5
5
5
5
5
5
5
5
5
5
5
5
5
5
5
5
5
5
5
5
5
5
5
5
5
5
5
5
5
5
5
5
5
5
5
5
5
5
5
5
5
5
5
5
5
5
5
5
5
5
5
5
5
5
5
5
5
5
5
5
5
5
5
5
5
5
5
5
5
5
5
5
5
5
5
5
5
5
5
5
5
5
5
5
5
5
5
5
5
5
5
5
5
5
5
5
5
5
5
5
5
5
5
5
5
5
5
5
5
5
5
5
5
5
5
5
5
5
5
5
5
5
5
5
5
5
5
5
5
5
5
5
5
5
5
5
5
5
5
5
5
5
5
5
5
5
5
5
5
5
5
5
5
5
5
5
5
5
5
5
5
5
5
5
5
5
5
5
5
5
5
5
5
5
5
5
5
5
5
5
5
5
5
5
5
5
5
5
5
5
5
5
5
5
5
5
5
5
5
5
5
5
5
5
5
5
5
5
5
5
5
5
5
5
5
5
5
5
5
5
5
5
5
5
5
5
5
5
5
5
5
5
5
5
5
5
5
5
5
5
5
5
5
5
5
5
5
5
5
5
5
5
5
5
5
5
5
5
5
5
5
5
5
5
5
5
5
5
5
5
5
5
5
5
5
5
5
5
5
5
5
5
5
5
5
5
5
5
5
5
5
5
5
5
5
5
5
5
5
5
5
5
5
5
5
5
5
5
5
5
5
5
5
5
5
5
5
5
5
5
5
5
5
5
5
5
5
5
5
5
5
5
5
5
5
5
5
5
5
5
5
5
5
5
5
5
5
5
5
5
5
5
5
5
5
5
5
5
5
5
5
5
5
5
5
5
5
5
5
5
5
5
5
5
5
5
5
5
5
5
5
5
5
5
5
5
5
5
5
5
5
5
5
5
5
5
5
5
5
5
5
5
5
5
5
5
5
5
5
5
5
5
5
5
5
5
5
5
5
5
5
5
5
5
5
5
5
5
5
5
5
5
5
5
5
5
5
5
5
5
5
5
5
5
5
5
5
5
5
5
5
5
5
5
5
5
5
5
5
5
5
5
5
5
5
5
5
5
5
5
5
5
5
5
5
5
5
5
5
5
5
5
5
5
5
5
5
5
5
5
5
5
5
5
5
5
5
5
5
5
5
5
5
5
5
5
5
5
5
5
5
5
5
5
5
5
5
5
5
5
5
5
5
5
5
5
5
5
5
5
5
5
5
5
5
5
5
5
5
5
5
5
5
5
5
5
5
5
5
5
5
5
5
5
5
5
5
5
5
5
5
5
5
5
5
5
5
5
5
5
5
5
5
5
5
5
5
5
5
5
5
5
5
5
5
5
5
5
5
5
5
5
5
5
5
5
5
5
5
5
5
5
5
5
5
5
5
5
5
5
5
5
5
5
5
5
5
5
5
5
5
5
5
5
5
5
5
5
5
5
5
5
5
5
5
5
5
5
5
5
5
5
5

POINT_DATA 1251

VECTORS coord float
0.0 0.0 0.0 
5.000000000000e+01 -1.000000000000e+01 0.0 
0.0 -2.000000000000e+01 0.0 
5.000000000000e+01 -2.000000000000e+01 0.0 
0.0 -9.999999999991e-01 0.0 
0.0 -1.999999999998e+00 0.0 
0.0 -2.999999999997e+00 0.0 
0.0 -3.999999999994e+00 0.0 
0.0 -4.999999999991e+00 0.0 
0.0 -5.999999999988e+00 0.0 
0.0 -6.999999999985e+00 0.0 
0.0 -7.999999999982e+00 0.0 
0.0 -8.999999999983e+00 0.0 
0.0 -9.999999999985e+00 0.0 
0.0 -1.099999999999e+01 0.0 
0.0 -1.199999999999e+01 0.0 
0.0 -1.299999999999e+01 0.0 
0.0 -1.399999999999e+01 0.0 
0.0 -1.499999999999e+01 0.0 
0.0 -1.599999999999e+01 0.0 
0.0 -1.700000000000e+01 0.0 
0.0 -1.800000000000e+01 0.0 
0.0 -1.900000000000e+01 0.0 
4.900000000001e+01 -2.000000000000e+01 0.0 
4.800000000001e+01 -2.000000000000e+01 0.0 
4.700000000002e+01 -2.000000000000e+01 0.0 
4.600000000003e+01 -2.000000000000e+01 0.0 
4.500000000004e+01 -2.000000000000e+01 0.0 
4.400000000004e+01 -2.000000000000e+01 0.0 
4.300000000005e+01 -2.000000000000e+01 0.0 
4.200000000006e+01 -2.000000000000e+01 0.0 
4.100000000006e+01 -2.000000000000e+01 0.0 
4.000000000007e+01 -2.000000000000e+01 0.0 
3.900000000008e+01 -2.000000000000e+01 0.0 
3.800000000009e+01 -2.000000000000e+01 0.0 
3.700000000009e+01 -2.000000000000e+01 0.0 
3.600000000010e+01 -2.000000000000e+01 0.0 
3.500000000011e+01 -2.000000000000e+01 0.0 
3.400000000011e+01 -2.000000000000e+01 0.0 
3.300000000012e+01 -2.000000000000e+01 0.0 
3.200000000013e+01 -2.000000000000e+01 0.0 
3.100000000013e+01 -2.000000000000e+01 0.0 
3.000000000013e+01 -2.000000000000e+01 0.0 
2.900000000013e+01 -2.000000000000e+01 0.0 
2.800000000013e+01 -2.000000000000e+01 0.0 
2.700000000013e+01 -2.000000000000e+01 0.0 
2.600000000013e+01 -2.000000000000e+01 0.0 
2.500000000013e+01 -2.000000000000e+01 0.0 
2.400000000013e+01 -2.000000000000e+01 0.0 
2.300000000013e+01 -2.000000000000e+01 0.0 
2.200000000013e+01 -2.000000000000e+01 0.0 
2.100000000013e+01 -2.000000000000e+01 0.0 
2.000000000013e+01 -2.000000000000e+01 0.0 
1.900000000013e+01 -2.000000000000e+01 0.0 
1.800000000013e+01 -2.000000000000e+01 0.0 
1.700000000012e+01 -2.000000000000e+01 0.0 
1.600000000011e+01 -2.000000000000e+01 0.0 
1.500000000011e+01 -2.000000000000e+01 0.0 
1.400000000010e+01 -2.000000000000e+01 0.0 
1.300000000009e+01 -2.000000000000e+01 0.0 
1.200000000009e+01 -2.000000000000e+01 0.0 
1.100000000008e+01 -2.000000000000e+01 0.0 
1.000000000007e+01 -2.000000000000e+01 0.0 
9.000000000064e+00 -2.000000000000e+01 0.0 
8.000000000057e+00 -2.000000000000e+01 0.0 
7.000000000050e+00 -2.000000000000e+01 0.0 
6.000000000043e+00 -2.000000000000e+01 0.0 
5.000000000036e+00 -2.000000000000e+01 0.0 
4.000000000028e+00 -2.000000000000e+01 0.0 
3.000000000021e+00 -2.000000000000e+01 0.0 
2.000000000014e+00 -2.000000000000e+01 0.0 
1.000000000007e+00 -2.000000000000e+01 0.0 
5.000000000000e+01 -1.100000000000e+01 0.0 
5.000000000000e+01 -1.200000000000e+01 0.0 
5.000000000000e+01 -1.300000000000e+01 0.0 
5.000000000000e+01 -1.400000000000e+01 0.0 
5.000000000000e+01 -1.500000000000e+01 0.0 
5.000000000000e+01 -1.600000000000e+01 0.0 
5.000000000000e+01 -1.700000000000e+01 0.0 
5.000000000000e+01 -1.800000000000e+01 0.0 
5.000000000000e+01 -1.900000000000e+01 0.0 
2.000000000000e+01 0.0 0.0 
3.500000000000e+01 -1.000000000000e+01 0.0 
2.150000000000e+01 -1.000000000000e+00 0.0 
2.300000000000e+01 -2.000000000000e+00 0.0 
2.450000000000e+01 -3.000000000000e+00 0.0 
2.600000000000e+01 -4.000000000000e+00 0.0 
2.750000000000e+01 -5.000000000000e+00 0.0 
2.900000000000e+01 -6.000000000000e+00 0.0 
3.050000000000e+01 -7.000000000000e+00 0.0 
3.200000000000e+01 -8.000000000000e+00 0.0 
3.350000000000e+01 -9.000000000000e+00 0.0 
5.000000000000e+01 -1.000000000000e+00 0.0 
5.000000000000e+01 -2.000000000000e+00 0.0 
5.000000000000e+01 -3.000000000000e+00 0.0 
5.000000000000e+01 -4.000000000000e+00 0.0 
5.000000000000e+01 -5.000000000000e+00 0.0 
5.000000000000e+01 -6.000000000000e+00 0.0 
5.000000000000e+01 -7.000000000000e+00 0.0 
5.000000000000e+01 -8.000000000000e+00 0.0 
5.000000000000e+01 -9.000000000000e+00 0.0 
4.900000000000e+01 -1.000000000000e+01 0.0 
4.800000000000e+01 -1.000000000000e+01 0.0 
4.700000000000e+01 -1.000000000000e+01 0.0 
4.600000000000e+01 -1.000000000000e+01 0.0 
4.500000000000e+01 -1.000000000000e+01 0.0 
4.400000000000e+01 -1.000000000000e+01 0.0 
4.300000000000e+01 -1.000000000000e+01 0.0 
4.200000000000e+01 -1.000000000000e+01 0.0 
4.100000000000e+01 -1.000000000000e+01 0.0 
4.000000000000e+01 -1.000000000000e+01 0.0 
3.900000000000e+01 -1.000000000000e+01 0.0 
3.800000000000e+01 -1.000000000000e+01 0.0 
3.700000000000e+01 -1.000000000000e+01 0.0 
3.600000000000e+01 -1.000000000000e+01 0.0 
1.900000000000e+01 0.0 0.0 
1.800000000000e+01 0.0 0.0 
1.700000000000e+01 0.0 0.0 
1.600000000000e+01 0.0 0.0 
1.500000000000e+01 0.0 0.0 
1.400000000000e+01 0.0 0.0 
1.300000000000e+01 0.0 0.0 
1.200000000000e+01 0.0 0.0 
1.100000000000e+01 0.0 0.0 
1.000000000000e+01 0.0 0.0 
9.000000000000e+00 0.0 0.0 
8.000000000000e+00 0.0 0.0 
7.000000000000e+00 0.0 0.0 
6.000000000000e+00 0.0 0.0 
5.000000000000e+00 0.0 0.0 
4.000000000000e+00 0.0 0.0 
3.000000000000e+00 0.0 0.0 
2.000000000000e+00 0.0 0.0 
1.000000000000e+00 0.0 0.0 
4.901724137931e+01 -1.000000000000e+00 0.0 
4.803448275862e+01 -1.000000000000e+00 0.0 
4.705172413793e+01 -1.000000000000e+00 0.0 
4.606896551724e+01 -1.000000000000e+00 0.0 
4.508620689655e+01 -1.000000000000e+00 0.0 
4.410344827586e+01 -1.000000000000e+00 0.0 
4.312068965517e+01 -1.000000000000e+00 0.0 
4.213793103448e+01 -1.000000000000e+00 0.0 
4.115517241379e+01 -1.000000000000e+00 0.0 
4.017241379310e+01 -1.000000000000e+00 0.0 
3.918965517241e+01 -1.000000000000e+00 0.0 
3.820689655172e+01 -1.000000000000e+00 0.0 
3.722413793103e+01 -1.000000000000e+00 0.0 
3.624137931034e+01 -1.000000000000e+00 0.0 
3.525862068966e+01 -1.000000000000e+00 0.0 
3.427586206897e+01 -1.000000000000e+00 0.0 
3.329310344828e+01 -1.000000000000e+00 0.0 
3.231034482759e+01 -1.000000000000e+00 0.0 
3.132758620690e+01 -1.000000000000e+00 0.0 
3.034482758621e+01 -1.000000000000e+00 0.0 
2.936206896552e+01 -1.000000000000e+00 0.0 
2.837931034483e+01 -1.000000000000e+00 0.0 
2.739655172414e+01 -1.000000000000e+00 0.0 
2.641379310345e+01 -1.000000000000e+00 0.0 
2.543103448276e+01 -1.000000000000e+00 0.0 
2.444827586207e+01 -1.000000000000e+00 0.0 
2.346551724138e+01 -1.000000000000e+00 0.0 
2.248275862069e+01 -1.000000000000e+00 0.0 
2.400000000000e+01 -2.000000000000e+00 0.0 
2.500000000000e+01 -2.000000000000e+00 0.0 
2.600000000000e+01 -2.000000000000e+00 0.0 
2.700000000000e+01 -2.000000000000e+00 0.0 
2.800000000000e+01 -2.000000000000e+00 0.0 
2.900000000000e+01 -2.000000000000e+00 0.0 
3.000000000000e+01 -2.000000000000e+00 0.0 
3.100000000000e+01 -2.000000000000e+00 0.0 
3.200000000000e+01 -2.000000000000e+00 0.0 
3.300000000000e+01 -2.000000000000e+00 0.0 
3.400000000000e+01 -2.000000000000e+00 0.0 
3.500000000000e+01 -2.000000000000e+00 0.0 
3.600000000000e+01 -2.000000000000e+00 0.0 
3.700000000000e+01 -2.000000000000e+00 0.0 
3.800000000000e+01 -2.000000000000e+00 0.0 
3.900000000000e+01 -2.000000000000e+00 0.0 
4.000000000000e+01 -2.000000000000e+00 0.0 
4.100000000000e+01 -2.000000000000e+00 0.0 
4.200000000000e+01 -2.000000000000e+00 0.0 
4.300000000000e+01 -2.000000000000e+00 0.0 
4.400000000000e+01 -2.000000000000e+00 0.0 
4.500000000000e+01 -2.000000000000e+00 0.0 
4.600000000000e+01 -2.000000000000e+00 0.0 
4.700000000000e+01 -2.000000000000e+00 0.0 
4.800000000000e+01 -2.000000000000e+00 0.0 
4.900000000000e+01 -2.000000000000e+00 0.0 
2.548076923077e+01 -3.000000000000e+00 0.0 
2.646153846153e+01 -3.000000000000e+00 0.0 
2.744230769230e+01 -3.000000000000e+00 0.0 
2.842307692306e+01 -3.000000000000e+00 0.0 
2.940384615383e+01 -3.000000000000e+00 0.0 
3.038461538459e+01 -3.000000000000e+00 0.0 
3.136538461536e+01 -3.000000000000e+00 0.0 
3.234615384612e+01 -3.000000000000e+00 0.0 
3.332692307687e+01 -3.000000000000e+00 0.0 
3.430769230762e+01 -3.000000000000e+00 0.0 
3.528846153837e+01 -3.000000000000e+00 0.0 
3.626923076912e+01 -3.000000000000e+00 0.0 
3.724999999988e+01 -3.000000000000e+00 0.0 
3.823076923065e+01 -3.000000000000e+00 0.0 
3.921153846143e+01 -3.000000000000e+00 0.0 
4.019230769221e+01 -3.000000000000e+00 0.0 
4.117307692299e+01 -3.000000000000e+00 0.0 
4.215384615377e+01 -3.000000000000e+00 0.0 
4.313461538455e+01 -3.000000000000e+00 0.0 
4.411538461533e+01 -3.000000000000e+00 0.0 
4.509615384611e+01 -3.000000000000e+00 0.0 
4.607692307688e+01 -3.000000000000e+00 0.0 
4.705769230766e+01 -3.000000000000e+00 0.0 
4.803846153844e+01 -3.000000000000e+00 0.0 
4.901923076922e+01 -3.000000000000e+00 0.0 
4.900000000000e+01 -4.000000000000e+00 0.0 
4.800000000000e+01 -4.000000000000e+00 0.0 
4.700000000000e+01 -4.000000000000e+00 0.0 
4.600000000000e+01 -4.000000000000e+00 0.0 
4.500000000000e+01 -4.000000000000e+00 0.0 
4.400000000000e+01 -4.000000000000e+00 0.0 
4.300000000000e+01 -4.000000000000e+00 0.0 
4.200000000000e+01 -4.000000000000e+00 0.0 
4.100000000000e+01 -4.000000000000e+00 0.0 
4.000000000000e+01 -4.000000000000e+00 0.0 
3.900000000000e+01 -4.000000000000e+00 0.0 
3.800000000000e+01 -4.000000000000e+00 0.0 
3.700000000000e+01 -4.000000000000e+00 0.0 
3.600000000000e+01 -4.000000000000e+00 0.0 
3.500000000000e+01 -4.000000000000e+00 0.0 
3.400000000000e+01 -4.000000000000e+00 0.0 
3.300000000000e+01 -4.000000000000e+00 0.0 
3.200000000000e+01 -4.000000000000e+00 0.0 
3.100000000000e+01 -4.000000000000e+00 0.0 
3.000000000000e+01 -4.000000000000e+00 0.0 
2.900000000000e+01 -4.000000000000e+00 0.0 
2.800000000000e+01 -4.000000000000e+00 0.0 
2.700000000000e+01 -4.000000000000e+00 0.0 
2.847826086957e+01 -5.000000000000e+00 0.0 
2.945652173913e+01 -5.000000000000e+00 0.0 
3.043478260870e+01 -5.000000000000e+00 0.0 
3.141304347826e+01 -5.000000000000e+00 0.0 
3.239130434783e+01 -5.000000000000e+00 0.0 
3.336956521739e+01 -5.000000000000e+00 0.0 
3.434782608696e+01 -5.000000000000e+00 0.0 
3.532608695652e+01 -5.000000000000e+00 0.0 
3.630434782609e+01 -5.000000000000e+00 0.0 
3.728260869565e+01 -5.000000000000e+00 0.0 
3.826086956522e+01 -5.000000000000e+00 0.0 
3.923913043478e+01 -5.000000000000e+00 0.0 
4.021739130435e+01 -5.000000000000e+00 0.0 
4.119565217391e+01 -5.000000000000e+00 0.0 
4.217391304348e+01 -5.000000000000e+00 0.0 
4.315217391304e+01 -5.000000000000e+00 0.0 
4.413043478261e+01 -5.000000000000e+00 0.0 
4.510869565217e+01 -5.000000000000e+00 0.0 
4.608695652174e+01 -5.000000000000e+00 0.0 
4.706521739130e+01 -5.000000000000e+00 0.0 
4.804347826087e+01 -5.000000000000e+00 0.0 
4.902173913043e+01 -5.000000000000e+00 0.0 
4.900000000001e+01 -6.000000000000e+00 0.0 
4.800000000003e+01 -6.000000000000e+00 0.0 
4.700000000004e+01 -6.000000000000e+00 0.0 
4.600000000006e+01 -6.000000000000e+00 0.0 
4.500000000007e+01 -6.000000000000e+00 0.0 
4.400000000009e+01 -6.000000000000e+00 0.0 
4.300000000010e+01 -6.000000000000e+00 0.0 
4.200000000012e+01 -6.000000000000e+00 0.0 
4.100000000013e+01 -6.000000000000e+00 0.0 
4.000000000014e+01 -6.000000000000e+00 0.0 
3.900000000014e+01 -6.000000000000e+00 0.0 
3.800000000012e+01 -6.000000000000e+00 0.0 
3.700000000010e+01 -6.000000000000e+00 0.0 
3.600000000008e+01 -6.000000000000e+00 0.0 
3.500000000006e+01 -6.000000000000e+00 0.0 
3.400000000005e+01 -6.000000000000e+00 0.0 
3.300000000003e+01 -6.000000000000e+00 0.0 
3.200000000001e+01 -6.000000000000e+00 0.0 
3.100000000000e+01 -6.000000000000e+00 0.0 
3.000000000000e+01 -6.000000000000e+00 0.0 
3.147499999998e+01 -7.000000000000e+00 0.0 
3.244999999998e+01 -7.000000000000e+00 0.0 
3.342499999998e+01 -7.000000000000e+00 0.0 
3.439999999998e+01 -7.000000000000e+00 0.0 
3.537499999998e+01 -7.000000000000e+00 0.0 
3.634999999998e+01 -7.000000000000e+00 0.0 
3.732499999998e+01 -7.000000000000e+00 0.0 
3.829999999998e+01 -7.000000000000e+00 0.0 
3.927499999999e+01 -7.000000000000e+00 0.0 
4.024999999999e+01 -7.000000000000e+00 0.0 
4.122499999999e+01 -7.000000000000e+00 0.0 
4.219999999999e+01 -7.000000000000e+00 0.0 
4.317499999999e+01 -7.000000000000e+00 0.0 
4.414999999999e+01 -7.000000000000e+00 0.0 
4.512499999999e+01 -7.000000000000e+00 0.0 
4.609999999999e+01 -7.000000000000e+00 0.0 
4.707500000000e+01 -7.000000000000e+00 0.0 
4.805000000000e+01 -7.000000000000e+00 0.0 
4.902500000000e+01 -7.000000000000e+00 0.0 
4.900000000000e+01 -8.000000000000e+00 0.0 
4.800000000000e+01 -8.000000000000e+00 0.0 
4.700000000000e+01 -8.000000000000e+00 0.0 
4.600000000000e+01 -8.000000000000e+00 0.0 
4.500000000000e+01 -8.000000000000e+00 0.0 
4.400000000000e+01 -8.000000000000e+00 0.0 
4.300000000000e+01 -8.000000000000e+00 0.0 
4.200000000000e+01 -8.000000000000e+00 0.0 
4.100000000000e+01 -8.000000000000e+00 0.0 
4.000000000000e+01 -8.000000000000e+00 0.0 
3.900000000000e+01 -8.000000000000e+00 0.0 
3.800000000000e+01 -8.000000000000e+00 0.0 
3.700000000000e+01 -8.000000000000e+00 0.0 
3.600000000000e+01 -8.000000000000e+00 0.0 
3.500000000000e+01 -8.000000000000e+00 0.0 
3.400000000000e+01 -8.000000000000e+00 0.0 
3.300000000000e+01 -8.000000000000e+00 0.0 
3.447058823527e+01 -9.000000000000e+00 0.0 
3.544117647055e+01 -9.000000000000e+00 0.0 
3.641176470582e+01 -9.000000000000e+00 0.0 
3.738235294109e+01 -9.000000000000e+00 0.0 
3.835294117637e+01 -9.000000000000e+00 0.0 
3.932352941164e+01 -9.000000000000e+00 0.0 
4.029411764691e+01 -9.000000000000e+00 0.0 
4.126470588219e+01 -9.000000000000e+00 0.0 
4.223529411748e+01 -9.000000000000e+00 0.0 
4.320588235279e+01 -9.000000000000e+00 0.0 
4.417647058811e+01 -9.000000000000e+00 0.0 
4.514705882342e+01 -9.000000000000e+00 0.0 
4.611764705874e+01 -9.000000000000e+00 0.0 
4.708823529405e+01 -9.000000000000e+00 0.0 
4.805882352937e+01 -9.000000000000e+00 0.0 
4.902941176468e+01 -9.000000000000e+00 0.0 
2.075000000000e+01 -5.000000000006e-01 0.0 
2.225000000000e+01 -1.500000000000e+00 0.0 
2.375000000000e+01 -2.500000000000e+00 0.0 
2.525000000000e+01 -3.500000000000e+00 0.0 
2.675000000000e+01 -4.500000000000e+00 0.0 
2.825000000000e+01 -5.500000000000e+00 0.0 
2.975000000000e+01 -6.500000000000e+00 0.0 
3.125000000000e+01 -7.500000000000e+00 0.0 
3.275000000000e+01 -8.500000000000e+00 0.0 
3.425000000000e+01 -9.500000000000e+00 0.0 
2.226951693683e+01 -2.403913980114e+00 0.0 
1.650149491944e+01 -1.913490915758e+01 0.0 
1.050042386896e+01 -8.504605092970e-01 0.0 
1.553146524712e+01 -8.281255032105e-01 0.0 
1.150000000008e+01 -1.913397459621e+01 0.0 
2.530060260647e+01 -4.428336431260e+00 0.0 
8.651114563942e-01 -1.052096295641e+01 0.0 
2.050000000013e+01 -1.913397459622e+01 0.0 
2.819198729811e+01 -6.399519052838e+00 0.0 
2.445670302931e+01 -1.915649188023e+01 0.0 
3.117591465718e+01 -8.394293040695e+00 0.0 
7.465053044742e+00 -1.920411160581e+01 0.0 
6.398295709691e+00 -8.230098819370e-01 0.0 
2.849659607461e+01 -1.914296187762e+01 0.0 
3.418732642882e+01 -1.040265792588e+01 0.0 
8.386450935063e-01 -6.533605142809e+00 0.0 
9.178661865596e-01 -1.329769195597e+01 0.0 
3.149448624493e+01 -1.910466733764e+01 0.0 
3.552916747426e+01 -1.914628590759e+01 0.0 
4.449210346537e+01 -1.914359085008e+01 0.0 
4.140975975145e+01 -1.906941860733e+01 0.0 
3.847475958753e+01 -1.916622382724e+01 0.0 
3.653774794640e+01 -1.088712800241e+01 0.0 
4.047886341787e+01 -1.090139014048e+01 0.0 
4.348006339825e+01 -1.092792621489e+01 0.0 
4.919519968029e+01 -1.451526755068e+01 0.0 
4.500000000032e+00 -1.913397459621e+01 0.0 
1.856136921614e+01 -8.212235170404e-01 0.0 
3.499895312306e+00 -8.661165539723e-01 0.0 
9.076088696565e-01 -1.642306201891e+01 0.0 
4.655174095477e+01 -1.086183387525e+01 0.0 
9.430688970604e-01 -3.496112672958e+00 0.0 
3.353992337063e+01 -1.901202090820e+01 0.0 
2.249746016977e+01 -1.921262287282e+01 0.0 
2.650122741777e+01 -1.916123026018e+01 0.0 
1.863571384842e+01 -1.908325534840e+01 0.0 
1.450089971693e+01 -1.917691901860e+01 0.0 
1.350044695317e+01 -8.659695299584e-01 0.0 
3.849987469880e+01 -1.084154983397e+01 0.0 
9.454419857884e+00 -1.900818879936e+01 0.0 
4.917398660523e+01 -1.645692866081e+01 0.0 
8.500000000000e+00 -8.660254037844e-01 0.0 
8.660319230785e-01 -8.500111697188e+00 0.0 
4.649022621545e+01 -1.930506220113e+01 0.0 
2.667688107845e+01 -5.420288124331e+00 0.0 
2.379251615665e+01 -3.412225477429e+00 0.0 
2.966631491830e+01 -7.389030232731e+00 0.0 
3.267915035995e+01 -9.396934932445e+00 0.0 
2.074836922338e+01 -1.320054020319e+00 0.0 
4.915985743621e+01 -1.261973384855e+01 0.0 
2.527129768623e+00 -1.931592414663e+01 0.0 
1.538676247410e+00 -8.436956619311e-01 0.0 
4.908096641539e+01 -1.842484004551e+01 0.0 
3.478612492673e+01 -1.090889364140e+01 0.0 
3.409757055860e+01 -1.131991530427e+01 0.0 
3.501895309466e+01 -1.177687842717e+01 0.0 
3.407758073088e+01 -1.224293381580e+01 0.0 
3.484541875390e+01 -1.277051428430e+01 0.0 
3.400322025842e+01 -1.319022775640e+01 0.0 
3.321672625034e+01 -1.266779191233e+01 0.0 
3.315244139236e+01 -1.360984106532e+01 0.0 
3.236335186892e+01 -1.308463225210e+01 0.0 
3.478337442841e+01 -1.372341158982e+01 0.0 
3.230105923633e+01 -1.403023731610e+01 0.0 
3.150954055289e+01 -1.350301767700e+01 0.0 
3.144604792090e+01 -1.444931742516e+01 0.0 
3.065653897123e+01 -1.392357262981e+01 0.0 
3.071897610812e+01 -1.297447031198e+01 0.0 
2.986790411740e+01 -1.339226181535e+01 0.0 
2.993181466745e+01 -1.244703272398e+01 0.0 
2.908023061869e+01 -1.286254537734e+01 0.0 
2.901619051372e+01 -1.380881655279e+01 0.0 
2.822986160390e+01 -1.327695262116e+01 0.0 
2.829453476870e+01 -1.233265343811e+01 0.0 
2.744542905518e+01 -1.274510491105e+01 0.0 
2.751120089246e+01 -1.180368086886e+01 0.0 
2.666218649885e+01 -1.221619339205e+01 0.0 
2.672371209234e+01 -1.127125228527e+01 0.0 
2.587763216302e+01 -1.168539979114e+01 0.0 
2.581165585299e+01 -1.262994410089e+01 0.0 
2.502890882577e+01 -1.209827323619e+01 0.0 
2.509631327757e+01 -1.115492410304e+01 0.0 
2.424662989877e+01 -1.156630981079e+01 0.0 
2.431704046904e+01 -1.062389179334e+01 0.0 
2.346445438728e+01 -1.103427680694e+01 0.0 
2.339382552877e+01 -1.197964871788e+01 0.0 
2.260936050780e+01 -1.144513277642e+01 0.0 
2.268075012022e+01 -1.049911928216e+01 0.0 
2.182525737661e+01 -1.090920811464e+01 0.0 
2.189682319817e+01 -9.961716944568e+00 0.0 
2.104174127792e+01 -1.037266986667e+01 0.0 
2.111304367575e+01 -9.424179358711e+00 0.0 
2.025306185381e+01 -9.832727364719e+00 0.0 
2.018141124247e+01 -1.079140628871e+01 0.0 
1.938594498257e+01 -1.025147354112e+01 0.0 
1.946106490453e+01 -9.288010758448e+00 0.0 
1.858929958352e+01 -9.706319802516e+00 0.0 
1.851540991219e+01 -1.067205988724e+01 0.0 
1.771485303178e+01 -1.012504443115e+01 0.0 
1.764134552256e+01 -1.109360378538e+01 0.0 
1.683745148095e+01 -1.054496365337e+01 0.0 
1.691852964353e+01 -9.582555261178e+00 0.0 
1.603603813062e+01 -1.000160132379e+01 0.0 
1.595824239350e+01 -1.096750698862e+01 0.0 
1.515080624291e+01 -1.041639501931e+01 0.0 
1.523171602559e+01 -9.451711491453e+00 0.0 
1.434621060709e+01 -9.871956467464e+00 0.0 
1.426777178765e+01 -1.083749501371e+01 0.0 
1.345775282374e+01 -1.028803175500e+01 0.0 
1.354103873368e+01 -9.324918457162e+00 0.0 
1.265072018622e+01 -9.742612837270e+00 0.0 
1.257285762070e+01 -1.071557782384e+01 0.0 
1.175874815690e+01 -1.015972324288e+01 0.0 
1.184203019714e+01 -9.193604071377e+00 0.0 
1.094927709905e+01 -9.612103238656e+00 0.0 
1.086938022910e+01 -1.058685085646e+01 0.0 
1.005424098961e+01 -1.002939116380e+01 0.0 
9.977974613295e+00 -1.101324897989e+01 0.0 
1.012915646404e+01 -9.051815821181e+00 0.0 
9.237127782494e+00 -9.471239055559e+00 0.0 
9.308426593771e+00 -8.483376461131e+00 0.0 
8.418806073345e+00 -8.910712374517e+00 0.0 
2.253688464062e+01 -1.239459402279e+01 0.0 
8.495126726666e+00 -7.921646665254e+00 0.0 
9.389727383206e+00 -7.512103628377e+00 0.0 
7.601560812974e+00 -8.349460349344e+00 0.0 
7.525680547759e+00 -9.339736686940e+00 0.0 
7.677888324502e+00 -7.359727833346e+00 0.0 
6.782001206724e+00 -7.788454494773e+00 0.0 
6.858778622885e+00 -6.797338062822e+00 0.0 
2.196596590865e+01 -8.979025665442e+00 0.0 
2.816540108272e+01 -1.422634142353e+01 0.0 
5.961601194403e+00 -7.226824010712e+00 0.0 
6.038171749656e+00 -6.234825887079e+00 0.0 
6.936257279557e+00 -5.805287640737e+00 0.0 
6.115068918323e+00 -5.242109758768e+00 0.0 
3.564391741903e+01 -1.329240553876e+01 0.0 
3.558115605778e+01 -1.425902892003e+01 0.0 
3.645445282201e+01 -1.381970786460e+01 0.0 
3.639744204358e+01 -1.479198128612e+01 0.0 
3.727266909778e+01 -1.435399586226e+01 0.0 
5.216667013081e+00 -5.671788584287e+00 0.0 
3.220697293295e+01 -1.499594545107e+01 0.0 
3.551112158269e+01 -1.523479869250e+01 0.0 
2.836056961467e+01 -1.139032434851e+01 0.0 
2.516730388602e+01 -1.021382726837e+01 0.0 
1.844436907403e+01 -1.164097215196e+01 0.0 
5.885434318740e+00 -8.218694781467e+00 0.0 
5.064071066867e+00 -7.656614643901e+00 0.0 
4.988089103470e+00 -8.649722082718e+00 0.0 
1.079421050408e+01 -1.157014985435e+01 0.0 
9.902420005256e+00 -1.199903342656e+01 0.0 
1.071994252214e+01 -1.255727909771e+01 0.0 
9.826974788171e+00 -1.298659581767e+01 0.0 
1.064607883789e+01 -1.354595476388e+01 0.0 
9.751541265343e+00 -1.397556905071e+01 0.0 
8.932296185869e+00 -1.341553353988e+01 0.0 
8.856399248106e+00 -1.440570715508e+01 0.0 
8.036186803543e+00 -1.384470558472e+01 0.0 
1.057112875118e+01 -1.453516759081e+01 0.0 
1.146582585687e+01 -1.410539926903e+01 0.0 
7.959894480382e+00 -1.483563350928e+01 0.0 
7.138792279156e+00 -1.427465094140e+01 0.0 
7.062506792418e+00 -1.526615385482e+01 0.0 
6.240693558277e+00 -1.470508863040e+01 0.0 
6.316957575451e+00 -1.371212581281e+01 0.0 
5.418183007107e+00 -1.414253605022e+01 0.0 
5.494748364428e+00 -1.314886770603e+01 0.0 
1.756825565873e+01 -1.206433872514e+01 0.0 
1.837565773345e+01 -1.261356468266e+01 0.0 
1.749574831391e+01 -1.303769280014e+01 0.0 
1.830539187332e+01 -1.358828364284e+01 0.0 
1.742278925170e+01 -1.401367746928e+01 0.0 
1.823303007798e+01 -1.456432294258e+01 0.0 
1.734941694138e+01 -1.499213734361e+01 0.0 
1.653760041637e+01 -1.443920312098e+01 0.0 
3.056237977307e+01 -1.487132260174e+01 0.0 
1.866469084762e+01 -8.742953000418e+00 0.0 
1.953669694916e+01 -8.326038909849e+00 0.0 
1.874194303780e+01 -7.780688158966e+00 0.0 
1.961032016741e+01 -7.366854697285e+00 0.0 
1.881715755159e+01 -6.821102209649e+00 0.0 
1.968369797150e+01 -6.407747217358e+00 0.0 
1.889237123259e+01 -5.858375520026e+00 0.0 
1.802038875366e+01 -6.276202618170e+00 0.0 
1.809793837984e+01 -5.307629520489e+00 0.0 
1.721985207997e+01 -5.728242054488e+00 0.0 
1.729850893523e+01 -4.756990819347e+00 0.0 
1.641745664240e+01 -5.174636548624e+00 0.0 
2.495978509456e+01 -1.304406404294e+01 0.0 
1.911567814831e+01 -1.413854250293e+01 0.0 
1.904387332608e+01 -1.511463127723e+01 0.0 
1.992115934240e+01 -1.468788025898e+01 0.0 
7.013706899628e+00 -4.812582868662e+00 0.0 
5.342091874585e+00 -1.513658157269e+01 0.0 
1.139098043784e+01 -1.509488509480e+01 0.0 
1.228151810610e+01 -1.465617481983e+01 0.0 
1.646373110164e+01 -1.541993323337e+01 0.0 
5.293328636712e+00 -4.678385108584e+00 0.0 
1.975965862987e+01 -5.448124345648e+00 0.0 
2.054318374236e+01 -5.992561293251e+00 0.0 
3.721453439063e+01 -1.533216152738e+01 0.0 
3.809302733893e+01 -1.489235527381e+01 0.0 
1.220852788900e+01 -1.565304565230e+01 0.0 
4.394120899730e+00 -5.108397613210e+00 0.0 
8.779354620288e+00 -1.539524721159e+01 0.0 
1.817791047702e+01 -4.338570146253e+00 0.0 
4.518860013839e+00 -1.457343189307e+01 0.0 
4.442712140414e+00 -1.556841391069e+01 0.0 
8.115343466391e+00 -1.285760324283e+01 0.0 
1.985334703171e+01 -1.566478400426e+01 0.0 
2.071953850276e+01 -1.522074243119e+01 0.0 
1.634012953883e+01 -6.154777738301e+00 0.0 
1.553479994708e+01 -5.593730508879e+00 0.0 
1.561265946942e+01 -4.617761762647e+00 0.0 
1.470674212978e+01 -5.064576488228e+00 0.0 
1.464498299883e+01 -6.026514471420e+00 0.0 
1.383271561817e+01 -5.467796261169e+00 0.0 
1.389241253067e+01 -4.504338666645e+00 0.0 
1.301868735463e+01 -4.907185188626e+00 0.0 
1.294514184846e+01 -5.888160903592e+00 0.0 
1.212955968622e+01 -5.328262335277e+00 0.0 
1.220721122383e+01 -4.341264976687e+00 0.0 
1.131324345897e+01 -4.766773516508e+00 0.0 
5.266597955397e+00 -1.613148974258e+01 0.0 
1.737805990867e+01 -3.786677807525e+00 0.0 
3.078438094513e+01 -1.203225297748e+01 0.0 
1.131569882285e+01 -1.608511932110e+01 0.0 
1.728478341782e+01 -1.596017432313e+01 0.0 
3.803465906019e+01 -1.587509751228e+01 0.0 
3.891681276677e+01 -1.543395196905e+01 0.0 
3.897340985302e+01 -1.444710288980e+01 0.0 
3.980095968193e+01 -1.499059496613e+01 0.0 
3.974334598189e+01 -1.597921884150e+01 0.0 
4.062964983717e+01 -1.553518690417e+01 0.0 
4.068729602479e+01 -1.454434445295e+01 0.0 
4.151772679790e+01 -1.508974196007e+01 0.0 
4.157505195739e+01 -1.409694289912e+01 0.0 
4.240699932656e+01 -1.464347955968e+01 0.0 
4.234898051011e+01 -1.563721375790e+01 0.0 
4.323934606035e+01 -1.519082036405e+01 0.0 
4.329740528208e+01 -1.419587509788e+01 0.0 
4.413056841369e+01 -1.474359631875e+01 0.0 
4.418850110108e+01 -1.374786684042e+01 0.0 
4.502219770667e+01 -1.429605103525e+01 0.0 
4.496411937907e+01 -1.529215882720e+01 0.0 
4.490027319897e+00 -4.154167794594e+00 0.0 
1.565080385988e+01 -1.486411982419e+01 0.0 
1.557610691279e+01 -1.584855627870e+01 0.0 
4.195350646612e+00 -8.089117689096e+00 0.0 
4.124027797830e+00 -9.082831955007e+00 0.0 
4.917944318925e+00 -9.643530901533e+00 0.0 
4.020105689502e+00 -1.007439673661e+01 0.0 
4.587185899277e+01 -1.484039992728e+01 0.0 
4.580078661551e+01 -1.584043391042e+01 0.0 
2.061956522375e+01 -5.046701343981e+00 0.0 
2.139572955529e+01 -5.579553449826e+00 0.0 
3.715344357292e+01 -1.631485124583e+01 0.0 
3.618886196443e+00 -1.500471207167e+01 0.0 
3.695606940204e+00 -1.400939692294e+01 0.0 
2.438890661143e+01 -9.686110599723e+00 0.0 
2.523267572778e+01 -9.276766000622e+00 0.0 
2.446094171539e+01 -8.751904591412e+00 0.0 
2.529089822738e+01 -8.321495612547e+00 0.0 
2.606882688827e+01 -8.864724051119e+00 0.0 
2.452116646430e+01 -7.792756462004e+00 0.0 
1.235543269617e+01 -1.365845617339e+01 0.0 
4.318116874181e+01 -1.618567469992e+01 0.0 
7.835066111909e+00 -5.376366223896e+00 0.0 
7.905687335704e+00 -4.382539065697e+00 0.0 
3.542640009567e+00 -1.600035116542e+01 0.0 
1.572431503071e+01 -1.388358386695e+01 0.0 
2.574684696680e+01 -1.357896141127e+01 0.0 
2.488842657651e+01 -1.399674354505e+01 0.0 
2.568301775611e+01 -1.453552048595e+01 0.0 
2.481535572009e+01 -1.495542756508e+01 0.0 
2.561729699688e+01 -1.549784648532e+01 0.0 
2.474623061296e+01 -1.592058894178e+01 0.0 
2.394234041695e+01 -1.537572575827e+01 0.0 
2.065825452567e+01 -1.621899055217e+01 0.0 
2.387180528935e+01 -1.634552264687e+01 0.0 
4.585364400844e+01 -1.383912334080e+01 0.0 
1.998744432052e+01 -1.370317155541e+01 0.0 
1.205356951443e+01 -6.313580285498e+00 0.0 
5.396543905849e+00 -3.731818611283e+00 0.0 
1.139652573295e+01 -3.745819399350e+00 0.0 
3.574124306703e+00 -4.551456826011e+00 0.0 
3.494140761930e+00 -5.539787055649e+00 0.0 
1.213651452413e+01 -1.664505033022e+01 0.0 
2.555045568519e+01 -1.646529356744e+01 0.0 
2.641671114986e+01 -1.603899382371e+01 0.0 
2.612920721894e+01 -7.906435260873e+00 0.0 
2.690339829698e+01 -8.456969591431e+00 0.0 
1.978024383368e+01 -1.664410216353e+01 0.0 
3.732829979082e+01 -1.336926601859e+01 0.0 
4.074336584605e+01 -1.355133328401e+01 0.0 
4.163204691081e+01 -1.310280943992e+01 0.0 
3.773826114429e+00 -3.493444309145e+00 0.0 
1.228783001032e+01 -3.374822835872e+00 0.0 
4.057110462520e+01 -1.652588478000e+01 0.0 
2.132535497898e+01 -6.523623360525e+00 0.0 
2.216932532211e+01 -6.110044769206e+00 0.0 
1.825781152128e+01 -3.370146817147e+00 0.0 
1.745679445888e+01 -2.812942552063e+00 0.0 
4.666517057280e+01 -1.539981381543e+01 0.0 
4.660575894464e+01 -1.639014410186e+01 0.0 
4.838230979954e+00 -1.063643436446e+01 0.0 
3.938942630206e+00 -1.106778981745e+01 0.0 
1.302967218620e+01 -1.621373452436e+01 0.0 
1.049548003190e+01 -4.204825123240e+00 0.0 
4.573571907195e+01 -1.683820511148e+01 0.0 
1.483686335807e+01 -1.430849689310e+01 0.0 
1.490982658890e+01 -1.332679386284e+01 0.0 
3.190805600162e+00 -9.510968358545e+00 0.0 
2.146625721848e+01 -4.642437303115e+00 0.0 
2.069866208266e+01 -4.111852942193e+00 0.0 
1.286859345584e+01 -6.873252723348e+00 0.0 
1.041794493184e+01 -5.194814260291e+00 0.0 
2.671081808965e+00 -4.976806516331e+00 0.0 
1.295786792925e+01 -1.720506531799e+01 0.0 
3.968438206511e+01 -1.696869067241e+01 0.0 
2.308550456051e+01 -1.579963151273e+01 0.0 
2.315593682844e+01 -1.482967445235e+01 0.0 
2.299471449450e+01 -1.677069968132e+01 0.0 
1.057344714696e+01 -3.214252277840e+00 0.0 
1.124057603753e+01 -1.707713739755e+01 0.0 
2.718402535754e+00 -1.543629882103e+01 0.0 
2.638549692805e+01 -1.696744916809e+01 0.0 
2.723416349007e+01 -1.658104204545e+01 0.0 
2.210193351704e+01 -7.046769643417e+00 0.0 
2.295180925161e+01 -6.657397605239e+00 0.0 
2.301355235833e+01 -5.709111896800e+00 0.0 
2.379052718281e+01 -6.254965406962e+00 0.0 
3.243528601237e+01 -1.214181853533e+01 0.0 
2.287977995457e+01 -7.583722368300e+00 0.0 
2.999876029544e+01 -1.150837653096e+01 0.0 
3.084435366963e+01 -1.109693775882e+01 0.0 
3.006650579669e+01 -1.057778994262e+01 0.0 
2.683802665066e+01 -9.386863216633e+00 0.0 
2.768641973621e+01 -8.988883915666e+00 0.0 
2.040296980397e+01 -7.903629133404e+00 0.0 
1.925235024054e+01 -1.218872783130e+01 0.0 
5.735667000424e+00 -1.020577277283e+01 0.0 
6.396559909872e+00 -1.272326295703e+01 0.0 
1.161199420714e+01 -1.212812778229e+01 0.0 
4.229046132615e+01 -1.663084237572e+01 0.0 
4.312275399692e+01 -1.718087491556e+01 0.0 
4.335502068163e+01 -1.320039231514e+01 0.0 
4.424630298089e+01 -1.275160688731e+01 0.0 
7.090116643816e+00 -3.818998061530e+00 0.0 
7.989472176569e+00 -3.389238711200e+00 0.0 
9.085824861778e+00 -1.144036167408e+01 0.0 
1.041972423731e+01 -1.651614080893e+01 0.0 
3.797525112640e+01 -1.686052038746e+01 0.0 
3.709114253394e+01 -1.730125999865e+01 0.0 
3.626966748340e+01 -1.675477052919e+01 0.0 
1.385164591440e+01 -1.677597757552e+01 0.0 
1.787152588784e+01 -8.198993896093e+00 0.0 
1.668849729812e+01 -1.248560611628e+01 0.0 
1.659546177905e+01 -3.232482605530e+00 0.0 
2.332214717345e+01 -1.292598167641e+01 0.0 
7.168238450786e+00 -2.824711686516e+00 0.0 
2.894878403906e+01 -1.475427524446e+01 0.0 
2.646763248247e+00 -1.643270107952e+01 0.0 
3.467431944285e+00 -1.699648837348e+01 0.0 
2.059475877282e+01 -1.719473628526e+01 0.0 
3.333868355437e+01 -1.080596971682e+01 0.0 
2.246451062637e+01 -1.334557761546e+01 0.0 
2.167821896388e+01 -1.280847834858e+01 0.0 
3.089653185767e+01 -1.017198487212e+01 0.0 
3.012604365669e+01 -9.657298805968e+00 0.0 
2.929627299435e+01 -1.006100135274e+01 0.0 
2.936201435219e+01 -9.136748899251e+00 0.0 
1.198219052702e+01 -7.291887238230e+00 0.0 
1.116702076035e+01 -6.731976101053e+00 0.0 
2.551388807505e+01 -1.746927036981e+01 0.0 
2.378639090370e+01 -1.728678807149e+01 0.0 
2.718543627188e+01 -1.748668016909e+01 0.0 
2.804681050301e+01 -1.712626668293e+01 0.0 
1.970737034667e+01 -1.762317646822e+01 0.0 
1.889535776135e+01 -1.707158098231e+01 0.0 
2.593777711283e+00 -5.971157087874e+00 0.0 
2.773468281110e+01 -8.067164273938e+00 0.0 
4.051205884347e+01 -1.751819982458e+01 0.0 
3.166903145421e+01 -1.068032992414e+01 0.0 
1.033042452886e+01 -1.748285844336e+01 0.0 
9.519274604626e+00 -1.694349240233e+01 0.0 
1.668308673328e+01 -2.255861778986e+00 0.0 
1.570531902832e+01 -2.676795860126e+00 0.0 
4.655826903379e+01 -1.736656245706e+01 0.0 
2.384148070773e+01 -5.328744256413e+00 0.0 
2.460255123641e+01 -5.852182672816e+00 0.0 
2.306638135119e+01 -4.798935440613e+00 0.0 
8.467720450578e-01 -1.849576263072e+01 0.0 
4.849657322345e+01 -1.084860705506e+01 0.0 
2.565860899507e+00 -1.742859793981e+01 0.0 
2.764418872564e+01 -9.927142821799e+00 0.0 
4.565165880064e+01 -1.785336695404e+01 0.0 
2.162231831329e+01 -1.376528337468e+01 0.0 
2.360646352969e+01 -9.136041963102e+00 0.0 
1.392738739903e+01 -1.578285505772e+01 0.0 
4.756405947478e+01 -1.683706841809e+01 0.0 
4.740895034054e+01 -1.793766756892e+01 0.0 
4.080779328826e+01 -1.257387192544e+01 0.0 
4.168907939671e+01 -1.210739129181e+01 0.0 
3.991197722154e+01 -1.300815793917e+01 0.0 
1.905536506762e+01 -3.940076697685e+00 0.0 
1.923879596617e+01 -2.875000734166e+00 0.0 
4.401386745746e+01 -1.673483229438e+01 0.0 
4.247233362525e+00 -7.094581653070e+00 0.0 
3.286051630211e+00 -7.635300020553e+00 0.0 
9.609533347623e+00 -4.594311677967e+00 0.0 
9.523554636369e+00 -5.595597029530e+00 0.0 
5.660336628893e+00 -1.119290329628e+01 0.0 
6.558070063295e+00 -1.076385809362e+01 0.0 
2.809866407414e+01 -1.518037766799e+01 0.0 
2.888868674504e+01 -1.570360690070e+01 0.0 
2.654431550819e+01 -1.411217777162e+01 0.0 
1.402158265969e+01 -1.375404617952e+01 0.0 
1.409592494026e+01 -1.277071998942e+01 0.0 
1.499355196178e+01 -1.235270737023e+01 0.0 
4.221535326155e+01 -1.759335617494e+01 0.0 
4.305583287033e+01 -1.822663146802e+01 0.0 
1.280748808359e+01 -7.834332838285e+00 0.0 
1.368988389326e+01 -7.420529606172e+00 0.0 
1.110091796060e+01 -7.683966794328e+00 0.0 
3.963446145980e+01 -1.794331310122e+01 0.0 
3.423932362213e+00 -1.796415590455e+01 0.0 
4.280814572302e+00 -1.752272834860e+01 0.0 
8.050136380041e+00 -2.421582378631e+00 0.0 
8.888674091650e+00 -2.984264211327e+00 0.0 
2.152839430898e+01 -3.732609965436e+00 0.0 
2.077799585292e+01 -3.183896021866e+00 0.0 
3.618719395821e+01 -1.770276572576e+01 0.0 
3.538165138340e+01 -1.718709995539e+01 0.0 
3.702925326420e+01 -1.828844288807e+01 0.0 
1.756739438711e+00 -5.353284859169e+00 0.0 
2.233710191104e+01 -1.527265621324e+01 0.0 
1.389483555057e+01 -1.771797164730e+01 0.0 
1.475634224300e+01 -1.728357428390e+01 0.0 
1.298797563052e+01 -1.825968924755e+01 0.0 
2.145331271866e+01 -1.673705379077e+01 0.0 
2.133282821169e+01 -1.769400773673e+01 0.0 
2.292139194136e+01 -1.774915400288e+01 0.0 
1.750750053243e+01 -1.861475593469e+00 0.0 
4.830478841772e+01 -1.752611802221e+01 0.0 
4.341203507805e+01 -1.220326745522e+01 0.0 
1.685254151866e+01 -1.443085301632e+00 0.0 
4.431538535165e+01 -1.171841387375e+01 0.0 
4.511308610496e+01 -1.229557320599e+01 0.0 
4.510133242889e+01 -1.123680627466e+01 0.0 
1.846818030617e+00 -4.410877617069e+00 0.0 
3.995468694584e+01 -1.186571542989e+01 0.0 
3.901387459804e+01 -1.242507616755e+01 0.0 
8.966735877533e+00 -1.837818700423e+00 0.0 
4.049310011091e+01 -1.848269508791e+01 0.0 
7.278862053803e+00 -1.918523922691e+00 0.0 
6.429715522129e+00 -2.316676521184e+00 0.0 
9.443505505022e+00 -1.792198868094e+01 0.0 
8.620386951051e+00 -1.737590365556e+01 0.0 
8.571868171503e+00 -1.834436667826e+01 0.0 
7.758629848526e+00 -1.775677907213e+01 0.0 
7.806648388584e+00 -1.680761266021e+01 0.0 
6.908555145436e+00 -1.723746463044e+01 0.0 
4.251709122090e+01 -1.156937480156e+01 0.0 
6.931136405615e+00 -1.832465719263e+01 0.0 
6.015545461353e+00 -1.768865355295e+01 0.0 
5.960535926343e+00 -1.872011001764e+01 0.0 
3.023253444786e+01 -8.761960642196e+00 0.0 
2.454622702599e+01 -6.749421992767e+00 0.0 
2.537499741604e+01 -6.347634963783e+00 0.0 
2.544077378460e+01 -5.431358513649e+00 0.0 
2.801367161747e+01 -1.820907270221e+01 0.0 
2.884507806914e+01 -1.762032095326e+01 0.0 
1.821474531936e+00 -1.588901260460e+01 0.0 
1.821006262604e+00 -1.489370287756e+01 0.0 
4.599962488908e+01 -1.176478780598e+01 0.0 
4.705457470007e+01 -1.172182804229e+01 0.0 
4.667668314802e+01 -1.263464558483e+01 0.0 
4.759648056504e+01 -1.252380987933e+01 0.0 
4.728041618103e+01 -1.341928568376e+01 0.0 
4.825209352360e+01 -1.330491640804e+01 0.0 
4.778118233428e+01 -1.420151961695e+01 0.0 
2.388192727579e+01 -1.826934810142e+01 0.0 
2.381714684947e+01 -4.385917965223e+00 0.0 
3.172733219247e+01 -9.758744265248e+00 0.0 
1.882012070658e+01 -1.805540597212e+01 0.0 
1.805667505243e+01 -1.742221226236e+01 0.0 
2.852599958080e+01 -8.597196079481e+00 0.0 
2.856486123437e+01 -7.661382718527e+00 0.0 
1.111792842875e+01 -1.818223852980e+01 0.0 
2.203322722466e+01 -7.986646678802e+00 0.0 
3.955703676900e+01 -1.903246763601e+01 0.0 
1.944842206513e+01 -8.038750575182e-01 0.0 
1.909882767783e+01 -1.746322740933e+00 0.0 
2.281147422941e+01 -8.525912918334e+00 0.0 
2.850633001468e+01 -9.533271335986e+00 0.0 
2.532883344309e+01 -7.308951659710e+00 0.0 
2.620475466461e+01 -6.979208585400e+00 0.0 
1.396278270396e+01 -1.475095389807e+01 0.0 
9.791001166724e+00 -2.554159793552e+00 0.0 
2.229293380421e+01 -4.269762271052e+00 0.0 
4.677238984118e+01 -1.430071795514e+01 0.0 
2.228658385918e+01 -3.344747535984e+00 0.0 
8.940223674553e-01 -1.543595733415e+01 0.0 
2.118566862474e+01 -8.435876987696e+00 0.0 
2.678325936437e+01 -1.032621195706e+01 0.0 
2.223400220487e+01 -5.179046761770e+00 0.0 
2.375370625384e+01 -7.251580562134e+00 0.0 
3.156971327386e+01 -1.255534750737e+01 0.0 
3.328226391312e+01 -1.172914813316e+01 0.0 
3.250948774219e+01 -1.120157009348e+01 0.0 
2.032993445717e+01 -8.867880112202e+00 0.0 
2.697226974856e+01 -7.536633082045e+00 0.0 
2.707377810386e+01 -6.590835263295e+00 0.0 
2.914099246827e+01 -1.191678458549e+01 0.0 
3.544824072239e+01 -1.621126558525e+01 0.0 
3.456511855436e+01 -1.665054783843e+01 0.0 
3.448395810225e+01 -1.759117813016e+01 0.0 
3.368378673938e+01 -1.708037781328e+01 0.0 
3.375560452567e+01 -1.610973066913e+01 0.0 
3.288001547988e+01 -1.654324255651e+01 0.0 
3.282475929147e+01 -1.749725654692e+01 0.0 
3.199880906313e+01 -1.697294088625e+01 0.0 
3.197001272932e+01 -1.811667776864e+01 0.0 
3.111884713021e+01 -1.742166785755e+01 0.0 
3.120418962865e+01 -1.642155709385e+01 0.0 
3.034666704371e+01 -1.683123833816e+01 0.0 
3.026224379976e+01 -1.772592851714e+01 0.0 
3.046632362943e+01 -1.582232843075e+01 0.0 
1.961344017324e+01 -1.857459447985e+01 0.0 
2.274975894774e+01 -9.532738811922e+00 0.0 
1.833923246887e+01 -2.396746883672e+00 0.0 
1.988859500848e+01 -2.249244376594e+00 0.0 
2.758045562861e+01 -1.086434261689e+01 0.0 
3.247300178163e+01 -1.909930104252e+01 0.0 
3.461947482503e+01 -1.911879848019e+01 0.0 
2.047161538662e+01 -6.941478180358e+00 0.0 
2.750230940214e+01 -1.915490590764e+01 0.0 
3.165081350803e+01 -1.161860780120e+01 0.0 
1.897456727641e+01 -4.889634688522e+00 0.0 
2.549338539756e+01 -1.914858252089e+01 0.0 
3.462873135081e+01 -1.567482276144e+01 0.0 
3.384432415243e+01 -1.512280684518e+01 0.0 
3.471433767690e+01 -1.469086942990e+01 0.0 
3.651470373046e+01 -1.918207952149e+01 0.0 
3.901742690249e+01 -1.345028556517e+01 0.0 
2.153224102692e+01 -1.920169709333e+01 0.0 
1.918382939341e+01 -1.316226275662e+01 0.0 
2.005389162382e+01 -1.271962165174e+01 0.0 
2.011472087878e+01 -1.175029352900e+01 0.0 
3.210679478412e+01 -1.598038618242e+01 0.0 
1.752175226543e+01 -1.914713022656e+01 0.0 
1.696897240059e+01 -1.832772588765e+01 0.0 
1.599682523337e+01 -1.832599992024e+01 0.0 
1.644507199462e+01 -1.743697981535e+01 0.0 
1.549987712903e+01 -1.915192375101e+01 0.0 
3.050250861901e+01 -1.918943550234e+01 0.0 
2.949944061527e+01 -1.922950455235e+01 0.0 
1.375892575273e+01 -6.447160534926e+00 0.0 
1.457223670180e+01 -7.006709243857e+00 0.0 
1.450818793236e+01 -7.965943451779e+00 0.0 
1.538804712402e+01 -7.553409623699e+00 0.0 
1.545817644768e+01 -6.580929593419e+00 0.0 
1.626506893751e+01 -7.129032608911e+00 0.0 
1.619833811522e+01 -8.086588580887e+00 0.0 
1.714448609609e+01 -6.697429609777e+00 0.0 
2.887616543568e+01 -1.668015232137e+01 0.0 
1.349814589130e+01 -1.918225301544e+01 0.0 
1.153887772210e+01 -1.311384581217e+01 0.0 
1.242708159886e+01 -1.267046795531e+01 0.0 
1.249799674267e+01 -1.169005616014e+01 0.0 
6.631723893693e+00 -9.774184881867e+00 0.0 
7.451471631867e+00 -1.033148796006e+01 0.0 
7.377795355458e+00 -1.132196345268e+01 0.0 
5.810931797536e+00 -9.211654212252e+00 0.0 
2.402683899133e+01 -1.441378562320e+01 0.0 
1.249768692036e+01 -1.917388426624e+01 0.0 
1.580373499437e+01 -1.290751860664e+01 0.0 
8.344650507834e+00 -9.898403995170e+00 0.0 
3.750622115305e+01 -1.086526401533e+01 0.0 
3.699391251667e+01 -1.171695900794e+01 0.0 
3.606517829518e+01 -1.173717504500e+01 0.0 
3.650257641795e+01 -1.270047380221e+01 0.0 
3.808951488918e+01 -1.183518714175e+01 0.0 
4.760380962420e+00 -1.162484888315e+01 0.0 
3.861210370848e+00 -1.205657631736e+01 0.0 
3.038284309476e+00 -1.149851280664e+01 0.0 
2.961598794889e+00 -1.248856794980e+01 0.0 
2.138953225512e+00 -1.193212674534e+01 0.0 
2.227383593457e+00 -1.096258903918e+01 0.0 
2.043265419276e+00 -1.292158472959e+01 0.0 
1.252449446028e+00 -1.225502002753e+01 0.0 
3.949985210740e+01 -1.086594001795e+01 0.0 
1.453499444792e+01 -8.768805922472e-01 0.0 
1.403518950933e+01 -1.749965556633e+00 0.0 
1.300715031023e+01 -1.714737233040e+00 0.0 
1.350929389899e+01 -2.527443911291e+00 0.0 
1.449600910711e+01 -2.595486162864e+00 0.0 
1.395693872901e+01 -3.484211041558e+00 0.0 
1.495105865208e+01 -3.364609636216e+00 0.0 
1.508822528740e+01 -1.766586020494e+00 0.0 
1.250223858430e+01 -8.634590186802e-01 0.0 
1.200279523409e+01 -1.709044504992e+00 0.0 
1.150086239419e+01 -8.592789190668e-01 0.0 
1.101482754194e+01 -1.677730591922e+00 0.0 
1.148018564526e+01 -2.659323866909e+00 0.0 
8.800552119754e+00 -3.989875954728e+00 0.0 
3.452790439430e+00 -1.901136170646e+01 0.0 
8.658451825200e-01 -9.503462241795e+00 0.0 
1.694787786797e+00 -9.000589234502e+00 0.0 
1.703436717094e+00 -8.038819004041e+00 0.0 
2.594197971110e+00 -8.563955242845e+00 0.0 
1.630513735412e+00 -9.907244747511e+00 0.0 
8.566859292791e-01 -7.512203837972e+00 0.0 
1.685461277022e+00 -7.164280248030e+00 0.0 
2.506394468801e+00 -8.623386730818e-01 0.0 
2.007475081581e+00 -1.727729545205e+00 0.0 
9.211534699767e-01 -1.628791366312e+00 0.0 
1.500000000020e+00 -2.598063549486e+00 0.0 
2.482078929963e+00 -2.553580088725e+00 0.0 
2.999795253092e+00 -1.732169015019e+00 0.0 
3.999712607169e+00 -1.728832897453e+00 0.0 
4.499752199340e+00 -8.656478679175e-01 0.0 
4.964377774841e+00 -1.730129617941e+00 0.0 
4.425017908337e+00 -2.597541756243e+00 0.0 
5.446573195014e+00 -8.410144840023e-01 0.0 
4.915722346614e+01 -1.550640962770e+01 0.0 
4.826794919243e+01 -1.600000000000e+01 0.0 
1.053139533193e+01 -1.911782884365e+01 0.0 
4.156049861949e+01 -1.095160998589e+01 0.0 
9.494526624416e+00 -8.650570090219e-01 0.0 
4.555762166964e+01 -1.897098103585e+01 0.0 
4.250656411371e+01 -1.914387356218e+01 0.0 
4.350906466345e+01 -1.917234727395e+01 0.0 
8.759665722424e-01 -1.746422130609e+01 0.0 
1.698936011838e+00 -1.795012186674e+01 0.0 
4.742476811029e+01 -1.900090177972e+01 0.0 
7.749196752349e+00 -6.368049313489e+00 0.0 
3.361572113416e+01 -1.798765193915e+01 0.0 
4.484660149212e+01 -1.728661231383e+01 0.0 
1.984038172228e+01 -4.502575320116e+00 0.0 
1.035080352627e+01 -6.166639575753e+00 0.0 
2.753558010652e+00 -1.444909521181e+01 0.0 
7.217069543032e+00 -1.328635391078e+01 0.0 
4.364336727739e+00 -1.655585677381e+01 0.0 
4.595208426108e+00 -1.357919665443e+01 0.0 
6.164967006980e+00 -1.569873454630e+01 0.0 
1.487855768353e+01 -1.826523774028e+01 0.0 
2.791876456372e+00 -4.019632415181e+00 0.0 
4.246464893515e+01 -1.364898659620e+01 0.0 
4.503855590351e+01 -1.329552780944e+01 0.0 
4.407239109604e+01 -1.573900004093e+01 0.0 
5.141054449252e+00 -6.664290382472e+00 0.0 
3.141083947149e+00 -1.055790764912e+01 0.0 
6.196463198741e+00 -4.256497932609e+00 0.0 
2.599618716181e+01 -1.836893455464e+01 0.0 
2.923057372337e+01 -1.098461757645e+01 0.0 
1.168343877486e+01 -1.114079645041e+01 0.0 
6.706222096238e+00 -8.780364234441e+00 0.0 
8.567858614669e+00 -6.943121440850e+00 0.0 
1.123755132901e+01 -5.753525820030e+00 0.0 
2.353456234423e+01 -1.008536320953e+01 0.0 
9.162073319168e+00 -1.045593739109e+01 0.0 
9.676343469685e+00 -1.496493008366e+01 0.0 
4.490637882905e+01 -1.628778970202e+01 0.0 
7.398129387772e+00 -9.639977982323e-01 0.0 
1.049641705805e+01 -1.552503975272e+01 0.0 
9.010356286268e+00 -1.242805042052e+01 0.0 
3.985573925497e+01 -1.399863651620e+01 0.0 
1.816196318262e+01 -1.554066497931e+01 0.0 
1.306332244168e+01 -3.963646550326e+00 0.0 
4.145850903932e+01 -1.608094559275e+01 0.0 
3.794664933633e+01 -1.779020121986e+01 0.0 
3.819614412903e+01 -1.290749321016e+01 0.0 
6.270014188119e+00 -3.255093186826e+00 0.0 
4.251165370388e+01 -1.263870364997e+01 0.0 
1.207347709171e+01 -1.763942826023e+01 0.0 
3.633240829927e+01 -1.577330481104e+01 0.0 
4.319052668832e+00 -6.101812561904e+00 0.0 
1.676492415806e+01 -1.151547901392e+01 0.0 
2.594059220037e+01 -1.074225223009e+01 0.0 
3.340750911501e+01 -9.898764354137e+00 0.0 
4.397619591281e+01 -1.769773736461e+01 0.0 
2.175611595028e+01 -1.185718747128e+01 0.0 
1.641818733106e+01 -1.640685203215e+01 0.0 
1.661211421753e+01 -1.346121366338e+01 0.0 
3.428853504935e+00 -6.551993389271e+00 0.0 
8.700728832502e+00 -1.638460872825e+01 0.0 
1.931369795309e+01 -1.121629383702e+01 0.0 
4.139798872363e+01 -1.706922153459e+01 0.0 
2.647837478700e+01 -1.507353829290e+01 0.0 
1.779469616424e+01 -9.161615782908e+00 0.0 
3.885879219319e+01 -1.642026488918e+01 0.0 
1.338194936770e+01 -1.125916521471e+01 0.0 
1.897071181111e+01 -1.609204322578e+01 0.0 
2.844308548793e+01 -1.046221003096e+01 0.0 
2.659854702194e+01 -1.316109415760e+01 0.0 
2.979604503271e+01 -1.433296157755e+01 0.0 
2.417694041347e+01 -1.251231397779e+01 0.0 
1.807401327411e+00 -1.388891148480e+01 0.0 
9.599810618782e+00 -1.595439365034e+01 0.0 
1.652144692160e+01 -4.205392788472e+00 0.0 
2.367839450246e+01 -8.188385218643e+00 0.0 
3.814894930468e+01 -1.390748338767e+01 0.0 
2.466448215774e+01 -1.685878545680e+01 0.0 
4.134044524611e+01 -1.806610045954e+01 0.0 
2.600511411958e+01 -9.801774120648e+00 0.0 
7.882158050716e+00 -1.582364037353e+01 0.0 
3.881607873422e+01 -1.737970515013e+01 0.0 
8.270182347708e+00 -1.088622154920e+01 0.0 
8.672520392520e-01 -4.532984309881e+00 0.0 
1.993447205337e+01 -3.579061902667e+00 0.0 
1.794616079549e+01 -7.238038888498e+00 0.0 
2.097277068165e+01 -1.132450168636e+01 0.0 
8.194803300681e+00 -1.187214224265e+01 0.0 
3.522279404911e+01 -1.823342818178e+01 0.0 
6.984481050295e+00 -1.625271465557e+01 0.0 
1.309433007797e+01 -1.521718594215e+01 0.0 
2.150246167611e+01 -1.885399038185e+00 0.0 
3.250689370209e+01 -1.028789870535e+01 0.0 
6.085886272238e+00 -1.668342132851e+01 0.0 
1.588455661727e+01 -1.193498985921e+01 0.0 
1.809323400821e+01 -1.651110084195e+01 0.0 
1.348885082381e+00 -1.136065576512e+01 0.0 
2.497670221995e+01 -1.834631276173e+01 0.0 
2.937062818424e+01 -8.233711194470e+00 0.0 
5.185823744469e+00 -1.711566910207e+01 0.0 
1.477497877209e+01 -1.530177014512e+01 0.0 
2.125346158933e+01 -7.473003997367e+00 0.0 
4.751561118290e+01 -1.084897772632e+01 0.0 
5.056026576843e+00 -1.825750475525e+01 0.0 
1.473948554523e+01 -1.634577436309e+01 0.0 
2.410566630936e+01 -1.345970002612e+01 0.0 
1.507337507513e+01 -1.138527895328e+01 0.0 
3.189857338687e+01 -8.887781229006e+00 0.0 
7.298712468334e+00 -1.230231046246e+01 0.0 
2.738235495295e+01 -1.368931690364e+01 0.0 
3.750141041969e+01 -1.920449893070e+01 0.0 
1.557271965640e+01 -1.683317951731e+01 0.0 
3.393731848929e+01 -1.413034777044e+01 0.0 
6.482156824153e+00 -1.174575135362e+01 0.0 
2.077971718439e+01 -1.421279621836e+01 0.0 
3.455084320178e+00 -2.562590040585e+00 0.0 
3.099056096250e+01 -9.270280416035e+00 0.0 
5.580176125418e+00 -1.217387969259e+01 0.0 
1.707247630389e+01 -7.660651981710e+00 0.0 
1.418658814174e+01 -1.180390575393e+01 0.0 
2.049103025389e+01 -1.811296706038e+01 0.0 
4.680386172316e+00 -1.260396879301e+01 0.0 
1.699679896554e+01 -8.624561788199e+00 0.0 
3.779470168555e+00 -1.303424899720e+01 0.0 
3.036589870126e+01 -7.879832518349e+00 0.0 
3.306993001774e+01 -1.457671062095e+01 0.0 
2.840150110165e+00 -1.346530088269e+01 0.0 
2.732011135052e+01 -1.464591214560e+01 0.0 
5.423639259568e+00 -2.659711955016e+00 0.0 
2.324455961696e+01 -1.387269388211e+01 0.0 
1.752768355571e+00 -1.693128613594e+01 0.0 
1.020244783051e+01 -8.076834012808e+00 0.0 
1.330873875224e+01 -1.222417528206e+01 0.0 
3.297727364880e+01 -1.555480372087e+01 0.0 
2.890929955439e+01 -6.868664170731e+00 0.0 
1.323294664622e+01 -1.320754260334e+01 0.0 
2.726532861246e+01 -1.560593120806e+01 0.0 
2.240020643398e+01 -1.429299177247e+01 0.0 
2.090445823633e+01 -1.228128621332e+01 0.0 
1.315809881502e+01 -1.420739326938e+01 0.0 
2.781328038068e+01 -7.181956082300e+00 0.0 
8.614200829057e+00 -5.936933226306e+00 0.0 
8.714765730069e+00 -4.979270529687e+00 0.0 
1.611881701099e+01 -9.041973294003e+00 0.0 
2.806830314340e+01 -1.614622947108e+01 0.0 
2.084435391396e+00 -3.385085422913e+00 0.0 
3.133211811152e+01 -1.542347619750e+01 0.0 
9.693114650768e+00 -3.590281506442e+00 0.0 
1.531883592202e+01 -8.504584946143e+00 0.0 
2.151589117094e+01 -1.578915763018e+01 0.0 
4.918943882696e+01 -1.355538828056e+01 0.0 
1.443236615188e+01 -8.918701794549e+00 0.0 
8.276250966452e-01 -5.537685192197e+00 0.0 
1.362790867918e+01 -8.374718262212e+00 0.0 
2.083767477370e+01 -1.324843956035e+01 0.0 
1.273834678703e+01 -8.790890389337e+00 0.0 
1.192275845670e+01 -8.242261327467e+00 0.0 
4.477236023583e+01 -1.824312396664e+01 0.0 
1.102989384254e+01 -8.649855800911e+00 0.0 
4.849096516045e+01 -1.917293752213e+01 0.0 
1.588996752238e+00 -1.910230934687e+01 0.0 
4.904245197583e+01 -1.159839008158e+01 0.0 
2.753852929608e+01 -5.782128488093e+00 0.0 
1.756133602833e+01 -8.306130313187e-01 0.0 
2.615423700951e+01 -6.153865090092e+00 0.0 
1.028818761294e+01 -7.122020845892e+00 0.0 
2.970818901196e+01 -1.527821347593e+01 0.0 
4.801461623449e+01 -1.164472570985e+01 0.0 
9.455722100419e+00 -6.546069291118e+00 0.0 
3.089099236677e+01 -1.835339328261e+01 0.0 
2.350000000013e+01 -1.920825896750e+01 0.0 
4.830620531887e+01 -1.506626155470e+01 0.0 
1.725381944701e+01 -1.688794487850e+01 0.0 
2.156246225273e+01 -1.475893794002e+01 0.0 
4.919319648787e+01 -1.742767505896e+01 0.0 
4.437935623576e+01 -1.077662927266e+01 0.0 
1.001520521978e+01 -1.652692675208e+00 0.0 
9.067160240050e-01 -1.441937727541e+01 0.0 
2.603365149390e+01 -4.755996613848e+00 0.0 
2.458344439002e+01 -4.873645517696e+00 0.0 
2.304312390142e+01 -3.836552768096e+00 0.0 
2.546923202198e+00 -6.902480355749e+00 0.0 
1.251534969393e+01 -2.490989965776e+00 0.0 
2.454061833377e+01 -3.933354231935e+00 0.0 
1.788186558740e+01 -1.827424884923e+01 0.0 
4.090785243552e+01 -1.166553231904e+01 0.0 
2.230128851568e+01 -1.623015738726e+01 0.0 
2.302362347568e+01 -2.916239960270e+00 0.0 
3.878119254461e+01 -1.830091164002e+01 0.0 
2.210081359958e+01 -1.829238229150e+01 0.0 
8.443704882233e+00 -1.921993252862e+01 0.0 
2.218405824691e+01 -1.724557581508e+01 0.0 
2.151157503963e+01 -2.790636689331e+00 0.0 
3.741658958955e+01 -1.250400191722e+01 0.0 
2.697247663737e+01 -1.838290202309e+01 0.0 
4.743362342862e+01 -1.585850773010e+01 0.0 
6.671345075358e+00 -1.924977576322e+01 0.0 
3.900825404537e+01 -1.157220003875e+01 0.0 
4.649692961375e+01 -1.836335837481e+01 0.0 
1.578831424832e+01 -3.678284023361e+00 0.0 
4.814208768888e+01 -1.841249298770e+01 0.0 
2.964123298315e+01 -1.625739458193e+01 0.0 
4.580760351902e+01 -1.284294554687e+01 0.0 
3.561520879615e+01 -1.245548941949e+01 0.0 
2.555418095658e+00 -1.841101588290e+01 0.0 
3.288468366144e+01 -1.834258164109e+01 0.0 
2.065894391445e+01 -2.240688571739e+00 0.0 
4.739171429915e+01 -1.496536413446e+01 0.0 
3.478086729185e+00 -8.576434653209e+00 0.0 
1.606010630246e+01 -1.588421807951e+00 0.0 
1.018329200594e+01 -1.834320874317e+01 0.0 
2.957213339430e+01 -1.720496954591e+01 0.0 
4.142712790164e+00 -1.837794506222e+01 0.0 
6.698721532573e-01 -2.499999999997e+00 0.0 
8.037039123140e+00 -1.571229354954e+00 0.0 
1.203541361428e+01 -1.847784298001e+01 0.0 
2.899968332038e+01 -1.848264722179e+01 0.0 
1.469229460948e+01 -4.219485753730e+00 0.0 
4.049590781957e+01 -1.932812501995e+01 0.0 
1.996211678340e+01 -1.506329754720e+00 0.0 
4.250588298353e+01 -1.067383247529e+01 0.0 
5.831497011152e+00 -1.635396227234e+00 0.0 
5.317606125670e+00 -1.923927974868e+01 0.0 
4.208546426993e+01 -1.842830665025e+01 0.0 
2.327553405011e+00 -9.459409929662e+00 0.0 
3.568351902251e+01 -1.096637218582e+01 0.0 
1.682104374890e+00 -6.231413350963e+00 0.0 
2.451812238018e+01 -1.766524914339e+01 0.0 
1.058003429638e+01 -2.391839617098e+00 0.0 
4.399988753123e+01 -1.851998776342e+01 0.0 
1.400000000010e+01 -1.852293523028e+01 0.0 
3.604719565984e+01 -1.850662876800e+01 0.0 
1.951297136734e+01 -1.938092349694e+01 0.0 
1.821365318472e+01 -1.531276353287e+00 0.0 
2.298031859732e+01 -1.854635324722e+01 0.0 
1.552168066204e+01 -1.764280741977e+01 0.0 
4.572957713638e+01 -1.073347898229e+01 0.0 
3.429637429624e+01 -1.838861552790e+01 0.0 
2.427434426052e+00 -7.705577451869e+00 0.0 
4.662792031485e+00 -3.359424455416e+00 0.0 
4.926794919243e+01 -1.926794919243e+01 0.0 
7.320508075690e-01 -7.320508075688e-01 0.0 
4.926794919243e+01 -1.073205080757e+01 0.0 
7.320508075705e-01 -1.926794919243e+01 0.0 
2.917460242467e+00 -3.202866455310e+00 0.0 
4.838200575963e+01 -1.232674147454e+01 0.0 
2.998445708009e+01 -1.854403752148e+01 0.0 
5.949940090766e-01 -1.152762038165e+01 0.0 
4.844763495759e+01 -1.678092548787e+01 0.0 
1.301685480160e+01 -3.170056592566e+00 0.0 
1.650046335855e+01 -6.731535384067e-01 0.0 
4.854881540991e+01 -1.405224059779e+01 0.0 
2.119545114693e+01 -1.846813384545e+01 0.0 
3.797852849897e+01 -1.857978513215e+01 0.0 
4.649823708745e+01 -1.338351810816e+01 0.0 
2.012685900976e+01 -2.889659035009e+00 0.0 
2.953271913273e+01 -1.791558075192e+01 0.0 
2.408509097292e+00 -1.021949208421e+01 0.0 
2.642589566221e+01 -1.773216561448e+01 0.0 
1.730010270775e+01 -1.763165076721e+01 0.0 
2.017406551304e+01 -8.513536440582e-01 0.0 
5.254761581934e-01 -1.249999999999e+01 0.0 
6.640448215642e+00 -1.545337834885e+00 0.0 
7.843361506349e+00 -1.852719839527e+01 0.0 
1.588442191088e+00 -1.066158564320e+01 0.0 
2.280866189488e+01 -1.416779325160e+00 0.0 
4.950862068966e+01 -1.500000000000e+00 0.0 
2.431250000000e+01 -2.420918367347e+00 0.0 
4.950961538461e+01 -2.500000000000e+00 0.0 
2.580823483239e+01 -3.416278049680e+00 0.0 
4.950961538461e+01 -3.500000000000e+00 0.0 
2.731250000000e+01 -4.420918367347e+00 0.0 
4.951086956522e+01 -4.500000000000e+00 0.0 
2.880770112393e+01 -5.415638864241e+00 0.0 
4.951086956522e+01 -5.500000000000e+00 0.0 
3.031250000000e+01 -6.420918367347e+00 0.0 
4.951250000000e+01 -6.500000000000e+00 0.0 
3.180701530612e+01 -7.414795918363e+00 0.0 
4.951250000000e+01 -7.500000000000e+00 0.0 
3.331250000000e+01 -8.420918367347e+00 0.0 
4.951470588234e+01 -8.500000000000e+00 0.0 
3.480610198624e+01 -9.413633635267e+00 0.0 
4.951470588234e+01 -9.500000000000e+00 0.0 

SCALARS node_number int
LOOKUP_TABLE default
1
2
3
4
5
6
7
8
9
10
11
12
13
14
15
16
17
18
19
20
21
22
23
24
25
26
27
28
29
30
31
32
33
34
35
36
37
38
39
40
41
42
43
44
45
46
47
48
49
50
51
52
53
54
55
56
57
58
59
60
61
62
63
64
65
66
67
68
69
70
71
72
73
74
75
76
77
78
79
80
81
82
84
85
86
87
88
89
90
91
92
93
94
95
96
97
98
99
100
101
102
104
105
106
107
108
109
110
111
112
113
114
115
116
117
118
119
120
121
122
123
124
125
126
127
128
129
130
131
132
133
134
135
136
166
167
168
169
170
171
172
173
174
175
176
177
178
179
180
181
182
183
184
185
186
187
188
189
190
191
192
193
194
195
196
197
198
199
200
201
202
203
204
205
206
207
208
209
210
211
212
213
214
215
216
217
218
219
220
221
222
223
224
225
226
227
228
229
230
231
232
233
234
235
236
237
238
239
240
241
242
243
244
245
246
247
248
249
250
251
252
253
254
255
256
257
258
259
260
261
262
263
264
265
266
267
268
269
270
271
272
273
274
275
276
277
278
279
280
281
282
283
284
285
286
287
288
289
290
291
292
293
294
295
296
297
298
299
300
301
302
303
304
305
306
307
308
309
310
311
312
313
314
315
316
317
318
319
320
321
322
323
324
325
326
327
328
329
330
331
332
333
334
335
336
337
338
339
340
341
342
343
344
345
346
347
348
349
350
351
352
353
354
355
356
357
358
359
360
361
362
363
364
365
366
367
368
369
370
371
372
373
374
375
376
377
378
379
380
381
382
383
384
385
386
387
388
389
390
391
392
393
394
395
396
397
398
399
400
401
402
403
404
405
406
407
408
409
410
411
412
413
414
415
416
417
418
419
420
421
422
423
424
425
426
427
428
429
430
431
432
433
434
435
436
437
438
439
440
441
442
443
444
445
446
447
448
449
450
451
452
453
454
455
456
457
458
459
460
461
462
463
464
465
466
467
468
469
470
471
472
473
474
475
476
477
478
479
480
481
482
483
484
485
486
487
488
489
490
491
492
493
494
495
496
497
498
499
500
501
502
503
504
505
506
507
508
509
510
511
512
513
514
515
516
517
518
519
520
521
522
523
524
525
526
527
528
529
530
531
532
533
534
535
536
537
538
539
540
541
542
543
544
545
546
547
548
549
550
551
552
553
554
555
556
557
558
559
560
561
562
563
564
565
566
567
568
569
570
571
572
573
574
575
576
577
578
579
580
581
582
583
584
585
586
587
588
589
590
591
592
593
594
595
596
597
598
599
600
601
602
603
604
605
606
607
608
609
610
611
612
613
614
615
616
617
618
619
620
621
622
623
624
625
626
627
628
629
630
631
632
633
634
635
636
637
638
639
640
641
642
643
644
645
646
647
648
649
650
651
652
653
654
655
656
657
658
659
660
661
662
663
664
665
666
667
668
669
670
671
672
673
674
675
676
677
678
679
680
681
682
683
684
685
686
687
688
689
690
691
692
693
694
695
696
697
698
699
700
701
702
703
704
705
706
707
708
709
710
711
712
713
714
715
716
717
718
719
720
721
722
723
724
725
726
727
728
729
730
731
732
733
734
735
736
737
738
739
740
741
742
743
744
745
746
747
748
749
750
751
752
753
754
755
756
757
758
759
760
761
762
763
764
765
766
767
768
769
770
771
772
773
774
775
776
777
778
779
780
781
782
783
784
785
786
787
788
789
790
791
792
793
794
795
796
797
798
799
800
801
802
803
804
805
806
807
808
809
810
811
812
813
814
815
816
817
818
819
820
821
822
823
824
825
826
827
828
829
830
831
832
833
834
835
836
837
838
839
840
841
842
843
844
845
846
847
848
849
850
851
852
853
854
855
856
857
858
859
860
861
862
863
864
865
866
867
868
869
870
871
872
873
874
875
876
877
878
879
880
881
882
883
884
885
886
887
888
889
890
891
892
893
894
895
896
897
898
899
900
901
902
903
904
905
906
907
908
909
910
911
912
913
914
915
916
917
918
919
920
921
922
923
924
925
926
927
928
929
930
931
932
933
934
935
936
937
938
939
940
941
942
943
944
945
946
947
948
949
950
951
952
953
954
955
956
957
958
959
960
961
962
963
964
965
966
967
968
969
970
971
972
973
974
975
976
977
978
979
980
981
982
983
984
985
986
987
988
989
990
991
992
993
994
995
996
997
998
999
1000
1001
1002
1003
1004
1005
1006
1007
1008
1009
1010
1011
1012
1013
1014
1015
1016
1017
1018
1019
1020
1021
1022
1023
1024
1025
1026
1027
1028
1029
1030
1031
1032
1033
1034
1035
1036
1037
1038
1039
1040
1041
1042
1043
1044
1045
1046
1047
1048
1049
1050
1051
1052
1053
1054
1055
1056
1057
1058
1059
1060
1061
1062
1063
1064
1065
1066
1067
1068
1069
1070
1071
1072
1073
1074
1075
1076
1077
1078
1079
1080
1081
1082
1083
1084
1085
1086
1087
1088
1089
1090
1091
1092
1093
1094
1095
1096
1097
1098
1099
1100
1101
1102
1103
1104
1105
1106
1107
1108
1109
1110
1111
1112
1113
1114
1115
1116
1117
1118
1119
1120
1121
1122
1123
1124
1125
1126
1127
1128
1129
1130
1131
1132
1133
1134
1135
1136
1137
1138
1139
1140
1141
1142
1143
1144
1145
1146
1147
1148
1149
1150
1151
1152
1153
1154
1155
1156
1157
1158
1159
1160
1161
1162
1163
1164
1165
1166
1167
1168
1169
1170
1171
1172
1173
1174
1175
1176
1177
1178
1179
1180
1181
1182
1183
1184
1185
1186
1187
1188
1189
1190
1191
1192
1193
1194
1195
1196
1197
1198
1199
1200
1201
1202
1203
1204
1205
1206
1207
1208
1209
1210
1211
1212
1213
1214
1215
1216
1217
1218
1219
1220
1221
1222
1223
1224
1225
1226
1227
1228
1229
1230
1231
1232
1233
1234
1235
1236
1237
1238
1239
1240
1241
1242
1243
1244
1245
1246
1247
1248
1249
1250
1251
1252
1253
1254
1255
1256
1257
1258
1259
1260
1261
1262
1263
1264
1267
1268
1269
1270
1271
1272
1273
1274
1275
1276
1277
1278
1279
1280
1281
1282
1283
1284

VECTORS node_mesh_deformation float
0.0 1.221767010114e-02 0.0 
0.000000000000e+00 1.085916574291e-02 0.0 
0.0 0.000000000000e+00 0.0 
0.000000000000e+00 0.000000000000e+00 0.0 
0.0 1.220116088974e-02 0.0 
0.0 1.212569980191e-02 0.0 
0.0 1.199072795560e-02 0.0 
0.0 1.179521229098e-02 0.0 
0.0 1.153611717468e-02 0.0 
0.0 1.121499436860e-02 0.0 
0.0 1.083190524023e-02 0.0 
0.0 1.038608080282e-02 0.0 
0.0 9.877578580559e-03 0.0 
0.0 9.305690544114e-03 0.0 
0.0 8.668968751850e-03 0.0 
0.0 7.967254534023e-03 0.0 
0.0 7.201163118397e-03 0.0 
0.0 6.373336880420e-03 0.0 
0.0 5.478091338221e-03 0.0 
0.0 4.516502465080e-03 0.0 
0.0 3.488646725106e-03 0.0 
0.0 2.393015312666e-03 0.0 
0.0 1.229016170743e-03 0.0 
0.000000000000e+00 0.000000000000e+00 0.0 
0.000000000000e+00 0.000000000000e+00 0.0 
0.000000000000e+00 0.000000000000e+00 0.0 
0.000000000000e+00 0.000000000000e+00 0.0 
0.000000000000e+00 0.000000000000e+00 0.0 
0.000000000000e+00 0.000000000000e+00 0.0 
0.000000000000e+00 0.000000000000e+00 0.0 
0.000000000000e+00 0.000000000000e+00 0.0 
0.000000000000e+00 0.000000000000e+00 0.0 
0.000000000000e+00 0.000000000000e+00 0.0 
0.000000000000e+00 0.000000000000e+00 0.0 
0.000000000000e+00 0.000000000000e+00 0.0 
0.000000000000e+00 0.000000000000e+00 0.0 
0.000000000000e+00 0.000000000000e+00 0.0 
0.000000000000e+00 0.000000000000e+00 0.0 
0.000000000000e+00 0.000000000000e+00 0.0 
0.000000000000e+00 0.000000000000e+00 0.0 
0.000000000000e+00 0.000000000000e+00 0.0 
0.000000000000e+00 0.000000000000e+00 0.0 
0.000000000000e+00 0.000000000000e+00 0.0 
0.000000000000e+00 0.000000000000e+00 0.0 
0.000000000000e+00 0.000000000000e+00 0.0 
0.000000000000e+00 0.000000000000e+00 0.0 
0.000000000000e+00 0.000000000000e+00 0.0 
0.000000000000e+00 0.000000000000e+00 0.0 
0.000000000000e+00 0.000000000000e+00 0.0 
0.000000000000e+00 0.000000000000e+00 0.0 
0.000000000000e+00 0.000000000000e+00 0.0 
0.000000000000e+00 0.000000000000e+00 0.0 
0.000000000000e+00 0.000000000000e+00 0.0 
0.000000000000e+00 0.000000000000e+00 0.0 
0.000000000000e+00 0.000000000000e+00 0.0 
0.000000000000e+00 0.000000000000e+00 0.0 
0.000000000000e+00 0.000000000000e+00 0.0 
0.000000000000e+00 0.000000000000e+00 0.0 
0.000000000000e+00 0.000000000000e+00 0.0 
0.000000000000e+00 0.000000000000e+00 0.0 
0.000000000000e+00 0.000000000000e+00 0.0 
0.000000000000e+00 0.000000000000e+00 0.0 
0.000000000000e+00 0.000000000000e+00 0.0 
0.000000000000e+00 0.000000000000e+00 0.0 
0.000000000000e+00 0.000000000000e+00 0.0 
0.000000000000e+00 0.000000000000e+00 0.0 
0.000000000000e+00 0.000000000000e+00 0.0 
0.000000000000e+00 0.000000000000e+00 0.0 
0.000000000000e+00 0.000000000000e+00 0.0 
0.000000000000e+00 0.000000000000e+00 0.0 
0.000000000000e+00 0.000000000000e+00 0.0 
0.000000000000e+00 0.000000000000e+00 0.0 
0.000000000000e+00 1.005781282483e-02 0.0 
0.000000000000e+00 9.192995002628e-03 0.0 
0.000000000000e+00 8.263855246264e-03 0.0 
0.000000000000e+00 7.272373390068e-03 0.0 
0.000000000000e+00 6.216836527765e-03 0.0 
0.000000000000e+00 5.098755718013e-03 0.0 
0.000000000000e+00 3.917835407162e-03 0.0 
0.000000000000e+00 2.674130436752e-03 0.0 
0.000000000000e+00 1.368073749866e-03 0.0 
-3.652612212974e-04 1.347650703839e-02 0.0 
2.308485905047e-04 1.083056231617e-02 0.0 
-1.334661208432e-04 1.396476964045e-02 0.0 
5.499607232906e-05 1.413201773673e-02 0.0 
1.669011999503e-04 1.409193960979e-02 0.0 
2.337253708511e-04 1.391470370695e-02 0.0 
2.710838692579e-04 1.362365781962e-02 0.0 
2.871083607907e-04 1.323360108511e-02 0.0 
2.876839693329e-04 1.275337422663e-02 0.0 
2.764794441177e-04 1.218950086892e-02 0.0 
2.563809381755e-04 1.154692588822e-02 0.0 
0.000000000000e+00 1.518895490122e-02 0.0 
0.000000000000e+00 1.495887487908e-02 0.0 
0.000000000000e+00 1.467230122643e-02 0.0 
0.000000000000e+00 1.431797313272e-02 0.0 
0.000000000000e+00 1.390420314774e-02 0.0 
0.000000000000e+00 1.342138330855e-02 0.0 
0.000000000000e+00 1.287902377934e-02 0.0 
0.000000000000e+00 1.226762897370e-02 0.0 
0.000000000000e+00 1.159723704978e-02 0.0 
1.354434365908e-05 1.085939633317e-02 0.0 
2.533805015048e-05 1.085999396344e-02 0.0 
3.816476481688e-05 1.086069365536e-02 0.0 
5.123562726084e-05 1.086041406621e-02 0.0 
6.411669541251e-05 1.086176035480e-02 0.0 
7.758021219217e-05 1.086131784544e-02 0.0 
9.169998504888e-05 1.086162801896e-02 0.0 
1.052871268072e-04 1.086084450347e-02 0.0 
1.209991785487e-04 1.086122713704e-02 0.0 
1.374844254514e-04 1.085902500740e-02 0.0 
1.543784511782e-04 1.085613548467e-02 0.0 
1.721691974055e-04 1.085293687005e-02 0.0 
1.906224182733e-04 1.084763950862e-02 0.0 
2.100295997991e-04 1.083974510799e-02 0.0 
-3.273058694298e-04 1.321574314225e-02 0.0 
-2.815817600919e-04 1.302195724128e-02 0.0 
-2.369285625505e-04 1.286709739398e-02 0.0 
-2.004670580948e-04 1.274330247714e-02 0.0 
-1.671674951389e-04 1.264496499657e-02 0.0 
-1.366780270278e-04 1.256250146483e-02 0.0 
-1.098587798047e-04 1.249350688482e-02 0.0 
-8.733736361499e-05 1.243652186760e-02 0.0 
-6.829653588802e-05 1.238944055524e-02 0.0 
-5.207604818303e-05 1.235162766373e-02 0.0 
-3.995850599203e-05 1.231970072820e-02 0.0 
-2.821079484416e-05 1.229564451790e-02 0.0 
-1.624564167013e-05 1.227363085611e-02 0.0 
-1.076220218188e-05 1.225540233864e-02 0.0 
-8.012536406810e-06 1.224290916547e-02 0.0 
-4.784585614370e-06 1.223336532197e-02 0.0 
-1.525137592218e-06 1.222590118071e-02 0.0 
1.222952802804e-06 1.222118852732e-02 0.0 
-2.009498277777e-07 1.221707745578e-02 0.0 
1.675601465223e-05 1.518296457982e-02 0.0 
2.779086621274e-05 1.518239077728e-02 0.0 
3.423017794546e-05 1.518443657262e-02 0.0 
4.183804065860e-05 1.518549018035e-02 0.0 
4.993752907012e-05 1.518627377541e-02 0.0 
5.798159466508e-05 1.518684990153e-02 0.0 
6.564320732139e-05 1.518713123803e-02 0.0 
7.270308006468e-05 1.518697818376e-02 0.0 
7.899022838842e-05 1.518621210963e-02 0.0 
8.435245877081e-05 1.518461446321e-02 0.0 
8.864115590512e-05 1.518192304926e-02 0.0 
9.170295384564e-05 1.517782734063e-02 0.0 
9.337556858213e-05 1.517196233866e-02 0.0 
9.348785383168e-05 1.516390232948e-02 0.0 
9.186330161981e-05 1.515315055828e-02 0.0 
8.832422012972e-05 1.513913187217e-02 0.0 
8.269561491403e-05 1.512116818847e-02 0.0 
7.481201308934e-05 1.509847961967e-02 0.0 
6.452131654910e-05 1.507011271314e-02 0.0 
5.170449359326e-05 1.503500274541e-02 0.0 
3.625543282837e-05 1.499171614302e-02 0.0 
1.819914137613e-05 1.493881489461e-02 0.0 
-2.512623133555e-06 1.487386849170e-02 0.0 
-2.544717560227e-05 1.479511548571e-02 0.0 
-5.099960768717e-05 1.469775573182e-02 0.0 
-7.743304711028e-05 1.457947909983e-02 0.0 
-1.054196533197e-04 1.443104504269e-02 0.0 
-1.344516180026e-04 1.423988585511e-02 0.0 
5.279996515384e-05 1.430266997519e-02 0.0 
5.678690914479e-05 1.443758407068e-02 0.0 
6.318396954441e-05 1.454397178727e-02 0.0 
7.031478227049e-05 1.463139142433e-02 0.0 
7.831067690844e-05 1.470180772182e-02 0.0 
8.573290384106e-05 1.475930871406e-02 0.0 
9.245852368522e-05 1.480581484233e-02 0.0 
9.801658220354e-05 1.484340998747e-02 0.0 
1.023130720128e-04 1.487352521761e-02 0.0 
1.052144006621e-04 1.489746326252e-02 0.0 
1.067157217491e-04 1.491626050236e-02 0.0 
1.068316394139e-04 1.493080535281e-02 0.0 
1.056228965837e-04 1.494184326283e-02 0.0 
1.031667028855e-04 1.495001212832e-02 0.0 
9.955785352389e-05 1.495585554023e-02 0.0 
9.489867667156e-05 1.495983887203e-02 0.0 
8.929626441301e-05 1.496235994304e-02 0.0 
8.285984307577e-05 1.496375715052e-02 0.0 
7.570091523235e-05 1.496431626523e-02 0.0 
6.793386605608e-05 1.496427699966e-02 0.0 
5.967653513750e-05 1.496383807705e-02 0.0 
5.104723631888e-05 1.496315934483e-02 0.0 
4.214945815306e-05 1.496235486596e-02 0.0 
3.302507061420e-05 1.496146687441e-02 0.0 
2.355950780242e-05 1.496058242397e-02 0.0 
1.365075939930e-05 1.496322247271e-02 0.0 
1.585351044824e-04 1.420892626389e-02 0.0 
1.538813028255e-04 1.430572204130e-02 0.0 
1.481582808367e-04 1.438203881671e-02 0.0 
1.448890326898e-04 1.444585204322e-02 0.0 
1.420735177362e-04 1.449698433713e-02 0.0 
1.398795287244e-04 1.453887237429e-02 0.0 
1.375897283147e-04 1.457240543417e-02 0.0 
1.350720633013e-04 1.459930616611e-02 0.0 
1.320891239018e-04 1.462054886577e-02 0.0 
1.285554684429e-04 1.463716126922e-02 0.0 
1.243929934134e-04 1.464990466036e-02 0.0 
1.195783298087e-04 1.465947912699e-02 0.0 
1.141056813196e-04 1.466645824027e-02 0.0 
1.079920285321e-04 1.467134322161e-02 0.0 
1.012701925802e-04 1.467456157140e-02 0.0 
9.398724672849e-05 1.467648303646e-02 0.0 
8.619791034192e-05 1.467742067712e-02 0.0 
7.796124374693e-05 1.467763809186e-02 0.0 
6.933745405746e-05 1.467735497868e-02 0.0 
6.038325687285e-05 1.467674944335e-02 0.0 
5.114264018857e-05 1.467595449703e-02 0.0 
4.163399417223e-05 1.467504656099e-02 0.0 
3.184708547366e-05 1.467403325991e-02 0.0 
2.176185040526e-05 1.467280108562e-02 0.0 
1.097518625670e-05 1.466880625083e-02 0.0 
1.099584403619e-05 1.432253343911e-02 0.0 
2.198357083216e-05 1.432092914400e-02 0.0 
3.277137847135e-05 1.432192176995e-02 0.0 
4.336597598353e-05 1.432301670599e-02 0.0 
5.377184450595e-05 1.432403660503e-02 0.0 
6.399742757424e-05 1.432493539313e-02 0.0 
7.404122506216e-05 1.432563027910e-02 0.0 
8.388886936928e-05 1.432598327001e-02 0.0 
9.352061390899e-05 1.432580400642e-02 0.0 
1.029159947663e-04 1.432485391752e-02 0.0 
1.120583995942e-04 1.432284264445e-02 0.0 
1.209371399113e-04 1.431942235036e-02 0.0 
1.295512704900e-04 1.431417598784e-02 0.0 
1.379314693537e-04 1.430662253668e-02 0.0 
1.461204533726e-04 1.429619989989e-02 0.0 
1.542146758808e-04 1.428227486592e-02 0.0 
1.622689979754e-04 1.426404321331e-02 0.0 
1.705218224330e-04 1.424069407751e-02 0.0 
1.789796850318e-04 1.421095711194e-02 0.0 
1.882591135995e-04 1.417399016288e-02 0.0 
1.979825789249e-04 1.412711845263e-02 0.0 
2.100416287085e-04 1.407106860741e-02 0.0 
2.208859733344e-04 1.399912957633e-02 0.0 
2.551917377609e-04 1.368306311804e-02 0.0 
2.410590653419e-04 1.373558100093e-02 0.0 
2.254507194444e-04 1.377529345740e-02 0.0 
2.117375259125e-04 1.380893541426e-02 0.0 
1.985263356303e-04 1.383498692008e-02 0.0 
1.862058439102e-04 1.385599314314e-02 0.0 
1.743385019637e-04 1.387211395306e-02 0.0 
1.629295614336e-04 1.388452667944e-02 0.0 
1.518060646859e-04 1.389371216783e-02 0.0 
1.408786309511e-04 1.390032513481e-02 0.0 
1.300482783577e-04 1.390483462825e-02 0.0 
1.192802839682e-04 1.390771713639e-02 0.0 
1.085471545892e-04 1.390934477519e-02 0.0 
9.782310591788e-05 1.391002947592e-02 0.0 
8.708907451194e-05 1.391003415607e-02 0.0 
7.633219014025e-05 1.390957223099e-02 0.0 
6.554894491018e-05 1.390881571221e-02 0.0 
5.472906667592e-05 1.390787953930e-02 0.0 
4.386032540538e-05 1.390683613037e-02 0.0 
3.293670533822e-05 1.390573036702e-02 0.0 
2.196299102764e-05 1.390447277695e-02 0.0 
1.097675205131e-05 1.390041056314e-02 0.0 
1.158075815511e-05 1.342584089082e-02 0.0 
2.319824625374e-05 1.342405722900e-02 0.0 
3.484062938242e-05 1.342497502280e-02 0.0 
4.652584234321e-05 1.342604096783e-02 0.0 
5.827260498847e-05 1.342705777482e-02 0.0 
7.010337903068e-05 1.342795990579e-02 0.0 
8.205376448700e-05 1.342866236477e-02 0.0 
9.413898030175e-05 1.342905086777e-02 0.0 
1.063800258194e-04 1.342891889936e-02 0.0 
1.188251137805e-04 1.342802360603e-02 0.0 
1.315374677660e-04 1.342606733451e-02 0.0 
1.445668151092e-04 1.342271939548e-02 0.0 
1.579516414623e-04 1.341758027229e-02 0.0 
1.717237190064e-04 1.341004616641e-02 0.0 
1.861291238967e-04 1.339962144173e-02 0.0 
2.011458374653e-04 1.338552762474e-02 0.0 
2.172546394874e-04 1.336750524818e-02 0.0 
2.337944841742e-04 1.334368265780e-02 0.0 
2.522575648527e-04 1.331523229212e-02 0.0 
2.692708151315e-04 1.327696814140e-02 0.0 
2.691374945307e-04 1.278313433073e-02 0.0 
2.512910384809e-04 1.281042407042e-02 0.0 
2.317068674174e-04 1.282942754461e-02 0.0 
2.139173117612e-04 1.284611803000e-02 0.0 
1.968123574727e-04 1.285819450903e-02 0.0 
1.807949817021e-04 1.286756316236e-02 0.0 
1.653438221894e-04 1.287396744897e-02 0.0 
1.505058818410e-04 1.287842516464e-02 0.0 
1.362218493952e-04 1.288135472839e-02 0.0 
1.224651301470e-04 1.288306956119e-02 0.0 
1.091640830495e-04 1.288382503529e-02 0.0 
9.617722921007e-05 1.288388082015e-02 0.0 
8.349530830998e-05 1.288351075818e-02 0.0 
7.110358550477e-05 1.288290731217e-02 0.0 
5.894480192126e-05 1.288211180142e-02 0.0 
4.696424507955e-05 1.288121319364e-02 0.0 
3.514348767908e-05 1.288025901142e-02 0.0 
2.339649289951e-05 1.287913360737e-02 0.0 
1.168306221189e-05 1.287516129375e-02 0.0 
1.234127696392e-05 1.227193168510e-02 0.0 
2.471811410487e-05 1.227011275339e-02 0.0 
3.704411461314e-05 1.227097978042e-02 0.0 
4.960604481852e-05 1.227177091905e-02 0.0 
6.232994657296e-05 1.227256200993e-02 0.0 
7.536776910655e-05 1.227318307065e-02 0.0 
8.874486218957e-05 1.227357302314e-02 0.0 
1.026530156665e-04 1.227371841381e-02 0.0 
1.168806184708e-04 1.227352650605e-02 0.0 
1.316975676176e-04 1.227234450198e-02 0.0 
1.472761353298e-04 1.227005673687e-02 0.0 
1.635487907805e-04 1.226652578795e-02 0.0 
1.806176207850e-04 1.226130419736e-02 0.0 
1.986433519150e-04 1.225408001163e-02 0.0 
2.170995323141e-04 1.224285369421e-02 0.0 
2.377283778614e-04 1.222943245498e-02 0.0 
2.568699080214e-04 1.220993342195e-02 0.0 
2.374159033707e-04 1.156026622053e-02 0.0 
2.189042869318e-04 1.157500381785e-02 0.0 
1.989557730084e-04 1.158253969314e-02 0.0 
1.805964982040e-04 1.158896761748e-02 0.0 
1.632822311208e-04 1.159343965020e-02 0.0 
1.466687829179e-04 1.159644095890e-02 0.0 
1.309038264736e-04 1.159872784200e-02 0.0 
1.160354803673e-04 1.159984864744e-02 0.0 
1.015582808179e-04 1.159962399035e-02 0.0 
8.788739248899e-05 1.159991940261e-02 0.0 
7.452486864423e-05 1.159960592951e-02 0.0 
6.176409543457e-05 1.159928868018e-02 0.0 
4.904193252742e-05 1.159848642001e-02 0.0 
3.677219824993e-05 1.159806005816e-02 0.0 
2.471348734900e-05 1.159682607630e-02 0.0 
1.202791737143e-05 1.159247949557e-02 0.0 
-2.518149064379e-04 1.373380785378e-02 0.0 
-2.179421154835e-05 1.408176032501e-02 0.0 
1.204625565023e-04 1.413151160091e-02 0.0 
2.067822155993e-04 1.401880225494e-02 0.0 
2.568893582904e-04 1.378216807708e-02 0.0 
2.819568322003e-04 1.343998095285e-02 0.0 
2.905969654989e-04 1.300451549000e-02 0.0 
2.848104839046e-04 1.248194454861e-02 0.0 
2.686482708754e-04 1.187808300204e-02 0.0 
2.453810022160e-04 1.119786500201e-02 0.0 
1.324304685397e-04 1.386957686378e-02 0.0 
8.157442678680e-05 1.104304277391e-03 0.0 
-2.480474507216e-05 1.234983501907e-02 0.0 
-9.476344367165e-05 1.267352490721e-02 0.0 
5.936379980298e-05 1.085413214540e-03 0.0 
2.817671033597e-04 1.367293734237e-02 0.0 
2.155788257374e-05 8.983738865002e-03 0.0 
8.946652979702e-05 1.127722313996e-03 0.0 
3.223137731005e-04 1.297964685422e-02 0.0 
8.288644083976e-05 1.118820222832e-03 0.0 
3.034465378775e-04 1.190894978746e-02 0.0 
3.555168337765e-05 9.911913960359e-04 0.0 
2.102709473206e-06 1.224620311384e-02 0.0 
6.971890175222e-05 1.153230028258e-03 0.0 
2.506573563466e-04 1.050363513584e-02 0.0 
1.605536013083e-05 1.101892470510e-02 0.0 
2.269723778381e-05 6.964792089367e-03 0.0 
5.870978727884e-05 1.213891470492e-03 0.0 
3.842805919163e-05 1.165563559663e-03 0.0 
1.171512360543e-05 1.174463344327e-03 0.0 
2.027761436096e-05 1.275046705182e-03 0.0 
2.743331392452e-05 1.141292188276e-03 0.0 
2.004507158659e-04 1.013606416598e-02 0.0 
1.284318166768e-04 1.013922662947e-02 0.0 
8.402843908328e-05 1.012219524283e-02 0.0 
8.671650263636e-06 6.736873221195e-03 0.0 
2.090676447697e-05 1.072133677976e-03 0.0 
-1.470538252022e-04 1.310129460304e-02 0.0 
4.154359887654e-06 1.221344247559e-02 0.0 
1.573877210459e-05 4.090180908253e-03 0.0 
4.291625053554e-05 1.017523137640e-02 0.0 
9.148076684173e-06 1.190431882843e-02 0.0 
5.399402894568e-05 1.341319816081e-03 0.0 
8.093652569841e-05 1.035870303483e-03 0.0 
7.583483957418e-05 1.120770264961e-03 0.0 
9.254905924649e-05 1.181964358352e-03 0.0 
6.970608790979e-05 1.042531317371e-03 0.0 
-5.985612560977e-05 1.250316377811e-02 0.0 
1.623272082938e-04 1.018291529010e-02 0.0 
5.555365052246e-05 1.234081312237e-03 0.0 
5.560560289553e-06 4.567126629031e-03 0.0 
-9.593275208886e-06 1.228712621416e-02 0.0 
2.027544876870e-05 1.014004548745e-02 0.0 
5.032723954912e-06 9.564895816929e-04 0.0 
3.135401059424e-04 1.336877744303e-02 0.0 
2.247986026056e-04 1.385388007028e-02 0.0 
3.186364655612e-04 1.249128802455e-02 0.0 
2.798833120181e-04 1.124604255601e-02 0.0 
-4.168297926199e-05 1.364885576062e-02 0.0 
1.050116763679e-05 8.625769336748e-03 0.0 
1.021730887407e-05 8.480698031157e-04 0.0 
3.190662225538e-07 1.220740840027e-02 0.0 
2.787749977529e-06 2.128672460174e-03 0.0 
2.363218594468e-04 1.009861853524e-02 0.0 
2.501796281251e-04 9.746008451010e-03 0.0 
2.285446870474e-04 9.361410503789e-03 0.0 
2.460878889465e-04 8.931831657588e-03 0.0 
2.234634237013e-04 8.450966498160e-03 0.0 
2.368730473279e-04 8.039493986001e-03 0.0 
2.613317897939e-04 8.527390762918e-03 0.0 
2.487387419734e-04 7.616339197355e-03 0.0 
2.752087901641e-04 8.118459068672e-03 0.0 
2.129791233472e-04 7.521583339170e-03 0.0 
2.587124613598e-04 7.180843842196e-03 0.0 
2.872821056279e-04 7.696314704381e-03 0.0 
2.664736091127e-04 6.735309630770e-03 0.0 
2.969412758489e-04 7.260672064314e-03 0.0 
3.154680595117e-04 8.191783150696e-03 0.0 
3.271058880472e-04 7.769796999428e-03 0.0 
3.428199518645e-04 8.664206750586e-03 0.0 
3.563400458653e-04 8.254623588240e-03 0.0 
3.359130766967e-04 7.337957248710e-03 0.0 
3.668072338421e-04 7.835268436393e-03 0.0 
3.842402474348e-04 8.716261554149e-03 0.0 
3.961637451795e-04 8.308551129296e-03 0.0 
4.103992290574e-04 9.152876485032e-03 0.0 
4.235006978028e-04 8.754243361540e-03 0.0 
4.346274078877e-04 9.566885119494e-03 0.0 
4.485492675599e-04 9.175868010832e-03 0.0 
4.324059389766e-04 8.344800335207e-03 0.0 
4.579472564643e-04 8.776356263233e-03 0.0 
4.706889498856e-04 9.570565259088e-03 0.0 
4.802272017592e-04 9.180976007302e-03 0.0 
4.894229502597e-04 9.938037073129e-03 0.0 
4.986435711629e-04 9.557509915442e-03 0.0 
4.843536565886e-04 8.781975282663e-03 0.0 
5.020204207433e-04 9.169834958085e-03 0.0 
5.125460829731e-04 9.907224346099e-03 0.0 
5.146420500708e-04 9.530050963917e-03 0.0 
5.211386251709e-04 1.022874123858e-02 0.0 
5.214682907564e-04 9.861516539054e-03 0.0 
5.236269622664e-04 1.051988718772e-02 0.0 
5.216887397665e-04 1.016546532959e-02 0.0 
5.155275681687e-04 9.485621044879e-03 0.0 
5.135956805375e-04 9.802740599538e-03 0.0 
5.144812087821e-04 1.044287979456e-02 0.0 
5.042026568525e-04 1.009549209455e-02 0.0 
5.000483042217e-04 9.438083814079e-03 0.0 
4.889378316122e-04 9.748591589114e-03 0.0 
4.818209566153e-04 9.072075737270e-03 0.0 
4.695485927044e-04 9.401156922641e-03 0.0 
4.706147698279e-04 1.003140193808e-02 0.0 
4.505299714026e-04 9.702959647912e-03 0.0 
4.468338987973e-04 9.051434090667e-03 0.0 
4.275978152997e-04 9.377083402159e-03 0.0 
4.251891034581e-04 9.986493178006e-03 0.0 
4.028521035639e-04 9.677014962916e-03 0.0 
4.025428411207e-04 9.046062722149e-03 0.0 
3.785137788004e-04 9.368439825103e-03 0.0 
3.733738550711e-04 9.958530828724e-03 0.0 
3.504415357671e-04 9.668724372274e-03 0.0 
3.528603793850e-04 9.049848241549e-03 0.0 
3.261091378430e-04 9.376062946341e-03 0.0 
3.191662348758e-04 9.952560688712e-03 0.0 
2.967506518932e-04 9.678481574200e-03 0.0 
3.008273756837e-04 9.072818072660e-03 0.0 
2.731458776655e-04 9.400156828427e-03 0.0 
2.746035215715e-04 8.764256383913e-03 0.0 
2.651127563702e-04 9.969672054210e-03 0.0 
2.437242029103e-04 9.709187838542e-03 0.0 
2.324763155084e-04 1.024695621021e-02 0.0 
2.134622669328e-04 1.000127171194e-02 0.0 
4.828900309839e-04 8.374901068317e-03 0.0 
2.002357642361e-04 1.050293946122e-02 0.0 
2.158364906304e-04 1.071490344255e-02 0.0 
1.832819960139e-04 1.027572965955e-02 0.0 
1.930866890278e-04 9.747224776943e-03 0.0 
1.687793382334e-04 1.074147309155e-02 0.0 
1.538470596882e-04 1.053220425711e-02 0.0 
1.389400549074e-04 1.096280097610e-02 0.0 
5.185106782655e-04 1.089525949066e-02 0.0 
3.412508457821e-04 6.894962044612e-03 0.0 
1.258363335577e-04 1.077122942390e-02 0.0 
1.115104760716e-04 1.116688467266e-02 0.0 
1.205103565907e-04 1.133197522275e-02 0.0 
9.419273487765e-05 1.150106963706e-02 0.0 
2.019147111199e-04 7.957107386268e-03 0.0 
1.887293817973e-04 6.981611483024e-03 0.0 
1.796758186217e-04 7.438584600747e-03 0.0 
1.644030050585e-04 6.424550370904e-03 0.0 
1.572103156349e-04 6.893197900373e-03 0.0 
8.668998683081e-05 1.135375404179e-02 0.0 
2.358588241762e-04 6.166152484372e-03 0.0 
1.699424927892e-04 5.937905599090e-03 0.0 
3.937061112538e-04 9.541478581962e-03 0.0 
4.746785973566e-04 1.030993891539e-02 0.0 
4.870504109427e-04 8.718374577345e-03 0.0 
1.371777320296e-04 1.031382532496e-02 0.0 
1.106146658572e-04 1.057065271067e-02 0.0 
1.190704737404e-04 1.008605083959e-02 0.0 
2.980640627328e-04 8.399104337320e-03 0.0 
2.695985629071e-04 8.063769536314e-03 0.0 
2.883893040106e-04 7.659044983482e-03 0.0 
2.581886043398e-04 7.298176362593e-03 0.0 
2.718813275155e-04 6.853651105072e-03 0.0 
2.404536850005e-04 6.467236091890e-03 0.0 
2.280598197970e-04 6.930186455861e-03 0.0 
2.095018754371e-04 6.072541917264e-03 0.0 
1.983236993190e-04 6.553949044813e-03 0.0 
2.485993687156e-04 5.983292468741e-03 0.0 
2.812064497757e-04 6.387553529466e-03 0.0 
1.793906105068e-04 5.669581965394e-03 0.0 
1.693007409767e-04 6.168309646908e-03 0.0 
1.504332794129e-04 5.256943801147e-03 0.0 
1.413039274274e-04 5.772904617556e-03 0.0 
1.556942635030e-04 6.647379660771e-03 0.0 
1.286493751369e-04 6.269208396093e-03 0.0 
1.392274432508e-04 7.106429830417e-03 0.0 
4.659824908657e-04 8.332897303905e-03 0.0 
4.654156609014e-04 7.935285283915e-03 0.0 
4.415382678715e-04 7.530452319825e-03 0.0 
4.350869887197e-04 7.089396454692e-03 0.0 
4.084394946275e-04 6.664280811249e-03 0.0 
3.959784045726e-04 6.181092636206e-03 0.0 
3.665299917301e-04 5.734116121685e-03 0.0 
3.787627016614e-04 6.235262768710e-03 0.0 
2.719043475246e-04 6.275363212589e-03 0.0 
4.990648535674e-04 1.069144327096e-02 0.0 
5.058324603127e-04 1.102307688020e-02 0.0 
4.839537842436e-04 1.122685931143e-02 0.0 
4.868773513174e-04 1.154258332688e-02 0.0 
4.578168099272e-04 1.170044913188e-02 0.0 
4.563672055617e-04 1.200307767146e-02 0.0 
4.189322722326e-04 1.211476084640e-02 0.0 
4.188803940117e-04 1.183069722115e-02 0.0 
3.705542810444e-04 1.219963980784e-02 0.0 
3.708023686180e-04 1.193916351270e-02 0.0 
3.130591791134e-04 1.226277666994e-02 0.0 
3.155654879059e-04 1.203109782597e-02 0.0 
4.366488717444e-04 7.926190877775e-03 0.0 
4.220166071391e-04 6.622068617517e-03 0.0 
3.769694697766e-04 5.671780616108e-03 0.0 
4.025998659998e-04 6.128432369390e-03 0.0 
9.886328418141e-05 1.163978074050e-02 0.0 
1.145816492443e-04 5.366788678183e-03 0.0 
2.518545779768e-04 5.477164035977e-03 0.0 
2.856269862015e-04 5.907096176232e-03 0.0 
3.344152921230e-04 5.282449658605e-03 0.0 
7.121255868014e-05 1.165308017593e-02 0.0 
4.123927333843e-04 1.240507643311e-02 0.0 
4.468543144434e-04 1.231229666420e-02 0.0 
1.405965901569e-04 5.839933958319e-03 0.0 
1.353192436824e-04 6.324233475071e-03 0.0 
2.496045457896e-04 4.949633175288e-03 0.0 
6.481506576694e-05 1.152316369065e-02 0.0 
1.852795300650e-04 5.150678121403e-03 0.0 
3.051639111220e-04 1.250567237447e-02 0.0 
1.026591350506e-04 5.880657258260e-03 0.0 
8.938336589193e-05 4.950161968626e-03 0.0 
2.121193124829e-04 7.370670348310e-03 0.0 
3.517046945767e-04 5.135950850779e-03 0.0 
3.780946489336e-04 5.624285906665e-03 0.0 
3.671863176002e-04 1.168435748612e-02 0.0 
3.147679332596e-04 1.180553717529e-02 0.0 
2.565783562467e-04 1.210920860868e-02 0.0 
2.616484137850e-04 1.190057367783e-02 0.0 
3.112476471365e-04 1.157830685847e-02 0.0 
2.608996588798e-04 1.170869073500e-02 0.0 
2.076192769547e-04 1.199357496100e-02 0.0 
2.112563674324e-04 1.182562966611e-02 0.0 
2.574790060184e-04 1.151072310474e-02 0.0 
2.118385679797e-04 1.165055315799e-02 0.0 
1.643325105984e-04 1.193106205109e-02 0.0 
1.689040312858e-04 1.177666693103e-02 0.0 
9.717891400385e-05 4.398190004338e-03 0.0 
2.370137704588e-04 1.252284388856e-02 0.0 
3.268261828069e-04 9.061568955389e-03 0.0 
2.153373966109e-04 4.501216400925e-03 0.0 
3.162263292360e-04 4.753168783189e-03 0.0 
1.177584435652e-04 5.232691446496e-03 0.0 
1.142750732797e-04 5.732712078778e-03 0.0 
1.287583241520e-04 6.801700554730e-03 0.0 
1.092200689001e-04 6.222715971697e-03 0.0 
9.430269944488e-05 5.117883762054e-03 0.0 
9.066696599547e-05 5.623283377204e-03 0.0 
1.028038904778e-04 6.703181408568e-03 0.0 
8.560712772265e-05 6.117682670105e-03 0.0 
9.529429549815e-05 7.171831742417e-03 0.0 
7.940596972844e-05 6.600133457399e-03 0.0 
6.961461055965e-05 5.511011141783e-03 0.0 
6.457716742148e-05 6.008680776825e-03 0.0 
7.225023313140e-05 7.071166086764e-03 0.0 
5.837145585730e-05 6.494404561595e-03 0.0 
6.414881178785e-05 7.529575646211e-03 0.0 
5.115054256777e-05 6.967520739609e-03 0.0 
4.582253983187e-05 5.897932605789e-03 0.0 
5.259825881598e-05 1.177847001679e-02 0.0 
3.468048504942e-04 5.802608764375e-03 0.0 
3.003010387967e-04 4.824937985546e-03 0.0 
9.405747708779e-05 1.035956594476e-02 0.0 
1.013511335834e-04 9.847246626242e-03 0.0 
1.247018744408e-04 9.537962942998e-03 0.0 
1.023413414050e-04 9.274164597310e-03 0.0 
3.963887115788e-05 6.391091840637e-03 0.0 
3.412904720079e-05 5.282794367876e-03 0.0 
3.974017935136e-04 1.270103684684e-02 0.0 
4.276912425887e-04 1.262476486150e-02 0.0 
1.193702274946e-04 4.721997284847e-03 0.0 
7.789667276725e-05 5.481375379675e-03 0.0 
8.792713027006e-05 6.374478731992e-03 0.0 
4.897364238587e-04 1.063880335995e-02 0.0 
4.698183998642e-04 1.099328176299e-02 0.0 
4.808392010531e-04 1.128502930219e-02 0.0 
4.553563731768e-04 1.163564703218e-02 0.0 
4.451562356422e-04 1.133883462369e-02 0.0 
4.616267547455e-04 1.189371011398e-02 0.0 
3.141504616178e-04 6.799560209966e-03 0.0 
5.503048053157e-05 4.884207623292e-03 0.0 
1.268630748328e-04 1.148875568239e-02 0.0 
1.001051215885e-04 1.177065796435e-02 0.0 
6.623352365942e-05 4.522329775146e-03 0.0 
3.844965542559e-04 6.713429541488e-03 0.0 
4.076692558606e-04 7.455647346704e-03 0.0 
4.066343573683e-04 7.015054710504e-03 0.0 
3.740913412109e-04 6.504263479563e-03 0.0 
3.676208203451e-04 6.042536398152e-03 0.0 
3.314073555849e-04 5.491030553898e-03 0.0 
3.191426584657e-04 5.007131035171e-03 0.0 
3.562654109004e-04 5.572747022420e-03 0.0 
3.204347476711e-04 4.568836948962e-03 0.0 
3.020290177602e-04 4.512905013435e-03 0.0 
4.396508248306e-05 7.436907050705e-03 0.0 
4.444446422802e-04 7.067467566014e-03 0.0 
2.512276397457e-04 1.130902947335e-02 0.0 
5.568595943828e-05 1.188160210430e-02 0.0 
1.204534194361e-04 1.202928319832e-02 0.0 
4.615922723206e-05 1.167274798634e-02 0.0 
5.587153622288e-05 1.138300307584e-02 0.0 
2.060069245822e-04 3.931546259334e-03 0.0 
2.792326792544e-04 4.415541239020e-03 0.0 
2.928958640318e-04 4.915283807797e-03 0.0 
4.251491651672e-04 1.196550970186e-02 0.0 
4.166518632083e-04 1.166911114237e-02 0.0 
2.908123522722e-04 4.080047480524e-03 0.0 
1.695875998493e-04 7.893197598008e-03 0.0 
1.120247818349e-04 7.723658342535e-03 0.0 
1.026003772466e-04 8.165099009657e-03 0.0 
3.539845499745e-05 1.191740982737e-02 0.0 
1.103142467311e-04 1.214688977273e-02 0.0 
7.565212481353e-05 4.482175940485e-03 0.0 
4.693050265843e-04 1.219042305704e-02 0.0 
4.469253256261e-04 1.251020850050e-02 0.0 
2.192828867997e-04 1.274724358360e-02 0.0 
1.394969684192e-04 1.271933685445e-02 0.0 
2.872681800881e-05 5.779071437335e-03 0.0 
2.434462314227e-05 4.647442883428e-03 0.0 
1.261363348055e-04 8.927919035441e-03 0.0 
1.026816902945e-04 8.636387651800e-03 0.0 
2.413029418822e-04 4.396182206548e-03 0.0 
1.299534492070e-04 1.188858130545e-02 0.0 
2.807652470693e-05 4.114356098221e-03 0.0 
3.526767657895e-04 6.297277159552e-03 0.0 
3.838050401495e-04 7.167661081143e-03 0.0 
7.931952165929e-05 9.603537788891e-03 0.0 
3.711800496902e-04 1.300419148650e-02 0.0 
3.317855808476e-04 1.303164821698e-02 0.0 
2.944234448137e-04 1.113197543825e-02 0.0 
1.696129329609e-04 1.161726305116e-02 0.0 
3.780308052814e-05 1.155022124192e-02 0.0 
1.900826741981e-04 3.338039210785e-03 0.0 
7.604935630923e-05 3.951165913531e-03 0.0 
3.398116761346e-04 5.092864863792e-03 0.0 
3.900191703075e-04 6.113963168147e-03 0.0 
2.803541207825e-04 4.011835737348e-03 0.0 
8.596208688516e-05 1.209929696428e-02 0.0 
1.714543104896e-04 3.458267337603e-03 0.0 
5.520980816165e-05 5.070915481941e-03 0.0 
2.393401726870e-04 3.849082966628e-03 0.0 
2.522618146834e-04 4.314238670176e-03 0.0 
4.819825984264e-04 1.203626141320e-02 0.0 
4.580816141591e-04 1.235012406620e-02 0.0 
4.153941250884e-04 1.281957709442e-02 0.0 
4.258582666949e-04 1.266089053249e-02 0.0 
2.851082667590e-04 8.998461348568e-03 0.0 
4.871944235170e-04 1.183980869555e-02 0.0 
3.510817168859e-04 9.498352021824e-03 0.0 
3.313015537998e-04 9.870870809145e-03 0.0 
3.520699427213e-04 1.027207380291e-02 0.0 
4.315156373984e-04 1.102669511920e-02 0.0 
4.043513819063e-04 1.135673569670e-02 0.0 
5.059423838389e-04 1.135949977143e-02 0.0 
4.853120697632e-04 8.338023657860e-03 0.0 
1.494121338448e-04 9.209159315475e-03 0.0 
1.660285010594e-04 7.453964192287e-03 0.0 
3.183390689809e-04 8.013096073313e-03 0.0 
5.759181796350e-05 4.360230883925e-03 0.0 
4.350643791184e-05 3.697429853208e-03 0.0 
7.821967853516e-05 8.071897860857e-03 0.0 
6.868557814954e-05 8.502617821565e-03 0.0 
7.450044323765e-05 1.188664629737e-02 0.0 
7.117149765712e-05 1.199144605627e-02 0.0 
2.477752919212e-04 8.448674114405e-03 0.0 
1.819050610870e-04 4.045685304980e-03 0.0 
9.600570058410e-05 4.077965996590e-03 0.0 
9.351511158684e-05 3.539896247702e-03 0.0 
1.187049561224e-04 4.198951262396e-03 0.0 
2.264406801853e-04 3.816785611185e-03 0.0 
4.753904094947e-04 1.091294586626e-02 0.0 
4.413566742159e-04 7.946998679103e-03 0.0 
1.656419095823e-04 1.253170426257e-02 0.0 
4.615284731635e-04 7.951347340489e-03 0.0 
4.932663179691e-05 1.207219301684e-02 0.0 
3.078102375333e-04 6.367572428857e-03 0.0 
4.563896833121e-05 4.083103003488e-03 0.0 
5.276266020227e-05 3.496702023970e-03 0.0 
2.542328304216e-04 3.476534841020e-03 0.0 
2.698293401693e-04 1.016553321096e-02 0.0 
4.552084946496e-04 7.523426146459e-03 0.0 
4.759873356441e-04 7.963323343692e-03 0.0 
3.294068296178e-04 1.061775527830e-02 0.0 
3.464436614706e-04 1.098465128701e-02 0.0 
3.710568045001e-04 1.064931191108e-02 0.0 
3.613471893509e-04 1.133376383432e-02 0.0 
2.821915791582e-04 1.090854697208e-02 0.0 
2.421622397257e-04 1.110704557782e-02 0.0 
2.146516117350e-04 3.240161465399e-03 0.0 
2.404249039145e-04 3.428477530807e-03 0.0 
1.966704725298e-04 3.240668086864e-03 0.0 
2.104614948024e-04 3.685008261950e-03 0.0 
2.201055824429e-04 2.963799903661e-03 0.0 
2.574134371756e-04 3.583032442005e-03 0.0 
4.444934168468e-05 1.123239625096e-02 0.0 
3.861519986685e-04 1.197364260975e-02 0.0 
5.778741039109e-05 3.278008063823e-03 0.0 
3.107754411040e-04 1.023450009339e-02 0.0 
1.399075023496e-04 3.005059019269e-03 0.0 
1.502306625341e-04 3.584569484754e-03 0.0 
6.338887585855e-05 1.268981487662e-02 0.0 
9.650158522767e-05 1.252237888528e-02 0.0 
1.970553427810e-05 3.471109546737e-03 0.0 
3.768819965408e-04 1.310759054727e-02 0.0 
3.877906254104e-04 1.295740803957e-02 0.0 
3.597398747210e-04 1.322173247307e-02 0.0 
6.788762927590e-06 1.825857440675e-03 0.0 
1.846792024196e-05 1.018513278323e-02 0.0 
3.446224138814e-05 3.029640810233e-03 0.0 
4.142660325854e-04 1.067614420741e-02 0.0 
2.024747040963e-05 2.861878161848e-03 0.0 
4.436814660416e-04 7.090502319382e-03 0.0 
5.006413285429e-04 1.095281778542e-02 0.0 
2.766486826697e-04 4.853400114216e-03 0.0 
1.573167691760e-05 4.118254813779e-03 0.0 
1.168697065168e-05 2.755531417439e-03 0.0 
1.184230283826e-04 8.667275035769e-03 0.0 
1.081215915661e-04 9.096899670974e-03 0.0 
1.292863528661e-04 8.253875799729e-03 0.0 
2.929730772507e-04 1.275883187828e-02 0.0 
1.867094116612e-04 1.302748914772e-02 0.0 
4.189453636627e-05 4.237460031987e-03 0.0 
8.705641055595e-05 1.081003106734e-02 0.0 
7.080980396879e-05 1.056850723799e-02 0.0 
1.321818849949e-04 1.176020417042e-02 0.0 
1.658036831778e-04 1.146147378115e-02 0.0 
1.496966241774e-04 8.566494071720e-03 0.0 
1.742223925643e-04 8.864074960881e-03 0.0 
3.073864338354e-04 5.894858603121e-03 0.0 
2.713822445699e-04 5.338713614446e-03 0.0 
3.759684775702e-04 6.961163939051e-03 0.0 
3.522420322319e-04 6.766855543637e-03 0.0 
3.769859744924e-04 7.597490142750e-03 0.0 
4.067938017087e-04 7.969189831503e-03 0.0 
4.410958875667e-05 3.186684168217e-03 0.0 
2.935837176921e-05 2.384481582926e-03 0.0 
3.219095852263e-04 1.070242835370e-02 0.0 
3.369782229417e-04 1.094490852808e-02 0.0 
2.673877129737e-04 1.069432872423e-02 0.0 
5.428097946947e-05 2.742887509374e-03 0.0 
3.840220598494e-05 2.436897660463e-03 0.0 
5.626373750811e-05 2.930810573144e-03 0.0 
4.144578129051e-05 1.214798656896e-02 0.0 
6.375815798521e-05 1.208561733153e-02 0.0 
2.979112025585e-04 1.332364791288e-02 0.0 
2.445237165460e-04 1.330760600207e-02 0.0 
8.982011100045e-05 3.038871877543e-03 0.0 
1.156031596139e-04 3.673382446831e-03 0.0 
6.307023199525e-05 2.297541438953e-03 0.0 
2.693163846645e-05 1.143407092669e-02 0.0 
3.727508457523e-04 5.627939649690e-03 0.0 
1.712209874238e-04 2.774868132153e-03 0.0 
2.091862669023e-04 3.274469525934e-03 0.0 
1.272501950158e-04 2.142027530144e-03 0.0 
2.867194813732e-04 4.015957281641e-03 0.0 
2.165921859749e-04 2.906985662968e-03 0.0 
2.088273925303e-04 2.864789855682e-03 0.0 
2.105716838585e-05 1.284813064720e-02 0.0 
9.154837378844e-06 3.272708576464e-03 0.0 
8.187899182843e-05 9.011585647910e-03 0.0 
-3.526052142533e-05 1.279036727160e-02 0.0 
7.136127629082e-05 9.444826688856e-03 0.0 
5.989310618304e-05 8.926418529569e-03 0.0 
6.177000893359e-05 9.860360009014e-03 0.0 
2.240135382436e-05 1.170025402919e-02 0.0 
1.354719756179e-04 9.312372736328e-03 0.0 
1.481349627355e-04 8.801106708052e-03 0.0 
2.169798147911e-05 1.223862678558e-02 0.0 
3.712715899695e-05 2.049638258558e-03 0.0 
2.500467615896e-05 1.218932774340e-02 0.0 
3.374016879221e-05 1.213084220859e-02 0.0 
1.089344557244e-04 2.505156955777e-03 0.0 
1.202646873253e-04 3.109709661814e-03 0.0 
7.934258910680e-05 2.016868074985e-03 0.0 
9.436160601073e-05 2.683639831425e-03 0.0 
1.268306633975e-04 3.716139783410e-03 0.0 
9.966627498503e-05 3.251101964846e-03 0.0 
9.670955182628e-05 9.575309122093e-03 0.0 
6.547226925591e-05 2.034626058329e-03 0.0 
7.450690457578e-05 2.752348346878e-03 0.0 
4.307398402226e-05 1.568148753496e-03 0.0 
3.331710334358e-04 1.162910095529e-02 0.0 
4.285605255099e-04 1.249075022864e-02 0.0 
3.909191614397e-04 1.278915741855e-02 0.0 
3.442888643086e-04 1.325037246924e-02 0.0 
1.411233646778e-04 2.356932134980e-03 0.0 
1.722864567135e-04 3.095545275780e-03 0.0 
3.459918237336e-05 4.628174336542e-03 0.0 
3.964721845873e-05 5.578744271681e-03 0.0 
4.935461542033e-05 9.404536136593e-03 0.0 
3.565817510776e-05 9.441557607278e-03 0.0 
3.943164914944e-05 8.612909321094e-03 0.0 
2.826920390930e-05 8.717163170452e-03 0.0 
2.953753325130e-05 7.858807127423e-03 0.0 
1.887639235321e-05 7.970952591180e-03 0.0 
2.295283586307e-05 7.067300365964e-03 0.0 
1.624183278217e-04 2.241597863812e-03 0.0 
3.126167241483e-04 1.350146118947e-02 0.0 
3.060064288682e-04 1.095612800047e-02 0.0 
1.819220676715e-04 2.441014145294e-03 0.0 
2.268359293360e-04 3.169961295988e-03 0.0 
3.755851621641e-04 1.166869239701e-02 0.0 
3.540834734181e-04 1.227390366460e-02 0.0 
1.140501457861e-04 2.219501721427e-03 0.0 
5.052211654650e-04 1.150876877935e-02 0.0 
2.739587352352e-05 1.324093695779e-03 0.0 
-1.556183008624e-04 1.330159621357e-02 0.0 
2.379673727404e-05 1.315566803569e-02 0.0 
5.057314022920e-04 1.127010700635e-02 0.0 
3.885647913791e-04 1.101050540743e-02 0.0 
4.288499602332e-04 1.225563283123e-02 0.0 
3.954529704195e-04 1.252092632017e-02 0.0 
3.192738788353e-04 5.860245145932e-03 0.0 
5.040857790561e-05 1.217759010033e-02 0.0 
3.344774429692e-04 1.329403105605e-02 0.0 
3.283612794291e-05 6.963362354883e-03 0.0 
2.491470053627e-04 1.360463589282e-02 0.0 
1.822342540414e-05 5.067532281537e-03 0.0 
5.160316640982e-04 1.114677551006e-02 0.0 
4.373461080398e-04 1.032575795322e-02 0.0 
3.983438920834e-04 1.293073520985e-02 0.0 
4.630586912349e-04 1.212767593892e-02 0.0 
3.014539937070e-04 8.603497082378e-03 0.0 
2.677466033418e-04 9.380218624708e-03 0.0 
2.891278166501e-04 9.821424574630e-03 0.0 
5.188147440123e-04 1.079199503955e-02 0.0 
3.929699223377e-04 1.225398266829e-02 0.0 
3.587565409262e-04 1.280448531701e-02 0.0 
3.691465689499e-04 9.116181388636e-03 0.0 
1.454632837650e-04 4.834574338101e-03 0.0 
1.441368454351e-04 4.314089881589e-03 0.0 
1.108330688240e-04 3.171276177273e-03 0.0 
1.402829099391e-04 3.793275513150e-03 0.0 
1.740783126678e-04 4.940015774693e-03 0.0 
1.721675833082e-04 4.428681045052e-03 0.0 
1.333454795898e-04 3.278817902434e-03 0.0 
1.668510803228e-04 3.911346755576e-03 0.0 
1.122900896711e-04 2.500226961999e-03 0.0 
1.563260365991e-04 3.360442868168e-03 0.0 
2.022536530824e-04 4.555367412443e-03 0.0 
1.960327828137e-04 4.064393039751e-03 0.0 
1.500137419157e-04 2.977354771399e-03 0.0 
2.391460530546e-04 5.231727185121e-03 0.0 
1.407644847191e-04 1.821187766677e-03 0.0 
5.142270045084e-04 1.060430821669e-02 0.0 
1.046693111064e-04 1.292594673463e-02 0.0 
1.115209954072e-04 1.327701157030e-02 0.0 
4.163969016311e-04 9.942060488786e-03 0.0 
5.493303599025e-05 1.222400562735e-03 0.0 
4.301060064904e-05 1.200994549933e-03 0.0 
4.822784155714e-04 1.186735470284e-02 0.0 
7.268531872029e-05 1.133847895062e-03 0.0 
3.085342813165e-04 9.446291938144e-03 0.0 
3.645969857757e-04 1.247072168954e-02 0.0 
8.042990562984e-05 1.133372402013e-03 0.0 
1.732517260464e-04 5.441968931553e-03 0.0 
2.016908795355e-04 6.046692887136e-03 0.0 
1.961794777046e-04 6.520127697792e-03 0.0 
3.291808298655e-05 1.119045708244e-03 0.0 
1.401911209058e-04 7.819406450658e-03 0.0 
8.205943899853e-05 1.045201022588e-03 0.0 
4.580811994721e-04 7.511552549726e-03 0.0 
4.772043395320e-04 7.944212311523e-03 0.0 
5.007395086167e-04 8.748205838444e-03 0.0 
2.053114133886e-04 5.073101518152e-03 0.0 
8.362150078511e-05 1.093048860252e-03 0.0 
1.523511867987e-04 2.094367085594e-03 0.0 
1.454457139705e-04 2.086997687144e-03 0.0 
2.156246760450e-04 3.128829462788e-03 0.0 
7.652176268813e-05 1.079336455959e-03 0.0 
5.755409090469e-05 1.097286406360e-03 0.0 
5.884294483849e-05 1.041220367764e-03 0.0 
3.041342170942e-04 1.135662070214e-02 0.0 
3.499426176869e-04 1.118665139211e-02 0.0 
3.774520756341e-04 1.074245012666e-02 0.0 
3.926901643219e-04 1.100574796878e-02 0.0 
3.600877875520e-04 1.143434291070e-02 0.0 
4.049346809651e-04 1.127598346729e-02 0.0 
4.305410038050e-04 1.081334973447e-02 0.0 
4.137557543551e-04 1.155291487751e-02 0.0 
2.247100396708e-04 4.223866804498e-03 0.0 
6.594934180981e-05 1.033096244189e-03 0.0 
3.034332510907e-04 7.234919157321e-03 0.0 
3.347399277729e-04 7.618573076542e-03 0.0 
3.475846921859e-04 8.367735432705e-03 0.0 
1.716890501360e-04 9.481859713196e-03 0.0 
1.980976956535e-04 9.154885047570e-03 0.0 
1.981903941752e-04 8.499962522484e-03 0.0 
1.451375886754e-04 9.793366764539e-03 0.0 
4.007253084559e-04 6.567471458835e-03 0.0 
6.079461944530e-05 1.039631347371e-03 0.0 
4.137584713853e-04 7.557955968833e-03 0.0 
2.213277607748e-04 9.437677959303e-03 0.0 
1.815489632548e-04 1.016039788081e-02 0.0 
1.874995107300e-04 9.430117498333e-03 0.0 
2.067683526192e-04 9.405719318337e-03 0.0 
1.914415905588e-04 8.533340291940e-03 0.0 
1.668381582078e-04 9.332505324993e-03 0.0 
1.250165887257e-04 8.257499689277e-03 0.0 
1.004084172838e-04 7.938752435136e-03 0.0 
7.903371817619e-05 8.335308968569e-03 0.0 
7.605784091513e-05 7.609614827656e-03 0.0 
5.521836818723e-05 8.021469223861e-03 0.0 
5.748649122106e-05 8.697401264296e-03 0.0 
5.160595715603e-05 7.269352108656e-03 0.0 
3.157896501604e-05 7.782216756494e-03 0.0 
1.454836472803e-04 1.016642672610e-02 0.0 
-7.456126219374e-05 1.258094255256e-02 0.0 
5.599781600196e-06 1.248373657430e-02 0.0 
6.683213461756e-06 1.241677608153e-02 0.0 
6.622961045721e-05 1.235748611939e-02 0.0 
7.726265380015e-05 1.242168314994e-02 0.0 
1.409845313045e-04 1.223113637873e-02 0.0 
1.471844525192e-04 1.233438483442e-02 0.0 
4.523885969832e-06 1.257141533436e-02 0.0 
-4.628753772096e-05 1.244199648733e-02 0.0 
1.024756444679e-05 1.236230701563e-02 0.0 
-3.443794804170e-05 1.239120021651e-02 0.0 
1.116817008295e-05 1.231952629626e-02 0.0 
6.406395652192e-05 1.222827207697e-02 0.0 
9.915654807280e-05 1.188584317347e-02 0.0 
1.918858471051e-05 1.220015109951e-03 0.0 
2.147006507303e-05 9.598276175382e-03 0.0 
4.146751184808e-05 9.878822300927e-03 0.0 
3.757534316606e-05 1.036994951587e-02 0.0 
6.063367802067e-05 1.011458497013e-02 0.0 
3.989693428497e-05 9.361977566154e-03 0.0 
1.818179860036e-05 1.061199492179e-02 0.0 
3.504007000799e-05 1.076540902233e-02 0.0 
2.931428789044e-06 1.220807818869e-02 0.0 
5.925179634936e-06 1.215595404658e-02 0.0 
1.306161170334e-06 1.216168402680e-02 0.0 
8.745660359244e-06 1.205776785095e-02 0.0 
1.428964268690e-05 1.206402444608e-02 0.0 
1.040288467191e-05 1.215859810097e-02 0.0 
1.407957419586e-05 1.216607882865e-02 0.0 
4.339906122475e-06 1.222228171338e-02 0.0 
1.732969742818e-05 1.217605739413e-02 0.0 
2.771790794043e-05 1.207129258337e-02 0.0 
4.148516315361e-06 1.223337655522e-02 0.0 
6.863248493971e-06 5.659189384243e-03 0.0 
1.338269337481e-05 5.100549217072e-03 0.0 
5.417496668692e-05 1.102038008803e-03 0.0 
1.118673101246e-04 1.010030881545e-02 0.0 
-1.533917378538e-05 1.231611216952e-02 0.0 
1.046892937495e-05 1.409429691677e-03 0.0 
1.535434891053e-05 1.174113331672e-03 0.0 
1.353114168978e-05 1.136308310670e-03 0.0 
1.129288923263e-05 2.988758760377e-03 0.0 
1.839587825225e-05 2.450849927953e-03 0.0 
4.737744632166e-06 1.368912834256e-03 0.0 
1.496185769332e-04 1.114589375162e-02 0.0 
1.026737199368e-04 2.669109037196e-03 0.0 
3.023191302276e-05 3.568728330571e-03 0.0 
3.531281259264e-04 1.274409477393e-02 0.0 
2.030864034186e-04 1.129156289381e-02 0.0 
6.255559523582e-05 5.984703868318e-03 0.0 
1.836028478897e-04 7.012253514528e-03 0.0 
7.366847813994e-05 3.961796249381e-03 0.0 
1.131436838291e-04 6.745476938097e-03 0.0 
1.229197844905e-04 4.832691608671e-03 0.0 
1.426664073190e-04 2.150206604604e-03 0.0 
3.143075046008e-05 1.179782438268e-02 0.0 
8.709892052394e-05 7.627874286079e-03 0.0 
5.602912389691e-05 7.979012788429e-03 0.0 
5.102338288054e-05 5.397296174047e-03 0.0 
1.002152031351e-04 1.099315390816e-02 0.0 
8.070609196897e-05 8.966502853257e-03 0.0 
7.488599026662e-05 1.177219993413e-02 0.0 
1.436582402334e-04 2.136379145966e-03 0.0 
3.735080748193e-04 9.912976838848e-03 0.0 
3.259008098286e-04 8.728443645371e-03 0.0 
1.648289891065e-04 1.003897230718e-02 0.0 
1.818410658494e-04 1.093785075758e-02 0.0 
2.091621944196e-04 1.147089574229e-02 0.0 
5.042439045013e-04 1.028182309388e-02 0.0 
2.487675637610e-04 9.110336255528e-03 0.0 
2.164853021185e-04 5.571377724335e-03 0.0 
3.875155230304e-05 4.766290129993e-03 0.0 
5.311501878325e-07 1.226054761304e-02 0.0 
2.186265575013e-04 5.047617568684e-03 0.0 
2.408821317488e-04 7.721314199754e-03 0.0 
1.210304564339e-04 7.269836034185e-03 0.0 
3.478451123229e-04 5.211322853960e-03 0.0 
1.579692328075e-04 1.206907041518e-02 0.0 
7.338123721468e-05 5.003555260462e-03 0.0 
7.146582866824e-05 2.933370046559e-03 0.0 
1.595768928269e-04 8.344310107544e-03 0.0 
5.300075920989e-05 1.198644071290e-02 0.0 
9.306178918678e-05 8.607876658594e-03 0.0 
1.545991570406e-04 2.845457253947e-03 0.0 
1.440987926102e-04 5.341555146495e-03 0.0 
7.674770871979e-05 1.119727977480e-02 0.0 
4.597717912738e-04 8.704797460927e-03 0.0 
4.562496335900e-04 9.952000032481e-03 0.0 
2.668058757038e-04 1.088481931994e-02 0.0 
3.139596845614e-05 3.056780645185e-03 0.0 
4.995429014869e-04 8.776129243891e-03 0.0 
2.809183196000e-04 4.261222368310e-03 0.0 
4.143444373312e-04 7.123144650127e-03 0.0 
6.470832293592e-05 1.102363055240e-02 0.0 
1.555788943453e-04 4.163919024922e-03 0.0 
5.038081164344e-04 9.102730413243e-03 0.0 
5.874126212291e-05 3.831559129797e-03 0.0 
3.390487042978e-04 5.968536073835e-03 0.0 
4.870378152049e-04 1.036147661955e-02 0.0 
9.620236969710e-05 4.603639521509e-03 0.0 
3.757169775636e-04 8.711950367594e-03 0.0 
3.224002695426e-04 4.659162340214e-03 0.0 
3.947539463489e-04 1.030231820115e-02 0.0 
4.040896799751e-04 7.887640690504e-03 0.0 
3.043087506036e-04 6.825283862897e-03 0.0 
4.623503672612e-04 8.367352700803e-03 0.0 
4.282697519753e-05 6.472189609168e-03 0.0 
1.863442193795e-04 4.610490394166e-03 0.0 
2.506619778089e-04 1.231352295130e-02 0.0 
4.870967777890e-04 1.156936659525e-02 0.0 
1.489417550360e-04 7.357612287432e-03 0.0 
2.630975027920e-04 3.945704604973e-03 0.0 
4.201110522217e-05 2.587849566957e-03 0.0 
4.552016870392e-04 1.067298605994e-02 0.0 
1.554555057215e-04 4.723127869781e-03 0.0 
7.469190404663e-05 3.447471339786e-03 0.0 
2.237211828202e-04 8.811008821255e-03 0.0 
1.050598007168e-05 1.166589426216e-02 0.0 
2.772200718795e-04 1.302193273574e-02 0.0 
4.531062315003e-04 1.140235277428e-02 0.0 
5.106140470410e-04 9.145068962075e-03 0.0 
2.206469514920e-04 8.122374993658e-03 0.0 
7.886397993673e-05 2.363911929006e-03 0.0 
1.271576814732e-04 4.285436246096e-03 0.0 
2.841132322935e-04 5.394374263227e-03 0.0 
6.436198746584e-05 1.379563662909e-02 0.0 
2.893660295271e-04 1.056660519762e-02 0.0 
1.007589838000e-04 3.836224118455e-03 0.0 
4.346054708062e-04 8.337616227696e-03 0.0 
2.904508389605e-04 4.186706694419e-03 0.0 
3.494558836703e-05 8.424987897193e-03 0.0 
1.504436197486e-04 2.155892755820e-03 0.0 
3.463183706458e-04 1.194939769168e-02 0.0 
7.656502639009e-05 3.375211079209e-03 0.0 
3.129538309921e-04 5.352471690601e-03 0.0 
4.981862863715e-04 1.169967613784e-02 0.0 
3.063099924816e-05 1.018409632276e-02 0.0 
4.854587591474e-05 2.107517062147e-03 0.0 
2.623316260735e-04 4.289957239727e-03 0.0 
4.359215029304e-04 7.498192298918e-03 0.0 
4.213875245309e-04 8.703503133741e-03 0.0 
2.934530505350e-04 1.159230234507e-02 0.0 
1.932958190709e-04 7.788974794455e-03 0.0 
3.736762309430e-04 7.407938503730e-03 0.0 
2.953154643848e-05 1.089827400659e-03 0.0 
2.457190018639e-04 3.784778655781e-03 0.0 
2.226956629343e-04 7.099103559218e-03 0.0 
1.723230975657e-04 8.188673537431e-03 0.0 
4.261704992317e-04 6.626166932907e-03 0.0 
2.129350873004e-05 1.206820466705e-02 0.0 
3.203941201804e-04 1.129588832071e-02 0.0 
1.463349595330e-04 7.865330059639e-03 0.0 
4.436727326720e-04 1.110681971969e-02 0.0 
3.938621454047e-04 8.352865766630e-03 0.0 
1.827712357354e-04 2.392830589681e-03 0.0 
1.206781223058e-04 7.531059934227e-03 0.0 
4.622838898207e-04 1.059812255660e-02 0.0 
9.551304347344e-05 7.186632733228e-03 0.0 
3.137914690470e-04 1.221625772560e-02 0.0 
2.302054708778e-04 6.624169850694e-03 0.0 
7.003013100659e-05 6.831151380595e-03 0.0 
3.425302275595e-04 6.440424158352e-03 0.0 
3.501737557965e-05 1.207398077755e-02 0.0 
4.302459240968e-04 7.065518596036e-03 0.0 
2.691689148526e-05 3.562463230711e-03 0.0 
2.504829046917e-04 1.047608856548e-02 0.0 
3.651135743397e-04 7.998116957840e-03 0.0 
2.047971292782e-04 5.561832200982e-03 0.0 
3.222068575397e-04 1.276039943370e-02 0.0 
3.463713793916e-04 7.207587463229e-03 0.0 
3.024575778916e-04 5.413856534005e-03 0.0 
4.191887422706e-04 6.620155993440e-03 0.0 
4.912050424117e-04 8.368163168358e-03 0.0 
3.193644076518e-04 6.338579354875e-03 0.0 
3.600367889369e-04 1.251913502029e-02 0.0 
1.572277428643e-04 1.132126643385e-02 0.0 
1.306997318036e-04 1.162872116572e-02 0.0 
4.453345280169e-04 1.028978166518e-02 0.0 
2.638250153382e-04 4.826821836932e-03 0.0 
1.744597916042e-05 1.192707284961e-02 0.0 
2.386082728307e-04 5.688136974426e-03 0.0 
9.398392671045e-05 1.199736727971e-02 0.0 
4.140440044580e-04 1.052558794089e-02 0.0 
3.464990629105e-04 5.056767683909e-03 0.0 
8.420275257492e-06 7.721113061422e-03 0.0 
3.948457373095e-04 1.024012701284e-02 0.0 
1.296944481766e-05 1.137178383638e-02 0.0 
3.600144102212e-04 1.048125792823e-02 0.0 
4.629897166915e-04 7.524928657549e-03 0.0 
3.406029317361e-04 1.021451257285e-02 0.0 
3.048037664861e-04 1.046070933682e-02 0.0 
2.014663277805e-05 2.363382254266e-03 0.0 
2.858067976845e-04 1.021575055267e-02 0.0 
1.664152257774e-06 1.136694906911e-03 0.0 
8.256078413815e-06 1.110720627686e-03 0.0 
1.170898443803e-05 9.548977770367e-03 0.0 
3.099200573118e-04 1.325637773135e-02 0.0 
-1.302441387949e-04 1.292560022580e-02 0.0 
3.615228114491e-04 1.296108942392e-02 0.0 
2.301444367543e-04 1.091326015790e-02 0.0 
2.740704785396e-04 5.821628888510e-03 0.0 
2.433894506026e-05 9.508197447360e-03 0.0 
1.931594233628e-04 1.112032718336e-02 0.0 
1.082808653692e-04 2.190631773157e-03 0.0 
7.943993447768e-05 1.045973535746e-03 0.0 
1.556892317467e-05 6.148312383701e-03 0.0 
2.591411783044e-04 3.756361154778e-03 0.0 
4.010203382983e-04 6.123675063316e-03 0.0 
4.290499397541e-06 3.393582344632e-03 0.0 
7.169058100231e-05 1.024296162645e-02 0.0 
1.310348210737e-05 1.228388787024e-02 0.0 
2.075550786085e-05 6.006641623262e-03 0.0 
2.879722898115e-04 1.361063278370e-02 0.0 
3.299927762015e-04 1.340346327166e-02 0.0 
2.827777519450e-04 1.358396560830e-02 0.0 
5.053314066217e-05 1.087878429959e-02 0.0 
5.916632678016e-05 1.230057273263e-02 0.0 
2.587843783886e-04 1.377544412551e-02 0.0 
1.604738762140e-04 2.168246774051e-03 0.0 
1.210511704457e-04 9.488230727797e-03 0.0 
3.181209963650e-04 4.601217174066e-03 0.0 
1.860397562616e-04 1.388246274987e-02 0.0 
5.044832661838e-05 2.283833878526e-03 0.0 
1.664303985898e-04 2.194953319862e-03 0.0 
4.011518407410e-05 9.720302914111e-04 0.0 
2.495129625757e-04 3.448715619498e-03 0.0 
1.957755907505e-04 1.358838246512e-02 0.0 
1.763429855544e-04 8.720094030037e-03 0.0 
1.361395388919e-04 2.126169227058e-03 0.0 
2.102460267395e-05 5.263674232568e-03 0.0 
2.830180215785e-05 9.335106262860e-04 0.0 
1.519272700321e-04 9.564684805627e-03 0.0 
1.264823244185e-05 2.208353007418e-03 0.0 
1.903242707577e-04 1.235273364398e-02 0.0 
5.586665885460e-06 2.142985676340e-03 0.0 
2.339980568671e-04 4.725207481965e-03 0.0 
4.890595889862e-05 8.415054361823e-03 0.0 
2.103677267797e-04 8.752336400423e-03 0.0 
2.254481082709e-05 1.925662829279e-03 0.0 
9.159419133198e-05 2.212988905384e-03 0.0 
1.235245662379e-04 1.348370225601e-02 0.0 
2.432638328997e-05 6.255530737683e-03 0.0 
8.151962372116e-05 1.011071995313e-02 0.0 
-1.515710928146e-05 1.268396158658e-02 0.0 
9.650866345190e-05 2.024272817920e-03 0.0 
1.874163988091e-04 3.608452072701e-03 0.0 
3.745635520502e-05 1.964749959804e-03 0.0 
3.347918708485e-06 1.206612298659e-02 0.0 
1.322779886337e-05 1.223593599003e-02 0.0 
1.043733411148e-04 1.875958301355e-03 0.0 
1.139674344159e-04 2.013629234632e-03 0.0 
2.070963754157e-04 1.212793040620e-02 0.0 
1.669192054266e-05 9.237902796180e-04 0.0 
-8.178956655058e-06 1.339113204901e-02 0.0 
9.818567006192e-05 1.032682047136e-02 0.0 
1.860293286704e-05 1.219399723447e-02 0.0 
2.330368067316e-05 9.445544361668e-04 0.0 
3.116182535479e-05 2.120590131469e-03 0.0 
5.672808894008e-05 9.625180245763e-03 0.0 
2.174835402684e-04 1.006395441976e-02 0.0 
3.036029128034e-05 1.113553388164e-02 0.0 
2.073655628365e-04 2.987933985072e-03 0.0 
4.607502870080e-05 1.222487169319e-02 0.0 
2.062463575214e-05 2.001378515022e-03 0.0 
1.170858596478e-04 1.835058784803e-03 0.0 
6.157311945287e-05 2.010512743286e-03 0.0 
6.367687719333e-05 8.055593169836e-04 0.0 
-2.375962248991e-05 1.299400857135e-02 0.0 
1.413905667995e-04 1.885603140423e-03 0.0 
1.930687703702e-04 2.879084770932e-03 0.0 
5.420376152188e-05 1.027865288086e-02 0.0 
7.938926899698e-05 2.158974801276e-03 0.0 
5.318528996856e-05 1.052801220554e-02 0.0 
4.216114676669e-05 1.194766023463e-02 0.0 
9.741528259610e-07 1.007524227465e-03 0.0 
-7.653812014174e-07 1.220612743745e-02 0.0 
8.824742330660e-06 1.027826099846e-02 0.0 
3.549398650771e-06 9.064200198452e-04 0.0 
2.322486849238e-05 1.196331891387e-02 0.0 
1.925317626927e-05 8.896706161181e-03 0.0 
1.030029284479e-04 1.940050851569e-03 0.0 
1.436722121773e-05 8.308315182807e-03 0.0 
1.093598672952e-05 4.181725280024e-03 0.0 
1.063012441431e-04 1.222430070875e-02 0.0 
-1.311897681866e-04 1.278432504624e-02 0.0 
1.520745534123e-05 7.219594851552e-03 0.0 
1.517962475539e-04 1.966473277829e-03 0.0 
4.739043099278e-05 1.918351877389e-03 0.0 
3.904575406466e-05 7.891672116504e-03 0.0 
2.020957300601e-04 1.322036552857e-02 0.0 
1.464130813851e-04 2.734701161543e-03 0.0 
6.037016139748e-05 9.175509812188e-03 0.0 
1.872759706742e-04 2.930734084149e-03 0.0 
2.065246423584e-04 2.915727776102e-03 0.0 
-1.484346891338e-04 1.350714267405e-02 0.0 
1.391820138341e-05 7.593048058309e-03 0.0 
1.748808884550e-05 1.221074359494e-02 0.0 
6.567845193839e-05 1.799120987009e-03 0.0 
3.946295915624e-05 8.891450154879e-03 0.0 
-4.228469211398e-05 1.422499988911e-02 0.0 
9.006514154919e-06 1.508126583428e-02 0.0 
1.059857867602e-04 1.423493130309e-02 0.0 
4.970105990765e-06 1.482368761601e-02 0.0 
1.930316103298e-04 1.410452877940e-02 0.0 
6.594410976390e-06 1.450360202401e-02 0.0 
2.439227996405e-04 1.385528392665e-02 0.0 
4.231824476619e-06 1.411952776933e-02 0.0 
2.693575151405e-04 1.350908555764e-02 0.0 
6.764297907580e-06 1.367122649058e-02 0.0 
2.778942121076e-04 1.306729271663e-02 0.0 
4.539717778584e-06 1.315861384511e-02 0.0 
2.725699204937e-04 1.254695761155e-02 0.0 
7.111613456345e-06 1.258169308465e-02 0.0 
2.570492620180e-04 1.193961681148e-02 0.0 
4.686497085515e-06 1.194051756266e-02 0.0 
2.346587232509e-04 1.126699398573e-02 0.0 
7.059767575868e-06 1.123545346367e-02 0.0 

VECTORS node_bounda_dof_materi_velocity_x float
1.000000000000e+00 0.0 0.0 
1.000000000000e+00 0.0 0.0 
1.000000000000e+00 0.0 0.0 
1.000000000000e+00 0.0 0.0 
1.000000000000e+00 0.0 0.0 
1.000000000000e+00 0.0 0.0 
1.000000000000e+00 0.0 0.0 
1.000000000000e+00 0.0 0.0 
1.000000000000e+00 0.0 0.0 
1.000000000000e+00 0.0 0.0 
1.000000000000e+00 0.0 0.0 
1.000000000000e+00 0.0 0.0 
1.000000000000e+00 0.0 0.0 
1.000000000000e+00 0.0 0.0 
1.000000000000e+00 0.0 0.0 
1.000000000000e+00 0.0 0.0 
1.000000000000e+00 0.0 0.0 
1.000000000000e+00 0.0 0.0 
1.000000000000e+00 0.0 0.0 
1.000000000000e+00 0.0 0.0 
1.000000000000e+00 0.0 0.0 
1.000000000000e+00 0.0 0.0 
1.000000000000e+00 0.0 0.0 
1.000000000000e+00 0.0 0.0 
1.000000000000e+00 0.0 0.0 
1.000000000000e+00 0.0 0.0 
1.000000000000e+00 0.0 0.0 
1.000000000000e+00 0.0 0.0 
1.000000000000e+00 0.0 0.0 
1.000000000000e+00 0.0 0.0 
1.000000000000e+00 0.0 0.0 
1.000000000000e+00 0.0 0.0 
1.000000000000e+00 0.0 0.0 
1.000000000000e+00 0.0 0.0 
1.000000000000e+00 0.0 0.0 
1.000000000000e+00 0.0 0.0 
1.000000000000e+00 0.0 0.0 
1.000000000000e+00 0.0 0.0 
1.000000000000e+00 0.0 0.0 
1.000000000000e+00 0.0 0.0 
1.000000000000e+00 0.0 0.0 
1.000000000000e+00 0.0 0.0 
1.000000000000e+00 0.0 0.0 
1.000000000000e+00 0.0 0.0 
1.000000000000e+00 0.0 0.0 
1.000000000000e+00 0.0 0.0 
1.000000000000e+00 0.0 0.0 
1.000000000000e+00 0.0 0.0 
1.000000000000e+00 0.0 0.0 
1.000000000000e+00 0.0 0.0 
1.000000000000e+00 0.0 0.0 
1.000000000000e+00 0.0 0.0 
1.000000000000e+00 0.0 0.0 
1.000000000000e+00 0.0 0.0 
1.000000000000e+00 0.0 0.0 
1.000000000000e+00 0.0 0.0 
1.000000000000e+00 0.0 0.0 
1.000000000000e+00 0.0 0.0 
1.000000000000e+00 0.0 0.0 
1.000000000000e+00 0.0 0.0 
1.000000000000e+00 0.0 0.0 
1.000000000000e+00 0.0 0.0 
1.000000000000e+00 0.0 0.0 
1.000000000000e+00 0.0 0.0 
1.000000000000e+00 0.0 0.0 
1.000000000000e+00 0.0 0.0 
1.000000000000e+00 0.0 0.0 
1.000000000000e+00 0.0 0.0 
1.000000000000e+00 0.0 0.0 
1.000000000000e+00 0.0 0.0 
1.000000000000e+00 0.0 0.0 
1.000000000000e+00 0.0 0.0 
1.000000000000e+00 0.0 0.0 
1.000000000000e+00 0.0 0.0 
1.000000000000e+00 0.0 0.0 
1.000000000000e+00 0.0 0.0 
1.000000000000e+00 0.0 0.0 
1.000000000000e+00 0.0 0.0 
1.000000000000e+00 0.0 0.0 
1.000000000000e+00 0.0 0.0 
1.000000000000e+00 0.0 0.0 
0.0 0.0 0.0 
0.0 0.0 0.0 
0.0 0.0 0.0 
0.0 0.0 0.0 
0.0 0.0 0.0 
0.0 0.0 0.0 
0.0 0.0 0.0 
0.0 0.0 0.0 
0.0 0.0 0.0 
0.0 0.0 0.0 
0.0 0.0 0.0 
1.000000000000e+00 0.0 0.0 
1.000000000000e+00 0.0 0.0 
1.000000000000e+00 0.0 0.0 
1.000000000000e+00 0.0 0.0 
1.000000000000e+00 0.0 0.0 
1.000000000000e+00 0.0 0.0 
1.000000000000e+00 0.0 0.0 
1.000000000000e+00 0.0 0.0 
1.000000000000e+00 0.0 0.0 
0.0 0.0 0.0 
0.0 0.0 0.0 
0.0 0.0 0.0 
0.0 0.0 0.0 
0.0 0.0 0.0 
0.0 0.0 0.0 
0.0 0.0 0.0 
0.0 0.0 0.0 
0.0 0.0 0.0 
0.0 0.0 0.0 
0.0 0.0 0.0 
0.0 0.0 0.0 
0.0 0.0 0.0 
0.0 0.0 0.0 
0.0 0.0 0.0 
0.0 0.0 0.0 
0.0 0.0 0.0 
0.0 0.0 0.0 
0.0 0.0 0.0 
0.0 0.0 0.0 
0.0 0.0 0.0 
0.0 0.0 0.0 
0.0 0.0 0.0 
0.0 0.0 0.0 
0.0 0.0 0.0 
0.0 0.0 0.0 
0.0 0.0 0.0 
0.0 0.0 0.0 
0.0 0.0 0.0 
0.0 0.0 0.0 
0.0 0.0 0.0 
0.0 0.0 0.0 
0.0 0.0 0.0 
0.0 0.0 0.0 
0.0 0.0 0.0 
0.0 0.0 0.0 
0.0 0.0 0.0 
0.0 0.0 0.0 
0.0 0.0 0.0 
0.0 0.0 0.0 
0.0 0.0 0.0 
0.0 0.0 0.0 
0.0 0.0 0.0 
0.0 0.0 0.0 
0.0 0.0 0.0 
0.0 0.0 0.0 
0.0 0.0 0.0 
0.0 0.0 0.0 
0.0 0.0 0.0 
0.0 0.0 0.0 
0.0 0.0 0.0 
0.0 0.0 0.0 
0.0 0.0 0.0 
0.0 0.0 0.0 
0.0 0.0 0.0 
0.0 0.0 0.0 
0.0 0.0 0.0 
0.0 0.0 0.0 
0.0 0.0 0.0 
0.0 0.0 0.0 
0.0 0.0 0.0 
0.0 0.0 0.0 
0.0 0.0 0.0 
0.0 0.0 0.0 
0.0 0.0 0.0 
0.0 0.0 0.0 
0.0 0.0 0.0 
0.0 0.0 0.0 
0.0 0.0 0.0 
0.0 0.0 0.0 
0.0 0.0 0.0 
0.0 0.0 0.0 
0.0 0.0 0.0 
0.0 0.0 0.0 
0.0 0.0 0.0 
0.0 0.0 0.0 
0.0 0.0 0.0 
0.0 0.0 0.0 
0.0 0.0 0.0 
0.0 0.0 0.0 
0.0 0.0 0.0 
0.0 0.0 0.0 
0.0 0.0 0.0 
0.0 0.0 0.0 
0.0 0.0 0.0 
0.0 0.0 0.0 
0.0 0.0 0.0 
0.0 0.0 0.0 
0.0 0.0 0.0 
0.0 0.0 0.0 
0.0 0.0 0.0 
0.0 0.0 0.0 
0.0 0.0 0.0 
0.0 0.0 0.0 
0.0 0.0 0.0 
0.0 0.0 0.0 
0.0 0.0 0.0 
0.0 0.0 0.0 
0.0 0.0 0.0 
0.0 0.0 0.0 
0.0 0.0 0.0 
0.0 0.0 0.0 
0.0 0.0 0.0 
0.0 0.0 0.0 
0.0 0.0 0.0 
0.0 0.0 0.0 
0.0 0.0 0.0 
0.0 0.0 0.0 
0.0 0.0 0.0 
0.0 0.0 0.0 
0.0 0.0 0.0 
0.0 0.0 0.0 
0.0 0.0 0.0 
0.0 0.0 0.0 
0.0 0.0 0.0 
0.0 0.0 0.0 
0.0 0.0 0.0 
0.0 0.0 0.0 
0.0 0.0 0.0 
0.0 0.0 0.0 
0.0 0.0 0.0 
0.0 0.0 0.0 
0.0 0.0 0.0 
0.0 0.0 0.0 
0.0 0.0 0.0 
0.0 0.0 0.0 
0.0 0.0 0.0 
0.0 0.0 0.0 
0.0 0.0 0.0 
0.0 0.0 0.0 
0.0 0.0 0.0 
0.0 0.0 0.0 
0.0 0.0 0.0 
0.0 0.0 0.0 
0.0 0.0 0.0 
0.0 0.0 0.0 
0.0 0.0 0.0 
0.0 0.0 0.0 
0.0 0.0 0.0 
0.0 0.0 0.0 
0.0 0.0 0.0 
0.0 0.0 0.0 
0.0 0.0 0.0 
0.0 0.0 0.0 
0.0 0.0 0.0 
0.0 0.0 0.0 
0.0 0.0 0.0 
0.0 0.0 0.0 
0.0 0.0 0.0 
0.0 0.0 0.0 
0.0 0.0 0.0 
0.0 0.0 0.0 
0.0 0.0 0.0 
0.0 0.0 0.0 
0.0 0.0 0.0 
0.0 0.0 0.0 
0.0 0.0 0.0 
0.0 0.0 0.0 
0.0 0.0 0.0 
0.0 0.0 0.0 
0.0 0.0 0.0 
0.0 0.0 0.0 
0.0 0.0 0.0 
0.0 0.0 0.0 
0.0 0.0 0.0 
0.0 0.0 0.0 
0.0 0.0 0.0 
0.0 0.0 0.0 
0.0 0.0 0.0 
0.0 0.0 0.0 
0.0 0.0 0.0 
0.0 0.0 0.0 
0.0 0.0 0.0 
0.0 0.0 0.0 
0.0 0.0 0.0 
0.0 0.0 0.0 
0.0 0.0 0.0 
0.0 0.0 0.0 
0.0 0.0 0.0 
0.0 0.0 0.0 
0.0 0.0 0.0 
0.0 0.0 0.0 
0.0 0.0 0.0 
0.0 0.0 0.0 
0.0 0.0 0.0 
0.0 0.0 0.0 
0.0 0.0 0.0 
0.0 0.0 0.0 
0.0 0.0 0.0 
0.0 0.0 0.0 
0.0 0.0 0.0 
0.0 0.0 0.0 
0.0 0.0 0.0 
0.0 0.0 0.0 
0.0 0.0 0.0 
0.0 0.0 0.0 
0.0 0.0 0.0 
0.0 0.0 0.0 
0.0 0.0 0.0 
0.0 0.0 0.0 
0.0 0.0 0.0 
0.0 0.0 0.0 
0.0 0.0 0.0 
0.0 0.0 0.0 
0.0 0.0 0.0 
0.0 0.0 0.0 
0.0 0.0 0.0 
0.0 0.0 0.0 
0.0 0.0 0.0 
0.0 0.0 0.0 
0.0 0.0 0.0 
0.0 0.0 0.0 
0.0 0.0 0.0 
0.0 0.0 0.0 
0.0 0.0 0.0 
0.0 0.0 0.0 
0.0 0.0 0.0 
0.0 0.0 0.0 
0.0 0.0 0.0 
0.0 0.0 0.0 
0.0 0.0 0.0 
0.0 0.0 0.0 
0.0 0.0 0.0 
0.0 0.0 0.0 
0.0 0.0 0.0 
0.0 0.0 0.0 
0.0 0.0 0.0 
0.0 0.0 0.0 
0.0 0.0 0.0 
0.0 0.0 0.0 
0.0 0.0 0.0 
0.0 0.0 0.0 
0.0 0.0 0.0 
0.0 0.0 0.0 
0.0 0.0 0.0 
0.0 0.0 0.0 
0.0 0.0 0.0 
0.0 0.0 0.0 
0.0 0.0 0.0 
0.0 0.0 0.0 
0.0 0.0 0.0 
0.0 0.0 0.0 
0.0 0.0 0.0 
0.0 0.0 0.0 
0.0 0.0 0.0 
0.0 0.0 0.0 
0.0 0.0 0.0 
0.0 0.0 0.0 
0.0 0.0 0.0 
0.0 0.0 0.0 
0.0 0.0 0.0 
0.0 0.0 0.0 
0.0 0.0 0.0 
0.0 0.0 0.0 
0.0 0.0 0.0 
0.0 0.0 0.0 
0.0 0.0 0.0 
0.0 0.0 0.0 
0.0 0.0 0.0 
0.0 0.0 0.0 
0.0 0.0 0.0 
0.0 0.0 0.0 
0.0 0.0 0.0 
0.0 0.0 0.0 
0.0 0.0 0.0 
0.0 0.0 0.0 
0.0 0.0 0.0 
0.0 0.0 0.0 
0.0 0.0 0.0 
0.0 0.0 0.0 
0.0 0.0 0.0 
0.0 0.0 0.0 
0.0 0.0 0.0 
0.0 0.0 0.0 
0.0 0.0 0.0 
0.0 0.0 0.0 
0.0 0.0 0.0 
0.0 0.0 0.0 
0.0 0.0 0.0 
0.0 0.0 0.0 
0.0 0.0 0.0 
0.0 0.0 0.0 
0.0 0.0 0.0 
0.0 0.0 0.0 
0.0 0.0 0.0 
0.0 0.0 0.0 
0.0 0.0 0.0 
0.0 0.0 0.0 
0.0 0.0 0.0 
0.0 0.0 0.0 
0.0 0.0 0.0 
0.0 0.0 0.0 
0.0 0.0 0.0 
0.0 0.0 0.0 
0.0 0.0 0.0 
0.0 0.0 0.0 
0.0 0.0 0.0 
0.0 0.0 0.0 
0.0 0.0 0.0 
0.0 0.0 0.0 
0.0 0.0 0.0 
0.0 0.0 0.0 
0.0 0.0 0.0 
0.0 0.0 0.0 
0.0 0.0 0.0 
0.0 0.0 0.0 
0.0 0.0 0.0 
0.0 0.0 0.0 
0.0 0.0 0.0 
0.0 0.0 0.0 
0.0 0.0 0.0 
0.0 0.0 0.0 
0.0 0.0 0.0 
0.0 0.0 0.0 
0.0 0.0 0.0 
0.0 0.0 0.0 
0.0 0.0 0.0 
0.0 0.0 0.0 
0.0 0.0 0.0 
0.0 0.0 0.0 
0.0 0.0 0.0 
0.0 0.0 0.0 
0.0 0.0 0.0 
0.0 0.0 0.0 
0.0 0.0 0.0 
0.0 0.0 0.0 
0.0 0.0 0.0 
0.0 0.0 0.0 
0.0 0.0 0.0 
0.0 0.0 0.0 
0.0 0.0 0.0 
0.0 0.0 0.0 
0.0 0.0 0.0 
0.0 0.0 0.0 
0.0 0.0 0.0 
0.0 0.0 0.0 
0.0 0.0 0.0 
0.0 0.0 0.0 
0.0 0.0 0.0 
0.0 0.0 0.0 
0.0 0.0 0.0 
0.0 0.0 0.0 
0.0 0.0 0.0 
0.0 0.0 0.0 
0.0 0.0 0.0 
0.0 0.0 0.0 
0.0 0.0 0.0 
0.0 0.0 0.0 
0.0 0.0 0.0 
0.0 0.0 0.0 
0.0 0.0 0.0 
0.0 0.0 0.0 
0.0 0.0 0.0 
0.0 0.0 0.0 
0.0 0.0 0.0 
0.0 0.0 0.0 
0.0 0.0 0.0 
0.0 0.0 0.0 
0.0 0.0 0.0 
0.0 0.0 0.0 
0.0 0.0 0.0 
0.0 0.0 0.0 
0.0 0.0 0.0 
0.0 0.0 0.0 
0.0 0.0 0.0 
0.0 0.0 0.0 
0.0 0.0 0.0 
0.0 0.0 0.0 
0.0 0.0 0.0 
0.0 0.0 0.0 
0.0 0.0 0.0 
0.0 0.0 0.0 
0.0 0.0 0.0 
0.0 0.0 0.0 
0.0 0.0 0.0 
0.0 0.0 0.0 
0.0 0.0 0.0 
0.0 0.0 0.0 
0.0 0.0 0.0 
0.0 0.0 0.0 
0.0 0.0 0.0 
0.0 0.0 0.0 
0.0 0.0 0.0 
0.0 0.0 0.0 
0.0 0.0 0.0 
0.0 0.0 0.0 
0.0 0.0 0.0 
0.0 0.0 0.0 
0.0 0.0 0.0 
0.0 0.0 0.0 
0.0 0.0 0.0 
0.0 0.0 0.0 
0.0 0.0 0.0 
0.0 0.0 0.0 
0.0 0.0 0.0 
0.0 0.0 0.0 
0.0 0.0 0.0 
0.0 0.0 0.0 
0.0 0.0 0.0 
0.0 0.0 0.0 
0.0 0.0 0.0 
0.0 0.0 0.0 
0.0 0.0 0.0 
0.0 0.0 0.0 
0.0 0.0 0.0 
0.0 0.0 0.0 
0.0 0.0 0.0 
0.0 0.0 0.0 
0.0 0.0 0.0 
0.0 0.0 0.0 
0.0 0.0 0.0 
0.0 0.0 0.0 
0.0 0.0 0.0 
0.0 0.0 0.0 
0.0 0.0 0.0 
0.0 0.0 0.0 
0.0 0.0 0.0 
0.0 0.0 0.0 
0.0 0.0 0.0 
0.0 0.0 0.0 
0.0 0.0 0.0 
0.0 0.0 0.0 
0.0 0.0 0.0 
0.0 0.0 0.0 
0.0 0.0 0.0 
0.0 0.0 0.0 
0.0 0.0 0.0 
0.0 0.0 0.0 
0.0 0.0 0.0 
0.0 0.0 0.0 
0.0 0.0 0.0 
0.0 0.0 0.0 
0.0 0.0 0.0 
0.0 0.0 0.0 
0.0 0.0 0.0 
0.0 0.0 0.0 
0.0 0.0 0.0 
0.0 0.0 0.0 
0.0 0.0 0.0 
0.0 0.0 0.0 
0.0 0.0 0.0 
0.0 0.0 0.0 
0.0 0.0 0.0 
0.0 0.0 0.0 
0.0 0.0 0.0 
0.0 0.0 0.0 
0.0 0.0 0.0 
0.0 0.0 0.0 
0.0 0.0 0.0 
0.0 0.0 0.0 
0.0 0.0 0.0 
0.0 0.0 0.0 
0.0 0.0 0.0 
0.0 0.0 0.0 
0.0 0.0 0.0 
0.0 0.0 0.0 
0.0 0.0 0.0 
0.0 0.0 0.0 
0.0 0.0 0.0 
0.0 0.0 0.0 
0.0 0.0 0.0 
0.0 0.0 0.0 
0.0 0.0 0.0 
0.0 0.0 0.0 
0.0 0.0 0.0 
0.0 0.0 0.0 
0.0 0.0 0.0 
0.0 0.0 0.0 
0.0 0.0 0.0 
0.0 0.0 0.0 
0.0 0.0 0.0 
0.0 0.0 0.0 
0.0 0.0 0.0 
0.0 0.0 0.0 
0.0 0.0 0.0 
0.0 0.0 0.0 
0.0 0.0 0.0 
0.0 0.0 0.0 
0.0 0.0 0.0 
0.0 0.0 0.0 
0.0 0.0 0.0 
0.0 0.0 0.0 
0.0 0.0 0.0 
0.0 0.0 0.0 
0.0 0.0 0.0 
0.0 0.0 0.0 
0.0 0.0 0.0 
0.0 0.0 0.0 
0.0 0.0 0.0 
0.0 0.0 0.0 
0.0 0.0 0.0 
0.0 0.0 0.0 
0.0 0.0 0.0 
0.0 0.0 0.0 
0.0 0.0 0.0 
0.0 0.0 0.0 
0.0 0.0 0.0 
0.0 0.0 0.0 
0.0 0.0 0.0 
0.0 0.0 0.0 
0.0 0.0 0.0 
0.0 0.0 0.0 
0.0 0.0 0.0 
0.0 0.0 0.0 
0.0 0.0 0.0 
0.0 0.0 0.0 
0.0 0.0 0.0 
0.0 0.0 0.0 
0.0 0.0 0.0 
0.0 0.0 0.0 
0.0 0.0 0.0 
0.0 0.0 0.0 
0.0 0.0 0.0 
0.0 0.0 0.0 
0.0 0.0 0.0 
0.0 0.0 0.0 
0.0 0.0 0.0 
0.0 0.0 0.0 
0.0 0.0 0.0 
0.0 0.0 0.0 
0.0 0.0 0.0 
0.0 0.0 0.0 
0.0 0.0 0.0 
0.0 0.0 0.0 
0.0 0.0 0.0 
0.0 0.0 0.0 
0.0 0.0 0.0 
0.0 0.0 0.0 
0.0 0.0 0.0 
0.0 0.0 0.0 
0.0 0.0 0.0 
0.0 0.0 0.0 
0.0 0.0 0.0 
0.0 0.0 0.0 
0.0 0.0 0.0 
0.0 0.0 0.0 
0.0 0.0 0.0 
0.0 0.0 0.0 
0.0 0.0 0.0 
0.0 0.0 0.0 
0.0 0.0 0.0 
0.0 0.0 0.0 
0.0 0.0 0.0 
0.0 0.0 0.0 
0.0 0.0 0.0 
0.0 0.0 0.0 
0.0 0.0 0.0 
0.0 0.0 0.0 
0.0 0.0 0.0 
0.0 0.0 0.0 
0.0 0.0 0.0 
0.0 0.0 0.0 
0.0 0.0 0.0 
0.0 0.0 0.0 
0.0 0.0 0.0 
0.0 0.0 0.0 
0.0 0.0 0.0 
0.0 0.0 0.0 
0.0 0.0 0.0 
0.0 0.0 0.0 
0.0 0.0 0.0 
0.0 0.0 0.0 
0.0 0.0 0.0 
0.0 0.0 0.0 
0.0 0.0 0.0 
0.0 0.0 0.0 
0.0 0.0 0.0 
0.0 0.0 0.0 
0.0 0.0 0.0 
0.0 0.0 0.0 
0.0 0.0 0.0 
0.0 0.0 0.0 
0.0 0.0 0.0 
0.0 0.0 0.0 
0.0 0.0 0.0 
0.0 0.0 0.0 
0.0 0.0 0.0 
0.0 0.0 0.0 
0.0 0.0 0.0 
0.0 0.0 0.0 
0.0 0.0 0.0 
0.0 0.0 0.0 
0.0 0.0 0.0 
0.0 0.0 0.0 
0.0 0.0 0.0 
0.0 0.0 0.0 
0.0 0.0 0.0 
0.0 0.0 0.0 
0.0 0.0 0.0 
0.0 0.0 0.0 
0.0 0.0 0.0 
0.0 0.0 0.0 
0.0 0.0 0.0 
0.0 0.0 0.0 
0.0 0.0 0.0 
0.0 0.0 0.0 
0.0 0.0 0.0 
0.0 0.0 0.0 
0.0 0.0 0.0 
0.0 0.0 0.0 
0.0 0.0 0.0 
0.0 0.0 0.0 
0.0 0.0 0.0 
0.0 0.0 0.0 
0.0 0.0 0.0 
0.0 0.0 0.0 
0.0 0.0 0.0 
0.0 0.0 0.0 
0.0 0.0 0.0 
0.0 0.0 0.0 
0.0 0.0 0.0 
0.0 0.0 0.0 
0.0 0.0 0.0 
0.0 0.0 0.0 
0.0 0.0 0.0 
0.0 0.0 0.0 
0.0 0.0 0.0 
0.0 0.0 0.0 
0.0 0.0 0.0 
0.0 0.0 0.0 
0.0 0.0 0.0 
0.0 0.0 0.0 
0.0 0.0 0.0 
0.0 0.0 0.0 
0.0 0.0 0.0 
0.0 0.0 0.0 
0.0 0.0 0.0 
0.0 0.0 0.0 
0.0 0.0 0.0 
0.0 0.0 0.0 
0.0 0.0 0.0 
0.0 0.0 0.0 
0.0 0.0 0.0 
0.0 0.0 0.0 
0.0 0.0 0.0 
0.0 0.0 0.0 
0.0 0.0 0.0 
0.0 0.0 0.0 
0.0 0.0 0.0 
0.0 0.0 0.0 
0.0 0.0 0.0 
0.0 0.0 0.0 
0.0 0.0 0.0 
0.0 0.0 0.0 
0.0 0.0 0.0 
0.0 0.0 0.0 
0.0 0.0 0.0 
0.0 0.0 0.0 
0.0 0.0 0.0 
0.0 0.0 0.0 
0.0 0.0 0.0 
0.0 0.0 0.0 
0.0 0.0 0.0 
0.0 0.0 0.0 
0.0 0.0 0.0 
0.0 0.0 0.0 
0.0 0.0 0.0 
0.0 0.0 0.0 
0.0 0.0 0.0 
0.0 0.0 0.0 
0.0 0.0 0.0 
0.0 0.0 0.0 
0.0 0.0 0.0 
0.0 0.0 0.0 
0.0 0.0 0.0 
0.0 0.0 0.0 
0.0 0.0 0.0 
0.0 0.0 0.0 
0.0 0.0 0.0 
0.0 0.0 0.0 
0.0 0.0 0.0 
0.0 0.0 0.0 
0.0 0.0 0.0 
0.0 0.0 0.0 
0.0 0.0 0.0 
0.0 0.0 0.0 
0.0 0.0 0.0 
0.0 0.0 0.0 
0.0 0.0 0.0 
0.0 0.0 0.0 
0.0 0.0 0.0 
0.0 0.0 0.0 
0.0 0.0 0.0 
0.0 0.0 0.0 
0.0 0.0 0.0 
0.0 0.0 0.0 
0.0 0.0 0.0 
0.0 0.0 0.0 
0.0 0.0 0.0 
0.0 0.0 0.0 
0.0 0.0 0.0 
0.0 0.0 0.0 
0.0 0.0 0.0 
0.0 0.0 0.0 
0.0 0.0 0.0 
0.0 0.0 0.0 
0.0 0.0 0.0 
0.0 0.0 0.0 
0.0 0.0 0.0 
0.0 0.0 0.0 
0.0 0.0 0.0 
0.0 0.0 0.0 
0.0 0.0 0.0 
0.0 0.0 0.0 
0.0 0.0 0.0 
0.0 0.0 0.0 
0.0 0.0 0.0 
0.0 0.0 0.0 
0.0 0.0 0.0 
0.0 0.0 0.0 
0.0 0.0 0.0 
0.0 0.0 0.0 
0.0 0.0 0.0 
0.0 0.0 0.0 
0.0 0.0 0.0 
0.0 0.0 0.0 
0.0 0.0 0.0 
0.0 0.0 0.0 
0.0 0.0 0.0 
0.0 0.0 0.0 
0.0 0.0 0.0 
0.0 0.0 0.0 
0.0 0.0 0.0 
0.0 0.0 0.0 
0.0 0.0 0.0 
0.0 0.0 0.0 
0.0 0.0 0.0 
0.0 0.0 0.0 
0.0 0.0 0.0 
0.0 0.0 0.0 
0.0 0.0 0.0 
0.0 0.0 0.0 
0.0 0.0 0.0 
0.0 0.0 0.0 
0.0 0.0 0.0 
0.0 0.0 0.0 
0.0 0.0 0.0 
0.0 0.0 0.0 
0.0 0.0 0.0 
0.0 0.0 0.0 
0.0 0.0 0.0 
0.0 0.0 0.0 
0.0 0.0 0.0 
0.0 0.0 0.0 
0.0 0.0 0.0 
0.0 0.0 0.0 
0.0 0.0 0.0 
0.0 0.0 0.0 
0.0 0.0 0.0 
0.0 0.0 0.0 
0.0 0.0 0.0 
0.0 0.0 0.0 
0.0 0.0 0.0 
0.0 0.0 0.0 
0.0 0.0 0.0 
0.0 0.0 0.0 
0.0 0.0 0.0 
0.0 0.0 0.0 
0.0 0.0 0.0 
0.0 0.0 0.0 
0.0 0.0 0.0 
0.0 0.0 0.0 
0.0 0.0 0.0 
0.0 0.0 0.0 
0.0 0.0 0.0 
0.0 0.0 0.0 
0.0 0.0 0.0 
0.0 0.0 0.0 
0.0 0.0 0.0 
0.0 0.0 0.0 
0.0 0.0 0.0 
0.0 0.0 0.0 
0.0 0.0 0.0 
0.0 0.0 0.0 
0.0 0.0 0.0 
0.0 0.0 0.0 
0.0 0.0 0.0 
0.0 0.0 0.0 
0.0 0.0 0.0 
0.0 0.0 0.0 
0.0 0.0 0.0 
0.0 0.0 0.0 
0.0 0.0 0.0 
0.0 0.0 0.0 
0.0 0.0 0.0 
0.0 0.0 0.0 
0.0 0.0 0.0 
0.0 0.0 0.0 
0.0 0.0 0.0 
0.0 0.0 0.0 
0.0 0.0 0.0 
0.0 0.0 0.0 
0.0 0.0 0.0 
0.0 0.0 0.0 
0.0 0.0 0.0 
0.0 0.0 0.0 
0.0 0.0 0.0 
0.0 0.0 0.0 
0.0 0.0 0.0 
0.0 0.0 0.0 
0.0 0.0 0.0 
0.0 0.0 0.0 
0.0 0.0 0.0 
0.0 0.0 0.0 
0.0 0.0 0.0 
0.0 0.0 0.0 
0.0 0.0 0.0 
0.0 0.0 0.0 
0.0 0.0 0.0 
0.0 0.0 0.0 
0.0 0.0 0.0 
0.0 0.0 0.0 
0.0 0.0 0.0 
0.0 0.0 0.0 
0.0 0.0 0.0 
0.0 0.0 0.0 
0.0 0.0 0.0 
0.0 0.0 0.0 
0.0 0.0 0.0 
0.0 0.0 0.0 
0.0 0.0 0.0 
0.0 0.0 0.0 
0.0 0.0 0.0 
0.0 0.0 0.0 
0.0 0.0 0.0 
0.0 0.0 0.0 
0.0 0.0 0.0 
0.0 0.0 0.0 
0.0 0.0 0.0 
0.0 0.0 0.0 
0.0 0.0 0.0 
0.0 0.0 0.0 
0.0 0.0 0.0 
0.0 0.0 0.0 
0.0 0.0 0.0 
0.0 0.0 0.0 
0.0 0.0 0.0 
0.0 0.0 0.0 
0.0 0.0 0.0 
0.0 0.0 0.0 
0.0 0.0 0.0 
0.0 0.0 0.0 
0.0 0.0 0.0 
0.0 0.0 0.0 
0.0 0.0 0.0 
0.0 0.0 0.0 
0.0 0.0 0.0 
0.0 0.0 0.0 
0.0 0.0 0.0 
0.0 0.0 0.0 
0.0 0.0 0.0 
0.0 0.0 0.0 
0.0 0.0 0.0 
0.0 0.0 0.0 
0.0 0.0 0.0 
0.0 0.0 0.0 
0.0 0.0 0.0 
0.0 0.0 0.0 
0.0 0.0 0.0 
0.0 0.0 0.0 
0.0 0.0 0.0 
0.0 0.0 0.0 
0.0 0.0 0.0 
0.0 0.0 0.0 
0.0 0.0 0.0 
0.0 0.0 0.0 
0.0 0.0 0.0 
0.0 0.0 0.0 
0.0 0.0 0.0 
0.0 0.0 0.0 
0.0 0.0 0.0 
0.0 0.0 0.0 
0.0 0.0 0.0 
0.0 0.0 0.0 
0.0 0.0 0.0 
0.0 0.0 0.0 
0.0 0.0 0.0 
0.0 0.0 0.0 
0.0 0.0 0.0 
0.0 0.0 0.0 
0.0 0.0 0.0 
0.0 0.0 0.0 
0.0 0.0 0.0 
0.0 0.0 0.0 
0.0 0.0 0.0 
0.0 0.0 0.0 
0.0 0.0 0.0 
0.0 0.0 0.0 
0.0 0.0 0.0 
0.0 0.0 0.0 
0.0 0.0 0.0 
0.0 0.0 0.0 
0.0 0.0 0.0 
0.0 0.0 0.0 
0.0 0.0 0.0 
0.0 0.0 0.0 
0.0 0.0 0.0 
0.0 0.0 0.0 
0.0 0.0 0.0 
0.0 0.0 0.0 
0.0 0.0 0.0 
0.0 0.0 0.0 
0.0 0.0 0.0 
0.0 0.0 0.0 
0.0 0.0 0.0 
0.0 0.0 0.0 
0.0 0.0 0.0 
0.0 0.0 0.0 
0.0 0.0 0.0 
0.0 0.0 0.0 
0.0 0.0 0.0 
0.0 0.0 0.0 
0.0 0.0 0.0 
0.0 0.0 0.0 
0.0 0.0 0.0 
0.0 0.0 0.0 
0.0 0.0 0.0 
0.0 0.0 0.0 
0.0 0.0 0.0 
0.0 0.0 0.0 
0.0 0.0 0.0 
0.0 0.0 0.0 
0.0 0.0 0.0 
0.0 0.0 0.0 
0.0 0.0 0.0 
0.0 0.0 0.0 
0.0 0.0 0.0 
0.0 0.0 0.0 
0.0 0.0 0.0 
0.0 0.0 0.0 
0.0 0.0 0.0 
0.0 0.0 0.0 
0.0 0.0 0.0 
0.0 0.0 0.0 
0.0 0.0 0.0 
0.0 0.0 0.0 
0.0 0.0 0.0 
0.0 0.0 0.0 
0.0 0.0 0.0 
0.0 0.0 0.0 
0.0 0.0 0.0 
0.0 0.0 0.0 
0.0 0.0 0.0 
0.0 0.0 0.0 
0.0 0.0 0.0 
0.0 0.0 0.0 
0.0 0.0 0.0 
0.0 0.0 0.0 
0.0 0.0 0.0 
0.0 0.0 0.0 
0.0 0.0 0.0 
0.0 0.0 0.0 
0.0 0.0 0.0 
0.0 0.0 0.0 
0.0 0.0 0.0 
0.0 0.0 0.0 
0.0 0.0 0.0 
0.0 0.0 0.0 
0.0 0.0 0.0 
0.0 0.0 0.0 
0.0 0.0 0.0 
0.0 0.0 0.0 
0.0 0.0 0.0 
0.0 0.0 0.0 
0.0 0.0 0.0 
0.0 0.0 0.0 
0.0 0.0 0.0 
0.0 0.0 0.0 
0.0 0.0 0.0 
0.0 0.0 0.0 
0.0 0.0 0.0 
0.0 0.0 0.0 
0.0 0.0 0.0 
0.0 0.0 0.0 
0.0 0.0 0.0 
0.0 0.0 0.0 
0.0 0.0 0.0 
0.0 0.0 0.0 
0.0 0.0 0.0 
0.0 0.0 0.0 
0.0 0.0 0.0 
0.0 0.0 0.0 
0.0 0.0 0.0 
0.0 0.0 0.0 
0.0 0.0 0.0 
0.0 0.0 0.0 
0.0 0.0 0.0 
0.0 0.0 0.0 
0.0 0.0 0.0 
0.0 0.0 0.0 
0.0 0.0 0.0 
0.0 0.0 0.0 
0.0 0.0 0.0 
0.0 0.0 0.0 
0.0 0.0 0.0 
0.0 0.0 0.0 
0.0 0.0 0.0 
0.0 0.0 0.0 
0.0 0.0 0.0 
0.0 0.0 0.0 
0.0 0.0 0.0 
0.0 0.0 0.0 
0.0 0.0 0.0 
0.0 0.0 0.0 
0.0 0.0 0.0 
0.0 0.0 0.0 
0.0 0.0 0.0 
0.0 0.0 0.0 
0.0 0.0 0.0 
0.0 0.0 0.0 
0.0 0.0 0.0 
0.0 0.0 0.0 
0.0 0.0 0.0 
0.0 0.0 0.0 
0.0 0.0 0.0 
0.0 0.0 0.0 
0.0 0.0 0.0 
0.0 0.0 0.0 
0.0 0.0 0.0 
0.0 0.0 0.0 
0.0 0.0 0.0 
0.0 0.0 0.0 
0.0 0.0 0.0 
0.0 0.0 0.0 
0.0 0.0 0.0 
0.0 0.0 0.0 
0.0 0.0 0.0 
0.0 0.0 0.0 
0.0 0.0 0.0 
0.0 0.0 0.0 
0.0 0.0 0.0 
0.0 0.0 0.0 
0.0 0.0 0.0 
0.0 0.0 0.0 
0.0 0.0 0.0 
0.0 0.0 0.0 
0.0 0.0 0.0 
0.0 0.0 0.0 
0.0 0.0 0.0 
0.0 0.0 0.0 
0.0 0.0 0.0 
0.0 0.0 0.0 
0.0 0.0 0.0 
0.0 0.0 0.0 
0.0 0.0 0.0 
0.0 0.0 0.0 
0.0 0.0 0.0 
0.0 0.0 0.0 
0.0 0.0 0.0 
0.0 0.0 0.0 
0.0 0.0 0.0 
0.0 0.0 0.0 
0.0 0.0 0.0 
0.0 0.0 0.0 
0.0 0.0 0.0 
0.0 0.0 0.0 
0.0 0.0 0.0 
0.0 0.0 0.0 
0.0 0.0 0.0 
0.0 0.0 0.0 
0.0 0.0 0.0 
0.0 0.0 0.0 
0.0 0.0 0.0 
0.0 0.0 0.0 
0.0 0.0 0.0 
0.0 0.0 0.0 
0.0 0.0 0.0 
0.0 0.0 0.0 
0.0 0.0 0.0 
0.0 0.0 0.0 
0.0 0.0 0.0 
0.0 0.0 0.0 
0.0 0.0 0.0 
0.0 0.0 0.0 
0.0 0.0 0.0 
0.0 0.0 0.0 
0.0 0.0 0.0 
0.0 0.0 0.0 
0.0 0.0 0.0 
0.0 0.0 0.0 
0.0 0.0 0.0 
0.0 0.0 0.0 
0.0 0.0 0.0 
0.0 0.0 0.0 
0.0 0.0 0.0 
0.0 0.0 0.0 
0.0 0.0 0.0 
0.0 0.0 0.0 
0.0 0.0 0.0 
0.0 0.0 0.0 
0.0 0.0 0.0 
0.0 0.0 0.0 
0.0 0.0 0.0 
0.0 0.0 0.0 
0.0 0.0 0.0 
0.0 0.0 0.0 
0.0 0.0 0.0 
0.0 0.0 0.0 
0.0 0.0 0.0 
0.0 0.0 0.0 
0.0 0.0 0.0 
0.0 0.0 0.0 
0.0 0.0 0.0 
0.0 0.0 0.0 
0.0 0.0 0.0 
0.0 0.0 0.0 
0.0 0.0 0.0 
0.0 0.0 0.0 
0.0 0.0 0.0 
0.0 0.0 0.0 
0.0 0.0 0.0 
0.0 0.0 0.0 
0.0 0.0 0.0 
0.0 0.0 0.0 
0.0 0.0 0.0 
0.0 0.0 0.0 
0.0 0.0 0.0 
0.0 0.0 0.0 
0.0 0.0 0.0 
0.0 0.0 0.0 
0.0 0.0 0.0 
0.0 0.0 0.0 
0.0 0.0 0.0 
0.0 0.0 0.0 
0.0 0.0 0.0 
0.0 0.0 0.0 
0.0 0.0 0.0 
0.0 0.0 0.0 
0.0 0.0 0.0 
0.0 0.0 0.0 
0.0 0.0 0.0 
0.0 0.0 0.0 
0.0 0.0 0.0 
0.0 0.0 0.0 
0.0 0.0 0.0 
0.0 0.0 0.0 
0.0 0.0 0.0 
0.0 0.0 0.0 
0.0 0.0 0.0 
0.0 0.0 0.0 
0.0 0.0 0.0 
0.0 0.0 0.0 
0.0 0.0 0.0 
0.0 0.0 0.0 
0.0 0.0 0.0 
0.0 0.0 0.0 
0.0 0.0 0.0 
0.0 0.0 0.0 
0.0 0.0 0.0 
0.0 0.0 0.0 

VECTORS node_bounda_dof_materi_velocity_y float
0.0 0.0 0.0 
0.0 0.0 0.0 
0.0 1.000000000000e+00 0.0 
0.0 1.000000000000e+00 0.0 
0.0 0.0 0.0 
0.0 0.0 0.0 
0.0 0.0 0.0 
0.0 0.0 0.0 
0.0 0.0 0.0 
0.0 0.0 0.0 
0.0 0.0 0.0 
0.0 0.0 0.0 
0.0 0.0 0.0 
0.0 0.0 0.0 
0.0 0.0 0.0 
0.0 0.0 0.0 
0.0 0.0 0.0 
0.0 0.0 0.0 
0.0 0.0 0.0 
0.0 0.0 0.0 
0.0 0.0 0.0 
0.0 0.0 0.0 
0.0 0.0 0.0 
0.0 1.000000000000e+00 0.0 
0.0 1.000000000000e+00 0.0 
0.0 1.000000000000e+00 0.0 
0.0 1.000000000000e+00 0.0 
0.0 1.000000000000e+00 0.0 
0.0 1.000000000000e+00 0.0 
0.0 1.000000000000e+00 0.0 
0.0 1.000000000000e+00 0.0 
0.0 1.000000000000e+00 0.0 
0.0 1.000000000000e+00 0.0 
0.0 1.000000000000e+00 0.0 
0.0 1.000000000000e+00 0.0 
0.0 1.000000000000e+00 0.0 
0.0 1.000000000000e+00 0.0 
0.0 1.000000000000e+00 0.0 
0.0 1.000000000000e+00 0.0 
0.0 1.000000000000e+00 0.0 
0.0 1.000000000000e+00 0.0 
0.0 1.000000000000e+00 0.0 
0.0 1.000000000000e+00 0.0 
0.0 1.000000000000e+00 0.0 
0.0 1.000000000000e+00 0.0 
0.0 1.000000000000e+00 0.0 
0.0 1.000000000000e+00 0.0 
0.0 1.000000000000e+00 0.0 
0.0 1.000000000000e+00 0.0 
0.0 1.000000000000e+00 0.0 
0.0 1.000000000000e+00 0.0 
0.0 1.000000000000e+00 0.0 
0.0 1.000000000000e+00 0.0 
0.0 1.000000000000e+00 0.0 
0.0 1.000000000000e+00 0.0 
0.0 1.000000000000e+00 0.0 
0.0 1.000000000000e+00 0.0 
0.0 1.000000000000e+00 0.0 
0.0 1.000000000000e+00 0.0 
0.0 1.000000000000e+00 0.0 
0.0 1.000000000000e+00 0.0 
0.0 1.000000000000e+00 0.0 
0.0 1.000000000000e+00 0.0 
0.0 1.000000000000e+00 0.0 
0.0 1.000000000000e+00 0.0 
0.0 1.000000000000e+00 0.0 
0.0 1.000000000000e+00 0.0 
0.0 1.000000000000e+00 0.0 
0.0 1.000000000000e+00 0.0 
0.0 1.000000000000e+00 0.0 
0.0 1.000000000000e+00 0.0 
0.0 1.000000000000e+00 0.0 
0.0 0.0 0.0 
0.0 0.0 0.0 
0.0 0.0 0.0 
0.0 0.0 0.0 
0.0 0.0 0.0 
0.0 0.0 0.0 
0.0 0.0 0.0 
0.0 0.0 0.0 
0.0 0.0 0.0 
0.0 0.0 0.0 
0.0 0.0 0.0 
0.0 0.0 0.0 
0.0 0.0 0.0 
0.0 0.0 0.0 
0.0 0.0 0.0 
0.0 0.0 0.0 
0.0 0.0 0.0 
0.0 0.0 0.0 
0.0 0.0 0.0 
0.0 0.0 0.0 
0.0 0.0 0.0 
0.0 0.0 0.0 
0.0 0.0 0.0 
0.0 0.0 0.0 
0.0 0.0 0.0 
0.0 0.0 0.0 
0.0 0.0 0.0 
0.0 0.0 0.0 
0.0 0.0 0.0 
0.0 0.0 0.0 
0.0 0.0 0.0 
0.0 0.0 0.0 
0.0 0.0 0.0 
0.0 0.0 0.0 
0.0 0.0 0.0 
0.0 0.0 0.0 
0.0 0.0 0.0 
0.0 0.0 0.0 
0.0 0.0 0.0 
0.0 0.0 0.0 
0.0 0.0 0.0 
0.0 0.0 0.0 
0.0 0.0 0.0 
0.0 0.0 0.0 
0.0 0.0 0.0 
0.0 0.0 0.0 
0.0 0.0 0.0 
0.0 0.0 0.0 
0.0 0.0 0.0 
0.0 0.0 0.0 
0.0 0.0 0.0 
0.0 0.0 0.0 
0.0 0.0 0.0 
0.0 0.0 0.0 
0.0 0.0 0.0 
0.0 0.0 0.0 
0.0 0.0 0.0 
0.0 0.0 0.0 
0.0 0.0 0.0 
0.0 0.0 0.0 
0.0 0.0 0.0 
0.0 0.0 0.0 
0.0 0.0 0.0 
0.0 0.0 0.0 
0.0 0.0 0.0 
0.0 0.0 0.0 
0.0 0.0 0.0 
0.0 0.0 0.0 
0.0 0.0 0.0 
0.0 0.0 0.0 
0.0 0.0 0.0 
0.0 0.0 0.0 
0.0 0.0 0.0 
0.0 0.0 0.0 
0.0 0.0 0.0 
0.0 0.0 0.0 
0.0 0.0 0.0 
0.0 0.0 0.0 
0.0 0.0 0.0 
0.0 0.0 0.0 
0.0 0.0 0.0 
0.0 0.0 0.0 
0.0 0.0 0.0 
0.0 0.0 0.0 
0.0 0.0 0.0 
0.0 0.0 0.0 
0.0 0.0 0.0 
0.0 0.0 0.0 
0.0 0.0 0.0 
0.0 0.0 0.0 
0.0 0.0 0.0 
0.0 0.0 0.0 
0.0 0.0 0.0 
0.0 0.0 0.0 
0.0 0.0 0.0 
0.0 0.0 0.0 
0.0 0.0 0.0 
0.0 0.0 0.0 
0.0 0.0 0.0 
0.0 0.0 0.0 
0.0 0.0 0.0 
0.0 0.0 0.0 
0.0 0.0 0.0 
0.0 0.0 0.0 
0.0 0.0 0.0 
0.0 0.0 0.0 
0.0 0.0 0.0 
0.0 0.0 0.0 
0.0 0.0 0.0 
0.0 0.0 0.0 
0.0 0.0 0.0 
0.0 0.0 0.0 
0.0 0.0 0.0 
0.0 0.0 0.0 
0.0 0.0 0.0 
0.0 0.0 0.0 
0.0 0.0 0.0 
0.0 0.0 0.0 
0.0 0.0 0.0 
0.0 0.0 0.0 
0.0 0.0 0.0 
0.0 0.0 0.0 
0.0 0.0 0.0 
0.0 0.0 0.0 
0.0 0.0 0.0 
0.0 0.0 0.0 
0.0 0.0 0.0 
0.0 0.0 0.0 
0.0 0.0 0.0 
0.0 0.0 0.0 
0.0 0.0 0.0 
0.0 0.0 0.0 
0.0 0.0 0.0 
0.0 0.0 0.0 
0.0 0.0 0.0 
0.0 0.0 0.0 
0.0 0.0 0.0 
0.0 0.0 0.0 
0.0 0.0 0.0 
0.0 0.0 0.0 
0.0 0.0 0.0 
0.0 0.0 0.0 
0.0 0.0 0.0 
0.0 0.0 0.0 
0.0 0.0 0.0 
0.0 0.0 0.0 
0.0 0.0 0.0 
0.0 0.0 0.0 
0.0 0.0 0.0 
0.0 0.0 0.0 
0.0 0.0 0.0 
0.0 0.0 0.0 
0.0 0.0 0.0 
0.0 0.0 0.0 
0.0 0.0 0.0 
0.0 0.0 0.0 
0.0 0.0 0.0 
0.0 0.0 0.0 
0.0 0.0 0.0 
0.0 0.0 0.0 
0.0 0.0 0.0 
0.0 0.0 0.0 
0.0 0.0 0.0 
0.0 0.0 0.0 
0.0 0.0 0.0 
0.0 0.0 0.0 
0.0 0.0 0.0 
0.0 0.0 0.0 
0.0 0.0 0.0 
0.0 0.0 0.0 
0.0 0.0 0.0 
0.0 0.0 0.0 
0.0 0.0 0.0 
0.0 0.0 0.0 
0.0 0.0 0.0 
0.0 0.0 0.0 
0.0 0.0 0.0 
0.0 0.0 0.0 
0.0 0.0 0.0 
0.0 0.0 0.0 
0.0 0.0 0.0 
0.0 0.0 0.0 
0.0 0.0 0.0 
0.0 0.0 0.0 
0.0 0.0 0.0 
0.0 0.0 0.0 
0.0 0.0 0.0 
0.0 0.0 0.0 
0.0 0.0 0.0 
0.0 0.0 0.0 
0.0 0.0 0.0 
0.0 0.0 0.0 
0.0 0.0 0.0 
0.0 0.0 0.0 
0.0 0.0 0.0 
0.0 0.0 0.0 
0.0 0.0 0.0 
0.0 0.0 0.0 
0.0 0.0 0.0 
0.0 0.0 0.0 
0.0 0.0 0.0 
0.0 0.0 0.0 
0.0 0.0 0.0 
0.0 0.0 0.0 
0.0 0.0 0.0 
0.0 0.0 0.0 
0.0 0.0 0.0 
0.0 0.0 0.0 
0.0 0.0 0.0 
0.0 0.0 0.0 
0.0 0.0 0.0 
0.0 0.0 0.0 
0.0 0.0 0.0 
0.0 0.0 0.0 
0.0 0.0 0.0 
0.0 0.0 0.0 
0.0 0.0 0.0 
0.0 0.0 0.0 
0.0 0.0 0.0 
0.0 0.0 0.0 
0.0 0.0 0.0 
0.0 0.0 0.0 
0.0 0.0 0.0 
0.0 0.0 0.0 
0.0 0.0 0.0 
0.0 0.0 0.0 
0.0 0.0 0.0 
0.0 0.0 0.0 
0.0 0.0 0.0 
0.0 0.0 0.0 
0.0 0.0 0.0 
0.0 0.0 0.0 
0.0 0.0 0.0 
0.0 0.0 0.0 
0.0 0.0 0.0 
0.0 0.0 0.0 
0.0 0.0 0.0 
0.0 0.0 0.0 
0.0 0.0 0.0 
0.0 0.0 0.0 
0.0 0.0 0.0 
0.0 0.0 0.0 
0.0 0.0 0.0 
0.0 0.0 0.0 
0.0 0.0 0.0 
0.0 0.0 0.0 
0.0 0.0 0.0 
0.0 0.0 0.0 
0.0 0.0 0.0 
0.0 0.0 0.0 
0.0 0.0 0.0 
0.0 0.0 0.0 
0.0 0.0 0.0 
0.0 0.0 0.0 
0.0 0.0 0.0 
0.0 0.0 0.0 
0.0 0.0 0.0 
0.0 0.0 0.0 
0.0 0.0 0.0 
0.0 0.0 0.0 
0.0 0.0 0.0 
0.0 0.0 0.0 
0.0 0.0 0.0 
0.0 0.0 0.0 
0.0 0.0 0.0 
0.0 0.0 0.0 
0.0 0.0 0.0 
0.0 0.0 0.0 
0.0 0.0 0.0 
0.0 0.0 0.0 
0.0 0.0 0.0 
0.0 0.0 0.0 
0.0 0.0 0.0 
0.0 0.0 0.0 
0.0 0.0 0.0 
0.0 0.0 0.0 
0.0 0.0 0.0 
0.0 0.0 0.0 
0.0 0.0 0.0 
0.0 0.0 0.0 
0.0 0.0 0.0 
0.0 0.0 0.0 
0.0 0.0 0.0 
0.0 0.0 0.0 
0.0 0.0 0.0 
0.0 0.0 0.0 
0.0 0.0 0.0 
0.0 0.0 0.0 
0.0 0.0 0.0 
0.0 0.0 0.0 
0.0 0.0 0.0 
0.0 0.0 0.0 
0.0 0.0 0.0 
0.0 0.0 0.0 
0.0 0.0 0.0 
0.0 0.0 0.0 
0.0 0.0 0.0 
0.0 0.0 0.0 
0.0 0.0 0.0 
0.0 0.0 0.0 
0.0 0.0 0.0 
0.0 0.0 0.0 
0.0 0.0 0.0 
0.0 0.0 0.0 
0.0 0.0 0.0 
0.0 0.0 0.0 
0.0 0.0 0.0 
0.0 0.0 0.0 
0.0 0.0 0.0 
0.0 0.0 0.0 
0.0 0.0 0.0 
0.0 0.0 0.0 
0.0 0.0 0.0 
0.0 0.0 0.0 
0.0 0.0 0.0 
0.0 0.0 0.0 
0.0 0.0 0.0 
0.0 0.0 0.0 
0.0 0.0 0.0 
0.0 0.0 0.0 
0.0 0.0 0.0 
0.0 0.0 0.0 
0.0 0.0 0.0 
0.0 0.0 0.0 
0.0 0.0 0.0 
0.0 0.0 0.0 
0.0 0.0 0.0 
0.0 0.0 0.0 
0.0 0.0 0.0 
0.0 0.0 0.0 
0.0 0.0 0.0 
0.0 0.0 0.0 
0.0 0.0 0.0 
0.0 0.0 0.0 
0.0 0.0 0.0 
0.0 0.0 0.0 
0.0 0.0 0.0 
0.0 0.0 0.0 
0.0 0.0 0.0 
0.0 0.0 0.0 
0.0 0.0 0.0 
0.0 0.0 0.0 
0.0 0.0 0.0 
0.0 0.0 0.0 
0.0 0.0 0.0 
0.0 0.0 0.0 
0.0 0.0 0.0 
0.0 0.0 0.0 
0.0 0.0 0.0 
0.0 0.0 0.0 
0.0 0.0 0.0 
0.0 0.0 0.0 
0.0 0.0 0.0 
0.0 0.0 0.0 
0.0 0.0 0.0 
0.0 0.0 0.0 
0.0 0.0 0.0 
0.0 0.0 0.0 
0.0 0.0 0.0 
0.0 0.0 0.0 
0.0 0.0 0.0 
0.0 0.0 0.0 
0.0 0.0 0.0 
0.0 0.0 0.0 
0.0 0.0 0.0 
0.0 0.0 0.0 
0.0 0.0 0.0 
0.0 0.0 0.0 
0.0 0.0 0.0 
0.0 0.0 0.0 
0.0 0.0 0.0 
0.0 0.0 0.0 
0.0 0.0 0.0 
0.0 0.0 0.0 
0.0 0.0 0.0 
0.0 0.0 0.0 
0.0 0.0 0.0 
0.0 0.0 0.0 
0.0 0.0 0.0 
0.0 0.0 0.0 
0.0 0.0 0.0 
0.0 0.0 0.0 
0.0 0.0 0.0 
0.0 0.0 0.0 
0.0 0.0 0.0 
0.0 0.0 0.0 
0.0 0.0 0.0 
0.0 0.0 0.0 
0.0 0.0 0.0 
0.0 0.0 0.0 
0.0 0.0 0.0 
0.0 0.0 0.0 
0.0 0.0 0.0 
0.0 0.0 0.0 
0.0 0.0 0.0 
0.0 0.0 0.0 
0.0 0.0 0.0 
0.0 0.0 0.0 
0.0 0.0 0.0 
0.0 0.0 0.0 
0.0 0.0 0.0 
0.0 0.0 0.0 
0.0 0.0 0.0 
0.0 0.0 0.0 
0.0 0.0 0.0 
0.0 0.0 0.0 
0.0 0.0 0.0 
0.0 0.0 0.0 
0.0 0.0 0.0 
0.0 0.0 0.0 
0.0 0.0 0.0 
0.0 0.0 0.0 
0.0 0.0 0.0 
0.0 0.0 0.0 
0.0 0.0 0.0 
0.0 0.0 0.0 
0.0 0.0 0.0 
0.0 0.0 0.0 
0.0 0.0 0.0 
0.0 0.0 0.0 
0.0 0.0 0.0 
0.0 0.0 0.0 
0.0 0.0 0.0 
0.0 0.0 0.0 
0.0 0.0 0.0 
0.0 0.0 0.0 
0.0 0.0 0.0 
0.0 0.0 0.0 
0.0 0.0 0.0 
0.0 0.0 0.0 
0.0 0.0 0.0 
0.0 0.0 0.0 
0.0 0.0 0.0 
0.0 0.0 0.0 
0.0 0.0 0.0 
0.0 0.0 0.0 
0.0 0.0 0.0 
0.0 0.0 0.0 
0.0 0.0 0.0 
0.0 0.0 0.0 
0.0 0.0 0.0 
0.0 0.0 0.0 
0.0 0.0 0.0 
0.0 0.0 0.0 
0.0 0.0 0.0 
0.0 0.0 0.0 
0.0 0.0 0.0 
0.0 0.0 0.0 
0.0 0.0 0.0 
0.0 0.0 0.0 
0.0 0.0 0.0 
0.0 0.0 0.0 
0.0 0.0 0.0 
0.0 0.0 0.0 
0.0 0.0 0.0 
0.0 0.0 0.0 
0.0 0.0 0.0 
0.0 0.0 0.0 
0.0 0.0 0.0 
0.0 0.0 0.0 
0.0 0.0 0.0 
0.0 0.0 0.0 
0.0 0.0 0.0 
0.0 0.0 0.0 
0.0 0.0 0.0 
0.0 0.0 0.0 
0.0 0.0 0.0 
0.0 0.0 0.0 
0.0 0.0 0.0 
0.0 0.0 0.0 
0.0 0.0 0.0 
0.0 0.0 0.0 
0.0 0.0 0.0 
0.0 0.0 0.0 
0.0 0.0 0.0 
0.0 0.0 0.0 
0.0 0.0 0.0 
0.0 0.0 0.0 
0.0 0.0 0.0 
0.0 0.0 0.0 
0.0 0.0 0.0 
0.0 0.0 0.0 
0.0 0.0 0.0 
0.0 0.0 0.0 
0.0 0.0 0.0 
0.0 0.0 0.0 
0.0 0.0 0.0 
0.0 0.0 0.0 
0.0 0.0 0.0 
0.0 0.0 0.0 
0.0 0.0 0.0 
0.0 0.0 0.0 
0.0 0.0 0.0 
0.0 0.0 0.0 
0.0 0.0 0.0 
0.0 0.0 0.0 
0.0 0.0 0.0 
0.0 0.0 0.0 
0.0 0.0 0.0 
0.0 0.0 0.0 
0.0 0.0 0.0 
0.0 0.0 0.0 
0.0 0.0 0.0 
0.0 0.0 0.0 
0.0 0.0 0.0 
0.0 0.0 0.0 
0.0 0.0 0.0 
0.0 0.0 0.0 
0.0 0.0 0.0 
0.0 0.0 0.0 
0.0 0.0 0.0 
0.0 0.0 0.0 
0.0 0.0 0.0 
0.0 0.0 0.0 
0.0 0.0 0.0 
0.0 0.0 0.0 
0.0 0.0 0.0 
0.0 0.0 0.0 
0.0 0.0 0.0 
0.0 0.0 0.0 
0.0 0.0 0.0 
0.0 0.0 0.0 
0.0 0.0 0.0 
0.0 0.0 0.0 
0.0 0.0 0.0 
0.0 0.0 0.0 
0.0 0.0 0.0 
0.0 0.0 0.0 
0.0 0.0 0.0 
0.0 0.0 0.0 
0.0 0.0 0.0 
0.0 0.0 0.0 
0.0 0.0 0.0 
0.0 0.0 0.0 
0.0 0.0 0.0 
0.0 0.0 0.0 
0.0 0.0 0.0 
0.0 0.0 0.0 
0.0 0.0 0.0 
0.0 0.0 0.0 
0.0 0.0 0.0 
0.0 0.0 0.0 
0.0 0.0 0.0 
0.0 0.0 0.0 
0.0 0.0 0.0 
0.0 0.0 0.0 
0.0 0.0 0.0 
0.0 0.0 0.0 
0.0 0.0 0.0 
0.0 0.0 0.0 
0.0 0.0 0.0 
0.0 0.0 0.0 
0.0 0.0 0.0 
0.0 0.0 0.0 
0.0 0.0 0.0 
0.0 0.0 0.0 
0.0 0.0 0.0 
0.0 0.0 0.0 
0.0 0.0 0.0 
0.0 0.0 0.0 
0.0 0.0 0.0 
0.0 0.0 0.0 
0.0 0.0 0.0 
0.0 0.0 0.0 
0.0 0.0 0.0 
0.0 0.0 0.0 
0.0 0.0 0.0 
0.0 0.0 0.0 
0.0 0.0 0.0 
0.0 0.0 0.0 
0.0 0.0 0.0 
0.0 0.0 0.0 
0.0 0.0 0.0 
0.0 0.0 0.0 
0.0 0.0 0.0 
0.0 0.0 0.0 
0.0 0.0 0.0 
0.0 0.0 0.0 
0.0 0.0 0.0 
0.0 0.0 0.0 
0.0 0.0 0.0 
0.0 0.0 0.0 
0.0 0.0 0.0 
0.0 0.0 0.0 
0.0 0.0 0.0 
0.0 0.0 0.0 
0.0 0.0 0.0 
0.0 0.0 0.0 
0.0 0.0 0.0 
0.0 0.0 0.0 
0.0 0.0 0.0 
0.0 0.0 0.0 
0.0 0.0 0.0 
0.0 0.0 0.0 
0.0 0.0 0.0 
0.0 0.0 0.0 
0.0 0.0 0.0 
0.0 0.0 0.0 
0.0 0.0 0.0 
0.0 0.0 0.0 
0.0 0.0 0.0 
0.0 0.0 0.0 
0.0 0.0 0.0 
0.0 0.0 0.0 
0.0 0.0 0.0 
0.0 0.0 0.0 
0.0 0.0 0.0 
0.0 0.0 0.0 
0.0 0.0 0.0 
0.0 0.0 0.0 
0.0 0.0 0.0 
0.0 0.0 0.0 
0.0 0.0 0.0 
0.0 0.0 0.0 
0.0 0.0 0.0 
0.0 0.0 0.0 
0.0 0.0 0.0 
0.0 0.0 0.0 
0.0 0.0 0.0 
0.0 0.0 0.0 
0.0 0.0 0.0 
0.0 0.0 0.0 
0.0 0.0 0.0 
0.0 0.0 0.0 
0.0 0.0 0.0 
0.0 0.0 0.0 
0.0 0.0 0.0 
0.0 0.0 0.0 
0.0 0.0 0.0 
0.0 0.0 0.0 
0.0 0.0 0.0 
0.0 0.0 0.0 
0.0 0.0 0.0 
0.0 0.0 0.0 
0.0 0.0 0.0 
0.0 0.0 0.0 
0.0 0.0 0.0 
0.0 0.0 0.0 
0.0 0.0 0.0 
0.0 0.0 0.0 
0.0 0.0 0.0 
0.0 0.0 0.0 
0.0 0.0 0.0 
0.0 0.0 0.0 
0.0 0.0 0.0 
0.0 0.0 0.0 
0.0 0.0 0.0 
0.0 0.0 0.0 
0.0 0.0 0.0 
0.0 0.0 0.0 
0.0 0.0 0.0 
0.0 0.0 0.0 
0.0 0.0 0.0 
0.0 0.0 0.0 
0.0 0.0 0.0 
0.0 0.0 0.0 
0.0 0.0 0.0 
0.0 0.0 0.0 
0.0 0.0 0.0 
0.0 0.0 0.0 
0.0 0.0 0.0 
0.0 0.0 0.0 
0.0 0.0 0.0 
0.0 0.0 0.0 
0.0 0.0 0.0 
0.0 0.0 0.0 
0.0 0.0 0.0 
0.0 0.0 0.0 
0.0 0.0 0.0 
0.0 0.0 0.0 
0.0 0.0 0.0 
0.0 0.0 0.0 
0.0 0.0 0.0 
0.0 0.0 0.0 
0.0 0.0 0.0 
0.0 0.0 0.0 
0.0 0.0 0.0 
0.0 0.0 0.0 
0.0 0.0 0.0 
0.0 0.0 0.0 
0.0 0.0 0.0 
0.0 0.0 0.0 
0.0 0.0 0.0 
0.0 0.0 0.0 
0.0 0.0 0.0 
0.0 0.0 0.0 
0.0 0.0 0.0 
0.0 0.0 0.0 
0.0 0.0 0.0 
0.0 0.0 0.0 
0.0 0.0 0.0 
0.0 0.0 0.0 
0.0 0.0 0.0 
0.0 0.0 0.0 
0.0 0.0 0.0 
0.0 0.0 0.0 
0.0 0.0 0.0 
0.0 0.0 0.0 
0.0 0.0 0.0 
0.0 0.0 0.0 
0.0 0.0 0.0 
0.0 0.0 0.0 
0.0 0.0 0.0 
0.0 0.0 0.0 
0.0 0.0 0.0 
0.0 0.0 0.0 
0.0 0.0 0.0 
0.0 0.0 0.0 
0.0 0.0 0.0 
0.0 0.0 0.0 
0.0 0.0 0.0 
0.0 0.0 0.0 
0.0 0.0 0.0 
0.0 0.0 0.0 
0.0 0.0 0.0 
0.0 0.0 0.0 
0.0 0.0 0.0 
0.0 0.0 0.0 
0.0 0.0 0.0 
0.0 0.0 0.0 
0.0 0.0 0.0 
0.0 0.0 0.0 
0.0 0.0 0.0 
0.0 0.0 0.0 
0.0 0.0 0.0 
0.0 0.0 0.0 
0.0 0.0 0.0 
0.0 0.0 0.0 
0.0 0.0 0.0 
0.0 0.0 0.0 
0.0 0.0 0.0 
0.0 0.0 0.0 
0.0 0.0 0.0 
0.0 0.0 0.0 
0.0 0.0 0.0 
0.0 0.0 0.0 
0.0 0.0 0.0 
0.0 0.0 0.0 
0.0 0.0 0.0 
0.0 0.0 0.0 
0.0 0.0 0.0 
0.0 0.0 0.0 
0.0 0.0 0.0 
0.0 0.0 0.0 
0.0 0.0 0.0 
0.0 0.0 0.0 
0.0 0.0 0.0 
0.0 0.0 0.0 
0.0 0.0 0.0 
0.0 0.0 0.0 
0.0 0.0 0.0 
0.0 0.0 0.0 
0.0 0.0 0.0 
0.0 0.0 0.0 
0.0 0.0 0.0 
0.0 0.0 0.0 
0.0 0.0 0.0 
0.0 0.0 0.0 
0.0 0.0 0.0 
0.0 0.0 0.0 
0.0 0.0 0.0 
0.0 0.0 0.0 
0.0 0.0 0.0 
0.0 0.0 0.0 
0.0 0.0 0.0 
0.0 0.0 0.0 
0.0 0.0 0.0 
0.0 0.0 0.0 
0.0 0.0 0.0 
0.0 0.0 0.0 
0.0 0.0 0.0 
0.0 0.0 0.0 
0.0 0.0 0.0 
0.0 0.0 0.0 
0.0 0.0 0.0 
0.0 0.0 0.0 
0.0 0.0 0.0 
0.0 0.0 0.0 
0.0 0.0 0.0 
0.0 0.0 0.0 
0.0 0.0 0.0 
0.0 0.0 0.0 
0.0 0.0 0.0 
0.0 0.0 0.0 
0.0 0.0 0.0 
0.0 0.0 0.0 
0.0 0.0 0.0 
0.0 0.0 0.0 
0.0 0.0 0.0 
0.0 0.0 0.0 
0.0 0.0 0.0 
0.0 0.0 0.0 
0.0 0.0 0.0 
0.0 0.0 0.0 
0.0 0.0 0.0 
0.0 0.0 0.0 
0.0 0.0 0.0 
0.0 0.0 0.0 
0.0 0.0 0.0 
0.0 0.0 0.0 
0.0 0.0 0.0 
0.0 0.0 0.0 
0.0 0.0 0.0 
0.0 0.0 0.0 
0.0 0.0 0.0 
0.0 0.0 0.0 
0.0 0.0 0.0 
0.0 0.0 0.0 
0.0 0.0 0.0 
0.0 0.0 0.0 
0.0 0.0 0.0 
0.0 0.0 0.0 
0.0 0.0 0.0 
0.0 0.0 0.0 
0.0 0.0 0.0 
0.0 0.0 0.0 
0.0 0.0 0.0 
0.0 0.0 0.0 
0.0 0.0 0.0 
0.0 0.0 0.0 
0.0 0.0 0.0 
0.0 0.0 0.0 
0.0 0.0 0.0 
0.0 0.0 0.0 
0.0 0.0 0.0 
0.0 0.0 0.0 
0.0 0.0 0.0 
0.0 0.0 0.0 
0.0 0.0 0.0 
0.0 0.0 0.0 
0.0 0.0 0.0 
0.0 0.0 0.0 
0.0 0.0 0.0 
0.0 0.0 0.0 
0.0 0.0 0.0 
0.0 0.0 0.0 
0.0 0.0 0.0 
0.0 0.0 0.0 
0.0 0.0 0.0 
0.0 0.0 0.0 
0.0 0.0 0.0 
0.0 0.0 0.0 
0.0 0.0 0.0 
0.0 0.0 0.0 
0.0 0.0 0.0 
0.0 0.0 0.0 
0.0 0.0 0.0 
0.0 0.0 0.0 
0.0 0.0 0.0 
0.0 0.0 0.0 
0.0 0.0 0.0 
0.0 0.0 0.0 
0.0 0.0 0.0 
0.0 0.0 0.0 
0.0 0.0 0.0 
0.0 0.0 0.0 
0.0 0.0 0.0 
0.0 0.0 0.0 
0.0 0.0 0.0 
0.0 0.0 0.0 
0.0 0.0 0.0 
0.0 0.0 0.0 
0.0 0.0 0.0 
0.0 0.0 0.0 
0.0 0.0 0.0 
0.0 0.0 0.0 
0.0 0.0 0.0 
0.0 0.0 0.0 
0.0 0.0 0.0 
0.0 0.0 0.0 
0.0 0.0 0.0 
0.0 0.0 0.0 
0.0 0.0 0.0 
0.0 0.0 0.0 
0.0 0.0 0.0 
0.0 0.0 0.0 
0.0 0.0 0.0 
0.0 0.0 0.0 
0.0 0.0 0.0 
0.0 0.0 0.0 
0.0 0.0 0.0 
0.0 0.0 0.0 
0.0 0.0 0.0 
0.0 0.0 0.0 
0.0 0.0 0.0 
0.0 0.0 0.0 
0.0 0.0 0.0 
0.0 0.0 0.0 
0.0 0.0 0.0 
0.0 0.0 0.0 
0.0 0.0 0.0 
0.0 0.0 0.0 
0.0 0.0 0.0 
0.0 0.0 0.0 
0.0 0.0 0.0 
0.0 0.0 0.0 
0.0 0.0 0.0 
0.0 0.0 0.0 
0.0 0.0 0.0 
0.0 0.0 0.0 
0.0 0.0 0.0 
0.0 0.0 0.0 
0.0 0.0 0.0 
0.0 0.0 0.0 
0.0 0.0 0.0 
0.0 0.0 0.0 
0.0 0.0 0.0 
0.0 0.0 0.0 
0.0 0.0 0.0 
0.0 0.0 0.0 
0.0 0.0 0.0 
0.0 0.0 0.0 
0.0 0.0 0.0 
0.0 0.0 0.0 
0.0 0.0 0.0 
0.0 0.0 0.0 
0.0 0.0 0.0 
0.0 0.0 0.0 
0.0 0.0 0.0 
0.0 0.0 0.0 
0.0 0.0 0.0 
0.0 0.0 0.0 
0.0 0.0 0.0 
0.0 0.0 0.0 
0.0 0.0 0.0 
0.0 0.0 0.0 
0.0 0.0 0.0 
0.0 0.0 0.0 
0.0 0.0 0.0 
0.0 0.0 0.0 
0.0 0.0 0.0 
0.0 0.0 0.0 
0.0 0.0 0.0 
0.0 0.0 0.0 
0.0 0.0 0.0 
0.0 0.0 0.0 
0.0 0.0 0.0 
0.0 0.0 0.0 
0.0 0.0 0.0 
0.0 0.0 0.0 
0.0 0.0 0.0 
0.0 0.0 0.0 
0.0 0.0 0.0 
0.0 0.0 0.0 
0.0 0.0 0.0 
0.0 0.0 0.0 
0.0 0.0 0.0 
0.0 0.0 0.0 
0.0 0.0 0.0 
0.0 0.0 0.0 
0.0 0.0 0.0 
0.0 0.0 0.0 
0.0 0.0 0.0 
0.0 0.0 0.0 
0.0 0.0 0.0 
0.0 0.0 0.0 
0.0 0.0 0.0 
0.0 0.0 0.0 
0.0 0.0 0.0 
0.0 0.0 0.0 
0.0 0.0 0.0 
0.0 0.0 0.0 
0.0 0.0 0.0 
0.0 0.0 0.0 
0.0 0.0 0.0 
0.0 0.0 0.0 
0.0 0.0 0.0 
0.0 0.0 0.0 
0.0 0.0 0.0 
0.0 0.0 0.0 
0.0 0.0 0.0 
0.0 0.0 0.0 
0.0 0.0 0.0 
0.0 0.0 0.0 
0.0 0.0 0.0 
0.0 0.0 0.0 
0.0 0.0 0.0 
0.0 0.0 0.0 
0.0 0.0 0.0 
0.0 0.0 0.0 
0.0 0.0 0.0 
0.0 0.0 0.0 
0.0 0.0 0.0 
0.0 0.0 0.0 
0.0 0.0 0.0 
0.0 0.0 0.0 
0.0 0.0 0.0 
0.0 0.0 0.0 
0.0 0.0 0.0 
0.0 0.0 0.0 
0.0 0.0 0.0 
0.0 0.0 0.0 
0.0 0.0 0.0 
0.0 0.0 0.0 
0.0 0.0 0.0 
0.0 0.0 0.0 
0.0 0.0 0.0 
0.0 0.0 0.0 
0.0 0.0 0.0 
0.0 0.0 0.0 
0.0 0.0 0.0 
0.0 0.0 0.0 
0.0 0.0 0.0 
0.0 0.0 0.0 
0.0 0.0 0.0 
0.0 0.0 0.0 
0.0 0.0 0.0 
0.0 0.0 0.0 
0.0 0.0 0.0 
0.0 0.0 0.0 
0.0 0.0 0.0 
0.0 0.0 0.0 
0.0 0.0 0.0 
0.0 0.0 0.0 
0.0 0.0 0.0 
0.0 0.0 0.0 
0.0 0.0 0.0 
0.0 0.0 0.0 
0.0 0.0 0.0 
0.0 0.0 0.0 
0.0 0.0 0.0 
0.0 0.0 0.0 
0.0 0.0 0.0 
0.0 0.0 0.0 
0.0 0.0 0.0 
0.0 0.0 0.0 
0.0 0.0 0.0 
0.0 0.0 0.0 
0.0 0.0 0.0 
0.0 0.0 0.0 
0.0 0.0 0.0 
0.0 0.0 0.0 
0.0 0.0 0.0 
0.0 0.0 0.0 
0.0 0.0 0.0 
0.0 0.0 0.0 
0.0 0.0 0.0 
0.0 0.0 0.0 
0.0 0.0 0.0 
0.0 0.0 0.0 
0.0 0.0 0.0 
0.0 0.0 0.0 
0.0 0.0 0.0 
0.0 0.0 0.0 
0.0 0.0 0.0 
0.0 0.0 0.0 
0.0 0.0 0.0 
0.0 0.0 0.0 
0.0 0.0 0.0 
0.0 0.0 0.0 
0.0 0.0 0.0 
0.0 0.0 0.0 
0.0 0.0 0.0 
0.0 0.0 0.0 
0.0 0.0 0.0 
0.0 0.0 0.0 
0.0 0.0 0.0 
0.0 0.0 0.0 
0.0 0.0 0.0 
0.0 0.0 0.0 
0.0 0.0 0.0 
0.0 0.0 0.0 
0.0 0.0 0.0 
0.0 0.0 0.0 
0.0 0.0 0.0 
0.0 0.0 0.0 
0.0 0.0 0.0 
0.0 0.0 0.0 
0.0 0.0 0.0 
0.0 0.0 0.0 
0.0 0.0 0.0 
0.0 0.0 0.0 
0.0 0.0 0.0 
0.0 0.0 0.0 
0.0 0.0 0.0 
0.0 0.0 0.0 
0.0 0.0 0.0 
0.0 0.0 0.0 
0.0 0.0 0.0 
0.0 0.0 0.0 
0.0 0.0 0.0 
0.0 0.0 0.0 
0.0 0.0 0.0 
0.0 0.0 0.0 
0.0 0.0 0.0 
0.0 0.0 0.0 
0.0 0.0 0.0 
0.0 0.0 0.0 
0.0 0.0 0.0 
0.0 0.0 0.0 
0.0 0.0 0.0 
0.0 0.0 0.0 
0.0 0.0 0.0 
0.0 0.0 0.0 
0.0 0.0 0.0 
0.0 0.0 0.0 
0.0 0.0 0.0 
0.0 0.0 0.0 
0.0 0.0 0.0 
0.0 0.0 0.0 
0.0 0.0 0.0 
0.0 0.0 0.0 
0.0 0.0 0.0 
0.0 0.0 0.0 
0.0 0.0 0.0 
0.0 0.0 0.0 
0.0 0.0 0.0 
0.0 0.0 0.0 
0.0 0.0 0.0 
0.0 0.0 0.0 
0.0 0.0 0.0 
0.0 0.0 0.0 
0.0 0.0 0.0 
0.0 0.0 0.0 
0.0 0.0 0.0 
0.0 0.0 0.0 
0.0 0.0 0.0 
0.0 0.0 0.0 
0.0 0.0 0.0 
0.0 0.0 0.0 
0.0 0.0 0.0 
0.0 0.0 0.0 
0.0 0.0 0.0 
0.0 0.0 0.0 
0.0 0.0 0.0 
0.0 0.0 0.0 
0.0 0.0 0.0 
0.0 0.0 0.0 
0.0 0.0 0.0 
0.0 0.0 0.0 
0.0 0.0 0.0 
0.0 0.0 0.0 
0.0 0.0 0.0 
0.0 0.0 0.0 
0.0 0.0 0.0 
0.0 0.0 0.0 
0.0 0.0 0.0 
0.0 0.0 0.0 
0.0 0.0 0.0 
0.0 0.0 0.0 
0.0 0.0 0.0 
0.0 0.0 0.0 
0.0 0.0 0.0 
0.0 0.0 0.0 
0.0 0.0 0.0 
0.0 0.0 0.0 
0.0 0.0 0.0 
0.0 0.0 0.0 
0.0 0.0 0.0 
0.0 0.0 0.0 
0.0 0.0 0.0 
0.0 0.0 0.0 
0.0 0.0 0.0 
0.0 0.0 0.0 
0.0 0.0 0.0 
0.0 0.0 0.0 
0.0 0.0 0.0 
0.0 0.0 0.0 
0.0 0.0 0.0 
0.0 0.0 0.0 
0.0 0.0 0.0 
0.0 0.0 0.0 
0.0 0.0 0.0 
0.0 0.0 0.0 
0.0 0.0 0.0 
0.0 0.0 0.0 
0.0 0.0 0.0 
0.0 0.0 0.0 
0.0 0.0 0.0 
0.0 0.0 0.0 
0.0 0.0 0.0 
0.0 0.0 0.0 
0.0 0.0 0.0 
0.0 0.0 0.0 
0.0 0.0 0.0 
0.0 0.0 0.0 
0.0 0.0 0.0 
0.0 0.0 0.0 
0.0 0.0 0.0 

SCALARS node_boundary float
LOOKUP_TABLE default
1.000000000000e+00 
1.000000000000e+00 
1.000000000000e+00 
1.000000000000e+00 
1.000000000000e+00 
1.000000000000e+00 
1.000000000000e+00 
1.000000000000e+00 
1.000000000000e+00 
1.000000000000e+00 
1.000000000000e+00 
1.000000000000e+00 
1.000000000000e+00 
1.000000000000e+00 
1.000000000000e+00 
1.000000000000e+00 
1.000000000000e+00 
1.000000000000e+00 
1.000000000000e+00 
1.000000000000e+00 
1.000000000000e+00 
1.000000000000e+00 
1.000000000000e+00 
1.000000000000e+00 
1.000000000000e+00 
1.000000000000e+00 
1.000000000000e+00 
1.000000000000e+00 
1.000000000000e+00 
1.000000000000e+00 
1.000000000000e+00 
1.000000000000e+00 
1.000000000000e+00 
1.000000000000e+00 
1.000000000000e+00 
1.000000000000e+00 
1.000000000000e+00 
1.000000000000e+00 
1.000000000000e+00 
1.000000000000e+00 
1.000000000000e+00 
1.000000000000e+00 
1.000000000000e+00 
1.000000000000e+00 
1.000000000000e+00 
1.000000000000e+00 
1.000000000000e+00 
1.000000000000e+00 
1.000000000000e+00 
1.000000000000e+00 
1.000000000000e+00 
1.000000000000e+00 
1.000000000000e+00 
1.000000000000e+00 
1.000000000000e+00 
1.000000000000e+00 
1.000000000000e+00 
1.000000000000e+00 
1.000000000000e+00 
1.000000000000e+00 
1.000000000000e+00 
1.000000000000e+00 
1.000000000000e+00 
1.000000000000e+00 
1.000000000000e+00 
1.000000000000e+00 
1.000000000000e+00 
1.000000000000e+00 
1.000000000000e+00 
1.000000000000e+00 
1.000000000000e+00 
1.000000000000e+00 
1.000000000000e+00 
1.000000000000e+00 
1.000000000000e+00 
1.000000000000e+00 
1.000000000000e+00 
1.000000000000e+00 
1.000000000000e+00 
1.000000000000e+00 
1.000000000000e+00 
1.000000000000e+00 
0.0
1.000000000000e+00 
0.0
0.0
0.0
0.0
0.0
0.0
0.0
0.0
1.000000000000e+00 
1.000000000000e+00 
1.000000000000e+00 
1.000000000000e+00 
1.000000000000e+00 
1.000000000000e+00 
1.000000000000e+00 
1.000000000000e+00 
1.000000000000e+00 
0.0
0.0
0.0
0.0
0.0
0.0
0.0
0.0
0.0
0.0
0.0
0.0
0.0
0.0
1.000000000000e+00 
1.000000000000e+00 
1.000000000000e+00 
1.000000000000e+00 
1.000000000000e+00 
1.000000000000e+00 
1.000000000000e+00 
1.000000000000e+00 
1.000000000000e+00 
1.000000000000e+00 
1.000000000000e+00 
1.000000000000e+00 
1.000000000000e+00 
1.000000000000e+00 
1.000000000000e+00 
1.000000000000e+00 
1.000000000000e+00 
1.000000000000e+00 
1.000000000000e+00 
1.000000000000e+00 
1.000000000000e+00 
1.000000000000e+00 
1.000000000000e+00 
1.000000000000e+00 
1.000000000000e+00 
1.000000000000e+00 
1.000000000000e+00 
1.000000000000e+00 
1.000000000000e+00 
1.000000000000e+00 
1.000000000000e+00 
1.000000000000e+00 
1.000000000000e+00 
1.000000000000e+00 
1.000000000000e+00 
1.000000000000e+00 
1.000000000000e+00 
1.000000000000e+00 
1.000000000000e+00 
1.000000000000e+00 
1.000000000000e+00 
1.000000000000e+00 
1.000000000000e+00 
1.000000000000e+00 
1.000000000000e+00 
1.000000000000e+00 
1.000000000000e+00 
0.0
0.0
0.0
0.0
0.0
0.0
0.0
0.0
0.0
0.0
0.0
0.0
0.0
0.0
0.0
0.0
0.0
0.0
0.0
0.0
0.0
0.0
0.0
0.0
0.0
0.0
0.0
0.0
0.0
0.0
0.0
0.0
0.0
0.0
0.0
0.0
0.0
0.0
0.0
0.0
0.0
0.0
0.0
0.0
0.0
0.0
0.0
0.0
0.0
0.0
0.0
0.0
0.0
0.0
0.0
0.0
0.0
0.0
0.0
0.0
0.0
0.0
0.0
0.0
0.0
0.0
0.0
0.0
0.0
0.0
0.0
0.0
0.0
0.0
0.0
0.0
0.0
0.0
0.0
0.0
0.0
0.0
0.0
0.0
0.0
0.0
0.0
0.0
0.0
0.0
0.0
0.0
0.0
0.0
0.0
0.0
0.0
0.0
0.0
0.0
0.0
0.0
0.0
0.0
0.0
0.0
0.0
0.0
0.0
0.0
0.0
0.0
0.0
0.0
0.0
0.0
0.0
0.0
0.0
0.0
0.0
0.0
0.0
0.0
0.0
0.0
0.0
0.0
0.0
0.0
0.0
0.0
0.0
0.0
0.0
0.0
0.0
0.0
0.0
0.0
0.0
0.0
0.0
0.0
0.0
0.0
0.0
0.0
0.0
0.0
0.0
0.0
0.0
0.0
0.0
0.0
0.0
0.0
0.0
0.0
0.0
0.0
0.0
0.0
0.0
0.0
0.0
0.0
1.000000000000e+00 
0.0
0.0
0.0
0.0
0.0
0.0
0.0
0.0
0.0
0.0
0.0
0.0
0.0
0.0
0.0
0.0
0.0
0.0
0.0
0.0
0.0
0.0
0.0
0.0
0.0
0.0
0.0
0.0
0.0
0.0
0.0
0.0
0.0
0.0
0.0
0.0
0.0
0.0
0.0
0.0
0.0
0.0
0.0
0.0
0.0
0.0
0.0
0.0
0.0
0.0
0.0
0.0
0.0
0.0
0.0
0.0
0.0
0.0
0.0
0.0
0.0
0.0
0.0
0.0
0.0
0.0
0.0
0.0
0.0
0.0
0.0
0.0
0.0
0.0
0.0
0.0
0.0
0.0
0.0
0.0
0.0
0.0
0.0
0.0
0.0
0.0
0.0
0.0
0.0
0.0
0.0
0.0
0.0
0.0
0.0
0.0
0.0
0.0
0.0
0.0
0.0
0.0
0.0
0.0
0.0
0.0
0.0
0.0
0.0
0.0
0.0
0.0
0.0
0.0
0.0
0.0
0.0
0.0
0.0
0.0
0.0
0.0
0.0
0.0
0.0
0.0
0.0
0.0
0.0
0.0
0.0
0.0
0.0
0.0
0.0
0.0
0.0
0.0
0.0
0.0
0.0
0.0
0.0
0.0
0.0
0.0
0.0
0.0
0.0
0.0
0.0
0.0
0.0
0.0
0.0
0.0
0.0
0.0
0.0
0.0
0.0
0.0
0.0
0.0
0.0
0.0
0.0
0.0
0.0
0.0
0.0
0.0
0.0
0.0
0.0
0.0
0.0
0.0
0.0
0.0
0.0
0.0
0.0
0.0
0.0
0.0
0.0
0.0
0.0
0.0
0.0
0.0
0.0
0.0
0.0
0.0
0.0
0.0
0.0
0.0
0.0
0.0
0.0
0.0
0.0
0.0
0.0
0.0
0.0
0.0
0.0
0.0
0.0
0.0
0.0
0.0
0.0
0.0
0.0
0.0
0.0
0.0
0.0
0.0
0.0
0.0
0.0
0.0
0.0
0.0
0.0
0.0
0.0
0.0
0.0
0.0
0.0
0.0
0.0
0.0
0.0
0.0
0.0
0.0
0.0
0.0
0.0
0.0
0.0
0.0
0.0
0.0
0.0
0.0
0.0
0.0
0.0
0.0
0.0
0.0
0.0
0.0
0.0
0.0
0.0
0.0
0.0
0.0
0.0
0.0
0.0
0.0
0.0
0.0
0.0
0.0
0.0
0.0
0.0
0.0
0.0
0.0
0.0
0.0
0.0
0.0
0.0
0.0
0.0
0.0
0.0
0.0
0.0
0.0
0.0
0.0
0.0
0.0
0.0
0.0
0.0
0.0
0.0
0.0
0.0
0.0
0.0
0.0
0.0
0.0
0.0
0.0
0.0
0.0
0.0
0.0
0.0
0.0
0.0
0.0
0.0
0.0
0.0
0.0
0.0
0.0
0.0
0.0
0.0
0.0
0.0
0.0
0.0
0.0
0.0
0.0
0.0
0.0
0.0
0.0
0.0
0.0
0.0
0.0
0.0
0.0
0.0
0.0
0.0
0.0
0.0
0.0
0.0
0.0
0.0
0.0
0.0
0.0
0.0
0.0
0.0
0.0
0.0
0.0
0.0
0.0
0.0
0.0
0.0
0.0
0.0
0.0
0.0
0.0
0.0
0.0
0.0
0.0
0.0
0.0
0.0
0.0
0.0
0.0
0.0
0.0
0.0
0.0
0.0
0.0
0.0
0.0
0.0
0.0
0.0
0.0
0.0
0.0
0.0
0.0
0.0
0.0
0.0
0.0
0.0
0.0
0.0
0.0
0.0
0.0
0.0
0.0
0.0
0.0
0.0
0.0
0.0
0.0
0.0
0.0
0.0
0.0
0.0
0.0
0.0
0.0
0.0
0.0
0.0
0.0
0.0
0.0
0.0
0.0
0.0
0.0
0.0
0.0
0.0
0.0
0.0
0.0
0.0
0.0
0.0
0.0
0.0
0.0
0.0
0.0
0.0
0.0
0.0
0.0
0.0
0.0
0.0
0.0
0.0
0.0
0.0
0.0
0.0
0.0
0.0
0.0
0.0
0.0
0.0
0.0
0.0
0.0
0.0
0.0
0.0
0.0
0.0
0.0
0.0
0.0
0.0
0.0
0.0
0.0
0.0
0.0
0.0
0.0
0.0
0.0
0.0
0.0
0.0
0.0
0.0
0.0
0.0
0.0
0.0
0.0
0.0
0.0
0.0
0.0
0.0
0.0
0.0
0.0
0.0
0.0
0.0
0.0
0.0
0.0
0.0
0.0
0.0
0.0
0.0
0.0
0.0
0.0
0.0
0.0
0.0
0.0
0.0
0.0
0.0
0.0
0.0
0.0
0.0
0.0
0.0
0.0
0.0
0.0
0.0
0.0
0.0
0.0
0.0
0.0
0.0
0.0
0.0
0.0
0.0
0.0
0.0
0.0
0.0
0.0
0.0
0.0
0.0
0.0
0.0
0.0
0.0
0.0
0.0
0.0
0.0
0.0
0.0
0.0
0.0
0.0
0.0
0.0
0.0
0.0
0.0
0.0
0.0
0.0
0.0
0.0
0.0
0.0
0.0
0.0
0.0
0.0
0.0
0.0
0.0
0.0
0.0
0.0
0.0
0.0
0.0
0.0
0.0
0.0
0.0
0.0
0.0
0.0
0.0
0.0
0.0
0.0
0.0
0.0
0.0
0.0
0.0
0.0
0.0
0.0
0.0
0.0
0.0
0.0
0.0
0.0
0.0
0.0
0.0
0.0
0.0
0.0
0.0
0.0
0.0
0.0
0.0
0.0
0.0
0.0
0.0
0.0
0.0
0.0
0.0
0.0
0.0
0.0
0.0
0.0
0.0
0.0
0.0
0.0
0.0
0.0
0.0
0.0
0.0
0.0
0.0
0.0
0.0
0.0
0.0
0.0
0.0
0.0
0.0
0.0
0.0
0.0
0.0
0.0
0.0
0.0
0.0
0.0
0.0
0.0
0.0
0.0
0.0
0.0
0.0
0.0
0.0
0.0
0.0
0.0
0.0
0.0
0.0
0.0
0.0
0.0
0.0
0.0
0.0
0.0
0.0
0.0
0.0
0.0
0.0
0.0
0.0
0.0
0.0
0.0
0.0
0.0
0.0
0.0
0.0
0.0
0.0
0.0
0.0
0.0
0.0
0.0
0.0
0.0
0.0
0.0
0.0
0.0
0.0
0.0
0.0
0.0
0.0
0.0
0.0
0.0
0.0
0.0
0.0
0.0
0.0
0.0
0.0
0.0
0.0
0.0
0.0
0.0
0.0
0.0
0.0
0.0
0.0
0.0
0.0
0.0
0.0
0.0
0.0
0.0
0.0
0.0
0.0
0.0
0.0
0.0
0.0
0.0
0.0
0.0
0.0
0.0
0.0
0.0
0.0
0.0
0.0
0.0
0.0
0.0
0.0
0.0
0.0
0.0
0.0
0.0
0.0
0.0
0.0
0.0
0.0
0.0
0.0
0.0
0.0
0.0
0.0
0.0
0.0
0.0
0.0
0.0
0.0
0.0
0.0
0.0
0.0
0.0
0.0
0.0
0.0
0.0
0.0
0.0
0.0
0.0
0.0
0.0
0.0
0.0
0.0
0.0
0.0
0.0
0.0
0.0
0.0
0.0
0.0
0.0
0.0
0.0
0.0
0.0
0.0
0.0
0.0
0.0
0.0
0.0
0.0
0.0
0.0
0.0
0.0
0.0
0.0
0.0
0.0
0.0
0.0
0.0
0.0
0.0
0.0
0.0
0.0
0.0
0.0
0.0
0.0
0.0
0.0
0.0
0.0
0.0
0.0
0.0
0.0
0.0
0.0
0.0
0.0
0.0
0.0
0.0
0.0
0.0
0.0
0.0
0.0
0.0
0.0
0.0
0.0
0.0
0.0
0.0
0.0
0.0
0.0
0.0
0.0
0.0
0.0
0.0
0.0
0.0
0.0
0.0
0.0
0.0
0.0
0.0
0.0
0.0
0.0
0.0
0.0
0.0
0.0
0.0
0.0
0.0
0.0
0.0
0.0
0.0
0.0
0.0
0.0
0.0
0.0
0.0
0.0
0.0

VECTORS node_force_gravity float
0.0 -1.962000000000e+01 0.0 
0.0 -1.962000000000e+01 0.0 
0.0 -1.962000000000e+01 0.0 
0.0 -1.962000000000e+01 0.0 
0.0 -1.962000000000e+01 0.0 
0.0 -1.962000000000e+01 0.0 
0.0 -1.962000000000e+01 0.0 
0.0 -1.962000000000e+01 0.0 
0.0 -1.962000000000e+01 0.0 
0.0 -1.962000000000e+01 0.0 
0.0 -1.962000000000e+01 0.0 
0.0 -1.962000000000e+01 0.0 
0.0 -1.962000000000e+01 0.0 
0.0 -1.962000000000e+01 0.0 
0.0 -1.962000000000e+01 0.0 
0.0 -1.962000000000e+01 0.0 
0.0 -1.962000000000e+01 0.0 
0.0 -1.962000000000e+01 0.0 
0.0 -1.962000000000e+01 0.0 
0.0 -1.962000000000e+01 0.0 
0.0 -1.962000000000e+01 0.0 
0.0 -1.962000000000e+01 0.0 
0.0 -1.962000000000e+01 0.0 
0.0 -1.962000000000e+01 0.0 
0.0 -1.962000000000e+01 0.0 
0.0 -1.962000000000e+01 0.0 
0.0 -1.962000000000e+01 0.0 
0.0 -1.962000000000e+01 0.0 
0.0 -1.962000000000e+01 0.0 
0.0 -1.962000000000e+01 0.0 
0.0 -1.962000000000e+01 0.0 
0.0 -1.962000000000e+01 0.0 
0.0 -1.962000000000e+01 0.0 
0.0 -1.962000000000e+01 0.0 
0.0 -1.962000000000e+01 0.0 
0.0 -1.962000000000e+01 0.0 
0.0 -1.962000000000e+01 0.0 
0.0 -1.962000000000e+01 0.0 
0.0 -1.962000000000e+01 0.0 
0.0 -1.962000000000e+01 0.0 
0.0 -1.962000000000e+01 0.0 
0.0 -1.962000000000e+01 0.0 
0.0 -1.962000000000e+01 0.0 
0.0 -1.962000000000e+01 0.0 
0.0 -1.962000000000e+01 0.0 
0.0 -1.962000000000e+01 0.0 
0.0 -1.962000000000e+01 0.0 
0.0 -1.962000000000e+01 0.0 
0.0 -1.962000000000e+01 0.0 
0.0 -1.962000000000e+01 0.0 
0.0 -1.962000000000e+01 0.0 
0.0 -1.962000000000e+01 0.0 
0.0 -1.962000000000e+01 0.0 
0.0 -1.962000000000e+01 0.0 
0.0 -1.962000000000e+01 0.0 
0.0 -1.962000000000e+01 0.0 
0.0 -1.962000000000e+01 0.0 
0.0 -1.962000000000e+01 0.0 
0.0 -1.962000000000e+01 0.0 
0.0 -1.962000000000e+01 0.0 
0.0 -1.962000000000e+01 0.0 
0.0 -1.962000000000e+01 0.0 
0.0 -1.962000000000e+01 0.0 
0.0 -1.962000000000e+01 0.0 
0.0 -1.962000000000e+01 0.0 
0.0 -1.962000000000e+01 0.0 
0.0 -1.962000000000e+01 0.0 
0.0 -1.962000000000e+01 0.0 
0.0 -1.962000000000e+01 0.0 
0.0 -1.962000000000e+01 0.0 
0.0 -1.962000000000e+01 0.0 
0.0 -1.962000000000e+01 0.0 
0.0 -1.962000000000e+01 0.0 
0.0 -1.962000000000e+01 0.0 
0.0 -1.962000000000e+01 0.0 
0.0 -1.962000000000e+01 0.0 
0.0 -1.962000000000e+01 0.0 
0.0 -1.962000000000e+01 0.0 
0.0 -1.962000000000e+01 0.0 
0.0 -1.962000000000e+01 0.0 
0.0 -1.962000000000e+01 0.0 
0.0 -1.962000000000e+01 0.0 
0.0 -1.962000000000e+01 0.0 
0.0 -1.962000000000e+01 0.0 
0.0 -1.962000000000e+01 0.0 
0.0 -1.962000000000e+01 0.0 
0.0 -1.962000000000e+01 0.0 
0.0 -1.962000000000e+01 0.0 
0.0 -1.962000000000e+01 0.0 
0.0 -1.962000000000e+01 0.0 
0.0 -1.962000000000e+01 0.0 
0.0 -1.962000000000e+01 0.0 
0.0 -1.962000000000e+01 0.0 
0.0 -1.962000000000e+01 0.0 
0.0 -1.962000000000e+01 0.0 
0.0 -1.962000000000e+01 0.0 
0.0 -1.962000000000e+01 0.0 
0.0 -1.962000000000e+01 0.0 
0.0 -1.962000000000e+01 0.0 
0.0 -1.962000000000e+01 0.0 
0.0 -1.962000000000e+01 0.0 
0.0 -1.962000000000e+01 0.0 
0.0 -1.962000000000e+01 0.0 
0.0 -1.962000000000e+01 0.0 
0.0 -1.962000000000e+01 0.0 
0.0 -1.962000000000e+01 0.0 
0.0 -1.962000000000e+01 0.0 
0.0 -1.962000000000e+01 0.0 
0.0 -1.962000000000e+01 0.0 
0.0 -1.962000000000e+01 0.0 
0.0 -1.962000000000e+01 0.0 
0.0 -1.962000000000e+01 0.0 
0.0 -1.962000000000e+01 0.0 
0.0 -1.962000000000e+01 0.0 
0.0 -1.962000000000e+01 0.0 
0.0 -1.962000000000e+01 0.0 
0.0 -1.962000000000e+01 0.0 
0.0 -1.962000000000e+01 0.0 
0.0 -1.962000000000e+01 0.0 
0.0 -1.962000000000e+01 0.0 
0.0 -1.962000000000e+01 0.0 
0.0 -1.962000000000e+01 0.0 
0.0 -1.962000000000e+01 0.0 
0.0 -1.962000000000e+01 0.0 
0.0 -1.962000000000e+01 0.0 
0.0 -1.962000000000e+01 0.0 
0.0 -1.962000000000e+01 0.0 
0.0 -1.962000000000e+01 0.0 
0.0 -1.962000000000e+01 0.0 
0.0 -1.962000000000e+01 0.0 
0.0 -1.962000000000e+01 0.0 
0.0 -1.962000000000e+01 0.0 
0.0 -1.962000000000e+01 0.0 
0.0 -1.962000000000e+01 0.0 
0.0 -1.962000000000e+01 0.0 
0.0 -1.962000000000e+01 0.0 
0.0 -1.962000000000e+01 0.0 
0.0 -1.962000000000e+01 0.0 
0.0 -1.962000000000e+01 0.0 
0.0 -1.962000000000e+01 0.0 
0.0 -1.962000000000e+01 0.0 
0.0 -1.962000000000e+01 0.0 
0.0 -1.962000000000e+01 0.0 
0.0 -1.962000000000e+01 0.0 
0.0 -1.962000000000e+01 0.0 
0.0 -1.962000000000e+01 0.0 
0.0 -1.962000000000e+01 0.0 
0.0 -1.962000000000e+01 0.0 
0.0 -1.962000000000e+01 0.0 
0.0 -1.962000000000e+01 0.0 
0.0 -1.962000000000e+01 0.0 
0.0 -1.962000000000e+01 0.0 
0.0 -1.962000000000e+01 0.0 
0.0 -1.962000000000e+01 0.0 
0.0 -1.962000000000e+01 0.0 
0.0 -1.962000000000e+01 0.0 
0.0 -1.962000000000e+01 0.0 
0.0 -1.962000000000e+01 0.0 
0.0 -1.962000000000e+01 0.0 
0.0 -1.962000000000e+01 0.0 
0.0 -1.962000000000e+01 0.0 
0.0 -1.962000000000e+01 0.0 
0.0 -1.962000000000e+01 0.0 
0.0 -1.962000000000e+01 0.0 
0.0 -1.962000000000e+01 0.0 
0.0 -1.962000000000e+01 0.0 
0.0 -1.962000000000e+01 0.0 
0.0 -1.962000000000e+01 0.0 
0.0 -1.962000000000e+01 0.0 
0.0 -1.962000000000e+01 0.0 
0.0 -1.962000000000e+01 0.0 
0.0 -1.962000000000e+01 0.0 
0.0 -1.962000000000e+01 0.0 
0.0 -1.962000000000e+01 0.0 
0.0 -1.962000000000e+01 0.0 
0.0 -1.962000000000e+01 0.0 
0.0 -1.962000000000e+01 0.0 
0.0 -1.962000000000e+01 0.0 
0.0 -1.962000000000e+01 0.0 
0.0 -1.962000000000e+01 0.0 
0.0 -1.962000000000e+01 0.0 
0.0 -1.962000000000e+01 0.0 
0.0 -1.962000000000e+01 0.0 
0.0 -1.962000000000e+01 0.0 
0.0 -1.962000000000e+01 0.0 
0.0 -1.962000000000e+01 0.0 
0.0 -1.962000000000e+01 0.0 
0.0 -1.962000000000e+01 0.0 
0.0 -1.962000000000e+01 0.0 
0.0 -1.962000000000e+01 0.0 
0.0 -1.962000000000e+01 0.0 
0.0 -1.962000000000e+01 0.0 
0.0 -1.962000000000e+01 0.0 
0.0 -1.962000000000e+01 0.0 
0.0 -1.962000000000e+01 0.0 
0.0 -1.962000000000e+01 0.0 
0.0 -1.962000000000e+01 0.0 
0.0 -1.962000000000e+01 0.0 
0.0 -1.962000000000e+01 0.0 
0.0 -1.962000000000e+01 0.0 
0.0 -1.962000000000e+01 0.0 
0.0 -1.962000000000e+01 0.0 
0.0 -1.962000000000e+01 0.0 
0.0 -1.962000000000e+01 0.0 
0.0 -1.962000000000e+01 0.0 
0.0 -1.962000000000e+01 0.0 
0.0 -1.962000000000e+01 0.0 
0.0 -1.962000000000e+01 0.0 
0.0 -1.962000000000e+01 0.0 
0.0 -1.962000000000e+01 0.0 
0.0 -1.962000000000e+01 0.0 
0.0 -1.962000000000e+01 0.0 
0.0 -1.962000000000e+01 0.0 
0.0 -1.962000000000e+01 0.0 
0.0 -1.962000000000e+01 0.0 
0.0 -1.962000000000e+01 0.0 
0.0 -1.962000000000e+01 0.0 
0.0 -1.962000000000e+01 0.0 
0.0 -1.962000000000e+01 0.0 
0.0 -1.962000000000e+01 0.0 
0.0 -1.962000000000e+01 0.0 
0.0 -1.962000000000e+01 0.0 
0.0 -1.962000000000e+01 0.0 
0.0 -1.962000000000e+01 0.0 
0.0 -1.962000000000e+01 0.0 
0.0 -1.962000000000e+01 0.0 
0.0 -1.962000000000e+01 0.0 
0.0 -1.962000000000e+01 0.0 
0.0 -1.962000000000e+01 0.0 
0.0 -1.962000000000e+01 0.0 
0.0 -1.962000000000e+01 0.0 
0.0 -1.962000000000e+01 0.0 
0.0 -1.962000000000e+01 0.0 
0.0 -1.962000000000e+01 0.0 
0.0 -1.962000000000e+01 0.0 
0.0 -1.962000000000e+01 0.0 
0.0 -1.962000000000e+01 0.0 
0.0 -1.962000000000e+01 0.0 
0.0 -1.962000000000e+01 0.0 
0.0 -1.962000000000e+01 0.0 
0.0 -1.962000000000e+01 0.0 
0.0 -1.962000000000e+01 0.0 
0.0 -1.962000000000e+01 0.0 
0.0 -1.962000000000e+01 0.0 
0.0 -1.962000000000e+01 0.0 
0.0 -1.962000000000e+01 0.0 
0.0 -1.962000000000e+01 0.0 
0.0 -1.962000000000e+01 0.0 
0.0 -1.962000000000e+01 0.0 
0.0 -1.962000000000e+01 0.0 
0.0 -1.962000000000e+01 0.0 
0.0 -1.962000000000e+01 0.0 
0.0 -1.962000000000e+01 0.0 
0.0 -1.962000000000e+01 0.0 
0.0 -1.962000000000e+01 0.0 
0.0 -1.962000000000e+01 0.0 
0.0 -1.962000000000e+01 0.0 
0.0 -1.962000000000e+01 0.0 
0.0 -1.962000000000e+01 0.0 
0.0 -1.962000000000e+01 0.0 
0.0 -1.962000000000e+01 0.0 
0.0 -1.962000000000e+01 0.0 
0.0 -1.962000000000e+01 0.0 
0.0 -1.962000000000e+01 0.0 
0.0 -1.962000000000e+01 0.0 
0.0 -1.962000000000e+01 0.0 
0.0 -1.962000000000e+01 0.0 
0.0 -1.962000000000e+01 0.0 
0.0 -1.962000000000e+01 0.0 
0.0 -1.962000000000e+01 0.0 
0.0 -1.962000000000e+01 0.0 
0.0 -1.962000000000e+01 0.0 
0.0 -1.962000000000e+01 0.0 
0.0 -1.962000000000e+01 0.0 
0.0 -1.962000000000e+01 0.0 
0.0 -1.962000000000e+01 0.0 
0.0 -1.962000000000e+01 0.0 
0.0 -1.962000000000e+01 0.0 
0.0 -1.962000000000e+01 0.0 
0.0 -1.962000000000e+01 0.0 
0.0 -1.962000000000e+01 0.0 
0.0 -1.962000000000e+01 0.0 
0.0 -1.962000000000e+01 0.0 
0.0 -1.962000000000e+01 0.0 
0.0 -1.962000000000e+01 0.0 
0.0 -1.962000000000e+01 0.0 
0.0 -1.962000000000e+01 0.0 
0.0 -1.962000000000e+01 0.0 
0.0 -1.962000000000e+01 0.0 
0.0 -1.962000000000e+01 0.0 
0.0 -1.962000000000e+01 0.0 
0.0 -1.962000000000e+01 0.0 
0.0 -1.962000000000e+01 0.0 
0.0 -1.962000000000e+01 0.0 
0.0 -1.962000000000e+01 0.0 
0.0 -1.962000000000e+01 0.0 
0.0 -1.962000000000e+01 0.0 
0.0 -1.962000000000e+01 0.0 
0.0 -1.962000000000e+01 0.0 
0.0 -1.962000000000e+01 0.0 
0.0 -1.962000000000e+01 0.0 
0.0 -1.962000000000e+01 0.0 
0.0 -1.962000000000e+01 0.0 
0.0 -1.962000000000e+01 0.0 
0.0 -1.962000000000e+01 0.0 
0.0 -1.962000000000e+01 0.0 
0.0 -1.962000000000e+01 0.0 
0.0 -1.962000000000e+01 0.0 
0.0 -1.962000000000e+01 0.0 
0.0 -1.962000000000e+01 0.0 
0.0 -1.962000000000e+01 0.0 
0.0 -1.962000000000e+01 0.0 
0.0 -1.962000000000e+01 0.0 
0.0 -1.962000000000e+01 0.0 
0.0 -1.962000000000e+01 0.0 
0.0 -1.962000000000e+01 0.0 
0.0 -1.962000000000e+01 0.0 
0.0 -1.962000000000e+01 0.0 
0.0 -1.962000000000e+01 0.0 
0.0 -1.962000000000e+01 0.0 
0.0 -1.962000000000e+01 0.0 
0.0 -1.962000000000e+01 0.0 
0.0 -1.962000000000e+01 0.0 
0.0 -1.962000000000e+01 0.0 
0.0 -1.962000000000e+01 0.0 
0.0 -1.962000000000e+01 0.0 
0.0 -1.962000000000e+01 0.0 
0.0 -1.962000000000e+01 0.0 
0.0 -1.962000000000e+01 0.0 
0.0 -1.962000000000e+01 0.0 
0.0 -1.962000000000e+01 0.0 
0.0 -1.962000000000e+01 0.0 
0.0 -1.962000000000e+01 0.0 
0.0 -1.962000000000e+01 0.0 
0.0 -1.962000000000e+01 0.0 
0.0 -1.962000000000e+01 0.0 
0.0 -1.962000000000e+01 0.0 
0.0 -1.962000000000e+01 0.0 
0.0 -1.962000000000e+01 0.0 
0.0 -1.962000000000e+01 0.0 
0.0 -1.962000000000e+01 0.0 
0.0 -1.962000000000e+01 0.0 
0.0 -1.962000000000e+01 0.0 
0.0 -1.962000000000e+01 0.0 
0.0 -1.962000000000e+01 0.0 
0.0 -1.962000000000e+01 0.0 
0.0 -1.962000000000e+01 0.0 
0.0 -1.962000000000e+01 0.0 
0.0 -1.962000000000e+01 0.0 
0.0 -1.962000000000e+01 0.0 
0.0 -1.962000000000e+01 0.0 
0.0 -1.962000000000e+01 0.0 
0.0 -1.962000000000e+01 0.0 
0.0 -1.962000000000e+01 0.0 
0.0 -1.962000000000e+01 0.0 
0.0 -1.962000000000e+01 0.0 
0.0 -1.962000000000e+01 0.0 
0.0 -1.962000000000e+01 0.0 
0.0 -1.962000000000e+01 0.0 
0.0 -1.962000000000e+01 0.0 
0.0 -1.962000000000e+01 0.0 
0.0 -1.962000000000e+01 0.0 
0.0 -1.962000000000e+01 0.0 
0.0 -1.962000000000e+01 0.0 
0.0 -1.962000000000e+01 0.0 
0.0 -1.962000000000e+01 0.0 
0.0 -1.962000000000e+01 0.0 
0.0 -1.962000000000e+01 0.0 
0.0 -1.962000000000e+01 0.0 
0.0 -1.962000000000e+01 0.0 
0.0 -1.962000000000e+01 0.0 
0.0 -1.962000000000e+01 0.0 
0.0 -1.962000000000e+01 0.0 
0.0 -1.962000000000e+01 0.0 
0.0 -1.962000000000e+01 0.0 
0.0 -1.962000000000e+01 0.0 
0.0 -1.962000000000e+01 0.0 
0.0 -1.962000000000e+01 0.0 
0.0 -1.962000000000e+01 0.0 
0.0 -1.962000000000e+01 0.0 
0.0 -1.962000000000e+01 0.0 
0.0 -1.962000000000e+01 0.0 
0.0 -1.962000000000e+01 0.0 
0.0 -1.962000000000e+01 0.0 
0.0 -1.962000000000e+01 0.0 
0.0 -1.962000000000e+01 0.0 
0.0 -1.962000000000e+01 0.0 
0.0 -1.962000000000e+01 0.0 
0.0 -1.962000000000e+01 0.0 
0.0 -1.962000000000e+01 0.0 
0.0 -1.962000000000e+01 0.0 
0.0 -1.962000000000e+01 0.0 
0.0 -1.962000000000e+01 0.0 
0.0 -1.962000000000e+01 0.0 
0.0 -1.962000000000e+01 0.0 
0.0 -1.962000000000e+01 0.0 
0.0 -1.962000000000e+01 0.0 
0.0 -1.962000000000e+01 0.0 
0.0 -1.962000000000e+01 0.0 
0.0 -1.962000000000e+01 0.0 
0.0 -1.962000000000e+01 0.0 
0.0 -1.962000000000e+01 0.0 
0.0 -1.962000000000e+01 0.0 
0.0 -1.962000000000e+01 0.0 
0.0 -1.962000000000e+01 0.0 
0.0 -1.962000000000e+01 0.0 
0.0 -1.962000000000e+01 0.0 
0.0 -1.962000000000e+01 0.0 
0.0 -1.962000000000e+01 0.0 
0.0 -1.962000000000e+01 0.0 
0.0 -1.962000000000e+01 0.0 
0.0 -1.962000000000e+01 0.0 
0.0 -1.962000000000e+01 0.0 
0.0 -1.962000000000e+01 0.0 
0.0 -1.962000000000e+01 0.0 
0.0 -1.962000000000e+01 0.0 
0.0 -1.962000000000e+01 0.0 
0.0 -1.962000000000e+01 0.0 
0.0 -1.962000000000e+01 0.0 
0.0 -1.962000000000e+01 0.0 
0.0 -1.962000000000e+01 0.0 
0.0 -1.962000000000e+01 0.0 
0.0 -1.962000000000e+01 0.0 
0.0 -1.962000000000e+01 0.0 
0.0 -1.962000000000e+01 0.0 
0.0 -1.962000000000e+01 0.0 
0.0 -1.962000000000e+01 0.0 
0.0 -1.962000000000e+01 0.0 
0.0 -1.962000000000e+01 0.0 
0.0 -1.962000000000e+01 0.0 
0.0 -1.962000000000e+01 0.0 
0.0 -1.962000000000e+01 0.0 
0.0 -1.962000000000e+01 0.0 
0.0 -1.962000000000e+01 0.0 
0.0 -1.962000000000e+01 0.0 
0.0 -1.962000000000e+01 0.0 
0.0 -1.962000000000e+01 0.0 
0.0 -1.962000000000e+01 0.0 
0.0 -1.962000000000e+01 0.0 
0.0 -1.962000000000e+01 0.0 
0.0 -1.962000000000e+01 0.0 
0.0 -1.962000000000e+01 0.0 
0.0 -1.962000000000e+01 0.0 
0.0 -1.962000000000e+01 0.0 
0.0 -1.962000000000e+01 0.0 
0.0 -1.962000000000e+01 0.0 
0.0 -1.962000000000e+01 0.0 
0.0 -1.962000000000e+01 0.0 
0.0 -1.962000000000e+01 0.0 
0.0 -1.962000000000e+01 0.0 
0.0 -1.962000000000e+01 0.0 
0.0 -1.962000000000e+01 0.0 
0.0 -1.962000000000e+01 0.0 
0.0 -1.962000000000e+01 0.0 
0.0 -1.962000000000e+01 0.0 
0.0 -1.962000000000e+01 0.0 
0.0 -1.962000000000e+01 0.0 
0.0 -1.962000000000e+01 0.0 
0.0 -1.962000000000e+01 0.0 
0.0 -1.962000000000e+01 0.0 
0.0 -1.962000000000e+01 0.0 
0.0 -1.962000000000e+01 0.0 
0.0 -1.962000000000e+01 0.0 
0.0 -1.962000000000e+01 0.0 
0.0 -1.962000000000e+01 0.0 
0.0 -1.962000000000e+01 0.0 
0.0 -1.962000000000e+01 0.0 
0.0 -1.962000000000e+01 0.0 
0.0 -1.962000000000e+01 0.0 
0.0 -1.962000000000e+01 0.0 
0.0 -1.962000000000e+01 0.0 
0.0 -1.962000000000e+01 0.0 
0.0 -1.962000000000e+01 0.0 
0.0 -1.962000000000e+01 0.0 
0.0 -1.962000000000e+01 0.0 
0.0 -1.962000000000e+01 0.0 
0.0 -1.962000000000e+01 0.0 
0.0 -1.962000000000e+01 0.0 
0.0 -1.962000000000e+01 0.0 
0.0 -1.962000000000e+01 0.0 
0.0 -1.962000000000e+01 0.0 
0.0 -1.962000000000e+01 0.0 
0.0 -1.962000000000e+01 0.0 
0.0 -1.962000000000e+01 0.0 
0.0 -1.962000000000e+01 0.0 
0.0 -1.962000000000e+01 0.0 
0.0 -1.962000000000e+01 0.0 
0.0 -1.962000000000e+01 0.0 
0.0 -1.962000000000e+01 0.0 
0.0 -1.962000000000e+01 0.0 
0.0 -1.962000000000e+01 0.0 
0.0 -1.962000000000e+01 0.0 
0.0 -1.962000000000e+01 0.0 
0.0 -1.962000000000e+01 0.0 
0.0 -1.962000000000e+01 0.0 
0.0 -1.962000000000e+01 0.0 
0.0 -1.962000000000e+01 0.0 
0.0 -1.962000000000e+01 0.0 
0.0 -1.962000000000e+01 0.0 
0.0 -1.962000000000e+01 0.0 
0.0 -1.962000000000e+01 0.0 
0.0 -1.962000000000e+01 0.0 
0.0 -1.962000000000e+01 0.0 
0.0 -1.962000000000e+01 0.0 
0.0 -1.962000000000e+01 0.0 
0.0 -1.962000000000e+01 0.0 
0.0 -1.962000000000e+01 0.0 
0.0 -1.962000000000e+01 0.0 
0.0 -1.962000000000e+01 0.0 
0.0 -1.962000000000e+01 0.0 
0.0 -1.962000000000e+01 0.0 
0.0 -1.962000000000e+01 0.0 
0.0 -1.962000000000e+01 0.0 
0.0 -1.962000000000e+01 0.0 
0.0 -1.962000000000e+01 0.0 
0.0 -1.962000000000e+01 0.0 
0.0 -1.962000000000e+01 0.0 
0.0 -1.962000000000e+01 0.0 
0.0 -1.962000000000e+01 0.0 
0.0 -1.962000000000e+01 0.0 
0.0 -1.962000000000e+01 0.0 
0.0 -1.962000000000e+01 0.0 
0.0 -1.962000000000e+01 0.0 
0.0 -1.962000000000e+01 0.0 
0.0 -1.962000000000e+01 0.0 
0.0 -1.962000000000e+01 0.0 
0.0 -1.962000000000e+01 0.0 
0.0 -1.962000000000e+01 0.0 
0.0 -1.962000000000e+01 0.0 
0.0 -1.962000000000e+01 0.0 
0.0 -1.962000000000e+01 0.0 
0.0 -1.962000000000e+01 0.0 
0.0 -1.962000000000e+01 0.0 
0.0 -1.962000000000e+01 0.0 
0.0 -1.962000000000e+01 0.0 
0.0 -1.962000000000e+01 0.0 
0.0 -1.962000000000e+01 0.0 
0.0 -1.962000000000e+01 0.0 
0.0 -1.962000000000e+01 0.0 
0.0 -1.962000000000e+01 0.0 
0.0 -1.962000000000e+01 0.0 
0.0 -1.962000000000e+01 0.0 
0.0 -1.962000000000e+01 0.0 
0.0 -1.962000000000e+01 0.0 
0.0 -1.962000000000e+01 0.0 
0.0 -1.962000000000e+01 0.0 
0.0 -1.962000000000e+01 0.0 
0.0 -1.962000000000e+01 0.0 
0.0 -1.962000000000e+01 0.0 
0.0 -1.962000000000e+01 0.0 
0.0 -1.962000000000e+01 0.0 
0.0 -1.962000000000e+01 0.0 
0.0 -1.962000000000e+01 0.0 
0.0 -1.962000000000e+01 0.0 
0.0 -1.962000000000e+01 0.0 
0.0 -1.962000000000e+01 0.0 
0.0 -1.962000000000e+01 0.0 
0.0 -1.962000000000e+01 0.0 
0.0 -1.962000000000e+01 0.0 
0.0 -1.962000000000e+01 0.0 
0.0 -1.962000000000e+01 0.0 
0.0 -1.962000000000e+01 0.0 
0.0 -1.962000000000e+01 0.0 
0.0 -1.962000000000e+01 0.0 
0.0 -1.962000000000e+01 0.0 
0.0 -1.962000000000e+01 0.0 
0.0 -1.962000000000e+01 0.0 
0.0 -1.962000000000e+01 0.0 
0.0 -1.962000000000e+01 0.0 
0.0 -1.962000000000e+01 0.0 
0.0 -1.962000000000e+01 0.0 
0.0 -1.962000000000e+01 0.0 
0.0 -1.962000000000e+01 0.0 
0.0 -1.962000000000e+01 0.0 
0.0 -1.962000000000e+01 0.0 
0.0 -1.962000000000e+01 0.0 
0.0 -1.962000000000e+01 0.0 
0.0 -1.962000000000e+01 0.0 
0.0 -1.962000000000e+01 0.0 
0.0 -1.962000000000e+01 0.0 
0.0 -1.962000000000e+01 0.0 
0.0 -1.962000000000e+01 0.0 
0.0 -1.962000000000e+01 0.0 
0.0 -1.962000000000e+01 0.0 
0.0 -1.962000000000e+01 0.0 
0.0 -1.962000000000e+01 0.0 
0.0 -1.962000000000e+01 0.0 
0.0 -1.962000000000e+01 0.0 
0.0 -1.962000000000e+01 0.0 
0.0 -1.962000000000e+01 0.0 
0.0 -1.962000000000e+01 0.0 
0.0 -1.962000000000e+01 0.0 
0.0 -1.962000000000e+01 0.0 
0.0 -1.962000000000e+01 0.0 
0.0 -1.962000000000e+01 0.0 
0.0 -1.962000000000e+01 0.0 
0.0 -1.962000000000e+01 0.0 
0.0 -1.962000000000e+01 0.0 
0.0 -1.962000000000e+01 0.0 
0.0 -1.962000000000e+01 0.0 
0.0 -1.962000000000e+01 0.0 
0.0 -1.962000000000e+01 0.0 
0.0 -1.962000000000e+01 0.0 
0.0 -1.962000000000e+01 0.0 
0.0 -1.962000000000e+01 0.0 
0.0 -1.962000000000e+01 0.0 
0.0 -1.962000000000e+01 0.0 
0.0 -1.962000000000e+01 0.0 
0.0 -1.962000000000e+01 0.0 
0.0 -1.962000000000e+01 0.0 
0.0 -1.962000000000e+01 0.0 
0.0 -1.962000000000e+01 0.0 
0.0 -1.962000000000e+01 0.0 
0.0 -1.962000000000e+01 0.0 
0.0 -1.962000000000e+01 0.0 
0.0 -1.962000000000e+01 0.0 
0.0 -1.962000000000e+01 0.0 
0.0 -1.962000000000e+01 0.0 
0.0 -1.962000000000e+01 0.0 
0.0 -1.962000000000e+01 0.0 
0.0 -1.962000000000e+01 0.0 
0.0 -1.962000000000e+01 0.0 
0.0 -1.962000000000e+01 0.0 
0.0 -1.962000000000e+01 0.0 
0.0 -1.962000000000e+01 0.0 
0.0 -1.962000000000e+01 0.0 
0.0 -1.962000000000e+01 0.0 
0.0 -1.962000000000e+01 0.0 
0.0 -1.962000000000e+01 0.0 
0.0 -1.962000000000e+01 0.0 
0.0 -1.962000000000e+01 0.0 
0.0 -1.962000000000e+01 0.0 
0.0 -1.962000000000e+01 0.0 
0.0 -1.962000000000e+01 0.0 
0.0 -1.962000000000e+01 0.0 
0.0 -1.962000000000e+01 0.0 
0.0 -1.962000000000e+01 0.0 
0.0 -1.962000000000e+01 0.0 
0.0 -1.962000000000e+01 0.0 
0.0 -1.962000000000e+01 0.0 
0.0 -1.962000000000e+01 0.0 
0.0 -1.962000000000e+01 0.0 
0.0 -1.962000000000e+01 0.0 
0.0 -1.962000000000e+01 0.0 
0.0 -1.962000000000e+01 0.0 
0.0 -1.962000000000e+01 0.0 
0.0 -1.962000000000e+01 0.0 
0.0 -1.962000000000e+01 0.0 
0.0 -1.962000000000e+01 0.0 
0.0 -1.962000000000e+01 0.0 
0.0 -1.962000000000e+01 0.0 
0.0 -1.962000000000e+01 0.0 
0.0 -1.962000000000e+01 0.0 
0.0 -1.962000000000e+01 0.0 
0.0 -1.962000000000e+01 0.0 
0.0 -1.962000000000e+01 0.0 
0.0 -1.962000000000e+01 0.0 
0.0 -1.962000000000e+01 0.0 
0.0 -1.962000000000e+01 0.0 
0.0 -1.962000000000e+01 0.0 
0.0 -1.962000000000e+01 0.0 
0.0 -1.962000000000e+01 0.0 
0.0 -1.962000000000e+01 0.0 
0.0 -1.962000000000e+01 0.0 
0.0 -1.962000000000e+01 0.0 
0.0 -1.962000000000e+01 0.0 
0.0 -1.962000000000e+01 0.0 
0.0 -1.962000000000e+01 0.0 
0.0 -1.962000000000e+01 0.0 
0.0 -1.962000000000e+01 0.0 
0.0 -1.962000000000e+01 0.0 
0.0 -1.962000000000e+01 0.0 
0.0 -1.962000000000e+01 0.0 
0.0 -1.962000000000e+01 0.0 
0.0 -1.962000000000e+01 0.0 
0.0 -1.962000000000e+01 0.0 
0.0 -1.962000000000e+01 0.0 
0.0 -1.962000000000e+01 0.0 
0.0 -1.962000000000e+01 0.0 
0.0 -1.962000000000e+01 0.0 
0.0 -1.962000000000e+01 0.0 
0.0 -1.962000000000e+01 0.0 
0.0 -1.962000000000e+01 0.0 
0.0 -1.962000000000e+01 0.0 
0.0 -1.962000000000e+01 0.0 
0.0 -1.962000000000e+01 0.0 
0.0 -1.962000000000e+01 0.0 
0.0 -1.962000000000e+01 0.0 
0.0 -1.962000000000e+01 0.0 
0.0 -1.962000000000e+01 0.0 
0.0 -1.962000000000e+01 0.0 
0.0 -1.962000000000e+01 0.0 
0.0 -1.962000000000e+01 0.0 
0.0 -1.962000000000e+01 0.0 
0.0 -1.962000000000e+01 0.0 
0.0 -1.962000000000e+01 0.0 
0.0 -1.962000000000e+01 0.0 
0.0 -1.962000000000e+01 0.0 
0.0 -1.962000000000e+01 0.0 
0.0 -1.962000000000e+01 0.0 
0.0 -1.962000000000e+01 0.0 
0.0 -1.962000000000e+01 0.0 
0.0 -1.962000000000e+01 0.0 
0.0 -1.962000000000e+01 0.0 
0.0 -1.962000000000e+01 0.0 
0.0 -1.962000000000e+01 0.0 
0.0 -1.962000000000e+01 0.0 
0.0 -1.962000000000e+01 0.0 
0.0 -1.962000000000e+01 0.0 
0.0 -1.962000000000e+01 0.0 
0.0 -1.962000000000e+01 0.0 
0.0 -1.962000000000e+01 0.0 
0.0 -1.962000000000e+01 0.0 
0.0 -1.962000000000e+01 0.0 
0.0 -1.962000000000e+01 0.0 
0.0 -1.962000000000e+01 0.0 
0.0 -1.962000000000e+01 0.0 
0.0 -1.962000000000e+01 0.0 
0.0 -1.962000000000e+01 0.0 
0.0 -1.962000000000e+01 0.0 
0.0 -1.962000000000e+01 0.0 
0.0 -1.962000000000e+01 0.0 
0.0 -1.962000000000e+01 0.0 
0.0 -1.962000000000e+01 0.0 
0.0 -1.962000000000e+01 0.0 
0.0 -1.962000000000e+01 0.0 
0.0 -1.962000000000e+01 0.0 
0.0 -1.962000000000e+01 0.0 
0.0 -1.962000000000e+01 0.0 
0.0 -1.962000000000e+01 0.0 
0.0 -1.962000000000e+01 0.0 
0.0 -1.962000000000e+01 0.0 
0.0 -1.962000000000e+01 0.0 
0.0 -1.962000000000e+01 0.0 
0.0 -1.962000000000e+01 0.0 
0.0 -1.962000000000e+01 0.0 
0.0 -1.962000000000e+01 0.0 
0.0 -1.962000000000e+01 0.0 
0.0 -1.962000000000e+01 0.0 
0.0 -1.962000000000e+01 0.0 
0.0 -1.962000000000e+01 0.0 
0.0 -1.962000000000e+01 0.0 
0.0 -1.962000000000e+01 0.0 
0.0 -1.962000000000e+01 0.0 
0.0 -1.962000000000e+01 0.0 
0.0 -1.962000000000e+01 0.0 
0.0 -1.962000000000e+01 0.0 
0.0 -1.962000000000e+01 0.0 
0.0 -1.962000000000e+01 0.0 
0.0 -1.962000000000e+01 0.0 
0.0 -1.962000000000e+01 0.0 
0.0 -1.962000000000e+01 0.0 
0.0 -1.962000000000e+01 0.0 
0.0 -1.962000000000e+01 0.0 
0.0 -1.962000000000e+01 0.0 
0.0 -1.962000000000e+01 0.0 
0.0 -1.962000000000e+01 0.0 
0.0 -1.962000000000e+01 0.0 
0.0 -1.962000000000e+01 0.0 
0.0 -1.962000000000e+01 0.0 
0.0 -1.962000000000e+01 0.0 
0.0 -1.962000000000e+01 0.0 
0.0 -1.962000000000e+01 0.0 
0.0 -1.962000000000e+01 0.0 
0.0 -1.962000000000e+01 0.0 
0.0 -1.962000000000e+01 0.0 
0.0 -1.962000000000e+01 0.0 
0.0 -1.962000000000e+01 0.0 
0.0 -1.962000000000e+01 0.0 
0.0 -1.962000000000e+01 0.0 
0.0 -1.962000000000e+01 0.0 
0.0 -1.962000000000e+01 0.0 
0.0 -1.962000000000e+01 0.0 
0.0 -1.962000000000e+01 0.0 
0.0 -1.962000000000e+01 0.0 
0.0 -1.962000000000e+01 0.0 
0.0 -1.962000000000e+01 0.0 
0.0 -1.962000000000e+01 0.0 
0.0 -1.962000000000e+01 0.0 
0.0 -1.962000000000e+01 0.0 
0.0 -1.962000000000e+01 0.0 
0.0 -1.962000000000e+01 0.0 
0.0 -1.962000000000e+01 0.0 
0.0 -1.962000000000e+01 0.0 
0.0 -1.962000000000e+01 0.0 
0.0 -1.962000000000e+01 0.0 
0.0 -1.962000000000e+01 0.0 
0.0 -1.962000000000e+01 0.0 
0.0 -1.962000000000e+01 0.0 
0.0 -1.962000000000e+01 0.0 
0.0 -1.962000000000e+01 0.0 
0.0 -1.962000000000e+01 0.0 
0.0 -1.962000000000e+01 0.0 
0.0 -1.962000000000e+01 0.0 
0.0 -1.962000000000e+01 0.0 
0.0 -1.962000000000e+01 0.0 
0.0 -1.962000000000e+01 0.0 
0.0 -1.962000000000e+01 0.0 
0.0 -1.962000000000e+01 0.0 
0.0 -1.962000000000e+01 0.0 
0.0 -1.962000000000e+01 0.0 
0.0 -1.962000000000e+01 0.0 
0.0 -1.962000000000e+01 0.0 
0.0 -1.962000000000e+01 0.0 
0.0 -1.962000000000e+01 0.0 
0.0 -1.962000000000e+01 0.0 
0.0 -1.962000000000e+01 0.0 
0.0 -1.962000000000e+01 0.0 
0.0 -1.962000000000e+01 0.0 
0.0 -1.962000000000e+01 0.0 
0.0 -1.962000000000e+01 0.0 
0.0 -1.962000000000e+01 0.0 
0.0 -1.962000000000e+01 0.0 
0.0 -1.962000000000e+01 0.0 
0.0 -1.962000000000e+01 0.0 
0.0 -1.962000000000e+01 0.0 
0.0 -1.962000000000e+01 0.0 
0.0 -1.962000000000e+01 0.0 
0.0 -1.962000000000e+01 0.0 
0.0 -1.962000000000e+01 0.0 
0.0 -1.962000000000e+01 0.0 
0.0 -1.962000000000e+01 0.0 
0.0 -1.962000000000e+01 0.0 
0.0 -1.962000000000e+01 0.0 
0.0 -1.962000000000e+01 0.0 
0.0 -1.962000000000e+01 0.0 
0.0 -1.962000000000e+01 0.0 
0.0 -1.962000000000e+01 0.0 
0.0 -1.962000000000e+01 0.0 
0.0 -1.962000000000e+01 0.0 
0.0 -1.962000000000e+01 0.0 
0.0 -1.962000000000e+01 0.0 
0.0 -1.962000000000e+01 0.0 
0.0 -1.962000000000e+01 0.0 
0.0 -1.962000000000e+01 0.0 
0.0 -1.962000000000e+01 0.0 
0.0 -1.962000000000e+01 0.0 
0.0 -1.962000000000e+01 0.0 
0.0 -1.962000000000e+01 0.0 
0.0 -1.962000000000e+01 0.0 
0.0 -1.962000000000e+01 0.0 
0.0 -1.962000000000e+01 0.0 
0.0 -1.962000000000e+01 0.0 
0.0 -1.962000000000e+01 0.0 
0.0 -1.962000000000e+01 0.0 
0.0 -1.962000000000e+01 0.0 
0.0 -1.962000000000e+01 0.0 
0.0 -1.962000000000e+01 0.0 
0.0 -1.962000000000e+01 0.0 
0.0 -1.962000000000e+01 0.0 
0.0 -1.962000000000e+01 0.0 
0.0 -1.962000000000e+01 0.0 
0.0 -1.962000000000e+01 0.0 
0.0 -1.962000000000e+01 0.0 
0.0 -1.962000000000e+01 0.0 
0.0 -1.962000000000e+01 0.0 
0.0 -1.962000000000e+01 0.0 
0.0 -1.962000000000e+01 0.0 
0.0 -1.962000000000e+01 0.0 
0.0 -1.962000000000e+01 0.0 
0.0 -1.962000000000e+01 0.0 
0.0 -1.962000000000e+01 0.0 
0.0 -1.962000000000e+01 0.0 
0.0 -1.962000000000e+01 0.0 
0.0 -1.962000000000e+01 0.0 
0.0 -1.962000000000e+01 0.0 
0.0 -1.962000000000e+01 0.0 
0.0 -1.962000000000e+01 0.0 
0.0 -1.962000000000e+01 0.0 
0.0 -1.962000000000e+01 0.0 
0.0 -1.962000000000e+01 0.0 
0.0 -1.962000000000e+01 0.0 
0.0 -1.962000000000e+01 0.0 
0.0 -1.962000000000e+01 0.0 
0.0 -1.962000000000e+01 0.0 
0.0 -1.962000000000e+01 0.0 
0.0 -1.962000000000e+01 0.0 
0.0 -1.962000000000e+01 0.0 
0.0 -1.962000000000e+01 0.0 
0.0 -1.962000000000e+01 0.0 
0.0 -1.962000000000e+01 0.0 
0.0 -1.962000000000e+01 0.0 
0.0 -1.962000000000e+01 0.0 
0.0 -1.962000000000e+01 0.0 
0.0 -1.962000000000e+01 0.0 
0.0 -1.962000000000e+01 0.0 
0.0 -1.962000000000e+01 0.0 
0.0 -1.962000000000e+01 0.0 
0.0 -1.962000000000e+01 0.0 
0.0 -1.962000000000e+01 0.0 
0.0 -1.962000000000e+01 0.0 
0.0 -1.962000000000e+01 0.0 
0.0 -1.962000000000e+01 0.0 
0.0 -1.962000000000e+01 0.0 
0.0 -1.962000000000e+01 0.0 
0.0 -1.962000000000e+01 0.0 
0.0 -1.962000000000e+01 0.0 
0.0 -1.962000000000e+01 0.0 
0.0 -1.962000000000e+01 0.0 
0.0 -1.962000000000e+01 0.0 
0.0 -1.962000000000e+01 0.0 
0.0 -1.962000000000e+01 0.0 
0.0 -1.962000000000e+01 0.0 
0.0 -1.962000000000e+01 0.0 
0.0 -1.962000000000e+01 0.0 
0.0 -1.962000000000e+01 0.0 
0.0 -1.962000000000e+01 0.0 
0.0 -1.962000000000e+01 0.0 
0.0 -1.962000000000e+01 0.0 
0.0 -1.962000000000e+01 0.0 
0.0 -1.962000000000e+01 0.0 
0.0 -1.962000000000e+01 0.0 
0.0 -1.962000000000e+01 0.0 
0.0 -1.962000000000e+01 0.0 
0.0 -1.962000000000e+01 0.0 
0.0 -1.962000000000e+01 0.0 
0.0 -1.962000000000e+01 0.0 
0.0 -1.962000000000e+01 0.0 
0.0 -1.962000000000e+01 0.0 
0.0 -1.962000000000e+01 0.0 
0.0 -1.962000000000e+01 0.0 
0.0 -1.962000000000e+01 0.0 
0.0 -1.962000000000e+01 0.0 
0.0 -1.962000000000e+01 0.0 
0.0 -1.962000000000e+01 0.0 
0.0 -1.962000000000e+01 0.0 
0.0 -1.962000000000e+01 0.0 
0.0 -1.962000000000e+01 0.0 
0.0 -1.962000000000e+01 0.0 
0.0 -1.962000000000e+01 0.0 
0.0 -1.962000000000e+01 0.0 
0.0 -1.962000000000e+01 0.0 
0.0 -1.962000000000e+01 0.0 
0.0 -1.962000000000e+01 0.0 
0.0 -1.962000000000e+01 0.0 
0.0 -1.962000000000e+01 0.0 
0.0 -1.962000000000e+01 0.0 
0.0 -1.962000000000e+01 0.0 
0.0 -1.962000000000e+01 0.0 
0.0 -1.962000000000e+01 0.0 
0.0 -1.962000000000e+01 0.0 
0.0 -1.962000000000e+01 0.0 
0.0 -1.962000000000e+01 0.0 
0.0 -1.962000000000e+01 0.0 
0.0 -1.962000000000e+01 0.0 
0.0 -1.962000000000e+01 0.0 
0.0 -1.962000000000e+01 0.0 
0.0 -1.962000000000e+01 0.0 
0.0 -1.962000000000e+01 0.0 
0.0 -1.962000000000e+01 0.0 
0.0 -1.962000000000e+01 0.0 
0.0 -1.962000000000e+01 0.0 
0.0 -1.962000000000e+01 0.0 
0.0 -1.962000000000e+01 0.0 
0.0 -1.962000000000e+01 0.0 
0.0 -1.962000000000e+01 0.0 
0.0 -1.962000000000e+01 0.0 
0.0 -1.962000000000e+01 0.0 
0.0 -1.962000000000e+01 0.0 
0.0 -1.962000000000e+01 0.0 
0.0 -1.962000000000e+01 0.0 
0.0 -1.962000000000e+01 0.0 
0.0 -1.962000000000e+01 0.0 
0.0 -1.962000000000e+01 0.0 
0.0 -1.962000000000e+01 0.0 
0.0 -1.962000000000e+01 0.0 
0.0 -1.962000000000e+01 0.0 
0.0 -1.962000000000e+01 0.0 
0.0 -1.962000000000e+01 0.0 
0.0 -1.962000000000e+01 0.0 
0.0 -1.962000000000e+01 0.0 
0.0 -1.962000000000e+01 0.0 
0.0 -1.962000000000e+01 0.0 
0.0 -1.962000000000e+01 0.0 
0.0 -1.962000000000e+01 0.0 
0.0 -1.962000000000e+01 0.0 
0.0 -1.962000000000e+01 0.0 
0.0 -1.962000000000e+01 0.0 
0.0 -1.962000000000e+01 0.0 
0.0 -1.962000000000e+01 0.0 
0.0 -1.962000000000e+01 0.0 
0.0 -1.962000000000e+01 0.0 
0.0 -1.962000000000e+01 0.0 
0.0 -1.962000000000e+01 0.0 
0.0 -1.962000000000e+01 0.0 
0.0 -1.962000000000e+01 0.0 
0.0 -1.962000000000e+01 0.0 
0.0 -1.962000000000e+01 0.0 
0.0 -1.962000000000e+01 0.0 
0.0 -1.962000000000e+01 0.0 
0.0 -1.962000000000e+01 0.0 
0.0 -1.962000000000e+01 0.0 
0.0 -1.962000000000e+01 0.0 
0.0 -1.962000000000e+01 0.0 
0.0 -1.962000000000e+01 0.0 
0.0 -1.962000000000e+01 0.0 
0.0 -1.962000000000e+01 0.0 
0.0 -1.962000000000e+01 0.0 
0.0 -1.962000000000e+01 0.0 
0.0 -1.962000000000e+01 0.0 
0.0 -1.962000000000e+01 0.0 
0.0 -1.962000000000e+01 0.0 
0.0 -1.962000000000e+01 0.0 
0.0 -1.962000000000e+01 0.0 
0.0 -1.962000000000e+01 0.0 
0.0 -1.962000000000e+01 0.0 
0.0 -1.962000000000e+01 0.0 
0.0 -1.962000000000e+01 0.0 
0.0 -1.962000000000e+01 0.0 
0.0 -1.962000000000e+01 0.0 
0.0 -1.962000000000e+01 0.0 
0.0 -1.962000000000e+01 0.0 
0.0 -1.962000000000e+01 0.0 
0.0 -1.962000000000e+01 0.0 
0.0 -1.962000000000e+01 0.0 
0.0 -1.962000000000e+01 0.0 
0.0 -1.962000000000e+01 0.0 
0.0 -1.962000000000e+01 0.0 
0.0 -1.962000000000e+01 0.0 
0.0 -1.962000000000e+01 0.0 
0.0 -1.962000000000e+01 0.0 
0.0 -1.962000000000e+01 0.0 
0.0 -1.962000000000e+01 0.0 
0.0 -1.962000000000e+01 0.0 
0.0 -1.962000000000e+01 0.0 
0.0 -1.962000000000e+01 0.0 
0.0 -1.962000000000e+01 0.0 
0.0 -1.962000000000e+01 0.0 
0.0 -1.962000000000e+01 0.0 
0.0 -1.962000000000e+01 0.0 
0.0 -1.962000000000e+01 0.0 
0.0 -1.962000000000e+01 0.0 
0.0 -1.962000000000e+01 0.0 
0.0 -1.962000000000e+01 0.0 
0.0 -1.962000000000e+01 0.0 
0.0 -1.962000000000e+01 0.0 
0.0 -1.962000000000e+01 0.0 
0.0 -1.962000000000e+01 0.0 
0.0 -1.962000000000e+01 0.0 
0.0 -1.962000000000e+01 0.0 
0.0 -1.962000000000e+01 0.0 
0.0 -1.962000000000e+01 0.0 
0.0 -1.962000000000e+01 0.0 
0.0 -1.962000000000e+01 0.0 
0.0 -1.962000000000e+01 0.0 
0.0 -1.962000000000e+01 0.0 
0.0 -1.962000000000e+01 0.0 
0.0 -1.962000000000e+01 0.0 
0.0 -1.962000000000e+01 0.0 
0.0 -1.962000000000e+01 0.0 
0.0 -1.962000000000e+01 0.0 
0.0 -1.962000000000e+01 0.0 
0.0 -1.962000000000e+01 0.0 
0.0 -1.962000000000e+01 0.0 
0.0 -1.962000000000e+01 0.0 
0.0 -1.962000000000e+01 0.0 
0.0 -1.962000000000e+01 0.0 
0.0 -1.962000000000e+01 0.0 
0.0 -1.962000000000e+01 0.0 
0.0 -1.962000000000e+01 0.0 
0.0 -1.962000000000e+01 0.0 
0.0 -1.962000000000e+01 0.0 
0.0 -1.962000000000e+01 0.0 
0.0 -1.962000000000e+01 0.0 
0.0 -1.962000000000e+01 0.0 
0.0 -1.962000000000e+01 0.0 
0.0 -1.962000000000e+01 0.0 
0.0 -1.962000000000e+01 0.0 
0.0 -1.962000000000e+01 0.0 
0.0 -1.962000000000e+01 0.0 
0.0 -1.962000000000e+01 0.0 
0.0 -1.962000000000e+01 0.0 
0.0 -1.962000000000e+01 0.0 
0.0 -1.962000000000e+01 0.0 
0.0 -1.962000000000e+01 0.0 
0.0 -1.962000000000e+01 0.0 
0.0 -1.962000000000e+01 0.0 
0.0 -1.962000000000e+01 0.0 
0.0 -1.962000000000e+01 0.0 
0.0 -1.962000000000e+01 0.0 
0.0 -1.962000000000e+01 0.0 
0.0 -1.962000000000e+01 0.0 
0.0 -1.962000000000e+01 0.0 
0.0 -1.962000000000e+01 0.0 
0.0 -1.962000000000e+01 0.0 
0.0 -1.962000000000e+01 0.0 
0.0 -1.962000000000e+01 0.0 
0.0 -1.962000000000e+01 0.0 
0.0 -1.962000000000e+01 0.0 
0.0 -1.962000000000e+01 0.0 
0.0 -1.962000000000e+01 0.0 
0.0 -1.962000000000e+01 0.0 
0.0 -1.962000000000e+01 0.0 
0.0 -1.962000000000e+01 0.0 
0.0 -1.962000000000e+01 0.0 
0.0 -1.962000000000e+01 0.0 
0.0 -1.962000000000e+01 0.0 
0.0 -1.962000000000e+01 0.0 
0.0 -1.962000000000e+01 0.0 
0.0 -1.962000000000e+01 0.0 
0.0 -1.962000000000e+01 0.0 
0.0 -1.962000000000e+01 0.0 
0.0 -1.962000000000e+01 0.0 
0.0 -1.962000000000e+01 0.0 
0.0 -1.962000000000e+01 0.0 
0.0 -1.962000000000e+01 0.0 
0.0 -1.962000000000e+01 0.0 
0.0 -1.962000000000e+01 0.0 
0.0 -1.962000000000e+01 0.0 
0.0 -1.962000000000e+01 0.0 
0.0 -1.962000000000e+01 0.0 
0.0 -1.962000000000e+01 0.0 
0.0 -1.962000000000e+01 0.0 
0.0 -1.962000000000e+01 0.0 
0.0 -1.962000000000e+01 0.0 
0.0 -1.962000000000e+01 0.0 
0.0 -1.962000000000e+01 0.0 
0.0 -1.962000000000e+01 0.0 
0.0 -1.962000000000e+01 0.0 
0.0 -1.962000000000e+01 0.0 
0.0 -1.962000000000e+01 0.0 
0.0 -1.962000000000e+01 0.0 
0.0 -1.962000000000e+01 0.0 
0.0 -1.962000000000e+01 0.0 
0.0 -1.962000000000e+01 0.0 
0.0 -1.962000000000e+01 0.0 
0.0 -1.962000000000e+01 0.0 
0.0 -1.962000000000e+01 0.0 
0.0 -1.962000000000e+01 0.0 
0.0 -1.962000000000e+01 0.0 
0.0 -1.962000000000e+01 0.0 
0.0 -1.962000000000e+01 0.0 
0.0 -1.962000000000e+01 0.0 
0.0 -1.962000000000e+01 0.0 
0.0 -1.962000000000e+01 0.0 
0.0 -1.962000000000e+01 0.0 
0.0 -1.962000000000e+01 0.0 
0.0 -1.962000000000e+01 0.0 
0.0 -1.962000000000e+01 0.0 
0.0 -1.962000000000e+01 0.0 
0.0 -1.962000000000e+01 0.0 
0.0 -1.962000000000e+01 0.0 
0.0 -1.962000000000e+01 0.0 
0.0 -1.962000000000e+01 0.0 
0.0 -1.962000000000e+01 0.0 
0.0 -1.962000000000e+01 0.0 
0.0 -1.962000000000e+01 0.0 
0.0 -1.962000000000e+01 0.0 
0.0 -1.962000000000e+01 0.0 
0.0 -1.962000000000e+01 0.0 
0.0 -1.962000000000e+01 0.0 
0.0 -1.962000000000e+01 0.0 
0.0 -1.962000000000e+01 0.0 
0.0 -1.962000000000e+01 0.0 
0.0 -1.962000000000e+01 0.0 
0.0 -1.962000000000e+01 0.0 
0.0 -1.962000000000e+01 0.0 
0.0 -1.962000000000e+01 0.0 
0.0 -1.962000000000e+01 0.0 
0.0 -1.962000000000e+01 0.0 
0.0 -1.962000000000e+01 0.0 
0.0 -1.962000000000e+01 0.0 
0.0 -1.962000000000e+01 0.0 
0.0 -1.962000000000e+01 0.0 
0.0 -1.962000000000e+01 0.0 
0.0 -1.962000000000e+01 0.0 
0.0 -1.962000000000e+01 0.0 
0.0 -1.962000000000e+01 0.0 
0.0 -1.962000000000e+01 0.0 
0.0 -1.962000000000e+01 0.0 
0.0 -1.962000000000e+01 0.0 
0.0 -1.962000000000e+01 0.0 
0.0 -1.962000000000e+01 0.0 
0.0 -1.962000000000e+01 0.0 
0.0 -1.962000000000e+01 0.0 
0.0 -1.962000000000e+01 0.0 
0.0 -1.962000000000e+01 0.0 
0.0 -1.962000000000e+01 0.0 
0.0 -1.962000000000e+01 0.0 
0.0 -1.962000000000e+01 0.0 
0.0 -1.962000000000e+01 0.0 
0.0 -1.962000000000e+01 0.0 
0.0 -1.962000000000e+01 0.0 
0.0 -1.962000000000e+01 0.0 
0.0 -1.962000000000e+01 0.0 
0.0 -1.962000000000e+01 0.0 
0.0 -1.962000000000e+01 0.0 
0.0 -1.962000000000e+01 0.0 
0.0 -1.962000000000e+01 0.0 
0.0 -1.962000000000e+01 0.0 
0.0 -1.962000000000e+01 0.0 
0.0 -1.962000000000e+01 0.0 
0.0 -1.962000000000e+01 0.0 
0.0 -1.962000000000e+01 0.0 
0.0 -1.962000000000e+01 0.0 
0.0 -1.962000000000e+01 0.0 
0.0 -1.962000000000e+01 0.0 
0.0 -1.962000000000e+01 0.0 
0.0 -1.962000000000e+01 0.0 
0.0 -1.962000000000e+01 0.0 
0.0 -1.962000000000e+01 0.0 
0.0 -1.962000000000e+01 0.0 
0.0 -1.962000000000e+01 0.0 
0.0 -1.962000000000e+01 0.0 
0.0 -1.962000000000e+01 0.0 
0.0 -1.962000000000e+01 0.0 
0.0 -1.962000000000e+01 0.0 
0.0 -1.962000000000e+01 0.0 
0.0 -1.962000000000e+01 0.0 
0.0 -1.962000000000e+01 0.0 
0.0 -1.962000000000e+01 0.0 
0.0 -1.962000000000e+01 0.0 
0.0 -1.962000000000e+01 0.0 
0.0 -1.962000000000e+01 0.0 
0.0 -1.962000000000e+01 0.0 
0.0 -1.962000000000e+01 0.0 
0.0 -1.962000000000e+01 0.0 
0.0 -1.962000000000e+01 0.0 
0.0 -1.962000000000e+01 0.0 
0.0 -1.962000000000e+01 0.0 
0.0 -1.962000000000e+01 0.0 
0.0 -1.962000000000e+01 0.0 
0.0 -1.962000000000e+01 0.0 
0.0 -1.962000000000e+01 0.0 
0.0 -1.962000000000e+01 0.0 
0.0 -1.962000000000e+01 0.0 
0.0 -1.962000000000e+01 0.0 
0.0 -1.962000000000e+01 0.0 
0.0 -1.962000000000e+01 0.0 
0.0 -1.962000000000e+01 0.0 
0.0 -1.962000000000e+01 0.0 
0.0 -1.962000000000e+01 0.0 
0.0 -1.962000000000e+01 0.0 
0.0 -1.962000000000e+01 0.0 
0.0 -1.962000000000e+01 0.0 
0.0 -1.962000000000e+01 0.0 
0.0 -1.962000000000e+01 0.0 
0.0 -1.962000000000e+01 0.0 
0.0 -1.962000000000e+01 0.0 
0.0 -1.962000000000e+01 0.0 
0.0 -1.962000000000e+01 0.0 
0.0 -1.962000000000e+01 0.0 
0.0 -1.962000000000e+01 0.0 
0.0 -1.962000000000e+01 0.0 
0.0 -1.962000000000e+01 0.0 
0.0 -1.962000000000e+01 0.0 
0.0 -1.962000000000e+01 0.0 
0.0 -1.962000000000e+01 0.0 
0.0 -1.962000000000e+01 0.0 
0.0 -1.962000000000e+01 0.0 
0.0 -1.962000000000e+01 0.0 

VECTORS node_rhside_materi_fixed float
-1.581031995855e+00 0.0 0.0 
7.625150041367e+01 0.0 0.0 
-8.205057524348e+01 -1.958863728175e+02 0.0 
7.824000514830e+01 -1.868050473041e+02 0.0 
-7.692848912991e+00 0.0 0.0 
-1.615420403649e+01 0.0 0.0 
-2.328416779421e+01 0.0 0.0 
-3.213199577637e+01 0.0 0.0 
-3.999623109384e+01 0.0 0.0 
-4.813708950243e+01 0.0 0.0 
-5.629153827516e+01 0.0 0.0 
-6.444155162762e+01 0.0 0.0 
-7.260072558988e+01 0.0 0.0 
-8.071442740972e+01 0.0 0.0 
-8.930465224104e+01 0.0 0.0 
-9.783582315513e+01 0.0 0.0 
-1.059073907808e+02 0.0 0.0 
-1.146162682732e+02 0.0 0.0 
-1.232157453228e+02 0.0 0.0 
-1.318739598492e+02 0.0 0.0 
-1.405986019798e+02 0.0 0.0 
-1.493576126073e+02 0.0 0.0 
-1.586503530415e+02 0.0 0.0 
-1.891364597446e-02 -3.726007690895e+02 0.0 
-1.435470005650e-01 -3.736213235954e+02 0.0 
9.707131033816e-01 -3.728738647778e+02 0.0 
-1.903076145591e-01 -3.729807034956e+02 0.0 
6.486010468996e-01 -3.735076035071e+02 0.0 
6.976774400652e-01 -3.729531246285e+02 0.0 
5.869164076733e-01 -3.733511039177e+02 0.0 
7.861706046097e-01 -3.737149809218e+02 0.0 
1.485642354682e+00 -3.731401863329e+02 0.0 
5.568356012516e-01 -3.733854036536e+02 0.0 
1.351872048942e+00 -3.740399707086e+02 0.0 
1.550568274564e+00 -3.735376358499e+02 0.0 
1.511536370244e+00 -3.741615423747e+02 0.0 
1.618224098963e+00 -3.741209754631e+02 0.0 
1.907438843653e+00 -3.742303198038e+02 0.0 
1.797181345853e+00 -3.748455974460e+02 0.0 
2.504608487246e+00 -3.750565193592e+02 0.0 
2.653823198095e+00 -3.754717314056e+02 0.0 
2.860808668620e+00 -3.758053895890e+02 0.0 
3.080152110162e+00 -3.760062847545e+02 0.0 
2.958447866594e+00 -3.765987946606e+02 0.0 
3.448764647366e+00 -3.773839525645e+02 0.0 
3.517867669335e+00 -3.778193996237e+02 0.0 
3.793866330192e+00 -3.784336145350e+02 0.0 
3.992186462367e+00 -3.793987254202e+02 0.0 
4.103265792562e+00 -3.799232643901e+02 0.0 
4.193958918081e+00 -3.805184280755e+02 0.0 
4.199161655286e+00 -3.814586656147e+02 0.0 
4.202741271338e+00 -3.825063942562e+02 0.0 
4.651890228646e+00 -3.830616618987e+02 0.0 
3.692791071889e+00 -3.835487664084e+02 0.0 
3.961757479643e+00 -3.850903640704e+02 0.0 
3.972664359260e+00 -3.853318876964e+02 0.0 
3.893426335074e+00 -3.862710149483e+02 0.0 
3.540120163134e+00 -3.868854374687e+02 0.0 
3.479574934513e+00 -3.873373620058e+02 0.0 
3.125943652610e+00 -3.881670707827e+02 0.0 
2.831480193868e+00 -3.885254463339e+02 0.0 
2.646452903519e+00 -3.890287694964e+02 0.0 
2.319751756346e+00 -3.898209127075e+02 0.0 
2.431737551274e+00 -3.898675347031e+02 0.0 
1.934533731343e+00 -3.901539959817e+02 0.0 
1.715713365583e+00 -3.901972355700e+02 0.0 
1.434127790596e+00 -3.912049066239e+02 0.0 
9.985214158833e-01 -3.906075493247e+02 0.0 
7.659191229158e-01 -3.914583517701e+02 0.0 
1.132926796671e+00 -3.909389638281e+02 0.0 
3.223938013668e-01 -3.912965462440e+02 0.0 
2.628724554927e-01 -3.911835322006e+02 0.0 
8.432863642464e+01 0.0 0.0 
9.312028771980e+01 0.0 0.0 
1.014615085417e+02 0.0 0.0 
1.096753107407e+02 0.0 0.0 
1.179765400203e+02 0.0 0.0 
1.265871818507e+02 0.0 0.0 
1.347749452224e+02 0.0 0.0 
1.426661549901e+02 0.0 0.0 
1.516968572929e+02 0.0 0.0 
0.0 0.0 0.0 
0.0 0.0 0.0 
0.0 0.0 0.0 
0.0 0.0 0.0 
0.0 0.0 0.0 
0.0 0.0 0.0 
0.0 0.0 0.0 
0.0 0.0 0.0 
0.0 0.0 0.0 
0.0 0.0 0.0 
0.0 0.0 0.0 
1.721341889777e+00 0.0 0.0 
9.382406315151e+00 0.0 0.0 
1.747898605446e+01 0.0 0.0 
2.580417790844e+01 0.0 0.0 
3.422814774798e+01 0.0 0.0 
4.266231748055e+01 0.0 0.0 
5.110059358370e+01 0.0 0.0 
5.955300119144e+01 0.0 0.0 
6.798603250583e+01 0.0 0.0 
0.0 0.0 0.0 
0.0 0.0 0.0 
0.0 0.0 0.0 
0.0 0.0 0.0 
0.0 0.0 0.0 
0.0 0.0 0.0 
0.0 0.0 0.0 
0.0 0.0 0.0 
0.0 0.0 0.0 
0.0 0.0 0.0 
0.0 0.0 0.0 
0.0 0.0 0.0 
0.0 0.0 0.0 
0.0 0.0 0.0 
0.0 0.0 0.0 
0.0 0.0 0.0 
0.0 0.0 0.0 
0.0 0.0 0.0 
0.0 0.0 0.0 
0.0 0.0 0.0 
0.0 0.0 0.0 
0.0 0.0 0.0 
0.0 0.0 0.0 
0.0 0.0 0.0 
0.0 0.0 0.0 
0.0 0.0 0.0 
0.0 0.0 0.0 
0.0 0.0 0.0 
0.0 0.0 0.0 
0.0 0.0 0.0 
0.0 0.0 0.0 
0.0 0.0 0.0 
0.0 0.0 0.0 
0.0 0.0 0.0 
0.0 0.0 0.0 
0.0 0.0 0.0 
0.0 0.0 0.0 
0.0 0.0 0.0 
0.0 0.0 0.0 
0.0 0.0 0.0 
0.0 0.0 0.0 
0.0 0.0 0.0 
0.0 0.0 0.0 
0.0 0.0 0.0 
0.0 0.0 0.0 
0.0 0.0 0.0 
0.0 0.0 0.0 
0.0 0.0 0.0 
0.0 0.0 0.0 
0.0 0.0 0.0 
0.0 0.0 0.0 
0.0 0.0 0.0 
0.0 0.0 0.0 
0.0 0.0 0.0 
0.0 0.0 0.0 
0.0 0.0 0.0 
0.0 0.0 0.0 
0.0 0.0 0.0 
0.0 0.0 0.0 
0.0 0.0 0.0 
0.0 0.0 0.0 
0.0 0.0 0.0 
0.0 0.0 0.0 
0.0 0.0 0.0 
0.0 0.0 0.0 
0.0 0.0 0.0 
0.0 0.0 0.0 
0.0 0.0 0.0 
0.0 0.0 0.0 
0.0 0.0 0.0 
0.0 0.0 0.0 
0.0 0.0 0.0 
0.0 0.0 0.0 
0.0 0.0 0.0 
0.0 0.0 0.0 
0.0 0.0 0.0 
0.0 0.0 0.0 
0.0 0.0 0.0 
0.0 0.0 0.0 
0.0 0.0 0.0 
0.0 0.0 0.0 
0.0 0.0 0.0 
0.0 0.0 0.0 
0.0 0.0 0.0 
0.0 0.0 0.0 
0.0 0.0 0.0 
0.0 0.0 0.0 
0.0 0.0 0.0 
0.0 0.0 0.0 
0.0 0.0 0.0 
0.0 0.0 0.0 
0.0 0.0 0.0 
0.0 0.0 0.0 
0.0 0.0 0.0 
0.0 0.0 0.0 
0.0 0.0 0.0 
0.0 0.0 0.0 
0.0 0.0 0.0 
0.0 0.0 0.0 
0.0 0.0 0.0 
0.0 0.0 0.0 
0.0 0.0 0.0 
0.0 0.0 0.0 
0.0 0.0 0.0 
0.0 0.0 0.0 
0.0 0.0 0.0 
0.0 0.0 0.0 
0.0 0.0 0.0 
0.0 0.0 0.0 
0.0 0.0 0.0 
0.0 0.0 0.0 
0.0 0.0 0.0 
0.0 0.0 0.0 
0.0 0.0 0.0 
0.0 0.0 0.0 
0.0 0.0 0.0 
0.0 0.0 0.0 
0.0 0.0 0.0 
0.0 0.0 0.0 
0.0 0.0 0.0 
0.0 0.0 0.0 
0.0 0.0 0.0 
0.0 0.0 0.0 
0.0 0.0 0.0 
0.0 0.0 0.0 
0.0 0.0 0.0 
0.0 0.0 0.0 
0.0 0.0 0.0 
0.0 0.0 0.0 
0.0 0.0 0.0 
0.0 0.0 0.0 
0.0 0.0 0.0 
0.0 0.0 0.0 
0.0 0.0 0.0 
0.0 0.0 0.0 
0.0 0.0 0.0 
0.0 0.0 0.0 
0.0 0.0 0.0 
0.0 0.0 0.0 
0.0 0.0 0.0 
0.0 0.0 0.0 
0.0 0.0 0.0 
0.0 0.0 0.0 
0.0 0.0 0.0 
0.0 0.0 0.0 
0.0 0.0 0.0 
0.0 0.0 0.0 
0.0 0.0 0.0 
0.0 0.0 0.0 
0.0 0.0 0.0 
0.0 0.0 0.0 
0.0 0.0 0.0 
0.0 0.0 0.0 
0.0 0.0 0.0 
0.0 0.0 0.0 
0.0 0.0 0.0 
0.0 0.0 0.0 
0.0 0.0 0.0 
0.0 0.0 0.0 
0.0 0.0 0.0 
0.0 0.0 0.0 
0.0 0.0 0.0 
0.0 0.0 0.0 
0.0 0.0 0.0 
0.0 0.0 0.0 
0.0 0.0 0.0 
0.0 0.0 0.0 
0.0 0.0 0.0 
0.0 0.0 0.0 
0.0 0.0 0.0 
0.0 0.0 0.0 
0.0 0.0 0.0 
0.0 0.0 0.0 
0.0 0.0 0.0 
0.0 0.0 0.0 
0.0 0.0 0.0 
0.0 0.0 0.0 
0.0 0.0 0.0 
0.0 0.0 0.0 
0.0 0.0 0.0 
0.0 0.0 0.0 
0.0 0.0 0.0 
0.0 0.0 0.0 
0.0 0.0 0.0 
0.0 0.0 0.0 
0.0 0.0 0.0 
0.0 0.0 0.0 
0.0 0.0 0.0 
0.0 0.0 0.0 
0.0 0.0 0.0 
0.0 0.0 0.0 
0.0 0.0 0.0 
0.0 0.0 0.0 
0.0 0.0 0.0 
0.0 0.0 0.0 
0.0 0.0 0.0 
0.0 0.0 0.0 
0.0 0.0 0.0 
0.0 0.0 0.0 
0.0 0.0 0.0 
0.0 0.0 0.0 
0.0 0.0 0.0 
0.0 0.0 0.0 
0.0 0.0 0.0 
0.0 0.0 0.0 
0.0 0.0 0.0 
0.0 0.0 0.0 
0.0 0.0 0.0 
0.0 0.0 0.0 
0.0 0.0 0.0 
0.0 0.0 0.0 
0.0 0.0 0.0 
0.0 0.0 0.0 
0.0 0.0 0.0 
0.0 0.0 0.0 
0.0 0.0 0.0 
0.0 0.0 0.0 
0.0 0.0 0.0 
0.0 0.0 0.0 
0.0 0.0 0.0 
0.0 0.0 0.0 
0.0 0.0 0.0 
0.0 0.0 0.0 
0.0 0.0 0.0 
0.0 0.0 0.0 
0.0 0.0 0.0 
0.0 0.0 0.0 
0.0 0.0 0.0 
0.0 0.0 0.0 
0.0 0.0 0.0 
0.0 0.0 0.0 
0.0 0.0 0.0 
0.0 0.0 0.0 
0.0 0.0 0.0 
0.0 0.0 0.0 
0.0 0.0 0.0 
0.0 0.0 0.0 
0.0 0.0 0.0 
0.0 0.0 0.0 
0.0 0.0 0.0 
0.0 0.0 0.0 
0.0 0.0 0.0 
0.0 0.0 0.0 
0.0 0.0 0.0 
0.0 0.0 0.0 
0.0 0.0 0.0 
0.0 0.0 0.0 
0.0 0.0 0.0 
0.0 0.0 0.0 
0.0 0.0 0.0 
0.0 0.0 0.0 
0.0 0.0 0.0 
0.0 0.0 0.0 
0.0 0.0 0.0 
0.0 0.0 0.0 
0.0 0.0 0.0 
0.0 0.0 0.0 
0.0 0.0 0.0 
0.0 0.0 0.0 
0.0 0.0 0.0 
0.0 0.0 0.0 
0.0 0.0 0.0 
0.0 0.0 0.0 
0.0 0.0 0.0 
0.0 0.0 0.0 
0.0 0.0 0.0 
0.0 0.0 0.0 
0.0 0.0 0.0 
0.0 0.0 0.0 
0.0 0.0 0.0 
0.0 0.0 0.0 
0.0 0.0 0.0 
0.0 0.0 0.0 
0.0 0.0 0.0 
0.0 0.0 0.0 
0.0 0.0 0.0 
0.0 0.0 0.0 
0.0 0.0 0.0 
0.0 0.0 0.0 
0.0 0.0 0.0 
0.0 0.0 0.0 
0.0 0.0 0.0 
0.0 0.0 0.0 
0.0 0.0 0.0 
0.0 0.0 0.0 
0.0 0.0 0.0 
0.0 0.0 0.0 
0.0 0.0 0.0 
0.0 0.0 0.0 
0.0 0.0 0.0 
0.0 0.0 0.0 
0.0 0.0 0.0 
0.0 0.0 0.0 
0.0 0.0 0.0 
0.0 0.0 0.0 
0.0 0.0 0.0 
0.0 0.0 0.0 
0.0 0.0 0.0 
0.0 0.0 0.0 
0.0 0.0 0.0 
0.0 0.0 0.0 
0.0 0.0 0.0 
0.0 0.0 0.0 
0.0 0.0 0.0 
0.0 0.0 0.0 
0.0 0.0 0.0 
0.0 0.0 0.0 
0.0 0.0 0.0 
0.0 0.0 0.0 
0.0 0.0 0.0 
0.0 0.0 0.0 
0.0 0.0 0.0 
0.0 0.0 0.0 
0.0 0.0 0.0 
0.0 0.0 0.0 
0.0 0.0 0.0 
0.0 0.0 0.0 
0.0 0.0 0.0 
0.0 0.0 0.0 
0.0 0.0 0.0 
0.0 0.0 0.0 
0.0 0.0 0.0 
0.0 0.0 0.0 
0.0 0.0 0.0 
0.0 0.0 0.0 
0.0 0.0 0.0 
0.0 0.0 0.0 
0.0 0.0 0.0 
0.0 0.0 0.0 
0.0 0.0 0.0 
0.0 0.0 0.0 
0.0 0.0 0.0 
0.0 0.0 0.0 
0.0 0.0 0.0 
0.0 0.0 0.0 
0.0 0.0 0.0 
0.0 0.0 0.0 
0.0 0.0 0.0 
0.0 0.0 0.0 
0.0 0.0 0.0 
0.0 0.0 0.0 
0.0 0.0 0.0 
0.0 0.0 0.0 
0.0 0.0 0.0 
0.0 0.0 0.0 
0.0 0.0 0.0 
0.0 0.0 0.0 
0.0 0.0 0.0 
0.0 0.0 0.0 
0.0 0.0 0.0 
0.0 0.0 0.0 
0.0 0.0 0.0 
0.0 0.0 0.0 
0.0 0.0 0.0 
0.0 0.0 0.0 
0.0 0.0 0.0 
0.0 0.0 0.0 
0.0 0.0 0.0 
0.0 0.0 0.0 
0.0 0.0 0.0 
0.0 0.0 0.0 
0.0 0.0 0.0 
0.0 0.0 0.0 
0.0 0.0 0.0 
0.0 0.0 0.0 
0.0 0.0 0.0 
0.0 0.0 0.0 
0.0 0.0 0.0 
0.0 0.0 0.0 
0.0 0.0 0.0 
0.0 0.0 0.0 
0.0 0.0 0.0 
0.0 0.0 0.0 
0.0 0.0 0.0 
0.0 0.0 0.0 
0.0 0.0 0.0 
0.0 0.0 0.0 
0.0 0.0 0.0 
0.0 0.0 0.0 
0.0 0.0 0.0 
0.0 0.0 0.0 
0.0 0.0 0.0 
0.0 0.0 0.0 
0.0 0.0 0.0 
0.0 0.0 0.0 
0.0 0.0 0.0 
0.0 0.0 0.0 
0.0 0.0 0.0 
0.0 0.0 0.0 
0.0 0.0 0.0 
0.0 0.0 0.0 
0.0 0.0 0.0 
0.0 0.0 0.0 
0.0 0.0 0.0 
0.0 0.0 0.0 
0.0 0.0 0.0 
0.0 0.0 0.0 
0.0 0.0 0.0 
0.0 0.0 0.0 
0.0 0.0 0.0 
0.0 0.0 0.0 
0.0 0.0 0.0 
0.0 0.0 0.0 
0.0 0.0 0.0 
0.0 0.0 0.0 
0.0 0.0 0.0 
0.0 0.0 0.0 
0.0 0.0 0.0 
0.0 0.0 0.0 
0.0 0.0 0.0 
0.0 0.0 0.0 
0.0 0.0 0.0 
0.0 0.0 0.0 
0.0 0.0 0.0 
0.0 0.0 0.0 
0.0 0.0 0.0 
0.0 0.0 0.0 
0.0 0.0 0.0 
0.0 0.0 0.0 
0.0 0.0 0.0 
0.0 0.0 0.0 
0.0 0.0 0.0 
0.0 0.0 0.0 
0.0 0.0 0.0 
0.0 0.0 0.0 
0.0 0.0 0.0 
0.0 0.0 0.0 
0.0 0.0 0.0 
0.0 0.0 0.0 
0.0 0.0 0.0 
0.0 0.0 0.0 
0.0 0.0 0.0 
0.0 0.0 0.0 
0.0 0.0 0.0 
0.0 0.0 0.0 
0.0 0.0 0.0 
0.0 0.0 0.0 
0.0 0.0 0.0 
0.0 0.0 0.0 
0.0 0.0 0.0 
0.0 0.0 0.0 
0.0 0.0 0.0 
0.0 0.0 0.0 
0.0 0.0 0.0 
0.0 0.0 0.0 
0.0 0.0 0.0 
0.0 0.0 0.0 
0.0 0.0 0.0 
0.0 0.0 0.0 
0.0 0.0 0.0 
0.0 0.0 0.0 
0.0 0.0 0.0 
0.0 0.0 0.0 
0.0 0.0 0.0 
0.0 0.0 0.0 
0.0 0.0 0.0 
0.0 0.0 0.0 
0.0 0.0 0.0 
0.0 0.0 0.0 
0.0 0.0 0.0 
0.0 0.0 0.0 
0.0 0.0 0.0 
0.0 0.0 0.0 
0.0 0.0 0.0 
0.0 0.0 0.0 
0.0 0.0 0.0 
0.0 0.0 0.0 
0.0 0.0 0.0 
0.0 0.0 0.0 
0.0 0.0 0.0 
0.0 0.0 0.0 
0.0 0.0 0.0 
0.0 0.0 0.0 
0.0 0.0 0.0 
0.0 0.0 0.0 
0.0 0.0 0.0 
0.0 0.0 0.0 
0.0 0.0 0.0 
0.0 0.0 0.0 
0.0 0.0 0.0 
0.0 0.0 0.0 
0.0 0.0 0.0 
0.0 0.0 0.0 
0.0 0.0 0.0 
0.0 0.0 0.0 
0.0 0.0 0.0 
0.0 0.0 0.0 
0.0 0.0 0.0 
0.0 0.0 0.0 
0.0 0.0 0.0 
0.0 0.0 0.0 
0.0 0.0 0.0 
0.0 0.0 0.0 
0.0 0.0 0.0 
0.0 0.0 0.0 
0.0 0.0 0.0 
0.0 0.0 0.0 
0.0 0.0 0.0 
0.0 0.0 0.0 
0.0 0.0 0.0 
0.0 0.0 0.0 
0.0 0.0 0.0 
0.0 0.0 0.0 
0.0 0.0 0.0 
0.0 0.0 0.0 
0.0 0.0 0.0 
0.0 0.0 0.0 
0.0 0.0 0.0 
0.0 0.0 0.0 
0.0 0.0 0.0 
0.0 0.0 0.0 
0.0 0.0 0.0 
0.0 0.0 0.0 
0.0 0.0 0.0 
0.0 0.0 0.0 
0.0 0.0 0.0 
0.0 0.0 0.0 
0.0 0.0 0.0 
0.0 0.0 0.0 
0.0 0.0 0.0 
0.0 0.0 0.0 
0.0 0.0 0.0 
0.0 0.0 0.0 
0.0 0.0 0.0 
0.0 0.0 0.0 
0.0 0.0 0.0 
0.0 0.0 0.0 
0.0 0.0 0.0 
0.0 0.0 0.0 
0.0 0.0 0.0 
0.0 0.0 0.0 
0.0 0.0 0.0 
0.0 0.0 0.0 
0.0 0.0 0.0 
0.0 0.0 0.0 
0.0 0.0 0.0 
0.0 0.0 0.0 
0.0 0.0 0.0 
0.0 0.0 0.0 
0.0 0.0 0.0 
0.0 0.0 0.0 
0.0 0.0 0.0 
0.0 0.0 0.0 
0.0 0.0 0.0 
0.0 0.0 0.0 
0.0 0.0 0.0 
0.0 0.0 0.0 
0.0 0.0 0.0 
0.0 0.0 0.0 
0.0 0.0 0.0 
0.0 0.0 0.0 
0.0 0.0 0.0 
0.0 0.0 0.0 
0.0 0.0 0.0 
0.0 0.0 0.0 
0.0 0.0 0.0 
0.0 0.0 0.0 
0.0 0.0 0.0 
0.0 0.0 0.0 
0.0 0.0 0.0 
0.0 0.0 0.0 
0.0 0.0 0.0 
0.0 0.0 0.0 
0.0 0.0 0.0 
0.0 0.0 0.0 
0.0 0.0 0.0 
0.0 0.0 0.0 
0.0 0.0 0.0 
0.0 0.0 0.0 
0.0 0.0 0.0 
0.0 0.0 0.0 
0.0 0.0 0.0 
0.0 0.0 0.0 
0.0 0.0 0.0 
0.0 0.0 0.0 
0.0 0.0 0.0 
0.0 0.0 0.0 
0.0 0.0 0.0 
0.0 0.0 0.0 
0.0 0.0 0.0 
0.0 0.0 0.0 
0.0 0.0 0.0 
0.0 0.0 0.0 
0.0 0.0 0.0 
0.0 0.0 0.0 
0.0 0.0 0.0 
0.0 0.0 0.0 
0.0 0.0 0.0 
0.0 0.0 0.0 
0.0 0.0 0.0 
0.0 0.0 0.0 
0.0 0.0 0.0 
0.0 0.0 0.0 
0.0 0.0 0.0 
0.0 0.0 0.0 
0.0 0.0 0.0 
0.0 0.0 0.0 
0.0 0.0 0.0 
0.0 0.0 0.0 
0.0 0.0 0.0 
0.0 0.0 0.0 
0.0 0.0 0.0 
0.0 0.0 0.0 
0.0 0.0 0.0 
0.0 0.0 0.0 
0.0 0.0 0.0 
0.0 0.0 0.0 
0.0 0.0 0.0 
0.0 0.0 0.0 
0.0 0.0 0.0 
0.0 0.0 0.0 
0.0 0.0 0.0 
0.0 0.0 0.0 
0.0 0.0 0.0 
0.0 0.0 0.0 
0.0 0.0 0.0 
0.0 0.0 0.0 
0.0 0.0 0.0 
0.0 0.0 0.0 
0.0 0.0 0.0 
0.0 0.0 0.0 
0.0 0.0 0.0 
0.0 0.0 0.0 
0.0 0.0 0.0 
0.0 0.0 0.0 
0.0 0.0 0.0 
0.0 0.0 0.0 
0.0 0.0 0.0 
0.0 0.0 0.0 
0.0 0.0 0.0 
0.0 0.0 0.0 
0.0 0.0 0.0 
0.0 0.0 0.0 
0.0 0.0 0.0 
0.0 0.0 0.0 
0.0 0.0 0.0 
0.0 0.0 0.0 
0.0 0.0 0.0 
0.0 0.0 0.0 
0.0 0.0 0.0 
0.0 0.0 0.0 
0.0 0.0 0.0 
0.0 0.0 0.0 
0.0 0.0 0.0 
0.0 0.0 0.0 
0.0 0.0 0.0 
0.0 0.0 0.0 
0.0 0.0 0.0 
0.0 0.0 0.0 
0.0 0.0 0.0 
0.0 0.0 0.0 
0.0 0.0 0.0 
0.0 0.0 0.0 
0.0 0.0 0.0 
0.0 0.0 0.0 
0.0 0.0 0.0 
0.0 0.0 0.0 
0.0 0.0 0.0 
0.0 0.0 0.0 
0.0 0.0 0.0 
0.0 0.0 0.0 
0.0 0.0 0.0 
0.0 0.0 0.0 
0.0 0.0 0.0 
0.0 0.0 0.0 
0.0 0.0 0.0 
0.0 0.0 0.0 
0.0 0.0 0.0 
0.0 0.0 0.0 
0.0 0.0 0.0 
0.0 0.0 0.0 
0.0 0.0 0.0 
0.0 0.0 0.0 
0.0 0.0 0.0 
0.0 0.0 0.0 
0.0 0.0 0.0 
0.0 0.0 0.0 
0.0 0.0 0.0 
0.0 0.0 0.0 
0.0 0.0 0.0 
0.0 0.0 0.0 
0.0 0.0 0.0 
0.0 0.0 0.0 
0.0 0.0 0.0 
0.0 0.0 0.0 
0.0 0.0 0.0 
0.0 0.0 0.0 
0.0 0.0 0.0 
0.0 0.0 0.0 
0.0 0.0 0.0 
0.0 0.0 0.0 
0.0 0.0 0.0 
0.0 0.0 0.0 
0.0 0.0 0.0 
0.0 0.0 0.0 
0.0 0.0 0.0 
0.0 0.0 0.0 
0.0 0.0 0.0 
0.0 0.0 0.0 
0.0 0.0 0.0 
0.0 0.0 0.0 
0.0 0.0 0.0 
0.0 0.0 0.0 
0.0 0.0 0.0 
0.0 0.0 0.0 
0.0 0.0 0.0 
0.0 0.0 0.0 
0.0 0.0 0.0 
0.0 0.0 0.0 
0.0 0.0 0.0 
0.0 0.0 0.0 
0.0 0.0 0.0 
0.0 0.0 0.0 
0.0 0.0 0.0 
0.0 0.0 0.0 
0.0 0.0 0.0 
0.0 0.0 0.0 
0.0 0.0 0.0 
0.0 0.0 0.0 
0.0 0.0 0.0 
0.0 0.0 0.0 
0.0 0.0 0.0 
0.0 0.0 0.0 
0.0 0.0 0.0 
0.0 0.0 0.0 
0.0 0.0 0.0 
0.0 0.0 0.0 
0.0 0.0 0.0 
0.0 0.0 0.0 
0.0 0.0 0.0 
0.0 0.0 0.0 
0.0 0.0 0.0 
0.0 0.0 0.0 
0.0 0.0 0.0 
0.0 0.0 0.0 
0.0 0.0 0.0 
0.0 0.0 0.0 
0.0 0.0 0.0 
0.0 0.0 0.0 
0.0 0.0 0.0 
0.0 0.0 0.0 
0.0 0.0 0.0 
0.0 0.0 0.0 
0.0 0.0 0.0 
0.0 0.0 0.0 
0.0 0.0 0.0 
0.0 0.0 0.0 
0.0 0.0 0.0 
0.0 0.0 0.0 
0.0 0.0 0.0 
0.0 0.0 0.0 
0.0 0.0 0.0 
0.0 0.0 0.0 
0.0 0.0 0.0 
0.0 0.0 0.0 
0.0 0.0 0.0 
0.0 0.0 0.0 
0.0 0.0 0.0 
0.0 0.0 0.0 
0.0 0.0 0.0 
0.0 0.0 0.0 
0.0 0.0 0.0 
0.0 0.0 0.0 
0.0 0.0 0.0 
0.0 0.0 0.0 
0.0 0.0 0.0 
0.0 0.0 0.0 
0.0 0.0 0.0 
0.0 0.0 0.0 
0.0 0.0 0.0 
0.0 0.0 0.0 
0.0 0.0 0.0 
0.0 0.0 0.0 
0.0 0.0 0.0 
0.0 0.0 0.0 
0.0 0.0 0.0 
0.0 0.0 0.0 
0.0 0.0 0.0 
0.0 0.0 0.0 
0.0 0.0 0.0 
0.0 0.0 0.0 
0.0 0.0 0.0 
0.0 0.0 0.0 
0.0 0.0 0.0 
0.0 0.0 0.0 
0.0 0.0 0.0 
0.0 0.0 0.0 
0.0 0.0 0.0 
0.0 0.0 0.0 
0.0 0.0 0.0 
0.0 0.0 0.0 
0.0 0.0 0.0 
0.0 0.0 0.0 
0.0 0.0 0.0 
0.0 0.0 0.0 
0.0 0.0 0.0 
0.0 0.0 0.0 
0.0 0.0 0.0 
0.0 0.0 0.0 
0.0 0.0 0.0 
0.0 0.0 0.0 
0.0 0.0 0.0 
0.0 0.0 0.0 
0.0 0.0 0.0 
0.0 0.0 0.0 
0.0 0.0 0.0 
0.0 0.0 0.0 
0.0 0.0 0.0 
0.0 0.0 0.0 
0.0 0.0 0.0 
0.0 0.0 0.0 
0.0 0.0 0.0 
0.0 0.0 0.0 
0.0 0.0 0.0 
0.0 0.0 0.0 
0.0 0.0 0.0 
0.0 0.0 0.0 
0.0 0.0 0.0 
0.0 0.0 0.0 
0.0 0.0 0.0 
0.0 0.0 0.0 
0.0 0.0 0.0 
0.0 0.0 0.0 
0.0 0.0 0.0 
0.0 0.0 0.0 
0.0 0.0 0.0 
0.0 0.0 0.0 
0.0 0.0 0.0 
0.0 0.0 0.0 
0.0 0.0 0.0 
0.0 0.0 0.0 
0.0 0.0 0.0 
0.0 0.0 0.0 
0.0 0.0 0.0 
0.0 0.0 0.0 
0.0 0.0 0.0 
0.0 0.0 0.0 
0.0 0.0 0.0 
0.0 0.0 0.0 
0.0 0.0 0.0 
0.0 0.0 0.0 
0.0 0.0 0.0 
0.0 0.0 0.0 
0.0 0.0 0.0 
0.0 0.0 0.0 
0.0 0.0 0.0 
0.0 0.0 0.0 
0.0 0.0 0.0 
0.0 0.0 0.0 
0.0 0.0 0.0 
0.0 0.0 0.0 
0.0 0.0 0.0 
0.0 0.0 0.0 
0.0 0.0 0.0 
0.0 0.0 0.0 
0.0 0.0 0.0 
0.0 0.0 0.0 
0.0 0.0 0.0 
0.0 0.0 0.0 
0.0 0.0 0.0 
0.0 0.0 0.0 
0.0 0.0 0.0 
0.0 0.0 0.0 
0.0 0.0 0.0 
0.0 0.0 0.0 
0.0 0.0 0.0 
0.0 0.0 0.0 
0.0 0.0 0.0 
0.0 0.0 0.0 
0.0 0.0 0.0 
0.0 0.0 0.0 
0.0 0.0 0.0 
0.0 0.0 0.0 
0.0 0.0 0.0 
0.0 0.0 0.0 
0.0 0.0 0.0 
0.0 0.0 0.0 
0.0 0.0 0.0 
0.0 0.0 0.0 
0.0 0.0 0.0 
0.0 0.0 0.0 
0.0 0.0 0.0 
0.0 0.0 0.0 
0.0 0.0 0.0 
0.0 0.0 0.0 
0.0 0.0 0.0 
0.0 0.0 0.0 
0.0 0.0 0.0 
0.0 0.0 0.0 
0.0 0.0 0.0 
0.0 0.0 0.0 
0.0 0.0 0.0 
0.0 0.0 0.0 
0.0 0.0 0.0 
0.0 0.0 0.0 
0.0 0.0 0.0 
0.0 0.0 0.0 
0.0 0.0 0.0 
0.0 0.0 0.0 
0.0 0.0 0.0 
0.0 0.0 0.0 
0.0 0.0 0.0 
0.0 0.0 0.0 
0.0 0.0 0.0 
0.0 0.0 0.0 
0.0 0.0 0.0 
0.0 0.0 0.0 
0.0 0.0 0.0 
0.0 0.0 0.0 
0.0 0.0 0.0 
0.0 0.0 0.0 
0.0 0.0 0.0 
0.0 0.0 0.0 
0.0 0.0 0.0 
0.0 0.0 0.0 
0.0 0.0 0.0 
0.0 0.0 0.0 
0.0 0.0 0.0 
0.0 0.0 0.0 
0.0 0.0 0.0 
0.0 0.0 0.0 
0.0 0.0 0.0 
0.0 0.0 0.0 
0.0 0.0 0.0 
0.0 0.0 0.0 
0.0 0.0 0.0 
0.0 0.0 0.0 
0.0 0.0 0.0 
0.0 0.0 0.0 
0.0 0.0 0.0 
0.0 0.0 0.0 
0.0 0.0 0.0 
0.0 0.0 0.0 
0.0 0.0 0.0 
0.0 0.0 0.0 
0.0 0.0 0.0 
0.0 0.0 0.0 
0.0 0.0 0.0 
0.0 0.0 0.0 
0.0 0.0 0.0 
0.0 0.0 0.0 
0.0 0.0 0.0 
0.0 0.0 0.0 
0.0 0.0 0.0 
0.0 0.0 0.0 
0.0 0.0 0.0 
0.0 0.0 0.0 
0.0 0.0 0.0 
0.0 0.0 0.0 
0.0 0.0 0.0 
0.0 0.0 0.0 
0.0 0.0 0.0 
0.0 0.0 0.0 
0.0 0.0 0.0 
0.0 0.0 0.0 
0.0 0.0 0.0 
0.0 0.0 0.0 
0.0 0.0 0.0 
0.0 0.0 0.0 
0.0 0.0 0.0 
0.0 0.0 0.0 
0.0 0.0 0.0 
0.0 0.0 0.0 
0.0 0.0 0.0 
0.0 0.0 0.0 
0.0 0.0 0.0 
0.0 0.0 0.0 
0.0 0.0 0.0 
0.0 0.0 0.0 
0.0 0.0 0.0 
0.0 0.0 0.0 
0.0 0.0 0.0 
0.0 0.0 0.0 
0.0 0.0 0.0 
0.0 0.0 0.0 
0.0 0.0 0.0 
0.0 0.0 0.0 
0.0 0.0 0.0 
0.0 0.0 0.0 
0.0 0.0 0.0 
0.0 0.0 0.0 
0.0 0.0 0.0 
0.0 0.0 0.0 
0.0 0.0 0.0 
0.0 0.0 0.0 
0.0 0.0 0.0 
0.0 0.0 0.0 
0.0 0.0 0.0 
0.0 0.0 0.0 
0.0 0.0 0.0 
0.0 0.0 0.0 
0.0 0.0 0.0 
0.0 0.0 0.0 
0.0 0.0 0.0 
0.0 0.0 0.0 
0.0 0.0 0.0 
0.0 0.0 0.0 
0.0 0.0 0.0 
0.0 0.0 0.0 
0.0 0.0 0.0 
0.0 0.0 0.0 
0.0 0.0 0.0 
0.0 0.0 0.0 
0.0 0.0 0.0 
0.0 0.0 0.0 
0.0 0.0 0.0 
0.0 0.0 0.0 
0.0 0.0 0.0 
0.0 0.0 0.0 
0.0 0.0 0.0 
0.0 0.0 0.0 
0.0 0.0 0.0 
0.0 0.0 0.0 
0.0 0.0 0.0 
0.0 0.0 0.0 
0.0 0.0 0.0 
0.0 0.0 0.0 
0.0 0.0 0.0 
0.0 0.0 0.0 
0.0 0.0 0.0 
0.0 0.0 0.0 
0.0 0.0 0.0 
0.0 0.0 0.0 
0.0 0.0 0.0 
0.0 0.0 0.0 
0.0 0.0 0.0 
0.0 0.0 0.0 
0.0 0.0 0.0 
0.0 0.0 0.0 
0.0 0.0 0.0 
0.0 0.0 0.0 
0.0 0.0 0.0 
0.0 0.0 0.0 
0.0 0.0 0.0 
0.0 0.0 0.0 
0.0 0.0 0.0 
0.0 0.0 0.0 
0.0 0.0 0.0 
0.0 0.0 0.0 
0.0 0.0 0.0 
0.0 0.0 0.0 
0.0 0.0 0.0 
0.0 0.0 0.0 
0.0 0.0 0.0 
0.0 0.0 0.0 
0.0 0.0 0.0 
0.0 0.0 0.0 
0.0 0.0 0.0 
0.0 0.0 0.0 
0.0 0.0 0.0 
0.0 0.0 0.0 
0.0 0.0 0.0 
0.0 0.0 0.0 
0.0 0.0 0.0 
0.0 0.0 0.0 
0.0 0.0 0.0 
0.0 0.0 0.0 
0.0 0.0 0.0 
0.0 0.0 0.0 
0.0 0.0 0.0 
0.0 0.0 0.0 
0.0 0.0 0.0 
0.0 0.0 0.0 
0.0 0.0 0.0 
0.0 0.0 0.0 
0.0 0.0 0.0 
0.0 0.0 0.0 
0.0 0.0 0.0 
0.0 0.0 0.0 
0.0 0.0 0.0 
0.0 0.0 0.0 
0.0 0.0 0.0 
0.0 0.0 0.0 
0.0 0.0 0.0 
0.0 0.0 0.0 
0.0 0.0 0.0 
0.0 0.0 0.0 
0.0 0.0 0.0 
0.0 0.0 0.0 
0.0 0.0 0.0 
0.0 0.0 0.0 
0.0 0.0 0.0 
0.0 0.0 0.0 
0.0 0.0 0.0 
0.0 0.0 0.0 
0.0 0.0 0.0 
0.0 0.0 0.0 
0.0 0.0 0.0 
0.0 0.0 0.0 
0.0 0.0 0.0 
0.0 0.0 0.0 
0.0 0.0 0.0 
0.0 0.0 0.0 
0.0 0.0 0.0 
0.0 0.0 0.0 
0.0 0.0 0.0 
0.0 0.0 0.0 
0.0 0.0 0.0 
0.0 0.0 0.0 
0.0 0.0 0.0 
0.0 0.0 0.0 
0.0 0.0 0.0 
0.0 0.0 0.0 
0.0 0.0 0.0 
0.0 0.0 0.0 
0.0 0.0 0.0 
0.0 0.0 0.0 
0.0 0.0 0.0 
0.0 0.0 0.0 
0.0 0.0 0.0 
0.0 0.0 0.0 
0.0 0.0 0.0 
0.0 0.0 0.0 
0.0 0.0 0.0 
0.0 0.0 0.0 
0.0 0.0 0.0 
0.0 0.0 0.0 
0.0 0.0 0.0 
0.0 0.0 0.0 
0.0 0.0 0.0 
0.0 0.0 0.0 
0.0 0.0 0.0 
0.0 0.0 0.0 
0.0 0.0 0.0 
0.0 0.0 0.0 
0.0 0.0 0.0 
0.0 0.0 0.0 
0.0 0.0 0.0 
0.0 0.0 0.0 
0.0 0.0 0.0 
0.0 0.0 0.0 
0.0 0.0 0.0 
0.0 0.0 0.0 
0.0 0.0 0.0 
0.0 0.0 0.0 
0.0 0.0 0.0 
0.0 0.0 0.0 
0.0 0.0 0.0 
0.0 0.0 0.0 
0.0 0.0 0.0 
0.0 0.0 0.0 
0.0 0.0 0.0 
0.0 0.0 0.0 
0.0 0.0 0.0 
0.0 0.0 0.0 
0.0 0.0 0.0 
0.0 0.0 0.0 
0.0 0.0 0.0 
0.0 0.0 0.0 
0.0 0.0 0.0 

VECTORS node_materi_velocity float
0.0 -1.376411206694e-04 0.0 
0.0 1.491657052001e-03 0.0 
0.0 0.0 0.0 
0.0 0.0 0.0 
0.0 -1.372021224200e-04 0.0 
0.0 -1.354979512343e-04 0.0 
0.0 -1.323052401201e-04 0.0 
0.0 -1.274246918537e-04 0.0 
0.0 -1.205250580391e-04 0.0 
0.0 -1.119323360907e-04 0.0 
0.0 -1.018434137468e-04 0.0 
0.0 -9.044903092685e-05 0.0 
0.0 -7.809605895521e-05 0.0 
0.0 -6.513565183054e-05 0.0 
0.0 -5.198087259379e-05 0.0 
0.0 -3.915246099684e-05 0.0 
0.0 -2.706929482657e-05 0.0 
0.0 -1.594138744757e-05 0.0 
0.0 -6.502062172175e-06 0.0 
0.0 8.288028438103e-07 0.0 
0.0 5.646448185624e-06 0.0 
0.0 7.337851340299e-06 0.0 
0.0 5.330173740716e-06 0.0 
0.0 0.0 0.0 
0.0 0.0 0.0 
0.0 0.0 0.0 
0.0 0.0 0.0 
0.0 0.0 0.0 
0.0 0.0 0.0 
0.0 0.0 0.0 
0.0 0.0 0.0 
0.0 0.0 0.0 
0.0 0.0 0.0 
0.0 0.0 0.0 
0.0 0.0 0.0 
0.0 0.0 0.0 
0.0 0.0 0.0 
0.0 0.0 0.0 
0.0 0.0 0.0 
0.0 0.0 0.0 
0.0 0.0 0.0 
0.0 0.0 0.0 
0.0 0.0 0.0 
0.0 0.0 0.0 
0.0 0.0 0.0 
0.0 0.0 0.0 
0.0 0.0 0.0 
0.0 0.0 0.0 
0.0 0.0 0.0 
0.0 0.0 0.0 
0.0 0.0 0.0 
0.0 0.0 0.0 
0.0 0.0 0.0 
0.0 0.0 0.0 
0.0 0.0 0.0 
0.0 0.0 0.0 
0.0 0.0 0.0 
0.0 0.0 0.0 
0.0 0.0 0.0 
0.0 0.0 0.0 
0.0 0.0 0.0 
0.0 0.0 0.0 
0.0 0.0 0.0 
0.0 0.0 0.0 
0.0 0.0 0.0 
0.0 0.0 0.0 
0.0 0.0 0.0 
0.0 0.0 0.0 
0.0 0.0 0.0 
0.0 0.0 0.0 
0.0 0.0 0.0 
0.0 0.0 0.0 
0.0 1.339561123430e-03 0.0 
0.0 1.187620313637e-03 0.0 
0.0 1.036047814607e-03 0.0 
0.0 8.849759428216e-04 0.0 
0.0 7.346568736832e-04 0.0 
0.0 5.852294206127e-04 0.0 
0.0 4.368949108152e-04 0.0 
0.0 2.898225384997e-04 0.0 
0.0 1.441924121023e-04 0.0 
-3.693109312991e-04 1.126325711455e-03 0.0 
2.322032511768e-04 1.460005276429e-03 0.0 
-1.356276274854e-04 1.628271537587e-03 0.0 
5.736473652946e-05 1.876877117507e-03 0.0 
1.694805659635e-04 1.970446882273e-03 0.0 
2.360097911517e-04 1.992669518858e-03 0.0 
2.733900459699e-04 1.967061849819e-03 0.0 
2.895450485387e-04 1.906462415610e-03 0.0 
2.899045192437e-04 1.819552163344e-03 0.0 
2.785838646915e-04 1.712965418412e-03 0.0 
2.585383577574e-04 1.591757511540e-03 0.0 
0.0 2.850605552651e-03 0.0 
0.0 2.699198015434e-03 0.0 
0.0 2.549628383871e-03 0.0 
0.0 2.399802271467e-03 0.0 
0.0 2.249515110414e-03 0.0 
0.0 2.098640587817e-03 0.0 
0.0 1.947390092005e-03 0.0 
0.0 1.795691626447e-03 0.0 
0.0 1.643762192746e-03 0.0 
1.240159442367e-05 1.491737728387e-03 0.0 
2.489646912125e-05 1.491967702629e-03 0.0 
3.757238904345e-05 1.492302452892e-03 0.0 
5.052225526115e-05 1.492725301485e-03 0.0 
6.383814172526e-05 1.493073026581e-03 0.0 
7.750286311468e-05 1.493252350817e-03 0.0 
9.168730121219e-05 1.493249985676e-03 0.0 
1.064395636466e-04 1.492758348331e-03 0.0 
1.218190058987e-04 1.491791510633e-03 0.0 
1.379565822236e-04 1.490085428034e-03 0.0 
1.548804877392e-04 1.487356351103e-03 0.0 
1.727184463219e-04 1.483296350314e-03 0.0 
1.914989835828e-04 1.477680080863e-03 0.0 
2.112973362339e-04 1.470040043839e-03 0.0 
-3.298795065578e-04 8.633711238566e-04 0.0 
-2.849434622353e-04 6.677913503881e-04 0.0 
-2.417862342819e-04 5.138153871098e-04 0.0 
-2.004368372311e-04 3.905432964266e-04 0.0 
-1.666121033316e-04 2.904670003482e-04 0.0 
-1.371852442154e-04 2.080374018734e-04 0.0 
-1.110837674982e-04 1.395778558451e-04 0.0 
-8.844023785741e-05 8.279663073896e-05 0.0 
-6.901320402152e-05 3.596608016972e-05 0.0 
-5.271755382700e-05 -2.501335233697e-06 0.0 
-3.929798203191e-05 -3.435454180996e-05 0.0 
-2.833406474660e-05 -5.987894064944e-05 0.0 
-2.000471203972e-05 -8.076709747461e-05 0.0 
-1.325069405626e-05 -9.755430510859e-05 0.0 
-8.326863565295e-06 -1.108377396569e-04 0.0 
-4.956371464341e-06 -1.209284015620e-04 0.0 
-2.789381192099e-06 -1.284032560922e-04 0.0 
-1.475703439760e-06 -1.336360262366e-04 0.0 
-6.106369535427e-07 -1.365152582921e-04 0.0 
1.515142351114e-05 2.850483377911e-03 0.0 
2.554962218889e-05 2.852167715697e-03 0.0 
3.252389674496e-05 2.853634829785e-03 0.0 
4.046266644871e-05 2.853944343567e-03 0.0 
4.872108673827e-05 2.854078458020e-03 0.0 
5.685004876521e-05 2.854126184365e-03 0.0 
6.456181640225e-05 2.853977801462e-03 0.0 
7.165073233684e-05 2.853467787501e-03 0.0 
7.795048999500e-05 2.852400106588e-03 0.0 
8.331097792243e-05 2.850548456852e-03 0.0 
8.758552085739e-05 2.847650531670e-03 0.0 
9.062377423691e-05 2.843400327435e-03 0.0 
9.226837910267e-05 2.837438436074e-03 0.0 
9.235496980809e-05 2.829342166443e-03 0.0 
9.071493947553e-05 2.818613675017e-03 0.0 
8.717863863178e-05 2.804671371130e-03 0.0 
8.157986607049e-05 2.786827173653e-03 0.0 
7.376052153087e-05 2.764285108854e-03 0.0 
6.357927900980e-05 2.736079205080e-03 0.0 
5.092042694054e-05 2.701127768705e-03 0.0 
3.570757924001e-05 2.658001752791e-03 0.0 
1.793937773454e-05 2.605261449928e-03 0.0 
-2.330359462936e-06 2.540561798057e-03 0.0 
-2.482805732344e-05 2.462208787416e-03 0.0 
-4.935617065262e-05 2.365596577978e-03 0.0 
-7.471535183567e-05 2.248335769550e-03 0.0 
-9.932291190767e-05 2.100792745118e-03 0.0 
-1.409637244550e-04 1.912219880384e-03 0.0 
5.442675269362e-05 2.045948722641e-03 0.0 
5.768050085959e-05 2.178561001209e-03 0.0 
6.311442721597e-05 2.285043533860e-03 0.0 
7.011118099466e-05 2.371678689520e-03 0.0 
7.770786104350e-05 2.442090148990e-03 0.0 
8.500511297292e-05 2.499373857747e-03 0.0 
9.156401059542e-05 2.545782793951e-03 0.0 
9.704303706493e-05 2.583210625921e-03 0.0 
1.012662354461e-04 2.613178161489e-03 0.0 
1.041313700879e-04 2.636965813055e-03 0.0 
1.056148341342e-04 2.655639691190e-03 0.0 
1.057347964651e-04 2.670099115551e-03 0.0 
1.045439029411e-04 2.681104077355e-03 0.0 
1.021160124499e-04 2.689298937344e-03 0.0 
9.854011509288e-05 2.695230089768e-03 0.0 
9.391396263772e-05 2.699360276968e-03 0.0 
8.834038703957e-05 2.702080905604e-03 0.0 
8.192490783168e-05 2.703723698910e-03 0.0 
7.477477397969e-05 2.704571258126e-03 0.0 
6.699862430362e-05 2.704865314243e-03 0.0 
5.870540927031e-05 2.704811168396e-03 0.0 
4.999889061886e-05 2.704573163285e-03 0.0 
4.095933671846e-05 2.704243884793e-03 0.0 
3.159523583677e-05 2.703736988904e-03 0.0 
2.174629333947e-05 2.702537265589e-03 0.0 
1.105909930870e-05 2.700278879797e-03 0.0 
1.588880032467e-04 2.088059667884e-03 0.0 
1.523197061801e-04 2.182786737932e-03 0.0 
1.472299116670e-04 2.260092119665e-03 0.0 
1.437430299447e-04 2.323245519616e-03 0.0 
1.410853397452e-04 2.374548251134e-03 0.0 
1.388241782982e-04 2.416129556639e-03 0.0 
1.365541789269e-04 2.449572385698e-03 0.0 
1.340223266489e-04 2.476276864483e-03 0.0 
1.310477094188e-04 2.497386443411e-03 0.0 
1.275183260095e-04 2.513870803262e-03 0.0 
1.233675659494e-04 2.526543866278e-03 0.0 
1.185663715909e-04 2.536098261938e-03 0.0 
1.131128671111e-04 2.543121444806e-03 0.0 
1.070255758426e-04 2.548112505196e-03 0.0 
1.003376718394e-04 2.551494602565e-03 0.0 
9.309281122477e-05 2.553626429144e-03 0.0 
8.534154859486e-05 2.554812115893e-03 0.0 
7.713789138931e-05 2.555309590350e-03 0.0 
6.853493809825e-05 2.555335698908e-03 0.0 
5.957780798395e-05 2.555065475197e-03 0.0 
5.029194258271e-05 2.554620029617e-03 0.0 
4.066946996307e-05 2.554033343767e-03 0.0 
3.068093323881e-05 2.553196663493e-03 0.0 
2.040887034304e-05 2.551881934839e-03 0.0 
1.017614060710e-05 2.550316037858e-03 0.0 
1.045118755513e-05 2.400283101104e-03 0.0 
2.121476452219e-05 2.401391861753e-03 0.0 
3.200485395158e-05 2.402568911329e-03 0.0 
4.265449372943e-05 2.403525450865e-03 0.0 
5.309845430758e-05 2.404291028798e-03 0.0 
6.332883426156e-05 2.404896550231e-03 0.0 
7.334847406525e-05 2.405291531809e-03 0.0 
8.315403685662e-05 2.405351854471e-03 0.0 
9.273506429679e-05 2.404895996057e-03 0.0 
1.020780871317e-04 2.403693127684e-03 0.0 
1.111714011256e-04 2.401463292233e-03 0.0 
1.200096168950e-04 2.397871994347e-03 0.0 
1.285978971472e-04 2.392521311343e-03 0.0 
1.369569844894e-04 2.384939344721e-03 0.0 
1.451277789085e-04 2.374567139996e-03 0.0 
1.531793922038e-04 2.360744901811e-03 0.0 
1.612129020988e-04 2.342690865965e-03 0.0 
1.693787346500e-04 2.319489147396e-03 0.0 
1.778635908875e-04 2.290033825686e-03 0.0 
1.869445533619e-04 2.253043438242e-03 0.0 
1.969119296142e-04 2.206858619870e-03 0.0 
2.082884876049e-04 2.149891808600e-03 0.0 
2.208173210869e-04 2.079699909649e-03 0.0 
2.553165084311e-04 2.029065261578e-03 0.0 
2.393245348029e-04 2.079433205391e-03 0.0 
2.242454408650e-04 2.120156238276e-03 0.0 
2.103523837012e-04 2.153009752710e-03 0.0 
1.973503219246e-04 2.179154739943e-03 0.0 
1.850680913758e-04 2.199786547855e-03 0.0 
1.733141723781e-04 2.215813713122e-03 0.0 
1.619505295285e-04 2.228064076483e-03 0.0 
1.508617387064e-04 2.237222608960e-03 0.0 
1.399613762558e-04 2.243881739059e-03 0.0 
1.291829778417e-04 2.248540447344e-03 0.0 
1.184777015482e-04 2.251623295126e-03 0.0 
1.078089511985e-04 2.253487418112e-03 0.0 
9.714933860822e-05 2.254432759539e-03 0.0 
8.647735853662e-05 2.254708623004e-03 0.0 
7.577404891899e-05 2.254517846653e-03 0.0 
6.502046079530e-05 2.254017044025e-03 0.0 
5.419850551964e-05 2.253314752916e-03 0.0 
4.330165845415e-05 2.252473742097e-03 0.0 
3.236035604492e-05 2.251530717621e-03 0.0 
2.146476795812e-05 2.250558125506e-03 0.0 
1.071137159949e-05 2.249729943167e-03 0.0 
1.135728510287e-05 2.098918840832e-03 0.0 
2.284342609014e-05 2.099497023475e-03 0.0 
3.444448782175e-05 2.100334576489e-03 0.0 
4.613350591513e-05 2.101226215992e-03 0.0 
5.788732155071e-05 2.102063197849e-03 0.0 
6.970640775448e-05 2.102766118203e-03 0.0 
8.161092398771e-05 2.103241500187e-03 0.0 
9.363287584457e-05 2.103359964845e-03 0.0 
1.058106905573e-04 2.102946165113e-03 0.0 
1.181874714392e-04 2.101776682722e-03 0.0 
1.308130641861e-04 2.099576811335e-03 0.0 
1.437452540710e-04 2.096015102431e-03 0.0 
1.570509082813e-04 2.090696543228e-03 0.0 
1.708064544572e-04 2.083147891261e-03 0.0 
1.851088953832e-04 2.072814223796e-03 0.0 
2.000638855425e-04 2.059031274726e-03 0.0 
2.158174022314e-04 2.041047236568e-03 0.0 
2.324938569531e-04 2.017915739154e-03 0.0 
2.503067225672e-04 1.988738902105e-03 0.0 
2.690488951254e-04 1.952179313381e-03 0.0 
2.688231584769e-04 1.851353560459e-03 0.0 
2.492291932926e-04 1.876672561098e-03 0.0 
2.304576869526e-04 1.896716942260e-03 0.0 
2.127278912744e-04 1.912441884246e-03 0.0 
1.958862293975e-04 1.924490467903e-03 0.0 
1.798551960530e-04 1.933566613962e-03 0.0 
1.645307492339e-04 1.940205279444e-03 0.0 
1.498352156943e-04 1.944899868746e-03 0.0 
1.356897231735e-04 1.948050327721e-03 0.0 
1.220205005432e-04 1.949997469124e-03 0.0 
1.087578905712e-04 1.951029100961e-03 0.0 
9.584240720315e-05 1.951386872477e-03 0.0 
8.322041849355e-05 1.951266203280e-03 0.0 
7.084026010130e-05 1.950822220123e-03 0.0 
5.866245850054e-05 1.950177279948e-03 0.0 
4.665719397697e-05 1.949428768945e-03 0.0 
3.480851685581e-05 1.948667580245e-03 0.0 
2.311155720827e-05 1.947995818286e-03 0.0 
1.154114560822e-05 1.947491881058e-03 0.0 
1.215107537766e-05 1.795865061081e-03 0.0 
2.438283697871e-05 1.796227314753e-03 0.0 
3.676279245337e-05 1.796800174646e-03 0.0 
4.933376370978e-05 1.797466760803e-03 0.0 
6.213790230041e-05 1.798111966174e-03 0.0 
7.522769683116e-05 1.798631348129e-03 0.0 
8.864333400404e-05 1.798922242871e-03 0.0 
1.024550829814e-04 1.798831127600e-03 0.0 
1.167272474273e-04 1.798193442416e-03 0.0 
1.315235219806e-04 1.796793035759e-03 0.0 
1.469262072516e-04 1.794352093410e-03 0.0 
1.630218733832e-04 1.790559220493e-03 0.0 
1.798961254711e-04 1.785043328437e-03 0.0 
1.976334612844e-04 1.777380682121e-03 0.0 
2.162939700585e-04 1.766998458946e-03 0.0 
2.359835614557e-04 1.753379994577e-03 0.0 
2.565721289103e-04 1.735701770186e-03 0.0 
2.373754990472e-04 1.606872972861e-03 0.0 
2.175344272242e-04 1.618389286347e-03 0.0 
1.984572086303e-04 1.627173570254e-03 0.0 
1.803623103958e-04 1.633780106101e-03 0.0 
1.631564415174e-04 1.638579591350e-03 0.0 
1.467807612736e-04 1.641921439348e-03 0.0 
1.311448053018e-04 1.644099714689e-03 0.0 
1.161654886530e-04 1.645373874446e-03 0.0 
1.017712332522e-04 1.646007345487e-03 0.0 
8.791059520825e-05 1.646172452141e-03 0.0 
7.448712001134e-05 1.645972476278e-03 0.0 
6.145728527684e-05 1.645601906520e-03 0.0 
4.875182998930e-05 1.645099617550e-03 0.0 
3.631384728872e-05 1.644575986469e-03 0.0 
2.409922521435e-05 1.644144344881e-03 0.0 
1.203380025962e-05 1.643842915941e-03 0.0 
-2.561840327250e-04 1.383768400894e-03 0.0 
-2.169164446092e-05 1.778671371860e-03 0.0 
1.217747760581e-04 1.934067965591e-03 0.0 
2.078552987042e-04 1.988569413003e-03 0.0 
2.584401540069e-04 1.984806508296e-03 0.0 
2.840125610904e-04 1.940253805170e-03 0.0 
2.915727819018e-04 1.865734108720e-03 0.0 
2.855700542998e-04 1.768327929708e-03 0.0 
2.695486516705e-04 1.653869102394e-03 0.0 
2.460082548568e-04 1.526956286629e-03 0.0 
1.337723248659e-04 1.659772697402e-03 0.0 
8.156304100971e-05 4.130390564148e-05 0.0 
-2.509181728794e-05 1.116621168001e-05 0.0 
-9.792944744992e-05 3.319457737427e-04 0.0 
5.946102447174e-05 2.120853774859e-05 0.0 
2.825526685287e-04 1.858071848363e-03 0.0 
2.212391685264e-05 -5.769445842862e-05 0.0 
8.967686989508e-05 6.241598560148e-05 0.0 
3.235971425507e-04 1.802434121355e-03 0.0 
8.261909306328e-05 8.106527882996e-05 0.0 
3.047859792348e-04 1.630285165604e-03 0.0 
3.520292585007e-05 1.073072109635e-05 0.0 
-4.341058624568e-07 -9.292931125745e-05 0.0 
6.938534815280e-05 9.960840619249e-05 0.0 
2.512514399632e-04 1.387978595069e-03 0.0 
1.561319263852e-05 -1.061312608102e-04 0.0 
2.262118460568e-05 -2.295651414333e-05 0.0 
5.859091509040e-05 1.134908506164e-04 0.0 
3.869180326716e-05 1.161100414078e-04 0.0 
1.124433115873e-05 1.227766393905e-04 0.0 
2.058654372337e-05 1.321875343169e-04 0.0 
2.724041369644e-05 1.166196965172e-04 0.0 
2.012687728840e-04 1.338221915374e-03 0.0 
1.298225909738e-04 1.352691431627e-03 0.0 
8.416910638935e-05 1.351395249451e-03 0.0 
7.838705912442e-06 8.073872022227e-04 0.0 
2.203773473557e-05 7.383480752645e-06 0.0 
-1.493655966811e-04 7.609030756970e-04 0.0 
3.681185656264e-06 -1.252779006402e-04 0.0 
1.555615552469e-05 3.565792425524e-06 0.0 
4.288782045520e-05 1.361144171886e-03 0.0 
8.745318826754e-06 -1.295614283891e-04 0.0 
5.403022036216e-05 1.307480286907e-04 0.0 
8.073338985367e-05 6.646396408724e-05 0.0 
7.585724400651e-05 8.979102384143e-05 0.0 
9.243754310261e-05 5.512273728580e-05 0.0 
7.025102161675e-05 3.058656780411e-05 0.0 
-6.114220080737e-05 1.646271774349e-04 0.0 
1.639177985160e-04 1.356199286988e-03 0.0 
5.557604819004e-05 1.775329920067e-05 0.0 
5.868776862754e-06 5.172454888956e-04 0.0 
-9.264897935141e-06 -5.089965323838e-05 0.0 
2.003033953915e-05 -8.373907926280e-05 0.0 
5.712939259367e-06 9.981776313905e-05 0.0 
3.144433554856e-04 1.843268326599e-03 0.0 
2.260815648179e-04 1.808623721323e-03 0.0 
3.198693734015e-04 1.728115991556e-03 0.0 
2.811420816600e-04 1.515530608879e-03 0.0 
-4.559325809414e-05 1.330071415423e-03 0.0 
9.640186207377e-06 1.093641959136e-03 0.0 
1.005707024433e-05 4.677600667384e-06 0.0 
1.968100036893e-06 -1.352185425517e-04 0.0 
3.182802661958e-06 2.275835695960e-04 0.0 
2.380467857674e-04 1.318271118101e-03 0.0 
2.528347047126e-04 1.246942683645e-03 0.0 
2.303626184565e-04 1.188606013405e-03 0.0 
2.476973803503e-04 1.107063007024e-03 0.0 
2.258713333260e-04 1.036240688244e-03 0.0 
2.384387778363e-04 9.640740479404e-04 0.0 
2.627006770479e-04 1.031617360654e-03 0.0 
2.498869112020e-04 8.911677633297e-04 0.0 
2.763041702281e-04 9.566222854346e-04 0.0 
2.139235779327e-04 8.926527350494e-04 0.0 
2.594962893185e-04 8.177944305259e-04 0.0 
2.880832012129e-04 8.808473612824e-04 0.0 
2.669664215831e-04 7.445211401026e-04 0.0 
2.975130500021e-04 8.046066240395e-04 0.0 
3.162313786701e-04 9.405810989466e-04 0.0 
3.276327788172e-04 8.615351884536e-04 0.0 
3.434902420193e-04 9.960323302333e-04 0.0 
3.568024180799e-04 9.135778556470e-04 0.0 
3.361811526161e-04 7.828617619258e-04 0.0 
3.670586075355e-04 8.314628955008e-04 0.0 
3.846493325140e-04 9.602237402864e-04 0.0 
3.963881540367e-04 8.741289349442e-04 0.0 
4.107543089497e-04 1.000484064022e-03 0.0 
4.237230214494e-04 9.096072015105e-04 0.0 
4.349350576171e-04 1.033701337233e-03 0.0 
4.487728048100e-04 9.375076264835e-04 0.0 
4.325472649178e-04 8.196656873768e-04 0.0 
4.581208440353e-04 8.428059167350e-04 0.0 
4.709215110224e-04 9.567621142642e-04 0.0 
4.804310620134e-04 8.569078769719e-04 0.0 
4.896699397512e-04 9.664230502792e-04 0.0 
4.988848417534e-04 8.610132960953e-04 0.0 
4.845445121906e-04 7.599065813531e-04 0.0 
5.022760739416e-04 7.595249773977e-04 0.0 
5.128472316069e-04 8.544248960636e-04 0.0 
5.149412223023e-04 7.487181686034e-04 0.0 
5.214894791791e-04 8.364080665062e-04 0.0 
5.217796444109e-04 7.270475088729e-04 0.0 
5.239513922601e-04 8.062894732016e-04 0.0 
5.220000826968e-04 6.941678946896e-04 0.0 
5.157902666184e-04 6.250628102984e-04 0.0 
5.138478415103e-04 5.908412935620e-04 0.0 
5.147271246820e-04 6.505660833331e-04 0.0 
5.043954324339e-04 5.477112867205e-04 0.0 
5.002398657804e-04 4.979768581751e-04 0.0 
4.890891685703e-04 4.567708962648e-04 0.0 
4.819837371077e-04 4.157126539540e-04 0.0 
4.696678928811e-04 3.772767850179e-04 0.0 
4.706967219915e-04 4.096459839041e-04 0.0 
4.505752689185e-04 3.340672019359e-04 0.0 
4.469164931873e-04 3.085953971623e-04 0.0 
4.276078943485e-04 2.695923169378e-04 0.0 
4.251280730735e-04 2.876433894251e-04 0.0 
4.027427115991e-04 2.283336417246e-04 0.0 
4.025138337982e-04 2.152287984915e-04 0.0 
3.783894045056e-04 1.786624659255e-04 0.0 
3.731558656563e-04 1.862167893210e-04 0.0 
3.502145195941e-04 1.417609935341e-04 0.0 
3.527209363108e-04 1.376820502019e-04 0.0 
3.258958158997e-04 1.052700301513e-04 0.0 
3.188353942948e-04 1.054275517271e-04 0.0 
2.964690090714e-04 7.369427917513e-05 0.0 
3.006363441953e-04 7.584237716297e-05 0.0 
2.729305032544e-04 4.820297565188e-05 0.0 
2.744634822521e-04 5.230874974461e-05 0.0 
2.648012106154e-04 4.310471676968e-05 0.0 
2.435228134647e-04 2.173272665555e-05 0.0 
2.321467826815e-04 1.445137931390e-05 0.0 
2.133024712638e-04 -3.064497713146e-06 0.0 
4.830794449284e-04 6.670082284267e-04 0.0 
1.999525357126e-04 -1.149991842743e-05 0.0 
2.153510863226e-04 7.374779645146e-06 0.0 
1.832170932272e-04 -2.578199459221e-05 0.0 
1.930732515734e-04 -1.639550426695e-05 0.0 
1.686033070583e-04 -3.490773752114e-05 0.0 
1.539112878304e-04 -4.628453476831e-05 0.0 
1.388483627693e-04 -5.561341526884e-05 0.0 
5.188505655723e-04 9.298283085327e-04 0.0 
3.412872021365e-04 7.049190382346e-04 0.0 
1.260397454631e-04 -6.445632144911e-05 0.0 
1.113215723944e-04 -7.359853039712e-05 0.0 
1.200904940061e-04 -6.386922971582e-05 0.0 
9.368066168864e-05 -8.137737402555e-05 0.0 
2.029812786297e-04 9.648404374739e-04 0.0 
1.892511529566e-04 8.194180055351e-04 0.0 
1.803014618398e-04 8.913184416895e-04 0.0 
1.647526922776e-04 7.453567611569e-04 0.0 
1.576918314223e-04 8.156023782746e-04 0.0 
8.642386299572e-05 -8.897150799268e-05 0.0 
2.362197212476e-04 6.778122580638e-04 0.0 
1.701581149869e-04 6.742452575980e-04 0.0 
3.942086552389e-04 1.091636635702e-03 0.0 
4.749397902583e-04 1.074237938926e-03 0.0 
4.872156988046e-04 4.478410371332e-04 0.0 
1.374505281589e-04 -5.432727128697e-05 0.0 
1.112260938077e-04 -7.036134848260e-05 0.0 
1.194132226775e-04 -5.950940784767e-05 0.0 
2.979360239308e-04 7.684035934748e-05 0.0 
2.694860607042e-04 5.517191862206e-05 0.0 
2.882772742454e-04 7.630648424703e-05 0.0 
2.580670037180e-04 5.652662730667e-05 0.0 
2.717436207803e-04 7.402905547625e-05 0.0 
2.402963821725e-04 5.613224669669e-05 0.0 
2.279183552799e-04 4.110192261982e-05 0.0 
2.093058540675e-04 4.222121356954e-05 0.0 
1.981511981263e-04 2.935895418595e-05 0.0 
2.484230945303e-04 6.978282921885e-05 0.0 
2.810412905038e-04 9.004737443446e-05 0.0 
1.791267004255e-04 3.162984605708e-05 0.0 
1.690824749596e-04 2.067176956482e-05 0.0 
1.501039278293e-04 2.374141497619e-05 0.0 
1.410502465499e-04 1.449973537173e-05 0.0 
1.555261674726e-04 8.889104471790e-06 0.0 
1.284614753462e-04 4.433782397853e-06 0.0 
1.390913198744e-04 -3.291704857837e-06 0.0 
4.660984361144e-04 3.736060542535e-04 0.0 
4.655004557610e-04 3.972495192624e-04 0.0 
4.415762433817e-04 3.305947170447e-04 0.0 
4.350895500663e-04 3.461351994868e-04 0.0 
4.083905001096e-04 2.867203615413e-04 0.0 
3.958893656476e-04 2.945772791986e-04 0.0 
3.663716183937e-04 2.420448267830e-04 0.0 
3.786905467070e-04 2.351255175870e-04 0.0 
2.721803192041e-04 6.707270151145e-04 0.0 
4.992552418894e-04 5.968847881202e-04 0.0 
5.060848845072e-04 7.104870545973e-04 0.0 
4.840952735773e-04 6.453760731380e-04 0.0 
4.870860454572e-04 7.701388163011e-04 0.0 
4.578159642279e-04 6.923344718901e-04 0.0 
4.564596000493e-04 8.296192420934e-04 0.0 
4.186580588683e-04 7.377142978465e-04 0.0 
4.185508037577e-04 6.062788202401e-04 0.0 
3.697737155723e-04 6.379983744113e-04 0.0 
3.701018702609e-04 5.164086881082e-04 0.0 
3.117430754967e-04 5.361226058420e-04 0.0 
3.145326786693e-04 4.274497570590e-04 0.0 
4.367621222604e-04 7.317688346774e-04 0.0 
4.220160702388e-04 3.545350802658e-04 0.0 
3.769450133011e-04 2.954672468463e-04 0.0 
4.026115117789e-04 3.551050941838e-04 0.0 
9.811484900697e-05 -7.067591928232e-05 0.0 
1.143527332417e-04 1.038020384970e-05 0.0 
2.516271161164e-04 8.138729227648e-05 0.0 
2.854524652439e-04 1.038565238139e-04 0.0 
3.342207655486e-04 1.966130417175e-04 0.0 
7.052991273722e-05 -9.602853239798e-05 0.0 
4.122958673302e-04 8.891408047211e-04 0.0 
4.470713403840e-04 9.838503897635e-04 0.0 
1.409146922447e-04 6.691776517190e-04 0.0 
1.357058103738e-04 7.384709087795e-04 0.0 
2.493087976601e-04 9.024137442016e-05 0.0 
6.444172549413e-05 -1.019214048755e-04 0.0 
1.849972312612e-04 4.125669214200e-05 0.0 
3.039371965603e-04 6.665385381855e-04 0.0 
1.025390190920e-04 1.861383443757e-06 0.0 
8.928740716888e-05 7.907906319259e-06 0.0 
2.120016543828e-04 2.531415975819e-05 0.0 
3.517942210098e-04 2.889448406919e-04 0.0 
3.781454593601e-04 3.487288608798e-04 0.0 
3.665896139564e-04 4.138954043885e-04 0.0 
3.138942128329e-04 3.365058633547e-04 0.0 
2.551307420398e-04 3.433119520578e-04 0.0 
2.601944399204e-04 2.620078214986e-04 0.0 
3.103295556321e-04 2.598922720517e-04 0.0 
2.596507554229e-04 1.973371915550e-04 0.0 
2.062237393433e-04 1.963970373886e-04 0.0 
2.100058369223e-04 1.410314833162e-04 0.0 
2.564385080015e-04 1.428990067126e-04 0.0 
2.107780863471e-04 9.455214898229e-05 0.0 
1.632323549901e-04 9.182025869662e-05 0.0 
1.679271228027e-04 5.225412346055e-05 0.0 
9.689428023141e-05 1.413967932837e-05 0.0 
2.352209075052e-04 5.526102837242e-04 0.0 
3.276637444489e-04 1.077939873822e-03 0.0 
2.150607882797e-04 7.047663143676e-05 0.0 
3.160358964781e-04 1.974102685615e-04 0.0 
1.180382422196e-04 5.918551442601e-04 0.0 
1.145699261438e-04 6.602595219774e-04 0.0 
1.290377981979e-04 8.084667707737e-04 0.0 
1.095110223879e-04 7.290094218796e-04 0.0 
9.453686088562e-05 5.811834674971e-04 0.0 
9.103081318460e-05 6.491818109027e-04 0.0 
1.031512278238e-04 7.980749881245e-04 0.0 
8.607730462420e-05 7.173890817207e-04 0.0 
9.570051674273e-05 8.671522735772e-04 0.0 
7.990189026304e-05 7.856446442684e-04 0.0 
7.010833970796e-05 6.363772570452e-04 0.0 
6.511409011777e-05 7.041022295032e-04 0.0 
7.272069227259e-05 8.539959622931e-04 0.0 
5.898863878315e-05 7.719290949967e-04 0.0 
6.471103334408e-05 9.222824860777e-04 0.0 
5.189711484434e-05 8.397802367862e-04 0.0 
4.631143010135e-05 6.899492230580e-04 0.0 
5.157043499408e-05 -1.077825572420e-04 0.0 
3.467123989196e-04 1.909584763524e-04 0.0 
3.000791228080e-04 1.578917096583e-04 0.0 
9.533984695493e-05 -7.345184589737e-05 0.0 
1.008396440662e-04 -6.190505431423e-05 0.0 
1.246305469746e-04 -4.807368974429e-05 0.0 
1.029000249862e-04 -5.028567916431e-05 0.0 
3.988453310179e-05 7.580842950759e-04 0.0 
3.485035098867e-05 6.082904464011e-04 0.0 
3.975231260776e-04 1.059890355069e-03 0.0 
4.280336941591e-04 1.153162804002e-03 0.0 
1.196022653759e-04 5.238317908414e-04 0.0 
7.802859764884e-05 7.536770000613e-07 0.0 
8.775859019674e-05 -7.165093419907e-06 0.0 
4.900189987160e-04 1.079236369112e-03 0.0 
4.700956974036e-04 1.194664516502e-03 0.0 
4.811362647114e-04 1.195737953640e-03 0.0 
4.556328068911e-04 1.320963273068e-03 0.0 
4.454930071941e-04 1.309997510128e-03 0.0 
4.620016113456e-04 1.318733832879e-03 0.0 
3.140029937215e-04 1.153250060942e-04 0.0 
5.542987061917e-05 5.553637953546e-04 0.0 
1.261905932840e-04 -5.062086370333e-05 0.0 
9.928052853484e-05 -5.652956356251e-05 0.0 
6.616956116482e-05 6.576283819898e-06 0.0 
3.844868786891e-04 2.224786223181e-04 0.0 
4.076984978730e-04 7.045218320255e-04 0.0 
4.066401274731e-04 6.229371692699e-04 0.0 
3.739623082089e-04 5.915378123247e-04 0.0 
3.675019872680e-04 5.163179839685e-04 0.0 
3.311374784623e-04 4.807530012886e-04 0.0 
3.188461126155e-04 4.119347482260e-04 0.0 
3.561859377108e-04 4.448792852008e-04 0.0 
3.205938679910e-04 2.744885045429e-04 0.0 
3.015852130897e-04 3.470273013499e-04 0.0 
4.469503826193e-05 9.090119015604e-04 0.0 
4.445171002978e-04 4.223027826346e-04 0.0 
2.503242641500e-04 9.791790971051e-05 0.0 
5.415094316267e-05 -1.006259872661e-04 0.0 
1.199291166854e-04 4.969453613680e-05 0.0 
4.572632761041e-05 -1.123473204303e-04 0.0 
5.571277496150e-05 -1.052303417088e-04 0.0 
2.056987167055e-04 7.442169906285e-05 0.0 
2.788164907507e-04 3.722035836271e-04 0.0 
2.925339893109e-04 4.386013389617e-04 0.0 
4.255240376474e-04 1.443965474078e-03 0.0 
4.171619701757e-04 1.423133581293e-03 0.0 
2.911131076278e-04 2.230127269390e-04 0.0 
1.700163072248e-04 9.644872388629e-04 0.0 
1.123180763752e-04 9.484529379195e-04 0.0 
1.026884675941e-04 1.018107907350e-03 0.0 
3.505852584768e-05 -1.172259735793e-04 0.0 
1.100610604657e-04 9.095845628706e-05 0.0 
7.590272184345e-05 5.017472790191e-04 0.0 
4.696625242980e-04 1.062937572303e-03 0.0 
4.473260264980e-04 1.225091697922e-03 0.0 
2.169635712009e-04 6.907394359411e-04 0.0 
1.366796604877e-04 5.658872884900e-04 0.0 
2.950374164784e-05 6.743897297188e-04 0.0 
2.495384373799e-05 5.266663524912e-04 0.0 
1.264277087363e-04 -3.664686803902e-05 0.0 
1.029067875282e-04 -3.842504975470e-05 0.0 
2.408821014405e-04 9.566594843004e-05 0.0 
1.291402870434e-04 1.574024027353e-05 0.0 
2.843359523728e-05 4.600006231369e-04 0.0 
3.526134008577e-04 1.799134089424e-04 0.0 
3.838109503475e-04 2.047369880454e-04 0.0 
7.936296492377e-05 -6.291590404863e-05 0.0 
3.714382541834e-04 1.247411680638e-03 0.0 
3.315486111447e-04 1.137704371580e-03 0.0 
2.936641641637e-04 1.442599234418e-04 0.0 
1.686552352367e-04 1.985982075063e-05 0.0 
3.771769910200e-05 -1.145391996075e-04 0.0 
1.897612642257e-04 7.449689617235e-05 0.0 
7.621445121075e-05 4.348921552971e-04 0.0 
3.396635920801e-04 3.782218740358e-04 0.0 
3.899690912665e-04 4.710394479377e-04 0.0 
2.795196532207e-04 2.869091112019e-04 0.0 
8.513857159559e-05 1.363173474562e-05 0.0 
1.712772610234e-04 5.707821941812e-05 0.0 
5.526986956362e-05 7.710919949579e-07 0.0 
2.389758333513e-04 3.316717547894e-04 0.0 
2.520185228994e-04 3.908863962655e-04 0.0 
4.823778979074e-04 1.124142032463e-03 0.0 
4.585114099733e-04 1.276068342299e-03 0.0 
4.157846377101e-04 1.392129192625e-03 0.0 
4.262850731737e-04 1.429951787444e-03 0.0 
2.865154341644e-04 1.097136868231e-03 0.0 
4.876738284192e-04 1.166814569394e-03 0.0 
3.518421741582e-04 1.132119073262e-03 0.0 
3.323163813221e-04 1.216263893109e-03 0.0 
3.529842994890e-04 1.269329223518e-03 0.0 
4.319713968658e-04 1.290684234653e-03 0.0 
4.049940846493e-04 1.395586392848e-03 0.0 
5.062670132917e-04 8.373944735401e-04 0.0 
4.854499720065e-04 4.727826249244e-04 0.0 
1.494479239262e-04 -3.264968799393e-05 0.0 
1.659476561361e-04 1.675812591376e-06 0.0 
3.182265423110e-04 1.012242513699e-04 0.0 
5.793494632152e-05 4.884221833580e-04 0.0 
4.368600256659e-05 4.079657958677e-04 0.0 
7.831202048909e-05 1.004863308585e-03 0.0 
6.871241386860e-05 1.073479562110e-03 0.0 
7.367216776907e-05 -7.566479996191e-05 0.0 
7.006186306615e-05 -6.017532311861e-05 0.0 
2.476772075930e-04 3.385677555319e-05 0.0 
1.816754842294e-04 5.465098212545e-05 0.0 
9.620916516344e-05 4.466541888131e-04 0.0 
9.368541673639e-05 3.800302904229e-04 0.0 
1.189063626810e-04 4.561044414824e-04 0.0 
2.258197557512e-04 9.698666524032e-05 0.0 
4.754702980203e-04 5.356408212418e-04 0.0 
4.414284680998e-04 3.087991988986e-04 0.0 
1.637057335957e-04 4.489648684062e-04 0.0 
4.616776130841e-04 6.616390072905e-04 0.0 
4.773614043129e-05 -7.842862640466e-05 0.0 
3.078228532713e-04 6.549339879145e-04 0.0 
4.540615909861e-05 6.176516172777e-06 0.0 
5.230983370123e-05 9.871347500589e-06 0.0 
2.541141110134e-04 2.026777432547e-04 0.0 
2.713077973798e-04 1.313567515493e-03 0.0 
4.553593289567e-04 5.768783020947e-04 0.0 
4.761395931974e-04 5.797550310320e-04 0.0 
3.304896612254e-04 1.354669099518e-03 0.0 
3.474010823158e-04 1.406814896454e-03 0.0 
3.718594862451e-04 1.317117850537e-03 0.0 
3.621888280874e-04 1.454781403200e-03 0.0 
2.815550745614e-04 1.012975293995e-04 0.0 
2.413930237355e-04 6.134365366958e-05 0.0 
2.141553602683e-04 2.629884345878e-04 0.0 
2.390831707519e-04 2.540857559940e-04 0.0 
1.974096653148e-04 2.835630655638e-04 0.0 
2.104658993711e-04 3.375245177849e-04 0.0 
2.201435973120e-04 1.575886420099e-04 0.0 
2.580797587331e-04 1.772909528750e-04 0.0 
4.451125180685e-05 -1.064556607907e-04 0.0 
3.867982814578e-04 1.530249056782e-03 0.0 
5.776163569787e-05 3.557721330705e-04 0.0 
3.119733777472e-04 1.299045020282e-03 0.0 
1.392954913269e-04 4.346753720018e-05 0.0 
1.497776556176e-04 4.184697141469e-05 0.0 
5.977393739411e-05 4.583207487906e-04 0.0 
9.443084343975e-05 3.456606880262e-04 0.0 
1.937928920388e-05 3.822268268925e-04 0.0 
3.773282372379e-04 1.554390866457e-03 0.0 
3.882521173524e-04 1.579144014126e-03 0.0 
3.602157731530e-04 1.509202205487e-03 0.0 
6.976345052527e-06 7.283301357825e-06 0.0 
1.848744529071e-05 1.362710268449e-03 0.0 
3.405986526130e-05 8.847265026854e-06 0.0 
4.148101841451e-04 1.261665983396e-03 0.0 
2.074678744422e-05 3.105159336048e-04 0.0 
4.437854765035e-04 4.985810362598e-04 0.0 
5.009331988089e-04 1.074621341757e-03 0.0 
2.763508543583e-04 1.217769704455e-04 0.0 
1.591371890066e-05 4.605649912408e-04 0.0 
1.163666215659e-05 2.985922726332e-04 0.0 
1.182707854780e-04 1.097381744390e-03 0.0 
1.071805952541e-04 1.169946030489e-03 0.0 
1.295746368221e-04 1.029236884444e-03 0.0 
2.919052746205e-04 8.227950606059e-04 0.0 
1.851024789481e-04 8.818900692291e-04 0.0 
4.221639496715e-05 4.744339693039e-04 0.0 
8.684337870502e-05 -8.436008654989e-05 0.0 
7.101085209002e-05 -8.537861629487e-05 0.0 
1.313342788888e-04 -1.139823787846e-05 0.0 
1.650401996226e-04 -6.303798511679e-06 0.0 
1.497876184643e-04 -2.202653987745e-05 0.0 
1.742242738876e-04 -1.599981986791e-05 0.0 
3.071808018586e-04 5.806363364837e-04 0.0 
2.712198193562e-04 5.295086934989e-04 0.0 
3.758877131502e-04 6.702001119164e-04 0.0 
3.521516786287e-04 1.643996422188e-04 0.0 
3.769686345062e-04 1.829301151685e-04 0.0 
4.068327811502e-04 2.282138778284e-04 0.0 
4.397185167271e-05 3.465573955278e-04 0.0 
2.925578902539e-05 2.547922447787e-04 0.0 
3.214220513684e-04 1.453915375892e-04 0.0 
3.364705218299e-04 1.951358405045e-04 0.0 
2.668413660282e-04 6.624634815965e-05 0.0 
5.497211271722e-05 2.926963759204e-04 0.0 
3.744657258093e-05 1.026246190210e-05 0.0 
5.547505776804e-05 1.263459398112e-05 0.0 
4.018028069231e-05 -6.193376576341e-05 0.0 
6.334809102370e-05 -4.011475158566e-05 0.0 
2.981055748030e-04 1.343548993212e-03 0.0 
2.437592397381e-04 1.217584638047e-03 0.0 
8.979523248577e-05 3.195216543770e-04 0.0 
1.158777270042e-04 3.901363398602e-04 0.0 
6.333297263935e-05 2.384903766416e-04 0.0 
2.675676239234e-05 -1.152050616506e-04 0.0 
3.726237574876e-04 4.015460739872e-04 0.0 
1.709492318585e-04 7.285059513590e-05 0.0 
2.081802698539e-04 9.633853381298e-05 0.0 
1.273359935706e-04 5.006146272704e-05 0.0 
2.865214176244e-04 2.553059116993e-04 0.0 
2.161235585715e-04 1.782970070560e-04 0.0 
2.083276338342e-04 1.976275029371e-04 0.0 
1.808151142338e-05 5.741586623541e-04 0.0 
8.789323918776e-06 3.590746512661e-04 0.0 
8.198262149995e-05 1.156652526220e-03 0.0 
-4.000606557235e-05 4.815495369891e-04 0.0 
7.093530314013e-05 1.230867505630e-03 0.0 
5.895558265625e-05 1.143060756145e-03 0.0 
6.142785753202e-05 1.304310061995e-03 0.0 
2.272873628639e-05 -1.218850656516e-04 0.0 
1.357288744432e-04 1.203819902479e-03 0.0 
1.485390032884e-04 1.115529250807e-03 0.0 
2.189384690797e-05 -4.020354670961e-05 0.0 
3.711027252951e-05 2.157452573782e-04 0.0 
2.387465360967e-05 -7.804026891504e-05 0.0 
3.155442952422e-05 -9.209766707013e-05 0.0 
1.081025327496e-04 3.185667757639e-05 0.0 
1.196334964681e-04 3.185665662942e-05 0.0 
7.985466018367e-05 2.326990440763e-05 0.0 
9.393256188842e-05 2.470339874683e-05 0.0 
1.261686197901e-04 2.941811305333e-05 0.0 
9.911281894369e-05 2.263928597678e-05 0.0 
9.662701449979e-05 1.252906088317e-03 0.0 
6.501197060625e-05 1.753527288843e-05 0.0 
7.409617745794e-05 1.746080282980e-05 0.0 
4.340016629496e-05 1.199972270710e-05 0.0 
3.343395942376e-04 1.543944457480e-03 0.0 
4.292926806277e-04 1.454128996288e-03 0.0 
3.923923926704e-04 1.593032403879e-03 0.0 
3.446353643893e-04 1.729171543404e-03 0.0 
1.412636013773e-04 2.069539499961e-04 0.0 
1.714756044301e-04 2.858481424463e-04 0.0 
3.449181325373e-05 1.686587855934e-06 0.0 
3.955076433505e-05 -5.528047421009e-06 0.0 
4.883452207295e-05 1.223781232004e-03 0.0 
3.567380576145e-05 1.230152853730e-03 0.0 
3.866156028098e-05 1.091523350727e-03 0.0 
2.794066117940e-05 1.108227189625e-03 0.0 
2.990434779976e-05 9.725780764120e-04 0.0 
1.928750245760e-05 9.898717496362e-04 0.0 
2.259869496708e-05 8.544841852532e-04 0.0 
1.626865150166e-04 1.619900308373e-04 0.0 
3.131929383763e-04 1.676688676851e-03 0.0 
3.071443568016e-04 1.438956251809e-03 0.0 
1.828492025149e-04 1.178666810275e-04 0.0 
2.281174228290e-04 1.425616870663e-04 0.0 
3.763966326109e-04 1.496019911193e-03 0.0 
3.549710263539e-04 1.635468114529e-03 0.0 
1.137329946086e-04 3.867585239958e-05 0.0 
5.056432382763e-04 1.027346902770e-03 0.0 
2.762720909042e-05 1.361832443833e-04 0.0 
-1.598613153569e-04 9.604098241161e-04 0.0 
1.992221957466e-05 8.673988096877e-04 0.0 
5.061274585442e-04 1.061306087765e-03 0.0 
3.892510278508e-04 1.359607088944e-03 0.0 
4.292625265740e-04 1.457606458877e-03 0.0 
3.956513828416e-04 1.578678161126e-03 0.0 
3.190789586103e-04 1.442283806646e-04 0.0 
5.125694196993e-05 -1.511358766314e-05 0.0 
3.350290675475e-04 1.439874948103e-03 0.0 
3.289192293416e-05 8.395029951109e-04 0.0 
2.500583058252e-04 1.546220900596e-03 0.0 
1.811938531778e-05 -2.595358723915e-06 0.0 
5.163901716865e-04 8.909876680255e-04 0.0 
4.377053383912e-04 1.161007806956e-03 0.0 
3.987462103220e-04 1.330670111038e-03 0.0 
4.636357282334e-04 1.304628155745e-03 0.0 
3.024928142619e-04 1.019506156566e-03 0.0 
2.697082914026e-04 1.173187078921e-03 0.0 
2.905098006985e-04 1.238980895987e-03 0.0 
5.191099502540e-04 7.653444974573e-04 0.0 
3.934911572918e-04 1.557850850126e-03 0.0 
3.589572211648e-04 1.701962155944e-03 0.0 
3.697534389608e-04 1.046818405507e-03 0.0 
1.456343706831e-04 5.310020091069e-04 0.0 
1.442737215989e-04 4.625966000441e-04 0.0 
1.108107212088e-04 3.289038053743e-04 0.0 
1.401667421379e-04 3.965523627925e-04 0.0 
1.741789110110e-04 5.344995061110e-04 0.0 
1.720500368493e-04 4.661486841733e-04 0.0 
1.329932342559e-04 3.333032473999e-04 0.0 
1.669048075489e-04 3.994995962407e-04 0.0 
1.119526349203e-04 2.447260765294e-04 0.0 
1.567424004867e-04 3.317165643433e-04 0.0 
2.022749798153e-04 4.670715601175e-04 0.0 
1.960772392895e-04 4.027169401434e-04 0.0 
1.500547836465e-04 2.850533931225e-04 0.0 
2.392731563853e-04 5.391805256704e-04 0.0 
1.406014870414e-04 9.424277601966e-05 0.0 
5.145754336336e-04 9.542862200514e-04 0.0 
1.020716717578e-04 7.113045157300e-04 0.0 
1.099427819949e-04 1.045206696702e-03 0.0 
4.168377716713e-04 1.129795693535e-03 0.0 
5.397464857696e-05 1.169044893562e-04 0.0 
4.390065986473e-05 1.183122477133e-04 0.0 
4.825551997500e-04 9.101143690947e-04 0.0 
7.275103057362e-05 9.439876376980e-05 0.0 
3.096198671438e-04 1.159005943153e-03 0.0 
3.639832672845e-04 7.820926811727e-04 0.0 
8.036126180298e-05 8.662036963140e-05 0.0 
1.734448956328e-04 6.037183312031e-04 0.0 
2.020418352616e-04 6.775357224291e-04 0.0 
1.965910556712e-04 7.484868059825e-04 0.0 
3.362227324975e-05 1.123060159983e-04 0.0 
1.401429236706e-04 9.594197036185e-04 0.0 
8.269856783703e-05 6.252534120843e-05 0.0 
4.581357823381e-04 4.136307277692e-04 0.0 
4.773186018770e-04 4.900819730042e-04 0.0 
5.009315378925e-04 5.573243884955e-04 0.0 
2.053396377305e-04 5.377338726442e-04 0.0 
8.342692242397e-05 4.560482629679e-05 0.0 
1.521846493981e-04 8.264768182644e-05 0.0 
1.461741928539e-04 7.320986947521e-05 0.0 
2.156181898176e-04 1.160166222817e-04 0.0 
7.657762672427e-05 3.601581171592e-05 0.0 
5.746311444931e-05 1.002389842565e-04 0.0 
5.872006634129e-05 9.247730354397e-05 0.0 
3.032656653069e-04 1.967341911521e-04 0.0 
3.494134623608e-04 2.551653733961e-04 0.0 
3.771796575548e-04 2.490024202116e-04 0.0 
3.924430702798e-04 3.169464769169e-04 0.0 
3.595602655471e-04 3.276501225501e-04 0.0 
4.046513011254e-04 3.976349301084e-04 0.0 
4.304492594792e-04 3.795545470342e-04 0.0 
4.134368172055e-04 4.936304785834e-04 0.0 
2.244151437150e-04 4.041662427049e-04 0.0 
6.578052174175e-05 2.674609387450e-05 0.0 
3.033037012162e-04 9.660447645169e-05 0.0 
3.346186781993e-04 1.246474167682e-04 0.0 
3.474782173095e-04 1.320062444053e-04 0.0 
1.717541066716e-04 -2.604463630747e-05 0.0 
1.980831952986e-04 -7.119388564118e-06 0.0 
1.981549621566e-04 1.607726025834e-06 0.0 
1.453202561807e-04 -4.358273335297e-05 0.0 
4.007296559644e-04 5.449176561431e-04 0.0 
6.144912803809e-05 2.338781958707e-05 0.0 
4.137954299615e-04 2.527500054064e-04 0.0 
2.212363273680e-04 5.235833039764e-06 0.0 
1.823169940872e-04 1.347829083748e-03 0.0 
1.898794061033e-04 1.214193773673e-03 0.0 
2.083601535335e-04 1.204533418008e-03 0.0 
1.927872095965e-04 1.060942045306e-03 0.0 
1.685824525995e-04 1.202114694085e-03 0.0 
1.250665518488e-04 -2.555162579112e-05 0.0 
1.003463731763e-04 -2.696989393196e-05 0.0 
7.904814997410e-05 -3.830425490262e-05 0.0 
7.585555479051e-05 -2.665131561710e-05 0.0 
5.523332280399e-05 -3.655126327547e-05 0.0 
5.758490014898e-05 -4.859202398827e-05 0.0 
5.136957197885e-05 -2.492969682842e-05 0.0 
3.204760349623e-05 -3.471112406891e-05 0.0 
1.462512113672e-04 1.355943514329e-03 0.0 
-7.647420196479e-05 2.416338657108e-04 0.0 
3.682920799139e-06 1.986921725854e-04 0.0 
5.283188389620e-06 1.295909212721e-04 0.0 
6.398812031814e-05 1.616013056626e-04 0.0 
7.557180470946e-05 2.345558538061e-04 0.0 
1.388201774442e-04 1.955424806826e-04 0.0 
1.447657664653e-04 2.767794339369e-04 0.0 
1.676092828138e-06 2.857091648996e-04 0.0 
-4.721902234131e-05 1.033796936343e-04 0.0 
9.223433313650e-06 7.388050164635e-05 0.0 
-3.513682879266e-05 5.260422137823e-05 0.0 
1.073740805326e-05 2.919707886360e-05 0.0 
6.316801932230e-05 4.916073970839e-05 0.0 
9.823730187790e-05 -3.794550847891e-05 0.0 
1.952591388497e-05 7.275572191501e-06 0.0 
2.134519998223e-05 -7.099388211379e-05 0.0 
4.068349651995e-05 -7.571034779624e-05 0.0 
3.798019212697e-05 -8.758201529993e-05 0.0 
6.063689217491e-05 -7.796783769704e-05 0.0 
4.096466611934e-05 -6.418670541386e-05 0.0 
1.808872945303e-05 -9.552438238924e-05 0.0 
3.420530045491e-05 -9.768390583086e-05 0.0 
3.097934701732e-06 -1.312859770909e-04 0.0 
7.545277819494e-06 -1.325130932097e-04 0.0 
3.185770808834e-06 -1.357950368597e-04 0.0 
9.738482255192e-06 -1.320716703836e-04 0.0 
1.562061049753e-05 -1.283582293973e-04 0.0 
1.089147121258e-05 -1.276595142559e-04 0.0 
1.376361166525e-05 -1.208197124431e-04 0.0 
3.472797322568e-06 -1.169570044299e-04 0.0 
1.609763404534e-05 -1.118343897518e-04 0.0 
2.750376197392e-05 -1.152555182694e-04 0.0 
2.086897880962e-06 -1.064899222157e-04 0.0 
7.204511042548e-06 6.587973302022e-04 0.0 
1.361798185367e-05 5.849989841065e-04 0.0 
5.504949317677e-05 1.855391242135e-05 0.0 
1.126073369260e-04 1.346636892609e-03 0.0 
-1.571032022442e-05 -2.325289379087e-05 0.0 
1.071436507779e-05 1.477193881798e-04 0.0 
1.618841341715e-05 1.220743132881e-04 0.0 
1.303707208052e-05 1.183478788099e-04 0.0 
1.143053422498e-05 7.112088913774e-06 0.0 
1.853594745328e-05 8.120455088256e-06 0.0 
5.906753902832e-06 1.437435167571e-04 0.0 
1.492667461174e-04 -4.348825273170e-05 0.0 
1.028880967442e-04 2.702613306835e-04 0.0 
3.059126843064e-05 3.933888803807e-04 0.0 
3.527852873140e-04 9.482148412300e-04 0.0 
2.022505340352e-04 2.547835342704e-05 0.0 
6.272513213658e-05 -6.924427537115e-06 0.0 
1.834664122391e-04 1.571208939816e-05 0.0 
7.344195714256e-05 1.160864919521e-05 0.0 
1.129522184645e-04 -6.078016515118e-06 0.0 
1.225743680288e-04 1.806317006277e-05 0.0 
1.430837222479e-04 6.555896823173e-05 0.0 
3.078467037073e-05 -1.204232510860e-04 0.0 
8.734929730082e-05 9.360863607033e-04 0.0 
5.652492892660e-05 9.911222177894e-04 0.0 
5.150045513752e-05 6.226052874798e-04 0.0 
1.001391842637e-04 -8.029627842679e-05 0.0 
8.107704675153e-05 -4.970562091357e-05 0.0 
7.391869429371e-05 -8.732720601742e-05 0.0 
1.432148628410e-04 1.721388695297e-04 0.0 
3.742136958013e-04 1.181763749896e-03 0.0 
3.257618450729e-04 1.040037670433e-04 0.0 
1.649380709999e-04 -3.629842991134e-05 0.0 
1.814102118293e-04 -1.966971302851e-05 0.0 
2.082134018718e-04 5.640576471041e-05 0.0 
5.045212642582e-04 9.658068088904e-04 0.0 
2.486324091791e-04 2.827424778345e-05 0.0 
2.162885210218e-04 5.375034429573e-05 0.0 
3.921759116610e-05 5.412675207676e-04 0.0 
-9.635276713604e-07 -7.554450495328e-05 0.0 
2.184139268244e-04 6.340652142757e-05 0.0 
2.407730934615e-04 3.825361625504e-05 0.0 
1.211972032802e-04 8.786892595873e-04 0.0 
3.477357100401e-04 2.427955207222e-04 0.0 
1.562844650912e-04 1.380619375887e-04 0.0 
7.381093189057e-05 5.691115880199e-04 0.0 
7.164394258389e-05 3.116965885500e-04 0.0 
1.592260050502e-04 1.038856455204e-03 0.0 
5.214813408991e-05 -9.160482592697e-05 0.0 
9.277677782078e-05 1.089720373684e-03 0.0 
1.542657938107e-04 5.618315176410e-05 0.0 
1.443235138460e-04 5.997231077574e-04 0.0 
7.660118854781e-05 -9.388650280162e-05 0.0 
4.598966441361e-04 3.438067060892e-04 0.0 
4.565092559159e-04 1.058378498112e-03 0.0 
2.674044958774e-04 1.452792235789e-03 0.0 
3.144581684896e-05 3.325499769094e-04 0.0 
4.997816173702e-04 6.635946199178e-04 0.0 
2.807753148985e-04 1.574414541206e-04 0.0 
4.143494788038e-04 2.724900242803e-04 0.0 
6.479481208778e-05 -9.613889781743e-05 0.0 
1.550991756004e-04 3.790968050586e-05 0.0 
5.040118320934e-04 5.315351346668e-04 0.0 
5.891912555071e-05 4.227801308162e-04 0.0 
3.388247404220e-04 5.531231954371e-04 0.0 
4.871772630565e-04 4.970462710185e-04 0.0 
9.636223432167e-05 5.137097566750e-04 0.0 
3.756421521039e-04 1.696359143773e-04 0.0 
3.225055812059e-04 2.364274038807e-04 0.0 
3.953988341233e-04 1.224618332221e-03 0.0 
4.041778320687e-04 7.885927347392e-04 0.0 
3.045972616488e-04 7.300463500126e-04 0.0 
4.625043521337e-04 7.504057655283e-04 0.0 
4.299996837478e-05 -1.491934323817e-05 0.0 
1.860920440312e-04 4.909847758196e-05 0.0 
2.487565504487e-04 4.409485364744e-04 0.0 
4.875170458851e-04 1.187596026517e-03 0.0 
1.493076673125e-04 8.869394702488e-04 0.0 
2.624813914274e-04 3.127408269981e-04 0.0 
4.118325055946e-05 2.769397162339e-04 0.0 
4.555066584481e-04 1.182573399458e-03 0.0 
1.550440143748e-04 3.173158409502e-05 0.0 
7.502273701803e-05 3.729801253713e-04 0.0 
2.236487461744e-04 1.297317729554e-05 0.0 
1.106780834714e-05 -1.233230015258e-04 0.0 
2.758332026540e-04 1.007948151017e-03 0.0 
4.530564476898e-04 5.721500823119e-04 0.0 
5.108788706461e-04 6.496235079209e-04 0.0 
2.205702555048e-04 1.978217855630e-05 0.0 
7.874021988605e-05 2.416425549595e-04 0.0 
1.267152319321e-04 2.450389145324e-05 0.0 
2.838930783191e-04 1.145371738066e-04 0.0 
6.341024063786e-05 1.523476291608e-03 0.0 
2.905195746663e-04 1.376646927790e-03 0.0 
1.003858369500e-04 1.915036904597e-05 0.0 
4.346877109769e-04 2.816620508848e-04 0.0 
2.905984815182e-04 1.910516994794e-04 0.0 
3.483098979046e-05 -4.589349643762e-05 0.0 
1.510809102359e-04 1.651234178351e-04 0.0 
3.473051577096e-04 1.588755606688e-03 0.0 
7.636518495616e-05 1.526766296650e-05 0.0 
3.127780497175e-04 1.534028882865e-04 0.0 
4.985574478947e-04 9.757396744184e-04 0.0 
3.069964987856e-05 1.362860247750e-03 0.0 
4.847106730070e-05 1.291726286803e-05 0.0 
2.619098187339e-04 1.240947097078e-04 0.0 
4.360213696932e-04 6.467410056870e-04 0.0 
4.214437881194e-04 2.498227605873e-04 0.0 
2.944897580538e-04 1.575208201188e-03 0.0 
1.932268553792e-04 9.265569227084e-06 0.0 
3.737411801464e-04 7.505284189286e-04 0.0 
2.904874440701e-05 1.103339467814e-04 0.0 
2.454491181294e-04 1.246956330784e-04 0.0 
2.234785109696e-04 8.238090284510e-04 0.0 
1.723163173745e-04 -6.629248009910e-06 0.0 
4.261986869086e-04 4.245311126250e-04 0.0 
2.133831732104e-05 -1.228859203926e-04 0.0 
3.214591937169e-04 1.492392940203e-03 0.0 
1.462948947397e-04 -1.212490677416e-05 0.0 
4.436115108898e-04 4.683038833721e-04 0.0 
3.938848202958e-04 2.001453428356e-04 0.0 
1.818015363926e-04 1.352690311632e-04 0.0 
1.205511665439e-04 -1.524727431681e-05 0.0 
4.623277504953e-04 4.400403415237e-04 0.0 
9.525259097243e-05 -1.646417199367e-05 0.0 
3.146305865797e-04 1.681550003600e-03 0.0 
2.307448062256e-04 7.487362957734e-04 0.0 
6.972450601503e-05 -1.626310074648e-05 0.0 
3.423606745769e-04 6.283392054310e-04 0.0 
3.403737301844e-05 -1.048529036167e-04 0.0 
4.303462196135e-04 5.657712537286e-04 0.0 
2.675818845226e-05 6.490493650625e-06 0.0 
2.500287677988e-04 3.727693106554e-05 0.0 
3.650407998632e-04 1.589376643669e-04 0.0 
2.049765547457e-04 6.068748459168e-04 0.0 
3.229461295506e-04 1.771325037507e-03 0.0 
3.462854128163e-04 1.461541019181e-04 0.0 
3.021464289597e-04 5.088638913439e-04 0.0 
4.191837126377e-04 4.896245932359e-04 0.0 
4.913835128142e-04 5.734740325667e-04 0.0 
3.192195442442e-04 1.312951042274e-04 0.0 
3.605164291670e-04 1.663905774385e-03 0.0 
1.566394374500e-04 -2.807776695465e-05 0.0 
1.298860495596e-04 -3.355883075754e-05 0.0 
4.453383705801e-04 3.579724873023e-04 0.0 
2.635376161421e-04 4.585215113530e-04 0.0 
1.884770561425e-05 -1.267781820657e-04 0.0 
2.389266013547e-04 6.060207340253e-04 0.0 
9.329632254978e-05 -1.468839154039e-05 0.0 
4.139102936623e-04 3.040037674312e-04 0.0 
3.464251340996e-04 3.319240018362e-04 0.0 
8.733280945054e-06 9.520701617376e-04 0.0 
3.946580542429e-04 2.399381124425e-04 0.0 
1.310993033558e-05 -1.155033860195e-04 0.0 
3.596835058012e-04 1.922625156242e-04 0.0 
4.630896410728e-04 4.980818302367e-04 0.0 
3.402470675099e-04 1.447453108419e-04 0.0 
3.043109881712e-04 1.043380962587e-04 0.0 
2.108088341842e-05 2.531899059260e-04 0.0 
2.853972826934e-04 7.056471074957e-05 0.0 
2.965834834260e-06 1.189460324861e-04 0.0 
8.125245845805e-06 5.826556845801e-06 0.0 
1.152409781609e-05 1.248656732903e-03 0.0 
3.123986650388e-04 1.852680907507e-03 0.0 
-1.325746080599e-04 5.843917213124e-04 0.0 
3.633505415928e-04 1.691375583267e-03 0.0 
2.295369689346e-04 3.172613886997e-05 0.0 
2.741700305437e-04 6.003495548707e-04 0.0 
2.395643509326e-05 1.241729165479e-03 0.0 
1.925131787136e-04 1.043169063394e-07 0.0 
1.078414514120e-04 2.081142853978e-04 0.0 
7.985688108681e-05 7.158224029485e-05 0.0 
1.549836840645e-05 7.244914088779e-04 0.0 
2.593520402895e-04 1.544599719096e-04 0.0 
4.010135313477e-04 4.157567162356e-04 0.0 
4.374345703035e-06 3.737782974748e-04 0.0 
7.175966107843e-05 1.374597074570e-03 0.0 
1.285755008112e-05 -8.127525173475e-06 0.0 
2.064608274349e-05 -1.125954613325e-05 0.0 
2.891175123800e-04 1.883536995107e-03 0.0 
3.306707603227e-04 1.711506324228e-03 0.0 
2.836345293606e-04 1.627752126206e-03 0.0 
5.015503532827e-05 -9.735433353801e-05 0.0 
5.754438861890e-05 1.008092792480e-04 0.0 
2.594296288402e-04 1.839738113241e-03 0.0 
1.610600919634e-04 9.470466689049e-05 0.0 
1.209102595797e-04 1.236403702190e-03 0.0 
3.177339605083e-04 3.179225708033e-04 0.0 
1.871302112370e-04 1.748908718137e-03 0.0 
5.136659792679e-05 2.398001594868e-04 0.0 
1.661567757115e-04 1.404196866975e-04 0.0 
3.927462191019e-05 1.200332909514e-05 0.0 
2.490893084457e-04 2.290721954941e-04 0.0 
1.964084265281e-04 1.432185770889e-03 0.0 
1.767066086966e-04 1.096530286737e-03 0.0 
1.359174190787e-04 1.787118726720e-04 0.0 
2.080482037205e-05 6.059537120059e-04 0.0 
2.910142333085e-05 8.888342016586e-06 0.0 
1.530005923420e-04 1.246044969543e-03 0.0 
1.284561829118e-05 2.361773322417e-04 0.0 
1.874945959413e-04 3.583255334676e-04 0.0 
6.582761439603e-06 2.293473075683e-04 0.0 
2.339080055515e-04 4.694456530806e-04 0.0 
4.871348992788e-05 1.059930325114e-03 0.0 
2.127022224853e-04 1.091198916047e-03 0.0 
2.228448563782e-05 8.555762020827e-06 0.0 
9.221665916150e-05 2.187578588216e-04 0.0 
1.224955966845e-04 1.249343969726e-03 0.0 
2.431948147583e-05 7.396437657106e-04 0.0 
8.175372925263e-05 -7.273328538968e-05 0.0 
-1.901165516257e-05 3.841284582027e-04 0.0 
9.556826641094e-05 3.055515679608e-05 0.0 
1.869263887385e-04 3.456571862213e-04 0.0 
3.700092289147e-05 1.063904382069e-05 0.0 
4.169479473353e-06 -1.337287859421e-04 0.0 
1.412746243637e-05 -6.253898558232e-05 0.0 
1.045264026413e-04 3.822866120952e-05 0.0 
1.143108397941e-04 1.812377008433e-04 0.0 
2.048589020096e-04 2.572255487539e-04 0.0 
1.708332549540e-05 9.495190975716e-05 0.0 
-1.316674139484e-05 1.085134725444e-03 0.0 
9.860766456444e-05 1.389920540215e-03 0.0 
1.597348015586e-05 -1.014762463221e-04 0.0 
2.334823962731e-05 7.478832980648e-06 0.0 
3.043615184244e-05 2.249590739416e-04 0.0 
5.748630169897e-05 -6.767377267760e-05 0.0 
2.187263409113e-04 1.318941371256e-03 0.0 
2.995740362390e-05 -1.074602307898e-04 0.0 
2.065588338078e-04 2.285474260483e-04 0.0 
4.644234789407e-05 1.230821952865e-05 0.0 
2.088715260868e-05 2.127597695305e-04 0.0 
1.171671598531e-04 4.974751432571e-05 0.0 
6.199152969909e-05 2.057505752178e-04 0.0 
6.399560198483e-05 4.073956595132e-05 0.0 
-2.594963601334e-05 6.917332806558e-04 0.0 
1.413633682439e-04 1.274229648819e-04 0.0 
1.924186030690e-04 9.470640556664e-05 0.0 
5.363574940018e-05 1.380978607835e-03 0.0 
7.892471486425e-05 2.174261758724e-04 0.0 
5.250175236195e-05 -8.877507906745e-05 0.0 
4.086899583725e-05 -1.101717494414e-04 0.0 
1.251161930691e-06 1.053458769499e-04 0.0 
7.692264867680e-07 -1.368220142808e-04 0.0 
9.008962726792e-06 1.380357743682e-03 0.0 
3.158051250403e-06 4.490548038731e-06 0.0 
2.444125039475e-05 -1.237027732072e-04 0.0 
1.892854712330e-05 1.138125966656e-03 0.0 
1.030340610652e-04 1.790863127001e-04 0.0 
1.532275145241e-05 -4.483327711623e-05 0.0 
1.013820704480e-05 4.691385861334e-04 0.0 
1.050776456014e-04 1.318918143085e-04 0.0 
-1.345464898755e-04 4.400345052888e-04 0.0 
1.494865519111e-05 8.770603227966e-04 0.0 
1.508953535417e-04 1.169667411805e-04 0.0 
4.778455156736e-05 1.989667690672e-04 0.0 
3.885289683458e-05 9.780386372792e-04 0.0 
2.015904067620e-04 1.080588195206e-03 0.0 
1.461852505097e-04 2.550770079334e-04 0.0 
6.132447889953e-05 -5.757445461520e-05 0.0 
1.873582923870e-04 2.463998575694e-04 0.0 
2.075280536256e-04 1.198956285948e-04 0.0 
-1.540447550758e-04 1.165563621844e-03 0.0 
1.339961732659e-05 -3.269992519402e-05 0.0 
1.441823510939e-05 -8.940886014633e-05 0.0 
6.549434034082e-05 1.859882583973e-05 0.0 
4.075534188524e-05 -5.441455752481e-05 0.0 
-4.256273353448e-05 1.921472495964e-03 0.0 
6.661996105976e-06 2.774533318071e-03 0.0 
1.060227991373e-04 2.028280424955e-03 0.0 
5.205116414386e-06 2.624755417351e-03 0.0 
1.920309497737e-04 2.059519656820e-03 0.0 
5.076610617468e-06 2.475015710729e-03 0.0 
2.429225449831e-04 2.039706576296e-03 0.0 
5.197026136395e-06 2.324898647794e-03 0.0 
2.685862121314e-04 1.984103484579e-03 0.0 
5.464394358807e-06 2.174255921862e-03 0.0 
2.765912774657e-04 1.900223840427e-03 0.0 
5.628676683005e-06 2.023174704579e-03 0.0 
2.711062578746e-04 1.797052326422e-03 0.0 
5.857348013859e-06 1.871651872299e-03 0.0 
2.557375460502e-04 1.677017856671e-03 0.0 
5.943854400448e-06 1.719823198132e-03 0.0 
2.331864352991e-04 1.547592423874e-03 0.0 
6.017332251236e-06 1.567749813451e-03 0.0 

VECTORS node_materi_displacement float
0.0 1.221767010114e-02 0.0 
0.0 1.085916574291e-02 0.0 
0.0 0.0 0.0 
0.0 0.0 0.0 
0.0 1.220116088974e-02 0.0 
0.0 1.212569980191e-02 0.0 
0.0 1.199072795560e-02 0.0 
0.0 1.179521229098e-02 0.0 
0.0 1.153611717468e-02 0.0 
0.0 1.121499436860e-02 0.0 
0.0 1.083190524023e-02 0.0 
0.0 1.038608080282e-02 0.0 
0.0 9.877578580559e-03 0.0 
0.0 9.305690544114e-03 0.0 
0.0 8.668968751850e-03 0.0 
0.0 7.967254534023e-03 0.0 
0.0 7.201163118397e-03 0.0 
0.0 6.373336880421e-03 0.0 
0.0 5.478091338221e-03 0.0 
0.0 4.516502465080e-03 0.0 
0.0 3.488646725107e-03 0.0 
0.0 2.393015312665e-03 0.0 
0.0 1.229016170743e-03 0.0 
0.0 0.0 0.0 
0.0 0.0 0.0 
0.0 0.0 0.0 
0.0 0.0 0.0 
0.0 0.0 0.0 
0.0 0.0 0.0 
0.0 0.0 0.0 
0.0 0.0 0.0 
0.0 0.0 0.0 
0.0 0.0 0.0 
0.0 0.0 0.0 
0.0 0.0 0.0 
0.0 0.0 0.0 
0.0 0.0 0.0 
0.0 0.0 0.0 
0.0 0.0 0.0 
0.0 0.0 0.0 
0.0 0.0 0.0 
0.0 0.0 0.0 
0.0 0.0 0.0 
0.0 0.0 0.0 
0.0 0.0 0.0 
0.0 0.0 0.0 
0.0 0.0 0.0 
0.0 0.0 0.0 
0.0 0.0 0.0 
0.0 0.0 0.0 
0.0 0.0 0.0 
0.0 0.0 0.0 
0.0 0.0 0.0 
0.0 0.0 0.0 
0.0 0.0 0.0 
0.0 0.0 0.0 
0.0 0.0 0.0 
0.0 0.0 0.0 
0.0 0.0 0.0 
0.0 0.0 0.0 
0.0 0.0 0.0 
0.0 0.0 0.0 
0.0 0.0 0.0 
0.0 0.0 0.0 
0.0 0.0 0.0 
0.0 0.0 0.0 
0.0 0.0 0.0 
0.0 0.0 0.0 
0.0 0.0 0.0 
0.0 0.0 0.0 
0.0 0.0 0.0 
0.0 0.0 0.0 
0.0 1.005781282483e-02 0.0 
0.0 9.192995002628e-03 0.0 
0.0 8.263855246264e-03 0.0 
0.0 7.272373390068e-03 0.0 
0.0 6.216836527765e-03 0.0 
0.0 5.098755718012e-03 0.0 
0.0 3.917835407161e-03 0.0 
0.0 2.674130436751e-03 0.0 
0.0 1.368073749866e-03 0.0 
-3.652612212969e-04 1.347650703839e-02 0.0 
2.308485905028e-04 1.083056231617e-02 0.0 
-1.334661208420e-04 1.396476964045e-02 0.0 
5.499607232881e-05 1.413201773673e-02 0.0 
1.669011999511e-04 1.409193960979e-02 0.0 
2.337253708510e-04 1.391470370695e-02 0.0 
2.710838692596e-04 1.362365781962e-02 0.0 
2.871083607903e-04 1.323360108511e-02 0.0 
2.876839693340e-04 1.275337422663e-02 0.0 
2.764794441188e-04 1.218950086892e-02 0.0 
2.563809381751e-04 1.154692588822e-02 0.0 
0.0 1.518895490122e-02 0.0 
0.0 1.495887487908e-02 0.0 
0.0 1.467230122643e-02 0.0 
0.0 1.431797313272e-02 0.0 
0.0 1.390420314774e-02 0.0 
0.0 1.342138330855e-02 0.0 
0.0 1.287902377934e-02 0.0 
0.0 1.226762897370e-02 0.0 
0.0 1.159723704978e-02 0.0 
1.354434365944e-05 1.085939633317e-02 0.0 
2.533805015202e-05 1.085999396344e-02 0.0 
3.816476481705e-05 1.086069365536e-02 0.0 
5.123562726143e-05 1.086041406621e-02 0.0 
6.411669541079e-05 1.086176035480e-02 0.0 
7.758021219101e-05 1.086131784544e-02 0.0 
9.169998504818e-05 1.086162801896e-02 0.0 
1.052871268092e-04 1.086084450347e-02 0.0 
1.209991785519e-04 1.086122713704e-02 0.0 
1.374844254534e-04 1.085902500740e-02 0.0 
1.543784511777e-04 1.085613548467e-02 0.0 
1.721691974029e-04 1.085293687005e-02 0.0 
1.906224182713e-04 1.084763950862e-02 0.0 
2.100295997967e-04 1.083974510799e-02 0.0 
-3.273058694313e-04 1.321574314225e-02 0.0 
-2.815817600905e-04 1.302195724128e-02 0.0 
-2.369285625498e-04 1.286709739398e-02 0.0 
-2.004670580949e-04 1.274330247714e-02 0.0 
-1.671674951385e-04 1.264496499657e-02 0.0 
-1.366780270275e-04 1.256250146483e-02 0.0 
-1.098587798056e-04 1.249350688482e-02 0.0 
-8.733736361426e-05 1.243652186760e-02 0.0 
-6.829653588852e-05 1.238944055524e-02 0.0 
-5.207604818353e-05 1.235162766373e-02 0.0 
-3.995850599216e-05 1.231970072820e-02 0.0 
-2.821079484376e-05 1.229564451790e-02 0.0 
-1.624564167000e-05 1.227363085611e-02 0.0 
-1.076220218184e-05 1.225540233864e-02 0.0 
-8.012536406481e-06 1.224290916547e-02 0.0 
-4.784585614395e-06 1.223336532197e-02 0.0 
-1.525137592302e-06 1.222590118071e-02 0.0 
1.222952802722e-06 1.222118852732e-02 0.0 
-2.009498278101e-07 1.221707745578e-02 0.0 
1.675601464894e-05 1.518296457982e-02 0.0 
2.779086621416e-05 1.518239077728e-02 0.0 
3.423017794781e-05 1.518443657262e-02 0.0 
4.183804066131e-05 1.518549018035e-02 0.0 
4.993752906800e-05 1.518627377541e-02 0.0 
5.798159466500e-05 1.518684990153e-02 0.0 
6.564320732265e-05 1.518713123803e-02 0.0 
7.270308006638e-05 1.518697818376e-02 0.0 
7.899022838986e-05 1.518621210963e-02 0.0 
8.435245877408e-05 1.518461446321e-02 0.0 
8.864115590349e-05 1.518192304926e-02 0.0 
9.170295384567e-05 1.517782734063e-02 0.0 
9.337556858396e-05 1.517196233866e-02 0.0 
9.348785382976e-05 1.516390232948e-02 0.0 
9.186330162273e-05 1.515315055828e-02 0.0 
8.832422012754e-05 1.513913187217e-02 0.0 
8.269561491307e-05 1.512116818847e-02 0.0 
7.481201308617e-05 1.509847961967e-02 0.0 
6.452131654744e-05 1.507011271314e-02 0.0 
5.170449359468e-05 1.503500274541e-02 0.0 
3.625543282798e-05 1.499171614302e-02 0.0 
1.819914137498e-05 1.493881489461e-02 0.0 
-2.512623133619e-06 1.487386849170e-02 0.0 
-2.544717560185e-05 1.479511548571e-02 0.0 
-5.099960768728e-05 1.469775573182e-02 0.0 
-7.743304711076e-05 1.457947909983e-02 0.0 
-1.054196533205e-04 1.443104504269e-02 0.0 
-1.344516180018e-04 1.423988585511e-02 0.0 
5.279996515558e-05 1.430266997519e-02 0.0 
5.678690914518e-05 1.443758407068e-02 0.0 
6.318396954471e-05 1.454397178727e-02 0.0 
7.031478227080e-05 1.463139142433e-02 0.0 
7.831067690923e-05 1.470180772182e-02 0.0 
8.573290384040e-05 1.475930871406e-02 0.0 
9.245852368575e-05 1.480581484233e-02 0.0 
9.801658220309e-05 1.484340998747e-02 0.0 
1.023130720150e-04 1.487352521761e-02 0.0 
1.052144006654e-04 1.489746326252e-02 0.0 
1.067157217492e-04 1.491626050236e-02 0.0 
1.068316394135e-04 1.493080535281e-02 0.0 
1.056228965871e-04 1.494184326283e-02 0.0 
1.031667028821e-04 1.495001212832e-02 0.0 
9.955785352196e-05 1.495585554023e-02 0.0 
9.489867667283e-05 1.495983887203e-02 0.0 
8.929626441057e-05 1.496235994304e-02 0.0 
8.285984307912e-05 1.496375715052e-02 0.0 
7.570091523361e-05 1.496431626523e-02 0.0 
6.793386605648e-05 1.496427699966e-02 0.0 
5.967653513993e-05 1.496383807705e-02 0.0 
5.104723632029e-05 1.496315934483e-02 0.0 
4.214945815097e-05 1.496235486596e-02 0.0 
3.302507061665e-05 1.496146687441e-02 0.0 
2.355950780145e-05 1.496058242397e-02 0.0 
1.365075939943e-05 1.496322247271e-02 0.0 
1.585351044821e-04 1.420892626389e-02 0.0 
1.538813028250e-04 1.430572204130e-02 0.0 
1.481582808371e-04 1.438203881671e-02 0.0 
1.448890326909e-04 1.444585204322e-02 0.0 
1.420735177348e-04 1.449698433713e-02 0.0 
1.398795287249e-04 1.453887237429e-02 0.0 
1.375897283134e-04 1.457240543417e-02 0.0 
1.350720633026e-04 1.459930616611e-02 0.0 
1.320891238998e-04 1.462054886577e-02 0.0 
1.285554684454e-04 1.463716126922e-02 0.0 
1.243929934101e-04 1.464990466036e-02 0.0 
1.195783298071e-04 1.465947912699e-02 0.0 
1.141056813184e-04 1.466645824027e-02 0.0 
1.079920285297e-04 1.467134322161e-02 0.0 
1.012701925833e-04 1.467456157140e-02 0.0 
9.398724672662e-05 1.467648303646e-02 0.0 
8.619791034229e-05 1.467742067712e-02 0.0 
7.796124374617e-05 1.467763809186e-02 0.0 
6.933745405663e-05 1.467735497868e-02 0.0 
6.038325687516e-05 1.467674944335e-02 0.0 
5.114264018644e-05 1.467595449703e-02 0.0 
4.163399417017e-05 1.467504656099e-02 0.0 
3.184708547040e-05 1.467403325991e-02 0.0 
2.176185040286e-05 1.467280108562e-02 0.0 
1.097518625378e-05 1.466880625083e-02 0.0 
1.099584403634e-05 1.432253343911e-02 0.0 
2.198357083125e-05 1.432092914400e-02 0.0 
3.277137847057e-05 1.432192176995e-02 0.0 
4.336597598199e-05 1.432301670599e-02 0.0 
5.377184450299e-05 1.432403660503e-02 0.0 
6.399742757097e-05 1.432493539313e-02 0.0 
7.404122506460e-05 1.432563027910e-02 0.0 
8.388886937117e-05 1.432598327001e-02 0.0 
9.352061391062e-05 1.432580400642e-02 0.0 
1.029159947675e-04 1.432485391752e-02 0.0 
1.120583995969e-04 1.432284264445e-02 0.0 
1.209371399089e-04 1.431942235036e-02 0.0 
1.295512704905e-04 1.431417598784e-02 0.0 
1.379314693540e-04 1.430662253667e-02 0.0 
1.461204533692e-04 1.429619989989e-02 0.0 
1.542146758794e-04 1.428227486592e-02 0.0 
1.622689979767e-04 1.426404321331e-02 0.0 
1.705218224357e-04 1.424069407751e-02 0.0 
1.789796850311e-04 1.421095711194e-02 0.0 
1.882591135992e-04 1.417399016288e-02 0.0 
1.979825789242e-04 1.412711845263e-02 0.0 
2.100416287078e-04 1.407106860741e-02 0.0 
2.208859733347e-04 1.399912957633e-02 0.0 
2.551917377612e-04 1.368306311804e-02 0.0 
2.410590653419e-04 1.373558100093e-02 0.0 
2.254507194460e-04 1.377529345740e-02 0.0 
2.117375259109e-04 1.380893541426e-02 0.0 
1.985263356306e-04 1.383498692008e-02 0.0 
1.862058439107e-04 1.385599314314e-02 0.0 
1.743385019660e-04 1.387211395306e-02 0.0 
1.629295614323e-04 1.388452667944e-02 0.0 
1.518060646847e-04 1.389371216783e-02 0.0 
1.408786309499e-04 1.390032513481e-02 0.0 
1.300482783603e-04 1.390483462825e-02 0.0 
1.192802839672e-04 1.390771713639e-02 0.0 
1.085471545911e-04 1.390934477519e-02 0.0 
9.782310591601e-05 1.391002947592e-02 0.0 
8.708907450917e-05 1.391003415607e-02 0.0 
7.633219014112e-05 1.390957223099e-02 0.0 
6.554894490944e-05 1.390881571221e-02 0.0 
5.472906667334e-05 1.390787953930e-02 0.0 
4.386032540617e-05 1.390683613037e-02 0.0 
3.293670533550e-05 1.390573036702e-02 0.0 
2.196299102457e-05 1.390447277695e-02 0.0 
1.097675204922e-05 1.390041056315e-02 0.0 
1.158075815517e-05 1.342584089082e-02 0.0 
2.319824625108e-05 1.342405722900e-02 0.0 
3.484062938204e-05 1.342497502280e-02 0.0 
4.652584234252e-05 1.342604096783e-02 0.0 
5.827260499200e-05 1.342705777482e-02 0.0 
7.010337902931e-05 1.342795990579e-02 0.0 
8.205376448783e-05 1.342866236477e-02 0.0 
9.413898030419e-05 1.342905086777e-02 0.0 
1.063800258175e-04 1.342891889936e-02 0.0 
1.188251137781e-04 1.342802360603e-02 0.0 
1.315374677661e-04 1.342606733451e-02 0.0 
1.445668151103e-04 1.342271939548e-02 0.0 
1.579516414653e-04 1.341758027229e-02 0.0 
1.717237190077e-04 1.341004616641e-02 0.0 
1.861291238953e-04 1.339962144173e-02 0.0 
2.011458374629e-04 1.338552762474e-02 0.0 
2.172546394871e-04 1.336750524818e-02 0.0 
2.337944841713e-04 1.334368265780e-02 0.0 
2.522575648536e-04 1.331523229212e-02 0.0 
2.692708151301e-04 1.327696814140e-02 0.0 
2.691374945292e-04 1.278313433073e-02 0.0 
2.512910384794e-04 1.281042407042e-02 0.0 
2.317068674161e-04 1.282942754461e-02 0.0 
2.139173117605e-04 1.284611803000e-02 0.0 
1.968123574749e-04 1.285819450903e-02 0.0 
1.807949817021e-04 1.286756316236e-02 0.0 
1.653438221873e-04 1.287396744897e-02 0.0 
1.505058818434e-04 1.287842516464e-02 0.0 
1.362218493961e-04 1.288135472839e-02 0.0 
1.224651301456e-04 1.288306956119e-02 0.0 
1.091640830467e-04 1.288382503529e-02 0.0 
9.617722921254e-05 1.288388082015e-02 0.0 
8.349530831160e-05 1.288351075818e-02 0.0 
7.110358550440e-05 1.288290731217e-02 0.0 
5.894480191911e-05 1.288211180142e-02 0.0 
4.696424508114e-05 1.288121319364e-02 0.0 
3.514348767891e-05 1.288025901142e-02 0.0 
2.339649290208e-05 1.287913360737e-02 0.0 
1.168306220867e-05 1.287516129375e-02 0.0 
1.234127696632e-05 1.227193168510e-02 0.0 
2.471811410241e-05 1.227011275339e-02 0.0 
3.704411461261e-05 1.227097978042e-02 0.0 
4.960604481659e-05 1.227177091905e-02 0.0 
6.232994657252e-05 1.227256200993e-02 0.0 
7.536776910644e-05 1.227318307065e-02 0.0 
8.874486219076e-05 1.227357302314e-02 0.0 
1.026530156688e-04 1.227371841381e-02 0.0 
1.168806184688e-04 1.227352650604e-02 0.0 
1.316975676142e-04 1.227234450198e-02 0.0 
1.472761353313e-04 1.227005673687e-02 0.0 
1.635487907807e-04 1.226652578795e-02 0.0 
1.806176207883e-04 1.226130419736e-02 0.0 
1.986433519122e-04 1.225408001163e-02 0.0 
2.170995323142e-04 1.224285369421e-02 0.0 
2.377283778647e-04 1.222943245498e-02 0.0 
2.568699080243e-04 1.220993342195e-02 0.0 
2.374159033725e-04 1.156026622053e-02 0.0 
2.189042869283e-04 1.157500381785e-02 0.0 
1.989557730104e-04 1.158253969314e-02 0.0 
1.805964982023e-04 1.158896761748e-02 0.0 
1.632822311231e-04 1.159343965020e-02 0.0 
1.466687829184e-04 1.159644095890e-02 0.0 
1.309038264757e-04 1.159872784200e-02 0.0 
1.160354803666e-04 1.159984864744e-02 0.0 
1.015582808215e-04 1.159962399036e-02 0.0 
8.788739248570e-05 1.159991940261e-02 0.0 
7.452486864772e-05 1.159960592951e-02 0.0 
6.176409543214e-05 1.159928868018e-02 0.0 
4.904193252686e-05 1.159848642001e-02 0.0 
3.677219825056e-05 1.159806005816e-02 0.0 
2.471348735059e-05 1.159682607630e-02 0.0 
1.202791736924e-05 1.159247949557e-02 0.0 
-2.518149064373e-04 1.373380785378e-02 0.0 
-2.179421154711e-05 1.408176032501e-02 0.0 
1.204625565028e-04 1.413151160091e-02 0.0 
2.067822155995e-04 1.401880225494e-02 0.0 
2.568893582896e-04 1.378216807708e-02 0.0 
2.819568322004e-04 1.343998095286e-02 0.0 
2.905969654989e-04 1.300451549000e-02 0.0 
2.848104839037e-04 1.248194454861e-02 0.0 
2.686482708723e-04 1.187808300204e-02 0.0 
2.453810022149e-04 1.119786500201e-02 0.0 
1.324304685408e-04 1.386957686378e-02 0.0 
8.157442678656e-05 1.104304277392e-03 0.0 
-2.480474507257e-05 1.234983501907e-02 0.0 
-9.476344367133e-05 1.267352490721e-02 0.0 
5.936379980225e-05 1.085413214539e-03 0.0 
2.817671033590e-04 1.367293734237e-02 0.0 
2.155788257373e-05 8.983738865001e-03 0.0 
8.946652979847e-05 1.127722313997e-03 0.0 
3.223137731016e-04 1.297964685422e-02 0.0 
8.288644083988e-05 1.118820222832e-03 0.0 
3.034465378788e-04 1.190894978746e-02 0.0 
3.555168337768e-05 9.911913960376e-04 0.0 
2.102709473289e-06 1.224620311384e-02 0.0 
6.971890175257e-05 1.153230028259e-03 0.0 
2.506573563486e-04 1.050363513584e-02 0.0 
1.605536013082e-05 1.101892470510e-02 0.0 
2.269723778381e-05 6.964792089367e-03 0.0 
5.870978728007e-05 1.213891470492e-03 0.0 
3.842805919256e-05 1.165563559663e-03 0.0 
1.171512360571e-05 1.174463344328e-03 0.0 
2.027761436189e-05 1.275046705183e-03 0.0 
2.743331392496e-05 1.141292188276e-03 0.0 
2.004507158652e-04 1.013606416598e-02 0.0 
1.284318166770e-04 1.013922662947e-02 0.0 
8.402843908623e-05 1.012219524283e-02 0.0 
8.671650266628e-06 6.736873221195e-03 0.0 
2.090676447722e-05 1.072133677975e-03 0.0 
-1.470538252009e-04 1.310129460305e-02 0.0 
4.154359887501e-06 1.221344247559e-02 0.0 
1.573877210463e-05 4.090180908253e-03 0.0 
4.291625053397e-05 1.017523137640e-02 0.0 
9.148076684200e-06 1.190431882843e-02 0.0 
5.399402894656e-05 1.341319816080e-03 0.0 
8.093652569733e-05 1.035870303481e-03 0.0 
7.583483957459e-05 1.120770264962e-03 0.0 
9.254905924540e-05 1.181964358353e-03 0.0 
6.970608790991e-05 1.042531317372e-03 0.0 
-5.985612560997e-05 1.250316377811e-02 0.0 
1.623272082942e-04 1.018291529010e-02 0.0 
5.555365052159e-05 1.234081312238e-03 0.0 
5.560560288813e-06 4.567126629029e-03 0.0 
-9.593275209121e-06 1.228712621416e-02 0.0 
2.027544876872e-05 1.014004548745e-02 0.0 
5.032723952426e-06 9.564895816929e-04 0.0 
3.135401059408e-04 1.336877744303e-02 0.0 
2.247986026065e-04 1.385388007028e-02 0.0 
3.186364655604e-04 1.249128802455e-02 0.0 
2.798833120214e-04 1.124604255601e-02 0.0 
-4.168297926351e-05 1.364885576062e-02 0.0 
1.050116763959e-05 8.625769336747e-03 0.0 
1.021730887419e-05 8.480698031153e-04 0.0 
3.190662224524e-07 1.220740840027e-02 0.0 
2.787749979352e-06 2.128672460173e-03 0.0 
2.363218594490e-04 1.009861853524e-02 0.0 
2.501796281277e-04 9.746008451009e-03 0.0 
2.285446870463e-04 9.361410503789e-03 0.0 
2.460878889455e-04 8.931831657589e-03 0.0 
2.234634237003e-04 8.450966498159e-03 0.0 
2.368730473314e-04 8.039493986002e-03 0.0 
2.613317897921e-04 8.527390762919e-03 0.0 
2.487387419704e-04 7.616339197355e-03 0.0 
2.752087901643e-04 8.118459068673e-03 0.0 
2.129791233454e-04 7.521583339170e-03 0.0 
2.587124613610e-04 7.180843842196e-03 0.0 
2.872821056294e-04 7.696314704380e-03 0.0 
2.664736091124e-04 6.735309630770e-03 0.0 
2.969412758501e-04 7.260672064314e-03 0.0 
3.154680595117e-04 8.191783150696e-03 0.0 
3.271058880462e-04 7.769796999429e-03 0.0 
3.428199518627e-04 8.664206750586e-03 0.0 
3.563400458639e-04 8.254623588239e-03 0.0 
3.359130766965e-04 7.337957248710e-03 0.0 
3.668072338438e-04 7.835268436393e-03 0.0 
3.842402474342e-04 8.716261554149e-03 0.0 
3.961637451792e-04 8.308551129297e-03 0.0 
4.103992290585e-04 9.152876485033e-03 0.0 
4.235006978036e-04 8.754243361541e-03 0.0 
4.346274078886e-04 9.566885119493e-03 0.0 
4.485492675597e-04 9.175868010833e-03 0.0 
4.324059389767e-04 8.344800335207e-03 0.0 
4.579472564637e-04 8.776356263234e-03 0.0 
4.706889498843e-04 9.570565259087e-03 0.0 
4.802272017600e-04 9.180976007303e-03 0.0 
4.894229502606e-04 9.938037073128e-03 0.0 
4.986435711638e-04 9.557509915441e-03 0.0 
4.843536565877e-04 8.781975282663e-03 0.0 
5.020204207444e-04 9.169834958084e-03 0.0 
5.125460829742e-04 9.907224346099e-03 0.0 
5.146420500712e-04 9.530050963917e-03 0.0 
5.211386251711e-04 1.022874123858e-02 0.0 
5.214682907575e-04 9.861516539054e-03 0.0 
5.236269622664e-04 1.051988718772e-02 0.0 
5.216887397682e-04 1.016546532959e-02 0.0 
5.155275681705e-04 9.485621044879e-03 0.0 
5.135956805373e-04 9.802740599538e-03 0.0 
5.144812087813e-04 1.044287979456e-02 0.0 
5.042026568542e-04 1.009549209455e-02 0.0 
5.000483042228e-04 9.438083814078e-03 0.0 
4.889378316115e-04 9.748591589114e-03 0.0 
4.818209566144e-04 9.072075737270e-03 0.0 
4.695485927035e-04 9.401156922641e-03 0.0 
4.706147698267e-04 1.003140193808e-02 0.0 
4.505299714023e-04 9.702959647912e-03 0.0 
4.468338987982e-04 9.051434090667e-03 0.0 
4.275978153004e-04 9.377083402159e-03 0.0 
4.251891034589e-04 9.986493178006e-03 0.0 
4.028521035638e-04 9.677014962917e-03 0.0 
4.025428411203e-04 9.046062722149e-03 0.0 
3.785137787998e-04 9.368439825103e-03 0.0 
3.733738550712e-04 9.958530828724e-03 0.0 
3.504415357665e-04 9.668724372274e-03 0.0 
3.528603793849e-04 9.049848241550e-03 0.0 
3.261091378432e-04 9.376062946341e-03 0.0 
3.191662348763e-04 9.952560688711e-03 0.0 
2.967506518931e-04 9.678481574200e-03 0.0 
3.008273756843e-04 9.072818072660e-03 0.0 
2.731458776660e-04 9.400156828428e-03 0.0 
2.746035215709e-04 8.764256383912e-03 0.0 
2.651127563709e-04 9.969672054210e-03 0.0 
2.437242029097e-04 9.709187838541e-03 0.0 
2.324763155093e-04 1.024695621021e-02 0.0 
2.134622669328e-04 1.000127171194e-02 0.0 
4.828900309850e-04 8.374901068316e-03 0.0 
2.002357642362e-04 1.050293946122e-02 0.0 
2.158364906298e-04 1.071490344255e-02 0.0 
1.832819960136e-04 1.027572965954e-02 0.0 
1.930866890279e-04 9.747224776942e-03 0.0 
1.687793382337e-04 1.074147309155e-02 0.0 
1.538470596881e-04 1.053220425711e-02 0.0 
1.389400549074e-04 1.096280097610e-02 0.0 
5.185106782671e-04 1.089525949066e-02 0.0 
3.412508457803e-04 6.894962044612e-03 0.0 
1.258363335581e-04 1.077122942390e-02 0.0 
1.115104760718e-04 1.116688467266e-02 0.0 
1.205103565909e-04 1.133197522275e-02 0.0 
9.419273487789e-05 1.150106963706e-02 0.0 
2.019147111226e-04 7.957107386268e-03 0.0 
1.887293817938e-04 6.981611483025e-03 0.0 
1.796758186210e-04 7.438584600746e-03 0.0 
1.644030050588e-04 6.424550370904e-03 0.0 
1.572103156315e-04 6.893197900374e-03 0.0 
8.668998683104e-05 1.135375404179e-02 0.0 
2.358588241749e-04 6.166152484371e-03 0.0 
1.699424927918e-04 5.937905599091e-03 0.0 
3.937061112549e-04 9.541478581963e-03 0.0 
4.746785973562e-04 1.030993891539e-02 0.0 
4.870504109438e-04 8.718374577345e-03 0.0 
1.371777320298e-04 1.031382532496e-02 0.0 
1.106146658572e-04 1.057065271067e-02 0.0 
1.190704737404e-04 1.008605083959e-02 0.0 
2.980640627334e-04 8.399104337321e-03 0.0 
2.695985629070e-04 8.063769536314e-03 0.0 
2.883893040101e-04 7.659044983481e-03 0.0 
2.581886043393e-04 7.298176362592e-03 0.0 
2.718813275160e-04 6.853651105071e-03 0.0 
2.404536850007e-04 6.467236091890e-03 0.0 
2.280598197965e-04 6.930186455860e-03 0.0 
2.095018754369e-04 6.072541917265e-03 0.0 
1.983236993189e-04 6.553949044813e-03 0.0 
2.485993687163e-04 5.983292468741e-03 0.0 
2.812064497764e-04 6.387553529467e-03 0.0 
1.793906105069e-04 5.669581965395e-03 0.0 
1.693007409767e-04 6.168309646907e-03 0.0 
1.504332794131e-04 5.256943801147e-03 0.0 
1.413039274276e-04 5.772904617556e-03 0.0 
1.556942635032e-04 6.647379660772e-03 0.0 
1.286493751367e-04 6.269208396092e-03 0.0 
1.392274432507e-04 7.106429830417e-03 0.0 
4.659824908672e-04 8.332897303905e-03 0.0 
4.654156609030e-04 7.935285283916e-03 0.0 
4.415382678702e-04 7.530452319825e-03 0.0 
4.350869887202e-04 7.089396454692e-03 0.0 
4.084394946268e-04 6.664280811250e-03 0.0 
3.959784045717e-04 6.181092636207e-03 0.0 
3.665299917290e-04 5.734116121684e-03 0.0 
3.787627016620e-04 6.235262768709e-03 0.0 
2.719043475248e-04 6.275363212590e-03 0.0 
4.990648535675e-04 1.069144327096e-02 0.0 
5.058324603109e-04 1.102307688020e-02 0.0 
4.839537842440e-04 1.122685931143e-02 0.0 
4.868773513176e-04 1.154258332688e-02 0.0 
4.578168099284e-04 1.170044913188e-02 0.0 
4.563672055601e-04 1.200307767146e-02 0.0 
4.189322722315e-04 1.211476084640e-02 0.0 
4.188803940100e-04 1.183069722115e-02 0.0 
3.705542810445e-04 1.219963980784e-02 0.0 
3.708023686179e-04 1.193916351270e-02 0.0 
3.130591791132e-04 1.226277666994e-02 0.0 
3.155654879049e-04 1.203109782597e-02 0.0 
4.366488717454e-04 7.926190877775e-03 0.0 
4.220166071402e-04 6.622068617517e-03 0.0 
3.769694697752e-04 5.671780616108e-03 0.0 
4.025998659982e-04 6.128432369391e-03 0.0 
9.886328418109e-05 1.163978074050e-02 0.0 
1.145816492446e-04 5.366788678183e-03 0.0 
2.518545779763e-04 5.477164035977e-03 0.0 
2.856269862013e-04 5.907096176232e-03 0.0 
3.344152921235e-04 5.282449658605e-03 0.0 
7.121255867982e-05 1.165308017593e-02 0.0 
4.123927333835e-04 1.240507643311e-02 0.0 
4.468543144435e-04 1.231229666420e-02 0.0 
1.405965901558e-04 5.839933958319e-03 0.0 
1.353192436853e-04 6.324233475071e-03 0.0 
2.496045457893e-04 4.949633175288e-03 0.0 
6.481506576658e-05 1.152316369065e-02 0.0 
1.852795300648e-04 5.150678121402e-03 0.0 
3.051639111233e-04 1.250567237447e-02 0.0 
1.026591350504e-04 5.880657258259e-03 0.0 
8.938336589214e-05 4.950161968626e-03 0.0 
2.121193124826e-04 7.370670348309e-03 0.0 
3.517046945756e-04 5.135950850779e-03 0.0 
3.780946489319e-04 5.624285906665e-03 0.0 
3.671863176001e-04 1.168435748612e-02 0.0 
3.147679332593e-04 1.180553717529e-02 0.0 
2.565783562462e-04 1.210920860868e-02 0.0 
2.616484137848e-04 1.190057367783e-02 0.0 
3.112476471369e-04 1.157830685847e-02 0.0 
2.608996588801e-04 1.170869073500e-02 0.0 
2.076192769550e-04 1.199357496100e-02 0.0 
2.112563674329e-04 1.182562966611e-02 0.0 
2.574790060191e-04 1.151072310474e-02 0.0 
2.118385679796e-04 1.165055315799e-02 0.0 
1.643325105990e-04 1.193106205109e-02 0.0 
1.689040312853e-04 1.177666693103e-02 0.0 
9.717891400389e-05 4.398190004339e-03 0.0 
2.370137704582e-04 1.252284388856e-02 0.0 
3.268261828058e-04 9.061568955388e-03 0.0 
2.153373966110e-04 4.501216400926e-03 0.0 
3.162263292348e-04 4.753168783189e-03 0.0 
1.177584435652e-04 5.232691446496e-03 0.0 
1.142750732762e-04 5.732712078778e-03 0.0 
1.287583241491e-04 6.801700554731e-03 0.0 
1.092200688974e-04 6.222715971698e-03 0.0 
9.430269944200e-05 5.117883762055e-03 0.0 
9.066696599675e-05 5.623283377204e-03 0.0 
1.028038904797e-04 6.703181408568e-03 0.0 
8.560712772194e-05 6.117682670106e-03 0.0 
9.529429549463e-05 7.171831742416e-03 0.0 
7.940596973076e-05 6.600133457398e-03 0.0 
6.961461055912e-05 5.511011141782e-03 0.0 
6.457716741985e-05 6.008680776825e-03 0.0 
7.225023313081e-05 7.071166086764e-03 0.0 
5.837145586027e-05 6.494404561595e-03 0.0 
6.414881178517e-05 7.529575646212e-03 0.0 
5.115054256481e-05 6.967520739609e-03 0.0 
4.582253983236e-05 5.897932605789e-03 0.0 
5.259825881639e-05 1.177847001679e-02 0.0 
3.468048504945e-04 5.802608764375e-03 0.0 
3.003010387959e-04 4.824937985546e-03 0.0 
9.405747708759e-05 1.035956594476e-02 0.0 
1.013511335837e-04 9.847246626241e-03 0.0 
1.247018744408e-04 9.537962942997e-03 0.0 
1.023413414048e-04 9.274164597309e-03 0.0 
3.963887115709e-05 6.391091840637e-03 0.0 
3.412904720028e-05 5.282794367877e-03 0.0 
3.974017935146e-04 1.270103684684e-02 0.0 
4.276912425900e-04 1.262476486150e-02 0.0 
1.193702274971e-04 4.721997284848e-03 0.0 
7.789667276714e-05 5.481375379675e-03 0.0 
8.792713026990e-05 6.374478731992e-03 0.0 
4.897364238597e-04 1.063880335995e-02 0.0 
4.698183998632e-04 1.099328176299e-02 0.0 
4.808392010547e-04 1.128502930219e-02 0.0 
4.553563731774e-04 1.163564703218e-02 0.0 
4.451562356432e-04 1.133883462370e-02 0.0 
4.616267547455e-04 1.189371011398e-02 0.0 
3.141504616185e-04 6.799560209966e-03 0.0 
5.503048053361e-05 4.884207623293e-03 0.0 
1.268630748332e-04 1.148875568239e-02 0.0 
1.001051215886e-04 1.177065796435e-02 0.0 
6.623352365954e-05 4.522329775146e-03 0.0 
3.844965542552e-04 6.713429541488e-03 0.0 
4.076692558608e-04 7.455647346705e-03 0.0 
4.066343573674e-04 7.015054710503e-03 0.0 
3.740913412122e-04 6.504263479562e-03 0.0 
3.676208203450e-04 6.042536398152e-03 0.0 
3.314073555831e-04 5.491030553897e-03 0.0 
3.191426584650e-04 5.007131035171e-03 0.0 
3.562654108993e-04 5.572747022420e-03 0.0 
3.204347476714e-04 4.568836948962e-03 0.0 
3.020290177589e-04 4.512905013435e-03 0.0 
4.396508248029e-05 7.436907050705e-03 0.0 
4.444446422817e-04 7.067467566014e-03 0.0 
2.512276397449e-04 1.130902947335e-02 0.0 
5.568595943837e-05 1.188160210430e-02 0.0 
1.204534194361e-04 1.202928319832e-02 0.0 
4.615922723218e-05 1.167274798634e-02 0.0 
5.587153622306e-05 1.138300307584e-02 0.0 
2.060069245821e-04 3.931546259334e-03 0.0 
2.792326792534e-04 4.415541239018e-03 0.0 
2.928958640329e-04 4.915283807797e-03 0.0 
4.251491651686e-04 1.196550970186e-02 0.0 
4.166518632074e-04 1.166911114237e-02 0.0 
2.908123522731e-04 4.080047480523e-03 0.0 
1.695875998499e-04 7.893197598009e-03 0.0 
1.120247818352e-04 7.723658342535e-03 0.0 
1.026003772480e-04 8.165099009658e-03 0.0 
3.539845499751e-05 1.191740982737e-02 0.0 
1.103142467305e-04 1.214688977273e-02 0.0 
7.565212481368e-05 4.482175940486e-03 0.0 
4.693050265855e-04 1.219042305705e-02 0.0 
4.469253256272e-04 1.251020850050e-02 0.0 
2.192828867993e-04 1.274724358360e-02 0.0 
1.394969684185e-04 1.271933685445e-02 0.0 
2.872681800575e-05 5.779071437334e-03 0.0 
2.434462314469e-05 4.647442883427e-03 0.0 
1.261363348054e-04 8.927919035441e-03 0.0 
1.026816902946e-04 8.636387651800e-03 0.0 
2.413029418824e-04 4.396182206548e-03 0.0 
1.299534492077e-04 1.188858130545e-02 0.0 
2.807652470408e-05 4.114356098220e-03 0.0 
3.526767657889e-04 6.297277159552e-03 0.0 
3.838050401497e-04 7.167661081143e-03 0.0 
7.931952165937e-05 9.603537788891e-03 0.0 
3.711800496918e-04 1.300419148650e-02 0.0 
3.317855808487e-04 1.303164821698e-02 0.0 
2.944234448145e-04 1.113197543825e-02 0.0 
1.696129329612e-04 1.161726305116e-02 0.0 
3.780308052793e-05 1.155022124192e-02 0.0 
1.900826741973e-04 3.338039210785e-03 0.0 
7.604935631098e-05 3.951165913529e-03 0.0 
3.398116761342e-04 5.092864863793e-03 0.0 
3.900191703082e-04 6.113963168148e-03 0.0 
2.803541207838e-04 4.011835737349e-03 0.0 
8.596208688446e-05 1.209929696428e-02 0.0 
1.714543104896e-04 3.458267337604e-03 0.0 
5.520980816163e-05 5.070915481941e-03 0.0 
2.393401726878e-04 3.849082966628e-03 0.0 
2.522618146842e-04 4.314238670177e-03 0.0 
4.819825984266e-04 1.203626141320e-02 0.0 
4.580816141594e-04 1.235012406621e-02 0.0 
4.153941250867e-04 1.281957709442e-02 0.0 
4.258582666966e-04 1.266089053249e-02 0.0 
2.851082667618e-04 8.998461348569e-03 0.0 
4.871944235171e-04 1.183980869555e-02 0.0 
3.510817168842e-04 9.498352021825e-03 0.0 
3.313015537992e-04 9.870870809145e-03 0.0 
3.520699427224e-04 1.027207380291e-02 0.0 
4.315156373981e-04 1.102669511920e-02 0.0 
4.043513819073e-04 1.135673569670e-02 0.0 
5.059423838376e-04 1.135949977143e-02 0.0 
4.853120697631e-04 8.338023657859e-03 0.0 
1.494121338452e-04 9.209159315474e-03 0.0 
1.660285010590e-04 7.453964192287e-03 0.0 
3.183390689812e-04 8.013096073312e-03 0.0 
5.759181796421e-05 4.360230883927e-03 0.0 
4.350643791438e-05 3.697429853208e-03 0.0 
7.821967853691e-05 8.071897860857e-03 0.0 
6.868557814776e-05 8.502617821565e-03 0.0 
7.450044323734e-05 1.188664629737e-02 0.0 
7.117149765713e-05 1.199144605627e-02 0.0 
2.477752919203e-04 8.448674114405e-03 0.0 
1.819050610874e-04 4.045685304979e-03 0.0 
9.600570058383e-05 4.077965996590e-03 0.0 
9.351511158362e-05 3.539896247701e-03 0.0 
1.187049561246e-04 4.198951262395e-03 0.0 
2.264406801862e-04 3.816785611184e-03 0.0 
4.753904094933e-04 1.091294586626e-02 0.0 
4.413566742165e-04 7.946998679103e-03 0.0 
1.656419095834e-04 1.253170426257e-02 0.0 
4.615284731620e-04 7.951347340488e-03 0.0 
4.932663179673e-05 1.207219301684e-02 0.0 
3.078102375332e-04 6.367572428856e-03 0.0 
4.563896833125e-05 4.083103003488e-03 0.0 
5.276266020238e-05 3.496702023970e-03 0.0 
2.542328304218e-04 3.476534841019e-03 0.0 
2.698293401711e-04 1.016553321096e-02 0.0 
4.552084946509e-04 7.523426146459e-03 0.0 
4.759873356452e-04 7.963323343691e-03 0.0 
3.294068296160e-04 1.061775527830e-02 0.0 
3.464436614705e-04 1.098465128701e-02 0.0 
3.710568044989e-04 1.064931191108e-02 0.0 
3.613471893520e-04 1.133376383432e-02 0.0 
2.821915791588e-04 1.090854697208e-02 0.0 
2.421622397263e-04 1.110704557782e-02 0.0 
2.146516117346e-04 3.240161465399e-03 0.0 
2.404249039143e-04 3.428477530809e-03 0.0 
1.966704725286e-04 3.240668086863e-03 0.0 
2.104614948040e-04 3.685008261950e-03 0.0 
2.201055824428e-04 2.963799903661e-03 0.0 
2.574134371744e-04 3.583032442005e-03 0.0 
4.444934168477e-05 1.123239625096e-02 0.0 
3.861519986689e-04 1.197364260975e-02 0.0 
5.778741039136e-05 3.278008063823e-03 0.0 
3.107754411025e-04 1.023450009339e-02 0.0 
1.399075023500e-04 3.005059019269e-03 0.0 
1.502306625332e-04 3.584569484755e-03 0.0 
6.338887585779e-05 1.268981487662e-02 0.0 
9.650158522760e-05 1.252237888528e-02 0.0 
1.970553427992e-05 3.471109546739e-03 0.0 
3.768819965418e-04 1.310759054727e-02 0.0 
3.877906254097e-04 1.295740803957e-02 0.0 
3.597398747212e-04 1.322173247307e-02 0.0 
6.788762927546e-06 1.825857440675e-03 0.0 
1.846792024365e-05 1.018513278323e-02 0.0 
3.446224138823e-05 3.029640810234e-03 0.0 
4.142660325844e-04 1.067614420741e-02 0.0 
2.024747041127e-05 2.861878161847e-03 0.0 
4.436814660426e-04 7.090502319383e-03 0.0 
5.006413285412e-04 1.095281778542e-02 0.0 
2.766486826695e-04 4.853400114216e-03 0.0 
1.573167691831e-05 4.118254813779e-03 0.0 
1.168697065240e-05 2.755531417440e-03 0.0 
1.184230283838e-04 8.667275035769e-03 0.0 
1.081215915688e-04 9.096899670974e-03 0.0 
1.292863528638e-04 8.253875799730e-03 0.0 
2.929730772493e-04 1.275883187828e-02 0.0 
1.867094116609e-04 1.302748914772e-02 0.0 
4.189453636317e-05 4.237460031989e-03 0.0 
8.705641055567e-05 1.081003106734e-02 0.0 
7.080980396865e-05 1.056850723799e-02 0.0 
1.321818849946e-04 1.176020417042e-02 0.0 
1.658036831774e-04 1.146147378115e-02 0.0 
1.496966241776e-04 8.566494071720e-03 0.0 
1.742223925647e-04 8.864074960881e-03 0.0 
3.073864338355e-04 5.894858603121e-03 0.0 
2.713822445712e-04 5.338713614445e-03 0.0 
3.759684775688e-04 6.961163939051e-03 0.0 
3.522420322324e-04 6.766855543637e-03 0.0 
3.769859744924e-04 7.597490142750e-03 0.0 
4.067938017085e-04 7.969189831503e-03 0.0 
4.410958875392e-05 3.186684168218e-03 0.0 
2.935837177098e-05 2.384481582927e-03 0.0 
3.219095852271e-04 1.070242835370e-02 0.0 
3.369782229415e-04 1.094490852808e-02 0.0 
2.673877129734e-04 1.069432872423e-02 0.0 
5.428097946959e-05 2.742887509374e-03 0.0 
3.840220598476e-05 2.436897660462e-03 0.0 
5.626373750808e-05 2.930810573142e-03 0.0 
4.144578129013e-05 1.214798656896e-02 0.0 
6.375815798489e-05 1.208561733153e-02 0.0 
2.979112025602e-04 1.332364791288e-02 0.0 
2.445237165460e-04 1.330760600207e-02 0.0 
8.982011100323e-05 3.038871877544e-03 0.0 
1.156031596154e-04 3.673382446830e-03 0.0 
6.307023199461e-05 2.297541438953e-03 0.0 
2.693163846638e-05 1.143407092669e-02 0.0 
3.727508457532e-04 5.627939649691e-03 0.0 
1.712209874247e-04 2.774868132155e-03 0.0 
2.091862669019e-04 3.274469525934e-03 0.0 
1.272501950164e-04 2.142027530144e-03 0.0 
2.867194813737e-04 4.015957281641e-03 0.0 
2.165921859738e-04 2.906985662966e-03 0.0 
2.088273925312e-04 2.864789855682e-03 0.0 
2.105716838572e-05 1.284813064720e-02 0.0 
9.154837377066e-06 3.272708576462e-03 0.0 
8.187899182512e-05 9.011585647910e-03 0.0 
-3.526052142651e-05 1.279036727160e-02 0.0 
7.136127628932e-05 9.444826688857e-03 0.0 
5.989310618420e-05 8.926418529569e-03 0.0 
6.177000893234e-05 9.860360009014e-03 0.0 
2.240135382426e-05 1.170025402919e-02 0.0 
1.354719756166e-04 9.312372736328e-03 0.0 
1.481349627359e-04 8.801106708052e-03 0.0 
2.169798147968e-05 1.223862678558e-02 0.0 
3.712715899637e-05 2.049638258558e-03 0.0 
2.500467615857e-05 1.218932774340e-02 0.0 
3.374016879233e-05 1.213084220859e-02 0.0 
1.089344557250e-04 2.505156955777e-03 0.0 
1.202646873247e-04 3.109709661816e-03 0.0 
7.934258910619e-05 2.016868074984e-03 0.0 
9.436160601109e-05 2.683639831425e-03 0.0 
1.268306633977e-04 3.716139783411e-03 0.0 
9.966627498527e-05 3.251101964845e-03 0.0 
9.670955182884e-05 9.575309122094e-03 0.0 
6.547226925607e-05 2.034626058331e-03 0.0 
7.450690457568e-05 2.752348346879e-03 0.0 
4.307398402269e-05 1.568148753495e-03 0.0 
3.331710334344e-04 1.162910095529e-02 0.0 
4.285605255103e-04 1.249075022864e-02 0.0 
3.909191614395e-04 1.278915741855e-02 0.0 
3.442888643083e-04 1.325037246924e-02 0.0 
1.411233646762e-04 2.356932134980e-03 0.0 
1.722864567135e-04 3.095545275779e-03 0.0 
3.459918237338e-05 4.628174336541e-03 0.0 
3.964721845866e-05 5.578744271680e-03 0.0 
4.935461541739e-05 9.404536136593e-03 0.0 
3.565817510784e-05 9.441557607278e-03 0.0 
3.943164915025e-05 8.612909321094e-03 0.0 
2.826920391161e-05 8.717163170452e-03 0.0 
2.953753324802e-05 7.858807127423e-03 0.0 
1.887639235072e-05 7.970952591180e-03 0.0 
2.295283585965e-05 7.067300365965e-03 0.0 
1.624183278214e-04 2.241597863812e-03 0.0 
3.126167241469e-04 1.350146118947e-02 0.0 
3.060064288666e-04 1.095612800047e-02 0.0 
1.819220676707e-04 2.441014145295e-03 0.0 
2.268359293350e-04 3.169961295987e-03 0.0 
3.755851621627e-04 1.166869239701e-02 0.0 
3.540834734175e-04 1.227390366460e-02 0.0 
1.140501457868e-04 2.219501721426e-03 0.0 
5.052211654639e-04 1.150876877935e-02 0.0 
2.739587352379e-05 1.324093695778e-03 0.0 
-1.556183008640e-04 1.330159621357e-02 0.0 
2.379673727390e-05 1.315566803569e-02 0.0 
5.057314022925e-04 1.127010700635e-02 0.0 
3.885647913778e-04 1.101050540743e-02 0.0 
4.288499602339e-04 1.225563283123e-02 0.0 
3.954529704213e-04 1.252092632017e-02 0.0 
3.192738788356e-04 5.860245145933e-03 0.0 
5.040857790494e-05 1.217759010033e-02 0.0 
3.344774429691e-04 1.329403105605e-02 0.0 
3.283612794313e-05 6.963362354883e-03 0.0 
2.491470053624e-04 1.360463589282e-02 0.0 
1.822342540413e-05 5.067532281537e-03 0.0 
5.160316640994e-04 1.114677551006e-02 0.0 
4.373461080399e-04 1.032575795322e-02 0.0 
3.983438920829e-04 1.293073520985e-02 0.0 
4.630586912344e-04 1.212767593892e-02 0.0 
3.014539937067e-04 8.603497082378e-03 0.0 
2.677466033436e-04 9.380218624709e-03 0.0 
2.891278166471e-04 9.821424574630e-03 0.0 
5.188147440119e-04 1.079199503955e-02 0.0 
3.929699223381e-04 1.225398266829e-02 0.0 
3.587565409261e-04 1.280448531701e-02 0.0 
3.691465689504e-04 9.116181388636e-03 0.0 
1.454632837618e-04 4.834574338102e-03 0.0 
1.441368454379e-04 4.314089881589e-03 0.0 
1.108330688205e-04 3.171276177271e-03 0.0 
1.402829099421e-04 3.793275513150e-03 0.0 
1.740783126682e-04 4.940015774693e-03 0.0 
1.721675833081e-04 4.428681045053e-03 0.0 
1.333454795886e-04 3.278817902434e-03 0.0 
1.668510803227e-04 3.911346755577e-03 0.0 
1.122900896701e-04 2.500226961999e-03 0.0 
1.563260366005e-04 3.360442868168e-03 0.0 
2.022536530823e-04 4.555367412442e-03 0.0 
1.960327828149e-04 4.064393039751e-03 0.0 
1.500137419144e-04 2.977354771399e-03 0.0 
2.391460530547e-04 5.231727185121e-03 0.0 
1.407644847189e-04 1.821187766677e-03 0.0 
5.142270045074e-04 1.060430821669e-02 0.0 
1.046693111067e-04 1.292594673463e-02 0.0 
1.115209954069e-04 1.327701157030e-02 0.0 
4.163969016329e-04 9.942060488786e-03 0.0 
5.493303598711e-05 1.222400562736e-03 0.0 
4.301060065180e-05 1.200994549932e-03 0.0 
4.822784155701e-04 1.186735470284e-02 0.0 
7.268531871903e-05 1.133847895063e-03 0.0 
3.085342813164e-04 9.446291938143e-03 0.0 
3.645969857774e-04 1.247072168954e-02 0.0 
8.042990563060e-05 1.133372402014e-03 0.0 
1.732517260484e-04 5.441968931554e-03 0.0 
2.016908795366e-04 6.046692887136e-03 0.0 
1.961794777049e-04 6.520127697793e-03 0.0 
3.291808298682e-05 1.119045708245e-03 0.0 
1.401911209063e-04 7.819406450657e-03 0.0 
8.205943899681e-05 1.045201022588e-03 0.0 
4.580811994719e-04 7.511552549726e-03 0.0 
4.772043395323e-04 7.944212311523e-03 0.0 
5.007395086181e-04 8.748205838444e-03 0.0 
2.053114133922e-04 5.073101518151e-03 0.0 
8.362150078661e-05 1.093048860252e-03 0.0 
1.523511867990e-04 2.094367085595e-03 0.0 
1.454457139712e-04 2.086997687143e-03 0.0 
2.156246760467e-04 3.128829462790e-03 0.0 
7.652176268759e-05 1.079336455961e-03 0.0 
5.755409090505e-05 1.097286406359e-03 0.0 
5.884294483767e-05 1.041220367764e-03 0.0 
3.041342170940e-04 1.135662070214e-02 0.0 
3.499426176876e-04 1.118665139211e-02 0.0 
3.774520756339e-04 1.074245012666e-02 0.0 
3.926901643216e-04 1.100574796878e-02 0.0 
3.600877875515e-04 1.143434291070e-02 0.0 
4.049346809651e-04 1.127598346729e-02 0.0 
4.305410038035e-04 1.081334973447e-02 0.0 
4.137557543555e-04 1.155291487751e-02 0.0 
2.247100396701e-04 4.223866804498e-03 0.0 
6.594934181017e-05 1.033096244188e-03 0.0 
3.034332510907e-04 7.234919157321e-03 0.0 
3.347399277734e-04 7.618573076542e-03 0.0 
3.475846921864e-04 8.367735432704e-03 0.0 
1.716890501356e-04 9.481859713196e-03 0.0 
1.980976956532e-04 9.154885047570e-03 0.0 
1.981903941756e-04 8.499962522483e-03 0.0 
1.451375886755e-04 9.793366764538e-03 0.0 
4.007253084562e-04 6.567471458835e-03 0.0 
6.079461944616e-05 1.039631347370e-03 0.0 
4.137584713856e-04 7.557955968834e-03 0.0 
2.213277607755e-04 9.437677959302e-03 0.0 
1.815489632535e-04 1.016039788081e-02 0.0 
1.874995107319e-04 9.430117498332e-03 0.0 
2.067683526198e-04 9.405719318337e-03 0.0 
1.914415905593e-04 8.533340291940e-03 0.0 
1.668381582060e-04 9.332505324993e-03 0.0 
1.250165887254e-04 8.257499689276e-03 0.0 
1.004084172839e-04 7.938752435137e-03 0.0 
7.903371817628e-05 8.335308968569e-03 0.0 
7.605784091510e-05 7.609614827656e-03 0.0 
5.521836818701e-05 8.021469223861e-03 0.0 
5.748649122107e-05 8.697401264297e-03 0.0 
5.160595715597e-05 7.269352108657e-03 0.0 
3.157896501612e-05 7.782216756493e-03 0.0 
1.454836472792e-04 1.016642672610e-02 0.0 
-7.456126219331e-05 1.258094255256e-02 0.0 
5.599781600789e-06 1.248373657430e-02 0.0 
6.683213461310e-06 1.241677608153e-02 0.0 
6.622961045715e-05 1.235748611939e-02 0.0 
7.726265380099e-05 1.242168314993e-02 0.0 
1.409845313041e-04 1.223113637873e-02 0.0 
1.471844525189e-04 1.233438483442e-02 0.0 
4.523885969525e-06 1.257141533436e-02 0.0 
-4.628753772132e-05 1.244199648732e-02 0.0 
1.024756444725e-05 1.236230701563e-02 0.0 
-3.443794804119e-05 1.239120021651e-02 0.0 
1.116817008314e-05 1.231952629626e-02 0.0 
6.406395652139e-05 1.222827207697e-02 0.0 
9.915654807234e-05 1.188584317347e-02 0.0 
1.918858471066e-05 1.220015109950e-03 0.0 
2.147006507300e-05 9.598276175382e-03 0.0 
4.146751184813e-05 9.878822300926e-03 0.0 
3.757534316613e-05 1.036994951587e-02 0.0 
6.063367802053e-05 1.011458497013e-02 0.0 
3.989693428493e-05 9.361977566155e-03 0.0 
1.818179860039e-05 1.061199492179e-02 0.0 
3.504007000801e-05 1.076540902233e-02 0.0 
2.931428789135e-06 1.220807818869e-02 0.0 
5.925179635154e-06 1.215595404658e-02 0.0 
1.306161170330e-06 1.216168402680e-02 0.0 
8.745660359165e-06 1.205776785095e-02 0.0 
1.428964268689e-05 1.206402444608e-02 0.0 
1.040288467211e-05 1.215859810097e-02 0.0 
1.407957419579e-05 1.216607882865e-02 0.0 
4.339906122041e-06 1.222228171338e-02 0.0 
1.732969742827e-05 1.217605739413e-02 0.0 
2.771790794076e-05 1.207129258337e-02 0.0 
4.148516315064e-06 1.223337655522e-02 0.0 
6.863248492657e-06 5.659189384244e-03 0.0 
1.338269337681e-05 5.100549217072e-03 0.0 
5.417496668687e-05 1.102038008803e-03 0.0 
1.118673101214e-04 1.010030881545e-02 0.0 
-1.533917378616e-05 1.231611216952e-02 0.0 
1.046892937421e-05 1.409429691678e-03 0.0 
1.535434890947e-05 1.174113331671e-03 0.0 
1.353114169305e-05 1.136308310669e-03 0.0 
1.129288923258e-05 2.988758760377e-03 0.0 
1.839587825228e-05 2.450849927953e-03 0.0 
4.737744630159e-06 1.368912834254e-03 0.0 
1.496185769333e-04 1.114589375162e-02 0.0 
1.026737199375e-04 2.669109037195e-03 0.0 
3.023191302361e-05 3.568728330572e-03 0.0 
3.531281259261e-04 1.274409477393e-02 0.0 
2.030864034186e-04 1.129156289381e-02 0.0 
6.255559523602e-05 5.984703868318e-03 0.0 
1.836028478898e-04 7.012253514527e-03 0.0 
7.366847813958e-05 3.961796249381e-03 0.0 
1.131436838293e-04 6.745476938097e-03 0.0 
1.229197844902e-04 4.832691608672e-03 0.0 
1.426664073187e-04 2.150206604604e-03 0.0 
3.143075045991e-05 1.179782438268e-02 0.0 
8.709892052204e-05 7.627874286079e-03 0.0 
5.602912389908e-05 7.979012788429e-03 0.0 
5.102338288321e-05 5.397296174048e-03 0.0 
1.002152031347e-04 1.099315390816e-02 0.0 
8.070609196877e-05 8.966502853256e-03 0.0 
7.488599026675e-05 1.177219993413e-02 0.0 
1.436582402329e-04 2.136379145965e-03 0.0 
3.735080748209e-04 9.912976838848e-03 0.0 
3.259008098287e-04 8.728443645370e-03 0.0 
1.648289891065e-04 1.003897230718e-02 0.0 
1.818410658491e-04 1.093785075758e-02 0.0 
2.091621944202e-04 1.147089574229e-02 0.0 
5.042439045020e-04 1.028182309388e-02 0.0 
2.487675637609e-04 9.110336255528e-03 0.0 
2.164853021188e-04 5.571377724335e-03 0.0 
3.875155230279e-05 4.766290129994e-03 0.0 
5.311501880399e-07 1.226054761304e-02 0.0 
2.186265575007e-04 5.047617568683e-03 0.0 
2.408821317482e-04 7.721314199754e-03 0.0 
1.210304564331e-04 7.269836034186e-03 0.0 
3.478451123230e-04 5.211322853960e-03 0.0 
1.579692328083e-04 1.206907041518e-02 0.0 
7.338123721450e-05 5.003555260463e-03 0.0 
7.146582867153e-05 2.933370046560e-03 0.0 
1.595768928275e-04 8.344310107544e-03 0.0 
5.300075921020e-05 1.198644071290e-02 0.0 
9.306178918744e-05 8.607876658593e-03 0.0 
1.545991570404e-04 2.845457253946e-03 0.0 
1.440987926128e-04 5.341555146495e-03 0.0 
7.674770872014e-05 1.119727977480e-02 0.0 
4.597717912721e-04 8.704797460927e-03 0.0 
4.562496335916e-04 9.952000032482e-03 0.0 
2.668058757019e-04 1.088481931994e-02 0.0 
3.139596845725e-05 3.056780645186e-03 0.0 
4.995429014875e-04 8.776129243892e-03 0.0 
2.809183195996e-04 4.261222368308e-03 0.0 
4.143444373323e-04 7.123144650127e-03 0.0 
6.470832293587e-05 1.102363055240e-02 0.0 
1.555788943453e-04 4.163919024923e-03 0.0 
5.038081164330e-04 9.102730413244e-03 0.0 
5.874126212516e-05 3.831559129797e-03 0.0 
3.390487042964e-04 5.968536073835e-03 0.0 
4.870378152061e-04 1.036147661955e-02 0.0 
9.620236969486e-05 4.603639521509e-03 0.0 
3.757169775635e-04 8.711950367595e-03 0.0 
3.224002695441e-04 4.659162340214e-03 0.0 
3.947539463491e-04 1.030231820115e-02 0.0 
4.040896799754e-04 7.887640690503e-03 0.0 
3.043087506051e-04 6.825283862896e-03 0.0 
4.623503672594e-04 8.367352700804e-03 0.0 
4.282697519761e-05 6.472189609168e-03 0.0 
1.863442193788e-04 4.610490394166e-03 0.0 
2.506619778089e-04 1.231352295130e-02 0.0 
4.870967777875e-04 1.156936659525e-02 0.0 
1.489417550386e-04 7.357612287431e-03 0.0 
2.630975027914e-04 3.945704604973e-03 0.0 
4.201110522354e-05 2.587849566958e-03 0.0 
4.552016870408e-04 1.067298605994e-02 0.0 
1.554555057217e-04 4.723127869781e-03 0.0 
7.469190404386e-05 3.447471339785e-03 0.0 
2.237211828205e-04 8.811008821254e-03 0.0 
1.050598007165e-05 1.166589426216e-02 0.0 
2.772200718790e-04 1.302193273574e-02 0.0 
4.531062315004e-04 1.140235277428e-02 0.0 
5.106140470397e-04 9.145068962075e-03 0.0 
2.206469514927e-04 8.122374993658e-03 0.0 
7.886397993386e-05 2.363911929005e-03 0.0 
1.271576814732e-04 4.285436246098e-03 0.0 
2.841132322932e-04 5.394374263227e-03 0.0 
6.436198746629e-05 1.379563662909e-02 0.0 
2.893660295247e-04 1.056660519762e-02 0.0 
1.007589838004e-04 3.836224118455e-03 0.0 
4.346054708070e-04 8.337616227696e-03 0.0 
2.904508389598e-04 4.186706694419e-03 0.0 
3.494558836694e-05 8.424987897193e-03 0.0 
1.504436197492e-04 2.155892755820e-03 0.0 
3.463183706447e-04 1.194939769168e-02 0.0 
7.656502639010e-05 3.375211079211e-03 0.0 
3.129538309919e-04 5.352471690601e-03 0.0 
4.981862863721e-04 1.169967613784e-02 0.0 
3.063099925115e-05 1.018409632276e-02 0.0 
4.854587591442e-05 2.107517062148e-03 0.0 
2.623316260738e-04 4.289957239726e-03 0.0 
4.359215029307e-04 7.498192298918e-03 0.0 
4.213875245307e-04 8.703503133741e-03 0.0 
2.934530505337e-04 1.159230234507e-02 0.0 
1.932958190712e-04 7.788974794455e-03 0.0 
3.736762309442e-04 7.407938503730e-03 0.0 
2.953154643949e-05 1.089827400657e-03 0.0 
2.457190018641e-04 3.784778655782e-03 0.0 
2.226956629314e-04 7.099103559219e-03 0.0 
1.723230975656e-04 8.188673537431e-03 0.0 
4.261704992304e-04 6.626166932906e-03 0.0 
2.129350872997e-05 1.206820466705e-02 0.0 
3.203941201792e-04 1.129588832071e-02 0.0 
1.463349595330e-04 7.865330059638e-03 0.0 
4.436727326715e-04 1.110681971969e-02 0.0 
3.938621454047e-04 8.352865766631e-03 0.0 
1.827712357354e-04 2.392830589681e-03 0.0 
1.206781223053e-04 7.531059934227e-03 0.0 
4.622838898213e-04 1.059812255660e-02 0.0 
9.551304347337e-05 7.186632733229e-03 0.0 
3.137914690459e-04 1.221625772560e-02 0.0 
2.302054708776e-04 6.624169850694e-03 0.0 
7.003013100674e-05 6.831151380596e-03 0.0 
3.425302275607e-04 6.440424158353e-03 0.0 
3.501737557957e-05 1.207398077755e-02 0.0 
4.302459240984e-04 7.065518596037e-03 0.0 
2.691689148516e-05 3.562463230710e-03 0.0 
2.504829046925e-04 1.047608856548e-02 0.0 
3.651135743390e-04 7.998116957839e-03 0.0 
2.047971292755e-04 5.561832200983e-03 0.0 
3.222068575392e-04 1.276039943370e-02 0.0 
3.463713793910e-04 7.207587463229e-03 0.0 
3.024575778930e-04 5.413856534005e-03 0.0 
4.191887422689e-04 6.620155993441e-03 0.0 
4.912050424120e-04 8.368163168357e-03 0.0 
3.193644076520e-04 6.338579354874e-03 0.0 
3.600367889360e-04 1.251913502029e-02 0.0 
1.572277428651e-04 1.132126643385e-02 0.0 
1.306997318028e-04 1.162872116572e-02 0.0 
4.453345280163e-04 1.028978166518e-02 0.0 
2.638250153368e-04 4.826821836931e-03 0.0 
1.744597916040e-05 1.192707284961e-02 0.0 
2.386082728304e-04 5.688136974425e-03 0.0 
9.398392671001e-05 1.199736727971e-02 0.0 
4.140440044571e-04 1.052558794089e-02 0.0 
3.464990629095e-04 5.056767683909e-03 0.0 
8.420275256092e-06 7.721113061421e-03 0.0 
3.948457373089e-04 1.024012701284e-02 0.0 
1.296944481767e-05 1.137178383638e-02 0.0 
3.600144102207e-04 1.048125792823e-02 0.0 
4.629897166927e-04 7.524928657549e-03 0.0 
3.406029317353e-04 1.021451257285e-02 0.0 
3.048037664863e-04 1.046070933682e-02 0.0 
2.014663277747e-05 2.363382254267e-03 0.0 
2.858067976849e-04 1.021575055267e-02 0.0 
1.664152260824e-06 1.136694906913e-03 0.0 
8.256078413860e-06 1.110720627687e-03 0.0 
1.170898444051e-05 9.548977770367e-03 0.0 
3.099200573121e-04 1.325637773135e-02 0.0 
-1.302441387945e-04 1.292560022580e-02 0.0 
3.615228114504e-04 1.296108942392e-02 0.0 
2.301444367537e-04 1.091326015790e-02 0.0 
2.740704785385e-04 5.821628888511e-03 0.0 
2.433894505720e-05 9.508197447360e-03 0.0 
1.931594233620e-04 1.112032718336e-02 0.0 
1.082808653684e-04 2.190631773158e-03 0.0 
7.943993447936e-05 1.045973535745e-03 0.0 
1.556892317483e-05 6.148312383700e-03 0.0 
2.591411783054e-04 3.756361154777e-03 0.0 
4.010203382975e-04 6.123675063316e-03 0.0 
4.290499396539e-06 3.393582344631e-03 0.0 
7.169058100405e-05 1.024296162645e-02 0.0 
1.310348210727e-05 1.228388787024e-02 0.0 
2.075550786081e-05 6.006641623262e-03 0.0 
2.879722898112e-04 1.361063278370e-02 0.0 
3.299927762006e-04 1.340346327166e-02 0.0 
2.827777519456e-04 1.358396560830e-02 0.0 
5.053314066196e-05 1.087878429959e-02 0.0 
5.916632678075e-05 1.230057273263e-02 0.0 
2.587843783884e-04 1.377544412551e-02 0.0 
1.604738762154e-04 2.168246774051e-03 0.0 
1.210511704423e-04 9.488230727798e-03 0.0 
3.181209963643e-04 4.601217174065e-03 0.0 
1.860397562629e-04 1.388246274987e-02 0.0 
5.044832661904e-05 2.283833878527e-03 0.0 
1.664303985882e-04 2.194953319861e-03 0.0 
4.011518407418e-05 9.720302914112e-04 0.0 
2.495129625745e-04 3.448715619500e-03 0.0 
1.957755907504e-04 1.358838246512e-02 0.0 
1.763429855577e-04 8.720094030038e-03 0.0 
1.361395388914e-04 2.126169227059e-03 0.0 
2.102460267126e-05 5.263674232569e-03 0.0 
2.830180215798e-05 9.335106262874e-04 0.0 
1.519272700296e-04 9.564684805627e-03 0.0 
1.264823243863e-05 2.208353007417e-03 0.0 
1.903242707581e-04 1.235273364398e-02 0.0 
5.586665887268e-06 2.142985676339e-03 0.0 
2.339980568671e-04 4.725207481965e-03 0.0 
4.890595890123e-05 8.415054361823e-03 0.0 
2.103677267817e-04 8.752336400424e-03 0.0 
2.254481082720e-05 1.925662829278e-03 0.0 
9.159419133093e-05 2.212988905384e-03 0.0 
1.235245662369e-04 1.348370225601e-02 0.0 
2.432638328709e-05 6.255530737683e-03 0.0 
8.151962372134e-05 1.011071995313e-02 0.0 
-1.515710928271e-05 1.268396158658e-02 0.0 
9.650866345177e-05 2.024272817918e-03 0.0 
1.874163988104e-04 3.608452072699e-03 0.0 
3.745635520526e-05 1.964749959805e-03 0.0 
3.347918708499e-06 1.206612298659e-02 0.0 
1.322779886380e-05 1.223593599003e-02 0.0 
1.043733411142e-04 1.875958301356e-03 0.0 
1.139674344144e-04 2.013629234633e-03 0.0 
2.070963754155e-04 1.212793040620e-02 0.0 
1.669192053981e-05 9.237902796186e-04 0.0 
-8.178956655090e-06 1.339113204901e-02 0.0 
9.818567006185e-05 1.032682047136e-02 0.0 
1.860293286711e-05 1.219399723447e-02 0.0 
2.330368067340e-05 9.445544361671e-04 0.0 
3.116182535742e-05 2.120590131468e-03 0.0 
5.672808894011e-05 9.625180245763e-03 0.0 
2.174835402706e-04 1.006395441976e-02 0.0 
3.036029128038e-05 1.113553388164e-02 0.0 
2.073655628377e-04 2.987933985073e-03 0.0 
4.607502870008e-05 1.222487169319e-02 0.0 
2.062463575089e-05 2.001378515022e-03 0.0 
1.170858596486e-04 1.835058784802e-03 0.0 
6.157311945515e-05 2.010512743287e-03 0.0 
6.367687719263e-05 8.055593169844e-04 0.0 
-2.375962248847e-05 1.299400857135e-02 0.0 
1.413905668012e-04 1.885603140424e-03 0.0 
1.930687703710e-04 2.879084770930e-03 0.0 
5.420376152490e-05 1.027865288086e-02 0.0 
7.938926899616e-05 2.158974801275e-03 0.0 
5.318528996838e-05 1.052801220554e-02 0.0 
4.216114676712e-05 1.194766023463e-02 0.0 
9.741528273849e-07 1.007524227463e-03 0.0 
-7.653812014324e-07 1.220612743745e-02 0.0 
8.824742330553e-06 1.027826099846e-02 0.0 
3.549398650791e-06 9.064200198467e-04 0.0 
2.322486849239e-05 1.196331891387e-02 0.0 
1.925317626943e-05 8.896706161181e-03 0.0 
1.030029284477e-04 1.940050851570e-03 0.0 
1.436722121776e-05 8.308315182808e-03 0.0 
1.093598672630e-05 4.181725280022e-03 0.0 
1.063012441426e-04 1.222430070875e-02 0.0 
-1.311897681849e-04 1.278432504624e-02 0.0 
1.520745534269e-05 7.219594851553e-03 0.0 
1.517962475544e-04 1.966473277828e-03 0.0 
4.739043099237e-05 1.918351877388e-03 0.0 
3.904575406232e-05 7.891672116504e-03 0.0 
2.020957300588e-04 1.322036552857e-02 0.0 
1.464130813868e-04 2.734701161544e-03 0.0 
6.037016139737e-05 9.175509812188e-03 0.0 
1.872759706737e-04 2.930734084148e-03 0.0 
2.065246423578e-04 2.915727776101e-03 0.0 
-1.484346891355e-04 1.350714267405e-02 0.0 
1.391820138340e-05 7.593048058310e-03 0.0 
1.748808884525e-05 1.221074359494e-02 0.0 
6.567845193867e-05 1.799120987009e-03 0.0 
3.946295915634e-05 8.891450154879e-03 0.0 
-4.228469211564e-05 1.422499988911e-02 0.0 
9.006514155602e-06 1.508126583428e-02 0.0 
1.059857867591e-04 1.423493130309e-02 0.0 
4.970105993839e-06 1.482368761601e-02 0.0 
1.930316103291e-04 1.410452877940e-02 0.0 
6.594410974386e-06 1.450360202401e-02 0.0 
2.439227996414e-04 1.385528392665e-02 0.0 
4.231824473863e-06 1.411952776933e-02 0.0 
2.693575151421e-04 1.350908555764e-02 0.0 
6.764297910157e-06 1.367122649058e-02 0.0 
2.778942121063e-04 1.306729271663e-02 0.0 
4.539717776826e-06 1.315861384511e-02 0.0 
2.725699204953e-04 1.254695761156e-02 0.0 
7.111613457245e-06 1.258169308465e-02 0.0 
2.570492620186e-04 1.193961681148e-02 0.0 
4.686497083933e-06 1.194051756266e-02 0.0 
2.346587232521e-04 1.126699398573e-02 0.0 
7.059767576576e-06 1.123545346367e-02 0.0 

TENSORS node_materi_stress float
-3.848884777502e+00 3.161723239877e-02 0.0 
3.161723239877e-02 -8.500687024686e+00 0.0 
0.0 0.0 -3.623124815736e+00 
-7.635384372208e+01 4.479087629596e-01 0.0 
4.479087629596e-01 -1.769528615502e+02 0.0 
0.0 0.0 -7.559201158168e+01 
-1.632771749639e+02 -2.923876319538e-01 0.0 
-2.923876319538e-01 -3.827081164727e+02 0.0 
0.0 0.0 -1.633955874310e+02 
-1.557152690485e+02 4.280168092043e-01 0.0 
4.280168092043e-01 -3.643408642625e+02 0.0 
0.0 0.0 -1.556168399933e+02 
-8.643684892687e+00 -2.512057777748e-01 0.0 
-2.512057777748e-01 -2.071082139057e+01 0.0 
0.0 0.0 -8.618520735030e+00 
-1.617885046054e+01 -5.834490744744e-01 0.0 
-5.834490744744e-01 -4.015636870659e+01 0.0 
0.0 0.0 -1.650056575014e+01 
-2.354111028079e+01 -4.456227780008e-01 0.0 
-4.456227780008e-01 -5.829810194810e+01 0.0 
0.0 0.0 -2.415176366867e+01 
-3.199077324757e+01 -3.941017181656e-01 0.0 
-3.941017181656e-01 -7.889956844932e+01 0.0 
0.0 0.0 -3.286710250907e+01 
-4.003825620027e+01 -2.869198514657e-01 0.0 
-2.869198514657e-01 -9.870702324677e+01 0.0 
0.0 0.0 -4.122358383411e+01 
-4.824135965348e+01 -2.684362806946e-01 0.0 
-2.684362806946e-01 -1.182444056027e+02 0.0 
0.0 0.0 -4.954572957685e+01 
-5.636190897623e+01 -2.941319023304e-01 0.0 
-2.941319023304e-01 -1.377673595123e+02 0.0 
0.0 0.0 -5.783878054655e+01 
-6.444845280135e+01 -2.570149398856e-01 0.0 
-2.570149398856e-01 -1.572765107420e+02 0.0 
0.0 0.0 -6.611748906299e+01 
-7.262427592126e+01 -2.504897444848e-01 0.0 
-2.504897444848e-01 -1.767870686972e+02 0.0 
0.0 0.0 -7.442340338553e+01 
-8.081974408657e+01 -3.164275967650e-01 0.0 
-3.164275967650e-01 -1.964877789059e+02 0.0 
0.0 0.0 -8.279225689774e+01 
-8.920478586417e+01 -4.792240163001e-01 0.0 
-4.792240163001e-01 -2.166808440866e+02 0.0 
0.0 0.0 -9.136568898523e+01 
-9.777720363222e+01 -5.075506729143e-01 0.0 
-5.075506729143e-01 -2.362384535850e+02 0.0 
0.0 0.0 -9.980469716517e+01 
-1.056842068640e+02 -6.564734555989e-01 0.0 
-6.564734555989e-01 -2.540528531445e+02 0.0 
0.0 0.0 -1.075211180025e+02 
-1.141379129674e+02 -2.264301501103e-01 0.0 
-2.264301501103e-01 -2.736352200954e+02 0.0 
0.0 0.0 -1.159319399189e+02 
-1.229887366209e+02 -2.066732610062e-01 0.0 
-2.066732610062e-01 -2.937230542022e+02 0.0 
0.0 0.0 -1.246135372469e+02 
-1.316577753590e+02 -2.074022116841e-01 0.0 
-2.074022116841e-01 -3.132001883305e+02 0.0 
0.0 0.0 -1.330573891069e+02 
-1.404253576373e+02 -1.815015606316e-01 0.0 
-1.815015606316e-01 -3.328236217451e+02 0.0 
0.0 0.0 -1.415746938147e+02 
-1.493301443768e+02 -2.302754932198e-01 0.0 
-2.302754932198e-01 -3.525957896667e+02 0.0 
0.0 0.0 -1.501777802130e+02 
-1.580126660221e+02 -3.131318854004e-01 0.0 
-3.131318854004e-01 -3.714837956504e+02 0.0 
0.0 0.0 -1.584489385018e+02 
-1.562125355932e+02 1.255353073671e-01 0.0 
1.255353073671e-01 -3.654296930491e+02 0.0 
0.0 0.0 -1.560926685927e+02 
-1.556428564449e+02 1.941089289269e-01 0.0 
1.941089289269e-01 -3.643983455259e+02 0.0 
0.0 0.0 -1.556123605912e+02 
-1.557726154459e+02 5.263926977900e-01 0.0 
5.263926977900e-01 -3.646655629984e+02 0.0 
0.0 0.0 -1.557314535333e+02 
-1.557227845727e+02 2.411485428778e-01 0.0 
2.411485428778e-01 -3.646492792077e+02 0.0 
0.0 0.0 -1.557116191341e+02 
-1.554700025533e+02 4.869710521502e-01 0.0 
4.869710521502e-01 -3.640279913109e+02 0.0 
0.0 0.0 -1.554493981593e+02 
-1.557977223847e+02 5.539981181771e-01 0.0 
5.539981181771e-01 -3.646777002808e+02 0.0 
0.0 0.0 -1.557426267996e+02 
-1.560306798683e+02 6.587479123488e-01 0.0 
6.587479123488e-01 -3.649217076882e+02 0.0 
0.0 0.0 -1.558857162669e+02 
-1.557490562846e+02 8.312428296275e-01 0.0 
8.312428296275e-01 -3.646257337123e+02 0.0 
0.0 0.0 -1.557124369991e+02 
-1.561483016277e+02 1.087991448577e+00 0.0 
1.087991448577e+00 -3.654008614817e+02 0.0 
0.0 0.0 -1.560647489328e+02 
-1.561095658875e+02 9.381472452753e-01 0.0 
9.381472452753e-01 -3.654208779038e+02 0.0 
0.0 0.0 -1.560591331374e+02 
-1.558972109139e+02 1.212505850562e+00 0.0 
1.212505850562e+00 -3.648768497728e+02 0.0 
0.0 0.0 -1.558322182060e+02 
-1.561851217811e+02 1.360636215594e+00 0.0 
1.360636215594e+00 -3.655507846738e+02 0.0 
0.0 0.0 -1.561207719365e+02 
-1.565660812588e+02 1.508250938785e+00 0.0 
1.508250938785e+00 -3.660986392676e+02 0.0 
0.0 0.0 -1.563994161579e+02 
-1.563313842374e+02 1.689211302196e+00 0.0 
1.689211302196e+00 -3.658913336416e+02 0.0 
0.0 0.0 -1.562668153637e+02 
-1.564240045848e+02 1.898125551786e+00 0.0 
1.898125551786e+00 -3.658258102517e+02 0.0 
0.0 0.0 -1.562749444510e+02 
-1.560986343118e+02 1.997488807736e+00 0.0 
1.997488807736e+00 -3.653682455647e+02 0.0 
0.0 0.0 -1.560400639629e+02 
-1.561600851188e+02 2.242563355185e+00 0.0 
2.242563355185e+00 -3.654992152673e+02 0.0 
0.0 0.0 -1.560977901158e+02 
-1.567740940247e+02 2.439483998166e+00 0.0 
2.439483998166e+00 -3.665390249075e+02 0.0 
0.0 0.0 -1.565939356797e+02 
-1.570252750366e+02 2.672030112358e+00 0.0 
2.672030112358e+00 -3.673213935914e+02 0.0 
0.0 0.0 -1.569040005884e+02 
-1.573455689702e+02 2.886082213351e+00 0.0 
2.886082213351e+00 -3.681214511942e+02 0.0 
0.0 0.0 -1.572401060493e+02 
-1.574863481852e+02 2.996751245638e+00 0.0 
2.996751245638e+00 -3.685089179589e+02 0.0 
0.0 0.0 -1.573985798432e+02 
-1.577222500346e+02 3.267324479019e+00 0.0 
3.267324479019e+00 -3.688990791186e+02 0.0 
0.0 0.0 -1.575863987460e+02 
-1.578961160937e+02 3.433122867587e+00 0.0 
3.433122867587e+00 -3.694537610159e+02 0.0 
0.0 0.0 -1.578049631329e+02 
-1.581275597214e+02 3.619064681060e+00 0.0 
3.619064681060e+00 -3.700335278539e+02 0.0 
0.0 0.0 -1.580483262726e+02 
-1.584860649917e+02 3.762454154796e+00 0.0 
3.762454154796e+00 -3.709246340039e+02 0.0 
0.0 0.0 -1.584232096987e+02 
-1.589703516793e+02 3.904081970228e+00 0.0 
3.904081970228e+00 -3.719137633634e+02 0.0 
0.0 0.0 -1.588652345128e+02 
-1.591829573836e+02 3.995406532088e+00 0.0 
3.995406532088e+00 -3.727702311184e+02 0.0 
0.0 0.0 -1.591859565506e+02 
-1.596835288509e+02 4.046144324778e+00 0.0 
4.046144324778e+00 -3.736871918345e+02 0.0 
0.0 0.0 -1.596112162056e+02 
-1.597947843909e+02 4.070648295518e+00 0.0 
4.070648295518e+00 -3.742805485076e+02 0.0 
0.0 0.0 -1.598225998696e+02 
-1.604812424380e+02 4.180816098340e+00 0.0 
4.180816098340e+00 -3.757639491163e+02 0.0 
0.0 0.0 -1.604735574663e+02 
-1.606017603779e+02 3.840689414066e+00 0.0 
3.840689414066e+00 -3.763507862402e+02 0.0 
0.0 0.0 -1.606857639854e+02 
-1.605412502014e+02 3.840425760924e+00 0.0 
3.840425760924e+00 -3.761532504463e+02 0.0 
0.0 0.0 -1.606083501943e+02 
-1.608704216751e+02 3.753432385612e+00 0.0 
3.753432385612e+00 -3.769181234393e+02 0.0 
0.0 0.0 -1.609365635343e+02 
-1.612900652138e+02 3.638508920832e+00 0.0 
3.638508920832e+00 -3.779559257336e+02 0.0 
0.0 0.0 -1.613737972842e+02 
-1.616514648737e+02 3.440400203012e+00 0.0 
3.440400203012e+00 -3.787767590999e+02 0.0 
0.0 0.0 -1.617284671921e+02 
-1.618413781690e+02 3.275279302541e+00 0.0 
3.275279302541e+00 -3.794450344193e+02 0.0 
0.0 0.0 -1.619859237765e+02 
-1.622548356133e+02 3.029572540286e+00 0.0 
3.029572540286e+00 -3.801931884076e+02 0.0 
0.0 0.0 -1.623344072063e+02 
-1.622355827011e+02 2.790813632424e+00 0.0 
2.790813632424e+00 -3.804094212916e+02 0.0 
0.0 0.0 -1.623935011978e+02 
-1.624219290213e+02 2.583444532624e+00 0.0 
2.583444532624e+00 -3.806450368299e+02 0.0 
0.0 0.0 -1.625200897553e+02 
-1.622860185700e+02 2.301005673633e+00 0.0 
2.301005673633e+00 -3.806357803605e+02 0.0 
0.0 0.0 -1.624765396791e+02 
-1.626065861794e+02 2.139910793167e+00 0.0 
2.139910793167e+00 -3.813458599717e+02 0.0 
0.0 0.0 -1.627857338453e+02 
-1.632649953352e+02 1.797020585644e+00 0.0 
1.797020585644e+00 -3.826049245755e+02 0.0 
0.0 0.0 -1.633609759732e+02 
-1.635704230285e+02 1.653114037304e+00 0.0 
1.653114037304e+00 -3.831647143511e+02 0.0 
0.0 0.0 -1.636205412139e+02 
-1.623364379747e+02 1.386309098044e+00 0.0 
1.386309098044e+00 -3.808539137832e+02 0.0 
0.0 0.0 -1.625571055274e+02 
-1.635505841565e+02 1.085410640457e+00 0.0 
1.085410640457e+00 -3.831563576303e+02 0.0 
0.0 0.0 -1.636120825361e+02 
-1.630705324793e+02 8.781247160064e-01 0.0 
8.781247160064e-01 -3.824265480271e+02 0.0 
0.0 0.0 -1.632491241519e+02 
-1.633813354241e+02 8.368019153407e-01 0.0 
8.368019153407e-01 -3.830281494505e+02 0.0 
0.0 0.0 -1.635228454624e+02 
-1.637457559494e+02 3.837627892550e-01 0.0 
3.837627892550e-01 -3.837844060503e+02 0.0 
0.0 0.0 -1.638590485999e+02 
-1.636826348068e+02 2.559090546294e-01 0.0 
2.559090546294e-01 -3.837281927236e+02 0.0 
0.0 0.0 -1.638232482591e+02 
-8.510065844431e+01 3.163500486586e-01 0.0 
3.163500486586e-01 -1.967730659586e+02 0.0 
0.0 0.0 -8.416211732086e+01 
-9.334219995456e+01 3.620119843598e-01 0.0 
3.620119843598e-01 -2.164675465619e+02 0.0 
0.0 0.0 -9.254292395494e+01 
-1.016855971956e+02 3.555594933301e-01 0.0 
3.555594933301e-01 -2.359770870506e+02 0.0 
0.0 0.0 -1.008988052739e+02 
-1.097995813907e+02 3.834274005523e-01 0.0 
3.834274005523e-01 -2.550969056952e+02 0.0 
0.0 0.0 -1.090689461258e+02 
-1.180479309868e+02 3.427289310061e-01 0.0 
3.427289310061e-01 -2.746344777310e+02 0.0 
0.0 0.0 -1.174047226153e+02 
-1.264908682788e+02 3.788343407307e-01 0.0 
3.788343407307e-01 -2.942603330984e+02 0.0 
0.0 0.0 -1.258253604132e+02 
-1.345881628363e+02 3.413317708418e-01 0.0 
3.413317708418e-01 -3.136486047646e+02 0.0 
0.0 0.0 -1.340710302803e+02 
-1.426495705801e+02 3.955846567571e-01 0.0 
3.955846567571e-01 -3.329061331445e+02 0.0 
0.0 0.0 -1.422667111174e+02 
-1.509483466092e+02 4.359967261945e-01 0.0 
4.359967261945e-01 -3.526724395828e+02 0.0 
0.0 0.0 -1.506862358576e+02 
-5.565502437478e+00 1.928528603355e+00 0.0 
1.928528603355e+00 -6.924472316162e+00 0.0 
0.0 0.0 -3.729447326037e+00 
-7.773386724712e+01 3.372895923357e-01 0.0 
3.372895923357e-01 -1.772982541451e+02 0.0 
0.0 0.0 -7.610963641767e+01 
-5.176482066983e+00 3.243756178379e+00 0.0 
3.243756178379e+00 -1.021472703077e+01 0.0 
0.0 0.0 -4.244257233430e+00 
-9.012483118352e+00 1.395141821219e+00 0.0 
1.395141821219e+00 -1.991623922801e+01 0.0 
0.0 0.0 -8.278616703909e+00 
-1.791378786848e+01 9.775822858784e-01 0.0 
9.775822858784e-01 -3.949195181926e+01 0.0 
0.0 0.0 -1.682172190632e+01 
-2.640428115158e+01 6.937409908216e-01 0.0 
6.937409908216e-01 -5.852072026499e+01 0.0 
0.0 0.0 -2.507750042497e+01 
-3.517483505085e+01 4.940640075634e-01 0.0 
4.940640075634e-01 -7.818291655174e+01 0.0 
0.0 0.0 -3.360732548078e+01 
-4.396241445469e+01 4.433705574393e-01 0.0 
4.433705574393e-01 -9.794620518094e+01 0.0 
0.0 0.0 -4.217258589069e+01 
-5.238475697362e+01 3.312813088249e-01 0.0 
3.312813088249e-01 -1.174913918198e+02 0.0 
0.0 0.0 -5.056284463804e+01 
-6.079156597147e+01 2.844039302775e-01 0.0 
2.844039302775e-01 -1.370579391681e+02 0.0 
0.0 0.0 -5.895485154186e+01 
-6.915751053406e+01 2.965158935232e-01 0.0 
2.965158935232e-01 -1.566507422608e+02 0.0 
0.0 0.0 -6.734247583847e+01 
-4.150383103445e+00 7.201151015023e-01 0.0 
7.201151015023e-01 -7.272748699751e+00 0.0 
0.0 0.0 -3.026939540959e+00 
-9.349139355522e+00 8.329124619638e-01 0.0 
8.329124619638e-01 -1.973707837303e+01 0.0 
0.0 0.0 -8.325865318565e+00 
-1.747073134195e+01 6.385627730158e-01 0.0 
6.385627730158e-01 -3.936006899421e+01 0.0 
0.0 0.0 -1.664924010085e+01 
-2.580456871331e+01 7.928012018661e-01 0.0 
7.928012018661e-01 -5.892266899727e+01 0.0 
0.0 0.0 -2.501817131318e+01 
-3.423194310714e+01 6.449090397803e-01 0.0 
6.449090397803e-01 -7.848336693741e+01 0.0 
0.0 0.0 -3.341459301336e+01 
-4.266189854944e+01 8.055600999195e-01 0.0 
8.055600999195e-01 -9.805485030912e+01 0.0 
0.0 0.0 -4.181502465757e+01 
-5.110311372185e+01 6.553024398352e-01 0.0 
6.553024398352e-01 -1.176328945747e+02 0.0 
0.0 0.0 -5.022080248898e+01 
-5.953347156574e+01 7.929954845616e-01 0.0 
7.929954845616e-01 -1.371962344129e+02 0.0 
0.0 0.0 -5.861891179359e+01 
-6.794545100588e+01 5.625489878648e-01 0.0 
5.625489878648e-01 -1.566559931150e+02 0.0 
0.0 0.0 -6.698043323626e+01 
-7.546642103269e+01 -2.247959320306e-01 0.0 
-2.247959320306e-01 -1.743461797302e+02 0.0 
0.0 0.0 -7.454378022886e+01 
-7.608783475277e+01 -2.510145820777e-02 0.0 
-2.510145820777e-02 -1.755447065260e+02 0.0 
0.0 0.0 -7.508976238364e+01 
-7.605568759111e+01 -2.777054333498e-02 0.0 
-2.777054333498e-02 -1.755862876994e+02 0.0 
0.0 0.0 -7.509259258716e+01 
-7.601002954242e+01 1.745563757609e-02 0.0 
1.745563757609e-02 -1.753493423123e+02 0.0 
0.0 0.0 -7.500781155643e+01 
-7.727161065798e+01 -2.063328405937e-02 0.0 
-2.063328405937e-02 -1.779914604328e+02 0.0 
0.0 0.0 -7.617892132724e+01 
-7.625512448694e+01 -2.593717238430e-02 0.0 
-2.593717238430e-02 -1.756524697938e+02 0.0 
0.0 0.0 -7.517227828421e+01 
-7.633651137950e+01 2.600668181083e-02 0.0 
2.600668181083e-02 -1.754620147374e+02 0.0 
0.0 0.0 -7.513955783507e+01 
-7.643404340058e+01 -3.645828064453e-02 0.0 
-3.645828064453e-02 -1.756431524144e+02 0.0 
0.0 0.0 -7.522315874448e+01 
-7.657922696601e+01 1.643419507154e-02 0.0 
1.643419507154e-02 -1.760635926959e+02 0.0 
0.0 0.0 -7.539284589857e+01 
-7.659412405571e+01 -5.503954492621e-03 0.0 
-5.503954492621e-03 -1.759727483620e+02 0.0 
0.0 0.0 -7.537006172530e+01 
-7.675097543065e+01 4.514446266077e-02 0.0 
4.514446266077e-02 -1.759146285063e+02 0.0 
0.0 0.0 -7.539968118107e+01 
-7.678292581090e+01 9.590219742797e-02 0.0 
9.590219742797e-02 -1.758507104049e+02 0.0 
0.0 0.0 -7.539009086473e+01 
-7.699461011570e+01 9.705944624053e-02 0.0 
9.705944624053e-02 -1.759523172050e+02 0.0 
0.0 0.0 -7.548407819620e+01 
-7.723353350531e+01 1.387803124997e-01 0.0 
1.387803124997e-01 -1.763107429414e+02 0.0 
0.0 0.0 -7.566328293401e+01 
-6.208733042863e+00 5.221161340634e-01 0.0 
5.221161340634e-01 -7.009141587820e+00 0.0 
0.0 0.0 -3.879262230823e+00 
-6.965304724184e+00 -2.094320949919e-02 0.0 
-2.094320949919e-02 -7.679066658694e+00 0.0 
0.0 0.0 -4.310182142459e+00 
-6.874490638712e+00 -2.405747749554e-01 0.0 
-2.405747749554e-01 -7.207210307546e+00 0.0 
0.0 0.0 -4.124928791624e+00 
-6.471201138661e+00 -1.710813657453e-01 0.0 
-1.710813657453e-01 -7.151153477452e+00 0.0 
0.0 0.0 -3.986848500569e+00 
-6.202898131908e+00 -1.179877352395e-01 0.0 
-1.179877352395e-01 -8.077703007578e+00 0.0 
0.0 0.0 -4.206958796896e+00 
-5.971295565984e+00 -1.671923832746e-01 0.0 
-1.671923832746e-01 -8.417328661234e+00 0.0 
0.0 0.0 -4.243570615077e+00 
-5.652832300933e+00 -1.603619641460e-01 0.0 
-1.603619641460e-01 -8.339665599001e+00 0.0 
0.0 0.0 -4.123241430940e+00 
-5.358757399974e+00 -1.308515185045e-01 0.0 
-1.308515185045e-01 -8.237756854730e+00 0.0 
0.0 0.0 -4.003702936161e+00 
-5.067321047458e+00 -1.184086470153e-01 0.0 
-1.184086470153e-01 -8.220435863539e+00 0.0 
0.0 0.0 -3.909631454229e+00 
-4.849160373692e+00 -9.974070369264e-02 0.0 
-9.974070369264e-02 -8.230562811795e+00 0.0 
0.0 0.0 -3.847863346571e+00 
-4.619823117339e+00 -3.826421937823e-02 0.0 
-3.826421937823e-02 -8.350774659570e+00 0.0 
0.0 0.0 -3.816855156718e+00 
-4.675755790183e+00 -1.285972523533e-01 0.0 
-1.285972523533e-01 -8.904999805837e+00 0.0 
0.0 0.0 -4.010895923474e+00 
-4.305161803075e+00 -1.978833966832e-01 0.0 
-1.978833966832e-01 -8.601544361141e+00 0.0 
0.0 0.0 -3.803901591506e+00 
-3.805595213496e+00 -1.415073078367e-01 0.0 
-1.415073078367e-01 -7.861654952509e+00 0.0 
0.0 0.0 -3.418399979350e+00 
-3.599485603890e+00 -9.499168057233e-02 0.0 
-9.499168057233e-02 -8.012646184806e+00 0.0 
0.0 0.0 -3.406602020156e+00 
-3.495362468226e+00 -7.898913908319e-02 0.0 
-7.898913908319e-02 -8.278028872358e+00 0.0 
0.0 0.0 -3.457769004607e+00 
-3.369627780358e+00 -3.576965039630e-02 0.0 
-3.576965039630e-02 -8.308125702576e+00 0.0 
0.0 0.0 -3.428709958997e+00 
-3.225695312371e+00 -8.036958308681e-02 0.0 
-8.036958308681e-02 -7.910175997282e+00 0.0 
0.0 0.0 -3.263654096786e+00 
-3.150283694961e+00 8.065341269338e-02 0.0 
8.065341269338e-02 -7.313226865111e+00 0.0 
0.0 0.0 -3.047469442410e+00 
-4.224906238982e+00 -3.013264091838e-01 0.0 
-3.013264091838e-01 -6.882813371134e+00 0.0 
0.0 0.0 -2.932315883035e+00 
-4.499901209263e+00 2.063378346542e-01 0.0 
2.063378346542e-01 -9.150700225048e+00 0.0 
0.0 0.0 -3.802223551496e+00 
-4.551740884047e+00 1.216877890063e-01 0.0 
1.216877890063e-01 -9.755222621094e+00 0.0 
0.0 0.0 -3.978270755986e+00 
-4.610028158230e+00 5.689031882001e-02 0.0 
5.689031882001e-02 -9.807717560975e+00 0.0 
0.0 0.0 -4.007884722500e+00 
-4.626263136004e+00 1.644017899384e-02 0.0 
1.644017899384e-02 -9.833378226209e+00 0.0 
0.0 0.0 -4.019108191746e+00 
-4.608721838933e+00 -7.741186590472e-03 0.0 
-7.741186590472e-03 -9.846017132474e+00 0.0 
0.0 0.0 -4.016972887379e+00 
-4.565737384541e+00 -2.306519037823e-02 0.0 
-2.306519037823e-02 -9.851177371847e+00 0.0 
0.0 0.0 -4.005290664510e+00 
-4.502542639192e+00 -3.401187499341e-02 0.0 
-3.401187499341e-02 -9.852501883247e+00 0.0 
0.0 0.0 -3.986575025796e+00 
-4.421871745932e+00 -4.304122110762e-02 0.0 
-4.304122110762e-02 -9.851879122976e+00 0.0 
0.0 0.0 -3.962136789648e+00 
-4.324774164287e+00 -5.150372178420e-02 0.0 
-5.150372178420e-02 -9.850199673142e+00 0.0 
0.0 0.0 -3.932513082214e+00 
-4.211210681785e+00 -6.016328168667e-02 0.0 
-6.016328168667e-02 -9.847870702703e+00 0.0 
0.0 0.0 -3.897780010086e+00 
-4.080508429465e+00 -6.939941557888e-02 0.0 
-6.939941557888e-02 -9.845133201856e+00 0.0 
0.0 0.0 -3.857772093952e+00 
-3.931823441253e+00 -7.920943937547e-02 0.0 
-7.920943937547e-02 -9.842179583942e+00 0.0 
0.0 0.0 -3.812274244439e+00 
-3.764641004449e+00 -8.933055806051e-02 0.0 
-8.933055806051e-02 -9.839162952332e+00 0.0 
0.0 0.0 -3.761166124634e+00 
-3.579019390357e+00 -9.940597093060e-02 0.0 
-9.940597093060e-02 -9.836062847302e+00 0.0 
0.0 0.0 -3.704483319104e+00 
-3.375795882754e+00 -1.091396244145e-01 0.0 
-1.091396244145e-01 -9.833029484003e+00 0.0 
0.0 0.0 -3.642472105333e+00 
-3.156461060768e+00 -1.179977216636e-01 0.0 
-1.179977216636e-01 -9.829755212579e+00 0.0 
0.0 0.0 -3.575604914540e+00 
-2.923904962779e+00 -1.257494602911e-01 0.0 
-1.257494602911e-01 -9.826945968216e+00 0.0 
0.0 0.0 -3.504730038657e+00 
-2.681444499420e+00 -1.314688838737e-01 0.0 
-1.314688838737e-01 -9.822775482592e+00 0.0 
0.0 0.0 -3.430833201700e+00 
-2.435588000972e+00 -1.353654321586e-01 0.0 
-1.353654321586e-01 -9.821661491807e+00 0.0 
0.0 0.0 -3.356030760832e+00 
-2.192604412733e+00 -1.333730776623e-01 0.0 
-1.333730776623e-01 -9.814693554437e+00 0.0 
0.0 0.0 -3.282163531173e+00 
-1.967350885461e+00 -1.301885058838e-01 0.0 
-1.301885058838e-01 -9.820006764512e+00 0.0 
0.0 0.0 -3.214303370889e+00 
-1.766248225432e+00 -1.153895513578e-01 0.0 
-1.153895513578e-01 -9.794821768720e+00 0.0 
0.0 0.0 -3.151775780896e+00 
-1.615864397693e+00 -1.157187268215e-01 0.0 
-1.157187268215e-01 -9.824277633059e+00 0.0 
0.0 0.0 -3.107664524492e+00 
-1.529096320520e+00 -4.997511841837e-02 0.0 
-4.997511841837e-02 -9.777334997454e+00 0.0 
0.0 0.0 -3.083446255937e+00 
-1.643257238306e+00 8.117497710913e-03 0.0 
8.117497710913e-03 -9.928402283163e+00 0.0 
0.0 0.0 -3.100872489652e+00 
-1.736755462274e+00 3.661321646116e-01 0.0 
3.661321646116e-01 -9.274656771435e+00 0.0 
0.0 0.0 -2.875698071221e+00 
-1.329572279738e+00 7.078654221026e-01 0.0 
7.078654221026e-01 -4.359174530431e+00 0.0 
0.0 0.0 -1.282725937163e+00 
-7.071069154967e+00 4.716836344426e-01 0.0 
4.716836344426e-01 -1.732013303148e+01 0.0 
0.0 0.0 -6.932047972539e+00 
-8.024671838364e+00 2.595690917271e-01 0.0 
2.595690917271e-01 -2.084916520809e+01 0.0 
0.0 0.0 -8.313961754118e+00 
-7.185339029167e+00 -4.546825727117e-02 0.0 
-4.546825727117e-02 -1.976475635016e+01 0.0 
0.0 0.0 -7.768598001703e+00 
-6.999679426350e+00 -1.037546803551e-01 0.0 
-1.037546803551e-01 -1.964265410959e+01 0.0 
0.0 0.0 -7.672238409741e+00 
-7.027539914357e+00 -1.767896383778e-01 0.0 
-1.767896383778e-01 -1.967535608601e+01 0.0 
0.0 0.0 -7.691644229385e+00 
-7.083802435486e+00 -2.072912449203e-01 0.0 
-2.072912449203e-01 -1.963764642179e+01 0.0 
0.0 0.0 -7.695469765643e+00 
-7.203539284683e+00 -2.320811779787e-01 0.0 
-2.320811779787e-01 -1.963726455983e+01 0.0 
0.0 0.0 -7.731656180365e+00 
-7.340184528335e+00 -2.375048042170e-01 0.0 
-2.375048042170e-01 -1.962334852549e+01 0.0 
0.0 0.0 -7.768271476196e+00 
-7.494594681777e+00 -2.371491499378e-01 0.0 
-2.371491499378e-01 -1.962036958051e+01 0.0 
0.0 0.0 -7.814010261915e+00 
-7.653219196498e+00 -2.290625771916e-01 0.0 
-2.290625771916e-01 -1.961528821111e+01 0.0 
0.0 0.0 -7.860159618229e+00 
-7.811866306980e+00 -2.172776520017e-01 0.0 
-2.172776520017e-01 -1.961284962495e+01 0.0 
0.0 0.0 -7.907197043499e+00 
-7.964885812089e+00 -2.019558050023e-01 0.0 
-2.019558050023e-01 -1.961058836798e+01 0.0 
0.0 0.0 -7.952533825577e+00 
-8.109363425289e+00 -1.848847264128e-01 0.0 
-1.848847264128e-01 -1.960938415775e+01 0.0 
0.0 0.0 -7.995616067616e+00 
-8.242838875302e+00 -1.666961922993e-01 0.0 
-1.666961922993e-01 -1.960860745272e+01 0.0 
0.0 0.0 -8.035483035647e+00 
-8.364057062370e+00 -1.483533212175e-01 0.0 
-1.483533212175e-01 -1.960844872906e+01 0.0 
0.0 0.0 -8.071828208147e+00 
-8.472600408377e+00 -1.304925646088e-01 0.0 
-1.304925646088e-01 -1.960867991061e+01 0.0 
0.0 0.0 -8.104451695344e+00 
-8.568615353234e+00 -1.134558083050e-01 0.0 
-1.134558083050e-01 -1.960895299189e+01 0.0 
0.0 0.0 -8.133308766400e+00 
-8.652311816803e+00 -9.704477351671e-02 0.0 
-9.704477351671e-02 -1.960881900132e+01 0.0 
0.0 0.0 -8.158355475418e+00 
-8.723824523762e+00 -8.069928824191e-02 0.0 
-8.069928824191e-02 -1.960790169698e+01 0.0 
0.0 0.0 -8.179554465242e+00 
-8.783164986300e+00 -6.353687230831e-02 0.0 
-6.353687230831e-02 -1.960567900817e+01 0.0 
0.0 0.0 -8.196792151670e+00 
-8.830353608921e+00 -4.427768531459e-02 0.0 
-4.427768531459e-02 -1.960128303233e+01 0.0 
0.0 0.0 -8.209874709152e+00 
-8.865957637451e+00 -2.124909331798e-02 0.0 
-2.124909331798e-02 -1.959337342104e+01 0.0 
0.0 0.0 -8.218682807068e+00 
-8.892848225485e+00 6.934233470758e-03 0.0 
6.934233470758e-03 -1.958074010073e+01 0.0 
0.0 0.0 -8.223964892775e+00 
-8.921078948321e+00 3.671332966129e-02 0.0 
3.671332966129e-02 -1.956737206558e+01 0.0 
0.0 0.0 -8.230906659760e+00 
-8.984581069890e+00 5.136360896439e-03 0.0 
5.136360896439e-03 -1.958749966038e+01 0.0 
0.0 0.0 -8.268236631903e+00 
-9.229928178664e+00 -2.344642691935e-01 0.0 
-2.344642691935e-01 -1.969568497799e+01 0.0 
0.0 0.0 -8.317825117446e+00 
-1.652757049403e+01 3.839025386392e-01 0.0 
3.839025386392e-01 -3.691913925484e+01 0.0 
0.0 0.0 -1.563401292466e+01 
-1.749213719265e+01 2.904222335712e-01 0.0 
2.904222335712e-01 -4.044652941610e+01 0.0 
0.0 0.0 -1.698159998263e+01 
-1.669268862380e+01 -3.185945284803e-02 0.0 
-3.185945284803e-02 -3.946392220395e+01 0.0 
0.0 0.0 -1.644698324832e+01 
-1.647296306367e+01 -1.290405141866e-01 0.0 
-1.290405141866e-01 -3.931057764884e+01 0.0 
0.0 0.0 -1.633506221375e+01 
-1.643968640999e+01 -2.279212092863e-01 0.0 
-2.279212092863e-01 -3.932250300306e+01 0.0 
0.0 0.0 -1.632865682392e+01 
-1.640646166623e+01 -2.724384262770e-01 0.0 
-2.724384262770e-01 -3.926201543016e+01 0.0 
0.0 0.0 -1.630054312892e+01 
-1.643511565875e+01 -3.026010890934e-01 0.0 
-3.026010890934e-01 -3.925344771710e+01 0.0 
0.0 0.0 -1.630656901275e+01 
-1.647580508356e+01 -3.128374841379e-01 0.0 
-3.128374841379e-01 -3.923122142477e+01 0.0 
0.0 0.0 -1.631210795250e+01 
-1.654048169180e+01 -3.123619914571e-01 0.0 
-3.123619914571e-01 -3.922211420541e+01 0.0 
0.0 0.0 -1.632877876916e+01 
-1.661142726839e+01 -3.018514124699e-01 0.0 
-3.018514124699e-01 -3.921210504241e+01 0.0 
0.0 0.0 -1.634705969324e+01 
-1.668881199648e+01 -2.850976229108e-01 0.0 
-2.850976229108e-01 -3.920702152294e+01 0.0 
0.0 0.0 -1.636875005583e+01 
-1.676540275134e+01 -2.636110237642e-01 0.0 
-2.636110237642e-01 -3.920343444946e+01 0.0 
0.0 0.0 -1.639065116024e+01 
-1.683918040652e+01 -2.395218752503e-01 0.0 
-2.395218752503e-01 -3.920247613865e+01 0.0 
0.0 0.0 -1.641249696355e+01 
-1.690797692277e+01 -2.145412973866e-01 0.0 
-2.145412973866e-01 -3.920309048574e+01 0.0 
0.0 0.0 -1.643332022255e+01 
-1.697155722757e+01 -1.898402235283e-01 0.0 
-1.898402235283e-01 -3.920451149490e+01 0.0 
0.0 0.0 -1.645282061674e+01 
-1.702938006514e+01 -1.656122261169e-01 0.0 
-1.656122261169e-01 -3.920559692609e+01 0.0 
0.0 0.0 -1.647049309737e+01 
-1.708115542160e+01 -1.416065145648e-01 0.0 
-1.416065145648e-01 -3.920566159198e+01 0.0 
0.0 0.0 -1.648604510407e+01 
-1.712706493777e+01 -1.173524271983e-01 0.0 
-1.173524271983e-01 -3.920404088650e+01 0.0 
0.0 0.0 -1.649933174728e+01 
-1.716783987791e+01 -9.230310722269e-02 0.0 
-9.230310722269e-02 -3.919992038584e+01 0.0 
0.0 0.0 -1.651032807913e+01 
-1.720509294935e+01 -6.614482228771e-02 0.0 
-6.614482228771e-02 -3.919245182757e+01 0.0 
0.0 0.0 -1.651926343308e+01 
-1.724170006738e+01 -3.974571815981e-02 0.0 
-3.974571815981e-02 -3.918155604772e+01 0.0 
0.0 0.0 -1.652697683453e+01 
-1.728263634880e+01 -1.696249011036e-02 0.0 
-1.696249011036e-02 -3.917067674399e+01 0.0 
0.0 0.0 -1.653599392784e+01 
-1.733402339101e+01 -4.522783787394e-03 0.0 
-4.522783787394e-03 -3.917484534930e+01 0.0 
0.0 0.0 -1.655266062209e+01 
-1.739347140876e+01 8.136828745267e-03 0.0 
8.136828745267e-03 -3.922627949367e+01 0.0 
0.0 0.0 -1.658592527073e+01 
-1.745689940674e+01 -4.498210044993e-01 0.0 
-4.498210044993e-01 -3.932131073776e+01 0.0 
0.0 0.0 -1.663346304335e+01 
-2.581628604062e+01 -3.428273734883e-01 0.0 
-3.428273734883e-01 -5.887708227266e+01 0.0 
0.0 0.0 -2.500801049398e+01 
-2.580842184140e+01 -1.251381579515e-01 0.0 
-1.251381579515e-01 -5.880364034175e+01 0.0 
0.0 0.0 -2.498361865495e+01 
-2.578280289437e+01 -6.094727066985e-02 0.0 
-6.094727066985e-02 -5.877842391406e+01 0.0 
0.0 0.0 -2.496836804253e+01 
-2.575348448330e+01 -7.173492129337e-02 0.0 
-7.173492129337e-02 -5.877661235354e+01 0.0 
0.0 0.0 -2.495902905105e+01 
-2.572492494122e+01 -9.323326639509e-02 0.0 
-9.323326639509e-02 -5.878399801258e+01 0.0 
0.0 0.0 -2.495267688614e+01 
-2.569785707288e+01 -1.188195843194e-01 0.0 
-1.188195843194e-01 -5.879226923158e+01 0.0 
0.0 0.0 -2.494703789134e+01 
-2.567175723582e+01 -1.458737156048e-01 0.0 
-1.458737156048e-01 -5.879806139511e+01 0.0 
0.0 0.0 -2.494094558928e+01 
-2.564602174312e+01 -1.736433576451e-01 0.0 
-1.736433576451e-01 -5.880100409662e+01 0.0 
0.0 0.0 -2.493410775192e+01 
-2.561961801241e+01 -2.018594964178e-01 0.0 
-2.018594964178e-01 -5.880183069068e+01 0.0 
0.0 0.0 -2.492643461093e+01 
-2.559220383418e+01 -2.303349777447e-01 0.0 
-2.303349777447e-01 -5.880125435338e+01 0.0 
0.0 0.0 -2.491803745627e+01 
-2.556422253190e+01 -2.587328641946e-01 0.0 
-2.587328641946e-01 -5.880003209612e+01 0.0 
0.0 0.0 -2.490927638841e+01 
-2.553713189457e+01 -2.867847973602e-01 0.0 
-2.867847973602e-01 -5.879890967659e+01 0.0 
0.0 0.0 -2.490081247135e+01 
-2.551221303915e+01 -3.142575623518e-01 0.0 
-3.142575623518e-01 -5.880080772350e+01 0.0 
0.0 0.0 -2.489390622880e+01 
-2.548906206994e+01 -3.378770140141e-01 0.0 
-3.378770140141e-01 -5.880672036550e+01 0.0 
0.0 0.0 -2.488873473063e+01 
-2.547115259406e+01 -3.551094027619e-01 0.0 
-3.551094027619e-01 -5.881936752261e+01 0.0 
0.0 0.0 -2.488715603500e+01 
-2.546163554216e+01 -3.593619330754e-01 0.0 
-3.593619330754e-01 -5.883299239683e+01 0.0 
0.0 0.0 -2.488838838169e+01 
-2.547316761653e+01 -3.537685430978e-01 0.0 
-3.537685430978e-01 -5.886027813389e+01 0.0 
0.0 0.0 -2.490003372513e+01 
-2.549818738883e+01 -3.221394088160e-01 0.0 
-3.221394088160e-01 -5.887928016601e+01 0.0 
0.0 0.0 -2.491324026645e+01 
-2.557379055194e+01 -2.813661174622e-01 0.0 
-2.813661174622e-01 -5.893962331365e+01 0.0 
0.0 0.0 -2.495402415968e+01 
-2.564501061166e+01 -1.855480781528e-01 0.0 
-1.855480781528e-01 -5.894410200655e+01 0.0 
0.0 0.0 -2.497673378546e+01 
-2.587938530638e+01 -1.048453415077e-01 0.0 
-1.048453415077e-01 -5.910704168741e+01 0.0 
0.0 0.0 -2.509592809814e+01 
-2.659840365443e+01 1.996112227472e-01 0.0 
1.996112227472e-01 -6.015207047740e+01 0.0 
0.0 0.0 -2.562514223955e+01 
-2.562853980233e+01 3.075565475903e-01 0.0 
3.075565475903e-01 -5.665902000409e+01 0.0 
0.0 0.0 -2.428626794193e+01 
-3.447610633887e+01 1.646427637967e-01 0.0 
1.646427637967e-01 -7.626538739425e+01 0.0 
0.0 0.0 -3.282244811993e+01 
-3.549119180729e+01 1.403097814047e-01 0.0 
1.403097814047e-01 -7.974993037951e+01 0.0 
0.0 0.0 -3.417233665604e+01 
-3.477193959598e+01 -1.064655203252e-01 0.0 
-1.064655203252e-01 -7.873364859672e+01 0.0 
0.0 0.0 -3.365167645781e+01 
-3.452558047553e+01 -1.753643982417e-01 0.0 
-1.753643982417e-01 -7.856118327516e+01 0.0 
0.0 0.0 -3.352602912521e+01 
-3.444355457003e+01 -2.580391809004e-01 0.0 
-2.580391809004e-01 -7.855624332114e+01 0.0 
0.0 0.0 -3.349993936735e+01 
-3.433485470068e+01 -2.957970906463e-01 0.0 
-2.957970906463e-01 -7.848119118894e+01 0.0 
0.0 0.0 -3.344481376689e+01 
-3.428714794686e+01 -3.210582496004e-01 0.0 
-3.210582496004e-01 -7.845825191092e+01 0.0 
0.0 0.0 -3.342361995733e+01 
-3.424402590104e+01 -3.231176559013e-01 0.0 
-3.231176559013e-01 -7.842280849202e+01 0.0 
0.0 0.0 -3.340005031792e+01 
-3.421971515599e+01 -3.113919089004e-01 0.0 
-3.113919089004e-01 -7.840758534540e+01 0.0 
0.0 0.0 -3.338819015042e+01 
-3.419746052896e+01 -2.909939578122e-01 0.0 
-2.909939578122e-01 -7.839918958218e+01 0.0 
0.0 0.0 -3.337899503334e+01 
-3.418474017256e+01 -2.693551921785e-01 0.0 
-2.693551921785e-01 -7.839887542750e+01 0.0 
0.0 0.0 -3.337508468002e+01 
-3.417989419955e+01 -2.461508360798e-01 0.0 
-2.461508360798e-01 -7.839832909575e+01 0.0 
0.0 0.0 -3.337346698859e+01 
-3.418008220263e+01 -2.207145065414e-01 0.0 
-2.207145065414e-01 -7.839827503591e+01 0.0 
0.0 0.0 -3.337350717156e+01 
-3.418275007141e+01 -1.944945820512e-01 0.0 
-1.944945820512e-01 -7.839822450618e+01 0.0 
0.0 0.0 -3.337429237328e+01 
-3.418753073729e+01 -1.687487752065e-01 0.0 
-1.687487752065e-01 -7.839673054130e+01 0.0 
0.0 0.0 -3.337527838358e+01 
-3.419581553581e+01 -1.444680891217e-01 0.0 
-1.444680891217e-01 -7.839269742460e+01 0.0 
0.0 0.0 -3.337655388812e+01 
-3.420774730944e+01 -1.210686726336e-01 0.0 
-1.210686726336e-01 -7.838620619026e+01 0.0 
0.0 0.0 -3.337818604991e+01 
-3.422158895735e+01 -9.914003674870e-02 0.0 
-9.914003674870e-02 -7.838094028029e+01 0.0 
0.0 0.0 -3.338075877129e+01 
-3.423579969552e+01 -7.984655140897e-02 0.0 
-7.984655140897e-02 -7.838320801774e+01 0.0 
0.0 0.0 -3.338570231398e+01 
-3.424611319751e+01 -6.137318511823e-02 0.0 
-6.137318511823e-02 -7.840140565983e+01 0.0 
0.0 0.0 -3.339425565720e+01 
-3.424626350415e+01 -2.291411510648e-02 0.0 
-2.291411510648e-02 -7.844013979563e+01 0.0 
0.0 0.0 -3.340592098994e+01 
-3.423607864964e+01 -4.604875604853e-01 0.0 
-4.604875604853e-01 -7.847453095320e+01 0.0 
0.0 0.0 -3.341318288085e+01 
-4.266709056525e+01 -3.271159416700e-01 0.0 
-3.271159416700e-01 -9.803969792672e+01 0.0 
0.0 0.0 -4.181203654759e+01 
-4.268270589791e+01 -1.227647865016e-01 0.0 
-1.227647865016e-01 -9.800276209255e+01 0.0 
0.0 0.0 -4.180564039714e+01 
-4.269297966389e+01 -7.833884340905e-02 0.0 
-7.833884340905e-02 -9.798266088064e+01 0.0 
0.0 0.0 -4.180269216336e+01 
-4.269645593206e+01 -9.848422208344e-02 0.0 
-9.848422208344e-02 -9.797636904357e+01 0.0 
0.0 0.0 -4.180184749269e+01 
-4.269896768945e+01 -1.203712588512e-01 0.0 
-1.203712588512e-01 -9.797876985821e+01 0.0 
0.0 0.0 -4.180332126430e+01 
-4.270135485759e+01 -1.425271234487e-01 0.0 
-1.425271234487e-01 -9.798510414788e+01 0.0 
0.0 0.0 -4.180593770164e+01 
-4.270597520339e+01 -1.627564057765e-01 0.0 
-1.627564057765e-01 -9.799026116010e+01 0.0 
0.0 0.0 -4.180887090905e+01 
-4.271700344872e+01 -1.834092095508e-01 0.0 
-1.834092095508e-01 -9.798993334008e+01 0.0 
0.0 0.0 -4.181208103664e+01 
-4.273531341044e+01 -2.066008704945e-01 0.0 
-2.066008704945e-01 -9.798944568829e+01 0.0 
0.0 0.0 -4.181742772962e+01 
-4.275455306769e+01 -2.297127404978e-01 0.0 
-2.297127404978e-01 -9.799125450723e+01 0.0 
0.0 0.0 -4.182374227248e+01 
-4.278028722225e+01 -2.479282509971e-01 0.0 
-2.479282509971e-01 -9.799554718047e+01 0.0 
0.0 0.0 -4.183275032082e+01 
-4.281812253483e+01 -2.600045730402e-01 0.0 
-2.600045730402e-01 -9.799923928315e+01 0.0 
0.0 0.0 -4.184520854539e+01 
-4.286983648129e+01 -2.700834227218e-01 0.0 
-2.700834227218e-01 -9.799893150908e+01 0.0 
0.0 0.0 -4.186063039711e+01 
-4.293751911461e+01 -2.829426162717e-01 0.0 
-2.829426162717e-01 -9.802458241046e+01 0.0 
0.0 0.0 -4.188863045752e+01 
-4.300061019774e+01 -2.721741018604e-01 0.0 
-2.721741018604e-01 -9.805835513713e+01 0.0 
0.0 0.0 -4.191768960046e+01 
-4.309856578584e+01 -2.472700005889e-01 0.0 
-2.472700005889e-01 -9.813956170872e+01 0.0 
0.0 0.0 -4.197143824837e+01 
-4.318760854129e+01 -1.640579972724e-01 0.0 
-1.640579972724e-01 -9.815504754853e+01 0.0 
0.0 0.0 -4.200279682695e+01 
-4.343705765186e+01 -1.198209935585e-01 0.0 
-1.198209935585e-01 -9.830400177244e+01 0.0 
0.0 0.0 -4.212231782729e+01 
-4.411877458831e+01 1.034853482413e-01 0.0 
1.034853482413e-01 -9.936149969812e+01 0.0 
0.0 0.0 -4.264408228593e+01 
-4.313526607882e+01 1.663683383826e-01 0.0 
1.663683383826e-01 -9.586566274173e+01 0.0 
0.0 0.0 -4.130027864616e+01 
-5.163959996041e+01 1.124222598562e-01 0.0 
1.124222598562e-01 -1.153841727524e+02 0.0 
0.0 0.0 -4.970713181384e+01 
-5.262900217634e+01 1.157419525999e-01 0.0 
1.157419525999e-01 -1.189157395016e+02 0.0 
0.0 0.0 -5.106342250338e+01 
-5.196090791838e+01 -9.421177771324e-02 0.0 
-9.421177771324e-02 -1.179260506347e+02 0.0 
0.0 0.0 -5.056608756591e+01 
-5.173045105554e+01 -1.423439369205e-01 0.0 
-1.423439369205e-01 -1.177303394176e+02 0.0 
0.0 0.0 -5.043823714195e+01 
-5.167110845996e+01 -1.897304833075e-01 0.0 
-1.897304833075e-01 -1.176947082970e+02 0.0 
0.0 0.0 -5.040974502710e+01 
-5.154969849916e+01 -1.839744368994e-01 0.0 
-1.839744368994e-01 -1.176214864497e+02 0.0 
0.0 0.0 -5.035135548466e+01 
-5.146734116536e+01 -1.876229646233e-01 0.0 
-1.876229646233e-01 -1.176307845802e+02 0.0 
0.0 0.0 -5.032943772366e+01 
-5.139837163344e+01 -1.938297483119e-01 0.0 
-1.938297483119e-01 -1.176234981369e+02 0.0 
0.0 0.0 -5.030656093110e+01 
-5.134211794960e+01 -1.934601298806e-01 0.0 
-1.934601298806e-01 -1.176103864360e+02 0.0 
0.0 0.0 -5.028575131569e+01 
-5.130481841931e+01 -1.815971711994e-01 0.0 
-1.815971711994e-01 -1.175972602984e+02 0.0 
0.0 0.0 -5.027062361532e+01 
-5.126949799247e+01 -1.591863098236e-01 0.0 
-1.591863098236e-01 -1.175984114592e+02 0.0 
0.0 0.0 -5.026037283549e+01 
-5.123013327636e+01 -1.450359902990e-01 0.0 
-1.450359902990e-01 -1.176039999089e+02 0.0 
0.0 0.0 -5.025023995559e+01 
-5.121092694416e+01 -1.343243631950e-01 0.0 
-1.343243631950e-01 -1.175987788535e+02 0.0 
0.0 0.0 -5.024291173930e+01 
-5.119163709406e+01 -1.166543686862e-01 0.0 
-1.166543686862e-01 -1.175878266986e+02 0.0 
0.0 0.0 -5.023383913779e+01 
-5.117566301185e+01 -9.573079581711e-02 0.0 
-9.573079581711e-02 -1.175839692757e+02 0.0 
0.0 0.0 -5.022788968626e+01 
-5.115751002903e+01 -7.447906586468e-02 0.0 
-7.447906586468e-02 -1.175834318384e+02 0.0 
0.0 0.0 -5.022228256023e+01 
-5.114365778125e+01 -4.327810335072e-02 0.0 
-4.327810335072e-02 -1.175955223607e+02 0.0 
0.0 0.0 -5.022175404257e+01 
-5.111769034988e+01 6.633373393924e-03 0.0 
6.633373393924e-03 -1.176214276853e+02 0.0 
0.0 0.0 -5.022173541054e+01 
-5.110659603043e+01 -4.427800935875e-01 0.0 
-4.427800935875e-01 -1.176361527025e+02 0.0 
0.0 0.0 -5.022282461988e+01 
-5.951335352948e+01 -3.089800634229e-01 0.0 
-3.089800634229e-01 -1.372339713260e+02 0.0 
0.0 0.0 -5.862419745665e+01 
-5.956345530097e+01 -6.944924796474e-02 0.0 
-6.944924796474e-02 -1.371827967071e+02 0.0 
0.0 0.0 -5.862387560242e+01 
-5.959013471862e+01 -4.517399221348e-02 0.0 
-4.517399221348e-02 -1.371646762886e+02 0.0 
0.0 0.0 -5.862644330217e+01 
-5.961097756205e+01 -6.250560473212e-02 0.0 
-6.250560473212e-02 -1.371751477257e+02 0.0 
0.0 0.0 -5.863583758634e+01 
-5.965453462194e+01 -8.486563688303e-02 0.0 
-8.486563688303e-02 -1.371757318379e+02 0.0 
0.0 0.0 -5.864907993794e+01 
-5.967910237159e+01 -1.043107144765e-01 0.0 
-1.043107144765e-01 -1.371877140320e+02 0.0 
0.0 0.0 -5.866004492107e+01 
-5.971875252314e+01 -1.199386368982e-01 0.0 
-1.199386368982e-01 -1.372107474814e+02 0.0 
0.0 0.0 -5.867885000135e+01 
-5.975125972084e+01 -1.099523474452e-01 0.0 
-1.099523474452e-01 -1.372061384104e+02 0.0 
0.0 0.0 -5.868721943939e+01 
-5.980888126131e+01 -1.312112378318e-01 0.0 
-1.312112378318e-01 -1.371801451480e+02 0.0 
0.0 0.0 -5.869670792279e+01 
-5.985161203536e+01 -1.499238644830e-01 0.0 
-1.499238644830e-01 -1.372106137637e+02 0.0 
0.0 0.0 -5.871866773971e+01 
-5.991351953800e+01 -1.360959712408e-01 0.0 
-1.360959712408e-01 -1.372387670152e+02 0.0 
0.0 0.0 -5.874568596595e+01 
-6.000086954062e+01 -1.201953609271e-01 0.0 
-1.201953609271e-01 -1.372480370010e+02 0.0 
0.0 0.0 -5.877467196247e+01 
-6.008356581450e+01 -9.587296730650e-02 0.0 
-9.587296730650e-02 -1.372692571854e+02 0.0 
0.0 0.0 -5.880584689997e+01 
-6.017451181599e+01 -6.748318443158e-02 0.0 
-6.748318443158e-02 -1.372216079837e+02 0.0 
0.0 0.0 -5.881883593992e+01 
-6.038739500906e+01 -9.936682986728e-02 0.0 
-9.936682986728e-02 -1.374120752809e+02 0.0 
0.0 0.0 -5.893984108700e+01 
-6.104343513005e+01 1.003721472027e-01 0.0 
1.003721472027e-01 -1.385290134104e+02 0.0 
0.0 0.0 -5.947173456212e+01 
-6.006217531508e+01 1.225404252410e-01 0.0 
1.225404252410e-01 -1.350243898457e+02 0.0 
0.0 0.0 -5.812596954822e+01 
-6.838719603413e+01 1.071473677562e-01 0.0 
1.071473677562e-01 -1.545409149320e+02 0.0 
0.0 0.0 -6.647843328983e+01 
-6.927108495887e+01 1.341343886296e-01 0.0 
1.341343886296e-01 -1.579439212129e+02 0.0 
0.0 0.0 -6.776450185152e+01 
-6.868643195163e+01 7.645649413721e-03 0.0 
7.645649413721e-03 -1.569632541924e+02 0.0 
0.0 0.0 -6.729490584321e+01 
-6.861678396162e+01 -2.780569373692e-02 0.0 
-2.780569373692e-02 -1.568920750957e+02 0.0 
0.0 0.0 -6.725265771720e+01 
-6.851173881952e+01 -2.683685388181e-02 0.0 
-2.683685388181e-02 -1.568929774859e+02 0.0 
0.0 0.0 -6.722141489163e+01 
-6.842090257664e+01 -6.664158695567e-02 0.0 
-6.664158695567e-02 -1.568934826681e+02 0.0 
0.0 0.0 -6.719431557342e+01 
-6.832777587390e+01 -8.970258342218e-02 0.0 
-8.970258342218e-02 -1.568095259552e+02 0.0 
0.0 0.0 -6.714119054872e+01 
-6.825870814965e+01 -5.134370264769e-02 0.0 
-5.134370264769e-02 -1.567944463154e+02 0.0 
0.0 0.0 -6.711594633952e+01 
-6.829142846700e+01 -7.487449106868e-02 0.0 
-7.487449106868e-02 -1.568670574552e+02 0.0 
0.0 0.0 -6.714754577668e+01 
-6.818702725015e+01 -5.732481423533e-02 0.0 
-5.732481423533e-02 -1.568148608545e+02 0.0 
0.0 0.0 -6.710056643139e+01 
-6.814520463778e+01 -6.167443017835e-02 0.0 
-6.167443017835e-02 -1.567960712985e+02 0.0 
0.0 0.0 -6.708238278089e+01 
-6.810564331005e+01 -1.681369756149e-02 0.0 
-1.681369756149e-02 -1.567844140600e+02 0.0 
0.0 0.0 -6.706701721100e+01 
-6.804550036856e+01 -2.905373340183e-02 0.0 
-2.905373340183e-02 -1.568029536437e+02 0.0 
0.0 0.0 -6.705453620367e+01 
-6.800695814852e+01 6.844770144986e-03 0.0 
6.844770144986e-03 -1.567393294842e+02 0.0 
0.0 0.0 -6.702388628982e+01 
-6.800154574141e+01 1.140556973673e-01 0.0 
1.140556973673e-01 -1.568672714287e+02 0.0 
0.0 0.0 -6.706064515104e+01 
-6.791502474567e+01 -4.610820530298e-01 0.0 
-4.610820530298e-01 -1.569373660730e+02 0.0 
0.0 0.0 -6.705571724561e+01 
-5.676222741656e+00 3.794475073866e+00 0.0 
3.794475073866e+00 -8.953595176473e+00 0.0 
0.0 0.0 -4.081344422227e+00 
-6.189797655735e+00 1.839480916439e+00 0.0 
1.839480916439e+00 -1.239503378554e+01 0.0 
0.0 0.0 -5.181984112033e+00 
-1.469118062289e+01 1.129507443974e+00 0.0 
1.129507443974e+00 -3.157998243391e+01 0.0 
0.0 0.0 -1.348134891704e+01 
-2.349448601980e+01 7.597982388692e-01 0.0 
7.597982388692e-01 -5.125961817697e+01 0.0 
0.0 0.0 -2.202623125903e+01 
-3.205677467305e+01 6.263534881746e-01 0.0 
6.263534881746e-01 -7.050574240802e+01 0.0 
0.0 0.0 -3.036875512432e+01 
-4.081242142807e+01 3.876507473111e-01 0.0 
3.876507473111e-01 -9.013501151350e+01 0.0 
0.0 0.0 -3.888422988247e+01 
-4.920133437069e+01 3.130793617573e-01 0.0 
3.130793617573e-01 -1.096372549690e+02 0.0 
0.0 0.0 -4.725157680190e+01 
-5.765671638414e+01 2.078073451919e-01 0.0 
2.078073451919e-01 -1.291978997205e+02 0.0 
0.0 0.0 -5.565638483141e+01 
-6.602679357057e+01 2.077640962298e-01 0.0 
2.077640962298e-01 -1.487475022498e+02 0.0 
0.0 0.0 -6.403228874611e+01 
-7.441569622752e+01 2.110273245626e-01 0.0 
2.110273245626e-01 -1.684582121903e+02 0.0 
0.0 0.0 -7.246217252534e+01 
-1.450748414177e+01 3.192536428756e+00 0.0 
3.192536428756e+00 -3.082302343773e+01 0.0 
0.0 0.0 -1.319915227385e+01 
-1.574059502446e+02 3.663441512117e+00 0.0 
3.663441512117e+00 -3.692961805259e+02 0.0 
0.0 0.0 -1.576106392312e+02 
-8.216161212031e+00 -1.717164508437e-01 0.0 
-1.717164508437e-01 -1.677219041707e+01 0.0 
0.0 0.0 -7.483805513584e+00 
-8.805502894471e+00 -1.160215686421e-01 0.0 
-1.160215686421e-01 -1.614221339176e+01 0.0 
0.0 0.0 -7.471222616434e+00 
-1.584834231373e+02 2.538236649615e+00 0.0 
2.538236649615e+00 -3.724111160984e+02 0.0 
0.0 0.0 -1.588683617707e+02 
-3.104527934825e+01 1.258120554835e+00 0.0 
1.258120554835e+00 -6.858786096954e+01 0.0 
0.0 0.0 -2.948994209534e+01 
-8.533553431038e+01 6.706977348675e-02 0.0 
6.706977348675e-02 -2.073120216734e+02 0.0 
0.0 0.0 -8.739426679514e+01 
-1.560056217932e+02 3.891007610329e+00 0.0 
3.891007610329e+00 -3.654423449860e+02 0.0 
0.0 0.0 -1.560343900338e+02 
-4.726604384426e+01 9.100608875491e-01 0.0 
9.100608875491e-01 -1.056838718449e+02 0.0 
0.0 0.0 -4.548497470674e+01 
-1.553374460797e+02 3.732204482003e+00 0.0 
3.732204482003e+00 -3.631032149085e+02 0.0 
0.0 0.0 -1.551321982965e+02 
-6.436867157727e+01 4.996347042547e-01 0.0 
4.996347042547e-01 -1.455061161452e+02 0.0 
0.0 0.0 -6.256243631675e+01 
-1.598440615078e+02 1.625219690148e+00 0.0 
1.625219690148e+00 -3.752331071760e+02 0.0 
0.0 0.0 -1.601231506051e+02 
-7.312355711931e+00 -1.683754309921e-01 0.0 
-1.683754309921e-01 -1.615626479951e+01 0.0 
0.0 0.0 -7.050269780583e+00 
-1.543745754340e+02 3.077235720659e+00 0.0 
3.077235720659e+00 -3.605225401600e+02 0.0 
0.0 0.0 -1.540691346782e+02 
-8.121286171025e+01 4.042014183229e-01 0.0 
4.042014183229e-01 -1.851912504863e+02 0.0 
0.0 0.0 -7.952123365897e+01 
-5.269830154273e+01 -5.909456266476e-02 0.0 
-5.909456266476e-02 -1.289247643506e+02 0.0 
0.0 0.0 -5.408691976801e+01 
-1.084768195053e+02 4.224824138490e-02 0.0 
4.224824138490e-02 -2.607969202135e+02 0.0 
0.0 0.0 -1.103821219156e+02 
-1.535566588763e+02 2.533045193106e+00 0.0 
2.533045193106e+00 -3.582826072101e+02 0.0 
0.0 0.0 -1.531517798259e+02 
-1.531985226509e+02 1.649114346164e+00 0.0 
1.649114346164e+00 -3.578424085072e+02 0.0 
0.0 0.0 -1.529122793474e+02 
-1.524193108201e+02 5.698686040627e-01 0.0 
5.698686040627e-01 -3.565558167962e+02 0.0 
0.0 0.0 -1.522925382849e+02 
-1.519442642283e+02 7.898755581594e-01 0.0 
7.898755581594e-01 -3.551000891788e+02 0.0 
0.0 0.0 -1.517133060222e+02 
-1.529930418843e+02 1.329417512736e+00 0.0 
1.329417512736e+00 -3.576445930836e+02 0.0 
0.0 0.0 -1.527912904904e+02 
-8.480071063780e+01 2.764433146530e-01 0.0 
2.764433146530e-01 -1.940261373351e+02 0.0 
0.0 0.0 -8.324805439188e+01 
-8.432533529319e+01 8.253215967952e-02 0.0 
8.253215967952e-02 -1.939173487751e+02 0.0 
0.0 0.0 -8.307280522049e+01 
-8.468600334777e+01 1.163202451213e-01 0.0 
1.163202451213e-01 -1.952106873584e+02 0.0 
0.0 0.0 -8.356900721185e+01 
-1.140391603667e+02 1.772905499068e-01 0.0 
1.772905499068e-01 -2.649991284637e+02 0.0 
0.0 0.0 -1.133114866491e+02 
-1.594812829606e+02 1.039777805909e+00 0.0 
1.039777805909e+00 -3.746650462377e+02 0.0 
0.0 0.0 -1.598438987595e+02 
-8.186697716042e+00 5.626782635089e-01 0.0 
5.626782635089e-01 -1.560315969887e+01 0.0 
0.0 0.0 -7.137221098185e+00 
-7.153368915970e+00 -9.534257056185e-02 0.0 
-9.534257056185e-02 -1.715121369920e+01 0.0 
0.0 0.0 -7.280375071120e+00 
-1.357184190540e+02 1.543685701011e-01 0.0 
1.543685701011e-01 -3.223097103410e+02 0.0 
0.0 0.0 -1.370084388185e+02 
-8.340336059404e+01 -5.981774048384e-02 0.0 
-5.981774048384e-02 -1.928908200651e+02 0.0 
0.0 0.0 -8.248825419774e+01 
-2.766476220020e+01 -6.675901983252e-02 0.0 
-6.675901983252e-02 -6.855445955372e+01 0.0 
0.0 0.0 -2.846576652618e+01 
-1.519847888154e+02 2.038556099775e+00 0.0 
2.038556099775e+00 -3.548717173242e+02 0.0 
0.0 0.0 -1.516569518419e+02 
-1.562335057531e+02 3.874222885188e+00 0.0 
3.874222885188e+00 -3.656063264362e+02 0.0 
0.0 0.0 -1.561519496568e+02 
-1.547889989557e+02 3.438148774336e+00 0.0 
3.438148774336e+00 -3.616889103396e+02 0.0 
0.0 0.0 -1.545433727886e+02 
-1.561417757155e+02 3.796272265671e+00 0.0 
3.796272265671e+00 -3.662180587249e+02 0.0 
0.0 0.0 -1.563079503321e+02 
-1.580773456058e+02 3.332676157455e+00 0.0 
3.332676157455e+00 -3.712743797881e+02 0.0 
0.0 0.0 -1.584055176182e+02 
-8.893554484309e+00 -2.605128715208e-01 0.0 
-2.605128715208e-01 -1.717940979148e+01 0.0 
0.0 0.0 -7.811090906956e+00 
-8.428013042041e+01 1.448253465780e-01 0.0 
1.448253465780e-01 -1.933067266722e+02 0.0 
0.0 0.0 -8.287605712780e+01 
-1.574446417949e+02 2.074725938248e+00 0.0 
2.074725938248e+00 -3.703231562463e+02 0.0 
0.0 0.0 -1.579303394124e+02 
-1.302137413094e+02 1.785083803436e-01 0.0 
1.785083803436e-01 -3.034887057834e+02 0.0 
0.0 0.0 -1.297107341279e+02 
-7.998627979181e+00 -1.556034514955e-01 0.0 
-1.556034514955e-01 -1.705354665009e+01 0.0 
0.0 0.0 -7.516521188286e+00 
-6.854861562782e+01 2.213294325146e-02 0.0 
2.213294325146e-02 -1.671476796651e+02 0.0 
0.0 0.0 -7.030888858788e+01 
-1.535198372017e+02 3.520320246359e-01 0.0 
3.520320246359e-01 -3.593050714811e+02 0.0 
0.0 0.0 -1.534474726048e+02 
-3.978222496615e+01 1.162151919284e+00 0.0 
1.162151919284e+00 -8.860011688882e+01 0.0 
0.0 0.0 -3.811470255649e+01 
-2.270982791596e+01 1.975555418535e+00 0.0 
1.975555418535e+00 -4.930745925686e+01 0.0 
0.0 0.0 -2.120518615185e+01 
-5.582759468799e+01 6.533055103830e-01 0.0 
6.533055103830e-01 -1.256009008328e+02 0.0 
0.0 0.0 -5.402854865623e+01 
-7.274441585039e+01 5.004596254467e-01 0.0 
5.004596254467e-01 -1.651045802165e+02 0.0 
0.0 0.0 -7.095469882008e+01 
-7.737346619956e+00 4.198401609974e+00 0.0 
4.198401609974e+00 -1.734556632008e+01 0.0 
0.0 0.0 -7.174141915698e+00 
-9.829621708888e+01 5.335608824324e-02 0.0 
5.335608824324e-02 -2.277852433901e+02 0.0 
0.0 0.0 -9.742443814368e+01 
-1.609754817163e+02 6.055027331989e-01 0.0 
6.055027331989e-01 -3.780727652589e+02 0.0 
0.0 0.0 -1.613144740926e+02 
-6.804109132996e+00 -1.177698141362e-01 0.0 
-1.177698141362e-01 -1.632948246355e+01 0.0 
0.0 0.0 -6.895943220441e+00 
-1.463549765947e+02 7.886823120612e-02 0.0 
7.886823120612e-02 -3.416726224519e+02 0.0 
0.0 0.0 -1.460082797140e+02 
-8.523417644075e+01 4.369713079091e-01 0.0 
4.369713079091e-01 -1.944250685025e+02 0.0 
0.0 0.0 -8.349777348299e+01 
-8.873005127225e+01 6.192212089007e-01 0.0 
6.192212089007e-01 -2.025447271042e+02 0.0 
0.0 0.0 -8.698243351294e+01 
-9.263302698940e+01 5.328558685399e-01 0.0 
5.328558685399e-01 -2.117907548826e+02 0.0 
0.0 0.0 -9.092713456161e+01 
-9.661268445192e+01 8.564580839510e-01 0.0 
8.564580839510e-01 -2.212225239374e+02 0.0 
0.0 0.0 -9.495056251679e+01 
-1.008883476811e+02 8.161194220066e-01 0.0 
8.161194220066e-01 -2.313752167424e+02 0.0 
0.0 0.0 -9.927906932705e+01 
-1.045139971867e+02 1.036937167093e+00 0.0 
1.036937167093e+00 -2.398812711804e+02 0.0 
0.0 0.0 -1.029185805101e+02 
-1.003370146164e+02 1.056579434301e+00 0.0 
1.056579434301e+00 -2.297748395573e+02 0.0 
0.0 0.0 -9.863355625210e+01 
-1.082428313689e+02 1.253808829139e+00 0.0 
1.253808829139e+00 -2.484957684020e+02 0.0 
0.0 0.0 -1.066215799313e+02 
-1.039843194039e+02 1.271929938431e+00 0.0 
1.271929938431e+00 -2.382713377691e+02 0.0 
0.0 0.0 -1.022766971519e+02 
-1.089541655290e+02 1.033752750394e+00 0.0 
1.033752750394e+00 -2.503097917674e+02 0.0 
0.0 0.0 -1.073791871889e+02 
-1.119099656855e+02 1.484266757725e+00 0.0 
1.484266757725e+00 -2.571063370566e+02 0.0 
0.0 0.0 -1.103048908226e+02 
-1.076322426298e+02 1.509918858197e+00 0.0 
1.509918858197e+00 -2.468294483451e+02 0.0 
0.0 0.0 -1.059385072925e+02 
-1.155502654193e+02 1.710139836224e+00 0.0 
1.710139836224e+00 -2.657287192417e+02 0.0 
0.0 0.0 -1.139836953983e+02 
-1.112649571084e+02 1.757529762506e+00 0.0 
1.757529762506e+00 -2.554613831794e+02 0.0 
0.0 0.0 -1.096179020863e+02 
-1.033874952321e+02 1.556714968881e+00 0.0 
1.556714968881e+00 -2.366767854032e+02 0.0 
0.0 0.0 -1.016192841906e+02 
-1.070014158193e+02 1.811586646356e+00 0.0 
1.811586646356e+00 -2.453030307436e+02 0.0 
0.0 0.0 -1.052913339689e+02 
-9.914354193106e+01 1.619918758646e+00 0.0 
1.619918758646e+00 -2.265503762225e+02 0.0 
0.0 0.0 -9.730817544608e+01 
-1.027457288332e+02 1.893320929470e+00 0.0 
1.893320929470e+00 -2.352011941401e+02 0.0 
0.0 0.0 -1.009840768920e+02 
-1.106045951814e+02 2.064814273489e+00 0.0 
2.064814273489e+00 -2.540091290280e+02 0.0 
0.0 0.0 -1.089841172628e+02 
-1.063323552628e+02 2.166352724196e+00 0.0 
2.166352724196e+00 -2.439243788109e+02 0.0 
0.0 0.0 -1.046770202221e+02 
-9.845557775264e+01 2.001292937634e+00 0.0 
2.001292937634e+00 -2.251076844356e+02 0.0 
0.0 0.0 -9.666897865648e+01 
-1.020244276404e+02 2.280109637938e+00 0.0 
2.280109637938e+00 -2.338565693315e+02 0.0 
0.0 0.0 -1.003642990916e+02 
-9.415580623499e+01 2.128925097672e+00 0.0 
2.128925097672e+00 -2.150698430406e+02 0.0 
0.0 0.0 -9.236769478268e+01 
-9.770954955667e+01 2.417856670810e+00 0.0 
2.417856670810e+00 -2.238713669946e+02 0.0 
0.0 0.0 -9.607427496538e+01 
-8.981465282904e+01 2.290655080264e+00 0.0 
2.290655080264e+00 -2.050405597443e+02 0.0 
0.0 0.0 -8.805656377200e+01 
-9.335997560912e+01 2.583696536067e+00 0.0 
2.583696536067e+00 -2.139342968939e+02 0.0 
0.0 0.0 -9.178828175092e+01 
-1.012486868576e+02 2.678091436052e+00 0.0 
2.678091436052e+00 -2.327758371087e+02 0.0 
0.0 0.0 -9.980735718991e+01 
-9.686309333092e+01 2.833980379535e+00 0.0 
2.833980379535e+00 -2.228931765087e+02 0.0 
0.0 0.0 -9.552688095188e+01 
-8.897708361595e+01 2.769651444576e+00 0.0 
2.769651444576e+00 -2.040602329849e+02 0.0 
0.0 0.0 -8.751119498026e+01 
-9.244486753746e+01 3.008791389916e+00 0.0 
3.008791389916e+00 -2.130867269263e+02 0.0 
0.0 0.0 -9.125947833913e+01 
-8.455780116800e+01 2.978497956563e+00 0.0 
2.978497956563e+00 -1.942642725571e+02 0.0 
0.0 0.0 -8.324662211753e+01 
-8.797806090804e+01 3.193517568215e+00 0.0 
3.193517568215e+00 -2.033285989519e+02 0.0 
0.0 0.0 -8.699199795799e+01 
-9.589008019424e+01 3.188117304817e+00 0.0 
3.188117304817e+00 -2.221611976112e+02 0.0 
0.0 0.0 -9.501538334162e+01 
-9.139174008633e+01 3.343458673506e+00 0.0 
3.343458673506e+00 -2.124694640333e+02 0.0 
0.0 0.0 -9.075836123588e+01 
-8.342890795250e+01 3.389508940951e+00 0.0 
3.389508940951e+00 -1.935752142982e+02 0.0 
0.0 0.0 -8.270123667522e+01 
-8.683537357181e+01 3.485883735690e+00 0.0 
3.485883735690e+00 -2.028393699936e+02 0.0 
0.0 0.0 -8.650242306963e+01 
-7.881746045128e+01 3.578453849035e+00 0.0 
3.578453849035e+00 -1.838985828311e+02 0.0 
0.0 0.0 -7.841481298470e+01 
-8.224833503924e+01 3.588446118260e+00 0.0 
3.588446118260e+00 -1.933122996108e+02 0.0 
0.0 0.0 -8.226819039500e+01 
-7.417089814566e+01 3.712723663204e+00 0.0 
3.712723663204e+00 -1.743315428874e+02 0.0 
0.0 0.0 -7.415073230992e+01 
-7.759637622069e+01 3.633844713532e+00 0.0 
3.633844713532e+00 -1.837826095743e+02 0.0 
0.0 0.0 -7.801369573849e+01 
-8.568255713248e+01 3.527550101446e+00 0.0 
3.527550101446e+00 -2.026321928629e+02 0.0 
0.0 0.0 -8.609442499861e+01 
-8.104918071097e+01 3.496300358115e+00 0.0 
3.496300358115e+00 -1.931296974568e+02 0.0 
0.0 0.0 -8.185366345032e+01 
-7.291574447760e+01 3.603723226383e+00 0.0 
3.603723226383e+00 -1.742941783431e+02 0.0 
0.0 0.0 -7.376297684620e+01 
-7.638732697354e+01 3.376576654862e+00 0.0 
3.376576654862e+00 -1.835808908230e+02 0.0 
0.0 0.0 -7.759046533895e+01 
-8.455650117681e+01 3.306395735671e+00 0.0 
3.306395735671e+00 -2.023916632464e+02 0.0 
0.0 0.0 -8.568444932696e+01 
-7.990825969464e+01 3.121489697647e+00 0.0 
3.121489697647e+00 -1.927450688642e+02 0.0 
0.0 0.0 -8.139599856766e+01 
-8.810594126751e+01 3.090367795061e+00 0.0 
3.090367795061e+00 -2.115502604357e+02 0.0 
0.0 0.0 -8.949686051097e+01 
-8.347716148497e+01 2.858588149743e+00 0.0 
2.858588149743e+00 -2.018091288152e+02 0.0 
0.0 0.0 -8.518588709004e+01 
-7.532806800748e+01 2.854264929779e+00 0.0 
2.854264929779e+00 -1.831404035201e+02 0.0 
0.0 0.0 -7.714054145829e+01 
-7.891022788396e+01 2.561201061283e+00 0.0 
2.561201061283e+00 -1.920635129621e+02 0.0 
0.0 0.0 -8.089212225380e+01 
-8.707913080826e+01 2.604053497165e+00 0.0 
2.604053497165e+00 -2.107584794881e+02 0.0 
0.0 0.0 -8.895128308889e+01 
-8.250684262381e+01 2.296565367174e+00 0.0 
2.296565367174e+00 -2.008487794426e+02 0.0 
0.0 0.0 -8.460668661992e+01 
-7.440860516717e+01 2.214892960727e+00 0.0 
2.214892960727e+00 -1.822613472949e+02 0.0 
0.0 0.0 -7.660098573862e+01 
-7.802511180374e+01 1.948856225462e+00 0.0 
1.948856225462e+00 -1.909354425915e+02 0.0 
0.0 0.0 -8.028816631858e+01 
-8.614925516276e+01 2.057058587449e+00 0.0 
2.057058587449e+00 -2.096006494643e+02 0.0 
0.0 0.0 -8.832497138813e+01 
-8.166665360971e+01 1.721839831455e+00 0.0 
1.721839831455e+00 -1.995549454757e+02 0.0 
0.0 0.0 -8.396647972563e+01 
-7.361530048870e+01 1.583211613956e+00 0.0 
1.583211613956e+00 -1.809487633438e+02 0.0 
0.0 0.0 -7.596921914974e+01 
-7.725184390426e+01 1.380669353109e+00 0.0 
1.380669353109e+00 -1.894623381599e+02 0.0 
0.0 0.0 -7.961425461924e+01 
-8.537536485798e+01 1.531610896518e+00 0.0 
1.531610896518e+00 -2.082434734253e+02 0.0 
0.0 0.0 -8.768565148498e+01 
-8.090914088320e+01 1.220601935031e+00 0.0 
1.220601935031e+00 -1.979615163732e+02 0.0 
0.0 0.0 -8.326119717692e+01 
-7.287050269427e+01 1.047845249696e+00 0.0 
1.047845249696e+00 -1.792278357128e+02 0.0 
0.0 0.0 -7.522950152212e+01 
-7.648881582094e+01 9.136343425852e-01 0.0 
9.136343425852e-01 -1.875962261834e+02 0.0 
0.0 0.0 -7.882551260129e+01 
-8.461838521832e+01 1.086131065080e+00 0.0 
1.086131065080e+00 -2.065349447222e+02 0.0 
0.0 0.0 -8.694599898216e+01 
-8.013394094561e+01 8.103946321415e-01 0.0 
8.103946321415e-01 -1.959972228401e+02 0.0 
0.0 0.0 -8.243934913571e+01 
-8.834259719301e+01 9.769908769503e-01 0.0 
9.769908769503e-01 -2.151038226856e+02 0.0 
0.0 0.0 -9.063392596358e+01 
-7.203269201894e+01 6.313953591368e-01 0.0 
6.313953591368e-01 -1.769764944167e+02 0.0 
0.0 0.0 -7.430275593068e+01 
-7.565015013705e+01 5.634537097368e-01 0.0 
5.634537097368e-01 -1.853217713536e+02 0.0 
0.0 0.0 -7.789157644721e+01 
-6.756056517434e+01 3.823396556249e-01 0.0 
3.823396556249e-01 -1.661727375397e+02 0.0 
0.0 0.0 -6.971999081423e+01 
-7.118320064829e+01 3.505021017167e-01 0.0 
3.505021017167e-01 -1.745570401703e+02 0.0 
0.0 0.0 -7.332207224557e+01 
-9.933255228351e+01 3.308131998957e+00 0.0 
3.308131998957e+00 -2.312896886762e+02 0.0 
0.0 0.0 -9.878667228790e+01 
-6.311914219430e+01 1.802453458427e-01 0.0 
1.802453458427e-01 -1.553159400580e+02 0.0 
0.0 0.0 -6.513052467570e+01 
-5.962467536076e+01 2.016896339940e-01 0.0 
2.016896339940e-01 -1.471925847083e+02 0.0 
0.0 0.0 -6.164517802071e+01 
-6.673130895935e+01 1.791420305926e-01 0.0 
1.791420305926e-01 -1.637356038827e+02 0.0 
0.0 0.0 -6.874007385263e+01 
-7.486488990394e+01 3.275811747753e-01 0.0 
3.275811747753e-01 -1.830949210799e+02 0.0 
0.0 0.0 -7.698794329514e+01 
-5.867204911262e+01 2.804798506946e-02 0.0 
2.804798506946e-02 -1.443905149741e+02 0.0 
0.0 0.0 -6.051876922602e+01 
-6.228004626575e+01 4.333424429064e-02 0.0 
4.333424429064e-02 -1.528538786210e+02 0.0 
0.0 0.0 -6.414017746604e+01 
-5.422339218134e+01 -9.329376846816e-02 0.0 
-9.329376846816e-02 -1.334410810101e+02 0.0 
0.0 0.0 -5.589934195742e+01 
-7.061283619377e+01 3.680294689248e+00 0.0 
3.680294689248e+00 -1.644866905936e+02 0.0 
0.0 0.0 -7.012985803621e+01 
-1.142029012680e+02 2.324728877693e+00 0.0 
2.324728877693e+00 -2.628008742956e+02 0.0 
0.0 0.0 -1.127011326691e+02 
-5.782118947203e+01 -6.565365851539e-02 0.0 
-6.565365851539e-02 -1.419376250262e+02 0.0 
0.0 0.0 -5.952764434946e+01 
-4.975671431284e+01 -1.582337172652e-01 0.0 
-1.582337172652e-01 -1.224616838980e+02 0.0 
0.0 0.0 -5.126551946324e+01 
-4.621476456996e+01 -2.048118955764e-01 0.0 
-2.048118955764e-01 -1.139859985466e+02 0.0 
0.0 0.0 -4.766022893496e+01 
-4.178342711512e+01 -2.454498620457e-01 0.0 
-2.454498620457e-01 -1.029772206374e+02 0.0 
0.0 0.0 -4.302819432576e+01 
-1.053257204889e+02 8.954323710777e-01 0.0 
8.954323710777e-01 -2.417443559096e+02 0.0 
0.0 0.0 -1.037210229195e+02 
-1.132517007641e+02 9.799613293142e-01 0.0 
9.799613293142e-01 -2.607927651852e+02 0.0 
0.0 0.0 -1.118133397848e+02 
-1.093295113367e+02 8.371303253756e-01 0.0 
8.371303253756e-01 -2.516106751649e+02 0.0 
0.0 0.0 -1.078820559505e+02 
-1.175211312631e+02 9.805732473234e-01 0.0 
9.805732473234e-01 -2.712464716192e+02 0.0 
0.0 0.0 -1.162302808647e+02 
-1.137600185341e+02 8.370672281933e-01 0.0 
8.370672281933e-01 -2.624154780937e+02 0.0 
0.0 0.0 -1.124526489883e+02 
-4.529557774596e+01 -1.701074548377e-01 0.0 
-1.701074548377e-01 -1.114301475304e+02 0.0 
0.0 0.0 -4.661771758292e+01 
-1.199223344774e+02 1.663847729791e+00 0.0 
1.663847729791e+00 -2.762326345129e+02 0.0 
0.0 0.0 -1.184464906971e+02 
-1.212761065699e+02 1.141517378093e+00 0.0 
1.141517378093e+00 -2.800368212627e+02 0.0 
0.0 0.0 -1.199938783498e+02 
-9.058845258231e+01 1.824580074137e+00 0.0 
1.824580074137e+00 -2.063912327949e+02 0.0 
0.0 0.0 -8.869390561315e+01 
-8.109183776324e+01 2.696084921624e+00 0.0 
2.696084921624e+00 -1.852356443890e+02 0.0 
0.0 0.0 -7.949824464568e+01 
-9.276627178590e+01 3.256225790640e+00 0.0 
3.256225790640e+00 -2.212884603555e+02 0.0 
0.0 0.0 -9.381641964242e+01 
-6.591161952910e+01 6.835696190008e-02 0.0 
6.835696190008e-02 -1.613605377176e+02 0.0 
0.0 0.0 -6.778164717400e+01 
-6.144696585108e+01 -4.201650202898e-02 0.0 
-4.201650202898e-02 -1.504850082791e+02 0.0 
0.0 0.0 -6.317959223904e+01 
-6.952312890454e+01 1.041948009340e-01 0.0 
1.041948009340e-01 -1.699250210470e+02 0.0 
0.0 0.0 -7.143444498546e+01 
-9.288201318614e+01 1.247332180058e+00 0.0 
1.247332180058e+00 -2.256298772101e+02 0.0 
0.0 0.0 -9.515356711886e+01 
-9.664631973247e+01 1.132194696881e+00 0.0 
1.132194696881e+00 -2.342754629258e+02 0.0 
0.0 0.0 -9.887653479747e+01 
-1.012395048553e+02 1.394056152427e+00 0.0 
1.394056152427e+00 -2.447994702128e+02 0.0 
0.0 0.0 -1.034116925204e+02 
-1.050307915626e+02 1.277196649402e+00 0.0 
1.277196649402e+00 -2.534811520893e+02 0.0 
0.0 0.0 -1.071535830956e+02 
-1.096745356676e+02 1.532660782902e+00 0.0 
1.532660782902e+00 -2.640106817389e+02 0.0 
0.0 0.0 -1.117055652219e+02 
-1.134912951774e+02 1.412411895388e+00 0.0 
1.412411895388e+00 -2.727157214012e+02 0.0 
0.0 0.0 -1.154621049736e+02 
-1.088268547586e+02 1.174851227646e+00 0.0 
1.174851227646e+00 -2.621245762778e+02 0.0 
0.0 0.0 -1.108854293109e+02 
-1.173135046871e+02 1.308172438202e+00 0.0 
1.308172438202e+00 -2.813801960014e+02 0.0 
0.0 0.0 -1.192081102065e+02 
-1.126284410473e+02 1.081453282860e+00 0.0 
1.081453282860e+00 -2.707367691291e+02 0.0 
0.0 0.0 -1.146095630529e+02 
-1.181800265052e+02 1.662696382258e+00 0.0 
1.662696382258e+00 -2.832480340258e+02 0.0 
0.0 0.0 -1.200284181593e+02 
-1.143241091469e+02 1.797704970265e+00 0.0 
1.797704970265e+00 -2.744464256945e+02 0.0 
0.0 0.0 -1.162311604524e+02 
-1.211431594127e+02 1.210082504795e+00 0.0 
1.210082504795e+00 -2.900016277093e+02 0.0 
0.0 0.0 -1.229434361366e+02 
-1.164364574366e+02 9.873728353151e-01 0.0 
9.873728353151e-01 -2.793189247202e+02 0.0 
0.0 0.0 -1.183266146470e+02 
-1.249902895305e+02 1.106248862717e+00 0.0 
1.106248862717e+00 -2.985963497340e+02 0.0 
0.0 0.0 -1.266759917793e+02 
-1.202545117030e+02 8.938960487054e-01 0.0 
8.938960487054e-01 -2.878753986897e+02 0.0 
0.0 0.0 -1.220389731178e+02 
-1.117260306834e+02 7.826690822965e-01 0.0 
7.826690822965e-01 -2.685550061614e+02 0.0 
0.0 0.0 -1.136843110535e+02 
-1.155086213754e+02 6.966191223195e-01 0.0 
6.966191223195e-01 -2.770684114380e+02 0.0 
0.0 0.0 -1.173731098440e+02 
-1.070464764407e+02 6.058168049350e-01 0.0 
6.058168049350e-01 -2.578033226146e+02 0.0 
0.0 0.0 -1.090549397166e+02 
-9.634557010627e+01 3.073308726562e+00 0.0 
3.073308726562e+00 -2.304440303884e+02 0.0 
0.0 0.0 -9.763688014841e+01 
-1.010155070638e+02 3.222289574346e+00 0.0 
3.222289574346e+00 -2.402776610671e+02 0.0 
0.0 0.0 -1.019879504393e+02 
-1.046241434850e+02 3.067820639596e+00 0.0 
3.067820639596e+00 -2.494162050539e+02 0.0 
0.0 0.0 -1.058121045617e+02 
-1.092940890881e+02 3.210748436731e+00 0.0 
3.210748436731e+00 -2.593294510586e+02 0.0 
0.0 0.0 -1.101870620440e+02 
-1.129433445439e+02 3.085078427792e+00 0.0 
3.085078427792e+00 -2.684610597553e+02 0.0 
0.0 0.0 -1.140213212898e+02 
-1.175960732997e+02 3.227417274875e+00 0.0 
3.227417274875e+00 -2.784275533858e+02 0.0 
0.0 0.0 -1.184070880057e+02 
-1.212765572934e+02 3.126350878652e+00 0.0 
3.126350878652e+00 -2.875212891550e+02 0.0 
0.0 0.0 -1.222393539345e+02 
-1.166321940647e+02 2.947241805621e+00 0.0 
2.947241805621e+00 -2.775258947306e+02 0.0 
0.0 0.0 -1.178474266386e+02 
-1.191247357554e+02 1.938655944901e+00 0.0 
1.938655944901e+00 -2.743301776089e+02 0.0 
0.0 0.0 -1.176364740093e+02 
-6.824813454471e+01 3.456677433147e+00 0.0 
3.456677433147e+00 -1.648461755369e+02 0.0 
0.0 0.0 -6.952829302449e+01 
-6.479147933565e+01 3.728309324782e+00 0.0 
3.728309324782e+00 -1.554864762669e+02 0.0 
0.0 0.0 -6.568338668078e+01 
-6.013281182150e+01 3.536926585365e+00 0.0 
3.536926585365e+00 -1.461905676262e+02 0.0 
0.0 0.0 -6.149701383430e+01 
-5.668875032752e+01 3.862210192976e+00 0.0 
3.862210192976e+00 -1.367521462794e+02 0.0 
0.0 0.0 -5.763226898209e+01 
-5.204179022106e+01 3.607442442827e+00 0.0 
3.607442442827e+00 -1.276198002860e+02 0.0 
0.0 0.0 -5.349847715212e+01 
-4.860807986084e+01 3.998188621136e+00 0.0 
3.998188621136e+00 -1.181001533669e+02 0.0 
0.0 0.0 -4.961246996833e+01 
-4.395957950068e+01 3.655563343150e+00 0.0 
3.655563343150e+00 -1.090963620513e+02 0.0 
0.0 0.0 -4.551678246560e+01 
-4.749951690792e+01 3.149031107419e+00 0.0 
3.149031107419e+00 -1.184261240880e+02 0.0 
0.0 0.0 -4.937769229878e+01 
-3.947711164838e+01 3.054572022138e+00 0.0 
3.054572022138e+00 -9.998056746582e+01 0.0 
0.0 0.0 -4.143730373426e+01 
-4.313105661761e+01 2.526189033036e+00 0.0 
2.526189033036e+00 -1.090571996481e+02 0.0 
0.0 0.0 -4.525647687970e+01 
-3.523584292482e+01 2.276385764094e+00 0.0 
2.276385764094e+00 -9.060495602265e+01 0.0 
0.0 0.0 -3.735223968424e+01 
-3.892982637914e+01 1.814456227490e+00 0.0 
1.814456227490e+00 -9.936377643625e+01 0.0 
0.0 0.0 -4.108808084462e+01 
-1.047587302447e+02 2.898452174639e+00 0.0 
2.898452174639e+00 -2.417428977490e+02 0.0 
0.0 0.0 -1.035504883981e+02 
-1.139458947488e+02 3.308942419590e+00 0.0 
3.308942419590e+00 -2.692320038259e+02 0.0 
0.0 0.0 -1.145533695724e+02 
-1.222466431658e+02 3.322214525428e+00 0.0 
3.322214525428e+00 -2.884092493667e+02 0.0 
0.0 0.0 -1.227967677597e+02 
-1.185444743013e+02 3.366553459548e+00 0.0 
3.366553459548e+00 -2.790464772805e+02 0.0 
0.0 0.0 -1.188772854745e+02 
-3.825828130102e+01 -2.816724088928e-01 0.0 
-2.816724088928e-01 -9.451864316504e+01 0.0 
0.0 0.0 -3.943307733982e+01 
-1.240886084590e+02 7.957178129539e-01 0.0 
7.957178129539e-01 -2.964193925448e+02 0.0 
0.0 0.0 -1.257524003011e+02 
-1.228813247644e+02 1.929662039073e+00 0.0 
1.929662039073e+00 -2.937147216330e+02 0.0 
0.0 0.0 -1.245788139192e+02 
-1.189640125385e+02 2.066767277261e+00 0.0 
2.066767277261e+00 -2.847579735521e+02 0.0 
0.0 0.0 -1.207165958272e+02 
-1.250284855407e+02 3.002808752087e+00 0.0 
3.002808752087e+00 -2.966262708178e+02 0.0 
0.0 0.0 -1.260964269075e+02 
-3.739101690087e+01 -2.425235969292e-01 0.0 
-2.425235969292e-01 -9.209629770416e+01 0.0 
0.0 0.0 -3.844619438151e+01 
-4.056765265797e+01 4.138069890244e+00 0.0 
4.138069890244e+00 -9.955059503109e+01 0.0 
0.0 0.0 -4.163547430672e+01 
-4.524087508939e+01 4.273310537917e+00 0.0 
4.273310537917e+00 -1.082715622567e+02 0.0 
0.0 0.0 -4.565373120383e+01 
-1.218325304517e+02 9.789646293956e-01 0.0 
9.789646293956e-01 -2.817547533870e+02 0.0 
0.0 0.0 -1.206761851516e+02 
-1.180811114130e+02 8.268467772897e-01 0.0 
8.268467772897e-01 -2.729157026769e+02 0.0 
0.0 0.0 -1.168990442270e+02 
-1.276017912562e+02 2.195576785341e+00 0.0 
2.195576785341e+00 -3.041313917896e+02 0.0 
0.0 0.0 -1.291199549137e+02 
-4.089067234103e+01 -1.868484838400e-01 0.0 
-1.868484838400e-01 -1.005278336273e+02 0.0 
0.0 0.0 -4.202555179049e+01 
-1.258645987347e+02 1.443023594491e+00 0.0 
1.443023594491e+00 -3.006424520422e+02 0.0 
0.0 0.0 -1.275521152331e+02 
-3.160225334928e+01 2.835260357050e+00 0.0 
2.835260357050e+00 -8.167896557913e+01 0.0 
0.0 0.0 -3.358436567852e+01 
-1.193126788380e+02 5.985559788414e-01 0.0 
5.985559788414e-01 -2.855785598120e+02 0.0 
0.0 0.0 -1.210673715950e+02 
-1.279123824645e+02 6.867567482747e-01 0.0 
6.867567482747e-01 -3.049302923613e+02 0.0 
0.0 0.0 -1.294528024477e+02 
-1.041975821177e+02 9.506664745484e-01 0.0 
9.506664745484e-01 -2.515042576770e+02 0.0 
0.0 0.0 -1.063105519384e+02 
-1.268790792789e+02 3.388664122597e+00 0.0 
3.388664122597e+00 -2.983793997427e+02 0.0 
0.0 0.0 -1.271775437065e+02 
-1.230945466350e+02 3.398072571362e+00 0.0 
3.398072571362e+00 -2.888152584979e+02 0.0 
0.0 0.0 -1.231729415399e+02 
-4.683193810813e+01 2.097132885484e+00 0.0 
2.097132885484e+00 -1.180076008993e+02 0.0 
0.0 0.0 -4.905186170222e+01 
-4.260431430659e+01 1.507927138680e+00 0.0 
1.507927138680e+00 -1.080965345925e+02 0.0 
0.0 0.0 -4.481025466972e+01 
-3.501346401258e+01 1.163051842573e+00 0.0 
1.163051842573e+00 -8.974785463210e+01 0.0 
0.0 0.0 -3.702839559340e+01 
-3.886431555731e+01 9.081442017796e-01 0.0 
9.081442017796e-01 -9.862356706182e+01 0.0 
0.0 0.0 -4.084636478574e+01 
-4.634772103154e+01 1.203840076644e+00 0.0 
1.203840076644e+00 -1.168934307067e+02 0.0 
0.0 0.0 -4.857234552146e+01 
-4.224057372571e+01 6.639533431481e-01 0.0 
6.639533431481e-01 -1.065236569428e+02 0.0 
0.0 0.0 -4.422926920055e+01 
-3.478185009448e+01 3.169708046034e-01 0.0 
3.169708046034e-01 -8.791967005510e+01 0.0 
0.0 0.0 -3.641045604487e+01 
-3.814492362394e+01 2.535730294200e-01 0.0 
2.535730294200e-01 -9.594752455512e+01 0.0 
0.0 0.0 -3.982773445372e+01 
-4.579611197552e+01 5.242109192751e-01 0.0 
5.242109192751e-01 -1.148525622211e+02 0.0 
0.0 0.0 -4.779460225899e+01 
-4.161213060558e+01 1.790168644364e-01 0.0 
1.790168644364e-01 -1.041774479462e+02 0.0 
0.0 0.0 -4.333687356553e+01 
-3.404095320305e+01 -3.839677154953e-02 0.0 
-3.839677154953e-02 -8.506042235193e+01 0.0 
0.0 0.0 -3.533041266649e+01 
-3.736813433674e+01 -6.167207522013e-02 0.0 
-6.167207522013e-02 -9.325511116653e+01 0.0 
0.0 0.0 -3.878697365098e+01 
-1.326991933069e+02 8.871557357537e-01 0.0 
8.871557357537e-01 -3.157092559974e+02 0.0 
0.0 0.0 -1.341225347913e+02 
-2.766164693226e+01 1.892907156018e+00 0.0 
1.892907156018e+00 -7.227476234419e+01 0.0 
0.0 0.0 -2.958092278294e+01 
-9.551066189780e+01 1.357917805783e+00 0.0 
1.357917805783e+00 -2.179863249185e+02 0.0 
0.0 0.0 -9.364909604489e+01 
-1.314921088053e+02 2.057241402548e+00 0.0 
2.057241402548e+00 -3.129703481110e+02 0.0 
0.0 0.0 -1.329387370749e+02 
-1.295580755018e+02 3.178944749204e+00 0.0 
3.178944749204e+00 -3.064331599028e+02 0.0 
0.0 0.0 -1.303973706214e+02 
-1.261833843674e+02 9.579581150479e-01 0.0 
9.579581150479e-01 -2.923353306586e+02 0.0 
0.0 0.0 -1.251556145078e+02 
-1.224303240745e+02 8.050568063461e-01 0.0 
8.050568063461e-01 -2.835112928338e+02 0.0 
0.0 0.0 -1.213824850725e+02 
-1.142635768396e+02 6.514172166711e-01 0.0 
6.514172166711e-01 -2.640058860741e+02 0.0 
0.0 0.0 -1.130808388741e+02 
-1.186446854556e+02 6.483857888501e-01 0.0 
6.483857888501e-01 -2.747038669622e+02 0.0 
0.0 0.0 -1.176045657253e+02 
-1.268055796349e+02 7.895425162597e-01 0.0 
7.895425162597e-01 -2.942175149997e+02 0.0 
0.0 0.0 -1.259069283904e+02 
-1.230383662979e+02 6.398108675602e-01 0.0 
6.398108675602e-01 -2.854047458052e+02 0.0 
0.0 0.0 -1.221329336309e+02 
-1.148347941300e+02 5.218061517893e-01 0.0 
5.218061517893e-01 -2.658689592915e+02 0.0 
0.0 0.0 -1.138111260264e+02 
-1.192652296017e+02 5.120184779532e-01 0.0 
5.120184779532e-01 -2.765499815442e+02 0.0 
0.0 0.0 -1.183445633438e+02 
-1.110425711762e+02 4.117743538574e-01 0.0 
4.117743538574e-01 -2.569889275953e+02 0.0 
0.0 0.0 -1.100094496314e+02 
-1.154846289594e+02 3.977336914723e-01 0.0 
3.977336914723e-01 -2.676886226645e+02 0.0 
0.0 0.0 -1.145519754872e+02 
-1.237124609852e+02 4.954240590455e-01 0.0 
4.954240590455e-01 -2.872575891496e+02 0.0 
0.0 0.0 -1.228910150405e+02 
-1.199469676244e+02 3.980182001654e-01 0.0 
3.980182001654e-01 -2.784346128957e+02 0.0 
0.0 0.0 -1.191144741560e+02 
-1.116794373235e+02 2.951048093217e-01 0.0 
2.951048093217e-01 -2.588618623570e+02 0.0 
0.0 0.0 -1.107623899042e+02 
-1.161635705658e+02 3.161451382458e-01 0.0 
3.161451382458e-01 -2.695941904742e+02 0.0 
0.0 0.0 -1.153273283120e+02 
-1.078566786841e+02 2.271338635283e-01 0.0 
2.271338635283e-01 -2.499921204977e+02 0.0 
0.0 0.0 -1.069546397545e+02 
-1.123753500310e+02 2.613734440323e-01 0.0 
2.613734440323e-01 -2.606541670201e+02 0.0 
0.0 0.0 -1.115088551153e+02 
-1.206746387141e+02 2.897110067099e-01 0.0 
2.897110067099e-01 -2.803569987212e+02 0.0 
0.0 0.0 -1.199094912306e+02 
-3.328833190376e+01 -2.298450260242e-01 0.0 
-2.298450260242e-01 -8.171458862383e+01 0.0 
0.0 0.0 -3.410087615828e+01 
-1.203610311671e+02 2.798140796707e+00 0.0 
2.798140796707e+00 -2.865529680177e+02 0.0 
0.0 0.0 -1.216741997554e+02 
-1.288634002299e+02 2.858016208886e+00 0.0 
2.858016208886e+00 -3.058242326509e+02 0.0 
0.0 0.0 -1.300062898643e+02 
-6.520333071735e+01 8.362441659946e-02 0.0 
8.362441659946e-02 -1.595911047819e+02 0.0 
0.0 0.0 -6.703833064978e+01 
-7.306431848811e+01 1.699235589305e-01 0.0 
1.699235589305e-01 -1.782722346280e+02 0.0 
0.0 0.0 -7.500096593484e+01 
-7.765682851565e+01 1.489000558003e-01 0.0 
1.489000558003e-01 -1.893011459019e+02 0.0 
0.0 0.0 -7.968739232527e+01 
-8.142830210757e+01 1.595406689605e-01 0.0 
1.595406689605e-01 -1.979988552327e+02 0.0 
0.0 0.0 -8.342814720207e+01 
-1.168477587561e+02 2.362633307454e-01 0.0 
2.362633307454e-01 -2.713097644784e+02 0.0 
0.0 0.0 -1.160472569703e+02 
-1.251204920487e+02 2.381832318936e-01 0.0 
2.381832318936e-01 -2.911232774323e+02 0.0 
0.0 0.0 -1.244731308443e+02 
-3.729656272281e+01 4.459516382092e+00 0.0 
4.459516382092e+00 -8.966043037424e+01 0.0 
0.0 0.0 -3.768709792912e+01 
-4.192918338414e+01 4.300788275026e+00 0.0 
4.300788275026e+00 -9.821626209629e+01 0.0 
0.0 0.0 -4.164363364413e+01 
-1.299044619355e+02 1.117596589362e+00 0.0 
1.117596589362e+00 -3.011487243685e+02 0.0 
0.0 0.0 -1.289159558912e+02 
-1.231279656900e+02 5.065911300441e-01 0.0 
5.065911300441e-01 -2.941377446940e+02 0.0 
0.0 0.0 -1.247797131152e+02 
-1.145724194684e+02 4.234944797168e-01 0.0 
4.234944797168e-01 -2.747846176524e+02 0.0 
0.0 0.0 -1.164071111362e+02 
-7.667178861739e+01 2.941433789693e+00 0.0 
2.941433789693e+00 -1.754336666807e+02 0.0 
0.0 0.0 -7.523163658944e+01 
-7.317481852468e+01 2.597814680088e+00 0.0 
2.597814680088e+00 -1.663621027752e+02 0.0 
0.0 0.0 -7.146107638998e+01 
-6.874001443459e+01 2.893524618778e+00 0.0 
2.893524618778e+00 -1.564721281743e+02 0.0 
0.0 0.0 -6.716364278266e+01 
-6.507472222338e+01 2.462586316676e+00 0.0 
2.462586316676e+00 -1.470886314658e+02 0.0 
0.0 0.0 -6.324900610677e+01 
-6.958452472047e+01 2.183932519516e+00 0.0 
2.183932519516e+00 -1.573809696995e+02 0.0 
0.0 0.0 -6.768964832600e+01 
-6.055917873692e+01 2.831894713833e+00 0.0 
2.831894713833e+00 -1.369204812777e+02 0.0 
0.0 0.0 -5.884389800438e+01 
-1.103952345125e+02 1.935783728591e+00 0.0 
1.935783728591e+00 -2.654060862795e+02 0.0 
0.0 0.0 -1.123403962376e+02 
-1.281728730765e+02 4.864569130227e-01 0.0 
4.864569130227e-01 -2.980264895488e+02 0.0 
0.0 0.0 -1.274598087876e+02 
-4.270990686077e+01 -2.525898085079e-01 0.0 
-2.525898085079e-01 -1.055997243817e+02 0.0 
0.0 0.0 -4.409288937274e+01 
-3.485621277418e+01 -3.231880169846e-01 0.0 
-3.231880169846e-01 -8.619753367461e+01 0.0 
0.0 0.0 -3.591612393464e+01 
-1.317219650093e+02 5.727980396972e-01 0.0 
5.727980396972e-01 -3.134959313604e+02 0.0 
0.0 0.0 -1.331653689109e+02 
-1.119378330936e+02 2.733132790717e+00 0.0 
2.733132790717e+00 -2.674396071837e+02 0.0 
0.0 0.0 -1.134132320832e+02 
-1.091481981928e+02 2.773631875461e+00 0.0 
2.773631875461e+00 -2.516590913495e+02 0.0 
0.0 0.0 -1.078421868627e+02 
-1.126815360123e+02 2.969922357614e+00 0.0 
2.969922357614e+00 -2.606616111994e+02 0.0 
0.0 0.0 -1.116029441635e+02 
-1.170809361659e+02 2.874620329319e+00 0.0 
2.874620329319e+00 -2.706555839828e+02 0.0 
0.0 0.0 -1.159209560446e+02 
-1.206415182319e+02 3.049539728340e+00 0.0 
3.049539728340e+00 -2.796830494911e+02 0.0 
0.0 0.0 -1.196973703169e+02 
-1.250316214176e+02 2.988279620070e+00 0.0 
2.988279620070e+00 -2.897464536554e+02 0.0 
0.0 0.0 -1.240334225219e+02 
-1.285743860336e+02 3.157824621542e+00 0.0 
3.157824621542e+00 -2.987194077887e+02 0.0 
0.0 0.0 -1.277881381467e+02 
-1.242089213356e+02 3.197843662623e+00 0.0 
3.197843662623e+00 -2.887959440030e+02 0.0 
0.0 0.0 -1.235014596016e+02 
-1.314789990845e+02 3.428158643998e+00 0.0 
3.428158643998e+00 -3.082973702003e+02 0.0 
0.0 0.0 -1.315329107854e+02 
-1.321675113544e+02 3.317956292901e+00 0.0 
3.317956292901e+00 -3.078510867351e+02 0.0 
0.0 0.0 -1.316055794269e+02 
-1.085276617992e+02 1.285909890328e-01 0.0 
1.285909890328e-01 -2.514007414500e+02 0.0 
0.0 0.0 -1.075785209747e+02 
-1.102322274762e+02 3.356217274646e+00 0.0 
3.356217274646e+00 -2.597469725793e+02 0.0 
0.0 0.0 -1.105937600166e+02 
-4.938215135830e+01 4.141672314327e-01 0.0 
4.141672314327e-01 -1.232752701032e+02 0.0 
0.0 0.0 -5.139722643846e+01 
-2.956832721565e+01 -2.144546659749e-01 0.0 
-2.144546659749e-01 -7.302001874168e+01 0.0 
0.0 0.0 -3.037650378720e+01 
-2.950105855411e+01 -2.389391678229e-01 0.0 
-2.389391678229e-01 -7.353159598959e+01 0.0 
0.0 0.0 -3.050979636311e+01 
-3.635153525761e+01 -2.148701421961e-01 0.0 
-2.148701421961e-01 -8.936648729592e+01 0.0 
0.0 0.0 -3.731540676606e+01 
-4.437805320201e+01 -1.697115244466e-01 0.0 
-1.697115244466e-01 -1.089444753768e+02 0.0 
0.0 0.0 -4.559675857365e+01 
-1.362692968992e+02 2.324961420470e+00 0.0 
2.324961420470e+00 -3.234459484334e+02 0.0 
0.0 0.0 -1.375145735998e+02 
-1.329433391059e+02 3.116514231403e+00 0.0 
3.116514231403e+00 -3.088420958770e+02 0.0 
0.0 0.0 -1.321356304949e+02 
-1.293099667482e+02 2.916914857887e+00 0.0 
2.916914857887e+00 -2.997188544441e+02 0.0 
0.0 0.0 -1.283086463577e+02 
-6.150671661855e+01 1.952247524495e+00 0.0 
1.952247524495e+00 -1.383149042188e+02 0.0 
0.0 0.0 -5.954648625119e+01 
-6.601287541929e+01 1.778900176458e+00 0.0 
1.778900176458e+00 -1.487048668271e+02 0.0 
0.0 0.0 -6.401532267392e+01 
-1.352534143361e+02 3.465630606950e+00 0.0 
3.465630606950e+00 -3.176386874430e+02 0.0 
0.0 0.0 -1.354676305337e+02 
-1.057205577062e+02 6.530142510280e-01 0.0 
6.530142510280e-01 -2.430434063984e+02 0.0 
0.0 0.0 -1.042291892314e+02 
-1.066382428908e+02 4.066836451575e-01 0.0 
4.066836451575e-01 -2.463774030544e+02 0.0 
0.0 0.0 -1.055046937836e+02 
-1.027686438585e+02 2.966763718141e-01 0.0 
2.966763718141e-01 -2.373909688655e+02 0.0 
0.0 0.0 -1.016478838172e+02 
-2.785910597031e+01 -1.477849703568e-01 0.0 
-1.477849703568e-01 -6.832241491919e+01 0.0 
0.0 0.0 -2.845445626685e+01 
-2.666692165090e+01 -2.373509170853e-01 0.0 
-2.373509170853e-01 -6.615309443317e+01 0.0 
0.0 0.0 -2.744600482522e+01 
-1.312120513000e+02 7.580048655359e-01 0.0 
7.580048655359e-01 -3.049541302362e+02 0.0 
0.0 0.0 -1.304498544609e+02 
-4.986816665804e+01 4.146247759129e+00 0.0 
4.146247759129e+00 -1.170508468209e+02 0.0 
0.0 0.0 -4.967570404370e+01 
-4.652694713247e+01 3.958275400793e+00 0.0 
3.958275400793e+00 -1.071483577839e+02 0.0 
0.0 0.0 -4.570259147491e+01 
-2.390247390085e+01 2.464033782628e+00 0.0 
2.464033782628e+00 -6.333451080719e+01 0.0 
0.0 0.0 -2.577109541241e+01 
-2.045670679861e+01 1.360543782616e+00 0.0 
1.360543782616e+00 -5.385763649344e+01 0.0 
0.0 0.0 -2.189430298762e+01 
-1.213136019148e+02 1.070488253168e-01 0.0 
1.070488253168e-01 -2.818033268899e+02 0.0 
0.0 0.0 -1.205350786414e+02 
-1.295497769537e+02 1.660692283232e-01 0.0 
1.660692283232e-01 -3.014715561249e+02 0.0 
0.0 0.0 -1.289063999236e+02 
-8.597169951646e+01 2.637695906781e-01 0.0 
2.637695906781e-01 -2.087373440785e+02 0.0 
0.0 0.0 -8.801271307848e+01 
-8.965365514002e+01 2.741203478835e-01 0.0 
2.741203478835e-01 -2.173563598694e+02 0.0 
0.0 0.0 -9.170300450284e+01 
-1.323691023885e+02 2.454647849298e+00 0.0 
2.454647849298e+00 -3.145605830059e+02 0.0 
0.0 0.0 -1.336789056183e+02 
-3.308793271435e+01 -2.352675014227e-01 0.0 
-2.352675014227e-01 -8.225724251757e+01 0.0 
0.0 0.0 -3.420355256958e+01 
-1.334429011015e+02 2.986889828781e-01 0.0 
2.986889828781e-01 -3.108121160882e+02 0.0 
0.0 0.0 -1.328765051569e+02 
-1.156796085721e+02 2.567689259895e+00 0.0 
2.567689259895e+00 -2.764488223775e+02 0.0 
0.0 0.0 -1.172385292849e+02 
-1.072516157930e+02 2.496178182881e+00 0.0 
2.496178182881e+00 -2.573202695268e+02 0.0 
0.0 0.0 -1.089715655959e+02 
-7.684715801137e+01 1.571269302035e-02 0.0 
1.571269302035e-02 -1.868663264458e+02 0.0 
0.0 0.0 -7.871404533716e+01 
-3.406296201672e+01 4.432761815061e+00 0.0 
4.432761815061e+00 -7.949314567869e+01 0.0 
0.0 0.0 -3.366683230862e+01 
-2.944430110148e+01 4.603106584634e+00 0.0 
4.603106584634e+00 -7.125044743262e+01 0.0 
0.0 0.0 -2.980842456023e+01 
-5.360725632676e+01 7.739062084244e-01 0.0 
7.739062084244e-01 -1.337876735389e+02 0.0 
0.0 0.0 -5.581847895971e+01 
-4.084958260459e+01 -9.839727045946e-02 0.0 
-9.839727045946e-02 -1.016352396264e+02 0.0 
0.0 0.0 -4.234544666929e+01 
-3.983692606354e+01 -1.398895421472e-01 0.0 
-1.398895421472e-01 -9.780621530868e+01 0.0 
0.0 0.0 -4.089294241167e+01 
-1.410259217386e+02 2.557467553195e+00 0.0 
2.557467553195e+00 -3.338432623271e+02 0.0 
0.0 0.0 -1.420607552197e+02 
-1.349252514553e+02 9.009952547080e-01 0.0 
9.009952547080e-01 -3.136494287429e+02 0.0 
0.0 0.0 -1.341724040594e+02 
-1.278187021800e+02 3.369547717294e+00 0.0 
3.369547717294e+00 -2.980042324191e+02 0.0 
0.0 0.0 -1.273468803797e+02 
-1.197310466720e+02 3.257202498255e+00 0.0 
3.257202498255e+00 -2.788277688050e+02 0.0 
0.0 0.0 -1.191676446431e+02 
-1.359723415012e+02 3.466472392701e+00 0.0 
3.466472392701e+00 -3.171822977430e+02 0.0 
0.0 0.0 -1.355463917733e+02 
-2.560889601494e+01 -3.207209713936e-01 0.0 
-3.207209713936e-01 -6.294976023035e+01 0.0 
0.0 0.0 -2.616759687359e+01 
-1.402520547467e+02 2.208309705779e+00 0.0 
2.208309705779e+00 -3.325020292055e+02 0.0 
0.0 0.0 -1.414262251857e+02 
-1.269235180793e+02 4.065557102974e-01 0.0 
4.065557102974e-01 -3.027560040308e+02 0.0 
0.0 0.0 -1.285038566330e+02 
-1.368234227933e+02 3.001035765841e+00 0.0 
3.001035765841e+00 -3.181222266846e+02 0.0 
0.0 0.0 -1.360836948434e+02 
-1.335518437143e+02 2.837180754627e+00 0.0 
2.837180754627e+00 -3.097359868000e+02 0.0 
0.0 0.0 -1.325863491543e+02 
-5.442592170965e+01 3.866399484045e+00 0.0 
3.866399484045e+00 -1.260455935433e+02 0.0 
0.0 0.0 -5.374145457588e+01 
-5.114984569767e+01 3.576502709478e+00 0.0 
3.576502709478e+00 -1.166437983380e+02 0.0 
0.0 0.0 -4.993809321069e+01 
-4.319860775252e+01 3.505209538487e+00 0.0 
3.505209538487e+00 -9.758547004474e+01 0.0 
0.0 0.0 -4.183522333918e+01 
-4.774978465968e+01 3.018704137741e+00 0.0 
3.018704137741e+00 -1.074170858003e+02 0.0 
0.0 0.0 -4.615006113800e+01 
-9.605181490222e+01 1.074301443574e+00 0.0 
1.074301443574e+00 -2.195912332673e+02 0.0 
0.0 0.0 -9.429291445086e+01 
-5.909666172860e+01 3.551760634289e+00 0.0 
3.551760634289e+00 -1.356705474436e+02 0.0 
0.0 0.0 -5.803016275167e+01 
-9.126338697284e+01 1.431540466880e+00 0.0 
1.431540466880e+00 -2.078748880775e+02 0.0 
0.0 0.0 -8.934148251511e+01 
-8.763022571271e+01 1.161387122313e+00 0.0 
1.161387122313e+00 -1.993905919815e+02 0.0 
0.0 0.0 -8.570624530825e+01 
-8.340883061687e+01 1.225763863158e+00 0.0 
1.225763863158e+00 -1.893875143472e+02 0.0 
0.0 0.0 -8.143890348922e+01 
-7.396164095987e+01 1.990095718007e+00 0.0 
1.990095718007e+00 -1.674220135861e+02 0.0 
0.0 0.0 -7.201509636380e+01 
-7.041884307276e+01 1.612517736334e+00 0.0 
1.612517736334e+00 -1.589045822043e+02 0.0 
0.0 0.0 -6.839702758311e+01 
-6.133433384000e+01 3.926869882810e+00 0.0 
3.926869882810e+00 -1.458424030524e+02 0.0 
0.0 0.0 -6.175302106771e+01 
-9.741407791025e+01 3.353509257553e+00 0.0 
3.353509257553e+00 -2.309929684775e+02 0.0 
0.0 0.0 -9.812211391631e+01 
-8.224001516032e+01 2.753600109307e-01 0.0 
2.753600109307e-01 -2.002001076962e+02 0.0 
0.0 0.0 -8.433203685697e+01 
-1.033192121727e+02 6.766247057655e-01 0.0 
6.766247057655e-01 -2.493292221423e+02 0.0 
0.0 0.0 -1.053945302945e+02 
-9.743665076392e+01 1.524902821840e+00 0.0 
1.524902821840e+00 -2.360372097867e+02 0.0 
0.0 0.0 -9.964215816518e+01 
-1.318569017194e+02 5.902570427907e-01 0.0 
5.902570427907e-01 -3.067314121178e+02 0.0 
0.0 0.0 -1.311764941511e+02 
-1.363397860158e+02 5.748202689422e-01 0.0 
5.748202689422e-01 -3.176257006630e+02 0.0 
0.0 0.0 -1.357896460037e+02 
-1.033773283187e+02 1.930663296766e-01 0.0 
1.930663296766e-01 -2.392732326906e+02 0.0 
0.0 0.0 -1.023951683028e+02 
-9.961295589231e+01 1.581659353006e-01 0.0 
1.581659353006e-01 -2.303108954448e+02 0.0 
0.0 0.0 -9.857715540113e+01 
-3.039539788681e+01 -3.191996439579e-01 0.0 
-3.191996439579e-01 -7.503089679079e+01 0.0 
0.0 0.0 -3.122788840328e+01 
-2.701484938163e+01 -3.757439811690e-01 0.0 
-3.757439811690e-01 -6.674851355811e+01 0.0 
0.0 0.0 -2.772900888192e+01 
-9.208587821235e+01 8.881652605319e-01 0.0 
8.881652605319e-01 -2.236944813149e+02 0.0 
0.0 0.0 -9.433410785819e+01 
-1.353295862141e+02 1.917564626921e+00 0.0 
1.917564626921e+00 -3.216774349665e+02 0.0 
0.0 0.0 -1.367021063542e+02 
-1.341526275720e+02 1.063009698769e+00 0.0 
1.063009698769e+00 -3.115717279885e+02 0.0 
0.0 0.0 -1.333173066681e+02 
-1.378445696736e+02 1.249869123483e+00 0.0 
1.249869123483e+00 -3.203925324271e+02 0.0 
0.0 0.0 -1.370711306302e+02 
-1.335754170123e+02 1.296548301381e+00 0.0 
1.296548301381e+00 -3.098512208660e+02 0.0 
0.0 0.0 -1.326279913635e+02 
-1.370407406972e+02 2.685833185039e+00 0.0 
2.685833185039e+00 -3.246943664266e+02 0.0 
0.0 0.0 -1.381205321371e+02 
-6.364736221555e+01 3.181656765270e+00 0.0 
3.181656765270e+00 -1.554438077119e+02 0.0 
0.0 0.0 -6.532735097824e+01 
-9.995261186271e+01 2.879957079615e+00 0.0 
2.879957079615e+00 -2.394884513454e+02 0.0 
0.0 0.0 -1.014323189624e+02 
-2.402399933961e+01 1.059728480742e+00 0.0 
1.059728480742e+00 -6.252029139806e+01 0.0 
0.0 0.0 -2.556328722130e+01 
-1.038050160998e+02 3.191396067656e+00 0.0 
3.191396067656e+00 -2.409766192545e+02 0.0 
0.0 0.0 -1.030344906063e+02 
-2.268497587348e+01 -3.062694497073e-01 0.0 
-3.062694497073e-01 -5.574058635807e+01 0.0 
0.0 0.0 -2.312766866946e+01 
-1.184309739844e+02 2.227081620417e+00 0.0 
2.227081620417e+00 -2.728343524075e+02 0.0 
0.0 0.0 -1.169795979176e+02 
-1.356326906813e+02 4.419806428596e-01 0.0 
4.419806428596e-01 -3.221594228168e+02 0.0 
0.0 0.0 -1.369376340495e+02 
-1.403796474928e+02 6.240369444958e-01 0.0 
6.240369444958e-01 -3.327352456728e+02 0.0 
0.0 0.0 -1.415344679497e+02 
-1.396863002877e+02 3.560010305616e+00 0.0 
3.560010305616e+00 -3.273765628971e+02 0.0 
0.0 0.0 -1.397188589554e+02 
-8.469916582242e+01 6.051652810993e-01 0.0 
6.051652810993e-01 -1.930237481005e+02 0.0 
0.0 0.0 -8.291687417687e+01 
-1.072896731115e+02 3.289835164115e+00 0.0 
3.289835164115e+00 -2.501217571104e+02 0.0 
0.0 0.0 -1.068234290666e+02 
-1.028105266322e+02 3.365665307149e+00 0.0 
3.365665307149e+00 -2.404995814960e+02 0.0 
0.0 0.0 -1.025930324385e+02 
-7.980626900660e+01 9.374569241528e-01 0.0 
9.374569241528e-01 -1.810460867056e+02 0.0 
0.0 0.0 -7.785570671365e+01 
-7.560366796766e+01 1.004710428673e+00 0.0 
1.004710428673e+00 -1.711362623015e+02 0.0 
0.0 0.0 -7.362197908074e+01 
-7.916128550258e+01 1.308929532244e+00 0.0 
1.308929532244e+00 -1.793683172278e+02 0.0 
0.0 0.0 -7.715888081910e+01 
-7.133165705903e+01 1.098492995940e+00 0.0 
1.098492995940e+00 -1.611100348467e+02 0.0 
0.0 0.0 -6.933250757171e+01 
-5.718353365854e+01 6.451145270499e-01 0.0 
6.451145270499e-01 -1.421148008560e+02 0.0 
0.0 0.0 -5.938950035436e+01 
-5.288755272985e+01 3.368853809913e-01 0.0 
3.368853809913e-01 -1.314880013510e+02 0.0 
0.0 0.0 -5.491266622425e+01 
-1.414148332351e+02 3.259299621180e+00 0.0 
3.259299621180e+00 -3.293449119620e+02 0.0 
0.0 0.0 -1.408279235592e+02 
-1.400579411112e+02 3.353912442603e+00 0.0 
3.353912442603e+00 -3.266736919078e+02 0.0 
0.0 0.0 -1.396194899057e+02 
-1.411902409288e+02 3.027545671795e+00 0.0 
3.027545671795e+00 -3.283715038619e+02 0.0 
0.0 0.0 -1.404685234372e+02 
-1.381682410329e+02 2.786844586732e+00 0.0 
2.786844586732e+00 -3.203546726640e+02 0.0 
0.0 0.0 -1.371568741090e+02 
-1.436264380069e+02 3.619434116962e+00 0.0 
3.619434116962e+00 -3.366849816757e+02 0.0 
0.0 0.0 -1.436934259048e+02 
-1.389855292911e+02 3.482979606750e+00 0.0 
3.482979606750e+00 -3.266846538888e+02 0.0 
0.0 0.0 -1.393010549540e+02 
-4.756139396855e+01 -8.232068292990e-02 0.0 
-8.232068292990e-02 -1.168401824496e+02 0.0 
0.0 0.0 -4.892047292544e+01 
-6.249593715172e+01 1.372044693320e+00 0.0 
1.372044693320e+00 -1.404412398936e+02 0.0 
0.0 0.0 -6.048115311360e+01 
-1.394200644224e+02 8.694611001299e-01 0.0 
8.694611001299e-01 -3.244034664523e+02 0.0 
0.0 0.0 -1.387470592624e+02 
-8.398542502430e+01 8.869069970930e-01 0.0 
8.869069970930e-01 -1.909473521539e+02 0.0 
0.0 0.0 -8.207983315346e+01 
-1.439025431861e+02 2.084905547336e+00 0.0 
2.084905547336e+00 -3.407000466774e+02 0.0 
0.0 0.0 -1.449807769590e+02 
-1.392518675903e+02 1.799273065527e+00 0.0 
1.799273065527e+00 -3.304391896338e+02 0.0 
0.0 0.0 -1.405073171672e+02 
-1.732676068050e+01 5.666423288587e-01 0.0 
5.666423288587e-01 -4.386322273357e+01 0.0 
0.0 0.0 -1.795699502422e+01 
-2.038851599917e+01 3.623974569021e-01 0.0 
3.623974569021e-01 -5.170618400213e+01 0.0 
0.0 0.0 -2.122841000039e+01 
-1.378805353071e+02 2.487082833277e-01 0.0 
2.487082833277e-01 -3.214272683346e+02 0.0 
0.0 0.0 -1.373923410925e+02 
-3.965044056039e+01 2.861980845529e+00 0.0 
2.861980845529e+00 -8.816087003688e+01 0.0 
0.0 0.0 -3.794339317918e+01 
-4.391446892987e+01 2.399714993839e+00 0.0 
2.399714993839e+00 -9.777441569697e+01 0.0 
0.0 0.0 -4.210666538805e+01 
-3.521904918447e+01 3.374794428570e+00 0.0 
3.374794428570e+00 -7.850559160911e+01 0.0 
0.0 0.0 -3.371739223807e+01 
-1.535340691405e+02 1.562278187125e-01 0.0 
1.562278187125e-01 -3.616698899137e+02 0.0 
0.0 0.0 -1.541611877163e+02 
-8.323055660337e+01 1.841811257563e-02 0.0 
1.841811257563e-02 -1.923911432401e+02 0.0 
0.0 0.0 -8.228650995304e+01 
-1.444523733430e+02 4.751346265637e-01 0.0 
4.751346265637e-01 -3.415362316385e+02 0.0 
0.0 0.0 -1.453965814945e+02 
-7.836583659170e+01 1.801204750609e+00 0.0 
1.801204750609e+00 -1.776051417442e+02 0.0 
0.0 0.0 -7.639129350076e+01 
-1.418821592173e+02 3.307410920978e-01 0.0 
3.307410920978e-01 -3.308365400527e+02 0.0 
0.0 0.0 -1.414156097810e+02 
-1.108948219305e+02 3.347102367697e+00 0.0 
3.347102367697e+00 -2.594972565952e+02 0.0 
0.0 0.0 -1.107176235577e+02 
-7.204372708515e+01 3.188957639684e+00 0.0 
3.188957639684e+00 -1.653351678256e+02 0.0 
0.0 0.0 -7.081366847324e+01 
-1.283883597297e+02 2.588091863640e+00 0.0 
2.588091863640e+00 -3.054392061455e+02 0.0 
0.0 0.0 -1.297482697625e+02 
-1.335120547046e+02 2.354061246731e-01 0.0 
2.354061246731e-01 -3.109469038704e+02 0.0 
0.0 0.0 -1.329376875725e+02 
-1.423712262475e+02 1.483578176004e-01 0.0 
1.483578176004e-01 -3.324775324846e+02 0.0 
0.0 0.0 -1.420546276196e+02 
-9.843991075150e+01 2.535265542038e-01 0.0 
2.535265542038e-01 -2.268144963667e+02 0.0 
0.0 0.0 -9.717632213547e+01 
-9.420292319409e+01 2.772229098544e-01 0.0 
2.772229098544e-01 -2.172504169098e+02 0.0 
0.0 0.0 -9.303600203118e+01 
-1.020131215836e+02 3.776391551666e-01 0.0 
3.776391551666e-01 -2.352396865806e+02 0.0 
0.0 0.0 -1.007758424492e+02 
-2.801554677961e+01 3.554386340191e+00 0.0 
3.554386340191e+00 -7.231451145493e+01 0.0 
0.0 0.0 -2.969901747036e+01 
-1.956920230521e+01 3.289196099080e+00 0.0 
3.289196099080e+00 -5.232564013402e+01 0.0 
0.0 0.0 -2.116845273177e+01 
-1.325818617966e+02 4.482384152214e-01 0.0 
4.482384152214e-01 -3.087312066644e+02 0.0 
0.0 0.0 -1.319939205383e+02 
-5.693311862183e+01 -7.201690700074e-02 0.0 
-7.201690700074e-02 -1.396325185909e+02 0.0 
0.0 0.0 -5.856969116381e+01 
-6.121610421458e+01 -1.045827849724e-01 0.0 
-1.045827849724e-01 -1.501747988530e+02 0.0 
0.0 0.0 -6.301727092026e+01 
-3.630720757625e+01 -2.421103447306e-01 0.0 
-2.421103447306e-01 -9.012320298384e+01 0.0 
0.0 0.0 -3.752912316803e+01 
-4.408715281417e+01 -1.155434410341e-01 0.0 
-1.155434410341e-01 -1.093740318362e+02 0.0 
0.0 0.0 -4.563835539511e+01 
-9.050146415670e+01 3.991356494441e-01 0.0 
3.991356494441e-01 -2.195091449721e+02 0.0 
0.0 0.0 -9.260318273864e+01 
-8.678310340842e+01 4.340360471796e-01 0.0 
4.340360471796e-01 -2.109936463736e+02 0.0 
0.0 0.0 -8.893302493461e+01 
-1.220840388706e+02 2.473907921162e+00 0.0 
2.473907921162e+00 -2.817704013274e+02 0.0 
0.0 0.0 -1.207563320594e+02 
-1.263102984379e+02 2.384881495599e+00 0.0 
2.384881495599e+00 -2.918516338884e+02 0.0 
0.0 0.0 -1.250485796979e+02 
-1.134945209242e+02 2.662385138803e+00 0.0 
2.662385138803e+00 -2.616399242255e+02 0.0 
0.0 0.0 -1.121403335449e+02 
-1.110294257795e+02 2.332151034550e+00 0.0 
2.332151034550e+00 -2.663092639674e+02 0.0 
0.0 0.0 -1.128016069241e+02 
-1.026153552521e+02 2.242614121464e+00 0.0 
2.242614121464e+00 -2.472054885024e+02 0.0 
0.0 0.0 -1.045462531264e+02 
-9.893427926721e+01 2.437151661446e+00 0.0 
2.437151661446e+00 -2.383806180791e+02 0.0 
0.0 0.0 -1.007944692039e+02 
-1.397376003853e+02 6.921323450431e-01 0.0 
6.921323450431e-01 -3.258272824047e+02 0.0 
0.0 0.0 -1.392694648370e+02 
-1.451441052324e+02 6.126913568090e-01 0.0 
6.126913568090e-01 -3.388751456912e+02 0.0 
0.0 0.0 -1.448057752771e+02 
-6.143768770117e+01 1.015745384450e+00 0.0 
1.015745384450e+00 -1.524512640686e+02 0.0 
0.0 0.0 -6.376668553093e+01 
-5.783026725716e+01 1.201854981990e+00 0.0 
1.201854981990e+00 -1.440456908351e+02 0.0 
0.0 0.0 -6.016278742768e+01 
-6.064630533675e+01 5.385195779028e-01 0.0 
5.385195779028e-01 -1.501560124935e+02 0.0 
0.0 0.0 -6.284069534908e+01 
-1.430537512962e+02 9.981403482148e-01 0.0 
9.981403482148e-01 -3.331039003099e+02 0.0 
0.0 0.0 -1.424472954819e+02 
-1.490224363119e+02 6.146898674822e-01 0.0 
6.146898674822e-01 -3.518083487108e+02 0.0 
0.0 0.0 -1.498492355068e+02 
-1.450201664652e+02 8.732843674699e-01 0.0 
8.732843674699e-01 -3.431966085761e+02 0.0 
0.0 0.0 -1.460650325124e+02 
-1.949008367026e+01 -2.955137834269e-01 0.0 
-2.955137834269e-01 -4.764389267074e+01 0.0 
0.0 0.0 -1.974019290230e+01 
-2.356756028306e+01 -3.380938645619e-01 0.0 
-3.380938645619e-01 -5.830065197493e+01 0.0 
0.0 0.0 -2.416046367740e+01 
-2.618056450484e+01 4.553571119449e+00 0.0 
4.553571119449e+00 -6.074958134952e+01 0.0 
0.0 0.0 -2.567904375631e+01 
-2.187639273033e+01 4.761779734533e+00 0.0 
4.761779734533e+00 -5.331731875898e+01 0.0 
0.0 0.0 -2.215811344679e+01 
-1.412904973306e+02 1.422090880729e+00 0.0 
1.422090880729e+00 -3.286924765295e+02 0.0 
0.0 0.0 -1.405948921580e+02 
-1.372947143315e+02 1.482392145001e+00 0.0 
1.482392145001e+00 -3.187600812745e+02 0.0 
0.0 0.0 -1.364164386818e+02 
-1.463034374906e+02 1.372942103171e+00 0.0 
1.372942103171e+00 -3.409033538528e+02 0.0 
0.0 0.0 -1.457620374030e+02 
-4.255762499799e+01 -1.388742953746e-01 0.0 
-1.388742953746e-01 -1.044658374286e+02 0.0 
0.0 0.0 -4.370703872797e+01 
-1.234666288891e+02 3.323630703671e+00 0.0 
3.323630703671e+00 -2.883174565188e+02 0.0 
0.0 0.0 -1.231352256224e+02 
-1.453496818412e+02 2.805961331119e+00 0.0 
2.805961331119e+00 -3.431689749711e+02 0.0 
0.0 0.0 -1.461555970437e+02 
-1.413616143540e+02 2.883850830268e+00 0.0 
2.883850830268e+00 -3.342037793665e+02 0.0 
0.0 0.0 -1.422696181162e+02 
-1.504981520249e+02 2.743599046545e+00 0.0 
2.743599046545e+00 -3.547597372425e+02 0.0 
0.0 0.0 -1.511773667802e+02 
-1.357978590360e+02 3.520913354965e+00 0.0 
3.520913354965e+00 -3.177847693341e+02 0.0 
0.0 0.0 -1.356747885110e+02 
-1.436168606006e+02 3.662524987419e+00 0.0 
3.662524987419e+00 -3.363772902021e+02 0.0 
0.0 0.0 -1.435982452408e+02 
-1.438733072942e+02 3.544282606916e+00 0.0 
3.544282606916e+00 -3.360449180666e+02 0.0 
0.0 0.0 -1.435754676083e+02 
-1.399219854530e+01 7.468833251603e-01 0.0 
7.468833251603e-01 -3.568954895470e+01 0.0 
0.0 0.0 -1.450452425000e+01 
-1.395836171613e+02 1.946043461180e-01 0.0 
1.946043461180e-01 -3.256522451646e+02 0.0 
0.0 0.0 -1.391707586978e+02 
-9.467878714877e+01 1.547987270165e-01 0.0 
1.547987270165e-01 -2.187115375987e+02 0.0 
0.0 0.0 -9.361709742425e+01 
-1.225941894174e+01 2.845521947185e-01 0.0 
2.845521947185e-01 -2.807729660827e+01 0.0 
0.0 0.0 -1.184140545595e+01 
-9.096846202292e+01 9.775298989252e-02 0.0 
9.775298989252e-02 -2.099006363309e+02 0.0 
0.0 0.0 -8.986072950614e+01 
-9.565884212089e+01 1.151921585511e-01 0.0 
1.151921585511e-01 -2.211915062117e+02 0.0 
0.0 0.0 -9.465510449977e+01 
-8.659584479091e+01 7.114720844294e-02 0.0 
7.114720844294e-02 -1.998571811911e+02 0.0 
0.0 0.0 -8.553590779460e+01 
-3.472607811604e+01 -1.370309444908e-01 0.0 
-1.370309444908e-01 -8.531363297165e+01 0.0 
0.0 0.0 -3.561191332631e+01 
-9.252102627080e+01 3.003083304517e-01 0.0 
3.003083304517e-01 -2.127524830868e+02 0.0 
0.0 0.0 -9.118205280729e+01 
-9.759848425238e+01 4.440944453201e-01 0.0 
4.440944453201e-01 -2.245471173690e+02 0.0 
0.0 0.0 -9.624368048640e+01 
-1.503832735137e+01 -3.543532148265e-01 0.0 
-3.543532148265e-01 -3.602891854241e+01 0.0 
0.0 0.0 -1.503078702691e+01 
-1.473000712669e+02 8.936607736743e-01 0.0 
8.936607736743e-01 -3.435089897574e+02 0.0 
0.0 0.0 -1.468427183073e+02 
-1.537985198856e+01 -2.213079908991e-01 0.0 
-2.213079908991e-01 -3.751453567948e+01 0.0 
0.0 0.0 -1.546688544327e+01 
-1.854450493894e+01 -1.718522717008e-01 0.0 
-1.718522717008e-01 -4.532890805501e+01 0.0 
0.0 0.0 -1.876202389818e+01 
-1.480736931507e+02 1.895650489443e+00 0.0 
1.895650489443e+00 -3.496348050252e+02 0.0 
0.0 0.0 -1.489125494528e+02 
-1.431511760734e+02 1.688222506776e+00 0.0 
1.688222506776e+00 -3.389873425604e+02 0.0 
0.0 0.0 -1.442415555901e+02 
-1.515851488197e+02 1.834782355348e+00 0.0 
1.834782355348e+00 -3.575700008417e+02 0.0 
0.0 0.0 -1.523465448984e+02 
-1.466615222451e+02 1.502119465514e+00 0.0 
1.502119465514e+00 -3.468299693048e+02 0.0 
0.0 0.0 -1.476474474650e+02 
-1.383049853567e+02 1.458551642406e+00 0.0 
1.458551642406e+00 -3.282970073142e+02 0.0 
0.0 0.0 -1.395805978013e+02 
-1.423366464560e+02 1.295612594099e+00 0.0 
1.295612594099e+00 -3.371805037341e+02 0.0 
0.0 0.0 -1.434551450570e+02 
-8.996311039505e+01 1.922674163841e-01 0.0 
1.922674163841e-01 -2.075914593365e+02 0.0 
0.0 0.0 -8.886637091946e+01 
-1.520254904920e+02 1.392591295123e+00 0.0 
1.392591295123e+00 -3.583575951380e+02 0.0 
0.0 0.0 -1.527149256890e+02 
-1.465131208273e+02 1.163038174371e+00 0.0 
1.163038174371e+00 -3.462622168126e+02 0.0 
0.0 0.0 -1.474326012920e+02 
-1.560930651903e+02 1.259640680239e+00 0.0 
1.259640680239e+00 -3.675316649710e+02 0.0 
0.0 0.0 -1.566874190484e+02 
-6.789918610388e+01 7.824951358269e-01 0.0 
7.824951358269e-01 -1.532902080640e+02 0.0 
0.0 0.0 -6.595681825038e+01 
-5.209687056694e+01 2.649892608369e+00 0.0 
2.649892608369e+00 -1.170693926093e+02 0.0 
0.0 0.0 -5.034987895287e+01 
-4.844608319589e+01 2.057266397131e+00 0.0 
2.057266397131e+00 -1.080151085596e+02 0.0 
0.0 0.0 -4.653835752664e+01 
-3.990574743021e+01 1.508637015958e+00 0.0 
1.508637015958e+00 -8.844370079013e+01 0.0 
0.0 0.0 -3.810483446610e+01 
-1.468399853761e+02 2.970893601296e+00 0.0 
2.970893601296e+00 -3.417913739143e+02 0.0 
0.0 0.0 -1.461894077871e+02 
-1.418473532314e+02 2.629736684922e+00 0.0 
2.629736684922e+00 -3.294824898767e+02 0.0 
0.0 0.0 -1.409989529324e+02 
-1.310546643680e+02 2.786119341805e-01 0.0 
2.786119341805e-01 -3.119617500596e+02 0.0 
0.0 0.0 -1.325049243283e+02 
-1.223437085153e+02 2.305210536499e-01 0.0 
2.305210536499e-01 -2.924062462808e+02 0.0 
0.0 0.0 -1.240249864388e+02 
-9.118789498878e+01 3.283176669050e-02 0.0 
3.283176669050e-02 -2.110007543771e+02 0.0 
0.0 0.0 -9.025659480976e+01 
-9.073978953424e+01 7.509293106282e-02 0.0 
7.509293106282e-02 -2.099702562058e+02 0.0 
0.0 0.0 -8.981301372202e+01 
-9.830375088750e+01 -4.879331311773e-02 0.0 
-4.879331311773e-02 -2.277520324668e+02 0.0 
0.0 0.0 -9.741673500628e+01 
-9.726220798090e+01 8.233202025769e-02 0.0 
8.233202025769e-02 -2.253684633562e+02 0.0 
0.0 0.0 -9.638920140113e+01 
-1.048315477722e+02 -3.334911214238e-02 0.0 
-3.334911214238e-02 -2.432381538182e+02 0.0 
0.0 0.0 -1.040209104771e+02 
-1.037574062530e+02 1.122981943772e-01 0.0 
1.122981943772e-01 -2.405204731551e+02 0.0 
0.0 0.0 -1.028833638224e+02 
-1.114872660518e+02 2.100915410788e-01 0.0 
2.100915410788e-01 -2.587433038750e+02 0.0 
0.0 0.0 -1.106691709780e+02 
-1.482018291267e+02 3.504195915270e+00 0.0 
3.504195915270e+00 -3.461825858427e+02 0.0 
0.0 0.0 -1.479153244908e+02 
-3.136909811942e+01 2.502176989488e+00 0.0 
2.502176989488e+00 -6.880476414101e+01 0.0 
0.0 0.0 -2.965215867813e+01 
-7.624825033072e+01 6.817219123196e-01 0.0 
6.817219123196e-01 -1.729076336015e+02 0.0 
0.0 0.0 -7.434676517967e+01 
-1.472303518914e+02 3.670073510486e+00 0.0 
3.670073510486e+00 -3.455282478500e+02 0.0 
0.0 0.0 -1.474275799224e+02 
-1.419987798858e+02 3.464185338784e+00 0.0 
3.464185338784e+00 -3.342857427072e+02 0.0 
0.0 0.0 -1.424853567779e+02 
-6.687069313282e+01 1.223707352330e+00 0.0 
1.223707352330e+00 -1.506345252297e+02 0.0 
0.0 0.0 -6.485156550876e+01 
-5.908049016059e+01 9.405434498213e-01 0.0 
9.405434498213e-01 -1.327426327469e+02 0.0 
0.0 0.0 -5.714693687224e+01 
-1.499796608428e+02 2.308695866886e+00 0.0 
2.308695866886e+00 -3.540407212161e+02 0.0 
0.0 0.0 -1.508061146177e+02 
-6.240715355220e+01 3.773721195977e+00 0.0 
3.773721195977e+00 -1.450394381823e+02 0.0 
0.0 0.0 -6.183397752035e+01 
-1.518424795265e+02 1.085054994043e+00 0.0 
1.085054994043e+00 -3.547344065768e+02 0.0 
0.0 0.0 -1.515730658310e+02 
-7.126581419862e+00 1.537627130429e+00 0.0 
1.537627130429e+00 -1.456860080427e+01 0.0 
0.0 0.0 -6.470260246341e+00 
-1.206824327795e+01 2.117043769835e+00 0.0 
2.117043769835e+00 -3.197872159889e+01 0.0 
0.0 0.0 -1.292638411789e+01 
-6.712728891315e+01 3.493927573008e+00 0.0 
3.493927573008e+00 -1.548165157374e+02 0.0 
0.0 0.0 -6.618314139518e+01 
-7.484045604186e+01 1.442882524491e+00 0.0 
1.442882524491e+00 -1.692125781789e+02 0.0 
0.0 0.0 -7.281591026622e+01 
-5.676061288774e+01 2.272657507384e+00 0.0 
2.272657507384e+00 -1.273358202569e+02 0.0 
0.0 0.0 -5.482892994338e+01 
-5.359938107660e+01 1.796928056149e+00 0.0 
1.796928056149e+00 -1.196277740326e+02 0.0 
0.0 0.0 -5.156814653277e+01 
-1.196247886091e+02 2.435257493351e+00 0.0 
2.435257493351e+00 -2.857437362213e+02 0.0 
0.0 0.0 -1.212105574491e+02 
-2.076360448004e+01 -3.826245949349e-01 0.0 
-3.826245949349e-01 -5.072268105241e+01 0.0 
0.0 0.0 -2.104588565974e+01 
-3.078491333634e+01 3.982116692283e+00 0.0 
3.982116692283e+00 -6.938793756191e+01 0.0 
0.0 0.0 -2.965185526947e+01 
-1.125000286938e+02 2.437979869715e-02 0.0 
2.437979869715e-02 -2.609617913154e+02 0.0 
0.0 0.0 -1.116385460028e+02 
-2.278087621920e+01 3.775089290766e+00 0.0 
3.775089290766e+00 -5.027475153094e+01 0.0 
0.0 0.0 -2.151668832504e+01 
-1.269482043529e+02 1.189923265020e-01 0.0 
1.189923265020e-01 -3.026697279114e+02 0.0 
0.0 0.0 -1.284853796793e+02 
-6.597911442666e+01 3.856630863129e+00 0.0 
3.856630863129e+00 -1.550640371086e+02 0.0 
0.0 0.0 -6.591294546057e+01 
-8.189782240536e+01 2.154176413956e+00 0.0 
2.154176413956e+00 -1.862132714564e+02 0.0 
0.0 0.0 -8.003332815854e+01 
-3.866161282564e+01 3.992108329053e+00 0.0 
3.992108329053e+00 -8.829124668066e+01 0.0 
0.0 0.0 -3.768585785189e+01 
-5.592508553338e+01 3.200593774244e+00 0.0 
3.200593774244e+00 -1.268508584161e+02 0.0 
0.0 0.0 -5.443278318485e+01 
-9.972574401769e+01 1.305522570133e+00 0.0 
1.305522570133e+00 -2.280918057763e+02 0.0 
0.0 0.0 -9.794526493818e+01 
-9.238245914529e+01 8.678592754677e-01 0.0 
8.678592754677e-01 -2.111859790907e+02 0.0 
0.0 0.0 -9.067053147078e+01 
-8.821354719617e+01 8.457773273759e-01 0.0 
8.457773273759e-01 -2.011430080549e+02 0.0 
0.0 0.0 -8.640696657531e+01 
-6.947239063744e+01 3.780122778154e+00 0.0 
3.780122778154e+00 -1.648285645263e+02 0.0 
0.0 0.0 -6.989028654912e+01 
-5.803604287439e+01 1.527921320745e+00 0.0 
1.527921320745e+00 -1.300664965437e+02 0.0 
0.0 0.0 -5.603076182541e+01 
-4.916968568603e+01 1.224634633954e+00 0.0 
1.224634633954e+00 -1.097403254319e+02 0.0 
0.0 0.0 -4.727300333538e+01 
-9.486738856232e+01 1.708281816237e+00 0.0 
1.708281816237e+00 -2.164375717516e+02 0.0 
0.0 0.0 -9.299148809419e+01 
-1.292951406498e+02 1.300324576348e+00 0.0 
1.300324576348e+00 -2.993658200205e+02 0.0 
0.0 0.0 -1.281982882011e+02 
-1.329288693596e+02 1.488372144192e+00 0.0 
1.488372144192e+00 -3.081067242766e+02 0.0 
0.0 0.0 -1.319106780909e+02 
-1.406302226595e+02 1.681665889745e+00 0.0 
1.681665889745e+00 -3.268120321185e+02 0.0 
0.0 0.0 -1.398326764334e+02 
-1.365513726221e+02 1.718353222693e+00 0.0 
1.718353222693e+00 -3.168193732634e+02 0.0 
0.0 0.0 -1.356112237657e+02 
-1.286924853660e+02 1.552803892842e+00 0.0 
1.552803892842e+00 -2.976709366010e+02 0.0 
0.0 0.0 -1.275090265901e+02 
-1.323626473000e+02 1.808439644425e+00 0.0 
1.808439644425e+00 -3.063998972376e+02 0.0 
0.0 0.0 -1.312287633613e+02 
-1.401479341615e+02 1.910583955840e+00 0.0 
1.910583955840e+00 -3.255442260055e+02 0.0 
0.0 0.0 -1.393076480501e+02 
-1.362830842982e+02 2.018699397979e+00 0.0 
2.018699397979e+00 -3.157257658576e+02 0.0 
0.0 0.0 -1.352026550467e+02 
-1.453359769098e+02 2.271544573152e+00 0.0 
2.271544573152e+00 -3.381565407182e+02 0.0 
0.0 0.0 -1.446477552884e+02 
-1.397684963732e+02 2.320086330720e+00 0.0 
2.320086330720e+00 -3.243868213072e+02 0.0 
0.0 0.0 -1.388465953041e+02 
-1.316494197153e+02 2.052987632607e+00 0.0 
2.052987632607e+00 -3.045704727455e+02 0.0 
0.0 0.0 -1.304659677383e+02 
-1.349660926203e+02 2.286280015328e+00 0.0 
2.286280015328e+00 -3.128816587735e+02 0.0 
0.0 0.0 -1.339543254181e+02 
-1.424537024332e+02 2.509788643278e+00 0.0 
2.509788643278e+00 -3.311435013337e+02 0.0 
0.0 0.0 -1.416791611300e+02 
-1.270882681399e+02 2.114977144399e+00 0.0 
2.114977144399e+00 -2.935636535656e+02 0.0 
0.0 0.0 -1.257955765116e+02 
-1.515995464424e+02 3.792285299355e+00 0.0 
3.792285299355e+00 -3.552229106340e+02 0.0 
0.0 0.0 -1.516467371229e+02 
-7.532886395734e+01 3.435391029044e+00 0.0 
3.435391029044e+00 -1.743299641995e+02 0.0 
0.0 0.0 -7.449764844704e+01 
-1.692403863777e+01 1.768809212706e+00 0.0 
1.768809212706e+00 -4.498084289660e+01 0.0 
0.0 0.0 -1.817146446031e+01 
-1.451645760692e+01 3.610652325162e+00 0.0 
3.610652325162e+00 -3.939648866576e+01 0.0 
0.0 0.0 -1.577388388180e+01 
-8.627145771533e+01 1.967844013434e+00 0.0 
1.967844013434e+00 -1.963282591054e+02 0.0 
0.0 0.0 -8.437991504623e+01 
-1.530583620030e+02 2.284895176937e+00 0.0 
2.284895176937e+00 -3.574510867371e+02 0.0 
0.0 0.0 -1.527528346220e+02 
-1.530700941596e+02 1.881177839723e+00 0.0 
1.881177839723e+00 -3.574774750435e+02 0.0 
0.0 0.0 -1.527642707609e+02 
-5.325921806277e+01 4.091451397611e+00 0.0 
4.091451397611e+00 -1.269984909013e+02 0.0 
0.0 0.0 -5.367731268922e+01 
-1.545122856049e+02 3.287817155552e+00 0.0 
3.287817155552e+00 -3.608212487944e+02 0.0 
0.0 0.0 -1.542000603198e+02 
-9.184371593811e+01 1.107598055254e+00 0.0 
1.107598055254e+00 -2.094735924172e+02 0.0 
0.0 0.0 -8.999519250659e+01 
-3.595420191595e+01 3.662364765009e+00 0.0 
3.662364765009e+00 -9.071373510761e+01 0.0 
0.0 0.0 -3.760038110707e+01 
-1.550867845343e+02 3.651254518666e+00 0.0 
3.651254518666e+00 -3.623741944156e+02 0.0 
0.0 0.0 -1.548382936849e+02 
-1.250089689231e+02 1.323092023364e+00 0.0 
1.323092023364e+00 -2.888421751137e+02 0.0 
0.0 0.0 -1.237553432110e+02 
-1.206388155326e+02 1.384057674998e+00 0.0 
1.384057674998e+00 -2.781767237345e+02 0.0 
0.0 0.0 -1.192446617801e+02 
-1.169593970279e+02 1.163199540176e+00 0.0 
1.163199540176e+00 -2.694595769332e+02 0.0 
0.0 0.0 -1.155256921883e+02 
-1.533918206650e+02 1.608890226895e+00 0.0 
1.608890226895e+00 -3.581634852721e+02 0.0 
0.0 0.0 -1.530665917811e+02 
-1.059071856714e+02 5.086281098168e-01 0.0 
5.086281098168e-01 -2.443350172186e+02 0.0 
0.0 0.0 -1.046726608670e+02 
-1.564070818331e+02 3.997408107908e+00 0.0 
3.997408107908e+00 -3.661364161690e+02 0.0 
0.0 0.0 -1.563630494006e+02 
-1.056640909903e+02 3.319013209713e+00 0.0 
3.319013209713e+00 -2.500814415716e+02 0.0 
0.0 0.0 -1.063236597686e+02 
-1.019804478928e+02 3.387895538964e+00 0.0 
3.387895538964e+00 -2.405651735792e+02 0.0 
0.0 0.0 -1.023636864416e+02 
-9.379646866882e+01 3.443658558965e+00 0.0 
3.443658558965e+00 -2.215270895061e+02 0.0 
0.0 0.0 -9.419706745248e+01 
-1.280037174619e+02 1.846592532733e+00 0.0 
1.846592532733e+00 -2.957162480059e+02 0.0 
0.0 0.0 -1.267159896403e+02 
-1.569912836844e+02 3.721405624195e+00 0.0 
3.721405624195e+00 -3.683834477367e+02 0.0 
0.0 0.0 -1.572124194264e+02 
-1.501080729823e+02 3.498634402528e+00 0.0 
3.498634402528e+00 -3.530981270389e+02 0.0 
0.0 0.0 -1.505618600064e+02 
-1.503618916685e+02 3.401517551536e+00 0.0 
3.401517551536e+00 -3.537935742489e+02 0.0 
0.0 0.0 -1.508466397752e+02 
-1.424469789296e+02 3.257599867922e+00 0.0 
3.257599867922e+00 -3.362394456199e+02 0.0 
0.0 0.0 -1.432059273649e+02 
-1.576653887690e+02 3.445663522837e+00 0.0 
3.445663522837e+00 -3.701069212247e+02 0.0 
0.0 0.0 -1.579316929981e+02 
-1.542386247989e+02 2.717559318029e+00 0.0 
2.717559318029e+00 -3.601040910409e+02 0.0 
0.0 0.0 -1.539028147520e+02 
-1.545951601264e+02 2.928549453459e+00 0.0 
2.928549453459e+00 -3.610701333078e+02 0.0 
0.0 0.0 -1.542995880303e+02 
-4.997502559223e+01 9.484688261714e-01 0.0 
9.484688261714e-01 -1.253304408864e+02 0.0 
0.0 0.0 -5.219163994358e+01 
-5.421329506383e+01 1.453421448956e+00 0.0 
1.453421448956e+00 -1.355793426088e+02 0.0 
0.0 0.0 -5.653779130178e+01 
-6.211740103143e+01 1.664636529174e+00 0.0 
1.664636529174e+00 -1.540995366967e+02 0.0 
0.0 0.0 -6.446508131843e+01 
-5.849617691557e+01 1.958076618414e+00 0.0 
1.958076618414e+00 -1.454773662479e+02 0.0 
0.0 0.0 -6.079206294905e+01 
-5.052499496585e+01 1.758873521388e+00 0.0 
1.758873521388e+00 -1.268559273412e+02 0.0 
0.0 0.0 -5.281427669212e+01 
-5.482551887284e+01 2.291658936317e+00 0.0 
2.291658936317e+00 -1.366270363144e+02 0.0 
0.0 0.0 -5.703576655617e+01 
-6.282227906199e+01 2.431733637197e+00 0.0 
2.431733637197e+00 -1.551030768846e+02 0.0 
0.0 0.0 -6.497760678398e+01 
-5.112947150508e+01 2.687230992379e+00 0.0 
2.687230992379e+00 -1.275734539043e+02 0.0 
0.0 0.0 -5.321087762283e+01 
-1.342589804713e+02 2.553621444091e+00 0.0 
2.553621444091e+00 -3.109820915208e+02 0.0 
0.0 0.0 -1.331723215976e+02 
-1.583997619615e+02 3.029061416759e+00 0.0 
3.029061416759e+00 -3.720508996577e+02 0.0 
0.0 0.0 -1.587351984857e+02 
-1.058392301443e+02 1.663308359073e+00 0.0 
1.663308359073e+00 -2.552065466007e+02 0.0 
0.0 0.0 -1.079137330235e+02 
-1.019411500092e+02 1.806815142756e+00 0.0 
1.806815142756e+00 -2.461974571511e+02 0.0 
0.0 0.0 -1.040415821481e+02 
-9.361133264868e+01 1.669448768130e+00 0.0 
1.669448768130e+00 -2.271666650814e+02 0.0 
0.0 0.0 -9.583339931903e+01 
-7.855846085958e+01 3.095293925701e-01 0.0 
3.095293925701e-01 -1.916765072000e+02 0.0 
0.0 0.0 -8.067049041787e+01 
-8.306761938553e+01 4.729991790375e-01 0.0 
4.729991790375e-01 -2.024378139493e+02 0.0 
0.0 0.0 -8.525163000045e+01 
-9.131999268926e+01 6.122528363079e-01 0.0 
6.122528363079e-01 -2.217027742673e+02 0.0 
0.0 0.0 -9.350683008698e+01 
-7.403239868718e+01 1.814443206511e-01 0.0 
1.814443206511e-01 -1.808327993379e+02 0.0 
0.0 0.0 -7.605955940752e+01 
-1.161974602351e+02 3.128249209827e+00 0.0 
3.128249209827e+00 -2.697022060818e+02 0.0 
0.0 0.0 -1.153698998951e+02 
-1.585435411335e+02 2.885730065539e+00 0.0 
2.885730065539e+00 -3.724125334998e+02 0.0 
0.0 0.0 -1.588868223900e+02 
-1.035862929440e+02 2.685148549542e+00 0.0 
2.685148549542e+00 -2.484348513493e+02 0.0 
0.0 0.0 -1.052063432880e+02 
-7.934267868747e+01 5.121410892617e-01 0.0 
5.121410892617e-01 -1.938401962106e+02 0.0 
0.0 0.0 -8.155486246941e+01 
-8.452162431481e+01 2.767056373250e-01 0.0 
2.767056373250e-01 -1.937313342778e+02 0.0 
0.0 0.0 -8.307588757778e+01 
-9.195005472735e+01 3.658824956478e-01 0.0 
3.658824956478e-01 -2.108257698781e+02 0.0 
0.0 0.0 -9.043274738162e+01 
-9.221488098831e+01 5.871074913354e-01 0.0 
5.871074913354e-01 -2.111816949573e+02 0.0 
0.0 0.0 -9.061897278368e+01 
-1.001348179491e+02 6.985073942406e-01 0.0 
6.985073942406e-01 -2.296068052794e+02 0.0 
0.0 0.0 -9.852248696855e+01 
-9.260539543417e+01 4.765480439253e-01 0.0 
4.765480439253e-01 -2.125294716997e+02 0.0 
0.0 0.0 -9.114046014018e+01 
-9.419721578519e+01 3.657903289688e-01 0.0 
3.657903289688e-01 -2.280370269916e+02 0.0 
0.0 0.0 -9.627027283303e+01 
-9.789012040212e+01 3.194179185499e-01 0.0 
3.194179185499e-01 -2.365472221194e+02 0.0 
0.0 0.0 -9.993120275646e+01 
-9.336864627738e+01 1.946000769001e-01 0.0 
1.946000769001e-01 -2.259546377704e+02 0.0 
0.0 0.0 -9.539698521433e+01 
-1.016076827739e+02 2.658623929628e-01 0.0 
2.658623929628e-01 -2.450268461964e+02 0.0 
0.0 0.0 -1.035903586911e+02 
-9.690870490485e+01 1.981749765138e-01 0.0 
1.981749765138e-01 -2.340084413059e+02 0.0 
0.0 0.0 -9.887514386323e+01 
-8.934121841095e+01 1.656479738781e-01 0.0 
1.656479738781e-01 -2.162845118289e+02 0.0 
0.0 0.0 -9.128771907195e+01 
-1.052062967962e+02 2.211558109952e-01 0.0 
2.211558109952e-01 -2.531352281874e+02 0.0 
0.0 0.0 -1.071024574951e+02 
-9.984816465893e+01 6.734847183937e-02 0.0 
6.734847183937e-02 -2.408244225368e+02 0.0 
0.0 0.0 -1.018017761587e+02 
-8.426274152296e+01 2.142777492816e-01 0.0 
2.142777492816e-01 -1.934311621489e+02 0.0 
0.0 0.0 -8.290817110156e+01 
-9.020938565745e+00 -2.063398080779e-01 0.0 
-2.063398080779e-01 -1.721955082265e+01 0.0 
0.0 0.0 -7.862006622717e+00 
-1.452478614776e+01 -3.070965707262e-01 0.0 
-3.070965707262e-01 -3.394302583756e+01 0.0 
0.0 0.0 -1.426828642110e+01 
-1.447053308723e+01 -2.949879959896e-01 0.0 
-2.949879959896e-01 -3.348993525069e+01 0.0 
0.0 0.0 -1.411668996456e+01 
-2.012971277410e+01 -2.142451709053e-01 0.0 
-2.142451709053e-01 -4.947747830747e+01 0.0 
0.0 0.0 -2.048215732447e+01 
-2.024770445360e+01 -1.084900944134e-01 0.0 
-1.084900944134e-01 -5.062530697109e+01 0.0 
0.0 0.0 -2.086190342741e+01 
-2.690427551511e+01 8.399049691970e-02 0.0 
8.399049691970e-02 -6.769352294029e+01 0.0 
0.0 0.0 -2.797933953662e+01 
-2.568615647397e+01 4.181463489462e-01 0.0 
4.181463489462e-01 -6.518057695743e+01 0.0 
0.0 0.0 -2.686002002942e+01 
-1.438311019561e+01 -1.122579189486e-01 0.0 
-1.122579189486e-01 -3.396219494716e+01 0.0 
0.0 0.0 -1.424401789322e+01 
-8.672615532231e+00 -2.390734519975e-01 0.0 
-2.390734519975e-01 -1.697611270906e+01 0.0 
0.0 0.0 -7.685324375643e+00 
-1.434733880359e+01 -3.596928641454e-01 0.0 
-3.596928641454e-01 -3.345976394507e+01 0.0 
0.0 0.0 -1.407889117230e+01 
-8.408689761403e+00 -2.427268099965e-01 0.0 
-2.427268099965e-01 -1.681141721442e+01 0.0 
0.0 0.0 -7.561233417891e+00 
-1.411786658862e+01 -3.669850748036e-01 0.0 
-3.669850748036e-01 -3.297942825035e+01 0.0 
0.0 0.0 -1.386403789542e+01 
-2.115618383357e+01 -3.680244707290e-01 0.0 
-3.680244707290e-01 -5.184072402429e+01 0.0 
0.0 0.0 -2.149907235736e+01 
-3.161346212593e+01 -3.194031282746e-01 0.0 
-3.194031282746e-01 -7.828372515274e+01 0.0 
0.0 0.0 -3.256915618360e+01 
-1.583187385602e+02 6.765928149662e-01 0.0 
6.765928149662e-01 -3.723292686776e+02 0.0 
0.0 0.0 -1.587944021713e+02 
-7.662100829134e+01 -5.237408093005e-03 0.0 
-5.237408093005e-03 -1.864955490931e+02 0.0 
0.0 0.0 -7.853496721533e+01 
-7.257358784306e+01 -6.443045041661e-02 0.0 
-6.443045041661e-02 -1.770824698623e+02 0.0 
0.0 0.0 -7.449681731160e+01 
-6.486517188978e+01 -9.213967850084e-02 0.0 
-9.213967850084e-02 -1.583216787772e+02 0.0 
0.0 0.0 -6.655605520008e+01 
-6.898175261550e+01 1.995834626682e-02 0.0 
1.995834626682e-02 -1.684384379234e+02 0.0 
0.0 0.0 -7.082605716166e+01 
-7.978132718911e+01 -4.313521381740e-02 0.0 
-4.313521381740e-02 -1.942359536411e+02 0.0 
0.0 0.0 -8.180518424907e+01 
-6.055439025300e+01 -7.540372390635e-02 0.0 
-7.540372390635e-02 -1.479633597691e+02 0.0 
0.0 0.0 -6.215532500662e+01 
-5.765827117940e+01 -1.376506841549e-01 0.0 
-1.376506841549e-01 -1.409783161106e+02 0.0 
0.0 0.0 -5.919097618701e+01 
-7.044640487002e+00 -3.311941252983e-02 0.0 
-3.311941252983e-02 -1.712430554008e+01 0.0 
0.0 0.0 -7.238571137879e+00 
-1.349261232835e+01 -4.737543176200e-02 0.0 
-4.737543176200e-02 -3.364706104896e+01 0.0 
0.0 0.0 -1.384586228628e+01 
-1.290572618859e+01 -1.699498372188e-01 0.0 
-1.699498372188e-01 -3.201462110812e+01 0.0 
0.0 0.0 -1.311057097673e+01 
-2.013487544098e+01 -1.308232965940e-01 0.0 
-1.308232965940e-01 -5.030826054808e+01 0.0 
0.0 0.0 -2.073294079672e+01 
-2.020397768092e+01 -1.090416195511e-01 0.0 
-1.090416195511e-01 -4.995053423876e+01 0.0 
0.0 0.0 -2.064635357590e+01 
-1.376471048839e+01 -1.295857077198e-01 0.0 
-1.295857077198e-01 -3.393468553657e+01 0.0 
0.0 0.0 -1.403700035653e+01 
-1.378564835329e+01 -1.953493111970e-01 0.0 
-1.953493111970e-01 -3.394263779432e+01 0.0 
0.0 0.0 -1.405213993424e+01 
-7.209677140833e+00 -1.005167342565e-01 0.0 
-1.005167342565e-01 -1.700693351437e+01 0.0 
0.0 0.0 -7.259561801211e+00 
-1.377187781408e+01 -1.600857125832e-01 0.0 
-1.600857125832e-01 -3.381661857049e+01 0.0 
0.0 0.0 -1.403791379044e+01 
-2.058789509596e+01 -2.521626208668e-01 0.0 
-2.521626208668e-01 -5.075797828708e+01 0.0 
0.0 0.0 -2.100376201491e+01 
-7.166911383003e+00 -1.202456283747e-01 0.0 
-1.202456283747e-01 -1.643888965116e+01 0.0 
0.0 0.0 -7.093477330210e+00 
-1.223550692306e+02 1.635013431995e-01 0.0 
1.635013431995e-01 -2.846375929120e+02 0.0 
0.0 0.0 -1.216977986428e+02 
-1.267874374550e+02 1.972149311583e-01 0.0 
1.972149311583e-01 -2.953007074783e+02 0.0 
0.0 0.0 -1.262264434800e+02 
-1.583810865965e+02 2.413016751665e+00 0.0 
2.413016751665e+00 -3.723096925391e+02 0.0 
0.0 0.0 -1.588072337407e+02 
-8.498996264057e+01 2.107466534814e-01 0.0 
2.107466534814e-01 -1.955333674077e+02 0.0 
0.0 0.0 -8.375699901447e+01 
-8.112069906789e+00 -2.061819469518e-01 0.0 
-2.061819469518e-01 -1.706497790494e+01 0.0 
0.0 0.0 -7.537277987359e+00 
-1.511141761080e+02 3.929466781123e-01 0.0 
3.929466781123e-01 -3.533937391404e+02 0.0 
0.0 0.0 -1.509523745745e+02 
-1.526182116320e+02 7.552992039733e-01 0.0 
7.552992039733e-01 -3.567016275688e+02 0.0 
0.0 0.0 -1.523959517603e+02 
-1.527761078975e+02 5.637620429116e-01 0.0 
5.637620429116e-01 -3.570186563716e+02 0.0 
0.0 0.0 -1.525384292807e+02 
-1.446578493239e+02 1.288420810888e-01 0.0 
1.288420810888e-01 -3.421850952714e+02 0.0 
0.0 0.0 -1.456528833786e+02 
-1.490936986745e+02 3.182809737592e-01 0.0 
3.182809737592e-01 -3.518302003504e+02 0.0 
0.0 0.0 -1.498771697075e+02 
-1.512697311402e+02 1.955244178878e-01 0.0 
1.955244178878e-01 -3.539116034673e+02 0.0 
0.0 0.0 -1.511544003823e+02 
-5.064602987048e+01 -1.155322534310e-01 0.0 
-1.155322534310e-01 -1.249731036980e+02 0.0 
0.0 0.0 -5.228574007055e+01 
-1.443045845971e+02 1.856767606583e+00 0.0 
1.856767606583e+00 -3.354515505494e+02 0.0 
0.0 0.0 -1.435268405439e+02 
-1.370246306466e+02 3.819922636828e-01 0.0 
3.819922636828e-01 -3.194859762521e+02 0.0 
0.0 0.0 -1.365531820696e+02 
-3.267287899381e+01 4.247519686032e+00 0.0 
4.247519686032e+00 -8.125705722906e+01 0.0 
0.0 0.0 -3.377898086686e+01 
-4.856278415718e+01 8.372617828594e-02 0.0 
8.372617828594e-02 -1.206438221209e+02 0.0 
0.0 0.0 -5.036198188342e+01 
-1.183859295416e+02 3.408873278835e-01 0.0 
3.408873278835e-01 -2.834091461550e+02 0.0 
0.0 0.0 -1.201385227090e+02 
-1.079684472631e+02 8.659080877465e-01 0.0 
8.659080877465e-01 -2.600591390901e+02 0.0 
0.0 0.0 -1.100082759059e+02 
-1.364696486189e+02 7.596010579084e-01 0.0 
7.596010579084e-01 -3.241447945020e+02 0.0 
0.0 0.0 -1.377843329363e+02 
-1.107966189486e+02 5.235171601374e-01 0.0 
5.235171601374e-01 -2.662997676326e+02 0.0 
0.0 0.0 -1.127289159744e+02 
-1.288504866448e+02 1.000326763161e+00 0.0 
1.000326763161e+00 -3.071747251486e+02 0.0 
0.0 0.0 -1.304075635380e+02 
-1.499792331825e+02 3.059607922484e+00 0.0 
3.059607922484e+00 -3.533539773896e+02 0.0 
0.0 0.0 -1.505999631716e+02 
-3.215864849387e+01 -1.325261050823e-01 0.0 
-1.325261050823e-01 -7.881471583453e+01 0.0 
0.0 0.0 -3.289200929852e+01 
-1.072014677660e+02 2.845934005138e-01 0.0 
2.845934005138e-01 -2.480548059664e+02 0.0 
0.0 0.0 -1.061768821197e+02 
-1.040706321080e+02 1.399309021318e-01 0.0 
1.399309021318e-01 -2.410211811104e+02 0.0 
0.0 0.0 -1.031275439655e+02 
-1.244236723214e+02 3.818802541291e-01 0.0 
3.818802541291e-01 -2.892026369329e+02 0.0 
0.0 0.0 -1.236878927763e+02 
-5.328324639353e+01 -1.054572204378e-01 0.0 
-1.054572204378e-01 -1.309524089413e+02 0.0 
0.0 0.0 -5.487069660044e+01 
-8.544478200785e+01 1.927782115431e-01 0.0 
1.927782115431e-01 -2.073581657852e+02 0.0 
0.0 0.0 -8.744088433793e+01 
-3.382623144905e+01 -2.794097526861e-01 0.0 
-2.794097526861e-01 -8.358751866590e+01 0.0 
0.0 0.0 -3.482412503448e+01 
-1.486016324027e+02 3.346047916729e+00 0.0 
3.346047916729e+00 -3.464580613452e+02 0.0 
0.0 0.0 -1.481179081244e+02 
-8.700882023554e+01 1.523577158113e+00 0.0 
1.523577158113e+00 -1.978282569039e+02 0.0 
0.0 0.0 -8.505112314185e+01 
-8.911776193153e+01 1.377040552782e+00 0.0 
1.377040552782e+00 -2.169406649429e+02 0.0 
0.0 0.0 -9.141752806233e+01 
-7.038789209672e+01 1.802391148349e-01 0.0 
1.802391148349e-01 -1.722700897747e+02 0.0 
0.0 0.0 -7.239739456143e+01 
-5.513600889822e+01 1.974955408709e-02 0.0 
1.974955408709e-02 -1.360841980213e+02 0.0 
0.0 0.0 -5.696606207586e+01 
-4.512844385674e+01 1.273037088831e-01 0.0 
1.273037088831e-01 -1.125430145724e+02 0.0 
0.0 0.0 -4.690143752875e+01 
-8.004046432307e+01 3.194070312318e+00 0.0 
3.194070312318e+00 -1.844150236055e+02 0.0 
0.0 0.0 -7.893664637856e+01 
-8.383054818125e+01 7.315025223868e-01 0.0 
7.315025223868e-01 -2.045049276052e+02 0.0 
0.0 0.0 -8.610064273594e+01 
-1.220182063759e+02 1.542609805595e+00 0.0 
1.542609805595e+00 -2.919650630477e+02 0.0 
0.0 0.0 -1.237949808271e+02 
-1.288818662446e+02 3.512447617992e-01 0.0 
3.512447617992e-01 -2.999826537029e+02 0.0 
0.0 0.0 -1.282593559842e+02 
-8.525360616076e+00 -2.529679941036e-01 0.0 
-2.529679941036e-01 -1.900247008915e+01 0.0 
0.0 0.0 -8.143648042692e+00 
-1.267465496993e+02 1.788477290746e+00 0.0 
1.788477290746e+00 -3.024892269645e+02 0.0 
0.0 0.0 -1.283707329992e+02 
-1.004176030273e+02 1.036399055665e+00 0.0 
1.036399055665e+00 -2.428978529670e+02 0.0 
0.0 0.0 -1.025946367983e+02 
-1.104096309390e+02 5.030628389892e-01 0.0 
5.030628389892e-01 -2.551804993994e+02 0.0 
0.0 0.0 -1.092770391015e+02 
-1.259037269881e+02 3.273020461474e+00 0.0 
3.273020461474e+00 -2.975182559275e+02 0.0 
0.0 0.0 -1.266265948747e+02 
-3.100060237118e+01 3.965754930937e-02 0.0 
3.965754930937e-02 -7.757622317738e+01 0.0 
0.0 0.0 -3.217304766457e+01 
-1.274581694846e+02 6.074730798915e-01 0.0 
6.074730798915e-01 -2.961000043188e+02 0.0 
0.0 0.0 -1.266674521410e+02 
-1.417113567286e+02 1.146924822854e+00 0.0 
1.146924822854e+00 -3.300473619913e+02 0.0 
0.0 0.0 -1.411276156160e+02 
-1.015419019480e+02 6.068007262691e-01 0.0 
6.068007262691e-01 -2.336448985499e+02 0.0 
0.0 0.0 -1.001560401494e+02 
-2.602692934984e+01 -2.883377082526e-01 0.0 
-2.883377082526e-01 -6.419658997690e+01 0.0 
0.0 0.0 -2.666705579802e+01 
-9.868435136383e+01 1.981035062269e-01 0.0 
1.981035062269e-01 -2.281553835333e+02 0.0 
0.0 0.0 -9.765192046914e+01 
-1.449220218585e+02 2.447171821611e+00 0.0 
2.447171821611e+00 -3.426379680833e+02 0.0 
0.0 0.0 -1.458679969826e+02 
-1.255716187648e+02 1.131963585023e+00 0.0 
1.131963585023e+00 -2.905640940459e+02 0.0 
0.0 0.0 -1.244407138432e+02 
-4.885059814327e+01 -1.102308390497e-01 0.0 
-1.102308390497e-01 -1.199563748587e+02 0.0 
0.0 0.0 -5.024209190060e+01 
-9.169256484511e+01 2.867765695814e+00 0.0 
2.867765695814e+00 -2.206071602878e+02 0.0 
0.0 0.0 -9.328991753987e+01 
-8.546282629539e+01 2.479403973415e+00 0.0 
2.479403973415e+00 -1.950908704133e+02 0.0 
0.0 0.0 -8.376610901259e+01 
-7.708234935809e+01 5.009826690216e-01 0.0 
5.009826690216e-01 -1.750364502775e+02 0.0 
0.0 0.0 -7.523563989069e+01 
-1.404425782412e+02 4.536864992165e-01 0.0 
4.536864992165e-01 -3.277671714339e+02 0.0 
0.0 0.0 -1.400629249025e+02 
-9.480802537485e+01 3.419173179378e+00 0.0 
3.419173179378e+00 -2.216439885961e+02 0.0 
0.0 0.0 -9.453560419129e+01 
-1.334599616274e+02 3.074615857779e+00 0.0 
3.074615857779e+00 -3.158070369973e+02 0.0 
0.0 0.0 -1.343800995874e+02 
-1.082661638915e+02 2.903351065188e+00 0.0 
2.903351065188e+00 -2.584654399822e+02 0.0 
0.0 0.0 -1.096194811621e+02 
-5.245207225174e+01 -9.158752003018e-02 0.0 
-9.158752003018e-02 -1.286414041418e+02 0.0 
0.0 0.0 -5.392804291807e+01 
-1.344813775834e+02 1.582621292245e+00 0.0 
1.582621292245e+00 -3.198982802103e+02 0.0 
0.0 0.0 -1.359138973381e+02 
-8.920945049259e+01 3.410930022032e+00 0.0 
3.410930022032e+00 -2.120132518205e+02 0.0 
0.0 0.0 -8.996681069392e+01 
-1.356150522170e+02 7.080016467264e-01 0.0 
7.080016467264e-01 -3.156292507473e+02 0.0 
0.0 0.0 -1.349732908893e+02 
-1.214268071801e+02 2.786025441452e+00 0.0 
2.786025441452e+00 -2.806866263847e+02 0.0 
0.0 0.0 -1.202340300694e+02 
-7.176198101442e+01 3.157635507023e+00 0.0 
3.157635507023e+00 -1.740543737993e+02 0.0 
0.0 0.0 -7.334490644413e+01 
-1.305026119220e+02 9.268785910167e-01 0.0 
9.268785910167e-01 -3.028912428932e+02 0.0 
0.0 0.0 -1.296181564446e+02 
-8.983046447557e+01 1.848616057572e+00 0.0 
1.848616057572e+00 -2.183229009022e+02 0.0 
0.0 0.0 -9.204600961333e+01 
-1.305735781455e+02 3.368508504322e+00 0.0 
3.368508504322e+00 -3.075940859659e+02 0.0 
0.0 0.0 -1.310502992334e+02 
-8.272713417053e+01 1.639201259400e+00 0.0 
1.639201259400e+00 -1.877797687130e+02 0.0 
0.0 0.0 -8.075207086505e+01 
-1.055892025813e+02 2.537665932121e+00 0.0 
2.537665932121e+00 -2.427094446002e+02 0.0 
0.0 0.0 -1.040895941544e+02 
-1.148375107964e+02 1.990790967147e+00 0.0 
1.990790967147e+00 -2.640819322174e+02 0.0 
0.0 0.0 -1.132758329041e+02 
-1.003404724299e+02 3.038298178470e+00 0.0 
3.038298178470e+00 -2.319134042398e+02 0.0 
0.0 0.0 -9.927616300091e+01 
-1.137238725415e+02 1.453537426604e-01 0.0 
1.453537426604e-01 -2.727783851225e+02 0.0 
0.0 0.0 -1.155506772992e+02 
-1.306033599436e+02 1.671378701355e+00 0.0 
1.671378701355e+00 -3.112267557325e+02 0.0 
0.0 0.0 -1.321490347028e+02 
-3.123584230819e+01 1.483827371276e+00 0.0 
1.483827371276e+00 -8.094036757955e+01 0.0 
0.0 0.0 -3.325286296632e+01 
-6.404745716395e+01 3.211486879359e+00 0.0 
3.211486879359e+00 -1.462139456172e+02 0.0 
0.0 0.0 -6.267842083434e+01 
-1.099135002254e+02 6.679989444551e-01 0.0 
6.679989444551e-01 -2.534090565503e+02 0.0 
0.0 0.0 -1.085967670327e+02 
-1.362341374652e+02 3.297431502817e+00 0.0 
3.297431502817e+00 -3.173069692512e+02 0.0 
0.0 0.0 -1.356623320149e+02 
-1.436956537548e+02 7.478776600068e-01 0.0 
7.478776600068e-01 -3.349440175505e+02 0.0 
0.0 0.0 -1.431919013916e+02 
-7.755101255777e+01 2.353242473670e+00 0.0 
2.353242473670e+00 -1.762661826402e+02 0.0 
0.0 0.0 -7.574515855940e+01 
-1.297200033199e+02 1.341981136664e+00 0.0 
1.341981136664e+00 -3.092322429491e+02 0.0 
0.0 0.0 -1.312856738807e+02 
-1.383272323695e+02 1.009018522081e+00 0.0 
1.009018522081e+00 -3.218718265180e+02 0.0 
0.0 0.0 -1.376597176662e+02 
-8.756801544948e+01 6.649662148197e-01 0.0 
6.649662148197e-01 -2.130948767696e+02 0.0 
0.0 0.0 -8.979886766574e+01 
-3.668539090986e+01 -6.168880979159e-02 0.0 
-6.168880979159e-02 -9.034065069297e+01 0.0 
0.0 0.0 -3.770781248085e+01 
-2.509103904239e+01 4.326375394691e+00 0.0 
4.326375394691e+00 -6.356792389320e+01 0.0 
0.0 0.0 -2.619768888068e+01 
-5.556057588514e+01 3.184809304348e+00 0.0 
3.184809304348e+00 -1.369088000011e+02 0.0 
0.0 0.0 -5.734081276587e+01 
-9.026283651923e+01 3.495218893062e+00 0.0 
3.495218893062e+00 -2.121134491236e+02 0.0 
0.0 0.0 -9.031288569286e+01 
-9.585076440468e+01 8.140870572995e-01 0.0 
8.140870572995e-01 -2.323074575518e+02 0.0 
0.0 0.0 -9.804746658694e+01 
-1.458299449110e+02 1.619991819443e+00 0.0 
1.619991819443e+00 -3.397237761031e+02 0.0 
0.0 0.0 -1.452661163042e+02 
-1.336014719605e+02 1.221323635887e+00 0.0 
1.221323635887e+00 -3.178031303327e+02 0.0 
0.0 0.0 -1.350213806880e+02 
-1.236588156467e+02 2.333101035039e+00 0.0 
2.333101035039e+00 -2.950870261576e+02 0.0 
0.0 0.0 -1.252237525413e+02 
-1.043402476853e+01 3.959648040126e+00 0.0 
3.959648040126e+00 -2.285823476126e+01 0.0 
0.0 0.0 -9.587677858937e+00 
-8.050553902535e+01 6.323566603203e-01 0.0 
6.323566603203e-01 -1.828990278590e+02 0.0 
0.0 0.0 -7.862137006529e+01 
-1.375100311595e+02 1.101349688955e+00 0.0 
1.101349688955e+00 -3.264303377870e+02 0.0 
0.0 0.0 -1.387821106839e+02 
-9.530527774624e+01 2.645588433627e+00 0.0 
2.645588433627e+00 -2.295505360059e+02 0.0 
0.0 0.0 -9.705674412564e+01 
-1.341159868354e+02 3.326133775658e+00 0.0 
3.326133775658e+00 -3.163255258930e+02 0.0 
0.0 0.0 -1.347324538185e+02 
-9.204058151355e+01 8.544741452293e-02 0.0 
8.544741452293e-02 -2.224995364527e+02 0.0 
0.0 0.0 -9.396203538989e+01 
-1.486288043596e+02 3.532101355463e+00 0.0 
3.532101355463e+00 -3.467187199920e+02 0.0 
0.0 0.0 -1.482042573055e+02 
-6.355887295747e+01 8.419653677243e-01 0.0 
8.419653677243e-01 -1.430770174788e+02 0.0 
0.0 0.0 -6.159076713087e+01 
-1.414827833466e+02 9.710515026970e-01 0.0 
9.710515026970e-01 -3.353368128469e+02 0.0 
0.0 0.0 -1.426458788580e+02 
-1.243022625475e+02 2.650973387174e+00 0.0 
2.650973387174e+00 -2.959409219556e+02 0.0 
0.0 0.0 -1.256729553509e+02 
-5.785703711610e+01 3.987965922578e+00 0.0 
3.987965922578e+00 -1.359340827516e+02 0.0 
0.0 0.0 -5.773733596029e+01 
-8.352037579885e+01 -2.607380883931e-03 0.0 
-2.607380883931e-03 -1.930073698849e+02 0.0 
0.0 0.0 -8.255832370513e+01 
-1.514658866144e+02 1.009231968432e+00 0.0 
1.009231968432e+00 -3.573031536480e+02 0.0 
0.0 0.0 -1.522307120787e+02 
-1.329544726834e+02 2.785537746134e+00 0.0 
2.785537746134e+00 -3.154312021063e+02 0.0 
0.0 0.0 -1.341157024369e+02 
-1.082527325504e+02 3.078631630373e+00 0.0 
3.078631630373e+00 -2.507640936127e+02 0.0 
0.0 0.0 -1.073050478489e+02 
-9.069587128596e+01 2.370066014023e+00 0.0 
2.370066014023e+00 -2.195805549553e+02 0.0 
0.0 0.0 -9.268292787239e+01 
-6.861695815326e+01 5.235154311266e-01 0.0 
5.235154311266e-01 -1.552367304752e+02 0.0 
0.0 0.0 -6.675610658854e+01 
-9.960759500657e+01 7.446877509855e-01 0.0 
7.446877509855e-01 -2.408755108444e+02 0.0 
0.0 0.0 -1.017449317553e+02 
-1.098990705999e+02 2.426721189215e+00 0.0 
2.426721189215e+00 -2.527083394613e+02 0.0 
0.0 0.0 -1.083822230184e+02 
-1.533880680462e+02 1.389363528056e+00 0.0 
1.389363528056e+00 -3.582585890865e+02 0.0 
0.0 0.0 -1.530939971398e+02 
-1.371638218288e+02 3.023943091050e+00 0.0 
3.023943091050e+00 -3.246382089760e+02 0.0 
0.0 0.0 -1.381406092415e+02 
-1.125673820566e+02 1.221346947393e+00 0.0 
1.221346947393e+00 -2.588130699380e+02 0.0 
0.0 0.0 -1.110141355984e+02 
-9.503396018271e+01 5.603680001466e-01 0.0 
5.603680001466e-01 -2.301961663041e+02 0.0 
0.0 0.0 -9.716903794603e+01 
-1.146857263634e+02 3.374988732703e+00 0.0 
3.374988732703e+00 -2.692312586936e+02 0.0 
0.0 0.0 -1.147750955171e+02 
-2.038439574454e+01 -1.600344701302e-01 0.0 
-1.600344701302e-01 -5.009325087290e+01 0.0 
0.0 0.0 -2.074329398523e+01 
-7.213030289942e+01 7.195038066917e-01 0.0 
7.195038066917e-01 -1.631577137097e+02 0.0 
0.0 0.0 -7.018640498275e+01 
-9.873718197081e+01 5.087989016579e-01 0.0 
5.087989016579e-01 -2.386781011632e+02 0.0 
0.0 0.0 -1.008245849402e+02 
-5.917197615414e+01 2.787375761892e+00 0.0 
2.787375761892e+00 -1.460786646806e+02 0.0 
0.0 0.0 -6.117519225044e+01 
-9.434297348937e+01 2.157362868480e+00 0.0 
2.157362868480e+00 -2.283484885886e+02 0.0 
0.0 0.0 -9.640743862340e+01 
-1.476879023087e+02 3.676140831081e+00 0.0 
3.676140831081e+00 -3.459630419125e+02 0.0 
0.0 0.0 -1.476952832664e+02 
-1.024548113206e+02 4.472383187272e-01 0.0 
4.472383187272e-01 -2.471825034945e+02 0.0 
0.0 0.0 -1.044911944445e+02 
-6.723556721441e+01 2.836987147107e+00 0.0 
2.836987147107e+00 -1.645845821468e+02 0.0 
0.0 0.0 -6.914604480838e+01 
-1.061758570133e+02 3.742756882716e-01 0.0 
3.742756882716e-01 -2.556586557097e+02 0.0 
0.0 0.0 -1.081503538169e+02 
-6.020567237013e+01 5.804859955461e-01 0.0 
5.804859955461e-01 -1.355499229294e+02 0.0 
0.0 0.0 -5.832667858987e+01 
-1.162661942077e+02 1.448488350173e+00 0.0 
1.448488350173e+00 -2.675698681198e+02 0.0 
0.0 0.0 -1.147508186983e+02 
-1.099253203527e+02 3.022356771711e-01 0.0 
3.022356771711e-01 -2.640881163751e+02 0.0 
0.0 0.0 -1.118040310183e+02 
-1.178016885678e+02 2.568677570061e+00 0.0 
2.568677570061e+00 -2.716689837589e+02 0.0 
0.0 0.0 -1.164412016980e+02 
-2.125224413899e+01 -1.643795513335e-01 0.0 
-1.643795513335e-01 -5.239809004710e+01 0.0 
0.0 0.0 -2.169510025583e+01 
-1.117350587242e+02 3.221598028156e+00 0.0 
3.221598028156e+00 -2.598216222085e+02 0.0 
0.0 0.0 -1.110670042798e+02 
-1.399660792123e+02 2.755238869570e-01 0.0 
2.755238869570e-01 -3.317142521254e+02 0.0 
0.0 0.0 -1.411040994013e+02 
-6.406011230748e+01 4.514803656971e-01 0.0 
4.514803656971e-01 -1.580759952042e+02 0.0 
0.0 0.0 -6.624083225350e+01 
-9.806881322622e+01 1.962082702329e+00 0.0 
1.962082702329e+00 -2.371688314026e+02 0.0 
0.0 0.0 -1.001712933887e+02 
-1.243312822692e+02 1.622468624338e+00 0.0 
1.622468624338e+00 -2.869819643485e+02 0.0 
0.0 0.0 -1.229939739853e+02 
-5.159663654723e+01 7.798740333127e-01 0.0 
7.798740333127e-01 -1.156058252864e+02 0.0 
0.0 0.0 -4.976073855007e+01 
-1.064437815837e+02 2.075785912469e+00 0.0 
2.075785912469e+00 -2.562235826212e+02 0.0 
0.0 0.0 -1.084002092615e+02 
-1.257231884189e+02 2.708055914393e+00 0.0 
2.708055914393e+00 -2.907505528015e+02 0.0 
0.0 0.0 -1.245421223661e+02 
-1.153164192851e+02 3.292896187957e+00 0.0 
3.292896187957e+00 -2.690837212616e+02 0.0 
0.0 0.0 -1.149200421640e+02 
-9.832709856452e+01 3.423210450656e+00 0.0 
3.423210450656e+00 -2.310045310061e+02 0.0 
0.0 0.0 -9.839948887119e+01 
-1.149878253169e+02 2.193678976807e+00 0.0 
2.193678976807e+00 -2.755627829642e+02 0.0 
0.0 0.0 -1.167651824843e+02 
-5.481675595752e+01 1.039233552534e+00 0.0 
1.039233552534e+00 -1.228088705196e+02 0.0 
0.0 0.0 -5.288768794315e+01 
-4.722612697095e+01 -1.427406540136e-01 0.0 
-1.427406540136e-01 -1.168582860221e+02 0.0 
0.0 0.0 -4.882532389792e+01 
-3.943139707206e+01 -2.405146880010e-01 0.0 
-2.405146880010e-01 -9.770246465494e+01 0.0 
0.0 0.0 -4.074015851810e+01 
-7.082915630420e+01 2.513006833828e+00 0.0 
2.513006833828e+00 -1.735246750956e+02 0.0 
0.0 0.0 -7.290614941993e+01 
-1.300335875038e+02 2.625148527026e+00 0.0 
2.625148527026e+00 -3.009376403997e+02 0.0 
0.0 0.0 -1.288913683710e+02 
-2.689979615200e+01 -2.469591900009e-02 0.0 
-2.469591900009e-02 -6.649266440374e+01 0.0 
0.0 0.0 -2.761773816672e+01 
-1.235607767821e+02 1.901997345512e+00 0.0 
1.901997345512e+00 -2.849607141724e+02 0.0 
0.0 0.0 -1.221564472864e+02 
-2.850998245729e+01 -3.036514015520e-01 0.0 
-3.036514015520e-01 -7.045873597734e+01 0.0 
0.0 0.0 -2.929061553039e+01 
-6.643274617298e+01 2.110261374003e+00 0.0 
2.110261374003e+00 -1.638717930444e+02 0.0 
0.0 0.0 -6.869136176522e+01 
-1.275828539527e+02 3.396350375303e+00 0.0 
3.396350375303e+00 -2.985368875325e+02 0.0 
0.0 0.0 -1.274359224455e+02 
-1.063355272471e+02 2.226816781813e-01 0.0 
2.226816781813e-01 -2.467109418840e+02 0.0 
0.0 0.0 -1.055139407393e+02 
-7.002602087402e+01 1.824657360288e+00 0.0 
1.824657360288e+00 -1.724692671324e+02 0.0 
0.0 0.0 -7.234858640192e+01 
-4.470829269063e+01 -7.716782161310e-02 0.0 
-7.716782161310e-02 -1.097370845051e+02 0.0 
0.0 0.0 -4.593361315873e+01 
-6.569597351941e+01 1.417491005795e+00 0.0 
1.417491005795e+00 -1.625238688999e+02 0.0 
0.0 0.0 -6.806595272579e+01 
-1.064454618973e+02 3.376078110005e+00 0.0 
3.376078110005e+00 -2.499932534744e+02 0.0 
0.0 0.0 -1.065316146115e+02 
-6.929035329524e+01 1.215815245274e+00 0.0 
1.215815245274e+00 -1.709206668722e+02 0.0 
0.0 0.0 -7.166330605023e+01 
-6.498587544902e+01 8.606256033438e-01 0.0 
8.606256033438e-01 -1.606829993596e+02 0.0 
0.0 0.0 -6.730066244258e+01 
-1.450370459376e+02 4.623894054231e-01 0.0 
4.623894054231e-01 -3.387880130180e+02 0.0 
0.0 0.0 -1.447475176867e+02 
-6.850303941574e+01 7.290742342509e-01 0.0 
7.290742342509e-01 -1.688197862762e+02 0.0 
0.0 0.0 -7.079684770759e+01 
-1.528663320637e+02 1.802424786483e-01 0.0 
1.802424786483e-01 -3.572562401294e+02 0.0 
0.0 0.0 -1.526367716579e+02 
-1.589986143252e+02 3.681114345481e-01 0.0 
3.681114345481e-01 -3.736474741959e+02 0.0 
0.0 0.0 -1.593938265563e+02 
-8.982908236863e+01 1.529031167516e-01 0.0 
1.529031167516e-01 -2.079208074516e+02 0.0 
0.0 0.0 -8.892496694606e+01 
-4.241293937278e+01 7.107962014319e-01 0.0 
7.107962014319e-01 -9.489239107366e+01 0.0 
0.0 0.0 -4.079159913393e+01 
-9.076338387908e+00 1.081550978191e-01 0.0 
1.081550978191e-01 -1.726664397976e+01 0.0 
0.0 0.0 -7.767447239733e+00 
-4.637973136086e+01 1.649455282983e+00 0.0 
1.649455282983e+00 -1.028093037335e+02 0.0 
0.0 0.0 -4.435671052831e+01 
-5.626105000389e+01 2.610754582551e-01 0.0 
2.610754582551e-01 -1.393665131412e+02 0.0 
0.0 0.0 -5.828826894353e+01 
-1.226775827442e+02 2.153363221254e+00 0.0 
2.153363221254e+00 -2.829744301893e+02 0.0 
0.0 0.0 -1.212956038801e+02 
-9.021504119851e+01 -6.999619134068e-03 0.0 
-6.999619134068e-03 -2.086857388323e+02 0.0 
0.0 0.0 -8.927023400924e+01 
-5.182573520418e+01 1.759329904111e-02 0.0 
1.759329904111e-02 -1.283147241897e+02 0.0 
0.0 0.0 -5.364213781816e+01 
-1.475065255608e+02 2.469997187704e+00 0.0 
2.469997187704e+00 -3.433468378981e+02 0.0 
0.0 0.0 -1.468560090377e+02 
-1.558393335778e+02 3.924614517855e+00 0.0 
3.924614517855e+00 -3.645186247184e+02 0.0 
0.0 0.0 -1.557073874889e+02 
-1.183458228452e+02 1.362233369065e-01 0.0 
1.362233369065e-01 -2.751046347197e+02 0.0 
0.0 0.0 -1.176351372695e+02 
-1.374768092377e+02 3.222947137240e+00 0.0 
3.222947137240e+00 -3.245729311592e+02 0.0 
0.0 0.0 -1.382149221191e+02 
-1.191955079982e+02 3.347485721999e+00 0.0 
3.347485721999e+00 -2.789507497277e+02 0.0 
0.0 0.0 -1.190438773178e+02 
-1.377041003163e+02 1.420084433385e-01 0.0 
1.420084433385e-01 -3.214371813242e+02 0.0 
0.0 0.0 -1.373423844922e+02 
-8.311261621617e+01 2.647482375745e-01 0.0 
2.647482375745e-01 -1.916185442903e+02 0.0 
0.0 0.0 -8.201934815193e+01 
-1.401893345523e+01 -3.480077008344e-01 0.0 
-3.480077008344e-01 -3.289828300411e+01 0.0 
0.0 0.0 -1.379819211329e+01 
-1.181302795494e+02 7.155079231926e-02 0.0 
7.155079231926e-02 -2.827740750149e+02 0.0 
0.0 0.0 -1.198713063693e+02 
-3.368109793995e+01 1.048058210712e+00 0.0 
1.048058210712e+00 -7.472789864364e+01 0.0 
0.0 0.0 -3.212269897507e+01 
-3.563738339007e+01 2.108133479504e+00 0.0 
2.108133479504e+00 -7.842201130714e+01 0.0 
0.0 0.0 -3.381781840916e+01 
-2.702666928919e+01 3.087611168216e+00 0.0 
3.087611168216e+00 -5.919820262891e+01 0.0 
0.0 0.0 -2.546746157543e+01 
-5.517195814270e+01 -8.648391228396e-02 0.0 
-8.648391228396e-02 -1.354817883816e+02 0.0 
0.0 0.0 -5.679612395728e+01 
-2.013072118539e+01 -3.300380892750e-01 0.0 
-3.300380892750e-01 -4.908735255611e+01 0.0 
0.0 0.0 -2.036542212245e+01 
-2.702954892525e+01 1.608790627867e+00 0.0 
1.608790627867e+00 -5.905576660121e+01 0.0 
0.0 0.0 -2.542559465794e+01 
-1.493477939690e+02 3.652874894751e+00 0.0 
3.652874894751e+00 -3.511537111260e+02 0.0 
0.0 0.0 -1.497504515285e+02 
-9.098026308727e+01 3.889242995799e-01 0.0 
3.889242995799e-01 -2.092247395671e+02 0.0 
0.0 0.0 -8.966150079631e+01 
-1.316970451192e+02 3.463612512904e+00 0.0 
3.463612512904e+00 -3.076131905244e+02 0.0 
0.0 0.0 -1.313930706931e+02 
-1.857451044967e+01 2.444478265708e+00 0.0 
2.444478265708e+00 -3.974262766359e+01 0.0 
0.0 0.0 -1.709514143398e+01 
-1.459841348212e+02 1.182074608208e+00 0.0 
1.182074608208e+00 -3.405136418193e+02 0.0 
0.0 0.0 -1.455493329921e+02 
-1.488049529497e+02 3.713396867736e+00 0.0 
3.713396867736e+00 -3.482309588840e+02 0.0 
0.0 0.0 -1.487107735501e+02 
-1.593764868270e+02 1.963645210112e+00 0.0 
1.963645210112e+00 -3.745793138739e+02 0.0 
0.0 0.0 -1.597867402103e+02 
-1.399429435420e+02 3.559007109998e+00 0.0 
3.559007109998e+00 -3.270890480651e+02 0.0 
0.0 0.0 -1.397095974821e+02 
-1.832345055420e+01 4.565749358697e+00 0.0 
4.565749358697e+00 -4.199970575616e+01 0.0 
0.0 0.0 -1.769694689311e+01 
-9.843719693295e+01 6.879128622523e-01 0.0 
6.879128622523e-01 -2.257801995440e+02 0.0 
0.0 0.0 -9.686521894308e+01 
-1.482086864503e+02 3.244421472225e+00 0.0 
3.244421472225e+00 -3.455932394820e+02 0.0 
0.0 0.0 -1.477405777797e+02 
-1.249624919789e+02 1.606626197921e-01 0.0 
1.606626197921e-01 -2.905631579423e+02 0.0 
0.0 0.0 -1.242576949763e+02 
-1.602308285477e+02 1.271071712975e+00 0.0 
1.271071712975e+00 -3.761373356277e+02 0.0 
0.0 0.0 -1.605104492526e+02 
-9.024585749041e+01 2.767052869726e-01 0.0 
2.767052869726e-01 -2.069419338086e+02 0.0 
0.0 0.0 -8.875633738971e+01 
-1.461160712729e+02 2.404540611349e-01 0.0 
2.404540611349e-01 -3.413617989866e+02 0.0 
0.0 0.0 -1.458433610778e+02 
-2.772751944753e+01 8.129293806959e-01 0.0 
8.129293806959e-01 -7.162719113445e+01 0.0 
0.0 0.0 -2.940641317459e+01 
-1.462120973781e+02 7.419083408858e-02 0.0 
7.419083408858e-02 -3.415855089650e+02 0.0 
0.0 0.0 -1.459392819029e+02 
-1.306056837316e+02 2.346075425599e+00 0.0 
2.346075425599e+00 -3.022043255129e+02 0.0 
0.0 0.0 -1.294430027733e+02 
-1.005137535683e+02 -4.123234359966e-03 0.0 
-4.123234359966e-03 -2.326105360576e+02 0.0 
0.0 0.0 -9.953728688778e+01 
-9.824589585358e+01 6.240446488671e-01 0.0 
6.240446488671e-01 -2.249642767256e+02 0.0 
0.0 0.0 -9.656305177376e+01 
-1.532332955869e+02 4.881838143604e-01 0.0 
4.881838143604e-01 -3.609027240979e+02 0.0 
0.0 0.0 -1.538408059054e+02 
-1.469135670404e+02 2.189980492475e+00 0.0 
2.189980492475e+00 -3.423646603013e+02 0.0 
0.0 0.0 -1.463834682025e+02 
-1.411311146952e+01 4.536742846830e+00 0.0 
4.536742846830e+00 -3.569668047307e+01 0.0 
0.0 0.0 -1.454293758278e+01 
-1.180386209499e+02 -1.931666661344e-02 0.0 
-1.931666661344e-02 -2.740281921230e+02 0.0 
0.0 0.0 -1.172200439219e+02 
-6.900206827743e+01 9.442946007503e-02 0.0 
9.442946007503e-02 -1.686482319145e+02 0.0 
0.0 0.0 -7.089509005757e+01 
-1.345056584374e+01 8.222602296456e-02 0.0 
8.222602296456e-02 -3.117758711528e+01 0.0 
0.0 0.0 -1.318088565867e+01 
-1.514614720926e+02 2.027811290638e+00 0.0 
2.027811290638e+00 -3.573602725382e+02 0.0 
0.0 0.0 -1.522465233893e+02 
-1.380461620400e+02 2.509120199121e+00 0.0 
2.509120199121e+00 -3.204974340831e+02 0.0 
0.0 0.0 -1.371630788369e+02 
-1.524484360250e+02 7.125201095582e-01 0.0 
7.125201095582e-01 -3.595638028309e+02 0.0 
0.0 0.0 -1.532036716568e+02 
-1.997069173751e+01 -1.875312928162e-01 0.0 
-1.875312928162e-01 -4.962500688767e+01 0.0 
0.0 0.0 -2.047870958756e+01 
-1.309505949277e+01 -3.796771155277e-01 0.0 
-3.796771155277e-01 -3.105714856297e+01 0.0 
0.0 0.0 -1.292758090656e+01 
-1.524609394109e+02 2.577027254310e+00 0.0 
2.577027254310e+00 -3.593981377134e+02 0.0 
0.0 0.0 -1.531577231373e+02 
-1.486396859708e+02 2.819905881664e+00 0.0 
2.819905881664e+00 -3.462716037688e+02 0.0 
0.0 0.0 -1.480733869219e+02 
-3.185280636881e+01 5.428183706077e-01 0.0 
5.428183706077e-01 -8.097571767279e+01 0.0 
0.0 0.0 -3.344855721248e+01 
-1.541536097779e+02 9.864181156643e-01 0.0 
9.864181156643e-01 -3.604233491786e+02 0.0 
0.0 0.0 -1.539730876870e+02 
-9.530306890281e+00 3.388794727190e+00 0.0 
3.388794727190e+00 -2.534385581158e+01 0.0 
0.0 0.0 -1.014405279561e+01 
-8.242736447154e+01 3.769714977407e-02 0.0 
3.769714977407e-02 -1.895612390142e+02 0.0 
0.0 0.0 -8.119658104572e+01 
-1.335809579110e+01 -1.159303945493e-01 0.0 
-1.159303945493e-01 -3.225001255033e+01 0.0 
0.0 0.0 -1.345820210710e+01 
-1.601744161883e+02 1.374273695009e+00 0.0 
1.374273695009e+00 -3.760041721070e+02 0.0 
0.0 0.0 -1.604535764886e+02 
-1.465570823812e+02 6.153699196264e-01 0.0 
6.153699196264e-01 -3.423385251630e+02 0.0 
0.0 0.0 -1.462686822633e+02 
-7.623246997776e+01 -1.083703864410e-01 0.0 
-1.083703864410e-01 -1.856339043793e+02 0.0 
0.0 0.0 -7.815991230712e+01 
-8.528428535846e+01 2.924482205166e-01 0.0 
2.924482205166e-01 -1.947153251356e+02 0.0 
0.0 0.0 -8.359988314821e+01 
-5.011788974313e+01 -1.417215378826e-01 0.0 
-1.417215378826e-01 -1.229330071390e+02 0.0 
0.0 0.0 -5.151526906463e+01 
-1.428917709385e+02 3.253189903876e+00 0.0 
3.253189903876e+00 -3.333739499115e+02 0.0 
0.0 0.0 -1.424797162550e+02 
-1.909989836538e+01 -4.324941113760e-01 0.0 
-4.324941113760e-01 -4.610200144535e+01 0.0 
0.0 0.0 -1.916056994322e+01 
-1.472457964445e+02 5.841171749853e-01 0.0 
5.841171749853e-01 -3.441549706513e+02 0.0 
0.0 0.0 -1.470202301287e+02 
-1.524567450842e+02 3.056728265671e+00 0.0 
3.056728265671e+00 -3.591360441558e+02 0.0 
0.0 0.0 -1.530778367720e+02 
-1.479432828303e+02 1.508695573538e+00 0.0 
1.508695573538e+00 -3.450453748652e+02 0.0 
0.0 0.0 -1.474965973086e+02 
-1.584655879200e+02 3.985287897143e+00 0.0 
3.985287897143e+00 -3.713889426762e+02 0.0 
0.0 0.0 -1.585563591789e+02 
-1.181323360888e+01 8.012773284130e-01 0.0 
8.012773284130e-01 -2.920152419958e+01 0.0 
0.0 0.0 -1.200628164946e+01 
-1.506713242406e+02 3.790485614029e+00 0.0 
3.790485614029e+00 -3.524763305341e+02 0.0 
0.0 0.0 -1.505442964324e+02 
-1.442763224028e+02 3.022297422665e+00 0.0 
3.022297422665e+00 -3.406548970955e+02 0.0 
0.0 0.0 -1.450793658495e+02 
-8.289271388223e+01 -1.630371866284e-01 0.0 
-1.630371866284e-01 -1.914261585296e+02 0.0 
0.0 0.0 -8.189566172356e+01 
-1.471276172484e+02 1.664779078926e+00 0.0 
1.664779078926e+00 -3.427520399319e+02 0.0 
0.0 0.0 -1.465638971541e+02 
-6.175645946416e+01 -1.511363873385e-01 0.0 
-1.511363873385e-01 -1.510723857174e+02 0.0 
0.0 0.0 -6.344865355447e+01 
-2.672668837081e+01 -6.230664785918e-02 0.0 
-6.230664785918e-02 -6.555576198592e+01 0.0 
0.0 0.0 -2.728473510702e+01 
-1.537622625395e+02 1.751313282247e-01 0.0 
1.751313282247e-01 -3.593173334971e+02 0.0 
0.0 0.0 -1.535238788110e+02 
-6.062871351228e+00 1.233192279463e-02 0.0 
1.233192279463e-02 -1.410446171761e+01 0.0 
0.0 0.0 -5.962550995318e+00 
-8.226326983394e+01 9.060716774057e-02 0.0 
9.060716774057e-02 -1.903140224177e+02 0.0 
0.0 0.0 -8.137318767549e+01 
-1.609553818583e+02 -5.719516099705e-03 0.0 
-5.719516099705e-03 -3.778765968166e+02 0.0 
0.0 0.0 -1.612495936025e+02 
-2.559127798284e+01 -1.517277655040e-01 0.0 
-1.517277655040e-01 -6.266127946505e+01 0.0 
0.0 0.0 -2.607576723437e+01 
-9.601724945085e+01 1.386697864389e-01 0.0 
1.386697864389e-01 -2.222612450787e+02 0.0 
0.0 0.0 -9.508354835887e+01 
-1.488994420952e+02 2.717158573334e+00 0.0 
2.717158573334e+00 -3.467322565863e+02 0.0 
0.0 0.0 -1.482895096044e+02 
-9.405720762119e+01 1.538099586976e-03 0.0 
1.538099586976e-03 -2.274969102152e+02 0.0 
0.0 0.0 -9.606623535092e+01 
-1.330698677658e+02 3.528330947539e-01 0.0 
3.528330947539e-01 -3.102473596396e+02 0.0 
0.0 0.0 -1.325951682216e+02 
-2.489889941352e+01 -2.040017838750e-01 0.0 
-2.040017838750e-01 -6.164062370245e+01 0.0 
0.0 0.0 -2.556185693479e+01 
-8.543061585927e+00 -1.330950393200e-01 0.0 
-1.330950393200e-01 -1.458059241415e+01 0.0 
0.0 0.0 -6.954368837558e+00 
-1.107281453871e+02 2.262808237877e-01 0.0 
2.262808237877e-01 -2.569972857099e+02 0.0 
0.0 0.0 -1.099176293291e+02 
-1.504185638379e+02 3.650603661829e+00 0.0 
3.650603661829e+00 -3.524819648705e+02 0.0 
0.0 0.0 -1.504701586125e+02 
-1.481658792224e+02 1.328951821434e+00 0.0 
1.328951821434e+00 -3.458142245621e+02 0.0 
0.0 0.0 -1.477940311353e+02 
-1.050339994985e+02 -4.443451888273e-02 0.0 
-4.443451888273e-02 -2.433680130050e+02 0.0 
0.0 0.0 -1.041206037511e+02 
-1.906980239584e+01 4.490431109484e+00 0.0 
4.490431109484e+00 -4.911590118421e+01 0.0 
0.0 0.0 -2.005571107401e+01 
-1.441737155248e+02 2.610628632868e+00 0.0 
2.610628632868e+00 -3.354104470077e+02 0.0 
0.0 0.0 -1.434752487598e+02 
-8.264225969995e+01 9.029018692745e-02 0.0 
9.029018692745e-02 -2.003642778359e+02 0.0 
0.0 0.0 -8.450196126075e+01 
-1.432746019829e+02 3.242742680560e+00 0.0 
3.242742680560e+00 -3.338229350154e+02 0.0 
0.0 0.0 -1.427292610995e+02 
-1.441000239072e+02 3.441152431492e+00 0.0 
3.441152431492e+00 -3.397276936747e+02 0.0 
0.0 0.0 -1.447483152746e+02 
-6.383280565977e+00 3.040934384438e+00 0.0 
3.040934384438e+00 -1.264065550298e+01 0.0 
0.0 0.0 -5.574259797793e+00 
-1.013315876975e+02 -2.834242394086e-02 0.0 
-2.834242394086e-02 -2.444202482930e+02 0.0 
0.0 0.0 -1.033255507972e+02 
-1.266020702405e+01 -7.626605945314e-02 0.0 
-7.626605945314e-02 -3.021977507345e+01 0.0 
0.0 0.0 -1.256554617876e+01 
-1.537488105684e+02 1.753203522411e+00 0.0 
1.753203522411e+00 -3.624052931165e+02 0.0 
0.0 0.0 -1.544462311055e+02 
-8.607706783787e+01 1.216306296043e-01 0.0 
1.216306296043e-01 -2.087711154841e+02 0.0 
0.0 0.0 -8.805445499659e+01 
-2.685295773865e+00 7.204900405723e-01 0.0 
7.204900405723e-01 -7.828756581440e+00 0.0 
0.0 0.0 -2.736292127176e+00 
-5.164074078333e+00 8.955123441611e-02 0.0 
8.955123441611e-02 -9.364530336475e+00 0.0 
0.0 0.0 -3.958581324443e+00 
-1.253736741465e+01 8.612354199492e-01 0.0 
8.612354199492e-01 -2.807119223044e+01 0.0 
0.0 0.0 -1.178256789353e+01 
-1.361902533717e+01 5.867926806951e-03 0.0 
5.867926806951e-03 -3.011783876299e+01 0.0 
0.0 0.0 -1.272105923005e+01 
-2.160791891287e+01 6.953935354840e-01 0.0 
6.953935354840e-01 -4.769660666974e+01 0.0 
0.0 0.0 -2.039135767478e+01 
-2.137770741492e+01 -1.514561984181e-02 0.0 
-1.514561984181e-02 -4.857207697559e+01 0.0 
0.0 0.0 -2.058493531715e+01 
-3.058562257299e+01 5.714079226502e-01 0.0 
5.714079226502e-01 -6.740296086212e+01 0.0 
0.0 0.0 -2.899657503053e+01 
-3.025458663871e+01 -1.195733809860e-02 0.0 
-1.195733809860e-02 -6.924699998548e+01 0.0 
0.0 0.0 -2.945047598726e+01 
-3.940939233302e+01 4.191224101847e-01 0.0 
4.191224101847e-01 -8.708902241154e+01 0.0 
0.0 0.0 -3.754952442337e+01 
-3.820621694275e+01 -1.910729937522e-03 0.0 
-1.910729937522e-03 -8.771165759174e+01 0.0 
0.0 0.0 -3.737536236034e+01 
-4.779444614694e+01 3.985465186322e-01 0.0 
3.985465186322e-01 -1.065929396854e+02 0.0 
0.0 0.0 -4.591621574971e+01 
-4.712222320957e+01 -2.434024482022e-04 0.0 
-2.434024482022e-04 -1.083917646796e+02 0.0 
0.0 0.0 -4.625419636675e+01 
-5.627695339164e+01 3.575547136786e-01 0.0 
3.575547136786e-01 -1.262066353365e+02 0.0 
0.0 0.0 -5.434507661844e+01 
-5.507423708116e+01 6.299639930537e-03 0.0 
6.299639930537e-03 -1.268761721967e+02 0.0 
0.0 0.0 -5.418512278336e+01 
-6.464640230649e+01 3.628906078103e-01 0.0 
3.628906078103e-01 -1.457455861433e+02 0.0 
0.0 0.0 -6.271759653494e+01 
-6.399451955738e+01 -4.029694636167e-02 0.0 
-4.029694636167e-02 -1.475655208839e+02 0.0 
0.0 0.0 -6.306801213239e+01 
-7.299073864372e+01 3.759815840664e-01 0.0 
3.759815840664e-01 -1.653805280653e+02 0.0 
0.0 0.0 -7.111138001271e+01 
-7.177269451735e+01 -1.526207713234e-01 0.0 
-1.526207713234e-01 -1.659864615021e+02 0.0 
0.0 0.0 -7.092774680583e+01 

TENSORS node_materi_strain_total float
-6.232399962780e-07 2.483936388784e-07 0.0 
2.483936388784e-07 1.584206893646e-05 0.0 
0.0 0.0 0.0 
-1.342272734464e-05 -2.595504798407e-06 0.0 
-2.595504798407e-06 7.713842716623e-04 0.0 
0.0 0.0 0.0 
2.424284362590e-06 3.506292898362e-06 0.0 
3.506292898362e-06 1.233604472175e-03 0.0 
0.0 0.0 0.0 
-6.653587547034e-07 -1.724805566233e-06 0.0 
-1.724805566233e-06 1.372188719753e-03 0.0 
0.0 0.0 0.0 
6.226003027946e-08 -5.825351039850e-07 0.0 
-5.825351039850e-07 4.643606351210e-05 0.0 
0.0 0.0 0.0 
3.029631911936e-06 1.922234659888e-06 0.0 
1.922234659888e-06 1.072658898101e-04 0.0 
0.0 0.0 0.0 
7.484805433888e-06 2.020656942988e-06 0.0 
2.020656942988e-06 1.636480739965e-04 0.0 
0.0 0.0 0.0 
1.087911013453e-05 1.964302667774e-06 0.0 
1.964302667774e-06 2.283674451204e-04 0.0 
0.0 0.0 0.0 
1.383692724621e-05 1.503446355835e-06 0.0 
1.503446355835e-06 2.910914837881e-04 0.0 
0.0 0.0 0.0 
1.736990802437e-05 1.448876485232e-06 0.0 
1.448876485232e-06 3.528078296609e-04 0.0 
0.0 0.0 0.0 
2.017136892466e-05 1.639917996712e-06 0.0 
1.639917996712e-06 4.148640121232e-04 0.0 
0.0 0.0 0.0 
2.231508537494e-05 1.538976409117e-06 0.0 
1.538976409117e-06 4.773248778370e-04 0.0 
0.0 0.0 0.0 
2.410342867306e-05 1.617996135688e-06 0.0 
1.617996135688e-06 5.401173373494e-04 0.0 
0.0 0.0 0.0 
2.485742740599e-05 2.114775353886e-06 0.0 
2.114775353886e-06 6.041944550640e-04 0.0 
0.0 0.0 0.0 
2.456277634037e-05 3.150834345312e-06 0.0 
3.150834345312e-06 6.706043002433e-04 0.0 
0.0 0.0 0.0 
2.528162236330e-05 3.360191329145e-06 0.0 
3.360191329145e-06 7.347356605229e-04 0.0 
0.0 0.0 0.0 
2.546346953329e-05 4.448206530685e-06 0.0 
4.448206530685e-06 7.934303987480e-04 0.0 
0.0 0.0 0.0 
2.373407263626e-05 2.137644520091e-06 0.0 
2.137644520091e-06 8.591234109418e-04 0.0 
0.0 0.0 0.0 
2.158066984655e-05 2.142052747977e-06 0.0 
2.142052747977e-06 9.269119480747e-04 0.0 
0.0 0.0 0.0 
1.878610675443e-05 2.265829614428e-06 0.0 
2.265829614428e-06 9.931501113813e-04 0.0 
0.0 0.0 0.0 
1.504916900800e-05 2.214892165503e-06 0.0 
2.214892165503e-06 1.060556024172e-03 0.0 
0.0 0.0 0.0 
1.043681168815e-05 2.689753007047e-06 0.0 
2.689753007047e-06 1.129081882768e-03 0.0 
0.0 0.0 0.0 
6.306868053215e-06 3.262387789526e-06 0.0 
3.262387789526e-06 1.194797381231e-03 0.0 
0.0 0.0 0.0 
-2.314170208055e-07 1.148598724814e-06 0.0 
1.148598724814e-06 1.375421546572e-03 0.0 
0.0 0.0 0.0 
-7.781632032448e-07 2.294570945451e-06 0.0 
2.294570945451e-06 1.372251485440e-03 0.0 
0.0 0.0 0.0 
-7.191814751876e-07 2.046048907912e-06 0.0 
2.046048907912e-06 1.372981929735e-03 0.0 
0.0 0.0 0.0 
-8.607564396061e-07 5.394462994414e-06 0.0 
5.394462994414e-06 1.372754691631e-03 0.0 
0.0 0.0 0.0 
-1.029606134425e-06 5.700713685826e-06 0.0 
5.700713685826e-06 1.370519261505e-03 0.0 
0.0 0.0 0.0 
-7.619772688742e-07 7.282614133995e-06 0.0 
7.282614133995e-06 1.372150892891e-03 0.0 
0.0 0.0 0.0 
-4.436853836183e-07 8.785516424393e-06 0.0 
8.785516424393e-06 1.372168862098e-03 0.0 
0.0 0.0 0.0 
-1.048315513138e-06 1.009187998369e-05 0.0 
1.009187998369e-05 1.370800592605e-03 0.0 
0.0 0.0 0.0 
-8.548957552608e-07 1.092281756604e-05 0.0 
1.092281756604e-05 1.372345060392e-03 0.0 
0.0 0.0 0.0 
-9.675681858316e-07 1.425185769201e-05 0.0 
1.425185769201e-05 1.371484467063e-03 0.0 
0.0 0.0 0.0 
-1.268241220931e-06 1.524621589355e-05 0.0 
1.524621589355e-05 1.368672645905e-03 0.0 
0.0 0.0 0.0 
-1.176172638395e-06 1.732718236687e-05 0.0 
1.732718236687e-05 1.369396601656e-03 0.0 
0.0 0.0 0.0 
-8.507060336171e-07 1.959931090894e-05 0.0 
1.959931090894e-05 1.369064862016e-03 0.0 
0.0 0.0 0.0 
-1.345628120745e-06 2.174653016047e-05 0.0 
2.174653016047e-05 1.366691024724e-03 0.0 
0.0 0.0 0.0 
-1.203246420722e-06 2.388918485346e-05 0.0 
2.388918485346e-05 1.364024724167e-03 0.0 
0.0 0.0 0.0 
-1.666274901835e-06 2.671483451236e-05 0.0 
2.671483451236e-05 1.360094560300e-03 0.0 
0.0 0.0 0.0 
-1.867091785512e-06 2.896143738066e-05 0.0 
2.896143738066e-05 1.357407040518e-03 0.0 
0.0 0.0 0.0 
-1.402087019079e-06 3.183623627840e-05 0.0 
3.183623627840e-05 1.356492377723e-03 0.0 
0.0 0.0 0.0 
-1.552758681966e-06 3.441628351489e-05 0.0 
3.441628351489e-05 1.354783434531e-03 0.0 
0.0 0.0 0.0 
-1.408655245561e-06 3.714399174088e-05 0.0 
3.714399174088e-05 1.352557164357e-03 0.0 
0.0 0.0 0.0 
-1.343060359556e-06 4.022782876622e-05 0.0 
4.022782876622e-05 1.348434781774e-03 0.0 
0.0 0.0 0.0 
-1.329479359824e-06 4.239491854402e-05 0.0 
4.239491854402e-05 1.343646240677e-03 0.0 
0.0 0.0 0.0 
-1.234461197412e-06 4.487250049612e-05 0.0 
4.487250049612e-05 1.338945077448e-03 0.0 
0.0 0.0 0.0 
-1.133070333300e-06 4.692563735520e-05 0.0 
4.692563735520e-05 1.333681573231e-03 0.0 
0.0 0.0 0.0 
-1.034687514926e-06 4.881548511376e-05 0.0 
4.881548511376e-05 1.328816385344e-03 0.0 
0.0 0.0 0.0 
-5.887717605679e-07 5.038744466008e-05 0.0 
5.038744466008e-05 1.323815146709e-03 0.0 
0.0 0.0 0.0 
-6.449550014424e-07 5.150416413742e-05 0.0 
5.150416413742e-05 1.318355745319e-03 0.0 
0.0 0.0 0.0 
6.026490417810e-11 5.226087057613e-05 0.0 
5.226087057613e-05 1.312397789995e-03 0.0 
0.0 0.0 0.0 
-1.379056355037e-07 5.247873706754e-05 0.0 
5.247873706754e-05 1.305645181882e-03 0.0 
0.0 0.0 0.0 
1.097713611120e-07 5.166355258197e-05 0.0 
5.166355258197e-05 1.301728895207e-03 0.0 
0.0 0.0 0.0 
5.176354859563e-07 5.251783358006e-05 0.0 
5.251783358006e-05 1.294567799589e-03 0.0 
0.0 0.0 0.0 
7.725553607211e-07 5.074699567926e-05 0.0 
5.074699567926e-05 1.285323755678e-03 0.0 
0.0 0.0 0.0 
1.052579946981e-06 4.879112660491e-05 0.0 
4.879112660491e-05 1.279040183164e-03 0.0 
0.0 0.0 0.0 
1.158976300634e-06 4.668020111814e-05 0.0 
4.668020111814e-05 1.274608602200e-03 0.0 
0.0 0.0 0.0 
1.544452296128e-06 4.458195651140e-05 0.0 
4.458195651140e-05 1.269668627686e-03 0.0 
0.0 0.0 0.0 
1.102213936640e-06 4.178233105672e-05 0.0 
4.178233105672e-05 1.264984893359e-03 0.0 
0.0 0.0 0.0 
1.932475330572e-06 3.922828932108e-05 0.0 
3.922828932108e-05 1.260900183131e-03 0.0 
0.0 0.0 0.0 
1.424971471264e-06 3.625035464360e-05 0.0 
3.625035464360e-05 1.255874060073e-03 0.0 
0.0 0.0 0.0 
2.145895135882e-06 3.308026630730e-05 0.0 
3.308026630730e-05 1.251252096043e-03 0.0 
0.0 0.0 0.0 
1.561482487533e-06 3.005320455296e-05 0.0 
3.005320455296e-05 1.246714554883e-03 0.0 
0.0 0.0 0.0 
1.305391302090e-06 2.668442024010e-05 0.0 
2.668442024010e-05 1.245111814043e-03 0.0 
0.0 0.0 0.0 
1.814776315889e-06 2.416383395357e-05 0.0 
2.416383395357e-05 1.245747059214e-03 0.0 
0.0 0.0 0.0 
2.264201370838e-06 2.069186931681e-05 0.0 
2.069186931681e-05 1.244823598004e-03 0.0 
0.0 0.0 0.0 
1.971013365187e-06 1.719427426750e-05 0.0 
1.719427426750e-05 1.234115153352e-03 0.0 
0.0 0.0 0.0 
2.175405248236e-06 1.439456628472e-05 0.0 
1.439456628472e-05 1.239923835698e-03 0.0 
0.0 0.0 0.0 
1.394807194188e-06 1.146248208549e-05 0.0 
1.146248208549e-05 1.236000687245e-03 0.0 
0.0 0.0 0.0 
1.297420881915e-06 7.836046322047e-06 0.0 
7.836046322047e-06 1.236690614309e-03 0.0 
0.0 0.0 0.0 
1.557264189526e-06 6.240062070494e-06 0.0 
6.240062070494e-06 1.238417017627e-03 0.0 
0.0 0.0 0.0 
1.418073513652e-06 3.264430333247e-06 0.0 
3.264430333247e-06 1.237792642416e-03 0.0 
0.0 0.0 0.0 
-1.213391194517e-05 -1.778333156672e-06 0.0 
-1.778333156672e-06 8.354367222818e-04 0.0 
0.0 0.0 0.0 
-1.235124916192e-05 -1.964599610898e-06 0.0 
-1.964599610898e-06 8.995869436058e-04 0.0 
0.0 0.0 0.0 
-1.151565363196e-05 -1.865078339062e-06 0.0 
-1.865078339062e-06 9.625704539998e-04 0.0 
0.0 0.0 0.0 
-1.057658409949e-05 -1.941708555821e-06 0.0 
-1.941708555821e-06 1.024150220797e-03 0.0 
0.0 0.0 0.0 
-9.458745317844e-06 -1.643430648262e-06 0.0 
-1.643430648262e-06 1.086868725272e-03 0.0 
0.0 0.0 0.0 
-7.430995406010e-06 -1.763250498822e-06 0.0 
-1.763250498822e-06 1.149351312496e-03 0.0 
0.0 0.0 0.0 
-5.999575734772e-06 -1.510539689196e-06 0.0 
-1.510539689196e-06 1.211236691172e-03 0.0 
0.0 0.0 0.0 
-4.095320250549e-06 -1.708797674452e-06 0.0 
-1.708797674452e-06 1.272474050267e-03 0.0 
0.0 0.0 0.0 
-2.107702531839e-06 -1.899439977836e-06 0.0 
-1.899439977836e-06 1.335031940015e-03 0.0 
0.0 0.0 0.0 
-2.208773628380e-05 2.750146109890e-05 0.0 
2.750146109890e-05 3.347935590418e-05 0.0 
0.0 0.0 0.0 
-2.176416594974e-05 3.903699407697e-06 0.0 
3.903699407697e-06 7.722698879392e-04 0.0 
0.0 0.0 0.0 
-1.025352792558e-05 4.385937382228e-05 0.0 
4.385937382228e-05 1.681392919948e-04 0.0 
0.0 0.0 0.0 
-7.699454695872e-06 1.924987828903e-05 0.0 
1.924987828903e-05 2.457622251842e-04 0.0 
0.0 0.0 0.0 
-1.214197463776e-05 1.401315677163e-05 0.0 
1.401315677163e-05 3.130654095011e-04 0.0 
0.0 0.0 0.0 
-1.602429237308e-05 1.013927888744e-05 0.0 
1.013927888744e-05 3.780034176385e-04 0.0 
0.0 0.0 0.0 
-1.874490535057e-05 7.641010868876e-06 0.0 
7.641010868876e-06 4.436434922944e-04 0.0 
0.0 0.0 0.0 
-2.008163565326e-05 5.448752613444e-06 0.0 
5.448752613444e-06 5.091616036926e-04 0.0 
0.0 0.0 0.0 
-2.139865580732e-05 4.355048339943e-06 0.0 
4.355048339943e-06 5.744138023215e-04 0.0 
0.0 0.0 0.0 
-2.186841788446e-05 3.722251124493e-06 0.0 
3.722251124493e-06 6.394059526640e-04 0.0 
0.0 0.0 0.0 
-2.166594625617e-05 3.618606294938e-06 0.0 
3.618606294938e-06 7.041467785754e-04 0.0 
0.0 0.0 0.0 
-1.768951308501e-05 -2.530353753384e-06 0.0 
-2.530353753384e-06 2.197339173151e-04 0.0 
0.0 0.0 0.0 
-1.394142081390e-05 -4.015762519538e-06 0.0 
-4.015762519538e-06 2.579503655692e-04 0.0 
0.0 0.0 0.0 
-1.149082909349e-05 -3.737500110269e-06 0.0 
-3.737500110269e-06 3.202682325882e-04 0.0 
0.0 0.0 0.0 
-1.102271110218e-05 -4.867377213739e-06 0.0 
-4.867377213739e-06 3.840587872892e-04 0.0 
0.0 0.0 0.0 
-1.123058026592e-05 -3.975863468562e-06 0.0 
-3.975863468562e-06 4.482980954162e-04 0.0 
0.0 0.0 0.0 
-1.157574729679e-05 -4.874625495814e-06 0.0 
-4.874625495814e-06 5.125975309395e-04 0.0 
0.0 0.0 0.0 
-1.196635561168e-05 -3.954390253105e-06 0.0 
-3.954390253105e-06 5.768989639415e-04 0.0 
0.0 0.0 0.0 
-1.223187581681e-05 -4.703898711133e-06 0.0 
-4.703898711133e-06 6.410296977450e-04 0.0 
0.0 0.0 0.0 
-1.224730589386e-05 -3.318228057739e-06 0.0 
-3.318228057739e-06 7.046478571918e-04 0.0 
0.0 0.0 0.0 
-1.256685934103e-05 1.201610062411e-06 0.0 
1.201610062411e-06 7.625345636708e-04 0.0 
0.0 0.0 0.0 
-1.234406988917e-05 -6.415859336903e-09 0.0 
-6.415859336903e-09 7.663900751303e-04 0.0 
0.0 0.0 0.0 
-1.286624032398e-05 -3.345414893998e-08 0.0 
-3.345414893998e-08 7.667838588549e-04 0.0 
0.0 0.0 0.0 
-1.309845530456e-05 -3.031231614708e-07 0.0 
-3.031231614708e-07 7.661052000795e-04 0.0 
0.0 0.0 0.0 
-1.311238721516e-05 8.115865186376e-08 0.0 
8.115865186376e-08 7.747192637200e-04 0.0 
0.0 0.0 0.0 
-1.379844514228e-05 6.891457685902e-08 0.0 
6.891457685902e-08 7.673990448832e-04 0.0 
0.0 0.0 0.0 
-1.396759925519e-05 -1.233007741183e-07 0.0 
-1.233007741183e-07 7.667564002201e-04 0.0 
0.0 0.0 0.0 
-1.465130696286e-05 4.121852083447e-07 0.0 
4.121852083447e-07 7.675507379373e-04 0.0 
0.0 0.0 0.0 
-1.583338644973e-05 3.954153723812e-07 0.0 
3.954153723812e-07 7.692495533317e-04 0.0 
0.0 0.0 0.0 
-1.673157689710e-05 8.770915769369e-07 0.0 
8.770915769369e-07 7.690762259223e-04 0.0 
0.0 0.0 0.0 
-1.721946532220e-05 1.119081823007e-06 0.0 
1.119081823007e-06 7.687474143595e-04 0.0 
0.0 0.0 0.0 
-1.827936898970e-05 1.504901576173e-06 0.0 
1.504901576173e-06 7.685506606844e-04 0.0 
0.0 0.0 0.0 
-1.902211936735e-05 2.422084338976e-06 0.0 
2.422084338976e-06 7.685678484540e-04 0.0 
0.0 0.0 0.0 
-2.013859398052e-05 3.386521978815e-06 0.0 
3.386521978815e-06 7.694562008295e-04 0.0 
0.0 0.0 0.0 
-2.969944920324e-05 5.594952417166e-06 0.0 
5.594952417166e-06 3.115830985675e-05 0.0 
0.0 0.0 0.0 
-3.518365470704e-05 -6.264694506143e-07 0.0 
-6.264694506143e-07 3.113975402202e-05 0.0 
0.0 0.0 0.0 
-3.377103176213e-05 -2.613284045573e-06 0.0 
-2.613284045573e-06 2.902092012769e-05 0.0 
0.0 0.0 0.0 
-2.954932841559e-05 -3.790563606375e-06 0.0 
-3.790563606375e-06 2.707689068567e-05 0.0 
0.0 0.0 0.0 
-2.643265378828e-05 -3.851314784560e-06 0.0 
-3.851314784560e-06 2.742608061708e-05 0.0 
0.0 0.0 0.0 
-2.412226517231e-05 -2.633879279810e-06 0.0 
-2.633879279810e-06 2.766727010791e-05 0.0 
0.0 0.0 0.0 
-2.103294104431e-05 -2.042767977683e-06 0.0 
-2.042767977683e-06 2.660740154766e-05 0.0 
0.0 0.0 0.0 
-1.787442904411e-05 -1.801647504978e-06 0.0 
-1.801647504978e-06 2.514076385074e-05 0.0 
0.0 0.0 0.0 
-1.509638048092e-05 -1.820825089364e-06 0.0 
-1.820825089364e-06 2.397316374392e-05 0.0 
0.0 0.0 0.0 
-1.240235502549e-05 -1.888712835929e-06 0.0 
-1.888712835929e-06 2.280241083937e-05 0.0 
0.0 0.0 0.0 
-9.870621212789e-06 -1.717296692410e-06 0.0 
-1.717296692410e-06 2.230776727467e-05 0.0 
0.0 0.0 0.0 
-1.021149515072e-05 -1.322909470329e-06 0.0 
-1.322909470329e-06 2.299689432409e-05 0.0 
0.0 0.0 0.0 
-7.241146631642e-06 -3.817754229199e-07 0.0 
-3.817754229199e-07 2.112182324650e-05 0.0 
0.0 0.0 0.0 
-3.356717908631e-06 -1.143129372564e-06 0.0 
-1.143129372564e-06 1.850231216919e-05 0.0 
0.0 0.0 0.0 
-1.935307812525e-06 -1.564764268155e-06 0.0 
-1.564764268155e-06 1.786656222295e-05 0.0 
0.0 0.0 0.0 
-2.098978867086e-06 -9.055792415883e-07 0.0 
-9.055792415883e-07 1.830300594996e-05 0.0 
0.0 0.0 0.0 
-1.599629959936e-06 -4.177170339579e-08 0.0 
-4.177170339579e-08 1.806756648796e-05 0.0 
0.0 0.0 0.0 
4.558680288073e-07 1.019549832946e-06 0.0 
1.019549832946e-06 1.594804098885e-05 0.0 
0.0 0.0 0.0 
8.680411387093e-07 1.400540163231e-06 0.0 
1.400540163231e-06 1.431453326539e-05 0.0 
0.0 0.0 0.0 
-1.355739033589e-05 4.730779339511e-06 0.0 
4.730779339511e-06 2.161933854258e-04 0.0 
0.0 0.0 0.0 
-9.229825323106e-06 2.245236534797e-06 0.0 
2.245236534797e-06 2.211098310483e-04 0.0 
0.0 0.0 0.0 
-7.919726306464e-06 6.198827894044e-07 0.0 
6.198827894044e-07 2.226402441673e-04 0.0 
0.0 0.0 0.0 
-8.369102072655e-06 -9.618108850321e-08 0.0 
-9.618108850321e-08 2.231373366555e-04 0.0 
0.0 0.0 0.0 
-8.441517472887e-06 -4.463053351209e-07 0.0 
-4.463053351209e-07 2.231796845652e-04 0.0 
0.0 0.0 0.0 
-8.203505096412e-06 -6.076724719495e-07 0.0 
-6.076724719495e-07 2.230961483195e-04 0.0 
0.0 0.0 0.0 
-7.745695997226e-06 -6.959419115138e-07 0.0 
-6.959419115138e-07 2.229280309552e-04 0.0 
0.0 0.0 0.0 
-7.116076169581e-06 -7.616025582132e-07 0.0 
-7.616025582132e-07 2.226857253560e-04 0.0 
0.0 0.0 0.0 
-6.337560539434e-06 -8.221362771136e-07 0.0 
-8.221362771136e-07 2.223750994759e-04 0.0 
0.0 0.0 0.0 
-5.418887787637e-06 -8.811521110187e-07 0.0 
-8.811521110187e-07 2.219995545885e-04 0.0 
0.0 0.0 0.0 
-4.360621129259e-06 -9.376297503708e-07 0.0 
-9.376297503708e-07 2.215607208976e-04 0.0 
0.0 0.0 0.0 
-3.158883133736e-06 -9.902596789506e-07 0.0 
-9.902596789506e-07 2.210595010880e-04 0.0 
0.0 0.0 0.0 
-1.808354459694e-06 -1.039638068729e-06 0.0 
-1.039638068729e-06 2.204965019563e-04 0.0 
0.0 0.0 0.0 
-3.057985814940e-07 -1.088512046562e-06 0.0 
-1.088512046562e-06 2.198725049716e-04 0.0 
0.0 0.0 0.0 
1.348493646932e-06 -1.141087621509e-06 0.0 
-1.141087621509e-06 2.191883106200e-04 0.0 
0.0 0.0 0.0 
3.148146994277e-06 -1.201050074214e-06 0.0 
-1.201050074214e-06 2.184480023650e-04 0.0 
0.0 0.0 0.0 
5.083528129705e-06 -1.272939131559e-06 0.0 
-1.272939131559e-06 2.176541607392e-04 0.0 
0.0 0.0 0.0 
7.131491451965e-06 -1.355504822603e-06 0.0 
-1.355504822603e-06 2.168199816771e-04 0.0 
0.0 0.0 0.0 
9.269801460802e-06 -1.452549204662e-06 0.0 
-1.452549204662e-06 2.159444087783e-04 0.0 
0.0 0.0 0.0 
1.143994497791e-05 -1.540966906779e-06 0.0 
-1.540966906779e-06 2.150743615198e-04 0.0 
0.0 0.0 0.0 
1.360626175388e-05 -1.639277683528e-06 0.0 
-1.639277683528e-06 2.141620400247e-04 0.0 
0.0 0.0 0.0 
1.562347474178e-05 -1.624342599594e-06 0.0 
-1.624342599594e-06 2.133513623394e-04 0.0 
0.0 0.0 0.0 
1.746931215811e-05 -1.591448494995e-06 0.0 
-1.591448494995e-06 2.123976806416e-04 0.0 
0.0 0.0 0.0 
1.882281537717e-05 -1.071915703213e-06 0.0 
-1.071915703213e-06 2.119399040076e-04 0.0 
0.0 0.0 0.0 
1.976498824733e-05 -5.844780034422e-07 0.0 
-5.844780034422e-07 2.109203166528e-04 0.0 
0.0 0.0 0.0 
1.978724242184e-05 1.984115540175e-06 0.0 
1.984115540175e-06 2.112428997536e-04 0.0 
0.0 0.0 0.0 
1.596666105758e-05 3.439728859164e-06 0.0 
3.439728859164e-06 2.084111232655e-04 0.0 
0.0 0.0 0.0 
8.397520701586e-06 8.781942467389e-06 0.0 
8.781942467389e-06 1.951048992005e-04 0.0 
0.0 0.0 0.0 
4.140112093894e-06 7.034365641434e-06 0.0 
7.034365641434e-06 2.387371996463e-04 0.0 
0.0 0.0 0.0 
4.737321212422e-06 3.219816646234e-06 0.0 
3.219816646234e-06 2.502248415727e-04 0.0 
0.0 0.0 0.0 
8.051902324835e-06 4.078556798892e-07 0.0 
4.078556798892e-07 2.469397964003e-04 0.0 
0.0 0.0 0.0 
7.959181610229e-06 -1.514961460039e-06 0.0 
-1.514961460039e-06 2.471814137868e-04 0.0 
0.0 0.0 0.0 
8.096336814404e-06 -2.148283358059e-06 0.0 
-2.148283358059e-06 2.476590344673e-04 0.0 
0.0 0.0 0.0 
7.299673486227e-06 -2.629451362695e-06 0.0 
-2.629451362695e-06 2.480750867450e-04 0.0 
0.0 0.0 0.0 
6.341740873939e-06 -2.749100932158e-06 0.0 
-2.749100932158e-06 2.486116118610e-04 0.0 
0.0 0.0 0.0 
5.069346282638e-06 -2.809699914962e-06 0.0 
-2.809699914962e-06 2.491614084826e-04 0.0 
0.0 0.0 0.0 
3.716640167980e-06 -2.755098363264e-06 0.0 
-2.755098363264e-06 2.497643495411e-04 0.0 
0.0 0.0 0.0 
2.297630281460e-06 -2.668463049823e-06 0.0 
-2.668463049823e-06 2.503698577112e-04 0.0 
0.0 0.0 0.0 
8.931478924223e-07 -2.549078790198e-06 0.0 
-2.549078790198e-06 2.509714178675e-04 0.0 
0.0 0.0 0.0 
-4.714286454729e-07 -2.421266354633e-06 0.0 
-2.421266354633e-06 2.515522789580e-04 0.0 
0.0 0.0 0.0 
-1.764314785287e-06 -2.284971362970e-06 0.0 
-2.284971362970e-06 2.521061162306e-04 0.0 
0.0 0.0 0.0 
-2.970716102446e-06 -2.144991331890e-06 0.0 
-2.144991331890e-06 2.526251297952e-04 0.0 
0.0 0.0 0.0 
-4.078589934749e-06 -1.999754091822e-06 0.0 
-1.999754091822e-06 2.531055370115e-04 0.0 
0.0 0.0 0.0 
-5.082054761574e-06 -1.848507105482e-06 0.0 
-1.848507105482e-06 2.535435151391e-04 0.0 
0.0 0.0 0.0 
-5.977892222305e-06 -1.690879444422e-06 0.0 
-1.690879444422e-06 2.539353127614e-04 0.0 
0.0 0.0 0.0 
-6.764845237613e-06 -1.528329152955e-06 0.0 
-1.528329152955e-06 2.542775507302e-04 0.0 
0.0 0.0 0.0 
-7.441262179886e-06 -1.362044099889e-06 0.0 
-1.362044099889e-06 2.545679311948e-04 0.0 
0.0 0.0 0.0 
-8.004228992109e-06 -1.190934736593e-06 0.0 
-1.190934736593e-06 2.548047030923e-04 0.0 
0.0 0.0 0.0 
-8.449842677061e-06 -1.008458552730e-06 0.0 
-1.008458552730e-06 2.549868894524e-04 0.0 
0.0 0.0 0.0 
-8.776858130647e-06 -7.972420620995e-07 0.0 
-7.972420620995e-07 2.551159187851e-04 0.0 
0.0 0.0 0.0 
-8.996834359583e-06 -5.202953860242e-07 0.0 
-5.202953860242e-07 2.551958712004e-04 0.0 
0.0 0.0 0.0 
-9.150007259743e-06 -8.202508082962e-08 0.0 
-8.202508082962e-08 2.552056245147e-04 0.0 
0.0 0.0 0.0 
-9.263981554023e-06 1.195735348266e-06 0.0 
1.195735348266e-06 2.549352305659e-04 0.0 
0.0 0.0 0.0 
-1.205313847817e-05 3.143562787744e-06 0.0 
3.143562787744e-06 2.566236957417e-04 0.0 
0.0 0.0 0.0 
-5.178230397436e-06 6.502532997912e-06 0.0 
6.502532997912e-06 3.059349250069e-04 0.0 
0.0 0.0 0.0 
-5.670099992258e-06 3.061373619334e-06 0.0 
3.061373619334e-06 3.182435628274e-04 0.0 
0.0 0.0 0.0 
-3.530938050241e-06 2.975396197362e-07 0.0 
2.975396197362e-07 3.157648822722e-04 0.0 
0.0 0.0 0.0 
-2.840827869647e-06 -1.626662858274e-06 0.0 
-1.626662858274e-06 3.157137395130e-04 0.0 
0.0 0.0 0.0 
-2.202217424567e-06 -2.549223627159e-06 0.0 
-2.549223627159e-06 3.160095939074e-04 0.0 
0.0 0.0 0.0 
-2.144130628786e-06 -3.207964872825e-06 0.0 
-3.207964872825e-06 3.160573080513e-04 0.0 
0.0 0.0 0.0 
-2.327471947320e-06 -3.532081661813e-06 0.0 
-3.532081661813e-06 3.163125172017e-04 0.0 
0.0 0.0 0.0 
-2.761402435492e-06 -3.679085295565e-06 0.0 
-3.679085295565e-06 3.165476970939e-04 0.0 
0.0 0.0 0.0 
-3.306957244598e-06 -3.688381329914e-06 0.0 
-3.688381329914e-06 3.168351063972e-04 0.0 
0.0 0.0 0.0 
-3.945395810723e-06 -3.618987001835e-06 0.0 
-3.618987001835e-06 3.171279064272e-04 0.0 
0.0 0.0 0.0 
-4.617341461825e-06 -3.491766425925e-06 0.0 
-3.491766425925e-06 3.174348524442e-04 0.0 
0.0 0.0 0.0 
-5.302406792640e-06 -3.327346017578e-06 0.0 
-3.327346017578e-06 3.177405468769e-04 0.0 
0.0 0.0 0.0 
-5.974991208727e-06 -3.134489917731e-06 0.0 
-3.134489917731e-06 3.180424555283e-04 0.0 
0.0 0.0 0.0 
-6.618707855085e-06 -2.918040368553e-06 0.0 
-2.918040368553e-06 3.183320898481e-04 0.0 
0.0 0.0 0.0 
-7.217264637834e-06 -2.681399707645e-06 0.0 
-2.681399707645e-06 3.186010537578e-04 0.0 
0.0 0.0 0.0 
-7.761239426955e-06 -2.429464270866e-06 0.0 
-2.429464270866e-06 3.188418632491e-04 0.0 
0.0 0.0 0.0 
-8.245191508457e-06 -2.165643576232e-06 0.0 
-2.165643576232e-06 3.190508378144e-04 0.0 
0.0 0.0 0.0 
-8.666133403131e-06 -1.890783790834e-06 0.0 
-1.890783790834e-06 3.192268294024e-04 0.0 
0.0 0.0 0.0 
-9.024405828377e-06 -1.603423258683e-06 0.0 
-1.603423258683e-06 3.193717636048e-04 0.0 
0.0 0.0 0.0 
-9.326338623346e-06 -1.301300907074e-06 0.0 
-1.301300907074e-06 3.194922497819e-04 0.0 
0.0 0.0 0.0 
-9.589572883976e-06 -9.848039869674e-07 0.0 
-9.848039869674e-07 3.196007255069e-04 0.0 
0.0 0.0 0.0 
-9.844463816244e-06 -6.639162418727e-07 0.0 
-6.639162418727e-07 3.197062238672e-04 0.0 
0.0 0.0 0.0 
-1.012949295739e-05 -3.580400320571e-07 0.0 
-3.580400320571e-07 3.197916216284e-04 0.0 
0.0 0.0 0.0 
-1.057646324691e-05 -4.719721469899e-08 0.0 
-4.719721469899e-08 3.200059050356e-04 0.0 
0.0 0.0 0.0 
-1.130750811840e-05 2.678269774894e-06 0.0 
2.678269774894e-06 3.202565487570e-04 0.0 
0.0 0.0 0.0 
-1.106085526605e-05 1.382437445232e-06 0.0 
1.382437445232e-06 3.841622535572e-04 0.0 
0.0 0.0 0.0 
-1.084193804533e-05 -2.532463861057e-07 0.0 
-2.532463861057e-07 3.841587527638e-04 0.0 
0.0 0.0 0.0 
-1.065166439250e-05 -9.236850685691e-07 0.0 
-9.236850685691e-07 3.841306082005e-04 0.0 
0.0 0.0 0.0 
-1.046771516189e-05 -1.226519707403e-06 0.0 
-1.226519707403e-06 3.840750841383e-04 0.0 
0.0 0.0 0.0 
-1.029083806727e-05 -1.543674713930e-06 0.0 
-1.543674713930e-06 3.840052075012e-04 0.0 
0.0 0.0 0.0 
-1.011523395028e-05 -1.884898440398e-06 0.0 
-1.884898440398e-06 3.839324753609e-04 0.0 
0.0 0.0 0.0 
-9.928615574676e-06 -2.236459399899e-06 0.0 
-2.236459399899e-06 3.838528583704e-04 0.0 
0.0 0.0 0.0 
-9.721585498816e-06 -2.586095546969e-06 0.0 
-2.586095546969e-06 3.837604606681e-04 0.0 
0.0 0.0 0.0 
-9.493113355149e-06 -2.926581836802e-06 0.0 
-2.926581836802e-06 3.836533360654e-04 0.0 
0.0 0.0 0.0 
-9.245493908535e-06 -3.252439344342e-06 0.0 
-3.252439344342e-06 3.835308706434e-04 0.0 
0.0 0.0 0.0 
-8.983868348559e-06 -3.557263201647e-06 0.0 
-3.557263201647e-06 3.833943949342e-04 0.0 
0.0 0.0 0.0 
-8.715049535368e-06 -3.829950205855e-06 0.0 
-3.829950205855e-06 3.832462409044e-04 0.0 
0.0 0.0 0.0 
-8.456479967944e-06 -4.052927931777e-06 0.0 
-4.052927931777e-06 3.831001541849e-04 0.0 
0.0 0.0 0.0 
-8.236353348882e-06 -4.219118598395e-06 0.0 
-4.219118598395e-06 3.829664554702e-04 0.0 
0.0 0.0 0.0 
-8.078829631534e-06 -4.307557522430e-06 0.0 
-4.307557522430e-06 3.828573029261e-04 0.0 
0.0 0.0 0.0 
-8.005182114320e-06 -4.310952812164e-06 0.0 
-4.310952812164e-06 3.827511275008e-04 0.0 
0.0 0.0 0.0 
-8.041666991328e-06 -4.147504323463e-06 0.0 
-4.147504323463e-06 3.826861895941e-04 0.0 
0.0 0.0 0.0 
-8.248862897779e-06 -3.833092818387e-06 0.0 
-3.833092818387e-06 3.825843655825e-04 0.0 
0.0 0.0 0.0 
-8.637868659197e-06 -3.140366443342e-06 0.0 
-3.140366443342e-06 3.825837315150e-04 0.0 
0.0 0.0 0.0 
-9.366332369217e-06 -2.183387572291e-06 0.0 
-2.183387572291e-06 3.823513322270e-04 0.0 
0.0 0.0 0.0 
-1.014708052588e-05 -2.687022588865e-07 0.0 
-2.687022588865e-07 3.824352525639e-04 0.0 
0.0 0.0 0.0 
-1.179260862992e-05 2.037885110180e-06 0.0 
2.037885110180e-06 3.850079720940e-04 0.0 
0.0 0.0 0.0 
-1.118474732783e-05 4.943256807486e-06 0.0 
4.943256807486e-06 3.725536891103e-04 0.0 
0.0 0.0 0.0 
-1.483541464696e-05 3.949911020297e-06 0.0 
3.949911020297e-06 4.381569005301e-04 0.0 
0.0 0.0 0.0 
-1.547357716114e-05 1.364919815856e-06 0.0 
1.364919815856e-06 4.505058787245e-04 0.0 
0.0 0.0 0.0 
-1.437315620613e-05 -5.615524272510e-07 0.0 
-5.615524272510e-07 4.482008103413e-04 0.0 
0.0 0.0 0.0 
-1.366105836485e-05 -2.122377660053e-06 0.0 
-2.122377660053e-06 4.481654135083e-04 0.0 
0.0 0.0 0.0 
-1.283179576091e-05 -2.909131615558e-06 0.0 
-2.909131615558e-06 4.483959232863e-04 0.0 
0.0 0.0 0.0 
-1.226896771330e-05 -3.480633624263e-06 0.0 
-3.480633624263e-06 4.483167520980e-04 0.0 
0.0 0.0 0.0 
-1.178300041299e-05 -3.759090833877e-06 0.0 
-3.759090833877e-06 4.483357055645e-04 0.0 
0.0 0.0 0.0 
-1.144345085367e-05 -3.898232105426e-06 0.0 
-3.898232105426e-06 4.482887676247e-04 0.0 
0.0 0.0 0.0 
-1.120569645422e-05 -3.913103531341e-06 0.0 
-3.913103531341e-06 4.482923906296e-04 0.0 
0.0 0.0 0.0 
-1.108025705177e-05 -3.829786576766e-06 0.0 
-3.829786576766e-06 4.483207821255e-04 0.0 
0.0 0.0 0.0 
-1.101078469229e-05 -3.647906819919e-06 0.0 
-3.647906819919e-06 4.483666824892e-04 0.0 
0.0 0.0 0.0 
-1.096876864276e-05 -3.402106868315e-06 0.0 
-3.402106868315e-06 4.483990139859e-04 0.0 
0.0 0.0 0.0 
-1.095141287964e-05 -3.120153181952e-06 0.0 
-3.120153181952e-06 4.484262736864e-04 0.0 
0.0 0.0 0.0 
-1.095710711087e-05 -2.811482201730e-06 0.0 
-2.811482201730e-06 4.484519782953e-04 0.0 
0.0 0.0 0.0 
-1.097830724752e-05 -2.483327016617e-06 0.0 
-2.483327016617e-06 4.484731491406e-04 0.0 
0.0 0.0 0.0 
-1.100529687414e-05 -2.144106923506e-06 0.0 
-2.144106923506e-06 4.484854114057e-04 0.0 
0.0 0.0 0.0 
-1.103712381027e-05 -1.813735321872e-06 0.0 
-1.813735321872e-06 4.484883734877e-04 0.0 
0.0 0.0 0.0 
-1.108230147031e-05 -1.508290759875e-06 0.0 
-1.508290759875e-06 4.484888437467e-04 0.0 
0.0 0.0 0.0 
-1.113884709010e-05 -1.237407658113e-06 0.0 
-1.237407658113e-06 4.484826170836e-04 0.0 
0.0 0.0 0.0 
-1.119967906584e-05 -1.003300714320e-06 0.0 
-1.003300714320e-06 4.484600881590e-04 0.0 
0.0 0.0 0.0 
-1.125018656458e-05 -8.729142160132e-07 0.0 
-8.729142160132e-07 4.484047632916e-04 0.0 
0.0 0.0 0.0 
-1.123999608430e-05 2.119137878069e-06 0.0 
2.119137878069e-06 4.483309496273e-04 0.0 
0.0 0.0 0.0 
-1.160674304836e-05 1.257969551355e-06 0.0 
1.257969551355e-06 5.126377430078e-04 0.0 
0.0 0.0 0.0 
-1.163091947574e-05 -5.071829670271e-07 0.0 
-5.071829670271e-07 5.126917548000e-04 0.0 
0.0 0.0 0.0 
-1.165756885213e-05 -1.170108560165e-06 0.0 
-1.170108560165e-06 5.127571808023e-04 0.0 
0.0 0.0 0.0 
-1.171032844579e-05 -1.431993941185e-06 0.0 
-1.431993941185e-06 5.128306186471e-04 0.0 
0.0 0.0 0.0 
-1.178099010265e-05 -1.698039741534e-06 0.0 
-1.698039741534e-06 5.129019462813e-04 0.0 
0.0 0.0 0.0 
-1.188244186417e-05 -1.987227800440e-06 0.0 
-1.987227800440e-06 5.129754365721e-04 0.0 
0.0 0.0 0.0 
-1.201237119219e-05 -2.303254329448e-06 0.0 
-2.303254329448e-06 5.130425909864e-04 0.0 
0.0 0.0 0.0 
-1.215748969744e-05 -2.616547387921e-06 0.0 
-2.616547387921e-06 5.130859102709e-04 0.0 
0.0 0.0 0.0 
-1.232945456753e-05 -2.896697803415e-06 0.0 
-2.896697803415e-06 5.131257604395e-04 0.0 
0.0 0.0 0.0 
-1.256599715020e-05 -3.137983680558e-06 0.0 
-3.137983680558e-06 5.131817006926e-04 0.0 
0.0 0.0 0.0 
-1.285682925180e-05 -3.345296040864e-06 0.0 
-3.345296040864e-06 5.132428551051e-04 0.0 
0.0 0.0 0.0 
-1.318629580691e-05 -3.498268635676e-06 0.0 
-3.498268635676e-06 5.132824244574e-04 0.0 
0.0 0.0 0.0 
-1.355523608025e-05 -3.536176526025e-06 0.0 
-3.536176526025e-06 5.132750881874e-04 0.0 
0.0 0.0 0.0 
-1.402562135646e-05 -3.380583719404e-06 0.0 
-3.380583719404e-06 5.133315722496e-04 0.0 
0.0 0.0 0.0 
-1.467504205199e-05 -3.124713562268e-06 0.0 
-3.124713562268e-06 5.134021204397e-04 0.0 
0.0 0.0 0.0 
-1.543796499089e-05 -2.632000654069e-06 0.0 
-2.632000654069e-06 5.135678959747e-04 0.0 
0.0 0.0 0.0 
-1.632965052265e-05 -2.071594339231e-06 0.0 
-2.071594339231e-06 5.134065461873e-04 0.0 
0.0 0.0 0.0 
-1.696911341764e-05 -7.358860343495e-07 0.0 
-7.358860343495e-07 5.133770688613e-04 0.0 
0.0 0.0 0.0 
-1.806785993005e-05 6.724265165589e-07 0.0 
6.724265165589e-07 5.159654359268e-04 0.0 
0.0 0.0 0.0 
-1.724951214355e-05 2.475281098115e-06 0.0 
2.475281098115e-06 5.033997115280e-04 0.0 
0.0 0.0 0.0 
-1.859428248746e-05 2.150976304001e-06 0.0 
2.150976304001e-06 5.681657504609e-04 0.0 
0.0 0.0 0.0 
-1.952356967356e-05 5.772044967617e-07 0.0 
5.772044967617e-07 5.808588903495e-04 0.0 
0.0 0.0 0.0 
-1.865239783192e-05 -3.153649839225e-07 0.0 
-3.153649839225e-07 5.784352072047e-04 0.0 
0.0 0.0 0.0 
-1.787067350806e-05 -1.280535202336e-06 0.0 
-1.280535202336e-06 5.782045196899e-04 0.0 
0.0 0.0 0.0 
-1.680080440577e-05 -1.808362642890e-06 0.0 
-1.808362642890e-06 5.782001754222e-04 0.0 
0.0 0.0 0.0 
-1.605810838025e-05 -2.325285515218e-06 0.0 
-2.325285515218e-06 5.780528094240e-04 0.0 
0.0 0.0 0.0 
-1.543085720866e-05 -2.539574084785e-06 0.0 
-2.539574084785e-06 5.781198259135e-04 0.0 
0.0 0.0 0.0 
-1.483989714629e-05 -2.558112068323e-06 0.0 
-2.558112068323e-06 5.780571516211e-04 0.0 
0.0 0.0 0.0 
-1.430173539454e-05 -2.482548022724e-06 0.0 
-2.482548022724e-06 5.779348564304e-04 0.0 
0.0 0.0 0.0 
-1.379419126107e-05 -2.375661786665e-06 0.0 
-2.375661786665e-06 5.777798206196e-04 0.0 
0.0 0.0 0.0 
-1.339875794393e-05 -2.256687346045e-06 0.0 
-2.256687346045e-06 5.776839590377e-04 0.0 
0.0 0.0 0.0 
-1.310787769785e-05 -2.044428795770e-06 0.0 
-2.044428795770e-06 5.776176045129e-04 0.0 
0.0 0.0 0.0 
-1.279343230696e-05 -1.790521879993e-06 0.0 
-1.790521879993e-06 5.774834716262e-04 0.0 
0.0 0.0 0.0 
-1.253810161402e-05 -1.566492586239e-06 0.0 
-1.566492586239e-06 5.773345457727e-04 0.0 
0.0 0.0 0.0 
-1.233121002425e-05 -1.362979669918e-06 0.0 
-1.362979669918e-06 5.772055606749e-04 0.0 
0.0 0.0 0.0 
-1.217839197705e-05 -1.161158083999e-06 0.0 
-1.161158083999e-06 5.770846432166e-04 0.0 
0.0 0.0 0.0 
-1.205208177918e-05 -9.938504861873e-07 0.0 
-9.938504861873e-07 5.769885254771e-04 0.0 
0.0 0.0 0.0 
-1.201971248575e-05 -8.847125240969e-07 0.0 
-8.847125240969e-07 5.769660655731e-04 0.0 
0.0 0.0 0.0 
-1.199638383729e-05 2.126583086494e-06 0.0 
2.126583086494e-06 5.769430400389e-04 0.0 
0.0 0.0 0.0 
-1.241466211196e-05 1.362305166635e-06 0.0 
1.362305166635e-06 6.412588734576e-04 0.0 
0.0 0.0 0.0 
-1.231300024083e-05 -4.321077103614e-07 0.0 
-4.321077103614e-07 6.411335859480e-04 0.0 
0.0 0.0 0.0 
-1.242354326327e-05 -8.883609149095e-07 0.0 
-8.883609149095e-07 6.411889803313e-04 0.0 
0.0 0.0 0.0 
-1.266118291928e-05 -1.058584018726e-06 0.0 
-1.058584018726e-06 6.413733629919e-04 0.0 
0.0 0.0 0.0 
-1.285690985988e-05 -1.168947498584e-06 0.0 
-1.168947498584e-06 6.414946092087e-04 0.0 
0.0 0.0 0.0 
-1.321778988807e-05 -1.289994498618e-06 0.0 
-1.289994498618e-06 6.417002468551e-04 0.0 
0.0 0.0 0.0 
-1.361045819394e-05 -1.403227347900e-06 0.0 
-1.403227347900e-06 6.419252419059e-04 0.0 
0.0 0.0 0.0 
-1.408454420067e-05 -1.634680466942e-06 0.0 
-1.634680466942e-06 6.420711050843e-04 0.0 
0.0 0.0 0.0 
-1.450835092193e-05 -1.642349365013e-06 0.0 
-1.642349365013e-06 6.420809326729e-04 0.0 
0.0 0.0 0.0 
-1.519052862710e-05 -1.577450470998e-06 0.0 
-1.577450470998e-06 6.423356121970e-04 0.0 
0.0 0.0 0.0 
-1.591160367537e-05 -1.588529057823e-06 0.0 
-1.588529057823e-06 6.425475264894e-04 0.0 
0.0 0.0 0.0 
-1.662338551772e-05 -1.474312394990e-06 0.0 
-1.474312394990e-06 6.426186425714e-04 0.0 
0.0 0.0 0.0 
-1.749201363741e-05 -1.229811529669e-06 0.0 
-1.229811529669e-06 6.426943759807e-04 0.0 
0.0 0.0 0.0 
-1.832415251794e-05 -7.656077487372e-07 0.0 
-7.656077487372e-07 6.423767798427e-04 0.0 
0.0 0.0 0.0 
-1.913102821344e-05 3.891604238024e-07 0.0 
3.891604238024e-07 6.426629332871e-04 0.0 
0.0 0.0 0.0 
-2.019565335192e-05 9.552614590977e-07 0.0 
9.552614590977e-07 6.457157714985e-04 0.0 
0.0 0.0 0.0 
-1.936763223083e-05 1.999869777238e-06 0.0 
1.999869777238e-06 6.332274616436e-04 0.0 
0.0 0.0 0.0 
-1.931613672185e-05 2.608703377271e-06 0.0 
2.608703377271e-06 6.974958788560e-04 0.0 
0.0 0.0 0.0 
-2.034567185123e-05 1.569373692484e-06 0.0 
1.569373692484e-06 7.096810557410e-04 0.0 
0.0 0.0 0.0 
-1.939502904473e-05 9.736679805726e-07 0.0 
9.736679805726e-07 7.070097541954e-04 0.0 
0.0 0.0 0.0 
-1.817186124895e-05 4.065661598462e-07 0.0 
4.065661598462e-07 7.068148873631e-04 0.0 
0.0 0.0 0.0 
-1.732917623543e-05 -1.398463488571e-07 0.0 
-1.398463488571e-07 7.068693970790e-04 0.0 
0.0 0.0 0.0 
-1.653195504871e-05 -2.909776887022e-07 0.0 
-2.909776887022e-07 7.068278854495e-04 0.0 
0.0 0.0 0.0 
-1.573756082385e-05 -3.996302163956e-07 0.0 
-3.996302163956e-07 7.064397202039e-04 0.0 
0.0 0.0 0.0 
-1.506821062836e-05 -7.352005008776e-07 0.0 
-7.352005008776e-07 7.062707888031e-04 0.0 
0.0 0.0 0.0 
-1.424956928671e-05 -6.262461617120e-07 0.0 
-6.262461617120e-07 7.062457097854e-04 0.0 
0.0 0.0 0.0 
-1.386701315072e-05 -7.255938688874e-07 0.0 
-7.255938688874e-07 7.059564680828e-04 0.0 
0.0 0.0 0.0 
-1.338852725741e-05 -6.345611937286e-07 0.0 
-6.345611937286e-07 7.057240694515e-04 0.0 
0.0 0.0 0.0 
-1.301921041944e-05 -8.020179124495e-07 0.0 
-8.020179124495e-07 7.055069683029e-04 0.0 
0.0 0.0 0.0 
-1.285520790760e-05 -6.135996813597e-07 0.0 
-6.135996813597e-07 7.054789771274e-04 0.0 
0.0 0.0 0.0 
-1.254734279157e-05 -6.504240888842e-07 0.0 
-6.504240888842e-07 7.051127125334e-04 0.0 
0.0 0.0 0.0 
-1.252645979616e-05 -1.062940020014e-06 0.0 
-1.062940020014e-06 7.054858470892e-04 0.0 
0.0 0.0 0.0 
-1.289561464259e-05 2.437083625523e-06 0.0 
2.437083625523e-06 7.058546838637e-04 0.0 
0.0 0.0 0.0 
-1.922325270861e-05 5.087136274281e-05 0.0 
5.087136274281e-05 8.177629225640e-05 0.0 
0.0 0.0 0.0 
-9.033659857124e-06 2.595891525615e-05 0.0 
2.595891525615e-05 2.169119115248e-04 0.0 
0.0 0.0 0.0 
-1.116224911485e-05 1.783902354950e-05 0.0 
1.783902354950e-05 2.866834754331e-04 0.0 
0.0 0.0 0.0 
-1.459587219834e-05 1.330981332286e-05 0.0 
1.330981332286e-05 3.529759326312e-04 0.0 
0.0 0.0 0.0 
-1.716229936538e-05 9.452736621638e-06 0.0 
9.452736621638e-06 4.171768052467e-04 0.0 
0.0 0.0 0.0 
-1.872733625143e-05 7.435219668643e-06 0.0 
7.435219668643e-06 4.827777227403e-04 0.0 
0.0 0.0 0.0 
-2.067841845083e-05 5.607968086888e-06 0.0 
5.607968086888e-06 5.479950697922e-04 0.0 
0.0 0.0 0.0 
-2.120896433427e-05 4.857262515331e-06 0.0 
4.857262515331e-06 6.129794651297e-04 0.0 
0.0 0.0 0.0 
-2.123749263305e-05 4.410117335618e-06 0.0 
4.410117335618e-06 6.776972938880e-04 0.0 
0.0 0.0 0.0 
-2.058686571454e-05 4.612827640962e-06 0.0 
4.612827640962e-06 7.425585433437e-04 0.0 
0.0 0.0 0.0 
-1.799360076943e-05 4.172553314825e-05 0.0 
4.172553314825e-05 2.600415713807e-04 0.0 
0.0 0.0 0.0 
3.431043068991e-06 4.654498144983e-05 0.0 
4.654498144983e-05 1.248832186196e-03 0.0 
0.0 0.0 0.0 
-9.509916296502e-06 -3.081710721700e-06 0.0 
-3.081710721700e-06 4.217938395930e-05 0.0 
0.0 0.0 0.0 
-1.714112447275e-05 -3.692230215809e-06 0.0 
-3.692230215809e-06 4.323401670340e-05 0.0 
0.0 0.0 0.0 
5.044212303703e-06 3.455985164211e-05 0.0 
3.455985164211e-05 1.225342533932e-03 0.0 
0.0 0.0 0.0 
-2.208263110544e-05 1.828581142179e-05 0.0 
1.828581142179e-05 4.063270533215e-04 0.0 
0.0 0.0 0.0 
2.496629805055e-05 2.470334180057e-07 0.0 
2.470334180057e-07 6.397021550602e-04 0.0 
0.0 0.0 0.0 
4.482884198457e-07 5.156735884083e-05 0.0 
5.156735884083e-05 1.271847036477e-03 0.0 
0.0 0.0 0.0 
-2.405561942764e-05 9.445081989210e-06 0.0 
9.445081989210e-06 5.323181434413e-04 0.0 
0.0 0.0 0.0 
-2.325646230835e-06 4.881167285328e-05 0.0 
4.881167285328e-05 1.299968234612e-03 0.0 
0.0 0.0 0.0 
-2.457833683815e-05 6.754094875597e-06 0.0 
6.754094875597e-06 6.655461225514e-04 0.0 
0.0 0.0 0.0 
5.582969732446e-06 2.205149968163e-05 0.0 
2.205149968163e-05 1.218138433451e-03 0.0 
0.0 0.0 0.0 
-2.871543160847e-06 -1.570629530800e-06 0.0 
-1.570629530800e-06 3.740394970168e-05 0.0 
0.0 0.0 0.0 
-4.005396016064e-06 4.045422887970e-05 0.0 
4.045422887970e-05 1.320943240315e-03 0.0 
0.0 0.0 0.0 
-2.289041845780e-05 6.439198311282e-06 0.0 
6.439198311282e-06 7.968465688201e-04 0.0 
0.0 0.0 0.0 
1.906785569084e-05 -2.616260991884e-07 0.0 
-2.616260991884e-07 3.866961815776e-04 0.0 
0.0 0.0 0.0 
2.448284538592e-05 1.544047840853e-06 0.0 
1.544047840853e-06 8.163139734716e-04 0.0 
0.0 0.0 0.0 
-4.394385319332e-06 3.220690837129e-05 0.0 
3.220690837129e-05 1.329097476093e-03 0.0 
0.0 0.0 0.0 
-3.770031911784e-06 2.274073425064e-05 0.0 
2.274073425064e-05 1.340710090231e-03 0.0 
0.0 0.0 0.0 
-2.481968569964e-06 6.089137412965e-06 0.0 
6.089137412965e-06 1.346695484399e-03 0.0 
0.0 0.0 0.0 
-2.948044007197e-06 1.107834419051e-05 0.0 
1.107834419051e-05 1.340423191750e-03 0.0 
0.0 0.0 0.0 
-3.396917085045e-06 1.564386232219e-05 0.0 
1.564386232219e-05 1.345427916209e-03 0.0 
0.0 0.0 0.0 
-1.991500716947e-05 4.453518765093e-06 0.0 
4.453518765093e-06 8.268509787796e-04 0.0 
0.0 0.0 0.0 
-1.618545722346e-05 1.944521402989e-06 0.0 
1.944521402989e-06 8.272662230714e-04 0.0 
0.0 0.0 0.0 
-1.401495223573e-05 5.811508146996e-07 0.0 
5.811508146996e-07 8.310857696147e-04 0.0 
0.0 0.0 0.0 
-9.849696460581e-06 -2.942128536295e-07 0.0 
-2.942128536295e-07 1.055912261736e-03 0.0 
0.0 0.0 0.0 
5.056327781546e-06 1.268581414554e-05 0.0 
1.268581414554e-05 1.209632175046e-03 0.0 
0.0 0.0 0.0 
-1.287117283227e-05 5.942845335863e-06 0.0 
5.942845335863e-06 4.503588327528e-05 0.0 
0.0 0.0 0.0 
5.399407943159e-07 -8.251013619036e-07 0.0 
-8.251013619036e-07 3.888976650324e-05 0.0 
0.0 0.0 0.0 
1.706648408062e-05 1.919898558591e-06 0.0 
1.919898558591e-06 1.024486931783e-03 0.0 
0.0 0.0 0.0 
-1.312253857148e-05 6.933303902995e-07 0.0 
6.933303902995e-07 8.232778048006e-04 0.0 
0.0 0.0 0.0 
8.915763491681e-06 -6.969893129675e-07 0.0 
-6.969893129675e-07 1.958755771510e-04 0.0 
0.0 0.0 0.0 
-5.046015630688e-06 2.689738352368e-05 0.0 
2.689738352368e-05 1.326435362399e-03 0.0 
0.0 0.0 0.0 
-9.695322290929e-07 5.138042116967e-05 0.0 
5.138042116967e-05 1.290886957695e-03 0.0 
0.0 0.0 0.0 
-3.466917377848e-06 4.507333481770e-05 0.0 
4.507333481770e-05 1.311446021780e-03 0.0 
0.0 0.0 0.0 
1.949105794192e-06 5.028839385919e-05 0.0 
5.028839385919e-05 1.257266239948e-03 0.0 
0.0 0.0 0.0 
3.763556198022e-06 4.209390883868e-05 0.0 
4.209390883868e-05 1.240262936927e-03 0.0 
0.0 0.0 0.0 
-1.469400176477e-05 -3.199076745571e-06 0.0 
-3.199076745571e-06 4.577510386187e-05 0.0 
0.0 0.0 0.0 
-1.785191869206e-05 2.950850927511e-06 0.0 
2.950850927511e-06 8.251389492770e-04 0.0 
0.0 0.0 0.0 
5.785797211428e-06 2.773464881431e-05 0.0 
2.773464881431e-05 1.208317988856e-03 0.0 
0.0 0.0 0.0 
-7.334224730001e-06 4.727981430727e-08 0.0 
4.727981430727e-08 1.179055213822e-03 0.0 
0.0 0.0 0.0 
-6.167285669674e-06 -3.134498816423e-06 0.0 
-3.134498816423e-06 4.179385330453e-05 0.0 
0.0 0.0 0.0 
2.323134514193e-05 -1.976329480721e-07 0.0 
-1.976329480721e-07 5.091022699023e-04 0.0 
0.0 0.0 0.0 
-2.123795550024e-06 3.793231009856e-06 0.0 
3.793231009856e-06 1.355947378245e-03 0.0 
0.0 0.0 0.0 
-2.380681301029e-05 1.397280042124e-05 0.0 
1.397280042124e-05 4.740221156011e-04 0.0 
0.0 0.0 0.0 
-2.067221064180e-05 2.624048282180e-05 0.0 
2.624048282180e-05 3.380224001906e-04 0.0 
0.0 0.0 0.0 
-2.476491318008e-05 7.930351976550e-06 0.0 
7.930351976550e-06 5.993084576051e-04 0.0 
0.0 0.0 0.0 
-2.388569582285e-05 5.976387342527e-06 0.0 
5.976387342527e-06 7.305594034317e-04 0.0 
0.0 0.0 0.0 
-8.130619786680e-06 5.348760476080e-05 0.0 
5.348760476080e-05 1.292189617098e-04 0.0 
0.0 0.0 0.0 
-1.150138340246e-05 8.031744586014e-08 0.0 
8.031744586014e-08 9.359986116396e-04 0.0 
0.0 0.0 0.0 
3.796709180159e-06 6.919064050151e-06 0.0 
6.919064050151e-06 1.219173514827e-03 0.0 
0.0 0.0 0.0 
2.169531676606e-06 6.638698041239e-07 0.0 
6.638698041239e-07 3.539123264396e-05 0.0 
0.0 0.0 0.0 
-3.019318908686e-06 1.015256659101e-06 0.0 
1.015256659101e-06 1.300172134320e-03 0.0 
0.0 0.0 0.0 
-2.194262627020e-05 6.486420847573e-06 0.0 
6.486420847573e-06 8.269782924427e-04 0.0 
0.0 0.0 0.0 
-2.268355861725e-05 8.422336171599e-06 0.0 
8.422336171599e-06 8.521284040243e-04 0.0 
0.0 0.0 0.0 
-2.137294478897e-05 8.557002044308e-06 0.0 
8.557002044308e-06 8.825859099649e-04 0.0 
0.0 0.0 0.0 
-2.252074418374e-05 1.052563452771e-05 0.0 
1.052563452771e-05 9.113993466587e-04 0.0 
0.0 0.0 0.0 
-2.122083808117e-05 1.061893681920e-05 0.0 
1.061893681920e-05 9.448202247814e-04 0.0 
0.0 0.0 0.0 
-2.165869002335e-05 1.292287341796e-05 0.0 
1.292287341796e-05 9.702964820799e-04 0.0 
0.0 0.0 0.0 
-2.282775947541e-05 1.319979347055e-05 0.0 
1.319979347055e-05 9.367349113383e-04 0.0 
0.0 0.0 0.0 
-2.157988579932e-05 1.562314516754e-05 0.0 
1.562314516754e-05 9.954152850879e-04 0.0 
0.0 0.0 0.0 
-2.286932795461e-05 1.611301772930e-05 0.0 
1.611301772930e-05 9.612250115224e-04 0.0 
0.0 0.0 0.0 
-1.987941966947e-05 1.272725324108e-05 0.0 
1.272725324108e-05 1.004388653491e-03 0.0 
0.0 0.0 0.0 
-2.129304082075e-05 1.848654397791e-05 0.0 
1.848654397791e-05 1.019905776752e-03 0.0 
0.0 0.0 0.0 
-2.255296795139e-05 1.915415190603e-05 0.0 
1.915415190603e-05 9.851707352212e-04 0.0 
0.0 0.0 0.0 
-2.066672343393e-05 2.156936727774e-05 0.0 
2.156936727774e-05 1.043732285980e-03 0.0 
0.0 0.0 0.0 
-2.188837883279e-05 2.232466092279e-05 0.0 
2.232466092279e-05 1.008584666911e-03 0.0 
0.0 0.0 0.0 
-2.359471541522e-05 1.997890491927e-05 0.0 
1.997890491927e-05 9.504555287891e-04 0.0 
0.0 0.0 0.0 
-2.282359639024e-05 2.331510665726e-05 0.0 
2.331510665726e-05 9.733326739437e-04 0.0 
0.0 0.0 0.0 
-2.434931762052e-05 2.101584897949e-05 0.0 
2.101584897949e-05 9.154266030092e-04 0.0 
0.0 0.0 0.0 
-2.342702386959e-05 2.449908176545e-05 0.0 
2.449908176545e-05 9.377688385022e-04 0.0 
0.0 0.0 0.0 
-2.160951800826e-05 2.667030818627e-05 0.0 
2.667030818627e-05 9.956134947157e-04 0.0 
0.0 0.0 0.0 
-2.198132859305e-05 2.791695424061e-05 0.0 
2.791695424061e-05 9.594071142178e-04 0.0 
0.0 0.0 0.0 
-2.370860843842e-05 2.592538156837e-05 0.0 
2.592538156837e-05 9.017235469503e-04 0.0 
0.0 0.0 0.0 
-2.196015931150e-05 2.948763076922e-05 0.0 
2.948763076922e-05 9.226522804761e-04 0.0 
0.0 0.0 0.0 
-2.362856863225e-05 2.770178959126e-05 0.0 
2.770178959126e-05 8.652716005903e-04 0.0 
0.0 0.0 0.0 
-2.151484006222e-05 3.135158729983e-05 0.0 
3.135158729983e-05 8.854560365561e-04 0.0 
0.0 0.0 0.0 
-2.318194805908e-05 2.978963567344e-05 0.0 
2.978963567344e-05 8.281694931439e-04 0.0 
0.0 0.0 0.0 
-2.061495510889e-05 3.351431405293e-05 0.0 
3.351431405293e-05 8.476151374731e-04 0.0 
0.0 0.0 0.0 
-1.883738449835e-05 3.465747654307e-05 0.0 
3.465747654307e-05 9.050281496508e-04 0.0 
0.0 0.0 0.0 
-1.747582033769e-05 3.679279947929e-05 0.0 
3.679279947929e-05 8.663322111972e-04 0.0 
0.0 0.0 0.0 
-1.917670171888e-05 3.602599097994e-05 0.0 
3.602599097994e-05 8.090582216581e-04 0.0 
0.0 0.0 0.0 
-1.551058256906e-05 3.914772107325e-05 0.0 
3.914772107325e-05 8.268572607030e-04 0.0 
0.0 0.0 0.0 
-1.714379800962e-05 3.881727695429e-05 0.0 
3.881727695429e-05 7.696485382342e-04 0.0 
0.0 0.0 0.0 
-1.286609851272e-05 4.165781308813e-05 0.0 
4.165781308813e-05 7.863248941323e-04 0.0 
0.0 0.0 0.0 
-1.143233151167e-05 4.152954091373e-05 0.0 
4.152954091373e-05 8.442040295601e-04 0.0 
0.0 0.0 0.0 
-8.293020699786e-06 4.350694727043e-05 0.0 
4.350694727043e-05 8.028598568881e-04 0.0 
0.0 0.0 0.0 
-9.496941909474e-06 4.409502568353e-05 0.0 
4.409502568353e-05 7.444044281926e-04 0.0 
0.0 0.0 0.0 
-4.469543238332e-06 4.526359279979e-05 0.0 
4.526359279979e-05 7.604178882910e-04 0.0 
0.0 0.0 0.0 
-5.400623311909e-06 4.628372169927e-05 0.0 
4.628372169927e-05 7.012200005484e-04 0.0 
0.0 0.0 0.0 
5.421053889121e-08 4.664932328488e-05 0.0 
4.664932328488e-05 7.169396240095e-04 0.0 
0.0 0.0 0.0 
-4.498283172431e-07 4.809000321990e-05 0.0 
4.809000321990e-05 6.566958726788e-04 0.0 
0.0 0.0 0.0 
5.222440224717e-06 4.727758140345e-05 0.0 
4.727758140345e-05 6.720618842534e-04 0.0 
0.0 0.0 0.0 
5.134724189467e-06 4.584214497568e-05 0.0 
4.584214497568e-05 7.331878455991e-04 0.0 
0.0 0.0 0.0 
1.023618695154e-05 4.537903154284e-05 0.0 
4.537903154284e-05 6.883998866411e-04 0.0 
0.0 0.0 0.0 
1.080949709098e-05 4.679221412712e-05 0.0 
4.679221412712e-05 6.261098261126e-04 0.0 
0.0 0.0 0.0 
1.547951585627e-05 4.379465563354e-05 0.0 
4.379465563354e-05 6.428635292910e-04 0.0 
0.0 0.0 0.0 
1.451985937007e-05 4.284288745925e-05 0.0 
4.284288745925e-05 7.059861324525e-04 0.0 
0.0 0.0 0.0 
1.922930607634e-05 4.044648198739e-05 0.0 
4.044648198739e-05 6.610975397842e-04 0.0 
0.0 0.0 0.0 
1.799258641703e-05 4.000975343309e-05 0.0 
4.000975343309e-05 7.248072780964e-04 0.0 
0.0 0.0 0.0 
2.212028999937e-05 3.706203657854e-05 0.0 
3.706203657854e-05 6.807156205576e-04 0.0 
0.0 0.0 0.0 
2.346654484164e-05 3.699117951408e-05 0.0 
3.699117951408e-05 6.167661954464e-04 0.0 
0.0 0.0 0.0 
2.567181046146e-05 3.327168983615e-05 0.0 
3.327168983615e-05 6.372928623392e-04 0.0 
0.0 0.0 0.0 
2.426490147108e-05 3.380242918497e-05 0.0 
3.380242918497e-05 7.014414127980e-04 0.0 
0.0 0.0 0.0 
2.719402435432e-05 2.982870460974e-05 0.0 
2.982870460974e-05 6.587540350603e-04 0.0 
0.0 0.0 0.0 
2.837175649658e-05 2.872964591504e-05 0.0 
2.872964591504e-05 5.947611284917e-04 0.0 
0.0 0.0 0.0 
2.932944670679e-05 2.544047090202e-05 0.0 
2.544047090202e-05 6.172099514306e-04 0.0 
0.0 0.0 0.0 
2.817085428937e-05 2.681517665771e-05 0.0 
2.681517665771e-05 6.812872752417e-04 0.0 
0.0 0.0 0.0 
2.984120407838e-05 2.257377750428e-05 0.0 
2.257377750428e-05 6.404975299320e-04 0.0 
0.0 0.0 0.0 
3.053473642678e-05 2.073377058668e-05 0.0 
2.073377058668e-05 5.768065916970e-04 0.0 
0.0 0.0 0.0 
3.068655378099e-05 1.821185545512e-05 0.0 
1.821185545512e-05 6.008280846905e-04 0.0 
0.0 0.0 0.0 
3.001615615217e-05 2.013422197986e-05 0.0 
2.013422197986e-05 6.648240290249e-04 0.0 
0.0 0.0 0.0 
3.060050357292e-05 1.604419244732e-05 0.0 
1.604419244732e-05 6.254148172331e-04 0.0 
0.0 0.0 0.0 
3.071680748031e-05 1.388837017329e-05 0.0 
1.388837017329e-05 5.620160330431e-04 0.0 
0.0 0.0 0.0 
3.049232374871e-05 1.217975614117e-05 0.0 
1.217975614117e-05 5.869396267839e-04 0.0 
0.0 0.0 0.0 
3.034367862220e-05 1.429519723246e-05 0.0 
1.429519723246e-05 6.507564867689e-04 0.0 
0.0 0.0 0.0 
3.015872882369e-05 1.076338588436e-05 0.0 
1.076338588436e-05 6.123350649631e-04 0.0 
0.0 0.0 0.0 
2.992786453400e-05 1.283132164824e-05 0.0 
1.283132164824e-05 6.765070893603e-04 0.0 
0.0 0.0 0.0 
2.972090376204e-05 8.554694188743e-06 0.0 
8.554694188743e-06 5.487615625481e-04 0.0 
0.0 0.0 0.0 
2.942037196985e-05 7.514467965071e-06 0.0 
7.514467965071e-06 5.744792378605e-04 0.0 
0.0 0.0 0.0 
2.837996467061e-05 5.353955141891e-06 0.0 
5.353955141891e-06 5.110545078157e-04 0.0 
0.0 0.0 0.0 
2.821093935549e-05 4.687653807488e-06 0.0 
4.687653807488e-06 5.372750458483e-04 0.0 
0.0 0.0 0.0 
-7.201708913107e-06 4.310686170877e-05 0.0 
4.310686170877e-05 8.615102111048e-04 0.0 
0.0 0.0 0.0 
2.662911191738e-05 2.665376302873e-06 0.0 
2.665376302873e-06 4.741480470692e-04 0.0 
0.0 0.0 0.0 
2.656260074918e-05 3.133817386511e-06 0.0 
3.133817386511e-06 4.486639385712e-04 0.0 
0.0 0.0 0.0 
2.663669045152e-05 2.328479831258e-06 0.0 
2.328479831258e-06 5.007116429689e-04 0.0 
0.0 0.0 0.0 
2.797421297029e-05 4.208798553832e-06 0.0 
4.208798553832e-06 5.641608580548e-04 0.0 
0.0 0.0 0.0 
2.454994895681e-05 4.836356473796e-07 0.0 
4.836356473796e-07 4.377961650430e-04 0.0 
0.0 0.0 0.0 
2.479351107184e-05 4.781450892861e-07 0.0 
4.781450892861e-07 4.646341282750e-04 0.0 
0.0 0.0 0.0 
2.220932078889e-05 -1.057150527008e-06 0.0 
-1.057150527008e-06 4.020404932185e-04 0.0 
0.0 0.0 0.0 
-6.484676741803e-06 4.761133887479e-05 0.0 
4.761133887479e-05 6.410309150458e-04 0.0 
0.0 0.0 0.0 
-1.995113024189e-05 2.987618158952e-05 0.0 
2.987618158952e-05 1.017346981698e-03 0.0 
0.0 0.0 0.0 
2.272667265391e-05 -7.929732014566e-07 0.0 
-7.929732014566e-07 4.290305856740e-04 0.0 
0.0 0.0 0.0 
1.974710065274e-05 -2.126899137745e-06 0.0 
-2.126899137745e-06 3.667145669454e-04 0.0 
0.0 0.0 0.0 
1.894167946200e-05 -2.454262069946e-06 0.0 
-2.454262069946e-06 3.398069977301e-04 0.0 
0.0 0.0 0.0 
1.632477174969e-05 -3.171145545092e-06 0.0 
-3.171145545092e-06 3.047348632167e-04 0.0 
0.0 0.0 0.0 
-1.945953894117e-05 1.018364404067e-05 0.0 
1.018364404067e-05 9.784472698648e-04 0.0 
0.0 0.0 0.0 
-1.836477972160e-05 1.280198466039e-05 0.0 
1.280198466039e-05 1.038733401713e-03 0.0 
0.0 0.0 0.0 
-1.819176566599e-05 1.024695090963e-05 0.0 
1.024695090963e-05 1.010781836932e-03 0.0 
0.0 0.0 0.0 
-1.684043481883e-05 1.256589268743e-05 0.0 
1.256589268743e-05 1.072859902271e-03 0.0 
0.0 0.0 0.0 
-1.676666845851e-05 1.019050964964e-05 0.0 
1.019050964964e-05 1.045856552108e-03 0.0 
0.0 0.0 0.0 
1.740685365929e-05 -2.766816496754e-06 0.0 
-2.766816496754e-06 3.315282277315e-04 0.0 
0.0 0.0 0.0 
-1.912755621619e-05 2.103948187767e-05 0.0 
2.103948187767e-05 1.079193739206e-03 0.0 
0.0 0.0 0.0 
-1.662580869346e-05 1.508704054812e-05 0.0 
1.508704054812e-05 1.099217313361e-03 0.0 
0.0 0.0 0.0 
-2.511293292649e-05 2.381239795261e-05 0.0 
2.381239795261e-05 8.444253946377e-04 0.0 
0.0 0.0 0.0 
-2.082539175160e-05 3.513616337838e-05 0.0 
3.513616337838e-05 7.522439162045e-04 0.0 
0.0 0.0 0.0 
1.354798087964e-05 4.205781491770e-05 0.0 
4.205781491770e-05 7.691581284864e-04 0.0 
0.0 0.0 0.0 
2.500917025505e-05 5.078576786527e-07 0.0 
5.078576786527e-07 4.916731895935e-04 0.0 
0.0 0.0 0.0 
2.320537314456e-05 -4.513446496420e-07 0.0 
-4.513446496420e-07 4.562158185279e-04 0.0 
0.0 0.0 0.0 
2.502768610798e-05 5.120669484831e-07 0.0 
5.120669484831e-07 5.190323623945e-04 0.0 
0.0 0.0 0.0 
2.960283709874e-05 1.627041877374e-05 0.0 
1.627041877374e-05 7.153236085250e-04 0.0 
0.0 0.0 0.0 
2.907593194523e-05 1.478205920047e-05 0.0 
1.478205920047e-05 7.411737474034e-04 0.0 
0.0 0.0 0.0 
2.830366652199e-05 1.815354506380e-05 0.0 
1.815354506380e-05 7.803321647131e-04 0.0 
0.0 0.0 0.0 
2.763973314831e-05 1.663449560720e-05 0.0 
1.663449560720e-05 8.061933339433e-04 0.0 
0.0 0.0 0.0 
2.646327577105e-05 1.994734172236e-05 0.0 
1.994734172236e-05 8.456505649774e-04 0.0 
0.0 0.0 0.0 
2.563610837033e-05 1.842520834778e-05 0.0 
1.842520834778e-05 8.715501775868e-04 0.0 
0.0 0.0 0.0 
2.678588198253e-05 1.524114431856e-05 0.0 
1.524114431856e-05 8.323967664782e-04 0.0 
0.0 0.0 0.0 
2.458046118374e-05 1.695227377238e-05 0.0 
1.695227377238e-05 8.978221450269e-04 0.0 
0.0 0.0 0.0 
2.576632920470e-05 1.393579700754e-05 0.0 
1.393579700754e-05 8.589184453689e-04 0.0 
0.0 0.0 0.0 
2.410155201408e-05 2.171024599619e-05 0.0 
2.171024599619e-05 9.112375128006e-04 0.0 
0.0 0.0 0.0 
2.483946299744e-05 2.330484646738e-05 0.0 
2.330484646738e-05 8.855981492191e-04 0.0 
0.0 0.0 0.0 
2.335583108544e-05 1.553158834825e-05 0.0 
1.553158834825e-05 9.243994366301e-04 0.0 
0.0 0.0 0.0 
2.461060190628e-05 1.270286984820e-05 0.0 
1.270286984820e-05 8.857404753880e-04 0.0 
0.0 0.0 0.0 
2.200593024434e-05 1.417331425094e-05 0.0 
1.417331425094e-05 9.513254715362e-04 0.0 
0.0 0.0 0.0 
2.335248560596e-05 1.145099014142e-05 0.0 
1.145099014142e-05 9.128414846468e-04 0.0 
0.0 0.0 0.0 
2.551655199068e-05 1.008518299915e-05 0.0 
1.008518299915e-05 8.474389575701e-04 0.0 
0.0 0.0 0.0 
2.439015822508e-05 8.992079053083e-06 0.0 
8.992079053083e-06 8.746417747418e-04 0.0 
0.0 0.0 0.0 
2.607925722405e-05 7.699367511780e-06 0.0 
7.699367511780e-06 8.097894565810e-04 0.0 
0.0 0.0 0.0 
1.671443390505e-05 3.968176887151e-05 0.0 
3.968176887151e-05 7.885103009725e-04 0.0 
0.0 0.0 0.0 
1.253709989080e-05 4.155429570949e-05 0.0 
4.155429570949e-05 8.324352407149e-04 0.0 
0.0 0.0 0.0 
1.538902573976e-05 3.958206467134e-05 0.0 
3.958206467134e-05 8.522013847070e-04 0.0 
0.0 0.0 0.0 
1.146815314657e-05 4.135688501658e-05 0.0 
4.135688501658e-05 8.957394850801e-04 0.0 
0.0 0.0 0.0 
1.397274586575e-05 3.974358790264e-05 0.0 
3.974358790264e-05 9.159528823273e-04 0.0 
0.0 0.0 0.0 
1.029114190731e-05 4.151234837819e-05 0.0 
4.151234837819e-05 9.590998875925e-04 0.0 
0.0 0.0 0.0 
1.239086582846e-05 4.024659580735e-05 0.0 
4.024659580735e-05 9.796637923237e-04 0.0 
0.0 0.0 0.0 
1.585608118526e-05 3.804887797875e-05 0.0 
3.804887797875e-05 9.369629612961e-04 0.0 
0.0 0.0 0.0 
-1.977426511211e-05 2.476934029023e-05 0.0 
2.476934029023e-05 1.066761781951e-03 0.0 
0.0 0.0 0.0 
1.647750419968e-05 4.487397214083e-05 0.0 
4.487397214083e-05 5.796215672429e-04 0.0 
0.0 0.0 0.0 
1.140267087370e-05 4.840230625090e-05 0.0 
4.840230625090e-05 5.636847658939e-04 0.0 
0.0 0.0 0.0 
1.752908536438e-05 4.600653841614e-05 0.0 
4.600653841614e-05 5.161058746342e-04 0.0 
0.0 0.0 0.0 
1.204020708082e-05 5.018828326342e-05 0.0 
5.018828326342e-05 5.011344088178e-04 0.0 
0.0 0.0 0.0 
1.865099319875e-05 4.705365615713e-05 0.0 
4.705365615713e-05 4.521476310911e-04 0.0 
0.0 0.0 0.0 
1.274818750633e-05 5.205520957755e-05 0.0 
5.205520957755e-05 4.383928012237e-04 0.0 
0.0 0.0 0.0 
1.977124737806e-05 4.780320507045e-05 0.0 
4.780320507045e-05 3.874674587215e-04 0.0 
0.0 0.0 0.0 
2.417016156468e-05 4.134843649219e-05 0.0 
4.134843649219e-05 4.035864959110e-04 0.0 
0.0 0.0 0.0 
2.501638148041e-05 4.030231113005e-05 0.0 
4.030231113005e-05 3.374659149896e-04 0.0 
0.0 0.0 0.0 
2.764799373378e-05 3.338364884030e-05 0.0 
3.338364884030e-05 3.567675892891e-04 0.0 
0.0 0.0 0.0 
2.716220518199e-05 3.025026553194e-05 0.0 
3.025026553194e-05 2.903231048137e-04 0.0 
0.0 0.0 0.0 
2.833312321511e-05 2.420985694924e-05 0.0 
2.420985694924e-05 3.125734654135e-04 0.0 
0.0 0.0 0.0 
-1.572915736540e-05 3.755780889576e-05 0.0 
3.755780889576e-05 9.240379256108e-04 0.0 
0.0 0.0 0.0 
7.637078464517e-06 4.263784039527e-05 0.0 
4.263784039527e-05 9.390872984591e-04 0.0 
0.0 0.0 0.0 
6.793454390882e-06 4.298103804952e-05 0.0 
4.298103804952e-05 1.002126070084e-03 0.0 
0.0 0.0 0.0 
4.128782974104e-06 4.353767245377e-05 0.0 
4.353767245377e-05 9.817038520422e-04 0.0 
0.0 0.0 0.0 
1.502744350468e-05 -3.622184817481e-06 0.0 
-3.622184817481e-06 2.779645277495e-04 0.0 
0.0 0.0 0.0 
2.203576152419e-05 1.014665781397e-05 0.0 
1.014665781397e-05 9.402286968316e-04 0.0 
0.0 0.0 0.0 
2.217028948022e-05 2.497825360687e-05 0.0 
2.497825360687e-05 9.514439260096e-04 0.0 
0.0 0.0 0.0 
2.278273400402e-05 2.660066492862e-05 0.0 
2.660066492862e-05 9.258651302505e-04 0.0 
0.0 0.0 0.0 
1.387870835893e-05 3.897950416979e-05 0.0 
3.897950416979e-05 1.001254078391e-03 0.0 
0.0 0.0 0.0 
1.386410078793e-05 -3.376284904937e-06 0.0 
-3.376284904937e-06 2.703512844734e-04 0.0 
0.0 0.0 0.0 
1.348381543061e-05 5.376620285387e-05 0.0 
5.376620285387e-05 3.754389700891e-04 0.0 
0.0 0.0 0.0 
5.162940228602e-06 5.554672560104e-05 0.0 
5.554672560104e-05 4.276250498662e-04 0.0 
0.0 0.0 0.0 
-1.511054164149e-05 1.225956889077e-05 0.0 
1.225956889077e-05 1.106912609574e-03 0.0 
0.0 0.0 0.0 
-1.513586962898e-05 1.010677979461e-05 0.0 
1.010677979461e-05 1.079782769920e-03 0.0 
0.0 0.0 0.0 
1.987726603640e-05 2.825041072015e-05 0.0 
2.825041072015e-05 9.921482120854e-04 0.0 
0.0 0.0 0.0 
1.519550694573e-05 -2.793111413658e-06 0.0 
-2.793111413658e-06 2.969088622842e-04 0.0 
0.0 0.0 0.0 
2.173364040666e-05 1.857658423608e-05 0.0 
1.857658423608e-05 9.635937207061e-04 0.0 
0.0 0.0 0.0 
2.521040373767e-05 3.780683769796e-05 0.0 
3.780683769796e-05 2.707816552190e-04 0.0 
0.0 0.0 0.0 
2.324984153179e-05 7.892274862562e-06 0.0 
7.892274862562e-06 9.021015545736e-04 0.0 
0.0 0.0 0.0 
2.061279597561e-05 8.803029735669e-06 0.0 
8.803029735669e-06 9.678196315310e-04 0.0 
0.0 0.0 0.0 
2.754126288592e-05 1.226020976363e-05 0.0 
1.226020976363e-05 7.938951688027e-04 0.0 
0.0 0.0 0.0 
3.697438332432e-06 4.415334722435e-05 0.0 
4.415334722435e-05 1.044692166753e-03 0.0 
0.0 0.0 0.0 
1.104577531201e-06 4.405796379882e-05 0.0 
4.405796379882e-05 1.023538223400e-03 0.0 
0.0 0.0 0.0 
2.895788961525e-05 2.756006492950e-05 0.0 
2.756006492950e-05 3.787184379338e-04 0.0 
0.0 0.0 0.0 
2.846029159864e-05 1.926884237727e-05 0.0 
1.926884237727e-05 3.367361709514e-04 0.0 
0.0 0.0 0.0 
2.593761720478e-05 1.504925492537e-05 0.0 
1.504925492537e-05 2.732080361384e-04 0.0 
0.0 0.0 0.0 
2.591971730714e-05 1.190890719834e-05 0.0 
1.190890719834e-05 2.992854440651e-04 0.0 
0.0 0.0 0.0 
2.867320697656e-05 1.576748682311e-05 0.0 
1.576748682311e-05 3.617987155166e-04 0.0 
0.0 0.0 0.0 
2.622934829170e-05 9.369059918070e-06 0.0 
9.369059918070e-06 3.228938139518e-04 0.0 
0.0 0.0 0.0 
2.223355746878e-05 5.551112910683e-06 0.0 
5.551112910683e-06 2.606312557866e-04 0.0 
0.0 0.0 0.0 
2.246072675686e-05 3.858099733192e-06 0.0 
3.858099733192e-06 2.857399240277e-04 0.0 
0.0 0.0 0.0 
2.636458139671e-05 7.330849144885e-06 0.0 
7.330849144885e-06 3.483532113821e-04 0.0 
0.0 0.0 0.0 
2.287158764898e-05 2.652950120834e-06 0.0 
2.652950120834e-06 3.114739419183e-04 0.0 
0.0 0.0 0.0 
1.795198108105e-05 -4.519891188135e-07 0.0 
-4.519891188135e-07 2.494313714500e-04 0.0 
0.0 0.0 0.0 
1.878268413143e-05 -8.769047926971e-07 0.0 
-8.769047926971e-07 2.753529841454e-04 0.0 
0.0 0.0 0.0 
1.892399058323e-05 1.122855931055e-05 0.0 
1.122855931055e-05 1.006103364729e-03 0.0 
0.0 0.0 0.0 
2.513937158192e-05 2.502830202011e-05 0.0 
2.502830202011e-05 2.241818635921e-04 0.0 
0.0 0.0 0.0 
-2.483825446992e-05 1.754264902236e-05 0.0 
1.754264902236e-05 8.924516739984e-04 0.0 
0.0 0.0 0.0 
1.899497777687e-05 2.673902366732e-05 0.0 
2.673902366732e-05 1.017414261685e-03 0.0 
0.0 0.0 0.0 
1.054239099296e-05 4.126128303919e-05 0.0 
4.126128303919e-05 1.042947289228e-03 0.0 
0.0 0.0 0.0 
-1.326095683359e-05 1.198239363723e-05 0.0 
1.198239363723e-05 1.141036995394e-03 0.0 
0.0 0.0 0.0 
-1.348001814235e-05 9.983066085026e-06 0.0 
9.983066085026e-06 1.113875852931e-03 0.0 
0.0 0.0 0.0 
-1.505267805631e-05 8.362388399117e-06 0.0 
8.362388399117e-06 1.052050600595e-03 0.0 
0.0 0.0 0.0 
-1.363673678295e-05 8.261215463776e-06 0.0 
8.261215463776e-06 1.086442650685e-03 0.0 
0.0 0.0 0.0 
-1.183706299390e-05 9.704959962156e-06 0.0 
9.704959962156e-06 1.148204903543e-03 0.0 
0.0 0.0 0.0 
-1.213198853948e-05 8.054945858233e-06 0.0 
8.054945858233e-06 1.120729664114e-03 0.0 
0.0 0.0 0.0 
-1.369674905590e-05 6.658314618133e-06 0.0 
6.658314618133e-06 1.058650740843e-03 0.0 
0.0 0.0 0.0 
-1.223708974009e-05 6.545165002777e-06 0.0 
6.545165002777e-06 1.092837155352e-03 0.0 
0.0 0.0 0.0 
-1.351077350790e-05 5.233909752106e-06 0.0 
5.233909752106e-06 1.030425801934e-03 0.0 
0.0 0.0 0.0 
-1.224618240544e-05 5.225282600936e-06 0.0 
5.225282600936e-06 1.064698399069e-03 0.0 
0.0 0.0 0.0 
-1.073962942246e-05 6.335039792498e-06 0.0 
6.335039792498e-06 1.127035697483e-03 0.0 
0.0 0.0 0.0 
-1.095199494859e-05 5.001398986932e-06 0.0 
5.001398986932e-06 1.099042744468e-03 0.0 
0.0 0.0 0.0 
-1.232333054681e-05 4.098284346925e-06 0.0 
4.098284346925e-06 1.036521390359e-03 0.0 
0.0 0.0 0.0 
-1.113162571394e-05 3.815886021484e-06 0.0 
3.815886021484e-06 1.070846061836e-03 0.0 
0.0 0.0 0.0 
-1.236210037505e-05 3.032971813125e-06 0.0 
3.032971813125e-06 1.008066848095e-03 0.0 
0.0 0.0 0.0 
-1.113217446896e-05 2.717125322127e-06 0.0 
2.717125322127e-06 1.042138005814e-03 0.0 
0.0 0.0 0.0 
-9.873719015618e-06 3.637020013294e-06 0.0 
3.637020013294e-06 1.105193615549e-03 0.0 
0.0 0.0 0.0 
1.194581064331e-05 -3.039949595919e-06 0.0 
-3.039949595919e-06 2.374412989857e-04 0.0 
0.0 0.0 0.0 
1.706731822567e-05 3.643838017052e-05 0.0 
3.643838017052e-05 9.588558759637e-04 0.0 
0.0 0.0 0.0 
1.457794804634e-05 3.782984601458e-05 0.0 
3.782984601458e-05 1.024207327741e-03 0.0 
0.0 0.0 0.0 
2.328826049917e-05 -6.569560028386e-07 0.0 
-6.569560028386e-07 4.854166710544e-04 0.0 
0.0 0.0 0.0 
2.519133788533e-05 3.019306768716e-07 0.0 
3.019306768716e-07 5.457398171037e-04 0.0 
0.0 0.0 0.0 
2.628266341805e-05 2.090012132137e-06 0.0 
2.090012132137e-06 5.821016149942e-04 0.0 
0.0 0.0 0.0 
2.632331063616e-05 1.895129707026e-06 0.0 
1.895129707026e-06 6.099470837589e-04 0.0 
0.0 0.0 0.0 
-1.006753769458e-05 2.551564683451e-06 0.0 
2.551564683451e-06 1.076204271109e-03 0.0 
0.0 0.0 0.0 
-8.867963529261e-06 3.435840808116e-06 0.0 
3.435840808116e-06 1.139619656369e-03 0.0 
0.0 0.0 0.0 
5.048727632462e-06 5.793377588693e-05 0.0 
5.793377588693e-05 3.675480684317e-04 0.0 
0.0 0.0 0.0 
-3.735565287285e-06 5.616852513977e-05 0.0 
5.616852513977e-05 4.197642610662e-04 0.0 
0.0 0.0 0.0 
-1.288380526360e-05 1.421471033416e-05 0.0 
1.421471033416e-05 1.167767686636e-03 0.0 
0.0 0.0 0.0 
2.195540761740e-05 6.610020517254e-06 0.0 
6.610020517254e-06 9.300967612651e-04 0.0 
0.0 0.0 0.0 
2.412439837999e-05 5.895076248157e-06 0.0 
5.895076248157e-06 8.646818325957e-04 0.0 
0.0 0.0 0.0 
-1.880604466096e-05 3.834157370445e-05 0.0 
3.834157370445e-05 7.129700278760e-04 0.0 
0.0 0.0 0.0 
-2.239178810311e-05 3.398483128389e-05 0.0 
3.398483128389e-05 6.957507537293e-04 0.0 
0.0 0.0 0.0 
-2.044751134365e-05 3.752063100224e-05 0.0 
3.752063100224e-05 6.564759604272e-04 0.0 
0.0 0.0 0.0 
-2.380338634110e-05 3.236176397416e-05 0.0 
3.236176397416e-05 6.385185521989e-04 0.0 
0.0 0.0 0.0 
-2.503267509509e-05 2.911012116959e-05 0.0 
2.911012116959e-05 6.773446738920e-04 0.0 
0.0 0.0 0.0 
-2.208932564994e-05 3.610934120520e-05 0.0 
3.610934120520e-05 5.989159736267e-04 0.0 
0.0 0.0 0.0 
2.527395070998e-05 2.504508574125e-05 0.0 
2.504508574125e-05 8.597762776074e-04 0.0 
0.0 0.0 0.0 
-9.281974880500e-06 5.941592727614e-06 0.0 
5.941592727614e-06 1.161361844133e-03 0.0 
0.0 0.0 0.0 
1.795665657526e-05 -2.650440422634e-06 0.0 
-2.650440422634e-06 3.132611463299e-04 0.0 
0.0 0.0 0.0 
1.365458092706e-05 -3.844594219698e-06 0.0 
-3.844594219698e-06 2.516785811998e-04 0.0 
0.0 0.0 0.0 
1.889890407888e-05 7.358788079223e-06 0.0 
7.358788079223e-06 9.960821294518e-04 0.0 
0.0 0.0 0.0 
1.918182894467e-05 3.551041097128e-05 0.0 
3.551041097128e-05 8.941582781428e-04 0.0 
0.0 0.0 0.0 
-1.695758259618e-05 3.579036429648e-05 0.0 
3.579036429648e-05 9.628873002236e-04 0.0 
0.0 0.0 0.0 
-1.393236312384e-05 3.842463991536e-05 0.0 
3.842463991536e-05 9.822763960192e-04 0.0 
0.0 0.0 0.0 
-1.498387932131e-05 3.702710453478e-05 0.0 
3.702710453478e-05 1.021339267474e-03 0.0 
0.0 0.0 0.0 
-1.206951796564e-05 3.951506702777e-05 0.0 
3.951506702777e-05 1.041066946020e-03 0.0 
0.0 0.0 0.0 
-1.290114923249e-05 3.844223286920e-05 0.0 
3.844223286920e-05 1.080294592972e-03 0.0 
0.0 0.0 0.0 
-1.019485003649e-05 4.083248293004e-05 0.0 
4.083248293004e-05 1.100157347935e-03 0.0 
0.0 0.0 0.0 
-9.123789184773e-06 4.161075313337e-05 0.0 
4.161075313337e-05 1.060767629708e-03 0.0 
0.0 0.0 0.0 
1.254974890286e-06 4.514295125908e-05 0.0 
4.514295125908e-05 1.086469175148e-03 0.0 
0.0 0.0 0.0 
-7.574467255670e-06 4.286440929153e-05 0.0 
4.286440929153e-05 1.120352396056e-03 0.0 
0.0 0.0 0.0 
-1.087682418797e-05 2.284696013766e-06 0.0 
2.284696013766e-06 1.012214165725e-03 0.0 
0.0 0.0 0.0 
4.515558297761e-06 4.354744022256e-05 0.0 
4.354744022256e-05 9.188689230939e-04 0.0 
0.0 0.0 0.0 
2.645770044914e-05 5.801010007979e-06 0.0 
5.801010007979e-06 3.743527548085e-04 0.0 
0.0 0.0 0.0 
9.985186789814e-06 -3.983568841333e-06 0.0 
-3.983568841333e-06 2.103061626737e-04 0.0 
0.0 0.0 0.0 
1.264328825161e-05 -3.095797879400e-06 0.0 
-3.095797879400e-06 2.126364765658e-04 0.0 
0.0 0.0 0.0 
1.317026313711e-05 -2.308553513013e-06 0.0 
-2.308553513013e-06 2.615880809878e-04 0.0 
0.0 0.0 0.0 
1.640173410189e-05 -1.955602798457e-06 0.0 
-1.955602798457e-06 3.235226325952e-04 0.0 
0.0 0.0 0.0 
1.649025500568e-05 3.010055100271e-05 0.0 
3.010055100271e-05 1.058340682068e-03 0.0 
0.0 0.0 0.0 
-1.076053070431e-05 4.012064602355e-05 0.0 
4.012064602355e-05 1.139501729002e-03 0.0 
0.0 0.0 0.0 
-1.319363773478e-05 3.752836296171e-05 0.0 
3.752836296171e-05 1.118503096161e-03 0.0 
0.0 0.0 0.0 
-2.574221826224e-05 2.692459855971e-05 0.0 
2.692459855971e-05 6.204441704949e-04 0.0 
0.0 0.0 0.0 
-2.646483996310e-05 2.358064056832e-05 0.0 
2.358064056832e-05 6.581675675542e-04 0.0 
0.0 0.0 0.0 
3.417434802514e-06 4.527782283585e-05 0.0 
4.527782283585e-05 1.107361356654e-03 0.0 
0.0 0.0 0.0 
-1.750912108034e-05 8.376925787703e-06 0.0 
8.376925787703e-06 9.841776057549e-04 0.0 
0.0 0.0 0.0 
-1.474747601360e-05 5.201094801469e-06 0.0 
5.201094801469e-06 9.963531084174e-04 0.0 
0.0 0.0 0.0 
-1.433615580713e-05 3.992461342797e-06 0.0 
3.992461342797e-06 9.675646807426e-04 0.0 
0.0 0.0 0.0 
9.945561275648e-06 -2.987459905368e-06 0.0 
-2.987459905368e-06 1.950660405296e-04 0.0 
0.0 0.0 0.0 
1.163491814378e-05 -2.725686365295e-06 0.0 
-2.725686365295e-06 1.893000779421e-04 0.0 
0.0 0.0 0.0 
-1.013400157177e-05 9.359878075727e-06 0.0 
9.359878075727e-06 1.182522204988e-03 0.0 
0.0 0.0 0.0 
-2.639381525837e-06 5.406266989925e-05 0.0 
5.406266989925e-05 4.772950847293e-04 0.0 
0.0 0.0 0.0 
-1.080503599623e-05 5.169768915726e-05 0.0 
5.169768915726e-05 4.680187362618e-04 0.0 
0.0 0.0 0.0 
2.356187390669e-05 3.274232917999e-05 0.0 
3.274232917999e-05 2.033893629436e-04 0.0 
0.0 0.0 0.0 
1.899963184667e-05 1.784859200286e-05 0.0 
1.784859200286e-05 1.590268316094e-04 0.0 
0.0 0.0 0.0 
-8.758288517781e-06 2.818087276967e-06 0.0 
2.818087276967e-06 1.109640449329e-03 0.0 
0.0 0.0 0.0 
-7.332636814517e-06 3.179194797543e-06 0.0 
3.179194797543e-06 1.172439957270e-03 0.0 
0.0 0.0 0.0 
2.719636971160e-05 3.264703978843e-06 0.0 
3.264703978843e-06 6.456910727400e-04 0.0 
0.0 0.0 0.0 
2.667765320974e-05 2.736939684996e-06 0.0 
2.736939684996e-06 6.734787157513e-04 0.0 
0.0 0.0 0.0 
1.732437926871e-05 3.154557566556e-05 0.0 
3.154557566556e-05 1.033506500688e-03 0.0 
0.0 0.0 0.0 
1.441117418644e-05 -3.133035422148e-06 0.0 
-3.133035422148e-06 2.398905362238e-04 0.0 
0.0 0.0 0.0 
-6.923713173105e-06 3.954008863049e-06 0.0 
3.954008863049e-06 1.202167659698e-03 0.0 
0.0 0.0 0.0 
2.008803275240e-05 3.361633276848e-05 0.0 
3.361633276848e-05 9.167744771063e-04 0.0 
0.0 0.0 0.0 
2.225470377311e-05 3.253997459196e-05 0.0 
3.253997459196e-05 8.516840925787e-04 0.0 
0.0 0.0 0.0 
2.566767664826e-05 1.272667218585e-06 0.0 
1.272667218585e-06 5.731274540591e-04 0.0 
0.0 0.0 0.0 
-5.275353930356e-06 5.813923614033e-05 0.0 
5.813923614033e-05 3.639733217252e-04 0.0 
0.0 0.0 0.0 
4.465067519536e-06 6.018199219381e-05 0.0 
6.018199219381e-05 3.084017007559e-04 0.0 
0.0 0.0 0.0 
2.886539920259e-05 1.061644150404e-05 0.0 
1.061644150404e-05 4.118596819387e-04 0.0 
0.0 0.0 0.0 
1.969959260032e-05 -1.055736225052e-06 0.0 
-1.055736225052e-06 3.016378283740e-04 0.0 
0.0 0.0 0.0 
1.444337266891e-05 -1.695354350896e-06 0.0 
-1.695354350896e-06 2.882094327913e-04 0.0 
0.0 0.0 0.0 
1.373387331945e-05 3.379433320652e-05 0.0 
3.379433320652e-05 1.099761059861e-03 0.0 
0.0 0.0 0.0 
-9.475209323317e-06 1.114399574547e-05 0.0 
1.114399574547e-05 1.209322895978e-03 0.0 
0.0 0.0 0.0 
-6.307482896040e-06 4.304047583722e-05 0.0 
4.304047583722e-05 1.080786402945e-03 0.0 
0.0 0.0 0.0 
-7.519040085761e-06 4.234594317829e-05 0.0 
4.234594317829e-05 1.020519349913e-03 0.0 
0.0 0.0 0.0 
-4.685819196289e-06 4.446863967720e-05 0.0 
4.446863967720e-05 1.141008346444e-03 0.0 
0.0 0.0 0.0 
8.341587415250e-06 -4.590851753823e-06 0.0 
-4.590851753823e-06 1.791365872601e-04 0.0 
0.0 0.0 0.0 
1.507358471942e-05 2.854547904134e-05 0.0 
2.854547904134e-05 1.084597775955e-03 0.0 
0.0 0.0 0.0 
2.032498378809e-05 5.175530356544e-06 0.0 
5.175530356544e-06 9.586982328288e-04 0.0 
0.0 0.0 0.0 
-1.099997598334e-05 3.965702168127e-05 0.0 
3.965702168127e-05 1.175573393946e-03 0.0 
0.0 0.0 0.0 
-1.287973116054e-05 3.682008136588e-05 0.0 
3.682008136588e-05 1.155971410549e-03 0.0 
0.0 0.0 0.0 
-9.137423074956e-06 5.058573511182e-05 0.0 
5.058573511182e-05 5.239848301722e-04 0.0 
0.0 0.0 0.0 
-1.607585436110e-05 4.618980025806e-05 0.0 
4.618980025806e-05 5.135978106313e-04 0.0 
0.0 0.0 0.0 
-1.792088945957e-05 4.578237924244e-05 0.0 
4.578237924244e-05 4.590853675785e-04 0.0 
0.0 0.0 0.0 
-2.129191512590e-05 4.004786736884e-05 0.0 
4.004786736884e-05 5.018089679928e-04 0.0 
0.0 0.0 0.0 
-2.405012332459e-05 1.362893273411e-05 0.0 
1.362893273411e-05 9.028280387553e-04 0.0 
0.0 0.0 0.0 
-1.421214160404e-05 4.610319192268e-05 0.0 
4.610319192268e-05 5.692373109095e-04 0.0 
0.0 0.0 0.0 
-2.547868110575e-05 1.853982241648e-05 0.0 
1.853982241648e-05 8.577190132670e-04 0.0 
0.0 0.0 0.0 
-2.557142800722e-05 1.498266681840e-05 0.0 
1.498266681840e-05 8.345748176817e-04 0.0 
0.0 0.0 0.0 
-2.614203181339e-05 1.599003971430e-05 0.0 
1.599003971430e-05 8.004238458794e-04 0.0 
0.0 0.0 0.0 
-2.581506670774e-05 2.596637578613e-05 0.0 
2.596637578613e-05 7.145046170921e-04 0.0 
0.0 0.0 0.0 
-2.672973350763e-05 2.085475680739e-05 0.0 
2.085475680739e-05 6.944760821775e-04 0.0 
0.0 0.0 0.0 
5.241296748578e-06 5.096421647310e-05 0.0 
5.096421647310e-05 5.491747766009e-04 0.0 
0.0 0.0 0.0 
9.060011209187e-06 4.332733025587e-05 0.0 
4.332733025587e-05 8.132813744411e-04 0.0 
0.0 0.0 0.0 
2.736445437901e-05 3.617539391888e-06 0.0 
3.617539391888e-06 6.184530964617e-04 0.0 
0.0 0.0 0.0 
2.703086310851e-05 8.604266546107e-06 0.0 
8.604266546107e-06 7.827705995348e-04 0.0 
0.0 0.0 0.0 
2.873424185249e-05 1.988349704153e-05 0.0 
1.988349704153e-05 7.547261257286e-04 0.0 
0.0 0.0 0.0 
-8.883762469029e-06 7.389529327820e-06 0.0 
7.389529327820e-06 1.188794624711e-03 0.0 
0.0 0.0 0.0 
-7.375655660983e-06 6.792937011759e-06 0.0 
6.792937011759e-06 1.223477974049e-03 0.0 
0.0 0.0 0.0 
-1.333440937449e-05 3.194941214204e-06 0.0 
3.194941214204e-06 9.736574042708e-04 0.0 
0.0 0.0 0.0 
-1.279536571432e-05 2.124026818380e-06 0.0 
2.124026818380e-06 9.445603970039e-04 0.0 
0.0 0.0 0.0 
1.068763806863e-05 -4.279271556851e-06 0.0 
-4.279271556851e-06 2.163810317648e-04 0.0 
0.0 0.0 0.0 
8.412527296405e-06 -4.302771649294e-06 0.0 
-4.302771649294e-06 1.905465909186e-04 0.0 
0.0 0.0 0.0 
2.936290449396e-05 1.158580236882e-05 0.0 
1.158580236882e-05 7.027181069536e-04 0.0 
0.0 0.0 0.0 
1.759853505345e-05 2.525793397021e-05 0.0 
2.525793397021e-05 1.042921871356e-03 0.0 
0.0 0.0 0.0 
-1.091966214173e-05 1.380711786205e-05 0.0 
1.380711786205e-05 1.201399164152e-03 0.0 
0.0 0.0 0.0 
-1.022607141014e-05 1.603622236012e-05 0.0 
1.603622236012e-05 1.227847551308e-03 0.0 
0.0 0.0 0.0 
-1.225197164588e-05 1.660622580699e-05 0.0 
1.660622580699e-05 1.193724133719e-03 0.0 
0.0 0.0 0.0 
1.466160114268e-05 3.498319111008e-05 0.0 
3.498319111008e-05 1.074462330746e-03 0.0 
0.0 0.0 0.0 
2.170720470189e-05 4.137145647773e-05 0.0 
4.137145647773e-05 5.333652428946e-04 0.0 
0.0 0.0 0.0 
1.920218115248e-05 3.722388630219e-05 0.0 
3.722388630219e-05 8.087276634634e-04 0.0 
0.0 0.0 0.0 
1.982380604615e-05 1.297513519362e-05 0.0 
1.297513519362e-05 1.837747818871e-04 0.0 
0.0 0.0 0.0 
-1.006999024587e-05 4.154592060432e-05 0.0 
4.154592060432e-05 9.024324599662e-04 0.0 
0.0 0.0 0.0 
5.759503970674e-06 -4.256923277058e-06 0.0 
-4.256923277058e-06 1.558877199471e-04 0.0 
0.0 0.0 0.0 
-1.945176058762e-05 2.884523092198e-05 0.0 
2.884523092198e-05 1.053480257541e-03 0.0 
0.0 0.0 0.0 
1.721463726441e-05 5.786199881291e-06 0.0 
5.786199881291e-06 1.024912540923e-03 0.0 
0.0 0.0 0.0 
1.533507719923e-05 8.114939018042e-06 0.0 
8.114939018042e-06 1.062095179331e-03 0.0 
0.0 0.0 0.0 
1.253411781828e-06 4.641615342144e-05 0.0 
4.641615342144e-05 1.147981284483e-03 0.0 
0.0 0.0 0.0 
-2.366670788316e-05 8.723661409097e-06 0.0 
8.723661409097e-06 8.205984091813e-04 0.0 
0.0 0.0 0.0 
-6.205545755885e-06 4.297816593946e-05 0.0 
4.297816593946e-05 9.205539816867e-04 0.0 
0.0 0.0 0.0 
-3.039563551207e-06 4.388760521605e-05 0.0 
4.388760521605e-05 8.792552224734e-04 0.0 
0.0 0.0 0.0 
-2.575231851478e-05 1.246702027214e-05 0.0 
1.246702027214e-05 7.771926376049e-04 0.0 
0.0 0.0 0.0 
-2.620253800129e-05 1.335486088214e-05 0.0 
1.335486088214e-05 7.436397050405e-04 0.0 
0.0 0.0 0.0 
-2.649578286137e-05 1.727857337543e-05 0.0 
1.727857337543e-05 7.659391886806e-04 0.0 
0.0 0.0 0.0 
-2.653606461681e-05 1.456549817147e-05 0.0 
1.456549817147e-05 7.093520984688e-04 0.0 
0.0 0.0 0.0 
2.880926874856e-05 8.760364852267e-06 0.0 
8.760364852267e-06 4.370920641494e-04 0.0 
0.0 0.0 0.0 
2.654070741137e-05 4.612140539083e-06 0.0 
4.612140539083e-06 3.998007955809e-04 0.0 
0.0 0.0 0.0 
-8.302635559065e-06 4.252320960260e-05 0.0 
4.252320960260e-05 1.203135682356e-03 0.0 
0.0 0.0 0.0 
-5.821626142636e-06 4.524062481234e-05 0.0 
4.524062481234e-05 1.179180274591e-03 0.0 
0.0 0.0 0.0 
-1.005675598568e-05 3.895599963268e-05 0.0 
3.895599963268e-05 1.213288339863e-03 0.0 
0.0 0.0 0.0 
-1.147413475568e-05 3.619707091206e-05 0.0 
3.619707091206e-05 1.194353332754e-03 0.0 
0.0 0.0 0.0 
3.374441519099e-06 4.682800837756e-05 0.0 
4.682800837756e-05 1.169142749438e-03 0.0 
0.0 0.0 0.0 
5.262111225609e-06 4.519295989999e-05 0.0 
4.519295989999e-05 1.127820649777e-03 0.0 
0.0 0.0 0.0 
1.710634504489e-05 -1.502379565208e-06 0.0 
-1.502379565208e-06 3.486137801924e-04 0.0 
0.0 0.0 0.0 
-2.672469483483e-05 1.801047545628e-05 0.0 
1.801047545628e-05 6.382207151063e-04 0.0 
0.0 0.0 0.0 
-7.321786531752e-06 1.054092244705e-05 0.0 
1.054092244705e-05 1.243543825070e-03 0.0 
0.0 0.0 0.0 
-2.513259200774e-05 1.176925127325e-05 0.0 
1.176925127325e-05 8.105642921751e-04 0.0 
0.0 0.0 0.0 
1.318674882415e-05 2.678815483713e-05 0.0 
2.678815483713e-05 1.108639397231e-03 0.0 
0.0 0.0 0.0 
1.603308553696e-05 2.366213895100e-05 0.0 
2.366213895100e-05 1.069365710102e-03 0.0 
0.0 0.0 0.0 
9.645424012383e-06 6.880990191990e-06 0.0 
6.880990191990e-06 1.216523994131e-04 0.0 
0.0 0.0 0.0 
1.129273706648e-05 3.071518032027e-06 0.0 
3.071518032027e-06 1.456121349776e-04 0.0 
0.0 0.0 0.0 
-5.647457416306e-06 3.364938192938e-06 0.0 
3.364938192938e-06 1.235901666600e-03 0.0 
0.0 0.0 0.0 
-2.259601584683e-05 3.718843862677e-05 0.0 
3.718843862677e-05 4.474034825796e-04 0.0 
0.0 0.0 0.0 
-2.441449035662e-05 3.179549718366e-05 0.0 
3.179549718366e-05 4.856493875263e-04 0.0 
0.0 0.0 0.0 
-1.974827174206e-05 4.372992469381e-05 0.0 
4.372992469381e-05 4.061269339127e-04 0.0 
0.0 0.0 0.0 
8.137241267396e-06 2.385203911626e-06 0.0 
2.385203911626e-06 1.160616631678e-03 0.0 
0.0 0.0 0.0 
-1.235697846954e-05 1.737065895294e-08 0.0 
1.737065895294e-08 8.212636152052e-04 0.0 
0.0 0.0 0.0 
1.361905259352e-05 6.342018053457e-06 0.0 
6.342018053457e-06 1.091456765291e-03 0.0 
0.0 0.0 0.0 
-2.613072348976e-05 2.343545968341e-05 0.0 
2.343545968341e-05 7.513022015597e-04 0.0 
0.0 0.0 0.0 
-4.710099144656e-06 4.573689153441e-06 0.0 
4.573689153441e-06 1.265564961119e-03 0.0 
0.0 0.0 0.0 
-2.465204928119e-06 4.367608152641e-05 0.0 
4.367608152641e-05 9.396744344604e-04 0.0 
0.0 0.0 0.0 
-1.600110666975e-05 4.205601469497e-05 0.0 
4.205601469497e-05 6.712382151281e-04 0.0 
0.0 0.0 0.0 
1.760290756266e-05 3.298862498597e-05 0.0 
3.298862498597e-05 1.008604610926e-03 0.0 
0.0 0.0 0.0 
-6.332397070168e-06 1.801768277476e-06 0.0 
1.801768277476e-06 1.202573538662e-03 0.0 
0.0 0.0 0.0 
-4.830442607887e-06 2.890002931049e-06 0.0 
2.890002931049e-06 1.271182808350e-03 0.0 
0.0 0.0 0.0 
-1.507460484203e-05 4.014727376284e-06 0.0 
4.014727376284e-06 9.333820005676e-04 0.0 
0.0 0.0 0.0 
-1.498273063973e-05 2.256390620883e-06 0.0 
2.256390620883e-06 9.026936888958e-04 0.0 
0.0 0.0 0.0 
-1.590483116396e-05 5.148334138815e-06 0.0 
5.148334138815e-06 9.604951739577e-04 0.0 
0.0 0.0 0.0 
2.166545365615e-05 4.642884634067e-05 0.0 
4.642884634067e-05 2.554159402862e-04 0.0 
0.0 0.0 0.0 
1.968616482584e-05 4.263741353240e-05 0.0 
4.263741353240e-05 1.831597124776e-04 0.0 
0.0 0.0 0.0 
-7.936079439330e-06 5.529161104926e-06 0.0 
5.529161104926e-06 1.195501401413e-03 0.0 
0.0 0.0 0.0 
2.113215649076e-05 -1.236592739702e-06 0.0 
-1.236592739702e-06 4.213215727539e-04 0.0 
0.0 0.0 0.0 
2.144750342034e-05 -2.546303009408e-07 0.0 
-2.546303009408e-07 4.551578371414e-04 0.0 
0.0 0.0 0.0 
1.580410291605e-05 -3.116064407185e-06 0.0 
-3.116064407185e-06 2.645715374108e-04 0.0 
0.0 0.0 0.0 
2.042886202776e-05 -1.264813525751e-06 0.0 
-1.264813525751e-06 3.259591717887e-04 0.0 
0.0 0.0 0.0 
2.766996458533e-05 5.000744411673e-06 0.0 
5.000744411673e-06 6.821205289711e-04 0.0 
0.0 0.0 0.0 
2.812890470801e-05 5.522118684095e-06 0.0 
5.522118684095e-06 6.550534358305e-04 0.0 
0.0 0.0 0.0 
-1.762219074066e-05 3.189584265444e-05 0.0 
3.189584265444e-05 1.075639211565e-03 0.0 
0.0 0.0 0.0 
-1.693659728828e-05 3.104782883614e-05 0.0 
3.104782883614e-05 1.111978128755e-03 0.0 
0.0 0.0 0.0 
-1.767230820062e-05 3.425095098790e-05 0.0 
3.425095098790e-05 1.001091796397e-03 0.0 
0.0 0.0 0.0 
2.289564108722e-05 3.036112780411e-05 0.0 
3.036112780411e-05 8.750101848974e-04 0.0 
0.0 0.0 0.0 
2.495667097790e-05 2.917387261287e-05 0.0 
2.917387261287e-05 8.098539093260e-04 0.0 
0.0 0.0 0.0 
2.412864816829e-05 3.159252665335e-05 0.0 
3.159252665335e-05 7.871906085026e-04 0.0 
0.0 0.0 0.0 
-6.911404198099e-06 8.234841091148e-06 0.0 
8.234841091148e-06 1.249147017165e-03 0.0 
0.0 0.0 0.0 
-5.019833580842e-06 7.831293795221e-06 0.0 
7.831293795221e-06 1.290450905638e-03 0.0 
0.0 0.0 0.0 
3.024046614830e-05 1.348942786639e-05 0.0 
1.348942786639e-05 4.750062689134e-04 0.0 
0.0 0.0 0.0 
3.022140757303e-05 1.601451186211e-05 0.0 
1.601451186211e-05 4.504157327642e-04 0.0 
0.0 0.0 0.0 
2.871118002027e-05 7.311543439369e-06 0.0 
7.311543439369e-06 4.616155800678e-04 0.0 
0.0 0.0 0.0 
-6.604859259888e-06 1.250320327485e-05 0.0 
1.250320327485e-05 1.270177751210e-03 0.0 
0.0 0.0 0.0 
1.125682508829e-05 9.259298450360e-06 0.0 
9.259298450360e-06 1.128088821321e-03 0.0 
0.0 0.0 0.0 
1.256090886063e-05 1.026483337388e-05 0.0 
1.026483337388e-05 1.099487314733e-03 0.0 
0.0 0.0 0.0 
2.617652198241e-06 -4.816326475546e-06 0.0 
-4.816326475546e-06 1.310921828136e-04 0.0 
0.0 0.0 0.0 
5.705322648875e-06 -4.930579701287e-06 0.0 
-4.930579701287e-06 1.646102385332e-04 0.0 
0.0 0.0 0.0 
-7.389643303120e-06 5.913788713971e-05 0.0 
5.913788713971e-05 3.101166590529e-04 0.0 
0.0 0.0 0.0 
3.906785319789e-06 6.062999465934e-05 0.0 
6.062999465934e-05 2.502301040013e-04 0.0 
0.0 0.0 0.0 
-9.265862621251e-06 1.850388030325e-05 0.0 
1.850388030325e-05 1.252184033776e-03 0.0 
0.0 0.0 0.0 
-1.147321920242e-05 1.926991271615e-05 0.0 
1.926991271615e-05 1.219810865287e-03 0.0 
0.0 0.0 0.0 
-6.755528421046e-06 1.783811611073e-05 0.0 
1.783811611073e-05 1.291304077068e-03 0.0 
0.0 0.0 0.0 
1.519178173108e-05 -7.890066657948e-07 0.0 
-7.890066657948e-07 3.092330308159e-04 0.0 
0.0 0.0 0.0 
-4.312663138328e-06 4.366153309504e-05 0.0 
4.366153309504e-05 1.041233833574e-03 0.0 
0.0 0.0 0.0 
1.086699980106e-05 3.738594027943e-05 0.0 
3.738594027943e-05 1.138445498339e-03 0.0 
0.0 0.0 0.0 
1.171845273569e-05 3.880782741583e-05 0.0 
3.880782741583e-05 1.114185090663e-03 0.0 
0.0 0.0 0.0 
9.157104046142e-06 3.639754272654e-05 0.0 
3.639754272654e-05 1.172557352904e-03 0.0 
0.0 0.0 0.0 
-8.451301125404e-07 4.561971705470e-05 0.0 
4.561971705470e-05 1.126020278040e-03 0.0 
0.0 0.0 0.0 
-7.828970821448e-07 4.708685245058e-05 0.0 
4.708685245058e-05 1.185516212456e-03 0.0 
0.0 0.0 0.0 
-3.487946434270e-06 4.655120299765e-05 0.0 
4.655120299765e-05 1.200720333559e-03 0.0 
0.0 0.0 0.0 
6.489134728190e-06 8.750777615409e-06 0.0 
8.750777615409e-06 9.722666795990e-05 0.0 
0.0 0.0 0.0 
-5.013614125915e-06 1.270124486249e-06 0.0 
1.270124486249e-06 1.249494953954e-03 0.0 
0.0 0.0 0.0 
-1.381221542449e-05 1.893778020409e-06 0.0 
1.893778020409e-06 9.072769690566e-04 0.0 
0.0 0.0 0.0 
-4.899977061146e-06 1.333341477459e-06 0.0 
1.333341477459e-06 7.341245305885e-05 0.0 
0.0 0.0 0.0 
-1.307599428030e-05 1.239580767760e-06 0.0 
1.239580767760e-06 8.784849914509e-04 0.0 
0.0 0.0 0.0 
-1.271887434934e-05 1.369295227868e-06 0.0 
1.369295227868e-06 9.150310352208e-04 0.0 
0.0 0.0 0.0 
-1.300649709507e-05 5.920053970434e-07 0.0 
5.920053970434e-07 8.458615938217e-04 0.0 
0.0 0.0 0.0 
1.224018960662e-05 -1.034407736197e-06 0.0 
-1.034407736197e-06 2.486863209193e-04 0.0 
0.0 0.0 0.0 
-1.622108758440e-05 3.105695788988e-06 0.0 
3.105695788988e-06 8.880603619329e-04 0.0 
0.0 0.0 0.0 
-1.701275604199e-05 4.611730377215e-06 0.0 
4.611730377215e-06 9.259262371063e-04 0.0 
0.0 0.0 0.0 
-5.953389632385e-07 -4.360171484913e-06 0.0 
-4.360171484913e-06 9.497625570384e-05 0.0 
0.0 0.0 0.0 
-4.495302997953e-06 1.187639784400e-05 0.0 
1.187639784400e-05 1.303390964832e-03 0.0 
0.0 0.0 0.0 
-3.075652098746e-07 -3.842004117688e-06 0.0 
-3.842004117688e-06 9.988044223678e-05 0.0 
0.0 0.0 0.0 
3.359248391936e-06 -3.489468564610e-06 0.0 
-3.489468564610e-06 1.231583633718e-04 0.0 
0.0 0.0 0.0 
1.235605360295e-05 2.574442757301e-05 0.0 
2.574442757301e-05 1.135571989623e-03 0.0 
0.0 0.0 0.0 
1.450603254353e-05 2.184580061269e-05 0.0 
2.184580061269e-05 1.095421649666e-03 0.0 
0.0 0.0 0.0 
9.761649434485e-06 2.334886315378e-05 0.0 
2.334886315378e-05 1.160187685276e-03 0.0 
0.0 0.0 0.0 
1.202417659048e-05 2.055966326318e-05 0.0 
2.055966326318e-05 1.119987024313e-03 0.0 
0.0 0.0 0.0 
1.671885006257e-05 1.858780424550e-05 0.0 
1.858780424550e-05 1.055570643930e-03 0.0 
0.0 0.0 0.0 
1.486404836367e-05 1.732651124673e-05 0.0 
1.732651124673e-05 1.083831463947e-03 0.0 
0.0 0.0 0.0 
-1.480697415335e-05 1.400305408973e-06 0.0 
1.400305408973e-06 8.714779345632e-04 0.0 
0.0 0.0 0.0 
9.771071520178e-06 1.942742635978e-05 0.0 
1.942742635978e-05 1.157708171962e-03 0.0 
0.0 0.0 0.0 
1.268555262901e-05 1.545496473462e-05 0.0 
1.545496473462e-05 1.113189102934e-03 0.0 
0.0 0.0 0.0 
7.309603335652e-06 1.711568638757e-05 0.0 
1.711568638757e-05 1.187590394846e-03 0.0 
0.0 0.0 0.0 
-2.571642704652e-05 1.047710892136e-05 0.0 
1.047710892136e-05 6.878331098834e-04 0.0 
0.0 0.0 0.0 
-2.370696737306e-05 3.467792366244e-05 0.0 
3.467792366244e-05 5.411504839877e-04 0.0 
0.0 0.0 0.0 
-2.578168416521e-05 2.694270291449e-05 0.0 
2.694270291449e-05 5.241967926856e-04 0.0 
0.0 0.0 0.0 
-2.437188357896e-05 2.262420339005e-05 0.0 
2.262420339005e-05 4.667009935342e-04 0.0 
0.0 0.0 0.0 
-7.748097541608e-06 3.902773185484e-05 0.0 
3.902773185484e-05 1.260335387714e-03 0.0 
0.0 0.0 0.0 
-1.057194184142e-05 3.582494049680e-05 0.0 
3.582494049680e-05 1.227789410447e-03 0.0 
0.0 0.0 0.0 
1.880664100107e-05 3.703331163731e-06 0.0 
3.703331163731e-06 9.894984864979e-04 0.0 
0.0 0.0 0.0 
2.151972604625e-05 3.335093448838e-06 0.0 
3.335093448838e-06 9.230059532544e-04 0.0 
0.0 0.0 0.0 
-1.294411365508e-05 9.658185466268e-07 0.0 
9.658185466268e-07 8.820429423984e-04 0.0 
0.0 0.0 0.0 
-1.246226798636e-05 3.573625814175e-07 0.0 
3.573625814175e-07 8.785280446933e-04 0.0 
0.0 0.0 0.0 
-1.216101452584e-05 1.750530990394e-06 0.0 
1.750530990394e-06 9.361390126748e-04 0.0 
0.0 0.0 0.0 
-1.193944458472e-05 5.369749097561e-07 0.0 
5.369749097561e-07 9.283667897209e-04 0.0 
0.0 0.0 0.0 
-1.148377018765e-05 1.841390965983e-06 0.0 
1.841390965983e-06 9.861010503025e-04 0.0 
0.0 0.0 0.0 
-1.098053374463e-05 3.974848113392e-07 0.0 
3.974848113392e-07 9.770946918509e-04 0.0 
0.0 0.0 0.0 
-1.021083617253e-05 5.192792358788e-07 0.0 
5.192792358788e-07 1.035768288547e-03 0.0 
0.0 0.0 0.0 
-4.044747185215e-06 4.750908928633e-05 0.0 
4.750908928633e-05 1.241482595905e-03 0.0 
0.0 0.0 0.0 
-2.240339472516e-05 3.322238571222e-05 0.0 
3.322238571222e-05 3.926772642686e-04 0.0 
0.0 0.0 0.0 
-2.490809485981e-05 9.158665409806e-06 0.0 
9.158665409806e-06 7.536654875724e-04 0.0 
0.0 0.0 0.0 
4.174591300754e-06 4.688017253339e-05 0.0 
4.688017253339e-05 1.189573240771e-03 0.0 
0.0 0.0 0.0 
5.941780850782e-06 4.478020333562e-05 0.0 
4.478020333562e-05 1.144632650016e-03 0.0 
0.0 0.0 0.0 
-2.669327929661e-05 1.606120264939e-05 0.0 
1.606120264939e-05 6.734919121199e-04 0.0 
0.0 0.0 0.0 
-2.600794586990e-05 1.304773135249e-05 0.0 
1.304773135249e-05 6.182606080645e-04 0.0 
0.0 0.0 0.0 
9.872309071441e-06 3.105992899963e-05 0.0 
3.105992899963e-05 1.159281563915e-03 0.0 
0.0 0.0 0.0 
-7.717855282382e-06 4.918383471810e-05 0.0 
4.918383471810e-05 5.813492685414e-04 0.0 
0.0 0.0 0.0 
-3.469681426409e-06 1.387548946952e-05 0.0 
1.387548946952e-05 1.337607718192e-03 0.0 
0.0 0.0 0.0 
-7.086948618211e-06 1.956765646676e-05 0.0 
1.956765646676e-05 4.916053937272e-05 0.0 
0.0 0.0 0.0 
1.208957048642e-05 2.838691230710e-05 0.0 
2.838691230710e-05 1.008970071021e-04 0.0 
0.0 0.0 0.0 
-1.241634109219e-05 4.563449038818e-05 0.0 
4.563449038818e-05 6.262855690345e-04 0.0 
0.0 0.0 0.0 
-2.669168322739e-05 1.884828977289e-05 0.0 
1.884828977289e-05 7.305970247401e-04 0.0 
0.0 0.0 0.0 
-2.473481896864e-05 3.022930319410e-05 0.0 
3.022930319410e-05 5.801906592258e-04 0.0 
0.0 0.0 0.0 
-2.554941932859e-05 2.358431685561e-05 0.0 
2.358431685561e-05 5.644929801915e-04 0.0 
0.0 0.0 0.0 
2.050028720809e-05 3.170700457373e-05 0.0 
3.170700457373e-05 9.413149554586e-04 0.0 
0.0 0.0 0.0 
4.042027949236e-06 -5.164620071060e-06 0.0 
-5.164620071060e-06 1.409690583969e-04 0.0 
0.0 0.0 0.0 
-1.521323644319e-05 5.159848280406e-05 0.0 
5.159848280406e-05 3.614613781548e-04 0.0 
0.0 0.0 0.0 
-1.023268107782e-05 2.458630942379e-06 0.0 
2.458630942379e-06 1.042879087756e-03 0.0 
0.0 0.0 0.0 
-1.651325699522e-05 4.911682559772e-05 0.0 
4.911682559772e-05 3.097840917338e-04 0.0 
0.0 0.0 0.0 
2.024192774760e-05 1.816239414354e-06 0.0 
1.816239414354e-06 9.574087256327e-04 0.0 
0.0 0.0 0.0 
-1.071373924818e-06 4.989185576636e-05 0.0 
4.989185576636e-05 5.958486927714e-04 0.0 
0.0 0.0 0.0 
-2.465090151264e-05 2.801313351390e-05 0.0 
2.801313351390e-05 7.711690454945e-04 0.0 
0.0 0.0 0.0 
-1.277712890583e-05 5.231922960298e-05 0.0 
5.231922960298e-05 4.138021523327e-04 0.0 
0.0 0.0 0.0 
-1.975225647965e-05 4.092746653555e-05 0.0 
4.092746653555e-05 5.578491452008e-04 0.0 
0.0 0.0 0.0 
-2.400502079780e-05 1.674226904105e-05 0.0 
1.674226904105e-05 9.268988350022e-04 0.0 
0.0 0.0 0.0 
-2.374922206840e-05 1.074740237369e-05 0.0 
1.074740237369e-05 8.782709280722e-04 0.0 
0.0 0.0 0.0 
-2.453659158047e-05 1.131073136339e-05 0.0 
1.131073136339e-05 8.447394603237e-04 0.0 
0.0 0.0 0.0 
5.228438376803e-06 4.893410090786e-05 0.0 
4.893410090786e-05 6.106589926836e-04 0.0 
0.0 0.0 0.0 
-2.641604364525e-05 2.064329480018e-05 0.0 
2.064329480018e-05 6.021667749227e-04 0.0 
0.0 0.0 0.0 
-2.516239882841e-05 1.615454616395e-05 0.0 
1.615454616395e-05 5.403762125166e-04 0.0 
0.0 0.0 0.0 
-2.486748406646e-05 2.227198566184e-05 0.0 
2.227198566184e-05 8.800565983184e-04 0.0 
0.0 0.0 0.0 
-1.430425218644e-05 1.726592935823e-05 0.0 
1.726592935823e-05 1.159597362674e-03 0.0 
0.0 0.0 0.0 
-1.365378090410e-05 1.998678303942e-05 0.0 
1.998678303942e-05 1.185049544684e-03 0.0 
0.0 0.0 0.0 
-1.045922290819e-05 2.185721021878e-05 0.0 
2.185721021878e-05 1.242712441212e-03 0.0 
0.0 0.0 0.0 
-1.275749390058e-05 2.265326570397e-05 0.0 
2.265326570397e-05 1.209775397709e-03 0.0 
0.0 0.0 0.0 
-1.564342416891e-05 2.037058467588e-05 0.0 
2.037058467588e-05 1.150596257712e-03 0.0 
0.0 0.0 0.0 
-1.464915573139e-05 2.304424587528e-05 0.0 
2.304424587528e-05 1.175147392655e-03 0.0 
0.0 0.0 0.0 
-1.133050229159e-05 2.564013102939e-05 0.0 
2.564013102939e-05 1.234116977163e-03 0.0 
0.0 0.0 0.0 
-1.314078708361e-05 2.623984080167e-05 0.0 
2.623984080167e-05 1.200786996846e-03 0.0 
0.0 0.0 0.0 
-9.143347400859e-06 2.865676220900e-05 0.0 
2.865676220900e-05 1.269648550947e-03 0.0 
0.0 0.0 0.0 
-1.185133586468e-05 2.905478141047e-05 0.0 
2.905478141047e-05 1.223835026693e-03 0.0 
0.0 0.0 0.0 
-1.525603118122e-05 2.690935182821e-05 0.0 
2.690935182821e-05 1.163249227871e-03 0.0 
0.0 0.0 0.0 
-1.422038372847e-05 2.984080474574e-05 0.0 
2.984080474574e-05 1.185159955731e-03 0.0 
0.0 0.0 0.0 
-1.092363278351e-05 3.217239220768e-05 0.0 
3.217239220768e-05 1.240569895550e-03 0.0 
0.0 0.0 0.0 
-1.715574986407e-05 2.734343394036e-05 0.0 
2.734343394036e-05 1.125855128851e-03 0.0 
0.0 0.0 0.0 
2.145526535158e-06 4.896357943986e-05 0.0 
4.896357943986e-05 1.229678700908e-03 0.0 
0.0 0.0 0.0 
-1.085493912336e-05 4.484567916711e-05 0.0 
4.484567916711e-05 6.854187736049e-04 0.0 
0.0 0.0 0.0 
1.719954607260e-05 2.358082186337e-05 0.0 
2.358082186337e-05 1.351312534800e-04 0.0 
0.0 0.0 0.0 
1.566646929527e-05 4.976037712554e-05 0.0 
4.976037712554e-05 1.518384575307e-04 0.0 
0.0 0.0 0.0 
-2.504627845927e-05 2.572862409340e-05 0.0 
2.572862409340e-05 8.081995988983e-04 0.0 
0.0 0.0 0.0 
-4.740487820583e-06 2.990727320850e-05 0.0 
2.990727320850e-05 1.330581273074e-03 0.0 
0.0 0.0 0.0 
-4.354924053633e-06 2.446458410219e-05 0.0 
2.446458410219e-05 1.337325410726e-03 0.0 
0.0 0.0 0.0 
5.232708054470e-06 5.321110875268e-05 0.0 
5.321110875268e-05 4.881634907195e-04 0.0 
0.0 0.0 0.0 
-3.872739431587e-06 4.265751786633e-05 0.0 
4.265751786633e-05 1.315622782036e-03 0.0 
0.0 0.0 0.0 
-2.489816358551e-05 1.421167322480e-05 0.0 
1.421167322480e-05 8.687446775569e-04 0.0 
0.0 0.0 0.0 
2.080294358645e-05 4.786419513810e-05 0.0 
4.786419513810e-05 3.222156767851e-04 0.0 
0.0 0.0 0.0 
-2.970777213451e-06 4.677965987010e-05 0.0 
4.677965987010e-05 1.305950088950e-03 0.0 
0.0 0.0 0.0 
-1.621307827587e-05 1.774110208906e-05 0.0 
1.774110208906e-05 1.125139232693e-03 0.0 
0.0 0.0 0.0 
-1.803068744795e-05 1.789637760813e-05 0.0 
1.789637760813e-05 1.090007979189e-03 0.0 
0.0 0.0 0.0 
-1.828786348261e-05 1.532676254336e-05 0.0 
1.532676254336e-05 1.064552256109e-03 0.0 
0.0 0.0 0.0 
-3.370407118379e-06 1.987129786054e-05 0.0 
1.987129786054e-05 1.343661359729e-03 0.0 
0.0 0.0 0.0 
-1.646551097515e-05 6.635872687287e-06 0.0 
6.635872687287e-06 9.894518653845e-04 0.0 
0.0 0.0 0.0 
-5.994787198686e-07 5.134408818440e-05 0.0 
5.134408818440e-05 1.284191529003e-03 0.0 
0.0 0.0 0.0 
8.382020749746e-06 4.278348964890e-05 0.0 
4.278348964890e-05 8.761118777764e-04 0.0 
0.0 0.0 0.0 
4.780683880360e-06 4.392960294546e-05 0.0 
4.392960294546e-05 8.564577682475e-04 0.0 
0.0 0.0 0.0 
4.992020235665e-06 4.472772057669e-05 0.0 
4.472772057669e-05 7.945620867161e-04 0.0 
0.0 0.0 0.0 
-1.646901106432e-05 2.359537756397e-05 0.0 
2.359537756397e-05 1.139303084381e-03 0.0 
0.0 0.0 0.0 
2.563573764158e-06 4.876226322538e-05 0.0 
4.876226322538e-05 1.254347258798e-03 0.0 
0.0 0.0 0.0 
5.367491640632e-06 4.527929604187e-05 0.0 
4.527929604187e-05 1.197722460246e-03 0.0 
0.0 0.0 0.0 
6.527662161730e-06 4.324421696748e-05 0.0 
4.324421696748e-05 1.191746956705e-03 0.0 
0.0 0.0 0.0 
8.153012384802e-06 4.238649990414e-05 0.0 
4.238649990414e-05 1.136143145485e-03 0.0 
0.0 0.0 0.0 
3.907154649004e-06 4.476589485662e-05 0.0 
4.476589485662e-05 1.243520905610e-03 0.0 
0.0 0.0 0.0 
-4.121691716559e-06 3.514242770356e-05 0.0 
3.514242770356e-05 1.330306667699e-03 0.0 
0.0 0.0 0.0 
-3.965484814294e-06 3.780598622325e-05 0.0 
3.780598622325e-05 1.328328057856e-03 0.0 
0.0 0.0 0.0 
2.883836154836e-05 1.292996440913e-05 0.0 
1.292996440913e-05 3.865435924157e-04 0.0 
0.0 0.0 0.0 
3.003825224076e-05 1.908164826338e-05 0.0 
1.908164826338e-05 4.262364547899e-04 0.0 
0.0 0.0 0.0 
3.039142998148e-05 2.170528144631e-05 0.0 
2.170528144631e-05 4.902902611509e-04 0.0 
0.0 0.0 0.0 
2.978941425084e-05 2.544461783731e-05 0.0 
2.544461783731e-05 4.671359302569e-04 0.0 
0.0 0.0 0.0 
2.965110899526e-05 2.283412930882e-05 0.0 
2.283412930882e-05 4.021290836019e-04 0.0 
0.0 0.0 0.0 
2.873058905169e-05 2.994631077788e-05 0.0 
2.994631077788e-05 4.444595869202e-04 0.0 
0.0 0.0 0.0 
2.795320595787e-05 3.148161407361e-05 0.0 
3.148161407361e-05 5.092729325628e-04 0.0 
0.0 0.0 0.0 
2.698058163360e-05 3.524651844128e-05 0.0 
3.524651844128e-05 4.228724271670e-04 0.0 
0.0 0.0 0.0 
-1.387851160933e-05 3.317175038822e-05 0.0 
3.317175038822e-05 1.170843883236e-03 0.0 
0.0 0.0 0.0 
4.440488141892e-06 4.002424042154e-05 0.0 
4.002424042154e-05 1.235891907059e-03 0.0 
0.0 0.0 0.0 
2.704212381503e-05 2.162694082262e-05 0.0 
2.162694082262e-05 8.199853849912e-04 0.0 
0.0 0.0 0.0 
2.729304724088e-05 2.348643573450e-05 0.0 
2.348643573450e-05 7.942466719223e-04 0.0 
0.0 0.0 0.0 
2.888080387142e-05 2.189549930830e-05 0.0 
2.189549930830e-05 7.293484755518e-04 0.0 
0.0 0.0 0.0 
2.766682759507e-05 3.839923727551e-06 0.0 
3.839923727551e-06 5.913398839974e-04 0.0 
0.0 0.0 0.0 
2.860722277143e-05 6.063325596758e-06 0.0 
6.063325596758e-06 6.280123793286e-04 0.0 
0.0 0.0 0.0 
2.858336537048e-05 7.844066613083e-06 0.0 
7.844066613083e-06 6.920158161102e-04 0.0 
0.0 0.0 0.0 
2.640279683497e-05 2.012874012462e-06 0.0 
2.012874012462e-06 5.550479837914e-04 0.0 
0.0 0.0 0.0 
-1.072434960999e-05 4.061689629868e-05 0.0 
4.061689629868e-05 1.001339238751e-03 0.0 
0.0 0.0 0.0 
4.708836856696e-06 3.687996705906e-05 0.0 
3.687996705906e-05 1.231021764116e-03 0.0 
0.0 0.0 0.0 
2.104712414264e-05 3.481852132829e-05 0.0 
3.481852132829e-05 8.297572141699e-04 0.0 
0.0 0.0 0.0 
2.905133684724e-05 6.716737430953e-06 0.0 
6.716737430953e-06 6.010119730421e-04 0.0 
0.0 0.0 0.0 
-1.912821571221e-05 3.225244461027e-06 0.0 
3.225244461027e-06 8.264065571896e-04 0.0 
0.0 0.0 0.0 
-1.928396980544e-05 5.821476345441e-06 0.0 
5.821476345441e-06 8.811524423789e-04 0.0 
0.0 0.0 0.0 
-2.057654817154e-05 6.158259843325e-06 0.0 
6.158259843325e-06 8.817622443339e-04 0.0 
0.0 0.0 0.0 
-1.892854398631e-05 7.662371953266e-06 0.0 
7.662371953266e-06 9.407431935981e-04 0.0 
0.0 0.0 0.0 
-1.808720829103e-05 4.061641817905e-06 0.0 
4.061641817905e-06 8.869685974100e-04 0.0 
0.0 0.0 0.0 
2.705690599007e-05 4.458239306831e-06 0.0 
4.458239306831e-06 7.094615908229e-04 0.0 
0.0 0.0 0.0 
2.643622427745e-05 3.899335820129e-06 0.0 
3.899335820129e-06 7.369356850937e-04 0.0 
0.0 0.0 0.0 
2.632691872277e-05 2.596695023433e-06 0.0 
2.596695023433e-06 7.013039796784e-04 0.0 
0.0 0.0 0.0 
2.589470935525e-05 3.214952271415e-06 0.0 
3.214952271415e-06 7.644591075352e-04 0.0 
0.0 0.0 0.0 
2.614435779280e-05 1.725699806994e-06 0.0 
1.725699806994e-06 7.274205037985e-04 0.0 
0.0 0.0 0.0 
2.641150985960e-05 1.224193017010e-06 0.0 
1.224193017010e-06 6.689116626726e-04 0.0 
0.0 0.0 0.0 
2.548828832934e-05 2.207425772358e-06 0.0 
2.207425772358e-06 7.908616339733e-04 0.0 
0.0 0.0 0.0 
2.567310992171e-05 1.435159642808e-06 0.0 
1.435159642808e-06 7.497902212259e-04 0.0 
0.0 0.0 0.0 
-1.697692592328e-05 1.793304850710e-06 0.0 
1.793304850710e-06 8.256090733424e-04 0.0 
0.0 0.0 0.0 
-1.567514718367e-05 -3.291176752146e-06 0.0 
-3.291176752146e-06 4.601734721199e-05 0.0 
0.0 0.0 0.0 
-3.613923161283e-06 -3.217201778933e-06 0.0 
-3.217201778933e-06 9.036898395431e-05 0.0 
0.0 0.0 0.0 
-4.065035685878e-06 -4.475835584940e-06 0.0 
-4.475835584940e-06 8.869408043792e-05 0.0 
0.0 0.0 0.0 
4.980285710795e-06 -3.101762647103e-06 0.0 
-3.101762647103e-06 1.378309655489e-04 0.0 
0.0 0.0 0.0 
7.489571777430e-06 4.778252647274e-08 0.0 
4.778252647274e-08 1.415419410674e-04 0.0 
0.0 0.0 0.0 
1.502765466704e-05 1.281604311585e-06 0.0 
1.281604311585e-06 1.951867816774e-04 0.0 
0.0 0.0 0.0 
1.622131788346e-05 3.534375872395e-06 0.0 
3.534375872395e-06 1.876966692484e-04 0.0 
0.0 0.0 0.0 
-2.200795870488e-06 -2.309822650912e-06 0.0 
-2.309822650912e-06 9.032453488641e-05 0.0 
0.0 0.0 0.0 
-1.301799266116e-05 -3.281964563292e-06 0.0 
-3.281964563292e-06 4.441946019969e-05 0.0 
0.0 0.0 0.0 
-3.387627301861e-06 -4.490425154816e-06 0.0 
-4.490425154816e-06 8.828450809643e-05 0.0 
0.0 0.0 0.0 
-1.098797795736e-05 -3.029709742751e-06 0.0 
-3.029709742751e-06 4.305191381008e-05 0.0 
0.0 0.0 0.0 
-2.826510093719e-06 -4.746923769553e-06 0.0 
-4.746923769553e-06 8.630644531182e-05 0.0 
0.0 0.0 0.0 
5.122647458666e-06 -4.460606825900e-06 0.0 
-4.460606825900e-06 1.446678271292e-04 0.0 
0.0 0.0 0.0 
1.192433422796e-05 -4.169684468598e-06 0.0 
-4.169684468598e-06 2.270012000800e-04 0.0 
0.0 0.0 0.0 
5.125797227556e-06 1.014823524597e-05 0.0 
1.014823524597e-05 1.200020981698e-03 0.0 
0.0 0.0 0.0 
2.445951953693e-05 2.828705107356e-07 0.0 
2.828705107356e-07 5.717241673684e-04 0.0 
0.0 0.0 0.0 
2.365102411469e-05 5.697541011060e-07 0.0 
5.697541011060e-07 5.414437115068e-04 0.0 
0.0 0.0 0.0 
2.260053372668e-05 1.420211504402e-07 0.0 
1.420211504402e-07 4.807661068201e-04 0.0 
0.0 0.0 0.0 
2.331996012247e-05 -1.324258405964e-07 0.0 
-1.324258405964e-07 5.136137646691e-04 0.0 
0.0 0.0 0.0 
2.472188464742e-05 1.009451383693e-06 0.0 
1.009451383693e-06 5.970703263725e-04 0.0 
0.0 0.0 0.0 
2.130946549783e-05 5.473264973270e-08 0.0 
5.473264973270e-08 4.475169924714e-04 0.0 
0.0 0.0 0.0 
2.054213174936e-05 -8.514621971730e-08 0.0 
-8.514621971730e-08 4.251690328293e-04 0.0 
0.0 0.0 0.0 
1.573743839060e-06 -6.006872636186e-07 0.0 
-6.006872636186e-07 3.818263511068e-05 0.0 
0.0 0.0 0.0 
4.189176875761e-06 -1.749641879003e-06 0.0 
-1.749641879003e-06 8.519692500593e-05 0.0 
0.0 0.0 0.0 
2.657057959020e-06 -9.131135689477e-07 0.0 
-9.131135689477e-07 8.038650697327e-05 0.0 
0.0 0.0 0.0 
5.910829185403e-06 -9.689197372736e-07 0.0 
-9.689197372736e-07 1.383209513254e-04 0.0 
0.0 0.0 0.0 
6.546053886058e-06 -2.020334941378e-06 0.0 
-2.020334941378e-06 1.369806287849e-04 0.0 
0.0 0.0 0.0 
4.116624581182e-06 -1.642689745878e-06 0.0 
-1.642689745878e-06 8.590052769712e-05 0.0 
0.0 0.0 0.0 
3.413558272751e-06 -1.702266417142e-06 0.0 
-1.702266417142e-06 8.630941500902e-05 0.0 
0.0 0.0 0.0 
1.437839815543e-07 -1.473741890681e-06 0.0 
-1.473741890681e-06 3.859285595583e-05 0.0 
0.0 0.0 0.0 
3.309191781597e-06 -2.366431796459e-06 0.0 
-2.366431796459e-06 8.623644700415e-05 0.0 
0.0 0.0 0.0 
6.372587995333e-06 -2.470601842639e-06 0.0 
-2.470601842639e-06 1.396943217049e-04 0.0 
0.0 0.0 0.0 
-4.558836342687e-07 -1.948508242015e-06 0.0 
-1.948508242015e-06 3.732728524064e-05 0.0 
0.0 0.0 0.0 
-8.494926523513e-06 -1.513487078765e-08 0.0 
-1.513487078765e-08 1.118756682335e-03 0.0 
0.0 0.0 0.0 
-7.917401441848e-06 8.646280978964e-07 0.0 
8.646280978964e-07 1.152932552248e-03 0.0 
0.0 0.0 0.0 
5.108687347747e-06 3.107252648371e-05 0.0 
3.107252648371e-05 1.220304385399e-03 0.0 
0.0 0.0 0.0 
-1.515434986737e-05 8.244655316200e-07 0.0 
8.244655316200e-07 8.322856728124e-04 0.0 
0.0 0.0 0.0 
-7.151504893887e-06 -2.528473379555e-06 0.0 
-2.528473379555e-06 4.223167299859e-05 0.0 
0.0 0.0 0.0 
-2.695176771682e-06 5.030754503201e-06 0.0 
5.030754503201e-06 1.337013916067e-03 0.0 
0.0 0.0 0.0 
-2.449705821121e-06 8.921315973955e-06 0.0 
8.921315973955e-06 1.346095817818e-03 0.0 
0.0 0.0 0.0 
-1.992109767442e-06 8.032446696497e-06 0.0 
8.032446696497e-06 1.347538091703e-03 0.0 
0.0 0.0 0.0 
1.298356753284e-05 2.339061545905e-06 0.0 
2.339061545905e-06 1.092918790269e-03 0.0 
0.0 0.0 0.0 
1.117541553830e-05 4.430718586205e-06 0.0 
4.430718586205e-06 1.126509930105e-03 0.0 
0.0 0.0 0.0 
-2.552115206532e-06 2.987442176816e-06 0.0 
2.987442176816e-06 1.339084240836e-03 0.0 
0.0 0.0 0.0 
2.163528548145e-05 -1.245009633435e-06 0.0 
-1.245009633435e-06 3.751783724455e-04 0.0 
0.0 0.0 0.0 
-9.117806926306e-06 2.495825919927e-05 0.0 
2.495825919927e-05 1.266765701339e-03 0.0 
0.0 0.0 0.0 
-6.574603365210e-06 5.161123268770e-06 0.0 
5.161123268770e-06 1.229732344375e-03 0.0 
0.0 0.0 0.0 
1.433639395765e-05 5.516105877168e-05 0.0 
5.516105877168e-05 3.125391399317e-04 0.0 
0.0 0.0 0.0 
2.368930092426e-05 1.267731168804e-06 0.0 
1.267731168804e-06 3.630605993503e-04 0.0 
0.0 0.0 0.0 
2.297212374669e-05 4.630075481547e-06 0.0 
4.630075481547e-06 8.930406045188e-04 0.0 
0.0 0.0 0.0 
2.658302672002e-05 1.116552704205e-05 0.0 
1.116552704205e-05 8.205987183437e-04 0.0 
0.0 0.0 0.0 
1.704599985738e-05 9.694449368463e-06 0.0 
9.694449368463e-06 1.033627859350e-03 0.0 
0.0 0.0 0.0 
2.508282598353e-05 6.810003608814e-06 0.0 
6.810003608814e-06 8.371444056229e-04 0.0 
0.0 0.0 0.0 
2.051951995996e-05 1.274923544604e-05 0.0 
1.274923544604e-05 9.786051734167e-04 0.0 
0.0 0.0 0.0 
7.769177815055e-06 4.150499508590e-05 0.0 
4.150499508590e-05 1.181104066909e-03 0.0 
0.0 0.0 0.0 
1.153716519076e-05 -2.076682359588e-06 0.0 
-2.076682359588e-06 2.281649678309e-04 0.0 
0.0 0.0 0.0 
-1.333874119062e-05 4.174811965833e-06 0.0 
4.174811965833e-06 1.001840808405e-03 0.0 
0.0 0.0 0.0 
-1.210539342561e-05 2.311094595472e-06 0.0 
2.311094595472e-06 9.790671736365e-04 0.0 
0.0 0.0 0.0 
-9.632222652267e-06 4.712432937888e-06 0.0 
4.712432937888e-06 1.133404198857e-03 0.0 
0.0 0.0 0.0 
2.035899962982e-05 -1.734528218928e-06 0.0 
-1.734528218928e-06 3.937420827890e-04 0.0 
0.0 0.0 0.0 
2.630013799535e-05 1.490517846130e-06 0.0 
1.490517846130e-06 6.400570974375e-04 0.0 
0.0 0.0 0.0 
1.219432838499e-05 -4.014036997792e-06 0.0 
-4.014036997792e-06 2.434905931235e-04 0.0 
0.0 0.0 0.0 
-5.842771728641e-06 4.382289244814e-05 0.0 
4.382289244814e-05 1.260232838438e-03 0.0 
0.0 0.0 0.0 
-2.592659234942e-05 1.980856138794e-05 0.0 
1.980856138794e-05 8.228406813341e-04 0.0 
0.0 0.0 0.0 
2.992617579112e-05 1.804145272324e-05 0.0 
1.804145272324e-05 6.898155189151e-04 0.0 
0.0 0.0 0.0 
2.658446367783e-05 2.131037726420e-06 0.0 
2.131037726420e-06 5.277644275732e-04 0.0 
0.0 0.0 0.0 
2.424620466253e-05 6.033105303794e-07 0.0 
6.033105303794e-07 4.115411579695e-04 0.0 
0.0 0.0 0.0 
2.328365900646e-05 1.859802764337e-06 0.0 
1.859802764337e-06 3.377211903718e-04 0.0 
0.0 0.0 0.0 
-1.438463848819e-05 4.188820267424e-05 0.0 
4.188820267424e-05 7.287259354862e-04 0.0 
0.0 0.0 0.0 
2.972525587637e-05 9.607206305392e-06 0.0 
9.607206305392e-06 6.384170671055e-04 0.0 
0.0 0.0 0.0 
2.304412317433e-05 2.017797114925e-05 0.0 
2.017797114925e-05 9.372117141712e-04 0.0 
0.0 0.0 0.0 
-8.410192334866e-06 4.359249258498e-06 0.0 
4.359249258498e-06 1.167798798673e-03 0.0 
0.0 0.0 0.0 
-5.954260883202e-06 -1.961748525641e-06 0.0 
-1.961748525641e-06 4.675006254806e-05 0.0 
0.0 0.0 0.0 
2.119727657305e-05 2.348819387579e-05 0.0 
2.348819387579e-05 9.770310072382e-04 0.0 
0.0 0.0 0.0 
2.837634293555e-05 1.345400926837e-05 0.0 
1.345400926837e-05 7.673718291192e-04 0.0 
0.0 0.0 0.0 
-1.509694115037e-05 6.788199544057e-06 0.0 
6.788199544057e-06 1.024352748348e-03 0.0 
0.0 0.0 0.0 
8.946059241251e-06 4.210502063111e-05 0.0 
4.210502063111e-05 1.022404350102e-03 0.0 
0.0 0.0 0.0 
1.711827374210e-05 3.431620769125e-07 0.0 
3.431620769125e-07 2.259593165747e-04 0.0 
0.0 0.0 0.0 
-1.051944977100e-05 7.818616168887e-06 0.0 
7.818616168887e-06 1.154883134776e-03 0.0 
0.0 0.0 0.0 
-8.343806927880e-06 1.542363149857e-05 0.0 
1.542363149857e-05 1.259096909875e-03 0.0 
0.0 0.0 0.0 
-1.746604903154e-05 5.977768200690e-06 0.0 
5.977768200690e-06 9.548406677139e-04 0.0 
0.0 0.0 0.0 
8.019447525524e-06 -4.125613538730e-06 0.0 
-4.125613538730e-06 1.823069833477e-04 0.0 
0.0 0.0 0.0 
-1.442026441765e-05 2.952966180175e-06 0.0 
2.952966180175e-06 9.379599856832e-04 0.0 
0.0 0.0 0.0 
1.213456663459e-05 3.215334094834e-05 0.0 
3.215334094834e-05 1.124663432693e-03 0.0 
0.0 0.0 0.0 
-1.483072494636e-05 1.467700411971e-05 0.0 
1.467700411971e-05 1.133521987439e-03 0.0 
0.0 0.0 0.0 
1.841413263041e-05 -2.264466823451e-06 0.0 
-2.264466823451e-06 3.585316372223e-04 0.0 
0.0 0.0 0.0 
2.069282846114e-05 3.709376746175e-05 0.0 
3.709376746175e-05 7.447523469059e-04 0.0 
0.0 0.0 0.0 
-2.226942551398e-05 3.228535875163e-05 0.0 
3.228535875163e-05 7.905371011104e-04 0.0 
0.0 0.0 0.0 
-2.285697573619e-05 5.833070711344e-06 0.0 
5.833070711344e-06 7.631774773385e-04 0.0 
0.0 0.0 0.0 
-6.139820549145e-06 6.499776233214e-06 0.0 
6.499776233214e-06 1.255840908953e-03 0.0 
0.0 0.0 0.0 
-3.704175261077e-06 4.441797763602e-05 0.0 
4.441797763602e-05 8.196002091961e-04 0.0 
0.0 0.0 0.0 
1.144651553179e-05 4.047217878386e-05 0.0 
4.047217878386e-05 1.066157400715e-03 0.0 
0.0 0.0 0.0 
1.760694955340e-05 3.751762477881e-05 0.0 
3.751762477881e-05 8.727730865652e-04 0.0 
0.0 0.0 0.0 
1.924861679903e-05 -1.500584292716e-06 0.0 
-1.500584292716e-06 3.861613657914e-04 0.0 
0.0 0.0 0.0 
1.826136974089e-05 2.011035598680e-05 0.0 
2.011035598680e-05 1.029681457472e-03 0.0 
0.0 0.0 0.0 
9.679920918604e-06 4.421986197898e-05 0.0 
4.421986197898e-05 7.507121250656e-04 0.0 
0.0 0.0 0.0 
-8.410113891836e-06 8.966280832598e-06 0.0 
8.966280832598e-06 1.216554785050e-03 0.0 
0.0 0.0 0.0 
-1.549190643335e-05 3.582292939667e-05 0.0 
3.582292939667e-05 1.059709054746e-03 0.0 
0.0 0.0 0.0 
2.045088973620e-05 4.092576932586e-05 0.0 
4.092576932586e-05 5.973870534040e-04 0.0 
0.0 0.0 0.0 
-1.139651117151e-05 1.164723791160e-05 0.0 
1.164723791160e-05 1.174955864881e-03 0.0 
0.0 0.0 0.0 
2.868872192915e-05 2.416818158686e-05 0.0 
2.416818158686e-05 7.047213256370e-04 0.0 
0.0 0.0 0.0 
5.863015220764e-06 4.386531996330e-05 0.0 
4.386531996330e-05 1.065186228477e-03 0.0 
0.0 0.0 0.0 
-2.613952062512e-05 2.143583495909e-05 0.0 
2.143583495909e-05 7.875218405801e-04 0.0 
0.0 0.0 0.0 
-1.967493735056e-05 3.281680474203e-05 0.0 
3.281680474203e-05 9.430152808145e-04 0.0 
0.0 0.0 0.0 
-2.088322151766e-05 2.562041684098e-05 0.0 
2.562041684098e-05 1.031184892922e-03 0.0 
0.0 0.0 0.0 
-1.390738636496e-05 3.948682309251e-05 0.0 
3.948682309251e-05 8.845380203707e-04 0.0 
0.0 0.0 0.0 
2.381410898892e-05 3.185971803406e-06 0.0 
3.185971803406e-06 8.567058537368e-04 0.0 
0.0 0.0 0.0 
1.979845888841e-05 2.192215079704e-05 0.0 
2.192215079704e-05 1.003223256217e-03 0.0 
0.0 0.0 0.0 
2.549732240287e-05 1.933293609791e-05 0.0 
1.933293609791e-05 2.473281268902e-04 0.0 
0.0 0.0 0.0 
-1.779363303813e-05 4.171852414815e-05 0.0 
4.171852414815e-05 6.144218659202e-04 0.0 
0.0 0.0 0.0 
-1.639472833268e-05 8.293773131639e-06 0.0 
8.293773131639e-06 1.017859848907e-03 0.0 
0.0 0.0 0.0 
-8.427419888139e-06 4.237792960412e-05 0.0 
4.237792960412e-05 1.158021333868e-03 0.0 
0.0 0.0 0.0 
-5.796203706813e-06 1.022422271047e-05 0.0 
1.022422271047e-05 1.277204393124e-03 0.0 
0.0 0.0 0.0 
-2.377271287154e-05 3.086330610913e-05 0.0 
3.086330610913e-05 7.338704372264e-04 0.0 
0.0 0.0 0.0 
2.034065681670e-05 1.702970220266e-05 0.0 
1.702970220266e-05 9.900964904398e-04 0.0 
0.0 0.0 0.0 
-9.011999194138e-06 1.329500180667e-05 0.0 
1.329500180667e-05 1.234508254461e-03 0.0 
0.0 0.0 0.0 
2.919305192617e-05 8.672173837573e-06 0.0 
8.672173837573e-06 6.650619404298e-04 0.0 
0.0 0.0 0.0 
1.293597231552e-05 -5.484736913376e-07 0.0 
-5.484736913376e-07 2.644929854801e-04 0.0 
0.0 0.0 0.0 
1.493327417124e-05 5.605123763670e-05 0.0 
5.605123763670e-05 2.510052042752e-04 0.0 
0.0 0.0 0.0 
2.296280952097e-05 4.158649649704e-05 0.0 
4.158649649704e-05 4.688454893046e-04 0.0 
0.0 0.0 0.0 
4.270677649483e-07 4.543710402648e-05 0.0 
4.543710402648e-05 7.769049663757e-04 0.0 
0.0 0.0 0.0 
2.868176751821e-05 1.050013590465e-05 0.0 
1.050013590465e-05 7.293332533989e-04 0.0 
0.0 0.0 0.0 
-7.907130890732e-06 2.170434037499e-05 0.0 
2.170434037499e-05 1.284266898950e-03 0.0 
0.0 0.0 0.0 
1.880936862816e-05 1.559380030650e-05 0.0 
1.559380030650e-05 1.017045545647e-03 0.0 
0.0 0.0 0.0 
2.036650646786e-05 2.981393963964e-05 0.0 
2.981393963964e-05 9.668730771759e-04 0.0 
0.0 0.0 0.0 
-1.112011047731e-05 5.204139920577e-05 0.0 
5.204139920577e-05 2.061473915976e-04 0.0 
0.0 0.0 0.0 
-2.413711846372e-05 8.906527203258e-06 0.0 
8.906527203258e-06 7.869135986122e-04 0.0 
0.0 0.0 0.0 
1.705849468455e-05 1.400153532696e-05 0.0 
1.400153532696e-05 1.044638344415e-03 0.0 
0.0 0.0 0.0 
2.272124203266e-05 3.427939657664e-05 0.0 
3.427939657664e-05 7.655985129020e-04 0.0 
0.0 0.0 0.0 
7.445166530099e-06 4.334505059947e-05 0.0 
4.334505059947e-05 1.084853339358e-03 0.0 
0.0 0.0 0.0 
2.628842173820e-05 1.041649454540e-06 0.0 
1.041649454540e-06 6.890958999641e-04 0.0 
0.0 0.0 0.0 
-5.167703109784e-06 4.522407211365e-05 0.0 
4.522407211365e-05 1.253052312651e-03 0.0 
0.0 0.0 0.0 
-2.579707930437e-05 1.173516611258e-05 0.0 
1.173516611258e-05 6.533176660894e-04 0.0 
0.0 0.0 0.0 
1.492366333148e-05 1.227919803849e-05 0.0 
1.227919803849e-05 1.073643494526e-03 0.0 
0.0 0.0 0.0 
1.762573402586e-05 3.499464061365e-05 0.0 
3.499464061365e-05 9.831386994863e-04 0.0 
0.0 0.0 0.0 
-1.754744097101e-06 5.198674448032e-05 0.0 
5.198674448032e-05 5.358664654341e-04 0.0 
0.0 0.0 0.0 
-1.249575452239e-05 2.495312441462e-07 0.0 
2.495312441462e-07 8.233540402826e-04 0.0 
0.0 0.0 0.0 
9.649312203486e-06 1.362044035747e-05 0.0 
1.362044035747e-05 1.149819091387e-03 0.0 
0.0 0.0 0.0 
1.462179779081e-05 3.637654748498e-05 0.0 
3.637654748498e-05 1.049699655704e-03 0.0 
0.0 0.0 0.0 
-1.231640517145e-05 3.993232503682e-05 0.0 
3.993232503682e-05 9.426600094782e-04 0.0 
0.0 0.0 0.0 
2.576775672584e-05 3.074097039835e-05 0.0 
3.074097039835e-05 7.229929162635e-04 0.0 
0.0 0.0 0.0 
-2.398092317263e-05 6.091866638770e-06 0.0 
6.091866638770e-06 6.977789719138e-04 0.0 
0.0 0.0 0.0 
2.791009549337e-05 9.531312166923e-06 0.0 
9.531312166923e-06 7.560970025896e-04 0.0 
0.0 0.0 0.0 
-2.005170939554e-05 3.119384964957e-05 0.0 
3.119384964957e-05 9.803932645583e-04 0.0 
0.0 0.0 0.0 
-3.061090008934e-06 1.819413317028e-05 0.0 
1.819413317028e-05 1.345701200175e-03 0.0 
0.0 0.0 0.0 
1.138868166417e-05 3.906972981572e-05 0.0 
3.906972981572e-05 1.088491105788e-03 0.0 
0.0 0.0 0.0 
-1.994341006982e-05 1.533962335480e-05 0.0 
1.533962335480e-05 1.029552266577e-03 0.0 
0.0 0.0 0.0 
2.792373929605e-05 7.090637382250e-06 0.0 
7.090637382250e-06 7.188169029058e-04 0.0 
0.0 0.0 0.0 
1.027184223845e-06 4.377983744014e-05 0.0 
4.377983744014e-05 9.603401064469e-04 0.0 
0.0 0.0 0.0 
6.754752049883e-06 -2.544017547253e-06 0.0 
-2.544017547253e-06 1.372995728780e-04 0.0 
0.0 0.0 0.0 
-2.527882328659e-05 9.716880245392e-06 0.0 
9.716880245392e-06 7.210330324117e-04 0.0 
0.0 0.0 0.0 
2.716529745861e-05 6.364883182041e-06 0.0 
6.364883182041e-06 7.458261696989e-04 0.0 
0.0 0.0 0.0 
2.594778122707e-05 3.627817710983e-05 0.0 
3.627817710983e-05 4.881712714859e-04 0.0 
0.0 0.0 0.0 
2.669522259953e-05 2.800617526304e-05 0.0 
2.800617526304e-05 7.454748637934e-04 0.0 
0.0 0.0 0.0 
1.161426112117e-06 4.874741939853e-05 0.0 
4.874741939853e-05 1.207940498856e-03 0.0 
0.0 0.0 0.0 
2.636158133721e-05 5.661084180136e-06 0.0 
5.661084180136e-06 7.731403849036e-04 0.0 
0.0 0.0 0.0 
2.474522799149e-05 3.677682006076e-05 0.0 
3.677682006076e-05 5.527136663718e-04 0.0 
0.0 0.0 0.0 
2.554080933811e-05 4.914737491613e-06 0.0 
4.914737491613e-06 8.005781207014e-04 0.0 
0.0 0.0 0.0 
-2.431496688051e-05 7.140622259408e-06 0.0 
7.140622259408e-06 6.323631902108e-04 0.0 
0.0 0.0 0.0 
-1.973480263808e-05 1.806875113121e-05 0.0 
1.806875113121e-05 1.054866273953e-03 0.0 
0.0 0.0 0.0 
2.485027676924e-05 3.939617249091e-06 0.0 
3.939617249091e-06 8.279794896237e-04 0.0 
0.0 0.0 0.0 
-1.787865481601e-05 3.292964258282e-05 0.0 
3.292964258282e-05 1.038612081635e-03 0.0 
0.0 0.0 0.0 
6.137273061123e-06 -3.623752478108e-06 0.0 
-3.623752478108e-06 1.451230521040e-04 0.0 
0.0 0.0 0.0 
-8.790077765978e-06 4.176083775818e-05 0.0 
4.176083775818e-05 9.610945375187e-04 0.0 
0.0 0.0 0.0 
1.540865945404e-05 4.254587350244e-06 0.0 
4.254587350244e-06 1.057119667515e-03 0.0 
0.0 0.0 0.0 
2.853087742183e-05 6.173184570512e-06 0.0 
6.173184570512e-06 4.859582113290e-04 0.0 
0.0 0.0 0.0 
2.718525464533e-05 2.564130356258e-05 0.0 
2.564130356258e-05 7.691234718039e-04 0.0 
0.0 0.0 0.0 
-1.747233852425e-05 2.063552833743e-05 0.0 
2.063552833743e-05 1.115133401749e-03 0.0 
0.0 0.0 0.0 
-2.429492058779e-05 8.546650255635e-06 0.0 
8.546650255635e-06 5.658309945714e-04 0.0 
0.0 0.0 0.0 
2.532837668845e-05 2.700333502950e-05 0.0 
2.700333502950e-05 8.341519503832e-04 0.0 
0.0 0.0 0.0 
-1.547516187215e-05 3.478659860643e-05 0.0 
3.478659860643e-05 1.097367422562e-03 0.0 
0.0 0.0 0.0 
-5.253768521877e-06 4.317729666832e-05 0.0 
4.317729666832e-05 9.803254191636e-04 0.0 
0.0 0.0 0.0 
7.137056371453e-07 4.455686319656e-05 0.0 
4.455686319656e-05 8.373825091268e-04 0.0 
0.0 0.0 0.0 
2.310041770740e-05 2.839743680129e-05 0.0 
2.839743680129e-05 9.001462439295e-04 0.0 
0.0 0.0 0.0 
-2.583153025465e-05 1.480456748451e-05 0.0 
1.480456748451e-05 5.843197572402e-04 0.0 
0.0 0.0 0.0 
2.099177430544e-05 -1.231591598484e-06 0.0 
-1.231591598484e-06 3.495314347049e-04 0.0 
0.0 0.0 0.0 
1.692320451056e-05 -2.981926807585e-06 0.0 
-2.981926807585e-06 2.883631598518e-04 0.0 
0.0 0.0 0.0 
2.690081041242e-05 3.252229301575e-05 0.0 
3.252229301575e-05 5.733241097584e-04 0.0 
0.0 0.0 0.0 
-1.493364073514e-05 3.391338751648e-05 0.0 
3.391338751648e-05 1.134688548697e-03 0.0 
0.0 0.0 0.0 
8.759219057482e-06 -2.045705856989e-06 0.0 
-2.045705856989e-06 1.894967835826e-04 0.0 
0.0 0.0 0.0 
-1.826140551740e-05 2.412029736358e-05 0.0 
2.412029736358e-05 1.103027389344e-03 0.0 
0.0 0.0 0.0 
1.028610569442e-05 -4.678111171579e-06 0.0 
-4.678111171579e-06 2.025323872047e-04 0.0 
0.0 0.0 0.0 
2.926978108109e-05 2.732249716898e-05 0.0 
2.732249716898e-05 5.311545507490e-04 0.0 
0.0 0.0 0.0 
-1.279277286418e-06 4.455332361077e-05 0.0 
4.455332361077e-05 1.064461296763e-03 0.0 
0.0 0.0 0.0 
-1.076998119048e-05 -7.125869104847e-07 0.0 
-7.125869104847e-07 9.970425240342e-04 0.0 
0.0 0.0 0.0 
3.009282150734e-05 2.377460187882e-05 0.0 
2.377460187882e-05 5.536884938015e-04 0.0 
0.0 0.0 0.0 
1.606664742670e-05 -3.188615900531e-07 0.0 
-3.188615900531e-07 3.258677299624e-04 0.0 
0.0 0.0 0.0 
3.069780694061e-05 1.857630661284e-05 0.0 
1.857630661284e-05 5.137202775316e-04 0.0 
0.0 0.0 0.0 
9.176942522745e-07 4.398961793263e-05 0.0 
4.398961793263e-05 8.983764605644e-04 0.0 
0.0 0.0 0.0 
3.078952787613e-05 1.600625839555e-05 0.0 
1.600625839555e-05 5.377516603356e-04 0.0 
0.0 0.0 0.0 
3.015620460767e-05 1.146260332176e-05 0.0 
1.146260332176e-05 4.994516861795e-04 0.0 
0.0 0.0 0.0 
-4.625226369755e-06 5.595876285670e-06 0.0 
5.595876285670e-06 1.290749127371e-03 0.0 
0.0 0.0 0.0 
2.998438021073e-05 9.866912791273e-06 0.0 
9.866912791273e-06 5.239320915911e-04 0.0 
0.0 0.0 0.0 
-1.469422551933e-06 1.362259015515e-06 0.0 
1.362259015515e-06 1.349433393434e-03 0.0 
0.0 0.0 0.0 
5.217039356552e-06 4.334117389212e-06 0.0 
4.334117389212e-06 1.202880635009e-03 0.0 
0.0 0.0 0.0 
-1.215336425919e-05 -6.383943737522e-07 0.0 
-6.383943737522e-07 8.717066314266e-04 0.0 
0.0 0.0 0.0 
-2.307926231702e-05 1.089934915525e-05 0.0 
1.089934915525e-05 4.969073286530e-04 0.0 
0.0 0.0 0.0 
-1.662629291634e-05 1.659063523253e-06 0.0 
1.659063523253e-06 4.797383190071e-05 0.0 
0.0 0.0 0.0 
-2.514963119991e-05 2.013748064096e-05 0.0 
2.013748064096e-05 5.140034013041e-04 0.0 
0.0 0.0 0.0 
2.656986313521e-05 3.757228559313e-06 0.0 
3.757228559313e-06 4.242493094780e-04 0.0 
0.0 0.0 0.0 
-1.854193022049e-05 2.803033516977e-05 0.0 
2.803033516977e-05 1.089278299961e-03 0.0 
0.0 0.0 0.0 
-1.208151619684e-05 5.477726750653e-07 0.0 
5.477726750653e-07 8.741969443435e-04 0.0 
0.0 0.0 0.0 
2.394062689404e-05 9.879964566793e-07 0.0 
9.879964566793e-07 3.871196718342e-04 0.0 
0.0 0.0 0.0 
-7.963763449378e-06 3.219548052948e-05 0.0 
3.219548052948e-05 1.280899241684e-03 0.0 
0.0 0.0 0.0 
-1.863022195533e-06 4.976291482528e-05 0.0 
4.976291482528e-05 1.296272421510e-03 0.0 
0.0 0.0 0.0 
-9.209840330672e-06 8.774738129029e-07 0.0 
8.774738129029e-07 1.088311454164e-03 0.0 
0.0 0.0 0.0 
8.057632740403e-06 4.290746362841e-05 0.0 
4.290746362841e-05 1.104234975419e-03 0.0 
0.0 0.0 0.0 
-1.883636197279e-06 4.393752431615e-05 0.0 
4.393752431615e-05 1.001757676184e-03 0.0 
0.0 0.0 0.0 
-5.782385473996e-06 3.862897561048e-07 0.0 
3.862897561048e-07 1.236312801668e-03 0.0 
0.0 0.0 0.0 
-1.348735247684e-05 -7.294513137805e-07 0.0 
-7.294513137805e-07 8.192182250408e-04 0.0 
0.0 0.0 0.0 
-2.394275720482e-06 -4.460098150290e-06 0.0 
-4.460098150290e-06 8.570839628508e-05 0.0 
0.0 0.0 0.0 
2.264021445889e-05 1.737773471627e-06 0.0 
1.737773471627e-06 8.900433940736e-04 0.0 
0.0 0.0 0.0 
-2.171695083983e-05 1.416746061472e-05 0.0 
1.416746061472e-05 4.290523365365e-04 0.0 
0.0 0.0 0.0 
-2.365740091498e-05 2.744908262470e-05 0.0 
2.744908262470e-05 4.294060176373e-04 0.0 
0.0 0.0 0.0 
-2.071844933084e-05 4.002421171011e-05 0.0 
4.002421171011e-05 3.533334194876e-04 0.0 
0.0 0.0 0.0 
1.939553306833e-05 -8.972489226984e-07 0.0 
-8.972489226984e-07 4.080180088201e-04 0.0 
0.0 0.0 0.0 
4.446745356342e-06 -3.738294657197e-06 0.0 
-3.738294657197e-06 1.363470320809e-04 0.0 
0.0 0.0 0.0 
-2.059170655320e-05 2.157878504601e-05 0.0 
2.157878504601e-05 3.728354516150e-04 0.0 
0.0 0.0 0.0 
4.092909056637e-06 4.611273610395e-05 0.0 
4.611273610395e-05 1.199944067660e-03 0.0 
0.0 0.0 0.0 
-1.529329807723e-05 1.506268617938e-06 0.0 
1.506268617938e-06 8.765688728041e-04 0.0 
0.0 0.0 0.0 
-3.329605210545e-06 4.433985277052e-05 0.0 
4.433985277052e-05 1.102427059609e-03 0.0 
0.0 0.0 0.0 
-1.900754817167e-05 3.229599707431e-05 0.0 
3.229599707431e-05 3.014225747685e-04 0.0 
0.0 0.0 0.0 
-6.317795935518e-06 1.426996691554e-05 0.0 
1.426996691554e-05 1.292552174568e-03 0.0 
0.0 0.0 0.0 
-1.786876381812e-06 4.877253966389e-05 0.0 
4.877253966389e-05 1.231409006401e-03 0.0 
0.0 0.0 0.0 
4.761469054445e-06 2.422921229139e-05 0.0 
2.422921229139e-05 1.219314260501e-03 0.0 
0.0 0.0 0.0 
-2.395644262428e-06 4.604303255464e-05 0.0 
4.604303255464e-05 1.164149105334e-03 0.0 
0.0 0.0 0.0 
-8.891297104556e-06 5.913540079441e-05 0.0 
5.913540079441e-05 2.565322894758e-04 0.0 
0.0 0.0 0.0 
-1.802209882080e-05 5.673561721551e-06 0.0 
5.673561721551e-06 9.290476100135e-04 0.0 
0.0 0.0 0.0 
-6.977476603868e-06 4.147343786069e-05 0.0 
4.147343786069e-05 1.264999852437e-03 0.0 
0.0 0.0 0.0 
-8.068762783882e-06 1.857962708121e-06 0.0 
1.857962708121e-06 1.137633950484e-03 0.0 
0.0 0.0 0.0 
5.139379416663e-06 2.095443776066e-05 0.0 
2.095443776066e-05 1.219120089729e-03 0.0 
0.0 0.0 0.0 
-1.677006928038e-05 3.470835111976e-06 0.0 
3.470835111976e-06 8.690635844745e-04 0.0 
0.0 0.0 0.0 
-3.754125648625e-06 3.985669065207e-06 0.0 
3.985669065207e-06 1.299178931191e-03 0.0 
0.0 0.0 0.0 
2.128433540390e-05 9.631676649189e-06 0.0 
9.631676649189e-06 2.107195025415e-04 0.0 
0.0 0.0 0.0 
-3.460107816178e-06 2.326797104923e-06 0.0 
2.326797104923e-06 1.300040867982e-03 0.0 
0.0 0.0 0.0 
-1.583313718125e-05 3.030881032309e-05 0.0 
3.030881032309e-05 1.148390752767e-03 0.0 
0.0 0.0 0.0 
-1.191315312852e-05 2.161436444973e-06 0.0 
2.161436444973e-06 9.517566952133e-04 0.0 
0.0 0.0 0.0 
-2.012690714175e-05 9.069662665381e-06 0.0 
9.069662665381e-06 9.252093529414e-04 0.0 
0.0 0.0 0.0 
8.602734270835e-06 6.988641747914e-06 0.0 
6.988641747914e-06 1.158801624445e-03 0.0 
0.0 0.0 0.0 
-8.364668426397e-06 2.661827777900e-05 0.0 
2.661827777900e-05 1.286022063575e-03 0.0 
0.0 0.0 0.0 
5.842012347339e-06 6.017749582744e-05 0.0 
6.017749582744e-05 1.832928144554e-04 0.0 
0.0 0.0 0.0 
-9.089212012947e-06 2.537722486819e-06 0.0 
2.537722486819e-06 1.084702384800e-03 0.0 
0.0 0.0 0.0 
2.381694931954e-05 -2.184297553860e-07 0.0 
-2.184297553860e-07 5.144349919406e-04 0.0 
0.0 0.0 0.0 
-2.467489305602e-06 -6.604130277111e-07 0.0 
-6.604130277111e-07 8.214761802875e-05 0.0 
0.0 0.0 0.0 
9.135146403327e-06 2.922385863549e-05 0.0 
2.922385863549e-05 1.166068324175e-03 0.0 
0.0 0.0 0.0 
-1.284634045305e-05 3.249844993124e-05 0.0 
3.249844993124e-05 1.204620035779e-03 0.0 
0.0 0.0 0.0 
8.476046610628e-06 1.205998304933e-05 0.0 
1.205998304933e-05 1.156291432812e-03 0.0 
0.0 0.0 0.0 
5.491328260954e-06 -4.060426490166e-07 0.0 
-4.060426490166e-07 1.361392103146e-04 0.0 
0.0 0.0 0.0 
-2.319975920839e-06 -3.738076839008e-06 0.0 
-3.738076839008e-06 7.966607260474e-05 0.0 
0.0 0.0 0.0 
8.125540014792e-06 3.430845640096e-05 0.0 
3.430845640096e-05 1.183011062386e-03 0.0 
0.0 0.0 0.0 
-7.440383957132e-06 3.718466843817e-05 0.0 
3.718466843817e-05 1.280521588029e-03 0.0 
0.0 0.0 0.0 
2.179564935626e-05 8.150215242070e-06 0.0 
8.150215242070e-06 2.400994026505e-04 0.0 
0.0 0.0 0.0 
-2.435363347764e-06 1.247721947955e-05 0.0 
1.247721947955e-05 1.356246391080e-03 0.0 
0.0 0.0 0.0 
7.956767565135e-06 4.324291107961e-05 0.0 
4.324291107961e-05 1.048164774435e-04 0.0 
0.0 0.0 0.0 
-1.426751440610e-05 9.538471513392e-07 0.0 
9.538471513392e-07 8.127352880490e-04 0.0 
0.0 0.0 0.0 
1.944588301809e-06 -2.901475870984e-06 0.0 
-2.901475870984e-06 8.177178773997e-05 0.0 
0.0 0.0 0.0 
4.939732798270e-06 1.397725543485e-05 0.0 
1.397725543485e-05 1.215499033397e-03 0.0 
0.0 0.0 0.0 
-4.962465228719e-06 9.833183266467e-06 0.0 
9.833183266467e-06 1.301022878856e-03 0.0 
0.0 0.0 0.0 
2.481367554878e-05 1.382164852295e-06 0.0 
1.382164852295e-06 5.690529076912e-04 0.0 
0.0 0.0 0.0 
-2.062097348832e-05 5.880069503666e-06 0.0 
5.880069503666e-06 8.283948125707e-04 0.0 
0.0 0.0 0.0 
1.780747832236e-05 -4.690569784709e-07 0.0 
-4.690569784709e-07 3.678248696619e-04 0.0 
0.0 0.0 0.0 
-6.571343796447e-06 4.527595726541e-05 0.0 
4.527595726541e-05 1.207235425706e-03 0.0 
0.0 0.0 0.0 
2.949055570522e-06 -4.781776480703e-06 0.0 
-4.781776480703e-06 1.265597676919e-04 0.0 
0.0 0.0 0.0 
-4.386946850743e-06 6.505337043196e-06 0.0 
6.505337043196e-06 1.307477955825e-03 0.0 
0.0 0.0 0.0 
6.996599839848e-06 3.927547177817e-05 0.0 
3.927547177817e-05 1.194632564243e-03 0.0 
0.0 0.0 0.0 
-6.687961516905e-06 2.030904277454e-05 0.0 
2.030904277454e-05 1.302515858357e-03 0.0 
0.0 0.0 0.0 
7.419114863794e-07 5.189610367247e-05 0.0 
5.189610367247e-05 1.282813804292e-03 0.0 
0.0 0.0 0.0 
4.845079326743e-06 1.297160327663e-05 0.0 
1.297160327663e-05 7.942733165391e-05 0.0 
0.0 0.0 0.0 
-2.977281532734e-06 4.854966838306e-05 0.0 
4.854966838306e-05 1.253460501229e-03 0.0 
0.0 0.0 0.0 
8.979033145540e-06 4.163477663243e-05 0.0 
4.163477663243e-05 1.142835751992e-03 0.0 
0.0 0.0 0.0 
-1.316121138486e-05 1.369227246176e-06 0.0 
1.369227246176e-06 8.185098952288e-04 0.0 
0.0 0.0 0.0 
-7.369962130155e-06 2.464692878982e-05 0.0 
2.464692878982e-05 1.291354742558e-03 0.0 
0.0 0.0 0.0 
2.159658408378e-05 1.123676667718e-07 0.0 
1.123676667718e-07 4.577119991192e-04 0.0 
0.0 0.0 0.0 
9.058934807316e-06 -4.162566456638e-06 0.0 
-4.162566456638e-06 1.865384705444e-04 0.0 
0.0 0.0 0.0 
-9.252880095678e-07 1.988586330160e-07 0.0 
1.988586330160e-07 1.355975352413e-03 0.0 
0.0 0.0 0.0 
2.009065858566e-07 -1.536357798663e-07 0.0 
-1.536357798663e-07 2.882032118889e-05 0.0 
0.0 0.0 0.0 
-1.259532398230e-05 -4.663056487229e-07 0.0 
-4.663056487229e-07 8.145840277555e-04 0.0 
0.0 0.0 0.0 
3.995506636389e-06 3.023966439996e-06 0.0 
3.023966439996e-06 1.217178537024e-03 0.0 
0.0 0.0 0.0 
9.156018055956e-06 -2.248183954218e-06 0.0 
-2.248183954218e-06 1.770716251407e-04 0.0 
0.0 0.0 0.0 
-1.158595815924e-05 -1.521147415131e-07 0.0 
-1.521147415131e-07 9.180994483809e-04 0.0 
0.0 0.0 0.0 
-7.223410671220e-06 3.463411034097e-05 0.0 
3.463411034097e-05 1.286827622222e-03 0.0 
0.0 0.0 0.0 
2.552716382949e-05 7.394001301816e-07 0.0 
7.394001301816e-07 7.057582000828e-04 0.0 
0.0 0.0 0.0 
-6.590426402653e-06 2.317825752894e-08 0.0 
2.317825752894e-08 1.200611429714e-03 0.0 
0.0 0.0 0.0 
1.141434279419e-05 -1.719522206685e-06 0.0 
-1.719522206685e-06 1.751894508889e-04 0.0 
0.0 0.0 0.0 
-1.925220909812e-05 -1.908330748421e-06 0.0 
-1.908330748421e-06 3.997836650430e-05 0.0 
0.0 0.0 0.0 
-1.019347560458e-05 -1.206763415339e-07 0.0 
-1.206763415339e-07 1.030154228747e-03 0.0 
0.0 0.0 0.0 
-5.340401253440e-07 5.016056391734e-05 0.0 
5.016056391734e-05 1.236287600373e-03 0.0 
0.0 0.0 0.0 
-5.957512895205e-06 1.603678853454e-05 0.0 
1.603678853454e-05 1.308030907394e-03 0.0 
0.0 0.0 0.0 
-1.134828930140e-05 2.396581960112e-06 0.0 
2.396581960112e-06 9.864036649859e-04 0.0 
0.0 0.0 0.0 
1.387656007976e-05 5.487636719460e-05 0.0 
5.487636719460e-05 2.044617448202e-04 0.0 
0.0 0.0 0.0 
-1.003732307661e-05 3.467576959375e-05 0.0 
3.467576959375e-05 1.249992317984e-03 0.0 
0.0 0.0 0.0 
2.626088681682e-05 9.698470405096e-07 0.0 
9.698470405096e-07 6.167057494151e-04 0.0 
0.0 0.0 0.0 
-9.105901613493e-06 4.099299358463e-05 0.0 
4.099299358463e-05 1.224743768730e-03 0.0 
0.0 0.0 0.0 
5.826733830139e-06 4.413736291348e-05 0.0 
4.413736291348e-05 1.156364234607e-03 0.0 
0.0 0.0 0.0 
-9.348991295499e-06 3.820337302090e-05 0.0 
3.820337302090e-05 6.506986966288e-05 0.0 
0.0 0.0 0.0 
2.512553254168e-05 1.063788033395e-06 0.0 
1.063788033395e-06 7.617895643180e-04 0.0 
0.0 0.0 0.0 
-1.261999172786e-06 -3.229676773052e-06 0.0 
-3.229676773052e-06 7.645188192504e-05 0.0 
0.0 0.0 0.0 
7.997987561836e-06 2.134150568383e-05 0.0 
2.134150568383e-05 1.174852298681e-03 0.0 
0.0 0.0 0.0 
2.576012609463e-05 5.793321853190e-07 0.0 
5.793321853190e-07 6.443028720916e-04 0.0 
0.0 0.0 0.0 
5.739946393496e-06 7.581647644909e-06 0.0 
7.581647644909e-06 2.121796950827e-04 0.0 
0.0 0.0 0.0 
-1.535588282664e-05 1.224021842481e-06 0.0 
1.224021842481e-06 2.248593533229e-04 0.0 
0.0 0.0 0.0 
-4.919060634712e-06 9.070551391489e-06 0.0 
9.070551391489e-06 2.773147127941e-04 0.0 
0.0 0.0 0.0 
-1.241549928852e-05 3.564845853905e-07 0.0 
3.564845853905e-07 2.905478166650e-04 0.0 
0.0 0.0 0.0 
-1.049844063145e-05 7.432528764933e-06 0.0 
7.432528764933e-06 3.428448042630e-04 0.0 
0.0 0.0 0.0 
-1.110396616560e-05 -2.568819665141e-07 0.0 
-2.568819665141e-07 3.502461063105e-04 0.0 
0.0 0.0 0.0 
-1.441346949974e-05 5.242669562134e-06 0.0 
5.242669562134e-06 4.083584273350e-04 0.0 
0.0 0.0 0.0 
-1.109430027055e-05 -2.900984299518e-07 0.0 
-2.900984299518e-07 4.180092089001e-04 0.0 
0.0 0.0 0.0 
-1.677738411524e-05 3.983816505011e-06 0.0 
3.983816505011e-06 4.736841055648e-04 0.0 
0.0 0.0 0.0 
-1.141489592379e-05 -2.975629003346e-07 0.0 
-2.975629003346e-07 4.786309299697e-04 0.0 
0.0 0.0 0.0 
-1.916552390355e-05 2.443140371518e-06 0.0 
2.443140371518e-06 5.388879933688e-04 0.0 
0.0 0.0 0.0 
-1.176500311639e-05 -2.963986790961e-07 0.0 
-2.963986790961e-07 5.465931126594e-04 0.0 
0.0 0.0 0.0 
-2.010912407691e-05 1.969881482404e-06 0.0 
1.969881482404e-06 6.038790923751e-04 0.0 
0.0 0.0 0.0 
-1.217823554342e-05 -2.466681572509e-07 0.0 
-2.466681572509e-07 6.072372666511e-04 0.0 
0.0 0.0 0.0 
-2.042002585051e-05 1.845132846744e-06 0.0 
1.845132846744e-06 6.685156262770e-04 0.0 
0.0 0.0 0.0 
-1.234672528538e-05 4.831961306373e-08 0.0 
4.831961306373e-08 6.750126540280e-04 0.0 
0.0 0.0 0.0 
-2.007711344562e-05 2.275538599871e-06 0.0 
2.275538599871e-06 7.329927691349e-04 0.0 
0.0 0.0 0.0 
-1.298421727572e-05 8.076165405535e-07 0.0 
8.076165405535e-07 7.354389956000e-04 0.0 
0.0 0.0 0.0 

TENSORS node_materi_strain_plasti float
-2.612663767757e-06 -3.252607646113e-07 0.0 
-3.252607646113e-07 2.093720605042e-05 0.0 
0.0 0.0 -4.924303274428e-06 
-1.079056608654e-04 -1.683663743376e-05 0.0 
-1.683663743376e-05 6.796608024097e-04 0.0 
0.0 0.0 -1.043867513459e-04 
-1.990082416844e-04 1.461466422752e-05 0.0 
1.461466422752e-05 1.338163054070e-03 0.0 
0.0 0.0 -1.998931639748e-04 
-1.992789450115e-04 -1.457804817178e-05 0.0 
-1.457804817178e-05 1.339096739606e-03 0.0 
0.0 0.0 -1.998931639748e-04 
-1.229078891716e-05 5.366280014175e-06 0.0 
5.366280014175e-06 5.053145956954e-05 0.0 
0.0 0.0 -1.268018299698e-05 
-2.543886988905e-05 1.901414525611e-05 0.0 
1.901414525611e-05 1.267844857367e-04 0.0 
0.0 0.0 -2.428620303623e-05 
-3.444505010393e-05 1.562750611400e-05 0.0 
1.562750611400e-05 1.836714106930e-04 0.0 
0.0 0.0 -3.399136149544e-05 
-4.457783022682e-05 1.417525000785e-05 0.0 
1.417525000785e-05 2.618842628781e-04 0.0 
0.0 0.0 -4.406465996183e-05 
-5.572937533165e-05 1.046680884978e-05 0.0 
1.046680884978e-05 3.321775894220e-04 0.0 
0.0 0.0 -5.415704333790e-05 
-6.374532394610e-05 9.877096268524e-06 0.0 
9.877096268524e-06 3.996726964643e-04 0.0 
0.0 0.0 -6.415842296661e-05 
-7.312975922456e-05 1.092726545402e-05 0.0 
1.092726545402e-05 4.685103703879e-04 0.0 
0.0 0.0 -7.410179773499e-05 
-8.340975388222e-05 9.760341255261e-06 0.0 
9.760341255261e-06 5.380090096821e-04 0.0 
0.0 0.0 -8.402736785582e-05 
-9.329317044903e-05 9.748725627981e-06 0.0 
9.748725627981e-06 6.067337971893e-04 0.0 
0.0 0.0 -9.400794208654e-05 
-1.048395173574e-04 1.245666822366e-05 0.0 
1.245666822366e-05 6.774763461161e-04 0.0 
0.0 0.0 -1.040542782181e-04 
-1.176369272068e-04 1.876149311443e-05 0.0 
1.876149311443e-05 7.541898349339e-04 0.0 
0.0 0.0 -1.141079629734e-04 
-1.251371721908e-04 1.991670015406e-05 0.0 
1.991670015406e-05 8.235151932197e-04 0.0 
0.0 0.0 -1.240613786258e-04 
-1.319668018372e-04 2.596472290694e-05 0.0 
2.596472290694e-05 8.806369836317e-04 0.0 
0.0 0.0 -1.335504265687e-04 
-1.429595426911e-04 1.016247294305e-05 0.0 
1.016247294305e-05 9.540683438175e-04 0.0 
0.0 0.0 -1.433712649586e-04 
-1.532202596459e-04 9.657610282115e-06 0.0 
9.657610282115e-06 1.025836369529e-03 0.0 
0.0 0.0 -1.536785213545e-04 
-1.630955816410e-04 9.924116732642e-06 0.0 
9.924116732642e-06 1.095392565861e-03 0.0 
0.0 0.0 -1.636867096734e-04 
-1.736417197982e-04 9.148824907428e-06 0.0 
9.148824907428e-06 1.166298828267e-03 0.0 
0.0 0.0 -1.737495185000e-04 
-1.844935295981e-04 1.136666883781e-05 0.0 
1.136666883781e-05 1.237760949854e-03 0.0 
0.0 0.0 -1.839110754151e-04 
-1.928395893447e-04 1.466620459946e-05 0.0 
1.466620459946e-05 1.307601711888e-03 0.0 
0.0 0.0 -1.934749151625e-04 
-1.992084498246e-04 -9.667205419172e-07 0.0 
-9.667205419172e-07 1.341308611164e-03 0.0 
0.0 0.0 -2.005353038101e-04 
-2.003235822205e-04 -4.576902611969e-07 0.0 
-4.576902611969e-07 1.339283177977e-03 0.0 
0.0 0.0 -1.999418651152e-04 
-2.004195521241e-04 -9.594112326717e-06 0.0 
-9.594112326717e-06 1.337828695600e-03 0.0 
0.0 0.0 -2.002354755130e-04 
-2.008845907091e-04 4.519063874005e-06 0.0 
4.519063874005e-06 1.338578482993e-03 0.0 
0.0 0.0 -2.001689849711e-04 
-2.005719087583e-04 -1.259819984252e-06 0.0 
-1.259819984252e-06 1.336698736025e-03 0.0 
0.0 0.0 -1.998101597465e-04 
-2.003033749392e-04 1.612771953849e-07 0.0 
1.612771953849e-07 1.336699884288e-03 0.0 
0.0 0.0 -2.002576402756e-04 
-1.988174270910e-04 4.435871277180e-07 0.0 
4.435871277180e-07 1.338020991228e-03 0.0 
0.0 0.0 -2.002582685247e-04 
-2.006018029555e-04 -1.428553602928e-06 0.0 
-1.428553602928e-06 1.338259915715e-03 0.0 
0.0 0.0 -2.000295381545e-04 
-2.002076965602e-04 -6.442142530929e-06 0.0 
-6.442142530929e-06 1.339568721789e-03 0.0 
0.0 0.0 -2.004389858384e-04 
-2.006688150029e-04 4.111887006866e-06 0.0 
4.111887006866e-06 1.340190933063e-03 0.0 
0.0 0.0 -2.003568725688e-04 
-2.004204281591e-04 -1.032720327526e-06 0.0 
-1.032720327526e-06 1.338293566306e-03 0.0 
0.0 0.0 -1.999970921405e-04 
-2.007190085647e-04 -7.221768717101e-07 0.0 
-7.221768717101e-07 1.338675392550e-03 0.0 
0.0 0.0 -2.003793839065e-04 
-1.990986785052e-04 -1.590259053477e-08 0.0 
-1.590259053477e-08 1.341350099485e-03 0.0 
0.0 0.0 -2.004146187826e-04 
-2.007914892723e-04 -4.264335361637e-07 0.0 
-4.264335361637e-07 1.339816171211e-03 0.0 
0.0 0.0 -2.002852565091e-04 
-1.994100966532e-04 -1.572894639504e-06 0.0 
-1.572894639504e-06 1.338161131957e-03 0.0 
0.0 0.0 -2.001446319728e-04 
-2.007511256741e-04 1.494960023589e-06 0.0 
1.494960023589e-06 1.335513206817e-03 0.0 
0.0 0.0 -1.998462653075e-04 
-2.008601944157e-04 -3.837724735001e-07 0.0 
-3.837724735001e-07 1.334384440132e-03 0.0 
0.0 0.0 -1.998029376683e-04 
-1.990688471561e-04 2.458886044848e-07 0.0 
2.458886044848e-07 1.337655076969e-03 0.0 
0.0 0.0 -2.000088186226e-04 
-2.001853082778e-04 -6.402158915260e-07 0.0 
-6.402158915260e-07 1.339281899659e-03 0.0 
0.0 0.0 -2.002091174222e-04 
-2.005241707287e-04 -7.501540653689e-07 0.0 
-7.501540653689e-07 1.339203182872e-03 0.0 
0.0 0.0 -2.004865334549e-04 
-2.005853306472e-04 2.540125145858e-06 0.0 
2.540125145858e-06 1.339503555012e-03 0.0 
0.0 0.0 -2.003832587333e-04 
-1.997808965748e-04 -1.605993664681e-07 0.0 
-1.605993664681e-07 1.339666309980e-03 0.0 
0.0 0.0 -2.002174839672e-04 
-2.003075530794e-04 4.838064349886e-07 0.0 
4.838064349886e-07 1.338766324707e-03 0.0 
0.0 0.0 -2.002580803729e-04 
-2.003470639015e-04 -2.444069971792e-07 0.0 
-2.444069971792e-07 1.338072796155e-03 0.0 
0.0 0.0 -2.002440284024e-04 
-2.004510673748e-04 -1.928377971681e-07 0.0 
-1.928377971681e-07 1.340065919944e-03 0.0 
0.0 0.0 -2.002334986692e-04 
-1.995883615915e-04 -7.312419057630e-07 0.0 
-7.312419057630e-07 1.340320439837e-03 0.0 
0.0 0.0 -2.003661129950e-04 
-2.011747927060e-04 -8.722415594417e-07 0.0 
-8.722415594417e-07 1.340079435223e-03 0.0 
0.0 0.0 -2.004908485340e-04 
-1.995361419384e-04 -6.780112919620e-07 0.0 
-6.780112919620e-07 1.340717740891e-03 0.0 
0.0 0.0 -2.004762665914e-04 
-2.008009995012e-04 -8.793815483888e-07 0.0 
-8.793815483888e-07 1.341377617168e-03 0.0 
0.0 0.0 -2.003014926434e-04 
-2.004900975472e-04 -5.374113392905e-06 0.0 
-5.374113392905e-06 1.342707157093e-03 0.0 
0.0 0.0 -2.006997735404e-04 
-2.011614755125e-04 5.177742394411e-06 0.0 
5.177742394411e-06 1.341994191491e-03 0.0 
0.0 0.0 -2.005870641008e-04 
-2.001672680472e-04 1.642921574497e-06 0.0 
1.642921574497e-06 1.338462129955e-03 0.0 
0.0 0.0 -2.000675234999e-04 
-1.999895739659e-04 -6.988816100773e-09 0.0 
-6.988816100773e-09 1.336248125534e-03 0.0 
0.0 0.0 -2.001823097425e-04 
-2.001225026340e-04 -1.240829705364e-06 0.0 
-1.240829705364e-06 1.339474803775e-03 0.0 
0.0 0.0 -2.001929620191e-04 
-1.997428951088e-04 -2.864922555170e-07 0.0 
-2.864922555170e-07 1.339287980767e-03 0.0 
0.0 0.0 -2.002863172658e-04 
-2.011305945918e-04 -1.592599752619e-06 0.0 
-1.592599752619e-06 1.339001312879e-03 0.0 
0.0 0.0 -2.003537156312e-04 
-1.994489271156e-04 -3.123074052844e-07 0.0 
-3.123074052844e-07 1.340206734430e-03 0.0 
0.0 0.0 -2.003469717371e-04 
-2.008676553467e-04 -6.044515584201e-08 0.0 
-6.044515584201e-08 1.338725412238e-03 0.0 
0.0 0.0 -2.002396863610e-04 
-1.992453131624e-04 -1.009025233623e-06 0.0 
-1.009025233623e-06 1.337264745438e-03 0.0 
0.0 0.0 -2.001151187552e-04 
-2.007508866938e-04 2.802615914654e-07 0.0 
2.802615914654e-07 1.337086357069e-03 0.0 
0.0 0.0 -1.998355947622e-04 
-2.010860201950e-04 -2.268840142145e-06 0.0 
-2.268840142145e-06 1.337518567927e-03 0.0 
0.0 0.0 -2.000624918399e-04 
-1.999308478327e-04 1.605132680389e-06 0.0 
1.605132680389e-06 1.340948129084e-03 0.0 
0.0 0.0 -2.004978758543e-04 
-1.989515291925e-04 -1.597226336294e-06 0.0 
-1.597226336294e-06 1.342999130641e-03 0.0 
0.0 0.0 -2.005641941534e-04 
-2.002462740351e-04 -1.655488014151e-06 0.0 
-1.655488014151e-06 1.333093131656e-03 0.0 
0.0 0.0 -1.993486092159e-04 
-1.990090833406e-04 5.684559175637e-07 0.0 
5.684559175637e-07 1.340609276749e-03 0.0 
0.0 0.0 -2.003850096553e-04 
-2.008054096670e-04 9.372155481799e-08 0.0 
9.372155481799e-08 1.339007845984e-03 0.0 
0.0 0.0 -1.998785251170e-04 
-2.008250670669e-04 -6.084757154766e-06 0.0 
-6.084757154766e-06 1.338299561836e-03 0.0 
0.0 0.0 -2.002828574513e-04 
-2.004005035862e-04 2.502291620358e-06 0.0 
2.502291620358e-06 1.342657178018e-03 0.0 
0.0 0.0 -2.004849633189e-04 
-2.007882536758e-04 -1.247747538696e-07 0.0 
-1.247747538696e-07 1.343259988120e-03 0.0 
0.0 0.0 -2.003783523096e-04 
-1.146671904274e-04 -1.178176757847e-05 0.0 
-1.178176757847e-05 7.450986713540e-04 0.0 
0.0 0.0 -1.147343130870e-04 
-1.264453810116e-04 -1.334151081515e-05 0.0 
-1.334151081515e-05 8.198209596703e-04 0.0 
0.0 0.0 -1.244847198447e-04 
-1.356765189360e-04 -1.297470350471e-05 0.0 
-1.297470350471e-05 8.891398730811e-04 0.0 
0.0 0.0 -1.343891602869e-04 
-1.452353386135e-04 -1.385252952600e-05 0.0 
-1.385252952600e-05 9.563155137830e-04 0.0 
0.0 0.0 -1.441570129583e-04 
-1.551452079967e-04 -1.219781350268e-05 0.0 
-1.219781350268e-05 1.026181140671e-03 0.0 
0.0 0.0 -1.540481715075e-04 
-1.626979226826e-04 -1.337619385664e-05 0.0 
-1.337619385664e-05 1.096146543984e-03 0.0 
0.0 0.0 -1.639185295300e-04 
-1.730204163278e-04 -1.189570542028e-05 0.0 
-1.189570542028e-05 1.165335265964e-03 0.0 
0.0 0.0 -1.737435638217e-04 
-1.827904030233e-04 -1.370279642459e-05 0.0 
-1.370279642459e-05 1.231374955592e-03 0.0 
0.0 0.0 -1.836722557877e-04 
-1.920175721782e-04 -1.513479483673e-05 0.0 
-1.513479483673e-05 1.306410256595e-03 0.0 
0.0 0.0 -1.933173094176e-04 
-2.628312394672e-06 4.861178510582e-06 0.0 
4.861178510582e-06 1.556544794842e-05 0.0 
0.0 0.0 -4.409292559605e-06 
-1.048316007749e-04 -9.621305853345e-07 0.0 
-9.621305853345e-07 6.811678198845e-04 0.0 
0.0 0.0 -1.041824356080e-04 
-1.429141514585e-05 3.381087006699e-06 0.0 
3.381087006699e-06 6.806377303618e-05 0.0 
0.0 0.0 -1.615681005646e-05 
-2.190865156101e-05 2.226069226360e-06 0.0 
2.226069226360e-06 1.165588744570e-04 0.0 
0.0 0.0 -2.374946025290e-05 
-3.172273434562e-05 2.609174110429e-06 0.0 
2.609174110429e-06 1.868917573465e-04 0.0 
0.0 0.0 -3.377761721591e-05 
-4.239577254127e-05 2.241292013526e-06 0.0 
2.241292013526e-06 2.540904609616e-04 0.0 
0.0 0.0 -4.361962961408e-05 
-5.200855234888e-05 2.436357541103e-06 0.0 
2.436357541103e-06 3.241483764866e-04 0.0 
0.0 0.0 -5.364127140931e-05 
-6.051274250007e-05 -6.301292665322e-07 0.0 
-6.301292665322e-07 3.944343599617e-04 0.0 
0.0 0.0 -6.369887817887e-05 
-7.141834889080e-05 9.678265043949e-08 0.0 
9.678265043949e-08 4.646211674391e-04 0.0 
0.0 0.0 -7.370455344612e-05 
-8.170243524055e-05 5.000006177168e-08 0.0 
5.000006177168e-08 5.347878226306e-04 0.0 
0.0 0.0 -8.371130494101e-05 
-9.180060726483e-05 -4.722006417284e-07 0.0 
-4.722006417284e-07 6.049326733472e-04 0.0 
0.0 0.0 -9.373011205136e-05 
-2.041808010602e-05 -2.378370014583e-05 0.0 
-2.378370014583e-05 8.426276971275e-05 0.0 
0.0 0.0 -1.733333333333e-05 
-2.463885833346e-05 -2.968724905013e-05 0.0 
-2.968724905013e-05 1.222961352773e-04 0.0 
0.0 0.0 -2.400000000000e-05 
-3.481144295916e-05 -2.407763231895e-05 0.0 
-2.407763231895e-05 1.915090082020e-04 0.0 
0.0 0.0 -3.400000000000e-05 
-4.479954490040e-05 -3.034758567600e-05 0.0 
-3.034758567600e-05 2.608172571825e-04 0.0 
0.0 0.0 -4.400000000000e-05 
-5.460502904689e-05 -2.471936197141e-05 0.0 
-2.471936197141e-05 3.301921564289e-04 0.0 
0.0 0.0 -5.400000000000e-05 
-6.456638670251e-05 -3.069381358953e-05 0.0 
-3.069381358953e-05 3.997152644097e-04 0.0 
0.0 0.0 -6.400000000000e-05 
-7.449630958426e-05 -2.494664394193e-05 0.0 
-2.494664394193e-05 4.692561610563e-04 0.0 
0.0 0.0 -7.400000000000e-05 
-8.434259877890e-05 -3.002568002087e-05 0.0 
-3.002568002087e-05 5.385348917960e-04 0.0 
0.0 0.0 -8.400000000000e-05 
-9.370207488884e-05 -2.126272979996e-05 0.0 
-2.126272979996e-05 6.064301356153e-04 0.0 
0.0 0.0 -9.400000000000e-05 
-1.036969649510e-04 8.247914357618e-06 0.0 
8.247914357618e-06 6.682236523530e-04 0.0 
0.0 0.0 -1.031244360596e-04 
-1.030331121809e-04 6.398061947281e-07 0.0 
6.398061947281e-07 6.730085857154e-04 0.0 
0.0 0.0 -1.036639830904e-04 
-1.040246848300e-04 6.551258288294e-07 0.0 
6.551258288294e-07 6.737003815122e-04 0.0 
0.0 0.0 -1.036786795573e-04 
-1.036199691061e-04 -1.060092899920e-06 0.0 
-1.060092899920e-06 6.728402332334e-04 0.0 
0.0 0.0 -1.035503476195e-04 
-1.036187730866e-04 6.987826892712e-07 0.0 
6.987826892712e-07 6.843234116976e-04 0.0 
0.0 0.0 -1.047113471711e-04 
-1.033931728263e-04 8.121956357098e-07 0.0 
8.121956357098e-07 6.742373380345e-04 0.0 
0.0 0.0 -1.036717283195e-04 
-1.019647128334e-04 -9.227752753182e-07 0.0 
-9.227752753182e-07 6.731432047700e-04 0.0 
0.0 0.0 -1.035575096558e-04 
-1.024936313905e-04 1.772285713447e-06 0.0 
1.772285713447e-06 6.748371062497e-04 0.0 
0.0 0.0 -1.035838249569e-04 
-1.042470993802e-04 3.635416729023e-07 0.0 
3.635416729023e-07 6.762559263978e-04 0.0 
0.0 0.0 -1.038366668071e-04 
-1.045602445557e-04 1.897285970682e-06 0.0 
1.897285970682e-06 6.765304608455e-04 0.0 
0.0 0.0 -1.037414779538e-04 
-1.033276288020e-04 1.064407616834e-06 0.0 
1.064407616834e-06 6.759918874459e-04 0.0 
0.0 0.0 -1.036749887244e-04 
-1.038467522998e-04 5.163460192194e-07 0.0 
5.163460192194e-07 6.750993881616e-04 0.0 
0.0 0.0 -1.036742376103e-04 
-1.031100844336e-04 2.320623075698e-06 0.0 
2.320623075698e-06 6.745066352922e-04 0.0 
0.0 0.0 -1.037248800197e-04 
-1.035625589850e-04 3.164755832638e-06 0.0 
3.164755832638e-06 6.761520668862e-04 0.0 
0.0 0.0 -1.038372224314e-04 
-3.888660396223e-06 -2.385114651317e-06 0.0 
-2.385114651317e-06 2.042711759429e-05 0.0 
0.0 0.0 -4.472331749510e-06 
-5.169101753905e-06 -7.084154542495e-07 0.0 
-7.084154542495e-07 2.271348961565e-05 0.0 
0.0 0.0 -4.502040609288e-06 
-2.364246160799e-06 1.028376057694e-06 0.0 
1.028376057694e-06 2.131091607623e-05 0.0 
0.0 0.0 -4.337518410806e-06 
-1.587498611084e-06 -3.133011703373e-06 0.0 
-3.133011703373e-06 2.050781746996e-05 0.0 
0.0 0.0 -4.334754490686e-06 
-5.046560316982e-06 -4.634948452893e-06 0.0 
-4.634948452893e-06 2.392890582554e-05 0.0 
0.0 0.0 -4.561117883842e-06 
-6.265007612969e-06 -9.207565944816e-07 0.0 
-9.207565944816e-07 2.697395437511e-05 0.0 
0.0 0.0 -4.603166802451e-06 
-5.736513677339e-06 8.387511243070e-08 0.0 
8.387511243070e-08 2.687139260663e-05 0.0 
0.0 0.0 -4.588253942932e-06 
-4.839540945368e-06 -2.011555288387e-07 0.0 
-2.011555288387e-07 2.583465999306e-05 0.0 
0.0 0.0 -4.580819930830e-06 
-4.612792911559e-06 -5.630253563300e-07 0.0 
-5.630253563300e-07 2.605477154738e-05 0.0 
0.0 0.0 -4.566377142626e-06 
-3.958290915494e-06 -1.184167375848e-06 0.0 
-1.184167375848e-06 2.564531167106e-05 0.0 
0.0 0.0 -4.572797242577e-06 
-4.022129294500e-06 -2.439723680986e-06 0.0 
-2.439723680986e-06 2.664958176089e-05 0.0 
0.0 0.0 -4.590091569785e-06 
-6.268342663527e-06 6.977096205287e-07 0.0 
6.977096205287e-07 2.905288206764e-05 0.0 
0.0 0.0 -4.700025780019e-06 
-5.376994636987e-06 4.381417467922e-06 0.0 
4.381417467922e-06 2.721428218001e-05 0.0 
0.0 0.0 -4.652230755744e-06 
-2.838762493559e-06 1.392931258625e-06 0.0 
1.392931258625e-06 2.367722917541e-05 0.0 
0.0 0.0 -4.515582628821e-06 
-3.990779392774e-06 -6.597448414294e-07 0.0 
-6.597448414294e-07 2.387859913914e-05 0.0 
0.0 0.0 -4.562958168800e-06 
-6.201113197701e-06 2.425591329864e-07 0.0 
2.425591329864e-07 2.634678490736e-05 0.0 
0.0 0.0 -4.590849357655e-06 
-6.954870756755e-06 8.464675035122e-07 0.0 
8.464675035122e-07 2.697964767619e-05 0.0 
0.0 0.0 -4.587172474505e-06 
-4.599856540822e-06 4.128708826148e-06 0.0 
4.128708826148e-06 2.250512897823e-05 0.0 
0.0 0.0 -4.562260372237e-06 
-2.212869655358e-06 7.040915964333e-07 0.0 
7.040915964333e-07 1.983031900883e-05 0.0 
0.0 0.0 -4.417496077222e-06 
-1.408704904192e-05 1.729604531780e-05 0.0 
1.729604531780e-05 7.688318610444e-05 0.0 
0.0 0.0 -1.733333333333e-05 
-1.753402900455e-05 -8.743106314171e-07 0.0 
-8.743106314171e-07 8.548823679426e-05 0.0 
0.0 0.0 -1.737401323241e-05 
-1.804724204168e-05 -1.924116935354e-06 0.0 
-1.924116935354e-06 9.238021323588e-05 0.0 
0.0 0.0 -1.758262740001e-05 
-1.816007178522e-05 -1.671510466327e-06 0.0 
-1.671510466327e-06 9.313855140088e-05 0.0 
0.0 0.0 -1.761883437706e-05 
-1.818078981116e-05 -1.320055324082e-06 0.0 
-1.320055324082e-06 9.335513062186e-05 0.0 
0.0 0.0 -1.763228661363e-05 
-1.814970121108e-05 -1.014074092547e-06 0.0 
-1.014074092547e-06 9.345701324304e-05 0.0 
0.0 0.0 -1.763893248488e-05 
-1.810217070533e-05 -7.921888731936e-07 0.0 
-7.921888731936e-07 9.350449830431e-05 0.0 
0.0 0.0 -1.764228206851e-05 
-1.805232494924e-05 -6.388963665977e-07 0.0 
-6.388963665977e-07 9.352116897128e-05 0.0 
0.0 0.0 -1.764382775380e-05 
-1.800533526243e-05 -5.252008054291e-07 0.0 
-5.252008054291e-07 9.351964287674e-05 0.0 
0.0 0.0 -1.764432915469e-05 
-1.796372885528e-05 -4.232074556481e-07 0.0 
-4.232074556481e-07 9.350746735816e-05 0.0 
0.0 0.0 -1.764423513459e-05 
-1.792991089422e-05 -3.110141768881e-07 0.0 
-3.110141768881e-07 9.349023362679e-05 0.0 
0.0 0.0 -1.764388849705e-05 
-1.790695917096e-05 -1.761345528505e-07 0.0 
-1.761345528505e-07 9.347376931410e-05 0.0 
0.0 0.0 -1.764364839889e-05 
-1.789792597675e-05 -1.983071369653e-08 0.0 
-1.983071369653e-08 9.346378251645e-05 0.0 
0.0 0.0 -1.764371107564e-05 
-1.790482021235e-05 1.455704164501e-07 0.0 
1.455704164501e-07 9.346449088550e-05 0.0 
0.0 0.0 -1.764419506845e-05 
-1.792739539316e-05 3.023800011777e-07 0.0 
3.023800011777e-07 9.347620874245e-05 0.0 
0.0 0.0 -1.764485796639e-05 
-1.796484339063e-05 4.355300863480e-07 0.0 
4.355300863480e-07 9.350127101851e-05 0.0 
0.0 0.0 -1.764619949139e-05 
-1.801238608842e-05 5.220625001362e-07 0.0 
5.220625001362e-07 9.353329271684e-05 0.0 
0.0 0.0 -1.764704411909e-05 
-1.806893138531e-05 5.584763223627e-07 0.0 
5.584763223627e-07 9.358131413277e-05 0.0 
0.0 0.0 -1.764969685086e-05 
-1.812102404232e-05 5.130925713908e-07 0.0 
5.130925713908e-07 9.361310827863e-05 0.0 
0.0 0.0 -1.764877237348e-05 
-1.818169621473e-05 4.375674225658e-07 0.0 
4.375674225658e-07 9.369389793027e-05 0.0 
0.0 0.0 -1.765588531446e-05 
-1.820270982006e-05 1.891446521631e-07 0.0 
1.891446521631e-07 9.366244951518e-05 0.0 
0.0 0.0 -1.764470303423e-05 
-1.825039125426e-05 1.362159537900e-07 0.0 
1.362159537900e-07 9.378424499324e-05 0.0 
0.0 0.0 -1.766348368547e-05 
-1.815244268087e-05 -1.827686546851e-07 0.0 
-1.827686546851e-07 9.336960408762e-05 0.0 
0.0 0.0 -1.760989661794e-05 
-1.825881156300e-05 8.648554909335e-07 0.0 
8.648554909335e-07 9.378987134944e-05 0.0 
0.0 0.0 -1.768822529178e-05 
-1.797083675209e-05 1.303970719933e-07 0.0 
1.303970719933e-07 9.263381667573e-05 0.0 
0.0 0.0 -1.752927583900e-05 
-1.731245395800e-05 3.757176139867e-06 0.0 
3.757176139867e-06 9.407231117914e-05 0.0 
0.0 0.0 -1.815069811233e-05 
-1.714481438958e-05 -2.639978561573e-06 0.0 
-2.639978561573e-06 9.092881279227e-05 0.0 
0.0 0.0 -1.830522153085e-05 
-7.269745293064e-06 -8.406160398901e-07 0.0 
-8.406160398901e-07 6.233772640471e-05 0.0 
0.0 0.0 -1.627626844812e-05 
-1.670675977664e-05 1.804956787360e-06 0.0 
1.804956787360e-06 1.067148928642e-04 0.0 
0.0 0.0 -2.265414724211e-05 
-2.290621592614e-05 -3.091630924370e-07 0.0 
-3.091630924370e-07 1.240883479783e-04 0.0 
0.0 0.0 -2.388276823376e-05 
-2.269477043907e-05 1.997886048829e-06 0.0 
1.997886048829e-06 1.197255488093e-04 0.0 
0.0 0.0 -2.316430612094e-05 
-2.398870168427e-05 -3.323012308451e-07 0.0 
-3.323012308451e-07 1.195922013744e-04 0.0 
0.0 0.0 -2.320461651041e-05 
-2.372926498822e-05 2.999638817045e-07 0.0 
2.999638817045e-07 1.202550428962e-04 0.0 
0.0 0.0 -2.319224570726e-05 
-2.386165072123e-05 1.306696425380e-07 0.0 
1.306696425380e-07 1.201137343596e-04 0.0 
0.0 0.0 -2.320964891541e-05 
-2.372962849983e-05 5.359087631297e-07 0.0 
5.359087631297e-07 1.201786710641e-04 0.0 
0.0 0.0 -2.320584972990e-05 
-2.370366843909e-05 5.557250797166e-07 0.0 
5.557250797166e-07 1.200695257240e-04 0.0 
0.0 0.0 -2.320788439953e-05 
-2.364055254153e-05 6.556811718528e-07 0.0 
6.556811718528e-07 1.200422305152e-04 0.0 
0.0 0.0 -2.320479016773e-05 
-2.359652124157e-05 6.187009073350e-07 0.0 
6.187009073350e-07 1.199826033781e-04 0.0 
0.0 0.0 -2.320392604053e-05 
-2.354832904311e-05 5.510613716479e-07 0.0 
5.510613716479e-07 1.199427240655e-04 0.0 
0.0 0.0 -2.320217736079e-05 
-2.351193710526e-05 4.083182207957e-07 0.0 
4.083182207957e-07 1.199059037248e-04 0.0 
0.0 0.0 -2.320108428444e-05 
-2.348568120850e-05 2.370601607937e-07 0.0 
2.370601607937e-07 1.198850193294e-04 0.0 
0.0 0.0 -2.320008207297e-05 
-2.347459881453e-05 4.411833600342e-08 0.0 
4.411833600342e-08 1.198762385895e-04 0.0 
0.0 0.0 -2.319950862760e-05 
-2.347885012267e-05 -1.423218319884e-07 0.0 
-1.423218319884e-07 1.198823684905e-04 0.0 
0.0 0.0 -2.319923529282e-05 
-2.349544549566e-05 -3.042075311348e-07 0.0 
-3.042075311348e-07 1.198991579340e-04 0.0 
0.0 0.0 -2.319932400352e-05 
-2.351852396485e-05 -4.319078729137e-07 0.0 
-4.319078729137e-07 1.199190703214e-04 0.0 
0.0 0.0 -2.319961737138e-05 
-2.354325049981e-05 -5.334941944749e-07 0.0 
-5.334941944749e-07 1.199337388668e-04 0.0 
0.0 0.0 -2.319983770020e-05 
-2.356538542893e-05 -6.259067054886e-07 0.0 
-6.259067054886e-07 1.199368111975e-04 0.0 
0.0 0.0 -2.319963400980e-05 
-2.357999260863e-05 -7.299107931692e-07 0.0 
-7.299107931692e-07 1.199216217601e-04 0.0 
0.0 0.0 -2.319861046671e-05 
-2.357977981231e-05 -8.656972872806e-07 0.0 
-8.656972872806e-07 1.198790348215e-04 0.0 
0.0 0.0 -2.319616283225e-05 
-2.355345044047e-05 -1.042007697932e-06 0.0 
-1.042007697932e-06 1.197957316620e-04 0.0 
0.0 0.0 -2.319116510481e-05 
-2.348246708526e-05 -1.220880842288e-06 0.0 
-1.220880842288e-06 1.196528328530e-04 0.0 
0.0 0.0 -2.318111605090e-05 
-2.333405395254e-05 -1.118596732853e-06 0.0 
-1.118596732853e-06 1.194233883462e-04 0.0 
0.0 0.0 -2.315628644409e-05 
-2.298537973196e-05 2.257925313224e-06 0.0 
2.257925313224e-06 1.190517740643e-04 0.0 
0.0 0.0 -2.303387587177e-05 
-2.379438697783e-05 1.238319657452e-05 0.0 
1.238319657452e-05 1.209372856332e-04 0.0 
0.0 0.0 -2.359858829549e-05 
-2.635784649527e-05 3.023599991205e-06 0.0 
3.023599991205e-06 1.754994643042e-04 0.0 
0.0 0.0 -3.279586449964e-05 
-3.342957154738e-05 -1.428230834183e-06 0.0 
-1.428230834183e-06 1.937372714669e-04 0.0 
0.0 0.0 -3.439645528541e-05 
-3.433676816902e-05 1.423425013521e-06 0.0 
1.423425013521e-06 1.909850886953e-04 0.0 
0.0 0.0 -3.400000000000e-05 
-3.504811682074e-05 1.017276523045e-07 0.0 
1.017276523045e-07 1.903954401692e-04 0.0 
0.0 0.0 -3.400000000000e-05 
-3.475883280557e-05 8.275041871259e-07 0.0 
8.275041871259e-07 1.909295942363e-04 0.0 
0.0 0.0 -3.400000000000e-05 
-3.476718964368e-05 6.674693375523e-07 0.0 
6.674693375523e-07 1.905564479674e-04 0.0 
0.0 0.0 -3.400000000000e-05 
-3.465636554937e-05 8.034649928025e-07 0.0 
8.034649928025e-07 1.906219403581e-04 0.0 
0.0 0.0 -3.400000000000e-05 
-3.463333973170e-05 7.756039964563e-07 0.0 
7.756039964563e-07 1.904961722334e-04 0.0 
0.0 0.0 -3.400000000000e-05 
-3.455481925026e-05 7.446491180549e-07 0.0 
7.446491180549e-07 1.904484670683e-04 0.0 
0.0 0.0 -3.400000000000e-05 
-3.450861733375e-05 6.101627205472e-07 0.0 
6.101627205472e-07 1.903734959664e-04 0.0 
0.0 0.0 -3.400000000000e-05 
-3.445653623328e-05 4.290053438309e-07 0.0 
4.290053438309e-07 1.903323815166e-04 0.0 
0.0 0.0 -3.400000000000e-05 
-3.443063610829e-05 1.991945827126e-07 0.0 
1.991945827126e-07 1.903067296367e-04 0.0 
0.0 0.0 -3.400000000000e-05 
-3.442810645012e-05 -4.141107895420e-08 0.0 
-4.141107895420e-08 1.903121848046e-04 0.0 
0.0 0.0 -3.400000000000e-05 
-3.444817075231e-05 -2.580070050544e-07 0.0 
-2.580070050544e-07 1.903391032696e-04 0.0 
0.0 0.0 -3.400000000000e-05 
-3.447368869704e-05 -4.269536035544e-07 0.0 
-4.269536035544e-07 1.903730351739e-04 0.0 
0.0 0.0 -3.400000000000e-05 
-3.449570884593e-05 -5.530106626938e-07 0.0 
-5.530106626938e-07 1.903982130225e-04 0.0 
0.0 0.0 -3.400000000000e-05 
-3.450875738063e-05 -6.495177737791e-07 0.0 
-6.495177737791e-07 1.904058521572e-04 0.0 
0.0 0.0 -3.400000000000e-05 
-3.450560192681e-05 -7.304044745140e-07 0.0 
-7.304044745140e-07 1.903880482122e-04 0.0 
0.0 0.0 -3.400000000000e-05 
-3.447675244413e-05 -8.069657295755e-07 0.0 
-8.069657295755e-07 1.903364635921e-04 0.0 
0.0 0.0 -3.400000000000e-05 
-3.441055491183e-05 -8.828364346676e-07 0.0 
-8.828364346676e-07 1.902436989104e-04 0.0 
0.0 0.0 -3.400000000000e-05 
-3.429817085697e-05 -9.362193017797e-07 0.0 
-9.362193017797e-07 1.901102552784e-04 0.0 
0.0 0.0 -3.400000000000e-05 
-3.413811234369e-05 -8.868077408759e-07 0.0 
-8.868077408759e-07 1.899571004772e-04 0.0 
0.0 0.0 -3.400000000000e-05 
-3.397177696146e-05 -5.984876856420e-07 0.0 
-5.984876856420e-07 1.898800230821e-04 0.0 
0.0 0.0 -3.400000000000e-05 
-3.407836345250e-05 -3.059519767749e-07 0.0 
-3.059519767749e-07 1.903305099338e-04 0.0 
0.0 0.0 -3.400000000000e-05 
-3.460283539434e-05 1.705188566677e-05 0.0 
1.705188566677e-05 1.911985687843e-04 0.0 
0.0 0.0 -3.400000000000e-05 
-4.455327315977e-05 1.167838660116e-05 0.0 
1.167838660116e-05 2.604601866799e-04 0.0 
0.0 0.0 -4.400000000000e-05 
-4.411949662139e-05 2.747099334527e-06 0.0 
2.747099334527e-06 2.598190346923e-04 0.0 
0.0 0.0 -4.400000000000e-05 
-4.406401131858e-05 -2.627410997222e-07 0.0 
-2.627410997222e-07 2.596613345305e-04 0.0 
0.0 0.0 -4.400000000000e-05 
-4.413979454266e-05 -5.879314611794e-07 0.0 
-5.879314611794e-07 2.597036670706e-04 0.0 
0.0 0.0 -4.400000000000e-05 
-4.425161335125e-05 -6.632845015873e-07 0.0 
-6.632845015873e-07 2.598123821449e-04 0.0 
0.0 0.0 -4.400000000000e-05 
-4.435458459021e-05 -6.804876884903e-07 0.0 
-6.804876884903e-07 2.599204827840e-04 0.0 
0.0 0.0 -4.400000000000e-05 
-4.442806416961e-05 -6.802021940728e-07 0.0 
-6.802021940728e-07 2.599953638461e-04 0.0 
0.0 0.0 -4.400000000000e-05 
-4.446670361324e-05 -6.574637951664e-07 0.0 
-6.574637951664e-07 2.600301131491e-04 0.0 
0.0 0.0 -4.400000000000e-05 
-4.448172913590e-05 -6.048167667418e-07 0.0 
-6.048167667418e-07 2.600334851022e-04 0.0 
0.0 0.0 -4.400000000000e-05 
-4.448133099563e-05 -5.161692673206e-07 0.0 
-5.161692673206e-07 2.600126903058e-04 0.0 
0.0 0.0 -4.400000000000e-05 
-4.446956848312e-05 -3.874719342341e-07 0.0 
-3.874719342341e-07 2.599742191345e-04 0.0 
0.0 0.0 -4.400000000000e-05 
-4.444289703346e-05 -2.034956803443e-07 0.0 
-2.034956803443e-07 2.599215045726e-04 0.0 
0.0 0.0 -4.400000000000e-05 
-4.441849143332e-05 6.484075759357e-08 0.0 
6.484075759357e-08 2.598898736161e-04 0.0 
0.0 0.0 -4.400000000000e-05 
-4.443209793791e-05 3.465651675754e-07 0.0 
3.465651675754e-07 2.599002687236e-04 0.0 
0.0 0.0 -4.400000000000e-05 
-4.448687436373e-05 6.177294269502e-07 0.0 
6.177294269502e-07 2.599760522650e-04 0.0 
0.0 0.0 -4.400000000000e-05 
-4.455296902831e-05 7.215046356319e-07 0.0 
7.215046356319e-07 2.600309796975e-04 0.0 
0.0 0.0 -4.400000000000e-05 
-4.459092640311e-05 9.029734736165e-07 0.0 
9.029734736165e-07 2.601693669081e-04 0.0 
0.0 0.0 -4.400000000000e-05 
-4.464455030691e-05 7.094389924431e-07 0.0 
7.094389924431e-07 2.601428842768e-04 0.0 
0.0 0.0 -4.400000000000e-05 
-4.458090555975e-05 1.034786167333e-06 0.0 
1.034786167333e-06 2.603965205166e-04 0.0 
0.0 0.0 -4.400000000000e-05 
-4.467873362862e-05 4.574748873904e-07 0.0 
4.574748873904e-07 2.599271191011e-04 0.0 
0.0 0.0 -4.400000000000e-05 
-4.396213681874e-05 2.188574361429e-06 0.0 
2.188574361429e-06 2.605797292245e-04 0.0 
0.0 0.0 -4.400000000000e-05 
-4.354108487199e-05 -1.114121571067e-06 0.0 
-1.114121571067e-06 2.642457942881e-04 0.0 
0.0 0.0 -4.440087463557e-05 
-3.653623355074e-05 1.890043377624e-06 0.0 
1.890043377624e-06 2.461851802042e-04 0.0 
0.0 0.0 -4.280102040816e-05 
-4.613301209441e-05 3.619110181881e-06 0.0 
3.619110181881e-06 3.157829509857e-04 0.0 
0.0 0.0 -5.279515429360e-05 
-5.272430673223e-05 -9.182146848104e-07 0.0 
-9.182146848104e-07 3.334727456063e-04 0.0 
0.0 0.0 -5.439584653737e-05 
-5.380973540994e-05 1.644998673954e-06 0.0 
1.644998673954e-06 3.302664481471e-04 0.0 
0.0 0.0 -5.400000000000e-05 
-5.466689081061e-05 3.147190341774e-07 0.0 
3.147190341774e-07 3.296224174576e-04 0.0 
0.0 0.0 -5.400000000000e-05 
-5.456479812606e-05 8.907554722933e-07 0.0 
8.907554722933e-07 3.301278746856e-04 0.0 
0.0 0.0 -5.400000000000e-05 
-5.469843557399e-05 7.294571082761e-07 0.0 
7.294571082761e-07 3.297896585847e-04 0.0 
0.0 0.0 -5.400000000000e-05 
-5.455713654919e-05 8.293328218573e-07 0.0 
8.293328218573e-07 3.297859209611e-04 0.0 
0.0 0.0 -5.400000000000e-05 
-5.447176827306e-05 6.045948425803e-07 0.0 
6.045948425803e-07 3.295846238880e-04 0.0 
0.0 0.0 -5.400000000000e-05 
-5.439587138175e-05 2.699825687268e-07 0.0 
2.699825687268e-07 3.295445281644e-04 0.0 
0.0 0.0 -5.400000000000e-05 
-5.444020560872e-05 -9.373025041376e-08 0.0 
-9.373025041376e-08 3.295833112604e-04 0.0 
0.0 0.0 -5.400000000000e-05 
-5.448526328926e-05 -2.925786431972e-07 0.0 
-2.925786431972e-07 3.296759622065e-04 0.0 
0.0 0.0 -5.400000000000e-05 
-5.448521490030e-05 -4.042919985534e-07 0.0 
-4.042919985534e-07 3.297222213790e-04 0.0 
0.0 0.0 -5.400000000000e-05 
-5.446593747581e-05 -5.017291938270e-07 0.0 
-5.017291938270e-07 3.297482559229e-04 0.0 
0.0 0.0 -5.400000000000e-05 
-5.444715703514e-05 -5.661052701272e-07 0.0 
-5.661052701272e-07 3.297630960230e-04 0.0 
0.0 0.0 -5.400000000000e-05 
-5.441902664921e-05 -5.791858778638e-07 0.0 
-5.791858778638e-07 3.297520271910e-04 0.0 
0.0 0.0 -5.400000000000e-05 
-5.435489545421e-05 -5.320435298485e-07 0.0 
-5.320435298485e-07 3.296952773800e-04 0.0 
0.0 0.0 -5.400000000000e-05 
-5.425282743638e-05 -4.796851552699e-07 0.0 
-4.796851552699e-07 3.295926353122e-04 0.0 
0.0 0.0 -5.400000000000e-05 
-5.415150905155e-05 -4.389405642830e-07 0.0 
-4.389405642830e-07 3.294912033637e-04 0.0 
0.0 0.0 -5.400000000000e-05 
-5.408758113007e-05 -3.988049795922e-07 0.0 
-3.988049795922e-07 3.294501912325e-04 0.0 
0.0 0.0 -5.400000000000e-05 
-5.412553104182e-05 -4.108986155667e-07 0.0 
-4.108986155667e-07 3.295530381932e-04 0.0 
0.0 0.0 -5.400000000000e-05 
-5.432573387972e-05 -1.150061439258e-06 0.0 
-1.150061439258e-06 3.298496077656e-04 0.0 
0.0 0.0 -5.400000000000e-05 
-5.454235109009e-05 1.621095232876e-05 0.0 
1.621095232876e-05 3.301284745679e-04 0.0 
0.0 0.0 -5.400000000000e-05 
-6.449104081877e-05 1.102095358613e-05 0.0 
1.102095358613e-05 3.995973409364e-04 0.0 
0.0 0.0 -6.400000000000e-05 
-6.422906796569e-05 2.177518514987e-06 0.0 
2.177518514987e-06 3.992543368403e-04 0.0 
0.0 0.0 -6.400000000000e-05 
-6.408383134524e-05 -3.034071916938e-07 0.0 
-3.034071916938e-07 3.990967741269e-04 0.0 
0.0 0.0 -6.400000000000e-05 
-6.408041873393e-05 -3.033981082000e-07 0.0 
-3.033981082000e-07 3.990993988085e-04 0.0 
0.0 0.0 -6.400000000000e-05 
-6.413758657569e-05 -2.664267529371e-07 0.0 
-2.664267529371e-07 3.991827780022e-04 0.0 
0.0 0.0 -6.400000000000e-05 
-6.424201883682e-05 -2.687503912124e-07 0.0 
-2.687503912124e-07 3.993046003732e-04 0.0 
0.0 0.0 -6.400000000000e-05 
-6.435001536577e-05 -3.748421087071e-07 0.0 
-3.748421087071e-07 3.994006642501e-04 0.0 
0.0 0.0 -6.400000000000e-05 
-6.439349834041e-05 -4.644553275205e-07 0.0 
-4.644553275205e-07 3.993979902157e-04 0.0 
0.0 0.0 -6.400000000000e-05 
-6.439694071681e-05 -4.217729739727e-07 0.0 
-4.217729739727e-07 3.993619939022e-04 0.0 
0.0 0.0 -6.400000000000e-05 
-6.446545681239e-05 -3.034361081742e-07 0.0 
-3.034361081742e-07 3.993593597444e-04 0.0 
0.0 0.0 -6.400000000000e-05 
-6.453884953312e-05 -2.444575558042e-07 0.0 
-2.444575558042e-07 3.993592142806e-04 0.0 
0.0 0.0 -6.400000000000e-05 
-6.453841394424e-05 -2.364183723064e-07 0.0 
-2.364183723064e-07 3.992848240483e-04 0.0 
0.0 0.0 -6.400000000000e-05 
-6.443555698589e-05 -5.018406128309e-08 0.0 
-5.018406128309e-08 3.990730026429e-04 0.0 
0.0 0.0 -6.400000000000e-05 
-6.439006881427e-05 5.953405842576e-07 0.0 
5.953405842576e-07 3.990989476378e-04 0.0 
0.0 0.0 -6.400000000000e-05 
-6.459707428735e-05 8.270995238340e-07 0.0 
8.270995238340e-07 3.992307724164e-04 0.0 
0.0 0.0 -6.400000000000e-05 
-6.478530700370e-05 1.165018707171e-06 0.0 
1.165018707171e-06 3.997535009593e-04 0.0 
0.0 0.0 -6.400000000000e-05 
-6.492709823616e-05 1.223192506191e-07 0.0 
1.223192506191e-07 3.993858055679e-04 0.0 
0.0 0.0 -6.400000000000e-05 
-6.387749569822e-05 1.643573763821e-06 0.0 
1.643573763821e-06 3.997389601482e-04 0.0 
0.0 0.0 -6.400000000000e-05 
-6.329773463465e-05 -1.345766021157e-06 0.0 
-1.345766021157e-06 4.036796173873e-04 0.0 
0.0 0.0 -6.440087463557e-05 
-5.619569592719e-05 6.249853982819e-07 0.0 
6.249853982819e-07 3.855354190560e-04 0.0 
0.0 0.0 -6.280102040816e-05 
-6.626641426913e-05 1.378973851741e-06 0.0 
1.378973851741e-06 4.548482350430e-04 0.0 
0.0 0.0 -7.279421768707e-05 
-7.356607765690e-05 -1.854881774075e-06 0.0 
-1.854881774075e-06 4.734083990815e-04 0.0 
0.0 0.0 -7.439504373177e-05 
-7.451973324986e-05 1.818776252699e-06 0.0 
1.818776252699e-06 4.701147270985e-04 0.0 
0.0 0.0 -7.400000000000e-05 
-7.507189263132e-05 1.139871955262e-06 0.0 
1.139871955262e-06 4.690018492736e-04 0.0 
0.0 0.0 -7.400000000000e-05 
-7.440307977863e-05 1.316267280214e-06 0.0 
1.316267280214e-06 4.689046979315e-04 0.0 
0.0 0.0 -7.400000000000e-05 
-7.447964919174e-05 1.327643289489e-07 0.0 
1.327643289489e-07 4.685645119696e-04 0.0 
0.0 0.0 -7.400000000000e-05 
-7.463811246650e-05 -2.009510893623e-07 0.0 
-2.009510893623e-07 4.690373350481e-04 0.0 
0.0 0.0 -7.400000000000e-05 
-7.464635801585e-05 -7.665068053577e-08 0.0 
-7.665068053577e-08 4.691773352964e-04 0.0 
0.0 0.0 -7.400000000000e-05 
-7.456896915362e-05 6.486733144630e-08 0.0 
6.486733144630e-08 4.691551129947e-04 0.0 
0.0 0.0 -7.400000000000e-05 
-7.434965880918e-05 -2.979712214473e-08 0.0 
-2.979712214473e-08 4.690260974999e-04 0.0 
0.0 0.0 -7.400000000000e-05 
-7.428013090329e-05 -3.745306366773e-07 0.0 
-3.745306366773e-07 4.690784611457e-04 0.0 
0.0 0.0 -7.400000000000e-05 
-7.436926452788e-05 -3.179218437662e-07 0.0 
-3.179218437662e-07 4.692164839065e-04 0.0 
0.0 0.0 -7.400000000000e-05 
-7.420923464376e-05 -8.861031691496e-08 0.0 
-8.861031691496e-08 4.691097441108e-04 0.0 
0.0 0.0 -7.400000000000e-05 
-7.408672818249e-05 -9.997158663719e-08 0.0 
-9.997158663719e-08 4.689363840629e-04 0.0 
0.0 0.0 -7.400000000000e-05 
-7.401015679154e-05 -2.369586485918e-07 0.0 
-2.369586485918e-07 4.688345953373e-04 0.0 
0.0 0.0 -7.400000000000e-05 
-7.402043488264e-05 -3.858604555162e-07 0.0 
-3.858604555162e-07 4.687795838329e-04 0.0 
0.0 0.0 -7.400000000000e-05 
-7.406733317633e-05 -8.624702852559e-07 0.0 
-8.624702852559e-07 4.688475136122e-04 0.0 
0.0 0.0 -7.400000000000e-05 
-7.437229827430e-05 -1.941892756436e-06 0.0 
-1.941892756436e-06 4.691620651443e-04 0.0 
0.0 0.0 -7.400000000000e-05 
-7.450735550024e-05 1.576544860626e-05 0.0 
1.576544860626e-05 4.693163051132e-04 0.0 
0.0 0.0 -7.400000000000e-05 
-8.485563316515e-05 1.075809198226e-05 0.0 
1.075809198226e-05 5.391859337594e-04 0.0 
0.0 0.0 -8.400000000000e-05 
-8.409846415960e-05 9.414650263605e-07 0.0 
9.414650263605e-07 5.383995603087e-04 0.0 
0.0 0.0 -8.400000000000e-05 
-8.389555484943e-05 -6.021980322684e-07 0.0 
-6.021980322684e-07 5.381860091551e-04 0.0 
0.0 0.0 -8.400000000000e-05 
-8.398436323506e-05 -4.920223144165e-07 0.0 
-4.920223144165e-07 5.383843948043e-04 0.0 
0.0 0.0 -8.400000000000e-05 
-8.378599896788e-05 -1.313884382087e-07 0.0 
-1.313884382087e-07 5.383410839076e-04 0.0 
0.0 0.0 -8.400000000000e-05 
-8.397004303126e-05 1.320895791523e-07 0.0 
1.320895791523e-07 5.385599452968e-04 0.0 
0.0 0.0 -8.400000000000e-05 
-8.409172541067e-05 3.119498635538e-07 0.0 
3.119498635538e-07 5.388399091460e-04 0.0 
0.0 0.0 -8.400000000000e-05 
-8.425202054181e-05 -4.105999003094e-07 0.0 
-4.105999003094e-07 5.388170517081e-04 0.0 
0.0 0.0 -8.400000000000e-05 
-8.405009752117e-05 1.267934535994e-07 0.0 
1.267934535994e-07 5.383656166005e-04 0.0 
0.0 0.0 -8.400000000000e-05 
-8.446225278370e-05 7.431195345640e-07 0.0 
7.431195345640e-07 5.387309105085e-04 0.0 
0.0 0.0 -8.400000000000e-05 
-8.472976723877e-05 3.614371366169e-07 0.0 
3.614371366169e-07 5.389575801292e-04 0.0 
0.0 0.0 -8.400000000000e-05 
-8.468281700183e-05 1.764545941254e-07 0.0 
1.764545941254e-07 5.387723880717e-04 0.0 
0.0 0.0 -8.400000000000e-05 
-8.488166774851e-05 3.307409063185e-08 0.0 
3.307409063185e-08 5.387187096913e-04 0.0 
0.0 0.0 -8.400000000000e-05 
-8.470036612902e-05 2.233472977468e-07 0.0 
2.233472977468e-07 5.376128164124e-04 0.0 
0.0 0.0 -8.400000000000e-05 
-8.431282722659e-05 3.361858424154e-06 0.0 
3.361858424154e-06 5.388019778082e-04 0.0 
0.0 0.0 -8.400000000000e-05 
-8.416442060440e-05 -6.991529090742e-07 0.0 
-6.991529090742e-07 5.438481516276e-04 0.0 
0.0 0.0 -8.440087463557e-05 
-7.699797766990e-05 8.136884982108e-07 0.0 
8.136884982108e-07 5.256926397960e-04 0.0 
0.0 0.0 -8.280102040816e-05 
-8.729514730737e-05 2.431575192883e-06 0.0 
2.431575192883e-06 5.952071725442e-04 0.0 
0.0 0.0 -9.279292626141e-05 
-9.515402825116e-05 -3.487467194031e-07 0.0 
-3.487467194031e-07 6.124983923015e-04 0.0 
0.0 0.0 -9.439393679549e-05 
-9.530518963518e-05 1.748549076388e-06 0.0 
1.748549076388e-06 6.086982827348e-04 0.0 
0.0 0.0 -9.400000000000e-05 
-9.443822007151e-05 1.536080356852e-06 0.0 
1.536080356852e-06 6.081273132837e-04 0.0 
0.0 0.0 -9.400000000000e-05 
-9.455496517287e-05 4.180655032130e-07 0.0 
4.180655032130e-07 6.085997108048e-04 0.0 
0.0 0.0 -9.400000000000e-05 
-9.458632400686e-05 1.150725883443e-06 0.0 
1.150725883443e-06 6.089170576803e-04 0.0 
0.0 0.0 -9.400000000000e-05 
-9.431195159654e-05 1.533006736186e-06 0.0 
1.533006736186e-06 6.081280804878e-04 0.0 
0.0 0.0 -9.400000000000e-05 
-9.421230709676e-05 -1.354647329153e-07 0.0 
-1.354647329153e-07 6.080912884899e-04 0.0 
0.0 0.0 -9.400000000000e-05 
-9.337909431243e-05 6.942444443618e-07 0.0 
6.942444443618e-07 6.085993616068e-04 0.0 
0.0 0.0 -9.400000000000e-05 
-9.374302250683e-05 3.925743234368e-08 0.0 
3.925743234368e-08 6.082422955829e-04 0.0 
0.0 0.0 -9.400000000000e-05 
-9.357184311787e-05 3.344127971799e-07 0.0 
3.344127971799e-07 6.080020201806e-04 0.0 
0.0 0.0 -9.400000000000e-05 
-9.351707113181e-05 -1.166879688300e-06 0.0 
-1.166879688300e-06 6.078331273393e-04 0.0 
0.0 0.0 -9.400000000000e-05 
-9.397267376399e-05 -4.718022942719e-07 0.0 
-4.718022942719e-07 6.082084038474e-04 0.0 
0.0 0.0 -9.400000000000e-05 
-9.376740862845e-05 -1.478812201538e-06 0.0 
-1.478812201538e-06 6.074134740605e-04 0.0 
0.0 0.0 -9.400000000000e-05 
-9.429475212128e-05 -5.091328171579e-06 0.0 
-5.091328171579e-06 6.089719886990e-04 0.0 
0.0 0.0 -9.400000000000e-05 
-9.572461714176e-05 1.686230062982e-05 0.0 
1.686230062982e-05 6.103161186201e-04 0.0 
0.0 0.0 -9.400000000000e-05 
-9.168972231207e-06 3.086373565098e-06 0.0 
3.086373565098e-06 3.559574852661e-05 0.0 
0.0 0.0 -1.067913767518e-05 
-1.565128404079e-05 4.091326684888e-06 0.0 
4.091326684888e-06 8.576324540085e-05 0.0 
0.0 0.0 -1.971920025178e-05 
-2.526708561103e-05 6.310853555670e-06 0.0 
6.310853555670e-06 1.563086297405e-04 0.0 
0.0 0.0 -2.983264867227e-05 
-3.537296998936e-05 6.864872435128e-06 0.0 
6.864872435128e-06 2.269082270308e-04 0.0 
0.0 0.0 -3.986440968097e-05 
-4.488160423805e-05 2.620282550735e-06 0.0 
2.620282550735e-06 2.956678138489e-04 0.0 
0.0 0.0 -4.966355900614e-05 
-5.332449771990e-05 4.791519907196e-06 0.0 
4.791519907196e-06 3.657467620854e-04 0.0 
0.0 0.0 -5.966365156130e-05 
-6.508558424635e-05 3.075872768086e-06 0.0 
3.075872768086e-06 4.344526873071e-04 0.0 
0.0 0.0 -6.975401418979e-05 
-7.497012245692e-05 4.311534055672e-06 0.0 
4.311534055672e-06 5.043026023732e-04 0.0 
0.0 0.0 -7.976546830823e-05 
-8.509296828041e-05 3.418368169262e-06 0.0 
3.418368169262e-06 5.740185323213e-04 0.0 
0.0 0.0 -8.978403836533e-05 
-9.498556415872e-05 3.738944843297e-06 0.0 
3.738944843297e-06 6.453839669724e-04 0.0 
0.0 0.0 -9.979450657254e-05 
-2.903947000217e-05 4.451191488364e-07 0.0 
4.451191488364e-07 1.483933272917e-04 0.0 
0.0 0.0 -2.805418351568e-05 
-1.947382551544e-04 -2.159516415369e-06 0.0 
-2.159516415369e-06 1.315627443457e-03 0.0 
0.0 0.0 -1.955083413980e-04 
-8.567559438263e-06 -1.698793721464e-06 0.0 
-1.698793721464e-06 4.448364337142e-05 0.0 
0.0 0.0 -8.578267221574e-06 
-8.136868517871e-06 -4.367899646924e-06 0.0 
-4.367899646924e-06 4.087946457471e-05 0.0 
0.0 0.0 -8.341387659605e-06 
-1.954641214955e-04 3.125550394228e-06 0.0 
3.125550394228e-06 1.316340498285e-03 0.0 
0.0 0.0 -1.955041315648e-04 
-5.006254034077e-05 3.860488417876e-06 0.0 
3.860488417876e-06 2.918098893608e-04 0.0 
0.0 0.0 -4.819929352323e-05 
-1.113057377054e-04 -1.249747274644e-06 0.0 
-1.249747274644e-06 7.175137801225e-04 0.0 
0.0 0.0 -1.095085134540e-04 
-1.950754387674e-04 1.968519813096e-06 0.0 
1.968519813096e-06 1.314054090021e-03 0.0 
0.0 0.0 -1.951497400597e-04 
-6.837076637649e-05 -4.771419097857e-06 0.0 
-4.771419097857e-06 4.223371659246e-04 0.0 
0.0 0.0 -6.746904573659e-05 
-1.952596228174e-04 5.860291744710e-07 0.0 
5.860291744710e-07 1.317160681800e-03 0.0 
0.0 0.0 -1.956021977692e-04 
-8.896698281549e-05 5.176874405716e-07 0.0 
5.176874405716e-07 5.656380992247e-04 0.0 
0.0 0.0 -8.786970436408e-05 
-1.941939648637e-04 1.847287419424e-06 0.0 
1.847287419424e-06 1.320485000250e-03 0.0 
0.0 0.0 -1.961487763302e-04 
-7.650674215329e-06 1.236502144193e-06 0.0 
1.236502144193e-06 3.991553915001e-05 0.0 
0.0 0.0 -8.186248162006e-06 
-1.957069062092e-04 9.003290222843e-07 0.0 
9.003290222843e-07 1.317426151316e-03 0.0 
0.0 0.0 -1.956722400187e-04 
-1.089453835626e-04 2.369159746168e-06 0.0 
2.369159746168e-06 7.099109707760e-04 0.0 
0.0 0.0 -1.080461297714e-04 
-6.859129019067e-05 1.013206430907e-06 0.0 
1.013206430907e-06 4.370886358119e-04 0.0 
0.0 0.0 -6.960710895285e-05 
-1.371687672462e-04 1.989641405698e-06 0.0 
1.989641405698e-06 9.073488131676e-04 0.0 
0.0 0.0 -1.368826812983e-04 
-1.943229683407e-04 -1.445358278171e-06 0.0 
-1.445358278171e-06 1.315110082613e-03 0.0 
0.0 0.0 -1.951920106767e-04 
-1.956930830492e-04 2.604495501023e-06 0.0 
2.604495501023e-06 1.317782772153e-03 0.0 
0.0 0.0 -1.956442140825e-04 
-1.963197173795e-04 -2.638308879700e-06 0.0 
-2.638308879700e-06 1.317317020312e-03 0.0 
0.0 0.0 -1.954857917668e-04 
-1.946046977129e-04 1.619923868870e-06 0.0 
1.619923868870e-06 1.311223827380e-03 0.0 
0.0 0.0 -1.946591103862e-04 
-1.965700765428e-04 -3.277130686746e-06 0.0 
-3.277130686746e-06 1.319377863823e-03 0.0 
0.0 0.0 -1.957959275784e-04 
-1.125606473740e-04 1.719511349206e-06 0.0 
1.719511349206e-06 7.393436574216e-04 0.0 
0.0 0.0 -1.128301714015e-04 
-1.128503086942e-04 1.743206654311e-06 0.0 
1.743206654311e-06 7.389768954601e-04 0.0 
0.0 0.0 -1.129477424158e-04 
-1.131980592598e-04 -1.862024743753e-06 0.0 
-1.862024743753e-06 7.425708164452e-04 0.0 
0.0 0.0 -1.137040567910e-04 
-1.496411633683e-04 -5.197980004835e-06 0.0 
-5.197980004835e-06 9.903344520159e-04 0.0 
0.0 0.0 -1.492512252364e-04 
-1.950888054502e-04 -1.662594662544e-06 0.0 
-1.662594662544e-06 1.318271302421e-03 0.0 
0.0 0.0 -1.954311278458e-04 
-7.420624434335e-06 -2.743944179506e-06 0.0 
-2.743944179506e-06 4.036171462300e-05 0.0 
0.0 0.0 -8.192647634203e-06 
-9.873734262922e-06 8.287041108010e-07 0.0 
8.287041108010e-07 4.596430085012e-05 0.0 
0.0 0.0 -8.762595040287e-06 
-1.681367322331e-04 -1.737857054475e-07 0.0 
-1.737857054475e-07 1.127342030325e-03 0.0 
0.0 0.0 -1.684329593750e-04 
-1.137312378447e-04 2.941922033179e-06 0.0 
2.941922033179e-06 7.354400071240e-04 0.0 
0.0 0.0 -1.125050824252e-04 
-4.041482156002e-05 3.417558897106e-07 0.0 
3.417558897106e-07 2.241831831132e-04 0.0 
0.0 0.0 -3.891752881399e-05 
-1.947641557456e-04 7.923084531915e-07 0.0 
7.923084531915e-07 1.304507022875e-03 0.0 
0.0 0.0 -1.939800207710e-04 
-1.960054809974e-04 2.031047324452e-06 0.0 
2.031047324452e-06 1.320447363547e-03 0.0 
0.0 0.0 -1.960961780200e-04 
-1.959837947468e-04 7.548015026685e-07 0.0 
7.548015026685e-07 1.316397764372e-03 0.0 
0.0 0.0 -1.957100175409e-04 
-1.949003992159e-04 1.873708810936e-06 0.0 
1.873708810936e-06 1.312448359133e-03 0.0 
0.0 0.0 -1.946892349944e-04 
-1.963394652884e-04 -2.461762416477e-06 0.0 
-2.461762416477e-06 1.317843150582e-03 0.0 
0.0 0.0 -1.958367853254e-04 
-9.399904561967e-06 3.751811683982e-07 0.0 
3.751811683982e-07 4.607602797327e-05 0.0 
0.0 0.0 -8.777929302786e-06 
-1.121136777944e-04 2.136242843992e-06 0.0 
2.136242843992e-06 7.375316866664e-04 0.0 
0.0 0.0 -1.125147119063e-04 
-1.945054015985e-04 1.526423234173e-06 0.0 
1.526423234173e-06 1.305744790732e-03 0.0 
0.0 0.0 -1.939771297832e-04 
-1.693349048774e-04 -4.546658260319e-06 0.0 
-4.546658260319e-06 1.130612016236e-03 0.0 
0.0 0.0 -1.685397735077e-04 
-8.598075030748e-06 -2.223307893963e-06 0.0 
-2.223307893963e-06 4.388775337437e-05 0.0 
0.0 0.0 -8.698177642707e-06 
-8.871376934976e-05 -9.707224206822e-07 0.0 
-9.707224206822e-07 5.731446297532e-04 0.0 
0.0 0.0 -8.906156601093e-05 
-1.979802513817e-04 -1.566370620822e-06 0.0 
-1.566370620822e-06 1.328935425363e-03 0.0 
0.0 0.0 -1.967971955909e-04 
-6.059110968862e-05 -2.270349058910e-06 0.0 
-2.270349058910e-06 3.638632698663e-04 0.0 
0.0 0.0 -5.846208800394e-05 
-3.934380255029e-05 1.116524761702e-06 0.0 
1.116524761702e-06 2.201048627676e-04 0.0 
0.0 0.0 -3.823193484201e-05 
-7.905584954535e-05 -1.125239316858e-06 0.0 
-1.125239316858e-06 4.942495490073e-04 0.0 
0.0 0.0 -7.767853477808e-05 
-9.853492259670e-05 -1.059175576559e-06 0.0 
-1.059175576559e-06 6.356901872357e-04 0.0 
0.0 0.0 -9.791554816786e-05 
-1.758731503853e-05 -2.183232337716e-06 0.0 
-2.183232337716e-06 7.214564488676e-05 0.0 
0.0 0.0 -1.677835640721e-05 
-1.304400768820e-04 -1.226623402604e-06 0.0 
-1.226623402604e-06 8.588836031036e-04 0.0 
0.0 0.0 -1.302718197671e-04 
-1.976961881145e-04 -1.904942962871e-06 0.0 
-1.904942962871e-06 1.329827350337e-03 0.0 
0.0 0.0 -1.970859964037e-04 
-7.778984465367e-06 4.389754775789e-06 0.0 
4.389754775789e-06 4.119927433976e-05 0.0 
0.0 0.0 -8.754673005183e-06 
-1.866018908338e-04 -2.006069315688e-08 0.0 
-2.006069315688e-08 1.262553750678e-03 0.0 
0.0 0.0 -1.880896313740e-04 
-1.123534650814e-04 1.611587689509e-06 0.0 
1.611587689509e-06 7.392560460262e-04 0.0 
0.0 0.0 -1.129840772622e-04 
-1.171047806051e-04 7.449209117803e-07 0.0 
7.449209117803e-07 7.664746806855e-04 0.0 
0.0 0.0 -1.171402528589e-04 
-1.209300272193e-04 3.259751506580e-06 0.0 
3.259751506580e-06 8.015413982557e-04 0.0 
0.0 0.0 -1.217336839916e-04 
-1.273390226549e-04 -1.216641127310e-06 0.0 
-1.216641127310e-06 8.349727543367e-04 0.0 
0.0 0.0 -1.264258636278e-04 
-1.320700965903e-04 1.876866623279e-08 0.0 
1.876866623279e-08 8.692918616205e-04 0.0 
0.0 0.0 -1.317698771115e-04 
-1.368244106801e-04 -1.114619508482e-06 0.0 
-1.114619508482e-06 9.001255364591e-04 0.0 
0.0 0.0 -1.359061374524e-04 
-1.313516644010e-04 -1.071478350727e-06 0.0 
-1.071478350727e-06 8.642075030487e-04 0.0 
0.0 0.0 -1.306688636612e-04 
-1.406252513590e-04 -1.352739222539e-06 0.0 
-1.352739222539e-06 9.300768557182e-04 0.0 
0.0 0.0 -1.401216342492e-04 
-1.355168506451e-04 -8.441429406155e-07 0.0 
-8.441429406155e-07 8.933027720166e-04 0.0 
0.0 0.0 -1.348466119664e-04 
-1.406309551036e-04 -1.423065028084e-06 0.0 
-1.423065028084e-06 9.373189590449e-04 0.0 
0.0 0.0 -1.412262538548e-04 
-1.447717080924e-04 -1.617847745048e-06 0.0 
-1.617847745048e-06 9.594996109507e-04 0.0 
0.0 0.0 -1.443446404888e-04 
-1.395639979808e-04 -9.495865010562e-07 0.0 
-9.495865010562e-07 9.223387170950e-04 0.0 
0.0 0.0 -1.390295894150e-04 
-1.488518955481e-04 -1.324901186338e-06 0.0 
-1.324901186338e-06 9.887094425207e-04 0.0 
0.0 0.0 -1.485505823874e-04 
-1.436922961000e-04 -1.046451979584e-06 0.0 
-1.046451979584e-06 9.515310653716e-04 0.0 
0.0 0.0 -1.432156325536e-04 
-1.343600788387e-04 -5.167793523512e-07 0.0 
-5.167793523512e-07 8.856735470671e-04 0.0 
0.0 0.0 -1.337521069633e-04 
-1.385105152453e-04 -4.710394907329e-07 0.0 
-4.710394907329e-07 9.146329712672e-04 0.0 
0.0 0.0 -1.379179829106e-04 
-1.289648752830e-04 -8.618976580070e-08 0.0 
-8.618976580070e-08 8.489207055611e-04 0.0 
0.0 0.0 -1.284753219673e-04 
-1.331501462654e-04 -2.281806353291e-07 0.0 
-2.281806353291e-07 8.778469958775e-04 0.0 
0.0 0.0 -1.326245976321e-04 
-1.426230691977e-04 -3.445547381833e-07 0.0 
-3.445547381833e-07 9.438219498313e-04 0.0 
0.0 0.0 -1.420797641308e-04 
-1.372349024752e-04 -4.912623478835e-07 0.0 
-4.912623478835e-07 9.068017641173e-04 0.0 
0.0 0.0 -1.367729294110e-04 
-1.278087679959e-04 -1.828532417460e-07 0.0 
-1.828532417460e-07 8.408634527744e-04 0.0 
0.0 0.0 -1.273259478075e-04 
-1.318398283045e-04 -3.075890479272e-07 0.0 
-3.075890479272e-07 8.695930318134e-04 0.0 
0.0 0.0 -1.314613401273e-04 
-1.224174681950e-04 5.152664304938e-08 0.0 
5.152664304938e-08 8.039186497448e-04 0.0 
0.0 0.0 -1.220343484428e-04 
-1.264174440320e-04 -1.610988413992e-07 0.0 
-1.610988413992e-07 8.325618017429e-04 0.0 
0.0 0.0 -1.261611736566e-04 
-1.170510544419e-04 2.223926002174e-08 0.0 
2.223926002174e-08 7.668217430428e-04 0.0 
0.0 0.0 -1.167242641243e-04 
-1.210374224200e-04 -1.474818318748e-07 0.0 
-1.474818318748e-07 7.955505097843e-04 0.0 
0.0 0.0 -1.208544874677e-04 
-1.304043414113e-04 -3.154242512105e-07 0.0 
-3.154242512105e-07 8.613589922912e-04 0.0 
0.0 0.0 -1.303042425932e-04 
-1.250914766715e-04 -9.789090931160e-08 0.0 
-9.789090931160e-08 8.242842117775e-04 0.0 
0.0 0.0 -1.249864172613e-04 
-1.156698454984e-04 4.104440089505e-08 0.0 
4.104440089505e-08 7.584999711117e-04 0.0 
0.0 0.0 -1.155496960434e-04 
-1.197696986214e-04 6.686600869339e-08 0.0 
6.686600869339e-08 7.872430335080e-04 0.0 
0.0 0.0 -1.196691756306e-04 
-1.103345672185e-04 1.936070379506e-07 0.0 
1.936070379506e-07 7.215726378401e-04 0.0 
0.0 0.0 -1.102360968649e-04 
-1.143831646187e-04 2.841694026704e-07 0.0 
2.841694026704e-07 7.499983246613e-04 0.0 
0.0 0.0 -1.143358844566e-04 
-1.238585560106e-04 1.680319022195e-07 0.0 
1.680319022195e-07 8.159376449007e-04 0.0 
0.0 0.0 -1.237972835831e-04 
-1.185140209161e-04 8.396902968216e-08 0.0 
8.396902968216e-08 7.787352394438e-04 0.0 
0.0 0.0 -1.184549252722e-04 
-1.089992092054e-04 6.281890232419e-08 0.0 
6.281890232419e-08 7.122982226840e-04 0.0 
0.0 0.0 -1.089619939006e-04 
-1.132389115670e-04 -1.057915283396e-07 0.0 
-1.057915283396e-07 7.414300503039e-04 0.0 
0.0 0.0 -1.130977248571e-04 
-1.037240861722e-04 -4.723566763670e-07 0.0 
-4.723566763670e-07 6.746986895894e-04 0.0 
0.0 0.0 -1.035578799258e-04 
-1.079391861501e-04 -9.525050174115e-10 0.0 
-9.525050174115e-10 7.042191649168e-04 0.0 
0.0 0.0 -1.077352770641e-04 
-9.832371136087e-05 -3.508088035027e-07 0.0 
-3.508088035027e-07 6.371418654706e-04 0.0 
0.0 0.0 -9.813603890825e-05 
-1.025291601956e-04 7.520025507386e-08 0.0 
7.520025507386e-08 6.664875104737e-04 0.0 
0.0 0.0 -1.023264466889e-04 
-1.121330899491e-04 -3.201268622930e-08 0.0 
-3.201268622930e-08 7.333893815298e-04 0.0 
0.0 0.0 -1.119135318789e-04 
-1.067345759512e-04 -1.457462253013e-07 0.0 
-1.457462253013e-07 6.958135066491e-04 0.0 
0.0 0.0 -1.065124872911e-04 
-9.708388481881e-05 -1.123756317370e-07 0.0 
-1.123756317370e-07 6.287043899204e-04 0.0 
0.0 0.0 -9.687936111797e-05 
-1.012280793484e-04 -2.016817593290e-07 0.0 
-2.016817593290e-07 6.578039102236e-04 0.0 
0.0 0.0 -1.010667964543e-04 
-1.108655634829e-04 -2.805142089434e-07 0.0 
-2.805142089434e-07 7.250705567917e-04 0.0 
0.0 0.0 -1.107220969010e-04 
-1.053738009019e-04 -2.657681640372e-07 0.0 
-2.657681640372e-07 6.869604308345e-04 0.0 
0.0 0.0 -1.052625016289e-04 
-1.150267739913e-04 -3.300558054111e-07 0.0 
-3.300558054111e-07 7.543777337130e-04 0.0 
0.0 0.0 -1.149374102432e-04 
-1.095605670490e-04 -1.992187362341e-07 0.0 
-1.992187362341e-07 7.162738244309e-04 0.0 
0.0 0.0 -1.094674241824e-04 
-9.992608341546e-05 -2.285291460902e-07 0.0 
-2.285291460902e-07 6.491377746979e-04 0.0 
0.0 0.0 -9.983047339662e-05 
-1.041038271013e-04 -4.784792107371e-08 0.0 
-4.784792107371e-08 6.783667909797e-04 0.0 
0.0 0.0 -1.040110107548e-04 
-1.137411101647e-04 -1.005325563354e-07 0.0 
-1.005325563354e-07 7.455825181624e-04 0.0 
0.0 0.0 -1.136680319875e-04 
-1.082869868131e-04 -5.329032704082e-08 0.0 
-5.329032704082e-08 7.073386927023e-04 0.0 
0.0 0.0 -1.081830392180e-04 
-9.869624350956e-05 -1.279251488153e-07 0.0 
-1.279251488153e-07 6.404070926404e-04 0.0 
0.0 0.0 -9.856705257735e-05 
-1.028159541346e-04 2.106799420310e-07 0.0 
2.106799420310e-07 6.694648529012e-04 0.0 
0.0 0.0 -1.027256921484e-04 
-1.124881435347e-04 1.468300417499e-07 0.0 
1.468300417499e-07 7.366254737130e-04 0.0 
0.0 0.0 -1.123746868942e-04 
-1.069630032943e-04 3.797193907441e-07 0.0 
3.797193907441e-07 6.984570345631e-04 0.0 
0.0 0.0 -1.069064678657e-04 
-9.735694714147e-05 3.040392105123e-07 0.0 
3.040392105123e-07 6.314702925721e-04 0.0 
0.0 0.0 -9.729074097479e-05 
-1.014698791265e-04 5.263077294053e-07 0.0 
5.263077294053e-07 6.606218601415e-04 0.0 
0.0 0.0 -1.014450936127e-04 
-1.111588134786e-04 4.465606502621e-07 0.0 
4.465606502621e-07 7.280983055299e-04 0.0 
0.0 0.0 -1.111412434799e-04 
-1.056103560307e-04 3.527345838497e-07 0.0 
3.527345838497e-07 6.896411777924e-04 0.0 
0.0 0.0 -1.056341277852e-04 
-9.592602067126e-05 5.327638544790e-07 0.0 
5.327638544790e-07 6.223325700671e-04 0.0 
0.0 0.0 -9.597584338962e-05 
-1.000042351432e-04 6.050193751295e-07 0.0 
6.050193751295e-07 6.512858928885e-04 0.0 
0.0 0.0 -1.001195007473e-04 
-1.097885953069e-04 3.509867728239e-07 0.0 
3.509867728239e-07 7.191866513993e-04 0.0 
0.0 0.0 -1.098732949993e-04 
-1.041219874635e-04 4.565113330363e-07 0.0 
4.565113330363e-07 6.802416856987e-04 0.0 
0.0 0.0 -1.043104098158e-04 
-1.139943776011e-04 2.608804957771e-07 0.0 
2.608804957771e-07 7.487261930972e-04 0.0 
0.0 0.0 -1.141349681178e-04 
-9.432131286435e-05 6.931090399305e-07 0.0 
6.931090399305e-07 6.120807620329e-04 0.0 
0.0 0.0 -9.453138577379e-05 
-9.843300825502e-05 3.791394769862e-07 0.0 
3.791394769862e-07 6.410640369442e-04 0.0 
0.0 0.0 -9.871483819285e-05 
-8.857532524913e-05 7.670792375352e-07 0.0 
7.670792375352e-07 5.725816228305e-04 0.0 
0.0 0.0 -8.888275660121e-05 
-9.270105845016e-05 2.622529703411e-07 0.0 
2.622529703411e-07 6.018362902946e-04 0.0 
0.0 0.0 -9.310666704106e-05 
-1.280450341640e-04 2.022914446802e-07 0.0 
2.022914446802e-07 8.448927114390e-04 0.0 
0.0 0.0 -1.279397651938e-04 
-8.276712932225e-05 6.443736138370e-07 0.0 
6.443736138370e-07 5.330826812988e-04 0.0 
0.0 0.0 -8.324826898147e-05 
-7.884768894366e-05 1.023704289178e-06 0.0 
1.023704289178e-06 5.047676539199e-04 0.0 
0.0 0.0 -7.914375511354e-05 
-8.697616798037e-05 -7.331328903560e-10 0.0 
-7.331328903560e-10 5.626687258914e-04 0.0 
0.0 0.0 -8.749891481922e-05 
-9.702972984445e-05 -9.951343649239e-08 0.0 
-9.951343649239e-08 6.318920870484e-04 0.0 
0.0 0.0 -9.740424872913e-05 
-7.706547232469e-05 2.380236829533e-07 0.0 
2.380236829533e-07 4.936160224660e-04 0.0 
0.0 0.0 -7.760805980730e-05 
-8.127460870577e-05 -1.704001729843e-07 0.0 
-1.704001729843e-07 5.235024448564e-04 0.0 
0.0 0.0 -8.188641417383e-05 
-7.155045226520e-05 3.113369261567e-07 0.0 
3.113369261567e-07 4.544691373911e-04 0.0 
0.0 0.0 -7.197242596511e-05 
-9.398834813403e-05 -4.649841708634e-07 0.0 
-4.649841708634e-07 6.067163141264e-04 0.0 
0.0 0.0 -9.378238744040e-05 
-1.466888889075e-04 -6.905876409825e-07 0.0 
-6.905876409825e-07 9.729931165237e-04 0.0 
0.0 0.0 -1.462607504514e-04 
-7.572467440231e-05 1.210487184868e-07 0.0 
1.210487184868e-07 4.846162633768e-04 0.0 
0.0 0.0 -7.626743364961e-05 
-6.621416197033e-05 -1.397216265960e-07 0.0 
-1.397216265960e-07 4.154095652474e-04 0.0 
0.0 0.0 -6.634679566782e-05 
-6.190172954625e-05 4.165851450949e-07 0.0 
4.165851450949e-07 3.853087909955e-04 0.0 
0.0 0.0 -6.205237226325e-05 
-5.628575454228e-05 3.940532300383e-08 0.0 
3.940532300383e-08 3.460724695174e-04 0.0 
0.0 0.0 -5.642855255362e-05 
-1.354938510920e-04 -2.913953566673e-06 0.0 
-2.913953566673e-06 9.082152710087e-04 0.0 
0.0 0.0 -1.368953805519e-04 
-1.462552660591e-04 1.249747586106e-07 0.0 
1.249747586106e-07 9.752174249571e-04 0.0 
0.0 0.0 -1.465891790687e-04 
-1.414040401139e-04 -1.271486640511e-06 0.0 
-1.271486640511e-06 9.428451641582e-04 0.0 
0.0 0.0 -1.420291944686e-04 
-1.520026480131e-04 -3.631190555519e-07 0.0 
-3.631190555519e-07 1.012864624851e-03 0.0 
0.0 0.0 -1.519432683735e-04 
-1.472985787471e-04 -1.382728633740e-06 0.0 
-1.382728633740e-06 9.819853291120e-04 0.0 
0.0 0.0 -1.475277143832e-04 
-6.049783873772e-05 -1.110839167728e-06 0.0 
-1.110839167728e-06 3.760535738177e-04 0.0 
0.0 0.0 -6.071687451653e-05 
-1.539446624240e-04 -1.181077219234e-06 0.0 
-1.181077219234e-06 1.026370553893e-03 0.0 
0.0 0.0 -1.540030753513e-04 
-1.562964739112e-04 4.946292658219e-07 0.0 
4.946292658219e-07 1.043020722120e-03 0.0 
0.0 0.0 -1.563396320792e-04 
-1.184118913967e-04 1.857139776565e-07 0.0 
1.857139776565e-07 7.754976810309e-04 0.0 
0.0 0.0 -1.179280690692e-04 
-1.062500152817e-04 1.741187945378e-07 0.0 
1.741187945378e-07 6.928514360504e-04 0.0 
0.0 0.0 -1.061413340584e-04 
-1.205167248159e-04 -5.462407212351e-07 0.0 
-5.462407212351e-07 7.925156879070e-04 0.0 
0.0 0.0 -1.204127835607e-04 
-8.548976471001e-05 -7.615656520967e-07 0.0 
-7.615656520967e-07 5.535587085213e-04 0.0 
0.0 0.0 -8.618857558133e-05 
-7.988885271144e-05 1.897397534693e-07 0.0 
1.897397534693e-07 5.152050676733e-04 0.0 
0.0 0.0 -8.057008281249e-05 
-9.032121231226e-05 -1.684930927318e-06 0.0 
-1.684930927318e-06 5.843848000393e-04 0.0 
0.0 0.0 -9.050178936823e-05 
-1.196337930892e-04 1.102008659663e-07 0.0 
1.102008659663e-07 7.876256328336e-04 0.0 
0.0 0.0 -1.197064290626e-04 
-1.239088484819e-04 1.270562820447e-07 0.0 
1.270562820447e-07 8.174720289214e-04 0.0 
0.0 0.0 -1.239919845821e-04 
-1.295076006245e-04 6.163016450201e-08 0.0 
6.163016450201e-08 8.563536897128e-04 0.0 
0.0 0.0 -1.295728275001e-04 
-1.338245653935e-04 6.187832994800e-08 0.0 
6.187832994800e-08 8.862996102706e-04 0.0 
0.0 0.0 -1.338680086136e-04 
-1.393975761356e-04 4.550308926581e-08 0.0 
4.550308926581e-08 9.252125319019e-04 0.0 
0.0 0.0 -1.394574676997e-04 
-1.437406368722e-04 1.277074154763e-07 0.0 
1.277074154763e-07 9.552601406530e-04 0.0 
0.0 0.0 -1.437562178924e-04 
-1.381365115215e-04 -6.384328167053e-08 0.0 
-6.384328167053e-08 9.162527365186e-04 0.0 
0.0 0.0 -1.381609243235e-04 
-1.481035666194e-04 -1.079358485103e-07 0.0 
-1.079358485103e-07 9.853010756590e-04 0.0 
0.0 0.0 -1.480541560501e-04 
-1.424433669279e-04 -2.461913392847e-07 0.0 
-2.461913392847e-07 9.462005835288e-04 0.0 
0.0 0.0 -1.424551100593e-04 
-1.492800736972e-04 1.903860536894e-07 0.0 
1.903860536894e-07 9.941570401524e-04 0.0 
0.0 0.0 -1.493525342080e-04 
-1.449751840430e-04 -1.306362921351e-07 0.0 
-1.306362921351e-07 9.640748764024e-04 0.0 
0.0 0.0 -1.450229800689e-04 
-1.523999948246e-04 -3.989684281703e-07 0.0 
-3.989684281703e-07 1.015224728092e-03 0.0 
0.0 0.0 -1.523522284989e-04 
-1.467103464147e-04 -2.659540217928e-07 0.0 
-2.659540217928e-07 9.761558421408e-04 0.0 
0.0 0.0 -1.467489045856e-04 
-1.565625592364e-04 -4.158419287493e-07 0.0 
-4.158419287493e-07 1.045129081510e-03 0.0 
0.0 0.0 -1.566543602455e-04 
-1.508966779748e-04 -3.393169835015e-07 0.0 
-3.393169835015e-07 1.005998704446e-03 0.0 
0.0 0.0 -1.510511651883e-04 
-1.410712457468e-04 -1.790301414097e-07 0.0 
-1.790301414097e-07 9.369358529960e-04 0.0 
0.0 0.0 -1.411301529270e-04 
-1.452736367783e-04 -1.279390741405e-07 0.0 
-1.279390741405e-07 9.667244667063e-04 0.0 
0.0 0.0 -1.454254449112e-04 
-1.355658465602e-04 -3.525019047488e-07 0.0 
-3.525019047488e-07 8.980272974833e-04 0.0 
0.0 0.0 -1.355350811980e-04 
-1.247169685603e-04 -5.424891476077e-07 0.0 
-5.424891476077e-07 8.219820472476e-04 0.0 
0.0 0.0 -1.246443719175e-04 
-1.302412994967e-04 -6.709375140069e-07 0.0 
-6.709375140069e-07 8.602885817839e-04 0.0 
0.0 0.0 -1.301366355066e-04 
-1.344319823677e-04 -5.992072868323e-07 0.0 
-5.992072868323e-07 8.897694935505e-04 0.0 
0.0 0.0 -1.343775141111e-04 
-1.400237331498e-04 -7.656893218292e-07 0.0 
-7.656893218292e-07 9.282252120942e-04 0.0 
0.0 0.0 -1.398832378697e-04 
-1.441786028548e-04 -7.248633173167e-07 0.0 
-7.248633173167e-07 9.577423680475e-04 0.0 
0.0 0.0 -1.441376510238e-04 
-1.498975004286e-04 -8.881523903677e-07 0.0 
-8.881523903677e-07 9.963296213112e-04 0.0 
0.0 0.0 -1.496454511588e-04 
-1.540303661717e-04 -7.919312302375e-07 0.0 
-7.919312302375e-07 1.025660690864e-03 0.0 
0.0 0.0 -1.539048756661e-04 
-1.483333586792e-04 -5.305309886562e-07 0.0 
-5.305309886562e-07 9.873032168340e-04 0.0 
0.0 0.0 -1.483914164041e-04 
-1.531422374596e-04 -8.663739869802e-07 0.0 
-8.663739869802e-07 1.017764678093e-03 0.0 
0.0 0.0 -1.527153750466e-04 
-9.159847415972e-05 -1.256689801576e-07 0.0 
-1.256689801576e-07 5.906791861929e-04 0.0 
0.0 0.0 -9.143391812226e-05 
-8.744560526880e-05 -1.314299425383e-07 0.0 
-1.314299425383e-07 5.615762013321e-04 0.0 
0.0 0.0 -8.725348065585e-05 
-8.202336977827e-05 5.298561278532e-08 0.0 
5.298561278532e-08 5.236724682599e-04 0.0 
0.0 0.0 -8.181782897632e-05 
-7.787136643021e-05 -4.089849052188e-08 0.0 
-4.089849052188e-08 4.946511796611e-04 0.0 
0.0 0.0 -7.764583100160e-05 
-7.249839660415e-05 3.138088007650e-07 0.0 
3.138088007650e-07 4.567503960433e-04 0.0 
0.0 0.0 -7.221245969917e-05 
-6.836637044469e-05 1.575150055605e-07 0.0 
1.575150055605e-07 4.279278736544e-04 0.0 
0.0 0.0 -6.805748655366e-05 
-6.305635467696e-05 5.617632190065e-07 0.0 
5.617632190065e-07 3.898265041818e-04 0.0 
0.0 0.0 -6.258396351101e-05 
-6.700103591366e-05 8.220641914788e-07 0.0 
8.220641914788e-07 4.186472656110e-04 0.0 
0.0 0.0 -6.675491739715e-05 
-5.754489831194e-05 1.185749684510e-06 0.0 
1.185749684510e-06 3.514253860379e-04 0.0 
0.0 0.0 -5.707878267586e-05 
-6.126290636031e-05 1.086382821669e-06 0.0 
1.086382821669e-06 3.802508716618e-04 0.0 
0.0 0.0 -6.128043668686e-05 
-5.191997638371e-05 1.314501197429e-06 0.0 
1.314501197429e-06 3.126420855080e-04 0.0 
0.0 0.0 -5.156902369321e-05 
-5.548063518944e-05 1.243851983737e-06 0.0 
1.243851983737e-06 3.415672031581e-04 0.0 
0.0 0.0 -5.575645035334e-05 
-1.344754893882e-04 -2.441387490922e-07 0.0 
-2.441387490922e-07 8.901905827652e-04 0.0 
0.0 0.0 -1.344534760290e-04 
-1.456336275119e-04 -7.568221187931e-07 0.0 
-7.568221187931e-07 9.666800779835e-04 0.0 
0.0 0.0 -1.453735332694e-04 
-1.555049783814e-04 -4.155015620932e-07 0.0 
-4.155015620932e-07 1.035032948266e-03 0.0 
0.0 0.0 -1.551468130506e-04 
-1.509958831296e-04 -4.550450407199e-07 0.0 
-4.550450407199e-07 1.004729653599e-03 0.0 
0.0 0.0 -1.507981208515e-04 
-5.237773532105e-05 7.911299625012e-08 0.0 
7.911299625012e-08 3.162172589784e-04 0.0 
0.0 0.0 -5.213283032136e-05 
-1.549595763032e-04 -3.953475088671e-07 0.0 
-3.953475088671e-07 1.035774981690e-03 0.0 
0.0 0.0 -1.553660438793e-04 
-1.548355158551e-04 -2.147058021658e-07 0.0 
-2.147058021658e-07 1.033072477775e-03 0.0 
0.0 0.0 -1.549384463224e-04 
-1.505618374828e-04 -5.346193515463e-07 0.0 
-5.346193515463e-07 1.002549198399e-03 0.0 
0.0 0.0 -1.505609887339e-04 
-1.581943545466e-04 -1.140192146813e-07 0.0 
-1.140192146813e-07 1.055484497313e-03 0.0 
0.0 0.0 -1.581898251365e-04 
-5.074202381651e-05 -4.469562897143e-07 0.0 
-4.469562897143e-07 3.073591846823e-04 0.0 
0.0 0.0 -5.088881735611e-05 
-5.888894202551e-05 -5.741143861354e-08 0.0 
-5.741143861354e-08 3.614604751917e-04 0.0 
0.0 0.0 -5.849107602244e-05 
-6.412075790079e-05 -1.262278375692e-08 0.0 
-1.262278375692e-08 3.988248925712e-04 0.0 
0.0 0.0 -6.391656864161e-05 
-1.574092422667e-04 -9.339425827558e-07 0.0 
-9.339425827558e-07 1.050297343269e-03 0.0 
0.0 0.0 -1.573311895261e-04 
-1.526877283991e-04 -1.284456620320e-06 0.0 
-1.284456620320e-06 1.019137079127e-03 0.0 
0.0 0.0 -1.529187321887e-04 
-1.603825137223e-04 -5.841749785693e-07 0.0 
-5.841749785693e-07 1.071965760526e-03 0.0 
0.0 0.0 -1.605236522104e-04 
-5.469413786455e-05 -7.281622474744e-07 0.0 
-7.281622474744e-07 3.375315586186e-04 0.0 
0.0 0.0 -5.513621196740e-05 
-1.581536908889e-04 -3.654449846177e-07 0.0 
-3.654449846177e-07 1.054473463793e-03 0.0 
0.0 0.0 -1.579496168166e-04 
-4.796468630861e-05 1.896906112626e-06 0.0 
1.896906112626e-06 2.843046372018e-04 0.0 
0.0 0.0 -4.740762976608e-05 
-1.492957563781e-04 2.220942752480e-07 0.0 
2.220942752480e-07 9.964627124321e-04 0.0 
0.0 0.0 -1.497345920687e-04 
-1.590878470858e-04 -2.496159838047e-07 0.0 
-2.496159838047e-07 1.065574434498e-03 0.0 
0.0 0.0 -1.596751832792e-04 
-1.325072402165e-04 -1.969088110070e-07 0.0 
-1.969088110070e-07 8.772948073459e-04 0.0 
0.0 0.0 -1.325798954328e-04 
-1.608189791387e-04 2.014272611918e-07 0.0 
2.014272611918e-07 1.073406976442e-03 0.0 
0.0 0.0 -1.606363799130e-04 
-1.561309716741e-04 -2.339592577673e-07 0.0 
-2.339592577673e-07 1.041858527671e-03 0.0 
0.0 0.0 -1.562164154417e-04 
-6.542148837339e-05 5.946748364299e-07 0.0 
5.946748364299e-07 4.098578497775e-04 0.0 
0.0 0.0 -6.552037126556e-05 
-6.021736437679e-05 -6.684208511404e-07 0.0 
-6.684208511404e-07 3.714517723808e-04 0.0 
0.0 0.0 -6.000043125475e-05 
-5.068915045621e-05 -1.408380561498e-07 0.0 
-1.408380561498e-07 3.045038040978e-04 0.0 
0.0 0.0 -5.043265711026e-05 
-5.453954142818e-05 2.060651504186e-07 0.0 
2.060651504186e-07 3.366924109337e-04 0.0 
0.0 0.0 -5.469261876575e-05 
-6.451407366441e-05 2.351316534634e-07 0.0 
2.351316534634e-07 4.022325511173e-04 0.0 
0.0 0.0 -6.426716227193e-05 
-5.833627625562e-05 1.475332914289e-06 0.0 
1.475332914289e-06 3.627446873596e-04 0.0 
0.0 0.0 -5.871258337438e-05 
-4.807156131251e-05 2.860984901678e-06 0.0 
2.860984901678e-06 2.943856579529e-04 0.0 
0.0 0.0 -4.913324142619e-05 
-5.254361987426e-05 1.123300701462e-06 0.0 
1.123300701462e-06 3.235079135303e-04 0.0 
0.0 0.0 -5.312780584397e-05 
-6.250659233249e-05 1.032214388617e-06 0.0 
1.032214388617e-06 3.916354902735e-04 0.0 
0.0 0.0 -6.289080004402e-05 
-5.683371271564e-05 6.514617663209e-07 0.0 
6.514617663209e-07 3.524304224725e-04 0.0 
0.0 0.0 -5.728364188530e-05 
-4.626688611708e-05 9.433782266075e-08 0.0 
9.433782266075e-08 2.835389789337e-04 0.0 
0.0 0.0 -4.745589417336e-05 
-5.129426302525e-05 -1.503356296708e-07 0.0 
-1.503356296708e-07 3.125902668457e-04 0.0 
0.0 0.0 -5.163203607156e-05 
-1.648607225605e-04 -6.089305084908e-07 0.0 
-6.089305084908e-07 1.104792906558e-03 0.0 
0.0 0.0 -1.652812738464e-04 
-4.167405797836e-05 8.410179837610e-07 0.0 
8.410179837610e-07 2.451219688669e-04 0.0 
0.0 0.0 -4.186284350154e-05 
-1.249684890118e-04 -2.205649056544e-07 0.0 
-2.205649056544e-07 8.202073805391e-04 0.0 
0.0 0.0 -1.243305906297e-04 
-1.646630308387e-04 -1.022913161016e-08 0.0 
-1.022913161016e-08 1.101899429601e-03 0.0 
0.0 0.0 -1.648518411109e-04 
-1.639675080930e-04 -1.299974009233e-07 0.0 
-1.299974009233e-07 1.093025674446e-03 0.0 
0.0 0.0 -1.635990625314e-04 
-1.626548351363e-04 -9.421237167934e-07 0.0 
-9.421237167934e-07 1.087804894673e-03 0.0 
0.0 0.0 -1.627548864773e-04 
-1.581986558715e-04 -9.653447949462e-07 0.0 
-9.653447949462e-07 1.056782727253e-03 0.0 
0.0 0.0 -1.583405447554e-04 
-1.481377693349e-04 -2.120708352151e-07 0.0 
-2.120708352151e-07 9.876266265678e-04 0.0 
0.0 0.0 -1.484606848305e-04 
-1.540154319252e-04 -3.355995825506e-07 0.0 
-3.355995825506e-07 1.026130043866e-03 0.0 
0.0 0.0 -1.539002516356e-04 
-1.639459642661e-04 -1.118185498440e-06 0.0 
-1.118185498440e-06 1.095163385158e-03 0.0 
0.0 0.0 -1.637913674505e-04 
-1.597127986535e-04 -5.251908400988e-07 0.0 
-5.251908400988e-07 1.064343135399e-03 0.0 
0.0 0.0 -1.593514347843e-04 
-1.498284746973e-04 -2.503307102559e-07 0.0 
-2.503307102559e-07 9.952508194671e-04 0.0 
0.0 0.0 -1.494394109873e-04 
-1.551654717719e-04 -2.221504212273e-07 0.0 
-2.221504212273e-07 1.032948984562e-03 0.0 
0.0 0.0 -1.548970433853e-04 
-1.450485534152e-04 -2.383136960808e-07 0.0 
-2.383136960808e-07 9.636019756158e-04 0.0 
0.0 0.0 -1.449683599891e-04 
-1.505550421048e-04 1.094892235923e-07 0.0 
1.094892235923e-07 1.001407844642e-03 0.0 
0.0 0.0 -1.504333548381e-04 
-1.604309941691e-04 -2.109459501862e-07 0.0 
-2.109459501862e-07 1.070618892500e-03 0.0 
0.0 0.0 -1.603701620288e-04 
-1.560376916017e-04 -3.456752304365e-07 0.0 
-3.456752304365e-07 1.039490983705e-03 0.0 
0.0 0.0 -1.559081117414e-04 
-1.463603444154e-04 5.238436514868e-07 0.0 
5.238436514868e-07 9.703937077682e-04 0.0 
0.0 0.0 -1.459586303199e-04 
-1.516966554836e-04 -5.880015514228e-07 0.0 
-5.880015514228e-07 1.008208762980e-03 0.0 
0.0 0.0 -1.514361790689e-04 
-1.421096498293e-04 1.604631745138e-07 0.0 
1.604631745138e-07 9.389173202103e-04 0.0 
0.0 0.0 -1.414740555389e-04 
-1.468086585315e-04 -1.361458900587e-06 0.0 
-1.361458900587e-06 9.758542090481e-04 0.0 
0.0 0.0 -1.469409179663e-04 
-1.568420766373e-04 -2.584461478695e-07 0.0 
-2.584461478695e-07 1.046197364230e-03 0.0 
0.0 0.0 -1.569152749070e-04 
-4.415663167365e-05 -1.039285152091e-07 0.0 
-1.039285152091e-07 2.708684229223e-04 0.0 
0.0 0.0 -4.553936700826e-05 
-1.526637656570e-04 1.250996266672e-07 0.0 
1.250996266672e-07 1.017041372094e-03 0.0 
0.0 0.0 -1.526598922342e-04 
-1.628543927015e-04 1.351270598111e-06 0.0 
1.351270598111e-06 1.085793726948e-03 0.0 
0.0 0.0 -1.625747755015e-04 
-8.563655870662e-05 -3.488146837263e-06 0.0 
-3.488146837263e-06 5.496252535939e-04 0.0 
0.0 0.0 -8.506982008416e-05 
-9.486581924080e-05 -3.814151178450e-06 0.0 
-3.814151178450e-06 6.119359456549e-04 0.0 
0.0 0.0 -9.488074031859e-05 
-1.005495603609e-04 3.086228134672e-07 0.0 
3.086228134672e-07 6.529918919365e-04 0.0 
0.0 0.0 -1.004348942539e-04 
-1.044776236545e-04 -3.577979789199e-07 0.0 
-3.577979789199e-07 6.841250152862e-04 0.0 
0.0 0.0 -1.048029480622e-04 
-1.519826796643e-04 -1.039717232479e-06 0.0 
-1.039717232479e-06 1.014113556129e-03 0.0 
0.0 0.0 -1.523216651845e-04 
-1.628631714461e-04 6.789175869979e-07 0.0 
6.789175869979e-07 1.084318911977e-03 0.0 
0.0 0.0 -1.624109035739e-04 
-5.449179525623e-05 -7.987416053240e-08 0.0 
-7.987416053240e-08 3.327114773236e-04 0.0 
0.0 0.0 -5.446356520677e-05 
-5.983794664642e-05 5.165551288585e-07 0.0 
5.165551288585e-07 3.698050392348e-04 0.0 
0.0 0.0 -5.981452797925e-05 
-1.671906361362e-04 -6.280906550939e-07 0.0 
-6.280906550939e-07 1.118589944564e-03 0.0 
0.0 0.0 -1.671574094483e-04 
-1.535741135101e-04 4.867165336146e-08 0.0 
4.867165336146e-08 1.026955907390e-03 0.0 
0.0 0.0 -1.540568046000e-04 
-1.438756782793e-04 7.792960236787e-07 0.0 
7.792960236787e-07 9.575022276215e-04 0.0 
0.0 0.0 -1.441490849774e-04 
-1.009130978815e-04 2.058688768753e-07 0.0 
2.058688768753e-07 6.559900048877e-04 0.0 
0.0 0.0 -1.008290295839e-04 
-9.685773395831e-05 4.264808855011e-07 0.0 
4.264808855011e-07 6.270397862493e-04 0.0 
0.0 0.0 -9.674459360631e-05 
-9.135164612507e-05 -1.903780837398e-07 0.0 
-1.903780837398e-07 5.899287429268e-04 0.0 
0.0 0.0 -9.139696625653e-05 
-8.725354889555e-05 6.962837147414e-07 0.0 
6.962837147414e-07 5.598510728809e-04 0.0 
0.0 0.0 -8.718447207042e-05 
-9.300425525152e-05 1.437996831779e-06 0.0 
1.437996831779e-06 5.988622257639e-04 0.0 
0.0 0.0 -9.260497328457e-05 
-8.151290837503e-05 -1.410580149273e-06 0.0 
-1.410580149273e-06 5.218003047074e-04 0.0 
0.0 0.0 -8.172223224803e-05 
-1.406089208823e-04 -2.402054608789e-07 0.0 
-2.402054608789e-07 9.332894798307e-04 0.0 
0.0 0.0 -1.405957691658e-04 
-1.658683700673e-04 -7.646942833602e-07 0.0 
-7.646942833602e-07 1.108741460833e-03 0.0 
0.0 0.0 -1.658562309426e-04 
-5.781518420954e-05 1.266454175936e-06 0.0 
1.266454175936e-06 3.557470476378e-04 0.0 
0.0 0.0 -5.779306812918e-05 
-4.802865254420e-05 7.137000022052e-07 0.0 
7.137000022052e-07 2.866754704248e-04 0.0 
0.0 0.0 -4.790438838533e-05 
-1.638603738935e-04 -1.751728736807e-07 0.0 
-1.751728736807e-07 1.096449059773e-03 0.0 
0.0 0.0 -1.639950272516e-04 
-1.428406885554e-04 -4.063061608449e-08 0.0 
-4.063061608449e-08 9.487085255522e-04 0.0 
0.0 0.0 -1.428423306355e-04 
-1.397754667912e-04 -5.337001690441e-07 0.0 
-5.337001690441e-07 9.273626177410e-04 0.0 
0.0 0.0 -1.397960314865e-04 
-1.438858799674e-04 -3.687014672475e-07 0.0 
-3.687014672475e-07 9.563861152014e-04 0.0 
0.0 0.0 -1.439752108775e-04 
-1.492610894434e-04 -6.859194927328e-07 0.0 
-6.859194927328e-07 9.938921068845e-04 0.0 
0.0 0.0 -1.493569516990e-04 
-1.533583656652e-04 -2.578988813186e-07 0.0 
-2.578988813186e-07 1.023001986965e-03 0.0 
0.0 0.0 -1.535627705943e-04 
-1.589055659580e-04 -8.108043834337e-07 0.0 
-8.108043834337e-07 1.060829964530e-03 0.0 
0.0 0.0 -1.589810023698e-04 
-1.631518145122e-04 -4.384743000289e-07 0.0 
-4.384743000289e-07 1.089769235200e-03 0.0 
0.0 0.0 -1.631781870057e-04 
-1.576954622164e-04 7.757103855091e-08 0.0 
7.757103855091e-08 1.052834468886e-03 0.0 
0.0 0.0 -1.577686755743e-04 
-1.655653749574e-04 1.153777774229e-06 0.0 
1.153777774229e-06 1.110734179248e-03 0.0 
0.0 0.0 -1.661194977352e-04 
-1.676568937117e-04 -5.380450323566e-07 0.0 
-5.380450323566e-07 1.120118409862e-03 0.0 
0.0 0.0 -1.673875415144e-04 
-1.408452494755e-04 1.226026312677e-06 0.0 
1.226026312677e-06 9.416014478326e-04 0.0 
0.0 0.0 -1.423072560050e-04 
-1.411610954119e-04 -1.667686956676e-07 0.0 
-1.667686956676e-07 9.361864568386e-04 0.0 
0.0 0.0 -1.409767306836e-04 
-6.685806001299e-05 8.336719987083e-07 0.0 
8.336719987083e-07 4.210903405702e-04 0.0 
0.0 0.0 -6.711978442003e-05 
-4.180859338127e-05 -2.391316367319e-06 0.0 
-2.391316367319e-06 2.386470707080e-04 0.0 
0.0 0.0 -4.128748474099e-05 
-4.202443748219e-05 2.082260459365e-08 0.0 
2.082260459365e-08 2.421619926750e-04 0.0 
0.0 0.0 -4.155413421678e-05 
-4.885629556399e-05 9.695166710736e-07 0.0 
9.695166710736e-07 2.973049205982e-04 0.0 
0.0 0.0 -4.949622909127e-05 
-5.886475257555e-05 5.012940386976e-07 0.0 
5.012940386976e-07 3.671165151901e-04 0.0 
0.0 0.0 -5.942331684616e-05 
-1.701524326179e-04 -2.478949267954e-07 0.0 
-2.478949267954e-07 1.141091287684e-03 0.0 
0.0 0.0 -1.704540905158e-04 
-1.688701131472e-04 -7.880779693720e-07 0.0 
-7.880779693720e-07 1.128148657559e-03 0.0 
0.0 0.0 -1.686097943865e-04 
-1.645187862567e-04 -7.830603816419e-07 0.0 
-7.830603816419e-07 1.098043410909e-03 0.0 
0.0 0.0 -1.643423135982e-04 
-8.335621055865e-05 3.090761482563e-06 0.0 
3.090761482563e-06 5.330757850641e-04 0.0 
0.0 0.0 -8.309698707208e-05 
-8.907622380058e-05 9.098765487225e-07 0.0 
9.098765487225e-07 5.710176681635e-04 0.0 
0.0 0.0 -8.857956952730e-05 
-1.698091735536e-04 4.492498910090e-07 0.0 
4.492498910090e-07 1.141399927452e-03 0.0 
0.0 0.0 -1.704417977873e-04 
-1.357890576857e-04 -2.245189513229e-07 0.0 
-2.245189513229e-07 9.134142540395e-04 0.0 
0.0 0.0 -1.376677267776e-04 
-1.395432965358e-04 -1.715851711574e-07 0.0 
-1.715851711574e-07 9.262509041073e-04 0.0 
0.0 0.0 -1.395319589165e-04 
-1.347947841220e-04 2.713370184276e-07 0.0 
2.713370184276e-07 8.938256624501e-04 0.0 
0.0 0.0 -1.350285088515e-04 
-3.672231146069e-05 -2.132510581459e-06 0.0 
-2.132510581459e-06 2.203530386721e-04 0.0 
0.0 0.0 -3.892831888128e-05 
-3.637712963261e-05 7.197511136289e-07 0.0 
7.197511136289e-07 2.141167117019e-04 0.0 
0.0 0.0 -3.788396651025e-05 
-1.694800178962e-04 -9.883703524796e-07 0.0 
-9.883703524796e-07 1.133513736801e-03 0.0 
0.0 0.0 -1.692545752333e-04 
-6.937545800042e-05 3.228980611411e-07 0.0 
3.228980611411e-07 4.358386743780e-04 0.0 
0.0 0.0 -6.923809046111e-05 
-6.522800914265e-05 4.802178938972e-07 0.0 
4.802178938972e-07 4.068593445534e-04 0.0 
0.0 0.0 -6.513959669466e-05 
-3.835293382449e-05 1.419780011636e-06 0.0 
1.419780011636e-06 2.169955699432e-04 0.0 
0.0 0.0 -3.762272808090e-05 
-3.184713987987e-05 3.230456577081e-07 0.0 
3.230456577081e-07 1.763378694127e-04 0.0 
0.0 0.0 -3.215802126946e-05 
-1.564097184147e-04 2.852905095697e-06 0.0 
2.852905095697e-06 1.049316422252e-03 0.0 
0.0 0.0 -1.577722324506e-04 
-1.666476506988e-04 2.040589658683e-06 0.0 
2.040589658683e-06 1.120282174027e-03 0.0 
0.0 0.0 -1.676789152757e-04 
-1.096907460405e-04 -3.286013999443e-07 0.0 
-3.286013999443e-07 7.221561234987e-04 0.0 
0.0 0.0 -1.103539394458e-04 
-1.146883842954e-04 -1.653249674978e-06 0.0 
-1.653249674978e-06 7.528293944776e-04 0.0 
0.0 0.0 -1.147244957885e-04 
-1.658368221067e-04 -7.296927506317e-07 0.0 
-7.296927506317e-07 1.111095675298e-03 0.0 
0.0 0.0 -1.661337593878e-04 
-4.600380394054e-05 -1.491158073068e-07 0.0 
-1.491158073068e-07 2.738216254214e-04 0.0 
0.0 0.0 -4.591192000902e-05 
-1.719378156417e-04 1.421041712674e-07 0.0 
1.421041712674e-07 1.154049105325e-03 0.0 
0.0 0.0 -1.723772497485e-04 
-1.472965570201e-04 4.727447796770e-07 0.0 
4.727447796770e-07 9.788476002172e-04 0.0 
0.0 0.0 -1.471186205066e-04 
-1.373907042142e-04 1.793164290012e-07 0.0 
1.793164290012e-07 9.102123959892e-04 0.0 
0.0 0.0 -1.372860605493e-04 
-9.767120859221e-05 2.136804418641e-06 0.0 
2.136804418641e-06 6.441362083975e-04 0.0 
0.0 0.0 -9.906935000530e-05 
-5.062215510686e-05 1.026665089058e-06 0.0 
1.026665089058e-06 3.047645721911e-04 0.0 
0.0 0.0 -5.049648738178e-05 
-4.540502709285e-05 6.832131871420e-07 0.0 
6.832131871420e-07 2.672371430162e-04 0.0 
0.0 0.0 -4.513648964862e-05 
-7.256428344436e-05 1.111321589037e-06 0.0 
1.111321589037e-06 4.598861736081e-04 0.0 
0.0 0.0 -7.268378841861e-05 
-5.559787971176e-05 4.468565818418e-07 0.0 
4.468565818418e-07 3.424877842220e-04 0.0 
0.0 0.0 -5.585123947100e-05 
-5.303663475667e-05 2.464193940360e-07 0.0 
2.464193940360e-07 3.275568518533e-04 0.0 
0.0 0.0 -5.375179489994e-05 
-1.757934592010e-04 1.094510029965e-06 0.0 
1.094510029965e-06 1.179890690537e-03 0.0 
0.0 0.0 -1.760744972657e-04 
-1.733244805152e-04 -1.137885131472e-06 0.0 
-1.137885131472e-06 1.163616194136e-03 0.0 
0.0 0.0 -1.736362873376e-04 
-1.621997224677e-04 -1.527288975187e-06 0.0 
-1.527288975187e-06 1.082969057806e-03 0.0 
0.0 0.0 -1.620259229750e-04 
-1.525464893974e-04 4.621401952171e-09 0.0 
4.621401952171e-09 1.015177504387e-03 0.0 
0.0 0.0 -1.523516756879e-04 
-1.708917266004e-04 -1.191002855825e-06 0.0 
-1.191002855825e-06 1.149869569914e-03 0.0 
0.0 0.0 -1.717432538670e-04 
-3.490930834727e-05 -8.429582514125e-07 0.0 
-8.429582514125e-07 2.054757264963e-04 0.0 
0.0 0.0 -3.598778460012e-05 
-1.750597953055e-04 -3.250942675729e-07 0.0 
-3.250942675729e-07 1.172414927759e-03 0.0 
0.0 0.0 -1.748691643181e-04 
-1.586399412700e-04 -2.193877546445e-07 0.0 
-2.193877546445e-07 1.058088814965e-03 0.0 
0.0 0.0 -1.584205238596e-04 
-1.750232827386e-04 1.287113450679e-06 0.0 
1.287113450679e-06 1.163117526416e-03 0.0 
0.0 0.0 -1.736397701047e-04 
-1.700112759458e-04 -1.265368885600e-07 0.0 
-1.265368885600e-07 1.135355063019e-03 0.0 
0.0 0.0 -1.696829740659e-04 
-7.476684779119e-05 6.450836384553e-07 0.0 
6.450836384553e-07 4.725536723755e-04 0.0 
0.0 0.0 -7.452749745521e-05 
-7.091016921093e-05 -6.094699303138e-07 0.0 
-6.094699303138e-07 4.445526167574e-04 0.0 
0.0 0.0 -7.058709718060e-05 
-6.137074756451e-05 4.293104842184e-07 0.0 
4.293104842184e-07 3.794045980526e-04 0.0 
0.0 0.0 -6.117385547845e-05 
-6.706588179639e-05 1.609427156406e-06 0.0 
1.609427156406e-06 4.182950742711e-04 0.0 
0.0 0.0 -6.657037245228e-05 
-1.266094766854e-04 -6.739720647019e-07 0.0 
-6.739720647019e-07 8.277553541706e-04 0.0 
0.0 0.0 -1.254250592285e-04 
-8.035638793885e-05 -1.393926461580e-07 0.0 
-1.393926461580e-07 5.104400494154e-04 0.0 
0.0 0.0 -8.000873303496e-05 
-1.195834177750e-04 -1.404073059010e-07 0.0 
-1.404073059010e-07 7.834003609027e-04 0.0 
0.0 0.0 -1.190894946197e-04 
-1.155376331103e-04 -2.307315433276e-07 0.0 
-2.307315433276e-07 7.547800193782e-04 0.0 
0.0 0.0 -1.149779503611e-04 
-1.103258532928e-04 1.102189864937e-07 0.0 
1.102189864937e-07 7.186555490901e-04 0.0 
0.0 0.0 -1.097928741388e-04 
-9.842809374509e-05 1.902629040635e-07 0.0 
1.902629040635e-07 6.359410459750e-04 0.0 
0.0 0.0 -9.791810678625e-05 
-9.437419777145e-05 -2.159475299136e-07 0.0 
-2.159475299136e-07 6.080813734442e-04 0.0 
0.0 0.0 -9.392806562918e-05 
-8.322610419495e-05 -1.701840068510e-07 0.0 
-1.701840068510e-07 5.319942046353e-04 0.0 
0.0 0.0 -8.302446698330e-05 
-1.259991147617e-04 -5.365801846221e-07 0.0 
-5.365801846221e-07 8.306372732465e-04 0.0 
0.0 0.0 -1.258546578921e-04 
-1.058761433090e-04 7.571849957901e-08 0.0 
7.571849957901e-08 6.921175985289e-04 0.0 
0.0 0.0 -1.060443156317e-04 
-1.312139144854e-04 -3.837092576883e-07 0.0 
-3.837092576883e-07 8.682026054100e-04 0.0 
0.0 0.0 -1.312656420104e-04 
-1.251895528939e-04 1.195207152195e-07 0.0 
1.195207152195e-07 8.263310173887e-04 0.0 
0.0 0.0 -1.252521985300e-04 
-1.703049238627e-04 -5.676244569173e-07 0.0 
-5.676244569173e-07 1.139278121345e-03 0.0 
0.0 0.0 -1.702664597809e-04 
-1.760146123077e-04 -1.359452968980e-06 0.0 
-1.359452968980e-06 1.178275809354e-03 0.0 
0.0 0.0 -1.757907768048e-04 
-1.365524219146e-04 1.370157856815e-06 0.0 
1.370157856815e-06 9.012669428523e-04 0.0 
0.0 0.0 -1.359860927471e-04 
-1.307920283978e-04 1.357393189447e-07 0.0 
1.357393189447e-07 8.686300506088e-04 0.0 
0.0 0.0 -1.314620690688e-04 
-4.233213601894e-05 -2.593523707964e-07 0.0 
-2.593523707964e-07 2.470565775743e-04 0.0 
0.0 0.0 -4.219739737344e-05 
-3.886008786518e-05 1.163800211807e-06 0.0 
1.163800211807e-06 2.179605684997e-04 0.0 
0.0 0.0 -3.798854165781e-05 
-1.182815464932e-04 7.930796381186e-08 0.0 
7.930796381186e-08 7.785584436133e-04 0.0 
0.0 0.0 -1.184174655913e-04 
-1.693736305393e-04 6.591876404938e-07 0.0 
6.591876404938e-07 1.131789490517e-03 0.0 
0.0 0.0 -1.691294037713e-04 
-1.725748694788e-04 -2.401644388829e-08 0.0 
-2.401644388829e-08 1.155505334098e-03 0.0 
0.0 0.0 -1.725143790870e-04 
-1.770772882819e-04 -4.241524903004e-07 0.0 
-4.241524903004e-07 1.186342832568e-03 0.0 
0.0 0.0 -1.769059244357e-04 
-1.714408370001e-04 -4.978042219239e-07 0.0 
-4.978042219239e-07 1.148550534216e-03 0.0 
0.0 0.0 -1.715053987883e-04 
-1.710166963781e-04 1.347194091456e-07 0.0 
1.347194091456e-07 1.148948053295e-03 0.0 
0.0 0.0 -1.716410088010e-04 
-8.613875064520e-05 1.983705843861e-08 0.0 
1.983705843861e-08 5.527937603815e-04 0.0 
0.0 0.0 -8.600610143220e-05 
-1.288985122743e-04 -4.311114656055e-07 0.0 
-4.311114656055e-07 8.513543686181e-04 0.0 
0.0 0.0 -1.288645011303e-04 
-3.653516155706e-05 -1.602670112053e-06 0.0 
-1.602670112053e-06 2.073406842075e-04 0.0 
0.0 0.0 -3.634822514125e-05 
-1.333225735758e-04 1.155434495762e-07 0.0 
1.155434495762e-07 8.819083259488e-04 0.0 
0.0 0.0 -1.332694147460e-04 
-3.243355553450e-05 -5.508408617257e-07 0.0 
-5.508408617257e-07 1.777229056962e-04 0.0 
0.0 0.0 -3.243805315734e-05 
-1.521318087540e-04 -2.136602868642e-07 0.0 
-2.136602868642e-07 1.009920947414e-03 0.0 
0.0 0.0 -1.515479370354e-04 
-1.681720023865e-04 8.090304823283e-08 0.0 
8.090304823283e-08 1.126882532784e-03 0.0 
0.0 0.0 -1.684223758654e-04 
-1.735596513314e-04 4.917479192802e-09 0.0 
4.917479192802e-09 1.165356413454e-03 0.0 
0.0 0.0 -1.738820625913e-04 
-1.749637471521e-04 2.720388968619e-07 0.0 
2.720388968619e-07 1.178416888185e-03 0.0 
0.0 0.0 -1.757938962529e-04 
-1.125612094541e-04 1.713025509613e-06 0.0 
1.713025509613e-06 7.350876687057e-04 0.0 
0.0 0.0 -1.120642929630e-04 
-1.375852130868e-04 4.206176119327e-07 0.0 
4.206176119327e-07 9.112604874474e-04 0.0 
0.0 0.0 -1.374408399149e-04 
-1.323430315928e-04 2.679124462257e-07 0.0 
2.679124462257e-07 8.742078643875e-04 0.0 
0.0 0.0 -1.321308925596e-04 
-1.061253817389e-04 5.601605163015e-07 0.0 
5.601605163015e-07 6.904423550458e-04 0.0 
0.0 0.0 -1.057303730324e-04 
-1.010535408523e-04 5.872506187825e-07 0.0 
5.872506187825e-07 6.547439695766e-04 0.0 
0.0 0.0 -1.006129583810e-04 
-1.050589004756e-04 5.249789125323e-07 0.0 
5.249789125323e-07 6.823405630018e-04 0.0 
0.0 0.0 -1.045943784994e-04 
-9.594121695788e-05 5.701784484997e-07 0.0 
5.701784484997e-07 6.189426135763e-04 0.0 
0.0 0.0 -9.539409567622e-05 
-7.670722250222e-05 7.477520012380e-07 0.0 
7.477520012380e-07 4.887760317978e-04 0.0 
0.0 0.0 -7.683892420519e-05 
-7.103860008569e-05 4.652611723913e-07 0.0 
4.652611723913e-07 4.497405032502e-04 0.0 
0.0 0.0 -7.125283206988e-05 
-1.794791303054e-04 3.046290545187e-07 0.0 
3.046290545187e-07 1.202568044115e-03 0.0 
0.0 0.0 -1.788063205342e-04 
-1.769207863009e-04 3.279526117005e-06 0.0 
3.279526117005e-06 1.187698538996e-03 0.0 
0.0 0.0 -1.767990258302e-04 
-1.796288049769e-04 -8.041882013151e-07 0.0 
-8.041882013151e-07 1.202665816041e-03 0.0 
0.0 0.0 -1.789543763817e-04 
-1.735511399808e-04 -6.381743090029e-08 0.0 
-6.381743090029e-08 1.174777860682e-03 0.0 
0.0 0.0 -1.752247752347e-04 
-1.776329748734e-04 -4.492702858952e-07 0.0 
-4.492702858952e-07 1.208120942378e-03 0.0 
0.0 0.0 -1.801365737201e-04 
-1.734650378150e-04 -1.715499755082e-07 0.0 
-1.715499755082e-07 1.171053020005e-03 0.0 
0.0 0.0 -1.746253154232e-04 
-6.397194449559e-05 -8.644213742386e-07 0.0 
-8.644213742386e-07 3.958263205946e-04 0.0 
0.0 0.0 -6.341026310084e-05 
-8.522640710731e-05 3.477888862429e-07 0.0 
3.477888862429e-07 5.439871764934e-04 0.0 
0.0 0.0 -8.469390476807e-05 
-1.776955029070e-04 -1.524143709276e-06 0.0 
-1.524143709276e-06 1.201358150170e-03 0.0 
0.0 0.0 -1.791227834549e-04 
-1.112229346520e-04 4.789206220835e-07 0.0 
4.789206220835e-07 7.257595216689e-04 0.0 
0.0 0.0 -1.108630369651e-04 
-1.797556034384e-04 -6.312345564761e-07 0.0 
-6.312345564761e-07 1.200035518570e-03 0.0 
0.0 0.0 -1.789253132142e-04 
-1.736948380453e-04 5.431781983200e-07 0.0 
5.431781983200e-07 1.162780945010e-03 0.0 
0.0 0.0 -1.734070790826e-04 
-2.519516585345e-05 -9.707201663460e-07 0.0 
-9.707201663460e-07 1.373677520700e-04 0.0 
0.0 0.0 -2.664754339747e-05 
-3.015018737399e-05 -3.279297815400e-06 0.0 
-3.279297815400e-06 1.664829630556e-04 0.0 
0.0 0.0 -3.052430242461e-05 
-1.769892636273e-04 2.634610193557e-07 0.0 
2.634610193557e-07 1.192719086742e-03 0.0 
0.0 0.0 -1.776883310004e-04 
-5.758327952376e-05 -3.462473019863e-08 0.0 
-3.462473019863e-08 3.517263668732e-04 0.0 
0.0 0.0 -5.717887963261e-05 
-6.329339839047e-05 1.198404527509e-06 0.0 
1.198404527509e-06 3.880051844578e-04 0.0 
0.0 0.0 -6.238035407746e-05 
-5.212222281800e-05 -2.848057552127e-07 0.0 
-2.848057552127e-07 3.138366464287e-04 0.0 
0.0 0.0 -5.189549137910e-05 
-1.887618442225e-04 7.084845367266e-07 0.0 
7.084845367266e-07 1.267778144178e-03 0.0 
0.0 0.0 -1.887465440047e-04 
-1.122732225603e-04 -4.441296090606e-07 0.0 
-4.441296090606e-07 7.339799403067e-04 0.0 
0.0 0.0 -1.121888505450e-04 
-1.770685012225e-04 3.305358162577e-07 0.0 
3.305358162577e-07 1.195492347302e-03 0.0 
0.0 0.0 -1.784128478473e-04 
-1.037318983505e-04 3.959585097191e-08 0.0 
3.959585097191e-08 6.732989381237e-04 0.0 
0.0 0.0 -1.032702350429e-04 
-1.811215610528e-04 5.481099123404e-07 0.0 
5.481099123404e-07 1.225364590535e-03 0.0 
0.0 0.0 -1.824766045798e-04 
-1.418983722809e-04 3.275014927135e-07 0.0 
3.275014927135e-07 9.414952171589e-04 0.0 
0.0 0.0 -1.417367461992e-04 
-9.531983498029e-05 1.199130758146e-06 0.0 
1.199130758146e-06 6.176848429937e-04 0.0 
0.0 0.0 -9.530949026541e-05 
-1.618025468886e-04 -1.313138482705e-06 0.0 
-1.313138482705e-06 1.080414047570e-03 0.0 
0.0 0.0 -1.617266240239e-04 
-1.712367337160e-04 -2.517022686550e-06 0.0 
-2.517022686550e-06 1.155497819449e-03 0.0 
0.0 0.0 -1.723711093632e-04 
-1.839585546077e-04 1.922702604488e-06 0.0 
1.922702604488e-06 1.233266053318e-03 0.0 
0.0 0.0 -1.832438941626e-04 
-1.282285700338e-04 1.437764343269e-06 0.0 
1.437764343269e-06 8.565496247714e-04 0.0 
0.0 0.0 -1.295806172002e-04 
-1.247283955189e-04 -2.695014414448e-06 0.0 
-2.695014414448e-06 8.206621223611e-04 0.0 
0.0 0.0 -1.249156399969e-04 
-1.336973054243e-04 4.780502432986e-07 0.0 
4.780502432986e-07 8.862457055751e-04 0.0 
0.0 0.0 -1.338771030064e-04 
-4.352546499244e-05 4.436478363745e-07 0.0 
4.436478363745e-07 2.551361667223e-04 0.0 
0.0 0.0 -4.330579966881e-05 
-3.389814883689e-05 -2.442715112613e-07 0.0 
-2.442715112613e-07 1.810863350630e-04 0.0 
0.0 0.0 -3.279405811742e-05 
-1.716063829927e-04 -5.958765859028e-07 0.0 
-5.958765859028e-07 1.146696562296e-03 0.0 
0.0 0.0 -1.713135399111e-04 
-7.523536838437e-05 -6.007458973842e-07 0.0 
-6.007458973842e-07 4.758491836951e-04 0.0 
0.0 0.0 -7.509208182934e-05 
-8.235594042686e-05 2.209891807401e-06 0.0 
2.209891807401e-06 5.147698268391e-04 0.0 
0.0 0.0 -8.038827667338e-05 
-5.001146581911e-05 6.274014862647e-08 0.0 
6.274014862647e-08 3.012652504281e-04 0.0 
0.0 0.0 -4.993066604202e-05 
-5.951991557963e-05 4.745024153846e-07 0.0 
4.745024153846e-07 3.695589487495e-04 0.0 
0.0 0.0 -5.978314405524e-05 
-1.155737714789e-04 -3.760380621998e-07 0.0 
-3.760380621998e-07 7.609985150200e-04 0.0 
0.0 0.0 -1.159213944990e-04 
-1.114463395749e-04 -2.406998584791e-07 0.0 
-2.406998584791e-07 7.310738123434e-04 0.0 
0.0 0.0 -1.116262644424e-04 
-1.561658126362e-04 -5.299206413351e-07 0.0 
-5.299206413351e-07 1.039568765867e-03 0.0 
0.0 0.0 -1.558038104416e-04 
-1.616536575182e-04 8.873878670218e-08 0.0 
8.873878670218e-08 1.076746179334e-03 0.0 
0.0 0.0 -1.611194038498e-04 
-1.452021797269e-04 -7.201116330741e-07 0.0 
-7.201116330741e-07 9.647061708381e-04 0.0 
0.0 0.0 -1.451343074576e-04 
-1.417360905196e-04 8.632870990932e-08 0.0 
8.632870990932e-08 9.403024522762e-04 0.0 
0.0 0.0 -1.415933767274e-04 
-1.319020358547e-04 3.977806768541e-08 0.0 
3.977806768541e-08 8.718254866790e-04 0.0 
0.0 0.0 -1.317570344669e-04 
-1.275952978262e-04 -1.808898908879e-07 0.0 
-1.808898908879e-07 8.422298684311e-04 0.0 
0.0 0.0 -1.275414768178e-04 
-1.808056931016e-04 -1.525758788825e-06 0.0 
-1.525758788825e-06 1.206677931101e-03 0.0 
0.0 0.0 -1.799800510317e-04 
-1.870307763930e-04 -2.673876865903e-07 0.0 
-2.673876865903e-07 1.255623469781e-03 0.0 
0.0 0.0 -1.864092322314e-04 
-8.236599237368e-05 5.694757370752e-07 0.0 
5.694757370752e-07 5.272929756111e-04 0.0 
0.0 0.0 -8.232948673513e-05 
-7.828325005813e-05 7.807941924694e-07 0.0 
7.807941924694e-07 4.983469412597e-04 0.0 
0.0 0.0 -7.818189541436e-05 
-8.066781870606e-05 6.215778532638e-07 0.0 
6.215778532638e-07 5.167877030226e-04 0.0 
0.0 0.0 -8.085192856594e-05 
-1.821793884671e-04 -9.452425038887e-07 0.0 
-9.452425038887e-07 1.232295246858e-03 0.0 
0.0 0.0 -1.834584547941e-04 
-1.830922366977e-04 2.536660346183e-06 0.0 
2.536660346183e-06 1.235147881441e-03 0.0 
0.0 0.0 -1.836006722523e-04 
-1.803954664386e-04 -2.175726806454e-06 0.0 
-2.175726806454e-06 1.202974169961e-03 0.0 
0.0 0.0 -1.793731166858e-04 
-2.884547195492e-05 -1.949294581992e-06 0.0 
-1.949294581992e-06 1.508764218898e-04 0.0 
0.0 0.0 -2.821170413667e-05 
-3.570881000968e-05 -1.070718923965e-06 0.0 
-1.070718923965e-06 1.885432469507e-04 0.0 
0.0 0.0 -3.370638853217e-05 
-4.213783208319e-05 -1.170748262367e-07 0.0 
-1.170748262367e-07 2.402822286115e-04 0.0 
0.0 0.0 -4.126795851095e-05 
-3.586246974089e-05 -2.546283779184e-06 0.0 
-2.546283779184e-06 2.018033726068e-04 0.0 
0.0 0.0 -3.610688574664e-05 
-1.813118037091e-04 3.339770754456e-08 0.0 
3.339770754456e-08 1.214209313964e-03 0.0 
0.0 0.0 -1.810888083315e-04 
-1.759503644858e-04 -2.370337744295e-09 0.0 
-2.370337744295e-09 1.179752016776e-03 0.0 
0.0 0.0 -1.758947287297e-04 
-1.868380600491e-04 -2.026246098820e-08 0.0 
-2.026246098820e-08 1.260450932184e-03 0.0 
0.0 0.0 -1.871207327665e-04 
-5.677368414960e-05 2.032718348151e-06 0.0 
2.032718348151e-06 3.527741904510e-04 0.0 
0.0 0.0 -5.702308739092e-05 
-1.568027754872e-04 9.086678946458e-07 0.0 
9.086678946458e-07 1.045425867798e-03 0.0 
0.0 0.0 -1.567983548164e-04 
-1.807947804281e-04 1.816885949765e-06 0.0 
1.816885949765e-06 1.215031055035e-03 0.0 
0.0 0.0 -1.811848825972e-04 
-1.767874529665e-04 2.635533244676e-06 0.0 
2.635533244676e-06 1.187503191795e-03 0.0 
0.0 0.0 -1.767018567944e-04 
-1.863663002342e-04 1.461510242915e-06 0.0 
1.461510242915e-06 1.257417594462e-03 0.0 
0.0 0.0 -1.866936124609e-04 
-1.705605319310e-04 -3.043131196868e-07 0.0 
-3.043131196868e-07 1.147035567734e-03 0.0 
0.0 0.0 -1.713153186433e-04 
-1.813551999588e-04 -1.051944771726e-06 0.0 
-1.051944771726e-06 1.212243561196e-03 0.0 
0.0 0.0 -1.808143025540e-04 
-1.810144852020e-04 9.510582154736e-07 0.0 
9.510582154736e-07 1.215244823925e-03 0.0 
0.0 0.0 -1.813984546852e-04 
-2.289882463440e-05 -1.917411223350e-06 0.0 
-1.917411223350e-06 1.064438362998e-04 0.0 
0.0 0.0 -2.272772520152e-05 
-1.796453692485e-04 -2.519464026569e-06 0.0 
-2.519464026569e-06 1.205769465943e-03 0.0 
0.0 0.0 -1.799989151485e-04 
-1.255838269039e-04 -2.372108616113e-07 0.0 
-2.372108616113e-07 8.274746007515e-04 0.0 
0.0 0.0 -1.255735778981e-04 
-1.648487917531e-05 -4.731674107763e-06 0.0 
-4.731674107763e-06 7.996115120316e-05 0.0 
0.0 0.0 -1.701907742944e-05 
-1.197277503755e-04 -6.241620168613e-08 0.0 
-6.241620168613e-08 7.962718767862e-04 0.0 
0.0 0.0 -1.210522788133e-04 
-1.264445161814e-04 -2.564056665928e-07 0.0 
-2.564056665928e-07 8.371650247824e-04 0.0 
0.0 0.0 -1.267742309066e-04 
-1.154487627705e-04 -6.658166254296e-07 0.0 
-6.658166254296e-07 7.569378951924e-04 0.0 
0.0 0.0 -1.162214466274e-04 
-4.660515595758e-05 1.493989084367e-06 0.0 
1.493989084367e-06 2.841958466787e-04 0.0 
0.0 0.0 -4.732948783071e-05 
-1.214260254664e-04 -1.596625013767e-06 0.0 
-1.596625013767e-06 8.039136548600e-04 0.0 
0.0 0.0 -1.226115929076e-04 
-1.277494935593e-04 -2.322994823893e-06 0.0 
-2.322994823893e-06 8.489823059285e-04 0.0 
0.0 0.0 -1.283491864751e-04 
-2.181725480317e-05 4.928406156629e-07 0.0 
4.928406156629e-07 1.070930809537e-04 0.0 
0.0 0.0 -2.131994005793e-05 
-1.874449477591e-04 5.176155724587e-07 0.0 
5.176155724587e-07 1.267519228381e-03 0.0 
0.0 0.0 -1.888952332360e-04 
-2.478565018414e-05 -1.930000472000e-06 0.0 
-1.930000472000e-06 1.118328058531e-04 0.0 
0.0 0.0 -2.334665006309e-05 
-2.656716960799e-05 -2.510778064998e-06 0.0 
-2.510778064998e-06 1.411464559949e-04 0.0 
0.0 0.0 -2.709867152969e-05 
-1.817312836183e-04 2.201942420486e-06 0.0 
2.201942420486e-06 1.232410437945e-03 0.0 
0.0 0.0 -1.831822052943e-04 
-1.773206336066e-04 -2.021839507971e-07 0.0 
-2.021839507971e-07 1.191992626232e-03 0.0 
0.0 0.0 -1.776517324320e-04 
-1.872954897737e-04 -1.006614931482e-06 0.0 
-1.006614931482e-06 1.259866749947e-03 0.0 
0.0 0.0 -1.871589901852e-04 
-1.824456739670e-04 2.064220422989e-06 0.0 
2.064220422989e-06 1.218220290450e-03 0.0 
0.0 0.0 -1.816528226986e-04 
-1.719240551568e-04 -7.467342115413e-07 0.0 
-7.467342115413e-07 1.152044759436e-03 0.0 
0.0 0.0 -1.720599434401e-04 
-1.761500249536e-04 9.670950468971e-07 0.0 
9.670950468971e-07 1.183630845697e-03 0.0 
0.0 0.0 -1.764735915037e-04 
-1.203392003903e-04 -2.198342008040e-06 0.0 
-2.198342008040e-06 7.898463321084e-04 0.0 
0.0 0.0 -1.197898394197e-04 
-1.865443414806e-04 2.647479046358e-06 0.0 
2.647479046358e-06 1.260124298644e-03 0.0 
0.0 0.0 -1.873527554397e-04 
-1.803841241731e-04 6.709369355739e-07 0.0 
6.709369355739e-07 1.214344074041e-03 0.0 
0.0 0.0 -1.811164307615e-04 
-1.921061091143e-04 1.480715088923e-06 0.0 
1.480715088923e-06 1.296918019707e-03 0.0 
0.0 0.0 -1.916891122952e-04 
-9.208569695246e-05 6.093443112199e-07 0.0 
6.093443112199e-07 5.924864494399e-04 0.0 
0.0 0.0 -9.162005200151e-05 
-7.283645161877e-05 4.586395072900e-07 0.0 
4.586395072900e-07 4.547389083214e-04 0.0 
0.0 0.0 -7.184037522857e-05 
-6.889002091575e-05 3.964795035727e-07 0.0 
3.964795035727e-07 4.246717698014e-04 0.0 
0.0 0.0 -6.790877045087e-05 
-5.909497143754e-05 6.023844365174e-06 0.0 
6.023844365174e-06 3.592168662585e-04 0.0 
0.0 0.0 -5.813495639200e-05 
-1.853176739262e-04 8.122300759658e-07 0.0 
8.122300759658e-07 1.250781756793e-03 0.0 
0.0 0.0 -1.860270850411e-04 
-1.796312402729e-04 3.276727185624e-06 0.0 
3.276727185624e-06 1.208836358275e-03 0.0 
0.0 0.0 -1.800885023177e-04 
-1.631801230170e-04 1.627520387689e-07 0.0 
1.627520387689e-07 1.090569837524e-03 0.0 
0.0 0.0 -1.631333845344e-04 
-1.534477329204e-04 6.766395027793e-07 0.0 
6.766395027793e-07 1.020410487752e-03 0.0 
0.0 0.0 -1.531108459605e-04 
-1.224599435499e-04 1.078011159301e-06 0.0 
1.078011159301e-06 8.009987656654e-04 0.0 
0.0 0.0 -1.216227322220e-04 
-1.215744765480e-04 -1.237691044798e-06 0.0 
-1.237691044798e-06 7.963280792961e-04 0.0 
0.0 0.0 -1.211602941205e-04 
-1.308077100931e-04 4.769688121849e-06 0.0 
4.769688121849e-06 8.600072513362e-04 0.0 
0.0 0.0 -1.301779020232e-04 
-1.297276618714e-04 -1.066682707188e-06 0.0 
-1.066682707188e-06 8.491749556053e-04 0.0 
0.0 0.0 -1.291373028237e-04 
-1.389532460221e-04 4.549858847667e-06 0.0 
4.549858847667e-06 9.158165643447e-04 0.0 
0.0 0.0 -1.380077606708e-04 
-1.362521981567e-04 -2.124783431130e-06 0.0 
-2.124783431130e-06 9.054980890478e-04 0.0 
0.0 0.0 -1.366342160092e-04 
-1.454793170856e-04 -4.423821596291e-06 0.0 
-4.423821596291e-06 9.700799799999e-04 0.0 
0.0 0.0 -1.459037168719e-04 
-1.870833549466e-04 3.909084775636e-06 0.0 
3.909084775636e-06 1.256272641087e-03 0.0 
0.0 0.0 -1.867631680280e-04 
-4.779563930822e-05 1.388169697748e-06 0.0 
1.388169697748e-06 2.856867328083e-04 0.0 
0.0 0.0 -4.771245731983e-05 
-1.019348355349e-04 5.925610993024e-07 0.0 
5.925610993024e-07 6.625121101145e-04 0.0 
0.0 0.0 -1.017460476387e-04 
-1.826285801103e-04 -1.661566205844e-06 0.0 
-1.661566205844e-06 1.237533025725e-03 0.0 
0.0 0.0 -1.842392070075e-04 
-1.784932399449e-04 -5.084121371407e-07 0.0 
-5.084121371407e-07 1.196504370322e-03 0.0 
0.0 0.0 -1.781095211982e-04 
-9.045878749083e-05 3.060141382145e-07 0.0 
3.060141382145e-07 5.804720461946e-04 0.0 
0.0 0.0 -9.001416730698e-05 
-8.189605333165e-05 1.641333009624e-06 0.0 
1.641333009624e-06 5.186644514913e-04 0.0 
0.0 0.0 -8.102430021026e-05 
-1.866907463054e-04 2.093765460227e-06 0.0 
2.093765460227e-06 1.251863261449e-03 0.0 
0.0 0.0 -1.858191563033e-04 
-8.427129088721e-05 2.509183407980e-07 0.0 
2.509183407980e-07 5.389541208829e-04 0.0 
0.0 0.0 -8.400472401885e-05 
-1.942862609106e-04 -4.604509060764e-07 0.0 
-4.604509060764e-07 1.310239742523e-03 0.0 
0.0 0.0 -1.943189575261e-04 
-7.089778492893e-06 -8.429924576269e-07 0.0 
-8.429924576269e-07 3.992716951653e-05 0.0 
0.0 0.0 -8.535005130452e-06 
-1.936791033226e-05 1.730686598501e-06 0.0 
1.730686598501e-06 1.017559906333e-04 0.0 
0.0 0.0 -2.030164989952e-05 
-8.968053387105e-05 4.268638781566e-07 0.0 
4.268638781566e-07 5.769858883096e-04 0.0 
0.0 0.0 -8.953811051246e-05 
-9.967591826382e-05 1.816339090070e-07 0.0 
1.816339090070e-07 6.455070859268e-04 0.0 
0.0 0.0 -9.930333011984e-05 
-7.698272719919e-05 1.369511196201e-06 0.0 
1.369511196201e-06 4.917432221998e-04 0.0 
0.0 0.0 -7.735978650723e-05 
-7.290112700995e-05 4.485042513468e-07 0.0 
4.485042513468e-07 4.686595431743e-04 0.0 
0.0 0.0 -7.375775675111e-05 
-1.516976068027e-04 9.731432031672e-08 0.0 
9.731432031672e-08 1.010085692234e-03 0.0 
0.0 0.0 -1.515828990902e-04 
-2.955388113014e-05 -3.810006738129e-07 0.0 
-3.810006738129e-07 1.597998460951e-04 0.0 
0.0 0.0 -2.992625374333e-05 
-4.708750000530e-05 -3.380683912339e-07 0.0 
-3.380683912339e-07 2.775741899182e-04 0.0 
0.0 0.0 -4.660401843130e-05 
-1.459872513037e-04 4.283387118632e-06 0.0 
4.283387118632e-06 9.787274438894e-04 0.0 
0.0 0.0 -1.469538452094e-04 
-3.739432352920e-05 8.132963554315e-08 0.0 
8.132963554315e-08 2.132217851977e-04 0.0 
0.0 0.0 -3.731550915806e-05 
-1.581113812495e-04 5.386783396549e-07 0.0 
5.386783396549e-07 1.056624836089e-03 0.0 
0.0 0.0 -1.583700297543e-04 
-8.859117282002e-05 -4.886909086428e-07 0.0 
-4.886909086428e-07 5.694929478328e-04 0.0 
0.0 0.0 -8.837999545446e-05 
-1.077149909289e-04 1.768026495235e-08 0.0 
1.768026495235e-08 7.012731036170e-04 0.0 
0.0 0.0 -1.073025146250e-04 
-5.592229804259e-05 8.436426505878e-07 0.0 
8.436426505878e-07 3.420524339702e-04 0.0 
0.0 0.0 -5.582998379547e-05 
-7.655387121575e-05 -1.360505059231e-06 0.0 
-1.360505059231e-06 4.844624894690e-04 0.0 
0.0 0.0 -7.620154526702e-05 
-1.304375061833e-04 -4.590487413422e-07 0.0 
-4.590487413422e-07 8.567018780296e-04 0.0 
0.0 0.0 -1.295787134191e-04 
-1.227913220526e-04 -1.069536414788e-06 0.0 
-1.069536414788e-06 7.988115105914e-04 0.0 
0.0 0.0 -1.212971597528e-04 
-1.171271358387e-04 6.312522150107e-07 0.0 
6.312522150107e-07 7.632427069466e-04 0.0 
0.0 0.0 -1.160760923294e-04 
-9.288654497448e-05 -4.149904162910e-07 0.0 
-4.149904162910e-07 5.993038953958e-04 0.0 
0.0 0.0 -9.268233649937e-05 
-7.967235479004e-05 1.560635261011e-06 0.0 
1.560635261011e-06 5.060818193185e-04 0.0 
0.0 0.0 -7.932496478153e-05 
-6.976412058096e-05 4.685918450985e-07 0.0 
4.685918450985e-07 4.348311074162e-04 0.0 
0.0 0.0 -6.925859231108e-05 
-1.236762265939e-04 1.286441015265e-07 0.0 
1.286441015265e-07 8.121194052814e-04 0.0 
0.0 0.0 -1.231954486131e-04 
-1.661664385129e-04 7.234197314207e-07 0.0 
7.234197314207e-07 1.111077522090e-03 0.0 
0.0 0.0 -1.661212681597e-04 
-1.708685371099e-04 1.275890329840e-06 0.0 
1.275890329840e-06 1.141280747299e-03 0.0 
0.0 0.0 -1.704512426999e-04 
-1.799814060202e-04 -8.892695818768e-09 0.0 
-8.892695818768e-09 1.206980088396e-03 0.0 
0.0 0.0 -1.798902840516e-04 
-1.752252711223e-04 6.293476179296e-07 0.0 
6.293476179296e-07 1.171825368199e-03 0.0 
0.0 0.0 -1.746897123557e-04 
-1.653204529079e-04 3.682681378693e-07 0.0 
3.682681378693e-07 1.103833188294e-03 0.0 
0.0 0.0 -1.650619928257e-04 
-1.692700239592e-04 -9.309390044845e-07 0.0 
-9.309390044845e-07 1.133313101005e-03 0.0 
0.0 0.0 -1.693613594316e-04 
-1.794459408941e-04 1.605079206946e-06 0.0 
1.605079206946e-06 1.200644277872e-03 0.0 
0.0 0.0 -1.790391580507e-04 
-1.729836631084e-04 -6.502744120088e-09 0.0 
-6.502744120088e-09 1.165149049271e-03 0.0 
0.0 0.0 -1.738884562940e-04 
-1.853394956414e-04 -1.746634483939e-06 0.0 
-1.746634483939e-06 1.245260351070e-03 0.0 
0.0 0.0 -1.851430293189e-04 
-1.779629991439e-04 -2.212681777784e-06 0.0 
-2.212681777784e-06 1.194508684255e-03 0.0 
0.0 0.0 -1.780963771770e-04 
-1.680008323397e-04 4.410252086398e-07 0.0 
4.410252086398e-07 1.124792316923e-03 0.0 
0.0 0.0 -1.681296768602e-04 
-1.732313668130e-04 2.383290929429e-07 0.0 
2.383290929429e-07 1.152919895369e-03 0.0 
0.0 0.0 -1.721639567129e-04 
-1.820197878976e-04 -9.097203098576e-07 0.0 
-9.097203098576e-07 1.219293629434e-03 0.0 
0.0 0.0 -1.811651920545e-04 
-1.627398560099e-04 -3.025378736543e-07 0.0 
-3.025378736543e-07 1.085392768176e-03 0.0 
0.0 0.0 -1.623890973126e-04 
-1.881496038472e-04 -6.722589035003e-07 0.0 
-6.722589035003e-07 1.272625835057e-03 0.0 
0.0 0.0 -1.896816515354e-04 
-9.936624462153e-05 3.711915790744e-07 0.0 
3.711915790744e-07 6.447993785367e-04 0.0 
0.0 0.0 -9.931710713211e-05 
-2.678077344496e-05 1.172604196378e-06 0.0 
1.172604196378e-06 1.469601996083e-04 0.0 
0.0 0.0 -2.776378382453e-05 
-2.718822131563e-05 5.643793796886e-06 0.0 
5.643793796886e-06 1.398182331985e-04 0.0 
0.0 0.0 -2.650814903740e-05 
-1.130938350532e-04 2.933038375314e-07 0.0 
2.933038375314e-07 7.386015135744e-04 0.0 
0.0 0.0 -1.126376112924e-04 
-1.957395771822e-04 4.072718166249e-07 0.0 
4.072718166249e-07 1.314065316165e-03 0.0 
0.0 0.0 -1.949709453146e-04 
-1.956422709446e-04 1.854437157927e-08 0.0 
1.854437157927e-08 1.316914351373e-03 0.0 
0.0 0.0 -1.952630510734e-04 
-7.363791568969e-05 4.448116745508e-08 0.0 
4.448116745508e-08 4.652432970724e-04 0.0 
0.0 0.0 -7.343539360029e-05 
-1.953259047097e-04 -1.682103116944e-07 0.0 
-1.682103116944e-07 1.316528916423e-03 0.0 
0.0 0.0 -1.955120939844e-04 
-1.210496703093e-04 -3.742029869829e-07 0.0 
-3.742029869829e-07 7.914115177246e-04 0.0 
0.0 0.0 -1.201823113336e-04 
-5.355766991560e-05 5.069063859746e-07 0.0 
5.069063859746e-07 3.232453025466e-04 0.0 
0.0 0.0 -5.296028401754e-05 
-1.953834150830e-04 -1.373297745112e-06 0.0 
-1.373297745112e-06 1.316914533701e-03 0.0 
0.0 0.0 -1.956430189105e-04 
-1.606320410693e-04 1.081811570651e-06 0.0 
1.081811570651e-06 1.073242688732e-03 0.0 
0.0 0.0 -1.607160970497e-04 
-1.551352503420e-04 -1.927443336718e-07 0.0 
-1.927443336718e-07 1.034924921134e-03 0.0 
0.0 0.0 -1.552285616758e-04 
-1.505583948677e-04 4.103370421326e-07 0.0 
4.103370421326e-07 1.004971037607e-03 0.0 
0.0 0.0 -1.509086942990e-04 
-1.950225372489e-04 -2.088550178189e-06 0.0 
-2.088550178189e-06 1.319599496419e-03 0.0 
0.0 0.0 -1.958801056209e-04 
-1.389109183028e-04 4.741451933546e-08 0.0 
4.741451933546e-08 9.181432809719e-04 0.0 
0.0 0.0 -1.384942297845e-04 
-1.959295069713e-04 -1.244434436796e-06 0.0 
-1.244434436796e-06 1.320610998766e-03 0.0 
0.0 0.0 -1.959024498733e-04 
-1.357909290755e-04 -7.273641547470e-07 0.0 
-7.273641547470e-07 8.985832613114e-04 0.0 
0.0 0.0 -1.355985557075e-04 
-1.314159132553e-04 -2.260781221256e-07 0.0 
-2.260781221256e-07 8.680741570170e-04 0.0 
0.0 0.0 -1.312144960014e-04 
-1.217410062802e-04 -7.968137970680e-08 0.0 
-7.968137970680e-08 8.004989808175e-04 0.0 
0.0 0.0 -1.215252423283e-04 
-1.635653543320e-04 -8.206507231058e-07 0.0 
-8.206507231058e-07 1.094591173860e-03 0.0 
0.0 0.0 -1.638368049481e-04 
-1.957128907948e-04 7.679802216987e-07 0.0 
7.679802216987e-07 1.315946828038e-03 0.0 
0.0 0.0 -1.954016999139e-04 
-1.877918467821e-04 -4.059023819972e-07 0.0 
-4.059023819972e-07 1.261052432127e-03 0.0 
0.0 0.0 -1.872601071101e-04 
-1.870380449284e-04 -1.951022404989e-06 0.0 
-1.951022404989e-06 1.260361361027e-03 0.0 
0.0 0.0 -1.872639817026e-04 
-1.800805456319e-04 7.540324232611e-08 0.0 
7.540324232611e-08 1.200437685780e-03 0.0 
0.0 0.0 -1.783672283586e-04 
-1.950646193177e-04 -5.546188052747e-08 0.0 
-5.546188052747e-08 1.316661406715e-03 0.0 
0.0 0.0 -1.955098189886e-04 
-1.957560602186e-04 -3.716868616247e-07 0.0 
-3.716868616247e-07 1.318924671883e-03 0.0 
0.0 0.0 -1.959998991124e-04 
-1.963981539868e-04 -5.303133434365e-07 0.0 
-5.303133434365e-07 1.320493656548e-03 0.0 
0.0 0.0 -1.962751064225e-04 
-6.844923036856e-05 1.199739337794e-06 0.0 
1.199739337794e-06 4.307455297825e-04 0.0 
0.0 0.0 -6.847160534926e-05 
-7.419643775584e-05 3.743388539179e-07 0.0 
3.743388539179e-07 4.695492771341e-04 0.0 
0.0 0.0 -7.401623890332e-05 
-8.376895134064e-05 1.300131340796e-07 0.0 
1.300131340796e-07 5.365706547931e-04 0.0 
0.0 0.0 -8.364053759108e-05 
-7.953934562445e-05 -2.075640414837e-08 0.0 
-2.075640414837e-08 5.072934929808e-04 0.0 
0.0 0.0 -7.948224144010e-05 
-6.989506786319e-05 -6.245293844847e-08 0.0 
-6.245293844847e-08 4.396733402016e-04 0.0 
0.0 0.0 -6.978551441703e-05 
-7.524805855893e-05 3.094892115024e-07 0.0 
3.094892115024e-07 4.777101055957e-04 0.0 
0.0 0.0 -7.524542772725e-05 
-8.492603218944e-05 -2.618464199117e-07 0.0 
-2.618464199117e-07 5.448643552104e-04 0.0 
0.0 0.0 -8.485997776147e-05 
-7.105462536305e-05 6.250310806944e-07 0.0 
6.250310806944e-07 4.479089343025e-04 0.0 
0.0 0.0 -7.097692746601e-05 
-1.705288852515e-04 -5.065676993724e-08 0.0 
-5.065676993724e-08 1.143493746239e-03 0.0 
0.0 0.0 -1.707769389999e-04 
-1.957870609060e-04 1.292884007357e-06 0.0 
1.292884007357e-06 1.318859783043e-03 0.0 
0.0 0.0 -1.958668742322e-04 
-1.350455497016e-04 7.864309328501e-09 0.0 
7.864309328501e-09 8.951240562794e-04 0.0 
0.0 0.0 -1.351191360868e-04 
-1.307165790976e-04 -4.322242656547e-09 0.0 
-4.322242656547e-09 8.644169275053e-04 0.0 
0.0 0.0 -1.307040085326e-04 
-1.209043728309e-04 3.853306452192e-07 0.0 
3.853306452192e-07 7.961045906332e-04 0.0 
0.0 0.0 -1.208983099878e-04 
-1.015178106691e-04 -3.679167517203e-07 0.0 
-3.679167517203e-07 6.622225460757e-04 0.0 
0.0 0.0 -1.017282540064e-04 
-1.070947291555e-04 -1.713274614578e-07 0.0 
-1.713274614578e-07 7.010953756025e-04 0.0 
0.0 0.0 -1.073098139330e-04 
-1.170318119329e-04 -2.304405178400e-07 0.0 
-2.304405178400e-07 7.699550145936e-04 0.0 
0.0 0.0 -1.171862911330e-04 
-9.606943952016e-05 -6.918043120030e-07 0.0 
-6.918043120030e-07 6.234320450168e-04 0.0 
0.0 0.0 -9.611914699067e-05 
-1.481119786321e-04 -1.006868581402e-07 0.0 
-1.006868581402e-07 9.856164309774e-04 0.0 
0.0 0.0 -1.481459134429e-04 
-1.955042779643e-04 -1.269047585912e-06 0.0 
-1.269047585912e-06 1.318349589731e-03 0.0 
0.0 0.0 -1.957504584866e-04 
-1.330884753948e-04 -1.768196315293e-07 0.0 
-1.768196315293e-07 8.806785880526e-04 0.0 
0.0 0.0 -1.330749450653e-04 
-1.026965489879e-04 1.178065411022e-07 0.0 
1.178065411022e-07 6.708683582992e-04 0.0 
0.0 0.0 -1.029894966699e-04 
-1.130854337220e-04 -7.438576483953e-07 0.0 
-7.438576483953e-07 7.384022260134e-04 0.0 
0.0 0.0 -1.127517955912e-04 
-1.209813153641e-04 2.130007804037e-06 0.0 
2.130007804037e-06 7.983489600902e-04 0.0 
0.0 0.0 -1.214223410530e-04 
-1.212906592670e-04 -2.948275088070e-06 0.0 
-2.948275088070e-06 8.006247840124e-04 0.0 
0.0 0.0 -1.214609177556e-04 
-1.289650632578e-04 -2.836448343722e-06 0.0 
-2.836448343722e-06 8.628838233816e-04 0.0 
0.0 0.0 -1.309968220184e-04 
-1.213818105996e-04 -4.266965506249e-06 0.0 
-4.266965506249e-06 8.042830918570e-04 0.0 
0.0 0.0 -1.223387611305e-04 
-1.201218344436e-04 -5.940699395266e-07 0.0 
-5.940699395266e-07 7.912234115192e-04 0.0 
0.0 0.0 -1.202289988118e-04 
-1.246396976616e-04 -5.061942420403e-07 0.0 
-5.061942420403e-07 8.213580181559e-04 0.0 
0.0 0.0 -1.245418513326e-04 
-1.191093718333e-04 1.337880474637e-07 0.0 
1.337880474637e-07 7.836030816467e-04 0.0 
0.0 0.0 -1.190678843757e-04 
-1.287401379332e-04 -4.825176742022e-07 0.0 
-4.825176742022e-07 8.510925999983e-04 0.0 
0.0 0.0 -1.288600603647e-04 
-1.226230270594e-04 -1.701149775371e-06 0.0 
-1.701149775371e-06 8.113018730487e-04 0.0 
0.0 0.0 -1.232036783932e-04 
-1.130241629680e-04 -1.858461286811e-06 0.0 
-1.858461286811e-06 7.480336692277e-04 0.0 
0.0 0.0 -1.141311642346e-04 
-1.321533265726e-04 -1.335199541160e-06 0.0 
-1.335199541160e-06 8.794062915419e-04 0.0 
0.0 0.0 -1.329915258165e-04 
-1.262846614202e-04 1.119259017791e-06 0.0 
1.119259017791e-06 8.372331183149e-04 0.0 
0.0 0.0 -1.265608218447e-04 
-1.120104832196e-04 -1.984611779904e-06 0.0 
-1.984611779904e-06 7.374063381166e-04 0.0 
0.0 0.0 -1.126429727744e-04 
-9.422976514582e-06 -1.217518494265e-06 0.0 
-1.217518494265e-06 4.558842274141e-05 0.0 
0.0 0.0 -8.813944590281e-06 
-2.032999859278e-05 1.550107281015e-06 0.0 
1.550107281015e-06 1.008000227599e-04 0.0 
0.0 0.0 -2.005057187811e-05 
-1.923634066646e-05 -1.281983274152e-06 0.0 
-1.281983274152e-06 9.903712088906e-05 0.0 
0.0 0.0 -1.977126557535e-05 
-2.892124709552e-05 -6.331508506686e-07 0.0 
-6.331508506686e-07 1.562935872075e-04 0.0 
0.0 0.0 -2.931975365146e-05 
-3.044620434302e-05 2.916307507694e-06 0.0 
2.916307507694e-06 1.611495346811e-04 0.0 
0.0 0.0 -2.995118946101e-05 
-3.774799277366e-05 3.794557032570e-07 0.0 
3.794557032570e-07 2.202737536706e-04 0.0 
0.0 0.0 -3.879981516104e-05 
-3.645995758034e-05 -3.803053327811e-06 0.0 
-3.803053327811e-06 2.139692199118e-04 0.0 
0.0 0.0 -3.742104924291e-05 
-2.033881415161e-05 -1.700939409159e-06 0.0 
-1.700939409159e-06 1.011583560657e-04 0.0 
0.0 0.0 -1.994621821224e-05 
-8.875489974186e-06 -3.480193746508e-07 0.0 
-3.480193746508e-07 4.471598822964e-05 0.0 
0.0 0.0 -8.692282348679e-06 
-1.963315251852e-05 3.711641581478e-07 0.0 
3.711641581478e-07 9.816218701372e-05 0.0 
0.0 0.0 -1.973534442338e-05 
-8.550733775924e-06 2.514775744061e-07 0.0 
2.514775744061e-07 4.381249491722e-05 0.0 
0.0 0.0 -8.579688284227e-06 
-1.901805583189e-05 4.776440578629e-08 0.0 
4.776440578629e-08 9.639762974465e-05 0.0 
0.0 0.0 -1.949131874972e-05 
-2.991788690013e-05 6.474225871532e-07 0.0 
6.474225871532e-07 1.629475291055e-04 0.0 
0.0 0.0 -3.058298354955e-05 
-4.437694804010e-05 -3.488760205633e-08 0.0 
-3.488760205633e-08 2.590089634221e-04 0.0 
0.0 0.0 -4.387725951834e-05 
-1.952890502554e-04 2.705057302809e-06 0.0 
2.705057302809e-06 1.308737158744e-03 0.0 
0.0 0.0 -1.942312205382e-04 
-9.935449687594e-05 7.019136318893e-07 0.0 
7.019136318893e-07 6.421560261642e-04 0.0 
0.0 0.0 -9.893255040107e-05 
-9.532292627254e-05 2.814699913044e-06 0.0 
2.814699913044e-06 6.114496525194e-04 0.0 
0.0 0.0 -9.397196729617e-05 
-8.400669900114e-05 2.679673941902e-06 0.0 
2.679673941902e-06 5.409587176071e-04 0.0 
0.0 0.0 -8.462574969392e-05 
-9.027594374168e-05 -7.837686841303e-07 0.0 
-7.837686841303e-07 5.798954878733e-04 0.0 
0.0 0.0 -8.961994476413e-05 
-1.045740752791e-04 3.140418326637e-06 0.0 
3.140418326637e-06 6.688688744112e-04 0.0 
0.0 0.0 -1.029858181470e-04 
-7.880649475037e-05 2.069962121030e-06 0.0 
2.069962121030e-06 5.047681260686e-04 0.0 
0.0 0.0 -7.930380845106e-05 
-7.495741100239e-05 3.408625348592e-06 0.0 
3.408625348592e-06 4.823631646977e-04 0.0 
0.0 0.0 -7.557437765277e-05 
-9.687066653002e-06 -3.402698014617e-07 0.0 
-3.402698014617e-07 4.591586104220e-05 0.0 
0.0 0.0 -8.739712030662e-06 
-2.047661094667e-05 -2.267522532193e-06 0.0 
-2.267522532193e-06 1.000681362490e-04 0.0 
0.0 0.0 -2.007353836932e-05 
-1.994917007271e-05 2.592468629793e-06 0.0 
2.592468629793e-06 9.445303527474e-05 0.0 
0.0 0.0 -1.994324578594e-05 
-3.151456459980e-05 1.463566236896e-06 0.0 
1.463566236896e-06 1.596924898443e-04 0.0 
0.0 0.0 -2.965054416063e-05 
-2.861510418730e-05 -1.205587774427e-06 0.0 
-1.205587774427e-06 1.581911772624e-04 0.0 
0.0 0.0 -2.941027143855e-05 
-1.937098915206e-05 8.384890895992e-08 0.0 
8.384890895992e-08 1.007669973979e-04 0.0 
0.0 0.0 -1.994784544742e-05 
-1.998172865117e-05 1.674549256837e-06 0.0 
1.674549256837e-06 1.004783062935e-04 0.0 
0.0 0.0 -1.993089637160e-05 
-9.184527398116e-06 -3.340486906928e-07 0.0 
-3.340486906928e-07 4.449611849599e-05 0.0 
0.0 0.0 -8.679810794752e-06 
-1.977844276233e-05 -5.706350657546e-07 0.0 
-5.706350657546e-07 9.957383946922e-05 0.0 
0.0 0.0 -1.962916685114e-05 
-2.895230255585e-05 1.615024457259e-06 0.0 
1.615024457259e-06 1.596384447765e-04 0.0 
0.0 0.0 -2.991862060476e-05 
-7.803011911719e-06 -7.706301462869e-07 0.0 
-7.706301462869e-07 4.106703932536e-05 0.0 
0.0 0.0 -8.301770963759e-06 
-1.590145051585e-04 -4.281304664763e-06 0.0 
-4.281304664763e-06 1.062076659957e-03 0.0 
0.0 0.0 -1.590640962770e-04 
-1.651868147433e-04 -3.398332014324e-06 0.0 
-3.398332014324e-06 1.099025294548e-03 0.0 
0.0 0.0 -1.645623349770e-04 
-1.955657779701e-04 -5.933825758626e-07 0.0 
-5.933825758626e-07 1.315952615564e-03 0.0 
0.0 0.0 -1.951345524439e-04 
-1.128859712793e-04 -3.830481927276e-06 0.0 
-3.830481927276e-06 7.447363822067e-04 0.0 
0.0 0.0 -1.137601485512e-04 
-8.506649409316e-06 3.037838616352e-07 0.0 
3.037838616352e-07 4.456634567568e-05 0.0 
0.0 0.0 -8.827439468020e-06 
-1.944078863341e-04 -1.551046245181e-07 0.0 
-1.551046245181e-07 1.307325842461e-03 0.0 
0.0 0.0 -1.938161294973e-04 
-1.950362438059e-04 -1.795147355396e-06 0.0 
-1.795147355396e-06 1.317406774879e-03 0.0 
0.0 0.0 -1.954759163179e-04 
-1.946257604888e-04 1.407080277293e-06 0.0 
1.407080277293e-06 1.317652425531e-03 0.0 
0.0 0.0 -1.957234727395e-04 
-1.786106491459e-04 1.328228983500e-06 0.0 
1.328228983500e-06 1.198614709334e-03 0.0 
0.0 0.0 -1.786587739673e-04 
-1.826581066041e-04 5.861318546716e-07 0.0 
5.861318546716e-07 1.232821746468e-03 0.0 
0.0 0.0 -1.836483987139e-04 
-1.952382200043e-04 8.912494885484e-07 0.0 
8.912494885484e-07 1.308332215826e-03 0.0 
0.0 0.0 -1.941854046512e-04 
-6.737308308447e-05 5.138193223355e-07 0.0 
5.138193223355e-07 4.244241960940e-04 0.0 
0.0 0.0 -6.769213596492e-05 
-1.828682302183e-04 1.640560627373e-06 0.0 
1.640560627373e-06 1.239731587643e-03 0.0 
0.0 0.0 -1.838610959833e-04 
-1.772400966804e-04 3.904476817882e-07 0.0 
3.904476817882e-07 1.184738121319e-03 0.0 
0.0 0.0 -1.767943248163e-04 
-4.906868359316e-05 -1.133942934728e-07 0.0 
-1.133942934728e-07 2.953935878240e-04 0.0 
0.0 0.0 -4.902575320116e-05 
-6.530462737817e-05 3.585817021726e-07 0.0 
3.585817021726e-07 4.102635123792e-04 0.0 
0.0 0.0 -6.560435786130e-05 
-1.483067082024e-04 3.970804381230e-07 0.0 
3.970804381230e-07 9.886270184883e-04 0.0 
0.0 0.0 -1.484951207735e-04 
-1.367944353413e-04 -1.825561973167e-07 0.0 
-1.825561973167e-07 9.072242838815e-04 0.0 
0.0 0.0 -1.368596897040e-04 
-1.696034640066e-04 -3.607287686916e-07 0.0 
-3.607287686916e-07 1.134493911371e-03 0.0 
0.0 0.0 -1.695585677381e-04 
-1.398704134916e-04 8.561054054659e-09 0.0 
8.561054054659e-09 9.278981832241e-04 0.0 
0.0 0.0 -1.398333781397e-04 
-1.606909834555e-04 -5.100249501151e-07 0.0 
-5.100249501151e-07 1.075019221100e-03 0.0 
0.0 0.0 -1.609685038039e-04 
-1.869198009603e-04 3.460184187221e-06 0.0 
3.460184187221e-06 1.256233406915e-03 0.0 
0.0 0.0 -1.866194889163e-04 
-4.208478570565e-05 -7.076859870355e-07 0.0 
-7.076859870355e-07 2.599245066963e-04 0.0 
0.0 0.0 -4.408826043591e-05 
-1.404915308446e-04 9.501955183076e-07 0.0 
9.501955183076e-07 9.316401756296e-04 0.0 
0.0 0.0 -1.404724030559e-04 
-1.368005256677e-04 9.839857355172e-07 0.0 
9.839857355172e-07 9.063105631980e-04 0.0 
0.0 0.0 -1.369552780944e-04 
-1.614580578208e-04 -5.040207315794e-07 0.0 
-5.040207315794e-07 1.077622303329e-03 0.0 
0.0 0.0 -1.613909692546e-04 
-7.092154026938e-05 -7.271687064730e-07 0.0 
-7.271687064730e-07 4.457927222897e-04 0.0 
0.0 0.0 -7.064368720930e-05 
-1.092130498400e-04 -2.031197807860e-06 0.0 
-2.031197807860e-06 7.170877506305e-04 0.0 
0.0 0.0 -1.095638575444e-04 
-4.734326755177e-05 -7.634204257468e-07 0.0 
-7.634204257468e-07 2.775049997667e-04 0.0 
0.0 0.0 -4.656497932609e-05 
-1.872735419036e-04 6.485390613283e-07 0.0 
6.485390613283e-07 1.262586229201e-03 0.0 
0.0 0.0 -1.877191857934e-04 
-1.143324629321e-04 4.116664924952e-09 0.0 
4.116664924952e-09 7.469603610316e-04 0.0 
0.0 0.0 -1.138559328007e-04 
-1.153850895440e-04 2.798510741524e-07 0.0 
2.798510741524e-07 7.578160194775e-04 0.0 
0.0 0.0 -1.154143056347e-04 
-9.134271070788e-05 -4.241415328680e-07 0.0 
-4.241415328680e-07 5.928584725244e-04 0.0 
0.0 0.0 -9.180364234441e-05 
-7.295992473616e-05 6.931326544943e-07 0.0 
6.931326544943e-07 4.642607920090e-04 0.0 
0.0 0.0 -7.341543808938e-05 
-6.127928487910e-05 4.097090977135e-07 0.0 
4.097090977135e-07 3.818653258479e-04 0.0 
0.0 0.0 -6.151402614941e-05 
-1.048886373049e-04 7.305772282163e-07 0.0 
7.305772282163e-07 6.839939901015e-04 0.0 
0.0 0.0 -1.048536320953e-04 
-1.083489495467e-04 1.953470287276e-07 0.0 
1.953470287276e-07 7.097911034353e-04 0.0 
0.0 0.0 -1.085629762122e-04 
-1.537049609822e-04 2.480873530320e-07 0.0 
2.480873530320e-07 1.024308554960e-03 0.0 
0.0 0.0 -1.536510162914e-04 
-1.672004607334e-04 -4.138652897847e-07 0.0 
-4.138652897847e-07 1.115841044060e-03 0.0 
0.0 0.0 -1.668829017826e-04 
-1.175626501518e-05 2.653670795412e-06 0.0 
2.653670795412e-06 5.212615490244e-05 0.0 
0.0 0.0 -1.076426758597e-05 
-1.591679461113e-04 4.759781921774e-07 0.0 
4.759781921774e-07 1.063059671778e-03 0.0 
0.0 0.0 -1.592508397865e-04 
-1.282088974266e-04 -3.835691054215e-08 0.0 
-3.835691054215e-08 8.473404205640e-04 0.0 
0.0 0.0 -1.282838013392e-04 
-1.443596124248e-04 4.967652743944e-07 0.0 
4.967652743944e-07 9.572886199512e-04 0.0 
0.0 0.0 -1.439863651620e-04 
-1.598472287202e-04 -8.884907360877e-07 0.0 
-8.884907360877e-07 1.064451867688e-03 0.0 
0.0 0.0 -1.593960054358e-04 
-4.175998057522e-05 -3.447721282185e-07 0.0 
-3.447721282185e-07 2.572900811957e-04 0.0 
0.0 0.0 -4.363646550326e-05 
-1.650522666270e-04 -1.570677394041e-07 0.0 
-1.570677394041e-07 1.102136320565e-03 0.0 
0.0 0.0 -1.648121423230e-04 
-1.826232045261e-04 1.027217602921e-06 0.0 
1.027217602921e-06 1.220901163882e-03 0.0 
0.0 0.0 -1.818680320623e-04 
-1.325762676814e-04 -3.821282481616e-06 0.0 
-3.821282481616e-06 8.784259184788e-04 0.0 
0.0 0.0 -1.331264220316e-04 
-3.693963444370e-05 -7.544466628917e-07 0.0 
-7.544466628917e-07 2.092667936724e-04 0.0 
0.0 0.0 -3.663743814291e-05 
-1.313856992864e-04 7.552411984502e-07 0.0 
7.552411984502e-07 8.610864945210e-04 0.0 
0.0 0.0 -1.303870364997e-04 
-1.805690084043e-04 6.802145348003e-07 0.0 
6.802145348003e-07 1.208990479033e-03 0.0 
0.0 0.0 -1.804058984264e-04 
-1.618620090762e-04 -7.704497118794e-08 0.0 
-7.704497118794e-08 1.080863256528e-03 0.0 
0.0 0.0 -1.617330481104e-04 
-6.471559328570e-05 -1.662931831611e-06 0.0 
-1.662931831611e-06 4.062530166876e-04 0.0 
0.0 0.0 -6.504030707074e-05 
-1.192254745372e-04 -3.743731676596e-07 0.0 
-3.743731676596e-07 7.837384510995e-04 0.0 
0.0 0.0 -1.191527179664e-04 
-1.116344855219e-04 1.062141944630e-07 0.0 
1.062141944630e-07 7.298456137402e-04 0.0 
0.0 0.0 -1.114223846842e-04 
-1.018383685965e-04 -1.359407971871e-06 0.0 
-1.359407971871e-06 6.707473892556e-04 0.0 
0.0 0.0 -1.029886159366e-04 
-1.821879658306e-04 1.203703486797e-06 0.0 
1.203703486797e-06 1.214225172284e-03 0.0 
0.0 0.0 -1.809836386841e-04 
-1.227568816259e-04 -6.254739179737e-08 0.0 
-6.254739179737e-08 8.076906619440e-04 0.0 
0.0 0.0 -1.225941817511e-04 
-1.685234158846e-04 1.004345265447e-06 0.0 
1.004345265447e-06 1.124593655933e-03 0.0 
0.0 0.0 -1.680081379364e-04 
-1.385983115983e-04 -4.518781372797e-07 0.0 
-4.518781372797e-07 9.192006383534e-04 0.0 
0.0 0.0 -1.386121366338e-04 
-6.938466731060e-05 -6.198930646466e-07 0.0 
-6.198930646466e-07 4.371957454374e-04 0.0 
0.0 0.0 -6.944566544735e-05 
-1.681992938910e-04 -9.274416247642e-07 0.0 
-9.274416247642e-07 1.123747739326e-03 0.0 
0.0 0.0 -1.678379068203e-04 
-1.163255558547e-04 -2.444566148572e-07 0.0 
-2.444566148572e-07 7.630787415271e-04 0.0 
0.0 0.0 -1.161597941560e-04 
-1.747594319775e-04 -4.754811496893e-07 0.0 
-4.754811496893e-07 1.171391248362e-03 0.0 
0.0 0.0 -1.746922153459e-04 
-1.547158004377e-04 -7.908026844223e-07 0.0 
-7.908026844223e-07 1.031372856638e-03 0.0 
0.0 0.0 -1.547299964433e-04 
-9.575522477032e-05 -2.469845308842e-07 0.0 
-2.469845308842e-07 6.198169541374e-04 0.0 
0.0 0.0 -9.562808392031e-05 
-1.680741224093e-04 -8.043675432309e-07 0.0 
-8.043675432309e-07 1.125048534485e-03 0.0 
0.0 0.0 -1.681755324449e-04 
-1.167097397872e-04 2.723456768358e-07 0.0 
2.723456768358e-07 7.659716634377e-04 0.0 
0.0 0.0 -1.165963749253e-04 
-1.652487966176e-04 1.494188142169e-07 0.0 
1.494188142169e-07 1.103453328263e-03 0.0 
0.0 0.0 -1.649144376955e-04 
-1.090718422596e-04 2.524371737846e-07 0.0 
2.524371737846e-07 7.103678881211e-04 0.0 
0.0 0.0 -1.086081446058e-04 
-1.357966733163e-04 -3.457047510780e-07 0.0 
-3.457047510780e-07 8.984402994021e-04 0.0 
0.0 0.0 -1.356166455148e-04 
-1.479451278654e-04 -5.197314638619e-07 0.0 
-5.197314638619e-07 9.805721187296e-04 0.0 
0.0 0.0 -1.473637189475e-04 
-1.291946076143e-04 -2.210645520776e-08 0.0 
-2.210645520776e-08 8.530967429073e-04 0.0 
0.0 0.0 -1.291232438263e-04 
-1.429493388473e-04 2.592746297642e-06 0.0 
2.592746297642e-06 9.504562516353e-04 0.0 
0.0 0.0 -1.430149859860e-04 
-1.638426906912e-04 3.884553588315e-07 0.0 
3.884553588315e-07 1.093570341671e-03 0.0 
0.0 0.0 -1.635473777094e-04 
-4.679395941113e-05 8.636054265735e-08 0.0 
8.636054265735e-08 2.742855012463e-04 0.0 
0.0 0.0 -4.607001325828e-05 
-8.578179911004e-05 -6.161056704632e-08 0.0 
-6.161056704632e-08 5.513847511004e-04 0.0 
0.0 0.0 -8.578563835690e-05 
-1.423249179194e-04 -7.804262925553e-07 0.0 
-7.804262925553e-07 9.497515173482e-04 0.0 
0.0 0.0 -1.430477210920e-04 
-1.735818036023e-04 -9.773598649861e-07 0.0 
-9.773598649861e-07 1.155171653987e-03 0.0 
0.0 0.0 -1.725878545680e-04 
-1.836468666056e-04 1.003626260766e-06 0.0 
1.003626260766e-06 1.240389692506e-03 0.0 
0.0 0.0 -1.843994436203e-04 
-1.023143520992e-04 5.423079028455e-07 0.0 
5.423079028455e-07 6.643953733865e-04 0.0 
0.0 0.0 -1.020177412065e-04 
-1.622496068517e-04 -8.321051479419e-07 0.0 
-8.321051479419e-07 1.084090239035e-03 0.0 
0.0 0.0 -1.622365463781e-04 
-1.781376606747e-04 3.555220392374e-07 0.0 
3.555220392374e-07 1.192018732814e-03 0.0 
0.0 0.0 -1.778033526228e-04 
-1.126735395111e-04 5.522608983235e-08 0.0 
5.522608983235e-08 7.397928820176e-04 0.0 
0.0 0.0 -1.128655126259e-04 
-5.035207840853e-05 5.069616719063e-07 0.0 
5.069616719063e-07 3.007678980219e-04 0.0 
0.0 0.0 -4.999657030114e-05 
-3.927566979207e-05 -3.832849885569e-07 0.0 
-3.832849885569e-07 2.313033145196e-04 0.0 
0.0 0.0 -3.982249606560e-05 
-7.656825341724e-05 3.679510810454e-07 0.0 
3.679510810454e-07 4.857975545201e-04 0.0 
0.0 0.0 -7.638798348873e-05 
-1.174853009841e-04 -1.483166653648e-09 0.0 
-1.483166653648e-09 7.706480780895e-04 0.0 
0.0 0.0 -1.172617294919e-04 
-1.226008469953e-04 -1.659916804789e-07 0.0 
-1.659916804789e-07 8.085563299237e-04 0.0 
0.0 0.0 -1.227254861441e-04 
-1.869186648422e-04 1.288893444476e-06 0.0 
1.288893444476e-06 1.255438194585e-03 0.0 
0.0 0.0 -1.863413058393e-04 
-1.661774130078e-04 -5.668139200530e-07 0.0 
-5.668139200530e-07 1.113816736532e-03 0.0 
0.0 0.0 -1.665279681784e-04 
-1.561062454374e-04 -1.032747631753e-06 0.0 
-1.032747631753e-06 1.041295622328e-03 0.0 
0.0 0.0 -1.561285722757e-04 
-2.290814551487e-05 1.131949368258e-06 0.0 
1.131949368258e-06 1.115970032557e-04 0.0 
0.0 0.0 -2.279054486229e-05 
-1.065384879856e-04 1.371781238190e-06 0.0 
1.371781238190e-06 6.979852258937e-04 0.0 
0.0 0.0 -1.068955660026e-04 
-1.703396393732e-04 -6.320212589166e-07 0.0 
-6.320212589166e-07 1.144009893404e-03 0.0 
0.0 0.0 -1.708611002394e-04 
-1.234023393735e-04 -2.265061210127e-07 0.0 
-2.265061210127e-07 8.130545487096e-04 0.0 
0.0 0.0 -1.233545184740e-04 
-1.695777077806e-04 2.106230318132e-07 0.0 
2.106230318132e-07 1.131440026902e-03 0.0 
0.0 0.0 -1.690088035303e-04 
-1.159592254194e-04 -1.383338685156e-07 0.0 
-1.383338685156e-07 7.703209590687e-04 0.0 
0.0 0.0 -1.172687467652e-04 
-1.871117190239e-04 -1.386491014739e-06 0.0 
-1.386491014739e-06 1.261256540934e-03 0.0 
0.0 0.0 -1.874631276173e-04 
-8.657535319631e-05 1.579232664336e-06 0.0 
1.579232664336e-06 5.555478256840e-04 0.0 
0.0 0.0 -8.636364963772e-05 
-1.755150914368e-04 -6.889429931338e-07 0.0 
-6.889429931338e-07 1.176166452702e-03 0.0 
0.0 0.0 -1.753185131199e-04 
-1.573111243631e-04 1.063973160771e-06 0.0 
1.063973160771e-06 1.048972338121e-03 0.0 
0.0 0.0 -1.571178519447e-04 
-7.892866904534e-05 2.863749736169e-07 0.0 
2.863749736169e-07 5.022036140890e-04 0.0 
0.0 0.0 -7.873003997367e-05 
-1.124601082612e-04 5.668543912746e-07 0.0 
5.668543912746e-07 7.365972072198e-04 0.0 
0.0 0.0 -1.124710309571e-04 
-1.868644922347e-04 1.000849535727e-06 0.0 
1.000849535727e-06 1.255765804165e-03 0.0 
0.0 0.0 -1.865710734017e-04 
-1.676555622800e-04 3.291135704866e-07 0.0 
3.291135704866e-07 1.118261925556e-03 0.0 
0.0 0.0 -1.671813732751e-04 
-1.386017071923e-04 -1.797723160640e-07 0.0 
-1.797723160640e-07 9.191547604494e-04 0.0 
0.0 0.0 -1.386052031399e-04 
-1.179182420809e-04 -1.397755678998e-07 0.0 
-1.397755678998e-07 7.747023837777e-04 0.0 
0.0 0.0 -1.178542631832e-04 
-9.266051543288e-05 -1.427667931752e-06 0.0 
-1.427667931752e-06 5.998378060181e-04 0.0 
0.0 0.0 -9.287066260160e-05 
-1.268908472920e-04 -2.992571917759e-07 0.0 
-2.992571917759e-07 8.385766200168e-04 0.0 
0.0 0.0 -1.270155650522e-04 
-1.412610616596e-04 -7.070516204549e-07 0.0 
-7.070516204549e-07 9.356355867827e-04 0.0 
0.0 0.0 -1.409283708239e-04 
-1.952715328492e-04 2.648146111006e-07 0.0 
2.648146111006e-07 1.320373790754e-03 0.0 
0.0 0.0 -1.960333646234e-04 
-1.736029799723e-04 -4.830607358394e-07 0.0 
-4.830607358394e-07 1.152851948528e-03 0.0 
0.0 0.0 -1.722934252721e-04 
-1.452011068003e-04 -1.075773922608e-06 0.0 
-1.075773922608e-06 9.666398033647e-04 0.0 
0.0 0.0 -1.454499006876e-04 
-1.212938627555e-04 -3.882932393123e-07 0.0 
-3.882932393123e-07 7.997072957628e-04 0.0 
0.0 0.0 -1.214615911284e-04 
-1.463822189693e-04 -1.900321700036e-07 0.0 
-1.900321700036e-07 9.728037690076e-04 0.0 
0.0 0.0 -1.462476041952e-04 
-2.746226357204e-05 -9.271388711199e-07 0.0 
-9.271388711199e-07 1.571302735165e-04 0.0 
0.0 0.0 -2.955133849294e-05 
-9.672248826247e-05 7.266615167990e-07 0.0 
7.266615167990e-07 6.276593153662e-04 0.0 
0.0 0.0 -9.671433789260e-05 
-1.257056545510e-04 -4.990050790239e-07 0.0 
-4.990050790239e-07 8.296358928903e-04 0.0 
0.0 0.0 -1.257347134077e-04 
-8.071247393308e-05 8.458441046783e-08 0.0 
8.458441046783e-08 5.152581703620e-04 0.0 
0.0 0.0 -8.061844590833e-05 
-1.221886675709e-04 -7.908405440190e-08 0.0 
-7.908405440190e-08 8.040667053497e-04 0.0 
0.0 0.0 -1.220458434280e-04 
-1.840762203294e-04 1.915177188951e-06 0.0 
1.915177188951e-06 1.245437645367e-03 0.0 
0.0 0.0 -1.851416939921e-04 
-1.301442044184e-04 -3.060279266349e-07 0.0 
-3.060279266349e-07 8.596681305344e-04 0.0 
0.0 0.0 -1.300328051442e-04 
-9.031994090937e-05 -2.080257032609e-07 0.0 
-2.080257032609e-07 5.822092092616e-04 0.0 
0.0 0.0 -9.022896017931e-05 
-1.344673763446e-04 9.830708816548e-08 0.0 
9.830708816548e-08 8.894298640129e-04 0.0 
0.0 0.0 -1.343397272354e-04 
-8.268637292058e-05 -8.113913653822e-07 0.0 
-8.113913653822e-07 5.290888140562e-04 0.0 
0.0 0.0 -8.279832518349e-05 
-1.497839366065e-04 -1.523194842093e-06 0.0 
-1.523194842093e-06 9.970276981604e-04 0.0 
0.0 0.0 -1.497490155909e-04 
-1.382259707113e-04 2.110689173297e-08 0.0 
2.110689173297e-08 9.185304756848e-04 0.0 
0.0 0.0 -1.386530088269e-04 
-1.506650140695e-04 -9.263316559378e-07 0.0 
-9.263316559378e-07 1.001955608578e-03 0.0 
0.0 0.0 -1.504726885606e-04 
-3.022468714226e-05 -2.973636621545e-06 0.0 
-2.973636621545e-06 1.677942898081e-04 0.0 
0.0 0.0 -3.060483068446e-05 
-1.428673620023e-04 -2.398732156922e-07 0.0 
-2.398732156922e-07 9.482366823991e-04 0.0 
0.0 0.0 -1.427619920137e-04 
-1.726984643621e-04 1.345553639607e-06 0.0 
1.345553639607e-06 1.160671593896e-03 0.0 
0.0 0.0 -1.733128613594e-04 
-8.463363897670e-05 6.078796328986e-07 0.0 
6.078796328986e-07 5.444031302841e-04 0.0 
0.0 0.0 -8.481515710027e-05 
-1.264518580475e-04 2.684568646022e-07 0.0 
2.684568646022e-07 8.338232778496e-04 0.0 
0.0 0.0 -1.263048705811e-04 
-1.596353680421e-04 -9.131275579431e-07 0.0 
-9.131275579431e-07 1.065304755547e-03 0.0 
0.0 0.0 -1.595480372087e-04 
-7.302589173434e-05 -3.183424354861e-06 0.0 
-3.183424354861e-06 4.574500906094e-04 0.0 
0.0 0.0 -7.259764510955e-05 
-1.362250571880e-04 3.623633479399e-08 0.0 
3.623633479399e-08 9.021775671400e-04 0.0 
0.0 0.0 -1.361198740657e-04 
-1.602145110429e-04 -8.362565613448e-07 0.0 
-8.362565613448e-07 1.068772108230e-03 0.0 
0.0 0.0 -1.600932078566e-04 
-1.471273090538e-04 7.392924497517e-07 0.0 
7.392924497517e-07 9.780830439502e-04 0.0 
0.0 0.0 -1.470264431059e-04 
-1.270633471131e-04 1.102546760641e-07 0.0 
1.102546760641e-07 8.375443541897e-04 0.0 
0.0 0.0 -1.268359787636e-04 
-1.460791581632e-04 -2.407797944151e-07 0.0 
-2.407797944151e-07 9.714799924540e-04 0.0 
0.0 0.0 -1.460739326938e-04 
-7.660927585480e-05 2.589062603144e-06 0.0 
2.589062603144e-06 4.833163137169e-04 0.0 
0.0 0.0 -7.585562978697e-05 
-6.337475630904e-05 1.248073807384e-06 0.0 
1.248073807384e-06 3.958823544252e-04 0.0 
0.0 0.0 -6.357697056388e-05 
-5.388339958482e-05 2.895282728563e-07 0.0 
2.895282728563e-07 3.277752654746e-04 0.0 
0.0 0.0 -5.379270529687e-05 
-9.451957039609e-05 -2.935916480427e-07 0.0 
-2.935916480427e-07 6.114923592848e-04 0.0 
0.0 0.0 -9.441947030406e-05 
-1.655470867204e-04 -4.270866697213e-07 0.0 
-4.270866697213e-07 1.106817959118e-03 0.0 
0.0 0.0 -1.654622947108e-04 
-3.839223720892e-05 -3.449317819975e-06 0.0 
-3.449317819975e-06 2.174158836143e-04 0.0 
0.0 0.0 -3.781821007497e-05 
-1.582398840472e-04 -1.211336256148e-06 0.0 
-1.211336256148e-06 1.056196191213e-03 0.0 
0.0 0.0 -1.582347619750e-04 
-3.976493932031e-05 -1.461285902805e-06 0.0 
-1.461285902805e-06 2.310785421131e-04 0.0 
0.0 0.0 -3.990281506442e-05 
-8.912786947884e-05 -2.218013861212e-07 0.0 
-2.218013861212e-07 5.740010873261e-04 0.0 
0.0 0.0 -8.903564786089e-05 
-1.609314023663e-04 8.015374636601e-07 0.0 
8.015374636601e-07 1.078902557479e-03 0.0 
0.0 0.0 -1.615622346724e-04 
-1.398208268631e-04 -7.214897453684e-06 0.0 
-7.214897453684e-06 9.283629550766e-04 0.0 
0.0 0.0 -1.397314702741e-04 
-9.326712864409e-05 1.081123901449e-07 0.0 
1.081123901449e-07 6.029249672552e-04 0.0 
0.0 0.0 -9.316659828873e-05 
-5.971178892461e-05 1.368640181835e-06 0.0 
1.368640181835e-06 3.694230737418e-04 0.0 
0.0 0.0 -5.984927026599e-05 
-8.786689087998e-05 2.978470750166e-07 0.0 
2.978470750166e-07 5.651036338672e-04 0.0 
0.0 0.0 -8.775496813769e-05 
-1.366866866355e-04 2.012050051265e-07 0.0 
2.012050051265e-07 9.045962273325e-04 0.0 
0.0 0.0 -1.364843956035e-04 
-9.193121234076e-05 4.013204139827e-07 0.0 
4.013204139827e-07 5.938843893935e-04 0.0 
0.0 0.0 -9.187235440198e-05 
-8.634860532519e-05 5.489409565849e-07 0.0 
5.489409565849e-07 5.556459598693e-04 0.0 
0.0 0.0 -8.641257901652e-05 
-1.873076348652e-04 -8.303719696611e-07 0.0 
-8.303719696611e-07 1.255027706073e-03 0.0 
0.0 0.0 -1.864462757575e-04 
-9.029085277060e-05 7.778954920217e-07 0.0 
7.778954920217e-07 5.838501403615e-04 0.0 
0.0 0.0 -9.045572518728e-05 
-1.942906890229e-04 -1.961786413827e-06 0.0 
-1.961786413827e-06 1.320208759113e-03 0.0 
0.0 0.0 -1.958055517464e-04 
-1.946815352992e-04 -9.026625198254e-07 0.0 
-9.026625198254e-07 1.313526635210e-03 0.0 
0.0 0.0 -1.947608156509e-04 
-1.203676963192e-04 -5.252269783046e-06 0.0 
-5.252269783046e-06 7.911029022502e-04 0.0 
0.0 0.0 -1.199678325534e-04 
-6.382312409295e-05 3.317997073278e-06 0.0 
3.317997073278e-06 3.867196355365e-04 0.0 
0.0 0.0 -6.182128488093e-05 
-9.762668327602e-06 5.060945032083e-07 0.0 
5.060945032083e-07 4.694411596940e-05 0.0 
0.0 0.0 -1.015196033753e-05 
-6.438901127768e-05 -2.610876075629e-06 0.0 
-2.610876075629e-06 4.083460003589e-04 0.0 
0.0 0.0 -6.553865090092e-05 
-7.498804079240e-05 7.264952039937e-07 0.0 
7.264952039937e-07 4.774096760748e-04 0.0 
0.0 0.0 -7.520405771235e-05 
-1.574390158364e-04 7.322658693656e-08 0.0 
7.322658693656e-08 1.047023690082e-03 0.0 
0.0 0.0 -1.568628108499e-04 
-1.202462798349e-04 1.277535447616e-06 0.0 
1.277535447616e-06 7.923369076637e-04 0.0 
0.0 0.0 -1.204472570985e-04 
-6.913329999888e-05 1.518567138290e-06 0.0 
1.518567138290e-06 4.374135939075e-04 0.0 
0.0 0.0 -6.946069291118e-05 
-1.870210423738e-04 1.710341786506e-07 0.0 
1.710341786506e-07 1.262084104717e-03 0.0 
0.0 0.0 -1.875139937252e-04 
-1.961583819331e-04 -2.514147813671e-06 0.0 
-2.514147813671e-06 1.318669280984e-03 0.0 
0.0 0.0 -1.960106588935e-04 
-1.542863799404e-04 -1.786859133762e-06 0.0 
-1.786859133762e-06 1.026998591695e-03 0.0 
0.0 0.0 -1.543154520944e-04 
-1.744631732482e-04 2.018301688582e-06 0.0 
2.018301688582e-06 1.157934353510e-03 0.0 
0.0 0.0 -1.729253385307e-04 
-1.515018167516e-04 8.404198603292e-07 0.0 
8.404198603292e-07 1.010295705910e-03 0.0 
0.0 0.0 -1.515893794002e-04 
-1.789376768634e-04 -2.919640014592e-06 0.0 
-2.919640014592e-06 1.191538801034e-03 0.0 
0.0 0.0 -1.778575971036e-04 
-1.110411603683e-04 -8.342356804498e-06 0.0 
-8.342356804498e-06 7.312796766666e-04 0.0 
0.0 0.0 -1.117662927266e-04 
-1.911119346146e-05 1.280039211139e-07 0.0 
1.280039211139e-07 9.580427244612e-05 0.0 
0.0 0.0 -1.958655518621e-05 
-1.481869069540e-04 1.615226342953e-06 0.0 
1.615226342953e-06 9.850665679094e-04 0.0 
0.0 0.0 -1.481937727541e-04 
-5.301773043500e-05 1.085407750924e-06 0.0 
1.085407750924e-06 3.130804062890e-04 0.0 
0.0 0.0 -5.155996613848e-05 
-5.287064574584e-05 8.669478230712e-08 0.0 
8.669478230712e-08 3.211142711540e-04 0.0 
0.0 0.0 -5.286758958265e-05 
-4.293484566845e-05 -2.294669534039e-07 0.0 
-2.294669534039e-07 2.490277005517e-04 0.0 
0.0 0.0 -4.248609661651e-05 
-7.457102542764e-05 4.540838739860e-07 0.0 
4.540838739860e-07 4.629980056454e-04 0.0 
0.0 0.0 -7.285240290645e-05 
-2.774703220549e-05 1.104401006757e-06 0.0 
1.104401006757e-06 1.537348123985e-04 0.0 
0.0 0.0 -2.914266538000e-05 
-4.307384339748e-05 1.329013767483e-06 0.0 
1.329013767483e-06 2.553580944067e-04 0.0 
0.0 0.0 -4.333354231935e-05 
-1.879084470079e-04 -2.749275055617e-06 0.0 
-2.749275055617e-06 1.255451133352e-03 0.0 
0.0 0.0 -1.867668077911e-04 
-1.189011343897e-04 -7.099494553202e-06 0.0 
-7.099494553202e-06 7.923665314969e-04 0.0 
0.0 0.0 -1.207517460948e-04 
-1.659393230097e-04 -1.374219794473e-06 0.0 
-1.374219794473e-06 1.113429222670e-03 0.0 
0.0 0.0 -1.665613853390e-04 
-3.293815057038e-05 1.035559240217e-06 0.0 
1.035559240217e-06 1.835663013155e-04 0.0 
0.0 0.0 -3.316239960270e-05 
-1.877702954761e-04 -2.194005982338e-06 0.0 
-2.194005982338e-06 1.259619262861e-03 0.0 
0.0 0.0 -1.871049233185e-04 
-1.875538609812e-04 9.967607666469e-07 0.0 
9.967607666469e-07 1.259292980625e-03 0.0 
0.0 0.0 -1.869913167940e-04 
-1.965092283334e-04 -2.596350880128e-06 0.0 
-2.596350880128e-06 1.320494070457e-03 0.0 
0.0 0.0 -1.959374034051e-04 
-1.758179036347e-04 -4.481197506713e-07 0.0 
-4.481197506713e-07 1.181701348802e-03 0.0 
0.0 0.0 -1.764557581508e-04 
-3.270582193410e-05 -4.386817373036e-07 0.0 
-4.386817373036e-07 1.770411407639e-04 0.0 
0.0 0.0 -3.195907242369e-05 
-1.266388969174e-04 -6.538610975457e-06 0.0 
-6.538610975457e-06 8.502071903162e-04 0.0 
0.0 0.0 -1.290525119649e-04 
-1.885161697494e-04 -1.408082556477e-06 0.0 
-1.408082556477e-06 1.262346972473e-03 0.0 
0.0 0.0 -1.876241058639e-04 
-1.609443742117e-04 -4.613026983514e-07 0.0 
-4.613026983514e-07 1.083073354588e-03 0.0 
0.0 0.0 -1.620379724609e-04 
-1.949934473796e-04 8.861010983955e-06 0.0 
8.861010983955e-06 1.323301005755e-03 0.0 
0.0 0.0 -1.964977576321e-04 
-1.170915995552e-04 -2.526672373362e-07 0.0 
-2.526672373362e-07 7.818822557443e-04 0.0 
0.0 0.0 -1.196852915840e-04 
-1.881251343584e-04 1.719532540905e-06 0.0 
1.719532540905e-06 1.262091246564e-03 0.0 
0.0 0.0 -1.879162412457e-04 
-4.159837246659e-05 -1.872810599717e-06 0.0 
-1.872810599717e-06 2.367903641582e-04 0.0 
0.0 0.0 -4.105708941867e-05 
-1.880384365163e-04 2.724632523543e-06 0.0 
2.724632523543e-06 1.261692801511e-03 0.0 
0.0 0.0 -1.881249298770e-04 
-1.672657211226e-04 -3.803404194110e-07 0.0 
-3.803404194110e-07 1.114623838802e-03 0.0 
0.0 0.0 -1.665474363985e-04 
-1.318213223878e-04 4.430076983304e-06 0.0 
4.430076983304e-06 8.772776289306e-04 0.0 
0.0 0.0 -1.326022361065e-04 
-1.268048282990e-04 1.914164460218e-06 0.0 
1.914164460218e-06 8.466567585872e-04 0.0 
0.0 0.0 -1.285548941949e-04 
-1.877454760479e-04 1.284504322459e-06 0.0 
1.284504322459e-06 1.264298494462e-03 0.0 
0.0 0.0 -1.884505761775e-04 
-1.888991999446e-04 -3.702937246346e-06 0.0 
-3.702937246346e-06 1.261816131107e-03 0.0 
0.0 0.0 -1.874258164109e-04 
-2.628632611275e-05 2.399677637307e-06 0.0 
2.399677637307e-06 1.387230862011e-04 0.0 
0.0 0.0 -2.654059898772e-05 
-1.521013519928e-04 5.577678305588e-06 0.0 
5.577678305588e-06 1.024057332589e-03 0.0 
0.0 0.0 -1.536536413446e-04 
-9.055668035440e-05 -2.892025472723e-06 0.0 
-2.892025472723e-06 5.805249846311e-04 0.0 
0.0 0.0 -8.976434653209e-05 
-1.704710855302e-05 -3.458702652501e-06 0.0 
-3.458702652501e-06 8.989110359220e-05 0.0 
0.0 0.0 -1.808546165336e-05 
-1.884986873262e-04 5.724623714394e-06 0.0 
5.724623714394e-06 1.260552726885e-03 0.0 
0.0 0.0 -1.874281668734e-04 
-1.771946189262e-04 -2.402253146537e-07 0.0 
-2.402253146537e-07 1.178369612400e-03 0.0 
0.0 0.0 -1.758283601128e-04 
-1.891214672248e-04 5.594443250151e-06 0.0 
5.594443250151e-06 1.262060829366e-03 0.0 
0.0 0.0 -1.877794506222e-04 
-3.041019390796e-05 4.063728315188e-06 0.0 
4.063728315188e-06 1.568790135595e-04 0.0 
0.0 0.0 -2.929729011833e-05 
-1.923826485663e-05 2.395451325704e-06 0.0 
2.395451325704e-06 8.936390066832e-05 0.0 
0.0 0.0 -1.909551055642e-05 
-1.897110782286e-04 1.614204189851e-06 0.0 
1.614204189851e-06 1.273238434675e-03 0.0 
0.0 0.0 -1.887784298001e-04 
-1.886445185701e-04 1.051783953080e-06 0.0 
1.051783953080e-06 1.269174095551e-03 0.0 
0.0 0.0 -1.885660222491e-04 
-4.447382147791e-05 2.187152848341e-06 0.0 
2.187152848341e-06 2.726065505036e-04 0.0 
0.0 0.0 -4.552470986649e-05 
-1.972951013402e-04 -6.924320481766e-07 0.0 
-6.924320481766e-07 1.331208438024e-03 0.0 
0.0 0.0 -1.972065251748e-04 
-1.846003121508e-05 -1.622840747709e-06 0.0 
-1.622840747709e-06 8.564597044111e-05 0.0 
0.0 0.0 -1.843810201100e-05 
-1.091119861245e-04 9.275684085525e-07 0.0 
9.275684085525e-07 7.216506540820e-04 0.0 
0.0 0.0 -1.108446562541e-04 
-1.806806328908e-05 -2.788761483685e-06 0.0 
-2.788761483685e-06 9.325750213385e-05 0.0 
0.0 0.0 -1.871126948293e-05 
-1.949690694268e-04 -7.776605200528e-06 0.0 
-7.776605200528e-06 1.321740719942e-03 0.0 
0.0 0.0 -1.962797183211e-04 
-1.894401262255e-04 3.666748622647e-06 0.0 
3.666748622647e-06 1.266754761130e-03 0.0 
0.0 0.0 -1.882268625302e-04 
-9.871077405525e-05 5.581959752057e-06 0.0 
5.581959752057e-06 6.396670141167e-04 0.0 
0.0 0.0 -9.846769932235e-05 
-1.118450688366e-04 4.156485273902e-06 0.0 
4.156485273902e-06 7.411970212637e-04 0.0 
0.0 0.0 -1.131213240816e-04 
-6.675482278899e-05 2.746646028006e-06 0.0 
2.746646028006e-06 4.187062855815e-04 0.0 
0.0 0.0 -6.639636993191e-05 
-1.817394697373e-04 5.968977030046e-06 0.0 
5.968977030046e-06 1.213512747672e-03 0.0 
0.0 0.0 -1.805248368263e-04 
-2.549001927232e-05 1.681293934371e-06 0.0 
1.681293934371e-06 1.416935565870e-04 0.0 
0.0 0.0 -2.765034433090e-05 
-1.904991185222e-04 -2.176372463226e-06 0.0 
-2.176372463226e-06 1.275606109758e-03 0.0 
0.0 0.0 -1.890445337758e-04 
-1.902901370943e-04 -9.239913511013e-07 0.0 
-9.239913511013e-07 1.276413630327e-03 0.0 
0.0 0.0 -1.892125449932e-04 
-1.899738152617e-04 1.392000637091e-06 0.0 
1.392000637091e-06 1.275351249225e-03 0.0 
0.0 0.0 -1.890927655262e-04 
-1.980969591010e-04 1.747220192366e-07 0.0 
1.747220192366e-07 1.334413570643e-03 0.0 
0.0 0.0 -1.976588442224e-04 
-1.595876566451e-05 5.109996014523e-06 0.0 
5.109996014523e-06 8.560533841461e-05 0.0 
0.0 0.0 -1.829422046362e-05 
-1.907894524984e-04 -1.453289198629e-06 0.0 
-1.453289198629e-06 1.278087489939e-03 0.0 
0.0 0.0 -1.894635324722e-04 
-1.817965180967e-04 4.689820275562e-06 0.0 
4.689820275562e-06 1.212613848096e-03 0.0 
0.0 0.0 -1.803359864353e-04 
-1.117957005377e-04 6.977421344692e-06 0.0 
6.977421344692e-06 7.320600126907e-04 0.0 
0.0 0.0 -1.115961672155e-04 
-1.879277561833e-04 6.009601527580e-06 0.0 
6.009601527580e-06 1.263394424764e-03 0.0 
0.0 0.0 -1.878861552790e-04 
-8.116031042482e-05 4.154281404345e-06 0.0 
4.154281404345e-06 5.182033185543e-04 0.0 
0.0 0.0 -8.075837133452e-05 
-3.557600018319e-05 -6.705160068937e-06 0.0 
-6.705160068937e-06 2.127372360934e-04 0.0 
0.0 0.0 -3.738032741976e-05 
-1.948498336035e-04 -4.155697267809e-06 0.0 
-4.155697267809e-06 1.324960786423e-03 0.0 
0.0 0.0 -1.970235340649e-04 
-6.441570103541e-06 -6.279015523928e-07 0.0 
-6.279015523928e-07 3.480654244499e-05 0.0 
0.0 0.0 -7.946641316233e-06 
-1.120604214633e-04 -3.288397658700e-06 0.0 
-3.288397658700e-06 7.283085618337e-04 0.0 
0.0 0.0 -1.110361655408e-04 
-1.968531726492e-04 6.196640298584e-06 0.0 
6.196640298584e-06 1.326994606246e-03 0.0 
0.0 0.0 -1.970239266115e-04 
-3.317100676700e-05 -5.514460053326e-07 0.0 
-5.514460053326e-07 2.002819803963e-04 0.0 
0.0 0.0 -3.602866455310e-05 
-1.267924167818e-04 -3.909643930437e-06 0.0 
-3.909643930437e-06 8.405854862832e-04 0.0 
0.0 0.0 -1.273445728183e-04 
-1.883260687280e-04 -1.377902224743e-06 0.0 
-1.377902224743e-06 1.272138406880e-03 0.0 
0.0 0.0 -1.890317804362e-04 
-1.203896409836e-04 1.438809671102e-06 0.0 
1.438809671102e-06 7.891647527459e-04 0.0 
0.0 0.0 -1.197994443266e-04 
-1.726861375007e-04 -9.127303948545e-06 0.0 
-9.127303948545e-06 1.150354645725e-03 0.0 
0.0 0.0 -1.722668051730e-04 
-3.289244603068e-05 1.865001967380e-06 0.0 
1.865001967380e-06 1.965766441920e-04 0.0 
0.0 0.0 -3.568834104832e-05 
-5.881706171023e-06 -3.561904745218e-07 0.0 
-3.561904745218e-07 3.491879089690e-05 0.0 
0.0 0.0 -7.282502801701e-06 
-1.446887067247e-04 -6.124654101547e-06 0.0 
-6.124654101547e-06 9.637426034631e-04 0.0 
0.0 0.0 -1.450319398739e-04 
-1.900119233844e-04 5.405432627128e-06 0.0 
5.405432627128e-06 1.271140965081e-03 0.0 
0.0 0.0 -1.888071511890e-04 
-1.907231428786e-04 -2.479170288195e-06 0.0 
-2.479170288195e-06 1.279898250331e-03 0.0 
0.0 0.0 -1.895996551150e-04 
-1.374681624272e-04 5.948461411176e-06 0.0 
5.948461411176e-06 9.167037354941e-04 0.0 
0.0 0.0 -1.379940178424e-04 
-3.140963832924e-05 -6.998474457374e-06 0.0 
-6.998474457374e-06 1.796728179544e-04 0.0 
0.0 0.0 -3.246938559274e-05 
-1.841130626501e-04 1.475194732939e-06 0.0 
1.475194732939e-06 1.232968589940e-03 0.0 
0.0 0.0 -1.831558075192e-04 
-1.038243241623e-04 -4.078507790945e-07 0.0 
-4.078507790945e-07 6.921885952500e-04 0.0 
0.0 0.0 -1.059090906887e-04 
-1.833573372240e-04 -2.325322525301e-06 0.0 
-2.325322525301e-06 1.222189390314e-03 0.0 
0.0 0.0 -1.813408670945e-04 
-1.831720387608e-04 -1.195237391827e-06 0.0 
-1.195237391827e-06 1.215102366402e-03 0.0 
0.0 0.0 -1.805709848148e-04 
-8.505788794989e-06 -2.657547953589e-06 0.0 
-2.657547953589e-06 3.877580200424e-05 0.0 
0.0 0.0 -9.674067485877e-06 
-1.292364309074e-04 2.864479089253e-06 0.0 
2.864479089253e-06 8.498544276161e-04 0.0 
0.0 0.0 -1.284404431535e-04 
-1.837715794025e-05 -4.476436000323e-06 0.0 
-4.476436000323e-06 8.791465953263e-05 0.0 
0.0 0.0 -1.834574975625e-05 
-1.906256035079e-04 -2.900280215013e-06 0.0 
-2.900280215013e-06 1.276520367600e-03 0.0 
0.0 0.0 -1.895571240875e-04 
-1.101124519025e-04 -2.003731999075e-06 0.0 
-2.003731999075e-06 7.232878293546e-04 0.0 
0.0 0.0 -1.101665449339e-04 
-1.299150641090e-05 -3.569445765063e-06 0.0 
-3.569445765063e-06 7.975279535316e-05 0.0 
0.0 0.0 -1.806850021136e-05 
-1.868447702606e-05 1.197115901433e-07 0.0 
1.197115901433e-07 8.113669047937e-05 0.0 
0.0 0.0 -1.900000000000e-05 
-2.300972808461e-05 -4.251018135700e-06 0.0 
-4.251018135700e-06 1.504239720311e-04 0.0 
0.0 0.0 -2.790306122449e-05 
-2.974193989597e-05 5.604030738002e-07 0.0 
5.604030738002e-07 1.627059505933e-04 0.0 
0.0 0.0 -2.900000000000e-05 
-3.257073803526e-05 -3.215174392719e-06 0.0 
-3.215174392719e-06 2.193867322123e-04 0.0 
0.0 0.0 -3.788759349893e-05 
-3.979792889465e-05 -1.199778171411e-07 0.0 
-1.199778171411e-07 2.200789478701e-04 0.0 
0.0 0.0 -3.900000000000e-05 
-4.165891267230e-05 -4.371266864637e-06 0.0 
-4.371266864637e-06 2.889985860028e-04 0.0 
0.0 0.0 -4.790306122449e-05 
-4.964086180168e-05 -2.693060693399e-07 0.0 
-2.693060693399e-07 3.013640208770e-04 0.0 
0.0 0.0 -4.900000000000e-05 
-5.048456417060e-05 -2.929549654779e-06 0.0 
-2.929549654779e-06 3.593010990798e-04 0.0 
0.0 0.0 -5.788546288080e-05 
-5.961378635258e-05 -5.454468222937e-07 0.0 
-5.454468222937e-07 3.590027679778e-04 0.0 
0.0 0.0 -5.900000000000e-05 
-6.265158996412e-05 -5.475928741401e-06 0.0 
-5.475928741401e-06 4.290425473903e-04 0.0 
0.0 0.0 -6.790306122449e-05 
-6.948065415978e-05 -5.864688945389e-07 0.0 
-5.864688945389e-07 4.403815007264e-04 0.0 
0.0 0.0 -6.900000000000e-05 
-7.287737908661e-05 -5.356659590834e-06 0.0 
-5.356659590834e-06 4.997222128530e-04 0.0 
0.0 0.0 -7.788265306121e-05 
-7.961974967197e-05 -6.571269526957e-07 0.0 
-6.571269526957e-07 4.982209090245e-04 0.0 
0.0 0.0 -7.900000000000e-05 
-8.324861204494e-05 -5.744890109580e-06 0.0 
-5.744890109580e-06 5.692366340431e-04 0.0 
0.0 0.0 -8.790306122449e-05 
-8.930212876051e-05 1.144359831531e-06 0.0 
1.144359831531e-06 5.794802677978e-04 0.0 
0.0 0.0 -8.900000000000e-05 
-9.352423002678e-05 -5.224443985984e-06 0.0 
-5.224443985984e-06 6.401887908398e-04 0.0 
0.0 0.0 -9.787877878422e-05 
-1.009998970260e-04 5.583373135514e-06 0.0 
5.583373135514e-06 6.372022866514e-04 0.0 
0.0 0.0 -9.900000000000e-05 

SCALARS node_materi_plasti_kappa_shear float
LOOKUP_TABLE default
1.731369050501e-05
4.545550431279e-04
8.879540853347e-04
8.885778472785e-04
4.289921439406e-05
9.327668990988e-05
1.307750198866e-04
1.795624514288e-04
2.257201379956e-04
2.695509172566e-04
3.144422750007e-04
3.602182894153e-04
4.054873038985e-04
4.525148308088e-04
5.038541824834e-04
5.495995247736e-04
5.862111262393e-04
6.342650658052e-04
6.814841447557e-04
7.273130426229e-04
7.742201728224e-04
8.215906888973e-04
8.669064806701e-04
8.898091793777e-04
8.888004860446e-04
8.881476431534e-04
8.886611550675e-04
8.873292207379e-04
8.873796625284e-04
8.877145688059e-04
8.882991997087e-04
8.891081577287e-04
8.895674516380e-04
8.882569121584e-04
8.886773248083e-04
8.897614672626e-04
8.893270601288e-04
8.879317372578e-04
8.867155421258e-04
8.860750537291e-04
8.875036930769e-04
8.888199397314e-04
8.889528056050e-04
8.891193998000e-04
8.889269682469e-04
8.885711942666e-04
8.881774963459e-04
8.893558715015e-04
8.892926716099e-04
8.896475655307e-04
8.895391621796e-04
8.902345752377e-04
8.910618100376e-04
8.908268286946e-04
8.883017444198e-04
8.870033247227e-04
8.889101297818e-04
8.887178507321e-04
8.889749525521e-04
8.891814831339e-04
8.887055024058e-04
8.873576980909e-04
8.876113339264e-04
8.880420548052e-04
8.897938021992e-04
8.907165225603e-04
8.860205656141e-04
8.893069775074e-04
8.887535151655e-04
8.885180406595e-04
8.909163501419e-04
8.913403494152e-04
4.970460226215e-04
5.465414378926e-04
5.921313660911e-04
6.364287587029e-04
6.825537522220e-04
7.278134995944e-04
7.735342273326e-04
8.173136017165e-04
8.659377019958e-04
1.387818063272e-05
4.539930109995e-04
5.214668457571e-05
8.308175112589e-05
1.286994926032e-04
1.725075511252e-04
2.183476322774e-04
2.642608575334e-04
3.107394956161e-04
3.570654865108e-04
4.033178026184e-04
6.923023517652e-05
9.289808527674e-05
1.362380341837e-04
1.805100708743e-04
2.254865019445e-04
2.707860879461e-04
3.162883577622e-04
3.616329343761e-04
4.060157178949e-04
4.461572723987e-04
4.482375507592e-04
4.489251939510e-04
4.482810220245e-04
4.560054951225e-04
4.490487455221e-04
4.479848053994e-04
4.491487522400e-04
4.505166080725e-04
4.507339705437e-04
4.500429840668e-04
4.496777136800e-04
4.491474461797e-04
4.502737102712e-04
1.443236451681e-05
1.609184950887e-05
1.444777850682e-05
1.445196928896e-05
1.742545827470e-05
1.883427368881e-05
1.852391460304e-05
1.764215548380e-05
1.771561269883e-05
1.733046749832e-05
1.810073159380e-05
2.048990176091e-05
1.919122443325e-05
1.606222747872e-05
1.631184331598e-05
1.838276961406e-05
1.899682157401e-05
1.674761483558e-05
1.515472777583e-05
6.193915483094e-05
5.991836831730e-05
6.365369830927e-05
6.412486614690e-05
6.425156680021e-05
6.429759547753e-05
6.430895897340e-05
6.430279508793e-05
6.428736039300e-05
6.426745950123e-05
6.424693938461e-05
6.423017100221e-05
6.422153894683e-05
6.422423407287e-05
6.423829114862e-05
6.426480663052e-05
6.429801546272e-05
6.434329683773e-05
6.437611073933e-05
6.444207618350e-05
6.442539100154e-05
6.451530334705e-05
6.423506379448e-05
6.454119653237e-05
6.375962199908e-05
6.480097268963e-05
6.468045715862e-05
4.467900721659e-05
7.322610101345e-05
8.558397596405e-05
8.245155045854e-05
8.269682946404e-05
8.298072161591e-05
8.293780431474e-05
8.293711407348e-05
8.286691910571e-05
8.283266984996e-05
8.278492757481e-05
8.274689967718e-05
8.271389746387e-05
8.269322957237e-05
8.268443642109e-05
8.268924659789e-05
8.270424097307e-05
8.272312249593e-05
8.273946799025e-05
8.274832025944e-05
8.274446845839e-05
8.272067077929e-05
8.266602597411e-05
8.256336232217e-05
8.238101031315e-05
8.224582491175e-05
8.836637517285e-05
1.185638359136e-04
1.317450063700e-04
1.300557092033e-04
1.298692064916e-04
1.300895360239e-04
1.298722039598e-04
1.298782040022e-04
1.297986302856e-04
1.297480882160e-04
1.296907079062e-04
1.296511257970e-04
1.296282552404e-04
1.296305185578e-04
1.296521209985e-04
1.296795537219e-04
1.297009574791e-04
1.297096142338e-04
1.296988834258e-04
1.296612610424e-04
1.295891537710e-04
1.294801914640e-04
1.293455106666e-04
1.292521579067e-04
1.297801592430e-04
1.340221478094e-04
1.781988047114e-04
1.755201894282e-04
1.753379703646e-04
1.753848561580e-04
1.754802128008e-04
1.755724470979e-04
1.756369081575e-04
1.756680449584e-04
1.756741383737e-04
1.756617249940e-04
1.756357698326e-04
1.755973091705e-04
1.755718929635e-04
1.755821672844e-04
1.756425224492e-04
1.756937924859e-04
1.757856167632e-04
1.757854304704e-04
1.759163536534e-04
1.756787495987e-04
1.758919282271e-04
1.781750100815e-04
1.651336438905e-04
2.109708302842e-04
2.236620319499e-04
2.218312568736e-04
2.216843488834e-04
2.219428590784e-04
2.217846971553e-04
2.217415831349e-04
2.215999074723e-04
2.215541127844e-04
2.215891944876e-04
2.216558522700e-04
2.216827294030e-04
2.216923896073e-04
2.216956791642e-04
2.216811887582e-04
2.216297808589e-04
2.215409133773e-04
2.214529972215e-04
2.214107640670e-04
2.214815066151e-04
2.218511843967e-04
2.241914065437e-04
2.692547529093e-04
2.675660618296e-04
2.673934583820e-04
2.673939568732e-04
2.674585768179e-04
2.675591031638e-04
2.676459040090e-04
2.676570538580e-04
2.676372015587e-04
2.676553404665e-04
2.676764041519e-04
2.676333042631e-04
2.674812840926e-04
2.674838661980e-04
2.676204239189e-04
2.679795855057e-04
2.678105543472e-04
2.677301033404e-04
2.700799073531e-04
2.570066425718e-04
3.028056095170e-04
3.161844696852e-04
3.143201194648e-04
3.138173456820e-04
3.135666727045e-04
3.133894152578e-04
3.137072245185e-04
3.137903749499e-04
3.137552108189e-04
3.136173653508e-04
3.136276881298e-04
3.137330253685e-04
3.136250543478e-04
3.134895440990e-04
3.134087321469e-04
3.133800931571e-04
3.134342156714e-04
3.138051608859e-04
3.154278010076e-04
3.611485313111e-04
3.593958689772e-04
3.591898798686e-04
3.593297202165e-04
3.592471895824e-04
3.594265497814e-04
3.596237032014e-04
3.596571460670e-04
3.593377794373e-04
3.596684783014e-04
3.598758848307e-04
3.597552388914e-04
3.597821813941e-04
3.590976444273e-04
3.597033129801e-04
3.627706280632e-04
3.496857881406e-04
3.956894430432e-04
4.084843113251e-04
4.060961241034e-04
4.055043726269e-04
4.058070391746e-04
4.060008361141e-04
4.054675210445e-04
4.054158394705e-04
4.054705070724e-04
4.053661824669e-04
4.051783298876e-04
4.050677983318e-04
4.054138231738e-04
4.048987951044e-04
4.060536754366e-04
4.085853059390e-04
3.439412955423e-05
6.237756654620e-05
1.080821571076e-04
1.542628667609e-04
1.987126948131e-04
2.444555121765e-04
2.902585631940e-04
3.362497538655e-04
3.823052700951e-04
4.292533059372e-04
1.065540971725e-04
8.722366970816e-04
3.071877777411e-05
2.955753103127e-05
8.728796448070e-04
1.993419400918e-04
4.786993620079e-04
8.715410235367e-04
2.838574358308e-04
8.733046452917e-04
3.784478368563e-04
8.750925786310e-04
2.796371051266e-05
8.736269387387e-04
4.733271556655e-04
2.936877367691e-04
6.035474916513e-04
8.717572086583e-04
8.738199405046e-04
8.737494710065e-04
8.696287808285e-04
8.750806370792e-04
4.919558859900e-04
4.918398764198e-04
4.949307231399e-04
6.589482462508e-04
8.738674271820e-04
2.813705699443e-05
3.195365789908e-05
7.486411905948e-04
4.900146372997e-04
1.541367175474e-04
8.655890379535e-04
8.755682138923e-04
8.730973644309e-04
8.703784410466e-04
8.740973276145e-04
3.187356296986e-05
4.907091952207e-04
8.662583448289e-04
7.508115515426e-04
3.074176072344e-05
3.834518994422e-04
8.815314033999e-04
2.457863140164e-04
1.527805289882e-04
3.313833785311e-04
4.244970235113e-04
5.636808983146e-05
5.718052096935e-04
8.819662471530e-04
3.001251584579e-05
8.373343036417e-04
4.924452570696e-04
5.108818745462e-04
5.332387487364e-04
5.560142054344e-04
5.787643014481e-04
5.991259251811e-04
5.752635265182e-04
6.186942134972e-04
5.944516730932e-04
6.231926228760e-04
6.380835551574e-04
6.135840024034e-04
6.573144048118e-04
6.328089844586e-04
5.894129404993e-04
6.085043193505e-04
5.651248587261e-04
5.842235601993e-04
6.277370129424e-04
6.033008816137e-04
5.598285256637e-04
5.787470750073e-04
5.354343962972e-04
5.543066005166e-04
5.109771159406e-04
5.298843866555e-04
5.732568666386e-04
5.488106401566e-04
5.054467442157e-04
5.243830125588e-04
4.810781478793e-04
4.998224426771e-04
5.432974154275e-04
5.187745459682e-04
4.750268661506e-04
4.942061513858e-04
4.503195040673e-04
4.696890934292e-04
4.255957344176e-04
4.448505048632e-04
4.889334273357e-04
4.641717549476e-04
4.199472596373e-04
4.391094936345e-04
4.834394634788e-04
4.583112576687e-04
5.027462790146e-04
4.776197235482e-04
4.333642288832e-04
4.526081348578e-04
4.969211450957e-04
4.717210733978e-04
4.275809977385e-04
4.467222286567e-04
4.910180813087e-04
4.658552900682e-04
4.216677957086e-04
4.408729284411e-04
4.853895838457e-04
4.600318407553e-04
4.156094397672e-04
4.346988666159e-04
4.795014301536e-04
4.538188443789e-04
4.989809666093e-04
4.088754149089e-04
4.280167623936e-04
3.828819013324e-04
4.021805478245e-04
5.624042399684e-04
3.568746175437e-04
3.381624883378e-04
3.763715402787e-04
4.219792148569e-04
3.309364607346e-04
3.505799184385e-04
3.052633941202e-04
4.056941669208e-04
6.469586485139e-04
3.250320809889e-04
2.796631607038e-04
2.599302819126e-04
2.342013255709e-04
6.036748186582e-04
6.482174305303e-04
6.269535787043e-04
6.731337752938e-04
6.527067380216e-04
2.538439629180e-04
6.821261244064e-04
6.930466000944e-04
5.166862193674e-04
4.621843229341e-04
5.278976428177e-04
3.703184973447e-04
3.451321418538e-04
3.906862459586e-04
5.246371866953e-04
5.443146240762e-04
5.699547953913e-04
5.897069522284e-04
6.153672919097e-04
6.351883362805e-04
6.094609170451e-04
6.550126832138e-04
6.292102542344e-04
6.608318434088e-04
6.410047653727e-04
6.747478106556e-04
6.489569127364e-04
6.944404496434e-04
6.686255413523e-04
6.230894205853e-04
6.427296395524e-04
5.974326100299e-04
5.473118415211e-04
5.725790691740e-04
5.920079111203e-04
6.173889614791e-04
6.368362109388e-04
6.623309645012e-04
6.816599341203e-04
6.563140336921e-04
6.764880034757e-04
3.948980065668e-04
3.757422617964e-04
3.507921955189e-04
3.317100384563e-04
3.067998146490e-04
2.878591714287e-04
2.628952814348e-04
2.817770972622e-04
2.377365497028e-04
2.565509120403e-04
2.123913595215e-04
2.311386405196e-04
5.922576399657e-04
6.427827676104e-04
6.878682679612e-04
6.678822000469e-04
2.148067718258e-04
6.882180801932e-04
6.864985118878e-04
6.664359755593e-04
7.013124766121e-04
2.087760264216e-04
2.441964081010e-04
2.687157839923e-04
6.978563593589e-04
6.772610625539e-04
7.121601343833e-04
2.283568469402e-04
7.006628053783e-04
1.937776703377e-04
6.622880887680e-04
7.078272471647e-04
5.837558227301e-04
7.131417687537e-04
6.924127382572e-04
2.759772220359e-04
2.508908842006e-04
2.067202652783e-04
2.273131006144e-04
2.708850174898e-04
2.448672349258e-04
1.998980645288e-04
2.191272268305e-04
2.639108306055e-04
2.381925193768e-04
1.928266391849e-04
2.123220651939e-04
7.337275495344e-04
1.682265145296e-04
5.462050413710e-04
7.318865140830e-04
7.261568958084e-04
7.225832230558e-04
7.021288971226e-04
6.565124913041e-04
6.819655065462e-04
7.275032532751e-04
7.072262295563e-04
6.616628008332e-04
6.865235503483e-04
6.407465733666e-04
6.657182290584e-04
7.113460086993e-04
6.908411643582e-04
6.453255735266e-04
6.702622678794e-04
6.246789880058e-04
6.489319520512e-04
6.952190037192e-04
1.840273521277e-04
6.759567359458e-04
7.214607443990e-04
3.679720332759e-04
4.092817550487e-04
4.360686121868e-04
4.564588720529e-04
6.740705970757e-04
7.205777350965e-04
2.252804046805e-04
2.496360743898e-04
7.429139095365e-04
6.823424879043e-04
6.366049028177e-04
4.378451378818e-04
4.188880438556e-04
3.943752891281e-04
3.748640538969e-04
4.003452629813e-04
3.498940421147e-04
6.207438251872e-04
7.364909888472e-04
2.405871186206e-04
1.954370079604e-04
7.282805554458e-04
6.308606560243e-04
6.167686675707e-04
6.359024740525e-04
6.606418547102e-04
6.798245018957e-04
7.048195630289e-04
7.239151784800e-04
6.995250348687e-04
7.376440826471e-04
7.439657402355e-04
6.261993285558e-04
6.226819723499e-04
2.832721408126e-04
1.644730842850e-04
1.669301588230e-04
2.020973455329e-04
2.478170423544e-04
7.577119654081e-04
7.492733009352e-04
7.294398050137e-04
3.569060949548e-04
3.819409900850e-04
7.577870500628e-04
6.069742862614e-04
6.160208837845e-04
5.947078797033e-04
1.502552835389e-04
1.472236624068e-04
7.528104372185e-04
2.930236053531e-04
2.739490413792e-04
1.500905215988e-04
1.240537225359e-04
6.973593058681e-04
7.439041173789e-04
4.813505419260e-04
5.017144862583e-04
7.379119109569e-04
1.870277448814e-04
7.663141417339e-04
6.508032487137e-04
6.054849935165e-04
4.293291398523e-04
2.069471688254e-04
1.825426121622e-04
3.087667916428e-04
2.317056376954e-04
2.217281548421e-04
7.833146767017e-04
7.725249111761e-04
7.195048383756e-04
6.747855449436e-04
7.634484368176e-04
1.418552388889e-04
7.784896772249e-04
7.030108063973e-04
7.725824598691e-04
7.540604595900e-04
3.171474948001e-04
2.987852970653e-04
2.558668176592e-04
2.815832131691e-04
5.513698858348e-04
3.420076733765e-04
5.219255427951e-04
5.030668813377e-04
4.792452590639e-04
4.247335201093e-04
4.063236056300e-04
3.563244576484e-04
5.530404887445e-04
4.617109805981e-04
5.777394579271e-04
5.501611182387e-04
7.566237315057e-04
7.823745579098e-04
5.997434588476e-04
5.780237946273e-04
1.697495562144e-04
1.508805515530e-04
5.186529117619e-04
7.516991623626e-04
7.672690893153e-04
7.876001356161e-04
7.626509320592e-04
7.627778325953e-04
3.699499845101e-04
5.666666454918e-04
1.438245311811e-04
5.868006376026e-04
1.247175489974e-04
6.713548583210e-04
7.483917891977e-04
7.736774679398e-04
7.821572245300e-04
4.899015071153e-04
6.061770746778e-04
5.817931729752e-04
4.605724853742e-04
4.370223372958e-04
4.552736079605e-04
4.133656439147e-04
3.276923247088e-04
3.020339028758e-04
7.979659689173e-04
7.883460447529e-04
7.982408092041e-04
7.795524967648e-04
8.013069214063e-04
7.771428291273e-04
2.665794004091e-04
3.640873967819e-04
7.971681631113e-04
4.838853975756e-04
7.968536680470e-04
7.720983615569e-04
9.810668217613e-05
1.158569237012e-04
7.915840785144e-04
2.380574401882e-04
2.618006099049e-04
2.132008951494e-04
8.415052523991e-04
4.886663809025e-04
7.934056144555e-04
4.492884086887e-04
8.130387548701e-04
6.261760504981e-04
4.125814814439e-04
7.178732318399e-04
7.666642762268e-04
8.185709815987e-04
5.696834584242e-04
5.469719599133e-04
5.897324846543e-04
1.746640571462e-04
1.267235960322e-04
7.616042996352e-04
3.196076646027e-04
3.449992437643e-04
2.048866664362e-04
2.493062780569e-04
5.070116633323e-04
4.873520815403e-04
6.908734956118e-04
7.154878992919e-04
6.414340301825e-04
6.254037858679e-04
5.801902790572e-04
5.606256376154e-04
8.012681753723e-04
8.329963825512e-04
3.530470634913e-04
3.340524441574e-04
3.460614324759e-04
8.175524335045e-04
8.195011765415e-04
7.988609115481e-04
1.072300634752e-04
1.330632502214e-04
1.652810804939e-04
1.397493906304e-04
8.060647275400e-04
7.832275887001e-04
8.359053686964e-04
2.373558503067e-04
6.948259004067e-04
8.063839968108e-04
7.881231808626e-04
8.339301416529e-04
7.615215817857e-04
8.048887775842e-04
8.067360300635e-04
8.088210451328e-05
8.001969768968e-04
5.513628864854e-04
5.991210265794e-05
5.303750343771e-04
5.575493484435e-04
5.056018791105e-04
1.923253731113e-04
5.350945061517e-04
5.648908884563e-04
7.689491788832e-05
8.408831798945e-04
8.340401133038e-05
9.990498025281e-05
8.174634215095e-04
7.911886027123e-04
8.358366351121e-04
8.088717682168e-04
7.649515697637e-04
7.857574983214e-04
5.264350640623e-04
8.358546589260e-04
8.061222461893e-04
8.605711697752e-04
3.958089654574e-04
3.059852068258e-04
2.858172523062e-04
2.426109781750e-04
8.296191495191e-04
8.022538523192e-04
7.244602053986e-04
6.782170569491e-04
5.336023792134e-04
5.298854478294e-04
5.720377334188e-04
5.651841783924e-04
6.088002111604e-04
6.018654128492e-04
6.443068834977e-04
8.334708182106e-04
1.951336418689e-04
4.420082584187e-04
8.207982746555e-04
7.940700745776e-04
3.881584802576e-04
3.471998577605e-04
8.305993334525e-04
3.609425281377e-04
8.689143425974e-04
2.787060135920e-05
7.286647819476e-05
3.859558184678e-04
4.309545412117e-04
3.298825060451e-04
3.137520652760e-04
6.714664482733e-04
1.125731627303e-04
1.894537224626e-04
6.501544121412e-04
1.477430287242e-04
7.019854955118e-04
3.810844111669e-04
4.677711350311e-04
2.313148587081e-04
3.252238421852e-04
5.703579268460e-04
5.324043867603e-04
5.086674172278e-04
4.006419728863e-04
3.391204703335e-04
2.923835719857e-04
5.408511218791e-04
7.379651171000e-04
7.579706773122e-04
8.011548755258e-04
7.780826984350e-04
7.332840892905e-04
7.526479975870e-04
7.971803115054e-04
7.735197813416e-04
8.262472905690e-04
7.929598925790e-04
7.470527542952e-04
7.659248830045e-04
8.091032939205e-04
7.211619544472e-04
8.442167902149e-04
4.306865788467e-04
1.044765289972e-04
9.827683643382e-05
4.923540219683e-04
8.714790847238e-04
8.731736799155e-04
3.123792524490e-04
8.729287150019e-04
5.272649318487e-04
2.191398239417e-04
8.732031985156e-04
7.130087249815e-04
6.877858420163e-04
6.679067510146e-04
8.747254954737e-04
6.109742344751e-04
8.755701857100e-04
5.978551322893e-04
5.777687862342e-04
5.331862976259e-04
7.271016044260e-04
8.726832412974e-04
8.363453721647e-04
8.357287884966e-04
7.967949130083e-04
8.729311769591e-04
8.746048210339e-04
8.757603934564e-04
2.896480078818e-04
3.151536061376e-04
3.591713235696e-04
3.399576539233e-04
2.956226792121e-04
3.205301867894e-04
3.646701735677e-04
3.009725532030e-04
7.593675824400e-04
8.745186206880e-04
5.955179239956e-04
5.752952465899e-04
5.302262826699e-04
4.419860638094e-04
4.675978432361e-04
5.129738354448e-04
4.164548397465e-04
6.551879346242e-04
8.741019856414e-04
5.859901048920e-04
4.476603996913e-04
4.915230817815e-04
5.309240068605e-04
5.323700613709e-04
5.736894063965e-04
5.351590388547e-04
5.269854541203e-04
5.469085242661e-04
5.219164243980e-04
5.664660482549e-04
5.401131126200e-04
4.979524260253e-04
5.848853311671e-04
5.569185072007e-04
4.906420102381e-04
3.170448400109e-05
6.995385727615e-05
6.849074955060e-05
1.073511835087e-04
1.105991917856e-04
1.504731351132e-04
1.458387750102e-04
7.076324639262e-05
3.090762372850e-05
6.811155019588e-05
3.024275800373e-05
6.701952661023e-05
1.132561805515e-04
1.774278331148e-04
8.683268420300e-04
4.289563965157e-04
4.087467011713e-04
3.620022030675e-04
3.871398276738e-04
4.468882401977e-04
3.382483447187e-04
3.227666928477e-04
3.186373403238e-05
6.968070788243e-05
6.930431433067e-05
1.103830641038e-04
1.084283513711e-04
6.955844240917e-05
6.957251263225e-05
3.087829288754e-05
6.916668823128e-05
1.092093195758e-04
2.860096868461e-05
7.056820037004e-04
7.299566898429e-04
8.725577123160e-04
4.959692094609e-04
3.091218048916e-05
8.671852048698e-04
8.733432179252e-04
8.734531321064e-04
7.957971286484e-04
8.182028176353e-04
8.680808008300e-04
2.856246407715e-04
8.221505899075e-04
7.867365561803e-04
2.006879828875e-04
2.760157267466e-04
6.570374827172e-04
6.034788526751e-04
7.534404223277e-04
6.171445062617e-04
7.141191166494e-04
8.333331487220e-04
1.769391207037e-04
6.197356729893e-04
6.031369019689e-04
7.159815276405e-04
2.996957630434e-04
4.779314782195e-04
1.896480084331e-04
8.372249201877e-04
4.978685116583e-04
5.049912460344e-04
3.962534712183e-04
3.116673154321e-04
2.575495564398e-04
4.563132910929e-04
4.733113038568e-04
6.807420950213e-04
7.412727405057e-04
3.900894407946e-05
7.062809791721e-04
5.640134143322e-04
6.366157628327e-04
7.072992914154e-04
1.751116105001e-04
7.321461800821e-04
8.104970881191e-04
5.847505123753e-04
1.450668962481e-04
5.736378135269e-04
8.027337595558e-04
7.180376744355e-04
2.736317130801e-04
5.220914710743e-04
4.865818052908e-04
4.471177866967e-04
8.063363278817e-04
5.378993798996e-04
7.470022916029e-04
6.114026488664e-04
2.939212611736e-04
7.463767332909e-04
5.084976424556e-04
7.777626792266e-04
6.854084072495e-04
4.140791467985e-04
7.471678807682e-04
5.103813785756e-04
7.329713830172e-04
4.737289604077e-04
5.977356866437e-04
6.519892618683e-04
5.678021419543e-04
6.319192717496e-04
7.264774776897e-04
1.875624189713e-04
3.688310981205e-04
6.314501505079e-04
7.672682440834e-04
8.229065015772e-04
4.434680652511e-04
7.201561125460e-04
7.914028017314e-04
4.930979507901e-04
2.040260336769e-04
1.581177402907e-04
3.258736548738e-04
5.134927945261e-04
5.384299011222e-04
8.328361271424e-04
7.396786737532e-04
6.920128991829e-04
8.196000574170e-05
4.652440764187e-04
7.595631118992e-04
5.413940581115e-04
7.514691837904e-04
5.124079232766e-04
8.363223980306e-04
3.713304271161e-04
7.809543171496e-04
6.971423152539e-04
3.367042725643e-04
4.902204304360e-04
8.332513049421e-04
7.429330284217e-04
6.113513461743e-04
5.161141755974e-04
4.006034501526e-04
5.581912762765e-04
6.223072189553e-04
8.752979443996e-04
7.659203639430e-04
6.426709006855e-04
5.325586862055e-04
6.468672484863e-04
1.073528278852e-04
4.189303666797e-04
5.523127417924e-04
3.452338039030e-04
5.354806018552e-04
8.261173123730e-04
5.721454322879e-04
3.892915712256e-04
5.917818965199e-04
3.539736687271e-04
6.627781278346e-04
6.108539446376e-04
6.660506999495e-04
1.163652973912e-04
6.305577701447e-04
7.706780509161e-04
3.642601618824e-04
5.551389630622e-04
7.078379568633e-04
3.068275794996e-04
6.002627334512e-04
7.101300016245e-04
6.503083964526e-04
5.576201452771e-04
6.459702225838e-04
3.237473504565e-04
2.667167922262e-04
2.221184360012e-04
4.085364404529e-04
7.352038309621e-04
1.486189434306e-04
7.017840156360e-04
1.592352416656e-04
3.838129177836e-04
7.166805507109e-04
6.173636955304e-04
4.028477991315e-04
2.492989866975e-04
3.779520455053e-04
6.018674573376e-04
3.968794592392e-04
3.716672737304e-04
8.329159667528e-04
3.902334651909e-04
8.748882416506e-04
8.711247298713e-04
5.265534076551e-04
2.606176973493e-04
3.608218628589e-05
2.743663405466e-04
3.201182020186e-04
6.958586502563e-04
5.269760115519e-04
2.937831755636e-04
8.369611183303e-04
8.745831491043e-04
6.824073644152e-04
7.692285890476e-04
6.715862034514e-04
7.913186766418e-04
4.873605112046e-04
6.716351408429e-05
6.550406917342e-04
2.121979415798e-04
2.182245527634e-04
1.712289286332e-04
3.107224161433e-04
1.057301483358e-04
1.752557479945e-04
8.331013379116e-04
5.272790897640e-04
7.395202468706e-04
1.285853407158e-04
8.358234000511e-04
8.354665319098e-04
8.757509275415e-04
7.846429612781e-04
1.241570316100e-04
5.651773772313e-04
8.374854402619e-04
7.189201776621e-04
8.774612593526e-04
5.201256590730e-04
8.377629979176e-04
1.628222754370e-04
8.372912793325e-04
7.405810874684e-04
5.837048570091e-04
5.629391932633e-04
8.390585364860e-04
8.374355334258e-04
9.795501197394e-05
6.799231894058e-04
3.879757720191e-04
6.464184088928e-05
8.366012277656e-04
7.827055704325e-04
8.377349647591e-04
1.105757531249e-04
6.604595936869e-05
8.445536335797e-04
8.418018754541e-04
1.845877810614e-04
8.826549608499e-04
6.138757031092e-05
4.804799717199e-04
6.556100966196e-05
8.765991424528e-04
8.406352288089e-04
4.268003565693e-04
4.929667183317e-04
2.809817149082e-04
8.054666026434e-04
9.866382460825e-05
8.462920394623e-04
8.466481683937e-04
8.459200057126e-04
8.848347209820e-04
6.317410965350e-05
8.478579638221e-04
8.049072796093e-04
4.880930937126e-04
8.381519655459e-04
3.464907722736e-04
1.453132550396e-04
8.782340449193e-04
2.788672853684e-05
4.852288266984e-04
8.800271141742e-04
1.366420641944e-04
5.591160485789e-04
8.434724703118e-04
5.260519714094e-04
7.639465125204e-04
1.346350386641e-04
2.489926233996e-05
6.405845470091e-04
8.434966522637e-04
8.489495605041e-04
6.092101199237e-04
1.233072216685e-04
8.180905916336e-04
4.606593074043e-04
8.111203909914e-04
8.066949311417e-04
3.153365254742e-05
5.661385301693e-04
6.389298898293e-05
8.469003976225e-04
4.815533645814e-04
5.713322507924e-05
6.874259108237e-05
1.021879639731e-04
1.173513282371e-04
1.474995886566e-04
1.546977997438e-04
1.930912926159e-04
2.061381711949e-04
2.390794373089e-04
2.445931968886e-04
2.856605147877e-04
2.967755800048e-04
3.322884574065e-04
3.356786539240e-04
3.782594336362e-04
3.879906112582e-04
4.250700443092e-04
4.273709822799e-04

SCALARS node_materi_plasti_phimob float
LOOKUP_TABLE default
-5.949750535096e+01
1.669950061758e+01
2.051436241695e+01
2.032352459178e+01
-3.175450088894e+01
-6.938799776967e+00
3.032930013397e+00
8.798093214113e+00
1.213732101336e+01
1.418929675853e+01
1.567085913321e+01
1.679029558383e+01
1.762710654979e+01
1.831718189413e+01
1.889793261233e+01
1.925469238655e+01
1.949912992626e+01
1.978506817989e+01
2.000189772120e+01
2.016825897828e+01
2.030946170583e+01
2.042370675911e+01
2.049270287117e+01
2.033183664030e+01
2.032876392513e+01
2.033054561742e+01
2.033241412523e+01
2.032623100929e+01
2.032976273991e+01
2.032591253757e+01
2.033095357860e+01
2.033496287443e+01
2.033744110278e+01
2.033188936725e+01
2.033827538066e+01
2.033660110495e+01
2.034233031713e+01
2.033652757820e+01
2.033915120967e+01
2.034068094150e+01
2.034266653560e+01
2.035473932757e+01
2.036389992089e+01
2.036929451647e+01
2.037068341324e+01
2.037965740629e+01
2.038652933022e+01
2.039621753388e+01
2.040283175148e+01
2.042280783599e+01
2.042121521364e+01
2.044186580911e+01
2.044737217731e+01
2.046988822804e+01
2.046442653733e+01
2.046986936399e+01
2.048149528440e+01
2.048524670494e+01
2.050463913178e+01
2.049462047383e+01
2.051236423215e+01
2.049980327299e+01
2.051884420838e+01
2.052136498359e+01
2.051164926965e+01
2.050552939845e+01
2.052513725198e+01
2.050635689416e+01
2.052594882785e+01
2.052256399439e+01
2.052179974652e+01
2.052728381992e+01
1.738372617125e+01
1.797270516812e+01
1.844602997460e+01
1.884152907418e+01
1.919205803688e+01
1.948652819257e+01
1.975465452354e+01
1.998887679608e+01
2.020114929757e+01
-5.926310635357e+01
1.659520460884e+01
-1.030129317678e+01
-3.274904244425e+01
-8.061896703228e+00
2.110036184070e+00
7.503229557972e+00
1.075304329264e+01
1.292052900611e+01
1.446898389149e+01
1.563170064202e+01
1.874774564441e+01
-3.332073208797e+01
-8.140840416710e+00
2.387523575521e+00
7.738155295543e+00
1.097861149377e+01
1.310922241855e+01
1.463647752227e+01
1.575821222050e+01
1.657014693003e+01
1.660637050029e+01
1.661302550335e+01
1.659933646294e+01
1.668801710651e+01
1.659947976141e+01
1.657711317139e+01
1.658192275317e+01
1.660015825040e+01
1.659204832765e+01
1.657315302161e+01
1.656471064574e+01
1.655285657074e+01
1.655897770633e+01
-6.218976443589e+01
-6.151145201070e+01
-6.254294094192e+01
-6.297365586926e+01
-6.088708624740e+01
-5.974147714100e+01
-5.997588804821e+01
-6.030686507024e+01
-6.034356892004e+01
-6.030275614575e+01
-5.989631918706e+01
-5.809161625613e+01
-5.905278689745e+01
-6.145127861395e+01
-6.095392649272e+01
-6.005915704377e+01
-5.993808627786e+01
-6.125698346029e+01
-6.321836368648e+01
-9.644039470720e+00
-5.720155225166e+01
-5.530885441540e+01
-5.515713811592e+01
-5.508034277563e+01
-5.503931014711e+01
-5.501878323764e+01
-5.500822051684e+01
-5.500204203581e+01
-5.499754965777e+01
-5.499343218669e+01
-5.498883499292e+01
-5.498081253285e+01
-5.495635694552e+01
-5.491604239683e+01
-5.486874590056e+01
-5.480707352220e+01
-5.473915848814e+01
-5.467222963848e+01
-5.459359014511e+01
-5.453590791014e+01
-5.444218434492e+01
-5.446172071460e+01
-5.430960282802e+01
-5.444760898300e+01
-5.396620672780e+01
-1.699176740028e+01
8.872024859962e+01
-3.799491059527e+01
-3.267541889377e+01
-3.478415227757e+01
-3.493159210877e+01
-3.487708173897e+01
-3.497602509655e+01
-3.503822251755e+01
-3.513570578798e+01
-3.522290654013e+01
-3.531582939468e+01
-3.540386493855e+01
-3.547567601349e+01
-3.552162269115e+01
-3.555587295904e+01
-3.558070627212e+01
-3.560141392987e+01
-3.561969350879e+01
-3.563632189264e+01
-3.565205040457e+01
-3.566793738915e+01
-3.568577239573e+01
-3.570852053983e+01
-3.573978880955e+01
-3.577691598548e+01
-3.580773418121e+01
-3.537802069812e+01
-9.914085819842e+00
-7.750545479846e+00
-8.427130952324e+00
-8.500757100778e+00
-8.488509158861e+00
-8.542664232446e+00
-8.571547945802e+00
-8.616729639595e+00
-8.657362249577e+00
-8.700340572227e+00
-8.732287800209e+00
-8.755465729615e+00
-8.775860526648e+00
-8.793648934109e+00
-8.809307917138e+00
-8.823624983359e+00
-8.837121410683e+00
-8.850428714858e+00
-8.864508262776e+00
-8.880759920894e+00
-8.900597472653e+00
-8.922729830853e+00
-8.924391058120e+00
-8.696335530869e+00
-8.010775522546e+00
2.114601839540e+00
2.079018208968e+00
2.081311452711e+00
2.088023275674e+00
2.098332814696e+00
2.108572863990e+00
2.117427776207e+00
2.124920773216e+00
2.131622488241e+00
2.137943379524e+00
2.144143881614e+00
2.150300796316e+00
2.157314664030e+00
2.165664298798e+00
2.175516678996e+00
2.184071966172e+00
2.193285416354e+00
2.196538052650e+00
2.204680498756e+00
2.192728207474e+00
2.208903082892e+00
2.545218957638e+00
1.391386616790e+00
7.072297315538e+00
7.776304962566e+00
7.609294417540e+00
7.606887604214e+00
7.620389360256e+00
7.619743529859e+00
7.622173472030e+00
7.620246202684e+00
7.620234691513e+00
7.621570273035e+00
7.623440806934e+00
7.623904451155e+00
7.623573714723e+00
7.622756426010e+00
7.621134671928e+00
7.618174864147e+00
7.613849603162e+00
7.609490098884e+00
7.607325255390e+00
7.612289240637e+00
7.654464577558e+00
7.766547483313e+00
1.091360164412e+01
1.090355924916e+01
1.089975515559e+01
1.089810786096e+01
1.089831622079e+01
1.089931039831e+01
1.089972181330e+01
1.089811630949e+01
1.089534647930e+01
1.089279226582e+01
1.088968509542e+01
1.088459823250e+01
1.087673649922e+01
1.087129442288e+01
1.086806842043e+01
1.086818546540e+01
1.085763112456e+01
1.084815329044e+01
1.095593326021e+01
1.046645394566e+01
1.270487962323e+01
1.306753710044e+01
1.300702144671e+01
1.300891283407e+01
1.301195454768e+01
1.301738977615e+01
1.302968918646e+01
1.303791967955e+01
1.304356803713e+01
1.304672728750e+01
1.305156164848e+01
1.305752047870e+01
1.305934623187e+01
1.306027566192e+01
1.306178595141e+01
1.306414724654e+01
1.306834527686e+01
1.308495919765e+01
1.312041235338e+01
1.461872116663e+01
1.460726790198e+01
1.460259141246e+01
1.460129955278e+01
1.459634017273e+01
1.459480664090e+01
1.459278936557e+01
1.458838181739e+01
1.457870180387e+01
1.457704221056e+01
1.457295290488e+01
1.456377186329e+01
1.455622675352e+01
1.454022366297e+01
1.453743347149e+01
1.459251218410e+01
1.431526766105e+01
1.550896852275e+01
1.572998324395e+01
1.569632075489e+01
1.569715887631e+01
1.570812936668e+01
1.571765231509e+01
1.571946457028e+01
1.572530171148e+01
1.572911019978e+01
1.573485233535e+01
1.573751881005e+01
1.574058223979e+01
1.574851940884e+01
1.574696039047e+01
1.576365463477e+01
1.579321835587e+01
-4.964866739705e+01
5.373880822454e+00
-1.500448051369e+01
-9.035763919040e-01
5.723661308528e+00
9.608799134689e+00
1.212795334675e+01
1.388162108945e+01
1.517809933515e+01
1.618247122797e+01
-1.559011703380e+01
2.043487310443e+01
-4.064529878201e+01
-4.213979432681e+01
2.049505696565e+01
5.206768102640e+00
1.863589104438e+01
2.036260017742e+01
1.172324648890e+01
2.030999606412e+01
1.501519862466e+01
2.049070301865e+01
-4.155267276381e+01
2.027708263175e+01
1.689376340522e+01
1.504989480374e+01
1.962826409665e+01
2.024728807924e+01
2.025005216629e+01
2.024804015083e+01
2.022651578679e+01
2.025380457706e+01
1.721521627894e+01
1.724985598673e+01
1.730578906047e+01
1.902212196320e+01
2.050298900649e+01
-4.246447630531e+01
-3.976018358167e+01
2.023789010068e+01
1.725724351750e+01
6.305269946198e+00
2.021890360854e+01
2.034658669980e+01
2.029330391608e+01
2.040028865849e+01
2.047769495540e+01
-4.001769142860e+01
1.721098201274e+01
2.049785547590e+01
1.962616814618e+01
-3.994046415701e+01
1.725264614527e+01
2.027808451508e+01
9.373976484573e+00
-1.942817549465e+00
1.363270739378e+01
1.605174204106e+01
-3.219344964656e+01
1.824856553705e+01
2.052551998972e+01
-4.147445114558e+01
2.008444431851e+01
1.721198204936e+01
1.746904402064e+01
1.774198684724e+01
1.800177103514e+01
1.825564146388e+01
1.844927315418e+01
1.820853092929e+01
1.862724007382e+01
1.840278983662e+01
1.866760433125e+01
1.879731940875e+01
1.858669414285e+01
1.895857134349e+01
1.876276632484e+01
1.836187884459e+01
1.855442065899e+01
1.811820947153e+01
1.833043120692e+01
1.873840724956e+01
1.853236711703e+01
1.808942562650e+01
1.831205969236e+01
1.782985245337e+01
1.807712635775e+01
1.754875125062e+01
1.782598572574e+01
1.831222161086e+01
1.808778521480e+01
1.755722759711e+01
1.784974629113e+01
1.726978137018e+01
1.759578498050e+01
1.812258039646e+01
1.789877058740e+01
1.732345623681e+01
1.766272961452e+01
1.703329915203e+01
1.745867891477e+01
1.677455585079e+01
1.730712172724e+01
1.789390274218e+01
1.777515593206e+01
1.715905239930e+01
1.764159298298e+01
1.817244936880e+01
1.804520041522e+01
1.850966494389e+01
1.838485206179e+01
1.788668589606e+01
1.822546907372e+01
1.867108342849e+01
1.851078699178e+01
1.801648248419e+01
1.830398650826e+01
1.875556826969e+01
1.855173206408e+01
1.803756604785e+01
1.829696896351e+01
1.877054458084e+01
1.852587435334e+01
1.797742061521e+01
1.822582473979e+01
1.873197130520e+01
1.844969954178e+01
1.891667409172e+01
1.785725939960e+01
1.811177531682e+01
1.741195644487e+01
1.771034014057e+01
1.837674159354e+01
1.688154491266e+01
1.650009001777e+01
1.723909814166e+01
1.798745846325e+01
1.625710984149e+01
1.668721916109e+01
1.552383656350e+01
1.623527228197e+01
1.891442771987e+01
1.604515588524e+01
1.465611011487e+01
1.391566050924e+01
1.267756700324e+01
1.848810054829e+01
1.888051388210e+01
1.870486462164e+01
1.907749972476e+01
1.892206479145e+01
1.359605650038e+01
1.914446173557e+01
1.922167699284e+01
1.757050095791e+01
1.691807386993e+01
1.861271457437e+01
1.707037630333e+01
1.650660519930e+01
1.743032384413e+01
1.913589817887e+01
1.928928258018e+01
1.946095828285e+01
1.958873798229e+01
1.972439266047e+01
1.983111175689e+01
1.970258916406e+01
1.992583825902e+01
1.980445816131e+01
1.993875019001e+01
1.983822448320e+01
2.000899577623e+01
1.989539445014e+01
2.008117191732e+01
1.997610988243e+01
1.976455649134e+01
1.985589792115e+01
1.961692380067e+01
1.889757433041e+01
1.898455495175e+01
1.922565922164e+01
1.930175690075e+01
1.950568083100e+01
1.957504637813e+01
1.974673396918e+01
1.968092277967e+01
1.911298586055e+01
1.699114146083e+01
1.639469684614e+01
1.617760817392e+01
1.542599446938e+01
1.512978024129e+01
1.415833990979e+01
1.372112975874e+01
1.470050202254e+01
1.303924568298e+01
1.403662640453e+01
1.194579171791e+01
1.302921015762e+01
1.853505171475e+01
1.937410014098e+01
1.964078410237e+01
1.944240069329e+01
1.159450570049e+01
2.004758393526e+01
2.002959863270e+01
1.993288600589e+01
1.989471382190e+01
1.116931205208e+01
1.242279613088e+01
1.289404373971e+01
1.925948496818e+01
1.911506691902e+01
2.010554744605e+01
1.231655072070e+01
2.010744571681e+01
1.053339618495e+01
1.993682770930e+01
2.011368691247e+01
1.955132511095e+01
1.970404979825e+01
1.951235578743e+01
1.483646678520e+01
1.394877149717e+01
1.166433609510e+01
1.277124526967e+01
1.471764545856e+01
1.361005473228e+01
1.103056198356e+01
1.218855652327e+01
1.437676767727e+01
1.316549808119e+01
1.028356325701e+01
1.161553596692e+01
2.020355870505e+01
8.529562756929e+00
1.789675186769e+01
2.018517554629e+01
1.995328411908e+01
1.942879994106e+01
1.929590193902e+01
1.896195562891e+01
1.915717554336e+01
1.946645224255e+01
1.933697492413e+01
1.900952812920e+01
1.919774233046e+01
1.884821774255e+01
1.904937324876e+01
1.937191210657e+01
1.923563640441e+01
1.889404929538e+01
1.909074318424e+01
1.872668052677e+01
1.893160024120e+01
1.927168137914e+01
9.308198232529e+00
1.983310739941e+01
2.002662604603e+01
1.697802147848e+01
1.774361889764e+01
1.813773490111e+01
1.837143984314e+01
1.912259286243e+01
1.944335309632e+01
1.065605949443e+01
1.133559425266e+01
1.955526643848e+01
2.001527288488e+01
1.981438573684e+01
1.656314234379e+01
1.613093814727e+01
1.567618025828e+01
1.511571684561e+01
1.566686764141e+01
1.449918635633e+01
1.972091839248e+01
1.953504988167e+01
1.306216661836e+01
1.027329107957e+01
2.018390785778e+01
1.961051888692e+01
1.872622607688e+01
1.891844679386e+01
1.908482411467e+01
1.925156435887e+01
1.939877002135e+01
1.954419329000e+01
1.941078955290e+01
1.976645537168e+01
1.968407025206e+01
1.874975739089e+01
1.914016104638e+01
1.504859138203e+01
7.499558504993e+00
7.782310696245e+00
1.068662249505e+01
1.328345403570e+01
2.024605616206e+01
1.967596406856e+01
1.953904667030e+01
1.454127682227e+01
1.517741690482e+01
1.992019035291e+01
1.852648524161e+01
1.863125029272e+01
1.844223183781e+01
6.051014799456e+00
5.715499830071e+00
1.962431959069e+01
1.334835071458e+01
1.215383359333e+01
6.307163086877e+00
2.327356251143e+00
1.929287221682e+01
1.958756589400e+01
1.866496061060e+01
1.886972981764e+01
2.016863817241e+01
9.652034983142e+00
1.971540346467e+01
1.976616156250e+01
1.952836608247e+01
1.798617514749e+01
8.395322913581e+00
7.305200236237e+00
1.587607977084e+01
1.271551424051e+01
1.192409693233e+01
2.029949920693e+01
1.973630317501e+01
1.956159512393e+01
1.927302032955e+01
1.981138237053e+01
4.554994330519e+00
2.031930374911e+01
2.009896938477e+01
1.979646813944e+01
1.967387839883e+01
1.391724931406e+01
1.301120508918e+01
1.087256008212e+01
1.198567529253e+01
1.794966500657e+01
1.454211745455e+01
1.760934930478e+01
1.735021048896e+01
1.701025559403e+01
1.614071026497e+01
1.572107328913e+01
1.566142014770e+01
1.870391254491e+01
1.846980961804e+01
1.950120821175e+01
1.931646880635e+01
1.965412933987e+01
1.980061089808e+01
1.849747568332e+01
1.829028182835e+01
7.966952422312e+00
5.820367748422e+00
1.908489985113e+01
2.025831195351e+01
1.970389632170e+01
1.981687752523e+01
1.967332411676e+01
2.021866095011e+01
1.677997528468e+01
1.914070619839e+01
5.482076284001e+00
1.856520698397e+01
1.868593879389e+00
1.909241505076e+01
2.024065256684e+01
2.031077969434e+01
1.998595684960e+01
1.715755123001e+01
1.878168576725e+01
1.861605274022e+01
1.670435212468e+01
1.629526947807e+01
1.663314984194e+01
1.583153964665e+01
1.634528011520e+01
1.561467020250e+01
1.993838904184e+01
1.992071326689e+01
1.991705835069e+01
1.980090109237e+01
2.009389185934e+01
2.004894090552e+01
1.410514646297e+01
1.466856550416e+01
1.987155578001e+01
1.707172835645e+01
2.037468627554e+01
2.031744617575e+01
-3.728267131699e+00
3.895991638012e-01
1.985074658734e+01
9.376778954865e+00
1.075574025236e+01
7.688325963655e+00
2.045277833063e+01
1.723857748407e+01
2.034417556040e+01
1.656894487888e+01
1.995953582222e+01
1.898920236179e+01
1.616006393697e+01
2.007990223792e+01
1.971558543692e+01
1.998882990568e+01
1.818335898816e+01
1.795166433515e+01
1.838145946154e+01
8.562393215310e+00
2.240372238565e+00
1.968730717965e+01
1.587296291269e+01
1.651733837126e+01
1.101258341283e+01
1.356281175129e+01
1.893778340605e+01
1.876347227706e+01
1.924807575964e+01
1.940484802072e+01
1.890869193005e+01
1.968305813926e+01
1.942766005459e+01
1.924731830518e+01
1.990360133378e+01
2.005570721765e+01
1.692959582815e+01
1.652756571866e+01
1.674362399604e+01
1.997442951982e+01
2.041178152141e+01
2.038535236569e+01
-2.091347926452e+00
2.932962949874e+00
3.716120238727e+00
1.857125806453e+00
1.991942406733e+01
1.978934300599e+01
2.006280309628e+01
1.276811929153e+01
1.943691958439e+01
2.033516907996e+01
2.027358073522e+01
2.041153005121e+01
1.984701936453e+01
2.007406648043e+01
2.003499844350e+01
-1.021708904421e+01
1.990549826923e+01
1.800055146261e+01
-1.907341163698e+01
1.775886443291e+01
1.807228797447e+01
1.746462057002e+01
9.962337646064e+00
1.780805732259e+01
1.811804986378e+01
-1.134794689600e+01
2.009592774189e+01
-9.135346395720e+00
-3.386161683301e+00
2.039916075526e+01
2.035940297139e+01
2.045148750897e+01
2.040686383648e+01
2.029936772563e+01
2.034706426947e+01
1.769382315838e+01
2.043995457301e+01
2.038444909733e+01
2.049724428233e+01
1.543694864267e+01
1.292081741273e+01
1.196326155051e+01
9.336702585020e+00
2.006642057584e+01
1.991893563463e+01
2.016838108430e+01
2.000186982708e+01
1.780663486189e+01
1.778054923069e+01
1.824573326577e+01
1.818942052544e+01
1.859836787354e+01
1.853437266226e+01
1.890085160664e+01
2.014004261200e+01
5.282508134150e+00
1.638161351164e+01
2.021543537123e+01
2.017266511248e+01
1.527938050401e+01
1.415412230064e+01
2.043746046110e+01
1.521897829354e+01
2.022022073091e+01
-4.325177674566e+01
-1.343351420856e+01
1.569439567982e+01
1.620627245189e+01
1.375330973082e+01
1.308910568079e+01
1.989941034391e+01
-5.747689384612e-01
5.752895189000e+00
1.893641293163e+01
-1.067673434352e+00
2.008549842356e+01
1.590767421712e+01
1.691447249646e+01
9.637667005866e+00
1.381515696695e+01
1.816067495771e+01
1.772735456933e+01
1.741853808599e+01
1.657997665134e+01
1.394502338848e+01
1.212115091797e+01
1.785503060251e+01
1.952221749217e+01
1.964544341404e+01
1.989078723740e+01
1.976157682302e+01
1.949192830129e+01
1.961439851406e+01
1.987313420027e+01
1.973720573365e+01
2.002358900623e+01
1.985401685597e+01
1.958656527229e+01
1.970825024489e+01
1.994296992404e+01
1.942598703645e+01
2.027345701021e+01
1.660608357018e+01
-2.177931853120e+00
-4.742878218269e+00
1.725874714753e+01
2.024596115220e+01
2.024554400739e+01
1.447831929923e+01
2.027993370718e+01
1.766302975622e+01
1.171894353065e+01
2.030001298129e+01
1.935893305865e+01
1.918245905962e+01
1.903436147186e+01
2.025024560719e+01
1.857914330224e+01
2.036088469117e+01
1.906484239345e+01
1.878943940341e+01
1.837952043951e+01
1.945632549341e+01
2.043145910210e+01
2.034795455665e+01
2.036081687555e+01
2.025843690541e+01
2.045439849580e+01
2.027019321964e+01
2.028268574075e+01
1.533415767849e+01
1.606546296066e+01
1.702619878919e+01
1.659799518840e+01
1.550757290290e+01
1.608462240746e+01
1.698879942721e+01
1.546419279974e+01
1.967921402102e+01
2.048378619057e+01
1.960320662215e+01
1.946383238473e+01
1.915238824793e+01
1.824236909718e+01
1.856668044023e+01
1.901845417098e+01
1.786987180346e+01
1.910044649645e+01
2.048759891777e+01
1.934867337347e+01
1.834829252291e+01
1.721876731042e+01
1.773651229078e+01
1.773866804139e+01
1.821008814751e+01
1.778829196578e+01
1.910631351274e+01
1.926079250885e+01
1.904708275042e+01
1.939443912769e+01
1.918565114378e+01
1.880600505337e+01
1.950308766547e+01
1.930738190141e+01
1.722133226068e+01
-4.000894139827e+01
-1.300595797925e+01
-1.350280407832e+01
-1.036507703946e+00
-2.133194465085e-01
6.370792662881e+00
5.918401181020e+00
-1.312165451489e+01
-4.038017975828e+01
-1.362187574519e+01
-4.064171926747e+01
-1.405410667731e+01
-1.591908366157e-01
8.757162185474e+00
2.050850228523e+01
1.799786959083e+01
1.769634902475e+01
1.684894444635e+01
1.733698160172e+01
1.827935573113e+01
1.630555916538e+01
1.589491790051e+01
-3.979093074059e+01
-1.288148386270e+01
-1.473992067660e+01
-5.446740907003e-01
-7.430238677730e-01
-1.274214144999e+01
-1.278662156856e+01
-4.010484593833e+01
-1.308643734820e+01
-4.294445087221e-01
-4.122951626625e+01
1.934706624654e+01
1.951022803161e+01
2.050285965182e+01
1.730340280075e+01
-4.020752396320e+01
2.021430509258e+01
2.024266645116e+01
2.024451329026e+01
2.036243688862e+01
2.040132898729e+01
2.022293153233e+01
1.492772890474e+01
1.998861095226e+01
1.982913424485e+01
9.899183888458e+00
1.470789084546e+01
1.990672376534e+01
1.966335159182e+01
2.026431587868e+01
1.972241512580e+01
2.014511576775e+01
2.038671812690e+01
8.685806288398e+00
1.867590338787e+01
1.853887629076e+01
1.940789810622e+01
1.530820277379e+01
1.861287538254e+01
9.788433432995e+00
2.012834794771e+01
1.729741600749e+01
1.896404648948e+01
1.756616945767e+01
1.577839637524e+01
1.401465070312e+01
1.695631325793e+01
1.865585342435e+01
2.002840600374e+01
1.956928676148e+01
-3.593059412436e+01
2.011325627755e+01
1.942709083363e+01
1.880469142541e+01
1.981110482725e+01
8.840200471352e+00
1.950191863229e+01
1.994293279671e+01
1.833066197864e+01
4.998552499494e+00
1.824003337571e+01
2.036253864768e+01
1.939453498604e+01
1.438370763713e+01
1.879627747788e+01
1.724530184357e+01
1.647777432425e+01
1.993234958008e+01
1.818003141684e+01
2.008280414611e+01
1.943232908500e+01
1.508074483992e+01
2.025371146004e+01
1.828048210854e+01
1.976933840051e+01
1.924415329289e+01
1.748070845723e+01
1.958714111194e+01
1.896686442897e+01
1.986986958248e+01
1.695405061332e+01
1.852410817801e+01
1.893071486912e+01
1.833430118368e+01
1.978275853163e+01
2.019045717261e+01
1.030333516280e+01
1.514999861769e+01
1.875293805599e+01
1.980076966795e+01
2.000218699910e+01
1.654175227465e+01
2.017210656739e+01
1.984250716828e+01
1.884541718843e+01
1.086633909723e+01
6.069755345667e+00
1.588653998508e+01
1.801467504035e+01
1.923776007929e+01
2.004886055024e+01
2.022653276311e+01
2.001143023214e+01
-2.476986550623e+01
1.678298611130e+01
2.027803296536e+01
1.903964057819e+01
2.001025781920e+01
1.893427482338e+01
2.013569770539e+01
1.484007044784e+01
2.033911612083e+01
1.996913442201e+01
1.480117952464e+01
1.725620091345e+01
2.044715589418e+01
2.014081700876e+01
1.874548920672e+01
1.891372087080e+01
1.555292267100e+01
1.937578892425e+01
1.872457692839e+01
2.025309865979e+01
2.019366084587e+01
1.883354408236e+01
1.917294175031e+01
1.921555206267e+01
-7.809560116806e-01
1.593769103260e+01
1.931735057346e+01
1.649275794385e+01
1.912343714940e+01
2.017384038273e+01
1.945074683992e+01
1.727212467358e+01
1.957092584078e+01
1.436078792050e+01
1.899483770085e+01
1.967160613108e+01
1.908233722164e+01
2.170788875374e-01
1.894357069039e+01
2.029589554484e+01
1.709353836822e+01
1.930503988137e+01
1.932449081348e+01
1.274861155972e+01
1.958414397379e+01
1.939671534460e+01
1.913065821335e+01
1.848039477743e+01
1.981715323787e+01
1.337897934345e+01
1.426843798199e+01
1.210757452274e+01
1.767803273466e+01
1.954292706148e+01
5.743591853707e+00
1.928869111423e+01
6.835727933412e+00
1.739848480238e+01
1.959956910369e+01
1.866967289903e+01
1.774321648595e+01
1.336310286874e+01
1.738717376285e+01
1.887510064410e+01
1.770254088615e+01
1.727647503784e+01
2.005898762994e+01
1.758144181151e+01
2.024721479126e+01
2.050100613567e+01
1.772550406916e+01
1.038863052216e+01
-3.932285327890e+01
1.134864617844e+01
1.608762295088e+01
1.926097580141e+01
1.774376020858e+01
1.527464459166e+01
2.008228955535e+01
2.033338654316e+01
1.919220357874e+01
2.013258345377e+01
1.931606252674e+01
1.986070419931e+01
1.719708753383e+01
-1.395804286300e+01
1.989476068217e+01
6.789979866609e+00
7.509786574460e+00
2.408881235275e+00
1.562066083541e+01
-1.325160837157e+00
2.213664165677e+00
2.031886452895e+01
1.771741291000e+01
1.970263809613e+01
-7.783385020782e+00
2.006689125576e+01
2.018395843499e+01
2.051635041676e+01
1.994237057891e+01
-4.849866307123e+00
1.812688598035e+01
2.012053873311e+01
1.943023653783e+01
2.049775911490e+01
1.763191924887e+01
2.008690263639e+01
8.052885172918e+00
2.008982328268e+01
1.955759742669e+01
1.834984521974e+01
1.809500718759e+01
2.044114761268e+01
2.008088269141e+01
-8.320041916479e+00
1.916700767866e+01
1.737818270374e+01
-1.622432488109e+01
2.045620007707e+01
1.981240759908e+01
2.046433098094e+01
-7.639332707968e-01
-1.538601461135e+01
2.045616186664e+01
2.011935739764e+01
9.887435304456e+00
2.028140032272e+01
-1.975174716236e+01
1.710991110389e+01
-1.475925915942e+01
2.049718556994e+01
2.009668545375e+01
1.798271297488e+01
1.722212628541e+01
1.462089721516e+01
1.999731627593e+01
-3.016429281706e+00
2.012001762977e+01
2.043918464066e+01
2.011358473637e+01
2.043031033068e+01
-1.694206914589e+01
2.021790951308e+01
2.031198384205e+01
1.720215754162e+01
2.008166535284e+01
1.651914182164e+01
5.409369463427e+00
2.026638895876e+01
-4.588559419164e+01
1.717873593184e+01
2.051343151393e+01
4.480007770852e+00
1.810842984536e+01
2.012070211682e+01
1.907116471010e+01
1.971651422262e+01
4.345600474427e+00
-4.472281651320e+01
1.887085651662e+01
2.024770155103e+01
2.012678751860e+01
1.859272196784e+01
9.151232786071e-01
1.999630545189e+01
1.837867514489e+01
1.999213543313e+01
2.026764285562e+01
-4.377791914800e+01
1.938957408152e+01
-1.627162392882e+01
2.047862319282e+01
1.864293871287e+01
2.043591909470e+01
-1.567723818574e+01
-1.825836246727e+01
-1.584735774690e+01
-2.375898298863e+00
-1.750228797426e+00
5.022020858357e+00
5.752285872975e+00
9.173971522814e+00
9.533741528383e+00
1.183485512145e+01
1.224552875462e+01
1.367524003176e+01
1.392054014200e+01
1.502262850896e+01
1.529166282780e+01
1.606020931448e+01
1.623829752756e+01

SCALARS node_materi_stress_average_a_sig float
LOOKUP_TABLE default
-5.324232205975e+00
-1.096329056180e+02
-2.364602929558e+02
-2.252243244348e+02
-1.265767567276e+01
-2.427859497243e+01
-3.533032529918e+01
-4.791914806865e+01
-5.998962109372e+01
-7.201049827767e+01
-8.398934967835e+01
-9.594748420210e+01
-1.079449160013e+02
-1.200332599634e+02
-1.324171063120e+02
-1.446067847941e+02
-1.557527260037e+02
-1.679016909939e+02
-1.804417760234e+02
-1.926384509321e+02
-2.049412243990e+02
-2.173679047522e+02
-2.293151333914e+02
-2.259116324117e+02
-2.252178541873e+02
-2.253898773259e+02
-2.253612276382e+02
-2.249824640078e+02
-2.254060164884e+02
-2.256127012745e+02
-2.253624089987e+02
-2.258713040140e+02
-2.258631923096e+02
-2.255354262976e+02
-2.259522261305e+02
-2.263547122281e+02
-2.261631777476e+02
-2.261749197625e+02
-2.258356479465e+02
-2.259190301673e+02
-2.266356848706e+02
-2.270835564055e+02
-2.275690420713e+02
-2.277979486624e+02
-2.280692426331e+02
-2.283849467475e+02
-2.287364712826e+02
-2.292779695647e+02
-2.299164498518e+02
-2.303797150175e+02
-2.309939789637e+02
-2.312993109227e+02
-2.322395830069e+02
-2.325461035345e+02
-2.324342836140e+02
-2.329083695496e+02
-2.335399294105e+02
-2.340522303885e+02
-2.344241121216e+02
-2.349274770757e+02
-2.350128350635e+02
-2.351956852022e+02
-2.351327795365e+02
-2.355793933321e+02
-2.364102986280e+02
-2.367852261978e+02
-2.352491524284e+02
-2.367730081076e+02
-2.362487348861e+02
-2.366441101123e+02
-2.371297368665e+02
-2.370780252632e+02
-1.220119472412e+02
-1.341175568238e+02
-1.461871631734e+02
-1.579884777372e+02
-1.700290437777e+02
-1.821921872635e+02
-1.941025992937e+02
-2.059408049473e+02
-2.181023406832e+02
-5.406474026559e+00
-1.103805859366e+02
-6.545155443727e+00
-1.240244635009e+01
-2.474248719802e+01
-3.666750061385e+01
-4.898835902779e+01
-6.136040184211e+01
-7.347966447716e+01
-8.560145222714e+01
-9.771690954446e+01
-4.816690448052e+00
-1.247069434904e+01
-2.449334681234e+01
-3.658180300792e+01
-4.870996768597e+01
-6.084392450538e+01
-7.298560359519e+01
-8.511620592407e+01
-9.719395911904e+01
-1.081187936639e+02
-1.089074345541e+02
-1.089115226259e+02
-1.087890611371e+02
-1.104806641393e+02
-1.090266241883e+02
-1.089793613173e+02
-1.091001181865e+02
-1.093452218535e+02
-1.093123113810e+02
-1.093550950393e+02
-1.093412423602e+02
-1.094770018390e+02
-1.097358531269e+02
-5.699045620502e+00
-6.318184508446e+00
-6.068876579294e+00
-5.869734372227e+00
-6.162519978794e+00
-6.210731614098e+00
-6.038579776958e+00
-5.866739063621e+00
-5.732462788409e+00
-5.642528844019e+00
-5.595817644542e+00
-5.863883839831e+00
-5.570202585240e+00
-5.028550048452e+00
-5.006244602951e+00
-5.077053448397e+00
-5.035487813977e+00
-4.799841802147e+00
-4.503660000827e+00
-4.680011831050e+00
-5.817608328602e+00
-6.095078087042e+00
-6.141876813902e+00
-6.159583184653e+00
-6.157237286262e+00
-6.140735140299e+00
-6.113873182745e+00
-6.078629219519e+00
-6.035828973214e+00
-5.985620464858e+00
-5.927804575091e+00
-5.862092423211e+00
-5.788323360472e+00
-5.706521852254e+00
-5.617099157363e+00
-5.520607062629e+00
-5.418526989884e+00
-5.311684394571e+00
-5.204426751204e+00
-5.096487166114e+00
-5.000553673620e+00
-4.904281925016e+00
-4.849268851748e+00
-4.796625857971e+00
-4.890844003707e+00
-4.629036768310e+00
-2.323824249110e+00
-1.044108338633e+01
-1.239593293352e+01
-1.157289779368e+01
-1.143819064856e+01
-1.146484674325e+01
-1.147230620764e+01
-1.152415334163e+01
-1.157726817668e+01
-1.164299150807e+01
-1.170955567528e+01
-1.177730432514e+01
-1.184266933522e+01
-1.190478788355e+01
-1.196230978789e+01
-1.201477799986e+01
-1.206191067144e+01
-1.210362570384e+01
-1.213982876451e+01
-1.217042689533e+01
-1.219521204871e+01
-1.221383711680e+01
-1.222600462185e+01
-1.223251773966e+01
-1.223978589122e+01
-1.228010578739e+01
-1.241447942470e+01
-2.302690755784e+01
-2.497342219713e+01
-2.420119802536e+01
-2.403953430875e+01
-2.403028207899e+01
-2.398967340844e+01
-2.399837746287e+01
-2.400637815361e+01
-2.403045822213e+01
-2.405686400135e+01
-2.408819452508e+01
-2.411982945368e+01
-2.415138450291e+01
-2.418146254369e+01
-2.420962977974e+01
-2.423515669620e+01
-2.425762070588e+01
-2.427681252385e+01
-2.429269611429e+01
-2.430560273666e+01
-2.431674431654e+01
-2.432976900688e+01
-2.435384312080e+01
-2.440189205772e+01
-2.447055772928e+01
-3.656712626909e+01
-3.653189361270e+01
-3.650986495032e+01
-3.649637529597e+01
-3.648719994665e+01
-3.647905473193e+01
-3.647025474007e+01
-3.646037786389e+01
-3.644929443800e+01
-3.643716521461e+01
-3.642451033881e+01
-3.641228468084e+01
-3.640230899715e+01
-3.639483905536e+01
-3.639255871723e+01
-3.639433877356e+01
-3.641115982518e+01
-3.643023594043e+01
-3.648914600842e+01
-3.652194880122e+01
-3.669411836398e+01
-3.745853879046e+01
-3.552460924945e+01
-4.785464728435e+01
-4.980448628095e+01
-4.905242155017e+01
-4.887093095863e+01
-4.883324575284e+01
-4.875361988550e+01
-4.872300660504e+01
-4.868896157032e+01
-4.867183021727e+01
-4.865854838149e+01
-4.865290009336e+01
-4.865056342796e+01
-4.865062147003e+01
-4.865175565029e+01
-4.865317988739e+01
-4.865502228285e+01
-4.865737984987e+01
-4.866109600298e+01
-4.866823667574e+01
-4.868059150485e+01
-4.869744142991e+01
-4.870793082790e+01
-6.083960834652e+01
-6.083036946254e+01
-6.082611090263e+01
-6.082489082277e+01
-6.082701960399e+01
-6.083079890237e+01
-6.083503575751e+01
-6.083967260848e+01
-6.084739560945e+01
-6.085651661580e+01
-6.086952824118e+01
-6.088752345446e+01
-6.090979946249e+01
-6.095024399420e+01
-6.099221831178e+01
-6.106985524764e+01
-6.111515097225e+01
-6.128779241719e+01
-6.204145219079e+01
-6.010040248890e+01
-7.224363484221e+01
-7.420272139377e+01
-7.348434870632e+01
-7.329967587170e+01
-7.325852059470e+01
-7.317418014451e+01
-7.314252115640e+01
-7.310947690048e+01
-7.307941856710e+01
-7.305756744435e+01
-7.304276076238e+01
-7.302812438030e+01
-7.301753917899e+01
-7.300443431014e+01
-7.299584065793e+01
-7.298774147589e+01
-7.298697806149e+01
-7.298695114856e+01
-7.298852445094e+01
-8.512384077071e+01
-8.512337587016e+01
-8.512708476980e+01
-8.514065429138e+01
-8.515978213258e+01
-8.517562044154e+01
-8.520278333528e+01
-8.521487252356e+01
-8.522857811069e+01
-8.526029784625e+01
-8.529932417304e+01
-8.534119283468e+01
-8.538622329995e+01
-8.540498524655e+01
-8.557977045899e+01
-8.634806103418e+01
-8.440417823632e+01
-9.646884808531e+01
-9.832650267441e+01
-9.764819732908e+01
-9.758717225818e+01
-9.754204373236e+01
-9.750290027272e+01
-9.742616412593e+01
-9.738970026820e+01
-9.743534389964e+01
-9.736748484533e+01
-9.734121957239e+01
-9.731902486034e+01
-9.730099673864e+01
-9.725672464084e+01
-9.730982077372e+01
-9.730270268810e+01
-6.237054113452e+00
-7.922271851103e+00
-1.991750399128e+01
-3.226011181860e+01
-4.431042406847e+01
-5.661055427468e+01
-6.869672204719e+01
-8.083700031203e+01
-9.293552818883e+01
-1.051120269810e+02
-1.950988661778e+01
-2.281042566672e+02
-1.082405238089e+01
-1.080631296755e+01
-2.299209670021e+02
-4.304102747104e+01
-1.266806075930e+02
-2.258274522710e+02
-6.614496346529e+01
-2.245242864282e+02
-9.081240801309e+01
-2.317334397630e+02
-1.017296343067e+01
-2.229887500907e+02
-1.153084486185e+02
-7.856999522046e+01
-1.598852872115e+02
-2.216636819708e+02
-2.213177368351e+02
-2.204225553004e+02
-2.195858864764e+02
-2.211429751527e+02
-1.206916341216e+02
-1.204384964296e+02
-1.211552326393e+02
-1.641165918265e+02
-2.313300759859e+02
-1.030902617103e+01
-1.052831922876e+01
-1.983455227378e+02
-1.195941449523e+02
-4.156166276003e+01
-2.195044859938e+02
-2.259972606154e+02
-2.236737606946e+02
-2.262225949242e+02
-2.292524143374e+02
-1.129468506092e+01
-1.201543047402e+02
-2.285660458179e+02
-1.878043937402e+02
-1.085623193918e+01
-1.020017279603e+02
-2.220907937625e+02
-5.549901480382e+01
-3.107415777489e+01
-7.848568139233e+01
-1.029345649623e+02
-1.075235161858e+01
-1.411686328742e+02
-2.334542403559e+02
-1.000984493900e+01
-2.113452929202e+02
-1.210523394754e+02
-1.260857372965e+02
-1.317836388112e+02
-1.375952569687e+02
-1.438475445835e+02
-1.491046162924e+02
-1.429151368086e+02
-1.544533932340e+02
-1.481774514416e+02
-1.555477148284e+02
-1.597737311883e+02
-1.534667327558e+02
-1.650875600198e+02
-1.587814141247e+02
-1.472278549419e+02
-1.525319268439e+02
-1.410006978666e+02
-1.463103332884e+02
-1.578659471574e+02
-1.516445847653e+02
-1.400774136149e+02
-1.454150986878e+02
-1.338644480194e+02
-1.392183971722e+02
-1.276372587818e+02
-1.330275180847e+02
-1.446106270521e+02
-1.384277169305e+02
-1.268495038604e+02
-1.322636909343e+02
-1.206895652809e+02
-1.260995526060e+02
-1.376888870490e+02
-1.315398551185e+02
-1.199017863086e+02
-1.253923888784e+02
-1.137102854223e+02
-1.192762750150e+02
-1.075510577810e+02
-1.131308938445e+02
-1.248030583313e+02
-1.186775138727e+02
-1.069909665556e+02
-1.125195610451e+02
-1.242108712501e+02
-1.180164423755e+02
-1.297176874047e+02
-1.234907257967e+02
-1.118696709953e+02
-1.172886210333e+02
-1.289296311284e+02
-1.226541028954e+02
-1.110903127336e+02
-1.164162402380e+02
-1.280249586717e+02
-1.217293596037e+02
-1.101777609941e+02
-1.154428122278e+02
-1.271014965894e+02
-1.207106181444e+02
-1.091092799764e+02
-1.143035182019e+02
-1.260331096409e+02
-1.195235043071e+02
-1.313601152807e+02
-1.077706474554e+02
-1.129544993126e+02
-1.011510978428e+02
-1.063541043547e+02
-1.431363044159e+02
-9.452186897601e+01
-8.948747936324e+01
-9.973566223158e+01
-1.116492514263e+02
-8.786044443758e+01
-9.309136745094e+01
-8.118793838294e+01
-1.017431282745e+02
-1.632349694109e+02
-8.642881961589e+01
-7.449463922468e+01
-6.928699735049e+01
-6.259628069276e+01
-1.502636997727e+02
-1.619526019114e+02
-1.562740808173e+02
-1.683326279157e+02
-1.628760485387e+02
-6.778114761977e+01
-1.715338198958e+02
-1.737689353941e+02
-1.285578636634e+02
-1.152752422660e+02
-1.359570505946e+02
-9.835126814022e+01
-9.170385545640e+01
-1.036275316457e+02
-1.378884858384e+02
-1.432661058186e+02
-1.498168891962e+02
-1.552218422492e+02
-1.617969275428e+02
-1.672230405174e+02
-1.606122867824e+02
-1.726339369650e+02
-1.659915910765e+02
-1.738188262301e+02
-1.683338984313e+02
-1.780294077529e+02
-1.713606656013e+02
-1.834208770146e+02
-1.767229611702e+02
-1.646551159661e+02
-1.699833808858e+02
-1.579682462573e+02
-1.414754935477e+02
-1.477603728568e+02
-1.532841510335e+02
-1.596035340636e+02
-1.651419085297e+02
-1.714769048971e+02
-1.770124001276e+02
-1.706685051446e+02
-1.703637957912e+02
-1.008742010354e+02
-9.532044742779e+01
-8.927346442732e+01
-8.369105519635e+01
-7.772002255306e+01
-7.210690106537e+01
-6.619090800587e+01
-7.176777776491e+01
-6.029832761615e+01
-6.581491104846e+01
-5.439767954390e+01
-5.979389455334e+01
-1.500173721306e+02
-1.659104227157e+02
-1.778175534307e+02
-1.721560790188e+02
-5.740333393529e+01
-1.820868004350e+02
-1.803916201055e+02
-1.748128606392e+02
-1.825837277553e+02
-5.597783632885e+01
-6.058457399859e+01
-6.638872284998e+01
-1.747544896634e+02
-1.692986194390e+02
-1.869510459865e+02
-6.114801925292e+01
-1.846863886700e+02
-4.895519486898e+01
-1.753195367483e+02
-1.874318257578e+02
-1.540041305777e+02
-1.841453409094e+02
-1.783609155576e+02
-7.129713356987e+01
-6.517036785627e+01
-5.392990474603e+01
-5.944474913496e+01
-7.060449908656e+01
-6.433116662302e+01
-5.303732539815e+01
-5.797339421093e+01
-6.948109215188e+01
-6.304215070576e+01
-5.147726274049e+01
-5.647007305141e+01
-1.941769946985e+02
-4.317244401980e+01
-1.357153609537e+02
-1.924670646637e+02
-1.887962020086e+02
-1.812247765113e+02
-1.757747006603e+02
-1.637834339293e+02
-1.703177060477e+02
-1.823100076750e+02
-1.768586819113e+02
-1.648382931493e+02
-1.713865914965e+02
-1.593469828010e+02
-1.659084090370e+02
-1.779536883918e+02
-1.724986848920e+02
-1.604345631949e+02
-1.670283631173e+02
-1.549344796454e+02
-1.615127907221e+02
-1.736470428886e+02
-4.970126556195e+01
-1.761960663134e+02
-1.882313075817e+02
-9.727758871635e+01
-1.087791730170e+02
-1.155484555809e+02
-1.209517681808e+02
-1.680682600683e+02
-1.802389667751e+02
-5.488136367539e+01
-6.059635970818e+01
-1.866563807317e+02
-1.806818078331e+02
-1.685880494190e+02
-1.091123639625e+02
-1.036659992300e+02
-9.745859513051e+01
-9.180411993200e+01
-9.821838091533e+01
-8.544118600633e+01
-1.627139056765e+02
-1.845530571377e+02
-6.413417353840e+01
-5.232329012781e+01
-1.927944217602e+02
-1.642635574535e+02
-1.562164921350e+02
-1.616486971251e+02
-1.678858253978e+02
-1.733406460133e+02
-1.796038325316e+02
-1.850273106563e+02
-1.788354416467e+02
-1.904364266901e+02
-1.905413925055e+02
-1.558356414080e+02
-1.601909866907e+02
-7.468488263333e+01
-4.432161658151e+01
-4.451415030227e+01
-5.434447643986e+01
-6.630642905082e+01
-1.990766063108e+02
-1.913070218259e+02
-1.857791558500e+02
-8.645603569617e+01
-9.291102164010e+01
-1.961199107709e+02
-1.509977177787e+02
-1.528401132429e+02
-1.472691655137e+02
-4.154532571878e+01
-4.008867363643e+01
-1.888720119990e+02
-7.219823917423e+01
-6.645929879709e+01
-3.766936004015e+01
-3.206954875989e+01
-1.745506691487e+02
-1.866425776674e+02
-1.275739188911e+02
-1.329043398374e+02
-1.935361970043e+02
-4.984957593383e+01
-1.923771741156e+02
-1.697889867448e+02
-1.578478169719e+02
-1.141425099314e+02
-4.907431333468e+01
-4.350105769811e+01
-8.107113627513e+01
-6.161008963341e+01
-5.951202792796e+01
-2.056433130951e+02
-1.942490280859e+02
-1.843899383262e+02
-1.725754867067e+02
-1.962336770058e+02
-3.824208437296e+01
-2.047267697126e+02
-1.860611262477e+02
-1.970097814404e+02
-1.919580598895e+02
-7.807098994294e+01
-7.257724574877e+01
-6.087310037881e+01
-6.710564386600e+01
-1.366453208735e+02
-8.426579064129e+01
-1.294932525218e+02
-1.242423543341e+02
-1.180784161511e+02
-1.044662503033e+02
-9.924015095338e+01
-8.964325265336e+01
-1.421763867680e+02
-1.222573865712e+02
-1.526809882032e+02
-1.443720062386e+02
-1.899216026628e+02
-1.965850442275e+02
-1.483485764374e+02
-1.428336689127e+02
-4.555139436029e+01
-4.049745727389e+01
-1.367048224618e+02
-1.979030425116e+02
-1.930138874095e+02
-1.984360775770e+02
-1.920182097473e+02
-1.999518797536e+02
-9.480617363523e+01
-1.469577940569e+02
-3.736919265299e+01
-1.492720419869e+02
-3.385107696700e+01
-1.694149747698e+02
-1.982432491825e+02
-2.048831203718e+02
-2.022605740467e+02
-1.202132626999e+02
-1.547449530961e+02
-1.486343801889e+02
-1.129026874753e+02
-1.067873031166e+02
-1.118961611831e+02
-1.005913998258e+02
-8.622927828963e+01
-7.976274010170e+01
-2.038625562521e+02
-2.021170409749e+02
-2.033434227426e+02
-1.985599292686e+02
-2.080016151958e+02
-2.016570793780e+02
-7.110734978119e+01
-8.780611005297e+01
-2.008568633790e+02
-1.190042034439e+02
-2.098611222742e+02
-2.033994581305e+02
-2.638232614609e+01
-3.110770333389e+01
-1.989000482448e+02
-5.525156792548e+01
-6.126518333830e+01
-4.914734434388e+01
-2.231217155901e+02
-1.193027365988e+02
-2.104617288253e+02
-1.107874239455e+02
-2.047114363503e+02
-1.603699006945e+02
-1.027308544613e+02
-1.878586118792e+02
-1.924655487158e+02
-2.056344621172e+02
-1.408102430846e+02
-1.348297807117e+02
-1.460095502045e+02
-4.334302523497e+01
-3.102109839033e+01
-1.911023296664e+02
-8.504510945884e+01
-9.146939132927e+01
-5.465317790937e+01
-6.636651334849e+01
-1.342045972892e+02
-1.289032582389e+02
-1.748702574192e+02
-1.810701706747e+02
-1.624249262315e+02
-1.633800988903e+02
-1.514556989603e+02
-1.460364555167e+02
-2.016114492090e+02
-2.096083420669e+02
-9.255187910023e+01
-8.734624850665e+01
-9.121433772646e+01
-2.062016490293e+02
-2.168933401765e+02
-2.114272691845e+02
-2.895805641443e+01
-3.534289197846e+01
-3.753639653689e+01
-3.245060831204e+01
-2.035259553394e+02
-1.974904114293e+02
-2.109896095821e+02
-6.357683371818e+01
-1.783064370101e+02
-2.115580846187e+02
-2.059450039456e+02
-2.188117520159e+02
-1.964191389604e+02
-2.078641320145e+02
-2.078312309897e+02
-2.139542391667e+01
-2.014688736746e+02
-1.356691407239e+02
-1.739270700199e+01
-1.302432759533e+02
-1.371684842774e+02
-1.239963112589e+02
-5.188387480466e+01
-1.321518540550e+02
-1.394630940359e+02
-2.203267764023e+01
-2.125505931105e+02
-2.278709103710e+01
-2.754514563071e+01
-2.155403492096e+02
-2.087933580746e+02
-2.205005648533e+02
-2.137129796716e+02
-2.020608634907e+02
-2.076574317490e+02
-1.288069802170e+02
-2.210326704396e+02
-2.134026463107e+02
-2.267707164032e+02
-9.571540413943e+01
-7.317204737637e+01
-6.766651642736e+01
-5.548476089548e+01
-2.116069223592e+02
-2.041095986802e+02
-1.918404462519e+02
-1.795916470783e+02
-1.308150813919e+02
-1.301743531540e+02
-1.411575061202e+02
-1.396732909127e+02
-1.506968706892e+02
-1.490537477435e+02
-1.602999136349e+02
-2.140999131534e+02
-4.327534031285e+01
-1.078342163706e+02
-2.133953932213e+02
-2.062566264570e+02
-9.411892795710e+01
-8.299001992657e+01
-2.182754988922e+02
-8.976018975162e+01
-2.193833173114e+02
-9.388480823492e+00
-1.899111633158e+01
-9.604231534859e+01
-1.056229814956e+02
-7.964178769599e+01
-7.493176721400e+01
-1.755263607598e+02
-3.084405706406e+01
-4.327490205591e+01
-1.617001220040e+02
-3.152410535840e+01
-1.860344373146e+02
-9.565203233193e+01
-1.160481406734e+02
-5.487957245273e+01
-7.906957571145e+01
-1.419209382440e+02
-1.314129899022e+02
-1.252545072755e+02
-1.013970805710e+02
-8.137776708115e+01
-6.872767148443e+01
-1.347654828027e+02
-1.856197496238e+02
-1.909820905757e+02
-2.024249770705e+02
-1.963273232171e+02
-1.846241495190e+02
-1.899971026330e+02
-2.016666027390e+02
-1.957371684008e+02
-2.093800909721e+02
-2.010006376615e+02
-1.888952867330e+02
-1.939340256040e+02
-2.050921216323e+02
-1.821491660724e+02
-2.194897313997e+02
-1.080521588679e+02
-2.669211533156e+01
-2.322894338483e+01
-1.223265439557e+02
-2.210874277874e+02
-2.211039466547e+02
-7.797834055109e+01
-2.231778649063e+02
-1.304375002873e+02
-5.475610604354e+01
-2.240997575449e+02
-1.792021624159e+02
-1.726867336824e+02
-1.673148887165e+02
-2.215406325727e+02
-1.516382879190e+02
-2.263021824675e+02
-1.540230641101e+02
-1.483031026379e+02
-1.365068752091e+02
-1.834786517027e+02
-2.275290502825e+02
-2.179226866759e+02
-2.183340352309e+02
-2.072974506381e+02
-2.285680009973e+02
-2.227485101973e+02
-2.233216271548e+02
-7.583236880740e+01
-8.211014299145e+01
-9.356067301551e+01
-8.825520203751e+01
-7.673173299972e+01
-8.282944058114e+01
-9.430098757686e+01
-7.730460101075e+01
-1.928044645299e+02
-2.297286200350e+02
-1.563198365895e+02
-1.507267297694e+02
-1.388704656830e+02
-1.169684861591e+02
-1.235856877784e+02
-1.355098656812e+02
-1.103082524775e+02
-1.670898554040e+02
-2.299476323411e+02
-1.524091625271e+02
-1.182459124558e+02
-1.204429487235e+02
-1.310695239957e+02
-1.313385162431e+02
-1.427547033990e+02
-1.320917757580e+02
-1.395015052033e+02
-1.447895150927e+02
-1.382400897540e+02
-1.500749625538e+02
-1.432640966913e+02
-1.323044831039e+02
-1.551479941596e+02
-1.474914544515e+02
-1.202006915911e+02
-1.136749867037e+01
-2.091203280214e+01
-2.069238610082e+01
-3.002978280201e+01
-3.057830495070e+01
-4.085904599734e+01
-3.924225115361e+01
-2.086310767866e+01
-1.111135087231e+01
-2.062866464032e+01
-1.092711346457e+01
-2.032044424480e+01
-3.149866007174e+01
-4.748878115409e+01
-2.298141364697e+02
-1.138838415332e+02
-1.080509583390e+02
-9.658096862234e+01
-1.027487492335e+02
-1.186074883598e+02
-9.022435834290e+01
-8.594252115902e+01
-1.046917238832e+01
-2.032851188786e+01
-1.934363942448e+01
-3.039202559526e+01
-3.026695516519e+01
-2.057879879383e+01
-2.059347536062e+01
-1.049205748547e+01
-2.054213672500e+01
-3.078321179932e+01
-1.023309278812e+01
-1.762301535952e+02
-1.827715294711e+02
-2.298326709588e+02
-1.214267763542e+02
-1.090477526636e+01
-2.184867632743e+02
-2.205719303204e+02
-2.207777311833e+02
-2.108319426580e+02
-2.169336895774e+02
-2.187785783299e+02
-7.596829121302e+01
-2.077609918968e+02
-1.976879296561e+02
-4.923630569658e+01
-7.318952938717e+01
-1.739778661352e+02
-1.593452874197e+02
-1.994662586857e+02
-1.632751008519e+02
-1.888109251105e+02
-2.179777245812e+02
-4.795512454231e+01
-1.538110519507e+02
-1.494064523946e+02
-1.791047340102e+02
-7.970211731175e+01
-1.267479440437e+02
-5.074595838314e+01
-2.143925339574e+02
-1.232960667604e+02
-1.324919849789e+02
-1.050184588110e+02
-8.272875633179e+01
-6.819096531931e+01
-1.144640447690e+02
-1.248120395075e+02
-1.792594167502e+02
-1.857079586439e+02
-1.189049291597e+01
-1.858688365543e+02
-1.486366975975e+02
-1.582890564800e+02
-1.833495259301e+02
-4.691662440438e+01
-1.834085419815e+02
-2.042954447786e+02
-1.451142802158e+02
-3.896352504159e+01
-1.414972184554e+02
-2.111426623081e+02
-1.801921422180e+02
-7.301635496753e+01
-1.351965475576e+02
-1.214399352404e+02
-1.091181465088e+02
-2.027575581926e+02
-1.369958727207e+02
-1.945490327374e+02
-1.587836950119e+02
-7.834050643721e+01
-1.967645183773e+02
-1.303965043357e+02
-1.954058646179e+02
-1.741158212114e+02
-1.063870870860e+02
-1.876706704199e+02
-1.333997916637e+02
-1.897393211149e+02
-1.170863245828e+02
-1.507960804453e+02
-1.640650919726e+02
-1.438433465569e+02
-1.673509783211e+02
-1.913263834596e+02
-4.847635761802e+01
-9.097994120516e+01
-1.573064412695e+02
-1.964011462438e+02
-2.072771908990e+02
-1.098541179191e+02
-1.900793067166e+02
-1.992862588512e+02
-1.301539199616e+02
-5.491128469456e+01
-3.828555060542e+01
-8.327006288403e+01
-1.308963904452e+02
-1.420685628478e+02
-2.102732791061e+02
-1.954753276604e+02
-1.813231981152e+02
-1.429331246291e+01
-1.140086456499e+02
-2.009074932101e+02
-1.406375192926e+02
-1.950579888490e+02
-1.361673844521e+02
-2.145172605523e+02
-8.940888585570e+01
-2.064884916838e+02
-1.819720466180e+02
-8.384281860931e+01
-1.196953564630e+02
-2.203332507804e+02
-1.941671257422e+02
-1.554406246707e+02
-1.343197847046e+02
-9.686993173900e+01
-1.474093458687e+02
-1.569965443599e+02
-2.215802180908e+02
-1.999808800154e+02
-1.607981958644e+02
-1.407997214776e+02
-1.662306935247e+02
-3.040698020089e+01
-1.018248071973e+02
-1.460799560247e+02
-8.880861102841e+01
-1.396996335671e+02
-2.137820758292e+02
-1.513761697532e+02
-1.003220647232e+02
-1.566616221800e+02
-8.469409129647e+01
-1.661956270086e+02
-1.619391559153e+02
-1.686372913415e+02
-3.178181148064e+01
-1.608745617375e+02
-2.042614769130e+02
-9.612564658839e+01
-1.451363126725e+02
-1.781024068677e+02
-7.232106679455e+01
-1.570225244888e+02
-1.803386211955e+02
-1.664400609035e+02
-1.425770394806e+02
-1.691052635884e+02
-7.683777147343e+01
-7.096991229700e+01
-5.929134008170e+01
-1.057533269399e+02
-1.866208654248e+02
-4.033673290749e+01
-1.768926460803e+02
-4.275311132167e+01
-9.966530032754e+01
-1.845185546436e+02
-1.528534699568e+02
-1.049479581361e+02
-6.679299678483e+01
-9.876193171502e+01
-1.543234433277e+02
-1.039581087392e+02
-9.765651241706e+01
-2.095241922141e+02
-1.027065577999e+02
-2.209197812837e+02
-2.306799716924e+02
-1.288916189221e+02
-5.936564319345e+01
-1.137014320247e+01
-6.451524854090e+01
-8.463861069621e+01
-1.756492056045e+02
-1.293903380133e+02
-7.792753240401e+01
-2.125697908322e+02
-2.253551152617e+02
-1.703618649448e+02
-2.000882208386e+02
-1.723967116812e+02
-1.988278887109e+02
-1.189168362194e+02
-2.023846952421e+01
-1.735918869779e+02
-4.684389851955e+01
-4.929240436879e+01
-3.723077783118e+01
-8.248329016051e+01
-2.986116528798e+01
-3.717030339480e+01
-2.167506522078e+02
-1.299555011502e+02
-1.902344354456e+02
-2.513742651574e+01
-2.106823698775e+02
-2.152488951279e+02
-2.312475136370e+02
-2.022471963631e+02
-2.600670106782e+01
-1.403608718067e+02
-2.138475012374e+02
-1.799277816325e+02
-2.322928711426e+02
-1.286480428962e+02
-2.111070771124e+02
-4.292037458552e+01
-2.112456294153e+02
-1.874176706726e+02
-1.442205255046e+02
-1.399244081177e+02
-2.226589418634e+02
-2.118872318481e+02
-2.145090984179e+01
-1.697622856649e+02
-1.028484634165e+02
-1.926967953923e+01
-2.203560893400e+02
-1.985688916533e+02
-2.217386368376e+02
-3.002480273758e+01
-1.902659632077e+01
-2.216722667538e+02
-2.143282255538e+02
-4.875902708470e+01
-2.228500155478e+02
-1.500607183249e+01
-1.177283948438e+02
-1.968877014951e+01
-2.322107215946e+02
-2.117214299358e+02
-1.133420955547e+02
-1.211998312141e+02
-7.485538864891e+01
-2.062484790350e+02
-2.812082325131e+01
-2.128069990749e+02
-2.215568753374e+02
-2.134950850014e+02
-2.294702965917e+02
-1.767367981931e+01
-2.178973170690e+02
-2.100035284493e+02
-1.187381780451e+02
-2.121478514448e+02
-9.209249957869e+01
-3.985572848792e+01
-2.222011582825e+02
-8.709961354720e+00
-1.179834933090e+02
-2.333605240925e+02
-3.810944156075e+01
-1.377873476295e+02
-2.146404027620e+02
-1.392067843958e+02
-1.919707985423e+02
-3.736712668358e+01
-1.002600761255e+01
-1.592143534754e+02
-2.177902291070e+02
-2.139247116399e+02
-1.508408720849e+02
-2.941380488469e+01
-2.076864704308e+02
-1.225028329322e+02
-2.066089326993e+02
-2.095253442855e+02
-8.199398622250e+00
-1.496924622626e+02
-1.848184275875e+01
-2.235334449301e+02
-1.276342127728e+02
-4.416781494160e+00
-6.162395246417e+00
-1.746370917954e+01
-1.881930777674e+01
-2.989862775246e+01
-3.017823990255e+01
-4.232838615521e+01
-4.298402087048e+01
-5.468264638931e+01
-5.443107896494e+01
-6.676786719403e+01
-6.725606141864e+01
-7.894288844886e+01
-7.871184402040e+01
-9.103652832825e+01
-9.154268419122e+01
-1.031608822406e+02
-1.028956342751e+02

SCALARS node_materi_stress_size_dev_sd_sig float
LOOKUP_TABLE default
3.893877360923e+00
8.245396375370e+01
1.791167686648e+02
1.703833581116e+02
9.869460939249e+00
1.946504878337e+01
2.814003827986e+01
3.795226316388e+01
4.742808230388e+01
5.663352440322e+01
6.587393349813e+01
7.512256118417e+01
8.432441462435e+01
9.364873654426e+01
1.032151167130e+02
1.122368685793e+02
1.204031624582e+02
1.295032068019e+02
1.387457292855e+02
1.476609775041e+02
1.566256291254e+02
1.656210632273e+02
1.741211763766e+02
1.708741424802e+02
1.704608153665e+02
1.705788086341e+02
1.705926678748e+02
1.702966895990e+02
1.705740842132e+02
1.706205653103e+02
1.705660957378e+02
1.708950468913e+02
1.709277125713e+02
1.706663144767e+02
1.709834525717e+02
1.711639893408e+02
1.711480215444e+02
1.710578080426e+02
1.709151846251e+02
1.709795374598e+02
1.713806734235e+02
1.717971574604e+02
1.721892391170e+02
1.723871520973e+02
1.725425289983e+02
1.728415238255e+02
1.731285236201e+02
1.735626123853e+02
1.739981172416e+02
1.744835670325e+02
1.748564402059e+02
1.752101372464e+02
1.758801409390e+02
1.762077906075e+02
1.761028453270e+02
1.764550722417e+02
1.769475939108e+02
1.773173975894e+02
1.776740476599e+02
1.779650249867e+02
1.781174912263e+02
1.781758233388e+02
1.782338135050e+02
1.785524255736e+02
1.790691658439e+02
1.792927735743e+02
1.783395296806e+02
1.792888330314e+02
1.790348785448e+02
1.792870350775e+02
1.796153917555e+02
1.796094326287e+02
9.156679470324e+01
1.008606104543e+02
1.099723056533e+02
1.189354073344e+02
1.281166929154e+02
1.372567391701e+02
1.464146094618e+02
1.555013765581e+02
1.648152960561e+02
3.546896184680e+00
8.196650577598e+01
6.455777513849e+00
9.425908257466e+00
1.813360687244e+01
2.679902125740e+01
3.577988296713e+01
4.483052985375e+01
5.392056557955e+01
6.303573275209e+01
7.219153673934e+01
3.273610765116e+00
9.006194334572e+00
1.823957486920e+01
2.739046764220e+01
3.648080043537e+01
4.559206017062e+01
5.469295171089e+01
6.379788354295e+01
7.283336311594e+01
8.111489812116e+01
8.161671616878e+01
8.166242566086e+01
8.152244706240e+01
8.268711665501e+01
8.160326327659e+01
8.142869586486e+01
8.150275385298e+01
8.171729193984e+01
8.164661666366e+01
8.152407201019e+01
8.146319658865e+01
8.142242334842e+01
8.154505070263e+01
2.415151095138e+00
2.510720123458e+00
2.416506390532e+00
2.368035909242e+00
2.742556868411e+00
2.975235979159e+00
3.027168639915e+00
3.063481449000e+00
3.159616882847e+00
3.250857427165e+00
3.421986163888e+00
3.758546701299e+00
3.739986098997e+00
3.486363980870e+00
3.687048221039e+00
3.922059497209e+00
4.008683376439e+00
3.811155622980e+00
3.443660012043e+00
2.880189587750e+00
4.122229984646e+00
4.504335338882e+00
4.510581331680e+00
4.519957315416e+00
4.537163033604e+00
4.561708736810e+00
4.593630562490e+00
4.633088112626e+00
4.680424702916e+00
4.736224655093e+00
4.801315824902e+00
4.876611014457e+00
4.962853819435e+00
5.060365296843e+00
5.169185989854e+00
5.288555982217e+00
5.417706301627e+00
5.553402025340e+00
5.695484177161e+00
5.832782661491e+00
5.970932547562e+00
6.071453099949e+00
6.185918203292e+00
6.198725045039e+00
6.255233251158e+00
5.769694833985e+00
2.686488479973e+00
8.452018716095e+00
1.036157808377e+01
1.004161591346e+01
1.006069226672e+01
1.006984219958e+01
1.001409901095e+01
9.948921425590e+00
9.864763542580e+00
9.778616157777e+00
9.689027912526e+00
9.601698722034e+00
9.518009126364e+00
9.440129214023e+00
9.368878024181e+00
9.304970122614e+00
9.248373493762e+00
9.198662778050e+00
9.155301990980e+00
9.117849902052e+00
9.085841802204e+00
9.058584535773e+00
9.034797725232e+00
9.012122748006e+00
8.987833072830e+00
8.964018923661e+00
8.947057865469e+00
1.703482131306e+01
1.895849637455e+01
1.869380484660e+01
1.870427647018e+01
1.873200713020e+01
1.870884018327e+01
1.868869042096e+01
1.865215569057e+01
1.861174807380e+01
1.856715299061e+01
1.852247758316e+01
1.847922916207e+01
1.843932780714e+01
1.840322429555e+01
1.837052908694e+01
1.834072389944e+01
1.831346696979e+01
1.828818710397e+01
1.826393177367e+01
1.823928027969e+01
1.821270204553e+01
1.818400744052e+01
1.816035421970e+01
1.816507341232e+01
1.820881651763e+01
2.733428106275e+01
2.728401588494e+01
2.727951903326e+01
2.729357647007e+01
2.731366644013e+01
2.733366811955e+01
2.735152694367e+01
2.736729956541e+01
2.738202990133e+01
2.739638813907e+01
2.741066076335e+01
2.742459498871e+01
2.743952960746e+01
2.745627713293e+01
2.747481321422e+01
2.748931342884e+01
2.750198019872e+01
2.750123650181e+01
2.750247781243e+01
2.746673596701e+01
2.745610288339e+01
2.780373857614e+01
2.590530844928e+01
3.481632860627e+01
3.668792030784e+01
3.636087214365e+01
3.637069810608e+01
3.641103198113e+01
3.641653225763e+01
3.642603762689e+01
3.642413261253e+01
3.642612175788e+01
3.643161959607e+01
3.643772013061e+01
3.643954838126e+01
3.643908684971e+01
3.643735819597e+01
3.643357019966e+01
3.642624494971e+01
3.641535492830e+01
3.640435236337e+01
3.639839785631e+01
3.640550171365e+01
3.643207785723e+01
3.646694943150e+01
4.556697889401e+01
4.553125218015e+01
4.551178297176e+01
4.550569262630e+01
4.550614123575e+01
4.550939585754e+01
4.551067500520e+01
4.550482973049e+01
4.549510359357e+01
4.548650214792e+01
4.547618908116e+01
4.545907679656e+01
4.543193494145e+01
4.541442557449e+01
4.540465025443e+01
4.540927437005e+01
4.537275203273e+01
4.534526013919e+01
4.571966421631e+01
4.382316405413e+01
5.285405860354e+01
5.477347254576e+01
5.443884476234e+01
5.442427056642e+01
5.443096251624e+01
5.444382667355e+01
5.449335914191e+01
5.452447427717e+01
5.454487563365e+01
5.455526641685e+01
5.457443413245e+01
5.459885699404e+01
5.460526539778e+01
5.460773040731e+01
5.461336179323e+01
5.462244792973e+01
5.463800907771e+01
5.466951800763e+01
5.468910949277e+01
6.382620775477e+01
6.376304571000e+01
6.373644819544e+01
6.373277040381e+01
6.371034774294e+01
6.370579110240e+01
6.370095737985e+01
6.368067102881e+01
6.363254571358e+01
6.363127942765e+01
6.361821709211e+01
6.357878090254e+01
6.355004700077e+01
6.346945426214e+01
6.348975656311e+01
6.391817391635e+01
6.201220213603e+01
7.113643279283e+01
7.302414511776e+01
7.265247583816e+01
7.263979086818e+01
7.269548757992e+01
7.274354305321e+01
7.273441811610e+01
7.276018144585e+01
7.279325731424e+01
7.281196702728e+01
7.282095504237e+01
7.283363719108e+01
7.287809689145e+01
7.285433224777e+01
7.294589472443e+01
7.304268624276e+01
6.413836107969e+00
6.106031701241e+00
1.439803895144e+01
2.331746846340e+01
3.211699545021e+01
4.108519632736e+01
5.016261225796e+01
5.924737899980e+01
6.837060793543e+01
7.759578573179e+01
1.460209029203e+01
1.730017387213e+02
7.307370570838e+00
6.604909079200e+00
1.745512052770e+02
3.135819389483e+01
9.876368559015e+01
1.710811436015e+02
4.845854350935e+01
1.698059448076e+02
6.700173935392e+01
1.757656207708e+02
7.334227157286e+00
1.685001499186e+02
8.559887006058e+01
6.167961799374e+01
1.235983623320e+02
1.673619153205e+02
1.672242778026e+02
1.667304857077e+02
1.659741641905e+02
1.671902885944e+02
8.982361746716e+01
8.999728135853e+01
9.070262654109e+01
1.235566951481e+02
1.755551154666e+02
6.574624624879e+00
8.112973711471e+00
1.518274001852e+02
8.977209889531e+01
3.306427582175e+01
1.658155485398e+02
1.710732574679e+02
1.691033535959e+02
1.715427993254e+02
1.740046703825e+02
7.257174060363e+00
8.959878856025e+01
1.736414249598e+02
1.416844392231e+02
7.600967227012e+00
7.979688462261e+01
1.680532281336e+02
4.059083577019e+01
2.253036919895e+01
5.772553814279e+01
7.615621221056e+01
1.003082609145e+01
1.060850673700e+02
1.771230288322e+02
7.742007741580e+00
1.596179556756e+02
8.987338584248e+01
9.365500326922e+01
9.799862671660e+01
1.024359704232e+02
1.072113197408e+02
1.111936363446e+02
1.063982873348e+02
1.151972690306e+02
1.103632915819e+02
1.160739178565e+02
1.192314911253e+02
1.143717144792e+02
1.232884448018e+02
1.184401065581e+02
1.095813704473e+02
1.136562469047e+02
1.048096071878e+02
1.089086716083e+02
1.177926441702e+02
1.130667803511e+02
1.041864998394e+02
1.083725814390e+02
9.950948490594e+01
1.037411059941e+02
9.486277531149e+01
9.916373516722e+01
1.080510965219e+02
1.035305578753e+02
9.465020544570e+01
9.908255621189e+01
9.021340710548e+01
9.469620725375e+01
1.035570741608e+02
9.923185181601e+01
9.035985437167e+01
9.498110614569e+01
8.611206283727e+01
9.081714317859e+01
8.195741957810e+01
8.668329790645e+01
9.545173288056e+01
9.132066189688e+01
8.258883713243e+01
8.716705338292e+01
9.586894697867e+01
9.163594002725e+01
1.003240902660e+02
9.601281842055e+01
8.739114462304e+01
9.166247950411e+01
1.002958389073e+02
9.583508886542e+01
8.723639727049e+01
9.132263721644e+01
9.996359258773e+01
9.536145337283e+01
8.672131078881e+01
9.069144566460e+01
9.941524522563e+01
9.464300152837e+01
8.590632214747e+01
8.978937073083e+01
9.861990890020e+01
9.368199064798e+01
1.025867774666e+02
8.477940667234e+01
8.864919655645e+01
7.965139276935e+01
8.354635701270e+01
1.080674104527e+02
7.447124562273e+01
7.068904686892e+01
7.839687843890e+01
8.751682046938e+01
6.924723874109e+01
7.320567199192e+01
6.400787594425e+01
7.702167026677e+01
1.219917640927e+02
6.799489563229e+01
5.875750491931e+01
5.475517912791e+01
4.946539881770e+01
1.120533658409e+02
1.210661881103e+02
1.167734921572e+02
1.260541353305e+02
1.219196580739e+02
5.346760411472e+01
1.282551695228e+02
1.301642175443e+02
9.537034583416e+01
8.577583759514e+01
1.046132479934e+02
7.718166832902e+01
7.200236397936e+01
8.120889070215e+01
1.074872982893e+02
1.114858972287e+02
1.163562719822e+02
1.203654997908e+02
1.252127707503e+02
1.292245736709e+02
1.243462777621e+02
1.332060084114e+02
1.283028838045e+02
1.340498589054e+02
1.299926327603e+02
1.371539870381e+02
1.322354518476e+02
1.410742805877e+02
1.361450946651e+02
1.272632049993e+02
1.311621682025e+02
1.222837466602e+02
1.090542296990e+02
1.134037567718e+02
1.178201442368e+02
1.222248104607e+02
1.266170879058e+02
1.310680095798e+02
1.354191030077e+02
1.309422140767e+02
1.273661535011e+02
7.850692277157e+01
7.387912336790e+01
6.989481509903e+01
6.521884336040e+01
6.133571534644e+01
5.661752652807e+01
5.281340461965e+01
5.733322324483e+01
4.881190670537e+01
5.310240345506e+01
4.448655681134e+01
4.855488505098e+01
1.124183706035e+02
1.266298005896e+02
1.355286329608e+02
1.310002236901e+02
4.546611947800e+01
1.400377194300e+02
1.388239026090e+02
1.346921326885e+02
1.397396021621e+02
4.424352171028e+01
4.808683353088e+01
5.165138861782e+01
1.310578878439e+02
1.269126309739e+02
1.435536265271e+02
4.823762505171e+01
1.420362680421e+02
4.030272374745e+01
1.350475259391e+02
1.439130438764e+02
1.194296949289e+02
1.399897886486e+02
1.353637310318e+02
5.730673259099e+01
5.263995118683e+01
4.392179020573e+01
4.802169689395e+01
5.673949880567e+01
5.170269317943e+01
4.273984174984e+01
4.652522313546e+01
5.559138440666e+01
5.039563951178e+01
4.114094330116e+01
4.506354072956e+01
1.488547038078e+02
3.576905649692e+01
1.007878358870e+02
1.476179963060e+02
1.441466072492e+02
1.360907652537e+02
1.319568306529e+02
1.227532402595e+02
1.278518189878e+02
1.370641668535e+02
1.329458558975e+02
1.237411078147e+02
1.288020032782e+02
1.195901202488e+02
1.246578081570e+02
1.338724854406e+02
1.297470409014e+02
1.205507963151e+02
1.256191584041e+02
1.164235484912e+02
1.214250006393e+02
1.306942332353e+02
3.921370999728e+01
1.352201538986e+02
1.440803027869e+02
7.632928026087e+01
8.512262606271e+01
9.033988560718e+01
9.437388956392e+01
1.264462114560e+02
1.358061799980e+02
4.306072517112e+01
4.647493854150e+01
1.402345597331e+02
1.389613320943e+02
1.300715510737e+02
8.133949763658e+01
7.688411954309e+01
7.240084990311e+01
6.781121666588e+01
7.253724745430e+01
6.318771329768e+01
1.258090309948e+02
1.389786217580e+02
5.079539136225e+01
4.149659227725e+01
1.478342975505e+02
1.264277433465e+02
1.169622739074e+02
1.213406703791e+02
1.259350411143e+02
1.303154068363e+02
1.349646372674e+02
1.393165181559e+02
1.347504017689e+02
1.444309835330e+02
1.437515985722e+02
1.170449316481e+02
1.220232979027e+02
5.953076485729e+01
3.515417451901e+01
3.554773116755e+01
4.289951898449e+01
5.222838995355e+01
1.523587415879e+02
1.440190680667e+02
1.396098151257e+02
6.358897041945e+01
6.839410662687e+01
1.489102540495e+02
1.127411998136e+02
1.145635637010e+02
1.103798588708e+02
3.279847040416e+01
3.192878330623e+01
1.421760418510e+02
5.524523401122e+01
5.015052294114e+01
3.165341599232e+01
2.677343180837e+01
1.313583832764e+02
1.406371343756e+02
9.941566475755e+01
1.034430555019e+02
1.482675331791e+02
3.970035623932e+01
1.450537557339e+02
1.306861965892e+02
1.218855781076e+02
8.907790613022e+01
3.778009073243e+01
3.460471672131e+01
6.459251168699e+01
4.903220489263e+01
4.690697074163e+01
1.570555863233e+02
1.462415484398e+02
1.392304950248e+02
1.302140492565e+02
1.482126069727e+02
3.026657672447e+01
1.565254548287e+02
1.429269780737e+02
1.483934722944e+02
1.443053199994e+02
5.901250904245e+01
5.421354536414e+01
4.524598906066e+01
4.956836928175e+01
1.016065533657e+02
6.316226919688e+01
9.602846798305e+01
9.206212534284e+01
8.736375981409e+01
7.716837224964e+01
7.312325779516e+01
6.905392836042e+01
1.088821403445e+02
9.547220322286e+01
1.183823922717e+02
1.122980280368e+02
1.430654593581e+02
1.482466624556e+02
1.113620067192e+02
1.071400215459e+02
3.611248942374e+01
3.215920261808e+01
1.065594015768e+02
1.516194128578e+02
1.452120904190e+02
1.493770021424e+02
1.443285787592e+02
1.528268377826e+02
7.441129659057e+01
1.134044394170e+02
3.085931633435e+01
1.124066773383e+02
2.681439021272e+01
1.267056610329e+02
1.517697903557e+02
1.565908508354e+02
1.533178524367e+02
8.918727996855e+01
1.169053328062e+02
1.126121746286e+02
8.348020295607e+01
7.883631938246e+01
8.266903390789e+01
7.414964227994e+01
6.846935766319e+01
6.336822155318e+01
1.537535387927e+02
1.526241544268e+02
1.531881983255e+02
1.492212575846e+02
1.576873998240e+02
1.532062454804e+02
5.601941696420e+01
6.450953441664e+01
1.513188127418e+02
8.813123066031e+01
1.602732390788e+02
1.556145973699e+02
2.142926463914e+01
2.524007693252e+01
1.500653936551e+02
4.052619057215e+01
4.486131308885e+01
3.628727029402e+01
1.696868891980e+02
8.951714399225e+01
1.605356197295e+02
8.188619666978e+01
1.544721343461e+02
1.214980284612e+02
7.681175366748e+01
1.440559451694e+02
1.451103823294e+02
1.553507028878e+02
1.053376677806e+02
1.009483851507e+02
1.092889587701e+02
3.585672715104e+01
2.652812981125e+01
1.440673583034e+02
6.686574168687e+01
7.191057839186e+01
4.345167191110e+01
5.268491041087e+01
1.044884013282e+02
1.005531480961e+02
1.309755053241e+02
1.357238747393e+02
1.215751505917e+02
1.261113305976e+02
1.173198879796e+02
1.131581906393e+02
1.521362136198e+02
1.583214066191e+02
7.339400569665e+01
6.948272718098e+01
7.220920451686e+01
1.554298830108e+02
1.652397856977e+02
1.613902392625e+02
2.288988093028e+01
2.812458885429e+01
2.915259345459e+01
2.642949456718e+01
1.533110356709e+02
1.485404991696e+02
1.591234989645e+02
5.008557761217e+01
1.348175974277e+02
1.612396082750e+02
1.571385237151e+02
1.665474928318e+02
1.487253360692e+02
1.574810340735e+02
1.571091740269e+02
1.754223258656e+01
1.520934765193e+02
1.017087559451e+02
1.309541866922e+01
9.756318588711e+01
1.029093416824e+02
9.291328880940e+01
4.094817460674e+01
9.872066093605e+01
1.042125171281e+02
1.714914866452e+01
1.603959298845e+02
1.804018238284e+01
2.178247076439e+01
1.642544472526e+02
1.594741516630e+02
1.678960039365e+02
1.630496799861e+02
1.546234598968e+02
1.586452709923e+02
9.649438624837e+01
1.682002339374e+02
1.627286890770e+02
1.724059656163e+02
7.053650164383e+01
5.390765464450e+01
4.952067981407e+01
4.044269023584e+01
1.594987497859e+02
1.535960080603e+02
1.471220524560e+02
1.381746008406e+02
9.820921058638e+01
9.773187786172e+01
1.060580791356e+02
1.049566029249e+02
1.133409211868e+02
1.120252202995e+02
1.205697911569e+02
1.618435925750e+02
3.149004511576e+01
7.971550512653e+01
1.619123072441e+02
1.568798949846e+02
6.925353752821e+01
6.096410650369e+01
1.663108386580e+02
6.791420447376e+01
1.657777639749e+02
6.722680837941e+00
1.619718455062e+01
7.215587788991e+01
7.792091132847e+01
5.851732014255e+01
5.481897842957e+01
1.350367471096e+02
2.435307335838e+01
3.248372441701e+01
1.215717514750e+02
2.359410480723e+01
1.428527083792e+02
7.296868410327e+01
8.599847375468e+01
4.131416063260e+01
5.870415274510e+01
1.055609844977e+02
9.771676628761e+01
9.296052587613e+01
7.787166179105e+01
5.968725348160e+01
5.027777677726e+01
1.000654342155e+02
1.393242119184e+02
1.434650430919e+02
1.523620137554e+02
1.475935249328e+02
1.384734154686e+02
1.425889183700e+02
1.517437050480e+02
1.469851327096e+02
1.577517596345e+02
1.511536173035e+02
1.417048086138e+02
1.457181359474e+02
1.544225486194e+02
1.364901601491e+02
1.663250067988e+02
8.132078763760e+01
2.255552574372e+01
2.046823054055e+01
9.068580128452e+01
1.670420886742e+02
1.670441058282e+02
6.031608459748e+01
1.686422838965e+02
9.682054459199e+01
4.435772104349e+01
1.694297023276e+02
1.342970048448e+02
1.292169109112e+02
1.251161053481e+02
1.673437652319e+02
1.135354784423e+02
1.713545414773e+02
1.177415263773e+02
1.130993532688e+02
1.042422806106e+02
1.374902395274e+02
1.725910313239e+02
1.656296572559e+02
1.659734563120e+02
1.579891420952e+02
1.734176448978e+02
1.682696051723e+02
1.687577343599e+02
6.065760121473e+01
6.553899198774e+01
7.420059874842e+01
7.015602461522e+01
6.146104428915e+01
6.598649830679e+01
7.456199079987e+01
6.170125528206e+01
1.447845283879e+02
1.743612732245e+02
1.211427137543e+02
1.169646303362e+02
1.081774983572e+02
9.151149962205e+01
9.658840049474e+01
1.055791981016e+02
8.638685142523e+01
1.257531553549e+02
1.745310456345e+02
1.176738360796e+02
9.259975734377e+01
8.976624864121e+01
9.768831550738e+01
9.779755944139e+01
1.063823624118e+02
9.852340638854e+01
1.084445679386e+02
1.123899562346e+02
1.074378691076e+02
1.163008907035e+02
1.111477220056e+02
1.028635851401e+02
1.200172595135e+02
1.143174604686e+02
8.969426953597e+01
7.219867411980e+00
1.596658015657e+01
1.568127975256e+01
2.382169602015e+01
2.455678308327e+01
3.287439306413e+01
3.178417513197e+01
1.604412689792e+01
7.224599037148e+00
1.572419963085e+01
7.239783813513e+00
1.551374824703e+01
2.492045382946e+01
3.772470776696e+01
1.745476240055e+02
8.894111415073e+01
8.455697536660e+01
7.562618235940e+01
8.046368327733e+01
9.263664966530e+01
7.072468660959e+01
6.741380108463e+01
8.152128203186e+00
1.631387474711e+01
1.552125677349e+01
2.439667380195e+01
2.410988502842e+01
1.635971337844e+01
1.635273793926e+01
7.980405126015e+00
1.626051797577e+01
2.446835893523e+01
7.602597343029e+00
1.327724701004e+02
1.378203867323e+02
1.745316264119e+02
9.076634389627e+01
7.561240618333e+00
1.652276009329e+02
1.667276442673e+02
1.668623637765e+02
1.608757417984e+02
1.652153517293e+02
1.655037305754e+02
6.002981334479e+01
1.564113671326e+02
1.491728835947e+02
3.968233071155e+01
5.813344497501e+01
1.340319953216e+02
1.233632843333e+02
1.527060055299e+02
1.261885017514e+02
1.449765404839e+02
1.658584028345e+02
3.779914810491e+01
1.154275297801e+02
1.122068253068e+02
1.348439271632e+02
6.277874504718e+01
9.873742103666e+01
4.023066191517e+01
1.618161436762e+02
9.131883658397e+01
1.034592009682e+02
8.237874011713e+01
6.535962105330e+01
5.433470875211e+01
8.579465331598e+01
9.762213620159e+01
1.380586173143e+02
1.399589204071e+02
8.721878629296e+00
1.428572345976e+02
1.154654324956e+02
1.186721327569e+02
1.399050926833e+02
3.755937905248e+01
1.380220967440e+02
1.540231095451e+02
1.084352447069e+02
3.091007129153e+01
1.061370237418e+02
1.610867713243e+02
1.351893256938e+02
5.749817936417e+01
1.046908930061e+02
9.027970253965e+01
8.074677264649e+01
1.531064624219e+02
1.037852295801e+02
1.485751838226e+02
1.221574805287e+02
6.161474244113e+01
1.508274523801e+02
1.000774494553e+02
1.472470791565e+02
1.305842257206e+02
8.300293179867e+01
1.411232788033e+02
1.040537880468e+02
1.444210016850e+02
8.662372055929e+01
1.126326048482e+02
1.225324382157e+02
1.079515237472e+02
1.291283006182e+02
1.468704547399e+02
3.984100384876e+01
6.780676434744e+01
1.177086587047e+02
1.481527476809e+02
1.563632740324e+02
8.141590486748e+01
1.459484868306e+02
1.501435683769e+02
1.015981111305e+02
4.339804427077e+01
3.157285200354e+01
6.586001686573e+01
9.959292290738e+01
1.105365342401e+02
1.585608856480e+02
1.498336687571e+02
1.393751200570e+02
1.190599083295e+01
8.438839930701e+01
1.537439813503e+02
1.089670542189e+02
1.485969032606e+02
1.057436584322e+02
1.619903713714e+02
6.575528160915e+01
1.578144387482e+02
1.396364978712e+02
6.404736222896e+01
8.979108950047e+01
1.677601293952e+02
1.485720599339e+02
1.168300072554e+02
1.044859178952e+02
7.150037981126e+01
1.144870264124e+02
1.172776617565e+02
1.674077941672e+02
1.527348683695e+02
1.200606637227e+02
1.095011133484e+02
1.262396915751e+02
2.411305674306e+01
7.513662803790e+01
1.134209905742e+02
7.026616492050e+01
1.086248989973e+02
1.619714164355e+02
1.173488553407e+02
7.881896137922e+01
1.212553027910e+02
6.230499701801e+01
1.241791027500e+02
1.251141984516e+02
1.262434795732e+02
2.525269322149e+01
1.212714381041e+02
1.560996932598e+02
7.589172536721e+01
1.127603055343e+02
1.333727710645e+02
5.304014653339e+01
1.215393207189e+02
1.352832456502e+02
1.257988330851e+02
1.084092765680e+02
1.304262592487e+02
5.633856215532e+01
5.621328784103e+01
4.705415878924e+01
8.309164099444e+01
1.400604251844e+02
3.203838430384e+01
1.323868659279e+02
3.393952796793e+01
7.870938723451e+01
1.397259873407e+02
1.149533567639e+02
8.275292536905e+01
5.260280049640e+01
7.813580429336e+01
1.172683605164e+02
8.204723123530e+01
7.721831101977e+01
1.583166844475e+02
8.099464393447e+01
1.669776522160e+02
1.750997123542e+02
9.679294618161e+01
4.353790942363e+01
7.282381148649e+00
4.698020547793e+01
6.704406079697e+01
1.314849216731e+02
9.711893386388e+01
6.172482419858e+01
1.602072639333e+02
1.705301658053e+02
1.282842990423e+02
1.525310192623e+02
1.305873935465e+02
1.501654544317e+02
8.904518704235e+01
1.551363587650e+01
1.337260300131e+02
3.420069224552e+01
3.582380301516e+01
2.727881738942e+01
6.491991325287e+01
2.355238433470e+01
2.692439412230e+01
1.646907448109e+02
9.709062946546e+01
1.438426141284e+02
1.824864557108e+01
1.590192689207e+02
1.629537572095e+02
1.755670908731e+02
1.529823264073e+02
2.062892838403e+01
1.046273115981e+02
1.614204801835e+02
1.355012167147e+02
1.761820515403e+02
9.589662401771e+01
1.595292815677e+02
3.519734400477e+01
1.596332500585e+02
1.406259159879e+02
1.082574141846e+02
1.041626791362e+02
1.693153158194e+02
1.598320103582e+02
1.859218701173e+01
1.277004489214e+02
8.059915570996e+01
1.458585891192e+01
1.678205932260e+02
1.493748153970e+02
1.688045175103e+02
2.400940193190e+01
1.474461307871e+01
1.687191399636e+02
1.616466723067e+02
3.948082119989e+01
1.684980579263e+02
1.354477271207e+01
8.798122815964e+01
1.538535363026e+01
1.761211254705e+02
1.599751146146e+02
8.854964392894e+01
9.004655144482e+01
5.889144763024e+01
1.557644998130e+02
2.203088960304e+01
1.608699545649e+02
1.685553962114e+02
1.611299793134e+02
1.739054982416e+02
1.416472797377e+01
1.649121278992e+02
1.600726747340e+02
8.902732153179e+01
1.599746321906e+02
7.224553895046e+01
3.147858089264e+01
1.679325996154e+02
6.607290480026e+00
8.858877301414e+01
1.769954413512e+02
3.007245457667e+01
1.034612651328e+02
1.618250248891e+02
1.081422099680e+02
1.448598598981e+02
2.973393643769e+01
5.693308789791e+00
1.197609436701e+02
1.650437840989e+02
1.615421517427e+02
1.133239992457e+02
2.496142722186e+01
1.564736271088e+02
9.536955726708e+01
1.558726500592e+02
1.595395589836e+02
6.957655149800e+00
1.160259441692e+02
1.437653281908e+01
1.701013696916e+02
9.938199077482e+01
4.301380372099e+00
4.015364110449e+00
1.305933991703e+01
1.385238044890e+01
2.183710684296e+01
2.253474131165e+01
3.074112872314e+01
3.217047856215e+01
3.971574866286e+01
4.076445188607e+01
4.879688670178e+01
5.038448034444e+01
5.790435579012e+01
5.899236479832e+01
6.702048220923e+01
6.861683322870e+01
7.621663341141e+01
7.727277835563e+01

SCALARS node_materi_strain_total_average_a_ept float
LOOKUP_TABLE default
5.072942980059e-06
2.526538481059e-04
4.120095855125e-04
4.571744536662e-04
1.549944118079e-05
3.676517390735e-05
5.704429314347e-05
7.974885175164e-05
1.016428036781e-04
1.233925792284e-04
1.450117936826e-04
1.665466544040e-04
1.880735886741e-04
2.096839608233e-04
2.317223588612e-04
2.533390942954e-04
2.729646227604e-04
2.942858278593e-04
3.161642059737e-04
3.373120727119e-04
3.585350643932e-04
3.798395648188e-04
4.003680830949e-04
4.583967098505e-04
4.571577740788e-04
4.574209160867e-04
4.572979783971e-04
4.564965517901e-04
4.571296385408e-04
4.572417255716e-04
4.565840923640e-04
4.571633882121e-04
4.568389662924e-04
4.558014682281e-04
4.560734763393e-04
4.560713853273e-04
4.551151322011e-04
4.542738259156e-04
4.528094284660e-04
4.518466495775e-04
4.516967635679e-04
4.510768919496e-04
4.503828363705e-04
4.490305738048e-04
4.474389204389e-04
4.459035387503e-04
4.441828342992e-04
4.425938992765e-04
4.410754583161e-04
4.392369301058e-04
4.374659500866e-04
4.351690920820e-04
4.339462221894e-04
4.316951450251e-04
4.286987703462e-04
4.266975877036e-04
4.252558595002e-04
4.237376933274e-04
4.220290357653e-04
4.209442194872e-04
4.190996771814e-04
4.177993303929e-04
4.160920124568e-04
4.154724017818e-04
4.158539451766e-04
4.156959331251e-04
4.120287222391e-04
4.140330803154e-04
4.124651648132e-04
4.126626783971e-04
4.133247606055e-04
4.130702386431e-04
2.744342701122e-04
2.957452314813e-04
3.170182667893e-04
3.378578788990e-04
3.591366599847e-04
3.806401056967e-04
4.017457051459e-04
4.227929100053e-04
4.443080791611e-04
3.797206540127e-06
2.501685739965e-04
5.262858802308e-05
7.935425682945e-05
1.003078116211e-04
1.206597084218e-04
1.416328623146e-04
1.630266560131e-04
1.843383821714e-04
2.058458449265e-04
2.274936107731e-04
6.734813474337e-05
8.133631491845e-05
1.029258011649e-04
1.243453587290e-04
1.456891717168e-04
1.670072612142e-04
1.883108694433e-04
2.095992739761e-04
2.308001837660e-04
2.499892347766e-04
2.513486684137e-04
2.513058728436e-04
2.510022482583e-04
2.538689588349e-04
2.512001999137e-04
2.509296003216e-04
2.509664769915e-04
2.511387222940e-04
2.507815496751e-04
2.505093163458e-04
2.500904305649e-04
2.498485763622e-04
2.497725356163e-04
4.862868845009e-07
-1.347966895006e-06
-1.583370544813e-06
-8.241459099735e-07
3.311422762664e-07
1.181668311867e-06
1.858153501116e-06
2.422111602211e-06
2.958927754334e-06
3.466685271292e-06
4.145715353960e-06
4.261799724459e-06
4.626892204953e-06
5.048531420187e-06
5.310418136808e-06
5.401342360958e-06
5.489312176008e-06
5.467969672552e-06
5.060858134700e-06
6.754533169664e-05
7.062666857506e-05
7.157350595360e-05
7.158941152763e-05
7.157938903078e-05
7.163088107435e-05
7.172744498600e-05
7.185654972881e-05
7.201251297884e-05
7.219355560027e-05
7.240003325611e-05
7.263353931809e-05
7.289604916554e-05
7.318890213005e-05
7.351226808899e-05
7.386538311975e-05
7.424589628963e-05
7.465049104304e-05
7.507140341303e-05
7.550476883258e-05
7.592276725954e-05
7.632494569373e-05
7.662233093325e-05
7.692090646160e-05
7.689510163337e-05
7.701004739181e-05
7.479259477435e-05
6.783413996737e-05
8.095910391338e-05
8.498738759506e-05
8.499723290839e-05
8.504686513233e-05
8.525179042724e-05
8.512492007707e-05
8.498445091163e-05
8.474358492176e-05
8.449366323637e-05
8.422249599757e-05
8.395485525329e-05
8.369361677085e-05
8.344726714844e-05
8.321813789758e-05
8.300898235891e-05
8.282048679250e-05
8.265247351302e-05
8.250423516420e-05
8.237555633829e-05
8.226682470006e-05
8.217901559178e-05
8.211302021815e-05
8.206634561362e-05
8.201853908498e-05
8.189041633730e-05
8.152351908784e-05
1.002522315365e-04
1.041911542784e-04
1.040779814073e-04
1.042909705478e-04
1.046024588276e-04
1.046377258075e-04
1.046616817514e-04
1.045954315528e-04
1.045093830509e-04
1.043941702055e-04
1.042725036608e-04
1.041460466947e-04
1.040224881065e-04
1.039044606643e-04
1.037945963733e-04
1.036935412741e-04
1.036018821020e-04
1.035202319997e-04
1.034491192588e-04
1.033886370528e-04
1.033370508743e-04
1.032872533503e-04
1.032207095570e-04
1.031431472629e-04
1.029830135462e-04
1.243671327637e-04
1.244389382395e-04
1.244929812693e-04
1.245357896588e-04
1.245714564780e-04
1.246057471369e-04
1.246414142652e-04
1.246796250564e-04
1.247200742368e-04
1.247617922450e-04
1.248035088619e-04
1.248437304564e-04
1.248812247390e-04
1.249100340405e-04
1.249261577648e-04
1.249153151288e-04
1.248815075343e-04
1.247785008949e-04
1.246486209519e-04
1.243283332859e-04
1.240960573460e-04
1.244051211547e-04
1.204563139275e-04
1.411071619610e-04
1.450107671878e-04
1.446092180451e-04
1.448347850478e-04
1.451880425085e-04
1.453492614616e-04
1.455175683838e-04
1.456151055903e-04
1.456955647251e-04
1.457468416912e-04
1.457852992656e-04
1.458100817810e-04
1.458249536022e-04
1.458316237281e-04
1.458316139644e-04
1.458267048439e-04
1.458170832258e-04
1.458021807588e-04
1.457812566645e-04
1.457534696977e-04
1.457181922424e-04
1.456969845143e-04
1.670103333198e-04
1.670202784414e-04
1.670332039834e-04
1.670400967338e-04
1.670403187262e-04
1.670309982360e-04
1.670100732647e-04
1.669761401912e-04
1.669321019573e-04
1.668719011808e-04
1.667953419511e-04
1.666987095502e-04
1.665732840357e-04
1.664353169644e-04
1.662423594626e-04
1.660433103280e-04
1.656922985549e-04
1.654693184812e-04
1.659658586656e-04
1.620500664615e-04
1.831904893245e-04
1.871117735586e-04
1.865942697909e-04
1.867779487273e-04
1.871331236722e-04
1.873315670146e-04
1.875629895683e-04
1.877390848249e-04
1.878777070120e-04
1.879952097862e-04
1.880950670313e-04
1.881699089384e-04
1.882300131064e-04
1.882654813862e-04
1.882914502169e-04
1.883020837465e-04
1.883121478993e-04
1.883154510291e-04
1.883155520672e-04
2.096147371152e-04
2.096068619024e-04
2.095884790227e-04
2.095707266909e-04
2.095458997829e-04
2.094941523224e-04
2.094382612373e-04
2.093288536279e-04
2.091908605837e-04
2.090483611900e-04
2.088786409380e-04
2.086650856846e-04
2.084007874478e-04
2.080175424416e-04
2.078439683579e-04
2.085067060489e-04
2.046199431376e-04
2.260599140447e-04
2.297784612966e-04
2.292049083836e-04
2.295476753714e-04
2.298467402812e-04
2.300986434669e-04
2.302340531267e-04
2.304008593916e-04
2.306653801662e-04
2.306964849773e-04
2.307785140647e-04
2.308292526278e-04
2.308745897399e-04
2.308551232473e-04
2.309864624310e-04
2.309863564070e-04
2.085101318260e-05
6.929275055588e-05
9.184040877274e-05
1.127933534776e-04
1.333381686271e-04
1.546834621629e-04
1.757722171138e-04
1.972568335985e-04
2.188199337517e-04
2.406572258764e-04
8.068265687044e-05
4.174210764218e-04
1.088982255427e-05
8.697630743552e-06
4.101289154119e-04
1.280814740720e-04
2.215561510369e-04
4.240984416323e-04
1.694208413379e-04
4.325475294604e-04
2.136559285711e-04
4.079071343945e-04
1.151080218028e-05
4.389792814331e-04
2.579853834541e-04
1.352546790895e-04
2.802656062858e-04
4.415676969247e-04
4.456466861064e-04
4.480711719431e-04
4.458250492476e-04
4.473436663748e-04
2.689786572034e-04
2.703602552826e-04
2.723569391263e-04
3.486875217586e-04
4.048961676091e-04
1.072157014767e-05
1.314323576585e-05
3.471844719544e-04
2.700517554097e-04
6.826378021421e-05
4.404631155894e-04
4.299724751553e-04
4.359930348008e-04
4.197384485807e-04
4.146754977084e-04
1.036036736570e-05
2.690956768617e-04
4.047012620225e-04
3.905736630306e-04
1.187552254495e-05
1.774445383481e-04
4.512745275649e-04
1.500717675303e-04
1.057833965163e-04
1.915145148084e-04
2.355579025363e-04
4.036278064104e-05
3.081657427457e-04
4.076567413357e-04
1.252025477352e-05
4.323842718039e-04
2.683452220575e-04
2.764816151357e-04
2.870709883920e-04
2.962928674916e-04
3.078664622334e-04
3.162125973522e-04
3.046357172876e-04
3.246117997629e-04
3.127852278559e-04
3.281697446073e-04
3.328709119769e-04
3.208725890899e-04
3.410218541822e-04
3.288987626929e-04
3.089536044580e-04
3.168363591845e-04
2.970257617962e-04
3.047806048775e-04
3.246679922358e-04
3.124752618749e-04
2.926716461706e-04
3.002307070549e-04
2.805476773193e-04
2.879803988313e-04
2.683291816949e-04
2.756667274547e-04
2.953969217175e-04
2.829521302865e-04
2.632938399797e-04
2.704488927113e-04
2.508349134082e-04
2.578195985399e-04
2.775905660161e-04
2.648556120628e-04
2.449691620944e-04
2.519827816842e-04
2.319397924122e-04
2.389979448495e-04
2.187486814539e-04
2.257614414927e-04
2.461075232629e-04
2.328786911976e-04
2.123064410679e-04
2.194476817158e-04
2.401686639408e-04
2.267756152868e-04
2.475999548378e-04
2.342786368523e-04
2.134109134293e-04
2.209882242669e-04
2.419021047563e-04
2.286493531382e-04
2.077109616628e-04
2.155131327125e-04
2.364860431770e-04
2.234462446701e-04
2.024471093746e-04
2.105048794905e-04
2.316133950590e-04
2.186717736020e-04
1.975776135078e-04
2.058106501775e-04
2.270333884637e-04
2.141645979289e-04
2.354783179648e-04
1.928274887701e-04
2.012998699434e-04
1.798114908288e-04
1.884953284013e-04
2.847695007306e-04
1.669257196622e-04
1.584088464401e-04
1.757827778068e-04
1.973783570084e-04
1.541153713333e-04
1.631425464490e-04
1.414166046691e-04
2.115154127680e-04
3.324652838187e-04
1.505857527760e-04
1.288205558660e-04
1.195828923974e-04
1.070198783221e-04
3.196625769746e-04
3.401228739972e-04
3.308633570886e-04
3.520064891508e-04
3.430299612164e-04
1.163116937969e-04
3.533553943299e-04
3.608638348893e-04
2.731041539037e-04
2.438061748176e-04
2.609020364554e-04
1.722274532828e-04
1.598070638908e-04
1.813533495008e-04
2.483088152079e-04
2.567498931162e-04
2.695452770784e-04
2.779443556972e-04
2.907046135828e-04
2.990620953190e-04
2.863942161536e-04
3.074675354035e-04
2.948949248579e-04
3.117796882716e-04
3.034792040722e-04
3.159184225718e-04
3.034503590981e-04
3.244438005935e-04
3.120646567509e-04
2.909851698536e-04
2.996773109890e-04
2.786229046017e-04
2.684082449592e-04
2.816574468686e-04
2.891968034823e-04
3.024025460755e-04
3.099752093977e-04
3.231303431666e-04
3.306848860507e-04
3.176063474938e-04
3.489958389461e-04
1.986996904809e-04
1.916958122559e-04
1.778783199995e-04
1.710582052995e-04
1.569328747633e-04
1.503803295767e-04
1.357462353665e-04
1.425855524919e-04
1.208274321567e-04
1.281385276743e-04
1.058284366652e-04
1.136355295429e-04
3.027695894151e-04
3.155747923079e-04
3.363065081582e-04
3.286108783388e-04
9.766399041807e-05
3.207548194519e-04
3.245380718299e-04
3.162159547515e-04
3.383775955834e-04
9.473846175376e-05
1.296409285066e-04
1.442626633649e-04
3.639340226440e-04
3.548823000970e-04
3.373418260406e-04
1.040347897433e-04
3.284424537042e-04
9.866401965223e-05
3.084504653685e-04
3.294774758355e-04
2.738121438962e-04
3.494632016953e-04
3.415476003103e-04
1.358921091830e-04
1.217321541833e-04
9.971521778107e-05
1.084017204574e-04
1.301573074977e-04
1.163743874145e-04
9.428827108514e-05
1.027335502615e-04
1.249059309263e-04
1.114485098558e-04
8.912778417702e-05
9.804522275895e-05
3.416757851041e-04
8.310707839134e-05
2.892044731762e-04
3.454697464872e-04
3.511632267402e-04
3.759253461867e-04
3.667986115962e-04
3.456659741796e-04
3.576019713008e-04
3.787892801832e-04
3.695325585249e-04
3.483179972625e-04
3.602000218705e-04
3.389716761419e-04
3.508174055545e-04
3.720986893536e-04
3.626969165065e-04
3.413993532708e-04
3.532381453741e-04
3.319015825733e-04
3.436686104485e-04
3.651066321779e-04
8.312903654301e-05
3.253077313965e-04
3.462617585959e-04
1.695683105178e-04
1.903103849963e-04
2.027947594707e-04
2.120901314650e-04
3.553789111380e-04
3.769172309465e-04
1.241989320214e-04
1.386762319263e-04
3.849612937907e-04
3.173507229608e-04
2.962687436585e-04
2.313879944050e-04
2.244529885420e-04
2.120094830279e-04
2.049050552859e-04
2.174373329323e-04
1.922755493256e-04
2.950167427724e-04
3.840266230842e-04
1.104059343017e-04
8.844438737562e-05
3.383270111769e-04
3.044467023625e-04
3.153099058758e-04
3.227813442985e-04
3.354517960509e-04
3.429991426847e-04
3.557978145799e-04
3.633208326327e-04
3.505479468411e-04
3.625747166793e-04
3.709259762669e-04
3.337791138457e-04
3.077948271306e-04
1.336034850859e-04
7.343044982116e-05
7.509325493913e-05
9.158611470830e-05
1.133081222324e-04
3.582769790245e-04
3.762470660993e-04
3.684364861420e-04
1.982339840776e-04
2.105675758637e-04
3.702595971522e-04
3.222228282248e-04
3.272018774679e-04
3.177428416452e-04
6.833720060175e-05
6.697833202863e-05
3.907960678054e-04
1.582185677345e-04
1.524045667552e-04
7.565041228344e-05
5.934215448537e-05
3.669607202705e-04
3.883691068185e-04
2.242958141505e-04
2.333854563203e-04
3.502769599855e-04
8.476723680342e-05
3.984146488417e-04
3.122875032862e-04
2.913129321173e-04
1.995983769025e-04
1.195659892649e-04
1.042889227585e-04
1.469083603804e-04
1.071124736581e-04
1.008842684867e-04
3.711649777267e-04
3.999492288849e-04
3.581596400163e-04
3.376667699425e-04
3.787741757493e-04
6.249272489180e-05
3.665571202248e-04
3.263410722056e-04
3.881911393209e-04
3.810305597960e-04
1.716158023657e-04
1.658406520901e-04
1.470548260397e-04
1.601723509556e-04
2.929259718102e-04
1.850083897685e-04
2.774134440537e-04
2.696677965582e-04
2.580939380220e-04
2.295631834615e-04
2.225821162233e-04
1.848053577832e-04
2.741137952168e-04
2.152725169469e-04
2.699338208811e-04
2.611534558604e-04
3.933036207474e-04
4.053674394625e-04
3.201076649654e-04
3.105883437632e-04
7.568955661115e-05
6.631970607168e-05
2.440270038159e-04
3.535068021364e-04
3.968265006700e-04
4.058738266327e-04
3.938240540244e-04
3.630413106296e-04
1.850241491988e-04
2.759766148719e-04
6.786619597776e-05
2.974541565734e-04
5.388240797260e-05
3.446761656510e-04
3.473757260624e-04
3.591434188433e-04
3.830782320884e-04
2.656439004327e-04
3.047828119769e-04
2.920718863074e-04
2.504801063634e-04
2.391457223464e-04
2.464811352731e-04
2.276053446173e-04
1.553004442993e-04
1.421138343308e-04
3.982776822657e-04
3.911195494829e-04
4.010771946258e-04
3.942930659994e-04
3.908390636524e-04
3.776942536674e-04
1.219067084124e-04
2.038320067572e-04
4.120740128461e-04
2.618105667225e-04
3.739420486849e-04
3.617995985463e-04
4.376594114184e-05
5.230162401469e-05
4.100847363946e-04
1.416024889109e-04
1.537449657232e-04
1.287928873902e-04
3.895846243151e-04
2.696355455785e-04
3.683586059615e-04
2.417238260233e-04
4.202849539915e-04
3.124030765108e-04
2.184123694861e-04
3.420691728297e-04
3.987470471972e-04
4.221174552474e-04
3.061024652419e-04
2.959036527520e-04
3.148634475979e-04
9.236046464745e-05
6.761529243447e-05
3.958551073244e-04
1.474845764149e-04
1.588684468539e-04
9.345854677563e-05
1.154626779388e-04
2.365968311855e-04
2.277274468462e-04
3.526723402747e-04
3.650138438224e-04
3.278064960655e-04
2.993019419949e-04
2.782701934346e-04
2.704397522236e-04
4.140785376557e-04
4.284770240189e-04
1.684155783539e-04
1.602123801124e-04
1.634422533627e-04
4.211909639835e-04
3.797818821366e-04
3.706827411980e-04
4.456994500393e-05
5.677185372736e-05
1.009090052499e-04
8.471229644035e-05
4.143060570514e-04
4.027792153615e-04
4.281828495491e-04
1.081416041823e-04
3.456403901453e-04
3.831041660467e-04
3.753011811328e-04
3.939048189834e-04
3.750583826426e-04
3.949111051246e-04
3.990774623749e-04
3.457193422936e-05
4.148271132760e-04
2.978215845440e-04
2.283749199924e-05
2.884696657235e-04
3.007707202905e-04
2.776183655755e-04
8.697550350863e-05
2.906130914495e-04
3.029711603548e-04
3.146030558020e-05
4.329652206115e-04
3.319095900897e-05
4.217253725458e-05
3.826426810753e-04
3.699758940698e-04
3.899831115703e-04
3.773370669677e-04
3.574298313308e-04
3.662318374367e-04
2.855569868033e-04
3.891597478275e-04
3.752915518544e-04
3.982999993938e-04
2.207055609456e-04
1.724811722049e-04
1.661383695068e-04
1.474430366517e-04
4.175290967242e-04
4.057391562017e-04
3.361017091663e-04
3.148418931002e-04
2.896996095811e-04
2.886885922357e-04
3.079926660497e-04
3.054757817120e-04
3.248724267049e-04
3.220380527021e-04
3.418524841247e-04
4.124792829067e-04
1.234246231811e-04
2.429191309042e-04
3.979159440239e-04
3.835248102890e-04
2.155995442744e-04
1.974175540649e-04
3.897179576623e-04
1.912104710864e-04
4.447126789219e-04
1.402453025150e-05
3.766219252952e-05
2.046230759808e-04
2.346351138376e-04
1.851519467524e-04
1.796478536210e-04
3.206050808889e-04
4.833702878204e-05
1.154160472372e-04
3.442154688928e-04
9.775694491286e-05
3.258835511268e-04
1.982591062822e-04
2.488393813273e-04
1.336750078090e-04
1.793656295737e-04
3.009646047348e-04
2.848405686679e-04
2.734009562478e-04
2.052958103535e-04
1.919169104258e-04
1.717379378961e-04
2.850630380840e-04
3.817643701624e-04
3.904652545934e-04
4.107510727678e-04
3.990059679360e-04
3.783176111809e-04
3.868327456413e-04
4.075954916237e-04
3.958820699209e-04
4.201684011821e-04
4.039945636094e-04
3.826643988966e-04
3.903131906674e-04
4.098820875889e-04
3.695664596622e-04
4.106080758145e-04
2.248546114939e-04
5.077693318421e-05
5.583497560866e-05
2.610511068130e-04
4.419469284178e-04
4.443234955576e-04
1.644653995913e-04
4.372500142014e-04
2.812821713238e-04
1.143395401239e-04
4.343264372454e-04
3.696420514723e-04
3.573257639137e-04
3.487547975422e-04
4.467636508704e-04
3.243287848031e-04
4.278640167611e-04
2.948312995087e-04
2.870794840426e-04
2.665180356506e-04
3.742780244389e-04
4.189702775208e-04
4.010299839623e-04
3.994248729557e-04
3.814320526232e-04
4.158093534197e-04
4.420616586608e-04
4.414541910139e-04
1.384606513214e-04
1.520915690102e-04
1.735605637108e-04
1.656417815026e-04
1.439267308657e-04
1.577300586573e-04
1.790753795069e-04
1.499510029335e-04
3.856551238757e-04
4.134441317337e-04
2.823425029354e-04
2.738465730544e-04
2.527430931411e-04
2.063355705308e-04
2.188732007000e-04
2.401997271602e-04
1.938169268755e-04
3.302049630469e-04
4.119102003242e-04
2.836014461042e-04
2.100211032964e-04
2.690927804925e-04
2.872894908578e-04
2.870618987208e-04
3.072715498706e-04
2.896271297063e-04
2.455061656043e-04
2.544573031237e-04
2.425436328004e-04
2.634512722968e-04
2.511882871971e-04
2.317743908441e-04
2.721166407675e-04
2.584877770492e-04
2.695440491397e-04
1.011406667611e-05
2.891835359768e-05
2.820968158401e-05
4.760375041989e-05
4.967717094828e-05
7.007147878149e-05
6.797266237727e-05
2.937457967197e-05
1.046715584618e-05
2.829896026486e-05
1.068797861757e-05
2.782664507270e-05
4.993015819595e-05
7.964184476931e-05
4.017155929751e-04
1.987278956351e-04
1.883649118738e-04
1.677888801822e-04
1.789779082639e-04
2.072640703400e-04
1.562754859897e-04
1.485703881929e-04
1.325212631658e-05
2.979536729390e-05
2.768118831076e-05
4.807726017026e-05
4.784222755700e-05
3.000571742610e-05
2.990765776059e-05
1.291221331246e-05
2.984854626192e-05
4.868896990008e-05
1.229046720212e-05
3.700872519372e-04
3.816717169354e-04
4.084710242489e-04
2.723771076483e-04
1.169338936823e-05
4.447729130983e-04
4.478820373321e-04
4.485153273118e-04
3.686341192674e-04
3.792284485478e-04
4.455107085432e-04
1.322712193090e-04
4.192159648044e-04
4.077192470034e-04
1.089585112964e-04
1.289166334248e-04
3.053375760885e-04
2.823939150212e-04
3.502246197358e-04
2.874090772021e-04
3.330415644589e-04
3.962910815747e-04
7.990071100723e-05
3.295006890716e-04
3.223205934036e-04
3.745906587349e-04
1.380336941396e-04
2.221190784776e-04
8.522830716950e-05
4.181300222366e-04
2.656380296616e-04
2.399138982354e-04
1.847829637504e-04
1.452624542107e-04
1.203349497928e-04
2.381137656660e-04
2.227141076606e-04
3.200852791152e-04
3.864628687794e-04
1.359860055495e-05
3.327427612704e-04
2.652493906849e-04
3.364186023991e-04
3.437834697810e-04
8.102586343892e-05
3.814545616683e-04
4.169177009823e-04
3.124582062274e-04
6.344214362441e-05
3.078465737552e-04
3.789326664426e-04
3.728970874977e-04
1.256485899509e-04
2.551483917890e-04
2.560892251988e-04
2.467735005341e-04
4.165670294679e-04
2.719653446450e-04
3.592013054156e-04
2.967933453729e-04
1.351366608635e-04
3.493142757377e-04
2.534640153281e-04
4.027148903860e-04
3.480723827708e-04
2.059459810467e-04
3.878531179033e-04
2.444700158554e-04
3.570164145660e-04
2.537941066517e-04
3.077801144880e-04
3.367672238015e-04
2.902102113352e-04
2.935066542419e-04
3.410072383686e-04
9.094181643101e-05
1.988760776274e-04
3.338217068583e-04
3.831979713265e-04
4.238027298056e-04
2.366992414516e-04
3.368123824188e-04
4.084987517556e-04
2.314183307853e-04
9.247631926522e-05
8.864615948214e-05
1.639360996085e-04
2.591106780469e-04
2.526716736390e-04
4.254532560196e-04
3.452849714251e-04
3.290798612146e-04
6.500909370675e-05
2.542588267162e-04
3.538989463667e-04
2.627732516449e-04
3.640995019626e-04
2.384614405674e-04
4.159615365137e-04
2.091735289283e-04
3.628557192857e-04
3.335881445041e-04
1.780372404457e-04
2.702860952534e-04
3.864894678636e-04
3.547738178316e-04
3.101145347689e-04
2.495868909965e-04
2.245993495804e-04
2.613356993610e-04
3.201138517209e-04
4.475467033886e-04
3.666265958173e-04
3.365362855022e-04
2.489135474006e-04
3.204557635569e-04
4.801810830931e-05
2.319180697084e-04
2.576638223859e-04
1.713730175710e-04
2.573900287977e-04
4.030339749895e-04
2.665006554136e-04
1.924862981211e-04
2.753729766798e-04
2.026827411101e-04
3.450438237716e-04
2.842765887976e-04
3.402444756063e-04
5.042010838836e-05
3.174348199176e-04
3.575094423230e-04
1.714963629169e-04
2.654362421497e-04
3.658870210748e-04
1.805120246612e-04
2.864934423572e-04
3.606307535633e-04
3.250238835472e-04
2.793654049213e-04
3.077488872123e-04
1.861627423285e-04
1.235077363368e-04
1.017621214541e-04
2.000749733903e-04
3.732516359873e-04
6.608533421335e-05
3.615886612757e-04
7.093949763304e-05
1.868081106100e-04
3.543940064921e-04
3.287575142813e-04
1.945937717696e-04
1.139781257964e-04
1.814726948241e-04
2.997647182722e-04
1.895137294039e-04
1.765359635957e-04
4.287079670003e-04
1.846388239339e-04
4.493213236273e-04
4.026992247885e-04
2.865177557225e-04
1.579426887787e-04
1.044917966146e-05
1.629512567014e-04
1.502730575377e-04
3.569121232468e-04
2.873718093822e-04
1.370200995761e-04
4.243118260781e-04
4.314697997713e-04
3.597005379444e-04
3.707642027197e-04
3.332913466623e-04
4.101768053981e-04
2.685769575213e-04
2.777137352153e-05
3.042278695108e-04
1.357784618989e-04
1.352495389075e-04
1.108716567189e-04
1.424711806295e-04
4.693125914574e-05
1.174145816873e-04
4.013456589056e-04
2.870918582423e-04
3.663658181329e-04
9.413834219893e-05
4.287447928775e-04
4.098740433399e-04
4.080252431850e-04
3.872511536905e-04
8.254699745707e-05
3.036751703976e-04
4.193407919444e-04
3.765217292334e-04
4.080864897152e-04
2.840978383980e-04
4.318082685141e-04
7.733461264846e-05
4.321935867219e-04
3.775192051951e-04
3.132811806949e-04
3.016941485999e-04
3.891347862386e-04
4.258857983829e-04
6.304494226758e-05
3.585377242623e-04
1.794173137534e-04
2.656004290772e-05
3.917344901929e-04
3.972578984418e-04
3.882558264743e-04
4.721017952517e-05
2.578203222797e-05
3.970455341336e-04
4.243604013572e-04
8.729835066893e-05
4.512703425773e-04
3.759108166956e-05
2.661559245476e-04
2.790545868059e-05
4.068129220652e-04
4.320201378758e-04
1.979555277467e-04
2.692579463608e-04
1.285441159947e-04
4.002213606364e-04
4.316960775415e-05
4.343636696581e-04
4.005430546942e-04
4.319426322801e-04
4.278519052595e-04
2.809080366022e-05
4.168277398986e-04
3.839382617126e-04
2.684495612813e-04
4.279949268092e-04
1.597695277343e-04
6.519913511722e-05
4.516833548012e-04
9.673742591583e-06
2.673295679244e-04
4.070580145535e-04
6.207588106556e-05
3.021711634072e-04
4.265347371837e-04
2.437617879708e-04
3.980070011038e-04
6.220126456104e-05
6.908719135396e-06
3.399869177140e-04
4.119178534160e-04
4.340244648328e-04
3.250184585615e-04
7.277943496666e-05
4.133183316359e-04
2.143222120773e-04
4.052126223722e-04
3.873969894792e-04
1.857362612246e-05
2.623050322866e-04
2.506329425075e-05
3.942834287477e-04
2.233543327287e-04
7.263988049206e-05
6.983449016544e-05
9.079855071981e-05
9.271077245882e-05
1.107821212105e-04
1.130473800483e-04
1.313149859451e-04
1.356383028765e-04
1.523022404832e-04
1.557386780153e-04
1.732408231551e-04
1.782760365143e-04
1.945899894327e-04
1.983530103692e-04
2.160318668088e-04
2.208886429142e-04
2.376385518964e-04
2.408182594414e-04

SCALARS node_materi_strain_total_size_dev_sd_ept float
LOOKUP_TABLE default
1.320146672318e-05
6.353939223659e-04
1.006257801680e-03
1.120661783043e-03
3.789845028963e-05
8.641473092672e-05
1.307009043710e-04
1.822035233769e-04
2.322422325349e-04
2.812509396163e-04
3.308158859852e-04
3.809571821802e-04
4.315065757690e-04
4.835035527245e-04
5.378174022955e-04
5.898780746473e-04
6.377230615122e-04
6.919920772984e-04
7.481719362269e-04
8.033505002922e-04
8.598681248836e-04
9.176682459207e-04
9.729943675310e-04
1.123122652288e-03
1.120761162665e-03
1.121332504574e-03
1.121227033932e-03
1.119473893009e-03
1.120715042779e-03
1.120621241435e-03
1.119773171466e-03
1.120970660165e-03
1.120388899940e-03
1.118242540313e-03
1.118856492606e-03
1.118527720059e-03
1.116871810124e-03
1.114725147968e-03
1.111835517814e-03
1.109837242656e-03
1.109058488041e-03
1.107880155670e-03
1.106181775983e-03
1.103009225840e-03
1.099261972082e-03
1.095587800821e-03
1.091428734571e-03
1.087589941422e-03
1.083476810403e-03
1.079157265056e-03
1.074114046047e-03
1.068691246135e-03
1.065320798042e-03
1.059405591194e-03
1.051598954832e-03
1.046180458662e-03
1.042333380576e-03
1.037966768696e-03
1.034095740535e-03
1.030227458326e-03
1.026117071045e-03
1.021839605479e-03
1.018188745421e-03
1.016797570884e-03
1.016982448000e-03
1.015892660284e-03
1.007140694696e-03
1.011711462330e-03
1.008751646738e-03
1.009285245924e-03
1.010566642127e-03
1.010085582217e-03
6.871430475946e-04
7.396088262950e-04
7.906830602663e-04
8.405707824750e-04
8.913142397220e-04
9.414930733359e-04
9.914313115905e-04
1.040649453936e-03
1.090913805665e-03
5.548098555834e-05
6.396498966067e-04
1.546413297269e-04
2.056895095223e-04
2.614672906559e-04
3.157097970223e-04
3.702810915557e-04
4.242347426402e-04
4.780221064294e-04
5.312517055872e-04
5.840019339015e-04
1.870866240858e-04
2.166061371137e-04
2.663654559741e-04
3.182526201992e-04
3.707464349134e-04
4.233951755787e-04
4.760293394493e-04
5.285048519638e-04
5.804260899911e-04
6.278024545725e-04
6.308547091541e-04
6.313945702980e-04
6.309378297387e-04
6.379761286059e-04
6.322871810851e-04
6.318334500174e-04
6.327690085462e-04
6.346525904995e-04
6.348902019652e-04
6.348282043439e-04
6.351166132658e-04
6.354503744249e-04
6.366571969122e-04
4.375837195787e-05
4.693514379217e-05
4.459634190710e-05
4.041064110456e-05
3.847351517374e-05
3.683812064140e-05
3.388695950970e-05
3.066667921825e-05
2.798174996606e-05
2.539387922922e-05
2.343934709796e-05
2.412764286096e-05
2.084784718660e-05
1.672583605526e-05
1.559662829147e-05
1.592238640134e-05
1.544673493198e-05
1.292016693954e-05
1.152152456680e-05
1.824308849370e-04
1.844463344549e-04
1.851050205519e-04
1.857019112778e-04
1.857686798002e-04
1.855989710425e-04
1.852657344726e-04
1.847989168732e-04
1.842139931712e-04
1.835183670094e-04
1.827146187746e-04
1.818030519292e-04
1.807833987500e-04
1.796567156753e-04
1.784258317362e-04
1.770989586051e-04
1.756845392909e-04
1.742049080036e-04
1.726701765474e-04
1.711423154363e-04
1.695968291098e-04
1.682013131560e-04
1.667635218893e-04
1.659055205333e-04
1.647426720701e-04
1.650191773403e-04
1.641097112791e-04
1.564809043866e-04
1.935159582661e-04
2.024526607386e-04
1.984208659984e-04
1.986647485174e-04
1.990130019690e-04
1.996737485778e-04
2.004893903702e-04
2.014409814805e-04
2.024689790277e-04
2.035296038643e-04
2.045854167411e-04
2.056128203466e-04
2.065931016568e-04
2.075131511698e-04
2.083640380147e-04
2.091393702990e-04
2.098339874181e-04
2.104439617959e-04
2.109661523983e-04
2.113973739480e-04
2.117346825635e-04
2.119782823262e-04
2.121361870915e-04
2.122086817548e-04
2.120437026660e-04
2.146683741120e-04
2.521032100067e-04
2.622259892579e-04
2.592748094553e-04
2.589569618122e-04
2.589495841027e-04
2.589792276603e-04
2.592716220197e-04
2.596469301011e-04
2.601076613416e-04
2.606097484711e-04
2.611366025568e-04
2.616679498602e-04
2.621913804778e-04
2.626932541998e-04
2.631599237428e-04
2.635813416861e-04
2.639521744409e-04
2.642701369911e-04
2.645368488408e-04
2.647603335396e-04
2.649582704507e-04
2.651510786379e-04
2.653412889700e-04
2.657068286773e-04
2.662516850320e-04
3.182848578056e-04
3.181830843439e-04
3.180817211709e-04
3.179603171779e-04
3.178309665408e-04
3.177007910287e-04
3.175612560397e-04
3.174034490432e-04
3.172252204427e-04
3.170268919271e-04
3.168115097779e-04
3.165834790228e-04
3.163607620465e-04
3.161632420815e-04
3.160102171038e-04
3.158926547277e-04
3.158506275539e-04
3.158468028517e-04
3.159949557858e-04
3.160968212865e-04
3.164811774848e-04
3.192939204513e-04
3.089353503943e-04
3.640042158189e-04
3.743184961587e-04
3.719619696439e-04
3.716403186887e-04
3.714859109488e-04
3.711919233752e-04
3.710066271450e-04
3.708273011049e-04
3.707299113185e-04
3.706982664155e-04
3.707026751297e-04
3.707066204485e-04
3.707165707232e-04
3.707350218957e-04
3.707565827627e-04
3.707737742279e-04
3.707861287128e-04
3.708028890274e-04
3.708197267029e-04
3.708256664804e-04
3.708012240375e-04
3.707467134132e-04
4.233886898682e-04
4.234398516494e-04
4.235071309731e-04
4.235909520718e-04
4.236809656622e-04
4.237862975422e-04
4.238991784293e-04
4.239994744517e-04
4.241083154116e-04
4.242574240743e-04
4.244335638192e-04
4.246078451040e-04
4.247588643036e-04
4.250020395435e-04
4.253317006313e-04
4.257851884224e-04
4.260278262734e-04
4.262684161692e-04
4.288515876391e-04
4.182587681665e-04
4.716895744017e-04
4.824380159027e-04
4.800865913901e-04
4.795676184961e-04
4.791115030053e-04
4.786798295654e-04
4.784703942504e-04
4.781688917627e-04
4.778404185769e-04
4.774981588006e-04
4.772517216260e-04
4.770728759734e-04
4.768287222333e-04
4.765979595927e-04
4.764042640106e-04
4.762401400701e-04
4.761077520327e-04
4.760753642594e-04
4.760546060429e-04
5.287303323308e-04
5.285822062555e-04
5.286749849186e-04
5.289259580050e-04
5.291076585194e-04
5.294278471929e-04
5.297773523395e-04
5.300974588191e-04
5.302842280478e-04
5.307797241868e-04
5.312576492230e-04
5.316164500551e-04
5.320454789815e-04
5.321381214184e-04
5.327143694374e-04
5.356616540533e-04
5.251210897756e-04
5.775620924298e-04
5.879384740607e-04
5.853513352307e-04
5.846720673388e-04
5.843595741803e-04
5.839888503617e-04
5.833368759591e-04
5.829175680167e-04
5.825523876545e-04
5.821557156911e-04
5.817648601792e-04
5.814330890336e-04
5.813410083466e-04
5.809130360922e-04
5.812101296794e-04
5.816742385768e-04
1.045389509336e-04
1.845959346668e-04
2.400926703660e-04
2.949446202210e-04
3.480984604622e-04
4.021873783204e-04
4.561814060119e-04
5.094212948368e-04
5.622428846016e-04
6.149080131132e-04
2.278121054483e-04
1.020394730881e-03
3.915058256664e-05
4.430933462353e-05
9.996306090056e-04
3.421161595932e-04
5.124264835966e-04
1.040833803049e-03
4.449825090624e-04
1.064610671897e-03
5.538053846248e-04
9.928243847771e-04
3.185497240865e-05
1.081698547664e-03
6.602287314404e-04
3.082469338322e-04
6.567543307587e-04
1.087955830248e-03
1.096699199719e-03
1.100620605694e-03
1.095768479084e-03
1.100149176285e-03
6.834253888943e-04
6.821692841794e-04
6.843725184021e-04
8.661979742746e-04
9.857660500768e-04
4.381411296079e-05
3.155682366878e-05
8.296149333240e-04
6.776250102456e-04
1.564220990898e-04
1.085762360184e-03
1.056901596520e-03
1.074102471554e-03
1.028221253714e-03
1.012888348336e-03
4.483001639103e-05
6.811409118093e-04
9.850151900781e-04
9.657026632480e-04
3.716621644835e-05
4.065282304658e-04
1.108007437968e-03
3.976048320870e-04
2.872163440080e-04
4.998762657898e-04
6.065446615682e-04
1.326575764378e-04
7.689781015784e-04
9.939527981154e-04
2.806879625503e-05
1.062821848257e-03
6.844203735473e-04
7.053034678389e-04
7.296107720398e-04
7.536638116518e-04
7.803946623721e-04
8.014406672563e-04
7.745534901322e-04
8.220018156621e-04
7.946647037106e-04
8.285104590238e-04
8.419831111929e-04
8.142027521953e-04
8.613053804403e-04
8.331840877769e-04
7.863610792519e-04
8.048781048156e-04
7.581617090504e-04
7.761997027823e-04
8.227441262378e-04
7.934617410028e-04
7.470218381285e-04
7.636053218944e-04
7.174029778228e-04
7.332550679919e-04
6.871501347085e-04
7.022438196693e-04
7.483682622849e-04
7.164904748427e-04
6.704981412798e-04
6.837914778447e-04
6.378964515053e-04
6.500232966840e-04
6.964847308037e-04
6.618103559123e-04
6.148879703383e-04
6.259927799264e-04
5.784762914566e-04
5.890625545838e-04
5.406681158020e-04
5.506905702481e-04
6.000725354646e-04
5.616228645779e-04
5.111627015259e-04
5.223765130598e-04
5.738077292313e-04
5.351728880138e-04
5.873275673591e-04
5.495005126070e-04
4.970465364366e-04
5.123552079720e-04
5.651054455696e-04
5.288046112078e-04
4.761984994261e-04
4.937256774707e-04
5.464495493488e-04
5.122129063192e-04
4.599385791134e-04
4.792311367452e-04
5.317597565407e-04
4.991421470338e-04
4.473036745133e-04
4.676008223224e-04
5.197893523342e-04
4.883605805559e-04
5.408666101418e-04
4.366023693934e-04
4.576461237238e-04
4.062547788304e-04
4.276830762373e-04
7.090043059551e-04
3.767586773367e-04
3.560118751729e-04
3.984140451830e-04
4.496896828670e-04
3.478706755153e-04
3.696668462400e-04
3.195873574209e-04
5.303584210141e-04
8.399872656098e-04
3.414041532984e-04
2.917093796111e-04
2.700729998898e-04
2.424668725666e-04
8.070890021674e-04
8.559097022135e-04
8.329520868713e-04
8.831206419575e-04
8.609855276690e-04
2.639015811669e-04
8.895674261331e-04
9.046227031751e-04
7.007576831283e-04
6.248594671801e-04
6.253925775977e-04
3.916396466241e-04
3.633963082278e-04
4.139497440322e-04
5.728192060343e-04
5.940197213572e-04
6.264299785574e-04
6.476927240904e-04
6.805097051620e-04
7.018699937591e-04
6.693291448448e-04
7.236399010305e-04
6.913061277548e-04
7.350222017401e-04
7.139246673475e-04
7.457405209589e-04
7.135952886344e-04
7.681893257541e-04
7.361617451670e-04
6.819018960533e-04
7.045107215284e-04
6.508959081614e-04
6.395687568322e-04
6.771752917170e-04
6.918909801869e-04
7.290813589208e-04
7.443588748084e-04
7.811436462601e-04
7.969170439306e-04
7.605426118747e-04
8.798888990223e-04
4.709727328812e-04
4.607757039986e-04
4.195040591486e-04
4.105309501617e-04
3.678717866590e-04
3.604546068051e-04
3.159289562108e-04
3.254131580840e-04
2.719555305602e-04
2.846366341862e-04
2.307736416653e-04
2.468563768171e-04
7.628278964175e-04
7.660397518023e-04
8.177355002314e-04
8.022438717254e-04
2.211370120940e-04
7.589930986881e-04
7.687717555825e-04
7.477853254869e-04
8.137831160408e-04
2.153571463875e-04
3.106405183594e-04
3.558448658495e-04
9.101870847506e-04
8.879976790480e-04
8.030883071443e-04
2.364987662678e-04
7.784934505103e-04
2.182045299516e-04
7.273426133139e-04
7.820412341756e-04
6.375024825531e-04
8.537686117742e-04
8.375855976356e-04
3.006415356287e-04
2.654951252126e-04
2.143337984853e-04
2.351051975637e-04
2.852979434627e-04
2.539585758137e-04
2.044841756397e-04
2.247643460358e-04
2.744960090587e-04
2.455420356216e-04
1.967419770653e-04
2.175660725100e-04
8.140191844469e-04
1.772624278716e-04
7.394489410783e-04
8.239384094820e-04
8.492987352090e-04
9.372666833035e-04
9.151375773303e-04
8.652872420718e-04
8.927724119537e-04
9.424749507186e-04
9.201353129008e-04
8.700812471714e-04
8.973830317013e-04
8.469411256011e-04
8.743961922378e-04
9.246798173661e-04
9.018967616168e-04
8.514114714848e-04
8.789384285442e-04
8.281871817686e-04
8.554916554757e-04
9.064592188436e-04
1.892306668945e-04
7.777377675037e-04
8.320959949846e-04
3.871851172260e-04
4.356748855382e-04
4.649351153335e-04
4.876360047285e-04
8.828632385524e-04
9.341495677943e-04
3.091174419050e-04
3.533164358552e-04
9.589921194761e-04
7.506763389708e-04
6.964198853128e-04
5.924515749403e-04
5.794333514803e-04
5.471291622272e-04
5.332999767423e-04
5.650488997628e-04
5.008856059143e-04
6.928231355925e-04
9.520970283546e-04
2.487983641366e-04
2.002270926966e-04
8.057602504697e-04
7.241170925820e-04
7.948209878093e-04
8.095990032989e-04
8.417343443409e-04
8.568218629072e-04
8.890344218380e-04
9.043111335328e-04
8.718500606267e-04
8.888820732131e-04
9.198713711507e-04
8.309517264870e-04
7.509462566452e-04
2.955632329955e-04
1.678810018208e-04
1.687492252459e-04
2.084427728719e-04
2.577350728093e-04
8.585347011475e-04
9.365435108151e-04
9.202193604185e-04
5.188191989389e-04
5.495279027842e-04
9.050328765869e-04
8.109067897570e-04
8.196388848880e-04
7.959505487333e-04
1.554271701862e-04
1.500881696784e-04
9.697793450453e-04
3.982006570399e-04
3.934744369331e-04
1.640047574460e-04
1.253921439250e-04
9.096230026627e-04
9.603112756456e-04
5.164804776459e-04
5.393458498616e-04
8.380597960043e-04
1.903111395248e-04
9.844204340451e-04
7.420031216004e-04
6.880327695890e-04
4.578412513069e-04
3.104459252076e-04
2.640961037114e-04
3.254855257753e-04
2.386554767301e-04
2.296652558233e-04
8.936760038759e-04
9.914241607677e-04
8.871352856480e-04
8.384784402407e-04
9.356640929002e-04
1.431280155045e-04
8.804072183641e-04
7.746441070576e-04
9.660031474178e-04
9.505758064293e-04
4.374991166616e-04
4.310438189065e-04
3.878108042813e-04
4.225017199224e-04
7.474165483361e-04
4.751839610689e-04
7.114378835258e-04
6.924274859847e-04
6.648576231711e-04
5.953436026826e-04
5.790103226590e-04
4.520575719658e-04
6.632104301998e-04
4.941987954366e-04
6.285027787493e-04
6.054952567096e-04
9.743498226951e-04
1.002036305897e-03
8.004999757368e-04
7.765125434319e-04
1.725829478982e-04
1.523840259793e-04
5.624018526462e-04
8.452044055582e-04
9.856199311860e-04
1.006989480188e-03
9.799932627928e-04
8.727742723006e-04
4.308956631552e-04
6.547450778481e-04
1.438241994274e-04
7.433040769116e-04
1.251417366073e-04
8.691709505087e-04
8.299393564129e-04
8.610813278230e-04
9.391084726814e-04
6.799956038375e-04
7.566205786672e-04
7.218263424557e-04
6.455862297119e-04
6.184426076679e-04
6.369482830854e-04
5.906744374918e-04
3.459454443900e-04
3.162255575585e-04
9.875958252509e-04
9.673003326889e-04
9.963012223504e-04
9.812394862765e-04
9.555241279667e-04
9.209414027863e-04
2.779297976138e-04
5.329598334032e-04
1.018460651832e-03
6.725242233101e-04
9.006622266930e-04
8.673079193046e-04
9.612837108420e-05
1.146425252056e-04
1.011434128269e-03
3.785401187380e-04
4.093418605160e-04
3.455298392131e-04
9.443410508444e-04
6.756601504173e-04
8.857085320359e-04
6.252559716769e-04
1.035277917014e-03
7.707284045425e-04
5.578909429032e-04
8.177625971469e-04
9.844958531829e-04
1.039902077881e-03
7.683523157283e-04
7.432453468748e-04
7.908476349079e-04
2.107761933658e-04
1.544520641263e-04
9.794099894308e-04
3.357177284389e-04
3.631958584153e-04
2.099137629968e-04
2.582150839766e-04
5.460493350351e-04
5.238013521572e-04
8.866857424335e-04
9.159720650560e-04
8.261186682250e-04
7.065873426353e-04
6.525990483451e-04
6.346923999147e-04
1.022823815315e-03
1.055762149624e-03
3.765872402663e-04
3.567864553955e-04
3.658962727353e-04
1.039953037207e-03
9.166131900205e-04
8.927618839497e-04
1.062024788144e-04
1.323199623713e-04
2.695805008145e-04
2.201223317163e-04
1.026541266144e-03
1.001059214992e-03
1.057415053537e-03
2.465223782487e-04
8.541646892069e-04
9.266419239960e-04
9.066448608181e-04
9.550608050706e-04
9.219969234222e-04
9.705767890378e-04
9.840157779560e-04
7.786289322120e-05
1.022262882525e-03
7.464960549158e-04
6.206690354660e-05
7.226795215197e-04
7.523684181096e-04
6.960142492044e-04
1.982489188393e-04
7.318235539021e-04
7.630837401780e-04
7.803597430134e-05
1.066186506119e-03
8.185841465145e-05
9.933806473070e-05
9.229061179975e-04
8.890821148620e-04
9.439070991139e-04
9.100610576413e-04
8.555300487019e-04
8.792807980966e-04
7.176827854199e-04
9.417019735932e-04
9.040450029322e-04
9.669961743050e-04
5.725927238427e-04
4.544906149809e-04
4.405597776849e-04
3.926947517625e-04
1.033711763701e-03
1.008103499873e-03
8.003719742327e-04
7.450161616341e-04
7.255284808674e-04
7.224567661743e-04
7.693710567876e-04
7.629296583827e-04
8.098812622399e-04
8.023150271486e-04
8.499008091120e-04
1.017542208738e-03
3.334724680859e-04
6.259159130217e-04
9.718467615829e-04
9.343210910295e-04
5.615784191344e-04
5.160833337366e-04
9.435679020219e-04
4.828874649023e-04
1.093747413478e-03
5.140727074073e-05
8.765087049759e-05
5.205199162966e-04
6.083042533392e-04
4.860215053955e-04
4.728609558684e-04
7.616704810799e-04
1.137213918389e-04
3.102385943696e-04
8.557223393708e-04
2.690623262841e-04
7.735939078889e-04
4.920316934829e-04
6.411830642451e-04
3.510883887749e-04
4.673540930111e-04
7.671630977749e-04
7.271536380189e-04
7.001417119490e-04
5.012800865090e-04
5.036453334450e-04
4.524154928313e-04
7.296076230777e-04
9.530135239372e-04
9.736213057178e-04
1.019435996433e-03
9.935433156638e-04
9.463475797141e-04
9.660897201932e-04
1.012958869780e-03
9.865451387122e-04
1.041205554974e-03
1.004970728474e-03
9.568352065602e-04
9.744506795163e-04
1.018426796565e-03
9.271468671955e-04
1.005540749648e-03
5.676796683546e-04
1.092405581316e-04
1.374769515416e-04
6.713380600075e-04
1.089177039718e-03
1.094250951645e-03
4.035433261822e-04
1.077476174041e-03
7.199876366516e-04
2.638504801458e-04
1.069566627765e-03
9.257023882481e-04
8.977961663870e-04
8.770325220948e-04
1.098832865824e-03
8.147433305168e-04
1.051293404718e-03
7.145114758461e-04
7.001132003364e-04
6.498148797215e-04
9.376268508083e-04
1.025446660659e-03
9.778513112608e-04
9.723285742921e-04
9.262881393422e-04
1.015714144855e-03
1.089012060880e-03
1.087512910845e-03
3.050703394312e-04
3.375092509820e-04
3.897186290829e-04
3.716001135012e-04
3.185672166006e-04
3.542979254792e-04
4.073309600033e-04
3.384933761915e-04
9.628494785424e-04
1.008882675695e-03
6.594625768812e-04
6.385139582605e-04
5.848973516869e-04
4.719689595565e-04
5.015725427745e-04
5.538395349748e-04
4.428187799595e-04
8.240077635580e-04
1.004563079861e-03
6.708765415928e-04
4.793985915148e-04
6.827164252210e-04
7.275049984044e-04
7.285535650208e-04
7.760322505456e-04
7.317252291523e-04
5.685839821530e-04
5.912342431044e-04
5.621846874260e-04
6.138967472449e-04
5.835609702469e-04
5.357100641729e-04
6.355935209252e-04
6.019973514343e-04
6.811483000080e-04
4.558604104657e-05
7.544203703323e-05
7.440344227929e-05
1.106484026582e-04
1.126354979241e-04
1.536130162120e-04
1.471642141774e-04
7.473578710063e-05
4.284174489471e-05
7.377983985135e-05
4.061850026483e-05
7.196451698034e-05
1.162572735675e-04
1.807706746319e-04
9.778324758114e-04
4.571527339630e-04
4.327554654025e-04
3.836502951820e-04
4.101751820032e-04
4.777352819686e-04
3.570146709840e-04
3.390740618364e-04
3.056559157471e-05
6.796246015439e-05
6.459081555649e-05
1.106129841008e-04
1.093072311309e-04
6.855811316703e-05
6.916183154758e-05
3.152137809649e-05
6.918141657405e-05
1.116040938832e-04
3.078896993930e-05
9.169487206846e-04
9.446151342833e-04
9.952658753126e-04
6.858298540184e-04
3.791092872798e-05
1.092792413973e-03
1.100156431362e-03
1.101133016938e-03
8.871176110886e-04
9.152847242845e-04
1.094409243697e-03
2.978975838342e-04
1.038652121962e-03
1.006793516799e-03
2.614495351665e-04
2.872610327606e-04
7.199993117162e-04
6.596205592021e-04
8.371936631543e-04
6.735879477461e-04
7.909893622386e-04
9.630018910782e-04
1.817927751226e-04
8.235202931421e-04
8.043991910505e-04
9.294018436145e-04
3.135178330618e-04
5.122095015268e-04
1.941056478867e-04
1.033229737463e-03
6.832518165730e-04
5.520108499539e-04
4.204959884318e-04
3.265749367307e-04
2.667642189474e-04
6.038734583688e-04
5.097448557673e-04
7.565364314514e-04
9.569755089813e-04
4.091396673887e-05
7.899297871384e-04
6.155932455110e-04
8.426661271613e-04
8.332917438230e-04
1.779193972706e-04
9.473464136619e-04
1.031702145103e-03
7.868969685402e-04
1.458062835653e-04
7.718068280787e-04
9.145014281678e-04
9.318616644749e-04
2.855373291180e-04
6.021079978235e-04
6.563417178082e-04
6.327233763556e-04
1.027946647477e-03
6.736532425807e-04
8.677683371104e-04
7.075303103545e-04
3.077496740161e-04
8.338614061222e-04
6.122427351775e-04
9.968446291230e-04
8.731132191606e-04
4.831129540052e-04
9.641744437529e-04
5.650899270195e-04
8.695529012471e-04
6.546438484066e-04
7.795081858028e-04
8.513839995967e-04
7.301050903691e-04
6.899955537492e-04
8.117587278998e-04
1.943131460034e-04
5.125003711749e-04
8.379345061348e-04
9.508702084129e-04
1.045307354743e-03
6.107016089129e-04
8.005979523851e-04
1.011845675017e-03
5.316452770568e-04
2.108764366168e-04
2.143260902436e-04
3.783875296301e-04
6.374131623813e-04
5.843297185928e-04
1.052290229958e-03
8.231382830416e-04
7.824036162851e-04
1.880384843280e-04
6.527109710530e-04
8.462972031909e-04
6.179467181857e-04
8.848810333909e-04
5.522271585312e-04
1.027222097317e-03
5.445219873977e-04
8.707708122224e-04
7.971690336497e-04
4.443753077641e-04
6.774248476403e-04
9.351073513920e-04
8.527228653632e-04
7.768112347583e-04
5.817146210163e-04
5.798363532100e-04
6.064274889030e-04
8.100003102235e-04
1.100313131906e-03
8.858613292964e-04
8.491620592846e-04
5.759376417266e-04
7.861372871833e-04
1.095103979606e-04
5.994651908887e-04
5.982505463183e-04
3.918042323271e-04
5.993873692278e-04
9.882130663457e-04
6.208359569806e-04
4.445861754452e-04
6.435333252599e-04
5.266265453704e-04
8.698388108864e-04
6.661524418974e-04
8.566822722547e-04
1.161811841348e-04
7.905525383980e-04
8.569344299361e-04
3.857623660478e-04
6.182521410451e-04
9.181827159099e-04
4.723846683618e-04
6.720668758823e-04
9.037208276752e-04
8.049052818864e-04
6.863275571347e-04
7.268298190437e-04
4.884316709628e-04
2.772245105794e-04
2.288905906696e-04
4.598364954914e-04
9.338581265770e-04
1.513020506711e-04
9.088054787334e-04
1.614673475108e-04
4.240083772757e-04
8.719312763246e-04
8.185146872222e-04
4.415957217058e-04
2.597596551731e-04
4.083430179797e-04
7.357816395292e-04
4.276574364353e-04
3.963954171351e-04
1.055815214553e-03
4.163221417131e-04
1.102409814188e-03
9.800441886927e-04
7.167591628978e-04
4.157516788015e-04
4.749601120235e-05
4.312582759474e-04
3.361185687927e-04
8.979329742023e-04
7.187622626155e-04
3.067787853610e-04
1.050103713715e-03
1.061498842514e-03
8.923871084633e-04
9.003797116763e-04
8.210564150443e-04
1.011814233410e-03
6.744632879409e-04
7.125797596893e-05
7.176573504095e-04
3.600716528343e-04
3.627379102755e-04
3.026550209805e-04
3.255186329627e-04
1.096841243772e-04
3.146474667139e-04
9.802552078476e-04
7.220430778135e-04
9.036685316134e-04
2.582960237900e-04
1.058145552454e-03
1.008532925101e-03
9.942184114548e-04
9.537286994480e-04
2.289974707165e-04
7.660697154796e-04
1.037387731071e-03
9.321894531280e-04
9.937578347169e-04
7.165487402325e-04
1.062326041079e-03
1.646187812329e-04
1.062899416468e-03
9.451597782206e-04
7.820209582761e-04
7.638873469464e-04
9.427169503607e-04
1.054136443403e-03
1.701442115113e-04
8.893969070548e-04
4.106567739700e-04
6.810935548239e-05
9.492834787100e-04
9.899218372855e-04
9.408213682573e-04
1.089860810380e-04
6.622591858204e-05
9.638463933446e-04
1.049910017637e-03
1.881292625097e-04
1.108506562928e-03
1.027153082446e-04
6.694976486447e-04
6.611429456473e-05
9.906375562288e-04
1.064403279666e-03
4.548423662205e-04
6.850057046778e-04
2.933290162672e-04
9.904690644949e-04
1.023765471125e-04
1.069386317724e-03
9.741544155493e-04
1.066627344387e-03
1.049679217459e-03
6.558521967368e-05
1.026961605270e-03
9.313406046651e-04
6.737506324915e-04
1.057982683007e-03
3.652229536289e-04
1.488641580495e-04
1.107527215280e-03
2.345111079690e-05
6.703065878257e-04
9.922041937902e-04
1.410250216401e-04
7.543995240169e-04
1.054789507011e-03
5.661165416046e-04
9.829967045578e-04
1.386382072102e-04
4.281366132119e-05
8.453096228158e-04
1.012131674483e-03
1.070683424552e-03
8.100749755182e-04
1.792469160274e-04
1.025909465338e-03
4.931687996776e-04
1.005409995745e-03
9.438639335962e-04
7.877530218619e-05
6.120009036682e-04
6.310973268689e-05
9.564907446998e-04
5.158768966404e-04
1.712847805215e-04
1.901840170023e-04
2.288210358692e-04
2.424594204484e-04
2.845087466033e-04
2.906142367806e-04
3.395415259516e-04
3.459215271074e-04
3.938298321633e-04
3.955432170701e-04
4.480428284784e-04
4.511713490721e-04
5.014841014257e-04
5.008530512572e-04
5.543713797014e-04
5.562545745316e-04
6.068571513939e-04
6.058548575321e-04


CELL_DATA 2360

SCALARS element_number int
LOOKUP_TABLE default
407
408
409
410
411
412
413
414
415
416
417
418
419
420
421
422
423
424
425
426
427
428
429
430
431
432
433
434
435
436
437
438
439
440
441
442
443
444
445
446
447
448
449
450
451
452
453
454
455
456
457
458
459
460
461
462
463
464
465
466
467
468
469
470
471
472
473
474
475
476
477
478
479
480
481
482
483
484
485
486
487
488
489
490
491
492
493
494
495
496
497
498
499
500
501
502
503
504
505
506
507
508
509
510
511
512
513
514
515
516
517
518
519
520
521
522
523
524
525
526
527
528
529
530
531
532
533
534
535
536
537
538
539
540
541
542
543
544
545
546
547
548
549
550
551
552
553
554
555
556
557
558
559
560
561
562
563
564
565
566
567
568
569
570
571
572
573
574
575
576
577
578
579
580
581
582
583
584
585
586
587
588
589
590
591
592
593
594
595
596
597
598
599
600
601
602
603
604
605
606
607
608
609
610
611
612
613
614
615
616
617
618
619
620
621
622
623
624
625
626
627
628
629
630
631
632
633
634
635
636
637
638
639
640
641
642
643
644
645
646
647
648
649
650
651
652
653
654
655
656
657
658
659
660
661
662
663
664
665
666
667
668
669
670
671
672
673
674
675
676
677
678
679
680
681
682
683
684
685
686
687
688
689
690
691
692
693
694
695
696
697
698
699
700
701
702
703
704
705
706
707
708
709
710
711
712
713
714
715
716
717
718
719
720
721
722
723
724
725
726
727
728
729
730
731
732
733
734
735
736
737
738
739
740
741
742
743
744
745
746
747
748
749
750
751
752
753
754
755
756
757
758
759
760
761
762
763
764
765
766
767
768
769
770
771
772
773
774
775
776
777
778
779
780
781
782
783
784
785
786
787
788
789
790
791
792
793
794
795
796
797
798
799
800
801
802
803
804
805
806
807
808
809
810
811
812
813
814
815
816
817
818
819
820
821
822
823
824
825
826
827
828
829
830
831
832
833
834
835
836
837
838
839
840
841
842
843
844
845
846
847
848
849
850
851
852
853
854
855
856
857
858
859
860
861
862
863
864
865
866
867
868
869
870
871
872
873
874
875
876
877
878
879
880
881
882
883
884
885
886
887
888
889
890
891
892
893
894
895
896
897
898
899
900
901
902
903
904
905
906
907
908
909
910
911
912
913
914
915
916
917
918
919
920
921
922
923
924
925
926
927
928
929
930
931
932
933
934
935
936
937
938
939
940
941
942
943
944
945
946
947
948
949
950
951
952
953
954
955
956
957
958
959
960
961
962
963
964
965
966
967
968
969
970
971
972
973
974
975
976
977
978
979
980
981
982
983
984
985
986
987
988
989
990
991
992
993
994
995
996
997
998
999
1000
1001
1002
1003
1004
1005
1006
1007
1008
1009
1010
1011
1012
1013
1014
1015
1016
1017
1018
1019
1020
1021
1022
1023
1024
1025
1026
1027
1028
1029
1030
1031
1032
1033
1034
1035
1036
1037
1038
1039
1040
1041
1042
1043
1044
1045
1046
1047
1048
1049
1050
1051
1052
1053
1054
1055
1056
1057
1058
1059
1060
1061
1062
1063
1064
1065
1066
1067
1068
1069
1070
1071
1072
1073
1074
1075
1076
1077
1078
1079
1080
1081
1082
1083
1084
1085
1086
1087
1088
1089
1090
1091
1092
1093
1094
1095
1096
1097
1098
1099
1100
1101
1102
1103
1104
1105
1106
1107
1108
1109
1110
1111
1112
1113
1114
1115
1116
1117
1118
1119
1120
1121
1122
1123
1124
1125
1126
1127
1128
1129
1130
1131
1132
1133
1134
1135
1136
1137
1138
1139
1140
1141
1142
1143
1144
1145
1146
1147
1148
1149
1150
1151
1152
1153
1154
1155
1156
1157
1158
1159
1160
1161
1162
1163
1164
1165
1166
1167
1168
1169
1170
1171
1172
1173
1174
1175
1176
1177
1178
1179
1180
1181
1182
1183
1184
1185
1186
1187
1188
1189
1190
1191
1192
1193
1194
1195
1196
1197
1198
1199
1200
1201
1202
1203
1204
1205
1206
1207
1208
1209
1210
1211
1212
1213
1214
1215
1216
1217
1218
1219
1220
1221
1222
1223
1224
1225
1226
1227
1228
1229
1230
1231
1232
1233
1234
1235
1236
1237
1238
1239
1240
1241
1242
1243
1244
1245
1246
1247
1248
1249
1250
1251
1252
1253
1254
1255
1256
1257
1258
1259
1260
1261
1262
1263
1264
1265
1266
1267
1268
1269
1270
1271
1272
1273
1274
1275
1276
1277
1278
1279
1280
1281
1282
1283
1284
1285
1286
1287
1288
1289
1290
1291
1292
1293
1294
1295
1296
1297
1298
1299
1300
1301
1302
1303
1304
1305
1306
1307
1308
1309
1310
1311
1312
1313
1314
1315
1316
1317
1318
1319
1320
1321
1322
1323
1324
1325
1326
1327
1328
1329
1330
1331
1332
1333
1334
1335
1336
1337
1338
1339
1340
1341
1342
1343
1344
1345
1346
1347
1348
1349
1350
1351
1352
1353
1354
1355
1356
1357
1358
1359
1360
1361
1362
1363
1364
1365
1366
1367
1368
1369
1370
1371
1372
1373
1374
1375
1376
1377
1378
1379
1380
1381
1382
1383
1384
1385
1386
1387
1388
1389
1390
1391
1392
1393
1394
1395
1396
1397
1398
1399
1400
1401
1402
1403
1404
1405
1406
1407
1408
1409
1410
1411
1412
1413
1414
1415
1416
1417
1418
1419
1420
1421
1422
1423
1424
1425
1426
1427
1428
1429
1430
1431
1432
1433
1434
1435
1436
1437
1438
1439
1440
1441
1442
1443
1444
1445
1446
1447
1448
1449
1450
1451
1452
1453
1454
1455
1456
1457
1458
1459
1460
1461
1462
1463
1464
1465
1466
1467
1468
1469
1470
1471
1472
1473
1474
1475
1476
1477
1478
1479
1480
1481
1482
1483
1484
1485
1486
1487
1488
1489
1490
1491
1492
1493
1494
1495
1496
1497
1498
1499
1500
1501
1502
1503
1504
1505
1506
1507
1508
1509
1510
1511
1512
1513
1514
1515
1516
1517
1518
1519
1520
1521
1522
1523
1524
1525
1526
1527
1528
1529
1530
1531
1532
1533
1534
1535
1536
1537
1538
1539
1540
1541
1542
1543
1544
1545
1546
1547
1548
1549
1550
1551
1552
1553
1554
1555
1556
1557
1558
1559
1560
1561
1562
1563
1564
1565
1566
1567
1568
1569
1570
1571
1572
1573
1574
1575
1576
1577
1578
1579
1580
1581
1582
1583
1584
1585
1586
1587
1588
1589
1590
1591
1592
1593
1594
1595
1596
1597
1598
1599
1600
1601
1602
1603
1604
1605
1606
1607
1608
1609
1610
1611
1612
1613
1614
1615
1616
1617
1618
1619
1620
1621
1622
1623
1624
1625
1626
1627
1628
1629
1630
1631
1632
1633
1634
1635
1636
1637
1638
1639
1640
1641
1642
1643
1644
1645
1646
1647
1648
1649
1650
1651
1652
1653
1654
1655
1656
1657
1658
1659
1660
1661
1662
1663
1664
1665
1666
1667
1668
1669
1670
1671
1672
1673
1674
1675
1676
1677
1678
1679
1680
1681
1682
1683
1684
1685
1686
1687
1688
1689
1690
1691
1692
1693
1694
1695
1696
1697
1698
1699
1700
1701
1702
1703
1704
1705
1706
1707
1708
1709
1710
1711
1712
1713
1714
1715
1716
1717
1718
1719
1720
1721
1722
1723
1724
1725
1726
1727
1728
1729
1730
1731
1732
1733
1734
1735
1736
1737
1738
1739
1740
1741
1742
1743
1744
1745
1746
1747
1748
1749
1750
1751
1752
1753
1754
1755
1756
1757
1758
1759
1760
1761
1762
1763
1764
1765
1766
1767
1768
1769
1770
1771
1772
1773
1774
1775
1776
1777
1778
1779
1780
1781
1782
1783
1784
1785
1786
1787
1788
1789
1790
1791
1792
1793
1794
1795
1796
1797
1798
1799
1800
1801
1802
1803
1804
1805
1806
1807
1808
1809
1810
1811
1812
1813
1814
1815
1816
1817
1818
1819
1820
1821
1822
1823
1824
1825
1826
1827
1828
1829
1830
1831
1832
1833
1834
1835
1836
1837
1838
1839
1840
1841
1842
1843
1844
1845
1846
1847
1848
1849
1850
1851
1852
1853
1854
1855
1856
1857
1858
1859
1860
1861
1862
1863
1864
1865
1866
1867
1868
1869
1870
1871
1872
1873
1874
1875
1876
1877
1878
1879
1880
1881
1882
1883
1884
1885
1886
1887
1888
1889
1890
1891
1892
1893
1894
1895
1896
1897
1898
1899
1900
1901
1902
1903
1904
1905
1906
1907
1908
1909
1910
1911
1912
1913
1914
1915
1916
1917
1918
1919
1920
1921
1922
1923
1924
1925
1926
1927
1928
1929
1930
1931
1932
1933
1934
1935
1936
1937
1938
1939
1940
1941
1942
1943
1944
1945
1946
1947
1948
1949
1950
1951
1952
1953
1954
1955
1956
1957
1958
1959
1960
1961
1962
1963
1964
1965
1966
1967
1968
1969
1970
1971
1972
1973
1974
1975
1976
1977
1978
1979
1980
1981
1982
1983
1984
1985
1986
1987
1988
1989
1990
1991
1992
1993
1994
1995
1996
1997
1998
1999
2000
2001
2002
2003
2004
2005
2006
2007
2008
2009
2010
2011
2012
2013
2014
2015
2016
2017
2018
2019
2020
2021
2022
2023
2024
2025
2026
2027
2028
2029
2030
2031
2032
2033
2034
2035
2036
2037
2038
2039
2040
2041
2042
2043
2044
2045
2046
2047
2048
2049
2050
2051
2052
2053
2054
2055
2056
2057
2058
2059
2060
2061
2062
2063
2064
2065
2066
2067
2068
2069
2070
2071
2072
2073
2074
2075
2076
2077
2078
2079
2080
2081
2082
2083
2084
2085
2086
2087
2088
2089
2090
2091
2092
2093
2094
2095
2096
2097
2098
2099
2100
2101
2102
2103
2104
2105
2106
2107
2108
2109
2110
2111
2112
2113
2114
2115
2116
2117
2118
2119
2120
2121
2122
2123
2124
2125
2126
2127
2128
2129
2130
2131
2132
2133
2134
2135
2136
2137
2138
2139
2140
2141
2142
2143
2144
2145
2146
2147
2148
2149
2150
2151
2152
2153
2154
2155
2156
2157
2158
2159
2160
2161
2162
2163
2164
2165
2166
2167
2168
2169
2170
2171
2172
2173
2174
2175
2176
2177
2178
2179
2180
2181
2182
2183
2184
2185
2186
2187
2188
2189
2190
2191
2192
2193
2194
2195
2196
2197
2198
2199
2200
2201
2202
2203
2204
2205
2206
2207
2208
2209
2210
2211
2212
2213
2214
2215
2216
2217
2218
2219
2220
2221
2222
2223
2224
2225
2226
2227
2228
2229
2230
2231
2232
2233
2234
2235
2236
2237
2238
2239
2240
2241
2242
2243
2244
2245
2246
2247
2248
2249
2250
2251
2252
2253
2254
2255
2256
2257
2258
2259
2260
2261
2262
2263
2264
2265
2266
2267
2268
2269
2270
2271
2272
2273
2274
2275
2276
2277
2278
2279
2280
2281
2282
2283
2284
2285
2286
2287
2288
2289
2290
2291
2292
2293
2294
2295
2296
2297
2298
2299
2300
2301
2302
2303
2304
2305
2306
2307
2308
2309
2310
2311
2312
2313
2314
2315
2316
2317
2318
2319
2320
2321
2322
2323
2324
2325
2390
2391
2392
2393
2394
2395
2396
2397
2398
2399
2400
2401
2402
2403
2404
2405
2406
2407
2408
2409
2410
2411
2412
2413
2414
2415
2416
2417
2418
2419
2420
2421
2422
2423
2424
2425
2426
2427
2428
2429
2430
2431
2432
2433
2434
2435
2436
2437
2438
2439
2440
2441
2442
2443
2444
2445
2446
2447
2448
2449
2450
2451
2452
2453
2454
2455
2456
2457
2458
2459
2460
2461
2462
2463
2464
2465
2466
2467
2468
2469
2470
2471
2472
2473
2474
2475
2476
2477
2478
2479
2480
2481
2482
2483
2484
2485
2486
2487
2488
2489
2490
2491
2492
2493
2494
2495
2496
2497
2498
2499
2500
2501
2502
2503
2504
2505
2506
2507
2508
2509
2510
2511
2512
2513
2514
2515
2516
2517
2518
2519
2520
2521
2522
2523
2524
2525
2526
2527
2528
2529
2530
2531
2532
2533
2534
2535
2536
2537
2538
2539
2540
2541
2542
2543
2544
2545
2546
2547
2548
2549
2550
2551
2552
2553
2554
2555
2556
2557
2558
2559
2560
2561
2562
2563
2564
2565
2566
2567
2568
2569
2570
2571
2572
2573
2574
2575
2576
2577
2578
2579
2580
2581
2582
2583
2584
2585
2586
2587
2588
2589
2590
2591
2592
2593
2594
2595
2596
2597
2598
2599
2600
2601
2602
2603
2604
2605
2606
2607
2608
2609
2610
2611
2612
2613
2614
2615
2616
2617
2618
2619
2620
2621
2622
2623
2624
2625
2626
2627
2628
2629
2630
2631
2632
2633
2634
2635
2636
2637
2638
2639
2640
2641
2642
2643
2644
2645
2646
2647
2648
2649
2650
2651
2652
2653
2654
2655
2656
2657
2658
2659
2660
2661
2662
2663
2664
2665
2666
2667
2668
2669
2670
2671
2672
2673
2674
2675
2676
2677
2678
2679
2680
2681
2682
2683
2684
2685
2686
2687
2688
2689
2690
2691
2692
2693
2694
2695
2696
2697
2698
2699
2700
2701
2702
2703
2704
2705
2706
2707
2708
2709
2710
2711
2712
2713
2714
2715
2716
2717
2718
2719
2720
2721
2722
2723
2724
2725
2726
2727
2728
2729
2730
2731
2732
2733
2734
2735
2736
2737
2738
2739
2740
2741
2742
2743
2744
2745
2746
2747
2748
2749
2750
2751
2752
2753
2754
2755
2756
2757
2758
2759
2760
2761
2762
2763
2764
2765
2766
2767
2768
2769
2770
2771
2772
2773
2774
2775
2776
2777
2778
2779
2780
2781
2782
2783
2784
2785
2786
2787
2788
2789
2790
2791
2792
2793
2794
2795
2796
2797
2798
2799
2800
2801
2802
2803
2804
2805
2806
2807
2808
2809
2810
2811
2812
2813
2814
2815
2816
2817
2818
2819
2820
2821
2822
2823
2824
2825
2826
2827
2828
2829
2830

SCALARS element_group int
LOOKUP_TABLE default
0
0
0
0
0
0
0
0
0
0
0
0
0
0
0
0
0
0
0
0
0
0
0
0
0
0
0
0
0
0
0
0
0
0
0
0
0
0
0
0
0
0
0
0
0
0
0
0
0
0
0
0
0
0
0
0
0
0
0
0
0
0
0
0
0
0
0
0
0
0
0
0
0
0
0
0
0
0
0
0
0
0
0
0
0
0
0
0
0
0
0
0
0
0
0
0
0
0
0
0
0
0
0
0
0
0
0
0
0
0
0
0
0
0
0
0
0
0
0
0
0
0
0
0
0
0
0
0
0
0
0
0
0
0
0
0
0
0
0
0
0
0
0
0
0
0
0
0
0
0
0
0
0
0
0
0
0
0
0
0
0
0
0
0
0
0
0
0
0
0
0
0
0
0
0
0
0
0
0
0
0
0
0
0
0
0
0
0
0
0
0
0
0
0
0
0
0
0
0
0
0
0
0
0
0
0
0
0
0
0
0
0
0
0
0
0
0
0
0
0
0
0
0
0
0
0
0
0
0
0
0
0
0
0
0
0
0
0
0
0
0
0
0
0
0
0
0
0
0
0
0
0
0
0
0
0
0
0
0
0
0
0
0
0
0
0
0
0
0
0
0
0
0
0
0
0
0
0
0
0
0
0
0
0
0
0
0
0
0
0
0
0
0
0
0
0
0
0
0
0
0
0
0
0
0
0
0
0
0
0
0
0
0
0
0
0
0
0
0
0
0
0
0
0
0
0
0
0
0
0
0
0
0
0
0
0
0
0
0
0
0
0
0
0
0
0
0
0
0
0
0
0
0
0
0
0
0
0
0
0
0
0
0
0
0
0
0
0
0
0
0
0
0
0
0
0
0
0
0
0
0
0
0
0
0
0
0
0
0
0
0
0
0
0
0
0
0
0
0
0
0
0
0
0
0
0
0
0
0
0
0
0
0
0
0
0
0
0
0
0
0
0
0
0
0
0
0
0
0
0
0
0
0
0
0
0
0
0
0
0
0
0
0
0
0
0
0
0
0
0
0
0
0
0
0
0
0
0
0
0
0
0
0
0
0
0
0
0
0
0
0
0
0
0
0
0
0
0
0
0
0
0
0
0
0
0
0
0
0
0
0
0
0
0
0
0
0
0
0
0
0
0
0
0
0
0
0
0
0
0
0
0
0
0
0
0
0
0
0
0
0
0
0
0
0
0
0
0
0
0
0
0
0
0
0
0
0
0
0
0
0
0
0
0
0
0
0
0
0
0
0
0
0
0
0
0
0
0
0
0
0
0
0
0
0
0
0
0
0
0
0
0
0
0
0
0
0
0
0
0
0
0
0
0
0
0
0
0
0
0
0
0
0
0
0
0
0
0
0
0
0
0
0
0
0
0
0
0
0
0
0
0
0
0
0
0
0
0
0
0
0
0
0
0
0
0
0
0
0
0
0
0
0
0
0
0
0
0
0
0
0
0
0
0
0
0
0
0
0
0
0
0
0
0
0
0
0
0
0
0
0
0
0
0
0
0
0
0
0
0
0
0
0
0
0
0
0
0
0
0
0
0
0
0
0
0
0
0
0
0
0
0
0
0
0
0
0
0
0
0
0
0
0
0
0
0
0
0
0
0
0
0
0
0
0
0
0
0
0
0
0
0
0
0
0
0
0
0
0
0
0
0
0
0
0
0
0
0
0
0
0
0
0
0
0
0
0
0
0
0
0
0
0
0
0
0
0
0
0
0
0
0
0
0
0
0
0
0
0
0
0
0
0
0
0
0
0
0
0
0
0
0
0
0
0
0
0
0
0
0
0
0
0
0
0
0
0
0
0
0
0
0
0
0
0
0
0
0
0
0
0
0
0
0
0
0
0
0
0
0
0
0
0
0
0
0
0
0
0
0
0
0
0
0
0
0
0
0
0
0
0
0
0
0
0
0
0
0
0
0
0
0
0
0
0
0
0
0
0
0
0
0
0
0
0
0
0
0
0
0
0
0
0
0
0
0
0
0
0
0
0
0
0
0
0
0
0
0
0
0
0
0
0
0
0
0
0
0
0
0
0
0
0
0
0
0
0
0
0
0
0
0
0
0
0
0
0
0
0
0
0
0
0
0
0
0
0
0
0
0
0
0
0
0
0
0
0
0
0
0
0
0
0
0
0
0
0
0
0
0
0
0
0
0
0
0
0
0
0
0
0
0
0
0
0
0
0
0
0
0
0
0
0
0
0
0
0
0
0
0
0
0
0
0
0
0
0
0
0
0
0
0
0
0
0
0
0
0
0
0
0
0
0
0
0
0
0
0
0
0
0
0
0
0
0
0
0
0
0
0
0
0
0
0
0
0
0
0
0
0
0
0
0
0
0
0
0
0
0
0
0
0
0
0
0
0
0
0
0
0
0
0
0
0
0
0
0
0
0
0
0
0
0
0
0
0
0
0
0
0
0
0
0
0
0
0
0
0
0
0
0
0
0
0
0
0
0
0
0
0
0
0
0
0
0
0
0
0
0
0
0
0
0
0
0
0
0
0
0
0
0
0
0
0
0
0
0
0
0
0
0
0
0
0
0
0
0
0
0
0
0
0
0
0
0
0
0
0
0
0
0
0
0
0
0
0
0
0
0
0
0
0
0
0
0
0
0
0
0
0
0
0
0
0
0
0
0
0
0
0
0
0
0
0
0
0
0
0
0
0
0
0
0
0
0
0
0
0
0
0
0
0
0
0
0
0
0
0
0
0
0
0
0
0
0
0
0
0
0
0
0
0
0
0
0
0
0
0
0
0
0
0
0
0
0
0
0
0
0
0
0
0
0
0
0
0
0
0
0
0
0
0
0
0
0
0
0
0
0
0
0
0
0
0
0
0
0
0
0
0
0
0
0
0
0
0
0
0
0
0
0
0
0
0
0
0
0
0
0
0
0
0
0
0
0
0
0
0
0
0
0
0
0
0
0
0
0
0
0
0
0
0
0
0
0
0
0
0
0
0
0
0
0
0
0
0
0
0
0
0
0
0
0
0
0
0
0
0
0
0
0
0
0
0
0
0
0
0
0
0
0
0
0
0
0
0
0
0
0
0
0
0
0
0
0
0
0
0
0
0
0
0
0
0
0
0
0
0
0
0
0
0
0
0
0
0
0
0
0
0
0
0
0
0
0
0
0
0
0
0
0
0
0
0
0
0
0
0
0
0
0
0
0
0
0
0
0
0
0
0
0
0
0
0
0
0
0
0
0
0
0
0
0
0
0
0
0
0
0
0
0
0
0
0
0
0
0
0
0
0
0
0
0
0
0
0
0
0
0
0
0
0
0
0
0
0
0
0
0
0
0
0
0
0
0
0
0
0
0
0
0
0
0
0
0
0
0
0
0
0
0
0
0
0
0
0
0
0
0
0
0
0
0
0
0
0
0
0
0
0
0
0
0
0
0
0
0
0
0
0
0
0
0
0
0
0
0
0
0
0
0
0
0
0
0
0
0
0
0
0
0
0
0
0
0
0
0
0
0
0
0
0
0
0
0
0
0
0
0
0
0
0
0
0
0
0
0
0
0
0
0
0
0
0
0
0
0
0
0
0
0
0
0
0
0
0
0
0
0
0
0
0
0
0
0
0
0
0
0
0
0
0
0
0
0
0
0
0
0
0
0
0
0
0
0
0
0
0
0
0
0
0
0
0
0
0
0
0
0
0
0
0
0
0
0
0
0
0
0
0
0
0
0
0
0
0
0
0
0
0
0
0
0
0
0
0
0
0
0
0
0
0
0
0
0
0
0
0
0
0
0
0
0
0
0
0
0
0
0
0
0
0
0
0
0
0
0
0
0
0
0
0
0
0
0
0
0
0
0
0
0
0
0
0
0
0
0
0
0
0
0
0
0
0
0
0
0
0
0
0
0
0
0
0
0
0
0
0
0
0
0
0
0
0
0
0
0
0
0
0
0
0
0
0
0
0
0
0
0
0
0
0
0
0
0
0
0
0
0
0
0
0
0
0
0
0
0
0
0
0
0
0
0
0
0
0
0
0
0
0
0
0
0
0
0
0
0
0
0
0
0
0
0
0
0
0
0
0
0
0
0
0
0
0
0
0
0
0
0
0
0
0
0
0
0
0
0
0
0
0
0
0
0
0
0
0
0
0
0
0
0
0
0
0
0
0
0
0
0
0
0
0
0
0
0
0
0
0
0
0
0
0
0
0
0
0
0
0
0
0
0
0
0
0
0
0
0
0
0
0
0
0
0
0
0
0
0
0
0
0
0
0
0
0
0
0
0
0
0
0
0
0
0
0
0
0
0
0
0
0
0
0
0
0
0
0
0
0
0
0
0
0
0
0
0
0
0
0
0
0
0
0
0
0
0
0
0
0
0
0
0
0
0
0
0
0
0
0
0
0
0
0
0
0
0
0
0
0
0
0
0
0
0
0
0
0
0
0
0
0
0
0
0
0
0
0
0
0
0
0
0
0
0
0
0
0
0
0
0
0
0
0
0
0
0
0
0
0
0
0
0
0
0
0
0
0
0
0
0
0
0
0
0
0
0
0
0
0
0
0
0
0
0
0
0
0
0
0
0
0
0
0
0
0
0
0
0
0
0
0
0
0
0
0
0
0
0
0
0
0
0
0
0
0
0
0
0
0
0
0
0
0
0
0
0
0
0
0
0
0
0
0
0
0
0
0
0
0
0
0
0
0
0
0
0
0
0
0
0
0
0
0
0
0
0
0
0
0
0
0
0
0
0
0
0
0
0
0
0
0
0
0
0
0
0
0
0
0
0
0
0
0
0
0
0
0
0
0
0
0
0
0
0
0
0
0
0
0
0
0
0
0
0
0
0
0
0
0
0
0
0
0
0
0
0
0
0
0
0
0
0
0
0
0
0
0
0
0
0
0
0
0
0
0
0
0
0
0
0
0
0
0
0
0
0
0
0
0
0
0
0
0
0
0
0
0
0
0
0
0
0
0
0
0
0
0
0
0
0
0
0
0
0
0
0
0
0
0
0
0
0
0
0
0
0
0
0
0
0
0
0
0
0
0
0
0
0
0
0
0
0
0
0
0
0
0
0
0
0
0
0
0
0
0
0
0
0
0
0
0
0
0
0
0
0
0
0
0
0
0
0
0
0
0
0
0
0
0
0
0
0
0
0
0
0
0
0
0
0
0
0
0
0
0
0
0
0
0
0
0
0
0
0
0
0
0
0
0
0
0
0
0
0
0
0
0
0
0
0
0
0
0
0
0
0
0
0
0
0
0
0
0
0
0
0
0
0
0
0
0
0
0
0
0
0
0
0
0
0
0
0
0
0
0
0
0
0
0
0
0
0
0
0
0
0
0
0
0
0
0
0
0
0
0
0
0
0
0
0
0


VECTORS element_materi_velocity float
3.285997472297e-04 1.799303796683e-03 0.0 
3.455837060810e-04 1.745535355270e-03 0.0 
7.483939952922e-05 1.583738055007e-04 0.0 
1.012967811687e-05 2.261710405440e-04 0.0 
1.054716488933e-04 1.256496337138e-03 0.0 
1.049891601726e-04 9.314985252063e-04 0.0 
7.902901034314e-05 1.246305093767e-03 0.0 
3.408097538226e-04 1.754605151090e-03 0.0 
8.759291412970e-05 1.253651287996e-03 0.0 
1.476892360440e-05 2.314708846754e-04 0.0 
3.534612002692e-05 -2.753244501355e-05 0.0 
3.160654107516e-04 1.818658955037e-03 0.0 
1.631522631230e-05 7.500924651628e-06 0.0 
1.587824869793e-04 1.118833466699e-03 0.0 
1.348893390932e-05 6.353306511337e-06 0.0 
8.155103817795e-06 1.599128707126e-04 0.0 
1.372675589281e-04 1.304151616145e-03 0.0 
1.023654567602e-04 8.201977982156e-04 0.0 
1.677392024246e-05 -1.260748920355e-04 0.0 
1.418062115343e-05 -1.249231651888e-04 0.0 
1.751401198014e-05 2.371417425702e-04 0.0 
3.356865670895e-04 1.745888311082e-03 0.0 
3.461445283572e-04 1.690232975474e-03 0.0 
1.740710746534e-04 7.824936572687e-05 0.0 
1.810349928870e-04 9.722492419527e-04 0.0 
3.899690831977e-05 -2.093518473664e-05 0.0 
2.207423094407e-04 1.416328897175e-03 0.0 
1.321288394386e-04 1.360595758341e-04 0.0 
1.920233166887e-04 9.723669748230e-04 0.0 
1.437333713198e-04 6.271902589778e-05 0.0 
1.049228048715e-04 2.856653252564e-04 0.0 
-1.027123750530e-06 -3.811869791295e-05 0.0 
8.604798088625e-05 1.934628082357e-04 0.0 
1.122518028082e-05 5.997455151398e-07 0.0 
8.117774704112e-05 2.429329372823e-05 0.0 
2.416719654194e-05 6.962688241228e-06 0.0 
2.224946864076e-05 6.492851895915e-06 0.0 
1.386294108863e-04 8.907739811098e-05 0.0 
6.567522011190e-05 1.390660054382e-03 0.0 
5.963391621915e-05 1.392787232137e-03 0.0 
3.320917795090e-04 1.604750022589e-03 0.0 
7.608117075236e-05 2.614610085651e-05 0.0 
2.908843525639e-04 1.803105428610e-03 0.0 
2.296587926185e-04 1.365739255262e-03 0.0 
5.448824094590e-06 3.201455061123e-04 0.0 
3.010977758464e-04 1.742644371440e-03 0.0 
5.722624699245e-05 2.886419022439e-04 0.0 
6.184962673446e-06 2.720018428101e-04 0.0 
-2.370506277917e-05 2.420117343986e-04 0.0 
1.567073494100e-04 1.187896304812e-03 0.0 
3.407151858217e-04 1.650779904258e-03 0.0 
2.018443567529e-05 -1.201377096093e-04 0.0 
2.158280799969e-04 3.196210114264e-04 0.0 
3.272683725636e-04 1.666140533948e-03 0.0 
5.377756100598e-05 1.586882813602e-04 0.0 
4.154123025301e-05 -1.037567417062e-04 0.0 
1.697816702502e-05 -1.180104830653e-04 0.0 
2.272245136540e-05 8.856738525143e-07 0.0 
2.796686838088e-05 -1.184558040804e-04 0.0 
9.757640876115e-06 1.612381611868e-04 0.0 
-8.382919749601e-05 3.853695790781e-04 0.0 
2.078579059971e-04 1.890397950429e-04 0.0 
4.368064570375e-04 1.407511735341e-03 0.0 
1.790397548054e-04 2.974435053861e-04 0.0 
2.641899070124e-05 8.697932038142e-06 0.0 
3.325955097687e-04 1.711636381197e-03 0.0 
-6.452140353682e-05 4.352375001602e-04 0.0 
9.279500047422e-05 1.887770708479e-04 0.0 
8.941190253442e-05 3.749567019694e-05 0.0 
9.446666003457e-05 1.336537066528e-04 0.0 
5.848320217546e-05 -1.270229050725e-05 0.0 
9.209069696807e-06 4.539441479443e-05 0.0 
1.734420863535e-04 1.852202915736e-04 0.0 
1.061923602945e-06 -1.361650368380e-04 0.0 
3.810591313569e-05 -1.008328233862e-04 0.0 
3.296002227078e-05 2.082908359763e-04 0.0 
6.718853153834e-05 1.924603261817e-04 0.0 
2.402743488076e-04 1.640960581646e-03 0.0 
3.447709455295e-05 -1.142177470967e-04 0.0 
2.322821018052e-04 1.728428188555e-03 0.0 
9.771939882447e-05 6.327124404408e-05 0.0 
1.288205749989e-04 1.264305012099e-03 0.0 
3.476902642942e-04 1.722767350561e-03 0.0 
3.316510095848e-04 1.785692394935e-03 0.0 
9.886146252490e-05 1.170857497497e-03 0.0 
9.046213794018e-05 1.166426329407e-03 0.0 
3.439893848444e-05 -1.056897893081e-05 0.0 
6.039795105926e-06 -2.756206017426e-06 0.0 
2.268249125184e-04 5.374242732711e-04 0.0 
1.135660639199e-04 1.250995541763e-03 0.0 
6.347025588223e-06 -2.386132189132e-05 0.0 
2.191497043005e-04 1.237360267556e-03 0.0 
1.664039021072e-05 6.384813683301e-04 0.0 
2.020755675144e-05 6.900296288648e-04 0.0 
1.828920759562e-05 8.426764696681e-05 0.0 
9.901154404294e-05 6.336835975226e-05 0.0 
1.449935593841e-04 1.268602795450e-03 0.0 
8.811691806543e-05 2.926164053901e-05 0.0 
1.255365653668e-05 1.011861290170e-03 0.0 
4.168126490210e-04 1.493416698027e-03 0.0 
1.026140053301e-04 1.329821173713e-03 0.0 
1.728915658904e-05 6.836311626571e-06 0.0 
3.751947082691e-04 3.654698596505e-04 0.0 
2.104565475762e-04 1.825962964159e-04 0.0 
4.494774037935e-04 1.336882761829e-03 0.0 
2.697693944558e-05 2.396523970970e-04 0.0 
1.890822337684e-05 7.241012550885e-06 0.0 
1.677884037546e-05 5.505058957844e-04 0.0 
-5.757585219552e-05 2.864296014510e-04 0.0 
3.128568055453e-05 9.259858867109e-06 0.0 
2.501266923147e-04 6.053094249367e-04 0.0 
1.318332431867e-06 -1.366063911869e-04 0.0 
5.072120303289e-04 1.030071216524e-03 0.0 
2.764106226412e-04 1.381002226357e-03 0.0 
7.113382450585e-05 -7.869324646053e-05 0.0 
4.057687673620e-04 1.543105674628e-03 0.0 
4.489656482702e-04 1.365767854942e-03 0.0 
5.823511009463e-05 1.767551090115e-05 0.0 
1.595207859609e-05 1.073879891809e-03 0.0 
4.401856061824e-04 1.410156429348e-03 0.0 
6.930045184780e-05 -2.330557692973e-05 0.0 
2.290452483784e-04 1.275272834254e-03 0.0 
1.322330259971e-05 5.049008538269e-04 0.0 
4.516433400689e-04 1.359163661637e-03 0.0 
1.274380879502e-04 1.401668677408e-03 0.0 
3.076977695241e-04 1.502185797733e-03 0.0 
6.138316554229e-05 -8.404051101979e-05 0.0 
3.069116436685e-04 1.565962102332e-03 0.0 
2.492671391609e-05 1.476282338174e-04 0.0 
1.875544209836e-04 1.299704792888e-03 0.0 
5.469801545622e-05 -1.870404693769e-05 0.0 
8.042059166341e-06 2.238943656529e-04 0.0 
4.030184322151e-04 1.338953155063e-03 0.0 
3.201949223964e-04 1.555540854429e-03 0.0 
8.641561578354e-05 2.672171119105e-05 0.0 
1.121251278387e-05 7.076771097294e-06 0.0 
4.842528828214e-05 -9.123939398763e-06 0.0 
3.998200153731e-04 1.281963801521e-03 0.0 
1.034278917218e-04 4.218502364242e-05 0.0 
3.759454961830e-04 1.436802801113e-03 0.0 
1.949375817435e-05 1.650714789589e-04 0.0 
1.083199297747e-04 1.626000190106e-04 0.0 
1.681716887821e-04 1.112500478676e-03 0.0 
3.915716476596e-05 8.355330639158e-04 0.0 
3.902139150370e-04 1.417071130995e-03 0.0 
3.179187200174e-04 1.618593208895e-03 0.0 
4.090155966466e-04 1.205360003051e-03 0.0 
4.796088675126e-04 1.219679583885e-03 0.0 
7.562135686930e-05 1.318953276551e-03 0.0 
5.131844859167e-04 9.818068721163e-04 0.0 
8.918803803066e-06 -5.121406184343e-05 0.0 
1.813636001088e-05 1.209503955013e-03 0.0 
1.244383556540e-05 -1.294704269461e-04 0.0 
2.929353377093e-04 1.443711262826e-03 0.0 
8.485521445016e-05 3.339845872954e-05 0.0 
4.397378273449e-04 1.396236313159e-03 0.0 
2.610541079877e-05 -6.460984092725e-06 0.0 
3.192862644136e-04 1.766249905331e-03 0.0 
3.733541409783e-04 3.830755973530e-04 0.0 
4.246538276320e-05 1.271692752540e-03 0.0 
5.102070874643e-04 1.006160433022e-03 0.0 
2.560205241023e-05 3.914291310694e-06 0.0 
7.656394537177e-05 -5.390081485971e-06 0.0 
2.645133372228e-05 7.819404588578e-06 0.0 
3.040343485298e-04 1.232343953141e-03 0.0 
3.583657497591e-05 1.031326248045e-05 0.0 
1.798932606669e-05 1.284365388944e-03 0.0 
4.699403222086e-04 1.249170355813e-03 0.0 
2.796887174012e-04 1.448323257486e-03 0.0 
2.268946847617e-05 -3.012252113542e-05 0.0 
3.054351817660e-04 1.823593462291e-03 0.0 
5.136279918450e-04 9.493876264426e-04 0.0 
3.409339922793e-05 7.573256733019e-04 0.0 
4.845269730944e-05 1.321968003908e-03 0.0 
4.937727776162e-04 1.138572227892e-03 0.0 
2.942587321718e-04 1.509898353958e-03 0.0 
2.328062197427e-04 4.000707572809e-04 0.0 
7.391786211710e-05 -7.120567571178e-05 0.0 
1.083874963889e-04 1.048791833207e-04 0.0 
1.166440170099e-04 1.600215288127e-04 0.0 
3.837981057016e-04 1.621028716091e-03 0.0 
6.582871959922e-05 -6.951917147442e-05 0.0 
2.472808742819e-04 1.327179031603e-04 0.0 
3.619635394693e-04 1.513185640360e-03 0.0 
3.667927662175e-04 1.671193176850e-03 0.0 
2.841123909149e-04 1.309731779757e-03 0.0 
4.981925677461e-04 1.107841152013e-03 0.0 
1.434652655165e-05 1.745619778321e-04 0.0 
2.155119712413e-04 6.074736588749e-04 0.0 
1.791495940064e-05 5.722791663308e-06 0.0 
2.743030108516e-04 1.704354841460e-03 0.0 
5.070715442910e-04 9.013739386613e-04 0.0 
2.155137396335e-04 5.369420555957e-04 0.0 
-2.863505844046e-04 9.833688864760e-04 0.0 
3.479445266782e-04 1.529160489122e-03 0.0 
2.836795742699e-04 1.330915228133e-04 0.0 
2.203616240654e-05 -1.060545132302e-04 0.0 
7.861434399019e-05 2.061451784155e-04 0.0 
1.999219288535e-04 8.201858488557e-04 0.0 
2.667424203692e-04 5.031545286160e-05 0.0 
2.915889970865e-04 1.451297692175e-04 0.0 
2.171416648251e-04 1.161446115820e-03 0.0 
1.798367085060e-04 1.040653190302e-03 0.0 
1.384841284274e-04 5.755319072955e-05 0.0 
1.768542759976e-04 -1.588105435894e-05 0.0 
4.298260558932e-04 1.108168279241e-03 0.0 
3.231999976383e-04 1.151069903361e-03 0.0 
1.853334412049e-04 7.473833563719e-04 0.0 
2.955483673356e-04 1.165041235790e-03 0.0 
2.976675843707e-04 1.304890948020e-03 0.0 
4.446018094264e-04 4.483052418321e-04 0.0 
2.530575264044e-04 4.640654825189e-04 0.0 
-9.643489748777e-05 8.629039031669e-04 0.0 
3.726530485331e-04 1.657338633446e-03 0.0 
4.048888592602e-04 1.526831495110e-03 0.0 
4.231177647359e-04 1.184156494629e-03 0.0 
1.941220764418e-04 5.369191342448e-04 0.0 
2.509469854075e-04 9.042110936172e-04 0.0 
2.931076304292e-04 1.268475083056e-04 0.0 
5.463270966838e-05 1.303023300611e-03 0.0 
5.068636192858e-04 9.646914150712e-04 0.0 
2.961883626024e-04 1.165629339493e-04 0.0 
1.244312034923e-05 -8.099787800488e-05 0.0 
1.800646887636e-04 6.754834649279e-04 0.0 
4.340200525190e-06 -8.596089211902e-05 0.0 
2.587958967923e-05 -1.106476038793e-04 0.0 
2.662347106781e-04 1.775016837138e-03 0.0 
1.505218955441e-04 -2.264679874129e-05 0.0 
1.630791271009e-04 6.029885326360e-04 0.0 
1.420868426903e-04 -1.708695571589e-05 0.0 
3.646636836742e-04 1.426582421543e-03 0.0 
1.671094606262e-04 1.766671518866e-04 0.0 
8.496057181713e-05 -3.091621720165e-05 0.0 
2.754345186120e-04 1.466762656191e-04 0.0 
3.179698754044e-04 1.224771618848e-03 0.0 
3.132446978579e-05 9.392359304762e-06 0.0 
-2.130354728653e-04 8.615613412232e-04 0.0 
4.206189581767e-04 1.315963667195e-03 0.0 
5.197307098396e-04 8.757018165866e-04 0.0 
3.595576055581e-04 1.573414544137e-03 0.0 
3.027359542287e-04 1.398027464655e-04 0.0 
3.840649107432e-05 1.079860618526e-05 0.0 
2.239803607396e-04 6.778077999180e-04 0.0 
4.620287133944e-04 9.078613336506e-04 0.0 
2.691460198904e-04 1.355606841482e-04 0.0 
2.875574524132e-05 -1.637846783825e-05 0.0 
4.021484203445e-04 1.148683553819e-03 0.0 
2.073704673008e-04 7.499438522875e-04 0.0 
1.719492592632e-04 1.551567181722e-04 0.0 
5.198171714002e-04 8.208738795615e-04 0.0 
3.915822070617e-04 1.410667169717e-03 0.0 
2.884374728848e-04 1.024421770077e-03 0.0 
1.490351152861e-05 7.704505138015e-05 0.0 
4.430498839747e-04 1.084362547434e-03 0.0 
5.069112122014e-04 5.713074444869e-04 0.0 
4.105662937179e-05 1.181819145487e-03 0.0 
7.692448946898e-05 8.030949174783e-05 0.0 
2.822445087552e-04 1.169768281046e-03 0.0 
4.664296881440e-04 9.856341103870e-04 0.0 
3.362246097397e-04 8.510341943362e-04 0.0 
1.422304019488e-04 3.269218851436e-04 0.0 
1.533719998387e-04 6.016567914874e-04 0.0 
3.132588086182e-04 1.085483991180e-03 0.0 
4.710514618214e-04 1.270319338381e-03 0.0 
1.362880824034e-04 5.289431861156e-04 0.0 
2.268286534443e-04 6.071889549111e-04 0.0 
3.793919300003e-04 1.106739597035e-03 0.0 
4.310543992906e-05 1.238477866712e-05 0.0 
4.967977806642e-04 5.205473826955e-04 0.0 
3.550286183795e-04 1.058323269668e-03 0.0 
5.066766322336e-04 9.982381235661e-04 0.0 
4.879000372587e-04 5.067296621414e-04 0.0 
3.983123978277e-04 8.029825945801e-04 0.0 
1.998361108403e-04 1.252316369018e-03 0.0 
5.186123858776e-04 7.033594918267e-04 0.0 
3.769337268763e-04 3.797268190157e-04 0.0 
2.125877320776e-04 6.777156213731e-04 0.0 
-2.547295218247e-04 7.640218499806e-04 0.0 
2.729748008717e-04 1.100647102602e-03 0.0 
4.753669484188e-04 8.366241424964e-04 0.0 
4.247019769930e-04 1.236308204321e-03 0.0 
3.841383472417e-04 7.192684511435e-04 0.0 
2.889600619009e-04 9.523252677609e-04 0.0 
2.866944631967e-05 -2.114821984874e-05 0.0 
3.991504696418e-04 1.503744496067e-03 0.0 
4.736347854072e-04 4.588317752326e-04 0.0 
2.995427051900e-04 1.091882989316e-03 0.0 
1.970089230778e-04 1.159889745662e-03 0.0 
1.680459073023e-04 7.613113403001e-04 0.0 
3.948925774291e-04 4.350536043601e-04 0.0 
3.279280113373e-04 3.080160859855e-04 0.0 
3.826999204327e-04 1.612830389065e-03 0.0 
2.187550508189e-04 7.500270155512e-04 0.0 
4.120590550383e-04 1.474983301832e-03 0.0 
5.133073198144e-04 7.087992117959e-04 0.0 
5.139223784107e-04 8.312422130077e-04 0.0 
2.313237749232e-04 7.984748552587e-04 0.0 
5.106479764996e-04 9.248393083351e-04 0.0 
2.943976493919e-04 1.443214947304e-03 0.0 
2.753082104397e-05 7.814076304036e-05 0.0 
3.600162297971e-05 8.255083934898e-05 0.0 
4.467390394476e-04 1.009862487276e-03 0.0 
4.386089359212e-04 9.008701455260e-04 0.0 
3.989983581401e-04 1.153488279903e-03 0.0 
3.566820330200e-04 9.854761971292e-04 0.0 
4.189634445973e-04 9.776271831845e-04 0.0 
3.466813641121e-04 3.593504634311e-04 0.0 
3.879403950545e-04 1.166006239273e-03 0.0 
2.529345142833e-05 2.006085440028e-04 0.0 
4.957932203121e-04 9.077495056844e-04 0.0 
4.443579348283e-04 4.737313263739e-04 0.0 
3.348576321780e-04 1.343611873984e-03 0.0 
4.894288278034e-05 2.220079317335e-05 0.0 
4.242093868736e-04 1.065634516278e-03 0.0 
4.072669119533e-04 1.073972131086e-03 0.0 
2.709353474606e-04 7.266910115775e-04 0.0 
4.042105958181e-04 2.492395506683e-04 0.0 
5.216871417370e-04 7.552672884495e-04 0.0 
3.397677611800e-04 2.809025893327e-04 0.0 
3.372740999764e-04 1.142107613398e-03 0.0 
3.872772693020e-05 6.423876260016e-05 0.0 
4.998126477520e-04 7.726734481462e-04 0.0 
4.696954033686e-04 4.278876239853e-04 0.0 
3.336974800437e-04 1.242888348477e-03 0.0 
1.301259750496e-04 8.821919113265e-04 0.0 
3.073971937245e-04 1.300202195662e-04 0.0 
4.064659827072e-04 1.458823948842e-03 0.0 
1.303049212576e-04 9.557819492165e-04 0.0 
4.953609152671e-05 6.139659587041e-05 0.0 
2.670420113726e-04 1.106600308941e-04 0.0 
3.868467651324e-05 7.124327829098e-05 0.0 
1.595166598625e-04 9.634277214386e-04 0.0 
2.618745020444e-04 6.034190318852e-04 0.0 
3.502456495891e-04 1.580093916265e-03 0.0 
3.385967806788e-04 1.280087405382e-03 0.0 
3.409987202088e-04 1.068697092439e-03 0.0 
3.291284550461e-04 1.004851101001e-03 0.0 
4.623185682074e-04 1.105063278832e-03 0.0 
5.432678495542e-05 5.589521615378e-05 0.0 
2.028235702372e-04 1.038993799609e-03 0.0 
2.771752964936e-04 1.241911830134e-03 0.0 
5.104872826843e-04 7.710753418649e-04 0.0 
1.198192101088e-04 -2.763419237164e-05 0.0 
3.165357985914e-04 1.364223457203e-03 0.0 
4.335270402857e-04 1.366049774123e-03 0.0 
3.642042536507e-05 1.318052424455e-03 0.0 
3.210028944332e-04 2.372639455333e-04 0.0 
4.919694194996e-04 8.392158863120e-04 0.0 
1.832218806351e-04 6.052511865811e-04 0.0 
4.405406913938e-04 1.297763077615e-03 0.0 
3.457142849898e-04 1.205904063297e-03 0.0 
4.529085960552e-04 3.856718155061e-04 0.0 
3.304888682311e-04 1.124114209395e-04 0.0 
5.447731923024e-05 4.299643509856e-05 0.0 
3.479765015469e-04 1.468513585711e-03 0.0 
4.006964970747e-04 5.387726623106e-04 0.0 
2.674224721735e-04 5.802932999159e-05 0.0 
3.750932914707e-04 1.633782653803e-03 0.0 
3.972884759213e-04 1.521162222676e-03 0.0 
1.915064750316e-04 4.681016763341e-04 0.0 
3.965374322342e-04 1.017448146670e-03 0.0 
3.727219801408e-04 1.553912360835e-03 0.0 
3.436250143434e-04 1.343604406497e-03 0.0 
5.862148850886e-05 3.357585452753e-05 0.0 
1.454489458603e-04 8.923136173460e-05 0.0 
1.814314940429e-04 4.677940510194e-04 0.0 
1.906925955219e-04 6.765802865382e-04 0.0 
3.419869995644e-04 1.245640205502e-04 0.0 
4.422166172442e-04 1.358308752425e-03 0.0 
4.291378420826e-04 8.188247815537e-04 0.0 
4.671205365781e-04 7.640308434282e-04 0.0 
4.208423794127e-04 1.054660364930e-03 0.0 
4.231911256217e-04 2.780130761951e-04 0.0 
1.876368511812e-04 -1.651984304618e-05 0.0 
1.528731249159e-04 4.645494896492e-04 0.0 
3.833761004742e-04 4.746448570267e-04 0.0 
4.783514954593e-04 1.116046274847e-03 0.0 
3.652697696401e-04 1.120233742889e-03 0.0 
4.689549230020e-04 1.237121914403e-03 0.0 
3.752185455579e-05 7.679844665756e-05 0.0 
3.264362674230e-05 8.302009213467e-05 0.0 
8.304499208927e-05 2.065890727319e-04 0.0 
3.334411459399e-04 1.192926375145e-04 0.0 
1.276107139676e-04 5.265531133604e-04 0.0 
3.844428827003e-04 1.485240754856e-03 0.0 
4.924220678472e-04 7.086673146788e-04 0.0 
3.199419128218e-04 7.571420933214e-04 0.0 
4.029847787610e-04 1.449656343641e-03 0.0 
1.802596175967e-04 1.254712517168e-03 0.0 
1.495588653444e-04 9.617385430239e-04 0.0 
1.219451806087e-04 5.826154980762e-05 0.0 
2.125417918300e-04 4.696563419771e-04 0.0 
2.751734271468e-04 1.028458838107e-03 0.0 
3.291181331689e-04 9.327162058778e-04 0.0 
3.458980598057e-04 6.955431979231e-04 0.0 
2.770962022974e-05 5.074610673945e-05 0.0 
5.183051594617e-04 9.068408650301e-04 0.0 
4.785104136773e-04 9.991410344899e-04 0.0 
5.163040481399e-04 8.817063942071e-04 0.0 
1.311969973440e-04 1.538478253300e-03 0.0 
3.409200907394e-05 1.143301131361e-03 0.0 
1.076226344388e-04 -2.134404596592e-05 0.0 
4.483407483184e-04 1.147064024742e-03 0.0 
2.552587557476e-05 1.200527057197e-05 0.0 
4.230482274385e-04 3.773143190280e-04 0.0 
2.646169311650e-04 1.244565759353e-03 0.0 
7.551093518433e-06 -1.317872949049e-04 0.0 
4.499070842517e-04 1.133986568175e-03 0.0 
5.214304790039e-04 8.575086160801e-04 0.0 
3.022691313816e-04 9.469782055983e-04 0.0 
4.270180483136e-05 6.402856991215e-05 0.0 
3.249264734316e-04 1.289992670970e-03 0.0 
3.704017298516e-04 9.735400004802e-04 0.0 
2.041309247467e-04 -6.093019930436e-06 0.0 
1.544509959716e-04 5.324389801180e-04 0.0 
3.187163072421e-04 1.074920481966e-04 0.0 
4.737879290880e-05 6.466905665410e-05 0.0 
1.953030503013e-05 3.783028353881e-05 0.0 
1.289726775572e-05 3.870334713592e-05 0.0 
1.801007345405e-05 4.358267623024e-05 0.0 
3.006092099617e-04 8.753450280895e-04 0.0 
1.639658427476e-04 5.336048124527e-04 0.0 
1.753073959503e-04 3.994292402339e-04 0.0 
4.570738371629e-04 1.275208433233e-03 0.0 
4.293930050057e-04 1.392365521833e-03 0.0 
1.606708112841e-04 -3.530859985726e-05 0.0 
1.621318966661e-04 4.657335176923e-04 0.0 
5.207283526983e-05 5.880379782427e-05 0.0 
1.268061534561e-04 4.590809301498e-04 0.0 
4.599904948376e-04 4.420051611360e-04 0.0 
1.352619397621e-04 4.612449830037e-04 0.0 
3.916239235685e-04 5.613909364605e-04 0.0 
4.848762429085e-04 1.039965786106e-03 0.0 
3.893963329060e-04 1.473951786941e-03 0.0 
3.668366638019e-04 1.148335469096e-03 0.0 
3.541140690455e-05 1.642010334624e-04 0.0 
4.662568943160e-04 1.278478353196e-03 0.0 
1.694837111151e-04 2.000835739842e-04 0.0 
1.765884764149e-04 -2.624619016192e-05 0.0 
2.731183095771e-04 1.789901298066e-04 0.0 
9.663745686296e-05 4.405378258392e-05 0.0 
4.627384447929e-04 1.208434024228e-03 0.0 
1.915437148310e-05 3.341299475217e-05 0.0 
5.895186503038e-05 1.554954840921e-04 0.0 
3.972639318335e-04 9.449455797509e-04 0.0 
-5.058662475251e-06 5.189393396273e-05 0.0 
2.312844938427e-05 3.320280206416e-05 0.0 
1.057248709439e-04 5.651880458824e-05 0.0 
2.910819921206e-04 2.179878849196e-04 0.0 
4.384138008811e-04 3.714336691739e-04 0.0 
5.745847924404e-05 4.164710893663e-05 0.0 
-4.308061670071e-05 3.324550440932e-05 0.0 
4.804169869437e-04 1.156546279751e-03 0.0 
3.695034527098e-04 9.017548304781e-04 0.0 
4.231374626721e-04 9.812642009219e-04 0.0 
3.828704755712e-04 1.032892927165e-03 0.0 
3.994060528882e-04 1.243748198560e-03 0.0 
2.528574800217e-05 2.993034128048e-05 0.0 
5.066890836929e-04 6.526459753502e-04 0.0 
1.519049678155e-04 6.559770800537e-04 0.0 
5.523641226571e-05 1.562160660817e-05 0.0 
-1.649707934245e-05 3.098917064062e-05 0.0 
3.604831322161e-04 1.392904716730e-03 0.0 
1.197192495397e-04 2.356259228085e-04 0.0 
3.032124364051e-04 1.371549399960e-03 0.0 
5.499665447789e-05 2.896957731276e-05 0.0 
2.753969768776e-05 2.702175960999e-05 0.0 
3.154626457936e-04 1.012675709778e-03 0.0 
4.774761527558e-05 1.982831106847e-04 0.0 
8.561094788963e-05 6.171168221914e-04 0.0 
9.279336749061e-05 1.972332133838e-04 0.0 
1.636562917497e-04 4.295170983417e-05 0.0 
1.911550576915e-04 1.300081590931e-03 0.0 
2.567467921552e-04 1.175730923197e-03 0.0 
2.691112995122e-05 2.215465469575e-05 0.0 
1.716057484009e-04 1.302047688274e-03 0.0 
2.410469217231e-05 7.613868580201e-05 0.0 
3.748058603144e-04 5.020383084375e-04 0.0 
1.394188545937e-04 1.034728612956e-03 0.0 
4.033123968835e-04 1.542101804764e-03 0.0 
4.415563176249e-04 3.968228635565e-04 0.0 
3.068412548628e-04 9.263193509508e-04 0.0 
2.989228996503e-05 2.080532853383e-05 0.0 
1.799154952565e-05 3.896816311874e-05 0.0 
1.463355328824e-05 3.943741590443e-05 0.0 
3.032691725909e-04 9.137840402286e-05 0.0 
1.340613356724e-04 -5.247313749587e-05 0.0 
4.947367342418e-04 1.003822076094e-03 0.0 
2.877748654140e-04 8.231333872499e-05 0.0 
3.081251436754e-05 1.837424576193e-05 0.0 
4.482558529470e-04 1.066650255356e-03 0.0 
3.855515456508e-04 3.474105098585e-04 0.0 
3.730120633985e-04 2.737047568415e-04 0.0 
1.210299721592e-04 9.521263606501e-04 0.0 
4.534384778617e-05 1.911088722620e-05 0.0 
2.431807650230e-05 1.632947998401e-04 0.0 
2.718768033657e-05 1.376796854716e-05 0.0 
3.297165498325e-04 2.156784683509e-04 0.0 
1.957335544710e-05 3.082576784799e-05 0.0 
1.850315398638e-04 4.005016882014e-04 0.0 
-6.419675689053e-05 5.712231076230e-05 0.0 
4.984911539277e-04 1.039888173253e-03 0.0 
1.107313482644e-04 4.533221742489e-04 0.0 
2.425034352454e-05 3.146625458993e-05 0.0 
3.137924024965e-04 8.689076371466e-04 0.0 
3.619395403525e-04 4.313802023915e-04 0.0 
2.911378085619e-04 1.232946000947e-03 0.0 
1.713256773565e-04 9.062472452780e-05 0.0 
3.171855791207e-04 1.615957671785e-04 0.0 
3.543545472485e-04 2.331012113707e-04 0.0 
-4.464449399100e-05 2.016510719104e-04 0.0 
2.678708726766e-05 2.887345654380e-05 0.0 
3.763548073096e-04 8.731494423746e-04 0.0 
2.476842371834e-04 1.048098613720e-04 0.0 
1.379475048512e-04 1.116195345910e-03 0.0 
2.172856532142e-04 4.774259060234e-05 0.0 
3.671389327292e-04 2.999206576210e-04 0.0 
3.426418129722e-04 9.237151247780e-04 0.0 
2.756618927901e-05 2.084178040281e-05 0.0 
1.297880086110e-04 -5.038861031497e-05 0.0 
2.934989164897e-04 1.030763014475e-04 0.0 
4.592717199559e-04 9.123585524943e-04 0.0 
3.892041220013e-04 2.052936603474e-04 0.0 
4.091812102948e-04 3.647119846865e-04 0.0 
3.173084577123e-04 1.121922997714e-04 0.0 
4.587345239161e-04 9.842160796200e-04 0.0 
3.628915872604e-04 6.049537065594e-04 0.0 
4.005241984396e-04 3.350358070986e-04 0.0 
4.803408375956e-04 9.266976805051e-04 0.0 
2.260205373655e-04 7.968020660722e-06 0.0 
4.664554829011e-04 1.137390434229e-03 0.0 
1.492362851132e-04 -4.473614485043e-05 0.0 
3.822948949806e-04 4.869454630939e-04 0.0 
4.793887088574e-04 4.392910604400e-04 0.0 
5.271355591133e-05 2.577323911913e-05 0.0 
1.081931073903e-04 3.885874785732e-04 0.0 
1.930397237146e-04 3.391464629603e-05 0.0 
2.780897414132e-05 1.520160876560e-05 0.0 
1.266406277539e-04 6.572048564771e-05 0.0 
5.164259776961e-04 8.131837103910e-04 0.0 
-1.739203053954e-05 1.643034237641e-04 0.0 
4.240988325995e-05 1.671130448719e-05 0.0 
1.317503949819e-04 3.960175894036e-04 0.0 
2.844561124907e-04 1.612977071022e-04 0.0 
2.341700720558e-05 1.019552260137e-05 0.0 
2.853628708334e-04 8.689363545413e-05 0.0 
4.180424838969e-04 1.369801402931e-03 0.0 
2.600354496003e-04 1.103955815533e-03 0.0 
4.922258343015e-04 4.840529322414e-04 0.0 
3.139748037716e-04 9.402279258687e-05 0.0 
3.940310863327e-04 2.266552052566e-04 0.0 
2.113310481912e-04 8.216495231609e-04 0.0 
3.855031160731e-04 1.300447757234e-03 0.0 
3.775170640496e-04 3.309262652518e-04 0.0 
3.216885642005e-05 1.057442872255e-03 0.0 
2.092040167351e-04 -4.741389646779e-06 0.0 
4.176649953176e-04 3.317491863170e-04 0.0 
2.988804300312e-04 1.303163301435e-04 0.0 
1.683134119493e-04 8.759002153775e-06 0.0 
-8.224767589897e-05 1.085847267395e-04 0.0 
4.761877120999e-04 1.189008314719e-03 0.0 
3.111334504335e-04 1.787099850328e-04 0.0 
1.813538586192e-04 -1.638794824650e-05 0.0 
5.046693824340e-04 8.249877231855e-04 0.0 
2.994493284805e-04 1.006589523268e-04 0.0 
1.200544995584e-04 1.025023855584e-03 0.0 
2.668089787718e-04 1.283589466216e-04 0.0 
2.192684058058e-05 8.915364624834e-06 0.0 
3.826986980287e-04 8.886051902438e-04 0.0 
1.578199387593e-04 -2.355868257976e-05 0.0 
4.102884948119e-04 9.280734001589e-04 0.0 
1.651421014951e-04 -2.489804805644e-05 0.0 
-5.693202966379e-05 7.959351525050e-05 0.0 
2.496122784115e-04 1.034251471873e-03 0.0 
4.643352694061e-05 -8.042006693107e-05 0.0 
-3.865967345918e-06 -9.899117952725e-05 0.0 
1.335020598791e-04 -3.912341525908e-05 0.0 
2.727069572880e-04 9.176373017495e-05 0.0 
3.274748494468e-05 4.648856747617e-04 0.0 
4.184386406962e-04 2.542086447065e-04 0.0 
4.014797204864e-04 2.285669570934e-04 0.0 
2.584646473519e-04 1.316162931403e-03 0.0 
1.729844129750e-04 1.395774907017e-03 0.0 
4.200133009870e-05 1.537101131404e-04 0.0 
4.358102946255e-04 9.602720550758e-04 0.0 
-6.496886580197e-06 -1.049606556604e-04 0.0 
7.721575198925e-05 -4.607852772773e-05 0.0 
-1.090413354601e-05 1.022837055176e-04 0.0 
1.713976052621e-04 -1.142574952000e-05 0.0 
2.420073461375e-04 3.956441418011e-04 0.0 
3.734175152130e-05 4.696967901507e-04 0.0 
1.753961502976e-04 4.275495007661e-05 0.0 
1.522394719816e-04 -4.466980184056e-05 0.0 
1.535217144944e-04 2.424404068443e-06 0.0 
2.188210404725e-04 8.904983661424e-05 0.0 
2.520405584221e-04 6.366294192836e-04 0.0 
3.289800939536e-05 -8.234381411966e-05 0.0 
2.263574084882e-05 -9.977984967677e-05 0.0 
4.030338416994e-05 1.486545244522e-05 0.0 
2.048304267936e-05 7.795939862356e-06 0.0 
3.433112087384e-05 -7.029697844130e-05 0.0 
1.418877503756e-04 -3.044103197013e-05 0.0 
3.014799468291e-04 8.479036498812e-05 0.0 
2.016497524879e-04 8.872526472973e-05 0.0 
8.919323115963e-05 -5.155013172001e-05 0.0 
2.319632052687e-04 8.677634063768e-05 0.0 
1.912166922817e-05 -1.159698734881e-04 0.0 
1.397995756938e-04 -4.143537036373e-05 0.0 
1.901541437809e-04 -7.170494135398e-06 0.0 
9.445422844696e-06 -1.245857091130e-04 0.0 
2.735301201378e-05 -7.681443639094e-05 0.0 
1.007956706344e-04 3.852187954275e-04 0.0 
-3.270145902356e-06 -1.162410485496e-04 0.0 
1.916949168513e-04 1.387910359995e-03 0.0 
2.013550309002e-04 1.428647346692e-03 0.0 
3.925089680666e-04 2.433647213951e-04 0.0 
1.123397403052e-05 -1.011663523154e-04 0.0 
2.751811676250e-04 1.144917875173e-04 0.0 
3.684045106843e-04 1.339318913260e-03 0.0 
1.132448927156e-04 2.865938947652e-05 0.0 
9.981112288350e-05 1.161834210008e-04 0.0 
6.728473930668e-05 5.646370094744e-04 0.0 
4.146099570513e-04 1.487741599286e-03 0.0 
4.549962663387e-05 -3.181062865281e-05 0.0 
3.574149560166e-04 1.331087323503e-03 0.0 
1.214163112662e-04 1.397039944956e-03 0.0 
1.136219688238e-04 1.443728917191e-03 0.0 
-9.223894539219e-07 -1.114282221008e-04 0.0 
1.111134767772e-05 -1.165370355416e-04 0.0 
1.096812352407e-05 -1.309809976635e-04 0.0 
1.147986454323e-04 -6.172200423382e-05 0.0 
5.890197190191e-06 -1.280744639956e-04 0.0 
2.814459431807e-05 -6.429168198542e-05 0.0 
-1.136719175821e-04 2.880155466006e-04 0.0 
1.360685342976e-04 -5.432363257212e-05 0.0 
2.846498856700e-05 8.888550855920e-04 0.0 
1.638389108590e-04 1.442283996135e-03 0.0 
2.021188825054e-04 3.425129676454e-04 0.0 
2.670693352715e-04 7.795308637652e-05 0.0 
2.571083714559e-05 1.023559005224e-03 0.0 
6.029576484343e-06 -9.593894235431e-05 0.0 
1.135245317653e-05 -1.295102789543e-04 0.0 
5.396137805716e-06 4.069143776271e-05 0.0 
1.225831904684e-05 8.475394920167e-05 0.0 
1.278580989144e-04 1.110146177104e-03 0.0 
1.380101281882e-04 1.399573457997e-03 0.0 
3.009140734497e-05 -9.359676784001e-05 0.0 
8.093801079751e-06 8.037483940013e-05 0.0 
1.318492778025e-04 -5.265944871695e-05 0.0 
1.821781413306e-04 1.436268504975e-03 0.0 
1.550164992075e-04 1.399833050807e-03 0.0 
3.196977372479e-04 1.428672763843e-03 0.0 
1.120742441658e-05 3.743533866609e-05 0.0 
9.741828499222e-06 8.014073069935e-05 0.0 
6.972531548026e-06 -1.210182058377e-04 0.0 
7.325371714971e-07 -1.210544355441e-04 0.0 
5.786341159405e-05 -5.407461348923e-05 0.0 
2.066289678765e-04 2.487171585752e-06 0.0 
1.231427557693e-05 7.505281786618e-06 0.0 
-1.549927960042e-04 3.376520235058e-04 0.0 
8.897089919659e-06 5.870139344014e-04 0.0 
-9.160054899586e-05 2.047661483397e-04 0.0 
3.736370766314e-04 2.023763397686e-04 0.0 
-1.031370708403e-04 1.707474783845e-04 0.0 
-1.267571831706e-04 2.467127559775e-04 0.0 
3.709770878275e-04 1.840222484775e-04 0.0 
4.841048801673e-05 1.092280112794e-05 0.0 
2.393018174148e-05 9.389780037671e-04 0.0 
3.804906720565e-04 1.241166644218e-03 0.0 
7.178227911268e-06 -1.304861948521e-04 0.0 
1.268350045617e-04 -1.645312991701e-06 0.0 
1.968917967611e-06 4.791450558572e-05 0.0 
3.873231054066e-06 8.118709329873e-05 0.0 
1.463627604434e-04 1.444461764489e-03 0.0 
3.699632747719e-04 2.161875387525e-04 0.0 
4.345690693506e-06 3.944929293664e-05 0.0 
3.674188136114e-04 4.169357986536e-04 0.0 
6.823176961173e-06 -1.334599334843e-04 0.0 
4.203770852706e-06 -1.330058709508e-04 0.0 
4.233049555074e-06 -1.345088908737e-04 0.0 
6.676779846383e-06 -8.409472304829e-05 0.0 
9.860994709768e-06 3.984390952961e-06 0.0 
1.060934220653e-06 2.205328400660e-04 0.0 
1.196777099621e-06 -1.333801819598e-04 0.0 
1.448970561162e-05 -6.460799745765e-05 0.0 
3.352356748111e-06 1.559200222461e-06 0.0 
1.385454954018e-05 4.886350981382e-06 0.0 
3.817017254951e-05 1.325415005665e-05 0.0 
5.014405651663e-06 7.336138020360e-04 0.0 
1.956258954251e-06 5.131232734412e-04 0.0 
6.508637961657e-06 2.425190730500e-06 0.0 
7.345911578524e-06 2.461160250882e-06 0.0 
4.357762635101e-06 5.870907465701e-04 0.0 
-3.941345213669e-08 -1.351232756935e-04 0.0 
8.445309023874e-05 1.445965861981e-03 0.0 
1.298660596987e-04 1.444856123431e-03 0.0 
1.329913055299e-06 -1.283223779411e-04 0.0 
1.173430861669e-05 3.576907032117e-06 0.0 
3.687518045560e-05 1.210240387401e-05 0.0 
1.852534939668e-05 5.917766400224e-06 0.0 
-3.890499767090e-07 -1.311084198066e-04 0.0 
-1.354855666725e-06 -1.248698527648e-04 0.0 
1.982034149058e-05 7.069512582864e-06 0.0 
1.834983105892e-05 6.184637473784e-06 0.0 
2.612901970814e-06 8.090066729092e-04 0.0 
4.366082158660e-05 1.448723975421e-03 0.0 
2.401503680849e-06 6.595612081660e-04 0.0 
3.213395402459e-06 1.105770029127e-03 0.0 
1.859516961188e-05 1.448805233155e-03 0.0 
-1.122983731948e-05 -9.041690461355e-05 0.0 
-2.563231490455e-05 -4.837771189926e-05 0.0 
-3.590861869444e-05 -2.003625694484e-05 0.0 
-4.894085837882e-05 1.487698553868e-05 0.0 
7.374638950879e-06 -5.827032761765e-05 0.0 
7.115066660742e-06 -7.140853096651e-05 0.0 
-2.142440006382e-05 -3.616902961307e-05 0.0 
7.540394868559e-06 -2.198906547249e-05 0.0 
-3.117323044645e-05 -4.862672448185e-06 0.0 
9.080137898814e-06 3.887323217238e-05 0.0 
3.748110386245e-06 4.092554646349e-05 0.0 
6.862181241125e-06 4.406251143896e-05 0.0 
2.915106275585e-06 -1.297637867876e-04 0.0 
5.204397546175e-06 -1.066356702159e-04 0.0 
3.571455025931e-06 4.923979605994e-05 0.0 
5.185385174896e-06 3.347014484986e-06 0.0 
1.904313086456e-06 3.327258771302e-05 0.0 
3.810178074993e-06 6.698796146566e-06 0.0 
2.325448350842e-06 6.650442146280e-06 0.0 
1.379184650713e-05 -7.760967344393e-05 0.0 
7.319565412176e-06 9.016534252343e-05 0.0 
5.475768112387e-06 8.251238377295e-05 0.0 
8.995563249889e-06 5.441443174974e-06 0.0 
6.135626425835e-06 7.244413870633e-06 0.0 
7.617077332739e-05 -4.445281318987e-06 0.0 
-7.314833021562e-05 1.358615756381e-04 0.0 
1.149611379061e-04 -5.649605063539e-05 0.0 
7.219109749622e-06 -1.117604387992e-04 0.0 
1.064046668741e-04 2.558693259231e-05 0.0 
1.555074289262e-04 -3.409235255146e-05 0.0 
8.654121484762e-05 1.121874494761e-05 0.0 
1.078619902753e-04 -5.927544884939e-05 0.0 
2.718842756617e-05 -9.947560566962e-05 0.0 
6.040894953727e-05 1.137153022564e-05 0.0 
1.179860935657e-04 -4.500207898254e-05 0.0 
2.536642037305e-05 -8.894849231732e-05 0.0 
7.629964182542e-05 8.697613111456e-06 0.0 
1.211323499201e-05 3.727439717133e-04 0.0 
1.270635633073e-05 -8.990416419296e-05 0.0 
2.621294596735e-04 9.182839683685e-05 0.0 
2.126904025963e-04 3.192501218799e-05 0.0 
8.944206897920e-05 -1.516677658696e-06 0.0 
6.534119978301e-05 -1.799886180699e-06 0.0 
4.964784666580e-04 6.509159719518e-04 0.0 
3.744331140611e-04 1.377168780894e-03 0.0 
5.054177792062e-04 8.937483336831e-04 0.0 
1.410263208977e-04 3.343727337269e-06 0.0 
5.462851798822e-05 7.541382497755e-06 0.0 
4.310414905080e-05 -1.023455856706e-06 0.0 
1.550099045827e-04 7.192614534972e-07 0.0 
2.285322396179e-05 3.842477945447e-04 0.0 
2.941259665465e-05 5.316524740097e-04 0.0 
5.640598742041e-05 1.223717350048e-03 0.0 
1.552196296607e-04 1.468686980278e-05 0.0 
1.146509043009e-04 7.238310883081e-08 0.0 
1.564322342038e-05 3.804613635888e-04 0.0 
2.008228394751e-05 4.564860568749e-04 0.0 
2.268977010414e-04 3.488989954435e-05 0.0 
4.127209051449e-05 9.660358143180e-06 0.0 
6.115771888288e-05 5.600544119193e-04 0.0 
3.072065430219e-05 -2.145606096330e-06 0.0 
7.940698900263e-05 1.921178723167e-05 0.0 
2.659055037072e-05 3.879684790408e-04 0.0 
5.239906124295e-05 7.672195182803e-04 0.0 
2.603638337168e-04 8.040583197660e-05 0.0 
5.529360935535e-05 -1.064996890048e-04 0.0 
1.552408816943e-04 2.928472816157e-05 0.0 
4.180740620799e-05 -4.741735468623e-05 0.0 
-3.435934491969e-05 1.325325974471e-04 0.0 
2.425557605972e-05 4.562979341735e-04 0.0 
4.392528602038e-05 8.298376233407e-06 0.0 
-2.437747260677e-05 7.662147221963e-05 0.0 
1.573160262180e-04 3.996505092713e-04 0.0 
6.620109988833e-05 1.149135941295e-03 0.0 
1.001781402140e-04 1.080926316578e-05 0.0 
5.561519660902e-05 4.507963995878e-06 0.0 
2.632631547750e-04 7.629584374292e-05 0.0 
4.505594730532e-05 2.878065341223e-06 0.0 
6.377291444280e-05 1.226079441257e-03 0.0 
3.982834830625e-04 3.148598687702e-04 0.0 
6.083610478638e-05 1.566526614178e-05 0.0 
2.906773259358e-05 -1.172097756366e-04 0.0 
9.780690618007e-05 2.660998659462e-05 0.0 
4.034877139727e-05 6.854413215116e-04 0.0 
4.598057529012e-05 -1.087417340356e-04 0.0 
1.786486562982e-04 1.301145855533e-05 0.0 
6.395545764236e-05 -4.114918072212e-05 0.0 
7.191458203525e-05 9.270472523187e-04 0.0 
1.391338538175e-04 -5.502270916813e-05 0.0 
2.976931212483e-05 6.031155095370e-04 0.0 
4.549222873602e-05 8.356254778075e-04 0.0 
1.337606263498e-04 -2.807501123586e-05 0.0 
5.251525534508e-05 -3.893794321055e-06 0.0 
6.648934279243e-05 2.700350938306e-06 0.0 
3.474620857944e-05 6.802548237319e-04 0.0 
5.875043029799e-05 -1.014790256354e-04 0.0 
1.107448404169e-04 -4.178586565268e-05 0.0 
2.870764655429e-04 2.441573864990e-04 0.0 
4.567649213499e-05 6.179406771018e-04 0.0 
1.094567386757e-04 -5.342147440761e-05 0.0 
1.978730882494e-04 2.346173444743e-05 0.0 
1.258378949451e-04 3.518676854017e-05 0.0 
4.603102601583e-05 7.626045849733e-04 0.0 
7.151170310174e-05 5.327888998782e-04 0.0 
3.438840785506e-05 -8.285552079661e-05 0.0 
3.284846625431e-04 6.135531728129e-04 0.0 
6.397378400287e-05 9.352093505233e-06 0.0 
5.853226232386e-05 8.446639392868e-04 0.0 
4.621683275969e-05 -3.206402805760e-05 0.0 
7.633568528588e-05 1.078331798972e-03 0.0 
2.121140274573e-04 8.152818122175e-05 0.0 
1.094399041845e-04 -3.031552315926e-05 0.0 
7.782852199418e-05 5.079289046406e-06 0.0 
4.638560055797e-05 -1.107056205822e-04 0.0 
8.601911714612e-05 2.162598587068e-05 0.0 
1.181336827045e-04 -3.354118119495e-05 0.0 
3.632857110040e-05 -1.120666406829e-04 0.0 
9.562795308865e-05 -4.613878327753e-05 0.0 
1.226966148814e-04 -6.139934253908e-05 0.0 
1.234201430566e-04 -6.436039179393e-05 0.0 
6.081948319112e-05 -2.937742524033e-05 0.0 
-7.134115191178e-06 -8.308030456178e-05 0.0 
-1.285416345103e-05 -6.210769961370e-05 0.0 
1.010832759178e-04 -3.793908830423e-06 0.0 
5.391282936620e-05 -1.073504275159e-04 0.0 
1.416792964562e-04 9.274207413789e-06 0.0 
1.693583515571e-04 1.509098781159e-05 0.0 
1.965309386881e-04 -1.508066552410e-05 0.0 
2.391802861662e-04 1.117896884685e-04 0.0 
5.235027316909e-05 4.839172581934e-04 0.0 
1.655452225683e-04 1.002561653712e-03 0.0 
1.051975712329e-04 -6.495543601976e-05 0.0 
1.955100839452e-04 8.144471884952e-05 0.0 
4.411842948406e-05 -1.124519504172e-04 0.0 
7.057848923392e-05 1.000208452258e-03 0.0 
7.387677950290e-05 1.153666531320e-03 0.0 
8.100485312335e-05 -6.412322888101e-05 0.0 
1.569162103913e-04 4.665516358011e-05 0.0 
7.869584486507e-05 7.131369943448e-04 0.0 
6.218069107514e-05 -1.019108315052e-04 0.0 
5.360864118165e-05 4.192532365673e-04 0.0 
4.853093352027e-05 4.143151249178e-04 0.0 
7.379850040902e-05 -9.564048175538e-05 0.0 
4.169825332907e-04 1.501589286348e-03 0.0 
1.039620015672e-04 -7.197417434123e-05 0.0 
8.995167463657e-05 3.507655587692e-06 0.0 
8.508335931364e-05 -3.064182148389e-05 0.0 
1.236540566040e-04 3.938789150928e-04 0.0 
4.711075605097e-05 4.792545201754e-04 0.0 
1.151177425600e-04 5.558456563770e-06 0.0 
1.279548183793e-04 9.771240539760e-06 0.0 
9.035584843696e-05 -6.762342760225e-05 0.0 
1.020597198342e-04 6.716497870906e-06 0.0 
7.170810669626e-05 7.087080436056e-04 0.0 
7.004567585620e-05 -3.383561126506e-05 0.0 
6.547345479994e-05 8.494025144558e-04 0.0 
6.355076681497e-05 6.319477606343e-04 0.0 
5.112166467407e-04 5.824797461757e-04 0.0 
4.431148042359e-05 5.461022591838e-04 0.0 
8.778001222049e-05 -5.430240137550e-05 0.0 
9.410043689287e-05 -3.456639952976e-05 0.0 
9.780310648921e-05 -7.605776030995e-05 0.0 
2.158168015722e-04 3.442080177205e-06 0.0 
6.560780705784e-05 7.766757622643e-04 0.0 
2.910119501261e-04 6.833049541835e-05 0.0 
9.714203235957e-05 -8.131580413845e-05 0.0 
5.265942806325e-05 -6.684590509556e-05 0.0 
7.257889088447e-05 7.812476120216e-04 0.0 
1.083642426964e-04 -7.294837804616e-05 0.0 
1.025302298005e-04 2.899441287115e-05 0.0 
5.226684134068e-05 6.948278685115e-04 0.0 
1.112737938340e-04 1.419435108028e-05 0.0 
1.014382868626e-04 5.017652894421e-05 0.0 
9.436754465873e-05 -5.836887917572e-05 0.0 
8.354481247386e-05 -8.879247147207e-05 0.0 
6.382339042217e-05 -7.142291649506e-05 0.0 
1.534122164463e-04 1.963763997091e-05 0.0 
5.103902734429e-05 9.133047853787e-04 0.0 
3.726369157776e-05 -7.280088702770e-05 0.0 
1.249054558099e-04 -6.304831373956e-05 0.0 
3.041036858638e-05 -1.189491721150e-04 0.0 
7.946067002083e-05 9.316485438606e-04 0.0 
1.086597211467e-04 -6.777420074255e-05 0.0 
1.835666951083e-04 2.191427104964e-05 0.0 
8.439802591665e-05 -8.106351624738e-05 0.0 
3.416717913069e-05 5.365195301018e-04 0.0 
1.254032268756e-04 -6.455608903835e-05 0.0 
1.911432619181e-04 3.836925058954e-05 0.0 
1.430432670563e-04 8.067274381899e-06 0.0 
1.821201245038e-04 2.722018993595e-05 0.0 
7.257003229154e-05 -4.553396660148e-05 0.0 
1.379095141360e-04 1.876810680356e-05 0.0 
4.262373571648e-04 4.151644535049e-04 0.0 
3.807623236105e-05 -1.157699237079e-04 0.0 
6.139764181715e-05 1.069220845348e-03 0.0 
3.628586766113e-04 1.830166797355e-04 0.0 
4.668473820367e-04 1.150491951628e-03 0.0 
5.771102570501e-05 9.177283135511e-04 0.0 
1.815985866371e-04 4.283990297386e-05 0.0 
1.037232736472e-04 8.712267332070e-04 0.0 
3.718984127628e-05 -1.166655150319e-04 0.0 
1.336337639529e-04 3.306148339620e-05 0.0 
3.612708928221e-04 1.977835025376e-04 0.0 
3.771169153633e-04 3.131723939073e-04 0.0 
3.897121442156e-05 3.364384787247e-04 0.0 
2.852331196268e-04 6.943958740552e-05 0.0 
6.619985006453e-05 -9.466057522717e-05 0.0 
2.420939137235e-04 5.125359887440e-05 0.0 
1.323918932314e-04 3.905706206376e-05 0.0 
2.577574541490e-04 8.685303092654e-05 0.0 
1.259924492735e-04 1.431436976140e-05 0.0 
5.853439467948e-05 6.995455373266e-04 0.0 
2.420317001156e-04 1.604225605280e-04 0.0 
2.117918024913e-04 3.756069679177e-05 0.0 
1.093799494421e-04 1.095145227410e-03 0.0 
5.500627961871e-05 -1.026083001056e-04 0.0 
1.395997986876e-04 -5.545142382875e-05 0.0 
4.698244723570e-04 8.854919693237e-04 0.0 
1.661043677381e-04 2.534767686603e-05 0.0 
4.315421247452e-04 1.341271775358e-03 0.0 
4.896619478393e-04 8.947814077821e-04 0.0 
8.722657054332e-05 7.900619998554e-04 0.0 
6.331612537976e-05 9.956280886592e-04 0.0 
1.110924431491e-04 1.021314196553e-03 0.0 
8.767732808462e-05 -4.214497519030e-05 0.0 
1.893378445108e-04 6.073527766011e-05 0.0 
2.726959662479e-04 6.895405567665e-05 0.0 
8.435713993661e-05 1.083745402830e-03 0.0 
1.451999476520e-04 3.253140790378e-04 0.0 
3.501778494536e-04 3.040540687048e-04 0.0 
1.955279175398e-04 3.440333793752e-05 0.0 
5.734813862482e-05 6.273571041125e-04 0.0 
1.988240334012e-04 -1.344880357759e-05 0.0 
1.685772293719e-04 -3.565808896055e-05 0.0 
8.190190368992e-05 -7.788930842055e-05 0.0 
2.534876991611e-04 6.664804379726e-05 0.0 
1.520999623297e-04 -4.563674532221e-05 0.0 
8.765056810219e-05 8.629610928496e-04 0.0 
1.035690202373e-04 9.445710396156e-04 0.0 
4.898131005643e-04 4.538435164208e-04 0.0 
1.664267550016e-04 -3.268856776045e-05 0.0 
4.763324277541e-04 7.026164537764e-04 0.0 
1.537876525526e-04 -4.560189585276e-05 0.0 
1.839243119993e-04 -2.406321684692e-05 0.0 
8.857140166311e-05 -7.979349977510e-05 0.0 
2.233561008818e-04 7.837990163992e-05 0.0 
2.780669076470e-04 5.500065719889e-05 0.0 
4.971557357461e-05 5.508010173794e-04 0.0 
3.076670563888e-04 8.493556216313e-05 0.0 
2.567023355570e-04 6.222930982654e-05 0.0 
2.806285222957e-04 6.144034257138e-05 0.0 
5.100215092836e-04 7.875560140215e-04 0.0 
7.937642290652e-05 -8.824437081365e-05 0.0 
1.640827455266e-04 5.173224624792e-05 0.0 
1.414352489863e-04 4.640720300596e-05 0.0 
3.858495064107e-04 6.554199187555e-04 0.0 
2.151339298860e-04 -3.767894222521e-08 0.0 
2.719434462225e-04 6.266834339192e-05 0.0 
7.999062661215e-05 8.585756557549e-04 0.0 
1.804094719335e-04 -2.615864292350e-05 0.0 
4.906961540788e-04 1.116531888170e-03 0.0 
1.125001673737e-04 -7.278371009101e-05 0.0 
2.231052507896e-04 8.295860780107e-05 0.0 
2.296573558033e-04 1.103986941877e-05 0.0 
9.929487321791e-05 -8.095543893886e-05 0.0 
6.558522966781e-05 -1.003460831286e-04 0.0 
2.638755835164e-04 4.711248130662e-05 0.0 
2.258401971733e-04 4.648512762868e-05 0.0 
2.611761151872e-04 3.870531633389e-04 0.0 
-1.643410148589e-05 -7.206351435911e-05 0.0 
3.847626605870e-04 1.977376323237e-04 0.0 
3.316485765962e-04 1.174861918042e-04 0.0 
2.468236022539e-04 2.642960757971e-05 0.0 
9.524609387923e-05 9.404488472102e-04 0.0 
2.826767765673e-04 5.878470085315e-05 0.0 
1.124683411781e-04 -7.170464945284e-05 0.0 
2.604181757781e-04 3.768013969237e-05 0.0 
4.012645741871e-05 6.131690634089e-04 0.0 
9.940288559212e-05 -7.833923781976e-05 0.0 
4.381290134847e-05 -8.737703980059e-05 0.0 
6.657966538423e-05 -8.486561063544e-05 0.0 
2.333102299191e-04 7.188910936350e-05 0.0 
1.989046112882e-04 -7.931617270264e-06 0.0 
3.604416201368e-04 1.527018365539e-04 0.0 
2.900119521737e-04 6.591321066332e-05 0.0 
1.389988421772e-04 3.922963329029e-05 0.0 
6.007259051543e-05 -9.318600640350e-05 0.0 
1.493026440030e-04 1.037935136543e-03 0.0 
8.772141193573e-05 -8.771809640703e-05 0.0 
2.386655673521e-04 8.070176604447e-05 0.0 
3.008293195080e-04 4.305193079591e-04 0.0 
2.629639194926e-04 9.598024698061e-04 0.0 
8.221801131327e-05 5.059409672711e-04 0.0 
2.199646958618e-04 3.373246598714e-04 0.0 
5.060331797947e-04 5.401177621346e-04 0.0 
3.479748423644e-04 5.418046696835e-04 0.0 
1.806458547133e-04 7.954217704649e-05 0.0 
2.377971833373e-04 1.841426915959e-05 0.0 
5.224068386167e-04 7.899150161935e-04 0.0 
2.948060694618e-04 2.861353189684e-04 0.0 
1.310741773804e-04 7.749108370683e-05 0.0 
1.673554840192e-04 -3.612165309062e-05 0.0 
3.137334064219e-04 9.479728701784e-05 0.0 
3.429437572682e-04 1.282376912958e-04 0.0 
8.786125050550e-05 -8.618095592610e-05 0.0 
3.081114043997e-04 8.556216785124e-05 0.0 
3.672532632520e-04 1.688800829269e-04 0.0 
4.109548132486e-04 2.377182523846e-04 0.0 
1.833220182000e-04 -2.202578965903e-05 0.0 
3.844842217368e-04 2.546302353037e-04 0.0 
9.497634973025e-05 7.942054478075e-04 0.0 
4.344370787801e-04 2.971009694330e-04 0.0 
1.973455886695e-04 6.732551663924e-05 0.0 
2.257408104236e-04 1.261608796704e-04 0.0 
1.626821632183e-04 6.580298467843e-05 0.0 
3.347928657611e-04 1.156519491321e-04 0.0 
1.744017017262e-04 2.767755367425e-04 0.0 
3.533473927438e-04 8.426341710245e-04 0.0 
1.956395370072e-04 6.773734571775e-05 0.0 
2.746278869198e-04 8.850880257477e-04 0.0 
1.031656157586e-04 4.501720900258e-04 0.0 
3.586137685748e-04 1.464414029948e-04 0.0 
4.998148417465e-04 1.085155853310e-03 0.0 
2.841875575994e-04 8.099917084749e-04 0.0 
4.674568523989e-04 1.029792850434e-03 0.0 
1.503628648261e-04 6.458963943132e-05 0.0 
3.990319811238e-05 2.148749592273e-04 0.0 
1.114026584414e-04 2.635550371865e-05 0.0 
2.230154613590e-04 1.459064403229e-04 0.0 
3.475116008225e-05 4.001242755313e-04 0.0 
3.532079037251e-04 2.075656785523e-04 0.0 
8.614603187023e-05 1.010223347658e-03 0.0 
8.715679863789e-05 5.773708524730e-04 0.0 
3.945486499676e-04 2.074083020472e-04 0.0 
4.729381968934e-04 4.062322035497e-04 0.0 
6.298273320861e-05 3.611202214293e-04 0.0 
2.035305354502e-04 4.574275000243e-05 0.0 
1.012310211321e-04 7.254220736356e-04 0.0 
3.412813460322e-04 1.628471439419e-04 0.0 
1.946720927531e-04 1.091346303317e-04 0.0 
1.062059364725e-04 6.568174704513e-04 0.0 
1.248856782933e-04 1.412942189987e-04 0.0 
1.464253498142e-04 5.064574119393e-05 0.0 
2.550285752994e-04 3.273665003029e-05 0.0 
9.427151423858e-05 1.014638213912e-03 0.0 
1.008819468897e-04 1.092591437174e-03 0.0 
3.174313350560e-04 9.503872478584e-05 0.0 
2.350026659082e-04 5.988847340376e-05 0.0 
2.394880458237e-04 7.152554764097e-05 0.0 
5.785214743009e-05 -8.189941743118e-05 0.0 
4.443112077152e-04 7.532226706100e-04 0.0 
4.557198849956e-04 3.399797947054e-04 0.0 
4.184928930070e-04 2.618564493625e-04 0.0 
4.976920152543e-04 9.310810517550e-04 0.0 
4.994800698153e-05 2.880712554564e-04 0.0 
1.484033377477e-04 3.986680981219e-04 0.0 
3.911607146090e-05 4.049832473604e-04 0.0 
4.172585552201e-04 1.315978870299e-03 0.0 
1.261850666134e-04 5.949548622735e-04 0.0 
2.219635857540e-04 5.070126818732e-05 0.0 
4.802474259429e-05 3.487590808593e-04 0.0 
1.264378449052e-04 7.357324005102e-04 0.0 
2.653421315619e-04 4.292865772665e-05 0.0 
4.764845944810e-04 4.145645550623e-04 0.0 
9.835956548604e-05 6.531249000931e-04 0.0 
6.995960291736e-05 4.308038557956e-04 0.0 
7.666552540758e-05 6.409593089286e-04 0.0 
9.341978187754e-05 7.215486269160e-04 0.0 
1.725150612927e-04 4.853214370737e-05 0.0 
2.564454878909e-04 1.859641072746e-04 0.0 
2.050500664445e-04 6.284471166326e-05 0.0 
2.422528174865e-04 4.529405539384e-05 0.0 
3.343999567567e-04 1.481050764713e-03 0.0 
3.388760934735e-04 2.120227123540e-04 0.0 
1.747206534070e-04 7.463400080967e-04 0.0 
7.582225901255e-05 -9.492647188992e-05 0.0 
4.416998854847e-04 3.040849720120e-04 0.0 
4.209880934155e-04 2.532328964335e-04 0.0 
4.473887497364e-04 3.579931452646e-04 0.0 
3.504080542955e-04 4.525846165186e-04 0.0 
4.636466279303e-04 3.736633236193e-04 0.0 
4.131231386078e-04 3.091442800755e-04 0.0 
3.663524938451e-04 1.256070274651e-03 0.0 
2.569243663414e-04 3.814659102708e-05 0.0 
1.394961297270e-04 8.849419815470e-04 0.0 
9.313459515119e-05 1.331407292661e-03 0.0 
5.648180564483e-05 1.771773728923e-03 0.0 
2.561087192946e-04 4.998405406126e-05 0.0 
3.270040957587e-04 1.818210759094e-04 0.0 
1.179551866969e-04 3.319058329501e-04 0.0 
4.784326240089e-04 4.123865817802e-04 0.0 
2.526454539196e-04 4.242743681009e-05 0.0 
1.122221691597e-04 8.750723952104e-04 0.0 
1.724456356132e-04 1.904379523062e-03 0.0 
3.597609768831e-04 2.245944620292e-04 0.0 
4.497010491987e-04 3.376666567323e-04 0.0 
3.596800564828e-04 1.194404015559e-03 0.0 
2.277085141255e-04 6.231323164738e-05 0.0 
2.767249169918e-04 2.397457617018e-04 0.0 
2.283672770735e-04 7.175681504694e-05 0.0 
1.832419249140e-04 6.836724899977e-05 0.0 
3.902171613836e-04 2.744474891743e-04 0.0 
8.363968323312e-05 6.452274935478e-04 0.0 
3.324782476269e-04 3.900428201955e-04 0.0 
1.770805905132e-04 6.256102341502e-05 0.0 
2.421392527949e-04 1.946436926741e-03 0.0 
1.199153412887e-04 8.053884840802e-04 0.0 
2.522530290698e-04 2.120935540033e-04 0.0 
8.024815563954e-05 5.733468926473e-04 0.0 
4.283520978525e-04 3.211500926909e-04 0.0 
4.802469328530e-04 4.165867784122e-04 0.0 
1.561329435262e-04 -1.359356488717e-05 0.0 
1.962880463980e-04 6.030790027184e-04 0.0 
6.355500125427e-05 4.934379673980e-04 0.0 
6.570292519903e-05 -9.841858077594e-05 0.0 
2.820911851541e-04 1.931712228238e-03 0.0 
3.475113458648e-04 4.577106724651e-04 0.0 
3.479586948031e-05 3.317693391853e-04 0.0 
2.252934438962e-04 1.782552374200e-04 0.0 
4.464803045877e-04 8.666597435318e-04 0.0 
1.177062489099e-04 7.325785715436e-04 0.0 
2.141246546119e-04 1.145436062589e-05 0.0 
3.316721684862e-04 3.926170082674e-04 0.0 
4.918983215343e-04 1.106101168209e-03 0.0 
1.431926268490e-04 1.069468841908e-04 0.0 
2.420229782289e-04 2.185806834808e-04 0.0 
1.908380137856e-04 1.584968194312e-04 0.0 
4.577250450857e-04 3.671500968535e-04 0.0 
2.089033921892e-05 7.421332092657e-05 0.0 
2.990515840599e-04 1.883050114045e-03 0.0 
1.415034425620e-04 3.720443618332e-05 0.0 
5.061259330018e-04 5.983873860579e-04 0.0 
1.475684363695e-04 8.136709191010e-04 0.0 
2.836337265207e-04 5.850904759172e-04 0.0 
1.571210172024e-04 6.024717022117e-05 0.0 
1.765075523345e-04 1.236378932005e-04 0.0 
7.421634762761e-05 -8.862586688739e-05 0.0 
3.735233629963e-04 2.776133489224e-04 0.0 
3.689174976401e-04 1.619934768349e-04 0.0 
2.886070288774e-04 2.333929915788e-04 0.0 
4.768849739807e-04 1.234022604346e-03 0.0 
1.597447737035e-04 6.731083755041e-04 0.0 
2.203575195200e-04 1.509154253041e-04 0.0 
1.112864844973e-04 8.019245565305e-04 0.0 
1.253493577126e-04 3.333723136253e-04 0.0 
1.096568008950e-04 5.886081409708e-04 0.0 
1.112832242530e-04 5.207803746382e-04 0.0 
3.875347602406e-04 9.657486670067e-04 0.0 
1.454372699218e-04 3.301979255140e-05 0.0 
1.227713262457e-04 6.635285250057e-04 0.0 
5.092002250523e-04 6.106702355716e-04 0.0 
3.004488915156e-04 1.804467421207e-03 0.0 
1.811980956227e-04 1.232326996857e-04 0.0 
4.023275260661e-04 6.606638308326e-04 0.0 
7.607979311354e-05 -9.146182905631e-05 0.0 
3.211670655429e-04 2.621486907246e-04 0.0 
6.604375724632e-06 -1.267697072562e-04 0.0 
4.952351426286e-04 7.934816182820e-04 0.0 
3.433810749706e-04 2.274168720222e-04 0.0 
8.717950816124e-05 3.794603559287e-04 0.0 
8.227120728717e-05 3.126807738138e-04 0.0 
3.699988980271e-04 2.598058755679e-04 0.0 
8.903784880601e-05 5.099284598231e-04 0.0 
5.168583496297e-04 6.451917571949e-04 0.0 
3.208320693984e-04 4.908258452291e-04 0.0 
2.896466327420e-04 1.703859504575e-03 0.0 
1.676248078076e-04 3.398289658697e-04 0.0 
2.697430303626e-04 1.587052407604e-03 0.0 
2.573170361638e-04 1.523835344652e-03 0.0 
4.971557988928e-04 4.924510099917e-04 0.0 
2.431543153323e-04 1.458313386042e-03 0.0 
4.715261223608e-04 6.078805205178e-04 0.0 
5.194034486308e-04 7.707245813275e-04 0.0 
4.588270100682e-04 3.432262960898e-04 0.0 
2.945192111807e-04 3.690891908238e-04 0.0 
4.904375904861e-04 4.568201361313e-04 0.0 
6.419449436401e-05 4.267665143019e-04 0.0 
1.372835589084e-04 3.258429733900e-04 0.0 
1.730559820205e-04 3.487270743137e-05 0.0 
2.551236053177e-04 1.944263707345e-04 0.0 
3.855151301359e-04 1.878423929315e-04 0.0 
1.035365472349e-04 5.174063632494e-04 0.0 
4.705160913750e-04 3.789320483537e-04 0.0 
1.173322235553e-04 2.552043016111e-05 0.0 
1.018230071170e-04 5.850509153832e-04 0.0 
1.349468238222e-04 5.975775167726e-04 0.0 
4.004768418735e-04 2.647786344695e-04 0.0 
5.061610465749e-04 5.455098128192e-04 0.0 
2.701087711377e-04 3.808255591260e-04 0.0 
3.402054498377e-04 8.526582686754e-04 0.0 
2.764064649311e-04 3.139418789704e-04 0.0 
3.861421298636e-04 5.868952942532e-04 0.0 
4.898621698018e-04 1.152651773971e-03 0.0 
4.350143637257e-04 8.889268384569e-04 0.0 
9.119827778389e-05 1.975015261752e-05 0.0 
1.315529149460e-04 6.665012349195e-04 0.0 
4.979081555949e-04 5.008196803868e-04 0.0 
3.959213476973e-04 7.211048928937e-04 0.0 
3.103439923084e-04 1.838215881332e-04 0.0 
6.954425976158e-05 4.978796659518e-04 0.0 
2.294680071885e-04 3.353737388729e-04 0.0 
1.590052686532e-04 8.890096957954e-04 0.0 
2.546934762811e-04 1.142861151312e-04 0.0 
4.693262724527e-04 3.777084714322e-04 0.0 
3.050250677517e-04 1.706487351655e-04 0.0 
4.879534719858e-04 8.259425848067e-04 0.0 
6.873643364867e-05 3.668562188629e-04 0.0 
1.830463886878e-04 2.760138444483e-04 0.0 
4.324513967618e-04 3.039613134079e-04 0.0 
3.505395537766e-04 5.635098894538e-04 0.0 
3.069228194635e-04 3.373860955292e-04 0.0 
4.764338567344e-04 6.961846056901e-04 0.0 
5.109901328754e-04 5.963728878719e-04 0.0 
4.214387407650e-04 2.966017009554e-04 0.0 
2.580279924732e-04 1.001481655523e-04 0.0 
3.321258748090e-04 4.933270170030e-04 0.0 
4.558078494501e-04 3.420706530804e-04 0.0 
2.715153040382e-04 8.143876439703e-04 0.0 
8.361573312138e-05 1.729294494742e-05 0.0 
2.788865969298e-04 7.399515930855e-04 0.0 
3.255390878053e-04 4.012804449256e-04 0.0 
2.618957902495e-04 8.885281597634e-04 0.0 
2.373358305042e-04 1.035792581069e-03 0.0 
3.481756540960e-04 7.730812318871e-04 0.0 
2.905661491889e-04 2.122436945649e-04 0.0 
1.650468070788e-04 3.696598558096e-05 0.0 
1.447707780136e-04 7.410836462577e-04 0.0 
7.622077731988e-05 3.100724185382e-04 0.0 
2.503421220287e-04 9.622863906414e-04 0.0 
4.862736044957e-04 5.926338941667e-04 0.0 
2.733960123541e-04 2.960073895153e-04 0.0 
5.262133726934e-05 3.518306600402e-04 0.0 
5.056663045381e-04 7.239459219729e-04 0.0 
4.899666770202e-04 7.288132623925e-04 0.0 
4.969426457933e-04 5.472141152864e-04 0.0 
1.499969661228e-04 6.714191735444e-04 0.0 
4.443236875027e-04 1.261085048079e-03 0.0 
4.584281328858e-04 5.517381231288e-04 0.0 
4.570317876819e-04 1.229078475362e-03 0.0 
3.504149385056e-04 2.736131638063e-04 0.0 
2.033657732009e-04 2.045677632561e-04 0.0 
4.823210512061e-04 4.544877170625e-04 0.0 
1.785354338629e-04 5.224874802068e-04 0.0 
9.480439312535e-05 3.171001830656e-04 0.0 
4.281623064674e-04 1.237786008335e-03 0.0 
4.059474807378e-04 2.217323006381e-04 0.0 
2.423101526023e-04 2.462074567110e-04 0.0 
1.544530719815e-04 7.433789303835e-04 0.0 
1.957925987714e-04 4.803517133990e-05 0.0 
5.225770397893e-04 7.425016255880e-04 0.0 
1.200531104925e-04 4.910576352289e-04 0.0 
6.010377000830e-05 1.360650660522e-05 0.0 
4.424767437378e-04 7.980801462631e-04 0.0 
4.023185526825e-04 3.761216892295e-04 0.0 
2.439825614568e-04 3.222879243348e-04 0.0 
1.261646108171e-05 5.046763160446e-04 0.0 
2.069314972925e-04 5.541844776842e-05 0.0 
4.835917239809e-04 9.829305386053e-04 0.0 
1.693365334956e-04 8.904693529423e-04 0.0 
2.085995884223e-04 1.812063584719e-05 0.0 
4.935539546869e-04 5.005094846679e-04 0.0 
1.087379626086e-04 2.209784882533e-05 0.0 
4.667054623231e-04 6.351751792706e-04 0.0 
4.873009343221e-04 5.431906267935e-04 0.0 
4.256692950171e-04 7.519854513599e-04 0.0 
1.059701714765e-04 4.176487684076e-04 0.0 
3.575339246464e-04 5.295362658606e-04 0.0 
3.490621015157e-04 2.582300571497e-04 0.0 
1.423500152005e-04 2.246799310952e-04 0.0 
3.096000272762e-04 4.216304443806e-04 0.0 
4.283480228843e-04 5.573531270451e-04 0.0 
1.614248808766e-04 2.903428170943e-05 0.0 
4.535171959561e-05 2.828190355609e-04 0.0 
1.373599644430e-04 9.730926426143e-05 0.0 
3.218043032812e-04 2.494616571706e-04 0.0 
5.172127302752e-04 6.366906661834e-04 0.0 
3.961003111850e-04 6.396656045401e-04 0.0 
6.842739995559e-05 1.317030204761e-05 0.0 
4.921640424781e-05 -4.367892790045e-05 0.0 
3.391618594486e-04 4.696685778277e-04 0.0 
1.380170919614e-04 8.112923832674e-04 0.0 
1.359759553657e-04 2.855119620053e-05 0.0 
1.953938183617e-04 5.571866037833e-05 0.0 
3.705328645907e-05 1.405435624176e-03 0.0 
2.469452143017e-05 1.405846072943e-03 0.0 
2.542274773831e-04 7.467092762308e-04 0.0 
3.827014743167e-04 5.769309885210e-04 0.0 
1.808803079182e-04 8.884490405539e-06 0.0 
3.284304026746e-04 7.142382626916e-04 0.0 
4.863335518320e-04 6.367859597922e-04 0.0 
2.178286370054e-04 1.118062203089e-04 0.0 
5.198566645754e-04 6.820927379536e-04 0.0 
1.876305270115e-05 7.565121443286e-05 0.0 
2.436315678398e-04 1.180870568025e-03 0.0 
4.950457120801e-04 6.967092752474e-04 0.0 
2.244483344497e-04 2.778331818984e-05 0.0 
4.316749422846e-04 6.787758633256e-04 0.0 
2.399861209822e-04 2.503473354406e-05 0.0 
4.170335825355e-04 6.864092786576e-04 0.0 
4.080963358516e-04 8.574429570646e-04 0.0 
1.675819951799e-04 8.174258603737e-04 0.0 
3.187636190888e-04 6.468297875443e-04 0.0 
2.954078248287e-04 5.883596726323e-04 0.0 
1.473559945566e-05 -1.290693606155e-04 0.0 
2.311724942405e-04 1.549441937292e-05 0.0 
4.417277979017e-04 1.211421813689e-03 0.0 
3.099143634894e-04 7.987293875019e-04 0.0 
2.914302102850e-04 7.351266630555e-04 0.0 
2.589318876934e-04 1.703014464736e-04 0.0 
3.689269449048e-06 -1.237575838062e-04 0.0 
2.728066570526e-04 4.039034151971e-04 0.0 
4.670187527275e-04 8.167065197451e-04 0.0 
2.143227562803e-04 3.696540590396e-06 0.0 
2.690283117649e-04 1.520026785402e-03 0.0 
2.548880635658e-04 1.455909039162e-03 0.0 
1.781017690246e-04 8.186977361272e-04 0.0 
3.606190081788e-04 1.048603189293e-03 0.0 
2.039840243468e-04 1.021849126974e-05 0.0 
3.198565238150e-04 1.674176914324e-04 0.0 
2.916774348716e-04 4.681736331251e-04 0.0 
1.046870883674e-04 1.109363554322e-04 0.0 
8.919804550105e-05 4.444480236198e-04 0.0 
1.654427365754e-04 -1.488520258509e-05 0.0 
1.439543913787e-04 2.665896350815e-05 0.0 
2.086856365340e-05 -1.196537170350e-04 0.0 
3.281568030618e-04 1.591815592978e-04 0.0 
4.524624394765e-04 7.749935056469e-04 0.0 
1.595013301038e-05 -1.263012213486e-04 0.0 
8.253314085015e-05 4.405273457811e-04 0.0 
2.652401778169e-04 5.098938086802e-04 0.0 
3.228037310274e-04 7.914811001307e-04 0.0 
4.201493728120e-04 8.392885412088e-04 0.0 
4.171885054220e-04 2.448812920055e-04 0.0 
3.316356949124e-04 1.287088415935e-04 0.0 
8.095861492179e-05 3.771103009115e-04 0.0 
3.062250010699e-04 1.168255447118e-04 0.0 
4.695754924695e-04 7.239837847240e-04 0.0 
4.758266421126e-04 7.890734079511e-04 0.0 
-3.130301043615e-05 1.643473067018e-03 0.0 
2.158943971832e-04 4.808412295349e-04 0.0 
2.943042390442e-04 3.572342921913e-04 0.0 
2.260778963650e-04 9.643224904112e-04 0.0 
2.677165917563e-04 3.046179614473e-04 0.0 
4.835326233667e-04 1.054273093061e-03 0.0 
1.837351675353e-04 5.358410120670e-04 0.0 
2.518177474821e-04 3.159776150710e-04 0.0 
2.633212444068e-04 1.384779448784e-03 0.0 
2.867146649312e-04 3.656263862837e-04 0.0 
1.331311759301e-04 2.210282549740e-05 0.0 
4.144637177102e-04 6.048652770334e-04 0.0 
2.306320697574e-04 2.220404380168e-05 0.0 
2.363401855198e-04 3.063085678817e-05 0.0 
1.018095560330e-04 3.202275667313e-04 0.0 
3.490458984573e-04 1.385304418468e-04 0.0 
4.148078649532e-04 7.709267513805e-04 0.0 
4.898778841946e-04 5.402934646888e-04 0.0 
2.728847804077e-04 1.028783573469e-04 0.0 
5.085339034396e-04 6.873120988140e-04 0.0 
4.367015919284e-04 5.113614814225e-04 0.0 
4.299705363461e-04 2.810704183966e-04 0.0 
4.708740064291e-04 5.843889922306e-04 0.0 
3.162004225120e-04 7.226140332843e-04 0.0 
4.573794188666e-04 5.253649289753e-04 0.0 
3.606956632728e-04 7.623034508880e-04 0.0 
2.903946071524e-04 2.015900187451e-04 0.0 
3.202799242547e-04 2.234248746941e-04 0.0 
5.158665791198e-04 7.084630617990e-04 0.0 
1.908446311420e-04 8.918589615662e-04 0.0 
1.165584789703e-04 2.057247685399e-05 0.0 
1.066181617368e-04 1.711773947903e-05 0.0 
2.837136845123e-04 1.121079053548e-03 0.0 
3.524630189533e-04 6.945955541981e-04 0.0 
6.631080990493e-05 1.521524288811e-05 0.0 
3.674285789929e-04 1.609874315232e-03 0.0 
1.615196227501e-04 -5.692780730898e-06 0.0 
5.849697368096e-05 1.653973453623e-03 0.0 
9.121510071254e-05 1.618590378028e-05 0.0 
4.431410718918e-04 6.235877914807e-04 0.0 
4.070397203023e-05 -3.905196126067e-05 0.0 
4.017858925388e-04 3.963388965801e-04 0.0 
2.020520031730e-04 8.923037260195e-04 0.0 
2.142587299628e-04 9.645779535890e-04 0.0 
4.450959480291e-04 7.096385352976e-04 0.0 
2.926198673267e-04 1.639486261735e-03 0.0 
2.817268304614e-04 1.581535970820e-03 0.0 
8.223380744338e-05 1.367199716336e-05 0.0 
3.265026502607e-04 1.309247374132e-04 0.0 
4.073871298551e-04 2.260606604171e-04 0.0 
3.373679498316e-04 1.747582578604e-04 0.0 
4.471669494335e-04 3.113547180454e-04 0.0 
4.649892284983e-04 6.366202091133e-04 0.0 
2.808740914719e-04 1.647347573998e-03 0.0 
2.346437773776e-04 1.110636569558e-03 0.0 
3.105616934775e-05 1.449043467757e-03 0.0 
3.181233626788e-04 2.104191629210e-04 0.0 
5.161495938918e-04 6.672446090307e-04 0.0 
1.808488735820e-04 1.290334830642e-04 0.0 
3.555205360153e-05 4.784532559778e-06 0.0 
4.453376077376e-04 3.114226519575e-04 0.0 
5.532247035120e-05 1.412592946831e-05 0.0 
4.454628402881e-04 4.292995906433e-04 0.0 
2.173464019925e-04 1.720812604913e-04 0.0 
4.534011116370e-04 6.862619261686e-04 0.0 
4.070149889481e-04 5.272427859365e-04 0.0 
2.319699481130e-04 1.058066362537e-04 0.0 
2.489922536986e-04 3.161100904971e-05 0.0 
3.846022417885e-04 7.364404218614e-04 0.0 
4.343493307612e-04 2.800267362115e-04 0.0 
3.914357220839e-04 8.044166962040e-04 0.0 
4.955261946928e-04 1.042409536550e-03 0.0 
3.939255204639e-04 4.540700383869e-04 0.0 
4.319893918850e-04 2.760034915624e-04 0.0 
1.962316406670e-04 1.676393946114e-05 0.0 
3.790626472395e-04 8.187067497912e-04 0.0 
2.124519906518e-05 1.221516703531e-03 0.0 
4.616417810825e-04 4.701555286252e-04 0.0 
1.934130190731e-04 1.546059789629e-03 0.0 
4.677881675701e-05 -9.902790560324e-05 0.0 
1.771636096299e-04 1.437377936183e-06 0.0 
2.822329803900e-04 4.461172088570e-04 0.0 
2.252802889129e-04 8.935119371469e-04 0.0 
3.081348264083e-04 1.743072719500e-03 0.0 
9.682914802337e-06 3.677798226048e-05 0.0 
-1.458016394349e-04 1.447370451301e-03 0.0 
3.016622067048e-04 1.693387699637e-03 0.0 
3.925620786508e-04 2.037631119442e-04 0.0 
1.403830216843e-04 -1.990102414758e-05 0.0 
3.331166457527e-04 1.417958978725e-03 0.0 
3.952493351533e-04 2.643147666951e-04 0.0 
3.486482969596e-04 1.432463943511e-04 0.0 
4.264745398089e-04 6.671490032115e-04 0.0 
4.244424329951e-04 4.006463298145e-04 0.0 
2.056372111932e-04 4.059399264817e-04 0.0 
3.200557003709e-04 1.031289121276e-03 0.0 
1.815651844729e-04 -7.007113950663e-06 0.0 
1.306375377108e-04 -1.764126896070e-05 0.0 
1.624387984655e-04 -3.041191090495e-05 0.0 
2.473776434811e-04 1.317730798939e-03 0.0 
2.372680666693e-04 8.930169465737e-04 0.0 
1.292182268709e-05 -6.785655676447e-06 0.0 
1.533113339962e-05 -1.237883823638e-04 0.0 
-5.149972073630e-05 5.466999735519e-04 0.0 
1.091346266574e-04 -4.267796759965e-05 0.0 
1.153213638563e-04 -2.258959801330e-05 0.0 
4.594542810223e-04 4.025529375767e-04 0.0 
3.945110071656e-04 2.899842215199e-04 0.0 
4.205665430736e-04 4.531897640213e-04 0.0 
1.504446235834e-04 -4.580266346874e-06 0.0 
2.421536055973e-04 7.481143281210e-04 0.0 
1.053833768975e-04 -1.956044674748e-05 0.0 
4.734005785144e-04 4.489108654821e-04 0.0 
3.639965226245e-04 6.830225787587e-04 0.0 
1.457561566912e-04 1.188464707610e-03 0.0 
3.483881538169e-04 3.183804557529e-04 0.0 
9.048483964641e-05 -2.336179384758e-05 0.0 
1.353124603860e-04 -1.022129531627e-05 0.0 
3.120294402134e-04 1.826740524824e-03 0.0 
4.403472375240e-04 3.265610262211e-04 0.0 
8.027755059266e-05 -1.979286278575e-05 0.0 
5.523995619165e-06 8.814777689273e-04 0.0 
6.124489050811e-06 1.027253311827e-03 0.0 
3.114627616180e-04 1.788391712594e-03 0.0 
1.241982349609e-04 -8.205665229922e-06 0.0 
3.391920263332e-04 1.775966312393e-04 0.0 
2.895739675778e-04 1.537949324968e-03 0.0 
2.186864149060e-04 1.651784721426e-04 0.0 
1.179236294940e-04 -3.448796381775e-06 0.0 
3.404508748932e-04 1.607997880184e-04 0.0 
4.772639185880e-04 5.205459452692e-04 0.0 
2.967017200411e-04 1.756476698884e-03 0.0 
6.564987759480e-05 -2.261470439733e-05 0.0 
9.574374324701e-06 -1.111889943068e-04 0.0 
2.404147029789e-04 1.251273271717e-03 0.0 
1.095853253269e-04 -1.259648760853e-05 0.0 
3.906802687327e-04 1.950033519015e-04 0.0 
1.878993783034e-04 1.414682414336e-06 0.0 
3.889942005824e-05 9.992467439447e-04 0.0 
6.793776536862e-06 4.533874575013e-04 0.0 
3.901855438328e-04 2.181628478293e-04 0.0 
2.519151816686e-04 1.426393494373e-04 0.0 
4.131663411725e-04 5.088117649674e-04 0.0 
9.865446654457e-05 -9.902427309565e-06 0.0 
8.424522906140e-05 -1.329745538669e-05 0.0 
4.460384601849e-04 3.925224586201e-04 0.0 
6.491631293732e-05 2.503356466089e-05 0.0 
7.309054576153e-05 1.126561797291e-03 0.0 
7.340274278278e-05 -1.011754056784e-05 0.0 
2.385130689057e-04 1.150429588664e-04 0.0 
2.842358095869e-04 9.062732460596e-05 0.0 
3.523577093830e-04 6.172208375948e-04 0.0 
3.709882692078e-04 1.641239593485e-03 0.0 
3.302762261907e-04 6.379648600498e-04 0.0 
9.257347390720e-05 3.270435045256e-05 0.0 
-2.197681015257e-04 5.886661529368e-04 0.0 
9.886116114199e-07 3.964867749536e-05 0.0 
2.708415281935e-06 1.942185615267e-06 0.0 
3.841365938698e-06 1.258612723323e-03 0.0 
3.364323271329e-04 1.306446187011e-04 0.0 
4.223657484237e-04 5.858099718529e-04 0.0 
4.749917705240e-04 4.909091445947e-04 0.0 
3.924664554419e-05 -9.618513220459e-05 0.0 
-3.927021498056e-05 1.493939748206e-03 0.0 
2.770598956601e-05 3.263762544054e-04 0.0 
2.467093355820e-04 8.192328298763e-04 0.0 
2.405004923025e-04 1.388751663200e-03 0.0 
5.415865805003e-05 5.088250637494e-05 0.0 
8.059246227574e-06 -1.197838151948e-04 0.0 
5.353009031349e-05 4.601540146070e-05 0.0 
2.347034094657e-04 8.212376958514e-04 0.0 
2.822225007934e-04 6.245456889812e-05 0.0 
4.426817341303e-04 6.247170889020e-04 0.0 
3.211311499920e-04 1.181703196092e-04 0.0 
3.190144136300e-04 1.604547669515e-03 0.0 
2.855165456309e-04 8.038305172264e-05 0.0 
2.473709147285e-04 6.761180440639e-04 0.0 
3.540807093739e-05 7.171424950085e-06 0.0 
3.758324752335e-04 2.061391391292e-04 0.0 
3.172293017984e-04 5.726131444195e-04 0.0 
-1.696357774058e-04 5.127472045704e-04 0.0 
4.281255791053e-04 3.165398813862e-04 0.0 
1.937324336728e-04 6.063033581523e-04 0.0 
2.325088789343e-04 1.970103000820e-05 0.0 
2.459237862328e-04 5.310538023307e-05 0.0 
4.491277205514e-04 6.014295210379e-04 0.0 
1.833009395990e-04 2.163883556084e-04 0.0 
3.000773554981e-04 1.887670361308e-03 0.0 
3.066694562266e-04 1.865122944677e-03 0.0 
2.124670779903e-04 1.306841180715e-05 0.0 
3.786314182217e-04 1.806710407903e-04 0.0 
5.006813336102e-04 6.288973868018e-04 0.0 
3.277772813195e-04 5.634420974040e-04 0.0 
1.255121622730e-04 2.615189754235e-04 0.0 
3.013546533304e-04 1.847840520612e-03 0.0 
1.018052845381e-05 7.302253137676e-04 0.0 
1.581968952569e-04 2.230762960773e-04 0.0 
4.604698531351e-04 4.813283487125e-04 0.0 
1.903202806427e-04 1.651634105378e-03 0.0 
3.802686226389e-04 1.584001893764e-03 0.0 
3.627203897589e-04 1.535266077165e-04 0.0 
2.844042343904e-04 5.949307454280e-04 0.0 
3.781892574210e-04 1.762396405266e-04 0.0 
2.208420294547e-04 9.901421384838e-04 0.0 
3.584685753171e-04 1.644946197684e-04 0.0 
3.403973119790e-04 1.647528622512e-03 0.0 
5.010646404510e-04 5.934739763277e-04 0.0 
3.627649490619e-04 1.626739604845e-04 0.0 
4.349630870693e-04 5.440913830197e-04 0.0 
3.881328601022e-05 9.088511779835e-04 0.0 
1.964248256218e-04 -4.063538825675e-06 0.0 
2.481907690521e-04 1.440651888233e-03 0.0 
3.392188785631e-04 1.472829494547e-04 0.0 
3.545194140215e-04 1.673273960586e-03 0.0 
-4.681424421663e-05 6.167612214408e-04 0.0 
2.519049454998e-06 2.970614685235e-04 0.0 
3.414374188596e-06 4.426395657285e-04 0.0 
-4.989530511861e-07 1.074525512338e-05 0.0 
3.301500604944e-04 1.466410423703e-04 0.0 
1.375720267645e-04 -3.741915380517e-05 0.0 
1.440322589504e-04 -4.072896112989e-05 0.0 
2.725675226671e-04 4.527572663208e-04 0.0 
4.394428393659e-04 5.216946438635e-04 0.0 
3.111683862309e-04 5.001961419142e-04 0.0 
4.112321403262e-04 2.771950897663e-04 0.0 
7.103355530612e-05 1.453640817323e-03 0.0 
6.873126925925e-05 2.228745613937e-05 0.0 
1.184523904595e-04 -4.690308600779e-05 0.0 
2.853877505554e-04 1.697705648639e-04 0.0 
4.891015744606e-04 6.056078945055e-04 0.0 
2.412037075713e-05 -1.230288329345e-04 0.0 
2.836492037989e-04 6.670409733326e-04 0.0 
4.555367871633e-04 3.672285577141e-04 0.0 
4.331194708495e-05 7.461684020092e-05 0.0 
4.122675411405e-04 3.335015971275e-04 0.0 
6.882027581165e-06 -1.123433191767e-05 0.0 
2.593577807140e-04 6.737562964141e-04 0.0 
1.025250603962e-04 4.894527826252e-06 0.0 
2.740044824637e-05 -4.181263254092e-05 0.0 
2.806460791190e-04 5.228888471118e-04 0.0 
3.178468065716e-04 2.872394726928e-04 0.0 
2.488023675872e-04 4.508313936505e-05 0.0 
1.956017553267e-05 -1.096982925398e-04 0.0 
4.768709156948e-04 5.504369646118e-04 0.0 
2.911093648351e-06 9.576979730555e-04 0.0 
4.227189910889e-05 1.306671687276e-04 0.0 
1.183298419754e-04 1.468805886810e-04 0.0 
6.674050936687e-05 1.554701256228e-04 0.0 
1.336427704892e-05 1.160141552898e-03 0.0 
4.465530657814e-05 2.228932599302e-04 0.0 
7.463182698390e-05 1.406147067569e-04 0.0 
4.075096129718e-04 2.519717145307e-04 0.0 
3.576954796558e-04 1.744082052624e-04 0.0 
1.322238879285e-04 7.431905833791e-05 0.0 
-1.889612223254e-04 6.710287157992e-04 0.0 
4.369976778526e-06 -1.159869267164e-04 0.0 
2.025665742508e-05 -3.741477545972e-05 0.0 
2.316389410187e-04 2.545928319355e-05 0.0 
3.577778950620e-04 2.121335921134e-04 0.0 
2.692266573535e-04 1.911426120776e-03 0.0 
2.873336739575e-04 1.903870610001e-03 0.0 
1.249699731670e-04 1.179201783020e-03 0.0 
4.298993079072e-04 3.471769339226e-04 0.0 
5.315369974097e-05 -9.998296404870e-05 0.0 
3.433404366920e-04 3.658968396088e-04 0.0 
2.482584925342e-05 7.578016730496e-06 0.0 
3.161689003341e-05 9.918876098603e-06 0.0 
3.545391509201e-04 1.575743645657e-04 0.0 
1.618336144858e-04 1.268119650205e-03 0.0 
-1.023757211693e-04 5.019919211968e-04 0.0 
2.183305865405e-04 1.872936238946e-03 0.0 
1.628149486397e-04 2.431824877911e-04 0.0 
2.499458653577e-04 1.895459791536e-03 0.0 
4.610049035912e-04 5.254726325095e-04 0.0 
3.024293713670e-04 1.170090544158e-04 0.0 
3.771737391996e-04 2.270676827594e-04 0.0 
2.569842703511e-05 3.384994370428e-04 0.0 
7.767292222203e-06 4.006638449581e-04 0.0 
3.219933690165e-04 1.314916482299e-04 0.0 
2.413964643109e-05 3.190315733038e-04 0.0 
2.055746100356e-05 5.310616852460e-04 0.0 
2.957529579031e-06 8.756318308108e-05 0.0 
6.060772030046e-06 3.501385837728e-06 0.0 
7.054761341157e-06 1.176639668559e-03 0.0 
3.028478883865e-04 9.344345291178e-05 0.0 
2.899337573663e-04 1.919998854165e-03 0.0 
3.002338953532e-04 8.322884721726e-05 0.0 
9.700474443617e-06 2.962780672195e-06 0.0 
1.260890908775e-04 1.761852844348e-03 0.0 
1.783288507044e-04 1.830533468350e-03 0.0 
2.593559815456e-04 1.626911194851e-04 0.0 
1.211133958265e-04 1.311910675475e-03 0.0 
1.462052321722e-05 3.056654772558e-04 0.0 
2.909549489868e-04 5.160072463935e-04 0.0 
2.505780948805e-04 2.208917047498e-04 0.0 
2.230861337421e-04 4.704477062981e-04 0.0 
4.540319076060e-05 1.125078302615e-03 0.0 
2.081002272278e-04 1.910293640112e-05 0.0 
2.243935089018e-04 3.951604865553e-05 0.0 
1.276190983667e-05 8.029796446324e-04 0.0 
2.844482288594e-04 2.674335593323e-04 0.0 
2.104308166764e-04 1.375734443490e-03 0.0 
2.438117675418e-05 1.322433227226e-03 0.0 
2.919030067804e-05 1.193369736278e-03 0.0 
5.216786488569e-05 1.142257437754e-03 0.0 
1.485437243256e-04 3.843170299667e-04 0.0 
1.866013041238e-04 6.426290607234e-06 0.0 
2.106000457153e-05 1.952999643730e-04 0.0 
4.997781903880e-05 9.866881481547e-04 0.0 
9.809131964043e-05 6.579944252415e-05 0.0 
1.382128785150e-04 2.749614142879e-04 0.0 
2.955300484879e-04 6.617766309326e-04 0.0 
6.601109250957e-05 3.081589578027e-04 0.0 
8.731877941421e-05 -6.585141458418e-05 0.0 
8.270147609919e-05 -7.718791586064e-05 0.0 
1.161989174488e-04 3.756618213195e-05 0.0 
-3.842166992812e-05 3.339277989483e-04 0.0 
2.327469878394e-05 -1.127228928200e-04 0.0 
2.661896036227e-05 2.386074676495e-05 0.0 
4.304932766702e-06 -1.318651514837e-04 0.0 
3.010996357776e-05 1.278247422320e-03 0.0 
1.847369952468e-04 9.464429910787e-05 0.0 
2.540053001222e-05 -5.489209935178e-05 0.0 
5.875424058120e-06 -1.002984932651e-04 0.0 
1.255662307292e-05 7.571314802468e-05 0.0 
1.058848550457e-04 1.409771927052e-03 0.0 
3.073531537509e-05 2.113621081641e-04 0.0 
1.735909316624e-04 9.908265910390e-05 0.0 
9.148802405533e-05 1.411521925114e-03 0.0 
-1.026299469181e-04 6.790093592217e-04 0.0 
5.151783392232e-06 1.640122856038e-04 0.0 
4.301910400612e-05 -1.052168801081e-04 0.0 
3.455459751352e-05 2.754362380827e-04 0.0 
7.782746542436e-06 2.492944326883e-06 0.0 
1.123875094459e-04 2.655957275836e-04 0.0 
2.304606294766e-04 3.808620073333e-04 0.0 
1.783894891331e-04 1.170946251498e-03 0.0 
5.293556346461e-05 -7.378398605696e-05 0.0 
3.455942840318e-04 3.504642155422e-04 0.0 
5.122415729330e-05 3.438518385093e-05 0.0 
1.210695376756e-05 6.560959077289e-04 0.0 
5.214438169581e-05 3.195410107904e-05 0.0 
4.506437522376e-05 3.960366316731e-04 0.0 
4.583785341069e-05 1.280777920404e-05 0.0 
2.400613613233e-04 2.875151074368e-04 0.0 
1.963652216884e-05 -1.262797282234e-04 0.0 
1.101673012393e-04 4.863101678718e-05 0.0 
5.298225852940e-05 1.855156559525e-04 0.0 
2.727360237178e-05 1.489601371729e-04 0.0 
6.804094058353e-05 1.303258214065e-03 0.0 
2.229787247559e-04 1.105348539232e-03 0.0 
3.262931233537e-04 1.525609759932e-03 0.0 
8.944620897550e-05 1.624798607848e-04 0.0 
4.156241498128e-05 -9.134700006608e-05 0.0 
1.892817477282e-04 1.182505600993e-03 0.0 
3.168935040774e-04 3.017174947796e-04 0.0 
5.599871546220e-05 1.455592311967e-03 0.0 
7.170657827473e-05 2.545875354121e-04 0.0 
4.170539768968e-07 8.317942968406e-05 0.0 
4.170539768968e-07 3.511529231664e-05 0.0 
5.286317774178e-08 -1.369927977475e-04 0.0 
2.564088289227e-07 -1.372217524568e-04 0.0 
3.002987575597e-06 1.403858639704e-03 0.0 
7.136852383487e-06 1.454584174690e-03 0.0 
1.052683750134e-06 1.496849346244e-06 0.0 
1.052683750134e-06 3.273573926482e-06 0.0 
1.974365777498e-06 -1.359451978974e-04 0.0 
-1.443042581855e-04 3.875078584861e-04 0.0 
4.698234932007e-05 1.206363355661e-05 0.0 
2.027761731921e-04 2.148744042932e-04 0.0 
4.249931889300e-05 -1.117267600876e-04 0.0 
7.481295761183e-05 2.027916582500e-05 0.0 
1.200693397742e-05 -2.757524472131e-05 0.0 
1.248222276835e-05 -5.150286937954e-05 0.0 
3.388305585617e-05 9.300399029340e-04 0.0 
1.333940960456e-04 1.551654108599e-04 0.0 
3.976070004910e-04 4.356424611529e-04 0.0 
3.413671027654e-05 -1.100933904425e-04 0.0 
7.392149685828e-05 -5.673199319247e-05 0.0 
1.203100987079e-04 2.240846637401e-04 0.0 
1.458115234345e-06 3.668319155966e-04 0.0 
2.409255269850e-05 -4.947374399415e-05 0.0 
2.205223692010e-05 1.078741635306e-03 0.0 
1.815761718321e-04 2.271757205623e-04 0.0 
2.150831793350e-04 4.064230273356e-04 0.0 
2.597659518171e-04 5.331013004834e-04 0.0 
7.781054352749e-05 1.406414891613e-03 0.0 
4.236658982532e-04 4.462896217068e-04 0.0 
8.949188531969e-05 2.626575120687e-04 0.0 
3.374180594103e-05 -1.097069844103e-04 0.0 
-9.314862477079e-06 -6.738069094778e-06 0.0 
2.134964953355e-04 2.803533489822e-04 0.0 
2.886621394286e-04 1.809739799835e-04 0.0 
1.026286477879e-04 1.630118668846e-04 0.0 
1.768190618821e-05 8.186786389759e-04 0.0 
2.618819050400e-05 8.432698921611e-06 0.0 
2.277318618345e-04 2.680922292114e-04 0.0 
1.905983681040e-04 2.188864261571e-04 0.0 
1.442242244972e-05 -1.671914924138e-05 0.0 
-5.103527905903e-05 9.709811197493e-04 0.0 
2.611891525129e-04 1.953671007420e-03 0.0 
3.654170383043e-04 1.615013734937e-03 0.0 
1.864577414655e-04 1.123888701905e-03 0.0 
4.213275734963e-04 4.679874485771e-04 0.0 
2.719625282767e-05 2.667006637395e-04 0.0 
1.123081858300e-04 6.514407682436e-05 0.0 
2.401700344072e-05 1.014269007222e-04 0.0 
2.334576867615e-05 1.112592440626e-05 0.0 
2.122551645026e-04 1.932918136172e-03 0.0 
2.890504868595e-05 7.511788301801e-04 0.0 
6.198689983536e-05 -9.295728255010e-05 0.0 
6.092048893020e-05 2.497179114196e-04 0.0 
2.469120879324e-05 -1.236347354530e-04 0.0 
1.906755724358e-04 1.183776783281e-04 0.0 
1.154538801039e-04 1.167910492357e-03 0.0 
1.098629111341e-04 8.980299733106e-05 0.0 
3.123057352697e-04 3.276845186804e-04 0.0 
2.046165285384e-04 1.118891459787e-03 0.0 
9.777050808333e-05 3.722598117454e-05 0.0 
4.672208953791e-05 1.825970308301e-04 0.0 
4.243799645274e-06 1.919589698834e-04 0.0 
1.220899079415e-04 1.853284600411e-03 0.0 
6.045381588735e-05 3.018255535929e-04 0.0 
9.484189788627e-05 1.209672200944e-04 0.0 
1.989018561393e-04 1.190539941838e-04 0.0 
2.821143073916e-04 2.779679591665e-04 0.0 
1.309154063673e-05 4.001109698380e-06 0.0 
2.491170641601e-04 5.363252445405e-04 0.0 
-2.277390005773e-04 1.084099719138e-03 0.0 
2.460910803564e-04 1.331106467383e-03 0.0 
1.776861372248e-04 3.444758398290e-04 0.0 
1.686496403238e-04 1.033291326935e-03 0.0 
2.496009945080e-05 8.507827378646e-06 0.0 
2.456455318336e-04 2.378696032110e-04 0.0 
4.665729603369e-05 1.377762534374e-05 0.0 
2.508746858596e-05 6.023365980720e-04 0.0 
1.077569304246e-04 8.063602266347e-05 0.0 
1.241750636868e-04 4.436255512440e-05 0.0 
1.287093966742e-04 4.815775856689e-05 0.0 
4.562069604838e-05 -9.460443947878e-05 0.0 
2.143478306031e-05 6.539687704312e-06 0.0 
1.543898674084e-04 1.319395923620e-03 0.0 
1.765723164643e-05 3.096400309130e-04 0.0 
4.011592508988e-05 3.022201270021e-05 0.0 
1.161374995474e-05 4.295927428801e-04 0.0 
2.660336645902e-05 8.112103153582e-04 0.0 
2.451750094062e-06 -1.350072580121e-04 0.0 
1.999856266619e-04 4.160796461161e-04 0.0 
2.431809895409e-04 4.677068630948e-04 0.0 
2.240370299432e-05 1.597403071822e-04 0.0 
9.002915838323e-06 2.956714104892e-04 0.0 
1.407912532765e-04 1.048839193151e-04 0.0 
5.473133383691e-05 1.064704433016e-03 0.0 
1.299678943289e-06 -6.299438125799e-05 0.0 
3.201475177303e-05 7.568122020245e-04 0.0 
1.234619612489e-05 -7.204125315021e-05 0.0 
6.094595381986e-05 3.608788870376e-06 0.0 
-2.598465730333e-04 1.225219244731e-03 0.0 
6.605791517409e-05 -6.272137711381e-05 0.0 
3.126364116002e-05 9.221829649926e-06 0.0 
1.093659967205e-04 2.741074789683e-04 0.0 
2.138516114803e-04 1.030760013922e-03 0.0 
9.264440675793e-05 -6.936339520043e-05 0.0 
1.143220968292e-04 3.529312385755e-05 0.0 
1.812275317236e-04 8.553463587045e-05 0.0 
1.294178446030e-04 1.114355385555e-04 0.0 
1.554968581022e-04 1.990835332571e-04 0.0 
1.942723789612e-04 3.452238571242e-04 0.0 
3.685227998171e-05 -3.644297769322e-06 0.0 
2.520722197289e-07 4.413329146608e-04 0.0 
4.330751774681e-05 1.117869990130e-05 0.0 
5.697910845793e-06 -1.338651643951e-04 0.0 
1.389826491118e-06 -1.338439924322e-04 0.0 
4.677085974275e-05 1.367630558919e-03 0.0 
2.606079891278e-05 -6.750434008692e-05 0.0 
7.514551838370e-05 2.760833951506e-05 0.0 
8.080541809607e-05 1.244411368599e-04 0.0 
2.447128429202e-05 2.661665507886e-04 0.0 
1.006512130615e-04 8.848972308799e-05 0.0 
2.153493303508e-04 1.052468574860e-04 0.0 
4.408714167480e-05 9.823269546512e-04 0.0 
5.694441831799e-06 3.165063658572e-05 0.0 
2.237590270911e-04 2.385434692137e-04 0.0 
9.891150980775e-05 1.458642958074e-03 0.0 
7.553671817949e-05 1.314341330731e-04 0.0 
1.138600402738e-05 -1.066001860965e-04 0.0 
1.512865812096e-05 4.954104577764e-06 0.0 
2.094517557763e-04 1.287232234879e-03 0.0 
2.046672607111e-05 -1.249823076657e-04 0.0 
4.637815477942e-05 -6.919027529590e-05 0.0 
9.202165573354e-05 1.509337723624e-04 0.0 
3.853041802487e-05 2.828187285678e-04 0.0 
4.476853540533e-05 1.447222108746e-04 0.0 
2.659196557244e-05 -1.037584658103e-04 0.0 
3.140118238927e-05 6.590654862466e-04 0.0 
6.154120747822e-05 1.795735311417e-05 0.0 
1.405665588317e-06 7.476396981200e-05 0.0 
3.761099032069e-06 3.439034961511e-06 0.0 
6.844353514295e-06 1.322858533338e-03 0.0 
1.605588393902e-04 7.782508109119e-05 0.0 
2.694603118782e-05 -1.212715557264e-04 0.0 
5.693169735935e-05 2.501545057014e-04 0.0 
9.985869800929e-06 -9.460480590861e-05 0.0 
8.439956773721e-05 3.569339200144e-05 0.0 
5.980785095077e-05 1.878343905283e-04 0.0 
-5.179767103992e-05 7.733450553468e-04 0.0 
2.360411319957e-04 2.651246696801e-04 0.0 
2.487601449857e-05 6.733290691451e-04 0.0 
1.505618528264e-05 1.512947625770e-04 0.0 
2.133186732828e-05 1.357985531711e-05 0.0 
1.050688068287e-05 8.788392289190e-04 0.0 
7.307241395194e-05 1.239342001668e-04 0.0 
7.684232735697e-05 2.556382615181e-04 0.0 
2.080551494979e-05 7.728731199472e-04 0.0 
1.211767171230e-04 2.051336738256e-04 0.0 
5.037294555461e-05 -8.477497735481e-05 0.0 
4.901527503884e-05 1.411616027068e-03 0.0 
1.707925056982e-04 1.623468328854e-04 0.0 
1.477988197550e-06 1.590406195494e-04 0.0 
7.088965233727e-07 -1.361852717082e-04 0.0 
1.329933414706e-05 1.411601913506e-03 0.0 
3.378132100977e-06 5.701341045758e-06 0.0 
4.886345799800e-05 -1.061934313165e-04 0.0 
1.917769642804e-04 1.061866442343e-04 0.0 
9.754117760573e-05 2.721971039767e-04 0.0 
1.773745572861e-05 1.962421049490e-04 0.0 
3.009481553772e-05 -1.204506659575e-04 0.0 
1.446762618138e-04 1.125046287211e-03 0.0 
5.107583817469e-06 -4.532220356895e-05 0.0 
9.874988587075e-06 5.237943530452e-04 0.0 
-1.922565204628e-04 4.481310629418e-04 0.0 
3.469123655694e-05 1.419734707886e-04 0.0 
1.894495087193e-05 9.071387525620e-04 0.0 
1.238077237194e-04 1.203040693947e-04 0.0 
3.580626830511e-05 1.014046688139e-03 0.0 
1.279689214491e-04 1.203317453380e-04 0.0 
9.574122926333e-06 -3.889522110236e-05 0.0 
-1.519406819650e-04 1.293134479387e-03 0.0 
5.788921326008e-05 -9.050267630011e-05 0.0 
6.666214193335e-05 -5.195736650568e-05 0.0 
4.466539108864e-06 -3.297389367247e-05 0.0 
1.829401495020e-04 1.435109264666e-04 0.0 
3.461464161907e-05 -5.876524045576e-05 0.0 
4.439041060823e-05 -4.963335931690e-05 0.0 
2.328243941443e-05 -8.651559871050e-05 0.0 
7.976052080430e-05 2.219070966473e-05 0.0 
2.079145970177e-04 2.872115593075e-04 0.0 
2.403942830513e-04 1.102040328090e-03 0.0 
2.466599808969e-06 1.506251596773e-04 0.0 
6.086547382912e-06 5.866802080786e-06 0.0 
1.300683527787e-05 1.330574915011e-03 0.0 
1.432314619792e-05 9.396674113901e-04 0.0 
4.768149563470e-05 -5.872523918462e-05 0.0 
5.322157364458e-05 -5.352701204276e-05 0.0 
3.257008284278e-05 -5.266750413035e-05 0.0 
2.316658389147e-04 1.389724291902e-04 0.0 
9.089436489536e-05 1.078865166145e-04 0.0 
1.735617922602e-04 2.362249319351e-04 0.0 
2.360854779865e-05 1.162694107253e-03 0.0 
4.213052106353e-05 1.851288750237e-04 0.0 
2.274994279109e-04 1.301240742620e-04 0.0 
4.207598234781e-05 1.043164104373e-03 0.0 
1.610554742982e-04 2.952625290924e-04 0.0 
1.777252292749e-04 1.452278116447e-04 0.0 
1.332502323634e-04 1.066372563622e-04 0.0 
-7.093491818825e-05 1.193589920904e-03 0.0 
1.681957478928e-04 2.955274455337e-04 0.0 
1.439905649113e-04 2.407209504077e-04 0.0 
2.064871492982e-05 -9.432759117951e-05 0.0 
5.325848223928e-05 -6.314497756889e-05 0.0 
-1.090242706092e-04 1.070369390468e-03 0.0 
1.330913650738e-04 2.397389045853e-04 0.0 
1.725338166958e-05 2.800976657802e-03 0.0 
1.945167161235e-05 2.751661287028e-03 0.0 
2.660660409111e-05 2.802779937024e-03 0.0 
2.862180864040e-05 2.753303028093e-03 0.0 
3.486059967682e-05 2.803772054085e-03 0.0 
3.767241300132e-05 2.753975072421e-03 0.0 
4.338102996848e-05 2.804088895460e-03 0.0 
4.655977135853e-05 2.754298502032e-03 0.0 
5.185667537411e-05 2.804259268556e-03 0.0 
5.518478288479e-05 2.754503505349e-03 0.0 
6.003909147925e-05 2.804305051408e-03 0.0 
6.342194999206e-05 2.754551428034e-03 0.0 
6.773705768090e-05 2.804103634402e-03 0.0 
7.114137687338e-05 2.754301453290e-03 0.0 
7.479199877051e-05 2.803479717405e-03 0.0 
7.821672393546e-05 2.753565021208e-03 0.0 
8.106212524971e-05 2.802224087450e-03 0.0 
8.452542426456e-05 2.752117687122e-03 0.0 
8.641229527313e-05 2.800093298042e-03 0.0 
8.994662351156e-05 2.749697238081e-03 0.0 
9.070775257734e-05 2.796803712025e-03 0.0 
9.435928398917e-05 2.745996898057e-03 0.0 
-2.817363630423e-05 1.966380786196e-03 0.0 
9.381075614415e-05 2.792022951093e-03 0.0 
9.764150221513e-05 2.740655821062e-03 0.0 
9.557978712020e-05 2.785359846620e-03 0.0 
4.156192438470e-06 2.007872861755e-03 0.0 
9.967162839968e-05 2.733248393714e-03 0.0 
9.587127074158e-05 2.776353306271e-03 0.0 
1.003312129606e-04 2.723272289307e-03 0.0 
9.454279152413e-05 2.764461387233e-03 0.0 
9.950942307703e-05 2.710136725957e-03 0.0 
-9.428312329904e-05 1.978161707155e-03 0.0 
9.145777961217e-05 2.749046078658e-03 0.0 
9.710869009753e-05 2.693144225966e-03 0.0 
8.649058589641e-05 2.729359365187e-03 0.0 
9.305270902160e-05 2.671476361133e-03 0.0 
7.953534532891e-05 2.704514158474e-03 0.0 
8.729618384027e-05 2.644155997497e-03 0.0 
7.051424767176e-05 2.673472533235e-03 0.0 
7.984249153363e-05 2.610040396192e-03 0.0 
5.939733892532e-05 2.634970771815e-03 0.0 
7.075890093612e-05 2.567719468163e-03 0.0 
4.621735664915e-05 2.587545686822e-03 0.0 
6.021745058365e-05 2.515575152222e-03 0.0 
-2.296547155317e-06 1.859006995110e-03 0.0 
4.849622752508e-05 2.451443545522e-03 0.0 
3.110562643837e-05 2.529304465658e-03 0.0 
3.613251696240e-05 2.372977003598e-03 0.0 
1.431758806943e-05 2.458149758331e-03 0.0 
2.381291914098e-05 2.276400371015e-03 0.0 
-3.689933586696e-06 2.370949633084e-03 0.0 
1.246396723918e-05 2.157615164466e-03 0.0 
-2.213034054290e-05 2.264164449579e-03 0.0 
-3.987050368324e-05 2.131692412436e-03 0.0 
-6.840603415013e-05 1.870787916069e-03 0.0 
2.220665368659e-06 2.774778962052e-03 0.0 
1.095750630860e-05 2.775098525260e-03 0.0 
5.907031804892e-06 2.724670071101e-03 0.0 
7.271139872372e-06 2.825207416211e-03 0.0 
-9.942766546710e-05 1.773054263277e-03 0.0 
1.388137008628e-05 2.600825617498e-03 0.0 
1.773808766373e-05 2.651566026742e-03 0.0 
2.427869897377e-05 2.602538621307e-03 0.0 
2.800748747168e-05 2.653156972662e-03 0.0 
3.431521301288e-05 2.603655665388e-03 0.0 
3.774134750610e-05 2.654004739155e-03 0.0 
4.397358308808e-05 2.604299086059e-03 0.0 
4.708338997334e-05 2.654479025898e-03 0.0 
5.328954706184e-05 2.604752889366e-03 0.0 
5.609403595771e-05 2.654816602293e-03 0.0 
6.227271845083e-05 2.605070780834e-03 0.0 
6.474632389072e-05 2.655004060516e-03 0.0 
7.089048459706e-05 2.605170201167e-03 0.0 
7.297042989087e-05 2.654915387573e-03 0.0 
7.908473798795e-05 2.604897654790e-03 0.0 
8.068041013541e-05 2.654369024310e-03 0.0 
8.678642255044e-05 2.604054081315e-03 0.0 
8.778603536534e-05 2.653143677886e-03 0.0 
9.392362336791e-05 2.602400645771e-03 0.0 
9.419734050556e-05 2.650978595046e-03 0.0 
1.110612886535e-04 2.059096102812e-03 0.0 
1.004257367732e-04 2.599655794910e-03 0.0 
9.982655119106e-05 2.647567623978e-03 0.0 
1.062261860155e-04 2.595488013257e-03 0.0 
7.271001756352e-05 2.084263382935e-03 0.0 
1.045896648846e-04 2.642550157306e-03 0.0 
1.112650837173e-04 2.589506214696e-03 0.0 
1.286830233566e-04 2.079022517122e-03 0.0 
1.084087623273e-04 2.635500425545e-03 0.0 
1.154926134938e-04 2.581248735190e-03 0.0 
1.112154217852e-04 2.625915686395e-03 0.0 
1.188735628080e-04 2.570171261697e-03 0.0 
1.129559855363e-04 2.613203203334e-03 0.0 
1.213936231875e-04 2.555632312621e-03 0.0 
1.135979712136e-04 2.596663982552e-03 0.0 
1.230671353852e-04 2.536876373650e-03 0.0 
1.131399773943e-04 2.575473613009e-03 0.0 
1.324260470530e-04 1.977598424273e-03 0.0 
1.239475803406e-04 2.513009137223e-03 0.0 
1.116211504793e-04 2.548653724369e-03 0.0 
1.241404647634e-04 2.482970856086e-03 0.0 
1.091437419862e-04 2.515040992170e-03 0.0 
1.058848211045e-04 2.473234967611e-03 0.0 
1.238245095463e-04 2.445486867241e-03 0.0 
1.021520013204e-04 2.421569842118e-03 0.0 
1.232778275543e-04 2.399055876166e-03 0.0 
9.834965123507e-05 2.357953652725e-03 0.0 
1.228936008851e-04 2.341809262757e-03 0.0 
9.518177146359e-05 2.279836320437e-03 0.0 
9.322764377409e-05 2.183888067651e-03 0.0 
1.232202662806e-04 2.271519182372e-03 0.0 
1.247740455476e-04 2.185296646559e-03 0.0 
9.407477596303e-05 2.002765704396e-03 0.0 
1.735038804795e-06 2.624527272219e-03 0.0 
8.813452110063e-06 2.625116778335e-03 0.0 
5.421405241028e-06 2.674744104194e-03 0.0 
5.127085673830e-06 2.574899946360e-03 0.0 
7.785542176041e-05 1.952297935246e-03 0.0 
1.367873283509e-05 2.500827024600e-03 0.0 
1.735827414012e-05 2.451185632566e-03 0.0 
2.410152270135e-05 2.502156820028e-03 0.0 
2.796685057086e-05 2.452385812192e-03 0.0 
3.445175238449e-05 2.503266306196e-03 0.0 
3.844293921469e-05 2.453375901987e-03 0.0 
4.453863542507e-05 2.504059608083e-03 0.0 
4.868163020657e-05 2.454145503093e-03 0.0 
5.432273495808e-05 2.504658844537e-03 0.0 
5.866836551770e-05 2.454751018075e-03 0.0 
6.381386011458e-05 2.505099241445e-03 0.0 
6.840408214168e-05 2.455174593649e-03 0.0 
7.300710118427e-05 2.505312273689e-03 0.0 
7.788013410373e-05 2.455317658877e-03 0.0 
8.187782561360e-05 2.505157853571e-03 0.0 
8.707688324942e-05 2.455019988807e-03 0.0 
9.038980803881e-05 2.504444847031e-03 0.0 
9.596865421775e-05 2.454071850961e-03 0.0 
9.850285673195e-05 2.502938053131e-03 0.0 
1.934534823685e-04 2.078325304537e-03 0.0 
1.045290533656e-04 2.452217007494e-03 0.0 
1.061782162692e-04 2.500356799998e-03 0.0 
1.127355312877e-04 2.449149263925e-03 0.0 
2.030489394729e-04 2.085052055480e-03 0.0 
1.133826866162e-04 2.496368648116e-03 0.0 
1.205734603844e-04 2.444504916832e-03 0.0 
1.200923786164e-04 2.490580339362e-03 0.0 
1.280404177425e-04 2.437852972667e-03 0.0 
1.262969740099e-04 2.482527157646e-03 0.0 
1.677462197335e-04 2.110122020879e-03 0.0 
1.351507764491e-04 2.428683450332e-03 0.0 
1.320045569558e-04 2.471660603179e-03 0.0 
1.419418323740e-04 2.416394281690e-03 0.0 
1.372484758774e-04 2.457334049495e-03 0.0 
1.484800012405e-04 2.400274070396e-03 0.0 
1.420943127222e-04 2.438784724620e-03 0.0 
1.548713211326e-04 2.379485625948e-03 0.0 
1.466517467420e-04 2.415112799192e-03 0.0 
1.612655014882e-04 2.353031786260e-03 0.0 
1.510806493709e-04 2.385245256008e-03 0.0 
1.678774408492e-04 2.319735606856e-03 0.0 
2.119653465432e-04 2.013586196227e-03 0.0 
1.749806075738e-04 2.278150103082e-03 0.0 
1.556180238017e-04 2.347907082005e-03 0.0 
1.829811490546e-04 2.226665316028e-03 0.0 
1.605800997680e-04 2.301550796873e-03 0.0 
1.921119067863e-04 2.163227945971e-03 0.0 
1.664204764055e-04 2.244409815960e-03 0.0 
1.734556463114e-04 2.174192922416e-03 0.0 
1.862580839082e-04 2.045382912569e-03 0.0 
1.692203539156e-06 2.474815455356e-03 0.0 
8.567979593235e-06 2.475204949897e-03 0.0 
5.175932724200e-06 2.425033694433e-03 0.0 
5.084250408190e-06 2.524986710819e-03 0.0 
1.787412893048e-04 2.015691987720e-03 0.0 
1.420910903758e-05 2.300190389926e-03 0.0 
1.771024001181e-05 2.350744362788e-03 0.0 
2.501329617508e-05 2.301160234960e-03 0.0 
2.852665817290e-05 2.351830496901e-03 0.0 
3.588895615021e-05 2.302191123682e-03 0.0 
3.932033537838e-05 2.352856034764e-03 0.0 
4.671821923441e-05 2.303104648626e-03 0.0 
4.998381785222e-05 2.353710410860e-03 0.0 
5.743914020751e-05 2.303874275246e-03 0.0 
6.048258312148e-05 2.354401541018e-03 0.0 
6.804111465862e-05 2.304477146970e-03 0.0 
7.081711908193e-05 2.354901976231e-03 0.0 
7.853329384029e-05 2.304839333822e-03 0.0 
8.099328981950e-05 2.355117336428e-03 0.0 
8.892691133382e-05 2.304831079005e-03 0.0 
9.101281325387e-05 2.354893536689e-03 0.0 
9.923111803450e-05 2.304272057902e-03 0.0 
1.008740342090e-04 2.354025513951e-03 0.0 
2.415336928527e-04 2.052220078238e-03 0.0 
1.094549132928e-04 2.302934613641e-03 0.0 
1.105757299352e-04 2.352259905014e-03 0.0 
1.196106935052e-04 2.300542344901e-03 0.0 
2.240094512250e-04 2.089766098182e-03 0.0 
1.201213319541e-04 2.349291911308e-03 0.0 
2.456650140020e-04 2.048672973332e-03 0.0 
1.297179903308e-04 2.296764726917e-03 0.0 
1.295229634327e-04 2.344758348250e-03 0.0 
1.398070040365e-04 2.291208553121e-03 0.0 
1.388055401143e-04 2.338227755008e-03 0.0 
1.499230842414e-04 2.283408676721e-03 0.0 
1.480117643088e-04 2.329190187067e-03 0.0 
1.601308269384e-04 2.272814976534e-03 0.0 
1.572071144968e-04 2.317041918310e-03 0.0 
2.582509149866e-04 1.997191644804e-03 0.0 
1.705205519859e-04 2.258781720929e-03 0.0 
1.664867952261e-04 2.301074105210e-03 0.0 
1.812104384664e-04 2.240544051254e-03 0.0 
1.759806528911e-04 2.280444917768e-03 0.0 
1.858649030796e-04 2.254177575264e-03 0.0 
1.923604800919e-04 2.217217880016e-03 0.0 
1.963511950381e-04 2.221077834068e-03 0.0 
2.041538051512e-04 2.187733272224e-03 0.0 
2.077270059263e-04 2.179778421168e-03 0.0 
2.201723085501e-04 2.128605230016e-03 0.0 
2.168381763433e-04 2.150877627303e-03 0.0 
2.305176576161e-04 2.105119028946e-03 0.0 
2.407266733590e-04 2.034737664747e-03 0.0 
1.732342045465e-06 2.324738676558e-03 0.0 
8.786528430340e-06 2.324970564022e-03 0.0 
5.216071230509e-06 2.374994673455e-03 0.0 
5.302799245296e-06 2.274714567125e-03 0.0 
2.384224220819e-04 2.019058645601e-03 0.0 
1.451114155349e-05 2.199735636502e-03 0.0 
1.855515971704e-05 2.149657996604e-03 0.0 
2.555618336439e-05 2.200528622201e-03 0.0 
2.988275665227e-05 2.150454105862e-03 0.0 
3.670216744027e-05 2.201446345402e-03 0.0 
4.129321739701e-05 2.151344844859e-03 0.0 
4.787788996297e-05 2.202338237002e-03 0.0 
5.273977766183e-05 2.152201388919e-03 0.0 
5.903542928855e-05 2.203131664930e-03 0.0 
6.420473003349e-05 2.152948786692e-03 0.0 
7.016697248959e-05 2.203767002960e-03 0.0 
7.569712688706e-05 2.153508488348e-03 0.0 
8.128744381444e-05 2.204155989948e-03 0.0 
8.724038612297e-05 2.153770029346e-03 0.0 
9.241985766314e-05 2.204167115796e-03 0.0 
9.886430167002e-05 2.153579629832e-03 0.0 
1.035896601213e-04 2.203622114254e-03 0.0 
2.658185984910e-04 1.989999701860e-03 0.0 
1.106023710650e-04 2.152736755316e-03 0.0 
1.148247080619e-04 2.202295798653e-03 0.0 
2.659728261557e-04 1.979358311461e-03 0.0 
1.224927457245e-04 2.150992263061e-03 0.0 
1.261579145253e-04 2.199913517935e-03 0.0 
1.345804320330e-04 2.148044120370e-03 0.0 
1.376298693895e-04 2.196145762945e-03 0.0 
1.469191795360e-04 2.143531128239e-03 0.0 
2.544090851218e-04 2.030867317183e-03 0.0 
1.492913410812e-04 2.190600297082e-03 0.0 
1.595730338150e-04 2.137022347816e-03 0.0 
1.612062408974e-04 2.182811525568e-03 0.0 
1.726219597897e-04 2.128008730513e-03 0.0 
1.734578657633e-04 2.172230671134e-03 0.0 
1.861623177679e-04 2.115886403882e-03 0.0 
1.861487164321e-04 2.158210511901e-03 0.0 
2.003164597165e-04 2.099955019716e-03 0.0 
1.994119385106e-04 2.139996174789e-03 0.0 
2.152205270363e-04 2.079372571888e-03 0.0 
2.807146072535e-04 1.943606568453e-03 0.0 
2.310509877405e-04 2.053221464656e-03 0.0 
2.133988541929e-04 2.116693410602e-03 0.0 
2.478670195192e-04 2.020358151254e-03 0.0 
2.283015157111e-04 2.087301631030e-03 0.0 
2.442062902644e-04 2.050589585683e-03 0.0 
2.693050938843e-04 1.984474183776e-03 0.0 
1.821464786269e-06 2.174137206698e-03 0.0 
9.177683687055e-06 2.174301568621e-03 0.0 
5.607226487224e-06 2.123938450171e-03 0.0 
5.391921986100e-06 2.224500325148e-03 0.0 
2.709063718304e-04 1.978793638856e-03 0.0 
1.533666263979e-05 1.998135513392e-03 0.0 
1.910408946709e-05 2.048803894198e-03 0.0 
2.692116671808e-05 1.998720140668e-03 0.0 
3.069881025590e-05 2.049499726736e-03 0.0 
3.863673288484e-05 1.999476975226e-03 0.0 
4.241172923795e-05 2.050329853809e-03 0.0 
5.048438613088e-05 2.000277421628e-03 0.0 
5.422776198880e-05 2.051155564596e-03 0.0 
6.246334671752e-05 2.001020899306e-03 0.0 
6.614466313549e-05 2.051883845392e-03 0.0 
7.458902878311e-05 2.001618180535e-03 0.0 
7.817925007858e-05 2.052424607223e-03 0.0 
8.689124989480e-05 2.001964858648e-03 0.0 
9.036206901181e-05 2.052662779170e-03 0.0 
9.941105787297e-05 2.001925312761e-03 0.0 
1.027338189910e-04 2.052445076973e-03 0.0 
2.722675064255e-04 1.902838301959e-03 0.0 
1.121963605572e-04 2.001324245066e-03 0.0 
1.153395541799e-04 2.051573438986e-03 0.0 
2.653156317194e-04 1.947047351971e-03 0.0 
1.252992317186e-04 1.999941493189e-03 0.0 
1.282300862663e-04 2.049801273926e-03 0.0 
2.696781334293e-04 1.886548208636e-03 0.0 
1.387793343513e-04 1.997509002601e-03 0.0 
1.414645113172e-04 2.046830594171e-03 0.0 
1.527037396664e-04 1.993706750207e-03 0.0 
1.551089705287e-04 2.042305641701e-03 0.0 
1.671456178561e-04 1.988156145544e-03 0.0 
1.692375195972e-04 2.035803682817e-03 0.0 
2.860228595371e-04 1.861836704164e-03 0.0 
1.821826266359e-04 1.980401657709e-03 0.0 
1.839338597460e-04 2.026817527653e-03 0.0 
1.979076720184e-04 1.969915525315e-03 0.0 
1.993002240667e-04 2.014762460923e-03 0.0 
2.154463249088e-04 1.998931817852e-03 0.0 
2.144164879232e-04 1.956063367078e-03 0.0 
2.325134841590e-04 1.978545178940e-03 0.0 
2.318347608255e-04 1.938145579975e-03 0.0 
2.505412459991e-04 1.952669400573e-03 0.0 
2.501820695742e-04 1.915313953570e-03 0.0 
2.790709848309e-04 1.906045754176e-03 0.0 
1.876225561002e-06 2.023068461467e-03 0.0 
9.509035798031e-06 2.023195142157e-03 0.0 
5.661987261957e-06 2.073578044410e-03 0.0 
5.723274097075e-06 1.972685559214e-03 0.0 
2.833889085220e-04 1.908125279237e-03 0.0 
1.560125939805e-05 1.897117586808e-03 0.0 
1.988182318821e-05 1.846696064706e-03 0.0 
2.743430368093e-05 1.897630237761e-03 0.0 
3.198471542930e-05 1.847231689881e-03 0.0 
3.940950109538e-05 1.898298841279e-03 0.0 
4.425125004671e-05 1.847898568131e-03 0.0 
5.155113872910e-05 1.899024269898e-03 0.0 
5.671137483691e-05 1.848585335641e-03 0.0 
6.388020696742e-05 1.899703822081e-03 0.0 
6.940195307762e-05 1.849188511475e-03 0.0 
7.642945847533e-05 1.900239923844e-03 0.0 
8.236381644291e-05 1.849606598093e-03 0.0 
8.923538656691e-05 1.900525106209e-03 0.0 
9.564694139618e-05 1.849713414316e-03 0.0 
1.023517935852e-04 1.900415700346e-03 0.0 
2.663064386196e-04 1.795563435311e-03 0.0 
1.093134069933e-04 1.849351223659e-03 0.0 
2.614617289648e-04 1.775113249899e-03 0.0 
1.158352128472e-04 1.899740004167e-03 0.0 
1.234237566504e-04 1.848327982433e-03 0.0 
1.297445818991e-04 1.898280277535e-03 0.0 
1.380464841353e-04 1.846398485630e-03 0.0 
1.441503820398e-04 1.895767429959e-03 0.0 
1.532610987764e-04 1.843270394216e-03 0.0 
2.630528698814e-04 1.841692815993e-03 0.0 
1.591292794372e-04 1.891888122894e-03 0.0 
1.691495826961e-04 1.838602609458e-03 0.0 
1.747606902527e-04 1.886271740614e-03 0.0 
1.857949276028e-04 1.831996874840e-03 0.0 
1.911249622450e-04 1.878479254662e-03 0.0 
2.032712202468e-04 1.822956536323e-03 0.0 
2.083026969101e-04 1.867976937032e-03 0.0 
2.216684742629e-04 1.810940112590e-03 0.0 
2.410044591062e-04 1.795266235674e-03 0.0 
2.263897132276e-04 1.854179607028e-03 0.0 
2.784200589553e-04 1.759448558181e-03 0.0 
2.454196697185e-04 1.836363757848e-03 0.0 
2.751664902171e-04 1.805577938863e-03 0.0 
1.952449337953e-06 1.871577863584e-03 0.0 
9.849856333248e-06 1.871669604813e-03 0.0 
6.002807797174e-06 1.821069519942e-03 0.0 
5.799497874027e-06 1.922177948454e-03 0.0 
2.814325773401e-04 1.813077884504e-03 0.0 
1.609470028388e-05 1.694617440634e-03 0.0 
2.021104585691e-05 1.745412240238e-03 0.0 
2.826530316059e-05 1.694982548701e-03 0.0 
3.248649224027e-05 1.745867825289e-03 0.0 
4.060948991047e-05 1.695491926222e-03 0.0 
4.494946205082e-05 1.746455517666e-03 0.0 
5.318095965864e-05 1.696056094958e-03 0.0 
5.764298376234e-05 1.747060211166e-03 0.0 
6.602743586286e-05 1.696562116324e-03 0.0 
7.061757304764e-05 1.747571930194e-03 0.0 
7.920847068358e-05 1.696925425516e-03 0.0 
8.392720868115e-05 1.747908681047e-03 0.0 
9.277505415482e-05 1.697034013499e-03 0.0 
2.500864884211e-04 1.674051787596e-03 0.0 
9.762321674585e-05 1.747920238652e-03 0.0 
1.067972682955e-04 1.696737449178e-03 0.0 
2.494310788054e-04 1.722033207144e-03 0.0 
1.117826063539e-04 1.747466148154e-03 0.0 
1.213458471274e-04 1.695889010517e-03 0.0 
2.439658060867e-04 1.650670159659e-03 0.0 
1.264651915699e-04 1.746362064288e-03 0.0 
1.364830295187e-04 1.694271396599e-03 0.0 
1.417434968353e-04 1.744355522839e-03 0.0 
1.522878033476e-04 1.691617708036e-03 0.0 
1.577015073841e-04 1.741163635084e-03 0.0 
2.612748518260e-04 1.640881490201e-03 0.0 
1.688468750988e-04 1.687639639315e-03 0.0 
1.744267697500e-04 1.736460885010e-03 0.0 
1.919955984619e-04 1.729865860271e-03 0.0 
1.862385481657e-04 1.681999001598e-03 0.0 
2.104872861890e-04 1.720922809138e-03 0.0 
2.045416990463e-04 1.674314512907e-03 0.0 
2.298843435204e-04 1.709083808795e-03 0.0 
2.237346321100e-04 1.664086906051e-03 0.0 
2.606194422103e-04 1.688862909750e-03 0.0 
1.981284800149e-06 1.719759005775e-03 0.0 
1.004291001258e-05 1.719843725051e-03 0.0 
6.031643259370e-06 1.770459961886e-03 0.0 
5.992551553356e-06 1.669142768940e-03 0.0 
2.682348817574e-04 1.700845430331e-03 0.0 
1.617820663255e-05 1.593241663070e-03 0.0 
2.046576291976e-05 1.542616591966e-03 0.0 
2.843651387477e-05 1.593562677993e-03 0.0 
3.292756848447e-05 1.542948713997e-03 0.0 
4.087935544049e-05 1.593992685637e-03 0.0 
4.561549143130e-05 1.543375790642e-03 0.0 
5.357712350910e-05 1.594475608518e-03 0.0 
5.860589408775e-05 1.543800078195e-03 0.0 
6.659418233782e-05 1.594882469793e-03 0.0 
7.194270828376e-05 1.544099284559e-03 0.0 
7.996685944476e-05 1.595132426412e-03 0.0 
8.570025317837e-05 1.544224929544e-03 0.0 
2.276413712334e-04 1.541995662217e-03 0.0 
9.378970989087e-05 1.595143261101e-03 0.0 
2.203450048783e-04 1.516144868872e-03 0.0 
9.996603270366e-05 1.544005226498e-03 0.0 
1.081254285173e-04 1.594713189421e-03 0.0 
1.148080193994e-04 1.543307911137e-03 0.0 
1.230430999512e-04 1.593755033256e-03 0.0 
1.303067978080e-04 1.541992217785e-03 0.0 
1.386273829330e-04 1.592035527357e-03 0.0 
1.465392770788e-04 1.539787739495e-03 0.0 
2.293654538569e-04 1.590951561027e-03 0.0 
1.549392301768e-04 1.589285793934e-03 0.0 
1.635851251928e-04 1.536410764256e-03 0.0 
1.720790660784e-04 1.585218682589e-03 0.0 
1.815265801002e-04 1.531585512426e-03 0.0 
2.004178428157e-04 1.524964564985e-03 0.0 
1.901061675363e-04 1.579544585740e-03 0.0 
2.090963240295e-04 1.571867633480e-03 0.0 
2.371326471109e-04 1.511517995644e-03 0.0 
2.388567297344e-04 1.560473894455e-03 0.0 
2.005777417079e-06 1.567723019399e-03 0.0 
1.015090897818e-05 1.567776819260e-03 0.0 
6.139642224969e-06 1.517048197946e-03 0.0 
6.017044170285e-06 1.618451640713e-03 0.0 
2.473073705538e-04 1.575195590343e-03 0.0 

VECTORS element_materi_displacement float
0.0 0.0 0.0 
0.0 0.0 0.0 
0.0 0.0 0.0 
0.0 0.0 0.0 
0.0 0.0 0.0 
0.0 0.0 0.0 
0.0 0.0 0.0 
0.0 0.0 0.0 
0.0 0.0 0.0 
0.0 0.0 0.0 
0.0 0.0 0.0 
0.0 0.0 0.0 
0.0 0.0 0.0 
0.0 0.0 0.0 
0.0 0.0 0.0 
0.0 0.0 0.0 
0.0 0.0 0.0 
0.0 0.0 0.0 
0.0 0.0 0.0 
0.0 0.0 0.0 
0.0 0.0 0.0 
0.0 0.0 0.0 
0.0 0.0 0.0 
0.0 0.0 0.0 
0.0 0.0 0.0 
0.0 0.0 0.0 
0.0 0.0 0.0 
0.0 0.0 0.0 
0.0 0.0 0.0 
0.0 0.0 0.0 
0.0 0.0 0.0 
0.0 0.0 0.0 
0.0 0.0 0.0 
0.0 0.0 0.0 
0.0 0.0 0.0 
0.0 0.0 0.0 
0.0 0.0 0.0 
0.0 0.0 0.0 
0.0 0.0 0.0 
0.0 0.0 0.0 
0.0 0.0 0.0 
0.0 0.0 0.0 
0.0 0.0 0.0 
0.0 0.0 0.0 
0.0 0.0 0.0 
0.0 0.0 0.0 
0.0 0.0 0.0 
0.0 0.0 0.0 
0.0 0.0 0.0 
0.0 0.0 0.0 
0.0 0.0 0.0 
0.0 0.0 0.0 
0.0 0.0 0.0 
0.0 0.0 0.0 
0.0 0.0 0.0 
0.0 0.0 0.0 
0.0 0.0 0.0 
0.0 0.0 0.0 
0.0 0.0 0.0 
0.0 0.0 0.0 
0.0 0.0 0.0 
0.0 0.0 0.0 
0.0 0.0 0.0 
0.0 0.0 0.0 
0.0 0.0 0.0 
0.0 0.0 0.0 
0.0 0.0 0.0 
0.0 0.0 0.0 
0.0 0.0 0.0 
0.0 0.0 0.0 
0.0 0.0 0.0 
0.0 0.0 0.0 
0.0 0.0 0.0 
0.0 0.0 0.0 
0.0 0.0 0.0 
0.0 0.0 0.0 
0.0 0.0 0.0 
0.0 0.0 0.0 
0.0 0.0 0.0 
0.0 0.0 0.0 
0.0 0.0 0.0 
0.0 0.0 0.0 
0.0 0.0 0.0 
0.0 0.0 0.0 
0.0 0.0 0.0 
0.0 0.0 0.0 
0.0 0.0 0.0 
0.0 0.0 0.0 
0.0 0.0 0.0 
0.0 0.0 0.0 
0.0 0.0 0.0 
0.0 0.0 0.0 
0.0 0.0 0.0 
0.0 0.0 0.0 
0.0 0.0 0.0 
0.0 0.0 0.0 
0.0 0.0 0.0 
0.0 0.0 0.0 
0.0 0.0 0.0 
0.0 0.0 0.0 
0.0 0.0 0.0 
0.0 0.0 0.0 
0.0 0.0 0.0 
0.0 0.0 0.0 
0.0 0.0 0.0 
0.0 0.0 0.0 
0.0 0.0 0.0 
0.0 0.0 0.0 
0.0 0.0 0.0 
0.0 0.0 0.0 
0.0 0.0 0.0 
0.0 0.0 0.0 
0.0 0.0 0.0 
0.0 0.0 0.0 
0.0 0.0 0.0 
0.0 0.0 0.0 
0.0 0.0 0.0 
0.0 0.0 0.0 
0.0 0.0 0.0 
0.0 0.0 0.0 
0.0 0.0 0.0 
0.0 0.0 0.0 
0.0 0.0 0.0 
0.0 0.0 0.0 
0.0 0.0 0.0 
0.0 0.0 0.0 
0.0 0.0 0.0 
0.0 0.0 0.0 
0.0 0.0 0.0 
0.0 0.0 0.0 
0.0 0.0 0.0 
0.0 0.0 0.0 
0.0 0.0 0.0 
0.0 0.0 0.0 
0.0 0.0 0.0 
0.0 0.0 0.0 
0.0 0.0 0.0 
0.0 0.0 0.0 
0.0 0.0 0.0 
0.0 0.0 0.0 
0.0 0.0 0.0 
0.0 0.0 0.0 
0.0 0.0 0.0 
0.0 0.0 0.0 
0.0 0.0 0.0 
0.0 0.0 0.0 
0.0 0.0 0.0 
0.0 0.0 0.0 
0.0 0.0 0.0 
0.0 0.0 0.0 
0.0 0.0 0.0 
0.0 0.0 0.0 
0.0 0.0 0.0 
0.0 0.0 0.0 
0.0 0.0 0.0 
0.0 0.0 0.0 
0.0 0.0 0.0 
0.0 0.0 0.0 
0.0 0.0 0.0 
0.0 0.0 0.0 
0.0 0.0 0.0 
0.0 0.0 0.0 
0.0 0.0 0.0 
0.0 0.0 0.0 
0.0 0.0 0.0 
0.0 0.0 0.0 
0.0 0.0 0.0 
0.0 0.0 0.0 
0.0 0.0 0.0 
0.0 0.0 0.0 
0.0 0.0 0.0 
0.0 0.0 0.0 
0.0 0.0 0.0 
0.0 0.0 0.0 
0.0 0.0 0.0 
0.0 0.0 0.0 
0.0 0.0 0.0 
0.0 0.0 0.0 
0.0 0.0 0.0 
0.0 0.0 0.0 
0.0 0.0 0.0 
0.0 0.0 0.0 
0.0 0.0 0.0 
0.0 0.0 0.0 
0.0 0.0 0.0 
0.0 0.0 0.0 
0.0 0.0 0.0 
0.0 0.0 0.0 
0.0 0.0 0.0 
0.0 0.0 0.0 
0.0 0.0 0.0 
0.0 0.0 0.0 
0.0 0.0 0.0 
0.0 0.0 0.0 
0.0 0.0 0.0 
0.0 0.0 0.0 
0.0 0.0 0.0 
0.0 0.0 0.0 
0.0 0.0 0.0 
0.0 0.0 0.0 
0.0 0.0 0.0 
0.0 0.0 0.0 
0.0 0.0 0.0 
0.0 0.0 0.0 
0.0 0.0 0.0 
0.0 0.0 0.0 
0.0 0.0 0.0 
0.0 0.0 0.0 
0.0 0.0 0.0 
0.0 0.0 0.0 
0.0 0.0 0.0 
0.0 0.0 0.0 
0.0 0.0 0.0 
0.0 0.0 0.0 
0.0 0.0 0.0 
0.0 0.0 0.0 
0.0 0.0 0.0 
0.0 0.0 0.0 
0.0 0.0 0.0 
0.0 0.0 0.0 
0.0 0.0 0.0 
0.0 0.0 0.0 
0.0 0.0 0.0 
0.0 0.0 0.0 
0.0 0.0 0.0 
0.0 0.0 0.0 
0.0 0.0 0.0 
0.0 0.0 0.0 
0.0 0.0 0.0 
0.0 0.0 0.0 
0.0 0.0 0.0 
0.0 0.0 0.0 
0.0 0.0 0.0 
0.0 0.0 0.0 
0.0 0.0 0.0 
0.0 0.0 0.0 
0.0 0.0 0.0 
0.0 0.0 0.0 
0.0 0.0 0.0 
0.0 0.0 0.0 
0.0 0.0 0.0 
0.0 0.0 0.0 
0.0 0.0 0.0 
0.0 0.0 0.0 
0.0 0.0 0.0 
0.0 0.0 0.0 
0.0 0.0 0.0 
0.0 0.0 0.0 
0.0 0.0 0.0 
0.0 0.0 0.0 
0.0 0.0 0.0 
0.0 0.0 0.0 
0.0 0.0 0.0 
0.0 0.0 0.0 
0.0 0.0 0.0 
0.0 0.0 0.0 
0.0 0.0 0.0 
0.0 0.0 0.0 
0.0 0.0 0.0 
0.0 0.0 0.0 
0.0 0.0 0.0 
0.0 0.0 0.0 
0.0 0.0 0.0 
0.0 0.0 0.0 
0.0 0.0 0.0 
0.0 0.0 0.0 
0.0 0.0 0.0 
0.0 0.0 0.0 
0.0 0.0 0.0 
0.0 0.0 0.0 
0.0 0.0 0.0 
0.0 0.0 0.0 
0.0 0.0 0.0 
0.0 0.0 0.0 
0.0 0.0 0.0 
0.0 0.0 0.0 
0.0 0.0 0.0 
0.0 0.0 0.0 
0.0 0.0 0.0 
0.0 0.0 0.0 
0.0 0.0 0.0 
0.0 0.0 0.0 
0.0 0.0 0.0 
0.0 0.0 0.0 
0.0 0.0 0.0 
0.0 0.0 0.0 
0.0 0.0 0.0 
0.0 0.0 0.0 
0.0 0.0 0.0 
0.0 0.0 0.0 
0.0 0.0 0.0 
0.0 0.0 0.0 
0.0 0.0 0.0 
0.0 0.0 0.0 
0.0 0.0 0.0 
0.0 0.0 0.0 
0.0 0.0 0.0 
0.0 0.0 0.0 
0.0 0.0 0.0 
0.0 0.0 0.0 
0.0 0.0 0.0 
0.0 0.0 0.0 
0.0 0.0 0.0 
0.0 0.0 0.0 
0.0 0.0 0.0 
0.0 0.0 0.0 
0.0 0.0 0.0 
0.0 0.0 0.0 
0.0 0.0 0.0 
0.0 0.0 0.0 
0.0 0.0 0.0 
0.0 0.0 0.0 
0.0 0.0 0.0 
0.0 0.0 0.0 
0.0 0.0 0.0 
0.0 0.0 0.0 
0.0 0.0 0.0 
0.0 0.0 0.0 
0.0 0.0 0.0 
0.0 0.0 0.0 
0.0 0.0 0.0 
0.0 0.0 0.0 
0.0 0.0 0.0 
0.0 0.0 0.0 
0.0 0.0 0.0 
0.0 0.0 0.0 
0.0 0.0 0.0 
0.0 0.0 0.0 
0.0 0.0 0.0 
0.0 0.0 0.0 
0.0 0.0 0.0 
0.0 0.0 0.0 
0.0 0.0 0.0 
0.0 0.0 0.0 
0.0 0.0 0.0 
0.0 0.0 0.0 
0.0 0.0 0.0 
0.0 0.0 0.0 
0.0 0.0 0.0 
0.0 0.0 0.0 
0.0 0.0 0.0 
0.0 0.0 0.0 
0.0 0.0 0.0 
0.0 0.0 0.0 
0.0 0.0 0.0 
0.0 0.0 0.0 
0.0 0.0 0.0 
0.0 0.0 0.0 
0.0 0.0 0.0 
0.0 0.0 0.0 
0.0 0.0 0.0 
0.0 0.0 0.0 
0.0 0.0 0.0 
0.0 0.0 0.0 
0.0 0.0 0.0 
0.0 0.0 0.0 
0.0 0.0 0.0 
0.0 0.0 0.0 
0.0 0.0 0.0 
0.0 0.0 0.0 
0.0 0.0 0.0 
0.0 0.0 0.0 
0.0 0.0 0.0 
0.0 0.0 0.0 
0.0 0.0 0.0 
0.0 0.0 0.0 
0.0 0.0 0.0 
0.0 0.0 0.0 
0.0 0.0 0.0 
0.0 0.0 0.0 
0.0 0.0 0.0 
0.0 0.0 0.0 
0.0 0.0 0.0 
0.0 0.0 0.0 
0.0 0.0 0.0 
0.0 0.0 0.0 
0.0 0.0 0.0 
0.0 0.0 0.0 
0.0 0.0 0.0 
0.0 0.0 0.0 
0.0 0.0 0.0 
0.0 0.0 0.0 
0.0 0.0 0.0 
0.0 0.0 0.0 
0.0 0.0 0.0 
0.0 0.0 0.0 
0.0 0.0 0.0 
0.0 0.0 0.0 
0.0 0.0 0.0 
0.0 0.0 0.0 
0.0 0.0 0.0 
0.0 0.0 0.0 
0.0 0.0 0.0 
0.0 0.0 0.0 
0.0 0.0 0.0 
0.0 0.0 0.0 
0.0 0.0 0.0 
0.0 0.0 0.0 
0.0 0.0 0.0 
0.0 0.0 0.0 
0.0 0.0 0.0 
0.0 0.0 0.0 
0.0 0.0 0.0 
0.0 0.0 0.0 
0.0 0.0 0.0 
0.0 0.0 0.0 
0.0 0.0 0.0 
0.0 0.0 0.0 
0.0 0.0 0.0 
0.0 0.0 0.0 
0.0 0.0 0.0 
0.0 0.0 0.0 
0.0 0.0 0.0 
0.0 0.0 0.0 
0.0 0.0 0.0 
0.0 0.0 0.0 
0.0 0.0 0.0 
0.0 0.0 0.0 
0.0 0.0 0.0 
0.0 0.0 0.0 
0.0 0.0 0.0 
0.0 0.0 0.0 
0.0 0.0 0.0 
0.0 0.0 0.0 
0.0 0.0 0.0 
0.0 0.0 0.0 
0.0 0.0 0.0 
0.0 0.0 0.0 
0.0 0.0 0.0 
0.0 0.0 0.0 
0.0 0.0 0.0 
0.0 0.0 0.0 
0.0 0.0 0.0 
0.0 0.0 0.0 
0.0 0.0 0.0 
0.0 0.0 0.0 
0.0 0.0 0.0 
0.0 0.0 0.0 
0.0 0.0 0.0 
0.0 0.0 0.0 
0.0 0.0 0.0 
0.0 0.0 0.0 
0.0 0.0 0.0 
0.0 0.0 0.0 
0.0 0.0 0.0 
0.0 0.0 0.0 
0.0 0.0 0.0 
0.0 0.0 0.0 
0.0 0.0 0.0 
0.0 0.0 0.0 
0.0 0.0 0.0 
0.0 0.0 0.0 
0.0 0.0 0.0 
0.0 0.0 0.0 
0.0 0.0 0.0 
0.0 0.0 0.0 
0.0 0.0 0.0 
0.0 0.0 0.0 
0.0 0.0 0.0 
0.0 0.0 0.0 
0.0 0.0 0.0 
0.0 0.0 0.0 
0.0 0.0 0.0 
0.0 0.0 0.0 
0.0 0.0 0.0 
0.0 0.0 0.0 
0.0 0.0 0.0 
0.0 0.0 0.0 
0.0 0.0 0.0 
0.0 0.0 0.0 
0.0 0.0 0.0 
0.0 0.0 0.0 
0.0 0.0 0.0 
0.0 0.0 0.0 
0.0 0.0 0.0 
0.0 0.0 0.0 
0.0 0.0 0.0 
0.0 0.0 0.0 
0.0 0.0 0.0 
0.0 0.0 0.0 
0.0 0.0 0.0 
0.0 0.0 0.0 
0.0 0.0 0.0 
0.0 0.0 0.0 
0.0 0.0 0.0 
0.0 0.0 0.0 
0.0 0.0 0.0 
0.0 0.0 0.0 
0.0 0.0 0.0 
0.0 0.0 0.0 
0.0 0.0 0.0 
0.0 0.0 0.0 
0.0 0.0 0.0 
0.0 0.0 0.0 
0.0 0.0 0.0 
0.0 0.0 0.0 
0.0 0.0 0.0 
0.0 0.0 0.0 
0.0 0.0 0.0 
0.0 0.0 0.0 
0.0 0.0 0.0 
0.0 0.0 0.0 
0.0 0.0 0.0 
0.0 0.0 0.0 
0.0 0.0 0.0 
0.0 0.0 0.0 
0.0 0.0 0.0 
0.0 0.0 0.0 
0.0 0.0 0.0 
0.0 0.0 0.0 
0.0 0.0 0.0 
0.0 0.0 0.0 
0.0 0.0 0.0 
0.0 0.0 0.0 
0.0 0.0 0.0 
0.0 0.0 0.0 
0.0 0.0 0.0 
0.0 0.0 0.0 
0.0 0.0 0.0 
0.0 0.0 0.0 
0.0 0.0 0.0 
0.0 0.0 0.0 
0.0 0.0 0.0 
0.0 0.0 0.0 
0.0 0.0 0.0 
0.0 0.0 0.0 
0.0 0.0 0.0 
0.0 0.0 0.0 
0.0 0.0 0.0 
0.0 0.0 0.0 
0.0 0.0 0.0 
0.0 0.0 0.0 
0.0 0.0 0.0 
0.0 0.0 0.0 
0.0 0.0 0.0 
0.0 0.0 0.0 
0.0 0.0 0.0 
0.0 0.0 0.0 
0.0 0.0 0.0 
0.0 0.0 0.0 
0.0 0.0 0.0 
0.0 0.0 0.0 
0.0 0.0 0.0 
0.0 0.0 0.0 
0.0 0.0 0.0 
0.0 0.0 0.0 
0.0 0.0 0.0 
0.0 0.0 0.0 
0.0 0.0 0.0 
0.0 0.0 0.0 
0.0 0.0 0.0 
0.0 0.0 0.0 
0.0 0.0 0.0 
0.0 0.0 0.0 
0.0 0.0 0.0 
0.0 0.0 0.0 
0.0 0.0 0.0 
0.0 0.0 0.0 
0.0 0.0 0.0 
0.0 0.0 0.0 
0.0 0.0 0.0 
0.0 0.0 0.0 
0.0 0.0 0.0 
0.0 0.0 0.0 
0.0 0.0 0.0 
0.0 0.0 0.0 
0.0 0.0 0.0 
0.0 0.0 0.0 
0.0 0.0 0.0 
0.0 0.0 0.0 
0.0 0.0 0.0 
0.0 0.0 0.0 
0.0 0.0 0.0 
0.0 0.0 0.0 
0.0 0.0 0.0 
0.0 0.0 0.0 
0.0 0.0 0.0 
0.0 0.0 0.0 
0.0 0.0 0.0 
0.0 0.0 0.0 
0.0 0.0 0.0 
0.0 0.0 0.0 
0.0 0.0 0.0 
0.0 0.0 0.0 
0.0 0.0 0.0 
0.0 0.0 0.0 
0.0 0.0 0.0 
0.0 0.0 0.0 
0.0 0.0 0.0 
0.0 0.0 0.0 
0.0 0.0 0.0 
0.0 0.0 0.0 
0.0 0.0 0.0 
0.0 0.0 0.0 
0.0 0.0 0.0 
0.0 0.0 0.0 
0.0 0.0 0.0 
0.0 0.0 0.0 
0.0 0.0 0.0 
0.0 0.0 0.0 
0.0 0.0 0.0 
0.0 0.0 0.0 
0.0 0.0 0.0 
0.0 0.0 0.0 
0.0 0.0 0.0 
0.0 0.0 0.0 
0.0 0.0 0.0 
0.0 0.0 0.0 
0.0 0.0 0.0 
0.0 0.0 0.0 
0.0 0.0 0.0 
0.0 0.0 0.0 
0.0 0.0 0.0 
0.0 0.0 0.0 
0.0 0.0 0.0 
0.0 0.0 0.0 
0.0 0.0 0.0 
0.0 0.0 0.0 
0.0 0.0 0.0 
0.0 0.0 0.0 
0.0 0.0 0.0 
0.0 0.0 0.0 
0.0 0.0 0.0 
0.0 0.0 0.0 
0.0 0.0 0.0 
0.0 0.0 0.0 
0.0 0.0 0.0 
0.0 0.0 0.0 
0.0 0.0 0.0 
0.0 0.0 0.0 
0.0 0.0 0.0 
0.0 0.0 0.0 
0.0 0.0 0.0 
0.0 0.0 0.0 
0.0 0.0 0.0 
0.0 0.0 0.0 
0.0 0.0 0.0 
0.0 0.0 0.0 
0.0 0.0 0.0 
0.0 0.0 0.0 
0.0 0.0 0.0 
0.0 0.0 0.0 
0.0 0.0 0.0 
0.0 0.0 0.0 
0.0 0.0 0.0 
0.0 0.0 0.0 
0.0 0.0 0.0 
0.0 0.0 0.0 
0.0 0.0 0.0 
0.0 0.0 0.0 
0.0 0.0 0.0 
0.0 0.0 0.0 
0.0 0.0 0.0 
0.0 0.0 0.0 
0.0 0.0 0.0 
0.0 0.0 0.0 
0.0 0.0 0.0 
0.0 0.0 0.0 
0.0 0.0 0.0 
0.0 0.0 0.0 
0.0 0.0 0.0 
0.0 0.0 0.0 
0.0 0.0 0.0 
0.0 0.0 0.0 
0.0 0.0 0.0 
0.0 0.0 0.0 
0.0 0.0 0.0 
0.0 0.0 0.0 
0.0 0.0 0.0 
0.0 0.0 0.0 
0.0 0.0 0.0 
0.0 0.0 0.0 
0.0 0.0 0.0 
0.0 0.0 0.0 
0.0 0.0 0.0 
0.0 0.0 0.0 
0.0 0.0 0.0 
0.0 0.0 0.0 
0.0 0.0 0.0 
0.0 0.0 0.0 
0.0 0.0 0.0 
0.0 0.0 0.0 
0.0 0.0 0.0 
0.0 0.0 0.0 
0.0 0.0 0.0 
0.0 0.0 0.0 
0.0 0.0 0.0 
0.0 0.0 0.0 
0.0 0.0 0.0 
0.0 0.0 0.0 
0.0 0.0 0.0 
0.0 0.0 0.0 
0.0 0.0 0.0 
0.0 0.0 0.0 
0.0 0.0 0.0 
0.0 0.0 0.0 
0.0 0.0 0.0 
0.0 0.0 0.0 
0.0 0.0 0.0 
0.0 0.0 0.0 
0.0 0.0 0.0 
0.0 0.0 0.0 
0.0 0.0 0.0 
0.0 0.0 0.0 
0.0 0.0 0.0 
0.0 0.0 0.0 
0.0 0.0 0.0 
0.0 0.0 0.0 
0.0 0.0 0.0 
0.0 0.0 0.0 
0.0 0.0 0.0 
0.0 0.0 0.0 
0.0 0.0 0.0 
0.0 0.0 0.0 
0.0 0.0 0.0 
0.0 0.0 0.0 
0.0 0.0 0.0 
0.0 0.0 0.0 
0.0 0.0 0.0 
0.0 0.0 0.0 
0.0 0.0 0.0 
0.0 0.0 0.0 
0.0 0.0 0.0 
0.0 0.0 0.0 
0.0 0.0 0.0 
0.0 0.0 0.0 
0.0 0.0 0.0 
0.0 0.0 0.0 
0.0 0.0 0.0 
0.0 0.0 0.0 
0.0 0.0 0.0 
0.0 0.0 0.0 
0.0 0.0 0.0 
0.0 0.0 0.0 
0.0 0.0 0.0 
0.0 0.0 0.0 
0.0 0.0 0.0 
0.0 0.0 0.0 
0.0 0.0 0.0 
0.0 0.0 0.0 
0.0 0.0 0.0 
0.0 0.0 0.0 
0.0 0.0 0.0 
0.0 0.0 0.0 
0.0 0.0 0.0 
0.0 0.0 0.0 
0.0 0.0 0.0 
0.0 0.0 0.0 
0.0 0.0 0.0 
0.0 0.0 0.0 
0.0 0.0 0.0 
0.0 0.0 0.0 
0.0 0.0 0.0 
0.0 0.0 0.0 
0.0 0.0 0.0 
0.0 0.0 0.0 
0.0 0.0 0.0 
0.0 0.0 0.0 
0.0 0.0 0.0 
0.0 0.0 0.0 
0.0 0.0 0.0 
0.0 0.0 0.0 
0.0 0.0 0.0 
0.0 0.0 0.0 
0.0 0.0 0.0 
0.0 0.0 0.0 
0.0 0.0 0.0 
0.0 0.0 0.0 
0.0 0.0 0.0 
0.0 0.0 0.0 
0.0 0.0 0.0 
0.0 0.0 0.0 
0.0 0.0 0.0 
0.0 0.0 0.0 
0.0 0.0 0.0 
0.0 0.0 0.0 
0.0 0.0 0.0 
0.0 0.0 0.0 
0.0 0.0 0.0 
0.0 0.0 0.0 
0.0 0.0 0.0 
0.0 0.0 0.0 
0.0 0.0 0.0 
0.0 0.0 0.0 
0.0 0.0 0.0 
0.0 0.0 0.0 
0.0 0.0 0.0 
0.0 0.0 0.0 
0.0 0.0 0.0 
0.0 0.0 0.0 
0.0 0.0 0.0 
0.0 0.0 0.0 
0.0 0.0 0.0 
0.0 0.0 0.0 
0.0 0.0 0.0 
0.0 0.0 0.0 
0.0 0.0 0.0 
0.0 0.0 0.0 
0.0 0.0 0.0 
0.0 0.0 0.0 
0.0 0.0 0.0 
0.0 0.0 0.0 
0.0 0.0 0.0 
0.0 0.0 0.0 
0.0 0.0 0.0 
0.0 0.0 0.0 
0.0 0.0 0.0 
0.0 0.0 0.0 
0.0 0.0 0.0 
0.0 0.0 0.0 
0.0 0.0 0.0 
0.0 0.0 0.0 
0.0 0.0 0.0 
0.0 0.0 0.0 
0.0 0.0 0.0 
0.0 0.0 0.0 
0.0 0.0 0.0 
0.0 0.0 0.0 
0.0 0.0 0.0 
0.0 0.0 0.0 
0.0 0.0 0.0 
0.0 0.0 0.0 
0.0 0.0 0.0 
0.0 0.0 0.0 
0.0 0.0 0.0 
0.0 0.0 0.0 
0.0 0.0 0.0 
0.0 0.0 0.0 
0.0 0.0 0.0 
0.0 0.0 0.0 
0.0 0.0 0.0 
0.0 0.0 0.0 
0.0 0.0 0.0 
0.0 0.0 0.0 
0.0 0.0 0.0 
0.0 0.0 0.0 
0.0 0.0 0.0 
0.0 0.0 0.0 
0.0 0.0 0.0 
0.0 0.0 0.0 
0.0 0.0 0.0 
0.0 0.0 0.0 
0.0 0.0 0.0 
0.0 0.0 0.0 
0.0 0.0 0.0 
0.0 0.0 0.0 
0.0 0.0 0.0 
0.0 0.0 0.0 
0.0 0.0 0.0 
0.0 0.0 0.0 
0.0 0.0 0.0 
0.0 0.0 0.0 
0.0 0.0 0.0 
0.0 0.0 0.0 
0.0 0.0 0.0 
0.0 0.0 0.0 
0.0 0.0 0.0 
0.0 0.0 0.0 
0.0 0.0 0.0 
0.0 0.0 0.0 
0.0 0.0 0.0 
0.0 0.0 0.0 
0.0 0.0 0.0 
0.0 0.0 0.0 
0.0 0.0 0.0 
0.0 0.0 0.0 
0.0 0.0 0.0 
0.0 0.0 0.0 
0.0 0.0 0.0 
0.0 0.0 0.0 
0.0 0.0 0.0 
0.0 0.0 0.0 
0.0 0.0 0.0 
0.0 0.0 0.0 
0.0 0.0 0.0 
0.0 0.0 0.0 
0.0 0.0 0.0 
0.0 0.0 0.0 
0.0 0.0 0.0 
0.0 0.0 0.0 
0.0 0.0 0.0 
0.0 0.0 0.0 
0.0 0.0 0.0 
0.0 0.0 0.0 
0.0 0.0 0.0 
0.0 0.0 0.0 
0.0 0.0 0.0 
0.0 0.0 0.0 
0.0 0.0 0.0 
0.0 0.0 0.0 
0.0 0.0 0.0 
0.0 0.0 0.0 
0.0 0.0 0.0 
0.0 0.0 0.0 
0.0 0.0 0.0 
0.0 0.0 0.0 
0.0 0.0 0.0 
0.0 0.0 0.0 
0.0 0.0 0.0 
0.0 0.0 0.0 
0.0 0.0 0.0 
0.0 0.0 0.0 
0.0 0.0 0.0 
0.0 0.0 0.0 
0.0 0.0 0.0 
0.0 0.0 0.0 
0.0 0.0 0.0 
0.0 0.0 0.0 
0.0 0.0 0.0 
0.0 0.0 0.0 
0.0 0.0 0.0 
0.0 0.0 0.0 
0.0 0.0 0.0 
0.0 0.0 0.0 
0.0 0.0 0.0 
0.0 0.0 0.0 
0.0 0.0 0.0 
0.0 0.0 0.0 
0.0 0.0 0.0 
0.0 0.0 0.0 
0.0 0.0 0.0 
0.0 0.0 0.0 
0.0 0.0 0.0 
0.0 0.0 0.0 
0.0 0.0 0.0 
0.0 0.0 0.0 
0.0 0.0 0.0 
0.0 0.0 0.0 
0.0 0.0 0.0 
0.0 0.0 0.0 
0.0 0.0 0.0 
0.0 0.0 0.0 
0.0 0.0 0.0 
0.0 0.0 0.0 
0.0 0.0 0.0 
0.0 0.0 0.0 
0.0 0.0 0.0 
0.0 0.0 0.0 
0.0 0.0 0.0 
0.0 0.0 0.0 
0.0 0.0 0.0 
0.0 0.0 0.0 
0.0 0.0 0.0 
0.0 0.0 0.0 
0.0 0.0 0.0 
0.0 0.0 0.0 
0.0 0.0 0.0 
0.0 0.0 0.0 
0.0 0.0 0.0 
0.0 0.0 0.0 
0.0 0.0 0.0 
0.0 0.0 0.0 
0.0 0.0 0.0 
0.0 0.0 0.0 
0.0 0.0 0.0 
0.0 0.0 0.0 
0.0 0.0 0.0 
0.0 0.0 0.0 
0.0 0.0 0.0 
0.0 0.0 0.0 
0.0 0.0 0.0 
0.0 0.0 0.0 
0.0 0.0 0.0 
0.0 0.0 0.0 
0.0 0.0 0.0 
0.0 0.0 0.0 
0.0 0.0 0.0 
0.0 0.0 0.0 
0.0 0.0 0.0 
0.0 0.0 0.0 
0.0 0.0 0.0 
0.0 0.0 0.0 
0.0 0.0 0.0 
0.0 0.0 0.0 
0.0 0.0 0.0 
0.0 0.0 0.0 
0.0 0.0 0.0 
0.0 0.0 0.0 
0.0 0.0 0.0 
0.0 0.0 0.0 
0.0 0.0 0.0 
0.0 0.0 0.0 
0.0 0.0 0.0 
0.0 0.0 0.0 
0.0 0.0 0.0 
0.0 0.0 0.0 
0.0 0.0 0.0 
0.0 0.0 0.0 
0.0 0.0 0.0 
0.0 0.0 0.0 
0.0 0.0 0.0 
0.0 0.0 0.0 
0.0 0.0 0.0 
0.0 0.0 0.0 
0.0 0.0 0.0 
0.0 0.0 0.0 
0.0 0.0 0.0 
0.0 0.0 0.0 
0.0 0.0 0.0 
0.0 0.0 0.0 
0.0 0.0 0.0 
0.0 0.0 0.0 
0.0 0.0 0.0 
0.0 0.0 0.0 
0.0 0.0 0.0 
0.0 0.0 0.0 
0.0 0.0 0.0 
0.0 0.0 0.0 
0.0 0.0 0.0 
0.0 0.0 0.0 
0.0 0.0 0.0 
0.0 0.0 0.0 
0.0 0.0 0.0 
0.0 0.0 0.0 
0.0 0.0 0.0 
0.0 0.0 0.0 
0.0 0.0 0.0 
0.0 0.0 0.0 
0.0 0.0 0.0 
0.0 0.0 0.0 
0.0 0.0 0.0 
0.0 0.0 0.0 
0.0 0.0 0.0 
0.0 0.0 0.0 
0.0 0.0 0.0 
0.0 0.0 0.0 
0.0 0.0 0.0 
0.0 0.0 0.0 
0.0 0.0 0.0 
0.0 0.0 0.0 
0.0 0.0 0.0 
0.0 0.0 0.0 
0.0 0.0 0.0 
0.0 0.0 0.0 
0.0 0.0 0.0 
0.0 0.0 0.0 
0.0 0.0 0.0 
0.0 0.0 0.0 
0.0 0.0 0.0 
0.0 0.0 0.0 
0.0 0.0 0.0 
0.0 0.0 0.0 
0.0 0.0 0.0 
0.0 0.0 0.0 
0.0 0.0 0.0 
0.0 0.0 0.0 
0.0 0.0 0.0 
0.0 0.0 0.0 
0.0 0.0 0.0 
0.0 0.0 0.0 
0.0 0.0 0.0 
0.0 0.0 0.0 
0.0 0.0 0.0 
0.0 0.0 0.0 
0.0 0.0 0.0 
0.0 0.0 0.0 
0.0 0.0 0.0 
0.0 0.0 0.0 
0.0 0.0 0.0 
0.0 0.0 0.0 
0.0 0.0 0.0 
0.0 0.0 0.0 
0.0 0.0 0.0 
0.0 0.0 0.0 
0.0 0.0 0.0 
0.0 0.0 0.0 
0.0 0.0 0.0 
0.0 0.0 0.0 
0.0 0.0 0.0 
0.0 0.0 0.0 
0.0 0.0 0.0 
0.0 0.0 0.0 
0.0 0.0 0.0 
0.0 0.0 0.0 
0.0 0.0 0.0 
0.0 0.0 0.0 
0.0 0.0 0.0 
0.0 0.0 0.0 
0.0 0.0 0.0 
0.0 0.0 0.0 
0.0 0.0 0.0 
0.0 0.0 0.0 
0.0 0.0 0.0 
0.0 0.0 0.0 
0.0 0.0 0.0 
0.0 0.0 0.0 
0.0 0.0 0.0 
0.0 0.0 0.0 
0.0 0.0 0.0 
0.0 0.0 0.0 
0.0 0.0 0.0 
0.0 0.0 0.0 
0.0 0.0 0.0 
0.0 0.0 0.0 
0.0 0.0 0.0 
0.0 0.0 0.0 
0.0 0.0 0.0 
0.0 0.0 0.0 
0.0 0.0 0.0 
0.0 0.0 0.0 
0.0 0.0 0.0 
0.0 0.0 0.0 
0.0 0.0 0.0 
0.0 0.0 0.0 
0.0 0.0 0.0 
0.0 0.0 0.0 
0.0 0.0 0.0 
0.0 0.0 0.0 
0.0 0.0 0.0 
0.0 0.0 0.0 
0.0 0.0 0.0 
0.0 0.0 0.0 
0.0 0.0 0.0 
0.0 0.0 0.0 
0.0 0.0 0.0 
0.0 0.0 0.0 
0.0 0.0 0.0 
0.0 0.0 0.0 
0.0 0.0 0.0 
0.0 0.0 0.0 
0.0 0.0 0.0 
0.0 0.0 0.0 
0.0 0.0 0.0 
0.0 0.0 0.0 
0.0 0.0 0.0 
0.0 0.0 0.0 
0.0 0.0 0.0 
0.0 0.0 0.0 
0.0 0.0 0.0 
0.0 0.0 0.0 
0.0 0.0 0.0 
0.0 0.0 0.0 
0.0 0.0 0.0 
0.0 0.0 0.0 
0.0 0.0 0.0 
0.0 0.0 0.0 
0.0 0.0 0.0 
0.0 0.0 0.0 
0.0 0.0 0.0 
0.0 0.0 0.0 
0.0 0.0 0.0 
0.0 0.0 0.0 
0.0 0.0 0.0 
0.0 0.0 0.0 
0.0 0.0 0.0 
0.0 0.0 0.0 
0.0 0.0 0.0 
0.0 0.0 0.0 
0.0 0.0 0.0 
0.0 0.0 0.0 
0.0 0.0 0.0 
0.0 0.0 0.0 
0.0 0.0 0.0 
0.0 0.0 0.0 
0.0 0.0 0.0 
0.0 0.0 0.0 
0.0 0.0 0.0 
0.0 0.0 0.0 
0.0 0.0 0.0 
0.0 0.0 0.0 
0.0 0.0 0.0 
0.0 0.0 0.0 
0.0 0.0 0.0 
0.0 0.0 0.0 
0.0 0.0 0.0 
0.0 0.0 0.0 
0.0 0.0 0.0 
0.0 0.0 0.0 
0.0 0.0 0.0 
0.0 0.0 0.0 
0.0 0.0 0.0 
0.0 0.0 0.0 
0.0 0.0 0.0 
0.0 0.0 0.0 
0.0 0.0 0.0 
0.0 0.0 0.0 
0.0 0.0 0.0 
0.0 0.0 0.0 
0.0 0.0 0.0 
0.0 0.0 0.0 
0.0 0.0 0.0 
0.0 0.0 0.0 
0.0 0.0 0.0 
0.0 0.0 0.0 
0.0 0.0 0.0 
0.0 0.0 0.0 
0.0 0.0 0.0 
0.0 0.0 0.0 
0.0 0.0 0.0 
0.0 0.0 0.0 
0.0 0.0 0.0 
0.0 0.0 0.0 
0.0 0.0 0.0 
0.0 0.0 0.0 
0.0 0.0 0.0 
0.0 0.0 0.0 
0.0 0.0 0.0 
0.0 0.0 0.0 
0.0 0.0 0.0 
0.0 0.0 0.0 
0.0 0.0 0.0 
0.0 0.0 0.0 
0.0 0.0 0.0 
0.0 0.0 0.0 
0.0 0.0 0.0 
0.0 0.0 0.0 
0.0 0.0 0.0 
0.0 0.0 0.0 
0.0 0.0 0.0 
0.0 0.0 0.0 
0.0 0.0 0.0 
0.0 0.0 0.0 
0.0 0.0 0.0 
0.0 0.0 0.0 
0.0 0.0 0.0 
0.0 0.0 0.0 
0.0 0.0 0.0 
0.0 0.0 0.0 
0.0 0.0 0.0 
0.0 0.0 0.0 
0.0 0.0 0.0 
0.0 0.0 0.0 
0.0 0.0 0.0 
0.0 0.0 0.0 
0.0 0.0 0.0 
0.0 0.0 0.0 
0.0 0.0 0.0 
0.0 0.0 0.0 
0.0 0.0 0.0 
0.0 0.0 0.0 
0.0 0.0 0.0 
0.0 0.0 0.0 
0.0 0.0 0.0 
0.0 0.0 0.0 
0.0 0.0 0.0 
0.0 0.0 0.0 
0.0 0.0 0.0 
0.0 0.0 0.0 
0.0 0.0 0.0 
0.0 0.0 0.0 
0.0 0.0 0.0 
0.0 0.0 0.0 
0.0 0.0 0.0 
0.0 0.0 0.0 
0.0 0.0 0.0 
0.0 0.0 0.0 
0.0 0.0 0.0 
0.0 0.0 0.0 
0.0 0.0 0.0 
0.0 0.0 0.0 
0.0 0.0 0.0 
0.0 0.0 0.0 
0.0 0.0 0.0 
0.0 0.0 0.0 
0.0 0.0 0.0 
0.0 0.0 0.0 
0.0 0.0 0.0 
0.0 0.0 0.0 
0.0 0.0 0.0 
0.0 0.0 0.0 
0.0 0.0 0.0 
0.0 0.0 0.0 
0.0 0.0 0.0 
0.0 0.0 0.0 
0.0 0.0 0.0 
0.0 0.0 0.0 
0.0 0.0 0.0 
0.0 0.0 0.0 
0.0 0.0 0.0 
0.0 0.0 0.0 
0.0 0.0 0.0 
0.0 0.0 0.0 
0.0 0.0 0.0 
0.0 0.0 0.0 
0.0 0.0 0.0 
0.0 0.0 0.0 
0.0 0.0 0.0 
0.0 0.0 0.0 
0.0 0.0 0.0 
0.0 0.0 0.0 
0.0 0.0 0.0 
0.0 0.0 0.0 
0.0 0.0 0.0 
0.0 0.0 0.0 
0.0 0.0 0.0 
0.0 0.0 0.0 
0.0 0.0 0.0 
0.0 0.0 0.0 
0.0 0.0 0.0 
0.0 0.0 0.0 
0.0 0.0 0.0 
0.0 0.0 0.0 
0.0 0.0 0.0 
0.0 0.0 0.0 
0.0 0.0 0.0 
0.0 0.0 0.0 
0.0 0.0 0.0 
0.0 0.0 0.0 
0.0 0.0 0.0 
0.0 0.0 0.0 
0.0 0.0 0.0 
0.0 0.0 0.0 
0.0 0.0 0.0 
0.0 0.0 0.0 
0.0 0.0 0.0 
0.0 0.0 0.0 
0.0 0.0 0.0 
0.0 0.0 0.0 
0.0 0.0 0.0 
0.0 0.0 0.0 
0.0 0.0 0.0 
0.0 0.0 0.0 
0.0 0.0 0.0 
0.0 0.0 0.0 
0.0 0.0 0.0 
0.0 0.0 0.0 
0.0 0.0 0.0 
0.0 0.0 0.0 
0.0 0.0 0.0 
0.0 0.0 0.0 
0.0 0.0 0.0 
0.0 0.0 0.0 
0.0 0.0 0.0 
0.0 0.0 0.0 
0.0 0.0 0.0 
0.0 0.0 0.0 
0.0 0.0 0.0 
0.0 0.0 0.0 
0.0 0.0 0.0 
0.0 0.0 0.0 
0.0 0.0 0.0 
0.0 0.0 0.0 
0.0 0.0 0.0 
0.0 0.0 0.0 
0.0 0.0 0.0 
0.0 0.0 0.0 
0.0 0.0 0.0 
0.0 0.0 0.0 
0.0 0.0 0.0 
0.0 0.0 0.0 
0.0 0.0 0.0 
0.0 0.0 0.0 
0.0 0.0 0.0 
0.0 0.0 0.0 
0.0 0.0 0.0 
0.0 0.0 0.0 
0.0 0.0 0.0 
0.0 0.0 0.0 
0.0 0.0 0.0 
0.0 0.0 0.0 
0.0 0.0 0.0 
0.0 0.0 0.0 
0.0 0.0 0.0 
0.0 0.0 0.0 
0.0 0.0 0.0 
0.0 0.0 0.0 
0.0 0.0 0.0 
0.0 0.0 0.0 
0.0 0.0 0.0 
0.0 0.0 0.0 
0.0 0.0 0.0 
0.0 0.0 0.0 
0.0 0.0 0.0 
0.0 0.0 0.0 
0.0 0.0 0.0 
0.0 0.0 0.0 
0.0 0.0 0.0 
0.0 0.0 0.0 
0.0 0.0 0.0 
0.0 0.0 0.0 
0.0 0.0 0.0 
0.0 0.0 0.0 
0.0 0.0 0.0 
0.0 0.0 0.0 
0.0 0.0 0.0 
0.0 0.0 0.0 
0.0 0.0 0.0 
0.0 0.0 0.0 
0.0 0.0 0.0 
0.0 0.0 0.0 
0.0 0.0 0.0 
0.0 0.0 0.0 
0.0 0.0 0.0 
0.0 0.0 0.0 
0.0 0.0 0.0 
0.0 0.0 0.0 
0.0 0.0 0.0 
0.0 0.0 0.0 
0.0 0.0 0.0 
0.0 0.0 0.0 
0.0 0.0 0.0 
0.0 0.0 0.0 
0.0 0.0 0.0 
0.0 0.0 0.0 
0.0 0.0 0.0 
0.0 0.0 0.0 
0.0 0.0 0.0 
0.0 0.0 0.0 
0.0 0.0 0.0 
0.0 0.0 0.0 
0.0 0.0 0.0 
0.0 0.0 0.0 
0.0 0.0 0.0 
0.0 0.0 0.0 
0.0 0.0 0.0 
0.0 0.0 0.0 
0.0 0.0 0.0 
0.0 0.0 0.0 
0.0 0.0 0.0 
0.0 0.0 0.0 
0.0 0.0 0.0 
0.0 0.0 0.0 
0.0 0.0 0.0 
0.0 0.0 0.0 
0.0 0.0 0.0 
0.0 0.0 0.0 
0.0 0.0 0.0 
0.0 0.0 0.0 
0.0 0.0 0.0 
0.0 0.0 0.0 
0.0 0.0 0.0 
0.0 0.0 0.0 
0.0 0.0 0.0 
0.0 0.0 0.0 
0.0 0.0 0.0 
0.0 0.0 0.0 
0.0 0.0 0.0 
0.0 0.0 0.0 
0.0 0.0 0.0 
0.0 0.0 0.0 
0.0 0.0 0.0 
0.0 0.0 0.0 
0.0 0.0 0.0 
0.0 0.0 0.0 
0.0 0.0 0.0 
0.0 0.0 0.0 
0.0 0.0 0.0 
0.0 0.0 0.0 
0.0 0.0 0.0 
0.0 0.0 0.0 
0.0 0.0 0.0 
0.0 0.0 0.0 
0.0 0.0 0.0 
0.0 0.0 0.0 
0.0 0.0 0.0 
0.0 0.0 0.0 
0.0 0.0 0.0 
0.0 0.0 0.0 
0.0 0.0 0.0 
0.0 0.0 0.0 
0.0 0.0 0.0 
0.0 0.0 0.0 
0.0 0.0 0.0 
0.0 0.0 0.0 
0.0 0.0 0.0 
0.0 0.0 0.0 
0.0 0.0 0.0 
0.0 0.0 0.0 
0.0 0.0 0.0 
0.0 0.0 0.0 
0.0 0.0 0.0 
0.0 0.0 0.0 
0.0 0.0 0.0 
0.0 0.0 0.0 
0.0 0.0 0.0 
0.0 0.0 0.0 
0.0 0.0 0.0 
0.0 0.0 0.0 
0.0 0.0 0.0 
0.0 0.0 0.0 
0.0 0.0 0.0 
0.0 0.0 0.0 
0.0 0.0 0.0 
0.0 0.0 0.0 
0.0 0.0 0.0 
0.0 0.0 0.0 
0.0 0.0 0.0 
0.0 0.0 0.0 
0.0 0.0 0.0 
0.0 0.0 0.0 
0.0 0.0 0.0 
0.0 0.0 0.0 
0.0 0.0 0.0 
0.0 0.0 0.0 
0.0 0.0 0.0 
0.0 0.0 0.0 
0.0 0.0 0.0 
0.0 0.0 0.0 
0.0 0.0 0.0 
0.0 0.0 0.0 
0.0 0.0 0.0 
0.0 0.0 0.0 
0.0 0.0 0.0 
0.0 0.0 0.0 
0.0 0.0 0.0 
0.0 0.0 0.0 
0.0 0.0 0.0 
0.0 0.0 0.0 
0.0 0.0 0.0 
0.0 0.0 0.0 
0.0 0.0 0.0 
0.0 0.0 0.0 
0.0 0.0 0.0 
0.0 0.0 0.0 
0.0 0.0 0.0 
0.0 0.0 0.0 
0.0 0.0 0.0 
0.0 0.0 0.0 
0.0 0.0 0.0 
0.0 0.0 0.0 
0.0 0.0 0.0 
0.0 0.0 0.0 
0.0 0.0 0.0 
0.0 0.0 0.0 
0.0 0.0 0.0 
0.0 0.0 0.0 
0.0 0.0 0.0 
0.0 0.0 0.0 
0.0 0.0 0.0 
0.0 0.0 0.0 
0.0 0.0 0.0 
0.0 0.0 0.0 
0.0 0.0 0.0 
0.0 0.0 0.0 
0.0 0.0 0.0 
0.0 0.0 0.0 
0.0 0.0 0.0 
0.0 0.0 0.0 
0.0 0.0 0.0 
0.0 0.0 0.0 
0.0 0.0 0.0 
0.0 0.0 0.0 
0.0 0.0 0.0 
0.0 0.0 0.0 
0.0 0.0 0.0 
0.0 0.0 0.0 
0.0 0.0 0.0 
0.0 0.0 0.0 
0.0 0.0 0.0 
0.0 0.0 0.0 
0.0 0.0 0.0 
0.0 0.0 0.0 
0.0 0.0 0.0 
0.0 0.0 0.0 
0.0 0.0 0.0 
0.0 0.0 0.0 
0.0 0.0 0.0 
0.0 0.0 0.0 
0.0 0.0 0.0 
0.0 0.0 0.0 
0.0 0.0 0.0 
0.0 0.0 0.0 
0.0 0.0 0.0 
0.0 0.0 0.0 
0.0 0.0 0.0 
0.0 0.0 0.0 
0.0 0.0 0.0 
0.0 0.0 0.0 
0.0 0.0 0.0 
0.0 0.0 0.0 
0.0 0.0 0.0 
0.0 0.0 0.0 
0.0 0.0 0.0 
0.0 0.0 0.0 
0.0 0.0 0.0 
0.0 0.0 0.0 
0.0 0.0 0.0 
0.0 0.0 0.0 
0.0 0.0 0.0 
0.0 0.0 0.0 
0.0 0.0 0.0 
0.0 0.0 0.0 
0.0 0.0 0.0 
0.0 0.0 0.0 
0.0 0.0 0.0 
0.0 0.0 0.0 
0.0 0.0 0.0 
0.0 0.0 0.0 
0.0 0.0 0.0 
0.0 0.0 0.0 
0.0 0.0 0.0 
0.0 0.0 0.0 
0.0 0.0 0.0 
0.0 0.0 0.0 
0.0 0.0 0.0 
0.0 0.0 0.0 
0.0 0.0 0.0 
0.0 0.0 0.0 
0.0 0.0 0.0 
0.0 0.0 0.0 
0.0 0.0 0.0 
0.0 0.0 0.0 
0.0 0.0 0.0 
0.0 0.0 0.0 
0.0 0.0 0.0 
0.0 0.0 0.0 
0.0 0.0 0.0 
0.0 0.0 0.0 
0.0 0.0 0.0 
0.0 0.0 0.0 
0.0 0.0 0.0 
0.0 0.0 0.0 
0.0 0.0 0.0 
0.0 0.0 0.0 
0.0 0.0 0.0 
0.0 0.0 0.0 
0.0 0.0 0.0 
0.0 0.0 0.0 
0.0 0.0 0.0 
0.0 0.0 0.0 
0.0 0.0 0.0 
0.0 0.0 0.0 
0.0 0.0 0.0 
0.0 0.0 0.0 
0.0 0.0 0.0 
0.0 0.0 0.0 
0.0 0.0 0.0 
0.0 0.0 0.0 
0.0 0.0 0.0 
0.0 0.0 0.0 
0.0 0.0 0.0 
0.0 0.0 0.0 
0.0 0.0 0.0 
0.0 0.0 0.0 
0.0 0.0 0.0 
0.0 0.0 0.0 
0.0 0.0 0.0 
0.0 0.0 0.0 
0.0 0.0 0.0 
0.0 0.0 0.0 
0.0 0.0 0.0 
0.0 0.0 0.0 
0.0 0.0 0.0 
0.0 0.0 0.0 
0.0 0.0 0.0 
0.0 0.0 0.0 
0.0 0.0 0.0 
0.0 0.0 0.0 
0.0 0.0 0.0 
0.0 0.0 0.0 
0.0 0.0 0.0 
0.0 0.0 0.0 
0.0 0.0 0.0 
0.0 0.0 0.0 
0.0 0.0 0.0 
0.0 0.0 0.0 
0.0 0.0 0.0 
0.0 0.0 0.0 
0.0 0.0 0.0 
0.0 0.0 0.0 
0.0 0.0 0.0 
0.0 0.0 0.0 
0.0 0.0 0.0 
0.0 0.0 0.0 
0.0 0.0 0.0 
0.0 0.0 0.0 
0.0 0.0 0.0 
0.0 0.0 0.0 
0.0 0.0 0.0 
0.0 0.0 0.0 
0.0 0.0 0.0 
0.0 0.0 0.0 
0.0 0.0 0.0 
0.0 0.0 0.0 
0.0 0.0 0.0 
0.0 0.0 0.0 
0.0 0.0 0.0 
0.0 0.0 0.0 
0.0 0.0 0.0 
0.0 0.0 0.0 
0.0 0.0 0.0 
0.0 0.0 0.0 
0.0 0.0 0.0 
0.0 0.0 0.0 
0.0 0.0 0.0 
0.0 0.0 0.0 
0.0 0.0 0.0 
0.0 0.0 0.0 
0.0 0.0 0.0 
0.0 0.0 0.0 
0.0 0.0 0.0 
0.0 0.0 0.0 
0.0 0.0 0.0 
0.0 0.0 0.0 
0.0 0.0 0.0 
0.0 0.0 0.0 
0.0 0.0 0.0 
0.0 0.0 0.0 
0.0 0.0 0.0 
0.0 0.0 0.0 
0.0 0.0 0.0 
0.0 0.0 0.0 
0.0 0.0 0.0 
0.0 0.0 0.0 
0.0 0.0 0.0 
0.0 0.0 0.0 
0.0 0.0 0.0 
0.0 0.0 0.0 
0.0 0.0 0.0 
0.0 0.0 0.0 
0.0 0.0 0.0 
0.0 0.0 0.0 
0.0 0.0 0.0 
0.0 0.0 0.0 
0.0 0.0 0.0 
0.0 0.0 0.0 
0.0 0.0 0.0 
0.0 0.0 0.0 
0.0 0.0 0.0 
0.0 0.0 0.0 
0.0 0.0 0.0 
0.0 0.0 0.0 
0.0 0.0 0.0 
0.0 0.0 0.0 
0.0 0.0 0.0 
0.0 0.0 0.0 
0.0 0.0 0.0 
0.0 0.0 0.0 
0.0 0.0 0.0 
0.0 0.0 0.0 
0.0 0.0 0.0 
0.0 0.0 0.0 
0.0 0.0 0.0 
0.0 0.0 0.0 
0.0 0.0 0.0 
0.0 0.0 0.0 
0.0 0.0 0.0 
0.0 0.0 0.0 
0.0 0.0 0.0 
0.0 0.0 0.0 
0.0 0.0 0.0 
0.0 0.0 0.0 
0.0 0.0 0.0 
0.0 0.0 0.0 
0.0 0.0 0.0 
0.0 0.0 0.0 
0.0 0.0 0.0 
0.0 0.0 0.0 
0.0 0.0 0.0 
0.0 0.0 0.0 
0.0 0.0 0.0 
0.0 0.0 0.0 
0.0 0.0 0.0 
0.0 0.0 0.0 
0.0 0.0 0.0 
0.0 0.0 0.0 
0.0 0.0 0.0 
0.0 0.0 0.0 
0.0 0.0 0.0 
0.0 0.0 0.0 
0.0 0.0 0.0 
0.0 0.0 0.0 
0.0 0.0 0.0 
0.0 0.0 0.0 
0.0 0.0 0.0 
0.0 0.0 0.0 
0.0 0.0 0.0 
0.0 0.0 0.0 
0.0 0.0 0.0 
0.0 0.0 0.0 
0.0 0.0 0.0 
0.0 0.0 0.0 
0.0 0.0 0.0 
0.0 0.0 0.0 
0.0 0.0 0.0 
0.0 0.0 0.0 
0.0 0.0 0.0 
0.0 0.0 0.0 
0.0 0.0 0.0 
0.0 0.0 0.0 
0.0 0.0 0.0 
0.0 0.0 0.0 
0.0 0.0 0.0 
0.0 0.0 0.0 
0.0 0.0 0.0 
0.0 0.0 0.0 
0.0 0.0 0.0 
0.0 0.0 0.0 
0.0 0.0 0.0 
0.0 0.0 0.0 
0.0 0.0 0.0 
0.0 0.0 0.0 
0.0 0.0 0.0 
0.0 0.0 0.0 
0.0 0.0 0.0 
0.0 0.0 0.0 
0.0 0.0 0.0 
0.0 0.0 0.0 
0.0 0.0 0.0 
0.0 0.0 0.0 
0.0 0.0 0.0 
0.0 0.0 0.0 
0.0 0.0 0.0 
0.0 0.0 0.0 
0.0 0.0 0.0 
0.0 0.0 0.0 
0.0 0.0 0.0 
0.0 0.0 0.0 
0.0 0.0 0.0 
0.0 0.0 0.0 
0.0 0.0 0.0 
0.0 0.0 0.0 
0.0 0.0 0.0 
0.0 0.0 0.0 
0.0 0.0 0.0 
0.0 0.0 0.0 
0.0 0.0 0.0 
0.0 0.0 0.0 
0.0 0.0 0.0 
0.0 0.0 0.0 
0.0 0.0 0.0 
0.0 0.0 0.0 
0.0 0.0 0.0 
0.0 0.0 0.0 
0.0 0.0 0.0 
0.0 0.0 0.0 
0.0 0.0 0.0 
0.0 0.0 0.0 
0.0 0.0 0.0 
0.0 0.0 0.0 
0.0 0.0 0.0 
0.0 0.0 0.0 
0.0 0.0 0.0 
0.0 0.0 0.0 
0.0 0.0 0.0 
0.0 0.0 0.0 
0.0 0.0 0.0 
0.0 0.0 0.0 
0.0 0.0 0.0 
0.0 0.0 0.0 
0.0 0.0 0.0 
0.0 0.0 0.0 
0.0 0.0 0.0 
0.0 0.0 0.0 
0.0 0.0 0.0 
0.0 0.0 0.0 
0.0 0.0 0.0 
0.0 0.0 0.0 
0.0 0.0 0.0 
0.0 0.0 0.0 
0.0 0.0 0.0 
0.0 0.0 0.0 
0.0 0.0 0.0 
0.0 0.0 0.0 
0.0 0.0 0.0 
0.0 0.0 0.0 
0.0 0.0 0.0 
0.0 0.0 0.0 
0.0 0.0 0.0 
0.0 0.0 0.0 
0.0 0.0 0.0 
0.0 0.0 0.0 
0.0 0.0 0.0 
0.0 0.0 0.0 
0.0 0.0 0.0 
0.0 0.0 0.0 
0.0 0.0 0.0 
0.0 0.0 0.0 
0.0 0.0 0.0 
0.0 0.0 0.0 
0.0 0.0 0.0 
0.0 0.0 0.0 
0.0 0.0 0.0 
0.0 0.0 0.0 
0.0 0.0 0.0 
0.0 0.0 0.0 
0.0 0.0 0.0 
0.0 0.0 0.0 
0.0 0.0 0.0 
0.0 0.0 0.0 
0.0 0.0 0.0 
0.0 0.0 0.0 
0.0 0.0 0.0 
0.0 0.0 0.0 
0.0 0.0 0.0 
0.0 0.0 0.0 
0.0 0.0 0.0 
0.0 0.0 0.0 
0.0 0.0 0.0 
0.0 0.0 0.0 
0.0 0.0 0.0 
0.0 0.0 0.0 
0.0 0.0 0.0 
0.0 0.0 0.0 
0.0 0.0 0.0 
0.0 0.0 0.0 
0.0 0.0 0.0 
0.0 0.0 0.0 
0.0 0.0 0.0 
0.0 0.0 0.0 
0.0 0.0 0.0 
0.0 0.0 0.0 
0.0 0.0 0.0 
0.0 0.0 0.0 
0.0 0.0 0.0 
0.0 0.0 0.0 
0.0 0.0 0.0 
0.0 0.0 0.0 
0.0 0.0 0.0 
0.0 0.0 0.0 
0.0 0.0 0.0 
0.0 0.0 0.0 
0.0 0.0 0.0 
0.0 0.0 0.0 
0.0 0.0 0.0 
0.0 0.0 0.0 
0.0 0.0 0.0 
0.0 0.0 0.0 
0.0 0.0 0.0 
0.0 0.0 0.0 
0.0 0.0 0.0 
0.0 0.0 0.0 
0.0 0.0 0.0 
0.0 0.0 0.0 
0.0 0.0 0.0 
0.0 0.0 0.0 
0.0 0.0 0.0 
0.0 0.0 0.0 
0.0 0.0 0.0 
0.0 0.0 0.0 
0.0 0.0 0.0 
0.0 0.0 0.0 
0.0 0.0 0.0 
0.0 0.0 0.0 
0.0 0.0 0.0 
0.0 0.0 0.0 
0.0 0.0 0.0 
0.0 0.0 0.0 
0.0 0.0 0.0 
0.0 0.0 0.0 
0.0 0.0 0.0 
0.0 0.0 0.0 
0.0 0.0 0.0 
0.0 0.0 0.0 
0.0 0.0 0.0 
0.0 0.0 0.0 
0.0 0.0 0.0 
0.0 0.0 0.0 
0.0 0.0 0.0 
0.0 0.0 0.0 
0.0 0.0 0.0 
0.0 0.0 0.0 
0.0 0.0 0.0 
0.0 0.0 0.0 
0.0 0.0 0.0 
0.0 0.0 0.0 
0.0 0.0 0.0 
0.0 0.0 0.0 
0.0 0.0 0.0 
0.0 0.0 0.0 
0.0 0.0 0.0 
0.0 0.0 0.0 
0.0 0.0 0.0 
0.0 0.0 0.0 
0.0 0.0 0.0 
0.0 0.0 0.0 
0.0 0.0 0.0 
0.0 0.0 0.0 
0.0 0.0 0.0 
0.0 0.0 0.0 
0.0 0.0 0.0 
0.0 0.0 0.0 
0.0 0.0 0.0 
0.0 0.0 0.0 
0.0 0.0 0.0 
0.0 0.0 0.0 
0.0 0.0 0.0 
0.0 0.0 0.0 
0.0 0.0 0.0 
0.0 0.0 0.0 
0.0 0.0 0.0 
0.0 0.0 0.0 
0.0 0.0 0.0 
0.0 0.0 0.0 
0.0 0.0 0.0 
0.0 0.0 0.0 
0.0 0.0 0.0 
0.0 0.0 0.0 
0.0 0.0 0.0 
0.0 0.0 0.0 
0.0 0.0 0.0 
0.0 0.0 0.0 
0.0 0.0 0.0 
0.0 0.0 0.0 
0.0 0.0 0.0 
0.0 0.0 0.0 
0.0 0.0 0.0 
0.0 0.0 0.0 
0.0 0.0 0.0 
0.0 0.0 0.0 
0.0 0.0 0.0 
0.0 0.0 0.0 
0.0 0.0 0.0 
0.0 0.0 0.0 
0.0 0.0 0.0 
0.0 0.0 0.0 
0.0 0.0 0.0 
0.0 0.0 0.0 
0.0 0.0 0.0 
0.0 0.0 0.0 
0.0 0.0 0.0 
0.0 0.0 0.0 
0.0 0.0 0.0 
0.0 0.0 0.0 
0.0 0.0 0.0 
0.0 0.0 0.0 
0.0 0.0 0.0 
0.0 0.0 0.0 
0.0 0.0 0.0 
0.0 0.0 0.0 
0.0 0.0 0.0 
0.0 0.0 0.0 
0.0 0.0 0.0 
0.0 0.0 0.0 
0.0 0.0 0.0 
0.0 0.0 0.0 
0.0 0.0 0.0 
0.0 0.0 0.0 
0.0 0.0 0.0 
0.0 0.0 0.0 
0.0 0.0 0.0 
0.0 0.0 0.0 
0.0 0.0 0.0 
0.0 0.0 0.0 
0.0 0.0 0.0 
0.0 0.0 0.0 
0.0 0.0 0.0 
0.0 0.0 0.0 
0.0 0.0 0.0 
0.0 0.0 0.0 
0.0 0.0 0.0 
0.0 0.0 0.0 
0.0 0.0 0.0 
0.0 0.0 0.0 
0.0 0.0 0.0 
0.0 0.0 0.0 
0.0 0.0 0.0 
0.0 0.0 0.0 
0.0 0.0 0.0 
0.0 0.0 0.0 
0.0 0.0 0.0 
0.0 0.0 0.0 
0.0 0.0 0.0 
0.0 0.0 0.0 
0.0 0.0 0.0 
0.0 0.0 0.0 
0.0 0.0 0.0 
0.0 0.0 0.0 
0.0 0.0 0.0 
0.0 0.0 0.0 
0.0 0.0 0.0 
0.0 0.0 0.0 
0.0 0.0 0.0 
0.0 0.0 0.0 
0.0 0.0 0.0 
0.0 0.0 0.0 
0.0 0.0 0.0 
0.0 0.0 0.0 
0.0 0.0 0.0 
0.0 0.0 0.0 
0.0 0.0 0.0 
0.0 0.0 0.0 
0.0 0.0 0.0 
0.0 0.0 0.0 
0.0 0.0 0.0 
0.0 0.0 0.0 
0.0 0.0 0.0 
0.0 0.0 0.0 
0.0 0.0 0.0 
0.0 0.0 0.0 
0.0 0.0 0.0 
0.0 0.0 0.0 
0.0 0.0 0.0 
0.0 0.0 0.0 
0.0 0.0 0.0 
0.0 0.0 0.0 
0.0 0.0 0.0 
0.0 0.0 0.0 
0.0 0.0 0.0 
0.0 0.0 0.0 
0.0 0.0 0.0 
0.0 0.0 0.0 
0.0 0.0 0.0 
0.0 0.0 0.0 
0.0 0.0 0.0 
0.0 0.0 0.0 
0.0 0.0 0.0 
0.0 0.0 0.0 
0.0 0.0 0.0 
0.0 0.0 0.0 
0.0 0.0 0.0 
0.0 0.0 0.0 
0.0 0.0 0.0 
0.0 0.0 0.0 
0.0 0.0 0.0 
0.0 0.0 0.0 
0.0 0.0 0.0 
0.0 0.0 0.0 
0.0 0.0 0.0 
0.0 0.0 0.0 
0.0 0.0 0.0 
0.0 0.0 0.0 
0.0 0.0 0.0 
0.0 0.0 0.0 
0.0 0.0 0.0 
0.0 0.0 0.0 
0.0 0.0 0.0 
0.0 0.0 0.0 
0.0 0.0 0.0 
0.0 0.0 0.0 
0.0 0.0 0.0 
0.0 0.0 0.0 
0.0 0.0 0.0 
0.0 0.0 0.0 
0.0 0.0 0.0 
0.0 0.0 0.0 
0.0 0.0 0.0 
0.0 0.0 0.0 
0.0 0.0 0.0 
0.0 0.0 0.0 
0.0 0.0 0.0 
0.0 0.0 0.0 
0.0 0.0 0.0 
0.0 0.0 0.0 
0.0 0.0 0.0 
0.0 0.0 0.0 
0.0 0.0 0.0 
0.0 0.0 0.0 
0.0 0.0 0.0 
0.0 0.0 0.0 
0.0 0.0 0.0 
0.0 0.0 0.0 
0.0 0.0 0.0 
0.0 0.0 0.0 
0.0 0.0 0.0 
0.0 0.0 0.0 
0.0 0.0 0.0 
0.0 0.0 0.0 
0.0 0.0 0.0 
0.0 0.0 0.0 
0.0 0.0 0.0 
0.0 0.0 0.0 
0.0 0.0 0.0 
0.0 0.0 0.0 
0.0 0.0 0.0 
0.0 0.0 0.0 
0.0 0.0 0.0 
0.0 0.0 0.0 
0.0 0.0 0.0 
0.0 0.0 0.0 
0.0 0.0 0.0 
0.0 0.0 0.0 
0.0 0.0 0.0 
0.0 0.0 0.0 
0.0 0.0 0.0 
0.0 0.0 0.0 
0.0 0.0 0.0 
0.0 0.0 0.0 
0.0 0.0 0.0 
0.0 0.0 0.0 
0.0 0.0 0.0 
0.0 0.0 0.0 
0.0 0.0 0.0 
0.0 0.0 0.0 
0.0 0.0 0.0 
0.0 0.0 0.0 
0.0 0.0 0.0 
0.0 0.0 0.0 
0.0 0.0 0.0 
0.0 0.0 0.0 
0.0 0.0 0.0 
0.0 0.0 0.0 
0.0 0.0 0.0 
0.0 0.0 0.0 
0.0 0.0 0.0 
0.0 0.0 0.0 
0.0 0.0 0.0 
0.0 0.0 0.0 
0.0 0.0 0.0 
0.0 0.0 0.0 
0.0 0.0 0.0 
0.0 0.0 0.0 
0.0 0.0 0.0 
0.0 0.0 0.0 
0.0 0.0 0.0 
0.0 0.0 0.0 
0.0 0.0 0.0 
0.0 0.0 0.0 
0.0 0.0 0.0 
0.0 0.0 0.0 
0.0 0.0 0.0 
0.0 0.0 0.0 
0.0 0.0 0.0 
0.0 0.0 0.0 
0.0 0.0 0.0 
0.0 0.0 0.0 
0.0 0.0 0.0 
0.0 0.0 0.0 
0.0 0.0 0.0 
0.0 0.0 0.0 
0.0 0.0 0.0 
0.0 0.0 0.0 
0.0 0.0 0.0 
0.0 0.0 0.0 
0.0 0.0 0.0 
0.0 0.0 0.0 
0.0 0.0 0.0 
0.0 0.0 0.0 
0.0 0.0 0.0 
0.0 0.0 0.0 
0.0 0.0 0.0 
0.0 0.0 0.0 
0.0 0.0 0.0 
0.0 0.0 0.0 
0.0 0.0 0.0 
0.0 0.0 0.0 
0.0 0.0 0.0 
0.0 0.0 0.0 
0.0 0.0 0.0 
0.0 0.0 0.0 
0.0 0.0 0.0 
0.0 0.0 0.0 
0.0 0.0 0.0 
0.0 0.0 0.0 
0.0 0.0 0.0 
0.0 0.0 0.0 
0.0 0.0 0.0 
0.0 0.0 0.0 
0.0 0.0 0.0 
0.0 0.0 0.0 
0.0 0.0 0.0 
0.0 0.0 0.0 
0.0 0.0 0.0 
0.0 0.0 0.0 
0.0 0.0 0.0 
0.0 0.0 0.0 
0.0 0.0 0.0 
0.0 0.0 0.0 
0.0 0.0 0.0 
0.0 0.0 0.0 
0.0 0.0 0.0 
0.0 0.0 0.0 
0.0 0.0 0.0 
0.0 0.0 0.0 
0.0 0.0 0.0 
0.0 0.0 0.0 
0.0 0.0 0.0 
0.0 0.0 0.0 
0.0 0.0 0.0 
0.0 0.0 0.0 
0.0 0.0 0.0 
0.0 0.0 0.0 
0.0 0.0 0.0 
0.0 0.0 0.0 
0.0 0.0 0.0 
0.0 0.0 0.0 
0.0 0.0 0.0 
0.0 0.0 0.0 
0.0 0.0 0.0 
0.0 0.0 0.0 
0.0 0.0 0.0 
0.0 0.0 0.0 
0.0 0.0 0.0 
0.0 0.0 0.0 
0.0 0.0 0.0 
0.0 0.0 0.0 
0.0 0.0 0.0 
0.0 0.0 0.0 
0.0 0.0 0.0 
0.0 0.0 0.0 
0.0 0.0 0.0 
0.0 0.0 0.0 
0.0 0.0 0.0 
0.0 0.0 0.0 
0.0 0.0 0.0 
0.0 0.0 0.0 
0.0 0.0 0.0 
0.0 0.0 0.0 
0.0 0.0 0.0 
0.0 0.0 0.0 
0.0 0.0 0.0 
0.0 0.0 0.0 
0.0 0.0 0.0 
0.0 0.0 0.0 
0.0 0.0 0.0 
0.0 0.0 0.0 
0.0 0.0 0.0 
0.0 0.0 0.0 
0.0 0.0 0.0 
0.0 0.0 0.0 
0.0 0.0 0.0 
0.0 0.0 0.0 
0.0 0.0 0.0 
0.0 0.0 0.0 
0.0 0.0 0.0 
0.0 0.0 0.0 
0.0 0.0 0.0 
0.0 0.0 0.0 
0.0 0.0 0.0 
0.0 0.0 0.0 
0.0 0.0 0.0 
0.0 0.0 0.0 
0.0 0.0 0.0 
0.0 0.0 0.0 
0.0 0.0 0.0 
0.0 0.0 0.0 
0.0 0.0 0.0 
0.0 0.0 0.0 
0.0 0.0 0.0 
0.0 0.0 0.0 
0.0 0.0 0.0 
0.0 0.0 0.0 
0.0 0.0 0.0 
0.0 0.0 0.0 
0.0 0.0 0.0 
0.0 0.0 0.0 
0.0 0.0 0.0 
0.0 0.0 0.0 
0.0 0.0 0.0 
0.0 0.0 0.0 
0.0 0.0 0.0 
0.0 0.0 0.0 
0.0 0.0 0.0 
0.0 0.0 0.0 
0.0 0.0 0.0 
0.0 0.0 0.0 
0.0 0.0 0.0 
0.0 0.0 0.0 
0.0 0.0 0.0 
0.0 0.0 0.0 
0.0 0.0 0.0 
0.0 0.0 0.0 
0.0 0.0 0.0 
0.0 0.0 0.0 
0.0 0.0 0.0 
0.0 0.0 0.0 
0.0 0.0 0.0 
0.0 0.0 0.0 
0.0 0.0 0.0 
0.0 0.0 0.0 
0.0 0.0 0.0 
0.0 0.0 0.0 
0.0 0.0 0.0 
0.0 0.0 0.0 
0.0 0.0 0.0 
0.0 0.0 0.0 
0.0 0.0 0.0 
0.0 0.0 0.0 
0.0 0.0 0.0 
0.0 0.0 0.0 
0.0 0.0 0.0 
0.0 0.0 0.0 
0.0 0.0 0.0 
0.0 0.0 0.0 
0.0 0.0 0.0 
0.0 0.0 0.0 
0.0 0.0 0.0 
0.0 0.0 0.0 
0.0 0.0 0.0 
0.0 0.0 0.0 

TENSORS element_materi_stress float
-4.418673682085e+01 8.087935372670e-02 0.0 
8.087935372670e-02 -1.003341179021e+02 0.0 
0.0 0.0 -4.295625641689e+01 
-4.499902232399e+01 2.398363508065e+00 0.0 
2.398363508065e+00 -9.824059052248e+01 0.0 
0.0 0.0 -4.257188385394e+01 
-1.495266562938e+02 2.401284761129e+00 0.0 
2.401284761129e+00 -3.484333859340e+02 0.0 
0.0 0.0 -1.489880126683e+02 
-1.467077197628e+02 9.229618473968e-01 0.0 
9.229618473968e-01 -3.428317556033e+02 0.0 
0.0 0.0 -1.464618426098e+02 
-8.971562349075e+01 -7.769891028155e-01 0.0 
-7.769891028155e-01 -2.069528968311e+02 0.0 
0.0 0.0 -8.860055609657e+01 
-1.481651771076e+01 2.710135241129e+00 0.0 
2.710135241129e+00 -4.226222478372e+01 0.0 
0.0 0.0 -1.672362274834e+01 
-8.989990503271e+01 -9.808501161455e-01 0.0 
-9.808501161455e-01 -2.072797079462e+02 0.0 
0.0 0.0 -8.875388389366e+01 
-4.308918892555e+01 1.433862981795e+00 0.0 
1.433862981795e+00 -9.592428959627e+01 0.0 
0.0 0.0 -4.130404355655e+01 
-8.996521000515e+01 1.270595512679e+00 0.0 
1.270595512679e+00 -2.076510913257e+02 0.0 
0.0 0.0 -8.888489039925e+01 
-1.461409994751e+02 -5.446436123691e-01 0.0 
-5.446436123691e-01 -3.412514034103e+02 0.0 
0.0 0.0 -1.458177208656e+02 
-1.040247837500e+02 -4.707990131942e-01 0.0 
-4.707990131942e-01 -2.503007398312e+02 0.0 
0.0 0.0 -1.058976570744e+02 
-3.687747131048e+01 1.140843825680e+00 0.0 
1.140843825680e+00 -8.144556525716e+01 0.0 
0.0 0.0 -3.509691097029e+01 
-1.537189498088e+02 -5.332524453933e-01 0.0 
-5.332524453933e-01 -3.620663516621e+02 0.0 
0.0 0.0 -1.543355904413e+02 
-9.722825886707e+01 -3.347886550405e-01 0.0 
-3.347886550405e-01 -2.236618901817e+02 0.0 
0.0 0.0 -9.586704471463e+01 
-1.575011442946e+02 1.238448540084e+00 0.0 
1.238448540084e+00 -3.701061111091e+02 0.0 
0.0 0.0 -1.578821766211e+02 
-1.498512195130e+02 -5.313772764182e-01 0.0 
-5.313772764182e-01 -3.508130937369e+02 0.0 
0.0 0.0 -1.497992939749e+02 
-8.793377692089e+01 1.778296266476e-01 0.0 
1.778296266476e-01 -2.026367260614e+02 0.0 
0.0 0.0 -8.677115089468e+01 
-1.621545554542e+01 2.801364952408e+00 0.0 
2.801364952408e+00 -4.281155208345e+01 0.0 
0.0 0.0 -1.730810228866e+01 
-3.077876146355e+01 3.676157708991e-01 0.0 
3.676157708991e-01 -7.644204866744e+01 0.0 
0.0 0.0 -3.176624303930e+01 
-3.207153282931e+01 -4.717142216854e-01 0.0 
-4.717142216854e-01 -7.929826741941e+01 0.0 
0.0 0.0 -3.301094007462e+01 
-1.466038932476e+02 1.295804052114e+00 0.0 
1.295804052114e+00 -3.418908983445e+02 0.0 
0.0 0.0 -1.461484374776e+02 
-5.072922675135e+01 3.770647640600e-01 0.0 
3.770647640600e-01 -1.134455193878e+02 0.0 
0.0 0.0 -4.885242384176e+01 
-5.572215269346e+01 1.432957469144e+00 0.0 
1.432957469144e+00 -1.248498126760e+02 0.0 
0.0 0.0 -5.377158961083e+01 
-1.456094271066e+02 3.616677802795e+00 0.0 
3.616677802795e+00 -3.433827805079e+02 0.0 
0.0 0.0 -1.462976622844e+02 
-1.048444757667e+02 -2.032965744660e-01 0.0 
-2.032965744660e-01 -2.410372837901e+02 0.0 
0.0 0.0 -1.033645278670e+02 
-1.096161838905e+02 7.543771152547e-01 0.0 
7.543771152547e-01 -2.634093649816e+02 0.0 
0.0 0.0 -1.115076646616e+02 
-8.139921659924e+01 4.243191956285e-01 0.0 
4.243191956285e-01 -1.858611464813e+02 0.0 
0.0 0.0 -7.977810892416e+01 
-1.517682119154e+02 3.681597020492e+00 0.0 
3.681597020492e+00 -3.545586952104e+02 0.0 
0.0 0.0 -1.514980721377e+02 
-1.051380264242e+02 1.771512327121e+00 0.0 
1.771512327121e+00 -2.414054421076e+02 0.0 
0.0 0.0 -1.035630405595e+02 
-1.490638030489e+02 2.368368534878e+00 0.0 
2.368368534878e+00 -3.518815371427e+02 0.0 
0.0 0.0 -1.498836020575e+02 
-2.341391665425e+01 1.829557506744e-01 0.0 
1.829557506744e-01 -5.849150999261e+01 0.0 
0.0 0.0 -2.417162799406e+01 
-1.103985267450e+01 -4.043617951418e-01 0.0 
-4.043617951418e-01 -2.578577059602e+01 0.0 
0.0 0.0 -1.064768698116e+01 
-1.495425231649e+02 2.053525497095e+00 0.0 
2.053525497095e+00 -3.490093094816e+02 0.0 
0.0 0.0 -1.491655497940e+02 
-1.312875613930e+02 8.527292168098e-01 0.0 
8.527292168098e-01 -3.122938254601e+02 0.0 
0.0 0.0 -1.326744160559e+02 
-1.529179538316e+02 2.832549297048e+00 0.0 
2.832549297048e+00 -3.597526051228e+02 0.0 
0.0 0.0 -1.534011676863e+02 
-1.607862705551e+02 -1.405741154520e-01 0.0 
-1.405741154520e-01 -3.783610384732e+02 0.0 
0.0 0.0 -1.613441927085e+02 
-1.610524153140e+02 2.924091270452e+00 0.0 
2.924091270452e+00 -3.782047959233e+02 0.0 
0.0 0.0 -1.613771633712e+02 
-1.514449720499e+02 3.001243322505e+00 0.0 
3.001243322505e+00 -3.553313286018e+02 0.0 
0.0 0.0 -1.516328901955e+02 
-8.181754876936e+01 1.299750008825e+00 0.0 
1.299750008825e+00 -1.883927455093e+02 0.0 
0.0 0.0 -8.066308828359e+01 
-8.200045182437e+01 -1.407102948221e+00 0.0 
-1.407102948221e+00 -1.891055967120e+02 0.0 
0.0 0.0 -8.093181456091e+01 
-6.440221800986e+01 1.374684516834e+00 0.0 
1.374684516834e+00 -1.448244109160e+02 0.0 
0.0 0.0 -6.236798867777e+01 
-1.549944785760e+02 2.353830255165e+00 0.0 
2.353830255165e+00 -3.639295636266e+02 0.0 
0.0 0.0 -1.552772126608e+02 
-3.096378235263e+01 6.620404974696e-01 0.0 
6.620404974696e-01 -6.860982447127e+01 0.0 
0.0 0.0 -2.947208204717e+01 
-8.190257747372e+01 1.305969387736e-01 0.0 
1.305969387736e-01 -1.865707736661e+02 0.0 
0.0 0.0 -8.014200534194e+01 
-1.420224175811e+02 4.736027716817e-01 0.0 
4.736027716817e-01 -3.317230817560e+02 0.0 
0.0 0.0 -1.417236498011e+02 
-3.171172013853e+01 3.047714613680e+00 0.0 
3.047714613680e+00 -6.861837740836e+01 0.0 
0.0 0.0 -2.969902926407e+01 
-1.707522193934e+01 -1.107853990201e-01 0.0 
-1.107853990201e-01 -4.343943533343e+01 0.0 
0.0 0.0 -1.775439718183e+01 
-1.429128795335e+02 -1.308069365430e-01 0.0 
-1.308069365430e-01 -3.334999448657e+02 0.0 
0.0 0.0 -1.425238473198e+02 
-1.133407668712e+01 -2.630987015611e-01 0.0 
-2.630987015611e-01 -2.585158499411e+01 0.0 
0.0 0.0 -1.114557193567e+01 
-9.389363455650e+01 1.075242829426e+00 0.0 
1.075242829426e+00 -2.151414540328e+02 0.0 
0.0 0.0 -9.231052657679e+01 
-6.013163755976e+01 1.378983671224e+00 0.0 
1.378983671224e+00 -1.350701771627e+02 0.0 
0.0 0.0 -5.816054441674e+01 
-3.925701714900e+01 1.688812501001e-01 0.0 
1.688812501001e-01 -9.602691965030e+01 0.0 
0.0 0.0 -4.018518103979e+01 
-3.164149535407e+01 1.247288028771e+00 0.0 
1.247288028771e+00 -8.077881018651e+01 0.0 
0.0 0.0 -3.332609166217e+01 
-5.937192279787e+01 7.489161741309e-02 0.0 
7.489161741309e-02 -1.334481930653e+02 0.0 
0.0 0.0 -5.744603475895e+01 
-1.496977087448e+02 1.728881297260e+00 0.0 
1.728881297260e+00 -3.490694436034e+02 0.0 
0.0 0.0 -1.492301457045e+02 
-5.163982638725e+01 4.689288323833e-01 0.0 
4.689288323833e-01 -1.266585378881e+02 0.0 
0.0 0.0 -5.308950928262e+01 
-4.035918016545e+01 -6.046237442246e-01 0.0 
-6.046237442246e-01 -9.919743334944e+01 0.0 
0.0 0.0 -4.146698405447e+01 
-1.311771075417e+02 -5.622367214403e-01 0.0 
-5.622367214403e-01 -3.123021542155e+02 0.0 
0.0 0.0 -1.326437785272e+02 
-2.385536410966e+01 -2.762022215500e-01 0.0 
-2.762022215500e-01 -5.867380574127e+01 0.0 
0.0 0.0 -2.435875095528e+01 
-1.500457535306e+02 1.136195919335e+00 0.0 
1.136195919335e+00 -3.509303735958e+02 0.0 
0.0 0.0 -1.498928381379e+02 
-1.116670945012e+01 2.338652575182e-01 0.0 
2.338652575182e-01 -2.253008391396e+01 0.0 
0.0 0.0 -9.709038009224e+00 
-1.439994831122e+02 2.689519879376e+00 0.0 
2.689519879376e+00 -3.369524391627e+02 0.0 
0.0 0.0 -1.438855766825e+02 
-6.062265526689e+01 1.260695322499e+00 0.0 
1.260695322499e+00 -1.367975083135e+02 0.0 
0.0 0.0 -5.882604907411e+01 
-2.840495521605e+01 2.238005589953e-01 0.0 
2.238005589953e-01 -7.290647795984e+01 0.0 
0.0 0.0 -2.999342995277e+01 
-1.534868127542e+02 1.417001511915e+00 0.0 
1.417001511915e+00 -3.615542170659e+02 0.0 
0.0 0.0 -1.541123089461e+02 
-5.473361077032e+01 2.318361155229e-01 0.0 
2.318361155229e-01 -1.229695299713e+02 0.0 
0.0 0.0 -5.291094222250e+01 
-9.833165146926e+00 -2.788659015684e-01 0.0 
-2.788659015684e-01 -2.126784827091e+01 0.0 
0.0 0.0 -9.632257980106e+00 
-1.499917378531e+02 2.768665832314e+00 0.0 
2.768665832314e+00 -3.490959574158e+02 0.0 
0.0 0.0 -1.493263085807e+02 
-2.564553111802e+01 4.107649504937e-01 0.0 
4.107649504937e-01 -6.338553347410e+01 0.0 
0.0 0.0 -2.630931937764e+01 
-1.506992939408e+02 3.038747591604e+00 0.0 
3.038747591604e+00 -3.516303733852e+02 0.0 
0.0 0.0 -1.502989001978e+02 
-1.142820615621e+02 9.756600714234e-01 0.0 
9.756600714234e-01 -2.739201176630e+02 0.0 
0.0 0.0 -1.160606537675e+02 
-1.556819881854e+02 1.116637031876e+00 0.0 
1.116637031876e+00 -3.645913057659e+02 0.0 
0.0 0.0 -1.556819881854e+02 
-1.454670327718e+02 3.374091122212e+00 0.0 
3.374091122212e+00 -3.395701146306e+02 0.0 
0.0 0.0 -1.451111442207e+02 
-1.198366700228e+01 -9.373103303917e-01 0.0 
-9.373103303917e-01 -2.970103723791e+01 0.0 
0.0 0.0 -1.210541127206e+01 
-5.371425085352e+01 -6.428249599793e-01 0.0 
-6.428249599793e-01 -1.319924409504e+02 0.0 
0.0 0.0 -5.531200754118e+01 
-1.478379237082e+02 1.517301158017e+00 0.0 
1.517301158017e+00 -3.447501572679e+02 0.0 
0.0 0.0 -1.473764242928e+02 
-1.498489192612e+02 1.858124287308e+00 0.0 
1.858124287308e+00 -3.493768361084e+02 0.0 
0.0 0.0 -1.493677266109e+02 
-2.328083093687e+01 4.193128912687e+00 0.0 
4.193128912687e+00 -4.940751908406e+01 0.0 
0.0 0.0 -2.140650500628e+01 
-2.395522576642e+01 -1.884118493387e-01 0.0 
-1.884118493387e-01 -5.889660947143e+01 0.0 
0.0 0.0 -2.445555057135e+01 
-2.227254075659e+01 1.497320232793e+00 0.0 
1.497320232793e+00 -4.913899931394e+01 0.0 
0.0 0.0 -2.102346202116e+01 
-2.497072566417e+01 -1.067395634022e+00 0.0 
-1.067395634022e+00 -6.277358269577e+01 0.0 
0.0 0.0 -2.592329250798e+01 
-8.814049157770e+01 4.735556886084e-02 0.0 
4.735556886084e-02 -2.024362178473e+02 0.0 
0.0 0.0 -8.677301282750e+01 
-5.152720119680e+01 1.558961375244e+00 0.0 
1.558961375244e+00 -1.154347104049e+02 0.0 
0.0 0.0 -4.968857348050e+01 
-4.554051378235e+01 7.025654958342e-01 0.0 
7.025654958342e-01 -1.016782353100e+02 0.0 
0.0 0.0 -4.376562472769e+01 
-9.421041039818e+01 1.168750592495e+00 0.0 
1.168750592495e+00 -2.178222454939e+02 0.0 
0.0 0.0 -9.320979676761e+01 
-9.418756643196e+01 -7.333873147071e-01 0.0 
-7.333873147071e-01 -2.177848201546e+02 0.0 
0.0 0.0 -9.319171597597e+01 
-1.179461131212e+02 9.392768106159e-01 0.0 
9.392768106159e-01 -2.824121836490e+02 0.0 
0.0 0.0 -1.197074890310e+02 
-1.275004522492e+02 -7.484144154703e-01 0.0 
-7.484144154703e-01 -3.039457642129e+02 0.0 
0.0 0.0 -1.290338649386e+02 
-1.279750128474e+02 2.879834528804e+00 0.0 
2.879834528804e+00 -2.952619927504e+02 0.0 
0.0 0.0 -1.265711016793e+02 
-8.961287128496e+01 1.345292010241e+00 0.0 
1.345292010241e+00 -2.062317238390e+02 0.0 
0.0 0.0 -8.835337853719e+01 
-1.115932883610e+01 -4.061780148512e-01 0.0 
-4.061780148512e-01 -2.573596346719e+01 0.0 
0.0 0.0 -1.102470291032e+01 
-8.922651643851e+01 3.909303684797e-01 0.0 
3.909303684797e-01 -2.039883408106e+02 0.0 
0.0 0.0 -8.756445717472e+01 
-1.226301170662e+02 5.402120240787e-01 0.0 
5.402120240787e-01 -2.856612131709e+02 0.0 
0.0 0.0 -1.220873990711e+02 
-1.213557589920e+02 -3.189672039605e-01 0.0 
-3.189672039605e-01 -2.821120631801e+02 0.0 
0.0 0.0 -1.206403466516e+02 
-1.561215962757e+02 1.286702576344e+00 0.0 
1.286702576344e+00 -3.649671308979e+02 0.0 
0.0 0.0 -1.559266181521e+02 
-1.555441013177e+02 4.476386893478e+00 0.0 
4.476386893478e+00 -3.643930068317e+02 0.0 
0.0 0.0 -1.555811324448e+02 
-8.812166357285e+01 6.534370397573e-01 0.0 
6.534370397573e-01 -2.020040387637e+02 0.0 
0.0 0.0 -8.663771070097e+01 
-1.541130646328e+02 2.398571088297e+00 0.0 
2.398571088297e+00 -3.639882512194e+02 0.0 
0.0 0.0 -1.550303947557e+02 
-1.024596126425e+02 6.474363363058e-01 0.0 
6.474363363058e-01 -2.373222594091e+02 0.0 
0.0 0.0 -1.015345616155e+02 
-5.782769146411e+01 2.717132777229e+00 0.0 
2.717132777229e+00 -1.291909811879e+02 0.0 
0.0 0.0 -5.570560179560e+01 
-8.596601439736e+01 8.341456816593e-01 0.0 
8.341456816593e-01 -1.976927749634e+02 0.0 
0.0 0.0 -8.469763680823e+01 
-1.571385313177e+02 -2.091583876869e-01 0.0 
-2.091583876869e-01 -3.698216447022e+02 0.0 
0.0 0.0 -1.576880528060e+02 
-1.235915207181e+02 4.307786158465e+00 0.0 
4.307786158465e+00 -2.891792914061e+02 0.0 
0.0 0.0 -1.234312436373e+02 
-1.443907353764e+02 4.521790195936e+00 0.0 
4.521790195936e+00 -3.375355295917e+02 0.0 
0.0 0.0 -1.441778794904e+02 
-5.203226516627e+01 4.228430016848e+00 0.0 
4.228430016848e+00 -1.174822481620e+02 0.0 
0.0 0.0 -5.045435399849e+01 
-1.801651993282e+01 -3.677391239176e-01 0.0 
-3.677391239176e-01 -4.266937332551e+01 0.0 
0.0 0.0 -1.780576797750e+01 
-1.445002963725e+02 1.093965975542e+00 0.0 
1.093965975542e+00 -3.417240338701e+02 0.0 
0.0 0.0 -1.454672990728e+02 
-1.291339541076e+02 -1.382708048247e-01 0.0 
-1.382708048247e-01 -3.009057131730e+02 0.0 
0.0 0.0 -1.286119001842e+02 
-1.202877408026e+01 -8.378797721377e-02 0.0 
-8.378797721377e-02 -2.552505253024e+01 0.0 
0.0 0.0 -1.086614798315e+01 
-1.566483414002e+02 1.412957394230e+00 0.0 
1.412957394230e+00 -3.673293918027e+02 0.0 
0.0 0.0 -1.567933199609e+02 
-1.227252922855e+02 1.207517725849e+00 0.0 
1.207517725849e+00 -2.833778608800e+02 0.0 
0.0 0.0 -1.214309459497e+02 
-8.881435403722e+00 4.830270546881e-01 0.0 
4.830270546881e-01 -2.201451025450e+01 0.0 
0.0 0.0 -8.868783697466e+00 
-7.116080739916e+01 2.480559353184e+00 0.0 
2.480559353184e+00 -1.641897540498e+02 0.0 
0.0 0.0 -7.020516843469e+01 
-8.111680699229e+01 1.218993020839e+00 0.0 
1.218993020839e+00 -1.841643369267e+02 0.0 
0.0 0.0 -7.918434317568e+01 
-6.542086903917e+01 2.549442014892e-01 0.0 
2.549442014892e-01 -1.602256016147e+02 0.0 
0.0 0.0 -6.729394119616e+01 
-5.237663167363e+01 1.239637391343e+00 0.0 
1.239637391343e+00 -1.168822335664e+02 0.0 
0.0 0.0 -5.037765957200e+01 
-6.104859775849e+01 3.523862128391e+00 0.0 
3.523862128391e+00 -1.372219700428e+02 0.0 
0.0 0.0 -5.908117034039e+01 
-1.556859459041e+02 1.418850595588e+00 0.0 
1.418850595588e+00 -3.666140696484e+02 0.0 
0.0 0.0 -1.562900046657e+02 
-9.982025921249e+01 -7.059583715155e-01 0.0 
-7.059583715155e-01 -2.307777305232e+02 0.0 
0.0 0.0 -9.877939692070e+01 
-5.618954270199e+01 1.550225432532e+00 0.0 
1.550225432532e+00 -1.266989025939e+02 0.0 
0.0 0.0 -5.446653358877e+01 
-2.462798210554e+01 4.710307974396e-01 0.0 
4.710307974396e-01 -6.061761162274e+01 0.0 
0.0 0.0 -2.517367811849e+01 
-8.884949472558e+01 7.312632777152e-03 0.0 
7.312632777152e-03 -2.028549842975e+02 0.0 
0.0 0.0 -8.711134370692e+01 
-1.301677311826e+02 4.900332588210e-01 0.0 
4.900332588210e-01 -3.026584802895e+02 0.0 
0.0 0.0 -1.294478634416e+02 
-5.646620308318e+01 3.982193875107e+00 0.0 
3.982193875107e+00 -1.269842825816e+02 0.0 
0.0 0.0 -5.463514569945e+01 
-1.440914996595e+01 5.768238479455e+00 0.0 
5.768238479455e+00 -3.226525187102e+01 0.0 
0.0 0.0 -1.360232055109e+01 
-7.276390168420e+01 1.305255447794e+00 0.0 
1.305255447794e+00 -1.645171679784e+02 0.0 
0.0 0.0 -7.078432089878e+01 
-6.479402395240e+01 -3.004452337677e-01 0.0 
-3.004452337677e-01 -1.587784396430e+02 0.0 
0.0 0.0 -6.667173907861e+01 
-6.798816001182e+01 -1.151231629050e-01 0.0 
-1.151231629050e-01 -1.537533345114e+02 0.0 
0.0 0.0 -6.612244835698e+01 
-1.508116024933e+02 2.569527859757e-01 0.0 
2.569527859757e-01 -3.525170422728e+02 0.0 
0.0 0.0 -1.505985934298e+02 
-1.803118738262e+01 4.236655086098e+00 0.0 
4.236655086098e+00 -4.452078803208e+01 0.0 
0.0 0.0 -1.836559262441e+01 
-1.092525763342e+02 -4.498847529425e-01 0.0 
-4.498847529425e-01 -2.624107455091e+02 0.0 
0.0 0.0 -1.110989965530e+02 
-1.465617782495e+02 -7.205219036876e-01 0.0 
-7.205219036876e-01 -3.428390998404e+02 0.0 
0.0 0.0 -1.464202634270e+02 
-7.420817632769e+01 8.366224854605e-01 0.0 
8.366224854605e-01 -1.680242051153e+02 0.0 
0.0 0.0 -7.226971443290e+01 
-6.868786051273e+01 1.364343732546e+00 0.0 
1.364343732546e+00 -1.549390488019e+02 0.0 
0.0 0.0 -6.668807279439e+01 
-1.525427176891e+02 1.069253425796e+00 0.0 
1.069253425796e+00 -3.596424454509e+02 0.0 
0.0 0.0 -1.532555489420e+02 
-1.540245514710e+02 1.356632393606e+00 0.0 
1.356632393606e+00 -3.627122868732e+02 0.0 
0.0 0.0 -1.546210515033e+02 
-1.179134321868e+02 -4.549589431519e-01 0.0 
-4.549589431519e-01 -2.824521239068e+02 0.0 
0.0 0.0 -1.197096668281e+02 
-7.903782622054e+01 2.395390305407e+00 0.0 
2.395390305407e+00 -1.787720650835e+02 0.0 
0.0 0.0 -7.694296739122e+01 
-1.544967403560e+02 2.733906835644e+00 0.0 
2.733906835644e+00 -3.640592912191e+02 0.0 
0.0 0.0 -1.551668094725e+02 
-7.068116376420e+01 4.712915562559e-01 0.0 
4.712915562559e-01 -1.597601554354e+02 0.0 
0.0 0.0 -6.873239575989e+01 
-1.493330823615e+02 6.559331132615e-01 0.0 
6.559331132615e-01 -3.483092366869e+02 0.0 
0.0 0.0 -1.488926957145e+02 
-1.510039190403e+02 2.777464968404e+00 0.0 
2.777464968404e+00 -3.521218249267e+02 0.0 
0.0 0.0 -1.505377231901e+02 
-9.707785646282e+01 1.537789701461e+00 0.0 
1.537789701461e+00 -2.230643651376e+02 0.0 
0.0 0.0 -9.564266648012e+01 
-1.127714340443e+02 -6.011261190481e-01 0.0 
-6.011261190481e-01 -2.614915042356e+02 0.0 
0.0 0.0 -1.118788814840e+02 
-7.106021935421e+01 2.234242354058e+00 0.0 
2.234242354058e+00 -1.600283327539e+02 0.0 
0.0 0.0 -6.892656563244e+01 
-6.364451525952e+01 -1.178787378745e-01 0.0 
-1.178787378745e-01 -1.438628587109e+02 0.0 
0.0 0.0 -6.185221219114e+01 
-8.210358965244e+01 1.018511353615e+00 0.0 
1.018511353615e+00 -1.866907992937e+02 0.0 
0.0 0.0 -8.023831668384e+01 
-6.016749433521e+01 4.126915365497e+00 0.0 
4.126915365497e+00 -1.370790730286e+02 0.0 
0.0 0.0 -5.877397020916e+01 
-8.694433117854e+01 8.630769309292e-01 0.0 
8.630769309292e-01 -2.005032196737e+02 0.0 
0.0 0.0 -8.583426525566e+01 
-7.110897879155e+01 4.487094258970e+00 0.0 
4.487094258970e+00 -1.645196801419e+02 0.0 
0.0 0.0 -7.028859768004e+01 
-1.087564332808e+01 -5.098340381230e-02 0.0 
-5.098340381230e-02 -2.515146309352e+01 0.0 
0.0 0.0 -1.082630951857e+01 
-9.304340831831e+01 8.213880709095e-02 0.0 
8.213880709095e-02 -2.154582994944e+02 0.0 
0.0 0.0 -9.215051234382e+01 
-2.366579776957e+01 -8.531337419609e-02 0.0 
-8.531337419609e-02 -5.983959612346e+01 0.0 
0.0 0.0 -2.465161816791e+01 
-7.693834049622e+01 1.277046741682e+00 0.0 
1.277046741682e+00 -1.744409810750e+02 0.0 
0.0 0.0 -7.501379647135e+01 
-1.551154136738e+02 2.789476595252e+00 0.0 
2.789476595252e+00 -3.640456614100e+02 0.0 
0.0 0.0 -1.553483225251e+02 
-5.173650866410e+01 1.966811505549e+00 0.0 
1.966811505549e+00 -1.171169490281e+02 0.0 
0.0 0.0 -5.025603730767e+01 
-1.224931777304e+02 -6.641862216880e-01 0.0 
-6.641862216880e-01 -2.927355288727e+02 0.0 
0.0 0.0 -1.241686119809e+02 
-3.597237429398e+01 2.782778989639e+00 0.0 
2.782778989639e+00 -7.834152251880e+01 0.0 
0.0 0.0 -3.389416904383e+01 
-1.233985265506e+02 2.420340522932e+00 0.0 
2.420340522932e+00 -2.888529110748e+02 0.0 
0.0 0.0 -1.232754312876e+02 
-8.729218574353e+01 8.256243120408e-03 0.0 
8.256243120408e-03 -2.021158298209e+02 0.0 
0.0 0.0 -8.642240466932e+01 
-6.649948168719e+01 2.777011703693e+00 0.0 
2.777011703693e+00 -1.544491567653e+02 0.0 
0.0 0.0 -6.588459153573e+01 
-1.354622081188e+02 1.133363225985e+00 0.0 
1.133363225985e+00 -3.217989030819e+02 0.0 
0.0 0.0 -1.367783333602e+02 
-2.446648601886e+01 -1.001642892161e+00 0.0 
-1.001642892161e+00 -6.015054150312e+01 0.0 
0.0 0.0 -2.498510825659e+01 
-1.443979942918e+02 -5.283998956456e-01 0.0 
-5.283998956456e-01 -3.414352126243e+02 0.0 
0.0 0.0 -1.453499620748e+02 
-8.769006491726e+01 1.931307522662e-01 0.0 
1.931307522662e-01 -2.000212349563e+02 0.0 
0.0 0.0 -8.591338996206e+01 
-1.552103506864e+02 9.482729937036e-01 0.0 
9.482729937036e-01 -3.662661898857e+02 0.0 
0.0 0.0 -1.560429621716e+02 
-8.686605884778e+01 -8.431241277554e-02 0.0 
-8.431241277554e-02 -2.010386856574e+02 0.0 
0.0 0.0 -8.597142335155e+01 
-5.506193178067e+01 2.658935981779e+00 0.0 
2.658935981779e+00 -1.258325224394e+02 0.0 
0.0 0.0 -5.386833626601e+01 
-7.649033552769e+01 -1.335957997052e-01 0.0 
-1.335957997052e-01 -1.734709569290e+02 0.0 
0.0 0.0 -7.458838773701e+01 
-1.040221071759e+02 5.795301824503e-01 0.0 
5.795301824503e-01 -2.513072588362e+02 0.0 
0.0 0.0 -1.061988098036e+02 
-3.536277137190e+01 3.047224794755e-01 0.0 
3.047224794755e-01 -7.908786066763e+01 0.0 
0.0 0.0 -3.393518961186e+01 
-6.638148237365e+01 4.686032153562e+00 0.0 
4.686032153562e+00 -1.547694420037e+02 0.0 
0.0 0.0 -6.594527731321e+01 
-1.170825805715e+02 1.101683676597e+00 0.0 
1.101683676597e+00 -2.720347182326e+02 0.0 
0.0 0.0 -1.163351896412e+02 
-8.674342636549e+01 -5.836181855124e-01 0.0 
-5.836181855124e-01 -2.008487785417e+02 0.0 
0.0 0.0 -8.587766147216e+01 
-6.297549483739e+01 2.640341744855e+00 0.0 
2.640341744855e+00 -1.446658020034e+02 0.0 
0.0 0.0 -6.189238905223e+01 
-7.201075026898e+01 -9.590855226564e-02 0.0 
-9.590855226564e-02 -1.634181969662e+02 0.0 
0.0 0.0 -7.022868417054e+01 
-1.339372912376e+02 1.807282096601e+00 0.0 
1.807282096601e+00 -3.105404316799e+02 0.0 
0.0 0.0 -1.329433168753e+02 
-7.262289209327e+01 2.643497685083e-01 0.0 
2.643497685083e-01 -1.770375914045e+02 0.0 
0.0 0.0 -7.449814504933e+01 
-1.520522732755e+02 3.393544054197e+00 0.0 
3.393544054197e+00 -3.552119373993e+02 0.0 
0.0 0.0 -1.517792632025e+02 
-1.511733642408e+02 3.391376870967e+00 0.0 
3.391376870967e+00 -3.523269450413e+02 0.0 
0.0 0.0 -1.506500927846e+02 
-4.998499183038e+01 2.478498371740e+00 0.0 
2.478498371740e+00 -1.109374848031e+02 0.0 
0.0 0.0 -4.787674299004e+01 
-7.326089956610e+01 -2.583614963662e-01 0.0 
-2.583614963662e-01 -1.781956491462e+02 0.0 
0.0 0.0 -7.503696461368e+01 
-1.378678494110e+02 3.923377307225e+00 0.0 
3.923377307225e+00 -3.256587706626e+02 0.0 
0.0 0.0 -1.386579860221e+02 
-6.763298406625e+01 1.779533056812e+00 0.0 
1.779533056812e+00 -1.521485198318e+02 0.0 
0.0 0.0 -6.553445116941e+01 
-4.387289243878e+01 9.017474098546e-01 0.0 
9.017474098546e-01 -9.776758898097e+01 0.0 
0.0 0.0 -4.209214442593e+01 
-8.413908560456e+01 -2.137893430451e-02 0.0 
-2.137893430451e-02 -1.918536611743e+02 0.0 
0.0 0.0 -8.239782403365e+01 
-6.810661450915e+01 4.116809629405e+00 0.0 
4.116809629405e+00 -1.560575612458e+02 0.0 
0.0 0.0 -6.684925272649e+01 
-1.484720620866e+02 -4.817232718921e-02 0.0 
-4.817232718921e-02 -3.474159733214e+02 0.0 
0.0 0.0 -1.483664106224e+02 
-1.236113230773e+02 8.931474842961e-01 0.0 
8.931474842961e-01 -2.855010404111e+02 0.0 
0.0 0.0 -1.223337090465e+02 
-1.400533842712e+02 -7.287592633485e-01 0.0 
-7.287592633485e-01 -3.319583712583e+02 0.0 
0.0 0.0 -1.412035266588e+02 
-2.754627633512e+01 3.646173677705e+00 0.0 
3.646173677705e+00 -5.907525289168e+01 0.0 
0.0 0.0 -2.558645876804e+01 
-6.176607679422e+01 4.777671822941e+00 0.0 
4.777671822941e+00 -1.455605378138e+02 0.0 
0.0 0.0 -6.179798438239e+01 
-1.273254124055e+02 1.131271834479e+00 0.0 
1.131271834479e+00 -2.943474797262e+02 0.0 
0.0 0.0 -1.261018676395e+02 
-6.202596364685e+00 1.103839851995e+00 0.0 
1.103839851995e+00 -5.454982889131e+00 0.0 
0.0 0.0 -3.097273776145e+00 
-6.722104942365e+01 2.389119576149e-01 0.0 
2.389119576149e-01 -1.519300180387e+02 0.0 
0.0 0.0 -6.534532023870e+01 
-1.288641040911e+02 3.618522153598e+00 0.0 
3.618522153598e+00 -3.060269657693e+02 0.0 
0.0 0.0 -1.300673209581e+02 
-1.693083635922e+01 1.234105838299e-01 0.0 
1.234105838299e-01 -4.231395491043e+01 0.0 
0.0 0.0 -1.737343738090e+01 
-1.481213538739e+02 1.005897690506e+00 0.0 
1.005897690506e+00 -3.446951349126e+02 0.0 
0.0 0.0 -1.474449466359e+02 
-1.127019113026e+02 2.596847134163e-01 0.0 
2.596847134163e-01 -2.595794235842e+02 0.0 
0.0 0.0 -1.112844004660e+02 
-6.774814907752e+01 -1.021508475650e-01 0.0 
-1.021508475650e-01 -1.672333445854e+02 0.0 
0.0 0.0 -7.009444809886e+01 
-1.285573716128e+02 1.820915331005e+00 0.0 
1.820915331005e+00 -3.057211016938e+02 0.0 
0.0 0.0 -1.298835419920e+02 
-9.549923152308e+01 6.838647009158e-01 0.0 
6.838647009158e-01 -2.185906000026e+02 0.0 
0.0 0.0 -9.382694945769e+01 
-1.022681947962e+02 1.261672864009e+00 0.0 
1.261672864009e+00 -2.342743792923e+02 0.0 
0.0 0.0 -1.005627722265e+02 
-1.492969975056e+02 3.461141745459e+00 0.0 
3.461141745459e+00 -3.515672978566e+02 0.0 
0.0 0.0 -1.498592886086e+02 
-5.087545606965e+01 -7.795940263593e-01 0.0 
-7.795940263593e-01 -1.261388231151e+02 0.0 
0.0 0.0 -5.270428375542e+01 
-8.566482993052e+01 1.338644272047e+00 0.0 
1.338644272047e+00 -1.953392518122e+02 0.0 
0.0 0.0 -8.390122452281e+01 
-9.133993290693e+01 4.529386228003e-01 0.0 
4.529386228003e-01 -2.084233539478e+02 0.0 
0.0 0.0 -8.952898605643e+01 
-1.175296906085e+02 1.882166223786e+00 0.0 
1.882166223786e+00 -2.706939435163e+02 0.0 
0.0 0.0 -1.160670902374e+02 
-9.238559318006e+01 1.763940406839e+00 0.0 
1.763940406839e+00 -2.106139972211e+02 0.0 
0.0 0.0 -9.049987712036e+01 
-8.451823603382e+01 1.489264096590e+00 0.0 
1.489264096590e+00 -1.920038976050e+02 0.0 
0.0 0.0 -8.255664009164e+01 
-1.105371169876e+02 4.180774185900e+00 0.0 
4.180774185900e+00 -2.596440671782e+02 0.0 
0.0 0.0 -1.106543552498e+02 
-1.304377160298e+02 3.353146696159e+00 0.0 
3.353146696159e+00 -3.014722803460e+02 0.0 
0.0 0.0 -1.291729989127e+02 
-1.012730796870e+01 1.423838352204e+00 0.0 
1.423838352204e+00 -2.289810318386e+01 0.0 
0.0 0.0 -9.507623345770e+00 
-4.995256128560e+01 1.034804143460e+00 0.0 
1.034804143460e+00 -1.111765647648e+02 0.0 
0.0 0.0 -4.793873781511e+01 
-5.716155389192e+01 9.441671364064e-01 0.0 
9.441671364064e-01 -1.284952061692e+02 0.0 
0.0 0.0 -5.529702801835e+01 
-8.252905686849e+01 2.761204524992e+00 0.0 
2.761204524992e+00 -1.872108044648e+02 0.0 
0.0 0.0 -8.052195839999e+01 
-1.287067532578e+02 2.586354086681e+00 0.0 
2.586354086681e+00 -2.971514862562e+02 0.0 
0.0 0.0 -1.273574718542e+02 
-2.378698520343e+01 3.045482003359e+00 0.0 
3.045482003359e+00 -6.256545203362e+01 0.0 
0.0 0.0 -2.550573117112e+01 
-1.241427669873e+02 3.334577698542e+00 0.0 
3.334577698542e+00 -2.957563854267e+02 0.0 
0.0 0.0 -1.255697457242e+02 
-8.647050792919e+01 9.809441595848e-01 0.0 
9.809441595848e-01 -1.995416005334e+02 0.0 
0.0 0.0 -8.540363253879e+01 
-6.200639877891e+01 3.066317214943e+00 0.0 
3.066317214943e+00 -1.453175646367e+02 0.0 
0.0 0.0 -6.179718902468e+01 
-1.194806514957e+02 3.041608212638e+00 0.0 
3.041608212638e+00 -2.855711797964e+02 0.0 
0.0 0.0 -1.211155493876e+02 
-1.194275668085e+01 5.005829543813e-01 0.0 
5.005829543813e-01 -2.872990309873e+01 0.0 
0.0 0.0 -1.180179793387e+01 
-1.207378224504e+02 4.092978949842e-01 0.0 
4.092978949842e-01 -2.788480806521e+02 0.0 
0.0 0.0 -1.194757709308e+02 
-1.028145368883e+01 -4.184427097372e-01 0.0 
-4.184427097372e-01 -2.390535746819e+01 0.0 
0.0 0.0 -9.856043347107e+00 
-1.729560101778e+01 -2.029161102630e-01 0.0 
-2.029161102630e-01 -4.290356104277e+01 0.0 
0.0 0.0 -1.765974861817e+01 
-2.675996719223e+01 9.437009090647e-01 0.0 
9.437009090647e-01 -5.893404830970e+01 0.0 
0.0 0.0 -2.530820465058e+01 
-4.297480321926e+01 -8.005059800282e-01 0.0 
-8.005059800282e-01 -1.068648000777e+02 0.0 
0.0 0.0 -4.455188098907e+01 
-1.255440032188e+02 2.020963745970e+00 0.0 
2.020963745970e+00 -2.899527482599e+02 0.0 
0.0 0.0 -1.242490254436e+02 
-4.052448005049e+01 5.084212262789e-01 0.0 
5.084212262789e-01 -1.002299297230e+02 0.0 
0.0 0.0 -4.182632293206e+01 
-3.474087806096e+01 2.941701272513e+00 0.0 
2.941701272513e+00 -7.865210374374e+01 0.0 
0.0 0.0 -3.361789454141e+01 
-3.123458032888e+01 7.373615153821e-01 0.0 
7.373615153821e-01 -7.842476851843e+01 0.0 
0.0 0.0 -3.249780465419e+01 
-2.752303419898e+01 -1.039177411827e+00 0.0 
-1.039177411827e+00 -6.824385214976e+01 0.0 
0.0 0.0 -2.833006590462e+01 
-1.329974291642e+02 2.166265023785e+00 0.0 
2.166265023785e+00 -3.152849863088e+02 0.0 
0.0 0.0 -1.340847246419e+02 
-8.811605054021e+01 1.839891054938e+00 0.0 
1.839891054938e+00 -2.002950384381e+02 0.0 
0.0 0.0 -8.612332669350e+01 
-1.533962037717e+02 -2.419622783774e-01 0.0 
-2.419622783774e-01 -3.616461017141e+02 0.0 
0.0 0.0 -1.541126916457e+02 
-5.052937748427e+00 3.398957518348e-01 0.0 
3.398957518348e-01 -8.595064944702e+00 0.0 
0.0 0.0 -4.636100332792e+00 
-4.260638678559e+01 3.001763058308e+00 0.0 
3.001763058308e+00 -9.743387025133e+01 0.0 
0.0 0.0 -4.161207711108e+01 
-7.019161752186e+01 2.891005616485e+00 0.0 
2.891005616485e+00 -1.646166715337e+02 0.0 
0.0 0.0 -7.004248671667e+01 
-6.259342588741e+01 2.047873864466e-01 0.0 
2.047873864466e-01 -1.410407858581e+02 0.0 
0.0 0.0 -6.069026352365e+01 
-1.238546450982e+02 1.648847649215e+00 0.0 
1.648847649215e+00 -2.954678914836e+02 0.0 
0.0 0.0 -1.253967609745e+02 
-1.560537796446e+02 3.677337456311e-01 0.0 
3.677337456311e-01 -3.679307516547e+02 0.0 
0.0 0.0 -1.567953593898e+02 
-1.206164337548e+02 2.383481924590e+00 0.0 
2.383481924590e+00 -2.776270539240e+02 0.0 
0.0 0.0 -1.190730463037e+02 
-4.905403258802e+01 4.949703321206e+00 0.0 
4.949703321206e+00 -1.177028408062e+02 0.0 
0.0 0.0 -4.962706201825e+01 
-1.331359645858e+02 3.681392329044e+00 0.0 
3.681392329044e+00 -3.153592495766e+02 0.0 
0.0 0.0 -1.341485642487e+02 
-1.133328681542e+02 -8.923478452372e-01 0.0 
-8.923478452372e-01 -2.720657750257e+02 0.0 
0.0 0.0 -1.152195929539e+02 
-8.689989372244e+01 2.589544604508e+00 0.0 
2.589544604508e+00 -1.973750461234e+02 0.0 
0.0 0.0 -8.488248195374e+01 
-1.162880066129e+02 4.121030914964e-01 0.0 
4.121030914964e-01 -2.680004248184e+02 0.0 
0.0 0.0 -1.148865294294e+02 
-1.476006487519e+02 4.275917819132e+00 0.0 
4.275917819132e+00 -3.447822594873e+02 0.0 
0.0 0.0 -1.473148724718e+02 
-7.000619709263e+01 4.659616006406e+00 0.0 
4.659616006406e+00 -1.649102163252e+02 0.0 
0.0 0.0 -7.007492402535e+01 
-3.931912343548e+01 4.518201871607e+00 0.0 
4.518201871607e+00 -8.825127236002e+01 0.0 
0.0 0.0 -3.787111873865e+01 
-1.002870575101e+02 1.988913885367e+00 0.0 
1.988913885367e+00 -2.291903029774e+02 0.0 
0.0 0.0 -9.844320814626e+01 
-1.562285745779e+02 6.716382158954e-01 0.0 
6.716382158954e-01 -3.653623465137e+02 0.0 
0.0 0.0 -1.560772763275e+02 
-8.601959033182e+01 3.122963209692e+00 0.0 
3.122963209692e+00 -1.958119176522e+02 0.0 
0.0 0.0 -8.414945239521e+01 
-8.966647888210e+01 4.257505295741e+00 0.0 
4.257505295741e+00 -2.121829208465e+02 0.0 
0.0 0.0 -9.015481991858e+01 
-9.462409903233e+01 2.766153666336e-01 0.0 
2.766153666336e-01 -2.192047375686e+02 0.0 
0.0 0.0 -9.374865098028e+01 
-2.353654273017e+01 7.259222515502e-02 0.0 
7.259222515502e-02 -5.734579994266e+01 0.0 
0.0 0.0 -2.386470280185e+01 
-9.175695161836e+01 1.434589451750e-01 0.0 
1.434589451750e-01 -2.099814238935e+02 0.0 
0.0 0.0 -9.012151265357e+01 
-4.942602282068e+01 3.418689717009e+00 0.0 
3.418689717009e+00 -1.175298109879e+02 0.0 
0.0 0.0 -4.968675014258e+01 
-3.197862133170e+01 3.217763125812e+00 0.0 
3.217763125812e+00 -8.154490369661e+01 0.0 
0.0 0.0 -3.365705750849e+01 
-2.426114281672e+01 9.475679261549e-01 0.0 
9.475679261549e-01 -6.208175965697e+01 0.0 
0.0 0.0 -2.550287074211e+01 
-1.250533564974e+02 4.206204630130e-01 0.0 
4.206204630130e-01 -2.894491644903e+02 0.0 
0.0 0.0 -1.239507562963e+02 
-9.605944980821e+01 2.008890920772e+00 0.0 
2.008890920772e+00 -2.190694818925e+02 0.0 
0.0 0.0 -9.413867951022e+01 
-6.008611017085e+01 2.240275900681e+00 0.0 
2.240275900681e+00 -1.366100752568e+02 0.0 
0.0 0.0 -5.860885562831e+01 
-1.298281532255e+02 2.009848147158e+00 0.0 
2.009848147158e+00 -3.004940113768e+02 0.0 
0.0 0.0 -1.286966493807e+02 
-1.242936370521e+02 2.626365319663e+00 0.0 
2.626365319663e+00 -2.862938415761e+02 0.0 
0.0 0.0 -1.227762435885e+02 
-9.118221118378e+01 2.452214462268e+00 0.0 
2.452214462268e+00 -2.074168793340e+02 0.0 
0.0 0.0 -8.917972715533e+01 
-1.567221130362e+02 1.197856595508e+00 0.0 
1.197856595508e+00 -3.676229522818e+02 0.0 
0.0 0.0 -1.569035195954e+02 
-9.336224776602e+01 2.610025562246e+00 0.0 
2.610025562246e+00 -2.214029888791e+02 0.0 
0.0 0.0 -9.402957099353e+01 
-9.545569244894e+01 2.360003553323e+00 0.0 
2.360003553323e+00 -2.174572634682e+02 0.0 
0.0 0.0 -9.347388677515e+01 
-7.609687805737e+01 4.099188022274e+00 0.0 
4.099188022274e+00 -1.751212056181e+02 0.0 
0.0 0.0 -7.496542510263e+01 
-9.783576676223e+01 4.209873067329e+00 0.0 
4.209873067329e+00 -2.311272217737e+02 0.0 
0.0 0.0 -9.828889656077e+01 
-3.995431160703e+01 3.121507606847e+00 0.0 
3.121507606847e+00 -9.976271299174e+01 0.0 
0.0 0.0 -4.151510737963e+01 
-8.817890937564e+01 1.953037396638e-01 0.0 
1.953037396638e-01 -2.024788567405e+02 0.0 
0.0 0.0 -8.679732983485e+01 
-7.343286341895e+01 4.484650592267e+00 0.0 
4.484650592267e+00 -1.744511534893e+02 0.0 
0.0 0.0 -7.396520507248e+01 
-5.108108641412e+01 2.761631455742e+00 0.0 
2.761631455742e+00 -1.276339741441e+02 0.0 
0.0 0.0 -5.321451816746e+01 
-1.200084206678e+02 6.679136621262e-01 0.0 
6.679136621262e-01 -2.769048166262e+02 0.0 
0.0 0.0 -1.186739711882e+02 
-7.370665015478e+00 1.226127983602e-01 0.0 
1.226127983602e-01 -6.977376929627e+00 0.0 
0.0 0.0 -3.904412583531e+00 
-9.660917785081e+01 1.800418256476e+00 0.0 
1.800418256476e+00 -2.207144399523e+02 0.0 
0.0 0.0 -9.479708534092e+01 
-5.280897315092e+01 3.239762338893e+00 0.0 
3.239762338893e+00 -1.273731344463e+02 0.0 
0.0 0.0 -5.365463227918e+01 
-4.248574016508e+01 4.988659029695e+00 0.0 
4.988659029695e+00 -9.777783146442e+01 0.0 
0.0 0.0 -4.167907148885e+01 
-3.993249077661e+01 4.214240279795e+00 0.0 
4.214240279795e+00 -1.000192141199e+02 0.0 
0.0 0.0 -4.158551146894e+01 
-1.034330211106e+02 5.847518162720e-01 0.0 
5.847518162720e-01 -2.371717979235e+02 0.0 
0.0 0.0 -1.017814457102e+02 
-1.735291917051e+01 -8.038871655728e-03 0.0 
-8.038871655728e-03 -4.129897782363e+01 0.0 
0.0 0.0 -1.719556909824e+01 
-6.179106345789e+01 7.526727530573e-01 0.0 
7.526727530573e-01 -1.390786523769e+02 0.0 
0.0 0.0 -5.986091475045e+01 
-1.015633725319e+02 2.560718032441e+00 0.0 
2.560718032441e+00 -2.404213509477e+02 0.0 
0.0 0.0 -1.021954170439e+02 
-9.547120427598e+01 3.867965739058e-01 0.0 
3.867965739058e-01 -2.184184480473e+02 0.0 
0.0 0.0 -9.376689569697e+01 
-9.546017305635e+01 6.451888989485e-01 0.0 
6.451888989485e-01 -2.194184646930e+02 0.0 
0.0 0.0 -9.406359132480e+01 
-1.939839789362e+01 2.039913486030e+00 0.0 
2.039913486030e+00 -5.405565175367e+01 0.0 
0.0 0.0 -2.163621489418e+01 
-5.061997766753e+01 1.654271113336e+00 0.0 
1.654271113336e+00 -1.271942156093e+02 0.0 
0.0 0.0 -5.294425798304e+01 
-4.683056893743e+01 2.220549601287e+00 0.0 
2.220549601287e+00 -1.177158036532e+02 0.0 
0.0 0.0 -4.896391177719e+01 
-5.429285631393e+01 2.367328516715e+00 0.0 
2.367328516715e+00 -1.210841737045e+02 0.0 
0.0 0.0 -5.221310900552e+01 
-1.168312296329e+02 2.188364931772e+00 0.0 
2.188364931772e+00 -2.687066580558e+02 0.0 
0.0 0.0 -1.152613663066e+02 
-6.230146406746e+01 2.597569904090e+00 0.0 
2.597569904090e+00 -1.396904599055e+02 0.0 
0.0 0.0 -6.019757719188e+01 
-6.896197564662e+01 2.936560037432e+00 0.0 
2.936560037432e+00 -1.647771104457e+02 0.0 
0.0 0.0 -6.972172582768e+01 
-6.552291399872e+01 3.059142364437e+00 0.0 
3.059142364437e+00 -1.552097903383e+02 0.0 
0.0 0.0 -6.581981130110e+01 
-2.415435754249e+01 3.883864101986e+00 0.0 
3.883864101986e+00 -6.313173907548e+01 0.0 
0.0 0.0 -2.578582898539e+01 
-7.941858211725e+01 2.507676727291e+00 0.0 
2.507676727291e+00 -1.838342937532e+02 0.0 
0.0 0.0 -7.857586276114e+01 
-2.687555234910e+01 5.160949466409e+00 0.0 
5.160949466409e+00 -5.994700457254e+01 0.0 
0.0 0.0 -2.564676707649e+01 
-1.569467415284e+02 1.919417748917e+00 0.0 
1.919417748917e+00 -3.660517955610e+02 0.0 
0.0 0.0 -1.564995611268e+02 
-1.563733359657e+02 2.406502909150e+00 0.0 
2.406502909150e+00 -3.655815005572e+02 0.0 
0.0 0.0 -1.561864509569e+02 
-8.926483054508e+01 1.648740939915e+00 0.0 
1.648740939915e+00 -2.042732043041e+02 0.0 
0.0 0.0 -8.766141045475e+01 
-4.474293238958e+01 3.403895528100e+00 0.0 
3.403895528100e+00 -1.087567643336e+02 0.0 
0.0 0.0 -4.564990901694e+01 
-3.778124814052e+01 5.319005927096e+00 0.0 
5.319005927096e+00 -8.886678552406e+01 0.0 
0.0 0.0 -3.759441009937e+01 
-9.858061148519e+01 9.545277825544e-01 0.0 
9.545277825544e-01 -2.255361271693e+02 0.0 
0.0 0.0 -9.683502159635e+01 
-4.105316889792e+01 5.142973112222e+00 0.0 
5.142973112222e+00 -9.905530013665e+01 0.0 
0.0 0.0 -4.163254071037e+01 
-4.621752897052e+01 1.065825322341e+00 0.0 
1.065825322341e+00 -1.171993568511e+02 0.0 
0.0 0.0 -4.862506574649e+01 
-8.641350390190e+01 8.985763389300e-01 0.0 
8.985763389300e-01 -1.967387426035e+02 0.0 
0.0 0.0 -8.454567395162e+01 
-1.491371778837e+02 8.411472764848e-01 0.0 
8.411472764848e-01 -3.486674709529e+02 0.0 
0.0 0.0 -1.489413946510e+02 
-5.744133069546e+01 3.218432038503e+00 0.0 
3.218432038503e+00 -1.363046714974e+02 0.0 
0.0 0.0 -5.772380065786e+01 
-1.104861561494e+02 2.564421162491e+00 0.0 
2.564421162491e+00 -2.593443972745e+02 0.0 
0.0 0.0 -1.105491660272e+02 
-3.026989931274e+01 3.503875805648e+00 0.0 
3.503875805648e+00 -6.994085018049e+01 0.0 
0.0 0.0 -2.966322484797e+01 
-1.613809876667e+02 3.517258485204e+00 0.0 
3.517258485204e+00 -3.786589944063e+02 0.0 
0.0 0.0 -1.616119946219e+02 
-4.146328522709e+01 3.602995021032e+00 0.0 
3.602995021032e+00 -9.887256891487e+01 0.0 
0.0 0.0 -4.170075624259e+01 
-9.001004455146e+01 1.181100219303e+00 0.0 
1.181100219303e+00 -2.054062366544e+02 0.0 
0.0 0.0 -8.822488436174e+01 
-2.729603356895e+01 2.310239865016e+00 0.0 
2.310239865016e+00 -7.237607565247e+01 0.0 
0.0 0.0 -2.950163276643e+01 
-1.076759122974e+02 1.994137367391e+00 0.0 
1.994137367391e+00 -2.577329151611e+02 0.0 
0.0 0.0 -1.092226482375e+02 
-7.363995487344e+01 2.909122695644e+00 0.0 
2.909122695644e+00 -1.741792023420e+02 0.0 
0.0 0.0 -7.394574716465e+01 
-4.995563695908e+01 7.806343629481e-01 0.0 
7.806343629481e-01 -1.260566355117e+02 0.0 
0.0 0.0 -5.240368174124e+01 
-9.181841247258e+01 2.091702244264e+00 0.0 
2.091702244264e+00 -2.089275608811e+02 0.0 
0.0 0.0 -8.982379200612e+01 
-1.577117315050e+02 3.017250833976e+00 0.0 
3.017250833976e+00 -3.682727443027e+02 0.0 
0.0 0.0 -1.573953427423e+02 
-6.087477170972e+01 3.085666665114e+00 0.0 
3.085666665114e+00 -1.460419798223e+02 0.0 
0.0 0.0 -6.167502545960e+01 
-1.015411497714e+02 4.098238462956e+00 0.0 
4.098238462956e+00 -2.407217637975e+02 0.0 
0.0 0.0 -1.022788740707e+02 
-2.994953263487e+01 5.488772539943e+00 0.0 
5.488772539943e+00 -7.019286097582e+01 0.0 
0.0 0.0 -2.964271808321e+01 
-1.099009378712e+02 -2.868034495326e-01 0.0 
-2.868034495326e-01 -2.539747208177e+02 0.0 
0.0 0.0 -1.087626976067e+02 
-1.191723876900e+02 1.464507769117e+00 0.0 
1.464507769117e+00 -2.851550293761e+02 0.0 
0.0 0.0 -1.208982251199e+02 
-4.392340542412e+01 4.028633788827e+00 0.0 
4.028633788827e+00 -9.805840991264e+01 0.0 
0.0 0.0 -4.219454460103e+01 
-1.064294632354e+02 1.226931463187e+00 0.0 
1.226931463187e+00 -2.456385537309e+02 0.0 
0.0 0.0 -1.052204050899e+02 
-1.582151394644e+02 3.493451442892e+00 0.0 
3.493451442892e+00 -3.695904624751e+02 0.0 
0.0 0.0 -1.579416805819e+02 
-1.278725147959e+02 1.642224608769e+00 0.0 
1.642224608769e+00 -3.046949516715e+02 0.0 
0.0 0.0 -1.293702399402e+02 
-1.574442149761e+02 2.788057948989e+00 0.0 
2.788057948989e+00 -3.674904237959e+02 0.0 
0.0 0.0 -1.570803916316e+02 
-1.060487691365e+02 1.445779986999e+00 0.0 
1.445779986999e+00 -2.438079389765e+02 0.0 
0.0 0.0 -1.045570124339e+02 
-1.233286653087e+02 2.831531739226e+00 0.0 
2.831531739226e+00 -2.841021266811e+02 0.0 
0.0 0.0 -1.218292375969e+02 
-3.586758740933e+01 3.895248322298e+00 0.0 
3.895248322298e+00 -7.871027846841e+01 0.0 
0.0 0.0 -3.397335976332e+01 
-8.396091702478e+01 1.878219806484e+00 0.0 
1.878219806484e+00 -1.904264433619e+02 0.0 
0.0 0.0 -8.191620811601e+01 
-9.496341427610e+01 6.881641108619e-01 0.0 
6.881641108619e-01 -2.169069148852e+02 0.0 
0.0 0.0 -9.316109874839e+01 
-9.971085778084e+01 2.284439006087e+00 0.0 
2.284439006087e+00 -2.275750070382e+02 0.0 
0.0 0.0 -9.778575944571e+01 
-8.167434846558e+01 3.330167031042e+00 0.0 
3.330167031042e+00 -1.859165601199e+02 0.0 
0.0 0.0 -7.987727257564e+01 
-1.586983251821e+02 3.920025874872e+00 0.0 
3.920025874872e+00 -3.710008724947e+02 0.0 
0.0 0.0 -1.585097593030e+02 
-1.015889751694e+02 1.369722768158e-01 0.0 
1.369722768158e-01 -2.329777234141e+02 0.0 
0.0 0.0 -9.997000957508e+01 
-8.879135182297e+01 1.506248697690e+00 0.0 
1.506248697690e+00 -2.023838334791e+02 0.0 
0.0 0.0 -8.695255559061e+01 
-6.527043879427e+01 4.631644972739e+00 0.0 
4.631644972739e+00 -1.554439142173e+02 0.0 
0.0 0.0 -6.581430590347e+01 
-3.525447642290e+01 -9.657486241040e-01 0.0 
-9.657486241040e-01 -8.774450830447e+01 0.0 
0.0 0.0 -3.649969541821e+01 
-8.028450911753e+01 1.617788715689e+00 0.0 
1.617788715689e+00 -1.819529176137e+02 0.0 
0.0 0.0 -7.827122801936e+01 
-4.706458253661e+01 2.512831182300e+00 0.0 
2.512831182300e+00 -1.067656119516e+02 0.0 
0.0 0.0 -4.574905834647e+01 
-8.724917964038e+01 1.932691679936e-01 0.0 
1.932691679936e-01 -2.017493289495e+02 0.0 
0.0 0.0 -8.629955257697e+01 
-5.060326161602e+01 1.883142253725e+00 0.0 
1.883142253725e+00 -1.265656058568e+02 0.0 
0.0 0.0 -5.275066024184e+01 
-5.713047104763e+01 4.788661433124e+00 0.0 
4.788661433124e+00 -1.364935246252e+02 0.0 
0.0 0.0 -5.768719870185e+01 
-1.244228918492e+02 5.958552852146e-01 0.0 
5.958552852146e-01 -2.876277936453e+02 0.0 
0.0 0.0 -1.232152056484e+02 
-4.717234813616e+01 4.580696424552e+00 0.0 
4.580696424552e+00 -1.071968071892e+02 0.0 
0.0 0.0 -4.591074659762e+01 
-8.707278129225e+01 4.880144791355e-01 0.0 
4.880144791355e-01 -1.983204643931e+02 0.0 
0.0 0.0 -8.521797370562e+01 
-1.051418977931e+02 2.459765411005e+00 0.0 
2.459765411005e+00 -2.496436978961e+02 0.0 
0.0 0.0 -1.060356787068e+02 
-9.307851404843e+01 7.453508687219e-01 0.0 
7.453508687219e-01 -2.262807658568e+02 0.0 
0.0 0.0 -9.540778397157e+01 
-1.599406596288e+02 4.165179582195e+00 0.0 
4.165179582195e+00 -3.738050793482e+02 0.0 
0.0 0.0 -1.597237216931e+02 
-7.197748802769e+01 1.714065393085e+00 0.0 
1.714065393085e+00 -1.624722865864e+02 0.0 
0.0 0.0 -6.993493238422e+01 
-4.694558157405e+01 2.091710239746e+00 0.0 
2.091710239746e+00 -1.181579222504e+02 0.0 
0.0 0.0 -4.913105114733e+01 
-6.482865907114e+01 1.262941253438e+00 0.0 
1.262941253438e+00 -1.597530853907e+02 0.0 
0.0 0.0 -6.697452333857e+01 
-4.444634696931e+01 2.835615818624e+00 0.0 
2.835615818624e+00 -9.840846065855e+01 0.0 
0.0 0.0 -4.245644228836e+01 
-4.354861347785e+01 1.863492887125e+00 0.0 
1.863492887125e+00 -9.755795764377e+01 0.0 
0.0 0.0 -4.193197133649e+01 
-1.323263908962e+02 2.778222929198e+00 0.0 
2.778222929198e+00 -3.058884499830e+02 0.0 
0.0 0.0 -1.310644522637e+02 
-9.473984905054e+01 2.780006657314e+00 0.0 
2.780006657314e+00 -2.159757065551e+02 0.0 
0.0 0.0 -9.281466668170e+01 
-6.304947846424e+01 2.034067964033e+00 0.0 
2.034067964033e+00 -1.414527972699e+02 0.0 
0.0 0.0 -6.095068272023e+01 
-7.923901805987e+01 2.694736265285e-01 0.0 
2.694736265285e-01 -1.799223627548e+02 0.0 
0.0 0.0 -7.734841424441e+01 
-1.603151106514e+02 3.923496533665e+00 0.0 
3.923496533665e+00 -3.760729247825e+02 0.0 
0.0 0.0 -1.605164106302e+02 
-1.517146708747e+02 4.361403739036e+00 0.0 
4.361403739036e+00 -3.561467004395e+02 0.0 
0.0 0.0 -1.519584113942e+02 
-1.317587880827e+02 1.064193542078e+00 0.0 
1.064193542078e+00 -3.051151900828e+02 0.0 
0.0 0.0 -1.306621934497e+02 
-1.212932098847e+02 2.091460936886e+00 0.0 
2.091460936886e+00 -2.795021710968e+02 0.0 
0.0 0.0 -1.198386142945e+02 
-8.967787089733e+01 2.279400867034e+00 0.0 
2.279400867034e+00 -2.179520910116e+02 0.0 
0.0 0.0 -9.188898857268e+01 
-6.579588999858e+01 3.063897974713e+00 0.0 
3.063897974713e+00 -1.481308589448e+02 0.0 
0.0 0.0 -6.377802468301e+01 
-4.444710825383e+01 4.737157580218e+00 0.0 
4.737157580218e+00 -1.089338451816e+02 0.0 
0.0 0.0 -4.561428603062e+01 
-5.252737657605e+01 4.621425251083e+00 0.0 
4.621425251083e+00 -1.275565756823e+02 0.0 
0.0 0.0 -5.362518567749e+01 
-9.042133156666e+01 2.918059106137e+00 0.0 
2.918059106137e+00 -2.059474162841e+02 0.0 
0.0 0.0 -8.851062435524e+01 
-1.041564299901e+02 3.608753260390e+00 0.0 
3.608753260390e+00 -2.491583366637e+02 0.0 
0.0 0.0 -1.055944299962e+02 
-7.917537097615e+01 1.135313531836e+00 0.0 
1.135313531836e+00 -1.930265824053e+02 0.0 
0.0 0.0 -8.126058601443e+01 
-1.324361691873e+02 7.958707435545e-01 0.0 
7.958707435545e-01 -3.071414215804e+02 0.0 
0.0 0.0 -1.314732772303e+02 
-4.732326394393e+01 3.150073162018e+00 0.0 
3.150073162018e+00 -1.185536720222e+02 0.0 
0.0 0.0 -4.936308078984e+01 
-7.727260586571e+01 3.573054461259e+00 0.0 
3.573054461259e+00 -1.760458376187e+02 0.0 
0.0 0.0 -7.559553304533e+01 
-9.067221844007e+01 7.757193745424e-01 0.0 
7.757193745424e-01 -2.067400242694e+02 0.0 
0.0 0.0 -8.882367281283e+01 
-6.933270978737e+01 3.533061815544e+00 0.0 
3.533061815544e+00 -1.570511516773e+02 0.0 
0.0 0.0 -6.751515843939e+01 
-1.573998803647e+02 2.597032109814e+00 0.0 
2.597032109814e+00 -3.667981374005e+02 0.0 
0.0 0.0 -1.568594053295e+02 
-1.562814273359e+02 1.879691571383e+00 0.0 
1.879691571383e+00 -3.654042936284e+02 0.0 
0.0 0.0 -1.561057162893e+02 
-1.485555738543e+02 2.936612052762e+00 0.0 
2.936612052762e+00 -3.452884222510e+02 0.0 
0.0 0.0 -1.477531988316e+02 
-9.794231808904e+01 2.443480873720e+00 0.0 
2.443480873720e+00 -2.369014283116e+02 0.0 
0.0 0.0 -1.000531239202e+02 
-1.293749633074e+02 4.035030861981e-01 0.0 
4.035030861981e-01 -3.000073964971e+02 0.0 
0.0 0.0 -1.284147079413e+02 
-3.910580019719e+01 2.389130905329e+00 0.0 
2.389130905329e+00 -8.780684860356e+01 0.0 
0.0 0.0 -3.767379464023e+01 
-6.062944217722e+01 4.500730854070e+00 0.0 
4.500730854070e+00 -1.462491349385e+02 0.0 
0.0 0.0 -6.166357313472e+01 
-3.208541327250e+01 4.061094790127e+00 0.0 
4.061094790127e+00 -8.179570241632e+01 0.0 
0.0 0.0 -3.376433470665e+01 
-6.669514670277e+01 2.390327984332e+00 0.0 
2.390327984332e+00 -1.498501342510e+02 0.0 
0.0 0.0 -6.456358428613e+01 
-8.859938106262e+01 3.845227845878e-01 0.0 
3.845227845878e-01 -2.027253863349e+02 0.0 
0.0 0.0 -8.699743021925e+01 
-1.055240712738e+02 -3.117937562712e-01 0.0 
-3.117937562712e-01 -2.433467992594e+02 0.0 
0.0 0.0 -1.042612611600e+02 
-1.534972033125e+02 3.428741358826e+00 0.0 
3.428741358826e+00 -3.615019325825e+02 0.0 
0.0 0.0 -1.540997407685e+02 
-1.307465215220e+02 1.276328272749e+00 0.0 
1.276328272749e+00 -3.027635831375e+02 0.0 
0.0 0.0 -1.296530313978e+02 
-9.980090497797e+01 3.622805936800e-01 0.0 
3.622805936800e-01 -2.286287875123e+02 0.0 
0.0 0.0 -9.812890774709e+01 
-1.028336074601e+02 8.811144878921e-01 0.0 
8.811144878921e-01 -2.356491392111e+02 0.0 
0.0 0.0 -1.011448240014e+02 
-3.531746541380e+01 2.536856364628e+00 0.0 
2.536856364628e+00 -9.067507723239e+01 0.0 
0.0 0.0 -3.739776279386e+01 
-1.747345266630e+01 -5.347574240388e-01 0.0 
-5.347574240388e-01 -4.187881321000e+01 0.0 
0.0 0.0 -1.740567976289e+01 
-7.480325076232e+01 2.712846170457e+00 0.0 
2.712846170457e+00 -1.741233510637e+02 0.0 
0.0 0.0 -7.427798054782e+01 
-8.514510380169e+01 3.629764505518e+00 0.0 
3.629764505518e+00 -1.948713979053e+02 0.0 
0.0 0.0 -8.360495051209e+01 
-7.938468661641e+01 4.324981642086e+00 0.0 
4.324981642086e+00 -1.841915005700e+02 0.0 
0.0 0.0 -7.867285615591e+01 
-1.413535497551e+01 3.038660512591e+00 0.0 
3.038660512591e+00 -3.222645058164e+01 0.0 
0.0 0.0 -1.350854166715e+01 
-9.422607461691e+01 -2.626468671816e-01 0.0 
-2.626468671816e-01 -2.184058468379e+02 0.0 
0.0 0.0 -9.338957643643e+01 
-3.262889668079e+01 4.029288136127e-01 0.0 
4.029288136127e-01 -8.061616760171e+01 0.0 
0.0 0.0 -3.357351928475e+01 
-4.603830896804e+01 3.334673875743e+00 0.0 
3.334673875743e+00 -1.074715830272e+02 0.0 
0.0 0.0 -4.565296759858e+01 
-1.616841857178e+02 3.471030896059e+00 0.0 
3.471030896059e+00 -3.785964333416e+02 0.0 
0.0 0.0 -1.616841857178e+02 
-1.144537851761e+02 4.174446587250e+00 0.0 
4.174446587250e+00 -2.696572111621e+02 0.0 
0.0 0.0 -1.148332989014e+02 
-8.807820036587e+01 -6.047650490532e-02 0.0 
-6.047650490532e-02 -2.018063657697e+02 0.0 
0.0 0.0 -8.656536984067e+01 
-2.379371312798e+01 -6.125572962766e-01 0.0 
-6.125572962766e-01 -5.872774922795e+01 0.0 
0.0 0.0 -2.435643870678e+01 
-8.134861890159e+01 1.518787041683e+00 0.0 
1.518787041683e+00 -1.854224394707e+02 0.0 
0.0 0.0 -7.963131751168e+01 
-7.469220602603e+01 4.527778232322e+00 0.0 
4.527778232322e+00 -1.744418420533e+02 0.0 
0.0 0.0 -7.434021442380e+01 
-1.039318272590e+02 2.242410294565e+00 0.0 
2.242410294565e+00 -2.376851729507e+02 0.0 
0.0 0.0 -1.020851000629e+02 
-1.577929134708e+02 2.985745402149e+00 0.0 
2.985745402149e+00 -3.686391146789e+02 0.0 
0.0 0.0 -1.575296084449e+02 
-8.347326003950e+01 2.175565262562e-01 0.0 
2.175565262562e-01 -1.899506908666e+02 0.0 
0.0 0.0 -8.162718527182e+01 
-9.902838473220e+01 2.661187562235e+00 0.0 
2.661187562235e+00 -2.260403507700e+02 0.0 
0.0 0.0 -9.712062065066e+01 
-7.872385081508e+01 -3.313462241498e-01 0.0 
-3.313462241498e-01 -1.925208325668e+02 0.0 
0.0 0.0 -8.097340501456e+01 
-1.287921488384e+02 6.035287437208e-01 0.0 
6.035287437208e-01 -2.983103049311e+02 0.0 
0.0 0.0 -1.277307361308e+02 
-1.014607363958e+02 8.803793249444e-01 0.0 
8.803793249444e-01 -2.454314997802e+02 0.0 
0.0 0.0 -1.036676708528e+02 
-1.581968045625e+02 3.396714602628e+00 0.0 
3.396714602628e+00 -3.691006977595e+02 0.0 
0.0 0.0 -1.577892506966e+02 
-1.566587094362e+02 2.507956916595e+00 0.0 
2.507956916595e+00 -3.668703220177e+02 0.0 
0.0 0.0 -1.566587094362e+02 
-1.561540237439e+02 1.769908242932e+00 0.0 
1.769908242932e+00 -3.656927220690e+02 0.0 
0.0 0.0 -1.561540237439e+02 
-1.558432271173e+02 2.107724188316e+00 0.0 
2.107724188316e+00 -3.649675299405e+02 0.0 
0.0 0.0 -1.558432271173e+02 
-1.070979800424e+02 8.241169638333e-01 0.0 
8.241169638333e-01 -2.458091488289e+02 0.0 
0.0 0.0 -1.054721386614e+02 
-1.292637372967e+02 2.217445533410e+00 0.0 
2.217445533410e+00 -2.988119520972e+02 0.0 
0.0 0.0 -1.280227068182e+02 
-1.355147708192e+02 1.278167916299e+00 0.0 
1.278167916299e+00 -3.142689686633e+02 0.0 
0.0 0.0 -1.345351218447e+02 
-6.899373270040e+01 1.546544107996e+00 0.0 
1.546544107996e+00 -1.565604231821e+02 0.0 
0.0 0.0 -6.726624676475e+01 
-6.533104502235e+01 1.130022032029e+00 0.0 
1.130022032029e+00 -1.475844107916e+02 0.0 
0.0 0.0 -6.347463674420e+01 
-7.468145635235e+01 9.872031821641e-01 0.0 
9.872031821641e-01 -1.822404175390e+02 0.0 
0.0 0.0 -7.667656216742e+01 
-1.329873510050e+02 2.503737206537e+00 0.0 
2.503737206537e+00 -3.077370634098e+02 0.0 
0.0 0.0 -1.318173243245e+02 
-1.584051211627e+02 3.746960745039e+00 0.0 
3.746960745039e+00 -3.701529482251e+02 0.0 
0.0 0.0 -1.581674208164e+02 
-1.330610976519e+02 5.803105094091e-01 0.0 
5.803105094091e-01 -3.087478585111e+02 0.0 
0.0 0.0 -1.321426868489e+02 
-1.061143960665e+02 4.186640150405e+00 0.0 
4.186640150405e+00 -2.503350064630e+02 0.0 
0.0 0.0 -1.065348207589e+02 
-1.334920844668e+02 2.166675848815e+00 0.0 
2.166675848815e+00 -3.092408325540e+02 0.0 
0.0 0.0 -1.324198751063e+02 
-1.167875245472e+02 3.842842123194e+00 0.0 
3.842842123194e+00 -2.703886312507e+02 0.0 
0.0 0.0 -1.157528467394e+02 
-8.054343946195e+01 2.079446160709e+00 0.0 
2.079446160709e+00 -1.846319344243e+02 0.0 
0.0 0.0 -7.915261216588e+01 
-6.620688726062e+01 6.183217963737e-01 0.0 
6.183217963737e-01 -1.493765602292e+02 0.0 
0.0 0.0 -6.427503424695e+01 
-3.355954350550e+01 3.782591875487e+00 0.0 
3.782591875487e+00 -8.032597512732e+01 0.0 
0.0 0.0 -3.376565558985e+01 
-1.491641472323e+02 7.580875611976e-01 0.0 
7.580875611976e-01 -3.486949596233e+02 0.0 
0.0 0.0 -1.489577320567e+02 
-6.465474782855e+01 1.847456550916e+00 0.0 
1.847456550916e+00 -1.467698766346e+02 0.0 
0.0 0.0 -6.302738733893e+01 
-1.453707952664e+02 3.302199995348e+00 0.0 
3.302199995348e+00 -3.383638288643e+02 0.0 
0.0 0.0 -1.447203872392e+02 
-7.424072002525e+01 -4.943684212414e-01 0.0 
-4.943684212414e-01 -1.817354748139e+02 0.0 
0.0 0.0 -7.639285845175e+01 
-4.644752337506e+01 1.385903667194e+00 0.0 
1.385903667194e+00 -1.162013827248e+02 0.0 
0.0 0.0 -4.839467182994e+01 
-1.544327871461e+02 3.000636894492e+00 0.0 
3.000636894492e+00 -3.625134669614e+02 0.0 
0.0 0.0 -1.546838762322e+02 
-5.050837075311e+01 2.983519845791e+00 0.0 
2.983519845791e+00 -1.163451933552e+02 0.0 
0.0 0.0 -4.965606923249e+01 
-1.569729006975e+02 2.720075471491e+00 0.0 
2.720075471491e+00 -3.676034349607e+02 0.0 
0.0 0.0 -1.569729006975e+02 
-1.494745196049e+02 1.895901469965e+00 0.0 
1.895901469965e+00 -3.492295682349e+02 0.0 
0.0 0.0 -1.492112263519e+02 
-9.788881226723e+01 1.350065841637e+00 0.0 
1.350065841637e+00 -2.241890763683e+02 0.0 
0.0 0.0 -9.622336659067e+01 
-1.100722547814e+01 -3.305400933033e-01 0.0 
-3.305400933033e-01 -2.491424431634e+01 0.0 
0.0 0.0 -1.080348976716e+01 
-1.573140563765e+02 3.083588000178e+00 0.0 
3.083588000178e+00 -3.683994648786e+02 0.0 
0.0 0.0 -1.573140563765e+02 
-1.538829895262e+02 3.573298529235e+00 0.0 
3.573298529235e+00 -3.610241220682e+02 0.0 
0.0 0.0 -1.540721334783e+02 
-4.566500993855e+01 2.336370744331e-01 0.0 
2.336370744331e-01 -1.156210010392e+02 0.0 
0.0 0.0 -4.798580329333e+01 
-1.098324238661e+02 4.079721570584e+00 0.0 
4.079721570584e+00 -2.598471130709e+02 0.0 
0.0 0.0 -1.105038610811e+02 
-1.597034024557e+02 4.158511387704e+00 0.0 
4.158511387704e+00 -3.742527605163e+02 0.0 
0.0 0.0 -1.597868488916e+02 
-5.770182046494e+00 -1.425431659948e-01 0.0 
-1.425431659948e-01 -8.992810193552e+00 0.0 
0.0 0.0 -4.998810814802e+00 
-7.266169682809e+01 2.005993015053e+00 0.0 
2.005993015053e+00 -1.658306692941e+02 0.0 
0.0 0.0 -7.114770983665e+01 
-1.021832932278e+02 1.231186449893e+00 0.0 
1.231186449893e+00 -2.342454622814e+02 0.0 
0.0 0.0 -1.005286266528e+02 
-9.358684788931e+01 1.478446599829e+00 0.0 
1.478446599829e+00 -2.141988663118e+02 0.0 
0.0 0.0 -9.193571426034e+01 
-9.428521308372e+01 1.046038162499e+00 0.0 
1.046038162499e+00 -2.154347854989e+02 0.0 
0.0 0.0 -9.251599957480e+01 
-3.810070919106e+01 3.437789268659e+00 0.0 
3.437789268659e+00 -8.859671528603e+01 0.0 
0.0 0.0 -3.760922734313e+01 
-1.578173196521e+02 3.484246325616e+00 0.0 
3.484246325616e+00 -3.695737458548e+02 0.0 
0.0 0.0 -1.578173196521e+02 
-6.875565886808e+01 4.388404486126e+00 0.0 
4.388404486126e+00 -1.650167326799e+02 0.0 
0.0 0.0 -6.973171746440e+01 
-2.103748231895e+01 2.338227713363e+00 0.0 
2.338227713363e+00 -5.482023470402e+01 0.0 
0.0 0.0 -2.235731510689e+01 
-1.556630718484e+02 1.408366392663e+00 0.0 
1.408366392663e+00 -3.671138467094e+02 0.0 
0.0 0.0 -1.564330755674e+02 
-1.124639753113e+01 -3.301030110426e-01 0.0 
-3.301030110426e-01 -2.500443103534e+01 0.0 
0.0 0.0 -1.047524856994e+01 
-7.498182447947e+01 3.419522007054e-01 0.0 
3.419522007054e-01 -1.698921697507e+02 0.0 
0.0 0.0 -7.306219826904e+01 
-2.294691579085e+01 3.715447937070e-02 0.0 
3.715447937070e-02 -5.873833215117e+01 0.0 
0.0 0.0 -2.410557438261e+01 
-7.983042949750e+01 -3.618916318066e-02 0.0 
-3.618916318066e-02 -1.814603334438e+02 0.0 
0.0 0.0 -7.798722888240e+01 
-1.606430366937e+02 3.906616901626e+00 0.0 
3.906616901626e+00 -3.768285042111e+02 0.0 
0.0 0.0 -1.608414622714e+02 
-1.585996314436e+02 3.741349616989e+00 0.0 
3.741349616989e+00 -3.713991400350e+02 0.0 
0.0 0.0 -1.585996314436e+02 
-9.917190414216e+01 6.213719299145e-01 0.0 
6.213719299145e-01 -2.270156308662e+02 0.0 
0.0 0.0 -9.745626050251e+01 
-1.658731424029e+01 -1.887547306457e-01 0.0 
-1.887547306457e-01 -4.213459731437e+01 0.0 
0.0 0.0 -1.721657346640e+01 
-1.632477971499e+01 7.620949454513e-01 0.0 
7.620949454513e-01 -4.444057866936e+01 0.0 
0.0 0.0 -1.782960751531e+01 
-2.344633816407e+01 -2.037715429421e-01 0.0 
-2.037715429421e-01 -5.827859370943e+01 0.0 
0.0 0.0 -2.411747956205e+01 
-1.350881345159e+02 2.506920389555e+00 0.0 
2.506920389555e+00 -3.211353730968e+02 0.0 
0.0 0.0 -1.364670522838e+02 
-8.833578153240e+01 2.427074608451e-01 0.0 
2.427074608451e-01 -2.024161056763e+02 0.0 
0.0 0.0 -8.682556616262e+01 
-9.283024649520e+01 1.639691333537e+00 0.0 
1.639691333537e+00 -2.120012338683e+02 0.0 
0.0 0.0 -9.104944410906e+01 
-1.593941619657e+02 3.920583426348e+00 0.0 
3.920583426348e+00 -3.732530445867e+02 0.0 
0.0 0.0 -1.593941619657e+02 
-8.804884113494e+01 4.673183942898e-01 0.0 
4.673183942898e-01 -2.025134347286e+02 0.0 
0.0 0.0 -8.676868275905e+01 
-1.565544856029e+02 1.642181240313e+00 0.0 
1.642181240313e+00 -3.659814443370e+02 0.0 
0.0 0.0 -1.563607789820e+02 
-1.200671013238e+02 2.320685821146e+00 0.0 
2.320685821146e+00 -2.789616468484e+02 0.0 
0.0 0.0 -1.193086244517e+02 
-1.015480901893e+02 -3.897588157108e-01 0.0 
-3.897588157108e-01 -2.343122197139e+02 0.0 
0.0 0.0 -1.003580929710e+02 
-4.749707780193e+01 1.543707398915e+00 0.0 
1.543707398915e+00 -1.068715575118e+02 0.0 
0.0 0.0 -4.591059059411e+01 
-1.097913059127e+02 2.528995630889e+00 0.0 
2.528995630889e+00 -2.595197172545e+02 0.0 
0.0 0.0 -1.103933069501e+02 
-2.879186975858e+01 4.807874154844e+00 0.0 
4.807874154844e+00 -7.247319585508e+01 0.0 
0.0 0.0 -2.997951968410e+01 
-1.599651857590e+02 4.000763533060e+00 0.0 
4.000763533060e+00 -3.745854334378e+02 0.0 
0.0 0.0 -1.599651857590e+02 
-1.562636922733e+02 2.213462968089e+00 0.0 
2.213462968089e+00 -3.659486153043e+02 0.0 
0.0 0.0 -1.562636922733e+02 
-1.561712484822e+02 2.005050663508e+00 0.0 
2.005050663508e+00 -3.657329131251e+02 0.0 
0.0 0.0 -1.561712484822e+02 
-1.018217165746e+02 2.307079909042e+00 0.0 
2.307079909042e+00 -2.458876572000e+02 0.0 
0.0 0.0 -1.039128121324e+02 
-7.016727738984e+01 8.749838346219e-01 0.0 
8.749838346219e-01 -1.713433588319e+02 0.0 
0.0 0.0 -7.205319086653e+01 
-8.069408525604e+01 3.850144508241e+00 0.0 
3.850144508241e+00 -1.850844543191e+02 0.0 
0.0 0.0 -7.933356187253e+01 
-1.052640711307e+02 7.429200666775e-01 0.0 
7.429200666775e-01 -2.541816523611e+02 0.0 
0.0 0.0 -1.074337170475e+02 
-1.605308277865e+02 3.862007892563e+00 0.0 
3.862007892563e+00 -3.759052648352e+02 0.0 
0.0 0.0 -1.605308277865e+02 
-4.570580861303e+01 5.121606527933e+00 0.0 
5.121606527933e+00 -1.077120883611e+02 0.0 
0.0 0.0 -4.562536909225e+01 
-5.430030510905e+01 1.288533950615e+00 0.0 
1.288533950615e+00 -1.360478585688e+02 0.0 
0.0 0.0 -5.670444910334e+01 
-5.794228485536e+01 1.007633246938e+00 0.0 
1.007633246938e+00 -1.447267398756e+02 0.0 
0.0 0.0 -6.040070741929e+01 
-1.061313185453e+02 -3.364599921561e-01 0.0 
-3.364599921561e-01 -2.452575918301e+02 0.0 
0.0 0.0 -1.050166731126e+02 
-1.613348930745e+02 3.425026124889e+00 0.0 
3.425026124889e+00 -3.792268732488e+02 0.0 
0.0 0.0 -1.617685298970e+02 
-1.785255607680e+01 -3.588974738973e-01 0.0 
-3.588974738973e-01 -4.167999387512e+01 0.0 
0.0 0.0 -1.745976498558e+01 
-1.611904161654e+02 3.617907398668e+00 0.0 
3.617907398668e+00 -3.774443043859e+02 0.0 
0.0 0.0 -1.611904161654e+02 
-5.358019248450e+01 4.953025918710e-01 0.0 
4.953025918710e-01 -1.344974616499e+02 0.0 
0.0 0.0 -5.602329624033e+01 
-1.573520747082e+02 2.920920334587e+00 0.0 
2.920920334587e+00 -3.684881743192e+02 0.0 
0.0 0.0 -1.573520747082e+02 
-1.360084098016e+02 2.974100314112e+00 0.0 
2.974100314112e+00 -3.148923622128e+02 0.0 
0.0 0.0 -1.348702316043e+02 
-4.866882988039e+00 -1.373421448993e-01 0.0 
-1.373421448993e-01 -7.775587501929e+00 0.0 
0.0 0.0 -3.392741146990e+00 
-7.601700126014e+01 2.309906897462e+00 0.0 
2.309906897462e+00 -1.746991951568e+02 0.0 
0.0 0.0 -7.481485892510e+01 
-1.341591658008e+02 1.998865035555e+00 0.0 
1.998865035555e+00 -3.111097054912e+02 0.0 
0.0 0.0 -1.331806613876e+02 
-1.576558891648e+02 3.321670834253e+00 0.0 
3.321670834253e+00 -3.691970747178e+02 0.0 
0.0 0.0 -1.576558891648e+02 
-1.075787947081e+02 2.486837130992e+00 0.0 
2.486837130992e+00 -2.463266135238e+02 0.0 
0.0 0.0 -1.057716224696e+02 
-1.236104083608e+02 2.438277949359e+00 0.0 
2.438277949359e+00 -2.881058391377e+02 0.0 
0.0 0.0 -1.231148742495e+02 
-2.570630477620e+01 3.906790996464e+00 0.0 
3.906790996464e+00 -6.201025931139e+01 0.0 
0.0 0.0 -2.591496922628e+01 
-1.470789114422e+02 3.231103640170e+00 0.0 
3.231103640170e+00 -3.456039285285e+02 0.0 
0.0 0.0 -1.474048519912e+02 
-5.723712786751e+01 3.063271261167e-01 0.0 
3.063271261167e-01 -1.429764260227e+02 0.0 
0.0 0.0 -5.966406616706e+01 
-5.843355106311e+01 2.117749802856e+00 0.0 
2.117749802856e+00 -1.451476774402e+02 0.0 
0.0 0.0 -6.067436855100e+01 
-1.204433691201e+01 -3.735987490358e-01 0.0 
-3.735987490358e-01 -2.579180294539e+01 0.0 
0.0 0.0 -1.095084195722e+01 
-1.581602383494e+02 3.625986972526e+00 0.0 
3.625986972526e+00 -3.703738894819e+02 0.0 
0.0 0.0 -1.581602383494e+02 
-3.645690909406e+01 4.822726422844e+00 0.0 
4.822726422844e+00 -9.048480018872e+01 0.0 
0.0 0.0 -3.768251278484e+01 
-1.329639032750e+02 3.414649485550e+00 0.0 
3.414649485550e+00 -3.155835478353e+02 0.0 
0.0 0.0 -1.341642353331e+02 
-9.769461955724e+01 1.276123183688e+00 0.0 
1.276123183688e+00 -2.247965092714e+02 0.0 
0.0 0.0 -9.634733864858e+01 
-4.932414754508e+01 8.713612519788e-01 0.0 
8.713612519788e-01 -1.223736432446e+02 0.0 
0.0 0.0 -5.110933723691e+01 
-5.476484340492e+01 2.436066435397e+00 0.0 
2.436066435397e+00 -1.364819353183e+02 0.0 
0.0 0.0 -5.697403361697e+01 
-1.033170681352e+02 2.551263611155e+00 0.0 
2.551263611155e+00 -2.361778055631e+02 0.0 
0.0 0.0 -1.014484621095e+02 
-1.597157649580e+02 4.052669965791e+00 0.0 
4.052669965791e+00 -3.740034515688e+02 0.0 
0.0 0.0 -1.597157649580e+02 
-7.340424613724e+01 -6.100727575588e-01 0.0 
-6.100727575588e-01 -1.794815500330e+02 0.0 
0.0 0.0 -7.546573885108e+01 
-1.148326948643e+02 2.746188899536e+00 0.0 
2.746188899536e+00 -2.753074140215e+02 0.0 
0.0 0.0 -1.166420326657e+02 
-9.280751753584e+01 1.932134243511e+00 0.0 
1.932134243511e+00 -2.132393780671e+02 0.0 
0.0 0.0 -9.141406868087e+01 
-1.031747590354e+02 3.157692471623e+00 0.0 
3.157692471623e+00 -2.480355395700e+02 0.0 
0.0 0.0 -1.049630895816e+02 
-5.900033941425e+01 2.931307937093e+00 0.0 
2.931307937093e+00 -1.461144379094e+02 0.0 
0.0 0.0 -6.113443319711e+01 
-1.063220161099e+02 2.594388214501e+00 0.0 
2.594388214501e+00 -2.560094360555e+02 0.0 
0.0 0.0 -1.082994356496e+02 
-8.955810447697e+01 3.418315000209e+00 0.0 
3.418315000209e+00 -2.047359795693e+02 0.0 
0.0 0.0 -8.788822521388e+01 
-1.176347050902e+02 3.570125848998e+00 0.0 
3.570125848998e+00 -2.713798385097e+02 0.0 
0.0 0.0 -1.163043630800e+02 
-1.180587207338e+02 2.524461260096e+00 0.0 
2.524461260096e+00 -2.786520714050e+02 0.0 
0.0 0.0 -1.186132376416e+02 
-8.842161135520e+01 2.124209631905e+00 0.0 
2.124209631905e+00 -2.034437215744e+02 0.0 
0.0 0.0 -8.715959987887e+01 
-7.500063646327e+01 -2.812152658459e-01 0.0 
-2.812152658459e-01 -1.839470953682e+02 0.0 
0.0 0.0 -7.728431954944e+01 
-5.035052798682e+01 4.860340170670e+00 0.0 
4.860340170670e+00 -1.166648614160e+02 0.0 
0.0 0.0 -4.970461682085e+01 
-6.974311597713e+01 -6.166658463790e-01 0.0 
-6.166658463790e-01 -1.708429855890e+02 0.0 
0.0 0.0 -7.177583046982e+01 
-1.203103006891e+02 3.990793153396e+00 0.0 
3.990793153396e+00 -2.794848868162e+02 0.0 
0.0 0.0 -1.195385562516e+02 
-9.690457536603e+01 2.497164544671e+00 0.0 
2.497164544671e+00 -2.306404476923e+02 0.0 
0.0 0.0 -9.786350691751e+01 
-1.609955937581e+02 3.826588467770e+00 0.0 
3.826588467770e+00 -3.778270394732e+02 0.0 
0.0 0.0 -1.612467899694e+02 
-1.378196421893e+02 2.146832230845e+00 0.0 
2.146832230845e+00 -3.196909257658e+02 0.0 
0.0 0.0 -1.368531703865e+02 
-4.444562129244e+01 -6.529674648347e-01 0.0 
-6.529674648347e-01 -1.110479248415e+02 0.0 
0.0 0.0 -4.624806384019e+01 
-1.607778121661e+02 3.735772856544e+00 0.0 
3.735772856544e+00 -3.764815617210e+02 0.0 
0.0 0.0 -1.607778121661e+02 
-1.537220903113e+02 3.626512740730e+00 0.0 
3.626512740730e+00 -3.611094524341e+02 0.0 
0.0 0.0 -1.540494628236e+02 
-8.290353585444e+01 2.698481852676e+00 0.0 
2.698481852676e+00 -1.932696213377e+02 0.0 
0.0 0.0 -8.245194715764e+01 
-1.131391303752e+01 -2.904906452997e-01 0.0 
-2.904906452997e-01 -2.553080257089e+01 0.0 
0.0 0.0 -1.103119820422e+01 
-1.619763930677e+02 3.098199608455e+00 0.0 
3.098199608455e+00 -3.800739664213e+02 0.0 
0.0 0.0 -1.622151078467e+02 
-1.370634615613e+02 2.310581049460e+00 0.0 
2.310581049460e+00 -3.178638552116e+02 0.0 
0.0 0.0 -1.360781950319e+02 
-4.934114951174e+01 3.560594865419e-02 0.0 
3.560594865419e-02 -1.240951440507e+02 0.0 
0.0 0.0 -5.163088806874e+01 
-1.618892212365e+02 3.332911227773e+00 0.0 
3.332911227773e+00 -3.790748495517e+02 0.0 
0.0 0.0 -1.618892212365e+02 
-1.102572892092e+02 2.458046286713e+00 0.0 
2.458046286713e+00 -2.650923882173e+02 0.0 
0.0 0.0 -1.122049032279e+02 
-6.975142632589e+01 9.934794567616e-01 0.0 
9.934794567616e-01 -1.577332965273e+02 0.0 
0.0 0.0 -6.784541685596e+01 
-9.622882671853e+01 1.778149248339e-01 0.0 
1.778149248339e-01 -2.202285775810e+02 0.0 
0.0 0.0 -9.453722128987e+01 
-9.327735526390e+01 4.145035875672e+00 0.0 
4.145035875672e+00 -2.216440377745e+02 0.0 
0.0 0.0 -9.407641791151e+01 
-9.346555613151e+01 2.159828766873e+00 0.0 
2.159828766873e+00 -2.267380790748e+02 0.0 
0.0 0.0 -9.566109056189e+01 
-1.078325048427e+02 3.415112610268e+00 0.0 
3.415112610268e+00 -2.581304637051e+02 0.0 
0.0 0.0 -1.093888905643e+02 
-1.132057413081e+02 1.924484380489e+00 0.0 
1.924484380489e+00 -2.601334179316e+02 0.0 
0.0 0.0 -1.116017477719e+02 
-7.855991799166e+01 6.745446345972e-01 0.0 
6.745446345972e-01 -1.782336512479e+02 0.0 
0.0 0.0 -7.663807077186e+01 
-1.226768889197e+02 2.558619430385e+00 0.0 
2.558619430385e+00 -2.886017791826e+02 0.0 
0.0 0.0 -1.229836004307e+02 
-1.012531398000e+02 1.729826431440e-01 0.0 
1.729826431440e-01 -2.349094956588e+02 0.0 
0.0 0.0 -1.004487906377e+02 
-7.549102050489e+01 1.148573238810e+00 0.0 
1.148573238810e+00 -1.844624494265e+02 0.0 
0.0 0.0 -7.758604097941e+01 
-1.133974954061e+02 2.456753562124e+00 0.0 
2.456753562124e+00 -2.686990090966e+02 0.0 
0.0 0.0 -1.142289513508e+02 
-5.782950261845e+01 1.482000081131e+00 0.0 
1.482000081131e+00 -1.434422824107e+02 0.0 
0.0 0.0 -5.998153550874e+01 
-1.073140800186e+02 -7.788138515451e-03 0.0 
-7.788138515451e-03 -2.586614521161e+02 0.0 
0.0 0.0 -1.093926596404e+02 
-5.183031869466e+00 -1.116294937442e-01 0.0 
-1.116294937442e-01 -7.882911044189e+00 0.0 
0.0 0.0 -3.519782874097e+00 
-5.505957581318e+01 4.494602805599e+00 0.0 
4.494602805599e+00 -1.262404069303e+02 0.0 
0.0 0.0 -5.398999482303e+01 
-5.421301662748e+01 1.657221421152e+00 0.0 
1.657221421152e+00 -1.350020499969e+02 0.0 
0.0 0.0 -5.636451998732e+01 
-8.245857754521e+01 -3.604031086157e-01 0.0 
-3.604031086157e-01 -2.011302092893e+02 0.0 
0.0 0.0 -8.467663605036e+01 
-8.742745422498e+01 2.515498163363e+00 0.0 
2.515498163363e+00 -2.028630092657e+02 0.0 
0.0 0.0 -8.668713904720e+01 
-1.099095514454e+02 9.970363525601e-01 0.0 
9.970363525601e-01 -2.646366459900e+02 0.0 
0.0 0.0 -1.119638592306e+02 
-1.028094026890e+02 1.109896862325e+00 0.0 
1.109896862325e+00 -2.369372729507e+02 0.0 
0.0 0.0 -1.015240026919e+02 
-5.003688164989e+01 1.267122517475e+00 0.0 
1.267122517475e+00 -1.246640068476e+02 0.0 
0.0 0.0 -5.201026654926e+01 
-1.623000201960e+02 3.067900554960e+00 0.0 
3.067900554960e+00 -3.800333804573e+02 0.0 
0.0 0.0 -1.623000201960e+02 
-1.026079141543e+02 2.939272952226e+00 0.0 
2.939272952226e+00 -2.347607251400e+02 0.0 
0.0 0.0 -1.008105917883e+02 
-8.616680229487e+01 -4.021590164536e-01 0.0 
-4.021590164536e-01 -2.096262529406e+02 0.0 
0.0 0.0 -8.833791657065e+01 
-9.828795208472e+01 3.065872161814e+00 0.0 
3.065872161814e+00 -2.247017560699e+02 0.0 
0.0 0.0 -9.649691244638e+01 
-8.285930233985e+01 1.099061212678e+00 0.0 
1.099061212678e+00 -2.016112044617e+02 0.0 
0.0 0.0 -8.494115204046e+01 
-6.026357342416e+00 -1.435829168702e-01 0.0 
-1.435829168702e-01 -9.054772018070e+00 0.0 
0.0 0.0 -5.098584787395e+00 
-1.008551628908e+02 1.720506969440e+00 0.0 
1.720506969440e+00 -2.308668579199e+02 0.0 
0.0 0.0 -9.911660624321e+01 
-6.855917681620e+01 -8.187757323920e-01 0.0 
-8.187757323920e-01 -1.675229962216e+02 0.0 
0.0 0.0 -7.042465191134e+01 
-4.782162757326e+00 -1.298146700161e-01 0.0 
-1.298146700161e-01 -8.838425737669e+00 0.0 
0.0 0.0 -4.640851337145e+00 
-8.160220174702e+01 -5.716561002927e-01 0.0 
-5.716561002927e-01 -1.987365495444e+02 0.0 
0.0 0.0 -8.370162538744e+01 
-1.184275357427e+02 1.125282843246e+00 0.0 
1.125282843246e+00 -2.838850159736e+02 0.0 
0.0 0.0 -1.202937655149e+02 
-1.328937093570e+02 -4.255883547292e-01 0.0 
-4.255883547292e-01 -3.095982005725e+02 0.0 
0.0 0.0 -1.323475729788e+02 
-9.951245292497e+01 3.357562221403e+00 0.0 
3.357562221403e+00 -2.391859259685e+02 0.0 
0.0 0.0 -1.012095136680e+02 
-1.029750076938e+02 1.769698212770e+00 0.0 
1.769698212770e+00 -2.476091952086e+02 0.0 
0.0 0.0 -1.047752608707e+02 
-8.529619102540e+01 1.212451593303e+00 0.0 
1.212451593303e+00 -1.942292669036e+02 0.0 
0.0 0.0 -8.345763737870e+01 
-8.045148283316e+01 1.906879466123e-01 0.0 
1.906879466123e-01 -1.848110793405e+02 0.0 
0.0 0.0 -7.917876865211e+01 
-1.500414472940e+02 1.499290914793e+00 0.0 
1.499290914793e+00 -3.497439876425e+02 0.0 
0.0 0.0 -1.495356304810e+02 
-9.393048671084e+01 3.237076353963e+00 0.0 
3.237076353963e+00 -2.146727021013e+02 0.0 
0.0 0.0 -9.218095664363e+01 
-3.160096067375e+00 -8.309027001233e-02 0.0 
-8.309027001233e-02 -7.257823427857e+00 0.0 
0.0 0.0 -2.725375848570e+00 
-2.783162597982e+01 3.722245505235e-01 0.0 
3.722245505235e-01 -6.872870733382e+01 0.0 
0.0 0.0 -2.856809999409e+01 
-1.124273811698e+01 -2.861321766945e-01 0.0 
-2.861321766945e-01 -2.524433325347e+01 0.0 
0.0 0.0 -1.093963466853e+01 
-4.825992817701e+01 5.211195307992e-01 0.0 
5.211195307992e-01 -1.192002202338e+02 0.0 
0.0 0.0 -4.983804452325e+01 
-1.341869182093e+02 3.569277693502e+00 0.0 
3.569277693502e+00 -3.107577431927e+02 0.0 
0.0 0.0 -1.330833984206e+02 
-1.331110381092e+02 1.175575739453e+00 0.0 
1.175575739453e+00 -3.099649149685e+02 0.0 
0.0 0.0 -1.325227859233e+02 
-1.299801755716e+02 7.574158259269e-01 0.0 
7.574158259269e-01 -3.100390564328e+02 0.0 
0.0 0.0 -1.316057696013e+02 
-5.489223779499e+01 6.794097877037e-01 0.0 
6.794097877037e-01 -1.349457285737e+02 0.0 
0.0 0.0 -5.655138991060e+01 
-1.076578721960e+02 1.465080171450e+00 0.0 
1.465080171450e+00 -2.591466662691e+02 0.0 
0.0 0.0 -1.096413615395e+02 
-1.365822641443e+02 1.765405412767e+00 0.0 
1.765405412767e+00 -3.239882692357e+02 0.0 
0.0 0.0 -1.377711600140e+02 
-2.824435299101e+01 2.988656862231e+00 0.0 
2.988656862231e+00 -7.293760581493e+01 0.0 
0.0 0.0 -2.995458764178e+01 
-6.870882251884e+01 8.693897507091e-01 0.0 
8.693897507091e-01 -1.676304965735e+02 0.0 
0.0 0.0 -7.050179572769e+01 
-5.658633378845e+01 -7.847998169429e-01 0.0 
-7.847998169429e-01 -1.381644552767e+02 0.0 
0.0 0.0 -5.802523671954e+01 
-1.616832036945e+02 2.806672544947e+00 0.0 
2.806672544947e+00 -3.801733269208e+02 0.0 
0.0 0.0 -1.621569591846e+02 
-1.624880935762e+02 2.922617457443e+00 0.0 
2.922617457443e+00 -3.804722183444e+02 0.0 
0.0 0.0 -1.624880935762e+02 
-7.637007735119e+01 6.824986559896e-01 0.0 
6.824986559896e-01 -1.860938057049e+02 0.0 
0.0 0.0 -7.833916491681e+01 
-8.661348831371e+01 1.073696458594e+00 0.0 
1.073696458594e+00 -2.101381551962e+02 0.0 
0.0 0.0 -8.862549305297e+01 
-9.685106334420e+01 6.132971877384e-01 0.0 
6.132971877384e-01 -2.349838284967e+02 0.0 
0.0 0.0 -9.915046755227e+01 
-1.413477838510e+02 2.087930052693e+00 0.0 
2.087930052693e+00 -3.342338249629e+02 0.0 
0.0 0.0 -1.422744826442e+02 
-3.066010440301e+01 -1.066012911161e+00 0.0 
-1.066012911161e+00 -7.606720107735e+01 0.0 
0.0 0.0 -3.161819164411e+01 
-1.317941155122e+02 1.500479918891e+00 0.0 
1.500479918891e+00 -3.135921584071e+02 0.0 
0.0 0.0 -1.332158821758e+02 
-1.735206670628e+01 -3.273700153531e-01 0.0 
-3.273700153531e-01 -4.264138261094e+01 0.0 
0.0 0.0 -1.759803479516e+01 
-7.826295834784e+01 9.628475524586e-01 0.0 
9.628475524586e-01 -1.907733293437e+02 0.0 
0.0 0.0 -8.031088630746e+01 
-8.739935043165e+01 1.275871106054e+00 0.0 
1.275871106054e+00 -2.123585527079e+02 0.0 
0.0 0.0 -8.952737094187e+01 
-1.051513844936e+01 -1.622762562321e-01 0.0 
-1.622762562321e-01 -2.554616246020e+01 0.0 
0.0 0.0 -1.079898544264e+01 
-7.273478182455e+01 -7.595527452239e-01 0.0 
-7.595527452239e-01 -1.768051725656e+02 0.0 
0.0 0.0 -7.446198631704e+01 
-1.372094798987e+02 6.399307991188e-01 0.0 
6.399307991188e-01 -3.190574275542e+02 0.0 
0.0 0.0 -1.364800722359e+02 
-2.971690773827e+00 -8.260131215033e-02 0.0 
-8.260131215033e-02 -7.743486151464e+00 0.0 
0.0 0.0 -2.814553077587e+00 
-8.088219786343e+01 1.591396972147e-01 0.0 
1.591396972147e-01 -1.850200990339e+02 0.0 
0.0 0.0 -7.937068906919e+01 
-8.107946814159e+01 2.599788027542e-01 0.0 
2.599788027542e-01 -1.852250570023e+02 0.0 
0.0 0.0 -7.949135754317e+01 
-1.125134149574e+02 3.652500766372e+00 0.0 
3.652500766372e+00 -2.681865040774e+02 0.0 
0.0 0.0 -1.138099757104e+02 
-5.648383862585e+01 7.180046134865e-01 0.0 
7.180046134865e-01 -1.380413892130e+02 0.0 
0.0 0.0 -5.795756835166e+01 
-5.298585968549e+01 -1.048398439830e-01 0.0 
-1.048398439830e-01 -1.325461319049e+02 0.0 
0.0 0.0 -5.525959747713e+01 
-3.471683931565e+01 5.064535473534e+00 0.0 
5.064535473534e+00 -7.903568697841e+01 0.0 
0.0 0.0 -3.372575788822e+01 
-1.424293926975e+02 8.155653173307e-01 0.0 
8.155653173307e-01 -3.374693866229e+02 0.0 
0.0 0.0 -1.435696337961e+02 
-1.514566933400e+02 3.390845374364e+00 0.0 
3.390845374364e+00 -3.539052803883e+02 0.0 
0.0 0.0 -1.512085921185e+02 
-1.279756542323e+02 1.333345193485e+00 0.0 
1.333345193485e+00 -2.972309169418e+02 0.0 
0.0 0.0 -1.271619713522e+02 
-4.819333268911e+01 3.512025445798e+00 0.0 
3.512025445798e+00 -1.075213381037e+02 0.0 
0.0 0.0 -4.631440123786e+01 
-1.904847595374e+01 -1.272536523367e+00 0.0 
-1.272536523367e+00 -4.739954580795e+01 0.0 
0.0 0.0 -1.953440652851e+01 
-7.974335297105e+01 1.962562813201e+00 0.0 
1.962562813201e+00 -1.804502282824e+02 0.0 
0.0 0.0 -7.765807437603e+01 
-8.088813371018e+01 7.126946180363e-02 0.0 
7.126946180363e-02 -1.856480490035e+02 0.0 
0.0 0.0 -7.956085481410e+01 
-8.046702656405e+01 1.979948961542e-01 0.0 
1.979948961542e-01 -1.853571542629e+02 0.0 
0.0 0.0 -7.934725424808e+01 
-4.666669970468e+00 -1.192834595543e-01 0.0 
-1.192834595543e-01 -9.036628975097e+00 0.0 
0.0 0.0 -4.679877134310e+00 
-1.055679418468e+01 -1.619259972262e-01 0.0 
-1.619259972262e-01 -2.541868673359e+01 0.0 
0.0 0.0 -1.081397364544e+01 
-1.662397486474e+01 8.718437658850e-02 0.0 
8.718437658850e-02 -4.201120095963e+01 0.0 
0.0 0.0 -1.719055274731e+01 
-4.201592406122e+01 -9.862168457468e-01 0.0 
-9.862168457468e-01 -1.039948699473e+02 0.0 
0.0 0.0 -4.340323820255e+01 
-1.011852034684e+01 -1.005991366269e-01 0.0 
-1.005991366269e-01 -2.568033034424e+01 0.0 
0.0 0.0 -1.033965520733e+01 
-8.048198019596e+01 -7.055221535779e-01 0.0 
-7.055221535779e-01 -1.962877927812e+02 0.0 
0.0 0.0 -8.263093189316e+01 
-6.364893706753e+00 -2.179508926390e-01 0.0 
-2.179508926390e-01 -8.980318637698e+00 0.0 
0.0 0.0 -5.171899068488e+00 
-4.997132804470e+01 -9.010034913977e-01 0.0 
-9.010034913977e-01 -1.234549386931e+02 0.0 
0.0 0.0 -5.162788002134e+01 
-1.086761784124e+02 -1.370885728922e-01 0.0 
-1.370885728922e-01 -2.519713283662e+02 0.0 
0.0 0.0 -1.077942520336e+02 
-8.067806246995e+01 1.082294403826e-01 0.0 
1.082294403826e-01 -1.849961717074e+02 0.0 
0.0 0.0 -7.930227025320e+01 
-1.384775507664e+02 3.489397624702e+00 0.0 
3.489397624702e+00 -3.205387087536e+02 0.0 
0.0 0.0 -1.373048778560e+02 
-1.137449540313e+02 8.678616749746e-01 0.0 
8.678616749746e-01 -2.734080720257e+02 0.0 
0.0 0.0 -1.157459078171e+02 
-1.010645444116e+02 -2.492462609020e-01 0.0 
-2.492462609020e-01 -2.343991185134e+02 0.0 
0.0 0.0 -1.002390988775e+02 
-6.031946832171e+01 -7.921296812634e-01 0.0 
-7.921296812634e-01 -1.474410093439e+02 0.0 
0.0 0.0 -6.192814329967e+01 
-1.718530385212e+01 -8.630646875531e-02 0.0 
-8.630646875531e-02 -4.240731547607e+01 0.0 
0.0 0.0 -1.747778579846e+01 
-1.557167258865e+02 8.096084455478e-01 0.0 
8.096084455478e-01 -3.646723604018e+02 0.0 
0.0 0.0 -1.557167258865e+02 
-1.558779675836e+02 8.071707351137e-01 0.0 
8.071707351137e-01 -3.646823981730e+02 0.0 
0.0 0.0 -1.557681097270e+02 
-9.746583528512e+01 -6.208977703333e-01 0.0 
-6.208977703333e-01 -2.244959719866e+02 0.0 
0.0 0.0 -9.618854218152e+01 
-8.044481712790e+01 1.186833260818e-01 0.0 
1.186833260818e-01 -1.851043893981e+02 0.0 
0.0 0.0 -7.926476195781e+01 
-6.122717428734e+01 4.210598868420e-01 0.0 
4.210598868420e-01 -1.494350058488e+02 0.0 
0.0 0.0 -6.279865404083e+01 
-1.559891105955e+02 6.574281429622e-01 0.0 
6.574281429622e-01 -3.647569688726e+02 0.0 
0.0 0.0 -1.558238238404e+02 
-4.688875387302e+01 5.405072567285e-01 0.0 
5.405072567285e-01 -1.155244847241e+02 0.0 
0.0 0.0 -4.832397157915e+01 
-8.081206146230e+01 2.158575404003e-01 0.0 
2.158575404003e-01 -1.849019005526e+02 0.0 
0.0 0.0 -7.931418860446e+01 
-8.085610322697e+01 9.433043754555e-02 0.0 
9.433043754555e-02 -1.849841787462e+02 0.0 
0.0 0.0 -7.935208459196e+01 
-7.566157091988e+01 2.233828419850e-02 0.0 
2.233828419850e-02 -1.716562045321e+02 0.0 
0.0 0.0 -7.379533263558e+01 
-1.562856433653e+02 1.655544423343e+00 0.0 
1.655544423343e+00 -3.659998345190e+02 0.0 
0.0 0.0 -1.562856433653e+02 
-1.565367327078e+02 6.160976089698e-01 0.0 
6.160976089698e-01 -3.651360736382e+02 0.0 
0.0 0.0 -1.561018419038e+02 
-1.018523212582e+01 -1.396692701841e-01 0.0 
-1.396692701841e-01 -2.549795765141e+01 0.0 
0.0 0.0 -1.030495693317e+01 
-4.714058092335e+00 -6.148395261891e-02 0.0 
-6.148395261891e-02 -9.124122655969e+00 0.0 
0.0 0.0 -4.728709031788e+00 
-2.289858519820e+01 -1.051213410913e+00 0.0 
-1.051213410913e+00 -5.688940190936e+01 0.0 
0.0 0.0 -2.353639613227e+01 
-8.698337938602e+01 -1.933505146940e-01 0.0 
-1.933505146940e-01 -2.118691699812e+02 0.0 
0.0 0.0 -8.925576481018e+01 
-1.491205403010e+02 -7.449261214932e-01 0.0 
-7.449261214932e-01 -3.520765730578e+02 0.0 
0.0 0.0 -1.499591340076e+02 
-6.284518265015e+00 -1.257640123764e-02 0.0 
-1.257640123764e-02 -7.206655916594e+00 0.0 
0.0 0.0 -3.647352254483e+00 
-1.262683473734e+02 9.171411693080e-01 0.0 
9.171411693080e-01 -2.940015504591e+02 0.0 
0.0 0.0 -1.256809693498e+02 
-6.394267584366e+00 -1.761666161763e-01 0.0 
-1.761666161763e-01 -9.122411360021e+00 0.0 
0.0 0.0 -5.235953724051e+00 
-1.113417209414e+02 1.809358189161e+00 0.0 
1.809358189161e+00 -2.666448388365e+02 0.0 
0.0 0.0 -1.129959679334e+02 
-5.560336689631e+00 -2.019746218058e-01 0.0 
-2.019746218058e-01 -8.083440155241e+00 0.0 
0.0 0.0 -3.693133053461e+00 
-5.959282423955e+00 -1.234359118417e-01 0.0 
-1.234359118417e-01 -8.046134468440e+00 0.0 
0.0 0.0 -3.801625067719e+00 
-1.066488976022e+02 1.568945128483e+00 0.0 
1.568945128483e+00 -2.564660336870e+02 0.0 
0.0 0.0 -1.085344793868e+02 
-1.446186573225e+02 -9.985381501234e-02 0.0 
-9.985381501234e-02 -3.421678378620e+02 0.0 
0.0 0.0 -1.456359485554e+02 
-1.080756031084e+02 4.625738418242e-01 0.0 
4.625738418242e-01 -2.506271557753e+02 0.0 
0.0 0.0 -1.072108276651e+02 
-8.334807353423e+01 2.258640319341e+00 0.0 
2.258640319341e+00 -1.888683079258e+02 0.0 
0.0 0.0 -8.126491443800e+01 
-1.042734845279e+01 -4.156622004236e-02 0.0 
-4.156622004236e-02 -2.553469790906e+01 0.0 
0.0 0.0 -1.077110803305e+01 
-1.113893372045e+02 1.396169888075e+00 0.0 
1.396169888075e+00 -2.676233822592e+02 0.0 
0.0 0.0 -1.133038158391e+02 
-1.553076256768e+02 3.283947005924e-01 0.0 
3.283947005924e-01 -3.637177932458e+02 0.0 
0.0 0.0 -1.553076256768e+02 
-1.558401673664e+02 8.508469450297e-01 0.0 
8.508469450297e-01 -3.645487713953e+02 0.0 
0.0 0.0 -1.557166816285e+02 
-8.058016398457e+01 6.341270866672e-02 0.0 
6.341270866672e-02 -1.850129640803e+02 0.0 
0.0 0.0 -7.927793841945e+01 
-1.160457055584e+02 2.036860141664e+00 0.0 
2.036860141664e+00 -2.767788950074e+02 0.0 
0.0 0.0 -1.174473801698e+02 
-1.558385810105e+02 5.505376825288e-01 0.0 
5.505376825288e-01 -3.649566890245e+02 0.0 
0.0 0.0 -1.558385810105e+02 
-1.238686345846e+02 4.174779299197e+00 0.0 
4.174779299197e+00 -2.885764779440e+02 0.0 
0.0 0.0 -1.233335337586e+02 
-1.658501087738e+01 -2.633739048389e-01 0.0 
-2.633739048389e-01 -4.132354141938e+01 0.0 
0.0 0.0 -1.697256568903e+01 
-9.999867833216e+00 -6.503935194929e-02 0.0 
-6.503935194929e-02 -2.547998622056e+01 0.0 
0.0 0.0 -1.024395621613e+01 
-1.013416808984e+01 8.484897842538e-02 0.0 
8.484897842538e-02 -2.512562430907e+01 0.0 
0.0 0.0 -1.041920523370e+01 
-6.852891399118e+01 -7.597190748677e-01 0.0 
-7.597190748677e-01 -1.669997378875e+02 0.0 
0.0 0.0 -7.025859556361e+01 
-1.628287324512e+02 1.180939634546e+00 0.0 
1.180939634546e+00 -3.826821427688e+02 0.0 
0.0 0.0 -1.632532625660e+02 
-1.471431277658e+02 9.478758677758e-01 0.0 
9.478758677758e-01 -3.435344704850e+02 0.0 
0.0 0.0 -1.468032794752e+02 
-4.413561486607e+00 2.291503214813e-02 0.0 
2.291503214813e-02 -9.092919468557e+00 0.0 
0.0 0.0 -4.620622398220e+00 
-8.079529660376e+01 7.429019528409e-01 0.0 
7.429019528409e-01 -1.964250553028e+02 0.0 
0.0 0.0 -8.276610557196e+01 
-1.640812354886e+02 5.427604463359e-01 0.0 
5.427604463359e-01 -3.841895494733e+02 0.0 
0.0 0.0 -1.640812354886e+02 
-1.624433512182e+02 7.580226262384e-01 0.0 
7.580226262384e-01 -3.821537362354e+02 0.0 
0.0 0.0 -1.629791262361e+02 
-1.620799614487e+02 2.627255194245e+00 0.0 
2.627255194245e+00 -3.805015173878e+02 0.0 
0.0 0.0 -1.623744436510e+02 
-1.180577720479e+02 -8.239781377082e-01 0.0 
-8.239781377082e-01 -2.746572285260e+02 0.0 
0.0 0.0 -1.174145001722e+02 
-1.306472594126e+02 8.767555862251e-01 0.0 
8.767555862251e-01 -3.041496885685e+02 0.0 
0.0 0.0 -1.300390843943e+02 
-1.632340383326e+02 7.867056651400e-01 0.0 
7.867056651400e-01 -3.822127561093e+02 0.0 
0.0 0.0 -1.632340383326e+02 
-1.635342078870e+02 1.089645856641e+00 0.0 
1.089645856641e+00 -3.829131517364e+02 0.0 
0.0 0.0 -1.635342078870e+02 
-1.264448109524e+02 -6.584966991442e-01 0.0 
-6.584966991442e-01 -2.941565366072e+02 0.0 
0.0 0.0 -1.257804042679e+02 
-2.541905590897e+00 -2.647416379288e-01 0.0 
-2.647416379288e-01 -6.771940498921e+00 0.0 
0.0 0.0 -2.394153826945e+00 
-8.012023629788e+01 3.389301680937e-02 0.0 
3.389301680937e-02 -1.846231394214e+02 0.0 
0.0 0.0 -7.902301271578e+01 
-8.056416287007e+01 -3.988864009108e-02 0.0 
-3.988864009108e-02 -1.853980660099e+02 0.0 
0.0 0.0 -7.938866866399e+01 
-4.586925942947e+00 -1.514465522881e-02 0.0 
-1.514465522881e-02 -9.092231273719e+00 0.0 
0.0 0.0 -4.679898907351e+00 
-1.635708472644e+02 1.657161077992e+00 0.0 
1.657161077992e+00 -3.829986436169e+02 0.0 
0.0 0.0 -1.635708472644e+02 
-1.616182726621e+02 2.272513030941e+00 0.0 
2.272513030941e+00 -3.803478473031e+02 0.0 
0.0 0.0 -1.621898359895e+02 
-1.625894082655e+02 2.150576481215e+00 0.0 
2.150576481215e+00 -3.807086192861e+02 0.0 
0.0 0.0 -1.625894082655e+02 
-2.721618859610e+00 7.178565202497e-04 0.0 
7.178565202497e-04 -7.865668024368e+00 0.0 
0.0 0.0 -2.776186065193e+00 
-2.800338538516e+00 -9.288215248033e-02 0.0 
-9.288215248033e-02 -7.966477809641e+00 0.0 
0.0 0.0 -2.830044904447e+00 
-1.625354508327e+02 2.643150894883e+00 0.0 
2.643150894883e+00 -3.805827186095e+02 0.0 
0.0 0.0 -1.625354508327e+02 
-1.626503747824e+02 2.479927508743e+00 0.0 
2.479927508743e+00 -3.808508744923e+02 0.0 
0.0 0.0 -1.626503747824e+02 
-1.137054864409e+02 9.339207956153e-01 0.0 
9.339207956153e-01 -2.647714305476e+02 0.0 
0.0 0.0 -1.131430750966e+02 
-7.978994134520e+01 -1.229667675511e-01 0.0 
-1.229667675511e-01 -1.842810894792e+02 0.0 
0.0 0.0 -7.882130924732e+01 
-1.223805344715e+02 9.182441351112e-01 0.0 
9.182441351112e-01 -2.844747741195e+02 0.0 
0.0 0.0 -1.216565925773e+02 
-9.708334156702e+01 9.028103688987e-01 0.0 
9.028103688987e-01 -2.255398592156e+02 0.0 
0.0 0.0 -9.638696023478e+01 
-7.998420054113e+01 -5.295229802769e-02 0.0 
-5.295229802769e-02 -1.843719876536e+02 0.0 
0.0 0.0 -7.890685645842e+01 
-3.474526815788e+00 -2.116169834815e-01 0.0 
-2.116169834815e-01 -7.488715692002e+00 0.0 
0.0 0.0 -2.888972752337e+00 
-4.196213482697e+00 5.314697815181e-02 0.0 
5.314697815181e-02 -8.215314670307e+00 0.0 
0.0 0.0 -3.323458445901e+00 
-4.319303862471e+00 -6.718141801637e-02 0.0 
-6.718141801637e-02 -7.764702682366e+00 0.0 
0.0 0.0 -3.225201963451e+00 
-4.564898107841e+00 -7.534063015177e-02 0.0 
-7.534063015177e-02 -7.892909895138e+00 0.0 
0.0 0.0 -3.337342400894e+00 
-8.492967082108e+01 -9.031975100978e-01 0.0 
-9.031975100978e-01 -2.064291852428e+02 0.0 
0.0 0.0 -8.700765681917e+01 
-7.673426483488e+01 -7.889872330382e-01 0.0 
-7.889872330382e-01 -1.866090961721e+02 0.0 
0.0 0.0 -7.860300830210e+01 
-5.343952006849e+00 -1.007582182701e-01 0.0 
-1.007582182701e-01 -9.072306626037e+00 0.0 
0.0 0.0 -4.901905060801e+00 
-1.100299297989e+02 -8.517633471667e-01 0.0 
-8.517633471667e-01 -2.643218922424e+02 0.0 
0.0 0.0 -1.119055466124e+02 
-5.663279150764e+00 -1.567000629098e-01 0.0 
-1.567000629098e-01 -9.034075857883e+00 0.0 
0.0 0.0 -4.981045675367e+00 
-1.558880482806e+02 1.234177943466e+00 0.0 
1.234177943466e+00 -3.650721126547e+02 0.0 
0.0 0.0 -1.558880482806e+02 
-1.555654755480e+02 4.540285290403e-01 0.0 
4.540285290403e-01 -3.643194429453e+02 0.0 
0.0 0.0 -1.555654755480e+02 
-1.556524753838e+02 8.769493082209e-01 0.0 
8.769493082209e-01 -3.645224425622e+02 0.0 
0.0 0.0 -1.556524753838e+02 
-2.786136364335e+01 -9.398745655093e-01 0.0 
-9.398745655093e-01 -6.851151361197e+01 0.0 
0.0 0.0 -2.851186317659e+01 
-5.228241998111e+01 -8.082706392143e-01 0.0 
-8.082706392143e-01 -1.278196799800e+02 0.0 
0.0 0.0 -5.363062998832e+01 
-1.553063081196e+02 4.189510934008e-01 0.0 
4.189510934008e-01 -3.637147189458e+02 0.0 
0.0 0.0 -1.553063081196e+02 
-1.361853124348e+02 -7.265214363916e-01 0.0 
-7.265214363916e-01 -3.233609753186e+02 0.0 
0.0 0.0 -1.374638863260e+02 
-1.561700532946e+02 3.999364477479e-01 0.0 
3.999364477479e-01 -3.657301243541e+02 0.0 
0.0 0.0 -1.561700532946e+02 
-1.449458199126e+02 -7.756196444960e-01 0.0 
-7.756196444960e-01 -3.429658572049e+02 0.0 
0.0 0.0 -1.459735031353e+02 
-1.538624986964e+02 -8.859619764997e-01 0.0 
-8.859619764997e-01 -3.625798082693e+02 0.0 
0.0 0.0 -1.545326920897e+02 
-7.260964893772e+01 7.972370744515e-01 0.0 
7.972370744515e-01 -1.767523720319e+02 0.0 
0.0 0.0 -7.440860629088e+01 
-1.555382239923e+02 5.879335340094e-01 0.0 
5.879335340094e-01 -3.640498120416e+02 0.0 
0.0 0.0 -1.554764108102e+02 
-1.556919923039e+02 -9.544191251518e-02 0.0 
-9.544191251518e-02 -3.645029943232e+02 0.0 
0.0 0.0 -1.556584959881e+02 
-1.401449405645e+02 9.576363989928e-01 0.0 
9.576363989928e-01 -3.321440327117e+02 0.0 
0.0 0.0 -1.412866919829e+02 
-1.491821145214e+02 9.707551413362e-01 0.0 
9.707551413362e-01 -3.522417035258e+02 0.0 
0.0 0.0 -1.500271454142e+02 
-1.189602680603e+02 1.194101544618e+00 0.0 
1.194101544618e+00 -2.846127785384e+02 0.0 
0.0 0.0 -1.206719139796e+02 
-6.215128343701e+00 -1.674817768882e-01 0.0 
-1.674817768882e-01 -9.052645597573e+00 0.0 
0.0 0.0 -5.156808365262e+00 
-7.355846157408e+01 8.804315863209e-01 0.0 
8.804315863209e-01 -1.798482353679e+02 0.0 
0.0 0.0 -7.562200908258e+01 
-1.016361769787e+01 -3.813641380508e-02 0.0 
-3.813641380508e-02 -2.522071891872e+01 0.0 
0.0 0.0 -1.021530098498e+01 
-1.426197663656e+02 2.176112088659e+00 0.0 
2.176112088659e+00 -3.377474512855e+02 0.0 
0.0 0.0 -1.437101652953e+02 
-7.793533791866e+01 -5.096300414004e-01 0.0 
-5.096300414004e-01 -1.903151546907e+02 0.0 
0.0 0.0 -8.007514778281e+01 
-1.320814181931e+02 -7.043535799820e-03 0.0 
-7.043535799820e-03 -3.143455752109e+02 0.0 
0.0 0.0 -1.335280980212e+02 
-3.892491178040e+01 4.437839576657e-01 0.0 
4.437839576657e-01 -9.606637527815e+01 0.0 
0.0 0.0 -4.009738611757e+01 
-1.693076895067e+01 -6.494365781304e-01 0.0 
-6.494365781304e-01 -4.137061321644e+01 0.0 
0.0 0.0 -1.709041465013e+01 
-1.408633330539e+02 1.522271630700e+00 0.0 
1.522271630700e+00 -3.338468428442e+02 0.0 
0.0 0.0 -1.420130527694e+02 
-8.212274528764e+01 9.603649305005e-01 0.0 
9.603649305005e-01 -1.993092818903e+02 0.0 
0.0 0.0 -8.402960815338e+01 
-6.421255040347e+01 -7.953612820345e-01 0.0 
-7.953612820345e-01 -1.573095139377e+02 0.0 
0.0 0.0 -6.605661930234e+01 
-1.323093169491e+02 1.456051124511e+00 0.0 
1.456051124511e+00 -3.147747660030e+02 0.0 
0.0 0.0 -1.337252248856e+02 
-1.380164079295e+02 -6.078716467683e-01 0.0 
-6.078716467683e-01 -3.217387290813e+02 0.0 
0.0 0.0 -1.375265411033e+02 
-6.449697609116e+01 7.808039364742e-01 0.0 
7.808039364742e-01 -1.573887849945e+02 0.0 
0.0 0.0 -6.616572832569e+01 
-1.234384175341e+02 2.886867381219e+00 0.0 
2.886867381219e+00 -2.946995112782e+02 0.0 
0.0 0.0 -1.250413786437e+02 
-1.082037693667e+02 2.819939061744e-01 0.0 
2.819939061744e-01 -2.608666794789e+02 0.0 
0.0 0.0 -1.103211346537e+02 
-1.186825111101e+02 -3.040632956428e-01 0.0 
-3.040632956428e-01 -2.841643014976e+02 0.0 
0.0 0.0 -1.204540437823e+02 
-1.225464785197e+02 -3.415199441188e-01 0.0 
-3.415199441188e-01 -2.929228483573e+02 0.0 
0.0 0.0 -1.242407980631e+02 
-6.425658881801e+01 2.826848933211e+00 0.0 
2.826848933211e+00 -1.553899854980e+02 0.0 
0.0 0.0 -6.549397229479e+01 
-7.549543259289e+01 2.045203811167e+00 0.0 
2.045203811167e+00 -1.704570594371e+02 0.0 
0.0 0.0 -7.338574760899e+01 
-8.403802387274e+01 4.075521104683e+00 0.0 
4.075521104683e+00 -1.940736920359e+02 0.0 
0.0 0.0 -8.303351477261e+01 
-1.110826494660e+02 -9.955634206991e-02 0.0 
-9.955634206991e-02 -2.671633075998e+02 0.0 
0.0 0.0 -1.130737871197e+02 
-1.361739291721e+02 1.386364168363e+00 0.0 
1.386364168363e+00 -3.234393685807e+02 0.0 
0.0 0.0 -1.374839893259e+02 
-1.264899942266e+02 -4.859720349858e-01 0.0 
-4.859720349858e-01 -3.018464649583e+02 0.0 
0.0 0.0 -1.281009377555e+02 
-3.998707768334e+01 -8.895838318896e-01 0.0 
-8.895838318896e-01 -9.965878814778e+01 0.0 
0.0 0.0 -4.149375974933e+01 
-1.376776965386e+02 -5.674213160115e-01 0.0 
-5.674213160115e-01 -3.205814924584e+02 0.0 
0.0 0.0 -1.370777566991e+02 
-1.291260618839e+02 -5.681039642689e-01 0.0 
-5.681039642689e-01 -3.007584303981e+02 0.0 
0.0 0.0 -1.285653476846e+02 
-9.121990633825e+01 -8.609231663254e-01 0.0 
-8.609231663254e-01 -2.110103017765e+02 0.0 
0.0 0.0 -9.026906243443e+01 
-1.158043654153e+02 9.035766101464e-02 0.0 
9.035766101464e-02 -2.779778685335e+02 0.0 
0.0 0.0 -1.177346701846e+02 
-1.148783623014e+02 -1.942933159432e-01 0.0 
-1.942933159432e-01 -2.756796968456e+02 0.0 
0.0 0.0 -1.167674177441e+02 
-1.381736654300e+02 1.045156902699e+00 0.0 
1.045156902699e+00 -3.224748790057e+02 0.0 
0.0 0.0 -1.377945633307e+02 
-1.336171672172e+02 -5.113352305217e-01 0.0 
-5.113352305217e-01 -3.114191679583e+02 0.0 
0.0 0.0 -1.331109005526e+02 
-1.048020528953e+02 1.834046187863e+00 0.0 
1.834046187863e+00 -2.527606139798e+02 0.0 
0.0 0.0 -1.068688000626e+02 
-1.448292542760e+02 1.399151725792e+00 0.0 
1.399151725792e+00 -3.424504409707e+02 0.0 
0.0 0.0 -1.457839085740e+02 
-1.276535635640e+02 -2.549825041709e-01 0.0 
-2.549825041709e-01 -2.968261259900e+02 0.0 
0.0 0.0 -1.269439068662e+02 
-1.266052180161e+02 9.619729874122e-01 0.0 
9.619729874122e-01 -3.018939002089e+02 0.0 
0.0 0.0 -1.281497354675e+02 
-1.469877209725e+02 2.222989639111e+00 0.0 
2.222989639111e+00 -3.473169810641e+02 0.0 
0.0 0.0 -1.478914106110e+02 
-1.376959280379e+02 1.165195564421e+00 0.0 
1.165195564421e+00 -3.210003231117e+02 0.0 
0.0 0.0 -1.372088753449e+02 
-1.166536440700e+02 1.090780797975e+00 0.0 
1.090780797975e+00 -2.706996547269e+02 0.0 
0.0 0.0 -1.158059896391e+02 
-1.187726295888e+02 2.591813764561e+00 0.0 
2.591813764561e+00 -2.843490179391e+02 0.0 
0.0 0.0 -1.205364942584e+02 
-4.019950684081e+01 -9.143585161363e-01 0.0 
-9.143585161363e-01 -9.893997933488e+01 0.0 
0.0 0.0 -4.134184585271e+01 
-3.673820036624e+01 -8.286248659947e-01 0.0 
-8.286248659947e-01 -9.187741236906e+01 0.0 
0.0 0.0 -3.818468382059e+01 
-1.947565826207e+01 4.911088107722e-01 0.0 
4.911088107722e-01 -4.792479302593e+01 0.0 
0.0 0.0 -1.982013538640e+01 
-1.183334433863e+01 -3.533648199192e-01 0.0 
-3.533648199192e-01 -2.549535611977e+01 0.0 
0.0 0.0 -1.079861013752e+01 
-1.338639473007e+02 1.066261854936e+00 0.0 
1.066261854936e+00 -3.117439030122e+02 0.0 
0.0 0.0 -1.332823550939e+02 
-1.398533934254e+02 -2.873073750883e-01 0.0 
-2.873073750883e-01 -3.315050043994e+02 0.0 
0.0 0.0 -1.410075193474e+02 
-1.153509318220e+01 -3.722495278685e-01 0.0 
-3.722495278685e-01 -2.512665822131e+01 0.0 
0.0 0.0 -1.059852542105e+01 
-1.366558784389e+02 2.693550542141e+00 0.0 
2.693550542141e+00 -3.162686723792e+02 0.0 
0.0 0.0 -1.354773652454e+02 
-9.537556934910e+01 -7.360101255471e-01 0.0 
-7.360101255471e-01 -2.200637862609e+02 0.0 
0.0 0.0 -9.423180668299e+01 
-1.285456703465e+02 1.599352796244e+00 0.0 
1.599352796244e+00 -3.063278205462e+02 0.0 
0.0 0.0 -1.300620472678e+02 
-1.310961004664e+02 -3.230167213099e-01 0.0 
-3.230167213099e-01 -3.121243742392e+02 0.0 
0.0 0.0 -1.325661424117e+02 
-5.647657054658e+01 -1.755223134061e-01 0.0 
-1.755223134061e-01 -1.406489820679e+02 0.0 
0.0 0.0 -5.873766578434e+01 
-1.312901288040e+02 1.192870505983e+00 0.0 
1.192870505983e+00 -3.125187977639e+02 0.0 
0.0 0.0 -1.327426779704e+02 
-9.139475760469e+01 1.172871998794e+00 0.0 
1.172871998794e+00 -2.110207091925e+02 0.0 
0.0 0.0 -9.032464003917e+01 
-1.181416373981e+02 4.089275906595e+00 0.0 
4.089275906595e+00 -2.790169009665e+02 0.0 
0.0 0.0 -1.187475615094e+02 
-1.510385604028e+02 3.653410189987e-01 0.0 
3.653410189987e-01 -3.560971650323e+02 0.0 
0.0 0.0 -1.517407176305e+02 
-3.886696767040e+01 -6.577023406768e-01 0.0 
-6.577023406768e-01 -9.563605225345e+01 0.0 
0.0 0.0 -3.995090597716e+01 
-1.474423189125e+02 2.398892769042e+00 0.0 
2.398892769042e+00 -3.485908440025e+02 0.0 
0.0 0.0 -1.484099488745e+02 
-1.211817136290e+02 9.947714428710e-01 0.0 
9.947714428710e-01 -2.815342101187e+02 0.0 
0.0 0.0 -1.204147771243e+02 
-4.370518794806e+01 -9.169800571816e-01 0.0 
-9.169800571816e-01 -1.073859953813e+02 0.0 
0.0 0.0 -4.492735499881e+01 
-4.505247731342e+01 6.098795464633e-01 0.0 
6.098795464633e-01 -1.115554260982e+02 0.0 
0.0 0.0 -4.658237102348e+01 
-9.274579511660e+01 -6.367786334273e-01 0.0 
-6.367786334273e-01 -2.244861838861e+02 0.0 
0.0 0.0 -9.476959370080e+01 
-1.073491594410e+02 -5.542394427836e-01 0.0 
-5.542394427836e-01 -2.488811819915e+02 0.0 
0.0 0.0 -1.064691024297e+02 
-6.162207959482e+01 -7.384627641389e-01 0.0 
-7.384627641389e-01 -1.513724754866e+02 0.0 
0.0 0.0 -6.349836652442e+01 
-1.256546275854e+02 1.019836516839e+00 0.0 
1.019836516839e+00 -2.922695684322e+02 0.0 
0.0 0.0 -1.249772588053e+02 
-1.127499538966e+02 1.089964526712e+00 0.0 
1.089964526712e+00 -2.613943948883e+02 0.0 
0.0 0.0 -1.118433046355e+02 
-8.989825990234e+01 -4.144283684797e-01 0.0 
-4.144283684797e-01 -2.181851985720e+02 0.0 
0.0 0.0 -9.202503754231e+01 
-1.226143158106e+02 1.086993723697e+00 0.0 
1.086993723697e+00 -2.930972760890e+02 0.0 
0.0 0.0 -1.243134775699e+02 
-1.275040906484e+02 1.309978732519e+00 0.0 
1.309978732519e+00 -3.040262627769e+02 0.0 
0.0 0.0 -1.290591060276e+02 
-1.207832899588e+02 -6.503452041839e-01 0.0 
-6.503452041839e-01 -2.810303262718e+02 0.0 
0.0 0.0 -1.201440848692e+02 
-3.369558737902e+01 4.330172091630e-01 0.0 
4.330172091630e-01 -8.284474753871e+01 0.0 
0.0 0.0 -3.456210047532e+01 
-8.534569844370e+01 -5.280589710398e-01 0.0 
-5.280589710398e-01 -2.073883584446e+02 0.0 
0.0 0.0 -8.742021706648e+01 
-1.355211473746e+02 2.659704372162e+00 0.0 
2.659704372162e+00 -3.178028280014e+02 0.0 
0.0 0.0 -1.355971926128e+02 
-1.249341242248e+02 1.117497896973e+00 0.0 
1.117497896973e+00 -2.903753214442e+02 0.0 
0.0 0.0 -1.241928337007e+02 
-7.699035800006e+01 -7.285148766269e-01 0.0 
-7.285148766269e-01 -1.876579292322e+02 0.0 
0.0 0.0 -7.899448616967e+01 
-1.085829855668e+02 1.747176112867e+00 0.0 
1.747176112867e+00 -2.613638303576e+02 0.0 
0.0 0.0 -1.105840447773e+02 
-1.437794376195e+02 2.656224899561e+00 0.0 
2.656224899561e+00 -3.402941130050e+02 0.0 
0.0 0.0 -1.448220651874e+02 
-1.165175804363e+02 -5.173683384752e-01 0.0 
-5.173683384752e-01 -2.703734331231e+02 0.0 
0.0 0.0 -1.156673040678e+02 
-1.767152116311e+01 1.449762310992e+00 0.0 
1.449762310992e+00 -4.511946225316e+01 0.0 
0.0 0.0 -1.843729502488e+01 
-1.891903948396e+01 4.819067374756e-01 0.0 
4.819067374756e-01 -4.662034934345e+01 0.0 
0.0 0.0 -1.926181664822e+01 
-3.572706155375e+01 3.415681947481e+00 0.0 
3.415681947481e+00 -9.105615692315e+01 0.0 
0.0 0.0 -3.763496554307e+01 
-1.359393177069e+02 -1.764046677793e-01 0.0 
-1.764046677793e-01 -3.230019793798e+02 0.0 
0.0 0.0 -1.372823891260e+02 
-1.118725232784e+02 -5.186136216068e-01 0.0 
-5.186136216068e-01 -2.596208475740e+02 0.0 
0.0 0.0 -1.110480112557e+02 
-1.014117614413e+02 1.003769393477e+00 0.0 
1.003769393477e+00 -2.441502473725e+02 0.0 
0.0 0.0 -1.032686026441e+02 
-9.918462341164e+01 -5.785018755014e-01 0.0 
-5.785018755014e-01 -2.293947659992e+02 0.0 
0.0 0.0 -9.817381682324e+01 
-1.368301410255e+02 3.254952832861e+00 0.0 
3.254952832861e+00 -3.244023933669e+02 0.0 
0.0 0.0 -1.379697603177e+02 
-9.360208624445e+01 -4.572623044080e-01 0.0 
-4.572623044080e-01 -2.267090330109e+02 0.0 
0.0 0.0 -9.569333577661e+01 
-1.273090351131e+02 -2.161843981213e-01 0.0 
-2.161843981213e-01 -3.036088371830e+02 0.0 
0.0 0.0 -1.288753616888e+02 
-4.054978615496e+01 5.339560416379e-01 0.0 
5.339560416379e-01 -9.942404689902e+01 0.0 
0.0 0.0 -4.159214991619e+01 
-1.468176840831e+02 4.602800802603e-01 0.0 
4.602800802603e-01 -3.473487928229e+02 0.0 
0.0 0.0 -1.478499430718e+02 
-9.024780340437e+01 1.062699594786e+00 0.0 
1.062699594786e+00 -2.186665208234e+02 0.0 
0.0 0.0 -9.227429726833e+01 
-4.391081375068e+01 6.356982372816e-01 0.0 
6.356982372816e-01 -1.078188859154e+02 0.0 
0.0 0.0 -4.511890989983e+01 
-8.566254504753e+01 1.013652505172e+00 0.0 
1.013652505172e+00 -2.078833429879e+02 0.0 
0.0 0.0 -8.766376641063e+01 
-6.525143845984e+01 -6.982982954082e-01 0.0 
-6.982982954082e-01 -1.598669096911e+02 0.0 
0.0 0.0 -6.713550444527e+01 
-5.042149373249e+01 5.830751460593e-01 0.0 
5.830751460593e-01 -1.239776469386e+02 0.0 
0.0 0.0 -5.191974220131e+01 
-1.009712272398e+02 -5.525258758618e-01 0.0 
-5.525258758618e-01 -2.435330787248e+02 0.0 
0.0 0.0 -1.029512917894e+02 
-5.337761607535e+00 -7.317858085562e-02 0.0 
-7.317858085562e-02 -9.373098320049e+00 0.0 
0.0 0.0 -5.008927204998e+00 
-5.727856901949e+00 -1.300841094994e-01 0.0 
-1.300841094994e-01 -9.556865675833e+00 0.0 
0.0 0.0 -5.195424507340e+00 
-1.151484602769e+02 1.305829571582e+00 0.0 
1.305829571582e+00 -2.761241151884e+02 0.0 
0.0 0.0 -1.169817726396e+02 
-3.722644351869e+01 4.440225599697e-01 0.0 
4.440225599697e-01 -9.128088092981e+01 0.0 
0.0 0.0 -3.815219733455e+01 
-1.161346301873e+02 1.586750878862e+00 0.0 
1.586750878862e+00 -2.784470191198e+02 0.0 
0.0 0.0 -1.179744947921e+02 
-1.123625868174e+02 1.661170263038e+00 0.0 
1.661170263038e+00 -2.699337233303e+02 0.0 
0.0 0.0 -1.142888930443e+02 
-7.053659375067e+01 -4.737190948812e-01 0.0 
-4.737190948812e-01 -1.731496441789e+02 0.0 
0.0 0.0 -7.270587137887e+01 
-4.513029365255e+01 -3.321039384583e-01 0.0 
-3.321039384583e-01 -1.134760284476e+02 0.0 
0.0 0.0 -4.718189663004e+01 
-1.324413824556e+02 1.335473341457e+00 0.0 
1.335473341457e+00 -3.080361793778e+02 0.0 
0.0 0.0 -1.317432685500e+02 
-1.701691144781e+01 3.747048114548e+00 0.0 
3.747048114548e+00 -4.532384985415e+01 0.0 
0.0 0.0 -1.830222839059e+01 
-6.887736302754e+01 -6.367233080790e-01 0.0 
-6.367233080790e-01 -1.685451932366e+02 0.0 
0.0 0.0 -7.082676687924e+01 
-1.412958559437e+02 3.410990278953e+00 0.0 
3.410990278953e+00 -3.340381853387e+02 0.0 
0.0 0.0 -1.422002123847e+02 
-3.212228222478e+01 -9.377986542393e-01 0.0 
-9.377986542393e-01 -7.888561757143e+01 0.0 
0.0 0.0 -3.290236993886e+01 
-1.038571352619e+02 9.754118613487e-01 0.0 
9.754118613487e-01 -2.404171273962e+02 0.0 
0.0 0.0 -1.028822787974e+02 
-9.552431269287e+01 1.026086053324e+00 0.0 
1.026086053324e+00 -2.204642614893e+02 0.0 
0.0 0.0 -9.439657225466e+01 
-3.111055987799e+01 3.683748707709e-01 0.0 
3.683748707709e-01 -7.660437371837e+01 0.0 
0.0 0.0 -3.191448007891e+01 
-1.397897802628e+02 2.700521094467e+00 0.0 
2.700521094467e+00 -3.314597881671e+02 0.0 
0.0 0.0 -1.409748705290e+02 
-1.197703282624e+02 1.256082981922e+00 0.0 
1.256082981922e+00 -2.776759264735e+02 0.0 
0.0 0.0 -1.188338764208e+02 
-3.678214310460e+01 -9.088402575825e-01 0.0 
-9.088402575825e-01 -9.070396648806e+01 0.0 
0.0 0.0 -3.784583287780e+01 
-1.360565452638e+02 1.370364534878e+00 0.0 
1.370364534878e+00 -3.165680731360e+02 0.0 
0.0 0.0 -1.353873855199e+02 
-1.356413292820e+02 -7.679615077277e-02 0.0 
-7.679615077277e-02 -3.160687010598e+02 0.0 
0.0 0.0 -1.351130091026e+02 
-4.148936695495e+01 5.609501968651e-01 0.0 
5.609501968651e-01 -1.018987911247e+02 0.0 
0.0 0.0 -4.261644742389e+01 
-5.249855846131e+01 3.344391992311e+00 0.0 
3.344391992311e+00 -1.172233258366e+02 0.0 
0.0 0.0 -5.051656528938e+01 
-4.244363486075e+01 4.845156191087e-01 0.0 
4.845156191087e-01 -1.045047433995e+02 0.0 
0.0 0.0 -4.368451347808e+01 
-1.237654106886e+02 1.397234141011e+00 0.0 
1.397234141011e+00 -2.954914398111e+02 0.0 
0.0 0.0 -1.253770551499e+02 
-9.729912759986e+01 -5.093562306385e-01 0.0 
-5.093562306385e-01 -2.352164130971e+02 0.0 
0.0 0.0 -9.935466220910e+01 
-1.365256148072e+02 8.361309461910e-01 0.0 
8.361309461910e-01 -3.172719792851e+02 0.0 
0.0 0.0 -1.357392782277e+02 
-1.321084232877e+02 -2.772537675406e-01 0.0 
-2.772537675406e-01 -3.076235593409e+02 0.0 
0.0 0.0 -1.315195947886e+02 
-1.199378851543e+02 1.495498410238e+00 0.0 
1.495498410238e+00 -2.869784901156e+02 0.0 
0.0 0.0 -1.216749125810e+02 
-1.196288639388e+02 -4.854785245378e-03 0.0 
-4.854785245378e-03 -2.865185726878e+02 0.0 
0.0 0.0 -1.214442309880e+02 
-3.413511576734e+01 -1.046799802637e+00 0.0 
-1.046799802637e+00 -8.454654140390e+01 0.0 
0.0 0.0 -3.520449715137e+01 
-1.234634434965e+02 -1.088696381963e-01 0.0 
-1.088696381963e-01 -2.950333154136e+02 0.0 
0.0 0.0 -1.251490276730e+02 
-1.194363183867e+02 -3.575332925345e-01 0.0 
-3.575332925345e-01 -2.772641437717e+02 0.0 
0.0 0.0 -1.186101386475e+02 
-9.762335709813e+01 9.577810197254e-01 0.0 
9.577810197254e-01 -2.356792943940e+02 0.0 
0.0 0.0 -9.959079544763e+01 
-1.121698479916e+02 1.075797738383e+00 0.0 
1.075797738383e+00 -2.600128766903e+02 0.0 
0.0 0.0 -1.112548174045e+02 
-1.242333805232e+02 1.249024792815e+00 0.0 
1.249024792815e+00 -2.884315105357e+02 0.0 
0.0 0.0 -1.233994673177e+02 
-8.519081212034e+01 2.701831852454e+00 0.0 
2.701831852454e+00 -2.024408904581e+02 0.0 
0.0 0.0 -8.588951077352e+01 
-1.283750665414e+02 -3.929573110055e-01 0.0 
-3.929573110055e-01 -2.988103558597e+02 0.0 
0.0 0.0 -1.277556267203e+02 
-8.103934060417e+01 -7.073971142958e-01 0.0 
-7.073971142958e-01 -1.974164316025e+02 0.0 
0.0 0.0 -8.313673166201e+01 
-9.388314766878e+01 1.036312562741e+00 0.0 
1.036312562741e+00 -2.271644301988e+02 0.0 
0.0 0.0 -9.591427336028e+01 
-6.084867650929e+01 -9.186970778072e-01 0.0 
-9.186970778072e-01 -1.492258937269e+02 0.0 
0.0 0.0 -6.262237107085e+01 
-6.382663755931e+01 9.592872788596e-01 0.0 
9.592872788596e-01 -1.568952224384e+02 0.0 
0.0 0.0 -6.581655799932e+01 
-1.156530535211e+02 -4.513554085092e-01 0.0 
-4.513554085092e-01 -2.684431816086e+02 0.0 
0.0 0.0 -1.148288705389e+02 
-8.895126968608e+01 1.860274915043e+00 0.0 
1.860274915043e+00 -2.163224563158e+02 0.0 
0.0 0.0 -9.118211780056e+01 
-4.597471278843e+01 5.468209770949e-01 0.0 
5.468209770949e-01 -1.129723929887e+02 0.0 
0.0 0.0 -4.728413173314e+01 
-2.332755564544e+01 2.415603898845e-01 0.0 
2.415603898845e-01 -5.730381969576e+01 0.0 
0.0 0.0 -2.378941260236e+01 
-1.159977061049e+02 1.150711060901e+00 0.0 
1.150711060901e+00 -2.688574273150e+02 0.0 
0.0 0.0 -1.150565400260e+02 
-4.554745284756e+01 -9.497490582105e-01 0.0 
-9.497490582105e-01 -1.124593075768e+02 0.0 
0.0 0.0 -4.700202812730e+01 
-1.476114068680e+02 9.661336991363e-01 0.0 
9.661336991363e-01 -3.484576585362e+02 0.0 
0.0 0.0 -1.484207196213e+02 
-1.201835741805e+02 -4.585662462665e-01 0.0 
-4.585662462665e-01 -2.792025905181e+02 0.0 
0.0 0.0 -1.194158494096e+02 
-1.282522829607e+02 9.029877540275e-02 0.0 
9.029877540275e-02 -3.058754920274e+02 0.0 
0.0 0.0 -1.298383324965e+02 
-1.540015750128e+02 3.429725034672e+00 0.0 
3.429725034672e+00 -3.615436605831e+02 0.0 
0.0 0.0 -1.542635706788e+02 
-7.740912526231e+01 9.471975400529e-01 0.0 
9.471975400529e-01 -1.883377872385e+02 0.0 
0.0 0.0 -7.932407375023e+01 
-4.110042325618e+01 -9.773382211941e-01 0.0 
-9.773382211941e-01 -1.013939551508e+02 0.0 
0.0 0.0 -4.234831352209e+01 
-2.626066518532e+01 -1.119397376120e+00 0.0 
-1.119397376120e+00 -6.489757761397e+01 0.0 
0.0 0.0 -2.694747283979e+01 
-1.208687140528e+02 1.793848138389e+00 0.0 
1.793848138389e+00 -2.892070325247e+02 0.0 
0.0 0.0 -1.226227239733e+02 
-1.081387984765e+02 -6.160292171064e-01 0.0 
-6.160292171064e-01 -2.508409402743e+02 0.0 
0.0 0.0 -1.072939216252e+02 
-1.892354722759e+01 -9.479352037812e-01 0.0 
-9.479352037812e-01 -4.612030866198e+01 0.0 
0.0 0.0 -1.911315676687e+01 
-6.212938147714e+01 7.396433025119e-01 0.0 
7.396433025119e-01 -1.519125652510e+02 0.0 
0.0 0.0 -6.381258401844e+01 
-3.630985156910e+01 5.341384088715e-01 0.0 
5.341384088715e-01 -8.868997453122e+01 0.0 
0.0 0.0 -3.709994783010e+01 
-1.077373168271e+02 1.026448968653e+00 0.0 
1.026448968653e+00 -2.493082344484e+02 0.0 
0.0 0.0 -1.067136653826e+02 
-6.587998683870e+01 8.148477457072e-01 0.0 
8.148477457072e-01 -1.604648791216e+02 0.0 
0.0 0.0 -6.750345978809e+01 
-1.120056895658e+02 1.899572402597e-01 0.0 
1.899572402597e-01 -2.694487703715e+02 0.0 
0.0 0.0 -1.140363379812e+02 
-6.100621508405e+01 7.493637711118e-01 0.0 
7.493637711118e-01 -1.495419758853e+02 0.0 
0.0 0.0 -6.276445729079e+01 
-1.294000634911e+02 1.121790112922e+00 0.0 
1.121790112922e+00 -3.011903469764e+02 0.0 
0.0 0.0 -1.287771231402e+02 
-5.356858624558e+01 -8.687031381869e-01 0.0 
-8.687031381869e-01 -1.319651938632e+02 0.0 
0.0 0.0 -5.526013403262e+01 
-1.217546460242e+02 2.119367063456e+00 0.0 
2.119367063456e+00 -2.912659691538e+02 0.0 
0.0 0.0 -1.235061845534e+02 
-3.732551647334e+01 4.880669388899e-01 0.0 
4.880669388899e-01 -9.242158203844e+01 0.0 
0.0 0.0 -3.852412955353e+01 
-1.170472307188e+02 1.887602133017e+00 0.0 
1.887602133017e+00 -2.806115119498e+02 0.0 
0.0 0.0 -1.188976228006e+02 
-8.947980014965e+01 8.022630429502e-01 0.0 
8.022630429502e-01 -2.168550312953e+02 0.0 
0.0 0.0 -9.150044943349e+01 
-1.243869917671e+02 1.943930799318e-01 0.0 
1.943930799318e-01 -2.973192347945e+02 0.0 
0.0 0.0 -1.261118679685e+02 
-5.868760094992e+01 1.804671643632e+00 0.0 
1.804671643632e+00 -1.457568565336e+02 0.0 
0.0 0.0 -6.093333724506e+01 
-3.567894928803e+01 -9.684475428158e-01 0.0 
-9.684475428158e-01 -8.788233687167e+01 0.0 
0.0 0.0 -3.666838584791e+01 
-1.001642885345e+02 9.170695690468e-01 0.0 
9.170695690468e-01 -2.315004737231e+02 0.0 
0.0 0.0 -9.909942867726e+01 
-1.115368046427e+02 3.256262484981e+00 0.0 
3.256262484981e+00 -2.670355461533e+02 0.0 
0.0 0.0 -1.131717052388e+02 
-7.700406393323e+01 1.726626753261e+00 0.0 
1.726626753261e+00 -1.755630149025e+02 0.0 
0.0 0.0 -7.537012365072e+01 
-1.083196000281e+02 1.039506516696e+00 0.0 
1.039506516696e+00 -2.509957315337e+02 0.0 
0.0 0.0 -1.073945994685e+02 
-4.154860249874e+01 6.828460546090e-01 0.0 
6.828460546090e-01 -1.032503042632e+02 0.0 
0.0 0.0 -4.303967202859e+01 
-1.105549493759e+02 -3.344773950102e-01 0.0 
-3.344773950102e-01 -2.559106203626e+02 0.0 
0.0 0.0 -1.095396709215e+02 
-3.233224351839e+01 5.534052584072e-01 0.0 
5.534052584072e-01 -7.978606216868e+01 0.0 
0.0 0.0 -3.323549170612e+01 
-1.389770239596e+02 2.411496437324e+00 0.0 
2.411496437324e+00 -3.297992276207e+02 0.0 
0.0 0.0 -1.402328754741e+02 
-1.162177399646e+02 3.490827669445e+00 0.0 
3.490827669445e+00 -2.771640263149e+02 0.0 
0.0 0.0 -1.176145298838e+02 
-1.227925793189e+02 4.160247344911e+00 0.0 
4.160247344911e+00 -2.889692131990e+02 0.0 
0.0 0.0 -1.231285377554e+02 
-1.406616144884e+02 1.417375579636e+00 0.0 
1.417375579636e+00 -3.279420190719e+02 0.0 
0.0 0.0 -1.401810900681e+02 
-9.724565837262e+01 2.030665323404e+00 0.0 
2.030665323404e+00 -2.354565325845e+02 0.0 
0.0 0.0 -9.941065728713e+01 
-3.325633938162e+01 -1.008061766391e+00 0.0 
-1.008061766391e+00 -8.220951905556e+01 0.0 
0.0 0.0 -3.423975753115e+01 
-1.094317018317e+02 2.074594074572e+00 0.0 
2.074594074572e+00 -2.633416313970e+02 0.0 
0.0 0.0 -1.114319999686e+02 
-1.434367456863e+02 1.085052709703e+00 0.0 
1.085052709703e+00 -3.398004240436e+02 0.0 
0.0 0.0 -1.445711509190e+02 
-5.361578944727e+01 1.154216695188e+00 0.0 
1.154216695188e+00 -1.330764238909e+02 0.0 
0.0 0.0 -5.560766400144e+01 
-1.247035048569e+02 1.702881319280e+00 0.0 
1.702881319280e+00 -2.977826644781e+02 0.0 
0.0 0.0 -1.263458508005e+02 
-1.204487803530e+02 1.158827569499e+00 0.0 
1.158827569499e+00 -2.795859917271e+02 0.0 
0.0 0.0 -1.196104316240e+02 
-4.153980078724e+01 -2.093441997852e-01 0.0 
-2.093441997852e-01 -1.050526462837e+02 0.0 
0.0 0.0 -4.357773412129e+01 
-1.132382432945e+02 1.979360902532e+00 0.0 
1.979360902532e+00 -2.719960076165e+02 0.0 
0.0 0.0 -1.151702752733e+02 
-9.885521115838e+01 1.043661210469e+00 0.0 
1.043661210469e+00 -2.278332258154e+02 0.0 
0.0 0.0 -9.760653109215e+01 
-4.854561479022e+01 5.896532931491e-01 0.0 
5.896532931491e-01 -1.189514533986e+02 0.0 
0.0 0.0 -4.984912045665e+01 
-5.848793145781e+01 7.050802082724e-01 0.0 
7.050802082724e-01 -1.434173942570e+02 0.0 
0.0 0.0 -6.017159771444e+01 
-9.301869947471e+01 3.676034668364e+00 0.0 
3.676034668364e+00 -2.136857994302e+02 0.0 
0.0 0.0 -9.161134967149e+01 
-1.205301580497e+02 3.013015761729e-01 0.0 
3.013015761729e-01 -2.887346416113e+02 0.0 
0.0 0.0 -1.223794398983e+02 
-7.020710693937e+01 2.809328928480e+00 0.0 
2.809328928480e+00 -1.582922471102e+02 0.0 
0.0 0.0 -6.814980621489e+01 
-8.856435175825e+01 3.865438319047e+00 0.0 
3.865438319047e+00 -2.038768263700e+02 0.0 
0.0 0.0 -8.733235343848e+01 
-1.149906558262e+02 -3.483145072928e-01 0.0 
-3.483145072928e-01 -2.665667313388e+02 0.0 
0.0 0.0 -1.140672161495e+02 
-1.035718061039e+02 -6.550598708675e-01 0.0 
-6.550598708675e-01 -2.400249578002e+02 0.0 
0.0 0.0 -1.026790291712e+02 
-1.023416923552e+02 -4.435312812614e-01 0.0 
-4.435312812614e-01 -2.364453956289e+02 0.0 
0.0 0.0 -1.012361263952e+02 
-8.918065003129e+01 -4.826212999507e-01 0.0 
-4.826212999507e-01 -2.163264737510e+02 0.0 
0.0 0.0 -9.125213713469e+01 
-1.359556105192e+02 2.854177051472e+00 0.0 
2.854177051472e+00 -3.228191935097e+02 0.0 
0.0 0.0 -1.372324412087e+02 
-1.056277958149e+02 2.184627259436e+00 0.0 
2.184627259436e+00 -2.546443525977e+02 0.0 
0.0 0.0 -1.076816445238e+02 
-9.931110531828e+01 9.248501024499e-01 0.0 
9.248501024499e-01 -2.296945786775e+02 0.0 
0.0 0.0 -9.830170519872e+01 
-1.409946061802e+02 3.193887453191e+00 0.0 
3.193887453191e+00 -3.265988128487e+02 0.0 
0.0 0.0 -1.398780257087e+02 
-1.273860615248e+02 4.254228179034e+00 0.0 
4.254228179034e+00 -2.988281360251e+02 0.0 
0.0 0.0 -1.274642592650e+02 
-1.166927277712e+02 4.026294023102e-01 0.0 
4.026294023102e-01 -2.801338150005e+02 0.0 
0.0 0.0 -1.186479628315e+02 
-1.239125668572e+02 -3.615655211793e-01 0.0 
-3.615655211793e-01 -2.880254224163e+02 0.0 
0.0 0.0 -1.231813967821e+02 
-6.738154296774e+01 9.842141017787e-01 0.0 
9.842141017787e-01 -1.651763216401e+02 0.0 
0.0 0.0 -6.936735938235e+01 
-6.293121385540e+01 8.267773886829e-01 0.0 
8.267773886829e-01 -1.543207006292e+02 0.0 
0.0 0.0 -6.477557434539e+01 
-3.441800372748e+01 4.367623648909e-01 0.0 
4.367623648909e-01 -8.499321111985e+01 0.0 
0.0 0.0 -3.542336445420e+01 
-1.140875789851e+02 2.326855332186e+00 0.0 
2.326855332186e+00 -2.738699211295e+02 0.0 
0.0 0.0 -1.159872500344e+02 
-6.655642427582e+01 8.489415401928e-01 0.0 
8.489415401928e-01 -1.628249314559e+02 0.0 
0.0 0.0 -6.841440671953e+01 
-1.115432251208e+02 1.162189966553e+00 0.0 
1.162189966553e+00 -2.580992349999e+02 0.0 
0.0 0.0 -1.104927380362e+02 
-1.071016643692e+02 1.176258732765e+00 0.0 
1.176258732765e+00 -2.474010705154e+02 0.0 
0.0 0.0 -1.059508204654e+02 
-8.863064061683e+01 4.005350351542e+00 0.0 
4.005350351542e+00 -2.119779244283e+02 0.0 
0.0 0.0 -8.978256951353e+01 
-5.440532307371e+01 -7.614241587336e-01 0.0 
-7.614241587336e-01 -1.344424367457e+02 0.0 
0.0 0.0 -5.625432794583e+01 
-5.616146730357e+01 2.937014615569e+00 0.0 
2.937014615569e+00 -1.367985281621e+02 0.0 
0.0 0.0 -5.748799863971e+01 
-5.799877581249e+01 -7.576211232598e-01 0.0 
-7.576211232598e-01 -1.428855837348e+02 0.0 
0.0 0.0 -5.986530786419e+01 
-6.243286723252e+01 -6.187444462979e-01 0.0 
-6.187444462979e-01 -1.537902275978e+02 0.0 
0.0 0.0 -6.446692844909e+01 
-3.761209760893e+01 -1.022079746638e+00 0.0 
-1.022079746638e+00 -9.300611784152e+01 0.0 
0.0 0.0 -3.878546463514e+01 
-1.320754914962e+02 3.014291741793e+00 0.0 
3.014291741793e+00 -3.140262265524e+02 0.0 
0.0 0.0 -1.334305154146e+02 
-7.580904827241e+01 5.148192812723e-02 0.0 
5.148192812723e-02 -1.862127687708e+02 0.0 
0.0 0.0 -7.820654511297e+01 
-1.286879217714e+02 1.228045136754e+00 0.0 
1.228045136754e+00 -2.992161396322e+02 0.0 
0.0 0.0 -1.279712184211e+02 
-8.029110993721e+01 3.307957908733e-01 0.0 
3.307957908733e-01 -1.967954669928e+02 0.0 
0.0 0.0 -8.272597307901e+01 
-1.090655248342e+02 6.156540774244e-01 0.0 
6.156540774244e-01 -2.628677041023e+02 0.0 
0.0 0.0 -1.111799686810e+02 
-9.226441425327e+01 3.458625344919e-01 0.0 
3.458625344919e-01 -2.244447049336e+02 0.0 
0.0 0.0 -9.461273575606e+01 
-8.740116502914e+01 4.214894155608e+00 0.0 
4.214894155608e+00 -2.032191688269e+02 0.0 
0.0 0.0 -8.678610015680e+01 
-3.802224132884e+01 4.451312575644e-01 0.0 
4.451312575644e-01 -9.352680686715e+01 0.0 
0.0 0.0 -3.906471445880e+01 
-1.393867197356e+02 1.289097858853e+00 0.0 
1.289097858853e+00 -3.309159871298e+02 0.0 
0.0 0.0 -1.406908120596e+02 
-1.449808027678e+02 3.109533114494e+00 0.0 
3.109533114494e+00 -3.430935159084e+02 0.0 
0.0 0.0 -1.460222956029e+02 
-1.129662768003e+02 1.983303015589e+00 0.0 
1.983303015589e+00 -2.609155458480e+02 0.0 
0.0 0.0 -1.117645467945e+02 
-6.685839277469e+01 -4.530920766156e-01 0.0 
-4.530920766156e-01 -1.646369706349e+02 0.0 
0.0 0.0 -6.904860902288e+01 
-1.006267238949e+02 4.857471682618e-01 0.0 
4.857471682618e-01 -2.436427980368e+02 0.0 
0.0 0.0 -1.028808565795e+02 
-1.111695400553e+02 -4.767340607150e-01 0.0 
-4.767340607150e-01 -2.576682720884e+02 0.0 
0.0 0.0 -1.102513436431e+02 
-7.102178335161e+01 9.810340182786e-01 0.0 
9.810340182786e-01 -1.736745430879e+02 0.0 
0.0 0.0 -7.300889793185e+01 
-7.284190303240e+01 3.830057695435e+00 0.0 
3.830057695435e+00 -1.663099092714e+02 0.0 
0.0 0.0 -7.134554369113e+01 
-5.393978574356e+01 6.297669367386e-01 0.0 
6.297669367386e-01 -1.324537845238e+02 0.0 
0.0 0.0 -5.551807108020e+01 
-4.581530327632e+01 9.236335902997e-01 0.0 
9.236335902997e-01 -1.140436783593e+02 0.0 
0.0 0.0 -4.755769449069e+01 
-7.183101742848e+01 1.178251707055e+00 0.0 
1.178251707055e+00 -1.759697597730e+02 0.0 
0.0 0.0 -7.394023316045e+01 
-4.908825451940e+01 -8.906131670866e-01 0.0 
-8.906131670866e-01 -1.209417774968e+02 0.0 
0.0 0.0 -5.060900960487e+01 
-4.501047235701e+01 5.873871889850e-01 0.0 
5.873871889850e-01 -1.104109438793e+02 0.0 
0.0 0.0 -4.622642487090e+01 
-9.269383434913e+01 1.765413313454e+00 0.0 
1.765413313454e+00 -2.249383201557e+02 0.0 
0.0 0.0 -9.488964635145e+01 
-1.128753277179e+02 5.024198948006e-01 0.0 
5.024198948006e-01 -2.715179502211e+02 0.0 
0.0 0.0 -1.149179833817e+02 
-1.330219559087e+02 2.209705949654e+00 0.0 
2.209705949654e+00 -3.089715942204e+02 0.0 
0.0 0.0 -1.321980650387e+02 
-4.103196985902e+00 -3.088546257123e-01 0.0 
-3.088546257123e-01 -8.942819071371e+00 0.0 
0.0 0.0 -3.513804817182e+00 
-7.741125145253e+01 1.024053866393e+00 0.0 
1.024053866393e+00 -1.899572692888e+02 0.0 
0.0 0.0 -7.981055622240e+01 
-7.660449400279e+01 4.900770482716e-01 0.0 
4.900770482716e-01 -1.882649424469e+02 0.0 
0.0 0.0 -7.906083093490e+01 
-7.131406163020e+01 -2.215561751393e-01 0.0 
-2.215561751393e-01 -1.754611049483e+02 0.0 
0.0 0.0 -7.363254997356e+01 
-1.067408988860e+02 -4.603097243191e-01 0.0 
-4.603097243191e-01 -2.469789719905e+02 0.0 
0.0 0.0 -1.057159612629e+02 
-8.398421772878e+01 1.956441734326e-01 0.0 
1.956441734326e-01 -2.052845169856e+02 0.0 
0.0 0.0 -8.638062041432e+01 
-5.717937231329e+01 -8.612464962894e-01 0.0 
-8.612464962894e-01 -1.405043367756e+02 0.0 
0.0 0.0 -5.890511272666e+01 
-7.630671715158e+01 1.403702456911e+00 0.0 
1.403702456911e+00 -1.867204849558e+02 0.0 
0.0 0.0 -7.850816063220e+01 
-1.245771957439e+02 -4.888495128173e-01 0.0 
-4.888495128173e-01 -2.899567823963e+02 0.0 
0.0 0.0 -1.239601934421e+02 
-5.739293950825e+01 6.716518091119e-01 0.0 
6.716518091119e-01 -1.409354651083e+02 0.0 
0.0 0.0 -5.909852138496e+01 
-2.202500358448e+01 -9.474007788528e-01 0.0 
-9.474007788528e-01 -5.408321532686e+01 0.0 
0.0 0.0 -2.243246567340e+01 
-2.979399864866e+01 -1.007787453802e+00 0.0 
-1.007787453802e+00 -7.372542938226e+01 0.0 
0.0 0.0 -3.065582840928e+01 
-4.870878043828e+01 -4.230256319257e-01 0.0 
-4.230256319257e-01 -1.218453511691e+02 0.0 
0.0 0.0 -5.076623948222e+01 
-5.884353572493e+01 -5.900832449900e-01 0.0 
-5.900832449900e-01 -1.454384854735e+02 0.0 
0.0 0.0 -6.088460635952e+01 
-8.108637923572e+01 7.986470181437e-01 0.0 
7.986470181437e-01 -1.986031136905e+02 0.0 
0.0 0.0 -8.350684787787e+01 
-8.077161862534e+01 1.669853232788e+00 0.0 
1.669853232788e+00 -1.973132566032e+02 0.0 
0.0 0.0 -8.302546256855e+01 
-3.369858140879e+01 5.884258423429e-01 0.0 
5.884258423429e-01 -8.368066606498e+01 0.0 
0.0 0.0 -3.481377424213e+01 
-2.985470799876e+01 4.795768282589e-01 0.0 
4.795768282589e-01 -7.406402772904e+01 0.0 
0.0 0.0 -3.077562071834e+01 
-1.016586058789e+02 1.391287424516e+00 0.0 
1.391287424516e+00 -2.343419502781e+02 0.0 
0.0 0.0 -1.004001668471e+02 
-4.948460768663e+01 6.297875604357e-01 0.0 
6.297875604357e-01 -1.214415284148e+02 0.0 
0.0 0.0 -5.087784083044e+01 
-1.270181500831e+02 1.256133748974e+00 0.0 
1.256133748974e+00 -3.031258438248e+02 0.0 
0.0 0.0 -1.286431981724e+02 
-1.288303635155e+02 2.218480997148e+00 0.0 
2.218480997148e+00 -2.990813963070e+02 0.0 
0.0 0.0 -1.279735279468e+02 
-1.045424242432e+02 1.948615639714e+00 0.0 
1.948615639714e+00 -2.393815697538e+02 0.0 
0.0 0.0 -1.027771981991e+02 
-1.306855179141e+02 3.512088493637e-02 0.0 
3.512088493637e-02 -3.037636218336e+02 0.0 
0.0 0.0 -1.299347419243e+02 
-1.373262067771e+02 2.156119807187e+00 0.0 
2.156119807187e+00 -3.188833539220e+02 0.0 
0.0 0.0 -1.364628682097e+02 
-8.506996705261e+01 4.203219419816e+00 0.0 
4.203219419816e+00 -2.027116448288e+02 0.0 
0.0 0.0 -8.593448356441e+01 
-1.208839776247e+02 2.090015470008e+00 0.0 
2.090015470008e+00 -2.799475082635e+02 0.0 
0.0 0.0 -1.198494457665e+02 
-3.811867677465e+01 6.783894534244e-01 0.0 
6.783894534244e-01 -9.490224001903e+01 0.0 
0.0 0.0 -3.950627503810e+01 
-7.996459110513e+01 1.354929728935e+00 0.0 
1.354929728935e+00 -1.951716891754e+02 0.0 
0.0 0.0 -8.214088408415e+01 
-7.833161195027e+01 2.845638207393e+00 0.0 
2.845638207393e+00 -1.837842535898e+02 0.0 
0.0 0.0 -7.823475966203e+01 
-4.210744520784e+01 5.859789245407e-01 0.0 
5.859789245407e-01 -1.074413479270e+02 0.0 
0.0 0.0 -4.446463794046e+01 
-3.056317395308e+01 4.920384305199e-01 0.0 
4.920384305199e-01 -7.578738333041e+01 0.0 
0.0 0.0 -3.150516718505e+01 
-6.608385259814e+01 -6.247097840056e-01 0.0 
-6.247097840056e-01 -1.623021861626e+02 0.0 
0.0 0.0 -6.811581162823e+01 
-7.708463289030e+01 1.784870045732e+00 0.0 
1.784870045732e+00 -1.887877120919e+02 0.0 
0.0 0.0 -7.936170349467e+01 
-8.150409528611e+01 2.114270264042e+00 0.0 
2.114270264042e+00 -1.990815848484e+02 0.0 
0.0 0.0 -8.377570404034e+01 
-5.261451859004e+01 -8.120899655371e-01 0.0 
-8.120899655371e-01 -1.294375613284e+02 0.0 
0.0 0.0 -5.421562397552e+01 
-8.851411732917e+01 4.740643527994e-01 0.0 
4.740643527994e-01 -2.158336618550e+02 0.0 
0.0 0.0 -9.090433375525e+01 
-7.780175586829e+01 2.285905174761e+00 0.0 
2.285905174761e+00 -1.904350091901e+02 0.0 
0.0 0.0 -8.007102951753e+01 
-8.192376879775e+01 1.362771968059e+00 0.0 
1.362771968059e+00 -2.000512443038e+02 0.0 
0.0 0.0 -8.419250393048e+01 
-5.937187690662e+01 7.998904623214e-01 0.0 
7.998904623214e-01 -1.459584125634e+02 0.0 
0.0 0.0 -6.119908684102e+01 
-1.171900183884e+02 3.851114047419e+00 0.0 
3.851114047419e+00 -2.782012316998e+02 0.0 
0.0 0.0 -1.182173750264e+02 
-1.153240334790e+02 1.275299050449e+00 0.0 
1.275299050449e+00 -2.669769363645e+02 0.0 
0.0 0.0 -1.142902909531e+02 
-7.830748947253e+01 1.621927401112e+00 0.0 
1.621927401112e+00 -1.913016351029e+02 0.0 
0.0 0.0 -8.048273737263e+01 
-1.356644693881e+02 1.382561666900e+00 0.0 
1.382561666900e+00 -3.223765966602e+02 0.0 
0.0 0.0 -1.370123198145e+02 
-4.228102287664e+01 9.980815205706e-01 0.0 
9.980815205706e-01 -1.056261649724e+02 0.0 
0.0 0.0 -4.397215635470e+01 
-1.454842235916e+02 1.890659571937e+00 0.0 
1.890659571937e+00 -3.439102240175e+02 0.0 
0.0 0.0 -1.464183342827e+02 
-8.477253517940e+01 6.174445357182e-01 0.0 
6.174445357182e-01 -2.071790822785e+02 0.0 
0.0 0.0 -8.718548523736e+01 
-1.423627018230e+02 1.910602766986e+00 0.0 
1.910602766986e+00 -3.305456020669e+02 0.0 
0.0 0.0 -1.414724911670e+02 
-1.069145699208e+02 2.825821759463e+00 0.0 
2.825821759463e+00 -2.448659953144e+02 0.0 
0.0 0.0 -1.051341695706e+02 
-4.092820808959e+01 -6.380255468284e-01 0.0 
-6.380255468284e-01 -1.026971855568e+02 0.0 
0.0 0.0 -4.268761809393e+01 
-1.081845795225e+02 2.186232773016e+00 0.0 
2.186232773016e+00 -2.478929567984e+02 0.0 
0.0 0.0 -1.064232608963e+02 
-1.337191610724e+02 3.754446498498e-01 0.0 
3.754446498498e-01 -3.106291103553e+02 0.0 
0.0 0.0 -1.329044814283e+02 
-8.930179183987e+01 9.276959949844e-01 0.0 
9.276959949844e-01 -2.174952927051e+02 0.0 
0.0 0.0 -9.163912536350e+01 
-6.291235625446e+01 4.461748747939e+00 0.0 
4.461748747939e+00 -1.450171402185e+02 0.0 
0.0 0.0 -6.197884894188e+01 
-1.118333234500e+02 2.430785465001e+00 0.0 
2.430785465001e+00 -2.564768634359e+02 0.0 
0.0 0.0 -1.100930560657e+02 
-8.491146505127e+01 1.837450617951e+00 0.0 
1.837450617951e+00 -1.943851213634e+02 0.0 
0.0 0.0 -8.338897592440e+01 
-3.317653688242e+01 -8.530433888740e-01 0.0 
-8.530433888740e-01 -8.312285872603e+01 0.0 
0.0 0.0 -3.448981868254e+01 
-1.471867030522e+02 1.781374780344e-01 0.0 
1.781374780344e-01 -3.432185811220e+02 0.0 
0.0 0.0 -1.467215852523e+02 
-2.895180229817e+01 -1.004425207398e+00 0.0 
-1.004425207398e+00 -7.243955164625e+01 0.0 
0.0 0.0 -3.001740618332e+01 
-1.434166546687e+02 4.355407716427e+00 0.0 
4.355407716427e+00 -3.366051739198e+02 0.0 
0.0 0.0 -1.436065485765e+02 
-1.364583218699e+02 -3.056110668395e-01 0.0 
-3.056110668395e-01 -3.182360794283e+02 0.0 
0.0 0.0 -1.360083203894e+02 
-1.209269941813e+02 3.723764965877e+00 0.0 
3.723764965877e+00 -2.872904458333e+02 0.0 
0.0 0.0 -1.220652320044e+02 
-1.028246296525e+02 -6.355716361072e-01 0.0 
-6.355716361072e-01 -2.379435076310e+02 0.0 
0.0 0.0 -1.018304411851e+02 
-1.273229752363e+02 1.517636694795e+00 0.0 
1.517636694795e+00 -2.954043204632e+02 0.0 
0.0 0.0 -1.264181887098e+02 
-8.223049223443e+01 2.641792975173e+00 0.0 
2.641792975173e+00 -2.004787553647e+02 0.0 
0.0 0.0 -8.441277427974e+01 
-9.687606923830e+01 3.976311839806e+00 0.0 
3.976311839806e+00 -2.309275535453e+02 0.0 
0.0 0.0 -9.794108683509e+01 
-1.389163447768e+02 1.315583187038e-01 0.0 
1.315583187038e-01 -3.231952008922e+02 0.0 
0.0 0.0 -1.382334637007e+02 
-1.214054063382e+02 6.284900800772e-01 0.0 
6.284900800772e-01 -2.907855117721e+02 0.0 
0.0 0.0 -1.232572754331e+02 
-1.191457974606e+02 1.389726111630e+00 0.0 
1.389726111630e+00 -2.758597015018e+02 0.0 
0.0 0.0 -1.181016496887e+02 
-1.151337998811e+02 1.620161809472e+00 0.0 
1.620161809472e+00 -2.757313098490e+02 0.0 
0.0 0.0 -1.168595329190e+02 
-3.739927896374e+01 -5.558738923894e-01 0.0 
-5.558738923894e-01 -9.431939032199e+01 0.0 
0.0 0.0 -3.911560078572e+01 
-1.229581917956e+02 1.533737027291e+00 0.0 
1.533737027291e+00 -2.846939461496e+02 0.0 
0.0 0.0 -1.218956413836e+02 
-1.522225422185e+02 3.611598331090e+00 0.0 
3.611598331090e+00 -3.544120712484e+02 0.0 
0.0 0.0 -1.515903840401e+02 
-1.447114153350e+02 1.430123555365e+00 0.0 
1.430123555365e+00 -3.424454292179e+02 0.0 
0.0 0.0 -1.457470533659e+02 
-7.948387704366e+01 -5.339019349512e-02 0.0 
-5.339019349512e-02 -1.946604939011e+02 0.0 
0.0 0.0 -8.184331128344e+01 
-1.031931960546e+02 1.091536889018e+00 0.0 
1.091536889018e+00 -2.383306146405e+02 0.0 
0.0 0.0 -1.020571432085e+02 
-9.837920032751e+01 -6.275575957871e-01 0.0 
-6.275575957871e-01 -2.273565346024e+02 0.0 
0.0 0.0 -9.732072047898e+01 
-8.519797800336e+01 1.986153925546e+00 0.0 
1.986153925546e+00 -2.076603095808e+02 0.0 
0.0 0.0 -8.745748627526e+01 
-1.175729607190e+02 7.381807073080e-01 0.0 
7.381807073080e-01 -2.821151993130e+02 0.0 
0.0 0.0 -1.195064480096e+02 
-1.222908113600e+02 9.888719078221e-01 0.0 
9.888719078221e-01 -2.926457936479e+02 0.0 
0.0 0.0 -1.240809815024e+02 
-2.665404411408e+01 4.536495331494e-01 0.0 
4.536495331494e-01 -6.541824750640e+01 0.0 
0.0 0.0 -2.722168748614e+01 
-4.806805620665e+01 3.037187707314e+00 0.0 
3.037187707314e+00 -1.182777597517e+02 0.0 
0.0 0.0 -4.950374478751e+01 
-8.292001002365e+01 1.925620885697e+00 0.0 
1.925620885697e+00 -2.012404019156e+02 0.0 
0.0 0.0 -8.484812358178e+01 
-7.855173800147e+01 2.891091339392e+00 0.0 
2.891091339392e+00 -1.917099605065e+02 0.0 
0.0 0.0 -8.067850955239e+01 
-8.397821537484e+01 2.321984613956e+00 0.0 
2.321984613956e+00 -1.936773007496e+02 0.0 
0.0 0.0 -8.289665483733e+01 
-1.436155273419e+02 1.658677742882e+00 0.0 
1.658677742882e+00 -3.340915987371e+02 0.0 
0.0 0.0 -1.429121378237e+02 
-1.360114847059e+02 1.147536043265e+00 0.0 
1.147536043265e+00 -3.157380605883e+02 0.0 
0.0 0.0 -1.351248635883e+02 
-1.367503991998e+02 1.261631760507e+00 0.0 
1.261631760507e+00 -3.185361907564e+02 0.0 
0.0 0.0 -1.361859769869e+02 
-7.459120246536e+01 2.602112341020e+00 0.0 
2.602112341020e+00 -1.684149643489e+02 0.0 
0.0 0.0 -7.250185004428e+01 
-1.256570024274e+02 2.401450544559e-01 0.0 
2.401450544559e-01 -2.911979203035e+02 0.0 
0.0 0.0 -1.246564768193e+02 
-1.179146769766e+02 2.216767286038e+00 0.0 
2.216767286038e+00 -2.825819222445e+02 0.0 
0.0 0.0 -1.197489797663e+02 
-1.394734650849e+02 -8.395584479819e-02 0.0 
-8.395584479819e-02 -3.252171698231e+02 0.0 
0.0 0.0 -1.390071904724e+02 
-1.185815114604e+02 1.551039820210e+00 0.0 
1.551039820210e+00 -2.739911463538e+02 0.0 
0.0 0.0 -1.173717973443e+02 
-8.444816685188e+01 1.595076195085e+00 0.0 
1.595076195085e+00 -2.057918158241e+02 0.0 
0.0 0.0 -8.667199480279e+01 
-7.935620074788e+01 2.197664145006e+00 0.0 
2.197664145006e+00 -1.922863547111e+02 0.0 
0.0 0.0 -8.109276663769e+01 
-1.225219374299e+02 -9.029001039832e-02 0.0 
-9.029001039832e-02 -2.842373888505e+02 0.0 
0.0 0.0 -1.216277978841e+02 
-1.355043741689e+02 1.643399171190e+00 0.0 
1.643399171190e+00 -3.149757315013e+02 0.0 
0.0 0.0 -1.347440317011e+02 
-1.232055209429e+02 -2.533928172440e-01 0.0 
-2.533928172440e-01 -2.861169111850e+02 0.0 
0.0 0.0 -1.223967296384e+02 
-1.187610373212e+02 -2.302029333026e-01 0.0 
-2.302029333026e-01 -2.754262040925e+02 0.0 
0.0 0.0 -1.178561724241e+02 
-1.347496310746e+02 9.658973816116e-01 0.0 
9.658973816116e-01 -3.206326139149e+02 0.0 
0.0 0.0 -1.362146734968e+02 
-1.396613906481e+02 4.348494529400e+00 0.0 
4.348494529400e+00 -3.275136705301e+02 0.0 
0.0 0.0 -1.397525183534e+02 
-1.308985270676e+02 1.107281617533e+00 0.0 
1.107281617533e+00 -3.118910809843e+02 0.0 
0.0 0.0 -1.324368824156e+02 
-1.044100334452e+02 3.766923999317e-01 0.0 
3.766923999317e-01 -2.522645749736e+02 0.0 
0.0 0.0 -1.066023825256e+02 
-7.146198538984e+01 1.208439527552e-01 0.0 
1.208439527552e-01 -1.617126253303e+02 0.0 
0.0 0.0 -6.955238321604e+01 
-1.255194856450e+02 3.889177780246e+00 0.0 
3.889177780246e+00 -2.971997751665e+02 0.0 
0.0 0.0 -1.264157782434e+02 
-1.170200356734e+02 2.604823246537e-01 0.0 
2.604823246537e-01 -2.701443777369e+02 0.0 
0.0 0.0 -1.157493240231e+02 
-4.463610127014e+01 -8.902520751412e-01 0.0 
-8.902520751412e-01 -1.099324400067e+02 0.0 
0.0 0.0 -4.597056238306e+01 
-8.306952773185e+01 3.235501924149e+00 0.0 
3.235501924149e+00 -2.016059562115e+02 0.0 
0.0 0.0 -8.500264518302e+01 
-9.470854842795e+01 1.731558413614e+00 0.0 
1.731558413614e+00 -2.287760204083e+02 0.0 
0.0 0.0 -9.664537065087e+01 
-1.051649324479e+02 3.961469632154e+00 0.0 
3.961469632154e+00 -2.499634633478e+02 0.0 
0.0 0.0 -1.061385187387e+02 
-4.254116695999e+01 1.453830244300e+00 0.0 
1.453830244300e+00 -1.084729669976e+02 0.0 
0.0 0.0 -4.490424018728e+01 
-7.943217962290e+01 3.509632590057e+00 0.0 
3.509632590057e+00 -1.926352300783e+02 0.0 
0.0 0.0 -8.122022291037e+01 
-1.134898993928e+02 3.973219901743e+00 0.0 
3.973219901743e+00 -2.690601767798e+02 0.0 
0.0 0.0 -1.143650228518e+02 
-8.283911144615e+01 5.706734144487e-01 0.0 
5.706734144487e-01 -1.883084867229e+02 0.0 
0.0 0.0 -8.094427945071e+01 
-8.771368028895e+01 9.967413019451e-02 0.0 
9.967413019451e-02 -2.138411218987e+02 0.0 
0.0 0.0 -9.006644065628e+01 
-1.103819455794e+02 1.421905792713e+00 0.0 
1.421905792713e+00 -2.543958595115e+02 0.0 
0.0 0.0 -1.090333415273e+02 
-8.573383764693e+01 -6.095108710062e-01 0.0 
-6.095108710062e-01 -1.976449272502e+02 0.0 
0.0 0.0 -8.461362946914e+01 
-9.013108940394e+00 9.483994631564e-01 0.0 
9.483994631564e-01 -2.040675601828e+01 0.0 
0.0 0.0 -8.425959487601e+00 
-1.010229695549e+02 1.925864916786e+00 0.0 
1.925864916786e+00 -2.441258514285e+02 0.0 
0.0 0.0 -1.031446462950e+02 
-1.244697665050e+02 2.102170520171e+00 0.0 
2.102170520171e+00 -2.958961452131e+02 0.0 
0.0 0.0 -1.257097735154e+02 
-1.402632530480e+02 9.563532448466e-01 0.0 
9.563532448466e-01 -3.259817149425e+02 0.0 
0.0 0.0 -1.394734903971e+02 
-9.221914835975e+01 2.365530005888e+00 0.0 
2.365530005888e+00 -2.208437705566e+02 0.0 
0.0 0.0 -9.351887567490e+01 
-9.602431796999e+01 2.396149248868e-01 0.0 
2.396149248868e-01 -2.330445704155e+02 0.0 
0.0 0.0 -9.832066651565e+01 
-1.108904300103e+02 1.268414944282e+00 0.0 
1.268414944282e+00 -2.563124670387e+02 0.0 
0.0 0.0 -1.097608691147e+02 
-1.743593936080e+01 2.655285761814e-01 0.0 
2.655285761814e-01 -3.943341722174e+01 0.0 
0.0 0.0 -1.666080697476e+01 
-1.207407482561e+02 2.231505349276e+00 0.0 
2.231505349276e+00 -2.868895706740e+02 0.0 
0.0 0.0 -1.218890956790e+02 
-1.005026820158e+02 3.794096673313e+00 0.0 
3.794096673313e+00 -2.400953177919e+02 0.0 
0.0 0.0 -1.017793999423e+02 
-8.759780290710e+01 2.185639039150e+00 0.0 
2.185639039150e+00 -1.988971005682e+02 0.0 
0.0 0.0 -8.554847104258e+01 
-1.226112243470e+02 2.462594906694e+00 0.0 
2.462594906694e+00 -2.931002000994e+02 0.0 
0.0 0.0 -1.243134273339e+02 
-4.292440353030e+01 1.519098242934e+00 0.0 
1.519098242934e+00 -1.079601902521e+02 0.0 
0.0 0.0 -4.486537813473e+01 
-1.273404042776e+02 2.729002588617e+00 0.0 
2.729002588617e+00 -3.035831471345e+02 0.0 
0.0 0.0 -1.288770654236e+02 
-1.404382532388e+02 1.613117374785e+00 0.0 
1.613117374785e+00 -3.329168628066e+02 0.0 
0.0 0.0 -1.416065348136e+02 
-1.170429393992e+02 2.355430591019e+00 0.0 
2.355430591019e+00 -2.778176500922e+02 0.0 
0.0 0.0 -1.180581768474e+02 
-1.235398017787e+02 1.372639093188e+00 0.0 
1.372639093188e+00 -2.865371798106e+02 0.0 
0.0 0.0 -1.226230944768e+02 
-1.284109880813e+02 4.108585738240e+00 0.0 
4.108585738240e+00 -2.986383940270e+02 0.0 
0.0 0.0 -1.277148146325e+02 
-1.408133107343e+02 3.184364987590e+00 0.0 
3.184364987590e+00 -3.333614528071e+02 0.0 
0.0 0.0 -1.418524290624e+02 
-2.621143967669e+01 -1.089169105433e-01 0.0 
-1.089169105433e-01 -5.919216601274e+01 0.0 
0.0 0.0 -2.522108170683e+01 
-1.147731188393e+02 1.384216935468e+00 0.0 
1.384216935468e+00 -2.651718365904e+02 0.0 
0.0 0.0 -1.135834866289e+02 
-1.400964802608e+02 4.360598610008e+00 0.0 
4.360598610008e+00 -3.276888900044e+02 0.0 
0.0 0.0 -1.399356110796e+02 
-1.269386485606e+02 -1.206437505510e-01 0.0 
-1.206437505510e-01 -2.949636801127e+02 0.0 
0.0 0.0 -1.261706986020e+02 
-1.087378856227e+02 2.333560542774e+00 0.0 
2.333560542774e+00 -2.587632461605e+02 0.0 
0.0 0.0 -1.098503395350e+02 
-8.399575919116e+01 3.798096042233e+00 0.0 
3.798096042233e+00 -2.022887328237e+02 0.0 
0.0 0.0 -8.548534760445e+01 
-9.442268239409e+01 -2.674686077982e-01 0.0 
-2.674686077982e-01 -2.288712261707e+02 0.0 
0.0 0.0 -9.658817256942e+01 
-2.328421909010e+01 1.223300667144e+00 0.0 
1.223300667144e+00 -6.268575784259e+01 0.0 
0.0 0.0 -2.539099307981e+01 
-1.313729355187e+02 -1.658621581327e-01 0.0 
-1.658621581327e-01 -3.056584762011e+02 0.0 
0.0 0.0 -1.307094235159e+02 
-4.825775112101e+01 -8.979270971338e-01 0.0 
-8.979270971338e-01 -1.185544333678e+02 0.0 
0.0 0.0 -4.964365534663e+01 
-3.478476588277e+01 -1.423637904805e-01 0.0 
-1.423637904805e-01 -7.826366399966e+01 0.0 
0.0 0.0 -3.351452896473e+01 
-1.247894118791e+02 3.912830256113e+00 0.0 
3.912830256113e+00 -2.894457021344e+02 0.0 
0.0 0.0 -1.238705342040e+02 
-1.404355673814e+02 -2.115091496336e-01 0.0 
-2.115091496336e-01 -3.275475543713e+02 0.0 
0.0 0.0 -1.399949365258e+02 
-3.880329957771e+01 1.076313116926e+00 0.0 
1.076313116926e+00 -9.740811658930e+01 0.0 
0.0 0.0 -4.046342485010e+01 
-9.743876161168e+01 3.499126267061e+00 0.0 
3.499126267061e+00 -2.235746292567e+02 0.0 
0.0 0.0 -9.590401726052e+01 
-1.181365500755e+02 -8.915246357754e-02 0.0 
-8.915246357754e-02 -2.735325022922e+02 0.0 
0.0 0.0 -1.171007157103e+02 
-9.190750566587e+01 1.464389392259e+00 0.0 
1.464389392259e+00 -2.229566413567e+02 0.0 
0.0 0.0 -9.405924410678e+01 
-4.320860469271e+01 2.497166015164e+00 0.0 
2.497166015164e+00 -1.089914197712e+02 0.0 
0.0 0.0 -4.526000733918e+01 
-5.840311735069e+01 2.928019160066e+00 0.0 
2.928019160066e+00 -1.351883400416e+02 0.0 
0.0 0.0 -5.767743721768e+01 
-3.011154765118e+01 -6.531586134605e-01 0.0 
-6.531586134605e-01 -7.532264252268e+01 0.0 
0.0 0.0 -3.123025705216e+01 
-3.806340514542e+01 -2.188784281219e-02 0.0 
-2.188784281219e-02 -9.689860476770e+01 0.0 
0.0 0.0 -4.008860297394e+01 
-3.396963454509e+01 -4.490057502838e-01 0.0 
-4.490057502838e-01 -8.637080997194e+01 0.0 
0.0 0.0 -3.570213335511e+01 
-1.004644177664e+02 2.340787555480e+00 0.0 
2.340787555480e+00 -2.397690401238e+02 0.0 
0.0 0.0 -1.016700373671e+02 
-1.571496375800e+02 1.519570362212e+00 0.0 
1.519570362212e+00 -3.663491700115e+02 0.0 
0.0 0.0 -1.566496422774e+02 
-4.330515294581e+01 -2.331580965867e-01 0.0 
-2.331580965867e-01 -9.757115612871e+01 0.0 
0.0 0.0 -4.186289272236e+01 
-1.386674763830e+02 8.810219182604e-01 0.0 
8.810219182604e-01 -3.293128255753e+02 0.0 
0.0 0.0 -1.399940905875e+02 
-7.237886947026e+01 2.722692772363e+00 0.0 
2.722692772363e+00 -1.740841870779e+02 0.0 
0.0 0.0 -7.353891696446e+01 
-1.142366338442e+02 1.580790679100e+00 0.0 
1.580790679100e+00 -2.634206978103e+02 0.0 
0.0 0.0 -1.128971994964e+02 
-3.094319329564e+01 1.699032312816e+00 0.0 
1.699032312816e+00 -8.123317543551e+01 0.0 
0.0 0.0 -3.325291061934e+01 
-1.455247924877e+02 3.409679847867e+00 0.0 
3.409679847867e+00 -3.438036391973e+02 0.0 
0.0 0.0 -1.463985295055e+02 
-3.487650499321e+01 6.612673814824e-01 0.0 
6.612673814824e-01 -8.690801919141e+01 0.0 
0.0 0.0 -3.613535725539e+01 
-5.663622420459e+01 -8.440393329770e-01 0.0 
-8.440393329770e-01 -1.386928733411e+02 0.0 
0.0 0.0 -5.819872926371e+01 
-1.216807253729e+02 2.479377071247e+00 0.0 
2.479377071247e+00 -2.877958857209e+02 0.0 
0.0 0.0 -1.224429833281e+02 
-8.590951670947e+01 2.452206699184e+00 0.0 
2.452206699184e+00 -2.091496760176e+02 0.0 
0.0 0.0 -8.811775781812e+01 
-1.358165248421e+02 4.306295421618e+00 0.0 
4.306295421618e+00 -3.182350960063e+02 0.0 
0.0 0.0 -1.358154862545e+02 
-6.490987087843e+01 3.847354395372e+00 0.0 
3.847354395372e+00 -1.472377805564e+02 0.0 
0.0 0.0 -6.324429543044e+01 
-1.217717309708e+02 1.855573616152e+00 0.0 
1.855573616152e+00 -2.811326129207e+02 0.0 
0.0 0.0 -1.204713031674e+02 
-1.431669947631e+02 2.753230886489e+00 0.0 
2.753230886489e+00 -3.361484209255e+02 0.0 
0.0 0.0 -1.433946247066e+02 
-1.143325171328e+02 -2.379228673126e-01 0.0 
-2.379228673126e-01 -2.647278263886e+02 0.0 
0.0 0.0 -1.133181030564e+02 
-1.405465162252e+02 2.596041048492e+00 0.0 
2.596041048492e+00 -3.264541238477e+02 0.0 
0.0 0.0 -1.397001920219e+02 
-1.267000614224e+02 1.679751785579e+00 0.0 
1.679751785579e+00 -2.934515647295e+02 0.0 
0.0 0.0 -1.256454878456e+02 
-1.304309063792e+02 1.835396931938e+00 0.0 
1.835396931938e+00 -3.022811622508e+02 0.0 
0.0 0.0 -1.294136205890e+02 
-3.675148570542e+01 3.600159091234e+00 0.0 
3.600159091234e+00 -9.031014735428e+01 0.0 
0.0 0.0 -3.771848991791e+01 
-1.338339668982e+02 6.728618089425e-01 0.0 
6.728618089425e-01 -3.185676892769e+02 0.0 
0.0 0.0 -1.353204968525e+02 
-1.219323169782e+02 8.123391278619e-02 0.0 
8.123391278619e-02 -2.823990482467e+02 0.0 
0.0 0.0 -1.208994095675e+02 
-8.978355707068e+01 2.707903257571e+00 0.0 
2.707903257571e+00 -2.119240673283e+02 0.0 
0.0 0.0 -9.011228731969e+01 
-5.163571605497e+01 -3.825217006188e-01 0.0 
-3.825217006188e-01 -1.169608426972e+02 0.0 
0.0 0.0 -5.017896762565e+01 
-1.480446618104e+02 4.484666831738e+00 0.0 
4.484666831738e+00 -3.464575469349e+02 0.0 
0.0 0.0 -1.479506626236e+02 
-4.339060651893e+01 2.589867975998e+00 0.0 
2.589867975998e+00 -1.090828549043e+02 0.0 
0.0 0.0 -4.534203842697e+01 
-5.310013783477e+01 7.217093540932e-01 0.0 
7.217093540932e-01 -1.299613421554e+02 0.0 
0.0 0.0 -5.451844399704e+01 
-1.309493826991e+02 2.602869633092e+00 0.0 
2.602869633092e+00 -3.078217650623e+02 0.0 
0.0 0.0 -1.312313443284e+02 
-3.231577879855e+01 5.796128169343e-01 0.0 
5.796128169343e-01 -7.962201978469e+01 0.0 
0.0 0.0 -3.318133957497e+01 
-9.196550541605e+01 4.043176928436e+00 0.0 
4.043176928436e+00 -2.129376379941e+02 0.0 
0.0 0.0 -9.107094302303e+01 
-1.253424092426e+02 2.420430887429e+00 0.0 
2.420430887429e+00 -2.968438096383e+02 0.0 
0.0 0.0 -1.262558656643e+02 
-1.382303351904e+02 1.870255965498e+00 0.0 
1.870255965498e+00 -3.211903155890e+02 0.0 
0.0 0.0 -1.374261952338e+02 
-1.420121318395e+02 2.041832017649e+00 0.0 
2.041832017649e+00 -3.303745842730e+02 0.0 
0.0 0.0 -1.413160148337e+02 
-1.218237428294e+02 4.010446616522e+00 0.0 
4.010446616522e+00 -2.881756976590e+02 0.0 
0.0 0.0 -1.225998321465e+02 
-1.310715427181e+02 1.667319745146e+00 0.0 
1.667319745146e+00 -3.042062634704e+02 0.0 
0.0 0.0 -1.301833418566e+02 
-7.706193138075e+01 2.805557401159e+00 0.0 
2.805557401159e+00 -1.835864112331e+02 0.0 
0.0 0.0 -7.779450278415e+01 
-1.255929824935e+02 3.695336941429e+00 0.0 
3.695336941429e+00 -2.904927870998e+02 0.0 
0.0 0.0 -1.244257308780e+02 
-6.006653200598e+01 -4.510091257972e-01 0.0 
-4.510091257972e-01 -1.364970152100e+02 0.0 
0.0 0.0 -5.856906416481e+01 
-1.385076589571e+02 1.608980791583e+00 0.0 
1.608980791583e+00 -3.219993886125e+02 0.0 
0.0 0.0 -1.377521142709e+02 
-6.840532887649e+01 -4.403708952432e-01 0.0 
-4.403708952432e-01 -1.560552360748e+02 0.0 
0.0 0.0 -6.693816948538e+01 
-7.313401801672e+01 -2.856334559344e-01 0.0 
-2.856334559344e-01 -1.659129663635e+02 0.0 
0.0 0.0 -7.131409531406e+01 
-8.868984187058e+01 2.547962126262e+00 0.0 
2.547962126262e+00 -2.116970281361e+02 0.0 
0.0 0.0 -8.971606100199e+01 
-7.689754329212e+01 -4.932052724204e-01 0.0 
-4.932052724204e-01 -1.758591436325e+02 0.0 
0.0 0.0 -7.542700607737e+01 
-1.033306693238e+02 4.117725660065e+00 0.0 
4.117725660065e+00 -2.408992262673e+02 0.0 
0.0 0.0 -1.028689686773e+02 
-8.278947149821e+01 4.360996989276e+00 0.0 
4.360996989276e+00 -1.935809283718e+02 0.0 
0.0 0.0 -8.251111996100e+01 
-8.761130251368e+01 3.547295017684e+00 0.0 
3.547295017684e+00 -2.113625949803e+02 0.0 
0.0 0.0 -8.929216924819e+01 
-3.824628202429e+01 7.894559338296e-01 0.0 
7.894559338296e-01 -9.832721332127e+01 0.0 
0.0 0.0 -4.057204860367e+01 
-8.401004445839e+01 2.406558135827e+00 0.0 
2.406558135827e+00 -2.019923013504e+02 0.0 
0.0 0.0 -8.540070374263e+01 
-1.351043360454e+02 -6.236725759448e-03 0.0 
-6.236725759448e-03 -3.145245658449e+02 0.0 
0.0 0.0 -1.344886705671e+02 
-1.404480713721e+02 1.104174004970e+00 0.0 
1.104174004970e+00 -3.262145011884e+02 0.0 
0.0 0.0 -1.395987717682e+02 
-1.252419889464e+02 5.319313367955e-01 0.0 
5.319313367955e-01 -2.993903146054e+02 0.0 
0.0 0.0 -1.269896910656e+02 
-1.392705995936e+02 2.739137805227e+00 0.0 
2.739137805227e+00 -3.270048998249e+02 0.0 
0.0 0.0 -1.394826498255e+02 
-8.556052615783e+01 1.128433255074e+00 0.0 
1.128433255074e+00 -2.087058493026e+02 0.0 
0.0 0.0 -8.787991263812e+01 
-1.300423824924e+02 2.029939161821e-01 0.0 
2.029939161821e-01 -3.018341899986e+02 0.0 
0.0 0.0 -1.291629717473e+02 
-8.754751681053e+01 2.173220217778e+00 0.0 
2.173220217778e+00 -2.110414583821e+02 0.0 
0.0 0.0 -8.917669255778e+01 
-1.377822618650e+02 5.308069656119e-01 0.0 
5.308069656119e-01 -3.271573144978e+02 0.0 
0.0 0.0 -1.390818729088e+02 
-1.262733127152e+02 7.373075578743e-02 0.0 
7.373075578743e-02 -2.929995492310e+02 0.0 
0.0 0.0 -1.253818585838e+02 
-1.260855726256e+02 1.852224778176e+00 0.0 
1.852224778176e+00 -2.916670513128e+02 0.0 
0.0 0.0 -1.249257871815e+02 
-1.123762830467e+02 2.187705563119e+00 0.0 
2.187705563119e+00 -2.678087210915e+02 0.0 
0.0 0.0 -1.136555012415e+02 
-8.051227006180e+01 2.626251301218e+00 0.0 
2.626251301218e+00 -1.928478656009e+02 0.0 
0.0 0.0 -8.160804069881e+01 
-1.333515011958e+02 3.750829573431e+00 0.0 
3.750829573431e+00 -3.092606292611e+02 0.0 
0.0 0.0 -1.323836391371e+02 
-1.064504454983e+02 1.135938411522e+00 0.0 
1.135938411522e+00 -2.443414237421e+02 0.0 
0.0 0.0 -1.048375607721e+02 
-3.901545600676e+01 1.888587034918e+00 0.0 
1.888587034918e+00 -9.890406603103e+01 0.0 
0.0 0.0 -4.097585661134e+01 
-4.361298042379e+01 3.632200111409e+00 0.0 
3.632200111409e+00 -1.094160914410e+02 0.0 
0.0 0.0 -4.550872155942e+01 
-6.803915825270e+01 2.297224240345e+00 0.0 
2.297224240345e+00 -1.556333816120e+02 0.0 
0.0 0.0 -6.670176195940e+01 
-9.716015277429e+01 1.766786411742e+00 0.0 
1.766786411742e+00 -2.231098880652e+02 0.0 
0.0 0.0 -9.568101225185e+01 
-1.417546422385e+02 3.639121160494e-01 0.0 
3.639121160494e-01 -3.359096204389e+02 0.0 
0.0 0.0 -1.428992788032e+02 
-1.223376365048e+02 1.708227089346e+00 0.0 
1.708227089346e+00 -2.828480984226e+02 0.0 
0.0 0.0 -1.211557204782e+02 
-8.042624300065e+01 4.049033079363e+00 0.0 
4.049033079363e+00 -1.931232151339e+02 0.0 
0.0 0.0 -8.166483744038e+01 
-1.096943075878e+02 3.450863390209e+00 0.0 
3.450863390209e+00 -2.523459818247e+02 0.0 
0.0 0.0 -1.082120868238e+02 
-1.291839176251e+02 2.280909630551e+00 0.0 
2.280909630551e+00 -3.061101345819e+02 0.0 
0.0 0.0 -1.301882156621e+02 
-1.317164558747e+02 1.478752918604e+00 0.0 
1.478752918604e+00 -3.060928616614e+02 0.0 
0.0 0.0 -1.309427952608e+02 
-1.373924255884e+02 3.543836364506e+00 0.0 
3.543836364506e+00 -3.191251706082e+02 0.0 
0.0 0.0 -1.365552788590e+02 
-1.094821843066e+02 -5.598570055563e-02 0.0 
-5.598570055563e-02 -2.525137928652e+02 0.0 
0.0 0.0 -1.081987931515e+02 
-1.326322241304e+02 1.869729586165e+00 0.0 
1.869729586165e+00 -3.151054946865e+02 0.0 
0.0 0.0 -1.339213156450e+02 
-9.223253816838e+01 3.793452017099e+00 0.0 
3.793452017099e+00 -2.211573750734e+02 0.0 
0.0 0.0 -9.361697397254e+01 
-1.293300010317e+02 3.789324266400e+00 0.0 
3.789324266400e+00 -3.063715534379e+02 0.0 
0.0 0.0 -1.303104663409e+02 
-9.189481480135e+01 2.339486279807e+00 0.0 
2.339486279807e+00 -2.125431272963e+02 0.0 
0.0 0.0 -9.093138262930e+01 
-1.390580698599e+02 1.701236951144e+00 0.0 
1.701236951144e+00 -3.234856082201e+02 0.0 
0.0 0.0 -1.383631034240e+02 
-1.427187773838e+02 3.788387531412e+00 0.0 
3.788387531412e+00 -3.308621963688e+02 0.0 
0.0 0.0 -1.416742921258e+02 
-1.040519016442e+02 2.167569513177e+00 0.0 
2.167569513177e+00 -2.487908301912e+02 0.0 
0.0 0.0 -1.054528195506e+02 
-3.888206520337e+01 1.938585453515e+00 0.0 
1.938585453515e+00 -9.963401017429e+01 0.0 
0.0 0.0 -4.115482261330e+01 
-1.316273188848e+02 2.590363539798e+00 0.0 
2.590363539798e+00 -3.072420748871e+02 0.0 
0.0 0.0 -1.312608181316e+02 
-9.988054808791e+01 4.022543766955e+00 0.0 
4.022543766955e+00 -2.317518350180e+02 0.0 
0.0 0.0 -9.908971493177e+01 
-7.690316808096e+01 4.284474068953e+00 0.0 
4.284474068953e+00 -1.838494751325e+02 0.0 
0.0 0.0 -7.782579296405e+01 
-1.088230414133e+02 3.809439920680e+00 0.0 
3.809439920680e+00 -2.591153327083e+02 0.0 
0.0 0.0 -1.099815122365e+02 
-1.281716755782e+02 3.150174836949e+00 0.0 
3.150174836949e+00 -3.051021775191e+02 0.0 
0.0 0.0 -1.295821559292e+02 
-3.948128160052e+01 2.890734987227e+00 0.0 
2.890734987227e+00 -1.001085350030e+02 0.0 
0.0 0.0 -4.147694498105e+01 
-9.577856508895e+01 2.169674267789e+00 0.0 
2.169674267789e+00 -2.298711252395e+02 0.0 
0.0 0.0 -9.729490709853e+01 
-1.113127243943e+02 7.912158364943e-01 0.0 
7.912158364943e-01 -2.559407501331e+02 0.0 
0.0 0.0 -1.097760423582e+02 
-1.420263308275e+02 1.934041470641e+00 0.0 
1.934041470641e+00 -3.363395425954e+02 0.0 
0.0 0.0 -1.431097620268e+02 
-1.149387740527e+02 1.045718296706e+00 0.0 
1.045718296706e+00 -2.645451228877e+02 0.0 
0.0 0.0 -1.134451690821e+02 
-1.280653176797e+02 2.415889057483e+00 0.0 
2.415889057483e+00 -2.981391950540e+02 0.0 
0.0 0.0 -1.274613538201e+02 
-1.076579290588e+02 5.607849225396e-01 0.0 
5.607849225396e-01 -2.473626116489e+02 0.0 
0.0 0.0 -1.061061622123e+02 
-1.000853398525e+02 5.861524858471e-02 0.0 
5.861524858471e-02 -2.301671013707e+02 0.0 
0.0 0.0 -9.867573236696e+01 
-1.100523288736e+02 1.397440260022e+00 0.0 
1.397440260022e+00 -2.530882457249e+02 0.0 
0.0 0.0 -1.085421723796e+02 
-1.346836716485e+02 2.588082541234e+00 0.0 
2.588082541234e+00 -3.170112130907e+02 0.0 
0.0 0.0 -1.351084654218e+02 
-1.303414881719e+02 2.266011373460e+00 0.0 
2.266011373460e+00 -3.105355092593e+02 0.0 
0.0 0.0 -1.318630992294e+02 
-1.175911724786e+02 1.124924975498e-01 0.0 
1.124924975498e-01 -2.718659743491e+02 0.0 
0.0 0.0 -1.164371440483e+02 
-1.417371442398e+02 5.728862732255e-01 0.0 
5.728862732255e-01 -3.299940513000e+02 0.0 
0.0 0.0 -1.411193586619e+02 
-1.039855910170e+02 3.298402216634e-01 0.0 
3.298402216634e-01 -2.388288046244e+02 0.0 
0.0 0.0 -1.024443186924e+02 
-6.412791527815e+01 4.169766825436e+00 0.0 
4.169766825436e+00 -1.556444050230e+02 0.0 
0.0 0.0 -6.553169609033e+01 
-1.363820922590e+02 4.218499542394e+00 0.0 
4.218499542394e+00 -3.176817037115e+02 0.0 
0.0 0.0 -1.358191387912e+02 
-1.399665755146e+02 1.654947155566e+00 0.0 
1.654947155566e+00 -3.257143578173e+02 0.0 
0.0 0.0 -1.393042799996e+02 
-9.084090786519e+01 2.631583356915e+00 0.0 
2.631583356915e+00 -2.120531843834e+02 0.0 
0.0 0.0 -9.046822767458e+01 
-9.535095716430e+01 2.489766531156e+00 0.0 
2.489766531156e+00 -2.216858031088e+02 0.0 
0.0 0.0 -9.471102808195e+01 
-7.226454630735e+01 4.111009612440e+00 0.0 
4.111009612440e+00 -1.743470015465e+02 0.0 
0.0 0.0 -7.358346435615e+01 
-1.213159359621e+02 2.500114194404e-01 0.0 
2.500114194404e-01 -2.806343276780e+02 0.0 
0.0 0.0 -1.201850790920e+02 
-7.339527162884e+01 1.352194146462e+00 0.0 
1.352194146462e+00 -1.665963581916e+02 0.0 
0.0 0.0 -7.159748894613e+01 
-1.067896964601e+02 2.527505945042e+00 0.0 
2.527505945042e+00 -2.497415684287e+02 0.0 
0.0 0.0 -1.065593794667e+02 
-7.378410203328e+01 3.201607927414e+00 0.0 
3.201607927414e+00 -1.671215199768e+02 0.0 
0.0 0.0 -7.187168660302e+01 
-1.263306466257e+02 2.547116437031e+00 0.0 
2.547116437031e+00 -2.978100248435e+02 0.0 
0.0 0.0 -1.268422014407e+02 
-1.440732928518e+02 4.145497463959e+00 0.0 
4.145497463959e+00 -3.360013685392e+02 0.0 
0.0 0.0 -1.436223984173e+02 
-7.582244584954e+01 3.811587688619e+00 0.0 
3.811587688619e+00 -1.835462087203e+02 0.0 
0.0 0.0 -7.741059637096e+01 
-2.468798779202e+01 2.047146333917e+00 0.0 
2.047146333917e+00 -6.347072238741e+01 0.0 
0.0 0.0 -2.604761305383e+01 
-1.411341338353e+02 7.414451836226e-01 0.0 
7.414451836226e-01 -3.283129086633e+02 0.0 
0.0 0.0 -1.404341127496e+02 
-7.772516801566e+01 1.193387493162e+00 0.0 
1.193387493162e+00 -1.765180121588e+02 0.0 
0.0 0.0 -7.587295405233e+01 
-9.010623776666e+01 1.445429201008e+00 0.0 
1.445429201008e+00 -2.187639955802e+02 0.0 
0.0 0.0 -9.226107000406e+01 
-1.399584901113e+02 2.665225715131e+00 0.0 
2.665225715131e+00 -3.265493472562e+02 0.0 
0.0 0.0 -1.395523512102e+02 
-1.180078627116e+02 1.710686937406e+00 0.0 
1.710686937406e+00 -2.723151482561e+02 0.0 
0.0 0.0 -1.166969032903e+02 
-1.264638873557e+02 2.354925887230e+00 0.0 
2.354925887230e+00 -3.018383510296e+02 0.0 
0.0 0.0 -1.280906715156e+02 
-7.816380140974e+01 4.443181220973e+00 0.0 
4.443181220973e+00 -1.840570714803e+02 0.0 
0.0 0.0 -7.826626186702e+01 
-1.973425071249e+01 3.427307248278e-01 0.0 
3.427307248278e-01 -5.260906310411e+01 0.0 
0.0 0.0 -2.130299414498e+01 
-1.461943526589e+02 1.895430273824e+00 0.0 
1.895430273824e+00 -3.461435286596e+02 0.0 
0.0 0.0 -1.473013643956e+02 
-1.006923497546e+02 2.010586302797e+00 0.0 
2.010586302797e+00 -2.320679525610e+02 0.0 
0.0 0.0 -9.942809069469e+01 
-1.188919331252e+02 4.248830008536e+00 0.0 
4.248830008536e+00 -2.790835919539e+02 0.0 
0.0 0.0 -1.189926575237e+02 
-1.368701104450e+02 2.380987721970e+00 0.0 
2.380987721970e+00 -3.185173143882e+02 0.0 
0.0 0.0 -1.362162274500e+02 
-1.343020565845e+01 1.264156089695e-01 0.0 
1.264156089695e-01 -3.502251177947e+01 0.0 
0.0 0.0 -1.413581523138e+01 
-1.261410825191e+02 8.546999662230e-01 0.0 
8.546999662230e-01 -3.013691938277e+02 0.0 
0.0 0.0 -1.278530829040e+02 
-5.369447807389e+01 4.933459536934e+00 0.0 
4.933459536934e+00 -1.265869630447e+02 0.0 
0.0 0.0 -5.368443233559e+01 
-1.099658721624e+02 1.557385274232e+00 0.0 
1.557385274232e+00 -2.529805960002e+02 0.0 
0.0 0.0 -1.084839404488e+02 
-1.002118864894e+02 1.608331416370e+00 0.0 
1.608331416370e+00 -2.421614005007e+02 0.0 
0.0 0.0 -1.023119860970e+02 
-7.583886492020e+01 2.465999094834e+00 0.0 
2.465999094834e+00 -1.832336004459e+02 0.0 
0.0 0.0 -7.732173960984e+01 
-1.380578032113e+02 2.019574674899e+00 0.0 
2.019574674899e+00 -3.276028622954e+02 0.0 
0.0 0.0 -1.392981996520e+02 
-1.032869472664e+02 2.473320743917e+00 0.0 
2.473320743917e+00 -2.405222445409e+02 0.0 
0.0 0.0 -1.027427575422e+02 
-6.770522852642e+01 2.521341969307e+00 0.0 
2.521341969307e+00 -1.645947413963e+02 0.0 
0.0 0.0 -6.928999097681e+01 
-1.053318917746e+02 3.579464160703e+00 0.0 
3.579464160703e+00 -2.424220365483e+02 0.0 
0.0 0.0 -1.039261784968e+02 
-2.126513461766e+01 1.094452234546e+00 0.0 
1.094452234546e+00 -5.344843225751e+01 0.0 
0.0 0.0 -2.201407006255e+01 
-1.212232571230e+02 3.759312949893e+00 0.0 
3.759312949893e+00 -2.804179930067e+02 0.0 
0.0 0.0 -1.200923750389e+02 
-1.264755495453e+02 4.132809132687e+00 0.0 
4.132809132687e+00 -2.982114000654e+02 0.0 
0.0 0.0 -1.270060848832e+02 
-1.454400966915e+02 3.379657683657e+00 0.0 
3.379657683657e+00 -3.381769276569e+02 0.0 
0.0 0.0 -1.446851073045e+02 
-1.291987246768e+02 3.881904001559e+00 0.0 
3.881904001559e+00 -2.995668617956e+02 0.0 
0.0 0.0 -1.282296759417e+02 
-5.158279205705e+01 3.741538114758e+00 0.0 
3.741538114758e+00 -1.278421055325e+02 0.0 
0.0 0.0 -5.342746927687e+01 
-1.255922049657e+02 2.017663517017e+00 0.0 
2.017663517017e+00 -2.998735139352e+02 0.0 
0.0 0.0 -1.272397156702e+02 
-1.434132286867e+02 1.344209381965e-01 0.0 
1.344209381965e-01 -3.339193439210e+02 0.0 
0.0 0.0 -1.427997717823e+02 
-1.519468596313e+02 4.556708069705e+00 0.0 
4.556708069705e+00 -3.555748206827e+02 0.0 
0.0 0.0 -1.518565040942e+02 
-1.311389165854e+02 4.208903711128e+00 0.0 
4.208903711128e+00 -3.082454801435e+02 0.0 
0.0 0.0 -1.314153190187e+02 
-8.155693556936e+01 4.356468105088e+00 0.0 
4.356468105088e+00 -1.933418974873e+02 0.0 
0.0 0.0 -8.206964991698e+01 
-1.132560089115e+02 3.668024832114e+00 0.0 
3.668024832114e+00 -2.613604700225e+02 0.0 
0.0 0.0 -1.119849436802e+02 
-1.405125301646e+02 1.101692158322e-01 0.0 
1.101692158322e-01 -3.333490016829e+02 0.0 
0.0 0.0 -1.417584595542e+02 
-9.295498621027e+01 8.754338922782e-01 0.0 
8.754338922782e-01 -2.249698989205e+02 0.0 
0.0 0.0 -9.497746553923e+01 
-1.244604230723e+02 2.284627360384e+00 0.0 
2.284627360384e+00 -2.889721754597e+02 0.0 
0.0 0.0 -1.236297795596e+02 
-1.138073972120e+02 -7.270333525335e-02 0.0 
-7.270333525335e-02 -2.629692508789e+02 0.0 
0.0 0.0 -1.126329944273e+02 
-1.341875003545e+02 2.144467236565e+00 0.0 
2.144467236565e+00 -3.190409745814e+02 0.0 
0.0 0.0 -1.355685424808e+02 
-1.311972486247e+02 2.588412757586e+00 0.0 
2.588412757586e+00 -3.123459460932e+02 0.0 
0.0 0.0 -1.326629584154e+02 
-7.988666769189e+01 4.317755904624e-02 0.0 
4.317755904624e-02 -1.845776623139e+02 0.0 
0.0 0.0 -7.893929900175e+01 
-7.988026984543e+01 -1.349243764534e-01 0.0 
-1.349243764534e-01 -1.845221127676e+02 0.0 
0.0 0.0 -7.892071478389e+01 
-1.161714645167e+02 2.426124754866e+00 0.0 
2.426124754866e+00 -2.669264688921e+02 0.0 
0.0 0.0 -1.145293800227e+02 
-1.165213914458e+02 2.176939859313e+00 0.0 
2.176939859313e+00 -2.699121482465e+02 0.0 
0.0 0.0 -1.155300619077e+02 
-1.039645852628e+02 1.527221888213e+00 0.0 
1.527221888213e+00 -2.507270067576e+02 0.0 
0.0 0.0 -1.060074776061e+02 
-1.147597498678e+02 2.990352036182e+00 0.0 
2.990352036182e+00 -2.636778756183e+02 0.0 
0.0 0.0 -1.131312876458e+02 
-9.878174104036e+01 2.579602386086e+00 0.0 
2.579602386086e+00 -2.308210425012e+02 0.0 
0.0 0.0 -9.848083506246e+01 
-1.408347385958e+02 2.542634529377e+00 0.0 
2.542634529377e+00 -3.330403442958e+02 0.0 
0.0 0.0 -1.417625248675e+02 
-8.172277067190e+01 2.804088266060e+00 0.0 
2.804088266060e+00 -1.930799214136e+02 0.0 
0.0 0.0 -8.204080762564e+01 
-1.564043542318e+02 1.498092672516e+00 0.0 
1.498092672516e+00 -3.656333280945e+02 0.0 
0.0 0.0 -1.562113046979e+02 
-9.265277908427e+01 6.380518887348e-02 0.0 
6.380518887348e-02 -2.118277133546e+02 0.0 
0.0 0.0 -9.094414773166e+01 
-9.536445081830e+01 4.165832905560e+00 0.0 
4.165832905560e+00 -2.220579806207e+02 0.0 
0.0 0.0 -9.482672943170e+01 
-9.980404204073e+01 1.547400633997e-01 0.0 
1.547400633997e-01 -2.416529701379e+02 0.0 
0.0 0.0 -1.020371036536e+02 
-4.796490364103e+01 4.233418908727e+00 0.0 
4.233418908727e+00 -1.185017853588e+02 0.0 
0.0 0.0 -4.954000669996e+01 
-8.816218772053e+01 1.522730499574e+00 0.0 
1.522730499574e+00 -2.143468708506e+02 0.0 
0.0 0.0 -9.035271757134e+01 
-1.085880876208e+02 2.088364347819e+00 0.0 
2.088364347819e+00 -2.509409664533e+02 0.0 
0.0 0.0 -1.074587162222e+02 
-1.014755091122e+02 1.618144529838e+00 0.0 
1.618144529838e+00 -2.330340205984e+02 0.0 
0.0 0.0 -9.995285891317e+01 
-1.132763857011e+02 1.170336814277e-01 0.0 
1.170336814277e-01 -2.613966592812e+02 0.0 
0.0 0.0 -1.120019134947e+02 
-1.179269618158e+02 1.554871566836e+00 0.0 
1.554871566836e+00 -2.720104571776e+02 0.0 
0.0 0.0 -1.165812256980e+02 
-1.225592413968e+02 3.144539292454e+00 0.0 
3.144539292454e+00 -2.824816679759e+02 0.0 
0.0 0.0 -1.211122728118e+02 
-2.380028259511e+01 2.961004249385e-01 0.0 
2.961004249385e-01 -5.875828127068e+01 0.0 
0.0 0.0 -2.436756915973e+01 
-8.321078607736e+01 -1.300052259737e-01 0.0 
-1.300052259737e-01 -2.032175739813e+02 0.0 
0.0 0.0 -8.552850801760e+01 
-7.809967038410e+01 2.990071942157e+00 0.0 
2.990071942157e+00 -1.769772031800e+02 0.0 
0.0 0.0 -7.612306206923e+01 
-1.106660145139e+02 1.089102353943e+00 0.0 
1.089102353943e+00 -2.543773860397e+02 0.0 
0.0 0.0 -1.091130201661e+02 
-1.154748558830e+02 2.668618364563e+00 0.0 
2.668618364563e+00 -2.652331643604e+02 0.0 
0.0 0.0 -1.138124060730e+02 
-1.381437707213e+02 2.653159466620e+00 0.0 
2.653159466620e+00 -3.253966150047e+02 0.0 
0.0 0.0 -1.386621157178e+02 
-3.579517730080e+01 -8.220434059218e-01 0.0 
-8.220434059218e-01 -8.856517195132e+01 0.0 
0.0 0.0 -3.690810477564e+01 
-3.552182449388e+01 2.084106426332e+00 0.0 
2.084106426332e+00 -9.047925527428e+01 0.0 
0.0 0.0 -3.740032393045e+01 
-9.631444374954e+01 2.166265013987e+00 0.0 
2.166265013987e+00 -2.222746654465e+02 0.0 
0.0 0.0 -9.517673275881e+01 
-8.366518715907e+01 1.311910283795e+00 0.0 
1.311910283795e+00 -2.037215367453e+02 0.0 
0.0 0.0 -8.581601717131e+01 
-7.333973870894e+01 1.305355103845e+00 0.0 
1.305355103845e+00 -1.664692698886e+02 0.0 
0.0 0.0 -7.154270257925e+01 
-7.763983777948e+01 1.125623331111e+00 0.0 
1.125623331111e+00 -1.764961472078e+02 0.0 
0.0 0.0 -7.584079549618e+01 
-1.137348365596e+02 1.689651504860e+00 0.0 
1.689651504860e+00 -2.618557038424e+02 0.0 
0.0 0.0 -1.122771621206e+02 
-3.317064486044e+01 5.309373265479e+00 0.0 
5.309373265479e+00 -8.053180518826e+01 0.0 
0.0 0.0 -3.371073501461e+01 
-9.525990328660e+01 -4.449722331248e-02 0.0 
-4.449722331248e-02 -2.310777287462e+02 0.0 
0.0 0.0 -9.750128960983e+01 
-1.246898684800e+02 3.588029782912e+00 0.0 
3.588029782912e+00 -2.963123596755e+02 0.0 
0.0 0.0 -1.259006684466e+02 
-3.457979850343e+01 1.171443758087e+00 0.0 
1.171443758087e+00 -8.980326825014e+01 0.0 
0.0 0.0 -3.691492002607e+01 
-1.515777869528e+02 3.612109814106e+00 0.0 
3.612109814106e+00 -3.544001046549e+02 0.0 
0.0 0.0 -1.513933674823e+02 
-1.346127128903e+02 1.710138886278e+00 0.0 
1.710138886278e+00 -3.125857433898e+02 0.0 
0.0 0.0 -1.337595368840e+02 
-9.111525974781e+01 1.219414391185e+00 0.0 
1.219414391185e+00 -2.208661660896e+02 0.0 
0.0 0.0 -9.319442775122e+01 
-1.291228705829e+02 4.189515472019e-01 0.0 
4.189515472019e-01 -3.079854560365e+02 0.0 
0.0 0.0 -1.307324979858e+02 
-1.684649238719e+01 -1.784252814736e-01 0.0 
-1.784252814736e-01 -4.230275955757e+01 0.0 
0.0 0.0 -1.734477558343e+01 
-1.200314736897e+02 3.382333706141e+00 0.0 
3.382333706141e+00 -2.862412770492e+02 0.0 
0.0 0.0 -1.214818252217e+02 
-1.009067878591e+02 3.719735781486e+00 0.0 
3.719735781486e+00 -2.325166342906e+02 0.0 
0.0 0.0 -9.962702664491e+01 
-1.708378556284e+01 -1.843371179496e-01 0.0 
-1.843371179496e-01 -4.219072927764e+01 0.0 
0.0 0.0 -1.738235445214e+01 
-1.343156592938e+02 2.273364571269e-01 0.0 
2.273364571269e-01 -3.122701465397e+02 0.0 
0.0 0.0 -1.335757417500e+02 
-3.180165739220e+01 2.542836125439e+00 0.0 
2.542836125439e+00 -8.179459034983e+01 0.0 
0.0 0.0 -3.367887432261e+01 
-1.111625646001e+02 2.725263882632e+00 0.0 
2.725263882632e+00 -2.549458163817e+02 0.0 
0.0 0.0 -1.094325142945e+02 
-1.018163487687e+02 3.340813967673e+00 0.0 
3.340813967673e+00 -2.335109688209e+02 0.0 
0.0 0.0 -1.001981952769e+02 
-8.669915984628e+01 2.996957618595e+00 0.0 
2.996957618595e+00 -2.104081281822e+02 0.0 
0.0 0.0 -8.873218640855e+01 
-1.059709542799e+02 1.138791562638e+00 0.0 
1.138791562638e+00 -2.555582106315e+02 0.0 
0.0 0.0 -1.080587494734e+02 
-1.378802674071e+02 3.838278428657e-01 0.0 
3.838278428657e-01 -3.209098463473e+02 0.0 
0.0 0.0 -1.372370341263e+02 
-1.144918782610e+02 1.235143242709e+00 0.0 
1.235143242709e+00 -2.748422870869e+02 0.0 
0.0 0.0 -1.164002496044e+02 
-9.979337161014e+01 2.352415896163e+00 0.0 
2.352415896163e+00 -2.313525608092e+02 0.0 
0.0 0.0 -9.894377972580e+01 
-9.645528408570e+01 3.881314426385e+00 0.0 
3.881314426385e+00 -2.226962214405e+02 0.0 
0.0 0.0 -9.534545165786e+01 
-4.743257361549e+00 1.418675832863e+00 0.0 
1.418675832863e+00 -1.206396762271e+01 0.0 
0.0 0.0 -4.642167495276e+00 
-2.700847103261e+01 8.564706345605e-01 0.0 
8.564706345605e-01 -7.152672223486e+01 0.0 
0.0 0.0 -2.916055798024e+01 
-1.326615833502e+02 3.973989910887e+00 0.0 
3.973989910887e+00 -3.083656289531e+02 0.0 
0.0 0.0 -1.319081636910e+02 
-1.050865591441e+02 1.819458605385e+00 0.0 
1.819458605385e+00 -2.410523895908e+02 0.0 
0.0 0.0 -1.034416846205e+02 
-1.358577678716e+02 2.600409968603e+00 0.0 
2.600409968603e+00 -3.170395237781e+02 0.0 
0.0 0.0 -1.354691874949e+02 
-5.399385348582e+01 3.208716726486e+00 0.0 
3.208716726486e+00 -1.263397740886e+02 0.0 
0.0 0.0 -5.370008827234e+01 
-1.280556283099e+02 8.552664458459e-01 0.0 
8.552664458459e-01 -2.963889107090e+02 0.0 
0.0 0.0 -1.269333617057e+02 
-1.371384792588e+02 3.989175951479e+00 0.0 
3.989175951479e+00 -3.187994901749e+02 0.0 
0.0 0.0 -1.363813908301e+02 
-8.077335912340e+01 -2.248461860267e-01 0.0 
-2.248461860267e-01 -1.837050243497e+02 0.0 
0.0 0.0 -7.894351504193e+01 
-1.322708555436e+02 2.477707142829e+00 0.0 
2.477707142829e+00 -3.078268833350e+02 0.0 
0.0 0.0 -1.316293216636e+02 
-1.294407977647e+02 1.911335317588e+00 0.0 
1.911335317588e+00 -3.084582195018e+02 0.0 
0.0 0.0 -1.309697051800e+02 
-1.121062156352e+02 2.262639460815e+00 0.0 
2.262639460815e+00 -2.599608716360e+02 0.0 
0.0 0.0 -1.112201261813e+02 
-9.147904668803e+01 1.412285395878e-02 0.0 
1.412285395878e-02 -2.224574677027e+02 0.0 
0.0 0.0 -9.378095431721e+01 
-9.644220225748e+01 1.687435841123e+00 0.0 
1.687435841123e+00 -2.335385368665e+02 0.0 
0.0 0.0 -9.859422173719e+01 
-1.417357130387e+02 2.422958151125e+00 0.0 
2.422958151125e+00 -3.292959828680e+02 0.0 
0.0 0.0 -1.409095087720e+02 
-9.758747900319e+01 1.039611740438e+00 0.0 
1.039611740438e+00 -2.364600937266e+02 0.0 
0.0 0.0 -9.981427181894e+01 
-1.050526164619e+02 1.871771506334e+00 0.0 
1.871771506334e+00 -2.419695474003e+02 0.0 
0.0 0.0 -1.037066491587e+02 
-9.789721727526e+01 2.613178877302e+00 0.0 
2.613178877302e+00 -2.308665929518e+02 0.0 
0.0 0.0 -9.822914306812e+01 
-1.231128973331e+02 1.365513084220e+00 0.0 
1.365513084220e+00 -2.942424331558e+02 0.0 
0.0 0.0 -1.248065991467e+02 
-9.076959495904e+01 4.270077865564e+00 0.0 
4.270077865564e+00 -2.123651538765e+02 0.0 
0.0 0.0 -9.054042465066e+01 
-5.504141010580e+01 2.176255806934e+00 0.0 
2.176255806934e+00 -1.366779328904e+02 0.0 
0.0 0.0 -5.711580289885e+01 
-9.936544991497e+01 1.965627625033e+00 0.0 
1.965627625033e+00 -2.387922713890e+02 0.0 
0.0 0.0 -1.010473163912e+02 
-5.959275698569e+01 2.577041403514e+00 0.0 
2.577041403514e+00 -1.460331844155e+02 0.0 
0.0 0.0 -6.128778242034e+01 
-1.142879123277e+02 1.314069291114e+00 0.0 
1.314069291114e+00 -2.631354173866e+02 0.0 
0.0 0.0 -1.128269989143e+02 
-5.961755856321e+01 3.798412326613e+00 0.0 
3.798412326613e+00 -1.463154244071e+02 0.0 
0.0 0.0 -6.137989489108e+01 
-1.104857035128e+02 3.099786538937e+00 0.0 
3.099786538937e+00 -2.536032372545e+02 0.0 
0.0 0.0 -1.088266822302e+02 
-1.348406932969e+02 4.199502500329e+00 0.0 
4.199502500329e+00 -3.174328298623e+02 0.0 
0.0 0.0 -1.352820569478e+02 
-1.299719911712e+02 2.534636703523e+00 0.0 
2.534636703523e+00 -3.068535677901e+02 0.0 
0.0 0.0 -1.306476676884e+02 
-8.630756622484e+01 2.739268194097e+00 0.0 
2.739268194097e+00 -2.025481631655e+02 0.0 
0.0 0.0 -8.625671881710e+01 
-1.090174714061e+02 9.049573907877e-02 0.0 
9.049573907877e-02 -2.509883659678e+02 0.0 
0.0 0.0 -1.076017512122e+02 
-1.330175979843e+02 3.028060734532e-01 0.0 
3.028060734532e-01 -3.165739550836e+02 0.0 
0.0 0.0 -1.344774659204e+02 
-1.333017445352e+02 1.800246013312e+00 0.0 
1.800246013312e+00 -3.170387850059e+02 0.0 
0.0 0.0 -1.347021588623e+02 
-2.539203761919e+01 5.403888774451e+00 0.0 
5.403888774451e+00 -6.224429290152e+01 0.0 
0.0 0.0 -2.589089915621e+01 
-1.136272962193e+02 1.643101303268e+00 0.0 
1.643101303268e+00 -2.618867651608e+02 0.0 
0.0 0.0 -1.122542184140e+02 
-1.461494426232e+02 4.658769052134e-02 0.0 
4.658769052134e-02 -3.455209409496e+02 0.0 
0.0 0.0 -1.471011150718e+02 
-5.825263558834e+01 3.606280925578e-01 0.0 
3.606280925578e-01 -1.310726935433e+02 0.0 
0.0 0.0 -5.639759873950e+01 
-9.933805220956e+01 1.338471255237e+00 0.0 
1.338471255237e+00 -2.400032353572e+02 0.0 
0.0 0.0 -1.014023862700e+02 
-1.132613693317e+01 4.370556463992e+00 0.0 
4.370556463992e+00 -2.118601738843e+01 0.0 
0.0 0.0 -9.353646296479e+00 
-1.369020681600e+02 1.875177853775e-01 0.0 
1.875177853775e-01 -3.251172613029e+02 0.0 
0.0 0.0 -1.382057988389e+02 
-5.150023723270e+01 2.605451293878e+00 0.0 
2.605451293878e+00 -1.275559850412e+02 0.0 
0.0 0.0 -5.331686668216e+01 
-9.574510232301e+01 -4.586299371088e-01 0.0 
-4.586299371088e-01 -2.312319445378e+02 0.0 
0.0 0.0 -9.769311405824e+01 
-1.187713050466e+02 2.481761667210e+00 0.0 
2.481761667210e+00 -2.787303516833e+02 0.0 
0.0 0.0 -1.188504970190e+02 
-1.095062590346e+02 1.697287470090e+00 0.0 
1.697287470090e+00 -2.514947764637e+02 0.0 
0.0 0.0 -1.079003106495e+02 
-1.048943873403e+02 1.662101995493e-01 0.0 
1.662101995493e-01 -2.406625794027e+02 0.0 
0.0 0.0 -1.032670900229e+02 
-1.042032765463e+02 2.211838932600e+00 0.0 
2.211838932600e+00 -2.411032170531e+02 0.0 
0.0 0.0 -1.031919480798e+02 
-6.494787557446e+01 1.266483408994e+00 0.0 
1.266483408994e+00 -1.467880374157e+02 0.0 
0.0 0.0 -6.312077389705e+01 
-6.928200122401e+01 1.090231154367e+00 0.0 
1.090231154367e+00 -1.567728403658e+02 0.0 
0.0 0.0 -6.741645247694e+01 
-1.371119756456e+02 1.652562579986e+00 0.0 
1.652562579986e+00 -3.255506018909e+02 0.0 
0.0 0.0 -1.383987732610e+02 
-1.108443121143e+02 2.903154099604e+00 0.0 
2.903154099604e+00 -2.660825238916e+02 0.0 
0.0 0.0 -1.126780508018e+02 
-9.491216106147e+01 3.079479212011e+00 0.0 
3.079479212011e+00 -2.291808429948e+02 0.0 
0.0 0.0 -9.682790121688e+01 
-1.198161123133e+02 1.847191700171e+00 0.0 
1.847191700171e+00 -2.858759360621e+02 0.0 
0.0 0.0 -1.213076145126e+02 
-9.112482396696e+01 1.948931516546e+00 0.0 
1.948931516546e+00 -2.199875812543e+02 0.0 
0.0 0.0 -9.293372156639e+01 
-5.602870036639e+01 4.210156880389e+00 0.0 
4.210156880389e+00 -1.370281677200e+02 0.0 
0.0 0.0 -5.751706042590e+01 
-6.470906015606e+01 -3.098457092250e-01 0.0 
-3.098457092250e-01 -1.461708056137e+02 0.0 
0.0 0.0 -6.286395973094e+01 
-9.702375167021e+01 1.478314838437e+00 0.0 
1.478314838437e+00 -2.222436595297e+02 0.0 
0.0 0.0 -9.538022335996e+01 
-7.994460431914e+01 -2.898820903005e-02 0.0 
-2.898820903005e-02 -1.847305085834e+02 0.0 
0.0 0.0 -7.900253387076e+01 
-1.301279437672e+02 4.060422357434e+00 0.0 
4.060422357434e+00 -3.072291746915e+02 0.0 
0.0 0.0 -1.308071355376e+02 
-8.617478848050e+01 4.337503831763e+00 0.0 
4.337503831763e+00 -2.028234596436e+02 0.0 
0.0 0.0 -8.629947443723e+01 
-1.475612398988e+02 2.969911612057e+00 0.0 
2.969911612057e+00 -3.458251606797e+02 0.0 
0.0 0.0 -1.476159201735e+02 
-1.353033295007e+02 -5.683263578706e-01 0.0 
-5.683263578706e-01 -3.214102801288e+02 0.0 
0.0 0.0 -1.366140828889e+02 
-9.586064252218e+01 3.574021137988e+00 0.0 
3.574021137988e+00 -2.302228267972e+02 0.0 
0.0 0.0 -9.742504079581e+01 
-1.511220278996e+02 2.045357110907e+00 0.0 
2.045357110907e+00 -3.563890507955e+02 0.0 
0.0 0.0 -1.518533236086e+02 
-6.328102431684e+01 3.427850432785e+00 0.0 
3.427850432785e+00 -1.555204479968e+02 0.0 
0.0 0.0 -6.524044169410e+01 
-1.433593083272e+02 2.873162587822e+00 0.0 
2.873162587822e+00 -3.363674723866e+02 0.0 
0.0 0.0 -1.435180342142e+02 
-1.043696707286e+02 3.898219020200e+00 0.0 
3.898219020200e+00 -2.415371263988e+02 0.0 
0.0 0.0 -1.033720391382e+02 
-1.155868337671e+02 2.413168336863e+00 0.0 
2.413168336863e+00 -2.689660625493e+02 0.0 
0.0 0.0 -1.149658688949e+02 
-1.374224128386e+02 3.566294294106e+00 0.0 
3.566294294106e+00 -3.252168765007e+02 0.0 
0.0 0.0 -1.383917868018e+02 
-6.827115800706e+01 1.199622989717e+00 0.0 
1.199622989717e+00 -1.677353429602e+02 0.0 
0.0 0.0 -7.040195029018e+01 
-1.093603772209e+02 1.741708241195e+00 0.0 
1.741708241195e+00 -2.519249182942e+02 0.0 
0.0 0.0 -1.079855886545e+02 
-9.125974872041e+01 3.295829687177e+00 0.0 
3.295829687177e+00 -2.203385902181e+02 0.0 
0.0 0.0 -9.307950168156e+01 
-1.061360563364e+02 3.202693957474e+00 0.0 
3.202693957474e+00 -2.434712306626e+02 0.0 
0.0 0.0 -1.044821860997e+02 
-5.824008486829e+01 4.723198195661e+00 0.0 
4.723198195661e+00 -1.354949854281e+02 0.0 
0.0 0.0 -5.772052108891e+01 
-1.192100685489e+02 2.439536642027e+00 0.0 
2.439536642027e+00 -2.783329870143e+02 0.0 
0.0 0.0 -1.188629166690e+02 
-8.648937189298e+01 1.671141951735e+00 0.0 
1.671141951735e+00 -2.100157523485e+02 0.0 
0.0 0.0 -8.855153727243e+01 
-1.035807563471e+02 7.771116061677e-02 0.0 
7.771116061677e-02 -2.502200516073e+02 0.0 
0.0 0.0 -1.057402423863e+02 
-1.057503218873e+02 1.504608384636e+00 0.0 
1.504608384636e+00 -2.429826071500e+02 0.0 
0.0 0.0 -1.042198787112e+02 
-1.009102462771e+01 4.924214503423e+00 0.0 
4.924214503423e+00 -2.634091601457e+01 0.0 
0.0 0.0 -1.052958219268e+01 
-1.061038221803e+02 2.533730967319e+00 0.0 
2.533730967319e+00 -2.500108366377e+02 0.0 
0.0 0.0 -1.064343976454e+02 
-1.908291304498e+01 5.089904165809e+00 0.0 
5.089904165809e+00 -4.057923099535e+01 0.0 
0.0 0.0 -1.749864321210e+01 
-2.541677037338e+01 -1.075724901799e+00 0.0 
-1.075724901799e+00 -6.299930633578e+01 0.0 
0.0 0.0 -2.612482301275e+01 
-9.895794937937e+01 -9.931329528618e-02 0.0 
-9.931329528618e-02 -2.394818173949e+02 0.0 
0.0 0.0 -1.011319300323e+02 
-1.298452553014e+02 3.620331752778e+00 0.0 
3.620331752778e+00 -3.004821709895e+02 0.0 
0.0 0.0 -1.286982278873e+02 
-1.083301350441e+02 3.353911334363e-01 0.0 
3.353911334363e-01 -2.489361636315e+02 0.0 
0.0 0.0 -1.067798896027e+02 
-5.661376405223e+01 1.352732044729e+00 0.0 
1.352732044729e+00 -1.273960820345e+02 0.0 
0.0 0.0 -5.480295382602e+01 
-1.562629628310e+02 1.349638030801e+00 0.0 
1.349638030801e+00 -3.659469132724e+02 0.0 
0.0 0.0 -1.562629628310e+02 
-5.369860937093e+00 3.852815883308e+00 0.0 
3.852815883308e+00 -9.663337676881e+00 0.0 
0.0 0.0 -4.217537600613e+00 
-6.087708609912e+01 1.050992110565e+00 0.0 
1.050992110565e+00 -1.371964022214e+02 0.0 
0.0 0.0 -5.902204649616e+01 
-9.832274645972e+01 1.526919437254e+00 0.0 
1.526919437254e+00 -2.374961843243e+02 0.0 
0.0 0.0 -1.003456792352e+02 
-9.479229228741e+01 1.185759039617e+00 0.0 
1.185759039617e+00 -2.293678708636e+02 0.0 
0.0 0.0 -9.684804894530e+01 
-7.621833887802e+01 1.619364585761e+00 0.0 
1.619364585761e+00 -1.723679011043e+02 0.0 
0.0 0.0 -7.417587199470e+01 
-6.588220188345e+01 1.174979399103e+00 0.0 
1.174979399103e+00 -1.631198234458e+02 0.0 
0.0 0.0 -6.830060759877e+01 
-1.023633961771e+02 2.744239140294e+00 0.0 
2.744239140294e+00 -2.468240744012e+02 0.0 
0.0 0.0 -1.043562411735e+02 
-1.088299879130e+02 3.780723522427e+00 0.0 
3.780723522427e+00 -2.514065795875e+02 0.0 
0.0 0.0 -1.076709702502e+02 
-1.143929385340e+02 2.532716126111e+00 0.0 
2.532716126111e+00 -2.693149967802e+02 0.0 
0.0 0.0 -1.147123805943e+02 
-1.341082662192e+02 1.552303602204e+00 0.0 
1.552303602204e+00 -3.113233380284e+02 0.0 
0.0 0.0 -1.332294812743e+02 
-2.888774321269e+01 3.727222055980e+00 0.0 
3.727222055980e+00 -7.219749109143e+01 0.0 
0.0 0.0 -2.992557029124e+01 
-9.069932809116e+01 -2.275683017701e-01 0.0 
-2.275683017701e-01 -2.203694927526e+02 0.0 
0.0 0.0 -9.292064625311e+01 
-9.815796846266e+01 -3.188817066519e-01 0.0 
-3.188817066519e-01 -2.374072148812e+02 0.0 
0.0 0.0 -1.002695550032e+02 
-5.134067265607e+01 6.983087413472e-01 0.0 
6.983087413472e-01 -1.265320524861e+02 0.0 
0.0 0.0 -5.296181754264e+01 
-8.477431969940e+01 -3.819062814285e-01 0.0 
-3.819062814285e-01 -1.935621190043e+02 0.0 
0.0 0.0 -8.310093161112e+01 
-1.087411951719e+02 1.957810824047e+00 0.0 
1.957810824047e+00 -2.494363099452e+02 0.0 
0.0 0.0 -1.070532515352e+02 
-1.226257091873e+02 8.740891133889e-01 0.0 
8.740891133889e-01 -2.928471944983e+02 0.0 
0.0 0.0 -1.242418711057e+02 
-1.725816626641e+01 -2.024290467127e-01 0.0 
-2.024290467127e-01 -4.224887775220e+01 0.0 
0.0 0.0 -1.745211320558e+01 
-1.151033083426e+01 8.995893530210e-01 0.0 
8.995893530210e-01 -2.658629265663e+01 0.0 
0.0 0.0 -1.102898704727e+01 
-3.578263507008e+01 3.793668133078e-01 0.0 
3.793668133078e-01 -8.830191444935e+01 0.0 
0.0 0.0 -3.682536485583e+01 
-9.848488440991e+01 1.136855718949e+00 0.0 
1.136855718949e+00 -2.378863237983e+02 0.0 
0.0 0.0 -1.005113624625e+02 
-7.133629636541e+01 3.473285042998e+00 0.0 
3.473285042998e+00 -1.740499545549e+02 0.0 
0.0 0.0 -7.321587527610e+01 
-6.266048322120e+01 2.606631880345e+00 0.0 
2.606631880345e+00 -1.549387671604e+02 0.0 
0.0 0.0 -6.487977511449e+01 
-5.526380368216e+01 3.309537517486e+00 0.0 
3.309537517486e+00 -1.370148751213e+02 0.0 
0.0 0.0 -5.728360364103e+01 
-1.026827339699e+02 -1.639236465055e-01 0.0 
-1.639236465055e-01 -2.479551549589e+02 0.0 
0.0 0.0 -1.047913666786e+02 
-1.156112324680e+02 7.253682156815e-01 0.0 
7.253682156815e-01 -2.662153656735e+02 0.0 
0.0 0.0 -1.141479794424e+02 
-1.018843613217e+02 -3.784480041188e-01 0.0 
-3.784480041188e-01 -2.459138316823e+02 0.0 
0.0 0.0 -1.039394579012e+02 
-7.124054585009e+01 2.220023454092e+00 0.0 
2.220023454092e+00 -1.737160507921e+02 0.0 
0.0 0.0 -7.308697899265e+01 
-1.140346684227e+02 3.368428709783e+00 0.0 
3.368428709783e+00 -2.623812782459e+02 0.0 
0.0 0.0 -1.125247840006e+02 
-9.356769646526e+01 -3.535392949583e-01 0.0 
-3.535392949583e-01 -2.150286807358e+02 0.0 
0.0 0.0 -9.217891316033e+01 
-1.272495704755e+02 2.537209984540e+00 0.0 
2.537209984540e+00 -2.984684007366e+02 0.0 
0.0 0.0 -1.273153913636e+02 
-1.021871151680e+02 1.088405768774e+00 0.0 
1.088405768774e+00 -2.463933009290e+02 0.0 
0.0 0.0 -1.041741248291e+02 
-1.030293625013e+02 1.278837076049e+00 0.0 
1.278837076049e+00 -2.484639047475e+02 0.0 
0.0 0.0 -1.050479801746e+02 
-4.812628585310e+01 1.512111598943e+00 0.0 
1.512111598943e+00 -1.076227765811e+02 0.0 
0.0 0.0 -4.632471873026e+01 
-7.495142084374e+01 3.161126908787e+00 0.0 
3.161126908787e+00 -1.829892321997e+02 0.0 
0.0 0.0 -7.698219591304e+01 
-1.056040214158e+02 -4.311283234605e-01 0.0 
-4.311283234605e-01 -2.543317973278e+02 0.0 
0.0 0.0 -1.075807456231e+02 
-1.099785032134e+02 -6.508546694707e-01 0.0 
-6.508546694707e-01 -2.554862701722e+02 0.0 
0.0 0.0 -1.092394320157e+02 
-1.022586955021e+02 -7.033479644208e-01 0.0 
-7.033479644208e-01 -2.373583855704e+02 0.0 
0.0 0.0 -1.014851243218e+02 
-5.247891689276e+01 1.263911314028e+00 0.0 
1.263911314028e+00 -1.177605800657e+02 0.0 
0.0 0.0 -5.067184908754e+01 
-1.064369033068e+02 -2.417063173892e-01 0.0 
-2.417063173892e-01 -2.564675198531e+02 0.0 
0.0 0.0 -1.084713269480e+02 
-6.201121749408e+01 1.888761364302e+00 0.0 
1.888761364302e+00 -1.535387952045e+02 0.0 
0.0 0.0 -6.426500380956e+01 
-2.677946170273e+01 2.684559986435e+00 0.0 
2.684559986435e+00 -5.995439800488e+01 0.0 
0.0 0.0 -2.562015791228e+01 
-1.440537413275e+02 4.421163036860e+00 0.0 
4.421163036860e+00 -3.371601911591e+02 0.0 
0.0 0.0 -1.439641797460e+02 
-3.212279814661e+01 -9.967465911715e-01 0.0 
-9.967465911715e-01 -8.006824208762e+01 0.0 
0.0 0.0 -3.325731207027e+01 
-6.511623023906e+01 5.232675192925e-01 0.0 
5.232675192925e-01 -1.615132661774e+02 0.0 
0.0 0.0 -6.758884892493e+01 
-1.023681125406e+02 4.223232138985e+00 0.0 
4.223232138985e+00 -2.406300327011e+02 0.0 
0.0 0.0 -1.024994435725e+02 
-5.632452800217e+01 -2.525055783903e-01 0.0 
-2.525055783903e-01 -1.265715906284e+02 0.0 
0.0 0.0 -5.446883558917e+01 
-1.059612481214e+02 1.041997999238e+00 0.0 
1.041997999238e+00 -2.550071927054e+02 0.0 
0.0 0.0 -1.078905322481e+02 
-4.843572689533e+01 8.214323916537e-01 0.0 
8.214323916537e-01 -1.186917310418e+02 0.0 
0.0 0.0 -4.973823738114e+01 
-8.874857096337e+01 1.241761924024e+00 0.0 
1.241761924024e+00 -2.018416637247e+02 0.0 
0.0 0.0 -8.677707040641e+01 
-1.067353879211e+02 1.206773145525e+00 0.0 
1.206773145525e+00 -2.569562260048e+02 0.0 
0.0 0.0 -1.087074841778e+02 
-9.037534617360e+01 2.766966506782e+00 0.0 
2.766966506782e+00 -2.191959240525e+02 0.0 
0.0 0.0 -9.247138106783e+01 
-9.567048927427e+01 1.398672559312e+00 0.0 
1.398672559312e+00 -2.315850600595e+02 0.0 
0.0 0.0 -9.777666480013e+01 
-1.273780143934e+01 3.536336332131e+00 0.0 
3.536336332131e+00 -3.297161712907e+01 0.0 
0.0 0.0 -1.331282557052e+01 
-1.337809182033e+02 8.660808326119e-01 0.0 
8.660808326119e-01 -3.126538118326e+02 0.0 
0.0 0.0 -1.335304190108e+02 
-7.419634270758e+01 2.488986129601e+00 0.0 
2.488986129601e+00 -1.819395674253e+02 0.0 
0.0 0.0 -7.644077303985e+01 
-1.377256805603e+02 2.377781623884e+00 0.0 
2.377781623884e+00 -3.257132039919e+02 0.0 
0.0 0.0 -1.386316653657e+02 
-1.158000340817e+02 4.086659608689e+00 0.0 
4.086659608689e+00 -2.695003593683e+02 0.0 
0.0 0.0 -1.151901180350e+02 
-1.101912626807e+02 -3.316700110250e-01 0.0 
-3.316700110250e-01 -2.649476656448e+02 0.0 
0.0 0.0 -1.121416784976e+02 
-1.104529935721e+02 1.091721553935e+00 0.0 
1.091721553935e+00 -2.654091126696e+02 0.0 
0.0 0.0 -1.123586318725e+02 
-6.671482281430e+01 1.877385886018e+00 0.0 
1.877385886018e+00 -1.641459485076e+02 0.0 
0.0 0.0 -6.885823139657e+01 
-2.233911186506e+01 -8.951002190195e-01 0.0 
-8.951002190195e-01 -5.427338404963e+01 0.0 
0.0 0.0 -2.258374877441e+01 
-1.148430632538e+01 3.313507932740e+00 0.0 
3.313507932740e+00 -3.238119762955e+01 0.0 
0.0 0.0 -1.275965118648e+01 
-1.139990211103e+02 -4.149524851666e-01 0.0 
-4.149524851666e-01 -2.734497323754e+02 0.0 
0.0 0.0 -1.158346260457e+02 
-1.371147588418e+02 2.156372782885e+00 0.0 
2.156372782885e+00 -3.251575244112e+02 0.0 
0.0 0.0 -1.382816849759e+02 
-6.137500921972e+01 1.344094703065e+00 0.0 
1.344094703065e+00 -1.517108603109e+02 0.0 
0.0 0.0 -6.352576085917e+01 
-1.172767904236e+02 1.859881627044e+00 0.0 
1.859881627044e+00 -2.708919826301e+02 0.0 
0.0 0.0 -1.160506319161e+02 
-5.368890807870e+01 4.295400446316e-01 0.0 
4.295400446316e-01 -1.202338854146e+02 0.0 
0.0 0.0 -5.177683804798e+01 
-1.183653673184e+02 3.262821560916e+00 0.0 
3.262821560916e+00 -2.725386648376e+02 0.0 
0.0 0.0 -1.168712096468e+02 
-1.542621949102e+02 2.141976920351e+00 0.0 
2.141976920351e+00 -3.639802361935e+02 0.0 
0.0 0.0 -1.550727293311e+02 
-7.322946560824e+00 -2.347898010025e-01 0.0 
-2.347898010025e-01 -7.313838941336e+00 0.0 
0.0 0.0 -3.991035650648e+00 
-1.558742386555e+02 2.749030064591e-01 0.0 
2.749030064591e-01 -3.650398901963e+02 0.0 
0.0 0.0 -1.558742386555e+02 
-1.638282673301e+02 3.340044887131e-01 0.0 
3.340044887131e-01 -3.835992904368e+02 0.0 
0.0 0.0 -1.638282673301e+02 
-8.888607157680e+01 7.905484925411e-01 0.0 
7.905484925411e-01 -2.057845389127e+02 0.0 
0.0 0.0 -8.800118314685e+01 
-7.349439434667e+01 1.906884405824e+00 0.0 
1.906884405824e+00 -1.804555843845e+02 0.0 
0.0 0.0 -7.578499361935e+01 
-1.123267854484e+02 3.939366363549e+00 0.0 
3.939366363549e+00 -2.604511373900e+02 0.0 
0.0 0.0 -1.114333768515e+02 
-6.770025463292e+01 3.815851222846e+00 0.0 
3.815851222846e+00 -1.648886398950e+02 0.0 
0.0 0.0 -6.937666835836e+01 
-2.241705137971e+01 3.676605235292e-01 0.0 
3.676605235292e-01 -5.488931358105e+01 0.0 
0.0 0.0 -2.279190948823e+01 
-7.858639460955e+00 5.378495079126e+00 0.0 
5.378495079126e+00 -1.336765592880e+01 0.0 
0.0 0.0 -5.967888616927e+00 
-1.410042571381e+02 1.067909118324e+00 0.0 
1.067909118324e+00 -3.292239240763e+02 0.0 
0.0 0.0 -1.406684543643e+02 
-1.125218641526e+02 2.215874043755e+00 0.0 
2.215874043755e+00 -2.582998691938e+02 0.0 
0.0 0.0 -1.108465200039e+02 
-8.189591934170e+01 1.187091325399e+00 0.0 
1.187091325399e+00 -1.872958018201e+02 0.0 
0.0 0.0 -8.035751634854e+01 
-1.593284477091e+02 4.044600511364e+00 0.0 
4.044600511364e+00 -3.720485396565e+02 0.0 
0.0 0.0 -1.590130962097e+02 
-4.031365921602e+01 7.797544460479e-01 0.0 
7.797544460479e-01 -9.933409200269e+01 0.0 
0.0 0.0 -4.149432536561e+01 
-1.591717343000e+02 4.139340387585e+00 0.0 
4.139340387585e+00 -3.727640383696e+02 0.0 
0.0 0.0 -1.591807318009e+02 
-1.120079845700e+02 5.099273231158e-01 0.0 
5.099273231158e-01 -2.576654452456e+02 0.0 
0.0 0.0 -1.105020289447e+02 
-7.274701797489e+01 1.457271802770e+00 0.0 
1.457271802770e+00 -1.784959202795e+02 0.0 
0.0 0.0 -7.497288147632e+01 
-1.076804590308e+02 2.379002482649e+00 0.0 
2.379002482649e+00 -2.501256296109e+02 0.0 
0.0 0.0 -1.069418265925e+02 
-6.864325234100e+01 3.566927594987e-01 0.0 
3.566927594987e-01 -1.696861862105e+02 0.0 
0.0 0.0 -7.109883156546e+01 
-3.095405672702e+01 1.967406050517e+00 0.0 
1.967406050517e+00 -6.881546458751e+01 0.0 
0.0 0.0 -2.953085639436e+01 
-6.429816778602e+01 7.835958010701e-03 0.0 
7.835958010701e-03 -1.592637782589e+02 0.0 
0.0 0.0 -6.666858381348e+01 
-1.192299159953e+02 9.285986796509e-01 0.0 
9.285986796509e-01 -2.748320366008e+02 0.0 
0.0 0.0 -1.178185857788e+02 
-1.400792627193e+02 1.251299637080e+00 0.0 
1.251299637080e+00 -3.319587117889e+02 0.0 
0.0 0.0 -1.412113923525e+02 
-6.940778761327e+01 9.156561015039e-01 0.0 
9.156561015039e-01 -1.714644597431e+02 0.0 
0.0 0.0 -7.186167420692e+01 
-1.215513636480e+02 1.783843391005e+00 0.0 
1.783843391005e+00 -2.809321186609e+02 0.0 
0.0 0.0 -1.203450446927e+02 
-6.477076682483e+00 -2.190225903961e-01 0.0 
-2.190225903961e-01 -8.263251978881e+00 0.0 
0.0 0.0 -4.923354121651e+00 
-7.025057680467e+01 1.581946843712e+00 0.0 
1.581946843712e+00 -1.728279813417e+02 0.0 
0.0 0.0 -7.252356744393e+01 
-1.249891345479e+02 2.348648142491e+00 0.0 
2.348648142491e+00 -2.883184781643e+02 0.0 
0.0 0.0 -1.235922838137e+02 
-6.326212364631e+01 -3.684757901267e-01 0.0 
-3.684757901267e-01 -1.563380244836e+02 0.0 
0.0 0.0 -6.548004443897e+01 
-5.706430216636e+01 1.044665540495e+00 0.0 
1.044665540495e+00 -1.411411229663e+02 0.0 
0.0 0.0 -5.906162753980e+01 
-1.078190998752e+02 4.022874496052e+00 0.0 
4.022874496052e+00 -2.505703191491e+02 0.0 
0.0 0.0 -1.071168257073e+02 
-3.059135229726e+01 -3.905202447532e-01 0.0 
-3.905202447532e-01 -7.794701947076e+01 0.0 
0.0 0.0 -3.216151153041e+01 
-3.887053242643e+01 1.352050502724e+00 0.0 
1.352050502724e+00 -8.689663903537e+01 0.0 
0.0 0.0 -3.733015143854e+01 
-4.436788253614e+01 1.542820187801e+00 0.0 
1.542820187801e+00 -9.835083325673e+01 0.0 
0.0 0.0 -4.241561473786e+01 
-5.542110546349e+01 -5.118322536209e-01 0.0 
-5.118322536209e-01 -1.375108702713e+02 0.0 
0.0 0.0 -5.747959272043e+01 
-9.858576551639e+01 2.890141228299e+00 0.0 
2.890141228299e+00 -2.379736401214e+02 0.0 
0.0 0.0 -1.005678216913e+02 
-9.430796812371e+01 2.653094915776e+00 0.0 
2.653094915776e+00 -2.213611054706e+02 0.0 
0.0 0.0 -9.430072207828e+01 
-1.219546453746e+02 3.493988828351e+00 0.0 
3.493988828351e+00 -2.813830930179e+02 0.0 
0.0 0.0 -1.206013215177e+02 
-1.433362970253e+02 1.759651379078e+00 0.0 
1.759651379078e+00 -3.336253041616e+02 0.0 
0.0 0.0 -1.426884803561e+02 
-4.778962632238e+01 -1.386370618212e-01 0.0 
-1.386370618212e-01 -1.069867330362e+02 0.0 
0.0 0.0 -4.603290780756e+01 
-1.183121264523e+02 1.041146646126e+00 0.0 
1.041146646126e+00 -2.749702422141e+02 0.0 
0.0 0.0 -1.175847105999e+02 
-1.444817445124e+02 2.510017796045e+00 0.0 
2.510017796045e+00 -3.368757479545e+02 0.0 
0.0 0.0 -1.440072477401e+02 
-6.314045930693e+01 2.207526843904e+00 0.0 
2.207526843904e+00 -1.551864511347e+02 0.0 
0.0 0.0 -6.509807313250e+01 
-1.830366930223e+01 2.121990221696e+00 0.0 
2.121990221696e+00 -4.039932500034e+01 0.0 
0.0 0.0 -1.721089829077e+01 
-5.898041143646e+01 2.076249569567e+00 0.0 
2.076249569567e+00 -1.318166016913e+02 0.0 
0.0 0.0 -5.683910393832e+01 
-9.408002201424e+01 2.581152263883e+00 0.0 
2.581152263883e+00 -2.279103188768e+02 0.0 
0.0 0.0 -9.619710226730e+01 
-1.220836979398e+02 1.451119183724e+00 0.0 
1.451119183724e+00 -2.819726044942e+02 0.0 
0.0 0.0 -1.208168907302e+02 
-9.375558395838e+01 1.235241625527e+00 0.0 
1.235241625527e+00 -2.274803444587e+02 0.0 
0.0 0.0 -9.597077852514e+01 
-2.159579079291e+01 4.796564794097e+00 0.0 
4.796564794097e+00 -5.612901135407e+01 0.0 
0.0 0.0 -2.291744064410e+01 
-1.069193302108e+02 3.029876247590e+00 0.0 
3.029876247590e+00 -2.568970164808e+02 0.0 
0.0 0.0 -1.087449040075e+02 
-3.537498091429e+01 1.512818363663e+00 0.0 
1.512818363663e+00 -7.867516318041e+01 0.0 
0.0 0.0 -3.381504322841e+01 
-9.423354425662e+01 4.263465293599e+00 0.0 
4.263465293599e+00 -2.216587452574e+02 0.0 
0.0 0.0 -9.436768685421e+01 
-1.020406326880e+02 1.282110215534e+00 0.0 
1.282110215534e+00 -2.463645168311e+02 0.0 
0.0 0.0 -1.041215448557e+02 
-1.111971401420e+02 2.488516881133e+00 0.0 
2.488516881133e+00 -2.593162251831e+02 0.0 
0.0 0.0 -1.107540095975e+02 
-1.083620941991e+02 8.145295001290e-01 0.0 
8.145295001290e-01 -2.507040398138e+02 0.0 
0.0 0.0 -1.073198402039e+02 
-5.597918895832e+01 7.513995509368e-01 0.0 
7.513995509368e-01 -1.379949777440e+02 0.0 
0.0 0.0 -5.779225001071e+01 
-2.236282997932e+01 3.400002991557e+00 0.0 
3.400002991557e+00 -5.136103152849e+01 0.0 
0.0 0.0 -2.171715845234e+01 
-1.105240640322e+02 1.356544209155e+00 0.0 
1.356544209155e+00 -2.656151534909e+02 0.0 
0.0 0.0 -1.124417652569e+02 
-3.971918670145e+01 1.160887606641e+00 0.0 
1.160887606641e+00 -8.813061785151e+01 0.0 
0.0 0.0 -3.795494136589e+01 
-1.013107872334e+01 -1.052428414310e-01 0.0 
-1.052428414310e-01 -2.584815179892e+01 0.0 
0.0 0.0 -1.039376915668e+01 
-1.419718158790e+02 -6.260152248066e-01 0.0 
-6.260152248066e-01 -3.313463882258e+02 0.0 
0.0 0.0 -1.415954612315e+02 
-1.342834610010e+02 -7.176536010016e-01 0.0 
-7.176536010016e-01 -3.129585850022e+02 0.0 
0.0 0.0 -1.337726138010e+02 
-1.090550752591e+01 -2.236996624418e-01 0.0 
-2.236996624418e-01 -2.471186732034e+01 0.0 
0.0 0.0 -1.066726028744e+01 
-1.154136583079e+02 3.161116327620e+00 0.0 
3.161116327620e+00 -2.761105241432e+02 0.0 
0.0 0.0 -1.170572547353e+02 
-4.352803792336e+01 4.532194663938e-01 0.0 
4.532194663938e-01 -1.074748392546e+02 0.0 
0.0 0.0 -4.490086315339e+01 
-4.637786378036e+01 -9.489916562342e-01 0.0 
-9.489916562342e-01 -1.149389809655e+02 0.0 
0.0 0.0 -4.799505342376e+01 
-1.295383005012e+02 1.923812960138e+00 0.0 
1.923812960138e+00 -3.001958878671e+02 0.0 
0.0 0.0 -1.285202565105e+02 
-1.113144856014e+02 4.109067258479e+00 0.0 
4.109067258479e+00 -2.596809590931e+02 0.0 
0.0 0.0 -1.108986334083e+02 
-1.252177420742e+02 2.006803932883e+00 0.0 
2.006803932883e+00 -2.900245487870e+02 0.0 
0.0 0.0 -1.241726872584e+02 
-7.055332825193e+01 2.748824197206e+00 0.0 
2.748824197206e+00 -1.732634159583e+02 0.0 
0.0 0.0 -7.274502326307e+01 
-8.008899706929e+01 -6.421012930043e-02 0.0 
-6.421012930043e-02 -1.846047662056e+02 0.0 
0.0 0.0 -7.900812898245e+01 
-1.548303674772e+02 2.346003432598e+00 0.0 
2.346003432598e+00 -3.642401012054e+02 0.0 
0.0 0.0 -1.553211406048e+02 
-3.852394974627e+01 -1.017841029854e+00 0.0 
-1.017841029854e+00 -9.559879612053e+01 0.0 
0.0 0.0 -3.983682376004e+01 
-1.336548919721e+02 3.910037294832e+00 0.0 
3.910037294832e+00 -3.157035730005e+02 0.0 
0.0 0.0 -1.344075394918e+02 
-9.878348944248e+01 4.214847646368e+00 0.0 
4.214847646368e+00 -2.312054647243e+02 0.0 
0.0 0.0 -9.859668625003e+01 
-3.107233801486e+01 -7.634045344531e-01 0.0 
-7.634045344531e-01 -7.578853530806e+01 0.0 
0.0 0.0 -3.165826199687e+01 
-1.184654368952e+02 1.240153558439e+00 0.0 
1.240153558439e+00 -2.730717173433e+02 0.0 
0.0 0.0 -1.170611462715e+02 
-7.478073960908e+01 1.913396657899e+00 0.0 
1.913396657899e+00 -1.826086222642e+02 0.0 
0.0 0.0 -7.681680856198e+01 
-1.707643231482e+01 -4.187436744193e-01 0.0 
-4.187436744193e-01 -4.203072264402e+01 0.0 
0.0 0.0 -1.733214648765e+01 
-6.230880548866e+01 1.478286260099e+00 0.0 
1.478286260099e+00 -1.545544586550e+02 0.0 
0.0 0.0 -6.465897924310e+01 
-1.188400484263e+02 -7.456944809372e-01 0.0 
-7.456944809372e-01 -2.843762038953e+02 0.0 
0.0 0.0 -1.205648756965e+02 
-1.198153901070e+02 2.638395984625e+00 0.0 
2.638395984625e+00 -2.756510735008e+02 0.0 
0.0 0.0 -1.182399390824e+02 
-2.969069759294e+01 3.416988747948e-01 0.0 
3.416988747948e-01 -7.305600089907e+01 0.0 
0.0 0.0 -3.042400954760e+01 
-9.624955024657e+01 5.394840125733e-01 0.0 
5.394840125733e-01 -2.317523576414e+02 0.0 
0.0 0.0 -9.800057236640e+01 
-1.258694754309e+02 1.677817094558e+00 0.0 
1.677817094558e+00 -2.911740018256e+02 0.0 
0.0 0.0 -1.247130431769e+02 
-1.319513075908e+02 4.208644273540e+00 0.0 
4.208644273540e+00 -3.086279953702e+02 0.0 
0.0 0.0 -1.317737908883e+02 
-5.983512323066e+01 -2.528976741852e-01 0.0 
-2.528976741852e-01 -1.484182459665e+02 0.0 
0.0 0.0 -6.207601075915e+01 
-4.837735542229e+01 -7.925745955841e-01 0.0 
-7.925745955841e-01 -1.187177495467e+02 0.0 
0.0 0.0 -4.972853149069e+01 
-1.023722597484e+02 2.571443831907e+00 0.0 
2.571443831907e+00 -2.403052449314e+02 0.0 
0.0 0.0 -1.024032514040e+02 
-1.057147545178e+02 8.672160755123e-01 0.0 
8.672160755123e-01 -2.450330163659e+02 0.0 
0.0 0.0 -1.048243312651e+02 
-1.683155589038e+01 -2.653085715786e-01 0.0 
-2.653085715786e-01 -4.142531365958e+01 0.0 
0.0 0.0 -1.707706086499e+01 
-1.517064978587e+02 3.428447167136e+00 0.0 
3.428447167136e+00 -3.538290857070e+02 0.0 
0.0 0.0 -1.512606750697e+02 
-1.492440839559e+02 2.037562816346e+00 0.0 
2.037562816346e+00 -3.489355717448e+02 0.0 
0.0 0.0 -1.490538967102e+02 
-9.409820688937e+01 7.865190685515e-01 0.0 
7.865190685515e-01 -2.176349840646e+02 0.0 
0.0 0.0 -9.311995728620e+01 
-1.475789050431e+02 1.967707556014e+00 0.0 
1.967707556014e+00 -3.437493068911e+02 0.0 
0.0 0.0 -1.469984635803e+02 
-1.503187543342e+02 2.135273589793e+00 0.0 
2.135273589793e+00 -3.510074166967e+02 0.0 
0.0 0.0 -1.499978513093e+02 
-7.383707762872e+01 1.284441074152e+00 0.0 
1.284441074152e+00 -1.814758586602e+02 0.0 
0.0 0.0 -7.619388088666e+01 
-6.985472060458e+01 2.096436203864e+00 0.0 
2.096436203864e+00 -1.719624800162e+02 0.0 
0.0 0.0 -7.214516018624e+01 
-1.531358585221e+02 3.883454209277e+00 0.0 
3.883454209277e+00 -3.603060806191e+02 0.0 
0.0 0.0 -1.536325817424e+02 
-6.202302596250e+00 4.934737414474e-02 0.0 
4.934737414474e-02 -8.745984105119e+00 0.0 
0.0 0.0 -5.035098193197e+00 
-4.400593208398e+01 -8.184705945232e-01 0.0 
-8.184705945232e-01 -1.082218057863e+02 0.0 
0.0 0.0 -4.526832136108e+01 
-9.763568301678e+01 -7.892638071613e-01 0.0 
-7.892638071613e-01 -2.362039870015e+02 0.0 
0.0 0.0 -9.975190100549e+01 
-6.041546081220e+01 9.698422629053e-01 0.0 
9.698422629053e-01 -1.489779278387e+02 0.0 
0.0 0.0 -6.241801659528e+01 
-6.150649800627e+01 7.457675856431e-01 0.0 
7.457675856431e-01 -1.531117346964e+02 0.0 
0.0 0.0 -6.398546981080e+01 
-3.042427447544e+01 1.673285540041e+00 0.0 
1.673285540041e+00 -6.698943943635e+01 0.0 
0.0 0.0 -2.882411417354e+01 
-3.566785707300e+01 1.871427053478e+00 0.0 
1.871427053478e+00 -7.909595190867e+01 0.0 
0.0 0.0 -3.402914269450e+01 
-9.472310051653e+01 9.218499594996e-01 0.0 
9.218499594996e-01 -2.178692369416e+02 0.0 
0.0 0.0 -9.337770123744e+01 
-6.694108138800e+01 3.070899663555e+00 0.0 
3.070899663555e+00 -1.645263117052e+02 0.0 
0.0 0.0 -6.904021792795e+01 
-5.137305204337e+01 -7.442500615320e-01 0.0 
-7.442500615320e-01 -1.263701840151e+02 0.0 
0.0 0.0 -5.292297081755e+01 
-1.272889991060e+02 2.536278809673e+00 0.0 
2.536278809673e+00 -2.975419587025e+02 0.0 
0.0 0.0 -1.270492873425e+02 
-1.629216152033e+02 1.898080085201e+00 0.0 
1.898080085201e+00 -3.824435751881e+02 0.0 
0.0 0.0 -1.632095571174e+02 
-1.619278267349e+02 2.433335304548e+00 0.0 
2.433335304548e+00 -3.809564057075e+02 0.0 
0.0 0.0 -1.624652697327e+02 
-7.301994468596e+01 6.882322076120e-01 0.0 
6.882322076120e-01 -1.799337943990e+02 0.0 
0.0 0.0 -7.548612172547e+01 
-8.800636855288e+01 -1.695874963529e-01 0.0 
-1.695874963529e-01 -2.016908196669e+02 0.0 
0.0 0.0 -8.650915646594e+01 
-1.065233308507e+01 -3.387930547545e-02 0.0 
-3.387930547545e-02 -2.117556580541e+01 0.0 
0.0 0.0 -9.148369667143e+00 
-2.313692436175e+01 2.655297395203e+00 0.0 
2.655297395203e+00 -4.946013325202e+01 0.0 
0.0 0.0 -2.137911728413e+01 
-2.940385189197e+01 6.992530295354e-01 0.0 
6.992530295354e-01 -7.368480502658e+01 0.0 
0.0 0.0 -3.052659707556e+01 
-2.733703391887e+01 2.234812732929e+00 0.0 
2.234812732929e+00 -5.930635271043e+01 0.0 
0.0 0.0 -2.559301598879e+01 
-1.068053037777e+02 4.182866373428e+00 0.0 
4.182866373428e+00 -2.500249421232e+02 0.0 
0.0 0.0 -1.066490737703e+02 
-6.081847043374e+01 1.707378403039e-01 0.0 
1.707378403039e-01 -1.512641245507e+02 0.0 
0.0 0.0 -6.322477849533e+01 
-6.627938715920e+01 2.335057260162e+00 0.0 
2.335057260162e+00 -1.635524775617e+02 0.0 
0.0 0.0 -6.854955941626e+01 
-1.716158314760e+01 5.347873237703e-01 0.0 
5.347873237703e-01 -4.187881866093e+01 0.0 
0.0 0.0 -1.731212054256e+01 
-1.353322211381e+02 -8.857445756214e-03 0.0 
-8.857445756214e-03 -3.161036804058e+02 0.0 
0.0 0.0 -1.350307704632e+02 
-6.561357755419e+01 1.723378375552e+00 0.0 
1.723378375552e+00 -1.619726900456e+02 0.0 
0.0 0.0 -6.787588027995e+01 
-1.409845293675e+02 -3.855274185327e-01 0.0 
-3.855274185327e-01 -3.288924153551e+02 0.0 
0.0 0.0 -1.405630834168e+02 
-1.292646396739e+02 7.404445592762e-01 0.0 
7.404445592762e-01 -3.006225941456e+02 0.0 
0.0 0.0 -1.285661701459e+02 
-1.557467050024e+02 -2.097092027093e-02 0.0 
-2.097092027093e-02 -3.644373531355e+02 0.0 
0.0 0.0 -1.556552174414e+02 
-1.633277650295e+02 2.745234327160e-01 0.0 
2.745234327160e-01 -3.835643782408e+02 0.0 
0.0 0.0 -1.636676429811e+02 
-9.405718671987e+01 -6.073229083603e-01 0.0 
-6.073229083603e-01 -2.180782415575e+02 0.0 
0.0 0.0 -9.324062848320e+01 
-6.916677535944e+01 1.561013983633e+00 0.0 
1.561013983633e+00 -1.702003567809e+02 0.0 
0.0 0.0 -7.141013964210e+01 
-3.909903129811e+01 -1.243345329263e-01 0.0 
-1.243345329263e-01 -8.720212986408e+01 0.0 
0.0 0.0 -3.749034834866e+01 
-7.222946722545e+01 1.875332552192e-01 0.0 
1.875332552192e-01 -1.779722323620e+02 0.0 
0.0 0.0 -7.466050987622e+01 
-1.637374679431e+02 1.580300204098e+00 0.0 
1.580300204098e+00 -3.833874252006e+02 0.0 
0.0 0.0 -1.637374679431e+02 
-1.518372165433e+01 3.585707745292e+00 0.0 
3.585707745292e+00 -3.014036064236e+01 0.0 
0.0 0.0 -1.319722468901e+01 
-1.910731948928e+01 2.845311720260e+00 0.0 
2.845311720260e+00 -3.980290455207e+01 0.0 
0.0 0.0 -1.727306721240e+01 
-1.380917172970e+02 3.996391081311e+00 0.0 
3.996391081311e+00 -3.255284756714e+02 0.0 
0.0 0.0 -1.386860578905e+02 
-8.798062955242e+01 1.199436147744e-01 0.0 
1.199436147744e-01 -2.022806443305e+02 0.0 
0.0 0.0 -8.667838216487e+01 
-1.417608267191e+02 -5.614517941004e-01 0.0 
-5.614517941004e-01 -3.309414599368e+02 0.0 
0.0 0.0 -1.414106859968e+02 
-1.262318236139e+02 3.419554621201e+00 0.0 
3.419554621201e+00 -2.914854974868e+02 0.0 
0.0 0.0 -1.249151963302e+02 
-1.395374496122e+02 2.750831214272e+00 0.0 
2.750831214272e+00 -3.268735524167e+02 0.0 
0.0 0.0 -1.395233006087e+02 
-1.314057486954e+02 3.152265827948e+00 0.0 
3.152265827948e+00 -3.036780230566e+02 0.0 
0.0 0.0 -1.301251315256e+02 
-9.590960867891e+01 -6.476314877218e-01 0.0 
-6.476314877218e-01 -2.216731865622e+02 0.0 
0.0 0.0 -9.487483857234e+01 
-5.269458211507e+01 7.670581303188e-01 0.0 
7.670581303188e-01 -1.303084270372e+02 0.0 
0.0 0.0 -5.450090274568e+01 
-5.213572623556e+01 -4.503832563827e-01 0.0 
-4.503832563827e-01 -1.298424847672e+02 0.0 
0.0 0.0 -5.419346330082e+01 
-1.141157649842e+02 -6.787226078405e-01 0.0 
-6.787226078405e-01 -2.646185914896e+02 0.0 
0.0 0.0 -1.132203069421e+02 
-1.359697094617e+02 4.436156779016e+00 0.0 
4.436156779016e+00 -3.174727564317e+02 0.0 
0.0 0.0 -1.356327397680e+02 
-8.130467587353e+01 1.194415739567e-01 0.0 
1.194415739567e-01 -1.855302877116e+02 0.0 
0.0 0.0 -7.965048907553e+01 
-8.701945134671e+01 -2.098892425266e-02 0.0 
-2.098892425266e-02 -2.011799204527e+02 0.0 
0.0 0.0 -8.605981153982e+01 
-9.390511622277e+01 3.022531784182e-01 0.0 
3.022531784182e-01 -2.170611078158e+02 0.0 
0.0 0.0 -9.288986721156e+01 
-9.605553083373e+01 1.056179437054e+00 0.0 
1.056179437054e+00 -2.226108458363e+02 0.0 
0.0 0.0 -9.519991300100e+01 
-2.355422087135e+01 2.108124870183e-01 0.0 
2.108124870183e-01 -6.195772963519e+01 0.0 
0.0 0.0 -2.525358515196e+01 
-4.772415044152e+01 -6.425911378280e-01 0.0 
-6.425911378280e-01 -1.187350267367e+02 0.0 
0.0 0.0 -4.953775315346e+01 
-1.492710656663e+02 2.428937964313e-01 0.0 
2.428937964313e-01 -3.489228696888e+02 0.0 
0.0 0.0 -1.490581806065e+02 
-1.044862994399e+02 1.012133176739e+00 0.0 
1.012133176739e+00 -2.418220628502e+02 0.0 
0.0 0.0 -1.034925086870e+02 
-1.550554439461e+02 3.264795066644e+00 0.0 
3.264795066644e+00 -3.637556000731e+02 0.0 
0.0 0.0 -1.552433132058e+02 
-1.442492354555e+02 3.105730130058e+00 0.0 
3.105730130058e+00 -3.349360913441e+02 0.0 
0.0 0.0 -1.433555980399e+02 
-1.189682805587e+02 2.907538352189e+00 0.0 
2.907538352189e+00 -2.737280917925e+02 0.0 
0.0 0.0 -1.174089117054e+02 
-1.421297270624e+02 1.680046952562e+00 0.0 
1.680046952562e+00 -3.310965086137e+02 0.0 
0.0 0.0 -1.415678707028e+02 
-7.235883741022e+01 -5.401020382863e-01 0.0 
-5.401020382863e-01 -1.762092798320e+02 0.0 
0.0 0.0 -7.417043517267e+01 
-6.541597719007e+01 -6.042970815376e-01 0.0 
-6.042970815376e-01 -1.607337038601e+02 0.0 
0.0 0.0 -6.744490431504e+01 
-1.476673134544e+02 1.560539601085e+00 0.0 
1.560539601085e+00 -3.490689808225e+02 0.0 
0.0 0.0 -1.486208882831e+02 
-1.068248538654e+01 -3.829236357495e-01 0.0 
-3.829236357495e-01 -2.440890483872e+01 0.0 
0.0 0.0 -1.058010173861e+01 
-4.675790236069e+01 1.514751669516e-01 0.0 
1.514751669516e-01 -1.142596953039e+02 0.0 
0.0 0.0 -4.790527929938e+01 
-1.589829758852e+02 3.926295782331e+00 0.0 
3.926295782331e+00 -3.722936103988e+02 0.0 
0.0 0.0 -1.589829758852e+02 
-2.316638776910e+01 6.949177310064e-01 0.0 
6.949177310064e-01 -5.744002204114e+01 0.0 
0.0 0.0 -2.378192294307e+01 
-8.714208194954e+01 -6.718950260725e-02 0.0 
-6.718950260725e-02 -2.012846862424e+02 0.0 
0.0 0.0 -8.612803045758e+01 
-1.465143444909e+02 3.552770574593e+00 0.0 
3.552770574593e+00 -3.460135074185e+02 0.0 
0.0 0.0 -1.473583555728e+02 
-1.631641323458e+01 -8.294827057297e-01 0.0 
-8.294827057297e-01 -3.890591598261e+01 0.0 
0.0 0.0 -1.616669876516e+01 
-9.896570886353e+00 2.427365821236e-03 0.0 
2.427365821236e-03 -2.387833364112e+01 0.0 
0.0 0.0 -9.732471358241e+00 
-1.563742945999e+02 1.360858549456e+00 0.0 
1.360858549456e+00 -3.653711604510e+02 0.0 
0.0 0.0 -1.561236365153e+02 
-8.029943948427e+01 -3.164299874475e-01 0.0 
-3.164299874475e-01 -1.845703286233e+02 0.0 
0.0 0.0 -7.906093043228e+01 
-1.479480024606e+02 -9.194167413033e-02 0.0 
-9.194167413033e-02 -3.451151979648e+02 0.0 
0.0 0.0 -1.475189601276e+02 
-1.466464120827e+02 3.314565555630e+00 0.0 
3.314565555630e+00 -3.452882285631e+02 0.0 
0.0 0.0 -1.471803921937e+02 
-8.009819548913e+01 2.532560631641e-01 0.0 
2.532560631641e-01 -1.842528692517e+02 0.0 
0.0 0.0 -7.890531942225e+01 
-1.123830023313e+01 4.010834958733e-01 0.0 
4.010834958733e-01 -2.293342257202e+01 0.0 
0.0 0.0 -9.851516841546e+00 
-1.488729024107e+02 5.393375325724e-01 0.0 
5.393375325724e-01 -3.481933573142e+02 0.0 
0.0 0.0 -1.487198779175e+02 
-2.555206030373e+01 6.259998707210e-01 0.0 
6.259998707210e-01 -6.318012994470e+01 0.0 
0.0 0.0 -2.621965707453e+01 
-1.430579211190e+02 1.693117241260e-01 0.0 
1.693117241260e-01 -3.342198528282e+02 0.0 
0.0 0.0 -1.427833321842e+02 
-1.637695980867e+02 1.181419033078e+00 0.0 
1.181419033078e+00 -3.834623955357e+02 0.0 
0.0 0.0 -1.637695980867e+02 
-1.435119464792e+02 2.619623084285e+00 0.0 
2.619623084285e+00 -3.341185139971e+02 0.0 
0.0 0.0 -1.428891381429e+02 
-3.060937141545e+01 4.413488136506e-01 0.0 
4.413488136506e-01 -7.992929059890e+01 0.0 
0.0 0.0 -3.276159860430e+01 
-9.538342740238e+01 3.753387491066e-01 0.0 
3.753387491066e-01 -2.189089518158e+02 0.0 
0.0 0.0 -9.388771376545e+01 
-7.306363359203e+01 5.293191905144e-01 0.0 
5.293191905144e-01 -1.788225710854e+02 0.0 
0.0 0.0 -7.516586140324e+01 
-1.275951384650e+02 4.194576431551e+00 0.0 
4.194576431551e+00 -2.978501328270e+02 0.0 
0.0 0.0 -1.272335813876e+02 
-1.604539409890e+02 4.525197175956e+00 0.0 
4.525197175956e+00 -3.756490125908e+02 0.0 
0.0 0.0 -1.604308860739e+02 
-1.226668240864e+02 -4.130490544954e-01 0.0 
-4.130490544954e-01 -2.855652255462e+02 0.0 
0.0 0.0 -1.220696148898e+02 
-1.602498527813e+02 3.643572763629e+00 0.0 
3.643572763629e+00 -3.760896925649e+02 0.0 
0.0 0.0 -1.605018636039e+02 
-1.598839194727e+01 -3.230081248289e-01 0.0 
-3.230081248289e-01 -4.064560247824e+01 0.0 
0.0 0.0 -1.659019832765e+01 
-1.565053373259e+02 1.995895050899e+00 0.0 
1.995895050899e+00 -3.682071879468e+02 0.0 
0.0 0.0 -1.570137575818e+02 
-3.504635478101e+01 5.275248179354e-01 0.0 
5.275248179354e-01 -9.006849238060e+01 0.0 
0.0 0.0 -3.713445414848e+01 
-2.313531520023e+01 -4.889774539210e-01 0.0 
-4.889774539210e-01 -5.742167828898e+01 0.0 
0.0 0.0 -2.376709804676e+01 
-1.542510731099e+02 3.660365431021e+00 0.0 
3.660365431021e+00 -3.633058693709e+02 0.0 
0.0 0.0 -1.548670827442e+02 
-1.503106416452e+02 1.746675266993e+00 0.0 
1.746675266993e+00 -3.502488159325e+02 0.0 
0.0 0.0 -1.497678372733e+02 
-1.509354423191e+02 1.616474538940e+00 0.0 
1.616474538940e+00 -3.525572152238e+02 0.0 
0.0 0.0 -1.506477972629e+02 
-8.667189627959e+01 -7.586568020000e-01 0.0 
-7.586568020000e-01 -2.000721334227e+02 0.0 
0.0 0.0 -8.562320891070e+01 
-9.643084452082e+01 -1.359985737286e-01 0.0 
-1.359985737286e-01 -2.211883224589e+02 0.0 
0.0 0.0 -9.488575009393e+01 
-3.132684927684e+01 4.537078149159e+00 0.0 
4.537078149159e+00 -6.879758189140e+01 0.0 
0.0 0.0 -2.963732935047e+01 
-1.515432889812e+02 2.997340893477e+00 0.0 
2.997340893477e+00 -3.525555850221e+02 0.0 
0.0 0.0 -1.508296622010e+02 
-6.133253406349e+01 -6.978284200115e-01 0.0 
-6.978284200115e-01 -1.495458437333e+02 0.0 
0.0 0.0 -6.286351333903e+01 
-1.811775095963e+01 4.985088048101e+00 0.0 
4.985088048101e+00 -4.428499065705e+01 0.0 
0.0 0.0 -1.832082248501e+01 
-1.317110599159e+02 2.709544880792e+00 0.0 
2.709544880792e+00 -3.082425937800e+02 0.0 
0.0 0.0 -1.315860961088e+02 
-7.979042051433e+01 9.161550100620e-02 0.0 
9.161550100620e-02 -1.838625855757e+02 0.0 
0.0 0.0 -7.869590182702e+01 
-1.445697551754e+02 8.390389860428e-01 0.0 
8.390389860428e-01 -3.369493748185e+02 0.0 
0.0 0.0 -1.440557389981e+02 
-1.553193164728e+02 7.576045631843e-01 0.0 
7.576045631843e-01 -3.630888780683e+02 0.0 
0.0 0.0 -1.551224583623e+02 
-1.561112216243e+02 9.842905522435e-02 0.0 
9.842905522435e-02 -3.655928504566e+02 0.0 
0.0 0.0 -1.561112216243e+02 
-2.631817282944e+00 3.625685224185e-01 0.0 
3.625685224185e-01 -6.584457370068e+00 0.0 
0.0 0.0 -2.364882395903e+00 
-5.065952272059e+00 -2.993340576209e-01 0.0 
-2.993340576209e-01 -1.041691667931e+01 0.0 
0.0 0.0 -4.881367235569e+00 
-8.068463839293e+01 6.778640550309e-01 0.0 
6.778640550309e-01 -1.863188309813e+02 0.0 
0.0 0.0 -7.970104081228e+01 
-7.926708637442e+01 -1.091525016949e-01 0.0 
-1.091525016949e-01 -1.838013002162e+02 0.0 
0.0 0.0 -7.852051597719e+01 
-1.640117875795e+02 1.184124670917e-01 0.0 
1.184124670917e-01 -3.840275043522e+02 0.0 
0.0 0.0 -1.640117875795e+02 
-1.625425623482e+02 -7.031877309994e-01 0.0 
-7.031877309994e-01 -3.813887285931e+02 0.0 
0.0 0.0 -1.627793872824e+02 
-9.458023586376e+00 -6.287352591030e-01 0.0 
-6.287352591030e-01 -2.292314155785e+01 0.0 
0.0 0.0 -9.314349543269e+00 
-6.305636478139e+00 -2.327557625306e-01 0.0 
-2.327557625306e-01 -8.202264513342e+00 0.0 
0.0 0.0 -4.852796644650e+00 
-1.488829113878e+02 3.482845702043e-01 0.0 
3.482845702043e-01 -3.515422217884e+02 0.0 
0.0 0.0 -1.497275399529e+02 
-1.441492261209e+02 2.537540504535e+00 0.0 
2.537540504535e+00 -3.364818403175e+02 0.0 
0.0 0.0 -1.437893199315e+02 
-3.026903733807e+01 3.320642223465e-01 0.0 
3.320642223465e-01 -7.374993736867e+01 0.0 
0.0 0.0 -3.080569241202e+01 
-1.504439457750e+02 2.097410288422e+00 0.0 
2.097410288422e+00 -3.547962401084e+02 0.0 
0.0 0.0 -1.511720557650e+02 
-1.047681030909e+02 2.585732198143e-01 0.0 
2.585732198143e-01 -2.519658464286e+02 0.0 
0.0 0.0 -1.066201848558e+02 
-8.958512107869e+01 7.976257651330e-01 0.0 
7.976257651330e-01 -2.175221354609e+02 0.0 
0.0 0.0 -9.173217696188e+01 
-1.083409293579e+02 -2.766966277344e-01 0.0 
-2.766966277344e-01 -2.516655904007e+02 0.0 
0.0 0.0 -1.076019559276e+02 
-2.761444488772e+01 -4.830883023030e-01 0.0 
-4.830883023030e-01 -6.916758911842e+01 0.0 
0.0 0.0 -2.863461020184e+01 
-1.194384060794e+02 4.176272516645e+00 0.0 
4.176272516645e+00 -2.787502715500e+02 0.0 
0.0 0.0 -1.190566032888e+02 
-2.422262058841e+01 -3.396502472224e-01 0.0 
-3.396502472224e-01 -5.912975129853e+01 0.0 
0.0 0.0 -2.460571156608e+01 
-8.165651669374e+01 8.336929028247e-01 0.0 
8.336929028247e-01 -1.978891149445e+02 0.0 
0.0 0.0 -8.346368949148e+01 
-1.455998397154e+02 2.053321301503e+00 0.0 
2.053321301503e+00 -3.388606727482e+02 0.0 
0.0 0.0 -1.449381537391e+02 
-1.388337680954e+02 8.648933273020e-01 0.0 
8.648933273020e-01 -3.238375407229e+02 0.0 
0.0 0.0 -1.384013926455e+02 
-8.979586819056e+01 -3.921955937244e-01 0.0 
-3.921955937244e-01 -2.166584411950e+02 0.0 
0.0 0.0 -9.153629281567e+01 
-9.981024232816e+01 7.845482887456e-01 0.0 
7.845482887456e-01 -2.313434779803e+02 0.0 
0.0 0.0 -9.894611609254e+01 
-1.453111764582e+02 3.041113009083e+00 0.0 
3.041113009083e+00 -3.388103046457e+02 0.0 
0.0 0.0 -1.448364443312e+02 
-1.348600594646e+02 3.346831644927e+00 0.0 
3.346831644927e+00 -3.120170084150e+02 0.0 
0.0 0.0 -1.336631203639e+02 
-1.268710475828e+02 3.147451722129e+00 0.0 
3.147451722129e+00 -2.927737059366e+02 0.0 
0.0 0.0 -1.254934260558e+02 
-8.004030778405e+01 -1.621882058122e-02 0.0 
-1.621882058122e-02 -1.845198566400e+02 0.0 
0.0 0.0 -7.896804932722e+01 
-1.150349083377e+02 4.241429245970e+00 0.0 
4.241429245970e+00 -2.692701472912e+02 0.0 
0.0 0.0 -1.148915166886e+02 
-1.435661906683e+02 1.220849355845e+00 0.0 
1.220849355845e+00 -3.346402370934e+02 0.0 
0.0 0.0 -1.430619283285e+02 
-4.619386889170e+01 -5.269743416797e-01 0.0 
-5.269743416797e-01 -1.138560380990e+02 0.0 
0.0 0.0 -4.761497209720e+01 
-1.114670291004e+01 -1.019121725212e-01 0.0 
-1.019121725212e-01 -2.499704820014e+01 0.0 
0.0 0.0 -1.044312533306e+01 
-1.402974528708e+02 3.703604238744e+00 0.0 
3.703604238744e+00 -3.263940188963e+02 0.0 
0.0 0.0 -1.396074415301e+02 
-1.335198047588e+02 2.512690544734e+00 0.0 
2.512690544734e+00 -3.155124923379e+02 0.0 
0.0 0.0 -1.343096891290e+02 
-2.309244524500e+01 1.915445441480e-01 0.0 
1.915445441480e-01 -5.761355258726e+01 0.0 
0.0 0.0 -2.381179934968e+01 
-1.143880708217e+02 7.211619278770e-01 0.0 
7.211619278770e-01 -2.657032593423e+02 0.0 
0.0 0.0 -1.136273990492e+02 
-1.557035000757e+02 1.044600932988e+00 0.0 
1.044600932988e+00 -3.662342821472e+02 0.0 
0.0 0.0 -1.561813346669e+02 
-1.395493613143e+02 2.787004582107e+00 0.0 
2.787004582107e+00 -3.255219214214e+02 0.0 
0.0 0.0 -1.391213848207e+02 
-1.453664570325e+02 3.611011849530e+00 0.0 
3.611011849530e+00 -3.390075053434e+02 0.0 
0.0 0.0 -1.449121887128e+02 
-1.135437606771e+02 9.181673777731e-01 0.0 
9.181673777731e-01 -2.722075641486e+02 0.0 
0.0 0.0 -1.153253974477e+02 
-7.769106371205e+00 1.985766097307e+00 0.0 
1.985766097307e+00 -2.280180395582e+01 0.0 
0.0 0.0 -9.048064147330e+00 
-3.007311546890e+01 2.500121548843e-01 0.0 
2.500121548843e-01 -6.702067594839e+01 0.0 
0.0 0.0 -2.872813742519e+01 
-4.008225593955e+01 3.482560805929e+00 0.0 
3.482560805929e+00 -8.815656241251e+01 0.0 
0.0 0.0 -3.807164550562e+01 
-9.574265593470e+01 3.522333407352e-01 0.0 
3.522333407352e-01 -2.190068540079e+02 0.0 
0.0 0.0 -9.402485298279e+01 
-1.149383812569e+02 2.457324220770e+00 0.0 
2.457324220770e+00 -2.689215253607e+02 0.0 
0.0 0.0 -1.147579719853e+02 
-1.441123077267e+02 1.173687157356e+00 0.0 
1.173687157356e+00 -3.365170162385e+02 0.0 
0.0 0.0 -1.437887971896e+02 
-1.531928945471e+02 3.305794714822e+00 0.0 
3.305794714822e+00 -3.595874930185e+02 0.0 
0.0 0.0 -1.534341162697e+02 
-1.774909106308e+01 -2.157342885481e-01 0.0 
-2.157342885481e-01 -4.156381202528e+01 0.0 
0.0 0.0 -1.739387092651e+01 
-1.702312585379e+01 -6.392787387431e-01 0.0 
-6.392787387431e-01 -4.016998146626e+01 0.0 
0.0 0.0 -1.675793219602e+01 
-2.226786558750e+01 1.091776188553e-01 0.0 
1.091776188553e-01 -4.940586345549e+01 0.0 
0.0 0.0 -2.110211871290e+01 
-1.169706313394e+02 -9.694391815342e-01 0.0 
-9.694391815342e-01 -2.714079844192e+02 0.0 
0.0 0.0 -1.161135847276e+02 
-5.679965351648e+01 6.253287242195e-01 0.0 
6.253287242195e-01 -1.393181385729e+02 0.0 
0.0 0.0 -5.843533762683e+01 
-1.452943178854e+02 1.840088382189e+00 0.0 
1.840088382189e+00 -3.385350175218e+02 0.0 
0.0 0.0 -1.447488006222e+02 
-2.894628186866e+01 5.258036527319e-01 0.0 
5.258036527319e-01 -7.070584676384e+01 0.0 
0.0 0.0 -2.949563858975e+01 
-1.455941571815e+02 3.064488566718e+00 0.0 
3.064488566718e+00 -3.424803162788e+02 0.0 
0.0 0.0 -1.460223420381e+02 
-9.444422250473e+01 -4.898196554763e-01 0.0 
-4.898196554763e-01 -2.173058748772e+02 0.0 
0.0 0.0 -9.312502921457e+01 
-1.530412731243e+02 3.740824905483e+00 0.0 
3.740824905483e+00 -3.576705479313e+02 0.0 
0.0 0.0 -1.528135463167e+02 
-1.321058640623e+02 4.369000967495e+00 0.0 
4.369000967495e+00 -3.079206498160e+02 0.0 
0.0 0.0 -1.316079541635e+02 
-9.590122449604e+01 9.252686265210e-01 0.0 
9.252686265210e-01 -2.191274896508e+02 0.0 
0.0 0.0 -9.410861424404e+01 
-1.546528934273e+02 3.040880099042e+00 0.0 
3.040880099042e+00 -3.644106940503e+02 0.0 
0.0 0.0 -1.553190762433e+02 
-1.501586243549e+02 1.070782881302e+00 0.0 
1.070782881302e+00 -3.504776454812e+02 0.0 
0.0 0.0 -1.497908809508e+02 
-1.497059673023e+02 -1.289280219620e-01 0.0 
-1.289280219620e-01 -3.493558713648e+02 0.0 
0.0 0.0 -1.493185516001e+02 
-1.329898055870e+01 4.234107615183e-01 0.0 
4.234107615183e-01 -2.956665738876e+01 0.0 
0.0 0.0 -1.245969138424e+01 
-1.419669577034e+02 3.515240425100e-01 0.0 
3.515240425100e-01 -3.308831059972e+02 0.0 
0.0 0.0 -1.414550191102e+02 
-1.511332222561e+02 3.084941590968e+00 0.0 
3.084941590968e+00 -3.530819393874e+02 0.0 
0.0 0.0 -1.508645484930e+02 
-1.458027706059e+02 3.987542583021e+00 0.0 
3.987542583021e+00 -3.431134478368e+02 0.0 
0.0 0.0 -1.462748655328e+02 
-1.355114997044e+02 2.536117208897e+00 0.0 
2.536117208897e+00 -3.166510515891e+02 0.0 
0.0 0.0 -1.352487653881e+02 
-1.633025235378e+02 1.835820593739e+00 0.0 
1.835820593739e+00 -3.823725549215e+02 0.0 
0.0 0.0 -1.633025235378e+02 
-1.263483681801e+02 1.342384771818e+00 0.0 
1.342384771818e+00 -2.921983348881e+02 0.0 
0.0 0.0 -1.251640109205e+02 
-5.157992963950e+00 1.101119086362e+00 0.0 
1.101119086362e+00 -8.438229521883e+00 0.0 
0.0 0.0 -4.630609646276e+00 
-2.191926797679e+01 5.861034916670e+00 0.0 
5.861034916670e+00 -5.104548152840e+01 0.0 
0.0 0.0 -2.148942485156e+01 
-1.390199505266e+02 3.153701283373e+00 0.0 
3.153701283373e+00 -3.226332575931e+02 0.0 
0.0 0.0 -1.380959624359e+02 
-1.017138500687e+02 -8.747034404966e-02 0.0 
-8.747034404966e-02 -2.336464474663e+02 0.0 
0.0 0.0 -1.002080892605e+02 
-1.487998598019e+02 1.265665935939e+00 0.0 
1.265665935939e+00 -3.509667440146e+02 0.0 
0.0 0.0 -1.495299811450e+02 
-1.402487839851e+02 4.419627382493e+00 0.0 
4.419627382493e+00 -3.270489591984e+02 0.0 
0.0 0.0 -1.397893229551e+02 
-1.567837678162e+02 1.867973159697e+00 0.0 
1.867973159697e+00 -3.681115510242e+02 0.0 
0.0 0.0 -1.570685956521e+02 
-1.257722180611e+02 -7.506883663214e-01 0.0 
-7.506883663214e-01 -2.920156728030e+02 0.0 
0.0 0.0 -1.249363672592e+02 
-1.531802814402e+02 3.814089852837e+00 0.0 
3.814089852837e+00 -3.587539177116e+02 0.0 
0.0 0.0 -1.531802597456e+02 
-1.491283562231e+02 3.166296533447e+00 0.0 
3.166296533447e+00 -3.517790715244e+02 0.0 
0.0 0.0 -1.498722283242e+02 
-1.489160031322e+02 1.879448630613e+00 0.0 
1.879448630613e+00 -3.515213529467e+02 0.0 
0.0 0.0 -1.497312068237e+02 
-5.906519954025e+01 3.868485345499e-01 0.0 
3.868485345499e-01 -1.446185698090e+02 0.0 
0.0 0.0 -6.070513080479e+01 
-1.634029538780e+02 1.721880829824e+00 0.0 
1.721880829824e+00 -3.831080742358e+02 0.0 
0.0 0.0 -1.635533084341e+02 
-8.763992430456e+01 1.779733569909e-01 0.0 
1.779733569909e-01 -2.008446758438e+02 0.0 
0.0 0.0 -8.614538004451e+01 
-1.421899086370e+02 1.021039282965e+00 0.0 
1.021039282965e+00 -3.314027076364e+02 0.0 
0.0 0.0 -1.416777848820e+02 
-1.705149047643e+01 -1.435315192518e-01 0.0 
-1.435315192518e-01 -4.119723215381e+01 0.0 
0.0 0.0 -1.707461678907e+01 
-1.362108173913e+02 6.296858340306e-01 0.0 
6.296858340306e-01 -3.168087634390e+02 0.0 
0.0 0.0 -1.355058742491e+02 
-1.152963529319e+02 2.387959153630e-01 0.0 
2.387959153630e-01 -2.674573737398e+02 0.0 
0.0 0.0 -1.144261180015e+02 
-1.695730494942e+01 2.788746064680e-01 0.0 
2.788746064680e-01 -4.182529869069e+01 0.0 
0.0 0.0 -1.723478109203e+01 
-2.789393101155e+01 1.806758469585e+00 0.0 
1.806758469585e+00 -7.210907876928e+01 0.0 
0.0 0.0 -2.960090293425e+01 
-1.300406122473e+02 1.535214984570e+00 0.0 
1.535214984570e+00 -3.012355427524e+02 0.0 
0.0 0.0 -1.289828464999e+02 
-1.491075833690e+02 8.018380444624e-01 0.0 
8.018380444624e-01 -3.487422255601e+02 0.0 
0.0 0.0 -1.489549426787e+02 
-1.430069593944e+02 8.118735000630e-01 0.0 
8.118735000630e-01 -3.340392714399e+02 0.0 
0.0 0.0 -1.427138692503e+02 
-1.517342383309e+02 2.916988186399e+00 0.0 
2.916988186399e+00 -3.555248698901e+02 0.0 
0.0 0.0 -1.517777324663e+02 
-9.974300006507e+01 -8.580347617164e-01 0.0 
-8.580347617164e-01 -2.309429204807e+02 0.0 
0.0 0.0 -9.880577616374e+01 
-1.080824948101e+01 -3.005801604013e-01 0.0 
-3.005801604013e-01 -2.453955923881e+01 0.0 
0.0 0.0 -1.020434261594e+01 
-1.368284117597e+01 1.322573605027e+00 0.0 
1.322573605027e+00 -3.663674359840e+01 0.0 
0.0 0.0 -1.469587543231e+01 
-1.147624896647e+01 -1.040218726901e+00 0.0 
-1.040218726901e+00 -2.796968775110e+01 0.0 
0.0 0.0 -1.142519587240e+01 
-2.255974719660e+01 2.243786649276e-01 0.0 
2.243786649276e-01 -5.439354980993e+01 0.0 
0.0 0.0 -2.268598910196e+01 
-5.335917983799e+00 3.580626871707e+00 0.0 
3.580626871707e+00 -6.880204537470e+00 0.0 
0.0 0.0 -3.460458555692e+00 
-7.958249444980e+01 -4.293907112950e-01 0.0 
-4.293907112950e-01 -1.929784309525e+02 0.0 
0.0 0.0 -8.136827762069e+01 
-1.487544755438e+02 -2.496022686954e-01 0.0 
-2.496022686954e-01 -3.509012760331e+02 0.0 
0.0 0.0 -1.494967254731e+02 
-1.437137077477e+02 1.302579011887e+00 0.0 
1.302579011887e+00 -3.344714840321e+02 0.0 
0.0 0.0 -1.430555575339e+02 
-1.018092035585e+02 1.510116213811e+00 0.0 
1.510116213811e+00 -2.329372481017e+02 0.0 
0.0 0.0 -1.000239354981e+02 
-6.919176565443e+01 1.097252450202e+00 0.0 
1.097252450202e+00 -1.690349828611e+02 0.0 
0.0 0.0 -7.106802455466e+01 
-1.481538972097e+02 2.764688905416e+00 0.0 
2.764688905416e+00 -3.498615839928e+02 0.0 
0.0 0.0 -1.490046443608e+02 
-1.456431131119e+02 2.202213475148e+00 0.0 
2.202213475148e+00 -3.439032912150e+02 0.0 
0.0 0.0 -1.464639212981e+02 
-1.528962572013e+02 3.562696497956e+00 0.0 
3.562696497956e+00 -3.578706359407e+02 0.0 
0.0 0.0 -1.528300679426e+02 
-1.455420892744e+02 3.302083623352e+00 0.0 
3.302083623352e+00 -3.394277972173e+02 0.0 
0.0 0.0 -1.450909659475e+02 
-1.378006530820e+02 1.789855617590e+00 0.0 
1.789855617590e+00 -3.200885771778e+02 0.0 
0.0 0.0 -1.369667690779e+02 
-1.652601643499e+01 -7.089387447934e-01 0.0 
-7.089387447934e-01 -4.047585974712e+01 0.0 
0.0 0.0 -1.670056285463e+01 
-1.587105998402e+01 7.095012186457e-01 0.0 
7.095012186457e-01 -3.633426452890e+01 0.0 
0.0 0.0 -1.526159735388e+01 
-1.490492142033e+02 1.463404329272e+00 0.0 
1.463404329272e+00 -3.521302186192e+02 0.0 
0.0 0.0 -1.499538298468e+02 
-1.634047341112e+01 -2.069800057793e-01 0.0 
-2.069800057793e-01 -4.118919428741e+01 0.0 
0.0 0.0 -1.685890030956e+01 
-1.959557942993e+01 -1.091911499499e+00 0.0 
-1.091911499499e+00 -4.894277019118e+01 0.0 
0.0 0.0 -2.016150488633e+01 
-1.013160991404e+01 3.783261872731e+00 0.0 
3.783261872731e+00 -2.604006517495e+01 0.0 
0.0 0.0 -1.045150252670e+01 
-1.599874245370e+01 3.228794192057e-01 0.0 
3.228794192057e-01 -3.871911674879e+01 0.0 
0.0 0.0 -1.601535776075e+01 
-1.553452493615e+02 2.656534088098e+00 0.0 
2.656534088098e+00 -3.652993338520e+02 0.0 
0.0 0.0 -1.557933749640e+02 
-1.512404652132e+02 3.181153758989e+00 0.0 
3.181153758989e+00 -3.532437653310e+02 0.0 
0.0 0.0 -1.509452691633e+02 
-1.438946161314e+02 -2.639888244145e-01 0.0 
-2.639888244145e-01 -3.365422637328e+02 0.0 
0.0 0.0 -1.437310639593e+02 
-1.529569482983e+02 3.716712511561e+00 0.0 
3.716712511561e+00 -3.582746124408e+02 0.0 
0.0 0.0 -1.529694682217e+02 
-1.410321903742e+02 3.673616573982e+00 0.0 
3.673616573982e+00 -3.333283786013e+02 0.0 
0.0 0.0 -1.419081706927e+02 
-1.046573907386e+02 -9.279259332277e-01 0.0 
-9.279259332277e-01 -2.421515066378e+02 0.0 
0.0 0.0 -1.036426692129e+02 
-1.564181348993e+02 1.026166488054e+00 0.0 
1.026166488054e+00 -3.663089814318e+02 0.0 
0.0 0.0 -1.564181348993e+02 
-3.602882867253e+01 9.495640331618e-01 0.0 
9.495640331618e-01 -9.046870101245e+01 0.0 
0.0 0.0 -3.754925890549e+01 
-8.003933533999e+01 2.702486250066e-02 0.0 
2.702486250066e-02 -1.836452949823e+02 0.0 
0.0 0.0 -7.870538909670e+01 
-2.296806702804e+01 -4.602832505161e-01 0.0 
-4.602832505161e-01 -5.573281869907e+01 0.0 
0.0 0.0 -2.321026571813e+01 
-1.033235091862e+01 -3.535763226819e-01 0.0 
-3.535763226819e-01 -2.440140720650e+01 0.0 
0.0 0.0 -1.056698731802e+01 
-1.633479464959e+02 9.851670316521e-01 0.0 
9.851670316521e-01 -3.830935256188e+02 0.0 
0.0 0.0 -1.635324416344e+02 
-8.902323104021e+01 6.820886134837e-01 0.0 
6.820886134837e-01 -2.034864178463e+02 0.0 
0.0 0.0 -8.735289466596e+01 
-2.339520401048e+01 -2.779134782078e-01 0.0 
-2.779134782078e-01 -5.691400015958e+01 0.0 
0.0 0.0 -2.369276125102e+01 
-7.600503495555e+01 -8.894618220969e-01 0.0 
-8.894618220969e-01 -1.856197770228e+02 0.0 
0.0 0.0 -7.808744359351e+01 
-1.520329175618e+02 2.818869220605e+00 0.0 
2.818869220605e+00 -3.540820597472e+02 0.0 
0.0 0.0 -1.514344931927e+02 
-1.435347270739e+02 1.356494227189e+00 0.0 
1.356494227189e+00 -3.349478785091e+02 0.0 
0.0 0.0 -1.431447816749e+02 
-1.500090685025e+02 1.590079153717e+00 0.0 
1.590079153717e+00 -3.506576591900e+02 0.0 
0.0 0.0 -1.498000183078e+02 
-5.402413454335e+01 4.916406706126e-01 0.0 
4.916406706126e-01 -1.321135810457e+02 0.0 
0.0 0.0 -5.544131467671e+01 
-1.488527517767e+01 1.348680573959e+00 0.0 
1.348680573959e+00 -3.712029657067e+01 0.0 
0.0 0.0 -1.520167152450e+01 
-1.556372417654e+02 2.327811521899e+00 0.0 
2.327811521899e+00 -3.669777267538e+02 0.0 
0.0 0.0 -1.563844905558e+02 
-1.566521464997e+02 3.273860417774e-03 0.0 
3.273860417774e-03 -3.656563384944e+02 0.0 
0.0 0.0 -1.562925454983e+02 
-1.632078495108e+02 3.153102080834e-01 0.0 
3.153102080834e-01 -3.835577833816e+02 0.0 
0.0 0.0 -1.636296898677e+02 
-8.573126536320e+01 -5.193624015963e-01 0.0 
-5.193624015963e-01 -1.982158279817e+02 0.0 
0.0 0.0 -8.478412800346e+01 
-1.473572254412e+02 3.140251960227e+00 0.0 
3.140251960227e+00 -3.469889639469e+02 0.0 
0.0 0.0 -1.479038568164e+02 
-2.386736213067e+01 1.591003251124e-01 0.0 
1.591003251124e-01 -5.822933274915e+01 0.0 
0.0 0.0 -2.422900846395e+01 
-1.449963485865e+02 5.344435207862e-01 0.0 
5.344435207862e-01 -3.385584325760e+02 0.0 
0.0 0.0 -1.446664343488e+02 
-1.010165851575e+01 -1.796270076832e-01 0.0 
-1.796270076832e-01 -2.345365793802e+01 0.0 
0.0 0.0 -1.017435268367e+01 
-1.551751114009e+02 3.059858781353e+00 0.0 
3.059858781353e+00 -3.648662251897e+02 0.0 
0.0 0.0 -1.556124009772e+02 
-1.498291077827e+02 1.244218393842e+00 0.0 
1.244218393842e+00 -3.496013862826e+02 0.0 
0.0 0.0 -1.494291482196e+02 
-9.128672734269e+00 1.039291808637e+00 0.0 
1.039291808637e+00 -2.346900645790e+01 0.0 
0.0 0.0 -9.888575292276e+00 
-1.399267774528e+02 3.956301460995e+00 0.0 
3.956301460995e+00 -3.262883678443e+02 0.0 
0.0 0.0 -1.394645435891e+02 
-1.216182639725e+02 8.912455105042e-01 0.0 
8.912455105042e-01 -2.820616911808e+02 0.0 
0.0 0.0 -1.207039865460e+02 
-1.496880750435e+02 6.596819133162e-01 0.0 
6.596819133162e-01 -3.500301003186e+02 0.0 
0.0 0.0 -1.495154526086e+02 
-1.610246005659e+02 4.016487586005e+00 0.0 
4.016487586005e+00 -3.770574013205e+02 0.0 
0.0 0.0 -1.610246005659e+02 
-1.100653090617e+02 1.242231272719e+00 0.0 
1.242231272719e+00 -2.554910078329e+02 0.0 
0.0 0.0 -1.092668950684e+02 
-1.514408582993e+02 2.647357170447e+00 0.0 
2.647357170447e+00 -3.536949414676e+02 0.0 
0.0 0.0 -1.511407399301e+02 
-1.449978410456e+02 2.123466067095e+00 0.0 
2.123466067095e+00 -3.377696381024e+02 0.0 
0.0 0.0 -1.444302437444e+02 
-1.149520975138e+02 6.178162656037e-02 0.0 
6.178162656037e-02 -2.671018480950e+02 0.0 
0.0 0.0 -1.142161836826e+02 
-1.465199306546e+02 2.707238394592e+00 0.0 
2.707238394592e+00 -3.410755137296e+02 0.0 
0.0 0.0 -1.458786333153e+02 
-6.515077324934e+01 4.686777258818e-01 0.0 
4.686777258818e-01 -1.584862163482e+02 0.0 
0.0 0.0 -6.669109687925e+01 
-7.945876277777e+01 1.029755400003e-01 0.0 
1.029755400003e-01 -1.837722312853e+02 0.0 
0.0 0.0 -7.856929821893e+01 
-1.473591449529e+02 3.069907381406e+00 0.0 
3.069907381406e+00 -3.449351347561e+02 0.0 
0.0 0.0 -1.472882839127e+02 
-1.503825955891e+02 -3.974902523767e-01 0.0 
-3.974902523767e-01 -3.513939701949e+02 0.0 
0.0 0.0 -1.501329697352e+02 
-4.277128211041e+00 1.441333535905e-01 0.0 
1.441333535905e-01 -8.583282726343e+00 0.0 
0.0 0.0 -4.383372104382e+00 
-7.951198017405e+01 -2.184264848466e-01 0.0 
-2.184264848466e-01 -1.839990784167e+02 0.0 
0.0 0.0 -7.865331757722e+01 
-1.576329370218e+02 6.497540512980e-01 0.0 
6.497540512980e-01 -3.704828500888e+02 0.0 
0.0 0.0 -1.580347361332e+02 
-2.963449785741e+01 -7.415352358023e-01 0.0 
-7.415352358023e-01 -7.282238184627e+01 0.0 
0.0 0.0 -3.033706391111e+01 
-1.461821760094e+02 3.362871740128e+00 0.0 
3.362871740128e+00 -3.452569500204e+02 0.0 
0.0 0.0 -1.470317378089e+02 
-1.446271028336e+02 2.343122591005e+00 0.0 
2.343122591005e+00 -3.358184233103e+02 0.0 
0.0 0.0 -1.437336578432e+02 
-1.492629176545e+02 1.108311832237e+00 0.0 
1.108311832237e+00 -3.487626032779e+02 0.0 
0.0 0.0 -1.490076562797e+02 
-2.861222670416e+01 -6.766518732355e-01 0.0 
-6.766518732355e-01 -7.003553936373e+01 0.0 
0.0 0.0 -2.919432982037e+01 
-1.652675111130e+01 4.746234005260e+00 0.0 
4.746234005260e+00 -4.404355393230e+01 0.0 
0.0 0.0 -1.777109151308e+01 
-9.309956569275e+01 -1.332100303935e+00 0.0 
-1.332100303935e+00 -2.260912115561e+02 0.0 
0.0 0.0 -9.535723317464e+01 
-1.298576509138e+02 -2.127770059376e-01 0.0 
-2.127770059376e-01 -3.030120622310e+02 0.0 
0.0 0.0 -1.294609139434e+02 
-6.823448672828e+00 -2.679119334676e-01 0.0 
-2.679119334676e-01 -6.044540002420e+00 0.0 
0.0 0.0 -3.460396602574e+00 
-1.503113819856e+02 1.398806306711e+00 0.0 
1.398806306711e+00 -3.514004900170e+02 0.0 
0.0 0.0 -1.501135616008e+02 
-1.075352935224e+02 -8.667549225971e-02 0.0 
-8.667549225971e-02 -2.495988579314e+02 0.0 
0.0 0.0 -1.067402454361e+02 
-2.819690182099e+01 4.245690650390e-01 0.0 
4.245690650390e-01 -6.926350974141e+01 0.0 
0.0 0.0 -2.883812346872e+01 
-1.015788915431e+02 -1.726196962939e-01 0.0 
-1.726196962939e-01 -2.358562341946e+02 0.0 
0.0 0.0 -1.008305377213e+02 
-1.525436219986e+02 4.327193860090e+00 0.0 
4.327193860090e+00 -3.565190100456e+02 0.0 
0.0 0.0 -1.523187896133e+02 
-9.797745750178e+01 1.185678524637e+00 0.0 
1.185678524637e+00 -2.367533284363e+02 0.0 
0.0 0.0 -1.000192357814e+02 
-6.322889304076e+00 3.949982466584e+00 0.0 
3.949982466584e+00 -1.031724331507e+01 0.0 
0.0 0.0 -4.566037110376e+00 
-5.843976651533e+01 -6.129345433451e-01 0.0 
-6.129345433451e-01 -1.439328590537e+02 0.0 
0.0 0.0 -6.031178767070e+01 
-8.564983952072e+01 -3.029207674421e-01 0.0 
-3.029207674421e-01 -2.077786001302e+02 0.0 
0.0 0.0 -8.762853189526e+01 
-1.022545877021e+02 -1.376230239444e+00 0.0 
-1.376230239444e+00 -2.458708207626e+02 0.0 
0.0 0.0 -1.040376225394e+02 
-1.474720263367e+02 4.318911493644e+00 0.0 
4.318911493644e+00 -3.453257366769e+02 0.0 
0.0 0.0 -1.474393289041e+02 
-8.317293686834e+01 7.252442444637e-01 0.0 
7.252442444637e-01 -2.024845737002e+02 0.0 
0.0 0.0 -8.529725317056e+01 
-8.891011569664e+01 -2.560395962504e-01 0.0 
-2.560395962504e-01 -2.150076083907e+02 0.0 
0.0 0.0 -9.077531722619e+01 
-1.501877711880e+01 -6.450631257749e-01 0.0 
-6.450631257749e-01 -3.692784847282e+01 0.0 
0.0 0.0 -1.518398767749e+01 
-1.502160256368e+02 1.064456249372e+00 0.0 
1.064456249372e+00 -3.550271009867e+02 0.0 
0.0 0.0 -1.511729379870e+02 
-1.400070907513e+02 2.417250746739e+00 0.0 
2.417250746739e+00 -3.264646327334e+02 0.0 
0.0 0.0 -1.395415170454e+02 
-2.209180766754e+01 4.177220585414e+00 0.0 
4.177220585414e+00 -5.579810012347e+01 0.0 
0.0 0.0 -2.296697233730e+01 
-1.503460325118e+02 4.138394146736e-01 0.0 
4.138394146736e-01 -3.508546302711e+02 0.0 
0.0 0.0 -1.499601988349e+02 
-1.573817728313e+02 -4.088865759722e-01 0.0 
-4.088865759722e-01 -3.699261176673e+02 0.0 
0.0 0.0 -1.577923671496e+02 
-8.612137886510e+01 6.221131718098e-01 0.0 
6.221131718098e-01 -1.992350744926e+02 0.0 
0.0 0.0 -8.520693600732e+01 
-1.075362885453e+02 -6.659098155770e-02 0.0 
-6.659098155770e-02 -2.495747119534e+02 0.0 
0.0 0.0 -1.067333001496e+02 
-8.340764643830e+01 -5.776131147214e-01 0.0 
-5.776131147214e-01 -2.023766789480e+02 0.0 
0.0 0.0 -8.533529761588e+01 
-8.630677377183e+01 5.119299051600e-01 0.0 
5.119299051600e-01 -2.086097483505e+02 0.0 
0.0 0.0 -8.807495663671e+01 
-8.858786641426e+01 2.046317093697e-01 0.0 
2.046317093697e-01 -2.153769680311e+02 0.0 
0.0 0.0 -9.078945033360e+01 
-1.409436088403e+02 2.728122618604e+00 0.0 
2.728122618604e+00 -3.325904275316e+02 0.0 
0.0 0.0 -1.416602109116e+02 
-2.262263808583e+01 -6.927509757432e-01 0.0 
-6.927509757432e-01 -5.642564836608e+01 0.0 
0.0 0.0 -2.331448593557e+01 
-1.452152005597e+02 3.749661784882e+00 0.0 
3.749661784882e+00 -3.380179215845e+02 0.0 
0.0 0.0 -1.445699366433e+02 
-9.331413050594e+01 -2.538988606781e-01 0.0 
-2.538988606781e-01 -2.160917333311e+02 0.0 
0.0 0.0 -9.242175915111e+01 
-1.500687232996e+02 1.800638016180e+00 0.0 
1.800638016180e+00 -3.500995372143e+02 0.0 
0.0 0.0 -1.496504781542e+02 
-1.409251519976e+02 3.812659660075e+00 0.0 
3.812659660075e+00 -3.323894144217e+02 0.0 
0.0 0.0 -1.415943699258e+02 
-1.022306916538e+02 3.405401627134e-01 0.0 
3.405401627134e-01 -2.364626939784e+02 0.0 
0.0 0.0 -1.012080156896e+02 
-1.410857125857e+02 2.058173893767e+00 0.0 
2.058173893767e+00 -3.283068309009e+02 0.0 
0.0 0.0 -1.404177630460e+02 
-1.468451636904e+02 3.149855822831e+00 0.0 
3.149855822831e+00 -3.444725601363e+02 0.0 
0.0 0.0 -1.469953171480e+02 
-1.528611093913e+02 4.053172953437e+00 0.0 
4.053172953437e+00 -3.583327399377e+02 0.0 
0.0 0.0 -1.529581547987e+02 
-6.650055475859e+00 3.301639854670e+00 0.0 
3.301639854670e+00 -1.834417981024e+01 0.0 
0.0 0.0 -7.312303446889e+00 
-1.414023303617e+02 3.153855152863e+00 0.0 
3.153855152863e+00 -3.286155923835e+02 0.0 
0.0 0.0 -1.406053768235e+02 
-1.456007866635e+02 2.055051263734e+00 0.0 
2.055051263734e+00 -3.389295312216e+02 0.0 
0.0 0.0 -1.449590953655e+02 
-1.595638911600e+01 3.612195915483e-01 0.0 
3.612195915483e-01 -3.808210838947e+01 0.0 
0.0 0.0 -1.581154925164e+01 
-7.925028732530e+01 5.060429070385e-01 0.0 
5.060429070385e-01 -1.925530936896e+02 0.0 
0.0 0.0 -8.114101430447e+01 
-8.449547102200e+00 3.271303642868e+00 0.0 
3.271303642868e+00 -1.922342033024e+01 0.0 
0.0 0.0 -7.901890229733e+00 
-1.462598173585e+02 3.078824459382e+00 0.0 
3.078824459382e+00 -3.401247668031e+02 0.0 
0.0 0.0 -1.455153752485e+02 
-4.061893736470e+00 4.686848108864e-01 0.0 
4.686848108864e-01 -7.961266941048e+00 0.0 
0.0 0.0 -3.206948203255e+00 
-5.228060892953e+00 -5.371924662659e-02 0.0 
-5.371924662659e-02 -9.857979718152e+00 0.0 
0.0 0.0 -4.446941546940e+00 
-4.209748998367e+00 2.040479397030e-01 0.0 
2.040479397030e-01 -9.632854015943e+00 0.0 
0.0 0.0 -3.752780904293e+00 
-5.074727400710e+00 5.872795449382e-02 0.0 
5.872795449382e-02 -9.885059283263e+00 0.0 
0.0 0.0 -4.346481118522e+00 
-4.370746253064e+00 1.022874728220e-01 0.0 
1.022874728220e-01 -9.747754564077e+00 0.0 
0.0 0.0 -3.835550245142e+00 
-5.018599105017e+00 2.567980693309e-02 0.0 
2.567980693309e-02 -9.876955166894e+00 0.0 
0.0 0.0 -4.316349301788e+00 
-4.440739116610e+00 4.270367670495e-02 0.0 
4.270367670495e-02 -9.798442951955e+00 0.0 
0.0 0.0 -3.871754620569e+00 
-4.988736346669e+00 -2.925235006006e-03 0.0 
-2.925235006006e-03 -9.879147780387e+00 0.0 
0.0 0.0 -4.304012587362e+00 
-4.449313944733e+00 9.542095282573e-03 0.0 
9.542095282573e-03 -9.822543946286e+00 0.0 
0.0 0.0 -3.881557367305e+00 
-4.958368922814e+00 -2.355388673435e-02 0.0 
-2.355388673435e-02 -9.884096596281e+00 0.0 
0.0 0.0 -4.294393243598e+00 
-4.418482649252e+00 -9.211768319637e-03 0.0 
-9.211768319637e-03 -9.831410854854e+00 0.0 
0.0 0.0 -3.874968051232e+00 
-4.918322462855e+00 -3.924056219853e-02 0.0 
-3.924056219853e-02 -9.889580805364e+00 0.0 
0.0 0.0 -4.283019693247e+00 
-4.360407041515e+00 -2.074324061653e-02 0.0 
-2.074324061653e-02 -9.832540455323e+00 0.0 
0.0 0.0 -3.857884249051e+00 
-4.866127035889e+00 -5.240401781021e-02 0.0 
-5.240401781021e-02 -9.895167220298e+00 0.0 
0.0 0.0 -4.268573284050e+00 
-4.281093840171e+00 -2.888836655349e-02 0.0 
-2.888836655349e-02 -9.829797974119e+00 0.0 
0.0 0.0 -3.833267544287e+00 
-4.801499725968e+00 -6.457845961646e-02 0.0 
-6.457845961646e-02 -9.900875396233e+00 0.0 
0.0 0.0 -4.250747123585e+00 
-4.183021671659e+00 -3.565683715291e-02 0.0 
-3.565683715291e-02 -9.824963998577e+00 0.0 
0.0 0.0 -3.802395701071e+00 
-4.724677233295e+00 -7.672944526966e-02 0.0 
-7.672944526966e-02 -9.906848307032e+00 0.0 
0.0 0.0 -4.229520455054e+00 
-4.066623587908e+00 -4.212488293004e-02 0.0 
-4.212488293004e-02 -9.818786713818e+00 0.0 
0.0 0.0 -3.765623090518e+00 
-4.635902767106e+00 -8.950008091796e-02 0.0 
-8.950008091796e-02 -9.913270401914e+00 0.0 
0.0 0.0 -4.204918734925e+00 
-3.931105690342e+00 -4.886488121202e-02 0.0 
-4.886488121202e-02 -9.811554992378e+00 0.0 
0.0 0.0 -3.722798204816e+00 
-4.535356484849e+00 -1.033041794017e-01 0.0 
-1.033041794017e-01 -9.920335215742e+00 0.0 
0.0 0.0 -4.176946323845e+00 
-2.399012733605e+00 1.250811979484e+00 0.0 
1.250811979484e+00 -1.149780781668e+01 0.0 
0.0 0.0 -3.769046165085e+00 
-3.775063113204e+00 -5.602918612289e-02 0.0 
-5.602918612289e-02 -9.803509397449e+00 0.0 
0.0 0.0 -3.673571753196e+00 
-4.423215948500e+00 -1.181325232597e-01 0.0 
-1.181325232597e-01 -9.928087508969e+00 0.0 
0.0 0.0 -4.145611047881e+00 
-3.597191262055e+00 -6.346660874381e-02 0.0 
-6.346660874381e-02 -9.794941845409e+00 0.0 
0.0 0.0 -3.617639932239e+00 
-5.082590949304e+00 2.925268801502e-01 0.0 
2.925268801502e-01 -1.071951477828e+01 0.0 
0.0 0.0 -4.340631718275e+00 
-4.299968081062e+00 -1.336771064273e-01 0.0 
-1.336771064273e-01 -9.936541079668e+00 0.0 
0.0 0.0 -4.111027561018e+00 
-3.396763670230e+00 -7.084795901041e-02 0.0 
-7.084795901041e-02 -9.786005931919e+00 0.0 
0.0 0.0 -3.554830880645e+00 
-4.166481463712e+00 -1.493579522885e-01 0.0 
-1.493579522885e-01 -9.945545804295e+00 0.0 
0.0 0.0 -4.073484123820e+00 
-3.173813037130e+00 -7.801200149291e-02 0.0 
-7.801200149291e-02 -9.776636805692e+00 0.0 
0.0 0.0 -3.485134952847e+00 
-4.024623196458e+00 -1.650654316288e-01 0.0 
-1.650654316288e-01 -9.955460174983e+00 0.0 
0.0 0.0 -4.033498497349e+00 
9.799418291064e-01 -3.430676375988e-01 0.0 
-3.430676375988e-01 -4.867703719931e+00 0.0 
0.0 0.0 -6.554261716813e-01 
-2.928951414675e+00 -8.434144012168e-02 0.0 
-8.434144012168e-02 -9.766991471334e+00 0.0 
0.0 0.0 -3.408782865803e+00 
-3.876432445141e+00 -1.795382949861e-01 0.0 
-1.795382949861e-01 -9.965688577530e+00 0.0 
0.0 0.0 -3.991856404409e+00 
-2.663999322488e+00 -9.011342988312e-02 0.0 
-9.011342988312e-02 -9.756585588873e+00 0.0 
0.0 0.0 -3.326175473408e+00 
-3.726642914933e+00 -1.936608186957e-01 0.0 
-1.936608186957e-01 -9.977751785999e+00 0.0 
0.0 0.0 -3.949742688356e+00 
-2.381072650916e+00 -9.347413229453e-02 0.0 
-9.347413229453e-02 -9.746500529775e+00 0.0 
0.0 0.0 -3.238271954207e+00 
-3.578504550785e+00 -2.034189217990e-01 0.0 
-2.034189217990e-01 -9.988965829846e+00 0.0 
0.0 0.0 -3.908942735478e+00 
-2.084756296559e+00 -9.751359752746e-02 0.0 
-9.751359752746e-02 -9.732860088155e+00 0.0 
0.0 0.0 -3.145284915414e+00 
-3.444068844090e+00 -2.154806179709e-01 0.0 
-2.154806179709e-01 -1.000585352173e+01 0.0 
0.0 0.0 -3.871544448742e+00 
-1.777938862267e+00 -9.310208097752e-02 0.0 
-9.310208097752e-02 -9.726270865539e+00 0.0 
0.0 0.0 -3.051262918342e+00 
-3.324623003225e+00 -2.109643318833e-01 0.0 
-2.109643318833e-01 -1.001555850453e+01 0.0 
0.0 0.0 -3.841976875390e+00 
-1.475251372709e+00 -9.605282012601e-02 0.0 
-9.605282012601e-02 -9.702251293244e+00 0.0 
0.0 0.0 -2.953250799786e+00 
-3.252373099550e+00 -2.227257088199e-01 0.0 
-2.227257088199e-01 -1.004427069804e+01 0.0 
0.0 0.0 -3.823281366967e+00 
-7.087624030977e+00 1.832589834718e+00 0.0 
1.832589834718e+00 -1.250364181247e+01 0.0 
0.0 0.0 -5.477379753035e+00 
-3.212417114785e+00 -1.799325172953e-01 0.0 
-1.799325172953e-01 -1.004398974900e+01 0.0 
0.0 0.0 -3.827286407087e+00 
-1.174428184123e+00 -7.178698870550e-02 0.0 
-7.178698870550e-02 -9.713498302256e+00 0.0 
0.0 0.0 -2.866377945914e+00 
-3.305500216573e+00 -2.330909066477e-01 0.0 
-2.330909066477e-01 -1.011546408693e+01 0.0 
0.0 0.0 -3.853155036851e+00 
-9.118993773885e-01 -9.444914807275e-02 0.0 
-9.444914807275e-02 -9.626977254906e+00 0.0 
0.0 0.0 -2.761662989688e+00 
-3.442299703336e+00 -7.893839069453e-02 0.0 
-7.893839069453e-02 -1.008681535942e+01 0.0 
0.0 0.0 -3.933285100461e+00 
-6.301935991178e-01 -1.961612574409e-02 0.0 
-1.961612574409e-02 -9.730391557342e+00 0.0 
0.0 0.0 -2.708175546938e+00 
-3.969616060515e+00 -1.885341044619e-01 0.0 
-1.885341044619e-01 -1.025680800303e+01 0.0 
0.0 0.0 -3.956051118698e+00 
-5.147956591064e-01 -5.137083881650e-02 0.0 
-5.137083881650e-02 -9.514798075603e+00 0.0 
0.0 0.0 -2.608878120413e+00 
-4.453599952959e-01 2.642574364111e-01 0.0 
2.642574364111e-01 -1.001360077085e+01 0.0 
0.0 0.0 -2.737688229844e+00 
-2.234488159984e+00 1.416259856867e-01 0.0 
1.416259856867e-01 -2.445872976677e+00 0.0 
0.0 0.0 -1.043316418902e+00 
-4.991483219366e+00 1.505382208120e+00 0.0 
1.505382208120e+00 -1.026391626175e+01 0.0 
0.0 0.0 -4.176619844334e+00 
-5.303541992951e+00 -1.307512033323e+00 0.0 
-1.307512033323e+00 -8.405592034599e+00 0.0 
0.0 0.0 -3.712740208265e+00 
-7.051988113493e+00 2.254867679824e-01 0.0 
2.254867679824e-01 -1.450703191180e+01 0.0 
0.0 0.0 -6.067706007587e+00 
-3.309282987524e+00 -6.515200511537e-02 0.0 
-6.515200511537e-02 -4.281581137756e+00 0.0 
0.0 0.0 -1.877259237584e+00 
-2.734170508335e+00 2.325037918220e+00 0.0 
2.325037918220e+00 -5.763946894684e+00 0.0 
0.0 0.0 -2.149435220906e+00 
-1.397686018260e+01 2.993719178174e-01 0.0 
2.993719178174e-01 -3.125053650544e+01 0.0 
0.0 0.0 -1.316821900641e+01 
-1.319508597392e+01 -2.375393922430e-01 0.0 
-2.375393922430e-01 -2.944968842592e+01 0.0 
0.0 0.0 -1.239343231995e+01 
-1.317611026651e+01 5.635082041543e-02 0.0 
5.635082041543e-02 -2.940926279361e+01 0.0 
0.0 0.0 -1.237561191803e+01 
-1.302375288688e+01 2.950089635987e-03 0.0 
2.950089635987e-03 -2.929015372537e+01 0.0 
0.0 0.0 -1.229417198367e+01 
-1.308588239740e+01 2.847086167006e-02 0.0 
2.847086167006e-02 -2.931239887758e+01 0.0 
0.0 0.0 -1.231948438249e+01 
-1.295276564686e+01 2.163792412788e-03 0.0 
2.163792412788e-03 -2.929191077628e+01 0.0 
0.0 0.0 -1.227340292694e+01 
-1.304054925430e+01 -9.046324980130e-04 0.0 
-9.046324980130e-04 -2.932978331374e+01 0.0 
0.0 0.0 -1.231109977041e+01 
-1.291569988346e+01 -2.511200772227e-02 0.0 
-2.511200772227e-02 -2.930820061514e+01 0.0 
0.0 0.0 -1.226717014958e+01 
-1.300125434982e+01 -3.105039200928e-02 0.0 
-3.105039200928e-02 -2.934585644700e+01 0.0 
0.0 0.0 -1.230413323905e+01 
-1.288237237721e+01 -5.439513371853e-02 0.0 
-5.439513371853e-02 -2.932039514117e+01 0.0 
0.0 0.0 -1.226083025551e+01 
-1.296308357600e+01 -5.787053135648e-02 0.0 
-5.787053135648e-02 -2.935525574182e+01 0.0 
0.0 0.0 -1.229550179535e+01 
-1.284149166540e+01 -8.139422956003e-02 0.0 
-8.139422956003e-02 -2.932695905452e+01 0.0 
0.0 0.0 -1.225053521598e+01 
-1.292327800187e+01 -8.122598541830e-02 0.0 
-8.122598541830e-02 -2.936072579914e+01 0.0 
0.0 0.0 -1.228520114030e+01 
-1.278936371027e+01 -1.062131982463e-01 0.0 
-1.062131982463e-01 -2.932910071437e+01 0.0 
0.0 0.0 -1.223553932739e+01 
-1.287992044046e+01 -1.022539287343e-01 0.0 
-1.022539287343e-01 -2.936438496169e+01 0.0 
0.0 0.0 -1.227329162065e+01 
-1.272494238981e+01 -1.298577584907e-01 0.0 
-1.298577584907e-01 -2.932808391516e+01 0.0 
0.0 0.0 -1.221590789149e+01 
-1.283180408135e+01 -1.221559113952e-01 0.0 
-1.221559113952e-01 -2.936737651209e+01 0.0 
0.0 0.0 -1.225975417803e+01 
-1.264792579873e+01 -1.532902291753e-01 0.0 
-1.532902291753e-01 -2.932476587885e+01 0.0 
0.0 0.0 -1.219180750328e+01 
-1.277842953629e+01 -1.418675091094e-01 0.0 
-1.418675091094e-01 -2.937031545015e+01 0.0 
0.0 0.0 -1.224462349593e+01 
-1.255813319606e+01 -1.772227024277e-01 0.0 
-1.772227024277e-01 -2.931973119960e+01 0.0 
0.0 0.0 -1.216335931870e+01 
-1.266029183557e+01 1.305157434448e+00 0.0 
1.305157434448e+00 -3.137684069522e+01 0.0 
0.0 0.0 -1.281113975924e+01 
-1.271976724542e+01 -1.620214036101e-01 0.0 
-1.620214036101e-01 -2.937361584866e+01 0.0 
0.0 0.0 -1.222801492823e+01 
-1.245533706648e+01 -2.020421400835e-01 0.0 
-2.020421400835e-01 -2.931357180537e+01 0.0 
0.0 0.0 -1.213067266155e+01 
-1.265616841792e+01 -1.829282000735e-01 0.0 
-1.829282000735e-01 -2.937781077319e+01 0.0 
0.0 0.0 -1.221019375733e+01 
-1.020667645560e+01 3.295367236777e-01 0.0 
3.295367236777e-01 -2.480994892491e+01 0.0 
0.0 0.0 -1.010498761415e+01 
-1.233920134327e+01 -2.276836983638e-01 0.0 
-2.276836983638e-01 -2.930737767364e+01 0.0 
0.0 0.0 -1.209397370507e+01 
-1.258766277622e+01 -2.039094856506e-01 0.0 
-2.039094856506e-01 -2.938338668039e+01 0.0 
0.0 0.0 -1.219131483698e+01 
-1.416936877515e+01 3.409630570764e-01 0.0 
3.409630570764e-01 -3.013594507935e+01 0.0 
0.0 0.0 -1.289159415635e+01 
-1.220979384071e+01 -2.533077313508e-01 0.0 
-2.533077313508e-01 -2.930130992826e+01 0.0 
0.0 0.0 -1.205333113069e+01 
-1.251548171033e+01 -2.243240654478e-01 0.0 
-2.243240654478e-01 -2.939064112052e+01 0.0 
0.0 0.0 -1.217183684925e+01 
-1.206769178570e+01 -2.777935439521e-01 0.0 
-2.777935439521e-01 -2.929626108187e+01 0.0 
0.0 0.0 -1.200918586027e+01 
-1.244140308757e+01 -2.420271864861e-01 0.0 
-2.420271864861e-01 -2.939953153626e+01 0.0 
0.0 0.0 -1.215228038715e+01 
-1.191530230196e+01 -2.994787141657e-01 0.0 
-2.994787141657e-01 -2.929009480479e+01 0.0 
0.0 0.0 -1.196161913203e+01 
-1.237142432782e+01 -2.579785704556e-01 0.0 
-2.579785704556e-01 -2.941080674383e+01 0.0 
0.0 0.0 -1.213466932149e+01 
-1.175446415582e+01 -3.172634606523e-01 0.0 
-3.172634606523e-01 -2.928805597721e+01 0.0 
0.0 0.0 -1.191275603991e+01 
-1.230569599609e+01 -2.657689211709e-01 0.0 
-2.657689211709e-01 -2.942348741611e+01 0.0 
0.0 0.0 -1.211875502366e+01 
-1.159208034451e+01 -3.280305377613e-01 0.0 
-3.280305377613e-01 -2.928015992092e+01 0.0 
0.0 0.0 -1.186167207963e+01 
-1.558267285948e+01 1.110478735006e+00 0.0 
1.110478735006e+00 -3.255598972909e+01 0.0 
0.0 0.0 -1.404159877657e+01 
-1.226046262497e+01 -2.733012273454e-01 0.0 
-2.733012273454e-01 -2.944063515800e+01 0.0 
0.0 0.0 -1.211032933489e+01 
-1.142880500454e+01 -3.310092617306e-01 0.0 
-3.310092617306e-01 -2.928820425854e+01 0.0 
0.0 0.0 -1.181510277893e+01 
-1.222073407539e+01 -2.578195286270e-01 0.0 
-2.578195286270e-01 -2.945501259337e+01 0.0 
0.0 0.0 -1.210272400063e+01 
-1.128423839864e+01 -3.197868976469e-01 0.0 
-3.197868976469e-01 -2.926919486132e+01 0.0 
0.0 0.0 -1.176602997799e+01 
-1.114315524790e+01 -2.941831666620e-01 0.0 
-2.941831666620e-01 -2.932032610005e+01 0.0 
0.0 0.0 -1.173904440438e+01 
-1.224721135198e+01 -2.589699727316e-01 0.0 
-2.589699727316e-01 -2.948638350583e+01 0.0 
0.0 0.0 -1.212007845734e+01 
-1.107473873123e+01 -2.384834074480e-01 0.0 
-2.384834074480e-01 -2.925215521768e+01 0.0 
0.0 0.0 -1.169806818467e+01 
-1.223267315831e+01 -1.813380345824e-01 0.0 
-1.813380345824e-01 -2.949131671722e+01 0.0 
0.0 0.0 -1.211719696266e+01 
-1.099988482689e+01 -1.555392169417e-01 0.0 
-1.555392169417e-01 -2.943444149047e+01 0.0 
0.0 0.0 -1.173029789521e+01 
-1.245139752957e+01 -1.922699910561e-01 0.0 
-1.922699910561e-01 -2.956378105863e+01 0.0 
0.0 0.0 -1.220455357646e+01 
-1.116910488611e+01 -2.212680961074e-02 0.0 
-2.212680961074e-02 -2.914572631109e+01 0.0 
0.0 0.0 -1.169444935916e+01 
-1.120965437927e+01 1.601697608603e-01 0.0 
1.601697608603e-01 -2.976300031911e+01 0.0 
0.0 0.0 -1.189179640951e+01 
-1.239927013636e+01 6.261051643756e-02 0.0 
6.261051643756e-02 -2.948932576516e+01 0.0 
0.0 0.0 -1.216657877045e+01 
-1.335528139061e+01 -7.920707179030e-02 0.0 
-7.920707179030e-02 -2.974714046705e+01 0.0 
0.0 0.0 -1.253072655730e+01 
-1.169982850794e+01 6.997687866648e-01 0.0 
6.997687866648e-01 -2.354198957253e+01 0.0 
0.0 0.0 -1.017254542414e+01 
-1.380192802820e+01 1.451609756263e+00 0.0 
1.451609756263e+00 -2.917227019584e+01 0.0 
0.0 0.0 -1.249225946721e+01 
-1.347083647588e+01 -1.419658093531e+00 0.0 
-1.419658093531e+00 -3.112828916422e+01 0.0 
0.0 0.0 -1.297973769203e+01 
-1.155115806103e+01 1.491711154893e-01 0.0 
1.491711154893e-01 -2.500509512272e+01 0.0 
0.0 0.0 -1.056687595513e+01 
-1.565217878356e+01 -1.576510709935e-01 0.0 
-1.576510709935e-01 -3.516570056919e+01 0.0 
0.0 0.0 -1.484536380582e+01 
-1.102234296115e+01 1.432546084214e+00 0.0 
1.432546084214e+00 -2.457893613925e+01 0.0 
0.0 0.0 -1.028038373012e+01 
-2.086557114880e+01 2.225810234248e-01 0.0 
2.225810234248e-01 -4.732419542657e+01 0.0 
0.0 0.0 -2.005692997261e+01 
-2.158838282393e+01 -2.663324240396e-01 0.0 
-2.663324240396e-01 -4.895507950619e+01 0.0 
0.0 0.0 -2.076303869903e+01 
-2.155881805679e+01 -2.561097290344e-02 0.0 
-2.561097290344e-02 -4.896891430427e+01 0.0 
0.0 0.0 -2.075831970832e+01 
-2.162973835632e+01 -5.714564804514e-02 0.0 
-5.714564804514e-02 -4.905337955293e+01 0.0 
0.0 0.0 -2.080493537277e+01 
-2.152983838216e+01 -3.215185349726e-02 0.0 
-3.215185349726e-02 -4.901496284202e+01 0.0 
0.0 0.0 -2.076344036725e+01 
-2.161176421035e+01 -5.730181719474e-02 0.0 
-5.730181719474e-02 -4.906479379651e+01 0.0 
0.0 0.0 -2.080296740206e+01 
-2.147501820176e+01 -4.205129155502e-02 0.0 
-4.205129155502e-02 -4.901021085782e+01 0.0 
0.0 0.0 -2.074556871787e+01 
-2.158598530907e+01 -7.590081670617e-02 0.0 
-7.590081670617e-02 -4.907840414157e+01 0.0 
0.0 0.0 -2.079931683519e+01 
-2.143169340585e+01 -6.345516846810e-02 0.0 
-6.345516846810e-02 -4.901688091107e+01 0.0 
0.0 0.0 -2.073457229508e+01 
-2.155900031081e+01 -1.007494695110e-01 0.0 
-1.007494695110e-01 -4.909090341497e+01 0.0 
0.0 0.0 -2.079497111773e+01 
-2.139315367639e+01 -8.934823866286e-02 0.0 
-8.934823866286e-02 -4.902541930941e+01 0.0 
0.0 0.0 -2.072557189574e+01 
-2.153271927662e+01 -1.280091760880e-01 0.0 
-1.280091760880e-01 -4.910035478258e+01 0.0 
0.0 0.0 -2.078992221776e+01 
-2.135331307120e+01 -1.159704822505e-01 0.0 
-1.159704822505e-01 -4.903080762757e+01 0.0 
0.0 0.0 -2.071523620963e+01 
-2.150758173303e+01 -1.561973542050e-01 0.0 
-1.561973542050e-01 -4.910714605285e+01 0.0 
0.0 0.0 -2.078441833576e+01 
-2.130893266976e+01 -1.422536143351e-01 0.0 
-1.422536143351e-01 -4.903208016338e+01 0.0 
0.0 0.0 -2.070230384994e+01 
-2.148269424712e+01 -1.849540553505e-01 0.0 
-1.849540553505e-01 -4.911205337477e+01 0.0 
0.0 0.0 -2.077842428657e+01 
-2.125863870108e+01 -1.681638190832e-01 0.0 
-1.681638190832e-01 -4.902999062479e+01 0.0 
0.0 0.0 -2.068658879776e+01 
-2.145744521704e+01 -2.142108258018e-01 0.0 
-2.142108258018e-01 -4.911573342706e+01 0.0 
0.0 0.0 -2.077195359323e+01 
-2.120203705635e+01 -1.939850621362e-01 0.0 
-1.939850621362e-01 -4.902539966360e+01 0.0 
0.0 0.0 -2.066823101598e+01 
-2.180293773509e+01 1.211910008247e+00 0.0 
1.211910008247e+00 -5.083999155591e+01 0.0 
0.0 0.0 -2.139287878730e+01 
-2.143164807887e+01 -2.440642927923e-01 0.0 
-2.440642927923e-01 -4.911874860906e+01 0.0 
0.0 0.0 -2.076511900638e+01 
-2.113932825243e+01 -2.198803710939e-01 0.0 
-2.198803710939e-01 -4.901925819834e+01 0.0 
0.0 0.0 -2.064757593523e+01 
-2.140624973875e+01 -2.745336216441e-01 0.0 
-2.745336216441e-01 -4.912184325445e+01 0.0 
0.0 0.0 -2.075842789796e+01 
-2.304002783616e+01 3.239637698361e-01 0.0 
3.239637698361e-01 -4.984488629440e+01 0.0 
0.0 0.0 -2.146547423917e+01 
-2.107101081560e+01 -2.458420478144e-01 0.0 
-2.458420478144e-01 -4.901244303445e+01 0.0 
0.0 0.0 -2.062503615501e+01 
-2.138315756866e+01 -3.057847373817e-01 0.0 
-3.057847373817e-01 -4.912660826029e+01 0.0 
0.0 0.0 -2.075292974868e+01 
-2.099788151746e+01 -2.709830822179e-01 0.0 
-2.709830822179e-01 -4.900723040994e+01 0.0 
0.0 0.0 -2.060153357822e+01 
-2.135985757928e+01 -3.356407918690e-01 0.0 
-3.356407918690e-01 -4.913279689838e+01 0.0 
0.0 0.0 -2.074779634330e+01 
-2.092173908407e+01 -2.935009860491e-01 0.0 
-2.935009860491e-01 -4.900524165926e+01 0.0 
0.0 0.0 -2.057809422300e+01 
-1.962161327978e+01 3.024213260940e-01 0.0 
3.024213260940e-01 -4.436858154179e+01 0.0 
0.0 0.0 -1.879705844647e+01 
-2.134135073385e+01 -3.622349026961e-01 0.0 
-3.622349026961e-01 -4.914204972722e+01 0.0 
0.0 0.0 -2.074502013832e+01 
-2.084520557738e+01 -3.107050528337e-01 0.0 
-3.107050528337e-01 -4.900840401248e+01 0.0 
0.0 0.0 -2.055608287696e+01 
-2.132275528960e+01 -3.800470591466e-01 0.0 
-3.800470591466e-01 -4.915053945081e+01 0.0 
0.0 0.0 -2.074198842212e+01 
-2.077247302601e+01 -3.208718917319e-01 0.0 
-3.208718917319e-01 -4.901325370627e+01 0.0 
0.0 0.0 -2.053571801968e+01 
-2.133060410325e+01 -3.926837222054e-01 0.0 
-3.926837222054e-01 -4.916768469951e+01 0.0 
0.0 0.0 -2.074948664083e+01 
-2.070822854184e+01 -3.196053825265e-01 0.0 
-3.196053825265e-01 -4.902939668952e+01 0.0 
0.0 0.0 -2.052128756941e+01 
-2.132919197454e+01 -3.833638682621e-01 0.0 
-3.833638682621e-01 -4.917602795238e+01 0.0 
0.0 0.0 -2.075156597808e+01 
-2.065917101940e+01 -3.069549677612e-01 0.0 
-3.069549677612e-01 -4.903762141167e+01 0.0 
0.0 0.0 -2.050903772932e+01 
-2.140705826954e+01 -3.759476683208e-01 0.0 
-3.759476683208e-01 -4.921216622671e+01 0.0 
0.0 0.0 -2.078576734888e+01 
-2.063446295864e+01 -2.705738807755e-01 0.0 
-2.705738807755e-01 -4.908704665428e+01 0.0 
0.0 0.0 -2.051645288388e+01 
-2.141212097063e+01 -3.046621620967e-01 0.0 
-3.046621620967e-01 -4.920489271669e+01 0.0 
0.0 0.0 -2.078510410620e+01 
-2.434107179632e+01 7.446478323792e-01 0.0 
7.446478323792e-01 -5.215315876144e+01 0.0 
0.0 0.0 -2.254826916733e+01 
-2.167013873885e+01 -2.969775019718e-01 0.0 
-2.969775019718e-01 -4.930749541608e+01 0.0 
0.0 0.0 -2.089329024648e+01 
-2.064000224211e+01 -2.228181157844e-01 0.0 
-2.228181157844e-01 -4.906956224945e+01 0.0 
0.0 0.0 -2.051286934747e+01 
-2.156152686959e+01 -4.441122884953e-02 0.0 
-4.441122884953e-02 -4.922324851094e+01 0.0 
0.0 0.0 -2.083543261416e+01 
-2.070493772082e+01 -1.132404639858e-01 0.0 
-1.132404639858e-01 -4.925993402975e+01 0.0 
0.0 0.0 -2.058946152517e+01 
-2.243634979308e+01 -1.348419621151e-01 0.0 
-1.348419621151e-01 -4.953290057327e+01 0.0 
0.0 0.0 -2.119077510990e+01 
-2.081250437250e+01 -4.499959197996e-03 0.0 
-4.499959197996e-03 -4.907303035881e+01 0.0 
0.0 0.0 -2.056566041939e+01 
-2.105672508443e+01 2.333838957851e-01 0.0 
2.333838957851e-01 -4.969005397734e+01 0.0 
0.0 0.0 -2.082403371853e+01 
-2.066605284028e+01 5.225949752161e-01 0.0 
5.225949752161e-01 -4.342469481981e+01 0.0 
0.0 0.0 -1.882722429803e+01 
-2.118731326895e+01 1.446731532862e+00 0.0 
1.446731532862e+00 -4.956150946769e+01 0.0 
0.0 0.0 -2.082464682099e+01 
-2.153444456248e+01 -1.457130677644e+00 0.0 
-1.457130677644e+00 -4.751834701702e+01 0.0 
0.0 0.0 -2.031583747385e+01 
-2.354756654114e+01 1.362557914835e-01 0.0 
1.362557914835e-01 -5.366765567352e+01 0.0 
0.0 0.0 -2.276456666440e+01 
-1.924150528710e+01 -1.864391260690e-01 0.0 
-1.864391260690e-01 -4.354079574412e+01 0.0 
0.0 0.0 -1.843469030937e+01 
-2.014345229911e+01 1.056473184379e+00 0.0 
1.056473184379e+00 -4.407547330193e+01 0.0 
0.0 0.0 -1.886567768031e+01 
-3.080460853679e+01 2.417757507661e-01 0.0 
2.417757507661e-01 -7.045520063941e+01 0.0 
0.0 0.0 -2.997794275286e+01 
-3.004039152751e+01 -2.898804208755e-01 0.0 
-2.898804208755e-01 -6.867643314789e+01 0.0 
0.0 0.0 -2.921504740262e+01 
-3.006321884835e+01 -3.174727178010e-02 0.0 
-3.174727178010e-02 -6.865408880150e+01 0.0 
0.0 0.0 -2.921519229496e+01 
-2.996998143552e+01 -8.011221006504e-02 0.0 
-8.011221006504e-02 -6.851394673773e+01 0.0 
0.0 0.0 -2.914517845198e+01 
-3.001717660572e+01 -5.885233161946e-02 0.0 
-5.885233161946e-02 -6.853004037184e+01 0.0 
0.0 0.0 -2.916416509327e+01 
-2.993831837614e+01 -8.011976359745e-02 0.0 
-8.011976359745e-02 -6.849342018335e+01 0.0 
0.0 0.0 -2.912952156785e+01 
-3.000342052389e+01 -7.699628349509e-02 0.0 
-7.699628349509e-02 -6.852013940487e+01 0.0 
0.0 0.0 -2.915706797863e+01 
-2.990640027860e+01 -9.803955521172e-02 0.0 
-9.803955521172e-02 -6.849270573715e+01 0.0 
0.0 0.0 -2.911973180473e+01 
-2.999062650921e+01 -9.879566717865e-02 0.0 
-9.879566717865e-02 -6.852822223552e+01 0.0 
0.0 0.0 -2.915565462342e+01 
-2.987584383377e+01 -1.224589212949e-01 0.0 
-1.224589212949e-01 -6.849687163521e+01 0.0 
0.0 0.0 -2.911181464069e+01 
-2.997949364543e+01 -1.225644212073e-01 0.0 
-1.225644212073e-01 -6.853988249019e+01 0.0 
0.0 0.0 -2.915581284069e+01 
-2.984693169427e+01 -1.497872791525e-01 0.0 
-1.497872791525e-01 -6.850018375710e+01 0.0 
0.0 0.0 -2.910413463541e+01 
-2.997117171656e+01 -1.469855144576e-01 0.0 
-1.469855144576e-01 -6.854982698720e+01 0.0 
0.0 0.0 -2.915629961113e+01 
-2.981882592325e+01 -1.782924874751e-01 0.0 
-1.782924874751e-01 -6.850004916336e+01 0.0 
0.0 0.0 -2.909566252598e+01 
-2.996725808306e+01 -1.723812959687e-01 0.0 
-1.723812959687e-01 -6.855697415471e+01 0.0 
0.0 0.0 -2.915726967133e+01 
-2.979083780251e+01 -2.077813385359e-01 0.0 
-2.077813385359e-01 -6.849772167066e+01 0.0 
0.0 0.0 -2.908656784195e+01 
-2.996582330293e+01 -1.984095834160e-01 0.0 
-1.984095834160e-01 -6.856182991735e+01 0.0 
0.0 0.0 -2.915829596608e+01 
-2.976226880377e+01 -2.376373563192e-01 0.0 
-2.376373563192e-01 -6.849365512944e+01 0.0 
0.0 0.0 -2.907677717996e+01 
-3.081112782701e+01 1.052009514055e+00 0.0 
1.052009514055e+00 -7.052269449125e+01 0.0 
0.0 0.0 -3.000014669548e+01 
-2.996667712074e+01 -2.248089246817e-01 0.0 
-2.248089246817e-01 -6.856507716661e+01 0.0 
0.0 0.0 -2.915952628620e+01 
-2.973314672834e+01 -2.673034047372e-01 0.0 
-2.673034047372e-01 -6.848891212450e+01 0.0 
0.0 0.0 -2.906661765585e+01 
-2.997076594738e+01 -2.506461574838e-01 0.0 
-2.506461574838e-01 -6.856771148649e+01 0.0 
0.0 0.0 -2.916154323016e+01 
-2.865355392375e+01 2.158612062871e-01 0.0 
2.158612062871e-01 -6.403971021151e+01 0.0 
0.0 0.0 -2.740797924058e+01 
-2.970419644565e+01 -2.959693374166e-01 0.0 
-2.959693374166e-01 -6.848371890389e+01 0.0 
0.0 0.0 -2.905637460486e+01 
-3.175961298824e+01 2.318942898270e-01 0.0 
2.318942898270e-01 -6.940020716474e+01 0.0 
0.0 0.0 -2.994794604589e+01 
-2.998154887230e+01 -2.752486359121e-01 0.0 
-2.752486359121e-01 -6.857080551123e+01 0.0 
0.0 0.0 -2.916570631506e+01 
-2.967662792649e+01 -3.233304039922e-01 0.0 
-3.233304039922e-01 -6.847803909522e+01 0.0 
0.0 0.0 -2.904640010651e+01 
-3.000303480398e+01 -3.011705391075e-01 0.0 
-3.011705391075e-01 -6.857736517270e+01 0.0 
0.0 0.0 -2.917411999301e+01 
-2.965271883904e+01 -3.486358195427e-01 0.0 
-3.486358195427e-01 -6.848280650448e+01 0.0 
0.0 0.0 -2.904065760306e+01 
-3.002551568488e+01 -3.205070423154e-01 0.0 
-3.205070423154e-01 -6.858775155892e+01 0.0 
0.0 0.0 -2.918398017314e+01 
-2.963319049850e+01 -3.667425416122e-01 0.0 
-3.667425416122e-01 -6.848967584475e+01 0.0 
0.0 0.0 -2.903685990297e+01 
-3.006027241700e+01 -3.372672129413e-01 0.0 
-3.372672129413e-01 -6.860509654653e+01 0.0 
0.0 0.0 -2.919961068906e+01 
-2.962414104806e+01 -3.736596473415e-01 0.0 
-3.736596473415e-01 -6.852043955387e+01 0.0 
0.0 0.0 -2.904337418058e+01 
-3.323032743706e+01 5.720731354170e-01 0.0 
5.720731354170e-01 -7.180759362338e+01 0.0 
0.0 0.0 -3.111137631813e+01 
-3.009389018243e+01 -3.256846016254e-01 0.0 
-3.256846016254e-01 -6.862254610352e+01 0.0 
0.0 0.0 -2.921493088579e+01 
-2.962594960359e+01 -3.632246764015e-01 0.0 
-3.632246764015e-01 -6.852349086697e+01 0.0 
0.0 0.0 -2.904483214117e+01 
-3.018851284847e+01 -3.281335752299e-01 0.0 
-3.281335752299e-01 -6.865861178572e+01 0.0 
0.0 0.0 -2.925413739026e+01 
-2.965651862748e+01 -3.356000339615e-01 0.0 
-3.356000339615e-01 -6.860645680924e+01 0.0 
0.0 0.0 -2.907889263102e+01 
-2.970214385941e+01 -2.797479848965e-01 0.0 
-2.797479848965e-01 -6.856736593639e+01 0.0 
0.0 0.0 -2.908085293874e+01 
-3.023504058259e+01 -2.512219296940e-01 0.0 
-2.512219296940e-01 -6.867604265967e+01 0.0 
0.0 0.0 -2.927332497268e+01 
-2.981232617718e+01 -1.943756170777e-01 0.0 
-1.943756170777e-01 -6.880537153195e+01 0.0 
0.0 0.0 -2.918530931274e+01 
-3.047463107626e+01 -2.628893916061e-01 0.0 
-2.628893916061e-01 -6.876089681589e+01 0.0 
0.0 0.0 -2.937065836764e+01 
-2.991722891193e+01 -7.520214484223e-02 0.0 
-7.520214484223e-02 -6.855070581994e+01 0.0 
0.0 0.0 -2.914038041956e+01 
-3.015414980687e+01 8.126669922395e-02 0.0 
8.126669922395e-02 -6.927270203126e+01 0.0 
0.0 0.0 -2.942805555144e+01 
-3.041824662928e+01 -1.925292714409e-02 0.0 
-1.925292714409e-02 -6.872658430517e+01 0.0 
0.0 0.0 -2.934344928033e+01 
-3.126832979021e+01 -1.805074086211e-01 0.0 
-1.805074086211e-01 -6.902816431650e+01 0.0 
0.0 0.0 -2.968894823201e+01 
-2.964748110413e+01 4.456878348414e-01 0.0 
4.456878348414e-01 -6.324184512234e+01 0.0 
0.0 0.0 -2.746679786794e+01 
-3.043996558212e+01 1.458081845977e+00 0.0 
1.458081845977e+00 -6.830350836125e+01 0.0 
0.0 0.0 -2.922304218301e+01 
-3.010589372326e+01 -1.460023668163e+00 0.0 
-1.460023668163e+00 -7.026174428401e+01 0.0 
0.0 0.0 -2.971029140218e+01 
-2.804342946105e+01 1.301356371417e-01 0.0 
1.301356371417e-01 -6.415800248665e+01 0.0 
0.0 0.0 -2.726042958431e+01 
-3.242905778840e+01 -1.760231673498e-01 0.0 
-1.760231673498e-01 -7.426474481002e+01 0.0 
0.0 0.0 -3.160814077953e+01 
-2.893710107244e+01 7.612845409072e-01 0.0 
7.612845409072e-01 -6.360472384571e+01 0.0 
0.0 0.0 -2.736254747545e+01 
-3.767822700350e+01 2.486919663972e-01 0.0 
2.486919663972e-01 -8.649364372841e+01 0.0 
0.0 0.0 -3.685156121957e+01 
-3.845529392530e+01 -2.627529666954e-01 0.0 
-2.627529666954e-01 -8.817126487312e+01 0.0 
0.0 0.0 -3.758796763953e+01 
-3.843584118347e+01 -4.357174845119e-02 0.0 
-4.357174845119e-02 -8.819020758344e+01 0.0 
0.0 0.0 -3.758781463008e+01 
-3.852251694220e+01 -7.709584484795e-02 0.0 
-7.709584484795e-02 -8.827165244310e+01 0.0 
0.0 0.0 -3.763825081559e+01 
-3.846794416979e+01 -7.685970394565e-02 0.0 
-7.685970394565e-02 -8.824849802135e+01 0.0 
0.0 0.0 -3.761493265734e+01 
-3.853475401552e+01 -9.275195488699e-02 0.0 
-9.275195488699e-02 -8.827089481779e+01 0.0 
0.0 0.0 -3.764169465000e+01 
-3.845318448205e+01 -9.349927090918e-02 0.0 
-9.349927090918e-02 -8.823625530724e+01 0.0 
0.0 0.0 -3.760683193679e+01 
-3.854039529161e+01 -1.161601790426e-01 0.0 
-1.161601790426e-01 -8.827537641254e+01 0.0 
0.0 0.0 -3.764473151124e+01 
-3.843550665876e+01 -1.113492646549e-01 0.0 
-1.113492646549e-01 -8.823294258445e+01 0.0 
0.0 0.0 -3.760053477296e+01 
-3.854457604374e+01 -1.395937908231e-01 0.0 
-1.395937908231e-01 -8.828390082528e+01 0.0 
0.0 0.0 -3.764854306071e+01 
-3.842043716574e+01 -1.316499706427e-01 0.0 
-1.316499706427e-01 -8.823541737093e+01 0.0 
0.0 0.0 -3.759675636100e+01 
-3.854729400702e+01 -1.628586029864e-01 0.0 
-1.628586029864e-01 -8.829146266000e+01 0.0 
0.0 0.0 -3.765162700010e+01 
-3.840956498584e+01 -1.529627462835e-01 0.0 
-1.529627462835e-01 -8.823941128219e+01 0.0 
0.0 0.0 -3.759469288041e+01 
-3.855623803985e+01 -1.856383026745e-01 0.0 
-1.856383026745e-01 -8.829578979063e+01 0.0 
0.0 0.0 -3.765560834914e+01 
-3.840212567520e+01 -1.762323043799e-01 0.0 
-1.762323043799e-01 -8.823833186971e+01 0.0 
0.0 0.0 -3.759213726347e+01 
-3.857305832049e+01 -2.115519294317e-01 0.0 
-2.115519294317e-01 -8.829898697748e+01 0.0 
0.0 0.0 -3.766161358939e+01 
-3.839739724429e+01 -2.006110405752e-01 0.0 
-2.006110405752e-01 -8.823550244718e+01 0.0 
0.0 0.0 -3.758986990744e+01 
-3.964079044353e+01 9.624024131789e-01 0.0 
9.624024131789e-01 -9.014244863384e+01 0.0 
0.0 0.0 -3.853497172321e+01 
-3.859263502561e+01 -2.382083191242e-01 0.0 
-2.382083191242e-01 -8.830080766038e+01 0.0 
0.0 0.0 -3.766803280580e+01 
-3.839569171841e+01 -2.246118151323e-01 0.0 
-2.246118151323e-01 -8.823277789451e+01 0.0 
0.0 0.0 -3.758854088388e+01 
-4.054739867858e+01 1.099865163287e-01 0.0 
1.099865163287e-01 -8.914072681067e+01 0.0 
0.0 0.0 -3.850643764677e+01 
-3.861431056595e+01 -2.638238701357e-01 0.0 
-2.638238701357e-01 -8.830243435472e+01 0.0 
0.0 0.0 -3.767502347620e+01 
-3.839877311646e+01 -2.457108443084e-01 0.0 
-2.457108443084e-01 -8.823306154768e+01 0.0 
0.0 0.0 -3.758955039924e+01 
-3.864471119277e+01 -2.852912840517e-01 0.0 
-2.852912840517e-01 -8.830439089798e+01 0.0 
0.0 0.0 -3.768473062723e+01 
-3.840844546080e+01 -2.632648938984e-01 0.0 
-2.632648938984e-01 -8.823356421775e+01 0.0 
0.0 0.0 -3.759260290356e+01 
-3.868982396151e+01 -3.026602480453e-01 0.0 
-3.026602480453e-01 -8.830608785250e+01 0.0 
0.0 0.0 -3.769877354420e+01 
-3.756276459649e+01 9.062923630845e-02 0.0 
9.062923630845e-02 -8.371517886450e+01 0.0 
0.0 0.0 -3.598338303830e+01 
-3.842528214869e+01 -2.802890259180e-01 0.0 
-2.802890259180e-01 -8.822927564369e+01 0.0 
0.0 0.0 -3.759636733771e+01 
-3.876126676975e+01 -3.267546971964e-01 0.0 
-3.267546971964e-01 -8.832232862264e+01 0.0 
0.0 0.0 -3.772507861772e+01 
-3.845047268962e+01 -2.909943293221e-01 0.0 
-2.909943293221e-01 -8.824598456999e+01 0.0 
0.0 0.0 -3.760893717788e+01 
-3.880573213547e+01 -3.334831209337e-01 0.0 
-3.334831209337e-01 -8.833628023654e+01 0.0 
0.0 0.0 -3.774260371160e+01 
-3.848897198078e+01 -2.897116882830e-01 0.0 
-2.897116882830e-01 -8.827206219537e+01 0.0 
0.0 0.0 -3.762831025285e+01 
-3.890894395109e+01 -3.379604261216e-01 0.0 
-3.379604261216e-01 -8.838367248422e+01 0.0 
0.0 0.0 -3.778778493059e+01 
-3.854666810178e+01 -2.620659212897e-01 0.0 
-2.620659212897e-01 -8.834569458201e+01 0.0 
0.0 0.0 -3.766770880514e+01 
-3.892583315425e+01 -2.738100103521e-01 0.0 
-2.738100103521e-01 -8.838541525785e+01 0.0 
0.0 0.0 -3.779337452363e+01 
-3.862827431354e+01 -2.218637589789e-01 0.0 
-2.218637589789e-01 -8.835138853755e+01 0.0 
0.0 0.0 -3.769389885533e+01 
-3.920471101353e+01 -2.767829126085e-01 0.0 
-2.767829126085e-01 -8.850471542030e+01 0.0 
0.0 0.0 -3.791282793015e+01 
-4.199068093699e+01 3.760031595375e-01 0.0 
3.760031595375e-01 -9.150987784301e+01 0.0 
0.0 0.0 -3.965016763400e+01 
-3.910889074334e+01 -6.490211580237e-02 0.0 
-6.490211580237e-02 -8.843860992035e+01 0.0 
0.0 0.0 -3.786425019911e+01 
-3.874827003459e+01 -1.346328749292e-01 0.0 
-1.346328749292e-01 -8.854024471435e+01 0.0 
0.0 0.0 -3.778655442468e+01 
-3.995834353512e+01 -1.975958782258e-01 0.0 
-1.975958782258e-01 -8.877939541708e+01 0.0 
0.0 0.0 -3.822132168566e+01 
-3.888450655701e+01 -5.879209252175e-02 0.0 
-5.879209252175e-02 -8.838393960431e+01 0.0 
0.0 0.0 -3.778053384840e+01 
-3.908358360103e+01 9.411278462410e-02 0.0 
9.411278462410e-02 -8.894570390592e+01 0.0 
0.0 0.0 -3.800878625209e+01 
-3.844333335505e+01 2.474548317139e-01 0.0 
2.474548317139e-01 -8.298858430480e+01 0.0 
0.0 0.0 -3.602957529796e+01 
-3.801770223046e+01 1.466621900903e+00 0.0 
1.466621900903e+00 -8.867249534366e+01 0.0 
0.0 0.0 -3.760705927224e+01 
-3.835763801831e+01 -1.448301824153e+00 0.0 
-1.448301824153e+00 -8.667913302264e+01 0.0 
0.0 0.0 -3.711103131229e+01 
-4.040848069465e+01 1.430814239088e-01 0.0 
1.430814239088e-01 -9.280228276592e+01 0.0 
0.0 0.0 -3.956322903817e+01 
-3.604104682756e+01 -1.690444204090e-01 0.0 
-1.690444204090e-01 -8.269271923472e+01 0.0 
0.0 0.0 -3.522012981868e+01 
-3.766844749635e+01 5.171189343279e-01 0.0 
5.171189343279e-01 -8.318748768366e+01 0.0 
0.0 0.0 -3.585678055400e+01 
-4.766624232865e+01 2.697390125948e-01 0.0 
2.697390125948e-01 -1.095969239334e+02 0.0 
0.0 0.0 -4.677894987861e+01 
-4.688854700326e+01 -2.609761701124e-01 0.0 
-2.609761701124e-01 -1.078488553884e+02 0.0 
0.0 0.0 -4.602122071748e+01 
-4.694718983991e+01 -2.068575923076e-02 0.0 
-2.068575923076e-02 -1.078395042049e+02 0.0 
0.0 0.0 -4.603600821344e+01 
-4.684684649333e+01 -7.150622967173e-02 0.0 
-7.150622967173e-02 -1.076950880624e+02 0.0 
0.0 0.0 -4.596258036672e+01 
-4.693289513971e+01 -6.364009746156e-02 0.0 
-6.364009746156e-02 -1.077298803045e+02 0.0 
0.0 0.0 -4.599883263326e+01 
-4.685292122277e+01 -8.817922964045e-02 0.0 
-8.817922964045e-02 -1.076799516347e+02 0.0 
0.0 0.0 -4.595986185725e+01 
-4.694156691721e+01 -8.911175473654e-02 0.0 
-8.911175473654e-02 -1.077174834762e+02 0.0 
0.0 0.0 -4.599771511801e+01 
-4.685591366322e+01 -1.112029432848e-01 0.0 
-1.112029432848e-01 -1.076782526130e+02 0.0 
0.0 0.0 -4.596024988286e+01 
-4.695974411779e+01 -1.101119450475e-01 0.0 
-1.101119450475e-01 -1.077210258138e+02 0.0 
0.0 0.0 -4.600423097948e+01 
-4.685767036157e+01 -1.338094302540e-01 0.0 
-1.338094302540e-01 -1.076811209002e+02 0.0 
0.0 0.0 -4.596163737854e+01 
-4.697739577323e+01 -1.314330293797e-01 0.0 
-1.314330293797e-01 -1.077291829673e+02 0.0 
0.0 0.0 -4.601197362216e+01 
-4.686075579424e+01 -1.558179166066e-01 0.0 
-1.558179166066e-01 -1.076895401635e+02 0.0 
0.0 0.0 -4.596508878733e+01 
-4.699532534011e+01 -1.454644092919e-01 0.0 
-1.454644092919e-01 -1.077385582423e+02 0.0 
0.0 0.0 -4.602016507474e+01 
-4.686667305327e+01 -1.737964568160e-01 0.0 
-1.737964568160e-01 -1.076868048219e+02 0.0 
0.0 0.0 -4.596604336256e+01 
-4.702559509411e+01 -1.602027747578e-01 0.0 
-1.602027747578e-01 -1.077417311625e+02 0.0 
0.0 0.0 -4.603019787697e+01 
-4.687833050941e+01 -1.930334892449e-01 0.0 
-1.930334892449e-01 -1.076779554183e+02 0.0 
0.0 0.0 -4.596688577831e+01 
-4.806976750203e+01 8.496310479166e-01 0.0 
8.496310479166e-01 -1.096999571452e+02 0.0 
0.0 0.0 -4.693091739416e+01 
-4.707320571379e+01 -1.807514105449e-01 0.0 
-1.807514105449e-01 -1.077451705113e+02 0.0 
0.0 0.0 -4.604551286751e+01 
-4.689725364908e+01 -2.154490340461e-01 0.0 
-2.154490340461e-01 -1.076782511151e+02 0.0 
0.0 0.0 -4.597265142927e+01 
-4.614123613415e+01 1.237167801512e-01 0.0 
1.237167801512e-01 -1.032061448148e+02 0.0 
0.0 0.0 -4.440421428469e+01 
-4.710580989935e+01 -2.023778821024e-01 0.0 
-2.023778821024e-01 -1.077471053730e+02 0.0 
0.0 0.0 -4.605587458171e+01 
-4.692161754776e+01 -2.338055224459e-01 0.0 
-2.338055224459e-01 -1.076861506456e+02 0.0 
0.0 0.0 -4.598233045801e+01 
-4.900604462266e+01 6.081636516196e-02 0.0 
6.081636516196e-02 -1.086251090769e+02 0.0 
0.0 0.0 -4.688934610986e+01 
-4.714775439544e+01 -2.148128552766e-01 0.0 
-2.148128552766e-01 -1.077532156533e+02 0.0 
0.0 0.0 -4.607029101463e+01 
-4.695455651513e+01 -2.441251297642e-01 0.0 
-2.441251297642e-01 -1.076940299835e+02 0.0 
0.0 0.0 -4.599457594959e+01 
-4.721110941843e+01 -2.175203326370e-01 0.0 
-2.175203326370e-01 -1.077606572641e+02 0.0 
0.0 0.0 -4.609153000475e+01 
-4.700008866034e+01 -2.471655498445e-01 0.0 
-2.471655498445e-01 -1.076967054831e+02 0.0 
0.0 0.0 -4.600903824304e+01 
-4.728594363569e+01 -2.139091790491e-01 0.0 
-2.139091790491e-01 -1.077610532985e+02 0.0 
0.0 0.0 -4.611409908025e+01 
-4.705661371178e+01 -2.497218362776e-01 0.0 
-2.497218362776e-01 -1.076781381540e+02 0.0 
0.0 0.0 -4.602042555974e+01 
-5.022271242999e+01 2.677337915384e-01 0.0 
2.677337915384e-01 -1.109933685129e+02 0.0 
0.0 0.0 -4.796482428288e+01 
-4.741505278145e+01 -2.471831453104e-01 0.0 
-2.471831453104e-01 -1.077912455600e+02 0.0 
0.0 0.0 -4.616188950244e+01 
-4.713597659961e+01 -2.495185685903e-01 0.0 
-2.495185685903e-01 -1.077735173195e+02 0.0 
0.0 0.0 -4.607284817574e+01 
-4.744760733375e+01 -2.037249663053e-01 0.0 
-2.037249663053e-01 -1.078167938887e+02 0.0 
0.0 0.0 -4.617932036673e+01 
-4.721642918575e+01 -2.186458409286e-01 0.0 
-2.186458409286e-01 -1.077678046984e+02 0.0 
0.0 0.0 -4.609527016525e+01 
-4.734951355419e+01 -1.537308550647e-01 0.0 
-1.537308550647e-01 -1.080406695244e+02 0.0 
0.0 0.0 -4.621705492356e+01 
-4.764400676801e+01 -2.374069497764e-01 0.0 
-2.374069497764e-01 -1.079141137054e+02 0.0 
0.0 0.0 -4.626743614203e+01 
-4.745589943284e+01 -6.171251393408e-02 0.0 
-6.171251393408e-02 -1.077574883987e+02 0.0 
0.0 0.0 -4.616401634946e+01 
-4.756141977940e+01 3.552067304123e-03 0.0 
3.552067304123e-03 -1.078906081524e+02 0.0 
0.0 0.0 -4.623560837954e+01 
-4.766263302386e+01 1.152333100948e-02 0.0 
1.152333100948e-02 -1.083973419082e+02 0.0 
0.0 0.0 -4.641799247963e+01 
-4.844194166298e+01 -1.924188750861e-01 0.0 
-1.924188750861e-01 -1.081856102727e+02 0.0 
0.0 0.0 -4.658826558070e+01 
-4.674406852157e+01 3.531044549227e-01 0.0 
3.531044549227e-01 -1.024722882688e+02 0.0 
0.0 0.0 -4.436490703711e+01 
-4.731292289163e+01 1.471910408826e+00 0.0 
1.471910408826e+00 -1.074423224262e+02 0.0 
0.0 0.0 -4.602657359534e+01 
-4.697380716733e+01 -1.447035641340e+00 0.0 
-1.447035641340e+00 -1.094231790012e+02 0.0 
0.0 0.0 -4.651909585055e+01 
-4.490848838100e+01 1.406266660404e-01 0.0 
1.406266660404e-01 -1.033023007007e+02 0.0 
0.0 0.0 -4.406323672452e+01 
-4.929367439830e+01 -1.664750433188e-01 0.0 
-1.664750433188e-01 -1.133992565903e+02 0.0 
0.0 0.0 -4.840787929658e+01 
-4.633696600247e+01 5.148853724947e-01 0.0 
5.148853724947e-01 -1.026497172331e+02 0.0 
0.0 0.0 -4.429600497066e+01 
-5.456158111545e+01 2.841384124021e-01 0.0 
2.841384124021e-01 -1.256860477692e+02 0.0 
0.0 0.0 -5.367428866541e+01 
-5.531335371632e+01 -2.252250632218e-01 0.0 
-2.252250632218e-01 -1.273596413472e+02 0.0 
0.0 0.0 -5.440189851906e+01 
-5.532922809571e+01 -7.190192068363e-03 0.0 
-7.190192068363e-03 -1.273975934684e+02 0.0 
0.0 0.0 -5.441804646924e+01 
-5.542368217680e+01 -3.893242071513e-02 0.0 
-3.893242071513e-02 -1.274663649471e+02 0.0 
0.0 0.0 -5.446701413717e+01 
-5.538210494206e+01 -5.771392095677e-02 0.0 
-5.771392095677e-02 -1.274447031766e+02 0.0 
0.0 0.0 -5.444804243560e+01 
-5.543428267158e+01 -7.231714913674e-02 0.0 
-7.231714913674e-02 -1.274717367804e+02 0.0 
0.0 0.0 -5.447180583560e+01 
-5.540128928086e+01 -7.591224325603e-02 0.0 
-7.591224325603e-02 -1.274568356580e+02 0.0 
0.0 0.0 -5.445743748166e+01 
-5.547994615165e+01 -9.248788232514e-02 0.0 
-9.248788232514e-02 -1.274790533599e+02 0.0 
0.0 0.0 -5.448769985347e+01 
-5.541551794037e+01 -9.555800625262e-02 0.0 
-9.555800625262e-02 -1.274511647331e+02 0.0 
0.0 0.0 -5.446000480205e+01 
-5.550692178437e+01 -1.166756213881e-01 0.0 
-1.166756213881e-01 -1.274865369107e+02 0.0 
0.0 0.0 -5.449803760853e+01 
-5.543257258705e+01 -1.123381797951e-01 0.0 
-1.123381797951e-01 -1.274579288662e+02 0.0 
0.0 0.0 -5.446715043598e+01 
-5.554616683540e+01 -1.381862073154e-01 0.0 
-1.381862073154e-01 -1.275035246514e+02 0.0 
0.0 0.0 -5.451490744603e+01 
-5.545334533493e+01 -1.227064367816e-01 0.0 
-1.227064367816e-01 -1.274739382303e+02 0.0 
0.0 0.0 -5.447818506956e+01 
-5.555423895063e+01 -1.406862378375e-01 0.0 
-1.406862378375e-01 -1.275011733219e+02 0.0 
0.0 0.0 -5.451662368176e+01 
-5.548562188511e+01 -1.273596263090e-01 0.0 
-1.273596263090e-01 -1.274817936748e+02 0.0 
0.0 0.0 -5.449022466797e+01 
-5.654246441071e+01 8.627940342091e-01 0.0 
8.627940342091e-01 -1.292766167450e+02 0.0 
0.0 0.0 -5.534572434670e+01 
-5.563744588419e+01 -1.442406221765e-01 0.0 
-1.442406221765e-01 -1.274969534501e+02 0.0 
0.0 0.0 -5.454031980028e+01 
-5.745077738987e+01 4.275969670267e-02 0.0 
4.275969670267e-02 -1.283469485796e+02 0.0 
0.0 0.0 -5.533931779083e+01 
-5.551678886820e+01 -1.495299359085e-01 0.0 
-1.495299359085e-01 -1.274468645382e+02 0.0 
0.0 0.0 -5.448909602193e+01 
-5.567915835939e+01 -1.786155731785e-01 0.0 
-1.786155731785e-01 -1.275003352509e+02 0.0 
0.0 0.0 -5.455384808308e+01 
-5.555669402605e+01 -1.628591914162e-01 0.0 
-1.628591914162e-01 -1.274658350020e+02 0.0 
0.0 0.0 -5.450675870841e+01 
-5.571108648344e+01 -1.874154951646e-01 0.0 
-1.874154951646e-01 -1.275121507385e+02 0.0 
0.0 0.0 -5.456697116659e+01 
-5.560974534557e+01 -1.594898328779e-01 0.0 
-1.594898328779e-01 -1.274978612036e+02 0.0 
0.0 0.0 -5.453228196476e+01 
-5.579263021693e+01 -1.765419072312e-01 0.0 
-1.765419072312e-01 -1.275268103078e+02 0.0 
0.0 0.0 -5.459583215742e+01 
-5.471396310955e+01 9.114134716857e-02 0.0 
9.114134716857e-02 -1.228203269813e+02 0.0 
0.0 0.0 -5.286028702727e+01 
-5.567443390914e+01 -1.504884320847e-01 0.0 
-1.504884320847e-01 -1.275084144091e+02 0.0 
0.0 0.0 -5.455485449546e+01 
-5.587680056700e+01 -1.640562443807e-01 0.0 
-1.640562443807e-01 -1.275341270074e+02 0.0 
0.0 0.0 -5.462327827231e+01 
-5.575567080159e+01 -1.325980497441e-01 0.0 
-1.325980497441e-01 -1.275237500189e+02 0.0 
0.0 0.0 -5.458382624615e+01 
-5.593730023193e+01 -1.248472946284e-01 0.0 
-1.248472946284e-01 -1.275075196542e+02 0.0 
0.0 0.0 -5.463344596584e+01 
-5.584760983256e+01 -1.355871163869e-01 0.0 
-1.355871163869e-01 -1.274672120126e+02 0.0 
0.0 0.0 -5.459444655355e+01 
-5.621853214572e+01 -2.064347753515e-01 0.0 
-2.064347753515e-01 -1.276360694027e+02 0.0 
0.0 0.0 -5.475638046451e+01 
-5.596187206665e+01 -9.593432790057e-02 0.0 
-9.593432790057e-02 -1.276834115988e+02 0.0 
0.0 0.0 -5.469358509962e+01 
-5.602892854472e+01 -4.855150805386e-02 0.0 
-4.855150805386e-02 -1.275928023541e+02 0.0 
0.0 0.0 -5.468651926963e+01 
-5.689009552530e+01 -1.919628120192e-01 0.0 
-1.919628120192e-01 -1.279712247840e+02 0.0 
0.0 0.0 -5.505839609279e+01 
-5.608386243437e+01 -4.980002855847e-02 0.0 
-4.980002855847e-02 -1.276071102603e+02 0.0 
0.0 0.0 -5.470729180840e+01 
-5.865913485419e+01 1.958952738911e-01 0.0 
1.958952738911e-01 -1.306457419882e+02 0.0 
0.0 0.0 -5.639146305273e+01 
-5.623654944900e+01 6.407791183518e-02 0.0 
6.407791183518e-02 -1.281325773815e+02 0.0 
0.0 0.0 -5.491073804915e+01 
-5.519225119209e+01 2.803881994454e-01 0.0 
2.803881994454e-01 -1.220838556315e+02 0.0 
0.0 0.0 -5.278283204707e+01 
-5.488370364636e+01 1.475455892904e+00 0.0 
1.475455892904e+00 -1.278242904022e+02 0.0 
0.0 0.0 -5.441239821457e+01 
-5.522211722170e+01 -1.437365802793e+00 0.0 
-1.437365802793e+00 -1.258458000408e+02 0.0 
0.0 0.0 -5.392037517875e+01 
-5.726897350546e+01 1.467899686808e-01 0.0 
1.467899686808e-01 -1.319688894635e+02 0.0 
0.0 0.0 -5.637135889070e+01 
-5.292215395112e+01 -1.596814990704e-01 0.0 
-1.596814990704e-01 -1.218657088802e+02 0.0 
0.0 0.0 -5.203635884940e+01 
-5.482076615131e+01 4.230831914376e-01 0.0 
4.230831914376e-01 -1.221927926437e+02 0.0 
0.0 0.0 -5.270406763851e+01 
-6.439935878741e+01 3.271482035097e-01 0.0 
3.271482035097e-01 -1.488043303704e+02 0.0 
0.0 0.0 -6.356110674735e+01 
-6.373826704927e+01 -1.974179800326e-01 0.0 
-1.974179800326e-01 -1.470177724574e+02 0.0 
0.0 0.0 -6.282681185201e+01 
-6.385291893428e+01 5.968110310722e-02 0.0 
5.968110310722e-02 -1.470233105430e+02 0.0 
0.0 0.0 -6.286286884319e+01 
-6.372328183347e+01 -7.610934857785e-03 0.0 
-7.610934857785e-03 -1.468320974793e+02 0.0 
0.0 0.0 -6.276661379384e+01 
-6.382074733076e+01 -4.388792077938e-02 0.0 
-4.388792077938e-02 -1.468824229684e+02 0.0 
0.0 0.0 -6.281095108975e+01 
-6.375670935703e+01 -5.058160683510e-02 0.0 
-5.058160683510e-02 -1.468907323798e+02 0.0 
0.0 0.0 -6.279423252104e+01 
-6.381421201850e+01 -3.076523768265e-02 0.0 
-3.076523768265e-02 -1.469080220874e+02 0.0 
0.0 0.0 -6.281667023176e+01 
-6.377942589267e+01 -5.296950915705e-02 0.0 
-5.296950915705e-02 -1.468445060890e+02 0.0 
0.0 0.0 -6.278717959449e+01 
-6.392570552588e+01 -6.603738845052e-02 0.0 
-6.603738845052e-02 -1.469101328349e+02 0.0 
0.0 0.0 -6.285075150822e+01 
-6.381969043668e+01 -8.546541372478e-02 0.0 
-8.546541372478e-02 -1.468829970995e+02 0.0 
0.0 0.0 -6.281080626085e+01 
-6.392049368416e+01 -7.652772548313e-02 0.0 
-7.652772548313e-02 -1.469190338575e+02 0.0 
0.0 0.0 -6.285185826249e+01 
-6.384876890190e+01 -9.667113915256e-02 0.0 
-9.667113915256e-02 -1.468762628065e+02 0.0 
0.0 0.0 -6.281750951253e+01 
-6.401601581721e+01 -1.083090936520e-01 0.0 
-1.083090936520e-01 -1.469490184105e+02 0.0 
0.0 0.0 -6.288951026833e+01 
-6.493562820939e+01 8.170028411264e-01 0.0 
8.170028411264e-01 -1.488305895911e+02 0.0 
0.0 0.0 -6.372986534014e+01 
-6.389397929876e+01 -1.130727066503e-01 0.0 
-1.130727066503e-01 -1.469605674675e+02 0.0 
0.0 0.0 -6.285636402989e+01 
-6.400911360365e+01 -4.357742367027e-02 0.0 
-4.357742367027e-02 -1.469567258551e+02 0.0 
0.0 0.0 -6.288975183763e+01 
-6.305072725874e+01 1.117394958026e-01 0.0 
1.117394958026e-01 -1.423460321620e+02 0.0 
0.0 0.0 -6.121902782622e+01 
-6.392715870270e+01 -9.077746802760e-02 0.0 
-9.077746802760e-02 -1.468396166933e+02 0.0 
0.0 0.0 -6.283003261879e+01 
-6.410750467569e+01 -1.031621850738e-01 0.0 
-1.031621850738e-01 -1.469159293619e+02 0.0 
0.0 0.0 -6.290703021128e+01 
-6.571759423148e+01 5.631129588483e-02 0.0 
5.631129588483e-02 -1.477698763231e+02 0.0 
0.0 0.0 -6.364624116639e+01 
-6.398523107768e+01 -1.209416426256e-01 0.0 
-1.209416426256e-01 -1.468811715935e+02 0.0 
0.0 0.0 -6.285992080137e+01 
-6.412975871049e+01 -1.293368268497e-01 0.0 
-1.293368268497e-01 -1.469398394247e+02 0.0 
0.0 0.0 -6.292087944056e+01 
-6.404774355510e+01 -1.203744576637e-01 0.0 
-1.203744576637e-01 -1.469643505724e+02 0.0 
0.0 0.0 -6.290362823825e+01 
-6.420177382017e+01 -8.095493964034e-02 0.0 
-8.095493964034e-02 -1.469784345846e+02 0.0 
0.0 0.0 -6.295406252142e+01 
-6.411813780677e+01 -9.179919486730e-02 0.0 
-9.179919486730e-02 -1.469529946841e+02 0.0 
0.0 0.0 -6.292133974726e+01 
-6.701946889932e+01 1.979417683553e-01 0.0 
1.979417683553e-01 -1.501365752775e+02 0.0 
0.0 0.0 -6.474681325306e+01 
-6.433628348586e+01 -6.525679270452e-02 0.0 
-6.525679270452e-02 -1.469947769777e+02 0.0 
0.0 0.0 -6.299931813906e+01 
-6.420693125801e+01 -7.302959429415e-02 0.0 
-7.302959429415e-02 -1.469710986197e+02 0.0 
0.0 0.0 -6.295340896332e+01 
-6.432016755794e+01 -2.408230570863e-02 0.0 
-2.408230570863e-02 -1.470675434149e+02 0.0 
0.0 0.0 -6.301631329186e+01 
-6.440452447052e+01 -5.662431508304e-02 0.0 
-5.662431508304e-02 -1.470115043972e+02 0.0 
0.0 0.0 -6.302480866032e+01 
-6.440387549021e+01 -9.110591906918e-03 0.0 
-9.110591906918e-03 -1.467352038731e+02 0.0 
0.0 0.0 -6.294172380900e+01 
-6.431958563760e+01 9.516297739281e-02 0.0 
9.516297739281e-02 -1.469160995450e+02 0.0 
0.0 0.0 -6.297070555478e+01 
-6.459720970637e+01 7.865746236446e-03 0.0 
7.865746236446e-03 -1.475854583979e+02 0.0 
0.0 0.0 -6.325480043129e+01 
-6.511395210070e+01 -2.440355222273e-01 0.0 
-2.440355222273e-01 -1.472395060590e+02 0.0 
0.0 0.0 -6.330603744791e+01 
-6.357978485851e+01 3.248783259568e-01 0.0 
3.248783259568e-01 -1.416691475427e+02 0.0 
0.0 0.0 -6.117467972036e+01 
-6.420931603111e+01 1.434899260882e+00 0.0 
1.434899260882e+00 -1.465160559817e+02 0.0 
0.0 0.0 -6.281761160384e+01 
-6.383128376020e+01 -1.484745061708e+00 0.0 
-1.484745061708e+00 -1.487135873552e+02 0.0 
0.0 0.0 -6.336346133464e+01 
-6.177189308002e+01 1.148368157797e-01 0.0 
1.148368157797e-01 -1.424757018042e+02 0.0 
0.0 0.0 -6.087427846525e+01 
-6.616558535817e+01 -2.261788003995e-01 0.0 
-2.261788003995e-01 -1.525567383945e+02 0.0 
0.0 0.0 -6.521669712582e+01 
-6.316511740904e+01 3.837499331678e-01 0.0 
3.837499331678e-01 -1.416804086243e+02 0.0 
0.0 0.0 -6.105365781000e+01 
-7.146679261984e+01 4.506899242149e-01 0.0 
4.506899242149e-01 -1.652950093128e+02 0.0 
0.0 0.0 -7.062854057978e+01 
-7.235101208421e+01 8.228412410310e-03 0.0 
8.228412410310e-03 -1.665612145875e+02 0.0 
0.0 0.0 -7.127366800151e+01 
-7.220092497347e+01 3.600452099440e-02 0.0 
3.600452099440e-02 -1.665019913011e+02 0.0 
0.0 0.0 -7.121087488238e+01 
-7.216599675326e+01 2.202320085986e-02 0.0 
2.202320085986e-02 -1.665804242630e+02 0.0 
0.0 0.0 -7.122392630488e+01 
-7.227787906585e+01 -2.514134845440e-02 0.0 
-2.514134845440e-02 -1.666157303503e+02 0.0 
0.0 0.0 -7.126808282484e+01 
-7.226903637131e+01 -5.472769488039e-02 0.0 
-5.472769488039e-02 -1.667323112068e+02 0.0 
0.0 0.0 -7.130040427343e+01 
-7.233441806794e+01 3.078140822092e-02 0.0 
3.078140822092e-02 -1.667885028694e+02 0.0 
0.0 0.0 -7.133687628121e+01 
-7.241759817798e+01 5.705583866060e-02 0.0 
5.705583866060e-02 -1.666593334576e+02 0.0 
0.0 0.0 -7.132307949066e+01 
-7.236250017735e+01 -3.894729696023e-02 0.0 
-3.894729696023e-02 -1.665959870216e+02 0.0 
0.0 0.0 -7.128754615969e+01 
-7.242375807317e+01 -8.259396242563e-02 0.0 
-8.259396242563e-02 -1.667192085479e+02 0.0 
0.0 0.0 -7.134288998633e+01 
-7.241907992941e+01 -2.047479402582e-02 0.0 
-2.047479402582e-02 -1.667490684297e+02 0.0 
0.0 0.0 -7.135044450775e+01 
-7.243836776784e+01 -6.018344782041e-03 0.0 
-6.018344782041e-03 -1.666987795180e+02 0.0 
0.0 0.0 -7.134114418574e+01 
-7.325538584254e+01 8.972911615555e-01 0.0 
8.972911615555e-01 -1.684317905528e+02 0.0 
0.0 0.0 -7.210615291860e+01 
-7.247943740036e+01 -3.594778831644e-02 0.0 
-3.594778831644e-02 -1.666970021046e+02 0.0 
0.0 0.0 -7.135293185148e+01 
-7.342248281831e+01 6.036712717650e-03 0.0 
6.036712717650e-03 -1.672487676592e+02 0.0 
0.0 0.0 -7.180137514324e+01 
-7.284349598179e+01 -1.161677185106e-01 0.0 
-1.161677185106e-01 -1.668550031465e+02 0.0 
0.0 0.0 -7.150954973850e+01 
-7.250652870025e+01 -3.217221561249e-02 0.0 
-3.217221561249e-02 -1.667840277472e+02 0.0 
0.0 0.0 -7.138716693423e+01 
-7.244843433309e+01 2.100047904862e-02 0.0 
2.100047904862e-02 -1.666471057240e+02 0.0 
0.0 0.0 -7.132866201712e+01 
-7.255350888251e+01 -5.937340255055e-02 0.0 
-5.937340255055e-02 -1.666232725112e+02 0.0 
0.0 0.0 -7.135303441810e+01 
-7.255409543615e+01 -9.239762393559e-02 0.0 
-9.239762393559e-02 -1.667079086641e+02 0.0 
0.0 0.0 -7.137860123006e+01 
-7.263655646090e+01 -3.300381949784e-02 0.0 
-3.300381949784e-02 -1.667890341757e+02 0.0 
0.0 0.0 -7.142767719097e+01 
-7.278494845465e+01 -4.982967817971e-02 0.0 
-4.982967817971e-02 -1.668241278438e+02 0.0 
0.0 0.0 -7.148272288953e+01 
-7.143558725163e+01 1.122604267201e-01 0.0 
1.122604267201e-01 -1.619899880778e+02 0.0 
0.0 0.0 -6.962767259884e+01 
-7.272463445855e+01 1.365020009724e-02 0.0 
1.365020009724e-02 -1.668651094074e+02 0.0 
0.0 0.0 -7.147692315980e+01 
-7.288193998923e+01 4.107366745221e-02 0.0 
4.107366745221e-02 -1.668052192524e+02 0.0 
0.0 0.0 -7.150614777249e+01 
-7.280766335656e+01 2.226593637182e-02 0.0 
2.226593637182e-02 -1.667613300093e+02 0.0 
0.0 0.0 -7.147069800977e+01 
-7.306634475421e+01 -2.701346651449e-03 0.0 
-2.701346651449e-03 -1.668285615670e+02 0.0 
0.0 0.0 -7.156847189637e+01 
-7.324863202810e+01 -5.842996621429e-02 0.0 
-5.842996621429e-02 -1.669531060708e+02 0.0 
0.0 0.0 -7.166052142968e+01 
-7.287895644455e+01 8.511949939825e-03 0.0 
8.511949939825e-03 -1.667851790033e+02 0.0 
0.0 0.0 -7.149924063435e+01 
-7.294672557108e+01 8.133555615565e-02 0.0 
8.133555615565e-02 -1.670460927231e+02 0.0 
0.0 0.0 -7.159784548825e+01 
-7.536394536221e+01 2.088970846962e-01 0.0 
2.088970846962e-01 -1.698203552040e+02 0.0 
0.0 0.0 -7.315529016987e+01 
-7.190803611849e+01 2.854776632938e-01 0.0 
2.854776632938e-01 -1.612799784267e+02 0.0 
0.0 0.0 -6.955640436355e+01 
-7.163908690196e+01 1.298964569589e+00 0.0 
1.298964569589e+00 -1.665892354830e+02 0.0 
0.0 0.0 -7.106849671547e+01 
-7.185931221614e+01 -1.575917505183e+00 0.0 
-1.575917505183e+00 -1.652925884043e+02 0.0 
0.0 0.0 -7.074557018614e+01 
-7.382456321901e+01 -7.604107108697e-02 0.0 
-7.604107108697e-02 -1.711020795203e+02 0.0 
0.0 0.0 -7.307799282178e+01 
-6.976781573228e+01 -2.574890786122e-01 0.0 
-2.574890786122e-01 -1.609619426008e+02 0.0 
0.0 0.0 -6.881892749992e+01 
-7.155079679611e+01 4.250045966291e-01 0.0 
4.250045966291e-01 -1.613806823073e+02 0.0 
0.0 0.0 -6.947944373101e+01 

TENSORS element_materi_strain_total float
-2.381374627380e-05 1.862286890046e-05 0.0 
1.862286890046e-05 5.105399882261e-04 0.0 
0.0 0.0 0.0 
-2.546839810913e-05 1.140174325969e-05 0.0 
1.140174325969e-05 5.058332913377e-04 0.0 
0.0 0.0 0.0 
-4.168088966860e-06 2.889882150547e-05 0.0 
2.889882150547e-05 1.301221971585e-03 0.0 
0.0 0.0 0.0 
-4.076367940198e-06 -1.110860422733e-06 0.0 
-1.110860422733e-06 1.304022201155e-03 0.0 
0.0 0.0 0.0 
-1.481717915097e-05 7.172316874231e-06 0.0 
7.172316874231e-06 8.695839136039e-04 0.0 
0.0 0.0 0.0 
2.080405908322e-05 5.178881067986e-05 0.0 
5.178881067986e-05 1.439899583253e-04 0.0 
0.0 0.0 0.0 
-1.291742844090e-05 7.463314966984e-06 0.0 
7.463314966984e-06 8.701637288924e-04 0.0 
0.0 0.0 0.0 
-2.444566167770e-05 2.170091131424e-05 0.0 
2.170091131424e-05 4.906386658405e-04 0.0 
0.0 0.0 0.0 
-1.481788152569e-05 -5.065507206803e-06 0.0 
-5.065507206803e-06 8.715057427828e-04 0.0 
0.0 0.0 0.0 
-3.532022439523e-06 9.735341094854e-06 0.0 
9.735341094854e-06 1.298720416385e-03 0.0 
0.0 0.0 0.0 
2.558444363321e-05 4.982886179147e-06 0.0 
4.982886179147e-06 7.808721639562e-04 0.0 
0.0 0.0 0.0 
-2.431987711748e-05 1.484740204312e-05 0.0 
1.484740204312e-05 4.529041252652e-04 0.0 
0.0 0.0 0.0 
9.112035570524e-06 1.001061989939e-05 0.0 
1.001061989939e-05 1.161963772608e-03 0.0 
0.0 0.0 0.0 
-1.699047549086e-05 9.598902085470e-06 0.0 
9.598902085470e-06 9.229644330988e-04 0.0 
0.0 0.0 0.0 
5.155836273030e-06 2.353466830488e-06 0.0 
2.353466830488e-06 1.191104920323e-03 0.0 
0.0 0.0 0.0 
-2.954501313712e-06 8.389439028933e-06 0.0 
8.389439028933e-06 1.329298306156e-03 0.0 
0.0 0.0 0.0 
-1.734044852397e-05 2.663486625457e-06 0.0 
2.663486625457e-06 8.557024898252e-04 0.0 
0.0 0.0 0.0 
1.548249263217e-05 2.153333780707e-05 0.0 
2.153333780707e-05 1.365677847545e-04 0.0 
0.0 0.0 0.0 
7.918493851733e-06 -4.137368001834e-06 0.0 
-4.137368001834e-06 2.214886342213e-04 0.0 
0.0 0.0 0.0 
1.241996847523e-05 2.127034115508e-06 0.0 
2.127034115508e-06 2.294728518903e-04 0.0 
0.0 0.0 0.0 
-3.909412206737e-06 -2.046139006439e-07 0.0 
-2.046139006439e-07 1.300395803068e-03 0.0 
0.0 0.0 0.0 
-2.406379480402e-05 1.182867033970e-05 0.0 
1.182867033970e-05 5.594126576158e-04 0.0 
0.0 0.0 0.0 
-2.628616837586e-05 1.112611758869e-05 0.0 
1.112611758869e-05 5.915274024326e-04 0.0 
0.0 0.0 0.0 
9.315841820845e-06 3.560906263108e-05 0.0 
3.560906263108e-05 1.145548927438e-03 0.0 
0.0 0.0 0.0 
-1.734789438734e-05 1.383447449384e-05 0.0 
1.383447449384e-05 9.774237454192e-04 0.0 
0.0 0.0 0.0 
2.466434686244e-05 -1.074182794181e-06 0.0 
-1.074182794181e-06 8.253584781486e-04 0.0 
0.0 0.0 0.0 
-2.081899070605e-05 4.143780612008e-06 0.0 
4.143780612008e-06 7.997793403358e-04 0.0 
0.0 0.0 0.0 
-4.856757503169e-06 4.885092878900e-05 0.0 
4.885092878900e-05 1.272865421322e-03 0.0 
0.0 0.0 0.0 
-2.003787100002e-05 4.034964473925e-06 0.0 
4.034964473925e-06 9.782714155893e-04 0.0 
0.0 0.0 0.0 
9.043789226615e-06 4.204437535678e-05 0.0 
4.204437535678e-05 1.169563167047e-03 0.0 
0.0 0.0 0.0 
1.020233417637e-05 4.894810316454e-06 0.0 
4.894810316454e-06 1.695115796683e-04 0.0 
0.0 0.0 0.0 
-5.743481669707e-06 -2.937356461661e-06 0.0 
-2.937356461661e-06 6.387535310437e-05 0.0 
0.0 0.0 0.0 
-9.398322605714e-06 3.086809267338e-05 0.0 
3.086809267338e-05 1.304608500807e-03 0.0 
0.0 0.0 0.0 
1.863376627087e-05 -2.738186840872e-06 0.0 
-2.738186840872e-06 9.900057210330e-04 0.0 
0.0 0.0 0.0 
1.008617548615e-05 2.120951968655e-05 0.0 
2.120951968655e-05 1.170135328977e-03 0.0 
0.0 0.0 0.0 
4.396720965749e-06 2.720473125186e-05 0.0 
2.720473125186e-05 1.225857302325e-03 0.0 
0.0 0.0 0.0 
3.487332495000e-06 7.393284090797e-06 0.0 
7.393284090797e-06 1.224636436259e-03 0.0 
0.0 0.0 0.0 
4.497197102715e-06 5.217944693928e-05 0.0 
5.217944693928e-05 1.221668251197e-03 0.0 
0.0 0.0 0.0 
-1.322196826836e-05 -6.908605095825e-06 0.0 
-6.908605095825e-06 8.084675353197e-04 0.0 
0.0 0.0 0.0 
-1.272810906594e-05 8.467612335652e-06 0.0 
8.467612335652e-06 8.109837893568e-04 0.0 
0.0 0.0 0.0 
-2.628297540874e-05 7.627038376698e-06 0.0 
7.627038376698e-06 6.605871038503e-04 0.0 
0.0 0.0 0.0 
6.357358778963e-06 3.136456096308e-05 0.0 
3.136456096308e-05 1.192690695981e-03 0.0 
0.0 0.0 0.0 
-1.966580199486e-05 2.495258249768e-05 0.0 
2.495258249768e-05 4.013646445087e-04 0.0 
0.0 0.0 0.0 
-2.106053021955e-05 5.847383331281e-06 0.0 
5.847383331281e-06 8.023101079317e-04 0.0 
0.0 0.0 0.0 
-5.713588761891e-06 -1.205594934818e-06 0.0 
-1.205594934818e-06 1.269019483572e-03 0.0 
0.0 0.0 0.0 
-2.628686333928e-05 2.533822243836e-05 0.0 
2.533822243836e-05 4.014135075454e-04 0.0 
0.0 0.0 0.0 
9.550030938943e-06 -1.768564957450e-06 0.0 
-1.768564957450e-06 1.155956048333e-04 0.0 
0.0 0.0 0.0 
-2.921134906186e-06 3.037220111353e-06 0.0 
3.037220111353e-06 1.274265217545e-03 0.0 
0.0 0.0 0.0 
-2.448712001724e-06 -3.076486987656e-06 0.0 
-3.076486987656e-06 6.310154601397e-05 0.0 
0.0 0.0 0.0 
-1.746957387694e-05 3.881787896667e-07 0.0 
3.881787896667e-07 8.952743436916e-04 0.0 
0.0 0.0 0.0 
-2.636028010650e-05 9.428841120942e-06 0.0 
9.428841120942e-06 6.266893879394e-04 0.0 
0.0 0.0 0.0 
1.289640193858e-05 -3.086702220169e-06 0.0 
-3.086702220169e-06 2.824629558260e-04 0.0 
0.0 0.0 0.0 
2.150582805616e-05 5.206273251144e-06 0.0 
5.206273251144e-06 2.433289699235e-04 0.0 
0.0 0.0 0.0 
-2.401854053735e-05 1.067520606724e-05 0.0 
1.067520606724e-05 6.255298326252e-04 0.0 
0.0 0.0 0.0 
-3.736903131379e-06 2.188346422676e-05 0.0 
2.188346422676e-05 1.312987224408e-03 0.0 
0.0 0.0 0.0 
1.757122989710e-05 -4.795329502125e-06 0.0 
-4.795329502125e-06 3.797970438162e-04 0.0 
0.0 0.0 0.0 
1.563645690217e-05 2.971207369563e-06 0.0 
2.971207369563e-06 2.923789054374e-04 0.0 
0.0 0.0 0.0 
1.901415298611e-05 6.394104753484e-06 0.0 
6.394104753484e-06 9.902570425691e-04 0.0 
0.0 0.0 0.0 
6.153443804058e-06 -1.955868279252e-06 0.0 
-1.955868279252e-06 1.651238014064e-04 0.0 
0.0 0.0 0.0 
-2.924662692028e-06 -6.659708756350e-07 0.0 
-6.659708756350e-07 1.329427224199e-03 0.0 
0.0 0.0 0.0 
-1.876020964253e-05 -6.435293726860e-06 0.0 
-6.435293726860e-06 5.919546378563e-05 0.0 
0.0 0.0 0.0 
-9.233014445220e-07 5.207671384615e-05 0.0 
5.207671384615e-05 1.195736897048e-03 0.0 
0.0 0.0 0.0 
-2.350840408183e-05 3.336673986284e-05 0.0 
3.336673986284e-05 6.088571170446e-04 0.0 
0.0 0.0 0.0 
2.269540498467e-05 1.199672465716e-05 0.0 
1.199672465716e-05 2.109467045663e-04 0.0 
0.0 0.0 0.0 
8.694798560027e-06 4.735910077147e-06 0.0 
4.735910077147e-06 1.161776890810e-03 0.0 
0.0 0.0 0.0 
-2.491591760001e-05 1.085861200747e-05 0.0 
1.085861200747e-05 5.915011730500e-04 0.0 
0.0 0.0 0.0 
-2.323083669098e-06 -2.210926863943e-07 0.0 
-2.210926863943e-07 4.941100500888e-05 0.0 
0.0 0.0 0.0 
-9.147614330796e-06 3.004153825069e-05 0.0 
3.004153825069e-05 1.301275515988e-03 0.0 
0.0 0.0 0.0 
7.989302405198e-06 -1.043534772164e-05 0.0 
-1.043534772164e-05 1.807108008234e-04 0.0 
0.0 0.0 0.0 
-3.877852815193e-06 3.921971774887e-05 0.0 
3.921971774887e-05 1.290974153185e-03 0.0 
0.0 0.0 0.0 
2.409401547343e-05 -2.851226303604e-08 0.0 
-2.851226303604e-08 8.608778125510e-04 0.0 
0.0 0.0 0.0 
0.0 1.415760058440e-05 0.0 
1.415760058440e-05 1.368526516584e-03 0.0 
0.0 0.0 0.0 
-5.313909559157e-06 4.398916397394e-05 0.0 
4.398916397394e-05 1.227051197376e-03 0.0 
0.0 0.0 0.0 
1.417962601113e-06 4.327410056800e-06 0.0 
4.327410056800e-06 7.546108782175e-05 0.0 
0.0 0.0 0.0 
1.948785518158e-05 3.036608353445e-06 0.0 
3.036608353445e-06 3.968002855934e-04 0.0 
0.0 0.0 0.0 
-4.725538860217e-06 6.737432769765e-06 0.0 
6.737432769765e-06 1.307918164331e-03 0.0 
0.0 0.0 0.0 
-8.297675212598e-06 2.374588578895e-05 0.0 
2.374588578895e-05 1.312566788459e-03 0.0 
0.0 0.0 0.0 
-2.421194048374e-05 4.023004631162e-05 0.0 
4.023004631162e-05 3.282861240133e-04 0.0 
0.0 0.0 0.0 
9.995087892456e-06 -3.351514567294e-06 0.0 
-3.351514567294e-06 1.651230542208e-04 0.0 
0.0 0.0 0.0 
-1.763791775444e-05 3.447234062788e-05 0.0 
3.447234062788e-05 3.280391734537e-04 0.0 
0.0 0.0 0.0 
1.056597788507e-05 2.423240562243e-06 0.0 
2.423240562243e-06 1.787153069759e-04 0.0 
0.0 0.0 0.0 
-1.534826946903e-05 3.015568293582e-06 0.0 
3.015568293582e-06 8.547311073455e-04 0.0 
0.0 0.0 0.0 
-2.653931036467e-05 1.281559302045e-05 0.0 
1.281559302045e-05 5.590372248270e-04 0.0 
0.0 0.0 0.0 
-2.468552357004e-05 1.074787266567e-05 0.0 
1.074787266567e-05 5.198791787553e-04 0.0 
0.0 0.0 0.0 
-1.605203048782e-05 -3.306064507675e-06 0.0 
-3.306064507675e-06 9.047613473963e-04 0.0 
0.0 0.0 0.0 
-1.410448431005e-05 7.177855163894e-06 0.0 
7.177855163894e-06 9.046546759710e-04 0.0 
0.0 0.0 0.0 
2.246225450442e-05 -1.643980821471e-06 0.0 
-1.643980821471e-06 8.890934173171e-04 0.0 
0.0 0.0 0.0 
2.038363475854e-05 4.839177025937e-06 0.0 
4.839177025937e-06 9.615888731400e-04 0.0 
0.0 0.0 0.0 
-1.849306927360e-05 2.168877474842e-05 0.0 
2.168877474842e-05 1.134360260559e-03 0.0 
0.0 0.0 0.0 
-1.570557009689e-05 -4.528960976455e-06 0.0 
-4.528960976455e-06 8.669913723611e-04 0.0 
0.0 0.0 0.0 
-1.630723814761e-06 -2.500824881347e-06 0.0 
-2.500824881347e-06 6.219093559356e-05 0.0 
0.0 0.0 0.0 
-2.094811586306e-05 6.644802469188e-06 0.0 
6.644802469188e-06 8.587933062152e-04 0.0 
0.0 0.0 0.0 
-8.701850321202e-06 -1.242475303901e-06 0.0 
-1.242475303901e-06 1.122328685858e-03 0.0 
0.0 0.0 0.0 
-9.216159313818e-06 4.287037888883e-06 0.0 
4.287037888883e-06 1.110772148693e-03 0.0 
0.0 0.0 0.0 
-3.804723662792e-06 1.512980105377e-05 0.0 
1.512980105377e-05 1.368668197876e-03 0.0 
0.0 0.0 0.0 
-4.529619188620e-07 4.702543310862e-05 0.0 
4.702543310862e-05 1.259771205445e-03 0.0 
0.0 0.0 0.0 
-1.662691994198e-05 2.544064749821e-07 0.0 
2.544064749821e-07 8.533628530165e-04 0.0 
0.0 0.0 0.0 
8.683751105965e-06 3.105600586972e-05 0.0 
3.105600586972e-05 1.192163253435e-03 0.0 
0.0 0.0 0.0 
-1.065072812212e-05 -3.180292099606e-06 0.0 
-3.180292099606e-06 9.666093180338e-04 0.0 
0.0 0.0 0.0 
-2.689619249552e-05 2.499405084844e-05 0.0 
2.499405084844e-05 5.925046861652e-04 0.0 
0.0 0.0 0.0 
-1.490155116168e-05 -2.742013136304e-06 0.0 
-2.742013136304e-06 8.390820587987e-04 0.0 
0.0 0.0 0.0 
5.263654413445e-06 1.178455547446e-05 0.0 
1.178455547446e-05 1.190515164646e-03 0.0 
0.0 0.0 0.0 
-1.841648159195e-06 3.936020830038e-05 0.0 
3.936020830038e-05 1.034449065610e-03 0.0 
0.0 0.0 0.0 
-3.274041307400e-06 4.265993254385e-05 0.0 
4.265993254385e-05 1.197249454325e-03 0.0 
0.0 0.0 0.0 
-2.087984482035e-05 3.965458936930e-05 0.0 
3.965458936930e-05 5.307448431615e-04 0.0 
0.0 0.0 0.0 
-2.379915712059e-06 -4.496449258711e-07 0.0 
-4.496449258711e-07 1.198006549807e-04 0.0 
0.0 0.0 0.0 
1.315842913763e-05 -7.384960045861e-07 0.0 
-7.384960045861e-07 1.091545553165e-03 0.0 
0.0 0.0 0.0 
-8.432719064588e-06 3.671451799891e-06 0.0 
3.671451799891e-06 1.170922061353e-03 0.0 
0.0 0.0 0.0 
-1.545440088779e-05 -4.420169092432e-06 0.0 
-4.420169092432e-06 6.645918255899e-05 0.0 
0.0 0.0 0.0 
6.464947047036e-06 1.191819444415e-05 0.0 
1.191819444415e-05 1.183592742370e-03 0.0 
0.0 0.0 0.0 
-1.729433721798e-05 2.942782580277e-05 0.0 
2.942782580277e-05 1.095113284617e-03 0.0 
0.0 0.0 0.0 
-1.856523454968e-07 -6.445835159039e-06 0.0 
-6.445835159039e-06 4.733789130684e-05 0.0 
0.0 0.0 0.0 
-1.229996361352e-05 4.792462991620e-05 0.0 
4.792462991620e-05 6.549386603183e-04 0.0 
0.0 0.0 0.0 
-2.440986577024e-05 4.818891423225e-06 0.0 
4.818891423225e-06 7.920156690946e-04 0.0 
0.0 0.0 0.0 
2.353674844602e-05 -2.037490122220e-06 0.0 
-2.037490122220e-06 4.869311616482e-04 0.0 
0.0 0.0 0.0 
-2.370258784168e-05 2.867772309692e-05 0.0 
2.867772309692e-05 5.503991368050e-04 0.0 
0.0 0.0 0.0 
-2.547268826891e-05 2.898610144008e-05 0.0 
2.898610144008e-05 6.091881176593e-04 0.0 
0.0 0.0 0.0 
6.075049866494e-06 2.673912106251e-05 0.0 
2.673912106251e-05 1.191928491123e-03 0.0 
0.0 0.0 0.0 
-1.057728810383e-05 4.784600356095e-06 0.0 
4.784600356095e-06 9.453758432909e-04 0.0 
0.0 0.0 0.0 
-2.191286017139e-05 3.784904690869e-05 0.0 
3.784904690869e-05 5.696754449431e-04 0.0 
0.0 0.0 0.0 
5.499612871551e-06 -1.133046901054e-05 0.0 
-1.133046901054e-05 1.720583829310e-04 0.0 
0.0 0.0 0.0 
-2.077529134648e-05 9.717834506580e-06 0.0 
9.717834506580e-06 8.536377166779e-04 0.0 
0.0 0.0 0.0 
-5.545595448186e-06 -5.139523397991e-07 0.0 
-5.139523397991e-07 1.175919547259e-03 0.0 
0.0 0.0 0.0 
-2.381077554603e-05 3.294812006223e-05 0.0 
3.294812006223e-05 5.699119773404e-04 0.0 
0.0 0.0 0.0 
-8.954251110915e-06 6.347668398736e-05 0.0 
6.347668398736e-05 2.316904814543e-04 0.0 
0.0 0.0 0.0 
-2.572982833426e-05 5.545140156303e-06 0.0 
5.545140156303e-06 7.264066784527e-04 0.0 
0.0 0.0 0.0 
2.090444486180e-05 1.502024548848e-06 0.0 
1.502024548848e-06 4.831182603255e-04 0.0 
0.0 0.0 0.0 
-2.362645866261e-05 1.018926344287e-05 0.0 
1.018926344287e-05 6.925040986439e-04 0.0 
0.0 0.0 0.0 
-2.916337671577e-06 1.576535141776e-05 0.0 
1.576535141776e-05 1.331711388723e-03 0.0 
0.0 0.0 0.0 
2.171886086089e-06 6.836880059857e-05 0.0 
6.836880059857e-05 2.201159929782e-04 0.0 
0.0 0.0 0.0 
2.513146125604e-05 6.783003341703e-06 0.0 
6.783003341703e-06 8.214990580382e-04 0.0 
0.0 0.0 0.0 
-4.127514539376e-06 7.850145768023e-06 0.0 
7.850145768023e-06 1.304288838833e-03 0.0 
0.0 0.0 0.0 
-2.550786011024e-05 2.410097530137e-05 0.0 
2.410097530137e-05 7.227835465835e-04 0.0 
0.0 0.0 0.0 
-2.612258664969e-05 6.108045523382e-06 0.0 
6.108045523382e-06 6.943429780182e-04 0.0 
0.0 0.0 0.0 
1.124985242718e-05 3.280577868484e-05 0.0 
3.280577868484e-05 1.170368254477e-03 0.0 
0.0 0.0 0.0 
8.505455976637e-06 -2.037153243219e-06 0.0 
-2.037153243219e-06 1.164268440629e-03 0.0 
0.0 0.0 0.0 
2.290860957355e-05 7.395545689320e-06 0.0 
7.395545689320e-06 8.893381269381e-04 0.0 
0.0 0.0 0.0 
-2.762639162246e-05 1.801357252573e-05 0.0 
1.801357252573e-05 7.595832447485e-04 0.0 
0.0 0.0 0.0 
8.456744577057e-06 4.101790597170e-05 0.0 
4.101790597170e-05 1.208045303977e-03 0.0 
0.0 0.0 0.0 
-2.563209904938e-05 1.956490536073e-05 0.0 
1.956490536073e-05 7.020324213067e-04 0.0 
0.0 0.0 0.0 
-1.361857745796e-06 7.927812839475e-06 0.0 
7.927812839475e-06 1.319709567440e-03 0.0 
0.0 0.0 0.0 
-7.386984996138e-06 4.183207420233e-05 0.0 
4.183207420233e-05 1.294614265802e-03 0.0 
0.0 0.0 0.0 
-1.897916608062e-05 -2.234954998046e-07 0.0 
-2.234954998046e-07 9.210306351815e-04 0.0 
0.0 0.0 0.0 
-1.003411724632e-05 6.782929793002e-06 0.0 
6.782929793002e-06 1.044653345175e-03 0.0 
0.0 0.0 0.0 
-2.806891130647e-05 1.534266448520e-05 0.0 
1.534266448520e-05 7.022109394936e-04 0.0 
0.0 0.0 0.0 
-2.438308387953e-05 1.064031375358e-05 0.0 
1.064031375358e-05 6.596325562835e-04 0.0 
0.0 0.0 0.0 
-2.481630313955e-05 2.681031152619e-05 0.0 
2.681031152619e-05 7.795871948248e-04 0.0 
0.0 0.0 0.0 
-1.842850815714e-05 4.097832686947e-05 0.0 
4.097832686947e-05 5.874395925642e-04 0.0 
0.0 0.0 0.0 
-1.393761315016e-05 -3.543725421682e-06 0.0 
-3.543725421682e-06 8.480402604110e-04 0.0 
0.0 0.0 0.0 
-1.095210550051e-05 4.210404432970e-05 0.0 
4.210404432970e-05 6.556471634243e-04 0.0 
0.0 0.0 0.0 
-1.420312985001e-07 -6.157345294827e-06 0.0 
-6.157345294827e-06 5.949024395036e-05 0.0 
0.0 0.0 0.0 
-1.232478564894e-05 4.610570449568e-08 0.0 
4.610570449568e-08 8.962031874726e-04 0.0 
0.0 0.0 0.0 
7.783271616768e-06 -8.739168867231e-07 0.0 
-8.739168867231e-07 1.686819339601e-04 0.0 
0.0 0.0 0.0 
-2.525585610991e-05 5.059520909231e-06 0.0 
5.059520909231e-06 7.595168903329e-04 0.0 
0.0 0.0 0.0 
5.734701193250e-06 3.657820686931e-05 0.0 
3.657820686931e-05 1.203967469864e-03 0.0 
0.0 0.0 0.0 
-2.035511517462e-05 4.270133883452e-05 0.0 
4.270133883452e-05 5.305189965801e-04 0.0 
0.0 0.0 0.0 
2.181359585762e-05 6.695533028980e-06 0.0 
6.695533028980e-06 9.236532939605e-04 0.0 
0.0 0.0 0.0 
-2.626164009989e-05 1.951954981035e-05 0.0 
1.951954981035e-05 4.359712655295e-04 0.0 
0.0 0.0 0.0 
-1.356749918857e-06 4.922562640804e-05 0.0 
4.922562640804e-05 1.033556142260e-03 0.0 
0.0 0.0 0.0 
-1.301677774113e-05 5.865679666576e-07 0.0 
5.865679666576e-07 8.533161261379e-04 0.0 
0.0 0.0 0.0 
-8.236876511192e-06 5.171057676916e-05 0.0 
5.171057676916e-05 6.103412807212e-04 0.0 
0.0 0.0 0.0 
1.698502957481e-05 -1.463916943327e-06 0.0 
-1.463916943327e-06 1.023092039157e-03 0.0 
0.0 0.0 0.0 
9.224021848997e-06 1.524839334424e-07 0.0 
1.524839334424e-07 1.698554614020e-04 0.0 
0.0 0.0 0.0 
1.394453068726e-05 9.636626553493e-06 0.0 
9.636626553493e-06 1.090446975408e-03 0.0 
0.0 0.0 0.0 
-2.398677497162e-05 1.600352388074e-05 0.0 
1.600352388074e-05 8.394922994217e-04 0.0 
0.0 0.0 0.0 
8.712417835399e-06 1.329627984311e-05 0.0 
1.329627984311e-05 1.180939740658e-03 0.0 
0.0 0.0 0.0 
-1.229089923582e-05 7.239174435258e-07 0.0 
7.239174435258e-07 8.494580765419e-04 0.0 
0.0 0.0 0.0 
-1.615032198976e-05 4.675156288281e-05 0.0 
4.675156288281e-05 5.412865162360e-04 0.0 
0.0 0.0 0.0 
-2.231516119511e-05 9.838859894655e-06 0.0 
9.838859894655e-06 7.575589186590e-04 0.0 
0.0 0.0 0.0 
2.402049406025e-05 -1.822407434929e-06 0.0 
-1.822407434929e-06 7.854007094978e-04 0.0 
0.0 0.0 0.0 
-2.068941505751e-05 2.248767614232e-05 0.0 
2.248767614232e-05 4.366920258809e-04 0.0 
0.0 0.0 0.0 
-5.867747470467e-06 4.506876260622e-05 0.0 
4.506876260622e-05 6.112307331219e-04 0.0 
0.0 0.0 0.0 
-1.040297349297e-05 -3.074539085012e-06 0.0 
-3.074539085012e-06 1.078577349031e-03 0.0 
0.0 0.0 0.0 
-1.354884097959e-05 3.981760510503e-06 0.0 
3.981760510503e-06 8.493630350312e-04 0.0 
0.0 0.0 0.0 
-1.423702341508e-05 4.716366475101e-05 0.0 
4.716366475101e-05 5.964666311440e-04 0.0 
0.0 0.0 0.0 
-2.374100111324e-05 9.683870525665e-06 0.0 
9.683870525665e-06 7.247023558210e-04 0.0 
0.0 0.0 0.0 
-1.225348580614e-05 3.901408667807e-05 0.0 
3.901408667807e-05 1.164560478337e-03 0.0 
0.0 0.0 0.0 
2.356059026165e-05 -8.064925698668e-07 0.0 
-8.064925698668e-07 5.417045798359e-04 0.0 
0.0 0.0 0.0 
-1.206149578992e-06 4.813495485513e-05 0.0 
4.813495485513e-05 1.270405263164e-03 0.0 
0.0 0.0 0.0 
-8.017205828437e-06 4.150214506841e-05 0.0 
4.150214506841e-05 1.289716107673e-03 0.0 
0.0 0.0 0.0 
-2.708937744489e-05 2.196858281314e-05 0.0 
2.196858281314e-05 5.386160670935e-04 0.0 
0.0 0.0 0.0 
2.596878856775e-05 2.034140923970e-06 0.0 
2.034140923970e-06 5.443279344084e-04 0.0 
0.0 0.0 0.0 
9.545905273134e-06 3.636535009853e-05 0.0 
3.636535009853e-05 1.099511641568e-03 0.0 
0.0 0.0 0.0 
-2.760170433658e-05 1.136926104168e-05 0.0 
1.136926104168e-05 6.813634694947e-04 0.0 
0.0 0.0 0.0 
-2.552520412369e-05 2.407480400568e-05 0.0 
2.407480400568e-05 4.963797120190e-04 0.0 
0.0 0.0 0.0 
-2.336646295786e-05 1.302065435974e-05 0.0 
1.302065435974e-05 8.156626995661e-04 0.0 
0.0 0.0 0.0 
-1.641559647192e-05 4.082174486103e-05 0.0 
4.082174486103e-05 6.434161508291e-04 0.0 
0.0 0.0 0.0 
-2.829052341391e-06 8.612510340225e-06 0.0 
8.612510340225e-06 1.318163332329e-03 0.0 
0.0 0.0 0.0 
-1.658689850514e-05 2.614848604656e-05 0.0 
2.614848604656e-05 1.108334467360e-03 0.0 
0.0 0.0 0.0 
1.551036664216e-05 7.664342650488e-06 0.0 
7.664342650488e-06 1.057530127862e-03 0.0 
0.0 0.0 0.0 
-2.592822924774e-05 3.109893212916e-05 0.0 
3.109893212916e-05 3.658120802921e-04 0.0 
0.0 0.0 0.0 
2.741868567746e-07 4.735981048829e-05 0.0 
4.735981048829e-05 5.662445221126e-04 0.0 
0.0 0.0 0.0 
-1.537917561123e-05 2.926113554927e-05 0.0 
2.926113554927e-05 1.132367936798e-03 0.0 
0.0 0.0 0.0 
-3.795535186568e-05 1.300824424022e-05 0.0 
1.300824424022e-05 3.866174625755e-05 0.0 
0.0 0.0 0.0 
-2.530579717608e-05 1.477104418562e-05 0.0 
1.477104418562e-05 6.812983632203e-04 0.0 
0.0 0.0 0.0 
1.561296941532e-05 2.966737885851e-05 0.0 
2.966737885851e-05 1.017343248628e-03 0.0 
0.0 0.0 0.0 
3.365471879624e-06 -4.558846598038e-06 0.0 
-4.558846598038e-06 1.138836316616e-04 0.0 
0.0 0.0 0.0 
-5.955049647621e-06 3.073554855126e-05 0.0 
3.073554855126e-05 1.295202532497e-03 0.0 
0.0 0.0 0.0 
-1.788138998571e-05 1.797332950733e-05 0.0 
1.797332950733e-05 1.033906445016e-03 0.0 
0.0 0.0 0.0 
3.070063491450e-05 1.276507484849e-05 0.0 
1.276507484849e-05 5.161906280906e-04 0.0 
0.0 0.0 0.0 
1.690832911061e-05 4.161351084727e-05 0.0 
4.161351084727e-05 1.016529481209e-03 0.0 
0.0 0.0 0.0 
-2.112625532535e-05 8.123099302696e-06 0.0 
8.123099302696e-06 9.045799544878e-04 0.0 
0.0 0.0 0.0 
-1.860532717435e-05 4.290128598793e-06 0.0 
4.290128598793e-06 9.557726955223e-04 0.0 
0.0 0.0 0.0 
7.711885680051e-06 3.432169934657e-05 0.0 
3.432169934657e-05 1.167568042450e-03 0.0 
0.0 0.0 0.0 
2.418536985971e-05 5.138433613934e-06 0.0 
5.138433613934e-06 3.794063338116e-04 0.0 
0.0 0.0 0.0 
-2.334377722457e-05 3.130652322854e-05 0.0 
3.130652322854e-05 7.993344507662e-04 0.0 
0.0 0.0 0.0 
-2.413491462994e-05 1.912476767751e-05 0.0 
1.912476767751e-05 8.632252327323e-04 0.0 
0.0 0.0 0.0 
-1.886103063264e-05 1.005064074331e-05 0.0 
1.005064074331e-05 1.069659401215e-03 0.0 
0.0 0.0 0.0 
-2.566026867523e-05 9.275016183284e-06 0.0 
9.275016183284e-06 8.742947263125e-04 0.0 
0.0 0.0 0.0 
-2.564044241582e-05 7.270799319181e-06 0.0 
7.270799319181e-06 8.156300686204e-04 0.0 
0.0 0.0 0.0 
1.438045087898e-06 3.949866514259e-05 0.0 
3.949866514259e-05 9.295223285910e-04 0.0 
0.0 0.0 0.0 
-1.668954221301e-05 2.804406499118e-05 0.0 
2.804406499118e-05 1.141519485044e-03 0.0 
0.0 0.0 0.0 
-5.975154529825e-06 1.812527255603e-05 0.0 
1.812527255603e-05 7.159791678535e-05 0.0 
0.0 0.0 0.0 
-2.321951464412e-05 2.154136181205e-05 0.0 
2.154136181205e-05 5.385492702299e-04 0.0 
0.0 0.0 0.0 
-2.501515499131e-05 2.618884797927e-05 0.0 
2.618884797927e-05 5.922975025110e-04 0.0 
0.0 0.0 0.0 
-2.659266592075e-05 2.243851448723e-05 0.0 
2.243851448723e-05 7.801900067841e-04 0.0 
0.0 0.0 0.0 
-1.757568200145e-05 1.787767295743e-05 0.0 
1.787767295743e-05 1.146305081755e-03 0.0 
0.0 0.0 0.0 
2.480720114528e-05 5.327330108229e-05 0.0 
5.327330108229e-05 2.159738581182e-04 0.0 
0.0 0.0 0.0 
1.865399783640e-05 2.676204696841e-05 0.0 
2.676204696841e-05 9.752774889176e-04 0.0 
0.0 0.0 0.0 
-1.306885108254e-05 -4.831670981947e-06 0.0 
-4.831670981947e-06 8.447145382713e-04 0.0 
0.0 0.0 0.0 
-3.045240650201e-06 5.459374670003e-05 0.0 
5.459374670003e-05 5.652423379996e-04 0.0 
0.0 0.0 0.0 
2.130383219501e-05 2.376743858654e-05 0.0 
2.376743858654e-05 9.341662009945e-04 0.0 
0.0 0.0 0.0 
-2.994992541416e-06 -7.940495247796e-06 0.0 
-7.940495247796e-06 7.344024928724e-05 0.0 
0.0 0.0 0.0 
-1.606730651593e-05 2.051457075711e-05 0.0 
2.051457075711e-05 1.094321058002e-03 0.0 
0.0 0.0 0.0 
-4.802341405208e-06 -2.925448386731e-07 0.0 
-2.925448386731e-07 5.657467112563e-05 0.0 
0.0 0.0 0.0 
6.319333018867e-06 -3.037464358545e-06 0.0 
-3.037464358545e-06 1.146659152451e-04 0.0 
0.0 0.0 0.0 
-1.770976361670e-05 2.964235245138e-05 0.0 
2.964235245138e-05 3.657331295455e-04 0.0 
0.0 0.0 0.0 
2.064226553422e-05 2.594134412548e-06 0.0 
2.594134412548e-06 3.173656629707e-04 0.0 
0.0 0.0 0.0 
-1.679081627293e-05 1.233982026297e-05 0.0 
1.233982026297e-05 1.130016546127e-03 0.0 
0.0 0.0 0.0 
1.672084145254e-05 -7.856818154086e-06 0.0 
-7.856818154086e-06 2.966895815990e-04 0.0 
0.0 0.0 0.0 
-1.473945896135e-05 5.147960135968e-05 0.0 
5.147960135968e-05 3.883771796740e-04 0.0 
0.0 0.0 0.0 
1.660163047523e-05 -3.984112251547e-06 0.0 
-3.984112251547e-06 2.291801144698e-04 0.0 
0.0 0.0 0.0 
1.037080671096e-05 6.852438049655e-07 0.0 
6.852438049655e-07 1.953749405668e-04 0.0 
0.0 0.0 0.0 
1.370388442279e-05 4.313788868922e-05 0.0 
4.313788868922e-05 1.056297131508e-03 0.0 
0.0 0.0 0.0 
-2.635502478887e-05 9.810786898211e-06 0.0 
9.810786898211e-06 8.397336731298e-04 0.0 
0.0 0.0 0.0 
9.395478911545e-06 1.544344223989e-05 0.0 
1.544344223989e-05 1.162366498281e-03 0.0 
0.0 0.0 0.0 
-5.418886403263e-06 4.418644773852e-06 0.0 
4.418644773852e-06 1.895439827604e-05 0.0 
0.0 0.0 0.0 
-1.299610202976e-05 5.292081199331e-05 0.0 
5.292081199331e-05 4.407792683350e-04 0.0 
0.0 0.0 0.0 
-2.066775129594e-06 5.293078185387e-05 0.0 
5.293078185387e-05 6.259754532472e-04 0.0 
0.0 0.0 0.0 
-2.521317826099e-05 1.653960588333e-05 0.0 
1.653960588333e-05 6.444378394066e-04 0.0 
0.0 0.0 0.0 
1.977255008256e-05 3.816354938975e-05 0.0 
3.816354938975e-05 9.744940056038e-04 0.0 
0.0 0.0 0.0 
8.220168704609e-06 1.946162588384e-05 0.0 
1.946162588384e-05 1.187487816427e-03 0.0 
0.0 0.0 0.0 
-2.009614385878e-05 1.556419074126e-05 0.0 
1.556419074126e-05 1.085823808298e-03 0.0 
0.0 0.0 0.0 
7.228512659330e-06 5.021451286881e-05 0.0 
5.021451286881e-05 4.584634171203e-04 0.0 
0.0 0.0 0.0 
1.246409360611e-05 3.351548817893e-05 0.0 
3.351548817893e-05 1.056363351275e-03 0.0 
0.0 0.0 0.0 
2.362396626365e-05 7.683957668104e-06 0.0 
7.683957668104e-06 8.540682294276e-04 0.0 
0.0 0.0 0.0 
-2.672338004117e-05 2.025685921818e-05 0.0 
2.025685921818e-05 8.164789498601e-04 0.0 
0.0 0.0 0.0 
-1.766410310688e-05 2.069520271915e-05 0.0 
2.069520271915e-05 1.058667014228e-03 0.0 
0.0 0.0 0.0 
-4.131219656034e-06 4.365268557761e-05 0.0 
4.365268557761e-05 1.228506669454e-03 0.0 
0.0 0.0 0.0 
6.516462545125e-07 4.513737334343e-05 0.0 
4.513737334343e-05 6.271061639709e-04 0.0 
0.0 0.0 0.0 
-1.895738215640e-05 4.590249030507e-05 0.0 
4.590249030507e-05 4.330294685781e-04 0.0 
0.0 0.0 0.0 
-2.480481529532e-05 1.158285457081e-05 0.0 
1.158285457081e-05 9.325567717751e-04 0.0 
0.0 0.0 0.0 
-2.902704557495e-06 1.617607776756e-05 0.0 
1.617607776756e-05 1.370983171787e-03 0.0 
0.0 0.0 0.0 
-2.461918808827e-05 2.651133984609e-05 0.0 
2.651133984609e-05 7.999438063879e-04 0.0 
0.0 0.0 0.0 
6.164427083677e-06 4.098566197175e-05 0.0 
4.098566197175e-05 7.643739446781e-04 0.0 
0.0 0.0 0.0 
-1.303442342671e-05 -3.220217070433e-07 0.0 
-3.220217070433e-07 9.085809450435e-04 0.0 
0.0 0.0 0.0 
4.883847305237e-06 -7.871512889164e-06 0.0 
-7.871512889164e-06 1.627141002933e-04 0.0 
0.0 0.0 0.0 
-2.348423711651e-05 1.568847000622e-05 0.0 
1.568847000622e-05 8.732689111399e-04 0.0 
0.0 0.0 0.0 
3.193272119617e-06 5.852777443055e-05 0.0 
5.852777443055e-05 4.572323802816e-04 0.0 
0.0 0.0 0.0 
2.128341046848e-05 5.499119305784e-05 0.0 
5.499119305784e-05 2.874843468974e-04 0.0 
0.0 0.0 0.0 
1.695358136589e-05 -2.082350774445e-06 0.0 
-2.082350774445e-06 1.766952968614e-04 0.0 
0.0 0.0 0.0 
-1.442092689408e-05 2.007827276649e-05 0.0 
2.007827276649e-05 1.129010062968e-03 0.0 
0.0 0.0 0.0 
-2.578604324743e-05 1.245724048606e-05 0.0 
1.245724048606e-05 8.984014723943e-04 0.0 
0.0 0.0 0.0 
-1.888897319002e-05 4.253086119498e-05 0.0 
4.253086119498e-05 5.871929453227e-04 0.0 
0.0 0.0 0.0 
-1.482883934212e-05 1.172591173198e-05 0.0 
1.172591173198e-05 1.164396543026e-03 0.0 
0.0 0.0 0.0 
-1.926486664183e-05 1.849005893634e-05 0.0 
1.849005893634e-05 1.109920864591e-03 0.0 
0.0 0.0 0.0 
-2.658950213763e-05 1.848394255247e-05 0.0 
1.848394255247e-05 8.519201562920e-04 0.0 
0.0 0.0 0.0 
6.934615987220e-06 2.124766217064e-05 0.0 
2.124766217064e-05 1.189045199997e-03 0.0 
0.0 0.0 0.0 
8.491870432170e-06 4.842015504781e-05 0.0 
4.842015504781e-05 7.814410217812e-04 0.0 
0.0 0.0 0.0 
-2.613865885714e-05 1.693941501414e-05 0.0 
1.693941501414e-05 8.870034361230e-04 0.0 
0.0 0.0 0.0 
-1.461334533170e-05 3.985686816213e-05 0.0 
3.985686816213e-05 7.005741261807e-04 0.0 
0.0 0.0 0.0 
5.728294294016e-06 3.982721223989e-05 0.0 
3.982721223989e-05 8.259362843732e-04 0.0 
0.0 0.0 0.0 
1.978533595448e-05 5.494438503349e-05 0.0 
5.494438503349e-05 3.532215888842e-04 0.0 
0.0 0.0 0.0 
-2.083780824813e-05 5.906666134068e-06 0.0 
5.906666134068e-06 8.549226758383e-04 0.0 
0.0 0.0 0.0 
6.685426303665e-06 4.391170762612e-05 0.0 
4.391170762612e-05 6.420794242112e-04 0.0 
0.0 0.0 0.0 
2.780542499425e-05 2.159144138892e-05 0.0 
2.159144138892e-05 4.126883124043e-04 0.0 
0.0 0.0 0.0 
-1.734409058940e-05 2.328535361351e-05 0.0 
2.328535361351e-05 1.084336234209e-03 0.0 
0.0 0.0 0.0 
-4.572410934078e-05 -6.420317625693e-07 0.0 
-6.420317625693e-07 3.585878503665e-05 0.0 
0.0 0.0 0.0 
-2.466729470785e-05 8.443303037848e-06 0.0 
8.443303037848e-06 9.079929374443e-04 0.0 
0.0 0.0 0.0 
1.077851416831e-05 5.640378453913e-05 0.0 
5.640378453913e-05 4.690006631407e-04 0.0 
0.0 0.0 0.0 
-1.042393383410e-05 5.142802707478e-05 0.0 
5.142802707478e-05 4.409742636535e-04 0.0 
0.0 0.0 0.0 
2.078959969820e-05 4.091216156803e-05 0.0 
4.091216156803e-05 3.555955804633e-04 0.0 
0.0 0.0 0.0 
-2.215791390603e-05 2.125650799459e-05 0.0 
2.125650799459e-05 9.556159852027e-04 0.0 
0.0 0.0 0.0 
-9.312346203050e-07 -8.888037075329e-06 0.0 
-8.888037075329e-06 1.121028219664e-04 0.0 
0.0 0.0 0.0 
-2.551938340689e-05 2.350232293892e-05 0.0 
2.350232293892e-05 6.301972990821e-04 0.0 
0.0 0.0 0.0 
8.036605124051e-06 4.760681266337e-05 0.0 
4.760681266337e-05 8.441657463303e-04 0.0 
0.0 0.0 0.0 
-2.346595519997e-05 1.859870422302e-05 0.0 
1.859870422302e-05 8.973206613507e-04 0.0 
0.0 0.0 0.0 
-2.088731187466e-05 6.459955431074e-06 0.0 
6.459955431074e-06 9.085646609026e-04 0.0 
0.0 0.0 0.0 
2.738260551771e-05 4.074290364454e-05 0.0 
4.074290364454e-05 1.667300808326e-04 0.0 
0.0 0.0 0.0 
3.018787265630e-05 3.620153653893e-05 0.0 
3.620153653893e-05 4.104229270701e-04 0.0 
0.0 0.0 0.0 
2.731560854485e-05 1.365164975358e-05 0.0 
1.365164975358e-05 3.701605358299e-04 0.0 
0.0 0.0 0.0 
-2.737368855399e-05 1.813533458381e-05 0.0 
1.813533458381e-05 5.745912183446e-04 0.0 
0.0 0.0 0.0 
-2.053966128612e-05 1.251797757492e-05 0.0 
1.251797757492e-05 1.060224688415e-03 0.0 
0.0 0.0 0.0 
-2.779477316250e-05 2.095879122849e-05 0.0 
2.095879122849e-05 6.305907208981e-04 0.0 
0.0 0.0 0.0 
9.703770765590e-06 5.238342690413e-05 0.0 
5.238342690413e-05 5.941293108489e-04 0.0 
0.0 0.0 0.0 
3.625686590070e-06 5.426065960630e-05 0.0 
5.426065960630e-05 5.792929461763e-04 0.0 
0.0 0.0 0.0 
1.878705715863e-05 3.521506760930e-05 0.0 
3.521506760930e-05 2.223725179671e-04 0.0 
0.0 0.0 0.0 
-1.094533158441e-05 4.744831106417e-05 0.0 
4.744831106417e-05 7.147383029251e-04 0.0 
0.0 0.0 0.0 
-1.706612697783e-05 5.288422950567e-05 0.0 
5.288422950567e-05 3.371437884090e-04 0.0 
0.0 0.0 0.0 
-3.609739262167e-06 2.475663578802e-05 0.0 
2.475663578802e-05 1.363882896783e-03 0.0 
0.0 0.0 0.0 
-5.601275356537e-06 2.906414986860e-05 0.0 
2.906414986860e-05 1.357412397296e-03 0.0 
0.0 0.0 0.0 
-2.114183420221e-05 3.546125829573e-05 0.0 
3.546125829573e-05 8.188216417655e-04 0.0 
0.0 0.0 0.0 
1.150817313067e-05 5.846657217764e-05 0.0 
5.846657217764e-05 4.059577782494e-04 0.0 
0.0 0.0 0.0 
-2.258194424232e-06 5.536688466028e-05 0.0 
5.536688466028e-05 3.920279978795e-04 0.0 
0.0 0.0 0.0 
-2.321105624192e-05 2.634557290542e-05 0.0 
2.634557290542e-05 9.085485260991e-04 0.0 
0.0 0.0 0.0 
7.246866984500e-06 5.270818608756e-05 0.0 
5.270818608756e-05 3.982092295765e-04 0.0 
0.0 0.0 0.0 
3.140869579044e-05 2.870797099467e-05 0.0 
2.870797099467e-05 3.677986223494e-04 0.0 
0.0 0.0 0.0 
-2.476944036922e-05 2.499615213181e-05 0.0 
2.499615213181e-05 8.156207922583e-04 0.0 
0.0 0.0 0.0 
-5.746862994704e-06 8.039863194540e-06 0.0 
8.039863194540e-06 1.321147802323e-03 0.0 
0.0 0.0 0.0 
3.458376190757e-06 5.642684416293e-05 0.0 
5.642684416293e-05 5.180089012398e-04 0.0 
0.0 0.0 0.0 
5.208853939287e-07 4.804444760620e-05 0.0 
4.804444760620e-05 9.284984426576e-04 0.0 
0.0 0.0 0.0 
-8.350844035721e-06 5.923479031886e-05 0.0 
5.923479031886e-05 3.375657843989e-04 0.0 
0.0 0.0 0.0 
4.633356888384e-06 4.628635127820e-05 0.0 
4.628635127820e-05 1.269697305022e-03 0.0 
0.0 0.0 0.0 
2.966662249193e-06 6.085206852651e-05 0.0 
6.085206852651e-05 3.969218476474e-04 0.0 
0.0 0.0 0.0 
-2.360796263545e-05 2.929260309321e-05 0.0 
2.929260309321e-05 8.364286577540e-04 0.0 
0.0 0.0 0.0 
2.740791459921e-05 4.555428998076e-05 0.0 
4.555428998076e-05 2.344275711970e-04 0.0 
0.0 0.0 0.0 
2.013687008273e-05 4.010422989755e-05 0.0 
4.010422989755e-05 8.610152909738e-04 0.0 
0.0 0.0 0.0 
3.813206171488e-06 5.221734796427e-05 0.0 
5.221734796427e-05 6.407741803924e-04 0.0 
0.0 0.0 0.0 
3.154902636315e-05 2.448448036148e-05 0.0 
2.448448036148e-05 3.928311419847e-04 0.0 
0.0 0.0 0.0 
-2.654850511208e-05 1.332183387736e-05 0.0 
1.332183387736e-05 8.639793281202e-04 0.0 
0.0 0.0 0.0 
-4.225965736682e-06 3.774436601441e-05 0.0 
3.774436601441e-05 1.352575623269e-03 0.0 
0.0 0.0 0.0 
1.014265713994e-05 5.427406186902e-05 0.0 
5.427406186902e-05 5.317044854487e-04 0.0 
0.0 0.0 0.0 
9.463070554050e-06 3.849815918452e-05 0.0 
3.849815918452e-05 8.454408786343e-04 0.0 
0.0 0.0 0.0 
-4.147327529180e-06 5.867865273603e-05 0.0 
5.867865273603e-05 3.376221414160e-04 0.0 
0.0 0.0 0.0 
-1.492298192041e-05 1.201837020322e-05 0.0 
1.201837020322e-05 1.020429415439e-03 0.0 
0.0 0.0 0.0 
2.250843828500e-05 3.457528148271e-05 0.0 
3.457528148271e-05 9.327963594525e-04 0.0 
0.0 0.0 0.0 
-2.279944863870e-05 3.897674838844e-05 0.0 
3.897674838844e-05 4.751539325911e-04 0.0 
0.0 0.0 0.0 
-1.678080175294e-05 1.892773432669e-06 0.0 
1.892773432669e-06 9.938117168418e-04 0.0 
0.0 0.0 0.0 
-3.703383592235e-06 4.640723181181e-05 0.0 
4.640723181181e-05 1.338945484182e-03 0.0 
0.0 0.0 0.0 
1.935683417420e-05 3.558405640214e-05 0.0 
3.558405640214e-05 9.997373935091e-04 0.0 
0.0 0.0 0.0 
-4.658276045899e-06 3.495979858290e-05 0.0 
3.495979858290e-05 1.354819775340e-03 0.0 
0.0 0.0 0.0 
-1.763696936830e-05 3.061283880078e-06 0.0 
3.061283880078e-06 9.869597735179e-04 0.0 
0.0 0.0 0.0 
-1.990162870202e-05 2.266255485350e-05 0.0 
2.266255485350e-05 1.096506533657e-03 0.0 
0.0 0.0 0.0 
-2.491498822921e-05 3.598404075607e-05 0.0 
3.598404075607e-05 4.213885507003e-04 0.0 
0.0 0.0 0.0 
-2.704859732094e-05 1.088955045722e-05 0.0 
1.088955045722e-05 8.062257199335e-04 0.0 
0.0 0.0 0.0 
-2.386988843350e-05 2.272776326977e-05 0.0 
2.272776326977e-05 8.861662374582e-04 0.0 
0.0 0.0 0.0 
-2.548490775489e-05 1.569341457304e-05 0.0 
1.569341457304e-05 9.219073576345e-04 0.0 
0.0 0.0 0.0 
-2.349203865948e-05 2.937656860891e-05 0.0 
2.937656860891e-05 7.626198303228e-04 0.0 
0.0 0.0 0.0 
-3.104062544779e-06 5.008153719115e-05 0.0 
5.008153719115e-05 1.328900338093e-03 0.0 
0.0 0.0 0.0 
-1.871720244395e-05 1.257097929203e-05 0.0 
1.257097929203e-05 9.507276256691e-04 0.0 
0.0 0.0 0.0 
-2.508136334578e-05 6.605924431185e-06 0.0 
6.605924431185e-06 8.500880568818e-04 0.0 
0.0 0.0 0.0 
6.890894175493e-06 4.569409000292e-05 0.0 
4.569409000292e-05 5.805719305019e-04 0.0 
0.0 0.0 0.0 
1.596855182862e-05 1.617012521279e-06 0.0 
1.617012521279e-06 2.567133681928e-04 0.0 
0.0 0.0 0.0 
-2.642360178928e-05 7.440824800407e-06 0.0 
7.440824800407e-06 7.818655270424e-04 0.0 
0.0 0.0 0.0 
-1.736297876620e-05 4.669661854026e-05 0.0 
4.669661854026e-05 4.861162032213e-04 0.0 
0.0 0.0 0.0 
-1.275881929752e-05 -5.925474292331e-07 0.0 
-5.925474292331e-07 8.518490942684e-04 0.0 
0.0 0.0 0.0 
2.774699298635e-05 1.058818009941e-05 0.0 
1.058818009941e-05 3.949147439617e-04 0.0 
0.0 0.0 0.0 
7.055979538428e-06 4.776983270914e-05 0.0 
4.776983270914e-05 5.192258741262e-04 0.0 
0.0 0.0 0.0 
-1.558050704387e-05 2.324648033613e-05 0.0 
2.324648033613e-05 1.119801492261e-03 0.0 
0.0 0.0 0.0 
-1.648046562286e-05 4.579680468118e-05 0.0 
4.579680468118e-05 4.862296361319e-04 0.0 
0.0 0.0 0.0 
-2.478674044404e-05 2.008992657266e-05 0.0 
2.008992657266e-05 8.287181127378e-04 0.0 
0.0 0.0 0.0 
1.148772000037e-05 4.607517807795e-05 0.0 
4.607517807795e-05 8.633688206916e-04 0.0 
0.0 0.0 0.0 
3.030602882004e-05 2.453131629333e-05 0.0 
2.453131629333e-05 7.213716318490e-04 0.0 
0.0 0.0 0.0 
1.807947125343e-10 5.399014261912e-05 0.0 
5.399014261912e-05 1.312318498800e-03 0.0 
0.0 0.0 0.0 
-2.738716338668e-05 9.696329305574e-06 0.0 
9.696329305574e-06 7.161012486008e-04 0.0 
0.0 0.0 0.0 
2.821925107099e-05 4.192262245160e-05 0.0 
4.192262245160e-05 3.883913176388e-04 0.0 
0.0 0.0 0.0 
2.805557746721e-05 2.993411429461e-06 0.0 
2.993411429461e-06 4.934853156662e-04 0.0 
0.0 0.0 0.0 
-2.733318057102e-05 2.574465355423e-05 0.0 
2.574465355423e-05 4.961492834579e-04 0.0 
0.0 0.0 0.0 
-2.123080501915e-05 3.887932692830e-05 0.0 
3.887932692830e-05 4.751599040782e-04 0.0 
0.0 0.0 0.0 
-1.642519383593e-05 2.106191132450e-05 0.0 
2.106191132450e-05 1.170296484974e-03 0.0 
0.0 0.0 0.0 
-2.540870333345e-05 2.213494222602e-05 0.0 
2.213494222602e-05 8.734470704042e-04 0.0 
0.0 0.0 0.0 
-2.796548464945e-05 1.235065962688e-05 0.0 
1.235065962688e-05 6.447904956937e-04 0.0 
0.0 0.0 0.0 
-2.510981593640e-05 1.737366098124e-05 0.0 
1.737366098124e-05 7.715897091887e-04 0.0 
0.0 0.0 0.0 
2.317666082163e-06 5.274037188187e-05 0.0 
5.274037188187e-05 1.285052441303e-03 0.0 
0.0 0.0 0.0 
2.691327238846e-06 4.584769577208e-05 0.0 
4.584769577208e-05 1.223998342596e-03 0.0 
0.0 0.0 0.0 
-1.358224979031e-05 2.873300056973e-05 0.0 
2.873300056973e-05 1.168593670808e-03 0.0 
0.0 0.0 0.0 
-1.871171116885e-05 1.255067300034e-05 0.0 
1.255067300034e-05 1.095726831454e-03 0.0 
0.0 0.0 0.0 
2.878017203889e-05 1.546845149077e-05 0.0 
1.546845149077e-05 6.978468308148e-04 0.0 
0.0 0.0 0.0 
-2.652396367997e-05 2.637065153694e-05 0.0 
2.637065153694e-05 6.494188824657e-04 0.0 
0.0 0.0 0.0 
1.468605860189e-05 4.745393688124e-05 0.0 
4.745393688124e-05 4.076813158074e-04 0.0 
0.0 0.0 0.0 
1.401293028147e-05 4.593913192904e-05 0.0 
4.593913192904e-05 4.705829559568e-04 0.0 
0.0 0.0 0.0 
-2.519358179409e-05 2.426693300707e-05 0.0 
2.426693300707e-05 8.371783334002e-04 0.0 
0.0 0.0 0.0 
1.868721791443e-05 3.234239501241e-05 0.0 
3.234239501241e-05 8.414411289577e-04 0.0 
0.0 0.0 0.0 
2.738732108609e-05 -1.359552164045e-07 0.0 
-1.359552164045e-07 5.967553497830e-04 0.0 
0.0 0.0 0.0 
-1.307974795284e-05 2.554704910870e-05 0.0 
2.554704910870e-05 1.180285559215e-03 0.0 
0.0 0.0 0.0 
2.660156641188e-05 2.690313053197e-05 0.0 
2.690313053197e-05 3.907369917866e-04 0.0 
0.0 0.0 0.0 
-2.182855271704e-05 3.249523992562e-05 0.0 
3.249523992562e-05 7.244508047390e-04 0.0 
0.0 0.0 0.0 
-2.440472144649e-05 2.371477225503e-05 0.0 
2.371477225503e-05 8.508946138501e-04 0.0 
0.0 0.0 0.0 
-2.359863588652e-05 3.121739864433e-05 0.0 
3.121739864433e-05 6.678030294822e-04 0.0 
0.0 0.0 0.0 
-4.206261057238e-06 3.222746085472e-05 0.0 
3.222746085472e-05 1.356508907161e-03 0.0 
0.0 0.0 0.0 
-4.998824705504e-06 2.841449159616e-05 0.0 
2.841449159616e-05 1.359738127976e-03 0.0 
0.0 0.0 0.0 
-8.211578757855e-06 2.126905220001e-05 0.0 
2.126905220001e-05 1.296615826507e-03 0.0 
0.0 0.0 0.0 
2.751473050422e-05 1.719974786430e-05 0.0 
1.719974786430e-05 7.624458081144e-04 0.0 
0.0 0.0 0.0 
-1.252483857139e-05 1.970658462577e-05 0.0 
1.970658462577e-05 1.163366788649e-03 0.0 
0.0 0.0 0.0 
-1.892895954347e-05 4.440080154639e-05 0.0 
4.440080154639e-05 4.332036966139e-04 0.0 
0.0 0.0 0.0 
1.326972023552e-05 4.434638031824e-05 0.0 
4.434638031824e-05 5.332100821698e-04 0.0 
0.0 0.0 0.0 
2.118080651514e-05 3.977412016545e-05 0.0 
3.977412016545e-05 2.900747280963e-04 0.0 
0.0 0.0 0.0 
-2.812170507560e-05 1.776977562060e-05 0.0 
1.776977562060e-05 6.664822458686e-04 0.0 
0.0 0.0 0.0 
-1.841693387739e-05 3.657808276407e-06 0.0 
3.657808276407e-06 8.555041228711e-04 0.0 
0.0 0.0 0.0 
-1.607396799186e-05 1.199852123024e-05 0.0 
1.199852123024e-05 9.861127011161e-04 0.0 
0.0 0.0 0.0 
6.797513881107e-06 4.440985319673e-05 0.0 
4.440985319673e-05 1.214350024027e-03 0.0 
0.0 0.0 0.0 
-1.395149487649e-05 3.267828411711e-05 0.0 
3.267828411711e-05 1.154538190739e-03 0.0 
0.0 0.0 0.0 
-2.221816895265e-05 1.818524838347e-05 0.0 
1.818524838347e-05 9.315342245093e-04 0.0 
0.0 0.0 0.0 
-2.258497547170e-05 2.527420873722e-05 0.0 
2.527420873722e-05 9.440454859551e-04 0.0 
0.0 0.0 0.0 
2.641889178467e-05 4.774530262946e-05 0.0 
4.774530262946e-05 3.021747279706e-04 0.0 
0.0 0.0 0.0 
-2.680074187245e-06 -4.102210037857e-06 0.0 
-4.102210037857e-06 1.152254948902e-04 0.0 
0.0 0.0 0.0 
-7.006276855459e-06 5.032768605752e-05 0.0 
5.032768605752e-05 6.710223871804e-04 0.0 
0.0 0.0 0.0 
-2.011735276874e-05 3.322897779972e-05 0.0 
3.322897779972e-05 7.810720678370e-04 0.0 
0.0 0.0 0.0 
-9.312611854551e-06 4.141253547293e-05 0.0 
4.141253547293e-05 7.155920016007e-04 0.0 
0.0 0.0 0.0 
-9.456741346781e-06 5.380814566032e-05 0.0 
5.380814566032e-05 2.314958588527e-04 0.0 
0.0 0.0 0.0 
-1.224865773730e-05 2.549936195769e-06 0.0 
2.549936195769e-06 9.060683912561e-04 0.0 
0.0 0.0 0.0 
1.167208896136e-05 -9.537533881316e-06 0.0 
-9.537533881316e-06 2.345511151947e-04 0.0 
0.0 0.0 0.0 
-5.103071692547e-06 5.778555757937e-05 0.0 
5.778555757937e-05 4.482011890041e-04 0.0 
0.0 0.0 0.0 
0.0 4.511490728498e-05 0.0 
4.511490728498e-05 1.272687989135e-03 0.0 
0.0 0.0 0.0 
4.661509001691e-06 3.902698733394e-05 0.0 
3.902698733394e-05 9.512024619862e-04 0.0 
0.0 0.0 0.0 
-2.339656516759e-05 1.302244532832e-05 0.0 
1.302244532832e-05 8.492974784966e-04 0.0 
0.0 0.0 0.0 
6.009140527174e-06 2.627266984841e-06 0.0 
2.627266984841e-06 1.650216898670e-04 0.0 
0.0 0.0 0.0 
-2.265002900559e-05 3.388456581638e-05 0.0 
3.388456581638e-05 7.619973209210e-04 0.0 
0.0 0.0 0.0 
-4.778278983597e-06 4.352618163230e-05 0.0 
4.352618163230e-05 6.719684725798e-04 0.0 
0.0 0.0 0.0 
-2.461012949639e-05 1.462743272145e-05 0.0 
1.462743272145e-05 9.564677036391e-04 0.0 
0.0 0.0 0.0 
-4.029181078669e-06 4.182402226997e-05 0.0 
4.182402226997e-05 1.348340169054e-03 0.0 
0.0 0.0 0.0 
-2.455478574748e-05 1.665913542745e-05 0.0 
1.665913542745e-05 8.055668394364e-04 0.0 
0.0 0.0 0.0 
-2.528235667354e-05 2.043832275005e-05 0.0 
2.043832275005e-05 9.093161162883e-04 0.0 
0.0 0.0 0.0 
2.952962693170e-05 1.038324795377e-05 0.0 
1.038324795377e-05 5.951691324588e-04 0.0 
0.0 0.0 0.0 
-1.378775721494e-05 2.280092264829e-05 0.0 
2.280092264829e-05 1.154970343252e-03 0.0 
0.0 0.0 0.0 
2.876365335625e-05 2.615260655314e-05 0.0 
2.615260655314e-05 7.865354716072e-04 0.0 
0.0 0.0 0.0 
-3.988438079472e-06 4.350615053502e-05 0.0 
4.350615053502e-05 1.343656839943e-03 0.0 
0.0 0.0 0.0 
0.0 3.278657740775e-05 0.0 
3.278657740775e-05 1.355799382207e-03 0.0 
0.0 0.0 0.0 
0.0 2.250639853210e-05 0.0 
2.250639853210e-05 1.365285603252e-03 0.0 
0.0 0.0 0.0 
0.0 2.732549170064e-05 0.0 
2.732549170064e-05 1.357639880456e-03 0.0 
0.0 0.0 0.0 
-2.165003884069e-05 2.444221964374e-05 0.0 
2.444221964374e-05 9.792059129439e-04 0.0 
0.0 0.0 0.0 
-1.634037143872e-05 1.499414552952e-05 0.0 
1.499414552952e-05 1.155999125060e-03 0.0 
0.0 0.0 0.0 
-1.197812176279e-05 3.224559477559e-05 0.0 
3.224559477559e-05 1.193294905808e-03 0.0 
0.0 0.0 0.0 
-2.271679744570e-05 3.533894791374e-05 0.0 
3.533894791374e-05 6.672973474393e-04 0.0 
0.0 0.0 0.0 
-2.471482116229e-05 2.966850990227e-05 0.0 
2.966850990227e-05 6.489961138847e-04 0.0 
0.0 0.0 0.0 
2.626827123886e-05 -2.214212014683e-06 0.0 
-2.214212014683e-06 5.602435109970e-04 0.0 
0.0 0.0 0.0 
-1.562870238736e-05 1.749836641513e-05 0.0 
1.749836641513e-05 1.181490550863e-03 0.0 
0.0 0.0 0.0 
-3.399210999899e-06 4.833797563390e-05 0.0 
4.833797563390e-05 1.333677976003e-03 0.0 
0.0 0.0 0.0 
-1.179630817283e-05 2.217822235781e-05 0.0 
2.217822235781e-05 1.189063911060e-03 0.0 
0.0 0.0 0.0 
5.213093852818e-06 3.914351752950e-05 0.0 
3.914351752950e-05 8.883459586044e-04 0.0 
0.0 0.0 0.0 
-1.420086522175e-05 1.447242638184e-05 0.0 
1.447242638184e-05 1.190126769608e-03 0.0 
0.0 0.0 0.0 
-1.333143195048e-05 3.563197227905e-05 0.0 
3.563197227905e-05 1.012177979017e-03 0.0 
0.0 0.0 0.0 
-1.817382422897e-05 4.084517887921e-05 0.0 
4.084517887921e-05 7.411319763220e-04 0.0 
0.0 0.0 0.0 
-2.567829817679e-05 2.120011949854e-05 0.0 
2.120011949854e-05 6.661163073238e-04 0.0 
0.0 0.0 0.0 
2.650138860361e-06 6.337064224175e-05 0.0 
6.337064224175e-05 3.369712729011e-04 0.0 
0.0 0.0 0.0 
-3.473732500203e-06 1.690550315091e-05 0.0 
1.690550315091e-05 1.318261969459e-03 0.0 
0.0 0.0 0.0 
-2.099982868364e-05 3.889074444705e-05 0.0 
3.889074444705e-05 6.285468191023e-04 0.0 
0.0 0.0 0.0 
-4.963750296905e-06 4.221522291831e-05 0.0 
4.221522291831e-05 1.231268042396e-03 0.0 
0.0 0.0 0.0 
2.832226599936e-05 8.154756729424e-06 0.0 
8.154756729424e-06 5.586774240114e-04 0.0 
0.0 0.0 0.0 
2.567804026654e-05 4.329527892623e-06 0.0 
4.329527892623e-06 3.553640225418e-04 0.0 
0.0 0.0 0.0 
4.870758774311e-06 4.226053654234e-05 0.0 
4.226053654234e-05 1.212283937379e-03 0.0 
0.0 0.0 0.0 
-1.135054836254e-05 5.278732128180e-05 0.0 
5.278732128180e-05 4.957326358468e-04 0.0 
0.0 0.0 0.0 
0.0 3.550247455403e-05 0.0 
3.550247455403e-05 1.353731146046e-03 0.0 
0.0 0.0 0.0 
-5.486402010146e-06 2.358250697300e-05 0.0 
2.358250697300e-05 1.311871754265e-03 0.0 
0.0 0.0 0.0 
-2.213883650082e-05 3.137416335391e-05 0.0 
3.137416335391e-05 8.936404065425e-04 0.0 
0.0 0.0 0.0 
-2.648112536030e-06 -4.461867703377e-06 0.0 
-4.461867703377e-06 6.071518860629e-05 0.0 
0.0 0.0 0.0 
0.0 4.067432937449e-05 0.0 
4.067432937449e-05 1.345599452511e-03 0.0 
0.0 0.0 0.0 
3.035680948393e-06 4.478033923705e-05 0.0 
4.478033923705e-05 1.224459789218e-03 0.0 
0.0 0.0 0.0 
3.006105184844e-05 1.803527601834e-05 0.0 
1.803527601834e-05 3.532738311982e-04 0.0 
0.0 0.0 0.0 
8.550320567347e-06 3.820881501979e-05 0.0 
3.820881501979e-05 9.082979191364e-04 0.0 
0.0 0.0 0.0 
-4.137169065110e-07 5.438650662540e-05 0.0 
5.438650662540e-05 1.305475244032e-03 0.0 
0.0 0.0 0.0 
-1.002782601200e-05 -1.853061157933e-06 0.0 
-1.853061157933e-06 2.216671663868e-05 0.0 
0.0 0.0 0.0 
-1.972345613477e-05 3.990312572733e-05 0.0 
3.990312572733e-05 6.849673291440e-04 0.0 
0.0 0.0 0.0 
-2.204133710948e-05 2.989444369580e-05 0.0 
2.989444369580e-05 9.302326823146e-04 0.0 
0.0 0.0 0.0 
-2.184357617196e-05 3.328195360006e-05 0.0 
3.328195360006e-05 8.565172353241e-04 0.0 
0.0 0.0 0.0 
-2.357860904201e-05 2.770988849396e-05 0.0 
2.770988849396e-05 8.726567412576e-04 0.0 
0.0 0.0 0.0 
-6.429008250319e-06 5.906737348249e-05 0.0 
5.906737348249e-05 3.914946218908e-04 0.0 
0.0 0.0 0.0 
0.0 4.520599395401e-05 0.0 
4.520599395401e-05 1.336207318587e-03 0.0 
0.0 0.0 0.0 
1.253049196537e-05 4.278156335744e-05 0.0 
4.278156335744e-05 5.956216710645e-04 0.0 
0.0 0.0 0.0 
1.672621681781e-05 1.723163722871e-05 0.0 
1.723163722871e-05 1.707378835003e-04 0.0 
0.0 0.0 0.0 
8.991928294622e-06 2.278202508008e-05 0.0 
2.278202508008e-05 1.190149958914e-03 0.0 
0.0 0.0 0.0 
-1.006745031995e-05 -3.922127625735e-06 0.0 
-3.922127625735e-06 6.269060156350e-05 0.0 
0.0 0.0 0.0 
-2.543156497292e-05 1.835860744120e-05 0.0 
1.835860744120e-05 7.373162657944e-04 0.0 
0.0 0.0 0.0 
1.603277284645e-05 1.392159162259e-06 0.0 
1.392159162259e-06 1.633259917484e-04 0.0 
0.0 0.0 0.0 
-2.383492233338e-05 1.343043731352e-05 0.0 
1.343043731352e-05 7.810973454001e-04 0.0 
0.0 0.0 0.0 
3.157739840942e-06 5.020187902200e-05 0.0 
5.020187902200e-05 1.278989416719e-03 0.0 
0.0 0.0 0.0 
0.0 4.913197567246e-05 0.0 
4.913197567246e-05 1.326389392838e-03 0.0 
0.0 0.0 0.0 
-2.320526764166e-05 2.193087425040e-05 0.0 
2.193087425040e-05 9.210304156511e-04 0.0 
0.0 0.0 0.0 
5.545373295890e-06 -4.436508277616e-06 0.0 
-4.436508277616e-06 1.131007514428e-04 0.0 
0.0 0.0 0.0 
1.973931478205e-05 2.457477447470e-05 0.0 
2.457477447470e-05 1.260541049251e-04 0.0 
0.0 0.0 0.0 
5.986835118987e-06 6.544438410613e-07 0.0 
6.544438410613e-07 1.679170637310e-04 0.0 
0.0 0.0 0.0 
1.742660331772e-05 1.774321220384e-05 0.0 
1.774321220384e-05 1.037195925706e-03 0.0 
0.0 0.0 0.0 
-1.962584550141e-05 5.333205743153e-06 0.0 
5.333205743153e-06 8.539259752718e-04 0.0 
0.0 0.0 0.0 
-2.403279870988e-05 5.461109423268e-06 0.0 
5.461109423268e-06 8.819514117269e-04 0.0 
0.0 0.0 0.0 
0.0 5.139628959466e-05 0.0 
5.139628959466e-05 1.315596132687e-03 0.0 
0.0 0.0 0.0 
-1.942766116747e-05 2.870743033259e-06 0.0 
2.870743033259e-06 8.549230092878e-04 0.0 
0.0 0.0 0.0 
-4.036884362235e-06 2.261015807769e-05 0.0 
2.261015807769e-05 1.366627927735e-03 0.0 
0.0 0.0 0.0 
-9.652421765871e-06 4.456381759647e-05 0.0 
4.456381759647e-05 1.030386742138e-03 0.0 
0.0 0.0 0.0 
-1.599250130024e-05 1.004313034480e-05 0.0 
1.004313034480e-05 9.576036700245e-04 0.0 
0.0 0.0 0.0 
-2.412357405746e-05 3.368829700939e-05 0.0 
3.368829700939e-05 5.131171040005e-04 0.0 
0.0 0.0 0.0 
7.541314399839e-06 4.716845541827e-05 0.0 
4.716845541827e-05 9.070519432612e-04 0.0 
0.0 0.0 0.0 
1.652633205018e-05 4.976510614835e-05 0.0 
4.976510614835e-05 2.821626194411e-04 0.0 
0.0 0.0 0.0 
0.0 5.165352506261e-05 0.0 
5.165352506261e-05 1.302181563115e-03 0.0 
0.0 0.0 0.0 
0.0 3.049467057273e-05 0.0 
3.049467057273e-05 1.357168843801e-03 0.0 
0.0 0.0 0.0 
0.0 2.440452024027e-05 0.0 
2.440452024027e-05 1.362905672467e-03 0.0 
0.0 0.0 0.0 
2.727239207445e-05 1.541738669041e-05 0.0 
1.541738669041e-05 7.881362649991e-04 0.0 
0.0 0.0 0.0 
2.492760524397e-05 -3.872794623863e-06 0.0 
-3.872794623863e-06 5.239882225727e-04 0.0 
0.0 0.0 0.0 
-1.777356923860e-05 3.643842649833e-05 0.0 
3.643842649833e-05 7.418050418786e-04 0.0 
0.0 0.0 0.0 
2.828183389947e-05 2.429577677819e-05 0.0 
2.429577677819e-05 8.120782096770e-04 0.0 
0.0 0.0 0.0 
0.0 5.047701073795e-05 0.0 
5.047701073795e-05 1.289305976634e-03 0.0 
0.0 0.0 0.0 
-1.165845771700e-06 5.251123951520e-05 0.0 
5.251123951520e-05 4.489656463220e-04 0.0 
0.0 0.0 0.0 
3.127501842015e-05 3.125958577547e-05 0.0 
3.125958577547e-05 4.336348820069e-04 0.0 
0.0 0.0 0.0 
3.175938158551e-05 2.699211427488e-05 0.0 
2.699211427488e-05 4.574180008947e-04 0.0 
0.0 0.0 0.0 
-1.476876580131e-05 1.005346862524e-05 0.0 
1.005346862524e-05 9.928785250655e-04 0.0 
0.0 0.0 0.0 
3.306641809919e-06 4.267857602473e-05 0.0 
4.267857602473e-05 1.264989482521e-03 0.0 
0.0 0.0 0.0 
-3.641740195626e-06 -3.211123245945e-06 0.0 
-3.211123245945e-06 1.156464295324e-04 0.0 
0.0 0.0 0.0 
0.0 4.714789637477e-05 0.0 
4.714789637477e-05 1.276518283675e-03 0.0 
0.0 0.0 0.0 
3.156830562667e-05 2.111028214786e-05 0.0 
2.111028214786e-05 4.174294741868e-04 0.0 
0.0 0.0 0.0 
0.0 3.818513465420e-05 0.0 
3.818513465420e-05 1.351364723756e-03 0.0 
0.0 0.0 0.0 
-1.530913172731e-05 2.452041045436e-05 0.0 
2.452041045436e-05 1.194637588348e-03 0.0 
0.0 0.0 0.0 
-1.904082772575e-05 -1.710412739699e-06 0.0 
-1.710412739699e-06 2.539524370437e-05 0.0 
0.0 0.0 0.0 
-1.576541528403e-05 4.407150121388e-05 0.0 
4.407150121388e-05 6.999423059983e-04 0.0 
0.0 0.0 0.0 
-1.269360475287e-05 1.108347462300e-05 0.0 
1.108347462300e-05 1.198694712394e-03 0.0 
0.0 0.0 0.0 
0.0 4.300427572254e-05 0.0 
4.300427572254e-05 1.341682429575e-03 0.0 
0.0 0.0 0.0 
-2.403297328601e-05 1.790527958979e-05 0.0 
1.790527958979e-05 9.800762969110e-04 0.0 
0.0 0.0 0.0 
-6.644509927489e-06 4.647583435736e-05 0.0 
4.647583435736e-05 1.049769405703e-03 0.0 
0.0 0.0 0.0 
2.242944969755e-06 6.527607567520e-05 0.0 
6.527607567520e-05 2.781649649175e-04 0.0 
0.0 0.0 0.0 
7.236992988879e-06 4.247162612189e-05 0.0 
4.247162612189e-05 1.167020940919e-03 0.0 
0.0 0.0 0.0 
3.142567358005e-05 1.830436505556e-05 0.0 
1.830436505556e-05 4.426690667194e-04 0.0 
0.0 0.0 0.0 
2.905292702415e-05 1.400518511784e-05 0.0 
1.400518511784e-05 4.591643606751e-04 0.0 
0.0 0.0 0.0 
-1.509129162003e-05 -3.638493966629e-06 0.0 
-3.638493966629e-06 6.788808164959e-05 0.0 
0.0 0.0 0.0 
0.0 4.723294247767e-05 0.0 
4.723294247767e-05 1.331159425102e-03 0.0 
0.0 0.0 0.0 
1.535961709775e-05 4.881800837434e-05 0.0 
4.881800837434e-05 3.447430883989e-04 0.0 
0.0 0.0 0.0 
1.568164362586e-05 2.899785261416e-05 0.0 
2.899785261416e-05 1.043134540084e-03 0.0 
0.0 0.0 0.0 
-1.705790410456e-05 -7.751391885305e-07 0.0 
-7.751391885305e-07 9.268051765490e-04 0.0 
0.0 0.0 0.0 
2.334835695916e-05 -2.703918058483e-06 0.0 
-2.703918058483e-06 3.697010563219e-04 0.0 
0.0 0.0 0.0 
2.855287985870e-05 1.730964757882e-05 0.0 
1.730964757882e-05 4.356610070362e-04 0.0 
0.0 0.0 0.0 
-2.480641896396e-05 1.911471937736e-05 0.0 
1.911471937736e-05 9.448885747851e-04 0.0 
0.0 0.0 0.0 
0.0 5.139617951461e-05 0.0 
5.139617951461e-05 1.309278738498e-03 0.0 
0.0 0.0 0.0 
2.653079099857e-05 6.214646962902e-06 0.0 
6.214646962902e-06 5.500929448770e-04 0.0 
0.0 0.0 0.0 
2.354535083349e-05 2.055238769350e-05 0.0 
2.055238769350e-05 8.934482532117e-04 0.0 
0.0 0.0 0.0 
-1.827905725571e-05 3.909024691469e-05 0.0 
3.909024691469e-05 8.373758065972e-04 0.0 
0.0 0.0 0.0 
2.314337363751e-05 2.690010272652e-05 0.0 
2.690010272652e-05 8.200849832070e-04 0.0 
0.0 0.0 0.0 
2.783998138245e-05 2.412886177620e-05 0.0 
2.412886177620e-05 4.777783554391e-04 0.0 
0.0 0.0 0.0 
2.577743431065e-05 1.889286347177e-05 0.0 
1.889286347177e-05 8.276057900085e-04 0.0 
0.0 0.0 0.0 
-2.180472417812e-05 3.042445378661e-05 0.0 
3.042445378661e-05 8.194970619166e-04 0.0 
0.0 0.0 0.0 
-1.727918435657e-05 3.168309713048e-05 0.0 
3.168309713048e-05 1.030893144934e-03 0.0 
0.0 0.0 0.0 
7.016915472446e-06 4.715895522077e-05 0.0 
4.715895522077e-05 9.699858457424e-04 0.0 
0.0 0.0 0.0 
-1.654854688227e-05 4.158955883383e-05 0.0 
4.158955883383e-05 7.979245477234e-04 0.0 
0.0 0.0 0.0 
2.998372751417e-05 1.102588873051e-05 0.0 
1.102588873051e-05 5.681945695239e-04 0.0 
0.0 0.0 0.0 
-8.476094435550e-06 4.946761233312e-05 0.0 
4.946761233312e-05 4.961954245994e-04 0.0 
0.0 0.0 0.0 
2.682574617707e-05 6.310484579964e-06 0.0 
6.310484579964e-06 5.224494179885e-04 0.0 
0.0 0.0 0.0 
-1.020629282311e-05 3.760751306224e-05 0.0 
3.760751306224e-05 1.031613124843e-03 0.0 
0.0 0.0 0.0 
1.233781035070e-05 4.651944553276e-05 0.0 
4.651944553276e-05 8.000935582437e-04 0.0 
0.0 0.0 0.0 
3.476928901902e-06 4.777779969467e-05 0.0 
4.777779969467e-05 1.274619533790e-03 0.0 
0.0 0.0 0.0 
-1.184262698739e-05 1.370331028895e-05 0.0 
1.370331028895e-05 1.224074719313e-03 0.0 
0.0 0.0 0.0 
2.365985799146e-05 5.778304626525e-06 0.0 
5.778304626525e-06 3.318516838047e-04 0.0 
0.0 0.0 0.0 
0.0 4.902360441796e-05 0.0 
4.902360441796e-05 1.281612849098e-03 0.0 
0.0 0.0 0.0 
7.251539274389e-06 4.661605322771e-05 0.0 
4.661605322771e-05 1.220919449469e-03 0.0 
0.0 0.0 0.0 
-5.952308597124e-06 4.899439467439e-05 0.0 
4.899439467439e-05 7.305614261013e-04 0.0 
0.0 0.0 0.0 
-3.667252734152e-06 -4.490953269879e-06 0.0 
-4.490953269879e-06 6.267644010638e-05 0.0 
0.0 0.0 0.0 
5.797425991716e-06 4.056560023195e-05 0.0 
4.056560023195e-05 1.260898675145e-03 0.0 
0.0 0.0 0.0 
-1.346119388168e-05 1.745139226001e-05 0.0 
1.745139226001e-05 1.215088229386e-03 0.0 
0.0 0.0 0.0 
2.996976395342e-05 1.555974627139e-05 0.0 
1.555974627139e-05 3.789661078439e-04 0.0 
0.0 0.0 0.0 
0.0 4.234461097102e-05 0.0 
4.234461097102e-05 1.266620588901e-03 0.0 
0.0 0.0 0.0 
2.539678586211e-05 1.723838185420e-05 0.0 
1.723838185420e-05 8.535575006863e-04 0.0 
0.0 0.0 0.0 
-2.535643596646e-05 2.647782394321e-05 0.0 
2.647782394321e-05 6.861277587134e-04 0.0 
0.0 0.0 0.0 
-2.183307336279e-05 1.526316201527e-05 0.0 
1.526316201527e-05 9.070267727440e-04 0.0 
0.0 0.0 0.0 
1.030241650013e-05 3.909219686689e-05 0.0 
3.909219686689e-05 7.826107572841e-04 0.0 
0.0 0.0 0.0 
2.860589837805e-05 1.343429443176e-05 0.0 
1.343429443176e-05 7.229865236067e-04 0.0 
0.0 0.0 0.0 
2.021856586309e-05 3.017276480688e-05 0.0 
3.017276480688e-05 8.626309465274e-04 0.0 
0.0 0.0 0.0 
-2.054163948562e-05 1.017615853292e-05 0.0 
1.017615853292e-05 1.035032786741e-03 0.0 
0.0 0.0 0.0 
-2.545677849652e-05 2.243477927026e-05 0.0 
2.243477927026e-05 7.589711739122e-04 0.0 
0.0 0.0 0.0 
3.897774541128e-06 4.818721705216e-05 0.0 
4.818721705216e-05 1.012853844522e-03 0.0 
0.0 0.0 0.0 
-1.249658841829e-05 3.688364370530e-07 0.0 
3.688364370530e-07 9.593439648048e-04 0.0 
0.0 0.0 0.0 
2.763586571919e-05 3.462062874271e-07 0.0 
3.462062874271e-07 5.698114584871e-04 0.0 
0.0 0.0 0.0 
1.054863997463e-05 4.592984682983e-05 0.0 
4.592984682983e-05 9.267040121106e-04 0.0 
0.0 0.0 0.0 
2.815174979043e-05 5.928787923431e-06 0.0 
5.928787923431e-06 4.442559770137e-04 0.0 
0.0 0.0 0.0 
2.709398962586e-05 1.428971058757e-05 0.0 
1.428971058757e-05 8.140338339433e-04 0.0 
0.0 0.0 0.0 
-2.252141619130e-05 -1.827951855923e-06 0.0 
-1.827951855923e-06 2.680550454426e-05 0.0 
0.0 0.0 0.0 
-1.423096660491e-05 4.545190479301e-05 0.0 
4.545190479301e-05 5.414770291905e-04 0.0 
0.0 0.0 0.0 
2.800601460873e-05 7.956774025136e-06 0.0 
7.956774025136e-06 4.193133747621e-04 0.0 
0.0 0.0 0.0 
2.900765299785e-05 9.781117227387e-06 0.0 
9.781117227387e-06 6.224240172377e-04 0.0 
0.0 0.0 0.0 
-9.644793803831e-06 4.683584997247e-05 0.0 
4.683584997247e-05 7.732960157165e-04 0.0 
0.0 0.0 0.0 
2.676064338725e-05 2.776462958798e-05 0.0 
2.776462958798e-05 8.519990729692e-04 0.0 
0.0 0.0 0.0 
-1.580512900989e-05 4.210456099371e-07 0.0 
4.210456099371e-07 9.658195459101e-04 0.0 
0.0 0.0 0.0 
2.586573329699e-05 2.449391617719e-06 0.0 
2.449391617719e-06 3.810284184431e-04 0.0 
0.0 0.0 0.0 
0.0 4.032380617442e-05 0.0 
4.032380617442e-05 1.263344608656e-03 0.0 
0.0 0.0 0.0 
-2.380180797124e-05 2.400052889049e-05 0.0 
2.400052889049e-05 9.310482648945e-04 0.0 
0.0 0.0 0.0 
2.849670378491e-05 9.319916918818e-06 0.0 
9.319916918818e-06 6.494334389078e-04 0.0 
0.0 0.0 0.0 
-2.357875135772e-05 2.586014226731e-05 0.0 
2.586014226731e-05 8.944179001167e-04 0.0 
0.0 0.0 0.0 
2.706410568853e-05 -3.829983750947e-07 0.0 
-3.829983750947e-07 6.239476571790e-04 0.0 
0.0 0.0 0.0 
-1.206104321527e-05 -1.866577919312e-06 0.0 
-1.866577919312e-06 2.322154330359e-05 0.0 
0.0 0.0 0.0 
-2.341586791954e-05 8.338996883500e-06 0.0 
8.338996883500e-06 9.415847352163e-04 0.0 
0.0 0.0 0.0 
2.337638589078e-05 5.016117399694e-06 0.0 
5.016117399694e-06 5.105207168592e-04 0.0 
0.0 0.0 0.0 
-1.837048462350e-06 -1.687590710209e-06 0.0 
-1.687590710209e-06 1.753925531722e-05 0.0 
0.0 0.0 0.0 
2.769620625753e-05 7.808245872961e-06 0.0 
7.808245872961e-06 6.128558104335e-04 0.0 
0.0 0.0 0.0 
2.421243489592e-05 2.924878757917e-05 0.0 
2.924878757917e-05 9.177436559999e-04 0.0 
0.0 0.0 0.0 
-6.935275664977e-06 9.110900375421e-06 0.0 
9.110900375421e-06 1.198418245108e-03 0.0 
0.0 0.0 0.0 
2.202235468518e-05 2.939267893446e-05 0.0 
2.939267893446e-05 7.984274996686e-04 0.0 
0.0 0.0 0.0 
2.338161281235e-05 3.719411569186e-05 0.0 
3.719411569186e-05 8.183136265247e-04 0.0 
0.0 0.0 0.0 
-2.395275410294e-05 4.508696714044e-06 0.0 
4.508696714044e-06 8.253675124552e-04 0.0 
0.0 0.0 0.0 
-1.934933791159e-05 1.905263420760e-06 0.0 
1.905263420760e-06 7.983193765368e-04 0.0 
0.0 0.0 0.0 
-2.631095712191e-06 1.780182478841e-05 0.0 
1.780182478841e-05 1.318563676214e-03 0.0 
0.0 0.0 0.0 
-2.294973087336e-05 2.790980606315e-05 0.0 
2.790980606315e-05 8.572214912195e-04 0.0 
0.0 0.0 0.0 
-2.749665775403e-06 -1.713430757121e-06 0.0 
-1.713430757121e-06 1.796844976232e-05 0.0 
0.0 0.0 0.0 
7.921729212379e-06 -1.000547136403e-05 0.0 
-1.000547136403e-05 1.972674064739e-04 0.0 
0.0 0.0 0.0 
-3.914749796774e-06 -4.981288045020e-06 0.0 
-4.981288045020e-06 6.200165926340e-05 0.0 
0.0 0.0 0.0 
2.079112038067e-05 -5.135909229227e-06 0.0 
-5.135909229227e-06 3.574963967810e-04 0.0 
0.0 0.0 0.0 
-1.468894521139e-05 3.102161707052e-05 0.0 
3.102161707052e-05 1.164912206294e-03 0.0 
0.0 0.0 0.0 
-8.034721505568e-06 3.689457848486e-07 0.0 
3.689457848486e-07 1.199468556576e-03 0.0 
0.0 0.0 0.0 
2.063872235580e-05 2.429980108152e-05 0.0 
2.429980108152e-05 9.957627049775e-04 0.0 
0.0 0.0 0.0 
2.207324569170e-05 -5.787578389904e-06 0.0 
-5.787578389904e-06 4.071431288446e-04 0.0 
0.0 0.0 0.0 
2.576589152170e-05 4.408334961908e-06 0.0 
4.408334961908e-06 8.156333190905e-04 0.0 
0.0 0.0 0.0 
1.644586562910e-05 3.725871649960e-05 0.0 
3.725871649960e-05 1.065655173507e-03 0.0 
0.0 0.0 0.0 
2.272055390606e-05 2.598951590948e-05 0.0 
2.598951590948e-05 2.376879144201e-04 0.0 
0.0 0.0 0.0 
2.300214897000e-05 -5.520013139071e-06 0.0 
-5.520013139071e-06 5.107102440651e-04 0.0 
0.0 0.0 0.0 
2.109017214891e-05 4.338695859177e-06 0.0 
4.338695859177e-06 4.160219301730e-04 0.0 
0.0 0.0 0.0 
4.274914413793e-06 3.768189657823e-05 0.0 
3.768189657823e-05 1.255837691444e-03 0.0 
0.0 0.0 0.0 
0.0 3.679546155686e-05 0.0 
3.679546155686e-05 1.258457265592e-03 0.0 
0.0 0.0 0.0 
2.411004000979e-05 -3.845687485334e-06 0.0 
-3.845687485334e-06 5.706032409947e-04 0.0 
0.0 0.0 0.0 
2.706534319175e-05 -6.790472358107e-07 0.0 
-6.790472358107e-07 6.509678659365e-04 0.0 
0.0 0.0 0.0 
2.994274798196e-05 2.256563041623e-05 0.0 
2.256563041623e-05 7.468810541951e-04 0.0 
0.0 0.0 0.0 
1.418263373920e-05 4.048388425961e-05 0.0 
4.048388425961e-05 1.107071283861e-03 0.0 
0.0 0.0 0.0 
1.217209111659e-05 1.113335934338e-06 0.0 
1.113335934338e-06 2.195458367753e-04 0.0 
0.0 0.0 0.0 
1.895941978391e-05 3.403790009496e-05 0.0 
3.403790009496e-05 1.024441086297e-03 0.0 
0.0 0.0 0.0 
3.350273596769e-06 -1.780828583070e-06 0.0 
-1.780828583070e-06 1.142511100733e-04 0.0 
0.0 0.0 0.0 
2.591301879162e-05 -2.197714844224e-06 0.0 
-2.197714844224e-06 5.875224615370e-04 0.0 
0.0 0.0 0.0 
2.776899994084e-05 1.775693209288e-06 0.0 
1.775693209288e-06 6.607955438385e-04 0.0 
0.0 0.0 0.0 
3.708209531439e-06 -1.036075318374e-06 0.0 
-1.036075318374e-06 5.912066530178e-05 0.0 
0.0 0.0 0.0 
2.484913501455e-05 4.840481727416e-06 0.0 
4.840481727416e-06 5.399581272505e-04 0.0 
0.0 0.0 0.0 
-9.825612048653e-06 2.123985121441e-05 0.0 
2.123985121441e-05 1.222748127872e-03 0.0 
0.0 0.0 0.0 
-3.227950792106e-06 -1.430177073138e-06 0.0 
-1.430177073138e-06 1.831364225358e-05 0.0 
0.0 0.0 0.0 
-1.949629494702e-05 3.090606022594e-06 0.0 
3.090606022594e-06 7.984110787382e-04 0.0 
0.0 0.0 0.0 
-1.940718152549e-05 3.464018587800e-06 0.0 
3.464018587800e-06 7.979977385657e-04 0.0 
0.0 0.0 0.0 
1.692458145985e-05 3.289226483097e-05 0.0 
3.289226483097e-05 9.055260614441e-04 0.0 
0.0 0.0 0.0 
2.014629099656e-05 -4.985235678400e-06 0.0 
-4.985235678400e-06 4.156784705793e-04 0.0 
0.0 0.0 0.0 
2.977345998589e-05 1.349958413098e-05 0.0 
1.349958413098e-05 4.049251468501e-04 0.0 
0.0 0.0 0.0 
-1.311688820305e-05 5.311707340253e-05 0.0 
5.311707340253e-05 3.881581118648e-04 0.0 
0.0 0.0 0.0 
1.528104600412e-05 2.369372574090e-05 0.0 
2.369372574090e-05 1.087090691222e-03 0.0 
0.0 0.0 0.0 
-3.513146862089e-06 4.348773237672e-05 0.0 
4.348773237672e-05 1.284157788157e-03 0.0 
0.0 0.0 0.0 
-1.056962624002e-05 2.626374553550e-06 0.0 
2.626374553550e-06 1.158599253061e-03 0.0 
0.0 0.0 0.0 
-2.512329833637e-05 3.337858215221e-05 0.0 
3.337858215221e-05 5.131599283248e-04 0.0 
0.0 0.0 0.0 
2.783213085777e-06 1.359675202739e-06 0.0 
1.359675202739e-06 1.307680940645e-04 0.0 
0.0 0.0 0.0 
-2.755597711757e-05 1.203393396873e-05 0.0 
1.203393396873e-05 7.722906956888e-04 0.0 
0.0 0.0 0.0 
-1.528681935781e-05 8.847790828815e-07 0.0 
8.847790828815e-07 8.003049475305e-04 0.0 
0.0 0.0 0.0 
-1.571205174267e-05 -2.040374295241e-08 0.0 
-2.040374295241e-08 7.993861637410e-04 0.0 
0.0 0.0 0.0 
1.716931299356e-07 -1.550684974206e-06 0.0 
-1.550684974206e-06 1.731759465295e-05 0.0 
0.0 0.0 0.0 
3.351395279960e-06 -1.400689294769e-06 0.0 
-1.400689294769e-06 5.907277256822e-05 0.0 
0.0 0.0 0.0 
5.949056153254e-06 -2.707224964635e-06 0.0 
-2.707224964635e-06 1.120592847763e-04 0.0 
0.0 0.0 0.0 
1.814980860737e-05 2.132479412865e-06 0.0 
2.132479412865e-06 3.079230179432e-04 0.0 
0.0 0.0 0.0 
1.200858739336e-06 -1.140277826315e-06 0.0 
-1.140277826315e-06 6.007707421163e-05 0.0 
0.0 0.0 0.0 
2.404312197912e-05 4.898033332442e-06 0.0 
4.898033332442e-06 6.039603096879e-04 0.0 
0.0 0.0 0.0 
-1.550893029745e-05 -2.833361604308e-06 0.0 
-2.833361604308e-06 2.437414307010e-05 0.0 
0.0 0.0 0.0 
2.176891227035e-05 3.480511693577e-06 0.0 
3.480511693577e-06 3.700052261100e-04 0.0 
0.0 0.0 0.0 
-9.995670627427e-06 2.671154617990e-06 0.0 
2.671154617990e-06 1.013981891524e-03 0.0 
0.0 0.0 0.0 
-1.779074622521e-05 2.163055980373e-06 0.0 
2.163055980373e-06 7.980757162123e-04 0.0 
0.0 0.0 0.0 
-1.304522164769e-05 3.022221239618e-05 0.0 
3.022221239618e-05 1.199986115551e-03 0.0 
0.0 0.0 0.0 
2.608887160593e-05 2.593354541146e-05 0.0 
2.593354541146e-05 8.775533742631e-04 0.0 
0.0 0.0 0.0 
-1.127353093922e-05 2.632717120175e-06 0.0 
2.632717120175e-06 9.575934933126e-04 0.0 
0.0 0.0 0.0 
2.122341219701e-05 4.927517302084e-06 0.0 
4.927517302084e-06 4.458244374121e-04 0.0 
0.0 0.0 0.0 
4.478561471011e-06 -2.191932847236e-06 0.0 
-2.191932847236e-06 1.131371956062e-04 0.0 
0.0 0.0 0.0 
0.0 8.967337201138e-06 0.0 
8.967337201138e-06 1.371425153815e-03 0.0 
0.0 0.0 0.0 
-3.144946539413e-06 1.041317067355e-05 0.0 
1.041317067355e-05 1.370815222506e-03 0.0 
0.0 0.0 0.0 
-1.502388501484e-05 9.254726008781e-06 0.0 
9.254726008781e-06 9.260524093551e-04 0.0 
0.0 0.0 0.0 
-1.738823373498e-05 9.798725179139e-07 0.0 
9.798725179139e-07 7.991557682745e-04 0.0 
0.0 0.0 0.0 
2.137376087430e-05 -3.571062066197e-06 0.0 
-3.571062066197e-06 4.520958441689e-04 0.0 
0.0 0.0 0.0 
-2.285931806623e-06 6.833757855657e-06 0.0 
6.833757855657e-06 1.372142696280e-03 0.0 
0.0 0.0 0.0 
1.879480631173e-05 -7.362557397198e-06 0.0 
-7.362557397198e-06 3.448846067484e-04 0.0 
0.0 0.0 0.0 
-1.845322086835e-05 2.493840269992e-06 0.0 
2.493840269992e-06 7.973557804319e-04 0.0 
0.0 0.0 0.0 
-1.683036200484e-05 1.768318580000e-06 0.0 
1.768318580000e-06 7.982057038405e-04 0.0 
0.0 0.0 0.0 
-2.446335947881e-05 1.379219875372e-05 0.0 
1.379219875372e-05 7.484041283854e-04 0.0 
0.0 0.0 0.0 
0.0 2.012303387161e-05 0.0 
2.012303387161e-05 1.368159543186e-03 0.0 
0.0 0.0 0.0 
-1.331056150855e-06 9.214804336060e-06 0.0 
9.214804336060e-06 1.372152576084e-03 0.0 
0.0 0.0 0.0 
1.909137670175e-07 -1.290813857131e-06 0.0 
-1.290813857131e-06 6.000607816681e-05 0.0 
0.0 0.0 0.0 
1.904622128901e-07 -7.992913840459e-07 0.0 
-7.992913840459e-07 1.790274783420e-05 0.0 
0.0 0.0 0.0 
5.753162377387e-06 8.579129578183e-07 0.0 
8.579129578183e-07 1.597168093717e-04 0.0 
0.0 0.0 0.0 
2.973526720518e-05 1.217610422087e-05 0.0 
1.217610422087e-05 6.592374002607e-04 0.0 
0.0 0.0 0.0 
1.102473066172e-05 7.923996956056e-06 0.0 
7.923996956056e-06 1.127009634101e-03 0.0 
0.0 0.0 0.0 
-3.329956295650e-05 -5.232199897811e-06 0.0 
-5.232199897811e-06 2.862252482982e-05 0.0 
0.0 0.0 0.0 
-8.013450739419e-06 -4.091394957475e-06 0.0 
-4.091394957475e-06 1.148746046152e-03 0.0 
0.0 0.0 0.0 
-1.505808018409e-05 -2.290166010291e-06 0.0 
-2.290166010291e-06 2.499955602797e-05 0.0 
0.0 0.0 0.0 
2.143601329441e-05 3.808790607317e-05 0.0 
3.808790607317e-05 8.831827625502e-04 0.0 
0.0 0.0 0.0 
-2.681924722192e-05 -2.123088977580e-06 0.0 
-2.123088977580e-06 2.872068034443e-05 0.0 
0.0 0.0 0.0 
-3.048946811091e-05 -3.488382851560e-06 0.0 
-3.488382851560e-06 2.928157395132e-05 0.0 
0.0 0.0 0.0 
2.431453052321e-05 3.496867740557e-05 0.0 
3.496867740557e-05 8.411952803025e-04 0.0 
0.0 0.0 0.0 
1.351266581229e-05 1.336145105386e-05 0.0 
1.336145105386e-05 1.094653914793e-03 0.0 
0.0 0.0 0.0 
-1.112446237572e-05 -1.064784008601e-06 0.0 
-1.064784008601e-06 1.009661191993e-03 0.0 
0.0 0.0 0.0 
-2.744483008177e-05 1.610333508236e-05 0.0 
1.610333508236e-05 7.948896878769e-04 0.0 
0.0 0.0 0.0 
4.485313480407e-06 -1.559439387143e-06 0.0 
-1.559439387143e-06 5.854474298217e-05 0.0 
0.0 0.0 0.0 
2.481897387874e-05 3.429639189697e-06 0.0 
3.429639189697e-06 8.427005934399e-04 0.0 
0.0 0.0 0.0 
0.0 2.371010444225e-06 0.0 
2.371010444225e-06 1.370148406306e-03 0.0 
0.0 0.0 0.0 
-2.157544425563e-06 1.461474941848e-07 0.0 
1.461474941848e-07 1.372430198317e-03 0.0 
0.0 0.0 0.0 
-1.689402572425e-05 1.704761788872e-06 0.0 
1.704761788872e-06 7.981535421231e-04 0.0 
0.0 0.0 0.0 
1.827507049490e-05 4.072854464126e-05 0.0 
4.072854464126e-05 9.255732128590e-04 0.0 
0.0 0.0 0.0 
0.0 8.174407735981e-06 0.0 
8.174407735981e-06 1.372928856396e-03 0.0 
0.0 0.0 0.0 
-7.196884099447e-06 3.865449103031e-05 0.0 
3.865449103031e-05 1.050908193161e-03 0.0 
0.0 0.0 0.0 
3.757299839036e-06 -3.417890943254e-07 0.0 
-3.417890943254e-07 1.100459645795e-04 0.0 
0.0 0.0 0.0 
2.603940821411e-06 -1.564255943573e-06 0.0 
-1.564255943573e-06 5.917562916569e-05 0.0 
0.0 0.0 0.0 
3.860889489449e-06 -2.133209037103e-06 0.0 
-2.133209037103e-06 5.821873292566e-05 0.0 
0.0 0.0 0.0 
2.341189536836e-05 4.776148444030e-06 0.0 
4.776148444030e-06 5.085022222560e-04 0.0 
0.0 0.0 0.0 
3.892262645744e-06 6.335621468764e-06 0.0 
6.335621468764e-06 1.236305328623e-03 0.0 
0.0 0.0 0.0 
-3.033349407544e-06 -5.117987999205e-06 0.0 
-5.117987999205e-06 1.306056686885e-03 0.0 
0.0 0.0 0.0 
2.691791850973e-06 2.978954179257e-07 0.0 
2.978954179257e-07 1.578829260285e-05 0.0 
0.0 0.0 0.0 
2.485642956729e-05 -4.273444473145e-06 0.0 
-4.273444473145e-06 6.039735364849e-04 0.0 
0.0 0.0 0.0 
0.0 7.467964863702e-06 0.0 
7.467964863702e-06 1.239730651117e-03 0.0 
0.0 0.0 0.0 
4.184421582565e-06 1.261236752408e-05 0.0 
1.261236752408e-05 1.235972863384e-03 0.0 
0.0 0.0 0.0 
6.437685407645e-06 3.426161930910e-05 0.0 
3.426161930910e-05 1.251195284320e-03 0.0 
0.0 0.0 0.0 
-9.457710848704e-06 5.356581909539e-06 0.0 
5.356581909539e-06 1.086988503760e-03 0.0 
0.0 0.0 0.0 
-6.731804016780e-06 -4.822710640729e-06 0.0 
-4.822710640729e-06 1.180920310851e-03 0.0 
0.0 0.0 0.0 
0.0 9.704552633674e-06 0.0 
9.704552633674e-06 1.234035863188e-03 0.0 
0.0 0.0 0.0 
0.0 1.207052609872e-05 0.0 
1.207052609872e-05 1.237993335164e-03 0.0 
0.0 0.0 0.0 
-7.417566169177e-06 4.611258514438e-06 0.0 
4.611258514438e-06 1.149052816884e-03 0.0 
0.0 0.0 0.0 
1.423902630471e-06 2.201919405543e-06 0.0 
2.201919405543e-06 1.408516440482e-05 0.0 
0.0 0.0 0.0 
-1.411977285715e-05 3.261798589379e-07 0.0 
3.261798589379e-07 7.967054506171e-04 0.0 
0.0 0.0 0.0 
-1.648524690157e-05 1.743642903688e-06 0.0 
1.743642903688e-06 7.997124273800e-04 0.0 
0.0 0.0 0.0 
1.208648537254e-06 -1.968805179745e-07 0.0 
-1.968805179745e-07 1.753940574289e-05 0.0 
0.0 0.0 0.0 
0.0 2.233459090313e-05 0.0 
2.233459090313e-05 1.245389935662e-03 0.0 
0.0 0.0 0.0 
4.684447462600e-06 3.144797773875e-05 0.0 
3.144797773875e-05 1.246639491191e-03 0.0 
0.0 0.0 0.0 
0.0 2.800616210305e-05 0.0 
2.800616210305e-05 1.244270392832e-03 0.0 
0.0 0.0 0.0 
-2.748090395022e-06 5.588346753684e-07 0.0 
5.588346753684e-07 1.797066595888e-05 0.0 
0.0 0.0 0.0 
-3.259448022042e-06 -4.872692675812e-07 0.0 
-4.872692675812e-07 1.869262776211e-05 0.0 
0.0 0.0 0.0 
0.0 3.427370579570e-05 0.0 
3.427370579570e-05 1.253327223183e-03 0.0 
0.0 0.0 0.0 
0.0 3.070547381708e-05 0.0 
3.070547381708e-05 1.249233780625e-03 0.0 
0.0 0.0 0.0 
-1.077490907275e-05 -5.208574484150e-06 0.0 
-5.208574484150e-06 1.055536862303e-03 0.0 
0.0 0.0 0.0 
-1.307086244440e-05 7.824048481570e-07 0.0 
7.824048481570e-07 7.952077195903e-04 0.0 
0.0 0.0 0.0 
-8.143616032075e-06 -5.078299370176e-06 0.0 
-5.078299370176e-06 1.118080809753e-03 0.0 
0.0 0.0 0.0 
-1.249926868629e-05 -5.114424348430e-06 0.0 
-5.114424348430e-06 9.291397563642e-04 0.0 
0.0 0.0 0.0 
-1.179370649262e-05 2.984525035582e-07 0.0 
2.984525035582e-07 7.949078539919e-04 0.0 
0.0 0.0 0.0 
-5.483439488141e-06 -2.836665036224e-08 0.0 
-2.836665036224e-08 1.999923142804e-05 0.0 
0.0 0.0 0.0 
-1.174771114842e-05 -2.111996920219e-06 0.0 
-2.111996920219e-06 2.372494940883e-05 0.0 
0.0 0.0 0.0 
-1.211754219133e-05 -1.730036319499e-06 0.0 
-1.730036319499e-06 2.240000154163e-05 0.0 
0.0 0.0 0.0 
-1.622048770500e-05 -1.899001370459e-06 0.0 
-1.899001370459e-06 2.435753088870e-05 0.0 
0.0 0.0 0.0 
2.491919672831e-05 5.639035369227e-06 0.0 
5.639035369227e-06 6.367217922623e-04 0.0 
0.0 0.0 0.0 
2.479665592237e-05 4.978735165575e-06 0.0 
4.978735165575e-06 5.718880364447e-04 0.0 
0.0 0.0 0.0 
-5.746610298618e-06 -1.309856837511e-06 0.0 
-1.309856837511e-06 2.079835087354e-05 0.0 
0.0 0.0 0.0 
2.472826444211e-05 5.483469763009e-06 0.0 
5.483469763009e-06 8.278262379748e-04 0.0 
0.0 0.0 0.0 
-8.869035180159e-06 -2.037100817827e-06 0.0 
-2.037100817827e-06 2.164970008778e-05 0.0 
0.0 0.0 0.0 
0.0 1.645124604247e-05 0.0 
1.645124604247e-05 1.368823223255e-03 0.0 
0.0 0.0 0.0 
0.0 6.839676810347e-06 0.0 
6.839676810347e-06 1.371381125998e-03 0.0 
0.0 0.0 0.0 
0.0 1.089513207640e-05 0.0 
1.089513207640e-05 1.370161401495e-03 0.0 
0.0 0.0 0.0 
9.700326999207e-06 5.613943924647e-06 0.0 
5.613943924647e-06 1.955156646243e-04 0.0 
0.0 0.0 0.0 
1.914440358042e-05 4.977472366452e-06 0.0 
4.977472366452e-06 3.830891283783e-04 0.0 
0.0 0.0 0.0 
0.0 5.086849581445e-06 0.0 
5.086849581445e-06 1.369682912342e-03 0.0 
0.0 0.0 0.0 
1.734091923389e-05 4.696498658219e-06 0.0 
4.696498658219e-06 1.027855739971e-03 0.0 
0.0 0.0 0.0 
0.0 3.620988785325e-06 0.0 
3.620988785325e-06 1.376367184582e-03 0.0 
0.0 0.0 0.0 
1.289191801424e-05 4.981628764739e-06 0.0 
4.981628764739e-06 1.095631412441e-03 0.0 
0.0 0.0 0.0 
8.017226084789e-06 5.851282421223e-06 0.0 
5.851282421223e-06 1.163999141920e-03 0.0 
0.0 0.0 0.0 
2.410173472844e-05 -4.900895202541e-06 0.0 
-4.900895202541e-06 5.399617533475e-04 0.0 
0.0 0.0 0.0 
-3.088818403274e-06 5.175614665687e-06 0.0 
5.175614665687e-06 1.370493746175e-03 0.0 
0.0 0.0 0.0 
-2.582269318818e-06 7.475550616472e-06 0.0 
7.475550616472e-06 1.372213977969e-03 0.0 
0.0 0.0 0.0 
1.491466977588e-05 -3.033450926449e-06 0.0 
-3.033450926449e-06 1.058180920103e-03 0.0 
0.0 0.0 0.0 
1.040129096541e-05 -2.763652164820e-06 0.0 
-2.763652164820e-06 1.127615093944e-03 0.0 
0.0 0.0 0.0 
2.305814967052e-05 1.524208695002e-06 0.0 
1.524208695002e-06 8.977119278926e-04 0.0 
0.0 0.0 0.0 
-1.375815971971e-05 -2.177263099547e-06 0.0 
-2.177263099547e-06 2.429601975429e-05 0.0 
0.0 0.0 0.0 
2.420366176570e-05 -3.721542390843e-06 0.0 
-3.721542390843e-06 5.515071657818e-04 0.0 
0.0 0.0 0.0 
1.861902916289e-07 -2.370794760794e-06 0.0 
-2.370794760794e-06 5.894430025921e-05 0.0 
0.0 0.0 0.0 
1.421814127678e-05 1.528733711756e-05 0.0 
1.528733711756e-05 1.087943973733e-03 0.0 
0.0 0.0 0.0 
2.795134855971e-05 7.836834014679e-06 0.0 
7.836834014679e-06 5.859913447761e-04 0.0 
0.0 0.0 0.0 
1.929215608176e-05 1.388664976714e-05 0.0 
1.388664976714e-05 9.998718132314e-04 0.0 
0.0 0.0 0.0 
1.488284285434e-05 -8.828517305670e-06 0.0 
-8.828517305670e-06 2.829195573879e-04 0.0 
0.0 0.0 0.0 
4.853274757188e-06 6.068166213545e-07 0.0 
6.068166213545e-07 1.095340651269e-04 0.0 
0.0 0.0 0.0 
1.510636435165e-05 5.579199550983e-06 0.0 
5.579199550983e-06 1.066789248230e-03 0.0 
0.0 0.0 0.0 
2.662389774932e-05 -2.328219619244e-06 0.0 
-2.328219619244e-06 6.144902950127e-04 0.0 
0.0 0.0 0.0 
2.171320821076e-05 4.705217000495e-06 0.0 
4.705217000495e-06 4.778332986521e-04 0.0 
0.0 0.0 0.0 
1.879867828514e-05 4.607481730551e-06 0.0 
4.607481730551e-06 1.001347936195e-03 0.0 
0.0 0.0 0.0 
-4.827401755891e-06 6.719655461591e-06 0.0 
6.719655461591e-06 1.236884825878e-03 0.0 
0.0 0.0 0.0 
2.230994855945e-05 -5.086736518763e-06 0.0 
-5.086736518763e-06 4.776479738429e-04 0.0 
0.0 0.0 0.0 
2.087495478564e-05 2.229223150060e-05 0.0 
2.229223150060e-05 9.597379292088e-04 0.0 
0.0 0.0 0.0 
2.754815182038e-05 1.815199610640e-05 0.0 
1.815199610640e-05 8.254250681634e-04 0.0 
0.0 0.0 0.0 
2.355539148113e-05 1.122149622681e-05 0.0 
1.122149622681e-05 8.962140035385e-04 0.0 
0.0 0.0 0.0 
2.200328733615e-05 9.525036601435e-06 0.0 
9.525036601435e-06 9.251918338027e-04 0.0 
0.0 0.0 0.0 
1.587849096030e-05 5.093431505364e-05 0.0 
5.093431505364e-05 5.468711153298e-04 0.0 
0.0 0.0 0.0 
-2.785805877925e-05 1.363284169403e-05 0.0 
1.363284169403e-05 7.380008223961e-04 0.0 
0.0 0.0 0.0 
-1.305094596771e-05 3.913057644709e-05 0.0 
3.913057644709e-05 7.580329938417e-04 0.0 
0.0 0.0 0.0 
2.595044724507e-05 1.329145194697e-05 0.0 
1.329145194697e-05 8.411741065657e-04 0.0 
0.0 0.0 0.0 
1.708440122195e-05 2.686019827918e-06 0.0 
2.686019827918e-06 1.030122918771e-03 0.0 
0.0 0.0 0.0 
2.041433967959e-05 8.324157747009e-06 0.0 
8.324157747009e-06 9.550548193509e-04 0.0 
0.0 0.0 0.0 
2.007846076446e-05 3.405600715325e-06 0.0 
3.405600715325e-06 2.947306541923e-04 0.0 
0.0 0.0 0.0 
-4.959287205009e-06 9.039903980479e-06 0.0 
9.039903980479e-06 1.232947194405e-03 0.0 
0.0 0.0 0.0 
-7.670910177948e-06 8.269760189213e-06 0.0 
8.269760189213e-06 1.170397917351e-03 0.0 
0.0 0.0 0.0 
-1.286309529802e-05 6.367334409170e-06 0.0 
6.367334409170e-06 8.822262703241e-04 0.0 
0.0 0.0 0.0 
2.515351111154e-05 1.571931657158e-05 0.0 
1.571931657158e-05 8.792225642722e-04 0.0 
0.0 0.0 0.0 
2.475808628644e-05 1.225483075409e-05 0.0 
1.225483075409e-05 8.686157348516e-04 0.0 
0.0 0.0 0.0 
-6.357338174556e-06 -2.254919259279e-06 0.0 
-2.254919259279e-06 1.239444814303e-03 0.0 
0.0 0.0 0.0 
-6.621737774104e-06 7.251181353953e-06 0.0 
7.251181353953e-06 1.204284556706e-03 0.0 
0.0 0.0 0.0 
2.692637959001e-05 9.205585414449e-06 0.0 
9.205585414449e-06 8.005585070194e-04 0.0 
0.0 0.0 0.0 
1.347598649803e-05 3.607720497148e-06 0.0 
3.607720497148e-06 1.095530908288e-03 0.0 
0.0 0.0 0.0 
-9.193651479888e-06 1.117997757066e-05 0.0 
1.117997757066e-05 1.157586961393e-03 0.0 
0.0 0.0 0.0 
2.013889995145e-05 -1.054858638291e-06 0.0 
-1.054858638291e-06 9.550459942078e-04 0.0 
0.0 0.0 0.0 
1.215532247856e-05 1.247855961732e-05 0.0 
1.247855961732e-05 1.118774716582e-03 0.0 
0.0 0.0 0.0 
-6.588784025707e-06 -3.338546759602e-07 0.0 
-3.338546759602e-07 1.234510751653e-03 0.0 
0.0 0.0 0.0 
-1.110845036612e-05 -1.301623326543e-06 0.0 
-1.301623326543e-06 1.074268870826e-03 0.0 
0.0 0.0 0.0 
2.303269139992e-05 1.909134667795e-05 0.0 
1.909134667795e-05 9.192870381844e-04 0.0 
0.0 0.0 0.0 
1.523900784184e-05 2.383615842732e-06 0.0 
2.383615842732e-06 2.918852057752e-04 0.0 
0.0 0.0 0.0 
1.907532683632e-05 3.645752051460e-06 0.0 
3.645752051460e-06 2.702362737546e-04 0.0 
0.0 0.0 0.0 
1.903411635196e-06 -1.115036979867e-05 0.0 
-1.115036979867e-05 1.324757977914e-04 0.0 
0.0 0.0 0.0 
-1.376997910874e-05 -4.474495149503e-06 0.0 
-4.474495149503e-06 6.606984528856e-05 0.0 
0.0 0.0 0.0 
-6.909181837877e-06 -1.412602483353e-06 0.0 
-1.412602483353e-06 1.205127994937e-03 0.0 
0.0 0.0 0.0 
1.552387963510e-05 1.073675408415e-05 0.0 
1.073675408415e-05 1.056867333873e-03 0.0 
0.0 0.0 0.0 
-1.208260793517e-05 -4.364211310449e-06 0.0 
-4.364211310449e-06 6.412218904406e-05 0.0 
0.0 0.0 0.0 
-1.421129866819e-05 2.042157635004e-05 0.0 
2.042157635004e-05 1.205328604553e-03 0.0 
0.0 0.0 0.0 
-1.192584288401e-05 6.432267948228e-06 0.0 
6.432267948228e-06 9.113051807101e-04 0.0 
0.0 0.0 0.0 
2.036061668154e-05 5.788936960849e-06 0.0 
5.788936960849e-06 9.738873725860e-04 0.0 
0.0 0.0 0.0 
1.901228098222e-05 1.025021633223e-05 0.0 
1.025021633223e-05 9.904975932973e-04 0.0 
0.0 0.0 0.0 
2.949838421862e-05 1.162717077256e-05 0.0 
1.162717077256e-05 4.299335253075e-04 0.0 
0.0 0.0 0.0 
1.881366106482e-05 6.152411980593e-07 0.0 
6.152411980593e-07 9.918840900971e-04 0.0 
0.0 0.0 0.0 
-1.319993744664e-05 -5.059684872288e-06 0.0 
-5.059684872288e-06 8.819726025842e-04 0.0 
0.0 0.0 0.0 
7.503771371153e-06 3.833398254901e-05 0.0 
3.833398254901e-05 9.712816085179e-04 0.0 
0.0 0.0 0.0 
1.089733874560e-05 2.150988980021e-05 0.0 
2.150988980021e-05 1.147384832083e-03 0.0 
0.0 0.0 0.0 
1.443743603802e-05 2.492968079689e-06 0.0 
2.492968079689e-06 2.813822276768e-04 0.0 
0.0 0.0 0.0 
1.164067146719e-05 1.862792165793e-05 0.0 
1.862792165793e-05 1.128650039801e-03 0.0 
0.0 0.0 0.0 
-9.904486073187e-06 -1.179837392315e-06 0.0 
-1.179837392315e-06 1.108869109239e-03 0.0 
0.0 0.0 0.0 
1.650327306102e-05 3.358031656765e-06 0.0 
3.358031656765e-06 3.184892088246e-04 0.0 
0.0 0.0 0.0 
2.032278417796e-05 -5.538026402073e-06 0.0 
-5.538026402073e-06 3.334312560512e-04 0.0 
0.0 0.0 0.0 
2.651947598564e-05 6.669762796005e-06 0.0 
6.669762796005e-06 6.959454939746e-04 0.0 
0.0 0.0 0.0 
-1.246918075160e-05 8.005054298178e-06 0.0 
8.005054298178e-06 1.004735024028e-03 0.0 
0.0 0.0 0.0 
2.500074092393e-05 4.887305149466e-06 0.0 
4.887305149466e-06 4.593768303454e-04 0.0 
0.0 0.0 0.0 
-8.773748120805e-06 -1.826368005539e-06 0.0 
-1.826368005539e-06 1.143194095265e-03 0.0 
0.0 0.0 0.0 
-1.090754572097e-05 -2.622573349637e-06 0.0 
-2.622573349637e-06 1.044311428897e-03 0.0 
0.0 0.0 0.0 
2.793594160466e-05 8.713749768460e-06 0.0 
8.713749768460e-06 6.768208100976e-04 0.0 
0.0 0.0 0.0 
2.138065671087e-05 2.941636874819e-07 0.0 
2.941636874819e-07 9.258500677520e-04 0.0 
0.0 0.0 0.0 
2.032567695487e-05 2.044366573051e-06 0.0 
2.044366573051e-06 9.637109926728e-04 0.0 
0.0 0.0 0.0 
-9.398843162201e-06 7.863635911335e-06 0.0 
7.863635911335e-06 1.107581116658e-03 0.0 
0.0 0.0 0.0 
1.163969435569e-05 -8.157598326440e-06 0.0 
-8.157598326440e-06 2.412739693705e-04 0.0 
0.0 0.0 0.0 
2.731619541185e-05 7.157432323975e-06 0.0 
7.157432323975e-06 6.406388080011e-04 0.0 
0.0 0.0 0.0 
1.730314424186e-06 5.019773141632e-05 0.0 
5.019773141632e-05 1.117328279898e-03 0.0 
0.0 0.0 0.0 
-9.672187138765e-06 -3.536471057349e-07 0.0 
-3.536471057349e-07 1.137093883541e-03 0.0 
0.0 0.0 0.0 
2.672840494555e-05 6.764656811269e-06 0.0 
6.764656811269e-06 5.761410123231e-04 0.0 
0.0 0.0 0.0 
2.607305222102e-05 8.067584793344e-06 0.0 
8.067584793344e-06 8.270519107270e-04 0.0 
0.0 0.0 0.0 
1.353887685207e-05 1.933679811845e-05 0.0 
1.933679811845e-05 1.103326189884e-03 0.0 
0.0 0.0 0.0 
-9.757260471810e-06 7.539772223332e-06 0.0 
7.539772223332e-06 1.073233277651e-03 0.0 
0.0 0.0 0.0 
8.416745553852e-06 2.839334425998e-06 0.0 
2.839334425998e-06 1.284029348949e-04 0.0 
0.0 0.0 0.0 
2.436935609529e-06 -9.184185979060e-06 0.0 
-9.184185979060e-06 1.281905084074e-04 0.0 
0.0 0.0 0.0 
2.407349335787e-05 3.081418517092e-05 0.0 
3.081418517092e-05 3.049851986447e-04 0.0 
0.0 0.0 0.0 
1.730716567638e-05 1.271848909420e-05 0.0 
1.271848909420e-05 1.028606752030e-03 0.0 
0.0 0.0 0.0 
-1.134211844245e-05 7.761612331229e-06 0.0 
7.761612331229e-06 1.039083574268e-03 0.0 
0.0 0.0 0.0 
2.626112424564e-05 -3.062225859012e-06 0.0 
-3.062225859012e-06 7.608301678697e-04 0.0 
0.0 0.0 0.0 
-1.291682898941e-05 6.701437486977e-06 0.0 
6.701437486977e-06 9.418830200110e-04 0.0 
0.0 0.0 0.0 
1.509509344944e-05 2.775341177487e-05 0.0 
2.775341177487e-05 1.067039240237e-03 0.0 
0.0 0.0 0.0 
2.729399528079e-05 8.249830138918e-06 0.0 
8.249830138918e-06 7.042618225115e-04 0.0 
0.0 0.0 0.0 
2.086522135269e-05 1.184615491739e-05 0.0 
1.184615491739e-05 9.622065837451e-04 0.0 
0.0 0.0 0.0 
1.443215158825e-05 -6.747368027186e-06 0.0 
-6.747368027186e-06 2.933683938575e-04 0.0 
0.0 0.0 0.0 
1.314045288647e-05 2.396827223198e-05 0.0 
2.396827223198e-05 1.119251579977e-03 0.0 
0.0 0.0 0.0 
2.654063405449e-05 -1.083937237285e-06 0.0 
-1.083937237285e-06 6.783728469584e-04 0.0 
0.0 0.0 0.0 
1.512623367361e-05 -6.293484731204e-06 0.0 
-6.293484731204e-06 3.199982132041e-04 0.0 
0.0 0.0 0.0 
2.596837576063e-05 -2.876732433047e-06 0.0 
-2.876732433047e-06 6.422874451670e-04 0.0 
0.0 0.0 0.0 
2.519441674420e-05 4.871970411976e-06 0.0 
4.871970411976e-06 4.864207809165e-04 0.0 
0.0 0.0 0.0 
1.964003929156e-05 -7.021994266343e-06 0.0 
-7.021994266343e-06 3.716586924840e-04 0.0 
0.0 0.0 0.0 
2.609480032323e-05 6.903676569115e-06 0.0 
6.903676569115e-06 7.589041724276e-04 0.0 
0.0 0.0 0.0 
-4.274847232977e-06 -9.513215511231e-07 0.0 
-9.513215511231e-07 2.070277497834e-05 0.0 
0.0 0.0 0.0 
-6.921621129918e-06 -1.691093423492e-06 0.0 
-1.691093423492e-06 2.260227023032e-05 0.0 
0.0 0.0 0.0 
2.386424913303e-05 2.507342050077e-06 0.0 
2.507342050077e-06 8.701180463497e-04 0.0 
0.0 0.0 0.0 
1.315730400275e-05 -7.389967911354e-06 0.0 
-7.389967911354e-06 2.676180470886e-04 0.0 
0.0 0.0 0.0 
2.403469263168e-05 5.815390902581e-06 0.0 
5.815390902581e-06 8.807504963131e-04 0.0 
0.0 0.0 0.0 
2.510077980822e-05 6.986893024299e-06 0.0 
6.986893024299e-06 8.538194252361e-04 0.0 
0.0 0.0 0.0 
2.862341591103e-05 8.529479576070e-06 0.0 
8.529479576070e-06 5.314604718913e-04 0.0 
0.0 0.0 0.0 
2.708306471377e-05 1.054672101277e-05 0.0 
1.054672101277e-05 3.417417549141e-04 0.0 
0.0 0.0 0.0 
-8.924832894386e-06 2.069222004092e-06 0.0 
2.069222004092e-06 1.192969039682e-03 0.0 
0.0 0.0 0.0 
1.508387903182e-05 4.208960834150e-05 0.0 
4.208960834150e-05 1.703018681909e-04 0.0 
0.0 0.0 0.0 
2.508871188889e-05 4.739800122304e-06 0.0 
4.739800122304e-06 5.142235517410e-04 0.0 
0.0 0.0 0.0 
1.226653509945e-05 3.185872864692e-05 0.0 
3.185872864692e-05 1.106284399513e-03 0.0 
0.0 0.0 0.0 
1.246233985275e-05 1.973735827985e-06 0.0 
1.973735827985e-06 2.281378036053e-04 0.0 
0.0 0.0 0.0 
-1.338093624625e-05 -1.730536065545e-06 0.0 
-1.730536065545e-06 9.772051171644e-04 0.0 
0.0 0.0 0.0 
-1.351812235117e-05 -3.371734602182e-06 0.0 
-3.371734602182e-06 9.126233490337e-04 0.0 
0.0 0.0 0.0 
1.064692559027e-05 -9.640947310981e-06 0.0 
-9.640947310981e-06 2.213709348284e-04 0.0 
0.0 0.0 0.0 
1.522551893318e-05 2.165257640815e-05 0.0 
2.165257640815e-05 1.076336051371e-03 0.0 
0.0 0.0 0.0 
-1.227758085265e-05 1.434164393613e-06 0.0 
1.434164393613e-06 1.096439223597e-03 0.0 
0.0 0.0 0.0 
1.390538801460e-05 1.583148987192e-06 0.0 
1.583148987192e-06 2.658067748358e-04 0.0 
0.0 0.0 0.0 
-8.493835298662e-06 3.942838114873e-06 0.0 
3.942838114873e-06 1.219781246204e-03 0.0 
0.0 0.0 0.0 
-7.290682571326e-06 1.175968046068e-05 0.0 
1.175968046068e-05 1.218553973007e-03 0.0 
0.0 0.0 0.0 
1.512335058806e-05 -8.172837454281e-06 0.0 
-8.172837454281e-06 3.012827653208e-04 0.0 
0.0 0.0 0.0 
-2.691618095252e-05 2.750215700759e-05 0.0 
2.750215700759e-05 5.505194527375e-04 0.0 
0.0 0.0 0.0 
1.622522646860e-05 -8.340665660245e-06 0.0 
-8.340665660245e-06 3.095689368466e-04 0.0 
0.0 0.0 0.0 
2.192471890905e-05 3.498860089840e-06 0.0 
3.498860089840e-06 9.355452259387e-04 0.0 
0.0 0.0 0.0 
2.661441338003e-05 7.685017057031e-06 0.0 
7.685017057031e-06 7.318662028670e-04 0.0 
0.0 0.0 0.0 
-1.105274971469e-05 2.465476230812e-05 0.0 
2.465476230812e-05 1.213827241584e-03 0.0 
0.0 0.0 0.0 
-7.835187097016e-06 1.071589332526e-05 0.0 
1.071589332526e-05 1.191950227292e-03 0.0 
0.0 0.0 0.0 
2.296121883760e-05 4.681025106309e-06 0.0 
4.681025106309e-06 9.080574592730e-04 0.0 
0.0 0.0 0.0 
2.381753047098e-05 1.448013641885e-05 0.0 
1.448013641885e-05 9.065522580074e-04 0.0 
0.0 0.0 0.0 
1.372272998301e-05 1.200231743670e-06 0.0 
1.200231743670e-06 2.463080370667e-04 0.0 
0.0 0.0 0.0 
2.243538454350e-05 1.319009494824e-05 0.0 
1.319009494824e-05 9.340588574898e-04 0.0 
0.0 0.0 0.0 
-1.091723629754e-05 1.012035032026e-05 0.0 
1.012035032026e-05 1.095420306770e-03 0.0 
0.0 0.0 0.0 
2.600304035849e-05 -1.809769258562e-06 0.0 
-1.809769258562e-06 7.333407233063e-04 0.0 
0.0 0.0 0.0 
-1.237046467273e-05 -9.843820403864e-07 0.0 
-9.843820403864e-07 1.040104759310e-03 0.0 
0.0 0.0 0.0 
-1.078500639429e-05 1.130775309449e-06 0.0 
1.130775309449e-06 1.130755033273e-03 0.0 
0.0 0.0 0.0 
8.863775229129e-06 4.937512694427e-05 0.0 
4.937512694427e-05 7.188496448183e-04 0.0 
0.0 0.0 0.0 
-8.359176058459e-06 9.541442350450e-06 0.0 
9.541442350450e-06 1.164136407114e-03 0.0 
0.0 0.0 0.0 
2.602112956995e-05 6.580402735404e-06 0.0 
6.580402735404e-06 6.077269871454e-04 0.0 
0.0 0.0 0.0 
2.613957191744e-05 -1.502638848424e-06 0.0 
-1.502638848424e-06 7.058023141950e-04 0.0 
0.0 0.0 0.0 
2.316566629990e-05 4.851172721701e-06 0.0 
4.851172721701e-06 4.520035393445e-04 0.0 
0.0 0.0 0.0 
2.628907487101e-05 -1.151275631238e-06 0.0 
-1.151275631238e-06 4.803621259044e-04 0.0 
0.0 0.0 0.0 
-1.115991950340e-05 8.886594938210e-06 0.0 
8.886594938210e-06 1.067334067283e-03 0.0 
0.0 0.0 0.0 
2.913985578901e-05 9.846529793441e-06 0.0 
9.846529793441e-06 6.836956097793e-04 0.0 
0.0 0.0 0.0 
1.733683206906e-05 -7.850838873319e-06 0.0 
-7.850838873319e-06 3.363979341944e-04 0.0 
0.0 0.0 0.0 
5.256671257614e-06 -9.350085817490e-06 0.0 
-9.350085817490e-06 1.609986781712e-04 0.0 
0.0 0.0 0.0 
-1.227334387954e-05 1.896224550565e-07 0.0 
1.896224550565e-07 1.068352868239e-03 0.0 
0.0 0.0 0.0 
1.907128382239e-05 2.386653797668e-06 0.0 
2.386653797668e-06 3.348015062485e-04 0.0 
0.0 0.0 0.0 
1.380921755612e-05 2.763956842105e-05 0.0 
2.763956842105e-05 1.127741652661e-03 0.0 
0.0 0.0 0.0 
-9.818976529519e-06 8.679547327514e-06 0.0 
8.679547327514e-06 1.101624707074e-03 0.0 
0.0 0.0 0.0 
2.099427197133e-05 1.556911447294e-05 0.0 
1.556911447294e-05 9.723994787272e-04 0.0 
0.0 0.0 0.0 
3.664369448320e-06 4.274592114280e-05 0.0 
4.274592114280e-05 1.217486644308e-03 0.0 
0.0 0.0 0.0 
2.528186037964e-05 -3.926761576201e-06 0.0 
-3.926761576201e-06 5.783979549043e-04 0.0 
0.0 0.0 0.0 
1.640836925820e-05 1.890322195837e-06 0.0 
1.890322195837e-06 2.997219508463e-04 0.0 
0.0 0.0 0.0 
8.724584224185e-06 1.208625704584e-06 0.0 
1.208625704584e-06 1.843798798913e-04 0.0 
0.0 0.0 0.0 
2.289754876039e-05 8.493231185341e-06 0.0 
8.493231185341e-06 9.191977829444e-04 0.0 
0.0 0.0 0.0 
-1.142443071045e-05 7.051734385355e-06 0.0 
7.051734385355e-06 1.010815275388e-03 0.0 
0.0 0.0 0.0 
3.529645525857e-06 5.864761541521e-07 0.0 
5.864761541521e-07 1.257887013555e-04 0.0 
0.0 0.0 0.0 
2.329142693847e-05 -5.236426737612e-06 0.0 
-5.236426737612e-06 4.609417355499e-04 0.0 
0.0 0.0 0.0 
1.298906082869e-05 -6.178899996123e-06 0.0 
-6.178899996123e-06 2.591939184062e-04 0.0 
0.0 0.0 0.0 
-1.338401006667e-05 -6.264471412158e-07 0.0 
-6.264471412158e-07 1.005737216545e-03 0.0 
0.0 0.0 0.0 
2.422093000654e-05 -5.159678791578e-06 0.0 
-5.159678791578e-06 4.879615084781e-04 0.0 
0.0 0.0 0.0 
2.641021028205e-05 1.689993863472e-05 0.0 
1.689993863472e-05 8.522409013239e-04 0.0 
0.0 0.0 0.0 
2.149365047743e-05 -5.896709242416e-06 0.0 
-5.896709242416e-06 4.531294755188e-04 0.0 
0.0 0.0 0.0 
-8.478840127113e-06 -9.500542075077e-07 0.0 
-9.500542075077e-07 1.171603854735e-03 0.0 
0.0 0.0 0.0 
2.234435370707e-05 3.648328940940e-06 0.0 
3.648328940940e-06 3.970357203096e-04 0.0 
0.0 0.0 0.0 
2.269600761085e-05 1.276751229656e-05 0.0 
1.276751229656e-05 9.313885141844e-04 0.0 
0.0 0.0 0.0 
1.563471633159e-05 -7.997750376106e-06 0.0 
-7.997750376106e-06 2.720811963204e-04 0.0 
0.0 0.0 0.0 
2.407545542171e-05 9.742259180456e-06 0.0 
9.742259180456e-06 8.922917572807e-04 0.0 
0.0 0.0 0.0 
2.587786386177e-05 -1.939885771294e-06 0.0 
-1.939885771294e-06 6.713600860528e-04 0.0 
0.0 0.0 0.0 
2.256608402096e-05 1.702722679356e-05 0.0 
1.702722679356e-05 9.449090514377e-04 0.0 
0.0 0.0 0.0 
2.903865174497e-05 3.753435303819e-05 0.0 
3.753435303819e-05 4.759041118025e-04 0.0 
0.0 0.0 0.0 
1.317208082385e-05 3.196626912686e-06 0.0 
3.196626912686e-06 2.568246347787e-04 0.0 
0.0 0.0 0.0 
-1.267380277981e-05 -2.559526543444e-06 0.0 
-2.559526543444e-06 9.481887091609e-04 0.0 
0.0 0.0 0.0 
2.103412650811e-05 2.791628084774e-05 0.0 
2.791628084774e-05 8.846969563607e-04 0.0 
0.0 0.0 0.0 
-2.143184318515e-05 3.681704890071e-05 0.0 
3.681704890071e-05 7.238458726579e-04 0.0 
0.0 0.0 0.0 
-1.225324110199e-05 -2.126170330975e-06 0.0 
-2.126170330975e-06 1.011115607856e-03 0.0 
0.0 0.0 0.0 
1.942640950015e-05 -5.628297965443e-06 0.0 
-5.628297965443e-06 3.074959061209e-04 0.0 
0.0 0.0 0.0 
-1.352366013030e-05 1.016912290124e-05 0.0 
1.016912290124e-05 1.027078115325e-03 0.0 
0.0 0.0 0.0 
1.055869471323e-05 -7.267963722939e-06 0.0 
-7.267963722939e-06 2.316944008214e-04 0.0 
0.0 0.0 0.0 
1.590957242947e-05 1.596283090292e-05 0.0 
1.596283090292e-05 1.063662181623e-03 0.0 
0.0 0.0 0.0 
1.809987247303e-05 3.107675557784e-05 0.0 
3.107675557784e-05 9.270213945023e-04 0.0 
0.0 0.0 0.0 
4.007878110279e-06 3.953330481400e-05 0.0 
3.953330481400e-05 1.014054746139e-03 0.0 
0.0 0.0 0.0 
-7.018826541305e-06 2.945469623619e-06 0.0 
2.945469623619e-06 1.256018405515e-03 0.0 
0.0 0.0 0.0 
2.822735028696e-05 1.186459460710e-05 0.0 
1.186459460710e-05 7.485009775452e-04 0.0 
0.0 0.0 0.0 
1.235945806477e-05 1.197129723418e-06 0.0 
1.197129723418e-06 2.392252994354e-04 0.0 
0.0 0.0 0.0 
2.602992055767e-05 1.237885053559e-05 0.0 
1.237885053559e-05 8.395330011266e-04 0.0 
0.0 0.0 0.0 
1.458539449017e-05 2.961342717489e-05 0.0 
2.961342717489e-05 1.101728389319e-03 0.0 
0.0 0.0 0.0 
2.605990897697e-05 1.160618934996e-06 0.0 
1.160618934996e-06 4.067454606209e-04 0.0 
0.0 0.0 0.0 
2.164554664019e-05 7.170638976609e-06 0.0 
7.170638976609e-06 9.464167549060e-04 0.0 
0.0 0.0 0.0 
-1.098982476944e-05 -1.464331011213e-07 0.0 
-1.464331011213e-07 1.102660392256e-03 0.0 
0.0 0.0 0.0 
2.713347186756e-05 1.223443326291e-05 0.0 
1.223443326291e-05 3.154940310022e-04 0.0 
0.0 0.0 0.0 
2.512997705151e-05 1.101888440170e-05 0.0 
1.101888440170e-05 8.657554607090e-04 0.0 
0.0 0.0 0.0 
-1.508243425463e-05 -9.154939013311e-07 0.0 
-9.154939013311e-07 9.365618975006e-04 0.0 
0.0 0.0 0.0 
1.740683076124e-05 -6.385597786461e-06 0.0 
-6.385597786461e-06 3.552270272800e-04 0.0 
0.0 0.0 0.0 
2.264532507001e-05 -5.515923039549e-06 0.0 
-5.515923039549e-06 4.340098058888e-04 0.0 
0.0 0.0 0.0 
-1.840179027823e-05 3.376874238872e-05 0.0 
3.376874238872e-05 8.381369005257e-04 0.0 
0.0 0.0 0.0 
2.402610605379e-05 1.837558049281e-05 0.0 
1.837558049281e-05 9.176704212706e-04 0.0 
0.0 0.0 0.0 
-2.728192100487e-05 2.310661977644e-05 0.0 
2.310661977644e-05 6.866112668784e-04 0.0 
0.0 0.0 0.0 
-1.609027141647e-05 3.641798705480e-05 0.0 
3.641798705480e-05 7.986947535519e-04 0.0 
0.0 0.0 0.0 
-1.222405587153e-05 1.021805442302e-05 0.0 
1.021805442302e-05 1.061219151537e-03 0.0 
0.0 0.0 0.0 
-1.235666103527e-05 7.272252686249e-06 0.0 
7.272252686249e-06 9.761570059432e-04 0.0 
0.0 0.0 0.0 
-1.438725530600e-05 8.663129762167e-06 0.0 
8.663129762167e-06 9.647268643984e-04 0.0 
0.0 0.0 0.0 
2.680714683323e-05 6.477684165842e-06 0.0 
6.477684165842e-06 6.695090576747e-04 0.0 
0.0 0.0 0.0 
1.663966033427e-05 2.286678956398e-05 0.0 
2.286678956398e-05 1.051131968857e-03 0.0 
0.0 0.0 0.0 
2.675402952534e-05 1.381864061650e-05 0.0 
1.381864061650e-05 8.136522250439e-04 0.0 
0.0 0.0 0.0 
-1.459854692976e-05 -1.542697686413e-06 0.0 
-1.542697686413e-06 9.428312976485e-04 0.0 
0.0 0.0 0.0 
-1.252623699755e-05 2.244038917044e-05 0.0 
2.244038917044e-05 1.233859115376e-03 0.0 
0.0 0.0 0.0 
8.840158032264e-07 4.008756214008e-05 0.0 
4.008756214008e-05 1.055921858041e-03 0.0 
0.0 0.0 0.0 
2.536112843154e-05 1.973411892861e-05 0.0 
1.973411892861e-05 8.907455740095e-04 0.0 
0.0 0.0 0.0 
-9.586638847314e-06 9.827483999735e-06 0.0 
9.827483999735e-06 1.129733798987e-03 0.0 
0.0 0.0 0.0 
2.634907784249e-05 -1.766785432850e-06 0.0 
-1.766785432850e-06 5.062976484118e-04 0.0 
0.0 0.0 0.0 
2.458723525711e-05 -3.916404544542e-06 0.0 
-3.916404544542e-06 4.699028469968e-04 0.0 
0.0 0.0 0.0 
1.202547868107e-05 -9.382166920358e-06 0.0 
-9.382166920358e-06 2.479457131199e-04 0.0 
0.0 0.0 0.0 
2.472927349761e-05 1.571457093488e-05 0.0 
1.571457093488e-05 8.791097096177e-04 0.0 
0.0 0.0 0.0 
2.481508550267e-05 -3.913392708015e-06 0.0 
-3.913392708015e-06 4.968621501880e-04 0.0 
0.0 0.0 0.0 
-1.350181312443e-05 2.702404419527e-07 0.0 
2.702404419527e-07 1.033894437520e-03 0.0 
0.0 0.0 0.0 
-1.474065632179e-05 2.196076441683e-07 0.0 
2.196076441683e-07 9.995733053376e-04 0.0 
0.0 0.0 0.0 
1.491106489215e-05 3.752198518942e-05 0.0 
3.752198518942e-05 7.382024323848e-04 0.0 
0.0 0.0 0.0 
2.454753078673e-05 4.851553435369e-06 0.0 
4.851553435369e-06 4.056002835124e-04 0.0 
0.0 0.0 0.0 
1.698144112128e-05 5.239650821596e-05 0.0 
5.239650821596e-05 4.830823920643e-04 0.0 
0.0 0.0 0.0 
2.478404870265e-05 4.853751899232e-06 0.0 
4.853751899232e-06 4.323903856738e-04 0.0 
0.0 0.0 0.0 
2.698500054943e-05 6.675999617043e-06 0.0 
6.675999617043e-06 4.682548282593e-04 0.0 
0.0 0.0 0.0 
1.515857443368e-05 1.485529824854e-06 0.0 
1.485529824854e-06 2.731219041328e-04 0.0 
0.0 0.0 0.0 
1.773487255385e-05 2.422285572097e-05 0.0 
2.422285572097e-05 1.025872561740e-03 0.0 
0.0 0.0 0.0 
3.132327526889e-05 1.509610483988e-05 0.0 
1.509610483988e-05 5.794519341147e-04 0.0 
0.0 0.0 0.0 
-9.366532570110e-06 7.262041564869e-07 0.0 
7.262041564869e-07 1.165176004171e-03 0.0 
0.0 0.0 0.0 
3.168246142238e-05 1.875996929884e-05 0.0 
1.875996929884e-05 6.177231156073e-04 0.0 
0.0 0.0 0.0 
2.752886023583e-05 2.268313473892e-05 0.0 
2.268313473892e-05 8.379523705764e-04 0.0 
0.0 0.0 0.0 
3.060591088966e-05 1.916431847743e-05 0.0 
1.916431847743e-05 7.078599305619e-04 0.0 
0.0 0.0 0.0 
-8.075659649220e-06 4.074848647012e-05 0.0 
4.074848647012e-05 7.742058289704e-04 0.0 
0.0 0.0 0.0 
1.374834444623e-05 -8.597874555346e-06 0.0 
-8.597874555346e-06 2.747969470314e-04 0.0 
0.0 0.0 0.0 
1.595199595616e-05 3.042067355782e-05 0.0 
3.042067355782e-05 1.074709961519e-03 0.0 
0.0 0.0 0.0 
1.210433641319e-05 2.438426446357e-05 0.0 
2.438426446357e-05 1.121155675053e-03 0.0 
0.0 0.0 0.0 
-1.558537904944e-05 3.958761566139e-05 0.0 
3.958761566139e-05 9.917183012660e-04 0.0 
0.0 0.0 0.0 
2.886689596404e-05 9.087762839257e-06 0.0 
9.087762839257e-06 5.046074872399e-04 0.0 
0.0 0.0 0.0 
2.934364536378e-05 2.095924127436e-05 0.0 
2.095924127436e-05 7.727442568186e-04 0.0 
0.0 0.0 0.0 
-1.228306440693e-05 9.119263571710e-06 0.0 
9.119263571710e-06 1.032864406750e-03 0.0 
0.0 0.0 0.0 
2.634678217439e-05 -2.024944007294e-06 0.0 
-2.024944007294e-06 5.330913116970e-04 0.0 
0.0 0.0 0.0 
-1.957145036235e-05 3.629596998232e-05 0.0 
3.629596998232e-05 6.855227091738e-04 0.0 
0.0 0.0 0.0 
2.025231753544e-05 -6.590100940170e-06 0.0 
-6.590100940170e-06 3.986287567650e-04 0.0 
0.0 0.0 0.0 
2.290090292245e-05 -2.100550296429e-06 0.0 
-2.100550296429e-06 3.437174079624e-04 0.0 
0.0 0.0 0.0 
2.780665318203e-05 9.033708445142e-07 0.0 
9.033708445142e-07 5.432786395358e-04 0.0 
0.0 0.0 0.0 
1.983777749093e-05 2.666556514752e-06 0.0 
2.666556514752e-06 3.617647916707e-04 0.0 
0.0 0.0 0.0 
1.628494763417e-05 -7.401758325962e-06 0.0 
-7.401758325962e-06 3.281620757345e-04 0.0 
0.0 0.0 0.0 
2.869364463720e-05 8.467596183783e-06 0.0 
8.467596183783e-06 7.095108461477e-04 0.0 
0.0 0.0 0.0 
2.654936201174e-05 2.118602354425e-05 0.0 
2.118602354425e-05 8.641884963743e-04 0.0 
0.0 0.0 0.0 
-1.120926915210e-05 4.184645080263e-05 0.0 
4.184645080263e-05 1.147498065985e-03 0.0 
0.0 0.0 0.0 
-1.196515317381e-05 -1.656380672744e-07 0.0 
-1.656380672744e-07 2.266346333313e-05 0.0 
0.0 0.0 0.0 
3.115487608785e-05 2.745134997533e-05 0.0 
2.745134997533e-05 6.072489302387e-04 0.0 
0.0 0.0 0.0 
3.192687190290e-05 2.059415072692e-05 0.0 
2.059415072692e-05 5.923076671219e-04 0.0 
0.0 0.0 0.0 
3.036139607793e-05 1.187108462266e-05 0.0 
1.187108462266e-05 5.416821456787e-04 0.0 
0.0 0.0 0.0 
-1.329701744535e-05 8.961656833775e-06 0.0 
8.961656833775e-06 9.985661743639e-04 0.0 
0.0 0.0 0.0 
3.128737552838e-05 1.724975842182e-05 0.0 
1.724975842182e-05 6.433565065205e-04 0.0 
0.0 0.0 0.0 
2.282587174851e-05 4.048977418185e-06 0.0 
4.048977418185e-06 4.241906651856e-04 0.0 
0.0 0.0 0.0 
2.888185345262e-05 4.167789182167e-06 0.0 
4.167789182167e-06 5.811412323260e-04 0.0 
0.0 0.0 0.0 
-8.980953514315e-06 8.437908353510e-06 0.0 
8.437908353510e-06 1.136071844965e-03 0.0 
0.0 0.0 0.0 
2.053392712975e-05 -6.084082920525e-06 0.0 
-6.084082920525e-06 4.257766816926e-04 0.0 
0.0 0.0 0.0 
6.253795864941e-06 1.039874620397e-06 0.0 
1.039874620397e-06 1.498498429373e-04 0.0 
0.0 0.0 0.0 
1.065071859130e-05 7.808717869085e-07 0.0 
7.808717869085e-07 2.121629167626e-04 0.0 
0.0 0.0 0.0 
2.706313279877e-05 9.250294647841e-06 0.0 
9.250294647841e-06 3.679583400606e-04 0.0 
0.0 0.0 0.0 
2.696198952412e-05 6.922064557949e-06 0.0 
6.922064557949e-06 4.418806756286e-04 0.0 
0.0 0.0 0.0 
3.140580528282e-05 2.491447541165e-05 0.0 
2.491447541165e-05 6.316846628924e-04 0.0 
0.0 0.0 0.0 
2.944825697737e-05 7.761674813676e-06 0.0 
7.761674813676e-06 6.195411145677e-04 0.0 
0.0 0.0 0.0 
1.422255180694e-05 -8.601099966636e-06 0.0 
-8.601099966636e-06 2.448690086372e-04 0.0 
0.0 0.0 0.0 
9.223396092883e-06 -9.567711846230e-06 0.0 
-9.567711846230e-06 2.136907782591e-04 0.0 
0.0 0.0 0.0 
-1.852563373961e-05 7.014444873310e-07 0.0 
7.014444873310e-07 9.575389633945e-04 0.0 
0.0 0.0 0.0 
1.827174895652e-05 -7.373231743241e-06 0.0 
-7.373231743241e-06 3.633036194062e-04 0.0 
0.0 0.0 0.0 
2.131841277841e-05 3.075466260635e-05 0.0 
3.075466260635e-05 9.835766750848e-04 0.0 
0.0 0.0 0.0 
-1.114632869825e-05 4.278672515052e-05 0.0 
4.278672515052e-05 1.109544632885e-03 0.0 
0.0 0.0 0.0 
-2.357680965992e-05 1.100813734278e-05 0.0 
1.100813734278e-05 9.666151890766e-04 0.0 
0.0 0.0 0.0 
-9.956492466823e-06 1.468322677365e-05 0.0 
1.468322677365e-05 1.178516634826e-03 0.0 
0.0 0.0 0.0 
-9.896240247942e-06 4.110980718408e-05 0.0 
4.110980718408e-05 1.184337563046e-03 0.0 
0.0 0.0 0.0 
1.106115460781e-05 4.011938998021e-05 0.0 
4.011938998021e-05 7.202234874781e-04 0.0 
0.0 0.0 0.0 
-1.343449711910e-05 4.111448232239e-05 0.0 
4.111448232239e-05 1.050375984756e-03 0.0 
0.0 0.0 0.0 
1.848829546258e-05 -5.348655456579e-06 0.0 
-5.348655456579e-06 2.811447150377e-04 0.0 
0.0 0.0 0.0 
2.858906777936e-05 3.167890775402e-06 0.0 
3.167890775402e-06 6.071180118716e-04 0.0 
0.0 0.0 0.0 
-1.534787113622e-06 5.092462977571e-05 0.0 
5.092462977571e-05 6.866479429326e-04 0.0 
0.0 0.0 0.0 
2.997038049823e-05 2.095818858888e-05 0.0 
2.095818858888e-05 3.288931920302e-04 0.0 
0.0 0.0 0.0 
1.231732372653e-05 -8.262746733789e-06 0.0 
-8.262746733789e-06 2.199521740991e-04 0.0 
0.0 0.0 0.0 
2.692863097464e-05 6.473533779124e-06 0.0 
6.473533779124e-06 4.952627505574e-04 0.0 
0.0 0.0 0.0 
2.967637501827e-05 9.342175499379e-06 0.0 
9.342175499379e-06 5.942642906731e-04 0.0 
0.0 0.0 0.0 
2.954761685103e-05 1.350134995168e-05 0.0 
1.350134995168e-05 6.335232582377e-04 0.0 
0.0 0.0 0.0 
2.043235491778e-05 2.924712357429e-06 0.0 
2.924712357429e-06 3.887879820139e-04 0.0 
0.0 0.0 0.0 
3.109525926681e-05 2.074714491647e-05 0.0 
2.074714491647e-05 6.820175554616e-04 0.0 
0.0 0.0 0.0 
2.945623676265e-05 1.589460247211e-05 0.0 
1.589460247211e-05 6.092603887271e-04 0.0 
0.0 0.0 0.0 
2.935834457563e-05 3.186234418207e-05 0.0 
3.186234418207e-05 6.481272024754e-04 0.0 
0.0 0.0 0.0 
2.432263275320e-05 -3.775508132921e-06 0.0 
-3.775508132921e-06 4.434855169710e-04 0.0 
0.0 0.0 0.0 
1.341955104417e-05 3.526672448464e-05 0.0 
3.526672448464e-05 9.484889143823e-04 0.0 
0.0 0.0 0.0 
-1.377743815401e-05 1.564776268480e-06 0.0 
1.564776268480e-06 1.062223627518e-03 0.0 
0.0 0.0 0.0 
2.818280502792e-05 3.510474450316e-05 0.0 
3.510474450316e-05 6.254236242698e-04 0.0 
0.0 0.0 0.0 
1.788509906486e-05 3.245095756152e-05 0.0 
3.245095756152e-05 1.049673261675e-03 0.0 
0.0 0.0 0.0 
2.245741428197e-05 -1.134725188099e-06 0.0 
-1.134725188099e-06 3.175249335474e-04 0.0 
0.0 0.0 0.0 
1.268131324017e-05 3.999789143562e-05 0.0 
3.999789143562e-05 1.134637169724e-03 0.0 
0.0 0.0 0.0 
3.136083349364e-05 2.266140305662e-05 0.0 
2.266140305662e-05 6.564655530819e-04 0.0 
0.0 0.0 0.0 
-8.037957882845e-06 4.228430530249e-05 0.0 
4.228430530249e-05 1.225892555345e-03 0.0 
0.0 0.0 0.0 
-2.360739528706e-05 2.248390876125e-05 0.0 
2.248390876125e-05 9.672399994565e-04 0.0 
0.0 0.0 0.0 
2.330329386679e-05 6.562983632014e-06 0.0 
6.562983632014e-06 3.056027479602e-04 0.0 
0.0 0.0 0.0 
-2.344588723802e-05 1.390884954868e-05 0.0 
1.390884954868e-05 9.909690081020e-04 0.0 
0.0 0.0 0.0 
-1.058285104516e-05 1.921632649227e-05 0.0 
1.921632649227e-05 1.197658959372e-03 0.0 
0.0 0.0 0.0 
3.032200097519e-05 2.657659546190e-05 0.0 
2.657659546190e-05 6.961310432996e-04 0.0 
0.0 0.0 0.0 
-1.235648104092e-05 4.408228170196e-05 0.0 
4.408228170196e-05 5.969035277700e-04 0.0 
0.0 0.0 0.0 
-2.292344156429e-05 1.694828934432e-05 0.0 
1.694828934432e-05 1.014844089927e-03 0.0 
0.0 0.0 0.0 
-1.990873895019e-05 3.805396615607e-05 0.0 
3.805396615607e-05 7.803429453486e-04 0.0 
0.0 0.0 0.0 
1.818022731581e-05 4.107888949003e-06 0.0 
4.107888949003e-06 2.427692533620e-04 0.0 
0.0 0.0 0.0 
-4.280477380103e-06 1.772297557816e-05 0.0 
1.772297557816e-05 1.301912737222e-03 0.0 
0.0 0.0 0.0 
1.258434637008e-05 2.193277634413e-06 0.0 
2.193277634413e-06 2.088023154971e-04 0.0 
0.0 0.0 0.0 
4.523745469776e-06 4.192566626617e-05 0.0 
4.192566626617e-05 1.160223293538e-03 0.0 
0.0 0.0 0.0 
-6.609408390035e-06 1.016982620945e-05 0.0 
1.016982620945e-05 1.225804777248e-03 0.0 
0.0 0.0 0.0 
1.490847788177e-05 3.364887216576e-05 0.0 
3.364887216576e-05 9.697868865797e-04 0.0 
0.0 0.0 0.0 
-1.325695326326e-05 8.362836393243e-06 0.0 
8.362836393243e-06 9.695527502287e-04 0.0 
0.0 0.0 0.0 
-1.205189940789e-05 4.419122876014e-06 0.0 
4.419122876014e-06 1.152237250828e-03 0.0 
0.0 0.0 0.0 
2.832138528075e-05 2.046964208612e-05 0.0 
2.046964208612e-05 6.499850961568e-04 0.0 
0.0 0.0 0.0 
1.376782069351e-05 3.698939341740e-05 0.0 
3.698939341740e-05 8.014329718049e-04 0.0 
0.0 0.0 0.0 
-6.997423000921e-06 1.607360986844e-05 0.0 
1.607360986844e-05 1.239255775453e-03 0.0 
0.0 0.0 0.0 
2.394055233679e-05 2.277964662834e-05 0.0 
2.277964662834e-05 9.298218996072e-04 0.0 
0.0 0.0 0.0 
-1.381067368555e-05 3.101347096306e-06 0.0 
3.101347096306e-06 1.090277167906e-03 0.0 
0.0 0.0 0.0 
2.213563058695e-05 3.631417910660e-05 0.0 
3.631417910660e-05 9.070123600807e-04 0.0 
0.0 0.0 0.0 
2.299655464633e-05 7.391927021328e-06 0.0 
7.391927021328e-06 2.791120920880e-04 0.0 
0.0 0.0 0.0 
-1.368367494825e-05 4.758045297967e-06 0.0 
4.758045297967e-06 1.117916791107e-03 0.0 
0.0 0.0 0.0 
-4.787650397575e-06 4.672961159882e-05 0.0 
4.672961159882e-05 1.280506431115e-03 0.0 
0.0 0.0 0.0 
1.379739180996e-05 3.497496283622e-05 0.0 
3.497496283622e-05 1.118784043038e-03 0.0 
0.0 0.0 0.0 
3.089953381297e-05 1.395078363517e-05 0.0 
1.395078363517e-05 6.054608282267e-04 0.0 
0.0 0.0 0.0 
-1.430958883708e-05 -1.038678304468e-06 0.0 
-1.038678304468e-06 9.704298650244e-04 0.0 
0.0 0.0 0.0 
-1.419998267793e-05 8.064546022468e-06 0.0 
8.064546022468e-06 9.355299778306e-04 0.0 
0.0 0.0 0.0 
2.940886274927e-05 1.140610615050e-05 0.0 
1.140610615050e-05 6.582050186767e-04 0.0 
0.0 0.0 0.0 
2.517349425912e-05 2.436121349828e-05 0.0 
2.436121349828e-05 9.034845625486e-04 0.0 
0.0 0.0 0.0 
2.343490683265e-05 2.756217267942e-05 0.0 
2.756217267942e-05 9.432395268643e-04 0.0 
0.0 0.0 0.0 
8.355391341919e-06 -9.842244344931e-06 0.0 
-9.842244344931e-06 1.861187089200e-04 0.0 
0.0 0.0 0.0 
1.827493619633e-05 5.385331906942e-05 0.0 
5.385331906942e-05 4.186706770679e-04 0.0 
0.0 0.0 0.0 
2.496261025908e-05 3.918854486499e-05 0.0 
3.918854486499e-05 6.683566052057e-04 0.0 
0.0 0.0 0.0 
2.750493089732e-05 2.347323564477e-05 0.0 
2.347323564477e-05 6.273795048697e-04 0.0 
0.0 0.0 0.0 
-1.415922352266e-05 4.438353265984e-05 0.0 
4.438353265984e-05 7.572628420927e-04 0.0 
0.0 0.0 0.0 
-6.442207792001e-06 7.150604677452e-06 0.0 
7.150604677452e-06 1.273730655813e-03 0.0 
0.0 0.0 0.0 
-1.200983684291e-05 2.787997069828e-05 0.0 
2.787997069828e-05 1.204457243650e-03 0.0 
0.0 0.0 0.0 
-7.411451014794e-06 1.652654803062e-06 0.0 
1.652654803062e-06 1.226472436074e-03 0.0 
0.0 0.0 0.0 
-2.764519041021e-05 2.023718199541e-05 0.0 
2.023718199541e-05 7.231356950821e-04 0.0 
0.0 0.0 0.0 
-1.301191929226e-05 1.730464920513e-05 0.0 
1.730464920513e-05 1.136870913903e-03 0.0 
0.0 0.0 0.0 
2.380573965999e-05 1.422745683479e-05 0.0 
1.422745683479e-05 9.050329252771e-04 0.0 
0.0 0.0 0.0 
-6.884415341801e-06 1.392090170836e-05 0.0 
1.392090170836e-05 1.246987984641e-03 0.0 
0.0 0.0 0.0 
-1.531918871422e-05 4.943316713636e-06 0.0 
4.943316713636e-06 1.083559079097e-03 0.0 
0.0 0.0 0.0 
2.911207790190e-05 6.354204413425e-06 0.0 
6.354204413425e-06 6.450587740232e-04 0.0 
0.0 0.0 0.0 
2.247443199432e-05 4.262575393704e-05 0.0 
4.262575393704e-05 6.476141468494e-04 0.0 
0.0 0.0 0.0 
-1.201233825154e-05 1.322543070106e-05 0.0 
1.322543070106e-05 1.116924213039e-03 0.0 
0.0 0.0 0.0 
-9.727273552973e-06 5.611109375496e-06 0.0 
5.611109375496e-06 1.213931442021e-03 0.0 
0.0 0.0 0.0 
-1.069467527037e-05 1.151859660745e-05 0.0 
1.151859660745e-05 1.123413406806e-03 0.0 
0.0 0.0 0.0 
-1.219740968206e-05 1.165145806527e-05 0.0 
1.165145806527e-05 1.089276834141e-03 0.0 
0.0 0.0 0.0 
1.856530867639e-05 2.781286096583e-05 0.0 
2.781286096583e-05 1.035548561529e-03 0.0 
0.0 0.0 0.0 
2.962549986663e-06 4.165143275871e-05 0.0 
4.165143275871e-05 1.139263596584e-03 0.0 
0.0 0.0 0.0 
2.024348574103e-05 2.921855595340e-05 0.0 
2.921855595340e-05 1.009152372035e-03 0.0 
0.0 0.0 0.0 
2.853150086390e-05 1.950552590895e-05 0.0 
1.950552590895e-05 7.989200654768e-04 0.0 
0.0 0.0 0.0 
-2.481695577838e-05 1.401988238330e-05 0.0 
1.401988238330e-05 7.150364093271e-04 0.0 
0.0 0.0 0.0 
1.153213084715e-05 3.619393911704e-05 0.0 
3.619393911704e-05 1.011921615873e-03 0.0 
0.0 0.0 0.0 
-1.645945749706e-05 1.782210130633e-05 0.0 
1.782210130633e-05 1.068531458786e-03 0.0 
0.0 0.0 0.0 
1.746304359296e-05 2.239130379728e-06 0.0 
2.239130379728e-06 3.266983049504e-04 0.0 
0.0 0.0 0.0 
2.505792429575e-05 2.795692777910e-05 0.0 
2.795692777910e-05 6.701652152024e-04 0.0 
0.0 0.0 0.0 
2.511314043407e-05 3.648974364658e-05 0.0 
3.648974364658e-05 7.540884421884e-04 0.0 
0.0 0.0 0.0 
1.257515947883e-05 3.674634105191e-05 0.0 
3.674634105191e-05 8.647081700928e-04 0.0 
0.0 0.0 0.0 
3.082516063069e-05 3.385939424572e-05 0.0 
3.385939424572e-05 3.440761668994e-04 0.0 
0.0 0.0 0.0 
2.315961516475e-05 3.146311207257e-05 0.0 
3.146311207257e-05 6.494900790410e-04 0.0 
0.0 0.0 0.0 
1.128296683950e-05 3.679657761256e-05 0.0 
3.679657761256e-05 9.280542241554e-04 0.0 
0.0 0.0 0.0 
-2.522748772016e-05 2.110794279601e-05 0.0 
2.110794279601e-05 7.941664864151e-04 0.0 
0.0 0.0 0.0 
3.072832245787e-05 1.590552259955e-05 0.0 
1.590552259955e-05 6.695608691292e-04 0.0 
0.0 0.0 0.0 
-1.649717914587e-05 3.160996425464e-06 0.0 
3.160996425464e-06 1.021214725491e-03 0.0 
0.0 0.0 0.0 
-1.414871828387e-05 5.165245266498e-06 0.0 
5.165245266498e-06 8.392798688266e-04 0.0 
0.0 0.0 0.0 
-1.152468390775e-05 2.794941145411e-05 0.0 
2.794941145411e-05 2.396348013469e-04 0.0 
0.0 0.0 0.0 
2.765044234332e-05 1.046158056889e-05 0.0 
1.046158056889e-05 7.743580846178e-04 0.0 
0.0 0.0 0.0 
1.621623466708e-05 4.161868709679e-05 0.0 
4.161868709679e-05 9.903025187263e-04 0.0 
0.0 0.0 0.0 
-9.869687378372e-06 2.760394947894e-05 0.0 
2.760394947894e-05 1.238082960691e-03 0.0 
0.0 0.0 0.0 
1.677289118263e-05 4.489722743678e-05 0.0 
4.489722743678e-05 7.558351568475e-04 0.0 
0.0 0.0 0.0 
2.993459815048e-05 1.777502409128e-05 0.0 
1.777502409128e-05 7.340683887291e-04 0.0 
0.0 0.0 0.0 
-1.525938951230e-05 1.680194266064e-06 0.0 
1.680194266064e-06 1.028042294467e-03 0.0 
0.0 0.0 0.0 
-1.479159181417e-05 1.994200103826e-05 0.0 
1.994200103826e-05 3.115669972704e-04 0.0 
0.0 0.0 0.0 
1.496290003855e-05 4.316452534275e-05 0.0 
4.316452534275e-05 9.683531258129e-04 0.0 
0.0 0.0 0.0 
1.655674300260e-05 3.468971595145e-05 0.0 
3.468971595145e-05 8.210228577163e-04 0.0 
0.0 0.0 0.0 
-2.712357234125e-05 1.444522350993e-05 0.0 
1.444522350993e-05 8.295523513124e-04 0.0 
0.0 0.0 0.0 
2.215007448925e-05 1.759862677517e-05 0.0 
1.759862677517e-05 9.447508653257e-04 0.0 
0.0 0.0 0.0 
2.539618161834e-05 6.887146116973e-06 0.0 
6.887146116973e-06 3.307188480945e-04 0.0 
0.0 0.0 0.0 
2.014833618880e-05 2.092032059771e-05 0.0 
2.092032059771e-05 9.850787307153e-04 0.0 
0.0 0.0 0.0 
1.520402044397e-05 3.596295459904e-05 0.0 
3.596295459904e-05 1.090886196869e-03 0.0 
0.0 0.0 0.0 
1.306376451171e-05 4.457674723890e-05 0.0 
4.457674723890e-05 9.470946433938e-04 0.0 
0.0 0.0 0.0 
-1.225137860994e-05 2.883940258833e-06 0.0 
2.883940258833e-06 1.124450688511e-03 0.0 
0.0 0.0 0.0 
-8.781326114260e-06 3.834075243127e-05 0.0 
3.834075243127e-05 1.091386294144e-03 0.0 
0.0 0.0 0.0 
1.406302473805e-05 2.617522626492e-05 0.0 
2.617522626492e-05 1.092131745588e-03 0.0 
0.0 0.0 0.0 
-1.860065922965e-05 1.596145557808e-05 0.0 
1.596145557808e-05 3.787624117295e-04 0.0 
0.0 0.0 0.0 
-1.523778474410e-05 3.301401625716e-06 0.0 
3.301401625716e-06 1.055948132569e-03 0.0 
0.0 0.0 0.0 
-1.314897004945e-06 4.236363467052e-05 0.0 
4.236363467052e-05 1.157435596982e-03 0.0 
0.0 0.0 0.0 
-1.046823159989e-05 1.304837615192e-05 0.0 
1.304837615192e-05 1.151211830259e-03 0.0 
0.0 0.0 0.0 
1.436411201872e-05 4.438455150746e-05 0.0 
4.438455150746e-05 8.833037642937e-04 0.0 
0.0 0.0 0.0 
1.928219010727e-05 3.495226190129e-05 0.0 
3.495226190129e-05 6.936176874990e-04 0.0 
0.0 0.0 0.0 
2.828271266675e-05 1.055438638247e-05 0.0 
1.055438638247e-05 7.131276171473e-04 0.0 
0.0 0.0 0.0 
2.834689544073e-05 3.172056070713e-05 0.0 
3.172056070713e-05 1.883802097447e-04 0.0 
0.0 0.0 0.0 
-8.829946329891e-06 1.275908326307e-05 0.0 
1.275908326307e-05 1.185277274919e-03 0.0 
0.0 0.0 0.0 
1.854419372482e-05 3.059459849368e-06 0.0 
3.059459849368e-06 3.540038840997e-04 0.0 
0.0 0.0 0.0 
-2.100006510219e-05 1.189793832037e-05 0.0 
1.189793832037e-05 4.425480092640e-04 0.0 
0.0 0.0 0.0 
-1.157336394086e-05 3.674081173994e-05 0.0 
3.674081173994e-05 1.071173462022e-03 0.0 
0.0 0.0 0.0 
-5.772953847072e-06 1.161470185384e-05 0.0 
1.161470185384e-05 1.254903762720e-03 0.0 
0.0 0.0 0.0 
2.196229638107e-05 4.330562775261e-07 0.0 
4.330562775261e-07 2.921249208065e-04 0.0 
0.0 0.0 0.0 
-2.006925207843e-05 3.134747955463e-05 0.0 
3.134747955463e-05 8.767734690078e-04 0.0 
0.0 0.0 0.0 
-1.346402589708e-05 1.339807895017e-05 0.0 
1.339807895017e-05 1.082583193788e-03 0.0 
0.0 0.0 0.0 
2.813743659802e-05 4.379862343042e-06 0.0 
4.379862343042e-06 6.978719630126e-04 0.0 
0.0 0.0 0.0 
2.691861720794e-05 1.809691587680e-05 0.0 
1.809691587680e-05 3.465876070932e-04 0.0 
0.0 0.0 0.0 
-9.869548416419e-06 5.219141053780e-05 0.0 
5.219141053780e-05 5.518505685522e-04 0.0 
0.0 0.0 0.0 
1.787910395246e-05 3.854707634834e-06 0.0 
3.854707634834e-06 2.178918414655e-04 0.0 
0.0 0.0 0.0 
2.714504776824e-05 1.429491994006e-05 0.0 
1.429491994006e-05 2.903872300675e-04 0.0 
0.0 0.0 0.0 
2.236424198165e-05 8.678963153168e-06 0.0 
8.678963153168e-06 2.544654140739e-04 0.0 
0.0 0.0 0.0 
1.559101826731e-05 4.449725699240e-05 0.0 
4.449725699240e-05 8.195670448221e-04 0.0 
0.0 0.0 0.0 
-2.552118100851e-06 2.011329813628e-05 0.0 
2.011329813628e-05 1.369046437287e-03 0.0 
0.0 0.0 0.0 
-2.209147820498e-05 9.918249745570e-06 0.0 
9.918249745570e-06 5.076748964539e-04 0.0 
0.0 0.0 0.0 
1.685681095220e-05 2.581395883487e-05 0.0 
2.581395883487e-05 1.062059142804e-03 0.0 
0.0 0.0 0.0 
1.490945294180e-05 4.955885224699e-05 0.0 
4.955885224699e-05 6.103475082180e-04 0.0 
0.0 0.0 0.0 
-1.697515443633e-05 4.994710970766e-06 0.0 
4.994710970766e-06 1.049524917144e-03 0.0 
0.0 0.0 0.0 
2.946076226307e-05 3.696361233170e-05 0.0 
3.696361233170e-05 2.553397909855e-04 0.0 
0.0 0.0 0.0 
1.071041205458e-05 2.993429628305e-05 0.0 
2.993429628305e-05 1.134064179314e-03 0.0 
0.0 0.0 0.0 
1.785038138258e-05 -4.455056127678e-06 0.0 
-4.455056127678e-06 2.557181526479e-04 0.0 
0.0 0.0 0.0 
2.167883316351e-05 3.820464103632e-06 0.0 
3.820464103632e-06 4.179978008247e-04 0.0 
0.0 0.0 0.0 
9.544084187185e-06 4.621568385738e-05 0.0 
4.621568385738e-05 9.900784111536e-04 0.0 
0.0 0.0 0.0 
2.868050827143e-05 1.768305650655e-05 0.0 
1.768305650655e-05 6.732928258228e-04 0.0 
0.0 0.0 0.0 
9.168394061732e-07 4.147713953018e-05 0.0 
4.147713953018e-05 1.118466693602e-03 0.0 
0.0 0.0 0.0 
-2.145082803962e-05 3.545117317814e-05 0.0 
3.545117317814e-05 6.289805373927e-04 0.0 
0.0 0.0 0.0 
-1.715531434809e-05 9.716837452531e-06 0.0 
9.716837452531e-06 1.103765353069e-03 0.0 
0.0 0.0 0.0 
5.873898138775e-06 5.046687135002e-05 0.0 
5.046687135002e-05 1.158909036847e-03 0.0 
0.0 0.0 0.0 
-1.361192317118e-05 1.178298911144e-05 0.0 
1.178298911144e-05 1.055006405703e-03 0.0 
0.0 0.0 0.0 
-1.249579496032e-05 1.993886626274e-05 0.0 
1.993886626274e-05 1.239247842446e-03 0.0 
0.0 0.0 0.0 
-1.350929640809e-05 6.652874326056e-06 0.0 
6.652874326056e-06 1.145082636117e-03 0.0 
0.0 0.0 0.0 
-1.324334153174e-05 8.738245624610e-06 0.0 
8.738245624610e-06 1.172132360558e-03 0.0 
0.0 0.0 0.0 
1.231684081437e-05 6.020612856895e-05 0.0 
6.020612856895e-05 3.428208196181e-04 0.0 
0.0 0.0 0.0 
1.908334571188e-05 2.244878536062e-05 0.0 
2.244878536062e-05 1.022065335743e-03 0.0 
0.0 0.0 0.0 
-1.327909980098e-05 1.519122730282e-05 0.0 
1.519122730282e-05 1.110014042470e-03 0.0 
0.0 0.0 0.0 
3.992983923284e-06 4.946768422809e-05 0.0 
4.946768422809e-05 7.632046033301e-04 0.0 
0.0 0.0 0.0 
-2.343936642657e-05 8.859325844022e-06 0.0 
8.859325844022e-06 5.728600902282e-04 0.0 
0.0 0.0 0.0 
2.532425842583e-06 4.375971937940e-05 0.0 
4.375971937940e-05 1.200524892236e-03 0.0 
0.0 0.0 0.0 
2.492341135563e-05 4.853540727531e-05 0.0 
4.853540727531e-05 3.689868731522e-04 0.0 
0.0 0.0 0.0 
1.948850695621e-05 -7.035113458032e-06 0.0 
-7.035113458032e-06 3.902339571291e-04 0.0 
0.0 0.0 0.0 
3.769067293602e-06 4.892900667960e-05 0.0 
4.892900667960e-05 1.075518197914e-03 0.0 
0.0 0.0 0.0 
1.082290093346e-05 -4.780466478325e-06 0.0 
-4.780466478325e-06 2.304915544433e-04 0.0 
0.0 0.0 0.0 
-1.162933094412e-05 3.869934086579e-05 0.0 
3.869934086579e-05 8.157604526615e-04 0.0 
0.0 0.0 0.0 
1.156322396945e-05 4.505638647933e-05 0.0 
4.505638647933e-05 1.010738028257e-03 0.0 
0.0 0.0 0.0 
-1.050277464565e-05 1.074281979616e-05 0.0 
1.074281979616e-05 1.231331869537e-03 0.0 
0.0 0.0 0.0 
-9.885898582529e-06 1.330355936928e-05 0.0 
1.330355936928e-05 1.258789186266e-03 0.0 
0.0 0.0 0.0 
9.803624559712e-06 3.722125218147e-05 0.0 
3.722125218147e-05 9.913864262234e-04 0.0 
0.0 0.0 0.0 
-1.169314980343e-05 6.189080204725e-06 0.0 
6.189080204725e-06 1.179535156453e-03 0.0 
0.0 0.0 0.0 
9.237247491134e-06 5.073259322083e-05 0.0 
5.073259322083e-05 6.565194737227e-04 0.0 
0.0 0.0 0.0 
-1.515913068140e-05 3.314636022664e-05 0.0 
3.314636022664e-05 1.089819124044e-03 0.0 
0.0 0.0 0.0 
-2.369215524667e-05 8.199926728328e-06 0.0 
8.199926728328e-06 6.378013695019e-04 0.0 
0.0 0.0 0.0 
-1.127871797313e-05 3.435182452030e-05 0.0 
3.435182452030e-05 1.213459506473e-03 0.0 
0.0 0.0 0.0 
-2.347113274226e-05 8.075324473889e-06 0.0 
8.075324473889e-06 7.025482516376e-04 0.0 
0.0 0.0 0.0 
-2.096130356266e-05 7.308218388540e-06 0.0 
7.308218388540e-06 7.342095527283e-04 0.0 
0.0 0.0 0.0 
1.319588165871e-05 4.732664106299e-05 0.0 
4.732664106299e-05 7.367738943536e-04 0.0 
0.0 0.0 0.0 
-2.224382500371e-05 8.837534055046e-06 0.0 
8.837534055046e-06 7.675693449600e-04 0.0 
0.0 0.0 0.0 
-6.219761052639e-06 3.957498585367e-05 0.0 
3.957498585367e-05 8.915900038851e-04 0.0 
0.0 0.0 0.0 
-3.819476467104e-06 4.251690258278e-05 0.0 
4.251690258278e-05 7.315277728956e-04 0.0 
0.0 0.0 0.0 
2.177603487619e-05 3.167712996777e-05 0.0 
3.167712996777e-05 7.134118386722e-04 0.0 
0.0 0.0 0.0 
3.036297839798e-05 2.500544162585e-05 0.0 
2.500544162585e-05 3.022093130032e-04 0.0 
0.0 0.0 0.0 
1.796745207328e-05 4.548828266492e-05 0.0 
4.548828266492e-05 6.920260259446e-04 0.0 
0.0 0.0 0.0 
-8.297271827162e-06 1.432210709878e-05 0.0 
1.432210709878e-05 1.212889716895e-03 0.0 
0.0 0.0 0.0 
-1.012162144687e-05 3.253657261974e-05 0.0 
3.253657261974e-05 1.233349199560e-03 0.0 
0.0 0.0 0.0 
2.252013366433e-05 2.117145459096e-05 0.0 
2.117145459096e-05 9.563779548842e-04 0.0 
0.0 0.0 0.0 
3.724331814059e-06 5.015398583624e-05 0.0 
5.015398583624e-05 1.137993669147e-03 0.0 
0.0 0.0 0.0 
3.002841278477e-05 2.902953857394e-05 0.0 
2.902953857394e-05 6.715132757544e-04 0.0 
0.0 0.0 0.0 
-1.111058105108e-05 1.707756664851e-05 0.0 
1.707756664851e-05 1.171119108083e-03 0.0 
0.0 0.0 0.0 
2.106685759462e-05 4.246541672756e-05 0.0 
4.246541672756e-05 7.118033660782e-04 0.0 
0.0 0.0 0.0 
1.753180305619e-05 2.111081776331e-05 0.0 
2.111081776331e-05 1.049145056773e-03 0.0 
0.0 0.0 0.0 
-1.162482308548e-05 1.495485391951e-05 0.0 
1.495485391951e-05 1.144099375007e-03 0.0 
0.0 0.0 0.0 
-1.524627638816e-05 9.238981434180e-06 0.0 
9.238981434180e-06 1.137882384938e-03 0.0 
0.0 0.0 0.0 
1.664590619233e-05 4.259233640712e-05 0.0 
4.259233640712e-05 9.040495666985e-04 0.0 
0.0 0.0 0.0 
1.400137049123e-05 4.834422897089e-05 0.0 
4.834422897089e-05 6.735794763801e-04 0.0 
0.0 0.0 0.0 
-1.282612912901e-05 3.504161645827e-05 0.0 
3.504161645827e-05 1.147957443988e-03 0.0 
0.0 0.0 0.0 
-2.161357894159e-05 2.871752310283e-05 0.0 
2.871752310283e-05 9.663871320698e-04 0.0 
0.0 0.0 0.0 
2.478546915241e-05 9.192887423846e-06 0.0 
9.192887423846e-06 3.047677554024e-04 0.0 
0.0 0.0 0.0 
2.455918224586e-05 3.343626439939e-05 0.0 
3.343626439939e-05 3.714070594070e-04 0.0 
0.0 0.0 0.0 
-1.734086895500e-05 4.336537403426e-05 0.0 
4.336537403426e-05 6.430353382685e-04 0.0 
0.0 0.0 0.0 
-1.944513206553e-05 3.685263970279e-05 0.0 
3.685263970279e-05 8.760013543321e-04 0.0 
0.0 0.0 0.0 
1.552796163051e-05 1.963409524039e-05 0.0 
1.963409524039e-05 1.077237816414e-03 0.0 
0.0 0.0 0.0 
-1.541150291740e-05 6.929798716228e-06 0.0 
6.929798716228e-06 1.111002911230e-03 0.0 
0.0 0.0 0.0 
1.598223249721e-05 3.825679688710e-05 0.0 
3.825679688710e-05 6.751114781736e-04 0.0 
0.0 0.0 0.0 
-1.924798067121e-05 3.039362801945e-05 0.0 
3.039362801945e-05 9.724099609054e-04 0.0 
0.0 0.0 0.0 
1.311536214232e-05 4.437802960197e-05 0.0 
4.437802960197e-05 1.033140911959e-03 0.0 
0.0 0.0 0.0 
-1.030284057590e-05 4.075326178506e-06 0.0 
4.075326178506e-06 1.186346355099e-03 0.0 
0.0 0.0 0.0 
-1.304231738219e-05 3.532901270482e-05 0.0 
3.532901270482e-05 1.184968733741e-03 0.0 
0.0 0.0 0.0 
-1.631019113757e-05 1.319495980679e-05 0.0 
1.319495980679e-05 1.014777918988e-03 0.0 
0.0 0.0 0.0 
1.653945024160e-05 3.875686568284e-05 0.0 
3.875686568284e-05 1.041640988815e-03 0.0 
0.0 0.0 0.0 
1.795506265223e-05 3.473334667857e-05 0.0 
3.473334667857e-05 7.573589998240e-04 0.0 
0.0 0.0 0.0 
1.253714457672e-05 3.487297169442e-05 0.0 
3.487297169442e-05 1.034019411396e-03 0.0 
0.0 0.0 0.0 
-1.262202542152e-05 4.447959152882e-05 0.0 
4.447959152882e-05 8.149023069297e-04 0.0 
0.0 0.0 0.0 
-9.232959574890e-06 7.947867953877e-06 0.0 
7.947867953877e-06 1.240094048876e-03 0.0 
0.0 0.0 0.0 
-1.092295773808e-05 3.353039684101e-05 0.0 
3.353039684101e-05 1.226431077950e-03 0.0 
0.0 0.0 0.0 
1.818694708300e-05 4.232993235963e-05 0.0 
4.232993235963e-05 8.398802902772e-04 0.0 
0.0 0.0 0.0 
2.933371044023e-05 4.037054573717e-05 0.0 
4.037054573717e-05 3.216460502997e-04 0.0 
0.0 0.0 0.0 
-5.204914968804e-06 4.742604393168e-05 0.0 
4.742604393168e-05 1.110139022744e-03 0.0 
0.0 0.0 0.0 
-1.035078644374e-05 3.841322759032e-05 0.0 
3.841322759032e-05 8.738004851956e-04 0.0 
0.0 0.0 0.0 
1.179059307832e-05 4.138514140719e-05 0.0 
4.138514140719e-05 6.579615686104e-04 0.0 
0.0 0.0 0.0 
1.506017458808e-05 3.484459016518e-05 0.0 
3.484459016518e-05 8.847261810401e-04 0.0 
0.0 0.0 0.0 
1.840741894976e-05 2.564151660762e-05 0.0 
2.564151660762e-05 1.001031570491e-03 0.0 
0.0 0.0 0.0 
2.634909160304e-05 2.380993567595e-05 0.0 
2.380993567595e-05 3.243479497030e-04 0.0 
0.0 0.0 0.0 
1.964306763202e-05 4.228367275246e-05 0.0 
4.228367275246e-05 7.758447748201e-04 0.0 
0.0 0.0 0.0 
-2.053039666294e-05 2.374161218341e-05 0.0 
2.374161218341e-05 1.013921711513e-03 0.0 
0.0 0.0 0.0 
1.483717922923e-05 9.634947477071e-06 0.0 
9.634947477071e-06 1.078640573282e-03 0.0 
0.0 0.0 0.0 
-1.969599868723e-05 2.679027308734e-05 0.0 
2.679027308734e-05 1.037125249955e-03 0.0 
0.0 0.0 0.0 
-7.884820537041e-06 4.593578961296e-05 0.0 
4.593578961296e-05 1.090276749398e-03 0.0 
0.0 0.0 0.0 
-2.101237267571e-05 2.073650853549e-05 0.0 
2.073650853549e-05 9.900588904690e-04 0.0 
0.0 0.0 0.0 
-2.161552373647e-05 1.566473017977e-05 0.0 
1.566473017977e-05 9.404235340540e-04 0.0 
0.0 0.0 0.0 
-2.015589337678e-05 3.205656401274e-05 0.0 
3.205656401274e-05 9.880009517669e-04 0.0 
0.0 0.0 0.0 
5.913250447742e-06 4.901431024533e-05 0.0 
4.901431024533e-05 1.096137517463e-03 0.0 
0.0 0.0 0.0 
1.965316367825e-05 1.439354753705e-05 0.0 
1.439354753705e-05 9.973434539798e-04 0.0 
0.0 0.0 0.0 
-1.495536398877e-05 1.522945858769e-05 0.0 
1.522945858769e-05 1.076026612391e-03 0.0 
0.0 0.0 0.0 
-7.865687385977e-06 2.063130266563e-05 0.0 
2.063130266563e-05 1.257862452409e-03 0.0 
0.0 0.0 0.0 
-2.125534224973e-05 1.795991316045e-05 0.0 
1.795991316045e-05 9.656556090394e-04 0.0 
0.0 0.0 0.0 
1.808278015658e-05 3.991633339850e-05 0.0 
3.991633339850e-05 5.486259914351e-04 0.0 
0.0 0.0 0.0 
-7.337038029687e-06 3.975030795328e-05 0.0 
3.975030795328e-05 1.150880551773e-03 0.0 
0.0 0.0 0.0 
-7.652373977596e-06 4.777428632003e-06 0.0 
4.777428632003e-06 1.248046132541e-03 0.0 
0.0 0.0 0.0 
-4.963090581400e-06 4.823356120444e-05 0.0 
4.823356120444e-05 7.894456073969e-04 0.0 
0.0 0.0 0.0 
-8.357268064141e-06 4.654063991171e-05 0.0 
4.654063991171e-05 8.317288089543e-04 0.0 
0.0 0.0 0.0 
1.703214681714e-05 3.905456965258e-05 0.0 
3.905456965258e-05 6.119785987191e-04 0.0 
0.0 0.0 0.0 
-1.480815413435e-05 1.759543670728e-05 0.0 
1.759543670728e-05 1.102710791985e-03 0.0 
0.0 0.0 0.0 
-2.390710402822e-05 3.203877129654e-05 0.0 
3.203877129654e-05 7.056042937710e-04 0.0 
0.0 0.0 0.0 
-3.233634704225e-06 4.758667990529e-05 0.0 
4.758667990529e-05 9.086477977616e-04 0.0 
0.0 0.0 0.0 
-2.505144324949e-05 2.813722659163e-05 0.0 
2.813722659163e-05 7.061401389130e-04 0.0 
0.0 0.0 0.0 
6.407324379509e-06 4.774193069521e-05 0.0 
4.774193069521e-05 1.033015888688e-03 0.0 
0.0 0.0 0.0 
-5.615936861325e-06 4.226582279540e-05 0.0 
4.226582279540e-05 1.208499126946e-03 0.0 
0.0 0.0 0.0 
2.050823047406e-05 3.518745189753e-05 0.0 
3.518745189753e-05 6.300133545936e-04 0.0 
0.0 0.0 0.0 
1.918130957890e-05 1.137669699786e-05 0.0 
1.137669699786e-05 1.917300742296e-04 0.0 
0.0 0.0 0.0 
-8.685742423853e-06 2.434830033043e-05 0.0 
2.434830033043e-05 1.249628972116e-03 0.0 
0.0 0.0 0.0 
-2.459592973536e-05 2.901220226453e-05 0.0 
2.901220226453e-05 7.425335213351e-04 0.0 
0.0 0.0 0.0 
2.790575706402e-05 3.288653671658e-05 0.0 
3.288653671658e-05 7.123225563443e-04 0.0 
0.0 0.0 0.0 
-2.652192649610e-06 4.968947866630e-05 0.0 
4.968947866630e-05 1.170349721569e-03 0.0 
0.0 0.0 0.0 
-1.723003312804e-05 7.259088694085e-06 0.0 
7.259088694085e-06 1.076982042994e-03 0.0 
0.0 0.0 0.0 
2.095326279394e-05 1.604754328202e-05 0.0 
1.604754328202e-05 9.708677966034e-04 0.0 
0.0 0.0 0.0 
1.216018897354e-06 4.380370474981e-05 0.0 
4.380370474981e-05 6.877030229502e-04 0.0 
0.0 0.0 0.0 
2.158730890667e-05 1.934854818276e-05 0.0 
1.934854818276e-05 1.488557823621e-04 0.0 
0.0 0.0 0.0 
1.200901745646e-05 7.204376182817e-06 0.0 
7.204376182817e-06 1.111220921036e-03 0.0 
0.0 0.0 0.0 
-1.651470065933e-05 4.007593529660e-05 0.0 
4.007593529660e-05 8.947697743815e-04 0.0 
0.0 0.0 0.0 
1.096883413432e-06 3.917913429119e-05 0.0 
3.917913429119e-05 9.921481009751e-04 0.0 
0.0 0.0 0.0 
-8.895981080781e-06 4.487976282749e-05 0.0 
4.487976282749e-05 1.169809450763e-03 0.0 
0.0 0.0 0.0 
7.459372351137e-06 1.232047325129e-05 0.0 
1.232047325129e-05 9.294811286042e-05 0.0 
0.0 0.0 0.0 
2.224161550690e-05 2.605333987691e-05 0.0 
2.605333987691e-05 9.693122356651e-04 0.0 
0.0 0.0 0.0 
-3.184063496198e-07 4.992390380551e-05 0.0 
4.992390380551e-05 5.070497084085e-04 0.0 
0.0 0.0 0.0 
-1.856426289648e-05 5.150754925887e-06 0.0 
5.150754925887e-06 1.015694001107e-03 0.0 
0.0 0.0 0.0 
2.743039608721e-05 6.279832748314e-06 0.0 
6.279832748314e-06 7.623016142613e-04 0.0 
0.0 0.0 0.0 
1.916129931190e-05 4.616834463649e-05 0.0 
4.616834463649e-05 6.282025456450e-04 0.0 
0.0 0.0 0.0 
1.661060885350e-05 1.147998550981e-05 0.0 
1.147998550981e-05 1.050635640201e-03 0.0 
0.0 0.0 0.0 
-7.137859233008e-06 4.645382180670e-05 0.0 
4.645382180670e-05 8.905483023409e-04 0.0 
0.0 0.0 0.0 
2.043166235688e-05 4.699819913584e-05 0.0 
4.699819913584e-05 5.642845186911e-04 0.0 
0.0 0.0 0.0 
-1.825811676370e-05 3.224090389859e-05 0.0 
3.224090389859e-05 9.343813574190e-04 0.0 
0.0 0.0 0.0 
1.165898222433e-05 -6.039289716346e-08 0.0 
-6.039289716346e-08 1.524185479147e-04 0.0 
0.0 0.0 0.0 
-1.448710512764e-05 3.435713091750e-05 0.0 
3.435713091750e-05 1.051303862587e-03 0.0 
0.0 0.0 0.0 
6.280752824717e-06 3.890237116072e-05 0.0 
3.890237116072e-05 1.034339920260e-03 0.0 
0.0 0.0 0.0 
-9.236350881792e-06 3.295325970556e-05 0.0 
3.295325970556e-05 1.254636049008e-03 0.0 
0.0 0.0 0.0 
-1.251268427382e-05 3.568034709103e-05 0.0 
3.568034709103e-05 1.110533120253e-03 0.0 
0.0 0.0 0.0 
2.384827054569e-05 3.475803267855e-05 0.0 
3.475803267855e-05 4.370873662436e-04 0.0 
0.0 0.0 0.0 
2.145615533045e-05 1.139860460008e-05 0.0 
1.139860460008e-05 9.579223981511e-04 0.0 
0.0 0.0 0.0 
-4.814169039857e-06 1.531067503014e-05 0.0 
1.531067503014e-05 1.273409227697e-03 0.0 
0.0 0.0 0.0 
-2.030749061133e-07 4.549325680509e-05 0.0 
4.549325680509e-05 1.239074809502e-03 0.0 
0.0 0.0 0.0 
3.218569866847e-06 4.044106196507e-05 0.0 
4.044106196507e-05 1.076788465216e-03 0.0 
0.0 0.0 0.0 
6.462980811639e-06 4.231770873366e-05 0.0 
4.231770873366e-05 7.032656688370e-04 0.0 
0.0 0.0 0.0 
-1.641147476084e-05 3.319198305038e-05 0.0 
3.319198305038e-05 9.925755142539e-04 0.0 
0.0 0.0 0.0 
1.491503371676e-05 1.430497759572e-05 0.0 
1.430497759572e-05 1.065283142172e-03 0.0 
0.0 0.0 0.0 
2.565886215744e-05 -3.032186803774e-06 0.0 
-3.032186803774e-06 6.977224597648e-04 0.0 
0.0 0.0 0.0 
-1.066714949471e-05 4.356835150709e-05 0.0 
4.356835150709e-05 1.070190833306e-03 0.0 
0.0 0.0 0.0 
-1.487490791618e-05 1.335216647650e-05 0.0 
1.335216647650e-05 1.048569057187e-03 0.0 
0.0 0.0 0.0 
1.828919189695e-05 1.302332858771e-05 0.0 
1.302332858771e-05 1.023516624486e-03 0.0 
0.0 0.0 0.0 
1.896524067968e-05 1.957614737210e-05 0.0 
1.957614737210e-05 1.010652312823e-03 0.0 
0.0 0.0 0.0 
-1.276074331935e-05 -1.485785108376e-07 0.0 
-1.485785108376e-07 7.960922743910e-04 0.0 
0.0 0.0 0.0 
-1.239945063813e-05 7.979923537652e-07 0.0 
7.979923537652e-07 7.956998943381e-04 0.0 
0.0 0.0 0.0 
-2.171351932934e-05 1.608203990669e-05 0.0 
1.608203990669e-05 1.050100674988e-03 0.0 
0.0 0.0 0.0 
-1.270563551425e-05 4.222831812654e-05 0.0 
4.222831812654e-05 1.011168797047e-03 0.0 
0.0 0.0 0.0 
2.666068034829e-05 5.402329604377e-06 0.0 
5.402329604377e-06 7.890533307380e-04 0.0 
0.0 0.0 0.0 
-2.161731288775e-05 2.444034826318e-05 0.0 
2.444034826318e-05 1.025108163988e-03 0.0 
0.0 0.0 0.0 
-4.056597529112e-06 4.767468989224e-05 0.0 
4.767468989224e-05 8.486712386240e-04 0.0 
0.0 0.0 0.0 
1.007331186709e-05 4.290405878450e-05 0.0 
4.290405878450e-05 1.117304610072e-03 0.0 
0.0 0.0 0.0 
3.919761673021e-06 5.068242612602e-05 0.0 
5.068242612602e-05 7.020295354065e-04 0.0 
0.0 0.0 0.0 
-3.528517915186e-06 1.696870033922e-05 0.0 
1.696870033922e-05 1.369377976139e-03 0.0 
0.0 0.0 0.0 
-2.105622977566e-05 1.236655657064e-05 0.0 
1.236655657064e-05 8.816509128633e-04 0.0 
0.0 0.0 0.0 
-7.087981156007e-06 3.998380519802e-05 0.0 
3.998380519802e-05 8.327224276288e-04 0.0 
0.0 0.0 0.0 
2.911014956219e-05 1.650955391128e-05 0.0 
1.650955391128e-05 7.606410045511e-04 0.0 
0.0 0.0 0.0 
2.016814246186e-05 4.112002059522e-05 0.0 
4.112002059522e-05 4.206487169538e-04 0.0 
0.0 0.0 0.0 
2.866726863404e-05 5.287391755833e-06 0.0 
5.287391755833e-06 6.712180858641e-04 0.0 
0.0 0.0 0.0 
-1.466216879809e-05 4.110370308896e-05 0.0 
4.110370308896e-05 9.526776963693e-04 0.0 
0.0 0.0 0.0 
-2.011512001543e-05 3.500143341994e-05 0.0 
3.500143341994e-05 9.138962667079e-04 0.0 
0.0 0.0 0.0 
-1.656500516389e-05 1.531408491264e-05 0.0 
1.531408491264e-05 1.042133820022e-03 0.0 
0.0 0.0 0.0 
-1.792132934098e-05 3.424455204159e-05 0.0 
3.424455204159e-05 1.046066379719e-03 0.0 
0.0 0.0 0.0 
-1.934858825736e-05 2.642925563751e-05 0.0 
2.642925563751e-05 1.082932222222e-03 0.0 
0.0 0.0 0.0 
5.945881371483e-06 -3.876499158898e-06 0.0 
-3.876499158898e-06 1.652357657222e-04 0.0 
0.0 0.0 0.0 
3.035526467210e-05 1.297744465297e-05 0.0 
1.297744465297e-05 6.320858335180e-04 0.0 
0.0 0.0 0.0 
-2.610381910129e-05 2.492565544063e-05 0.0 
2.492565544063e-05 7.430151667727e-04 0.0 
0.0 0.0 0.0 
-2.084932617508e-05 2.758968034081e-05 0.0 
2.758968034081e-05 1.001811558645e-03 0.0 
0.0 0.0 0.0 
-2.217849444341e-05 2.027222353074e-05 0.0 
2.027222353074e-05 1.038444893087e-03 0.0 
0.0 0.0 0.0 
7.392560734454e-06 4.797320141887e-05 0.0 
4.797320141887e-05 1.114879499575e-03 0.0 
0.0 0.0 0.0 
1.211410247093e-05 5.059430557000e-06 0.0 
5.059430557000e-06 2.590951162935e-04 0.0 
0.0 0.0 0.0 
2.509657560168e-05 1.384251828945e-05 0.0 
1.384251828945e-05 2.809434021838e-04 0.0 
0.0 0.0 0.0 
-1.488473755817e-05 4.219679927539e-05 0.0 
4.219679927539e-05 8.553189726421e-04 0.0 
0.0 0.0 0.0 
2.821446846690e-05 2.399746185634e-06 0.0 
2.399746185634e-06 6.336928323929e-04 0.0 
0.0 0.0 0.0 
-2.422848017203e-05 8.747298663742e-07 0.0 
8.747298663742e-07 7.355682798835e-04 0.0 
0.0 0.0 0.0 
-2.343380776260e-05 1.792368497211e-06 0.0 
1.792368497211e-06 7.685534050723e-04 0.0 
0.0 0.0 0.0 
-1.882464464154e-05 7.687807051700e-06 0.0 
7.687807051700e-06 1.043035946771e-03 0.0 
0.0 0.0 0.0 
7.370051310573e-06 5.509874523651e-05 0.0 
5.509874523651e-05 3.383372429677e-04 0.0 
0.0 0.0 0.0 
2.925902977768e-05 1.375228684280e-05 0.0 
1.375228684280e-05 7.232344867167e-04 0.0 
0.0 0.0 0.0 
1.563800189475e-05 3.222052958082e-05 0.0 
3.222052958082e-05 9.917320723327e-04 0.0 
0.0 0.0 0.0 
3.044631584936e-05 3.064493598166e-05 0.0 
3.064493598166e-05 2.772763535988e-04 0.0 
0.0 0.0 0.0 
-3.020592476366e-06 4.480815994237e-05 0.0 
4.480815994237e-05 1.277298575228e-03 0.0 
0.0 0.0 0.0 
-1.119725914012e-05 8.649972074190e-06 0.0 
8.649972074190e-06 1.205294595389e-03 0.0 
0.0 0.0 0.0 
2.740791446931e-05 1.330037148243e-06 0.0 
1.330037148243e-06 6.876363216020e-04 0.0 
0.0 0.0 0.0 
2.104195061836e-05 1.974249253952e-05 0.0 
1.974249253952e-05 9.833531753949e-04 0.0 
0.0 0.0 0.0 
6.166602291913e-06 -2.718599863884e-06 0.0 
-2.718599863884e-06 1.126578251005e-04 0.0 
0.0 0.0 0.0 
1.855630170944e-05 2.896598304485e-05 0.0 
2.896598304485e-05 9.500142183612e-04 0.0 
0.0 0.0 0.0 
-1.670538419629e-05 3.427759344574e-05 0.0 
3.427759344574e-05 8.956183440287e-04 0.0 
0.0 0.0 0.0 
7.112849095492e-06 -1.941821510577e-06 0.0 
-1.941821510577e-06 1.117754492375e-04 0.0 
0.0 0.0 0.0 
-9.243957540872e-06 1.635908029662e-05 0.0 
1.635908029662e-05 1.204604318240e-03 0.0 
0.0 0.0 0.0 
2.330985757837e-05 1.889837829422e-05 0.0 
1.889837829422e-05 2.583432856502e-04 0.0 
0.0 0.0 0.0 
-2.305430550309e-05 2.128922879555e-05 0.0 
2.128922879555e-05 1.002786995296e-03 0.0 
0.0 0.0 0.0 
-2.115672988934e-05 2.920354874573e-05 0.0 
2.920354874573e-05 9.146819716361e-04 0.0 
0.0 0.0 0.0 
2.632014772774e-05 2.467935819296e-05 0.0 
2.467935819296e-05 6.916120523830e-04 0.0 
0.0 0.0 0.0 
2.701657663029e-05 2.970113481167e-05 0.0 
2.970113481167e-05 8.260316415614e-04 0.0 
0.0 0.0 0.0 
-8.881165436625e-06 1.841777653654e-05 0.0 
1.841777653654e-05 1.230858091972e-03 0.0 
0.0 0.0 0.0 
2.479131394728e-05 3.118984642153e-05 0.0 
3.118984642153e-05 8.918652923977e-04 0.0 
0.0 0.0 0.0 
-1.111845433877e-05 4.461079822779e-05 0.0 
4.461079822779e-05 8.728660407742e-04 0.0 
0.0 0.0 0.0 
-1.451612385772e-05 3.643364735797e-05 0.0 
3.643364735797e-05 8.561660828450e-04 0.0 
0.0 0.0 0.0 
-6.012667985722e-08 3.021473276740e-05 0.0 
3.021473276740e-05 1.918138420889e-04 0.0 
0.0 0.0 0.0 
2.781685072439e-05 2.522104788028e-05 0.0 
2.522104788028e-05 2.136099065226e-04 0.0 
0.0 0.0 0.0 
-9.876619114668e-06 3.834654727167e-05 0.0 
3.834654727167e-05 1.129945208556e-03 0.0 
0.0 0.0 0.0 
-2.212320076977e-05 7.519930146650e-06 0.0 
7.519930146650e-06 9.751544414496e-04 0.0 
0.0 0.0 0.0 
-6.362084769562e-06 4.738701454834e-05 0.0 
4.738701454834e-05 1.149486549723e-03 0.0 
0.0 0.0 0.0 
-3.966143025225e-06 5.615993173174e-05 0.0 
5.615993173174e-05 5.061261597603e-04 0.0 
0.0 0.0 0.0 
-1.488716469811e-05 2.585488826106e-05 0.0 
2.585488826106e-05 1.144709204302e-03 0.0 
0.0 0.0 0.0 
-1.052759818621e-05 3.761237425645e-05 0.0 
3.761237425645e-05 1.170341012053e-03 0.0 
0.0 0.0 0.0 
-2.179323595453e-05 1.036535619806e-05 0.0 
1.036535619806e-05 7.911590385932e-04 0.0 
0.0 0.0 0.0 
-8.654462857804e-06 4.472305035754e-05 0.0 
4.472305035754e-05 1.128824714072e-03 0.0 
0.0 0.0 0.0 
2.004773668207e-05 1.000274989434e-05 0.0 
1.000274989434e-05 9.849000000186e-04 0.0 
0.0 0.0 0.0 
-1.145600942420e-05 4.355410386116e-05 0.0 
4.355410386116e-05 9.714399680680e-04 0.0 
0.0 0.0 0.0 
3.004860598077e-05 1.481249386708e-05 0.0 
1.481249386708e-05 6.962655275304e-04 0.0 
0.0 0.0 0.0 
2.810498710337e-05 7.266785715398e-06 0.0 
7.266785715398e-06 7.356849243212e-04 0.0 
0.0 0.0 0.0 
-1.126102269400e-05 1.626245462971e-05 0.0 
1.626245462971e-05 1.252143578039e-03 0.0 
0.0 0.0 0.0 
2.887601189183e-05 2.818073937042e-05 0.0 
2.818073937042e-05 7.608501318950e-04 0.0 
0.0 0.0 0.0 
-1.758037553379e-05 3.822435206009e-05 0.0 
3.822435206009e-05 9.335609711283e-04 0.0 
0.0 0.0 0.0 
4.079866058770e-06 4.869252682487e-05 0.0 
4.869252682487e-05 8.248301074010e-04 0.0 
0.0 0.0 0.0 
2.196851736680e-05 3.255329779039e-05 0.0 
3.255329779039e-05 9.582294496904e-04 0.0 
0.0 0.0 0.0 
-3.146053962788e-06 4.134419724242e-05 0.0 
4.134419724242e-05 7.904409010342e-04 0.0 
0.0 0.0 0.0 
2.678994400473e-05 4.273170229710e-05 0.0 
4.273170229710e-05 4.542670274643e-04 0.0 
0.0 0.0 0.0 
2.183612349804e-05 3.970494362656e-05 0.0 
3.970494362656e-05 7.967147923669e-04 0.0 
0.0 0.0 0.0 
2.179628228904e-05 4.775100793043e-05 0.0 
4.775100793043e-05 4.999422643730e-04 0.0 
0.0 0.0 0.0 
-1.960862205330e-05 3.103427618205e-05 0.0 
3.103427618205e-05 1.024157725716e-03 0.0 
0.0 0.0 0.0 
2.287385115474e-05 3.526527894304e-05 0.0 
3.526527894304e-05 5.018752332426e-04 0.0 
0.0 0.0 0.0 
-2.192697497538e-05 2.574152790017e-05 0.0 
2.574152790017e-05 9.888666587046e-04 0.0 
0.0 0.0 0.0 
4.906662576243e-06 4.012627736087e-05 0.0 
4.012627736087e-05 1.097510954652e-03 0.0 
0.0 0.0 0.0 
8.451531229525e-06 4.696596835258e-05 0.0 
4.696596835258e-05 1.053324624583e-03 0.0 
0.0 0.0 0.0 
-8.606701723535e-07 4.974401462461e-05 0.0 
4.974401462461e-05 7.463257933475e-04 0.0 
0.0 0.0 0.0 
-1.781091590669e-05 1.545961959977e-05 0.0 
1.545961959977e-05 1.008132092681e-03 0.0 
0.0 0.0 0.0 
1.933492066186e-05 1.820342754430e-05 0.0 
1.820342754430e-05 1.010722777009e-03 0.0 
0.0 0.0 0.0 
1.852855978335e-05 8.522254994485e-06 0.0 
8.522254994485e-06 1.012282978402e-03 0.0 
0.0 0.0 0.0 
5.512485501180e-06 5.658066602928e-05 0.0 
5.658066602928e-05 2.796278600661e-04 0.0 
0.0 0.0 0.0 
-1.826464405807e-05 3.532026126900e-05 0.0 
3.532026126900e-05 1.009014010311e-03 0.0 
0.0 0.0 0.0 
1.341241060504e-05 1.892648730745e-05 0.0 
1.892648730745e-05 1.108537785235e-03 0.0 
0.0 0.0 0.0 
-2.530664622657e-05 1.798255188762e-05 0.0 
1.798255188762e-05 6.106173498650e-04 0.0 
0.0 0.0 0.0 
2.687273856128e-05 2.943736588781e-06 0.0 
2.943736588781e-06 7.514541667399e-04 0.0 
0.0 0.0 0.0 
-2.698899544307e-05 4.382517928610e-05 0.0 
4.382517928610e-05 2.403275767833e-04 0.0 
0.0 0.0 0.0 
1.751173794884e-05 1.653450119572e-05 0.0 
1.653450119572e-05 1.038310281185e-03 0.0 
0.0 0.0 0.0 
2.330271170803e-05 4.831827155308e-05 0.0 
4.831827155308e-05 4.349976420706e-04 0.0 
0.0 0.0 0.0 
2.632884368636e-05 4.684941398191e-06 0.0 
4.684941398191e-06 7.177800054479e-04 0.0 
0.0 0.0 0.0 
1.102681902010e-06 4.856770329644e-05 0.0 
4.856770329644e-05 9.910270051972e-04 0.0 
0.0 0.0 0.0 
-2.035123966593e-05 7.818409753901e-06 0.0 
7.818409753901e-06 1.009135065811e-03 0.0 
0.0 0.0 0.0 
-1.898734444639e-05 1.522096726476e-05 0.0 
1.522096726476e-05 9.741382989119e-04 0.0 
0.0 0.0 0.0 
-1.320711547981e-05 4.281095855864e-05 0.0 
4.281095855864e-05 9.131619601062e-04 0.0 
0.0 0.0 0.0 
-2.493914609891e-05 1.694758220758e-06 0.0 
1.694758220758e-06 6.704405502314e-04 0.0 
0.0 0.0 0.0 
-2.430254360453e-05 2.326018385350e-06 0.0 
2.326018385350e-06 7.034617242563e-04 0.0 
0.0 0.0 0.0 
1.685660103257e-05 7.069898472185e-06 0.0 
7.069898472185e-06 1.039868264243e-03 0.0 
0.0 0.0 0.0 
2.375238515095e-05 2.216965246104e-05 0.0 
2.216965246104e-05 8.677076154957e-04 0.0 
0.0 0.0 0.0 
2.488761596076e-05 2.580859186956e-05 0.0 
2.580859186956e-05 7.558525943567e-04 0.0 
0.0 0.0 0.0 
1.926625194248e-05 3.933689196067e-05 0.0 
3.933689196067e-05 9.487191707824e-04 0.0 
0.0 0.0 0.0 
2.341296022701e-05 3.941038053352e-05 0.0 
3.941038053352e-05 7.326329653987e-04 0.0 
0.0 0.0 0.0 
1.916579742356e-05 4.069468558006e-05 0.0 
4.069468558006e-05 4.849034024332e-04 0.0 
0.0 0.0 0.0 
-2.154656122222e-05 7.112149101673e-06 0.0 
7.112149101673e-06 6.691584240779e-04 0.0 
0.0 0.0 0.0 
-2.317097159810e-05 6.059252093808e-06 0.0 
6.059252093808e-06 9.157587133475e-04 0.0 
0.0 0.0 0.0 
-1.282671466507e-05 1.920811194110e-07 0.0 
1.920811194110e-07 7.965303949120e-04 0.0 
0.0 0.0 0.0 
8.033138676922e-06 3.826846175522e-05 0.0 
3.826846175522e-05 1.054558690132e-03 0.0 
0.0 0.0 0.0 
1.404416416051e-06 4.222426185033e-05 0.0 
4.222426185033e-05 7.474036765245e-04 0.0 
0.0 0.0 0.0 
4.219274281070e-06 5.185323356324e-05 0.0 
5.185323356324e-05 1.198910361946e-03 0.0 
0.0 0.0 0.0 
1.747376274963e-05 9.405258865451e-06 0.0 
9.405258865451e-06 1.021656933605e-03 0.0 
0.0 0.0 0.0 
2.030298778477e-05 3.199265811063e-05 0.0 
3.199265811063e-05 7.774621366421e-04 0.0 
0.0 0.0 0.0 
9.283103085123e-06 1.054580896524e-05 0.0 
1.054580896524e-05 1.148558894008e-03 0.0 
0.0 0.0 0.0 
2.540236557791e-05 3.019865455497e-05 0.0 
3.019865455497e-05 5.213292231638e-04 0.0 
0.0 0.0 0.0 
1.529713000048e-06 5.122162169766e-05 0.0 
5.122162169766e-05 1.177408527402e-03 0.0 
0.0 0.0 0.0 
-1.301250275898e-05 3.659114168954e-05 0.0 
3.659114168954e-05 9.140967218277e-04 0.0 
0.0 0.0 0.0 
-8.140171342319e-06 4.540798142927e-05 0.0 
4.540798142927e-05 9.898833542445e-04 0.0 
0.0 0.0 0.0 
1.285347852087e-05 3.254309895735e-05 0.0 
3.254309895735e-05 1.082987598696e-03 0.0 
0.0 0.0 0.0 
2.791889095377e-05 1.853603976886e-06 0.0 
1.853603976886e-06 5.178468222036e-04 0.0 
0.0 0.0 0.0 
-1.817754080813e-05 3.671310170648e-05 0.0 
3.671310170648e-05 9.716857980839e-04 0.0 
0.0 0.0 0.0 
2.363988556686e-05 2.868597460808e-05 0.0 
2.868597460808e-05 7.342652411473e-04 0.0 
0.0 0.0 0.0 
-2.177187718544e-05 2.736476450049e-05 0.0 
2.736476450049e-05 9.518567164253e-04 0.0 
0.0 0.0 0.0 
-6.931237605090e-06 4.745622999344e-05 0.0 
4.745622999344e-05 5.525271630837e-04 0.0 
0.0 0.0 0.0 
-4.719503198913e-06 4.749334413508e-05 0.0 
4.749334413508e-05 1.009766882854e-03 0.0 
0.0 0.0 0.0 
2.673999360159e-05 3.589561735637e-05 0.0 
3.589561735637e-05 6.898166111615e-04 0.0 
0.0 0.0 0.0 
2.815944803469e-05 1.534670560797e-05 0.0 
1.534670560797e-05 7.873929080942e-04 0.0 
0.0 0.0 0.0 
-2.035456283833e-05 3.332475218320e-05 0.0 
3.332475218320e-05 9.510541281694e-04 0.0 
0.0 0.0 0.0 
-1.001196537898e-07 5.628342642269e-05 0.0 
5.628342642269e-05 1.510270370937e-04 0.0 
0.0 0.0 0.0 
4.147650138675e-06 4.830657990054e-05 0.0 
4.830657990054e-05 8.871127332319e-04 0.0 
0.0 0.0 0.0 
-2.009217000998e-05 5.040519991769e-05 0.0 
5.040519991769e-05 2.856881283930e-04 0.0 
0.0 0.0 0.0 
7.551861989086e-06 1.464873791244e-06 0.0 
1.464873791244e-06 1.788737725343e-04 0.0 
0.0 0.0 0.0 
2.837961137780e-05 1.273521111151e-05 0.0 
1.273521111151e-05 7.497278091131e-04 0.0 
0.0 0.0 0.0 
-1.525083939180e-05 3.210031503396e-05 0.0 
3.210031503396e-05 1.127293922211e-03 0.0 
0.0 0.0 0.0 
-1.939170366339e-05 1.765472424094e-05 0.0 
1.765472424094e-05 9.989648830189e-04 0.0 
0.0 0.0 0.0 
-2.506320158924e-05 2.952108645310e-06 0.0 
2.952108645310e-06 6.056354796358e-04 0.0 
0.0 0.0 0.0 
0.0 1.856160071893e-05 0.0 
1.856160071893e-05 1.369988605574e-03 0.0 
0.0 0.0 0.0 
-1.301207979565e-05 6.014819541131e-05 0.0 
6.014819541131e-05 1.028445492257e-04 0.0 
0.0 0.0 0.0 
-2.470659049147e-05 3.692261584660e-06 0.0 
3.692261584660e-06 6.385551826298e-04 0.0 
0.0 0.0 0.0 
2.622379147987e-05 3.376992705113e-05 0.0 
3.376992705113e-05 7.763765050703e-04 0.0 
0.0 0.0 0.0 
2.683117179458e-05 7.654234878631e-07 0.0 
7.654234878631e-07 7.147371201353e-04 0.0 
0.0 0.0 0.0 
-2.691375081576e-05 8.646751212777e-06 0.0 
8.646751212777e-06 7.495039016430e-04 0.0 
0.0 0.0 0.0 
3.135090513307e-05 2.894777074915e-05 0.0 
2.894777074915e-05 5.209715479608e-04 0.0 
0.0 0.0 0.0 
2.580987675205e-05 2.079152233569e-05 0.0 
2.079152233569e-05 8.020111883476e-04 0.0 
0.0 0.0 0.0 
-1.502745829518e-05 3.483775908603e-05 0.0 
3.483775908603e-05 9.536184213601e-04 0.0 
0.0 0.0 0.0 
4.091737305645e-06 4.814043601054e-05 0.0 
4.814043601054e-05 9.499781128888e-04 0.0 
0.0 0.0 0.0 
-1.305507280391e-05 3.541539732347e-05 0.0 
3.541539732347e-05 1.177029480421e-03 0.0 
0.0 0.0 0.0 
1.316211200453e-05 6.208717124409e-05 0.0 
6.208717124409e-05 2.796867222667e-04 0.0 
0.0 0.0 0.0 
2.902805136662e-05 1.130894597593e-05 0.0 
1.130894597593e-05 6.860836362179e-04 0.0 
0.0 0.0 0.0 
2.746901165218e-05 9.867742373969e-06 0.0 
9.867742373969e-06 7.404976042651e-04 0.0 
0.0 0.0 0.0 
2.148156686022e-05 -6.163135695082e-06 0.0 
-6.163135695082e-06 3.804531066300e-04 0.0 
0.0 0.0 0.0 
-2.170458208550e-05 1.143955699665e-05 0.0 
1.143955699665e-05 8.239895828399e-04 0.0 
0.0 0.0 0.0 
-2.215050180121e-05 1.039894589648e-05 0.0 
1.039894589648e-05 9.999956897011e-04 0.0 
0.0 0.0 0.0 
2.146751666099e-05 -3.238332843115e-06 0.0 
-3.238332843115e-06 9.239014288860e-04 0.0 
0.0 0.0 0.0 
3.713955169404e-06 -1.986591585622e-06 0.0 
-1.986591585622e-06 1.127480388434e-04 0.0 
0.0 0.0 0.0 
-7.520743580125e-06 -7.287852086950e-06 0.0 
-7.287852086950e-06 6.826699910589e-05 0.0 
0.0 0.0 0.0 
1.344073753784e-05 -8.890693826821e-06 0.0 
-8.890693826821e-06 2.585545332765e-04 0.0 
0.0 0.0 0.0 
2.627068155370e-05 2.366273090602e-07 0.0 
2.366273090602e-07 7.420793409696e-04 0.0 
0.0 0.0 0.0 
2.438649206105e-05 3.104279180917e-05 0.0 
3.104279180917e-05 5.856246932205e-04 0.0 
0.0 0.0 0.0 
2.882825731532e-05 2.011331809168e-05 0.0 
2.011331809168e-05 5.000938453692e-04 0.0 
0.0 0.0 0.0 
2.623658511203e-05 2.896208614954e-05 0.0 
2.896208614954e-05 4.563289327983e-04 0.0 
0.0 0.0 0.0 
2.741226721614e-05 1.184627642249e-05 0.0 
1.184627642249e-05 7.767211375838e-04 0.0 
0.0 0.0 0.0 
-1.894463168484e-05 2.340961878751e-05 0.0 
2.340961878751e-05 1.048646580552e-03 0.0 
0.0 0.0 0.0 
2.660363712526e-05 9.145945527226e-06 0.0 
9.145945527226e-06 7.679993633307e-04 0.0 
0.0 0.0 0.0 
2.385863697119e-05 4.282511885030e-05 0.0 
4.282511885030e-05 5.837029535927e-04 0.0 
0.0 0.0 0.0 
-1.981465650791e-05 2.869869033810e-05 0.0 
2.869869033810e-05 1.009882275655e-03 0.0 
0.0 0.0 0.0 
-1.604044773973e-05 7.713865744558e-06 0.0 
7.713865744558e-06 8.953708358796e-04 0.0 
0.0 0.0 0.0 
1.487757686602e-06 4.896595771267e-05 0.0 
4.896595771267e-05 1.054829466053e-03 0.0 
0.0 0.0 0.0 
2.569504640748e-05 -4.187662630382e-07 0.0 
-4.187662630382e-07 7.696050666881e-04 0.0 
0.0 0.0 0.0 
2.612388286072e-05 2.211733836670e-06 0.0 
2.211733836670e-06 7.784193723224e-04 0.0 
0.0 0.0 0.0 
-2.487648848359e-05 4.793008374228e-06 0.0 
4.793008374228e-06 5.397978144255e-04 0.0 
0.0 0.0 0.0 
2.625604563677e-05 2.711396127921e-05 0.0 
2.711396127921e-05 6.061697049353e-04 0.0 
0.0 0.0 0.0 
2.576740200677e-05 8.218158326573e-06 0.0 
8.218158326573e-06 7.953327165224e-04 0.0 
0.0 0.0 0.0 
-1.056663868781e-05 4.266003480661e-06 0.0 
4.266003480661e-06 1.025431943892e-03 0.0 
0.0 0.0 0.0 
-1.165948767168e-05 4.401743995218e-06 0.0 
4.401743995218e-06 9.670897494396e-04 0.0 
0.0 0.0 0.0 
-2.479217282081e-05 4.808018174322e-06 0.0 
4.808018174322e-06 5.736347821523e-04 0.0 
0.0 0.0 0.0 
2.640408062193e-05 1.100876871295e-05 0.0 
1.100876871295e-05 8.040882104836e-04 0.0 
0.0 0.0 0.0 
2.929069570290e-05 1.117861365872e-05 0.0 
1.117861365872e-05 4.827670941778e-04 0.0 
0.0 0.0 0.0 
-1.558376693722e-05 4.973133699633e-05 0.0 
4.973133699633e-05 3.371004312567e-04 0.0 
0.0 0.0 0.0 
9.341690514475e-07 4.308280737774e-05 0.0 
4.308280737774e-05 1.179254939869e-03 0.0 
0.0 0.0 0.0 
1.474995815776e-05 1.673102731794e-06 0.0 
1.673102731794e-06 2.326633089660e-04 0.0 
0.0 0.0 0.0 
3.204778640709e-05 2.075632479324e-05 0.0 
2.075632479324e-05 5.054941003411e-04 0.0 
0.0 0.0 0.0 
1.478593813831e-06 4.000096851462e-05 0.0 
4.000096851462e-05 8.683557795441e-04 0.0 
0.0 0.0 0.0 
-2.143540937671e-05 7.256805128957e-06 0.0 
7.256805128957e-06 6.042389862400e-04 0.0 
0.0 0.0 0.0 
2.519355365549e-05 -1.288602802627e-06 0.0 
-1.288602802627e-06 7.977057633994e-04 0.0 
0.0 0.0 0.0 
1.729464439770e-05 -5.663096912861e-06 0.0 
-5.663096912861e-06 3.542115545241e-04 0.0 
0.0 0.0 0.0 
-2.195842186192e-05 3.735651996674e-06 0.0 
3.735651996674e-06 8.505135257639e-04 0.0 
0.0 0.0 0.0 
2.529819420949e-05 1.495687320942e-06 0.0 
1.495687320942e-06 8.057584180501e-04 0.0 
0.0 0.0 0.0 
2.709107830334e-05 2.196364019457e-05 0.0 
2.196364019457e-05 7.141634683365e-04 0.0 
0.0 0.0 0.0 
2.757140733456e-05 3.671507086564e-06 0.0 
3.671507086564e-06 7.248718666146e-04 0.0 
0.0 0.0 0.0 
7.971613629199e-06 3.732274081493e-05 0.0 
3.732274081493e-05 1.302012700577e-04 0.0 
0.0 0.0 0.0 
-7.914320803049e-06 -3.710250192017e-06 0.0 
-3.710250192017e-06 1.208739600056e-03 0.0 
0.0 0.0 0.0 
2.911689406271e-05 1.884283425309e-05 0.0 
1.884283425309e-05 5.863227227876e-04 0.0 
0.0 0.0 0.0 
1.059009739102e-05 4.640463833332e-05 0.0 
4.640463833332e-05 1.100034948607e-03 0.0 
0.0 0.0 0.0 
-8.206879123285e-06 3.843649505549e-05 0.0 
3.843649505549e-05 9.911751386740e-04 0.0 
0.0 0.0 0.0 
2.535337177156e-05 1.016375362513e-05 0.0 
1.016375362513e-05 8.315854305623e-04 0.0 
0.0 0.0 0.0 
2.452720450807e-05 8.836464128513e-07 0.0 
8.836464128513e-07 8.331877290546e-04 0.0 
0.0 0.0 0.0 
2.776522108472e-05 3.829643569158e-05 0.0 
3.829643569158e-05 5.401616786276e-04 0.0 
0.0 0.0 0.0 
5.559084509166e-06 2.445199247505e-07 0.0 
2.445199247505e-07 1.522979194177e-04 0.0 
0.0 0.0 0.0 
1.739059370931e-05 5.202601881833e-05 0.0 
5.202601881833e-05 1.271988325184e-04 0.0 
0.0 0.0 0.0 
2.438802371563e-05 9.070010479080e-06 0.0 
9.070010479080e-06 8.592738581763e-04 0.0 
0.0 0.0 0.0 
1.335246585032e-05 4.216294238501e-05 0.0 
4.216294238501e-05 1.083333265600e-03 0.0 
0.0 0.0 0.0 
2.816747572543e-05 4.416509251326e-06 0.0 
4.416509251326e-06 4.690720474092e-04 0.0 
0.0 0.0 0.0 
-1.592910781045e-05 3.842957307151e-05 0.0 
3.842957307151e-05 1.029961297539e-03 0.0 
0.0 0.0 0.0 
-2.503661028308e-05 1.981704890548e-05 0.0 
1.981704890548e-05 5.742033158957e-04 0.0 
0.0 0.0 0.0 
-1.982062681238e-05 2.745383605046e-05 0.0 
2.745383605046e-05 1.047025725697e-03 0.0 
0.0 0.0 0.0 
9.149169771572e-06 3.601103917998e-05 0.0 
3.601103917998e-05 1.195971397929e-03 0.0 
0.0 0.0 0.0 
-4.465319754066e-05 -1.878892453155e-06 0.0 
-1.878892453155e-06 3.422241012219e-05 0.0 
0.0 0.0 0.0 
0.0 1.006061999754e-06 0.0 
1.006061999754e-06 1.374376104976e-03 0.0 
0.0 0.0 0.0 
0.0 4.598509734436e-06 0.0 
4.598509734436e-06 1.237308892338e-03 0.0 
0.0 0.0 0.0 
-1.222809106693e-05 -4.523717087598e-06 0.0 
-4.523717087598e-06 8.648178221979e-04 0.0 
0.0 0.0 0.0 
2.979363094191e-05 1.150231812958e-05 0.0 
1.150231812958e-05 5.701516814001e-04 0.0 
0.0 0.0 0.0 
-1.155977035394e-05 3.693598956391e-05 0.0 
3.693598956391e-05 9.725342641940e-04 0.0 
0.0 0.0 0.0 
2.171336248602e-05 3.532093178240e-05 0.0 
3.532093178240e-05 5.661403491823e-04 0.0 
0.0 0.0 0.0 
6.081521273016e-06 -8.629345239769e-06 0.0 
-8.629345239769e-06 1.531458806729e-04 0.0 
0.0 0.0 0.0 
-2.693911864315e-05 5.752715888363e-05 0.0 
5.752715888363e-05 1.919659234142e-04 0.0 
0.0 0.0 0.0 
-6.558033676329e-06 1.870667313053e-06 0.0 
1.870667313053e-06 1.260715315988e-03 0.0 
0.0 0.0 0.0 
-2.211143733366e-05 1.304063490566e-05 0.0 
1.304063490566e-05 1.025737794886e-03 0.0 
0.0 0.0 0.0 
-2.421430583754e-05 1.691677406682e-06 0.0 
1.691677406682e-06 8.044405290000e-04 0.0 
0.0 0.0 0.0 
-1.766315281704e-06 5.186248066957e-05 0.0 
5.186248066957e-05 1.323950417029e-03 0.0 
0.0 0.0 0.0 
1.372600317273e-05 -5.581345491602e-06 0.0 
-5.581345491602e-06 2.930565289903e-04 0.0 
0.0 0.0 0.0 
-1.934865004327e-06 5.294832517938e-05 0.0 
5.294832517938e-05 1.318365473010e-03 0.0 
0.0 0.0 0.0 
-1.937285107567e-05 2.059473116438e-05 0.0 
2.059473116438e-05 1.024428537356e-03 0.0 
0.0 0.0 0.0 
2.913937190452e-05 5.574507662369e-06 0.0 
5.574507662369e-06 5.562566128752e-04 0.0 
0.0 0.0 0.0 
-9.635574716560e-06 4.486399746166e-05 0.0 
4.486399746166e-05 9.311087213133e-04 0.0 
0.0 0.0 0.0 
3.191636543387e-05 1.826625683746e-05 0.0 
1.826625683746e-05 5.295273943902e-04 0.0 
0.0 0.0 0.0 
-1.852650801792e-05 4.146874895435e-05 0.0 
4.146874895435e-05 3.803397345845e-04 0.0 
0.0 0.0 0.0 
3.102309539327e-05 1.424316296089e-05 0.0 
1.424316296089e-05 4.918148282413e-04 0.0 
0.0 0.0 0.0 
-1.815927727722e-05 2.654249684766e-05 0.0 
2.654249684766e-05 1.072336039446e-03 0.0 
0.0 0.0 0.0 
1.537983793276e-05 1.023708979947e-06 0.0 
1.023708979947e-06 1.058446375893e-03 0.0 
0.0 0.0 0.0 
3.182328478890e-05 2.554014387358e-05 0.0 
2.554014387358e-05 5.439018700804e-04 0.0 
0.0 0.0 0.0 
-1.586350443072e-05 3.736014123717e-05 0.0 
3.736014123717e-05 1.067489791255e-03 0.0 
0.0 0.0 0.0 
-2.019839329082e-05 -2.847293675149e-06 0.0 
-2.847293675149e-06 2.174454587744e-05 0.0 
0.0 0.0 0.0 
2.939319229323e-05 3.401052094279e-05 0.0 
3.401052094279e-05 5.616019008374e-04 0.0 
0.0 0.0 0.0 
-1.834405149259e-05 1.508257840475e-05 0.0 
1.508257840475e-05 1.121291614568e-03 0.0 
0.0 0.0 0.0 
2.903687697486e-05 9.559184199269e-06 0.0 
9.559184199269e-06 4.785498263316e-04 0.0 
0.0 0.0 0.0 
2.624368478732e-05 3.332790593756e-07 0.0 
3.332790593756e-07 4.315176317597e-04 0.0 
0.0 0.0 0.0 
-9.164763984160e-06 3.834253684990e-05 0.0 
3.834253684990e-05 9.321744883455e-04 0.0 
0.0 0.0 0.0 
2.312894224721e-05 1.010745642327e-05 0.0 
1.010745642327e-05 2.273713292200e-04 0.0 
0.0 0.0 0.0 
-2.558242759199e-05 8.623871727398e-06 0.0 
8.623871727398e-06 4.729483020094e-04 0.0 
0.0 0.0 0.0 
-2.207712113855e-05 6.567097789635e-06 0.0 
6.567097789635e-06 5.081070885702e-04 0.0 
0.0 0.0 0.0 
2.691510324304e-05 7.214369983700e-06 0.0 
7.214369983700e-06 4.169634286404e-04 0.0 
0.0 0.0 0.0 
2.553864054744e-05 2.326824233132e-05 0.0 
2.326824233132e-05 7.783521253819e-04 0.0 
0.0 0.0 0.0 
-3.229492365753e-07 4.886938306569e-05 0.0 
4.886938306569e-05 8.064682652846e-04 0.0 
0.0 0.0 0.0 
-1.757938927649e-05 3.031535353071e-05 0.0 
3.031535353071e-05 1.068299389352e-03 0.0 
0.0 0.0 0.0 
-8.027569069591e-06 3.283190857168e-05 0.0 
3.283190857168e-05 1.252564412371e-03 0.0 
0.0 0.0 0.0 
-2.083498144245e-05 7.865475049394e-06 0.0 
7.865475049394e-06 5.391121377520e-04 0.0 
0.0 0.0 0.0 
-9.105604497850e-06 -4.987432880648e-06 0.0 
-4.987432880648e-06 1.087780661329e-03 0.0 
0.0 0.0 0.0 
-6.757372648769e-06 4.187222411519e-05 0.0 
4.187222411519e-05 1.240083505036e-03 0.0 
0.0 0.0 0.0 
2.534528976805e-05 4.297698767616e-05 0.0 
4.297698767616e-05 5.193231004437e-04 0.0 
0.0 0.0 0.0 
-1.335649708722e-05 4.335233680935e-05 0.0 
4.335233680935e-05 2.854300310060e-04 0.0 
0.0 0.0 0.0 
-2.775665147370e-05 1.525742316513e-05 0.0 
1.525742316513e-05 6.111205928048e-04 0.0 
0.0 0.0 0.0 
2.748587899837e-05 1.941614536910e-05 0.0 
1.941614536910e-05 7.374454073379e-04 0.0 
0.0 0.0 0.0 
-1.720355459467e-05 3.353753338085e-05 0.0 
3.353753338085e-05 1.082023649141e-03 0.0 
0.0 0.0 0.0 
2.852445224177e-05 3.034011341509e-05 0.0 
3.034011341509e-05 7.357819332707e-04 0.0 
0.0 0.0 0.0 
1.545585921203e-05 5.381886556227e-05 0.0 
5.381886556227e-05 2.261819191545e-04 0.0 
0.0 0.0 0.0 
2.364302223890e-05 2.428522760885e-05 0.0 
2.428522760885e-05 8.428145174042e-04 0.0 
0.0 0.0 0.0 
-2.105401590013e-05 3.580201754399e-05 0.0 
3.580201754399e-05 4.213765829437e-04 0.0 
0.0 0.0 0.0 
1.494679622072e-06 4.097308314772e-05 0.0 
4.097308314772e-05 8.075865587329e-04 0.0 
0.0 0.0 0.0 
2.687666744050e-05 3.185105855386e-05 0.0 
3.185105855386e-05 8.003000445902e-04 0.0 
0.0 0.0 0.0 
-6.033307075604e-06 4.657802618886e-05 0.0 
4.657802618886e-05 9.496912583407e-04 0.0 
0.0 0.0 0.0 
-1.025119095432e-05 -2.219093493861e-06 0.0 
-2.219093493861e-06 1.009678518920e-03 0.0 
0.0 0.0 0.0 
2.397813819122e-05 -3.353544596972e-06 0.0 
-3.353544596972e-06 4.184210312632e-04 0.0 
0.0 0.0 0.0 
-8.769040475309e-06 5.809780404569e-05 0.0 
5.809780404569e-05 2.850560473249e-04 0.0 
0.0 0.0 0.0 
2.487173191801e-05 3.322141440586e-05 0.0 
3.322141440586e-05 8.660466949002e-04 0.0 
0.0 0.0 0.0 
-2.202820640540e-05 2.999442686038e-05 0.0 
2.999442686038e-05 4.581718767462e-04 0.0 
0.0 0.0 0.0 
5.293979427945e-06 1.434206777396e-05 0.0 
1.434206777396e-05 6.597285875531e-05 0.0 
0.0 0.0 0.0 
-3.934712584308e-06 4.731617735270e-06 0.0 
4.731617735270e-06 1.267660493505e-03 0.0 
0.0 0.0 0.0 
-5.949024427743e-06 5.031114332559e-06 0.0 
5.031114332559e-06 1.209084792256e-03 0.0 
0.0 0.0 0.0 
-3.073062353143e-06 -4.123308398757e-06 0.0 
-4.123308398757e-06 5.973605778653e-05 0.0 
0.0 0.0 0.0 
2.137480474818e-05 2.546098745004e-05 0.0 
2.546098745004e-05 9.082953003361e-04 0.0 
0.0 0.0 0.0 
1.770467222983e-05 -7.334221245706e-06 0.0 
-7.334221245706e-06 3.194832252083e-04 0.0 
0.0 0.0 0.0 
2.114565096800e-05 3.511148552626e-06 0.0 
3.511148552626e-06 3.429838828277e-04 0.0 
0.0 0.0 0.0 
-1.319077557782e-05 3.951328539924e-05 0.0 
3.951328539924e-05 1.126817972013e-03 0.0 
0.0 0.0 0.0 
-5.443948485673e-06 3.933294503233e-05 0.0 
3.933294503233e-05 9.506720394465e-04 0.0 
0.0 0.0 0.0 
-1.357012935610e-05 4.024871009825e-05 0.0 
4.024871009825e-05 1.088905387850e-03 0.0 
0.0 0.0 0.0 
2.837331578776e-05 2.213199384959e-05 0.0 
2.213199384959e-05 5.637957839826e-04 0.0 
0.0 0.0 0.0 
-1.346351678022e-05 7.248167854222e-07 0.0 
7.248167854222e-07 7.964212906268e-04 0.0 
0.0 0.0 0.0 
4.488881331310e-06 2.759952120452e-05 0.0 
2.759952120452e-05 1.189903806841e-03 0.0 
0.0 0.0 0.0 
1.706215848030e-05 1.979025447278e-06 0.0 
1.979025447278e-06 2.813725878639e-04 0.0 
0.0 0.0 0.0 
9.186699384767e-06 3.767419428567e-05 0.0 
3.767419428567e-05 1.073940359251e-03 0.0 
0.0 0.0 0.0 
-2.648379100578e-06 4.040222921330e-05 0.0 
4.040222921330e-05 8.498528152079e-04 0.0 
0.0 0.0 0.0 
1.277977650749e-05 2.576521605749e-06 0.0 
2.576521605749e-06 2.181173374949e-04 0.0 
0.0 0.0 0.0 
-1.859742453947e-05 3.015167216998e-05 0.0 
3.015167216998e-05 1.059314780332e-03 0.0 
0.0 0.0 0.0 
2.641186238450e-05 3.880284851784e-05 0.0 
3.880284851784e-05 6.041519453810e-04 0.0 
0.0 0.0 0.0 
4.917827366002e-06 -3.910838564290e-06 0.0 
-3.910838564290e-06 1.127170262880e-04 0.0 
0.0 0.0 0.0 
3.048096694291e-05 3.286417952681e-05 0.0 
3.286417952681e-05 4.982294907951e-04 0.0 
0.0 0.0 0.0 
2.289085812013e-05 4.825314061108e-06 0.0 
4.825314061108e-06 8.952455421980e-04 0.0 
0.0 0.0 0.0 
-2.097770708254e-05 1.931149229702e-05 0.0 
1.931149229702e-05 1.074065950055e-03 0.0 
0.0 0.0 0.0 
1.020014561592e-05 -9.711494607816e-06 0.0 
-9.711494607816e-06 2.106911141677e-04 0.0 
0.0 0.0 0.0 
2.710992602872e-05 -1.837380957360e-06 0.0 
-1.837380957360e-06 7.191774748785e-04 0.0 
0.0 0.0 0.0 
-1.538276240254e-05 3.670548462062e-05 0.0 
3.670548462062e-05 1.104923077803e-03 0.0 
0.0 0.0 0.0 
-1.258145272076e-06 4.120031007565e-05 0.0 
4.120031007565e-05 1.096750555379e-03 0.0 
0.0 0.0 0.0 
2.927886252979e-05 1.025572716260e-05 0.0 
1.025572716260e-05 4.538701320229e-04 0.0 
0.0 0.0 0.0 
1.799862356910e-05 4.183959596059e-06 0.0 
4.183959596059e-06 3.544293865114e-04 0.0 
0.0 0.0 0.0 
2.004226653529e-07 4.840298841317e-05 0.0 
4.840298841317e-05 8.672015285904e-04 0.0 
0.0 0.0 0.0 
-1.038820453791e-05 -4.882554663975e-06 0.0 
-4.882554663975e-06 9.914818561956e-04 0.0 
0.0 0.0 0.0 
4.521554441972e-06 -4.575018531390e-06 0.0 
-4.575018531390e-06 1.108446179501e-04 0.0 
0.0 0.0 0.0 
-6.536206538676e-06 4.469548881844e-05 0.0 
4.469548881844e-05 1.286925886097e-03 0.0 
0.0 0.0 0.0 
-5.068978937151e-06 2.789044377606e-05 0.0 
2.789044377606e-05 1.306567017794e-03 0.0 
0.0 0.0 0.0 
-1.129514009834e-05 -4.154065831450e-06 0.0 
-4.154065831450e-06 9.029737504538e-04 0.0 
0.0 0.0 0.0 
-6.033044640308e-06 8.465120561157e-06 0.0 
8.465120561157e-06 1.303237819209e-03 0.0 
0.0 0.0 0.0 
-4.186071515200e-06 3.432725362619e-05 0.0 
3.432725362619e-05 1.304959304280e-03 0.0 
0.0 0.0 0.0 
3.052024933647e-05 3.054341927073e-05 0.0 
3.054341927073e-05 5.841962520556e-04 0.0 
0.0 0.0 0.0 
2.966796591397e-05 1.380945690720e-05 0.0 
1.380945690720e-05 5.460647885849e-04 0.0 
0.0 0.0 0.0 
3.832750116839e-06 4.772615194575e-05 0.0 
4.772615194575e-05 1.228071602376e-03 0.0 
0.0 0.0 0.0 
-1.517365723969e-05 6.415158638817e-07 0.0 
6.415158638817e-07 2.333806690724e-05 0.0 
0.0 0.0 0.0 
1.567067609498e-05 5.032254002106e-06 0.0 
5.032254002106e-06 3.211228060804e-04 0.0 
0.0 0.0 0.0 
2.473382787604e-05 5.665144530809e-06 0.0 
5.665144530809e-06 7.346808057056e-04 0.0 
0.0 0.0 0.0 
2.619442169083e-05 -3.878941936407e-07 0.0 
-3.878941936407e-07 4.558065436591e-04 0.0 
0.0 0.0 0.0 
3.198482889566e-05 2.353185116753e-05 0.0 
2.353185116753e-05 4.811510260638e-04 0.0 
0.0 0.0 0.0 
-2.408783126129e-05 1.194229995610e-05 0.0 
1.194229995610e-05 4.065169495440e-04 0.0 
0.0 0.0 0.0 
-2.201751519970e-05 1.071486738337e-05 0.0 
1.071486738337e-05 4.427424272648e-04 0.0 
0.0 0.0 0.0 
-1.610973829669e-05 -3.870434359111e-07 0.0 
-3.870434359111e-07 9.043976615593e-04 0.0 
0.0 0.0 0.0 
2.719204901425e-05 2.586719985387e-05 0.0 
2.586719985387e-05 5.422347355488e-04 0.0 
0.0 0.0 0.0 
1.904982146583e-05 3.063983360841e-06 0.0 
3.063983360841e-06 3.790025035091e-04 0.0 
0.0 0.0 0.0 
-3.740078272196e-06 4.812399817108e-05 0.0 
4.812399817108e-05 1.070832981610e-03 0.0 
0.0 0.0 0.0 
5.444328947668e-06 2.444427356024e-05 0.0 
2.444427356024e-05 1.245766349234e-03 0.0 
0.0 0.0 0.0 
3.916173906271e-06 2.633446121993e-05 0.0 
2.633446121993e-05 1.244980156552e-03 0.0 
0.0 0.0 0.0 
3.198916094460e-05 2.286423603878e-05 0.0 
2.286423603878e-05 5.680408497637e-04 0.0 
0.0 0.0 0.0 
-1.693183923357e-05 5.608741433639e-06 0.0 
5.608741433639e-06 8.522358068099e-04 0.0 
0.0 0.0 0.0 
-1.888314569598e-05 4.193186519193e-06 0.0 
4.193186519193e-06 5.691103712668e-05 0.0 
0.0 0.0 0.0 
-2.387054921560e-05 1.799560319675e-05 0.0 
1.799560319675e-05 3.449903633939e-04 0.0 
0.0 0.0 0.0 
1.522249604391e-05 1.470536000545e-06 0.0 
1.470536000545e-06 2.180037733974e-04 0.0 
0.0 0.0 0.0 
-2.319043898946e-05 1.485130454623e-05 0.0 
1.485130454623e-05 3.786550227363e-04 0.0 
0.0 0.0 0.0 
-2.279431586039e-06 3.968405801866e-05 0.0 
3.968405801866e-05 9.095679507714e-04 0.0 
0.0 0.0 0.0 
3.120463379402e-05 1.592951810031e-05 0.0 
1.592951810031e-05 4.676202276948e-04 0.0 
0.0 0.0 0.0 
2.937227993516e-05 1.664144927676e-05 0.0 
1.664144927676e-05 5.229427859419e-04 0.0 
0.0 0.0 0.0 
-1.535052343460e-06 -3.937537881517e-06 0.0 
-3.937537881517e-06 1.177497777993e-04 0.0 
0.0 0.0 0.0 
-5.864767507191e-06 2.210874355053e-06 0.0 
2.210874355053e-06 1.219667470212e-03 0.0 
0.0 0.0 0.0 
2.932225761532e-05 8.838957667052e-06 0.0 
8.838957667052e-06 5.072311475336e-04 0.0 
0.0 0.0 0.0 
-4.721396928642e-06 9.780254605811e-06 0.0 
9.780254605811e-06 1.259476419679e-03 0.0 
0.0 0.0 0.0 
-6.893721242851e-06 -1.124596709366e-06 0.0 
-1.124596709366e-06 1.169616150823e-03 0.0 
0.0 0.0 0.0 
-2.334489609734e-06 3.506640392374e-06 0.0 
3.506640392374e-06 1.372229945037e-03 0.0 
0.0 0.0 0.0 
4.671792568578e-06 6.653711613343e-06 0.0 
6.653711613343e-06 1.238211509426e-03 0.0 
0.0 0.0 0.0 
-1.232638773252e-05 3.744342603334e-06 0.0 
3.744342603334e-06 9.048032522554e-04 0.0 
0.0 0.0 0.0 
2.930339968410e-05 7.081215113534e-06 0.0 
7.081215113534e-06 5.314444718081e-04 0.0 
0.0 0.0 0.0 
-1.923749301069e-05 9.935034693095e-06 0.0 
9.935034693095e-06 4.730620857041e-04 0.0 
0.0 0.0 0.0 
3.168420190081e-05 1.654410473289e-05 0.0 
1.654410473289e-05 5.544006928653e-04 0.0 
0.0 0.0 0.0 
0.0 1.886222863131e-05 0.0 
1.886222863131e-05 1.244308808641e-03 0.0 
0.0 0.0 0.0 
-2.654251682177e-05 3.101292576192e-05 0.0 
3.101292576192e-05 2.776730319025e-04 0.0 
0.0 0.0 0.0 
-2.409521220215e-05 2.429166748737e-05 0.0 
2.429166748737e-05 3.119926571882e-04 0.0 
0.0 0.0 0.0 
6.063315026283e-06 4.073970771334e-05 0.0 
4.073970771334e-05 1.115462137309e-03 0.0 
0.0 0.0 0.0 
-1.526372535343e-05 2.379778994415e-06 0.0 
2.379778994415e-06 8.539905980725e-04 0.0 
0.0 0.0 0.0 
-4.487507443973e-06 8.140961749716e-06 0.0 
8.140961749716e-06 1.266266257725e-03 0.0 
0.0 0.0 0.0 
-1.739633319997e-05 2.918178633926e-05 0.0 
2.918178633926e-05 1.105398072691e-03 0.0 
0.0 0.0 0.0 
7.408925162267e-08 5.051572466431e-05 0.0 
5.051572466431e-05 1.155360814463e-03 0.0 
0.0 0.0 0.0 
-1.738024765940e-05 2.442487101032e-05 0.0 
2.442487101032e-05 1.156544126808e-03 0.0 
0.0 0.0 0.0 
-1.149183545979e-05 5.250253994430e-06 0.0 
5.250253994430e-06 9.163208073271e-04 0.0 
0.0 0.0 0.0 
2.375632983287e-05 -2.877508534367e-06 0.0 
-2.877508534367e-06 3.943893613709e-04 0.0 
0.0 0.0 0.0 
2.703077672739e-05 8.005397878211e-06 0.0 
8.005397878211e-06 3.929487594148e-04 0.0 
0.0 0.0 0.0 
-8.849922021215e-06 5.141309806195e-06 0.0 
5.141309806195e-06 1.054430888148e-03 0.0 
0.0 0.0 0.0 
-3.607026538677e-06 4.028155186322e-05 0.0 
4.028155186322e-05 1.133549203894e-03 0.0 
0.0 0.0 0.0 
-1.982620507990e-05 4.517073881966e-06 0.0 
4.517073881966e-06 7.994283593282e-04 0.0 
0.0 0.0 0.0 
-1.239918296714e-05 4.335731116637e-07 0.0 
4.335731116637e-07 8.498493005964e-04 0.0 
0.0 0.0 0.0 
-1.188531346841e-05 -8.924263577534e-07 0.0 
-8.924263577534e-07 9.012504282646e-04 0.0 
0.0 0.0 0.0 
-1.358497159776e-05 -4.271494365384e-06 0.0 
-4.271494365384e-06 9.197788746536e-04 0.0 
0.0 0.0 0.0 
2.023686335328e-05 1.527867661941e-05 0.0 
1.527867661941e-05 1.795502305120e-04 0.0 
0.0 0.0 0.0 
2.401769985672e-05 4.942137503009e-06 0.0 
4.942137503009e-06 3.560414791381e-04 0.0 
0.0 0.0 0.0 
-4.759649018582e-06 9.762613190222e-06 0.0 
9.762613190222e-06 1.322248611827e-03 0.0 
0.0 0.0 0.0 
-1.185862883635e-05 -3.078597415278e-06 0.0 
-3.078597415278e-06 9.814118695788e-04 0.0 
0.0 0.0 0.0 
2.280298809554e-06 5.347038684352e-05 0.0 
5.347038684352e-05 1.258122685124e-03 0.0 
0.0 0.0 0.0 
-1.198823765769e-05 2.793856097044e-05 0.0 
2.793856097044e-05 1.255194631782e-03 0.0 
0.0 0.0 0.0 
-2.101115639164e-05 2.338542002672e-05 0.0 
2.338542002672e-05 1.060593404457e-03 0.0 
0.0 0.0 0.0 
-8.873610301219e-06 1.073627296883e-05 0.0 
1.073627296883e-05 1.263363001599e-03 0.0 
0.0 0.0 0.0 
2.622680356779e-05 4.228154742200e-06 0.0 
4.228154742200e-06 5.383572669750e-04 0.0 
0.0 0.0 0.0 
2.214201955786e-05 3.796402820457e-06 0.0 
3.796402820457e-06 4.893700003468e-04 0.0 
0.0 0.0 0.0 
1.038644234619e-05 3.079651406612e-05 0.0 
3.079651406612e-05 1.137774183704e-03 0.0 
0.0 0.0 0.0 
-9.367252168380e-07 -2.065320605456e-07 0.0 
-2.065320605456e-07 5.924044313210e-05 0.0 
0.0 0.0 0.0 
1.607348042354e-05 -2.856148103583e-06 0.0 
-2.856148103583e-06 3.400071982307e-04 0.0 
0.0 0.0 0.0 
0.0 5.016787763823e-05 0.0 
5.016787763823e-05 1.321105630260e-03 0.0 
0.0 0.0 0.0 
7.756242038193e-06 -5.455418848887e-06 0.0 
-5.455418848887e-06 1.604567110502e-04 0.0 
0.0 0.0 0.0 
-1.182961624713e-05 8.146668201081e-07 0.0 
8.146668201081e-07 8.501032831896e-04 0.0 
0.0 0.0 0.0 
7.696248328637e-06 4.273806670377e-05 0.0 
4.273806670377e-05 1.166635508263e-03 0.0 
0.0 0.0 0.0 
-4.065260603703e-07 -2.469420852950e-07 0.0 
-2.469420852950e-07 1.039305434563e-04 0.0 
0.0 0.0 0.0 
-1.788957612159e-06 -3.318581066222e-06 0.0 
-3.318581066222e-06 5.559315923476e-05 0.0 
0.0 0.0 0.0 
-2.564687265783e-06 9.451425897646e-06 0.0 
9.451425897646e-06 1.371930066861e-03 0.0 
0.0 0.0 0.0 
-1.439355220811e-05 2.625761625524e-06 0.0 
2.625761625524e-06 7.966606555792e-04 0.0 
0.0 0.0 0.0 
-4.171286217436e-06 1.532098889947e-05 0.0 
1.532098889947e-05 1.309101513597e-03 0.0 
0.0 0.0 0.0 
4.463028443480e-06 4.392404615847e-05 0.0 
4.392404615847e-05 1.174211462611e-03 0.0 
0.0 0.0 0.0 
-1.430660861579e-05 -8.406623367221e-07 0.0 
-8.406623367221e-07 7.955481240007e-04 0.0 
0.0 0.0 0.0 
-1.524889249505e-05 4.450712720988e-06 0.0 
4.450712720988e-06 6.536090541021e-05 0.0 
0.0 0.0 0.0 
-2.214388617139e-06 -2.404274672961e-07 0.0 
-2.404274672961e-07 1.321171790048e-03 0.0 
0.0 0.0 0.0 
8.538661142143e-06 -9.232966159214e-06 0.0 
-9.232966159214e-06 1.794138753035e-04 0.0 
0.0 0.0 0.0 
-5.251226631531e-06 1.156224741626e-05 0.0 
1.156224741626e-05 1.275777157687e-03 0.0 
0.0 0.0 0.0 
0.0 1.531685309601e-05 0.0 
1.531685309601e-05 1.241658066184e-03 0.0 
0.0 0.0 0.0 
-1.061397838864e-05 2.298001267161e-05 0.0 
2.298001267161e-05 1.260661140944e-03 0.0 
0.0 0.0 0.0 
2.785281317408e-05 2.070450176326e-05 0.0 
2.070450176326e-05 2.373116636039e-04 0.0 
0.0 0.0 0.0 
-1.839480831034e-05 6.530614606700e-06 0.0 
6.530614606700e-06 9.068478309293e-04 0.0 
0.0 0.0 0.0 
2.243560282444e-05 -3.029064878026e-06 0.0 
-3.029064878026e-06 5.476566214966e-04 0.0 
0.0 0.0 0.0 
-4.011762519629e-06 3.940848952971e-05 0.0 
3.940848952971e-05 1.071485333648e-03 0.0 
0.0 0.0 0.0 
3.293140833360e-07 5.190820840798e-05 0.0 
5.190820840798e-05 1.301777708758e-03 0.0 
0.0 0.0 0.0 
-8.831610853854e-06 4.098477559596e-06 0.0 
4.098477559596e-06 1.121891256133e-03 0.0 
0.0 0.0 0.0 
1.552906457869e-06 5.564756572691e-05 0.0 
5.564756572691e-05 1.293170008386e-03 0.0 
0.0 0.0 0.0 
1.198241974998e-05 9.175985798898e-06 0.0 
9.175985798898e-06 1.077639072542e-04 0.0 
0.0 0.0 0.0 
7.572956017832e-06 1.657877833348e-05 0.0 
1.657877833348e-05 1.191617087972e-03 0.0 
0.0 0.0 0.0 
2.602203884638e-05 1.634390719868e-05 0.0 
1.634390719868e-05 2.706871127138e-04 0.0 
0.0 0.0 0.0 
8.675050070073e-06 2.066832299900e-07 0.0 
2.066832299900e-07 1.607062875388e-04 0.0 
0.0 0.0 0.0 
6.423164436109e-06 4.001203095865e-05 0.0 
4.001203095865e-05 1.213880405548e-03 0.0 
0.0 0.0 0.0 
-6.847847184521e-06 1.842920437701e-05 0.0 
1.842920437701e-05 1.319239205494e-03 0.0 
0.0 0.0 0.0 
-3.793087243964e-06 8.571347590705e-06 0.0 
8.571347590705e-06 1.331663615209e-03 0.0 
0.0 0.0 0.0 
-1.295702140891e-05 5.517046587498e-06 0.0 
5.517046587498e-06 8.468048270740e-04 0.0 
0.0 0.0 0.0 
-2.057532775224e-05 1.325181737058e-05 0.0 
1.325181737058e-05 9.131672403990e-04 0.0 
0.0 0.0 0.0 
-2.242233354399e-05 4.314386524129e-05 0.0 
4.314386524129e-05 3.804229733253e-04 0.0 
0.0 0.0 0.0 
-7.689214436724e-06 3.289620397996e-05 0.0 
3.289620397996e-05 1.307045628372e-03 0.0 
0.0 0.0 0.0 
2.268053840937e-05 3.828083894294e-06 0.0 
3.828083894294e-06 4.523994590651e-04 0.0 
0.0 0.0 0.0 
7.625206017936e-06 5.211633934223e-05 0.0 
5.211633934223e-05 2.159263315900e-04 0.0 
0.0 0.0 0.0 
-6.951155353541e-07 4.915934963819e-05 0.0 
4.915934963819e-05 1.095697217627e-03 0.0 
0.0 0.0 0.0 
-1.288106814934e-05 -3.219405898778e-07 0.0 
-3.219405898778e-07 7.936495340997e-04 0.0 
0.0 0.0 0.0 
-6.535326685597e-06 2.232781544154e-05 0.0 
2.232781544154e-05 1.277812411702e-03 0.0 
0.0 0.0 0.0 
-1.330717509407e-06 -4.114969887153e-06 0.0 
-4.114969887153e-06 1.368073749866e-03 0.0 
0.0 0.0 0.0 
0.0 6.653587546871e-07 0.0 
6.653587546871e-07 1.376303689640e-03 0.0 
0.0 0.0 0.0 
-2.009498277777e-07 1.259674874730e-07 0.0 
1.259674874730e-07 1.517492646519e-05 0.0 
0.0 0.0 0.0 
-1.045530164778e-06 3.708197902838e-07 0.0 
3.708197902838e-07 1.650921140772e-05 0.0 
0.0 0.0 0.0 
-1.205482220534e-05 -3.911139989950e-06 0.0 
-3.911139989950e-06 8.013529180884e-04 0.0 
0.0 0.0 0.0 
-1.354434365941e-05 6.294655975985e-07 0.0 
6.294655975985e-07 7.937612283673e-04 0.0 
0.0 0.0 0.0 
0.0 2.424284362569e-06 0.0 
2.424284362569e-06 1.238192773609e-03 0.0 
0.0 0.0 0.0 
4.848568725180e-06 4.588301434155e-06 0.0 
4.588301434155e-06 1.229016170741e-03 0.0 
0.0 0.0 0.0 
1.055494653901e-06 3.307135385275e-06 0.0 
3.307135385275e-06 5.139606783855e-05 0.0 
0.0 0.0 0.0 
-1.888691783536e-05 -3.025824912898e-06 0.0 
-3.025824912898e-06 2.151234284375e-05 0.0 
0.0 0.0 0.0 
9.443120690733e-06 1.399030987569e-05 0.0 
1.399030987569e-05 1.128395739977e-03 0.0 
0.0 0.0 0.0 
-4.335496596952e-06 5.144068570290e-05 0.0 
5.144068570290e-05 1.210271203880e-03 0.0 
0.0 0.0 0.0 
9.912088539732e-06 -6.643875922122e-06 0.0 
-6.643875922122e-06 2.124519178750e-04 0.0 
0.0 0.0 0.0 
8.704886230948e-06 1.742679728474e-05 0.0 
1.742679728474e-05 1.147733828209e-03 0.0 
0.0 0.0 0.0 
2.517530709323e-05 -5.495382313387e-07 0.0 
-5.495382313387e-07 7.863735426437e-04 0.0 
0.0 0.0 0.0 
2.462229888178e-05 -4.241365018290e-06 0.0 
-4.241365018290e-06 6.733768906417e-04 0.0 
0.0 0.0 0.0 
-1.201064178036e-05 3.752046109252e-06 0.0 
3.752046109252e-06 1.013405282000e-03 0.0 
0.0 0.0 0.0 
1.543876637400e-05 4.942565401193e-06 0.0 
4.942565401193e-06 1.999432789888e-04 0.0 
0.0 0.0 0.0 
-4.851000820927e-06 3.906324929602e-05 0.0 
3.906324929602e-05 1.010853467912e-03 0.0 
0.0 0.0 0.0 
6.250787367934e-06 -1.979335403786e-06 0.0 
-1.979335403786e-06 1.663442241833e-04 0.0 
0.0 0.0 0.0 
2.656489818409e-05 -3.356751114156e-06 0.0 
-3.356751114156e-06 6.086696391070e-04 0.0 
0.0 0.0 0.0 
-6.743873686266e-06 3.513741777788e-05 0.0 
3.513741777788e-05 1.264355957310e-03 0.0 
0.0 0.0 0.0 
-5.317898759793e-06 -4.740022759419e-06 0.0 
-4.740022759419e-06 1.243704970410e-03 0.0 
0.0 0.0 0.0 
2.733890016504e-05 3.180116298880e-06 0.0 
3.180116298880e-06 6.691984633280e-04 0.0 
0.0 0.0 0.0 
-1.197327733149e-05 -3.598013265059e-06 0.0 
-3.598013265059e-06 9.476270706910e-04 0.0 
0.0 0.0 0.0 
-8.598830578355e-06 4.565449777797e-05 0.0 
4.565449777797e-05 1.236000236290e-03 0.0 
0.0 0.0 0.0 
-1.565464490716e-05 2.726366610803e-05 0.0 
2.726366610803e-05 1.178232194324e-03 0.0 
0.0 0.0 0.0 
-1.862409564024e-05 2.526653747756e-05 0.0 
2.526653747756e-05 1.119163055453e-03 0.0 
0.0 0.0 0.0 
-1.385664277653e-05 5.632105756840e-07 0.0 
5.632105756840e-07 7.963572117724e-04 0.0 
0.0 0.0 0.0 
-2.087127759842e-06 3.924863829388e-05 0.0 
3.924863829388e-05 9.708666483716e-04 0.0 
0.0 0.0 0.0 
-7.466436409365e-06 2.505235150719e-05 0.0 
2.505235150719e-05 1.267345423497e-03 0.0 
0.0 0.0 0.0 
1.698068141054e-05 2.038119610936e-06 0.0 
2.038119610936e-06 3.391686845202e-04 0.0 
0.0 0.0 0.0 
-8.801636208755e-06 -4.655664959486e-06 0.0 
-4.655664959486e-06 6.247569679063e-05 0.0 
0.0 0.0 0.0 
-1.055198389377e-05 3.726111199561e-05 0.0 
3.726111199561e-05 1.201270801378e-03 0.0 
0.0 0.0 0.0 
9.823790937169e-06 4.599668699593e-05 0.0 
4.599668699593e-05 1.073384129894e-03 0.0 
0.0 0.0 0.0 
1.278213956346e-05 -5.611818395689e-06 0.0 
-5.611818395689e-06 1.605659201867e-04 0.0 
0.0 0.0 0.0 
-1.050961302651e-05 -2.619692136861e-06 0.0 
-2.619692136861e-06 1.058239618963e-03 0.0 
0.0 0.0 0.0 
4.449964479569e-06 1.042119730375e-05 0.0 
1.042119730375e-05 1.179174262952e-03 0.0 
0.0 0.0 0.0 
-6.516746451912e-06 4.528815198292e-05 0.0 
4.528815198292e-05 1.183936025145e-03 0.0 
0.0 0.0 0.0 
-8.063558425531e-06 4.475134545947e-05 0.0 
4.475134545947e-05 1.229324208470e-03 0.0 
0.0 0.0 0.0 
2.358309534656e-05 -3.895850263845e-06 0.0 
-3.895850263845e-06 8.542984526525e-04 0.0 
0.0 0.0 0.0 
1.770981272364e-05 2.958885625705e-05 0.0 
2.958885625705e-05 5.983422290590e-05 0.0 
0.0 0.0 0.0 
-1.747011556319e-05 1.084505754866e-05 0.0 
1.084505754866e-05 4.064061547273e-04 0.0 
0.0 0.0 0.0 
-2.664787775031e-05 2.908769659744e-05 0.0 
2.908769659744e-05 4.581382285505e-04 0.0 
0.0 0.0 0.0 
-1.754111102070e-05 7.040607881242e-06 0.0 
7.040607881242e-06 9.071493884603e-04 0.0 
0.0 0.0 0.0 
-2.267972426861e-06 4.815972030212e-05 0.0 
4.815972030212e-05 9.697937277537e-04 0.0 
0.0 0.0 0.0 
-5.227458286905e-06 2.966348448597e-06 0.0 
2.966348448597e-06 1.283351031950e-03 0.0 
0.0 0.0 0.0 
3.037605596612e-06 4.810123284764e-05 0.0 
4.810123284764e-05 1.227897454076e-03 0.0 
0.0 0.0 0.0 
-3.918046721951e-06 -5.122135267905e-06 0.0 
-5.122135267905e-06 1.149254904866e-04 0.0 
0.0 0.0 0.0 
-3.112928093185e-06 -4.299929796246e-06 0.0 
-4.299929796246e-06 1.091771878088e-04 0.0 
0.0 0.0 0.0 
-1.282682216330e-05 1.669264514567e-05 0.0 
1.669264514567e-05 3.448560419603e-04 0.0 
0.0 0.0 0.0 
-8.806039569875e-06 8.389436267796e-06 0.0 
8.389436267796e-06 1.076325478845e-03 0.0 
0.0 0.0 0.0 
1.932351472256e-05 -5.526701825642e-06 0.0 
-5.526701825642e-06 4.205030219060e-04 0.0 
0.0 0.0 0.0 
-7.249411150378e-06 1.261070383154e-05 0.0 
1.261070383154e-05 1.285309244684e-03 0.0 
0.0 0.0 0.0 
9.452840927349e-06 -6.169655930218e-06 0.0 
-6.169655930218e-06 2.027507425579e-04 0.0 
0.0 0.0 0.0 
4.928954011829e-06 4.710163549339e-05 0.0 
4.710163549339e-05 1.172115628212e-03 0.0 
0.0 0.0 0.0 
-1.403918717013e-05 7.052000214060e-06 0.0 
7.052000214060e-06 9.027336246821e-04 0.0 
0.0 0.0 0.0 
-1.123013542159e-07 4.873418217509e-05 0.0 
4.873418217509e-05 1.261531763635e-03 0.0 
0.0 0.0 0.0 
-6.277183994041e-06 3.922173510164e-05 0.0 
3.922173510164e-05 1.111682520307e-03 0.0 
0.0 0.0 0.0 
-1.936309000317e-05 5.405493501952e-06 0.0 
5.405493501952e-06 9.072928236242e-04 0.0 
0.0 0.0 0.0 
8.399834091177e-06 3.589234909143e-05 0.0 
3.589234909143e-05 1.203936571917e-03 0.0 
0.0 0.0 0.0 
-6.273432246129e-06 1.976240230166e-05 0.0 
1.976240230166e-05 1.321552362709e-03 0.0 
0.0 0.0 0.0 
-2.930975224857e-06 2.992012823562e-06 0.0 
2.992012823562e-06 1.324288581277e-03 0.0 
0.0 0.0 0.0 
-8.201204680702e-06 2.041666544772e-05 0.0 
2.041666544772e-05 2.771144310472e-04 0.0 
0.0 0.0 0.0 
-6.643043171106e-06 1.765904101000e-05 0.0 
1.765904101000e-05 1.262835470690e-03 0.0 
0.0 0.0 0.0 
-3.649556274188e-06 4.230558631131e-05 0.0 
4.230558631131e-05 1.288761677656e-03 0.0 
0.0 0.0 0.0 
5.603788932218e-06 4.397565440635e-05 0.0 
4.397565440635e-05 1.173369916091e-03 0.0 
0.0 0.0 0.0 
-1.646464403371e-06 4.984399231924e-05 0.0 
4.984399231924e-05 1.131315100570e-03 0.0 
0.0 0.0 0.0 
0.0 2.571263739733e-05 0.0 
2.571263739733e-05 1.246084892746e-03 0.0 
0.0 0.0 0.0 
-1.591372145493e-05 3.317829311003e-05 0.0 
3.317829311003e-05 1.118068376725e-03 0.0 
0.0 0.0 0.0 
-6.855983129772e-06 1.431454812271e-05 0.0 
1.431454812271e-05 2.222751868541e-05 0.0 
0.0 0.0 0.0 
-8.247465770439e-06 6.065577055683e-05 0.0 
6.065577055683e-05 2.851472278513e-04 0.0 
0.0 0.0 0.0 
-1.434763733055e-05 2.765404104886e-05 0.0 
2.765404104886e-05 1.214750841596e-03 0.0 
0.0 0.0 0.0 
-1.659008151800e-05 1.072995302083e-05 0.0 
1.072995302083e-05 9.544374999744e-04 0.0 
0.0 0.0 0.0 
1.130731119603e-05 1.788717356102e-06 0.0 
1.788717356102e-06 1.123825204719e-03 0.0 
0.0 0.0 0.0 
-4.997121132222e-06 4.088028009108e-05 0.0 
4.088028009108e-05 1.171683161703e-03 0.0 
0.0 0.0 0.0 
5.334341052654e-06 2.062165795971e-05 0.0 
2.062165795971e-05 1.193707107188e-03 0.0 
0.0 0.0 0.0 
-7.126521733514e-06 7.917794440347e-06 0.0 
7.917794440347e-06 1.142019028539e-03 0.0 
0.0 0.0 0.0 
-9.678828000181e-07 4.857452785378e-05 0.0 
4.857452785378e-05 1.257047053561e-03 0.0 
0.0 0.0 0.0 
8.627713274256e-06 2.883215561875e-05 0.0 
2.883215561875e-05 1.156431698266e-03 0.0 
0.0 0.0 0.0 
1.040483748671e-05 3.704045008808e-05 0.0 
3.704045008808e-05 1.155682733083e-03 0.0 
0.0 0.0 0.0 
1.988746442971e-05 -3.721651533465e-06 0.0 
-3.721651533465e-06 4.369500586763e-04 0.0 
0.0 0.0 0.0 
6.792604112515e-06 2.087878841598e-05 0.0 
2.087878841598e-05 1.244772049710e-03 0.0 
0.0 0.0 0.0 
-1.678156560969e-05 3.388983117033e-06 0.0 
3.388983117033e-06 8.490740829747e-04 0.0 
0.0 0.0 0.0 
-4.549692062317e-06 -5.748961838917e-07 0.0 
-5.748961838917e-07 1.267339181526e-03 0.0 
0.0 0.0 0.0 
4.622566927237e-06 -7.572099055346e-06 0.0 
-7.572099055346e-06 1.102941412157e-04 0.0 
0.0 0.0 0.0 
-5.648266031000e-06 -1.136442364660e-06 0.0 
-1.136442364660e-06 1.220942814310e-03 0.0 
0.0 0.0 0.0 
-1.012813387347e-05 9.084823874858e-07 0.0 
9.084823874858e-07 1.063531748799e-03 0.0 
0.0 0.0 0.0 
2.673085870430e-06 -4.464151830341e-06 0.0 
-4.464151830341e-06 1.113647352935e-04 0.0 
0.0 0.0 0.0 
1.846152148932e-05 6.686234378595e-06 0.0 
6.686234378595e-06 2.164841497818e-04 0.0 
0.0 0.0 0.0 
-1.437104062185e-05 3.630409690912e-05 0.0 
3.630409690912e-05 1.141307282869e-03 0.0 
0.0 0.0 0.0 
-3.113511495956e-06 8.964907598973e-06 0.0 
8.964907598973e-06 1.321324584738e-03 0.0 
0.0 0.0 0.0 
-5.106525793330e-06 -2.004965711025e-06 0.0 
-2.004965711025e-06 1.276189912207e-03 0.0 
0.0 0.0 0.0 
2.113080658672e-06 5.548510028739e-05 0.0 
5.548510028739e-05 1.239250191249e-03 0.0 
0.0 0.0 0.0 
-1.206559608979e-05 7.306874790923e-06 0.0 
7.306874790923e-06 9.467145738922e-04 0.0 
0.0 0.0 0.0 
-6.702258472879e-06 -4.599343960828e-06 0.0 
-4.599343960828e-06 6.027195225977e-05 0.0 
0.0 0.0 0.0 
1.832050685158e-05 3.168641017176e-05 0.0 
3.168641017176e-05 1.089826696501e-04 0.0 
0.0 0.0 0.0 
-4.018612226209e-06 1.908197409698e-06 0.0 
1.908197409698e-06 7.099505662200e-05 0.0 
0.0 0.0 0.0 
4.492623742136e-06 -9.988549686095e-06 0.0 
-9.988549686095e-06 1.524619122528e-04 0.0 
0.0 0.0 0.0 
-2.145187385594e-05 5.518159093379e-05 0.0 
5.518159093379e-05 3.954880276957e-05 0.0 
0.0 0.0 0.0 
2.604966600694e-05 4.155977388744e-06 0.0 
4.155977388744e-06 5.927078160379e-04 0.0 
0.0 0.0 0.0 
1.208276961195e-05 1.125858084991e-05 0.0 
1.125858084991e-05 1.123623793564e-03 0.0 
0.0 0.0 0.0 
-8.530483442626e-06 3.008378757396e-05 0.0 
3.008378757396e-05 1.261657831823e-03 0.0 
0.0 0.0 0.0 
-2.085266018403e-05 5.996923859650e-06 0.0 
5.996923859650e-06 9.502791205267e-04 0.0 
0.0 0.0 0.0 
2.361858476441e-05 -6.272723647500e-06 0.0 
-6.272723647500e-06 5.158119508970e-04 0.0 
0.0 0.0 0.0 
1.086680480600e-05 2.386147335226e-05 0.0 
2.386147335226e-05 1.140132122419e-03 0.0 
0.0 0.0 0.0 
1.141386751735e-05 4.571532550375e-05 0.0 
4.571532550375e-05 1.148032833678e-03 0.0 
0.0 0.0 0.0 
-1.876477837559e-06 5.288956871902e-05 0.0 
5.288956871902e-05 1.265441666461e-03 0.0 
0.0 0.0 0.0 
-6.657045698244e-06 4.015480119858e-05 0.0 
4.015480119858e-05 1.242538646577e-03 0.0 
0.0 0.0 0.0 
-1.125713446015e-05 3.818237524674e-05 0.0 
3.818237524674e-05 1.199457743293e-03 0.0 
0.0 0.0 0.0 
3.183930767259e-06 -2.292823790577e-06 0.0 
-2.292823790577e-06 1.085676777646e-04 0.0 
0.0 0.0 0.0 
-3.232284711663e-06 -2.338007609847e-06 0.0 
-2.338007609847e-06 9.952511119238e-05 0.0 
0.0 0.0 0.0 
1.037925113589e-05 7.148685984215e-06 0.0 
7.148685984215e-06 1.130580922192e-03 0.0 
0.0 0.0 0.0 
6.020325604705e-06 -6.413553039011e-07 0.0 
-6.413553039011e-07 1.088810690471e-04 0.0 
0.0 0.0 0.0 
4.997847264265e-06 5.903445753205e-06 0.0 
5.903445753205e-06 1.349718463151e-04 0.0 
0.0 0.0 0.0 
5.678570359935e-06 6.339649464983e-05 0.0 
6.339649464983e-05 1.495906669919e-04 0.0 
0.0 0.0 0.0 
-3.304515462377e-07 -9.594950263790e-06 0.0 
-9.594950263790e-06 1.036425667353e-04 0.0 
0.0 0.0 0.0 
4.046145450243e-06 3.376628802656e-05 0.0 
3.376628802656e-05 1.203032910735e-03 0.0 
0.0 0.0 0.0 
-4.749919126912e-06 3.566907914755e-05 0.0 
3.566907914755e-05 1.302474561395e-03 0.0 
0.0 0.0 0.0 
-5.259618079734e-06 1.072445877129e-05 0.0 
1.072445877129e-05 1.283798129736e-03 0.0 
0.0 0.0 0.0 
-1.893729973168e-06 4.832401873075e-05 0.0 
4.832401873075e-05 1.272068211578e-03 0.0 
0.0 0.0 0.0 
9.192428965576e-06 3.633265075816e-05 0.0 
3.633265075816e-05 1.118136634702e-03 0.0 
0.0 0.0 0.0 
-1.078503165941e-05 7.793776163014e-06 0.0 
7.793776163014e-06 9.824145563917e-04 0.0 
0.0 0.0 0.0 
0.0 1.242189472407e-05 0.0 
1.242189472407e-05 1.374943712818e-03 0.0 
0.0 0.0 0.0 
2.219918595925e-05 3.776393921623e-06 0.0 
3.776393921623e-06 2.702585260821e-04 0.0 
0.0 0.0 0.0 
-1.358714176103e-05 5.609043377002e-07 0.0 
5.609043377002e-07 7.931057330399e-04 0.0 
0.0 0.0 0.0 
4.687552040084e-06 -1.430551273039e-06 0.0 
-1.430551273039e-06 1.589110104503e-04 0.0 
0.0 0.0 0.0 
3.282486622735e-06 -1.049967183538e-06 0.0 
-1.049967183538e-06 5.660095221738e-05 0.0 
0.0 0.0 0.0 
6.526215744707e-06 1.579631965944e-05 0.0 
1.579631965944e-05 1.240120105746e-03 0.0 
0.0 0.0 0.0 
-2.029670771486e-05 4.409542220975e-06 0.0 
4.409542220975e-06 8.564200449352e-04 0.0 
0.0 0.0 0.0 
7.114925155038e-06 -1.611214396912e-06 0.0 
-1.611214396912e-06 1.589697898285e-04 0.0 
0.0 0.0 0.0 
2.413283197855e-05 5.956690981956e-06 0.0 
5.956690981956e-06 5.692133183750e-04 0.0 
0.0 0.0 0.0 
-6.817220378652e-06 3.798884578948e-05 0.0 
3.798884578948e-05 1.306504740774e-03 0.0 
0.0 0.0 0.0 
-6.529438803970e-06 5.277909223094e-06 0.0 
5.277909223094e-06 1.277763335936e-03 0.0 
0.0 0.0 0.0 
-4.154497350473e-06 2.015026791225e-05 0.0 
2.015026791225e-05 1.320331368462e-03 0.0 
0.0 0.0 0.0 
1.873299945232e-05 -4.421551825557e-06 0.0 
-4.421551825557e-06 3.967466192993e-04 0.0 
0.0 0.0 0.0 
5.546139834278e-06 5.715867853457e-06 0.0 
5.715867853457e-06 1.017149972178e-04 0.0 
0.0 0.0 0.0 
7.798920553581e-06 2.152312254865e-05 0.0 
2.152312254865e-05 1.193418566162e-03 0.0 
0.0 0.0 0.0 
-6.942510624164e-07 1.774375420000e-06 0.0 
1.774375420000e-06 1.375584845101e-03 0.0 
0.0 0.0 0.0 
4.254220540956e-06 2.770496902737e-06 0.0 
2.770496902737e-06 1.237876261299e-03 0.0 
0.0 0.0 0.0 
-1.211882256325e-05 3.099857607532e-06 0.0 
3.099857607532e-06 8.401394265591e-04 0.0 
0.0 0.0 0.0 
6.519309049047e-06 4.048378141197e-05 0.0 
4.048378141197e-05 1.164069173246e-03 0.0 
0.0 0.0 0.0 
1.026673678339e-05 -5.050009647269e-06 0.0 
-5.050009647269e-06 1.625225328519e-04 0.0 
0.0 0.0 0.0 
-6.690192647429e-06 1.940291319271e-05 0.0 
1.940291319271e-05 1.285856799049e-03 0.0 
0.0 0.0 0.0 
9.573752357550e-07 -3.145372368212e-06 0.0 
-3.145372368212e-06 5.401460612608e-05 0.0 
0.0 0.0 0.0 
3.347415279409e-06 3.898134725714e-05 0.0 
3.898134725714e-05 1.214105902193e-03 0.0 
0.0 0.0 0.0 
-7.082167364447e-06 2.453748096702e-05 0.0 
2.453748096702e-05 1.315145520745e-03 0.0 
0.0 0.0 0.0 
1.031366301496e-05 8.662957862993e-06 0.0 
8.662957862993e-06 5.510522723617e-05 0.0 
0.0 0.0 0.0 
-8.627007948681e-06 4.091043920781e-05 0.0 
4.091043920781e-05 1.185594493657e-03 0.0 
0.0 0.0 0.0 
-8.041605027320e-06 -2.361435867125e-06 0.0 
-2.361435867125e-06 1.110145627639e-03 0.0 
0.0 0.0 0.0 
-2.214163882797e-06 6.281284221589e-06 0.0 
6.281284221589e-06 1.326046242190e-03 0.0 
0.0 0.0 0.0 
0.0 5.142892427533e-05 0.0 
5.142892427533e-05 1.301227413749e-03 0.0 
0.0 0.0 0.0 
-1.034339363515e-05 -6.333164953375e-06 0.0 
-6.333164953375e-06 1.025304710986e-03 0.0 
0.0 0.0 0.0 
-3.970622564853e-06 3.542446946388e-05 0.0 
3.542446946388e-05 1.308708528887e-03 0.0 
0.0 0.0 0.0 
-8.819968999485e-06 1.610044517487e-05 0.0 
1.610044517487e-05 1.280050785383e-03 0.0 
0.0 0.0 0.0 
-9.254122280256e-06 1.465091757057e-06 0.0 
1.465091757057e-06 1.062736920023e-03 0.0 
0.0 0.0 0.0 
-7.148299153603e-06 3.411884871035e-05 0.0 
3.411884871035e-05 1.267539154298e-03 0.0 
0.0 0.0 0.0 
2.345716000485e-05 -3.606216186575e-06 0.0 
-3.606216186575e-06 4.810370781099e-04 0.0 
0.0 0.0 0.0 
-1.357918764688e-05 -4.496250434505e-07 0.0 
-4.496250434505e-07 7.938385793849e-04 0.0 
0.0 0.0 0.0 
-2.607906861907e-06 5.074223700934e-05 0.0 
5.074223700934e-05 1.229546424632e-03 0.0 
0.0 0.0 0.0 
-1.959040678567e-06 3.534637952850e-06 0.0 
3.534637952850e-06 1.330965383294e-03 0.0 
0.0 0.0 0.0 
1.381170613435e-06 1.873733596676e-06 0.0 
1.873733596676e-06 1.368350892617e-05 0.0 
0.0 0.0 0.0 
-1.276920801496e-05 1.255489597311e-06 0.0 
1.255489597311e-06 7.941156612570e-04 0.0 
0.0 0.0 0.0 
6.054809349676e-06 -6.524204867993e-07 0.0 
-6.524204867993e-07 1.191376831033e-03 0.0 
0.0 0.0 0.0 
1.059804909431e-05 3.948597692269e-07 0.0 
3.948597692269e-07 2.093592811392e-04 0.0 
0.0 0.0 0.0 
6.384958071814e-06 4.615755956035e-05 0.0 
4.615755956035e-05 1.171651516884e-03 0.0 
0.0 0.0 0.0 
-9.644247371043e-06 2.011835112870e-05 0.0 
2.011835112870e-05 1.269787214072e-03 0.0 
0.0 0.0 0.0 
-4.473844985697e-06 2.791980584288e-06 0.0 
2.791980584288e-06 1.321945763423e-03 0.0 
0.0 0.0 0.0 
1.027053734393e-05 1.383276973318e-06 0.0 
1.383276973318e-06 2.004087729264e-04 0.0 
0.0 0.0 0.0 
1.708220102281e-05 6.557470697310e-05 0.0 
6.557470697310e-05 1.875003585612e-04 0.0 
0.0 0.0 0.0 
2.414683341101e-05 8.054832684999e-06 0.0 
8.054832684999e-06 7.017142178258e-04 0.0 
0.0 0.0 0.0 
-7.979182223838e-06 3.265661829068e-06 0.0 
3.265661829068e-06 1.177787716733e-03 0.0 
0.0 0.0 0.0 
-3.646150445491e-05 -3.113666008416e-06 0.0 
-3.113666008416e-06 3.109580438343e-05 0.0 
0.0 0.0 0.0 
-3.381376079248e-06 1.595697273716e-05 0.0 
1.595697273716e-05 1.325678143124e-03 0.0 
0.0 0.0 0.0 
-1.025301485180e-05 1.755422798202e-06 0.0 
1.755422798202e-06 1.006458359977e-03 0.0 
0.0 0.0 0.0 
1.257551828671e-05 -6.978095348496e-06 0.0 
-6.978095348496e-06 1.985570978020e-04 0.0 
0.0 0.0 0.0 
-1.200172698490e-05 2.688375520027e-06 0.0 
2.688375520027e-06 9.626204781807e-04 0.0 
0.0 0.0 0.0 
-4.377073335005e-06 4.713983187861e-05 0.0 
4.713983187861e-05 1.271739534017e-03 0.0 
0.0 0.0 0.0 
2.521119661436e-05 -6.384946757949e-06 0.0 
-6.384946757949e-06 7.364013481173e-04 0.0 
0.0 0.0 0.0 
-2.320580447424e-05 3.728430188333e-05 0.0 
3.728430188333e-05 1.029355247739e-04 0.0 
0.0 0.0 0.0 
2.105331271318e-05 2.559597610756e-06 0.0 
2.559597610756e-06 4.350551394194e-04 0.0 
0.0 0.0 0.0 
2.656141376245e-05 4.058389494031e-06 0.0 
4.058389494031e-06 6.407893694782e-04 0.0 
0.0 0.0 0.0 
2.648683706452e-05 8.410688060383e-06 0.0 
8.410688060383e-06 7.660914156256e-04 0.0 
0.0 0.0 0.0 
-1.624605412420e-06 4.534849666005e-05 0.0 
4.534849666005e-05 1.213744163169e-03 0.0 
0.0 0.0 0.0 
2.459877750027e-05 -3.526132494318e-06 0.0 
-3.526132494318e-06 6.241085403631e-04 0.0 
0.0 0.0 0.0 
2.690863685961e-05 3.201415880062e-06 0.0 
3.201415880062e-06 6.641214437120e-04 0.0 
0.0 0.0 0.0 
-4.679160807708e-07 1.172933220667e-06 0.0 
1.172933220667e-06 9.722557101322e-05 0.0 
0.0 0.0 0.0 
9.159861677377e-06 2.435392554598e-05 0.0 
2.435392554598e-05 1.149252032934e-03 0.0 
0.0 0.0 0.0 
-9.474175262203e-06 4.358417529880e-05 0.0 
4.358417529880e-05 1.201935867822e-03 0.0 
0.0 0.0 0.0 
1.413565511421e-05 6.078231575392e-05 0.0 
6.078231575392e-05 2.223982466045e-04 0.0 
0.0 0.0 0.0 
-6.424307974484e-07 -8.651090753042e-07 0.0 
-8.651090753042e-07 1.328949094164e-03 0.0 
0.0 0.0 0.0 
4.819934566136e-06 5.989169987317e-06 0.0 
5.989169987317e-06 1.189430648438e-03 0.0 
0.0 0.0 0.0 
-1.248942346854e-05 -3.405201056106e-06 0.0 
-3.405201056106e-06 8.435509045057e-04 0.0 
0.0 0.0 0.0 
-1.101143448823e-05 1.452742778169e-06 0.0 
1.452742778169e-06 1.006337565658e-03 0.0 
0.0 0.0 0.0 
2.596504805052e-05 4.780724122578e-06 0.0 
4.780724122578e-06 6.231777006764e-04 0.0 
0.0 0.0 0.0 
2.694280653071e-05 -1.612337492970e-06 0.0 
-1.612337492970e-06 6.435311230530e-04 0.0 
0.0 0.0 0.0 
2.438536153204e-05 5.299091124325e-08 0.0 
5.299091124325e-08 6.665755526534e-04 0.0 
0.0 0.0 0.0 
7.138320930133e-06 4.696535471558e-05 0.0 
4.696535471558e-05 1.131745425372e-03 0.0 
0.0 0.0 0.0 
1.158773770671e-05 4.802885826045e-07 0.0 
4.802885826045e-07 1.579699470169e-04 0.0 
0.0 0.0 0.0 
-1.024747263489e-05 3.831038165219e-05 0.0 
3.831038165219e-05 1.241973291583e-03 0.0 
0.0 0.0 0.0 
-1.175929961361e-05 2.160799328352e-06 0.0 
2.160799328352e-06 8.983173899961e-04 0.0 
0.0 0.0 0.0 
-6.193152352840e-06 1.245095060963e-05 0.0 
1.245095060963e-05 1.321757987403e-03 0.0 
0.0 0.0 0.0 
5.543572773048e-06 3.966419972664e-05 0.0 
3.966419972664e-05 1.130842852080e-03 0.0 
0.0 0.0 0.0 
-1.169285512803e-05 -3.219449787019e-08 0.0 
-3.219449787019e-08 9.638994894368e-04 0.0 
0.0 0.0 0.0 
-1.021209624619e-05 3.571363260428e-05 0.0 
3.571363260428e-05 1.228846712449e-03 0.0 
0.0 0.0 0.0 
-8.764101977476e-08 5.041170446710e-05 0.0 
5.041170446710e-05 1.211898718394e-03 0.0 
0.0 0.0 0.0 
-2.103152053179e-06 5.098299031839e-05 0.0 
5.098299031839e-05 1.259497875493e-03 0.0 
0.0 0.0 0.0 
8.794833486814e-06 4.628605131401e-05 0.0 
4.628605131401e-05 7.695006875941e-05 0.0 
0.0 0.0 0.0 
-1.255145697032e-05 3.076158725606e-05 0.0 
3.076158725606e-05 1.229403242588e-03 0.0 
0.0 0.0 0.0 
-9.303529205695e-06 4.054590307375e-05 0.0 
4.054590307375e-05 1.257360756894e-03 0.0 
0.0 0.0 0.0 
9.978789277110e-07 -5.942904631249e-06 0.0 
-5.942904631249e-06 1.010043120730e-04 0.0 
0.0 0.0 0.0 
2.548148836623e-05 -2.206920155169e-06 0.0 
-2.206920155169e-06 5.913588481381e-04 0.0 
0.0 0.0 0.0 
-4.026128504364e-06 3.795037285068e-05 0.0 
3.795037285068e-05 8.368743332610e-05 0.0 
0.0 0.0 0.0 
-1.097123380722e-05 3.223887632431e-05 0.0 
3.223887632431e-05 1.266811723693e-03 0.0 
0.0 0.0 0.0 
-1.122844545232e-05 1.941359195815e-06 0.0 
1.941359195815e-06 2.197320404007e-04 0.0 
0.0 0.0 0.0 
-9.908748402010e-06 3.606544065645e-06 0.0 
3.606544065645e-06 2.217173171439e-04 0.0 
0.0 0.0 0.0 
-6.552282114991e-06 1.187806342930e-06 0.0 
1.187806342930e-06 2.218801356002e-04 0.0 
0.0 0.0 0.0 
-9.465562815225e-06 4.051274853282e-07 0.0 
4.051274853282e-07 2.230154456497e-04 0.0 
0.0 0.0 0.0 
-7.741333989175e-06 2.667145399556e-07 0.0 
2.667145399556e-07 2.230251512518e-04 0.0 
0.0 0.0 0.0 
-9.124387534309e-06 -2.850704667665e-07 0.0 
-2.850704667665e-07 2.231965551922e-04 0.0 
0.0 0.0 0.0 
-8.241584694479e-06 -2.701873386987e-07 0.0 
-2.701873386987e-07 2.231903035226e-04 0.0 
0.0 0.0 0.0 
-8.897778169370e-06 -5.735681396240e-07 0.0 
-5.735681396240e-07 2.231837822106e-04 0.0 
0.0 0.0 0.0 
-8.185189554810e-06 -4.951605270399e-07 0.0 
-4.951605270399e-07 2.231649679625e-04 0.0 
0.0 0.0 0.0 
-8.629298819618e-06 -7.404933074646e-07 0.0 
-7.404933074646e-07 2.230820381528e-04 0.0 
0.0 0.0 0.0 
-7.796026914808e-06 -5.873635813439e-07 0.0 
-5.873635813439e-07 2.230414388431e-04 0.0 
0.0 0.0 0.0 
-8.257330916583e-06 -8.665034592790e-07 0.0 
-8.665034592790e-07 2.229072117892e-04 0.0 
0.0 0.0 0.0 
-7.183730160287e-06 -6.339586939186e-07 0.0 
-6.339586939186e-07 2.228354422333e-04 0.0 
0.0 0.0 0.0 
-7.767049177154e-06 -9.828918038670e-07 0.0 
-9.828918038670e-07 2.226673344758e-04 0.0 
0.0 0.0 0.0 
-6.397449171303e-06 -6.679571768540e-07 0.0 
-6.679571768540e-07 2.225543993588e-04 0.0 
0.0 0.0 0.0 
-7.158927845530e-06 -1.099815936529e-06 0.0 
-1.099815936529e-06 2.223681999256e-04 0.0 
0.0 0.0 0.0 
-5.456304601470e-06 -6.986357179576e-07 0.0 
-6.986357179576e-07 2.222026991434e-04 0.0 
0.0 0.0 0.0 
-6.436421331468e-06 -1.218435167906e-06 0.0 
-1.218435167906e-06 2.220136223328e-04 0.0 
0.0 0.0 0.0 
-4.363937429974e-06 -7.263854471923e-07 0.0 
-7.263854471923e-07 2.217823422892e-04 0.0 
0.0 0.0 0.0 
-5.602412262218e-06 -1.336961648130e-06 0.0 
-1.336961648130e-06 2.216060430791e-04 0.0 
0.0 0.0 0.0 
-3.115513695584e-06 -7.495421557896e-07 0.0 
-7.495421557896e-07 2.212937773245e-04 0.0 
0.0 0.0 0.0 
-4.659176849109e-06 -1.453800124706e-06 0.0 
-1.453800124706e-06 2.211476627914e-04 0.0 
0.0 0.0 0.0 
8.043854707429e-06 5.873813241356e-06 0.0 
5.873813241356e-06 2.171391432000e-04 0.0 
0.0 0.0 0.0 
-1.701958856515e-06 -7.674367563564e-07 0.0 
-7.674367563564e-07 2.207370631482e-04 0.0 
0.0 0.0 0.0 
-3.608849360126e-06 -1.569421180083e-06 0.0 
-1.569421180083e-06 2.206404800857e-04 0.0 
0.0 0.0 0.0 
-1.142551624422e-07 -7.820562697489e-07 0.0 
-7.820562697489e-07 2.201119626351e-04 0.0 
0.0 0.0 0.0 
-2.196107173225e-06 5.629419280467e-06 0.0 
5.629419280467e-06 2.195857466769e-04 0.0 
0.0 0.0 0.0 
-2.456193705092e-06 -1.686651464659e-06 0.0 
-1.686651464659e-06 2.200872715363e-04 0.0 
0.0 0.0 0.0 
1.653053123052e-06 -7.968284052770e-07 0.0 
-7.968284052770e-07 2.194182807436e-04 0.0 
0.0 0.0 0.0 
-1.208742826386e-06 -1.808910932420e-06 0.0 
-1.808910932420e-06 2.194905735691e-04 0.0 
0.0 0.0 0.0 
3.601170644130e-06 -8.175235268304e-07 0.0 
-8.175235268304e-07 2.186560775475e-04 0.0 
0.0 0.0 0.0 
1.159176643561e-07 -1.939314230465e-06 0.0 
-1.939314230465e-06 2.188589972705e-04 0.0 
0.0 0.0 0.0 
2.954129739496e-05 -1.763982464260e-06 0.0 
-1.763982464260e-06 1.878172414518e-04 0.0 
0.0 0.0 0.0 
5.727352674345e-06 -8.463124653462e-07 0.0 
-8.463124653462e-07 2.178289322770e-04 0.0 
0.0 0.0 0.0 
1.501321083897e-06 -2.080794149708e-06 0.0 
-2.080794149708e-06 2.181953901286e-04 0.0 
0.0 0.0 0.0 
8.021910630873e-06 -8.917107796232e-07 0.0 
-8.917107796232e-07 2.169381598121e-04 0.0 
0.0 0.0 0.0 
2.901328650440e-06 -2.231713178434e-06 0.0 
-2.231713178434e-06 2.175253536403e-04 0.0 
0.0 0.0 0.0 
1.047123507458e-05 -9.430905097524e-07 0.0 
-9.430905097524e-07 2.159964315791e-04 0.0 
0.0 0.0 0.0 
4.296489811928e-06 -2.393753159104e-06 0.0 
-2.393753159104e-06 2.168373916620e-04 0.0 
0.0 0.0 0.0 
1.304167949590e-05 -1.020803945129e-06 0.0 
-1.020803945129e-06 2.149994030938e-04 0.0 
0.0 0.0 0.0 
5.558058517430e-06 -2.537728425045e-06 0.0 
-2.537728425045e-06 2.162240599266e-04 0.0 
0.0 0.0 0.0 
1.572009692041e-05 -1.064368350164e-06 0.0 
-1.064368350164e-06 2.139996215391e-04 0.0 
0.0 0.0 0.0 
6.725619845271e-06 -2.703240483643e-06 0.0 
-2.703240483643e-06 2.155690032035e-04 0.0 
0.0 0.0 0.0 
1.837306849595e-05 -1.150224216777e-06 0.0 
-1.150224216777e-06 2.129174953316e-04 0.0 
0.0 0.0 0.0 
7.422226931286e-06 -2.712935373801e-06 0.0 
-2.712935373801e-06 2.151964515968e-04 0.0 
0.0 0.0 0.0 
-1.127941782186e-05 2.565435816288e-05 0.0 
2.565435816288e-05 2.321977927797e-04 0.0 
0.0 0.0 0.0 
7.995894638402e-06 -2.790946858871e-06 0.0 
-2.790946858871e-06 2.145533631943e-04 0.0 
0.0 0.0 0.0 
2.107512879812e-05 -1.009868208205e-06 0.0 
-1.009868208205e-06 2.119401400897e-04 0.0 
0.0 0.0 0.0 
7.130812726075e-06 -2.081094607921e-06 0.0 
-2.081094607921e-06 2.149700555241e-04 0.0 
0.0 0.0 0.0 
2.333691303780e-05 -9.735304179079e-07 0.0 
-9.735304179079e-07 2.106995386408e-04 0.0 
0.0 0.0 0.0 
6.397060399621e-06 -2.078076932167e-06 0.0 
-2.078076932167e-06 2.143148867479e-04 0.0 
0.0 0.0 0.0 
2.600072036762e-05 -1.611220838096e-07 0.0 
-1.611220838096e-07 2.101501178580e-04 0.0 
0.0 0.0 0.0 
3.986943989620e-06 1.446916235782e-06 0.0 
1.446916235782e-06 2.163303921752e-04 0.0 
0.0 0.0 0.0 
2.689718397475e-05 4.857650056499e-07 0.0 
4.857650056499e-07 2.082959453524e-04 0.0 
0.0 0.0 0.0 
2.847759930114e-05 4.019665379095e-06 0.0 
4.019665379095e-06 2.091023617332e-04 0.0 
0.0 0.0 0.0 
-3.345948706546e-06 5.624016396556e-07 0.0 
5.624016396556e-07 2.115646028993e-04 0.0 
0.0 0.0 0.0 
-1.832904635179e-05 -7.479908056175e-06 0.0 
-7.479908056175e-06 2.300800221409e-04 0.0 
0.0 0.0 0.0 
-1.239374573714e-05 9.831778273312e-06 0.0 
9.831778273312e-06 2.194603033874e-04 0.0 
0.0 0.0 0.0 
-1.365075939941e-05 1.250166033797e-07 0.0 
1.250166033797e-07 2.405092752742e-04 0.0 
0.0 0.0 0.0 
-1.704997981822e-05 2.419200549408e-06 0.0 
2.419200549408e-06 2.093878124894e-04 0.0 
0.0 0.0 0.0 
-1.002786583659e-06 2.754740822677e-05 0.0 
2.754740822677e-05 1.859328532505e-04 0.0 
0.0 0.0 0.0 
-1.099816736760e-05 -8.045474758520e-07 0.0 
-8.045474758520e-07 2.943378917857e-04 0.0 
0.0 0.0 0.0 
-9.908748402010e-06 2.028300215108e-06 0.0 
2.028300215108e-06 2.878828786912e-04 0.0 
0.0 0.0 0.0 
-1.028298477468e-05 7.291170710462e-08 0.0 
7.291170710462e-08 2.877330177948e-04 0.0 
0.0 0.0 0.0 
-9.465562815225e-06 -1.262777265209e-07 0.0 
-1.262777265209e-07 2.873825885157e-04 0.0 
0.0 0.0 0.0 
-9.978808870215e-06 -2.154425506153e-07 0.0 
-2.154425506153e-07 2.873740085561e-04 0.0 
0.0 0.0 0.0 
-9.124387534309e-06 -5.372017663587e-07 0.0 
-5.372017663587e-07 2.872399979226e-04 0.0 
0.0 0.0 0.0 
-9.695090055661e-06 -5.780254406685e-07 0.0 
-5.780254406685e-07 2.872370942952e-04 0.0 
0.0 0.0 0.0 
-8.897778169370e-06 -8.777191640287e-07 0.0 
-8.777191640287e-07 2.871274940595e-04 0.0 
0.0 0.0 0.0 
-9.421805251097e-06 -9.059400920067e-07 0.0 
-9.059400920067e-07 2.871269118829e-04 0.0 
0.0 0.0 0.0 
-8.629298819618e-06 -1.190571142433e-06 0.0 
-1.190571142433e-06 2.870103184422e-04 0.0 
0.0 0.0 0.0 
-9.129769675154e-06 -1.188782634606e-06 0.0 
-1.188782634606e-06 2.870173942482e-04 0.0 
0.0 0.0 0.0 
-8.257330916583e-06 -1.477037191254e-06 0.0 
-1.477037191254e-06 2.868629352388e-04 0.0 
0.0 0.0 0.0 
-8.792883604891e-06 -1.437954909744e-06 0.0 
-1.437954909744e-06 2.868831623035e-04 0.0 
0.0 0.0 0.0 
-7.767049177154e-06 -1.747262361494e-06 0.0 
-1.747262361494e-06 2.866721325130e-04 0.0 
0.0 0.0 0.0 
-8.398169862645e-06 -1.665338438427e-06 0.0 
-1.665338438427e-06 2.867122776418e-04 0.0 
0.0 0.0 0.0 
-7.158927845530e-06 -2.008998882164e-06 0.0 
-2.008998882164e-06 2.864332432535e-04 0.0 
0.0 0.0 0.0 
-7.942068470213e-06 -1.878315131432e-06 0.0 
-1.878315131432e-06 2.865019394005e-04 0.0 
0.0 0.0 0.0 
-6.436421331468e-06 -2.265774081739e-06 0.0 
-2.265774081739e-06 2.861456003256e-04 0.0 
0.0 0.0 0.0 
-7.425748716483e-06 -2.079935035992e-06 0.0 
-2.079935035992e-06 2.862536644328e-04 0.0 
0.0 0.0 0.0 
-5.602412262218e-06 -2.517785285573e-06 0.0 
-2.517785285573e-06 2.858106041088e-04 0.0 
0.0 0.0 0.0 
-5.973807709614e-06 6.352212534363e-06 0.0 
6.352212534363e-06 2.857285548790e-04 0.0 
0.0 0.0 0.0 
-6.853636651205e-06 -2.269934487806e-06 0.0 
-2.269934487806e-06 2.859714545023e-04 0.0 
0.0 0.0 0.0 
-4.659176849109e-06 -2.763018930888e-06 0.0 
-2.763018930888e-06 2.854315490284e-04 0.0 
0.0 0.0 0.0 
-6.233528333510e-06 -2.445958125411e-06 0.0 
-2.445958125411e-06 2.856617259881e-04 0.0 
0.0 0.0 0.0 
3.986943989620e-06 5.758740382674e-06 0.0 
5.758740382674e-06 2.610941585413e-04 0.0 
0.0 0.0 0.0 
-3.608849360126e-06 -2.998889433487e-06 0.0 
-2.998889433487e-06 2.850147410272e-04 0.0 
0.0 0.0 0.0 
-5.579955321799e-06 -2.609004315970e-06 0.0 
-2.609004315970e-06 2.853328777084e-04 0.0 
0.0 0.0 0.0 
-8.530136556661e-06 6.715643767751e-06 0.0 
6.715643767751e-06 2.860042058572e-04 0.0 
0.0 0.0 0.0 
-2.456193705092e-06 -3.223925327389e-06 0.0 
-3.223925327389e-06 2.845634457784e-04 0.0 
0.0 0.0 0.0 
-4.909068771819e-06 -2.757452153455e-06 0.0 
-2.757452153455e-06 2.849924207984e-04 0.0 
0.0 0.0 0.0 
-1.208742826386e-06 -3.436059894619e-06 0.0 
-3.436059894619e-06 2.840847049579e-04 0.0 
0.0 0.0 0.0 
-4.244092192907e-06 -2.896174905908e-06 0.0 
-2.896174905908e-06 2.846487486670e-04 0.0 
0.0 0.0 0.0 
1.159176643561e-07 -3.629614637553e-06 0.0 
-3.629614637553e-06 2.835745717362e-04 0.0 
0.0 0.0 0.0 
-3.602942816316e-06 -3.005103814711e-06 0.0 
-3.005103814711e-06 2.843109675541e-04 0.0 
0.0 0.0 0.0 
1.501321083897e-06 -3.793333443404e-06 0.0 
-3.793333443404e-06 2.830596482384e-04 0.0 
0.0 0.0 0.0 
-3.041428410788e-06 -3.104906595442e-06 0.0 
-3.104906595442e-06 2.839952966371e-04 0.0 
0.0 0.0 0.0 
2.901328650440e-06 -3.908320152326e-06 0.0 
-3.908320152326e-06 2.825052978110e-04 0.0 
0.0 0.0 0.0 
-1.047077844829e-05 1.703235475305e-05 0.0 
1.703235475305e-05 2.931162283417e-04 0.0 
0.0 0.0 0.0 
-2.567030991441e-06 -3.109690832407e-06 0.0 
-3.109690832407e-06 2.837134274745e-04 0.0 
0.0 0.0 0.0 
4.296489811928e-06 -3.944022347563e-06 0.0 
-3.944022347563e-06 2.820081950798e-04 0.0 
0.0 0.0 0.0 
-2.334698458784e-06 -3.117819072198e-06 0.0 
-3.117819072198e-06 2.834972618835e-04 0.0 
0.0 0.0 0.0 
5.558058517430e-06 -3.844072540735e-06 0.0 
-3.844072540735e-06 2.814021392501e-04 0.0 
0.0 0.0 0.0 
6.725619845271e-06 -3.559184961372e-06 0.0 
-3.559184961372e-06 2.811056979661e-04 0.0 
0.0 0.0 0.0 
-2.237008402184e-06 -2.786010831992e-06 0.0 
-2.786010831992e-06 2.833691492803e-04 0.0 
0.0 0.0 0.0 
7.422226931286e-06 -2.968595303012e-06 0.0 
-2.968595303012e-06 2.802830214734e-04 0.0 
0.0 0.0 0.0 
-2.870721131698e-06 -2.682527837562e-06 0.0 
-2.682527837562e-06 2.833788508985e-04 0.0 
0.0 0.0 0.0 
7.995894638402e-06 -1.945277684662e-06 0.0 
-1.945277684662e-06 2.804982776665e-04 0.0 
0.0 0.0 0.0 
-3.333351051071e-06 -1.462076719800e-06 0.0 
-1.462076719800e-06 2.834829527831e-04 0.0 
0.0 0.0 0.0 
7.130812726075e-06 6.724056757964e-09 0.0 
6.724056757964e-09 2.785972707700e-04 0.0 
0.0 0.0 0.0 
6.397060399621e-06 3.857515529585e-06 0.0 
3.857515529585e-06 2.798057474562e-04 0.0 
0.0 0.0 0.0 
-5.835238105378e-06 -1.305643247629e-06 0.0 
-1.305643247629e-06 2.837699769249e-04 0.0 
0.0 0.0 0.0 
-4.745052670008e-06 2.903188116890e-06 0.0 
2.903188116890e-06 2.838007000459e-04 0.0 
0.0 0.0 0.0 
-7.218600370562e-06 7.138897895869e-06 0.0 
7.138897895869e-06 2.693199094146e-04 0.0 
0.0 0.0 0.0 
-1.013511810499e-05 -8.258378216535e-06 0.0 
-8.258378216535e-06 2.865736526538e-04 0.0 
0.0 0.0 0.0 
-1.468573366548e-05 8.869831833364e-06 0.0 
8.869831833364e-06 2.947113470424e-04 0.0 
0.0 0.0 0.0 
-1.365075939941e-05 -4.497804088207e-07 0.0 
-4.497804088207e-07 2.746385122081e-04 0.0 
0.0 0.0 0.0 
-1.119038598418e-05 1.264265133553e-06 0.0 
1.264265133553e-06 3.062677547556e-04 0.0 
0.0 0.0 0.0 
-2.196107173225e-06 1.821255467472e-05 0.0 
1.821255467472e-05 2.569906293364e-04 0.0 
0.0 0.0 0.0 
-1.099816736760e-05 -1.941159721461e-06 0.0 
-1.941159721461e-06 3.463511418123e-04 0.0 
0.0 0.0 0.0 
-1.098772679486e-05 9.025897790806e-07 0.0 
9.025897790806e-07 3.518102379556e-04 0.0 
0.0 0.0 0.0 
-1.028298477468e-05 -5.412777921733e-07 0.0 
-5.412777921733e-07 3.519202621740e-04 0.0 
0.0 0.0 0.0 
-1.078780763930e-05 -6.472727177711e-07 0.0 
-6.472727177711e-07 3.521687568329e-04 0.0 
0.0 0.0 0.0 
-9.978808870215e-06 -6.908811123666e-07 0.0 
-6.908811123666e-07 3.521710958971e-04 0.0 
0.0 0.0 0.0 
-1.059459751140e-05 -1.005974402006e-06 0.0 
-1.005974402006e-06 3.521140808556e-04 0.0 
0.0 0.0 0.0 
-9.695090055661e-06 -9.559721792212e-07 0.0 
-9.559721792212e-07 3.521010656766e-04 0.0 
0.0 0.0 0.0 
-1.040586852097e-05 -1.324269540824e-06 0.0 
-1.324269540824e-06 3.520159592145e-04 0.0 
0.0 0.0 0.0 
-9.421805251097e-06 -1.266897505055e-06 0.0 
-1.266897505055e-06 3.519958279126e-04 0.0 
0.0 0.0 0.0 
-1.022558306796e-05 -1.666541915434e-06 0.0 
-1.666541915434e-06 3.519177565372e-04 0.0 
0.0 0.0 0.0 
-9.129769675154e-06 -1.589072152910e-06 0.0 
-1.589072152910e-06 3.518852896682e-04 0.0 
0.0 0.0 0.0 
-1.004379749359e-05 -2.023303657687e-06 0.0 
-2.023303657687e-06 3.518182419207e-04 0.0 
0.0 0.0 0.0 
-8.792883604891e-06 -1.904389005895e-06 0.0 
-1.904389005895e-06 3.517635582493e-04 0.0 
0.0 0.0 0.0 
-9.847644306560e-06 -2.382797166867e-06 0.0 
-2.382797166867e-06 3.517091281362e-04 0.0 
0.0 0.0 0.0 
-8.398169862645e-06 -2.206960862580e-06 0.0 
-2.206960862580e-06 3.516207175704e-04 0.0 
0.0 0.0 0.0 
-9.631744539496e-06 -2.738203631777e-06 0.0 
-2.738203631777e-06 3.515856443139e-04 0.0 
0.0 0.0 0.0 
-7.942068470213e-06 -2.496044511015e-06 0.0 
-2.496044511015e-06 3.514512047065e-04 0.0 
0.0 0.0 0.0 
-9.395380856869e-06 -3.085927565234e-06 0.0 
-3.085927565234e-06 3.514464095398e-04 0.0 
0.0 0.0 0.0 
-7.425748716483e-06 -2.770789299784e-06 0.0 
-2.770789299784e-06 3.512523610896e-04 0.0 
0.0 0.0 0.0 
-1.282153360482e-05 4.692213121589e-06 0.0 
4.692213121589e-06 3.525671666347e-04 0.0 
0.0 0.0 0.0 
-9.142404829410e-06 -3.421481849727e-06 0.0 
-3.421481849727e-06 3.512934653400e-04 0.0 
0.0 0.0 0.0 
-6.853636651205e-06 -3.028472286986e-06 0.0 
-3.028472286986e-06 3.510247730734e-04 0.0 
0.0 0.0 0.0 
-8.878740311968e-06 -3.737938606880e-06 0.0 
-3.737938606880e-06 3.511315726175e-04 0.0 
0.0 0.0 0.0 
-1.283939751628e-05 5.253838564150e-06 0.0 
5.253838564150e-06 3.520525484795e-04 0.0 
0.0 0.0 0.0 
-6.233528333510e-06 -3.262919773345e-06 0.0 
-3.262919773345e-06 3.507714638791e-04 0.0 
0.0 0.0 0.0 
-8.614130581619e-06 -4.022847004116e-06 0.0 
-4.022847004116e-06 3.509706617977e-04 0.0 
0.0 0.0 0.0 
-5.579955321799e-06 -3.467320854058e-06 0.0 
-3.467320854058e-06 3.505032627693e-04 0.0 
0.0 0.0 0.0 
-8.380198863511e-06 -4.271740498726e-06 0.0 
-4.271740498726e-06 3.508229688489e-04 0.0 
0.0 0.0 0.0 
-4.909068771819e-06 -3.634632955871e-06 0.0 
-3.634632955871e-06 3.502283053578e-04 0.0 
0.0 0.0 0.0 
-4.745052670008e-06 6.046064236535e-06 0.0 
6.046064236535e-06 3.284254058613e-04 0.0 
0.0 0.0 0.0 
-8.188984015112e-06 -4.471308121545e-06 0.0 
-4.471308121545e-06 3.506982306283e-04 0.0 
0.0 0.0 0.0 
-4.244092192907e-06 -3.754970524153e-06 0.0 
-3.754970524153e-06 3.499567042560e-04 0.0 
0.0 0.0 0.0 
-8.094222510246e-06 -4.621821734439e-06 0.0 
-4.621821734439e-06 3.506017774662e-04 0.0 
0.0 0.0 0.0 
-3.602942816316e-06 -3.806236394247e-06 0.0 
-3.806236394247e-06 3.496746688838e-04 0.0 
0.0 0.0 0.0 
-8.054322097273e-06 -4.657538849124e-06 0.0 
-4.657538849124e-06 3.505453044919e-04 0.0 
0.0 0.0 0.0 
-3.041428410788e-06 -3.763168882558e-06 0.0 
-3.763168882558e-06 3.494247525777e-04 0.0 
0.0 0.0 0.0 
-8.252824458932e-06 -4.621938206299e-06 0.0 
-4.621938206299e-06 3.505296954416e-04 0.0 
0.0 0.0 0.0 
-2.567030991441e-06 -3.566487104355e-06 0.0 
-3.566487104355e-06 3.491177126214e-04 0.0 
0.0 0.0 0.0 
-8.457862595401e-06 -4.281309136873e-06 0.0 
-4.281309136873e-06 3.505828925037e-04 0.0 
0.0 0.0 0.0 
-2.334698458784e-06 -3.173161477485e-06 0.0 
-3.173161477485e-06 3.489556136471e-04 0.0 
0.0 0.0 0.0 
-9.279428568210e-06 -3.921812411955e-06 0.0 
-3.921812411955e-06 3.506641540771e-04 0.0 
0.0 0.0 0.0 
-1.351111192005e-05 1.286068833049e-05 0.0 
1.286068833049e-05 3.580086285402e-04 0.0 
0.0 0.0 0.0 
-9.723465324907e-06 -2.555283432130e-06 0.0 
-2.555283432130e-06 3.509369245913e-04 0.0 
0.0 0.0 0.0 
-2.237008402184e-06 -2.404912902585e-06 0.0 
-2.404912902585e-06 3.484555301698e-04 0.0 
0.0 0.0 0.0 
-1.205904978363e-05 -2.000422560663e-06 0.0 
-2.000422560663e-06 3.510700397564e-04 0.0 
0.0 0.0 0.0 
-2.870721131698e-06 -1.307421797315e-06 0.0 
-1.307421797315e-06 3.488114105383e-04 0.0 
0.0 0.0 0.0 
-1.084434462695e-05 2.003937814751e-06 0.0 
2.003937814751e-06 3.510900535544e-04 0.0 
0.0 0.0 0.0 
-3.333351051071e-06 6.610670687082e-07 0.0 
6.610670687082e-07 3.472561616285e-04 0.0 
0.0 0.0 0.0 
-5.835238105378e-06 3.833230487049e-06 0.0 
3.833230487049e-06 3.484918710759e-04 0.0 
0.0 0.0 0.0 
-1.091606433090e-05 6.131149371119e-06 0.0 
6.131149371119e-06 3.323780160158e-04 0.0 
0.0 0.0 0.0 
-1.344742630061e-05 -8.630821777197e-06 0.0 
-8.630821777197e-06 3.543280937071e-04 0.0 
0.0 0.0 0.0 
-8.782208341329e-06 8.006294460653e-06 0.0 
8.006294460653e-06 3.459677279094e-04 0.0 
0.0 0.0 0.0 
-1.099584403630e-05 -1.077934968618e-06 0.0 
-1.077934968618e-06 3.667851743889e-04 0.0 
0.0 0.0 0.0 
-1.119038598418e-05 6.749344191050e-07 0.0 
6.749344191050e-07 3.339034292364e-04 0.0 
0.0 0.0 0.0 
-8.530136556661e-06 1.336163696559e-05 0.0 
1.336163696559e-05 3.251954748051e-04 0.0 
0.0 0.0 0.0 
-1.123037761930e-05 -2.188765941446e-06 0.0 
-2.188765941446e-06 4.220326045485e-04 0.0 
0.0 0.0 0.0 
-1.098772679486e-05 5.735738323789e-07 0.0 
5.735738323789e-07 4.165261190097e-04 0.0 
0.0 0.0 0.0 
-1.121757462896e-05 -8.763386732621e-07 0.0 
-8.763386732621e-07 4.164004741563e-04 0.0 
0.0 0.0 0.0 
-1.078780763930e-05 -9.307527448870e-07 0.0 
-9.307527448870e-07 4.161266664546e-04 0.0 
0.0 0.0 0.0 
-1.116636718335e-05 -1.011952032329e-06 0.0 
-1.011952032329e-06 4.161176853736e-04 0.0 
0.0 0.0 0.0 
-1.059459751140e-05 -1.255277402056e-06 0.0 
-1.255277402056e-06 4.160853637893e-04 0.0 
0.0 0.0 0.0 
-1.111026885092e-05 -1.263527779744e-06 0.0 
-1.263527779744e-06 4.160878281572e-04 0.0 
0.0 0.0 0.0 
-1.040586852097e-05 -1.554096940570e-06 0.0 
-1.554096940570e-06 4.160462071363e-04 0.0 
0.0 0.0 0.0 
-1.106031997467e-05 -1.558203808279e-06 0.0 
-1.558203808279e-06 4.160530465160e-04 0.0 
0.0 0.0 0.0 
-1.022558306796e-05 -1.892038573417e-06 0.0 
-1.892038573417e-06 4.160024476905e-04 0.0 
0.0 0.0 0.0 
-1.102287290344e-05 -1.881306836806e-06 0.0 
-1.881306836806e-06 4.160188117512e-04 0.0 
0.0 0.0 0.0 
-1.004379749359e-05 -2.257127506132e-06 0.0 
-2.257127506132e-06 4.159523045977e-04 0.0 
0.0 0.0 0.0 
-1.099592624287e-05 -2.218224143092e-06 0.0 
-2.218224143092e-06 4.159861931017e-04 0.0 
0.0 0.0 0.0 
-9.847644306560e-06 -2.632914919720e-06 0.0 
-2.632914919720e-06 4.158877242166e-04 0.0 
0.0 0.0 0.0 
-1.097256543814e-05 -2.551846617749e-06 0.0 
-2.551846617749e-06 4.159499459664e-04 0.0 
0.0 0.0 0.0 
-9.631744539496e-06 -3.003850083121e-06 0.0 
-3.003850083121e-06 4.158096038047e-04 0.0 
0.0 0.0 0.0 
-1.096236086795e-05 -2.873692718351e-06 0.0 
-2.873692718351e-06 4.159114706386e-04 0.0 
0.0 0.0 0.0 
-9.395380856869e-06 -3.361772511314e-06 0.0 
-3.361772511314e-06 4.157156833891e-04 0.0 
0.0 0.0 0.0 
-1.716283056108e-05 2.552514825587e-06 0.0 
2.552514825587e-06 4.186278603278e-04 0.0 
0.0 0.0 0.0 
-1.097164336217e-05 -3.176245565296e-06 0.0 
-3.176245565296e-06 4.158708398356e-04 0.0 
0.0 0.0 0.0 
-9.142404829410e-06 -3.698419274696e-06 0.0 
-3.698419274696e-06 4.156064646663e-04 0.0 
0.0 0.0 0.0 
-1.100728315739e-05 -3.453748450686e-06 0.0 
-3.453748450686e-06 4.158301211652e-04 0.0 
0.0 0.0 0.0 
-1.084434462695e-05 4.579006058558e-06 0.0 
4.579006058558e-06 3.951516726026e-04 0.0 
0.0 0.0 0.0 
-8.878740311968e-06 -4.003518740909e-06 0.0 
-4.003518740909e-06 4.154799727429e-04 0.0 
0.0 0.0 0.0 
-1.624528997612e-05 3.902910299821e-06 0.0 
3.902910299821e-06 4.170480797072e-04 0.0 
0.0 0.0 0.0 
-1.107102709152e-05 -3.694764036022e-06 0.0 
-3.694764036022e-06 4.157902536930e-04 0.0 
0.0 0.0 0.0 
-8.614130581619e-06 -4.257713073854e-06 0.0 
-4.257713073854e-06 4.153335206964e-04 0.0 
0.0 0.0 0.0 
-1.117026559561e-05 -3.862126423482e-06 0.0 
-3.862126423482e-06 4.157612657112e-04 0.0 
0.0 0.0 0.0 
-8.380198863511e-06 -4.435819736427e-06 0.0 
-4.435819736427e-06 4.152092452858e-04 0.0 
0.0 0.0 0.0 
-1.137068556423e-05 -3.972814203633e-06 0.0 
-3.972814203633e-06 4.157680763441e-04 0.0 
0.0 0.0 0.0 
-8.188984015112e-06 -4.528396074171e-06 0.0 
-4.528396074171e-06 4.150719063565e-04 0.0 
0.0 0.0 0.0 
-1.166247254558e-05 -3.961761746922e-06 0.0 
-3.961761746922e-06 4.158107959080e-04 0.0 
0.0 0.0 0.0 
-8.094222510246e-06 -4.507086933347e-06 0.0 
-4.507086933347e-06 4.150044029414e-04 0.0 
0.0 0.0 0.0 
-1.574094123580e-05 9.269028557014e-06 0.0 
9.269028557014e-06 4.228282512746e-04 0.0 
0.0 0.0 0.0 
-1.213106065456e-05 -3.932137654696e-06 0.0 
-3.932137654696e-06 4.158927563929e-04 0.0 
0.0 0.0 0.0 
-8.054322097273e-06 -4.340895307130e-06 0.0 
-4.340895307130e-06 4.147878548286e-04 0.0 
0.0 0.0 0.0 
-1.259428042477e-05 -3.559112948233e-06 0.0 
-3.559112948233e-06 4.159857544344e-04 0.0 
0.0 0.0 0.0 
-8.252824458932e-06 -3.942371747435e-06 0.0 
-3.942371747435e-06 4.148437757905e-04 0.0 
0.0 0.0 0.0 
-8.457862595401e-06 -3.257170146108e-06 0.0 
-3.257170146108e-06 4.143043573743e-04 0.0 
0.0 0.0 0.0 
-1.350477228657e-05 -3.329280569251e-06 0.0 
-3.329280569251e-06 4.161277597636e-04 0.0 
0.0 0.0 0.0 
-9.279428568210e-06 -2.129595471997e-06 0.0 
-2.129595471997e-06 4.147692920229e-04 0.0 
0.0 0.0 0.0 
-1.401793116917e-05 -2.079150015636e-06 0.0 
-2.079150015636e-06 4.162260794647e-04 0.0 
0.0 0.0 0.0 
-9.723465324907e-06 -3.218747332211e-07 0.0 
-3.218747332211e-07 4.129354063731e-04 0.0 
0.0 0.0 0.0 
-1.205904978363e-05 2.566182264500e-06 0.0 
2.566182264500e-06 4.148119370813e-04 0.0 
0.0 0.0 0.0 
-1.595519802688e-05 -1.766846481861e-06 0.0 
-1.766846481861e-06 4.163466861276e-04 0.0 
0.0 0.0 0.0 
-1.444673180651e-05 2.006606705510e-06 0.0 
2.006606705510e-06 4.160457970432e-04 0.0 
0.0 0.0 0.0 
-1.390576157512e-05 4.570128807375e-06 0.0 
4.570128807375e-06 3.968259251350e-04 0.0 
0.0 0.0 0.0 
-8.651730035503e-06 -8.627176415216e-06 0.0 
-8.627176415216e-06 4.137699849855e-04 0.0 
0.0 0.0 0.0 
-1.350894713781e-05 7.918477815193e-06 0.0 
7.918477815193e-06 4.224731267579e-04 0.0 
0.0 0.0 0.0 
-1.099584403630e-05 -1.133575693924e-06 0.0 
-1.133575693924e-06 4.013518960753e-04 0.0 
0.0 0.0 0.0 
-1.122067987258e-05 6.818805741394e-07 0.0 
6.818805741394e-07 4.344418277815e-04 0.0 
0.0 0.0 0.0 
-1.283939751628e-05 9.419399113034e-06 0.0 
9.419399113034e-06 3.917100638147e-04 0.0 
0.0 0.0 0.0 
-1.123037761930e-05 -2.256176344172e-06 0.0 
-2.256176344172e-06 4.746599437471e-04 0.0 
0.0 0.0 0.0 
-1.161748809608e-05 5.267573843980e-07 0.0 
5.267573843980e-07 4.803379974412e-04 0.0 
0.0 0.0 0.0 
-1.121757462896e-05 -1.016535553976e-06 0.0 
-1.016535553976e-06 4.804714408471e-04 0.0 
0.0 0.0 0.0 
-1.164238313112e-05 -1.031215996135e-06 0.0 
-1.031215996135e-06 4.808152003419e-04 0.0 
0.0 0.0 0.0 
-1.116636718335e-05 -1.153009285333e-06 0.0 
-1.153009285333e-06 4.808290617806e-04 0.0 
0.0 0.0 0.0 
-1.168521296069e-05 -1.357678247920e-06 0.0 
-1.357678247920e-06 4.808878534062e-04 0.0 
0.0 0.0 0.0 
-1.111026885092e-05 -1.383001201295e-06 0.0 
-1.383001201295e-06 4.808879099947e-04 0.0 
0.0 0.0 0.0 
-1.174676264970e-05 -1.641761639428e-06 0.0 
-1.641761639428e-06 4.809322869810e-04 0.0 
0.0 0.0 0.0 
-1.106031997467e-05 -1.649153189933e-06 0.0 
-1.649153189933e-06 4.809257836949e-04 0.0 
0.0 0.0 0.0 
-1.183077403744e-05 -1.956710325701e-06 0.0 
-1.956710325701e-06 4.809734756801e-04 0.0 
0.0 0.0 0.0 
-1.102287290344e-05 -1.944999197095e-06 0.0 
-1.944999197095e-06 4.809566755932e-04 0.0 
0.0 0.0 0.0 
-1.195038545865e-05 -2.302748203085e-06 0.0 
-2.302748203085e-06 4.810167621543e-04 0.0 
0.0 0.0 0.0 
-1.099592624287e-05 -2.260235654826e-06 0.0 
-2.260235654826e-06 4.809817212363e-04 0.0 
0.0 0.0 0.0 
-1.208521581653e-05 -2.668316067531e-06 0.0 
-2.668316067531e-06 4.810508540443e-04 0.0 
0.0 0.0 0.0 
-1.097256543814e-05 -2.568424696784e-06 0.0 
-2.568424696784e-06 4.809824562781e-04 0.0 
0.0 0.0 0.0 
-1.224104551356e-05 -3.014982162259e-06 0.0 
-3.014982162259e-06 4.810847566616e-04 0.0 
0.0 0.0 0.0 
-1.096236086795e-05 -2.856096932114e-06 0.0 
-2.856096932114e-06 4.809736364222e-04 0.0 
0.0 0.0 0.0 
-1.995016947620e-05 9.739274776550e-07 0.0 
9.739274776550e-07 4.842260299280e-04 0.0 
0.0 0.0 0.0 
-1.244508796072e-05 -3.338605978257e-06 0.0 
-3.338605978257e-06 4.811265401801e-04 0.0 
0.0 0.0 0.0 
-1.097164336217e-05 -3.114505386381e-06 0.0 
-3.114505386381e-06 4.809594716526e-04 0.0 
0.0 0.0 0.0 
-1.783754566009e-05 2.730494105401e-06 0.0 
2.730494105401e-06 4.821819118619e-04 0.0 
0.0 0.0 0.0 
-1.271235398803e-05 -3.630500774263e-06 0.0 
-3.630500774263e-06 4.811819978190e-04 0.0 
0.0 0.0 0.0 
-1.100728315739e-05 -3.339221758566e-06 0.0 
-3.339221758566e-06 4.809451887766e-04 0.0 
0.0 0.0 0.0 
-1.302934734393e-05 -3.885818771200e-06 0.0 
-3.885818771200e-06 4.812418573705e-04 0.0 
0.0 0.0 0.0 
-1.107102709152e-05 -3.510369162130e-06 0.0 
-3.510369162130e-06 4.809127011869e-04 0.0 
0.0 0.0 0.0 
-1.338482635471e-05 -4.075609503087e-06 0.0 
-4.075609503087e-06 4.812925016231e-04 0.0 
0.0 0.0 0.0 
-1.444673180651e-05 4.076180417687e-06 0.0 
4.076180417687e-06 4.611299843913e-04 0.0 
0.0 0.0 0.0 
-1.117026559561e-05 -3.578137262021e-06 0.0 
-3.578137262021e-06 4.808344498424e-04 0.0 
0.0 0.0 0.0 
-1.377207754216e-05 -4.096023294768e-06 0.0 
-4.096023294768e-06 4.813730126747e-04 0.0 
0.0 0.0 0.0 
-1.137068556423e-05 -3.533700267717e-06 0.0 
-3.533700267717e-06 4.808082939196e-04 0.0 
0.0 0.0 0.0 
-1.440540488729e-05 -4.038711570756e-06 0.0 
-4.038711570756e-06 4.815058709677e-04 0.0 
0.0 0.0 0.0 
-1.166247254558e-05 -3.354008769360e-06 0.0 
-3.354008769360e-06 4.807676622520e-04 0.0 
0.0 0.0 0.0 
-1.501671356741e-05 -3.745156896884e-06 0.0 
-3.745156896884e-06 4.816841311028e-04 0.0 
0.0 0.0 0.0 
-1.213106065456e-05 -3.054393002052e-06 0.0 
-3.054393002052e-06 4.808544847896e-04 0.0 
0.0 0.0 0.0 
-1.610880202385e-05 -3.536583046921e-06 0.0 
-3.536583046921e-06 4.818274514495e-04 0.0 
0.0 0.0 0.0 
-1.259428042477e-05 -2.460679786549e-06 0.0 
-2.460679786549e-06 4.805522106928e-04 0.0 
0.0 0.0 0.0 
-1.653984468386e-05 -2.486722511817e-06 0.0 
-2.486722511817e-06 4.819823790856e-04 0.0 
0.0 0.0 0.0 
-1.714324064539e-05 7.043349349292e-06 0.0 
7.043349349292e-06 4.879166607559e-04 0.0 
0.0 0.0 0.0 
-1.846308068221e-05 -2.221809100342e-06 0.0 
-2.221809100342e-06 4.819518841410e-04 0.0 
0.0 0.0 0.0 
-1.350477228657e-05 -1.676622130063e-06 0.0 
-1.676622130063e-06 4.808836599510e-04 0.0 
0.0 0.0 0.0 
-1.701325027648e-05 9.205601850861e-07 0.0 
9.205601850861e-07 4.816887287316e-04 0.0 
0.0 0.0 0.0 
-1.401793116917e-05 -1.702339989164e-07 0.0 
-1.702339989164e-07 4.794987403549e-04 0.0 
0.0 0.0 0.0 
-1.595519802688e-05 1.855951219817e-06 0.0 
1.855951219817e-06 4.806753353461e-04 0.0 
0.0 0.0 0.0 
-1.556939453284e-05 3.841808775412e-06 0.0 
3.841808775412e-06 4.614637471840e-04 0.0 
0.0 0.0 0.0 
-1.382923128301e-05 -8.620668272506e-06 0.0 
-8.620668272506e-06 4.828198391855e-04 0.0 
0.0 0.0 0.0 
-9.028914384257e-06 7.896900925366e-06 0.0 
7.896900925366e-06 4.742174652164e-04 0.0 
0.0 0.0 0.0 
-1.158075815533e-05 -1.128994493534e-06 0.0 
-1.128994493534e-06 4.953256857647e-04 0.0 
0.0 0.0 0.0 
-1.122067987258e-05 6.625102393357e-07 0.0 
6.625102393357e-07 4.621607297124e-04 0.0 
0.0 0.0 0.0 
-1.624528997612e-05 7.305777658853e-06 0.0 
7.305777658853e-06 4.584418577736e-04 0.0 
0.0 0.0 0.0 
-1.201377507010e-05 -2.238408121628e-06 0.0 
-2.238408121628e-06 5.505777428698e-04 0.0 
0.0 0.0 0.0 
-1.161748809608e-05 5.022703810599e-07 0.0 
5.022703810599e-07 5.450128047206e-04 0.0 
0.0 0.0 0.0 
-1.204819977108e-05 -9.774586011315e-07 0.0 
-9.774586011315e-07 5.448659086016e-04 0.0 
0.0 0.0 0.0 
-1.164238313112e-05 -1.046915416378e-06 0.0 
-1.046915416378e-06 5.446471768473e-04 0.0 
0.0 0.0 0.0 
-1.212385374583e-05 -1.095397881421e-06 0.0 
-1.095397881421e-06 5.446426127498e-04 0.0 
0.0 0.0 0.0 
-1.168521296069e-05 -1.336434533801e-06 0.0 
-1.336434533801e-06 5.447211796878e-04 0.0 
0.0 0.0 0.0 
-1.228775060302e-05 -1.294413402727e-06 0.0 
-1.294413402727e-06 5.447356092905e-04 0.0 
0.0 0.0 0.0 
-1.174676264970e-05 -1.578674621936e-06 0.0 
-1.578674621936e-06 5.448188725223e-04 0.0 
0.0 0.0 0.0 
-1.247054726694e-05 -1.523461897320e-06 0.0 
-1.523461897320e-06 5.448439848381e-04 0.0 
0.0 0.0 0.0 
-1.183077403744e-05 -1.838476774885e-06 0.0 
-1.838476774885e-06 5.449172739715e-04 0.0 
0.0 0.0 0.0 
-1.270945928944e-05 -1.762772175075e-06 0.0 
-1.762772175075e-06 5.449597557696e-04 0.0 
0.0 0.0 0.0 
-1.195038545865e-05 -2.117660126798e-06 0.0 
-2.117660126798e-06 5.450286762640e-04 0.0 
0.0 0.0 0.0 
-1.300709835994e-05 -2.048668388181e-06 0.0 
-2.048668388181e-06 5.450851852051e-04 0.0 
0.0 0.0 0.0 
-1.208521581653e-05 -2.421897536264e-06 0.0 
-2.421897536264e-06 5.450923470141e-04 0.0 
0.0 0.0 0.0 
-1.331985008635e-05 -2.322501837162e-06 0.0 
-2.322501837162e-06 5.451814906645e-04 0.0 
0.0 0.0 0.0 
-1.224104551356e-05 -2.703162027524e-06 0.0 
-2.703162027524e-06 5.451235569629e-04 0.0 
0.0 0.0 0.0 
-2.248240098268e-05 -9.866406206675e-08 0.0 
-9.866406206675e-08 5.498641275588e-04 0.0 
0.0 0.0 0.0 
-1.364209958865e-05 -2.539342206323e-06 0.0 
-2.539342206323e-06 5.452682042448e-04 0.0 
0.0 0.0 0.0 
-1.244508796072e-05 -2.927997514012e-06 0.0 
-2.927997514012e-06 5.451778681655e-04 0.0 
0.0 0.0 0.0 
-1.701325027648e-05 2.573000287125e-06 0.0 
2.573000287125e-06 5.265462119670e-04 0.0 
0.0 0.0 0.0 
-1.410945564151e-05 -2.704288701074e-06 0.0 
-2.704288701074e-06 5.453937455520e-04 0.0 
0.0 0.0 0.0 
-1.271235398803e-05 -3.112003729360e-06 0.0 
-3.112003729360e-06 5.452505807861e-04 0.0 
0.0 0.0 0.0 
-1.902202544113e-05 2.303895965857e-06 0.0 
2.303895965857e-06 5.465964736453e-04 0.0 
0.0 0.0 0.0 
-1.465028968950e-05 -2.854265260856e-06 0.0 
-2.854265260856e-06 5.455388933309e-04 0.0 
0.0 0.0 0.0 
-1.302934734393e-05 -3.249965950940e-06 0.0 
-3.249965950940e-06 5.452986125474e-04 0.0 
0.0 0.0 0.0 
-1.521840035268e-05 -2.966285380363e-06 0.0 
-2.966285380363e-06 5.456658356604e-04 0.0 
0.0 0.0 0.0 
-1.338482635471e-05 -3.301563046334e-06 0.0 
-3.301563046334e-06 5.452830383563e-04 0.0 
0.0 0.0 0.0 
-1.584734309212e-05 -2.987034070551e-06 0.0 
-2.987034070551e-06 5.457475855206e-04 0.0 
0.0 0.0 0.0 
-1.377207754216e-05 -3.178691979389e-06 0.0 
-3.178691979389e-06 5.451199411071e-04 0.0 
0.0 0.0 0.0 
-1.932616139377e-05 5.343308662327e-06 0.0 
5.343308662327e-06 5.530573273591e-04 0.0 
0.0 0.0 0.0 
-1.642807771562e-05 -2.606107340877e-06 0.0 
-2.606107340877e-06 5.458461103749e-04 0.0 
0.0 0.0 0.0 
-1.440540488729e-05 -2.830267862917e-06 0.0 
-2.830267862917e-06 5.453362044536e-04 0.0 
0.0 0.0 0.0 
-1.754354285699e-05 -2.437964904353e-06 0.0 
-2.437964904353e-06 5.460717323245e-04 0.0 
0.0 0.0 0.0 
-1.501671356741e-05 -2.342171369341e-06 0.0 
-2.342171369341e-06 5.450471215378e-04 0.0 
0.0 0.0 0.0 
-1.610880202385e-05 -1.638046113595e-06 0.0 
-1.638046113595e-06 5.457372136057e-04 0.0 
0.0 0.0 0.0 
-1.824569810827e-05 -1.475653495623e-06 0.0 
-1.475653495623e-06 5.462569733630e-04 0.0 
0.0 0.0 0.0 
-1.653984468386e-05 -5.584470176622e-07 0.0 
-5.584470176622e-07 5.439787530499e-04 0.0 
0.0 0.0 0.0 
-2.008632929573e-05 -1.749087558843e-06 0.0 
-1.749087558843e-06 5.463612692405e-04 0.0 
0.0 0.0 0.0 
-1.846308068221e-05 1.400236339170e-06 0.0 
1.400236339170e-06 5.456118850888e-04 0.0 
0.0 0.0 0.0 
-1.830405748715e-05 1.128048214619e-06 0.0 
1.128048214619e-06 5.458538518515e-04 0.0 
0.0 0.0 0.0 
-1.784028296126e-05 1.954916598687e-06 0.0 
1.954916598687e-06 5.260843065904e-04 0.0 
0.0 0.0 0.0 
-9.312241593507e-06 -8.625949909068e-06 0.0 
-8.625949909068e-06 5.423595292113e-04 0.0 
0.0 0.0 0.0 
-1.418438481038e-05 7.884295987499e-06 0.0 
7.884295987499e-06 5.510852347062e-04 0.0 
0.0 0.0 0.0 
-1.158075815533e-05 -1.122889308148e-06 0.0 
-1.122889308148e-06 5.298850695963e-04 0.0 
0.0 0.0 0.0 
-1.198262790636e-05 6.789485133324e-07 0.0 
6.789485133324e-07 5.630426171237e-04 0.0 
0.0 0.0 0.0 
-1.783754566009e-05 4.816764192572e-06 0.0 
4.816764192572e-06 5.232217746711e-04 0.0 
0.0 0.0 0.0 
-1.201377507010e-05 -2.216019097054e-06 0.0 
-2.216019097054e-06 6.033314628482e-04 0.0 
0.0 0.0 0.0 
-1.237683713606e-05 5.580761816217e-07 0.0 
5.580761816217e-07 6.089299073924e-04 0.0 
0.0 0.0 0.0 
-1.204819977108e-05 -9.367358874499e-07 0.0 
-9.367358874499e-07 6.090785670059e-04 0.0 
0.0 0.0 0.0 
-1.232600051015e-05 -9.216019615347e-07 0.0 
-9.216019615347e-07 6.093442580262e-04 0.0 
0.0 0.0 0.0 
-1.212385374583e-05 -9.849931692094e-07 0.0 
-9.849931692094e-07 6.093526296318e-04 0.0 
0.0 0.0 0.0 
-1.256193020394e-05 -1.088372675580e-06 0.0 
-1.088372675580e-06 6.095213884514e-04 0.0 
0.0 0.0 0.0 
-1.228775060302e-05 -1.167336841255e-06 0.0 
-1.167336841255e-06 6.095344394885e-04 0.0 
0.0 0.0 0.0 
-1.272390175588e-05 -1.292873903642e-06 0.0 
-1.292873903642e-06 6.096486778557e-04 0.0 
0.0 0.0 0.0 
-1.247054726694e-05 -1.321117352630e-06 0.0 
-1.321117352630e-06 6.096517800540e-04 0.0 
0.0 0.0 0.0 
-1.303782253392e-05 -1.464785471736e-06 0.0 
-1.464785471736e-06 6.098174006319e-04 0.0 
0.0 0.0 0.0 
-1.270945928944e-05 -1.488341845787e-06 0.0 
-1.488341845787e-06 6.098170793711e-04 0.0 
0.0 0.0 0.0 
-1.337709308435e-05 -1.649257540447e-06 0.0 
-1.649257540447e-06 6.100059767267e-04 0.0 
0.0 0.0 0.0 
-1.300709835994e-05 -1.676431203669e-06 0.0 
-1.676431203669e-06 6.100041564203e-04 0.0 
0.0 0.0 0.0 
-1.390815347801e-05 -1.919773214580e-06 0.0 
-1.919773214580e-06 6.101914844785e-04 0.0 
0.0 0.0 0.0 
-1.331985008635e-05 -1.877300594761e-06 0.0 
-1.877300594761e-06 6.101509632950e-04 0.0 
0.0 0.0 0.0 
-2.373483337081e-05 -7.781852108270e-07 0.0 
-7.781852108270e-07 6.150950894055e-04 0.0 
0.0 0.0 0.0 
-1.422760280001e-05 -2.161708514125e-06 0.0 
-2.161708514125e-06 6.102553499936e-04 0.0 
0.0 0.0 0.0 
-1.960953609448e-05 2.034219312977e-06 0.0 
2.034219312977e-06 6.117285526357e-04 0.0 
0.0 0.0 0.0 
-1.364209958865e-05 -1.936108896377e-06 0.0 
-1.936108896377e-06 6.101241890655e-04 0.0 
0.0 0.0 0.0 
-1.481694914540e-05 -2.173098059779e-06 0.0 
-2.173098059779e-06 6.104295581961e-04 0.0 
0.0 0.0 0.0 
-1.410945564151e-05 -1.973135342424e-06 0.0 
-1.973135342424e-06 6.102853584935e-04 0.0 
0.0 0.0 0.0 
-1.557856771717e-05 -2.241207352494e-06 0.0 
-2.241207352494e-06 6.106688561136e-04 0.0 
0.0 0.0 0.0 
-1.465028968950e-05 -2.010387750138e-06 0.0 
-2.010387750138e-06 6.104717043065e-04 0.0 
0.0 0.0 0.0 
-1.627265544946e-05 -2.315081689752e-06 0.0 
-2.315081689752e-06 6.108400920135e-04 0.0 
0.0 0.0 0.0 
-1.830405748715e-05 2.531687685597e-06 0.0 
2.531687685597e-06 5.917841592720e-04 0.0 
0.0 0.0 0.0 
-1.521840035268e-05 -1.952686377889e-06 0.0 
-1.952686377889e-06 6.105277718678e-04 0.0 
0.0 0.0 0.0 
-1.706883000763e-05 -2.252419127336e-06 0.0 
-2.252419127336e-06 6.109662346674e-04 0.0 
0.0 0.0 0.0 
-1.584734309212e-05 -1.777456506235e-06 0.0 
-1.777456506235e-06 6.105284894082e-04 0.0 
0.0 0.0 0.0 
-1.802573112386e-05 -2.157589295024e-06 0.0 
-2.157589295024e-06 6.109546857263e-04 0.0 
0.0 0.0 0.0 
-1.642807771562e-05 -1.244833899230e-06 0.0 
-1.244833899230e-06 6.101200444069e-04 0.0 
0.0 0.0 0.0 
-1.845618040208e-05 -1.069894886198e-06 0.0 
-1.069894886198e-06 6.111309457850e-04 0.0 
0.0 0.0 0.0 
-1.754354285699e-05 -6.611069637687e-07 0.0 
-6.611069637687e-07 6.106960151886e-04 0.0 
0.0 0.0 0.0 
-2.062884555043e-05 -1.069144324481e-06 0.0 
-1.069144324481e-06 6.113170793254e-04 0.0 
0.0 0.0 0.0 
-1.914153015969e-05 1.235571369504e-06 0.0 
1.235571369504e-06 6.112070336273e-04 0.0 
0.0 0.0 0.0 
-1.824569810827e-05 3.028298435513e-07 0.0 
3.028298435513e-07 6.098381964004e-04 0.0 
0.0 0.0 0.0 
-1.994715706366e-05 4.452592031280e-06 0.0 
4.452592031280e-06 6.181331194988e-04 0.0 
0.0 0.0 0.0 
-2.008632929573e-05 1.432196051472e-06 0.0 
1.432196051472e-06 6.112105569915e-04 0.0 
0.0 0.0 0.0 
-1.845044838600e-05 1.673431423566e-06 0.0 
1.673431423566e-06 5.905040013241e-04 0.0 
0.0 0.0 0.0 
-1.458792504050e-05 -8.581239104612e-06 0.0 
-8.581239104612e-06 6.113948056374e-04 0.0 
0.0 0.0 0.0 
-9.801112260455e-06 7.940001748886e-06 0.0 
7.940001748886e-06 6.028222788919e-04 0.0 
0.0 0.0 0.0 
-1.234127696637e-05 -1.056114761206e-06 0.0 
-1.056114761206e-06 6.239330782816e-04 0.0 
0.0 0.0 0.0 
-1.198262790636e-05 7.106794879283e-07 0.0 
7.106794879283e-07 5.907989037937e-04 0.0 
0.0 0.0 0.0 
-1.902202544113e-05 3.868558195196e-06 0.0 
3.868558195196e-06 5.886441315834e-04 0.0 
0.0 0.0 0.0 
-1.306998119266e-05 -2.274673454481e-06 0.0 
-2.274673454481e-06 6.793204749591e-04 0.0 
0.0 0.0 0.0 
-1.237683713606e-05 5.477546079163e-07 0.0 
5.477546079163e-07 6.733936730750e-04 0.0 
0.0 0.0 0.0 
-1.242412638147e-05 -9.987897301875e-07 0.0 
-9.987897301875e-07 6.732118903130e-04 0.0 
0.0 0.0 0.0 
-1.232600051015e-05 -8.413494725342e-07 0.0 
-8.413494725342e-07 6.728432198757e-04 0.0 
0.0 0.0 0.0 
-1.264154440561e-05 -6.413979671405e-07 0.0 
-6.413979671405e-07 6.728809620922e-04 0.0 
0.0 0.0 0.0 
-1.256193020394e-05 -8.524502434580e-07 0.0 
-8.524502434580e-07 6.731914239106e-04 0.0 
0.0 0.0 0.0 
-1.310768299301e-05 -9.022695711648e-07 0.0 
-9.022695711648e-07 6.731872553878e-04 0.0 
0.0 0.0 0.0 
-1.272390175588e-05 -1.048200877255e-06 0.0 
-1.048200877255e-06 6.731569928575e-04 0.0 
0.0 0.0 0.0 
-1.314746331271e-05 -8.472311497711e-07 0.0 
-8.472311497711e-07 6.732252616692e-04 0.0 
0.0 0.0 0.0 
-1.303782253392e-05 -1.039476236469e-06 0.0 
-1.039476236469e-06 6.734675421836e-04 0.0 
0.0 0.0 0.0 
-1.376744880244e-05 -9.548108052407e-07 0.0 
-9.548108052407e-07 6.735201460257e-04 0.0 
0.0 0.0 0.0 
-1.337709308435e-05 -1.143295092032e-06 0.0 
-1.143295092032e-06 6.735733361918e-04 0.0 
0.0 0.0 0.0 
-1.408515767898e-05 -8.690257769635e-07 0.0 
-8.690257769635e-07 6.737162837340e-04 0.0 
0.0 0.0 0.0 
-2.404339110751e-05 -6.572806743854e-07 0.0 
-6.572806743854e-07 6.798484150490e-04 0.0 
0.0 0.0 0.0 
-1.390815347801e-05 -1.161581259708e-06 0.0 
-1.161581259708e-06 6.740602138844e-04 0.0 
0.0 0.0 0.0 
-1.491590256164e-05 -1.323177076281e-06 0.0 
-1.323177076281e-06 6.740399611309e-04 0.0 
0.0 0.0 0.0 
-1.914153015969e-05 2.430897695831e-06 0.0 
2.430897695831e-06 6.566832899999e-04 0.0 
0.0 0.0 0.0 
-1.422760280001e-05 -1.364542142199e-06 0.0 
-1.364542142199e-06 6.737286577234e-04 0.0 
0.0 0.0 0.0 
-1.531890205209e-05 -1.027548069752e-06 0.0 
-1.027548069752e-06 6.739835328198e-04 0.0 
0.0 0.0 0.0 
-1.953973282742e-05 2.430945451464e-06 0.0 
2.430945451464e-06 6.756342743530e-04 0.0 
0.0 0.0 0.0 
-1.481694914540e-05 -1.191090507847e-06 0.0 
-1.191090507847e-06 6.739643082392e-04 0.0 
0.0 0.0 0.0 
-1.624268239597e-05 -8.136679001553e-07 0.0 
-8.136679001553e-07 6.743096548636e-04 0.0 
0.0 0.0 0.0 
-1.557856771717e-05 -1.072503663287e-06 0.0 
-1.072503663287e-06 6.743559372757e-04 0.0 
0.0 0.0 0.0 
-1.711688602946e-05 -9.191031032730e-07 0.0 
-9.191031032730e-07 6.746162142088e-04 0.0 
0.0 0.0 0.0 
-1.627265544946e-05 -9.728907879914e-07 0.0 
-9.728907879914e-07 6.743323550180e-04 0.0 
0.0 0.0 0.0 
-1.987785055391e-05 4.080877819149e-06 0.0 
4.080877819149e-06 6.824800267495e-04 0.0 
0.0 0.0 0.0 
-1.783894183949e-05 -7.109942999108e-07 0.0 
-7.109942999108e-07 6.747123314663e-04 0.0 
0.0 0.0 0.0 
-1.706883000763e-05 -6.418020870590e-07 0.0 
-6.418020870590e-07 6.743330703953e-04 0.0 
0.0 0.0 0.0 
-1.802573112386e-05 -2.552976222791e-07 0.0 
-2.552976222791e-07 6.745149831955e-04 0.0 
0.0 0.0 0.0 
-1.891561646938e-05 -2.943045400791e-07 0.0 
-2.943045400791e-07 6.748687924918e-04 0.0 
0.0 0.0 0.0 
-1.845618040208e-05 6.395651364591e-07 0.0 
6.395651364591e-07 6.728026634553e-04 0.0 
0.0 0.0 0.0 
-2.055301434012e-05 -5.055959261514e-07 0.0 
-5.055959261514e-07 6.747373564870e-04 0.0 
0.0 0.0 0.0 
-2.062884555043e-05 2.013010852200e-06 0.0 
2.013010852200e-06 6.754821117347e-04 0.0 
0.0 0.0 0.0 
-1.907257451861e-05 2.482532728602e-06 0.0 
2.482532728602e-06 6.745487842337e-04 0.0 
0.0 0.0 0.0 
-1.861733158093e-05 1.526036546380e-06 0.0 
1.526036546380e-06 6.550507733096e-04 0.0 
0.0 0.0 0.0 
-9.657024294007e-06 -8.329537313554e-06 0.0 
-8.329537313554e-06 6.703919239228e-04 0.0 
0.0 0.0 0.0 
-1.499620016765e-05 8.248119772554e-06 0.0 
8.248119772554e-06 6.799411290750e-04 0.0 
0.0 0.0 0.0 
-1.234127696637e-05 -8.487036651614e-07 0.0 
-8.487036651614e-07 6.583989831381e-04 0.0 
0.0 0.0 0.0 
-1.239239971351e-05 1.123399658416e-06 0.0 
1.123399658416e-06 6.913185799762e-04 0.0 
0.0 0.0 0.0 
-1.960953609448e-05 3.340297687264e-06 0.0 
3.340297687264e-06 6.534845632973e-04 0.0 
0.0 0.0 0.0 
-1.306998119266e-05 -2.805155186840e-06 0.0 
-2.805155186840e-06 7.332148769654e-04 0.0 
0.0 0.0 0.0 
-1.179370649262e-05 -2.642228127846e-07 0.0 
-2.642228127846e-07 7.368672675823e-04 0.0 
0.0 0.0 0.0 
-1.242412638147e-05 -5.825535437105e-07 0.0 
-5.825535437105e-07 7.369068996403e-04 0.0 
0.0 0.0 0.0 
-1.282671466507e-05 -4.802447762607e-07 0.0 
-4.802447762607e-07 7.374281403170e-04 0.0 
0.0 0.0 0.0 
-1.264154440561e-05 -3.582090434718e-07 0.0 
-3.582090434718e-07 7.374051629625e-04 0.0 
0.0 0.0 0.0 
-1.307086244440e-05 -1.881785306379e-07 0.0 
-1.881785306379e-07 7.380394609566e-04 0.0 
0.0 0.0 0.0 
-1.310768299301e-05 -7.390927322854e-07 0.0 
-7.390927322854e-07 7.381695974544e-04 0.0 
0.0 0.0 0.0 
-1.288106814934e-05 -9.023069207304e-07 0.0 
-9.023069207304e-07 7.377263089914e-04 0.0 
0.0 0.0 0.0 
-1.314746331271e-05 -3.730062234902e-07 0.0 
-3.730062234902e-07 7.375763934570e-04 0.0 
0.0 0.0 0.0 
-1.346351678022e-05 -1.184597281044e-07 0.0 
-1.184597281044e-07 7.382099941886e-04 0.0 
0.0 0.0 0.0 
-1.376744880244e-05 -4.743830192964e-07 0.0 
-4.743830192964e-07 7.383450791847e-04 0.0 
0.0 0.0 0.0 
-1.411977285715e-05 -6.078770114892e-07 0.0 
-6.078770114892e-07 7.383552429099e-04 0.0 
0.0 0.0 0.0 
-2.389335413300e-05 -6.089942671555e-07 0.0 
-6.089942671555e-07 7.443598269457e-04 0.0 
0.0 0.0 0.0 
-1.408515767898e-05 -3.041715083033e-07 0.0 
-3.041715083033e-07 7.382287204505e-04 0.0 
0.0 0.0 0.0 
-2.081899070605e-05 3.211668541202e-06 0.0 
3.211668541202e-06 7.403902699950e-04 0.0 
0.0 0.0 0.0 
-1.358714176103e-05 1.258220151664e-07 0.0 
1.258220151664e-07 7.385951303025e-04 0.0 
0.0 0.0 0.0 
-1.491590256164e-05 -2.253433641829e-07 0.0 
-2.253433641829e-07 7.388339492103e-04 0.0 
0.0 0.0 0.0 
-1.571205174267e-05 -5.936296211870e-07 0.0 
-5.936296211870e-07 7.387227957512e-04 0.0 
0.0 0.0 0.0 
-1.531890205209e-05 1.230372683352e-07 0.0 
1.230372683352e-07 7.383158361829e-04 0.0 
0.0 0.0 0.0 
-1.648524690157e-05 2.350663435218e-07 0.0 
2.350663435218e-07 7.390551494046e-04 0.0 
0.0 0.0 0.0 
-1.624268239597e-05 2.764215675238e-07 0.0 
2.764215675238e-07 7.390098397135e-04 0.0 
0.0 0.0 0.0 
-1.689402572425e-05 3.227843401023e-07 0.0 
3.227843401023e-07 7.393706286383e-04 0.0 
0.0 0.0 0.0 
-1.907257451861e-05 3.189732501198e-06 0.0 
3.189732501198e-06 7.213309419192e-04 0.0 
0.0 0.0 0.0 
-1.711688602946e-05 4.602026268755e-07 0.0 
4.602026268755e-07 7.393050379969e-04 0.0 
0.0 0.0 0.0 
-1.779074622521e-05 2.953676218189e-07 0.0 
2.953676218189e-07 7.393738573458e-04 0.0 
0.0 0.0 0.0 
-1.783894183949e-05 1.008339849338e-06 0.0 
1.008339849338e-06 7.388765864382e-04 0.0 
0.0 0.0 0.0 
-1.845322086835e-05 1.163542314758e-06 0.0 
1.163542314758e-06 7.393026471412e-04 0.0 
0.0 0.0 0.0 
-1.940718152549e-05 2.405883116684e-06 0.0 
2.405883116684e-06 7.395439496012e-04 0.0 
0.0 0.0 0.0 
-1.891561646938e-05 1.914615722030e-06 0.0 
1.914615722030e-06 7.387958962455e-04 0.0 
0.0 0.0 0.0 
-2.055301434012e-05 2.576707133232e-06 0.0 
2.576707133232e-06 7.395975471514e-04 0.0 
0.0 0.0 0.0 
-1.929916504229e-05 4.202846174813e-06 0.0 
4.202846174813e-06 7.470397964062e-04 0.0 
0.0 0.0 0.0 
-1.804336008859e-05 2.318569990629e-06 0.0 
2.318569990629e-06 7.192405112686e-04 0.0 
0.0 0.0 0.0 
-1.454739985440e-05 -7.471826942969e-06 0.0 
-7.471826942969e-06 7.380713068659e-04 0.0 
0.0 0.0 0.0 
-1.145272587555e-05 8.925758596338e-06 0.0 
8.925758596338e-06 7.325234242042e-04 0.0 
0.0 0.0 0.0 
-1.354434365941e-05 3.714821416940e-07 0.0 
3.714821416940e-07 7.523516333277e-04 0.0 
0.0 0.0 0.0 
-1.239239971351e-05 1.405052367151e-06 0.0 
1.405052367151e-06 7.188096180024e-04 0.0 
0.0 0.0 0.0 
-1.953973282742e-05 3.217428739535e-06 0.0 
3.217428739535e-06 7.187386496270e-04 0.0 
0.0 0.0 0.0 

TENSORS element_materi_strain_plasti float
-7.112834060814e-05 3.514287460403e-05 0.0 
3.514287460403e-05 4.221004333340e-04 0.0 
0.0 0.0 -6.331083958573e-05 
-5.846555959083e-05 -3.955396469031e-05 0.0 
-3.955396469031e-05 3.778270157352e-04 0.0 
0.0 0.0 -6.454996159239e-05 
-1.889012089990e-04 -4.635760778403e-06 0.0 
-4.635760778403e-06 1.261715003762e-03 0.0 
0.0 0.0 -1.917354871627e-04 
-1.892197240299e-04 -2.621872887778e-05 0.0 
-2.621872887778e-05 1.272074442975e-03 0.0 
0.0 0.0 -1.883397590782e-04 
-1.197492232907e-04 3.454635042166e-05 0.0 
3.454635042166e-05 7.881734594548e-04 0.0 
0.0 0.0 -1.194279202642e-04 
-3.089019924433e-05 3.311410509038e-05 0.0 
3.311410509038e-05 1.513652850395e-04 0.0 
0.0 0.0 -2.690189283898e-05 
-1.181845121128e-04 4.042873295375e-05 0.0 
4.042873295375e-05 7.806844228614e-04 0.0 
0.0 0.0 -1.201653584795e-04 
-6.192381097420e-05 6.121385101826e-06 0.0 
6.121385101826e-06 4.031113170469e-04 0.0 
0.0 0.0 -6.068503909357e-05 
-1.204422882212e-04 -4.316649774326e-05 0.0 
-4.316649774326e-05 7.921064928151e-04 0.0 
0.0 0.0 -1.196685615722e-04 
-1.872884217324e-04 3.363141611130e-05 0.0 
3.363141611130e-05 1.259931992447e-03 0.0 
0.0 0.0 -1.879590212157e-04 
-1.310105652939e-04 2.220654670134e-05 0.0 
2.220654670134e-05 8.586450598517e-04 0.0 
0.0 0.0 -1.322476557103e-04 
-5.719807020115e-05 3.286461856490e-08 0.0 
3.286461856490e-08 3.230799459092e-04 0.0 
0.0 0.0 -5.602547750609e-05 
-1.877824496395e-04 3.388580337900e-05 0.0 
3.388580337900e-05 1.270169470641e-03 0.0 
0.0 0.0 -1.888781569884e-04 
-1.271872132406e-04 2.790230920199e-05 0.0 
2.790230920199e-05 8.458021199286e-04 0.0 
0.0 0.0 -1.278925217316e-04 
-1.932284152260e-04 -2.749272838120e-05 0.0 
-2.749272838120e-05 1.293984431102e-03 0.0 
0.0 0.0 -1.934308312547e-04 
-1.951772105051e-04 3.059468724474e-05 0.0 
3.059468724474e-05 1.293909326463e-03 0.0 
0.0 0.0 -1.928977411855e-04 
-1.183364621444e-04 7.034029580759e-07 0.0 
7.034029580759e-07 7.884128395372e-04 0.0 
0.0 0.0 -1.161101519611e-04 
-2.611548289249e-05 -2.976881314846e-05 0.0 
-2.976881314846e-05 1.366026820107e-04 0.0 
0.0 0.0 -2.739356786257e-05 
-4.655901900947e-05 -1.783274604704e-05 0.0 
-1.783274604704e-05 2.713105741166e-04 0.0 
0.0 0.0 -4.164025237647e-05 
-4.525890771348e-05 1.651863799484e-05 0.0 
1.651863799484e-05 2.466759593770e-04 0.0 
0.0 0.0 -4.546658199970e-05 
-1.855467270519e-04 -3.410013315625e-05 0.0 
-3.410013315625e-05 1.271232436366e-03 0.0 
0.0 0.0 -1.875582398551e-04 
-7.183248799894e-05 1.385365681385e-05 0.0 
1.385365681385e-05 4.407830654411e-04 0.0 
0.0 0.0 -7.216713101957e-05 
-7.730219154025e-05 -1.500465902034e-05 0.0 
-1.500465902034e-05 4.983174969402e-04 0.0 
0.0 0.0 -7.637334323853e-05 
-1.811871610611e-04 -2.281549761052e-05 0.0 
-2.281549761052e-05 1.217872226341e-03 0.0 
0.0 0.0 -1.815559455716e-04 
-1.350733973102e-04 3.295465992380e-05 0.0 
3.295465992380e-05 9.016620137675e-04 0.0 
0.0 0.0 -1.369648256180e-04 
-1.376188637296e-04 -2.176217058498e-05 0.0 
-2.176217058498e-05 9.243651343577e-04 0.0 
0.0 0.0 -1.376939605679e-04 
-1.069658315495e-04 -2.744737862324e-06 0.0 
-2.744737862324e-06 7.297614599069e-04 0.0 
0.0 0.0 -1.072212406194e-04 
-1.912521162051e-04 1.980335045204e-06 0.0 
1.980335045204e-06 1.305953059909e-03 0.0 
0.0 0.0 -1.899071758113e-04 
-1.362716787782e-04 -3.798939155730e-05 0.0 
-3.798939155730e-05 9.083018994538e-04 0.0 
0.0 0.0 -1.367086240186e-04 
-1.873007466112e-04 2.251116880675e-05 0.0 
2.251116880675e-05 1.247916240988e-03 0.0 
0.0 0.0 -1.856871487262e-04 
-3.243755210516e-05 5.032771115372e-06 0.0 
5.032771115372e-06 2.086151015531e-04 0.0 
0.0 0.0 -3.278963886402e-05 
-1.654166470030e-05 4.638693750366e-06 0.0 
4.638693750366e-06 9.012172148024e-05 0.0 
0.0 0.0 -1.589633704410e-05 
-1.936928702910e-04 8.344522422306e-06 0.0 
8.344522422306e-06 1.305844555641e-03 0.0 
0.0 0.0 -1.891952015075e-04 
-1.629254088575e-04 -2.764733331880e-05 0.0 
-2.764733331880e-05 1.087637140145e-03 0.0 
0.0 0.0 -1.635300645102e-04 
-1.844440851533e-04 -3.122724235015e-05 0.0 
-3.122724235015e-05 1.269225288252e-03 0.0 
0.0 0.0 -1.882484805285e-04 
-2.000892196314e-04 5.806438950548e-05 0.0 
5.806438950548e-05 1.337814960827e-03 0.0 
0.0 0.0 -1.972329526028e-04 
-1.979323581362e-04 -6.123980485016e-05 0.0 
-6.123980485016e-05 1.334624137008e-03 0.0 
0.0 0.0 -1.971979658877e-04 
-1.876565914579e-04 2.632656749342e-05 0.0 
2.632656749342e-05 1.265796013128e-03 0.0 
0.0 0.0 -1.897108526679e-04 
-1.089254337778e-04 -4.761071042110e-05 0.0 
-4.761071042110e-05 7.109927537120e-04 0.0 
0.0 0.0 -1.107114518244e-04 
-1.094034421642e-04 5.351990132505e-05 0.0 
5.351990132505e-05 7.212963119965e-04 0.0 
0.0 0.0 -1.105676175232e-04 
-8.675634194158e-05 -2.048772068430e-05 0.0 
-2.048772068430e-05 5.676637230470e-04 0.0 
0.0 0.0 -8.691834785005e-05 
-1.894316575551e-04 1.529535291875e-06 0.0 
1.529535291875e-06 1.267582633286e-03 0.0 
0.0 0.0 -1.921134732322e-04 
-4.839148529355e-05 3.269211206116e-05 0.0 
3.269211206116e-05 2.885062742471e-04 0.0 
0.0 0.0 -4.811778726964e-05 
-1.084239785972e-04 8.299246254447e-06 0.0 
8.299246254447e-06 6.943716908755e-04 0.0 
0.0 0.0 -1.102508860907e-04 
-1.837583847109e-04 -1.472486193336e-05 0.0 
-1.472486193336e-05 1.244009219740e-03 0.0 
0.0 0.0 -1.819287770889e-04 
-4.809827435414e-05 -2.856413507896e-05 0.0 
-2.856413507896e-05 2.876955400614e-04 0.0 
0.0 0.0 -4.797639238285e-05 
-2.674214069172e-05 -6.567095403776e-07 0.0 
-6.567095403776e-07 1.170205921082e-04 0.0 
0.0 0.0 -2.746289347828e-05 
-1.830752196458e-04 9.475420572823e-06 0.0 
9.475420572823e-06 1.215993436390e-03 0.0 
0.0 0.0 -1.852115035180e-04 
-1.474418981779e-05 6.875922652760e-07 0.0 
6.875922652760e-07 4.915161551588e-05 0.0 
0.0 0.0 -1.474603958490e-05 
-1.203307146343e-04 -2.717995598574e-05 0.0 
-2.717995598574e-05 8.158947777103e-04 0.0 
0.0 0.0 -1.234415444935e-04 
-8.234981639965e-05 -1.699589320995e-05 0.0 
-1.699589320995e-05 5.359221535030e-04 0.0 
0.0 0.0 -8.161374715243e-05 
-5.082688459540e-05 -1.056431694294e-05 0.0 
-1.056431694294e-05 3.372053744103e-04 0.0 
0.0 0.0 -5.165715595373e-05 
-4.611236241503e-05 -2.201694224577e-05 0.0 
-2.201694224577e-05 2.721561722188e-04 0.0 
0.0 0.0 -4.571843846580e-05 
-8.132390918315e-05 1.940323008173e-05 0.0 
1.940323008173e-05 5.127711064819e-04 0.0 
0.0 0.0 -8.234191315183e-05 
-1.899869588384e-04 -1.183985275253e-06 0.0 
-1.183985275253e-06 1.270300843848e-03 0.0 
0.0 0.0 -1.923283752319e-04 
-6.895815039131e-05 -2.178280864622e-05 0.0 
-2.178280864622e-05 4.406253786073e-04 0.0 
0.0 0.0 -6.768350264862e-05 
-5.417817485919e-05 2.166263208896e-05 0.0 
2.166263208896e-05 3.190902094138e-04 0.0 
0.0 0.0 -5.541318120416e-05 
-1.632126763507e-04 2.740636426442e-05 0.0 
2.740636426442e-05 1.093574435161e-03 0.0 
0.0 0.0 -1.631601065255e-04 
-3.323583887555e-05 3.269521201795e-06 0.0 
3.269521201795e-06 2.033859620122e-04 0.0 
0.0 0.0 -3.284525368658e-05 
-1.937347679597e-04 -3.087303565399e-05 0.0 
-3.087303565399e-05 1.295743109935e-03 0.0 
0.0 0.0 -1.927980053726e-04 
-1.410948374280e-05 -1.895108414919e-05 0.0 
-1.895108414919e-05 7.768302090073e-05 0.0 
0.0 0.0 -1.429900283189e-05 
-1.810662248895e-04 3.422591082853e-05 0.0 
3.422591082853e-05 1.214874210850e-03 0.0 
0.0 0.0 -1.816237070315e-04 
-8.260879868620e-05 3.395540134069e-05 0.0 
3.395540134069e-05 5.200982356105e-04 0.0 
0.0 0.0 -8.245627511043e-05 
-3.949603130373e-05 1.817463478044e-05 0.0 
1.817463478044e-05 2.392386227040e-04 0.0 
0.0 0.0 -4.154126471103e-05 
-1.880584302466e-04 -2.737021915549e-05 0.0 
-2.737021915549e-05 1.269816799986e-03 0.0 
0.0 0.0 -1.886217783130e-04 
-7.828481688491e-05 1.568948501134e-05 0.0 
1.568948501134e-05 4.753725480920e-04 0.0 
0.0 0.0 -7.706359040663e-05 
-9.040619779534e-06 6.808328067989e-06 0.0 
6.808328067989e-06 3.080905476409e-05 0.0 
0.0 0.0 -9.329329279096e-06 
-1.897461617520e-04 -1.190223513879e-05 0.0 
-1.190223513879e-05 1.300793159363e-03 0.0 
0.0 0.0 -1.892491279630e-04 
-3.670459678346e-05 -3.155058415611e-05 0.0 
-3.155058415611e-05 2.097964586862e-04 0.0 
0.0 0.0 -3.606465181366e-05 
-1.910292024481e-04 -5.680018839651e-07 0.0 
-5.680018839651e-07 1.267292748539e-03 0.0 
0.0 0.0 -1.923564682915e-04 
-1.423720417950e-04 -2.542418638308e-05 0.0 
-2.542418638308e-05 9.582298228247e-04 0.0 
0.0 0.0 -1.433443585977e-04 
-2.007748921200e-04 -7.173616599770e-07 0.0 
-7.173616599770e-07 1.325499155450e-03 0.0 
0.0 0.0 -2.007748921200e-04 
-1.856237250837e-04 2.519587703743e-07 0.0 
2.519587703743e-07 1.217908679066e-03 0.0 
0.0 0.0 -1.849363666885e-04 
-1.959401746035e-05 3.302488870378e-05 0.0 
3.302488870378e-05 8.419396161668e-05 0.0 
0.0 0.0 -1.942930455437e-05 
-7.294356160709e-05 2.278666566635e-05 0.0 
2.278666566635e-05 4.423978020253e-04 0.0 
0.0 0.0 -7.166057984914e-05 
-1.881200936435e-04 -2.597496456892e-05 0.0 
-2.597496456892e-05 1.274260032451e-03 0.0 
0.0 0.0 -1.893940471826e-04 
-1.918449780582e-04 -8.194598920859e-07 0.0 
-8.194598920859e-07 1.307445909733e-03 0.0 
0.0 0.0 -1.898028072996e-04 
-3.750417093390e-05 -2.856125910662e-05 0.0 
-2.856125910662e-05 2.170807613547e-04 0.0 
0.0 0.0 -3.765846754783e-05 
-3.201050297440e-05 -1.804321051782e-06 0.0 
-1.804321051782e-06 1.678376622842e-04 0.0 
0.0 0.0 -3.550136840268e-05 
-3.928328821311e-05 3.001435520315e-05 0.0 
3.001435520315e-05 2.151736419894e-04 0.0 
0.0 0.0 -3.788339401932e-05 
-3.841727809162e-05 3.259876760906e-05 0.0 
3.259876760906e-05 1.973706613177e-04 0.0 
0.0 0.0 -3.659988700710e-05 
-1.163465053479e-04 4.799891796781e-06 0.0 
4.799891796781e-06 7.474963377636e-04 0.0 
0.0 0.0 -1.187754596314e-04 
-7.387818471422e-05 -1.490180971543e-05 0.0 
-1.490180971543e-05 4.683625195835e-04 0.0 
0.0 0.0 -7.124103466145e-05 
-6.818690854033e-05 3.229042439658e-06 0.0 
3.229042439658e-06 3.926939187943e-04 0.0 
0.0 0.0 -6.657494268075e-05 
-1.280956191016e-04 -3.699964442022e-05 0.0 
-3.699964442022e-05 8.260012594816e-04 0.0 
0.0 0.0 -1.250515658111e-04 
-1.265295814047e-04 3.342378051017e-05 0.0 
3.342378051017e-05 8.211688879782e-04 0.0 
0.0 0.0 -1.253711530225e-04 
-1.484422711167e-04 -2.770915871896e-05 0.0 
-2.770915871896e-05 9.841615042540e-04 0.0 
0.0 0.0 -1.480066387926e-04 
-1.583372546511e-04 2.913712885410e-05 0.0 
2.913712885410e-05 1.064432221446e-03 0.0 
0.0 0.0 -1.587865244471e-04 
-1.631334298294e-04 -3.149814825206e-05 0.0 
-3.149814825206e-05 1.098864964118e-03 0.0 
0.0 0.0 -1.628912057404e-04 
-1.190806096983e-04 -4.403551421918e-05 0.0 
-4.403551421918e-05 7.749316267703e-04 0.0 
0.0 0.0 -1.197484453225e-04 
-1.483799586843e-05 5.558978623438e-06 0.0 
5.558978623438e-06 4.973861707578e-05 0.0 
0.0 0.0 -1.495740908886e-05 
-1.182760976271e-04 3.125415357905e-06 0.0 
3.125415357905e-06 7.592172627745e-04 0.0 
0.0 0.0 -1.189347521933e-04 
-1.620624140011e-04 -1.653046323385e-05 0.0 
-1.653046323385e-05 1.054965702531e-03 0.0 
0.0 0.0 -1.604158976160e-04 
-1.568829102868e-04 1.686722308074e-05 0.0 
1.686722308074e-05 1.064364903998e-03 0.0 
0.0 0.0 -1.569671113975e-04 
-1.992656462665e-04 -3.194664877417e-06 0.0 
-3.194664877417e-06 1.366255928620e-03 0.0 
0.0 0.0 -1.979956382108e-04 
-1.950636109885e-04 -2.233519301319e-05 0.0 
-2.233519301319e-05 1.308516150632e-03 0.0 
0.0 0.0 -1.941292444173e-04 
-1.156817175628e-04 -1.648055008373e-05 0.0 
-1.648055008373e-05 7.482785284577e-04 0.0 
0.0 0.0 -1.183461849553e-04 
-1.927191275468e-04 -2.508365562689e-07 0.0 
-2.508365562689e-07 1.307929168688e-03 0.0 
0.0 0.0 -1.894775870554e-04 
-1.342251932282e-04 -2.319392894316e-05 0.0 
-2.319392894316e-05 8.854475909505e-04 0.0 
0.0 0.0 -1.356001284572e-04 
-7.729101182484e-05 -2.065735051107e-05 0.0 
-2.065735051107e-05 5.080668279858e-04 0.0 
0.0 0.0 -7.798198501994e-05 
-1.130620333788e-04 -2.717181399575e-05 0.0 
-2.717181399575e-05 7.549273825549e-04 0.0 
0.0 0.0 -1.146493908758e-04 
-1.950077973870e-04 2.900722902877e-05 0.0 
2.900722902877e-05 1.296464444951e-03 0.0 
0.0 0.0 -1.931276724533e-04 
-1.563208394466e-04 -3.328202351934e-05 0.0 
-3.328202351934e-05 1.049294579874e-03 0.0 
0.0 0.0 -1.565627933380e-04 
-1.819468009343e-04 -3.224668000663e-05 0.0 
-3.224668000663e-05 1.222740499621e-03 0.0 
0.0 0.0 -1.814398861444e-04 
-7.158014488702e-05 -3.063000169944e-05 0.0 
-3.063000169944e-05 4.571234338187e-04 0.0 
0.0 0.0 -7.121314524778e-05 
-2.401359942616e-05 8.661927370116e-06 0.0 
8.661927370116e-06 1.537990966386e-04 0.0 
0.0 0.0 -2.437345913330e-05 
-1.778980369956e-04 -2.992010737325e-05 0.0 
-2.992010737325e-05 1.196087071121e-03 0.0 
0.0 0.0 -1.784854310292e-04 
-1.679646052206e-04 1.093794452522e-05 0.0 
1.093794452522e-05 1.134281409959e-03 0.0 
0.0 0.0 -1.663185871606e-04 
-1.591223534516e-05 -6.661850777305e-06 0.0 
-6.661850777305e-06 9.101730959340e-05 0.0 
0.0 0.0 -1.557197371984e-05 
-1.881889712418e-04 -1.290050336167e-05 0.0 
-1.290050336167e-05 1.273792918307e-03 0.0 
0.0 0.0 -1.927691970005e-04 
-1.581915922847e-04 2.746019073347e-05 0.0 
2.746019073347e-05 1.044290574645e-03 0.0 
0.0 0.0 -1.577237574333e-04 
-1.522398741045e-05 -2.545037373997e-05 0.0 
-2.545037373997e-05 5.739303510054e-05 0.0 
0.0 0.0 -1.520280724627e-05 
-9.452563605332e-05 3.135471664961e-05 0.0 
3.135471664961e-05 6.036525676249e-04 0.0 
0.0 0.0 -9.464897897786e-05 
-1.065966120753e-04 -2.205603569538e-05 0.0 
-2.205603569538e-05 7.064327249630e-04 0.0 
0.0 0.0 -1.073087759210e-04 
-8.739882265024e-05 -1.070352948316e-05 0.0 
-1.070352948316e-05 5.348438843142e-04 0.0 
0.0 0.0 -8.658563305536e-05 
-7.050193455009e-05 2.512487401893e-05 0.0 
2.512487401893e-05 4.479548223167e-04 0.0 
0.0 0.0 -7.278598402964e-05 
-8.197347761458e-05 -3.364821245799e-05 0.0 
-3.364821245799e-05 5.279356728588e-04 0.0 
0.0 0.0 -8.207734578087e-05 
-1.943526740554e-04 1.658812663972e-05 0.0 
1.658812663972e-05 1.282091895606e-03 0.0 
0.0 0.0 -1.925749600208e-04 
-1.285507174143e-04 2.792411837159e-05 0.0 
2.792411837159e-05 8.722892326704e-04 0.0 
0.0 0.0 -1.315046391038e-04 
-7.635084208109e-05 3.539223257155e-05 0.0 
3.539223257155e-05 4.849768366675e-04 0.0 
0.0 0.0 -7.683710038160e-05 
-3.602345366775e-05 -3.490773875451e-05 0.0 
-3.490773875451e-05 2.028232612913e-04 0.0 
0.0 0.0 -3.442901837107e-05 
-1.143531422852e-04 1.924554056095e-05 0.0 
1.924554056095e-05 7.838716458168e-04 0.0 
0.0 0.0 -1.161738141813e-04 
-1.655806278350e-04 -1.376876940895e-05 0.0 
-1.376876940895e-05 1.108151184003e-03 0.0 
0.0 0.0 -1.693933130199e-04 
-7.665289294717e-05 -3.764080062832e-05 0.0 
-3.764080062832e-05 4.894086693533e-04 0.0 
0.0 0.0 -7.664586338968e-05 
-2.552121638192e-05 -2.302083249112e-05 0.0 
-2.302083249112e-05 1.475281213149e-04 0.0 
0.0 0.0 -2.705574766418e-05 
-9.705129782474e-05 -2.284636133005e-05 0.0 
-2.284636133005e-05 6.381494146743e-04 0.0 
0.0 0.0 -9.705601970096e-05 
-8.718862749644e-05 1.081562517566e-05 0.0 
1.081562517566e-05 5.609465076163e-04 0.0 
0.0 0.0 -8.368277571756e-05 
-9.188005610208e-05 2.337172912127e-05 0.0 
2.337172912127e-05 5.885957333175e-04 0.0 
0.0 0.0 -9.250784895245e-05 
-1.937480155634e-04 2.484993040014e-05 0.0 
2.484993040014e-05 1.298240083639e-03 0.0 
0.0 0.0 -1.936007957173e-04 
-3.355945300028e-05 2.658456895858e-05 0.0 
2.658456895858e-05 1.727565400742e-04 0.0 
0.0 0.0 -3.138407094312e-05 
-1.371246585787e-04 2.526301025991e-05 0.0 
2.526301025991e-05 9.050145966039e-04 0.0 
0.0 0.0 -1.382526569903e-04 
-1.907913629677e-04 3.443386103192e-05 0.0 
3.443386103192e-05 1.270684136511e-03 0.0 
0.0 0.0 -1.885035411211e-04 
-9.913884905617e-05 2.644976598077e-05 0.0 
2.644976598077e-05 6.359580153606e-04 0.0 
0.0 0.0 -9.883099357817e-05 
-9.221379330775e-05 -2.325684599943e-05 0.0 
-2.325684599943e-05 6.043674081660e-04 0.0 
0.0 0.0 -9.208844699642e-05 
-1.862615746056e-04 3.781096829900e-05 0.0 
3.781096829900e-05 1.269973218665e-03 0.0 
0.0 0.0 -1.882446207449e-04 
-1.884096905909e-04 -3.934674872020e-05 0.0 
-3.934674872020e-05 1.273205454370e-03 0.0 
0.0 0.0 -1.891606461478e-04 
-1.485481393432e-04 2.662002390059e-05 0.0 
2.662002390059e-05 9.835102888330e-04 0.0 
0.0 0.0 -1.481056985806e-04 
-1.041353074706e-04 -2.625300288913e-05 0.0 
-2.625300288913e-05 6.829723859406e-04 0.0 
0.0 0.0 -1.037420806291e-04 
-1.908037455824e-04 1.095423421666e-05 0.0 
1.095423421666e-05 1.307953283663e-03 0.0 
0.0 0.0 -1.905495916442e-04 
-9.518883604242e-05 2.687623025881e-05 0.0 
2.687623025881e-05 6.089232024020e-04 0.0 
0.0 0.0 -9.489072104906e-05 
-1.881130056819e-04 -1.198635265848e-06 0.0 
-1.198635265848e-06 1.269458159220e-03 0.0 
0.0 0.0 -1.924761743472e-04 
-1.914420449492e-04 1.145005922615e-05 0.0 
1.145005922615e-05 1.305589104302e-03 0.0 
0.0 0.0 -1.901156060054e-04 
-1.284773038693e-04 -4.042952323759e-05 0.0 
-4.042952323759e-05 8.353342118354e-04 0.0 
0.0 0.0 -1.281556075638e-04 
-1.456984047061e-04 2.919513868125e-05 0.0 
2.919513868125e-05 9.798728505287e-04 0.0 
0.0 0.0 -1.472674707441e-04 
-9.472925069399e-05 -2.740497223510e-05 0.0 
-2.740497223510e-05 6.169641832868e-04 0.0 
0.0 0.0 -9.439783777044e-05 
-8.853676466141e-05 2.434547469191e-05 0.0 
2.434547469191e-05 5.534202716498e-04 0.0 
0.0 0.0 -8.745362067080e-05 
-1.087467394465e-04 2.713932785839e-05 0.0 
2.713932785839e-05 7.009636801692e-04 0.0 
0.0 0.0 -1.081789848988e-04 
-8.105832168209e-05 -2.534314576398e-05 0.0 
-2.534314576398e-05 5.269671489274e-04 0.0 
0.0 0.0 -8.074562716359e-05 
-1.149166540237e-04 -2.952745104752e-05 0.0 
-2.952745104752e-05 7.749980976508e-04 0.0 
0.0 0.0 -1.154098978710e-04 
-9.441274236993e-05 -3.245636207382e-05 0.0 
-3.245636207382e-05 6.148929569629e-04 0.0 
0.0 0.0 -9.412559131899e-05 
-1.356916071786e-05 -1.098912209053e-05 0.0 
-1.098912209053e-05 4.639558825144e-05 0.0 
0.0 0.0 -1.406846894296e-05 
-1.232833288672e-04 -2.043397575373e-06 0.0 
-2.043397575373e-06 8.352777480186e-04 0.0 
0.0 0.0 -1.225661908866e-04 
-4.062993237950e-05 4.703139556520e-07 0.0 
4.703139556520e-07 1.797601039323e-04 0.0 
0.0 0.0 -3.559753881786e-05 
-1.023820434635e-04 -2.308417346528e-05 0.0 
-2.308417346528e-05 6.740366547045e-04 0.0 
0.0 0.0 -1.021452596768e-04 
-1.900125356384e-04 6.300222620786e-07 0.0 
6.300222620786e-07 1.270960970669e-03 0.0 
0.0 0.0 -1.927194217641e-04 
-7.262888074723e-05 3.426557852476e-05 0.0 
3.426557852476e-05 4.504323440592e-04 0.0 
0.0 0.0 -7.151989320621e-05 
-1.531305076902e-04 3.065990782185e-05 0.0 
3.065990782185e-05 1.022734797488e-03 0.0 
0.0 0.0 -1.531634582904e-04 
-5.235610672335e-05 -3.331315410991e-05 0.0 
-3.331315410991e-05 3.222309724492e-04 0.0 
0.0 0.0 -5.311113487535e-05 
-1.564923507781e-04 3.552239921985e-05 0.0 
3.552239921985e-05 1.043761629599e-03 0.0 
0.0 0.0 -1.567358392781e-04 
-1.202044561882e-04 9.584736121846e-07 0.0 
9.584736121846e-07 7.504029993438e-04 0.0 
0.0 0.0 -1.184948324117e-04 
-8.921525541755e-05 3.121884924231e-05 0.0 
3.121884924231e-05 5.680733164514e-04 0.0 
0.0 0.0 -8.897195087526e-05 
-1.682691344288e-04 -3.239527776225e-05 0.0 
-3.239527776225e-05 1.126335943431e-03 0.0 
0.0 0.0 -1.681445358648e-04 
-3.271371250102e-05 2.634768306306e-05 0.0 
2.634768306306e-05 1.862670599746e-04 0.0 
0.0 0.0 -3.519564525945e-05 
-1.767977369675e-04 3.301165039377e-05 0.0 
3.301165039377e-05 1.194421621902e-03 0.0 
0.0 0.0 -1.783666864750e-04 
-1.165583599501e-04 2.698564820255e-05 0.0 
2.698564820255e-05 7.555372528015e-04 0.0 
0.0 0.0 -1.156683593961e-04 
-1.920096128522e-04 1.937461849935e-06 0.0 
1.937461849935e-06 1.307268561636e-03 0.0 
0.0 0.0 -1.898980813789e-04 
-1.182997139398e-04 3.639957619216e-06 0.0 
3.639957619216e-06 7.503854203479e-04 0.0 
0.0 0.0 -1.176390761550e-04 
-7.627591541802e-05 2.437079023937e-05 0.0 
2.437079023937e-05 4.698282448248e-04 0.0 
0.0 0.0 -7.564233511891e-05 
-1.002018332227e-04 2.315121058164e-05 0.0 
2.315121058164e-05 6.584644118649e-04 0.0 
0.0 0.0 -1.026119933064e-04 
-1.351190133783e-04 -1.871259961356e-05 0.0 
-1.871259961356e-05 8.920173210254e-04 0.0 
0.0 0.0 -1.308423732783e-04 
-5.484982403945e-05 3.705256781827e-05 0.0 
3.705256781827e-05 3.376111435306e-04 0.0 
0.0 0.0 -5.271897186252e-05 
-8.886891279122e-05 -3.169931078017e-05 0.0 
-3.169931078017e-05 5.765392386080e-04 0.0 
0.0 0.0 -8.867183110647e-05 
-1.531566637255e-04 -3.479285376154e-05 0.0 
-3.479285376154e-05 1.020094408152e-03 0.0 
0.0 0.0 -1.524697723262e-04 
-1.174942329115e-04 2.313759384433e-05 0.0 
2.313759384433e-05 7.831828593042e-04 0.0 
0.0 0.0 -1.152003355451e-04 
-8.515004989233e-05 2.567844413580e-05 0.0 
2.567844413580e-05 5.346133759294e-04 0.0 
0.0 0.0 -8.499340168425e-05 
-9.805234325585e-05 2.186136341024e-05 0.0 
2.186136341024e-05 6.234712022513e-04 0.0 
0.0 0.0 -9.747820142233e-05 
-1.698406473465e-04 3.103883884451e-05 0.0 
3.103883884451e-05 1.138199375279e-03 0.0 
0.0 0.0 -1.705088282513e-04 
-9.365555901584e-05 -8.486079120948e-06 0.0 
-8.486079120948e-06 6.269873305719e-04 0.0 
0.0 0.0 -9.283786084866e-05 
-1.904373484596e-04 8.037764301143e-06 0.0 
8.037764301143e-06 1.268105410096e-03 0.0 
0.0 0.0 -1.927803298305e-04 
-1.910376123415e-04 -5.171508508336e-06 0.0 
-5.171508508336e-06 1.305994090806e-03 0.0 
0.0 0.0 -1.898229354431e-04 
-6.861783798480e-05 -2.050379203895e-05 0.0 
-2.050379203895e-05 4.453059741638e-04 0.0 
0.0 0.0 -6.893569546425e-05 
-9.290116882094e-05 1.078568075346e-05 0.0 
1.078568075346e-05 5.964552685483e-04 0.0 
0.0 0.0 -9.578111177017e-05 
-1.736492418864e-04 -2.927710979079e-05 0.0 
-2.927710979079e-05 1.161594644870e-03 0.0 
0.0 0.0 -1.729233712160e-04 
-9.087963058823e-05 -2.352933739376e-05 0.0 
-2.352933739376e-05 5.915224073559e-04 0.0 
0.0 0.0 -9.055885391067e-05 
-6.615167518160e-05 2.470417535513e-05 0.0 
2.470417535513e-05 3.792937580834e-04 0.0 
0.0 0.0 -6.377619522508e-05 
-1.123815242548e-04 2.659716101140e-05 0.0 
2.659716101140e-05 7.274681183303e-04 0.0 
0.0 0.0 -1.116514617188e-04 
-9.023769363097e-05 -2.539356064248e-05 0.0 
-2.539356064248e-05 5.927749569100e-04 0.0 
0.0 0.0 -9.016780033359e-05 
-1.933145694824e-04 1.847750118737e-05 0.0 
1.847750118737e-05 1.271781840963e-03 0.0 
0.0 0.0 -1.918589861752e-04 
-1.590817006198e-04 2.907513750142e-05 0.0 
2.907513750142e-05 1.054056791896e-03 0.0 
0.0 0.0 -1.591037845145e-04 
-1.728367159342e-04 3.427642614804e-05 0.0 
3.427642614804e-05 1.161809866144e-03 0.0 
0.0 0.0 -1.733952315365e-04 
-4.323292157822e-05 -3.260265136202e-05 0.0 
-3.260265136202e-05 2.542139140644e-04 0.0 
0.0 0.0 -4.278232070249e-05 
-8.351564551766e-05 -2.949984641989e-05 0.0 
-2.949984641989e-05 5.399072445252e-04 0.0 
0.0 0.0 -8.337503372822e-05 
-1.628911585660e-04 2.910920340207e-05 0.0 
2.910920340207e-05 1.083707985150e-03 0.0 
0.0 0.0 -1.634180649126e-04 
-4.265741739718e-06 -2.683347671446e-06 0.0 
-2.683347671446e-06 2.779779537552e-05 0.0 
0.0 0.0 -6.679583525061e-06 
-9.202938689146e-05 2.333037747325e-05 0.0 
2.333037747325e-05 5.833864669440e-04 0.0 
0.0 0.0 -9.110806911972e-05 
-1.621301817421e-04 -3.474681827654e-05 0.0 
-3.474681827654e-05 1.087399984763e-03 0.0 
0.0 0.0 -1.621013318865e-04 
-2.647246740284e-05 -1.232636837565e-05 0.0 
-1.232636837565e-05 1.529325955368e-04 0.0 
0.0 0.0 -2.408412600064e-05 
-1.857893834714e-04 3.531775714936e-05 0.0 
3.531775714936e-05 1.270668189248e-03 0.0 
0.0 0.0 -1.886276279175e-04 
-1.456981155765e-04 2.919485646583e-05 0.0 
2.919485646583e-05 9.663206150300e-04 0.0 
0.0 0.0 -1.462443664659e-04 
-8.972960447932e-05 2.818607173368e-05 0.0 
2.818607173368e-05 5.719993527864e-04 0.0 
0.0 0.0 -8.992835211633e-05 
-1.626522217749e-04 3.588322308841e-05 0.0 
3.588322308841e-05 1.081933053943e-03 0.0 
0.0 0.0 -1.623203359564e-04 
-1.232850647809e-04 -1.534283618420e-06 0.0 
-1.534283618420e-06 8.439287432935e-04 0.0 
0.0 0.0 -1.238984763055e-04 
-1.290139728958e-04 -2.422323726664e-05 0.0 
-2.422323726664e-05 8.899156396031e-04 0.0 
0.0 0.0 -1.325791391267e-04 
-1.852665524105e-04 -2.134628668879e-05 0.0 
-2.134628668879e-05 1.242411010167e-03 0.0 
0.0 0.0 -1.856686537505e-04 
-6.834313658287e-05 3.054631191321e-05 0.0 
3.054631191321e-05 4.235028941011e-04 0.0 
0.0 0.0 -6.875374652758e-05 
-1.126229297884e-04 2.780829538386e-05 0.0 
2.780829538386e-05 7.291444854309e-04 0.0 
0.0 0.0 -1.122060228641e-04 
-1.204186006984e-04 2.647313116222e-05 0.0 
2.647313116222e-05 7.832880835705e-04 0.0 
0.0 0.0 -1.198259951250e-04 
-1.511295492835e-04 -2.883504033183e-05 0.0 
-2.883504033183e-05 1.013855965193e-03 0.0 
0.0 0.0 -1.512823234748e-04 
-1.216859479991e-04 -2.731241821125e-05 0.0 
-2.731241821125e-05 8.002184542220e-04 0.0 
0.0 0.0 -1.205399881000e-04 
-1.113723575775e-04 -2.417926787298e-05 0.0 
-2.417926787298e-05 7.331871425551e-04 0.0 
0.0 0.0 -1.112326624099e-04 
-1.413007434337e-04 -2.970279854823e-05 0.0 
-2.970279854823e-05 9.413829080689e-04 0.0 
0.0 0.0 -1.412146911137e-04 
-1.660148486685e-04 -3.109368411777e-05 0.0 
-3.109368411777e-05 1.112677337996e-03 0.0 
0.0 0.0 -1.657666289772e-04 
-1.315732548335e-05 -7.692520452240e-07 0.0 
-7.692520452240e-07 8.434115995763e-05 0.0 
0.0 0.0 -1.523807105164e-05 
-6.678617265699e-05 1.617781589415e-05 0.0 
1.617781589415e-05 4.361919367653e-04 0.0 
0.0 0.0 -6.974636312929e-05 
-7.951724172922e-05 2.782935041198e-05 0.0 
2.782935041198e-05 4.935008951510e-04 0.0 
0.0 0.0 -7.874092309440e-05 
-1.082260438161e-04 -2.691428867534e-05 0.0 
-2.691428867534e-05 7.109857938248e-04 0.0 
0.0 0.0 -1.077256579858e-04 
-1.642964652876e-04 -3.148986033885e-05 0.0 
-3.148986033885e-05 1.105967087523e-03 0.0 
0.0 0.0 -1.642614415327e-04 
-3.618362754970e-05 2.736407007723e-05 0.0 
2.736407007723e-05 2.086903937200e-04 0.0 
0.0 0.0 -3.864713111506e-05 
-1.564000420693e-04 -3.317492622528e-05 0.0 
-3.317492622528e-05 1.048657376479e-03 0.0 
0.0 0.0 -1.565033163265e-04 
-1.156497145505e-04 -3.516789011310e-05 0.0 
-3.516789011310e-05 7.502047125979e-04 0.0 
0.0 0.0 -1.164502435431e-04 
-8.397727272476e-05 2.946324581154e-05 0.0 
2.946324581154e-05 5.318825966419e-04 0.0 
0.0 0.0 -8.365175887955e-05 
-1.508856871714e-04 -3.154693635550e-05 0.0 
-3.154693635550e-05 1.010987541511e-03 0.0 
0.0 0.0 -1.509358467712e-04 
-1.992206068345e-05 -2.889614730951e-05 0.0 
-2.889614730951e-05 8.287217049266e-05 0.0 
0.0 0.0 -1.875953185269e-05 
-1.556622730397e-04 3.038739624462e-05 0.0 
3.038739624462e-05 1.034138176467e-03 0.0 
0.0 0.0 -1.560016362795e-04 
-1.437982534633e-05 1.029442077582e-05 0.0 
1.029442077582e-05 7.970629733058e-05 0.0 
0.0 0.0 -1.510781838351e-05 
-2.570586355009e-05 -7.991098502523e-07 0.0 
-7.991098502523e-07 1.127575880689e-04 0.0 
0.0 0.0 -2.729127776400e-05 
-4.194184282385e-05 3.474848126707e-05 0.0 
3.474848126707e-05 2.513992056333e-04 0.0 
0.0 0.0 -4.310499224862e-05 
-5.889908142508e-05 2.600142430583e-05 0.0 
2.600142430583e-05 3.528829077978e-04 0.0 
0.0 0.0 -5.903933595174e-05 
-1.610257286591e-04 -2.786541686928e-05 0.0 
-2.786541686928e-05 1.081190214243e-03 0.0 
0.0 0.0 -1.610696234640e-04 
-5.476704679840e-05 -2.893258819142e-05 0.0 
-2.893258819142e-05 3.440414388131e-04 0.0 
0.0 0.0 -5.456393079061e-05 
-5.163315478531e-05 2.647496963403e-05 0.0 
2.647496963403e-05 3.049271572106e-04 0.0 
0.0 0.0 -5.149248157812e-05 
-4.366093994894e-05 -2.713962390303e-05 0.0 
-2.713962390303e-05 2.644614859736e-04 0.0 
0.0 0.0 -4.384065419509e-05 
-3.933534437072e-05 2.838910031743e-05 0.0 
2.838910031743e-05 2.172478170370e-04 0.0 
0.0 0.0 -3.921473890832e-05 
-1.680595828810e-04 2.995288676004e-05 0.0 
2.995288676004e-05 1.117099767863e-03 0.0 
0.0 0.0 -1.676286260939e-04 
-1.157691997288e-04 -2.821559363196e-05 0.0 
-2.821559363196e-05 7.614917365493e-04 0.0 
0.0 0.0 -1.153195849472e-04 
-1.884304056946e-04 3.717790371758e-05 0.0 
3.717790371758e-05 1.273139237753e-03 0.0 
0.0 0.0 -1.885115422441e-04 
0.0 0.0 0.0 
0.0 0.0 0.0 
0.0 0.0 0.0 
-6.073075435371e-05 2.779578447063e-05 0.0 
2.779578447063e-05 3.692130858621e-04 0.0 
0.0 0.0 -6.066067809259e-05 
-9.359168136837e-05 3.069541767913e-05 0.0 
3.069541767913e-05 5.989493619825e-04 0.0 
0.0 0.0 -9.346360670616e-05 
-8.611303417377e-05 2.775473971904e-05 0.0 
2.775473971904e-05 5.420210967722e-04 0.0 
0.0 0.0 -8.564096664159e-05 
-1.570602199792e-04 3.345705989991e-05 0.0 
3.345705989991e-05 1.042425010846e-03 0.0 
0.0 0.0 -1.567852636697e-04 
-1.928100163882e-04 2.936217438128e-05 0.0 
2.936217438128e-05 1.304792838197e-03 0.0 
0.0 0.0 -1.913896484052e-04 
-1.544569729700e-04 -3.084214855682e-05 0.0 
-3.084214855682e-05 1.037077783695e-03 0.0 
0.0 0.0 -1.544248659763e-04 
-6.869349223690e-05 -2.826326061375e-05 0.0 
-2.826326061375e-05 4.368318291179e-04 0.0 
0.0 0.0 -6.847262230322e-05 
-1.681247358756e-04 -2.868522419727e-05 0.0 
-2.868522419727e-05 1.120151786447e-03 0.0 
0.0 0.0 -1.674250338637e-04 
-1.435900585209e-04 3.856895931237e-05 0.0 
3.856895931237e-05 9.474561629382e-04 0.0 
0.0 0.0 -1.426866023873e-04 
-1.135532837026e-04 -2.681444128085e-05 0.0 
-2.681444128085e-05 7.480946909015e-04 0.0 
0.0 0.0 -1.130562566545e-04 
-1.499249798733e-04 3.067572505939e-05 0.0 
3.067572505939e-05 9.944265321611e-04 0.0 
0.0 0.0 -1.504800801517e-04 
-1.863757598195e-04 -2.386849214221e-05 0.0 
-2.386849214221e-05 1.244147855382e-03 0.0 
0.0 0.0 -1.859596318053e-04 
-9.333492539951e-05 -3.087526947971e-05 0.0 
-3.087526947971e-05 6.086612624671e-04 0.0 
0.0 0.0 -9.309312152870e-05 
-5.642363476155e-05 -2.566826805163e-05 0.0 
-2.566826805163e-05 3.519070743608e-04 0.0 
0.0 0.0 -5.629031366394e-05 
-1.307741012141e-04 -2.854605187792e-05 0.0 
-2.854605187792e-05 8.651184174892e-04 0.0 
0.0 0.0 -1.299393276493e-04 
-1.994711361555e-04 1.488956192184e-05 0.0 
1.488956192184e-05 1.364194760264e-03 0.0 
0.0 0.0 -1.985353088532e-04 
-1.121064498204e-04 -2.817436375982e-05 0.0 
-2.817436375982e-05 7.383690860162e-04 0.0 
0.0 0.0 -1.117990549081e-04 
-1.167106519063e-04 -2.872381374577e-05 0.0 
-2.872381374577e-05 7.713662195201e-04 0.0 
0.0 0.0 -1.165266455158e-04 
-1.260578035270e-04 -7.836042946561e-06 0.0 
-7.836042946561e-06 8.498512038137e-04 0.0 
0.0 0.0 -1.244042047770e-04 
-3.179935585513e-05 -1.763042363236e-05 0.0 
-1.763042363236e-05 1.961286519246e-04 0.0 
0.0 0.0 -3.241712222852e-05 
-1.231319864475e-04 2.764700743790e-05 0.0 
2.764700743790e-05 7.907293750341e-04 0.0 
0.0 0.0 -1.209084558732e-04 
-6.905505917890e-05 2.816961621887e-05 0.0 
2.816961621887e-05 4.271679056782e-04 0.0 
0.0 0.0 -6.885887611378e-05 
-4.897721551762e-05 2.632054484457e-05 0.0 
2.632054484457e-05 2.838529677145e-04 0.0 
0.0 0.0 -4.844095568774e-05 
-3.558784672985e-05 -2.880146762892e-05 0.0 
-2.880146762892e-05 1.946353418351e-04 0.0 
0.0 0.0 -3.639896506568e-05 
-1.614850212427e-04 2.922041349465e-05 0.0 
2.922041349465e-05 1.072918812013e-03 0.0 
0.0 0.0 -1.613978969627e-04 
-1.255033903270e-04 -2.731668296794e-05 0.0 
-2.731668296794e-05 8.288788500150e-04 0.0 
0.0 0.0 -1.246873609535e-04 
-8.112707161296e-05 2.681454897224e-05 0.0 
2.681454897224e-05 5.130150958306e-04 0.0 
0.0 0.0 -8.144240747594e-05 
-1.665837591113e-04 -2.880422836215e-05 0.0 
-2.880422836215e-05 1.119259672453e-03 0.0 
0.0 0.0 -1.664644697516e-04 
-1.582047777180e-04 -3.130538043856e-05 0.0 
-3.130538043856e-05 1.066325272985e-03 0.0 
0.0 0.0 -1.586660261033e-04 
-1.188629648026e-04 -2.678969091403e-05 0.0 
-2.678969091403e-05 7.847225641269e-04 0.0 
0.0 0.0 -1.183057550348e-04 
-1.886854844882e-04 1.135105285806e-05 0.0 
1.135105285806e-05 1.274732412044e-03 0.0 
0.0 0.0 -1.932618152055e-04 
-1.213677155165e-04 2.897964547722e-05 0.0 
2.897964547722e-05 7.927140784185e-04 0.0 
0.0 0.0 -1.211843839911e-04 
-1.239491645660e-04 -2.748126235811e-05 0.0 
-2.748126235811e-05 8.207516205795e-04 0.0 
0.0 0.0 -1.235739794681e-04 
-9.975160353529e-05 -2.686515225488e-05 0.0 
-2.686515225488e-05 6.567392202688e-04 0.0 
0.0 0.0 -9.984714661518e-05 
-1.263578697939e-04 -2.980227527077e-05 0.0 
-2.980227527077e-05 8.380978382458e-04 0.0 
0.0 0.0 -1.261954767068e-04 
-5.849212426998e-05 2.872957228896e-05 0.0 
2.872957228896e-05 3.506208493125e-04 0.0 
0.0 0.0 -5.798711518065e-05 
-1.213481477356e-04 6.735435036876e-06 0.0 
6.735435036876e-06 7.521902963625e-04 0.0 
0.0 0.0 -1.184708735178e-04 
-9.753040931020e-05 -2.877750014671e-05 0.0 
-2.877750014671e-05 6.382612359797e-04 0.0 
0.0 0.0 -9.729539411790e-05 
-7.014498760133e-05 -2.861953507146e-05 0.0 
-2.861953507146e-05 4.491200428710e-04 0.0 
0.0 0.0 -7.021579980210e-05 
-1.548439846447e-04 2.920495201174e-05 0.0 
2.920495201174e-05 1.025468902843e-03 0.0 
0.0 0.0 -1.548477372900e-04 
-7.400239448952e-06 -4.471996282504e-06 0.0 
-4.471996282504e-06 3.348355740734e-05 0.0 
0.0 0.0 -6.737411723468e-06 
-1.269059540153e-04 -2.992426859267e-05 0.0 
-2.992426859267e-05 8.357764802867e-04 0.0 
0.0 0.0 -1.257958619361e-04 
-7.326865481566e-05 2.857374826703e-05 0.0 
2.857374826703e-05 4.565907868803e-04 0.0 
0.0 0.0 -7.305360031667e-05 
-6.016605764575e-05 -2.684908062252e-05 0.0 
-2.684908062252e-05 3.790547108985e-04 0.0 
0.0 0.0 -6.022881660267e-05 
-5.821846839884e-05 -2.774592413861e-05 0.0 
-2.774592413861e-05 3.619705275702e-04 0.0 
0.0 0.0 -5.751879909679e-05 
-1.351640918224e-04 2.730946876611e-05 0.0 
2.730946876611e-05 8.850173502736e-04 0.0 
0.0 0.0 -1.344766581215e-04 
-2.303458757806e-05 -1.756706348761e-05 0.0 
-1.756706348761e-05 1.393624808345e-04 0.0 
0.0 0.0 -2.414890389727e-05 
-8.463000670150e-05 2.743515429835e-05 0.0 
2.743515429835e-05 5.331920973471e-04 0.0 
0.0 0.0 -8.420255649138e-05 
-1.310820143303e-04 2.863495648326e-05 0.0 
2.863495648326e-05 8.604743158959e-04 0.0 
0.0 0.0 -1.309020407989e-04 
-1.263625231525e-04 2.714069752448e-05 0.0 
2.714069752448e-05 8.190547291893e-04 0.0 
0.0 0.0 -1.250525794797e-04 
-1.272471088817e-04 -3.855000510512e-06 0.0 
-3.855000510512e-06 8.469629814487e-04 0.0 
0.0 0.0 -1.245153595172e-04 
-3.451533027297e-05 2.844805665229e-05 0.0 
2.844805665229e-05 1.808943530398e-04 0.0 
0.0 0.0 -3.280631478328e-05 
-7.063190463533e-05 2.939202413112e-05 0.0 
2.939202413112e-05 4.392145115516e-04 0.0 
0.0 0.0 -7.060413318996e-05 
-6.508843028441e-05 -3.043099012630e-05 0.0 
-3.043099012630e-05 4.105469834446e-04 0.0 
0.0 0.0 -6.467058191239e-05 
-7.469256331376e-05 -2.527987226695e-05 0.0 
-2.527987226695e-05 4.809368026629e-04 0.0 
0.0 0.0 -7.435558976913e-05 
-1.502309888333e-04 -3.186153307622e-05 0.0 
-3.186153307622e-05 1.005619770116e-03 0.0 
0.0 0.0 -1.500995507885e-04 
-8.411103689448e-05 -2.561923504937e-05 0.0 
-2.561923504937e-05 5.446630925718e-04 0.0 
0.0 0.0 -8.366679311450e-05 
-9.244608085661e-05 2.841629283501e-05 0.0 
2.841629283501e-05 5.900259211260e-04 0.0 
0.0 0.0 -9.227309926833e-05 
-8.825859911860e-05 2.898361773724e-05 0.0 
2.898361773724e-05 5.610179827723e-04 0.0 
0.0 0.0 -8.802462077767e-05 
-4.037281909572e-05 -3.055033143304e-05 0.0 
-3.055033143304e-05 2.285588841850e-04 0.0 
0.0 0.0 -3.795074749666e-05 
-1.043807176337e-04 2.969702721876e-05 0.0 
2.969702721876e-05 6.736275783202e-04 0.0 
0.0 0.0 -1.043907376787e-04 
-4.291565100880e-05 -2.841622711530e-05 0.0 
-2.841622711530e-05 2.495146198089e-04 0.0 
0.0 0.0 -4.182373257491e-05 
-1.960133420005e-04 -3.915898958092e-07 0.0 
-3.915898958092e-07 1.365024672998e-03 0.0 
0.0 0.0 -1.982169479593e-04 
-2.008761767446e-04 -4.440775900705e-06 0.0 
-4.440775900705e-06 1.363686351067e-03 0.0 
0.0 0.0 -1.977044065024e-04 
-1.166270540496e-04 2.805525215369e-05 0.0 
2.805525215369e-05 7.581594275037e-04 0.0 
0.0 0.0 -1.163296810217e-04 
-6.377729921261e-05 2.843186062466e-05 0.0 
2.843186062466e-05 3.894200307401e-04 0.0 
0.0 0.0 -6.349477618752e-05 
-5.472494021236e-05 -2.756038478394e-05 0.0 
-2.756038478394e-05 3.420299138774e-04 0.0 
0.0 0.0 -5.489564032307e-05 
-1.286062633098e-04 2.787342346443e-05 0.0 
2.787342346443e-05 8.404326398301e-04 0.0 
0.0 0.0 -1.280878756227e-04 
-5.924292318693e-05 -2.830092874267e-05 0.0 
-2.830092874267e-05 3.712937095837e-04 0.0 
0.0 0.0 -5.895795660960e-05 
-6.498740843255e-05 2.970448360848e-05 0.0 
2.970448360848e-05 3.998906408149e-04 0.0 
0.0 0.0 -6.509812613533e-05 
-1.139448242020e-04 2.662931945144e-05 0.0 
2.662931945144e-05 7.377302601230e-04 0.0 
0.0 0.0 -1.134571731864e-04 
-1.931977199045e-04 -5.790102799525e-06 0.0 
-5.790102799525e-06 1.309642249160e-03 0.0 
0.0 0.0 -1.899960389348e-04 
-7.860743769092e-05 2.917445532478e-05 0.0 
2.917445532478e-05 4.940483609679e-04 0.0 
0.0 0.0 -7.839370437043e-05 
-1.417199735287e-04 2.941394498762e-05 0.0 
2.941394498762e-05 9.349322217144e-04 0.0 
0.0 0.0 -1.414217305113e-04 
-4.661344112576e-05 2.736880969088e-05 0.0 
2.736880969088e-05 2.670838018736e-04 0.0 
0.0 0.0 -4.614936513201e-05 
-1.967992094278e-04 1.123981941095e-06 0.0 
1.123981941095e-06 1.365295639638e-03 0.0 
0.0 0.0 -1.984294758987e-04 
-5.951651457585e-05 2.802626650619e-05 0.0 
2.802626650619e-05 3.606106616578e-04 0.0 
0.0 0.0 -5.939605362352e-05 
-1.179287062834e-04 2.787660048455e-05 0.0 
2.787660048455e-05 7.663966719587e-04 0.0 
0.0 0.0 -1.175278261142e-04 
-4.409418717161e-05 3.104234347111e-05 0.0 
3.104234347111e-05 2.441849578649e-04 0.0 
0.0 0.0 -4.282931220362e-05 
-1.381450842626e-04 2.836088824292e-05 0.0 
2.836088824292e-05 9.092073412549e-04 0.0 
0.0 0.0 -1.381743871232e-04 
-9.791138306631e-05 2.879750584179e-05 0.0 
2.879750584179e-05 6.273190453691e-04 0.0 
0.0 0.0 -9.774928945211e-05 
-6.965606683394e-05 2.867246728631e-05 0.0 
2.867246728631e-05 4.309923865951e-04 0.0 
0.0 0.0 -6.938051102899e-05 
-1.200769966056e-04 -2.774059059615e-05 0.0 
-2.774059059615e-05 7.919085176899e-04 0.0 
0.0 0.0 -1.194585575575e-04 
-1.988427120039e-04 -2.959789654557e-06 0.0 
-2.959789654557e-06 1.363764641001e-03 0.0 
0.0 0.0 -1.987298001823e-04 
-8.291571741031e-05 2.832079044508e-05 0.0 
2.832079044508e-05 5.233038309385e-04 0.0 
0.0 0.0 -8.265507580179e-05 
-1.306758629051e-04 -2.955788166782e-05 0.0 
-2.955788166782e-05 8.695191991227e-04 0.0 
0.0 0.0 -1.305485175686e-04 
-4.578173906005e-05 -2.535078056645e-05 0.0 
-2.535078056645e-05 2.780519891852e-04 0.0 
0.0 0.0 -4.562300070248e-05 
-1.437792750518e-04 3.149363009429e-05 0.0 
3.149363009429e-05 9.490378851935e-04 0.0 
0.0 0.0 -1.436534165706e-04 
-1.511792253345e-04 3.107336096836e-05 0.0 
3.107336096836e-05 1.002609936336e-03 0.0 
0.0 0.0 -1.512517770320e-04 
-6.196699647241e-05 -2.679098173262e-05 0.0 
-2.679098173262e-05 3.903858421673e-04 0.0 
0.0 0.0 -6.164273853391e-05 
-1.399199792627e-04 -2.811467117751e-05 0.0 
-2.811467117751e-05 9.272505815491e-04 0.0 
0.0 0.0 -1.388569334018e-04 
-1.985355386787e-04 1.984726108435e-06 0.0 
1.984726108435e-06 1.364959960964e-03 0.0 
0.0 0.0 -1.983871205594e-04 
-1.614928444495e-04 2.847027297627e-05 0.0 
2.847027297627e-05 1.071649121551e-03 0.0 
0.0 0.0 -1.613792517474e-04 
-1.982422487002e-04 -2.569909507912e-06 0.0 
-2.569909507912e-06 1.365758727609e-03 0.0 
0.0 0.0 -1.983136761333e-04 
-1.361916076227e-04 -3.146771190181e-05 0.0 
-3.146771190181e-05 9.179571631392e-04 0.0 
0.0 0.0 -1.379474753881e-04 
-1.576486168105e-04 -2.829471551287e-05 0.0 
-2.829471551287e-05 1.056700414691e-03 0.0 
0.0 0.0 -1.572395483614e-04 
-5.266868770522e-05 -2.930837486761e-05 0.0 
-2.930837486761e-05 3.216672696281e-04 0.0 
0.0 0.0 -5.237865887416e-05 
-1.106230900853e-04 -2.705461405413e-05 0.0 
-2.705461405413e-05 7.266788580309e-04 0.0 
0.0 0.0 -1.101557085785e-04 
-1.243986606814e-04 2.756325965713e-05 0.0 
2.756325965713e-05 8.114376097232e-04 0.0 
0.0 0.0 -1.239588741081e-04 
-1.293044827764e-04 -2.800858501220e-05 0.0 
-2.800858501220e-05 8.573256290427e-04 0.0 
0.0 0.0 -1.288458533782e-04 
-1.066562308207e-04 -2.783120558929e-05 0.0 
-2.783120558929e-05 7.017640661734e-04 0.0 
0.0 0.0 -1.065261787303e-04 
-1.990029541207e-04 -1.757598364358e-06 0.0 
-1.757598364358e-06 1.366381337533e-03 0.0 
0.0 0.0 -1.983502480037e-04 
-1.298318789187e-04 2.158067938686e-05 0.0 
2.158067938686e-05 8.815706967553e-04 0.0 
0.0 0.0 -1.321612292015e-04 
-1.176326388033e-04 -2.595061727756e-05 0.0 
-2.595061727756e-05 7.723158987367e-04 0.0 
0.0 0.0 -1.164556264782e-04 
-8.783787209566e-05 -2.903458928538e-05 0.0 
-2.903458928538e-05 5.705379246605e-04 0.0 
0.0 0.0 -8.765849385152e-05 
-4.943082231834e-05 2.834348926926e-05 0.0 
2.834348926926e-05 2.859345548030e-04 0.0 
0.0 0.0 -4.921152720794e-05 
-1.062878110515e-04 -2.718085700709e-05 0.0 
-2.718085700709e-05 6.972114022315e-04 0.0 
0.0 0.0 -1.060368635384e-04 
-6.633274732441e-05 2.805962634071e-05 0.0 
2.805962634071e-05 4.063292376683e-04 0.0 
0.0 0.0 -6.607158303000e-05 
-1.158557996194e-04 -6.210093226299e-06 0.0 
-6.210093226299e-06 7.885063370646e-04 0.0 
0.0 0.0 -1.154421321462e-04 
-6.910380331659e-05 -2.778533839803e-05 0.0 
-2.778533839803e-05 4.414244386129e-04 0.0 
0.0 0.0 -6.893461416735e-05 
-7.822135333654e-05 -2.896553184294e-05 0.0 
-2.896553184294e-05 5.031498839476e-04 0.0 
0.0 0.0 -7.803987337015e-05 
-1.602384540181e-04 3.100072325668e-05 0.0 
3.100072325668e-05 1.064154990020e-03 0.0 
0.0 0.0 -1.603578675858e-04 
-6.566815985925e-05 -2.750449767600e-05 0.0 
-2.750449767600e-05 4.167092244980e-04 0.0 
0.0 0.0 -6.558851423748e-05 
-1.152845892592e-04 2.749147668780e-05 0.0 
2.749147668780e-05 7.465056274970e-04 0.0 
0.0 0.0 -1.146103474413e-04 
-1.353451354842e-04 2.819645546977e-05 0.0 
2.819645546977e-05 8.892812196543e-04 0.0 
0.0 0.0 -1.352137036071e-04 
-1.205044148237e-04 2.968350999990e-05 0.0 
2.968350999990e-05 7.873013113578e-04 0.0 
0.0 0.0 -1.205299346428e-04 
-1.958940259279e-04 -3.143838988157e-07 0.0 
-3.143838988157e-07 1.365374549896e-03 0.0 
0.0 0.0 -1.987143998872e-04 
-9.668730117965e-05 -2.517304160907e-05 0.0 
-2.517304160907e-05 6.291397970161e-04 0.0 
0.0 0.0 -9.585336115805e-05 
-6.653143432308e-05 2.946077866981e-05 0.0 
2.946077866981e-05 4.089865087981e-04 0.0 
0.0 0.0 -6.633958094145e-05 
-8.520951336944e-05 -2.684964973046e-05 0.0 
-2.684964973046e-05 5.564426473023e-04 0.0 
0.0 0.0 -8.536885536016e-05 
-6.423500688610e-05 -2.223670417576e-05 0.0 
-2.223670417576e-05 3.967373019254e-04 0.0 
0.0 0.0 -6.277058716750e-05 
-6.233409830209e-05 2.930783879135e-05 0.0 
2.930783879135e-05 3.806227503841e-04 0.0 
0.0 0.0 -6.211964112063e-05 
-1.686029388230e-04 -3.010997351014e-05 0.0 
-3.010997351014e-05 1.134847194407e-03 0.0 
0.0 0.0 -1.685829472084e-04 
-1.228035280568e-04 -2.801028863811e-05 0.0 
-2.801028863811e-05 8.126298515026e-04 0.0 
0.0 0.0 -1.224221955183e-04 
-8.576695021724e-05 -2.818444781109e-05 0.0 
-2.818444781109e-05 5.521166414815e-04 0.0 
0.0 0.0 -8.508581023982e-05 
-1.058888784043e-04 2.774100767274e-05 0.0 
2.774100767274e-05 6.820542708577e-04 0.0 
0.0 0.0 -1.053569120690e-04 
-1.984005188917e-04 3.469833888433e-06 0.0 
3.469833888433e-06 1.365869131785e-03 0.0 
0.0 0.0 -1.981012852499e-04 
-1.891870000816e-04 -2.170110567076e-05 0.0 
-2.170110567076e-05 1.288510292263e-03 0.0 
0.0 0.0 -1.887097005658e-04 
-1.683150849776e-04 2.979696904543e-05 0.0 
2.979696904543e-05 1.122642711197e-03 0.0 
0.0 0.0 -1.689885654173e-04 
-1.554302986174e-04 -2.927663835836e-05 0.0 
-2.927663835836e-05 1.044556448181e-03 0.0 
0.0 0.0 -1.556283301217e-04 
-1.157857925219e-04 -2.832751956135e-05 0.0 
-2.832751956135e-05 7.671670755825e-04 0.0 
0.0 0.0 -1.158214347813e-04 
-8.793389765940e-05 -2.692004426865e-05 0.0 
-2.692004426865e-05 5.710151647237e-04 0.0 
0.0 0.0 -8.764218308180e-05 
-6.353474277312e-05 -2.825822332319e-05 0.0 
-2.825822332319e-05 4.001707208949e-04 0.0 
0.0 0.0 -6.304749027677e-05 
-7.291093511829e-05 -2.827879267007e-05 0.0 
-2.827879267007e-05 4.665581668852e-04 0.0 
0.0 0.0 -7.265234708097e-05 
-1.174853072823e-04 -2.733567074543e-05 0.0 
-2.733567074543e-05 7.760237591612e-04 0.0 
0.0 0.0 -1.171309192368e-04 
-1.335212434515e-04 -2.914279474533e-05 0.0 
-2.914279474533e-05 8.905694576090e-04 0.0 
0.0 0.0 -1.335144612876e-04 
-1.018718395078e-04 -2.979006226054e-05 0.0 
-2.979006226054e-05 6.715941915170e-04 0.0 
0.0 0.0 -1.021513650962e-04 
-1.706976735812e-04 3.040145888498e-05 0.0 
3.040145888498e-05 1.134074140794e-03 0.0 
0.0 0.0 -1.701355210695e-04 
-6.585088392687e-05 -2.809564114852e-05 0.0 
-2.809564114852e-05 4.191270390209e-04 0.0 
0.0 0.0 -6.593483134189e-05 
-1.012822856145e-04 -2.790893614150e-05 0.0 
-2.790893614150e-05 6.647252503200e-04 0.0 
0.0 0.0 -1.012556795624e-04 
-1.190728906021e-04 2.726084077196e-05 0.0 
2.726084077196e-05 7.740175104497e-04 0.0 
0.0 0.0 -1.186992623097e-04 
-9.180435571147e-05 -2.942480991547e-05 0.0 
-2.942480991547e-05 5.980965186942e-04 0.0 
0.0 0.0 -9.183388734860e-05 
-1.951933135343e-04 -3.067913145712e-06 0.0 
-3.067913145712e-06 1.365527233008e-03 0.0 
0.0 0.0 -1.980132279339e-04 
-2.004839790609e-04 7.957002336378e-06 0.0 
7.957002336378e-06 1.363848061926e-03 0.0 
0.0 0.0 -1.977693979613e-04 
-1.862548850903e-04 -3.381380897180e-05 0.0 
-3.381380897180e-05 1.277935188165e-03 0.0 
0.0 0.0 -1.884741816281e-04 
-1.255545849599e-04 -2.913100698812e-05 0.0 
-2.913100698812e-05 8.346700099746e-04 0.0 
0.0 0.0 -1.256288396591e-04 
-1.668512740992e-04 2.892208901038e-05 0.0 
2.892208901038e-05 1.110735165857e-03 0.0 
0.0 0.0 -1.668097552869e-04 
-5.710219261571e-05 2.668419955422e-05 0.0 
2.668419955422e-05 3.418831237588e-04 0.0 
0.0 0.0 -5.678930531275e-05 
-8.241925476564e-05 -2.832624156936e-05 0.0 
-2.832624156936e-05 5.333885698677e-04 0.0 
0.0 0.0 -8.224527255366e-05 
-4.853944390359e-05 -2.604022421239e-05 0.0 
-2.604022421239e-05 2.959627034739e-04 0.0 
0.0 0.0 -4.789427177487e-05 
-8.945478626281e-05 -2.660897635143e-05 0.0 
-2.660897635143e-05 5.805998989638e-04 0.0 
0.0 0.0 -8.904339260345e-05 
-1.163162734636e-04 -2.681975846469e-06 0.0 
-2.681975846469e-06 7.498217446733e-04 0.0 
0.0 0.0 -1.187247005501e-04 
-1.378749770551e-04 3.210368012353e-05 0.0 
3.210368012353e-05 9.111791288023e-04 0.0 
0.0 0.0 -1.382175405433e-04 
-1.908460110853e-04 -3.275689360254e-07 0.0 
-3.275689360254e-07 1.305230985071e-03 0.0 
0.0 0.0 -1.898105380384e-04 
-1.673198694714e-04 3.217203314276e-05 0.0 
3.217203314276e-05 1.110802916425e-03 0.0 
0.0 0.0 -1.675837462092e-04 
-1.307963472837e-04 2.695120133125e-05 0.0 
2.695120133125e-05 8.556346688023e-04 0.0 
0.0 0.0 -1.303141423325e-04 
-1.340100066794e-04 2.763944078925e-05 0.0 
2.763944078925e-05 8.772925572874e-04 0.0 
0.0 0.0 -1.333792161710e-04 
-5.307775534030e-05 2.953233977858e-05 0.0 
2.953233977858e-05 3.124408790926e-04 0.0 
0.0 0.0 -5.245278118421e-05 
-2.595268965567e-05 5.699272949294e-06 0.0 
5.699272949294e-06 1.472249447242e-04 0.0 
0.0 0.0 -2.415366321274e-05 
-9.908936880668e-05 3.012137168314e-05 0.0 
3.012137168314e-05 6.362497375305e-04 0.0 
0.0 0.0 -9.891160473977e-05 
-1.107375038864e-04 -2.791592154402e-05 0.0 
-2.791592154402e-05 7.305458695935e-04 0.0 
0.0 0.0 -1.106421438825e-04 
-1.040373993302e-04 -2.962445174837e-05 0.0 
-2.962445174837e-05 6.836342105130e-04 0.0 
0.0 0.0 -1.039785834622e-04 
-2.890800069675e-05 2.861111799326e-05 0.0 
2.861111799326e-05 1.404310217184e-04 0.0 
0.0 0.0 -2.759983235877e-05 
-1.283084597460e-04 1.192869093826e-05 0.0 
1.192869093826e-05 8.062000095070e-04 0.0 
0.0 0.0 -1.269342783548e-04 
-4.518956868723e-05 -2.955121691656e-05 0.0 
-2.955121691656e-05 2.739636501554e-04 0.0 
0.0 0.0 -4.458156379712e-05 
-6.480437248805e-05 2.886959438942e-05 0.0 
2.886959438942e-05 3.978928491972e-04 0.0 
0.0 0.0 -6.471073859852e-05 
-2.011730791700e-04 -1.698872757956e-08 0.0 
-1.698872757956e-08 1.328124099864e-03 0.0 
0.0 0.0 -2.011730791700e-04 
-1.460374838192e-04 -3.048163660064e-05 0.0 
-3.048163660064e-05 9.751989198997e-04 0.0 
0.0 0.0 -1.457653143910e-04 
-1.205798788541e-04 2.761727978419e-05 0.0 
2.761727978419e-05 7.635288783755e-04 0.0 
0.0 0.0 -1.168501105142e-04 
-3.395354607204e-05 2.118102367287e-05 0.0 
2.118102367287e-05 2.067871695949e-04 0.0 
0.0 0.0 -3.264725407480e-05 
-1.072259052960e-04 2.828066854900e-05 0.0 
2.828066854900e-05 6.926707853574e-04 0.0 
0.0 0.0 -1.069007943593e-04 
-9.875212805042e-05 -3.066987077576e-05 0.0 
-3.066987077576e-05 6.455932732231e-04 0.0 
0.0 0.0 -9.854973989574e-05 
-1.347121276017e-04 -2.904780221579e-05 0.0 
-2.904780221579e-05 8.937363280174e-04 0.0 
0.0 0.0 -1.341094516545e-04 
-1.991811038418e-04 6.018664084073e-06 0.0 
6.018664084073e-06 1.364715316697e-03 0.0 
0.0 0.0 -1.985748880999e-04 
-1.110533222846e-04 2.766180117225e-05 0.0 
2.766180117225e-05 7.188072929314e-04 0.0 
0.0 0.0 -1.104975085169e-04 
-1.281880349500e-04 -2.831423111803e-05 0.0 
-2.831423111803e-05 8.493800491293e-04 0.0 
0.0 0.0 -1.277066113365e-04 
-1.022800064688e-04 2.938149773544e-05 0.0 
2.938149773544e-05 6.613696873366e-04 0.0 
0.0 0.0 -1.025654288072e-04 
-1.657781793003e-04 2.991009795984e-05 0.0 
2.991009795984e-05 1.103461715683e-03 0.0 
0.0 0.0 -1.657887872837e-04 
-1.303012997508e-04 2.941535065773e-05 0.0 
2.941535065773e-05 8.562179753406e-04 0.0 
0.0 0.0 -1.303748051659e-04 
-1.970164637737e-04 -1.302278598281e-06 0.0 
-1.302278598281e-06 1.366138488450e-03 0.0 
0.0 0.0 -1.983262259508e-04 
-2.010155577921e-04 3.662749840251e-07 0.0 
3.662749840251e-07 1.326332536677e-03 0.0 
0.0 0.0 -2.010155577921e-04 
-2.011542863586e-04 -1.004817252029e-06 0.0 
-1.004817252029e-06 1.325128672458e-03 0.0 
0.0 0.0 -2.011542863586e-04 
-2.007067363607e-04 -1.498454949362e-07 0.0 
-1.498454949362e-07 1.318361508107e-03 0.0 
0.0 0.0 -2.007067363607e-04 
-1.391843029499e-04 2.745739822782e-05 0.0 
2.745739822782e-05 9.142042162451e-04 0.0 
0.0 0.0 -1.386702020626e-04 
-1.656573127809e-04 -2.766529280961e-05 0.0 
-2.766529280961e-05 1.111954587801e-03 0.0 
0.0 0.0 -1.654503375633e-04 
-1.726299045536e-04 3.125882372740e-05 0.0 
3.125882372740e-05 1.154413842026e-03 0.0 
0.0 0.0 -1.733872194588e-04 
-9.246943249656e-05 3.046774901958e-05 0.0 
3.046774901958e-05 5.891823098647e-04 0.0 
0.0 0.0 -9.220995221430e-05 
-8.867527655773e-05 2.995644697180e-05 0.0 
2.995644697180e-05 5.611104943418e-04 0.0 
0.0 0.0 -8.809376301141e-05 
-9.622211545223e-05 -3.009570676563e-05 0.0 
-3.009570676563e-05 6.328174754954e-04 0.0 
0.0 0.0 -9.655401109520e-05 
-1.701961923366e-04 -3.010043453970e-05 0.0 
-3.010043453970e-05 1.143557443824e-03 0.0 
0.0 0.0 -1.697778367964e-04 
-1.986751491008e-04 -7.450281032106e-07 0.0 
-7.450281032106e-07 1.364365235868e-03 0.0 
0.0 0.0 -1.983660426036e-04 
-1.710340879663e-04 2.926837147099e-05 0.0 
2.926837147099e-05 1.140451459410e-03 0.0 
0.0 0.0 -1.711771202328e-04 
-1.362026136940e-04 -3.056560885154e-05 0.0 
-3.056560885154e-05 9.064457611163e-04 0.0 
0.0 0.0 -1.359501865459e-04 
-1.710918547977e-04 -2.738871930552e-05 0.0 
-2.738871930552e-05 1.149183258739e-03 0.0 
0.0 0.0 -1.708297112636e-04 
-1.484338095600e-04 -2.864995064493e-05 0.0 
-2.864995064493e-05 9.946985301084e-04 0.0 
0.0 0.0 -1.485531891111e-04 
-1.058391682515e-04 2.762475757998e-05 0.0 
2.762475757998e-05 6.839177814814e-04 0.0 
0.0 0.0 -1.057460988714e-04 
-9.007502322936e-05 2.632387229137e-05 0.0 
2.632387229137e-05 5.712847458693e-04 0.0 
0.0 0.0 -8.951081423028e-05 
-5.003262353380e-05 2.839389572085e-05 0.0 
2.839389572085e-05 2.942091527215e-04 0.0 
0.0 0.0 -5.000330529763e-05 
-1.931223455613e-04 1.410072971069e-05 0.0 
1.410072971069e-05 1.274197783005e-03 0.0 
0.0 0.0 -1.923320103442e-04 
-8.673133120512e-05 2.974761857028e-05 0.0 
2.974761857028e-05 5.527785355338e-04 0.0 
0.0 0.0 -8.688718888654e-05 
-1.811235048976e-04 -1.426754042441e-06 0.0 
-1.426754042441e-06 1.216021958167e-03 0.0 
0.0 0.0 -1.846150589539e-04 
-9.663648622258e-05 2.916309241112e-05 0.0 
2.916309241112e-05 6.223980992345e-04 0.0 
0.0 0.0 -9.698095267749e-05 
-6.297861531256e-05 -2.737443956180e-05 0.0 
-2.737443956180e-05 4.020391048555e-04 0.0 
0.0 0.0 -6.334372566563e-05 
-1.910403343780e-04 6.504513827889e-06 0.0 
6.504513827889e-06 1.269011526396e-03 0.0 
0.0 0.0 -1.926469350330e-04 
-7.031800198741e-05 2.800312657303e-05 0.0 
2.800312657303e-05 4.340280219417e-04 0.0 
0.0 0.0 -7.004737339288e-05 
-2.012981183411e-04 2.829868493087e-07 0.0 
2.829868493087e-07 1.325754434692e-03 0.0 
0.0 0.0 -2.012981183411e-04 
-1.944617061092e-04 -2.128424273080e-06 0.0 
-2.128424273080e-06 1.270536569317e-03 0.0 
0.0 0.0 -1.923981163876e-04 
-1.274261734323e-04 2.764661482526e-05 0.0 
2.764661482526e-05 8.320608034777e-04 0.0 
0.0 0.0 -1.269381307268e-04 
-1.388257339176e-05 -3.296929808695e-07 0.0 
-3.296929808695e-07 4.627629862134e-05 0.0 
0.0 0.0 -1.388302509839e-05 
-2.011432062587e-04 1.175370744359e-06 0.0 
1.175370744359e-06 1.325704875416e-03 0.0 
0.0 0.0 -2.011432062587e-04 
-1.921224080021e-04 -3.345083285998e-06 0.0 
-3.345083285998e-06 1.269046594870e-03 0.0 
0.0 0.0 -1.926992175726e-04 
-6.391416598869e-05 2.999598810142e-05 0.0 
2.999598810142e-05 3.912627427439e-04 0.0 
0.0 0.0 -6.380490422505e-05 
-1.404753262357e-04 -2.965513079560e-05 0.0 
-2.965513079560e-05 9.376027128924e-04 0.0 
0.0 0.0 -1.402969630079e-04 
-1.999507595383e-04 6.517171705063e-07 0.0 
6.517171705063e-07 1.367200749641e-03 0.0 
0.0 0.0 -1.984522389651e-04 
0.0 0.0 0.0 
0.0 0.0 0.0 
0.0 0.0 0.0 
-9.642422921866e-05 2.765043306328e-05 0.0 
2.765043306328e-05 6.184893464754e-04 0.0 
0.0 0.0 -9.638260397252e-05 
-1.327711764227e-04 2.777803969438e-05 0.0 
2.777803969438e-05 8.691844784454e-04 0.0 
0.0 0.0 -1.322405047887e-04 
-1.220159274826e-04 2.812429560457e-05 0.0 
2.812429560457e-05 7.950189731712e-04 0.0 
0.0 0.0 -1.216370884873e-04 
-1.233780413330e-04 2.822278476293e-05 0.0 
2.822278476293e-05 8.034120475729e-04 0.0 
0.0 0.0 -1.227992079070e-04 
-5.537653594295e-05 2.875222597985e-05 0.0 
2.875222597985e-05 3.316168811288e-04 0.0 
0.0 0.0 -5.533679171570e-05 
-2.012041008673e-04 -1.784165579869e-07 0.0 
-1.784165579869e-07 1.324183447082e-03 0.0 
0.0 0.0 -2.012041008673e-04 
-9.201494534921e-05 -2.853538992438e-05 0.0 
-2.853538992438e-05 6.003334109930e-04 0.0 
0.0 0.0 -9.185667556238e-05 
-3.303106360170e-05 -2.633064609002e-05 0.0 
-2.633064609002e-05 1.883634797952e-04 0.0 
0.0 0.0 -3.259945417627e-05 
-1.918713440306e-04 8.946523950926e-06 0.0 
8.946523950926e-06 1.309054848055e-03 0.0 
0.0 0.0 -1.908532239790e-04 
-1.533408055875e-05 7.384230356388e-07 0.0 
7.384230356388e-07 8.948803933365e-05 0.0 
0.0 0.0 -1.529156673429e-05 
-1.006599210971e-04 2.782645766406e-05 0.0 
2.782645766406e-05 6.455369390174e-04 0.0 
0.0 0.0 -1.001834968599e-04 
-3.451081164849e-05 1.818301860879e-06 0.0 
1.818301860879e-06 1.688175235099e-04 0.0 
0.0 0.0 -3.548102280213e-05 
-1.062965573196e-04 2.780179286973e-05 0.0 
2.780179286973e-05 6.883223029444e-04 0.0 
0.0 0.0 -1.064232429825e-04 
-1.976952572840e-04 -1.168281398261e-06 0.0 
-1.168281398261e-06 1.362992457342e-03 0.0 
0.0 0.0 -1.982734646138e-04 
-2.011883062674e-04 9.888613031942e-07 0.0 
9.888613031942e-07 1.328146716782e-03 0.0 
0.0 0.0 -2.011883062674e-04 
-1.301088029822e-04 2.770607832302e-05 0.0 
2.770607832302e-05 8.484055931934e-04 0.0 
0.0 0.0 -1.292069026561e-04 
-2.954464874618e-05 -3.965393558445e-06 0.0 
-3.965393558445e-06 1.122999320296e-04 0.0 
0.0 0.0 -2.690965210263e-05 
-2.739399671943e-05 2.933508036766e-05 0.0 
2.933508036766e-05 1.380090285650e-04 0.0 
0.0 0.0 -2.757055009735e-05 
-3.542847344044e-05 6.606947798617e-06 0.0 
6.606947798617e-06 2.063449622469e-04 0.0 
0.0 0.0 -3.269047038571e-05 
-1.687743102681e-04 -2.969350572077e-05 0.0 
-2.969350572077e-05 1.134034339831e-03 0.0 
0.0 0.0 -1.682749826031e-04 
-1.155575491131e-04 4.356017504332e-06 0.0 
4.356017504332e-06 7.906999410851e-04 0.0 
0.0 0.0 -1.155645034189e-04 
-1.225223585343e-04 -3.170975582543e-05 0.0 
-3.170975582543e-05 8.033648067797e-04 0.0 
0.0 0.0 -1.216399908441e-04 
-2.013754095761e-04 8.574101042677e-07 0.0 
8.574101042677e-07 1.328505872694e-03 0.0 
0.0 0.0 -2.013754095761e-04 
-1.185922722511e-04 -6.408792185017e-06 0.0 
-6.408792185017e-06 7.903114053093e-04 0.0 
0.0 0.0 -1.158066699702e-04 
-1.999465830534e-04 2.523603907241e-06 0.0 
2.523603907241e-06 1.365706190659e-03 0.0 
0.0 0.0 -1.984278847636e-04 
-1.529420189163e-04 2.878980384314e-05 0.0 
2.878980384314e-05 1.013778882456e-03 0.0 
0.0 0.0 -1.531497964885e-04 
-1.341342697016e-04 3.021998989808e-05 0.0 
3.021998989808e-05 8.804430663277e-04 0.0 
0.0 0.0 -1.336117322397e-04 
-7.066337245358e-05 2.724020164699e-05 0.0 
2.724020164699e-05 4.173118245595e-04 0.0 
0.0 0.0 -6.716413209789e-05 
-1.409646218039e-04 2.858302443344e-05 0.0 
2.858302443344e-05 9.281763591865e-04 0.0 
0.0 0.0 -1.406799227165e-04 
-4.298549671642e-05 -2.547451572923e-05 0.0 
-2.547451572923e-05 2.695670933754e-04 0.0 
0.0 0.0 -4.407237973489e-05 
-2.011132486541e-04 -7.128017343346e-07 0.0 
-7.128017343346e-07 1.328659301781e-03 0.0 
0.0 0.0 -2.011132486541e-04 
-2.009976701417e-04 3.439303975141e-06 0.0 
3.439303975141e-06 1.321105461220e-03 0.0 
0.0 0.0 -2.009976701417e-04 
-2.010626616006e-04 -3.322276770675e-06 0.0 
-3.322276770675e-06 1.324330050416e-03 0.0 
0.0 0.0 -2.010626616006e-04 
-1.299093591511e-04 -2.914930425429e-05 0.0 
-2.914930425429e-05 8.658441252439e-04 0.0 
0.0 0.0 -1.299975089739e-04 
-9.052284020770e-05 -3.049516894790e-05 0.0 
-3.049516894790e-05 5.936904225557e-04 0.0 
0.0 0.0 -9.093357025479e-05 
-1.054046505950e-04 -2.722690421760e-05 0.0 
-2.722690421760e-05 6.941162488956e-04 0.0 
0.0 0.0 -1.053178853420e-04 
-1.346471619318e-04 2.927563182277e-05 0.0 
2.927563182277e-05 8.856709839770e-04 0.0 
0.0 0.0 -1.347235989126e-04 
-2.009441844947e-04 5.418162692691e-07 0.0 
5.418162692691e-07 1.327955075341e-03 0.0 
0.0 0.0 -2.009441844947e-04 
-6.443925901357e-05 -2.813929069584e-05 0.0 
-2.813929069584e-05 4.076252186495e-04 0.0 
0.0 0.0 -6.431912701200e-05 
-7.485675959243e-05 2.901728883495e-05 0.0 
2.901728883495e-05 4.688085198426e-04 0.0 
0.0 0.0 -7.487790608676e-05 
-7.928698614329e-05 2.778576412939e-05 0.0 
2.778576412939e-05 4.984401812577e-04 0.0 
0.0 0.0 -7.908687439778e-05 
-1.394721343079e-04 2.885489704653e-05 0.0 
2.885489704653e-05 9.192978405546e-04 0.0 
0.0 0.0 -1.391937591313e-04 
-2.008612103287e-04 -3.693527197654e-06 0.0 
-3.693527197654e-06 1.364519917838e-03 0.0 
0.0 0.0 -1.985305734468e-04 
-2.250927834624e-05 2.909087829438e-06 0.0 
2.909087829438e-06 1.468758923848e-04 0.0 
0.0 0.0 -2.397382233655e-05 
-2.011163638586e-04 2.302003841695e-07 0.0 
2.302003841695e-07 1.324189736521e-03 0.0 
0.0 0.0 -2.011163638586e-04 
-7.377337448231e-05 2.934269690708e-05 0.0 
2.934269690708e-05 4.594549865471e-04 0.0 
0.0 0.0 -7.358133128319e-05 
-2.014316818412e-04 4.263406091416e-07 0.0 
4.263406091416e-07 1.328090472923e-03 0.0 
0.0 0.0 -2.014316818412e-04 
-1.734276927947e-04 -2.828578725819e-05 0.0 
-2.828578725819e-05 1.166116999412e-03 0.0 
0.0 0.0 -1.729148776319e-04 
-6.741246855669e-06 1.500702879826e-07 0.0 
1.500702879826e-07 3.827256342879e-05 0.0 
0.0 0.0 -6.864263063556e-06 
-1.004959508363e-04 2.808542309375e-05 0.0 
2.808542309375e-05 6.454212743012e-04 0.0 
0.0 0.0 -1.003583859079e-04 
-1.718759866272e-04 -2.980354167843e-05 0.0 
-2.980354167843e-05 1.157131136303e-03 0.0 
0.0 0.0 -1.719029392456e-04 
-2.011830196921e-04 -3.548902454821e-07 0.0 
-3.548902454821e-07 1.327155566075e-03 0.0 
0.0 0.0 -2.011830196921e-04 
-1.388407500422e-04 -2.884720622620e-05 0.0 
-2.884720622620e-05 9.230769586163e-04 0.0 
0.0 0.0 -1.383010158571e-04 
-1.575526722260e-04 2.955644203139e-05 0.0 
2.955644203139e-05 1.043750468826e-03 0.0 
0.0 0.0 -1.573501057445e-04 
-4.123088931291e-05 2.897558544234e-05 0.0 
2.897558544234e-05 2.287469859808e-04 0.0 
0.0 0.0 -4.076119643165e-05 
-1.813025862255e-04 9.345575993616e-07 0.0 
9.345575993616e-07 1.215376006819e-03 0.0 
0.0 0.0 -1.843023520775e-04 
-7.788490820688e-05 2.864422483209e-05 0.0 
2.864422483209e-05 4.890843703452e-04 0.0 
0.0 0.0 -7.776038389268e-05 
-7.872164132443e-05 -2.705112463858e-05 0.0 
-2.705112463858e-05 5.083022021505e-04 0.0 
0.0 0.0 -7.864394100603e-05 
-1.651857613722e-05 2.436579541672e-06 0.0 
2.436579541672e-06 9.382250948335e-05 0.0 
0.0 0.0 -1.564271892946e-05 
-2.011619417363e-04 1.902236696599e-07 0.0 
1.902236696599e-07 1.325669705516e-03 0.0 
0.0 0.0 -2.011619417363e-04 
-5.404101206327e-05 -2.775487024526e-05 0.0 
-2.775487024526e-05 3.346238881161e-04 0.0 
0.0 0.0 -5.346778118095e-05 
-1.664978969876e-04 -3.078518139598e-05 0.0 
-3.078518139598e-05 1.121532468591e-03 0.0 
0.0 0.0 -1.665752238587e-04 
-1.278730840806e-04 -3.472948115295e-05 0.0 
-3.472948115295e-05 8.520267496029e-04 0.0 
0.0 0.0 -1.283298317887e-04 
-6.603291402412e-05 -2.806322866842e-05 0.0 
-2.806322866842e-05 4.217037645698e-04 0.0 
0.0 0.0 -6.617380498946e-05 
-7.463675443451e-05 -2.871843216267e-05 0.0 
-2.871843216267e-05 4.786814676414e-04 0.0 
0.0 0.0 -7.447016153659e-05 
-1.335206736850e-04 -2.810341513530e-05 0.0 
-2.810341513530e-05 8.862841769034e-04 0.0 
0.0 0.0 -1.330061330556e-04 
-2.013389903111e-04 -2.577060081338e-06 0.0 
-2.577060081338e-06 1.328272800082e-03 0.0 
0.0 0.0 -2.013389903111e-04 
-9.595163826971e-05 2.829118562233e-05 0.0 
2.829118562233e-05 6.147361544056e-04 0.0 
0.0 0.0 -9.568302398834e-05 
-1.453761414593e-04 -3.029613600092e-05 0.0 
-3.029613600092e-05 9.724967985982e-04 0.0 
0.0 0.0 -1.454001008742e-04 
-1.206262125757e-04 2.794500349809e-05 0.0 
2.794500349809e-05 7.866369625336e-04 0.0 
0.0 0.0 -1.204619904346e-04 
-1.322723275388e-04 -2.829979880917e-05 0.0 
-2.829979880917e-05 8.816831760065e-04 0.0 
0.0 0.0 -1.321674040750e-04 
-7.980000717296e-05 -2.795628281200e-05 0.0 
-2.795628281200e-05 5.159636454028e-04 0.0 
0.0 0.0 -7.989676937832e-05 
-1.354049195082e-04 -2.966836663350e-05 0.0 
-2.966836663350e-05 9.031731980439e-04 0.0 
0.0 0.0 -1.354758998029e-04 
-1.160382141721e-04 -2.802728243222e-05 0.0 
-2.802728243222e-05 7.673309827378e-04 0.0 
0.0 0.0 -1.159419204142e-04 
-1.497221933922e-04 -2.945707781298e-05 0.0 
-2.945707781298e-05 1.002549953165e-03 0.0 
0.0 0.0 -1.497374551683e-04 
-1.506619844600e-04 2.868191767905e-05 0.0 
2.868191767905e-05 9.959081628399e-04 0.0 
0.0 0.0 -1.504701801305e-04 
-1.152928167139e-04 2.794966723813e-05 0.0 
2.794966723813e-05 7.495122634304e-04 0.0 
0.0 0.0 -1.151504190239e-04 
-9.797200402357e-05 2.936337437301e-05 0.0 
2.936337437301e-05 6.310607353231e-04 0.0 
0.0 0.0 -9.826785141749e-05 
-6.968070852175e-05 -2.743361977117e-05 0.0 
-2.743361977117e-05 4.442581749229e-04 0.0 
0.0 0.0 -6.960145924383e-05 
-9.096858632181e-05 2.865428116578e-05 0.0 
2.865428116578e-05 5.831558172230e-04 0.0 
0.0 0.0 -9.136904409387e-05 
-1.529042345816e-04 -2.854559586381e-05 0.0 
-2.854559586381e-05 1.024686749938e-03 0.0 
0.0 0.0 -1.527306194461e-04 
-1.256058487050e-04 2.811261290406e-05 0.0 
2.811261290406e-05 8.215081039068e-04 0.0 
0.0 0.0 -1.254775488864e-04 
-1.980780648734e-04 -3.935700772683e-06 0.0 
-3.935700772683e-06 1.366110574938e-03 0.0 
0.0 0.0 -1.982894430286e-04 
-1.754272809192e-04 -2.841101742405e-05 0.0 
-2.841101742405e-05 1.186882516095e-03 0.0 
0.0 0.0 -1.761487873678e-04 
-6.082182731614e-05 2.853376333875e-05 0.0 
2.853376333875e-05 3.715508262051e-04 0.0 
0.0 0.0 -6.104993218691e-05 
-2.011571007552e-04 9.171145657895e-07 0.0 
9.171145657895e-07 1.321562182738e-03 0.0 
0.0 0.0 -2.011571007552e-04 
-1.869664199368e-04 -1.057224803580e-06 0.0 
-1.057224803580e-06 1.305229682683e-03 0.0 
0.0 0.0 -1.899621165515e-04 
-1.086484700099e-04 2.782826117920e-05 0.0 
2.782826117920e-05 7.032557878447e-04 0.0 
0.0 0.0 -1.085668144712e-04 
-1.464969908307e-05 -1.429149761968e-06 0.0 
-1.429149761968e-06 4.885109050726e-05 0.0 
0.0 0.0 -1.465773918179e-05 
-1.958263237412e-04 5.780106440857e-07 0.0 
5.780106440857e-07 1.365777430136e-03 0.0 
0.0 0.0 -1.985204576056e-04 
-1.757264082716e-04 -2.517232276593e-05 0.0 
-2.517232276593e-05 1.179270301901e-03 0.0 
0.0 0.0 -1.750736792729e-04 
-6.782541782712e-05 3.019373787777e-05 0.0 
3.019373787777e-05 4.206013080560e-04 0.0 
0.0 0.0 -6.802858053956e-05 
-2.012563967287e-04 -1.966469980067e-06 0.0 
-1.966469980067e-06 1.324444202799e-03 0.0 
0.0 0.0 -2.012563967287e-04 
-1.398061958654e-04 -2.943243974614e-05 0.0 
-2.943243974614e-05 9.347188127772e-04 0.0 
0.0 0.0 -1.398839994836e-04 
-9.402070193648e-05 2.712518201061e-05 0.0 
2.712518201061e-05 5.984767473335e-04 0.0 
0.0 0.0 -9.344238907910e-05 
-1.259751156612e-04 2.590313598485e-05 0.0 
2.590313598485e-05 8.271536243356e-04 0.0 
0.0 0.0 -1.261329128710e-04 
-1.209053773198e-04 -2.958653903370e-05 0.0 
-2.958653903370e-05 8.015101038896e-04 0.0 
0.0 0.0 -1.208199794009e-04 
-1.200662961737e-04 -2.928695907517e-05 0.0 
-2.928695907517e-05 7.971639168788e-04 0.0 
0.0 0.0 -1.201302469568e-04 
-1.377407696400e-04 -2.844739825321e-05 0.0 
-2.844739825321e-05 9.201029016575e-04 0.0 
0.0 0.0 -1.377263211214e-04 
-1.455051528160e-04 -2.968427682686e-05 0.0 
-2.968427682686e-05 9.765284886093e-04 0.0 
0.0 0.0 -1.458154293005e-04 
-1.046610403714e-04 2.733139804099e-05 0.0 
2.733139804099e-05 6.730778598484e-04 0.0 
0.0 0.0 -1.041882757323e-04 
-1.560008307498e-04 2.985032891431e-05 0.0 
2.985032891431e-05 1.035131189223e-03 0.0 
0.0 0.0 -1.559113556481e-04 
-1.346325198006e-04 -3.759875847639e-06 0.0 
-3.759875847639e-06 9.030385431769e-04 0.0 
0.0 0.0 -1.325924704931e-04 
-9.742891063834e-05 -2.917049163419e-05 0.0 
-2.917049163419e-05 6.415916256564e-04 0.0 
0.0 0.0 -9.782951018876e-05 
-1.452307842680e-04 2.798410104444e-05 0.0 
2.798410104444e-05 9.572278053497e-04 0.0 
0.0 0.0 -1.449704969611e-04 
-7.715625378280e-05 -2.667442626256e-05 0.0 
-2.667442626256e-05 4.986036227452e-04 0.0 
0.0 0.0 -7.733157599954e-05 
-1.363333543933e-04 2.878191277654e-05 0.0 
2.878191277654e-05 8.968468110316e-04 0.0 
0.0 0.0 -1.364058089354e-04 
-7.777375980435e-06 -7.535368744987e-07 0.0 
-7.535368744987e-07 3.923141655039e-05 0.0 
0.0 0.0 -6.878196728934e-06 
-7.528604578945e-05 -2.595586335955e-05 0.0 
-2.595586335955e-05 4.832975377931e-04 0.0 
0.0 0.0 -7.495963205652e-05 
-7.310000528410e-05 -2.717420889967e-05 0.0 
-2.717420889967e-05 4.696905978795e-04 0.0 
0.0 0.0 -7.313647621482e-05 
-1.067255440210e-04 2.893271527878e-05 0.0 
2.893271527878e-05 6.917423590188e-04 0.0 
0.0 0.0 -1.068984364518e-04 
-1.139491260445e-04 2.826874769749e-05 0.0 
2.826874769749e-05 7.405843148328e-04 0.0 
0.0 0.0 -1.139284295517e-04 
-1.402043620025e-04 2.960631400939e-05 0.0 
2.960631400939e-05 9.251192422938e-04 0.0 
0.0 0.0 -1.402590041820e-04 
-1.335394728763e-04 -2.801522720058e-05 0.0 
-2.801522720058e-05 8.959684456723e-04 0.0 
0.0 0.0 -1.344445438287e-04 
-6.737158343628e-05 -2.804640221892e-05 0.0 
-2.804640221892e-05 4.313606597416e-04 0.0 
0.0 0.0 -6.758331304146e-05 
-2.012741767181e-04 8.821979198627e-07 0.0 
8.821979198627e-07 1.328039817999e-03 0.0 
0.0 0.0 -2.012741767181e-04 
-1.322856537807e-04 -2.842003897691e-05 0.0 
-2.842003897691e-05 8.785134865185e-04 0.0 
0.0 0.0 -1.318490365677e-04 
-1.109362290093e-04 2.909596826543e-05 0.0 
2.909596826543e-05 7.212635507904e-04 0.0 
0.0 0.0 -1.112084472091e-04 
-1.268451666326e-04 -2.799239167254e-05 0.0 
-2.799239167254e-05 8.413818391972e-04 0.0 
0.0 0.0 -1.265499305732e-04 
-1.064793262471e-04 -2.934158827982e-05 0.0 
-2.934158827982e-05 7.019469370670e-04 0.0 
0.0 0.0 -1.064793858277e-04 
0.0 0.0 0.0 
0.0 0.0 0.0 
0.0 0.0 0.0 
-1.318178097822e-04 -2.805518743843e-05 0.0 
-2.805518743843e-05 8.722935110683e-04 0.0 
0.0 0.0 -1.310031782818e-04 
-9.021933528390e-05 3.132040384158e-05 0.0 
3.132040384158e-05 5.739755637610e-04 0.0 
0.0 0.0 -8.934454493796e-05 
0.0 0.0 0.0 
0.0 0.0 0.0 
0.0 0.0 0.0 
-1.052154278640e-04 3.047955035353e-05 0.0 
3.047955035353e-05 6.816420493296e-04 0.0 
0.0 0.0 -1.056191267961e-04 
-1.502367494217e-04 2.924022123396e-05 0.0 
2.924022123396e-05 9.937951500591e-04 0.0 
0.0 0.0 -1.501881972789e-04 
-1.718775265069e-04 2.928709797380e-05 0.0 
2.928709797380e-05 1.146088071217e-03 0.0 
0.0 0.0 -1.720420237578e-04 
-1.280234877616e-04 -2.851125988754e-05 0.0 
-2.851125988754e-05 8.523441205577e-04 0.0 
0.0 0.0 -1.279840527869e-04 
-1.326450779531e-04 2.837607785170e-05 0.0 
2.837607785170e-05 8.704271803974e-04 0.0 
0.0 0.0 -1.326233994657e-04 
-1.124800331858e-04 -2.250634799779e-05 0.0 
-2.250634799779e-05 7.434000254204e-04 0.0 
0.0 0.0 -1.124284764899e-04 
-1.124934330556e-04 -1.147359770401e-06 0.0 
-1.147359770401e-06 6.878881025193e-04 0.0 
0.0 0.0 -1.096893794977e-04 
-1.889722149430e-04 -3.377914207804e-06 0.0 
-3.377914207804e-06 1.272437990102e-03 0.0 
0.0 0.0 -1.929167378009e-04 
-1.214486582279e-04 -2.834437307674e-05 0.0 
-2.834437307674e-05 8.042147269737e-04 0.0 
0.0 0.0 -1.212428182282e-04 
-3.901684544272e-06 -1.266514493921e-06 0.0 
-1.266514493921e-06 3.364292570627e-05 0.0 
0.0 0.0 -6.803381613341e-06 
-4.019702923064e-05 -2.968878104168e-05 0.0 
-2.968878104168e-05 2.317309542851e-04 0.0 
0.0 0.0 -3.854459625752e-05 
-1.433007491539e-05 -2.523139495984e-06 0.0 
-2.523139495984e-06 4.782663812836e-05 0.0 
0.0 0.0 -1.435566994842e-05 
-6.398639061022e-05 -2.382092625923e-05 0.0 
-2.382092625923e-05 4.115367021604e-04 0.0 
0.0 0.0 -6.426199848985e-05 
-1.705216486236e-04 -3.075798588999e-05 0.0 
-3.075798588999e-05 1.144180239023e-03 0.0 
0.0 0.0 -1.701784606649e-04 
-1.720848907896e-04 -2.982707765609e-05 0.0 
-2.982707765609e-05 1.154451966353e-03 0.0 
0.0 0.0 -1.716974477008e-04 
-1.636081653310e-04 2.890679068895e-05 0.0 
2.890679068895e-05 1.083797119579e-03 0.0 
0.0 0.0 -1.631141653006e-04 
-7.191278251009e-05 -2.923981126011e-05 0.0 
-2.923981126011e-05 4.644308216806e-04 0.0 
0.0 0.0 -7.241705069886e-05 
-1.359669915306e-04 -2.927541453388e-05 0.0 
-2.927541453388e-05 9.079369783679e-04 0.0 
0.0 0.0 -1.359475215862e-04 
-1.703257054035e-04 2.861689226726e-05 0.0 
2.861689226726e-05 1.140054647222e-03 0.0 
0.0 0.0 -1.713159247262e-04 
-4.183047912369e-05 -2.572604659906e-05 0.0 
-2.572604659906e-05 2.560153946945e-04 0.0 
0.0 0.0 -4.231798256975e-05 
-8.943823586418e-05 -3.364415979658e-05 0.0 
-3.364415979658e-05 5.775390913927e-04 0.0 
0.0 0.0 -8.913173311910e-05 
-7.231586338472e-05 2.908218695887e-05 0.0 
2.908218695887e-05 4.640276074048e-04 0.0 
0.0 0.0 -7.470029742937e-05 
-2.002434364986e-04 2.390306987834e-06 0.0 
2.390306987834e-06 1.365017058433e-03 0.0 
0.0 0.0 -1.983595295415e-04 
-2.012462808875e-04 -2.397130779802e-06 0.0 
-2.397130779802e-06 1.326802955155e-03 0.0 
0.0 0.0 -2.012462808875e-04 
-1.001924190894e-04 -2.543634002640e-05 0.0 
-2.543634002640e-05 6.415530807948e-04 0.0 
0.0 0.0 -9.870432074603e-05 
-1.098744198639e-04 -2.927420239507e-05 0.0 
-2.927420239507e-05 7.316606535654e-04 0.0 
0.0 0.0 -1.107837014452e-04 
-1.248013625041e-04 2.918553395126e-05 0.0 
2.918553395126e-05 8.167887655362e-04 0.0 
0.0 0.0 -1.248518557812e-04 
-1.744561955947e-04 2.668158714920e-05 0.0 
2.668158714920e-05 1.182258303691e-03 0.0 
0.0 0.0 -1.765917450224e-04 
-4.348855545644e-05 2.994300755885e-05 0.0 
2.994300755885e-05 2.445057852649e-04 0.0 
0.0 0.0 -4.320551243875e-05 
-1.652296485327e-04 2.906332229875e-05 0.0 
2.906332229875e-05 1.101447253650e-03 0.0 
0.0 0.0 -1.657061016896e-04 
-2.403565913090e-05 4.949963233039e-06 0.0 
4.949963233039e-06 1.531777656687e-04 0.0 
0.0 0.0 -2.418834757213e-05 
-1.015799043054e-04 -2.942946605237e-05 0.0 
-2.942946605237e-05 6.633561862995e-04 0.0 
0.0 0.0 -1.008698596220e-04 
-1.119529650465e-04 -2.962126233882e-05 0.0 
-2.962126233882e-05 7.407931298335e-04 0.0 
0.0 0.0 -1.120576983545e-04 
-1.459957790495e-05 2.147032025287e-06 0.0 
2.147032025287e-06 4.870772312705e-05 0.0 
0.0 0.0 -1.461777652376e-05 
-9.161840063277e-05 2.942933483065e-05 0.0 
2.942933483065e-05 6.062252670522e-04 0.0 
0.0 0.0 -9.401387724495e-05 
-1.768726332775e-04 2.584150165173e-05 0.0 
2.584150165173e-05 1.176843255176e-03 0.0 
0.0 0.0 -1.765293208453e-04 
-8.070653634049e-06 -7.127200303669e-07 0.0 
-7.127200303669e-07 3.799287171116e-05 0.0 
0.0 0.0 -6.885492893058e-06 
-1.096879873477e-04 2.043579917607e-06 0.0 
2.043579917607e-06 6.860751141181e-04 0.0 
0.0 0.0 -1.098413067258e-04 
-1.057188370874e-04 1.685883039911e-07 0.0 
1.685883039911e-07 7.271365247556e-04 0.0 
0.0 0.0 -1.069570933414e-04 
-1.432107105009e-04 -2.918049026374e-05 0.0 
-2.918049026374e-05 9.585008998201e-04 0.0 
0.0 0.0 -1.432800021710e-04 
-7.316489204152e-05 -2.863859130745e-05 0.0 
-2.863859130745e-05 4.706303893412e-04 0.0 
0.0 0.0 -7.415269660255e-05 
-7.204753212897e-05 2.972500420552e-05 0.0 
2.972500420552e-05 4.499764828814e-04 0.0 
0.0 0.0 -7.226240082359e-05 
-5.120365076624e-05 -2.544377550683e-05 0.0 
-2.544377550683e-05 3.155956943602e-04 0.0 
0.0 0.0 -5.097082111979e-05 
-1.766764062378e-04 2.618275323120e-05 0.0 
2.618275323120e-05 1.179907026535e-03 0.0 
0.0 0.0 -1.771343179597e-04 
-1.932169887683e-04 -1.186514980036e-06 0.0 
-1.186514980036e-06 1.270206526665e-03 0.0 
0.0 0.0 -1.929291577857e-04 
-1.651550878866e-04 -2.941422592351e-05 0.0 
-2.941422592351e-05 1.109208798495e-03 0.0 
0.0 0.0 -1.651633390879e-04 
-6.755242304519e-05 -2.455549728632e-05 0.0 
-2.455549728632e-05 4.248768375292e-04 0.0 
0.0 0.0 -6.685523357515e-05 
-3.212136007057e-05 3.580530001302e-05 0.0 
3.580530001302e-05 1.447902451166e-04 0.0 
0.0 0.0 -2.858747568434e-05 
-1.054343223867e-04 -2.695876520577e-05 0.0 
-2.695876520577e-05 6.907711584095e-04 0.0 
0.0 0.0 -1.049869670044e-04 
-1.082088607967e-04 -8.344784113160e-08 0.0 
-8.344784113160e-08 6.889651327617e-04 0.0 
0.0 0.0 -1.101766670879e-04 
-1.083270449213e-04 -5.188674785914e-06 0.0 
-5.188674785914e-06 7.291063979252e-04 0.0 
0.0 0.0 -1.071720332863e-04 
0.0 0.0 0.0 
0.0 0.0 0.0 
0.0 0.0 0.0 
-1.419401195472e-05 1.408697338343e-06 0.0 
1.408697338343e-06 4.733218519253e-05 0.0 
0.0 0.0 -1.420207424477e-05 
-2.834770026484e-05 -7.681243720571e-06 0.0 
-7.681243720571e-06 1.096902963104e-04 0.0 
0.0 0.0 -2.693124394472e-05 
-5.719939767419e-05 2.990659681515e-05 0.0 
2.990659681515e-05 3.452165164042e-04 0.0 
0.0 0.0 -5.731412244432e-05 
-1.720930858718e-05 3.350218996686e-07 0.0 
3.350218996686e-07 9.401005302813e-05 0.0 
0.0 0.0 -1.553541414024e-05 
-1.076654832369e-04 2.813964265791e-05 0.0 
2.813964265791e-05 6.806882370998e-04 0.0 
0.0 0.0 -1.037722331524e-04 
0.0 0.0 0.0 
0.0 0.0 0.0 
0.0 0.0 0.0 
-6.700184681606e-05 3.038711416349e-05 0.0 
3.038711416349e-05 4.144588213805e-04 0.0 
0.0 0.0 -6.723558339016e-05 
-1.422690385554e-04 8.906612131176e-06 0.0 
8.906612131176e-06 9.279461319084e-04 0.0 
0.0 0.0 -1.437384108528e-04 
-1.067106135208e-04 1.512146510798e-06 0.0 
1.512146510798e-06 7.288241095318e-04 0.0 
0.0 0.0 -1.068051661132e-04 
-1.732229403376e-04 -3.027991344990e-05 0.0 
-3.027991344990e-05 1.178111385867e-03 0.0 
0.0 0.0 -1.754224665252e-04 
-1.445452663558e-04 2.930268727359e-05 0.0 
2.930268727359e-05 9.544571665351e-04 0.0 
0.0 0.0 -1.446217387457e-04 
-1.353694455665e-04 1.174583702380e-05 0.0 
1.174583702380e-05 8.660998565929e-04 0.0 
0.0 0.0 -1.348267065705e-04 
-7.873004197628e-05 3.045040631702e-05 0.0 
3.045040631702e-05 5.029221835495e-04 0.0 
0.0 0.0 -7.904067945980e-05 
-2.336863266121e-05 -2.139897506835e-06 0.0 
-2.139897506835e-06 1.525920777976e-04 0.0 
0.0 0.0 -2.404492882983e-05 
-2.011462452073e-04 -3.115145181966e-06 0.0 
-3.115145181966e-06 1.323800969612e-03 0.0 
0.0 0.0 -2.011462452073e-04 
-1.997611016349e-04 -1.600977658655e-07 0.0 
-1.600977658655e-07 1.366080671060e-03 0.0 
0.0 0.0 -1.980443072317e-04 
-1.272448923164e-04 3.465279404623e-05 0.0 
3.465279404623e-05 8.424875497443e-04 0.0 
0.0 0.0 -1.288258176484e-04 
-1.119386170519e-04 -1.126021442298e-06 0.0 
-1.126021442298e-06 6.885955176049e-04 0.0 
0.0 0.0 -1.098911005281e-04 
-7.877315288786e-05 -1.808968119029e-05 0.0 
-1.808968119029e-05 5.143209401366e-04 0.0 
0.0 0.0 -7.971767696681e-05 
-1.985236644042e-04 -3.425616005704e-06 0.0 
-3.425616005704e-06 1.362863135910e-03 0.0 
0.0 0.0 -1.983864604134e-04 
-6.236203446175e-05 -2.877830346934e-05 0.0 
-2.877830346934e-05 3.955051293210e-04 0.0 
0.0 0.0 -6.249901059374e-05 
-1.058650871008e-04 -6.246155104235e-07 0.0 
-6.246155104235e-07 7.256170483752e-04 0.0 
0.0 0.0 -1.068842133844e-04 
-1.069697525894e-04 1.084045783815e-06 0.0 
1.084045783815e-06 6.877400680898e-04 0.0 
0.0 0.0 -1.096916328397e-04 
-1.015389602943e-04 2.700360211827e-05 0.0 
2.700360211827e-05 6.538816838809e-04 0.0 
0.0 0.0 -1.013366985113e-04 
-2.012735984050e-04 -2.798087263703e-06 0.0 
-2.798087263703e-06 1.328613650514e-03 0.0 
0.0 0.0 -2.012735984050e-04 
-1.940648784859e-04 2.411070838906e-06 0.0 
2.411070838906e-06 1.364173949612e-03 0.0 
0.0 0.0 -1.983874027871e-04 
-1.690083312634e-05 1.049773310524e-06 0.0 
1.049773310524e-06 9.202054593460e-05 0.0 
0.0 0.0 -1.553532439781e-05 
0.0 0.0 0.0 
0.0 0.0 0.0 
0.0 0.0 0.0 
-3.585533076935e-05 2.904737459937e-05 0.0 
2.904737459937e-05 1.788685704198e-04 0.0 
0.0 0.0 -3.331695100386e-05 
-1.122713198486e-04 2.937932182379e-05 0.0 
2.937932182379e-05 7.306935959273e-04 0.0 
0.0 0.0 -1.124655765398e-04 
-1.835773402027e-04 3.521607307094e-05 0.0 
3.521607307094e-05 1.234731404255e-03 0.0 
0.0 0.0 -1.837003526785e-04 
-5.776823163620e-06 -1.013741336344e-05 0.0 
-1.013741336344e-05 3.224761562078e-05 0.0 
0.0 0.0 -6.760418344035e-06 
-1.642553307267e-04 -3.202846031696e-05 0.0 
-3.202846031696e-05 1.094624480443e-03 0.0 
0.0 0.0 -1.638777942950e-04 
0.0 0.0 0.0 
0.0 0.0 0.0 
0.0 0.0 0.0 
-1.424654463444e-04 2.913249922816e-05 0.0 
2.913249922816e-05 9.390706018894e-04 0.0 
0.0 0.0 -1.423962487430e-04 
-9.432165051581e-06 1.005162211791e-06 0.0 
1.005162211791e-06 4.138276126950e-05 0.0 
0.0 0.0 -6.886565099861e-06 
-9.362857787326e-06 -3.767431995236e-06 0.0 
-3.767431995236e-06 3.953910185584e-05 0.0 
0.0 0.0 -6.922935307491e-06 
-1.370365661157e-04 2.914478147057e-05 0.0 
2.914478147057e-05 9.005660180564e-04 0.0 
0.0 0.0 -1.368385334393e-04 
-1.786566956368e-04 2.931910129804e-05 0.0 
2.931910129804e-05 1.196344419870e-03 0.0 
0.0 0.0 -1.789445754221e-04 
-1.403014539755e-04 -1.415648790463e-05 0.0 
-1.415648790463e-05 9.602064443499e-04 0.0 
0.0 0.0 -1.404190723625e-04 
-1.093898583646e-04 -2.651797813815e-05 0.0 
-2.651797813815e-05 7.193684517441e-04 0.0 
0.0 0.0 -1.090260965338e-04 
-1.456607726240e-05 -2.038157053184e-06 0.0 
-2.038157053184e-06 4.859194839432e-05 0.0 
0.0 0.0 -1.458251619940e-05 
-1.403045830740e-04 -2.944113871056e-05 0.0 
-2.944113871056e-05 9.375602710699e-04 0.0 
0.0 0.0 -1.402353347023e-04 
-2.006696725991e-04 -3.796241326952e-06 0.0 
-3.796241326952e-06 1.322105168317e-03 0.0 
0.0 0.0 -2.006696725991e-04 
-1.989054431028e-04 -2.182972558240e-05 0.0 
-2.182972558240e-05 1.362302379513e-03 0.0 
0.0 0.0 -1.983532132695e-04 
-1.068515601043e-04 1.760793152409e-06 0.0 
1.760793152409e-06 7.282983415426e-04 0.0 
0.0 0.0 -1.068864667265e-04 
-1.479030554931e-04 2.849872559925e-05 0.0 
2.849872559925e-05 9.774939211832e-04 0.0 
0.0 0.0 -1.479563560404e-04 
-2.012411575798e-04 2.034835726214e-06 0.0 
2.034835726214e-06 1.326088054461e-03 0.0 
0.0 0.0 -2.012411575798e-04 
-1.572471139556e-04 -3.123527971848e-05 0.0 
-3.123527971848e-05 1.052974899250e-03 0.0 
0.0 0.0 -1.570065405944e-04 
-2.512952758235e-05 6.164143337161e-06 0.0 
6.164143337161e-06 1.447280408939e-04 0.0 
0.0 0.0 -2.384861487001e-05 
-1.601508775722e-05 -1.437488736464e-06 0.0 
-1.437488736464e-06 9.300170481307e-05 0.0 
0.0 0.0 -1.544587960073e-05 
-1.543264015197e-05 -6.472491513265e-06 0.0 
-6.472491513265e-06 5.180474928483e-05 0.0 
0.0 0.0 -1.558804677123e-05 
-8.807433739710e-05 2.930499283462e-05 0.0 
2.930499283462e-05 5.721318599331e-04 0.0 
0.0 0.0 -8.900037232384e-05 
-2.000509150237e-04 -1.803318756068e-05 0.0 
-1.803318756068e-05 1.362940764782e-03 0.0 
0.0 0.0 -1.984242861770e-04 
-1.873647884484e-04 -3.488074856058e-05 0.0 
-3.488074856058e-05 1.273069634555e-03 0.0 
0.0 0.0 -1.887494668184e-04 
0.0 0.0 0.0 
0.0 0.0 0.0 
0.0 0.0 0.0 
-1.048455043466e-04 -2.786233972015e-05 0.0 
-2.786233972015e-05 6.764000404035e-04 0.0 
0.0 0.0 -1.040814173273e-04 
-2.017197471554e-04 8.241581226717e-07 0.0 
8.241581226717e-07 1.329062272743e-03 0.0 
0.0 0.0 -2.017197471554e-04 
-2.005984413255e-04 5.516146765968e-06 0.0 
5.516146765968e-06 1.367793765917e-03 0.0 
0.0 0.0 -1.978177876756e-04 
-1.955632613542e-04 2.146035678258e-07 0.0 
2.146035678258e-07 1.364429749039e-03 0.0 
0.0 0.0 -1.981726781329e-04 
-1.551674337257e-04 3.213659539949e-05 0.0 
3.213659539949e-05 1.026132370703e-03 0.0 
0.0 0.0 -1.540722572613e-04 
-1.676819576491e-04 -3.244106652331e-05 0.0 
-3.244106652331e-05 1.132368160945e-03 0.0 
0.0 0.0 -1.688564288694e-04 
-2.007045390215e-04 -1.045242026293e-06 0.0 
-1.045242026293e-06 1.322895647985e-03 0.0 
0.0 0.0 -2.007045390215e-04 
-2.011132486540e-04 -4.189740075221e-06 0.0 
-4.189740075221e-06 1.326334124050e-03 0.0 
0.0 0.0 -2.011132486540e-04 
-1.626580735659e-04 2.634343120663e-05 0.0 
2.634343120663e-05 1.095653417165e-03 0.0 
0.0 0.0 -1.638777942950e-04 
-3.467643311259e-06 1.128712139723e-05 0.0 
1.128712139723e-05 2.762392691705e-05 0.0 
0.0 0.0 -6.812318873104e-06 
-1.069489536729e-04 -2.288587191676e-07 0.0 
-2.288587191676e-07 7.222038744284e-04 0.0 
0.0 0.0 -1.070930873830e-04 
-1.082084560241e-04 4.524390449744e-06 0.0 
4.524390449744e-06 7.317697196541e-04 0.0 
0.0 0.0 -1.070046338016e-04 
0.0 0.0 0.0 
0.0 0.0 0.0 
0.0 0.0 0.0 
-2.013470386860e-04 1.582993778474e-06 0.0 
1.582993778474e-06 1.331092746641e-03 0.0 
0.0 0.0 -2.013470386860e-04 
-2.004992679381e-04 3.810616673030e-06 0.0 
3.810616673030e-06 1.366146148260e-03 0.0 
0.0 0.0 -1.977533921434e-04 
-2.006939626645e-04 9.733569450260e-08 0.0 
9.733569450260e-08 1.322104658797e-03 0.0 
0.0 0.0 -2.006939626645e-04 
-1.033192631121e-05 1.099005081210e-06 0.0 
1.099005081210e-06 3.989146001766e-05 0.0 
0.0 0.0 -6.874462243606e-06 
-1.053268595906e-05 1.440397429326e-06 0.0 
1.440397429326e-06 4.104748301093e-05 0.0 
0.0 0.0 -6.887055179908e-06 
-2.011132486540e-04 -1.745116755586e-07 0.0 
-1.745116755586e-07 1.324356223126e-03 0.0 
0.0 0.0 -2.011132486540e-04 
-2.010594294788e-04 -3.067167593136e-06 0.0 
-3.067167593136e-06 1.323008264150e-03 0.0 
0.0 0.0 -2.010594294788e-04 
-1.525144534316e-04 -3.469908965430e-05 0.0 
-3.469908965430e-05 9.919929974676e-04 0.0 
0.0 0.0 -1.490508918356e-04 
-1.073514247561e-04 4.761945652643e-06 0.0 
4.761945652643e-06 7.219659484264e-04 0.0 
0.0 0.0 -1.068727795842e-04 
-1.577537368329e-04 -3.403094625324e-05 0.0 
-3.403094625324e-05 1.060418053842e-03 0.0 
0.0 0.0 -1.590213654257e-04 
-1.328454241957e-04 -3.370191828823e-05 0.0 
-3.370191828823e-05 8.485398635158e-04 0.0 
0.0 0.0 -1.293991128285e-04 
-1.046169236010e-04 1.973664755836e-06 0.0 
1.973664755836e-06 7.223528969599e-04 0.0 
0.0 0.0 -1.068286901835e-04 
-4.614602936406e-06 5.445308269796e-06 0.0 
5.445308269796e-06 3.738876181996e-05 0.0 
0.0 0.0 -6.743366273123e-06 
-7.288647016025e-06 -5.605815272385e-06 0.0 
-5.605815272385e-06 4.290456148284e-05 0.0 
0.0 0.0 -6.886751345948e-06 
-4.777740867475e-06 -1.713355770572e-06 0.0 
-1.713355770572e-06 3.704418379984e-05 0.0 
0.0 0.0 -6.883523363406e-06 
-7.097131879007e-06 -1.839146356973e-06 0.0 
-1.839146356973e-06 3.989175121334e-05 0.0 
0.0 0.0 -6.834868364323e-06 
-1.111644977682e-04 3.476120600100e-05 0.0 
3.476120600100e-05 7.142233904721e-04 0.0 
0.0 0.0 -1.090698765213e-04 
-9.850854995735e-05 3.047113839014e-05 0.0 
3.047113839014e-05 6.418056074726e-04 0.0 
0.0 0.0 -9.901154080588e-05 
0.0 0.0 0.0 
0.0 0.0 0.0 
0.0 0.0 0.0 
-1.379803939868e-04 3.311278655235e-05 0.0 
3.311278655235e-05 9.246797732210e-04 0.0 
0.0 0.0 -1.383256398532e-04 
0.0 0.0 0.0 
0.0 0.0 0.0 
0.0 0.0 0.0 
-2.012207460908e-04 8.138655548157e-07 0.0 
8.138655548157e-07 1.323125614848e-03 0.0 
0.0 0.0 -2.012207460908e-04 
-2.011453028336e-04 1.874611865645e-06 0.0 
1.874611865645e-06 1.321148462492e-03 0.0 
0.0 0.0 -2.011453028336e-04 
-2.008980620244e-04 -1.010417860953e-06 0.0 
-1.010417860953e-06 1.324898106472e-03 0.0 
0.0 0.0 -2.008980620244e-04 
-3.774320917617e-05 3.566462655254e-05 0.0 
3.566462655254e-05 2.216925288799e-04 0.0 
0.0 0.0 -3.898704224316e-05 
-6.749434365589e-05 3.096998135248e-05 0.0 
3.096998135248e-05 4.319785382730e-04 0.0 
0.0 0.0 -6.911201714261e-05 
-2.005699367862e-04 -7.190292655297e-07 0.0 
-7.190292655297e-07 1.323013138076e-03 0.0 
0.0 0.0 -2.005699367862e-04 
-1.680240814146e-04 2.828255466262e-05 0.0 
2.828255466262e-05 1.134108335992e-03 0.0 
0.0 0.0 -1.687435400630e-04 
-2.016835406704e-04 -3.156370070795e-06 0.0 
-3.156370070795e-06 1.329078538970e-03 0.0 
0.0 0.0 -2.016835406704e-04 
-1.793487015674e-04 3.012936828637e-05 0.0 
3.012936828637e-05 1.204201687729e-03 0.0 
0.0 0.0 -1.788807376869e-04 
-1.896811634642e-04 3.473757623144e-05 0.0 
3.473757623144e-05 1.274809396155e-03 0.0 
0.0 0.0 -1.889858754357e-04 
-9.329662399263e-05 -3.052995434082e-05 0.0 
-3.052995434082e-05 6.062639241622e-04 0.0 
0.0 0.0 -9.401191312989e-05 
-2.000004866553e-04 -4.935042552872e-06 0.0 
-4.935042552872e-06 1.365934607507e-03 0.0 
0.0 0.0 -1.977152396198e-04 
-2.004002946706e-04 1.743259095834e-05 0.0 
1.743259095834e-05 1.363643771933e-03 0.0 
0.0 0.0 -1.982534774566e-04 
-1.735523764126e-04 -3.096544822671e-05 0.0 
-3.096544822671e-05 1.160586461079e-03 0.0 
0.0 0.0 -1.736242777500e-04 
-1.844507237627e-04 -3.076693800438e-05 0.0 
-3.076693800438e-05 1.234271765678e-03 0.0 
0.0 0.0 -1.838666131227e-04 
-1.480705946354e-04 -2.799822277007e-05 0.0 
-2.799822277007e-05 9.966603041907e-04 0.0 
0.0 0.0 -1.488773473547e-04 
0.0 0.0 0.0 
0.0 0.0 0.0 
0.0 0.0 0.0 
-9.787607230901e-05 -3.033430602603e-05 0.0 
-3.033430602603e-05 6.248974769917e-04 0.0 
0.0 0.0 -9.525361646419e-05 
-1.594166567358e-05 -3.750042762657e-06 0.0 
-3.750042762657e-06 8.963110813763e-05 0.0 
0.0 0.0 -1.545597323287e-05 
-1.766298993527e-04 -2.600424007003e-05 0.0 
-2.600424007003e-05 1.189008728009e-03 0.0 
0.0 0.0 -1.766728545426e-04 
-1.011715525641e-04 2.892404910577e-05 0.0 
2.892404910577e-05 6.528362141215e-04 0.0 
0.0 0.0 -1.013053728898e-04 
-1.643672164407e-04 2.795643146507e-05 0.0 
2.795643146507e-05 1.094563530101e-03 0.0 
0.0 0.0 -1.648525347569e-04 
-5.293095072300e-05 -2.919541751065e-05 0.0 
-2.919541751065e-05 3.265136357570e-04 0.0 
0.0 0.0 -5.257162719418e-05 
-2.326140168062e-05 1.809898427410e-05 0.0 
1.809898427410e-05 1.126266936620e-04 0.0 
0.0 0.0 -2.603928234478e-05 
-1.740902369364e-04 -2.842066329623e-05 0.0 
-2.842066329623e-05 1.173125089393e-03 0.0 
0.0 0.0 -1.742502449863e-04 
-1.033465261807e-04 -2.962592743150e-05 0.0 
-2.962592743150e-05 6.925891601377e-04 0.0 
0.0 0.0 -1.051812066754e-04 
-8.643013593859e-05 3.008982733389e-05 0.0 
3.008982733389e-05 5.377346504154e-04 0.0 
0.0 0.0 -8.417044846400e-05 
-1.640235310558e-04 -2.864236577619e-05 0.0 
-2.864236577619e-05 1.105176284391e-03 0.0 
0.0 0.0 -1.644154061664e-04 
-1.767953130454e-04 2.924397373916e-05 0.0 
2.924397373916e-05 1.186936749162e-03 0.0 
0.0 0.0 -1.783361800308e-04 
-8.342488227328e-05 -3.047437538585e-05 0.0 
-3.047437538585e-05 5.389729855638e-04 0.0 
0.0 0.0 -8.404105178381e-05 
-1.553105581953e-04 -3.047408891050e-05 0.0 
-3.047408891050e-05 1.042435393668e-03 0.0 
0.0 0.0 -1.553470185564e-04 
-1.377037381347e-04 2.897215065226e-05 0.0 
2.897215065226e-05 9.063511737441e-04 0.0 
0.0 0.0 -1.377261412248e-04 
-1.487663362168e-04 3.034863814033e-05 0.0 
3.034863814033e-05 9.863621124124e-04 0.0 
0.0 0.0 -1.492918029589e-04 
-1.536565537427e-04 2.792959174996e-05 0.0 
2.792959174996e-05 1.019186869417e-03 0.0 
0.0 0.0 -1.536336870150e-04 
-8.703976113534e-05 2.837055784379e-05 0.0 
2.837055784379e-05 5.518675504069e-04 0.0 
0.0 0.0 -8.683226689744e-05 
-1.002022259484e-04 -2.590961570230e-05 0.0 
-2.590961570230e-05 6.551468687222e-04 0.0 
0.0 0.0 -9.977007195992e-05 
-1.093881919947e-04 -2.770239582758e-05 0.0 
-2.770239582758e-05 7.220131976624e-04 0.0 
0.0 0.0 -1.093958643288e-04 
-1.406127741505e-04 2.917136878775e-05 0.0 
2.917136878775e-05 9.268398262502e-04 0.0 
0.0 0.0 -1.406784318969e-04 
-1.687115161712e-04 -3.067342872161e-05 0.0 
-3.067342872161e-05 1.136830953558e-03 0.0 
0.0 0.0 -1.687651353947e-04 
-1.585913072065e-04 2.928358840365e-05 0.0 
2.928358840365e-05 1.052859338839e-03 0.0 
0.0 0.0 -1.580633810106e-04 
-5.479081598616e-05 2.994038105978e-05 0.0 
2.994038105978e-05 3.289222848753e-04 0.0 
0.0 0.0 -5.528240989263e-05 
-1.746871843674e-04 3.283276217726e-05 0.0 
3.283276217726e-05 1.185116148222e-03 0.0 
0.0 0.0 -1.775271150753e-04 
-1.679442359996e-04 3.131022344942e-05 0.0 
3.131022344942e-05 1.115031446851e-03 0.0 
0.0 0.0 -1.675626104125e-04 
-1.221593488371e-04 3.511867114280e-05 0.0 
3.511867114280e-05 8.006612417280e-04 0.0 
0.0 0.0 -1.216572242888e-04 
-1.462466688388e-04 2.908933395677e-05 0.0 
2.908933395677e-05 9.660970915257e-04 0.0 
0.0 0.0 -1.463062179487e-04 
-1.447835164611e-04 2.956128772271e-05 0.0 
2.956128772271e-05 9.567010152770e-04 0.0 
0.0 0.0 -1.449838819924e-04 
-1.792333390310e-04 -3.168391798873e-05 0.0 
-3.168391798873e-05 1.203028324022e-03 0.0 
0.0 0.0 -1.778043281469e-04 
-1.726861877255e-04 2.779707870147e-05 0.0 
2.779707870147e-05 1.157249200719e-03 0.0 
0.0 0.0 -1.726459165900e-04 
-1.329452909279e-04 -2.927403005553e-05 0.0 
-2.927403005553e-05 8.870966851266e-04 0.0 
0.0 0.0 -1.330039573441e-04 
-1.775653267684e-04 -2.916250387629e-05 0.0 
-2.916250387629e-05 1.203364525945e-03 0.0 
0.0 0.0 -1.786308073928e-04 
-1.654805505207e-04 2.898950024976e-05 0.0 
2.898950024976e-05 1.100881704438e-03 0.0 
0.0 0.0 -1.655124361118e-04 
-1.580020696379e-04 -2.712101494930e-05 0.0 
-2.712101494930e-05 1.052848737751e-03 0.0 
0.0 0.0 -1.580622427210e-04 
-1.810952274087e-04 -3.284061138223e-05 0.0 
-3.284061138223e-05 1.222270948259e-03 0.0 
0.0 0.0 -1.815025845867e-04 
-1.775177136140e-04 -3.096279402686e-05 0.0 
-3.096279402686e-05 1.194150968252e-03 0.0 
0.0 0.0 -1.772606145979e-04 
-1.518616300347e-04 -3.096354740043e-05 0.0 
-3.096354740043e-05 1.015068895178e-03 0.0 
0.0 0.0 -1.517726872707e-04 
-1.496823891535e-04 -2.920446452269e-05 0.0 
-2.920446452269e-05 1.003862088151e-03 0.0 
0.0 0.0 -1.497848398488e-04 
-5.427687096238e-05 2.854055310501e-05 0.0 
2.854055310501e-05 3.273443379495e-04 0.0 
0.0 0.0 -5.466547164956e-05 
-5.095033440368e-05 2.883575061878e-05 0.0 
2.883575061878e-05 3.031424762161e-04 0.0 
0.0 0.0 -5.122137633346e-05 
-3.072034194903e-05 -3.506956867742e-05 0.0 
-3.506956867742e-05 1.557986335542e-04 0.0 
0.0 0.0 -2.814555096794e-05 
-1.579898709992e-05 2.384950188939e-07 0.0 
2.384950188939e-07 9.239980657952e-05 0.0 
0.0 0.0 -1.548055260559e-05 
-1.719981887166e-04 -3.054801319503e-05 0.0 
-3.054801319503e-05 1.160032239923e-03 0.0 
0.0 0.0 -1.726497055680e-04 
-1.730057153277e-04 2.894349992059e-05 0.0 
2.894349992059e-05 1.155971227885e-03 0.0 
0.0 0.0 -1.735259579760e-04 
-1.534650184937e-05 9.500651036844e-07 0.0 
9.500651036844e-07 8.883806811954e-05 0.0 
0.0 0.0 -1.543927480913e-05 
-1.729354271187e-04 -2.918916139558e-05 0.0 
-2.918916139558e-05 1.170988397774e-03 0.0 
0.0 0.0 -1.740447999656e-04 
-1.236089081148e-04 3.200079916068e-05 0.0 
3.200079916068e-05 8.273931967603e-04 0.0 
0.0 0.0 -1.265519798902e-04 
-1.594739007149e-04 -3.000529878065e-05 0.0 
-3.000529878065e-05 1.075639781327e-03 0.0 
0.0 0.0 -1.601216174199e-04 
-1.636627678593e-04 2.889886741851e-05 0.0 
2.889886741851e-05 1.086851557310e-03 0.0 
0.0 0.0 -1.635645035532e-04 
-7.625528765098e-05 2.781792169367e-05 0.0 
2.781792169367e-05 4.777485640918e-04 0.0 
0.0 0.0 -7.635943377870e-05 
-1.632628531148e-04 -2.978415075944e-05 0.0 
-2.978415075944e-05 1.096266397172e-03 0.0 
0.0 0.0 -1.631933750172e-04 
-1.207910536096e-04 -4.061404171323e-05 0.0 
-4.061404171323e-05 8.019844783726e-04 0.0 
0.0 0.0 -1.215026445147e-04 
-1.504315644849e-04 -2.965320847345e-05 0.0 
-2.965320847345e-05 1.005966507733e-03 0.0 
0.0 0.0 -1.500583224091e-04 
-1.846754410923e-04 3.352091310646e-05 0.0 
3.352091310646e-05 1.245792346023e-03 0.0 
0.0 0.0 -1.864447358774e-04 
-5.279032525833e-05 2.208619701697e-05 0.0 
2.208619701697e-05 3.133772429488e-04 0.0 
0.0 0.0 -5.313656330857e-05 
-1.831953493923e-04 -2.511536867923e-05 0.0 
-2.511536867923e-05 1.231406037521e-03 0.0 
0.0 0.0 -1.822568313532e-04 
-1.571776203955e-04 -2.822373229928e-05 0.0 
-2.822373229928e-05 1.054015413805e-03 0.0 
0.0 0.0 -1.572433088830e-04 
-5.834406746481e-05 3.055754480025e-05 0.0 
3.055754480025e-05 3.570231696704e-04 0.0 
0.0 0.0 -5.895916886618e-05 
-6.008933693805e-05 -2.693292101219e-05 0.0 
-2.693292101219e-05 3.827519316289e-04 0.0 
0.0 0.0 -6.052350288525e-05 
-1.184340009129e-04 2.989577006112e-05 0.0 
2.989577006112e-05 7.732438321287e-04 0.0 
0.0 0.0 -1.186440953039e-04 
-1.421755537841e-04 3.042033410873e-05 0.0 
3.042033410873e-05 9.320324598368e-04 0.0 
0.0 0.0 -1.411471141782e-04 
-8.083756678408e-05 2.897464216654e-05 0.0 
2.897464216654e-05 5.134881601291e-04 0.0 
0.0 0.0 -8.144657762318e-05 
-1.627359267385e-04 -3.016848544890e-05 0.0 
-3.016848544890e-05 1.091242501789e-03 0.0 
0.0 0.0 -1.627679727590e-04 
-1.463730196707e-04 -3.358422439378e-05 0.0 
-3.358422439378e-05 9.789488013624e-04 0.0 
0.0 0.0 -1.472519143444e-04 
-1.152261228612e-04 2.820263711739e-05 0.0 
2.820263711739e-05 7.517075314357e-04 0.0 
0.0 0.0 -1.155139551463e-04 
-1.539721025279e-04 -2.767350944115e-05 0.0 
-2.767350944115e-05 1.026348259349e-03 0.0 
0.0 0.0 -1.532636563680e-04 
-1.586940631686e-04 -2.997071389939e-05 0.0 
-2.997071389939e-05 1.067020467702e-03 0.0 
0.0 0.0 -1.588045401937e-04 
-1.586913358411e-04 3.263624713145e-05 0.0 
3.263624713145e-05 1.044672031080e-03 0.0 
0.0 0.0 -1.576021588438e-04 
-4.550621427776e-05 -2.757364409112e-05 0.0 
-2.757364409112e-05 2.786110438531e-04 0.0 
0.0 0.0 -4.588123838153e-05 
-1.095812830794e-04 2.804439789498e-05 0.0 
2.804439789498e-05 7.132223363853e-04 0.0 
0.0 0.0 -1.099287363951e-04 
-1.704275424327e-04 3.124314915643e-05 0.0 
3.124314915643e-05 1.141631777300e-03 0.0 
0.0 0.0 -1.711692687607e-04 
-1.617652388930e-04 -2.976223953276e-05 0.0 
-2.976223953276e-05 1.085248624266e-03 0.0 
0.0 0.0 -1.617298285672e-04 
-9.932779323652e-05 3.247070041484e-05 0.0 
3.247070041484e-05 6.407303244551e-04 0.0 
0.0 0.0 -1.000025319772e-04 
-1.372362599773e-04 -2.929140934786e-05 0.0 
-2.929140934786e-05 9.170515288159e-04 0.0 
0.0 0.0 -1.372955424611e-04 
-1.781532306591e-04 -3.038825115168e-05 0.0 
-3.038825115168e-05 1.202531523701e-03 0.0 
0.0 0.0 -1.781379491294e-04 
-1.507990336472e-04 2.853112124702e-05 0.0 
2.853112124702e-05 1.007077831849e-03 0.0 
0.0 0.0 -1.520953659658e-04 
-2.863924773083e-05 -3.201515123380e-05 0.0 
-3.201515123380e-05 1.478580457183e-04 0.0 
0.0 0.0 -2.710093308172e-05 
-2.955220796048e-05 -3.089794713249e-05 0.0 
-3.089794713249e-05 1.503888673604e-04 0.0 
0.0 0.0 -2.753304043464e-05 
-5.273989345688e-05 -2.717936029267e-05 0.0 
-2.717936029267e-05 3.233117972350e-04 0.0 
0.0 0.0 -5.201063495363e-05 
-1.693284171481e-04 3.002349955065e-05 0.0 
3.002349955065e-05 1.126502264070e-03 0.0 
0.0 0.0 -1.691756543757e-04 
-1.472485094623e-04 2.900717882423e-05 0.0 
2.900717882423e-05 9.697797839987e-04 0.0 
0.0 0.0 -1.466250473148e-04 
-1.255735830660e-04 -3.222245594843e-05 0.0 
-3.222245594843e-05 8.565507458900e-04 0.0 
0.0 0.0 -1.276957716749e-04 
-1.309605655324e-04 2.844392373699e-05 0.0 
2.844392373699e-05 8.631762486065e-04 0.0 
0.0 0.0 -1.311842221922e-04 
-1.705994579248e-04 -2.912195010466e-05 0.0 
-2.912195010466e-05 1.150350461823e-03 0.0 
0.0 0.0 -1.708795005752e-04 
-1.197229653638e-04 2.838848019244e-05 0.0 
2.838848019244e-05 7.818358523863e-04 0.0 
0.0 0.0 -1.198307167265e-04 
-1.587419479579e-04 2.931310418594e-05 0.0 
2.931310418594e-05 1.056312831607e-03 0.0 
0.0 0.0 -1.592449238259e-04 
-5.334541196780e-05 -2.737759313696e-05 0.0 
-2.737759313696e-05 3.380073693947e-04 0.0 
0.0 0.0 -5.422683465997e-05 
-1.820085836177e-04 3.596926237720e-05 0.0 
3.596926237720e-05 1.220521251632e-03 0.0 
0.0 0.0 -1.817296696507e-04 
-1.149006963939e-04 -2.979806393901e-05 0.0 
-2.979806393901e-05 7.621150101384e-04 0.0 
0.0 0.0 -1.150969102169e-04 
-5.891651114318e-05 -2.911512363173e-05 0.0 
-2.911512363173e-05 3.703729731158e-04 0.0 
0.0 0.0 -5.833749487792e-05 
-1.097144826369e-04 -3.210843000057e-05 0.0 
-3.210843000057e-05 7.218042111898e-04 0.0 
0.0 0.0 -1.096669806773e-04 
-8.504854609334e-05 2.789969650457e-05 0.0 
2.789969650457e-05 5.434275787344e-04 0.0 
0.0 0.0 -8.575010502695e-05 
-6.662869610534e-05 -2.920394233023e-05 0.0 
-2.920394233023e-05 4.253303798385e-04 0.0 
0.0 0.0 -6.679150530213e-05 
-1.281203035701e-04 2.817302591064e-05 0.0 
2.817302591064e-05 8.398276961004e-04 0.0 
0.0 0.0 -1.284742647491e-04 
0.0 0.0 0.0 
0.0 0.0 0.0 
0.0 0.0 0.0 
0.0 0.0 0.0 
0.0 0.0 0.0 
0.0 0.0 0.0 
-1.445088964832e-04 -2.893688476098e-05 0.0 
-2.893688476098e-05 9.674073108634e-04 0.0 
0.0 0.0 -1.445400849015e-04 
-4.892423638284e-05 -2.632452238192e-05 0.0 
-2.632452238192e-05 3.096365629157e-04 0.0 
0.0 0.0 -5.004674077938e-05 
-1.457493822096e-04 -2.962474104526e-05 0.0 
-2.962474104526e-05 9.767716228798e-04 0.0 
0.0 0.0 -1.458658349781e-04 
-1.415183033580e-04 -2.921664079038e-05 0.0 
-2.921664079038e-05 9.471227879207e-04 0.0 
0.0 0.0 -1.415771022166e-04 
-9.224355795817e-05 2.937565561905e-05 0.0 
2.937565561905e-05 5.919004124542e-04 0.0 
0.0 0.0 -9.266636470267e-05 
-6.202111907479e-05 2.972814442546e-05 0.0 
2.972814442546e-05 3.814986374049e-04 0.0 
0.0 0.0 -6.243334508123e-05 
-1.705073254263e-04 -3.058386286971e-05 0.0 
-3.058386286971e-05 1.147565254188e-03 0.0 
0.0 0.0 -1.706579733040e-04 
-3.233825504350e-05 -1.324403429526e-05 0.0 
-1.324403429526e-05 1.436007537479e-04 0.0 
0.0 0.0 -3.071301381923e-05 
-9.032577727252e-05 2.603440625466e-05 0.0 
2.603440625466e-05 5.755517471348e-04 0.0 
0.0 0.0 -9.007223908940e-05 
-1.758201471036e-04 -2.496828995894e-05 0.0 
-2.496828995894e-05 1.183557369344e-03 0.0 
0.0 0.0 -1.763300484694e-04 
-4.234236352950e-05 2.833023666619e-05 0.0 
2.833023666619e-05 2.526301394403e-04 0.0 
0.0 0.0 -4.466356309917e-05 
-1.370406890181e-04 -2.882178052615e-05 0.0 
-2.882178052615e-05 9.084977336144e-04 0.0 
0.0 0.0 -1.363328868096e-04 
-1.251017907088e-04 -3.342170659080e-05 0.0 
-3.342170659080e-05 8.360831923250e-04 0.0 
0.0 0.0 -1.262442940543e-04 
-4.243995648314e-05 -2.885964126201e-05 0.0 
-2.885964126201e-05 2.574366796815e-04 0.0 
0.0 0.0 -4.263591946142e-05 
-1.739889600423e-04 -2.690839563986e-05 0.0 
-2.690839563986e-05 1.171323703451e-03 0.0 
0.0 0.0 -1.738083055154e-04 
-1.553384911707e-04 -2.978982874275e-05 0.0 
-2.978982874275e-05 1.040098894659e-03 0.0 
0.0 0.0 -1.552347842588e-04 
-5.039241409165e-05 2.679614467153e-05 0.0 
2.679614467153e-05 2.983848210045e-04 0.0 
0.0 0.0 -5.046983505462e-05 
-1.747728255798e-04 -2.774380167709e-05 0.0 
-2.774380167709e-05 1.177437247902e-03 0.0 
0.0 0.0 -1.749780669508e-04 
-1.757727651253e-04 2.551606084145e-05 0.0 
2.551606084145e-05 1.168074540028e-03 0.0 
0.0 0.0 -1.753502448874e-04 
-5.505726652839e-05 -3.093038002705e-05 0.0 
-3.093038002705e-05 3.465532391474e-04 0.0 
0.0 0.0 -5.552857102027e-05 
-7.317029843834e-05 -3.194987778490e-05 0.0 
-3.194987778490e-05 4.614269377597e-04 0.0 
0.0 0.0 -7.202002872087e-05 
-5.677279645057e-05 -2.927873741732e-05 0.0 
-2.927873741732e-05 3.560995133108e-04 0.0 
0.0 0.0 -5.686660089389e-05 
-1.535151853389e-04 -2.933036748660e-05 0.0 
-2.933036748660e-05 1.036192859014e-03 0.0 
0.0 0.0 -1.544885262514e-04 
-1.242530601195e-04 2.861329611066e-05 0.0 
2.861329611066e-05 8.120316343009e-04 0.0 
0.0 0.0 -1.241455235793e-04 
-1.762597939278e-04 2.757012001528e-05 0.0 
2.757012001528e-05 1.169740478878e-03 0.0 
0.0 0.0 -1.754294197466e-04 
-1.711850229745e-04 2.864038460658e-05 0.0 
2.864038460658e-05 1.139237277346e-03 0.0 
0.0 0.0 -1.710046063662e-04 
-1.497953027623e-04 -2.952090845357e-05 0.0 
-2.952090845357e-05 1.006551656477e-03 0.0 
0.0 0.0 -1.501751650533e-04 
-1.503962620125e-04 2.908649725408e-05 0.0 
2.908649725408e-05 9.959224082837e-04 0.0 
0.0 0.0 -1.506140208444e-04 
-4.755962799573e-05 2.961725835591e-05 0.0 
2.961725835591e-05 2.764290125414e-04 0.0 
0.0 0.0 -4.738039998630e-05 
-1.544053010064e-04 2.921080048960e-05 0.0 
2.921080048960e-05 1.025561320549e-03 0.0 
0.0 0.0 -1.549280912548e-04 
-1.557486119605e-04 2.953656624643e-05 0.0 
2.953656624643e-05 1.031918401575e-03 0.0 
0.0 0.0 -1.555717122721e-04 
-1.233043498576e-04 -2.852184502998e-05 0.0 
-2.852184502998e-05 8.222615261922e-04 0.0 
0.0 0.0 -1.237306916726e-04 
-1.467661945651e-04 -2.993950527874e-05 0.0 
-2.993950527874e-05 9.778837446955e-04 0.0 
0.0 0.0 -1.462911275235e-04 
-1.606564974618e-04 -3.021309399430e-05 0.0 
-3.021309399430e-05 1.078198516753e-03 0.0 
0.0 0.0 -1.607123627396e-04 
-1.117498861518e-04 2.850262572474e-05 0.0 
2.850262572474e-05 7.245894762642e-04 0.0 
0.0 0.0 -1.115305788895e-04 
-1.668451985095e-04 2.929977478704e-05 0.0 
2.929977478704e-05 1.108305524184e-03 0.0 
0.0 0.0 -1.665387401245e-04 
-1.057225299962e-04 3.155313044250e-05 0.0 
3.155313044250e-05 6.826770249726e-04 0.0 
0.0 0.0 -1.044775758143e-04 
-1.196746585436e-04 -2.994940432812e-05 0.0 
-2.994940432812e-05 7.923200024953e-04 0.0 
0.0 0.0 -1.194095964715e-04 
-8.002674295402e-05 3.358846946639e-05 0.0 
3.358846946639e-05 5.079680145232e-04 0.0 
0.0 0.0 -8.013437995356e-05 
-8.330364669841e-05 -2.724402051282e-05 0.0 
-2.724402051282e-05 5.442521817240e-04 0.0 
0.0 0.0 -8.372375584921e-05 
-1.515465133375e-04 2.950843049766e-05 0.0 
2.950843049766e-05 1.000906494757e-03 0.0 
0.0 0.0 -1.511009726023e-04 
-1.144286686682e-04 -2.867408820424e-05 0.0 
-2.867408820424e-05 7.585750249113e-04 0.0 
0.0 0.0 -1.145674989690e-04 
-6.084802831260e-05 -2.991902315111e-05 0.0 
-2.991902315111e-05 3.860715331104e-04 0.0 
0.0 0.0 -6.116241410045e-05 
-3.353257843682e-05 -2.498074177198e-05 0.0 
-2.498074177198e-05 1.896944408225e-04 0.0 
0.0 0.0 -3.278510925449e-05 
-1.508054349256e-04 -2.953924267332e-05 0.0 
-2.953924267332e-05 1.009022901988e-03 0.0 
0.0 0.0 -1.507672500721e-04 
-6.144560576959e-05 2.946678310881e-05 0.0 
2.946678310881e-05 3.752423857179e-04 0.0 
0.0 0.0 -6.160741095528e-05 
-1.795193782850e-04 3.015966066455e-05 0.0 
3.015966066455e-05 1.220916437867e-03 0.0 
0.0 0.0 -1.828075300492e-04 
-1.564210717973e-04 2.928181705796e-05 0.0 
2.928181705796e-05 1.038697099430e-03 0.0 
0.0 0.0 -1.565825172896e-04 
-1.601803915316e-04 2.879046078541e-05 0.0 
2.879046078541e-05 1.065098279090e-03 0.0 
0.0 0.0 -1.605560195386e-04 
-1.924510169718e-04 -3.681008615861e-06 0.0 
-3.681008615861e-06 1.266195614385e-03 0.0 
0.0 0.0 -1.927094427628e-04 
-9.917312679716e-05 -3.248065919378e-05 0.0 
-3.248065919378e-05 6.537270345769e-04 0.0 
0.0 0.0 -9.956065683388e-05 
-5.578848237072e-05 2.919143814272e-05 0.0 
2.919143814272e-05 3.356753976095e-04 0.0 
0.0 0.0 -5.597427817213e-05 
-3.764707681470e-05 3.152158318827e-05 0.0 
3.152158318827e-05 2.055269805242e-04 0.0 
0.0 0.0 -3.744316153082e-05 
-1.513908916278e-04 -2.965358922743e-05 0.0 
-2.965358922743e-05 1.015985434205e-03 0.0 
0.0 0.0 -1.514863114221e-04 
-1.425433722621e-04 3.012022841548e-05 0.0 
3.012022841548e-05 9.394937491690e-04 0.0 
0.0 0.0 -1.421023406183e-04 
-2.681800511095e-05 2.581926760662e-05 0.0 
2.581926760662e-05 1.385235032261e-04 0.0 
0.0 0.0 -2.788272662613e-05 
-7.959731755198e-05 -2.970357934053e-05 0.0 
-2.970357934053e-05 5.241419312225e-04 0.0 
0.0 0.0 -8.100711145360e-05 
-4.597324572621e-05 -2.624539862290e-05 0.0 
-2.624539862290e-05 3.001894932538e-04 0.0 
0.0 0.0 -4.869105516194e-05 
-1.408940546525e-04 -2.794056746742e-05 0.0 
-2.794056746742e-05 9.400214273018e-04 0.0 
0.0 0.0 -1.408175133641e-04 
-8.220239972126e-05 -3.150539897154e-05 0.0 
-3.150539897154e-05 5.540054204137e-04 0.0 
0.0 0.0 -8.531818138572e-05 
-1.420072539078e-04 2.886098902268e-05 0.0 
2.886098902268e-05 9.363360353424e-04 0.0 
0.0 0.0 -1.420190347897e-04 
-8.142682941929e-05 -3.127687653374e-05 0.0 
-3.127687653374e-05 5.123505803199e-04 0.0 
0.0 0.0 -8.006333120906e-05 
-1.676020446456e-04 -3.106665135098e-05 0.0 
-3.106665135098e-05 1.123875757488e-03 0.0 
0.0 0.0 -1.672214290798e-04 
-7.117572739314e-05 2.988293947474e-05 0.0 
2.988293947474e-05 4.447820599446e-04 0.0 
0.0 0.0 -7.152995986871e-05 
-1.528626195223e-04 -2.956851905674e-05 0.0 
-2.956851905674e-05 1.025224946446e-03 0.0 
0.0 0.0 -1.527886262531e-04 
-5.059375724921e-05 -2.868524116335e-05 0.0 
-2.868524116335e-05 3.156970290875e-04 0.0 
0.0 0.0 -5.064650353833e-05 
-1.471629417592e-04 -2.959313709753e-05 0.0 
-2.959313709753e-05 9.860061145689e-04 0.0 
0.0 0.0 -1.471833001180e-04 
-1.144539418112e-04 -2.473861065929e-05 0.0 
-2.473861065929e-05 7.560825404925e-04 0.0 
0.0 0.0 -1.140633649831e-04 
-1.560905633689e-04 2.900023350889e-05 0.0 
2.900023350889e-05 1.035339225371e-03 0.0 
0.0 0.0 -1.562332567718e-04 
-8.041016399686e-05 2.814724334195e-05 0.0 
2.814724334195e-05 5.070504478833e-04 0.0 
0.0 0.0 -8.025424390503e-05 
-4.885024697967e-05 3.157288993858e-05 0.0 
3.157288993858e-05 2.863708627365e-04 0.0 
0.0 0.0 -4.915965252508e-05 
-1.306396509784e-04 -2.896286188210e-05 0.0 
-2.896286188210e-05 8.760759259617e-04 0.0 
0.0 0.0 -1.318090263425e-04 
-1.421840376928e-04 -2.883026291404e-05 0.0 
-2.883026291404e-05 9.494244979280e-04 0.0 
0.0 0.0 -1.419644564515e-04 
-1.018318441446e-04 2.874180221663e-05 0.0 
2.874180221663e-05 6.553763140814e-04 0.0 
0.0 0.0 -1.016412246321e-04 
-1.420263861118e-04 -3.127951009604e-05 0.0 
-3.127951009604e-05 9.447561927313e-04 0.0 
0.0 0.0 -1.417981522837e-04 
-5.634120637729e-05 -2.901059335072e-05 0.0 
-2.901059335072e-05 3.528621573190e-04 0.0 
0.0 0.0 -5.638371198943e-05 
-1.449671090102e-04 2.903465807275e-05 0.0 
2.903465807275e-05 9.569114950414e-04 0.0 
0.0 0.0 -1.446420687869e-04 
-4.539864356175e-05 -2.892446416447e-05 0.0 
-2.892446416447e-05 2.698402511523e-04 0.0 
0.0 0.0 -4.421511183446e-05 
-1.729769140722e-04 -3.077324556460e-05 0.0 
-3.077324556460e-05 1.164178924141e-03 0.0 
0.0 0.0 -1.725604168134e-04 
-1.475790650913e-04 -2.860800824990e-05 0.0 
-2.860800824990e-05 9.878754875081e-04 0.0 
0.0 0.0 -1.475206686141e-04 
-1.559172333653e-04 -2.909982133967e-05 0.0 
-2.909982133967e-05 1.044176401684e-03 0.0 
0.0 0.0 -1.555576518016e-04 
-1.814415509393e-04 -3.096082582331e-05 0.0 
-3.096082582331e-05 1.219536896500e-03 0.0 
0.0 0.0 -1.806695418618e-04 
-1.243391768637e-04 -2.906810919430e-05 0.0 
-2.906810919430e-05 8.271957787415e-04 0.0 
0.0 0.0 -1.244215412621e-04 
-4.664731672080e-05 2.860386537301e-05 0.0 
2.860386537301e-05 2.677194554706e-04 0.0 
0.0 0.0 -4.622233884158e-05 
-1.385662832492e-04 -2.918174486768e-05 0.0 
-2.918174486768e-05 9.260656173097e-04 0.0 
0.0 0.0 -1.385923280275e-04 
-1.786563386237e-04 3.101548389749e-05 0.0 
3.101548389749e-05 1.192786428697e-03 0.0 
0.0 0.0 -1.784944650888e-04 
-7.162593897649e-05 -2.768839620490e-05 0.0 
-2.768839620490e-05 4.607586366936e-04 0.0 
0.0 0.0 -7.179147874927e-05 
-1.555062997913e-04 -2.993363634807e-05 0.0 
-2.993363634807e-05 1.045876444410e-03 0.0 
0.0 0.0 -1.558013491646e-04 
-1.563360137049e-04 -3.042238300922e-05 0.0 
-3.042238300922e-05 1.046916559821e-03 0.0 
0.0 0.0 -1.562447224125e-04 
-5.757013598642e-05 2.991181572022e-05 0.0 
2.991181572022e-05 3.517212459558e-04 0.0 
0.0 0.0 -5.821047451129e-05 
-1.428729262720e-04 -2.942561466243e-05 0.0 
-2.942561466243e-05 9.560791547854e-04 0.0 
0.0 0.0 -1.428864875989e-04 
-1.287965022508e-04 -2.896617927485e-05 0.0 
-2.896617927485e-05 8.622522049021e-04 0.0 
0.0 0.0 -1.299469088572e-04 
-6.374853467835e-05 -2.810218119480e-05 0.0 
-2.810218119480e-05 4.066202706617e-04 0.0 
0.0 0.0 -6.420979177598e-05 
-7.595105816060e-05 -2.936393149418e-05 0.0 
-2.936393149418e-05 4.942830544211e-04 0.0 
0.0 0.0 -7.670872189436e-05 
-1.201712666697e-04 -2.803941660002e-05 0.0 
-2.803941660002e-05 7.961944137223e-04 0.0 
0.0 0.0 -1.200650238334e-04 
-1.519360189963e-04 2.891732000513e-05 0.0 
2.891732000513e-05 1.005387589283e-03 0.0 
0.0 0.0 -1.519214610183e-04 
-9.356553445047e-05 -2.682931258762e-05 0.0 
-2.682931258762e-05 6.080636784229e-04 0.0 
0.0 0.0 -9.302852286394e-05 
-1.148225546297e-04 -2.766542218562e-05 0.0 
-2.766542218562e-05 7.592972424786e-04 0.0 
0.0 0.0 -1.147482613702e-04 
-1.503198881368e-04 2.949228603565e-05 0.0 
2.949228603565e-05 9.943051761167e-04 0.0 
0.0 0.0 -1.501005480629e-04 
-1.374005660342e-04 3.157606201505e-05 0.0 
3.157606201505e-05 9.005540063851e-04 0.0 
0.0 0.0 -1.366500051239e-04 
-1.347749466574e-04 2.885807283713e-05 0.0 
2.885807283713e-05 8.878066807984e-04 0.0 
0.0 0.0 -1.347600488312e-04 
-1.145362197550e-04 2.550352213040e-05 0.0 
2.550352213040e-05 7.456789542705e-04 0.0 
0.0 0.0 -1.144140342440e-04 
-1.695537970541e-04 -2.847502421030e-05 0.0 
-2.847502421030e-05 1.141434530816e-03 0.0 
0.0 0.0 -1.695946584253e-04 
-1.342454359541e-04 -2.916302751234e-05 0.0 
-2.916302751234e-05 8.959753783056e-04 0.0 
0.0 0.0 -1.342994322642e-04 
-1.322842234433e-04 -2.713149803653e-05 0.0 
-2.713149803653e-05 8.716283599231e-04 0.0 
0.0 0.0 -1.308078780678e-04 
-1.770483125758e-04 -3.816029544209e-05 0.0 
-3.816029544209e-05 1.206702644282e-03 0.0 
0.0 0.0 -1.790376217081e-04 
-1.611476114444e-04 -3.043480837471e-05 0.0 
-3.043480837471e-05 1.081441463167e-03 0.0 
0.0 0.0 -1.610150566254e-04 
-1.476770815163e-04 2.899987339716e-05 0.0 
2.899987339716e-05 9.753794939162e-04 0.0 
0.0 0.0 -1.476201541636e-04 
-1.611330782201e-04 2.905567155013e-05 0.0 
2.905567155013e-05 1.069983027336e-03 0.0 
0.0 0.0 -1.610516503497e-04 
-8.740593351110e-05 -2.912313751195e-05 0.0 
-2.912313751195e-05 5.726625862703e-04 0.0 
0.0 0.0 -8.793939796372e-05 
-8.171492670432e-05 -2.932902119484e-05 0.0 
-2.932902119484e-05 5.334328304052e-04 0.0 
0.0 0.0 -8.232547559154e-05 
-4.800447364230e-05 -3.012015532788e-05 0.0 
-3.012015532788e-05 2.869100395093e-04 0.0 
0.0 0.0 -4.696026287600e-05 
-1.441554214945e-04 -2.906909676709e-05 0.0 
-2.906909676709e-05 9.649388349351e-04 0.0 
0.0 0.0 -1.441889713514e-04 
-8.596373130116e-05 -2.989926546104e-05 0.0 
-2.989926546104e-05 5.634483412629e-04 0.0 
0.0 0.0 -8.662504503560e-05 
-1.451435112077e-04 -2.967645824646e-05 0.0 
-2.967645824646e-05 9.706064754812e-04 0.0 
0.0 0.0 -1.452980301833e-04 
-1.396166376490e-04 -3.014351176356e-05 0.0 
-3.014351176356e-05 9.327092269117e-04 0.0 
0.0 0.0 -1.398369520768e-04 
-1.154194635136e-04 -2.909513876125e-05 0.0 
-2.909513876125e-05 7.637657077962e-04 0.0 
0.0 0.0 -1.153554527486e-04 
-7.239252784308e-05 2.950013499781e-05 0.0 
2.950013499781e-05 4.534037638191e-04 0.0 
0.0 0.0 -7.290299529228e-05 
-7.749228313482e-05 2.843063642712e-05 0.0 
2.843063642712e-05 4.849158394470e-04 0.0 
0.0 0.0 -7.722881688633e-05 
-7.663260260599e-05 2.940565300322e-05 0.0 
2.940565300322e-05 4.835296870814e-04 0.0 
0.0 0.0 -7.715173463647e-05 
-8.222724475914e-05 2.943935483783e-05 0.0 
2.943935483783e-05 5.226854242882e-04 0.0 
0.0 0.0 -8.276944949314e-05 
-5.179916544049e-05 2.954513306229e-05 0.0 
2.954513306229e-05 3.061348363473e-04 0.0 
0.0 0.0 -5.170396853346e-05 
-1.651578227306e-04 -2.992587384468e-05 0.0 
-2.992587384468e-05 1.111733425696e-03 0.0 
0.0 0.0 -1.652773843454e-04 
-9.948855107052e-05 2.885367954846e-05 0.0 
2.885367954846e-05 6.405116978971e-04 0.0 
0.0 0.0 -9.964436741213e-05 
-1.662477458002e-04 -3.047676524263e-05 0.0 
-3.047676524263e-05 1.116582984939e-03 0.0 
0.0 0.0 -1.661983567841e-04 
-1.051663505476e-04 2.891924803496e-05 0.0 
2.891924803496e-05 6.798882607135e-04 0.0 
0.0 0.0 -1.051955911267e-04 
-1.389859752123e-04 2.935926346480e-05 0.0 
2.935926346480e-05 9.155140148814e-04 0.0 
0.0 0.0 -1.390270654409e-04 
-1.191970428493e-04 2.933621105808e-05 0.0 
2.933621105808e-05 7.778286910325e-04 0.0 
0.0 0.0 -1.192747742027e-04 
-1.135913502195e-04 -2.809027510556e-05 0.0 
-2.809027510556e-05 7.506742469309e-04 0.0 
0.0 0.0 -1.135115339107e-04 
-5.106044890974e-05 -2.876916180737e-05 0.0 
-2.876916180737e-05 3.172111510085e-04 0.0 
0.0 0.0 -5.125664266653e-05 
-1.752549930891e-04 2.732480278546e-05 0.0 
2.732480278546e-05 1.160084193771e-03 0.0 
0.0 0.0 -1.742537888328e-04 
-1.812425183446e-04 -3.207933204969e-05 0.0 
-3.207933204969e-05 1.217777268391e-03 0.0 
0.0 0.0 -1.798074479024e-04 
-1.447184212035e-04 2.760935291747e-05 0.0 
2.760935291747e-05 9.561038377489e-04 0.0 
0.0 0.0 -1.447555322295e-04 
-8.799170026550e-05 2.995591967052e-05 0.0 
2.995591967052e-05 5.618551981543e-04 0.0 
0.0 0.0 -8.838578500301e-05 
-1.291031073422e-04 2.928905617391e-05 0.0 
2.928905617391e-05 8.466471064723e-04 0.0 
0.0 0.0 -1.291430278065e-04 
-1.459743152275e-04 3.063361272201e-05 0.0 
3.063361272201e-05 9.624952180302e-04 0.0 
0.0 0.0 -1.456278041792e-04 
-9.171757827104e-05 -2.955677248983e-05 0.0 
-2.955677248983e-05 6.024985060915e-04 0.0 
0.0 0.0 -9.223187090242e-05 
-9.603230277326e-05 -2.698956011667e-05 0.0 
-2.698956011667e-05 6.292701278524e-04 0.0 
0.0 0.0 -9.591352384746e-05 
-7.135185944171e-05 -2.955414223554e-05 0.0 
-2.955414223554e-05 4.555824851191e-04 0.0 
0.0 0.0 -7.108646760088e-05 
-6.173474433371e-05 -2.821557394065e-05 0.0 
-2.821557394065e-05 3.922513376835e-04 0.0 
0.0 0.0 -6.198456146935e-05 
-9.316424430426e-05 -2.882780269440e-05 0.0 
-2.882780269440e-05 6.119471839096e-04 0.0 
0.0 0.0 -9.355109297069e-05 
-6.583505479960e-05 2.848905537375e-05 0.0 
2.848905537375e-05 4.054485477537e-04 0.0 
0.0 0.0 -6.590301617946e-05 
-5.935575914896e-05 -3.007558356553e-05 0.0 
-3.007558356553e-05 3.768942854085e-04 0.0 
0.0 0.0 -5.983332410254e-05 
-1.186940583282e-04 -2.896555378225e-05 0.0 
-2.896555378225e-05 7.883535485114e-04 0.0 
0.0 0.0 -1.188421469351e-04 
-1.433278607698e-04 2.930912982368e-05 0.0 
2.930912982368e-05 9.454702771552e-04 0.0 
0.0 0.0 -1.433226991522e-04 
-1.697903046334e-04 2.624054691426e-05 0.0 
2.624054691426e-05 1.127471310275e-03 0.0 
0.0 0.0 -1.692916167909e-04 
-1.151638097456e-05 7.698944133971e-06 0.0 
7.698944133971e-06 4.425408472007e-05 0.0 
0.0 0.0 -7.213325994108e-06 
-1.023191081859e-04 2.827729942445e-05 0.0 
2.827729942445e-05 6.591938883861e-04 0.0 
0.0 0.0 -1.022830222654e-04 
-1.009919753862e-04 2.844629819877e-05 0.0 
2.844629819877e-05 6.501505763727e-04 0.0 
0.0 0.0 -1.009864671718e-04 
-9.380039017869e-05 2.950262979894e-05 0.0 
2.950262979894e-05 6.011532312502e-04 0.0 
0.0 0.0 -9.402143779290e-05 
-1.401352914634e-04 2.989136649985e-05 0.0 
2.989136649985e-05 9.247108301771e-04 0.0 
0.0 0.0 -1.401624631175e-04 
-1.092974960508e-04 2.941276833440e-05 0.0 
2.941276833440e-05 7.090642486070e-04 0.0 
0.0 0.0 -1.094316366672e-04 
-7.543451708232e-05 3.049036373989e-05 0.0 
3.049036373989e-05 4.754198894243e-04 0.0 
0.0 0.0 -7.582576345695e-05 
-9.891173193058e-05 -2.816068551534e-05 0.0 
-2.816068551534e-05 6.514539666403e-04 0.0 
0.0 0.0 -9.917482013514e-05 
-1.630278650561e-04 2.958590404027e-05 0.0 
2.958590404027e-05 1.077076320853e-03 0.0 
0.0 0.0 -1.620679414655e-04 
-7.702359286569e-05 -2.963111287796e-05 0.0 
-2.963111287796e-05 4.862675717220e-04 0.0 
0.0 0.0 -7.538495559814e-05 
-3.103148260616e-05 2.671216949097e-05 0.0 
2.671216949097e-05 1.654737900210e-04 0.0 
0.0 0.0 -3.198827131509e-05 
-4.232169889993e-05 2.776421737267e-05 0.0 
2.776421737267e-05 2.393069009664e-04 0.0 
0.0 0.0 -4.176863060322e-05 
-6.634744212772e-05 2.949925572575e-05 0.0 
2.949925572575e-05 4.106962890164e-04 0.0 
0.0 0.0 -6.666360735527e-05 
-7.816150117384e-05 2.918629348564e-05 0.0 
2.918629348564e-05 4.928270898341e-04 0.0 
0.0 0.0 -7.858957244827e-05 
-1.065476951188e-04 2.906412835157e-05 0.0 
2.906412835157e-05 6.891124057052e-04 0.0 
0.0 0.0 -1.064874080537e-04 
-1.046128651473e-04 -2.789283442515e-05 0.0 
-2.789283442515e-05 6.906263249349e-04 0.0 
0.0 0.0 -1.047611508630e-04 
-4.666634849019e-05 -3.250127183419e-05 0.0 
-3.250127183419e-05 2.826590938430e-04 0.0 
0.0 0.0 -4.639139346366e-05 
-4.422650169735e-05 -3.160442122719e-05 0.0 
-3.160442122719e-05 2.477476152980e-04 0.0 
0.0 0.0 -4.147803243573e-05 
-1.354421094691e-04 -3.477058406277e-05 0.0 
-3.477058406277e-05 8.849155839961e-04 0.0 
0.0 0.0 -1.332761831430e-04 
-6.529992034190e-05 -3.112094005781e-05 0.0 
-3.112094005781e-05 4.161966199991e-04 0.0 
0.0 0.0 -6.545963842888e-05 
-1.599173792757e-04 2.884984773938e-05 0.0 
2.884984773938e-05 1.062308732050e-03 0.0 
0.0 0.0 -1.601101668940e-04 
-1.640145792258e-04 2.789294437519e-05 0.0 
2.789294437519e-05 1.089847340667e-03 0.0 
0.0 0.0 -1.640071129216e-04 
-1.358364218526e-04 -2.864773194701e-05 0.0 
-2.864773194701e-05 9.015663085663e-04 0.0 
0.0 0.0 -1.352075507658e-04 
-1.691090522456e-04 2.845331053896e-05 0.0 
2.845331053896e-05 1.125515006597e-03 0.0 
0.0 0.0 -1.689126476464e-04 
-1.733194685301e-04 2.616049938131e-05 0.0 
2.616049938131e-05 1.162751062090e-03 0.0 
0.0 0.0 -1.746466296582e-04 
-1.113103175969e-04 -2.904492495481e-05 0.0 
-2.904492495481e-05 7.344679781971e-04 0.0 
0.0 0.0 -1.111327575513e-04 
-1.543419338426e-04 2.788856242459e-05 0.0 
2.788856242459e-05 1.022661884889e-03 0.0 
0.0 0.0 -1.543563508806e-04 
-5.167148472389e-05 -2.833543670219e-05 0.0 
-2.833543670219e-05 3.235982211277e-04 0.0 
0.0 0.0 -5.212100276158e-05 
-1.031213424207e-04 -2.889239140152e-05 0.0 
-2.889239140152e-05 6.806580574394e-04 0.0 
0.0 0.0 -1.034186014727e-04 
-1.034709279330e-04 2.786266615920e-05 0.0 
2.786266615920e-05 6.660582760632e-04 0.0 
0.0 0.0 -1.031952205665e-04 
-6.028919658758e-05 2.668092513971e-05 0.0 
2.668092513971e-05 3.649654199911e-04 0.0 
0.0 0.0 -5.961607156176e-05 
-4.213494566204e-05 -2.931849266110e-05 0.0 
-2.931849266110e-05 2.567319807664e-04 0.0 
0.0 0.0 -4.220635737303e-05 
-8.654776667845e-05 2.918952194239e-05 0.0 
2.918952194239e-05 5.528325958387e-04 0.0 
0.0 0.0 -8.706093026186e-05 
-1.004769780148e-04 -2.772227019028e-05 0.0 
-2.772227019028e-05 6.610823099679e-04 0.0 
0.0 0.0 -1.005514351764e-04 
-1.060430099672e-04 -2.796832696173e-05 0.0 
-2.796832696173e-05 6.996637265558e-04 0.0 
0.0 0.0 -1.060597130133e-04 
-7.058429708504e-05 2.696376381882e-05 0.0 
2.696376381882e-05 4.358412197202e-04 0.0 
0.0 0.0 -7.020228199149e-05 
-1.149702114763e-04 2.916861666016e-05 0.0 
2.916861666016e-05 7.482016199016e-04 0.0 
0.0 0.0 -1.149926572041e-04 
-1.018961975089e-04 -2.764432959957e-05 0.0 
-2.764432959957e-05 6.700658488310e-04 0.0 
0.0 0.0 -1.018518768314e-04 
-1.078880338181e-04 2.829261719461e-05 0.0 
2.829261719461e-05 6.977513239731e-04 0.0 
0.0 0.0 -1.077528216683e-04 
-7.751274952550e-05 -2.834816828620e-05 0.0 
-2.834816828620e-05 5.042136075216e-04 0.0 
0.0 0.0 -7.808165313150e-05 
-1.487528116968e-04 -2.959551626362e-05 0.0 
-2.959551626362e-05 9.968448808877e-04 0.0 
0.0 0.0 -1.488167264463e-04 
-1.501088830239e-04 -3.002822277470e-05 0.0 
-3.002822277470e-05 1.002368649967e-03 0.0 
0.0 0.0 -1.497700977071e-04 
-1.036611104552e-04 2.803937657742e-05 0.0 
2.803937657742e-05 6.681495958179e-04 0.0 
0.0 0.0 -1.035656927818e-04 
-1.696613133079e-04 2.895531178363e-05 0.0 
2.895531178363e-05 1.131067865055e-03 0.0 
0.0 0.0 -1.700243568296e-04 
-5.727268235776e-05 -2.821956991103e-05 0.0 
-2.821956991103e-05 3.625919856272e-04 0.0 
0.0 0.0 -5.774536142498e-05 
-1.807378797874e-04 3.083863400090e-05 0.0 
3.083863400090e-05 1.216171179677e-03 0.0 
0.0 0.0 -1.812757540428e-04 
-1.107278423169e-04 2.926924818457e-05 0.0 
2.926924818457e-05 7.182977638167e-04 0.0 
0.0 0.0 -1.107203250571e-04 
-1.769840871489e-04 3.489293866335e-05 0.0 
3.489293866335e-05 1.208578847919e-03 0.0 
0.0 0.0 -1.805188677947e-04 
-1.376232392385e-04 -2.850354822354e-05 0.0 
-2.850354822354e-05 9.154990550666e-04 0.0 
0.0 0.0 -1.371610485043e-04 
-5.639757509564e-05 2.971463148157e-05 0.0 
2.971463148157e-05 3.421275802933e-04 0.0 
0.0 0.0 -5.682853890605e-05 
-1.399417025807e-04 -2.902435300106e-05 0.0 
-2.902435300106e-05 9.305736500539e-04 0.0 
0.0 0.0 -1.393929574840e-04 
-1.722474544452e-04 2.867109208845e-05 0.0 
2.867109208845e-05 1.148502992599e-03 0.0 
0.0 0.0 -1.722554387731e-04 
-1.162793321609e-04 2.903309505420e-05 0.0 
2.903309505420e-05 7.572372561352e-04 0.0 
0.0 0.0 -1.162159973290e-04 
-8.454182586218e-05 -2.784090404248e-05 0.0 
-2.784090404248e-05 5.479081559787e-04 0.0 
0.0 0.0 -8.432093988479e-05 
-1.438863246759e-04 -2.930384340139e-05 0.0 
-2.930384340139e-05 9.596245582464e-04 0.0 
0.0 0.0 -1.435863591065e-04 
-1.111530589725e-04 2.833421624542e-05 0.0 
2.833421624542e-05 7.207793346527e-04 0.0 
0.0 0.0 -1.110366786716e-04 
-4.573862906079e-05 3.039490600873e-05 0.0 
3.039490600873e-05 2.711520722753e-04 0.0 
0.0 0.0 -4.684619297515e-05 
-1.870955320648e-04 3.081437672742e-05 0.0 
3.081437672742e-05 1.264311478356e-03 0.0 
0.0 0.0 -1.888615860838e-04 
-4.248482680505e-05 3.050161066116e-05 0.0 
3.050161066116e-05 2.352616891617e-04 0.0 
0.0 0.0 -4.121632266810e-05 
-1.771088727211e-04 -2.938926809476e-05 0.0 
-2.938926809476e-05 1.212909459550e-03 0.0 
0.0 0.0 -1.791639973893e-04 
-1.771566623871e-04 2.828554015672e-05 0.0 
2.828554015672e-05 1.177203819354e-03 0.0 
0.0 0.0 -1.763972732427e-04 
-1.529661344135e-04 -2.952014478129e-05 0.0 
-2.952014478129e-05 1.026629378024e-03 0.0 
0.0 0.0 -1.530775205951e-04 
-1.359594450574e-04 3.325053532527e-05 0.0 
3.325053532527e-05 8.922454278314e-04 0.0 
0.0 0.0 -1.356269418710e-04 
-1.644239763161e-04 -3.062030831265e-05 0.0 
-3.062030831265e-05 1.103176739090e-03 0.0 
0.0 0.0 -1.641343017522e-04 
-1.073732254289e-04 -2.774733318227e-05 0.0 
-2.774733318227e-05 7.082936325730e-04 0.0 
0.0 0.0 -1.073249441206e-04 
-1.251403265974e-04 -2.940532100017e-05 0.0 
-2.940532100017e-05 8.313761795825e-04 0.0 
0.0 0.0 -1.250629185325e-04 
-1.768873143391e-04 2.872670345058e-05 0.0 
2.872670345058e-05 1.193015524360e-03 0.0 
0.0 0.0 -1.787673453274e-04 
-1.533533607312e-04 2.921855117467e-05 0.0 
2.921855117467e-05 1.014614364332e-03 0.0 
0.0 0.0 -1.532196148344e-04 
-1.544705070620e-04 -2.993018470978e-05 0.0 
-2.993018470978e-05 1.033859279725e-03 0.0 
0.0 0.0 -1.542337544108e-04 
-1.470105554746e-04 3.050415116692e-05 0.0 
3.050415116692e-05 9.703822682050e-04 0.0 
0.0 0.0 -1.467116565689e-04 
-5.190467070807e-05 2.923657524478e-05 0.0 
2.923657524478e-05 3.125147726987e-04 0.0 
0.0 0.0 -5.258904166863e-05 
-1.585497388479e-04 -3.036107211364e-05 0.0 
-3.036107211364e-05 1.064785683487e-03 0.0 
0.0 0.0 -1.586792192556e-04 
-1.867823602022e-04 -4.423334107086e-07 0.0 
-4.423334107086e-07 1.306209639085e-03 0.0 
0.0 0.0 -1.902127661242e-04 
-1.799952498831e-04 3.276671323295e-05 0.0 
3.276671323295e-05 1.203252067028e-03 0.0 
0.0 0.0 -1.803293472919e-04 
-1.036283366723e-04 2.928971230122e-05 0.0 
2.928971230122e-05 6.701110471026e-04 0.0 
0.0 0.0 -1.038552253682e-04 
-1.348425674588e-04 -3.045731572340e-05 0.0 
-3.045731572340e-05 8.997616749557e-04 0.0 
0.0 0.0 -1.353016656203e-04 
-1.306027592527e-04 3.244558953540e-05 0.0 
3.244558953540e-05 8.557133569559e-04 0.0 
0.0 0.0 -1.301630146057e-04 
-1.102559799513e-04 -2.882778976320e-05 0.0 
-2.882778976320e-05 7.287644293276e-04 0.0 
0.0 0.0 -1.102912351658e-04 
-1.488807296024e-04 2.952972860655e-05 0.0 
2.952972860655e-05 9.845338823176e-04 0.0 
0.0 0.0 -1.489188890839e-04 
-1.543542798127e-04 2.941367575548e-05 0.0 
2.941367575548e-05 1.023344437634e-03 0.0 
0.0 0.0 -1.545169747944e-04 
-3.601998227787e-05 -3.147937655175e-05 0.0 
-3.147937655175e-05 2.167298522228e-04 0.0 
0.0 0.0 -3.699600978290e-05 
-6.801309851159e-05 2.873975774867e-05 0.0 
2.873975774867e-05 4.179957074076e-04 0.0 
0.0 0.0 -6.762408315678e-05 
-1.091497725492e-04 2.831094670187e-05 0.0 
2.831094670187e-05 7.067995318092e-04 0.0 
0.0 0.0 -1.090469065526e-04 
-1.032766425254e-04 -2.822190353465e-05 0.0 
-2.822190353465e-05 6.789187616226e-04 0.0 
0.0 0.0 -1.031335432607e-04 
-1.099107092343e-04 2.839546535684e-05 0.0 
2.839546535684e-05 7.120464211608e-04 0.0 
0.0 0.0 -1.098117726994e-04 
-1.811121707674e-04 -2.882441196002e-05 0.0 
-2.882441196002e-05 1.237667273714e-03 0.0 
0.0 0.0 -1.838140267123e-04 
-1.748866853698e-04 2.592400427167e-05 0.0 
2.592400427167e-05 1.162787881872e-03 0.0 
0.0 0.0 -1.744029230557e-04 
-1.761187774956e-04 -2.949711616705e-05 0.0 
-2.949711616705e-05 1.184397801600e-03 0.0 
0.0 0.0 -1.760448152485e-04 
-9.882657544989e-05 -2.718055687570e-05 0.0 
-2.718055687570e-05 6.452046498512e-04 0.0 
0.0 0.0 -9.834296651366e-05 
-1.624121206718e-04 2.836552699441e-05 0.0 
2.836552699441e-05 1.080211199209e-03 0.0 
0.0 0.0 -1.624070342850e-04 
-1.485275509050e-04 -2.918103576740e-05 0.0 
-2.918103576740e-05 9.950382173190e-04 0.0 
0.0 0.0 -1.484873542982e-04 
-1.805851059428e-04 3.002465538148e-05 0.0 
3.002465538148e-05 1.203046068310e-03 0.0 
0.0 0.0 -1.797622605636e-04 
-1.528376056470e-04 -3.044040189818e-05 0.0 
-3.044040189818e-05 1.026184810031e-03 0.0 
0.0 0.0 -1.532447004422e-04 
-1.087929439093e-04 -2.876357224537e-05 0.0 
-2.876357224537e-05 7.196828290104e-04 0.0 
0.0 0.0 -1.089952584493e-04 
-1.049428023921e-04 2.811224010391e-05 0.0 
2.811224010391e-05 6.773445023375e-04 0.0 
0.0 0.0 -1.048418778190e-04 
-1.594051931958e-04 2.879840167248e-05 0.0 
2.879840167248e-05 1.056615529052e-03 0.0 
0.0 0.0 -1.590166690394e-04 
-1.738854057278e-04 -3.150615969996e-05 0.0 
-3.150615969996e-05 1.172347359832e-03 0.0 
0.0 0.0 -1.740425842566e-04 
-1.602067260143e-04 2.962540646325e-05 0.0 
2.962540646325e-05 1.063407039079e-03 0.0 
0.0 0.0 -1.600263377024e-04 
-1.549984104106e-04 2.928819239640e-05 0.0 
2.928819239640e-05 1.025787824362e-03 0.0 
0.0 0.0 -1.545642443906e-04 
-1.691936656852e-04 3.051239000977e-05 0.0 
3.051239000977e-05 1.122993866756e-03 0.0 
0.0 0.0 -1.687134228720e-04 
-1.733516422302e-04 -2.975799224699e-05 0.0 
-2.975799224699e-05 1.180345126224e-03 0.0 
0.0 0.0 -1.751295320469e-04 
-1.641761333923e-04 2.964778985093e-05 0.0 
2.964778985093e-05 1.092162958901e-03 0.0 
0.0 0.0 -1.644209996092e-04 
-1.334029697755e-04 2.921704941968e-05 0.0 
2.921704941968e-05 8.764535109902e-04 0.0 
0.0 0.0 -1.334339325936e-04 
-9.629059373289e-05 2.489782199496e-05 0.0 
2.489782199496e-05 6.169410298163e-04 0.0 
0.0 0.0 -9.629846621400e-05 
-1.586938225999e-04 -2.873074405230e-05 0.0 
-2.873074405230e-05 1.064075480535e-03 0.0 
0.0 0.0 -1.585741496670e-04 
-1.515595690388e-04 2.887166217167e-05 0.0 
2.887166217167e-05 1.004996075128e-03 0.0 
0.0 0.0 -1.516193629955e-04 
-6.015828007311e-05 2.762481471313e-05 0.0 
2.762481471313e-05 3.663761052862e-04 0.0 
0.0 0.0 -6.027332919800e-05 
-1.086909470084e-04 -2.820919446967e-05 0.0 
-2.820919446967e-05 7.173514364266e-04 0.0 
0.0 0.0 -1.086183444390e-04 
-1.229754690729e-04 2.795896853918e-05 0.0 
2.795896853918e-05 8.030480005080e-04 0.0 
0.0 0.0 -1.229099206091e-04 
-1.348799327205e-04 -2.950552833220e-05 0.0 
-2.950552833220e-05 8.992538641476e-04 0.0 
0.0 0.0 -1.347984704188e-04 
-6.075364579538e-05 2.991920213964e-05 0.0 
2.991920213964e-05 3.704456528343e-04 0.0 
0.0 0.0 -6.085885447137e-05 
-1.045153483669e-04 -2.832422319633e-05 0.0 
-2.832422319633e-05 6.878595611022e-04 0.0 
0.0 0.0 -1.044304007945e-04 
-1.446479183094e-04 -2.971056222020e-05 0.0 
-2.971056222020e-05 9.673313026673e-04 0.0 
0.0 0.0 -1.445542801823e-04 
-1.100060346855e-04 2.737837681636e-05 0.0 
2.737837681636e-05 7.101421002689e-04 0.0 
0.0 0.0 -1.094113629060e-04 
-1.135560558010e-04 2.921951781404e-05 0.0 
2.921951781404e-05 7.388528165105e-04 0.0 
0.0 0.0 -1.136984934835e-04 
-1.423148992764e-04 -3.064755775960e-05 0.0 
-3.064755775960e-05 9.560334399626e-04 0.0 
0.0 0.0 -1.433495728088e-04 
-1.141564569451e-04 2.617777317916e-05 0.0 
2.617777317916e-05 7.567005103659e-04 0.0 
0.0 0.0 -1.145704449725e-04 
-2.757145428849e-05 3.124043686616e-05 0.0 
3.124043686616e-05 1.158691705071e-04 0.0 
0.0 0.0 -2.367971326705e-05 
-1.286436208275e-04 -2.914932669868e-05 0.0 
-2.914932669868e-05 8.571420336644e-04 0.0 
0.0 0.0 -1.287122655492e-04 
-1.576792209224e-04 2.858094066912e-05 0.0 
2.858094066912e-05 1.045870248437e-03 0.0 
0.0 0.0 -1.577753644542e-04 
-1.791334658592e-04 3.034271459186e-05 0.0 
3.034271459186e-05 1.201260178593e-03 0.0 
0.0 0.0 -1.795306929420e-04 
-1.201199461226e-04 2.829067472047e-05 0.0 
2.829067472047e-05 7.831094393938e-04 0.0 
0.0 0.0 -1.199963822083e-04 
-1.234760846803e-04 2.932006013550e-05 0.0 
2.932006013550e-05 8.076650151061e-04 0.0 
0.0 0.0 -1.235581517372e-04 
-1.448894787138e-04 -2.961840001921e-05 0.0 
-2.961840001921e-05 9.648117356658e-04 0.0 
0.0 0.0 -1.443143808439e-04 
-3.842228905377e-05 3.298025909580e-05 0.0 
3.298025909580e-05 1.877070748678e-04 0.0 
0.0 0.0 -3.370741825810e-05 
-1.534698621194e-04 2.830991160432e-05 0.0 
2.830991160432e-05 1.016299861510e-03 0.0 
0.0 0.0 -1.535042456599e-04 
-1.293327155133e-04 -2.926708160322e-05 0.0 
-2.926708160322e-05 8.610400331546e-04 0.0 
0.0 0.0 -1.292921254718e-04 
-1.147182049359e-04 -2.793616799804e-05 0.0 
-2.793616799804e-05 7.557812794768e-04 0.0 
0.0 0.0 -1.142359468334e-04 
-1.540623557645e-04 -2.883021402370e-05 0.0 
-2.883021402370e-05 1.033805831342e-03 0.0 
0.0 0.0 -1.540837914240e-04 
-5.903277897526e-05 -2.572226208233e-05 0.0 
-2.572226208233e-05 3.742033353159e-04 0.0 
0.0 0.0 -5.919629073606e-05 
-1.595117392718e-04 -2.911342610863e-05 0.0 
-2.911342610863e-05 1.072689065088e-03 0.0 
0.0 0.0 -1.596834805621e-04 
-1.756154530572e-04 2.998485745368e-05 0.0 
2.998485745368e-05 1.171075078384e-03 0.0 
0.0 0.0 -1.756318130281e-04 
-1.493681148336e-04 2.791229911131e-05 0.0 
2.791229911131e-05 9.866947003208e-04 0.0 
0.0 0.0 -1.492337925182e-04 
-1.600204318750e-04 -2.992073590521e-05 0.0 
-2.992073590521e-05 1.071726323190e-03 0.0 
0.0 0.0 -1.596862481900e-04 
-1.621340043399e-04 -3.014172433171e-05 0.0 
-3.014172433171e-05 1.091751763439e-03 0.0 
0.0 0.0 -1.624029330596e-04 
-1.746509001542e-04 -3.044303714749e-05 0.0 
-3.044303714749e-05 1.180873641495e-03 0.0 
0.0 0.0 -1.752053866267e-04 
-4.948712705896e-05 3.475475083029e-05 0.0 
3.475475083029e-05 2.597308075809e-04 0.0 
0.0 0.0 -4.376112143753e-05 
-1.485603472495e-04 -2.938683707073e-05 0.0 
-2.938683707073e-05 9.955677447018e-04 0.0 
0.0 0.0 -1.487877812405e-04 
-1.753095903577e-04 -2.864829451917e-05 0.0 
-2.864829451917e-05 1.185024325076e-03 0.0 
0.0 0.0 -1.760859927092e-04 
-1.649582730615e-04 2.923348981816e-05 0.0 
2.923348981816e-05 1.094893116976e-03 0.0 
0.0 0.0 -1.644733909230e-04 
-1.395633018813e-04 2.809652890280e-05 0.0 
2.809652890280e-05 9.186543678537e-04 0.0 
0.0 0.0 -1.394655130409e-04 
-1.099611654985e-04 -2.884597329549e-05 0.0 
-2.884597329549e-05 7.257598080870e-04 0.0 
0.0 0.0 -1.098787062330e-04 
-1.209104407542e-04 2.806295656769e-05 0.0 
2.806295656769e-05 7.902223779801e-04 0.0 
0.0 0.0 -1.210417811416e-04 
-3.627372368124e-05 3.163530406853e-05 0.0 
3.163530406853e-05 2.039563500799e-04 0.0 
0.0 0.0 -3.723255725578e-05 
-1.701409886376e-04 2.983058263758e-05 0.0 
2.983058263758e-05 1.132501183017e-03 0.0 
0.0 0.0 -1.699366983435e-04 
-6.411787123099e-05 2.946502422422e-05 0.0 
2.946502422422e-05 3.968096580559e-04 0.0 
0.0 0.0 -6.464531002275e-05 
-5.822127891541e-05 2.749733519323e-05 0.0 
2.749733519323e-05 3.240066522493e-04 0.0 
0.0 0.0 -5.373429374777e-05 
-1.578004283830e-04 -2.825196317906e-05 0.0 
-2.825196317906e-05 1.061236006077e-03 0.0 
0.0 0.0 -1.581724742171e-04 
-1.810622318850e-04 2.872864159815e-05 0.0 
2.872864159815e-05 1.210843086462e-03 0.0 
0.0 0.0 -1.810174791607e-04 
-5.321706588155e-05 -2.711802848501e-05 0.0 
-2.711802848501e-05 3.340376413156e-04 0.0 
0.0 0.0 -5.359773372147e-05 
-1.254962992742e-04 -2.828232383433e-05 0.0 
-2.828232383433e-05 8.331892923083e-04 0.0 
0.0 0.0 -1.253787237607e-04 
-1.535703452329e-04 2.911412195335e-05 0.0 
2.911412195335e-05 1.018186094186e-03 0.0 
0.0 0.0 -1.535721660833e-04 
-1.174362539490e-04 -2.931439951264e-05 0.0 
-2.931439951264e-05 7.791228558505e-04 0.0 
0.0 0.0 -1.176010908151e-04 
-6.016009984885e-05 -2.873248464068e-05 0.0 
-2.873248464068e-05 3.813492115723e-04 0.0 
0.0 0.0 -6.041048265268e-05 
-7.982616898902e-05 2.825432291390e-05 0.0 
2.825432291390e-05 5.000258330386e-04 0.0 
0.0 0.0 -7.939046230173e-05 
-3.959656613655e-05 2.469153921964e-05 0.0 
2.469153921964e-05 2.420385823143e-04 0.0 
0.0 0.0 -4.293244787628e-05 
-5.330489538924e-05 2.915892379323e-05 0.0 
2.915892379323e-05 3.232040539711e-04 0.0 
0.0 0.0 -5.412237138681e-05 
-4.874214390061e-05 2.903207581372e-05 0.0 
2.903207581372e-05 2.849835911649e-04 0.0 
0.0 0.0 -4.858390135199e-05 
-1.298006905679e-04 2.813403754230e-05 0.0 
2.813403754230e-05 8.507929242894e-04 0.0 
0.0 0.0 -1.297186540265e-04 
-1.946741073417e-04 7.177668550600e-07 0.0 
7.177668550600e-07 1.366433303394e-03 0.0 
0.0 0.0 -1.986219281740e-04 
-6.700715880952e-05 2.589861000239e-05 0.0 
2.589861000239e-05 3.925714316040e-04 0.0 
0.0 0.0 -6.366506350946e-05 
-1.734025229933e-04 2.872134779497e-05 0.0 
2.872134779497e-05 1.153015807625e-03 0.0 
0.0 0.0 -1.730133492871e-04 
-9.662877635408e-05 2.832769241253e-05 0.0 
2.832769241253e-05 6.190294534954e-04 0.0 
0.0 0.0 -9.645761187127e-05 
-1.474086229932e-04 -3.111113571506e-05 0.0 
-3.111113571506e-05 9.884847841183e-04 0.0 
0.0 0.0 -1.478461150791e-04 
-4.750635885556e-05 2.975238453019e-05 0.0 
2.975238453019e-05 2.739120908498e-04 0.0 
0.0 0.0 -4.694079591042e-05 
-1.816621119292e-04 -2.878308347844e-05 0.0 
-2.878308347844e-05 1.218135406772e-03 0.0 
0.0 0.0 -1.810139427525e-04 
-4.655502041116e-05 -2.610306417390e-05 0.0 
-2.610306417390e-05 2.951982444198e-04 0.0 
0.0 0.0 -4.804032238546e-05 
-7.357331614798e-05 2.958595086467e-05 0.0 
2.958595086467e-05 4.672675042292e-04 0.0 
0.0 0.0 -7.493958354298e-05 
-1.550973332285e-04 2.796756386232e-05 0.0 
2.796756386232e-05 1.025417246301e-03 0.0 
0.0 0.0 -1.547320639971e-04 
-1.115692087861e-04 -2.839126116568e-05 0.0 
-2.839126116568e-05 7.371116053840e-04 0.0 
0.0 0.0 -1.115425826451e-04 
-1.699290889586e-04 -2.900940190171e-05 0.0 
-2.900940190171e-05 1.149889600330e-03 0.0 
0.0 0.0 -1.708594300032e-04 
-8.624183478928e-05 -2.912886792339e-05 0.0 
-2.912886792339e-05 5.626870180004e-04 0.0 
0.0 0.0 -8.644348757353e-05 
-1.569167022033e-04 -2.881123911490e-05 0.0 
-2.881123911490e-05 1.051025089677e-03 0.0 
0.0 0.0 -1.566669492989e-04 
-1.769191692021e-04 2.934973965132e-05 0.0 
2.934973965132e-05 1.199034094636e-03 0.0 
0.0 0.0 -1.798338780755e-04 
-1.495364599630e-04 2.975197277300e-05 0.0 
2.975197277300e-05 9.877659320422e-04 0.0 
0.0 0.0 -1.491119197843e-04 
-1.807112013151e-04 -2.761933473531e-05 0.0 
-2.761933473531e-05 1.210002262212e-03 0.0 
0.0 0.0 -1.792176209978e-04 
-1.628975544781e-04 -3.036779777295e-05 0.0 
-3.036779777295e-05 1.095193631651e-03 0.0 
0.0 0.0 -1.630977145684e-04 
-1.675201900776e-04 -3.024382898117e-05 0.0 
-3.024382898117e-05 1.126388508701e-03 0.0 
0.0 0.0 -1.675015638186e-04 
-5.424555064715e-05 2.680812076581e-05 0.0 
2.680812076581e-05 3.226336525028e-04 0.0 
0.0 0.0 -5.399133669915e-05 
-1.676277495680e-04 2.740316368874e-05 0.0 
2.740316368874e-05 1.112871955034e-03 0.0 
0.0 0.0 -1.673862058733e-04 
-1.578559859789e-04 2.827037287320e-05 0.0 
2.827037287320e-05 1.049443790061e-03 0.0 
0.0 0.0 -1.580046825171e-04 
-1.171678476607e-04 2.852988375933e-05 0.0 
2.852988375933e-05 7.623350065851e-04 0.0 
0.0 0.0 -1.168873383469e-04 
-7.813173762117e-05 2.766421590413e-05 0.0 
2.766421590413e-05 4.622030552975e-04 0.0 
0.0 0.0 -7.363010077577e-05 
-1.810895077962e-04 -2.908189886640e-05 0.0 
-2.908189886640e-05 1.245299465341e-03 0.0 
0.0 0.0 -1.848439230673e-04 
-6.258589564450e-05 2.973424717467e-05 0.0 
2.973424717467e-05 3.796477966190e-04 0.0 
0.0 0.0 -6.214069219561e-05 
-6.877743183419e-05 -3.283467012249e-05 0.0 
-3.283467012249e-05 4.454002116560e-04 0.0 
0.0 0.0 -6.982795868082e-05 
-1.656560229546e-04 3.018340289880e-05 0.0 
3.018340289880e-05 1.102559420523e-03 0.0 
0.0 0.0 -1.657595890666e-04 
-4.452637910278e-05 -2.463086619694e-05 0.0 
-2.463086619694e-05 2.688625379708e-04 0.0 
0.0 0.0 -4.409698994278e-05 
-1.188635475057e-04 -2.772391840776e-05 0.0 
-2.772391840776e-05 7.879380998938e-04 0.0 
0.0 0.0 -1.188635276708e-04 
-1.592882983328e-04 2.718156988550e-05 0.0 
2.718156988550e-05 1.054709056437e-03 0.0 
0.0 0.0 -1.589765888202e-04 
-1.772222272296e-04 -2.714101551062e-05 0.0 
-2.714101551062e-05 1.191839625875e-03 0.0 
0.0 0.0 -1.771732720199e-04 
-1.824779395496e-04 -2.648051372033e-05 0.0 
-2.648051372033e-05 1.225568720394e-03 0.0 
0.0 0.0 -1.816415620416e-04 
-1.546092874475e-04 -2.982910766663e-05 0.0 
-2.982910766663e-05 1.035340165495e-03 0.0 
0.0 0.0 -1.543237508850e-04 
-1.687071199467e-04 -3.097215296435e-05 0.0 
-3.097215296435e-05 1.133984998622e-03 0.0 
0.0 0.0 -1.685605813437e-04 
-1.021935529673e-04 2.852069401152e-05 0.0 
2.852069401152e-05 6.571110725585e-04 0.0 
0.0 0.0 -1.019073722143e-04 
-1.593527883530e-04 -2.978604002386e-05 0.0 
-2.978604002386e-05 1.069539853505e-03 0.0 
0.0 0.0 -1.593679286731e-04 
-8.787271678042e-05 2.812609072738e-05 0.0 
2.812609072738e-05 5.317977245242e-04 0.0 
0.0 0.0 -8.364764346898e-05 
-1.787194194283e-04 2.687014845945e-05 0.0 
2.687014845945e-05 1.178995119648e-03 0.0 
0.0 0.0 -1.772627823762e-04 
-9.805451043270e-05 2.760029222410e-05 0.0 
2.760029222410e-05 6.018798204524e-04 0.0 
0.0 0.0 -9.365644977482e-05 
-9.596485627522e-05 2.204290663138e-05 0.0 
2.204290663138e-05 6.347192065111e-04 0.0 
0.0 0.0 -9.866254784712e-05 
-1.159093866371e-04 2.840626684317e-05 0.0 
2.840626684317e-05 7.538245928729e-04 0.0 
0.0 0.0 -1.157644195874e-04 
-1.068023676316e-04 3.049840519302e-05 0.0 
3.049840519302e-05 6.737297633016e-04 0.0 
0.0 0.0 -1.036755264196e-04 
-1.327131526045e-04 -2.791089545436e-05 0.0 
-2.791089545436e-05 8.830463531689e-04 0.0 
0.0 0.0 -1.324954999561e-04 
-1.083462229029e-04 -2.835211655561e-05 0.0 
-2.835211655561e-05 7.134008523618e-04 0.0 
0.0 0.0 -1.081453164196e-04 
-1.141683981921e-04 -2.887541052425e-05 0.0 
-2.887541052425e-05 7.550230559135e-04 0.0 
0.0 0.0 -1.140931655197e-04 
-5.515908320108e-05 2.948502897213e-05 0.0 
2.948502897213e-05 3.310071093917e-04 0.0 
0.0 0.0 -5.528709606717e-05 
-1.104134789677e-04 2.840605379835e-05 0.0 
2.840605379835e-05 7.154837500031e-04 0.0 
0.0 0.0 -1.103023603459e-04 
-1.746713077398e-04 2.880636906730e-05 0.0 
2.880636906730e-05 1.164068735679e-03 0.0 
0.0 0.0 -1.743776871305e-04 
-1.783703106015e-04 3.636462111026e-05 0.0 
3.636462111026e-05 1.201299505939e-03 0.0 
0.0 0.0 -1.792895840060e-04 
-1.577150641991e-04 2.851269442524e-05 0.0 
2.851269442524e-05 1.044375076497e-03 0.0 
0.0 0.0 -1.575150703147e-04 
-1.745723709241e-04 2.909038873658e-05 0.0 
2.909038873658e-05 1.170222223010e-03 0.0 
0.0 0.0 -1.755400497234e-04 
-1.120725847370e-04 2.871981251597e-05 0.0 
2.871981251597e-05 7.269648264993e-04 0.0 
0.0 0.0 -1.119489732781e-04 
-1.675311839949e-04 2.887729147629e-05 0.0 
2.887729147629e-05 1.117903748534e-03 0.0 
0.0 0.0 -1.678529426297e-04 
-1.146259152953e-04 2.842710779289e-05 0.0 
2.842710779289e-05 7.448564873363e-04 0.0 
0.0 0.0 -1.145134881756e-04 
-1.710224470009e-04 2.842065442071e-05 0.0 
2.842065442071e-05 1.142895506605e-03 0.0 
0.0 0.0 -1.716593064874e-04 
-1.634807050442e-04 2.799270818855e-05 0.0 
2.799270818855e-05 1.086902354100e-03 0.0 
0.0 0.0 -1.634447856658e-04 
-1.622367908960e-04 -2.967988136421e-05 0.0 
-2.967988136421e-05 1.088570664713e-03 0.0 
0.0 0.0 -1.620677252808e-04 
-1.436975778517e-04 2.830432817314e-05 0.0 
2.830432817314e-05 9.480503595790e-04 0.0 
0.0 0.0 -1.437136475121e-04 
-1.063431585595e-04 2.840592411012e-05 0.0 
2.840592411012e-05 6.863040493332e-04 0.0 
0.0 0.0 -1.060995107696e-04 
-1.691497108962e-04 -2.743833599267e-05 0.0 
-2.743833599267e-05 1.134677276168e-03 0.0 
0.0 0.0 -1.689057885308e-04 
-1.381914899866e-04 2.790064750608e-05 0.0 
2.790064750608e-05 9.063015758904e-04 0.0 
0.0 0.0 -1.375454124849e-04 
-5.561996790627e-05 -3.071748806018e-05 0.0 
-3.071748806018e-05 3.409512690699e-04 0.0 
0.0 0.0 -5.492022919918e-05 
-6.179236649455e-05 -2.756467409787e-05 0.0 
-2.756467409787e-05 3.903060721867e-04 0.0 
0.0 0.0 -6.170691397715e-05 
-9.087582305261e-05 2.700291781953e-05 0.0 
2.700291781953e-05 5.782509110046e-04 0.0 
0.0 0.0 -9.092110591052e-05 
-1.259880962207e-04 2.776883270027e-05 0.0 
2.776883270027e-05 8.237716666486e-04 0.0 
0.0 0.0 -1.257717909469e-04 
-1.753841120844e-04 2.980647546350e-05 0.0 
2.980647546350e-05 1.173927080456e-03 0.0 
0.0 0.0 -1.760317983730e-04 
-1.577119756164e-04 -3.055430689054e-05 0.0 
-3.055430689054e-05 1.057688489879e-03 0.0 
0.0 0.0 -1.576653810449e-04 
-1.057975756223e-04 -2.876126628924e-05 0.0 
-2.876126628924e-05 6.965772625478e-04 0.0 
0.0 0.0 -1.056780804030e-04 
-1.401532218735e-04 -2.893519210654e-05 0.0 
-2.893519210654e-05 9.357130400283e-04 0.0 
0.0 0.0 -1.401741111350e-04 
-1.632303776345e-04 2.945240880963e-05 0.0 
2.945240880963e-05 1.086067743780e-03 0.0 
0.0 0.0 -1.632898652955e-04 
-1.698320922867e-04 -3.029692352669e-05 0.0 
-3.029692352669e-05 1.141081462631e-03 0.0 
0.0 0.0 -1.695868396911e-04 
-1.762766478419e-04 -2.148172006753e-05 0.0 
-2.148172006753e-05 1.172735995291e-03 0.0 
0.0 0.0 -1.741172379421e-04 
-1.423952570170e-04 2.784554782803e-05 0.0 
2.784554782803e-05 9.441048027351e-04 0.0 
0.0 0.0 -1.427691508950e-04 
-1.672340961037e-04 2.890076212539e-05 0.0 
2.890076212539e-05 1.110820323191e-03 0.0 
0.0 0.0 -1.670153566545e-04 
-1.196206745500e-04 -2.916305908743e-05 0.0 
-2.916305908743e-05 7.932912096618e-04 0.0 
0.0 0.0 -1.195780717481e-04 
-1.631267095900e-04 -2.877648753756e-05 0.0 
-2.877648753756e-05 1.093964271595e-03 0.0 
0.0 0.0 -1.629178051474e-04 
-1.193648583036e-04 2.813253978265e-05 0.0 
2.813253978265e-05 7.781106719393e-04 0.0 
0.0 0.0 -1.192674511187e-04 
-1.785040923208e-04 -2.833642482200e-05 0.0 
-2.833642482200e-05 1.202406861450e-03 0.0 
0.0 0.0 -1.783056964125e-04 
-1.774180478980e-04 -3.143728213467e-05 0.0 
-3.143728213467e-05 1.216846253912e-03 0.0 
0.0 0.0 -1.800733985141e-04 
-1.339733609669e-04 2.830305737665e-05 0.0 
2.830305737665e-05 8.799971748813e-04 0.0 
0.0 0.0 -1.339483752660e-04 
-5.685501053660e-05 3.033786968296e-05 0.0 
3.033786968296e-05 3.408752435242e-04 0.0 
0.0 0.0 -5.664287464774e-05 
-1.674932513127e-04 2.750263582860e-05 0.0 
2.750263582860e-05 1.111155514655e-03 0.0 
0.0 0.0 -1.670528461364e-04 
-1.284040368042e-04 -2.775968276020e-05 0.0 
-2.775968276020e-05 8.537309068525e-04 0.0 
0.0 0.0 -1.283340813903e-04 
-1.016895440755e-04 -2.862604297840e-05 0.0 
-2.862604297840e-05 6.674652453701e-04 0.0 
0.0 0.0 -1.014860136736e-04 
-1.390418925560e-04 -2.935625760733e-05 0.0 
-2.935625760733e-05 9.288785969762e-04 0.0 
0.0 0.0 -1.390419464427e-04 
-1.608753793423e-04 -3.062151254544e-05 0.0 
-3.062151254544e-05 1.081540098949e-03 0.0 
0.0 0.0 -1.609465537294e-04 
-5.579409708541e-05 -2.753923831601e-05 0.0 
-2.753923831601e-05 3.517647136068e-04 0.0 
0.0 0.0 -5.619956474153e-05 
-1.242874580104e-04 2.815581454240e-05 0.0 
2.815581454240e-05 8.122824974036e-04 0.0 
0.0 0.0 -1.242180795178e-04 
-1.444954382542e-04 2.691161261798e-05 0.0 
2.691161261798e-05 9.508761997336e-04 0.0 
0.0 0.0 -1.439419080609e-04 
-1.748732396412e-04 -3.101518328253e-05 0.0 
-3.101518328253e-05 1.183866334775e-03 0.0 
0.0 0.0 -1.756258132784e-04 
-1.484265095921e-04 2.639187046033e-05 0.0 
2.639187046033e-05 9.793613921147e-04 0.0 
0.0 0.0 -1.481473755224e-04 
-1.628394148518e-04 2.905846373136e-05 0.0 
2.905846373136e-05 1.081802942582e-03 0.0 
0.0 0.0 -1.628061244897e-04 
-1.405884391169e-04 2.689260908494e-05 0.0 
2.689260908494e-05 9.219062369141e-04 0.0 
0.0 0.0 -1.397490354451e-04 
-1.346362126131e-04 2.980546389634e-05 0.0 
2.980546389634e-05 8.629731244664e-04 0.0 
0.0 0.0 -1.313455861883e-04 
-1.422308942789e-04 2.777968126491e-05 0.0 
2.777968126491e-05 9.352014107076e-04 0.0 
0.0 0.0 -1.417070353249e-04 
-1.696348231764e-04 3.073847441857e-05 0.0 
3.073847441857e-05 1.132512673150e-03 0.0 
0.0 0.0 -1.700257545721e-04 
-1.628061011134e-04 -3.012920063587e-05 0.0 
-3.012920063587e-05 1.094588289745e-03 0.0 
0.0 0.0 -1.626783210446e-04 
-1.525480366069e-04 2.753411223908e-05 0.0 
2.753411223908e-05 1.012270815341e-03 0.0 
0.0 0.0 -1.525950422115e-04 
-1.817674885626e-04 2.636756222739e-05 0.0 
2.636756222739e-05 1.218171265063e-03 0.0 
0.0 0.0 -1.819330136886e-04 
-1.367783378107e-04 2.734398055764e-05 0.0 
2.734398055764e-05 8.928204252328e-04 0.0 
0.0 0.0 -1.355595357802e-04 
-8.657515392004e-05 -2.858127066433e-05 0.0 
-2.858127066433e-05 5.623682383036e-04 0.0 
0.0 0.0 -8.640878351826e-05 
-1.720286776127e-04 -3.018037219568e-05 0.0 
-3.018037219568e-05 1.158953410419e-03 0.0 
0.0 0.0 -1.720100346656e-04 
-1.785542716781e-04 -3.347376878072e-05 0.0 
-3.347376878072e-05 1.210212792631e-03 0.0 
0.0 0.0 -1.795117393957e-04 
-1.181566759780e-04 2.804595512908e-05 0.0 
2.804595512908e-05 7.695120543693e-04 0.0 
0.0 0.0 -1.180384278745e-04 
-1.234361083838e-04 2.834735001336e-05 0.0 
2.834735001336e-05 8.068300268397e-04 0.0 
0.0 0.0 -1.233979183903e-04 
-9.615008310342e-05 -2.877711061827e-05 0.0 
-2.877711061827e-05 6.293964481875e-04 0.0 
0.0 0.0 -9.603629528614e-05 
-1.570985069047e-04 2.869057650911e-05 0.0 
2.869057650911e-05 1.042670134457e-03 0.0 
0.0 0.0 -1.569914920818e-04 
-9.804713378094e-05 2.892049478508e-05 0.0 
2.892049478508e-05 6.274327291699e-04 0.0 
0.0 0.0 -9.751120462800e-05 
-1.373039782519e-04 2.945820523949e-05 0.0 
2.945820523949e-05 9.031137517948e-04 0.0 
0.0 0.0 -1.370644644624e-04 
-9.733425656402e-05 -2.696735292952e-05 0.0 
-2.696735292952e-05 6.363689780604e-04 0.0 
0.0 0.0 -9.714421390796e-05 
-1.604810832406e-04 2.925883402761e-05 0.0 
2.925883402761e-05 1.064262862584e-03 0.0 
0.0 0.0 -1.602381950242e-04 
-1.814386097987e-04 -2.325128847214e-05 0.0 
-2.325128847214e-05 1.217845530327e-03 0.0 
0.0 0.0 -1.816843005859e-04 
-1.003684445551e-04 -2.872637610904e-05 0.0 
-2.872637610904e-05 6.585462596242e-04 0.0 
0.0 0.0 -1.002307182508e-04 
-3.526749537505e-05 -3.047241068612e-05 0.0 
-3.047241068612e-05 2.153990238607e-04 0.0 
0.0 0.0 -3.677367655039e-05 
-1.806631145188e-04 2.941902588667e-05 0.0 
2.941902588667e-05 1.208966272057e-03 0.0 
0.0 0.0 -1.810776462098e-04 
-1.033178748637e-04 2.699632970684e-05 0.0 
2.699632970684e-05 6.637091035959e-04 0.0 
0.0 0.0 -1.028007266516e-04 
-1.175293277585e-04 2.819191420696e-05 0.0 
2.819191420696e-05 7.649488685247e-04 0.0 
0.0 0.0 -1.174222657364e-04 
-1.740611927883e-04 3.008308873920e-05 0.0 
3.008308873920e-05 1.179667388234e-03 0.0 
0.0 0.0 -1.766888058523e-04 
-1.524480229041e-04 -2.995968298439e-05 0.0 
-2.995968298439e-05 1.020372756015e-03 0.0 
0.0 0.0 -1.522604622525e-04 
-1.585768344365e-04 -2.913298650394e-05 0.0 
-2.913298650394e-05 1.064240986158e-03 0.0 
0.0 0.0 -1.583819031520e-04 
-1.028812223476e-04 -2.791530224567e-05 0.0 
-2.791530224567e-05 6.762699737186e-04 0.0 
0.0 0.0 -1.027652553003e-04 
-3.047731217096e-05 2.978609752000e-05 0.0 
2.978609752000e-05 1.644412884572e-04 0.0 
0.0 0.0 -3.167095645526e-05 
-1.827018091400e-04 -3.487243475378e-05 0.0 
-3.487243475378e-05 1.223693620193e-03 0.0 
0.0 0.0 -1.803196740198e-04 
-1.299869374800e-04 2.787662672047e-05 0.0 
2.787662672047e-05 8.523815142426e-04 0.0 
0.0 0.0 -1.299076046001e-04 
-1.512839301296e-04 -3.211131163956e-05 0.0 
-3.211131163956e-05 1.010330699503e-03 0.0 
0.0 0.0 -1.510713963618e-04 
-1.740688791628e-04 2.785384488376e-05 0.0 
2.785384488376e-05 1.160296302710e-03 0.0 
0.0 0.0 -1.736733770178e-04 
-2.424829434384e-05 2.135414066938e-05 0.0 
2.135414066938e-05 1.009887765283e-04 0.0 
0.0 0.0 -2.253474224696e-05 
-1.588289344536e-04 2.988448063203e-05 0.0 
2.988448063203e-05 1.053618048293e-03 0.0 
0.0 0.0 -1.588145449557e-04 
-7.398149687921e-05 -2.842214034926e-05 0.0 
-2.842214034926e-05 4.736710158424e-04 0.0 
0.0 0.0 -7.379368512750e-05 
-1.417757164372e-04 -3.019050727827e-05 0.0 
-3.019050727827e-05 9.514786018212e-04 0.0 
0.0 0.0 -1.424765658182e-04 
-1.273110853056e-04 -2.925695132898e-05 0.0 
-2.925695132898e-05 8.481813906053e-04 0.0 
0.0 0.0 -1.274401864931e-04 
-1.007593383753e-04 2.822071280729e-05 0.0 
2.822071280729e-05 6.480510024074e-04 0.0 
0.0 0.0 -1.006432667219e-04 
-1.707598802574e-04 -2.954897052777e-05 0.0 
-2.954897052777e-05 1.153161559221e-03 0.0 
0.0 0.0 -1.712453353817e-04 
-1.329505705343e-04 2.860130427155e-05 0.0 
2.860130427155e-05 8.732611453068e-04 0.0 
0.0 0.0 -1.328871777156e-04 
-9.118212509623e-05 2.844150706971e-05 0.0 
2.844150706971e-05 5.810800157713e-04 0.0 
0.0 0.0 -9.101187559806e-05 
-1.348270760039e-04 -2.858426038110e-05 0.0 
-2.858426038110e-05 8.990222661828e-04 0.0 
0.0 0.0 -1.348432318503e-04 
-2.929431270807e-05 -2.857654389252e-05 0.0 
-2.857654389252e-05 1.760253783659e-04 0.0 
0.0 0.0 -3.121713414881e-05 
-1.537482864892e-04 -2.902787486223e-05 0.0 
-2.902787486223e-05 1.032059817805e-03 0.0 
0.0 0.0 -1.539626484545e-04 
-1.604406715089e-04 -2.964829512842e-05 0.0 
-2.964829512842e-05 1.074466508454e-03 0.0 
0.0 0.0 -1.598244649411e-04 
-1.844616251081e-04 -2.196458036396e-05 0.0 
-2.196458036396e-05 1.231467805983e-03 0.0 
0.0 0.0 -1.850401362575e-04 
-1.635274807000e-04 -2.956880985849e-05 0.0 
-2.956880985849e-05 1.099342516608e-03 0.0 
0.0 0.0 -1.636124299818e-04 
-7.150477036681e-05 -2.776392562661e-05 0.0 
-2.776392562661e-05 4.572663187996e-04 0.0 
0.0 0.0 -7.137223705482e-05 
-1.570462429545e-04 -2.966204224228e-05 0.0 
-2.966204224228e-05 1.054975147839e-03 0.0 
0.0 0.0 -1.570847591254e-04 
-1.810625471898e-04 2.712640566716e-05 0.0 
2.712640566716e-05 1.230837214805e-03 0.0 
0.0 0.0 -1.842233179068e-04 
-1.891002400454e-04 -2.748789620214e-05 0.0 
-2.748789620214e-05 1.278407905451e-03 0.0 
0.0 0.0 -1.900717871215e-04 
-1.657110930776e-04 -2.854937255919e-05 0.0 
-2.854937255919e-05 1.112870521473e-03 0.0 
0.0 0.0 -1.653364313119e-04 
-1.071209963560e-04 -2.863275326497e-05 0.0 
-2.863275326497e-05 7.049432181714e-04 0.0 
0.0 0.0 -1.069186906485e-04 
-1.442583782278e-04 -2.898467953421e-05 0.0 
-2.898467953421e-05 9.652668360639e-04 0.0 
0.0 0.0 -1.443707514742e-04 
-1.759295624301e-04 2.574555557981e-05 0.0 
2.574555557981e-05 1.162894992702e-03 0.0 
0.0 0.0 -1.746475140816e-04 
-1.188179409512e-04 -2.882565480678e-05 0.0 
-2.882565480678e-05 7.850400880713e-04 0.0 
0.0 0.0 -1.181845718321e-04 
-1.584483271371e-04 2.773639164420e-05 0.0 
2.773639164420e-05 1.051528373706e-03 0.0 
0.0 0.0 -1.585795433073e-04 
-1.477641435519e-04 2.859461966958e-05 0.0 
2.859461966958e-05 9.807497853317e-04 0.0 
0.0 0.0 -1.481564718376e-04 
-1.666109147089e-04 -2.970949097526e-05 0.0 
-2.970949097526e-05 1.123406416293e-03 0.0 
0.0 0.0 -1.669465589644e-04 
-1.640742339727e-04 -2.814643695304e-05 0.0 
-2.814643695304e-05 1.102737689409e-03 0.0 
0.0 0.0 -1.639852473733e-04 
-1.101476556860e-04 -1.419773556877e-06 0.0 
-1.419773556877e-06 6.855531227093e-04 0.0 
0.0 0.0 -1.097027053386e-04 
-1.095838507761e-04 5.104018495320e-06 0.0 
5.104018495320e-06 6.852974449944e-04 0.0 
0.0 0.0 -1.096586159380e-04 
-1.492847548809e-04 -3.091516381313e-05 0.0 
-3.091516381313e-05 9.984061546489e-04 0.0 
0.0 0.0 -1.489183339744e-04 
-1.487773235054e-04 2.785619991096e-05 0.0 
2.785619991096e-05 9.847103116342e-04 0.0 
0.0 0.0 -1.489589719869e-04 
-1.316033445496e-04 -2.890310988479e-05 0.0 
-2.890310988479e-05 8.785172676280e-04 0.0 
0.0 0.0 -1.317064244343e-04 
-1.470787480711e-04 -2.886845641438e-05 0.0 
-2.886845641438e-05 9.813735906609e-04 0.0 
0.0 0.0 -1.466314440693e-04 
-1.276790192920e-04 2.827971774625e-05 0.0 
2.827971774625e-05 8.356151426700e-04 0.0 
0.0 0.0 -1.275341994755e-04 
-1.790311321725e-04 1.969961980520e-05 0.0 
1.969961980520e-05 1.177311147527e-03 0.0 
0.0 0.0 -1.770432225081e-04 
-1.075373971259e-04 2.845855733448e-05 0.0 
2.845855733448e-05 6.950205170450e-04 0.0 
0.0 0.0 -1.073226784003e-04 
-1.995879498343e-04 -5.013008806985e-06 0.0 
-5.013008806985e-06 1.363897218258e-03 0.0 
0.0 0.0 -1.985690758598e-04 
-1.206431140158e-04 2.307417823056e-05 0.0 
2.307417823056e-05 7.999499804229e-04 0.0 
0.0 0.0 -1.217990918242e-04 
-1.230873173652e-04 -2.834404514853e-05 0.0 
-2.834404514853e-05 8.168726937961e-04 0.0 
0.0 0.0 -1.229897142350e-04 
-1.277789710916e-04 2.899586617417e-05 0.0 
2.899586617417e-05 8.376167932335e-04 0.0 
0.0 0.0 -1.278593196867e-04 
-6.749379846372e-05 -2.782885043647e-05 0.0 
-2.782885043647e-05 4.285534232864e-04 0.0 
0.0 0.0 -6.718560115948e-05 
-1.130846881410e-04 -2.901620947727e-05 0.0 
-2.901620947727e-05 7.492911164906e-04 0.0 
0.0 0.0 -1.132750687146e-04 
-1.393795706141e-04 2.790993313463e-05 0.0 
2.790993313463e-05 9.183577294076e-04 0.0 
0.0 0.0 -1.393992299975e-04 
-1.313953089638e-04 2.793110906410e-05 0.0 
2.793110906410e-05 8.609063871163e-04 0.0 
0.0 0.0 -1.310746415357e-04 
-1.472158165240e-04 2.758529410816e-05 0.0 
2.758529410816e-05 9.752002146418e-04 0.0 
0.0 0.0 -1.472189500432e-04 
-1.516300742627e-04 2.806244334544e-05 0.0 
2.806244334544e-05 1.001799986608e-03 0.0 
0.0 0.0 -1.512033144533e-04 
-1.566655293626e-04 -2.889951032878e-05 0.0 
-2.889951032878e-05 1.046948901408e-03 0.0 
0.0 0.0 -1.561275327105e-04 
-3.388460750578e-05 -1.545160936620e-05 0.0 
-1.545160936620e-05 2.099343336454e-04 0.0 
0.0 0.0 -3.245576353708e-05 
-1.079103303358e-04 2.933502518126e-05 0.0 
2.933502518126e-05 7.001507540581e-04 0.0 
0.0 0.0 -1.081352097849e-04 
-1.027907419891e-04 -2.789055961483e-05 0.0 
-2.789055961483e-05 6.727593674768e-04 0.0 
0.0 0.0 -1.023828309811e-04 
-1.434897197293e-04 2.686269947909e-05 0.0 
2.686269947909e-05 9.426378339422e-04 0.0 
0.0 0.0 -1.428293200757e-04 
-1.483261696105e-04 -2.883963041716e-05 0.0 
-2.883963041716e-05 9.902814330651e-04 0.0 
0.0 0.0 -1.477595226970e-04 
-1.733622378423e-04 2.696425670561e-05 0.0 
2.696425670561e-05 1.158199599596e-03 0.0 
0.0 0.0 -1.740163136221e-04 
-5.146390240149e-05 3.149198966797e-05 0.0 
3.149198966797e-05 2.950977217837e-04 0.0 
0.0 0.0 -4.910994769955e-05 
-4.998322073950e-05 -2.650173050573e-05 0.0 
-2.650173050573e-05 3.137392583323e-04 0.0 
0.0 0.0 -5.065930366581e-05 
-1.246841514279e-04 2.807070818710e-05 0.0 
2.807070818710e-05 8.153369030926e-04 0.0 
0.0 0.0 -1.245896567492e-04 
-1.074667000404e-04 -2.931017500739e-05 0.0 
-2.931017500739e-05 7.103792899815e-04 0.0 
0.0 0.0 -1.077203783481e-04 
-9.918600810801e-05 -3.218977296722e-05 0.0 
-3.218977296722e-05 6.451476881974e-04 0.0 
0.0 0.0 -9.831899762194e-05 
-1.033843323464e-04 -2.568146961447e-05 0.0 
-2.568146961447e-05 6.823399375890e-04 0.0 
0.0 0.0 -1.033380742667e-04 
-1.467772705035e-04 -2.855532502296e-05 0.0 
-2.855532502296e-05 9.829234791858e-04 0.0 
0.0 0.0 -1.469023935692e-04 
-4.918821938130e-05 -2.784621442943e-05 0.0 
-2.784621442943e-05 3.054917735983e-04 0.0 
0.0 0.0 -4.953709868763e-05 
-1.222003796169e-04 2.866150149173e-05 0.0 
2.866150149173e-05 7.992287747919e-04 0.0 
0.0 0.0 -1.223213871927e-04 
-1.574838851652e-04 -2.884771519407e-05 0.0 
-2.884771519407e-05 1.055743233401e-03 0.0 
0.0 0.0 -1.573814874934e-04 
-5.103366446644e-05 3.083233425307e-05 0.0 
3.083233425307e-05 3.010972732110e-04 0.0 
0.0 0.0 -5.112340052147e-05 
-1.934610965695e-04 -4.298535282020e-06 0.0 
-4.298535282020e-06 1.268654757538e-03 0.0 
0.0 0.0 -1.928379572095e-04 
-1.729742724807e-04 -2.716366689485e-05 0.0 
-2.716366689485e-05 1.161879060048e-03 0.0 
0.0 0.0 -1.728683014225e-04 
-1.159629787201e-04 -2.904469987433e-05 0.0 
-2.904469987433e-05 7.705849919696e-04 0.0 
0.0 0.0 -1.163417091451e-04 
-1.616915685660e-04 2.859224485179e-05 0.0 
2.859224485179e-05 1.074324548804e-03 0.0 
0.0 0.0 -1.618083629464e-04 
-2.727429490673e-05 -7.981424094550e-07 0.0 
-7.981424094550e-07 1.116265976979e-04 0.0 
0.0 0.0 -2.696321564760e-05 
-1.521690046607e-04 -3.000871026997e-05 0.0 
-3.000871026997e-05 1.017696781759e-03 0.0 
0.0 0.0 -1.518707364543e-04 
-1.295839926014e-04 -2.815794342717e-05 0.0 
-2.815794342717e-05 8.619661847659e-04 0.0 
0.0 0.0 -1.295155041898e-04 
-2.359634361323e-05 9.091220455368e-07 0.0 
9.091220455368e-07 1.106951619002e-04 0.0 
0.0 0.0 -2.682779714776e-05 
-1.728538985111e-04 2.680741270793e-05 0.0 
2.680741270793e-05 1.154427413958e-03 0.0 
0.0 0.0 -1.732288690391e-04 
-4.759083390138e-05 -2.831698267297e-05 0.0 
-2.831698267297e-05 2.848913946214e-04 0.0 
0.0 0.0 -4.649687138448e-05 
-1.430104513494e-04 -2.827840335732e-05 0.0 
-2.827840335732e-05 9.522047249633e-04 0.0 
0.0 0.0 -1.424467998190e-04 
-1.308115066644e-04 -2.845406566805e-05 0.0 
-2.845406566805e-05 8.700772173504e-04 0.0 
0.0 0.0 -1.306907721685e-04 
-1.129064275361e-04 -2.856218169756e-05 0.0 
-2.856218169756e-05 7.462380760800e-04 0.0 
0.0 0.0 -1.127972299543e-04 
-1.359129833258e-04 2.979368899475e-05 0.0 
2.979368899475e-05 8.944895224544e-04 0.0 
0.0 0.0 -1.357882224401e-04 
-1.779538886446e-04 2.685602915856e-05 0.0 
2.685602915856e-05 1.186518068831e-03 0.0 
0.0 0.0 -1.774347558581e-04 
-1.457575943922e-04 3.026596853263e-05 0.0 
3.026596853263e-05 9.632506474158e-04 0.0 
0.0 0.0 -1.457400808753e-04 
-1.288002410826e-04 2.805878315534e-05 0.0 
2.805878315534e-05 8.440094574945e-04 0.0 
0.0 0.0 -1.287264812403e-04 
-1.242825439840e-04 -2.804688037007e-05 0.0 
-2.804688037007e-05 8.250067063846e-04 0.0 
0.0 0.0 -1.241942416882e-04 
-1.736395521226e-05 2.354389388036e-05 0.0 
2.354389388036e-05 7.964528863018e-05 0.0 
0.0 0.0 -1.861799679395e-05 
-4.157545693324e-05 2.817385926199e-05 0.0 
2.817385926199e-05 2.365575590948e-04 0.0 
0.0 0.0 -4.141517733842e-05 
-1.678318203631e-04 -2.663064313971e-05 0.0 
-2.663064313971e-05 1.127397061509e-03 0.0 
0.0 0.0 -1.677496568182e-04 
-1.370203440637e-04 -3.226606344672e-05 0.0 
-3.226606344672e-05 9.081664366392e-04 0.0 
0.0 0.0 -1.362805121017e-04 
-1.736141937904e-04 2.716336991301e-05 0.0 
2.716336991301e-05 1.149649766565e-03 0.0 
0.0 0.0 -1.723036539172e-04 
-7.429185192102e-05 2.889322857484e-05 0.0 
2.889322857484e-05 4.644168819778e-04 0.0 
0.0 0.0 -7.414465667103e-05 
-1.649902886651e-04 2.947284893012e-05 0.0 
2.947284893012e-05 1.093935083842e-03 0.0 
0.0 0.0 -1.646925898217e-04 
-1.739966132604e-04 -2.849382622555e-05 0.0 
-2.849382622555e-05 1.167419998479e-03 0.0 
0.0 0.0 -1.733111646468e-04 
-1.056965695515e-04 2.657671323282e-05 0.0 
2.657671323282e-05 6.973803664085e-04 0.0 
0.0 0.0 -1.076913066561e-04 
-1.684634156381e-04 2.502571500154e-05 0.0 
2.502571500154e-05 1.117308510720e-03 0.0 
0.0 0.0 -1.681488932201e-04 
-1.612200699048e-04 -2.968921846860e-05 0.0 
-2.968921846860e-05 1.084762543557e-03 0.0 
0.0 0.0 -1.613920101890e-04 
-1.435042771724e-04 2.827958174112e-05 0.0 
2.827958174112e-05 9.471256299073e-04 0.0 
0.0 0.0 -1.435674306479e-04 
-1.178719447516e-04 2.925779353124e-05 0.0 
2.925779353124e-05 7.691196797978e-04 0.0 
0.0 0.0 -1.179957515531e-04 
-1.230064472571e-04 -2.933976043839e-05 0.0 
-2.933976043839e-05 8.180684852634e-04 0.0 
0.0 0.0 -1.231351811242e-04 
-1.812260547849e-04 -3.047200266982e-05 0.0 
-3.047200266982e-05 1.223288115478e-03 0.0 
0.0 0.0 -1.807056875578e-04 
-1.260212927046e-04 2.933157348944e-05 0.0 
2.933157348944e-05 8.259598448106e-04 0.0 
0.0 0.0 -1.259489979917e-04 
-1.353161328246e-04 2.778264495549e-05 0.0 
2.778264495549e-05 8.897119970146e-04 0.0 
0.0 0.0 -1.352333322325e-04 
-1.267391738953e-04 2.944240283988e-05 0.0 
2.944240283988e-05 8.300608908324e-04 0.0 
0.0 0.0 -1.265040046469e-04 
-1.558042942572e-04 2.960325539106e-05 0.0 
2.960325539106e-05 1.032329659142e-03 0.0 
0.0 0.0 -1.557546880476e-04 
-1.178031641948e-04 -2.833363001983e-05 0.0 
-2.833363001983e-05 7.792538415973e-04 0.0 
0.0 0.0 -1.176363242409e-04 
-7.616423057155e-05 2.888075361391e-05 0.0 
2.888075361391e-05 4.767557616214e-04 0.0 
0.0 0.0 -7.598706826662e-05 
-1.284551892997e-04 2.830356900228e-05 0.0 
2.830356900228e-05 8.414205268390e-04 0.0 
0.0 0.0 -1.284270486071e-04 
-8.163145150663e-05 2.849893936950e-05 0.0 
2.849893936950e-05 5.141388462768e-04 0.0 
0.0 0.0 -8.139240314519e-05 
-1.476035922618e-04 2.790275079514e-05 0.0 
2.790275079514e-05 9.723513416991e-04 0.0 
0.0 0.0 -1.469868445827e-04 
-8.102880366192e-05 -2.822816260586e-05 0.0 
-2.822816260586e-05 5.241451611897e-04 0.0 
0.0 0.0 -8.099228255434e-05 
-1.416684014624e-04 -2.911139421202e-05 0.0 
-2.911139421202e-05 9.446400297649e-04 0.0 
0.0 0.0 -1.413087031611e-04 
-1.704134817182e-04 -2.893451028680e-05 0.0 
-2.893451028680e-05 1.143317166872e-03 0.0 
0.0 0.0 -1.695824168335e-04 
-1.648116269840e-04 2.803138241354e-05 0.0 
2.803138241354e-05 1.093290237044e-03 0.0 
0.0 0.0 -1.644793634901e-04 
-1.128875860972e-04 2.826705620268e-05 0.0 
2.826705620268e-05 7.324835187191e-04 0.0 
0.0 0.0 -1.126879322255e-04 
-1.413103611302e-04 2.856634998349e-05 0.0 
2.856634998349e-05 9.375047760794e-04 0.0 
0.0 0.0 -1.419038077447e-04 
-1.657595976086e-04 2.853389717882e-05 0.0 
2.853389717882e-05 1.104349844714e-03 0.0 
0.0 0.0 -1.661162351013e-04 
-1.653889785276e-04 -2.976188635714e-05 0.0 
-2.976188635714e-05 1.114688989457e-03 0.0 
0.0 0.0 -1.657121520580e-04 
-4.122208403583e-05 -2.733977607716e-05 0.0 
-2.733977607716e-05 2.407308049745e-04 0.0 
0.0 0.0 -4.024936955575e-05 
-1.462865341652e-04 2.791988865304e-05 0.0 
2.791988865304e-05 9.640304959560e-04 0.0 
0.0 0.0 -1.458719015759e-04 
-1.798320892613e-04 3.664169466135e-05 0.0 
3.664169466135e-05 1.207776909166e-03 0.0 
0.0 0.0 -1.808727580343e-04 
-8.155951077410e-05 2.658877336874e-05 0.0 
2.658877336874e-05 5.082367721589e-04 0.0 
0.0 0.0 -8.036834358255e-05 
-1.261065842356e-04 -2.891277945860e-05 0.0 
-2.891277945860e-05 8.392634847212e-04 0.0 
0.0 0.0 -1.261429800108e-04 
-2.464432722710e-05 -2.598410949158e-05 0.0 
-2.598410949158e-05 1.199804601247e-04 0.0 
0.0 0.0 -2.329771006100e-05 
-1.698720281199e-04 2.819353997162e-05 0.0 
2.819353997162e-05 1.134065551803e-03 0.0 
0.0 0.0 -1.704352672439e-04 
-7.209795018933e-05 2.889480946534e-05 0.0 
2.889480946534e-05 4.471234739761e-04 0.0 
0.0 0.0 -7.178447905439e-05 
-1.214879839983e-04 2.129426116121e-05 0.0 
2.129426116121e-05 7.908873499093e-04 0.0 
0.0 0.0 -1.224926751266e-04 
-1.512350690369e-04 3.260960324541e-05 0.0 
3.260960324541e-05 1.003149541653e-03 0.0 
0.0 0.0 -1.513082552986e-04 
-1.410567308220e-04 -2.849265471453e-05 0.0 
-2.849265471453e-05 9.457036391268e-04 0.0 
0.0 0.0 -1.415828201621e-04 
-1.344535840298e-04 2.612046934124e-05 0.0 
2.612046934124e-05 8.995841949147e-04 0.0 
0.0 0.0 -1.366211047096e-04 
-1.341134389053e-04 2.811410486968e-05 0.0 
2.811410486968e-05 8.812581479058e-04 0.0 
0.0 0.0 -1.340535934895e-04 
-8.946040519151e-05 -2.953905219233e-05 0.0 
-2.953905219233e-05 5.742848433877e-04 0.0 
0.0 0.0 -8.827358089900e-05 
-9.333279709743e-05 -2.369397324284e-05 0.0 
-2.369397324284e-05 6.111413459436e-04 0.0 
0.0 0.0 -9.328238720484e-05 
-1.698818200285e-04 -2.882683013526e-05 0.0 
-2.882683013526e-05 1.144701307571e-03 0.0 
0.0 0.0 -1.700100520615e-04 
-1.409975246060e-04 -3.114270166762e-05 0.0 
-3.114270166762e-05 9.412074701777e-04 0.0 
0.0 0.0 -1.409113068204e-04 
-1.224899796510e-04 -2.844927577316e-05 0.0 
-2.844927577316e-05 8.138192071892e-04 0.0 
0.0 0.0 -1.224729735915e-04 
-1.523712328566e-04 3.064679971689e-05 0.0 
3.064679971689e-05 1.008635964013e-03 0.0 
0.0 0.0 -1.522479562080e-04 
-1.188292947714e-04 2.814854163685e-05 0.0 
2.814854163685e-05 7.741609344606e-04 0.0 
0.0 0.0 -1.187265862058e-04 
-7.698231420718e-05 -2.807470773001e-05 0.0 
-2.807470773001e-05 4.953557652573e-04 0.0 
0.0 0.0 -7.679943085705e-05 
-8.618619312566e-05 2.228028664320e-05 0.0 
2.228028664320e-05 5.633842965339e-04 0.0 
0.0 0.0 -8.862593743002e-05 
-1.284395253225e-04 -2.631768161175e-05 0.0 
-2.631768161175e-05 8.441014789476e-04 0.0 
0.0 0.0 -1.266344217576e-04 
-1.074097245906e-04 1.137855673603e-06 0.0 
1.137855673603e-06 7.273751056144e-04 0.0 
0.0 0.0 -1.068299257544e-04 
-1.648361548193e-04 -2.903405778283e-05 0.0 
-2.903405778283e-05 1.103487992394e-03 0.0 
0.0 0.0 -1.640398004813e-04 
-1.125117604938e-04 -2.832657592519e-05 0.0 
-2.832657592519e-05 7.420818515929e-04 0.0 
0.0 0.0 -1.122952594724e-04 
-1.815273626527e-04 2.648876521301e-05 0.0 
2.648876521301e-05 1.237129381465e-03 0.0 
0.0 0.0 -1.850357933615e-04 
-1.677426973633e-04 3.358700303554e-05 0.0 
3.358700303554e-05 1.121534172788e-03 0.0 
0.0 0.0 -1.681766660669e-04 
-1.238211064038e-04 -2.893923336642e-05 0.0 
-2.893923336642e-05 8.228165218213e-04 0.0 
0.0 0.0 -1.237869166313e-04 
-1.864446355504e-04 -3.208766695310e-05 0.0 
-3.208766695310e-05 1.252430825566e-03 0.0 
0.0 0.0 -1.862208944195e-04 
-8.530940149586e-05 -2.872680214247e-05 0.0 
-2.872680214247e-05 5.536185287289e-04 0.0 
0.0 0.0 -8.523934116932e-05 
-1.812060938045e-04 2.774101611193e-05 0.0 
2.774101611193e-05 1.207038039800e-03 0.0 
0.0 0.0 -1.806723702746e-04 
-1.337032776849e-04 -2.817141114612e-05 0.0 
-2.817141114612e-05 8.910030578001e-04 0.0 
0.0 0.0 -1.336599856011e-04 
-1.477881411962e-04 2.807358610009e-05 0.0 
2.807358610009e-05 9.757986870607e-04 0.0 
0.0 0.0 -1.477205131922e-04 
-1.717661370758e-04 -2.763745373205e-05 0.0 
-2.763745373205e-05 1.155465207730e-03 0.0 
0.0 0.0 -1.720177540750e-04 
-8.915482971043e-05 -2.748298977886e-05 0.0 
-2.748298977886e-05 5.839530331415e-04 0.0 
0.0 0.0 -8.937342098373e-05 
-1.408472522219e-04 2.814178914188e-05 0.0 
2.814178914188e-05 9.273096045331e-04 0.0 
0.0 0.0 -1.405419627762e-04 
-1.183094889317e-04 -2.831962265042e-05 0.0 
-2.831962265042e-05 7.845371880710e-04 0.0 
0.0 0.0 -1.182925860037e-04 
-1.362566173497e-04 -2.854051389334e-05 0.0 
-2.854051389334e-05 9.069235503698e-04 0.0 
0.0 0.0 -1.359850532410e-04 
-7.919830953849e-05 -2.789069310031e-05 0.0 
-2.789069310031e-05 5.092955845790e-04 0.0 
0.0 0.0 -7.902140106529e-05 
-1.521909368861e-04 3.155873557746e-05 0.0 
3.155873557746e-05 1.007096083567e-03 0.0 
0.0 0.0 -1.519844081269e-04 
-1.132987595353e-04 2.834154396761e-05 0.0 
2.834154396761e-05 7.356229622935e-04 0.0 
0.0 0.0 -1.132306032040e-04 
-1.320680958621e-04 2.867292103990e-05 0.0 
2.867292103990e-05 8.674712725503e-04 0.0 
0.0 0.0 -1.321542253869e-04 
-1.368300496681e-04 2.752968636588e-05 0.0 
2.752968636588e-05 8.977721242010e-04 0.0 
0.0 0.0 -1.363712481195e-04 
-2.669160915437e-05 -1.546272424363e-05 0.0 
-1.546272424363e-05 1.161110005952e-04 0.0 
0.0 0.0 -2.089024115593e-05 
-1.363872734664e-04 3.073615465078e-05 0.0 
3.073615465078e-05 8.982822443154e-04 0.0 
0.0 0.0 -1.362374425583e-04 
-3.196098953400e-05 -3.152710847565e-05 0.0 
-3.152710847565e-05 1.832351866553e-04 0.0 
0.0 0.0 -3.246432735143e-05 
-3.780823483309e-05 3.089859502925e-05 0.0 
3.089859502925e-05 2.040662805879e-04 0.0 
0.0 0.0 -3.615541251042e-05 
-1.264532196870e-04 2.805256790047e-05 0.0 
2.805256790047e-05 8.282811887478e-04 0.0 
0.0 0.0 -1.265710825771e-04 
-1.650927065987e-04 -2.992799550430e-05 0.0 
-2.992799550430e-05 1.105940052269e-03 0.0 
0.0 0.0 -1.647532235908e-04 
-1.400518033137e-04 2.658927901254e-05 0.0 
2.658927901254e-05 9.276103799496e-04 0.0 
0.0 0.0 -1.408132903889e-04 
-7.975221115210e-05 -2.926681587233e-05 0.0 
-2.926681587233e-05 5.061325512957e-04 0.0 
0.0 0.0 -7.822954250360e-05 
-2.013483297690e-04 2.032612637039e-06 0.0 
2.032612637039e-06 1.329003344546e-03 0.0 
0.0 0.0 -2.013483297690e-04 
-1.035627632493e-05 2.012317785662e-05 0.0 
2.012317785662e-05 3.911320943316e-05 0.0 
0.0 0.0 -1.232439990353e-05 
-8.383816084979e-05 -1.994127170537e-05 0.0 
-1.994127170537e-05 5.413626143026e-04 0.0 
0.0 0.0 -8.324708519681e-05 
-1.271654449798e-04 2.783994873367e-05 0.0 
2.783994873367e-05 8.320575259278e-04 0.0 
0.0 0.0 -1.270911103786e-04 
-1.205324376648e-04 -2.929888805432e-05 0.0 
-2.929888805432e-05 8.005519843789e-04 0.0 
0.0 0.0 -1.206387729067e-04 
-1.013602283131e-04 -2.480997680423e-05 0.0 
-2.480997680423e-05 6.640206223424e-04 0.0 
0.0 0.0 -1.009985469804e-04 
-8.871913647433e-05 2.734607712163e-05 0.0 
2.734607712163e-05 5.647906116567e-04 0.0 
0.0 0.0 -8.863076730824e-05 
-1.311043943365e-04 -2.976717297625e-05 0.0 
-2.976717297625e-05 8.719910144079e-04 0.0 
0.0 0.0 -1.310072861357e-04 
-1.389619207248e-04 -2.862329341105e-05 0.0 
-2.862329341105e-05 9.281576540868e-04 0.0 
0.0 0.0 -1.390016920470e-04 
-1.460738362541e-04 3.043025274219e-05 0.0 
3.043025274219e-05 9.676325484449e-04 0.0 
0.0 0.0 -1.460128267758e-04 
-1.732762100729e-04 3.047090098963e-05 0.0 
3.047090098963e-05 1.141214836478e-03 0.0 
0.0 0.0 -1.716453415534e-04 
-4.497460723320e-05 2.726656903271e-05 0.0 
2.726656903271e-05 2.561921516371e-04 0.0 
0.0 0.0 -4.464496721659e-05 
-1.166209944052e-04 2.853466779788e-05 0.0 
2.853466779788e-05 7.601119053809e-04 0.0 
0.0 0.0 -1.167719096664e-04 
-1.253239379370e-04 2.802640912089e-05 0.0 
2.802640912089e-05 8.204946388047e-04 0.0 
0.0 0.0 -1.253423245625e-04 
-6.775366326737e-05 -3.048229866519e-05 0.0 
-3.048229866519e-05 4.346213084644e-04 0.0 
0.0 0.0 -6.816034660215e-05 
-1.127220931764e-04 3.280867731043e-05 0.0 
3.280867731043e-05 7.331832316127e-04 0.0 
0.0 0.0 -1.127715562385e-04 
-1.406419564968e-04 -3.010518963226e-05 0.0 
-3.010518963226e-05 9.368893413982e-04 0.0 
0.0 0.0 -1.404347219739e-04 
-1.530603703096e-04 -2.920298263434e-05 0.0 
-2.920298263434e-05 1.018521684544e-03 0.0 
0.0 0.0 -1.535177820318e-04 
-2.288599488340e-05 1.289972043286e-06 0.0 
1.289972043286e-06 1.500050201402e-04 0.0 
0.0 0.0 -2.407863984352e-05 
-1.904718743730e-05 -3.796502735245e-05 0.0 
-3.796502735245e-05 7.353718879473e-05 0.0 
0.0 0.0 -1.778391308807e-05 
-4.862036817725e-05 -2.764492479964e-05 0.0 
-2.764492479964e-05 3.006710189870e-04 0.0 
0.0 0.0 -4.850561850037e-05 
-1.250248464412e-04 -2.908499407456e-05 0.0 
-2.908499407456e-05 8.306354519711e-04 0.0 
0.0 0.0 -1.249513133117e-04 
-9.487833492244e-05 -2.821982749961e-05 0.0 
-2.821982749961e-05 6.208435078207e-04 0.0 
0.0 0.0 -9.483030114460e-05 
-8.410233070287e-05 -2.754579270561e-05 0.0 
-2.754579270561e-05 5.457436342908e-04 0.0 
0.0 0.0 -8.407979340540e-05 
-7.564452835468e-05 -2.812380315554e-05 0.0 
-2.812380315554e-05 4.861034660231e-04 0.0 
0.0 0.0 -7.562371400132e-05 
-1.308199925164e-04 2.795456765413e-05 0.0 
2.795456765413e-05 8.583699019635e-04 0.0 
0.0 0.0 -1.308200345188e-04 
-1.492653203134e-04 2.795966396730e-05 0.0 
2.795966396730e-05 9.867209101107e-04 0.0 
0.0 0.0 -1.493429779604e-04 
-1.297619321001e-04 2.813153916154e-05 0.0 
2.813153916154e-05 8.505758307982e-04 0.0 
0.0 0.0 -1.296493136919e-04 
-9.537410332307e-05 2.792962789421e-05 0.0 
2.792962789421e-05 6.106733548119e-04 0.0 
0.0 0.0 -9.522910944095e-05 
-1.456775150903e-04 -3.018176577816e-05 0.0 
-3.018176577816e-05 9.731377158713e-04 0.0 
0.0 0.0 -1.454913560695e-04 
-1.215295702296e-04 2.461975315803e-05 0.0 
2.461975315803e-05 8.148115380054e-04 0.0 
0.0 0.0 -1.235433054540e-04 
-1.607975492377e-04 3.196445582729e-05 0.0 
3.196445582729e-05 1.071803692603e-03 0.0 
0.0 0.0 -1.614296353785e-04 
-1.294007234012e-04 -2.913608251421e-05 0.0 
-2.913608251421e-05 8.607493369835e-04 0.0 
0.0 0.0 -1.292646442145e-04 
-1.305405341983e-04 -2.882629630394e-05 0.0 
-2.882629630394e-05 8.689129694931e-04 0.0 
0.0 0.0 -1.304223873054e-04 
-6.968339329854e-05 -2.972888482406e-05 0.0 
-2.972888482406e-05 4.334906827197e-04 0.0 
0.0 0.0 -6.822727741190e-05 
-9.912831729497e-05 -2.796137707004e-05 0.0 
-2.796137707004e-05 6.504811582310e-04 0.0 
0.0 0.0 -9.898428703081e-05 
-1.338904054535e-04 2.764565306312e-05 0.0 
2.764565306312e-05 8.796508899650e-04 0.0 
0.0 0.0 -1.339603927656e-04 
-1.451942325546e-04 2.545422836756e-05 0.0 
2.545422836756e-05 9.593435678016e-04 0.0 
0.0 0.0 -1.442355194375e-04 
-1.361868027580e-04 2.709053506538e-05 0.0 
2.709053506538e-05 9.012697796478e-04 0.0 
0.0 0.0 -1.345837404303e-04 
-7.449260603113e-05 -2.324565781608e-05 0.0 
-2.324565781608e-05 4.730958793735e-04 0.0 
0.0 0.0 -7.319231467821e-05 
-1.351502038915e-04 2.830190167801e-05 0.0 
2.830190167801e-05 8.885438377553e-04 0.0 
0.0 0.0 -1.351067771782e-04 
-8.277379542059e-05 -2.675056815443e-05 0.0 
-2.675056815443e-05 5.366126160003e-04 0.0 
0.0 0.0 -8.276526902223e-05 
-4.268302624522e-05 2.966411434536e-05 0.0 
2.966411434536e-05 2.450626322876e-04 0.0 
0.0 0.0 -4.217020858377e-05 
-1.783377964353e-04 -2.878462420289e-05 0.0 
-2.878462420289e-05 1.216695363592e-03 0.0 
0.0 0.0 -1.804362660462e-04 
-4.529678387534e-05 2.926161683405e-05 0.0 
2.926161683405e-05 2.590325448345e-04 0.0 
0.0 0.0 -4.529806102550e-05 
-8.742939480876e-05 2.790769408488e-05 0.0 
2.790769408488e-05 5.558475884308e-04 0.0 
0.0 0.0 -8.733313829944e-05 
-1.317265343520e-04 -2.980209858436e-05 0.0 
-2.980209858436e-05 8.750838916963e-04 0.0 
0.0 0.0 -1.314978247514e-04 
-7.591084973546e-05 2.107875529606e-05 0.0 
2.107875529606e-05 4.931826175602e-04 0.0 
0.0 0.0 -7.859944172783e-05 
-1.334719851974e-04 -2.966915358544e-05 0.0 
-2.966915358544e-05 8.920345164479e-04 0.0 
0.0 0.0 -1.335848452069e-04 
-6.387562636780e-05 -3.268343600872e-05 0.0 
-3.268343600872e-05 4.032800898130e-04 0.0 
0.0 0.0 -6.423763444998e-05 
-1.136812058642e-04 -2.481450603128e-05 0.0 
-2.481450603128e-05 7.554211615018e-04 0.0 
0.0 0.0 -1.173522912428e-04 
-1.350637719422e-04 -2.838472714175e-05 0.0 
-2.838472714175e-05 8.988460543843e-04 0.0 
0.0 0.0 -1.347247148155e-04 
-1.171592619295e-04 -2.801384878721e-05 0.0 
-2.801384878721e-05 7.755561146277e-04 0.0 
0.0 0.0 -1.170018866078e-04 
-1.217089587309e-04 -2.902247236899e-05 0.0 
-2.902247236899e-05 8.097798257773e-04 0.0 
0.0 0.0 -1.219000842292e-04 
-2.184335631700e-05 -1.729926300555e-05 0.0 
-1.729926300555e-05 1.250103729472e-04 0.0 
0.0 0.0 -2.233965624082e-05 
-1.775429286585e-04 -2.993860203194e-05 0.0 
-2.993860203194e-05 1.168952343716e-03 0.0 
0.0 0.0 -1.728850973588e-04 
-9.777928932074e-05 -2.702797086344e-05 0.0 
-2.702797086344e-05 6.417468029030e-04 0.0 
0.0 0.0 -9.771858906392e-05 
-1.742936274983e-04 3.098695444566e-05 0.0 
3.098695444566e-05 1.160612036868e-03 0.0 
0.0 0.0 -1.731059224200e-04 
-1.475958375390e-04 -2.938015971493e-05 0.0 
-2.938015971493e-05 9.867581376832e-04 0.0 
0.0 0.0 -1.473178670231e-04 
-1.394115090974e-04 2.895092753690e-05 0.0 
2.895092753690e-05 9.183306099949e-04 0.0 
0.0 0.0 -1.394094752486e-04 
-1.392759160733e-04 -2.661746757661e-05 0.0 
-2.661746757661e-05 9.284264619517e-04 0.0 
0.0 0.0 -1.390298226761e-04 
-8.994283602845e-05 2.778083834669e-05 0.0 
2.778083834669e-05 5.730895634602e-04 0.0 
0.0 0.0 -8.984374554363e-05 
-2.917258118515e-05 2.376164554401e-05 0.0 
2.376164554401e-05 1.745437757761e-04 0.0 
0.0 0.0 -3.155138587282e-05 
-2.317643182854e-05 1.790083138541e-05 0.0 
1.790083138541e-05 9.845334346925e-05 0.0 
0.0 0.0 -2.398754234351e-05 
-1.432208171698e-04 2.892878557249e-05 0.0 
2.892878557249e-05 9.478265663156e-04 0.0 
0.0 0.0 -1.437459767248e-04 
-1.740260011077e-04 2.826019241499e-05 0.0 
2.826019241499e-05 1.153801197259e-03 0.0 
0.0 0.0 -1.722084272143e-04 
-8.118601345419e-05 -2.611344377703e-05 0.0 
-2.611344377703e-05 5.279662901466e-04 0.0 
0.0 0.0 -8.139371786675e-05 
-1.500944745800e-04 2.850222383989e-05 0.0 
2.850222383989e-05 9.934228736818e-04 0.0 
0.0 0.0 -1.501054273671e-04 
-7.521111464244e-05 2.846605665054e-05 0.0 
2.846605665054e-05 4.657051250380e-04 0.0 
0.0 0.0 -7.503141475880e-05 
-1.512386812048e-04 -2.992568848289e-05 0.0 
-2.992568848289e-05 1.010913185445e-03 0.0 
0.0 0.0 -1.508421041237e-04 
-1.913679647201e-04 1.633067843082e-05 0.0 
1.633067843082e-05 1.304046368860e-03 0.0 
0.0 0.0 -1.899801870201e-04 
-8.107065812765e-06 2.346749919756e-06 0.0 
2.346749919756e-06 3.465691143960e-05 0.0 
0.0 0.0 -6.768710104396e-06 
-2.012431250738e-04 -5.135354168430e-06 0.0 
-5.135354168430e-06 1.328125823973e-03 0.0 
0.0 0.0 -2.012431250738e-04 
-2.010076978229e-04 5.129027623315e-07 0.0 
5.129027623315e-07 1.332224423205e-03 0.0 
0.0 0.0 -2.010076978229e-04 
-1.200525084162e-04 -2.960169498126e-05 0.0 
-2.960169498126e-05 7.774099100136e-04 0.0 
0.0 0.0 -1.193279669386e-04 
-9.640785059628e-05 -2.657435829226e-05 0.0 
-2.657435829226e-05 6.329376874412e-04 0.0 
0.0 0.0 -9.642369099328e-05 
-1.430993903661e-04 -2.855154632445e-05 0.0 
-2.855154632445e-05 9.576101063938e-04 0.0 
0.0 0.0 -1.431539317715e-04 
-9.069725416876e-05 -2.857026822921e-05 0.0 
-2.857026822921e-05 5.911546440220e-04 0.0 
0.0 0.0 -9.061723822400e-05 
-3.022990634783e-05 -2.681786409130e-05 0.0 
-2.681786409130e-05 1.822763229384e-04 0.0 
0.0 0.0 -3.143827221009e-05 
-2.037753453247e-05 -2.478655429001e-05 0.0 
-2.478655429001e-05 8.790842240506e-05 0.0 
0.0 0.0 -1.801817686168e-05 
-1.836175097671e-04 -2.402430245032e-05 0.0 
-2.402430245032e-05 1.223987652140e-03 0.0 
0.0 0.0 -1.814249121503e-04 
-1.450545934085e-04 -3.153145532631e-05 0.0 
-3.153145532631e-05 9.685145142433e-04 0.0 
0.0 0.0 -1.447226300079e-04 
-1.125869054840e-04 -2.748101964700e-05 0.0 
-2.748101964700e-05 7.294325003239e-04 0.0 
0.0 0.0 -1.083718385576e-04 
-1.962159152819e-04 -1.434651956337e-06 0.0 
-1.434651956337e-06 1.365722808943e-03 0.0 
0.0 0.0 -1.985491694924e-04 
-5.585822177885e-05 -3.143630658045e-05 0.0 
-3.143630658045e-05 3.376755851757e-04 0.0 
0.0 0.0 -5.423556500690e-05 
-2.007881053171e-04 -1.726199718447e-06 0.0 
-1.726199718447e-06 1.364640639189e-03 0.0 
0.0 0.0 -1.987362728011e-04 
-1.448517594688e-04 2.793135192776e-05 0.0 
2.793135192776e-05 9.587643079544e-04 0.0 
0.0 0.0 -1.450563315224e-04 
-9.484276981656e-05 -2.674005154729e-05 0.0 
-2.674005154729e-05 6.234132904817e-04 0.0 
0.0 0.0 -9.504591620249e-05 
-1.382279383007e-04 2.787393037445e-05 0.0 
2.787393037445e-05 9.097739666025e-04 0.0 
0.0 0.0 -1.381945852821e-04 
-9.142868377808e-05 2.725850192794e-05 0.0 
2.725850192794e-05 5.832477346610e-04 0.0 
0.0 0.0 -9.142251929393e-05 
-4.742959093977e-05 3.178494059526e-05 0.0 
3.178494059526e-05 2.793740196453e-04 0.0 
0.0 0.0 -4.740468724644e-05 
-8.571259270612e-05 2.828259101351e-05 0.0 
2.828259101351e-05 5.446684396391e-04 0.0 
0.0 0.0 -8.592027974235e-05 
-1.533744480417e-04 2.894142802439e-05 0.0 
2.894142802439e-05 1.015636410024e-03 0.0 
0.0 0.0 -1.535624635791e-04 
-1.726464644829e-04 -3.048637260420e-05 0.0 
-3.048637260420e-05 1.163840887987e-03 0.0 
0.0 0.0 -1.733086171842e-04 
-9.280503597506e-05 2.727322910805e-05 0.0 
2.727322910805e-05 5.925489514016e-04 0.0 
0.0 0.0 -9.272779504641e-05 
-1.556220947506e-04 2.834035430820e-05 0.0 
2.834035430820e-05 1.030951438499e-03 0.0 
0.0 0.0 -1.554407367389e-04 
0.0 0.0 0.0 
0.0 0.0 0.0 
0.0 0.0 0.0 
-9.414991845574e-05 2.689042394907e-05 0.0 
2.689042394907e-05 6.016400273679e-04 0.0 
0.0 0.0 -9.399423243866e-05 
-1.601427960654e-04 -3.089969489527e-05 0.0 
-3.089969489527e-05 1.075322883485e-03 0.0 
0.0 0.0 -1.599578041173e-04 
-8.403714033751e-05 2.869873894183e-05 0.0 
2.869873894183e-05 5.323289088036e-04 0.0 
0.0 0.0 -8.424104700772e-05 
-7.551475753824e-05 -2.649474593413e-05 0.0 
-2.649474593413e-05 4.894460977115e-04 0.0 
0.0 0.0 -7.579321247091e-05 
-1.378493770478e-04 -2.790966319756e-05 0.0 
-2.790966319756e-05 9.196714216363e-04 0.0 
0.0 0.0 -1.378141772466e-04 
-4.197657932346e-05 3.036843921012e-05 0.0 
3.036843921012e-05 2.488746108878e-04 0.0 
0.0 0.0 -4.469345153978e-05 
-6.356553012414e-05 -1.790556961603e-05 0.0 
-1.790556961603e-05 3.571998655218e-04 0.0 
0.0 0.0 -5.800805537475e-05 
-5.963646489739e-05 -2.697912930355e-05 0.0 
-2.697912930355e-05 4.061213774054e-04 0.0 
0.0 0.0 -6.293882513644e-05 
-7.444587698182e-05 2.773637856154e-05 0.0 
2.773637856154e-05 4.649609944167e-04 0.0 
0.0 0.0 -7.460064588462e-05 
-1.268907598115e-04 -2.860718727315e-05 0.0 
-2.860718727315e-05 8.433503837867e-04 0.0 
0.0 0.0 -1.266626700847e-04 
-1.224386685492e-04 2.875829832121e-05 0.0 
2.875829832121e-05 7.993143987396e-04 0.0 
0.0 0.0 -1.222099179032e-04 
-1.550707846259e-04 -3.021300247570e-05 0.0 
-3.021300247570e-05 1.039277942014e-03 0.0 
0.0 0.0 -1.550846054886e-04 
-1.832450820655e-04 1.991288128733e-05 0.0 
1.991288128733e-05 1.215795306098e-03 0.0 
0.0 0.0 -1.836391296960e-04 
-6.655985465225e-05 1.933551370614e-05 0.0 
1.933551370614e-05 4.236408710896e-04 0.0 
0.0 0.0 -6.856221390244e-05 
-1.539423275274e-04 -3.704467856056e-05 0.0 
-3.704467856056e-05 1.025688764769e-03 0.0 
0.0 0.0 -1.542931291103e-04 
-1.848510975897e-04 1.848398553320e-05 0.0 
1.848398553320e-05 1.219703446086e-03 0.0 
0.0 0.0 -1.842621829813e-04 
-8.571771551762e-05 2.855827741082e-05 0.0 
2.855827741082e-05 5.438756567258e-04 0.0 
0.0 0.0 -8.561402555334e-05 
-3.203347885951e-05 3.153292785458e-05 0.0 
3.153292785458e-05 1.785175093333e-04 0.0 
0.0 0.0 -3.288300492123e-05 
-7.987216545887e-05 -2.346764247849e-05 0.0 
-2.346764247849e-05 5.184929031400e-04 0.0 
0.0 0.0 -7.995251146095e-05 
-1.212808198145e-04 -2.827766812275e-05 0.0 
-2.827766812275e-05 8.042920459384e-04 0.0 
0.0 0.0 -1.212446555230e-04 
-1.571887129407e-04 2.934596798488e-05 0.0 
2.934596798488e-05 1.038696799089e-03 0.0 
0.0 0.0 -1.564536520703e-04 
-1.218972312950e-04 2.856394456649e-05 0.0 
2.856394456649e-05 7.946681320418e-04 0.0 
0.0 0.0 -1.216241541690e-04 
-3.687132775950e-05 -1.707295352198e-05 0.0 
-1.707295352198e-05 2.178919936982e-04 0.0 
0.0 0.0 -3.514573890614e-05 
-1.365304663594e-04 -3.020632721963e-05 0.0 
-3.020632721963e-05 9.106175701847e-04 0.0 
0.0 0.0 -1.364410292409e-04 
-5.340251844815e-05 3.227075763275e-05 0.0 
3.227075763275e-05 3.197704478175e-04 0.0 
0.0 0.0 -5.262769246444e-05 
-1.221027789088e-04 -2.890393133813e-05 0.0 
-2.890393133813e-05 8.084198513028e-04 0.0 
0.0 0.0 -1.218536047623e-04 
-1.315166503229e-04 3.036725150384e-05 0.0 
3.036725150384e-05 8.626782461118e-04 0.0 
0.0 0.0 -1.313414595827e-04 
-1.426434875643e-04 2.845461346825e-05 0.0 
2.845461346825e-05 9.398077750181e-04 0.0 
0.0 0.0 -1.423708775668e-04 
-1.391130870296e-04 -2.561595399108e-05 0.0 
-2.561595399108e-05 9.319163416573e-04 0.0 
0.0 0.0 -1.424111980137e-04 
-7.359597002428e-05 -2.624347751830e-05 0.0 
-2.624347751830e-05 4.769960883137e-04 0.0 
0.0 0.0 -7.400431453448e-05 
-3.726862459375e-05 2.779553031089e-05 0.0 
2.779553031089e-05 2.059200017464e-04 0.0 
0.0 0.0 -3.689331396917e-05 
-1.412883241773e-04 3.117267937368e-05 0.0 
3.117267937368e-05 9.320815795036e-04 0.0 
0.0 0.0 -1.412299401741e-04 
-5.695030605691e-05 2.980577594809e-05 0.0 
2.980577594809e-05 3.524536248651e-04 0.0 
0.0 0.0 -5.785728901387e-05 
-1.619887946569e-05 3.142044942513e-05 0.0 
3.142044942513e-05 6.578946746101e-05 0.0 
0.0 0.0 -1.807788326025e-05 
-1.825504858472e-04 2.573963131551e-05 0.0 
2.573963131551e-05 1.217305172889e-03 0.0 
0.0 0.0 -1.835083836816e-04 
-1.729233565602e-04 2.872122229116e-05 0.0 
2.872122229116e-05 1.159887577617e-03 0.0 
0.0 0.0 -1.736153457326e-04 
-1.409164917213e-05 -2.430425574027e-06 0.0 
-2.430425574027e-06 4.702851798331e-05 0.0 
0.0 0.0 -1.411580091908e-05 
-1.463665932977e-04 -3.126704961804e-05 0.0 
-3.126704961804e-05 9.787427797795e-04 0.0 
0.0 0.0 -1.463746444899e-04 
-5.845062236023e-05 -2.645214861765e-05 0.0 
-2.645214861765e-05 3.686249821293e-04 0.0 
0.0 0.0 -5.830856659963e-05 
-6.281564360845e-05 3.169608016734e-05 0.0 
3.169608016734e-05 3.841253318981e-04 0.0 
0.0 0.0 -6.293782921230e-05 
-1.650668794472e-04 2.900743383490e-05 0.0 
2.900743383490e-05 1.099051719168e-03 0.0 
0.0 0.0 -1.651106757487e-04 
-1.420507125182e-04 -2.816985865578e-05 0.0 
-2.816985865578e-05 9.486624777595e-04 0.0 
0.0 0.0 -1.420128425420e-04 
-1.597126278327e-04 2.832051794153e-05 0.0 
2.832051794153e-05 1.060784632571e-03 0.0 
0.0 0.0 -1.597282110823e-04 
-9.370204679761e-05 -2.720544142818e-05 0.0 
-2.720544142818e-05 6.123683048539e-04 0.0 
0.0 0.0 -9.358332744048e-05 
-1.060009958935e-04 3.119096932655e-06 0.0 
3.119096932655e-06 7.289348751363e-04 0.0 
0.0 0.0 -1.065887642422e-04 
-1.941219239478e-04 -5.797046838501e-06 0.0 
-5.797046838501e-06 1.266619729961e-03 0.0 
0.0 0.0 -1.922307546206e-04 
-5.313245642963e-05 3.042191767076e-05 0.0 
3.042191767076e-05 3.144966903172e-04 0.0 
0.0 0.0 -5.312725273093e-05 
-1.687809558173e-04 -2.631258109430e-05 0.0 
-2.631258109430e-05 1.128223470622e-03 0.0 
0.0 0.0 -1.681832374459e-04 
-1.273764443761e-04 -2.878158037897e-05 0.0 
-2.878158037897e-05 8.455758404914e-04 0.0 
0.0 0.0 -1.271565067773e-04 
-3.822255344261e-05 2.500156110728e-05 0.0 
2.500156110728e-05 2.364164359659e-04 0.0 
0.0 0.0 -4.338531818388e-05 
-1.526166386163e-04 2.805935182056e-05 0.0 
2.805935182056e-05 1.007602313688e-03 0.0 
0.0 0.0 -1.522749921841e-04 
-9.947746693308e-05 2.785738393031e-05 0.0 
2.785738393031e-05 6.395594624911e-04 0.0 
0.0 0.0 -9.942043292989e-05 
-2.527098467302e-05 3.065658406321e-06 0.0 
3.065658406321e-06 1.096951272292e-04 0.0 
0.0 0.0 -2.686452779226e-05 
-8.455323570062e-05 2.729291629105e-05 0.0 
2.729291629105e-05 5.361235094493e-04 0.0 
0.0 0.0 -8.448194383576e-05 
-1.482631539770e-04 2.903868462658e-05 0.0 
2.903868462658e-05 9.945552025979e-04 0.0 
0.0 0.0 -1.487312575846e-04 
-1.536438978435e-04 -2.997531100621e-05 0.0 
-2.997531100621e-05 1.028351940357e-03 0.0 
0.0 0.0 -1.531470540813e-04 
-4.003077281978e-05 -2.830715996030e-05 0.0 
-2.830715996030e-05 2.471369193858e-04 0.0 
0.0 0.0 -4.069786302508e-05 
-1.167976821101e-04 -1.770134624163e-05 0.0 
-1.770134624163e-05 8.139301953201e-04 0.0 
0.0 0.0 -1.211443205810e-04 
-1.611165232338e-04 2.978772478272e-05 0.0 
2.978772478272e-05 1.070172218379e-03 0.0 
0.0 0.0 -1.607673801326e-04 
-1.654344347163e-04 -2.702413096073e-05 0.0 
-2.702413096073e-05 1.117079121565e-03 0.0 
0.0 0.0 -1.664840065771e-04 
-8.012874751740e-05 2.708679385402e-05 0.0 
2.708679385402e-05 5.044541792441e-04 0.0 
0.0 0.0 -8.027607217676e-05 
-6.457567760665e-05 2.897485867730e-05 0.0 
2.897485867730e-05 3.931630492274e-04 0.0 
0.0 0.0 -6.500901228657e-05 
-1.319964825975e-04 2.994843719676e-05 0.0 
2.994843719676e-05 8.668112520758e-04 0.0 
0.0 0.0 -1.317940137408e-04 
-1.379973298544e-04 -3.231272729127e-05 0.0 
-3.231272729127e-05 9.176099760799e-04 0.0 
0.0 0.0 -1.391846276019e-04 
-2.511391392826e-05 -2.252014201736e-06 0.0 
-2.252014201736e-06 1.091572524748e-04 0.0 
0.0 0.0 -2.644390370036e-05 
-1.911173997413e-04 2.513512913463e-07 0.0 
2.513512913463e-07 1.307038771946e-03 0.0 
0.0 0.0 -1.903768894597e-04 
-1.947762233824e-04 2.804254327122e-06 0.0 
2.804254327122e-06 1.266513292292e-03 0.0 
0.0 0.0 -1.921796786394e-04 
-1.243941132727e-04 -2.875762744524e-05 0.0 
-2.875762744524e-05 8.122420463557e-04 0.0 
0.0 0.0 -1.258162180156e-04 
-1.867429468804e-04 -3.423015533406e-05 0.0 
-3.423015533406e-05 1.277419804644e-03 0.0 
0.0 0.0 -1.882556412575e-04 
-1.928393192665e-04 1.313739391776e-05 0.0 
1.313739391776e-05 1.270533835261e-03 0.0 
0.0 0.0 -1.928249870753e-04 
-9.825942552837e-05 2.769137061349e-05 0.0 
2.769137061349e-05 6.308847079493e-04 0.0 
0.0 0.0 -9.814123251156e-05 
-9.240950567659e-05 -2.688842748606e-05 0.0 
-2.688842748606e-05 6.034653479681e-04 0.0 
0.0 0.0 -9.230175702903e-05 
-1.924550016248e-04 -5.517505549701e-06 0.0 
-5.517505549701e-06 1.309202189480e-03 0.0 
0.0 0.0 -1.898303498781e-04 
0.0 0.0 0.0 
0.0 0.0 0.0 
0.0 0.0 0.0 
-5.986600181462e-05 3.134474346182e-05 0.0 
3.134474346182e-05 3.637594613067e-04 0.0 
0.0 0.0 -5.912561730725e-05 
-1.277191406744e-04 3.185114804781e-05 0.0 
3.185114804781e-05 8.113680378929e-04 0.0 
0.0 0.0 -1.249421346972e-04 
-7.954199844612e-05 -2.599168722282e-05 0.0 
-2.599168722282e-05 5.172406604270e-04 0.0 
0.0 0.0 -7.970319495692e-05 
-8.344577563047e-05 2.767374510833e-05 0.0 
2.767374510833e-05 5.269368746357e-04 0.0 
0.0 0.0 -8.320397106721e-05 
-5.123352415357e-05 -1.962082412885e-05 0.0 
-1.962082412885e-05 2.833973025222e-04 0.0 
0.0 0.0 -4.794777681703e-05 
-5.363517740645e-05 -2.722736862369e-05 0.0 
-2.722736862369e-05 3.397176592673e-04 0.0 
0.0 0.0 -5.292094912726e-05 
-1.229699465830e-04 -2.474218581881e-05 0.0 
-2.474218581881e-05 8.338820409090e-04 0.0 
0.0 0.0 -1.243503989146e-04 
-8.954054874187e-05 -2.810899154469e-05 0.0 
-2.810899154469e-05 5.833404363378e-04 0.0 
0.0 0.0 -8.944382273678e-05 
-6.985122537492e-05 2.547846832151e-05 0.0 
2.547846832151e-05 4.232868362094e-04 0.0 
0.0 0.0 -6.875210277632e-05 
-1.622986423916e-04 3.030474729067e-05 0.0 
3.030474729067e-05 1.075790270672e-03 0.0 
0.0 0.0 -1.616748170441e-04 
-1.970457297167e-04 -4.615350947609e-07 0.0 
-4.615350947609e-07 1.365353191212e-03 0.0 
0.0 0.0 -1.987468137814e-04 
-2.011643228250e-04 -1.059779547839e-05 0.0 
-1.059779547839e-05 1.364052595584e-03 0.0 
0.0 0.0 -1.980937377599e-04 
-9.693254618166e-05 2.783443467965e-05 0.0 
2.783443467965e-05 6.218009159431e-04 0.0 
0.0 0.0 -9.686140561256e-05 
-1.156312054849e-04 1.562675777246e-05 0.0 
1.562675777246e-05 7.473137010807e-04 0.0 
0.0 0.0 -1.181631233816e-04 
-1.315446083417e-05 9.267234980748e-06 0.0 
9.267234980748e-06 7.174483292748e-05 0.0 
0.0 0.0 -1.382283957119e-05 
-3.950432290439e-05 -3.304652588177e-05 0.0 
-3.304652588177e-05 2.232498512061e-04 0.0 
0.0 0.0 -3.848526569788e-05 
-4.026754611448e-05 -1.523950676683e-05 0.0 
-1.523950676683e-05 2.585395099571e-04 0.0 
0.0 0.0 -4.089435477168e-05 
-4.405717477573e-05 -2.840252196370e-05 0.0 
-2.840252196370e-05 2.593828358352e-04 0.0 
0.0 0.0 -4.353896887732e-05 
-1.369891124347e-04 -2.938640967182e-05 0.0 
-2.938640967182e-05 9.110848461242e-04 0.0 
0.0 0.0 -1.367406709454e-04 
-8.197230901988e-05 2.741985235272e-05 0.0 
2.741985235272e-05 5.176025942286e-04 0.0 
0.0 0.0 -8.189493801327e-05 
-8.833783776842e-05 -2.742859021068e-05 0.0 
-2.742859021068e-05 5.752104247670e-04 0.0 
0.0 0.0 -8.819787836180e-05 
-2.759805077317e-05 -2.177954618106e-05 0.0 
-2.177954618106e-05 1.516326812049e-04 0.0 
0.0 0.0 -2.410601229523e-05 
-1.783949706295e-04 4.652042299768e-06 0.0 
4.652042299768e-06 1.155328432911e-03 0.0 
0.0 0.0 -1.764490618968e-04 
-8.697929300319e-05 -2.712992243026e-05 0.0 
-2.712992243026e-05 5.660070619168e-04 0.0 
0.0 0.0 -8.689161518363e-05 
-1.811862770176e-04 2.958422209347e-05 0.0 
2.958422209347e-05 1.212546250600e-03 0.0 
0.0 0.0 -1.819436774484e-04 
-1.654326848783e-04 -2.150075195991e-05 0.0 
-2.150075195991e-05 1.111682717818e-03 0.0 
0.0 0.0 -1.676190675002e-04 
-1.990579489887e-04 7.558524711792e-06 0.0 
7.558524711792e-06 1.367618541641e-03 0.0 
0.0 0.0 -1.979127976728e-04 
-1.984740657803e-04 6.169813976071e-06 0.0 
6.169813976071e-06 1.366684838106e-03 0.0 
0.0 0.0 -1.987274449783e-04 
-1.264382104229e-04 2.327908082404e-05 0.0 
2.327908082404e-05 8.335131054815e-04 0.0 
0.0 0.0 -1.247270797671e-04 
-9.081273998971e-05 -2.642393334738e-05 0.0 
-2.642393334738e-05 5.943836386239e-04 0.0 
0.0 0.0 -9.095240399918e-05 
-5.659837629473e-05 2.310276724227e-05 0.0 
2.310276724227e-05 3.554825826269e-04 0.0 
0.0 0.0 -5.827376162698e-05 
-9.543789626242e-05 2.821234483008e-05 0.0 
2.821234483008e-05 6.121934733358e-04 0.0 
0.0 0.0 -9.551854370315e-05 
-2.014992525440e-04 -3.363348043908e-06 0.0 
-3.363348043908e-06 1.330768717372e-03 0.0 
0.0 0.0 -2.014992525441e-04 
-2.911856940717e-05 -3.120254985375e-05 0.0 
-3.120254985375e-05 1.523266154115e-04 0.0 
0.0 0.0 -2.840051313461e-05 
-3.367815072839e-05 -2.539476975202e-05 0.0 
-2.539476975202e-05 1.888854888445e-04 0.0 
0.0 0.0 -3.342821812567e-05 
-1.750673059660e-04 -2.242675268741e-05 0.0 
-2.242675268741e-05 1.168754862597e-03 0.0 
0.0 0.0 -1.734041932760e-04 
-1.140629508000e-04 1.641024004697e-06 0.0 
1.641024004697e-06 7.886218254393e-04 0.0 
0.0 0.0 -1.157284414847e-04 
-1.828276393895e-04 3.087967014604e-05 0.0 
3.087967014604e-05 1.221678860241e-03 0.0 
0.0 0.0 -1.828919613360e-04 
-1.607219730026e-04 -3.054484747269e-05 0.0 
-3.054484747269e-05 1.076626864861e-03 0.0 
0.0 0.0 -1.604417944905e-04 
-1.759974315114e-04 2.950983775753e-05 0.0 
2.950983775753e-05 1.175337678647e-03 0.0 
0.0 0.0 -1.762554578086e-04 
-1.677687622884e-04 -3.310916950601e-05 0.0 
-3.310916950601e-05 1.126220187005e-03 0.0 
0.0 0.0 -1.670365378361e-04 
-1.261810872000e-04 2.733892666963e-05 0.0 
2.733892666963e-05 8.227216474371e-04 0.0 
0.0 0.0 -1.281412631256e-04 
-6.984160407426e-05 -2.569852845702e-05 0.0 
-2.569852845702e-05 4.502664572317e-04 0.0 
0.0 0.0 -7.011576570921e-05 
-7.045526019658e-05 2.772076042237e-05 0.0 
2.772076042237e-05 4.380896674180e-04 0.0 
0.0 0.0 -7.073545507566e-05 
-1.466548664850e-04 2.792940741624e-05 0.0 
2.792940741624e-05 9.823660011168e-04 0.0 
0.0 0.0 -1.494458990106e-04 
-1.706023771645e-04 -3.477697252798e-05 0.0 
-3.477697252798e-05 1.150206027511e-03 0.0 
0.0 0.0 -1.713759566437e-04 
-1.085001106667e-04 5.928666841059e-06 0.0 
5.928666841059e-06 6.853690661460e-04 0.0 
0.0 0.0 -1.101783339608e-04 
-1.150649004483e-04 1.412858253897e-06 0.0 
1.412858253897e-06 7.864362268725e-04 0.0 
0.0 0.0 -1.151410349708e-04 
-1.223216217609e-04 -9.643435354381e-06 0.0 
-9.643435354381e-06 8.365929199838e-04 0.0 
0.0 0.0 -1.236345454382e-04 
-1.294729616351e-04 -3.600365409418e-05 0.0 
-3.600365409418e-05 8.499666954327e-04 0.0 
0.0 0.0 -1.270110218628e-04 
-3.781341392471e-05 2.507622857635e-05 0.0 
2.507622857635e-05 2.052845259731e-04 0.0 
0.0 0.0 -3.595854163006e-05 
-6.458682171984e-05 2.659164458955e-05 0.0 
2.659164458955e-05 3.972184272214e-04 0.0 
0.0 0.0 -6.502768632134e-05 
-1.923886982600e-04 1.320998767323e-05 0.0 
1.320998767323e-05 1.306937799645e-03 0.0 
0.0 0.0 -1.903965550180e-04 
-1.361980047059e-04 -3.247265742576e-05 0.0 
-3.247265742576e-05 9.100748945017e-04 0.0 
0.0 0.0 -1.372586556570e-04 
-1.944603101426e-04 2.205610195430e-05 0.0 
2.205610195430e-05 1.300606094326e-03 0.0 
0.0 0.0 -1.942983085767e-04 
-1.827075834453e-04 -2.487186144062e-05 0.0 
-2.487186144062e-05 1.245028194062e-03 0.0 
0.0 0.0 -1.823366321910e-04 
-1.526241956249e-04 -2.882515710348e-05 0.0 
-2.882515710348e-05 1.018355065020e-03 0.0 
0.0 0.0 -1.518848343264e-04 
-1.838055376607e-04 -2.220867482896e-05 0.0 
-2.220867482896e-05 1.227930453973e-03 0.0 
0.0 0.0 -1.822360600334e-04 
-9.189141723329e-05 2.249896247985e-05 0.0 
2.249896247985e-05 5.929179490977e-04 0.0 
0.0 0.0 -9.456744988920e-05 
-8.923687427635e-05 2.330452976089e-05 0.0 
2.330452976089e-05 5.640846174988e-04 0.0 
0.0 0.0 -8.500284120953e-05 
-1.860377161479e-04 2.101899850403e-05 0.0 
2.101899850403e-05 1.219211786622e-03 0.0 
0.0 0.0 -1.840276857211e-04 
-1.302266885565e-05 9.542950408396e-06 0.0 
9.542950408396e-06 4.432884133333e-05 0.0 
0.0 0.0 -1.341693106186e-05 
-5.991703112053e-05 -9.650650547908e-06 0.0 
-9.650650547908e-06 3.995700475142e-04 0.0 
0.0 0.0 -6.107461134110e-05 
-2.013608632250e-04 -1.747935064146e-06 0.0 
-1.747935064146e-06 1.327091793787e-03 0.0 
0.0 0.0 -2.013608632250e-04 
-3.423275746667e-05 -2.897869870394e-05 0.0 
-2.897869870394e-05 1.741934079208e-04 0.0 
0.0 0.0 -3.398704224317e-05 
-1.166987184465e-04 3.376260708005e-06 0.0 
3.376260708005e-06 7.464150060637e-04 0.0 
0.0 0.0 -1.180517715949e-04 
-1.852951862543e-04 -6.895901531865e-06 0.0 
-6.895901531865e-06 1.252882415007e-03 0.0 
0.0 0.0 -1.820192905179e-04 
-2.189567273794e-05 2.107266617838e-05 0.0 
2.107266617838e-05 1.234442803628e-04 0.0 
0.0 0.0 -2.343543478003e-05 
-1.465373239062e-05 -6.700273643796e-06 0.0 
-6.700273643796e-06 8.151640789741e-05 0.0 
0.0 0.0 -1.499806864391e-05 
-1.979646109231e-04 -1.647947049056e-05 0.0 
-1.647947049056e-05 1.362929175419e-03 0.0 
0.0 0.0 -1.986584787576e-04 
-1.077110760694e-04 1.347870292468e-05 0.0 
1.347870292468e-05 6.884288505410e-04 0.0 
0.0 0.0 -1.094181415373e-04 
-1.878064882795e-04 3.303246132633e-05 0.0 
3.303246132633e-05 1.280874072015e-03 0.0 
0.0 0.0 -1.892127523904e-04 
-1.872574646803e-04 1.669387870556e-06 0.0 
1.669387870556e-06 1.214710811889e-03 0.0 
0.0 0.0 -1.847787516803e-04 
-1.081384153803e-04 -8.265982315710e-06 0.0 
-8.265982315710e-06 6.863175329085e-04 0.0 
0.0 0.0 -1.093391956339e-04 
-1.183108474329e-05 -1.526745450730e-06 0.0 
-1.526745450730e-06 8.288041116295e-05 0.0 
0.0 0.0 -1.461037633882e-05 
-1.928461778371e-04 -1.450363078147e-05 0.0 
-1.450363078147e-05 1.269631515360e-03 0.0 
0.0 0.0 -1.926211076318e-04 
-3.664328028393e-05 -3.474192895717e-05 0.0 
-3.474192895717e-05 2.008554549357e-04 0.0 
0.0 0.0 -3.650318340572e-05 
-1.865092181227e-04 1.872239000524e-05 0.0 
1.872239000524e-05 1.228864859043e-03 0.0 
0.0 0.0 -1.848276476440e-04 
-2.014642658289e-04 -8.318866801392e-08 0.0 
-8.318866801392e-08 1.329164711416e-03 0.0 
0.0 0.0 -2.014642658289e-04 
-1.863725232052e-04 -2.215017484820e-05 0.0 
-2.215017484820e-05 1.224672282405e-03 0.0 
0.0 0.0 -1.838550531888e-04 
-4.579760219593e-05 2.993393437161e-05 0.0 
2.993393437161e-05 2.630911927245e-04 0.0 
0.0 0.0 -4.567146191493e-05 
-1.231376912533e-04 3.302421736628e-06 0.0 
3.302421736628e-06 8.455036824614e-04 0.0 
0.0 0.0 -1.241871602230e-04 
-9.897320674459e-05 -1.982042870943e-05 0.0 
-1.982042870943e-05 6.300759750379e-04 0.0 
0.0 0.0 -9.407984802336e-05 
-1.609514246157e-04 -3.024200816091e-05 0.0 
-3.024200816091e-05 1.078541844928e-03 0.0 
0.0 0.0 -1.616399041023e-04 
-1.984206323310e-04 -1.383870975889e-05 0.0 
-1.383870975889e-05 1.364918109129e-03 0.0 
0.0 0.0 -1.990496603105e-04 
-1.603101285724e-04 1.893623053607e-05 0.0 
1.893623053607e-05 1.069942872822e-03 0.0 
0.0 0.0 -1.592422372747e-04 
-2.006038303863e-04 1.656223959945e-05 0.0 
1.656223959945e-05 1.363483438763e-03 0.0 
0.0 0.0 -1.988805961512e-04 
-2.157799468526e-05 2.675018284335e-05 0.0 
2.675018284335e-05 1.121671203490e-04 0.0 
0.0 0.0 -2.573693149021e-05 
-1.906849838871e-04 -1.873571465641e-05 0.0 
-1.873571465641e-05 1.306053010621e-03 0.0 
0.0 0.0 -1.916484765783e-04 
-5.146266627946e-05 1.897216913104e-05 0.0 
1.897216913104e-05 3.060778228498e-04 0.0 
0.0 0.0 -5.033941334868e-05 
-3.400990015803e-05 1.312678026193e-05 0.0 
1.312678026193e-05 1.676110055634e-04 0.0 
0.0 0.0 -3.447177322316e-05 
-1.921352674404e-04 -1.514543928923e-05 0.0 
-1.514543928923e-05 1.307880338866e-03 0.0 
0.0 0.0 -1.905503066306e-04 
-1.903818942750e-04 -8.555148187785e-06 0.0 
-8.555148187785e-06 1.309224873111e-03 0.0 
0.0 0.0 -1.905905039252e-04 
-1.935313273260e-04 -2.488564283104e-05 0.0 
-2.488564283104e-05 1.299799287321e-03 0.0 
0.0 0.0 -1.934776258129e-04 
-1.157635836836e-04 3.075917002700e-05 0.0 
3.075917002700e-05 7.564878727472e-04 0.0 
0.0 0.0 -1.164394980702e-04 
-1.278320406392e-04 3.003959765809e-05 0.0 
3.003959765809e-05 8.242995150328e-04 0.0 
0.0 0.0 -1.273429404365e-04 
-4.747607610046e-05 -3.167630139555e-05 0.0 
-3.167630139555e-05 2.832612339686e-04 0.0 
0.0 0.0 -4.701750159920e-05 
-1.893682873149e-04 -1.213845527048e-05 0.0 
-1.213845527048e-05 1.308095530746e-03 0.0 
0.0 0.0 -1.909562210215e-04 
-7.758444785249e-05 2.579970670889e-05 0.0 
2.579970670889e-05 5.061981746731e-04 0.0 
0.0 0.0 -8.036225567980e-05 
-2.672886924063e-05 -2.537961056617e-05 0.0 
-2.537961056617e-05 1.614624818245e-04 0.0 
0.0 0.0 -3.171414542872e-05 
-1.655918154031e-04 2.787053237580e-05 0.0 
2.787053237580e-05 1.112934476303e-03 0.0 
0.0 0.0 -1.665212293607e-04 
-1.050972551552e-04 -3.025884205917e-06 0.0 
-3.025884205917e-06 7.225874036591e-04 0.0 
0.0 0.0 -1.064449299410e-04 
-1.855125743211e-04 2.284061724598e-05 0.0 
2.284061724598e-05 1.238197266214e-03 0.0 
0.0 0.0 -1.856594579394e-04 
-1.969980593816e-04 -2.792765841710e-05 0.0 
-2.792765841710e-05 1.348466243731e-03 0.0 
0.0 0.0 -1.982264973081e-04 
-2.015598306414e-04 -1.228437926459e-06 0.0 
-1.228437926459e-06 1.329727235481e-03 0.0 
0.0 0.0 -2.015598306414e-04 
-3.170965654814e-06 -9.174846607934e-06 0.0 
-9.174846607934e-06 3.186703010945e-05 0.0 
0.0 0.0 -6.440169358563e-06 
-2.054361880700e-06 8.524325078712e-06 0.0 
8.524325078712e-06 1.000738199139e-05 0.0 
0.0 0.0 -3.408437190294e-06 
-1.090415563488e-04 -2.544674541070e-05 0.0 
-2.544674541070e-05 7.025551525996e-04 0.0 
0.0 0.0 -1.097735026919e-04 
-1.102790978540e-04 4.096896239264e-06 0.0 
4.096896239264e-06 7.242490524547e-04 0.0 
0.0 0.0 -1.064401693586e-04 
-2.015598306414e-04 1.769844580753e-06 0.0 
1.769844580753e-06 1.328559462674e-03 0.0 
0.0 0.0 -2.015598306414e-04 
-1.964566527274e-04 2.745948387429e-05 0.0 
2.745948387429e-05 1.347766645467e-03 0.0 
0.0 0.0 -1.982264973081e-04 
-1.175853557175e-05 2.296138750723e-05 0.0 
2.296138750723e-05 7.476526502358e-05 0.0 
0.0 0.0 -1.468179278604e-05 
0.0 0.0 0.0 
0.0 0.0 0.0 
0.0 0.0 0.0 
-1.860643112087e-04 1.892522092608e-05 0.0 
1.892522092608e-05 1.220604956089e-03 0.0 
0.0 0.0 -1.845272605536e-04 
-1.810613338557e-04 3.690531828789e-05 0.0 
3.690531828789e-05 1.227609320804e-03 0.0 
0.0 0.0 -1.814046177210e-04 
-3.775454928550e-05 -2.192142162525e-05 0.0 
-2.192142162525e-05 2.530653962175e-04 0.0 
0.0 0.0 -4.069012186385e-05 
-1.867893258397e-04 -1.967907292950e-05 0.0 
-1.967907292950e-05 1.242445273872e-03 0.0 
0.0 0.0 -1.860287822001e-04 
-1.322273957044e-04 -7.821980177849e-06 0.0 
-7.821980177849e-06 8.613081851453e-04 0.0 
0.0 0.0 -1.333256398531e-04 
-1.174513720599e-04 -2.922099993004e-05 0.0 
-2.922099993004e-05 7.623791286875e-04 0.0 
0.0 0.0 -1.141619444601e-04 
-1.434157263431e-04 1.469820453960e-05 0.0 
1.469820453960e-05 9.640681819544e-04 0.0 
0.0 0.0 -1.410117391569e-04 
-3.721642999109e-05 2.244542666226e-05 0.0 
2.244542666226e-05 2.273693429633e-04 0.0 
0.0 0.0 -3.939304728150e-05 
-1.516361842959e-04 -3.045658684071e-05 0.0 
-3.045658684071e-05 1.014390478774e-03 0.0 
0.0 0.0 -1.517486197524e-04 
-3.145165589743e-05 4.872235620209e-06 0.0 
4.872235620209e-06 2.090450929269e-04 0.0 
0.0 0.0 -3.272226055558e-05 
-1.018895751593e-04 -2.838951770175e-05 0.0 
-2.838951770175e-05 6.787429923759e-04 0.0 
0.0 0.0 -1.049612269729e-04 
-1.842198203986e-04 1.688848171670e-05 0.0 
1.688848171670e-05 1.232258602772e-03 0.0 
0.0 0.0 -1.860778644041e-04 
-1.784559347742e-04 -3.196727202869e-05 0.0 
-3.196727202869e-05 1.203750059331e-03 0.0 
0.0 0.0 -1.787589168632e-04 
-1.106507503052e-04 1.655731803460e-05 0.0 
1.655731803460e-05 7.326885674445e-04 0.0 
0.0 0.0 -1.153641303439e-04 
-1.319245288081e-04 -2.759428203750e-05 0.0 
-2.759428203750e-05 8.842042796758e-04 0.0 
0.0 0.0 -1.311848925397e-04 
-1.849952147230e-04 1.224005731978e-05 0.0 
1.224005731978e-05 1.253709795229e-03 0.0 
0.0 0.0 -1.825679017964e-04 
-1.712361580956e-04 -3.249029055204e-05 0.0 
-3.249029055204e-05 1.152848638026e-03 0.0 
0.0 0.0 -1.711417214974e-04 
-1.621790656513e-04 -3.130066982025e-05 0.0 
-3.130066982025e-05 1.085309995837e-03 0.0 
0.0 0.0 -1.614640498619e-04 
-1.095991344629e-04 1.548110486480e-06 0.0 
1.548110486480e-06 6.849847840864e-04 0.0 
0.0 0.0 -1.096818516252e-04 
-1.466797614329e-04 -3.177988380746e-05 0.0 
-3.177988380746e-05 9.793946946612e-04 0.0 
0.0 0.0 -1.464567251102e-04 
-1.856217654582e-04 1.836261976242e-05 0.0 
1.836261976242e-05 1.223913084915e-03 0.0 
0.0 0.0 -1.847107394661e-04 
-6.401317792094e-05 1.777757210555e-05 0.0 
1.777757210555e-05 3.770292953028e-04 0.0 
0.0 0.0 -6.251951766002e-05 
-1.488249501970e-05 -6.661613433421e-06 0.0 
-6.661613433421e-06 9.049355169821e-05 0.0 
0.0 0.0 -1.522736731176e-05 
-1.794781203063e-04 -2.177148621612e-05 0.0 
-2.177148621612e-05 1.190948333360e-03 0.0 
0.0 0.0 -1.778962838413e-04 
-1.689754393540e-04 2.666341982877e-05 0.0 
2.666341982877e-05 1.121590302909e-03 0.0 
0.0 0.0 -1.685307334786e-04 
-3.117516894872e-05 -1.620379493923e-05 0.0 
-1.620379493923e-05 1.675088401558e-04 0.0 
0.0 0.0 -3.460570515138e-05 
-1.490209525484e-04 -2.398959439852e-05 0.0 
-2.398959439852e-05 1.009624786866e-03 0.0 
0.0 0.0 -1.484000725648e-04 
-1.941728230886e-04 -6.317229650202e-06 0.0 
-6.317229650202e-06 1.268109449836e-03 0.0 
0.0 0.0 -1.924109378829e-04 
-1.782640686020e-04 1.811418483105e-05 0.0 
1.811418483105e-05 1.176788769021e-03 0.0 
0.0 0.0 -1.773110165667e-04 
-1.844275111855e-04 -4.383617168843e-06 0.0 
-4.383617168843e-06 1.252791151838e-03 0.0 
0.0 0.0 -1.822694409164e-04 
-1.426350801095e-04 -3.166405234979e-05 0.0 
-3.166405234979e-05 9.429700556337e-04 0.0 
0.0 0.0 -1.430568974379e-04 
-1.367048638434e-05 7.547793984128e-06 0.0 
7.547793984128e-06 4.809613176051e-05 0.0 
0.0 0.0 -1.475384801836e-05 
-4.817205637438e-05 1.518979907033e-05 0.0 
1.518979907033e-05 2.815959802160e-04 0.0 
0.0 0.0 -4.818665537949e-05 
-5.802518359896e-05 -3.237118775929e-05 0.0 
-3.237118775929e-05 3.560287674836e-04 0.0 
0.0 0.0 -5.751524148975e-05 
-1.222811217371e-04 4.923148903369e-06 0.0 
4.923148903369e-06 8.049151145100e-04 0.0 
0.0 0.0 -1.270714490912e-04 
-1.466466955193e-04 3.242901086422e-05 0.0 
3.242901086422e-05 9.717833108994e-04 0.0 
0.0 0.0 -1.467240436239e-04 
-1.865030099579e-04 -2.458316919408e-05 0.0 
-2.458316919408e-05 1.244081238438e-03 0.0 
0.0 0.0 -1.854811886535e-04 
-1.924470582108e-04 1.025180310993e-05 0.0 
1.025180310993e-05 1.267008412016e-03 0.0 
0.0 0.0 -1.923487814140e-04 
-2.301609062590e-05 -4.635179033559e-06 0.0 
-4.635179033559e-06 1.491120452597e-04 0.0 
0.0 0.0 -2.371590567936e-05 
-2.273962015617e-05 8.021387614827e-06 0.0 
8.021387614827e-06 1.424948937247e-04 0.0 
0.0 0.0 -2.307420961409e-05 
-3.644996023323e-05 3.054667220110e-05 0.0 
3.054667220110e-05 2.219148594571e-04 0.0 
0.0 0.0 -3.877784743978e-05 
-1.505507532998e-04 4.198429125548e-05 0.0 
4.198429125548e-05 1.006744199268e-03 0.0 
0.0 0.0 -1.528863196834e-04 
-7.623962459717e-05 -2.731195048099e-05 0.0 
-2.731195048099e-05 4.837899918121e-04 0.0 
0.0 0.0 -7.429924588524e-05 
-1.863524508622e-04 -2.262089027383e-05 0.0 
-2.262089027383e-05 1.249803366509e-03 0.0 
0.0 0.0 -1.861947641336e-04 
-3.704741075814e-05 -2.601020683146e-05 0.0 
-2.601020683146e-05 2.394628484622e-04 0.0 
0.0 0.0 -3.935861431135e-05 
-1.838103394031e-04 1.452656825211e-05 0.0 
1.452656825211e-05 1.213648829434e-03 0.0 
0.0 0.0 -1.831728902790e-04 
-1.220456595190e-04 2.683931147050e-05 0.0 
2.683931147050e-05 8.169008266022e-04 0.0 
0.0 0.0 -1.251559851210e-04 
-1.901741937142e-04 2.069168076262e-07 0.0 
2.069168076262e-07 1.274360012601e-03 0.0 
0.0 0.0 -1.930223408588e-04 
-1.664726505804e-04 -3.515055495158e-05 0.0 
-3.515055495158e-05 1.122391429995e-03 0.0 
0.0 0.0 -1.666682952710e-04 
-1.230362842828e-04 -1.324599728564e-05 0.0 
-1.324599728564e-05 8.068584181325e-04 0.0 
0.0 0.0 -1.269771275557e-04 
-1.906319308292e-04 -7.278184392238e-06 0.0 
-7.278184392238e-06 1.308928167031e-03 0.0 
0.0 0.0 -1.903713883127e-04 
-1.924018578301e-04 1.168444968946e-05 0.0 
1.168444968946e-05 1.309753043894e-03 0.0 
0.0 0.0 -1.909090898364e-04 
-1.885954729481e-04 9.336154218136e-06 0.0 
9.336154218136e-06 1.306961112302e-03 0.0 
0.0 0.0 -1.907009018511e-04 
-2.601124528020e-05 2.982465109596e-05 0.0 
2.982465109596e-05 1.494137909599e-04 0.0 
0.0 0.0 -2.872079986757e-05 
-1.827342744304e-04 2.617845691474e-05 0.0 
2.617845691474e-05 1.218950538624e-03 0.0 
0.0 0.0 -1.827464329712e-04 
-1.931535913243e-04 4.402691257463e-06 0.0 
4.402691257463e-06 1.267632643707e-03 0.0 
0.0 0.0 -1.929967939697e-04 
-1.822938180470e-04 -1.572479834584e-05 0.0 
-1.572479834584e-05 1.239626265032e-03 0.0 
0.0 0.0 -1.817603729293e-04 
-1.697190279031e-04 3.374893720717e-05 0.0 
3.374893720717e-05 1.140711286613e-03 0.0 
0.0 0.0 -1.714881096122e-04 
-2.013997750954e-04 3.693939357452e-06 0.0 
3.693939357452e-06 1.326398449399e-03 0.0 
0.0 0.0 -2.013997750954e-04 
-1.623768653750e-04 3.145458215279e-05 0.0 
3.145458215279e-05 1.075477552169e-03 0.0 
0.0 0.0 -1.618597882954e-04 
0.0 0.0 0.0 
0.0 0.0 0.0 
0.0 0.0 0.0 
-3.901664739789e-05 -3.107536671977e-05 0.0 
-3.107536671977e-05 2.123759730741e-04 0.0 
0.0 0.0 -3.635714225545e-05 
-1.788762468223e-04 -2.668815126998e-05 0.0 
-2.668815126998e-05 1.194169313249e-03 0.0 
0.0 0.0 -1.765404546707e-04 
-1.302843948315e-04 2.373413498694e-05 0.0 
2.373413498694e-05 8.753673031711e-04 0.0 
0.0 0.0 -1.332692038199e-04 
-1.814833852286e-04 -2.932987962222e-05 0.0 
-2.932987962222e-05 1.228315456518e-03 0.0 
0.0 0.0 -1.832991189648e-04 
-1.755755594055e-04 -3.314975176265e-05 0.0 
-3.314975176265e-05 1.186338389567e-03 0.0 
0.0 0.0 -1.765514316642e-04 
-1.922058959132e-04 -7.323986232709e-06 0.0 
-7.323986232709e-06 1.275540875639e-03 0.0 
0.0 0.0 -1.938374750990e-04 
-1.590886801341e-04 3.535348640505e-05 0.0 
3.535348640505e-05 1.086454937064e-03 0.0 
0.0 0.0 -1.628282188246e-04 
-1.943136192193e-04 -2.017280466188e-06 0.0 
-2.017280466188e-06 1.274660348820e-03 0.0 
0.0 0.0 -1.933460184500e-04 
-1.860409899402e-04 -2.465939863213e-05 0.0 
-2.465939863213e-05 1.243243537266e-03 0.0 
0.0 0.0 -1.849983659001e-04 
-1.854493454621e-04 2.521523578023e-05 0.0 
2.521523578023e-05 1.237363143253e-03 0.0 
0.0 0.0 -1.852565349593e-04 
-7.800610219477e-05 -1.750136496523e-05 0.0 
-1.750136496523e-05 5.077823231346e-04 0.0 
0.0 0.0 -7.657446018549e-05 
-1.940082963474e-04 -3.011324743449e-06 0.0 
-3.011324743449e-06 1.367135927910e-03 0.0 
0.0 0.0 -1.988462912301e-04 
-1.122847898646e-04 2.150658952302e-06 0.0 
2.150658952302e-06 7.831127334676e-04 0.0 
0.0 0.0 -1.149322996356e-04 
-1.805030425337e-04 -2.769681372488e-05 0.0 
-2.769681372488e-05 1.229209747324e-03 0.0 
0.0 0.0 -1.826109592864e-04 
-2.210772205688e-05 -1.141237861015e-05 0.0 
-1.141237861015e-05 1.058730840806e-04 0.0 
0.0 0.0 -2.642964691976e-05 
-1.709643782764e-04 -1.864471641412e-05 0.0 
-1.864471641412e-05 1.187155150464e-03 0.0 
0.0 0.0 -1.744803730939e-04 
-1.477070854664e-04 -4.391729024467e-06 0.0 
-4.391729024467e-06 1.020449993757e-03 0.0 
0.0 0.0 -1.488920056885e-04 
-2.536340853786e-05 -1.617904342885e-05 0.0 
-1.617904342885e-05 1.410312003150e-04 0.0 
0.0 0.0 -2.442930455436e-05 
-4.478297823031e-05 -3.360325145203e-05 0.0 
-3.360325145203e-05 2.463363294936e-04 0.0 
0.0 0.0 -4.105386472454e-05 
-1.667572652522e-04 3.269260421942e-05 0.0 
3.269260421942e-05 1.106671823298e-03 0.0 
0.0 0.0 -1.661371793467e-04 
-1.939345119211e-04 -2.917973958076e-06 0.0 
-2.917973958076e-06 1.271284650607e-03 0.0 
0.0 0.0 -1.928053293992e-04 
-1.848839491830e-04 -2.511864242369e-05 0.0 
-2.511864242369e-05 1.245193806993e-03 0.0 
0.0 0.0 -1.835875952628e-04 
-1.881692614413e-04 3.512850772842e-05 0.0 
3.512850772842e-05 1.283926120996e-03 0.0 
0.0 0.0 -1.897169183402e-04 
-1.319951739136e-04 3.692265338647e-05 0.0 
3.692265338647e-05 8.669086104393e-04 0.0 
0.0 0.0 -1.321134885410e-04 
-1.418897775030e-05 -1.383603751222e-06 0.0 
-1.383603751222e-06 8.390464903167e-05 0.0 
0.0 0.0 -1.533750852324e-05 
-1.776342507387e-05 2.898590661281e-05 0.0 
2.898590661281e-05 1.254111435077e-04 0.0 
0.0 0.0 -2.291448659297e-05 
-2.228661035164e-05 3.086208171882e-05 0.0 
3.086208171882e-05 7.414588274207e-05 0.0 
0.0 0.0 -1.893168834827e-05 
-2.834935998913e-05 -2.581094466031e-05 0.0 
-2.581094466031e-05 1.798484559935e-04 0.0 
0.0 0.0 -3.120083896163e-05 
-3.619195444299e-06 1.726688320319e-05 0.0 
1.726688320319e-05 1.889854846973e-05 0.0 
0.0 0.0 -6.548294153755e-06 
-9.846508312271e-05 1.947611327116e-05 0.0 
1.947611327116e-05 6.774458586389e-04 0.0 
0.0 0.0 -1.012995679080e-04 
-1.809123785598e-04 2.900682068589e-05 0.0 
2.900682068589e-05 1.227040363573e-03 0.0 
0.0 0.0 -1.833458990909e-04 
-1.833994977543e-04 2.630052083884e-05 0.0 
2.630052083884e-05 1.234115337032e-03 0.0 
0.0 0.0 -1.834249670905e-04 
-1.300388728735e-04 -2.726917383980e-05 0.0 
-2.726917383980e-05 8.766264197221e-04 0.0 
0.0 0.0 -1.323946974752e-04 
-9.060072859628e-05 -4.107401100024e-05 0.0 
-4.107401100024e-05 5.837911416729e-04 0.0 
0.0 0.0 -8.982794765771e-05 
-1.833530943830e-04 -2.415896483629e-05 0.0 
-2.415896483629e-05 1.239029730488e-03 0.0 
0.0 0.0 -1.831601862249e-04 
-1.805620370494e-04 3.417310065365e-05 0.0 
3.417310065365e-05 1.228469068547e-03 0.0 
0.0 0.0 -1.813053981465e-04 
-1.918538788466e-04 1.314902849118e-05 0.0 
1.314902849118e-05 1.311238991232e-03 0.0 
0.0 0.0 -1.908378613718e-04 
-1.864057830892e-04 -5.544571809971e-06 0.0 
-5.544571809971e-06 1.222330684115e-03 0.0 
0.0 0.0 -1.856133406407e-04 
-1.761014518088e-04 2.982850443616e-05 0.0 
2.982850443616e-05 1.172453916966e-03 0.0 
0.0 0.0 -1.756848094018e-04 
-2.508081297429e-05 1.384675978348e-05 0.0 
1.384675978348e-05 1.057075733602e-04 0.0 
0.0 0.0 -2.599564028619e-05 
-1.693383348172e-05 -2.312304690448e-05 0.0 
-2.312304690448e-05 1.227259030012e-04 0.0 
0.0 0.0 -2.162456296189e-05 
-1.849301832798e-04 -2.375114059264e-05 0.0 
-2.375114059264e-05 1.241181941517e-03 0.0 
0.0 0.0 -1.835494310512e-04 
-2.714207379428e-05 4.098769542459e-06 0.0 
4.098769542459e-06 1.072549946886e-04 0.0 
0.0 0.0 -2.642284971932e-05 
-3.135918366895e-05 4.019659049340e-05 0.0 
4.019659049340e-05 1.551282952784e-04 0.0 
0.0 0.0 -2.899999999997e-05 
-2.063383903873e-05 2.842818060864e-05 0.0 
2.842818060864e-05 9.408870534127e-05 0.0 
0.0 0.0 -2.215380543414e-05 
-2.425090272541e-05 -2.758476542693e-05 0.0 
-2.758476542693e-05 1.189291029536e-04 0.0 
0.0 0.0 -2.370445218759e-05 
-1.950651601912e-04 -1.537310237433e-06 0.0 
-1.537310237433e-06 1.272610956963e-03 0.0 
0.0 0.0 -1.932856728082e-04 
-1.944294159836e-04 -1.137183943863e-05 0.0 
-1.137183943863e-05 1.275116374494e-03 0.0 
0.0 0.0 -1.935170455059e-04 
-1.886696034913e-04 2.831262697735e-05 0.0 
2.831262697735e-05 1.244837435708e-03 0.0 
0.0 0.0 -1.855361636489e-04 
-1.959472726026e-04 1.351216090051e-08 0.0 
1.351216090051e-08 1.278564115673e-03 0.0 
0.0 0.0 -1.938907836251e-04 
-1.787271859105e-04 -2.284872940721e-05 0.0 
-2.284872940721e-05 1.187153147202e-03 0.0 
0.0 0.0 -1.765318707366e-04 
-1.351456084785e-04 3.971362658995e-05 0.0 
3.971362658995e-05 9.093020497765e-04 0.0 
0.0 0.0 -1.375519566527e-04 
-2.017604167332e-04 -1.836539241269e-06 0.0 
-1.836539241269e-06 1.330878883476e-03 0.0 
0.0 0.0 -2.017604167332e-04 
-4.752774343128e-05 -1.713587701896e-05 0.0 
-1.713587701896e-05 3.107525644044e-04 0.0 
0.0 0.0 -4.996133636201e-05 
-1.024919488492e-04 4.191622503833e-07 0.0 
4.191622503833e-07 7.218789940397e-04 0.0 
0.0 0.0 -1.062461082510e-04 
-2.975599916326e-05 9.106261967341e-06 0.0 
9.106261967341e-06 1.955746439529e-04 0.0 
0.0 0.0 -3.129496823211e-05 
-1.232098886184e-05 7.093050022653e-06 0.0 
7.093050022653e-06 4.161179421085e-05 0.0 
0.0 0.0 -1.255320229243e-05 
-1.944497355390e-04 5.978296495926e-06 0.0 
5.978296495926e-06 1.366328994781e-03 0.0 
0.0 0.0 -1.985775144829e-04 
-1.145512522937e-04 -8.915219508627e-06 0.0 
-8.915219508627e-06 7.945910020626e-04 0.0 
0.0 0.0 -1.159689174441e-04 
-2.848344092071e-05 4.003321639578e-06 0.0 
4.003321639578e-06 1.986241883576e-04 0.0 
0.0 0.0 -3.173012194873e-05 
-1.014959600204e-04 3.503938933843e-05 0.0 
3.503938933843e-05 6.393289370777e-04 0.0 
0.0 0.0 -9.855747970559e-05 
-1.905583345653e-04 2.687091843219e-06 0.0 
2.687091843219e-06 1.311634272187e-03 0.0 
0.0 0.0 -1.915206309854e-04 
-1.857526928997e-04 -2.471303146073e-05 0.0 
-2.471303146073e-05 1.243107974826e-03 0.0 
0.0 0.0 -1.842925442824e-04 
-1.948868254755e-04 -1.041522172143e-06 0.0 
-1.041522172143e-06 1.275180970734e-03 0.0 
0.0 0.0 -1.934499806569e-04 
-7.012133808743e-05 -2.162576108704e-05 0.0 
-2.162576108704e-05 4.594521408120e-04 0.0 
0.0 0.0 -7.043099580601e-05 
-2.186534210929e-05 -2.363395921601e-05 0.0 
-2.363395921601e-05 1.124805107313e-04 0.0 
0.0 0.0 -2.329832943476e-05 
-1.928869723946e-04 -1.747685447208e-05 0.0 
-1.747685447208e-05 1.309527415302e-03 0.0 
0.0 0.0 -1.909716586738e-04 
-1.948223937585e-04 3.463630469138e-06 0.0 
3.463630469138e-06 1.366072774039e-03 0.0 
0.0 0.0 -1.988029557152e-04 
-1.997972325631e-04 -2.657071604694e-06 0.0 
-2.657071604694e-06 1.368996078479e-03 0.0 
0.0 0.0 -1.985675284643e-04 
-1.149075065172e-04 1.970313765657e-05 0.0 
1.970313765657e-05 7.553309514488e-04 0.0 
0.0 0.0 -1.151014696305e-04 
-1.853670490970e-04 -6.789881419621e-07 0.0 
-6.789881419621e-07 1.217253462195e-03 0.0 
0.0 0.0 -1.847801502676e-04 
-2.929766823262e-05 -1.423662774746e-05 0.0 
-1.423662774746e-05 1.684447109910e-04 0.0 
0.0 0.0 -3.486300268346e-05 
-1.886376341972e-04 2.491029484498e-05 0.0 
2.491029484498e-05 1.251144203043e-03 0.0 
0.0 0.0 -1.862363266401e-04 
-1.225588461862e-05 -1.620442536661e-06 0.0 
-1.620442536661e-06 4.088176785210e-05 0.0 
0.0 0.0 -1.226823567149e-05 
-1.959443734270e-04 -1.593633800897e-06 0.0 
-1.593633800897e-06 1.275907277954e-03 0.0 
0.0 0.0 -1.936070242144e-04 
-1.921705025686e-04 1.672528369413e-05 0.0 
1.672528369413e-05 1.305355282221e-03 0.0 
0.0 0.0 -1.902878095246e-04 
-1.213509693042e-05 -9.695671298578e-06 0.0 
-9.695671298578e-06 4.146515921011e-05 0.0 
0.0 0.0 -1.257002669129e-05 
-1.793207099600e-04 -2.104295957024e-05 0.0 
-2.104295957024e-05 1.192465817629e-03 0.0 
0.0 0.0 -1.767027422389e-04 
-1.542349507493e-04 -2.789525500736e-05 0.0 
-2.789525500736e-05 1.046690456158e-03 0.0 
0.0 0.0 -1.580789522666e-04 
-1.934231585208e-04 -4.589161303043e-06 0.0 
-4.589161303043e-06 1.276393454338e-03 0.0 
0.0 0.0 -1.934530862915e-04 
-2.019364116565e-04 -1.570828685488e-06 0.0 
-1.570828685488e-06 1.334544060367e-03 0.0 
0.0 0.0 -2.019364116565e-04 
-1.443736664853e-04 -4.496434299745e-05 0.0 
-4.496434299745e-05 9.564830102373e-04 0.0 
0.0 0.0 -1.444096547634e-04 
-1.939456756852e-04 2.017652496132e-06 0.0 
2.017652496132e-06 1.279640861987e-03 0.0 
0.0 0.0 -1.938765919206e-04 
-1.869172796684e-04 -2.300922739472e-05 0.0 
-2.300922739472e-05 1.248797853845e-03 0.0 
0.0 0.0 -1.854760755851e-04 
-1.511310601618e-04 1.323861223544e-06 0.0 
1.323861223544e-06 9.820371097651e-04 0.0 
0.0 0.0 -1.514438176870e-04 
-1.859523187257e-04 -2.150500838709e-06 0.0 
-2.150500838709e-06 1.237126209909e-03 0.0 
0.0 0.0 -1.871408849840e-04 
-8.159488617983e-05 -1.939805324608e-05 0.0 
-1.939805324608e-05 5.359838852638e-04 0.0 
0.0 0.0 -8.502783899585e-05 
-1.113338579071e-04 -3.576614126909e-06 0.0 
-3.576614126909e-06 6.830287758959e-04 0.0 
0.0 0.0 -1.093177095251e-04 
-1.875695645106e-04 2.166688210212e-05 0.0 
2.166688210212e-05 1.248595569192e-03 0.0 
0.0 0.0 -1.858828511717e-04 
-1.916898687047e-04 1.740402246749e-05 0.0 
1.740402246749e-05 1.297694891500e-03 0.0 
0.0 0.0 -1.929759641265e-04 
0.0 0.0 0.0 
0.0 0.0 0.0 
0.0 0.0 0.0 
-1.108754537982e-04 8.190067800634e-06 0.0 
8.190067800634e-06 6.858465185805e-04 0.0 
0.0 0.0 -1.092688595421e-04 
-1.923809518426e-04 -1.819844630735e-05 0.0 
-1.819844630735e-05 1.300229094043e-03 0.0 
0.0 0.0 -1.932123727438e-04 
-4.002001247467e-05 2.006963566931e-05 0.0 
2.006963566931e-05 2.328825741027e-04 0.0 
0.0 0.0 -4.148470287098e-05 
-1.866472002231e-04 4.880453877379e-06 0.0 
4.880453877379e-06 1.252749307024e-03 0.0 
0.0 0.0 -1.819878549007e-04 
-1.819209478198e-04 -2.068448510871e-05 0.0 
-2.068448510871e-05 1.244408370608e-03 0.0 
0.0 0.0 -1.838914853240e-04 
-1.915111223810e-04 -2.323214646959e-05 0.0 
-2.323214646959e-05 1.305780620660e-03 0.0 
0.0 0.0 -1.903556752671e-04 
-3.701661376552e-05 2.035950265076e-05 0.0 
2.035950265076e-05 2.272671486071e-04 0.0 
0.0 0.0 -3.971981059879e-05 
-2.769286414478e-05 7.747329809448e-06 0.0 
7.747329809448e-06 1.806614107884e-04 0.0 
0.0 0.0 -2.859863994447e-05 
-1.242949117924e-04 5.074427327232e-05 0.0 
5.074427327232e-05 7.859669856420e-04 0.0 
0.0 0.0 -1.190920679387e-04 
-1.709477821043e-04 1.206352581251e-05 0.0 
1.206352581251e-05 1.132186117532e-03 0.0 
0.0 0.0 -1.681261804956e-04 
1.014327330369e-06 7.383782533250e-07 0.0 
7.383782533250e-07 2.927583678911e-05 0.0 
0.0 0.0 -6.243845128022e-06 
-1.946447373769e-04 -4.455018500166e-06 0.0 
-4.455018500166e-06 1.280717844331e-03 0.0 
0.0 0.0 -1.938350263003e-04 
-1.424463118062e-04 5.764408395156e-06 0.0 
5.764408395156e-06 9.202154133526e-04 0.0 
0.0 0.0 -1.425289220759e-04 
-3.478878306297e-05 -2.499498638801e-05 0.0 
-2.499498638801e-05 2.296892403380e-04 0.0 
0.0 0.0 -3.902841992921e-05 
-1.377312918912e-04 9.864863143696e-06 0.0 
9.864863143696e-06 8.735402280856e-04 0.0 
0.0 0.0 -1.354581645892e-04 
-1.922007867126e-04 -1.822737660514e-05 0.0 
-1.822737660514e-05 1.307890918218e-03 0.0 
0.0 0.0 -1.907465343871e-04 
-1.254239889598e-04 -4.359753515645e-05 0.0 
-4.359753515645e-05 8.286556014884e-04 0.0 
0.0 0.0 -1.240920679387e-04 
-1.353144492439e-05 -2.813094036452e-05 0.0 
-2.813094036452e-05 4.877548767693e-05 0.0 
0.0 0.0 -1.316471896826e-05 
-8.142748840058e-05 2.105549334848e-05 0.0 
2.105549334848e-05 4.801057020835e-04 0.0 
0.0 0.0 -7.814452609390e-05 
-1.089615496817e-04 1.599271894156e-05 0.0 
1.599271894156e-05 7.175407804816e-04 0.0 
0.0 0.0 -1.097999625750e-04 
-1.256926158202e-04 5.260336234632e-05 0.0 
5.260336234632e-05 8.559229925288e-04 0.0 
0.0 0.0 -1.289999999999e-04 
-1.861165675973e-04 -2.159470551463e-05 0.0 
-2.159470551463e-05 1.249429060897e-03 0.0 
0.0 0.0 -1.849170288086e-04 
-1.106499789189e-04 -2.590861534469e-05 0.0 
-2.590861534469e-05 6.926866843830e-04 0.0 
0.0 0.0 -1.076326444904e-04 
-1.112884178496e-04 1.305986126263e-05 0.0 
1.305986126263e-05 7.358491413001e-04 0.0 
0.0 0.0 -1.139494348250e-04 
-2.588411427290e-05 1.911750771148e-05 0.0 
1.911750771148e-05 1.061373083438e-04 0.0 
0.0 0.0 -2.326846092920e-05 
-1.893744793615e-04 2.103198860830e-05 0.0 
2.103198860830e-05 1.246033425132e-03 0.0 
0.0 0.0 -1.860944804855e-04 
-1.813760335911e-04 2.431983118237e-05 0.0 
2.431983118237e-05 1.192575940689e-03 0.0 
0.0 0.0 -1.779543165055e-04 
-3.341687545780e-05 1.295689628708e-05 0.0 
1.295689628708e-05 1.947474497127e-04 0.0 
0.0 0.0 -3.617538986514e-05 
-1.891790155312e-04 -1.249004293212e-05 0.0 
-1.249004293212e-05 1.282842787366e-03 0.0 
0.0 0.0 -1.935524225335e-04 
-1.940711954716e-04 2.260939094991e-05 0.0 
2.260939094991e-05 1.289421750568e-03 0.0 
0.0 0.0 -1.935534039001e-04 
-1.151984927981e-04 -2.298534457927e-05 0.0 
-2.298534457927e-05 7.735611340850e-04 0.0 
0.0 0.0 -1.145968264807e-04 
-1.409477362984e-04 4.636851076838e-06 0.0 
4.636851076838e-06 9.500238057427e-04 0.0 
0.0 0.0 -1.403751509546e-04 
-1.057221588411e-04 2.457938922791e-05 0.0 
2.457938922791e-05 7.039272758311e-04 0.0 
0.0 0.0 -1.066277415830e-04 
-1.061891266013e-04 -1.653485252010e-05 0.0 
-1.653485252010e-05 7.204456328921e-04 0.0 
0.0 0.0 -1.101455558886e-04 
-1.167125773018e-04 -5.214442621127e-06 0.0 
-5.214442621127e-06 7.635304123669e-04 0.0 
0.0 0.0 -1.124773478824e-04 
-1.793168656901e-04 2.299952134744e-05 0.0 
2.299952134744e-05 1.185887205723e-03 0.0 
0.0 0.0 -1.771393596935e-04 
-3.152584898735e-05 1.897210253453e-05 0.0 
1.897210253453e-05 1.627411535502e-04 0.0 
0.0 0.0 -3.411956464738e-05 
-1.845315344105e-04 -2.087044310257e-05 0.0 
-2.087044310257e-05 1.251382198176e-03 0.0 
0.0 0.0 -1.826724926888e-04 
-1.258093955466e-04 1.092296903434e-05 0.0 
1.092296903434e-05 7.989141246955e-04 0.0 
0.0 0.0 -1.256509235457e-04 
-1.915790341267e-04 -2.191468720141e-05 0.0 
-2.191468720141e-05 1.308072793879e-03 0.0 
0.0 0.0 -1.908230686647e-04 
-1.803448451633e-04 -1.980075170866e-05 0.0 
-1.980075170866e-05 1.182538242344e-03 0.0 
0.0 0.0 -1.771885848702e-04 
-1.319350983937e-04 -8.918433226287e-06 0.0 
-8.918433226287e-06 9.046918759966e-04 0.0 
0.0 0.0 -1.335370307995e-04 
-1.816836816126e-04 1.791474397062e-05 0.0 
1.791474397062e-05 1.201235583197e-03 0.0 
0.0 0.0 -1.801549293832e-04 
-1.875547155475e-04 1.892715754060e-05 0.0 
1.892715754060e-05 1.233891763137e-03 0.0 
0.0 0.0 -1.855150795789e-04 
-1.939054531168e-04 -3.416516152567e-06 0.0 
-3.416516152567e-06 1.313797531553e-03 0.0 
0.0 0.0 -1.905407107676e-04 
-1.393318625630e-05 6.729466406601e-06 0.0 
6.729466406601e-06 4.687704386898e-05 0.0 
0.0 0.0 -1.411879611972e-05 
-1.819939651451e-04 -2.047705946231e-05 0.0 
-2.047705946231e-05 1.208295386483e-03 0.0 
0.0 0.0 -1.798029041703e-04 
-1.850233720890e-04 2.766047329041e-05 0.0 
2.766047329041e-05 1.254110806432e-03 0.0 
0.0 0.0 -1.840618297566e-04 
-1.944390477997e-05 -2.127751864275e-05 0.0 
-2.127751864275e-05 1.299757536440e-04 0.0 
0.0 0.0 -2.232470194434e-05 
-1.017184515676e-04 -1.757095589334e-05 0.0 
-1.757095589334e-05 6.550290312805e-04 0.0 
0.0 0.0 -1.026204892046e-04 
-1.144511734995e-05 -9.153149013219e-06 0.0 
-9.153149013219e-06 7.932793000554e-05 0.0 
0.0 0.0 -1.453852818766e-05 
-1.859119756783e-04 -1.557168329532e-05 0.0 
-1.557168329532e-05 1.264074963678e-03 0.0 
0.0 0.0 -1.846184893018e-04 
-1.744748685386e-05 -8.303086691415e-06 0.0 
-8.303086691415e-06 9.087151732535e-05 0.0 
0.0 0.0 -1.733333333333e-05 
-1.720956993442e-05 8.609788543582e-06 0.0 
8.609788543582e-06 5.793877367243e-05 0.0 
0.0 0.0 -1.745537303058e-05 
-1.794503022536e-05 -2.929633746418e-06 0.0 
-2.929633746418e-06 1.076544193850e-04 0.0 
0.0 0.0 -1.733333333333e-05 
-1.807957668014e-05 -7.166718461831e-07 0.0 
-7.166718461831e-07 6.026907959134e-05 0.0 
0.0 0.0 -1.808121553337e-05 
-1.811711921953e-05 -2.126045213460e-06 0.0 
-2.126045213460e-06 1.092171407313e-04 0.0 
0.0 0.0 -1.733333333333e-05 
-1.818497655685e-05 -1.237815913793e-06 0.0 
-1.237815913793e-06 6.062792830740e-05 0.0 
0.0 0.0 -1.818983646452e-05 
-1.817811957929e-05 -1.650670271726e-06 0.0 
-1.650670271726e-06 1.095705851639e-04 0.0 
0.0 0.0 -1.733333333333e-05 
-1.822656247260e-05 -1.071080169092e-06 0.0 
-1.071080169092e-06 6.076367987908e-05 0.0 
0.0 0.0 -1.823019317421e-05 
-1.813768738159e-05 -1.238415531427e-06 0.0 
-1.238415531427e-06 1.097311268226e-04 0.0 
0.0 0.0 -1.733333333333e-05 
-1.824774577778e-05 -8.685855598360e-07 0.0 
-8.685855598360e-07 6.083138428304e-05 0.0 
0.0 0.0 -1.825013078797e-05 
-1.806367047388e-05 -9.352211863773e-07 0.0 
-9.352211863773e-07 1.098085286235e-04 0.0 
0.0 0.0 -1.733333333333e-05 
-1.825857445053e-05 -7.127523013962e-07 0.0 
-7.127523013962e-07 6.086566004119e-05 0.0 
0.0 0.0 -1.826017953885e-05 
-1.798426719159e-05 -7.285931318074e-07 0.0 
-7.285931318074e-07 1.098393062482e-04 0.0 
0.0 0.0 -1.733333333333e-05 
-1.826366699798e-05 -6.032791446684e-07 0.0 
-6.032791446684e-07 6.088157238568e-05 0.0 
0.0 0.0 -1.826481659473e-05 
-1.790904065815e-05 -5.848168233172e-07 0.0 
-5.848168233172e-07 1.098426282800e-04 0.0 
0.0 0.0 -1.733333333333e-05 
-1.826546481197e-05 -5.205919230305e-07 0.0 
-5.205919230305e-07 6.088688000594e-05 0.0 
0.0 0.0 -1.826632079742e-05 
-1.784150031716e-05 -4.701936699394e-07 0.0 
-4.701936699394e-07 1.098294203443e-04 0.0 
0.0 0.0 -1.733333333333e-05 
-1.826542195144e-05 -4.419047588011e-07 0.0 
-4.419047588011e-07 6.088617900470e-05 0.0 
0.0 0.0 -1.826603873711e-05 
-1.778426429724e-05 -3.575239382036e-07 0.0 
-3.575239382036e-07 1.098068027254e-04 0.0 
0.0 0.0 -1.733333333333e-05 
-1.826461866834e-05 -3.469211923941e-07 0.0 
-3.469211923941e-07 6.088294925880e-05 0.0 
0.0 0.0 -1.826499882448e-05 
-1.774084971708e-05 -2.285974000667e-07 0.0 
-2.285974000667e-07 1.097809488961e-04 0.0 
0.0 0.0 -1.733333333333e-05 
-1.826412328605e-05 -2.216915849672e-07 0.0 
-2.216915849672e-07 6.088077318936e-05 0.0 
0.0 0.0 -1.826427852999e-05 
-2.848917765235e-05 -2.077348498387e-05 0.0 
-2.077348498387e-05 1.074966761632e-04 0.0 
0.0 0.0 -1.872259775053e-05 
-1.771590450974e-05 -7.811467351746e-08 0.0 
-7.811467351746e-08 1.097595858568e-04 0.0 
0.0 0.0 -1.733333333333e-05 
-1.826445221234e-05 -6.739675541340e-08 0.0 
-6.739675541340e-08 6.088154085296e-05 0.0 
0.0 0.0 -1.826446656026e-05 
-1.771342120817e-05 8.601928784127e-08 0.0 
8.601928784127e-08 1.097502208396e-04 0.0 
0.0 0.0 -1.733333333333e-05 
-1.321730383652e-05 3.653139677029e-06 0.0 
3.653139677029e-06 6.517789312364e-05 0.0 
0.0 0.0 -2.066666666667e-05 
-1.826588548319e-05 1.023018377922e-07 0.0 
1.023018377922e-07 6.088636207343e-05 0.0 
0.0 0.0 -1.826591853867e-05 
-1.773515394567e-05 2.483901237168e-07 0.0 
2.483901237168e-07 1.097568897435e-04 0.0 
0.0 0.0 -1.733333333333e-05 
-1.826768464028e-05 2.654848946613e-07 0.0 
2.654848946613e-07 6.089280151609e-05 0.0 
0.0 0.0 -1.826790723249e-05 
-1.777934759352e-05 3.932649851549e-07 0.0 
3.932649851549e-07 1.097789349678e-04 0.0 
0.0 0.0 -1.733333333333e-05 
-1.827139305473e-05 4.130727614178e-07 0.0 
4.130727614178e-07 6.090590060555e-05 0.0 
0.0 0.0 -1.827193180750e-05 
-8.216774988136e-06 5.391793649049e-06 0.0 
5.391793649049e-06 7.801812378255e-05 0.0 
0.0 0.0 -1.649828837286e-05 
-1.784378952365e-05 5.002525124713e-07 0.0 
5.002525124713e-07 1.098189774822e-04 0.0 
0.0 0.0 -1.733333333333e-05 
-1.827365607717e-05 5.064073702227e-07 0.0 
5.064073702227e-07 6.091407602189e-05 0.0 
0.0 0.0 -1.827446569059e-05 
-1.791971266442e-05 5.595276177148e-07 0.0 
5.595276177148e-07 1.098668246464e-04 0.0 
0.0 0.0 -1.733333333333e-05 
-1.828139228996e-05 5.717549292204e-07 0.0 
5.717549292204e-07 6.094038135707e-05 0.0 
0.0 0.0 -1.828242388591e-05 
-1.800568920154e-05 5.441464201529e-07 0.0 
5.441464201529e-07 1.099367363948e-04 0.0 
0.0 0.0 -1.733333333333e-05 
-1.827885704286e-05 5.013856485645e-07 0.0 
5.013856485645e-07 6.093137476835e-05 0.0 
0.0 0.0 -1.827965045378e-05 
-1.807852588256e-05 4.937456454551e-07 0.0 
4.937456454551e-07 1.099712136727e-04 0.0 
0.0 0.0 -1.733333333333e-05 
-1.830011361974e-05 5.270392171540e-07 0.0 
5.270392171540e-07 6.100242193206e-05 0.0 
0.0 0.0 -1.830098927671e-05 
-1.816644914190e-05 2.919174050881e-07 0.0 
2.919174050881e-07 1.101080581860e-04 0.0 
0.0 0.0 -1.733333333333e-05 
-1.826742292890e-05 7.859166167913e-08 0.0 
7.859166167913e-08 6.089145527964e-05 0.0 
0.0 0.0 -1.826744243603e-05 
-1.817425738939e-05 1.969248897221e-07 0.0 
1.969248897221e-07 1.099878350799e-04 0.0 
0.0 0.0 -1.733333333333e-05 
-1.832336493488e-05 3.649976817149e-07 0.0 
3.649976817149e-07 6.107886184431e-05 0.0 
0.0 0.0 -1.832378438976e-05 
-1.073550662582e-05 3.661380623111e-06 0.0 
3.661380623111e-06 9.008949771160e-05 0.0 
0.0 0.0 -2.038926441720e-05 
-1.816042934867e-05 -9.036482680640e-07 0.0 
-9.036482680640e-07 6.054081678535e-05 0.0 
0.0 0.0 -1.816302318715e-05 
-1.825355143849e-05 -1.532747100670e-07 0.0 
-1.532747100670e-07 1.102860380555e-04 0.0 
0.0 0.0 -1.733333333333e-05 
-1.838670914621e-05 1.898174356998e-06 0.0 
1.898174356998e-06 6.131539729976e-05 0.0 
0.0 0.0 -1.839800920867e-05 
-1.804334725543e-05 5.086170140757e-07 0.0 
5.086170140757e-07 1.092819574220e-04 0.0 
0.0 0.0 -1.733333333333e-05 
-1.790691061332e-05 -2.103755706276e-06 0.0 
-2.103755706276e-06 5.972295259740e-05 0.0 
0.0 0.0 -1.792116085032e-05 
-1.834637828737e-05 1.877751017270e-07 0.0 
1.877751017270e-07 1.107722593265e-04 0.0 
0.0 0.0 -1.733333333333e-05 
-1.562213943710e-05 7.795719187572e-06 0.0 
7.795719187572e-06 6.178813733454e-05 0.0 
0.0 0.0 -1.978542767033e-05 
-1.765922135557e-05 2.307171820529e-06 0.0 
2.307171820529e-06 1.074062381032e-04 0.0 
0.0 0.0 -1.733333333333e-05 
-1.865600108133e-05 1.168637411501e-06 0.0 
1.168637411501e-06 1.130225580996e-04 0.0 
0.0 0.0 -1.733333333333e-05 
-4.524566377310e-06 -2.557472348542e-06 0.0 
-2.557472348542e-06 4.340688375526e-05 0.0 
0.0 0.0 -1.666385030484e-05 
-2.673582247637e-05 -5.409975352347e-05 0.0 
-5.409975352347e-05 9.521487556723e-05 0.0 
0.0 0.0 -1.900000000000e-05 
-1.071332253622e-05 5.365886941301e-05 0.0 
5.365886941301e-05 6.646737712972e-05 0.0 
0.0 0.0 -1.900000000000e-05 
-2.318842535597e-05 -5.612622760783e-06 0.0 
-5.612622760783e-06 8.955384536226e-05 0.0 
0.0 0.0 -2.233333333333e-05 
-1.410033773566e-05 6.532353231815e-06 0.0 
6.532353231815e-06 7.331066385826e-05 0.0 
0.0 0.0 -1.566666666667e-05 
-9.067894513745e-06 -5.356169420177e-06 0.0 
-5.356169420177e-06 6.558817167631e-05 0.0 
0.0 0.0 -1.566666666667e-05 
-3.115249874379e-05 -9.392764814956e-06 0.0 
-9.392764814956e-06 1.520746859397e-04 0.0 
0.0 0.0 -3.066666666667e-05 
-2.682058423371e-05 1.023262462853e-05 0.0 
1.023262462853e-05 1.789475414021e-04 0.0 
0.0 0.0 -2.733333333333e-05 
-3.054317291122e-05 -1.319297916592e-06 0.0 
-1.319297916592e-06 1.318371458440e-04 0.0 
0.0 0.0 -3.066666666667e-05 
-2.731434440690e-05 -3.292577835775e-07 0.0 
-3.292577835775e-07 1.776636844910e-04 0.0 
0.0 0.0 -2.733333333333e-05 
-3.068230134311e-05 -1.171127504652e-06 0.0 
-1.171127504652e-06 1.309485636588e-04 0.0 
0.0 0.0 -3.066666666667e-05 
-2.762600550872e-05 -1.130662135450e-06 0.0 
-1.130662135450e-06 1.778139332973e-04 0.0 
0.0 0.0 -2.733333333333e-05 
-3.087891343183e-05 -1.132530436389e-06 0.0 
-1.132530436389e-06 1.311466470252e-04 0.0 
0.0 0.0 -3.066666666667e-05 
-2.780022496225e-05 -1.102526127279e-06 0.0 
-1.102526127279e-06 1.779942234450e-04 0.0 
0.0 0.0 -2.733333333333e-05 
-3.102589747765e-05 -1.004569991772e-06 0.0 
-1.004569991772e-06 1.313359802530e-04 0.0 
0.0 0.0 -3.066666666667e-05 
-2.788258457094e-05 -9.668688081841e-07 0.0 
-9.668688081841e-07 1.781179952891e-04 0.0 
0.0 0.0 -2.733333333333e-05 
-3.111787319336e-05 -8.729314539437e-07 0.0 
-8.729314539437e-07 1.314608622191e-04 0.0 
0.0 0.0 -3.066666666667e-05 
-2.790823040739e-05 -8.378244139465e-07 0.0 
-8.378244139465e-07 1.781897784732e-04 0.0 
0.0 0.0 -2.733333333333e-05 
-3.116455107115e-05 -7.640341986132e-07 0.0 
-7.640341986132e-07 1.315316495351e-04 0.0 
0.0 0.0 -3.066666666667e-05 
-2.790066553311e-05 -7.329815685835e-07 0.0 
-7.329815685835e-07 1.782217638771e-04 0.0 
0.0 0.0 -2.733333333333e-05 
-3.117866187168e-05 -6.720747297610e-07 0.0 
-6.720747297610e-07 1.315631577420e-04 0.0 
0.0 0.0 -3.066666666667e-05 
-2.787481270068e-05 -6.416960435711e-07 0.0 
-6.416960435711e-07 1.782248648945e-04 0.0 
0.0 0.0 -2.733333333333e-05 
-3.117208639374e-05 -5.805765665885e-07 0.0 
-5.805765665885e-07 1.315676964099e-04 0.0 
0.0 0.0 -3.066666666667e-05 
-2.784021682385e-05 -5.460022049189e-07 0.0 
-5.460022049189e-07 1.782073925414e-04 0.0 
0.0 0.0 -2.733333333333e-05 
-3.115293685845e-05 -4.713148351393e-07 0.0 
-4.713148351393e-07 1.315543265043e-04 0.0 
0.0 0.0 -3.066666666667e-05 
-2.780368518980e-05 -4.277803080253e-07 0.0 
-4.277803080253e-07 1.781767718938e-04 0.0 
0.0 0.0 -2.733333333333e-05 
-3.667122527508e-05 -2.122966822693e-05 0.0 
-2.122966822693e-05 1.767731432372e-04 0.0 
0.0 0.0 -2.873639455782e-05 
-3.112752319427e-05 -3.273124817502e-07 0.0 
-3.273124817502e-07 1.315309331346e-04 0.0 
0.0 0.0 -3.066666666667e-05 
-2.777187291842e-05 -2.729422196053e-07 0.0 
-2.729422196053e-07 1.781425712313e-04 0.0 
0.0 0.0 -2.733333333333e-05 
-3.110252441256e-05 -1.357830489110e-07 0.0 
-1.357830489110e-07 1.315074138609e-04 0.0 
0.0 0.0 -3.066666666667e-05 
-2.009416229602e-05 2.949525949728e-06 0.0 
2.949525949728e-06 1.486157984382e-04 0.0 
0.0 0.0 -2.540306122449e-05 
-2.775422339691e-05 -7.800270951605e-08 0.0 
-7.800270951605e-08 1.781223259519e-04 0.0 
0.0 0.0 -2.733333333333e-05 
-3.109409877837e-05 8.363799497494e-08 0.0 
8.363799497494e-08 1.314964783393e-04 0.0 
0.0 0.0 -3.066666666667e-05 
-2.258573317897e-05 4.566248051516e-06 0.0 
4.566248051516e-06 1.328474345229e-04 0.0 
0.0 0.0 -3.066666666667e-05 
-2.775551180818e-05 1.381503603416e-07 0.0 
1.381503603416e-07 1.781205034801e-04 0.0 
0.0 0.0 -2.733333333333e-05 
-3.110835224456e-05 3.175213947338e-07 0.0 
3.175213947338e-07 1.315035429915e-04 0.0 
0.0 0.0 -3.066666666667e-05 
-2.778149912914e-05 3.505123535167e-07 0.0 
3.505123535167e-07 1.781500161720e-04 0.0 
0.0 0.0 -2.733333333333e-05 
-3.115216375409e-05 5.003570368217e-07 0.0 
5.003570368217e-07 1.315296802721e-04 0.0 
0.0 0.0 -3.066666666667e-05 
-2.781953445980e-05 5.272172932021e-07 0.0 
5.272172932021e-07 1.781780888155e-04 0.0 
0.0 0.0 -2.733333333333e-05 
-3.119179440074e-05 6.972352024228e-07 0.0 
6.972352024228e-07 1.315674207111e-04 0.0 
0.0 0.0 -3.066666666667e-05 
-2.788980674257e-05 6.621830901506e-07 0.0 
6.621830901506e-07 1.782718807566e-04 0.0 
0.0 0.0 -2.733333333333e-05 
-3.127786243588e-05 7.001787595592e-07 0.0 
7.001787595592e-07 1.316234844057e-04 0.0 
0.0 0.0 -3.066666666667e-05 
-2.793669723939e-05 7.121536771423e-07 0.0 
7.121536771423e-07 1.782789730811e-04 0.0 
0.0 0.0 -2.733333333333e-05 
-2.083987659497e-05 5.192262395949e-06 0.0 
5.192262395949e-06 1.601604535816e-04 0.0 
0.0 0.0 -3.040306122449e-05 
-3.128196488704e-05 8.864502461672e-07 0.0 
8.864502461672e-07 1.316740698415e-04 0.0 
0.0 0.0 -3.066666666667e-05 
-2.805871458840e-05 7.181961098696e-07 0.0 
7.181961098696e-07 1.784918476482e-04 0.0 
0.0 0.0 -2.733333333333e-05 
-3.146723415352e-05 4.676695999066e-07 0.0 
4.676695999066e-07 1.317436802558e-04 0.0 
0.0 0.0 -3.066666666667e-05 
-2.803856534745e-05 6.263142573500e-07 0.0 
6.263142573500e-07 1.782766160668e-04 0.0 
0.0 0.0 -2.733333333333e-05 
-2.835427252241e-05 5.303924104693e-07 0.0 
5.303924104693e-07 1.789956933432e-04 0.0 
0.0 0.0 -2.733333333333e-05 
-3.125094743854e-05 1.161197627037e-06 0.0 
1.161197627037e-06 1.317977815772e-04 0.0 
0.0 0.0 -3.066666666667e-05 
-2.801438929685e-05 2.633779876239e-07 0.0 
2.633779876239e-07 1.778194862359e-04 0.0 
0.0 0.0 -2.733333333333e-05 
-3.203619725494e-05 -6.502667759813e-07 0.0 
-6.502667759813e-07 1.319090743744e-04 0.0 
0.0 0.0 -3.066666666667e-05 
-2.883280858308e-05 1.534642711598e-07 0.0 
1.534642711598e-07 1.799854777383e-04 0.0 
0.0 0.0 -2.733333333333e-05 
-3.079104632735e-05 2.074866327860e-06 0.0 
2.074866327860e-06 1.318195767180e-04 0.0 
0.0 0.0 -3.066666666667e-05 
-2.703199875693e-05 5.887451633951e-07 0.0 
5.887451633951e-07 1.747972044784e-04 0.0 
0.0 0.0 -2.733333333333e-05 
-2.980411932691e-05 3.550617276802e-06 0.0 
3.550617276802e-06 1.814647316143e-04 0.0 
0.0 0.0 -2.733333333333e-05 
-3.347691701532e-05 -4.239159922635e-06 0.0 
-4.239159922635e-06 1.316323545227e-04 0.0 
0.0 0.0 -3.066666666667e-05 
-2.469250650365e-05 7.865760100327e-06 0.0 
7.865760100327e-06 1.302807475393e-04 0.0 
0.0 0.0 -3.066666666667e-05 
-1.443364817236e-05 -3.916192661548e-06 0.0 
-3.916192661548e-06 1.161464928675e-04 0.0 
0.0 0.0 -2.706972789116e-05 
-2.210942681219e-05 -5.425861009592e-05 0.0 
-5.425861009592e-05 1.494137921260e-04 0.0 
0.0 0.0 -2.900000000000e-05 
-3.730144947539e-05 5.465077409855e-05 0.0 
5.465077409855e-05 1.766425161808e-04 0.0 
0.0 0.0 -2.900000000000e-05 
-2.652175868930e-05 -4.778009820364e-06 0.0 
-4.778009820364e-06 1.550020280535e-04 0.0 
0.0 0.0 -2.566666666667e-05 
-3.303512460698e-05 6.627458112937e-06 0.0 
6.627458112937e-06 1.697654660127e-04 0.0 
0.0 0.0 -3.233333333333e-05 
-1.821730383652e-05 -8.210888401218e-07 0.0 
-8.210888401218e-07 1.355384773217e-04 0.0 
0.0 0.0 -2.566666666667e-05 
-3.781916541046e-05 -9.669426051968e-06 0.0 
-9.669426051968e-06 2.301589260470e-04 0.0 
0.0 0.0 -3.733333333333e-05 
-4.092491983796e-05 8.729822583191e-06 0.0 
8.729822583191e-06 2.009734351153e-04 0.0 
0.0 0.0 -4.066666666667e-05 
-3.720983957789e-05 -4.166702888572e-07 0.0 
-4.166702888572e-07 2.479913252547e-04 0.0 
0.0 0.0 -3.733333333333e-05 
-4.073203551989e-05 1.912414136314e-07 0.0 
1.912414136314e-07 2.020651978415e-04 0.0 
0.0 0.0 -4.066666666667e-05 
-3.734896800978e-05 -5.458140338044e-07 0.0 
-5.458140338044e-07 2.487742214024e-04 0.0 
0.0 0.0 -3.733333333333e-05 
-4.074690567022e-05 -5.221015569479e-07 0.0 
-5.221015569479e-07 2.021844906501e-04 0.0 
0.0 0.0 -4.066666666667e-05 
-3.754558009850e-05 -8.186107780119e-07 0.0 
-8.186107780119e-07 2.488747468293e-04 0.0 
0.0 0.0 -3.733333333333e-05 
-4.084584502726e-05 -6.751178472883e-07 0.0 
-6.751178472883e-07 2.023107608641e-04 0.0 
0.0 0.0 -4.066666666667e-05 
-3.769256414432e-05 -8.839606299389e-07 0.0 
-8.839606299389e-07 2.489991732538e-04 0.0 
0.0 0.0 -3.733333333333e-05 
-4.095987022466e-05 -7.135976235807e-07 0.0 
-7.135976235807e-07 2.024315430679e-04 0.0 
0.0 0.0 -4.066666666667e-05 
-3.778453986003e-05 -8.550901005864e-07 0.0 
-8.550901005864e-07 2.491166393793e-04 0.0 
0.0 0.0 -3.733333333333e-05 
-4.105410239505e-05 -7.183687370872e-07 0.0 
-7.183687370872e-07 2.025205319300e-04 0.0 
0.0 0.0 -4.066666666667e-05 
-3.783121773782e-05 -7.935454732762e-07 0.0 
-7.935454732762e-07 2.491993200158e-04 0.0 
0.0 0.0 -3.733333333333e-05 
-4.111318680875e-05 -7.044631244033e-07 0.0 
-7.044631244033e-07 2.025712551249e-04 0.0 
0.0 0.0 -4.066666666667e-05 
-3.784532853834e-05 -7.153277524469e-07 0.0 
-7.153277524469e-07 2.492411429785e-04 0.0 
0.0 0.0 -3.733333333333e-05 
-4.114290171895e-05 -6.676018244403e-07 0.0 
-6.676018244403e-07 2.025894891272e-04 0.0 
0.0 0.0 -4.066666666667e-05 
-3.783875306040e-05 -6.198297258670e-07 0.0 
-6.198297258670e-07 2.492487617912e-04 0.0 
0.0 0.0 -3.733333333333e-05 
-4.115065641406e-05 -6.023736596212e-07 0.0 
-6.023736596212e-07 2.025822140463e-04 0.0 
0.0 0.0 -4.066666666667e-05 
-3.781960352511e-05 -4.979669840281e-07 0.0 
-4.979669840281e-07 2.492288868419e-04 0.0 
0.0 0.0 -3.733333333333e-05 
-4.621169411584e-05 -2.212523397124e-05 0.0 
-2.212523397124e-05 2.452866569748e-04 0.0 
0.0 0.0 -3.872092683227e-05 
-4.114419355370e-05 -4.972920868529e-07 0.0 
-4.972920868529e-07 2.025573168415e-04 0.0 
0.0 0.0 -4.066666666667e-05 
-3.779418986094e-05 -3.400549255306e-07 0.0 
-3.400549255306e-07 2.491899758271e-04 0.0 
0.0 0.0 -3.733333333333e-05 
-4.112372304841e-05 -3.380030510148e-07 0.0 
-3.380030510148e-07 2.025226389185e-04 0.0 
0.0 0.0 -4.066666666667e-05 
-3.303686742204e-05 2.084619112561e-06 0.0 
2.084619112561e-06 2.036515718641e-04 0.0 
0.0 0.0 -4.066666666667e-05 
-3.776919107923e-05 -1.339463035146e-07 0.0 
-1.339463035146e-07 2.491410866450e-04 0.0 
0.0 0.0 -3.733333333333e-05 
-4.108783558863e-05 -9.529083630622e-08 0.0 
-9.529083630622e-08 2.024951491152e-04 0.0 
0.0 0.0 -4.066666666667e-05 
-3.776076544504e-05 1.109184295478e-07 0.0 
1.109184295478e-07 2.491106549150e-04 0.0 
0.0 0.0 -3.733333333333e-05 
-4.109006946238e-05 1.831795911426e-07 0.0 
1.831795911426e-07 2.024946427316e-04 0.0 
0.0 0.0 -4.066666666667e-05 
-3.777501891122e-05 3.617597255350e-07 0.0 
3.617597255350e-07 2.491145553625e-04 0.0 
0.0 0.0 -3.733333333333e-05 
-2.941343333592e-05 4.229173994627e-06 0.0 
4.229173994627e-06 2.174288971154e-04 0.0 
0.0 0.0 -3.538759349893e-05 
-4.110335293992e-05 4.754912270096e-07 0.0 
4.754912270096e-07 2.025262819506e-04 0.0 
0.0 0.0 -4.066666666667e-05 
-3.781883042075e-05 5.683903253688e-07 0.0 
5.683903253688e-07 2.491702123511e-04 0.0 
0.0 0.0 -3.733333333333e-05 
-4.121091989970e-05 6.375800689339e-07 0.0 
6.375800689339e-07 2.025796075057e-04 0.0 
0.0 0.0 -4.066666666667e-05 
-3.785846106741e-05 7.301963965339e-07 0.0 
7.301963965339e-07 2.492159661428e-04 0.0 
0.0 0.0 -3.733333333333e-05 
-4.116646175243e-05 8.946990790910e-07 0.0 
8.946990790910e-07 2.026485459214e-04 0.0 
0.0 0.0 -4.066666666667e-05 
-3.794452910255e-05 7.834021805717e-07 0.0 
7.834021805717e-07 2.493635044725e-04 0.0 
0.0 0.0 -3.733333333333e-05 
-4.141035317160e-05 7.235841622150e-07 0.0 
7.235841622150e-07 2.027143677742e-04 0.0 
0.0 0.0 -4.066666666667e-05 
-3.794863155371e-05 8.478549530821e-07 0.0 
8.478549530821e-07 2.493226338252e-04 0.0 
0.0 0.0 -3.733333333333e-05 
-4.104774729339e-05 1.212021102596e-06 0.0 
1.212021102596e-06 2.027927445822e-04 0.0 
0.0 0.0 -4.066666666667e-05 
-3.813390082019e-05 6.885979451934e-07 0.0 
6.885979451934e-07 2.497066659957e-04 0.0 
0.0 0.0 -3.733333333333e-05 
-4.179487599718e-05 7.759139060389e-08 0.0 
7.759139060389e-08 2.027880726802e-04 0.0 
0.0 0.0 -4.066666666667e-05 
-3.059227124207e-05 6.360533019117e-06 0.0 
6.360533019117e-06 2.294458842785e-04 0.0 
0.0 0.0 -4.038759349893e-05 
-4.029110159074e-05 2.610848187008e-06 0.0 
2.610848187008e-06 2.029882584628e-04 0.0 
0.0 0.0 -4.066666666667e-05 
-3.791761410521e-05 9.834452052227e-07 0.0 
9.834452052227e-07 2.490258712289e-04 0.0 
0.0 0.0 -3.733333333333e-05 
-4.328649112970e-05 -2.846153171239e-06 0.0 
-2.846153171239e-06 2.027783130813e-04 0.0 
0.0 0.0 -4.066666666667e-05 
-3.870286392160e-05 3.294084689996e-07 0.0 
3.294084689996e-07 2.508608864312e-04 0.0 
0.0 0.0 -3.733333333333e-05 
-3.531854041237e-05 7.513766644493e-06 0.0 
7.513766644493e-06 2.022043512448e-04 0.0 
0.0 0.0 -4.066666666667e-05 
-3.745771299402e-05 1.439133076564e-06 0.0 
1.439133076564e-06 2.471853041742e-04 0.0 
0.0 0.0 -3.733333333333e-05 
-4.014358368198e-05 1.598479683686e-06 0.0 
1.598479683686e-06 2.530834677737e-04 0.0 
0.0 0.0 -3.733333333333e-05 
-2.406555344720e-05 -1.325170613380e-06 0.0 
-1.325170613380e-06 1.853854904806e-04 0.0 
0.0 0.0 -3.705426016560e-05 
-4.773276247715e-05 -5.487666340881e-05 0.0 
-5.487666340881e-05 2.339073081141e-04 0.0 
0.0 0.0 -3.900000000000e-05 
-3.194031618913e-05 5.389798654005e-05 0.0 
5.389798654005e-05 2.056003519706e-04 0.0 
0.0 0.0 -3.900000000000e-05 
-4.315017897202e-05 -5.698520515806e-06 0.0 
-5.698520515806e-06 2.278586648408e-04 0.0 
0.0 0.0 -4.233333333333e-05 
-3.636845794032e-05 6.197286116004e-06 0.0 
6.197286116004e-06 2.129494665549e-04 0.0 
0.0 0.0 -3.566666666667e-05 
-2.758573317897e-05 -7.450288626601e-07 0.0 
-7.450288626601e-07 2.055894845529e-04 0.0 
0.0 0.0 -3.566666666667e-05 
-5.115038909489e-05 -1.066370140281e-05 0.0 
-1.066370140281e-05 2.909036237404e-04 0.0 
0.0 0.0 -5.066666666667e-05 
-4.759158650463e-05 8.684038607520e-06 0.0 
8.684038607520e-06 3.188574670315e-04 0.0 
0.0 0.0 -4.733333333333e-05 
-5.085989610145e-05 -9.272482802418e-07 0.0 
-9.272482802418e-07 2.717727954080e-04 0.0 
0.0 0.0 -5.066666666667e-05 
-4.739870218655e-05 2.214119719171e-07 0.0 
2.214119719171e-07 3.172539875028e-04 0.0 
0.0 0.0 -4.733333333333e-05 
-5.074388418815e-05 -4.937434425518e-07 0.0 
-4.937434425518e-07 2.705407306617e-04 0.0 
0.0 0.0 -5.066666666667e-05 
-4.741357233689e-05 -4.274409505775e-07 0.0 
-4.274409505775e-07 3.171493791242e-04 0.0 
0.0 0.0 -4.733333333333e-05 
-5.077435242920e-05 -5.251521886155e-07 0.0 
-5.251521886155e-07 2.704744233650e-04 0.0 
0.0 0.0 -5.066666666667e-05 
-4.751251169393e-05 -5.591654456356e-07 0.0 
-5.591654456356e-07 3.172282015912e-04 0.0 
0.0 0.0 -4.733333333333e-05 
-5.087235212600e-05 -5.477202699122e-07 0.0 
-5.477202699122e-07 2.705630921400e-04 0.0 
0.0 0.0 -5.066666666667e-05 
-4.762653689132e-05 -6.001451931681e-07 0.0 
-6.001451931681e-07 3.173415219525e-04 0.0 
0.0 0.0 -4.733333333333e-05 
-5.098168910847e-05 -5.759387222219e-07 0.0 
-5.759387222219e-07 2.706783838615e-04 0.0 
0.0 0.0 -5.066666666667e-05 
-4.772076906172e-05 -6.197857542977e-07 0.0 
-6.197857542977e-07 3.174342765130e-04 0.0 
0.0 0.0 -4.733333333333e-05 
-5.106925553891e-05 -6.148249102859e-07 0.0 
-6.148249102859e-07 2.707687156573e-04 0.0 
0.0 0.0 -5.066666666667e-05 
-4.777985347542e-05 -6.302251650863e-07 0.0 
-6.302251650863e-07 3.174780838358e-04 0.0 
0.0 0.0 -4.733333333333e-05 
-5.110938275235e-05 -6.217795403131e-07 0.0 
-6.217795403131e-07 2.708127709170e-04 0.0 
0.0 0.0 -5.066666666667e-05 
-4.780956838562e-05 -6.053853643083e-07 0.0 
-6.053853643083e-07 3.174879369113e-04 0.0 
0.0 0.0 -4.733333333333e-05 
-5.113117215563e-05 -5.887362678853e-07 0.0 
-5.887362678853e-07 2.708240786717e-04 0.0 
0.0 0.0 -5.066666666667e-05 
-4.781732308072e-05 -5.449737583287e-07 0.0 
-5.449737583287e-07 3.174684300656e-04 0.0 
0.0 0.0 -4.733333333333e-05 
-5.535647040899e-05 -2.224721771426e-05 0.0 
-2.224721771426e-05 3.151114578633e-04 0.0 
0.0 0.0 -4.873639455782e-05 
-5.114534917985e-05 -5.074590888670e-07 0.0 
-5.074590888670e-07 2.708096679475e-04 0.0 
0.0 0.0 -5.066666666667e-05 
-4.781086022037e-05 -4.469500262259e-07 0.0 
-4.469500262259e-07 3.174296260920e-04 0.0 
0.0 0.0 -4.733333333333e-05 
-5.115405450020e-05 -3.906968067935e-07 0.0 
-3.906968067935e-07 2.707769751642e-04 0.0 
0.0 0.0 -5.066666666667e-05 
-4.005493497019e-05 3.545620753650e-06 0.0 
3.545620753650e-06 2.877213180819e-04 0.0 
0.0 0.0 -4.540306122449e-05 
-4.779038971508e-05 -3.118347089870e-07 0.0 
-3.118347089870e-07 3.173687819636e-04 0.0 
0.0 0.0 -4.733333333333e-05 
-4.336028639231e-05 1.776569064140e-06 0.0 
1.776569064140e-06 2.725941409189e-04 0.0 
0.0 0.0 -5.066666666667e-05 
-5.113174051410e-05 -2.330635383312e-07 0.0 
-2.330635383312e-07 2.707232099099e-04 0.0 
0.0 0.0 -5.066666666667e-05 
-4.775450225529e-05 -1.088356439118e-07 0.0 
-1.088356439118e-07 3.172781608830e-04 0.0 
0.0 0.0 -4.733333333333e-05 
-5.106103971955e-05 1.061811698324e-07 0.0 
1.061811698324e-07 2.706701197139e-04 0.0 
0.0 0.0 -5.066666666667e-05 
-4.775673612905e-05 1.928918352567e-07 0.0 
1.928918352567e-07 3.172905143377e-04 0.0 
0.0 0.0 -4.733333333333e-05 
-5.109739057831e-05 3.875546929347e-07 0.0 
3.875546929347e-07 2.706837710260e-04 0.0 
0.0 0.0 -5.066666666667e-05 
-4.777001960659e-05 4.785139335738e-07 0.0 
4.785139335738e-07 3.172918469328e-04 0.0 
0.0 0.0 -4.733333333333e-05 
-5.114053674906e-05 8.454240426302e-07 0.0 
8.454240426302e-07 2.707487787219e-04 0.0 
0.0 0.0 -5.066666666667e-05 
-4.787758656637e-05 7.009769641847e-07 0.0 
7.009769641847e-07 3.175395861276e-04 0.0 
0.0 0.0 -4.733333333333e-05 
-3.859763791424e-05 3.664155593188e-06 0.0 
3.664155593188e-06 2.982362191000e-04 0.0 
0.0 0.0 -5.040306122449e-05 
-5.137125646484e-05 6.035243328694e-07 0.0 
6.035243328694e-07 2.708584208901e-04 0.0 
0.0 0.0 -5.066666666667e-05 
-4.783312841910e-05 7.620509721787e-07 0.0 
7.620509721787e-07 3.173437515974e-04 0.0 
0.0 0.0 -4.733333333333e-05 
-5.111406613470e-05 1.413247059512e-06 0.0 
1.413247059512e-06 2.709105882421e-04 0.0 
0.0 0.0 -5.066666666667e-05 
-4.807701983827e-05 8.408573881303e-07 0.0 
8.408573881303e-07 3.180354434408e-04 0.0 
0.0 0.0 -4.733333333333e-05 
-4.771441396005e-05 7.591073150930e-07 0.0 
7.591073150930e-07 3.169623596771e-04 0.0 
0.0 0.0 -4.733333333333e-05 
-5.166913602441e-05 -1.267909664581e-07 0.0 
-1.267909664581e-07 2.710297563612e-04 0.0 
0.0 0.0 -5.066666666667e-05 
-4.846154266385e-05 7.945751000271e-07 0.0 
7.945751000271e-07 3.191634342060e-04 0.0 
0.0 0.0 -4.733333333333e-05 
-5.033295262382e-05 2.676824150486e-06 0.0 
2.676824150486e-06 2.709658459585e-04 0.0 
0.0 0.0 -5.066666666667e-05 
-4.695776825741e-05 1.311506299456e-06 0.0 
1.311506299456e-06 3.146029699114e-04 0.0 
0.0 0.0 -4.733333333333e-05 
-4.995315779637e-05 3.019430349178e-06 0.0 
3.019430349178e-06 3.221256746523e-04 0.0 
0.0 0.0 -4.733333333333e-05 
-5.264949915731e-05 -3.033116857975e-06 0.0 
-3.033116857975e-06 2.709941081171e-04 0.0 
0.0 0.0 -5.066666666667e-05 
-4.458143821664e-05 8.706406035169e-06 0.0 
8.706406035169e-06 2.701222728083e-04 0.0 
0.0 0.0 -5.066666666667e-05 
-3.262660739579e-05 -2.447626091127e-06 0.0 
-2.447626091127e-06 2.549253489660e-04 0.0 
0.0 0.0 -4.706972789116e-05 
-4.183172584708e-05 -5.516448082583e-05 0.0 
-5.516448082583e-05 2.878160453026e-04 0.0 
0.0 0.0 -4.900000000000e-05 
-5.736611696375e-05 5.379757100263e-05 0.0 
5.379757100263e-05 3.156420142217e-04 0.0 
0.0 0.0 -4.900000000000e-05 
-4.648351230535e-05 -5.650677953531e-06 0.0 
-5.650677953531e-06 2.936870104723e-04 0.0 
0.0 0.0 -4.566666666667e-05 
-5.288209209055e-05 5.940363499374e-06 0.0 
5.940363499374e-06 3.083110135113e-04 0.0 
0.0 0.0 -5.233333333333e-05 
-3.803686742204e-05 -9.545998375183e-07 0.0 
-9.545998375183e-07 2.755250232948e-04 0.0 
0.0 0.0 -4.566666666667e-05 
-5.781705576156e-05 -1.097834381467e-05 0.0 
-1.097834381467e-05 3.693403496953e-04 0.0 
0.0 0.0 -5.733333333333e-05 
-6.100891304768e-05 7.885091902878e-06 0.0 
7.885091902878e-06 3.405875281446e-04 0.0 
0.0 0.0 -6.066666666667e-05 
-5.752656276812e-05 -9.002056482216e-07 0.0 
-9.002056482216e-07 3.876358825742e-04 0.0 
0.0 0.0 -5.733333333333e-05 
-6.081359015182e-05 -5.794002622293e-08 0.0 
-5.794002622293e-08 3.417160881662e-04 0.0 
0.0 0.0 -6.066666666667e-05 
-5.741055085482e-05 -3.076662680791e-07 0.0 
-3.076662680791e-07 3.883987448460e-04 0.0 
0.0 0.0 -5.733333333333e-05 
-6.074210787550e-05 -3.038056687787e-07 0.0 
-3.038056687787e-07 3.417341222542e-04 0.0 
0.0 0.0 -6.066666666667e-05 
-5.744101909586e-05 -3.350213589507e-07 0.0 
-3.350213589507e-07 3.884037471439e-04 0.0 
0.0 0.0 -5.733333333333e-05 
-6.076980017163e-05 -2.633586237472e-07 0.0 
-2.633586237472e-07 3.417973373645e-04 0.0 
0.0 0.0 -6.066666666667e-05 
-5.753901879266e-05 -4.032254988366e-07 0.0 
-4.032254988366e-07 3.884804185775e-04 0.0 
0.0 0.0 -5.733333333333e-05 
-6.084901192467e-05 -2.839820900020e-07 0.0 
-2.839820900020e-07 3.418997932862e-04 0.0 
0.0 0.0 -6.066666666667e-05 
-5.764835577513e-05 -4.670991574783e-07 0.0 
-4.670991574783e-07 3.885926020556e-04 0.0 
0.0 0.0 -5.733333333333e-05 
-6.097338103546e-05 -3.711727285251e-07 0.0 
-3.711727285251e-07 3.420012923996e-04 0.0 
0.0 0.0 -6.066666666667e-05 
-5.773592220557e-05 -5.434399062823e-07 0.0 
-5.434399062823e-07 3.886963937928e-04 0.0 
0.0 0.0 -5.733333333333e-05 
-6.104369650402e-05 -5.100362655251e-07 0.0 
-5.100362655251e-07 3.420398794502e-04 0.0 
0.0 0.0 -6.066666666667e-05 
-5.777604941901e-05 -5.548094796899e-07 0.0 
-5.548094796899e-07 3.887163194926e-04 0.0 
0.0 0.0 -5.733333333333e-05 
-6.105893067594e-05 -5.296141592932e-07 0.0 
-5.296141592932e-07 3.420372773735e-04 0.0 
0.0 0.0 -6.066666666667e-05 
-5.779783882230e-05 -4.963068092733e-07 0.0 
-4.963068092733e-07 3.887001927722e-04 0.0 
0.0 0.0 -5.733333333333e-05 
-6.429332232619e-05 -2.307460778734e-05 0.0 
-2.307460778734e-05 3.850600827683e-04 0.0 
0.0 0.0 -5.871879621414e-05 
-6.109192576982e-05 -4.837956592854e-07 0.0 
-4.837956592854e-07 3.420192799563e-04 0.0 
0.0 0.0 -6.066666666667e-05 
-5.781201584652e-05 -3.891035793225e-07 0.0 
-3.891035793225e-07 3.886678861241e-04 0.0 
0.0 0.0 -5.733333333333e-05 
-5.197171891332e-05 2.601338786256e-06 0.0 
2.601338786256e-06 3.430943376592e-04 0.0 
0.0 0.0 -6.066666666667e-05 
-6.116828848797e-05 -4.015809249984e-07 0.0 
-4.015809249984e-07 3.420050059064e-04 0.0 
0.0 0.0 -6.066666666667e-05 
-5.782072116687e-05 -2.899615651131e-07 0.0 
-2.899615651131e-07 3.886441670397e-04 0.0 
0.0 0.0 -5.733333333333e-05 
-6.121626665852e-05 -3.540641570560e-07 0.0 
-3.540641570560e-07 3.419641075570e-04 0.0 
0.0 0.0 -6.066666666667e-05 
-5.779840718077e-05 -1.758510829020e-07 0.0 
-1.758510829020e-07 3.885785316046e-04 0.0 
0.0 0.0 -5.733333333333e-05 
-6.116783759642e-05 -2.820525569960e-07 0.0 
-2.820525569960e-07 3.418542542977e-04 0.0 
0.0 0.0 -6.066666666667e-05 
-4.930023443078e-05 5.796000691354e-06 0.0 
5.796000691354e-06 3.582468498007e-04 0.0 
0.0 0.0 -5.538546288080e-05 
-5.772770638621e-05 1.312401498261e-07 0.0 
1.312401498261e-07 3.883955911533e-04 0.0 
0.0 0.0 -5.733333333333e-05 
-6.096829823239e-05 3.035755375707e-07 0.0 
3.035755375707e-07 3.418039294054e-04 0.0 
0.0 0.0 -6.066666666667e-05 
-5.776405724498e-05 4.984520269403e-07 0.0 
4.984520269403e-07 3.884232433503e-04 0.0 
0.0 0.0 -5.733333333333e-05 
-6.125140204367e-05 5.931380027650e-07 0.0 
5.931380027650e-07 3.418903324586e-04 0.0 
0.0 0.0 -6.066666666667e-05 
-5.780720341573e-05 8.244863566380e-07 0.0 
8.244863566380e-07 3.884697708382e-04 0.0 
0.0 0.0 -5.733333333333e-05 
-6.110831296764e-05 1.296657285393e-06 0.0 
1.296657285393e-06 3.420973359667e-04 0.0 
0.0 0.0 -6.066666666667e-05 
-5.803792313151e-05 7.049279494282e-07 0.0 
7.049279494282e-07 3.890016332223e-04 0.0 
0.0 0.0 -5.733333333333e-05 
-6.205350649242e-05 4.589417531418e-08 0.0 
4.589417531418e-08 3.421906476610e-04 0.0 
0.0 0.0 -6.066666666667e-05 
-5.778073280136e-05 8.470981603539e-07 0.0 
8.470981603539e-07 3.884329098950e-04 0.0 
0.0 0.0 -5.733333333333e-05 
-6.041203126657e-05 2.222910704188e-06 0.0 
2.222910704188e-06 3.423435831242e-04 0.0 
0.0 0.0 -6.066666666667e-05 
-4.710203058735e-05 4.310616550608e-06 0.0 
4.310616550608e-06 3.686964131418e-04 0.0 
0.0 0.0 -6.038546288080e-05 
-6.294942027381e-05 -2.756163189823e-06 0.0 
-2.756163189823e-06 3.420852271838e-04 0.0 
0.0 0.0 -6.066666666667e-05 
-5.833580269108e-05 1.472104880338e-07 0.0 
1.472104880338e-07 3.900149670501e-04 0.0 
0.0 0.0 -5.733333333333e-05 
-5.509863290017e-05 6.978613204043e-06 0.0 
6.978613204043e-06 3.416103539067e-04 0.0 
0.0 0.0 -6.066666666667e-05 
-5.699961929049e-05 1.188126407733e-06 0.0 
1.188126407733e-06 3.866763485151e-04 0.0 
0.0 0.0 -5.733333333333e-05 
-5.931616582398e-05 1.264970039408e-06 0.0 
1.264970039408e-06 3.921885981794e-04 0.0 
0.0 0.0 -5.733333333333e-05 
-4.124266933807e-05 1.249791926263e-06 0.0 
1.249791926263e-06 3.252010506084e-04 0.0 
0.0 0.0 -5.705212954747e-05 
-6.749087282606e-05 -5.537350596849e-05 0.0 
-5.537350596849e-05 3.726705081140e-04 0.0 
0.0 0.0 -5.900000000000e-05 
-5.182302720593e-05 5.344964927870e-05 0.0 
5.344964927870e-05 3.446027874510e-04 0.0 
0.0 0.0 -5.900000000000e-05 
-6.292581995443e-05 -5.978106008697e-06 0.0 
-5.978106008697e-06 3.667667175588e-04 0.0 
0.0 0.0 -6.233333333333e-05 
-5.621542542388e-05 5.720175409305e-06 0.0 
5.720175409305e-06 3.519710587876e-04 0.0 
0.0 0.0 -5.566666666667e-05 
-4.836028639231e-05 1.166463025180e-06 0.0 
1.166463025180e-06 3.464077171258e-04 0.0 
0.0 0.0 -5.566666666667e-05 
-7.114563988620e-05 -1.149003057072e-05 0.0 
-1.149003057072e-05 4.298780722485e-04 0.0 
0.0 0.0 -7.066666666667e-05 
-6.767557971435e-05 7.789921185043e-06 0.0 
7.789921185043e-06 4.581053887753e-04 0.0 
0.0 0.0 -6.733333333333e-05 
-7.086950529367e-05 -1.417087462263e-06 0.0 
-1.417087462263e-06 4.109780231572e-04 0.0 
0.0 0.0 -7.066666666667e-05 
-6.748025681849e-05 -2.346688612902e-07 0.0 
-2.346688612902e-07 4.565031102245e-04 0.0 
0.0 0.0 -6.733333333333e-05 
-7.064770782861e-05 -5.361532288411e-07 0.0 
-5.361532288411e-07 4.098128991423e-04 0.0 
0.0 0.0 -7.066666666667e-05 
-6.740877454217e-05 -3.802090969509e-07 0.0 
-3.802090969509e-07 4.564156801283e-04 0.0 
0.0 0.0 -6.733333333333e-05 
-7.068434388014e-05 -2.719211823047e-07 0.0 
-2.719211823047e-07 4.097592646131e-04 0.0 
0.0 0.0 -7.066666666667e-05 
-6.743646683829e-05 -2.660727184679e-07 0.0 
-2.660727184679e-07 4.564862413471e-04 0.0 
0.0 0.0 -6.733333333333e-05 
-7.071554313554e-05 -1.840132234043e-07 0.0 
-1.840132234043e-07 4.098289843511e-04 0.0 
0.0 0.0 -7.066666666667e-05 
-6.751567859134e-05 -1.979083631644e-07 0.0 
-1.979083631644e-07 4.566038930868e-04 0.0 
0.0 0.0 -6.733333333333e-05 
-7.082563799221e-05 -1.082855862797e-07 0.0 
-1.082855862797e-07 4.099501439232e-04 0.0 
0.0 0.0 -7.066666666667e-05 
-6.764004770213e-05 -1.840544218251e-07 0.0 
-1.840544218251e-07 4.567798774879e-04 0.0 
0.0 0.0 -6.733333333333e-05 
-7.099668157673e-05 -3.152621347735e-07 0.0 
-3.152621347735e-07 4.100909630507e-04 0.0 
0.0 0.0 -7.066666666667e-05 
-6.771036317068e-05 -3.250871953116e-07 0.0 
-3.250871953116e-07 4.567955793193e-04 0.0 
0.0 0.0 -6.733333333333e-05 
-7.104635293021e-05 -4.797315306229e-07 0.0 
-4.797315306229e-07 4.100980900426e-04 0.0 
0.0 0.0 -7.066666666667e-05 
-6.772559734261e-05 -3.874533346802e-07 0.0 
-3.874533346802e-07 4.567007956159e-04 0.0 
0.0 0.0 -6.733333333333e-05 
-7.641374413823e-05 -2.228773536997e-05 0.0 
-2.228773536997e-05 4.555521205124e-04 0.0 
0.0 0.0 -6.873639455782e-05 
-7.094875925373e-05 -3.791477384794e-07 0.0 
-3.791477384794e-07 4.100304202801e-04 0.0 
0.0 0.0 -7.066666666667e-05 
-6.775859243649e-05 -2.543201428247e-07 0.0 
-2.543201428247e-07 4.566839974153e-04 0.0 
0.0 0.0 -6.733333333333e-05 
-5.983502745799e-05 1.929364290318e-06 0.0 
1.929364290318e-06 4.273284517158e-04 0.0 
0.0 0.0 -6.540306122449e-05 
-7.112696317891e-05 -1.467524674862e-07 0.0 
-1.467524674862e-07 4.100464125056e-04 0.0 
0.0 0.0 -7.066666666667e-05 
-6.783495515464e-05 -1.450638751277e-07 0.0 
-1.450638751277e-07 4.567335765583e-04 0.0 
0.0 0.0 -6.733333333333e-05 
-6.217161144140e-05 3.026566437504e-06 0.0 
3.026566437504e-06 4.118280588832e-04 0.0 
0.0 0.0 -7.066666666667e-05 
-7.130993240556e-05 -1.233962845206e-07 0.0 
-1.233962845206e-07 4.100835803005e-04 0.0 
0.0 0.0 -7.066666666667e-05 
-6.788293332518e-05 -1.526785280095e-07 0.0 
-1.526785280095e-07 4.567248483215e-04 0.0 
0.0 0.0 -6.733333333333e-05 
-7.133053464148e-05 -2.770421121641e-07 0.0 
-2.770421121641e-07 4.100311566981e-04 0.0 
0.0 0.0 -7.066666666667e-05 
-6.783450426309e-05 -1.768217967111e-07 0.0 
-1.768217967111e-07 4.565560458107e-04 0.0 
0.0 0.0 -6.733333333333e-05 
-7.128003053814e-05 -4.124294858267e-07 0.0 
-4.124294858267e-07 4.098246570243e-04 0.0 
0.0 0.0 -7.066666666667e-05 
-6.763496489906e-05 1.353837844384e-07 0.0 
1.353837844384e-07 4.560035381661e-04 0.0 
0.0 0.0 -6.733333333333e-05 
-6.037667670586e-05 3.725538744657e-06 0.0 
3.725538744657e-06 4.387855452071e-04 0.0 
0.0 0.0 -7.040306122449e-05 
-7.080362175516e-05 1.214547096316e-06 0.0 
1.214547096316e-06 4.096944057901e-04 0.0 
0.0 0.0 -7.066666666667e-05 
-6.791806871034e-05 8.269470575155e-07 0.0 
8.269470575155e-07 4.567782366562e-04 0.0 
0.0 0.0 -6.733333333333e-05 
-7.172247895238e-05 4.209193152321e-07 0.0 
4.209193152321e-07 4.100255547766e-04 0.0 
0.0 0.0 -7.066666666667e-05 
-6.777497963431e-05 1.000449125460e-06 0.0 
1.000449125460e-06 4.561234038025e-04 0.0 
0.0 0.0 -6.733333333333e-05 
-6.872017315909e-05 7.209100044906e-07 0.0 
7.209100044906e-07 4.587775367494e-04 0.0 
0.0 0.0 -6.733333333333e-05 
-7.101694663725e-05 3.221273702941e-06 0.0 
3.221273702941e-06 4.103304483538e-04 0.0 
0.0 0.0 -7.066666666667e-05 
-6.707869793323e-05 4.876313269616e-07 0.0 
4.876313269616e-07 4.540272230233e-04 0.0 
0.0 0.0 -6.733333333333e-05 
-7.351744776430e-05 -3.590528867594e-06 0.0 
-3.590528867594e-06 4.105429329544e-04 0.0 
0.0 0.0 -7.066666666667e-05 
-6.961608694047e-05 2.500866072093e-06 0.0 
2.500866072093e-06 4.606767609940e-04 0.0 
0.0 0.0 -6.733333333333e-05 
-6.487293508417e-05 7.258987181476e-06 0.0 
7.258987181476e-06 4.092859995140e-04 0.0 
0.0 0.0 -7.066666666667e-05 
-5.398091155439e-05 -5.270882630615e-06 0.0 
-5.270882630615e-06 3.945040721260e-04 0.0 
0.0 0.0 -6.706972789116e-05 
-6.158970074179e-05 -5.552157044761e-05 0.0 
-5.552157044761e-05 4.267642640122e-04 0.0 
0.0 0.0 -6.900000000000e-05 
-7.727313769225e-05 5.339151864984e-05 0.0 
5.339151864984e-05 4.548383156643e-04 0.0 
0.0 0.0 -6.900000000000e-05 
-6.625915328777e-05 -5.902071933345e-06 0.0 
-5.902071933345e-06 4.326595679538e-04 0.0 
0.0 0.0 -6.566666666667e-05 
-7.280062491732e-05 5.686248152954e-06 0.0 
5.686248152954e-06 4.472638552754e-04 0.0 
0.0 0.0 -7.233333333333e-05 
-5.697171891331e-05 -3.753491299719e-06 0.0 
-3.753491299719e-06 4.144867007492e-04 0.0 
0.0 0.0 -6.566666666667e-05 
-7.781230655286e-05 -1.181963691656e-05 0.0 
-1.181963691656e-05 5.088176645313e-04 0.0 
0.0 0.0 -7.733333333333e-05 
-8.119458623839e-05 6.972004007010e-06 0.0 
6.972004007010e-06 4.800472308251e-04 0.0 
0.0 0.0 -8.066666666667e-05 
-7.753617196034e-05 -1.686526781122e-06 0.0 
-1.686526781122e-06 5.271460113287e-04 0.0 
0.0 0.0 -7.733333333333e-05 
-8.055598266159e-05 -8.309609844759e-07 0.0 
-8.309609844759e-07 4.810024852218e-04 0.0 
0.0 0.0 -8.066666666667e-05 
-7.731437449528e-05 -4.694243935429e-07 0.0 
-4.694243935429e-07 5.276425525984e-04 0.0 
0.0 0.0 -7.733333333333e-05 
-8.071639800283e-05 -2.964994736049e-07 0.0 
-2.964994736049e-07 4.811871574007e-04 0.0 
0.0 0.0 -8.066666666667e-05 
-7.735101054680e-05 -3.609553578528e-07 0.0 
-3.609553578528e-07 5.278599491145e-04 0.0 
0.0 0.0 -7.733333333333e-05 
-8.049136654625e-05 -1.810628668294e-07 0.0 
-1.810628668294e-07 4.812029401063e-04 0.0 
0.0 0.0 -8.066666666667e-05 
-7.738220980221e-05 -1.577265426917e-07 0.0 
-1.577265426917e-07 5.278701924915e-04 0.0 
0.0 0.0 -7.733333333333e-05 
-8.058899491475e-05 1.039952126182e-07 0.0 
1.039952126182e-07 4.813345582273e-04 0.0 
0.0 0.0 -8.066666666667e-05 
-7.749230465888e-05 -5.589101690133e-08 0.0 
-5.589101690133e-08 5.280305322976e-04 0.0 
0.0 0.0 -7.733333333333e-05 
-8.063738768920e-05 2.943263093068e-07 0.0 
2.943263093068e-07 4.815246670627e-04 0.0 
0.0 0.0 -8.066666666667e-05 
-7.766334824340e-05 -1.624950510170e-07 0.0 
-1.624950510170e-07 5.282822808427e-04 0.0 
0.0 0.0 -7.733333333333e-05 
-8.108582164939e-05 -1.817042453861e-07 0.0 
-1.817042453861e-07 4.816572964670e-04 0.0 
0.0 0.0 -8.066666666667e-05 
-7.771301959687e-05 -4.432509054862e-07 0.0 
-4.432509054862e-07 5.283746937170e-04 0.0 
0.0 0.0 -7.733333333333e-05 
-8.689319893331e-05 -2.398901531109e-05 0.0 
-2.398901531109e-05 5.261728810593e-04 0.0 
0.0 0.0 -7.871598639454e-05 
-8.063163037591e-05 -5.731608516610e-07 0.0 
-5.731608516610e-07 4.813582541077e-04 0.0 
0.0 0.0 -8.066666666667e-05 
-7.282722797358e-05 2.956686511685e-06 0.0 
2.956686511685e-06 4.834944195558e-04 0.0 
0.0 0.0 -8.066666666667e-05 
-7.761542592040e-05 1.556054086580e-08 0.0 
1.556054086580e-08 5.279085131106e-04 0.0 
0.0 0.0 -7.733333333333e-05 
-8.085458222001e-05 2.978087830834e-07 0.0 
2.978087830834e-07 4.814005580441e-04 0.0 
0.0 0.0 -8.066666666667e-05 
-7.779362984557e-05 2.880682919728e-07 0.0 
2.880682919728e-07 5.280866836434e-04 0.0 
0.0 0.0 -7.733333333333e-05 
-8.137173526484e-05 3.903881692923e-07 0.0 
3.903881692923e-07 4.816228572156e-04 0.0 
0.0 0.0 -8.066666666667e-05 
-7.797659907223e-05 1.259601545473e-07 0.0 
1.259601545473e-07 5.283575677450e-04 0.0 
0.0 0.0 -7.733333333333e-05 
-8.138094734250e-05 -4.007379149127e-08 0.0 
-4.007379149127e-08 4.816094746352e-04 0.0 
0.0 0.0 -8.066666666667e-05 
-6.958892147872e-05 2.693700344811e-06 0.0 
2.693700344811e-06 4.979075358180e-04 0.0 
0.0 0.0 -7.538265306121e-05 
-7.799720130815e-05 7.326478423489e-09 0.0 
7.326478423489e-09 5.282573840779e-04 0.0 
0.0 0.0 -7.733333333333e-05 
-8.143970684332e-05 -2.393759007723e-07 0.0 
-2.393759007723e-07 4.814739348898e-04 0.0 
0.0 0.0 -8.066666666667e-05 
-7.794669720480e-05 -1.073637191230e-07 0.0 
-1.073637191230e-07 5.280808317875e-04 0.0 
0.0 0.0 -7.733333333333e-05 
-8.174229233143e-05 -1.069148929710e-06 0.0 
-1.069148929710e-06 4.809843103418e-04 0.0 
0.0 0.0 -8.066666666667e-05 
-7.747028842183e-05 1.035597227599e-06 0.0 
1.035597227599e-06 5.267993287079e-04 0.0 
0.0 0.0 -7.733333333333e-05 
-8.011487521303e-05 3.227514386744e-06 0.0 
3.227514386744e-06 4.812335686475e-04 0.0 
0.0 0.0 -8.066666666667e-05 
-7.838914561904e-05 1.172078597877e-06 0.0 
1.172078597877e-06 5.288970930108e-04 0.0 
0.0 0.0 -7.733333333333e-05 
-8.384419164103e-05 -8.759494395606e-07 0.0 
-8.759494395606e-07 4.817654260896e-04 0.0 
0.0 0.0 -8.066666666667e-05 
-7.599610420366e-05 7.462175851506e-06 0.0 
7.462175851506e-06 4.817404732796e-04 0.0 
0.0 0.0 -8.066666666667e-05 
-7.768361330392e-05 1.900460429623e-06 0.0 
1.900460429623e-06 5.268691696083e-04 0.0 
0.0 0.0 -7.733333333333e-05 
-7.085007670582e-05 3.811906941392e-06 0.0 
3.811906941392e-06 5.100816028034e-04 0.0 
0.0 0.0 -8.038265306121e-05 
-8.018411443096e-05 1.198366395229e-06 0.0 
1.198366395229e-06 5.324278016454e-04 0.0 
0.0 0.0 -7.733333333333e-05 
-6.417731922861e-05 -3.943230338450e-06 0.0 
-3.943230338450e-06 4.647268317312e-04 0.0 
0.0 0.0 -7.704931972788e-05 
-8.746095442730e-05 -5.552433142474e-05 0.0 
-5.552433142474e-05 5.117494040768e-04 0.0 
0.0 0.0 -7.900000000000e-05 
-7.187846570217e-05 5.325151437038e-05 0.0 
5.325151437038e-05 4.838528020986e-04 0.0 
0.0 0.0 -7.900000000000e-05 
-8.300562030776e-05 -5.928768708113e-06 0.0 
-5.928768708113e-06 5.060343090617e-04 0.0 
0.0 0.0 -8.233333333333e-05 
-7.613395825065e-05 5.573077951687e-06 0.0 
5.573077951687e-06 4.912471208609e-04 0.0 
0.0 0.0 -7.566666666667e-05 
-6.717161144140e-05 -3.263046586986e-06 0.0 
-3.263046586986e-06 4.846642233179e-04 0.0 
0.0 0.0 -7.566666666667e-05 
-9.283937133862e-05 -1.305520020021e-05 0.0 
-1.305520020021e-05 5.701490487258e-04 0.0 
0.0 0.0 -9.066666666667e-05 
-8.786125290506e-05 6.228376696680e-06 0.0 
6.228376696680e-06 5.972094942788e-04 0.0 
0.0 0.0 -8.733333333333e-05 
-9.022014186398e-05 -3.549288141163e-06 0.0 
-3.549288141163e-06 5.499642990775e-04 0.0 
0.0 0.0 -9.066666666667e-05 
-8.722264932826e-05 -1.484814638766e-06 0.0 
-1.484814638766e-06 5.950278411204e-04 0.0 
0.0 0.0 -8.733333333333e-05 
-9.018085993915e-05 -1.417099940171e-07 0.0 
-1.417099940171e-07 5.484767631814e-04 0.0 
0.0 0.0 -9.066666666667e-05 
-8.738306466949e-05 -3.897787092036e-07 0.0 
-3.897787092036e-07 5.957792554076e-04 0.0 
0.0 0.0 -8.733333333333e-05 
-9.080630643208e-05 -1.004642962581e-06 0.0 
-1.004642962581e-06 5.490414961774e-04 0.0 
0.0 0.0 -9.066666666667e-05 
-8.715803321291e-05 -7.191945164273e-07 0.0 
-7.191945164273e-07 5.952355706191e-04 0.0 
0.0 0.0 -8.733333333333e-05 
-8.983972774977e-05 2.250980017127e-08 0.0 
2.250980017127e-08 5.486638855821e-04 0.0 
0.0 0.0 -9.066666666667e-05 
-8.725566158141e-05 1.431482839066e-07 0.0 
1.431482839066e-07 5.957393564191e-04 0.0 
0.0 0.0 -8.733333333333e-05 
-9.054185498745e-05 8.009925208000e-08 0.0 
8.009925208000e-08 5.490600954273e-04 0.0 
0.0 0.0 -9.066666666667e-05 
-8.730405435587e-05 2.268594339034e-07 0.0 
2.268594339034e-07 5.956704623471e-04 0.0 
0.0 0.0 -8.733333333333e-05 
-9.010725221013e-05 1.077984881025e-06 0.0 
1.077984881025e-06 5.491565562495e-04 0.0 
0.0 0.0 -9.066666666667e-05 
-9.710486836519e-05 -2.255663521806e-05 0.0 
-2.255663521806e-05 5.958483065018e-04 0.0 
0.0 0.0 -8.873639455782e-05 
-8.775248831606e-05 6.167278534911e-07 0.0 
6.167278534911e-07 5.967481919071e-04 0.0 
0.0 0.0 -8.733333333333e-05 
-9.103086627003e-05 -1.513341137134e-06 0.0 
-1.513341137134e-06 5.495772900249e-04 0.0 
0.0 0.0 -9.066666666667e-05 
-8.073249876148e-05 1.956568500794e-06 0.0 
1.956568500794e-06 5.676914892222e-04 0.0 
0.0 0.0 -8.540306122449e-05 
-8.729829704258e-05 -3.688701156799e-07 0.0 
-3.688701156799e-07 5.951865840250e-04 0.0 
0.0 0.0 -8.733333333333e-05 
-9.037940068145e-05 6.271206724163e-07 0.0 
6.271206724163e-07 5.487658884447e-04 0.0 
0.0 0.0 -9.066666666667e-05 
-8.327880964785e-05 3.397797209923e-06 0.0 
3.397797209923e-06 5.519081980575e-04 0.0 
0.0 0.0 -9.066666666667e-05 
-8.752124888667e-05 7.623016925715e-07 0.0 
7.623016925715e-07 5.955739018708e-04 0.0 
0.0 0.0 -8.733333333333e-05 
-9.119391855359e-05 1.735421697781e-06 0.0 
1.735421697781e-06 5.492228013243e-04 0.0 
0.0 0.0 -9.066666666667e-05 
-8.803840193151e-05 9.847285726832e-07 0.0 
9.847285726832e-07 5.964786609531e-04 0.0 
0.0 0.0 -8.733333333333e-05 
-9.156330581238e-05 2.666222241028e-07 0.0 
2.666222241028e-07 5.495997176964e-04 0.0 
0.0 0.0 -9.066666666667e-05 
-8.804761400916e-05 4.409974905671e-07 0.0 
4.409974905671e-07 5.960772025302e-04 0.0 
0.0 0.0 -8.733333333333e-05 
-8.073638837697e-05 3.015269661060e-06 0.0 
3.015269661060e-06 5.789040759249e-04 0.0 
0.0 0.0 -9.040306122449e-05 
-9.112505899787e-05 2.746880104957e-07 0.0 
2.746880104957e-07 5.493199630352e-04 0.0 
0.0 0.0 -9.066666666667e-05 
-8.810637350998e-05 6.151652775298e-07 0.0 
6.151652775298e-07 5.958963692618e-04 0.0 
0.0 0.0 -8.733333333333e-05 
-8.840895899809e-05 1.155447038660e-07 0.0 
1.155447038660e-07 5.965143081286e-04 0.0 
0.0 0.0 -8.733333333333e-05 
-9.164597760346e-05 8.836231120007e-07 0.0 
8.836231120007e-07 5.493625037381e-04 0.0 
0.0 0.0 -9.066666666667e-05 
-8.678154187969e-05 1.516005662498e-06 0.0 
1.516005662498e-06 5.914512376222e-04 0.0 
0.0 0.0 -8.733333333333e-05 
-9.368423993004e-05 -3.485429264516e-06 0.0 
-3.485429264516e-06 5.486941450264e-04 0.0 
0.0 0.0 -9.066666666667e-05 
-9.051085830770e-05 3.821512302252e-06 0.0 
3.821512302252e-06 6.011139986344e-04 0.0 
0.0 0.0 -8.733333333333e-05 
-8.623635069903e-05 1.130998903511e-05 0.0 
1.130998903511e-05 5.483505428446e-04 0.0 
0.0 0.0 -9.066666666667e-05 
-7.442069267613e-05 -5.394763382115e-06 0.0 
-5.394763382115e-06 5.345026645236e-04 0.0 
0.0 0.0 -8.706972789116e-05 
-8.056486673946e-05 -5.396645541003e-05 0.0 
-5.396645541003e-05 5.644717008348e-04 0.0 
0.0 0.0 -8.900000000000e-05 
-9.791450863527e-05 5.509961114953e-05 0.0 
5.509961114953e-05 5.954927673430e-04 0.0 
0.0 0.0 -8.900000000000e-05 
-8.633895364109e-05 -4.683164540594e-06 0.0 
-4.683164540594e-06 5.718841532106e-04 0.0 
0.0 0.0 -8.566666666667e-05 
-9.239018602622e-05 8.127448127221e-06 0.0 
8.127448127221e-06 5.860724498030e-04 0.0 
0.0 0.0 -9.233333333333e-05 
-7.782722797358e-05 -3.296902887833e-06 0.0 
-3.296902887833e-06 5.542989905497e-04 0.0 
0.0 0.0 -8.566666666667e-05 
-9.950603800529e-05 -1.732824840327e-05 0.0 
-1.732824840327e-05 6.532123038277e-04 0.0 
0.0 0.0 -9.733333333333e-05 
-9.845490008412e-05 -7.423843482372e-07 0.0 
-7.423843482372e-07 6.182720398665e-04 0.0 
0.0 0.0 -1.006666666667e-04 
-9.688680853064e-05 -2.101224633275e-06 0.0 
-2.101224633275e-06 6.650247464175e-04 0.0 
0.0 0.0 -9.733333333333e-05 
-1.012464655028e-04 -1.533092774878e-06 0.0 
-1.533092774878e-06 6.197292804394e-04 0.0 
0.0 0.0 -1.006666666667e-04 
-9.684752660582e-05 -6.274302712926e-08 0.0 
-6.274302712926e-08 6.662579141266e-04 0.0 
0.0 0.0 -9.733333333333e-05 
-1.011453118386e-04 1.046563005614e-06 0.0 
1.046563005614e-06 6.213209177569e-04 0.0 
0.0 0.0 -1.006666666667e-04 
-9.747297309875e-05 -2.278502078315e-06 0.0 
-2.278502078315e-06 6.683740764344e-04 0.0 
0.0 0.0 -9.733333333333e-05 
-9.931899188090e-05 -3.288065646636e-06 0.0 
-3.288065646636e-06 6.197642772278e-04 0.0 
0.0 0.0 -1.006666666667e-04 
-9.650639441644e-05 2.666172739854e-07 0.0 
2.666172739854e-07 6.659194579952e-04 0.0 
0.0 0.0 -9.733333333333e-05 
-1.000788983180e-04 1.910523566858e-06 0.0 
1.910523566858e-06 6.207688021561e-04 0.0 
0.0 0.0 -1.006666666667e-04 
-9.720852165412e-05 -4.164213939214e-07 0.0 
-4.164213939214e-07 6.678605235040e-04 0.0 
0.0 0.0 -9.733333333333e-05 
-1.005225329566e-04 -1.059277058645e-06 0.0 
-1.059277058645e-06 6.206711688955e-04 0.0 
0.0 0.0 -1.006666666667e-04 
-1.076654382393e-04 -2.454755873475e-05 0.0 
-2.454755873475e-05 6.666235465443e-04 0.0 
0.0 0.0 -9.871211211756e-05 
-9.677391887680e-05 3.262994796209e-07 0.0 
3.262994796209e-07 6.670349670739e-04 0.0 
0.0 0.0 -9.733333333333e-05 
-1.004112575968e-04 6.266382551746e-06 0.0 
6.266382551746e-06 6.238730393685e-04 0.0 
0.0 0.0 -1.006666666667e-04 
-9.691250726487e-05 3.272004711609e-06 0.0 
3.272004711609e-06 6.207526912737e-04 0.0 
0.0 0.0 -1.006666666667e-04 
-9.769753293670e-05 3.857908775590e-07 0.0 
3.857908775590e-07 6.683264731120e-04 0.0 
0.0 0.0 -9.733333333333e-05 
-1.018216783017e-04 -1.733271697638e-06 0.0 
-1.733271697638e-06 6.205292306068e-04 0.0 
0.0 0.0 -1.006666666667e-04 
-9.704606734811e-05 1.789783002985e-06 0.0 
1.789783002985e-06 6.661622647260e-04 0.0 
0.0 0.0 -9.733333333333e-05 
-1.018704888891e-04 2.872470909369e-06 0.0 
2.872470909369e-06 6.210028127133e-04 0.0 
0.0 0.0 -1.006666666667e-04 
-9.786058522026e-05 1.410942441991e-06 0.0 
1.410942441991e-06 6.680408138480e-04 0.0 
0.0 0.0 -9.733333333333e-05 
-1.006317600444e-04 1.941140312877e-06 0.0 
1.941140312877e-06 6.214755597104e-04 0.0 
0.0 0.0 -1.006666666667e-04 
-9.094846281658e-05 3.460693907673e-06 0.0 
3.460693907673e-06 6.387381401671e-04 0.0 
0.0 0.0 -9.537877878422e-05 
-9.822997247904e-05 5.655000512226e-07 0.0 
5.655000512226e-07 6.686847925497e-04 0.0 
0.0 0.0 -9.733333333333e-05 
-1.005721140742e-04 -4.771801101198e-07 0.0 
-4.771801101198e-07 6.209284532513e-04 0.0 
0.0 0.0 -1.006666666667e-04 
-9.779172566454e-05 1.437765353010e-06 0.0 
1.437765353010e-06 6.669881357660e-04 0.0 
0.0 0.0 -9.733333333333e-05 
-9.964754038308e-05 2.397319642454e-06 0.0 
2.397319642454e-06 6.203504795262e-04 0.0 
0.0 0.0 -1.006666666667e-04 
-9.942841041269e-05 6.330945354939e-06 0.0 
6.330945354939e-06 6.210142166029e-04 0.0 
0.0 0.0 -1.006666666667e-04 
-9.831264427012e-05 3.607920745624e-06 0.0 
3.607920745624e-06 6.668464283750e-04 0.0 
0.0 0.0 -9.733333333333e-05 
-1.003509065967e-04 3.038689806417e-06 0.0 
3.038689806417e-06 6.697580945376e-04 0.0 
0.0 0.0 -9.733333333333e-05 
-9.096542632603e-05 2.974368147524e-06 0.0 
2.974368147524e-06 6.503827388711e-04 0.0 
0.0 0.0 -1.003787787842e-04 
-8.451759272524e-05 -2.785279264380e-06 0.0 
-2.785279264380e-06 6.050107377767e-04 0.0 
0.0 0.0 -9.704544545089e-05 
-1.061297274301e-04 -4.871673269526e-05 0.0 
-4.871673269526e-05 6.458409108431e-04 0.0 
0.0 0.0 -9.900000000000e-05 
-9.597407948562e-05 5.882537232744e-05 0.0 
5.882537232744e-05 6.276346610407e-04 0.0 
0.0 0.0 -9.900000000000e-05 
-1.061722618288e-04 2.720032131649e-06 0.0 
2.720032131649e-06 6.459980937412e-04 0.0 
0.0 0.0 -1.023333333333e-04 
-9.572351935955e-05 9.504820778219e-06 0.0 
9.504820778219e-06 6.293354809804e-04 0.0 
0.0 0.0 -9.566666666667e-05 
-8.827880964785e-05 -4.615262033286e-06 0.0 
-4.615262033286e-06 6.261214177850e-04 0.0 
0.0 0.0 -9.566666666667e-05 

SCALARS element_materi_plasti_kappa_shear float
LOOKUP_TABLE default
2.847132974464e-04
2.567335577462e-04
8.383458615127e-04
8.438320912051e-04
5.252340220498e-04
1.092332508777e-04
5.211056369626e-04
2.682011350187e-04
5.284032086376e-04
8.364231581825e-04
5.721664887116e-04
2.192159031084e-04
8.427469438430e-04
5.626516430071e-04
8.591411753051e-04
8.596118674820e-04
5.228709310720e-04
9.890289689114e-05
1.829897689724e-04
1.694158919351e-04
8.423436282844e-04
2.963793359042e-04
3.324051967767e-04
8.081759085961e-04
6.000118969986e-04
6.135444959901e-04
4.831662702076e-04
8.640260917564e-04
6.044060870881e-04
8.284633969501e-04
1.393644665420e-04
6.157167640348e-05
8.645031697050e-04
7.227162512376e-04
8.409567717064e-04
8.889842858592e-04
8.867272022491e-04
8.401574712595e-04
4.762820424766e-04
4.829160232604e-04
3.784313710213e-04
8.419842235364e-04
1.971583877801e-04
4.640967896192e-04
8.239259452907e-04
1.959288160543e-04
8.321288766212e-05
8.084255947212e-04
3.689720172040e-05
5.421120849717e-04
3.571518168043e-04
2.245192715023e-04
1.849539392691e-04
3.438430703420e-04
8.437751075118e-04
2.946472074171e-04
2.169482347232e-04
7.261086015540e-04
1.365401986572e-04
8.602343425103e-04
5.633449810247e-05
8.068338246298e-04
3.495820234045e-04
1.625404768038e-04
8.423121318073e-04
3.196875078224e-04
2.407380933191e-05
8.605021510781e-04
1.455927549119e-04
8.423461725362e-04
6.362218458080e-04
8.811950242161e-04
8.101315001547e-04
6.837837458653e-05
2.980351712693e-04
8.450728483081e-04
8.650274645365e-04
1.497776459891e-04
1.164171881254e-04
1.495511738586e-04
1.394737434445e-04
4.994656174592e-04
3.126596433046e-04
2.656451840487e-04
5.512146343309e-04
5.478404078236e-04
6.543703068282e-04
7.066969326251e-04
7.292257809066e-04
5.182254199727e-04
3.772961361312e-05
5.068209088843e-04
7.023712359703e-04
7.053137767572e-04
9.034935541177e-04
8.681099508839e-04
4.998503861448e-04
8.654654996241e-04
5.895620793702e-04
3.387865222816e-04
5.023282053966e-04
8.610484090904e-04
6.969273947015e-04
8.114912522944e-04
3.066747276919e-04
1.031286558348e-04
7.940042257422e-04
7.514569823258e-04
6.199677439276e-05
8.454993593349e-04
6.946613572604e-04
4.904031993171e-05
4.043465054524e-04
4.701260917007e-04
3.591769958220e-04
3.010429561773e-04
3.537650535641e-04
8.520744351586e-04
5.793631570773e-04
3.261491376649e-04
1.418039967851e-04
5.194733326263e-04
7.366211917707e-04
3.289742658715e-04
1.029625399055e-04
4.250840810499e-04
3.733497519716e-04
3.937484836423e-04
8.617156175713e-04
1.214391796965e-04
6.025351137927e-04
8.438264723838e-04
4.251430981113e-04
4.028071146060e-04
8.421798094545e-04
8.449973380302e-04
6.540085342923e-04
4.550812470554e-04
8.653037555385e-04
4.073208974334e-04
8.427923186268e-04
8.640045548534e-04
5.578310155526e-04
6.509573146725e-04
4.117138516470e-04
3.711211770560e-04
4.681101004950e-04
3.518672901193e-04
5.147824992523e-04
4.107193794640e-04
3.646113790962e-05
5.532223658631e-04
1.258155624666e-04
4.487912821367e-04
8.442761777728e-04
3.036097253508e-04
6.795876328870e-04
2.190343751187e-04
6.939470314270e-04
5.021535652402e-04
3.806977165922e-04
7.481063603695e-04
1.298522692207e-04
7.928147477738e-04
5.039709184499e-04
8.650019251011e-04
5.013582088109e-04
3.160516627979e-04
4.393239970158e-04
5.920825198174e-04
2.289923969885e-04
3.854224720753e-04
6.780718451191e-04
5.198603884199e-04
3.586956886529e-04
4.169796386473e-04
7.560276412873e-04
4.159140997811e-04
8.428055575623e-04
8.639767009483e-04
2.975132247583e-04
3.989799041527e-04
7.712498508063e-04
3.945945745463e-04
2.576819868644e-04
4.854060291149e-04
3.951341740237e-04
8.456558194475e-04
7.010154264104e-04
7.714816593417e-04
1.746707301352e-04
3.610997931363e-04
7.204647992586e-04
1.945331205908e-05
3.903836025195e-04
7.222445599691e-04
1.036327141325e-04
8.424473339204e-04
6.428453457772e-04
3.831449392291e-04
7.193613777923e-04
5.586004203897e-04
5.898087867421e-04
8.246624455494e-04
2.857235697232e-04
4.866694704310e-04
5.222557039026e-04
6.732665719341e-04
5.326319802480e-04
4.881655111683e-04
6.257681940146e-04
7.388362075692e-04
5.690614774354e-05
2.917017983456e-04
3.317775165376e-04
4.735931798939e-04
7.340526410142e-04
1.447054251006e-04
6.965604954019e-04
5.013674676710e-04
3.566918662294e-04
6.715636749960e-04
6.571013662794e-05
6.877012871154e-04
5.549518836130e-05
8.040745949318e-05
1.732184497000e-04
2.392003364027e-04
7.177475001527e-04
2.320046903568e-04
2.075153724814e-04
1.800041788403e-04
1.507998795129e-04
7.424671531813e-04
5.071426105021e-04
8.446796247734e-04
0.0
2.497594834345e-04
4.009784043095e-04
3.635781274630e-04
6.932515688423e-04
8.647303225506e-04
6.886146806345e-04
2.931670056878e-04
7.441379809633e-04
6.308353337863e-04
4.980516236996e-04
6.615635321969e-04
8.261379668094e-04
4.064024309512e-04
2.371048478647e-04
5.754464620744e-04
9.026357122934e-04
4.917413561400e-04
5.134823346619e-04
5.630191156583e-04
1.329471826665e-04
5.277021269871e-04
2.878196777098e-04
1.938006262720e-04
1.362334838042e-04
7.132570322814e-04
5.514544182274e-04
3.441653812797e-04
7.429062318585e-04
7.078085783757e-04
5.222121837301e-04
8.463050092743e-04
5.284876028695e-04
5.460070011469e-04
4.376131710040e-04
5.575789166973e-04
2.377977007102e-04
5.035541614816e-04
4.257154416742e-04
3.011811086088e-04
6.820805742593e-04
2.384378149136e-05
5.562902183290e-04
3.071842567668e-04
2.550196540710e-04
2.439773196071e-04
5.894366693464e-04
9.570931057482e-05
3.576303071845e-04
5.731391386351e-04
5.461339597621e-04
5.616867596350e-04
1.271009961872e-04
2.958157551279e-04
2.761694005421e-04
3.216903735558e-04
6.680530276719e-04
3.637979337747e-04
3.949989305544e-04
3.759115002993e-04
1.575634516332e-04
4.501668004301e-04
1.708993772794e-04
9.019026024371e-04
9.023973057295e-04
5.057511345693e-04
2.631127598012e-04
2.307674832005e-04
5.600193776098e-04
2.500946570906e-04
2.700679866253e-04
4.922948739685e-04
8.667616329614e-04
3.318462296128e-04
6.222149882880e-04
1.830371105394e-04
9.023475672024e-04
2.441397582287e-04
5.112104398270e-04
1.689503966276e-04
6.053623747982e-04
4.196544349858e-04
2.903890059932e-04
5.270871447235e-04
9.021440381368e-04
3.510699855254e-04
5.781821550489e-04
1.886309360797e-04
6.316875196563e-04
6.668857487106e-04
2.624435093985e-04
6.164660003841e-04
9.026438880277e-04
7.124911027791e-04
9.030006616607e-04
6.099328680256e-04
7.015574955173e-04
2.180182464546e-04
4.840383207087e-04
5.408811792003e-04
5.701871426172e-04
4.675332375955e-04
9.035883904622e-04
5.850053230518e-04
5.141279373987e-04
3.811690988531e-04
1.956242149518e-04
4.646237938930e-04
2.742553589397e-04
5.220512861019e-04
2.960117191843e-04
3.368501384635e-04
7.076177555195e-04
2.798327001462e-04
4.981195041245e-04
5.922020028832e-04
5.249691217824e-04
9.022141612185e-04
4.195717744466e-04
2.760615473356e-04
3.714756492195e-04
2.666495641069e-04
2.573536274962e-04
7.531436391681e-04
5.406886875803e-04
3.691632618911e-04
4.556110258937e-04
9.030518011548e-04
8.532871781874e-04
7.461245423291e-04
6.934880992847e-04
5.105698072065e-04
3.813116805693e-04
2.690679185397e-04
3.126694468458e-04
5.164893174634e-04
5.919748660066e-04
4.476339003619e-04
7.537614717665e-04
2.814322894241e-04
4.431267281225e-04
5.162384399113e-04
3.994083330778e-04
9.019027868778e-04
9.024199943996e-04
8.466674059490e-04
5.551721733312e-04
7.381697029613e-04
2.318050061718e-04
3.566133739436e-04
2.004113789535e-04
3.876518657495e-04
5.007689008681e-04
6.066206779727e-04
8.634617584911e-04
7.387016338322e-04
5.700145676085e-04
5.843478329972e-04
2.129102317008e-04
9.963202888369e-05
4.255642556790e-04
4.864892581303e-04
4.557093610505e-04
1.015080950596e-04
5.392744089157e-04
1.864447400827e-04
2.686669338435e-04
8.829401381496e-04
6.479849204365e-04
5.101152900271e-04
1.402250907171e-04
4.625920286436e-04
4.307827734044e-04
5.943113921106e-04
9.027611341500e-04
4.797580040648e-04
5.649702214781e-04
4.419535104601e-04
7.334092120784e-04
5.703474346401e-04
9.028672049198e-04
8.818149095568e-04
8.812004500202e-04
8.770344726619e-04
6.086454399872e-04
7.380884957385e-04
7.670249911297e-04
3.946547610248e-04
3.761808931614e-04
4.220813725199e-04
7.589723938571e-04
9.023328764655e-04
7.577932565223e-04
6.026760527823e-04
7.626774697069e-04
6.606437481448e-04
4.567756297563e-04
3.825801685651e-04
2.007576887360e-04
8.470469883245e-04
3.704624717408e-04
8.076533810370e-04
4.162571300339e-04
2.699749840163e-04
8.434505841465e-04
2.924500070844e-04
8.816442479766e-04
8.452247512919e-04
5.545088614739e-04
3.473443607641e-05
8.815269345483e-04
8.437795076667e-04
2.644715325930e-04
6.230832692164e-04
9.043633052623e-04
0.0
4.136686690805e-04
5.789929662663e-04
5.300876254499e-04
5.356595073985e-04
2.252617715596e-04
8.806829294995e-04
4.006991802615e-04
1.303841541133e-04
8.663125818618e-04
6.051131586377e-05
4.315774978662e-04
1.176867923368e-04
4.596515473754e-04
9.012311898413e-04
8.829625409697e-04
5.653646595553e-04
8.124087917367e-05
9.994837872237e-05
1.389614691644e-04
7.526188084607e-04
5.232481456078e-04
5.352467886841e-04
8.832777862969e-04
5.239926934470e-04
9.034954834455e-04
6.742815143354e-04
5.863949273689e-04
2.820464387522e-04
6.178481751699e-04
1.825530642902e-04
8.832148814275e-04
8.787933827959e-04
8.806921593160e-04
5.756624678762e-04
3.963242992692e-04
4.623808742286e-04
5.898300044950e-04
8.827105655163e-04
2.739608454354e-04
3.152297798322e-04
3.346486994201e-04
6.118815291473e-04
9.031087235632e-04
9.826315240639e-05
8.806359177385e-04
3.091995583178e-04
8.830701307018e-04
7.737556814763e-04
2.602550826630e-05
4.315307198807e-04
7.678889909001e-04
8.823867652727e-04
6.136211757286e-04
6.941437612341e-04
1.584089862020e-04
8.072406538751e-04
3.285549430036e-04
3.399738602395e-04
6.350089245098e-05
8.815166830728e-04
2.259416864064e-04
7.443039276558e-04
5.669420517884e-04
2.830302926058e-04
3.206987936709e-04
5.893066187854e-04
8.831255390234e-04
4.112126309151e-04
6.461218310913e-04
5.245062035981e-04
5.860608677982e-04
3.451263767299e-04
6.003773440688e-04
5.107552153637e-04
6.659208771778e-04
6.625383459481e-04
5.000360828217e-04
4.220154532181e-04
2.979654696955e-04
3.903746207876e-04
6.804313980790e-04
5.475016889342e-04
9.031543334572e-04
7.872511197512e-04
2.513213857487e-04
8.791428665884e-04
8.623865534779e-04
4.695549206328e-04
3.669236207070e-05
9.023712677025e-04
7.825243345501e-04
2.836634880462e-04
8.808658468443e-04
6.210975252764e-04
4.005662234096e-04
5.509439591359e-04
5.333534302821e-04
5.303907689406e-04
6.114043158285e-04
6.485756697789e-04
4.497226363466e-04
6.883221258394e-04
5.985234349652e-04
4.277851164570e-04
6.370445780655e-04
3.335340985590e-04
5.972217102501e-04
2.690095818511e-05
3.234473257319e-04
3.145667651333e-04
4.619525145775e-04
4.941683527065e-04
6.157927676169e-04
5.953076823754e-04
2.893667186736e-04
8.829502872488e-04
5.841509097847e-04
4.814294041828e-04
5.596214459887e-04
4.676664971932e-04
0.0
5.801676505400e-04
3.844985916664e-04
0.0
4.554300220234e-04
6.611400294946e-04
7.615386503395e-04
5.667217612568e-04
5.798125605848e-04
4.946399896660e-04
4.612945919967e-04
8.448933154629e-04
5.351237915901e-04
2.265059230248e-05
1.593136185292e-04
3.598215869650e-05
2.756541644964e-04
7.595674519949e-04
7.663452637067e-04
7.206272217663e-04
3.111805889127e-04
6.034032161237e-04
7.573752906356e-04
1.740144548794e-04
3.864583664951e-04
3.117083041406e-04
9.031633853049e-04
8.822228944503e-04
4.285735382123e-04
4.870038452019e-04
5.444247428616e-04
7.843706278062e-04
1.688678543700e-04
7.320309974875e-04
1.024779424926e-04
4.424111468176e-04
4.932536473152e-04
3.661873855527e-05
4.046650665538e-04
7.818962903618e-04
2.628493764547e-05
4.594828512294e-04
4.812071489687e-04
6.367624673799e-04
3.155481759348e-04
3.029147364412e-04
2.132280228371e-04
7.837934729915e-04
8.448257163848e-04
7.363444438744e-04
2.851623301377e-04
1.072863423375e-04
4.603504121984e-04
4.608177344525e-04
4.831872055831e-04
0.0
3.555241354687e-05
7.966173186171e-05
2.342846998403e-04
6.373569268983e-05
4.549076851565e-04
0.0
2.796945326255e-04
6.183777696222e-04
4.824258644607e-04
7.814158546744e-04
6.352076666034e-04
5.781612852690e-04
3.372841396968e-04
1.018092465349e-04
8.804341959840e-04
9.035439950554e-04
5.614027168615e-04
4.616000397093e-04
3.431731325220e-04
9.014339937115e-04
2.659509024599e-04
4.803513075401e-04
4.596149613707e-04
4.369192074101e-04
8.832852469207e-04
9.009032309479e-04
6.250414495270e-05
0.0
1.266214781953e-04
4.876279566065e-04
8.196533199701e-04
2.444433938167e-05
7.274110977346e-04
0.0
6.250843933025e-04
2.867078562402e-05
2.783203544243e-05
5.997115799954e-04
7.944815531001e-04
6.355701656843e-04
4.791132808813e-04
3.652595870710e-05
6.229816343343e-04
8.791826602914e-04
9.014687340808e-04
4.821873124554e-04
6.503883133201e-04
8.818062794857e-04
6.993504510242e-04
9.789390783998e-05
6.279365927203e-05
3.939974307887e-05
3.825618914400e-04
9.021047273405e-04
8.443030366409e-04
0.0
4.516920689161e-04
8.837977955305e-04
9.047268419961e-04
9.014166279866e-04
6.824648899155e-04
7.516239818066e-04
8.796515991076e-04
8.818821043928e-04
7.273160736883e-04
2.211575098140e-05
4.787532764467e-04
4.846356056311e-04
0.0
8.847559387122e-04
9.037195635447e-04
8.791881994104e-04
2.812709352533e-05
2.886337119670e-05
8.807302274622e-04
8.799262388240e-04
6.606959234620e-04
4.786921816039e-04
7.045004432885e-04
5.666139951839e-04
4.780950833957e-04
2.553609013369e-05
2.943212211666e-05
2.487007266475e-05
2.712132983020e-05
4.772021594015e-04
4.286502641088e-04
0.0
6.145195953194e-04
0.0
8.800821581416e-04
8.788987143881e-04
8.809194080868e-04
1.543232978874e-04
2.904945093705e-04
8.796413922759e-04
7.525259440061e-04
8.837915350881e-04
7.992262474011e-04
8.460368269156e-04
4.052497561465e-04
9.034475555497e-04
9.025505378386e-04
7.709083270600e-04
8.195089923752e-04
6.617362762152e-04
0.0
4.176416125064e-04
6.092826118018e-05
7.888929342564e-04
4.363249681698e-04
7.275214838645e-04
2.209065391860e-04
8.130906403886e-05
7.783803544764e-04
4.610171208733e-04
3.609674789086e-04
7.334454872420e-04
7.883388593484e-04
3.608088371091e-04
6.922006084626e-04
6.034876983327e-04
6.562206089320e-04
6.777106223571e-04
3.699030016403e-04
4.367455166762e-04
4.808107450877e-04
6.170029851943e-04
7.543946188843e-04
6.998918906108e-04
2.236916744938e-04
7.865894495828e-04
7.412777532416e-04
5.338023001125e-04
6.428876137913e-04
6.366868729429e-04
7.982659732682e-04
7.683299234494e-04
5.896655507063e-04
7.981209395123e-04
7.317182777282e-04
6.996282799597e-04
8.110166413215e-04
7.924641880625e-04
6.744131504159e-04
6.666687721535e-04
2.222812676772e-04
2.065367340502e-04
1.125541859685e-04
6.237733767345e-05
7.698425966602e-04
7.679810230490e-04
6.018528781591e-05
7.767838420586e-04
5.508431979073e-04
7.139111020130e-04
7.225345758280e-04
3.210916204918e-04
7.277792051553e-04
5.345154592761e-04
6.681973168260e-04
8.270717611794e-04
2.126569924615e-04
8.168359037540e-04
6.998709092975e-04
2.419277465397e-04
2.572139128868e-04
5.157383088969e-04
6.206435762795e-04
3.445305893728e-04
7.246223149107e-04
6.508258121004e-04
5.014012835763e-04
6.818156971164e-04
7.083328473163e-04
6.952144219196e-04
1.892569743241e-04
4.759731321316e-04
7.583758524429e-04
7.205684773619e-04
4.286991399852e-04
6.094148028769e-04
7.977133214395e-04
6.694832793452e-04
1.063908867657e-04
1.078325644387e-04
2.185995729447e-04
7.487063186168e-04
6.453888805748e-04
5.685571839540e-04
5.747340170202e-04
7.632873978513e-04
5.213198554590e-04
7.022694847875e-04
2.278532579141e-04
8.104690401051e-04
5.072778477496e-04
2.493887876613e-04
4.811363962896e-04
3.641239825016e-04
2.855768811343e-04
5.596568083914e-04
0.0
0.0
6.426259570283e-04
2.090044132862e-04
6.487981239576e-04
6.292228741945e-04
3.962033144448e-04
2.579044153745e-04
7.616473441749e-04
1.019762165519e-04
3.852520764996e-04
7.853811998397e-04
1.733076863571e-04
6.041255787992e-04
5.562754309982e-04
1.755785073398e-04
7.771304788849e-04
6.907987842018e-04
2.031638653013e-04
7.812508794649e-04
7.761681869909e-04
2.340588006308e-04
3.099693431780e-04
2.401902132467e-04
6.877850878179e-04
5.412899770906e-04
7.773630800326e-04
7.570625316910e-04
6.683791686238e-04
6.625290522613e-04
1.893340517518e-04
6.820308372633e-04
6.862847063831e-04
5.467902184326e-04
6.498698714300e-04
7.159072219897e-04
4.836380743717e-04
7.367030404168e-04
4.559169101876e-04
5.273150536082e-04
3.411674526490e-04
3.634633618335e-04
6.658946142908e-04
5.048839066708e-04
2.598481237302e-04
1.310675626010e-04
6.702674056581e-04
2.538844621688e-04
8.100545142142e-04
6.906694072020e-04
7.081089564605e-04
8.422326803080e-04
4.360105328501e-04
2.279423584864e-04
1.438342882826e-04
6.746645813760e-04
6.253129879063e-04
9.918819555368e-05
3.502385490955e-04
2.023555415197e-04
6.246699331793e-04
3.695628740598e-04
6.232537801749e-04
3.438500574503e-04
7.461722125166e-04
2.994852823397e-04
6.807902368990e-04
2.134297640903e-04
6.549102842848e-04
5.031003560477e-04
6.885245121902e-04
3.402916395448e-04
1.961866029563e-04
5.822861240524e-04
6.308362435894e-04
4.380632245669e-04
6.281676019648e-04
2.380403549024e-04
6.367384190698e-04
1.839508450066e-04
7.725002622058e-04
6.561620715166e-04
6.933815038025e-04
8.092250112126e-04
5.501611933615e-04
1.836188012187e-04
6.153653481655e-04
7.923633784811e-04
3.086645625323e-04
6.943493645373e-04
6.953376833628e-04
2.383737125918e-04
6.351661673105e-04
5.732469191631e-04
2.731502544442e-04
3.307497968412e-04
5.297758459476e-04
6.688023425967e-04
4.058187172305e-04
5.054096064123e-04
6.614441040854e-04
5.998784189862e-04
5.910883509517e-04
4.972646323121e-04
7.574466861930e-04
5.955283378909e-04
5.798186174699e-04
8.003940697799e-04
7.180161900282e-04
6.490287924266e-04
7.113553544645e-04
3.823555630989e-04
3.565404549641e-04
1.953976897051e-04
6.410050228313e-04
3.763189430417e-04
6.449063337001e-04
6.199045494020e-04
5.084125206731e-04
3.051454170769e-04
3.258730291925e-04
3.248932828680e-04
3.506411482378e-04
2.087274372249e-04
7.378551383479e-04
4.282574386795e-04
7.412552030348e-04
4.541815597642e-04
6.095351943613e-04
5.187506594856e-04
4.997510169959e-04
2.146153585684e-04
7.711538397404e-04
8.079476018067e-04
6.361701368165e-04
3.764967077337e-04
5.641220258623e-04
6.406080403220e-04
4.020423173836e-04
4.195882062222e-04
3.055816158326e-04
2.636950223364e-04
4.082271319947e-04
2.736025990170e-04
2.537953830401e-04
5.245273162057e-04
6.292993035880e-04
7.492900454241e-04
3.203758316606e-05
4.405577458711e-04
4.346027194587e-04
4.023785191973e-04
6.155232675037e-04
4.734346387430e-04
3.196066524516e-04
4.342139395113e-04
7.163087986927e-04
3.260933403649e-04
1.168244718053e-04
1.647945889040e-04
2.770873895178e-04
3.310730520104e-04
4.602757153186e-04
4.600207765890e-04
1.928157764076e-04
1.707341749778e-04
5.895058594021e-04
2.797745439378e-04
7.062976887918e-04
7.244525292787e-04
5.994482200641e-04
7.479362706432e-04
7.722073383501e-04
4.891222082220e-04
6.801196645123e-04
2.186358735565e-04
4.535223376976e-04
4.450813002302e-04
2.467733830818e-04
1.750442891068e-04
3.704464435431e-04
4.405809917950e-04
4.660198440887e-04
2.935158266565e-04
4.992118488517e-04
4.465362306875e-04
4.659568211177e-04
3.372178723478e-04
6.620913788087e-04
6.659627664384e-04
4.464589383721e-04
7.516390930913e-04
2.441816649308e-04
8.072504021232e-04
4.795300791222e-04
8.017371460895e-04
6.085549533664e-04
2.321228935279e-04
6.185852731565e-04
7.630767509020e-04
5.051417859831e-04
3.661414466216e-04
6.376993777508e-04
4.811178594329e-04
1.857807587189e-04
8.390465361483e-04
1.628736303485e-04
8.036589317589e-04
7.822328340233e-04
6.817113985780e-04
5.944690303378e-04
7.324063707552e-04
4.717283072585e-04
5.530050660420e-04
7.919782093494e-04
6.749206336022e-04
6.866667910661e-04
6.457616521014e-04
2.126152465348e-04
7.069826387246e-04
8.629714234730e-04
7.993865070988e-04
4.477431927428e-04
5.982374328927e-04
5.702467583063e-04
4.852758503030e-04
6.550541832802e-04
6.806275031618e-04
1.495582113029e-04
2.819536409307e-04
4.719088448474e-04
4.524404810498e-04
4.753774359264e-04
8.204202764357e-04
7.726022105671e-04
7.860269249390e-04
4.302864262974e-04
7.179879766962e-04
6.608709654568e-04
7.991666135651e-04
6.815066276248e-04
4.792430800077e-04
4.524987585418e-04
7.025482517895e-04
7.779314873333e-04
7.070226180185e-04
6.822309135255e-04
7.465300404061e-04
7.826368761699e-04
7.260240088116e-04
5.837814341675e-04
4.125387530949e-04
7.065160572798e-04
6.683788434956e-04
2.478373517058e-04
4.777284192442e-04
5.353515613939e-04
5.977625510039e-04
2.507745920709e-04
4.583293862520e-04
6.426616075672e-04
4.741323037944e-04
4.930461985426e-04
6.351704220665e-04
5.035899061353e-04
8.748336872995e-05
5.699093729231e-04
6.954848808431e-04
7.976626568000e-04
5.222109466484e-04
5.384171766190e-04
6.412047717611e-04
1.333587154635e-04
6.759698665895e-04
5.725287969111e-04
5.032199876639e-04
6.864279124225e-04
2.514950635447e-04
7.120564692623e-04
7.780948302509e-04
6.564610749456e-04
7.116821158201e-04
7.246360851013e-04
7.833643354194e-04
1.802790547338e-04
6.612816129093e-04
7.861355491829e-04
7.278229343817e-04
6.115797601383e-04
4.833414631771e-04
5.268286526492e-04
1.425296761520e-04
7.526132568007e-04
2.678943445110e-04
2.211120256558e-04
7.044851606333e-04
8.041173484502e-04
2.253293374700e-04
5.541855973425e-04
6.771406016496e-04
5.185055617143e-04
2.565916003583e-04
3.358426263350e-04
1.654267237843e-04
2.195587793392e-04
1.948064560472e-04
5.668209511317e-04
9.024478657275e-04
2.656438147348e-04
7.662341416689e-04
4.141061097714e-04
6.566720836641e-04
1.877799869201e-04
8.084989395093e-04
1.994569434083e-04
3.140464818660e-04
6.820386484981e-04
4.908002713549e-04
7.628181862507e-04
3.758479425673e-04
6.979283655874e-04
7.957911377227e-04
6.571731431381e-04
8.029731230695e-04
7.270515574910e-04
7.476451225947e-04
2.191637260577e-04
7.397348748796e-04
6.976508043859e-04
5.085012302089e-04
3.119003519742e-04
8.251246623771e-04
2.569217320374e-04
2.989728286296e-04
7.328562567959e-04
1.824812964156e-04
5.242757088580e-04
7.013386659934e-04
7.908799406318e-04
8.131260850100e-04
6.875825611049e-04
7.527048348784e-04
4.392290927810e-04
7.101308226447e-04
3.576610988848e-04
7.839173444398e-04
4.037880571281e-04
4.232159837033e-04
5.029022043263e-04
4.507734252293e-04
5.870500808989e-04
4.752244134070e-04
5.026363052125e-04
2.249310114461e-04
4.776453301646e-04
7.733738486002e-04
7.976476035845e-04
6.945548351068e-04
7.772416007150e-04
4.852334699188e-04
7.428006378953e-04
4.970035832582e-04
7.593068717160e-04
7.224411528600e-04
7.227149131648e-04
6.309607774765e-04
4.584456414079e-04
7.531944029664e-04
6.034972236900e-04
2.308119231500e-04
2.624460620044e-04
3.872761120802e-04
5.489843774695e-04
7.797820896700e-04
7.023632392718e-04
4.641088760791e-04
6.218312804433e-04
7.219008359154e-04
7.573917115974e-04
7.785266204009e-04
6.280166874005e-04
7.383877363914e-04
5.278638301658e-04
7.262918204668e-04
5.188928070716e-04
7.977154867570e-04
8.063595481927e-04
5.860927408408e-04
2.315643799225e-04
7.386133228481e-04
5.676947967437e-04
4.449348027813e-04
6.172626666964e-04
7.179827493323e-04
2.370266014843e-04
5.414414582278e-04
6.328258620691e-04
7.852987061870e-04
6.515827953541e-04
7.191722898294e-04
6.137788463093e-04
5.757943947390e-04
6.225247935544e-04
7.525361268811e-04
7.265450907645e-04
6.730854564585e-04
8.087327558910e-04
5.947165434318e-04
3.757083337357e-04
7.690299236002e-04
8.027797653313e-04
5.132285230033e-04
5.378259550272e-04
4.198490164914e-04
6.932498007595e-04
4.196989786401e-04
6.013383056530e-04
4.244065472614e-04
7.076412824923e-04
8.082825049946e-04
4.390606027736e-04
1.483230989868e-04
8.029617023960e-04
4.435164002791e-04
5.102475381477e-04
7.829133683486e-04
6.777367698023e-04
7.065388141309e-04
4.506750626244e-04
1.167461404750e-04
8.120451166423e-04
5.678324770761e-04
6.713655535843e-04
7.707853918245e-04
7.492364537136e-05
7.006400612350e-04
3.174082064534e-04
6.321144681099e-04
5.639974680990e-04
4.332125152761e-04
7.650774128591e-04
5.816219672421e-04
3.891223975006e-04
5.975818898240e-04
1.224806412890e-04
6.853035704159e-04
7.134125102004e-04
8.179492543020e-04
7.297421601193e-04
3.065079168190e-04
7.004003726196e-04
8.165253916176e-04
8.479924542833e-04
7.386332535642e-04
4.696607101220e-04
6.412724926972e-04
7.730297312435e-04
5.224557452220e-04
6.991686312028e-04
6.522881639181e-04
7.454810025326e-04
7.319099201394e-04
4.592718609033e-04
4.589748948830e-04
6.632348156822e-04
6.550643866417e-04
5.839389106664e-04
6.520225668259e-04
5.568349206801e-04
7.827592798598e-04
4.641682869918e-04
9.023985271437e-04
5.323389960366e-04
5.433977192185e-04
5.581483784776e-04
2.876533767836e-04
4.987925639303e-04
6.113280308229e-04
5.734936793022e-04
6.486149626944e-04
6.664011184541e-04
6.953526663877e-04
1.412062264109e-04
4.675204502198e-04
4.485143747990e-04
6.274607649306e-04
6.578443530004e-04
7.694390836844e-04
2.018827599834e-04
2.118548485698e-04
5.434196226545e-04
4.731655300953e-04
4.306957946138e-04
4.543511483622e-04
6.528939094235e-04
2.067591147696e-04
5.327937831684e-04
7.010212531472e-04
2.056531891882e-04
8.439841012356e-04
7.711259233898e-04
5.127813030370e-04
7.142204993727e-04
8.010879403205e-05
6.760026335023e-04
5.731440943210e-04
7.848797575394e-05
7.668831780950e-04
1.937244266693e-04
6.327922999710e-04
5.785286832994e-04
4.968174943866e-04
5.956127873224e-04
7.880861604784e-04
6.409960854337e-04
5.623311144195e-04
5.487641104452e-04
6.109272857415e-05
1.629874435700e-04
7.482510755206e-04
6.040877386252e-04
7.640917445135e-04
3.123204989809e-04
7.273523556962e-04
7.747935678475e-04
4.649937047846e-04
7.426717535746e-04
7.200303897050e-04
6.303284010483e-04
5.129756421741e-04
5.441585730997e-04
8.113189037915e-04
5.503878304791e-04
5.924281748206e-04
5.531250535128e-04
6.865936238777e-04
5.186424646122e-04
3.204813496190e-04
5.606647508770e-04
3.450779890532e-04
6.470302402465e-04
3.505252796099e-04
6.277520247305e-04
7.587948185469e-04
7.268103064184e-04
4.888355696636e-04
6.236801479114e-04
7.339558663339e-04
7.397456106695e-04
1.647892676569e-04
6.415300113061e-04
8.022742046257e-04
3.412132358055e-04
5.581165807734e-04
8.708025055710e-05
7.535189856760e-04
3.010719485934e-04
5.274804108231e-04
6.673026496075e-04
6.282397646401e-04
5.981992314315e-04
5.868815627898e-04
3.840091498006e-04
4.074033715262e-04
7.595591585227e-04
6.255621355899e-04
5.413215478798e-04
6.709724982699e-04
5.163063894937e-04
3.315774455480e-04
3.763959762493e-04
5.615934434708e-04
4.817973037771e-04
7.326130562770e-04
4.941499276580e-04
8.205042127968e-04
7.452468947420e-04
5.472972600878e-04
8.312900741524e-04
3.699819044739e-04
8.018291199323e-04
5.922723470957e-04
6.492908331354e-04
7.668482132430e-04
3.896525471501e-04
6.172543904820e-04
5.220226255599e-04
6.028779115149e-04
3.408590409728e-04
6.699987248021e-04
4.909242862164e-04
5.778210378881e-04
5.978296419795e-04
8.229029560999e-05
5.981137410256e-04
1.283223021349e-04
1.425604046919e-04
5.519635169088e-04
7.343432326654e-04
6.172079870032e-04
3.390874049380e-04
8.835512891396e-04
3.541794485888e-05
3.613399971481e-04
5.544855267789e-04
5.326254913468e-04
4.424845602747e-04
3.782682788717e-04
5.798739096979e-04
6.167777849602e-04
6.437007506706e-04
7.590632464972e-04
1.759096795290e-04
5.070291229362e-04
5.467926510370e-04
2.917605163705e-04
4.894986857120e-04
6.227812367473e-04
6.771752748072e-04
1.001730422140e-04
6.527003657202e-05
2.035166912421e-04
5.524955955532e-04
4.141708406182e-04
3.646770521929e-04
3.255364608925e-04
5.717928128404e-04
6.564800500114e-04
5.666644769925e-04
4.085506308660e-04
6.465993337185e-04
5.417387641993e-04
7.125425157821e-04
5.723661868930e-04
5.777202621077e-04
2.916076193924e-04
4.336480661839e-04
5.858412025591e-04
6.379366452071e-04
5.991263956497e-04
3.166301193058e-04
5.916947495787e-04
3.585996022864e-04
1.686121238923e-04
8.065430386563e-04
1.781249146415e-04
3.724154870578e-04
5.819798147523e-04
3.300189918571e-04
5.928518961627e-04
2.717893358977e-04
5.034514971512e-04
5.975048584584e-04
5.161248570229e-04
5.386329409282e-04
8.667360441849e-05
7.766355700003e-04
4.278027150325e-04
7.709884658024e-04
6.554981013868e-04
6.113729652278e-04
6.169416889889e-04
3.837801442347e-04
1.206709874370e-04
7.269670928316e-05
6.307319205139e-04
7.666183021714e-04
3.527221907689e-04
6.608281624570e-04
3.135411494528e-04
6.715213762121e-04
8.631320342243e-04
2.443176703526e-05
8.829965077119e-04
8.852121263970e-04
5.187863560737e-04
4.219301114264e-04
6.361517130024e-04
3.946797178832e-04
1.259295258068e-04
6.663094765465e-05
8.124043100395e-04
6.435964837156e-04
4.857059802390e-04
9.024611897643e-04
2.289087475018e-04
9.032106261994e-04
6.378439507150e-04
4.156051056860e-04
6.056962681492e-04
3.904754317435e-04
1.913315701783e-04
3.651077128310e-04
6.756031953244e-04
7.724144175276e-04
3.966058680347e-04
6.856021964007e-04
0.0
4.025686827041e-04
7.139120631654e-04
3.570731400853e-04
3.273347299656e-04
6.111873319657e-04
1.714241601602e-04
2.420040212522e-04
2.712090176002e-04
3.127039070016e-04
5.608332313648e-04
5.328849272093e-04
6.902231196026e-04
8.080955017943e-04
2.842556977963e-04
6.821682045895e-04
8.109606697113e-04
3.645861892778e-04
1.258230046435e-04
3.462855414954e-04
5.351169772372e-04
6.908562819822e-04
5.298709099370e-04
1.475829349837e-04
6.052995487488e-04
2.176340386909e-04
5.379426478048e-04
5.747509196573e-04
6.255223732288e-04
6.198429424376e-04
3.190834650638e-04
1.430237184057e-04
6.204770996910e-04
2.385014860191e-04
5.727538746632e-05
8.088933360730e-04
7.702342677557e-04
3.537830069708e-05
6.503365910815e-04
2.479462791813e-04
2.600158871832e-04
7.304280687047e-04
6.303423890784e-04
7.052277971026e-04
4.085225165101e-04
4.822303009211e-04
8.428341203802e-04
2.144184038726e-04
7.491156234449e-04
5.624077246742e-04
1.620147722767e-04
6.703416370318e-04
4.275751542475e-04
7.844671194514e-05
3.593652216936e-04
6.605802268349e-04
6.829403826903e-04
1.683856497506e-04
5.389059366488e-04
7.114080209456e-04
7.412554945830e-04
3.386366915786e-04
2.659836531276e-04
5.773807037095e-04
6.106537074396e-04
7.794080869892e-05
8.647472179011e-04
8.429320017221e-04
5.419416684598e-04
8.464641737961e-04
8.449768812639e-04
4.218473016108e-04
4.026312649594e-04
8.662430778611e-04
0.0
2.463689065015e-04
5.423185032493e-04
3.455780040321e-04
3.534199359639e-04
1.932563100895e-04
2.285242578868e-04
5.533910755366e-04
3.894757547290e-04
2.855356333337e-04
7.152732176559e-04
9.025430170279e-04
9.028555141478e-04
4.158729496666e-04
4.991986293731e-04
5.007569812017e-05
1.549723110472e-04
1.733686555641e-04
1.773311158401e-04
6.057473022357e-04
3.472267394595e-04
3.840401147294e-04
1.047743844350e-04
7.694785082956e-04
3.779515105815e-04
8.054340909103e-04
7.382880291593e-04
9.042222901304e-04
9.037391284983e-04
5.542239624201e-04
3.965200569982e-04
2.395169663989e-04
4.095473271816e-04
8.846617183911e-04
1.091075619098e-04
1.309117937249e-04
7.757007018757e-04
5.216493301951e-04
8.114985139276e-04
7.149555952708e-04
7.808260194802e-04
7.476070933347e-04
5.490969887376e-04
3.014610573917e-04
2.949948221418e-04
6.532450277148e-04
7.635848575454e-04
4.588641132707e-04
5.205058156000e-04
5.540928897098e-04
5.659168286544e-04
1.420511469143e-04
2.680728897049e-04
8.651629045309e-04
6.052440982456e-04
8.634119896889e-04
8.245717668539e-04
6.764662760295e-04
8.149161431282e-04
3.967880254959e-04
3.767005960415e-04
8.110139756078e-04
3.456957431071e-05
2.657950424331e-04
8.824542840959e-04
1.237061144379e-04
4.987214213507e-04
8.294168402688e-04
8.695215841110e-05
5.602562008274e-05
9.015334466947e-04
4.603425485764e-04
8.489922161072e-04
8.087138917439e-04
4.591008030381e-04
5.552241480747e-05
8.444214902365e-04
1.414135789209e-04
8.168961864666e-04
8.837090559571e-04
8.142426765288e-04
1.807958899793e-04
5.595583047635e-04
4.199792468794e-04
7.164591502921e-04
9.028817437699e-04
7.102313129860e-04
9.026811156520e-04
8.288145526137e-05
8.646233726606e-04
2.069739792553e-04
1.172764018555e-04
8.657097316282e-04
8.659008612292e-04
8.625184092857e-04
5.047279818662e-04
5.503926425959e-04
1.934303277458e-04
8.651050625011e-04
3.388354453695e-04
1.130064855855e-04
7.389517174799e-04
4.782630476822e-04
8.223389270151e-04
8.930658412704e-04
8.840898532866e-04
2.334843234610e-05
1.127894866393e-05
4.694771593736e-04
4.807281389759e-04
8.834165587509e-04
8.924916119185e-04
5.576594174246e-05
0.0
8.119181321880e-04
8.142322994912e-04
1.701766019211e-04
8.251842060796e-04
5.739886326733e-04
5.078648088346e-04
6.388823889726e-04
1.550243662730e-04
6.739268272391e-04
1.393043346543e-04
4.524792319836e-04
8.185153464905e-04
7.987444324357e-04
4.885491561285e-04
5.870976835179e-04
8.300271616539e-04
7.651236002798e-04
7.207118451451e-04
4.587797315069e-04
6.508513547530e-04
8.137396714987e-04
2.548267730587e-04
6.130172025363e-05
7.910594940571e-04
7.454571359396e-04
1.168423234533e-04
6.691954016891e-04
8.437645600948e-04
7.822748954745e-04
8.291678905268e-04
6.276953752614e-04
3.676099362061e-05
1.910008398258e-04
2.410902129174e-04
5.367277688070e-04
6.465619629802e-04
8.260192756098e-04
8.426510046720e-04
9.968867775761e-05
9.583122356830e-05
1.529254075451e-04
6.701562114990e-04
3.239280242567e-04
8.294279570789e-04
1.624109286017e-04
8.067702666274e-04
5.436640056567e-04
8.463726308532e-04
7.450121923899e-04
5.381792224530e-04
8.657268182902e-04
8.669176791877e-04
8.641188598614e-04
1.063408641689e-04
8.096899185402e-04
8.433515583067e-04
8.209426083778e-04
7.578403458605e-04
8.820824508574e-04
7.152183658321e-04
0.0
1.476863544574e-04
7.925042984467e-04
5.819610102914e-04
8.150003304523e-04
7.872814678585e-04
8.479070143319e-04
7.210640868520e-04
8.478357315245e-04
8.252654922692e-04
8.217924527872e-04
3.382456616413e-04
9.027319105777e-04
5.177284306761e-04
8.149780141979e-04
7.602985457212e-05
7.853489742656e-04
6.747924126657e-04
9.715604780866e-05
1.703587158512e-04
7.357623737217e-04
8.456239339759e-04
8.256639794594e-04
8.510870588008e-04
5.779321806582e-04
5.698562791087e-05
8.903845588755e-05
6.283407249005e-05
1.237561416650e-04
2.218122983909e-05
4.492152745151e-04
8.141022284179e-04
8.188324132241e-04
5.825183578263e-04
3.912991429550e-04
8.215127337613e-04
8.144364166830e-04
8.676175675571e-04
8.131246206762e-04
7.790398171077e-04
7.703091579876e-05
8.521732389425e-05
8.233105816384e-04
7.749586532649e-05
1.142956473345e-04
7.248547269918e-05
8.699680012182e-05
8.468513703275e-04
8.482556314247e-04
8.272172742286e-04
8.507165112290e-04
7.882896166762e-04
6.050128159723e-04
8.848716184046e-04
2.082654753157e-04
4.770383954530e-04
1.308584681555e-04
3.200133854228e-05
9.023297721724e-04
5.253788953819e-04
1.321285258096e-04
4.283053972209e-04
8.675733916602e-04
8.249021745336e-04
8.483302000566e-04
3.066024421432e-04
8.148429218192e-05
8.670431337253e-04
9.023411771345e-04
9.053923630978e-04
5.028745524170e-04
8.096342445588e-04
1.166784308444e-04
8.309395715063e-04
3.072536449822e-05
8.491015123023e-04
8.642157995562e-04
3.254999792424e-05
7.915264275696e-04
6.950269549080e-04
8.486200653356e-04
8.870888049155e-04
6.371787866159e-04
8.507580346646e-04
8.288142407060e-04
6.543265911992e-04
8.219609091343e-04
3.580802034436e-04
4.580585415293e-04
8.289670477400e-04
8.604442280761e-04
0.0
4.595975431843e-04
8.621910031762e-04
1.592545715764e-04
8.297085483634e-04
8.243206064822e-04
8.644406776067e-04
1.547160338610e-04
1.208044010377e-04
5.264955792143e-04
7.516483182700e-04
1.891156848520e-05
8.515789897366e-04
6.135789601255e-04
1.559509946477e-04
5.832862224491e-04
8.658507257749e-04
5.521778443811e-04
4.558321396471e-05
3.239427989419e-04
4.776913424967e-04
5.701251507252e-04
8.287479897685e-04
4.636624967177e-04
4.900391319366e-04
7.786229875005e-05
8.280550521141e-04
7.926388045417e-04
1.331660701839e-04
8.512291248288e-04
8.566440339274e-04
5.134667395409e-04
6.297245589001e-04
4.683583638001e-04
4.786896715519e-04
5.070171589005e-04
7.879088551411e-04
1.144990407912e-04
8.287518740281e-04
5.339553679767e-04
8.658836050112e-04
7.862007520820e-04
5.990262297868e-04
7.981889298720e-04
8.203027348467e-04
8.695097463781e-04
3.580066420134e-05
8.023135303917e-04
8.310675113497e-04
8.967195667714e-05
4.375219600786e-04
5.410315473195e-05
8.369220774202e-04
6.305415251340e-05
4.430271262516e-05
7.239823981334e-05
4.524076774984e-05
7.332208736462e-05
4.552088745807e-05
7.353162361801e-05
4.561866148901e-05
7.360441529362e-05
4.566530683141e-05
7.362306430756e-05
4.568842134645e-05
7.361539126620e-05
4.569883930221e-05
7.359415469538e-05
4.570183983172e-05
7.356608665189e-05
4.570051273717e-05
7.353577911461e-05
4.569729627414e-05
7.350774276507e-05
4.569490987834e-05
7.864272555732e-05
7.348786036321e-05
4.569501424605e-05
7.348174223121e-05
4.769811480479e-05
4.569869548350e-05
7.349226450390e-05
4.570416332516e-05
7.351844561679e-05
4.571505359638e-05
5.672624055879e-05
7.356092067837e-05
4.572209667244e-05
7.361102903735e-05
4.574258357666e-05
7.367627789918e-05
4.573502608572e-05
7.371702823309e-05
4.578862631170e-05
7.382057400570e-05
4.570247284829e-05
7.375312615063e-05
4.584447110701e-05
6.129827032504e-05
4.544791901607e-05
7.394831278350e-05
4.605842570788e-05
7.330895958388e-05
4.487307831855e-05
7.425620430535e-05
4.659858698195e-05
7.214958337334e-05
7.565474771358e-05
3.186566387583e-05
8.711826587208e-05
7.142110749846e-05
6.508878647798e-05
5.134220448096e-05
4.544511721514e-05
1.060630185137e-04
1.193878995555e-04
9.379526954330e-05
1.183500601834e-04
9.332045924007e-05
1.185317998829e-04
9.349115067675e-05
1.186860508083e-04
9.364153366354e-05
1.187801877588e-04
9.373896066041e-05
1.188280837711e-04
9.379241071714e-05
1.188436643472e-04
9.381398973907e-05
1.188374336410e-04
9.381409216621e-05
1.188168429135e-04
9.380020741011e-05
1.187880965260e-04
1.228548079313e-04
9.377872003291e-05
1.187586803619e-04
9.375742194130e-05
9.901683105838e-05
1.187415927965e-04
9.374860535478e-05
9.227381004680e-05
1.187409684146e-04
9.375731560614e-05
1.187659701010e-04
9.378590440150e-05
1.187938477424e-04
9.382044357158e-05
1.188690358019e-04
9.387780799165e-05
1.188870123689e-04
1.074932437662e-04
9.390977703856e-05
1.190453421308e-04
9.400077709541e-05
1.189147147776e-04
1.194211077150e-04
9.397518878269e-05
1.186424205607e-04
9.426322750682e-05
1.201308702069e-04
9.387033602125e-05
1.166147161399e-04
1.213211340380e-04
9.462008612956e-05
9.158574424152e-05
7.938697313666e-05
1.147193361149e-04
1.329473715565e-04
1.046659526420e-04
1.170726526350e-04
9.100135238535e-05
1.548793020190e-04
1.398583083142e-04
1.646971575123e-04
1.401603119576e-04
1.651896890035e-04
1.402343217064e-04
1.653056434901e-04
1.403364600330e-04
1.654203101123e-04
1.404393468954e-04
1.655145835356e-04
1.405180074321e-04
1.655755201380e-04
1.405643214736e-04
1.656033941395e-04
1.405832710722e-04
1.656055046448e-04
1.405810214083e-04
1.655880763316e-04
1.676429061094e-04
1.405643649430e-04
1.655578570877e-04
1.405379441217e-04
1.389227043048e-04
1.655221024453e-04
1.405113109071e-04
1.655020779017e-04
1.405117521784e-04
1.655088119870e-04
1.443319784934e-04
1.405345488367e-04
1.655542038496e-04
1.405971232595e-04
1.655927246128e-04
1.406254501371e-04
1.657030671808e-04
1.407331409774e-04
1.656809761560e-04
1.406767154371e-04
1.659556361556e-04
1.408854959846e-04
1.531712737841e-04
1.405901903800e-04
1.655014109628e-04
1.413440324429e-04
1.667860907958e-04
1.389069220690e-04
1.643091316219e-04
1.684969091712e-04
1.248521962396e-04
1.692850054625e-04
1.492953996098e-04
1.563356513805e-04
1.438751425223e-04
1.370181524225e-04
1.976333862393e-04
2.116731572351e-04
1.862186243852e-04
2.105135771650e-04
1.854721293060e-04
2.104577930494e-04
1.854427323826e-04
2.105321862864e-04
1.855223010247e-04
2.106306724529e-04
1.856205509068e-04
2.107115213645e-04
1.856981488192e-04
2.107539297177e-04
1.857352136190e-04
2.107681397284e-04
1.857479377639e-04
2.107589556243e-04
2.131686355800e-04
1.857434794709e-04
2.107344521858e-04
1.857268407030e-04
1.908372584021e-04
2.106931599542e-04
1.845702532177e-04
1.856890788764e-04
2.106302587185e-04
1.856378609051e-04
2.106380971703e-04
1.856566304066e-04
2.106431631274e-04
1.857081639528e-04
2.108179316691e-04
1.980009761142e-04
1.858373073386e-04
2.106922178983e-04
1.857973773904e-04
2.111624469953e-04
2.104376803483e-04
1.860216229082e-04
2.119249337184e-04
1.856176602761e-04
2.088598079787e-04
2.140888372367e-04
1.863106585679e-04
1.836826105287e-04
1.703583003672e-04
2.001760913214e-04
2.196716975602e-04
1.962435353328e-04
2.084613605653e-04
1.832797690290e-04
2.467242924841e-04
2.318971739121e-04
2.569604721247e-04
2.323582238135e-04
2.573660128964e-04
2.323481834884e-04
2.573777332793e-04
2.323926280916e-04
2.574504022643e-04
2.324746838915e-04
2.575468697238e-04
2.325693421246e-04
2.576322522147e-04
2.326122074981e-04
2.576553806804e-04
2.326151529556e-04
2.576522502379e-04
2.588705843304e-04
2.326142016961e-04
2.576375128508e-04
2.306571559578e-04
2.326278861306e-04
2.576262050767e-04
2.326180735072e-04
2.575817555027e-04
2.325405437276e-04
2.371444383033e-04
2.574556691956e-04
2.324538276695e-04
2.574825913594e-04
2.325861304384e-04
2.575227655495e-04
2.326671156115e-04
2.578962146880e-04
2.329911614336e-04
2.574939041830e-04
2.326152256377e-04
2.440244319060e-04
2.332069693135e-04
2.585665773561e-04
2.307697375987e-04
2.562555830984e-04
2.601089679822e-04
2.162782946957e-04
2.577307751470e-04
2.370799216689e-04
2.479843099940e-04
2.355777807444e-04
2.300605477233e-04
2.893562250950e-04
3.035610020743e-04
2.781398742463e-04
3.024796248070e-04
2.774000520103e-04
3.024086532762e-04
2.773792771481e-04
3.024572659554e-04
2.774284649834e-04
3.025480157212e-04
2.775301685476e-04
3.026855389739e-04
2.776610420386e-04
3.027150412041e-04
2.776797469847e-04
3.026647938250e-04
3.057519497818e-04
2.776123204034e-04
3.026644902344e-04
2.828915978971e-04
2.776728359796e-04
3.027151159073e-04
2.761654015987e-04
2.777471929607e-04
3.027239513287e-04
2.777229964406e-04
3.026125050717e-04
2.775893337710e-04
3.022358251205e-04
2.911528140928e-04
2.773787975288e-04
3.027660250717e-04
2.778333905826e-04
3.023471162595e-04
3.041522434489e-04
2.778236615926e-04
3.009345726581e-04
2.786762187220e-04
3.055181121834e-04
2.755391628935e-04
2.628456973792e-04
2.894887970220e-04
3.094946284243e-04
2.879404696216e-04
3.001784249515e-04
2.747666986158e-04
3.387590509463e-04
3.239558570236e-04
3.490589559299e-04
3.242489538052e-04
3.492778332294e-04
3.244009492226e-04
3.494137940559e-04
3.243450263155e-04
3.494285644229e-04
3.244491555650e-04
3.495528953540e-04
3.245729995313e-04
3.497476816412e-04
3.247790095566e-04
3.498156307860e-04
3.524344535621e-04
3.244756318896e-04
3.234927653718e-04
3.495180048904e-04
3.245640602665e-04
3.496724803304e-04
3.248419696225e-04
3.498816701128e-04
3.248366754099e-04
3.293404958308e-04
3.498297634467e-04
3.247755033259e-04
3.497132450553e-04
3.245820555673e-04
3.488372345038e-04
3.242701434091e-04
3.503144451308e-04
3.256426464242e-04
3.234521601643e-04
3.489428141026e-04
3.382079507074e-04
3.528736187585e-04
3.091709295256e-04
3.479959789487e-04
3.272882465017e-04
3.399401601187e-04
3.274902301269e-04
3.210995550700e-04
3.823738146998e-04
3.954225263856e-04
3.697566624949e-04
3.939322582241e-04
3.688694981486e-04
3.944097865815e-04
3.693773633782e-04
3.940314017453e-04
3.688791821506e-04
3.943498072948e-04
3.693104022334e-04
3.943240387101e-04
3.692423004483e-04
3.983221388088e-04
3.950761893213e-04
3.697532978986e-04
3.757283910689e-04
3.940431169502e-04
3.690941919872e-04
3.688922250286e-04
3.943316706399e-04
3.695967294386e-04
3.950039595106e-04
3.699171745464e-04
3.947738597822e-04
3.836764221872e-04
3.696289525295e-04
3.946866788540e-04
3.951305091693e-04
3.698050963930e-04
3.917401968718e-04
3.700257270424e-04
3.984140208452e-04
3.678384251997e-04
3.553107824800e-04
3.787353646523e-04
4.015883610286e-04
3.798602337846e-04
3.917784855672e-04
3.672570110000e-04
4.343021193814e-04
4.144431140943e-04
4.400238155636e-04
4.160910928413e-04
4.407194433539e-04
4.169792812266e-04
4.421275663541e-04
4.155655137509e-04
4.404257626118e-04
4.163557751546e-04
4.417490498800e-04
4.164243392235e-04
4.451512402664e-04
4.411469643058e-04
4.182864247912e-04
4.154450539294e-04
4.421592365309e-04
4.167200733669e-04
4.407251200889e-04
4.170139093125e-04
4.420435047998e-04
4.169234513539e-04
4.225836555007e-04
4.425201970351e-04
4.165861177248e-04
4.414159334299e-04
4.159924669279e-04
4.163537947849e-04
4.414971076271e-04
4.437645096039e-04
4.307709466435e-04
4.017743348262e-04
4.348445271150e-04
4.227645607119e-04
4.331703470473e-04
4.187044942453e-04
4.146339968586e-04

SCALARS element_materi_plasti_phimob float
LOOKUP_TABLE default
1.124992835355e+01
1.075776015425e+01
2.014363772140e+01
2.010630741416e+01
1.768276884821e+01
-2.013700485704e+00
1.768901698807e+01
1.056484053249e+01
1.770820730026e+01
2.008408797514e+01
1.945110311125e+01
8.229945181559e+00
2.045371561800e+01
1.810192207234e+01
2.047006651596e+01
2.019992182335e+01
1.754885829222e+01
-2.705995254715e+00
8.584884669052e+00
9.099842267291e+00
2.008156325028e+01
1.256723920972e+01
1.357960213470e+01
2.031535187393e+01
1.848969264139e+01
1.966830905874e+01
1.693687323062e+01
2.022578578384e+01
1.849067590487e+01
2.041735407940e+01
3.596997959269e+00
-2.074092602323e+01
2.016039561278e+01
2.015648621457e+01
2.041110869540e+01
2.057665857948e+01
2.053233496207e+01
2.030237384827e+01
1.708933989332e+01
1.712554843183e+01
1.496150459632e+01
2.039846367517e+01
5.430878804620e+00
1.694428829042e+01
1.998432856105e+01
5.415909310650e+00
-3.393684537780e+00
1.999680818639e+01
-2.104594891762e+01
1.785800886041e+01
1.434156734656e+01
1.168203107044e+01
1.007321818029e+01
1.422937326257e+01
2.015394793600e+01
1.496509140152e+01
1.221604829873e+01
2.017757683523e+01
3.386582284944e+00
2.019421639431e+01
-2.600428988524e+01
2.005767745206e+01
1.448816949332e+01
8.415378368189e+00
2.045331007303e+01
1.344049272257e+01
-2.846494597443e+01
2.014186434326e+01
5.068933012172e+00
2.018650672764e+01
1.978786011605e+01
2.033398614838e+01
2.006899478829e+01
-1.544397660987e+01
1.541686008358e+01
2.011071615278e+01
2.015620203643e+01
-1.072107894051e+00
3.458478269927e+00
-1.461404362547e+00
5.223053012811e+00
1.751821574199e+01
1.277715465849e+01
1.130086973372e+01
1.799484165191e+01
1.799347661418e+01
1.989912047073e+01
2.010118380966e+01
1.944590084058e+01
1.764634942718e+01
-2.113587056600e+01
1.753017820924e+01
1.937554588237e+01
1.930660003901e+01
2.032305855793e+01
2.036236326556e+01
1.749164970361e+01
2.054670246912e+01
1.846679544325e+01
1.390831946223e+01
1.738373423749e+01
2.050450892489e+01
1.947146134302e+01
2.006226936602e+01
1.308392982837e+01
-4.767877983031e+00
2.035281073115e+01
1.959271140041e+01
-2.139201908295e+01
2.039255611023e+01
1.927595787204e+01
-2.635161560724e+01
1.615489983620e+01
1.683637025925e+01
1.703994924121e+01
1.287781298782e+01
1.452130543643e+01
2.049206804310e+01
1.830750086388e+01
1.376954658332e+01
4.088864831386e+00
1.748663129948e+01
1.959986536488e+01
1.382147149851e+01
-1.020210482410e+01
1.601329392553e+01
1.698070048471e+01
1.548955614234e+01
2.020483245922e+01
-1.988188537391e+00
1.963775360853e+01
2.011390795057e+01
1.617712194670e+01
1.553640544742e+01
2.045599906722e+01
2.045646462645e+01
1.990881037425e+01
1.661591068113e+01
2.049174791461e+01
1.578620440684e+01
2.014729807502e+01
2.018596699513e+01
1.808134736736e+01
1.894846632180e+01
1.578275658305e+01
1.493700667807e+01
1.693675536273e+01
1.462215074139e+01
1.749103727879e+01
1.621790328096e+01
-2.201618849198e+01
1.794333577988e+01
4.298245263195e+00
1.645668498474e+01
2.039052072653e+01
1.300912109309e+01
2.000605856512e+01
7.613287262414e+00
1.946224550379e+01
1.756821316204e+01
1.573518161328e+01
2.024163358648e+01
3.937884423313e+00
2.034511413845e+01
1.739451785939e+01
2.054067665697e+01
1.753251346855e+01
1.381418440475e+01
1.641643983949e+01
1.957039092370e+01
7.849433195866e+00
1.581167409617e+01
1.914407963835e+01
1.753063913238e+01
1.511881253520e+01
1.598673826369e+01
1.968157759886e+01
1.768275450453e+01
2.023100068291e+01
2.018541052043e+01
1.229857622227e+01
1.767639912512e+01
2.016561131387e+01
1.537494001025e+01
1.080521048045e+01
1.713190901144e+01
1.574135029662e+01
2.016247590572e+01
1.930937337375e+01
2.030214027215e+01
2.652393080634e+00
1.550686385425e+01
1.944403929870e+01
-6.433582777195e+01
1.538963221745e+01
2.005442056954e+01
-4.383251595815e+00
2.009391742667e+01
1.886364768103e+01
1.755691303209e+01
2.006891737043e+01
1.793875911666e+01
1.831871792003e+01
2.036043067186e+01
1.517109895991e+01
1.724833544968e+01
1.764336482342e+01
1.905793177175e+01
1.770082816731e+01
1.711268809478e+01
1.907688677339e+01
1.954507356753e+01
-2.483751399631e+01
1.231684350272e+01
1.387795838565e+01
1.694759191281e+01
1.947609857986e+01
6.271719232359e+00
1.999081804663e+01
1.746679826185e+01
1.530436265984e+01
1.991884296487e+01
-1.686912677016e+01
1.920724233335e+01
-2.347624653997e+01
-4.107334873988e+00
2.504321535214e+00
1.340072780908e+01
1.937621080473e+01
1.248267026342e+01
7.930583018786e+00
9.236930170666e+00
6.578420714432e+00
2.011529362701e+01
1.738155226874e+01
2.047313200475e+01
-5.915987370524e+01
1.098877557584e+01
1.629540982671e+01
1.474340525391e+01
2.000558300531e+01
2.053278963761e+01
1.916632476190e+01
1.396585606950e+01
2.010968045262e+01
1.979469756149e+01
1.729034248280e+01
1.901517529704e+01
2.013061513810e+01
1.646722718935e+01
9.653451403100e+00
1.818816667835e+01
2.032918888012e+01
1.726199328649e+01
1.820717140275e+01
1.804310309322e+01
2.723671680659e+00
1.770806822632e+01
1.361069563246e+01
1.039029666775e+01
5.314312423178e+00
1.938297083240e+01
1.792759117522e+01
1.454008423558e+01
1.953878992533e+01
1.930434321038e+01
1.759908395734e+01
2.040285327373e+01
1.846449874945e+01
1.788009839194e+01
1.661988815804e+01
1.863759305157e+01
1.276674745672e+01
1.751786940941e+01
1.706333467705e+01
1.552912052764e+01
1.916988249629e+01
-6.307359183047e+01
1.798134030364e+01
1.473592462988e+01
1.117495431690e+01
1.298302582448e+01
1.838817209857e+01
-5.642483634406e+00
1.461405676937e+01
1.886258271670e+01
1.793032424327e+01
1.799091926368e+01
3.875906200060e+00
1.557649457958e+01
1.479502279051e+01
1.325512352402e+01
1.901512061691e+01
1.464348070289e+01
1.672473131073e+01
1.606050767637e+01
6.538257134706e+00
1.697412001315e+01
3.411404216614e+00
2.031617032194e+01
2.033069266626e+01
1.754900140490e+01
1.324648116989e+01
1.030956640488e+01
1.810722479385e+01
1.218957791121e+01
1.490103208028e+01
1.727980335956e+01
2.016865641814e+01
1.500085112435e+01
1.902966354453e+01
6.182023805685e+00
2.051916772156e+01
1.171079774131e+01
1.755956776772e+01
9.057099450008e+00
1.947512263397e+01
1.689033682534e+01
1.556059806685e+01
1.764170907866e+01
2.034701347308e+01
1.585541491810e+01
1.893179447427e+01
6.840321360551e+00
1.878542541105e+01
1.992711273008e+01
1.095442666858e+01
1.861467699435e+01
2.036271482374e+01
2.010348882553e+01
2.033631461026e+01
1.854889332814e+01
1.927330483267e+01
7.813358908106e+00
1.704991710397e+01
1.787980020375e+01
1.814202259533e+01
1.693344784801e+01
2.038198199828e+01
1.829663187588e+01
1.746321715669e+01
1.627372222921e+01
1.080458972653e+01
1.674457934389e+01
1.201849421238e+01
1.754756382395e+01
1.542974071006e+01
1.527116108392e+01
1.934709135460e+01
1.215305137083e+01
1.733151156522e+01
1.912550506519e+01
1.917107087335e+01
2.040497227831e+01
1.591026548873e+01
1.485861438292e+01
1.716909365732e+01
1.089000966110e+01
1.083127460268e+01
1.960218034032e+01
1.784940725543e+01
1.474930723727e+01
1.667839495413e+01
2.049455459964e+01
2.033519508155e+01
1.960191815746e+01
1.920326866584e+01
1.896639928225e+01
1.517848857887e+01
1.358138258692e+01
1.500325390167e+01
1.756988990943e+01
1.931625386590e+01
1.828199164351e+01
1.963906720894e+01
1.484924261823e+01
1.657582916719e+01
1.759047814960e+01
1.569755759869e+01
2.031759492389e+01
2.032902978948e+01
2.009400496175e+01
1.931128909293e+01
1.954421090842e+01
9.467161262008e+00
1.606923640563e+01
1.056383459298e+01
1.524885592688e+01
1.749914737880e+01
1.856062568921e+01
2.045885380769e+01
1.957120273933e+01
1.818926242052e+01
1.835074240156e+01
1.202443183722e+01
-5.216248620577e+00
1.664573815877e+01
1.727682904470e+01
1.702395197398e+01
-1.257527238408e+01
1.802690376196e+01
9.346919005694e+00
1.231162719556e+01
2.046680783903e+01
1.932593281926e+01
1.748157569977e+01
3.481257136400e+00
1.691186725062e+01
1.670572671593e+01
1.838377222103e+01
2.035382441475e+01
1.705320809379e+01
1.810849739776e+01
1.833403537501e+01
1.951263252642e+01
1.948324106819e+01
2.034898912002e+01
2.036008601269e+01
2.034602006116e+01
2.034103148802e+01
1.857570245108e+01
1.950715266699e+01
1.972862906632e+01
1.566291315189e+01
1.515124431066e+01
1.791524903974e+01
1.963299290814e+01
2.037075603243e+01
1.966325057175e+01
1.900863957249e+01
1.965945029237e+01
1.909992834484e+01
1.692859620125e+01
1.523966953272e+01
8.961788189806e+00
2.016810509632e+01
1.514586681446e+01
2.003425936083e+01
1.796736845725e+01
1.451545476078e+01
2.038256464540e+01
1.308144190299e+01
2.036781735976e+01
2.017052160900e+01
1.808362070678e+01
-2.240491250802e+01
2.037719020482e+01
2.035919576322e+01
1.470459955333e+01
1.925572255044e+01
2.045495000425e+01
-5.804599906560e+01
1.614523891738e+01
1.832329795003e+01
1.782596834965e+01
1.784480092459e+01
9.865765943398e+00
2.039038648025e+01
1.689941713549e+01
3.135944856267e+00
2.053456560229e+01
-2.197991910181e+01
1.626113114800e+01
4.120212286990e+00
1.674382447809e+01
2.049999364381e+01
2.040822512540e+01
1.814602332979e+01
-4.264742888357e+00
-1.725130063373e+00
3.429178483859e+00
2.025854827073e+01
1.750058918353e+01
1.775128389985e+01
2.042557970765e+01
1.753129880041e+01
2.033265667429e+01
1.925736807099e+01
1.837215726459e+01
1.195325552965e+01
1.920480998161e+01
8.553152214054e+00
2.043755376811e+01
2.035031867023e+01
2.034739235151e+01
1.946264292558e+01
1.748862397392e+01
1.696569477366e+01
1.961510943169e+01
2.044746772494e+01
1.264085391391e+01
1.615858700478e+01
1.664876872535e+01
1.861513877070e+01
2.056828227377e+01
-5.469784433216e+00
2.045835716073e+01
1.608114516887e+01
2.037686892984e+01
1.972743934848e+01
-6.168946959993e+01
1.657267068145e+01
1.969041601015e+01
2.038587091489e+01
1.857301006878e+01
1.941923623623e+01
4.732910149555e+00
2.024473655842e+01
1.653535217449e+01
1.657144814551e+01
-2.098128852604e+01
2.039844547796e+01
1.158532480477e+01
2.015952218282e+01
1.813305332099e+01
1.487460354753e+01
1.610107694735e+01
1.834936844277e+01
2.043309365495e+01
1.785305934907e+01
1.983002452296e+01
1.783096671836e+01
1.940771956361e+01
1.658859110261e+01
1.959497521229e+01
1.756646931966e+01
1.908803750512e+01
1.949506773970e+01
1.756709031966e+01
1.809600360320e+01
1.321315119788e+01
1.753905957574e+01
1.927129965536e+01
1.877579735592e+01
2.051932085344e+01
1.979717082429e+01
1.395570093831e+01
2.045125728742e+01
2.039269509769e+01
1.735147788424e+01
-2.150610512727e+01
2.052943106998e+01
1.977408355975e+01
1.531874691930e+01
2.046976455423e+01
1.972343850136e+01
1.569276705129e+01
1.797864212973e+01
1.855120892155e+01
1.914260946988e+01
1.950220374951e+01
1.885890308218e+01
1.660857648499e+01
1.956629696227e+01
1.842580843860e+01
1.803224520083e+01
1.942696936466e+01
1.641777991888e+01
1.965454738644e+01
-6.135964511318e+01
1.391612881579e+01
1.595525895860e+01
1.855303407563e+01
1.761440678022e+01
1.973983259377e+01
1.842174738657e+01
1.516969004775e+01
2.047587056736e+01
1.832692952439e+01
1.874462018498e+01
1.809066073123e+01
1.851292781248e+01
-5.787148049761e+01
1.823794544060e+01
1.733431541700e+01
-5.845911402048e+01
1.844132305232e+01
1.995062764091e+01
1.970414460723e+01
1.922161046521e+01
1.938755983985e+01
1.720190581373e+01
1.694364184255e+01
2.015756633916e+01
1.783731910360e+01
-6.334619841485e+01
6.602666698114e+00
-2.193351098677e+01
1.449067898667e+01
1.968051413581e+01
1.970601702703e+01
2.019610257775e+01
1.563900155996e+01
1.963591197867e+01
2.023399717012e+01
8.778938878698e+00
1.730337212647e+01
1.570409431439e+01
2.058070552069e+01
2.047855978415e+01
1.802258273067e+01
1.869674777618e+01
1.932795940817e+01
2.027348183032e+01
8.506428987717e+00
2.018270430806e+01
-4.410287106519e+00
1.819959532781e+01
1.879667363212e+01
-2.106406058198e+01
1.760811136491e+01
1.980610646062e+01
-6.169071954314e+01
1.692022037531e+01
1.691783202266e+01
1.957966580204e+01
1.571625622548e+01
1.585965060604e+01
8.212471777166e+00
2.035424053647e+01
2.022028374347e+01
1.951930940373e+01
1.201680535007e+01
-1.316795191093e+00
1.667949467113e+01
1.696689408435e+01
1.698334052887e+01
-5.782486152017e+01
-2.132215870267e+01
-4.423876494264e+00
1.297207377635e+01
-2.050004337439e+01
1.839683505565e+01
-5.809399599409e+01
1.487163486629e+01
1.877188054280e+01
1.693694951481e+01
1.979491050452e+01
1.984899095532e+01
1.841224364130e+01
1.630910096168e+01
-4.508659322711e+00
2.033403617906e+01
2.032600734676e+01
1.813198303204e+01
1.696631904037e+01
1.638631908252e+01
2.032275915402e+01
1.409305040545e+01
1.691770628193e+01
1.691985459301e+01
1.634456007391e+01
2.034831421593e+01
2.030751294628e+01
-2.087568296322e+01
-5.756336307461e+01
2.942142644273e+00
1.883711784838e+01
2.041743261387e+01
-6.370367912318e+01
1.949283426657e+01
-5.767681224399e+01
1.964759180595e+01
-6.068403555409e+01
-6.086358362493e+01
1.956217732481e+01
2.036795741289e+01
1.874759696482e+01
1.699291530871e+01
-2.101575632005e+01
1.974156608146e+01
2.032479216760e+01
2.032388445790e+01
1.694710645296e+01
1.971933440705e+01
2.033618848736e+01
1.942971994053e+01
-5.089891857872e+00
-2.075418141913e+01
-2.149653776217e+01
1.724679369255e+01
2.058291409937e+01
2.010662422898e+01
-5.758473300993e+01
1.832516243692e+01
2.050026757351e+01
2.060251263058e+01
2.054243299969e+01
1.919603073347e+01
1.962908676547e+01
2.048451031028e+01
2.049082354269e+01
1.948823641100e+01
-6.492991003317e+01
1.695958490559e+01
1.697752769421e+01
-5.763456298224e+01
2.049314337865e+01
2.060100939278e+01
2.047637380469e+01
-6.125630733778e+01
-6.092338851356e+01
2.047782739160e+01
2.047914942767e+01
1.903788197593e+01
1.696391549043e+01
1.934226140123e+01
1.822108986935e+01
1.695302254653e+01
-6.254852340653e+01
-6.020559375912e+01
-6.170782830884e+01
-6.129523809459e+01
1.863187256812e+01
1.799451067736e+01
-5.777553549322e+01
1.967741127828e+01
-5.790520203383e+01
2.033862339544e+01
2.033034057835e+01
2.033281720998e+01
6.485554506476e+00
1.498722021246e+01
2.032484247586e+01
2.024710691060e+01
2.034296022675e+01
2.037888142183e+01
2.047127934786e+01
1.764001527947e+01
2.032350997367e+01
2.032943967309e+01
2.030239678507e+01
2.042095950765e+01
1.991444161394e+01
-5.788398347736e+01
1.786796200019e+01
-2.135228982619e+01
2.034987350564e+01
1.822364355448e+01
2.019424125051e+01
1.188057815168e+01
-5.311372671036e+00
2.032332162599e+01
1.837825749651e+01
1.690259231096e+01
2.019391901322e+01
1.985657182149e+01
1.681499209724e+01
2.002336275374e+01
1.970134804525e+01
1.992385554178e+01
2.001327615459e+01
1.654565907764e+01
1.626706460861e+01
1.732207596117e+01
1.975494881082e+01
2.025819978828e+01
2.009771367571e+01
1.258141941285e+01
1.983433685823e+01
1.958769163540e+01
1.781691303988e+01
1.988878827523e+01
1.984467565361e+01
1.987414305981e+01
1.973032751653e+01
1.956447202754e+01
2.035769667580e+01
1.952146460188e+01
2.008079088244e+01
2.039485411869e+01
1.984861119050e+01
1.911270833840e+01
1.993643268488e+01
1.221892854601e+01
1.155945211816e+01
-1.297521997868e+00
-2.137392364288e+01
1.972878987806e+01
2.029797874314e+01
-2.185853483187e+01
1.974036893101e+01
1.803573111038e+01
2.012729302160e+01
2.017618608282e+01
1.631660988062e+01
2.017787624597e+01
1.780419004349e+01
1.953609839018e+01
2.042072115499e+01
1.176027898599e+01
2.042319700580e+01
1.929373637440e+01
1.319919930062e+01
1.380944117775e+01
1.901981689242e+01
1.871179846260e+01
1.664771091170e+01
1.946074853762e+01
1.894601432548e+01
1.892307390292e+01
2.001872499424e+01
2.011003915530e+01
1.929690196552e+01
9.673852043184e+00
1.865218379665e+01
1.987912752595e+01
1.942818255631e+01
1.808621218076e+01
1.967786957545e+01
2.036555660327e+01
1.910635854906e+01
-2.170238922260e+00
-1.979645849638e+00
1.202193549016e+01
2.025952391993e+01
1.892107478534e+01
1.934083803396e+01
1.827832178126e+01
2.023629850279e+01
1.909023582775e+01
2.010557918714e+01
1.219188790495e+01
2.042052225467e+01
1.889817763903e+01
1.322674170738e+01
1.863740678410e+01
1.703285411068e+01
1.480397795000e+01
1.937062864063e+01
-5.684503545913e+01
-5.630445318259e+01
1.983706702791e+01
1.104404812681e+01
1.987256927340e+01
1.978057322348e+01
1.768687500880e+01
1.434030475311e+01
1.967276323506e+01
-6.579549227918e-01
1.741309472800e+01
2.027579287988e+01
8.893488151029e+00
1.852889974780e+01
1.804827742697e+01
8.448393684266e+00
2.031542059023e+01
1.921864141328e+01
1.108549741026e+01
1.978160012508e+01
1.978574913217e+01
1.254124509724e+01
1.295470442176e+01
1.290822274464e+01
2.002444565652e+01
1.924455648287e+01
1.978027422979e+01
1.967543536407e+01
1.995427903013e+01
1.996734867749e+01
1.015494061743e+01
2.003664334584e+01
1.922100180770e+01
1.922364415676e+01
1.892025278511e+01
1.939204748332e+01
1.799127443989e+01
1.955633631336e+01
1.840564845953e+01
1.907978428360e+01
1.649029431464e+01
1.696216535479e+01
1.907614203464e+01
1.893274307351e+01
1.378379918753e+01
2.855583356573e+00
1.907317468485e+01
1.384500331269e+01
2.037747149578e+01
1.925690901028e+01
2.013724184101e+01
2.037967610767e+01
1.806893034127e+01
1.258422836462e+01
5.566991119589e+00
1.998955220543e+01
1.875386757231e+01
-2.388902088938e+00
1.656980295250e+01
1.055560978960e+01
1.870665821172e+01
1.692634890291e+01
1.980066139374e+01
1.649553630163e+01
1.958884661858e+01
1.547490505954e+01
2.001700892656e+01
1.142415257830e+01
1.990697821516e+01
1.885410411216e+01
2.007570316754e+01
1.659601015510e+01
1.061086390545e+01
1.832198140048e+01
1.966294421106e+01
1.654470900670e+01
1.874957787660e+01
1.296291921766e+01
1.883406317297e+01
9.160518336025e+00
2.031485453554e+01
1.973919492300e+01
1.959953667743e+01
1.992929645343e+01
1.929880192390e+01
9.683566737089e+00
1.971035676435e+01
2.037594818069e+01
1.573152513793e+01
2.006269769547e+01
1.925737215168e+01
1.355149921263e+01
1.981418923835e+01
1.821665489672e+01
1.429024707765e+01
1.613903988196e+01
1.785297822852e+01
2.000581338779e+01
1.571409666782e+01
1.759704792171e+01
1.903473024824e+01
1.852847950318e+01
1.842859030005e+01
1.886059057469e+01
2.025207717601e+01
1.959391385792e+01
1.828600866492e+01
1.986914135878e+01
1.966106824233e+01
1.992570249989e+01
1.939408026424e+01
1.730400519745e+01
1.676899953039e+01
1.015455316297e+01
1.983354917219e+01
1.714420629545e+01
1.887242174512e+01
1.865619859878e+01
1.845279388917e+01
1.572261876150e+01
1.562097587708e+01
1.621446006326e+01
1.684357573549e+01
1.149666574989e+01
2.018002891353e+01
1.821579792522e+01
1.955450834146e+01
1.853069701579e+01
1.973135404432e+01
1.913974130524e+01
1.765470480813e+01
1.144748266008e+01
2.033262088647e+01
2.039522909335e+01
1.891150268779e+01
1.738080930256e+01
1.946732214987e+01
1.887626959338e+01
1.762223509409e+01
1.619082432181e+01
1.543446403503e+01
1.418270102680e+01
1.776210253056e+01
1.459451114443e+01
1.348311144116e+01
1.910162200526e+01
1.983436557595e+01
1.967619465230e+01
-5.776480182668e+01
1.833052123371e+01
1.830354616638e+01
1.783707782167e+01
1.865924113969e+01
1.873062766155e+01
1.600501247070e+01
1.815181660768e+01
1.943219344638e+01
1.601531844436e+01
1.600601151308e+00
7.919900362180e+00
1.500767672053e+01
1.644471048735e+01
1.857420832900e+01
1.847794544169e+01
1.003582577709e+01
8.028431925759e+00
1.836736730967e+01
1.454608150577e+01
2.011886987519e+01
1.954291845437e+01
1.842822582017e+01
1.961184258053e+01
1.979561132472e+01
1.810416644574e+01
1.924758099844e+01
1.190694677155e+01
1.838319082984e+01
1.707291065654e+01
1.402345022998e+01
8.411782426594e+00
1.720889828375e+01
1.825177591210e+01
1.853856160688e+01
1.525382904243e+01
1.897353389251e+01
1.830441915760e+01
1.855271575877e+01
1.635400339833e+01
1.964727744652e+01
1.903265155053e+01
1.827739157584e+01
2.025697320897e+01
1.336491037006e+01
2.036860314436e+01
1.878438467277e+01
1.992800807197e+01
1.854708450785e+01
1.310430276791e+01
1.860833827162e+01
1.969549613950e+01
1.899141746910e+01
1.519822651666e+01
1.877946946337e+01
1.724903195176e+01
1.012376914916e+01
2.009383308785e+01
7.830500799641e+00
2.013223979327e+01
1.981811060908e+01
1.980381836131e+01
1.847316723162e+01
1.948651553829e+01
1.854688910235e+01
1.884723927513e+01
1.985839019326e+01
2.003288509949e+01
1.918011412577e+01
1.980047085196e+01
1.209382279768e+01
1.931690637710e+01
2.019844394009e+01
2.037778220209e+01
1.844046050799e+01
1.846766240569e+01
1.822504368596e+01
1.874628074614e+01
1.994616677067e+01
2.003909432819e+01
5.556935587437e+00
1.441714110091e+01
1.844885912335e+01
1.829141358473e+01
1.728342996013e+01
1.998081066657e+01
1.975396276592e+01
1.981343542289e+01
1.618526869412e+01
1.941713672028e+01
1.993087821389e+01
1.989850564663e+01
1.913507050818e+01
1.868154910657e+01
1.812469177949e+01
1.932323579031e+01
1.975534708850e+01
1.935900792953e+01
1.918439275353e+01
2.026810575807e+01
2.001061581473e+01
2.019389959075e+01
1.959080333294e+01
1.588687742802e+01
1.986490697560e+01
1.906376387150e+01
1.352647370272e+01
1.848556049352e+01
1.908330470525e+01
1.918133501945e+01
1.414547011090e+01
1.818738292979e+01
1.946666734207e+01
1.698971683021e+01
1.891376139821e+01
1.877460714460e+01
1.739991029823e+01
-2.923432870233e+01
1.943867774436e+01
1.992757910311e+01
1.988276310259e+01
1.868467531261e+01
1.928953035244e+01
1.883176352725e+01
-7.158290692067e+00
1.978503640923e+01
1.910009177091e+01
1.733249843951e+01
2.002826722883e+01
1.379246140064e+01
2.010920451331e+01
2.031919211125e+01
1.961985130052e+01
1.935703008764e+01
1.955712632475e+01
2.030113992774e+01
2.719574560020e+00
1.898696020394e+01
1.995891707047e+01
1.949056124925e+01
1.935434206270e+01
1.833552908160e+01
1.916078044858e+01
6.456832001522e+00
1.964388954129e+01
1.431734994380e+01
7.723246917230e+00
1.940798634724e+01
1.992698578086e+01
1.244289902949e+01
1.809367891604e+01
1.914165311788e+01
1.904110912533e+01
1.401744079456e+01
1.458320171353e+01
8.485838742279e+00
1.265341443681e+01
1.099898807493e+01
1.904565852055e+01
2.031469527344e+01
1.084935704003e+01
2.032109765148e+01
1.727880463726e+01
1.894241514536e+01
1.075413686067e+01
2.036311143318e+01
1.067921965480e+01
1.580739918615e+01
1.968663302335e+01
1.876829612502e+01
1.988119858617e+01
1.519684356964e+01
1.924194234329e+01
2.012159494718e+01
1.899418364518e+01
1.988659139278e+01
1.944653810323e+01
1.957200064601e+01
1.116726285578e+01
2.025123902736e+01
1.928295273993e+01
1.810239594545e+01
1.298320336862e+01
2.016338456098e+01
1.395952468960e+01
1.517540018692e+01
1.981339369709e+01
9.096838019069e+00
1.789454209796e+01
1.984927283522e+01
1.982713525951e+01
1.994108599786e+01
1.971405884798e+01
1.960792238128e+01
1.742401075324e+01
1.940087843251e+01
1.451417779550e+01
1.984000684875e+01
1.567110338719e+01
1.609728441629e+01
1.836457269185e+01
1.657402120232e+01
1.860597748814e+01
1.739998952271e+01
1.863368221747e+01
1.306724572256e+01
1.825520813035e+01
1.975993750529e+01
1.988099654800e+01
2.010733657481e+01
2.001979511868e+01
1.878605843676e+01
1.957554491640e+01
1.857896723904e+01
2.029155308712e+01
1.945229078781e+01
1.941233820652e+01
1.955040425190e+01
1.787521360071e+01
1.967312798547e+01
1.854711414926e+01
1.288843736511e+01
1.402958832635e+01
1.568075032771e+01
1.807847889187e+01
2.033940607532e+01
1.927862652052e+01
1.798274145495e+01
1.873014853076e+01
1.998777436289e+01
1.964171358230e+01
1.980450286438e+01
1.874306964079e+01
2.016558079771e+01
1.875081601055e+01
1.999916771929e+01
1.786320716184e+01
1.986222315814e+01
1.992478491833e+01
1.927698537395e+01
1.321696793005e+01
1.969220700038e+01
1.837176966592e+01
1.756401588201e+01
1.939554258226e+01
2.009581804516e+01
1.311987505872e+01
1.895696509271e+01
1.878471035142e+01
2.033306335065e+01
1.894689479441e+01
1.955172068285e+01
1.861457373050e+01
1.825354474128e+01
1.873367085407e+01
1.996147680713e+01
2.018042669736e+01
1.910331921230e+01
1.994102528371e+01
1.843576946106e+01
1.670201942169e+01
1.981142632207e+01
1.989038400245e+01
1.791947356687e+01
1.813854969183e+01
1.740984945045e+01
1.924695770026e+01
1.613508209743e+01
1.879814926792e+01
1.615938104179e+01
1.974934111673e+01
2.002680743918e+01
1.783409917241e+01
5.964425031650e+00
1.991599527757e+01
1.655102067577e+01
1.895258562787e+01
1.992167999813e+01
1.909853144918e+01
2.011091442489e+01
1.721572389089e+01
2.302304603052e+00
2.043194529451e+01
1.831706643666e+01
1.938874356502e+01
1.980820317191e+01
-9.497584636711e+00
2.012132428470e+01
1.428542725528e+01
1.873472181420e+01
1.939380809436e+01
1.773893287249e+01
2.028617657536e+01
1.857990224886e+01
1.711109904244e+01
1.853808218979e+01
1.742233024619e+00
1.925278445275e+01
1.977802766685e+01
2.002473769657e+01
1.954595460166e+01
1.541921540237e+01
2.009113505318e+01
1.998446522396e+01
2.025297019942e+01
1.983466209367e+01
1.769225447076e+01
1.892022329487e+01
2.033967157148e+01
1.903048940782e+01
1.940250318835e+01
1.894801738784e+01
2.023444566164e+01
2.018774771954e+01
1.697746583180e+01
1.697388303394e+01
1.897844798808e+01
1.908881574907e+01
1.952057727067e+01
1.892470865797e+01
1.839330388708e+01
2.026463168365e+01
1.755706974613e+01
2.032940892108e+01
1.775151527831e+01
1.817094657939e+01
1.942457222197e+01
1.461895689381e+01
1.886910864162e+01
1.873112000271e+01
1.831058759467e+01
1.891033148690e+01
1.908992709724e+01
1.925416879660e+01
3.484989939589e+00
1.864705006185e+01
1.656602640336e+01
1.875375061028e+01
1.894777056111e+01
2.008045864323e+01
1.081188711679e+01
1.179145844291e+01
1.809676108188e+01
1.859723006670e+01
1.612917564579e+01
1.655704634551e+01
1.890347149745e+01
9.597363863612e+00
1.923169432482e+01
1.993911800372e+01
1.203377081607e+01
2.023016669547e+01
1.971845683454e+01
1.896727017314e+01
2.016805638998e+01
-4.320443991274e+00
1.987716798475e+01
1.833525990732e+01
-4.637233035124e+00
1.972209364836e+01
1.052806415177e+01
1.875253828132e+01
1.831974347545e+01
1.873822901308e+01
1.961167488195e+01
1.983474413423e+01
1.984195737227e+01
1.834602072801e+01
1.812139303320e+01
-4.754243163017e+01
8.694979617268e+00
1.967998489298e+01
1.847616600326e+01
1.981195628935e+01
1.402834909239e+01
1.948104974198e+01
1.980857017101e+01
1.683032943916e+01
1.967701002692e+01
2.015677129997e+01
1.892510270067e+01
1.908088738668e+01
1.925448932256e+01
1.991991684018e+01
1.933126746437e+01
1.852627975536e+01
1.855764862090e+01
2.003250078060e+01
1.795760268089e+01
1.602265874030e+01
1.918928968636e+01
1.632651702740e+01
1.892532704688e+01
1.643249506612e+01
1.873538692065e+01
1.998725942758e+01
1.990845038291e+01
1.769312922425e+01
1.870029438505e+01
2.022219356457e+01
2.021608703792e+01
5.597114929119e+00
1.891190248729e+01
2.038352742906e+01
1.407035910880e+01
1.934051894161e+01
-2.512449789625e+01
2.027127118833e+01
1.531711244023e+01
1.912848973111e+01
1.935365845653e+01
1.869397408586e+01
1.846660672716e+01
1.854329108103e+01
1.511040391226e+01
1.565031012547e+01
2.027521789092e+01
1.970704577166e+01
1.910239004901e+01
1.986959959829e+01
1.885258290704e+01
1.580124123406e+01
1.506723365670e+01
1.803769472105e+01
1.698370426719e+01
1.993018620718e+01
1.781325044809e+01
2.017882032497e+01
2.023469527997e+01
1.900465140049e+01
2.043512245523e+01
1.695237811545e+01
2.010756240687e+01
1.856308127067e+01
1.910776869087e+01
2.020359083983e+01
1.747695401894e+01
1.872516305994e+01
1.888640430482e+01
1.853272665191e+01
1.468122316176e+01
1.928463475324e+01
1.871941152476e+01
1.954588070116e+01
1.852783294520e+01
-1.572775360984e+01
1.894587073550e+01
-5.463693997122e+00
5.035037691664e+00
1.936495084326e+01
1.954247331373e+01
1.864632840802e+01
1.380614520836e+01
2.034679382547e+01
-4.814346128572e+01
1.450364177238e+01
1.928132520813e+01
1.913420795049e+01
1.635545317839e+01
1.744316874770e+01
1.945054658864e+01
1.874549067101e+01
1.927882639605e+01
1.970029542369e+01
8.101702924780e+00
1.900630778402e+01
1.930514633002e+01
1.506628181559e+01
1.719827040584e+01
1.864588487085e+01
1.999089423431e+01
-4.727096065693e+00
-1.961871765706e+01
1.070394798036e+01
1.928703942622e+01
1.763954650409e+01
1.703347072182e+01
1.605893107504e+01
1.949074284988e+01
1.897871176971e+01
1.943778500422e+01
1.757662356620e+01
1.891444950536e+01
1.787579035467e+01
1.963290615542e+01
1.942535402844e+01
1.947270692017e+01
1.199070120454e+01
1.799584889543e+01
1.955255791776e+01
1.885306382738e+01
1.848335863524e+01
1.299546245401e+01
1.960566616301e+01
1.696970404006e+01
3.069005397685e+00
2.006914038946e+01
9.435749490195e+00
1.740111741206e+01
1.872430172333e+01
1.372705600531e+01
1.954989353970e+01
1.427198195091e+01
1.742971302633e+01
1.959613719589e+01
1.895693167933e+01
1.919782231123e+01
-1.019670746019e+01
1.976646784639e+01
1.804306938085e+01
2.018222341029e+01
1.912546270107e+01
1.970937863293e+01
1.970434226547e+01
1.735647870528e+01
1.491844442726e+00
-1.000536846976e+01
1.979722933898e+01
2.024271202244e+01
1.681984995937e+01
1.908285029136e+01
1.319037649904e+01
1.909097030199e+01
2.052042671615e+01
-6.259036681121e+01
2.033667519762e+01
2.049528883119e+01
1.767601833791e+01
1.800557673640e+01
1.894121151594e+01
1.721364663938e+01
1.850408278616e+00
-3.551927978638e+01
1.995431198639e+01
1.881913434114e+01
1.700100722475e+01
2.038281609882e+01
1.229138781108e+01
2.042538977010e+01
1.881985221917e+01
1.790499699197e+01
1.875475800099e+01
1.770146680858e+01
5.553518271866e+00
1.725548911987e+01
1.912956930959e+01
2.029897926084e+01
1.776765839015e+01
1.924696539739e+01
-6.033533331638e+01
1.773668902246e+01
1.934421592708e+01
1.705262964072e+01
1.619887139773e+01
1.877570998936e+01
9.421202225297e+00
9.259717691251e+00
1.085415708693e+01
1.602555989610e+01
1.929179277408e+01
1.821385707652e+01
1.924688534649e+01
1.998006749325e+01
1.191817163277e+01
1.919375283388e+01
2.002952910081e+01
1.689407451107e+01
-6.379649234447e+00
1.408914444994e+01
1.914288530559e+01
1.925710693969e+01
1.915559755800e+01
4.374373766042e+00
1.956479585937e+01
7.755547698430e+00
1.830781486692e+01
1.945814959756e+01
1.895651324411e+01
1.873198960292e+01
1.591166482873e+01
2.900090520888e-02
1.971265114357e+01
9.404191781255e+00
-2.021654796304e+01
1.997438349945e+01
1.974925414534e+01
-2.266565304217e+01
1.979530944476e+01
1.330805430106e+01
1.417378601963e+01
1.954397410204e+01
1.897386236508e+01
1.939868718344e+01
1.773824183749e+01
1.696105183790e+01
2.044939994648e+01
1.194545705598e+01
2.004675444330e+01
1.842500471031e+01
8.091379094011e+00
1.910165094899e+01
1.795777142440e+01
-4.781792944410e+00
1.705747662852e+01
1.991361511963e+01
1.913233615408e+01
7.626529135456e+00
1.906765361279e+01
1.940511624008e+01
1.973103802311e+01
1.670182996132e+01
1.430573125262e+01
1.865374166659e+01
1.863364141922e+01
-5.197245700264e+00
2.020557228020e+01
2.017312731863e+01
1.799164111349e+01
2.009246448479e+01
2.018423086396e+01
1.805930998916e+01
1.772422634002e+01
2.042748299105e+01
-5.887039739042e+01
1.330868811222e+01
1.928581599565e+01
1.660380989893e+01
1.705248582443e+01
4.999097093782e+00
7.832396561681e+00
1.795685081263e+01
1.738186185631e+01
1.501076339090e+01
1.957447410593e+01
2.055311266586e+01
2.059902938163e+01
1.805550178477e+01
1.747994184376e+01
-2.831504141855e+01
-1.326276764878e+00
8.145104867477e+00
2.628337699137e+00
1.882013942128e+01
1.692626518834e+01
1.740785057036e+01
-4.999780478992e+00
1.980416848383e+01
1.732735623505e+01
1.994361004887e+01
1.957453891963e+01
2.032482441017e+01
2.056984283487e+01
1.802100729710e+01
1.762842291585e+01
9.278479745357e+00
1.797373515195e+01
2.049604547133e+01
-1.476325998855e+01
-6.867648093144e+00
2.011438236404e+01
1.752132106725e+01
1.997187660111e+01
1.940130672453e+01
1.996040103039e+01
1.957262929310e+01
1.808843877275e+01
1.543693202058e+01
1.555873453064e+01
1.900370645339e+01
1.982770185815e+01
1.692031278825e+01
1.752897282208e+01
1.797189584121e+01
1.813233857112e+01
5.742664117065e+00
1.461193285798e+01
2.016967917440e+01
1.855677771050e+01
2.038082986204e+01
1.997881702024e+01
1.910325176616e+01
1.995866970616e+01
1.762535514931e+01
1.714269563738e+01
2.042001841334e+01
-2.313061608899e+01
1.378477978689e+01
2.041745403023e+01
3.090267761901e+00
1.752561570175e+01
2.037787501538e+01
-7.285842367384e+00
-2.345133183181e+01
2.032292313349e+01
1.693941141191e+01
2.011582646357e+01
2.029314804366e+01
1.693369174297e+01
-2.531356839564e+01
2.016688250255e+01
5.019727018744e+00
2.001323214013e+01
2.049550999505e+01
1.998901996612e+01
1.032588663844e+01
1.796637743738e+01
1.784967136561e+01
1.957483291771e+01
2.044616156663e+01
1.936928183307e+01
2.050379576199e+01
-5.275548360750e+00
2.048583890457e+01
1.183977022130e+01
3.091117511900e+00
2.047952594626e+01
2.016021983385e+01
2.020090886097e+01
1.748493374976e+01
1.801941627961e+01
5.711882918065e+00
2.017301892043e+01
1.637198666724e+01
-1.820611704966e+00
1.972493067908e+01
1.693213821763e+01
2.002488324017e+01
2.030548950376e+01
2.034155967980e+01
-6.552710025219e+01
-5.346791044972e+01
1.703617028172e+01
1.697544645003e+01
2.049866378081e+01
2.053006105308e+01
-2.488326387497e+01
-6.051416578643e+01
2.041347367565e+01
2.003395430010e+01
7.595568050368e+00
2.042032670210e+01
1.947175860137e+01
1.891775299613e+01
1.878004589590e+01
6.995800939748e+00
1.929561028516e+01
3.416338364576e+00
1.829699486686e+01
2.003573869098e+01
1.988562265981e+01
1.873990839550e+01
1.833944383157e+01
2.005128664225e+01
1.968811062194e+01
1.941361367995e+01
1.695907490936e+01
1.916553364049e+01
2.000116246013e+01
1.393883589977e+01
-2.197978135405e+01
1.990122690811e+01
2.004080989028e+01
3.247119666128e+00
1.903525228359e+01
2.045862795371e+01
1.990864137493e+01
2.005653566384e+01
1.976417814176e+01
-2.317476791498e+01
5.039027300155e+00
9.438904589390e+00
1.794417107185e+01
1.914786593144e+01
2.003480248162e+01
2.035627032745e+01
-5.536254579502e+00
-6.434110351596e+00
-1.371185590680e+00
1.912348017393e+01
1.588330925412e+01
2.004055727445e+01
6.910934644494e+00
2.023782399611e+01
1.794432750095e+01
2.025840130509e+01
1.969680713575e+01
1.793980835486e+01
2.049589091463e+01
2.017428370476e+01
2.016134518696e+01
-1.615624055196e+01
1.995885552829e+01
2.021011013638e+01
2.026326673387e+01
1.981708188013e+01
2.048869176445e+01
1.941692664098e+01
-5.868116931520e+01
1.101060994750e+00
1.983792781597e+01
1.832381610512e+01
2.038243619579e+01
1.992909188673e+01
2.043314384598e+01
1.944329887677e+01
2.029636799948e+01
2.040360065853e+01
2.041040555331e+01
1.617616238873e+01
2.052739934538e+01
1.745420548192e+01
1.996500561029e+01
-5.623796439693e+00
1.978093997566e+01
1.905494834570e+01
-4.895390492848e+00
8.445851310349e+00
1.955400890047e+01
2.017248774171e+01
2.001017258694e+01
2.026936784197e+01
1.832257368149e+01
-2.260008799193e+01
-7.574001834171e+00
-1.765440710007e+01
1.374274169803e+00
-5.477232197356e+01
1.814714358580e+01
2.038284834839e+01
1.998786559776e+01
1.828042031093e+01
1.740015898628e+01
2.040888048918e+01
2.034231186917e+01
2.027115500362e+01
2.006024171944e+01
1.981160293278e+01
-5.890358229770e+00
-9.470768498147e+00
2.043574461360e+01
-5.018768531252e+00
-4.770322281856e-01
-1.765560651640e+01
-7.373547105367e+00
2.045048549061e+01
2.021001832816e+01
2.004645119962e+01
2.029402213404e+01
2.026403597562e+01
1.856142881233e+01
2.034914827983e+01
1.142993796418e+01
1.689280782888e+01
2.036428648175e+00
-2.294330198402e+01
2.053273714474e+01
1.751447389448e+01
2.535518193972e+00
1.806004114386e+01
2.019562520829e+01
2.001322450523e+01
2.018802130646e+01
1.531408486659e+01
-8.074315022791e+00
2.053205679953e+01
2.031727504348e+01
2.058789884777e+01
1.743898989412e+01
2.031106466644e+01
3.076936543092e+00
2.005546512221e+01
-2.453578532493e+01
2.044686459115e+01
2.016349669790e+01
-2.353191251381e+01
1.991845525252e+01
1.928872410876e+01
2.018364190447e+01
2.045840119718e+01
1.884829595515e+01
2.021276409037e+01
2.003130260349e+01
1.906128572588e+01
2.006184348920e+01
1.679508107389e+01
1.695566366440e+01
2.014411874679e+01
2.019133415998e+01
-5.919808077409e+01
1.696805044029e+01
2.047676821256e+01
7.556735613519e+00
2.037046888589e+01
1.998652323198e+01
2.016551338878e+01
6.785531960803e+00
-8.406597528971e-01
1.914417227275e+01
1.963112944232e+01
-6.470312269817e+01
2.019584389482e+01
1.873414577705e+01
6.644425245686e+00
1.845263175784e+01
2.024963654287e+01
1.927168498778e+01
-4.603021893186e+01
1.627177849361e+01
1.862250749787e+01
1.934821989912e+01
2.016518113370e+01
1.855049050652e+01
1.874989244120e+01
-8.546449460147e+00
2.047302301421e+01
1.991555325450e+01
3.520469007648e+00
2.017628640675e+01
2.047376567543e+01
1.747502259306e+01
1.873288211393e+01
1.846587529604e+01
1.855921996872e+01
1.888921535185e+01
2.020781914433e+01
2.804227872398e+00
2.003236864138e+01
1.796022763798e+01
2.016778759677e+01
2.020351147037e+01
1.843751377024e+01
1.992010686663e+01
2.019006787510e+01
2.031752290492e+01
-3.008437774915e+01
1.991640193344e+01
2.003795266850e+01
-7.930511548907e+00
1.818030965403e+01
-2.932150777024e+01
2.004522230167e+01
-6.085150107110e+01
-5.513493845729e+01
-5.561821722658e+01
-5.501682784503e+01
-5.529151817460e+01
-5.503496512510e+01
-5.514493104806e+01
-5.502450445908e+01
-5.507159281974e+01
-5.500533574544e+01
-5.504100187614e+01
-5.498362554772e+01
-5.503172228905e+01
-5.496048304674e+01
-5.503245621472e+01
-5.493575577872e+01
-5.503791411398e+01
-5.490894045330e+01
-5.504579440602e+01
-5.487939633402e+01
-5.505510582004e+01
-5.484644025108e+01
-4.856161259812e+01
-5.506495890764e+01
-5.480989947153e+01
-5.506757921939e+01
-5.234149121382e+01
-5.476978028464e+01
-5.503171133253e+01
-5.472673076662e+01
-5.498968509135e+01
-5.467543421628e+01
8.616074580858e+01
-5.494111839406e+01
-5.459206597053e+01
-5.488803620200e+01
-5.450182526926e+01
-5.482761399317e+01
-5.441527752661e+01
-5.477379739566e+01
-5.431397053467e+01
-5.469300250500e+01
-5.424415307346e+01
-5.467056815196e+01
-5.412471432025e+01
-4.585545682682e+01
-5.412122944662e+01
-5.453127056256e+01
-5.391066800131e+01
-5.473266213462e+01
-5.407446207721e+01
-5.428547834813e+01
-5.369102206199e+01
-5.498288652367e+01
-5.322471159774e+01
8.999999999514e+01
-5.250450870632e+01
-5.808061733620e+01
-4.212382669560e+01
8.999999999514e+01
8.999999999514e+01
-1.431169281229e+01
-1.628760155753e+01
-1.633852766507e+01
-1.645029233576e+01
-1.643791094749e+01
-1.642998148489e+01
-1.640448263476e+01
-1.639986810539e+01
-1.637408846938e+01
-1.637573363992e+01
-1.635227401896e+01
-1.635666354617e+01
-1.633491763648e+01
-1.634021226876e+01
-1.631887873322e+01
-1.632451638524e+01
-1.630240554231e+01
-1.630839908230e+01
-1.628458105740e+01
-1.629104971971e+01
-1.349210682912e+01
-1.626485693561e+01
-1.627163451878e+01
-1.624263379458e+01
-2.202754652317e+01
-1.624867068909e+01
-1.621732089150e+01
-1.568136133791e+01
-1.622198719806e+01
-1.618888257724e+01
-1.619064398784e+01
-1.615792784685e+01
-1.611363417203e+01
-1.612503574925e+01
-1.597590112916e+01
-1.609180430189e+01
-1.584534349527e+01
-1.316001157009e+01
-1.605822128753e+01
-1.568915766896e+01
-1.603062733950e+01
-1.559140426246e+01
-1.538883555837e+01
-1.599796917131e+01
-1.543685355784e+01
-1.599102591741e+01
-1.509226322623e+01
-1.595615932030e+01
-1.569373073792e+01
-1.477854690328e+01
-1.603899910589e+01
-1.596202759757e+01
-2.435378494671e+01
-1.659043310130e+01
-1.416982780624e+01
-2.206415984868e+01
-1.056501023139e+01
-2.233090722816e+01
-2.302084726745e+00
-1.475620172865e+00
-1.462486250718e+00
-1.428971706008e+00
-1.428157443676e+00
-1.417918370014e+00
-1.417928104288e+00
-1.403634443383e+00
-1.403583078711e+00
-1.389668758543e+00
-1.389211559845e+00
-1.377625851203e+00
-1.376356963995e+00
-1.367380582955e+00
-1.364826103742e+00
-1.358258465395e+00
-1.353843234193e+00
-1.349722010915e+00
-1.342798973028e+00
-3.976556126991e-01
-1.341389025433e+00
-1.331171791651e+00
-1.333039825386e+00
-1.292851925843e+00
-1.318556738646e+00
-1.324179036371e+00
-1.303802009694e+00
-1.314395399726e+00
-1.286406301469e+00
-3.951796700704e+00
-1.303955866961e+00
-1.265910220898e+00
-1.294108776767e+00
-1.245426667577e+00
-1.285536049643e+00
-1.220469599946e+00
-1.280478884523e+00
-1.204060268403e+00
-1.277794833489e+00
-1.169426276930e+00
-1.284744480479e+00
-2.874026403198e-01
-1.285560440007e+00
-1.181813863995e+00
-1.312107198663e+00
-1.085850002067e+00
-1.336060774842e+00
-1.222546608390e+00
-9.167566782880e-01
-4.866738241728e+00
-9.639107645563e-01
-2.272029989013e+00
6.790331334629e-01
-4.444007569598e+00
-4.244044137853e+00
6.085778676763e+00
5.632739733272e+00
5.619244433920e+00
5.589203216209e+00
5.585327912029e+00
5.588385107728e+00
5.584664560111e+00
5.594570903892e+00
5.590094538977e+00
5.602217725947e+00
5.596457855733e+00
5.609267771851e+00
5.601678906549e+00
5.614983376997e+00
5.605065106052e+00
5.619941308342e+00
5.607179288465e+00
5.624438043143e+00
6.120916702157e+00
5.608297267222e+00
5.628834976151e+00
5.608570601935e+00
4.210334172563e+00
5.633058354066e+00
5.541519435489e+00
5.607674453496e+00
5.636847570739e+00
5.605872782818e+00
5.643544076412e+00
5.605162679001e+00
5.650036605533e+00
5.604405773824e+00
5.662632559245e+00
6.063642164955e+00
5.603647674527e+00
5.663223057247e+00
5.597313441164e+00
5.685660533826e+00
5.662449523036e+00
5.593452245452e+00
5.722342427848e+00
5.575256632547e+00
5.612551309986e+00
5.814476975152e+00
5.573594291488e+00
5.509907852950e+00
3.693190393755e+00
5.452453368176e+00
6.186479496444e+00
4.382518565002e+00
6.987692062276e+00
3.990464513395e+00
9.351197170950e+00
9.615342920392e+00
9.622484530051e+00
9.626828652157e+00
9.630646699457e+00
9.624613211016e+00
9.630314042001e+00
9.624742870961e+00
9.632553677361e+00
9.626065664247e+00
9.635708156707e+00
9.627419521826e+00
9.638516972214e+00
9.626981593584e+00
9.639582076173e+00
9.624974570561e+00
9.639796206468e+00
9.874556277639e+00
9.622198232576e+00
9.639533250463e+00
9.489611476603e+00
9.619031190278e+00
9.639159420882e+00
9.614464582825e+00
9.637717428399e+00
9.607351389461e+00
8.685613127163e+00
9.633958013295e+00
9.599229389968e+00
9.633641207587e+00
9.595029237440e+00
9.633201712717e+00
9.588711603006e+00
9.640441508860e+00
9.585963014883e+00
9.627872482473e+00
9.566868440736e+00
9.788534433345e+00
9.567016035424e+00
9.651169017888e+00
9.504290580287e+00
9.591982170937e+00
9.688300402132e+00
8.347182253109e+00
9.821324924588e+00
9.296986666312e+00
1.032550369550e+01
8.691150827134e+00
8.535084249364e+00
1.237622944758e+01
1.219581452494e+01
1.218540979240e+01
1.217547507503e+01
1.216892443786e+01
1.217204285801e+01
1.216558872943e+01
1.217134545436e+01
1.216358318940e+01
1.217160646840e+01
1.216244152841e+01
1.217262105027e+01
1.216145998097e+01
1.217133176096e+01
1.215764703419e+01
1.216818082145e+01
1.233897723632e+01
1.215138787990e+01
1.216554116482e+01
1.148993160798e+01
1.214704942708e+01
1.216340032971e+01
1.202282567290e+01
1.214205539015e+01
1.215999965869e+01
1.213417735983e+01
1.215387897580e+01
1.212343674337e+01
1.214256448343e+01
1.224429301812e+01
1.211001956900e+01
1.214728264982e+01
1.210956068267e+01
1.213462463695e+01
1.216151178164e+01
1.209786024710e+01
1.209810102072e+01
1.210547000694e+01
1.217650951762e+01
1.202925571028e+01
1.126621862337e+01
1.207640877104e+01
1.245653014329e+01
1.169120858397e+01
1.275796752020e+01
1.136037098357e+01
1.383264470951e+01
1.395843657010e+01
1.396122014136e+01
1.395831441634e+01
1.396072779817e+01
1.395769442730e+01
1.395990522845e+01
1.395291048305e+01
1.395738262377e+01
1.395050950362e+01
1.395613065788e+01
1.394780847079e+01
1.395561570290e+01
1.394648714582e+01
1.395258124736e+01
1.405520756504e+01
1.393546433498e+01
1.381951017707e+01
1.394410857300e+01
1.393069691605e+01
1.394157976415e+01
1.392823701357e+01
1.393908629814e+01
1.391988399850e+01
1.342210413157e+01
1.393231537198e+01
1.391024328911e+01
1.392408337865e+01
1.389911390826e+01
1.390512057418e+01
1.388072794939e+01
1.391901586099e+01
1.389872032879e+01
1.384048030519e+01
1.389369524794e+01
1.396626825653e+01
1.394311109149e+01
1.325738017388e+01
1.408063008053e+01
1.377721899730e+01
1.430242818776e+01
1.352188330243e+01
1.332120253310e+01
1.537855729867e+01
1.526531684923e+01
1.525301399271e+01
1.524730544215e+01
1.524173866970e+01
1.524976772111e+01
1.524516771040e+01
1.524235174634e+01
1.523295533775e+01
1.524193134187e+01
1.523448055432e+01
1.523797931689e+01
1.522700509342e+01
1.532351194361e+01
1.524184046357e+01
1.522856283382e+01
1.483713912805e+01
1.522535487876e+01
1.521330463638e+01
1.512470467446e+01
1.522328148406e+01
1.521336542424e+01
1.522509266129e+01
1.520938863941e+01
1.521602881840e+01
1.522858357703e+01
1.519612391148e+01
1.520803579029e+01
1.520559437265e+01
1.519028978216e+01
1.516110590829e+01
1.518967926503e+01
1.522933366068e+01
1.513569712076e+01
1.470127938715e+01
1.516500143665e+01
1.543731633637e+01
1.499785038414e+01
1.556648315404e+01
1.475008587735e+01
1.621014897452e+01
1.623253427991e+01
1.624235641358e+01
1.625272246057e+01
1.624462536413e+01
1.625571960601e+01
1.625409738171e+01
1.623448441744e+01
1.623443684511e+01
1.623912010231e+01
1.624218867895e+01
1.623585813436e+01
1.630684361571e+01
1.623160223416e+01
1.618593988671e+01
1.620913418241e+01
1.623651639128e+01
1.623032617569e+01
1.621774535297e+01
1.622511566630e+01
1.622397485770e+01
1.621224625434e+01
1.591505908830e+01
1.622184605356e+01
1.620091526097e+01
1.620447351623e+01
1.618457745795e+01
1.617735048688e+01
1.619945279973e+01
1.621555782287e+01
1.621745881139e+01
1.580147574254e+01
1.630958352917e+01
1.617502360951e+01
1.647680220942e+01
1.599178076213e+01
1.584754084979e+01


