# vtk DataFile Version 2.0
Calculation  at time 3.000000000000e+00 
ASCII
DATASET UNSTRUCTURED_GRID
Field FieldData 1
Time 1 1 double
3.000000000000e+00

POINTS 1220 float
0.0 0.0 0.0 
5.000000000000e+01 -1.000000000000e+01 0.0 
0.0 -2.000000000000e+01 0.0 
5.000000000000e+01 -2.000000000000e+01 0.0 
0.0 -9.999999999991e-01 0.0 
0.0 -1.999999999998e+00 0.0 
0.0 -2.999999999997e+00 0.0 
0.0 -3.999999999994e+00 0.0 
0.0 -4.999999999991e+00 0.0 
0.0 -5.999999999988e+00 0.0 
0.0 -6.999999999985e+00 0.0 
0.0 -7.999999999982e+00 0.0 
0.0 -8.999999999983e+00 0.0 
0.0 -9.999999999985e+00 0.0 
0.0 -1.099999999999e+01 0.0 
0.0 -1.199999999999e+01 0.0 
0.0 -1.299999999999e+01 0.0 
0.0 -1.399999999999e+01 0.0 
0.0 -1.499999999999e+01 0.0 
0.0 -1.599999999999e+01 0.0 
0.0 -1.700000000000e+01 0.0 
0.0 -1.800000000000e+01 0.0 
0.0 -1.900000000000e+01 0.0 
4.900000000001e+01 -2.000000000000e+01 0.0 
4.800000000001e+01 -2.000000000000e+01 0.0 
4.700000000002e+01 -2.000000000000e+01 0.0 
4.600000000003e+01 -2.000000000000e+01 0.0 
4.500000000004e+01 -2.000000000000e+01 0.0 
4.400000000004e+01 -2.000000000000e+01 0.0 
4.300000000005e+01 -2.000000000000e+01 0.0 
4.200000000006e+01 -2.000000000000e+01 0.0 
4.100000000006e+01 -2.000000000000e+01 0.0 
4.000000000007e+01 -2.000000000000e+01 0.0 
3.900000000008e+01 -2.000000000000e+01 0.0 
3.800000000009e+01 -2.000000000000e+01 0.0 
3.700000000009e+01 -2.000000000000e+01 0.0 
3.600000000010e+01 -2.000000000000e+01 0.0 
3.500000000011e+01 -2.000000000000e+01 0.0 
3.400000000011e+01 -2.000000000000e+01 0.0 
3.300000000012e+01 -2.000000000000e+01 0.0 
3.200000000013e+01 -2.000000000000e+01 0.0 
3.100000000013e+01 -2.000000000000e+01 0.0 
3.000000000013e+01 -2.000000000000e+01 0.0 
2.900000000013e+01 -2.000000000000e+01 0.0 
2.800000000013e+01 -2.000000000000e+01 0.0 
2.700000000013e+01 -2.000000000000e+01 0.0 
2.600000000013e+01 -2.000000000000e+01 0.0 
2.500000000013e+01 -2.000000000000e+01 0.0 
2.400000000013e+01 -2.000000000000e+01 0.0 
2.300000000013e+01 -2.000000000000e+01 0.0 
2.200000000013e+01 -2.000000000000e+01 0.0 
2.100000000013e+01 -2.000000000000e+01 0.0 
2.000000000013e+01 -2.000000000000e+01 0.0 
1.900000000013e+01 -2.000000000000e+01 0.0 
1.800000000013e+01 -2.000000000000e+01 0.0 
1.700000000012e+01 -2.000000000000e+01 0.0 
1.600000000011e+01 -2.000000000000e+01 0.0 
1.500000000011e+01 -2.000000000000e+01 0.0 
1.400000000010e+01 -2.000000000000e+01 0.0 
1.300000000009e+01 -2.000000000000e+01 0.0 
1.200000000009e+01 -2.000000000000e+01 0.0 
1.100000000008e+01 -2.000000000000e+01 0.0 
1.000000000007e+01 -2.000000000000e+01 0.0 
9.000000000064e+00 -2.000000000000e+01 0.0 
8.000000000057e+00 -2.000000000000e+01 0.0 
7.000000000050e+00 -2.000000000000e+01 0.0 
6.000000000043e+00 -2.000000000000e+01 0.0 
5.000000000036e+00 -2.000000000000e+01 0.0 
4.000000000028e+00 -2.000000000000e+01 0.0 
3.000000000021e+00 -2.000000000000e+01 0.0 
2.000000000014e+00 -2.000000000000e+01 0.0 
1.000000000007e+00 -2.000000000000e+01 0.0 
5.000000000000e+01 -1.100000000000e+01 0.0 
5.000000000000e+01 -1.200000000000e+01 0.0 
5.000000000000e+01 -1.300000000000e+01 0.0 
5.000000000000e+01 -1.400000000000e+01 0.0 
5.000000000000e+01 -1.500000000000e+01 0.0 
5.000000000000e+01 -1.600000000000e+01 0.0 
5.000000000000e+01 -1.700000000000e+01 0.0 
5.000000000000e+01 -1.800000000000e+01 0.0 
5.000000000000e+01 -1.900000000000e+01 0.0 
2.000000000000e+01 0.0 0.0 
3.500000000000e+01 -1.000000000000e+01 0.0 
2.150000000000e+01 -1.000000000000e+00 0.0 
2.300000000000e+01 -2.000000000000e+00 0.0 
2.450000000000e+01 -3.000000000000e+00 0.0 
2.600000000000e+01 -4.000000000000e+00 0.0 
2.750000000000e+01 -5.000000000000e+00 0.0 
2.900000000000e+01 -6.000000000000e+00 0.0 
3.050000000000e+01 -7.000000000000e+00 0.0 
3.200000000000e+01 -8.000000000000e+00 0.0 
3.350000000000e+01 -9.000000000000e+00 0.0 
5.000000000000e+01 -2.000000000000e+00 0.0 
5.000000000000e+01 -3.000000000000e+00 0.0 
5.000000000000e+01 -4.000000000000e+00 0.0 
5.000000000000e+01 -5.000000000000e+00 0.0 
5.000000000000e+01 -6.000000000000e+00 0.0 
5.000000000000e+01 -7.000000000000e+00 0.0 
5.000000000000e+01 -8.000000000000e+00 0.0 
5.000000000000e+01 -9.000000000000e+00 0.0 
4.900000000000e+01 -1.000000000000e+01 0.0 
4.800000000000e+01 -1.000000000000e+01 0.0 
4.700000000000e+01 -1.000000000000e+01 0.0 
4.600000000000e+01 -1.000000000000e+01 0.0 
4.500000000000e+01 -1.000000000000e+01 0.0 
4.400000000000e+01 -1.000000000000e+01 0.0 
4.300000000000e+01 -1.000000000000e+01 0.0 
4.200000000000e+01 -1.000000000000e+01 0.0 
4.100000000000e+01 -1.000000000000e+01 0.0 
4.000000000000e+01 -1.000000000000e+01 0.0 
3.900000000000e+01 -1.000000000000e+01 0.0 
3.800000000000e+01 -1.000000000000e+01 0.0 
3.700000000000e+01 -1.000000000000e+01 0.0 
3.600000000000e+01 -1.000000000000e+01 0.0 
1.900000000000e+01 0.0 0.0 
1.800000000000e+01 0.0 0.0 
1.700000000000e+01 0.0 0.0 
1.600000000000e+01 0.0 0.0 
1.500000000000e+01 0.0 0.0 
1.400000000000e+01 0.0 0.0 
1.300000000000e+01 0.0 0.0 
1.200000000000e+01 0.0 0.0 
1.100000000000e+01 0.0 0.0 
1.000000000000e+01 0.0 0.0 
9.000000000000e+00 0.0 0.0 
8.000000000000e+00 0.0 0.0 
7.000000000000e+00 0.0 0.0 
6.000000000000e+00 0.0 0.0 
5.000000000000e+00 0.0 0.0 
4.000000000000e+00 0.0 0.0 
3.000000000000e+00 0.0 0.0 
2.000000000000e+00 0.0 0.0 
1.000000000000e+00 0.0 0.0 
2.400000000000e+01 -2.000000000000e+00 0.0 
2.500000000000e+01 -2.000000000000e+00 0.0 
2.600000000000e+01 -2.000000000000e+00 0.0 
2.700000000000e+01 -2.000000000000e+00 0.0 
2.800000000000e+01 -2.000000000000e+00 0.0 
2.900000000000e+01 -2.000000000000e+00 0.0 
3.000000000000e+01 -2.000000000000e+00 0.0 
3.100000000000e+01 -2.000000000000e+00 0.0 
3.200000000000e+01 -2.000000000000e+00 0.0 
3.300000000000e+01 -2.000000000000e+00 0.0 
3.400000000000e+01 -2.000000000000e+00 0.0 
3.500000000000e+01 -2.000000000000e+00 0.0 
3.600000000000e+01 -2.000000000000e+00 0.0 
3.700000000000e+01 -2.000000000000e+00 0.0 
3.800000000000e+01 -2.000000000000e+00 0.0 
3.900000000000e+01 -2.000000000000e+00 0.0 
4.000000000000e+01 -2.000000000000e+00 0.0 
4.100000000000e+01 -2.000000000000e+00 0.0 
4.200000000000e+01 -2.000000000000e+00 0.0 
4.300000000000e+01 -2.000000000000e+00 0.0 
4.400000000000e+01 -2.000000000000e+00 0.0 
4.500000000000e+01 -2.000000000000e+00 0.0 
4.600000000000e+01 -2.000000000000e+00 0.0 
4.700000000000e+01 -2.000000000000e+00 0.0 
4.800000000000e+01 -2.000000000000e+00 0.0 
4.900000000000e+01 -2.000000000000e+00 0.0 
2.548076923077e+01 -3.000000000000e+00 0.0 
2.646153846153e+01 -3.000000000000e+00 0.0 
2.744230769230e+01 -3.000000000000e+00 0.0 
2.842307692306e+01 -3.000000000000e+00 0.0 
2.940384615383e+01 -3.000000000000e+00 0.0 
3.038461538459e+01 -3.000000000000e+00 0.0 
3.136538461536e+01 -3.000000000000e+00 0.0 
3.234615384612e+01 -3.000000000000e+00 0.0 
3.332692307687e+01 -3.000000000000e+00 0.0 
3.430769230762e+01 -3.000000000000e+00 0.0 
3.528846153837e+01 -3.000000000000e+00 0.0 
3.626923076912e+01 -3.000000000000e+00 0.0 
3.724999999988e+01 -3.000000000000e+00 0.0 
3.823076923065e+01 -3.000000000000e+00 0.0 
3.921153846143e+01 -3.000000000000e+00 0.0 
4.019230769221e+01 -3.000000000000e+00 0.0 
4.117307692299e+01 -3.000000000000e+00 0.0 
4.215384615377e+01 -3.000000000000e+00 0.0 
4.313461538455e+01 -3.000000000000e+00 0.0 
4.411538461533e+01 -3.000000000000e+00 0.0 
4.509615384611e+01 -3.000000000000e+00 0.0 
4.607692307688e+01 -3.000000000000e+00 0.0 
4.705769230766e+01 -3.000000000000e+00 0.0 
4.803846153844e+01 -3.000000000000e+00 0.0 
4.901923076922e+01 -3.000000000000e+00 0.0 
4.900000000000e+01 -4.000000000000e+00 0.0 
4.800000000000e+01 -4.000000000000e+00 0.0 
4.700000000000e+01 -4.000000000000e+00 0.0 
4.600000000000e+01 -4.000000000000e+00 0.0 
4.500000000000e+01 -4.000000000000e+00 0.0 
4.400000000000e+01 -4.000000000000e+00 0.0 
4.300000000000e+01 -4.000000000000e+00 0.0 
4.200000000000e+01 -4.000000000000e+00 0.0 
4.100000000000e+01 -4.000000000000e+00 0.0 
4.000000000000e+01 -4.000000000000e+00 0.0 
3.900000000000e+01 -4.000000000000e+00 0.0 
3.800000000000e+01 -4.000000000000e+00 0.0 
3.700000000000e+01 -4.000000000000e+00 0.0 
3.600000000000e+01 -4.000000000000e+00 0.0 
3.500000000000e+01 -4.000000000000e+00 0.0 
3.400000000000e+01 -4.000000000000e+00 0.0 
3.300000000000e+01 -4.000000000000e+00 0.0 
3.200000000000e+01 -4.000000000000e+00 0.0 
3.100000000000e+01 -4.000000000000e+00 0.0 
3.000000000000e+01 -4.000000000000e+00 0.0 
2.900000000000e+01 -4.000000000000e+00 0.0 
2.800000000000e+01 -4.000000000000e+00 0.0 
2.700000000000e+01 -4.000000000000e+00 0.0 
2.847826086957e+01 -5.000000000000e+00 0.0 
2.945652173913e+01 -5.000000000000e+00 0.0 
3.043478260870e+01 -5.000000000000e+00 0.0 
3.141304347826e+01 -5.000000000000e+00 0.0 
3.239130434783e+01 -5.000000000000e+00 0.0 
3.336956521739e+01 -5.000000000000e+00 0.0 
3.434782608696e+01 -5.000000000000e+00 0.0 
3.532608695652e+01 -5.000000000000e+00 0.0 
3.630434782609e+01 -5.000000000000e+00 0.0 
3.728260869565e+01 -5.000000000000e+00 0.0 
3.826086956522e+01 -5.000000000000e+00 0.0 
3.923913043478e+01 -5.000000000000e+00 0.0 
4.021739130435e+01 -5.000000000000e+00 0.0 
4.119565217391e+01 -5.000000000000e+00 0.0 
4.217391304348e+01 -5.000000000000e+00 0.0 
4.315217391304e+01 -5.000000000000e+00 0.0 
4.413043478261e+01 -5.000000000000e+00 0.0 
4.510869565217e+01 -5.000000000000e+00 0.0 
4.608695652174e+01 -5.000000000000e+00 0.0 
4.706521739130e+01 -5.000000000000e+00 0.0 
4.804347826087e+01 -5.000000000000e+00 0.0 
4.902173913043e+01 -5.000000000000e+00 0.0 
4.900000000001e+01 -6.000000000000e+00 0.0 
4.800000000003e+01 -6.000000000000e+00 0.0 
4.700000000004e+01 -6.000000000000e+00 0.0 
4.600000000006e+01 -6.000000000000e+00 0.0 
4.500000000007e+01 -6.000000000000e+00 0.0 
4.400000000009e+01 -6.000000000000e+00 0.0 
4.300000000010e+01 -6.000000000000e+00 0.0 
4.200000000012e+01 -6.000000000000e+00 0.0 
4.100000000013e+01 -6.000000000000e+00 0.0 
4.000000000014e+01 -6.000000000000e+00 0.0 
3.900000000014e+01 -6.000000000000e+00 0.0 
3.800000000012e+01 -6.000000000000e+00 0.0 
3.700000000010e+01 -6.000000000000e+00 0.0 
3.600000000008e+01 -6.000000000000e+00 0.0 
3.500000000006e+01 -6.000000000000e+00 0.0 
3.400000000005e+01 -6.000000000000e+00 0.0 
3.300000000003e+01 -6.000000000000e+00 0.0 
3.200000000001e+01 -6.000000000000e+00 0.0 
3.100000000000e+01 -6.000000000000e+00 0.0 
3.000000000000e+01 -6.000000000000e+00 0.0 
3.147499999998e+01 -7.000000000000e+00 0.0 
3.244999999998e+01 -7.000000000000e+00 0.0 
3.342499999998e+01 -7.000000000000e+00 0.0 
3.439999999998e+01 -7.000000000000e+00 0.0 
3.537499999998e+01 -7.000000000000e+00 0.0 
3.634999999998e+01 -7.000000000000e+00 0.0 
3.732499999998e+01 -7.000000000000e+00 0.0 
3.829999999998e+01 -7.000000000000e+00 0.0 
3.927499999999e+01 -7.000000000000e+00 0.0 
4.024999999999e+01 -7.000000000000e+00 0.0 
4.122499999999e+01 -7.000000000000e+00 0.0 
4.219999999999e+01 -7.000000000000e+00 0.0 
4.317499999999e+01 -7.000000000000e+00 0.0 
4.414999999999e+01 -7.000000000000e+00 0.0 
4.512499999999e+01 -7.000000000000e+00 0.0 
4.609999999999e+01 -7.000000000000e+00 0.0 
4.707500000000e+01 -7.000000000000e+00 0.0 
4.805000000000e+01 -7.000000000000e+00 0.0 
4.902500000000e+01 -7.000000000000e+00 0.0 
4.900000000000e+01 -8.000000000000e+00 0.0 
4.800000000000e+01 -8.000000000000e+00 0.0 
4.700000000000e+01 -8.000000000000e+00 0.0 
4.600000000000e+01 -8.000000000000e+00 0.0 
4.500000000000e+01 -8.000000000000e+00 0.0 
4.400000000000e+01 -8.000000000000e+00 0.0 
4.300000000000e+01 -8.000000000000e+00 0.0 
4.200000000000e+01 -8.000000000000e+00 0.0 
4.100000000000e+01 -8.000000000000e+00 0.0 
4.000000000000e+01 -8.000000000000e+00 0.0 
3.900000000000e+01 -8.000000000000e+00 0.0 
3.800000000000e+01 -8.000000000000e+00 0.0 
3.700000000000e+01 -8.000000000000e+00 0.0 
3.600000000000e+01 -8.000000000000e+00 0.0 
3.500000000000e+01 -8.000000000000e+00 0.0 
3.400000000000e+01 -8.000000000000e+00 0.0 
3.300000000000e+01 -8.000000000000e+00 0.0 
3.447058823527e+01 -9.000000000000e+00 0.0 
3.544117647055e+01 -9.000000000000e+00 0.0 
3.641176470582e+01 -9.000000000000e+00 0.0 
3.738235294109e+01 -9.000000000000e+00 0.0 
3.835294117637e+01 -9.000000000000e+00 0.0 
3.932352941164e+01 -9.000000000000e+00 0.0 
4.029411764691e+01 -9.000000000000e+00 0.0 
4.126470588219e+01 -9.000000000000e+00 0.0 
4.223529411748e+01 -9.000000000000e+00 0.0 
4.320588235279e+01 -9.000000000000e+00 0.0 
4.417647058811e+01 -9.000000000000e+00 0.0 
4.514705882342e+01 -9.000000000000e+00 0.0 
4.611764705874e+01 -9.000000000000e+00 0.0 
4.708823529405e+01 -9.000000000000e+00 0.0 
4.805882352937e+01 -9.000000000000e+00 0.0 
4.902941176468e+01 -9.000000000000e+00 0.0 
2.075000000000e+01 -5.000000000006e-01 0.0 
2.225000000000e+01 -1.500000000000e+00 0.0 
2.375000000000e+01 -2.500000000000e+00 0.0 
2.525000000000e+01 -3.500000000000e+00 0.0 
2.675000000000e+01 -4.500000000000e+00 0.0 
2.825000000000e+01 -5.500000000000e+00 0.0 
2.975000000000e+01 -6.500000000000e+00 0.0 
3.125000000000e+01 -7.500000000000e+00 0.0 
3.275000000000e+01 -8.500000000000e+00 0.0 
3.425000000000e+01 -9.500000000000e+00 0.0 
2.226951693683e+01 -2.403913980114e+00 0.0 
1.650149491944e+01 -1.913490915758e+01 0.0 
1.050042386896e+01 -8.504605092970e-01 0.0 
1.553146524712e+01 -8.281255032105e-01 0.0 
1.150000000008e+01 -1.913397459621e+01 0.0 
2.530060260647e+01 -4.428336431260e+00 0.0 
8.651114563942e-01 -1.052096295641e+01 0.0 
2.050000000013e+01 -1.913397459622e+01 0.0 
2.819198729811e+01 -6.399519052838e+00 0.0 
2.445670302931e+01 -1.915649188023e+01 0.0 
3.117591465718e+01 -8.394293040695e+00 0.0 
7.465053044742e+00 -1.920411160581e+01 0.0 
6.398295709691e+00 -8.230098819370e-01 0.0 
2.849659607461e+01 -1.914296187762e+01 0.0 
3.418732642882e+01 -1.040265792588e+01 0.0 
8.386450935063e-01 -6.533605142809e+00 0.0 
9.178661865596e-01 -1.329769195597e+01 0.0 
3.149448624493e+01 -1.910466733764e+01 0.0 
3.552916747426e+01 -1.914628590759e+01 0.0 
4.449210346537e+01 -1.914359085008e+01 0.0 
4.140975975145e+01 -1.906941860733e+01 0.0 
3.847475958753e+01 -1.916622382724e+01 0.0 
3.653774794640e+01 -1.088712800241e+01 0.0 
4.047886341787e+01 -1.090139014048e+01 0.0 
4.348006339825e+01 -1.092792621489e+01 0.0 
4.919519968029e+01 -1.451526755068e+01 0.0 
4.500000000032e+00 -1.913397459621e+01 0.0 
1.856136921614e+01 -8.212235170404e-01 0.0 
3.499895312306e+00 -8.661165539723e-01 0.0 
9.076088696565e-01 -1.642306201891e+01 0.0 
4.655174095477e+01 -1.086183387525e+01 0.0 
9.430688970604e-01 -3.496112672958e+00 0.0 
3.353992337063e+01 -1.901202090820e+01 0.0 
2.249746016977e+01 -1.921262287282e+01 0.0 
2.650122741777e+01 -1.916123026018e+01 0.0 
1.863571384842e+01 -1.908325534840e+01 0.0 
1.450089971693e+01 -1.917691901860e+01 0.0 
1.350044695317e+01 -8.659695299584e-01 0.0 
3.849987469880e+01 -1.084154983397e+01 0.0 
9.454419857884e+00 -1.900818879936e+01 0.0 
4.917398660523e+01 -1.645692866081e+01 0.0 
8.500000000000e+00 -8.660254037844e-01 0.0 
8.660319230785e-01 -8.500111697188e+00 0.0 
4.649022621545e+01 -1.930506220113e+01 0.0 
2.667688107845e+01 -5.420288124331e+00 0.0 
2.379251615665e+01 -3.412225477429e+00 0.0 
2.966631491830e+01 -7.389030232731e+00 0.0 
3.267915035995e+01 -9.396934932445e+00 0.0 
2.074836922338e+01 -1.320054020319e+00 0.0 
4.915985743621e+01 -1.261973384855e+01 0.0 
2.527129768623e+00 -1.931592414663e+01 0.0 
1.538676247410e+00 -8.436956619311e-01 0.0 
4.908096641539e+01 -1.842484004551e+01 0.0 
3.478612492673e+01 -1.090889364140e+01 0.0 
3.409757055860e+01 -1.131991530427e+01 0.0 
3.501895309466e+01 -1.177687842717e+01 0.0 
3.407758073088e+01 -1.224293381580e+01 0.0 
3.484541875390e+01 -1.277051428430e+01 0.0 
3.400322025842e+01 -1.319022775640e+01 0.0 
3.321672625034e+01 -1.266779191233e+01 0.0 
3.315244139236e+01 -1.360984106532e+01 0.0 
3.236335186892e+01 -1.308463225210e+01 0.0 
3.478337442841e+01 -1.372341158982e+01 0.0 
3.230105923633e+01 -1.403023731610e+01 0.0 
3.150954055289e+01 -1.350301767700e+01 0.0 
3.144604792090e+01 -1.444931742516e+01 0.0 
3.065653897123e+01 -1.392357262981e+01 0.0 
3.071897610812e+01 -1.297447031198e+01 0.0 
2.986790411740e+01 -1.339226181535e+01 0.0 
2.993181466745e+01 -1.244703272398e+01 0.0 
2.908023061869e+01 -1.286254537734e+01 0.0 
2.901619051372e+01 -1.380881655279e+01 0.0 
2.822986160390e+01 -1.327695262116e+01 0.0 
2.829453476870e+01 -1.233265343811e+01 0.0 
2.744542905518e+01 -1.274510491105e+01 0.0 
2.751120089246e+01 -1.180368086886e+01 0.0 
2.666218649885e+01 -1.221619339205e+01 0.0 
2.672371209234e+01 -1.127125228527e+01 0.0 
2.587763216302e+01 -1.168539979114e+01 0.0 
2.581165585299e+01 -1.262994410089e+01 0.0 
2.502890882577e+01 -1.209827323619e+01 0.0 
2.509631327757e+01 -1.115492410304e+01 0.0 
2.424662989877e+01 -1.156630981079e+01 0.0 
2.431704046904e+01 -1.062389179334e+01 0.0 
2.346445438728e+01 -1.103427680694e+01 0.0 
2.339382552877e+01 -1.197964871788e+01 0.0 
2.260936050780e+01 -1.144513277642e+01 0.0 
2.268075012022e+01 -1.049911928216e+01 0.0 
2.182525737661e+01 -1.090920811464e+01 0.0 
2.189682319817e+01 -9.961716944568e+00 0.0 
2.104174127792e+01 -1.037266986667e+01 0.0 
2.111304367575e+01 -9.424179358711e+00 0.0 
2.025306185381e+01 -9.832727364719e+00 0.0 
2.018141124247e+01 -1.079140628871e+01 0.0 
1.938594498257e+01 -1.025147354112e+01 0.0 
1.946106490453e+01 -9.288010758448e+00 0.0 
1.858929958352e+01 -9.706319802516e+00 0.0 
1.851540991219e+01 -1.067205988724e+01 0.0 
1.771485303178e+01 -1.012504443115e+01 0.0 
1.764134552256e+01 -1.109360378538e+01 0.0 
1.683745148095e+01 -1.054496365337e+01 0.0 
1.691852964353e+01 -9.582555261178e+00 0.0 
1.603603813062e+01 -1.000160132379e+01 0.0 
1.595824239350e+01 -1.096750698862e+01 0.0 
1.515080624291e+01 -1.041639501931e+01 0.0 
1.523171602559e+01 -9.451711491453e+00 0.0 
1.434621060709e+01 -9.871956467464e+00 0.0 
1.426777178765e+01 -1.083749501371e+01 0.0 
1.345775282374e+01 -1.028803175500e+01 0.0 
1.354103873368e+01 -9.324918457162e+00 0.0 
1.265072018622e+01 -9.742612837270e+00 0.0 
1.257285762070e+01 -1.071557782384e+01 0.0 
1.175874815690e+01 -1.015972324288e+01 0.0 
1.184203019714e+01 -9.193604071377e+00 0.0 
1.094927709905e+01 -9.612103238656e+00 0.0 
1.086938022910e+01 -1.058685085646e+01 0.0 
1.005424098961e+01 -1.002939116380e+01 0.0 
9.977974613295e+00 -1.101324897989e+01 0.0 
1.012915646404e+01 -9.051815821181e+00 0.0 
9.237127782494e+00 -9.471239055559e+00 0.0 
9.308426593771e+00 -8.483376461131e+00 0.0 
8.418806073345e+00 -8.910712374517e+00 0.0 
2.253688464062e+01 -1.239459402279e+01 0.0 
8.495126726666e+00 -7.921646665254e+00 0.0 
9.389727383206e+00 -7.512103628377e+00 0.0 
7.601560812974e+00 -8.349460349344e+00 0.0 
7.525680547759e+00 -9.339736686940e+00 0.0 
7.677888324502e+00 -7.359727833346e+00 0.0 
6.782001206724e+00 -7.788454494773e+00 0.0 
6.858778622885e+00 -6.797338062822e+00 0.0 
2.196596590865e+01 -8.979025665442e+00 0.0 
2.816540108272e+01 -1.422634142353e+01 0.0 
5.961601194403e+00 -7.226824010712e+00 0.0 
6.038171749656e+00 -6.234825887079e+00 0.0 
6.936257279557e+00 -5.805287640737e+00 0.0 
6.115068918323e+00 -5.242109758768e+00 0.0 
3.564391741903e+01 -1.329240553876e+01 0.0 
3.558115605778e+01 -1.425902892003e+01 0.0 
3.645445282201e+01 -1.381970786460e+01 0.0 
3.639744204358e+01 -1.479198128612e+01 0.0 
3.727266909778e+01 -1.435399586226e+01 0.0 
5.216667013081e+00 -5.671788584287e+00 0.0 
3.220697293295e+01 -1.499594545107e+01 0.0 
3.551112158269e+01 -1.523479869250e+01 0.0 
2.836056961467e+01 -1.139032434851e+01 0.0 
2.516730388602e+01 -1.021382726837e+01 0.0 
1.844436907403e+01 -1.164097215196e+01 0.0 
5.885434318740e+00 -8.218694781467e+00 0.0 
5.064071066867e+00 -7.656614643901e+00 0.0 
4.988089103470e+00 -8.649722082718e+00 0.0 
1.079421050408e+01 -1.157014985435e+01 0.0 
9.902420005256e+00 -1.199903342656e+01 0.0 
1.071994252214e+01 -1.255727909771e+01 0.0 
9.826974788171e+00 -1.298659581767e+01 0.0 
1.064607883789e+01 -1.354595476388e+01 0.0 
9.751541265343e+00 -1.397556905071e+01 0.0 
8.932296185869e+00 -1.341553353988e+01 0.0 
8.856399248106e+00 -1.440570715508e+01 0.0 
8.036186803543e+00 -1.384470558472e+01 0.0 
1.057112875118e+01 -1.453516759081e+01 0.0 
1.146582585687e+01 -1.410539926903e+01 0.0 
7.959894480382e+00 -1.483563350928e+01 0.0 
7.138792279156e+00 -1.427465094140e+01 0.0 
7.062506792418e+00 -1.526615385482e+01 0.0 
6.240693558277e+00 -1.470508863040e+01 0.0 
6.316957575451e+00 -1.371212581281e+01 0.0 
5.418183007107e+00 -1.414253605022e+01 0.0 
5.494748364428e+00 -1.314886770603e+01 0.0 
1.756825565873e+01 -1.206433872514e+01 0.0 
1.837565773345e+01 -1.261356468266e+01 0.0 
1.749574831391e+01 -1.303769280014e+01 0.0 
1.830539187332e+01 -1.358828364284e+01 0.0 
1.742278925170e+01 -1.401367746928e+01 0.0 
1.823303007798e+01 -1.456432294258e+01 0.0 
1.734941694138e+01 -1.499213734361e+01 0.0 
1.653760041637e+01 -1.443920312098e+01 0.0 
3.056237977307e+01 -1.487132260174e+01 0.0 
1.866469084762e+01 -8.742953000418e+00 0.0 
1.953669694916e+01 -8.326038909849e+00 0.0 
1.874194303780e+01 -7.780688158966e+00 0.0 
1.961032016741e+01 -7.366854697285e+00 0.0 
1.881715755159e+01 -6.821102209649e+00 0.0 
1.968369797150e+01 -6.407747217358e+00 0.0 
1.889237123259e+01 -5.858375520026e+00 0.0 
1.802038875366e+01 -6.276202618170e+00 0.0 
1.809793837984e+01 -5.307629520489e+00 0.0 
1.721985207997e+01 -5.728242054488e+00 0.0 
1.729850893523e+01 -4.756990819347e+00 0.0 
1.641745664240e+01 -5.174636548624e+00 0.0 
2.495978509456e+01 -1.304406404294e+01 0.0 
1.911567814831e+01 -1.413854250293e+01 0.0 
1.904387332608e+01 -1.511463127723e+01 0.0 
1.992115934240e+01 -1.468788025898e+01 0.0 
7.013706899628e+00 -4.812582868662e+00 0.0 
5.342091874585e+00 -1.513658157269e+01 0.0 
1.139098043784e+01 -1.509488509480e+01 0.0 
1.228151810610e+01 -1.465617481983e+01 0.0 
1.646373110164e+01 -1.541993323337e+01 0.0 
5.293328636712e+00 -4.678385108584e+00 0.0 
1.975965862987e+01 -5.448124345648e+00 0.0 
2.054318374236e+01 -5.992561293251e+00 0.0 
3.721453439063e+01 -1.533216152738e+01 0.0 
3.809302733893e+01 -1.489235527381e+01 0.0 
1.220852788900e+01 -1.565304565230e+01 0.0 
4.394120899730e+00 -5.108397613210e+00 0.0 
8.779354620288e+00 -1.539524721159e+01 0.0 
1.817791047702e+01 -4.338570146253e+00 0.0 
4.518860013839e+00 -1.457343189307e+01 0.0 
4.442712140414e+00 -1.556841391069e+01 0.0 
8.115343466391e+00 -1.285760324283e+01 0.0 
1.985334703171e+01 -1.566478400426e+01 0.0 
2.071953850276e+01 -1.522074243119e+01 0.0 
1.634012953883e+01 -6.154777738301e+00 0.0 
1.553479994708e+01 -5.593730508879e+00 0.0 
1.561265946942e+01 -4.617761762647e+00 0.0 
1.470674212978e+01 -5.064576488228e+00 0.0 
1.464498299883e+01 -6.026514471420e+00 0.0 
1.383271561817e+01 -5.467796261169e+00 0.0 
1.389241253067e+01 -4.504338666645e+00 0.0 
1.301868735463e+01 -4.907185188626e+00 0.0 
1.294514184846e+01 -5.888160903592e+00 0.0 
1.212955968622e+01 -5.328262335277e+00 0.0 
1.220721122383e+01 -4.341264976687e+00 0.0 
1.131324345897e+01 -4.766773516508e+00 0.0 
5.266597955397e+00 -1.613148974258e+01 0.0 
1.737805990867e+01 -3.786677807525e+00 0.0 
3.078438094513e+01 -1.203225297748e+01 0.0 
1.131569882285e+01 -1.608511932110e+01 0.0 
1.728478341782e+01 -1.596017432313e+01 0.0 
3.803465906019e+01 -1.587509751228e+01 0.0 
3.891681276677e+01 -1.543395196905e+01 0.0 
3.897340985302e+01 -1.444710288980e+01 0.0 
3.980095968193e+01 -1.499059496613e+01 0.0 
3.974334598189e+01 -1.597921884150e+01 0.0 
4.062964983717e+01 -1.553518690417e+01 0.0 
4.068729602479e+01 -1.454434445295e+01 0.0 
4.151772679790e+01 -1.508974196007e+01 0.0 
4.157505195739e+01 -1.409694289912e+01 0.0 
4.240699932656e+01 -1.464347955968e+01 0.0 
4.234898051011e+01 -1.563721375790e+01 0.0 
4.323934606035e+01 -1.519082036405e+01 0.0 
4.329740528208e+01 -1.419587509788e+01 0.0 
4.413056841369e+01 -1.474359631875e+01 0.0 
4.418850110108e+01 -1.374786684042e+01 0.0 
4.502219770667e+01 -1.429605103525e+01 0.0 
4.496411937907e+01 -1.529215882720e+01 0.0 
4.490027319897e+00 -4.154167794594e+00 0.0 
1.565080385988e+01 -1.486411982419e+01 0.0 
1.557610691279e+01 -1.584855627870e+01 0.0 
4.195350646612e+00 -8.089117689096e+00 0.0 
4.124027797830e+00 -9.082831955007e+00 0.0 
4.917944318925e+00 -9.643530901533e+00 0.0 
4.020105689502e+00 -1.007439673661e+01 0.0 
4.587185899277e+01 -1.484039992728e+01 0.0 
4.580078661551e+01 -1.584043391042e+01 0.0 
2.061956522375e+01 -5.046701343981e+00 0.0 
2.139572955529e+01 -5.579553449826e+00 0.0 
3.715344357292e+01 -1.631485124583e+01 0.0 
3.618886196443e+00 -1.500471207167e+01 0.0 
3.695606940204e+00 -1.400939692294e+01 0.0 
2.438890661143e+01 -9.686110599723e+00 0.0 
2.523267572778e+01 -9.276766000622e+00 0.0 
2.446094171539e+01 -8.751904591412e+00 0.0 
2.529089822738e+01 -8.321495612547e+00 0.0 
2.606882688827e+01 -8.864724051119e+00 0.0 
2.452116646430e+01 -7.792756462004e+00 0.0 
1.235543269617e+01 -1.365845617339e+01 0.0 
4.318116874181e+01 -1.618567469992e+01 0.0 
7.835066111909e+00 -5.376366223896e+00 0.0 
7.905687335704e+00 -4.382539065697e+00 0.0 
3.542640009567e+00 -1.600035116542e+01 0.0 
1.572431503071e+01 -1.388358386695e+01 0.0 
2.574684696680e+01 -1.357896141127e+01 0.0 
2.488842657651e+01 -1.399674354505e+01 0.0 
2.568301775611e+01 -1.453552048595e+01 0.0 
2.481535572009e+01 -1.495542756508e+01 0.0 
2.561729699688e+01 -1.549784648532e+01 0.0 
2.474623061296e+01 -1.592058894178e+01 0.0 
2.394234041695e+01 -1.537572575827e+01 0.0 
2.065825452567e+01 -1.621899055217e+01 0.0 
2.387180528935e+01 -1.634552264687e+01 0.0 
4.585364400844e+01 -1.383912334080e+01 0.0 
1.998744432052e+01 -1.370317155541e+01 0.0 
1.205356951443e+01 -6.313580285498e+00 0.0 
5.396543905849e+00 -3.731818611283e+00 0.0 
1.139652573295e+01 -3.745819399350e+00 0.0 
3.574124306703e+00 -4.551456826011e+00 0.0 
3.494140761930e+00 -5.539787055649e+00 0.0 
1.213651452413e+01 -1.664505033022e+01 0.0 
2.555045568519e+01 -1.646529356744e+01 0.0 
2.641671114986e+01 -1.603899382371e+01 0.0 
2.612920721894e+01 -7.906435260873e+00 0.0 
2.690339829698e+01 -8.456969591431e+00 0.0 
1.978024383368e+01 -1.664410216353e+01 0.0 
3.732829979082e+01 -1.336926601859e+01 0.0 
4.074336584605e+01 -1.355133328401e+01 0.0 
4.163204691081e+01 -1.310280943992e+01 0.0 
3.773826114429e+00 -3.493444309145e+00 0.0 
1.228783001032e+01 -3.374822835872e+00 0.0 
4.057110462520e+01 -1.652588478000e+01 0.0 
2.132535497898e+01 -6.523623360525e+00 0.0 
2.216932532211e+01 -6.110044769206e+00 0.0 
1.825781152128e+01 -3.370146817147e+00 0.0 
1.745679445888e+01 -2.812942552063e+00 0.0 
4.666517057280e+01 -1.539981381543e+01 0.0 
4.660575894464e+01 -1.639014410186e+01 0.0 
4.838230979954e+00 -1.063643436446e+01 0.0 
3.938942630206e+00 -1.106778981745e+01 0.0 
1.302967218620e+01 -1.621373452436e+01 0.0 
1.049548003190e+01 -4.204825123240e+00 0.0 
4.573571907195e+01 -1.683820511148e+01 0.0 
1.483686335807e+01 -1.430849689310e+01 0.0 
1.490982658890e+01 -1.332679386284e+01 0.0 
3.190805600162e+00 -9.510968358545e+00 0.0 
2.146625721848e+01 -4.642437303115e+00 0.0 
2.069866208266e+01 -4.111852942193e+00 0.0 
1.286859345584e+01 -6.873252723348e+00 0.0 
1.041794493184e+01 -5.194814260291e+00 0.0 
2.671081808965e+00 -4.976806516331e+00 0.0 
1.295786792925e+01 -1.720506531799e+01 0.0 
3.968438206511e+01 -1.696869067241e+01 0.0 
2.308550456051e+01 -1.579963151273e+01 0.0 
2.315593682844e+01 -1.482967445235e+01 0.0 
2.299471449450e+01 -1.677069968132e+01 0.0 
1.057344714696e+01 -3.214252277840e+00 0.0 
1.124057603753e+01 -1.707713739755e+01 0.0 
2.718402535754e+00 -1.543629882103e+01 0.0 
2.638549692805e+01 -1.696744916809e+01 0.0 
2.723416349007e+01 -1.658104204545e+01 0.0 
2.210193351704e+01 -7.046769643417e+00 0.0 
2.295180925161e+01 -6.657397605239e+00 0.0 
2.301355235833e+01 -5.709111896800e+00 0.0 
2.379052718281e+01 -6.254965406962e+00 0.0 
3.243528601237e+01 -1.214181853533e+01 0.0 
2.287977995457e+01 -7.583722368300e+00 0.0 
2.999876029544e+01 -1.150837653096e+01 0.0 
3.084435366963e+01 -1.109693775882e+01 0.0 
3.006650579669e+01 -1.057778994262e+01 0.0 
2.683802665066e+01 -9.386863216633e+00 0.0 
2.768641973621e+01 -8.988883915666e+00 0.0 
2.040296980397e+01 -7.903629133404e+00 0.0 
1.925235024054e+01 -1.218872783130e+01 0.0 
5.735667000424e+00 -1.020577277283e+01 0.0 
6.396559909872e+00 -1.272326295703e+01 0.0 
1.161199420714e+01 -1.212812778229e+01 0.0 
4.229046132615e+01 -1.663084237572e+01 0.0 
4.312275399692e+01 -1.718087491556e+01 0.0 
4.335502068163e+01 -1.320039231514e+01 0.0 
4.424630298089e+01 -1.275160688731e+01 0.0 
7.090116643816e+00 -3.818998061530e+00 0.0 
7.989472176569e+00 -3.389238711200e+00 0.0 
9.085824861778e+00 -1.144036167408e+01 0.0 
1.041972423731e+01 -1.651614080893e+01 0.0 
3.797525112640e+01 -1.686052038746e+01 0.0 
3.709114253394e+01 -1.730125999865e+01 0.0 
3.626966748340e+01 -1.675477052919e+01 0.0 
1.385164591440e+01 -1.677597757552e+01 0.0 
1.787152588784e+01 -8.198993896093e+00 0.0 
1.668849729812e+01 -1.248560611628e+01 0.0 
1.659546177905e+01 -3.232482605530e+00 0.0 
2.332214717345e+01 -1.292598167641e+01 0.0 
7.168238450786e+00 -2.824711686516e+00 0.0 
2.894878403906e+01 -1.475427524446e+01 0.0 
2.646763248247e+00 -1.643270107952e+01 0.0 
3.467431944285e+00 -1.699648837348e+01 0.0 
2.059475877282e+01 -1.719473628526e+01 0.0 
3.333868355437e+01 -1.080596971682e+01 0.0 
2.246451062637e+01 -1.334557761546e+01 0.0 
2.167821896388e+01 -1.280847834858e+01 0.0 
3.089653185767e+01 -1.017198487212e+01 0.0 
3.012604365669e+01 -9.657298805968e+00 0.0 
2.929627299435e+01 -1.006100135274e+01 0.0 
2.936201435219e+01 -9.136748899251e+00 0.0 
1.198219052702e+01 -7.291887238230e+00 0.0 
1.116702076035e+01 -6.731976101053e+00 0.0 
2.551388807505e+01 -1.746927036981e+01 0.0 
2.378639090370e+01 -1.728678807149e+01 0.0 
2.718543627188e+01 -1.748668016909e+01 0.0 
2.804681050301e+01 -1.712626668293e+01 0.0 
1.970737034667e+01 -1.762317646822e+01 0.0 
1.889535776135e+01 -1.707158098231e+01 0.0 
2.593777711283e+00 -5.971157087874e+00 0.0 
2.773468281110e+01 -8.067164273938e+00 0.0 
4.051205884347e+01 -1.751819982458e+01 0.0 
3.166903145421e+01 -1.068032992414e+01 0.0 
1.033042452886e+01 -1.748285844336e+01 0.0 
9.519274604626e+00 -1.694349240233e+01 0.0 
1.668308673328e+01 -2.255861778986e+00 0.0 
1.570531902832e+01 -2.676795860126e+00 0.0 
4.655826903379e+01 -1.736656245706e+01 0.0 
2.384148070773e+01 -5.328744256413e+00 0.0 
2.460255123641e+01 -5.852182672816e+00 0.0 
2.306638135119e+01 -4.798935440613e+00 0.0 
8.467720450578e-01 -1.849576263072e+01 0.0 
4.849657322345e+01 -1.084860705506e+01 0.0 
2.565860899507e+00 -1.742859793981e+01 0.0 
2.764418872564e+01 -9.927142821799e+00 0.0 
4.565165880064e+01 -1.785336695404e+01 0.0 
2.162231831329e+01 -1.376528337468e+01 0.0 
2.360646352969e+01 -9.136041963102e+00 0.0 
1.392738739903e+01 -1.578285505772e+01 0.0 
4.756405947478e+01 -1.683706841809e+01 0.0 
4.740895034054e+01 -1.793766756892e+01 0.0 
4.080779328826e+01 -1.257387192544e+01 0.0 
4.168907939671e+01 -1.210739129181e+01 0.0 
3.991197722154e+01 -1.300815793917e+01 0.0 
1.905536506762e+01 -3.940076697685e+00 0.0 
1.923879596617e+01 -2.875000734166e+00 0.0 
4.401386745746e+01 -1.673483229438e+01 0.0 
4.247233362525e+00 -7.094581653070e+00 0.0 
3.286051630211e+00 -7.635300020553e+00 0.0 
9.609533347623e+00 -4.594311677967e+00 0.0 
9.523554636369e+00 -5.595597029530e+00 0.0 
5.660336628893e+00 -1.119290329628e+01 0.0 
6.558070063295e+00 -1.076385809362e+01 0.0 
2.809866407414e+01 -1.518037766799e+01 0.0 
2.888868674504e+01 -1.570360690070e+01 0.0 
2.654431550819e+01 -1.411217777162e+01 0.0 
1.402158265969e+01 -1.375404617952e+01 0.0 
1.409592494026e+01 -1.277071998942e+01 0.0 
1.499355196178e+01 -1.235270737023e+01 0.0 
4.221535326155e+01 -1.759335617494e+01 0.0 
4.305583287033e+01 -1.822663146802e+01 0.0 
1.280748808359e+01 -7.834332838285e+00 0.0 
1.368988389326e+01 -7.420529606172e+00 0.0 
1.110091796060e+01 -7.683966794328e+00 0.0 
3.963446145980e+01 -1.794331310122e+01 0.0 
3.423932362213e+00 -1.796415590455e+01 0.0 
4.280814572302e+00 -1.752272834860e+01 0.0 
8.050136380041e+00 -2.421582378631e+00 0.0 
8.888674091650e+00 -2.984264211327e+00 0.0 
2.152839430898e+01 -3.732609965436e+00 0.0 
2.077799585292e+01 -3.183896021866e+00 0.0 
3.618719395821e+01 -1.770276572576e+01 0.0 
3.538165138340e+01 -1.718709995539e+01 0.0 
3.702925326420e+01 -1.828844288807e+01 0.0 
1.756739438711e+00 -5.353284859169e+00 0.0 
2.233710191104e+01 -1.527265621324e+01 0.0 
1.389483555057e+01 -1.771797164730e+01 0.0 
1.475634224300e+01 -1.728357428390e+01 0.0 
1.298797563052e+01 -1.825968924755e+01 0.0 
2.145331271866e+01 -1.673705379077e+01 0.0 
2.133282821169e+01 -1.769400773673e+01 0.0 
2.292139194136e+01 -1.774915400288e+01 0.0 
1.750750053243e+01 -1.861475593469e+00 0.0 
4.830478841772e+01 -1.752611802221e+01 0.0 
4.341203507805e+01 -1.220326745522e+01 0.0 
1.685254151866e+01 -1.443085301632e+00 0.0 
4.431538535165e+01 -1.171841387375e+01 0.0 
4.511308610496e+01 -1.229557320599e+01 0.0 
4.510133242889e+01 -1.123680627466e+01 0.0 
1.846818030617e+00 -4.410877617069e+00 0.0 
3.995468694584e+01 -1.186571542989e+01 0.0 
3.901387459804e+01 -1.242507616755e+01 0.0 
8.966735877533e+00 -1.837818700423e+00 0.0 
4.049310011091e+01 -1.848269508791e+01 0.0 
7.278862053803e+00 -1.918523922691e+00 0.0 
6.429715522129e+00 -2.316676521184e+00 0.0 
9.443505505022e+00 -1.792198868094e+01 0.0 
8.620386951051e+00 -1.737590365556e+01 0.0 
8.571868171503e+00 -1.834436667826e+01 0.0 
7.758629848526e+00 -1.775677907213e+01 0.0 
7.806648388584e+00 -1.680761266021e+01 0.0 
6.908555145436e+00 -1.723746463044e+01 0.0 
4.251709122090e+01 -1.156937480156e+01 0.0 
6.931136405615e+00 -1.832465719263e+01 0.0 
6.015545461353e+00 -1.768865355295e+01 0.0 
5.960535926343e+00 -1.872011001764e+01 0.0 
3.023253444786e+01 -8.761960642196e+00 0.0 
2.454622702599e+01 -6.749421992767e+00 0.0 
2.537499741604e+01 -6.347634963783e+00 0.0 
2.544077378460e+01 -5.431358513649e+00 0.0 
2.801367161747e+01 -1.820907270221e+01 0.0 
2.884507806914e+01 -1.762032095326e+01 0.0 
1.821474531936e+00 -1.588901260460e+01 0.0 
1.821006262604e+00 -1.489370287756e+01 0.0 
4.599962488908e+01 -1.176478780598e+01 0.0 
4.705457470007e+01 -1.172182804229e+01 0.0 
4.667668314802e+01 -1.263464558483e+01 0.0 
4.759648056504e+01 -1.252380987933e+01 0.0 
4.728041618103e+01 -1.341928568376e+01 0.0 
4.825209352360e+01 -1.330491640804e+01 0.0 
4.778118233428e+01 -1.420151961695e+01 0.0 
2.388192727579e+01 -1.826934810142e+01 0.0 
2.381714684947e+01 -4.385917965223e+00 0.0 
3.172733219247e+01 -9.758744265248e+00 0.0 
1.882012070658e+01 -1.805540597212e+01 0.0 
1.805667505243e+01 -1.742221226236e+01 0.0 
2.852599958080e+01 -8.597196079481e+00 0.0 
2.856486123437e+01 -7.661382718527e+00 0.0 
1.111792842875e+01 -1.818223852980e+01 0.0 
2.203322722466e+01 -7.986646678802e+00 0.0 
3.955703676900e+01 -1.903246763601e+01 0.0 
1.944842206513e+01 -8.038750575182e-01 0.0 
1.909882767783e+01 -1.746322740933e+00 0.0 
2.281147422941e+01 -8.525912918334e+00 0.0 
2.850633001468e+01 -9.533271335986e+00 0.0 
2.532883344309e+01 -7.308951659710e+00 0.0 
2.620475466461e+01 -6.979208585400e+00 0.0 
1.396278270396e+01 -1.475095389807e+01 0.0 
9.791001166724e+00 -2.554159793552e+00 0.0 
2.229293380421e+01 -4.269762271052e+00 0.0 
4.677238984118e+01 -1.430071795514e+01 0.0 
2.228658385918e+01 -3.344747535984e+00 0.0 
8.940223674553e-01 -1.543595733415e+01 0.0 
2.118566862474e+01 -8.435876987696e+00 0.0 
2.678325936437e+01 -1.032621195706e+01 0.0 
2.223400220487e+01 -5.179046761770e+00 0.0 
2.375370625384e+01 -7.251580562134e+00 0.0 
3.156971327386e+01 -1.255534750737e+01 0.0 
3.328226391312e+01 -1.172914813316e+01 0.0 
3.250948774219e+01 -1.120157009348e+01 0.0 
2.032993445717e+01 -8.867880112202e+00 0.0 
2.697226974856e+01 -7.536633082045e+00 0.0 
2.707377810386e+01 -6.590835263295e+00 0.0 
2.914099246827e+01 -1.191678458549e+01 0.0 
3.544824072239e+01 -1.621126558525e+01 0.0 
3.456511855436e+01 -1.665054783843e+01 0.0 
3.448395810225e+01 -1.759117813016e+01 0.0 
3.368378673938e+01 -1.708037781328e+01 0.0 
3.375560452567e+01 -1.610973066913e+01 0.0 
3.288001547988e+01 -1.654324255651e+01 0.0 
3.282475929147e+01 -1.749725654692e+01 0.0 
3.199880906313e+01 -1.697294088625e+01 0.0 
3.197001272932e+01 -1.811667776864e+01 0.0 
3.111884713021e+01 -1.742166785755e+01 0.0 
3.120418962865e+01 -1.642155709385e+01 0.0 
3.034666704371e+01 -1.683123833816e+01 0.0 
3.026224379976e+01 -1.772592851714e+01 0.0 
3.046632362943e+01 -1.582232843075e+01 0.0 
1.961344017324e+01 -1.857459447985e+01 0.0 
2.274975894774e+01 -9.532738811922e+00 0.0 
1.833923246887e+01 -2.396746883672e+00 0.0 
1.988859500848e+01 -2.249244376594e+00 0.0 
2.758045562861e+01 -1.086434261689e+01 0.0 
3.247300178163e+01 -1.909930104252e+01 0.0 
3.461947482503e+01 -1.911879848019e+01 0.0 
2.047161538662e+01 -6.941478180358e+00 0.0 
2.750230940214e+01 -1.915490590764e+01 0.0 
3.165081350803e+01 -1.161860780120e+01 0.0 
1.897456727641e+01 -4.889634688522e+00 0.0 
2.549338539756e+01 -1.914858252089e+01 0.0 
3.462873135081e+01 -1.567482276144e+01 0.0 
3.384432415243e+01 -1.512280684518e+01 0.0 
3.471433767690e+01 -1.469086942990e+01 0.0 
3.651470373046e+01 -1.918207952149e+01 0.0 
3.901742690249e+01 -1.345028556517e+01 0.0 
2.153224102692e+01 -1.920169709333e+01 0.0 
1.918382939341e+01 -1.316226275662e+01 0.0 
2.005389162382e+01 -1.271962165174e+01 0.0 
2.011472087878e+01 -1.175029352900e+01 0.0 
3.210679478412e+01 -1.598038618242e+01 0.0 
1.752175226543e+01 -1.914713022656e+01 0.0 
1.696897240059e+01 -1.832772588765e+01 0.0 
1.599682523337e+01 -1.832599992024e+01 0.0 
1.644507199462e+01 -1.743697981535e+01 0.0 
1.549987712903e+01 -1.915192375101e+01 0.0 
3.050250861901e+01 -1.918943550234e+01 0.0 
2.949944061527e+01 -1.922950455235e+01 0.0 
1.375892575273e+01 -6.447160534926e+00 0.0 
1.457223670180e+01 -7.006709243857e+00 0.0 
1.450818793236e+01 -7.965943451779e+00 0.0 
1.538804712402e+01 -7.553409623699e+00 0.0 
1.545817644768e+01 -6.580929593419e+00 0.0 
1.626506893751e+01 -7.129032608911e+00 0.0 
1.619833811522e+01 -8.086588580887e+00 0.0 
1.714448609609e+01 -6.697429609777e+00 0.0 
2.887616543568e+01 -1.668015232137e+01 0.0 
1.349814589130e+01 -1.918225301544e+01 0.0 
1.153887772210e+01 -1.311384581217e+01 0.0 
1.242708159886e+01 -1.267046795531e+01 0.0 
1.249799674267e+01 -1.169005616014e+01 0.0 
6.631723893693e+00 -9.774184881867e+00 0.0 
7.451471631867e+00 -1.033148796006e+01 0.0 
7.377795355458e+00 -1.132196345268e+01 0.0 
5.810931797536e+00 -9.211654212252e+00 0.0 
2.402683899133e+01 -1.441378562320e+01 0.0 
1.249768692036e+01 -1.917388426624e+01 0.0 
1.580373499437e+01 -1.290751860664e+01 0.0 
8.344650507834e+00 -9.898403995170e+00 0.0 
3.750622115305e+01 -1.086526401533e+01 0.0 
3.699391251667e+01 -1.171695900794e+01 0.0 
3.606517829518e+01 -1.173717504500e+01 0.0 
3.650257641795e+01 -1.270047380221e+01 0.0 
3.808951488918e+01 -1.183518714175e+01 0.0 
4.760380962420e+00 -1.162484888315e+01 0.0 
3.861210370848e+00 -1.205657631736e+01 0.0 
3.038284309476e+00 -1.149851280664e+01 0.0 
2.961598794889e+00 -1.248856794980e+01 0.0 
2.138953225512e+00 -1.193212674534e+01 0.0 
2.227383593457e+00 -1.096258903918e+01 0.0 
2.043265419276e+00 -1.292158472959e+01 0.0 
1.252449446028e+00 -1.225502002753e+01 0.0 
3.949985210740e+01 -1.086594001795e+01 0.0 
1.453499444792e+01 -8.768805922472e-01 0.0 
1.403518950933e+01 -1.749965556633e+00 0.0 
1.300715031023e+01 -1.714737233040e+00 0.0 
1.350929389899e+01 -2.527443911291e+00 0.0 
1.449600910711e+01 -2.595486162864e+00 0.0 
1.395693872901e+01 -3.484211041558e+00 0.0 
1.495105865208e+01 -3.364609636216e+00 0.0 
1.508822528740e+01 -1.766586020494e+00 0.0 
1.250223858430e+01 -8.634590186802e-01 0.0 
1.200279523409e+01 -1.709044504992e+00 0.0 
1.150086239419e+01 -8.592789190668e-01 0.0 
1.101482754194e+01 -1.677730591922e+00 0.0 
1.148018564526e+01 -2.659323866909e+00 0.0 
8.800552119754e+00 -3.989875954728e+00 0.0 
3.452790439430e+00 -1.901136170646e+01 0.0 
8.658451825200e-01 -9.503462241795e+00 0.0 
1.694787786797e+00 -9.000589234502e+00 0.0 
1.703436717094e+00 -8.038819004041e+00 0.0 
2.594197971110e+00 -8.563955242845e+00 0.0 
1.630513735412e+00 -9.907244747511e+00 0.0 
8.566859292791e-01 -7.512203837972e+00 0.0 
1.685461277022e+00 -7.164280248030e+00 0.0 
2.506394468801e+00 -8.623386730818e-01 0.0 
2.007475081581e+00 -1.727729545205e+00 0.0 
9.211534699767e-01 -1.628791366312e+00 0.0 
1.500000000020e+00 -2.598063549486e+00 0.0 
2.482078929963e+00 -2.553580088725e+00 0.0 
2.999795253092e+00 -1.732169015019e+00 0.0 
3.999712607169e+00 -1.728832897453e+00 0.0 
4.499752199340e+00 -8.656478679175e-01 0.0 
4.964377774841e+00 -1.730129617941e+00 0.0 
4.425017908337e+00 -2.597541756243e+00 0.0 
5.446573195014e+00 -8.410144840023e-01 0.0 
4.915722346614e+01 -1.550640962770e+01 0.0 
4.826794919243e+01 -1.600000000000e+01 0.0 
1.053139533193e+01 -1.911782884365e+01 0.0 
4.156049861949e+01 -1.095160998589e+01 0.0 
9.494526624416e+00 -8.650570090219e-01 0.0 
4.555762166964e+01 -1.897098103585e+01 0.0 
4.250656411371e+01 -1.914387356218e+01 0.0 
4.350906466345e+01 -1.917234727395e+01 0.0 
8.759665722424e-01 -1.746422130609e+01 0.0 
1.698936011838e+00 -1.795012186674e+01 0.0 
4.742476811029e+01 -1.900090177972e+01 0.0 
7.749196752349e+00 -6.368049313489e+00 0.0 
3.361572113416e+01 -1.798765193915e+01 0.0 
4.484660149212e+01 -1.728661231383e+01 0.0 
1.984038172228e+01 -4.502575320116e+00 0.0 
1.035080352627e+01 -6.166639575753e+00 0.0 
2.753558010652e+00 -1.444909521181e+01 0.0 
7.217069543032e+00 -1.328635391078e+01 0.0 
4.364336727739e+00 -1.655585677381e+01 0.0 
4.595208426108e+00 -1.357919665443e+01 0.0 
6.164967006980e+00 -1.569873454630e+01 0.0 
1.487855768353e+01 -1.826523774028e+01 0.0 
2.791876456372e+00 -4.019632415181e+00 0.0 
4.246464893515e+01 -1.364898659620e+01 0.0 
4.503855590351e+01 -1.329552780944e+01 0.0 
4.407239109604e+01 -1.573900004093e+01 0.0 
5.141054449252e+00 -6.664290382472e+00 0.0 
3.141083947149e+00 -1.055790764912e+01 0.0 
6.196463198741e+00 -4.256497932609e+00 0.0 
2.599618716181e+01 -1.836893455464e+01 0.0 
2.923057372337e+01 -1.098461757645e+01 0.0 
1.168343877486e+01 -1.114079645041e+01 0.0 
6.706222096238e+00 -8.780364234441e+00 0.0 
8.567858614669e+00 -6.943121440850e+00 0.0 
1.123755132901e+01 -5.753525820030e+00 0.0 
2.353456234423e+01 -1.008536320953e+01 0.0 
9.162073319168e+00 -1.045593739109e+01 0.0 
9.676343469685e+00 -1.496493008366e+01 0.0 
4.490637882905e+01 -1.628778970202e+01 0.0 
7.398129387772e+00 -9.639977982323e-01 0.0 
1.049641705805e+01 -1.552503975272e+01 0.0 
9.010356286268e+00 -1.242805042052e+01 0.0 
3.985573925497e+01 -1.399863651620e+01 0.0 
1.816196318262e+01 -1.554066497931e+01 0.0 
1.306332244168e+01 -3.963646550326e+00 0.0 
4.145850903932e+01 -1.608094559275e+01 0.0 
3.794664933633e+01 -1.779020121986e+01 0.0 
3.819614412903e+01 -1.290749321016e+01 0.0 
6.270014188119e+00 -3.255093186826e+00 0.0 
4.251165370388e+01 -1.263870364997e+01 0.0 
1.207347709171e+01 -1.763942826023e+01 0.0 
3.633240829927e+01 -1.577330481104e+01 0.0 
4.319052668832e+00 -6.101812561904e+00 0.0 
1.676492415806e+01 -1.151547901392e+01 0.0 
2.594059220037e+01 -1.074225223009e+01 0.0 
3.340750911501e+01 -9.898764354137e+00 0.0 
4.397619591281e+01 -1.769773736461e+01 0.0 
2.175611595028e+01 -1.185718747128e+01 0.0 
1.641818733106e+01 -1.640685203215e+01 0.0 
1.661211421753e+01 -1.346121366338e+01 0.0 
3.428853504935e+00 -6.551993389271e+00 0.0 
8.700728832502e+00 -1.638460872825e+01 0.0 
1.931369795309e+01 -1.121629383702e+01 0.0 
4.139798872363e+01 -1.706922153459e+01 0.0 
2.647837478700e+01 -1.507353829290e+01 0.0 
1.779469616424e+01 -9.161615782908e+00 0.0 
3.885879219319e+01 -1.642026488918e+01 0.0 
1.338194936770e+01 -1.125916521471e+01 0.0 
1.897071181111e+01 -1.609204322578e+01 0.0 
2.844308548793e+01 -1.046221003096e+01 0.0 
2.659854702194e+01 -1.316109415760e+01 0.0 
2.979604503271e+01 -1.433296157755e+01 0.0 
2.417694041347e+01 -1.251231397779e+01 0.0 
1.807401327411e+00 -1.388891148480e+01 0.0 
9.599810618782e+00 -1.595439365034e+01 0.0 
1.652144692160e+01 -4.205392788472e+00 0.0 
2.367839450246e+01 -8.188385218643e+00 0.0 
3.814894930468e+01 -1.390748338767e+01 0.0 
2.466448215774e+01 -1.685878545680e+01 0.0 
4.134044524611e+01 -1.806610045954e+01 0.0 
2.600511411958e+01 -9.801774120648e+00 0.0 
7.882158050716e+00 -1.582364037353e+01 0.0 
3.881607873422e+01 -1.737970515013e+01 0.0 
8.270182347708e+00 -1.088622154920e+01 0.0 
8.672520392520e-01 -4.532984309881e+00 0.0 
1.993447205337e+01 -3.579061902667e+00 0.0 
1.794616079549e+01 -7.238038888498e+00 0.0 
2.097277068165e+01 -1.132450168636e+01 0.0 
8.194803300681e+00 -1.187214224265e+01 0.0 
3.522279404911e+01 -1.823342818178e+01 0.0 
6.984481050295e+00 -1.625271465557e+01 0.0 
1.309433007797e+01 -1.521718594215e+01 0.0 
2.150246167611e+01 -1.885399038185e+00 0.0 
3.250689370209e+01 -1.028789870535e+01 0.0 
6.085886272238e+00 -1.668342132851e+01 0.0 
1.588455661727e+01 -1.193498985921e+01 0.0 
1.809323400821e+01 -1.651110084195e+01 0.0 
1.348885082381e+00 -1.136065576512e+01 0.0 
2.497670221995e+01 -1.834631276173e+01 0.0 
2.937062818424e+01 -8.233711194470e+00 0.0 
5.185823744469e+00 -1.711566910207e+01 0.0 
1.477497877209e+01 -1.530177014512e+01 0.0 
2.125346158933e+01 -7.473003997367e+00 0.0 
4.751561118290e+01 -1.084897772632e+01 0.0 
5.056026576843e+00 -1.825750475525e+01 0.0 
1.473948554523e+01 -1.634577436309e+01 0.0 
2.410566630936e+01 -1.345970002612e+01 0.0 
1.507337507513e+01 -1.138527895328e+01 0.0 
3.189857338687e+01 -8.887781229006e+00 0.0 
7.298712468334e+00 -1.230231046246e+01 0.0 
2.738235495295e+01 -1.368931690364e+01 0.0 
3.750141041969e+01 -1.920449893070e+01 0.0 
1.557271965640e+01 -1.683317951731e+01 0.0 
3.393731848929e+01 -1.413034777044e+01 0.0 
6.482156824153e+00 -1.174575135362e+01 0.0 
2.077971718439e+01 -1.421279621836e+01 0.0 
3.455084320178e+00 -2.562590040585e+00 0.0 
3.099056096250e+01 -9.270280416035e+00 0.0 
5.580176125418e+00 -1.217387969259e+01 0.0 
1.707247630389e+01 -7.660651981710e+00 0.0 
1.418658814174e+01 -1.180390575393e+01 0.0 
2.049103025389e+01 -1.811296706038e+01 0.0 
4.680386172316e+00 -1.260396879301e+01 0.0 
1.699679896554e+01 -8.624561788199e+00 0.0 
3.779470168555e+00 -1.303424899720e+01 0.0 
3.036589870126e+01 -7.879832518349e+00 0.0 
3.306993001774e+01 -1.457671062095e+01 0.0 
2.840150110165e+00 -1.346530088269e+01 0.0 
2.732011135052e+01 -1.464591214560e+01 0.0 
5.423639259568e+00 -2.659711955016e+00 0.0 
2.324455961696e+01 -1.387269388211e+01 0.0 
1.752768355571e+00 -1.693128613594e+01 0.0 
1.020244783051e+01 -8.076834012808e+00 0.0 
1.330873875224e+01 -1.222417528206e+01 0.0 
3.297727364880e+01 -1.555480372087e+01 0.0 
2.890929955439e+01 -6.868664170731e+00 0.0 
1.323294664622e+01 -1.320754260334e+01 0.0 
2.726532861246e+01 -1.560593120806e+01 0.0 
2.240020643398e+01 -1.429299177247e+01 0.0 
2.090445823633e+01 -1.228128621332e+01 0.0 
1.315809881502e+01 -1.420739326938e+01 0.0 
2.781328038068e+01 -7.181956082300e+00 0.0 
8.614200829057e+00 -5.936933226306e+00 0.0 
8.714765730069e+00 -4.979270529687e+00 0.0 
1.611881701099e+01 -9.041973294003e+00 0.0 
2.806830314340e+01 -1.614622947108e+01 0.0 
2.084435391396e+00 -3.385085422913e+00 0.0 
3.133211811152e+01 -1.542347619750e+01 0.0 
9.693114650768e+00 -3.590281506442e+00 0.0 
1.531883592202e+01 -8.504584946143e+00 0.0 
2.151589117094e+01 -1.578915763018e+01 0.0 
4.918943882696e+01 -1.355538828056e+01 0.0 
1.443236615188e+01 -8.918701794549e+00 0.0 
8.276250966452e-01 -5.537685192197e+00 0.0 
1.362790867918e+01 -8.374718262212e+00 0.0 
2.083767477370e+01 -1.324843956035e+01 0.0 
1.273834678703e+01 -8.790890389337e+00 0.0 
1.192275845670e+01 -8.242261327467e+00 0.0 
4.477236023583e+01 -1.824312396664e+01 0.0 
1.102989384254e+01 -8.649855800911e+00 0.0 
4.849096516045e+01 -1.917293752213e+01 0.0 
1.588996752238e+00 -1.910230934687e+01 0.0 
4.904245197583e+01 -1.159839008158e+01 0.0 
2.753852929608e+01 -5.782128488093e+00 0.0 
1.756133602833e+01 -8.306130313187e-01 0.0 
2.615423700951e+01 -6.153865090092e+00 0.0 
1.028818761294e+01 -7.122020845892e+00 0.0 
2.970818901196e+01 -1.527821347593e+01 0.0 
4.801461623449e+01 -1.164472570985e+01 0.0 
9.455722100419e+00 -6.546069291118e+00 0.0 
3.089099236677e+01 -1.835339328261e+01 0.0 
2.350000000013e+01 -1.920825896750e+01 0.0 
4.830620531887e+01 -1.506626155470e+01 0.0 
1.725381944701e+01 -1.688794487850e+01 0.0 
2.156246225273e+01 -1.475893794002e+01 0.0 
4.919319648787e+01 -1.742767505896e+01 0.0 
4.437935623576e+01 -1.077662927266e+01 0.0 
1.001520521978e+01 -1.652692675208e+00 0.0 
9.067160240050e-01 -1.441937727541e+01 0.0 
2.603365149390e+01 -4.755996613848e+00 0.0 
2.458344439002e+01 -4.873645517696e+00 0.0 
2.304312390142e+01 -3.836552768096e+00 0.0 
2.546923202198e+00 -6.902480355749e+00 0.0 
1.251534969393e+01 -2.490989965776e+00 0.0 
2.454061833377e+01 -3.933354231935e+00 0.0 
1.788186558740e+01 -1.827424884923e+01 0.0 
4.090785243552e+01 -1.166553231904e+01 0.0 
2.230128851568e+01 -1.623015738726e+01 0.0 
2.302362347568e+01 -2.916239960270e+00 0.0 
3.878119254461e+01 -1.830091164002e+01 0.0 
2.210081359958e+01 -1.829238229150e+01 0.0 
8.443704882233e+00 -1.921993252862e+01 0.0 
2.218405824691e+01 -1.724557581508e+01 0.0 
2.151157503963e+01 -2.790636689331e+00 0.0 
3.741658958955e+01 -1.250400191722e+01 0.0 
2.697247663737e+01 -1.838290202309e+01 0.0 
4.743362342862e+01 -1.585850773010e+01 0.0 
6.671345075358e+00 -1.924977576322e+01 0.0 
3.900825404537e+01 -1.157220003875e+01 0.0 
4.649692961375e+01 -1.836335837481e+01 0.0 
1.578831424832e+01 -3.678284023361e+00 0.0 
4.814208768888e+01 -1.841249298770e+01 0.0 
2.964123298315e+01 -1.625739458193e+01 0.0 
4.580760351902e+01 -1.284294554687e+01 0.0 
3.561520879615e+01 -1.245548941949e+01 0.0 
2.555418095658e+00 -1.841101588290e+01 0.0 
3.288468366144e+01 -1.834258164109e+01 0.0 
2.065894391445e+01 -2.240688571739e+00 0.0 
4.739171429915e+01 -1.496536413446e+01 0.0 
3.478086729185e+00 -8.576434653209e+00 0.0 
1.606010630246e+01 -1.588421807951e+00 0.0 
1.018329200594e+01 -1.834320874317e+01 0.0 
2.957213339430e+01 -1.720496954591e+01 0.0 
4.142712790164e+00 -1.837794506222e+01 0.0 
6.698721532573e-01 -2.499999999997e+00 0.0 
8.037039123140e+00 -1.571229354954e+00 0.0 
1.203541361428e+01 -1.847784298001e+01 0.0 
2.899968332038e+01 -1.848264722179e+01 0.0 
1.469229460948e+01 -4.219485753730e+00 0.0 
4.049590781957e+01 -1.932812501995e+01 0.0 
1.996211678340e+01 -1.506329754720e+00 0.0 
4.250588298353e+01 -1.067383247529e+01 0.0 
5.831497011152e+00 -1.635396227234e+00 0.0 
5.317606125670e+00 -1.923927974868e+01 0.0 
4.208546426993e+01 -1.842830665025e+01 0.0 
2.327553405011e+00 -9.459409929662e+00 0.0 
3.568351902251e+01 -1.096637218582e+01 0.0 
1.682104374890e+00 -6.231413350963e+00 0.0 
2.451812238018e+01 -1.766524914339e+01 0.0 
1.058003429638e+01 -2.391839617098e+00 0.0 
4.399988753123e+01 -1.851998776342e+01 0.0 
1.400000000010e+01 -1.852293523028e+01 0.0 
3.604719565984e+01 -1.850662876800e+01 0.0 
1.951297136734e+01 -1.938092349694e+01 0.0 
1.821365318472e+01 -1.531276353287e+00 0.0 
2.298031859732e+01 -1.854635324722e+01 0.0 
1.552168066204e+01 -1.764280741977e+01 0.0 
4.572957713638e+01 -1.073347898229e+01 0.0 
3.429637429624e+01 -1.838861552790e+01 0.0 
2.427434426052e+00 -7.705577451869e+00 0.0 
4.662792031485e+00 -3.359424455416e+00 0.0 
4.926794919243e+01 -1.926794919243e+01 0.0 
7.320508075690e-01 -7.320508075688e-01 0.0 
4.926794919243e+01 -1.073205080757e+01 0.0 
7.320508075705e-01 -1.926794919243e+01 0.0 
2.917460242467e+00 -3.202866455310e+00 0.0 
4.838200575963e+01 -1.232674147454e+01 0.0 
2.998445708009e+01 -1.854403752148e+01 0.0 
5.949940090766e-01 -1.152762038165e+01 0.0 
4.844763495759e+01 -1.678092548787e+01 0.0 
1.301685480160e+01 -3.170056592566e+00 0.0 
1.650046335855e+01 -6.731535384067e-01 0.0 
4.854881540991e+01 -1.405224059779e+01 0.0 
2.119545114693e+01 -1.846813384545e+01 0.0 
3.797852849897e+01 -1.857978513215e+01 0.0 
4.649823708745e+01 -1.338351810816e+01 0.0 
2.012685900976e+01 -2.889659035009e+00 0.0 
2.953271913273e+01 -1.791558075192e+01 0.0 
2.408509097292e+00 -1.021949208421e+01 0.0 
2.642589566221e+01 -1.773216561448e+01 0.0 
1.730010270775e+01 -1.763165076721e+01 0.0 
2.017406551304e+01 -8.513536440582e-01 0.0 
5.254761581934e-01 -1.249999999999e+01 0.0 
6.640448215642e+00 -1.545337834885e+00 0.0 
7.843361506349e+00 -1.852719839527e+01 0.0 
1.588442191088e+00 -1.066158564320e+01 0.0 
2.431250000000e+01 -2.420918367347e+00 0.0 
4.950961538461e+01 -2.500000000000e+00 0.0 
2.580823483239e+01 -3.416278049680e+00 0.0 
4.950961538461e+01 -3.500000000000e+00 0.0 
2.731250000000e+01 -4.420918367347e+00 0.0 
4.951086956522e+01 -4.500000000000e+00 0.0 
2.880770112393e+01 -5.415638864241e+00 0.0 
4.951086956522e+01 -5.500000000000e+00 0.0 
3.031250000000e+01 -6.420918367347e+00 0.0 
4.951250000000e+01 -6.500000000000e+00 0.0 
3.180701530612e+01 -7.414795918363e+00 0.0 
4.951250000000e+01 -7.500000000000e+00 0.0 
3.331250000000e+01 -8.420918367347e+00 0.0 
4.951470588234e+01 -8.500000000000e+00 0.0 
3.480610198624e+01 -9.413633635267e+00 0.0 
4.951470588234e+01 -9.500000000000e+00 0.0 

CELLS 2299 9196 
3 355 825 1101 
3 825 355 1103 
3 835 328 846 
3 948 713 1137 
3 715 775 941 
3 805 718 844 
3 335 757 759 
3 355 782 1103 
3 757 335 775 
3 708 943 1137 
3 327 902 903 
3 782 355 1117 
3 947 1099 1143 
3 764 895 985 
3 1099 361 1143 
3 354 948 1137 
3 763 334 904 
3 718 805 843 
3 342 762 1084 
3 762 342 1022 
3 943 708 1096 
3 1073 319 1079 
3 800 1073 1079 
3 750 749 959 
3 449 605 894 
3 902 327 1011 
3 113 82 1164 
3 794 320 1036 
3 447 449 894 
3 959 749 1169 
3 699 909 911 
3 352 765 942 
3 835 846 1144 
3 19 340 815 
3 350 769 771 
3 778 66 1135 
3 66 778 1161 
3 797 346 841 
3 761 104 1114 
3 104 761 1175 
3 1037 779 1063 
3 315 801 940 
3 1118 316 1122 
3 82 364 1164 
3 756 363 1113 
3 795 1118 1122 
3 909 699 912 
3 363 756 1139 
3 905 906 912 
3 895 764 1136 
3 357 800 1037 
3 747 762 1022 
3 525 1138 1156 
3 357 1037 1063 
3 847 329 1027 
3 1120 692 1165 
3 747 1022 1091 
3 340 785 815 
3 608 936 1054 
3 943 354 1137 
3 314 1148 1189 
3 1128 754 1130 
3 574 602 808 
3 1138 911 1156 
3 919 738 1143 
3 800 357 1073 
3 1148 758 1189 
3 328 835 1108 
3 635 596 917 
3 324 783 849 
3 1011 954 1065 
3 33 32 803 
3 794 1036 1166 
3 4 5 929 
3 926 1120 1165 
3 766 331 1017 
3 847 1027 1176 
3 814 1119 1126 
3 936 608 1178 
3 1119 356 1126 
3 596 609 917 
3 334 763 1124 
3 319 825 1079 
3 825 319 1101 
3 775 715 987 
3 757 775 987 
3 786 1011 1116 
3 18 19 815 
3 840 837 1085 
3 715 941 1124 
3 942 765 1115 
3 366 893 1164 
3 939 1110 1134 
3 1134 1110 1146 
3 332 33 803 
3 841 346 1171 
3 763 904 1136 
3 940 801 1149 
3 360 792 1089 
3 808 602 809 
3 941 775 1159 
3 361 919 1143 
3 522 1088 1112 
3 753 1128 1130 
3 643 641 819 
3 906 909 912 
3 946 947 1069 
3 712 939 1134 
3 314 905 912 
3 1042 337 1161 
3 487 840 1085 
3 4 929 1180 
3 710 806 842 
3 677 993 1031 
3 721 923 1147 
3 781 808 809 
3 576 574 808 
3 350 771 1129 
3 792 360 1184 
3 780 576 808 
3 811 741 1086 
3 364 366 1164 
3 939 712 1187 
3 576 780 819 
3 1131 1030 1145 
3 796 1046 1055 
3 923 721 1177 
3 1046 321 1055 
3 331 766 1157 
3 743 1131 1145 
3 902 1011 1065 
3 713 948 1139 
3 650 707 807 
3 321 779 1055 
3 769 350 1149 
3 947 704 1099 
3 786 954 1011 
3 807 707 1007 
3 751 879 1169 
3 683 799 807 
3 733 944 945 
3 783 324 1155 
3 985 895 1132 
3 592 564 813 
3 799 650 807 
3 779 321 1063 
3 707 845 1007 
3 819 645 1014 
3 335 759 1114 
3 806 441 842 
3 765 352 1153 
3 1100 1106 1184 
3 930 342 1084 
3 358 796 1031 
3 879 751 888 
3 780 643 819 
3 815 786 1116 
3 782 316 1118 
3 1088 748 1112 
3 341 787 788 
3 802 441 806 
3 785 340 1069 
3 635 811 1086 
3 947 706 1069 
3 822 695 850 
3 337 1042 1151 
3 1100 705 1106 
3 641 645 819 
3 993 358 1031 
3 327 903 1200 
3 316 782 1117 
3 441 802 816 
3 564 615 813 
3 787 341 1175 
3 645 806 1014 
3 796 358 1046 
3 689 878 1083 
3 923 624 1147 
3 320 794 1109 
3 849 783 1133 
3 781 809 1103 
3 624 923 1163 
3 866 996 1050 
3 799 683 1037 
3 782 781 1103 
3 822 677 1031 
3 806 710 1014 
3 330 943 1096 
3 453 862 1072 
3 340 946 1069 
3 795 356 1119 
3 651 816 1040 
3 837 862 1085 
3 81 114 804 
3 683 779 1037 
3 1039 711 1043 
3 935 1067 1160 
3 950 343 1176 
3 448 373 855 
3 1070 429 1097 
3 559 1039 1043 
3 893 366 1142 
3 894 605 1132 
3 749 751 1169 
3 1080 971 1107 
3 817 388 845 
3 647 537 850 
3 454 448 855 
3 644 822 850 
3 695 822 1031 
3 593 1053 1093 
3 878 727 1083 
3 804 338 805 
3 809 825 1103 
3 809 602 824 
3 707 817 845 
3 862 832 1072 
3 718 717 1023 
3 711 810 1029 
3 761 787 1175 
3 816 802 1040 
3 507 1029 1078 
3 767 977 1201 
3 853 454 855 
3 977 323 1201 
3 935 936 1067 
3 356 795 1122 
3 1080 723 1081 
3 827 454 853 
3 723 722 1081 
3 703 812 818 
3 529 910 982 
3 741 918 1086 
3 996 559 1050 
3 695 647 850 
3 738 919 1151 
3 114 338 804 
3 612 642 818 
3 402 441 816 
3 800 799 1037 
3 810 711 1039 
3 778 1042 1161 
3 1064 453 1072 
3 511 493 848 
3 559 1043 1050 
3 1011 327 1116 
3 845 455 1007 
3 854 855 1051 
3 754 1128 1173 
3 402 816 823 
3 642 703 818 
3 372 644 820 
3 803 32 1157 
3 388 817 992 
3 861 404 1000 
3 788 787 789 
3 917 609 1121 
3 644 821 822 
3 611 511 848 
3 717 851 952 
3 699 911 1138 
3 454 827 989 
3 537 820 850 
3 576 819 1014 
3 827 666 989 
3 862 453 1085 
3 455 826 968 
3 322 776 1135 
3 652 861 1000 
3 380 646 826 
3 710 842 973 
3 652 860 861 
3 494 510 851 
3 892 333 893 
3 406 403 823 
3 523 874 875 
3 854 1064 1072 
3 114 115 338 
3 644 370 821 
3 493 491 848 
3 567 612 818 
3 496 494 851 
3 375 372 820 
3 765 811 1115 
3 603 693 824 
3 652 859 860 
3 820 644 850 
3 892 893 894 
3 613 718 843 
3 523 875 877 
3 524 527 874 
3 809 824 825 
3 854 1051 1064 
3 602 603 824 
3 489 406 823 
3 816 651 823 
3 613 717 718 
3 842 398 973 
3 742 812 814 
3 37 329 847 
3 39 343 846 
3 389 388 992 
3 510 493 511 
3 566 567 625 
3 381 380 826 
3 510 511 566 
3 523 524 874 
3 455 968 1007 
3 944 733 1162 
3 848 651 1040 
3 1053 709 1093 
3 742 625 812 
3 347 57 867 
3 566 511 567 
3 386 455 845 
3 613 517 717 
3 889 582 997 
3 403 402 823 
3 527 871 874 
3 646 537 647 
3 42 868 869 
3 491 489 651 
3 652 480 859 
3 626 625 742 
3 857 542 980 
3 1029 810 1078 
3 642 643 701 
3 716 857 980 
3 345 45 849 
3 619 711 1029 
3 41 328 868 
3 985 605 1015 
3 840 487 1105 
3 703 701 795 
3 648 647 680 
3 380 537 646 
3 380 378 537 
3 456 992 1018 
3 320 47 852 
3 447 894 1142 
3 821 677 822 
3 651 489 823 
3 722 918 1081 
3 680 695 796 
3 642 641 643 
3 341 788 1041 
3 527 870 871 
3 491 651 848 
3 831 853 854 
3 612 641 642 
3 646 647 648 
3 480 482 859 
3 655 882 969 
3 50 344 858 
3 683 681 779 
3 495 497 877 
3 736 1070 1097 
3 702 781 782 
3 701 643 702 
3 837 834 862 
3 386 384 455 
3 693 799 800 
3 648 680 681 
3 54 346 863 
3 346 797 1123 
3 834 832 862 
3 854 853 855 
3 882 422 969 
3 574 575 602 
3 494 493 510 
3 492 491 493 
3 388 386 845 
3 669 889 997 
3 437 883 884 
3 830 828 831 
3 497 523 877 
3 571 456 572 
3 826 646 968 
3 573 572 574 
3 328 40 846 
3 343 38 847 
3 343 950 1144 
3 655 881 882 
3 666 568 989 
3 642 701 703 
3 490 489 491 
3 717 517 851 
3 603 650 693 
3 891 892 895 
3 857 985 1015 
3 867 865 959 
3 838 837 840 
3 372 370 644 
3 379 378 380 
3 517 496 851 
3 914 916 917 
3 441 400 842 
3 394 392 456 
3 400 398 842 
3 311 1030 1131 
3 788 789 790 
3 918 722 1086 
3 567 611 612 
3 57 56 867 
3 501 503 593 
3 365 677 821 
3 342 930 1152 
3 992 817 1018 
3 402 400 441 
3 378 375 820 
3 324 43 869 
3 680 647 695 
3 384 381 826 
3 437 884 890 
3 828 827 853 
3 655 880 881 
3 44 324 849 
3 41 40 328 
3 37 36 329 
3 39 38 343 
3 377 375 378 
3 831 828 853 
3 836 834 837 
3 574 572 575 
3 602 575 603 
3 886 883 970 
3 830 831 832 
3 46 345 852 
3 745 666 827 
3 859 593 860 
3 745 827 828 
3 586 584 887 
3 394 456 571 
3 693 650 799 
3 566 625 626 
3 332 803 1127 
3 573 574 576 
3 967 686 1036 
3 883 437 970 
3 528 531 870 
3 347 867 959 
3 612 640 641 
3 42 41 868 
3 343 847 1176 
3 385 384 386 
3 914 915 916 
3 44 43 324 
3 312 863 864 
3 527 528 870 
3 482 501 859 
3 318 51 858 
3 122 313 915 
3 571 572 573 
3 383 381 384 
3 387 386 388 
3 455 384 826 
3 625 567 818 
3 46 45 345 
3 488 406 489 
3 614 613 843 
3 776 322 1202 
3 915 313 916 
3 682 681 683 
3 909 910 911 
3 796 695 1031 
3 312 55 863 
3 48 47 320 
3 537 378 820 
3 906 908 909 
3 755 614 843 
3 909 908 910 
3 999 697 1012 
3 891 333 892 
3 367 365 821 
3 50 49 344 
3 349 891 895 
3 329 36 856 
3 589 586 887 
3 716 764 857 
3 702 780 781 
3 501 593 859 
3 717 952 1023 
3 52 51 318 
3 40 39 846 
3 38 37 847 
3 655 463 880 
3 458 460 886 
3 394 571 973 
3 463 465 880 
3 54 53 346 
3 567 511 611 
3 874 873 875 
3 871 872 873 
3 606 716 980 
3 58 347 879 
3 906 907 908 
3 56 55 312 
3 870 735 871 
3 43 42 869 
3 836 837 838 
3 121 122 915 
3 571 710 973 
3 665 568 666 
3 45 44 849 
3 377 378 379 
3 632 589 633 
3 626 742 743 
3 865 864 866 
3 627 734 735 
3 871 735 872 
3 905 348 906 
3 47 46 852 
3 851 510 952 
3 619 667 711 
3 716 763 764 
3 953 685 972 
3 871 873 874 
3 379 380 381 
3 51 50 858 
3 460 562 886 
3 471 507 577 
3 391 389 392 
3 730 623 731 
3 875 873 876 
3 880 577 881 
3 392 389 992 
3 728 585 1002 
3 501 502 503 
3 393 392 394 
3 430 432 890 
3 612 611 640 
3 458 886 970 
3 633 589 887 
3 457 480 652 
3 56 312 867 
3 744 666 745 
3 628 953 972 
3 55 54 863 
3 312 864 865 
3 399 398 400 
3 906 348 907 
3 59 879 888 
3 829 828 830 
3 531 627 870 
3 58 57 347 
3 465 471 880 
3 603 649 650 
3 370 367 821 
3 457 652 1000 
3 461 655 969 
3 623 582 889 
3 855 373 1051 
3 682 807 1007 
3 503 521 522 
3 790 789 791 
3 432 437 890 
3 482 484 501 
3 627 684 734 
3 654 476 955 
3 120 121 913 
3 641 640 645 
3 627 735 870 
3 883 725 884 
3 397 395 398 
3 471 577 880 
3 606 714 716 
3 531 594 627 
3 59 58 879 
3 383 384 385 
3 653 724 725 
3 385 386 387 
3 653 725 883 
3 913 121 915 
3 369 367 370 
3 922 921 923 
3 323 127 937 
3 562 617 653 
3 471 506 507 
3 951 621 976 
3 731 889 1033 
3 731 623 889 
3 365 325 677 
3 349 111 891 
3 746 856 1049 
3 387 388 389 
3 127 128 937 
3 741 661 918 
3 907 913 914 
3 723 1080 1107 
3 639 689 1083 
3 719 951 976 
3 516 999 1012 
3 440 438 949 
3 478 476 654 
3 619 630 667 
3 536 517 613 
3 353 921 922 
3 326 925 926 
3 315 60 888 
3 60 59 888 
3 921 920 924 
3 653 617 724 
3 461 463 655 
3 667 749 750 
3 661 580 918 
3 514 599 619 
3 935 933 936 
3 562 653 886 
3 884 725 885 
3 339 932 933 
3 353 920 921 
3 665 666 744 
3 128 129 934 
3 112 333 891 
3 112 113 333 
3 582 486 997 
3 326 10 925 
3 627 594 684 
3 812 625 818 
3 772 770 773 
3 852 345 967 
3 656 550 983 
3 702 643 780 
3 765 741 811 
3 648 681 682 
3 108 334 941 
3 107 108 941 
3 128 934 937 
3 934 933 935 
3 928 930 931 
3 504 445 579 
3 339 927 932 
3 920 317 924 
3 314 118 905 
3 445 440 949 
3 793 791 813 
3 110 111 349 
3 689 784 878 
3 465 470 471 
3 790 791 792 
3 10 11 925 
3 928 931 932 
3 30 29 944 
3 331 30 944 
3 716 714 763 
3 334 109 904 
3 925 922 926 
3 28 330 945 
3 579 445 949 
3 111 112 891 
3 110 349 904 
3 680 796 1055 
3 36 35 856 
3 944 29 945 
3 339 933 934 
3 129 339 934 
3 740 661 741 
3 884 885 1021 
3 946 704 947 
3 117 118 314 
3 351 938 939 
3 119 348 905 
3 622 582 623 
3 119 120 348 
3 118 119 905 
3 729 623 730 
3 675 738 739 
3 792 791 793 
3 968 682 1007 
3 927 928 932 
3 477 478 957 
3 25 24 948 
3 354 25 948 
3 109 110 904 
3 558 486 582 
3 29 28 945 
3 632 633 748 
3 928 929 930 
3 927 362 928 
3 928 362 929 
3 11 12 353 
3 361 69 919 
3 80 79 363 
3 131 362 927 
3 13 317 920 
3 70 69 361 
3 68 337 919 
3 61 315 940 
3 76 336 938 
3 78 77 351 
3 69 68 919 
3 68 67 337 
3 351 77 938 
3 131 132 362 
3 105 106 335 
3 108 109 334 
3 339 130 927 
3 65 64 322 
3 350 62 940 
3 63 62 350 
3 130 131 927 
3 129 130 339 
3 61 60 315 
3 62 61 940 
3 76 75 336 
3 102 103 341 
3 77 76 938 
3 74 73 360 
3 100 101 705 
3 126 127 323 
3 124 125 352 
3 123 124 942 
3 122 123 313 
3 13 14 317 
3 12 13 920 
3 124 352 942 
3 16 17 327 
3 313 123 942 
3 34 33 332 
3 28 27 330 
3 31 30 331 
3 6 7 342 
3 9 10 326 
3 27 26 943 
3 19 20 340 
3 26 25 354 
3 20 21 946 
3 21 22 704 
3 353 12 920 
3 330 27 943 
3 26 354 943 
3 340 20 946 
3 21 704 946 
3 569 570 954 
3 348 120 913 
3 460 561 562 
3 934 935 937 
3 772 773 774 
3 653 883 886 
3 535 519 956 
3 504 579 580 
3 1067 768 1160 
3 675 739 956 
3 562 563 617 
3 353 922 925 
3 519 581 956 
3 712 713 756 
3 11 353 925 
3 507 506 514 
3 469 467 520 
3 569 518 570 
3 637 569 954 
3 488 489 490 
3 682 683 807 
3 398 395 973 
3 477 476 478 
3 581 674 675 
3 785 637 786 
3 628 722 723 
3 700 621 708 
3 616 565 621 
3 761 760 787 
3 475 473 476 
3 518 477 957 
3 712 700 713 
3 616 700 712 
3 520 467 979 
3 675 706 738 
3 578 550 656 
3 785 786 815 
3 776 774 777 
3 708 621 951 
3 555 553 556 
3 471 470 506 
3 515 597 598 
3 534 620 628 
3 740 741 765 
3 907 348 913 
3 616 621 700 
3 675 674 706 
3 914 913 915 
3 833 832 834 
3 759 659 760 
3 505 519 535 
3 581 637 674 
3 684 685 736 
3 674 637 785 
3 759 760 761 
3 501 484 502 
3 776 777 778 
3 747 629 762 
3 771 770 772 
3 564 556 565 
3 598 629 692 
3 628 723 953 
3 900 898 901 
3 552 554 658 
3 439 443 458 
3 615 565 616 
3 555 564 592 
3 724 617 896 
3 786 637 954 
3 581 569 637 
3 564 565 615 
3 557 509 595 
3 617 563 618 
3 590 676 752 
3 556 963 976 
3 562 561 563 
3 469 520 955 
3 769 697 770 
3 555 556 564 
3 698 614 755 
3 672 767 768 
3 498 496 517 
3 581 675 956 
3 554 553 555 
3 902 900 903 
3 658 659 757 
3 619 599 630 
3 896 618 897 
3 519 569 581 
3 598 597 629 
3 772 774 776 
3 617 618 896 
3 692 629 747 
3 618 563 965 
3 458 459 460 
3 444 440 445 
3 899 900 902 
3 126 323 977 
3 352 125 977 
3 570 518 957 
3 515 557 597 
3 475 476 477 
3 476 473 955 
3 432 436 437 
3 531 532 594 
3 578 656 657 
3 844 718 1194 
3 460 560 561 
3 667 630 749 
3 597 557 608 
3 658 554 659 
3 757 659 759 
3 660 580 661 
3 696 663 697 
3 549 547 550 
3 515 509 557 
3 732 656 1001 
3 657 656 732 
3 452 509 515 
3 781 780 808 
3 446 445 504 
3 519 518 569 
3 897 898 899 
3 745 828 829 
3 578 657 719 
3 505 477 518 
3 475 477 505 
3 504 580 660 
3 505 518 519 
3 549 550 551 
3 899 898 900 
3 552 553 554 
3 551 550 578 
3 404 405 1000 
3 963 719 976 
3 563 624 965 
3 897 618 898 
3 560 459 720 
3 434 431 435 
3 552 551 553 
3 426 428 461 
3 444 446 452 
3 672 661 740 
3 549 551 552 
3 444 445 446 
3 769 770 771 
3 556 553 963 
3 505 535 958 
3 312 865 867 
3 563 561 624 
3 452 446 509 
3 660 661 672 
3 474 473 475 
3 555 592 962 
3 672 740 767 
3 458 443 459 
3 762 629 960 
3 552 658 961 
3 460 459 560 
3 473 469 955 
3 560 720 721 
3 621 565 976 
3 443 440 444 
3 468 472 516 
3 628 620 722 
3 472 469 473 
3 901 898 965 
3 474 475 958 
3 875 876 1057 
3 629 597 960 
3 760 659 962 
3 622 623 729 
3 572 456 1018 
3 554 555 962 
3 534 628 972 
3 546 548 606 
3 597 608 960 
3 773 770 999 
3 558 582 622 
3 503 502 521 
3 657 732 733 
3 461 462 463 
3 595 509 966 
3 466 464 467 
3 696 697 769 
3 684 594 685 
3 475 505 958 
3 553 551 963 
3 528 530 531 
3 468 467 469 
3 714 607 715 
3 598 692 998 
3 439 440 443 
3 391 392 393 
3 472 473 474 
3 603 575 649 
3 393 394 395 
3 548 547 549 
3 659 554 962 
3 606 607 714 
3 898 618 965 
3 636 538 663 
3 463 464 465 
3 658 757 987 
3 835 834 836 
3 522 521 590 
3 468 469 472 
3 551 578 963 
3 432 434 436 
3 436 438 439 
3 504 660 966 
3 465 466 470 
3 439 458 970 
3 548 549 961 
3 606 548 607 
3 408 410 457 
3 949 438 971 
3 490 491 492 
3 439 438 440 
3 436 434 438 
3 446 504 966 
3 514 538 599 
3 427 425 429 
3 578 719 963 
3 423 425 426 
3 465 464 466 
3 461 428 462 
3 397 398 399 
3 509 446 966 
3 636 663 696 
3 636 696 801 
3 583 585 728 
3 432 431 434 
3 463 462 464 
3 549 552 961 
3 437 436 970 
3 571 573 710 
3 443 444 964 
3 594 532 972 
3 430 431 432 
3 444 452 964 
3 515 598 990 
3 462 428 662 
3 466 467 468 
3 601 638 639 
3 125 126 977 
3 419 417 420 
3 423 421 424 
3 430 429 431 
3 607 548 961 
3 426 427 428 
3 459 443 964 
3 427 429 430 
3 565 556 976 
3 720 459 964 
3 672 768 986 
3 966 660 986 
3 685 594 972 
3 434 435 971 
3 419 421 422 
3 426 425 427 
3 534 596 620 
3 595 966 986 
3 857 764 985 
3 964 452 990 
3 514 506 538 
3 587 600 601 
3 371 370 372 
3 610 544 631 
3 639 688 689 
3 405 408 1000 
3 585 587 1002 
3 532 533 534 
3 430 890 974 
3 401 400 402 
3 524 526 527 
3 596 533 609 
3 436 439 970 
3 423 424 425 
3 422 421 423 
3 720 964 990 
3 426 461 969 
3 419 420 421 
3 415 417 418 
3 438 434 971 
3 485 483 486 
3 546 547 548 
3 415 413 416 
3 599 538 636 
3 531 530 532 
3 749 630 751 
3 422 423 969 
3 689 783 784 
3 382 381 383 
3 532 534 972 
3 374 372 375 
3 664 568 665 
3 422 882 1005 
3 645 802 806 
3 376 375 377 
3 456 392 992 
3 534 533 596 
3 766 737 803 
3 620 596 635 
3 797 691 798 
3 951 719 994 
3 508 486 558 
3 961 658 987 
3 545 544 610 
3 418 417 419 
3 457 479 480 
3 694 631 737 
3 468 516 975 
3 543 545 546 
3 622 729 810 
3 532 530 533 
3 543 541 544 
3 852 967 1036 
3 636 801 988 
3 427 430 974 
3 607 961 987 
3 715 607 987 
3 423 426 969 
3 470 466 975 
3 506 470 978 
3 660 672 986 
3 492 493 494 
3 411 413 414 
3 415 416 417 
3 395 394 973 
3 694 737 766 
3 830 832 833 
3 719 657 994 
3 650 649 707 
3 540 512 568 
3 466 468 975 
3 732 1001 1017 
3 513 541 542 
3 428 427 974 
3 411 409 412 
3 543 544 545 
3 610 631 694 
3 550 547 983 
3 546 545 547 
3 697 663 1012 
3 690 604 691 
3 663 538 978 
3 467 464 979 
3 779 681 1055 
3 485 508 539 
3 450 448 454 
3 452 515 990 
3 414 413 415 
3 731 1033 1045 
3 480 481 482 
3 497 499 523 
3 411 412 413 
3 482 483 484 
3 648 682 968 
3 662 428 974 
3 542 857 1015 
3 775 335 1159 
3 84 302 311 
3 464 462 979 
3 508 558 559 
3 829 830 950 
3 457 410 479 
3 462 662 979 
3 546 606 980 
3 85 303 356 
3 485 486 508 
3 481 479 669 
3 646 648 968 
3 470 975 978 
3 527 526 528 
3 538 506 978 
3 630 599 988 
3 484 483 485 
3 547 545 983 
3 591 589 632 
3 599 636 988 
3 86 304 316 
3 542 543 980 
3 752 676 753 
3 545 610 983 
3 482 481 483 
3 410 409 411 
3 1052 724 1056 
3 536 613 614 
3 656 983 1001 
3 990 598 998 
3 87 305 355 
3 588 586 589 
3 657 733 994 
3 528 529 530 
3 390 389 391 
3 542 541 543 
3 1021 885 1026 
3 523 499 524 
3 645 640 802 
3 609 533 982 
3 528 526 529 
3 530 529 982 
3 480 479 481 
3 856 35 1049 
3 88 306 319 
3 770 697 999 
3 407 406 488 
3 451 513 1015 
3 498 517 536 
3 751 630 988 
3 533 530 982 
3 721 720 998 
3 502 484 981 
3 419 422 1005 
3 590 604 676 
3 573 576 1014 
3 450 454 989 
3 690 691 797 
3 543 546 980 
3 830 833 950 
3 541 540 1004 
3 540 568 664 
3 510 566 952 
3 773 999 1019 
3 513 540 541 
3 404 861 1025 
3 89 307 357 
3 690 797 841 
3 495 494 496 
3 720 990 998 
3 590 521 604 
3 342 7 1022 
3 396 395 397 
3 485 539 981 
3 664 665 984 
3 665 744 746 
3 484 485 981 
3 631 544 1004 
3 405 403 406 
3 587 601 1002 
3 90 308 321 
3 836 838 839 
3 91 309 358 
3 310 91 993 
3 408 457 1000 
3 82 310 325 
3 678 433 679 
3 399 400 401 
3 411 414 991 
3 524 499 525 
3 408 409 410 
3 610 694 1001 
3 833 834 835 
3 516 472 1019 
3 676 604 690 
3 418 419 1005 
3 540 664 1004 
3 410 411 991 
3 774 773 1028 
3 544 541 1004 
3 568 512 989 
3 486 483 997 
3 405 407 408 
3 601 600 638 
3 379 381 382 
3 524 525 526 
3 495 496 497 
3 710 573 1014 
3 387 389 390 
3 777 774 1032 
3 513 512 540 
3 408 407 409 
3 583 728 1008 
3 539 508 996 
3 983 610 1001 
3 639 638 688 
3 605 451 1015 
3 711 667 1043 
3 479 410 991 
3 508 559 996 
3 393 395 396 
3 737 631 1020 
3 689 688 783 
3 481 669 997 
3 497 496 498 
3 591 632 634 
3 396 433 671 
3 405 406 407 
3 483 481 997 
3 514 619 1029 
3 497 498 499 
3 669 479 991 
3 374 375 376 
3 777 1032 1038 
3 376 377 487 
3 588 589 591 
3 371 372 374 
3 368 367 369 
3 382 383 442 
3 691 604 1006 
3 999 516 1019 
3 451 512 513 
3 665 746 984 
3 369 370 371 
3 488 490 668 
3 591 634 687 
3 1001 694 1017 
3 397 399 995 
3 396 397 433 
3 407 488 1003 
3 512 450 989 
3 649 575 1018 
3 678 679 709 
3 575 572 1018 
3 521 502 1006 
3 687 754 794 
3 412 409 1003 
3 536 614 670 
3 744 745 1027 
3 707 649 817 
3 1045 418 1058 
3 687 634 754 
3 451 450 512 
3 975 516 1012 
3 401 402 403 
3 670 614 698 
3 1038 739 1042 
3 390 391 500 
3 503 522 1053 
3 638 600 686 
3 698 755 758 
3 978 975 1012 
3 611 848 1040 
3 449 451 605 
3 520 1026 1047 
3 409 407 1003 
3 774 1028 1032 
3 671 433 678 
3 488 668 1003 
3 390 500 583 
3 670 698 699 
3 585 586 587 
3 502 981 1006 
3 784 783 1155 
3 587 588 600 
3 495 877 1024 
3 472 474 1019 
3 694 766 1017 
3 841 318 1059 
3 604 521 1006 
3 404 403 405 
3 583 584 585 
3 956 739 1038 
3 900 901 1035 
3 587 586 588 
3 513 542 1015 
3 773 1019 1028 
3 663 978 1012 
3 102 341 1041 
3 705 101 1041 
3 374 376 453 
3 585 584 586 
3 654 955 1047 
3 382 442 673 
3 679 433 995 
3 866 1050 1174 
3 401 403 404 
3 34 332 1049 
3 366 365 367 
3 433 397 995 
3 520 979 1026 
3 492 494 495 
3 662 974 1021 
3 583 500 584 
3 385 387 1008 
3 449 450 451 
3 673 442 726 
3 673 726 727 
3 931 930 1084 
3 974 890 1021 
3 817 649 1018 
3 377 379 1009 
3 487 377 1009 
3 798 691 1034 
3 7 8 1022 
3 525 499 1013 
3 391 393 1010 
3 890 884 1021 
3 91 358 993 
3 325 310 993 
3 449 448 450 
3 566 626 952 
3 1026 885 1047 
3 559 558 1039 
3 499 498 1013 
3 320 852 1036 
3 1004 664 1020 
3 725 724 1052 
3 1019 474 1028 
3 936 933 1054 
3 622 810 1039 
3 500 391 1010 
3 932 931 1054 
3 631 1004 1020 
3 498 536 1013 
3 379 382 1009 
3 387 390 1008 
3 415 418 1045 
3 881 577 1074 
3 664 984 1020 
3 577 507 1078 
3 396 671 1010 
3 393 396 1010 
3 302 83 1030 
3 536 670 1013 
3 588 591 1016 
3 368 369 373 
3 591 687 1016 
3 640 611 1040 
3 832 831 1072 
3 686 600 1016 
3 677 325 993 
3 600 588 1016 
3 474 958 1028 
3 887 584 1044 
3 662 1021 1026 
3 979 662 1026 
3 745 829 1027 
3 882 881 1071 
3 390 583 1008 
3 861 860 1077 
3 507 514 1029 
3 995 399 1025 
3 1024 877 1057 
3 889 669 1033 
3 668 490 1024 
3 382 673 1009 
3 668 1024 1057 
3 442 383 1048 
3 691 1006 1034 
3 1006 981 1034 
3 399 401 1025 
3 447 448 449 
3 1028 958 1032 
3 958 535 1032 
3 626 743 1023 
3 442 1048 1066 
3 777 1038 1042 
3 693 800 1079 
3 654 1052 1056 
3 311 302 1030 
3 1032 535 1038 
3 492 495 1024 
3 903 900 1035 
3 1053 522 1112 
3 447 373 448 
3 368 373 447 
3 500 1010 1044 
3 90 321 1046 
3 358 309 1046 
3 535 956 1038 
3 1074 577 1078 
3 731 1045 1058 
3 558 622 1039 
3 991 414 1033 
3 490 492 1024 
3 309 90 1046 
3 366 367 368 
3 101 102 1041 
3 981 539 1034 
3 401 404 1025 
3 690 841 1059 
3 674 785 1069 
3 669 991 1033 
3 778 777 1042 
3 1057 876 1061 
3 753 676 1059 
3 1010 671 1044 
3 633 887 1068 
3 667 750 1043 
3 431 429 1070 
3 1008 728 1048 
3 1033 414 1045 
3 385 1008 1048 
3 802 640 1040 
3 748 633 1076 
3 414 415 1045 
3 955 520 1047 
3 383 385 1048 
3 1145 359 1158 
3 860 593 1093 
3 814 311 1131 
3 595 986 1067 
3 654 1047 1052 
3 601 639 1075 
3 373 369 1051 
3 89 357 1063 
3 35 34 1049 
3 83 301 359 
3 321 308 1063 
3 730 731 1058 
3 724 896 1056 
3 681 680 1055 
3 1087 872 1090 
3 1071 881 1074 
3 584 500 1044 
3 593 503 1053 
3 838 1140 1150 
3 952 626 1023 
3 885 725 1052 
3 1056 896 1060 
3 949 971 1080 
3 364 325 365 
3 369 371 1051 
3 18 815 1116 
3 933 932 1054 
3 758 755 1102 
3 918 580 1081 
3 896 897 1060 
3 412 1061 1082 
3 873 872 1087 
3 877 875 1057 
3 478 654 1056 
3 374 453 1064 
3 1060 897 1062 
3 412 1003 1061 
3 1048 728 1066 
3 764 763 1136 
3 522 590 1088 
3 897 899 1062 
3 478 1056 1060 
3 88 319 1073 
3 416 413 1082 
3 1062 899 1065 
3 336 75 1089 
3 74 360 1089 
3 357 307 1073 
3 957 478 1060 
3 735 734 1092 
3 814 812 1119 
3 676 690 1059 
3 722 620 1086 
3 1092 734 1094 
3 1077 860 1093 
3 308 89 1063 
3 899 902 1065 
3 9 326 1091 
3 364 365 366 
3 957 1060 1062 
3 418 1005 1058 
3 1047 885 1052 
3 805 844 1158 
3 1113 351 1187 
3 420 417 1090 
3 996 866 1111 
3 633 1068 1076 
3 570 957 1062 
3 570 1062 1065 
3 1061 876 1082 
3 635 917 1167 
3 844 1145 1158 
3 954 570 1065 
3 1043 750 1050 
3 684 736 1095 
3 728 1002 1066 
3 825 824 1079 
3 726 442 1066 
3 801 315 1154 
3 115 116 1102 
3 24 23 1098 
3 71 70 1099 
3 73 72 1100 
3 424 421 1094 
3 887 1044 1068 
3 1003 668 1061 
3 986 768 1067 
3 83 359 1030 
3 951 994 1096 
3 371 374 1064 
3 82 325 364 
3 48 320 1109 
3 1022 8 1091 
3 344 49 1109 
3 1051 371 1064 
3 429 425 1097 
3 1044 671 1068 
3 424 1094 1095 
3 703 795 1119 
3 1095 736 1097 
3 453 376 1085 
3 706 674 1069 
3 420 1090 1092 
3 726 1066 1075 
3 1102 116 1189 
3 416 1082 1087 
3 831 854 1072 
3 435 431 1070 
3 736 685 1104 
3 671 678 1068 
3 910 529 1156 
3 87 355 1101 
3 319 306 1101 
3 435 1104 1107 
3 730 1058 1071 
3 995 1025 1077 
3 1066 1002 1075 
3 835 836 1108 
3 307 88 1073 
3 938 336 1110 
3 783 688 1133 
3 668 1057 1061 
3 311 814 1126 
3 824 693 1079 
3 1005 882 1071 
3 673 727 1105 
3 1058 1005 1071 
3 718 1023 1194 
3 729 730 1074 
3 795 701 1118 
3 1025 861 1077 
3 730 1071 1074 
3 1068 678 1076 
3 592 813 1193 
3 971 435 1107 
3 742 814 1131 
3 729 1074 1078 
3 702 782 1118 
3 1102 755 1172 
3 363 79 1113 
3 78 351 1113 
3 916 313 1115 
3 810 729 1078 
3 579 1080 1081 
3 579 949 1080 
3 1075 639 1083 
3 678 709 1076 
3 1002 601 1075 
3 416 1087 1090 
3 104 105 1114 
3 350 940 1149 
3 580 579 1081 
3 539 996 1111 
3 679 995 1077 
3 762 960 1084 
3 487 1009 1105 
3 413 412 1082 
3 914 917 1121 
3 876 873 1087 
3 17 18 1116 
3 376 487 1085 
3 620 635 1086 
3 903 1035 1186 
3 727 726 1083 
3 590 752 1088 
3 1070 736 1104 
3 1091 326 1165 
3 679 1077 1093 
3 75 74 1089 
3 908 907 1121 
3 967 345 1133 
3 846 343 1144 
3 360 1100 1184 
3 803 737 1127 
3 868 328 1108 
3 417 416 1090 
3 420 1092 1094 
3 864 863 1123 
3 338 115 1102 
3 8 9 1091 
3 903 1186 1200 
3 435 1070 1104 
3 872 735 1092 
3 86 316 1117 
3 355 305 1117 
3 763 714 1124 
3 1082 876 1087 
3 998 692 1120 
3 632 748 1125 
3 322 64 1129 
3 63 350 1129 
3 421 420 1094 
3 349 895 1136 
3 758 1102 1189 
3 85 356 1122 
3 911 910 1156 
3 316 304 1122 
3 709 679 1093 
3 734 684 1095 
3 1090 872 1092 
3 912 699 1148 
3 756 1113 1187 
3 1094 734 1095 
3 708 951 1096 
3 616 712 1134 
3 948 24 1098 
3 70 361 1099 
3 360 73 1100 
3 424 1095 1097 
3 306 87 1101 
3 425 424 1097 
3 66 65 1135 
3 84 311 1126 
3 356 303 1126 
3 798 1034 1111 
3 941 334 1124 
3 713 700 1137 
3 726 1075 1083 
3 752 753 1130 
3 838 840 1140 
3 789 787 1141 
3 1104 953 1107 
3 685 953 1104 
3 1110 336 1190 
3 1125 752 1130 
3 333 113 1164 
3 705 1041 1106 
3 788 790 1106 
3 787 760 1141 
3 670 699 1138 
3 953 723 1107 
3 733 945 1168 
3 962 592 1141 
3 318 841 1171 
3 836 839 1108 
3 1009 673 1105 
3 1020 984 1127 
3 624 561 1147 
3 560 721 1147 
3 801 696 1149 
3 314 912 1148 
3 747 1091 1165 
3 49 48 1109 
3 6 342 1152 
3 1041 788 1106 
3 865 866 1174 
3 740 765 1153 
3 323 937 1160 
3 31 331 1157 
3 107 941 1159 
3 1017 331 1162 
3 864 1123 1198 
3 335 106 1159 
3 338 1102 1172 
3 948 1098 1139 
3 595 1067 1178 
3 733 732 1162 
3 67 66 1161 
3 833 835 1144 
3 525 1013 1138 
3 895 892 1132 
3 923 921 1163 
3 748 1088 1125 
3 52 318 1171 
3 939 938 1110 
3 346 53 1171 
3 699 698 1148 
3 776 778 1135 
3 526 525 1156 
3 931 1084 1183 
3 347 959 1169 
3 856 746 1170 
3 766 803 1157 
3 759 761 1114 
3 366 368 1142 
3 812 703 1119 
3 868 1108 1185 
3 926 922 1177 
3 743 1145 1194 
3 1088 752 1125 
3 103 104 1175 
3 746 744 1170 
3 3 80 1179 
3 23 3 1179 
3 132 0 1180 
3 0 4 1180 
3 72 1 1181 
3 1 100 1181 
3 2 71 1182 
3 22 2 1182 
3 929 362 1180 
3 117 314 1189 
3 1042 739 1151 
3 687 794 1166 
3 608 557 1178 
3 772 776 1202 
3 16 327 1200 
3 317 14 1186 
3 813 791 1193 
3 982 910 1188 
3 748 1076 1112 
3 1067 936 1178 
3 965 624 1196 
3 1108 839 1185 
3 79 78 1113 
3 1035 317 1186 
3 790 792 1184 
3 686 967 1197 
3 1140 878 1150 
3 1105 727 1140 
3 105 335 1114 
3 709 1053 1112 
3 1027 829 1176 
3 692 747 1165 
3 313 942 1115 
3 638 686 1197 
3 1034 539 1111 
3 910 908 1188 
3 793 1110 1190 
3 919 337 1151 
3 686 1016 1166 
3 1036 686 1166 
3 327 17 1116 
3 804 805 1158 
3 305 86 1117 
3 701 702 1118 
3 892 894 1132 
3 1076 709 1112 
3 994 733 1168 
3 863 346 1123 
3 907 914 1121 
3 916 1115 1167 
3 304 85 1122 
3 813 615 1146 
3 721 998 1120 
3 984 746 1192 
3 1084 960 1183 
3 797 798 1123 
3 714 715 1124 
3 858 344 1128 
3 634 632 1125 
3 894 893 1142 
3 888 751 1154 
3 746 1049 1192 
3 1098 363 1139 
3 303 84 1126 
3 737 1020 1127 
3 345 849 1133 
3 1123 798 1198 
3 634 1125 1130 
3 64 63 1129 
3 840 1105 1140 
3 81 804 1199 
3 743 742 1131 
3 839 838 1150 
3 605 985 1132 
3 706 947 1143 
3 754 634 1130 
3 322 1129 1202 
3 615 616 1134 
3 318 858 1191 
3 988 801 1154 
3 751 988 1154 
3 1120 926 1177 
3 65 322 1135 
3 904 349 1136 
3 700 708 1137 
3 917 916 1167 
3 712 756 1187 
3 793 813 1146 
3 929 5 1152 
3 1013 670 1138 
3 727 878 1140 
3 331 944 1162 
3 756 713 1139 
3 1059 318 1191 
3 760 962 1141 
3 352 977 1153 
3 843 805 1172 
3 977 767 1153 
3 811 635 1167 
3 301 81 1199 
3 624 1163 1196 
3 738 706 1143 
3 950 833 1144 
3 368 447 1142 
3 561 560 1147 
3 696 769 1149 
3 750 959 1174 
3 1128 344 1173 
3 967 1133 1197 
3 878 784 1150 
3 1115 811 1167 
3 698 758 1148 
3 739 738 1151 
3 930 929 1152 
3 5 6 1152 
3 1030 359 1145 
3 767 740 1153 
3 315 888 1154 
3 324 869 1155 
3 1096 994 1168 
3 344 1109 1173 
3 1050 750 1174 
3 1141 592 1193 
3 32 31 1157 
3 529 526 1156 
3 106 107 1159 
3 908 1121 1188 
3 937 935 1160 
3 337 67 1161 
3 893 333 1164 
3 1054 931 1183 
3 921 924 1163 
3 1155 869 1185 
3 732 1017 1162 
3 329 856 1170 
3 326 926 1165 
3 755 843 1172 
3 1129 771 1202 
3 1098 23 1179 
3 71 1099 1182 
3 1100 72 1181 
3 959 865 1174 
3 608 1054 1183 
3 1127 984 1192 
3 323 1160 1201 
3 879 347 1169 
3 1027 329 1170 
3 805 338 1172 
3 1016 687 1166 
3 615 1134 1146 
3 945 330 1168 
3 53 52 1171 
3 336 1089 1190 
3 869 868 1185 
3 744 1027 1170 
3 1110 793 1146 
3 1155 1185 1195 
3 922 923 1177 
3 341 103 1175 
3 794 754 1173 
3 80 363 1179 
3 362 132 1180 
3 100 705 1181 
3 704 22 1182 
3 557 595 1178 
3 866 864 1198 
3 829 950 1176 
3 330 1096 1168 
3 960 608 1183 
3 1145 844 1194 
3 14 15 1186 
3 351 939 1187 
3 116 117 1189 
3 1049 332 1192 
3 792 793 1190 
3 609 982 1188 
3 791 789 1193 
3 1109 794 1173 
3 1186 15 1200 
3 359 301 1199 
3 721 1120 1177 
3 901 965 1196 
3 15 16 1200 
3 753 1059 1191 
3 924 317 1203 
3 1035 901 1203 
3 768 767 1201 
3 771 772 1202 
3 688 638 1197 
3 1023 743 1194 
3 363 1098 1179 
3 1099 704 1182 
3 705 1100 1181 
3 1089 792 1190 
3 1196 924 1203 
3 901 1196 1203 
3 317 1035 1203 
3 798 1111 1198 
3 1121 609 1188 
3 1133 688 1197 
3 1106 790 1184 
3 332 1127 1192 
3 1111 866 1198 
3 789 1141 1193 
3 839 1150 1195 
3 1128 753 1191 
3 858 1128 1191 
3 1158 359 1199 
3 1150 784 1195 
3 784 1155 1195 
3 1160 768 1201 
3 1163 924 1196 
3 804 1158 1199 
3 1185 839 1195 
3 183 182 158 
3 182 157 158 
3 182 181 157 
3 181 156 157 
3 181 180 156 
3 180 155 156 
3 180 179 155 
3 179 154 155 
3 179 178 154 
3 178 153 154 
3 178 177 153 
3 177 152 153 
3 177 176 152 
3 176 151 152 
3 176 175 151 
3 151 175 150 
3 175 174 150 
3 174 149 150 
3 174 173 149 
3 173 148 149 
3 134 85 1204 
3 173 172 148 
3 172 147 148 
3 172 171 147 
3 133 134 1204 
3 171 146 147 
3 171 170 146 
3 159 85 134 
3 170 145 146 
3 170 169 145 
3 169 144 145 
3 169 168 144 
3 168 143 144 
3 168 167 143 
3 167 142 143 
3 167 166 142 
3 142 166 141 
3 85 303 1204 
3 166 165 141 
3 141 165 140 
3 165 164 140 
3 140 164 139 
3 163 138 139 
3 164 163 139 
3 138 162 137 
3 163 162 138 
3 137 161 136 
3 162 161 137 
3 136 160 135 
3 159 134 135 
3 161 160 136 
3 160 159 135 
3 303 133 1204 
3 92 93 1205 
3 183 158 1205 
3 158 92 1205 
3 93 183 1205 
3 133 303 84 
3 182 183 184 
3 182 184 185 
3 181 182 185 
3 186 181 185 
3 180 181 186 
3 187 180 186 
3 179 180 187 
3 188 179 187 
3 178 179 188 
3 189 178 188 
3 177 178 189 
3 190 177 189 
3 176 177 190 
3 191 176 190 
3 175 176 191 
3 192 175 191 
3 174 175 192 
3 174 192 193 
3 173 174 193 
3 160 86 1206 
3 194 173 193 
3 172 173 194 
3 172 194 195 
3 86 160 206 
3 171 172 195 
3 171 195 196 
3 170 171 196 
3 170 196 197 
3 169 170 197 
3 159 160 1206 
3 169 197 198 
3 168 169 198 
3 168 198 199 
3 167 168 199 
3 167 199 200 
3 166 167 200 
3 166 200 201 
3 165 166 201 
3 165 201 202 
3 164 165 202 
3 164 202 203 
3 86 304 1206 
3 163 203 204 
3 163 164 203 
3 162 204 205 
3 162 163 204 
3 161 205 206 
3 161 162 205 
3 160 161 206 
3 304 159 1206 
3 93 94 1207 
3 184 183 1207 
3 94 184 1207 
3 183 93 1207 
3 159 304 85 
3 184 227 228 
3 184 185 227 
3 185 226 227 
3 185 186 226 
3 186 225 226 
3 186 187 225 
3 187 224 225 
3 187 188 224 
3 188 223 224 
3 188 189 223 
3 189 222 223 
3 189 190 222 
3 190 221 222 
3 190 191 221 
3 221 191 220 
3 191 192 220 
3 192 219 220 
3 192 193 219 
3 87 205 1208 
3 193 218 219 
3 193 194 218 
3 194 217 218 
3 205 206 1208 
3 217 194 195 
3 205 87 207 
3 216 217 195 
3 196 216 195 
3 215 216 196 
3 197 215 196 
3 215 197 214 
3 197 198 214 
3 214 198 213 
3 198 199 213 
3 305 87 1208 
3 213 199 212 
3 199 200 212 
3 212 200 211 
3 200 201 211 
3 201 202 210 
3 201 210 211 
3 202 203 209 
3 210 202 209 
3 203 204 208 
3 204 205 207 
3 209 203 208 
3 208 204 207 
3 206 305 1208 
3 95 94 1209 
3 184 228 1209 
3 94 184 1209 
3 228 95 1209 
3 305 206 86 
3 227 228 229 
3 227 229 230 
3 226 227 230 
3 226 230 231 
3 225 226 231 
3 232 225 231 
3 232 224 225 
3 232 233 224 
3 233 223 224 
3 233 234 223 
3 234 222 223 
3 234 235 222 
3 235 221 222 
3 235 236 221 
3 221 236 220 
3 236 237 220 
3 237 219 220 
3 208 88 1210 
3 237 238 219 
3 238 218 219 
3 248 88 208 
3 238 239 218 
3 239 217 218 
3 239 240 217 
3 217 240 216 
3 240 241 216 
3 207 208 1210 
3 216 241 215 
3 241 242 215 
3 215 242 214 
3 242 243 214 
3 214 243 213 
3 243 244 213 
3 213 244 212 
3 244 245 212 
3 212 245 211 
3 245 246 211 
3 88 306 1210 
3 246 247 210 
3 246 210 211 
3 247 248 209 
3 210 247 209 
3 209 248 208 
3 306 207 1210 
3 95 96 1211 
3 229 228 1211 
3 96 229 1211 
3 228 95 1211 
3 306 87 207 
3 266 267 229 
3 230 266 229 
3 265 266 230 
3 231 265 230 
3 264 265 231 
3 232 264 231 
3 263 264 232 
3 233 263 232 
3 262 263 233 
3 262 233 234 
3 261 262 234 
3 235 261 234 
3 260 261 235 
3 236 260 235 
3 259 260 236 
3 237 259 236 
3 89 247 1212 
3 258 259 237 
3 258 237 238 
3 247 248 1212 
3 258 238 257 
3 257 238 239 
3 247 89 249 
3 256 257 239 
3 256 239 240 
3 255 256 240 
3 255 240 241 
3 254 255 241 
3 242 254 241 
3 307 89 1212 
3 253 254 242 
3 253 242 243 
3 252 253 243 
3 252 243 244 
3 251 244 245 
3 251 252 244 
3 245 246 250 
3 251 245 250 
3 246 247 249 
3 246 249 250 
3 248 307 1212 
3 97 96 1213 
3 229 267 1213 
3 96 229 1213 
3 267 97 1213 
3 248 88 307 
3 266 267 268 
3 269 266 268 
3 265 266 269 
3 270 265 269 
3 264 265 270 
3 271 264 270 
3 263 264 271 
3 272 263 271 
3 262 263 272 
3 273 262 272 
3 261 262 273 
3 274 261 273 
3 260 261 274 
3 260 274 275 
3 259 260 275 
3 250 90 1214 
3 276 259 275 
3 90 250 284 
3 259 276 258 
3 276 277 258 
3 258 277 257 
3 277 278 257 
3 278 256 257 
3 256 278 279 
3 249 250 1214 
3 256 279 255 
3 279 280 255 
3 280 254 255 
3 280 281 254 
3 281 253 254 
3 282 253 281 
3 253 282 252 
3 252 282 283 
3 251 283 284 
3 251 252 283 
3 90 308 1214 
3 250 251 284 
3 308 249 1214 
3 97 98 1215 
3 268 267 1215 
3 98 268 1215 
3 267 97 1215 
3 89 249 308 
3 299 300 268 
3 269 299 268 
3 298 299 269 
3 270 298 269 
3 297 298 270 
3 271 297 270 
3 296 297 271 
3 272 296 271 
3 295 296 272 
3 273 295 272 
3 294 295 273 
3 274 294 273 
3 293 294 274 
3 91 283 1216 
3 293 274 275 
3 292 293 275 
3 283 284 1216 
3 276 292 275 
3 292 276 291 
3 283 91 285 
3 276 277 291 
3 277 290 291 
3 277 278 290 
3 278 289 290 
3 278 279 289 
3 309 91 1216 
3 279 288 289 
3 279 280 288 
3 280 281 287 
3 280 287 288 
3 281 282 286 
3 281 286 287 
3 282 283 285 
3 282 285 286 
3 284 309 1216 
3 99 98 1217 
3 268 300 1217 
3 98 268 1217 
3 300 99 1217 
3 90 309 284 
3 299 300 100 
3 299 100 101 
3 298 299 101 
3 298 101 102 
3 297 298 102 
3 297 102 103 
3 296 297 103 
3 296 103 104 
3 295 296 104 
3 295 104 105 
3 294 295 105 
3 294 105 106 
3 286 82 1218 
3 293 294 106 
3 113 82 286 
3 293 106 107 
3 292 293 107 
3 108 292 107 
3 291 292 108 
3 109 291 108 
3 290 291 109 
3 290 109 110 
3 285 286 1218 
3 290 110 289 
3 110 111 289 
3 111 288 289 
3 111 112 288 
3 112 113 287 
3 288 112 287 
3 287 113 286 
3 82 310 1218 
3 310 285 1218 
3 99 1 1219 
3 100 300 1219 
3 1 100 1219 
3 300 99 1219 
3 310 91 285 

CELL_TYPES 2299
5
5
5
5
5
5
5
5
5
5
5
5
5
5
5
5
5
5
5
5
5
5
5
5
5
5
5
5
5
5
5
5
5
5
5
5
5
5
5
5
5
5
5
5
5
5
5
5
5
5
5
5
5
5
5
5
5
5
5
5
5
5
5
5
5
5
5
5
5
5
5
5
5
5
5
5
5
5
5
5
5
5
5
5
5
5
5
5
5
5
5
5
5
5
5
5
5
5
5
5
5
5
5
5
5
5
5
5
5
5
5
5
5
5
5
5
5
5
5
5
5
5
5
5
5
5
5
5
5
5
5
5
5
5
5
5
5
5
5
5
5
5
5
5
5
5
5
5
5
5
5
5
5
5
5
5
5
5
5
5
5
5
5
5
5
5
5
5
5
5
5
5
5
5
5
5
5
5
5
5
5
5
5
5
5
5
5
5
5
5
5
5
5
5
5
5
5
5
5
5
5
5
5
5
5
5
5
5
5
5
5
5
5
5
5
5
5
5
5
5
5
5
5
5
5
5
5
5
5
5
5
5
5
5
5
5
5
5
5
5
5
5
5
5
5
5
5
5
5
5
5
5
5
5
5
5
5
5
5
5
5
5
5
5
5
5
5
5
5
5
5
5
5
5
5
5
5
5
5
5
5
5
5
5
5
5
5
5
5
5
5
5
5
5
5
5
5
5
5
5
5
5
5
5
5
5
5
5
5
5
5
5
5
5
5
5
5
5
5
5
5
5
5
5
5
5
5
5
5
5
5
5
5
5
5
5
5
5
5
5
5
5
5
5
5
5
5
5
5
5
5
5
5
5
5
5
5
5
5
5
5
5
5
5
5
5
5
5
5
5
5
5
5
5
5
5
5
5
5
5
5
5
5
5
5
5
5
5
5
5
5
5
5
5
5
5
5
5
5
5
5
5
5
5
5
5
5
5
5
5
5
5
5
5
5
5
5
5
5
5
5
5
5
5
5
5
5
5
5
5
5
5
5
5
5
5
5
5
5
5
5
5
5
5
5
5
5
5
5
5
5
5
5
5
5
5
5
5
5
5
5
5
5
5
5
5
5
5
5
5
5
5
5
5
5
5
5
5
5
5
5
5
5
5
5
5
5
5
5
5
5
5
5
5
5
5
5
5
5
5
5
5
5
5
5
5
5
5
5
5
5
5
5
5
5
5
5
5
5
5
5
5
5
5
5
5
5
5
5
5
5
5
5
5
5
5
5
5
5
5
5
5
5
5
5
5
5
5
5
5
5
5
5
5
5
5
5
5
5
5
5
5
5
5
5
5
5
5
5
5
5
5
5
5
5
5
5
5
5
5
5
5
5
5
5
5
5
5
5
5
5
5
5
5
5
5
5
5
5
5
5
5
5
5
5
5
5
5
5
5
5
5
5
5
5
5
5
5
5
5
5
5
5
5
5
5
5
5
5
5
5
5
5
5
5
5
5
5
5
5
5
5
5
5
5
5
5
5
5
5
5
5
5
5
5
5
5
5
5
5
5
5
5
5
5
5
5
5
5
5
5
5
5
5
5
5
5
5
5
5
5
5
5
5
5
5
5
5
5
5
5
5
5
5
5
5
5
5
5
5
5
5
5
5
5
5
5
5
5
5
5
5
5
5
5
5
5
5
5
5
5
5
5
5
5
5
5
5
5
5
5
5
5
5
5
5
5
5
5
5
5
5
5
5
5
5
5
5
5
5
5
5
5
5
5
5
5
5
5
5
5
5
5
5
5
5
5
5
5
5
5
5
5
5
5
5
5
5
5
5
5
5
5
5
5
5
5
5
5
5
5
5
5
5
5
5
5
5
5
5
5
5
5
5
5
5
5
5
5
5
5
5
5
5
5
5
5
5
5
5
5
5
5
5
5
5
5
5
5
5
5
5
5
5
5
5
5
5
5
5
5
5
5
5
5
5
5
5
5
5
5
5
5
5
5
5
5
5
5
5
5
5
5
5
5
5
5
5
5
5
5
5
5
5
5
5
5
5
5
5
5
5
5
5
5
5
5
5
5
5
5
5
5
5
5
5
5
5
5
5
5
5
5
5
5
5
5
5
5
5
5
5
5
5
5
5
5
5
5
5
5
5
5
5
5
5
5
5
5
5
5
5
5
5
5
5
5
5
5
5
5
5
5
5
5
5
5
5
5
5
5
5
5
5
5
5
5
5
5
5
5
5
5
5
5
5
5
5
5
5
5
5
5
5
5
5
5
5
5
5
5
5
5
5
5
5
5
5
5
5
5
5
5
5
5
5
5
5
5
5
5
5
5
5
5
5
5
5
5
5
5
5
5
5
5
5
5
5
5
5
5
5
5
5
5
5
5
5
5
5
5
5
5
5
5
5
5
5
5
5
5
5
5
5
5
5
5
5
5
5
5
5
5
5
5
5
5
5
5
5
5
5
5
5
5
5
5
5
5
5
5
5
5
5
5
5
5
5
5
5
5
5
5
5
5
5
5
5
5
5
5
5
5
5
5
5
5
5
5
5
5
5
5
5
5
5
5
5
5
5
5
5
5
5
5
5
5
5
5
5
5
5
5
5
5
5
5
5
5
5
5
5
5
5
5
5
5
5
5
5
5
5
5
5
5
5
5
5
5
5
5
5
5
5
5
5
5
5
5
5
5
5
5
5
5
5
5
5
5
5
5
5
5
5
5
5
5
5
5
5
5
5
5
5
5
5
5
5
5
5
5
5
5
5
5
5
5
5
5
5
5
5
5
5
5
5
5
5
5
5
5
5
5
5
5
5
5
5
5
5
5
5
5
5
5
5
5
5
5
5
5
5
5
5
5
5
5
5
5
5
5
5
5
5
5
5
5
5
5
5
5
5
5
5
5
5
5
5
5
5
5
5
5
5
5
5
5
5
5
5
5
5
5
5
5
5
5
5
5
5
5
5
5
5
5
5
5
5
5
5
5
5
5
5
5
5
5
5
5
5
5
5
5
5
5
5
5
5
5
5
5
5
5
5
5
5
5
5
5
5
5
5
5
5
5
5
5
5
5
5
5
5
5
5
5
5
5
5
5
5
5
5
5
5
5
5
5
5
5
5
5
5
5
5
5
5
5
5
5
5
5
5
5
5
5
5
5
5
5
5
5
5
5
5
5
5
5
5
5
5
5
5
5
5
5
5
5
5
5
5
5
5
5
5
5
5
5
5
5
5
5
5
5
5
5
5
5
5
5
5
5
5
5
5
5
5
5
5
5
5
5
5
5
5
5
5
5
5
5
5
5
5
5
5
5
5
5
5
5
5
5
5
5
5
5
5
5
5
5
5
5
5
5
5
5
5
5
5
5
5
5
5
5
5
5
5
5
5
5
5
5
5
5
5
5
5
5
5
5
5
5
5
5
5
5
5
5
5
5
5
5
5
5
5
5
5
5
5
5
5
5
5
5
5
5
5
5
5
5
5
5
5
5
5
5
5
5
5
5
5
5
5
5
5
5
5
5
5
5
5
5
5
5
5
5
5
5
5
5
5
5
5
5
5
5
5
5
5
5
5
5
5
5
5
5
5
5
5
5
5
5
5
5
5
5
5
5
5
5
5
5
5
5
5
5
5
5
5
5
5
5
5
5
5
5
5
5
5
5
5
5
5
5
5
5
5
5
5
5
5
5
5
5
5
5
5
5
5
5
5
5
5
5
5
5
5
5
5
5
5
5
5
5
5
5
5
5
5
5
5
5
5
5
5
5
5
5
5
5
5
5
5
5
5
5
5
5
5
5
5
5
5
5
5
5
5
5
5
5
5
5
5
5
5
5
5
5
5
5
5
5
5
5
5
5
5
5
5
5
5
5
5
5
5
5
5
5
5
5
5
5
5
5
5
5
5
5
5
5
5
5
5
5
5
5
5
5
5
5
5
5
5
5
5
5
5
5
5
5
5
5
5
5
5
5
5
5
5
5
5
5
5
5
5
5
5
5
5
5
5
5
5
5
5
5
5
5
5
5
5
5
5
5
5
5
5
5
5
5
5
5
5
5
5
5
5
5
5
5
5
5
5
5
5
5
5
5
5
5
5
5
5
5
5
5
5
5
5
5
5
5
5
5
5
5
5
5
5
5
5
5
5
5
5
5
5
5
5
5
5
5
5
5
5
5
5
5
5
5
5
5
5
5
5
5
5
5
5
5
5
5
5
5
5
5
5
5
5
5
5
5
5
5
5
5
5
5
5
5
5
5
5
5
5
5
5
5
5
5
5
5
5
5
5
5
5
5
5
5
5
5
5
5
5
5
5
5
5
5
5
5
5
5
5
5
5
5
5
5
5
5
5
5
5
5
5
5
5
5
5
5
5
5
5
5
5
5
5
5
5
5
5
5
5
5
5
5
5
5
5
5
5
5
5
5
5
5
5
5
5
5
5
5
5
5
5
5
5
5
5
5
5
5
5
5
5
5
5
5
5
5
5
5
5
5
5
5
5
5
5
5
5
5
5
5
5
5
5
5
5
5
5
5
5
5
5
5
5
5
5
5
5
5
5
5
5
5
5
5
5
5
5
5
5
5
5
5
5
5
5
5
5
5
5
5
5
5
5
5
5
5
5
5
5
5
5
5
5
5
5
5
5
5
5
5
5
5
5
5
5
5
5
5
5
5
5
5
5
5
5
5
5
5
5
5
5
5
5
5
5
5
5
5
5
5
5
5
5
5
5
5
5
5
5
5
5
5
5
5
5
5
5
5
5
5
5
5
5
5
5
5
5
5
5
5
5
5
5
5
5
5
5
5
5
5
5
5
5
5
5
5
5
5
5
5
5
5
5
5
5
5
5
5
5
5
5
5
5
5
5
5
5
5
5
5
5
5
5
5
5
5
5
5
5
5
5
5
5
5
5
5
5
5
5
5
5
5
5
5
5
5
5
5
5
5
5
5
5
5
5
5
5
5
5
5
5
5
5
5
5
5
5
5
5
5
5
5
5
5
5
5
5
5
5
5
5
5
5
5
5
5
5
5
5
5
5
5
5
5
5
5
5
5
5
5
5
5
5
5
5
5
5
5
5
5
5
5
5
5
5
5
5
5
5
5
5
5
5
5
5
5
5
5
5
5
5
5
5
5
5
5
5
5
5
5
5
5
5
5
5
5
5
5
5
5
5
5
5
5
5
5
5
5
5
5
5
5
5
5
5
5
5
5
5
5
5
5
5
5
5
5
5
5
5
5
5
5
5
5
5
5
5
5
5
5
5
5
5
5

POINT_DATA 1220

VECTORS coord float
0.0 0.0 0.0 
5.000000000000e+01 -1.000000000000e+01 0.0 
0.0 -2.000000000000e+01 0.0 
5.000000000000e+01 -2.000000000000e+01 0.0 
0.0 -9.999999999991e-01 0.0 
0.0 -1.999999999998e+00 0.0 
0.0 -2.999999999997e+00 0.0 
0.0 -3.999999999994e+00 0.0 
0.0 -4.999999999991e+00 0.0 
0.0 -5.999999999988e+00 0.0 
0.0 -6.999999999985e+00 0.0 
0.0 -7.999999999982e+00 0.0 
0.0 -8.999999999983e+00 0.0 
0.0 -9.999999999985e+00 0.0 
0.0 -1.099999999999e+01 0.0 
0.0 -1.199999999999e+01 0.0 
0.0 -1.299999999999e+01 0.0 
0.0 -1.399999999999e+01 0.0 
0.0 -1.499999999999e+01 0.0 
0.0 -1.599999999999e+01 0.0 
0.0 -1.700000000000e+01 0.0 
0.0 -1.800000000000e+01 0.0 
0.0 -1.900000000000e+01 0.0 
4.900000000001e+01 -2.000000000000e+01 0.0 
4.800000000001e+01 -2.000000000000e+01 0.0 
4.700000000002e+01 -2.000000000000e+01 0.0 
4.600000000003e+01 -2.000000000000e+01 0.0 
4.500000000004e+01 -2.000000000000e+01 0.0 
4.400000000004e+01 -2.000000000000e+01 0.0 
4.300000000005e+01 -2.000000000000e+01 0.0 
4.200000000006e+01 -2.000000000000e+01 0.0 
4.100000000006e+01 -2.000000000000e+01 0.0 
4.000000000007e+01 -2.000000000000e+01 0.0 
3.900000000008e+01 -2.000000000000e+01 0.0 
3.800000000009e+01 -2.000000000000e+01 0.0 
3.700000000009e+01 -2.000000000000e+01 0.0 
3.600000000010e+01 -2.000000000000e+01 0.0 
3.500000000011e+01 -2.000000000000e+01 0.0 
3.400000000011e+01 -2.000000000000e+01 0.0 
3.300000000012e+01 -2.000000000000e+01 0.0 
3.200000000013e+01 -2.000000000000e+01 0.0 
3.100000000013e+01 -2.000000000000e+01 0.0 
3.000000000013e+01 -2.000000000000e+01 0.0 
2.900000000013e+01 -2.000000000000e+01 0.0 
2.800000000013e+01 -2.000000000000e+01 0.0 
2.700000000013e+01 -2.000000000000e+01 0.0 
2.600000000013e+01 -2.000000000000e+01 0.0 
2.500000000013e+01 -2.000000000000e+01 0.0 
2.400000000013e+01 -2.000000000000e+01 0.0 
2.300000000013e+01 -2.000000000000e+01 0.0 
2.200000000013e+01 -2.000000000000e+01 0.0 
2.100000000013e+01 -2.000000000000e+01 0.0 
2.000000000013e+01 -2.000000000000e+01 0.0 
1.900000000013e+01 -2.000000000000e+01 0.0 
1.800000000013e+01 -2.000000000000e+01 0.0 
1.700000000012e+01 -2.000000000000e+01 0.0 
1.600000000011e+01 -2.000000000000e+01 0.0 
1.500000000011e+01 -2.000000000000e+01 0.0 
1.400000000010e+01 -2.000000000000e+01 0.0 
1.300000000009e+01 -2.000000000000e+01 0.0 
1.200000000009e+01 -2.000000000000e+01 0.0 
1.100000000008e+01 -2.000000000000e+01 0.0 
1.000000000007e+01 -2.000000000000e+01 0.0 
9.000000000064e+00 -2.000000000000e+01 0.0 
8.000000000057e+00 -2.000000000000e+01 0.0 
7.000000000050e+00 -2.000000000000e+01 0.0 
6.000000000043e+00 -2.000000000000e+01 0.0 
5.000000000036e+00 -2.000000000000e+01 0.0 
4.000000000028e+00 -2.000000000000e+01 0.0 
3.000000000021e+00 -2.000000000000e+01 0.0 
2.000000000014e+00 -2.000000000000e+01 0.0 
1.000000000007e+00 -2.000000000000e+01 0.0 
5.000000000000e+01 -1.100000000000e+01 0.0 
5.000000000000e+01 -1.200000000000e+01 0.0 
5.000000000000e+01 -1.300000000000e+01 0.0 
5.000000000000e+01 -1.400000000000e+01 0.0 
5.000000000000e+01 -1.500000000000e+01 0.0 
5.000000000000e+01 -1.600000000000e+01 0.0 
5.000000000000e+01 -1.700000000000e+01 0.0 
5.000000000000e+01 -1.800000000000e+01 0.0 
5.000000000000e+01 -1.900000000000e+01 0.0 
2.000000000000e+01 0.0 0.0 
3.500000000000e+01 -1.000000000000e+01 0.0 
2.150000000000e+01 -1.000000000000e+00 0.0 
2.300000000000e+01 -2.000000000000e+00 0.0 
2.450000000000e+01 -3.000000000000e+00 0.0 
2.600000000000e+01 -4.000000000000e+00 0.0 
2.750000000000e+01 -5.000000000000e+00 0.0 
2.900000000000e+01 -6.000000000000e+00 0.0 
3.050000000000e+01 -7.000000000000e+00 0.0 
3.200000000000e+01 -8.000000000000e+00 0.0 
3.350000000000e+01 -9.000000000000e+00 0.0 
5.000000000000e+01 -2.000000000000e+00 0.0 
5.000000000000e+01 -3.000000000000e+00 0.0 
5.000000000000e+01 -4.000000000000e+00 0.0 
5.000000000000e+01 -5.000000000000e+00 0.0 
5.000000000000e+01 -6.000000000000e+00 0.0 
5.000000000000e+01 -7.000000000000e+00 0.0 
5.000000000000e+01 -8.000000000000e+00 0.0 
5.000000000000e+01 -9.000000000000e+00 0.0 
4.900000000000e+01 -1.000000000000e+01 0.0 
4.800000000000e+01 -1.000000000000e+01 0.0 
4.700000000000e+01 -1.000000000000e+01 0.0 
4.600000000000e+01 -1.000000000000e+01 0.0 
4.500000000000e+01 -1.000000000000e+01 0.0 
4.400000000000e+01 -1.000000000000e+01 0.0 
4.300000000000e+01 -1.000000000000e+01 0.0 
4.200000000000e+01 -1.000000000000e+01 0.0 
4.100000000000e+01 -1.000000000000e+01 0.0 
4.000000000000e+01 -1.000000000000e+01 0.0 
3.900000000000e+01 -1.000000000000e+01 0.0 
3.800000000000e+01 -1.000000000000e+01 0.0 
3.700000000000e+01 -1.000000000000e+01 0.0 
3.600000000000e+01 -1.000000000000e+01 0.0 
1.900000000000e+01 0.0 0.0 
1.800000000000e+01 0.0 0.0 
1.700000000000e+01 0.0 0.0 
1.600000000000e+01 0.0 0.0 
1.500000000000e+01 0.0 0.0 
1.400000000000e+01 0.0 0.0 
1.300000000000e+01 0.0 0.0 
1.200000000000e+01 0.0 0.0 
1.100000000000e+01 0.0 0.0 
1.000000000000e+01 0.0 0.0 
9.000000000000e+00 0.0 0.0 
8.000000000000e+00 0.0 0.0 
7.000000000000e+00 0.0 0.0 
6.000000000000e+00 0.0 0.0 
5.000000000000e+00 0.0 0.0 
4.000000000000e+00 0.0 0.0 
3.000000000000e+00 0.0 0.0 
2.000000000000e+00 0.0 0.0 
1.000000000000e+00 0.0 0.0 
2.400000000000e+01 -2.000000000000e+00 0.0 
2.500000000000e+01 -2.000000000000e+00 0.0 
2.600000000000e+01 -2.000000000000e+00 0.0 
2.700000000000e+01 -2.000000000000e+00 0.0 
2.800000000000e+01 -2.000000000000e+00 0.0 
2.900000000000e+01 -2.000000000000e+00 0.0 
3.000000000000e+01 -2.000000000000e+00 0.0 
3.100000000000e+01 -2.000000000000e+00 0.0 
3.200000000000e+01 -2.000000000000e+00 0.0 
3.300000000000e+01 -2.000000000000e+00 0.0 
3.400000000000e+01 -2.000000000000e+00 0.0 
3.500000000000e+01 -2.000000000000e+00 0.0 
3.600000000000e+01 -2.000000000000e+00 0.0 
3.700000000000e+01 -2.000000000000e+00 0.0 
3.800000000000e+01 -2.000000000000e+00 0.0 
3.900000000000e+01 -2.000000000000e+00 0.0 
4.000000000000e+01 -2.000000000000e+00 0.0 
4.100000000000e+01 -2.000000000000e+00 0.0 
4.200000000000e+01 -2.000000000000e+00 0.0 
4.300000000000e+01 -2.000000000000e+00 0.0 
4.400000000000e+01 -2.000000000000e+00 0.0 
4.500000000000e+01 -2.000000000000e+00 0.0 
4.600000000000e+01 -2.000000000000e+00 0.0 
4.700000000000e+01 -2.000000000000e+00 0.0 
4.800000000000e+01 -2.000000000000e+00 0.0 
4.900000000000e+01 -2.000000000000e+00 0.0 
2.548076923077e+01 -3.000000000000e+00 0.0 
2.646153846153e+01 -3.000000000000e+00 0.0 
2.744230769230e+01 -3.000000000000e+00 0.0 
2.842307692306e+01 -3.000000000000e+00 0.0 
2.940384615383e+01 -3.000000000000e+00 0.0 
3.038461538459e+01 -3.000000000000e+00 0.0 
3.136538461536e+01 -3.000000000000e+00 0.0 
3.234615384612e+01 -3.000000000000e+00 0.0 
3.332692307687e+01 -3.000000000000e+00 0.0 
3.430769230762e+01 -3.000000000000e+00 0.0 
3.528846153837e+01 -3.000000000000e+00 0.0 
3.626923076912e+01 -3.000000000000e+00 0.0 
3.724999999988e+01 -3.000000000000e+00 0.0 
3.823076923065e+01 -3.000000000000e+00 0.0 
3.921153846143e+01 -3.000000000000e+00 0.0 
4.019230769221e+01 -3.000000000000e+00 0.0 
4.117307692299e+01 -3.000000000000e+00 0.0 
4.215384615377e+01 -3.000000000000e+00 0.0 
4.313461538455e+01 -3.000000000000e+00 0.0 
4.411538461533e+01 -3.000000000000e+00 0.0 
4.509615384611e+01 -3.000000000000e+00 0.0 
4.607692307688e+01 -3.000000000000e+00 0.0 
4.705769230766e+01 -3.000000000000e+00 0.0 
4.803846153844e+01 -3.000000000000e+00 0.0 
4.901923076922e+01 -3.000000000000e+00 0.0 
4.900000000000e+01 -4.000000000000e+00 0.0 
4.800000000000e+01 -4.000000000000e+00 0.0 
4.700000000000e+01 -4.000000000000e+00 0.0 
4.600000000000e+01 -4.000000000000e+00 0.0 
4.500000000000e+01 -4.000000000000e+00 0.0 
4.400000000000e+01 -4.000000000000e+00 0.0 
4.300000000000e+01 -4.000000000000e+00 0.0 
4.200000000000e+01 -4.000000000000e+00 0.0 
4.100000000000e+01 -4.000000000000e+00 0.0 
4.000000000000e+01 -4.000000000000e+00 0.0 
3.900000000000e+01 -4.000000000000e+00 0.0 
3.800000000000e+01 -4.000000000000e+00 0.0 
3.700000000000e+01 -4.000000000000e+00 0.0 
3.600000000000e+01 -4.000000000000e+00 0.0 
3.500000000000e+01 -4.000000000000e+00 0.0 
3.400000000000e+01 -4.000000000000e+00 0.0 
3.300000000000e+01 -4.000000000000e+00 0.0 
3.200000000000e+01 -4.000000000000e+00 0.0 
3.100000000000e+01 -4.000000000000e+00 0.0 
3.000000000000e+01 -4.000000000000e+00 0.0 
2.900000000000e+01 -4.000000000000e+00 0.0 
2.800000000000e+01 -4.000000000000e+00 0.0 
2.700000000000e+01 -4.000000000000e+00 0.0 
2.847826086957e+01 -5.000000000000e+00 0.0 
2.945652173913e+01 -5.000000000000e+00 0.0 
3.043478260870e+01 -5.000000000000e+00 0.0 
3.141304347826e+01 -5.000000000000e+00 0.0 
3.239130434783e+01 -5.000000000000e+00 0.0 
3.336956521739e+01 -5.000000000000e+00 0.0 
3.434782608696e+01 -5.000000000000e+00 0.0 
3.532608695652e+01 -5.000000000000e+00 0.0 
3.630434782609e+01 -5.000000000000e+00 0.0 
3.728260869565e+01 -5.000000000000e+00 0.0 
3.826086956522e+01 -5.000000000000e+00 0.0 
3.923913043478e+01 -5.000000000000e+00 0.0 
4.021739130435e+01 -5.000000000000e+00 0.0 
4.119565217391e+01 -5.000000000000e+00 0.0 
4.217391304348e+01 -5.000000000000e+00 0.0 
4.315217391304e+01 -5.000000000000e+00 0.0 
4.413043478261e+01 -5.000000000000e+00 0.0 
4.510869565217e+01 -5.000000000000e+00 0.0 
4.608695652174e+01 -5.000000000000e+00 0.0 
4.706521739130e+01 -5.000000000000e+00 0.0 
4.804347826087e+01 -5.000000000000e+00 0.0 
4.902173913043e+01 -5.000000000000e+00 0.0 
4.900000000001e+01 -6.000000000000e+00 0.0 
4.800000000003e+01 -6.000000000000e+00 0.0 
4.700000000004e+01 -6.000000000000e+00 0.0 
4.600000000006e+01 -6.000000000000e+00 0.0 
4.500000000007e+01 -6.000000000000e+00 0.0 
4.400000000009e+01 -6.000000000000e+00 0.0 
4.300000000010e+01 -6.000000000000e+00 0.0 
4.200000000012e+01 -6.000000000000e+00 0.0 
4.100000000013e+01 -6.000000000000e+00 0.0 
4.000000000014e+01 -6.000000000000e+00 0.0 
3.900000000014e+01 -6.000000000000e+00 0.0 
3.800000000012e+01 -6.000000000000e+00 0.0 
3.700000000010e+01 -6.000000000000e+00 0.0 
3.600000000008e+01 -6.000000000000e+00 0.0 
3.500000000006e+01 -6.000000000000e+00 0.0 
3.400000000005e+01 -6.000000000000e+00 0.0 
3.300000000003e+01 -6.000000000000e+00 0.0 
3.200000000001e+01 -6.000000000000e+00 0.0 
3.100000000000e+01 -6.000000000000e+00 0.0 
3.000000000000e+01 -6.000000000000e+00 0.0 
3.147499999998e+01 -7.000000000000e+00 0.0 
3.244999999998e+01 -7.000000000000e+00 0.0 
3.342499999998e+01 -7.000000000000e+00 0.0 
3.439999999998e+01 -7.000000000000e+00 0.0 
3.537499999998e+01 -7.000000000000e+00 0.0 
3.634999999998e+01 -7.000000000000e+00 0.0 
3.732499999998e+01 -7.000000000000e+00 0.0 
3.829999999998e+01 -7.000000000000e+00 0.0 
3.927499999999e+01 -7.000000000000e+00 0.0 
4.024999999999e+01 -7.000000000000e+00 0.0 
4.122499999999e+01 -7.000000000000e+00 0.0 
4.219999999999e+01 -7.000000000000e+00 0.0 
4.317499999999e+01 -7.000000000000e+00 0.0 
4.414999999999e+01 -7.000000000000e+00 0.0 
4.512499999999e+01 -7.000000000000e+00 0.0 
4.609999999999e+01 -7.000000000000e+00 0.0 
4.707500000000e+01 -7.000000000000e+00 0.0 
4.805000000000e+01 -7.000000000000e+00 0.0 
4.902500000000e+01 -7.000000000000e+00 0.0 
4.900000000000e+01 -8.000000000000e+00 0.0 
4.800000000000e+01 -8.000000000000e+00 0.0 
4.700000000000e+01 -8.000000000000e+00 0.0 
4.600000000000e+01 -8.000000000000e+00 0.0 
4.500000000000e+01 -8.000000000000e+00 0.0 
4.400000000000e+01 -8.000000000000e+00 0.0 
4.300000000000e+01 -8.000000000000e+00 0.0 
4.200000000000e+01 -8.000000000000e+00 0.0 
4.100000000000e+01 -8.000000000000e+00 0.0 
4.000000000000e+01 -8.000000000000e+00 0.0 
3.900000000000e+01 -8.000000000000e+00 0.0 
3.800000000000e+01 -8.000000000000e+00 0.0 
3.700000000000e+01 -8.000000000000e+00 0.0 
3.600000000000e+01 -8.000000000000e+00 0.0 
3.500000000000e+01 -8.000000000000e+00 0.0 
3.400000000000e+01 -8.000000000000e+00 0.0 
3.300000000000e+01 -8.000000000000e+00 0.0 
3.447058823527e+01 -9.000000000000e+00 0.0 
3.544117647055e+01 -9.000000000000e+00 0.0 
3.641176470582e+01 -9.000000000000e+00 0.0 
3.738235294109e+01 -9.000000000000e+00 0.0 
3.835294117637e+01 -9.000000000000e+00 0.0 
3.932352941164e+01 -9.000000000000e+00 0.0 
4.029411764691e+01 -9.000000000000e+00 0.0 
4.126470588219e+01 -9.000000000000e+00 0.0 
4.223529411748e+01 -9.000000000000e+00 0.0 
4.320588235279e+01 -9.000000000000e+00 0.0 
4.417647058811e+01 -9.000000000000e+00 0.0 
4.514705882342e+01 -9.000000000000e+00 0.0 
4.611764705874e+01 -9.000000000000e+00 0.0 
4.708823529405e+01 -9.000000000000e+00 0.0 
4.805882352937e+01 -9.000000000000e+00 0.0 
4.902941176468e+01 -9.000000000000e+00 0.0 
2.075000000000e+01 -5.000000000006e-01 0.0 
2.225000000000e+01 -1.500000000000e+00 0.0 
2.375000000000e+01 -2.500000000000e+00 0.0 
2.525000000000e+01 -3.500000000000e+00 0.0 
2.675000000000e+01 -4.500000000000e+00 0.0 
2.825000000000e+01 -5.500000000000e+00 0.0 
2.975000000000e+01 -6.500000000000e+00 0.0 
3.125000000000e+01 -7.500000000000e+00 0.0 
3.275000000000e+01 -8.500000000000e+00 0.0 
3.425000000000e+01 -9.500000000000e+00 0.0 
2.226951693683e+01 -2.403913980114e+00 0.0 
1.650149491944e+01 -1.913490915758e+01 0.0 
1.050042386896e+01 -8.504605092970e-01 0.0 
1.553146524712e+01 -8.281255032105e-01 0.0 
1.150000000008e+01 -1.913397459621e+01 0.0 
2.530060260647e+01 -4.428336431260e+00 0.0 
8.651114563942e-01 -1.052096295641e+01 0.0 
2.050000000013e+01 -1.913397459622e+01 0.0 
2.819198729811e+01 -6.399519052838e+00 0.0 
2.445670302931e+01 -1.915649188023e+01 0.0 
3.117591465718e+01 -8.394293040695e+00 0.0 
7.465053044742e+00 -1.920411160581e+01 0.0 
6.398295709691e+00 -8.230098819370e-01 0.0 
2.849659607461e+01 -1.914296187762e+01 0.0 
3.418732642882e+01 -1.040265792588e+01 0.0 
8.386450935063e-01 -6.533605142809e+00 0.0 
9.178661865596e-01 -1.329769195597e+01 0.0 
3.149448624493e+01 -1.910466733764e+01 0.0 
3.552916747426e+01 -1.914628590759e+01 0.0 
4.449210346537e+01 -1.914359085008e+01 0.0 
4.140975975145e+01 -1.906941860733e+01 0.0 
3.847475958753e+01 -1.916622382724e+01 0.0 
3.653774794640e+01 -1.088712800241e+01 0.0 
4.047886341787e+01 -1.090139014048e+01 0.0 
4.348006339825e+01 -1.092792621489e+01 0.0 
4.919519968029e+01 -1.451526755068e+01 0.0 
4.500000000032e+00 -1.913397459621e+01 0.0 
1.856136921614e+01 -8.212235170404e-01 0.0 
3.499895312306e+00 -8.661165539723e-01 0.0 
9.076088696565e-01 -1.642306201891e+01 0.0 
4.655174095477e+01 -1.086183387525e+01 0.0 
9.430688970604e-01 -3.496112672958e+00 0.0 
3.353992337063e+01 -1.901202090820e+01 0.0 
2.249746016977e+01 -1.921262287282e+01 0.0 
2.650122741777e+01 -1.916123026018e+01 0.0 
1.863571384842e+01 -1.908325534840e+01 0.0 
1.450089971693e+01 -1.917691901860e+01 0.0 
1.350044695317e+01 -8.659695299584e-01 0.0 
3.849987469880e+01 -1.084154983397e+01 0.0 
9.454419857884e+00 -1.900818879936e+01 0.0 
4.917398660523e+01 -1.645692866081e+01 0.0 
8.500000000000e+00 -8.660254037844e-01 0.0 
8.660319230785e-01 -8.500111697188e+00 0.0 
4.649022621545e+01 -1.930506220113e+01 0.0 
2.667688107845e+01 -5.420288124331e+00 0.0 
2.379251615665e+01 -3.412225477429e+00 0.0 
2.966631491830e+01 -7.389030232731e+00 0.0 
3.267915035995e+01 -9.396934932445e+00 0.0 
2.074836922338e+01 -1.320054020319e+00 0.0 
4.915985743621e+01 -1.261973384855e+01 0.0 
2.527129768623e+00 -1.931592414663e+01 0.0 
1.538676247410e+00 -8.436956619311e-01 0.0 
4.908096641539e+01 -1.842484004551e+01 0.0 
3.478612492673e+01 -1.090889364140e+01 0.0 
3.409757055860e+01 -1.131991530427e+01 0.0 
3.501895309466e+01 -1.177687842717e+01 0.0 
3.407758073088e+01 -1.224293381580e+01 0.0 
3.484541875390e+01 -1.277051428430e+01 0.0 
3.400322025842e+01 -1.319022775640e+01 0.0 
3.321672625034e+01 -1.266779191233e+01 0.0 
3.315244139236e+01 -1.360984106532e+01 0.0 
3.236335186892e+01 -1.308463225210e+01 0.0 
3.478337442841e+01 -1.372341158982e+01 0.0 
3.230105923633e+01 -1.403023731610e+01 0.0 
3.150954055289e+01 -1.350301767700e+01 0.0 
3.144604792090e+01 -1.444931742516e+01 0.0 
3.065653897123e+01 -1.392357262981e+01 0.0 
3.071897610812e+01 -1.297447031198e+01 0.0 
2.986790411740e+01 -1.339226181535e+01 0.0 
2.993181466745e+01 -1.244703272398e+01 0.0 
2.908023061869e+01 -1.286254537734e+01 0.0 
2.901619051372e+01 -1.380881655279e+01 0.0 
2.822986160390e+01 -1.327695262116e+01 0.0 
2.829453476870e+01 -1.233265343811e+01 0.0 
2.744542905518e+01 -1.274510491105e+01 0.0 
2.751120089246e+01 -1.180368086886e+01 0.0 
2.666218649885e+01 -1.221619339205e+01 0.0 
2.672371209234e+01 -1.127125228527e+01 0.0 
2.587763216302e+01 -1.168539979114e+01 0.0 
2.581165585299e+01 -1.262994410089e+01 0.0 
2.502890882577e+01 -1.209827323619e+01 0.0 
2.509631327757e+01 -1.115492410304e+01 0.0 
2.424662989877e+01 -1.156630981079e+01 0.0 
2.431704046904e+01 -1.062389179334e+01 0.0 
2.346445438728e+01 -1.103427680694e+01 0.0 
2.339382552877e+01 -1.197964871788e+01 0.0 
2.260936050780e+01 -1.144513277642e+01 0.0 
2.268075012022e+01 -1.049911928216e+01 0.0 
2.182525737661e+01 -1.090920811464e+01 0.0 
2.189682319817e+01 -9.961716944568e+00 0.0 
2.104174127792e+01 -1.037266986667e+01 0.0 
2.111304367575e+01 -9.424179358711e+00 0.0 
2.025306185381e+01 -9.832727364719e+00 0.0 
2.018141124247e+01 -1.079140628871e+01 0.0 
1.938594498257e+01 -1.025147354112e+01 0.0 
1.946106490453e+01 -9.288010758448e+00 0.0 
1.858929958352e+01 -9.706319802516e+00 0.0 
1.851540991219e+01 -1.067205988724e+01 0.0 
1.771485303178e+01 -1.012504443115e+01 0.0 
1.764134552256e+01 -1.109360378538e+01 0.0 
1.683745148095e+01 -1.054496365337e+01 0.0 
1.691852964353e+01 -9.582555261178e+00 0.0 
1.603603813062e+01 -1.000160132379e+01 0.0 
1.595824239350e+01 -1.096750698862e+01 0.0 
1.515080624291e+01 -1.041639501931e+01 0.0 
1.523171602559e+01 -9.451711491453e+00 0.0 
1.434621060709e+01 -9.871956467464e+00 0.0 
1.426777178765e+01 -1.083749501371e+01 0.0 
1.345775282374e+01 -1.028803175500e+01 0.0 
1.354103873368e+01 -9.324918457162e+00 0.0 
1.265072018622e+01 -9.742612837270e+00 0.0 
1.257285762070e+01 -1.071557782384e+01 0.0 
1.175874815690e+01 -1.015972324288e+01 0.0 
1.184203019714e+01 -9.193604071377e+00 0.0 
1.094927709905e+01 -9.612103238656e+00 0.0 
1.086938022910e+01 -1.058685085646e+01 0.0 
1.005424098961e+01 -1.002939116380e+01 0.0 
9.977974613295e+00 -1.101324897989e+01 0.0 
1.012915646404e+01 -9.051815821181e+00 0.0 
9.237127782494e+00 -9.471239055559e+00 0.0 
9.308426593771e+00 -8.483376461131e+00 0.0 
8.418806073345e+00 -8.910712374517e+00 0.0 
2.253688464062e+01 -1.239459402279e+01 0.0 
8.495126726666e+00 -7.921646665254e+00 0.0 
9.389727383206e+00 -7.512103628377e+00 0.0 
7.601560812974e+00 -8.349460349344e+00 0.0 
7.525680547759e+00 -9.339736686940e+00 0.0 
7.677888324502e+00 -7.359727833346e+00 0.0 
6.782001206724e+00 -7.788454494773e+00 0.0 
6.858778622885e+00 -6.797338062822e+00 0.0 
2.196596590865e+01 -8.979025665442e+00 0.0 
2.816540108272e+01 -1.422634142353e+01 0.0 
5.961601194403e+00 -7.226824010712e+00 0.0 
6.038171749656e+00 -6.234825887079e+00 0.0 
6.936257279557e+00 -5.805287640737e+00 0.0 
6.115068918323e+00 -5.242109758768e+00 0.0 
3.564391741903e+01 -1.329240553876e+01 0.0 
3.558115605778e+01 -1.425902892003e+01 0.0 
3.645445282201e+01 -1.381970786460e+01 0.0 
3.639744204358e+01 -1.479198128612e+01 0.0 
3.727266909778e+01 -1.435399586226e+01 0.0 
5.216667013081e+00 -5.671788584287e+00 0.0 
3.220697293295e+01 -1.499594545107e+01 0.0 
3.551112158269e+01 -1.523479869250e+01 0.0 
2.836056961467e+01 -1.139032434851e+01 0.0 
2.516730388602e+01 -1.021382726837e+01 0.0 
1.844436907403e+01 -1.164097215196e+01 0.0 
5.885434318740e+00 -8.218694781467e+00 0.0 
5.064071066867e+00 -7.656614643901e+00 0.0 
4.988089103470e+00 -8.649722082718e+00 0.0 
1.079421050408e+01 -1.157014985435e+01 0.0 
9.902420005256e+00 -1.199903342656e+01 0.0 
1.071994252214e+01 -1.255727909771e+01 0.0 
9.826974788171e+00 -1.298659581767e+01 0.0 
1.064607883789e+01 -1.354595476388e+01 0.0 
9.751541265343e+00 -1.397556905071e+01 0.0 
8.932296185869e+00 -1.341553353988e+01 0.0 
8.856399248106e+00 -1.440570715508e+01 0.0 
8.036186803543e+00 -1.384470558472e+01 0.0 
1.057112875118e+01 -1.453516759081e+01 0.0 
1.146582585687e+01 -1.410539926903e+01 0.0 
7.959894480382e+00 -1.483563350928e+01 0.0 
7.138792279156e+00 -1.427465094140e+01 0.0 
7.062506792418e+00 -1.526615385482e+01 0.0 
6.240693558277e+00 -1.470508863040e+01 0.0 
6.316957575451e+00 -1.371212581281e+01 0.0 
5.418183007107e+00 -1.414253605022e+01 0.0 
5.494748364428e+00 -1.314886770603e+01 0.0 
1.756825565873e+01 -1.206433872514e+01 0.0 
1.837565773345e+01 -1.261356468266e+01 0.0 
1.749574831391e+01 -1.303769280014e+01 0.0 
1.830539187332e+01 -1.358828364284e+01 0.0 
1.742278925170e+01 -1.401367746928e+01 0.0 
1.823303007798e+01 -1.456432294258e+01 0.0 
1.734941694138e+01 -1.499213734361e+01 0.0 
1.653760041637e+01 -1.443920312098e+01 0.0 
3.056237977307e+01 -1.487132260174e+01 0.0 
1.866469084762e+01 -8.742953000418e+00 0.0 
1.953669694916e+01 -8.326038909849e+00 0.0 
1.874194303780e+01 -7.780688158966e+00 0.0 
1.961032016741e+01 -7.366854697285e+00 0.0 
1.881715755159e+01 -6.821102209649e+00 0.0 
1.968369797150e+01 -6.407747217358e+00 0.0 
1.889237123259e+01 -5.858375520026e+00 0.0 
1.802038875366e+01 -6.276202618170e+00 0.0 
1.809793837984e+01 -5.307629520489e+00 0.0 
1.721985207997e+01 -5.728242054488e+00 0.0 
1.729850893523e+01 -4.756990819347e+00 0.0 
1.641745664240e+01 -5.174636548624e+00 0.0 
2.495978509456e+01 -1.304406404294e+01 0.0 
1.911567814831e+01 -1.413854250293e+01 0.0 
1.904387332608e+01 -1.511463127723e+01 0.0 
1.992115934240e+01 -1.468788025898e+01 0.0 
7.013706899628e+00 -4.812582868662e+00 0.0 
5.342091874585e+00 -1.513658157269e+01 0.0 
1.139098043784e+01 -1.509488509480e+01 0.0 
1.228151810610e+01 -1.465617481983e+01 0.0 
1.646373110164e+01 -1.541993323337e+01 0.0 
5.293328636712e+00 -4.678385108584e+00 0.0 
1.975965862987e+01 -5.448124345648e+00 0.0 
2.054318374236e+01 -5.992561293251e+00 0.0 
3.721453439063e+01 -1.533216152738e+01 0.0 
3.809302733893e+01 -1.489235527381e+01 0.0 
1.220852788900e+01 -1.565304565230e+01 0.0 
4.394120899730e+00 -5.108397613210e+00 0.0 
8.779354620288e+00 -1.539524721159e+01 0.0 
1.817791047702e+01 -4.338570146253e+00 0.0 
4.518860013839e+00 -1.457343189307e+01 0.0 
4.442712140414e+00 -1.556841391069e+01 0.0 
8.115343466391e+00 -1.285760324283e+01 0.0 
1.985334703171e+01 -1.566478400426e+01 0.0 
2.071953850276e+01 -1.522074243119e+01 0.0 
1.634012953883e+01 -6.154777738301e+00 0.0 
1.553479994708e+01 -5.593730508879e+00 0.0 
1.561265946942e+01 -4.617761762647e+00 0.0 
1.470674212978e+01 -5.064576488228e+00 0.0 
1.464498299883e+01 -6.026514471420e+00 0.0 
1.383271561817e+01 -5.467796261169e+00 0.0 
1.389241253067e+01 -4.504338666645e+00 0.0 
1.301868735463e+01 -4.907185188626e+00 0.0 
1.294514184846e+01 -5.888160903592e+00 0.0 
1.212955968622e+01 -5.328262335277e+00 0.0 
1.220721122383e+01 -4.341264976687e+00 0.0 
1.131324345897e+01 -4.766773516508e+00 0.0 
5.266597955397e+00 -1.613148974258e+01 0.0 
1.737805990867e+01 -3.786677807525e+00 0.0 
3.078438094513e+01 -1.203225297748e+01 0.0 
1.131569882285e+01 -1.608511932110e+01 0.0 
1.728478341782e+01 -1.596017432313e+01 0.0 
3.803465906019e+01 -1.587509751228e+01 0.0 
3.891681276677e+01 -1.543395196905e+01 0.0 
3.897340985302e+01 -1.444710288980e+01 0.0 
3.980095968193e+01 -1.499059496613e+01 0.0 
3.974334598189e+01 -1.597921884150e+01 0.0 
4.062964983717e+01 -1.553518690417e+01 0.0 
4.068729602479e+01 -1.454434445295e+01 0.0 
4.151772679790e+01 -1.508974196007e+01 0.0 
4.157505195739e+01 -1.409694289912e+01 0.0 
4.240699932656e+01 -1.464347955968e+01 0.0 
4.234898051011e+01 -1.563721375790e+01 0.0 
4.323934606035e+01 -1.519082036405e+01 0.0 
4.329740528208e+01 -1.419587509788e+01 0.0 
4.413056841369e+01 -1.474359631875e+01 0.0 
4.418850110108e+01 -1.374786684042e+01 0.0 
4.502219770667e+01 -1.429605103525e+01 0.0 
4.496411937907e+01 -1.529215882720e+01 0.0 
4.490027319897e+00 -4.154167794594e+00 0.0 
1.565080385988e+01 -1.486411982419e+01 0.0 
1.557610691279e+01 -1.584855627870e+01 0.0 
4.195350646612e+00 -8.089117689096e+00 0.0 
4.124027797830e+00 -9.082831955007e+00 0.0 
4.917944318925e+00 -9.643530901533e+00 0.0 
4.020105689502e+00 -1.007439673661e+01 0.0 
4.587185899277e+01 -1.484039992728e+01 0.0 
4.580078661551e+01 -1.584043391042e+01 0.0 
2.061956522375e+01 -5.046701343981e+00 0.0 
2.139572955529e+01 -5.579553449826e+00 0.0 
3.715344357292e+01 -1.631485124583e+01 0.0 
3.618886196443e+00 -1.500471207167e+01 0.0 
3.695606940204e+00 -1.400939692294e+01 0.0 
2.438890661143e+01 -9.686110599723e+00 0.0 
2.523267572778e+01 -9.276766000622e+00 0.0 
2.446094171539e+01 -8.751904591412e+00 0.0 
2.529089822738e+01 -8.321495612547e+00 0.0 
2.606882688827e+01 -8.864724051119e+00 0.0 
2.452116646430e+01 -7.792756462004e+00 0.0 
1.235543269617e+01 -1.365845617339e+01 0.0 
4.318116874181e+01 -1.618567469992e+01 0.0 
7.835066111909e+00 -5.376366223896e+00 0.0 
7.905687335704e+00 -4.382539065697e+00 0.0 
3.542640009567e+00 -1.600035116542e+01 0.0 
1.572431503071e+01 -1.388358386695e+01 0.0 
2.574684696680e+01 -1.357896141127e+01 0.0 
2.488842657651e+01 -1.399674354505e+01 0.0 
2.568301775611e+01 -1.453552048595e+01 0.0 
2.481535572009e+01 -1.495542756508e+01 0.0 
2.561729699688e+01 -1.549784648532e+01 0.0 
2.474623061296e+01 -1.592058894178e+01 0.0 
2.394234041695e+01 -1.537572575827e+01 0.0 
2.065825452567e+01 -1.621899055217e+01 0.0 
2.387180528935e+01 -1.634552264687e+01 0.0 
4.585364400844e+01 -1.383912334080e+01 0.0 
1.998744432052e+01 -1.370317155541e+01 0.0 
1.205356951443e+01 -6.313580285498e+00 0.0 
5.396543905849e+00 -3.731818611283e+00 0.0 
1.139652573295e+01 -3.745819399350e+00 0.0 
3.574124306703e+00 -4.551456826011e+00 0.0 
3.494140761930e+00 -5.539787055649e+00 0.0 
1.213651452413e+01 -1.664505033022e+01 0.0 
2.555045568519e+01 -1.646529356744e+01 0.0 
2.641671114986e+01 -1.603899382371e+01 0.0 
2.612920721894e+01 -7.906435260873e+00 0.0 
2.690339829698e+01 -8.456969591431e+00 0.0 
1.978024383368e+01 -1.664410216353e+01 0.0 
3.732829979082e+01 -1.336926601859e+01 0.0 
4.074336584605e+01 -1.355133328401e+01 0.0 
4.163204691081e+01 -1.310280943992e+01 0.0 
3.773826114429e+00 -3.493444309145e+00 0.0 
1.228783001032e+01 -3.374822835872e+00 0.0 
4.057110462520e+01 -1.652588478000e+01 0.0 
2.132535497898e+01 -6.523623360525e+00 0.0 
2.216932532211e+01 -6.110044769206e+00 0.0 
1.825781152128e+01 -3.370146817147e+00 0.0 
1.745679445888e+01 -2.812942552063e+00 0.0 
4.666517057280e+01 -1.539981381543e+01 0.0 
4.660575894464e+01 -1.639014410186e+01 0.0 
4.838230979954e+00 -1.063643436446e+01 0.0 
3.938942630206e+00 -1.106778981745e+01 0.0 
1.302967218620e+01 -1.621373452436e+01 0.0 
1.049548003190e+01 -4.204825123240e+00 0.0 
4.573571907195e+01 -1.683820511148e+01 0.0 
1.483686335807e+01 -1.430849689310e+01 0.0 
1.490982658890e+01 -1.332679386284e+01 0.0 
3.190805600162e+00 -9.510968358545e+00 0.0 
2.146625721848e+01 -4.642437303115e+00 0.0 
2.069866208266e+01 -4.111852942193e+00 0.0 
1.286859345584e+01 -6.873252723348e+00 0.0 
1.041794493184e+01 -5.194814260291e+00 0.0 
2.671081808965e+00 -4.976806516331e+00 0.0 
1.295786792925e+01 -1.720506531799e+01 0.0 
3.968438206511e+01 -1.696869067241e+01 0.0 
2.308550456051e+01 -1.579963151273e+01 0.0 
2.315593682844e+01 -1.482967445235e+01 0.0 
2.299471449450e+01 -1.677069968132e+01 0.0 
1.057344714696e+01 -3.214252277840e+00 0.0 
1.124057603753e+01 -1.707713739755e+01 0.0 
2.718402535754e+00 -1.543629882103e+01 0.0 
2.638549692805e+01 -1.696744916809e+01 0.0 
2.723416349007e+01 -1.658104204545e+01 0.0 
2.210193351704e+01 -7.046769643417e+00 0.0 
2.295180925161e+01 -6.657397605239e+00 0.0 
2.301355235833e+01 -5.709111896800e+00 0.0 
2.379052718281e+01 -6.254965406962e+00 0.0 
3.243528601237e+01 -1.214181853533e+01 0.0 
2.287977995457e+01 -7.583722368300e+00 0.0 
2.999876029544e+01 -1.150837653096e+01 0.0 
3.084435366963e+01 -1.109693775882e+01 0.0 
3.006650579669e+01 -1.057778994262e+01 0.0 
2.683802665066e+01 -9.386863216633e+00 0.0 
2.768641973621e+01 -8.988883915666e+00 0.0 
2.040296980397e+01 -7.903629133404e+00 0.0 
1.925235024054e+01 -1.218872783130e+01 0.0 
5.735667000424e+00 -1.020577277283e+01 0.0 
6.396559909872e+00 -1.272326295703e+01 0.0 
1.161199420714e+01 -1.212812778229e+01 0.0 
4.229046132615e+01 -1.663084237572e+01 0.0 
4.312275399692e+01 -1.718087491556e+01 0.0 
4.335502068163e+01 -1.320039231514e+01 0.0 
4.424630298089e+01 -1.275160688731e+01 0.0 
7.090116643816e+00 -3.818998061530e+00 0.0 
7.989472176569e+00 -3.389238711200e+00 0.0 
9.085824861778e+00 -1.144036167408e+01 0.0 
1.041972423731e+01 -1.651614080893e+01 0.0 
3.797525112640e+01 -1.686052038746e+01 0.0 
3.709114253394e+01 -1.730125999865e+01 0.0 
3.626966748340e+01 -1.675477052919e+01 0.0 
1.385164591440e+01 -1.677597757552e+01 0.0 
1.787152588784e+01 -8.198993896093e+00 0.0 
1.668849729812e+01 -1.248560611628e+01 0.0 
1.659546177905e+01 -3.232482605530e+00 0.0 
2.332214717345e+01 -1.292598167641e+01 0.0 
7.168238450786e+00 -2.824711686516e+00 0.0 
2.894878403906e+01 -1.475427524446e+01 0.0 
2.646763248247e+00 -1.643270107952e+01 0.0 
3.467431944285e+00 -1.699648837348e+01 0.0 
2.059475877282e+01 -1.719473628526e+01 0.0 
3.333868355437e+01 -1.080596971682e+01 0.0 
2.246451062637e+01 -1.334557761546e+01 0.0 
2.167821896388e+01 -1.280847834858e+01 0.0 
3.089653185767e+01 -1.017198487212e+01 0.0 
3.012604365669e+01 -9.657298805968e+00 0.0 
2.929627299435e+01 -1.006100135274e+01 0.0 
2.936201435219e+01 -9.136748899251e+00 0.0 
1.198219052702e+01 -7.291887238230e+00 0.0 
1.116702076035e+01 -6.731976101053e+00 0.0 
2.551388807505e+01 -1.746927036981e+01 0.0 
2.378639090370e+01 -1.728678807149e+01 0.0 
2.718543627188e+01 -1.748668016909e+01 0.0 
2.804681050301e+01 -1.712626668293e+01 0.0 
1.970737034667e+01 -1.762317646822e+01 0.0 
1.889535776135e+01 -1.707158098231e+01 0.0 
2.593777711283e+00 -5.971157087874e+00 0.0 
2.773468281110e+01 -8.067164273938e+00 0.0 
4.051205884347e+01 -1.751819982458e+01 0.0 
3.166903145421e+01 -1.068032992414e+01 0.0 
1.033042452886e+01 -1.748285844336e+01 0.0 
9.519274604626e+00 -1.694349240233e+01 0.0 
1.668308673328e+01 -2.255861778986e+00 0.0 
1.570531902832e+01 -2.676795860126e+00 0.0 
4.655826903379e+01 -1.736656245706e+01 0.0 
2.384148070773e+01 -5.328744256413e+00 0.0 
2.460255123641e+01 -5.852182672816e+00 0.0 
2.306638135119e+01 -4.798935440613e+00 0.0 
8.467720450578e-01 -1.849576263072e+01 0.0 
4.849657322345e+01 -1.084860705506e+01 0.0 
2.565860899507e+00 -1.742859793981e+01 0.0 
2.764418872564e+01 -9.927142821799e+00 0.0 
4.565165880064e+01 -1.785336695404e+01 0.0 
2.162231831329e+01 -1.376528337468e+01 0.0 
2.360646352969e+01 -9.136041963102e+00 0.0 
1.392738739903e+01 -1.578285505772e+01 0.0 
4.756405947478e+01 -1.683706841809e+01 0.0 
4.740895034054e+01 -1.793766756892e+01 0.0 
4.080779328826e+01 -1.257387192544e+01 0.0 
4.168907939671e+01 -1.210739129181e+01 0.0 
3.991197722154e+01 -1.300815793917e+01 0.0 
1.905536506762e+01 -3.940076697685e+00 0.0 
1.923879596617e+01 -2.875000734166e+00 0.0 
4.401386745746e+01 -1.673483229438e+01 0.0 
4.247233362525e+00 -7.094581653070e+00 0.0 
3.286051630211e+00 -7.635300020553e+00 0.0 
9.609533347623e+00 -4.594311677967e+00 0.0 
9.523554636369e+00 -5.595597029530e+00 0.0 
5.660336628893e+00 -1.119290329628e+01 0.0 
6.558070063295e+00 -1.076385809362e+01 0.0 
2.809866407414e+01 -1.518037766799e+01 0.0 
2.888868674504e+01 -1.570360690070e+01 0.0 
2.654431550819e+01 -1.411217777162e+01 0.0 
1.402158265969e+01 -1.375404617952e+01 0.0 
1.409592494026e+01 -1.277071998942e+01 0.0 
1.499355196178e+01 -1.235270737023e+01 0.0 
4.221535326155e+01 -1.759335617494e+01 0.0 
4.305583287033e+01 -1.822663146802e+01 0.0 
1.280748808359e+01 -7.834332838285e+00 0.0 
1.368988389326e+01 -7.420529606172e+00 0.0 
1.110091796060e+01 -7.683966794328e+00 0.0 
3.963446145980e+01 -1.794331310122e+01 0.0 
3.423932362213e+00 -1.796415590455e+01 0.0 
4.280814572302e+00 -1.752272834860e+01 0.0 
8.050136380041e+00 -2.421582378631e+00 0.0 
8.888674091650e+00 -2.984264211327e+00 0.0 
2.152839430898e+01 -3.732609965436e+00 0.0 
2.077799585292e+01 -3.183896021866e+00 0.0 
3.618719395821e+01 -1.770276572576e+01 0.0 
3.538165138340e+01 -1.718709995539e+01 0.0 
3.702925326420e+01 -1.828844288807e+01 0.0 
1.756739438711e+00 -5.353284859169e+00 0.0 
2.233710191104e+01 -1.527265621324e+01 0.0 
1.389483555057e+01 -1.771797164730e+01 0.0 
1.475634224300e+01 -1.728357428390e+01 0.0 
1.298797563052e+01 -1.825968924755e+01 0.0 
2.145331271866e+01 -1.673705379077e+01 0.0 
2.133282821169e+01 -1.769400773673e+01 0.0 
2.292139194136e+01 -1.774915400288e+01 0.0 
1.750750053243e+01 -1.861475593469e+00 0.0 
4.830478841772e+01 -1.752611802221e+01 0.0 
4.341203507805e+01 -1.220326745522e+01 0.0 
1.685254151866e+01 -1.443085301632e+00 0.0 
4.431538535165e+01 -1.171841387375e+01 0.0 
4.511308610496e+01 -1.229557320599e+01 0.0 
4.510133242889e+01 -1.123680627466e+01 0.0 
1.846818030617e+00 -4.410877617069e+00 0.0 
3.995468694584e+01 -1.186571542989e+01 0.0 
3.901387459804e+01 -1.242507616755e+01 0.0 
8.966735877533e+00 -1.837818700423e+00 0.0 
4.049310011091e+01 -1.848269508791e+01 0.0 
7.278862053803e+00 -1.918523922691e+00 0.0 
6.429715522129e+00 -2.316676521184e+00 0.0 
9.443505505022e+00 -1.792198868094e+01 0.0 
8.620386951051e+00 -1.737590365556e+01 0.0 
8.571868171503e+00 -1.834436667826e+01 0.0 
7.758629848526e+00 -1.775677907213e+01 0.0 
7.806648388584e+00 -1.680761266021e+01 0.0 
6.908555145436e+00 -1.723746463044e+01 0.0 
4.251709122090e+01 -1.156937480156e+01 0.0 
6.931136405615e+00 -1.832465719263e+01 0.0 
6.015545461353e+00 -1.768865355295e+01 0.0 
5.960535926343e+00 -1.872011001764e+01 0.0 
3.023253444786e+01 -8.761960642196e+00 0.0 
2.454622702599e+01 -6.749421992767e+00 0.0 
2.537499741604e+01 -6.347634963783e+00 0.0 
2.544077378460e+01 -5.431358513649e+00 0.0 
2.801367161747e+01 -1.820907270221e+01 0.0 
2.884507806914e+01 -1.762032095326e+01 0.0 
1.821474531936e+00 -1.588901260460e+01 0.0 
1.821006262604e+00 -1.489370287756e+01 0.0 
4.599962488908e+01 -1.176478780598e+01 0.0 
4.705457470007e+01 -1.172182804229e+01 0.0 
4.667668314802e+01 -1.263464558483e+01 0.0 
4.759648056504e+01 -1.252380987933e+01 0.0 
4.728041618103e+01 -1.341928568376e+01 0.0 
4.825209352360e+01 -1.330491640804e+01 0.0 
4.778118233428e+01 -1.420151961695e+01 0.0 
2.388192727579e+01 -1.826934810142e+01 0.0 
2.381714684947e+01 -4.385917965223e+00 0.0 
3.172733219247e+01 -9.758744265248e+00 0.0 
1.882012070658e+01 -1.805540597212e+01 0.0 
1.805667505243e+01 -1.742221226236e+01 0.0 
2.852599958080e+01 -8.597196079481e+00 0.0 
2.856486123437e+01 -7.661382718527e+00 0.0 
1.111792842875e+01 -1.818223852980e+01 0.0 
2.203322722466e+01 -7.986646678802e+00 0.0 
3.955703676900e+01 -1.903246763601e+01 0.0 
1.944842206513e+01 -8.038750575182e-01 0.0 
1.909882767783e+01 -1.746322740933e+00 0.0 
2.281147422941e+01 -8.525912918334e+00 0.0 
2.850633001468e+01 -9.533271335986e+00 0.0 
2.532883344309e+01 -7.308951659710e+00 0.0 
2.620475466461e+01 -6.979208585400e+00 0.0 
1.396278270396e+01 -1.475095389807e+01 0.0 
9.791001166724e+00 -2.554159793552e+00 0.0 
2.229293380421e+01 -4.269762271052e+00 0.0 
4.677238984118e+01 -1.430071795514e+01 0.0 
2.228658385918e+01 -3.344747535984e+00 0.0 
8.940223674553e-01 -1.543595733415e+01 0.0 
2.118566862474e+01 -8.435876987696e+00 0.0 
2.678325936437e+01 -1.032621195706e+01 0.0 
2.223400220487e+01 -5.179046761770e+00 0.0 
2.375370625384e+01 -7.251580562134e+00 0.0 
3.156971327386e+01 -1.255534750737e+01 0.0 
3.328226391312e+01 -1.172914813316e+01 0.0 
3.250948774219e+01 -1.120157009348e+01 0.0 
2.032993445717e+01 -8.867880112202e+00 0.0 
2.697226974856e+01 -7.536633082045e+00 0.0 
2.707377810386e+01 -6.590835263295e+00 0.0 
2.914099246827e+01 -1.191678458549e+01 0.0 
3.544824072239e+01 -1.621126558525e+01 0.0 
3.456511855436e+01 -1.665054783843e+01 0.0 
3.448395810225e+01 -1.759117813016e+01 0.0 
3.368378673938e+01 -1.708037781328e+01 0.0 
3.375560452567e+01 -1.610973066913e+01 0.0 
3.288001547988e+01 -1.654324255651e+01 0.0 
3.282475929147e+01 -1.749725654692e+01 0.0 
3.199880906313e+01 -1.697294088625e+01 0.0 
3.197001272932e+01 -1.811667776864e+01 0.0 
3.111884713021e+01 -1.742166785755e+01 0.0 
3.120418962865e+01 -1.642155709385e+01 0.0 
3.034666704371e+01 -1.683123833816e+01 0.0 
3.026224379976e+01 -1.772592851714e+01 0.0 
3.046632362943e+01 -1.582232843075e+01 0.0 
1.961344017324e+01 -1.857459447985e+01 0.0 
2.274975894774e+01 -9.532738811922e+00 0.0 
1.833923246887e+01 -2.396746883672e+00 0.0 
1.988859500848e+01 -2.249244376594e+00 0.0 
2.758045562861e+01 -1.086434261689e+01 0.0 
3.247300178163e+01 -1.909930104252e+01 0.0 
3.461947482503e+01 -1.911879848019e+01 0.0 
2.047161538662e+01 -6.941478180358e+00 0.0 
2.750230940214e+01 -1.915490590764e+01 0.0 
3.165081350803e+01 -1.161860780120e+01 0.0 
1.897456727641e+01 -4.889634688522e+00 0.0 
2.549338539756e+01 -1.914858252089e+01 0.0 
3.462873135081e+01 -1.567482276144e+01 0.0 
3.384432415243e+01 -1.512280684518e+01 0.0 
3.471433767690e+01 -1.469086942990e+01 0.0 
3.651470373046e+01 -1.918207952149e+01 0.0 
3.901742690249e+01 -1.345028556517e+01 0.0 
2.153224102692e+01 -1.920169709333e+01 0.0 
1.918382939341e+01 -1.316226275662e+01 0.0 
2.005389162382e+01 -1.271962165174e+01 0.0 
2.011472087878e+01 -1.175029352900e+01 0.0 
3.210679478412e+01 -1.598038618242e+01 0.0 
1.752175226543e+01 -1.914713022656e+01 0.0 
1.696897240059e+01 -1.832772588765e+01 0.0 
1.599682523337e+01 -1.832599992024e+01 0.0 
1.644507199462e+01 -1.743697981535e+01 0.0 
1.549987712903e+01 -1.915192375101e+01 0.0 
3.050250861901e+01 -1.918943550234e+01 0.0 
2.949944061527e+01 -1.922950455235e+01 0.0 
1.375892575273e+01 -6.447160534926e+00 0.0 
1.457223670180e+01 -7.006709243857e+00 0.0 
1.450818793236e+01 -7.965943451779e+00 0.0 
1.538804712402e+01 -7.553409623699e+00 0.0 
1.545817644768e+01 -6.580929593419e+00 0.0 
1.626506893751e+01 -7.129032608911e+00 0.0 
1.619833811522e+01 -8.086588580887e+00 0.0 
1.714448609609e+01 -6.697429609777e+00 0.0 
2.887616543568e+01 -1.668015232137e+01 0.0 
1.349814589130e+01 -1.918225301544e+01 0.0 
1.153887772210e+01 -1.311384581217e+01 0.0 
1.242708159886e+01 -1.267046795531e+01 0.0 
1.249799674267e+01 -1.169005616014e+01 0.0 
6.631723893693e+00 -9.774184881867e+00 0.0 
7.451471631867e+00 -1.033148796006e+01 0.0 
7.377795355458e+00 -1.132196345268e+01 0.0 
5.810931797536e+00 -9.211654212252e+00 0.0 
2.402683899133e+01 -1.441378562320e+01 0.0 
1.249768692036e+01 -1.917388426624e+01 0.0 
1.580373499437e+01 -1.290751860664e+01 0.0 
8.344650507834e+00 -9.898403995170e+00 0.0 
3.750622115305e+01 -1.086526401533e+01 0.0 
3.699391251667e+01 -1.171695900794e+01 0.0 
3.606517829518e+01 -1.173717504500e+01 0.0 
3.650257641795e+01 -1.270047380221e+01 0.0 
3.808951488918e+01 -1.183518714175e+01 0.0 
4.760380962420e+00 -1.162484888315e+01 0.0 
3.861210370848e+00 -1.205657631736e+01 0.0 
3.038284309476e+00 -1.149851280664e+01 0.0 
2.961598794889e+00 -1.248856794980e+01 0.0 
2.138953225512e+00 -1.193212674534e+01 0.0 
2.227383593457e+00 -1.096258903918e+01 0.0 
2.043265419276e+00 -1.292158472959e+01 0.0 
1.252449446028e+00 -1.225502002753e+01 0.0 
3.949985210740e+01 -1.086594001795e+01 0.0 
1.453499444792e+01 -8.768805922472e-01 0.0 
1.403518950933e+01 -1.749965556633e+00 0.0 
1.300715031023e+01 -1.714737233040e+00 0.0 
1.350929389899e+01 -2.527443911291e+00 0.0 
1.449600910711e+01 -2.595486162864e+00 0.0 
1.395693872901e+01 -3.484211041558e+00 0.0 
1.495105865208e+01 -3.364609636216e+00 0.0 
1.508822528740e+01 -1.766586020494e+00 0.0 
1.250223858430e+01 -8.634590186802e-01 0.0 
1.200279523409e+01 -1.709044504992e+00 0.0 
1.150086239419e+01 -8.592789190668e-01 0.0 
1.101482754194e+01 -1.677730591922e+00 0.0 
1.148018564526e+01 -2.659323866909e+00 0.0 
8.800552119754e+00 -3.989875954728e+00 0.0 
3.452790439430e+00 -1.901136170646e+01 0.0 
8.658451825200e-01 -9.503462241795e+00 0.0 
1.694787786797e+00 -9.000589234502e+00 0.0 
1.703436717094e+00 -8.038819004041e+00 0.0 
2.594197971110e+00 -8.563955242845e+00 0.0 
1.630513735412e+00 -9.907244747511e+00 0.0 
8.566859292791e-01 -7.512203837972e+00 0.0 
1.685461277022e+00 -7.164280248030e+00 0.0 
2.506394468801e+00 -8.623386730818e-01 0.0 
2.007475081581e+00 -1.727729545205e+00 0.0 
9.211534699767e-01 -1.628791366312e+00 0.0 
1.500000000020e+00 -2.598063549486e+00 0.0 
2.482078929963e+00 -2.553580088725e+00 0.0 
2.999795253092e+00 -1.732169015019e+00 0.0 
3.999712607169e+00 -1.728832897453e+00 0.0 
4.499752199340e+00 -8.656478679175e-01 0.0 
4.964377774841e+00 -1.730129617941e+00 0.0 
4.425017908337e+00 -2.597541756243e+00 0.0 
5.446573195014e+00 -8.410144840023e-01 0.0 
4.915722346614e+01 -1.550640962770e+01 0.0 
4.826794919243e+01 -1.600000000000e+01 0.0 
1.053139533193e+01 -1.911782884365e+01 0.0 
4.156049861949e+01 -1.095160998589e+01 0.0 
9.494526624416e+00 -8.650570090219e-01 0.0 
4.555762166964e+01 -1.897098103585e+01 0.0 
4.250656411371e+01 -1.914387356218e+01 0.0 
4.350906466345e+01 -1.917234727395e+01 0.0 
8.759665722424e-01 -1.746422130609e+01 0.0 
1.698936011838e+00 -1.795012186674e+01 0.0 
4.742476811029e+01 -1.900090177972e+01 0.0 
7.749196752349e+00 -6.368049313489e+00 0.0 
3.361572113416e+01 -1.798765193915e+01 0.0 
4.484660149212e+01 -1.728661231383e+01 0.0 
1.984038172228e+01 -4.502575320116e+00 0.0 
1.035080352627e+01 -6.166639575753e+00 0.0 
2.753558010652e+00 -1.444909521181e+01 0.0 
7.217069543032e+00 -1.328635391078e+01 0.0 
4.364336727739e+00 -1.655585677381e+01 0.0 
4.595208426108e+00 -1.357919665443e+01 0.0 
6.164967006980e+00 -1.569873454630e+01 0.0 
1.487855768353e+01 -1.826523774028e+01 0.0 
2.791876456372e+00 -4.019632415181e+00 0.0 
4.246464893515e+01 -1.364898659620e+01 0.0 
4.503855590351e+01 -1.329552780944e+01 0.0 
4.407239109604e+01 -1.573900004093e+01 0.0 
5.141054449252e+00 -6.664290382472e+00 0.0 
3.141083947149e+00 -1.055790764912e+01 0.0 
6.196463198741e+00 -4.256497932609e+00 0.0 
2.599618716181e+01 -1.836893455464e+01 0.0 
2.923057372337e+01 -1.098461757645e+01 0.0 
1.168343877486e+01 -1.114079645041e+01 0.0 
6.706222096238e+00 -8.780364234441e+00 0.0 
8.567858614669e+00 -6.943121440850e+00 0.0 
1.123755132901e+01 -5.753525820030e+00 0.0 
2.353456234423e+01 -1.008536320953e+01 0.0 
9.162073319168e+00 -1.045593739109e+01 0.0 
9.676343469685e+00 -1.496493008366e+01 0.0 
4.490637882905e+01 -1.628778970202e+01 0.0 
7.398129387772e+00 -9.639977982323e-01 0.0 
1.049641705805e+01 -1.552503975272e+01 0.0 
9.010356286268e+00 -1.242805042052e+01 0.0 
3.985573925497e+01 -1.399863651620e+01 0.0 
1.816196318262e+01 -1.554066497931e+01 0.0 
1.306332244168e+01 -3.963646550326e+00 0.0 
4.145850903932e+01 -1.608094559275e+01 0.0 
3.794664933633e+01 -1.779020121986e+01 0.0 
3.819614412903e+01 -1.290749321016e+01 0.0 
6.270014188119e+00 -3.255093186826e+00 0.0 
4.251165370388e+01 -1.263870364997e+01 0.0 
1.207347709171e+01 -1.763942826023e+01 0.0 
3.633240829927e+01 -1.577330481104e+01 0.0 
4.319052668832e+00 -6.101812561904e+00 0.0 
1.676492415806e+01 -1.151547901392e+01 0.0 
2.594059220037e+01 -1.074225223009e+01 0.0 
3.340750911501e+01 -9.898764354137e+00 0.0 
4.397619591281e+01 -1.769773736461e+01 0.0 
2.175611595028e+01 -1.185718747128e+01 0.0 
1.641818733106e+01 -1.640685203215e+01 0.0 
1.661211421753e+01 -1.346121366338e+01 0.0 
3.428853504935e+00 -6.551993389271e+00 0.0 
8.700728832502e+00 -1.638460872825e+01 0.0 
1.931369795309e+01 -1.121629383702e+01 0.0 
4.139798872363e+01 -1.706922153459e+01 0.0 
2.647837478700e+01 -1.507353829290e+01 0.0 
1.779469616424e+01 -9.161615782908e+00 0.0 
3.885879219319e+01 -1.642026488918e+01 0.0 
1.338194936770e+01 -1.125916521471e+01 0.0 
1.897071181111e+01 -1.609204322578e+01 0.0 
2.844308548793e+01 -1.046221003096e+01 0.0 
2.659854702194e+01 -1.316109415760e+01 0.0 
2.979604503271e+01 -1.433296157755e+01 0.0 
2.417694041347e+01 -1.251231397779e+01 0.0 
1.807401327411e+00 -1.388891148480e+01 0.0 
9.599810618782e+00 -1.595439365034e+01 0.0 
1.652144692160e+01 -4.205392788472e+00 0.0 
2.367839450246e+01 -8.188385218643e+00 0.0 
3.814894930468e+01 -1.390748338767e+01 0.0 
2.466448215774e+01 -1.685878545680e+01 0.0 
4.134044524611e+01 -1.806610045954e+01 0.0 
2.600511411958e+01 -9.801774120648e+00 0.0 
7.882158050716e+00 -1.582364037353e+01 0.0 
3.881607873422e+01 -1.737970515013e+01 0.0 
8.270182347708e+00 -1.088622154920e+01 0.0 
8.672520392520e-01 -4.532984309881e+00 0.0 
1.993447205337e+01 -3.579061902667e+00 0.0 
1.794616079549e+01 -7.238038888498e+00 0.0 
2.097277068165e+01 -1.132450168636e+01 0.0 
8.194803300681e+00 -1.187214224265e+01 0.0 
3.522279404911e+01 -1.823342818178e+01 0.0 
6.984481050295e+00 -1.625271465557e+01 0.0 
1.309433007797e+01 -1.521718594215e+01 0.0 
2.150246167611e+01 -1.885399038185e+00 0.0 
3.250689370209e+01 -1.028789870535e+01 0.0 
6.085886272238e+00 -1.668342132851e+01 0.0 
1.588455661727e+01 -1.193498985921e+01 0.0 
1.809323400821e+01 -1.651110084195e+01 0.0 
1.348885082381e+00 -1.136065576512e+01 0.0 
2.497670221995e+01 -1.834631276173e+01 0.0 
2.937062818424e+01 -8.233711194470e+00 0.0 
5.185823744469e+00 -1.711566910207e+01 0.0 
1.477497877209e+01 -1.530177014512e+01 0.0 
2.125346158933e+01 -7.473003997367e+00 0.0 
4.751561118290e+01 -1.084897772632e+01 0.0 
5.056026576843e+00 -1.825750475525e+01 0.0 
1.473948554523e+01 -1.634577436309e+01 0.0 
2.410566630936e+01 -1.345970002612e+01 0.0 
1.507337507513e+01 -1.138527895328e+01 0.0 
3.189857338687e+01 -8.887781229006e+00 0.0 
7.298712468334e+00 -1.230231046246e+01 0.0 
2.738235495295e+01 -1.368931690364e+01 0.0 
3.750141041969e+01 -1.920449893070e+01 0.0 
1.557271965640e+01 -1.683317951731e+01 0.0 
3.393731848929e+01 -1.413034777044e+01 0.0 
6.482156824153e+00 -1.174575135362e+01 0.0 
2.077971718439e+01 -1.421279621836e+01 0.0 
3.455084320178e+00 -2.562590040585e+00 0.0 
3.099056096250e+01 -9.270280416035e+00 0.0 
5.580176125418e+00 -1.217387969259e+01 0.0 
1.707247630389e+01 -7.660651981710e+00 0.0 
1.418658814174e+01 -1.180390575393e+01 0.0 
2.049103025389e+01 -1.811296706038e+01 0.0 
4.680386172316e+00 -1.260396879301e+01 0.0 
1.699679896554e+01 -8.624561788199e+00 0.0 
3.779470168555e+00 -1.303424899720e+01 0.0 
3.036589870126e+01 -7.879832518349e+00 0.0 
3.306993001774e+01 -1.457671062095e+01 0.0 
2.840150110165e+00 -1.346530088269e+01 0.0 
2.732011135052e+01 -1.464591214560e+01 0.0 
5.423639259568e+00 -2.659711955016e+00 0.0 
2.324455961696e+01 -1.387269388211e+01 0.0 
1.752768355571e+00 -1.693128613594e+01 0.0 
1.020244783051e+01 -8.076834012808e+00 0.0 
1.330873875224e+01 -1.222417528206e+01 0.0 
3.297727364880e+01 -1.555480372087e+01 0.0 
2.890929955439e+01 -6.868664170731e+00 0.0 
1.323294664622e+01 -1.320754260334e+01 0.0 
2.726532861246e+01 -1.560593120806e+01 0.0 
2.240020643398e+01 -1.429299177247e+01 0.0 
2.090445823633e+01 -1.228128621332e+01 0.0 
1.315809881502e+01 -1.420739326938e+01 0.0 
2.781328038068e+01 -7.181956082300e+00 0.0 
8.614200829057e+00 -5.936933226306e+00 0.0 
8.714765730069e+00 -4.979270529687e+00 0.0 
1.611881701099e+01 -9.041973294003e+00 0.0 
2.806830314340e+01 -1.614622947108e+01 0.0 
2.084435391396e+00 -3.385085422913e+00 0.0 
3.133211811152e+01 -1.542347619750e+01 0.0 
9.693114650768e+00 -3.590281506442e+00 0.0 
1.531883592202e+01 -8.504584946143e+00 0.0 
2.151589117094e+01 -1.578915763018e+01 0.0 
4.918943882696e+01 -1.355538828056e+01 0.0 
1.443236615188e+01 -8.918701794549e+00 0.0 
8.276250966452e-01 -5.537685192197e+00 0.0 
1.362790867918e+01 -8.374718262212e+00 0.0 
2.083767477370e+01 -1.324843956035e+01 0.0 
1.273834678703e+01 -8.790890389337e+00 0.0 
1.192275845670e+01 -8.242261327467e+00 0.0 
4.477236023583e+01 -1.824312396664e+01 0.0 
1.102989384254e+01 -8.649855800911e+00 0.0 
4.849096516045e+01 -1.917293752213e+01 0.0 
1.588996752238e+00 -1.910230934687e+01 0.0 
4.904245197583e+01 -1.159839008158e+01 0.0 
2.753852929608e+01 -5.782128488093e+00 0.0 
1.756133602833e+01 -8.306130313187e-01 0.0 
2.615423700951e+01 -6.153865090092e+00 0.0 
1.028818761294e+01 -7.122020845892e+00 0.0 
2.970818901196e+01 -1.527821347593e+01 0.0 
4.801461623449e+01 -1.164472570985e+01 0.0 
9.455722100419e+00 -6.546069291118e+00 0.0 
3.089099236677e+01 -1.835339328261e+01 0.0 
2.350000000013e+01 -1.920825896750e+01 0.0 
4.830620531887e+01 -1.506626155470e+01 0.0 
1.725381944701e+01 -1.688794487850e+01 0.0 
2.156246225273e+01 -1.475893794002e+01 0.0 
4.919319648787e+01 -1.742767505896e+01 0.0 
4.437935623576e+01 -1.077662927266e+01 0.0 
1.001520521978e+01 -1.652692675208e+00 0.0 
9.067160240050e-01 -1.441937727541e+01 0.0 
2.603365149390e+01 -4.755996613848e+00 0.0 
2.458344439002e+01 -4.873645517696e+00 0.0 
2.304312390142e+01 -3.836552768096e+00 0.0 
2.546923202198e+00 -6.902480355749e+00 0.0 
1.251534969393e+01 -2.490989965776e+00 0.0 
2.454061833377e+01 -3.933354231935e+00 0.0 
1.788186558740e+01 -1.827424884923e+01 0.0 
4.090785243552e+01 -1.166553231904e+01 0.0 
2.230128851568e+01 -1.623015738726e+01 0.0 
2.302362347568e+01 -2.916239960270e+00 0.0 
3.878119254461e+01 -1.830091164002e+01 0.0 
2.210081359958e+01 -1.829238229150e+01 0.0 
8.443704882233e+00 -1.921993252862e+01 0.0 
2.218405824691e+01 -1.724557581508e+01 0.0 
2.151157503963e+01 -2.790636689331e+00 0.0 
3.741658958955e+01 -1.250400191722e+01 0.0 
2.697247663737e+01 -1.838290202309e+01 0.0 
4.743362342862e+01 -1.585850773010e+01 0.0 
6.671345075358e+00 -1.924977576322e+01 0.0 
3.900825404537e+01 -1.157220003875e+01 0.0 
4.649692961375e+01 -1.836335837481e+01 0.0 
1.578831424832e+01 -3.678284023361e+00 0.0 
4.814208768888e+01 -1.841249298770e+01 0.0 
2.964123298315e+01 -1.625739458193e+01 0.0 
4.580760351902e+01 -1.284294554687e+01 0.0 
3.561520879615e+01 -1.245548941949e+01 0.0 
2.555418095658e+00 -1.841101588290e+01 0.0 
3.288468366144e+01 -1.834258164109e+01 0.0 
2.065894391445e+01 -2.240688571739e+00 0.0 
4.739171429915e+01 -1.496536413446e+01 0.0 
3.478086729185e+00 -8.576434653209e+00 0.0 
1.606010630246e+01 -1.588421807951e+00 0.0 
1.018329200594e+01 -1.834320874317e+01 0.0 
2.957213339430e+01 -1.720496954591e+01 0.0 
4.142712790164e+00 -1.837794506222e+01 0.0 
6.698721532573e-01 -2.499999999997e+00 0.0 
8.037039123140e+00 -1.571229354954e+00 0.0 
1.203541361428e+01 -1.847784298001e+01 0.0 
2.899968332038e+01 -1.848264722179e+01 0.0 
1.469229460948e+01 -4.219485753730e+00 0.0 
4.049590781957e+01 -1.932812501995e+01 0.0 
1.996211678340e+01 -1.506329754720e+00 0.0 
4.250588298353e+01 -1.067383247529e+01 0.0 
5.831497011152e+00 -1.635396227234e+00 0.0 
5.317606125670e+00 -1.923927974868e+01 0.0 
4.208546426993e+01 -1.842830665025e+01 0.0 
2.327553405011e+00 -9.459409929662e+00 0.0 
3.568351902251e+01 -1.096637218582e+01 0.0 
1.682104374890e+00 -6.231413350963e+00 0.0 
2.451812238018e+01 -1.766524914339e+01 0.0 
1.058003429638e+01 -2.391839617098e+00 0.0 
4.399988753123e+01 -1.851998776342e+01 0.0 
1.400000000010e+01 -1.852293523028e+01 0.0 
3.604719565984e+01 -1.850662876800e+01 0.0 
1.951297136734e+01 -1.938092349694e+01 0.0 
1.821365318472e+01 -1.531276353287e+00 0.0 
2.298031859732e+01 -1.854635324722e+01 0.0 
1.552168066204e+01 -1.764280741977e+01 0.0 
4.572957713638e+01 -1.073347898229e+01 0.0 
3.429637429624e+01 -1.838861552790e+01 0.0 
2.427434426052e+00 -7.705577451869e+00 0.0 
4.662792031485e+00 -3.359424455416e+00 0.0 
4.926794919243e+01 -1.926794919243e+01 0.0 
7.320508075690e-01 -7.320508075688e-01 0.0 
4.926794919243e+01 -1.073205080757e+01 0.0 
7.320508075705e-01 -1.926794919243e+01 0.0 
2.917460242467e+00 -3.202866455310e+00 0.0 
4.838200575963e+01 -1.232674147454e+01 0.0 
2.998445708009e+01 -1.854403752148e+01 0.0 
5.949940090766e-01 -1.152762038165e+01 0.0 
4.844763495759e+01 -1.678092548787e+01 0.0 
1.301685480160e+01 -3.170056592566e+00 0.0 
1.650046335855e+01 -6.731535384067e-01 0.0 
4.854881540991e+01 -1.405224059779e+01 0.0 
2.119545114693e+01 -1.846813384545e+01 0.0 
3.797852849897e+01 -1.857978513215e+01 0.0 
4.649823708745e+01 -1.338351810816e+01 0.0 
2.012685900976e+01 -2.889659035009e+00 0.0 
2.953271913273e+01 -1.791558075192e+01 0.0 
2.408509097292e+00 -1.021949208421e+01 0.0 
2.642589566221e+01 -1.773216561448e+01 0.0 
1.730010270775e+01 -1.763165076721e+01 0.0 
2.017406551304e+01 -8.513536440582e-01 0.0 
5.254761581934e-01 -1.249999999999e+01 0.0 
6.640448215642e+00 -1.545337834885e+00 0.0 
7.843361506349e+00 -1.852719839527e+01 0.0 
1.588442191088e+00 -1.066158564320e+01 0.0 
2.431250000000e+01 -2.420918367347e+00 0.0 
4.950961538461e+01 -2.500000000000e+00 0.0 
2.580823483239e+01 -3.416278049680e+00 0.0 
4.950961538461e+01 -3.500000000000e+00 0.0 
2.731250000000e+01 -4.420918367347e+00 0.0 
4.951086956522e+01 -4.500000000000e+00 0.0 
2.880770112393e+01 -5.415638864241e+00 0.0 
4.951086956522e+01 -5.500000000000e+00 0.0 
3.031250000000e+01 -6.420918367347e+00 0.0 
4.951250000000e+01 -6.500000000000e+00 0.0 
3.180701530612e+01 -7.414795918363e+00 0.0 
4.951250000000e+01 -7.500000000000e+00 0.0 
3.331250000000e+01 -8.420918367347e+00 0.0 
4.951470588234e+01 -8.500000000000e+00 0.0 
3.480610198624e+01 -9.413633635267e+00 0.0 
4.951470588234e+01 -9.500000000000e+00 0.0 

SCALARS node_number int
LOOKUP_TABLE default
1
2
3
4
5
6
7
8
9
10
11
12
13
14
15
16
17
18
19
20
21
22
23
24
25
26
27
28
29
30
31
32
33
34
35
36
37
38
39
40
41
42
43
44
45
46
47
48
49
50
51
52
53
54
55
56
57
58
59
60
61
62
63
64
65
66
67
68
69
70
71
72
73
74
75
76
77
78
79
80
81
82
84
85
86
87
88
89
90
91
92
93
95
96
97
98
99
100
101
102
104
105
106
107
108
109
110
111
112
113
114
115
116
117
118
119
120
121
122
123
124
125
126
127
128
129
130
131
132
133
134
135
136
194
195
196
197
198
199
200
201
202
203
204
205
206
207
208
209
210
211
212
213
214
215
216
217
218
219
220
221
222
223
224
225
226
227
228
229
230
231
232
233
234
235
236
237
238
239
240
241
242
243
244
245
246
247
248
249
250
251
252
253
254
255
256
257
258
259
260
261
262
263
264
265
266
267
268
269
270
271
272
273
274
275
276
277
278
279
280
281
282
283
284
285
286
287
288
289
290
291
292
293
294
295
296
297
298
299
300
301
302
303
304
305
306
307
308
309
310
311
312
313
314
315
316
317
318
319
320
321
322
323
324
325
326
327
328
329
330
331
332
333
334
335
336
337
338
339
340
341
342
343
344
345
346
347
348
349
350
351
352
353
354
355
356
357
358
359
360
361
362
363
364
365
366
367
368
369
370
371
372
373
374
375
376
377
378
379
380
381
382
383
384
385
386
387
388
389
390
391
392
393
394
395
396
397
398
399
400
401
402
403
404
405
406
407
408
409
410
411
412
413
414
415
416
417
418
419
420
421
422
423
424
425
426
427
428
429
430
431
432
433
434
435
436
437
438
439
440
441
442
443
444
445
446
447
448
449
450
451
452
453
454
455
456
457
458
459
460
461
462
463
464
465
466
467
468
469
470
471
472
473
474
475
476
477
478
479
480
481
482
483
484
485
486
487
488
489
490
491
492
493
494
495
496
497
498
499
500
501
502
503
504
505
506
507
508
509
510
511
512
513
514
515
516
517
518
519
520
521
522
523
524
525
526
527
528
529
530
531
532
533
534
535
536
537
538
539
540
541
542
543
544
545
546
547
548
549
550
551
552
553
554
555
556
557
558
559
560
561
562
563
564
565
566
567
568
569
570
571
572
573
574
575
576
577
578
579
580
581
582
583
584
585
586
587
588
589
590
591
592
593
594
595
596
597
598
599
600
601
602
603
604
605
606
607
608
609
610
611
612
613
614
615
616
617
618
619
620
621
622
623
624
625
626
627
628
629
630
631
632
633
634
635
636
637
638
639
640
641
642
643
644
645
646
647
648
649
650
651
652
653
654
655
656
657
658
659
660
661
662
663
664
665
666
667
668
669
670
671
672
673
674
675
676
677
678
679
680
681
682
683
684
685
686
687
688
689
690
691
692
693
694
695
696
697
698
699
700
701
702
703
704
705
706
707
708
709
710
711
712
713
714
715
716
717
718
719
720
721
722
723
724
725
726
727
728
729
730
731
732
733
734
735
736
737
738
739
740
741
742
743
744
745
746
747
748
749
750
751
752
753
754
755
756
757
758
759
760
761
762
763
764
765
766
767
768
769
770
771
772
773
774
775
776
777
778
779
780
781
782
783
784
785
786
787
788
789
790
791
792
793
794
795
796
797
798
799
800
801
802
803
804
805
806
807
808
809
810
811
812
813
814
815
816
817
818
819
820
821
822
823
824
825
826
827
828
829
830
831
832
833
834
835
836
837
838
839
840
841
842
843
844
845
846
847
848
849
850
851
852
853
854
855
856
857
858
859
860
861
862
863
864
865
866
867
868
869
870
871
872
873
874
875
876
877
878
879
880
881
882
883
884
885
886
887
888
889
890
891
892
893
894
895
896
897
898
899
900
901
902
903
904
905
906
907
908
909
910
911
912
913
914
915
916
917
918
919
920
921
922
923
924
925
926
927
928
929
930
931
932
933
934
935
936
937
938
939
940
941
942
943
944
945
946
947
948
949
950
951
952
953
954
955
956
957
958
959
960
961
962
963
964
965
966
967
968
969
970
971
972
973
974
975
976
977
978
979
980
981
982
983
984
985
986
987
988
989
990
991
992
993
994
995
996
997
998
999
1000
1001
1002
1003
1004
1005
1006
1007
1008
1009
1010
1011
1012
1013
1014
1015
1016
1017
1018
1019
1020
1021
1022
1023
1024
1025
1026
1027
1028
1029
1030
1031
1032
1033
1034
1035
1036
1037
1038
1039
1040
1041
1042
1043
1044
1045
1046
1047
1048
1049
1050
1051
1052
1053
1054
1055
1056
1057
1058
1059
1060
1061
1062
1063
1064
1065
1066
1067
1068
1069
1070
1071
1072
1073
1074
1075
1076
1077
1078
1079
1080
1081
1082
1083
1084
1085
1086
1087
1088
1089
1090
1091
1092
1093
1094
1095
1096
1097
1098
1099
1100
1101
1102
1103
1104
1105
1106
1107
1108
1109
1110
1111
1112
1113
1114
1115
1116
1117
1118
1119
1120
1121
1122
1123
1124
1125
1126
1127
1128
1129
1130
1131
1132
1133
1134
1135
1136
1137
1138
1139
1140
1141
1142
1143
1144
1145
1146
1147
1148
1149
1150
1151
1152
1153
1154
1155
1156
1157
1158
1159
1160
1161
1162
1163
1164
1165
1166
1167
1168
1169
1170
1171
1172
1173
1174
1175
1176
1177
1178
1179
1180
1181
1182
1183
1184
1185
1186
1187
1188
1189
1190
1191
1192
1193
1194
1195
1196
1197
1198
1199
1200
1201
1202
1203
1204
1205
1206
1207
1208
1209
1210
1211
1212
1213
1214
1215
1216
1217
1218
1219
1220
1221
1222
1223
1224
1225
1226
1227
1228
1229
1230
1231
1232
1233
1234
1235
1236
1237
1238
1239
1240
1241
1242
1243
1244
1245
1246
1247
1248
1249
1250
1251
1252
1253
1254
1255
1256
1257
1258
1259
1260
1261
1262
1263
1264
1269
1270
1271
1272
1273
1274
1275
1276
1277
1278
1279
1280
1281
1282
1283
1284

VECTORS node_mesh_deformation float
0.0 1.208642623555e-02 0.0 
0.000000000000e+00 1.234817041219e-02 0.0 
0.0 0.000000000000e+00 0.0 
0.000000000000e+00 0.000000000000e+00 0.0 
0.0 1.206988781013e-02 0.0 
0.0 1.199537508286e-02 0.0 
0.0 1.186258096648e-02 0.0 
0.0 1.167068326932e-02 0.0 
0.0 1.141699177389e-02 0.0 
0.0 1.110284421034e-02 0.0 
0.0 1.072818164195e-02 0.0 
0.0 1.029211473873e-02 0.0 
0.0 9.794430360403e-03 0.0 
0.0 9.234138968967e-03 0.0 
0.0 8.609443467613e-03 0.0 
0.0 7.919723987523e-03 0.0 
0.0 7.165216858596e-03 0.0 
0.0 6.348342121312e-03 0.0 
0.0 5.462785359430e-03 0.0 
0.0 4.509223974052e-03 0.0 
0.0 3.487358260930e-03 0.0 
0.0 2.395136518164e-03 0.0 
0.0 1.231463428024e-03 0.0 
0.000000000000e+00 0.000000000000e+00 0.0 
0.000000000000e+00 0.000000000000e+00 0.0 
0.000000000000e+00 0.000000000000e+00 0.0 
0.000000000000e+00 0.000000000000e+00 0.0 
0.000000000000e+00 0.000000000000e+00 0.0 
0.000000000000e+00 0.000000000000e+00 0.0 
0.000000000000e+00 0.000000000000e+00 0.0 
0.000000000000e+00 0.000000000000e+00 0.0 
0.000000000000e+00 0.000000000000e+00 0.0 
0.000000000000e+00 0.000000000000e+00 0.0 
0.000000000000e+00 0.000000000000e+00 0.0 
0.000000000000e+00 0.000000000000e+00 0.0 
0.000000000000e+00 0.000000000000e+00 0.0 
0.000000000000e+00 0.000000000000e+00 0.0 
0.000000000000e+00 0.000000000000e+00 0.0 
0.000000000000e+00 0.000000000000e+00 0.0 
0.000000000000e+00 0.000000000000e+00 0.0 
0.000000000000e+00 0.000000000000e+00 0.0 
0.000000000000e+00 0.000000000000e+00 0.0 
0.000000000000e+00 0.000000000000e+00 0.0 
0.000000000000e+00 0.000000000000e+00 0.0 
0.000000000000e+00 0.000000000000e+00 0.0 
0.000000000000e+00 0.000000000000e+00 0.0 
0.000000000000e+00 0.000000000000e+00 0.0 
0.000000000000e+00 0.000000000000e+00 0.0 
0.000000000000e+00 0.000000000000e+00 0.0 
0.000000000000e+00 0.000000000000e+00 0.0 
0.000000000000e+00 0.000000000000e+00 0.0 
0.000000000000e+00 0.000000000000e+00 0.0 
0.000000000000e+00 0.000000000000e+00 0.0 
0.000000000000e+00 0.000000000000e+00 0.0 
0.000000000000e+00 0.000000000000e+00 0.0 
0.000000000000e+00 0.000000000000e+00 0.0 
0.000000000000e+00 0.000000000000e+00 0.0 
0.000000000000e+00 0.000000000000e+00 0.0 
0.000000000000e+00 0.000000000000e+00 0.0 
0.000000000000e+00 0.000000000000e+00 0.0 
0.000000000000e+00 0.000000000000e+00 0.0 
0.000000000000e+00 0.000000000000e+00 0.0 
0.000000000000e+00 0.000000000000e+00 0.0 
0.000000000000e+00 0.000000000000e+00 0.0 
0.000000000000e+00 0.000000000000e+00 0.0 
0.000000000000e+00 0.000000000000e+00 0.0 
0.000000000000e+00 0.000000000000e+00 0.0 
0.000000000000e+00 0.000000000000e+00 0.0 
0.000000000000e+00 0.000000000000e+00 0.0 
0.000000000000e+00 0.000000000000e+00 0.0 
0.000000000000e+00 0.000000000000e+00 0.0 
0.000000000000e+00 0.000000000000e+00 0.0 
0.000000000000e+00 1.139476861636e-02 0.0 
0.000000000000e+00 1.037809368101e-02 0.0 
0.000000000000e+00 9.297500132277e-03 0.0 
0.000000000000e+00 8.155100278831e-03 0.0 
0.000000000000e+00 6.949443180206e-03 0.0 
0.000000000000e+00 5.682187139451e-03 0.0 
0.000000000000e+00 4.353250738586e-03 0.0 
0.000000000000e+00 2.962871727092e-03 0.0 
0.000000000000e+00 1.511677714944e-03 0.0 
-7.325296814393e-04 1.421031898170e-02 0.0 
4.745575005316e-04 1.228362325265e-02 0.0 
-4.054052838320e-04 1.500276968445e-02 0.0 
-4.676740663712e-05 1.568114563347e-02 0.0 
2.538245815025e-04 1.588928695745e-02 0.0 
4.279795368234e-04 1.579771522293e-02 0.0 
5.259136304296e-04 1.552007676692e-02 0.0 
5.718369048999e-04 1.509454068754e-02 0.0 
5.809742095941e-04 1.454389761769e-02 0.0 
5.632360456573e-04 1.388425826071e-02 0.0 
5.255611335002e-04 1.312742998744e-02 0.0 
0.000000000000e+00 1.766209167451e-02 0.0 
0.000000000000e+00 1.722252645266e-02 0.0 
0.000000000000e+00 1.671710848355e-02 0.0 
0.000000000000e+00 1.615218558232e-02 0.0 
0.000000000000e+00 1.551797577030e-02 0.0 
0.000000000000e+00 1.482401447124e-02 0.0 
0.000000000000e+00 1.406075244162e-02 0.0 
0.000000000000e+00 1.323834529923e-02 0.0 
2.682328467074e-05 1.234847258036e-02 0.0 
5.197719187322e-05 1.234927026740e-02 0.0 
7.830935371089e-05 1.235027691031e-02 0.0 
1.051185264629e-04 1.235040864185e-02 0.0 
1.320634026172e-04 1.235212142983e-02 0.0 
1.599080294596e-04 1.235190851314e-02 0.0 
1.889098701753e-04 1.235228884009e-02 0.0 
2.179268945142e-04 1.235108272920e-02 0.0 
2.497027396586e-04 1.235053272113e-02 0.0 
2.830175542812e-04 1.234657143146e-02 0.0 
3.175413588963e-04 1.234074318084e-02 0.0 
3.539035712095e-04 1.233304687127e-02 0.0 
3.919098893519e-04 1.232136867024e-02 0.0 
4.319363177956e-04 1.230462302561e-02 0.0 
-6.600286611480e-04 1.379366758982e-02 0.0 
-5.729201669453e-04 1.346755509863e-02 0.0 
-4.867991186686e-04 1.320324586062e-02 0.0 
-4.101161725405e-04 1.298964200678e-02 0.0 
-3.422442924990e-04 1.281748327832e-02 0.0 
-2.813717999306e-04 1.267438982010e-02 0.0 
-2.277313122701e-04 1.255540123053e-02 0.0 
-1.819644947787e-04 1.245721699515e-02 0.0 
-1.429724484474e-04 1.237648875014e-02 0.0 
-1.099664916655e-04 1.231139720379e-02 0.0 
-8.397037273511e-05 1.225714502229e-02 0.0 
-6.080293008015e-05 1.221553363764e-02 0.0 
-3.998653915360e-05 1.217935983739e-02 0.0 
-2.731426840796e-05 1.214994196687e-02 0.0 
-1.915463949498e-05 1.212870159993e-02 0.0 
-1.201699946929e-05 1.211264066897e-02 0.0 
-6.027156002286e-06 1.210042525518e-02 0.0 
-1.385390949959e-06 1.209240514714e-02 0.0 
-1.372782060138e-06 1.208651425734e-02 0.0 
-5.939506298347e-05 1.614331181716e-02 0.0 
-1.134741349418e-05 1.646291640162e-02 0.0 
2.405397161098e-05 1.671230459466e-02 0.0 
6.080331241520e-05 1.691177113791e-02 0.0 
9.621693711281e-05 1.707306458462e-02 0.0 
1.280428629968e-04 1.720285266032e-02 0.0 
1.556722572182e-04 1.730768648362e-02 0.0 
1.785703163577e-04 1.739187939163e-02 0.0 
1.967188930578e-04 1.745923185515e-02 0.0 
2.101573749869e-04 1.751264040123e-02 0.0 
2.191099673823e-04 1.755458730844e-02 0.0 
2.238366224603e-04 1.758709238371e-02 0.0 
2.246560637076e-04 1.761186927319e-02 0.0 
2.219009819555e-04 1.763035321018e-02 0.0 
2.159169740565e-04 1.764376244752e-02 0.0 
2.070450406251e-04 1.765312359498e-02 0.0 
1.956136876728e-04 1.765930155356e-02 0.0 
1.819334407998e-04 1.766302387500e-02 0.0 
1.663000942571e-04 1.766490322700e-02 0.0 
1.490024805122e-04 1.766545354490e-02 0.0 
1.303364638616e-04 1.766510411619e-02 0.0 
1.106287843697e-04 1.766421298677e-02 0.0 
9.027701501196e-05 1.766308211794e-02 0.0 
6.981261609695e-05 1.766199499078e-02 0.0 
4.997449446620e-05 1.766156035942e-02 0.0 
3.087818158320e-05 1.766603376099e-02 0.0 
2.425781664002e-04 1.616839811208e-02 0.0 
2.421073088783e-04 1.639081168329e-02 0.0 
2.426941874774e-04 1.656673161483e-02 0.0 
2.470863059933e-04 1.671075650217e-02 0.0 
2.520939990518e-04 1.682596415130e-02 0.0 
2.570186699060e-04 1.691931027670e-02 0.0 
2.606448467013e-04 1.699388096218e-02 0.0 
2.625358801609e-04 1.705339085308e-02 0.0 
2.623291402841e-04 1.710031469689e-02 0.0 
2.599006912689e-04 1.713695093906e-02 0.0 
2.552031184422e-04 1.716509213981e-02 0.0 
2.482844306684e-04 1.718630653882e-02 0.0 
2.392386797183e-04 1.720189083737e-02 0.0 
2.281980088910e-04 1.721295348441e-02 0.0 
2.153184741331e-04 1.722042804060e-02 0.0 
2.007733298157e-04 1.722510628106e-02 0.0 
1.847437288092e-04 1.722765501574e-02 0.0 
1.674151543796e-04 1.722863761146e-02 0.0 
1.489774416541e-04 1.722853151507e-02 0.0 
1.296267744308e-04 1.722774382512e-02 0.0 
1.095656410612e-04 1.722662531096e-02 0.0 
8.899399229279e-05 1.722548067305e-02 0.0 
6.806632031697e-05 1.722455306649e-02 0.0 
4.667760219945e-05 1.722372369348e-02 0.0 
2.362241336584e-05 1.721954589753e-02 0.0 
2.346383718788e-05 1.672193149516e-02 0.0 
4.689617931319e-05 1.672072340883e-02 0.0 
6.972608206013e-05 1.672171968382e-02 0.0 
9.209195616222e-05 1.672294966060e-02 0.0 
1.140628552818e-04 1.672433050556e-02 0.0 
1.356134230264e-04 1.672567117774e-02 0.0 
1.566637665604e-04 1.672668517745e-02 0.0 
1.771085331086e-04 1.672701068241e-02 0.0 
1.968376804200e-04 1.672620960373e-02 0.0 
2.157456724845e-04 1.672376009850e-02 0.0 
2.337378263420e-04 1.671904022992e-02 0.0 
2.507345698035e-04 1.671130816316e-02 0.0 
2.666785695240e-04 1.669967412706e-02 0.0 
2.815623382588e-04 1.668308813835e-02 0.0 
2.954152962715e-04 1.666030343833e-02 0.0 
3.083592914948e-04 1.662986469516e-02 0.0 
3.205232903483e-04 1.658997630841e-02 0.0 
3.323013930583e-04 1.653863670749e-02 0.0 
3.439307689845e-04 1.647310573978e-02 0.0 
3.564360159913e-04 1.639075965465e-02 0.0 
3.699233171908e-04 1.628655375341e-02 0.0 
3.872378513670e-04 1.615872410771e-02 0.0 
4.045853682904e-04 1.599673677783e-02 0.0 
4.944958144897e-04 1.565874619529e-02 0.0 
4.675458230565e-04 1.577457890220e-02 0.0 
4.401167536621e-04 1.586472914949e-02 0.0 
4.158131591865e-04 1.593856896830e-02 0.0 
3.927472729472e-04 1.599626662038e-02 0.0 
3.710130377854e-04 1.604201559665e-02 0.0 
3.498977260890e-04 1.607720119551e-02 0.0 
3.292256181950e-04 1.610408176143e-02 0.0 
3.086924181872e-04 1.612401490198e-02 0.0 
2.881264631043e-04 1.613839813487e-02 0.0 
2.673802797162e-04 1.614831600169e-02 0.0 
2.463984288781e-04 1.615476099950e-02 0.0 
2.251524756147e-04 1.615853465850e-02 0.0 
2.036312211828e-04 1.616030883793e-02 0.0 
1.818418986659e-04 1.616065023097e-02 0.0 
1.598057619105e-04 1.616003124985e-02 0.0 
1.375557904169e-04 1.615884577262e-02 0.0 
1.151107301567e-04 1.615739572828e-02 0.0 
9.246415998376e-05 1.615589639553e-02 0.0 
6.957833828380e-05 1.615445590360e-02 0.0 
4.643175408603e-05 1.615291913475e-02 0.0 
2.320759639929e-05 1.614851556605e-02 0.0 
2.431609825493e-05 1.552258386158e-02 0.0 
4.869236364158e-05 1.552108674654e-02 0.0 
7.304078633297e-05 1.552240036937e-02 0.0 
9.734965119890e-05 1.552394500707e-02 0.0 
1.216551097230e-04 1.552552214090e-02 0.0 
1.460059798362e-04 1.552699598211e-02 0.0 
1.704550327304e-04 1.552814336141e-02 0.0 
1.950260964279e-04 1.552866049570e-02 0.0 
2.197460456514e-04 1.552810472684e-02 0.0 
2.446726098881e-04 1.552594965827e-02 0.0 
2.698888446275e-04 1.552155932129e-02 0.0 
2.954785421281e-04 1.551419853720e-02 0.0 
3.215318078915e-04 1.550298357072e-02 0.0 
3.481522128652e-04 1.548672402403e-02 0.0 
3.756933997394e-04 1.546422555078e-02 0.0 
4.042660759822e-04 1.543386023313e-02 0.0 
4.345493462452e-04 1.539438230256e-02 0.0 
4.660801656371e-04 1.534266082422e-02 0.0 
5.006815178774e-04 1.527860617833e-02 0.0 
5.348061275221e-04 1.519517275127e-02 0.0 
5.417739643647e-04 1.461286478755e-02 0.0 
5.049283816803e-04 1.467101213279e-02 0.0 
4.671777445253e-04 1.471416484183e-02 0.0 
4.322700163399e-04 1.474957628251e-02 0.0 
3.988795487331e-04 1.477582675092e-02 0.0 
3.672917174953e-04 1.479573605676e-02 0.0 
3.368500558381e-04 1.480974062481e-02 0.0 
3.075085263475e-04 1.481948407804e-02 0.0 
2.791230936054e-04 1.482588732706e-02 0.0 
2.515963594476e-04 1.482968767550e-02 0.0 
2.247967062132e-04 1.483149719563e-02 0.0 
1.985373254598e-04 1.483187667690e-02 0.0 
1.727714672271e-04 1.483134861364e-02 0.0 
1.474448667196e-04 1.483030702195e-02 0.0 
1.224629309391e-04 1.482895153504e-02 0.0 
9.772886828330e-05 1.482748348096e-02 0.0 
7.318675148582e-05 1.482601963533e-02 0.0 
4.873830938834e-05 1.482448381737e-02 0.0 
2.434980522992e-05 1.482021308399e-02 0.0 
2.554464121118e-05 1.406517481245e-02 0.0 
5.115264284683e-05 1.406361027739e-02 0.0 
7.678007534651e-05 1.406489620736e-02 0.0 
1.027397914797e-04 1.406621220896e-02 0.0 
1.290025125158e-04 1.406755999859e-02 0.0 
1.557831462762e-04 1.406868068424e-02 0.0 
1.831554642138e-04 1.406939883128e-02 0.0 
2.113849639898e-04 1.406951623941e-02 0.0 
2.403211549193e-04 1.406873197453e-02 0.0 
2.702941290380e-04 1.406611905358e-02 0.0 
3.015571212472e-04 1.406121724397e-02 0.0 
3.341314705025e-04 1.405349773343e-02 0.0 
3.682137002272e-04 1.404204322437e-02 0.0 
4.040662257268e-04 1.402599755824e-02 0.0 
4.412428508687e-04 1.400262705243e-02 0.0 
4.816302573829e-04 1.397304750560e-02 0.0 
5.214386519228e-04 1.393231487965e-02 0.0 
4.848430394304e-04 1.315886114113e-02 0.0 
4.459762929514e-04 1.318723205373e-02 0.0 
4.064431011344e-04 1.320500814183e-02 0.0 
3.695114141706e-04 1.321900724517e-02 0.0 
3.345214716646e-04 1.322886632860e-02 0.0 
3.010552909899e-04 1.323552428972e-02 0.0 
2.691604498608e-04 1.324011643040e-02 0.0 
2.387939046358e-04 1.324251723713e-02 0.0 
2.093748759862e-04 1.324286920272e-02 0.0 
1.812633418012e-04 1.324326047010e-02 0.0 
1.538574434790e-04 1.324269263579e-02 0.0 
1.273992188260e-04 1.324198902073e-02 0.0 
1.012461169267e-04 1.324071321491e-02 0.0 
7.574823759882e-05 1.323982700001e-02 0.0 
5.062173892156e-05 1.323823847374e-02 0.0 
2.497188456374e-05 1.323366114968e-02 0.0 
-5.725612850398e-04 1.459841899619e-02 0.0 
-2.244485223883e-04 1.537770009697e-02 0.0 
1.304185567008e-04 1.583181337471e-02 0.0 
3.562718306576e-04 1.587003030246e-02 0.0 
4.872521635981e-04 1.567897990569e-02 0.0 
5.553538592515e-04 1.532337471000e-02 0.0 
5.820752670509e-04 1.483378310513e-02 0.0 
5.765541912659e-04 1.422720517679e-02 0.0 
5.478838005715e-04 1.351759601147e-02 0.0 
5.026523803835e-04 1.271598170294e-02 0.0 
1.430761431003e-04 1.511815444209e-02 0.0 
1.585413786813e-04 1.137747841124e-03 0.0 
-6.480426140598e-05 1.231742880457e-02 0.0 
-2.236492238659e-04 1.287304799625e-02 0.0 
1.121974182201e-04 1.100932698403e-03 0.0 
5.330025207364e-04 1.539620148233e-02 0.0 
3.941140372365e-05 8.918764788310e-03 0.0 
1.788105914855e-04 1.181937498490e-03 0.0 
6.444156210286e-04 1.472474527596e-02 0.0 
1.691275521409e-04 1.193373969368e-03 0.0 
6.184161506511e-04 1.351586420186e-02 0.0 
6.575260795660e-05 9.982637464638e-04 0.0 
-6.373466445275e-06 1.214294834829e-02 0.0 
1.443366694041e-04 1.248643045635e-03 0.0 
5.149364646755e-04 1.188268874682e-02 0.0 
2.785350343948e-05 1.091142561168e-02 0.0 
4.137256648862e-05 6.932649295770e-03 0.0 
1.223255237086e-04 1.324626144648e-03 0.0 
8.047902532837e-05 1.280364687691e-03 0.0 
2.375703681423e-05 1.296697443649e-03 0.0 
4.242860617154e-05 1.406548511067e-03 0.0 
5.690871473263e-05 1.257093394290e-03 0.0 
4.128205569600e-04 1.146987801000e-02 0.0 
2.657090786968e-04 1.148953398168e-02 0.0 
1.733283784233e-04 1.147113155858e-02 0.0 
1.702107397250e-05 7.542108262406e-03 0.0 
3.948627483563e-05 1.076421285138e-03 0.0 
-3.554121043443e-04 1.360532113949e-02 0.0 
3.457887762348e-06 1.208949048935e-02 0.0 
2.873453624674e-05 4.085973720528e-03 0.0 
8.861593118326e-05 1.153375357803e-02 0.0 
1.498748183038e-05 1.177802742585e-02 0.0 
1.127549085069e-04 1.469950197510e-03 0.0 
1.634368951713e-04 1.095375237465e-03 0.0 
1.564048113458e-04 1.205246423677e-03 0.0 
1.823281883837e-04 1.228329371113e-03 0.0 
1.342762040561e-04 1.066348336398e-03 0.0 
-1.440169493669e-04 1.258050424565e-02 0.0 
3.353845179603e-04 1.153624434610e-02 0.0 
1.039763390356e-04 1.246389472847e-03 0.0 
1.181767542846e-05 5.082708918426e-03 0.0 
-3.021915090962e-05 1.221177555629e-02 0.0 
3.601049368784e-05 1.005173829971e-02 0.0 
1.113902183647e-05 1.055876025333e-03 0.0 
6.149407580551e-04 1.512305645404e-02 0.0 
3.891952418407e-04 1.543831792296e-02 0.0 
6.442765410029e-04 1.418235379487e-02 0.0 
5.734064454188e-04 1.274704560451e-02 0.0 
-2.319859903714e-04 1.450439544156e-02 0.0 
2.076998376310e-05 9.716958776153e-03 0.0 
1.864606397284e-05 8.505676880688e-04 0.0 
4.202476624471e-07 1.207733834125e-02 0.0 
6.183840497442e-06 2.355360604732e-03 0.0 
4.874496160738e-04 1.140950388164e-02 0.0 
5.175284120895e-04 1.098391225205e-02 0.0 
4.726658777443e-04 1.054325191041e-02 0.0 
5.092040056951e-04 1.003006657121e-02 0.0 
4.639306453669e-04 9.480278495067e-03 0.0 
4.912127381118e-04 8.994979442146e-03 0.0 
5.409260529703e-04 9.547946229572e-03 0.0 
5.157165079552e-04 8.497014947844e-03 0.0 
5.697056838372e-04 9.061525899531e-03 0.0 
4.416190699175e-04 8.407524658889e-03 0.0 
5.362580068891e-04 7.986098867768e-03 0.0 
5.945797437938e-04 8.560937214874e-03 0.0 
5.521294767732e-04 7.465188609297e-03 0.0 
6.143045283409e-04 8.046352051412e-03 0.0 
6.517743222929e-04 9.111487653993e-03 0.0 
6.753838396314e-04 8.607040650686e-03 0.0 
7.068821068259e-04 9.633579292917e-03 0.0 
7.341450877831e-04 9.137305676576e-03 0.0 
6.927500127034e-04 8.093268932027e-03 0.0 
7.546342292883e-04 8.631866906963e-03 0.0 
7.897382694395e-04 9.637560416168e-03 0.0 
8.128056921741e-04 9.139033169376e-03 0.0 
8.412357428043e-04 1.010478025114e-02 0.0 
8.662195192422e-04 9.609804237865e-03 0.0 
8.881313323919e-04 1.054041370245e-02 0.0 
9.141704679010e-04 1.004713791858e-02 0.0 
8.819317316906e-04 9.105971102445e-03 0.0 
9.301626809588e-04 9.548224420547e-03 0.0 
9.552446929213e-04 1.044705640217e-02 0.0 
9.706484810295e-04 9.952939619088e-03 0.0 
9.882016092781e-04 1.080827628732e-02 0.0 
1.001970500237e-03 1.031817042677e-02 0.0 
9.744398879512e-04 9.454476691005e-03 0.0 
1.003418290164e-03 9.827623919831e-03 0.0 
1.022594433763e-03 1.064478774561e-02 0.0 
1.020712267781e-03 1.016243001314e-02 0.0 
1.030723814019e-03 1.093142339198e-02 0.0 
1.024823373285e-03 1.045819364660e-02 0.0 
1.024703567150e-03 1.117636825227e-02 0.0 
1.014286203223e-03 1.071681317618e-02 0.0 
1.007058353061e-03 9.986888640197e-03 0.0 
9.927297777246e-04 1.026073659113e-02 0.0 
9.879003949607e-04 1.094099413808e-02 0.0 
9.631740539398e-04 1.050431277877e-02 0.0 
9.615913463819e-04 9.814856997259e-03 0.0 
9.299847822142e-04 1.008080663773e-02 0.0 
9.223998406185e-04 9.378955243402e-03 0.0 
8.898539714473e-04 9.668184124154e-03 0.0 
8.849349674165e-04 1.031646203509e-02 0.0 
8.449881897334e-04 9.928204954788e-03 0.0 
8.441644557937e-04 9.263535873059e-03 0.0 
8.002044682165e-04 9.552421185829e-03 0.0 
7.890334790002e-04 1.016936939412e-02 0.0 
7.467969051547e-04 9.815515350704e-03 0.0 
7.519022490357e-04 9.180311879819e-03 0.0 
7.010172000328e-04 9.470560892131e-03 0.0 
6.857109614842e-04 1.006112482804e-02 0.0 
6.436420307487e-04 9.739770343657e-03 0.0 
6.529889957942e-04 9.122726970384e-03 0.0 
5.989487972737e-04 9.421851951613e-03 0.0 
5.814264941932e-04 9.994117804492e-03 0.0 
5.410837886153e-04 9.698790314388e-03 0.0 
5.525050583959e-04 9.098881406022e-03 0.0 
4.983936970557e-04 9.403960838574e-03 0.0 
5.042959087387e-04 8.775104095196e-03 0.0 
4.799551494390e-04 9.966027376890e-03 0.0 
4.419154231847e-04 9.692266028688e-03 0.0 
4.179149398933e-04 1.022146601052e-02 0.0 
3.846866407962e-04 9.965410522275e-03 0.0 
9.666055753002e-04 8.954342649341e-03 0.0 
3.575409070535e-04 1.045816545859e-02 0.0 
3.839807184711e-04 1.068154261502e-02 0.0 
3.283680813730e-04 1.022290055930e-02 0.0 
3.486973389037e-04 9.704013930286e-03 0.0 
2.994000927874e-04 1.067969523265e-02 0.0 
2.740739294982e-04 1.046436807885e-02 0.0 
2.448240267547e-04 1.088629145726e-02 0.0 
1.021558003529e-03 1.167145170819e-02 0.0 
7.025858399068e-04 7.569470862601e-03 0.0 
2.229269108716e-04 1.069032577737e-02 0.0 
1.950038574154e-04 1.107782344317e-02 0.0 
2.092414970827e-04 1.124810217203e-02 0.0 
1.619666408432e-04 1.140534356642e-02 0.0 
4.184125531737e-04 8.916506425873e-03 0.0 
3.913437666014e-04 7.795770593248e-03 0.0 
3.722963927473e-04 8.325578831064e-03 0.0 
3.410330029823e-04 7.165747491671e-03 0.0 
3.259023419275e-04 7.705295397249e-03 0.0 
1.503564576630e-04 1.125414936350e-02 0.0 
4.893124344179e-04 6.832672101069e-03 0.0 
3.527483903127e-04 6.607226542949e-03 0.0 
8.081422132769e-04 1.059062356532e-02 0.0 
9.623031238206e-04 1.129472431762e-02 0.0 
9.414021982153e-04 9.061464729188e-03 0.0 
2.452899278298e-04 1.024227340337e-02 0.0 
1.970193565972e-04 1.048738884520e-02 0.0 
2.135493714981e-04 1.001274554872e-02 0.0 
5.506981305654e-04 8.430291471779e-03 0.0 
4.976924947702e-04 8.080908179300e-03 0.0 
5.353730268549e-04 7.694269301188e-03 0.0 
4.786091376516e-04 7.320513519925e-03 0.0 
5.066092634536e-04 6.891514317489e-03 0.0 
4.471603804337e-04 6.493362064532e-03 0.0 
4.221428591062e-04 6.942931178543e-03 0.0 
3.888321197323e-04 6.089957480929e-03 0.0 
3.665643602435e-04 6.559825780924e-03 0.0 
4.645342290885e-04 6.022091208065e-03 0.0 
5.267780686093e-04 6.440247542173e-03 0.0 
3.322749308614e-04 5.680745802286e-03 0.0 
3.124573234334e-04 6.169524226209e-03 0.0 
2.780789998473e-04 5.263801755987e-03 0.0 
2.604113616895e-04 5.771224562640e-03 0.0 
2.863568992666e-04 6.638218443914e-03 0.0 
2.363975708732e-04 6.258507947397e-03 0.0 
2.552122356390e-04 7.086780348272e-03 0.0 
8.965428071654e-04 8.612534146939e-03 0.0 
9.031591774402e-04 8.243160208972e-03 0.0 
8.528049649890e-04 7.781140498137e-03 0.0 
8.469043389780e-04 7.360569545975e-03 0.0 
7.912343805714e-04 6.884414849472e-03 0.0 
7.725913548420e-04 6.414248225825e-03 0.0 
7.116311441280e-04 5.922203219532e-03 0.0 
7.304155815859e-04 6.412183172667e-03 0.0 
5.630238970973e-04 6.929333027635e-03 0.0 
9.450488334863e-04 1.113034603512e-02 0.0 
9.627216295414e-04 1.155949405616e-02 0.0 
9.055723205300e-04 1.169358845683e-02 0.0 
9.152270999166e-04 1.211468659667e-02 0.0 
8.423309018539e-04 1.219191427414e-02 0.0 
8.424374035094e-04 1.260786009648e-02 0.0 
7.515834791967e-04 1.262778230727e-02 0.0 
7.527922141186e-04 1.224147008065e-02 0.0 
6.440825133609e-04 1.262360199748e-02 0.0 
6.500162930152e-04 1.227270447615e-02 0.0 
5.258807462738e-04 1.260388449207e-02 0.0 
5.389891635978e-04 1.229351915215e-02 0.0 
8.875406406013e-04 8.596327336779e-03 0.0 
8.275947993326e-04 6.908009626230e-03 0.0 
7.406608195666e-04 5.912078522583e-03 0.0 
7.950703635160e-04 6.422342726413e-03 0.0 
1.681877991704e-04 1.155014480657e-02 0.0 
2.109111032853e-04 5.363620859818e-03 0.0 
4.729219945983e-04 5.527375355395e-03 0.0 
5.379755485784e-04 5.973283057028e-03 0.0 
6.462109908085e-04 5.432499042433e-03 0.0 
1.210308974393e-04 1.154763471058e-02 0.0 
7.399860615251e-04 1.303928145511e-02 0.0 
8.294328691889e-04 1.305007360574e-02 0.0 
2.918378111474e-04 6.505765972397e-03 0.0 
2.806466406327e-04 7.059793695356e-03 0.0 
4.710335116105e-04 5.009375658503e-03 0.0 
1.113482416786e-04 1.141481328828e-02 0.0 
3.444928071250e-04 5.170967212999e-03 0.0 
5.018798857819e-04 1.294109506217e-02 0.0 
1.885410521183e-04 5.869676292473e-03 0.0 
1.644366789408e-04 4.946606256352e-03 0.0 
3.908872018652e-04 7.369814603777e-03 0.0 
6.957061986377e-04 5.376740827749e-03 0.0 
7.515836970313e-04 5.919610068768e-03 0.0 
6.485411670134e-04 1.194231606236e-02 0.0 
5.445817354222e-04 1.200233786438e-02 0.0 
4.260824582296e-04 1.230805894307e-02 0.0 
4.433335039522e-04 1.204130079592e-02 0.0 
5.439325189514e-04 1.172024242753e-02 0.0 
4.481599849839e-04 1.180371731532e-02 0.0 
3.438182774289e-04 1.208673131250e-02 0.0 
3.564443878492e-04 1.187976564109e-02 0.0 
4.471605981244e-04 1.156771813862e-02 0.0 
3.626459600135e-04 1.167251469042e-02 0.0 
2.716157105596e-04 1.195041467486e-02 0.0 
2.846458114316e-04 1.176875615253e-02 0.0 
1.790379596240e-04 4.400738383140e-03 0.0 
3.690693561929e-04 1.287142555344e-02 0.0 
6.740650605650e-04 1.011710045601e-02 0.0 
4.050024341247e-04 4.546787283900e-03 0.0 
6.150268005420e-04 4.908426370900e-03 0.0 
2.445496315531e-04 5.821807413525e-03 0.0 
2.370653696033e-04 6.390496545650e-03 0.0 
2.666445884216e-04 7.607597753934e-03 0.0 
2.263379973400e-04 6.949450765212e-03 0.0 
1.956755831003e-04 5.696928427961e-03 0.0 
1.880772601481e-04 6.270418359771e-03 0.0 
2.129066292511e-04 7.499106941093e-03 0.0 
1.775456763937e-04 6.833066304385e-03 0.0 
1.972757807849e-04 8.036885938139e-03 0.0 
1.646149571641e-04 7.383764065997e-03 0.0 
1.445298381739e-04 6.145511712880e-03 0.0 
1.340532050378e-04 6.710855092676e-03 0.0 
1.497064216665e-04 7.923097627520e-03 0.0 
1.212394174743e-04 7.264328601137e-03 0.0 
1.330162851545e-04 8.449712326886e-03 0.0 
1.064162930362e-04 7.805202204203e-03 0.0 
9.520110997130e-05 6.585957682407e-03 0.0 
8.809343938232e-05 1.166537797627e-02 0.0 
6.658821980050e-04 5.943445314822e-03 0.0 
5.776203282011e-04 4.943361110898e-03 0.0 
1.686698517940e-04 1.027583050423e-02 0.0 
1.815376314314e-04 9.774061053527e-03 0.0 
2.247875601826e-04 9.475434565582e-03 0.0 
1.852762405505e-04 9.211921755641e-03 0.0 
8.213244687738e-05 7.147146326318e-03 0.0 
7.129801412731e-05 5.889269924891e-03 0.0 
7.154241289484e-04 1.347880692779e-02 0.0 
8.003688461109e-04 1.351783668228e-02 0.0 
2.481313664049e-04 5.242783404537e-03 0.0 
1.431748657228e-04 5.471056107220e-03 0.0 
1.610243953483e-04 6.355379471666e-03 0.0 
9.875102376391e-04 1.161050211808e-02 0.0 
9.509447493912e-04 1.208954228229e-02 0.0 
9.677125034138e-04 1.236189448396e-02 0.0 
9.193006416872e-04 1.284946758372e-02 0.0 
9.031825748806e-04 1.256164702862e-02 0.0 
9.261724038474e-04 1.308186465011e-02 0.0 
5.899740780784e-04 6.870071818092e-03 0.0 
1.142747996568e-04 5.437832330053e-03 0.0 
2.183378640419e-04 1.141260124732e-02 0.0 
1.680503950192e-04 1.168962987611e-02 0.0 
1.217504588937e-04 4.519099909418e-03 0.0 
7.363300267240e-04 6.874741130488e-03 0.0 
8.320146667700e-04 8.109582375742e-03 0.0 
8.270482596160e-04 7.585601287277e-03 0.0 
7.639227910197e-04 7.053203333445e-03 0.0 
7.481421818269e-04 6.515583548657e-03 0.0 
6.771642695753e-04 5.937151784410e-03 0.0 
6.498377735085e-04 5.384782000922e-03 0.0 
7.222481307849e-04 5.974827896297e-03 0.0 
6.379188178265e-04 4.802627039506e-03 0.0 
6.124597028609e-04 4.826962278266e-03 0.0 
9.153970910347e-05 8.343720981008e-03 0.0 
8.760627631546e-04 7.414504587143e-03 0.0 
4.400405749898e-04 1.133515392968e-02 0.0 
9.159555687521e-05 1.177251157679e-02 0.0 
1.938217400586e-04 1.201949075839e-02 0.0 
7.843859986290e-05 1.155748498103e-02 0.0 
9.680056488293e-05 1.127353714477e-02 0.0 
3.892756572768e-04 3.982581380601e-03 0.0 
5.708824744204e-04 4.760984567689e-03 0.0 
6.006584149816e-04 5.326767843084e-03 0.0 
8.594882306596e-04 1.331665433190e-02 0.0 
8.461056713749e-04 1.301750682072e-02 0.0 
5.761670810749e-04 4.267146340375e-03 0.0 
3.508134423669e-04 8.854127035358e-03 0.0 
2.315993900268e-04 8.669908446835e-03 0.0 
2.117773535275e-04 9.181043982169e-03 0.0 
5.853523949728e-05 1.179821298590e-02 0.0 
1.710332301386e-04 1.216606508354e-02 0.0 
1.570652205274e-04 4.982063928299e-03 0.0 
8.947900316336e-04 1.302695949624e-02 0.0 
8.600693834175e-04 1.350751854375e-02 0.0 
3.220070584256e-04 1.319352882492e-02 0.0 
1.772628867798e-04 1.307696417734e-02 0.0 
6.017177427964e-05 6.451530806380e-03 0.0 
5.096361050505e-05 5.172432013698e-03 0.0 
2.289306345427e-04 8.876477028201e-03 0.0 
1.865477778034e-04 8.585537365098e-03 0.0 
4.576471778019e-04 4.462947686296e-03 0.0 
2.150252107285e-04 1.185543629314e-02 0.0 
5.843294093211e-05 4.572820098844e-03 0.0 
6.727375346056e-04 6.424737371148e-03 0.0 
7.297969851212e-04 7.309727356835e-03 0.0 
1.427089080175e-04 9.531318790573e-03 0.0 
6.723871659879e-04 1.395105430358e-02 0.0 
5.644138171128e-04 1.384528674412e-02 0.0 
5.218131790894e-04 1.119263967822e-02 0.0 
2.898453551943e-04 1.158755463189e-02 0.0 
6.497949144890e-05 1.143436257478e-02 0.0 
3.609239507050e-04 3.391484174927e-03 0.0 
1.579760837060e-04 4.384169799703e-03 0.0 
6.859595804869e-04 5.430006857647e-03 0.0 
7.866992984411e-04 6.532942061092e-03 0.0 
5.656864511536e-04 4.268070653719e-03 0.0 
1.333848885885e-04 1.206496920355e-02 0.0 
3.228605378158e-04 3.496757562850e-03 0.0 
1.014064393701e-04 5.061964275786e-03 0.0 
4.913042092625e-04 4.160302180193e-03 0.0 
5.192454424225e-04 4.684486815702e-03 0.0 
9.377351182707e-04 1.296013549490e-02 0.0 
8.988904482194e-04 1.343385593362e-02 0.0 
8.061949313358e-04 1.399618637248e-02 0.0 
8.404696492583e-04 1.391515830601e-02 0.0 
5.892782209642e-04 1.008136182378e-02 0.0 
9.621814205119e-04 1.283477722401e-02 0.0 
7.226869617796e-04 1.060193276684e-02 0.0 
6.819744843511e-04 1.106359776282e-02 0.0 
7.232275214797e-04 1.151151414255e-02 0.0 
8.789297116536e-04 1.224653750957e-02 0.0 
8.240708985454e-04 1.269231874444e-02 0.0 
9.690102750248e-04 1.200891595707e-02 0.0 
9.465330609935e-04 8.712463056957e-03 0.0 
2.706163741610e-04 9.158589693891e-03 0.0 
3.045185554766e-04 7.436071269023e-03 0.0 
5.918390357067e-04 8.065187260659e-03 0.0 
1.196156672094e-04 4.846982803404e-03 0.0 
9.027203602585e-05 4.103927146382e-03 0.0 
1.614937603946e-04 9.074584991282e-03 0.0 
1.417242829973e-04 9.573827229733e-03 0.0 
1.229484042682e-04 1.179309306900e-02 0.0 
1.143681132945e-04 1.190773436830e-02 0.0 
4.549418083961e-04 8.448123080749e-03 0.0 
3.410253316787e-04 4.080240422383e-03 0.0 
1.996395877626e-04 4.522193544990e-03 0.0 
1.946628539429e-04 3.917360496239e-03 0.0 
2.469958830176e-04 4.651690181227e-03 0.0 
4.315735009488e-04 3.887395363815e-03 0.0 
8.867590656934e-04 1.128990859912e-02 0.0 
8.455922237829e-04 8.172656494473e-03 0.0 
2.389258143332e-04 1.280582697551e-02 0.0 
9.294900299253e-04 8.537917271484e-03 0.0 
7.635336039247e-05 1.197682902414e-02 0.0 
6.352749924297e-04 6.998629714364e-03 0.0 
8.367583601121e-05 4.080777436133e-03 0.0 
9.671709327375e-05 3.498462070777e-03 0.0 
5.064307253448e-04 3.650150457627e-03 0.0 
5.558914091850e-04 1.146756488046e-02 0.0 
9.123593724993e-04 8.026059176910e-03 0.0 
9.477812914547e-04 8.457522080960e-03 0.0 
6.762834853085e-04 1.194813425111e-02 0.0 
7.095917383673e-04 1.236069603020e-02 0.0 
7.604915843089e-04 1.192875982150e-02 0.0 
7.381640447868e-04 1.274979163356e-02 0.0 
5.026307326386e-04 1.093980846174e-02 0.0 
4.269742666381e-04 1.110859645504e-02 0.0 
4.392005696836e-04 3.484438037187e-03 0.0 
4.869301046782e-04 3.658693021197e-03 0.0 
4.062299419196e-04 3.509175956356e-03 0.0 
4.347947455727e-04 4.007259616845e-03 0.0 
4.363182664342e-04 3.096935522553e-03 0.0 
5.077379264478e-04 3.729592441516e-03 0.0 
7.760936942791e-05 1.112318734024e-02 0.0 
7.835866342560e-04 1.344167525448e-02 0.0 
1.198754209000e-04 3.632228802424e-03 0.0 
6.393755143499e-04 1.151447053131e-02 0.0 
2.620829869517e-04 3.033928748057e-03 0.0 
2.805377570141e-04 3.610412860798e-03 0.0 
4.578843182301e-05 1.297338029365e-02 0.0 
1.189157233163e-04 1.272420743736e-02 0.0 
4.039463247096e-05 3.851980974900e-03 0.0 
7.341849707245e-04 1.447105429415e-02 0.0 
7.659724109601e-04 1.438378949371e-02 0.0 
6.849134301028e-04 1.449121024372e-02 0.0 
1.262071105779e-05 1.828915345477e-03 0.0 
3.820630305995e-05 1.154521589460e-02 0.0 
6.302422666815e-05 3.031667418746e-03 0.0 
8.465770274277e-04 1.188107050011e-02 0.0 
4.241877741151e-05 3.171227166071e-03 0.0 
8.848890011777e-04 7.517469058435e-03 0.0 
1.002488033397e-03 1.189913171765e-02 0.0 
5.269051949792e-04 4.940022686862e-03 0.0 
3.270712412018e-05 4.577274887641e-03 0.0 
2.410920387064e-05 3.053002706057e-03 0.0 
2.440155681569e-04 9.762419432517e-03 0.0 
2.218359343118e-04 1.026461203098e-02 0.0 
2.670662480853e-04 9.280755662015e-03 0.0 
4.694012766393e-04 1.330722835186e-02 0.0 
2.427235657656e-04 1.360652367475e-02 0.0 
8.701864777549e-05 4.710311850399e-03 0.0 
1.536396464701e-04 1.071663850976e-02 0.0 
1.258458593361e-04 1.047613727247e-02 0.0 
2.224410154490e-04 1.170896100740e-02 0.0 
2.862678359481e-04 1.141468869913e-02 0.0 
2.725586131440e-04 8.526704170610e-03 0.0 
3.169260052047e-04 8.826561516512e-03 0.0 
6.332612809885e-04 6.449824462209e-03 0.0 
5.605588275976e-04 5.848346106623e-03 0.0 
7.700412745351e-04 7.590494326017e-03 0.0 
6.674657354431e-04 6.877784434243e-03 0.0 
7.117040910067e-04 7.717753895607e-03 0.0 
7.703702321322e-04 8.124285644344e-03 0.0 
9.126128531989e-05 3.531866142271e-03 0.0 
6.072218924658e-05 2.638207390888e-03 0.0 
5.791405078845e-04 1.076744386094e-02 0.0 
6.042985468699e-04 1.104475630429e-02 0.0 
4.780003401308e-04 1.070207451612e-02 0.0 
1.135045468956e-04 3.034091762796e-03 0.0 
6.988483588266e-05 2.441121972783e-03 0.0 
1.030286120223e-04 2.935862633837e-03 0.0 
6.025266676879e-05 1.206349487145e-02 0.0 
9.889110585171e-05 1.201521874623e-02 0.0 
5.060494897187e-04 1.431745626656e-02 0.0 
3.653292854295e-04 1.415167797514e-02 0.0 
1.869708336599e-04 3.355686925811e-03 0.0 
2.408751157077e-04 4.059867224214e-03 0.0 
1.316328844325e-04 2.534160662275e-03 0.0 
4.649097187204e-05 1.131854466922e-02 0.0 
7.485980402357e-04 5.980012372111e-03 0.0 
3.269596531155e-04 2.829246342539e-03 0.0 
4.006618717369e-04 3.347166016741e-03 0.0 
2.421621973383e-04 2.179082370201e-03 0.0 
5.738311652230e-04 4.237671638627e-03 0.0 
4.334359413996e-04 3.062406388850e-03 0.0 
4.218713287187e-04 3.041770021344e-03 0.0 
-4.271230625719e-05 1.321561034288e-02 0.0 
1.853188367562e-05 3.630490920798e-03 0.0 
1.689372722851e-04 1.016595130516e-02 0.0 
-1.346752167173e-04 1.309491474001e-02 0.0 
1.467138580864e-04 1.067329040472e-02 0.0 
1.225709929784e-04 1.006710312057e-02 0.0 
1.270732807512e-04 1.116214909158e-02 0.0 
3.841293770557e-05 1.157936324601e-02 0.0 
2.793152462885e-04 1.051381444229e-02 0.0 
3.058255097201e-04 9.914018978302e-03 0.0 
2.336518776325e-05 1.216915336995e-02 0.0 
7.708563195763e-05 2.264279126607e-03 0.0 
3.286499102817e-05 1.209473679640e-02 0.0 
4.948528602622e-05 1.202691802728e-02 0.0 
2.030969703615e-04 2.525969547332e-03 0.0 
2.236905272479e-04 3.129003114793e-03 0.0 
1.484107627423e-04 2.031972744565e-03 0.0 
1.750775729166e-04 2.698419101556e-03 0.0 
2.351488022247e-04 3.731969939420e-03 0.0 
1.843211037178e-04 3.262941905351e-03 0.0 
1.991827553667e-04 1.082590754579e-02 0.0 
1.210529791091e-04 2.045176524195e-03 0.0 
1.374865128367e-04 2.761369951514e-03 0.0 
7.996587472103e-05 1.575198457360e-03 0.0 
6.799751153466e-04 1.314233255533e-02 0.0 
8.549347937183e-04 1.380121078316e-02 0.0 
7.802306193803e-04 1.425972173415e-02 0.0 
6.756741851390e-04 1.485387681739e-02 0.0 
2.921635863693e-04 2.554427891230e-03 0.0 
3.560631789874e-04 3.370281044301e-03 0.0 
6.341488631478e-05 4.621188368461e-03 0.0 
7.258560954249e-05 5.563768307614e-03 0.0 
1.013080636199e-04 1.062582784509e-02 0.0 
7.364593967196e-05 1.066918019398e-02 0.0 
8.057618845214e-05 9.702031568182e-03 0.0 
5.801866954158e-05 9.822943985949e-03 0.0 
6.137060591982e-05 8.829073217003e-03 0.0 
3.941277827835e-05 8.958471356424e-03 0.0 
4.701803348439e-05 7.919587790942e-03 0.0 
3.307568956714e-04 2.389060130422e-03 0.0 
5.912181287044e-04 1.496966594746e-02 0.0 
6.275179810586e-04 1.237576831567e-02 0.0 
3.595491406863e-04 2.539288523860e-03 0.0 
4.458237597689e-04 3.286256324440e-03 0.0 
7.649395060128e-04 1.311519013365e-02 0.0 
7.170529321954e-04 1.385882693929e-02 0.0 
2.146537165952e-04 2.246678112559e-03 0.0 
9.900848158679e-04 1.235994337067e-02 0.0 
5.722708291245e-05 1.459433377526e-03 0.0 
-3.907055287549e-04 1.393514813128e-02 0.0 
-7.164782998359e-05 1.372273438879e-02 0.0 
1.003137274967e-03 1.217883445792e-02 0.0 
7.942794041220e-04 1.232262905772e-02 0.0 
8.618071299011e-04 1.359729145118e-02 0.0 
7.943124787815e-04 1.400299550715e-02 0.0 
6.067413885429e-04 5.960126506123e-03 0.0 
7.282451739599e-05 1.212431525059e-02 0.0 
6.115385825929e-04 1.443701048612e-02 0.0 
6.786125616287e-05 7.800714311120e-03 0.0 
4.180458024621e-04 1.480450802070e-02 0.0 
3.332544983770e-05 5.056252497395e-03 0.0 
1.003841965066e-03 1.186525527446e-02 0.0 
8.924944296744e-04 1.142093128993e-02 0.0 
7.527938295198e-04 1.400170033851e-02 0.0 
9.212036737161e-04 1.327406303208e-02 0.0 
6.229885899245e-04 9.605510414987e-03 0.0 
5.535499809142e-04 1.054201840184e-02 0.0 
5.961001024701e-04 1.104578945244e-02 0.0 
1.002333844148e-03 1.139325929333e-02 0.0 
7.940096127825e-04 1.373448654229e-02 0.0 
7.180899995731e-04 1.442860676371e-02 0.0 
7.595517641690e-04 1.012917088044e-02 0.0 
3.024278094728e-04 5.361183305752e-03 0.0 
2.999078781372e-04 4.771777179052e-03 0.0 
2.308185372044e-04 3.496286809657e-03 0.0 
2.918244812449e-04 4.184500276530e-03 0.0 
3.618199747564e-04 5.467981571343e-03 0.0 
3.577972784541e-04 4.887579837394e-03 0.0 
2.772560558029e-04 3.606517418127e-03 0.0 
3.470038206110e-04 4.303048591609e-03 0.0 
2.335629330474e-04 2.739832817170e-03 0.0 
3.254816580700e-04 3.684139766978e-03 0.0 
4.199212523019e-04 5.011797110569e-03 0.0 
4.068512600170e-04 4.455839163903e-03 0.0 
3.117346572488e-04 3.254063471701e-03 0.0 
4.957260779044e-04 5.756672264607e-03 0.0 
2.790122078729e-04 1.901401660611e-03 0.0 
1.023498172337e-03 1.142504502067e-02 0.0 
9.753480961194e-05 1.338547542194e-02 0.0 
8.343639523645e-05 1.396339182351e-02 0.0 
8.524504491128e-04 1.101889143609e-02 0.0 
1.136145366587e-04 1.336980229159e-03 0.0 
9.075353505494e-05 1.317716000887e-03 0.0 
9.121379787302e-04 1.256232701325e-02 0.0 
1.504776860273e-04 1.223514767304e-03 0.0 
6.362978853502e-04 1.058700408766e-02 0.0 
6.280774780372e-04 1.300292124976e-02 0.0 
1.651000299816e-04 1.213998710362e-03 0.0 
3.599306197160e-04 6.039946035120e-03 0.0 
4.187592379665e-04 6.716759602613e-03 0.0 
4.070553291626e-04 7.262292919902e-03 0.0 
6.942073538596e-05 1.230266343111e-03 0.0 
2.894707494647e-04 8.776225384905e-03 0.0 
1.655088860417e-04 1.100371996586e-03 0.0 
8.961482479286e-04 7.842226897601e-03 0.0 
9.384016968106e-04 8.343923447018e-03 0.0 
9.817722870551e-04 9.199063595631e-03 0.0 
4.262990674704e-04 5.601127860047e-03 0.0 
1.634421863024e-04 1.130609800494e-03 0.0 
2.967100639069e-04 2.161071806277e-03 0.0 
2.822788998724e-04 2.144901592679e-03 0.0 
4.182933180132e-04 3.220259978214e-03 0.0 
1.478375693331e-04 1.107989606727e-03 0.0 
1.198138653251e-04 1.194590759265e-03 0.0 
1.222692034162e-04 1.130436548880e-03 0.0 
5.356276696489e-04 1.145386963450e-02 0.0 
6.250695481160e-04 1.132926043451e-02 0.0 
6.849738884434e-04 1.088544620151e-02 0.0 
7.112574818038e-04 1.119843932042e-02 0.0 
6.399745999861e-04 1.162930606278e-02 0.0 
7.316163279434e-04 1.152851959355e-02 0.0 
7.905498910112e-04 1.105937937591e-02 0.0 
7.454520187764e-04 1.187763572602e-02 0.0 
4.646009270850e-04 4.612604858778e-03 0.0 
1.257232422596e-04 1.053575738986e-03 0.0 
5.665394617544e-04 7.288143536378e-03 0.0 
6.262452309755e-04 7.691456554722e-03 0.0 
6.471350411204e-04 8.441292139945e-03 0.0 
3.105897021003e-04 9.433919180131e-03 0.0 
3.600663437586e-04 9.121603971176e-03 0.0 
3.621418635467e-04 8.476488097067e-03 0.0 
2.613794786557e-04 9.732049396664e-03 0.0 
8.118541796627e-04 7.059508108672e-03 0.0 
1.159534678656e-04 1.057126102655e-03 0.0 
7.896429330927e-04 7.738091084468e-03 0.0 
4.018437920159e-04 9.411076625106e-03 0.0 
3.739634823106e-04 1.150475700042e-02 0.0 
3.885925048408e-04 1.064040459769e-02 0.0 
4.274862773315e-04 1.060526508678e-02 0.0 
3.964932125342e-04 9.589890359559e-03 0.0 
3.454544885386e-04 1.053156829370e-02 0.0 
2.277348697222e-04 8.217127538247e-03 0.0 
1.829265562474e-04 7.899183010091e-03 0.0 
1.435959455773e-04 8.286271260941e-03 0.0 
1.385157316127e-04 7.571960522803e-03 0.0 
1.004286875794e-04 7.975289396704e-03 0.0 
1.042140367757e-04 8.639767576568e-03 0.0 
9.396081801993e-05 7.234498449318e-03 0.0 
5.785369175060e-05 7.738493213370e-03 0.0 
3.000068840890e-04 1.151984248364e-02 0.0 
-1.782190653188e-04 1.271419344643e-02 0.0 
-3.195167733594e-05 1.258288666995e-02 0.0 
-2.271631644746e-05 1.246641348054e-02 0.0 
8.109676409340e-05 1.242796086250e-02 0.0 
9.477142871717e-05 1.254422438059e-02 0.0 
2.163266078412e-04 1.232401784846e-02 0.0 
2.202185084261e-04 1.248543367907e-02 0.0 
-4.305244329572e-05 1.273327812796e-02 0.0 
-1.133823412989e-04 1.247514788330e-02 0.0 
-1.037988379871e-05 1.237228451896e-02 0.0 
-8.680061498367e-05 1.238803146370e-02 0.0 
-3.559397796948e-06 1.229809082719e-02 0.0 
8.937307150880e-05 1.221905941435e-02 0.0 
1.636245588958e-04 1.181673126173e-02 0.0 
3.559187364344e-05 1.224006686311e-03 0.0 
3.848666061568e-05 9.521259870372e-03 0.0 
7.367995456797e-05 9.797059196023e-03 0.0 
6.720155720807e-05 1.027773855781e-02 0.0 
1.083660437700e-04 1.002980168885e-02 0.0 
7.274818657765e-05 9.290606487726e-03 0.0 
3.214847161803e-05 1.051347161040e-02 0.0 
6.125993411343e-05 1.066452039986e-02 0.0 
2.922599132038e-06 1.208042519733e-02 0.0 
9.659216353430e-06 1.202735700132e-02 0.0 
2.835909881038e-06 1.203112906196e-02 0.0 
1.470808066517e-05 1.192948379916e-02 0.0 
2.370388952810e-05 1.193797254377e-02 0.0 
1.557112482242e-05 1.203292269776e-02 0.0 
2.015635621255e-05 1.204451891969e-02 0.0 
2.144745571364e-06 1.210350978562e-02 0.0 
2.376212910260e-05 1.206001612002e-02 0.0 
4.381124399711e-05 1.195300847504e-02 0.0 
-6.007851585110e-07 1.212128631760e-02 0.0 
1.453986647704e-05 6.316055713350e-03 0.0 
2.789851340879e-05 5.683747062156e-03 0.0 
1.025853813257e-04 1.115265886682e-03 0.0 
2.310769330833e-04 1.144459849180e-02 0.0 
-4.419615237161e-05 1.225973235664e-02 0.0 
2.192873918716e-05 1.556508383754e-03 0.0 
3.274210907023e-05 1.295596659379e-03 0.0 
2.751138033830e-05 1.254111590086e-03 0.0 
2.085374533733e-05 2.989595201292e-03 0.0 
3.391505900274e-05 2.453454047679e-03 0.0 
1.104592186607e-05 1.512050269135e-03 0.0 
2.620458856573e-04 1.107611504251e-02 0.0 
2.142117079700e-04 2.935416177980e-03 0.0 
6.292740548730e-05 3.960720655591e-03 0.0 
6.040684228559e-04 1.340415031171e-02 0.0 
3.543979300247e-04 1.126716852325e-02 0.0 
1.147909664887e-04 5.967302483448e-03 0.0 
3.380188477378e-04 7.006272791237e-03 0.0 
1.355360137598e-04 3.963700913086e-03 0.0 
2.072704050544e-04 6.725550364688e-03 0.0 
2.267991859117e-04 4.836797194493e-03 0.0 
2.747436214054e-04 2.200846529313e-03 0.0 
5.261413937552e-05 1.167725662364e-02 0.0 
1.800619984991e-04 8.561848697452e-03 0.0 
1.161588101439e-04 8.967892947625e-03 0.0 
1.059929775735e-04 6.018075685734e-03 0.0 
1.762322717802e-04 1.090102884069e-02 0.0 
1.463155757335e-04 8.906546548383e-03 0.0 
1.255918922256e-04 1.167163167066e-02 0.0 
2.947943743585e-04 2.297358289145e-03 0.0 
7.672511382992e-04 1.105878029144e-02 0.0 
6.026111823338e-04 8.777911115619e-03 0.0 
2.961563905863e-04 9.980774254608e-03 0.0 
3.210157333751e-04 1.088493001385e-02 0.0 
3.620068361805e-04 1.146697442219e-02 0.0 
1.011692105870e-03 1.113362070278e-02 0.0 
4.541927768535e-04 9.101823877266e-03 0.0 
4.035391286781e-04 5.599576828917e-03 0.0 
8.061868727793e-05 5.305859869640e-03 0.0 
-1.078021354406e-05 1.216856958053e-02 0.0 
4.093492215542e-04 5.085411353130e-03 0.0 
4.442943108440e-04 7.727986580470e-03 0.0 
2.502793795927e-04 8.146189469453e-03 0.0 
6.799427230497e-04 5.405426402444e-03 0.0 
2.544504847624e-04 1.212084962792e-02 0.0 
1.523919830078e-04 5.570814152950e-03 0.0 
1.488234628795e-04 3.243109611624e-03 0.0 
3.289408202747e-04 9.380178290748e-03 0.0 
8.555323021753e-05 1.188269732255e-02 0.0 
1.916131260273e-04 9.695396012074e-03 0.0 
2.922687440403e-04 2.885296138377e-03 0.0 
2.993372409463e-04 5.937425295363e-03 0.0 
1.339949828809e-04 1.109565133596e-02 0.0 
8.767138269477e-04 8.952185730459e-03 0.0 
9.289311258911e-04 1.093662216696e-02 0.0 
5.471065501297e-04 1.232613847876e-02 0.0 
6.504720631284e-05 3.388070765901e-03 0.0 
9.929694525326e-04 9.339366681973e-03 0.0 
5.438361229722e-04 4.383178588956e-03 0.0 
7.967743772177e-04 7.325245188174e-03 0.0 
1.137346625528e-04 1.092180782355e-02 0.0 
2.894540614147e-04 4.184948118343e-03 0.0 
9.787039292775e-04 9.519336877458e-03 0.0 
1.219385800155e-04 4.252733024646e-03 0.0 
6.948546794980e-04 6.487632241146e-03 0.0 
9.186809808170e-04 1.071733767949e-02 0.0 
1.997625983776e-04 5.115075329655e-03 0.0 
7.005877168265e-04 8.812544048039e-03 0.0 
6.345124631189e-04 4.853019314996e-03 0.0 
8.089789331081e-04 1.148170313006e-02 0.0 
8.271088389158e-04 8.628619887407e-03 0.0 
6.289285318530e-04 7.533740232235e-03 0.0 
9.353412286828e-04 9.043820504422e-03 0.0 
7.847578472853e-05 6.447485997841e-03 0.0 
3.478849754366e-04 4.638716851188e-03 0.0 
4.053254819070e-04 1.258241150332e-02 0.0 
9.727769443408e-04 1.261377248669e-02 0.0 
3.083131778681e-04 8.241573988414e-03 0.0 
5.357949862201e-04 4.232597093946e-03 0.0 
8.626404182621e-05 2.863559409967e-03 0.0 
9.255294364188e-04 1.177475615360e-02 0.0 
2.882690607233e-04 4.737704671932e-03 0.0 
1.555160149991e-04 3.818515570618e-03 0.0 
4.086551116682e-04 8.793589730198e-03 0.0 
1.836229351926e-05 1.154440186812e-02 0.0 
4.306682781703e-04 1.370593920628e-02 0.0 
8.323488420494e-04 1.179762255187e-02 0.0 
1.006804007666e-03 9.682008788831e-03 0.0 
4.050258402977e-04 8.113663184956e-03 0.0 
1.642587350119e-04 2.602917123479e-03 0.0 
2.352250068283e-04 4.295944062775e-03 0.0 
5.380747454264e-04 5.471994741573e-03 0.0 
-2.993245374228e-05 1.482366432618e-02 0.0 
5.946662903327e-04 1.192817790889e-02 0.0 
1.860184280540e-04 3.843973996624e-03 0.0 
8.257711967268e-04 8.534841974452e-03 0.0 
5.687860063119e-04 4.340974618543e-03 0.0 
6.327494949820e-05 8.370662488307e-03 0.0 
3.084411032859e-04 2.308435551981e-03 0.0 
7.043491244403e-04 1.349832999058e-02 0.0 
1.411760377099e-04 3.381208701175e-03 0.0 
5.983825815434e-04 5.463428694434e-03 0.0 
9.611873167401e-04 1.247771274934e-02 0.0 
6.338056397936e-05 1.154432607706e-02 0.0 
8.954896779834e-05 2.114364140038e-03 0.0 
5.023893826142e-04 4.381717798143e-03 0.0 
8.825694379304e-04 8.081679096371e-03 0.0 
7.938660274931e-04 8.869669100923e-03 0.0 
5.994607412028e-04 1.314889408928e-02 0.0 
3.546945653570e-04 7.774659444808e-03 0.0 
7.672403764190e-04 8.120157955085e-03 0.0 
6.101917985291e-05 1.199261160075e-03 0.0 
4.734206507795e-04 3.880056595239e-03 0.0 
4.619524871501e-04 7.914775175879e-03 0.0 
3.149350982650e-04 8.161302295749e-03 0.0 
8.457668130184e-04 6.983562277521e-03 0.0 
3.392856497175e-05 1.194535824874e-02 0.0 
6.555023029229e-04 1.276394692022e-02 0.0 
2.674380470769e-04 7.835965581370e-03 0.0 
8.146294072517e-04 1.142089236557e-02 0.0 
7.401311729787e-04 8.481123615203e-03 0.0 
3.634423449910e-04 2.509260450577e-03 0.0 
2.204952774845e-04 7.501303971134e-03 0.0 
8.604936220955e-04 1.089889014923e-02 0.0 
1.744071366123e-04 7.157733846595e-03 0.0 
6.366830603355e-04 1.386785240356e-02 0.0 
4.775925741853e-04 7.363213197129e-03 0.0 
1.278018005317e-04 6.804010832118e-03 0.0 
7.037022838396e-04 7.036121427971e-03 0.0 
5.461435614862e-05 1.196200866817e-02 0.0 
8.672647639614e-04 7.567954478150e-03 0.0 
4.931085590454e-05 3.561615099731e-03 0.0 
4.491027575604e-04 1.046491318913e-02 0.0 
6.844900548408e-04 8.095729028398e-03 0.0 
4.252702693037e-04 6.160086158621e-03 0.0 
6.475547998335e-04 1.448531132729e-02 0.0 
6.521663028902e-04 7.300436582845e-03 0.0 
6.218199535510e-04 5.895963650270e-03 0.0 
8.410348545418e-04 7.048065930052e-03 0.0 
9.710462467005e-04 8.845229028747e-03 0.0 
6.033308633029e-04 6.424762994474e-03 0.0 
7.255726743693e-04 1.412019199631e-02 0.0 
2.733802168127e-04 1.126064431414e-02 0.0 
2.227008029188e-04 1.156312788392e-02 0.0 
8.275910123352e-04 1.052649124873e-02 0.0 
5.440447716047e-04 5.264803225405e-03 0.0 
2.993578173260e-05 1.180232986902e-02 0.0 
4.949980057205e-04 6.281327813017e-03 0.0 
1.514068524919e-04 1.194372927540e-02 0.0 
7.603376113661e-04 1.071466425660e-02 0.0 
6.929103394135e-04 5.343762860186e-03 0.0 
1.771991418309e-05 8.670862769190e-03 0.0 
7.251486958868e-04 1.038176500528e-02 0.0 
2.261804835335e-05 1.125655607485e-02 0.0 
6.543350898145e-04 1.058345154071e-02 0.0 
9.172073119039e-04 7.941791821482e-03 0.0 
6.198830829227e-04 1.028322017891e-02 0.0 
5.497302146242e-04 1.049754303414e-02 0.0 
4.269971159232e-05 2.615557396517e-03 0.0 
5.165584115900e-04 1.022996618554e-02 0.0 
4.830208219175e-06 1.255134382379e-03 0.0 
1.505068706709e-05 1.113769102727e-03 0.0 
2.399695593169e-05 1.079507219519e-02 0.0 
6.142492050181e-04 1.503940372345e-02 0.0 
-3.098576817848e-04 1.330770233621e-02 0.0 
7.206624228893e-04 1.455083052972e-02 0.0 
4.078076716372e-04 1.089537227837e-02 0.0 
5.669544561755e-04 6.403382467029e-03 0.0 
4.986907124760e-05 1.074737302944e-02 0.0 
3.391666146211e-04 1.107958878338e-02 0.0 
2.249270097501e-04 2.393265483750e-03 0.0 
1.619347152229e-04 1.110962836179e-03 0.0 
3.207990875609e-05 6.870767387323e-03 0.0 
5.050680189207e-04 3.879337907410e-03 0.0 
8.008818490097e-04 6.481343296878e-03 0.0 
8.956651441849e-06 3.766038698625e-03 0.0 
1.479238476492e-04 1.161500944598e-02 0.0 
4.121703067739e-06 1.223659570373e-02 0.0 
3.789915496932e-05 5.986221408921e-03 0.0 
5.528562616632e-04 1.538562147958e-02 0.0 
6.376319041692e-04 1.495185946393e-02 0.0 
5.127025319211e-04 1.494060013987e-02 0.0 
8.877852042266e-05 1.077725229206e-02 0.0 
7.470265150289e-05 1.232798776470e-02 0.0 
4.743128995983e-04 1.544414051780e-02 0.0 
3.150625648551e-04 2.246012146568e-03 0.0 
2.491685655741e-04 1.072234603261e-02 0.0 
6.393666865954e-04 4.881010815893e-03 0.0 
2.880957784299e-04 1.532933924714e-02 0.0 
1.059049815595e-04 2.522188070571e-03 0.0 
3.349830402222e-04 2.319379736839e-03 0.0 
7.405930769444e-05 9.801370041238e-04 0.0 
5.017216185159e-04 3.650875178167e-03 0.0 
2.699302343352e-04 1.460395056725e-02 0.0 
3.640701308001e-04 9.813100013497e-03 0.0 
2.805842434448e-04 2.295040969162e-03 0.0 
4.320265449564e-05 5.867796504248e-03 0.0 
5.312997830309e-05 9.391871486528e-04 0.0 
3.138968400265e-04 1.080808960596e-02 0.0 
2.637111250436e-05 2.443593190442e-03 0.0 
2.938118941458e-04 1.256171145558e-02 0.0 
1.261264121410e-05 2.371432030806e-03 0.0 
4.845028083231e-04 5.179549475606e-03 0.0 
1.007244831115e-04 9.472647961848e-03 0.0 
4.364376834545e-04 9.837904289080e-03 0.0 
4.122875247736e-05 1.929518131210e-03 0.0 
1.916264718460e-04 2.427912398055e-03 0.0 
9.475954578519e-05 1.431061371236e-02 0.0 
5.023485577738e-05 6.993138102267e-03 0.0 
1.459609964534e-04 1.002913813111e-02 0.0 
-8.874601418540e-05 1.291789976869e-02 0.0 
1.803276510088e-04 2.045237543264e-03 0.0 
3.881102995891e-04 3.942589577552e-03 0.0 
6.864048237265e-05 1.970102871208e-03 0.0 
5.875190703164e-06 1.193692156535e-02 0.0 
1.164487859207e-05 1.215190816312e-02 0.0 
1.977542067557e-04 1.903702606487e-03 0.0 
2.368644070287e-04 2.187975851538e-03 0.0 
3.362768059656e-04 1.226429585667e-02 0.0 
3.511057336425e-05 1.018198849454e-03 0.0 
-1.525672894296e-04 1.409706981223e-02 0.0 
2.026606264351e-04 1.171430719976e-02 0.0 
2.345795825942e-05 1.208452534183e-02 0.0 
4.307384787516e-05 9.491164430671e-04 0.0 
6.384379198465e-05 2.344537862644e-03 0.0 
1.025861850383e-04 9.549943991017e-03 0.0 
4.483236615798e-04 1.137727852200e-02 0.0 
5.283260259059e-05 1.102641680834e-02 0.0 
4.220903555279e-04 3.197490970795e-03 0.0 
6.166388192064e-05 1.219060668416e-02 0.0 
4.299584067269e-05 2.213249213298e-03 0.0 
2.241289352263e-04 1.872923157055e-03 0.0 
1.287935324044e-04 2.214298685651e-03 0.0 
1.265974011559e-04 8.404021310398e-04 0.0 
-1.347997468564e-04 1.344561689730e-02 0.0 
2.863256750771e-04 2.000136674148e-03 0.0 
3.718977043796e-04 2.952407594158e-03 0.0 
1.113025823685e-04 1.165701350495e-02 0.0 
1.650430549489e-04 2.373517216757e-03 0.0 
9.389086925138e-05 1.043399900676e-02 0.0 
6.857089903800e-05 1.183261693229e-02 0.0 
2.309645331877e-06 1.112425460118e-03 0.0 
-8.246035911874e-07 1.207515427738e-02 0.0 
1.844874554280e-05 1.165599383911e-02 0.0 
6.188666605622e-06 9.086995031176e-04 0.0 
3.907470235731e-05 1.184023750408e-02 0.0 
3.941586627576e-05 1.003235108701e-02 0.0 
2.142140008949e-04 2.113464152949e-03 0.0 
2.685631637700e-05 8.255329321470e-03 0.0 
2.174848216896e-05 4.649305788529e-03 0.0 
1.587798083822e-04 1.227256615315e-02 0.0 
-2.979464251318e-04 1.306362056257e-02 0.0 
3.112663169702e-05 8.094421128570e-03 0.0 
3.032381656460e-04 2.068674167699e-03 0.0 
9.907479054760e-05 2.115932728593e-03 0.0 
8.039597777554e-05 8.867423462183e-03 0.0 
2.683549833868e-04 1.394264709784e-02 0.0 
3.036523782534e-04 2.981080441714e-03 0.0 
1.097506488215e-04 9.109343566585e-03 0.0 
3.852376347133e-04 3.162168716379e-03 0.0 
4.038631424557e-04 3.012191166437e-03 0.0 
-3.976976823346e-04 1.426046466248e-02 0.0 
2.490946615419e-05 7.551578979118e-03 0.0 
1.954174504526e-05 1.210907252644e-02 0.0 
1.220306852225e-04 1.810942946744e-03 0.0 
7.242085187986e-05 8.829043700498e-03 0.0 
9.384063469398e-05 1.607889887123e-02 0.0 
1.249207698351e-05 1.744983943452e-02 0.0 
3.266119588226e-04 1.604721617704e-02 0.0 
1.277658632404e-05 1.697841642627e-02 0.0 
4.588659499198e-04 1.581990499344e-02 0.0 
1.031993743084e-05 1.644318624507e-02 0.0 
5.272871027877e-04 1.544463701712e-02 0.0 
1.294061406298e-05 1.584361352292e-02 0.0 
5.542210612575e-04 1.493652882587e-02 0.0 
1.079800026105e-05 1.517949267874e-02 0.0 
5.494752970812e-04 1.432447112291e-02 0.0 
1.350494387253e-05 1.445082380294e-02 0.0 
5.219617007270e-04 1.360455664366e-02 0.0 
1.111985791624e-05 1.365769908254e-02 0.0 
4.784890913498e-04 1.280712449493e-02 0.0 
1.351712601405e-05 1.280053775021e-02 0.0 

VECTORS node_bounda_dof_materi_velocity_x float
1.000000000000e+00 0.0 0.0 
1.000000000000e+00 0.0 0.0 
1.000000000000e+00 0.0 0.0 
1.000000000000e+00 0.0 0.0 
1.000000000000e+00 0.0 0.0 
1.000000000000e+00 0.0 0.0 
1.000000000000e+00 0.0 0.0 
1.000000000000e+00 0.0 0.0 
1.000000000000e+00 0.0 0.0 
1.000000000000e+00 0.0 0.0 
1.000000000000e+00 0.0 0.0 
1.000000000000e+00 0.0 0.0 
1.000000000000e+00 0.0 0.0 
1.000000000000e+00 0.0 0.0 
1.000000000000e+00 0.0 0.0 
1.000000000000e+00 0.0 0.0 
1.000000000000e+00 0.0 0.0 
1.000000000000e+00 0.0 0.0 
1.000000000000e+00 0.0 0.0 
1.000000000000e+00 0.0 0.0 
1.000000000000e+00 0.0 0.0 
1.000000000000e+00 0.0 0.0 
1.000000000000e+00 0.0 0.0 
1.000000000000e+00 0.0 0.0 
1.000000000000e+00 0.0 0.0 
1.000000000000e+00 0.0 0.0 
1.000000000000e+00 0.0 0.0 
1.000000000000e+00 0.0 0.0 
1.000000000000e+00 0.0 0.0 
1.000000000000e+00 0.0 0.0 
1.000000000000e+00 0.0 0.0 
1.000000000000e+00 0.0 0.0 
1.000000000000e+00 0.0 0.0 
1.000000000000e+00 0.0 0.0 
1.000000000000e+00 0.0 0.0 
1.000000000000e+00 0.0 0.0 
1.000000000000e+00 0.0 0.0 
1.000000000000e+00 0.0 0.0 
1.000000000000e+00 0.0 0.0 
1.000000000000e+00 0.0 0.0 
1.000000000000e+00 0.0 0.0 
1.000000000000e+00 0.0 0.0 
1.000000000000e+00 0.0 0.0 
1.000000000000e+00 0.0 0.0 
1.000000000000e+00 0.0 0.0 
1.000000000000e+00 0.0 0.0 
1.000000000000e+00 0.0 0.0 
1.000000000000e+00 0.0 0.0 
1.000000000000e+00 0.0 0.0 
1.000000000000e+00 0.0 0.0 
1.000000000000e+00 0.0 0.0 
1.000000000000e+00 0.0 0.0 
1.000000000000e+00 0.0 0.0 
1.000000000000e+00 0.0 0.0 
1.000000000000e+00 0.0 0.0 
1.000000000000e+00 0.0 0.0 
1.000000000000e+00 0.0 0.0 
1.000000000000e+00 0.0 0.0 
1.000000000000e+00 0.0 0.0 
1.000000000000e+00 0.0 0.0 
1.000000000000e+00 0.0 0.0 
1.000000000000e+00 0.0 0.0 
1.000000000000e+00 0.0 0.0 
1.000000000000e+00 0.0 0.0 
1.000000000000e+00 0.0 0.0 
1.000000000000e+00 0.0 0.0 
1.000000000000e+00 0.0 0.0 
1.000000000000e+00 0.0 0.0 
1.000000000000e+00 0.0 0.0 
1.000000000000e+00 0.0 0.0 
1.000000000000e+00 0.0 0.0 
1.000000000000e+00 0.0 0.0 
1.000000000000e+00 0.0 0.0 
1.000000000000e+00 0.0 0.0 
1.000000000000e+00 0.0 0.0 
1.000000000000e+00 0.0 0.0 
1.000000000000e+00 0.0 0.0 
1.000000000000e+00 0.0 0.0 
1.000000000000e+00 0.0 0.0 
1.000000000000e+00 0.0 0.0 
1.000000000000e+00 0.0 0.0 
0.0 0.0 0.0 
0.0 0.0 0.0 
0.0 0.0 0.0 
0.0 0.0 0.0 
0.0 0.0 0.0 
0.0 0.0 0.0 
0.0 0.0 0.0 
0.0 0.0 0.0 
0.0 0.0 0.0 
0.0 0.0 0.0 
0.0 0.0 0.0 
1.000000000000e+00 0.0 0.0 
1.000000000000e+00 0.0 0.0 
1.000000000000e+00 0.0 0.0 
1.000000000000e+00 0.0 0.0 
1.000000000000e+00 0.0 0.0 
1.000000000000e+00 0.0 0.0 
1.000000000000e+00 0.0 0.0 
1.000000000000e+00 0.0 0.0 
0.0 0.0 0.0 
0.0 0.0 0.0 
0.0 0.0 0.0 
0.0 0.0 0.0 
0.0 0.0 0.0 
0.0 0.0 0.0 
0.0 0.0 0.0 
0.0 0.0 0.0 
0.0 0.0 0.0 
0.0 0.0 0.0 
0.0 0.0 0.0 
0.0 0.0 0.0 
0.0 0.0 0.0 
0.0 0.0 0.0 
0.0 0.0 0.0 
0.0 0.0 0.0 
0.0 0.0 0.0 
0.0 0.0 0.0 
0.0 0.0 0.0 
0.0 0.0 0.0 
0.0 0.0 0.0 
0.0 0.0 0.0 
0.0 0.0 0.0 
0.0 0.0 0.0 
0.0 0.0 0.0 
0.0 0.0 0.0 
0.0 0.0 0.0 
0.0 0.0 0.0 
0.0 0.0 0.0 
0.0 0.0 0.0 
0.0 0.0 0.0 
0.0 0.0 0.0 
0.0 0.0 0.0 
0.0 0.0 0.0 
0.0 0.0 0.0 
0.0 0.0 0.0 
0.0 0.0 0.0 
0.0 0.0 0.0 
0.0 0.0 0.0 
0.0 0.0 0.0 
0.0 0.0 0.0 
0.0 0.0 0.0 
0.0 0.0 0.0 
0.0 0.0 0.0 
0.0 0.0 0.0 
0.0 0.0 0.0 
0.0 0.0 0.0 
0.0 0.0 0.0 
0.0 0.0 0.0 
0.0 0.0 0.0 
0.0 0.0 0.0 
0.0 0.0 0.0 
0.0 0.0 0.0 
0.0 0.0 0.0 
0.0 0.0 0.0 
0.0 0.0 0.0 
0.0 0.0 0.0 
0.0 0.0 0.0 
0.0 0.0 0.0 
0.0 0.0 0.0 
0.0 0.0 0.0 
0.0 0.0 0.0 
0.0 0.0 0.0 
0.0 0.0 0.0 
0.0 0.0 0.0 
0.0 0.0 0.0 
0.0 0.0 0.0 
0.0 0.0 0.0 
0.0 0.0 0.0 
0.0 0.0 0.0 
0.0 0.0 0.0 
0.0 0.0 0.0 
0.0 0.0 0.0 
0.0 0.0 0.0 
0.0 0.0 0.0 
0.0 0.0 0.0 
0.0 0.0 0.0 
0.0 0.0 0.0 
0.0 0.0 0.0 
0.0 0.0 0.0 
0.0 0.0 0.0 
0.0 0.0 0.0 
0.0 0.0 0.0 
0.0 0.0 0.0 
0.0 0.0 0.0 
0.0 0.0 0.0 
0.0 0.0 0.0 
0.0 0.0 0.0 
0.0 0.0 0.0 
0.0 0.0 0.0 
0.0 0.0 0.0 
0.0 0.0 0.0 
0.0 0.0 0.0 
0.0 0.0 0.0 
0.0 0.0 0.0 
0.0 0.0 0.0 
0.0 0.0 0.0 
0.0 0.0 0.0 
0.0 0.0 0.0 
0.0 0.0 0.0 
0.0 0.0 0.0 
0.0 0.0 0.0 
0.0 0.0 0.0 
0.0 0.0 0.0 
0.0 0.0 0.0 
0.0 0.0 0.0 
0.0 0.0 0.0 
0.0 0.0 0.0 
0.0 0.0 0.0 
0.0 0.0 0.0 
0.0 0.0 0.0 
0.0 0.0 0.0 
0.0 0.0 0.0 
0.0 0.0 0.0 
0.0 0.0 0.0 
0.0 0.0 0.0 
0.0 0.0 0.0 
0.0 0.0 0.0 
0.0 0.0 0.0 
0.0 0.0 0.0 
0.0 0.0 0.0 
0.0 0.0 0.0 
0.0 0.0 0.0 
0.0 0.0 0.0 
0.0 0.0 0.0 
0.0 0.0 0.0 
0.0 0.0 0.0 
0.0 0.0 0.0 
0.0 0.0 0.0 
0.0 0.0 0.0 
0.0 0.0 0.0 
0.0 0.0 0.0 
0.0 0.0 0.0 
0.0 0.0 0.0 
0.0 0.0 0.0 
0.0 0.0 0.0 
0.0 0.0 0.0 
0.0 0.0 0.0 
0.0 0.0 0.0 
0.0 0.0 0.0 
0.0 0.0 0.0 
0.0 0.0 0.0 
0.0 0.0 0.0 
0.0 0.0 0.0 
0.0 0.0 0.0 
0.0 0.0 0.0 
0.0 0.0 0.0 
0.0 0.0 0.0 
0.0 0.0 0.0 
0.0 0.0 0.0 
0.0 0.0 0.0 
0.0 0.0 0.0 
0.0 0.0 0.0 
0.0 0.0 0.0 
0.0 0.0 0.0 
0.0 0.0 0.0 
0.0 0.0 0.0 
0.0 0.0 0.0 
0.0 0.0 0.0 
0.0 0.0 0.0 
0.0 0.0 0.0 
0.0 0.0 0.0 
0.0 0.0 0.0 
0.0 0.0 0.0 
0.0 0.0 0.0 
0.0 0.0 0.0 
0.0 0.0 0.0 
0.0 0.0 0.0 
0.0 0.0 0.0 
0.0 0.0 0.0 
0.0 0.0 0.0 
0.0 0.0 0.0 
0.0 0.0 0.0 
0.0 0.0 0.0 
0.0 0.0 0.0 
0.0 0.0 0.0 
0.0 0.0 0.0 
0.0 0.0 0.0 
0.0 0.0 0.0 
0.0 0.0 0.0 
0.0 0.0 0.0 
0.0 0.0 0.0 
0.0 0.0 0.0 
0.0 0.0 0.0 
0.0 0.0 0.0 
0.0 0.0 0.0 
0.0 0.0 0.0 
0.0 0.0 0.0 
0.0 0.0 0.0 
0.0 0.0 0.0 
0.0 0.0 0.0 
0.0 0.0 0.0 
0.0 0.0 0.0 
0.0 0.0 0.0 
0.0 0.0 0.0 
0.0 0.0 0.0 
0.0 0.0 0.0 
0.0 0.0 0.0 
0.0 0.0 0.0 
0.0 0.0 0.0 
0.0 0.0 0.0 
0.0 0.0 0.0 
0.0 0.0 0.0 
0.0 0.0 0.0 
0.0 0.0 0.0 
0.0 0.0 0.0 
0.0 0.0 0.0 
0.0 0.0 0.0 
0.0 0.0 0.0 
0.0 0.0 0.0 
0.0 0.0 0.0 
0.0 0.0 0.0 
0.0 0.0 0.0 
0.0 0.0 0.0 
0.0 0.0 0.0 
0.0 0.0 0.0 
0.0 0.0 0.0 
0.0 0.0 0.0 
0.0 0.0 0.0 
0.0 0.0 0.0 
0.0 0.0 0.0 
0.0 0.0 0.0 
0.0 0.0 0.0 
0.0 0.0 0.0 
0.0 0.0 0.0 
0.0 0.0 0.0 
0.0 0.0 0.0 
0.0 0.0 0.0 
0.0 0.0 0.0 
0.0 0.0 0.0 
0.0 0.0 0.0 
0.0 0.0 0.0 
0.0 0.0 0.0 
0.0 0.0 0.0 
0.0 0.0 0.0 
0.0 0.0 0.0 
0.0 0.0 0.0 
0.0 0.0 0.0 
0.0 0.0 0.0 
0.0 0.0 0.0 
0.0 0.0 0.0 
0.0 0.0 0.0 
0.0 0.0 0.0 
0.0 0.0 0.0 
0.0 0.0 0.0 
0.0 0.0 0.0 
0.0 0.0 0.0 
0.0 0.0 0.0 
0.0 0.0 0.0 
0.0 0.0 0.0 
0.0 0.0 0.0 
0.0 0.0 0.0 
0.0 0.0 0.0 
0.0 0.0 0.0 
0.0 0.0 0.0 
0.0 0.0 0.0 
0.0 0.0 0.0 
0.0 0.0 0.0 
0.0 0.0 0.0 
0.0 0.0 0.0 
0.0 0.0 0.0 
0.0 0.0 0.0 
0.0 0.0 0.0 
0.0 0.0 0.0 
0.0 0.0 0.0 
0.0 0.0 0.0 
0.0 0.0 0.0 
0.0 0.0 0.0 
0.0 0.0 0.0 
0.0 0.0 0.0 
0.0 0.0 0.0 
0.0 0.0 0.0 
0.0 0.0 0.0 
0.0 0.0 0.0 
0.0 0.0 0.0 
0.0 0.0 0.0 
0.0 0.0 0.0 
0.0 0.0 0.0 
0.0 0.0 0.0 
0.0 0.0 0.0 
0.0 0.0 0.0 
0.0 0.0 0.0 
0.0 0.0 0.0 
0.0 0.0 0.0 
0.0 0.0 0.0 
0.0 0.0 0.0 
0.0 0.0 0.0 
0.0 0.0 0.0 
0.0 0.0 0.0 
0.0 0.0 0.0 
0.0 0.0 0.0 
0.0 0.0 0.0 
0.0 0.0 0.0 
0.0 0.0 0.0 
0.0 0.0 0.0 
0.0 0.0 0.0 
0.0 0.0 0.0 
0.0 0.0 0.0 
0.0 0.0 0.0 
0.0 0.0 0.0 
0.0 0.0 0.0 
0.0 0.0 0.0 
0.0 0.0 0.0 
0.0 0.0 0.0 
0.0 0.0 0.0 
0.0 0.0 0.0 
0.0 0.0 0.0 
0.0 0.0 0.0 
0.0 0.0 0.0 
0.0 0.0 0.0 
0.0 0.0 0.0 
0.0 0.0 0.0 
0.0 0.0 0.0 
0.0 0.0 0.0 
0.0 0.0 0.0 
0.0 0.0 0.0 
0.0 0.0 0.0 
0.0 0.0 0.0 
0.0 0.0 0.0 
0.0 0.0 0.0 
0.0 0.0 0.0 
0.0 0.0 0.0 
0.0 0.0 0.0 
0.0 0.0 0.0 
0.0 0.0 0.0 
0.0 0.0 0.0 
0.0 0.0 0.0 
0.0 0.0 0.0 
0.0 0.0 0.0 
0.0 0.0 0.0 
0.0 0.0 0.0 
0.0 0.0 0.0 
0.0 0.0 0.0 
0.0 0.0 0.0 
0.0 0.0 0.0 
0.0 0.0 0.0 
0.0 0.0 0.0 
0.0 0.0 0.0 
0.0 0.0 0.0 
0.0 0.0 0.0 
0.0 0.0 0.0 
0.0 0.0 0.0 
0.0 0.0 0.0 
0.0 0.0 0.0 
0.0 0.0 0.0 
0.0 0.0 0.0 
0.0 0.0 0.0 
0.0 0.0 0.0 
0.0 0.0 0.0 
0.0 0.0 0.0 
0.0 0.0 0.0 
0.0 0.0 0.0 
0.0 0.0 0.0 
0.0 0.0 0.0 
0.0 0.0 0.0 
0.0 0.0 0.0 
0.0 0.0 0.0 
0.0 0.0 0.0 
0.0 0.0 0.0 
0.0 0.0 0.0 
0.0 0.0 0.0 
0.0 0.0 0.0 
0.0 0.0 0.0 
0.0 0.0 0.0 
0.0 0.0 0.0 
0.0 0.0 0.0 
0.0 0.0 0.0 
0.0 0.0 0.0 
0.0 0.0 0.0 
0.0 0.0 0.0 
0.0 0.0 0.0 
0.0 0.0 0.0 
0.0 0.0 0.0 
0.0 0.0 0.0 
0.0 0.0 0.0 
0.0 0.0 0.0 
0.0 0.0 0.0 
0.0 0.0 0.0 
0.0 0.0 0.0 
0.0 0.0 0.0 
0.0 0.0 0.0 
0.0 0.0 0.0 
0.0 0.0 0.0 
0.0 0.0 0.0 
0.0 0.0 0.0 
0.0 0.0 0.0 
0.0 0.0 0.0 
0.0 0.0 0.0 
0.0 0.0 0.0 
0.0 0.0 0.0 
0.0 0.0 0.0 
0.0 0.0 0.0 
0.0 0.0 0.0 
0.0 0.0 0.0 
0.0 0.0 0.0 
0.0 0.0 0.0 
0.0 0.0 0.0 
0.0 0.0 0.0 
0.0 0.0 0.0 
0.0 0.0 0.0 
0.0 0.0 0.0 
0.0 0.0 0.0 
0.0 0.0 0.0 
0.0 0.0 0.0 
0.0 0.0 0.0 
0.0 0.0 0.0 
0.0 0.0 0.0 
0.0 0.0 0.0 
0.0 0.0 0.0 
0.0 0.0 0.0 
0.0 0.0 0.0 
0.0 0.0 0.0 
0.0 0.0 0.0 
0.0 0.0 0.0 
0.0 0.0 0.0 
0.0 0.0 0.0 
0.0 0.0 0.0 
0.0 0.0 0.0 
0.0 0.0 0.0 
0.0 0.0 0.0 
0.0 0.0 0.0 
0.0 0.0 0.0 
0.0 0.0 0.0 
0.0 0.0 0.0 
0.0 0.0 0.0 
0.0 0.0 0.0 
0.0 0.0 0.0 
0.0 0.0 0.0 
0.0 0.0 0.0 
0.0 0.0 0.0 
0.0 0.0 0.0 
0.0 0.0 0.0 
0.0 0.0 0.0 
0.0 0.0 0.0 
0.0 0.0 0.0 
0.0 0.0 0.0 
0.0 0.0 0.0 
0.0 0.0 0.0 
0.0 0.0 0.0 
0.0 0.0 0.0 
0.0 0.0 0.0 
0.0 0.0 0.0 
0.0 0.0 0.0 
0.0 0.0 0.0 
0.0 0.0 0.0 
0.0 0.0 0.0 
0.0 0.0 0.0 
0.0 0.0 0.0 
0.0 0.0 0.0 
0.0 0.0 0.0 
0.0 0.0 0.0 
0.0 0.0 0.0 
0.0 0.0 0.0 
0.0 0.0 0.0 
0.0 0.0 0.0 
0.0 0.0 0.0 
0.0 0.0 0.0 
0.0 0.0 0.0 
0.0 0.0 0.0 
0.0 0.0 0.0 
0.0 0.0 0.0 
0.0 0.0 0.0 
0.0 0.0 0.0 
0.0 0.0 0.0 
0.0 0.0 0.0 
0.0 0.0 0.0 
0.0 0.0 0.0 
0.0 0.0 0.0 
0.0 0.0 0.0 
0.0 0.0 0.0 
0.0 0.0 0.0 
0.0 0.0 0.0 
0.0 0.0 0.0 
0.0 0.0 0.0 
0.0 0.0 0.0 
0.0 0.0 0.0 
0.0 0.0 0.0 
0.0 0.0 0.0 
0.0 0.0 0.0 
0.0 0.0 0.0 
0.0 0.0 0.0 
0.0 0.0 0.0 
0.0 0.0 0.0 
0.0 0.0 0.0 
0.0 0.0 0.0 
0.0 0.0 0.0 
0.0 0.0 0.0 
0.0 0.0 0.0 
0.0 0.0 0.0 
0.0 0.0 0.0 
0.0 0.0 0.0 
0.0 0.0 0.0 
0.0 0.0 0.0 
0.0 0.0 0.0 
0.0 0.0 0.0 
0.0 0.0 0.0 
0.0 0.0 0.0 
0.0 0.0 0.0 
0.0 0.0 0.0 
0.0 0.0 0.0 
0.0 0.0 0.0 
0.0 0.0 0.0 
0.0 0.0 0.0 
0.0 0.0 0.0 
0.0 0.0 0.0 
0.0 0.0 0.0 
0.0 0.0 0.0 
0.0 0.0 0.0 
0.0 0.0 0.0 
0.0 0.0 0.0 
0.0 0.0 0.0 
0.0 0.0 0.0 
0.0 0.0 0.0 
0.0 0.0 0.0 
0.0 0.0 0.0 
0.0 0.0 0.0 
0.0 0.0 0.0 
0.0 0.0 0.0 
0.0 0.0 0.0 
0.0 0.0 0.0 
0.0 0.0 0.0 
0.0 0.0 0.0 
0.0 0.0 0.0 
0.0 0.0 0.0 
0.0 0.0 0.0 
0.0 0.0 0.0 
0.0 0.0 0.0 
0.0 0.0 0.0 
0.0 0.0 0.0 
0.0 0.0 0.0 
0.0 0.0 0.0 
0.0 0.0 0.0 
0.0 0.0 0.0 
0.0 0.0 0.0 
0.0 0.0 0.0 
0.0 0.0 0.0 
0.0 0.0 0.0 
0.0 0.0 0.0 
0.0 0.0 0.0 
0.0 0.0 0.0 
0.0 0.0 0.0 
0.0 0.0 0.0 
0.0 0.0 0.0 
0.0 0.0 0.0 
0.0 0.0 0.0 
0.0 0.0 0.0 
0.0 0.0 0.0 
0.0 0.0 0.0 
0.0 0.0 0.0 
0.0 0.0 0.0 
0.0 0.0 0.0 
0.0 0.0 0.0 
0.0 0.0 0.0 
0.0 0.0 0.0 
0.0 0.0 0.0 
0.0 0.0 0.0 
0.0 0.0 0.0 
0.0 0.0 0.0 
0.0 0.0 0.0 
0.0 0.0 0.0 
0.0 0.0 0.0 
0.0 0.0 0.0 
0.0 0.0 0.0 
0.0 0.0 0.0 
0.0 0.0 0.0 
0.0 0.0 0.0 
0.0 0.0 0.0 
0.0 0.0 0.0 
0.0 0.0 0.0 
0.0 0.0 0.0 
0.0 0.0 0.0 
0.0 0.0 0.0 
0.0 0.0 0.0 
0.0 0.0 0.0 
0.0 0.0 0.0 
0.0 0.0 0.0 
0.0 0.0 0.0 
0.0 0.0 0.0 
0.0 0.0 0.0 
0.0 0.0 0.0 
0.0 0.0 0.0 
0.0 0.0 0.0 
0.0 0.0 0.0 
0.0 0.0 0.0 
0.0 0.0 0.0 
0.0 0.0 0.0 
0.0 0.0 0.0 
0.0 0.0 0.0 
0.0 0.0 0.0 
0.0 0.0 0.0 
0.0 0.0 0.0 
0.0 0.0 0.0 
0.0 0.0 0.0 
0.0 0.0 0.0 
0.0 0.0 0.0 
0.0 0.0 0.0 
0.0 0.0 0.0 
0.0 0.0 0.0 
0.0 0.0 0.0 
0.0 0.0 0.0 
0.0 0.0 0.0 
0.0 0.0 0.0 
0.0 0.0 0.0 
0.0 0.0 0.0 
0.0 0.0 0.0 
0.0 0.0 0.0 
0.0 0.0 0.0 
0.0 0.0 0.0 
0.0 0.0 0.0 
0.0 0.0 0.0 
0.0 0.0 0.0 
0.0 0.0 0.0 
0.0 0.0 0.0 
0.0 0.0 0.0 
0.0 0.0 0.0 
0.0 0.0 0.0 
0.0 0.0 0.0 
0.0 0.0 0.0 
0.0 0.0 0.0 
0.0 0.0 0.0 
0.0 0.0 0.0 
0.0 0.0 0.0 
0.0 0.0 0.0 
0.0 0.0 0.0 
0.0 0.0 0.0 
0.0 0.0 0.0 
0.0 0.0 0.0 
0.0 0.0 0.0 
0.0 0.0 0.0 
0.0 0.0 0.0 
0.0 0.0 0.0 
0.0 0.0 0.0 
0.0 0.0 0.0 
0.0 0.0 0.0 
0.0 0.0 0.0 
0.0 0.0 0.0 
0.0 0.0 0.0 
0.0 0.0 0.0 
0.0 0.0 0.0 
0.0 0.0 0.0 
0.0 0.0 0.0 
0.0 0.0 0.0 
0.0 0.0 0.0 
0.0 0.0 0.0 
0.0 0.0 0.0 
0.0 0.0 0.0 
0.0 0.0 0.0 
0.0 0.0 0.0 
0.0 0.0 0.0 
0.0 0.0 0.0 
0.0 0.0 0.0 
0.0 0.0 0.0 
0.0 0.0 0.0 
0.0 0.0 0.0 
0.0 0.0 0.0 
0.0 0.0 0.0 
0.0 0.0 0.0 
0.0 0.0 0.0 
0.0 0.0 0.0 
0.0 0.0 0.0 
0.0 0.0 0.0 
0.0 0.0 0.0 
0.0 0.0 0.0 
0.0 0.0 0.0 
0.0 0.0 0.0 
0.0 0.0 0.0 
0.0 0.0 0.0 
0.0 0.0 0.0 
0.0 0.0 0.0 
0.0 0.0 0.0 
0.0 0.0 0.0 
0.0 0.0 0.0 
0.0 0.0 0.0 
0.0 0.0 0.0 
0.0 0.0 0.0 
0.0 0.0 0.0 
0.0 0.0 0.0 
0.0 0.0 0.0 
0.0 0.0 0.0 
0.0 0.0 0.0 
0.0 0.0 0.0 
0.0 0.0 0.0 
0.0 0.0 0.0 
0.0 0.0 0.0 
0.0 0.0 0.0 
0.0 0.0 0.0 
0.0 0.0 0.0 
0.0 0.0 0.0 
0.0 0.0 0.0 
0.0 0.0 0.0 
0.0 0.0 0.0 
0.0 0.0 0.0 
0.0 0.0 0.0 
0.0 0.0 0.0 
0.0 0.0 0.0 
0.0 0.0 0.0 
0.0 0.0 0.0 
0.0 0.0 0.0 
0.0 0.0 0.0 
0.0 0.0 0.0 
0.0 0.0 0.0 
0.0 0.0 0.0 
0.0 0.0 0.0 
0.0 0.0 0.0 
0.0 0.0 0.0 
0.0 0.0 0.0 
0.0 0.0 0.0 
0.0 0.0 0.0 
0.0 0.0 0.0 
0.0 0.0 0.0 
0.0 0.0 0.0 
0.0 0.0 0.0 
0.0 0.0 0.0 
0.0 0.0 0.0 
0.0 0.0 0.0 
0.0 0.0 0.0 
0.0 0.0 0.0 
0.0 0.0 0.0 
0.0 0.0 0.0 
0.0 0.0 0.0 
0.0 0.0 0.0 
0.0 0.0 0.0 
0.0 0.0 0.0 
0.0 0.0 0.0 
0.0 0.0 0.0 
0.0 0.0 0.0 
0.0 0.0 0.0 
0.0 0.0 0.0 
0.0 0.0 0.0 
0.0 0.0 0.0 
0.0 0.0 0.0 
0.0 0.0 0.0 
0.0 0.0 0.0 
0.0 0.0 0.0 
0.0 0.0 0.0 
0.0 0.0 0.0 
0.0 0.0 0.0 
0.0 0.0 0.0 
0.0 0.0 0.0 
0.0 0.0 0.0 
0.0 0.0 0.0 
0.0 0.0 0.0 
0.0 0.0 0.0 
0.0 0.0 0.0 
0.0 0.0 0.0 
0.0 0.0 0.0 
0.0 0.0 0.0 
0.0 0.0 0.0 
0.0 0.0 0.0 
0.0 0.0 0.0 
0.0 0.0 0.0 
0.0 0.0 0.0 
0.0 0.0 0.0 
0.0 0.0 0.0 
0.0 0.0 0.0 
0.0 0.0 0.0 
0.0 0.0 0.0 
0.0 0.0 0.0 
0.0 0.0 0.0 
0.0 0.0 0.0 
0.0 0.0 0.0 
0.0 0.0 0.0 
0.0 0.0 0.0 
0.0 0.0 0.0 
0.0 0.0 0.0 
0.0 0.0 0.0 
0.0 0.0 0.0 
0.0 0.0 0.0 
0.0 0.0 0.0 
0.0 0.0 0.0 
0.0 0.0 0.0 
0.0 0.0 0.0 
0.0 0.0 0.0 
0.0 0.0 0.0 
0.0 0.0 0.0 
0.0 0.0 0.0 
0.0 0.0 0.0 
0.0 0.0 0.0 
0.0 0.0 0.0 
0.0 0.0 0.0 
0.0 0.0 0.0 
0.0 0.0 0.0 
0.0 0.0 0.0 
0.0 0.0 0.0 
0.0 0.0 0.0 
0.0 0.0 0.0 
0.0 0.0 0.0 
0.0 0.0 0.0 
0.0 0.0 0.0 
0.0 0.0 0.0 
0.0 0.0 0.0 
0.0 0.0 0.0 
0.0 0.0 0.0 
0.0 0.0 0.0 
0.0 0.0 0.0 
0.0 0.0 0.0 
0.0 0.0 0.0 
0.0 0.0 0.0 
0.0 0.0 0.0 
0.0 0.0 0.0 
0.0 0.0 0.0 
0.0 0.0 0.0 
0.0 0.0 0.0 
0.0 0.0 0.0 
0.0 0.0 0.0 
0.0 0.0 0.0 
0.0 0.0 0.0 
0.0 0.0 0.0 
0.0 0.0 0.0 
0.0 0.0 0.0 
0.0 0.0 0.0 
0.0 0.0 0.0 
0.0 0.0 0.0 
0.0 0.0 0.0 
0.0 0.0 0.0 
0.0 0.0 0.0 
0.0 0.0 0.0 
0.0 0.0 0.0 
0.0 0.0 0.0 
0.0 0.0 0.0 
0.0 0.0 0.0 
0.0 0.0 0.0 
0.0 0.0 0.0 
0.0 0.0 0.0 
0.0 0.0 0.0 
0.0 0.0 0.0 
0.0 0.0 0.0 
0.0 0.0 0.0 
0.0 0.0 0.0 
0.0 0.0 0.0 
0.0 0.0 0.0 
0.0 0.0 0.0 
0.0 0.0 0.0 
0.0 0.0 0.0 
0.0 0.0 0.0 
0.0 0.0 0.0 
0.0 0.0 0.0 
0.0 0.0 0.0 
0.0 0.0 0.0 
0.0 0.0 0.0 
0.0 0.0 0.0 
0.0 0.0 0.0 
0.0 0.0 0.0 
0.0 0.0 0.0 
0.0 0.0 0.0 
0.0 0.0 0.0 
0.0 0.0 0.0 
0.0 0.0 0.0 
0.0 0.0 0.0 
0.0 0.0 0.0 
0.0 0.0 0.0 
0.0 0.0 0.0 
0.0 0.0 0.0 
0.0 0.0 0.0 
0.0 0.0 0.0 
0.0 0.0 0.0 
0.0 0.0 0.0 
0.0 0.0 0.0 
0.0 0.0 0.0 
0.0 0.0 0.0 
0.0 0.0 0.0 
0.0 0.0 0.0 
0.0 0.0 0.0 
0.0 0.0 0.0 
0.0 0.0 0.0 
0.0 0.0 0.0 
0.0 0.0 0.0 
0.0 0.0 0.0 
0.0 0.0 0.0 
0.0 0.0 0.0 
0.0 0.0 0.0 
0.0 0.0 0.0 
0.0 0.0 0.0 
0.0 0.0 0.0 
0.0 0.0 0.0 
0.0 0.0 0.0 
0.0 0.0 0.0 
0.0 0.0 0.0 
0.0 0.0 0.0 
0.0 0.0 0.0 
0.0 0.0 0.0 
0.0 0.0 0.0 
0.0 0.0 0.0 
0.0 0.0 0.0 
0.0 0.0 0.0 
0.0 0.0 0.0 
0.0 0.0 0.0 
0.0 0.0 0.0 
0.0 0.0 0.0 
0.0 0.0 0.0 
0.0 0.0 0.0 
0.0 0.0 0.0 
0.0 0.0 0.0 
0.0 0.0 0.0 
0.0 0.0 0.0 
0.0 0.0 0.0 
0.0 0.0 0.0 
0.0 0.0 0.0 
0.0 0.0 0.0 
0.0 0.0 0.0 
0.0 0.0 0.0 
0.0 0.0 0.0 
0.0 0.0 0.0 
0.0 0.0 0.0 
0.0 0.0 0.0 
0.0 0.0 0.0 
0.0 0.0 0.0 
0.0 0.0 0.0 
0.0 0.0 0.0 
0.0 0.0 0.0 
0.0 0.0 0.0 
0.0 0.0 0.0 
0.0 0.0 0.0 
0.0 0.0 0.0 
0.0 0.0 0.0 
0.0 0.0 0.0 
0.0 0.0 0.0 
0.0 0.0 0.0 
0.0 0.0 0.0 
0.0 0.0 0.0 
0.0 0.0 0.0 
0.0 0.0 0.0 
0.0 0.0 0.0 
0.0 0.0 0.0 
0.0 0.0 0.0 
0.0 0.0 0.0 
0.0 0.0 0.0 
0.0 0.0 0.0 
0.0 0.0 0.0 
0.0 0.0 0.0 
0.0 0.0 0.0 
0.0 0.0 0.0 
0.0 0.0 0.0 
0.0 0.0 0.0 
0.0 0.0 0.0 
0.0 0.0 0.0 
0.0 0.0 0.0 
0.0 0.0 0.0 
0.0 0.0 0.0 
0.0 0.0 0.0 
0.0 0.0 0.0 
0.0 0.0 0.0 
0.0 0.0 0.0 
0.0 0.0 0.0 
0.0 0.0 0.0 
0.0 0.0 0.0 
0.0 0.0 0.0 
0.0 0.0 0.0 
0.0 0.0 0.0 
0.0 0.0 0.0 
0.0 0.0 0.0 
0.0 0.0 0.0 
0.0 0.0 0.0 
0.0 0.0 0.0 
0.0 0.0 0.0 
0.0 0.0 0.0 
0.0 0.0 0.0 
0.0 0.0 0.0 
0.0 0.0 0.0 
0.0 0.0 0.0 
0.0 0.0 0.0 
0.0 0.0 0.0 
0.0 0.0 0.0 
0.0 0.0 0.0 
0.0 0.0 0.0 
0.0 0.0 0.0 
0.0 0.0 0.0 
0.0 0.0 0.0 
0.0 0.0 0.0 
0.0 0.0 0.0 
0.0 0.0 0.0 
0.0 0.0 0.0 
0.0 0.0 0.0 
0.0 0.0 0.0 
0.0 0.0 0.0 
0.0 0.0 0.0 
0.0 0.0 0.0 
0.0 0.0 0.0 
0.0 0.0 0.0 
0.0 0.0 0.0 
0.0 0.0 0.0 
0.0 0.0 0.0 
0.0 0.0 0.0 
0.0 0.0 0.0 
0.0 0.0 0.0 
0.0 0.0 0.0 
0.0 0.0 0.0 
0.0 0.0 0.0 
0.0 0.0 0.0 
0.0 0.0 0.0 
0.0 0.0 0.0 
0.0 0.0 0.0 
0.0 0.0 0.0 
0.0 0.0 0.0 
0.0 0.0 0.0 
0.0 0.0 0.0 
0.0 0.0 0.0 
0.0 0.0 0.0 
0.0 0.0 0.0 
0.0 0.0 0.0 
0.0 0.0 0.0 
0.0 0.0 0.0 
0.0 0.0 0.0 
0.0 0.0 0.0 
0.0 0.0 0.0 
0.0 0.0 0.0 
0.0 0.0 0.0 
0.0 0.0 0.0 
0.0 0.0 0.0 
0.0 0.0 0.0 
0.0 0.0 0.0 
0.0 0.0 0.0 
0.0 0.0 0.0 
0.0 0.0 0.0 
0.0 0.0 0.0 
0.0 0.0 0.0 
0.0 0.0 0.0 
0.0 0.0 0.0 
0.0 0.0 0.0 
0.0 0.0 0.0 
0.0 0.0 0.0 
0.0 0.0 0.0 
0.0 0.0 0.0 
0.0 0.0 0.0 
0.0 0.0 0.0 
0.0 0.0 0.0 
0.0 0.0 0.0 
0.0 0.0 0.0 
0.0 0.0 0.0 
0.0 0.0 0.0 
0.0 0.0 0.0 
0.0 0.0 0.0 
0.0 0.0 0.0 
0.0 0.0 0.0 
0.0 0.0 0.0 
0.0 0.0 0.0 
0.0 0.0 0.0 
0.0 0.0 0.0 
0.0 0.0 0.0 
0.0 0.0 0.0 
0.0 0.0 0.0 
0.0 0.0 0.0 
0.0 0.0 0.0 
0.0 0.0 0.0 
0.0 0.0 0.0 
0.0 0.0 0.0 
0.0 0.0 0.0 
0.0 0.0 0.0 
0.0 0.0 0.0 
0.0 0.0 0.0 
0.0 0.0 0.0 
0.0 0.0 0.0 
0.0 0.0 0.0 
0.0 0.0 0.0 
0.0 0.0 0.0 
0.0 0.0 0.0 
0.0 0.0 0.0 
0.0 0.0 0.0 
0.0 0.0 0.0 
0.0 0.0 0.0 
0.0 0.0 0.0 
0.0 0.0 0.0 
0.0 0.0 0.0 
0.0 0.0 0.0 
0.0 0.0 0.0 
0.0 0.0 0.0 
0.0 0.0 0.0 
0.0 0.0 0.0 
0.0 0.0 0.0 
0.0 0.0 0.0 
0.0 0.0 0.0 
0.0 0.0 0.0 
0.0 0.0 0.0 
0.0 0.0 0.0 
0.0 0.0 0.0 
0.0 0.0 0.0 
0.0 0.0 0.0 
0.0 0.0 0.0 
0.0 0.0 0.0 
0.0 0.0 0.0 
0.0 0.0 0.0 
0.0 0.0 0.0 
0.0 0.0 0.0 
0.0 0.0 0.0 
0.0 0.0 0.0 
0.0 0.0 0.0 
0.0 0.0 0.0 
0.0 0.0 0.0 
0.0 0.0 0.0 
0.0 0.0 0.0 
0.0 0.0 0.0 
0.0 0.0 0.0 
0.0 0.0 0.0 
0.0 0.0 0.0 
0.0 0.0 0.0 
0.0 0.0 0.0 
0.0 0.0 0.0 
0.0 0.0 0.0 
0.0 0.0 0.0 
0.0 0.0 0.0 
0.0 0.0 0.0 
0.0 0.0 0.0 
0.0 0.0 0.0 
0.0 0.0 0.0 
0.0 0.0 0.0 
0.0 0.0 0.0 
0.0 0.0 0.0 
0.0 0.0 0.0 
0.0 0.0 0.0 
0.0 0.0 0.0 
0.0 0.0 0.0 
0.0 0.0 0.0 
0.0 0.0 0.0 
0.0 0.0 0.0 
0.0 0.0 0.0 
0.0 0.0 0.0 
0.0 0.0 0.0 
0.0 0.0 0.0 
0.0 0.0 0.0 
0.0 0.0 0.0 

VECTORS node_bounda_dof_materi_velocity_y float
0.0 0.0 0.0 
0.0 0.0 0.0 
0.0 1.000000000000e+00 0.0 
0.0 1.000000000000e+00 0.0 
0.0 0.0 0.0 
0.0 0.0 0.0 
0.0 0.0 0.0 
0.0 0.0 0.0 
0.0 0.0 0.0 
0.0 0.0 0.0 
0.0 0.0 0.0 
0.0 0.0 0.0 
0.0 0.0 0.0 
0.0 0.0 0.0 
0.0 0.0 0.0 
0.0 0.0 0.0 
0.0 0.0 0.0 
0.0 0.0 0.0 
0.0 0.0 0.0 
0.0 0.0 0.0 
0.0 0.0 0.0 
0.0 0.0 0.0 
0.0 0.0 0.0 
0.0 1.000000000000e+00 0.0 
0.0 1.000000000000e+00 0.0 
0.0 1.000000000000e+00 0.0 
0.0 1.000000000000e+00 0.0 
0.0 1.000000000000e+00 0.0 
0.0 1.000000000000e+00 0.0 
0.0 1.000000000000e+00 0.0 
0.0 1.000000000000e+00 0.0 
0.0 1.000000000000e+00 0.0 
0.0 1.000000000000e+00 0.0 
0.0 1.000000000000e+00 0.0 
0.0 1.000000000000e+00 0.0 
0.0 1.000000000000e+00 0.0 
0.0 1.000000000000e+00 0.0 
0.0 1.000000000000e+00 0.0 
0.0 1.000000000000e+00 0.0 
0.0 1.000000000000e+00 0.0 
0.0 1.000000000000e+00 0.0 
0.0 1.000000000000e+00 0.0 
0.0 1.000000000000e+00 0.0 
0.0 1.000000000000e+00 0.0 
0.0 1.000000000000e+00 0.0 
0.0 1.000000000000e+00 0.0 
0.0 1.000000000000e+00 0.0 
0.0 1.000000000000e+00 0.0 
0.0 1.000000000000e+00 0.0 
0.0 1.000000000000e+00 0.0 
0.0 1.000000000000e+00 0.0 
0.0 1.000000000000e+00 0.0 
0.0 1.000000000000e+00 0.0 
0.0 1.000000000000e+00 0.0 
0.0 1.000000000000e+00 0.0 
0.0 1.000000000000e+00 0.0 
0.0 1.000000000000e+00 0.0 
0.0 1.000000000000e+00 0.0 
0.0 1.000000000000e+00 0.0 
0.0 1.000000000000e+00 0.0 
0.0 1.000000000000e+00 0.0 
0.0 1.000000000000e+00 0.0 
0.0 1.000000000000e+00 0.0 
0.0 1.000000000000e+00 0.0 
0.0 1.000000000000e+00 0.0 
0.0 1.000000000000e+00 0.0 
0.0 1.000000000000e+00 0.0 
0.0 1.000000000000e+00 0.0 
0.0 1.000000000000e+00 0.0 
0.0 1.000000000000e+00 0.0 
0.0 1.000000000000e+00 0.0 
0.0 1.000000000000e+00 0.0 
0.0 0.0 0.0 
0.0 0.0 0.0 
0.0 0.0 0.0 
0.0 0.0 0.0 
0.0 0.0 0.0 
0.0 0.0 0.0 
0.0 0.0 0.0 
0.0 0.0 0.0 
0.0 0.0 0.0 
0.0 0.0 0.0 
0.0 0.0 0.0 
0.0 0.0 0.0 
0.0 0.0 0.0 
0.0 0.0 0.0 
0.0 0.0 0.0 
0.0 0.0 0.0 
0.0 0.0 0.0 
0.0 0.0 0.0 
0.0 0.0 0.0 
0.0 0.0 0.0 
0.0 0.0 0.0 
0.0 0.0 0.0 
0.0 0.0 0.0 
0.0 0.0 0.0 
0.0 0.0 0.0 
0.0 0.0 0.0 
0.0 0.0 0.0 
0.0 0.0 0.0 
0.0 0.0 0.0 
0.0 0.0 0.0 
0.0 0.0 0.0 
0.0 0.0 0.0 
0.0 0.0 0.0 
0.0 0.0 0.0 
0.0 0.0 0.0 
0.0 0.0 0.0 
0.0 0.0 0.0 
0.0 0.0 0.0 
0.0 0.0 0.0 
0.0 0.0 0.0 
0.0 0.0 0.0 
0.0 0.0 0.0 
0.0 0.0 0.0 
0.0 0.0 0.0 
0.0 0.0 0.0 
0.0 0.0 0.0 
0.0 0.0 0.0 
0.0 0.0 0.0 
0.0 0.0 0.0 
0.0 0.0 0.0 
0.0 0.0 0.0 
0.0 0.0 0.0 
0.0 0.0 0.0 
0.0 0.0 0.0 
0.0 0.0 0.0 
0.0 0.0 0.0 
0.0 0.0 0.0 
0.0 0.0 0.0 
0.0 0.0 0.0 
0.0 0.0 0.0 
0.0 0.0 0.0 
0.0 0.0 0.0 
0.0 0.0 0.0 
0.0 0.0 0.0 
0.0 0.0 0.0 
0.0 0.0 0.0 
0.0 0.0 0.0 
0.0 0.0 0.0 
0.0 0.0 0.0 
0.0 0.0 0.0 
0.0 0.0 0.0 
0.0 0.0 0.0 
0.0 0.0 0.0 
0.0 0.0 0.0 
0.0 0.0 0.0 
0.0 0.0 0.0 
0.0 0.0 0.0 
0.0 0.0 0.0 
0.0 0.0 0.0 
0.0 0.0 0.0 
0.0 0.0 0.0 
0.0 0.0 0.0 
0.0 0.0 0.0 
0.0 0.0 0.0 
0.0 0.0 0.0 
0.0 0.0 0.0 
0.0 0.0 0.0 
0.0 0.0 0.0 
0.0 0.0 0.0 
0.0 0.0 0.0 
0.0 0.0 0.0 
0.0 0.0 0.0 
0.0 0.0 0.0 
0.0 0.0 0.0 
0.0 0.0 0.0 
0.0 0.0 0.0 
0.0 0.0 0.0 
0.0 0.0 0.0 
0.0 0.0 0.0 
0.0 0.0 0.0 
0.0 0.0 0.0 
0.0 0.0 0.0 
0.0 0.0 0.0 
0.0 0.0 0.0 
0.0 0.0 0.0 
0.0 0.0 0.0 
0.0 0.0 0.0 
0.0 0.0 0.0 
0.0 0.0 0.0 
0.0 0.0 0.0 
0.0 0.0 0.0 
0.0 0.0 0.0 
0.0 0.0 0.0 
0.0 0.0 0.0 
0.0 0.0 0.0 
0.0 0.0 0.0 
0.0 0.0 0.0 
0.0 0.0 0.0 
0.0 0.0 0.0 
0.0 0.0 0.0 
0.0 0.0 0.0 
0.0 0.0 0.0 
0.0 0.0 0.0 
0.0 0.0 0.0 
0.0 0.0 0.0 
0.0 0.0 0.0 
0.0 0.0 0.0 
0.0 0.0 0.0 
0.0 0.0 0.0 
0.0 0.0 0.0 
0.0 0.0 0.0 
0.0 0.0 0.0 
0.0 0.0 0.0 
0.0 0.0 0.0 
0.0 0.0 0.0 
0.0 0.0 0.0 
0.0 0.0 0.0 
0.0 0.0 0.0 
0.0 0.0 0.0 
0.0 0.0 0.0 
0.0 0.0 0.0 
0.0 0.0 0.0 
0.0 0.0 0.0 
0.0 0.0 0.0 
0.0 0.0 0.0 
0.0 0.0 0.0 
0.0 0.0 0.0 
0.0 0.0 0.0 
0.0 0.0 0.0 
0.0 0.0 0.0 
0.0 0.0 0.0 
0.0 0.0 0.0 
0.0 0.0 0.0 
0.0 0.0 0.0 
0.0 0.0 0.0 
0.0 0.0 0.0 
0.0 0.0 0.0 
0.0 0.0 0.0 
0.0 0.0 0.0 
0.0 0.0 0.0 
0.0 0.0 0.0 
0.0 0.0 0.0 
0.0 0.0 0.0 
0.0 0.0 0.0 
0.0 0.0 0.0 
0.0 0.0 0.0 
0.0 0.0 0.0 
0.0 0.0 0.0 
0.0 0.0 0.0 
0.0 0.0 0.0 
0.0 0.0 0.0 
0.0 0.0 0.0 
0.0 0.0 0.0 
0.0 0.0 0.0 
0.0 0.0 0.0 
0.0 0.0 0.0 
0.0 0.0 0.0 
0.0 0.0 0.0 
0.0 0.0 0.0 
0.0 0.0 0.0 
0.0 0.0 0.0 
0.0 0.0 0.0 
0.0 0.0 0.0 
0.0 0.0 0.0 
0.0 0.0 0.0 
0.0 0.0 0.0 
0.0 0.0 0.0 
0.0 0.0 0.0 
0.0 0.0 0.0 
0.0 0.0 0.0 
0.0 0.0 0.0 
0.0 0.0 0.0 
0.0 0.0 0.0 
0.0 0.0 0.0 
0.0 0.0 0.0 
0.0 0.0 0.0 
0.0 0.0 0.0 
0.0 0.0 0.0 
0.0 0.0 0.0 
0.0 0.0 0.0 
0.0 0.0 0.0 
0.0 0.0 0.0 
0.0 0.0 0.0 
0.0 0.0 0.0 
0.0 0.0 0.0 
0.0 0.0 0.0 
0.0 0.0 0.0 
0.0 0.0 0.0 
0.0 0.0 0.0 
0.0 0.0 0.0 
0.0 0.0 0.0 
0.0 0.0 0.0 
0.0 0.0 0.0 
0.0 0.0 0.0 
0.0 0.0 0.0 
0.0 0.0 0.0 
0.0 0.0 0.0 
0.0 0.0 0.0 
0.0 0.0 0.0 
0.0 0.0 0.0 
0.0 0.0 0.0 
0.0 0.0 0.0 
0.0 0.0 0.0 
0.0 0.0 0.0 
0.0 0.0 0.0 
0.0 0.0 0.0 
0.0 0.0 0.0 
0.0 0.0 0.0 
0.0 0.0 0.0 
0.0 0.0 0.0 
0.0 0.0 0.0 
0.0 0.0 0.0 
0.0 0.0 0.0 
0.0 0.0 0.0 
0.0 0.0 0.0 
0.0 0.0 0.0 
0.0 0.0 0.0 
0.0 0.0 0.0 
0.0 0.0 0.0 
0.0 0.0 0.0 
0.0 0.0 0.0 
0.0 0.0 0.0 
0.0 0.0 0.0 
0.0 0.0 0.0 
0.0 0.0 0.0 
0.0 0.0 0.0 
0.0 0.0 0.0 
0.0 0.0 0.0 
0.0 0.0 0.0 
0.0 0.0 0.0 
0.0 0.0 0.0 
0.0 0.0 0.0 
0.0 0.0 0.0 
0.0 0.0 0.0 
0.0 0.0 0.0 
0.0 0.0 0.0 
0.0 0.0 0.0 
0.0 0.0 0.0 
0.0 0.0 0.0 
0.0 0.0 0.0 
0.0 0.0 0.0 
0.0 0.0 0.0 
0.0 0.0 0.0 
0.0 0.0 0.0 
0.0 0.0 0.0 
0.0 0.0 0.0 
0.0 0.0 0.0 
0.0 0.0 0.0 
0.0 0.0 0.0 
0.0 0.0 0.0 
0.0 0.0 0.0 
0.0 0.0 0.0 
0.0 0.0 0.0 
0.0 0.0 0.0 
0.0 0.0 0.0 
0.0 0.0 0.0 
0.0 0.0 0.0 
0.0 0.0 0.0 
0.0 0.0 0.0 
0.0 0.0 0.0 
0.0 0.0 0.0 
0.0 0.0 0.0 
0.0 0.0 0.0 
0.0 0.0 0.0 
0.0 0.0 0.0 
0.0 0.0 0.0 
0.0 0.0 0.0 
0.0 0.0 0.0 
0.0 0.0 0.0 
0.0 0.0 0.0 
0.0 0.0 0.0 
0.0 0.0 0.0 
0.0 0.0 0.0 
0.0 0.0 0.0 
0.0 0.0 0.0 
0.0 0.0 0.0 
0.0 0.0 0.0 
0.0 0.0 0.0 
0.0 0.0 0.0 
0.0 0.0 0.0 
0.0 0.0 0.0 
0.0 0.0 0.0 
0.0 0.0 0.0 
0.0 0.0 0.0 
0.0 0.0 0.0 
0.0 0.0 0.0 
0.0 0.0 0.0 
0.0 0.0 0.0 
0.0 0.0 0.0 
0.0 0.0 0.0 
0.0 0.0 0.0 
0.0 0.0 0.0 
0.0 0.0 0.0 
0.0 0.0 0.0 
0.0 0.0 0.0 
0.0 0.0 0.0 
0.0 0.0 0.0 
0.0 0.0 0.0 
0.0 0.0 0.0 
0.0 0.0 0.0 
0.0 0.0 0.0 
0.0 0.0 0.0 
0.0 0.0 0.0 
0.0 0.0 0.0 
0.0 0.0 0.0 
0.0 0.0 0.0 
0.0 0.0 0.0 
0.0 0.0 0.0 
0.0 0.0 0.0 
0.0 0.0 0.0 
0.0 0.0 0.0 
0.0 0.0 0.0 
0.0 0.0 0.0 
0.0 0.0 0.0 
0.0 0.0 0.0 
0.0 0.0 0.0 
0.0 0.0 0.0 
0.0 0.0 0.0 
0.0 0.0 0.0 
0.0 0.0 0.0 
0.0 0.0 0.0 
0.0 0.0 0.0 
0.0 0.0 0.0 
0.0 0.0 0.0 
0.0 0.0 0.0 
0.0 0.0 0.0 
0.0 0.0 0.0 
0.0 0.0 0.0 
0.0 0.0 0.0 
0.0 0.0 0.0 
0.0 0.0 0.0 
0.0 0.0 0.0 
0.0 0.0 0.0 
0.0 0.0 0.0 
0.0 0.0 0.0 
0.0 0.0 0.0 
0.0 0.0 0.0 
0.0 0.0 0.0 
0.0 0.0 0.0 
0.0 0.0 0.0 
0.0 0.0 0.0 
0.0 0.0 0.0 
0.0 0.0 0.0 
0.0 0.0 0.0 
0.0 0.0 0.0 
0.0 0.0 0.0 
0.0 0.0 0.0 
0.0 0.0 0.0 
0.0 0.0 0.0 
0.0 0.0 0.0 
0.0 0.0 0.0 
0.0 0.0 0.0 
0.0 0.0 0.0 
0.0 0.0 0.0 
0.0 0.0 0.0 
0.0 0.0 0.0 
0.0 0.0 0.0 
0.0 0.0 0.0 
0.0 0.0 0.0 
0.0 0.0 0.0 
0.0 0.0 0.0 
0.0 0.0 0.0 
0.0 0.0 0.0 
0.0 0.0 0.0 
0.0 0.0 0.0 
0.0 0.0 0.0 
0.0 0.0 0.0 
0.0 0.0 0.0 
0.0 0.0 0.0 
0.0 0.0 0.0 
0.0 0.0 0.0 
0.0 0.0 0.0 
0.0 0.0 0.0 
0.0 0.0 0.0 
0.0 0.0 0.0 
0.0 0.0 0.0 
0.0 0.0 0.0 
0.0 0.0 0.0 
0.0 0.0 0.0 
0.0 0.0 0.0 
0.0 0.0 0.0 
0.0 0.0 0.0 
0.0 0.0 0.0 
0.0 0.0 0.0 
0.0 0.0 0.0 
0.0 0.0 0.0 
0.0 0.0 0.0 
0.0 0.0 0.0 
0.0 0.0 0.0 
0.0 0.0 0.0 
0.0 0.0 0.0 
0.0 0.0 0.0 
0.0 0.0 0.0 
0.0 0.0 0.0 
0.0 0.0 0.0 
0.0 0.0 0.0 
0.0 0.0 0.0 
0.0 0.0 0.0 
0.0 0.0 0.0 
0.0 0.0 0.0 
0.0 0.0 0.0 
0.0 0.0 0.0 
0.0 0.0 0.0 
0.0 0.0 0.0 
0.0 0.0 0.0 
0.0 0.0 0.0 
0.0 0.0 0.0 
0.0 0.0 0.0 
0.0 0.0 0.0 
0.0 0.0 0.0 
0.0 0.0 0.0 
0.0 0.0 0.0 
0.0 0.0 0.0 
0.0 0.0 0.0 
0.0 0.0 0.0 
0.0 0.0 0.0 
0.0 0.0 0.0 
0.0 0.0 0.0 
0.0 0.0 0.0 
0.0 0.0 0.0 
0.0 0.0 0.0 
0.0 0.0 0.0 
0.0 0.0 0.0 
0.0 0.0 0.0 
0.0 0.0 0.0 
0.0 0.0 0.0 
0.0 0.0 0.0 
0.0 0.0 0.0 
0.0 0.0 0.0 
0.0 0.0 0.0 
0.0 0.0 0.0 
0.0 0.0 0.0 
0.0 0.0 0.0 
0.0 0.0 0.0 
0.0 0.0 0.0 
0.0 0.0 0.0 
0.0 0.0 0.0 
0.0 0.0 0.0 
0.0 0.0 0.0 
0.0 0.0 0.0 
0.0 0.0 0.0 
0.0 0.0 0.0 
0.0 0.0 0.0 
0.0 0.0 0.0 
0.0 0.0 0.0 
0.0 0.0 0.0 
0.0 0.0 0.0 
0.0 0.0 0.0 
0.0 0.0 0.0 
0.0 0.0 0.0 
0.0 0.0 0.0 
0.0 0.0 0.0 
0.0 0.0 0.0 
0.0 0.0 0.0 
0.0 0.0 0.0 
0.0 0.0 0.0 
0.0 0.0 0.0 
0.0 0.0 0.0 
0.0 0.0 0.0 
0.0 0.0 0.0 
0.0 0.0 0.0 
0.0 0.0 0.0 
0.0 0.0 0.0 
0.0 0.0 0.0 
0.0 0.0 0.0 
0.0 0.0 0.0 
0.0 0.0 0.0 
0.0 0.0 0.0 
0.0 0.0 0.0 
0.0 0.0 0.0 
0.0 0.0 0.0 
0.0 0.0 0.0 
0.0 0.0 0.0 
0.0 0.0 0.0 
0.0 0.0 0.0 
0.0 0.0 0.0 
0.0 0.0 0.0 
0.0 0.0 0.0 
0.0 0.0 0.0 
0.0 0.0 0.0 
0.0 0.0 0.0 
0.0 0.0 0.0 
0.0 0.0 0.0 
0.0 0.0 0.0 
0.0 0.0 0.0 
0.0 0.0 0.0 
0.0 0.0 0.0 
0.0 0.0 0.0 
0.0 0.0 0.0 
0.0 0.0 0.0 
0.0 0.0 0.0 
0.0 0.0 0.0 
0.0 0.0 0.0 
0.0 0.0 0.0 
0.0 0.0 0.0 
0.0 0.0 0.0 
0.0 0.0 0.0 
0.0 0.0 0.0 
0.0 0.0 0.0 
0.0 0.0 0.0 
0.0 0.0 0.0 
0.0 0.0 0.0 
0.0 0.0 0.0 
0.0 0.0 0.0 
0.0 0.0 0.0 
0.0 0.0 0.0 
0.0 0.0 0.0 
0.0 0.0 0.0 
0.0 0.0 0.0 
0.0 0.0 0.0 
0.0 0.0 0.0 
0.0 0.0 0.0 
0.0 0.0 0.0 
0.0 0.0 0.0 
0.0 0.0 0.0 
0.0 0.0 0.0 
0.0 0.0 0.0 
0.0 0.0 0.0 
0.0 0.0 0.0 
0.0 0.0 0.0 
0.0 0.0 0.0 
0.0 0.0 0.0 
0.0 0.0 0.0 
0.0 0.0 0.0 
0.0 0.0 0.0 
0.0 0.0 0.0 
0.0 0.0 0.0 
0.0 0.0 0.0 
0.0 0.0 0.0 
0.0 0.0 0.0 
0.0 0.0 0.0 
0.0 0.0 0.0 
0.0 0.0 0.0 
0.0 0.0 0.0 
0.0 0.0 0.0 
0.0 0.0 0.0 
0.0 0.0 0.0 
0.0 0.0 0.0 
0.0 0.0 0.0 
0.0 0.0 0.0 
0.0 0.0 0.0 
0.0 0.0 0.0 
0.0 0.0 0.0 
0.0 0.0 0.0 
0.0 0.0 0.0 
0.0 0.0 0.0 
0.0 0.0 0.0 
0.0 0.0 0.0 
0.0 0.0 0.0 
0.0 0.0 0.0 
0.0 0.0 0.0 
0.0 0.0 0.0 
0.0 0.0 0.0 
0.0 0.0 0.0 
0.0 0.0 0.0 
0.0 0.0 0.0 
0.0 0.0 0.0 
0.0 0.0 0.0 
0.0 0.0 0.0 
0.0 0.0 0.0 
0.0 0.0 0.0 
0.0 0.0 0.0 
0.0 0.0 0.0 
0.0 0.0 0.0 
0.0 0.0 0.0 
0.0 0.0 0.0 
0.0 0.0 0.0 
0.0 0.0 0.0 
0.0 0.0 0.0 
0.0 0.0 0.0 
0.0 0.0 0.0 
0.0 0.0 0.0 
0.0 0.0 0.0 
0.0 0.0 0.0 
0.0 0.0 0.0 
0.0 0.0 0.0 
0.0 0.0 0.0 
0.0 0.0 0.0 
0.0 0.0 0.0 
0.0 0.0 0.0 
0.0 0.0 0.0 
0.0 0.0 0.0 
0.0 0.0 0.0 
0.0 0.0 0.0 
0.0 0.0 0.0 
0.0 0.0 0.0 
0.0 0.0 0.0 
0.0 0.0 0.0 
0.0 0.0 0.0 
0.0 0.0 0.0 
0.0 0.0 0.0 
0.0 0.0 0.0 
0.0 0.0 0.0 
0.0 0.0 0.0 
0.0 0.0 0.0 
0.0 0.0 0.0 
0.0 0.0 0.0 
0.0 0.0 0.0 
0.0 0.0 0.0 
0.0 0.0 0.0 
0.0 0.0 0.0 
0.0 0.0 0.0 
0.0 0.0 0.0 
0.0 0.0 0.0 
0.0 0.0 0.0 
0.0 0.0 0.0 
0.0 0.0 0.0 
0.0 0.0 0.0 
0.0 0.0 0.0 
0.0 0.0 0.0 
0.0 0.0 0.0 
0.0 0.0 0.0 
0.0 0.0 0.0 
0.0 0.0 0.0 
0.0 0.0 0.0 
0.0 0.0 0.0 
0.0 0.0 0.0 
0.0 0.0 0.0 
0.0 0.0 0.0 
0.0 0.0 0.0 
0.0 0.0 0.0 
0.0 0.0 0.0 
0.0 0.0 0.0 
0.0 0.0 0.0 
0.0 0.0 0.0 
0.0 0.0 0.0 
0.0 0.0 0.0 
0.0 0.0 0.0 
0.0 0.0 0.0 
0.0 0.0 0.0 
0.0 0.0 0.0 
0.0 0.0 0.0 
0.0 0.0 0.0 
0.0 0.0 0.0 
0.0 0.0 0.0 
0.0 0.0 0.0 
0.0 0.0 0.0 
0.0 0.0 0.0 
0.0 0.0 0.0 
0.0 0.0 0.0 
0.0 0.0 0.0 
0.0 0.0 0.0 
0.0 0.0 0.0 
0.0 0.0 0.0 
0.0 0.0 0.0 
0.0 0.0 0.0 
0.0 0.0 0.0 
0.0 0.0 0.0 
0.0 0.0 0.0 
0.0 0.0 0.0 
0.0 0.0 0.0 
0.0 0.0 0.0 
0.0 0.0 0.0 
0.0 0.0 0.0 
0.0 0.0 0.0 
0.0 0.0 0.0 
0.0 0.0 0.0 
0.0 0.0 0.0 
0.0 0.0 0.0 
0.0 0.0 0.0 
0.0 0.0 0.0 
0.0 0.0 0.0 
0.0 0.0 0.0 
0.0 0.0 0.0 
0.0 0.0 0.0 
0.0 0.0 0.0 
0.0 0.0 0.0 
0.0 0.0 0.0 
0.0 0.0 0.0 
0.0 0.0 0.0 
0.0 0.0 0.0 
0.0 0.0 0.0 
0.0 0.0 0.0 
0.0 0.0 0.0 
0.0 0.0 0.0 
0.0 0.0 0.0 
0.0 0.0 0.0 
0.0 0.0 0.0 
0.0 0.0 0.0 
0.0 0.0 0.0 
0.0 0.0 0.0 
0.0 0.0 0.0 
0.0 0.0 0.0 
0.0 0.0 0.0 
0.0 0.0 0.0 
0.0 0.0 0.0 
0.0 0.0 0.0 
0.0 0.0 0.0 
0.0 0.0 0.0 
0.0 0.0 0.0 
0.0 0.0 0.0 
0.0 0.0 0.0 
0.0 0.0 0.0 
0.0 0.0 0.0 
0.0 0.0 0.0 
0.0 0.0 0.0 
0.0 0.0 0.0 
0.0 0.0 0.0 
0.0 0.0 0.0 
0.0 0.0 0.0 
0.0 0.0 0.0 
0.0 0.0 0.0 
0.0 0.0 0.0 
0.0 0.0 0.0 
0.0 0.0 0.0 
0.0 0.0 0.0 
0.0 0.0 0.0 
0.0 0.0 0.0 
0.0 0.0 0.0 
0.0 0.0 0.0 
0.0 0.0 0.0 
0.0 0.0 0.0 
0.0 0.0 0.0 
0.0 0.0 0.0 
0.0 0.0 0.0 
0.0 0.0 0.0 
0.0 0.0 0.0 
0.0 0.0 0.0 
0.0 0.0 0.0 
0.0 0.0 0.0 
0.0 0.0 0.0 
0.0 0.0 0.0 
0.0 0.0 0.0 
0.0 0.0 0.0 
0.0 0.0 0.0 
0.0 0.0 0.0 
0.0 0.0 0.0 
0.0 0.0 0.0 
0.0 0.0 0.0 
0.0 0.0 0.0 
0.0 0.0 0.0 
0.0 0.0 0.0 
0.0 0.0 0.0 
0.0 0.0 0.0 
0.0 0.0 0.0 
0.0 0.0 0.0 
0.0 0.0 0.0 
0.0 0.0 0.0 
0.0 0.0 0.0 
0.0 0.0 0.0 
0.0 0.0 0.0 
0.0 0.0 0.0 
0.0 0.0 0.0 
0.0 0.0 0.0 
0.0 0.0 0.0 
0.0 0.0 0.0 
0.0 0.0 0.0 
0.0 0.0 0.0 
0.0 0.0 0.0 
0.0 0.0 0.0 
0.0 0.0 0.0 
0.0 0.0 0.0 
0.0 0.0 0.0 
0.0 0.0 0.0 
0.0 0.0 0.0 
0.0 0.0 0.0 
0.0 0.0 0.0 
0.0 0.0 0.0 
0.0 0.0 0.0 
0.0 0.0 0.0 
0.0 0.0 0.0 
0.0 0.0 0.0 
0.0 0.0 0.0 
0.0 0.0 0.0 
0.0 0.0 0.0 
0.0 0.0 0.0 
0.0 0.0 0.0 
0.0 0.0 0.0 
0.0 0.0 0.0 
0.0 0.0 0.0 
0.0 0.0 0.0 
0.0 0.0 0.0 
0.0 0.0 0.0 
0.0 0.0 0.0 
0.0 0.0 0.0 
0.0 0.0 0.0 
0.0 0.0 0.0 
0.0 0.0 0.0 
0.0 0.0 0.0 
0.0 0.0 0.0 
0.0 0.0 0.0 
0.0 0.0 0.0 
0.0 0.0 0.0 
0.0 0.0 0.0 
0.0 0.0 0.0 
0.0 0.0 0.0 
0.0 0.0 0.0 
0.0 0.0 0.0 
0.0 0.0 0.0 
0.0 0.0 0.0 
0.0 0.0 0.0 
0.0 0.0 0.0 
0.0 0.0 0.0 
0.0 0.0 0.0 
0.0 0.0 0.0 
0.0 0.0 0.0 
0.0 0.0 0.0 
0.0 0.0 0.0 
0.0 0.0 0.0 
0.0 0.0 0.0 
0.0 0.0 0.0 
0.0 0.0 0.0 
0.0 0.0 0.0 
0.0 0.0 0.0 
0.0 0.0 0.0 
0.0 0.0 0.0 
0.0 0.0 0.0 
0.0 0.0 0.0 
0.0 0.0 0.0 
0.0 0.0 0.0 
0.0 0.0 0.0 
0.0 0.0 0.0 
0.0 0.0 0.0 
0.0 0.0 0.0 
0.0 0.0 0.0 
0.0 0.0 0.0 
0.0 0.0 0.0 
0.0 0.0 0.0 
0.0 0.0 0.0 
0.0 0.0 0.0 
0.0 0.0 0.0 
0.0 0.0 0.0 
0.0 0.0 0.0 
0.0 0.0 0.0 
0.0 0.0 0.0 
0.0 0.0 0.0 
0.0 0.0 0.0 
0.0 0.0 0.0 
0.0 0.0 0.0 
0.0 0.0 0.0 
0.0 0.0 0.0 
0.0 0.0 0.0 
0.0 0.0 0.0 
0.0 0.0 0.0 
0.0 0.0 0.0 
0.0 0.0 0.0 
0.0 0.0 0.0 
0.0 0.0 0.0 
0.0 0.0 0.0 
0.0 0.0 0.0 
0.0 0.0 0.0 
0.0 0.0 0.0 
0.0 0.0 0.0 
0.0 0.0 0.0 
0.0 0.0 0.0 
0.0 0.0 0.0 
0.0 0.0 0.0 
0.0 0.0 0.0 
0.0 0.0 0.0 
0.0 0.0 0.0 
0.0 0.0 0.0 
0.0 0.0 0.0 
0.0 0.0 0.0 
0.0 0.0 0.0 
0.0 0.0 0.0 
0.0 0.0 0.0 
0.0 0.0 0.0 
0.0 0.0 0.0 
0.0 0.0 0.0 
0.0 0.0 0.0 
0.0 0.0 0.0 
0.0 0.0 0.0 
0.0 0.0 0.0 
0.0 0.0 0.0 
0.0 0.0 0.0 
0.0 0.0 0.0 
0.0 0.0 0.0 
0.0 0.0 0.0 
0.0 0.0 0.0 
0.0 0.0 0.0 
0.0 0.0 0.0 
0.0 0.0 0.0 
0.0 0.0 0.0 
0.0 0.0 0.0 
0.0 0.0 0.0 
0.0 0.0 0.0 
0.0 0.0 0.0 
0.0 0.0 0.0 
0.0 0.0 0.0 
0.0 0.0 0.0 
0.0 0.0 0.0 
0.0 0.0 0.0 
0.0 0.0 0.0 
0.0 0.0 0.0 
0.0 0.0 0.0 
0.0 0.0 0.0 
0.0 0.0 0.0 
0.0 0.0 0.0 
0.0 0.0 0.0 
0.0 0.0 0.0 
0.0 0.0 0.0 
0.0 0.0 0.0 
0.0 0.0 0.0 
0.0 0.0 0.0 
0.0 0.0 0.0 
0.0 0.0 0.0 
0.0 0.0 0.0 
0.0 0.0 0.0 
0.0 0.0 0.0 
0.0 0.0 0.0 
0.0 0.0 0.0 
0.0 0.0 0.0 
0.0 0.0 0.0 
0.0 0.0 0.0 
0.0 0.0 0.0 
0.0 0.0 0.0 
0.0 0.0 0.0 
0.0 0.0 0.0 
0.0 0.0 0.0 
0.0 0.0 0.0 
0.0 0.0 0.0 
0.0 0.0 0.0 
0.0 0.0 0.0 
0.0 0.0 0.0 
0.0 0.0 0.0 
0.0 0.0 0.0 
0.0 0.0 0.0 
0.0 0.0 0.0 
0.0 0.0 0.0 
0.0 0.0 0.0 
0.0 0.0 0.0 
0.0 0.0 0.0 
0.0 0.0 0.0 
0.0 0.0 0.0 
0.0 0.0 0.0 
0.0 0.0 0.0 
0.0 0.0 0.0 
0.0 0.0 0.0 
0.0 0.0 0.0 
0.0 0.0 0.0 
0.0 0.0 0.0 
0.0 0.0 0.0 
0.0 0.0 0.0 
0.0 0.0 0.0 
0.0 0.0 0.0 
0.0 0.0 0.0 
0.0 0.0 0.0 
0.0 0.0 0.0 
0.0 0.0 0.0 
0.0 0.0 0.0 
0.0 0.0 0.0 
0.0 0.0 0.0 
0.0 0.0 0.0 
0.0 0.0 0.0 
0.0 0.0 0.0 
0.0 0.0 0.0 
0.0 0.0 0.0 
0.0 0.0 0.0 
0.0 0.0 0.0 
0.0 0.0 0.0 
0.0 0.0 0.0 
0.0 0.0 0.0 
0.0 0.0 0.0 
0.0 0.0 0.0 
0.0 0.0 0.0 
0.0 0.0 0.0 
0.0 0.0 0.0 
0.0 0.0 0.0 
0.0 0.0 0.0 
0.0 0.0 0.0 
0.0 0.0 0.0 
0.0 0.0 0.0 
0.0 0.0 0.0 
0.0 0.0 0.0 
0.0 0.0 0.0 
0.0 0.0 0.0 
0.0 0.0 0.0 
0.0 0.0 0.0 
0.0 0.0 0.0 
0.0 0.0 0.0 
0.0 0.0 0.0 
0.0 0.0 0.0 
0.0 0.0 0.0 
0.0 0.0 0.0 
0.0 0.0 0.0 
0.0 0.0 0.0 
0.0 0.0 0.0 
0.0 0.0 0.0 
0.0 0.0 0.0 
0.0 0.0 0.0 
0.0 0.0 0.0 
0.0 0.0 0.0 
0.0 0.0 0.0 
0.0 0.0 0.0 
0.0 0.0 0.0 
0.0 0.0 0.0 
0.0 0.0 0.0 
0.0 0.0 0.0 
0.0 0.0 0.0 
0.0 0.0 0.0 
0.0 0.0 0.0 
0.0 0.0 0.0 
0.0 0.0 0.0 
0.0 0.0 0.0 
0.0 0.0 0.0 
0.0 0.0 0.0 
0.0 0.0 0.0 
0.0 0.0 0.0 
0.0 0.0 0.0 
0.0 0.0 0.0 
0.0 0.0 0.0 
0.0 0.0 0.0 
0.0 0.0 0.0 
0.0 0.0 0.0 
0.0 0.0 0.0 
0.0 0.0 0.0 
0.0 0.0 0.0 
0.0 0.0 0.0 
0.0 0.0 0.0 
0.0 0.0 0.0 
0.0 0.0 0.0 
0.0 0.0 0.0 
0.0 0.0 0.0 
0.0 0.0 0.0 
0.0 0.0 0.0 
0.0 0.0 0.0 
0.0 0.0 0.0 
0.0 0.0 0.0 
0.0 0.0 0.0 
0.0 0.0 0.0 
0.0 0.0 0.0 
0.0 0.0 0.0 
0.0 0.0 0.0 
0.0 0.0 0.0 
0.0 0.0 0.0 
0.0 0.0 0.0 
0.0 0.0 0.0 
0.0 0.0 0.0 
0.0 0.0 0.0 
0.0 0.0 0.0 
0.0 0.0 0.0 
0.0 0.0 0.0 
0.0 0.0 0.0 
0.0 0.0 0.0 
0.0 0.0 0.0 
0.0 0.0 0.0 
0.0 0.0 0.0 
0.0 0.0 0.0 
0.0 0.0 0.0 
0.0 0.0 0.0 
0.0 0.0 0.0 
0.0 0.0 0.0 
0.0 0.0 0.0 
0.0 0.0 0.0 
0.0 0.0 0.0 
0.0 0.0 0.0 
0.0 0.0 0.0 
0.0 0.0 0.0 
0.0 0.0 0.0 
0.0 0.0 0.0 
0.0 0.0 0.0 
0.0 0.0 0.0 
0.0 0.0 0.0 
0.0 0.0 0.0 
0.0 0.0 0.0 
0.0 0.0 0.0 
0.0 0.0 0.0 
0.0 0.0 0.0 
0.0 0.0 0.0 
0.0 0.0 0.0 
0.0 0.0 0.0 
0.0 0.0 0.0 
0.0 0.0 0.0 
0.0 0.0 0.0 
0.0 0.0 0.0 
0.0 0.0 0.0 
0.0 0.0 0.0 
0.0 0.0 0.0 
0.0 0.0 0.0 
0.0 0.0 0.0 
0.0 0.0 0.0 
0.0 0.0 0.0 
0.0 0.0 0.0 
0.0 0.0 0.0 
0.0 0.0 0.0 
0.0 0.0 0.0 
0.0 0.0 0.0 
0.0 0.0 0.0 
0.0 0.0 0.0 
0.0 0.0 0.0 
0.0 0.0 0.0 
0.0 0.0 0.0 
0.0 0.0 0.0 
0.0 0.0 0.0 
0.0 0.0 0.0 
0.0 0.0 0.0 
0.0 0.0 0.0 
0.0 0.0 0.0 
0.0 0.0 0.0 
0.0 0.0 0.0 
0.0 0.0 0.0 
0.0 0.0 0.0 
0.0 0.0 0.0 
0.0 0.0 0.0 
0.0 0.0 0.0 
0.0 0.0 0.0 
0.0 0.0 0.0 
0.0 0.0 0.0 
0.0 0.0 0.0 
0.0 0.0 0.0 
0.0 0.0 0.0 
0.0 0.0 0.0 
0.0 0.0 0.0 
0.0 0.0 0.0 
0.0 0.0 0.0 
0.0 0.0 0.0 
0.0 0.0 0.0 
0.0 0.0 0.0 
0.0 0.0 0.0 
0.0 0.0 0.0 
0.0 0.0 0.0 
0.0 0.0 0.0 
0.0 0.0 0.0 
0.0 0.0 0.0 
0.0 0.0 0.0 
0.0 0.0 0.0 
0.0 0.0 0.0 
0.0 0.0 0.0 
0.0 0.0 0.0 
0.0 0.0 0.0 
0.0 0.0 0.0 
0.0 0.0 0.0 
0.0 0.0 0.0 
0.0 0.0 0.0 
0.0 0.0 0.0 
0.0 0.0 0.0 
0.0 0.0 0.0 
0.0 0.0 0.0 

SCALARS node_boundary float
LOOKUP_TABLE default
1.000000000000e+00 
1.000000000000e+00 
1.000000000000e+00 
1.000000000000e+00 
1.000000000000e+00 
1.000000000000e+00 
1.000000000000e+00 
1.000000000000e+00 
1.000000000000e+00 
1.000000000000e+00 
1.000000000000e+00 
1.000000000000e+00 
1.000000000000e+00 
1.000000000000e+00 
1.000000000000e+00 
1.000000000000e+00 
1.000000000000e+00 
1.000000000000e+00 
1.000000000000e+00 
1.000000000000e+00 
1.000000000000e+00 
1.000000000000e+00 
1.000000000000e+00 
1.000000000000e+00 
1.000000000000e+00 
1.000000000000e+00 
1.000000000000e+00 
1.000000000000e+00 
1.000000000000e+00 
1.000000000000e+00 
1.000000000000e+00 
1.000000000000e+00 
1.000000000000e+00 
1.000000000000e+00 
1.000000000000e+00 
1.000000000000e+00 
1.000000000000e+00 
1.000000000000e+00 
1.000000000000e+00 
1.000000000000e+00 
1.000000000000e+00 
1.000000000000e+00 
1.000000000000e+00 
1.000000000000e+00 
1.000000000000e+00 
1.000000000000e+00 
1.000000000000e+00 
1.000000000000e+00 
1.000000000000e+00 
1.000000000000e+00 
1.000000000000e+00 
1.000000000000e+00 
1.000000000000e+00 
1.000000000000e+00 
1.000000000000e+00 
1.000000000000e+00 
1.000000000000e+00 
1.000000000000e+00 
1.000000000000e+00 
1.000000000000e+00 
1.000000000000e+00 
1.000000000000e+00 
1.000000000000e+00 
1.000000000000e+00 
1.000000000000e+00 
1.000000000000e+00 
1.000000000000e+00 
1.000000000000e+00 
1.000000000000e+00 
1.000000000000e+00 
1.000000000000e+00 
1.000000000000e+00 
1.000000000000e+00 
1.000000000000e+00 
1.000000000000e+00 
1.000000000000e+00 
1.000000000000e+00 
1.000000000000e+00 
1.000000000000e+00 
1.000000000000e+00 
1.000000000000e+00 
1.000000000000e+00 
0.0
1.000000000000e+00 
1.000000000000e+00 
0.0
0.0
0.0
0.0
0.0
0.0
0.0
1.000000000000e+00 
1.000000000000e+00 
1.000000000000e+00 
1.000000000000e+00 
1.000000000000e+00 
1.000000000000e+00 
1.000000000000e+00 
1.000000000000e+00 
0.0
0.0
0.0
0.0
0.0
0.0
0.0
0.0
0.0
0.0
0.0
0.0
0.0
0.0
1.000000000000e+00 
1.000000000000e+00 
1.000000000000e+00 
1.000000000000e+00 
1.000000000000e+00 
1.000000000000e+00 
1.000000000000e+00 
1.000000000000e+00 
1.000000000000e+00 
1.000000000000e+00 
1.000000000000e+00 
1.000000000000e+00 
1.000000000000e+00 
1.000000000000e+00 
1.000000000000e+00 
1.000000000000e+00 
1.000000000000e+00 
1.000000000000e+00 
1.000000000000e+00 
1.000000000000e+00 
1.000000000000e+00 
1.000000000000e+00 
1.000000000000e+00 
1.000000000000e+00 
1.000000000000e+00 
1.000000000000e+00 
1.000000000000e+00 
1.000000000000e+00 
1.000000000000e+00 
1.000000000000e+00 
1.000000000000e+00 
1.000000000000e+00 
1.000000000000e+00 
1.000000000000e+00 
1.000000000000e+00 
1.000000000000e+00 
1.000000000000e+00 
1.000000000000e+00 
1.000000000000e+00 
1.000000000000e+00 
1.000000000000e+00 
1.000000000000e+00 
1.000000000000e+00 
1.000000000000e+00 
1.000000000000e+00 
0.0
0.0
0.0
0.0
0.0
0.0
0.0
0.0
0.0
0.0
0.0
0.0
0.0
0.0
0.0
0.0
0.0
0.0
0.0
0.0
0.0
0.0
0.0
0.0
0.0
0.0
0.0
0.0
0.0
0.0
0.0
0.0
0.0
0.0
0.0
0.0
0.0
0.0
0.0
0.0
0.0
0.0
0.0
0.0
0.0
0.0
0.0
0.0
0.0
0.0
0.0
0.0
0.0
0.0
0.0
0.0
0.0
0.0
0.0
0.0
0.0
0.0
0.0
0.0
0.0
0.0
0.0
0.0
0.0
0.0
0.0
0.0
0.0
0.0
0.0
0.0
0.0
0.0
0.0
0.0
0.0
0.0
0.0
0.0
0.0
0.0
0.0
0.0
0.0
0.0
0.0
0.0
0.0
0.0
0.0
0.0
0.0
0.0
0.0
0.0
0.0
0.0
0.0
0.0
0.0
0.0
0.0
0.0
0.0
0.0
0.0
0.0
0.0
0.0
0.0
0.0
0.0
0.0
0.0
0.0
0.0
0.0
0.0
0.0
0.0
0.0
0.0
0.0
0.0
0.0
0.0
0.0
0.0
0.0
0.0
0.0
0.0
0.0
0.0
0.0
0.0
0.0
1.000000000000e+00 
1.000000000000e+00 
0.0
0.0
0.0
0.0
0.0
0.0
0.0
0.0
0.0
0.0
0.0
0.0
0.0
0.0
0.0
0.0
0.0
0.0
0.0
0.0
0.0
0.0
0.0
0.0
0.0
0.0
0.0
0.0
0.0
0.0
0.0
0.0
0.0
0.0
0.0
0.0
0.0
0.0
0.0
0.0
0.0
0.0
0.0
0.0
0.0
0.0
0.0
0.0
0.0
0.0
0.0
0.0
0.0
0.0
0.0
0.0
0.0
0.0
0.0
0.0
0.0
0.0
0.0
0.0
0.0
0.0
0.0
0.0
0.0
0.0
0.0
0.0
0.0
0.0
0.0
0.0
0.0
0.0
0.0
0.0
0.0
0.0
0.0
0.0
0.0
0.0
0.0
0.0
0.0
0.0
0.0
0.0
0.0
0.0
0.0
0.0
0.0
0.0
0.0
0.0
0.0
0.0
0.0
0.0
0.0
0.0
0.0
0.0
0.0
0.0
0.0
0.0
0.0
0.0
0.0
0.0
0.0
0.0
0.0
0.0
0.0
0.0
0.0
0.0
0.0
0.0
0.0
0.0
0.0
0.0
0.0
0.0
0.0
0.0
0.0
0.0
0.0
0.0
0.0
0.0
0.0
0.0
0.0
0.0
0.0
0.0
0.0
0.0
0.0
0.0
0.0
0.0
0.0
0.0
0.0
0.0
0.0
0.0
0.0
0.0
0.0
0.0
0.0
0.0
0.0
0.0
0.0
0.0
0.0
0.0
0.0
0.0
0.0
0.0
0.0
0.0
0.0
0.0
0.0
0.0
0.0
0.0
0.0
0.0
0.0
0.0
0.0
0.0
0.0
0.0
0.0
0.0
0.0
0.0
0.0
0.0
0.0
0.0
0.0
0.0
0.0
0.0
0.0
0.0
0.0
0.0
0.0
0.0
0.0
0.0
0.0
0.0
0.0
0.0
0.0
0.0
0.0
0.0
0.0
0.0
0.0
0.0
0.0
0.0
0.0
0.0
0.0
0.0
0.0
0.0
0.0
0.0
0.0
0.0
0.0
0.0
0.0
0.0
0.0
0.0
0.0
0.0
0.0
0.0
0.0
0.0
0.0
0.0
0.0
0.0
0.0
0.0
0.0
0.0
0.0
0.0
0.0
0.0
0.0
0.0
0.0
0.0
0.0
0.0
0.0
0.0
0.0
0.0
0.0
0.0
0.0
0.0
0.0
0.0
0.0
0.0
0.0
0.0
0.0
0.0
0.0
0.0
0.0
0.0
0.0
0.0
0.0
0.0
0.0
0.0
0.0
0.0
0.0
0.0
0.0
0.0
0.0
0.0
0.0
0.0
0.0
0.0
0.0
0.0
0.0
0.0
0.0
0.0
0.0
0.0
0.0
0.0
0.0
0.0
0.0
0.0
0.0
0.0
0.0
0.0
0.0
0.0
0.0
0.0
0.0
0.0
0.0
0.0
0.0
0.0
0.0
0.0
0.0
0.0
0.0
0.0
0.0
0.0
0.0
0.0
0.0
0.0
0.0
0.0
0.0
0.0
0.0
0.0
0.0
0.0
0.0
0.0
0.0
0.0
0.0
0.0
0.0
0.0
0.0
0.0
0.0
0.0
0.0
0.0
0.0
0.0
0.0
0.0
0.0
0.0
0.0
0.0
0.0
0.0
0.0
0.0
0.0
0.0
0.0
0.0
0.0
0.0
0.0
0.0
0.0
0.0
0.0
0.0
0.0
0.0
0.0
0.0
0.0
0.0
0.0
0.0
0.0
0.0
0.0
0.0
0.0
0.0
0.0
0.0
0.0
0.0
0.0
0.0
0.0
0.0
0.0
0.0
0.0
0.0
0.0
0.0
0.0
0.0
0.0
0.0
0.0
0.0
0.0
0.0
0.0
0.0
0.0
0.0
0.0
0.0
0.0
0.0
0.0
0.0
0.0
0.0
0.0
0.0
0.0
0.0
0.0
0.0
0.0
0.0
0.0
0.0
0.0
0.0
0.0
0.0
0.0
0.0
0.0
0.0
0.0
0.0
0.0
0.0
0.0
0.0
0.0
0.0
0.0
0.0
0.0
0.0
0.0
0.0
0.0
0.0
0.0
0.0
0.0
0.0
0.0
0.0
0.0
0.0
0.0
0.0
0.0
0.0
0.0
0.0
0.0
0.0
0.0
0.0
0.0
0.0
0.0
0.0
0.0
0.0
0.0
0.0
0.0
0.0
0.0
0.0
0.0
0.0
0.0
0.0
0.0
0.0
0.0
0.0
0.0
0.0
0.0
0.0
0.0
0.0
0.0
0.0
0.0
0.0
0.0
0.0
0.0
0.0
0.0
0.0
0.0
0.0
0.0
0.0
0.0
0.0
0.0
0.0
0.0
0.0
0.0
0.0
0.0
0.0
0.0
0.0
0.0
0.0
0.0
0.0
0.0
0.0
0.0
0.0
0.0
0.0
0.0
0.0
0.0
0.0
0.0
0.0
0.0
0.0
0.0
0.0
0.0
0.0
0.0
0.0
0.0
0.0
0.0
0.0
0.0
0.0
0.0
0.0
0.0
0.0
0.0
0.0
0.0
0.0
0.0
0.0
0.0
0.0
0.0
0.0
0.0
0.0
0.0
0.0
0.0
0.0
0.0
0.0
0.0
0.0
0.0
0.0
0.0
0.0
0.0
0.0
0.0
0.0
0.0
0.0
0.0
0.0
0.0
0.0
0.0
0.0
0.0
0.0
0.0
0.0
0.0
0.0
0.0
0.0
0.0
0.0
0.0
0.0
0.0
0.0
0.0
0.0
0.0
0.0
0.0
0.0
0.0
0.0
0.0
0.0
0.0
0.0
0.0
0.0
0.0
0.0
0.0
0.0
0.0
0.0
0.0
0.0
0.0
0.0
0.0
0.0
0.0
0.0
0.0
0.0
0.0
0.0
0.0
0.0
0.0
0.0
0.0
0.0
0.0
0.0
0.0
0.0
0.0
0.0
0.0
0.0
0.0
0.0
0.0
0.0
0.0
0.0
0.0
0.0
0.0
0.0
0.0
0.0
0.0
0.0
0.0
0.0
0.0
0.0
0.0
0.0
0.0
0.0
0.0
0.0
0.0
0.0
0.0
0.0
0.0
0.0
0.0
0.0
0.0
0.0
0.0
0.0
0.0
0.0
0.0
0.0
0.0
0.0
0.0
0.0
0.0
0.0
0.0
0.0
0.0
0.0
0.0
0.0
0.0
0.0
0.0
0.0
0.0
0.0
0.0
0.0
0.0
0.0
0.0
0.0
0.0
0.0
0.0
0.0
0.0
0.0
0.0
0.0
0.0
0.0
0.0
0.0
0.0
0.0
0.0
0.0
0.0
0.0
0.0
0.0
0.0
0.0
0.0
0.0
0.0
0.0
0.0
0.0
0.0
0.0
0.0
0.0
0.0
0.0
0.0
0.0
0.0
0.0
0.0
0.0
0.0
0.0
0.0
0.0
0.0
0.0
0.0
0.0
0.0
0.0
0.0
0.0
0.0
0.0
0.0
0.0
0.0
0.0
0.0
0.0
0.0
0.0
0.0
0.0
0.0
0.0
0.0
0.0
0.0
0.0
0.0
0.0
0.0
0.0
0.0
0.0
0.0
0.0
0.0
0.0
0.0
0.0
0.0
0.0
0.0
0.0
0.0
0.0
0.0
0.0
0.0
0.0
0.0
0.0
0.0
0.0
0.0
0.0
0.0
0.0
0.0
0.0
0.0
0.0
0.0
0.0
0.0
0.0
0.0
0.0
0.0
0.0
0.0
0.0
0.0
0.0
0.0
0.0
0.0
0.0
0.0
0.0
0.0
0.0
0.0
0.0
0.0
0.0
0.0
0.0
0.0
0.0
0.0
0.0
0.0
0.0
0.0
0.0
0.0
0.0
0.0
0.0
0.0
0.0
0.0
0.0
0.0
0.0
0.0
0.0
0.0
0.0
0.0
0.0
0.0
0.0
0.0
0.0
0.0
0.0
0.0
0.0
0.0
0.0
0.0
0.0
0.0
0.0
0.0
0.0
0.0
0.0
0.0
0.0
0.0
0.0
0.0
0.0
0.0
0.0
0.0
0.0
0.0

VECTORS node_force_gravity float
0.0 -1.962000000000e+01 0.0 
0.0 -1.962000000000e+01 0.0 
0.0 -1.962000000000e+01 0.0 
0.0 -1.962000000000e+01 0.0 
0.0 -1.962000000000e+01 0.0 
0.0 -1.962000000000e+01 0.0 
0.0 -1.962000000000e+01 0.0 
0.0 -1.962000000000e+01 0.0 
0.0 -1.962000000000e+01 0.0 
0.0 -1.962000000000e+01 0.0 
0.0 -1.962000000000e+01 0.0 
0.0 -1.962000000000e+01 0.0 
0.0 -1.962000000000e+01 0.0 
0.0 -1.962000000000e+01 0.0 
0.0 -1.962000000000e+01 0.0 
0.0 -1.962000000000e+01 0.0 
0.0 -1.962000000000e+01 0.0 
0.0 -1.962000000000e+01 0.0 
0.0 -1.962000000000e+01 0.0 
0.0 -1.962000000000e+01 0.0 
0.0 -1.962000000000e+01 0.0 
0.0 -1.962000000000e+01 0.0 
0.0 -1.962000000000e+01 0.0 
0.0 -1.962000000000e+01 0.0 
0.0 -1.962000000000e+01 0.0 
0.0 -1.962000000000e+01 0.0 
0.0 -1.962000000000e+01 0.0 
0.0 -1.962000000000e+01 0.0 
0.0 -1.962000000000e+01 0.0 
0.0 -1.962000000000e+01 0.0 
0.0 -1.962000000000e+01 0.0 
0.0 -1.962000000000e+01 0.0 
0.0 -1.962000000000e+01 0.0 
0.0 -1.962000000000e+01 0.0 
0.0 -1.962000000000e+01 0.0 
0.0 -1.962000000000e+01 0.0 
0.0 -1.962000000000e+01 0.0 
0.0 -1.962000000000e+01 0.0 
0.0 -1.962000000000e+01 0.0 
0.0 -1.962000000000e+01 0.0 
0.0 -1.962000000000e+01 0.0 
0.0 -1.962000000000e+01 0.0 
0.0 -1.962000000000e+01 0.0 
0.0 -1.962000000000e+01 0.0 
0.0 -1.962000000000e+01 0.0 
0.0 -1.962000000000e+01 0.0 
0.0 -1.962000000000e+01 0.0 
0.0 -1.962000000000e+01 0.0 
0.0 -1.962000000000e+01 0.0 
0.0 -1.962000000000e+01 0.0 
0.0 -1.962000000000e+01 0.0 
0.0 -1.962000000000e+01 0.0 
0.0 -1.962000000000e+01 0.0 
0.0 -1.962000000000e+01 0.0 
0.0 -1.962000000000e+01 0.0 
0.0 -1.962000000000e+01 0.0 
0.0 -1.962000000000e+01 0.0 
0.0 -1.962000000000e+01 0.0 
0.0 -1.962000000000e+01 0.0 
0.0 -1.962000000000e+01 0.0 
0.0 -1.962000000000e+01 0.0 
0.0 -1.962000000000e+01 0.0 
0.0 -1.962000000000e+01 0.0 
0.0 -1.962000000000e+01 0.0 
0.0 -1.962000000000e+01 0.0 
0.0 -1.962000000000e+01 0.0 
0.0 -1.962000000000e+01 0.0 
0.0 -1.962000000000e+01 0.0 
0.0 -1.962000000000e+01 0.0 
0.0 -1.962000000000e+01 0.0 
0.0 -1.962000000000e+01 0.0 
0.0 -1.962000000000e+01 0.0 
0.0 -1.962000000000e+01 0.0 
0.0 -1.962000000000e+01 0.0 
0.0 -1.962000000000e+01 0.0 
0.0 -1.962000000000e+01 0.0 
0.0 -1.962000000000e+01 0.0 
0.0 -1.962000000000e+01 0.0 
0.0 -1.962000000000e+01 0.0 
0.0 -1.962000000000e+01 0.0 
0.0 -1.962000000000e+01 0.0 
0.0 -1.962000000000e+01 0.0 
0.0 -1.962000000000e+01 0.0 
0.0 -1.962000000000e+01 0.0 
0.0 -1.962000000000e+01 0.0 
0.0 -1.962000000000e+01 0.0 
0.0 -1.962000000000e+01 0.0 
0.0 -1.962000000000e+01 0.0 
0.0 -1.962000000000e+01 0.0 
0.0 -1.962000000000e+01 0.0 
0.0 -1.962000000000e+01 0.0 
0.0 -1.962000000000e+01 0.0 
0.0 -1.962000000000e+01 0.0 
0.0 -1.962000000000e+01 0.0 
0.0 -1.962000000000e+01 0.0 
0.0 -1.962000000000e+01 0.0 
0.0 -1.962000000000e+01 0.0 
0.0 -1.962000000000e+01 0.0 
0.0 -1.962000000000e+01 0.0 
0.0 -1.962000000000e+01 0.0 
0.0 -1.962000000000e+01 0.0 
0.0 -1.962000000000e+01 0.0 
0.0 -1.962000000000e+01 0.0 
0.0 -1.962000000000e+01 0.0 
0.0 -1.962000000000e+01 0.0 
0.0 -1.962000000000e+01 0.0 
0.0 -1.962000000000e+01 0.0 
0.0 -1.962000000000e+01 0.0 
0.0 -1.962000000000e+01 0.0 
0.0 -1.962000000000e+01 0.0 
0.0 -1.962000000000e+01 0.0 
0.0 -1.962000000000e+01 0.0 
0.0 -1.962000000000e+01 0.0 
0.0 -1.962000000000e+01 0.0 
0.0 -1.962000000000e+01 0.0 
0.0 -1.962000000000e+01 0.0 
0.0 -1.962000000000e+01 0.0 
0.0 -1.962000000000e+01 0.0 
0.0 -1.962000000000e+01 0.0 
0.0 -1.962000000000e+01 0.0 
0.0 -1.962000000000e+01 0.0 
0.0 -1.962000000000e+01 0.0 
0.0 -1.962000000000e+01 0.0 
0.0 -1.962000000000e+01 0.0 
0.0 -1.962000000000e+01 0.0 
0.0 -1.962000000000e+01 0.0 
0.0 -1.962000000000e+01 0.0 
0.0 -1.962000000000e+01 0.0 
0.0 -1.962000000000e+01 0.0 
0.0 -1.962000000000e+01 0.0 
0.0 -1.962000000000e+01 0.0 
0.0 -1.962000000000e+01 0.0 
0.0 -1.962000000000e+01 0.0 
0.0 -1.962000000000e+01 0.0 
0.0 -1.962000000000e+01 0.0 
0.0 -1.962000000000e+01 0.0 
0.0 -1.962000000000e+01 0.0 
0.0 -1.962000000000e+01 0.0 
0.0 -1.962000000000e+01 0.0 
0.0 -1.962000000000e+01 0.0 
0.0 -1.962000000000e+01 0.0 
0.0 -1.962000000000e+01 0.0 
0.0 -1.962000000000e+01 0.0 
0.0 -1.962000000000e+01 0.0 
0.0 -1.962000000000e+01 0.0 
0.0 -1.962000000000e+01 0.0 
0.0 -1.962000000000e+01 0.0 
0.0 -1.962000000000e+01 0.0 
0.0 -1.962000000000e+01 0.0 
0.0 -1.962000000000e+01 0.0 
0.0 -1.962000000000e+01 0.0 
0.0 -1.962000000000e+01 0.0 
0.0 -1.962000000000e+01 0.0 
0.0 -1.962000000000e+01 0.0 
0.0 -1.962000000000e+01 0.0 
0.0 -1.962000000000e+01 0.0 
0.0 -1.962000000000e+01 0.0 
0.0 -1.962000000000e+01 0.0 
0.0 -1.962000000000e+01 0.0 
0.0 -1.962000000000e+01 0.0 
0.0 -1.962000000000e+01 0.0 
0.0 -1.962000000000e+01 0.0 
0.0 -1.962000000000e+01 0.0 
0.0 -1.962000000000e+01 0.0 
0.0 -1.962000000000e+01 0.0 
0.0 -1.962000000000e+01 0.0 
0.0 -1.962000000000e+01 0.0 
0.0 -1.962000000000e+01 0.0 
0.0 -1.962000000000e+01 0.0 
0.0 -1.962000000000e+01 0.0 
0.0 -1.962000000000e+01 0.0 
0.0 -1.962000000000e+01 0.0 
0.0 -1.962000000000e+01 0.0 
0.0 -1.962000000000e+01 0.0 
0.0 -1.962000000000e+01 0.0 
0.0 -1.962000000000e+01 0.0 
0.0 -1.962000000000e+01 0.0 
0.0 -1.962000000000e+01 0.0 
0.0 -1.962000000000e+01 0.0 
0.0 -1.962000000000e+01 0.0 
0.0 -1.962000000000e+01 0.0 
0.0 -1.962000000000e+01 0.0 
0.0 -1.962000000000e+01 0.0 
0.0 -1.962000000000e+01 0.0 
0.0 -1.962000000000e+01 0.0 
0.0 -1.962000000000e+01 0.0 
0.0 -1.962000000000e+01 0.0 
0.0 -1.962000000000e+01 0.0 
0.0 -1.962000000000e+01 0.0 
0.0 -1.962000000000e+01 0.0 
0.0 -1.962000000000e+01 0.0 
0.0 -1.962000000000e+01 0.0 
0.0 -1.962000000000e+01 0.0 
0.0 -1.962000000000e+01 0.0 
0.0 -1.962000000000e+01 0.0 
0.0 -1.962000000000e+01 0.0 
0.0 -1.962000000000e+01 0.0 
0.0 -1.962000000000e+01 0.0 
0.0 -1.962000000000e+01 0.0 
0.0 -1.962000000000e+01 0.0 
0.0 -1.962000000000e+01 0.0 
0.0 -1.962000000000e+01 0.0 
0.0 -1.962000000000e+01 0.0 
0.0 -1.962000000000e+01 0.0 
0.0 -1.962000000000e+01 0.0 
0.0 -1.962000000000e+01 0.0 
0.0 -1.962000000000e+01 0.0 
0.0 -1.962000000000e+01 0.0 
0.0 -1.962000000000e+01 0.0 
0.0 -1.962000000000e+01 0.0 
0.0 -1.962000000000e+01 0.0 
0.0 -1.962000000000e+01 0.0 
0.0 -1.962000000000e+01 0.0 
0.0 -1.962000000000e+01 0.0 
0.0 -1.962000000000e+01 0.0 
0.0 -1.962000000000e+01 0.0 
0.0 -1.962000000000e+01 0.0 
0.0 -1.962000000000e+01 0.0 
0.0 -1.962000000000e+01 0.0 
0.0 -1.962000000000e+01 0.0 
0.0 -1.962000000000e+01 0.0 
0.0 -1.962000000000e+01 0.0 
0.0 -1.962000000000e+01 0.0 
0.0 -1.962000000000e+01 0.0 
0.0 -1.962000000000e+01 0.0 
0.0 -1.962000000000e+01 0.0 
0.0 -1.962000000000e+01 0.0 
0.0 -1.962000000000e+01 0.0 
0.0 -1.962000000000e+01 0.0 
0.0 -1.962000000000e+01 0.0 
0.0 -1.962000000000e+01 0.0 
0.0 -1.962000000000e+01 0.0 
0.0 -1.962000000000e+01 0.0 
0.0 -1.962000000000e+01 0.0 
0.0 -1.962000000000e+01 0.0 
0.0 -1.962000000000e+01 0.0 
0.0 -1.962000000000e+01 0.0 
0.0 -1.962000000000e+01 0.0 
0.0 -1.962000000000e+01 0.0 
0.0 -1.962000000000e+01 0.0 
0.0 -1.962000000000e+01 0.0 
0.0 -1.962000000000e+01 0.0 
0.0 -1.962000000000e+01 0.0 
0.0 -1.962000000000e+01 0.0 
0.0 -1.962000000000e+01 0.0 
0.0 -1.962000000000e+01 0.0 
0.0 -1.962000000000e+01 0.0 
0.0 -1.962000000000e+01 0.0 
0.0 -1.962000000000e+01 0.0 
0.0 -1.962000000000e+01 0.0 
0.0 -1.962000000000e+01 0.0 
0.0 -1.962000000000e+01 0.0 
0.0 -1.962000000000e+01 0.0 
0.0 -1.962000000000e+01 0.0 
0.0 -1.962000000000e+01 0.0 
0.0 -1.962000000000e+01 0.0 
0.0 -1.962000000000e+01 0.0 
0.0 -1.962000000000e+01 0.0 
0.0 -1.962000000000e+01 0.0 
0.0 -1.962000000000e+01 0.0 
0.0 -1.962000000000e+01 0.0 
0.0 -1.962000000000e+01 0.0 
0.0 -1.962000000000e+01 0.0 
0.0 -1.962000000000e+01 0.0 
0.0 -1.962000000000e+01 0.0 
0.0 -1.962000000000e+01 0.0 
0.0 -1.962000000000e+01 0.0 
0.0 -1.962000000000e+01 0.0 
0.0 -1.962000000000e+01 0.0 
0.0 -1.962000000000e+01 0.0 
0.0 -1.962000000000e+01 0.0 
0.0 -1.962000000000e+01 0.0 
0.0 -1.962000000000e+01 0.0 
0.0 -1.962000000000e+01 0.0 
0.0 -1.962000000000e+01 0.0 
0.0 -1.962000000000e+01 0.0 
0.0 -1.962000000000e+01 0.0 
0.0 -1.962000000000e+01 0.0 
0.0 -1.962000000000e+01 0.0 
0.0 -1.962000000000e+01 0.0 
0.0 -1.962000000000e+01 0.0 
0.0 -1.962000000000e+01 0.0 
0.0 -1.962000000000e+01 0.0 
0.0 -1.962000000000e+01 0.0 
0.0 -1.962000000000e+01 0.0 
0.0 -1.962000000000e+01 0.0 
0.0 -1.962000000000e+01 0.0 
0.0 -1.962000000000e+01 0.0 
0.0 -1.962000000000e+01 0.0 
0.0 -1.962000000000e+01 0.0 
0.0 -1.962000000000e+01 0.0 
0.0 -1.962000000000e+01 0.0 
0.0 -1.962000000000e+01 0.0 
0.0 -1.962000000000e+01 0.0 
0.0 -1.962000000000e+01 0.0 
0.0 -1.962000000000e+01 0.0 
0.0 -1.962000000000e+01 0.0 
0.0 -1.962000000000e+01 0.0 
0.0 -1.962000000000e+01 0.0 
0.0 -1.962000000000e+01 0.0 
0.0 -1.962000000000e+01 0.0 
0.0 -1.962000000000e+01 0.0 
0.0 -1.962000000000e+01 0.0 
0.0 -1.962000000000e+01 0.0 
0.0 -1.962000000000e+01 0.0 
0.0 -1.962000000000e+01 0.0 
0.0 -1.962000000000e+01 0.0 
0.0 -1.962000000000e+01 0.0 
0.0 -1.962000000000e+01 0.0 
0.0 -1.962000000000e+01 0.0 
0.0 -1.962000000000e+01 0.0 
0.0 -1.962000000000e+01 0.0 
0.0 -1.962000000000e+01 0.0 
0.0 -1.962000000000e+01 0.0 
0.0 -1.962000000000e+01 0.0 
0.0 -1.962000000000e+01 0.0 
0.0 -1.962000000000e+01 0.0 
0.0 -1.962000000000e+01 0.0 
0.0 -1.962000000000e+01 0.0 
0.0 -1.962000000000e+01 0.0 
0.0 -1.962000000000e+01 0.0 
0.0 -1.962000000000e+01 0.0 
0.0 -1.962000000000e+01 0.0 
0.0 -1.962000000000e+01 0.0 
0.0 -1.962000000000e+01 0.0 
0.0 -1.962000000000e+01 0.0 
0.0 -1.962000000000e+01 0.0 
0.0 -1.962000000000e+01 0.0 
0.0 -1.962000000000e+01 0.0 
0.0 -1.962000000000e+01 0.0 
0.0 -1.962000000000e+01 0.0 
0.0 -1.962000000000e+01 0.0 
0.0 -1.962000000000e+01 0.0 
0.0 -1.962000000000e+01 0.0 
0.0 -1.962000000000e+01 0.0 
0.0 -1.962000000000e+01 0.0 
0.0 -1.962000000000e+01 0.0 
0.0 -1.962000000000e+01 0.0 
0.0 -1.962000000000e+01 0.0 
0.0 -1.962000000000e+01 0.0 
0.0 -1.962000000000e+01 0.0 
0.0 -1.962000000000e+01 0.0 
0.0 -1.962000000000e+01 0.0 
0.0 -1.962000000000e+01 0.0 
0.0 -1.962000000000e+01 0.0 
0.0 -1.962000000000e+01 0.0 
0.0 -1.962000000000e+01 0.0 
0.0 -1.962000000000e+01 0.0 
0.0 -1.962000000000e+01 0.0 
0.0 -1.962000000000e+01 0.0 
0.0 -1.962000000000e+01 0.0 
0.0 -1.962000000000e+01 0.0 
0.0 -1.962000000000e+01 0.0 
0.0 -1.962000000000e+01 0.0 
0.0 -1.962000000000e+01 0.0 
0.0 -1.962000000000e+01 0.0 
0.0 -1.962000000000e+01 0.0 
0.0 -1.962000000000e+01 0.0 
0.0 -1.962000000000e+01 0.0 
0.0 -1.962000000000e+01 0.0 
0.0 -1.962000000000e+01 0.0 
0.0 -1.962000000000e+01 0.0 
0.0 -1.962000000000e+01 0.0 
0.0 -1.962000000000e+01 0.0 
0.0 -1.962000000000e+01 0.0 
0.0 -1.962000000000e+01 0.0 
0.0 -1.962000000000e+01 0.0 
0.0 -1.962000000000e+01 0.0 
0.0 -1.962000000000e+01 0.0 
0.0 -1.962000000000e+01 0.0 
0.0 -1.962000000000e+01 0.0 
0.0 -1.962000000000e+01 0.0 
0.0 -1.962000000000e+01 0.0 
0.0 -1.962000000000e+01 0.0 
0.0 -1.962000000000e+01 0.0 
0.0 -1.962000000000e+01 0.0 
0.0 -1.962000000000e+01 0.0 
0.0 -1.962000000000e+01 0.0 
0.0 -1.962000000000e+01 0.0 
0.0 -1.962000000000e+01 0.0 
0.0 -1.962000000000e+01 0.0 
0.0 -1.962000000000e+01 0.0 
0.0 -1.962000000000e+01 0.0 
0.0 -1.962000000000e+01 0.0 
0.0 -1.962000000000e+01 0.0 
0.0 -1.962000000000e+01 0.0 
0.0 -1.962000000000e+01 0.0 
0.0 -1.962000000000e+01 0.0 
0.0 -1.962000000000e+01 0.0 
0.0 -1.962000000000e+01 0.0 
0.0 -1.962000000000e+01 0.0 
0.0 -1.962000000000e+01 0.0 
0.0 -1.962000000000e+01 0.0 
0.0 -1.962000000000e+01 0.0 
0.0 -1.962000000000e+01 0.0 
0.0 -1.962000000000e+01 0.0 
0.0 -1.962000000000e+01 0.0 
0.0 -1.962000000000e+01 0.0 
0.0 -1.962000000000e+01 0.0 
0.0 -1.962000000000e+01 0.0 
0.0 -1.962000000000e+01 0.0 
0.0 -1.962000000000e+01 0.0 
0.0 -1.962000000000e+01 0.0 
0.0 -1.962000000000e+01 0.0 
0.0 -1.962000000000e+01 0.0 
0.0 -1.962000000000e+01 0.0 
0.0 -1.962000000000e+01 0.0 
0.0 -1.962000000000e+01 0.0 
0.0 -1.962000000000e+01 0.0 
0.0 -1.962000000000e+01 0.0 
0.0 -1.962000000000e+01 0.0 
0.0 -1.962000000000e+01 0.0 
0.0 -1.962000000000e+01 0.0 
0.0 -1.962000000000e+01 0.0 
0.0 -1.962000000000e+01 0.0 
0.0 -1.962000000000e+01 0.0 
0.0 -1.962000000000e+01 0.0 
0.0 -1.962000000000e+01 0.0 
0.0 -1.962000000000e+01 0.0 
0.0 -1.962000000000e+01 0.0 
0.0 -1.962000000000e+01 0.0 
0.0 -1.962000000000e+01 0.0 
0.0 -1.962000000000e+01 0.0 
0.0 -1.962000000000e+01 0.0 
0.0 -1.962000000000e+01 0.0 
0.0 -1.962000000000e+01 0.0 
0.0 -1.962000000000e+01 0.0 
0.0 -1.962000000000e+01 0.0 
0.0 -1.962000000000e+01 0.0 
0.0 -1.962000000000e+01 0.0 
0.0 -1.962000000000e+01 0.0 
0.0 -1.962000000000e+01 0.0 
0.0 -1.962000000000e+01 0.0 
0.0 -1.962000000000e+01 0.0 
0.0 -1.962000000000e+01 0.0 
0.0 -1.962000000000e+01 0.0 
0.0 -1.962000000000e+01 0.0 
0.0 -1.962000000000e+01 0.0 
0.0 -1.962000000000e+01 0.0 
0.0 -1.962000000000e+01 0.0 
0.0 -1.962000000000e+01 0.0 
0.0 -1.962000000000e+01 0.0 
0.0 -1.962000000000e+01 0.0 
0.0 -1.962000000000e+01 0.0 
0.0 -1.962000000000e+01 0.0 
0.0 -1.962000000000e+01 0.0 
0.0 -1.962000000000e+01 0.0 
0.0 -1.962000000000e+01 0.0 
0.0 -1.962000000000e+01 0.0 
0.0 -1.962000000000e+01 0.0 
0.0 -1.962000000000e+01 0.0 
0.0 -1.962000000000e+01 0.0 
0.0 -1.962000000000e+01 0.0 
0.0 -1.962000000000e+01 0.0 
0.0 -1.962000000000e+01 0.0 
0.0 -1.962000000000e+01 0.0 
0.0 -1.962000000000e+01 0.0 
0.0 -1.962000000000e+01 0.0 
0.0 -1.962000000000e+01 0.0 
0.0 -1.962000000000e+01 0.0 
0.0 -1.962000000000e+01 0.0 
0.0 -1.962000000000e+01 0.0 
0.0 -1.962000000000e+01 0.0 
0.0 -1.962000000000e+01 0.0 
0.0 -1.962000000000e+01 0.0 
0.0 -1.962000000000e+01 0.0 
0.0 -1.962000000000e+01 0.0 
0.0 -1.962000000000e+01 0.0 
0.0 -1.962000000000e+01 0.0 
0.0 -1.962000000000e+01 0.0 
0.0 -1.962000000000e+01 0.0 
0.0 -1.962000000000e+01 0.0 
0.0 -1.962000000000e+01 0.0 
0.0 -1.962000000000e+01 0.0 
0.0 -1.962000000000e+01 0.0 
0.0 -1.962000000000e+01 0.0 
0.0 -1.962000000000e+01 0.0 
0.0 -1.962000000000e+01 0.0 
0.0 -1.962000000000e+01 0.0 
0.0 -1.962000000000e+01 0.0 
0.0 -1.962000000000e+01 0.0 
0.0 -1.962000000000e+01 0.0 
0.0 -1.962000000000e+01 0.0 
0.0 -1.962000000000e+01 0.0 
0.0 -1.962000000000e+01 0.0 
0.0 -1.962000000000e+01 0.0 
0.0 -1.962000000000e+01 0.0 
0.0 -1.962000000000e+01 0.0 
0.0 -1.962000000000e+01 0.0 
0.0 -1.962000000000e+01 0.0 
0.0 -1.962000000000e+01 0.0 
0.0 -1.962000000000e+01 0.0 
0.0 -1.962000000000e+01 0.0 
0.0 -1.962000000000e+01 0.0 
0.0 -1.962000000000e+01 0.0 
0.0 -1.962000000000e+01 0.0 
0.0 -1.962000000000e+01 0.0 
0.0 -1.962000000000e+01 0.0 
0.0 -1.962000000000e+01 0.0 
0.0 -1.962000000000e+01 0.0 
0.0 -1.962000000000e+01 0.0 
0.0 -1.962000000000e+01 0.0 
0.0 -1.962000000000e+01 0.0 
0.0 -1.962000000000e+01 0.0 
0.0 -1.962000000000e+01 0.0 
0.0 -1.962000000000e+01 0.0 
0.0 -1.962000000000e+01 0.0 
0.0 -1.962000000000e+01 0.0 
0.0 -1.962000000000e+01 0.0 
0.0 -1.962000000000e+01 0.0 
0.0 -1.962000000000e+01 0.0 
0.0 -1.962000000000e+01 0.0 
0.0 -1.962000000000e+01 0.0 
0.0 -1.962000000000e+01 0.0 
0.0 -1.962000000000e+01 0.0 
0.0 -1.962000000000e+01 0.0 
0.0 -1.962000000000e+01 0.0 
0.0 -1.962000000000e+01 0.0 
0.0 -1.962000000000e+01 0.0 
0.0 -1.962000000000e+01 0.0 
0.0 -1.962000000000e+01 0.0 
0.0 -1.962000000000e+01 0.0 
0.0 -1.962000000000e+01 0.0 
0.0 -1.962000000000e+01 0.0 
0.0 -1.962000000000e+01 0.0 
0.0 -1.962000000000e+01 0.0 
0.0 -1.962000000000e+01 0.0 
0.0 -1.962000000000e+01 0.0 
0.0 -1.962000000000e+01 0.0 
0.0 -1.962000000000e+01 0.0 
0.0 -1.962000000000e+01 0.0 
0.0 -1.962000000000e+01 0.0 
0.0 -1.962000000000e+01 0.0 
0.0 -1.962000000000e+01 0.0 
0.0 -1.962000000000e+01 0.0 
0.0 -1.962000000000e+01 0.0 
0.0 -1.962000000000e+01 0.0 
0.0 -1.962000000000e+01 0.0 
0.0 -1.962000000000e+01 0.0 
0.0 -1.962000000000e+01 0.0 
0.0 -1.962000000000e+01 0.0 
0.0 -1.962000000000e+01 0.0 
0.0 -1.962000000000e+01 0.0 
0.0 -1.962000000000e+01 0.0 
0.0 -1.962000000000e+01 0.0 
0.0 -1.962000000000e+01 0.0 
0.0 -1.962000000000e+01 0.0 
0.0 -1.962000000000e+01 0.0 
0.0 -1.962000000000e+01 0.0 
0.0 -1.962000000000e+01 0.0 
0.0 -1.962000000000e+01 0.0 
0.0 -1.962000000000e+01 0.0 
0.0 -1.962000000000e+01 0.0 
0.0 -1.962000000000e+01 0.0 
0.0 -1.962000000000e+01 0.0 
0.0 -1.962000000000e+01 0.0 
0.0 -1.962000000000e+01 0.0 
0.0 -1.962000000000e+01 0.0 
0.0 -1.962000000000e+01 0.0 
0.0 -1.962000000000e+01 0.0 
0.0 -1.962000000000e+01 0.0 
0.0 -1.962000000000e+01 0.0 
0.0 -1.962000000000e+01 0.0 
0.0 -1.962000000000e+01 0.0 
0.0 -1.962000000000e+01 0.0 
0.0 -1.962000000000e+01 0.0 
0.0 -1.962000000000e+01 0.0 
0.0 -1.962000000000e+01 0.0 
0.0 -1.962000000000e+01 0.0 
0.0 -1.962000000000e+01 0.0 
0.0 -1.962000000000e+01 0.0 
0.0 -1.962000000000e+01 0.0 
0.0 -1.962000000000e+01 0.0 
0.0 -1.962000000000e+01 0.0 
0.0 -1.962000000000e+01 0.0 
0.0 -1.962000000000e+01 0.0 
0.0 -1.962000000000e+01 0.0 
0.0 -1.962000000000e+01 0.0 
0.0 -1.962000000000e+01 0.0 
0.0 -1.962000000000e+01 0.0 
0.0 -1.962000000000e+01 0.0 
0.0 -1.962000000000e+01 0.0 
0.0 -1.962000000000e+01 0.0 
0.0 -1.962000000000e+01 0.0 
0.0 -1.962000000000e+01 0.0 
0.0 -1.962000000000e+01 0.0 
0.0 -1.962000000000e+01 0.0 
0.0 -1.962000000000e+01 0.0 
0.0 -1.962000000000e+01 0.0 
0.0 -1.962000000000e+01 0.0 
0.0 -1.962000000000e+01 0.0 
0.0 -1.962000000000e+01 0.0 
0.0 -1.962000000000e+01 0.0 
0.0 -1.962000000000e+01 0.0 
0.0 -1.962000000000e+01 0.0 
0.0 -1.962000000000e+01 0.0 
0.0 -1.962000000000e+01 0.0 
0.0 -1.962000000000e+01 0.0 
0.0 -1.962000000000e+01 0.0 
0.0 -1.962000000000e+01 0.0 
0.0 -1.962000000000e+01 0.0 
0.0 -1.962000000000e+01 0.0 
0.0 -1.962000000000e+01 0.0 
0.0 -1.962000000000e+01 0.0 
0.0 -1.962000000000e+01 0.0 
0.0 -1.962000000000e+01 0.0 
0.0 -1.962000000000e+01 0.0 
0.0 -1.962000000000e+01 0.0 
0.0 -1.962000000000e+01 0.0 
0.0 -1.962000000000e+01 0.0 
0.0 -1.962000000000e+01 0.0 
0.0 -1.962000000000e+01 0.0 
0.0 -1.962000000000e+01 0.0 
0.0 -1.962000000000e+01 0.0 
0.0 -1.962000000000e+01 0.0 
0.0 -1.962000000000e+01 0.0 
0.0 -1.962000000000e+01 0.0 
0.0 -1.962000000000e+01 0.0 
0.0 -1.962000000000e+01 0.0 
0.0 -1.962000000000e+01 0.0 
0.0 -1.962000000000e+01 0.0 
0.0 -1.962000000000e+01 0.0 
0.0 -1.962000000000e+01 0.0 
0.0 -1.962000000000e+01 0.0 
0.0 -1.962000000000e+01 0.0 
0.0 -1.962000000000e+01 0.0 
0.0 -1.962000000000e+01 0.0 
0.0 -1.962000000000e+01 0.0 
0.0 -1.962000000000e+01 0.0 
0.0 -1.962000000000e+01 0.0 
0.0 -1.962000000000e+01 0.0 
0.0 -1.962000000000e+01 0.0 
0.0 -1.962000000000e+01 0.0 
0.0 -1.962000000000e+01 0.0 
0.0 -1.962000000000e+01 0.0 
0.0 -1.962000000000e+01 0.0 
0.0 -1.962000000000e+01 0.0 
0.0 -1.962000000000e+01 0.0 
0.0 -1.962000000000e+01 0.0 
0.0 -1.962000000000e+01 0.0 
0.0 -1.962000000000e+01 0.0 
0.0 -1.962000000000e+01 0.0 
0.0 -1.962000000000e+01 0.0 
0.0 -1.962000000000e+01 0.0 
0.0 -1.962000000000e+01 0.0 
0.0 -1.962000000000e+01 0.0 
0.0 -1.962000000000e+01 0.0 
0.0 -1.962000000000e+01 0.0 
0.0 -1.962000000000e+01 0.0 
0.0 -1.962000000000e+01 0.0 
0.0 -1.962000000000e+01 0.0 
0.0 -1.962000000000e+01 0.0 
0.0 -1.962000000000e+01 0.0 
0.0 -1.962000000000e+01 0.0 
0.0 -1.962000000000e+01 0.0 
0.0 -1.962000000000e+01 0.0 
0.0 -1.962000000000e+01 0.0 
0.0 -1.962000000000e+01 0.0 
0.0 -1.962000000000e+01 0.0 
0.0 -1.962000000000e+01 0.0 
0.0 -1.962000000000e+01 0.0 
0.0 -1.962000000000e+01 0.0 
0.0 -1.962000000000e+01 0.0 
0.0 -1.962000000000e+01 0.0 
0.0 -1.962000000000e+01 0.0 
0.0 -1.962000000000e+01 0.0 
0.0 -1.962000000000e+01 0.0 
0.0 -1.962000000000e+01 0.0 
0.0 -1.962000000000e+01 0.0 
0.0 -1.962000000000e+01 0.0 
0.0 -1.962000000000e+01 0.0 
0.0 -1.962000000000e+01 0.0 
0.0 -1.962000000000e+01 0.0 
0.0 -1.962000000000e+01 0.0 
0.0 -1.962000000000e+01 0.0 
0.0 -1.962000000000e+01 0.0 
0.0 -1.962000000000e+01 0.0 
0.0 -1.962000000000e+01 0.0 
0.0 -1.962000000000e+01 0.0 
0.0 -1.962000000000e+01 0.0 
0.0 -1.962000000000e+01 0.0 
0.0 -1.962000000000e+01 0.0 
0.0 -1.962000000000e+01 0.0 
0.0 -1.962000000000e+01 0.0 
0.0 -1.962000000000e+01 0.0 
0.0 -1.962000000000e+01 0.0 
0.0 -1.962000000000e+01 0.0 
0.0 -1.962000000000e+01 0.0 
0.0 -1.962000000000e+01 0.0 
0.0 -1.962000000000e+01 0.0 
0.0 -1.962000000000e+01 0.0 
0.0 -1.962000000000e+01 0.0 
0.0 -1.962000000000e+01 0.0 
0.0 -1.962000000000e+01 0.0 
0.0 -1.962000000000e+01 0.0 
0.0 -1.962000000000e+01 0.0 
0.0 -1.962000000000e+01 0.0 
0.0 -1.962000000000e+01 0.0 
0.0 -1.962000000000e+01 0.0 
0.0 -1.962000000000e+01 0.0 
0.0 -1.962000000000e+01 0.0 
0.0 -1.962000000000e+01 0.0 
0.0 -1.962000000000e+01 0.0 
0.0 -1.962000000000e+01 0.0 
0.0 -1.962000000000e+01 0.0 
0.0 -1.962000000000e+01 0.0 
0.0 -1.962000000000e+01 0.0 
0.0 -1.962000000000e+01 0.0 
0.0 -1.962000000000e+01 0.0 
0.0 -1.962000000000e+01 0.0 
0.0 -1.962000000000e+01 0.0 
0.0 -1.962000000000e+01 0.0 
0.0 -1.962000000000e+01 0.0 
0.0 -1.962000000000e+01 0.0 
0.0 -1.962000000000e+01 0.0 
0.0 -1.962000000000e+01 0.0 
0.0 -1.962000000000e+01 0.0 
0.0 -1.962000000000e+01 0.0 
0.0 -1.962000000000e+01 0.0 
0.0 -1.962000000000e+01 0.0 
0.0 -1.962000000000e+01 0.0 
0.0 -1.962000000000e+01 0.0 
0.0 -1.962000000000e+01 0.0 
0.0 -1.962000000000e+01 0.0 
0.0 -1.962000000000e+01 0.0 
0.0 -1.962000000000e+01 0.0 
0.0 -1.962000000000e+01 0.0 
0.0 -1.962000000000e+01 0.0 
0.0 -1.962000000000e+01 0.0 
0.0 -1.962000000000e+01 0.0 
0.0 -1.962000000000e+01 0.0 
0.0 -1.962000000000e+01 0.0 
0.0 -1.962000000000e+01 0.0 
0.0 -1.962000000000e+01 0.0 
0.0 -1.962000000000e+01 0.0 
0.0 -1.962000000000e+01 0.0 
0.0 -1.962000000000e+01 0.0 
0.0 -1.962000000000e+01 0.0 
0.0 -1.962000000000e+01 0.0 
0.0 -1.962000000000e+01 0.0 
0.0 -1.962000000000e+01 0.0 
0.0 -1.962000000000e+01 0.0 
0.0 -1.962000000000e+01 0.0 
0.0 -1.962000000000e+01 0.0 
0.0 -1.962000000000e+01 0.0 
0.0 -1.962000000000e+01 0.0 
0.0 -1.962000000000e+01 0.0 
0.0 -1.962000000000e+01 0.0 
0.0 -1.962000000000e+01 0.0 
0.0 -1.962000000000e+01 0.0 
0.0 -1.962000000000e+01 0.0 
0.0 -1.962000000000e+01 0.0 
0.0 -1.962000000000e+01 0.0 
0.0 -1.962000000000e+01 0.0 
0.0 -1.962000000000e+01 0.0 
0.0 -1.962000000000e+01 0.0 
0.0 -1.962000000000e+01 0.0 
0.0 -1.962000000000e+01 0.0 
0.0 -1.962000000000e+01 0.0 
0.0 -1.962000000000e+01 0.0 
0.0 -1.962000000000e+01 0.0 
0.0 -1.962000000000e+01 0.0 
0.0 -1.962000000000e+01 0.0 
0.0 -1.962000000000e+01 0.0 
0.0 -1.962000000000e+01 0.0 
0.0 -1.962000000000e+01 0.0 
0.0 -1.962000000000e+01 0.0 
0.0 -1.962000000000e+01 0.0 
0.0 -1.962000000000e+01 0.0 
0.0 -1.962000000000e+01 0.0 
0.0 -1.962000000000e+01 0.0 
0.0 -1.962000000000e+01 0.0 
0.0 -1.962000000000e+01 0.0 
0.0 -1.962000000000e+01 0.0 
0.0 -1.962000000000e+01 0.0 
0.0 -1.962000000000e+01 0.0 
0.0 -1.962000000000e+01 0.0 
0.0 -1.962000000000e+01 0.0 
0.0 -1.962000000000e+01 0.0 
0.0 -1.962000000000e+01 0.0 
0.0 -1.962000000000e+01 0.0 
0.0 -1.962000000000e+01 0.0 
0.0 -1.962000000000e+01 0.0 
0.0 -1.962000000000e+01 0.0 
0.0 -1.962000000000e+01 0.0 
0.0 -1.962000000000e+01 0.0 
0.0 -1.962000000000e+01 0.0 
0.0 -1.962000000000e+01 0.0 
0.0 -1.962000000000e+01 0.0 
0.0 -1.962000000000e+01 0.0 
0.0 -1.962000000000e+01 0.0 
0.0 -1.962000000000e+01 0.0 
0.0 -1.962000000000e+01 0.0 
0.0 -1.962000000000e+01 0.0 
0.0 -1.962000000000e+01 0.0 
0.0 -1.962000000000e+01 0.0 
0.0 -1.962000000000e+01 0.0 
0.0 -1.962000000000e+01 0.0 
0.0 -1.962000000000e+01 0.0 
0.0 -1.962000000000e+01 0.0 
0.0 -1.962000000000e+01 0.0 
0.0 -1.962000000000e+01 0.0 
0.0 -1.962000000000e+01 0.0 
0.0 -1.962000000000e+01 0.0 
0.0 -1.962000000000e+01 0.0 
0.0 -1.962000000000e+01 0.0 
0.0 -1.962000000000e+01 0.0 
0.0 -1.962000000000e+01 0.0 
0.0 -1.962000000000e+01 0.0 
0.0 -1.962000000000e+01 0.0 
0.0 -1.962000000000e+01 0.0 
0.0 -1.962000000000e+01 0.0 
0.0 -1.962000000000e+01 0.0 
0.0 -1.962000000000e+01 0.0 
0.0 -1.962000000000e+01 0.0 
0.0 -1.962000000000e+01 0.0 
0.0 -1.962000000000e+01 0.0 
0.0 -1.962000000000e+01 0.0 
0.0 -1.962000000000e+01 0.0 
0.0 -1.962000000000e+01 0.0 
0.0 -1.962000000000e+01 0.0 
0.0 -1.962000000000e+01 0.0 
0.0 -1.962000000000e+01 0.0 
0.0 -1.962000000000e+01 0.0 
0.0 -1.962000000000e+01 0.0 
0.0 -1.962000000000e+01 0.0 
0.0 -1.962000000000e+01 0.0 
0.0 -1.962000000000e+01 0.0 
0.0 -1.962000000000e+01 0.0 
0.0 -1.962000000000e+01 0.0 
0.0 -1.962000000000e+01 0.0 
0.0 -1.962000000000e+01 0.0 
0.0 -1.962000000000e+01 0.0 
0.0 -1.962000000000e+01 0.0 
0.0 -1.962000000000e+01 0.0 
0.0 -1.962000000000e+01 0.0 
0.0 -1.962000000000e+01 0.0 
0.0 -1.962000000000e+01 0.0 
0.0 -1.962000000000e+01 0.0 
0.0 -1.962000000000e+01 0.0 
0.0 -1.962000000000e+01 0.0 
0.0 -1.962000000000e+01 0.0 
0.0 -1.962000000000e+01 0.0 
0.0 -1.962000000000e+01 0.0 
0.0 -1.962000000000e+01 0.0 
0.0 -1.962000000000e+01 0.0 
0.0 -1.962000000000e+01 0.0 
0.0 -1.962000000000e+01 0.0 
0.0 -1.962000000000e+01 0.0 
0.0 -1.962000000000e+01 0.0 
0.0 -1.962000000000e+01 0.0 
0.0 -1.962000000000e+01 0.0 
0.0 -1.962000000000e+01 0.0 
0.0 -1.962000000000e+01 0.0 
0.0 -1.962000000000e+01 0.0 
0.0 -1.962000000000e+01 0.0 
0.0 -1.962000000000e+01 0.0 
0.0 -1.962000000000e+01 0.0 
0.0 -1.962000000000e+01 0.0 
0.0 -1.962000000000e+01 0.0 
0.0 -1.962000000000e+01 0.0 
0.0 -1.962000000000e+01 0.0 
0.0 -1.962000000000e+01 0.0 
0.0 -1.962000000000e+01 0.0 
0.0 -1.962000000000e+01 0.0 
0.0 -1.962000000000e+01 0.0 
0.0 -1.962000000000e+01 0.0 
0.0 -1.962000000000e+01 0.0 
0.0 -1.962000000000e+01 0.0 
0.0 -1.962000000000e+01 0.0 
0.0 -1.962000000000e+01 0.0 
0.0 -1.962000000000e+01 0.0 
0.0 -1.962000000000e+01 0.0 
0.0 -1.962000000000e+01 0.0 
0.0 -1.962000000000e+01 0.0 
0.0 -1.962000000000e+01 0.0 
0.0 -1.962000000000e+01 0.0 
0.0 -1.962000000000e+01 0.0 
0.0 -1.962000000000e+01 0.0 
0.0 -1.962000000000e+01 0.0 
0.0 -1.962000000000e+01 0.0 
0.0 -1.962000000000e+01 0.0 
0.0 -1.962000000000e+01 0.0 
0.0 -1.962000000000e+01 0.0 
0.0 -1.962000000000e+01 0.0 
0.0 -1.962000000000e+01 0.0 
0.0 -1.962000000000e+01 0.0 
0.0 -1.962000000000e+01 0.0 
0.0 -1.962000000000e+01 0.0 
0.0 -1.962000000000e+01 0.0 
0.0 -1.962000000000e+01 0.0 
0.0 -1.962000000000e+01 0.0 
0.0 -1.962000000000e+01 0.0 
0.0 -1.962000000000e+01 0.0 
0.0 -1.962000000000e+01 0.0 
0.0 -1.962000000000e+01 0.0 
0.0 -1.962000000000e+01 0.0 
0.0 -1.962000000000e+01 0.0 
0.0 -1.962000000000e+01 0.0 
0.0 -1.962000000000e+01 0.0 
0.0 -1.962000000000e+01 0.0 
0.0 -1.962000000000e+01 0.0 
0.0 -1.962000000000e+01 0.0 
0.0 -1.962000000000e+01 0.0 
0.0 -1.962000000000e+01 0.0 
0.0 -1.962000000000e+01 0.0 
0.0 -1.962000000000e+01 0.0 
0.0 -1.962000000000e+01 0.0 
0.0 -1.962000000000e+01 0.0 
0.0 -1.962000000000e+01 0.0 
0.0 -1.962000000000e+01 0.0 
0.0 -1.962000000000e+01 0.0 
0.0 -1.962000000000e+01 0.0 
0.0 -1.962000000000e+01 0.0 
0.0 -1.962000000000e+01 0.0 
0.0 -1.962000000000e+01 0.0 
0.0 -1.962000000000e+01 0.0 
0.0 -1.962000000000e+01 0.0 
0.0 -1.962000000000e+01 0.0 
0.0 -1.962000000000e+01 0.0 
0.0 -1.962000000000e+01 0.0 
0.0 -1.962000000000e+01 0.0 
0.0 -1.962000000000e+01 0.0 
0.0 -1.962000000000e+01 0.0 
0.0 -1.962000000000e+01 0.0 
0.0 -1.962000000000e+01 0.0 
0.0 -1.962000000000e+01 0.0 
0.0 -1.962000000000e+01 0.0 
0.0 -1.962000000000e+01 0.0 
0.0 -1.962000000000e+01 0.0 
0.0 -1.962000000000e+01 0.0 
0.0 -1.962000000000e+01 0.0 
0.0 -1.962000000000e+01 0.0 
0.0 -1.962000000000e+01 0.0 
0.0 -1.962000000000e+01 0.0 
0.0 -1.962000000000e+01 0.0 
0.0 -1.962000000000e+01 0.0 
0.0 -1.962000000000e+01 0.0 
0.0 -1.962000000000e+01 0.0 
0.0 -1.962000000000e+01 0.0 
0.0 -1.962000000000e+01 0.0 
0.0 -1.962000000000e+01 0.0 
0.0 -1.962000000000e+01 0.0 
0.0 -1.962000000000e+01 0.0 
0.0 -1.962000000000e+01 0.0 
0.0 -1.962000000000e+01 0.0 
0.0 -1.962000000000e+01 0.0 
0.0 -1.962000000000e+01 0.0 
0.0 -1.962000000000e+01 0.0 
0.0 -1.962000000000e+01 0.0 
0.0 -1.962000000000e+01 0.0 
0.0 -1.962000000000e+01 0.0 
0.0 -1.962000000000e+01 0.0 
0.0 -1.962000000000e+01 0.0 
0.0 -1.962000000000e+01 0.0 
0.0 -1.962000000000e+01 0.0 
0.0 -1.962000000000e+01 0.0 
0.0 -1.962000000000e+01 0.0 
0.0 -1.962000000000e+01 0.0 
0.0 -1.962000000000e+01 0.0 
0.0 -1.962000000000e+01 0.0 
0.0 -1.962000000000e+01 0.0 
0.0 -1.962000000000e+01 0.0 
0.0 -1.962000000000e+01 0.0 
0.0 -1.962000000000e+01 0.0 
0.0 -1.962000000000e+01 0.0 
0.0 -1.962000000000e+01 0.0 
0.0 -1.962000000000e+01 0.0 
0.0 -1.962000000000e+01 0.0 
0.0 -1.962000000000e+01 0.0 
0.0 -1.962000000000e+01 0.0 
0.0 -1.962000000000e+01 0.0 
0.0 -1.962000000000e+01 0.0 
0.0 -1.962000000000e+01 0.0 
0.0 -1.962000000000e+01 0.0 
0.0 -1.962000000000e+01 0.0 
0.0 -1.962000000000e+01 0.0 
0.0 -1.962000000000e+01 0.0 
0.0 -1.962000000000e+01 0.0 
0.0 -1.962000000000e+01 0.0 
0.0 -1.962000000000e+01 0.0 
0.0 -1.962000000000e+01 0.0 
0.0 -1.962000000000e+01 0.0 
0.0 -1.962000000000e+01 0.0 
0.0 -1.962000000000e+01 0.0 
0.0 -1.962000000000e+01 0.0 
0.0 -1.962000000000e+01 0.0 
0.0 -1.962000000000e+01 0.0 
0.0 -1.962000000000e+01 0.0 
0.0 -1.962000000000e+01 0.0 
0.0 -1.962000000000e+01 0.0 
0.0 -1.962000000000e+01 0.0 
0.0 -1.962000000000e+01 0.0 
0.0 -1.962000000000e+01 0.0 
0.0 -1.962000000000e+01 0.0 
0.0 -1.962000000000e+01 0.0 
0.0 -1.962000000000e+01 0.0 
0.0 -1.962000000000e+01 0.0 
0.0 -1.962000000000e+01 0.0 
0.0 -1.962000000000e+01 0.0 
0.0 -1.962000000000e+01 0.0 
0.0 -1.962000000000e+01 0.0 
0.0 -1.962000000000e+01 0.0 
0.0 -1.962000000000e+01 0.0 
0.0 -1.962000000000e+01 0.0 
0.0 -1.962000000000e+01 0.0 
0.0 -1.962000000000e+01 0.0 
0.0 -1.962000000000e+01 0.0 
0.0 -1.962000000000e+01 0.0 
0.0 -1.962000000000e+01 0.0 
0.0 -1.962000000000e+01 0.0 
0.0 -1.962000000000e+01 0.0 
0.0 -1.962000000000e+01 0.0 
0.0 -1.962000000000e+01 0.0 
0.0 -1.962000000000e+01 0.0 
0.0 -1.962000000000e+01 0.0 
0.0 -1.962000000000e+01 0.0 
0.0 -1.962000000000e+01 0.0 
0.0 -1.962000000000e+01 0.0 
0.0 -1.962000000000e+01 0.0 
0.0 -1.962000000000e+01 0.0 
0.0 -1.962000000000e+01 0.0 
0.0 -1.962000000000e+01 0.0 
0.0 -1.962000000000e+01 0.0 
0.0 -1.962000000000e+01 0.0 
0.0 -1.962000000000e+01 0.0 
0.0 -1.962000000000e+01 0.0 
0.0 -1.962000000000e+01 0.0 
0.0 -1.962000000000e+01 0.0 
0.0 -1.962000000000e+01 0.0 
0.0 -1.962000000000e+01 0.0 
0.0 -1.962000000000e+01 0.0 
0.0 -1.962000000000e+01 0.0 
0.0 -1.962000000000e+01 0.0 
0.0 -1.962000000000e+01 0.0 
0.0 -1.962000000000e+01 0.0 
0.0 -1.962000000000e+01 0.0 
0.0 -1.962000000000e+01 0.0 
0.0 -1.962000000000e+01 0.0 
0.0 -1.962000000000e+01 0.0 
0.0 -1.962000000000e+01 0.0 
0.0 -1.962000000000e+01 0.0 
0.0 -1.962000000000e+01 0.0 
0.0 -1.962000000000e+01 0.0 
0.0 -1.962000000000e+01 0.0 
0.0 -1.962000000000e+01 0.0 
0.0 -1.962000000000e+01 0.0 
0.0 -1.962000000000e+01 0.0 
0.0 -1.962000000000e+01 0.0 
0.0 -1.962000000000e+01 0.0 
0.0 -1.962000000000e+01 0.0 
0.0 -1.962000000000e+01 0.0 
0.0 -1.962000000000e+01 0.0 
0.0 -1.962000000000e+01 0.0 
0.0 -1.962000000000e+01 0.0 
0.0 -1.962000000000e+01 0.0 
0.0 -1.962000000000e+01 0.0 
0.0 -1.962000000000e+01 0.0 
0.0 -1.962000000000e+01 0.0 
0.0 -1.962000000000e+01 0.0 
0.0 -1.962000000000e+01 0.0 
0.0 -1.962000000000e+01 0.0 
0.0 -1.962000000000e+01 0.0 
0.0 -1.962000000000e+01 0.0 
0.0 -1.962000000000e+01 0.0 
0.0 -1.962000000000e+01 0.0 
0.0 -1.962000000000e+01 0.0 
0.0 -1.962000000000e+01 0.0 
0.0 -1.962000000000e+01 0.0 
0.0 -1.962000000000e+01 0.0 
0.0 -1.962000000000e+01 0.0 
0.0 -1.962000000000e+01 0.0 
0.0 -1.962000000000e+01 0.0 
0.0 -1.962000000000e+01 0.0 
0.0 -1.962000000000e+01 0.0 
0.0 -1.962000000000e+01 0.0 
0.0 -1.962000000000e+01 0.0 
0.0 -1.962000000000e+01 0.0 
0.0 -1.962000000000e+01 0.0 
0.0 -1.962000000000e+01 0.0 
0.0 -1.962000000000e+01 0.0 
0.0 -1.962000000000e+01 0.0 
0.0 -1.962000000000e+01 0.0 
0.0 -1.962000000000e+01 0.0 
0.0 -1.962000000000e+01 0.0 
0.0 -1.962000000000e+01 0.0 
0.0 -1.962000000000e+01 0.0 
0.0 -1.962000000000e+01 0.0 
0.0 -1.962000000000e+01 0.0 
0.0 -1.962000000000e+01 0.0 
0.0 -1.962000000000e+01 0.0 
0.0 -1.962000000000e+01 0.0 
0.0 -1.962000000000e+01 0.0 
0.0 -1.962000000000e+01 0.0 
0.0 -1.962000000000e+01 0.0 
0.0 -1.962000000000e+01 0.0 
0.0 -1.962000000000e+01 0.0 
0.0 -1.962000000000e+01 0.0 
0.0 -1.962000000000e+01 0.0 
0.0 -1.962000000000e+01 0.0 
0.0 -1.962000000000e+01 0.0 
0.0 -1.962000000000e+01 0.0 
0.0 -1.962000000000e+01 0.0 
0.0 -1.962000000000e+01 0.0 
0.0 -1.962000000000e+01 0.0 
0.0 -1.962000000000e+01 0.0 
0.0 -1.962000000000e+01 0.0 
0.0 -1.962000000000e+01 0.0 
0.0 -1.962000000000e+01 0.0 
0.0 -1.962000000000e+01 0.0 
0.0 -1.962000000000e+01 0.0 
0.0 -1.962000000000e+01 0.0 
0.0 -1.962000000000e+01 0.0 
0.0 -1.962000000000e+01 0.0 
0.0 -1.962000000000e+01 0.0 
0.0 -1.962000000000e+01 0.0 
0.0 -1.962000000000e+01 0.0 
0.0 -1.962000000000e+01 0.0 
0.0 -1.962000000000e+01 0.0 
0.0 -1.962000000000e+01 0.0 
0.0 -1.962000000000e+01 0.0 
0.0 -1.962000000000e+01 0.0 
0.0 -1.962000000000e+01 0.0 
0.0 -1.962000000000e+01 0.0 
0.0 -1.962000000000e+01 0.0 
0.0 -1.962000000000e+01 0.0 
0.0 -1.962000000000e+01 0.0 
0.0 -1.962000000000e+01 0.0 
0.0 -1.962000000000e+01 0.0 
0.0 -1.962000000000e+01 0.0 
0.0 -1.962000000000e+01 0.0 
0.0 -1.962000000000e+01 0.0 
0.0 -1.962000000000e+01 0.0 
0.0 -1.962000000000e+01 0.0 
0.0 -1.962000000000e+01 0.0 
0.0 -1.962000000000e+01 0.0 
0.0 -1.962000000000e+01 0.0 
0.0 -1.962000000000e+01 0.0 
0.0 -1.962000000000e+01 0.0 
0.0 -1.962000000000e+01 0.0 
0.0 -1.962000000000e+01 0.0 
0.0 -1.962000000000e+01 0.0 
0.0 -1.962000000000e+01 0.0 
0.0 -1.962000000000e+01 0.0 
0.0 -1.962000000000e+01 0.0 
0.0 -1.962000000000e+01 0.0 
0.0 -1.962000000000e+01 0.0 
0.0 -1.962000000000e+01 0.0 
0.0 -1.962000000000e+01 0.0 
0.0 -1.962000000000e+01 0.0 
0.0 -1.962000000000e+01 0.0 
0.0 -1.962000000000e+01 0.0 
0.0 -1.962000000000e+01 0.0 
0.0 -1.962000000000e+01 0.0 
0.0 -1.962000000000e+01 0.0 
0.0 -1.962000000000e+01 0.0 
0.0 -1.962000000000e+01 0.0 
0.0 -1.962000000000e+01 0.0 
0.0 -1.962000000000e+01 0.0 
0.0 -1.962000000000e+01 0.0 
0.0 -1.962000000000e+01 0.0 
0.0 -1.962000000000e+01 0.0 
0.0 -1.962000000000e+01 0.0 
0.0 -1.962000000000e+01 0.0 
0.0 -1.962000000000e+01 0.0 
0.0 -1.962000000000e+01 0.0 
0.0 -1.962000000000e+01 0.0 
0.0 -1.962000000000e+01 0.0 
0.0 -1.962000000000e+01 0.0 
0.0 -1.962000000000e+01 0.0 
0.0 -1.962000000000e+01 0.0 
0.0 -1.962000000000e+01 0.0 
0.0 -1.962000000000e+01 0.0 
0.0 -1.962000000000e+01 0.0 
0.0 -1.962000000000e+01 0.0 
0.0 -1.962000000000e+01 0.0 
0.0 -1.962000000000e+01 0.0 
0.0 -1.962000000000e+01 0.0 
0.0 -1.962000000000e+01 0.0 
0.0 -1.962000000000e+01 0.0 
0.0 -1.962000000000e+01 0.0 
0.0 -1.962000000000e+01 0.0 
0.0 -1.962000000000e+01 0.0 
0.0 -1.962000000000e+01 0.0 
0.0 -1.962000000000e+01 0.0 
0.0 -1.962000000000e+01 0.0 
0.0 -1.962000000000e+01 0.0 
0.0 -1.962000000000e+01 0.0 
0.0 -1.962000000000e+01 0.0 
0.0 -1.962000000000e+01 0.0 
0.0 -1.962000000000e+01 0.0 
0.0 -1.962000000000e+01 0.0 
0.0 -1.962000000000e+01 0.0 
0.0 -1.962000000000e+01 0.0 
0.0 -1.962000000000e+01 0.0 
0.0 -1.962000000000e+01 0.0 
0.0 -1.962000000000e+01 0.0 
0.0 -1.962000000000e+01 0.0 
0.0 -1.962000000000e+01 0.0 
0.0 -1.962000000000e+01 0.0 
0.0 -1.962000000000e+01 0.0 
0.0 -1.962000000000e+01 0.0 
0.0 -1.962000000000e+01 0.0 
0.0 -1.962000000000e+01 0.0 
0.0 -1.962000000000e+01 0.0 
0.0 -1.962000000000e+01 0.0 
0.0 -1.962000000000e+01 0.0 
0.0 -1.962000000000e+01 0.0 
0.0 -1.962000000000e+01 0.0 
0.0 -1.962000000000e+01 0.0 
0.0 -1.962000000000e+01 0.0 
0.0 -1.962000000000e+01 0.0 
0.0 -1.962000000000e+01 0.0 
0.0 -1.962000000000e+01 0.0 
0.0 -1.962000000000e+01 0.0 
0.0 -1.962000000000e+01 0.0 
0.0 -1.962000000000e+01 0.0 
0.0 -1.962000000000e+01 0.0 
0.0 -1.962000000000e+01 0.0 
0.0 -1.962000000000e+01 0.0 

VECTORS node_rhside_materi_fixed float
-1.636942862162e+00 0.0 0.0 
6.926305548516e+01 0.0 0.0 
-8.187292181148e+01 -1.955793092185e+02 0.0 
7.415066238064e+01 -1.772107026972e+02 0.0 
-7.643001658209e+00 0.0 0.0 
-1.589838538079e+01 0.0 0.0 
-2.277092901338e+01 0.0 0.0 
-3.137880039281e+01 0.0 0.0 
-3.897240566050e+01 0.0 0.0 
-4.686128889617e+01 0.0 0.0 
-5.478042777804e+01 0.0 0.0 
-6.271829791302e+01 0.0 0.0 
-7.070407781554e+01 0.0 0.0 
-7.868654476678e+01 0.0 0.0 
-8.719741695390e+01 0.0 0.0 
-9.569873729516e+01 0.0 0.0 
-1.037934381025e+02 0.0 0.0 
-1.125954926608e+02 0.0 0.0 
-1.213375886366e+02 0.0 0.0 
-1.302024961648e+02 0.0 0.0 
-1.391968823287e+02 0.0 0.0 
-1.482885252935e+02 0.0 0.0 
-1.579238443090e+02 0.0 0.0 
7.181119173184e-02 -3.533916503719e+02 0.0 
2.254918237524e-02 -3.544488598403e+02 0.0 
1.306630109570e+00 -3.536992517183e+02 0.0 
1.558036106017e-01 -3.538274464053e+02 0.0 
1.172285809181e+00 -3.544131084541e+02 0.0 
1.313176633389e+00 -3.538807532980e+02 0.0 
1.316022653545e+00 -3.543588266675e+02 0.0 
1.641393727199e+00 -3.547999241543e+02 0.0 
2.541245376276e+00 -3.542987465364e+02 0.0 
1.652963442545e+00 -3.546444028369e+02 0.0 
2.700535799422e+00 -3.554732733809e+02 0.0 
3.049558091898e+00 -3.550933684449e+02 0.0 
3.188467367949e+00 -3.559473539072e+02 0.0 
3.479584318911e+00 -3.561077947121e+02 0.0 
3.986477864155e+00 -3.564887203393e+02 0.0 
4.070013254477e+00 -3.574271227132e+02 0.0 
5.064701735437e+00 -3.579903447053e+02 0.0 
5.423700004222e+00 -3.588318022438e+02 0.0 
5.878100276966e+00 -3.596346246010e+02 0.0 
6.312491794580e+00 -3.603414490515e+02 0.0 
6.369627886859e+00 -3.614979066205e+02 0.0 
7.110119905584e+00 -3.629525880901e+02 0.0 
7.355022287872e+00 -3.640623003588e+02 0.0 
7.795518921050e+00 -3.654167554313e+02 0.0 
8.126265215451e+00 -3.671683096980e+02 0.0 
8.323875885715e+00 -3.685065382981e+02 0.0 
8.459888338596e+00 -3.699277557451e+02 0.0 
8.470689451225e+00 -3.717242318230e+02 0.0 
8.460180572869e+00 -3.736030419374e+02 0.0 
8.793660899853e+00 -3.749991709086e+02 0.0 
7.771194988298e+00 -3.762901831993e+02 0.0 
7.897574366728e+00 -3.786035060666e+02 0.0 
7.706453287062e+00 -3.795834433848e+02 0.0 
7.417744868168e+00 -3.811941964422e+02 0.0 
6.853467029787e+00 -3.824368947727e+02 0.0 
6.546132217621e+00 -3.834925740310e+02 0.0 
5.971570131080e+00 -3.848051006378e+02 0.0 
5.433188409467e+00 -3.856595822996e+02 0.0 
4.999663784604e+00 -3.865620450649e+02 0.0 
4.466843739180e+00 -3.877026762693e+02 0.0 
4.242982327637e+00 -3.880977271827e+02 0.0 
3.572217109886e+00 -3.886361659163e+02 0.0 
3.104886104740e+00 -3.889210002123e+02 0.0 
2.664217779895e+00 -3.901178198961e+02 0.0 
1.998199397734e+00 -3.896783170589e+02 0.0 
1.574889150596e+00 -3.906342294410e+02 0.0 
1.636262335820e+00 -3.902553401495e+02 0.0 
7.536880928036e-01 -3.906499128435e+02 0.0 
4.243941851374e-01 -3.905918499229e+02 0.0 
7.731582623883e+01 0.0 0.0 
8.606421513725e+01 0.0 0.0 
9.434173804814e+01 0.0 0.0 
1.024642918941e+02 0.0 0.0 
1.106531538334e+02 0.0 0.0 
1.191326916125e+02 0.0 0.0 
1.271590569119e+02 0.0 0.0 
1.348570713816e+02 0.0 0.0 
1.437074061736e+02 0.0 0.0 
0.0 0.0 0.0 
0.0 0.0 0.0 
0.0 0.0 0.0 
0.0 0.0 0.0 
0.0 0.0 0.0 
0.0 0.0 0.0 
0.0 0.0 0.0 
0.0 0.0 0.0 
0.0 0.0 0.0 
0.0 0.0 0.0 
0.0 0.0 0.0 
2.583347531384e+00 0.0 0.0 
1.056958079962e+01 0.0 0.0 
1.876746380163e+01 0.0 0.0 
2.718693945809e+01 0.0 0.0 
3.563570132603e+01 0.0 0.0 
4.409355737624e+01 0.0 0.0 
5.256262710745e+01 0.0 0.0 
6.100212828057e+01 0.0 0.0 
0.0 0.0 0.0 
0.0 0.0 0.0 
0.0 0.0 0.0 
0.0 0.0 0.0 
0.0 0.0 0.0 
0.0 0.0 0.0 
0.0 0.0 0.0 
0.0 0.0 0.0 
0.0 0.0 0.0 
0.0 0.0 0.0 
0.0 0.0 0.0 
0.0 0.0 0.0 
0.0 0.0 0.0 
0.0 0.0 0.0 
0.0 0.0 0.0 
0.0 0.0 0.0 
0.0 0.0 0.0 
0.0 0.0 0.0 
0.0 0.0 0.0 
0.0 0.0 0.0 
0.0 0.0 0.0 
0.0 0.0 0.0 
0.0 0.0 0.0 
0.0 0.0 0.0 
0.0 0.0 0.0 
0.0 0.0 0.0 
0.0 0.0 0.0 
0.0 0.0 0.0 
0.0 0.0 0.0 
0.0 0.0 0.0 
0.0 0.0 0.0 
0.0 0.0 0.0 
0.0 0.0 0.0 
0.0 0.0 0.0 
0.0 0.0 0.0 
0.0 0.0 0.0 
0.0 0.0 0.0 
0.0 0.0 0.0 
0.0 0.0 0.0 
0.0 0.0 0.0 
0.0 0.0 0.0 
0.0 0.0 0.0 
0.0 0.0 0.0 
0.0 0.0 0.0 
0.0 0.0 0.0 
0.0 0.0 0.0 
0.0 0.0 0.0 
0.0 0.0 0.0 
0.0 0.0 0.0 
0.0 0.0 0.0 
0.0 0.0 0.0 
0.0 0.0 0.0 
0.0 0.0 0.0 
0.0 0.0 0.0 
0.0 0.0 0.0 
0.0 0.0 0.0 
0.0 0.0 0.0 
0.0 0.0 0.0 
0.0 0.0 0.0 
0.0 0.0 0.0 
0.0 0.0 0.0 
0.0 0.0 0.0 
0.0 0.0 0.0 
0.0 0.0 0.0 
0.0 0.0 0.0 
0.0 0.0 0.0 
0.0 0.0 0.0 
0.0 0.0 0.0 
0.0 0.0 0.0 
0.0 0.0 0.0 
0.0 0.0 0.0 
0.0 0.0 0.0 
0.0 0.0 0.0 
0.0 0.0 0.0 
0.0 0.0 0.0 
0.0 0.0 0.0 
0.0 0.0 0.0 
0.0 0.0 0.0 
0.0 0.0 0.0 
0.0 0.0 0.0 
0.0 0.0 0.0 
0.0 0.0 0.0 
0.0 0.0 0.0 
0.0 0.0 0.0 
0.0 0.0 0.0 
0.0 0.0 0.0 
0.0 0.0 0.0 
0.0 0.0 0.0 
0.0 0.0 0.0 
0.0 0.0 0.0 
0.0 0.0 0.0 
0.0 0.0 0.0 
0.0 0.0 0.0 
0.0 0.0 0.0 
0.0 0.0 0.0 
0.0 0.0 0.0 
0.0 0.0 0.0 
0.0 0.0 0.0 
0.0 0.0 0.0 
0.0 0.0 0.0 
0.0 0.0 0.0 
0.0 0.0 0.0 
0.0 0.0 0.0 
0.0 0.0 0.0 
0.0 0.0 0.0 
0.0 0.0 0.0 
0.0 0.0 0.0 
0.0 0.0 0.0 
0.0 0.0 0.0 
0.0 0.0 0.0 
0.0 0.0 0.0 
0.0 0.0 0.0 
0.0 0.0 0.0 
0.0 0.0 0.0 
0.0 0.0 0.0 
0.0 0.0 0.0 
0.0 0.0 0.0 
0.0 0.0 0.0 
0.0 0.0 0.0 
0.0 0.0 0.0 
0.0 0.0 0.0 
0.0 0.0 0.0 
0.0 0.0 0.0 
0.0 0.0 0.0 
0.0 0.0 0.0 
0.0 0.0 0.0 
0.0 0.0 0.0 
0.0 0.0 0.0 
0.0 0.0 0.0 
0.0 0.0 0.0 
0.0 0.0 0.0 
0.0 0.0 0.0 
0.0 0.0 0.0 
0.0 0.0 0.0 
0.0 0.0 0.0 
0.0 0.0 0.0 
0.0 0.0 0.0 
0.0 0.0 0.0 
0.0 0.0 0.0 
0.0 0.0 0.0 
0.0 0.0 0.0 
0.0 0.0 0.0 
0.0 0.0 0.0 
0.0 0.0 0.0 
0.0 0.0 0.0 
0.0 0.0 0.0 
0.0 0.0 0.0 
0.0 0.0 0.0 
0.0 0.0 0.0 
0.0 0.0 0.0 
0.0 0.0 0.0 
0.0 0.0 0.0 
0.0 0.0 0.0 
0.0 0.0 0.0 
0.0 0.0 0.0 
0.0 0.0 0.0 
0.0 0.0 0.0 
0.0 0.0 0.0 
0.0 0.0 0.0 
0.0 0.0 0.0 
0.0 0.0 0.0 
0.0 0.0 0.0 
0.0 0.0 0.0 
0.0 0.0 0.0 
0.0 0.0 0.0 
0.0 0.0 0.0 
0.0 0.0 0.0 
0.0 0.0 0.0 
0.0 0.0 0.0 
0.0 0.0 0.0 
0.0 0.0 0.0 
0.0 0.0 0.0 
0.0 0.0 0.0 
0.0 0.0 0.0 
0.0 0.0 0.0 
0.0 0.0 0.0 
0.0 0.0 0.0 
0.0 0.0 0.0 
0.0 0.0 0.0 
0.0 0.0 0.0 
0.0 0.0 0.0 
0.0 0.0 0.0 
0.0 0.0 0.0 
0.0 0.0 0.0 
0.0 0.0 0.0 
0.0 0.0 0.0 
0.0 0.0 0.0 
0.0 0.0 0.0 
0.0 0.0 0.0 
0.0 0.0 0.0 
0.0 0.0 0.0 
0.0 0.0 0.0 
0.0 0.0 0.0 
0.0 0.0 0.0 
0.0 0.0 0.0 
0.0 0.0 0.0 
0.0 0.0 0.0 
0.0 0.0 0.0 
0.0 0.0 0.0 
0.0 0.0 0.0 
0.0 0.0 0.0 
0.0 0.0 0.0 
0.0 0.0 0.0 
0.0 0.0 0.0 
0.0 0.0 0.0 
0.0 0.0 0.0 
0.0 0.0 0.0 
0.0 0.0 0.0 
0.0 0.0 0.0 
0.0 0.0 0.0 
0.0 0.0 0.0 
0.0 0.0 0.0 
0.0 0.0 0.0 
0.0 0.0 0.0 
0.0 0.0 0.0 
0.0 0.0 0.0 
0.0 0.0 0.0 
0.0 0.0 0.0 
0.0 0.0 0.0 
0.0 0.0 0.0 
0.0 0.0 0.0 
0.0 0.0 0.0 
0.0 0.0 0.0 
0.0 0.0 0.0 
0.0 0.0 0.0 
0.0 0.0 0.0 
0.0 0.0 0.0 
0.0 0.0 0.0 
0.0 0.0 0.0 
0.0 0.0 0.0 
0.0 0.0 0.0 
0.0 0.0 0.0 
0.0 0.0 0.0 
0.0 0.0 0.0 
0.0 0.0 0.0 
0.0 0.0 0.0 
0.0 0.0 0.0 
0.0 0.0 0.0 
0.0 0.0 0.0 
0.0 0.0 0.0 
0.0 0.0 0.0 
0.0 0.0 0.0 
0.0 0.0 0.0 
0.0 0.0 0.0 
0.0 0.0 0.0 
0.0 0.0 0.0 
0.0 0.0 0.0 
0.0 0.0 0.0 
0.0 0.0 0.0 
0.0 0.0 0.0 
0.0 0.0 0.0 
0.0 0.0 0.0 
0.0 0.0 0.0 
0.0 0.0 0.0 
0.0 0.0 0.0 
0.0 0.0 0.0 
0.0 0.0 0.0 
0.0 0.0 0.0 
0.0 0.0 0.0 
0.0 0.0 0.0 
0.0 0.0 0.0 
0.0 0.0 0.0 
0.0 0.0 0.0 
0.0 0.0 0.0 
0.0 0.0 0.0 
0.0 0.0 0.0 
0.0 0.0 0.0 
0.0 0.0 0.0 
0.0 0.0 0.0 
0.0 0.0 0.0 
0.0 0.0 0.0 
0.0 0.0 0.0 
0.0 0.0 0.0 
0.0 0.0 0.0 
0.0 0.0 0.0 
0.0 0.0 0.0 
0.0 0.0 0.0 
0.0 0.0 0.0 
0.0 0.0 0.0 
0.0 0.0 0.0 
0.0 0.0 0.0 
0.0 0.0 0.0 
0.0 0.0 0.0 
0.0 0.0 0.0 
0.0 0.0 0.0 
0.0 0.0 0.0 
0.0 0.0 0.0 
0.0 0.0 0.0 
0.0 0.0 0.0 
0.0 0.0 0.0 
0.0 0.0 0.0 
0.0 0.0 0.0 
0.0 0.0 0.0 
0.0 0.0 0.0 
0.0 0.0 0.0 
0.0 0.0 0.0 
0.0 0.0 0.0 
0.0 0.0 0.0 
0.0 0.0 0.0 
0.0 0.0 0.0 
0.0 0.0 0.0 
0.0 0.0 0.0 
0.0 0.0 0.0 
0.0 0.0 0.0 
0.0 0.0 0.0 
0.0 0.0 0.0 
0.0 0.0 0.0 
0.0 0.0 0.0 
0.0 0.0 0.0 
0.0 0.0 0.0 
0.0 0.0 0.0 
0.0 0.0 0.0 
0.0 0.0 0.0 
0.0 0.0 0.0 
0.0 0.0 0.0 
0.0 0.0 0.0 
0.0 0.0 0.0 
0.0 0.0 0.0 
0.0 0.0 0.0 
0.0 0.0 0.0 
0.0 0.0 0.0 
0.0 0.0 0.0 
0.0 0.0 0.0 
0.0 0.0 0.0 
0.0 0.0 0.0 
0.0 0.0 0.0 
0.0 0.0 0.0 
0.0 0.0 0.0 
0.0 0.0 0.0 
0.0 0.0 0.0 
0.0 0.0 0.0 
0.0 0.0 0.0 
0.0 0.0 0.0 
0.0 0.0 0.0 
0.0 0.0 0.0 
0.0 0.0 0.0 
0.0 0.0 0.0 
0.0 0.0 0.0 
0.0 0.0 0.0 
0.0 0.0 0.0 
0.0 0.0 0.0 
0.0 0.0 0.0 
0.0 0.0 0.0 
0.0 0.0 0.0 
0.0 0.0 0.0 
0.0 0.0 0.0 
0.0 0.0 0.0 
0.0 0.0 0.0 
0.0 0.0 0.0 
0.0 0.0 0.0 
0.0 0.0 0.0 
0.0 0.0 0.0 
0.0 0.0 0.0 
0.0 0.0 0.0 
0.0 0.0 0.0 
0.0 0.0 0.0 
0.0 0.0 0.0 
0.0 0.0 0.0 
0.0 0.0 0.0 
0.0 0.0 0.0 
0.0 0.0 0.0 
0.0 0.0 0.0 
0.0 0.0 0.0 
0.0 0.0 0.0 
0.0 0.0 0.0 
0.0 0.0 0.0 
0.0 0.0 0.0 
0.0 0.0 0.0 
0.0 0.0 0.0 
0.0 0.0 0.0 
0.0 0.0 0.0 
0.0 0.0 0.0 
0.0 0.0 0.0 
0.0 0.0 0.0 
0.0 0.0 0.0 
0.0 0.0 0.0 
0.0 0.0 0.0 
0.0 0.0 0.0 
0.0 0.0 0.0 
0.0 0.0 0.0 
0.0 0.0 0.0 
0.0 0.0 0.0 
0.0 0.0 0.0 
0.0 0.0 0.0 
0.0 0.0 0.0 
0.0 0.0 0.0 
0.0 0.0 0.0 
0.0 0.0 0.0 
0.0 0.0 0.0 
0.0 0.0 0.0 
0.0 0.0 0.0 
0.0 0.0 0.0 
0.0 0.0 0.0 
0.0 0.0 0.0 
0.0 0.0 0.0 
0.0 0.0 0.0 
0.0 0.0 0.0 
0.0 0.0 0.0 
0.0 0.0 0.0 
0.0 0.0 0.0 
0.0 0.0 0.0 
0.0 0.0 0.0 
0.0 0.0 0.0 
0.0 0.0 0.0 
0.0 0.0 0.0 
0.0 0.0 0.0 
0.0 0.0 0.0 
0.0 0.0 0.0 
0.0 0.0 0.0 
0.0 0.0 0.0 
0.0 0.0 0.0 
0.0 0.0 0.0 
0.0 0.0 0.0 
0.0 0.0 0.0 
0.0 0.0 0.0 
0.0 0.0 0.0 
0.0 0.0 0.0 
0.0 0.0 0.0 
0.0 0.0 0.0 
0.0 0.0 0.0 
0.0 0.0 0.0 
0.0 0.0 0.0 
0.0 0.0 0.0 
0.0 0.0 0.0 
0.0 0.0 0.0 
0.0 0.0 0.0 
0.0 0.0 0.0 
0.0 0.0 0.0 
0.0 0.0 0.0 
0.0 0.0 0.0 
0.0 0.0 0.0 
0.0 0.0 0.0 
0.0 0.0 0.0 
0.0 0.0 0.0 
0.0 0.0 0.0 
0.0 0.0 0.0 
0.0 0.0 0.0 
0.0 0.0 0.0 
0.0 0.0 0.0 
0.0 0.0 0.0 
0.0 0.0 0.0 
0.0 0.0 0.0 
0.0 0.0 0.0 
0.0 0.0 0.0 
0.0 0.0 0.0 
0.0 0.0 0.0 
0.0 0.0 0.0 
0.0 0.0 0.0 
0.0 0.0 0.0 
0.0 0.0 0.0 
0.0 0.0 0.0 
0.0 0.0 0.0 
0.0 0.0 0.0 
0.0 0.0 0.0 
0.0 0.0 0.0 
0.0 0.0 0.0 
0.0 0.0 0.0 
0.0 0.0 0.0 
0.0 0.0 0.0 
0.0 0.0 0.0 
0.0 0.0 0.0 
0.0 0.0 0.0 
0.0 0.0 0.0 
0.0 0.0 0.0 
0.0 0.0 0.0 
0.0 0.0 0.0 
0.0 0.0 0.0 
0.0 0.0 0.0 
0.0 0.0 0.0 
0.0 0.0 0.0 
0.0 0.0 0.0 
0.0 0.0 0.0 
0.0 0.0 0.0 
0.0 0.0 0.0 
0.0 0.0 0.0 
0.0 0.0 0.0 
0.0 0.0 0.0 
0.0 0.0 0.0 
0.0 0.0 0.0 
0.0 0.0 0.0 
0.0 0.0 0.0 
0.0 0.0 0.0 
0.0 0.0 0.0 
0.0 0.0 0.0 
0.0 0.0 0.0 
0.0 0.0 0.0 
0.0 0.0 0.0 
0.0 0.0 0.0 
0.0 0.0 0.0 
0.0 0.0 0.0 
0.0 0.0 0.0 
0.0 0.0 0.0 
0.0 0.0 0.0 
0.0 0.0 0.0 
0.0 0.0 0.0 
0.0 0.0 0.0 
0.0 0.0 0.0 
0.0 0.0 0.0 
0.0 0.0 0.0 
0.0 0.0 0.0 
0.0 0.0 0.0 
0.0 0.0 0.0 
0.0 0.0 0.0 
0.0 0.0 0.0 
0.0 0.0 0.0 
0.0 0.0 0.0 
0.0 0.0 0.0 
0.0 0.0 0.0 
0.0 0.0 0.0 
0.0 0.0 0.0 
0.0 0.0 0.0 
0.0 0.0 0.0 
0.0 0.0 0.0 
0.0 0.0 0.0 
0.0 0.0 0.0 
0.0 0.0 0.0 
0.0 0.0 0.0 
0.0 0.0 0.0 
0.0 0.0 0.0 
0.0 0.0 0.0 
0.0 0.0 0.0 
0.0 0.0 0.0 
0.0 0.0 0.0 
0.0 0.0 0.0 
0.0 0.0 0.0 
0.0 0.0 0.0 
0.0 0.0 0.0 
0.0 0.0 0.0 
0.0 0.0 0.0 
0.0 0.0 0.0 
0.0 0.0 0.0 
0.0 0.0 0.0 
0.0 0.0 0.0 
0.0 0.0 0.0 
0.0 0.0 0.0 
0.0 0.0 0.0 
0.0 0.0 0.0 
0.0 0.0 0.0 
0.0 0.0 0.0 
0.0 0.0 0.0 
0.0 0.0 0.0 
0.0 0.0 0.0 
0.0 0.0 0.0 
0.0 0.0 0.0 
0.0 0.0 0.0 
0.0 0.0 0.0 
0.0 0.0 0.0 
0.0 0.0 0.0 
0.0 0.0 0.0 
0.0 0.0 0.0 
0.0 0.0 0.0 
0.0 0.0 0.0 
0.0 0.0 0.0 
0.0 0.0 0.0 
0.0 0.0 0.0 
0.0 0.0 0.0 
0.0 0.0 0.0 
0.0 0.0 0.0 
0.0 0.0 0.0 
0.0 0.0 0.0 
0.0 0.0 0.0 
0.0 0.0 0.0 
0.0 0.0 0.0 
0.0 0.0 0.0 
0.0 0.0 0.0 
0.0 0.0 0.0 
0.0 0.0 0.0 
0.0 0.0 0.0 
0.0 0.0 0.0 
0.0 0.0 0.0 
0.0 0.0 0.0 
0.0 0.0 0.0 
0.0 0.0 0.0 
0.0 0.0 0.0 
0.0 0.0 0.0 
0.0 0.0 0.0 
0.0 0.0 0.0 
0.0 0.0 0.0 
0.0 0.0 0.0 
0.0 0.0 0.0 
0.0 0.0 0.0 
0.0 0.0 0.0 
0.0 0.0 0.0 
0.0 0.0 0.0 
0.0 0.0 0.0 
0.0 0.0 0.0 
0.0 0.0 0.0 
0.0 0.0 0.0 
0.0 0.0 0.0 
0.0 0.0 0.0 
0.0 0.0 0.0 
0.0 0.0 0.0 
0.0 0.0 0.0 
0.0 0.0 0.0 
0.0 0.0 0.0 
0.0 0.0 0.0 
0.0 0.0 0.0 
0.0 0.0 0.0 
0.0 0.0 0.0 
0.0 0.0 0.0 
0.0 0.0 0.0 
0.0 0.0 0.0 
0.0 0.0 0.0 
0.0 0.0 0.0 
0.0 0.0 0.0 
0.0 0.0 0.0 
0.0 0.0 0.0 
0.0 0.0 0.0 
0.0 0.0 0.0 
0.0 0.0 0.0 
0.0 0.0 0.0 
0.0 0.0 0.0 
0.0 0.0 0.0 
0.0 0.0 0.0 
0.0 0.0 0.0 
0.0 0.0 0.0 
0.0 0.0 0.0 
0.0 0.0 0.0 
0.0 0.0 0.0 
0.0 0.0 0.0 
0.0 0.0 0.0 
0.0 0.0 0.0 
0.0 0.0 0.0 
0.0 0.0 0.0 
0.0 0.0 0.0 
0.0 0.0 0.0 
0.0 0.0 0.0 
0.0 0.0 0.0 
0.0 0.0 0.0 
0.0 0.0 0.0 
0.0 0.0 0.0 
0.0 0.0 0.0 
0.0 0.0 0.0 
0.0 0.0 0.0 
0.0 0.0 0.0 
0.0 0.0 0.0 
0.0 0.0 0.0 
0.0 0.0 0.0 
0.0 0.0 0.0 
0.0 0.0 0.0 
0.0 0.0 0.0 
0.0 0.0 0.0 
0.0 0.0 0.0 
0.0 0.0 0.0 
0.0 0.0 0.0 
0.0 0.0 0.0 
0.0 0.0 0.0 
0.0 0.0 0.0 
0.0 0.0 0.0 
0.0 0.0 0.0 
0.0 0.0 0.0 
0.0 0.0 0.0 
0.0 0.0 0.0 
0.0 0.0 0.0 
0.0 0.0 0.0 
0.0 0.0 0.0 
0.0 0.0 0.0 
0.0 0.0 0.0 
0.0 0.0 0.0 
0.0 0.0 0.0 
0.0 0.0 0.0 
0.0 0.0 0.0 
0.0 0.0 0.0 
0.0 0.0 0.0 
0.0 0.0 0.0 
0.0 0.0 0.0 
0.0 0.0 0.0 
0.0 0.0 0.0 
0.0 0.0 0.0 
0.0 0.0 0.0 
0.0 0.0 0.0 
0.0 0.0 0.0 
0.0 0.0 0.0 
0.0 0.0 0.0 
0.0 0.0 0.0 
0.0 0.0 0.0 
0.0 0.0 0.0 
0.0 0.0 0.0 
0.0 0.0 0.0 
0.0 0.0 0.0 
0.0 0.0 0.0 
0.0 0.0 0.0 
0.0 0.0 0.0 
0.0 0.0 0.0 
0.0 0.0 0.0 
0.0 0.0 0.0 
0.0 0.0 0.0 
0.0 0.0 0.0 
0.0 0.0 0.0 
0.0 0.0 0.0 
0.0 0.0 0.0 
0.0 0.0 0.0 
0.0 0.0 0.0 
0.0 0.0 0.0 
0.0 0.0 0.0 
0.0 0.0 0.0 
0.0 0.0 0.0 
0.0 0.0 0.0 
0.0 0.0 0.0 
0.0 0.0 0.0 
0.0 0.0 0.0 
0.0 0.0 0.0 
0.0 0.0 0.0 
0.0 0.0 0.0 
0.0 0.0 0.0 
0.0 0.0 0.0 
0.0 0.0 0.0 
0.0 0.0 0.0 
0.0 0.0 0.0 
0.0 0.0 0.0 
0.0 0.0 0.0 
0.0 0.0 0.0 
0.0 0.0 0.0 
0.0 0.0 0.0 
0.0 0.0 0.0 
0.0 0.0 0.0 
0.0 0.0 0.0 
0.0 0.0 0.0 
0.0 0.0 0.0 
0.0 0.0 0.0 
0.0 0.0 0.0 
0.0 0.0 0.0 
0.0 0.0 0.0 
0.0 0.0 0.0 
0.0 0.0 0.0 
0.0 0.0 0.0 
0.0 0.0 0.0 
0.0 0.0 0.0 
0.0 0.0 0.0 
0.0 0.0 0.0 
0.0 0.0 0.0 
0.0 0.0 0.0 
0.0 0.0 0.0 
0.0 0.0 0.0 
0.0 0.0 0.0 
0.0 0.0 0.0 
0.0 0.0 0.0 
0.0 0.0 0.0 
0.0 0.0 0.0 
0.0 0.0 0.0 
0.0 0.0 0.0 
0.0 0.0 0.0 
0.0 0.0 0.0 
0.0 0.0 0.0 
0.0 0.0 0.0 
0.0 0.0 0.0 
0.0 0.0 0.0 
0.0 0.0 0.0 
0.0 0.0 0.0 
0.0 0.0 0.0 
0.0 0.0 0.0 
0.0 0.0 0.0 
0.0 0.0 0.0 
0.0 0.0 0.0 
0.0 0.0 0.0 
0.0 0.0 0.0 
0.0 0.0 0.0 
0.0 0.0 0.0 
0.0 0.0 0.0 
0.0 0.0 0.0 
0.0 0.0 0.0 
0.0 0.0 0.0 
0.0 0.0 0.0 
0.0 0.0 0.0 
0.0 0.0 0.0 
0.0 0.0 0.0 
0.0 0.0 0.0 
0.0 0.0 0.0 
0.0 0.0 0.0 
0.0 0.0 0.0 
0.0 0.0 0.0 
0.0 0.0 0.0 
0.0 0.0 0.0 
0.0 0.0 0.0 
0.0 0.0 0.0 
0.0 0.0 0.0 
0.0 0.0 0.0 
0.0 0.0 0.0 
0.0 0.0 0.0 
0.0 0.0 0.0 
0.0 0.0 0.0 
0.0 0.0 0.0 
0.0 0.0 0.0 
0.0 0.0 0.0 
0.0 0.0 0.0 
0.0 0.0 0.0 
0.0 0.0 0.0 
0.0 0.0 0.0 
0.0 0.0 0.0 
0.0 0.0 0.0 
0.0 0.0 0.0 
0.0 0.0 0.0 
0.0 0.0 0.0 
0.0 0.0 0.0 
0.0 0.0 0.0 
0.0 0.0 0.0 
0.0 0.0 0.0 
0.0 0.0 0.0 
0.0 0.0 0.0 
0.0 0.0 0.0 
0.0 0.0 0.0 
0.0 0.0 0.0 
0.0 0.0 0.0 
0.0 0.0 0.0 
0.0 0.0 0.0 
0.0 0.0 0.0 
0.0 0.0 0.0 
0.0 0.0 0.0 
0.0 0.0 0.0 
0.0 0.0 0.0 
0.0 0.0 0.0 
0.0 0.0 0.0 
0.0 0.0 0.0 
0.0 0.0 0.0 
0.0 0.0 0.0 
0.0 0.0 0.0 
0.0 0.0 0.0 
0.0 0.0 0.0 
0.0 0.0 0.0 
0.0 0.0 0.0 
0.0 0.0 0.0 
0.0 0.0 0.0 
0.0 0.0 0.0 
0.0 0.0 0.0 
0.0 0.0 0.0 
0.0 0.0 0.0 
0.0 0.0 0.0 
0.0 0.0 0.0 
0.0 0.0 0.0 
0.0 0.0 0.0 
0.0 0.0 0.0 
0.0 0.0 0.0 
0.0 0.0 0.0 
0.0 0.0 0.0 
0.0 0.0 0.0 
0.0 0.0 0.0 
0.0 0.0 0.0 
0.0 0.0 0.0 
0.0 0.0 0.0 
0.0 0.0 0.0 
0.0 0.0 0.0 
0.0 0.0 0.0 
0.0 0.0 0.0 
0.0 0.0 0.0 
0.0 0.0 0.0 
0.0 0.0 0.0 
0.0 0.0 0.0 
0.0 0.0 0.0 
0.0 0.0 0.0 
0.0 0.0 0.0 
0.0 0.0 0.0 
0.0 0.0 0.0 
0.0 0.0 0.0 
0.0 0.0 0.0 
0.0 0.0 0.0 
0.0 0.0 0.0 
0.0 0.0 0.0 
0.0 0.0 0.0 
0.0 0.0 0.0 
0.0 0.0 0.0 
0.0 0.0 0.0 
0.0 0.0 0.0 
0.0 0.0 0.0 
0.0 0.0 0.0 
0.0 0.0 0.0 
0.0 0.0 0.0 
0.0 0.0 0.0 
0.0 0.0 0.0 
0.0 0.0 0.0 
0.0 0.0 0.0 
0.0 0.0 0.0 
0.0 0.0 0.0 
0.0 0.0 0.0 
0.0 0.0 0.0 
0.0 0.0 0.0 
0.0 0.0 0.0 
0.0 0.0 0.0 
0.0 0.0 0.0 
0.0 0.0 0.0 
0.0 0.0 0.0 
0.0 0.0 0.0 
0.0 0.0 0.0 
0.0 0.0 0.0 
0.0 0.0 0.0 
0.0 0.0 0.0 
0.0 0.0 0.0 
0.0 0.0 0.0 
0.0 0.0 0.0 
0.0 0.0 0.0 
0.0 0.0 0.0 
0.0 0.0 0.0 
0.0 0.0 0.0 
0.0 0.0 0.0 
0.0 0.0 0.0 
0.0 0.0 0.0 
0.0 0.0 0.0 
0.0 0.0 0.0 
0.0 0.0 0.0 
0.0 0.0 0.0 
0.0 0.0 0.0 
0.0 0.0 0.0 
0.0 0.0 0.0 
0.0 0.0 0.0 
0.0 0.0 0.0 
0.0 0.0 0.0 
0.0 0.0 0.0 
0.0 0.0 0.0 
0.0 0.0 0.0 
0.0 0.0 0.0 
0.0 0.0 0.0 
0.0 0.0 0.0 
0.0 0.0 0.0 
0.0 0.0 0.0 
0.0 0.0 0.0 
0.0 0.0 0.0 
0.0 0.0 0.0 
0.0 0.0 0.0 
0.0 0.0 0.0 
0.0 0.0 0.0 
0.0 0.0 0.0 
0.0 0.0 0.0 
0.0 0.0 0.0 
0.0 0.0 0.0 
0.0 0.0 0.0 
0.0 0.0 0.0 
0.0 0.0 0.0 
0.0 0.0 0.0 
0.0 0.0 0.0 
0.0 0.0 0.0 
0.0 0.0 0.0 
0.0 0.0 0.0 
0.0 0.0 0.0 
0.0 0.0 0.0 
0.0 0.0 0.0 
0.0 0.0 0.0 
0.0 0.0 0.0 
0.0 0.0 0.0 
0.0 0.0 0.0 
0.0 0.0 0.0 
0.0 0.0 0.0 
0.0 0.0 0.0 
0.0 0.0 0.0 
0.0 0.0 0.0 
0.0 0.0 0.0 
0.0 0.0 0.0 
0.0 0.0 0.0 
0.0 0.0 0.0 
0.0 0.0 0.0 
0.0 0.0 0.0 
0.0 0.0 0.0 
0.0 0.0 0.0 
0.0 0.0 0.0 
0.0 0.0 0.0 
0.0 0.0 0.0 
0.0 0.0 0.0 
0.0 0.0 0.0 
0.0 0.0 0.0 
0.0 0.0 0.0 
0.0 0.0 0.0 
0.0 0.0 0.0 
0.0 0.0 0.0 
0.0 0.0 0.0 
0.0 0.0 0.0 
0.0 0.0 0.0 
0.0 0.0 0.0 
0.0 0.0 0.0 
0.0 0.0 0.0 
0.0 0.0 0.0 
0.0 0.0 0.0 
0.0 0.0 0.0 
0.0 0.0 0.0 
0.0 0.0 0.0 
0.0 0.0 0.0 
0.0 0.0 0.0 
0.0 0.0 0.0 
0.0 0.0 0.0 
0.0 0.0 0.0 
0.0 0.0 0.0 
0.0 0.0 0.0 
0.0 0.0 0.0 
0.0 0.0 0.0 
0.0 0.0 0.0 
0.0 0.0 0.0 
0.0 0.0 0.0 
0.0 0.0 0.0 
0.0 0.0 0.0 
0.0 0.0 0.0 
0.0 0.0 0.0 
0.0 0.0 0.0 
0.0 0.0 0.0 
0.0 0.0 0.0 
0.0 0.0 0.0 
0.0 0.0 0.0 
0.0 0.0 0.0 
0.0 0.0 0.0 
0.0 0.0 0.0 
0.0 0.0 0.0 
0.0 0.0 0.0 
0.0 0.0 0.0 
0.0 0.0 0.0 
0.0 0.0 0.0 
0.0 0.0 0.0 
0.0 0.0 0.0 
0.0 0.0 0.0 
0.0 0.0 0.0 
0.0 0.0 0.0 
0.0 0.0 0.0 
0.0 0.0 0.0 
0.0 0.0 0.0 
0.0 0.0 0.0 
0.0 0.0 0.0 
0.0 0.0 0.0 
0.0 0.0 0.0 
0.0 0.0 0.0 
0.0 0.0 0.0 
0.0 0.0 0.0 
0.0 0.0 0.0 
0.0 0.0 0.0 
0.0 0.0 0.0 
0.0 0.0 0.0 
0.0 0.0 0.0 
0.0 0.0 0.0 
0.0 0.0 0.0 
0.0 0.0 0.0 
0.0 0.0 0.0 
0.0 0.0 0.0 
0.0 0.0 0.0 
0.0 0.0 0.0 
0.0 0.0 0.0 
0.0 0.0 0.0 
0.0 0.0 0.0 
0.0 0.0 0.0 
0.0 0.0 0.0 
0.0 0.0 0.0 
0.0 0.0 0.0 
0.0 0.0 0.0 
0.0 0.0 0.0 
0.0 0.0 0.0 
0.0 0.0 0.0 
0.0 0.0 0.0 
0.0 0.0 0.0 
0.0 0.0 0.0 
0.0 0.0 0.0 
0.0 0.0 0.0 
0.0 0.0 0.0 
0.0 0.0 0.0 
0.0 0.0 0.0 
0.0 0.0 0.0 
0.0 0.0 0.0 
0.0 0.0 0.0 
0.0 0.0 0.0 
0.0 0.0 0.0 
0.0 0.0 0.0 
0.0 0.0 0.0 
0.0 0.0 0.0 
0.0 0.0 0.0 
0.0 0.0 0.0 
0.0 0.0 0.0 
0.0 0.0 0.0 
0.0 0.0 0.0 
0.0 0.0 0.0 
0.0 0.0 0.0 
0.0 0.0 0.0 
0.0 0.0 0.0 
0.0 0.0 0.0 
0.0 0.0 0.0 
0.0 0.0 0.0 
0.0 0.0 0.0 
0.0 0.0 0.0 
0.0 0.0 0.0 
0.0 0.0 0.0 
0.0 0.0 0.0 
0.0 0.0 0.0 
0.0 0.0 0.0 
0.0 0.0 0.0 
0.0 0.0 0.0 
0.0 0.0 0.0 
0.0 0.0 0.0 
0.0 0.0 0.0 
0.0 0.0 0.0 
0.0 0.0 0.0 
0.0 0.0 0.0 
0.0 0.0 0.0 
0.0 0.0 0.0 
0.0 0.0 0.0 
0.0 0.0 0.0 
0.0 0.0 0.0 
0.0 0.0 0.0 
0.0 0.0 0.0 
0.0 0.0 0.0 
0.0 0.0 0.0 
0.0 0.0 0.0 
0.0 0.0 0.0 
0.0 0.0 0.0 
0.0 0.0 0.0 
0.0 0.0 0.0 
0.0 0.0 0.0 
0.0 0.0 0.0 
0.0 0.0 0.0 
0.0 0.0 0.0 
0.0 0.0 0.0 
0.0 0.0 0.0 
0.0 0.0 0.0 
0.0 0.0 0.0 
0.0 0.0 0.0 
0.0 0.0 0.0 
0.0 0.0 0.0 
0.0 0.0 0.0 
0.0 0.0 0.0 
0.0 0.0 0.0 
0.0 0.0 0.0 
0.0 0.0 0.0 
0.0 0.0 0.0 
0.0 0.0 0.0 
0.0 0.0 0.0 
0.0 0.0 0.0 
0.0 0.0 0.0 
0.0 0.0 0.0 
0.0 0.0 0.0 
0.0 0.0 0.0 

VECTORS node_materi_velocity float
0.0 -1.314066469914e-04 0.0 
0.0 1.488768644909e-03 0.0 
0.0 0.0 0.0 
0.0 0.0 0.0 
0.0 -1.314823914695e-04 0.0 
0.0 -1.305787745875e-04 0.0 
0.0 -1.284422173318e-04 0.0 
0.0 -1.248604441074e-04 0.0 
0.0 -1.194857509013e-04 0.0 
0.0 -1.125317666345e-04 0.0 
0.0 -1.041182640182e-04 0.0 
0.0 -9.436504885941e-05 0.0 
0.0 -8.354295739976e-05 0.0 
0.0 -7.193367911824e-05 0.0 
0.0 -5.988684039109e-05 0.0 
0.0 -4.786476982106e-05 0.0 
0.0 -3.624744826930e-05 0.0 
0.0 -2.525873809519e-05 0.0 
0.0 -1.552878285738e-05 0.0 
0.0 -7.457606114871e-06 0.0 
0.0 -1.422522947276e-06 0.0 
0.0 2.032590895284e-06 0.0 
0.0 2.403450702547e-06 0.0 
0.0 0.0 0.0 
0.0 0.0 0.0 
0.0 0.0 0.0 
0.0 0.0 0.0 
0.0 0.0 0.0 
0.0 0.0 0.0 
0.0 0.0 0.0 
0.0 0.0 0.0 
0.0 0.0 0.0 
0.0 0.0 0.0 
0.0 0.0 0.0 
0.0 0.0 0.0 
0.0 0.0 0.0 
0.0 0.0 0.0 
0.0 0.0 0.0 
0.0 0.0 0.0 
0.0 0.0 0.0 
0.0 0.0 0.0 
0.0 0.0 0.0 
0.0 0.0 0.0 
0.0 0.0 0.0 
0.0 0.0 0.0 
0.0 0.0 0.0 
0.0 0.0 0.0 
0.0 0.0 0.0 
0.0 0.0 0.0 
0.0 0.0 0.0 
0.0 0.0 0.0 
0.0 0.0 0.0 
0.0 0.0 0.0 
0.0 0.0 0.0 
0.0 0.0 0.0 
0.0 0.0 0.0 
0.0 0.0 0.0 
0.0 0.0 0.0 
0.0 0.0 0.0 
0.0 0.0 0.0 
0.0 0.0 0.0 
0.0 0.0 0.0 
0.0 0.0 0.0 
0.0 0.0 0.0 
0.0 0.0 0.0 
0.0 0.0 0.0 
0.0 0.0 0.0 
0.0 0.0 0.0 
0.0 0.0 0.0 
0.0 0.0 0.0 
0.0 0.0 0.0 
0.0 0.0 0.0 
0.0 1.336720703435e-03 0.0 
0.0 1.184870792010e-03 0.0 
0.0 1.033430319583e-03 0.0 
0.0 8.825309919639e-04 0.0 
0.0 7.324344387077e-04 0.0 
0.0 5.832871563417e-04 0.0 
0.0 4.353028345304e-04 0.0 
0.0 2.886636624170e-04 0.0 
0.0 1.435639615160e-04 0.0 
-3.716255358439e-04 7.343362453079e-04 0.0 
2.441619314693e-04 1.452476168781e-03 0.0 
-2.774513827640e-04 1.038361943916e-03 0.0 
-1.135792882398e-04 1.547710875237e-03 0.0 
8.636165419580e-05 1.813819119138e-03 0.0 
1.954812585607e-04 1.885915719669e-03 0.0 
2.562164176280e-04 1.896792199309e-03 0.0 
2.858978224822e-04 1.860583538613e-03 0.0 
2.942387734243e-04 1.789934734543e-03 0.0 
2.875073945810e-04 1.694109137876e-03 0.0 
2.697669978073e-04 1.579869704697e-03 0.0 
0.0 2.703164581933e-03 0.0 
0.0 2.550141057870e-03 0.0 
0.0 2.399018254070e-03 0.0 
0.0 2.247833979084e-03 0.0 
0.0 2.096416166376e-03 0.0 
0.0 1.944790344902e-03 0.0 
0.0 1.792905385503e-03 0.0 
0.0 1.640877412798e-03 0.0 
1.332994997580e-05 1.488837430298e-03 0.0 
2.674184359346e-05 1.489029283943e-03 0.0 
4.029798437074e-05 1.489322815211e-03 0.0 
5.408587629596e-05 1.489715775728e-03 0.0 
6.819820245100e-05 1.490058999404e-03 0.0 
8.262605590348e-05 1.490260521087e-03 0.0 
9.755163465351e-05 1.490298243318e-03 0.0 
1.130229734228e-04 1.489840523555e-03 0.0 
1.291228196387e-04 1.488869346474e-03 0.0 
1.459828642177e-04 1.487070925674e-03 0.0 
1.636364132692e-04 1.484094366764e-03 0.0 
1.822225259810e-04 1.479562270410e-03 0.0 
2.017789253301e-04 1.473154435555e-03 0.0 
2.223874461397e-04 1.464288919179e-03 0.0 
-3.367836492076e-04 5.783223790581e-04 0.0 
-2.950147259417e-04 4.458251584400e-04 0.0 
-2.531568238375e-04 3.362332594319e-04 0.0 
-2.125625736630e-04 2.463121483635e-04 0.0 
-1.776487786191e-04 1.724049224280e-04 0.0 
-1.469590634699e-04 1.117190383589e-04 0.0 
-1.198644458152e-04 6.169184142099e-05 0.0 
-9.637483239314e-05 2.047290759277e-05 0.0 
-7.620408932155e-05 -1.318304352753e-05 0.0 
-5.922080467583e-05 -4.046243116969e-05 0.0 
-4.516324053296e-05 -6.278419397863e-05 0.0 
-3.357954835394e-05 -8.033111512342e-05 0.0 
-2.457844731379e-05 -9.448163675472e-05 0.0 
-1.725045007116e-05 -1.056605683184e-04 0.0 
-1.171054649568e-05 -1.143982558045e-04 0.0 
-7.678450248420e-06 -1.209062633101e-04 0.0 
-4.831723138470e-06 -1.256497434096e-04 0.0 
-2.825973634382e-06 -1.289515955919e-04 0.0 
-1.279888359674e-06 -1.307276969375e-04 0.0 
-1.489701822757e-04 1.847798327160e-03 0.0 
-3.936456282204e-05 2.033670346006e-03 0.0 
-2.178318272299e-05 2.170068261704e-03 0.0 
1.750056398559e-06 2.280162899937e-03 0.0 
2.579303108364e-05 2.370506997492e-03 0.0 
4.819993219648e-05 2.442677569263e-03 0.0 
6.783016616431e-05 2.501013268930e-03 0.0 
8.429792271109e-05 2.547657525746e-03 0.0 
9.751509283784e-05 2.584952945011e-03 0.0 
1.075669193607e-04 2.614484724287e-03 0.0 
1.146330296297e-04 2.637695974102e-03 0.0 
1.189292473616e-04 2.655716971204e-03 0.0 
1.206949327999e-04 2.669515285245e-03 0.0 
1.201731853371e-04 2.679887734613e-03 0.0 
1.176061780622e-04 2.687508490851e-03 0.0 
1.132263098695e-04 2.692938322874e-03 0.0 
1.072502641450e-04 2.696643882494e-03 0.0 
9.987565780951e-05 2.699013943705e-03 0.0 
9.128383653427e-05 2.700375078484e-03 0.0 
8.164683206988e-05 2.701001240482e-03 0.0 
7.114064316810e-05 2.701122778863e-03 0.0 
5.997195946555e-05 2.700937729061e-03 0.0 
4.843334328153e-05 2.700633877567e-03 0.0 
3.701301605854e-05 2.700452414911e-03 0.0 
2.656318168325e-05 2.700915069184e-03 0.0 
1.730022192873e-05 2.702756826149e-03 0.0 
8.943625576662e-05 1.962475691790e-03 0.0 
9.446705639628e-05 2.084918970420e-03 0.0 
1.004757886502e-04 2.183603630284e-03 0.0 
1.074263548811e-04 2.263639550759e-03 0.0 
1.145056640224e-04 2.327756800730e-03 0.0 
1.209658544508e-04 2.379313389436e-03 0.0 
1.263289411813e-04 2.420457157908e-03 0.0 
1.302792957519e-04 2.453166560399e-03 0.0 
1.326744005470e-04 2.478939908366e-03 0.0 
1.334597533873e-04 2.499048541133e-03 0.0 
1.326531509070e-04 2.514524831005e-03 0.0 
1.303160249438e-04 2.526237753733e-03 0.0 
1.265406323222e-04 2.534910939421e-03 0.0 
1.214363031988e-04 2.541151847900e-03 0.0 
1.151217302891e-04 2.545466601979e-03 0.0 
1.077194961103e-04 2.548277193396e-03 0.0 
9.935313095183e-05 2.549937288662e-03 0.0 
9.014667179684e-05 2.550746557561e-03 0.0 
8.022774975016e-05 2.550962653186e-03 0.0 
6.973413207518e-05 2.550814486614e-03 0.0 
5.882284689410e-05 2.550519755790e-03 0.0 
4.767416178115e-05 2.550306705873e-03 0.0 
3.645165190773e-05 2.550410865690e-03 0.0 
2.506932057692e-05 2.550826988143e-03 0.0 
1.272380257019e-05 2.550652162889e-03 0.0 
1.254734348073e-05 2.399277859726e-03 0.0 
2.507173096914e-05 2.399664977922e-03 0.0 
3.719534559981e-05 2.399653841757e-03 0.0 
4.905082855418e-05 2.399768329953e-03 0.0 
6.070373226054e-05 2.400102897864e-03 0.0 
7.212131106744e-05 2.400512546510e-03 0.0 
8.322633036834e-05 2.400793555602e-03 0.0 
9.392909499718e-05 2.400722101357e-03 0.0 
1.041407578782e-04 2.400050473082e-03 0.0 
1.137778871420e-04 2.398495419028e-03 0.0 
1.227642789412e-04 2.395725372857e-03 0.0 
1.310331752993e-04 2.391346325961e-03 0.0 
1.385305870787e-04 2.384885508608e-03 0.0 
1.452209761089e-04 2.375773868171e-03 0.0 
1.510937442226e-04 2.363326650925e-03 0.0 
1.561765965150e-04 2.346721803560e-03 0.0 
1.605445523991e-04 2.324968748675e-03 0.0 
1.643504261336e-04 2.296879778643e-03 0.0 
1.678133713034e-04 2.260994439646e-03 0.0 
1.713108519858e-04 2.215556238744e-03 0.0 
1.752582285555e-04 2.158261882523e-03 0.0 
1.804693109705e-04 2.086783742673e-03 0.0 
1.864821232145e-04 1.997659814917e-03 0.0 
2.412358989548e-04 1.975112993553e-03 0.0 
2.286382022857e-04 2.038055935378e-03 0.0 
2.168651718565e-04 2.088364109617e-03 0.0 
2.062112321176e-04 2.128552311029e-03 0.0 
1.962343050014e-04 2.160245467906e-03 0.0 
1.866710689481e-04 2.185059528931e-03 0.0 
1.772646926585e-04 2.204204905919e-03 0.0 
1.678441309223e-04 2.218755067063e-03 0.0 
1.582831578400e-04 2.229583198754e-03 0.0 
1.485017728564e-04 2.237430230514e-03 0.0 
1.384522118009e-04 2.242910708413e-03 0.0 
1.281136258001e-04 2.246540107040e-03 0.0 
1.174845088789e-04 2.248747544622e-03 0.0 
1.065786774488e-04 2.249892769863e-03 0.0 
9.542157398748e-05 2.250279445188e-03 0.0 
8.404644984320e-05 2.250166497252e-03 0.0 
7.248893483157e-05 2.249775751281e-03 0.0 
6.077722833802e-05 2.249294191087e-03 0.0 
4.891636020838e-05 2.248864691960e-03 0.0 
3.687386327626e-05 2.248550531559e-03 0.0 
2.462271718659e-05 2.248286105667e-03 0.0 
1.230769410331e-05 2.247953861735e-03 0.0 
1.281090652955e-05 2.096562953088e-03 0.0 
2.564544325272e-05 2.096840415148e-03 0.0 
3.842822967713e-05 2.097220540110e-03 0.0 
5.113014716419e-05 2.097677267629e-03 0.0 
6.376914552890e-05 2.098209384301e-03 0.0 
7.637209404546e-05 2.098746638956e-03 0.0 
8.895664670039e-05 2.099150896115e-03 0.0 
1.015318543781e-04 2.099232736012e-03 0.0 
1.141039636045e-04 2.098756192924e-03 0.0 
1.266827071403e-04 2.097438005478e-03 0.0 
1.392878763814e-04 2.094940305118e-03 0.0 
1.519530993693e-04 2.090859295748e-03 0.0 
1.647289127518e-04 2.084711878988e-03 0.0 
1.776849877427e-04 2.075913365530e-03 0.0 
1.909250047959e-04 2.063768189896e-03 0.0 
2.045752535647e-04 2.047432409227e-03 0.0 
2.188233846973e-04 2.025929031477e-03 0.0 
2.338512332607e-04 1.998015915165e-03 0.0 
2.499652643821e-04 1.962459808920e-03 0.0 
2.669656189254e-04 1.917453077064e-03 0.0 
2.737177395513e-04 1.828961837123e-03 0.0 
2.547783176378e-04 1.859746912075e-03 0.0 
2.366257241291e-04 1.883882898628e-03 0.0 
2.194859442390e-04 1.902626469519e-03 0.0 
2.031553254924e-04 1.916844602254e-03 0.0 
1.875244850284e-04 1.927440647569e-03 0.0 
1.724643801545e-04 1.935101649109e-03 0.0 
1.578859624248e-04 1.940449301573e-03 0.0 
1.437072050567e-04 1.943983591001e-03 0.0 
1.298590466465e-04 1.946126783368e-03 0.0 
1.162826238832e-04 1.947234518151e-03 0.0 
1.029332776168e-04 1.947607177348e-03 0.0 
8.977377722617e-05 1.947492889403e-03 0.0 
7.676471376583e-05 1.947092921753e-03 0.0 
6.386872997654e-05 1.946565418357e-03 0.0 
5.104359331893e-05 1.946022605426e-03 0.0 
3.825162051973e-05 1.945533711607e-03 0.0 
2.548036882093e-05 1.945138196784e-03 0.0 
1.273596544637e-05 1.944849225397e-03 0.0 
1.326866327649e-05 1.793021123897e-03 0.0 
2.656497475631e-05 1.793266957992e-03 0.0 
3.993177200445e-05 1.793670607952e-03 0.0 
5.339511951577e-05 1.794174262337e-03 0.0 
6.699965120793e-05 1.794703881806e-03 0.0 
8.080827029360e-05 1.795170591600e-03 0.0 
9.486928129337e-05 1.795460351807e-03 0.0 
1.092558646166e-04 1.795388861790e-03 0.0 
1.240287685309e-04 1.794748265376e-03 0.0 
1.392472855674e-04 1.793265564186e-03 0.0 
1.549909945615e-04 1.790597483250e-03 0.0 
1.713469006959e-04 1.786354435958e-03 0.0 
1.884067546684e-04 1.780069399824e-03 0.0 
2.062684793249e-04 1.771202266346e-03 0.0 
2.250075343632e-04 1.759025677154e-03 0.0 
2.447615542140e-04 1.742856538520e-03 0.0 
2.653956557879e-04 1.721647972915e-03 0.0 
2.480583297304e-04 1.597926594575e-03 0.0 
2.277216798393e-04 1.611559821372e-03 0.0 
2.081386493413e-04 1.621820626643e-03 0.0 
1.895522907888e-04 1.629424889149e-03 0.0 
1.718509623858e-04 1.634852599477e-03 0.0 
1.549638272431e-04 1.638553514844e-03 0.0 
1.387929930696e-04 1.640903806959e-03 0.0 
1.232491362540e-04 1.642228027957e-03 0.0 
1.082582401106e-04 1.642846498888e-03 0.0 
9.376583035333e-05 1.642979994148e-03 0.0 
7.966903233596e-05 1.642759612618e-03 0.0 
6.591686996736e-05 1.642402336488e-03 0.0 
5.243033241709e-05 1.641952765688e-03 0.0 
3.914598795160e-05 1.641511811694e-03 0.0 
2.602160898876e-05 1.641171047710e-03 0.0 
1.300072636282e-05 1.640949322262e-03 0.0 
-3.254317391778e-04 8.650942437398e-04 0.0 
-2.098535353388e-04 1.296122634208e-03 0.0 
3.953901776228e-06 1.703608930679e-03 0.0 
1.499635095498e-04 1.858205980398e-03 0.0 
2.317082463388e-04 1.898089786741e-03 0.0 
2.746567525652e-04 1.883317035148e-03 0.0 
2.925312872343e-04 1.828771394837e-03 0.0 
2.925871555603e-04 1.744632326744e-03 0.0 
2.798982075284e-04 1.638867709154e-03 0.0 
2.577864783009e-04 1.517505049672e-03 0.0 
3.084874949446e-06 1.247457854346e-03 0.0 
7.705397859068e-05 3.346754449357e-05 0.0 
-4.140767621438e-05 -3.270876730727e-05 0.0 
-1.315383578025e-04 1.993322709528e-04 0.0 
5.288677903392e-05 1.550198056545e-05 0.0 
2.514476065495e-04 1.729041025722e-03 0.0 
1.782846589347e-05 -6.534755348008e-05 0.0 
8.941364206047e-05 5.428416446333e-05 0.0 
3.226991685470e-04 1.745464212525e-03 0.0 
8.623589151004e-05 7.463778291801e-05 0.0 
3.154846222721e-04 1.606477344586e-03 0.0 
3.022322963712e-05 7.043289803751e-06 0.0 
-9.228237071278e-06 -1.035070286129e-04 0.0 
7.454739674226e-05 9.546523390964e-05 0.0 
2.646184488648e-04 1.378537199678e-03 0.0 
1.173875943227e-05 -1.078901115520e-04 0.0 
1.866801077168e-05 -3.243416114104e-05 0.0 
6.353814287389e-05 1.107491413035e-04 0.0 
4.201115651669e-05 1.147780624934e-04 0.0 
1.205269230887e-05 1.221975340081e-04 0.0 
2.215714158362e-05 1.314609287492e-04 0.0 
2.946378913445e-05 1.157673289049e-04 0.0 
2.127301678779e-04 1.333290943543e-03 0.0 
1.376346337844e-04 1.349877249374e-03 0.0 
8.957255226744e-05 1.348601077410e-03 0.0 
8.367185615865e-06 8.050497129155e-04 0.0 
1.858969617445e-05 4.251501546098e-06 0.0 
-2.121554397043e-04 5.041928796388e-04 0.0 
-1.085713383375e-06 -1.241723731839e-04 0.0 
1.299828684974e-05 -4.367271459748e-06 0.0 
4.585421216092e-05 1.358256708652e-03 0.0 
5.746551272057e-06 -1.266074852417e-04 0.0 
5.869283286079e-05 1.286206054255e-04 0.0 
8.253312458436e-05 5.958101028840e-05 0.0 
8.052609291515e-05 8.454910175325e-05 0.0 
8.986995039762e-05 4.641583289602e-05 0.0 
6.464342502139e-05 2.382061333141e-05 0.0 
-8.622814425818e-05 7.705507229951e-05 0.0 
1.734423002748e-04 1.352836566017e-03 0.0 
4.846473848301e-05 1.227766368816e-05 0.0 
6.267659755249e-06 5.154515784003e-04 0.0 
-2.168723479040e-05 -7.563535957646e-05 0.0 
1.569216220393e-05 -8.870627173121e-05 0.0 
6.113472106550e-06 9.935761126827e-05 0.0 
3.018288024527e-04 1.756191844228e-03 0.0 
1.648449740209e-04 1.590633963513e-03 0.0 
3.262280380080e-04 1.690861195788e-03 0.0 
2.939491437491e-04 1.500488556383e-03 0.0 
-1.954094478877e-04 8.558406552095e-04 0.0 
1.029684338181e-05 1.090967389839e-03 0.0 
8.432882490521e-06 2.468519230889e-06 0.0 
-6.700795146637e-08 -1.302759564567e-04 0.0 
3.401070379965e-06 2.266257259312e-04 0.0 
2.514192918512e-04 1.310391559065e-03 0.0 
2.675387288029e-04 1.237483754531e-03 0.0 
2.443063402457e-04 1.181414473779e-03 0.0 
2.631942285762e-04 1.097896942629e-03 0.0 
2.405370542035e-04 1.028974183229e-03 0.0 
2.543275686946e-04 9.552254231235e-04 0.0 
2.795767288019e-04 1.020318735886e-03 0.0 
2.668894865892e-04 8.805068202928e-04 0.0 
2.943949200349e-04 9.429442766197e-04 0.0 
2.286318987212e-04 8.856755932772e-04 0.0 
2.773933951939e-04 8.051844445252e-04 0.0 
3.071278516266e-04 8.646211200851e-04 0.0 
2.854564565017e-04 7.299078213261e-04 0.0 
3.171471770658e-04 7.857979569754e-04 0.0 
3.361200328832e-04 9.198024886426e-04 0.0 
3.480496794581e-04 8.374826249215e-04 0.0 
3.638614631021e-04 9.696059022990e-04 0.0 
3.775707086691e-04 8.830784336041e-04 0.0 
3.565954997100e-04 7.556745380687e-04 0.0 
3.875930514822e-04 7.971299697373e-04 0.0 
4.052666604397e-04 9.218926317813e-04 0.0 
4.164298087870e-04 8.312154811821e-04 0.0 
4.306221160990e-04 9.527373512757e-04 0.0 
4.425477927374e-04 8.565259612879e-04 0.0 
4.533275127360e-04 9.746449786928e-04 0.0 
4.655160893033e-04 8.724868060207e-04 0.0 
4.494257336639e-04 7.621968478802e-04 0.0 
4.722014100547e-04 7.730979003197e-04 0.0 
4.845455123266e-04 8.779592641467e-04 0.0 
4.905154194433e-04 7.733702768191e-04 0.0 
4.988921110410e-04 8.719241164351e-04 0.0 
5.035424083813e-04 7.621832185526e-04 0.0 
4.902711523416e-04 6.737724812584e-04 0.0 
5.016865888955e-04 6.590947329796e-04 0.0 
5.103784869651e-04 7.391060630456e-04 0.0 
5.064395800976e-04 6.336331003531e-04 0.0 
5.099934186155e-04 7.041274050276e-04 0.0 
5.037591789889e-04 5.977895104946e-04 0.0 
5.014952009937e-04 6.577134354500e-04 0.0 
4.929705987624e-04 5.522394084907e-04 0.0 
4.919136680826e-04 5.020922045822e-04 0.0 
4.794606689714e-04 4.586113094958e-04 0.0 
4.736842175179e-04 4.987322358052e-04 0.0 
4.591811422791e-04 4.091988710874e-04 0.0 
4.618274366611e-04 3.771692793555e-04 0.0 
4.412147727433e-04 3.324096391974e-04 0.0 
4.408271855585e-04 3.071035850734e-04 0.0 
4.204424515926e-04 2.670819317379e-04 0.0 
4.143358440922e-04 2.850600978153e-04 0.0 
3.944592640780e-04 2.251405947848e-04 0.0 
3.974457672328e-04 2.120515267885e-04 0.0 
3.726004988060e-04 1.751563815458e-04 0.0 
3.636947980958e-04 1.826311083396e-04 0.0 
3.438102945152e-04 1.382064112869e-04 0.0 
3.493522824699e-04 1.340143670311e-04 0.0 
3.223855650790e-04 1.017946976203e-04 0.0 
3.120759572775e-04 1.022095067136e-04 0.0 
2.929759709621e-04 7.064700336641e-05 0.0 
3.000297044495e-04 7.253425425097e-05 0.0 
2.726493616008e-04 4.538501891835e-05 0.0 
2.619382981348e-04 4.110459170948e-05 0.0 
2.440616713019e-04 1.986169547539e-05 0.0 
2.515199678777e-04 2.566234712184e-05 0.0 
2.250215435948e-04 3.367414453103e-06 0.0 
2.295638539771e-04 1.045540590338e-05 0.0 
2.145011043662e-04 -4.120147074672e-06 0.0 
1.979078102632e-04 -1.738154363709e-05 0.0 
1.850421261093e-04 -2.598044990837e-05 0.0 
1.708971482505e-04 -3.633284190537e-05 0.0 
4.839694020189e-04 5.805360986478e-04 0.0 
1.568711142359e-04 -4.526690241168e-05 0.0 
1.676244320029e-04 -3.387182077964e-05 0.0 
1.447297895287e-04 -5.330296992015e-05 0.0 
1.553446872747e-04 -4.366294466029e-05 0.0 
1.301664426673e-04 -6.226390471418e-05 0.0 
1.198567258474e-04 -6.830430030474e-05 0.0 
1.054261607625e-04 -7.698120437574e-05 0.0 
5.034982167016e-04 7.778413987426e-04 0.0 
3.611073124884e-04 6.749682480586e-04 0.0 
9.672148738991e-05 -8.135976991751e-05 0.0 
8.304807198213e-05 -8.951294226557e-05 0.0 
8.818367758184e-05 -8.433736116509e-05 0.0 
6.725274798442e-05 -9.616275907598e-05 0.0 
2.165636102053e-04 9.590695874947e-04 0.0 
2.026103103237e-04 8.138982784693e-04 0.0 
1.926802380163e-04 8.866819799169e-04 0.0 
1.766310838938e-04 7.409499364106e-04 0.0 
1.687470550470e-04 8.118092913515e-04 0.0 
6.324843909378e-05 -1.000325650014e-04 0.0 
2.532725299516e-04 6.664892505979e-04 0.0 
1.827542133592e-04 6.691229300679e-04 0.0 
4.142200213923e-04 1.049784972040e-03 0.0 
4.876183255305e-04 9.865285637698e-04 0.0 
4.546762382177e-04 3.434788977203e-04 0.0 
1.078167270203e-04 -7.200240999101e-05 0.0 
8.611460158011e-05 -8.370511157801e-05 0.0 
9.424937991612e-05 -7.373888788822e-05 0.0 
2.525698812062e-04 3.083538411424e-05 0.0 
2.280447463483e-04 1.679375571946e-05 0.0 
2.469923890278e-04 3.492267634048e-05 0.0 
2.204324298623e-04 2.204106241754e-05 0.0 
2.347894323829e-04 3.761096510823e-05 0.0 
2.067620320155e-04 2.587866148389e-05 0.0 
1.940972809803e-04 1.245910331334e-05 0.0 
1.793794037517e-04 1.717824378677e-05 0.0 
1.682563280008e-04 5.605153796062e-06 0.0 
2.160303934942e-04 3.859409911218e-05 0.0 
2.456812147569e-04 5.249090983251e-05 0.0 
1.529272512005e-04 1.094008239740e-05 0.0 
1.431728013307e-04 9.594765772843e-07 0.0 
1.276824743528e-04 6.650195523264e-06 0.0 
1.191234149558e-04 -1.917125439318e-06 0.0 
1.306538056904e-04 -9.444230738116e-06 0.0 
1.077449284437e-04 -1.096411584163e-05 0.0 
1.159543622456e-04 -1.995664418736e-05 0.0 
4.308553669343e-04 2.798689444677e-04 0.0 
4.380841644993e-04 3.082379863242e-04 0.0 
4.115837003623e-04 2.509121350038e-04 0.0 
4.121568094349e-04 2.714975658087e-04 0.0 
3.831147983210e-04 2.203381061607e-04 0.0 
3.769377143294e-04 2.334333116515e-04 0.0 
3.454083051655e-04 1.882633344223e-04 0.0 
3.519492755718e-04 1.770296855269e-04 0.0 
2.908919489238e-04 6.540950081880e-04 0.0 
4.460669518321e-04 4.392288172358e-04 0.0 
4.570370880844e-04 5.369943494710e-04 0.0 
4.214964116078e-04 4.669599010874e-04 0.0 
4.282897432764e-04 5.725788689853e-04 0.0 
3.840706122240e-04 4.915507922388e-04 0.0 
3.856544264868e-04 6.050789026579e-04 0.0 
3.317184702697e-04 5.129177701414e-04 0.0 
3.330707977330e-04 4.105645582322e-04 0.0 
2.721396984203e-04 4.236137939057e-04 0.0 
2.780277116793e-04 3.331464504012e-04 0.0 
2.111146002450e-04 3.406471774113e-04 0.0 
2.219838027310e-04 2.619314863750e-04 0.0 
4.508751028727e-04 6.711565121315e-04 0.0 
4.059130735604e-04 2.863437970256e-04 0.0 
3.639990747217e-04 2.406278263557e-04 0.0 
3.927769717874e-04 2.943628598602e-04 0.0 
6.868908947316e-05 -9.008142198641e-05 0.0 
9.634449843799e-05 -3.385938325656e-06 0.0 
2.211994801214e-04 5.005217943207e-05 0.0 
2.525012207542e-04 6.603577353381e-05 0.0 
3.120795630837e-04 1.501462989421e-04 0.0 
4.933803033423e-05 -1.058516544849e-04 0.0 
3.265860497533e-04 6.342420457766e-04 0.0 
3.822470009234e-04 7.383831456927e-04 0.0 
1.512470662494e-04 6.656057265913e-04 0.0 
1.453783002251e-04 7.353004229351e-04 0.0 
2.215910626472e-04 5.962949348342e-05 0.0 
4.615582128977e-05 -1.087520950639e-04 0.0 
1.592825530058e-04 2.009942744198e-05 0.0 
1.946666954773e-04 4.349919256229e-04 0.0 
8.588259044776e-05 -1.122495325819e-05 0.0 
7.506680473313e-05 -3.754426820684e-06 0.0 
1.787428684251e-04 -1.174210766145e-06 0.0 
3.442736046041e-04 2.411467973233e-04 0.0 
3.737492561666e-04 2.957967948258e-04 0.0 
2.803392063123e-04 2.575254260172e-04 0.0 
2.285901447154e-04 1.962876159899e-04 0.0 
1.679048832024e-04 1.983256838133e-04 0.0 
1.803351365111e-04 1.401794335509e-04 0.0 
2.316436937070e-04 1.414066254196e-04 0.0 
1.861020327592e-04 9.447144913335e-05 0.0 
1.347724685824e-04 9.260949570319e-05 0.0 
1.439607091267e-04 5.358095202349e-05 0.0 
1.886915511857e-04 5.643881487430e-05 0.0 
1.497570321610e-04 2.140785935817e-05 0.0 
1.060265304167e-04 1.881722232187e-05 0.0 
1.146656312648e-04 -8.445395725606e-06 0.0 
8.188407106228e-05 2.376765682830e-06 0.0 
1.298067009245e-04 3.481324066032e-04 0.0 
3.471063448106e-04 1.055587894418e-03 0.0 
1.898016360649e-04 4.545216746957e-05 0.0 
2.990812388830e-04 1.554021569748e-04 0.0 
1.268015371556e-04 5.889151064938e-04 0.0 
1.228375114965e-04 6.575555203859e-04 0.0 
1.379806384141e-04 8.056110845933e-04 0.0 
1.172001577643e-04 7.264836044018e-04 0.0 
1.014164663126e-04 5.788473716930e-04 0.0 
9.748152286707e-05 6.469178174940e-04 0.0 
1.102158798170e-04 7.956582245749e-04 0.0 
9.203379556008e-05 7.151515727083e-04 0.0 
1.021197399395e-04 8.647768658180e-04 0.0 
8.532313205705e-05 7.833885282307e-04 0.0 
7.499425758441e-05 6.343016344414e-04 0.0 
6.956870497426e-05 7.019646914692e-04 0.0 
7.758303650830e-05 8.516837977821e-04 0.0 
6.296883004398e-05 7.697071531484e-04 0.0 
6.900013064067e-05 9.198869123680e-04 0.0 
5.536879757941e-05 8.374601745929e-04 0.0 
4.945651278361e-05 6.878361800176e-04 0.0 
3.506806862545e-05 -1.134681199131e-04 0.0 
3.193474435664e-04 1.408740078067e-04 0.0 
2.775755878314e-04 1.184609655351e-04 0.0 
7.439109717018e-05 -8.416320902502e-05 0.0 
8.001323851476e-05 -7.360332087514e-05 0.0 
9.991170821494e-05 -6.294545078745e-05 0.0 
8.280710357352e-05 -6.264266944949e-05 0.0 
4.257057320697e-05 7.558587003717e-04 0.0 
3.722689988238e-05 6.063121362346e-04 0.0 
3.169922489275e-04 7.780212071009e-04 0.0 
3.725273486905e-04 8.941711754519e-04 0.0 
1.287352601379e-04 5.206182444442e-04 0.0 
6.528131851501e-05 -1.054357581011e-05 0.0 
7.308631732535e-05 -1.936686496792e-05 0.0 
4.979118570635e-04 9.737147315051e-04 0.0 
4.811258210654e-04 1.098327838271e-03 0.0 
4.870419375847e-04 1.079287389765e-03 0.0 
4.639511432098e-04 1.216287882065e-03 0.0 
4.579102403740e-04 1.224725827711e-03 0.0 
4.647556513654e-04 1.191112064151e-03 0.0 
2.759470939625e-04 7.031779291142e-05 0.0 
5.930854879926e-05 5.534564679276e-04 0.0 
9.081328294584e-05 -7.663103965847e-05 0.0 
6.718408417928e-05 -8.148145808440e-05 0.0 
5.552830608063e-05 -3.409017067642e-06 0.0 
3.520991024949e-04 1.613420425831e-04 0.0 
4.242508219937e-04 6.547864136283e-04 0.0 
4.203956394652e-04 5.713787578087e-04 0.0 
3.897431353009e-04 5.496302064626e-04 0.0 
3.805026703411e-04 4.737092005837e-04 0.0 
3.456764442927e-04 4.466628463764e-04 0.0 
3.306767584540e-04 3.781573677900e-04 0.0 
3.660304788426e-04 4.026839712586e-04 0.0 
3.177068206075e-04 2.341470020434e-04 0.0 
3.104693717185e-04 3.145067440512e-04 0.0 
4.767486770075e-05 9.065894898062e-04 0.0 
4.319536222235e-04 3.475881629486e-04 0.0 
1.879688211538e-04 2.557382406503e-05 0.0 
3.537102865916e-05 -1.094675112109e-04 0.0 
7.211252157924e-05 -1.029457544444e-05 0.0 
3.195451041914e-05 -1.156370558861e-04 0.0 
4.064544915077e-05 -1.098636207561e-04 0.0 
1.834220237114e-04 5.095575159465e-05 0.0 
2.915793744184e-04 3.458473933740e-04 0.0 
3.076369927578e-04 4.119062203958e-04 0.0 
4.342277221589e-04 1.353339105916e-03 0.0 
4.293046219148e-04 1.349940385646e-03 0.0 
2.855857940347e-04 1.873636219003e-04 0.0 
1.813498810237e-04 9.605761503792e-04 0.0 
1.197400722901e-04 9.459349521372e-04 0.0 
1.093666719583e-04 1.015626143378e-03 0.0 
2.275985917035e-05 -1.195384072923e-04 0.0 
5.927075857596e-05 1.867981475952e-05 0.0 
8.145271041618e-05 4.997218482733e-04 0.0 
4.256915768759e-04 8.378548215975e-04 0.0 
4.135762516394e-04 9.993807844863e-04 0.0 
1.000128787090e-04 4.458933175415e-04 0.0 
3.503202641120e-05 3.572817133773e-04 0.0 
3.150007171153e-05 6.722869146522e-04 0.0 
2.665995147325e-05 5.248489577153e-04 0.0 
1.026704153383e-04 -5.183501261605e-05 0.0 
8.377714563164e-05 -5.122483062179e-05 0.0 
2.165274448609e-04 6.669703890963e-05 0.0 
8.400003435528e-05 -3.364962944087e-05 0.0 
3.039769893867e-05 4.583363855320e-04 0.0 
3.203000678370e-04 1.274290564887e-04 0.0 
3.462082561807e-04 1.420113976506e-04 0.0 
6.326761508389e-05 -7.262271701280e-05 0.0 
3.002485552292e-04 9.474906862537e-04 0.0 
2.303712562500e-04 8.134257506739e-04 0.0 
2.266294468623e-04 6.012901441722e-05 0.0 
1.193148209780e-04 -3.023653765058e-05 0.0 
2.694529624861e-05 -1.162333226720e-04 0.0 
1.710010908041e-04 5.340101813104e-05 0.0 
8.194352695413e-05 4.328597870551e-04 0.0 
3.462513003647e-04 3.376655419194e-04 0.0 
3.968019756535e-04 4.196619053581e-04 0.0 
2.854180114950e-04 2.566135393776e-04 0.0 
4.620916955232e-05 -3.479188075838e-05 0.0 
1.515306464365e-04 3.840823491573e-05 0.0 
4.620074093776e-05 -9.155865097576e-06 0.0 
2.518556708233e-04 3.115272792981e-04 0.0 
2.668296516177e-04 3.705589995666e-04 0.0 
4.562471322242e-04 9.258772412215e-04 0.0 
4.414218006738e-04 1.086590663670e-03 0.0 
3.914791757639e-04 1.179831577642e-03 0.0 
4.152113286975e-04 1.258159406727e-03 0.0 
3.041458623924e-04 1.082707337403e-03 0.0 
4.755128937931e-04 9.974520857763e-04 0.0 
3.714554015353e-04 1.103783789657e-03 0.0 
3.506240989030e-04 1.192716358769e-03 0.0 
3.710908169587e-04 1.239581110708e-03 0.0 
4.472425729121e-04 1.221263011251e-03 0.0 
4.195787250697e-04 1.336622327136e-03 0.0 
4.633070882852e-04 6.503314909851e-04 0.0 
4.615822517133e-04 3.749745957610e-04 0.0 
1.210395137464e-04 -5.098185598378e-05 0.0 
1.384460630775e-04 -1.821960198744e-05 0.0 
2.735047287197e-04 5.179071554710e-05 0.0 
6.207489360367e-05 4.865983444913e-04 0.0 
4.680694757312e-05 4.063725435764e-04 0.0 
8.344041210058e-05 1.002405779875e-03 0.0 
7.320699530470e-05 1.070931835945e-03 0.0 
4.773084326442e-05 -9.396861992585e-05 0.0 
4.234315836542e-05 -8.412984852569e-05 0.0 
2.070638842976e-04 -9.304520250847e-07 0.0 
1.592325288741e-04 3.443803305900e-05 0.0 
1.036192305440e-04 4.440828062301e-04 0.0 
1.011070274172e-04 3.773501678633e-04 0.0 
1.282321259206e-04 4.526074739328e-04 0.0 
2.053258037901e-04 7.058139623181e-05 0.0 
4.112167388374e-04 3.770161227607e-04 0.0 
4.045027977948e-04 2.257671803364e-04 0.0 
7.096507711601e-05 2.736916042360e-04 0.0 
4.681215884597e-04 5.876220015594e-04 0.0 
2.623829321679e-05 -9.573838000543e-05 0.0 
3.272280583288e-04 6.313752443335e-04 0.0 
3.804566918715e-05 -2.485109355601e-06 0.0 
4.396883929744e-05 1.626806070502e-06 0.0 
2.523789331828e-04 1.738670910959e-04 0.0 
2.862738431547e-04 1.301617850036e-03 0.0 
4.573746910287e-04 5.035383345938e-04 0.0 
4.720941960712e-04 4.951039870896e-04 0.0 
3.469513545503e-04 1.330272369740e-03 0.0 
3.632090504858e-04 1.376086040283e-03 0.0 
3.893457954399e-04 1.279795974730e-03 0.0 
3.768566845962e-04 1.416279820060e-03 0.0 
2.197904817217e-04 3.073205310492e-05 0.0 
1.840930764117e-04 1.010445434689e-06 0.0 
2.244904928004e-04 2.445488374860e-04 0.0 
2.465361733079e-04 2.305299721935e-04 0.0 
2.094333393860e-04 2.687274245924e-04 0.0 
2.241691577836e-04 3.224670402265e-04 0.0 
2.163936576350e-04 1.333142391497e-04 0.0 
2.505502924599e-04 1.467456841778e-04 0.0 
3.296152198637e-05 -1.096040605629e-04 0.0 
3.973874036034e-04 1.469056776758e-03 0.0 
6.210579981283e-05 3.541052007484e-04 0.0 
3.286815913041e-04 1.279761322160e-03 0.0 
1.222730304127e-04 2.879057332451e-05 0.0 
1.303967036973e-04 2.573291259290e-05 0.0 
-2.029391208613e-05 2.832516447003e-04 0.0 
2.012600340562e-05 2.014186430506e-04 0.0 
2.071756958312e-05 3.807661513291e-04 0.0 
3.581009125308e-04 1.368265778507e-03 0.0 
3.785446119135e-04 1.431165086288e-03 0.0 
3.258191181967e-04 1.272897744996e-03 0.0 
5.834263183291e-06 2.991831879458e-06 0.0 
1.980677898336e-05 1.359841145473e-03 0.0 
2.857182947350e-05 1.912647841378e-06 0.0 
4.321245835057e-04 1.205919814868e-03 0.0 
2.219788204775e-05 3.092604434115e-04 0.0 
4.414753121883e-04 4.277170833257e-04 0.0 
5.021529642097e-04 9.484880612636e-04 0.0 
2.504700657263e-04 8.657627011152e-05 0.0 
1.700171530374e-05 4.588982515430e-04 0.0 
1.243946756010e-05 2.973891514777e-04 0.0 
1.258192885359e-04 1.094786243567e-03 0.0 
1.139624207938e-04 1.167357711333e-03 0.0 
1.379760369278e-04 1.026524881970e-03 0.0 
1.739365521189e-04 5.479892370807e-04 0.0 
5.258710800732e-05 5.787312399568e-04 0.0 
4.517472942255e-05 4.727118608005e-04 0.0 
6.631088212597e-05 -9.382100256516e-05 0.0 
5.484463336301e-05 -9.278846295908e-05 0.0 
8.933944222177e-05 -5.174107103652e-05 0.0 
1.196825547620e-04 -4.730148049907e-05 0.0 
1.227510873475e-04 -4.017213464700e-05 0.0 
1.425581916555e-04 -3.791566400352e-05 0.0 
3.256608953997e-04 5.553480141649e-04 0.0 
2.889546212798e-04 5.098966366036e-04 0.0 
3.939193631825e-04 6.300104892103e-04 0.0 
3.154171591517e-04 1.108250970793e-04 0.0 
3.348698989396e-04 1.201231153616e-04 0.0 
3.637474518420e-04 1.550094513079e-04 0.0 
4.718210441007e-05 3.450732097577e-04 0.0 
3.138637826480e-05 2.536476850037e-04 0.0 
2.566760009905e-04 6.451746494159e-05 0.0 
2.666741544726e-04 9.935330470936e-05 0.0 
2.100571406820e-04 7.225969950572e-06 0.0 
5.922483467641e-05 2.911104930880e-04 0.0 
3.149598882505e-05 4.135353862320e-06 0.0 
4.678432571461e-05 4.943963553097e-06 0.0 
1.787997045763e-05 -8.486393062946e-05 0.0 
3.413103678850e-05 -7.081683140774e-05 0.0 
2.054624998963e-04 9.937023989380e-04 0.0 
1.168065258718e-04 8.435343351630e-04 0.0 
9.708913688231e-05 3.167309713256e-04 0.0 
1.251861400882e-04 3.863904657945e-04 0.0 
6.852307872068e-05 2.365532503262e-04 0.0 
1.941398892086e-05 -1.159019526785e-04 0.0 
3.760169286404e-04 3.526494828578e-04 0.0 
1.558971223367e-04 5.436556247903e-05 0.0 
1.916692823337e-04 7.270287835725e-05 0.0 
1.150296459548e-04 3.703367626546e-05 0.0 
2.872798268778e-04 2.220514228874e-04 0.0 
2.169760150396e-04 1.556435340436e-04 0.0 
2.131097632476e-04 1.772269637203e-04 0.0 
-6.688564453798e-05 3.672981692648e-04 0.0 
9.391225646773e-06 3.576862705201e-04 0.0 
8.726900125016e-05 1.154056369810e-03 0.0 
-1.023922136922e-04 3.043770799277e-04 0.0 
7.556119467344e-05 1.228164054547e-03 0.0 
6.284093011948e-05 1.140412852548e-03 0.0 
6.550390146864e-05 1.301500000913e-03 0.0 
1.584297092530e-05 -1.212420178963e-04 0.0 
1.441258371162e-04 1.201033167443e-03 0.0 
1.579251436150e-04 1.112512003019e-03 0.0 
5.713473210395e-07 -6.982872805365e-05 0.0 
3.996426691590e-05 2.145728781039e-04 0.0 
7.013768452208e-06 -9.492020365250e-05 0.0 
1.502575354904e-05 -1.042595361476e-04 0.0 
9.423589799266e-05 2.074173652335e-05 0.0 
1.034950202432e-04 1.919385460962e-05 0.0 
6.912008257276e-05 1.504546989585e-05 0.0 
8.076786619582e-05 1.469153952404e-05 0.0 
1.083778332298e-04 1.569979968958e-05 0.0 
8.470038384295e-05 1.172489565826e-05 0.0 
1.027389207719e-04 1.250249569888e-03 0.0 
5.561641024363e-05 1.048398482297e-05 0.0 
6.301273089373e-05 8.924159192743e-06 0.0 
3.691457381072e-05 6.997542777579e-06 0.0 
3.470604310929e-04 1.513113333721e-03 0.0 
4.266650687395e-04 1.314226264622e-03 0.0 
3.893455502715e-04 1.474184283430e-03 0.0 
3.314208281454e-04 1.607831893974e-03 0.0 
1.509209106692e-04 1.976238460255e-04 0.0 
1.836157248598e-04 2.748771734176e-04 0.0 
2.881960873935e-05 -7.170112991264e-06 0.0 
3.293739818748e-05 -1.520391658341e-05 0.0 
5.210499628359e-05 1.221026584664e-03 0.0 
3.810224635027e-05 1.227372424732e-03 0.0 
4.125201515131e-05 1.088880374211e-03 0.0 
2.983031453512e-05 1.105546941260e-03 0.0 
3.190897009174e-05 9.700456652526e-04 0.0 
2.058727793216e-05 9.873033371225e-04 0.0 
2.411713517969e-05 8.520881680750e-04 0.0 
1.683545788213e-04 1.476499254247e-04 0.0 
2.796066762427e-04 1.473984807625e-03 0.0 
3.217571722966e-04 1.419311303076e-03 0.0 
1.777945585170e-04 9.839209091471e-05 0.0 
2.192010468819e-04 1.164225956063e-04 0.0 
3.893527226702e-04 1.447079696601e-03 0.0 
3.631741732492e-04 1.585359288231e-03 0.0 
1.006955467152e-04 2.713010084785e-05 0.0 
4.853482292505e-04 8.530213712170e-04 0.0 
2.982676893100e-05 1.352984433298e-04 0.0 
-2.392993762204e-04 6.338780936795e-04 0.0 
-9.934797740118e-05 5.670822453285e-04 0.0 
4.978558966249e-04 9.108659432654e-04 0.0 
4.055999288977e-04 1.312760423456e-03 0.0 
4.329798458488e-04 1.344658469425e-03 0.0 
3.987718510260e-04 1.484526461877e-03 0.0 
2.876811688140e-04 9.980857071874e-05 0.0 
2.124812633696e-05 -5.368743082955e-05 0.0 
2.764026831552e-04 1.144379761476e-03 0.0 
3.509714628651e-05 8.371484594660e-04 0.0 
1.656760505939e-04 1.199915439873e-03 0.0 
1.510276686481e-05 -1.148379692544e-05 0.0 
4.882215440634e-04 7.198103548769e-04 0.0 
4.549706679286e-04 1.096444026088e-03 0.0 
3.546178606947e-04 1.072902115293e-03 0.0 
4.586090743496e-04 1.149544735172e-03 0.0 
3.214178652944e-04 1.001963984168e-03 0.0 
2.858850197513e-04 1.161480553045e-03 0.0 
3.070592099900e-04 1.224081638832e-03 0.0 
4.838533501189e-04 6.021942141293e-04 0.0 
4.009534247871e-04 1.482116733640e-03 0.0 
3.594335433453e-04 1.625643451072e-03 0.0 
3.901932476630e-04 1.013402176826e-03 0.0 
1.568860806485e-04 5.264664602090e-04 0.0 
1.556597992218e-04 4.575903292641e-04 0.0 
1.198810756625e-04 3.249514825397e-04 0.0 
1.514075373207e-04 3.911708605295e-04 0.0 
1.876049278780e-04 5.278767726785e-04 0.0 
1.854665679181e-04 4.588630005484e-04 0.0 
1.437655213050e-04 3.276836274549e-04 0.0 
1.799762520424e-04 3.917133048995e-04 0.0 
1.211378395645e-04 2.396195027179e-04 0.0 
1.689810357553e-04 3.237457053224e-04 0.0 
2.174647926408e-04 4.564855609781e-04 0.0 
2.106179268112e-04 3.915472206221e-04 0.0 
1.615557434059e-04 2.767860195336e-04 0.0 
2.563573106722e-04 5.250635403739e-04 0.0 
1.383694207748e-04 8.031464706506e-05 0.0 
5.096533868959e-04 8.225531359193e-04 0.0 
-1.038180650395e-05 4.593146012323e-04 0.0 
-3.229427371284e-05 6.862675938148e-04 0.0 
4.358456356113e-04 1.077753704898e-03 0.0 
5.861023145439e-05 1.145820167860e-04 0.0 
4.769184941103e-05 1.167042727605e-04 0.0 
4.299025668164e-04 6.957897215869e-04 0.0 
7.773348395628e-05 8.972994777692e-05 0.0 
3.277302630953e-04 1.140590288414e-03 0.0 
2.618448950302e-04 5.319002402723e-04 0.0 
8.464395839953e-05 8.070723285267e-05 0.0 
1.865800370925e-04 5.978331245350e-04 0.0 
2.169507760218e-04 6.699310332396e-04 0.0 
2.108117154683e-04 7.419640353574e-04 0.0 
3.647357038610e-05 1.111940919998e-04 0.0 
1.494356417896e-04 9.564756488128e-04 0.0 
8.350018079487e-05 5.524262823187e-05 0.0 
4.384203502776e-04 3.311468028887e-04 0.0 
4.615566996009e-04 4.003605556409e-04 0.0 
4.814090102400e-04 4.515993213956e-04 0.0 
2.207986918678e-04 5.280228057780e-04 0.0 
7.990761977220e-05 3.759586242756e-05 0.0 
1.445130688694e-04 6.676017983483e-05 0.0 
1.369821467003e-04 5.793734743345e-05 0.0 
2.028781447547e-04 9.149410434101e-05 0.0 
7.139755671197e-05 2.866658378369e-05 0.0 
6.218654918623e-05 9.732911480033e-05 0.0 
6.335746210839e-05 8.925134948539e-05 0.0 
2.306026447527e-04 9.671357098423e-05 0.0 
2.743771097534e-04 1.421258842536e-04 0.0 
3.070201858086e-04 1.425736376748e-04 0.0 
3.179935590892e-04 1.922998677652e-04 0.0 
2.790145679921e-04 1.945004635013e-04 0.0 
3.260256814792e-04 2.521883485182e-04 0.0 
3.596359314371e-04 2.457733125891e-04 0.0 
3.309485861930e-04 3.244326592060e-04 0.0 
2.396941070208e-04 3.889392905419e-04 0.0 
5.984015332569e-05 2.047549507460e-05 0.0 
2.631737868370e-04 5.297382882986e-05 0.0 
2.915783278627e-04 7.264284023440e-05 0.0 
2.995498742987e-04 7.326548164929e-05 0.0 
1.386888611132e-04 -4.837261656555e-05 0.0 
1.617831904250e-04 -3.370331202842e-05 0.0 
1.638350237828e-04 -2.386043621268e-05 0.0 
1.160150993262e-04 -6.175290890196e-05 0.0 
4.111849276356e-04 4.928085234733e-04 0.0 
5.521737797819e-05 1.748367683789e-05 0.0 
3.761256454399e-04 1.801504736179e-04 0.0 
1.802845164555e-04 -2.704303303521e-05 0.0 
1.927931310671e-04 1.343845430144e-03 0.0 
2.013623021611e-04 1.209823521266e-03 0.0 
2.209554057831e-04 1.199088003316e-03 0.0 
2.052039928134e-04 1.056158366080e-03 0.0 
1.788934853962e-04 1.198615669428e-03 0.0 
1.026369829807e-04 -4.073462149589e-05 0.0 
8.246155046176e-05 -3.991268188179e-05 0.0 
6.450238439433e-05 -4.939477534277e-05 0.0 
6.242142181780e-05 -3.797904769671e-05 0.0 
4.517423154851e-05 -4.652008164526e-05 0.0 
4.667245137131e-05 -5.800155472757e-05 0.0 
4.233439046981e-05 -3.516053225737e-05 0.0 
2.625617721086e-05 -4.405181234050e-05 0.0 
1.548980219108e-04 1.352952489944e-03 0.0 
-1.060028134562e-04 1.329965603710e-04 0.0 
-3.963671821490e-05 9.878411180883e-05 0.0 
-3.125060703641e-05 4.926094321583e-05 0.0 
1.303917955101e-05 7.003221067938e-05 0.0 
1.548696879924e-05 1.221067609369e-04 0.0 
7.364085373781e-05 9.237478917757e-05 0.0 
7.111952355096e-05 1.505634709939e-04 0.0 
-4.992937896102e-05 1.615264045503e-04 0.0 
-6.892014372136e-05 3.285052697613e-05 0.0 
-2.226674667451e-05 9.598894922584e-06 0.0 
-5.396911193523e-05 -3.475004878688e-06 0.0 
-1.618046311904e-05 -2.180641563031e-05 0.0 
2.388064394138e-05 -9.658595800360e-06 0.0 
6.357056325013e-05 -6.957225671032e-05 0.0 
1.641156767519e-05 3.949500482064e-06 0.0 
1.698288717963e-05 -7.740673337515e-05 0.0 
3.213770637874e-05 -8.216214057525e-05 0.0 
2.953384263943e-05 -9.261510142018e-05 0.0 
4.760681561151e-05 -8.519244048521e-05 0.0 
3.279495705038e-05 -7.175807246693e-05 0.0 
1.391516045384e-05 -9.892260356898e-05 0.0 
2.611197390030e-05 -1.012900369120e-04 0.0 
-2.845489374504e-07 -1.278649960718e-04 0.0 
3.517361724099e-06 -1.288459119587e-04 0.0 
1.430469169468e-06 -1.307943464920e-04 0.0 
5.806589955017e-06 -1.285682025589e-04 0.0 
9.154352924485e-06 -1.263401345672e-04 0.0 
4.841796222953e-06 -1.259322102248e-04 0.0 
5.636217322956e-06 -1.218278540774e-04 0.0 
-2.703254051511e-06 -1.190030895134e-04 0.0 
5.877727676080e-06 -1.163225042343e-04 0.0 
1.562147575567e-05 -1.185977848666e-04 0.0 
-5.375593490036e-06 -1.123314748880e-04 0.0 
7.691183678023e-06 6.567068923091e-04 0.0 
1.454120277423e-05 5.830507791590e-04 0.0 
4.845595400142e-05 1.320491274233e-05 0.0 
1.195383121097e-04 1.343896179924e-03 0.0 
-3.008248894496e-05 -5.667514315820e-05 0.0 
1.147212530321e-05 1.470353993166e-04 0.0 
1.739648514163e-05 1.214458777291e-04 0.0 
1.399027058080e-05 1.177673291016e-04 0.0 
9.563876487191e-06 7.236202960171e-07 0.0 
1.552496297184e-05 2.513562474585e-06 0.0 
6.316402420317e-06 1.430965818090e-04 0.0 
1.118703748065e-04 -7.026594049920e-05 0.0 
1.114248108877e-04 2.662779148808e-04 0.0 
3.273357928285e-05 3.918787322303e-04 0.0 
2.490259094533e-04 6.598003693884e-04 0.0 
1.505484286085e-04 -2.492937533751e-05 0.0 
5.223063421271e-05 -1.764917570202e-05 0.0 
1.544000416246e-04 -6.282106718641e-06 0.0 
6.188702821245e-05 1.751766235853e-06 0.0 
9.410731089683e-05 -2.021388128415e-05 0.0 
1.039101644373e-04 3.915444537935e-06 0.0 
1.322201769025e-04 5.065124230820e-05 0.0 
2.091800307106e-05 -1.209154242896e-04 0.0 
9.311933640154e-05 9.336927117496e-04 0.0 
6.026196150157e-05 9.886304450996e-04 0.0 
5.504306470384e-05 6.205995856332e-04 0.0 
7.566318407344e-05 -9.256463065289e-05 0.0 
6.552224459645e-05 -6.033878071328e-05 0.0 
5.011248528376e-05 -1.009795639568e-04 0.0 
1.510761805419e-04 1.611377788193e-04 0.0 
3.935768062391e-04 1.146198817100e-03 0.0 
2.766293445168e-04 4.911511682415e-05 0.0 
1.310400165594e-04 -5.865260439153e-05 0.0 
1.386270571911e-04 -5.342424993787e-05 0.0 
1.519488444494e-04 -4.467794220773e-06 0.0 
5.077029605669e-04 8.536163582448e-04 0.0 
2.052400594405e-04 -8.934489258383e-06 0.0 
1.871359071453e-04 2.799953009067e-05 0.0 
4.192350163006e-05 5.394170369645e-04 0.0 
-1.220330648726e-05 -9.225298717470e-05 0.0 
1.908347423963e-04 3.763435720882e-05 0.0 
2.033760784931e-04 6.339038039742e-06 0.0 
1.293821709265e-04 8.760490357444e-04 0.0 
3.323960095214e-04 1.943304446045e-04 0.0 
9.503311307771e-05 5.124921077876e-05 0.0 
7.907169128053e-05 5.670743149955e-04 0.0 
7.733357046175e-05 3.096437624962e-04 0.0 
1.695459387026e-04 1.035486238074e-03 0.0 
3.189467557569e-05 -1.041189487578e-04 0.0 
9.875681921508e-05 1.087202338045e-03 0.0 
1.377967892897e-04 3.978911939073e-05 0.0 
1.552000575729e-04 5.956837351083e-04 0.0 
5.692221245805e-05 -1.020482207410e-04 0.0 
4.171603060294e-04 2.474792379703e-04 0.0 
4.725718170390e-04 9.860498784683e-04 0.0 
2.806805134138e-04 1.440798034219e-03 0.0 
3.368375232563e-05 3.311907618487e-04 0.0 
4.937597507282e-04 5.643119243424e-04 0.0 
2.631733828200e-04 1.220375025469e-04 0.0 
3.827216984291e-04 2.022148637660e-04 0.0 
4.878527134513e-05 -1.022357535311e-04 0.0 
1.339507483215e-04 2.088556839363e-05 0.0 
4.752502841420e-04 4.171904170338e-04 0.0 
6.323247597304e-05 4.210375617068e-04 0.0 
3.556652022225e-04 5.196438390840e-04 0.0 
4.316843696599e-04 3.560009648931e-04 0.0 
1.035745024144e-04 5.112629107983e-04 0.0 
3.248657055987e-04 1.003232507693e-04 0.0 
3.123840553022e-04 1.941138439909e-04 0.0 
4.140438157402e-04 1.180039367673e-03 0.0 
4.228562203598e-04 7.417992528906e-04 0.0 
3.243814538378e-04 7.086845556494e-04 0.0 
4.730694628833e-04 6.776353432447e-04 0.0 
3.564031850422e-05 -2.497343458541e-05 0.0 
1.616338925629e-04 2.807274692948e-05 0.0 
1.527726362921e-04 2.683962962022e-04 0.0 
4.860526396818e-04 1.047016325064e-03 0.0 
1.594794266716e-04 8.836410866814e-04 0.0 
2.726814306002e-04 2.872611389440e-04 0.0 
4.426999071144e-05 2.756218686456e-04 0.0 
4.702137529804e-04 1.103429545756e-03 0.0 
1.328708091462e-04 1.440043175153e-05 0.0 
8.081932866201e-05 3.709235046382e-04 0.0 
1.847853010704e-04 -1.782406078830e-05 0.0 
7.778377718336e-06 -1.218416828198e-04 0.0 
1.503740459751e-04 6.835770245498e-04 0.0 
3.788063125170e-04 3.952042656148e-04 0.0 
4.965712990038e-04 5.379229168601e-04 0.0 
1.842991955164e-04 -9.075163778841e-06 0.0 
8.532027722984e-05 2.389555916597e-04 0.0 
1.081134955093e-04 1.034701160189e-05 0.0 
2.541496152834e-04 7.752247899804e-05 0.0 
-1.003898341573e-04 1.027963113142e-03 0.0 
3.055276340986e-04 1.361192476150e-03 0.0 
8.529563570697e-05 7.606125477758e-06 0.0 
3.913587128156e-04 1.972153023152e-04 0.0 
2.785958466988e-04 1.544428468531e-04 0.0 
2.829966457304e-05 -5.467987661871e-05 0.0 
1.579731073175e-04 1.527158949762e-04 0.0 
3.582613907298e-04 1.549053590364e-03 0.0 
6.463833280472e-05 5.871910573564e-06 0.0 
2.856709796272e-04 1.109429926503e-04 0.0 
4.633570011503e-04 7.794082125080e-04 0.0 
3.286210210571e-05 1.359978523704e-03 0.0 
4.102459956965e-05 6.773345842622e-06 0.0 
2.402832190587e-04 9.175919887380e-05 0.0 
4.467139559220e-04 5.844453080889e-04 0.0 
3.725773548551e-04 1.660378678893e-04 0.0 
3.064768952418e-04 1.556105429105e-03 0.0 
1.613386195750e-04 -1.466076141678e-05 0.0 
3.933598829108e-04 7.128480352834e-04 0.0 
3.146887574501e-05 1.094040308668e-04 0.0 
2.279282895841e-04 9.531455986403e-05 0.0 
2.391820004606e-04 8.154772854028e-04 0.0 
1.425226268042e-04 -2.773788204640e-05 0.0 
4.198908055725e-04 3.579918262175e-04 0.0 
1.226974398056e-05 -1.231454637518e-04 0.0 
3.353631012535e-04 1.467812824860e-03 0.0 
1.210370396355e-04 -2.971122771192e-05 0.0 
3.705473350428e-04 3.138968328227e-04 0.0 
3.463559178329e-04 1.280745097706e-04 0.0 
1.808057446794e-04 1.165892327012e-04 0.0 
9.977063845548e-05 -3.008282159779e-05 0.0 
3.980495363662e-04 3.006906973761e-04 0.0 
7.886344267939e-05 -2.920615366780e-05 0.0 
3.234414887260e-04 1.651257338010e-03 0.0 
2.472518090966e-04 7.389309410222e-04 0.0 
5.775361505354e-05 -2.742862240560e-05 0.0 
3.609801218711e-04 5.962192669502e-04 0.0 
1.901185292161e-05 -1.123052225281e-04 0.0 
4.371583028068e-04 5.032942332454e-04 0.0 
2.240003301073e-05 -9.850913157682e-07 0.0 
1.981476187437e-04 -1.168202158396e-05 0.0 
3.194548878145e-04 9.739232367350e-05 0.0 
2.203130948964e-04 5.981856654541e-04 0.0 
3.259584574369e-04 1.724930365037e-03 0.0 
3.059321305370e-04 9.267505489737e-05 0.0 
3.191870256172e-04 4.825231806119e-04 0.0 
4.220425349971e-04 4.286456638526e-04 0.0 
4.801956662384e-04 4.779171369665e-04 0.0 
2.841396827238e-04 8.605005462152e-05 0.0 
3.656830376038e-04 1.601947714822e-03 0.0 
1.154859982551e-04 -6.112363929018e-05 0.0 
9.121756089063e-05 -6.608149947512e-05 0.0 
3.820986376603e-04 2.365359090524e-04 0.0 
2.800259462901e-04 4.382800444168e-04 0.0 
1.228298739231e-05 -1.250611051071e-04 0.0 
2.561787806567e-04 5.932396686320e-04 0.0 
5.637353153988e-05 -5.410151824177e-05 0.0 
3.459584161769e-04 1.887607944886e-04 0.0 
3.466122747208e-04 2.874541368686e-04 0.0 
9.322069152109e-06 9.495436901033e-04 0.0 
3.300057727591e-04 1.412808648638e-04 0.0 
9.581823997332e-06 -1.156018945650e-04 0.0 
2.938844413581e-04 1.017520955695e-04 0.0 
4.545429776865e-04 4.175840554853e-04 0.0 
2.789049459847e-04 6.825699422686e-05 0.0 
2.444511997104e-04 3.633831766053e-05 0.0 
2.257624794378e-05 2.521007353674e-04 0.0 
2.303475368701e-04 1.372820531792e-05 0.0 
3.170397377402e-06 1.184057998449e-04 0.0 
6.797730131831e-06 3.009627550984e-06 0.0 
1.232650143748e-05 1.245860536957e-03 0.0 
3.049849074083e-04 1.783796024148e-03 0.0 
-1.829973790710e-04 3.821208023253e-04 0.0 
3.591073060348e-04 1.592514202149e-03 0.0 
1.770493504765e-04 -1.841509383198e-05 0.0 
2.926497400321e-04 5.819593778439e-04 0.0 
2.560906241833e-05 1.238935241145e-03 0.0 
1.453571182381e-04 -4.125866620636e-05 0.0 
1.165162659092e-04 2.026733200576e-04 0.0 
8.250977675795e-05 6.506893043551e-05 0.0 
1.654342464357e-05 7.222805124546e-04 0.0 
2.461694057934e-04 1.230900268109e-04 0.0 
4.000971566637e-04 3.582691549731e-04 0.0 
4.673377571205e-06 3.723580946534e-04 0.0 
7.647988851870e-05 1.371735615737e-03 0.0 
-1.025870726799e-05 -4.765008323182e-05 0.0 
1.714126192469e-05 -2.066746493421e-05 0.0 
2.652798529564e-04 1.778165461757e-03 0.0 
3.081556608015e-04 1.554974244946e-03 0.0 
2.296969204894e-04 1.359437491491e-03 0.0 
3.807549926447e-05 -1.019387232668e-04 0.0 
1.389917386904e-05 2.697457257067e-05 0.0 
2.161882449829e-04 1.678501677812e-03 0.0 
1.547468917380e-04 7.784510049834e-05 0.0 
1.284069792129e-04 1.233724213872e-03 0.0 
3.213874725128e-04 2.802298649748e-04 0.0 
9.780357919406e-05 1.447585192674e-03 0.0 
5.544468700183e-05 2.382801959995e-04 0.0 
1.686329748650e-04 1.245977307216e-04 0.0 
3.397157076588e-05 8.080102849719e-06 0.0 
2.523237493325e-04 2.024574970768e-04 0.0 
6.883810551912e-05 1.014846866875e-03 0.0 
1.879270888968e-04 1.092595348240e-03 0.0 
1.443578685817e-04 1.690112839296e-04 0.0 
2.221621341558e-05 6.039676062267e-04 0.0 
2.484507330902e-05 5.647576604336e-06 0.0 
1.622793255413e-04 1.242960561203e-03 0.0 
1.374014261049e-05 2.351731930764e-04 0.0 
1.015111679307e-04 2.084882619560e-04 0.0 
7.035896671352e-06 2.283830407716e-04 0.0 
2.502882275507e-04 4.545122110246e-04 0.0 
5.194574222119e-05 1.057344752240e-03 0.0 
2.262100137126e-04 1.085176905904e-03 0.0 
1.869193902140e-05 3.786006008772e-06 0.0 
9.992190492099e-05 2.149158071586e-04 0.0 
-3.364885929705e-05 8.267531675031e-04 0.0 
2.595843135684e-05 7.374260736198e-04 0.0 
6.427500022861e-05 -8.199813480216e-05 0.0 
-7.626518567094e-05 2.336812580494e-04 0.0 
8.389127636724e-05 2.091529425084e-05 0.0 
2.005076561250e-04 3.342676769653e-04 0.0 
3.119930500938e-05 5.283356622486e-06 0.0 
2.457476206480e-06 -1.294775691530e-04 0.0 
-2.550235401000e-06 -8.434967299329e-05 0.0 
9.347302649052e-05 2.771541910650e-05 0.0 
1.227799764369e-04 1.744295018211e-04 0.0 
1.275661141872e-04 1.358304420268e-04 0.0 
1.841941875519e-05 9.437949579488e-05 0.0 
-1.488552094667e-04 7.061038915202e-04 0.0 
1.047945218357e-04 1.387117958817e-03 0.0 
4.191182679093e-06 -1.097613146629e-04 0.0 
1.978196452308e-05 4.531312099417e-06 0.0 
3.269838362523e-05 2.238776349029e-04 0.0 
4.576760745208e-05 -7.563353702116e-05 0.0 
2.311639967285e-04 1.312811565206e-03 0.0 
2.234799610218e-05 -1.095086421479e-04 0.0 
2.147161091768e-04 2.098183163945e-04 0.0 
1.428110256977e-05 -3.467959687793e-05 0.0 
2.239053379654e-05 2.118069256350e-04 0.0 
1.071582168686e-04 3.786075554536e-05 0.0 
6.716811123250e-05 2.037368464710e-04 0.0 
6.297843260885e-05 3.488433929558e-05 0.0 
-1.145533640891e-04 4.515769167410e-04 0.0 
1.449776852368e-04 1.146849471098e-04 0.0 
1.790159925605e-04 7.335248069120e-05 0.0 
5.729174760260e-05 1.378079383959e-03 0.0 
8.556824999149e-05 2.145106227145e-04 0.0 
4.056502773207e-05 -9.442200856438e-05 0.0 
2.593494953387e-05 -1.153929089524e-04 0.0 
1.337345521259e-06 1.048715926896e-04 0.0 
-1.390928215917e-07 -1.311709151414e-04 0.0 
9.657984501359e-06 1.377495432077e-03 0.0 
2.640475708222e-06 2.247672577876e-06 0.0 
1.555493094224e-05 -1.234004353106e-04 0.0 
2.021970082445e-05 1.135414987634e-03 0.0 
1.110924464097e-04 1.734697120823e-04 0.0 
1.247707309527e-05 -5.333454494120e-05 0.0 
1.082979948541e-05 4.674591403916e-04 0.0 
5.087205919496e-05 4.777813844423e-05 0.0 
-1.697636704523e-04 2.792135532235e-04 0.0 
1.595478054478e-05 8.746279002112e-04 0.0 
1.515388489693e-04 1.023402298217e-04 0.0 
5.166256288400e-05 1.975225305541e-04 0.0 
4.144645858467e-05 9.755227992437e-04 0.0 
6.238668868975e-05 7.219593563037e-04 0.0 
1.570862893691e-04 2.464767155556e-04 0.0 
4.930495604883e-05 -6.655194353165e-05 0.0 
1.978705569475e-04 2.316537541225e-04 0.0 
1.975393637431e-04 9.655225773013e-05 0.0 
-2.538315756496e-04 7.537327033312e-04 0.0 
1.098407951332e-05 -4.178783235580e-05 0.0 
1.281871681834e-06 -1.019687595243e-04 0.0 
5.639254293044e-05 1.176689055885e-05 0.0 
3.291427674256e-05 -6.277839580849e-05 0.0 
-1.137757749892e-05 1.859938625345e-03 0.0 
7.558799112224e-06 2.626082976264e-03 0.0 
1.368532200966e-04 1.945251178605e-03 0.0 
6.220816347300e-06 2.474712356723e-03 0.0 
2.170996323267e-04 1.964717542680e-03 0.0 
6.126781916969e-06 2.323524160857e-03 0.0 
2.595360048690e-04 1.935026602623e-03 0.0 
6.213869204259e-06 2.172222662556e-03 0.0 
2.775503920254e-04 1.868536421041e-03 0.0 
6.294216677801e-06 2.020688421097e-03 0.0 
2.778481954526e-04 1.776785721315e-03 0.0 
6.426313323670e-06 1.868919208062e-03 0.0 
2.656356482900e-04 1.664244853707e-03 0.0 
6.463739501498e-06 1.716954797033e-03 0.0 
2.443861835674e-04 1.539496107478e-03 0.0 
6.483732138960e-06 1.564848775828e-03 0.0 

VECTORS node_materi_displacement float
0.0 1.208642623555e-02 0.0 
0.0 1.234817041219e-02 0.0 
0.0 0.0 0.0 
0.0 0.0 0.0 
0.0 1.206988781013e-02 0.0 
0.0 1.199537508286e-02 0.0 
0.0 1.186258096648e-02 0.0 
0.0 1.167068326932e-02 0.0 
0.0 1.141699177389e-02 0.0 
0.0 1.110284421034e-02 0.0 
0.0 1.072818164195e-02 0.0 
0.0 1.029211473873e-02 0.0 
0.0 9.794430360402e-03 0.0 
0.0 9.234138968967e-03 0.0 
0.0 8.609443467613e-03 0.0 
0.0 7.919723987524e-03 0.0 
0.0 7.165216858595e-03 0.0 
0.0 6.348342121311e-03 0.0 
0.0 5.462785359430e-03 0.0 
0.0 4.509223974052e-03 0.0 
0.0 3.487358260929e-03 0.0 
0.0 2.395136518164e-03 0.0 
0.0 1.231463428024e-03 0.0 
0.0 0.0 0.0 
0.0 0.0 0.0 
0.0 0.0 0.0 
0.0 0.0 0.0 
0.0 0.0 0.0 
0.0 0.0 0.0 
0.0 0.0 0.0 
0.0 0.0 0.0 
0.0 0.0 0.0 
0.0 0.0 0.0 
0.0 0.0 0.0 
0.0 0.0 0.0 
0.0 0.0 0.0 
0.0 0.0 0.0 
0.0 0.0 0.0 
0.0 0.0 0.0 
0.0 0.0 0.0 
0.0 0.0 0.0 
0.0 0.0 0.0 
0.0 0.0 0.0 
0.0 0.0 0.0 
0.0 0.0 0.0 
0.0 0.0 0.0 
0.0 0.0 0.0 
0.0 0.0 0.0 
0.0 0.0 0.0 
0.0 0.0 0.0 
0.0 0.0 0.0 
0.0 0.0 0.0 
0.0 0.0 0.0 
0.0 0.0 0.0 
0.0 0.0 0.0 
0.0 0.0 0.0 
0.0 0.0 0.0 
0.0 0.0 0.0 
0.0 0.0 0.0 
0.0 0.0 0.0 
0.0 0.0 0.0 
0.0 0.0 0.0 
0.0 0.0 0.0 
0.0 0.0 0.0 
0.0 0.0 0.0 
0.0 0.0 0.0 
0.0 0.0 0.0 
0.0 0.0 0.0 
0.0 0.0 0.0 
0.0 0.0 0.0 
0.0 0.0 0.0 
0.0 0.0 0.0 
0.0 1.139476861636e-02 0.0 
0.0 1.037809368101e-02 0.0 
0.0 9.297500132277e-03 0.0 
0.0 8.155100278832e-03 0.0 
0.0 6.949443180206e-03 0.0 
0.0 5.682187139452e-03 0.0 
0.0 4.353250738585e-03 0.0 
0.0 2.962871727092e-03 0.0 
0.0 1.511677714943e-03 0.0 
-7.325296814379e-04 1.421031898170e-02 0.0 
4.745575005342e-04 1.228362325265e-02 0.0 
-4.054052838323e-04 1.500276968445e-02 0.0 
-4.676740663696e-05 1.568114563347e-02 0.0 
2.538245815026e-04 1.588928695745e-02 0.0 
4.279795368225e-04 1.579771522293e-02 0.0 
5.259136304294e-04 1.552007676692e-02 0.0 
5.718369048995e-04 1.509454068754e-02 0.0 
5.809742095951e-04 1.454389761769e-02 0.0 
5.632360456547e-04 1.388425826071e-02 0.0 
5.255611335015e-04 1.312742998744e-02 0.0 
0.0 1.766209167451e-02 0.0 
0.0 1.722252645266e-02 0.0 
0.0 1.671710848355e-02 0.0 
0.0 1.615218558232e-02 0.0 
0.0 1.551797577030e-02 0.0 
0.0 1.482401447124e-02 0.0 
0.0 1.406075244162e-02 0.0 
0.0 1.323834529923e-02 0.0 
2.682328467144e-05 1.234847258036e-02 0.0 
5.197719187236e-05 1.234927026740e-02 0.0 
7.830935371072e-05 1.235027691031e-02 0.0 
1.051185264656e-04 1.235040864185e-02 0.0 
1.320634026166e-04 1.235212142983e-02 0.0 
1.599080294622e-04 1.235190851314e-02 0.0 
1.889098701733e-04 1.235228884009e-02 0.0 
2.179268945121e-04 1.235108272920e-02 0.0 
2.497027396563e-04 1.235053272113e-02 0.0 
2.830175542794e-04 1.234657143146e-02 0.0 
3.175413588934e-04 1.234074318084e-02 0.0 
3.539035712096e-04 1.233304687127e-02 0.0 
3.919098893535e-04 1.232136867024e-02 0.0 
4.319363177990e-04 1.230462302561e-02 0.0 
-6.600286611484e-04 1.379366758982e-02 0.0 
-5.729201669439e-04 1.346755509863e-02 0.0 
-4.867991186681e-04 1.320324586062e-02 0.0 
-4.101161725401e-04 1.298964200678e-02 0.0 
-3.422442924993e-04 1.281748327832e-02 0.0 
-2.813717999298e-04 1.267438982010e-02 0.0 
-2.277313122709e-04 1.255540123053e-02 0.0 
-1.819644947789e-04 1.245721699515e-02 0.0 
-1.429724484469e-04 1.237648875014e-02 0.0 
-1.099664916650e-04 1.231139720379e-02 0.0 
-8.397037273480e-05 1.225714502229e-02 0.0 
-6.080293008008e-05 1.221553363764e-02 0.0 
-3.998653915362e-05 1.217935983739e-02 0.0 
-2.731426840807e-05 1.214994196687e-02 0.0 
-1.915463949531e-05 1.212870159993e-02 0.0 
-1.201699946912e-05 1.211264066897e-02 0.0 
-6.027156002428e-06 1.210042525518e-02 0.0 
-1.385390950061e-06 1.209240514714e-02 0.0 
-1.372782060149e-06 1.208651425734e-02 0.0 
-5.939506298388e-05 1.614331181716e-02 0.0 
-1.134741349406e-05 1.646291640162e-02 0.0 
2.405397160937e-05 1.671230459466e-02 0.0 
6.080331241539e-05 1.691177113791e-02 0.0 
9.621693711273e-05 1.707306458462e-02 0.0 
1.280428629978e-04 1.720285266032e-02 0.0 
1.556722572184e-04 1.730768648362e-02 0.0 
1.785703163581e-04 1.739187939163e-02 0.0 
1.967188930596e-04 1.745923185515e-02 0.0 
2.101573749835e-04 1.751264040123e-02 0.0 
2.191099673803e-04 1.755458730844e-02 0.0 
2.238366224628e-04 1.758709238371e-02 0.0 
2.246560637090e-04 1.761186927319e-02 0.0 
2.219009819559e-04 1.763035321018e-02 0.0 
2.159169740558e-04 1.764376244752e-02 0.0 
2.070450406222e-04 1.765312359498e-02 0.0 
1.956136876741e-04 1.765930155356e-02 0.0 
1.819334407993e-04 1.766302387500e-02 0.0 
1.663000942601e-04 1.766490322700e-02 0.0 
1.490024805130e-04 1.766545354490e-02 0.0 
1.303364638636e-04 1.766510411619e-02 0.0 
1.106287843723e-04 1.766421298677e-02 0.0 
9.027701501042e-05 1.766308211794e-02 0.0 
6.981261610010e-05 1.766199499078e-02 0.0 
4.997449446898e-05 1.766156035942e-02 0.0 
3.087818158446e-05 1.766603376099e-02 0.0 
2.425781664018e-04 1.616839811208e-02 0.0 
2.421073088793e-04 1.639081168329e-02 0.0 
2.426941874781e-04 1.656673161483e-02 0.0 
2.470863059929e-04 1.671075650217e-02 0.0 
2.520939990532e-04 1.682596415130e-02 0.0 
2.570186699051e-04 1.691931027670e-02 0.0 
2.606448467020e-04 1.699388096218e-02 0.0 
2.625358801592e-04 1.705339085308e-02 0.0 
2.623291402863e-04 1.710031469689e-02 0.0 
2.599006912696e-04 1.713695093906e-02 0.0 
2.552031184412e-04 1.716509213981e-02 0.0 
2.482844306660e-04 1.718630653882e-02 0.0 
2.392386797182e-04 1.720189083737e-02 0.0 
2.281980088885e-04 1.721295348441e-02 0.0 
2.153184741303e-04 1.722042804060e-02 0.0 
2.007733298129e-04 1.722510628106e-02 0.0 
1.847437288069e-04 1.722765501574e-02 0.0 
1.674151543815e-04 1.722863761146e-02 0.0 
1.489774416508e-04 1.722853151507e-02 0.0 
1.296267744311e-04 1.722774382512e-02 0.0 
1.095656410604e-04 1.722662531096e-02 0.0 
8.899399229470e-05 1.722548067305e-02 0.0 
6.806632032012e-05 1.722455306649e-02 0.0 
4.667760220058e-05 1.722372369348e-02 0.0 
2.362241336437e-05 1.721954589753e-02 0.0 
2.346383718757e-05 1.672193149516e-02 0.0 
4.689617931134e-05 1.672072340883e-02 0.0 
6.972608206093e-05 1.672171968382e-02 0.0 
9.209195616480e-05 1.672294966060e-02 0.0 
1.140628552791e-04 1.672433050556e-02 0.0 
1.356134230295e-04 1.672567117774e-02 0.0 
1.566637665636e-04 1.672668517745e-02 0.0 
1.771085331062e-04 1.672701068241e-02 0.0 
1.968376804166e-04 1.672620960373e-02 0.0 
2.157456724865e-04 1.672376009850e-02 0.0 
2.337378263397e-04 1.671904022992e-02 0.0 
2.507345698045e-04 1.671130816316e-02 0.0 
2.666785695216e-04 1.669967412707e-02 0.0 
2.815623382616e-04 1.668308813835e-02 0.0 
2.954152962709e-04 1.666030343833e-02 0.0 
3.083592914927e-04 1.662986469516e-02 0.0 
3.205232903504e-04 1.658997630841e-02 0.0 
3.323013930575e-04 1.653863670749e-02 0.0 
3.439307689852e-04 1.647310573978e-02 0.0 
3.564360159907e-04 1.639075965465e-02 0.0 
3.699233171910e-04 1.628655375341e-02 0.0 
3.872378513670e-04 1.615872410771e-02 0.0 
4.045853682914e-04 1.599673677783e-02 0.0 
4.944958144906e-04 1.565874619529e-02 0.0 
4.675458230551e-04 1.577457890220e-02 0.0 
4.401167536637e-04 1.586472914949e-02 0.0 
4.158131591854e-04 1.593856896830e-02 0.0 
3.927472729501e-04 1.599626662038e-02 0.0 
3.710130377865e-04 1.604201559665e-02 0.0 
3.498977260875e-04 1.607720119551e-02 0.0 
3.292256181949e-04 1.610408176143e-02 0.0 
3.086924181870e-04 1.612401490198e-02 0.0 
2.881264631024e-04 1.613839813487e-02 0.0 
2.673802797140e-04 1.614831600169e-02 0.0 
2.463984288768e-04 1.615476099950e-02 0.0 
2.251524756123e-04 1.615853465850e-02 0.0 
2.036312211844e-04 1.616030883794e-02 0.0 
1.818418986691e-04 1.616065023097e-02 0.0 
1.598057619070e-04 1.616003124985e-02 0.0 
1.375557904134e-04 1.615884577262e-02 0.0 
1.151107301573e-04 1.615739572828e-02 0.0 
9.246415998204e-05 1.615589639553e-02 0.0 
6.957833828531e-05 1.615445590360e-02 0.0 
4.643175408909e-05 1.615291913476e-02 0.0 
2.320759639879e-05 1.614851556605e-02 0.0 
2.431609825286e-05 1.552258386158e-02 0.0 
4.869236364143e-05 1.552108674654e-02 0.0 
7.304078633200e-05 1.552240036937e-02 0.0 
9.734965119623e-05 1.552394500707e-02 0.0 
1.216551097211e-04 1.552552214090e-02 0.0 
1.460059798385e-04 1.552699598212e-02 0.0 
1.704550327282e-04 1.552814336141e-02 0.0 
1.950260964307e-04 1.552866049570e-02 0.0 
2.197460456504e-04 1.552810472684e-02 0.0 
2.446726098851e-04 1.552594965827e-02 0.0 
2.698888446255e-04 1.552155932129e-02 0.0 
2.954785421305e-04 1.551419853720e-02 0.0 
3.215318078938e-04 1.550298357072e-02 0.0 
3.481522128619e-04 1.548672402403e-02 0.0 
3.756933997416e-04 1.546422555078e-02 0.0 
4.042660759820e-04 1.543386023313e-02 0.0 
4.345493462486e-04 1.539438230256e-02 0.0 
4.660801656387e-04 1.534266082422e-02 0.0 
5.006815178775e-04 1.527860617833e-02 0.0 
5.348061275217e-04 1.519517275127e-02 0.0 
5.417739643662e-04 1.461286478755e-02 0.0 
5.049283816778e-04 1.467101213279e-02 0.0 
4.671777445251e-04 1.471416484183e-02 0.0 
4.322700163427e-04 1.474957628251e-02 0.0 
3.988795487352e-04 1.477582675092e-02 0.0 
3.672917174987e-04 1.479573605676e-02 0.0 
3.368500558382e-04 1.480974062481e-02 0.0 
3.075085263511e-04 1.481948407804e-02 0.0 
2.791230936081e-04 1.482588732706e-02 0.0 
2.515963594488e-04 1.482968767550e-02 0.0 
2.247967062155e-04 1.483149719563e-02 0.0 
1.985373254596e-04 1.483187667690e-02 0.0 
1.727714672306e-04 1.483134861364e-02 0.0 
1.474448667182e-04 1.483030702195e-02 0.0 
1.224629309373e-04 1.482895153504e-02 0.0 
9.772886827987e-05 1.482748348096e-02 0.0 
7.318675148826e-05 1.482601963533e-02 0.0 
4.873830938716e-05 1.482448381737e-02 0.0 
2.434980523123e-05 1.482021308399e-02 0.0 
2.554464121121e-05 1.406517481245e-02 0.0 
5.115264284983e-05 1.406361027739e-02 0.0 
7.678007534612e-05 1.406489620736e-02 0.0 
1.027397914821e-04 1.406621220896e-02 0.0 
1.290025125168e-04 1.406755999859e-02 0.0 
1.557831462737e-04 1.406868068424e-02 0.0 
1.831554642162e-04 1.406939883128e-02 0.0 
2.113849639888e-04 1.406951623941e-02 0.0 
2.403211549226e-04 1.406873197453e-02 0.0 
2.702941290401e-04 1.406611905358e-02 0.0 
3.015571212474e-04 1.406121724397e-02 0.0 
3.341314705002e-04 1.405349773343e-02 0.0 
3.682137002276e-04 1.404204322437e-02 0.0 
4.040662257241e-04 1.402599755824e-02 0.0 
4.412428508675e-04 1.400262705243e-02 0.0 
4.816302573831e-04 1.397304750560e-02 0.0 
5.214386519227e-04 1.393231487965e-02 0.0 
4.848430394337e-04 1.315886114113e-02 0.0 
4.459762929536e-04 1.318723205373e-02 0.0 
4.064431011376e-04 1.320500814183e-02 0.0 
3.695114141698e-04 1.321900724517e-02 0.0 
3.345214716630e-04 1.322886632860e-02 0.0 
3.010552909899e-04 1.323552428972e-02 0.0 
2.691604498599e-04 1.324011643040e-02 0.0 
2.387939046345e-04 1.324251723713e-02 0.0 
2.093748759834e-04 1.324286920271e-02 0.0 
1.812633418025e-04 1.324326047010e-02 0.0 
1.538574434793e-04 1.324269263579e-02 0.0 
1.273992188284e-04 1.324198902073e-02 0.0 
1.012461169274e-04 1.324071321491e-02 0.0 
7.574823760033e-05 1.323982700001e-02 0.0 
5.062173891987e-05 1.323823847374e-02 0.0 
2.497188456087e-05 1.323366114968e-02 0.0 
-5.725612850392e-04 1.459841899619e-02 0.0 
-2.244485223880e-04 1.537770009697e-02 0.0 
1.304185567002e-04 1.583181337471e-02 0.0 
3.562718306568e-04 1.587003030246e-02 0.0 
4.872521635964e-04 1.567897990569e-02 0.0 
5.553538592519e-04 1.532337471000e-02 0.0 
5.820752670507e-04 1.483378310513e-02 0.0 
5.765541912668e-04 1.422720517679e-02 0.0 
5.478838005732e-04 1.351759601147e-02 0.0 
5.026523803835e-04 1.271598170294e-02 0.0 
1.430761430999e-04 1.511815444209e-02 0.0 
1.585413786799e-04 1.137747841125e-03 0.0 
-6.480426140558e-05 1.231742880457e-02 0.0 
-2.236492238664e-04 1.287304799625e-02 0.0 
1.121974182203e-04 1.100932698401e-03 0.0 
5.330025207349e-04 1.539620148233e-02 0.0 
3.941140372360e-05 8.918764788311e-03 0.0 
1.788105914858e-04 1.181937498489e-03 0.0 
6.444156210299e-04 1.472474527596e-02 0.0 
1.691275521400e-04 1.193373969367e-03 0.0 
6.184161506499e-04 1.351586420186e-02 0.0 
6.575260795674e-05 9.982637464647e-04 0.0 
-6.373466445360e-06 1.214294834829e-02 0.0 
1.443366694038e-04 1.248643045636e-03 0.0 
5.149364646721e-04 1.188268874682e-02 0.0 
2.785350343952e-05 1.091142561168e-02 0.0 
4.137256648860e-05 6.932649295770e-03 0.0 
1.223255237093e-04 1.324626144647e-03 0.0 
8.047902533098e-05 1.280364687690e-03 0.0 
2.375703681773e-05 1.296697443651e-03 0.0 
4.242860616843e-05 1.406548511068e-03 0.0 
5.690871472921e-05 1.257093394289e-03 0.0 
4.128205569578e-04 1.146987801000e-02 0.0 
2.657090786936e-04 1.148953398169e-02 0.0 
1.733283784211e-04 1.147113155858e-02 0.0 
1.702107397442e-05 7.542108262406e-03 0.0 
3.948627483586e-05 1.076421285138e-03 0.0 
-3.554121043426e-04 1.360532113949e-02 0.0 
3.457887762469e-06 1.208949048935e-02 0.0 
2.873453624675e-05 4.085973720527e-03 0.0 
8.861593118417e-05 1.153375357803e-02 0.0 
1.498748183042e-05 1.177802742585e-02 0.0 
1.127549085083e-04 1.469950197512e-03 0.0 
1.634368951725e-04 1.095375237465e-03 0.0 
1.564048113463e-04 1.205246423675e-03 0.0 
1.823281883848e-04 1.228329371114e-03 0.0 
1.342762040565e-04 1.066348336398e-03 0.0 
-1.440169493664e-04 1.258050424565e-02 0.0 
3.353845179583e-04 1.153624434610e-02 0.0 
1.039763390365e-04 1.246389472848e-03 0.0 
1.181767542859e-05 5.082708918426e-03 0.0 
-3.021915090971e-05 1.221177555629e-02 0.0 
3.601049368788e-05 1.005173829971e-02 0.0 
1.113902183686e-05 1.055876025335e-03 0.0 
6.149407580547e-04 1.512305645404e-02 0.0 
3.891952418423e-04 1.543831792296e-02 0.0 
6.442765410025e-04 1.418235379487e-02 0.0 
5.734064454213e-04 1.274704560451e-02 0.0 
-2.319859903700e-04 1.450439544156e-02 0.0 
2.076998376113e-05 9.716958776152e-03 0.0 
1.864606397263e-05 8.505676880683e-04 0.0 
4.202476623587e-07 1.207733834125e-02 0.0 
6.183840499283e-06 2.355360604730e-03 0.0 
4.874496160756e-04 1.140950388164e-02 0.0 
5.175284120925e-04 1.098391225205e-02 0.0 
4.726658777448e-04 1.054325191041e-02 0.0 
5.092040056961e-04 1.003006657121e-02 0.0 
4.639306453672e-04 9.480278495067e-03 0.0 
4.912127381133e-04 8.994979442147e-03 0.0 
5.409260529727e-04 9.547946229573e-03 0.0 
5.157165079559e-04 8.497014947844e-03 0.0 
5.697056838363e-04 9.061525899532e-03 0.0 
4.416190699153e-04 8.407524658889e-03 0.0 
5.362580068864e-04 7.986098867768e-03 0.0 
5.945797437951e-04 8.560937214875e-03 0.0 
5.521294767730e-04 7.465188609297e-03 0.0 
6.143045283393e-04 8.046352051412e-03 0.0 
6.517743222921e-04 9.111487653992e-03 0.0 
6.753838396331e-04 8.607040650685e-03 0.0 
7.068821068257e-04 9.633579292917e-03 0.0 
7.341450877819e-04 9.137305676577e-03 0.0 
6.927500127032e-04 8.093268932027e-03 0.0 
7.546342292872e-04 8.631866906964e-03 0.0 
7.897382694405e-04 9.637560416169e-03 0.0 
8.128056921742e-04 9.139033169376e-03 0.0 
8.412357428035e-04 1.010478025114e-02 0.0 
8.662195192417e-04 9.609804237865e-03 0.0 
8.881313323910e-04 1.054041370245e-02 0.0 
9.141704678996e-04 1.004713791858e-02 0.0 
8.819317316907e-04 9.105971102444e-03 0.0 
9.301626809586e-04 9.548224420547e-03 0.0 
9.552446929204e-04 1.044705640217e-02 0.0 
9.706484810287e-04 9.952939619088e-03 0.0 
9.882016092793e-04 1.080827628732e-02 0.0 
1.001970500237e-03 1.031817042677e-02 0.0 
9.744398879523e-04 9.454476691004e-03 0.0 
1.003418290165e-03 9.827623919832e-03 0.0 
1.022594433762e-03 1.064478774561e-02 0.0 
1.020712267782e-03 1.016243001314e-02 0.0 
1.030723814017e-03 1.093142339198e-02 0.0 
1.024823373285e-03 1.045819364660e-02 0.0 
1.024703567151e-03 1.117636825227e-02 0.0 
1.014286203221e-03 1.071681317617e-02 0.0 
1.007058353061e-03 9.986888640198e-03 0.0 
9.927297777231e-04 1.026073659113e-02 0.0 
9.879003949619e-04 1.094099413808e-02 0.0 
9.631740539384e-04 1.050431277877e-02 0.0 
9.615913463819e-04 9.814856997260e-03 0.0 
9.299847822125e-04 1.008080663773e-02 0.0 
9.223998406181e-04 9.378955243402e-03 0.0 
8.898539714455e-04 9.668184124154e-03 0.0 
8.849349674149e-04 1.031646203510e-02 0.0 
8.449881897330e-04 9.928204954787e-03 0.0 
8.441644557928e-04 9.263535873058e-03 0.0 
8.002044682162e-04 9.552421185828e-03 0.0 
7.890334790003e-04 1.016936939412e-02 0.0 
7.467969051547e-04 9.815515350703e-03 0.0 
7.519022490357e-04 9.180311879819e-03 0.0 
7.010172000323e-04 9.470560892131e-03 0.0 
6.857109614843e-04 1.006112482804e-02 0.0 
6.436420307480e-04 9.739770343657e-03 0.0 
6.529889957942e-04 9.122726970384e-03 0.0 
5.989487972734e-04 9.421851951613e-03 0.0 
5.814264941928e-04 9.994117804492e-03 0.0 
5.410837886159e-04 9.698790314389e-03 0.0 
5.525050583964e-04 9.098881406022e-03 0.0 
4.983936970558e-04 9.403960838575e-03 0.0 
5.042959087395e-04 8.775104095196e-03 0.0 
4.799551494392e-04 9.966027376890e-03 0.0 
4.419154231850e-04 9.692266028688e-03 0.0 
4.179149398935e-04 1.022146601052e-02 0.0 
3.846866407960e-04 9.965410522274e-03 0.0 
9.666055753011e-04 8.954342649342e-03 0.0 
3.575409070540e-04 1.045816545859e-02 0.0 
3.839807184706e-04 1.068154261502e-02 0.0 
3.283680813732e-04 1.022290055930e-02 0.0 
3.486973389037e-04 9.704013930285e-03 0.0 
2.994000927870e-04 1.067969523265e-02 0.0 
2.740739294983e-04 1.046436807885e-02 0.0 
2.448240267550e-04 1.088629145726e-02 0.0 
1.021558003530e-03 1.167145170819e-02 0.0 
7.025858399071e-04 7.569470862600e-03 0.0 
2.229269108713e-04 1.069032577737e-02 0.0 
1.950038574156e-04 1.107782344317e-02 0.0 
2.092414970823e-04 1.124810217203e-02 0.0 
1.619666408428e-04 1.140534356641e-02 0.0 
4.184125531750e-04 8.916506425872e-03 0.0 
3.913437665980e-04 7.795770593248e-03 0.0 
3.722963927497e-04 8.325578831063e-03 0.0 
3.410330029844e-04 7.165747491671e-03 0.0 
3.259023419287e-04 7.705295397250e-03 0.0 
1.503564576633e-04 1.125414936349e-02 0.0 
4.893124344160e-04 6.832672101069e-03 0.0 
3.527483903149e-04 6.607226542949e-03 0.0 
8.081422132783e-04 1.059062356532e-02 0.0 
9.623031238191e-04 1.129472431762e-02 0.0 
9.414021982152e-04 9.061464729188e-03 0.0 
2.452899278294e-04 1.024227340337e-02 0.0 
1.970193565968e-04 1.048738884520e-02 0.0 
2.135493714979e-04 1.001274554872e-02 0.0 
5.506981305649e-04 8.430291471778e-03 0.0 
4.976924947698e-04 8.080908179300e-03 0.0 
5.353730268545e-04 7.694269301189e-03 0.0 
4.786091376519e-04 7.320513519925e-03 0.0 
5.066092634537e-04 6.891514317490e-03 0.0 
4.471603804345e-04 6.493362064531e-03 0.0 
4.221428591067e-04 6.942931178542e-03 0.0 
3.888321197323e-04 6.089957480929e-03 0.0 
3.665643602442e-04 6.559825780923e-03 0.0 
4.645342290890e-04 6.022091208065e-03 0.0 
5.267780686098e-04 6.440247542174e-03 0.0 
3.322749308614e-04 5.680745802285e-03 0.0 
3.124573234332e-04 6.169524226209e-03 0.0 
2.780789998477e-04 5.263801755987e-03 0.0 
2.604113616898e-04 5.771224562639e-03 0.0 
2.863568992670e-04 6.638218443914e-03 0.0 
2.363975708733e-04 6.258507947397e-03 0.0 
2.552122356391e-04 7.086780348273e-03 0.0 
8.965428071665e-04 8.612534146940e-03 0.0 
9.031591774406e-04 8.243160208972e-03 0.0 
8.528049649895e-04 7.781140498138e-03 0.0 
8.469043389785e-04 7.360569545975e-03 0.0 
7.912343805711e-04 6.884414849471e-03 0.0 
7.725913548428e-04 6.414248225825e-03 0.0 
7.116311441290e-04 5.922203219531e-03 0.0 
7.304155815865e-04 6.412183172667e-03 0.0 
5.630238970967e-04 6.929333027635e-03 0.0 
9.450488334866e-04 1.113034603512e-02 0.0 
9.627216295420e-04 1.155949405616e-02 0.0 
9.055723205304e-04 1.169358845683e-02 0.0 
9.152270999181e-04 1.211468659667e-02 0.0 
8.423309018541e-04 1.219191427414e-02 0.0 
8.424374035077e-04 1.260786009648e-02 0.0 
7.515834791970e-04 1.262778230727e-02 0.0 
7.527922141198e-04 1.224147008065e-02 0.0 
6.440825133610e-04 1.262360199748e-02 0.0 
6.500162930150e-04 1.227270447615e-02 0.0 
5.258807462755e-04 1.260388449207e-02 0.0 
5.389891635973e-04 1.229351915215e-02 0.0 
8.875406406020e-04 8.596327336779e-03 0.0 
8.275947993339e-04 6.908009626230e-03 0.0 
7.406608195652e-04 5.912078522582e-03 0.0 
7.950703635165e-04 6.422342726413e-03 0.0 
1.681877991707e-04 1.155014480657e-02 0.0 
2.109111032851e-04 5.363620859817e-03 0.0 
4.729219945984e-04 5.527375355396e-03 0.0 
5.379755485791e-04 5.973283057027e-03 0.0 
6.462109908096e-04 5.432499042432e-03 0.0 
1.210308974396e-04 1.154763471058e-02 0.0 
7.399860615254e-04 1.303928145511e-02 0.0 
8.294328691895e-04 1.305007360574e-02 0.0 
2.918378111460e-04 6.505765972398e-03 0.0 
2.806466406314e-04 7.059793695356e-03 0.0 
4.710335116105e-04 5.009375658502e-03 0.0 
1.113482416784e-04 1.141481328828e-02 0.0 
3.444928071249e-04 5.170967212999e-03 0.0 
5.018798857821e-04 1.294109506217e-02 0.0 
1.885410521179e-04 5.869676292473e-03 0.0 
1.644366789412e-04 4.946606256352e-03 0.0 
3.908872018660e-04 7.369814603778e-03 0.0 
6.957061986389e-04 5.376740827749e-03 0.0 
7.515836970300e-04 5.919610068768e-03 0.0 
6.485411670129e-04 1.194231606236e-02 0.0 
5.445817354215e-04 1.200233786438e-02 0.0 
4.260824582290e-04 1.230805894307e-02 0.0 
4.433335039516e-04 1.204130079592e-02 0.0 
5.439325189517e-04 1.172024242753e-02 0.0 
4.481599849839e-04 1.180371731532e-02 0.0 
3.438182774282e-04 1.208673131250e-02 0.0 
3.564443878487e-04 1.187976564109e-02 0.0 
4.471605981249e-04 1.156771813862e-02 0.0 
3.626459600142e-04 1.167251469042e-02 0.0 
2.716157105604e-04 1.195041467486e-02 0.0 
2.846458114324e-04 1.176875615253e-02 0.0 
1.790379596240e-04 4.400738383141e-03 0.0 
3.690693561931e-04 1.287142555344e-02 0.0 
6.740650605643e-04 1.011710045601e-02 0.0 
4.050024341241e-04 4.546787283898e-03 0.0 
6.150268005423e-04 4.908426370899e-03 0.0 
2.445496315541e-04 5.821807413526e-03 0.0 
2.370653696015e-04 6.390496545651e-03 0.0 
2.666445884238e-04 7.607597753934e-03 0.0 
2.263379973384e-04 6.949450765212e-03 0.0 
1.956755831034e-04 5.696928427961e-03 0.0 
1.880772601480e-04 6.270418359771e-03 0.0 
2.129066292518e-04 7.499106941093e-03 0.0 
1.775456763949e-04 6.833066304385e-03 0.0 
1.972757807841e-04 8.036885938139e-03 0.0 
1.646149571677e-04 7.383764065998e-03 0.0 
1.445298381729e-04 6.145511712881e-03 0.0 
1.340532050380e-04 6.710855092676e-03 0.0 
1.497064216673e-04 7.923097627521e-03 0.0 
1.212394174716e-04 7.264328601137e-03 0.0 
1.330162851540e-04 8.449712326885e-03 0.0 
1.064162930390e-04 7.805202204203e-03 0.0 
9.520110997466e-05 6.585957682408e-03 0.0 
8.809343938256e-05 1.166537797627e-02 0.0 
6.658821980055e-04 5.943445314821e-03 0.0 
5.776203282006e-04 4.943361110899e-03 0.0 
1.686698517939e-04 1.027583050422e-02 0.0 
1.815376314317e-04 9.774061053527e-03 0.0 
2.247875601826e-04 9.475434565581e-03 0.0 
1.852762405505e-04 9.211921755642e-03 0.0 
8.213244687890e-05 7.147146326319e-03 0.0 
7.129801412872e-05 5.889269924891e-03 0.0 
7.154241289501e-04 1.347880692779e-02 0.0 
8.003688461098e-04 1.351783668228e-02 0.0 
2.481313664082e-04 5.242783404537e-03 0.0 
1.431748657228e-04 5.471056107220e-03 0.0 
1.610243953481e-04 6.355379471666e-03 0.0 
9.875102376380e-04 1.161050211808e-02 0.0 
9.509447493916e-04 1.208954228229e-02 0.0 
9.677125034144e-04 1.236189448396e-02 0.0 
9.193006416880e-04 1.284946758372e-02 0.0 
9.031825748803e-04 1.256164702862e-02 0.0 
9.261724038485e-04 1.308186465012e-02 0.0 
5.899740780788e-04 6.870071818093e-03 0.0 
1.142747996579e-04 5.437832330052e-03 0.0 
2.183378640423e-04 1.141260124731e-02 0.0 
1.680503950189e-04 1.168962987611e-02 0.0 
1.217504588935e-04 4.519099909419e-03 0.0 
7.363300267233e-04 6.874741130489e-03 0.0 
8.320146667685e-04 8.109582375742e-03 0.0 
8.270482596149e-04 7.585601287276e-03 0.0 
7.639227910198e-04 7.053203333445e-03 0.0 
7.481421818280e-04 6.515583548657e-03 0.0 
6.771642695746e-04 5.937151784410e-03 0.0 
6.498377735098e-04 5.384782000922e-03 0.0 
7.222481307837e-04 5.974827896298e-03 0.0 
6.379188178250e-04 4.802627039505e-03 0.0 
6.124597028625e-04 4.826962278265e-03 0.0 
9.153970910661e-05 8.343720981008e-03 0.0 
8.760627631539e-04 7.414504587142e-03 0.0 
4.400405749892e-04 1.133515392968e-02 0.0 
9.159555687500e-05 1.177251157679e-02 0.0 
1.938217400590e-04 1.201949075839e-02 0.0 
7.843859986310e-05 1.155748498103e-02 0.0 
9.680056488299e-05 1.127353714477e-02 0.0 
3.892756572774e-04 3.982581380600e-03 0.0 
5.708824744214e-04 4.760984567689e-03 0.0 
6.006584149804e-04 5.326767843084e-03 0.0 
8.594882306594e-04 1.331665433190e-02 0.0 
8.461056713749e-04 1.301750682072e-02 0.0 
5.761670810748e-04 4.267146340374e-03 0.0 
3.508134423645e-04 8.854127035358e-03 0.0 
2.315993900288e-04 8.669908446835e-03 0.0 
2.117773535297e-04 9.181043982170e-03 0.0 
5.853523949719e-05 1.179821298590e-02 0.0 
1.710332301382e-04 1.216606508354e-02 0.0 
1.570652205247e-04 4.982063928300e-03 0.0 
8.947900316338e-04 1.302695949624e-02 0.0 
8.600693834158e-04 1.350751854375e-02 0.0 
3.220070584261e-04 1.319352882492e-02 0.0 
1.772628867789e-04 1.307696417734e-02 0.0 
6.017177427876e-05 6.451530806381e-03 0.0 
5.096361050635e-05 5.172432013696e-03 0.0 
2.289306345430e-04 8.876477028200e-03 0.0 
1.865477778033e-04 8.585537365099e-03 0.0 
4.576471778025e-04 4.462947686295e-03 0.0 
2.150252107289e-04 1.185543629314e-02 0.0 
5.843294093380e-05 4.572820098843e-03 0.0 
6.727375346052e-04 6.424737371149e-03 0.0 
7.297969851213e-04 7.309727356835e-03 0.0 
1.427089080175e-04 9.531318790573e-03 0.0 
6.723871659864e-04 1.395105430358e-02 0.0 
5.644138171134e-04 1.384528674412e-02 0.0 
5.218131790889e-04 1.119263967822e-02 0.0 
2.898453551944e-04 1.158755463189e-02 0.0 
6.497949144883e-05 1.143436257478e-02 0.0 
3.609239507045e-04 3.391484174928e-03 0.0 
1.579760837028e-04 4.384169799703e-03 0.0 
6.859595804865e-04 5.430006857647e-03 0.0 
7.866992984427e-04 6.532942061093e-03 0.0 
5.656864511540e-04 4.268070653720e-03 0.0 
1.333848885885e-04 1.206496920355e-02 0.0 
3.228605378166e-04 3.496757562849e-03 0.0 
1.014064393700e-04 5.061964275786e-03 0.0 
4.913042092639e-04 4.160302180194e-03 0.0 
5.192454424208e-04 4.684486815700e-03 0.0 
9.377351182691e-04 1.296013549490e-02 0.0 
8.988904482197e-04 1.343385593362e-02 0.0 
8.061949313356e-04 1.399618637248e-02 0.0 
8.404696492575e-04 1.391515830601e-02 0.0 
5.892782209636e-04 1.008136182378e-02 0.0 
9.621814205101e-04 1.283477722402e-02 0.0 
7.226869617808e-04 1.060193276684e-02 0.0 
6.819744843508e-04 1.106359776282e-02 0.0 
7.232275214814e-04 1.151151414255e-02 0.0 
8.789297116532e-04 1.224653750957e-02 0.0 
8.240708985444e-04 1.269231874444e-02 0.0 
9.690102750242e-04 1.200891595707e-02 0.0 
9.465330609945e-04 8.712463056957e-03 0.0 
2.706163741610e-04 9.158589693892e-03 0.0 
3.045185554763e-04 7.436071269023e-03 0.0 
5.918390357062e-04 8.065187260659e-03 0.0 
1.196156672099e-04 4.846982803402e-03 0.0 
9.027203602559e-05 4.103927146383e-03 0.0 
1.614937603968e-04 9.074584991282e-03 0.0 
1.417242829960e-04 9.573827229733e-03 0.0 
1.229484042683e-04 1.179309306900e-02 0.0 
1.143681132947e-04 1.190773436830e-02 0.0 
4.549418083961e-04 8.448123080748e-03 0.0 
3.410253316782e-04 4.080240422384e-03 0.0 
1.996395877625e-04 4.522193544990e-03 0.0 
1.946628539403e-04 3.917360496240e-03 0.0 
2.469958830147e-04 4.651690181227e-03 0.0 
4.315735009483e-04 3.887395363815e-03 0.0 
8.867590656918e-04 1.128990859912e-02 0.0 
8.455922237817e-04 8.172656494474e-03 0.0 
2.389258143323e-04 1.280582697551e-02 0.0 
9.294900299263e-04 8.537917271485e-03 0.0 
7.635336039224e-05 1.197682902414e-02 0.0 
6.352749924313e-04 6.998629714363e-03 0.0 
8.367583601117e-05 4.080777436132e-03 0.0 
9.671709327370e-05 3.498462070776e-03 0.0 
5.064307253448e-04 3.650150457626e-03 0.0 
5.558914091822e-04 1.146756488046e-02 0.0 
9.123593724984e-04 8.026059176910e-03 0.0 
9.477812914561e-04 8.457522080960e-03 0.0 
6.762834853082e-04 1.194813425111e-02 0.0 
7.095917383686e-04 1.236069603020e-02 0.0 
7.604915843093e-04 1.192875982150e-02 0.0 
7.381640447884e-04 1.274979163356e-02 0.0 
5.026307326382e-04 1.093980846174e-02 0.0 
4.269742666377e-04 1.110859645504e-02 0.0 
4.392005696826e-04 3.484438037188e-03 0.0 
4.869301046793e-04 3.658693021198e-03 0.0 
4.062299419208e-04 3.509175956357e-03 0.0 
4.347947455722e-04 4.007259616846e-03 0.0 
4.363182664333e-04 3.096935522553e-03 0.0 
5.077379264471e-04 3.729592441517e-03 0.0 
7.760936942772e-05 1.112318734024e-02 0.0 
7.835866342571e-04 1.344167525448e-02 0.0 
1.198754208990e-04 3.632228802423e-03 0.0 
6.393755143488e-04 1.151447053131e-02 0.0 
2.620829869509e-04 3.033928748058e-03 0.0 
2.805377570148e-04 3.610412860799e-03 0.0 
4.578843182389e-05 1.297338029365e-02 0.0 
1.189157233166e-04 1.272420743736e-02 0.0 
4.039463246910e-05 3.851980974902e-03 0.0 
7.341849707258e-04 1.447105429415e-02 0.0 
7.659724109594e-04 1.438378949371e-02 0.0 
6.849134301043e-04 1.449121024372e-02 0.0 
1.262071105774e-05 1.828915345476e-03 0.0 
3.820630306059e-05 1.154521589460e-02 0.0 
6.302422666815e-05 3.031667418747e-03 0.0 
8.465770274291e-04 1.188107050011e-02 0.0 
4.241877741229e-05 3.171227166071e-03 0.0 
8.848890011787e-04 7.517469058435e-03 0.0 
1.002488033397e-03 1.189913171765e-02 0.0 
5.269051949787e-04 4.940022686862e-03 0.0 
3.270712412079e-05 4.577274887641e-03 0.0 
2.410920387167e-05 3.053002706056e-03 0.0 
2.440155681561e-04 9.762419432518e-03 0.0 
2.218359343093e-04 1.026461203098e-02 0.0 
2.670662480826e-04 9.280755662014e-03 0.0 
4.694012766398e-04 1.330722835186e-02 0.0 
2.427235657667e-04 1.360652367475e-02 0.0 
8.701864777797e-05 4.710311850400e-03 0.0 
1.536396464703e-04 1.071663850976e-02 0.0 
1.258458593358e-04 1.047613727247e-02 0.0 
2.224410154483e-04 1.170896100740e-02 0.0 
2.862678359476e-04 1.141468869913e-02 0.0 
2.725586131439e-04 8.526704170609e-03 0.0 
3.169260052051e-04 8.826561516512e-03 0.0 
6.332612809869e-04 6.449824462209e-03 0.0 
5.605588275964e-04 5.848346106623e-03 0.0 
7.700412745354e-04 7.590494326017e-03 0.0 
6.674657354429e-04 6.877784434244e-03 0.0 
7.117040910071e-04 7.717753895607e-03 0.0 
7.703702321329e-04 8.124285644345e-03 0.0 
9.126128531730e-05 3.531866142271e-03 0.0 
6.072218924737e-05 2.638207390888e-03 0.0 
5.791405078846e-04 1.076744386094e-02 0.0 
6.042985468699e-04 1.104475630429e-02 0.0 
4.780003401302e-04 1.070207451612e-02 0.0 
1.135045468959e-04 3.034091762797e-03 0.0 
6.988483588278e-05 2.441121972783e-03 0.0 
1.030286120219e-04 2.935862633838e-03 0.0 
6.025266676923e-05 1.206349487145e-02 0.0 
9.889110585243e-05 1.201521874623e-02 0.0 
5.060494897172e-04 1.431745626656e-02 0.0 
3.653292854287e-04 1.415167797514e-02 0.0 
1.869708336590e-04 3.355686925812e-03 0.0 
2.408751157091e-04 4.059867224213e-03 0.0 
1.316328844330e-04 2.534160662276e-03 0.0 
4.649097187195e-05 1.131854466922e-02 0.0 
7.485980402371e-04 5.980012372112e-03 0.0 
3.269596531158e-04 2.829246342539e-03 0.0 
4.006618717362e-04 3.347166016742e-03 0.0 
2.421621973380e-04 2.179082370201e-03 0.0 
5.738311652238e-04 4.237671638626e-03 0.0 
4.334359413990e-04 3.062406388848e-03 0.0 
4.218713287175e-04 3.041770021346e-03 0.0 
-4.271230625752e-05 1.321561034288e-02 0.0 
1.853188367310e-05 3.630490920797e-03 0.0 
1.689372722880e-04 1.016595130516e-02 0.0 
-1.346752167160e-04 1.309491474001e-02 0.0 
1.467138580892e-04 1.067329040472e-02 0.0 
1.225709929757e-04 1.006710312057e-02 0.0 
1.270732807514e-04 1.116214909158e-02 0.0 
3.841293770565e-05 1.157936324601e-02 0.0 
2.793152462867e-04 1.051381444229e-02 0.0 
3.058255097166e-04 9.914018978302e-03 0.0 
2.336518776260e-05 1.216915336995e-02 0.0 
7.708563195536e-05 2.264279126607e-03 0.0 
3.286499102803e-05 1.209473679640e-02 0.0 
4.948528602596e-05 1.202691802728e-02 0.0 
2.030969703610e-04 2.525969547332e-03 0.0 
2.236905272477e-04 3.129003114793e-03 0.0 
1.484107627427e-04 2.031972744565e-03 0.0 
1.750775729164e-04 2.698419101555e-03 0.0 
2.351488022244e-04 3.731969939421e-03 0.0 
1.843211037175e-04 3.262941905350e-03 0.0 
1.991827553677e-04 1.082590754579e-02 0.0 
1.210529791095e-04 2.045176524195e-03 0.0 
1.374865128372e-04 2.761369951514e-03 0.0 
7.996587472079e-05 1.575198457361e-03 0.0 
6.799751153472e-04 1.314233255533e-02 0.0 
8.549347937196e-04 1.380121078316e-02 0.0 
7.802306193805e-04 1.425972173415e-02 0.0 
6.756741851402e-04 1.485387681739e-02 0.0 
2.921635863692e-04 2.554427891230e-03 0.0 
3.560631789881e-04 3.370281044301e-03 0.0 
6.341488631477e-05 4.621188368461e-03 0.0 
7.258560954256e-05 5.563768307614e-03 0.0 
1.013080636228e-04 1.062582784509e-02 0.0 
7.364593967540e-05 1.066918019398e-02 0.0 
8.057618844910e-05 9.702031568181e-03 0.0 
5.801866953961e-05 9.822943985949e-03 0.0 
6.137060592198e-05 8.829073217002e-03 0.0 
3.941277828005e-05 8.958471356424e-03 0.0 
4.701803348135e-05 7.919587790942e-03 0.0 
3.307568956718e-04 2.389060130423e-03 0.0 
5.912181287043e-04 1.496966594746e-02 0.0 
6.275179810570e-04 1.237576831568e-02 0.0 
3.595491406875e-04 2.539288523861e-03 0.0 
4.458237597672e-04 3.286256324441e-03 0.0 
7.649395060116e-04 1.311519013365e-02 0.0 
7.170529321942e-04 1.385882693929e-02 0.0 
2.146537165959e-04 2.246678112560e-03 0.0 
9.900848158697e-04 1.235994337067e-02 0.0 
5.722708291116e-05 1.459433377528e-03 0.0 
-3.907055287534e-04 1.393514813128e-02 0.0 
-7.164782998455e-05 1.372273438879e-02 0.0 
1.003137274966e-03 1.217883445792e-02 0.0 
7.942794041219e-04 1.232262905772e-02 0.0 
8.618071299008e-04 1.359729145118e-02 0.0 
7.943124787806e-04 1.400299550715e-02 0.0 
6.067413885437e-04 5.960126506122e-03 0.0 
7.282451739621e-05 1.212431525059e-02 0.0 
6.115385825918e-04 1.443701048612e-02 0.0 
6.786125616148e-05 7.800714311120e-03 0.0 
4.180458024627e-04 1.480450802070e-02 0.0 
3.332544983773e-05 5.056252497395e-03 0.0 
1.003841965067e-03 1.186525527446e-02 0.0 
8.924944296748e-04 1.142093128993e-02 0.0 
7.527938295187e-04 1.400170033851e-02 0.0 
9.212036737156e-04 1.327406303208e-02 0.0 
6.229885899229e-04 9.605510414988e-03 0.0 
5.535499809144e-04 1.054201840184e-02 0.0 
5.961001024721e-04 1.104578945244e-02 0.0 
1.002333844147e-03 1.139325929333e-02 0.0 
7.940096127838e-04 1.373448654229e-02 0.0 
7.180899995728e-04 1.442860676371e-02 0.0 
7.595517641690e-04 1.012917088044e-02 0.0 
3.024278094706e-04 5.361183305752e-03 0.0 
2.999078781370e-04 4.771777179053e-03 0.0 
2.308185372040e-04 3.496286809659e-03 0.0 
2.918244812482e-04 4.184500276530e-03 0.0 
3.618199747582e-04 5.467981571344e-03 0.0 
3.577972784563e-04 4.887579837393e-03 0.0 
2.772560558059e-04 3.606517418128e-03 0.0 
3.470038206116e-04 4.303048591610e-03 0.0 
2.335629330463e-04 2.739832817171e-03 0.0 
3.254816580692e-04 3.684139766977e-03 0.0 
4.199212523006e-04 5.011797110569e-03 0.0 
4.068512600166e-04 4.455839163903e-03 0.0 
3.117346572481e-04 3.254063471701e-03 0.0 
4.957260779026e-04 5.756672264606e-03 0.0 
2.790122078720e-04 1.901401660609e-03 0.0 
1.023498172339e-03 1.142504502067e-02 0.0 
9.753480961135e-05 1.338547542194e-02 0.0 
8.343639523526e-05 1.396339182351e-02 0.0 
8.524504491115e-04 1.101889143609e-02 0.0 
1.136145366554e-04 1.336980229159e-03 0.0 
9.075353505320e-05 1.317716000887e-03 0.0 
9.121379787291e-04 1.256232701325e-02 0.0 
1.504776860257e-04 1.223514767304e-03 0.0 
6.362978853499e-04 1.058700408766e-02 0.0 
6.280774780355e-04 1.300292124976e-02 0.0 
1.651000299810e-04 1.213998710363e-03 0.0 
3.599306197152e-04 6.039946035121e-03 0.0 
4.187592379644e-04 6.716759602613e-03 0.0 
4.070553291645e-04 7.262292919902e-03 0.0 
6.942073538949e-05 1.230266343112e-03 0.0 
2.894707494621e-04 8.776225384904e-03 0.0 
1.655088860411e-04 1.100371996587e-03 0.0 
8.961482479274e-04 7.842226897601e-03 0.0 
9.384016968107e-04 8.343923447019e-03 0.0 
9.817722870548e-04 9.199063595631e-03 0.0 
4.262990674686e-04 5.601127860047e-03 0.0 
1.634421863014e-04 1.130609800495e-03 0.0 
2.967100639085e-04 2.161071806277e-03 0.0 
2.822788998732e-04 2.144901592678e-03 0.0 
4.182933180143e-04 3.220259978212e-03 0.0 
1.478375693324e-04 1.107989606727e-03 0.0 
1.198138653244e-04 1.194590759267e-03 0.0 
1.222692034179e-04 1.130436548882e-03 0.0 
5.356276696482e-04 1.145386963450e-02 0.0 
6.250695481160e-04 1.132926043451e-02 0.0 
6.849738884429e-04 1.088544620151e-02 0.0 
7.112574818046e-04 1.119843932042e-02 0.0 
6.399745999865e-04 1.162930606278e-02 0.0 
7.316163279443e-04 1.152851959355e-02 0.0 
7.905498910108e-04 1.105937937591e-02 0.0 
7.454520187770e-04 1.187763572602e-02 0.0 
4.646009270865e-04 4.612604858776e-03 0.0 
1.257232422588e-04 1.053575738987e-03 0.0 
5.665394617543e-04 7.288143536379e-03 0.0 
6.262452309751e-04 7.691456554723e-03 0.0 
6.471350411196e-04 8.441292139946e-03 0.0 
3.105897021000e-04 9.433919180131e-03 0.0 
3.600663437589e-04 9.121603971175e-03 0.0 
3.621418635469e-04 8.476488097066e-03 0.0 
2.613794786555e-04 9.732049396665e-03 0.0 
8.118541796618e-04 7.059508108671e-03 0.0 
1.159534678652e-04 1.057126102655e-03 0.0 
7.896429330930e-04 7.738091084468e-03 0.0 
4.018437920156e-04 9.411076625107e-03 0.0 
3.739634823131e-04 1.150475700042e-02 0.0 
3.885925048384e-04 1.064040459769e-02 0.0 
4.274862773344e-04 1.060526508678e-02 0.0 
3.964932125362e-04 9.589890359558e-03 0.0 
3.454544885365e-04 1.053156829370e-02 0.0 
2.277348697225e-04 8.217127538246e-03 0.0 
1.829265562474e-04 7.899183010090e-03 0.0 
1.435959455775e-04 8.286271260942e-03 0.0 
1.385157316127e-04 7.571960522802e-03 0.0 
1.004286875795e-04 7.975289396704e-03 0.0 
1.042140367757e-04 8.639767576568e-03 0.0 
9.396081801974e-05 7.234498449318e-03 0.0 
5.785369175058e-05 7.738493213371e-03 0.0 
3.000068840906e-04 1.151984248364e-02 0.0 
-1.782190653180e-04 1.271419344643e-02 0.0 
-3.195167733679e-05 1.258288666995e-02 0.0 
-2.271631644662e-05 1.246641348054e-02 0.0 
8.109676409286e-05 1.242796086250e-02 0.0 
9.477142871638e-05 1.254422438059e-02 0.0 
2.163266078413e-04 1.232401784846e-02 0.0 
2.202185084262e-04 1.248543367907e-02 0.0 
-4.305244329604e-05 1.273327812796e-02 0.0 
-1.133823412988e-04 1.247514788330e-02 0.0 
-1.037988379904e-05 1.237228451896e-02 0.0 
-8.680061498422e-05 1.238803146370e-02 0.0 
-3.559397796749e-06 1.229809082719e-02 0.0 
8.937307150807e-05 1.221905941435e-02 0.0 
1.636245588965e-04 1.181673126173e-02 0.0 
3.559187364348e-05 1.224006686311e-03 0.0 
3.848666061569e-05 9.521259870371e-03 0.0 
7.367995456798e-05 9.797059196022e-03 0.0 
6.720155720810e-05 1.027773855781e-02 0.0 
1.083660437700e-04 1.002980168885e-02 0.0 
7.274818657758e-05 9.290606487726e-03 0.0 
3.214847161802e-05 1.051347161040e-02 0.0 
6.125993411337e-05 1.066452039986e-02 0.0 
2.922599131912e-06 1.208042519733e-02 0.0 
9.659216353367e-06 1.202735700132e-02 0.0 
2.835909880992e-06 1.203112906196e-02 0.0 
1.470808066513e-05 1.192948379916e-02 0.0 
2.370388952802e-05 1.193797254377e-02 0.0 
1.557112482257e-05 1.203292269776e-02 0.0 
2.015635621249e-05 1.204451891969e-02 0.0 
2.144745571018e-06 1.210350978562e-02 0.0 
2.376212910260e-05 1.206001612002e-02 0.0 
4.381124399718e-05 1.195300847504e-02 0.0 
-6.007851583224e-07 1.212128631760e-02 0.0 
1.453986647490e-05 6.316055713351e-03 0.0 
2.789851340803e-05 5.683747062156e-03 0.0 
1.025853813256e-04 1.115265886681e-03 0.0 
2.310769330832e-04 1.144459849180e-02 0.0 
-4.419615237138e-05 1.225973235664e-02 0.0 
2.192873918466e-05 1.556508383753e-03 0.0 
3.274210907059e-05 1.295596659380e-03 0.0 
2.751138033516e-05 1.254111590084e-03 0.0 
2.085374533735e-05 2.989595201292e-03 0.0 
3.391505900266e-05 2.453454047679e-03 0.0 
1.104592186331e-05 1.512050269134e-03 0.0 
2.620458856575e-04 1.107611504251e-02 0.0 
2.142117079685e-04 2.935416177980e-03 0.0 
6.292740548613e-05 3.960720655592e-03 0.0 
6.040684228543e-04 1.340415031171e-02 0.0 
3.543979300244e-04 1.126716852325e-02 0.0 
1.147909664888e-04 5.967302483448e-03 0.0 
3.380188477375e-04 7.006272791237e-03 0.0 
1.355360137600e-04 3.963700913086e-03 0.0 
2.072704050543e-04 6.725550364688e-03 0.0 
2.267991859119e-04 4.836797194493e-03 0.0 
2.747436214062e-04 2.200846529314e-03 0.0 
5.261413937565e-05 1.167725662364e-02 0.0 
1.800619985022e-04 8.561848697453e-03 0.0 
1.161588101407e-04 8.967892947625e-03 0.0 
1.059929775744e-04 6.018075685735e-03 0.0 
1.762322717799e-04 1.090102884069e-02 0.0 
1.463155757334e-04 8.906546548382e-03 0.0 
1.255918922252e-04 1.167163167066e-02 0.0 
2.947943743597e-04 2.297358289144e-03 0.0 
7.672511382991e-04 1.105878029144e-02 0.0 
6.026111823331e-04 8.777911115619e-03 0.0 
2.961563905863e-04 9.980774254607e-03 0.0 
3.210157333742e-04 1.088493001385e-02 0.0 
3.620068361805e-04 1.146697442219e-02 0.0 
1.011692105871e-03 1.113362070278e-02 0.0 
4.541927768544e-04 9.101823877266e-03 0.0 
4.035391286773e-04 5.599576828917e-03 0.0 
8.061868727748e-05 5.305859869639e-03 0.0 
-1.078021354412e-05 1.216856958053e-02 0.0 
4.093492215544e-04 5.085411353131e-03 0.0 
4.442943108434e-04 7.727986580470e-03 0.0 
2.502793795895e-04 8.146189469453e-03 0.0 
6.799427230487e-04 5.405426402444e-03 0.0 
2.544504847624e-04 1.212084962792e-02 0.0 
1.523919830077e-04 5.570814152951e-03 0.0 
1.488234628789e-04 3.243109611622e-03 0.0 
3.289408202752e-04 9.380178290748e-03 0.0 
8.555323021770e-05 1.188269732255e-02 0.0 
1.916131260250e-04 9.695396012073e-03 0.0 
2.922687440408e-04 2.885296138378e-03 0.0 
2.993372409488e-04 5.937425295363e-03 0.0 
1.339949828810e-04 1.109565133596e-02 0.0 
8.767138269489e-04 8.952185730460e-03 0.0 
9.289311258899e-04 1.093662216696e-02 0.0 
5.471065501299e-04 1.232613847876e-02 0.0 
6.504720631249e-05 3.388070765901e-03 0.0 
9.929694525332e-04 9.339366681973e-03 0.0 
5.438361229734e-04 4.383178588957e-03 0.0 
7.967743772192e-04 7.325245188174e-03 0.0 
1.137346625530e-04 1.092180782355e-02 0.0 
2.894540614146e-04 4.184948118343e-03 0.0 
9.787039292777e-04 9.519336877459e-03 0.0 
1.219385800159e-04 4.252733024645e-03 0.0 
6.948546794996e-04 6.487632241146e-03 0.0 
9.186809808173e-04 1.071733767949e-02 0.0 
1.997625983802e-04 5.115075329654e-03 0.0 
7.005877168258e-04 8.812544048038e-03 0.0 
6.345124631199e-04 4.853019314995e-03 0.0 
8.089789331079e-04 1.148170313006e-02 0.0 
8.271088389168e-04 8.628619887407e-03 0.0 
6.289285318546e-04 7.533740232234e-03 0.0 
9.353412286840e-04 9.043820504421e-03 0.0 
7.847578472845e-05 6.447485997841e-03 0.0 
3.478849754366e-04 4.638716851188e-03 0.0 
4.053254819081e-04 1.258241150332e-02 0.0 
9.727769443426e-04 1.261377248669e-02 0.0 
3.083131778652e-04 8.241573988414e-03 0.0 
5.357949862198e-04 4.232597093946e-03 0.0 
8.626404182611e-05 2.863559409968e-03 0.0 
9.255294364191e-04 1.177475615360e-02 0.0 
2.882690607234e-04 4.737704671931e-03 0.0 
1.555160149979e-04 3.818515570619e-03 0.0 
4.086551116679e-04 8.793589730198e-03 0.0 
1.836229351927e-05 1.154440186812e-02 0.0 
4.306682781688e-04 1.370593920628e-02 0.0 
8.323488420510e-04 1.179762255187e-02 0.0 
1.006804007665e-03 9.682008788831e-03 0.0 
4.050258402974e-04 8.113663184956e-03 0.0 
1.642587350136e-04 2.602917123478e-03 0.0 
2.352250068284e-04 4.295944062777e-03 0.0 
5.380747454268e-04 5.471994741572e-03 0.0 
-2.993245374319e-05 1.482366432618e-02 0.0 
5.946662903313e-04 1.192817790888e-02 0.0 
1.860184280543e-04 3.843973996623e-03 0.0 
8.257711967272e-04 8.534841974453e-03 0.0 
5.687860063117e-04 4.340974618545e-03 0.0 
6.327494949826e-05 8.370662488307e-03 0.0 
3.084411032871e-04 2.308435551980e-03 0.0 
7.043491244395e-04 1.349832999058e-02 0.0 
1.411760377096e-04 3.381208701175e-03 0.0 
5.983825815426e-04 5.463428694433e-03 0.0 
9.611873167410e-04 1.247771274934e-02 0.0 
6.338056398254e-05 1.154432607706e-02 0.0 
8.954896779820e-05 2.114364140040e-03 0.0 
5.023893826149e-04 4.381717798144e-03 0.0 
8.825694379291e-04 8.081679096371e-03 0.0 
7.938660274933e-04 8.869669100923e-03 0.0 
5.994607412038e-04 1.314889408928e-02 0.0 
3.546945653567e-04 7.774659444807e-03 0.0 
7.672403764189e-04 8.120157955085e-03 0.0 
6.101917985262e-05 1.199261160076e-03 0.0 
4.734206507802e-04 3.880056595240e-03 0.0 
4.619524871471e-04 7.914775175879e-03 0.0 
3.149350982649e-04 8.161302295748e-03 0.0 
8.457668130202e-04 6.983562277520e-03 0.0 
3.392856497179e-05 1.194535824874e-02 0.0 
6.555023029222e-04 1.276394692022e-02 0.0 
2.674380470771e-04 7.835965581370e-03 0.0 
8.146294072521e-04 1.142089236557e-02 0.0 
7.401311729792e-04 8.481123615203e-03 0.0 
3.634423449926e-04 2.509260450575e-03 0.0 
2.204952774840e-04 7.501303971133e-03 0.0 
8.604936220973e-04 1.089889014923e-02 0.0 
1.744071366122e-04 7.157733846596e-03 0.0 
6.366830603355e-04 1.386785240356e-02 0.0 
4.775925741857e-04 7.363213197129e-03 0.0 
1.278018005317e-04 6.804010832118e-03 0.0 
7.037022838408e-04 7.036121427971e-03 0.0 
5.461435614848e-05 1.196200866817e-02 0.0 
8.672647639602e-04 7.567954478151e-03 0.0 
4.931085590461e-05 3.561615099731e-03 0.0 
4.491027575606e-04 1.046491318913e-02 0.0 
6.844900548410e-04 8.095729028397e-03 0.0 
4.252702693012e-04 6.160086158622e-03 0.0 
6.475547998330e-04 1.448531132729e-02 0.0 
6.521663028895e-04 7.300436582844e-03 0.0 
6.218199535521e-04 5.895963650270e-03 0.0 
8.410348545401e-04 7.048065930052e-03 0.0 
9.710462467016e-04 8.845229028746e-03 0.0 
6.033308633027e-04 6.424762994474e-03 0.0 
7.255726743690e-04 1.412019199631e-02 0.0 
2.733802168120e-04 1.126064431414e-02 0.0 
2.227008029182e-04 1.156312788392e-02 0.0 
8.275910123360e-04 1.052649124873e-02 0.0 
5.440447716034e-04 5.264803225406e-03 0.0 
2.993578173255e-05 1.180232986902e-02 0.0 
4.949980057203e-04 6.281327813018e-03 0.0 
1.514068524911e-04 1.194372927540e-02 0.0 
7.603376113669e-04 1.071466425660e-02 0.0 
6.929103394123e-04 5.343762860186e-03 0.0 
1.771991418493e-05 8.670862769189e-03 0.0 
7.251486958860e-04 1.038176500528e-02 0.0 
2.261804835333e-05 1.125655607485e-02 0.0 
6.543350898139e-04 1.058345154071e-02 0.0 
9.172073119038e-04 7.941791821481e-03 0.0 
6.198830829223e-04 1.028322017890e-02 0.0 
5.497302146249e-04 1.049754303414e-02 0.0 
4.269971159081e-05 2.615557396517e-03 0.0 
5.165584115900e-04 1.022996618554e-02 0.0 
4.830208220879e-06 1.255134382379e-03 0.0 
1.505068706707e-05 1.113769102726e-03 0.0 
2.399695593028e-05 1.079507219519e-02 0.0 
6.142492050193e-04 1.503940372345e-02 0.0 
-3.098576817832e-04 1.330770233621e-02 0.0 
7.206624228884e-04 1.455083052972e-02 0.0 
4.078076716379e-04 1.089537227837e-02 0.0 
5.669544561740e-04 6.403382467029e-03 0.0 
4.986907124955e-05 1.074737302944e-02 0.0 
3.391666146203e-04 1.107958878338e-02 0.0 
2.249270097506e-04 2.393265483749e-03 0.0 
1.619347152224e-04 1.110962836179e-03 0.0 
3.207990875530e-05 6.870767387323e-03 0.0 
5.050680189218e-04 3.879337907409e-03 0.0 
8.008818490089e-04 6.481343296877e-03 0.0 
8.956651443280e-06 3.766038698627e-03 0.0 
1.479238476503e-04 1.161500944598e-02 0.0 
4.121703068570e-06 1.223659570373e-02 0.0 
3.789915496929e-05 5.986221408922e-03 0.0 
5.528562616621e-04 1.538562147958e-02 0.0 
6.376319041700e-04 1.495185946393e-02 0.0 
5.127025319215e-04 1.494060013987e-02 0.0 
8.877852042259e-05 1.077725229206e-02 0.0 
7.470265150236e-05 1.232798776470e-02 0.0 
4.743128995989e-04 1.544414051780e-02 0.0 
3.150625648563e-04 2.246012146569e-03 0.0 
2.491685655722e-04 1.072234603261e-02 0.0 
6.393666865948e-04 4.881010815893e-03 0.0 
2.880957784289e-04 1.532933924714e-02 0.0 
1.059049815598e-04 2.522188070573e-03 0.0 
3.349830402215e-04 2.319379736839e-03 0.0 
7.405930769384e-05 9.801370041232e-04 0.0 
5.017216185152e-04 3.650875178168e-03 0.0 
2.699302343353e-04 1.460395056725e-02 0.0 
3.640701308015e-04 9.813100013498e-03 0.0 
2.805842434437e-04 2.295040969163e-03 0.0 
4.320265449461e-05 5.867796504248e-03 0.0 
5.312997830303e-05 9.391871486544e-04 0.0 
3.138968400266e-04 1.080808960597e-02 0.0 
2.637111250645e-05 2.443593190440e-03 0.0 
2.938118941450e-04 1.256171145558e-02 0.0 
1.261264121377e-05 2.371432030804e-03 0.0 
4.845028083222e-04 5.179549475606e-03 0.0 
1.007244831149e-04 9.472647961849e-03 0.0 
4.364376834546e-04 9.837904289079e-03 0.0 
4.122875247721e-05 1.929518131210e-03 0.0 
1.916264718490e-04 2.427912398054e-03 0.0 
9.475954578463e-05 1.431061371236e-02 0.0 
5.023485577487e-05 6.993138102267e-03 0.0 
1.459609964534e-04 1.002913813111e-02 0.0 
-8.874601418445e-05 1.291789976869e-02 0.0 
1.803276510080e-04 2.045237543265e-03 0.0 
3.881102995898e-04 3.942589577552e-03 0.0 
6.864048237244e-05 1.970102871210e-03 0.0 
5.875190703188e-06 1.193692156535e-02 0.0 
1.164487859183e-05 1.215190816312e-02 0.0 
1.977542067564e-04 1.903702606486e-03 0.0 
2.368644070305e-04 2.187975851538e-03 0.0 
3.362768059650e-04 1.226429585667e-02 0.0 
3.511057336219e-05 1.018198849456e-03 0.0 
-1.525672894288e-04 1.409706981223e-02 0.0 
2.026606264379e-04 1.171430719976e-02 0.0 
2.345795825904e-05 1.208452534183e-02 0.0 
4.307384787517e-05 9.491164430658e-04 0.0 
6.384379198601e-05 2.344537862645e-03 0.0 
1.025861850383e-04 9.549943991016e-03 0.0 
4.483236615794e-04 1.137727852200e-02 0.0 
5.283260259051e-05 1.102641680834e-02 0.0 
4.220903555270e-04 3.197490970795e-03 0.0 
6.166388192043e-05 1.219060668416e-02 0.0 
4.299584067132e-05 2.213249213298e-03 0.0 
2.241289352271e-04 1.872923157054e-03 0.0 
1.287935324065e-04 2.214298685649e-03 0.0 
1.265974011567e-04 8.404021310406e-04 0.0 
-1.347997468575e-04 1.344561689730e-02 0.0 
2.863256750758e-04 2.000136674150e-03 0.0 
3.718977043797e-04 2.952407594158e-03 0.0 
1.113025823697e-04 1.165701350495e-02 0.0 
1.650430549476e-04 2.373517216755e-03 0.0 
9.389086925152e-05 1.043399900676e-02 0.0 
6.857089903821e-05 1.183261693229e-02 0.0 
2.309645330087e-06 1.112425460117e-03 0.0 
-8.246035911535e-07 1.207515427738e-02 0.0 
1.844874554455e-05 1.165599383911e-02 0.0 
6.188666605670e-06 9.086995031186e-04 0.0 
3.907470235746e-05 1.184023750408e-02 0.0 
3.941586627651e-05 1.003235108701e-02 0.0 
2.142140008944e-04 2.113464152949e-03 0.0 
2.685631637704e-05 8.255329321469e-03 0.0 
2.174848216796e-05 4.649305788531e-03 0.0 
1.587798083813e-04 1.227256615315e-02 0.0 
-2.979464251311e-04 1.306362056257e-02 0.0 
3.112663169573e-05 8.094421128570e-03 0.0 
3.032381656457e-04 2.068674167698e-03 0.0 
9.907479055067e-05 2.115932728595e-03 0.0 
8.039597777877e-05 8.867423462184e-03 0.0 
2.683549833884e-04 1.394264709784e-02 0.0 
3.036523782546e-04 2.981080441715e-03 0.0 
1.097506488214e-04 9.109343566585e-03 0.0 
3.852376347120e-04 3.162168716379e-03 0.0 
4.038631424547e-04 3.012191166438e-03 0.0 
-3.976976823356e-04 1.426046466248e-02 0.0 
2.490946615419e-05 7.551578979118e-03 0.0 
1.954174504488e-05 1.210907252644e-02 0.0 
1.220306852222e-04 1.810942946745e-03 0.0 
7.242085187988e-05 8.829043700497e-03 0.0 
9.384063469498e-05 1.607889887123e-02 0.0 
1.249207698653e-05 1.744983943452e-02 0.0 
3.266119588221e-04 1.604721617704e-02 0.0 
1.277658632257e-05 1.697841642627e-02 0.0 
4.588659499190e-04 1.581990499344e-02 0.0 
1.031993743152e-05 1.644318624507e-02 0.0 
5.272871027875e-04 1.544463701712e-02 0.0 
1.294061406276e-05 1.584361352292e-02 0.0 
5.542210612579e-04 1.493652882587e-02 0.0 
1.079800026442e-05 1.517949267874e-02 0.0 
5.494752970829e-04 1.432447112291e-02 0.0 
1.350494387485e-05 1.445082380294e-02 0.0 
5.219617007236e-04 1.360455664366e-02 0.0 
1.111985791577e-05 1.365769908254e-02 0.0 
4.784890913474e-04 1.280712449492e-02 0.0 
1.351712601115e-05 1.280053775021e-02 0.0 

TENSORS node_materi_stress float
-3.923392940993e+00 3.140067166762e-02 0.0 
3.140067166762e-02 -8.513932800887e+00 0.0 
0.0 0.0 -3.649450997644e+00 
-6.936409507259e+01 4.470377176833e-01 0.0 
4.470377176833e-01 -1.572453334946e+02 0.0 
0.0 0.0 -6.758282857015e+01 
-1.628740940261e+02 -2.102360579286e-01 0.0 
-2.102360579286e-01 -3.822298131401e+02 0.0 
0.0 0.0 -1.631311721498e+02 
-1.475620486205e+02 4.689885989675e-01 0.0 
4.689885989675e-01 -3.450827965092e+02 0.0 
0.0 0.0 -1.473934535389e+02 
-8.573608678278e+00 -2.587798766345e-01 0.0 
-2.587798766345e-01 -2.072737754775e+01 0.0 
0.0 0.0 -8.602464717861e+00 
-1.591965121732e+01 -5.991969598375e-01 0.0 
-5.991969598375e-01 -4.022119854119e+01 0.0 
0.0 0.0 -1.644225492755e+01 
-2.302599243553e+01 -4.620586371807e-01 0.0 
-4.620586371807e-01 -5.839158642973e+01 0.0 
0.0 0.0 -2.402527365958e+01 
-3.123215529468e+01 -4.148941428371e-01 0.0 
-4.148941428371e-01 -7.907612839343e+01 0.0 
0.0 0.0 -3.269248510644e+01 
-3.900774869534e+01 -3.021410338857e-01 0.0 
-3.021410338857e-01 -9.894814303901e+01 0.0 
0.0 0.0 -4.098676752030e+01 
-4.695859272829e+01 -2.817971795095e-01 0.0 
-2.817971795095e-01 -1.185428298503e+02 0.0 
0.0 0.0 -4.925042677359e+01 
-5.484537532369e+01 -3.059678505346e-01 0.0 
-3.059678505346e-01 -1.381190736842e+02 0.0 
0.0 0.0 -5.748933470235e+01 
-6.272294471605e+01 -2.639111618125e-01 0.0 
-2.639111618125e-01 -1.576692855932e+02 0.0 
0.0 0.0 -6.571766909278e+01 
-7.072612412567e+01 -2.519780955287e-01 0.0 
-2.519780955287e-01 -1.772068266320e+02 0.0 
0.0 0.0 -7.397988522729e+01 
-7.879032083034e+01 -3.120859668180e-01 0.0 
-3.120859668180e-01 -1.969168680077e+02 0.0 
0.0 0.0 -8.231215665142e+01 
-8.709751810496e+01 -4.687412195995e-01 0.0 
-4.687412195995e-01 -2.170972616161e+02 0.0 
0.0 0.0 -9.085843391632e+01 
-9.563793943854e+01 -4.927116136164e-01 0.0 
-4.927116136164e-01 -2.366198206436e+02 0.0 
0.0 0.0 -9.927732802463e+01 
-1.035674221691e+02 -6.312155526058e-01 0.0 
-6.312155526058e-01 -2.543918658789e+02 0.0 
0.0 0.0 -1.069877864144e+02 
-1.121017314833e+02 -1.938862541136e-01 0.0 
-1.938862541136e-01 -2.739015172481e+02 0.0 
0.0 0.0 -1.154009746194e+02 
-1.210989042511e+02 -1.674730377479e-01 0.0 
-1.674730377479e-01 -2.938914812625e+02 0.0 
0.0 0.0 -1.240971156541e+02 
-1.299730580478e+02 -1.616183524465e-01 0.0 
-1.616183524465e-01 -3.132540601896e+02 0.0 
0.0 0.0 -1.325681354712e+02 
-1.390077282681e+02 -1.303243407778e-01 0.0 
-1.303243407778e-01 -3.327376673702e+02 0.0 
0.0 0.0 -1.411236186915e+02 
-1.482470865918e+02 -1.694264399546e-01 0.0 
-1.694264399546e-01 -3.523471881485e+02 0.0 
0.0 0.0 -1.497782824221e+02 
-1.572642073358e+02 -2.473905998168e-01 0.0 
-2.473905998168e-01 -3.710491235442e+02 0.0 
0.0 0.0 -1.580939992640e+02 
-1.480394138029e+02 2.321822709783e-01 0.0 
2.321822709783e-01 -3.461845859817e+02 0.0 
0.0 0.0 -1.478671999354e+02 
-1.474746289659e+02 3.887141158937e-01 0.0 
3.887141158937e-01 -3.451574603537e+02 0.0 
0.0 0.0 -1.473896267959e+02 
-1.476096180192e+02 8.153570004295e-01 0.0 
8.153570004295e-01 -3.454361551922e+02 0.0 
0.0 0.0 -1.475137319634e+02 
-1.475674141028e+02 6.288948775512e-01 0.0 
6.288948775512e-01 -3.454431823424e+02 0.0 
0.0 0.0 -1.475031789336e+02 
-1.473453500164e+02 9.729806529835e-01 0.0 
9.729806529835e-01 -3.448502475232e+02 0.0 
0.0 0.0 -1.472586792619e+02 
-1.476834579637e+02 1.153277969086e+00 0.0 
1.153277969086e+00 -3.455372517116e+02 0.0 
0.0 0.0 -1.475662129026e+02 
-1.479605302436e+02 1.379553136757e+00 0.0 
1.379553136757e+00 -3.458461331618e+02 0.0 
0.0 0.0 -1.477419990216e+02 
-1.477072028498e+02 1.684938098292e+00 0.0 
1.684938098292e+00 -3.456178478764e+02 0.0 
0.0 0.0 -1.475975152179e+02 
-1.481527671180e+02 2.075487908286e+00 0.0 
2.075487908286e+00 -3.464854323626e+02 0.0 
0.0 0.0 -1.479914598442e+02 
-1.481508993142e+02 2.070193691384e+00 0.0 
2.070193691384e+00 -3.466063465315e+02 0.0 
0.0 0.0 -1.480271737537e+02 
-1.480235689259e+02 2.494537220185e+00 0.0 
2.494537220185e+00 -3.461846386841e+02 0.0 
0.0 0.0 -1.478624622830e+02 
-1.483685893086e+02 2.814538431490e+00 0.0 
2.814538431490e+00 -3.470099306368e+02 0.0 
0.0 0.0 -1.482135559836e+02 
-1.488608622575e+02 3.145283691194e+00 0.0 
3.145283691194e+00 -3.477673030037e+02 0.0 
0.0 0.0 -1.485884495784e+02 
-1.487066952352e+02 3.513012466434e+00 0.0 
3.513012466434e+00 -3.477654094987e+02 0.0 
0.0 0.0 -1.485416314202e+02 
-1.489376183494e+02 3.917487533621e+00 0.0 
3.917487533621e+00 -3.479574894581e+02 0.0 
0.0 0.0 -1.486685323423e+02 
-1.487298953023e+02 4.214871512072e+00 0.0 
4.214871512072e+00 -3.477871641240e+02 0.0 
0.0 0.0 -1.485551178279e+02 
-1.489589371770e+02 4.671795381589e+00 0.0 
4.671795381589e+00 -3.482678813402e+02 0.0 
0.0 0.0 -1.487680455552e+02 
-1.497786005076e+02 5.098968584798e+00 0.0 
5.098968584798e+00 -3.497533464134e+02 0.0 
0.0 0.0 -1.494595840763e+02 
-1.502144703274e+02 5.553567435665e+00 0.0 
5.553567435665e+00 -3.510074795802e+02 0.0 
0.0 0.0 -1.499665849723e+02 
-1.507363386868e+02 5.988394591758e+00 0.0 
5.988394591758e+00 -3.523290875179e+02 0.0 
0.0 0.0 -1.505196278614e+02 
-1.511092911658e+02 6.301920760064e+00 0.0 
6.301920760064e+00 -3.533008257518e+02 0.0 
0.0 0.0 -1.509230350753e+02 
-1.516413083855e+02 6.768956991408e+00 0.0 
6.768956991408e+00 -3.543453921255e+02 0.0 
0.0 0.0 -1.513960101533e+02 
-1.520813877945e+02 7.108698885474e+00 0.0 
7.108698885474e+00 -3.555981308296e+02 0.0 
0.0 0.0 -1.519038555872e+02 
-1.526183324258e+02 7.443483400265e+00 0.0 
7.443483400265e+00 -3.569358021285e+02 0.0 
0.0 0.0 -1.524662403663e+02 
-1.533041493610e+02 7.706233952354e+00 0.0 
7.706233952354e+00 -3.586382650122e+02 0.0 
0.0 0.0 -1.531827243120e+02 
-1.541230310458e+02 7.941900908341e+00 0.0 
7.941900908341e+00 -3.604610275317e+02 0.0 
0.0 0.0 -1.539752175732e+02 
-1.546554671230e+02 8.079829888152e+00 0.0 
8.079829888152e+00 -3.621667383229e+02 0.0 
0.0 0.0 -1.546466616338e+02 
-1.555032599939e+02 8.139367902087e+00 0.0 
8.139367902087e+00 -3.639504383620e+02 0.0 
0.0 0.0 -1.554361095068e+02 
-1.559505374790e+02 8.131301113376e+00 0.0 
8.131301113376e+00 -3.654046186427e+02 0.0 
0.0 0.0 -1.560065468365e+02 
-1.569922471687e+02 8.180220198366e+00 0.0 
8.180220198366e+00 -3.677187990334e+02 0.0 
0.0 0.0 -1.570133138606e+02 
-1.574030746143e+02 7.729869074480e+00 0.0 
7.729869074480e+00 -3.691453837308e+02 0.0 
0.0 0.0 -1.575645375035e+02 
-1.576632414883e+02 7.587422280704e+00 0.0 
7.587422280704e+00 -3.697337802407e+02 0.0 
0.0 0.0 -1.578191065187e+02 
-1.583118661451e+02 7.321402207938e+00 0.0 
7.321402207938e+00 -3.712806082280e+02 0.0 
0.0 0.0 -1.584777423119e+02 
-1.590127079589e+02 7.020297102492e+00 0.0 
7.020297102492e+00 -3.729986527449e+02 0.0 
0.0 0.0 -1.592034082111e+02 
-1.596297898906e+02 6.618686978524e+00 0.0 
6.618686978524e+00 -3.744627775649e+02 0.0 
0.0 0.0 -1.598277702366e+02 
-1.600875639368e+02 6.230582899742e+00 0.0 
6.230582899742e+00 -3.757271536504e+02 0.0 
0.0 0.0 -1.603444152762e+02 
-1.606883354648e+02 5.759968273428e+00 0.0 
5.759968273428e+00 -3.769822853557e+02 0.0 
0.0 0.0 -1.609011862461e+02 
-1.608892906183e+02 5.282647797738e+00 0.0 
5.282647797738e+00 -3.776854943565e+02 0.0 
0.0 0.0 -1.611724354924e+02 
-1.612254743529e+02 4.844172079971e+00 0.0 
4.844172079971e+00 -3.783259828525e+02 0.0 
0.0 0.0 -1.614654371616e+02 
-1.612609173447e+02 4.322210888526e+00 0.0 
4.322210888526e+00 -3.786928593254e+02 0.0 
0.0 0.0 -1.615861330010e+02 
-1.617412603591e+02 3.945107817455e+00 0.0 
3.945107817455e+00 -3.797141001020e+02 0.0 
0.0 0.0 -1.620366081383e+02 
-1.625063388796e+02 3.382102471888e+00 0.0 
3.382102471888e+00 -3.812182345056e+02 0.0 
0.0 0.0 -1.627173720155e+02 
-1.628847035813e+02 3.031377415769e+00 0.0 
3.031377415769e+00 -3.819703060022e+02 0.0 
0.0 0.0 -1.630565028751e+02 
-1.617157822716e+02 2.527020426735e+00 0.0 
2.527020426735e+00 -3.799112519961e+02 0.0 
0.0 0.0 -1.620881102803e+02 
-1.630286199808e+02 2.015917779966e+00 0.0 
2.015917779966e+00 -3.823280497606e+02 0.0 
0.0 0.0 -1.632070009224e+02 
-1.626185165698e+02 1.619468829643e+00 0.0 
1.619468829643e+00 -3.817393143552e+02 0.0 
0.0 0.0 -1.629073492775e+02 
-1.629920497884e+02 1.402686421216e+00 0.0 
1.402686421216e+00 -3.824374096845e+02 0.0 
0.0 0.0 -1.632288378419e+02 
-1.633694957737e+02 7.611815355842e-01 0.0 
7.611815355842e-01 -3.832371245030e+02 0.0 
0.0 0.0 -1.635819860830e+02 
-1.633216203344e+02 4.671261466208e-01 0.0 
4.671261466208e-01 -3.832172604410e+02 0.0 
0.0 0.0 -1.635616642326e+02 
-7.808429816641e+01 3.186702768031e-01 0.0 
3.186702768031e-01 -1.770673644048e+02 0.0 
0.0 0.0 -7.614549877135e+01 
-8.628300301256e+01 3.682061499154e-01 0.0 
3.682061499154e-01 -1.967766791053e+02 0.0 
0.0 0.0 -8.451790463536e+01 
-9.456209608575e+01 3.650164565632e-01 0.0 
3.650164565632e-01 -2.163111142153e+02 0.0 
0.0 0.0 -9.286196309033e+01 
-1.025875215374e+02 3.973833218478e-01 0.0 
3.973833218478e-01 -2.354641675051e+02 0.0 
0.0 0.0 -1.010155067127e+02 
-1.107247844322e+02 3.603974329004e-01 0.0 
3.603974329004e-01 -2.550493468395e+02 0.0 
0.0 0.0 -1.093322393815e+02 
-1.190392053973e+02 4.013985841654e-01 0.0 
4.013985841654e-01 -2.747360412543e+02 0.0 
0.0 0.0 -1.177325739955e+02 
-1.269805477012e+02 3.661623087464e-01 0.0 
3.661623087464e-01 -2.941930761235e+02 0.0 
0.0 0.0 -1.259520871474e+02 
-1.348545963041e+02 4.268223158048e-01 0.0 
4.268223158048e-01 -3.135214516390e+02 0.0 
0.0 0.0 -1.341128143829e+02 
-1.429782790551e+02 4.695486938933e-01 0.0 
4.695486938933e-01 -3.333889176766e+02 0.0 
0.0 0.0 -1.425101590195e+02 
-9.158453119203e+00 2.887872192786e+00 0.0 
2.887872192786e+00 -6.871378927730e+00 0.0 
0.0 0.0 -4.791404514025e+00 
-7.192042995174e+01 6.740335674104e-01 0.0 
6.740335674104e-01 -1.579629399700e+02 0.0 
0.0 0.0 -6.856501097651e+01 
-1.005711338097e+01 6.980241417325e+00 0.0 
6.980241417325e+00 -1.216807128151e+01 0.0 
0.0 0.0 -6.303414737551e+00 
-7.989766535316e+00 5.192191899498e+00 0.0 
5.192191899498e+00 -1.245369910042e+01 0.0 
0.0 0.0 -5.733039690722e+00 
-1.052910591602e+01 2.500242454469e+00 0.0 
2.500242454469e+00 -2.047489021159e+01 0.0 
0.0 0.0 -8.901198838284e+00 
-1.962231267917e+01 1.736695050988e+00 0.0 
1.736695050988e+00 -3.946827278735e+01 0.0 
0.0 0.0 -1.732717563996e+01 
-2.888349488569e+01 1.289320642367e+00 0.0 
1.289320642367e+00 -5.914738036562e+01 0.0 
0.0 0.0 -2.600926257539e+01 
-3.798556469070e+01 1.046159964687e+00 0.0 
1.046159964687e+00 -7.890116600971e+01 0.0 
0.0 0.0 -3.466601921012e+01 
-4.658042605633e+01 7.846276265307e-01 0.0 
7.846276265307e-01 -9.837904924740e+01 0.0 
0.0 0.0 -4.308784259112e+01 
-5.506156097871e+01 6.443257445985e-01 0.0 
6.443257445985e-01 -1.178685137031e+02 0.0 
0.0 0.0 -5.147902240455e+01 
-6.341535241532e+01 6.242706163901e-01 0.0 
6.242706163901e-01 -1.373826886524e+02 0.0 
0.0 0.0 -5.983941232031e+01 
-6.020706137656e+00 8.661288336840e-01 0.0 
8.661288336840e-01 -7.383224309089e+00 0.0 
0.0 0.0 -3.621179134023e+00 
-1.052786647350e+01 6.627723510772e-01 0.0 
6.627723510772e-01 -1.971542698728e+01 0.0 
0.0 0.0 -8.672988038234e+00 
-1.876738184092e+01 7.846700607634e-01 0.0 
7.846700607634e-01 -3.929810578471e+01 0.0 
0.0 0.0 -1.701964628769e+01 
-2.719010297499e+01 6.368881087880e-01 0.0 
6.368881087880e-01 -5.884219985088e+01 0.0 
0.0 0.0 -2.540969084776e+01 
-3.563557296286e+01 7.970114303112e-01 0.0 
7.970114303112e-01 -7.839500612124e+01 0.0 
0.0 0.0 -3.380917372523e+01 
-4.409662309698e+01 6.483267937567e-01 0.0 
6.483267937567e-01 -9.795524407295e+01 0.0 
0.0 0.0 -4.221556015098e+01 
-5.254358785921e+01 7.866110156322e-01 0.0 
7.866110156322e-01 -1.175033086654e+02 0.0 
0.0 0.0 -5.061406895739e+01 
-6.096326823882e+01 5.587807574002e-01 0.0 
5.587807574002e-01 -1.369517261785e+02 0.0 
0.0 0.0 -5.897449832520e+01 
-6.848134740497e+01 -2.255720866214e-01 0.0 
-2.255720866214e-01 -1.546380251525e+02 0.0 
0.0 0.0 -6.653581176725e+01 
-6.911474876855e+01 -2.673293342338e-02 0.0 
-2.673293342338e-02 -1.558357574913e+02 0.0 
0.0 0.0 -6.708515187796e+01 
-6.910297431680e+01 -3.046180691881e-02 0.0 
-3.046180691881e-02 -1.558778482786e+02 0.0 
0.0 0.0 -6.709424677862e+01 
-6.908910076579e+01 1.386344694152e-02 0.0 
1.386344694152e-02 -1.556449693186e+02 0.0 
0.0 0.0 -6.702022102532e+01 
-7.038847082186e+01 -1.706361707927e-02 0.0 
-1.706361707927e-02 -1.582897780558e+02 0.0 
0.0 0.0 -6.820347466330e+01 
-6.941719932073e+01 -2.703650548886e-02 0.0 
-2.703650548886e-02 -1.559519333823e+02 0.0 
0.0 0.0 -6.721073981091e+01 
-6.956282221197e+01 2.775300616510e-02 0.0 
2.775300616510e-02 -1.557704571529e+02 0.0 
0.0 0.0 -6.719998380947e+01 
-6.972079276806e+01 -2.790642306795e-02 0.0 
-2.790642306795e-02 -1.559589029254e+02 0.0 
0.0 0.0 -6.730390870805e+01 
-6.995263298593e+01 3.819223196327e-02 0.0 
3.819223196327e-02 -1.563941905718e+02 0.0 
0.0 0.0 -6.750404706731e+01 
-7.006344489863e+01 3.412832436725e-02 0.0 
3.412832436725e-02 -1.563259317814e+02 0.0 
0.0 0.0 -6.751681300400e+01 
-7.032783216983e+01 1.134303004584e-01 0.0 
1.134303004584e-01 -1.562983090283e+02 0.0 
0.0 0.0 -6.758784235945e+01 
-7.047938119809e+01 2.023787353710e-01 0.0 
2.023787353710e-01 -1.562744222822e+02 0.0 
0.0 0.0 -6.762614104407e+01 
-7.082877523341e+01 2.578815073495e-01 0.0 
2.578815073495e-01 -1.564352529945e+02 0.0 
0.0 0.0 -6.777920846837e+01 
-7.121593043297e+01 3.726190549372e-01 0.0 
3.726190549372e-01 -1.568664108876e+02 0.0 
0.0 0.0 -6.802470239617e+01 
-9.902010799511e+00 8.703418379214e-01 0.0 
8.703418379214e-01 -6.790256148277e+00 0.0 
0.0 0.0 -4.921579925954e+00 
-1.095950837614e+01 1.062081007102e-03 0.0 
1.062081007102e-03 -7.556992035802e+00 0.0 
0.0 0.0 -5.471820851179e+00 
-1.085228739445e+01 -3.880855638272e-01 0.0 
-3.880855638272e-01 -7.162776915005e+00 0.0 
0.0 0.0 -5.304937800583e+00 
-1.014898876922e+01 -3.031184200119e-01 0.0 
-3.031184200119e-01 -7.133044048818e+00 0.0 
0.0 0.0 -5.084751961148e+00 
-9.385634059491e+00 -2.802000297490e-01 0.0 
-2.802000297490e-01 -8.080505560863e+00 0.0 
0.0 0.0 -5.162620341157e+00 
-8.789451281200e+00 -3.425619248887e-01 0.0 
-3.425619248887e-01 -8.440121453237e+00 0.0 
0.0 0.0 -5.095855167243e+00 
-8.126891063239e+00 -3.300554417065e-01 0.0 
-3.300554417065e-01 -8.361509666770e+00 0.0 
0.0 0.0 -4.872012279963e+00 
-7.494575950734e+00 -2.898414328884e-01 0.0 
-2.898414328884e-01 -8.257423546279e+00 0.0 
0.0 0.0 -4.650348508854e+00 
-6.884290563974e+00 -2.677916289741e-01 0.0 
-2.677916289741e-01 -8.238808108356e+00 0.0 
0.0 0.0 -4.460233982628e+00 
-6.372502373111e+00 -2.320535975067e-01 0.0 
-2.320535975067e-01 -8.251283995913e+00 0.0 
0.0 0.0 -4.311082301632e+00 
-5.855686420496e+00 -1.555650441887e-01 0.0 
-1.555650441887e-01 -8.366673018857e+00 0.0 
0.0 0.0 -4.192383655451e+00 
-5.678960447286e+00 -2.338720233470e-01 0.0 
-2.338720233470e-01 -8.925897416601e+00 0.0 
0.0 0.0 -4.318126603835e+00 
-5.080781372568e+00 -2.979623388608e-01 0.0 
-2.979623388608e-01 -8.618017489241e+00 0.0 
0.0 0.0 -4.041529400784e+00 
-4.408739474549e+00 -2.207498314108e-01 0.0 
-2.207498314108e-01 -7.876235728511e+00 0.0 
0.0 0.0 -3.603717490467e+00 
-4.035114816121e+00 -1.612870719735e-01 0.0 
-1.612870719735e-01 -8.021813311873e+00 0.0 
0.0 0.0 -3.540040921945e+00 
-3.798425947848e+00 -1.338565261044e-01 0.0 
-1.338565261044e-01 -8.289804757864e+00 0.0 
0.0 0.0 -3.552220814146e+00 
-3.570425875900e+00 -7.570071605620e-02 0.0 
-7.570071605620e-02 -8.320716308827e+00 0.0 
0.0 0.0 -3.492726569535e+00 
-3.357134391676e+00 -1.070497016842e-01 0.0 
-1.070497016842e-01 -7.917388006508e+00 0.0 
0.0 0.0 -3.305249423346e+00 
-3.248475465130e+00 6.228255259093e-02 0.0 
6.228255259093e-02 -7.318469739309e+00 0.0 
0.0 0.0 -3.078499835721e+00 
-2.194646018992e+00 1.152823489193e+00 0.0 
1.152823489193e+00 -4.532253931200e+00 0.0 
0.0 0.0 -1.397603083669e+00 
-1.697824225400e+00 6.645174187522e-01 0.0 
6.645174187522e-01 -9.301140339342e+00 0.0 
0.0 0.0 -2.734339193381e+00 
-1.167818207901e+00 9.425040805934e-02 0.0 
9.425040805934e-02 -9.858749078315e+00 0.0 
0.0 0.0 -2.907970185865e+00 
-7.623287150245e-01 -6.819463338573e-02 0.0 
-6.819463338573e-02 -9.673616792123e+00 0.0 
0.0 0.0 -2.730783652144e+00 
-8.756890669732e-01 -2.200989933244e-01 0.0 
-2.200989933244e-01 -9.703334313711e+00 0.0 
0.0 0.0 -2.773707014205e+00 
-1.092511526921e+00 -2.607922092766e-01 0.0 
-2.607922092766e-01 -9.663102021537e+00 0.0 
0.0 0.0 -2.826684064537e+00 
-1.457042902019e+00 -2.943907557872e-01 0.0 
-2.943907557872e-01 -9.678325605641e+00 0.0 
0.0 0.0 -2.940610552298e+00 
-1.854317550196e+00 -2.941069343249e-01 0.0 
-2.941069343249e-01 -9.675039659861e+00 0.0 
0.0 0.0 -3.058807163017e+00 
-2.280621881638e+00 -2.902195766306e-01 0.0 
-2.902195766306e-01 -9.685486488899e+00 0.0 
0.0 0.0 -3.189832511161e+00 
-2.704229392043e+00 -2.759741383250e-01 0.0 
-2.759741383250e-01 -9.690322753168e+00 0.0 
0.0 0.0 -3.318365643563e+00 
-3.116883737642e+00 -2.591534388111e-01 0.0 
-2.591534388111e-01 -9.697599155764e+00 0.0 
0.0 0.0 -3.444344868022e+00 
-3.507385522453e+00 -2.386891686373e-01 0.0 
-2.386891686373e-01 -9.703239572794e+00 0.0 
0.0 0.0 -3.563187528574e+00 
-3.870828260692e+00 -2.172159364330e-01 0.0 
-2.172159364330e-01 -9.709030131505e+00 0.0 
0.0 0.0 -3.673957517659e+00 
-4.203165193466e+00 -1.949748098768e-01 0.0 
-1.949748098768e-01 -9.714077108117e+00 0.0 
0.0 0.0 -3.775172690475e+00 
-4.502910550772e+00 -1.731316549008e-01 0.0 
-1.731316549008e-01 -9.718944403896e+00 0.0 
0.0 0.0 -3.866556486401e+00 
-4.770333366617e+00 -1.523477387722e-01 0.0 
-1.523477387722e-01 -9.723460499219e+00 0.0 
0.0 0.0 -3.948138159751e+00 
-5.006962887524e+00 -1.330557224488e-01 0.0 
-1.330557224488e-01 -9.727491394865e+00 0.0 
0.0 0.0 -4.020336284717e+00 
-5.214450461684e+00 -1.150884790214e-01 0.0 
-1.150884790214e-01 -9.730835886066e+00 0.0 
0.0 0.0 -4.083585904325e+00 
-5.394143638565e+00 -9.804197834478e-02 0.0 
-9.804197834478e-02 -9.733471574729e+00 0.0 
0.0 0.0 -4.138284563988e+00 
-5.546734820061e+00 -8.130769927900e-02 0.0 
-8.130769927900e-02 -9.735308321357e+00 0.0 
0.0 0.0 -4.184612942425e+00 
-5.671824981484e+00 -6.390891908361e-02 0.0 
-6.390891908361e-02 -9.736101591896e+00 0.0 
0.0 0.0 -4.222377972014e+00 
-5.767123540868e+00 -4.423262528651e-02 0.0 
-4.423262528651e-02 -9.735376800268e+00 0.0 
0.0 0.0 -4.250750102341e+00 
-5.827402138851e+00 -1.967587714988e-02 0.0 
-1.967587714988e-02 -9.732368056436e+00 0.0 
0.0 0.0 -4.267931058586e+00 
-5.844685942388e+00 1.268432270085e-02 0.0 
1.268432270085e-02 -9.727239754483e+00 0.0 
0.0 0.0 -4.271577709061e+00 
-5.868207565951e+00 2.966570824458e-03 0.0 
2.966570824458e-03 -9.778144914886e+00 0.0 
0.0 0.0 -4.293905744251e+00 
-6.088687385323e+00 -1.825704502398e-01 0.0 
-1.825704502398e-01 -9.523055031697e+00 0.0 
0.0 0.0 -4.283522725106e+00 
-7.810644055073e+00 9.096638464439e-01 0.0 
9.096638464439e-01 -1.752548843297e+01 0.0 
0.0 0.0 -7.200839746414e+00 
-8.571658271911e+00 6.112808616795e-01 0.0 
6.112808616795e-01 -2.101748894875e+01 0.0 
0.0 0.0 -8.476744166199e+00 
-7.415849276549e+00 7.646379945281e-02 0.0 
7.646379945281e-02 -1.992928787617e+01 0.0 
0.0 0.0 -7.803541145817e+00 
-7.147161186910e+00 -1.121389602216e-01 0.0 
-1.121389602216e-01 -1.971809130985e+01 0.0 
0.0 0.0 -7.659575749029e+00 
-7.162669106198e+00 -2.471732050697e-01 0.0 
-2.471732050697e-01 -1.971072886084e+01 0.0 
0.0 0.0 -7.662019390112e+00 
-7.253116589643e+00 -3.097342443168e-01 0.0 
-3.097342443168e-01 -1.964329651484e+01 0.0 
0.0 0.0 -7.668923931345e+00 
-7.444915712665e+00 -3.457765617537e-01 0.0 
-3.457765617537e-01 -1.963250314856e+01 0.0 
0.0 0.0 -7.723225658367e+00 
-7.669724446381e+00 -3.568348282370e-01 0.0 
-3.568348282370e-01 -1.960948761866e+01 0.0 
0.0 0.0 -7.783763619511e+00 
-7.925303023351e+00 -3.545719008231e-01 0.0 
-3.545719008231e-01 -1.960108271775e+01 0.0 
0.0 0.0 -7.857915722331e+00 
-8.185874838987e+00 -3.414242244832e-01 0.0 
-3.414242244832e-01 -1.959195019420e+01 0.0 
0.0 0.0 -7.933347509956e+00 
-8.445699685313e+00 -3.217751836162e-01 0.0 
-3.217751836162e-01 -1.958772831691e+01 0.0 
0.0 0.0 -8.010028400666e+00 
-8.694018880881e+00 -2.974966759268e-01 0.0 
-2.974966759268e-01 -1.958476338400e+01 0.0 
0.0 0.0 -8.083634679464e+00 
-8.926570451295e+00 -2.708472023563e-01 0.0 
-2.708472023563e-01 -1.958422356214e+01 0.0 
0.0 0.0 -8.153238204031e+00 
-9.140086565030e+00 -2.436564691874e-01 0.0 
-2.436564691874e-01 -1.958506904329e+01 0.0 
0.0 0.0 -8.217546682496e+00 
-9.334000717723e+00 -2.172305908542e-01 0.0 
-2.172305908542e-01 -1.958676191485e+01 0.0 
0.0 0.0 -8.276228789771e+00 
-9.507946718479e+00 -1.918950123044e-01 0.0 
-1.918950123044e-01 -1.958852156809e+01 0.0 
0.0 0.0 -8.328940485970e+00 
-9.661934147181e+00 -1.674958193476e-01 0.0 
-1.674958193476e-01 -1.959004872929e+01 0.0 
0.0 0.0 -8.375594862943e+00 
-9.796243172177e+00 -1.435857398514e-01 0.0 
-1.435857398514e-01 -1.959106558393e+01 0.0 
0.0 0.0 -8.416192626834e+00 
-9.911155316836e+00 -1.193770599952e-01 0.0 
-1.193770599952e-01 -1.959122126613e+01 0.0 
0.0 0.0 -8.450712974889e+00 
-1.000684119673e+01 -9.357238844082e-02 0.0 
-9.357238844082e-02 -1.959014741809e+01 0.0 
0.0 0.0 -8.479096584445e+00 
-1.008323326118e+01 -6.433878589982e-02 0.0 
-6.433878589982e-02 -1.958768743663e+01 0.0 
0.0 0.0 -8.501276209340e+00 
-1.014092253768e+01 -2.960956327852e-02 0.0 
-2.960956327852e-02 -1.958404725566e+01 0.0 
0.0 0.0 -8.517490938002e+00 
-1.018425569861e+01 1.282785548644e-02 0.0 
1.282785548644e-02 -1.957823726781e+01 0.0 
0.0 0.0 -8.528747889926e+00 
-1.024701351381e+01 7.079645728069e-02 0.0 
7.079645728069e-02 -1.957255347599e+01 0.0 
0.0 0.0 -8.545870096941e+00 
-1.047058495327e+01 -3.922559742232e-01 0.0 
-3.922559742232e-01 -1.966990313368e+01 0.0 
0.0 0.0 -8.642146426086e+00 
-1.877458921933e+01 -3.487531686229e-01 0.0 
-3.487531686229e-01 -3.923755717137e+01 0.0 
0.0 0.0 -1.700364391721e+01 
-1.872651087958e+01 -1.280459222241e-01 0.0 
-1.280459222241e-01 -3.916200540699e+01 0.0 
0.0 0.0 -1.696655488597e+01 
-1.867926739486e+01 -7.999643545661e-02 0.0 
-7.999643545661e-02 -3.916017521231e+01 0.0 
0.0 0.0 -1.695183278215e+01 
-1.863271927388e+01 -1.139662792686e-01 0.0 
-1.139662792686e-01 -3.917037826735e+01 0.0 
0.0 0.0 -1.694092926237e+01 
-1.858121525232e+01 -1.553349167588e-01 0.0 
-1.553349167588e-01 -3.917960559209e+01 0.0 
0.0 0.0 -1.692824625332e+01 
-1.852189571776e+01 -1.968704640202e-01 0.0 
-1.968704640202e-01 -3.918575571752e+01 0.0 
0.0 0.0 -1.691229543058e+01 
-1.845352339271e+01 -2.378150443628e-01 0.0 
-2.378150443628e-01 -3.918869559429e+01 0.0 
0.0 0.0 -1.689266569610e+01 
-1.837580540615e+01 -2.788802037721e-01 0.0 
-2.788802037721e-01 -3.918929440480e+01 0.0 
0.0 0.0 -1.686952994329e+01 
-1.828829566170e+01 -3.205571511927e-01 0.0 
-3.205571511927e-01 -3.918861657048e+01 0.0 
0.0 0.0 -1.684307366965e+01 
-1.819129430797e+01 -3.629169743942e-01 0.0 
-3.629169743942e-01 -3.918734763069e+01 0.0 
0.0 0.0 -1.681359258160e+01 
-1.808598236740e+01 -4.055329912378e-01 0.0 
-4.055329912378e-01 -3.918607114011e+01 0.0 
0.0 0.0 -1.678161605225e+01 
-1.797481303093e+01 -4.477394299148e-01 0.0 
-4.477394299148e-01 -3.918531295166e+01 0.0 
0.0 0.0 -1.674803779478e+01 
-1.786053799017e+01 -4.885762777869e-01 0.0 
-4.885762777869e-01 -3.918780730883e+01 0.0 
0.0 0.0 -1.671450358970e+01 
-1.774501296671e+01 -5.237357566199e-01 0.0 
-5.237357566199e-01 -3.919457266880e+01 0.0 
0.0 0.0 -1.668187569065e+01 
-1.763502385021e+01 -5.492333464270e-01 0.0 
-5.492333464270e-01 -3.920848169975e+01 0.0 
0.0 0.0 -1.665305166499e+01 
-1.753863960164e+01 -5.565040038690e-01 0.0 
-5.565040038690e-01 -3.922439922001e+01 0.0 
0.0 0.0 -1.662891164649e+01 
-1.747521185682e+01 -5.456653710025e-01 0.0 
-5.456653710025e-01 -3.925555174822e+01 0.0 
0.0 0.0 -1.661922908151e+01 
-1.744720012651e+01 -4.963450594488e-01 0.0 
-4.963450594488e-01 -3.928286848457e+01 0.0 
0.0 0.0 -1.661902058333e+01 
-1.750347479708e+01 -4.177551489166e-01 0.0 
-4.177551489166e-01 -3.935724424616e+01 0.0 
0.0 0.0 -1.665821571297e+01 
-1.760998138361e+01 -2.526832462054e-01 0.0 
-2.526832462054e-01 -3.939209049846e+01 0.0 
0.0 0.0 -1.670062156462e+01 
-1.794400457324e+01 -5.003018482785e-02 0.0 
-5.003018482785e-02 -3.960123089081e+01 0.0 
0.0 0.0 -1.686357063921e+01 
-1.895659043828e+01 4.885021952630e-01 0.0 
4.885021952630e-01 -4.077525752273e+01 0.0 
0.0 0.0 -1.751955438831e+01 
-1.813176701754e+01 8.064382484035e-01 0.0 
8.064382484035e-01 -3.732660080005e+01 0.0 
0.0 0.0 -1.623751034528e+01 
-2.770948275805e+01 5.692292796595e-01 0.0 
5.692292796595e-01 -5.697602380373e+01 0.0 
0.0 0.0 -2.500565196854e+01 
-2.860240672921e+01 3.678534327746e-01 0.0 
3.678534327746e-01 -6.041277154729e+01 0.0 
0.0 0.0 -2.630455348295e+01 
-2.764085334668e+01 -8.277659832025e-02 0.0 
-8.277659832025e-02 -5.926729022623e+01 0.0 
0.0 0.0 -2.567244307187e+01 
-2.727552796581e+01 -2.639326562766e-01 0.0 
-2.639326562766e-01 -5.903291333118e+01 0.0 
0.0 0.0 -2.549253238910e+01 
-2.711760630311e+01 -4.144028595285e-01 0.0 
-4.144028595285e-01 -5.898759878227e+01 0.0 
0.0 0.0 -2.543156152561e+01 
-2.697180313561e+01 -4.923514527883e-01 0.0 
-4.923514527883e-01 -5.888890074761e+01 0.0 
0.0 0.0 -2.535821116497e+01 
-2.691362466178e+01 -5.380558964068e-01 0.0 
-5.380558964068e-01 -5.884948703140e+01 0.0 
0.0 0.0 -2.532893350795e+01 
-2.687923731956e+01 -5.469160406796e-01 0.0 
-5.469160406796e-01 -5.880345553756e+01 0.0 
0.0 0.0 -2.530480785714e+01 
-2.687603938856e+01 -5.325474924038e-01 0.0 
-5.325474924038e-01 -5.878110538026e+01 0.0 
0.0 0.0 -2.529714343065e+01 
-2.688265036941e+01 -5.032041680230e-01 0.0 
-5.032041680230e-01 -5.876821822020e+01 0.0 
0.0 0.0 -2.529526057688e+01 
-2.690280394825e+01 -4.685643101156e-01 0.0 
-4.685643101156e-01 -5.876528147823e+01 0.0 
0.0 0.0 -2.530042562794e+01 
-2.693222211555e+01 -4.299618119765e-01 0.0 
-4.299618119765e-01 -5.876366789831e+01 0.0 
0.0 0.0 -2.530876700416e+01 
-2.696608362824e+01 -3.877990920635e-01 0.0 
-3.877990920635e-01 -5.876384848209e+01 0.0 
0.0 0.0 -2.531897963310e+01 
-2.700031243560e+01 -3.440973269144e-01 0.0 
-3.440973269144e-01 -5.876516394218e+01 0.0 
0.0 0.0 -2.532964291333e+01 
-2.703337387888e+01 -3.002808546517e-01 0.0 
-3.002808546517e-01 -5.876589002956e+01 0.0 
0.0 0.0 -2.533977917253e+01 
-2.706586923352e+01 -2.571546598449e-01 0.0 
-2.571546598449e-01 -5.876435677188e+01 0.0 
0.0 0.0 -2.534906780162e+01 
-2.709764723231e+01 -2.136967379757e-01 0.0 
-2.136967379757e-01 -5.875942548202e+01 0.0 
0.0 0.0 -2.535712181430e+01 
-2.712755115812e+01 -1.701450030508e-01 0.0 
-1.701450030508e-01 -5.875254942637e+01 0.0 
0.0 0.0 -2.536403017535e+01 
-2.715608774597e+01 -1.285463554141e-01 0.0 
-1.285463554141e-01 -5.874720910843e+01 0.0 
0.0 0.0 -2.537098905632e+01 
-2.718210760847e+01 -9.139685467526e-02 0.0 
-9.139685467526e-02 -5.875244614275e+01 0.0 
0.0 0.0 -2.538036612537e+01 
-2.719892318517e+01 -4.450454930301e-02 0.0 
-4.450454930301e-02 -5.878652119836e+01 0.0 
0.0 0.0 -2.539563331506e+01 
-2.719305454152e+01 -4.727799004920e-01 0.0 
-4.727799004920e-01 -5.882879134891e+01 0.0 
0.0 0.0 -2.540655376713e+01 
-3.564143935729e+01 -3.452631820612e-01 0.0 
-3.452631820612e-01 -7.837736905432e+01 0.0 
0.0 0.0 -3.380564252349e+01 
-3.565505357712e+01 -1.582561766966e-01 0.0 
-1.582561766966e-01 -7.833994354614e+01 0.0 
0.0 0.0 -3.379849913698e+01 
-3.565921787869e+01 -1.299287981919e-01 0.0 
-1.299287981919e-01 -7.832546631570e+01 0.0 
0.0 0.0 -3.379540525832e+01 
-3.565710961686e+01 -1.703863770184e-01 0.0 
-1.703863770184e-01 -7.832538265050e+01 0.0 
0.0 0.0 -3.379474768021e+01 
-3.565571975693e+01 -2.150705729751e-01 0.0 
-2.150705729751e-01 -7.833114629430e+01 0.0 
0.0 0.0 -3.379605981537e+01 
-3.565529185326e+01 -2.603728233497e-01 0.0 
-2.603728233497e-01 -7.833806779331e+01 0.0 
0.0 0.0 -3.379800789397e+01 
-3.565755589564e+01 -3.030577549250e-01 0.0 
-3.030577549250e-01 -7.834231029746e+01 0.0 
0.0 0.0 -3.379995985793e+01 
-3.566672598499e+01 -3.450864726054e-01 0.0 
-3.450864726054e-01 -7.834085363607e+01 0.0 
0.0 0.0 -3.380227388632e+01 
-3.568410600436e+01 -3.882794966023e-01 0.0 
-3.882794966023e-01 -7.833993490911e+01 0.0 
0.0 0.0 -3.380721227404e+01 
-3.570442038746e+01 -4.294860604140e-01 0.0 
-4.294860604140e-01 -7.834264370358e+01 0.0 
0.0 0.0 -3.381411922731e+01 
-3.573487416583e+01 -4.630513841135e-01 0.0 
-4.630513841135e-01 -7.834974288986e+01 0.0 
0.0 0.0 -3.382538511671e+01 
-3.578303992581e+01 -4.864111581739e-01 0.0 
-4.864111581739e-01 -7.835886542723e+01 0.0 
0.0 0.0 -3.384257160591e+01 
-3.585318782200e+01 -5.016377574297e-01 0.0 
-5.016377574297e-01 -7.836772915128e+01 0.0 
0.0 0.0 -3.386627509198e+01 
-3.595053990169e+01 -5.104240392378e-01 0.0 
-5.104240392378e-01 -7.840724097676e+01 0.0 
0.0 0.0 -3.390733426354e+01 
-3.605913538719e+01 -4.827138079600e-01 0.0 
-4.827138079600e-01 -7.846176880834e+01 0.0 
0.0 0.0 -3.395627125866e+01 
-3.622308594436e+01 -4.224930984300e-01 0.0 
-4.224930984300e-01 -7.857235481150e+01 0.0 
0.0 0.0 -3.403863222676e+01 
-3.640651258122e+01 -2.794549636368e-01 0.0 
-2.794549636368e-01 -7.863222977202e+01 0.0 
0.0 0.0 -3.411162270597e+01 
-3.677868975686e+01 -1.396659764080e-01 0.0 
-1.396659764080e-01 -7.884394397238e+01 0.0 
0.0 0.0 -3.428679011877e+01 
-3.767303618818e+01 2.505972238863e-01 0.0 
2.505972238863e-01 -8.002063422466e+01 0.0 
0.0 0.0 -3.490810112385e+01 
-3.681186218184e+01 4.578925522619e-01 0.0 
4.578925522619e-01 -7.658887632191e+01 0.0 
0.0 0.0 -3.362022155113e+01 
-4.556375645547e+01 3.351652002612e-01 0.0 
3.351652002612e-01 -9.608719729927e+01 0.0 
0.0 0.0 -4.209528612642e+01 
-4.643892819051e+01 2.335053281677e-01 0.0 
2.335053281677e-01 -9.955279134868e+01 0.0 
0.0 0.0 -4.339751586176e+01 
-4.557991848174e+01 -1.066633700746e-01 0.0 
-1.066633700746e-01 -9.845502064571e+01 0.0 
0.0 0.0 -4.281048173824e+01 
-4.522375523266e+01 -2.305148827711e-01 0.0 
-2.305148827711e-01 -9.819613015287e+01 0.0 
0.0 0.0 -4.262596561566e+01 
-4.505965471918e+01 -3.252662434547e-01 0.0 
-3.252662434547e-01 -9.811405966560e+01 0.0 
0.0 0.0 -4.255211431543e+01 
-4.485449343690e+01 -3.474559500509e-01 0.0 
-3.474559500509e-01 -9.800941542358e+01 0.0 
0.0 0.0 -4.245917265814e+01 
-4.470427611901e+01 -3.642194094081e-01 0.0 
-3.642194094081e-01 -9.799634480502e+01 0.0 
0.0 0.0 -4.241018627721e+01 
-4.458072146066e+01 -3.731865294851e-01 0.0 
-3.731865294851e-01 -9.797466716207e+01 0.0 
0.0 0.0 -4.236661658682e+01 
-4.448066979464e+01 -3.683449688720e-01 0.0 
-3.683449688720e-01 -9.795245873277e+01 0.0 
0.0 0.0 -4.232993855822e+01 
-4.440831269631e+01 -3.468099368196e-01 0.0 
-3.468099368196e-01 -9.793391215179e+01 0.0 
0.0 0.0 -4.230266745443e+01 
-4.434486552701e+01 -3.107881721456e-01 0.0 
-3.107881721456e-01 -9.793227602395e+01 0.0 
0.0 0.0 -4.228314246529e+01 
-4.428256834822e+01 -2.802453481183e-01 0.0 
-2.802453481183e-01 -9.793695797272e+01 0.0 
0.0 0.0 -4.226585789628e+01 
-4.424482279588e+01 -2.514110736046e-01 0.0 
-2.514110736046e-01 -9.793146658603e+01 0.0 
0.0 0.0 -4.225288681457e+01 
-4.421119405490e+01 -2.144170049353e-01 0.0 
-2.144170049353e-01 -9.791978902108e+01 0.0 
0.0 0.0 -4.223929492280e+01 
-4.418448362337e+01 -1.739444781377e-01 0.0 
-1.739444781377e-01 -9.791384751142e+01 0.0 
0.0 0.0 -4.222949934044e+01 
-4.415951610355e+01 -1.340648349756e-01 0.0 
-1.340648349756e-01 -9.790958397819e+01 0.0 
0.0 0.0 -4.222073002452e+01 
-4.414187265481e+01 -8.603088890489e-02 0.0 
-8.603088890489e-02 -9.791798874721e+01 0.0 
0.0 0.0 -4.221795842061e+01 
-4.411327924381e+01 -2.106014407227e-02 0.0 
-2.106014407227e-02 -9.794257342025e+01 0.0 
0.0 0.0 -4.221675579922e+01 
-4.410075552906e+01 -4.556598608958e-01 0.0 
-4.556598608958e-01 -9.795790187966e+01 0.0 
0.0 0.0 -4.221759722261e+01 
-5.252395964600e+01 -3.228957229375e-01 0.0 
-3.228957229375e-01 -1.175410801323e+02 0.0 
0.0 0.0 -5.061951193350e+01 
-5.258047281995e+01 -9.914088397423e-02 0.0 
-9.914088397423e-02 -1.174893375938e+02 0.0 
0.0 0.0 -5.062094312412e+01 
-5.261732870253e+01 -8.892807032079e-02 0.0 
-8.892807032079e-02 -1.174727878127e+02 0.0 
0.0 0.0 -5.062703495456e+01 
-5.265240109487e+01 -1.207505143340e-01 0.0 
-1.207505143340e-01 -1.174858339879e+02 0.0 
0.0 0.0 -5.064147052483e+01 
-5.271561012452e+01 -1.579691390144e-01 0.0 
-1.579691390144e-01 -1.174879961433e+02 0.0 
0.0 0.0 -5.066108188033e+01 
-5.276602234487e+01 -1.928287355323e-01 0.0 
-1.928287355323e-01 -1.175011450514e+02 0.0 
0.0 0.0 -5.068015021888e+01 
-5.283786903196e+01 -2.223247237492e-01 0.0 
-2.223247237492e-01 -1.175258310285e+02 0.0 
0.0 0.0 -5.070911001813e+01 
-5.291043611839e+01 -2.244471932195e-01 0.0 
-2.244471932195e-01 -1.175233906548e+02 0.0 
0.0 0.0 -5.073014803197e+01 
-5.301562820465e+01 -2.548969458303e-01 0.0 
-2.548969458303e-01 -1.175026490429e+02 0.0 
0.0 0.0 -5.075548317425e+01 
-5.311498465213e+01 -2.776091196752e-01 0.0 
-2.776091196752e-01 -1.175421302024e+02 0.0 
0.0 0.0 -5.079713445635e+01 
-5.324440069022e+01 -2.613276605308e-01 0.0 
-2.613276605308e-01 -1.175835310464e+02 0.0 
0.0 0.0 -5.084837952098e+01 
-5.341205348272e+01 -2.347532143344e-01 0.0 
-2.347532143344e-01 -1.176127241032e+02 0.0 
0.0 0.0 -5.090743327577e+01 
-5.358922037952e+01 -1.888203779354e-01 0.0 
-1.888203779354e-01 -1.176632001145e+02 0.0 
0.0 0.0 -5.097572614821e+01 
-5.379159687481e+01 -1.235882518271e-01 0.0 
-1.235882518271e-01 -1.176596641840e+02 0.0 
0.0 0.0 -5.103537831764e+01 
-5.412889606066e+01 -9.627353355335e-02 0.0 
-9.627353355335e-02 -1.179100625997e+02 0.0 
0.0 0.0 -5.121168759810e+01 
-5.496519645450e+01 2.084756282186e-01 0.0 
2.084756282186e-01 -1.191245032979e+02 0.0 
0.0 0.0 -5.182690992573e+01 
-5.410395861495e+01 3.094434504020e-01 0.0 
3.094434504020e-01 -1.156819503107e+02 0.0 
0.0 0.0 -5.053577267769e+01 
-6.244271074831e+01 3.014332418143e-01 0.0 
3.014332418143e-01 -1.351494145054e+02 0.0 
0.0 0.0 -5.887763757611e+01 
-6.320570025196e+01 2.703581255391e-01 0.0 
2.703581255391e-01 -1.384929800482e+02 0.0 
0.0 0.0 -6.010960409004e+01 
-6.245655632010e+01 6.447731424487e-02 0.0 
6.447731424487e-02 -1.374237677905e+02 0.0 
0.0 0.0 -5.956409723318e+01 
-6.225890361201e+01 -1.657397433128e-02 0.0 
-1.657397433128e-02 -1.373023403498e+02 0.0 
0.0 0.0 -5.946837318855e+01 
-6.204268582156e+01 -4.646792974364e-02 0.0 
-4.646792974364e-02 -1.372676398723e+02 0.0 
0.0 0.0 -5.939309770816e+01 
-6.185443647091e+01 -1.065974290685e-01 0.0 
-1.065974290685e-01 -1.372435923450e+02 0.0 
0.0 0.0 -5.932940864478e+01 
-6.167819736418e+01 -1.414080828555e-01 0.0 
-1.414080828555e-01 -1.371417652502e+02 0.0 
0.0 0.0 -5.924598878431e+01 
-6.153650666626e+01 -1.072691420366e-01 0.0 
-1.072691420366e-01 -1.371136989150e+02 0.0 
0.0 0.0 -5.919506167439e+01 
-6.150778915235e+01 -1.294757733508e-01 0.0 
-1.294757733508e-01 -1.371797223522e+02 0.0 
0.0 0.0 -5.920625345136e+01 
-6.135193135925e+01 -1.089490934130e-01 0.0 
-1.089490934130e-01 -1.371239260990e+02 0.0 
0.0 0.0 -5.914275723749e+01 
-6.126635332080e+01 -1.067762500423e-01 0.0 
-1.067762500423e-01 -1.371006816741e+02 0.0 
0.0 0.0 -5.911011049846e+01 
-6.119361497018e+01 -5.473272057787e-02 0.0 
-5.473272057787e-02 -1.370878200269e+02 0.0 
0.0 0.0 -5.908443049914e+01 
-6.110591715356e+01 -5.935131173226e-02 0.0 
-5.935131173226e-02 -1.371033292874e+02 0.0 
0.0 0.0 -5.906277393228e+01 
-6.104642611743e+01 -1.500057746717e-02 0.0 
-1.500057746717e-02 -1.370368727912e+02 0.0 
0.0 0.0 -5.902498967258e+01 
-6.102659094889e+01 1.003524073344e-01 0.0 
1.003524073344e-01 -1.371636072176e+02 0.0 
0.0 0.0 -5.905705944993e+01 
-6.093502921370e+01 -4.673393392582e-01 0.0 
-4.673393392582e-01 -1.372329533655e+02 0.0 
0.0 0.0 -5.905039477377e+01 
-9.613864370266e+00 5.658437725836e+00 0.0 
5.658437725836e+00 -9.321364388256e+00 0.0 
0.0 0.0 -5.372967674345e+00 
-9.748998219570e+00 7.169848554715e+00 0.0 
7.169848554715e+00 -1.363536198980e+01 0.0 
0.0 0.0 -6.615308062812e+00 
-8.059279888986e+00 3.106991409772e+00 0.0 
3.106991409772e+00 -1.314689740374e+01 0.0 
0.0 0.0 -5.961853187818e+00 
-1.668331981456e+01 2.041455439332e+00 0.0 
2.041455439332e+00 -3.226258904408e+01 0.0 
0.0 0.0 -1.428377265759e+01 
-2.569418031866e+01 1.604504622616e+00 0.0 
1.604504622616e+00 -5.153345542503e+01 0.0 
0.0 0.0 -2.276829072311e+01 
-3.476408980494e+01 1.113675211272e+00 0.0 
1.113675211272e+00 -7.110225108775e+01 0.0 
0.0 0.0 -3.135990226781e+01 
-4.339035524911e+01 8.567453505079e-01 0.0 
8.567453505079e-01 -9.055898464058e+01 0.0 
0.0 0.0 -3.978480196691e+01 
-5.194631319169e+01 6.265542982490e-01 0.0 
6.265542982490e-01 -1.100477296872e+02 0.0 
0.0 0.0 -4.819821286368e+01 
-6.033586287232e+01 5.648802954156e-01 0.0 
5.648802954156e-01 -1.295211400523e+02 0.0 
0.0 0.0 -5.655710087738e+01 
-6.865973857976e+01 5.550934844018e-01 0.0 
5.550934844018e-01 -1.491571416203e+02 0.0 
0.0 0.0 -6.494506406002e+01 
-1.220389288445e+01 7.751850766207e+00 0.0 
7.751850766207e+00 -2.303438195841e+01 0.0 
0.0 0.0 -1.017148245286e+01 
-1.547165580449e+02 7.062261525963e+00 0.0 
7.062261525963e+00 -3.640488238060e+02 0.0 
0.0 0.0 -1.552296145553e+02 
-9.505885814572e+00 -4.129633020604e-01 0.0 
-4.129633020604e-01 -1.678839058242e+01 0.0 
0.0 0.0 -7.875582943951e+00 
-1.137319062790e+01 -3.586775549738e-01 0.0 
-3.586775549738e-01 -1.612969402480e+01 0.0 
0.0 0.0 -8.237773126374e+00 
-1.568677057343e+02 4.864613018502e+00 0.0 
4.864613018502e+00 -3.699247284416e+02 0.0 
0.0 0.0 -1.576377302528e+02 
-2.562343653763e+01 3.255325109634e+00 0.0 
3.255325109634e+00 -5.059173837843e+01 0.0 
0.0 0.0 -2.246455247482e+01 
-8.325091386347e+01 7.606944922684e-02 0.0 
7.606944922684e-02 -2.077339172659e+02 0.0 
0.0 0.0 -8.689544933880e+01 
-1.522309585654e+02 7.819008569429e+00 0.0 
7.819008569429e+00 -3.570382789817e+02 0.0 
0.0 0.0 -1.523807712641e+02 
-4.187836776123e+01 1.980277220037e+00 0.0 
1.980277220037e+00 -8.707823427747e+01 0.0 
0.0 0.0 -3.828698061161e+01 
-1.504389966095e+02 7.645636018416e+00 0.0 
7.645636018416e+00 -3.512339191668e+02 0.0 
0.0 0.0 -1.501018747329e+02 
-5.899389311435e+01 1.132999953663e+00 0.0 
1.132999953663e+00 -1.265928134240e+02 0.0 
0.0 0.0 -5.527601196152e+01 
-1.588209722375e+02 3.059985879705e+00 0.0 
3.059985879705e+00 -3.739981145447e+02 0.0 
0.0 0.0 -1.594457260347e+02 
-7.800426445911e+00 -3.144928317522e-01 0.0 
-3.144928317522e-01 -1.616738549713e+01 0.0 
0.0 0.0 -7.200027210064e+00 
-1.484128393978e+02 6.413075735168e+00 0.0 
6.413075735168e+00 -3.456021682877e+02 0.0 
0.0 0.0 -1.478045023057e+02 
-7.560820458894e+01 9.176044706519e-01 0.0 
9.176044706519e-01 -1.660275954398e+02 0.0 
0.0 0.0 -7.209074000864e+01 
-5.128123956893e+01 -1.064109261288e-01 0.0 
-1.064109261288e-01 -1.292526549517e+02 0.0 
0.0 0.0 -5.376016835618e+01 
-1.063774576540e+02 1.079694917923e-01 0.0 
1.079694917923e-01 -2.611068034125e+02 0.0 
0.0 0.0 -1.098452783199e+02 
-1.469896001881e+02 5.241881212929e+00 0.0 
5.241881212929e+00 -3.416938561417e+02 0.0 
0.0 0.0 -1.462050368989e+02 
-1.459187041690e+02 3.516836673671e+00 0.0 
3.516836673671e+00 -3.398026242705e+02 0.0 
0.0 0.0 -1.453163985318e+02 
-1.444682451683e+02 1.105162683871e+00 0.0 
1.105162683871e+00 -3.373874312017e+02 0.0 
0.0 0.0 -1.441567029110e+02 
-1.441590512450e+02 1.686560123733e+00 0.0 
1.686560123733e+00 -3.361074211822e+02 0.0 
0.0 0.0 -1.436799417282e+02 
-1.453896932702e+02 2.673171373967e+00 0.0 
2.673171373967e+00 -3.390145481818e+02 0.0 
0.0 0.0 -1.449212724356e+02 
-7.879313866377e+01 6.113908457738e-01 0.0 
6.113908457738e-01 -1.746125175211e+02 0.0 
0.0 0.0 -7.562169685546e+01 
-7.778064817640e+01 2.087253493554e-01 0.0 
2.087253493554e-01 -1.742764290574e+02 0.0 
0.0 0.0 -7.521712317015e+01 
-7.788957678776e+01 1.844940357380e-01 0.0 
1.844940357380e-01 -1.755217799528e+02 0.0 
0.0 0.0 -7.562340702216e+01 
-1.067750708475e+02 2.179896763641e-01 0.0 
2.179896763641e-01 -2.453863285027e+02 0.0 
0.0 0.0 -1.052484198051e+02 
-1.587039733675e+02 1.878427899982e+00 0.0 
1.878427899982e+00 -3.739439386159e+02 0.0 
0.0 0.0 -1.593943735950e+02 
-1.110035888301e+01 7.051238640367e-01 0.0 
7.051238640367e-01 -1.532955068538e+01 0.0 
0.0 0.0 -7.929236744227e+00 
-7.275593261044e+00 -1.797082432282e-01 0.0 
-1.797082432282e-01 -1.717081832863e+01 0.0 
0.0 0.0 -7.322923763473e+00 
-1.341511284675e+02 2.751518520399e-01 0.0 
2.751518520399e-01 -3.222961836902e+02 0.0 
0.0 0.0 -1.365341936473e+02 
-7.644725233379e+01 -3.535117371094e-02 0.0 
-3.535117371094e-02 -1.731847071455e+02 0.0 
0.0 0.0 -7.448958784379e+01 
-2.703383978530e+01 -1.283595714141e-01 0.0 
-1.283595714141e-01 -6.869093825321e+01 0.0 
0.0 0.0 -2.831743341155e+01 
-1.450656911387e+02 4.278199983279e+00 0.0 
4.278199983279e+00 -3.373927556247e+02 0.0 
0.0 0.0 -1.443375340290e+02 
-1.518835268484e+02 7.889277104771e+00 0.0 
7.889277104771e+00 -3.554381043839e+02 0.0 
0.0 0.0 -1.517964893697e+02 
-1.493305760717e+02 7.113151356496e+00 0.0 
7.113151356496e+00 -3.481781726211e+02 0.0 
0.0 0.0 -1.488526246078e+02 
-1.528582999113e+02 7.530328049182e+00 0.0 
7.530328049182e+00 -3.593662295116e+02 0.0 
0.0 0.0 -1.532673588269e+02 
-1.558976522266e+02 6.332931392266e+00 0.0 
6.332931392266e+00 -3.673072830139e+02 0.0 
0.0 0.0 -1.565614805722e+02 
-1.091418036445e+01 -5.465032456222e-01 0.0 
-5.465032456222e-01 -1.718444754386e+01 0.0 
0.0 0.0 -8.418789996714e+00 
-7.797194222779e+01 3.464945133806e-01 0.0 
3.464945133806e-01 -1.737446726976e+02 0.0 
0.0 0.0 -7.511498447761e+01 
-1.560991508061e+02 3.913861496790e+00 0.0 
3.913861496790e+00 -3.686178785677e+02 0.0 
0.0 0.0 -1.570151088121e+02 
-1.226929601575e+02 2.390798290100e-01 0.0 
2.390798290100e-01 -2.839973530280e+02 0.0 
0.0 0.0 -1.216070939556e+02 
-8.822711123786e+00 -3.687562089206e-01 0.0 
-3.687562089206e-01 -1.706193377580e+01 0.0 
0.0 0.0 -7.766262269381e+00 
-6.672550758871e+01 -2.324878642796e-03 0.0 
-2.324878642796e-03 -1.675543853212e+02 0.0 
0.0 0.0 -6.988396787298e+01 
-1.454936932749e+02 6.840368483228e-01 0.0 
6.840368483228e-01 -3.400921843177e+02 0.0 
0.0 0.0 -1.452757632778e+02 
-3.442292486106e+01 2.720091770953e+00 0.0 
2.720091770953e+00 -7.030436428230e+01 0.0 
0.0 0.0 -3.101818674301e+01 
-1.773058359429e+01 5.365604394318e+00 0.0 
5.365604394318e+00 -3.294275423999e+01 0.0 
0.0 0.0 -1.480200135028e+01 
-5.047806063203e+01 1.468422024663e+00 0.0 
1.468422024663e+00 -1.068174750820e+02 0.0 
0.0 0.0 -4.678866071420e+01 
-6.728607916392e+01 1.047575702187e+00 0.0 
1.047575702187e+00 -1.460579072764e+02 0.0 
0.0 0.0 -6.360319593210e+01 
-1.011981233379e+01 5.812310075217e+00 0.0 
5.812310075217e+00 -1.715677785657e+01 0.0 
0.0 0.0 -7.832245090794e+00 
-9.120548796718e+01 7.574484231059e-02 0.0 
7.574484231059e-02 -2.081061488614e+02 0.0 
0.0 0.0 -8.939349104859e+01 
-1.603612902007e+02 1.069816730790e+00 0.0 
1.069816730790e+00 -3.775018783034e+02 0.0 
0.0 0.0 -1.609589505512e+02 
-6.811494064559e+00 -1.530795454951e-01 0.0 
-1.530795454951e-01 -1.634137339507e+01 0.0 
0.0 0.0 -6.901725979365e+00 
-1.384730535357e+02 1.625233791676e-01 0.0 
1.625233791676e-01 -3.223290588352e+02 0.0 
0.0 0.0 -1.378406337113e+02 
-7.956783122690e+01 9.552780262189e-01 0.0 
9.552780262189e-01 -1.752192181395e+02 0.0 
0.0 0.0 -7.603611480992e+01 
-8.321180459780e+01 1.318527654797e+00 0.0 
1.318527654797e+00 -1.835145934387e+02 0.0 
0.0 0.0 -7.961791941095e+01 
-8.695849768127e+01 1.200198538335e+00 0.0 
1.200198538335e+00 -1.926695293447e+02 0.0 
0.0 0.0 -8.348840810780e+01 
-9.112701794957e+01 1.755776147239e+00 0.0 
1.755776147239e+00 -2.023625407438e+02 0.0 
0.0 0.0 -8.764686760801e+01 
-9.524243858567e+01 1.697754674498e+00 0.0 
1.697754674498e+00 -2.124202479328e+02 0.0 
0.0 0.0 -9.189880595555e+01 
-9.900954305375e+01 2.134129172920e+00 0.0 
2.134129172920e+00 -2.211915115607e+02 0.0 
0.0 0.0 -9.566031638433e+01 
-9.501819935556e+01 2.188933343664e+00 0.0 
2.188933343664e+00 -2.112084728530e+02 0.0 
0.0 0.0 -9.146800166257e+01 
-1.028748321943e+02 2.588926431361e+00 0.0 
2.588926431361e+00 -2.301278884313e+02 0.0 
0.0 0.0 -9.950081618768e+01 
-9.881284223050e+01 2.656646694665e+00 0.0 
2.656646694665e+00 -2.200632787683e+02 0.0 
0.0 0.0 -9.526283629962e+01 
-1.032645592875e+02 2.109805367762e+00 0.0 
2.109805367762e+00 -2.315243131027e+02 0.0 
0.0 0.0 -1.000366617170e+02 
-1.066609652121e+02 3.070372493752e+00 0.0 
3.070372493752e+00 -2.391212668453e+02 0.0 
0.0 0.0 -1.033346696172e+02 
-1.025912216842e+02 3.160355900139e+00 0.0 
3.160355900139e+00 -2.290484169445e+02 0.0 
0.0 0.0 -9.909189158861e+01 
-1.104022304137e+02 3.555974791421e+00 0.0 
3.555974791421e+00 -2.481903339381e+02 0.0 
0.0 0.0 -1.071777693056e+02 
-1.063325935993e+02 3.680882317846e+00 0.0 
3.680882317846e+00 -2.381785206218e+02 0.0 
0.0 0.0 -1.029533342663e+02 
-9.853938713529e+01 3.292715317029e+00 0.0 
3.292715317029e+00 -2.191345781311e+02 0.0 
0.0 0.0 -9.490218957992e+01 
-1.022633551651e+02 3.832932744124e+00 0.0 
3.832932744124e+00 -2.283163976531e+02 0.0 
0.0 0.0 -9.877392584548e+01 
-9.446999355990e+01 3.464700630635e+00 0.0 
3.464700630635e+00 -2.092813756632e+02 0.0 
0.0 0.0 -9.072541076694e+01 
-9.818020886238e+01 4.037593972713e+00 0.0 
4.037593972713e+00 -2.185552114533e+02 0.0 
0.0 0.0 -9.462062609470e+01 
-1.059490430536e+02 4.364123992214e+00 0.0 
4.364123992214e+00 -2.376512113070e+02 0.0 
0.0 0.0 -1.026800763082e+02 
-1.018417085055e+02 4.595449146391e+00 0.0 
4.595449146391e+00 -2.279793154005e+02 0.0 
0.0 0.0 -9.854630717180e+01 
-9.403461882445e+01 4.295464667178e+00 0.0 
4.295464667178e+00 -2.088517268776e+02 0.0 
0.0 0.0 -9.046590371062e+01 
-9.766474301450e+01 4.863997882215e+00 0.0 
4.863997882215e+00 -2.183813211132e+02 0.0 
0.0 0.0 -9.441381923832e+01 
-8.985149524515e+01 4.602995652411e+00 0.0 
4.602995652411e+00 -1.992632851696e+02 0.0 
0.0 0.0 -8.633443412443e+01 
-9.344828448077e+01 5.180724514772e+00 0.0 
5.180724514772e+00 -2.089361839831e+02 0.0 
0.0 0.0 -9.031534053916e+01 
-8.559767213792e+01 4.974997022832e+00 0.0 
4.974997022832e+00 -1.897570225402e+02 0.0 
0.0 0.0 -8.220640840343e+01 
-8.916029505460e+01 5.547919146521e+00 0.0 
5.547919146521e+00 -1.996217746575e+02 0.0 
0.0 0.0 -8.623462091364e+01 
-9.699458780676e+01 5.680056940069e+00 0.0 
5.680056940069e+00 -2.187745441477e+02 0.0 
0.0 0.0 -9.433073958635e+01 
-9.264308065556e+01 6.013741700130e+00 0.0 
6.013741700130e+00 -2.096046598779e+02 0.0 
0.0 0.0 -9.027432216003e+01 
-8.479573754947e+01 5.952302148958e+00 0.0 
5.952302148958e+00 -1.904663750035e+02 0.0 
0.0 0.0 -8.217863376589e+01 
-8.821490016511e+01 6.368142982157e+00 0.0 
6.368142982157e+00 -2.006095490625e+02 0.0 
0.0 0.0 -8.624733476828e+01 
-8.035064661875e+01 6.384039203201e+00 0.0 
6.384039203201e+00 -1.815059757867e+02 0.0 
0.0 0.0 -7.815698672163e+01 
-8.369586042760e+01 6.717321455194e+00 0.0 
6.717321455194e+00 -1.917771542374e+02 0.0 
0.0 0.0 -8.224190439951e+01 
-9.159862014130e+01 6.641452887251e+00 0.0 
6.641452887251e+00 -2.108039638859e+02 0.0 
0.0 0.0 -9.032077520816e+01 
-8.703397795155e+01 6.890119598641e+00 0.0 
6.890119598641e+00 -2.020938044035e+02 0.0 
0.0 0.0 -8.633833470652e+01 
-7.905814143366e+01 7.036092760408e+00 0.0 
7.036092760408e+00 -1.830769308807e+02 0.0 
0.0 0.0 -7.824052169432e+01 
-8.238400845325e+01 7.067719054877e+00 0.0 
7.067719054877e+00 -1.935411773059e+02 0.0 
0.0 0.0 -8.237755572774e+01 
-7.433416595208e+01 7.275621319863e+00 0.0 
7.275621319863e+00 -1.745732480938e+02 0.0 
0.0 0.0 -7.427222421376e+01 
-7.769304546003e+01 7.124524173663e+00 0.0 
7.124524173663e+00 -1.851720714342e+02 0.0 
0.0 0.0 -7.845953506828e+01 
-6.956658583127e+01 7.356332812668e+00 0.0 
7.356332812668e+00 -1.662802521316e+02 0.0 
0.0 0.0 -7.035405138887e+01 
-7.295269058339e+01 7.017759178269e+00 0.0 
7.017759178269e+00 -1.768569796073e+02 0.0 
0.0 0.0 -7.454290105720e+01 
-8.110052341534e+01 6.848901020236e+00 0.0 
6.848901020236e+00 -1.955447924676e+02 0.0 
0.0 0.0 -8.259359476487e+01 
-7.641801525277e+01 6.598018380338e+00 0.0 
6.598018380338e+00 -1.871777243858e+02 0.0 
0.0 0.0 -7.867872189157e+01 
-6.823417459824e+01 6.719305726228e+00 0.0 
6.719305726228e+00 -1.685969715342e+02 0.0 
0.0 0.0 -7.064934383974e+01 
-7.176326948669e+01 6.164014709758e+00 0.0 
6.164014709758e+00 -1.787366053255e+02 0.0 
0.0 0.0 -7.474996244366e+01 
-7.997837168403e+01 6.127573657702e+00 0.0 
6.127573657702e+00 -1.972751863189e+02 0.0 
0.0 0.0 -8.277606740089e+01 
-7.537481499075e+01 5.607980209687e+00 0.0 
5.607980209687e+00 -1.886186324038e+02 0.0 
0.0 0.0 -7.879803421837e+01 
-8.361686150302e+01 5.649062483502e+00 0.0 
5.649062483502e+00 -2.071517390102e+02 0.0 
0.0 0.0 -8.683058015398e+01 
-7.906095135280e+01 5.077437408142e+00 0.0 
5.077437408142e+00 -1.982926211170e+02 0.0 
0.0 0.0 -8.280607174094e+01 
-7.091253125576e+01 4.952765160448e+00 0.0 
4.952765160448e+00 -1.799188940905e+02 0.0 
0.0 0.0 -7.484942760387e+01 
-7.463196236737e+01 4.405293800755e+00 0.0 
4.405293800755e+00 -1.893421249926e+02 0.0 
0.0 0.0 -7.879222620798e+01 
-8.280174158870e+01 4.588835161778e+00 0.0 
4.588835161778e+00 -2.077656633082e+02 0.0 
0.0 0.0 -8.677022146907e+01 
-7.837980560338e+01 3.923997381971e+00 0.0 
3.923997381971e+00 -1.985572487503e+02 0.0 
0.0 0.0 -8.268111630612e+01 
-7.033818175785e+01 3.667896064720e+00 0.0 
3.667896064720e+00 -1.802353054344e+02 0.0 
0.0 0.0 -7.477204615766e+01 
-7.410468247860e+01 3.217012235322e+00 0.0 
3.217012235322e+00 -1.892486666203e+02 0.0 
0.0 0.0 -7.860600472966e+01 
-8.218194118832e+01 3.505026741490e+00 0.0 
3.505026741490e+00 -2.076779310105e+02 0.0 
0.0 0.0 -8.655796165965e+01 
-7.790043966376e+01 2.838850700903e+00 0.0 
2.838850700903e+00 -1.981596185851e+02 0.0 
0.0 0.0 -8.241801747466e+01 
-6.995313076966e+01 2.503096742246e+00 0.0 
2.503096742246e+00 -1.797673292052e+02 0.0 
0.0 0.0 -7.451613799245e+01 
-7.372781251951e+01 2.184075424768e+00 0.0 
2.184075424768e+00 -1.885062718317e+02 0.0 
0.0 0.0 -7.827022530538e+01 
-8.176550940320e+01 2.528097717883e+00 0.0 
2.528097717883e+00 -2.071001042618e+02 0.0 
0.0 0.0 -8.625968409950e+01 
-7.752432193019e+01 1.932178973647e+00 0.0 
1.932178973647e+00 -1.972033725518e+02 0.0 
0.0 0.0 -8.201830834460e+01 
-6.962264337195e+01 1.564153224224e+00 0.0 
1.564153224224e+00 -1.786268280254e+02 0.0 
0.0 0.0 -7.407484141921e+01 
-7.335527599818e+01 1.369447493002e+00 0.0 
1.369447493002e+00 -1.871468434394e+02 0.0 
0.0 0.0 -7.775063583127e+01 
-8.137177167574e+01 1.728419679912e+00 0.0 
1.728419679912e+00 -2.059498198139e+02 0.0 
0.0 0.0 -8.579647744689e+01 
-7.711407870972e+01 1.222501857020e+00 0.0 
1.222501857020e+00 -1.956823944668e+02 0.0 
0.0 0.0 -8.143894195294e+01 
-8.523532515407e+01 1.566234950775e+00 0.0 
1.566234950775e+00 -2.146707695851e+02 0.0 
0.0 0.0 -8.957182842174e+01 
-6.917141501740e+01 8.637300360555e-01 0.0 
8.637300360555e-01 -1.767690443816e+02 0.0 
0.0 0.0 -7.338213781969e+01 
-7.287141451080e+01 7.776947168417e-01 0.0 
7.776947168417e-01 -1.852166114793e+02 0.0 
0.0 0.0 -7.702640779704e+01 
-6.498273657486e+01 4.302816879771e-01 0.0 
4.302816879771e-01 -1.661455590932e+02 0.0 
0.0 0.0 -6.893848870041e+01 
-6.865372715253e+01 4.038220949133e-01 0.0 
4.038220949133e-01 -1.746067416900e+02 0.0 
0.0 0.0 -7.257814065277e+01 
-9.498563475639e+01 6.780352996734e+00 0.0 
6.780352996734e+00 -2.210212000631e+02 0.0 
0.0 0.0 -9.440205044585e+01 
-6.082337618753e+01 8.683478620018e-02 0.0 
8.683478620018e-02 -1.554128294742e+02 0.0 
0.0 0.0 -6.447086169851e+01 
-5.731719906026e+01 9.171043910640e-02 0.0 
9.171043910640e-02 -1.472257645665e+02 0.0 
0.0 0.0 -6.096288908802e+01 
-6.445033280447e+01 1.096150267691e-01 0.0 
1.096150267691e-01 -1.638932514613e+02 0.0 
0.0 0.0 -6.810307527974e+01 
-7.238532489171e+01 3.928083120852e-01 0.0 
3.928083120852e-01 -1.832146912492e+02 0.0 
0.0 0.0 -7.628000484226e+01 
-5.665044767624e+01 -1.666285697202e-01 0.0 
-1.666285697202e-01 -1.445694267856e+02 0.0 
0.0 0.0 -5.996596233856e+01 
-6.024154351483e+01 -1.135731340293e-01 0.0 
-1.135731340293e-01 -1.530817298687e+02 0.0 
0.0 0.0 -6.359698201506e+01 
-5.246419711386e+01 -3.512619153709e-01 0.0 
-3.512619153709e-01 -1.336664816255e+02 0.0 
0.0 0.0 -5.543920362182e+01 
-6.609158097287e+01 7.523640733332e+00 0.0 
7.523640733332e+00 -1.551397948547e+02 0.0 
0.0 0.0 -6.596941274827e+01 
-1.096040823835e+02 4.885667170999e+00 0.0 
4.885667170999e+00 -2.471384410736e+02 0.0 
0.0 0.0 -1.066227570371e+02 
-5.601517924038e+01 -2.761221075939e-01 0.0 
-2.761221075939e-01 -1.422044603332e+02 0.0 
0.0 0.0 -5.906589187208e+01 
-4.824071279451e+01 -4.448734301156e-01 0.0 
-4.448734301156e-01 -1.227052071156e+02 0.0 
0.0 0.0 -5.088377597304e+01 
-4.478427189586e+01 -5.429594046053e-01 0.0 
-5.429594046053e-01 -1.141921486976e+02 0.0 
0.0 0.0 -4.729292617804e+01 
-4.059851725557e+01 -5.871501590349e-01 0.0 
-5.871501590349e-01 -1.031847416837e+02 0.0 
0.0 0.0 -4.273497768179e+01 
-9.951482039652e+01 1.771535870094e+00 0.0 
1.771535870094e+00 -2.227264765349e+02 0.0 
0.0 0.0 -9.627238907943e+01 
-1.073435328084e+02 2.036678249259e+00 0.0 
2.036678249259e+00 -2.419163516850e+02 0.0 
0.0 0.0 -1.043779653480e+02 
-1.033152117479e+02 1.693285995431e+00 0.0 
1.693285995431e+00 -2.325155133068e+02 0.0 
0.0 0.0 -1.003492175164e+02 
-1.113917768747e+02 2.020461545348e+00 0.0 
2.020461545348e+00 -2.522921874037e+02 0.0 
0.0 0.0 -1.087051892835e+02 
-1.075467699118e+02 1.687916892120e+00 0.0 
1.687916892120e+00 -2.432696055482e+02 0.0 
0.0 0.0 -1.048449126380e+02 
-4.400304275846e+01 -4.563403993410e-01 0.0 
-4.563403993410e-01 -1.116714893169e+02 0.0 
0.0 0.0 -4.630235962259e+01 
-1.145377473373e+02 3.450137373112e+00 0.0 
3.450137373112e+00 -2.584763840815e+02 0.0 
0.0 0.0 -1.115042394257e+02 
-1.152267410749e+02 2.385457790305e+00 0.0 
2.385457790305e+00 -2.613180332166e+02 0.0 
0.0 0.0 -1.125634322874e+02 
-8.619558923520e+01 3.971426393096e+00 0.0 
3.971426393096e+00 -1.897936265933e+02 0.0 
0.0 0.0 -8.239676474855e+01 
-7.693394290313e+01 5.881564687432e+00 0.0 
5.881564687432e+00 -1.712831695380e+02 0.0 
0.0 0.0 -7.406513373235e+01 
-8.826053312065e+01 6.103436132325e+00 0.0 
6.103436132325e+00 -2.159432834930e+02 0.0 
0.0 0.0 -9.086114498410e+01 
-6.386249822186e+01 -4.958598136910e-02 0.0 
-4.958598136910e-02 -1.616344961929e+02 0.0 
0.0 0.0 -6.724909832441e+01 
-5.960295354822e+01 -2.048602659057e-01 0.0 
-2.048602659057e-01 -1.507918998361e+02 0.0 
0.0 0.0 -6.271845601531e+01 
-6.746680937491e+01 2.419829015231e-02 0.0 
2.419829015231e-02 -1.702422489887e+02 0.0 
0.0 0.0 -7.091271750909e+01 
-8.959242662079e+01 2.071674972984e+00 0.0 
2.071674972984e+00 -2.249008655067e+02 0.0 
0.0 0.0 -9.394798763825e+01 
-9.352076122465e+01 1.894384767283e+00 0.0 
1.894384767283e+00 -2.337147198733e+02 0.0 
0.0 0.0 -9.777064432940e+01 
-9.797539727234e+01 2.394326206996e+00 0.0 
2.394326206996e+00 -2.439214118143e+02 0.0 
0.0 0.0 -1.021690427260e+02 
-1.019549423363e+02 2.206687909020e+00 0.0 
2.206687909020e+00 -2.527857301222e+02 0.0 
0.0 0.0 -1.060222017375e+02 
-1.065031245057e+02 2.701947392072e+00 0.0 
2.701947392072e+00 -2.629808276681e+02 0.0 
0.0 0.0 -1.104451856521e+02 
-1.105309848042e+02 2.503002518464e+00 0.0 
2.503002518464e+00 -2.718788446114e+02 0.0 
0.0 0.0 -1.143229488247e+02 
-1.059403493142e+02 2.040832431908e+00 0.0 
2.040832431908e+00 -2.615851489341e+02 0.0 
0.0 0.0 -1.098576494745e+02 
-1.145667520715e+02 2.324733422749e+00 0.0 
2.324733422749e+00 -2.807072131996e+02 0.0 
0.0 0.0 -1.181821895813e+02 
-1.099315810048e+02 1.887700526000e+00 0.0 
1.887700526000e+00 -2.703292230263e+02 0.0 
0.0 0.0 -1.136782412093e+02 
-1.151656824754e+02 2.994554388243e+00 0.0 
2.994554388243e+00 -2.820632856879e+02 0.0 
0.0 0.0 -1.187686904490e+02 
-1.110787244817e+02 3.221444742649e+00 0.0 
3.221444742649e+00 -2.730261857950e+02 0.0 
0.0 0.0 -1.148314730830e+02 
-1.186105533919e+02 2.154459382165e+00 0.0 
2.154459382165e+00 -2.894660124651e+02 0.0 
0.0 0.0 -1.220229697571e+02 
-1.139280464849e+02 1.734313350942e+00 0.0 
1.734313350942e+00 -2.790194345256e+02 0.0 
0.0 0.0 -1.174842443031e+02 
-1.226699596900e+02 1.977608126375e+00 0.0 
1.977608126375e+00 -2.981705250959e+02 0.0 
0.0 0.0 -1.258521454358e+02 
-1.179321749100e+02 1.578118167894e+00 0.0 
1.578118167894e+00 -2.876615260756e+02 0.0 
0.0 0.0 -1.212781102957e+02 
-1.092560389695e+02 1.352434150402e+00 0.0 
1.352434150402e+00 -2.684524338459e+02 0.0 
0.0 0.0 -1.129125418446e+02 
-1.131963779788e+02 1.214658462934e+00 0.0 
1.214658462934e+00 -2.770312503126e+02 0.0 
0.0 0.0 -1.166682884874e+02 
-1.046262627388e+02 1.021690480662e+00 0.0 
1.021690480662e+00 -2.578606580880e+02 0.0 
0.0 0.0 -1.083460762480e+02 
-9.193444917527e+01 5.694548132261e+00 0.0 
5.694548132261e+00 -2.258126377731e+02 0.0 
0.0 0.0 -9.492412608451e+01 
-9.660384301710e+01 6.098408382528e+00 0.0 
6.098408382528e+00 -2.347408523467e+02 0.0 
0.0 0.0 -9.900340860913e+01 
-1.003200557153e+02 5.751360484764e+00 0.0 
5.751360484764e+00 -2.445881397077e+02 0.0 
0.0 0.0 -1.030724586269e+02 
-1.049983930554e+02 6.125324923393e+00 0.0 
6.125324923393e+00 -2.536352853362e+02 0.0 
0.0 0.0 -1.071901035175e+02 
-1.087750790977e+02 5.838550396170e+00 0.0 
5.838550396170e+00 -2.634657290922e+02 0.0 
0.0 0.0 -1.112722424570e+02 
-1.134389672780e+02 6.196987213948e+00 0.0 
6.196987213948e+00 -2.726019994583e+02 0.0 
0.0 0.0 -1.154122900209e+02 
-1.172748898197e+02 5.964202568289e+00 0.0 
5.964202568289e+00 -2.823824213222e+02 0.0 
0.0 0.0 -1.194971933426e+02 
-1.126272963795e+02 5.547996536218e+00 0.0 
5.547996536218e+00 -2.731548493264e+02 0.0 
0.0 0.0 -1.153346437118e+02 
-1.140602190845e+02 4.048116231596e+00 0.0 
4.048116231596e+00 -2.573071918538e+02 0.0 
0.0 0.0 -1.110102232815e+02 
-6.361027025976e+01 6.189474323639e+00 0.0 
6.189474323639e+00 -1.603289506780e+02 0.0 
0.0 0.0 -6.678176628134e+01 
-6.008309321529e+01 6.840320049508e+00 0.0 
6.840320049508e+00 -1.501086564336e+02 0.0 
0.0 0.0 -6.265752489468e+01 
-5.552956036037e+01 6.176517578208e+00 0.0 
6.176517578208e+00 -1.420692692529e+02 0.0 
0.0 0.0 -5.887964888397e+01 
-5.199178428361e+01 6.934205604566e+00 0.0 
6.934205604566e+00 -1.317781392740e+02 0.0 
0.0 0.0 -5.473097706728e+01 
-4.754910160680e+01 6.090911607122e+00 0.0 
6.090911607122e+00 -1.239738154865e+02 0.0 
0.0 0.0 -5.105687512799e+01 
-4.398692748654e+01 6.964369282317e+00 0.0 
6.964369282317e+00 -1.136306041085e+02 0.0 
0.0 0.0 -4.688525947851e+01 
-3.970572112415e+01 5.889859994361e+00 0.0 
5.889859994361e+00 -1.060070280158e+02 0.0 
0.0 0.0 -4.331382474198e+01 
-4.339930050358e+01 4.972171654225e+00 0.0 
4.972171654225e+00 -1.158996935539e+02 0.0 
0.0 0.0 -4.738969821726e+01 
-3.582886821727e+01 4.532413945440e+00 0.0 
4.532413945440e+00 -9.797878456639e+01 0.0 
0.0 0.0 -3.974229583510e+01 
-3.959358697602e+01 3.699949912147e+00 0.0 
3.699949912147e+00 -1.074071724871e+02 0.0 
0.0 0.0 -4.370022783893e+01 
-3.236252019803e+01 3.078533863513e+00 0.0 
3.078533863513e+00 -8.939211853606e+01 0.0 
0.0 0.0 -3.612639162023e+01 
-3.607118964800e+01 2.417077478303e+00 0.0 
2.417077478303e+00 -9.835515651601e+01 0.0 
0.0 0.0 -3.992790384920e+01 
-1.004878937107e+02 6.084844265129e+00 0.0 
6.084844265129e+00 -2.287167374452e+02 0.0 
0.0 0.0 -9.836138934675e+01 
-1.096734585528e+02 6.412348663336e+00 0.0 
6.412348663336e+00 -2.626493715406e+02 0.0 
0.0 0.0 -1.112968490280e+02 
-1.181056026334e+02 6.474989028533e+00 0.0 
6.474989028533e+00 -2.817344288580e+02 0.0 
0.0 0.0 -1.195520094474e+02 
-1.142969696273e+02 6.617780685445e+00 0.0 
6.617780685445e+00 -2.715757977210e+02 0.0 
0.0 0.0 -1.153618302045e+02 
-3.719853436026e+01 -6.732601844617e-01 0.0 
-6.732601844617e-01 -9.469412863489e+01 0.0 
0.0 0.0 -3.916779889854e+01 
-1.219477842572e+02 1.410985743480e+00 0.0 
1.410985743480e+00 -2.962700754039e+02 0.0 
0.0 0.0 -1.250653578983e+02 
-1.198333783086e+02 3.514982986501e+00 0.0 
3.514982986501e+00 -2.921287402158e+02 0.0 
0.0 0.0 -1.231886355573e+02 
-1.156699311856e+02 3.752916949813e+00 0.0 
3.752916949813e+00 -2.828938715865e+02 0.0 
0.0 0.0 -1.191691408316e+02 
-1.212177537579e+02 5.714960438566e+00 0.0 
5.714960438566e+00 -2.920992378301e+02 0.0 
0.0 0.0 -1.235950974764e+02 
-3.642162779867e+01 -5.609418834373e-01 0.0 
-5.609418834373e-01 -9.228874741172e+01 0.0 
0.0 0.0 -3.821311256312e+01 
-3.614603740761e+01 6.892161840584e+00 0.0 
6.892161840584e+00 -9.570223788182e+01 0.0 
0.0 0.0 -3.915448258683e+01 
-4.052086687466e+01 7.798291002164e+00 0.0 
7.798291002164e+00 -1.026889172875e+02 0.0 
0.0 0.0 -4.256293524864e+01 
-1.154764127258e+02 1.999153153374e+00 0.0 
1.999153153374e+00 -2.627401757304e+02 0.0 
0.0 0.0 -1.130649765368e+02 
-1.116601711794e+02 1.669043594664e+00 0.0 
1.669043594664e+00 -2.537264691469e+02 0.0 
0.0 0.0 -1.092159920979e+02 
-1.245431005120e+02 4.042375270920e+00 0.0 
4.042375270920e+00 -3.020933629301e+02 0.0 
0.0 0.0 -1.275909390326e+02 
-3.980274005572e+01 -4.519921991429e-01 0.0 
-4.519921991429e-01 -1.007555604645e+02 0.0 
0.0 0.0 -4.176749015605e+01 
-1.233238265317e+02 2.603797110578e+00 0.0 
2.603797110578e+00 -2.998264327426e+02 0.0 
0.0 0.0 -1.265450777823e+02 
-2.869935277803e+01 3.878781417703e+00 0.0 
3.878781417703e+00 -8.020101632909e+01 0.0 
0.0 0.0 -3.227011073213e+01 
-1.171533286575e+02 1.058672067706e+00 0.0 
1.058672067706e+00 -2.855889320946e+02 0.0 
0.0 0.0 -1.204226782256e+02 
-1.259483614231e+02 1.226124500975e+00 0.0 
1.226124500975e+00 -3.048276176536e+02 0.0 
0.0 0.0 -1.288327937230e+02 
-1.014020832103e+02 1.613264829910e+00 0.0 
1.613264829910e+00 -2.512129694996e+02 0.0 
0.0 0.0 -1.053845158130e+02 
-1.227455879346e+02 6.693371514041e+00 0.0 
6.693371514041e+00 -2.908553947983e+02 0.0 
0.0 0.0 -1.236802948199e+02 
-1.188599798328e+02 6.756912549299e+00 0.0 
6.756912549299e+00 -2.804746563884e+02 0.0 
0.0 0.0 -1.194003908663e+02 
-4.339618621486e+01 3.030624931513e+00 0.0 
3.030624931513e+00 -1.166397419571e+02 0.0 
0.0 0.0 -4.761077845158e+01 
-3.977259854638e+01 1.957799062938e+00 0.0 
1.957799062938e+00 -1.072627058648e+02 0.0 
0.0 0.0 -4.371059132336e+01 
-3.286260419623e+01 1.319931405286e+00 0.0 
1.319931405286e+00 -8.916613674878e+01 0.0 
0.0 0.0 -3.620862228350e+01 
-3.668655431285e+01 9.790101978058e-01 0.0 
9.790101978058e-01 -9.818208750322e+01 0.0 
0.0 0.0 -4.006059254482e+01 
-4.354054794689e+01 1.531584341457e+00 0.0 
1.531584341457e+00 -1.162274029202e+02 0.0 
0.0 0.0 -4.753038526012e+01 
-3.999780491275e+01 6.530716980470e-01 0.0 
6.530716980470e-01 -1.061720313015e+02 0.0 
0.0 0.0 -4.345095086426e+01 
-3.320152534437e+01 8.763493172030e-02 0.0 
8.763493172030e-02 -8.772164220271e+01 0.0 
0.0 0.0 -3.587695026413e+01 
-3.645340281047e+01 -8.692279663148e-04 0.0 
-8.692279663148e-04 -9.580557133915e+01 0.0 
0.0 0.0 -3.927769224488e+01 
-4.351303604823e+01 4.644274663517e-01 0.0 
4.644274663517e-01 -1.145864510297e+02 0.0 
0.0 0.0 -4.702984612337e+01 
-3.981781421026e+01 -9.336636630498e-02 0.0 
-9.336636630498e-02 -1.040888789366e+02 0.0 
0.0 0.0 -4.277200794407e+01 
-3.287544250934e+01 -4.547341871927e-01 0.0 
-4.547341871927e-01 -8.504256095577e+01 0.0 
0.0 0.0 -3.497540103953e+01 
-3.603197772633e+01 -4.688164960710e-01 0.0 
-4.688164960710e-01 -9.327044088913e+01 0.0 
0.0 0.0 -3.839072558464e+01 
-1.307927160472e+02 1.592313363026e+00 0.0 
1.592313363026e+00 -3.154309406224e+02 0.0 
0.0 0.0 -1.334670970009e+02 
-2.575697989967e+01 2.304346279530e+00 0.0 
2.304346279530e+00 -7.143741560034e+01 0.0 
0.0 0.0 -2.875831865001e+01 
-9.069494506535e+01 2.899953993465e+00 0.0 
2.899953993465e+00 -2.001768812573e+02 0.0 
0.0 0.0 -8.686154789679e+01 
-1.287052087512e+02 3.801078299852e+00 0.0 
3.801078299852e+00 -3.112184749631e+02 0.0 
0.0 0.0 -1.315771051143e+02 
-1.257582444785e+02 6.122647623678e+00 0.0 
6.122647623678e+00 -3.011636144207e+02 0.0 
0.0 0.0 -1.276765576698e+02 
-1.195966923206e+02 1.955189763473e+00 0.0 
1.955189763473e+00 -2.732729495960e+02 0.0 
0.0 0.0 -1.174608925750e+02 
-1.157997433399e+02 1.633672833099e+00 0.0 
1.633672833099e+00 -2.642926135174e+02 0.0 
0.0 0.0 -1.136277070572e+02 
-1.077711060856e+02 1.332803327226e+00 0.0 
1.332803327226e+00 -2.446779857416e+02 0.0 
0.0 0.0 -1.053347275482e+02 
-1.119651199292e+02 1.324290809686e+00 0.0 
1.324290809686e+00 -2.553616893827e+02 0.0 
0.0 0.0 -1.097980427936e+02 
-1.199638454205e+02 1.598392810725e+00 0.0 
1.598392810725e+00 -2.749831170502e+02 0.0 
0.0 0.0 -1.180840887412e+02 
-1.161703204762e+02 1.302804831738e+00 0.0 
1.302804831738e+00 -2.660562457612e+02 0.0 
0.0 0.0 -1.142679698712e+02 
-1.081044946609e+02 1.062979298499e+00 0.0 
1.062979298499e+00 -2.464281810020e+02 0.0 
0.0 0.0 -1.059598026989e+02 
-1.123682523048e+02 1.045530627018e+00 0.0 
1.045530627018e+00 -2.571089602289e+02 0.0 
0.0 0.0 -1.104431637601e+02 
-1.042620839245e+02 8.351562083958e-01 0.0 
8.351562083958e-01 -2.374691783747e+02 0.0 
0.0 0.0 -1.021193786898e+02 
-1.085579251627e+02 8.182207446666e-01 0.0 
8.182207446666e-01 -2.481745315596e+02 0.0 
0.0 0.0 -1.066197370167e+02 
-1.166491949698e+02 1.013531652091e+00 0.0 
1.013531652091e+00 -2.678221944277e+02 0.0 
0.0 0.0 -1.149414168192e+02 
-1.128738403693e+02 8.078514502118e-01 0.0 
8.078514502118e-01 -2.589328068886e+02 0.0 
0.0 0.0 -1.111419941774e+02 
-1.047243818691e+02 6.183974262441e-01 0.0 
6.183974262441e-01 -2.392932780404e+02 0.0 
0.0 0.0 -1.028052979729e+02 
-1.090809647020e+02 6.320177983845e-01 0.0 
6.320177983845e-01 -2.500396060596e+02 0.0 
0.0 0.0 -1.073361712285e+02 
-1.008766821637e+02 4.687917860467e-01 0.0 
4.687917860467e-01 -2.303812561787e+02 0.0 
0.0 0.0 -9.897738150270e+01 
-1.052865681705e+02 4.976589011496e-01 0.0 
4.976589011496e-01 -2.410578339574e+02 0.0 
0.0 0.0 -1.035033206384e+02 
-1.134650449323e+02 5.883434772800e-01 0.0 
5.883434772800e-01 -2.608212792152e+02 0.0 
0.0 0.0 -1.118858972442e+02 
-3.251638174599e+01 -5.070657653814e-01 0.0 
-5.070657653814e-01 -8.188732154524e+01 0.0 
0.0 0.0 -3.392111098737e+01 
-1.165545231780e+02 5.259470083873e+00 0.0 
5.259470083873e+00 -2.827386372737e+02 0.0 
0.0 0.0 -1.193879481355e+02 
-1.252839123383e+02 5.454024557143e+00 0.0 
5.454024557143e+00 -3.018400065830e+02 0.0 
0.0 0.0 -1.277371756764e+02 
-6.332178305603e+01 -3.144651958024e-02 0.0 
-3.144651958024e-02 -1.599377460512e+02 0.0 
0.0 0.0 -6.657785873218e+01 
-7.099483698243e+01 1.236690194215e-01 0.0 
1.236690194215e-01 -1.786220496348e+02 0.0 
0.0 0.0 -7.448506598516e+01 
-7.543796978861e+01 1.578325351996e-01 0.0 
1.578325351996e-01 -1.896094130929e+02 0.0 
0.0 0.0 -7.911421486445e+01 
-7.923220776770e+01 1.893918302817e-01 0.0 
1.893918302817e-01 -1.983436918781e+02 0.0 
0.0 0.0 -8.287276989375e+01 
-1.096511789026e+02 4.561837054045e-01 0.0 
4.561837054045e-01 -2.517334897265e+02 0.0 
0.0 0.0 -1.080154005887e+02 
-1.177841157032e+02 5.097862092334e-01 0.0 
5.097862092334e-01 -2.716106269110e+02 0.0 
0.0 0.0 -1.164184227843e+02 
-3.271025925372e+01 7.856386443452e+00 0.0 
7.856386443452e+00 -8.471436356598e+01 0.0 
0.0 0.0 -3.482738684591e+01 
-3.717870731820e+01 8.419214317939e+00 0.0 
8.419214317939e+00 -9.109502404796e+01 0.0 
0.0 0.0 -3.808211940985e+01 
-1.233536095744e+02 2.300054649391e+00 0.0 
2.300054649391e+00 -2.822788764983e+02 0.0 
0.0 0.0 -1.212897458218e+02 
-1.211156660911e+02 8.996983724589e-01 0.0 
8.996983724589e-01 -2.941742914538e+02 0.0 
0.0 0.0 -1.241869872635e+02 
-1.124058296255e+02 7.500723289191e-01 0.0 
7.500723289191e-01 -2.749224759772e+02 0.0 
0.0 0.0 -1.157984916808e+02 
-7.247826045693e+01 6.397383551447e+00 0.0 
6.397383551447e+00 -1.623383137218e+02 0.0 
0.0 0.0 -7.004497225363e+01 
-6.901921826568e+01 5.772023737089e+00 0.0 
5.772023737089e+00 -1.519847995336e+02 0.0 
0.0 0.0 -6.590120533977e+01 
-6.454847180797e+01 6.393459023512e+00 0.0 
6.393459023512e+00 -1.429700277661e+02 0.0 
0.0 0.0 -6.185554987223e+01 
-6.088952575407e+01 5.594207834758e+00 0.0 
5.594207834758e+00 -1.321975738958e+02 0.0 
0.0 0.0 -5.752612989497e+01 
-6.538687838713e+01 4.969501328419e+00 0.0 
4.969501328419e+00 -1.418041625162e+02 0.0 
0.0 0.0 -6.175731227099e+01 
-5.635208985829e+01 6.359854058776e+00 0.0 
6.359854058776e+00 -1.229052532214e+02 0.0 
0.0 0.0 -5.337720292392e+01 
-1.069251961317e+02 3.458491809924e+00 0.0 
3.458491809924e+00 -2.637158864386e+02 0.0 
0.0 0.0 -1.107923247711e+02 
-1.209456162789e+02 9.809656977159e-01 0.0 
9.809656977159e-01 -2.786057961604e+02 0.0 
0.0 0.0 -1.194654237318e+02 
-4.138141936968e+01 -6.386370750391e-01 0.0 
-6.386370750391e-01 -1.057701738068e+02 0.0 
0.0 0.0 -4.374547795295e+01 
-3.394639906763e+01 -7.575752097008e-01 0.0 
-7.575752097008e-01 -8.634327355828e+01 0.0 
0.0 0.0 -3.568690178777e+01 
-1.299276751536e+02 1.028283518332e+00 0.0 
1.028283518332e+00 -3.134137831480e+02 0.0 
0.0 0.0 -1.326024374905e+02 
-1.079476596138e+02 5.072855959406e+00 0.0 
5.072855959406e+00 -2.637995098572e+02 0.0 
0.0 0.0 -1.111241508413e+02 
-1.048218770368e+02 5.819939967110e+00 0.0 
5.819939967110e+00 -2.379271208776e+02 0.0 
0.0 0.0 -1.024246993743e+02 
-1.083480483548e+02 6.179539023424e+00 0.0 
6.179539023424e+00 -2.478638388361e+02 0.0 
0.0 0.0 -1.064635661573e+02 
-1.126661326081e+02 5.979825995412e+00 0.0 
5.979825995412e+00 -2.571627564692e+02 0.0 
0.0 0.0 -1.105486667232e+02 
-1.162344238966e+02 6.305577886433e+00 0.0 
6.305577886433e+00 -2.670896687214e+02 0.0 
0.0 0.0 -1.145972277854e+02 
-1.205093356061e+02 6.173536813465e+00 0.0 
6.173536813465e+00 -2.764660576788e+02 0.0 
0.0 0.0 -1.186926179855e+02 
-1.240790572805e+02 6.489915825637e+00 0.0 
6.489915825637e+00 -2.863055010465e+02 0.0 
0.0 0.0 -1.227153674981e+02 
-1.198182535235e+02 6.566591779956e+00 0.0 
6.566591779956e+00 -2.771102861383e+02 0.0 
0.0 0.0 -1.186785618986e+02 
-1.273266672186e+02 6.858095660710e+00 0.0 
6.858095660710e+00 -2.999374060860e+02 0.0 
0.0 0.0 -1.277792219914e+02 
-1.277165423584e+02 6.768615380564e+00 0.0 
6.768615380564e+00 -2.963054693940e+02 0.0 
0.0 0.0 -1.268066035257e+02 
-1.014406309730e+02 2.982596602774e-01 0.0 
2.982596602774e-01 -2.317708844875e+02 0.0 
0.0 0.0 -9.956345463817e+01 
-1.058813179760e+02 6.587551763970e+00 0.0 
6.587551763970e+00 -2.523410426348e+02 0.0 
0.0 0.0 -1.070667081833e+02 
-4.706986834245e+01 3.232224089553e-01 0.0 
3.232224089553e-01 -1.230877030457e+02 0.0 
0.0 0.0 -5.064727141644e+01 
-2.892403220957e+01 -5.373839644484e-01 0.0 
-5.373839644484e-01 -7.315692339171e+01 0.0 
0.0 0.0 -3.022428668039e+01 
-2.880367516606e+01 -7.305736711549e-01 0.0 
-7.305736711549e-01 -7.357547410426e+01 0.0 
0.0 0.0 -3.031374478109e+01 
-3.544103615055e+01 -4.422381515567e-01 0.0 
-4.422381515567e-01 -8.956401421833e+01 0.0 
0.0 0.0 -3.710151511067e+01 
-4.318054641100e+01 -3.778936849959e-01 0.0 
-3.778936849959e-01 -1.092003844343e+02 0.0 
0.0 0.0 -4.531427925359e+01 
-1.335094338299e+02 4.334901118205e+00 0.0 
4.334901118205e+00 -3.212393788891e+02 0.0 
0.0 0.0 -1.360246438157e+02 
-1.282922657348e+02 6.409249059657e+00 0.0 
6.409249059657e+00 -2.957458725079e+02 0.0 
0.0 0.0 -1.268114414728e+02 
-1.246217923100e+02 6.032143416309e+00 0.0 
6.032143416309e+00 -2.858066360667e+02 0.0 
0.0 0.0 -1.227285285130e+02 
-5.720785816573e+01 4.598679239012e+00 0.0 
4.598679239012e+00 -1.221765889103e+02 0.0 
0.0 0.0 -5.341533412280e+01 
-6.167222102482e+01 4.087019450569e+00 0.0 
4.087019450569e+00 -1.320575190082e+02 0.0 
0.0 0.0 -5.771892200990e+01 
-1.312519533877e+02 6.864598583124e+00 0.0 
6.864598583124e+00 -3.100739425541e+02 0.0 
0.0 0.0 -1.319977687825e+02 
-9.959247022265e+01 1.336028515410e+00 0.0 
1.336028515410e+00 -2.237789789148e+02 0.0 
0.0 0.0 -9.661143474123e+01 
-1.000038094985e+02 8.245452564253e-01 0.0 
8.245452564253e-01 -2.268593348743e+02 0.0 
0.0 0.0 -9.765894331185e+01 
-9.606087416269e+01 6.102879287755e-01 0.0 
6.102879287755e-01 -2.178070215059e+02 0.0 
0.0 0.0 -9.376036870059e+01 
-2.727085654539e+01 -3.773982122539e-01 0.0 
-3.773982122539e-01 -6.844441278917e+01 0.0 
0.0 0.0 -2.831458080037e+01 
-2.619920237924e+01 -7.351288109447e-01 0.0 
-7.351288109447e-01 -6.616071392047e+01 0.0 
0.0 0.0 -2.730797488992e+01 
-1.241630722927e+02 1.538225172374e+00 0.0 
1.538225172374e+00 -2.857131536674e+02 0.0 
0.0 0.0 -1.225628677880e+02 
-4.512403968100e+01 8.171338055414e+00 0.0 
8.171338055414e+00 -1.095626838607e+02 0.0 
0.0 0.0 -4.600601706252e+01 
-4.187277933733e+01 8.357694392282e+00 0.0 
8.357694392282e+00 -9.780056247502e+01 0.0 
0.0 0.0 -4.150200254371e+01 
-2.217216396742e+01 3.059714289010e+00 0.0 
3.059714289010e+00 -6.230811997231e+01 0.0 
0.0 0.0 -2.494408518192e+01 
-1.984534723841e+01 1.457138109153e+00 0.0 
1.457138109153e+00 -5.329665849984e+01 0.0 
0.0 0.0 -2.154260172148e+01 
-1.140092484545e+02 3.010711634325e-01 0.0 
3.010711634325e-01 -2.622470664727e+02 0.0 
0.0 0.0 -1.124768944782e+02 
-1.220967931465e+02 4.004205696725e-01 0.0 
4.004205696725e-01 -2.819837546029e+02 0.0 
0.0 0.0 -1.208241643248e+02 
-8.364834153997e+01 3.660902013001e-01 0.0 
3.660902013001e-01 -2.090209457973e+02 0.0 
0.0 0.0 -8.740078620120e+01 
-8.737904145375e+01 3.816348264836e-01 0.0 
3.816348264836e-01 -2.176771423366e+02 0.0 
0.0 0.0 -9.111685513712e+01 
-1.293179347691e+02 4.569687494908e+00 0.0 
4.569687494908e+00 -3.120166881253e+02 0.0 
0.0 0.0 -1.320003868683e+02 
-3.217698159354e+01 -7.124642280220e-01 0.0 
-7.124642280220e-01 -8.233570512294e+01 0.0 
0.0 0.0 -3.395380601494e+01 
-1.259449324449e+02 6.205338142453e-01 0.0 
6.205338142453e-01 -2.913777098080e+02 0.0 
0.0 0.0 -1.247967926759e+02 
-1.118892220340e+02 4.762192692523e+00 0.0 
4.762192692523e+00 -2.732951737952e+02 0.0 
0.0 0.0 -1.151553187488e+02 
-1.033021429343e+02 4.554659463106e+00 0.0 
4.554659463106e+00 -2.543575350919e+02 0.0 
0.0 0.0 -1.068979034079e+02 
-7.478519412319e+01 -2.771286882502e-04 0.0 
-2.771286882502e-04 -1.872502014508e+02 0.0 
0.0 0.0 -7.821061867220e+01 
-2.937886098189e+01 8.576810024722e+00 0.0 
8.576810024722e+00 -7.291576408442e+01 0.0 
0.0 0.0 -3.028838751989e+01 
-2.517822571644e+01 7.684606604311e+00 0.0 
7.684606604311e+00 -6.713934574571e+01 0.0 
0.0 0.0 -2.729527143864e+01 
-5.085052497882e+01 9.318631592889e-01 0.0 
9.318631592889e-01 -1.333693772132e+02 0.0 
0.0 0.0 -5.486597065762e+01 
-3.938312249372e+01 -4.909897295210e-01 0.0 
-4.909897295210e-01 -1.016956374042e+02 0.0 
0.0 0.0 -4.192362796936e+01 
-3.881337877280e+01 -3.072612456400e-01 0.0 
-3.072612456400e-01 -9.803424250732e+01 0.0 
0.0 0.0 -4.065428638404e+01 
-1.382989171549e+02 4.846143336661e+00 0.0 
4.846143336661e+00 -3.311178694334e+02 0.0 
0.0 0.0 -1.404250359765e+02 
-1.278764853765e+02 1.833166376172e+00 0.0 
1.833166376172e+00 -2.945371567658e+02 0.0 
0.0 0.0 -1.263240926427e+02 
-1.234690265556e+02 6.817165959272e+00 0.0 
6.817165959272e+00 -2.872096785958e+02 0.0 
0.0 0.0 -1.228036115454e+02 
-1.153945826948e+02 6.656217690134e+00 0.0 
6.656217690134e+00 -2.679199421792e+02 0.0 
0.0 0.0 -1.145943574622e+02 
-1.316007774920e+02 7.004615607754e+00 0.0 
7.004615607754e+00 -3.064963715573e+02 0.0 
0.0 0.0 -1.310291447148e+02 
-2.534038705735e+01 -8.251261592756e-01 0.0 
-8.251261592756e-01 -6.302015521296e+01 0.0 
0.0 0.0 -2.610816268110e+01 
-1.377969366160e+02 4.111816516193e+00 0.0 
4.111816516193e+00 -3.305806633034e+02 0.0 
0.0 0.0 -1.401132799758e+02 
-1.250560268127e+02 7.213093572778e-01 0.0 
7.213093572778e-01 -3.028002345856e+02 0.0 
0.0 0.0 -1.279568784195e+02 
-1.319617729193e+02 6.242774841236e+00 0.0 
6.242774841236e+00 -3.043867259640e+02 0.0 
0.0 0.0 -1.305045496650e+02 
-1.286519725071e+02 5.888598571213e+00 0.0 
5.888598571213e+00 -2.952606379213e+02 0.0 
0.0 0.0 -1.267737831285e+02 
-4.981054162152e+01 8.066470804031e+00 0.0 
8.066470804031e+00 -1.166796457235e+02 0.0 
0.0 0.0 -4.954705620351e+01 
-4.668455499617e+01 7.853677891010e+00 0.0 
7.853677891010e+00 -1.053360326614e+02 0.0 
0.0 0.0 -4.520617629726e+01 
-3.868063329083e+01 7.973258243638e+00 0.0 
7.973258243638e+00 -8.592456430322e+01 0.0 
0.0 0.0 -3.698155927822e+01 
-4.337470353966e+01 7.057148991190e+00 0.0 
7.057148991190e+00 -9.400283032078e+01 0.0 
0.0 0.0 -4.081326015813e+01 
-9.090114018652e+01 2.254479124540e+00 0.0 
2.254479124540e+00 -2.011617162717e+02 0.0 
0.0 0.0 -8.721885693747e+01 
-5.465981688719e+01 7.648632466949e+00 0.0 
7.648632466949e+00 -1.246331920650e+02 0.0 
0.0 0.0 -5.338790268565e+01 
-8.659853913877e+01 3.087682867957e+00 0.0 
3.087682867957e+00 -1.903030648229e+02 0.0 
0.0 0.0 -8.267048118851e+01 
-8.278593220629e+01 2.499546138913e+00 0.0 
2.499546138913e+00 -1.813037626627e+02 0.0 
0.0 0.0 -7.882690846069e+01 
-7.869401445014e+01 2.678065584377e+00 0.0 
2.678065584377e+00 -1.715060521462e+02 0.0 
0.0 0.0 -7.466001997892e+01 
-6.972215302562e+01 4.462446701458e+00 0.0 
4.462446701458e+00 -1.512845232007e+02 0.0 
0.0 0.0 -6.590200286790e+01 
-6.601206240310e+01 3.632045984745e+00 0.0 
3.632045984745e+00 -1.418610991701e+02 0.0 
0.0 0.0 -6.196194847195e+01 
-5.659943798824e+01 7.440384670243e+00 0.0 
7.440384670243e+00 -1.394077981365e+02 0.0 
0.0 0.0 -5.840217083741e+01 
-9.293129228215e+01 6.429454932242e+00 0.0 
6.429454932242e+00 -2.246615448981e+02 0.0 
0.0 0.0 -9.487785115406e+01 
-7.986426041795e+01 3.677606653436e-01 0.0 
3.677606653436e-01 -2.004378783580e+02 0.0 
0.0 0.0 -8.369064163280e+01 
-1.007658638660e+02 1.127585517758e+00 0.0 
1.127585517758e+00 -2.493216052451e+02 0.0 
0.0 0.0 -1.046262407333e+02 
-9.398773826479e+01 2.607456679649e+00 0.0 
2.607456679649e+00 -2.349480993580e+02 0.0 
0.0 0.0 -9.828075128685e+01 
-1.246180006754e+02 1.202464356056e+00 0.0 
1.202464356056e+00 -2.873873128908e+02 0.0 
0.0 0.0 -1.232015940699e+02 
-1.289226577298e+02 1.149253324431e+00 0.0 
1.149253324431e+00 -2.982993874781e+02 0.0 
0.0 0.0 -1.277666135624e+02 
-9.650676037287e+01 4.311634961770e-01 0.0 
4.311634961770e-01 -2.196521402675e+02 0.0 
0.0 0.0 -9.444767019210e+01 
-9.270693145774e+01 3.261610548017e-01 0.0 
3.261610548017e-01 -2.106569900733e+02 0.0 
0.0 0.0 -9.060917645932e+01 
-2.974200017390e+01 -7.272016973776e-01 0.0 
-7.272016973776e-01 -7.516648811622e+01 0.0 
0.0 0.0 -3.107254648704e+01 
-2.656154699063e+01 -8.140282449614e-01 0.0 
-8.140282449614e-01 -6.685877266314e+01 0.0 
0.0 0.0 -2.762609589613e+01 
-8.911795480169e+01 1.436075947628e+00 0.0 
1.436075947628e+00 -2.233934970803e+02 0.0 
0.0 0.0 -9.335343556460e+01 
-1.328281052549e+02 3.559577150963e+00 0.0 
3.559577150963e+00 -3.201767749269e+02 0.0 
0.0 0.0 -1.355014640545e+02 
-1.273450121655e+02 2.204183595203e+00 0.0 
2.204183595203e+00 -2.926458590103e+02 0.0 
0.0 0.0 -1.255972613527e+02 
-1.310424942624e+02 2.585253041446e+00 0.0 
2.585253041446e+00 -3.016774109730e+02 0.0 
0.0 0.0 -1.294159715706e+02 
-1.270513047274e+02 2.680411955653e+00 0.0 
2.680411955653e+00 -2.912081908463e+02 0.0 
0.0 0.0 -1.250778486721e+02 
-1.340033489321e+02 5.075010729402e+00 0.0 
5.075010729402e+00 -3.215901621512e+02 0.0 
0.0 0.0 -1.362780533250e+02 
-5.916113571412e+01 5.446227630512e+00 0.0 
5.446227630512e+00 -1.520024838432e+02 0.0 
0.0 0.0 -6.294908586720e+01 
-9.566809712958e+01 5.292845450493e+00 0.0 
5.292845450493e+00 -2.354851112246e+02 0.0 
0.0 0.0 -9.894596250625e+01 
-2.309260979665e+01 1.047019454245e+00 0.0 
1.047019454245e+00 -6.208828327708e+01 0.0 
0.0 0.0 -2.515426792212e+01 
-9.950123690609e+01 6.597319386764e+00 0.0 
6.597319386764e+00 -2.297875819586e+02 0.0 
0.0 0.0 -9.838664565942e+01 
-2.244856912741e+01 -6.899025308334e-01 0.0 
-6.899025308334e-01 -5.582630714251e+01 0.0 
0.0 0.0 -2.308246288098e+01 
-1.136436693168e+02 4.679457921765e+00 0.0 
4.679457921765e+00 -2.567458687213e+02 0.0 
0.0 0.0 -1.107168614114e+02 
-1.340094553128e+02 8.013907053768e-01 0.0 
8.013907053768e-01 -3.220796674954e+02 0.0 
0.0 0.0 -1.364267368425e+02 
-1.388621175180e+02 1.136254867451e+00 0.0 
1.136254867451e+00 -3.325154836020e+02 0.0 
0.0 0.0 -1.410132803360e+02 
-1.356410868255e+02 7.101045890685e+00 0.0 
7.101045890685e+00 -3.190233801363e+02 0.0 
0.0 0.0 -1.359993400885e+02 
-7.930444087291e+01 1.330987656899e+00 0.0 
1.330987656899e+00 -1.740885539809e+02 0.0 
0.0 0.0 -7.561789845614e+01 
-1.029532208928e+02 6.716984915772e+00 0.0 
6.716984915772e+00 -2.399464798716e+02 0.0 
0.0 0.0 -1.024699102293e+02 
-9.842878352868e+01 6.793251405212e+00 0.0 
6.793251405212e+00 -2.312588510042e+02 0.0 
0.0 0.0 -9.850629035988e+01 
-7.487004285020e+01 2.059917410724e+00 0.0 
2.059917410724e+00 -1.626875543643e+02 0.0 
0.0 0.0 -7.086727916434e+01 
-7.076567166163e+01 2.235965723851e+00 0.0 
2.235965723851e+00 -1.529389426471e+02 0.0 
0.0 0.0 -6.671138429263e+01 
-7.455819955476e+01 2.905280501661e+00 0.0 
2.905280501661e+00 -1.617197654783e+02 0.0 
0.0 0.0 -7.048338950991e+01 
-6.658944461244e+01 2.475223447056e+00 0.0 
2.475223447056e+00 -1.431145623508e+02 0.0 
0.0 0.0 -6.251120208896e+01 
-5.446153858301e+01 7.541037974355e-01 0.0 
7.541037974355e-01 -1.418050439475e+02 0.0 
0.0 0.0 -5.847997475917e+01 
-5.056160179082e+01 2.299624369551e-01 0.0 
2.299624369551e-01 -1.313763851749e+02 0.0 
0.0 0.0 -5.418139608970e+01 
-1.366072537125e+02 6.714003057576e+00 0.0 
6.714003057576e+00 -3.164283337251e+02 0.0 
0.0 0.0 -1.355106762313e+02 
-1.355434083820e+02 6.932258131020e+00 0.0 
6.932258131020e+00 -3.152618237445e+02 0.0 
0.0 0.0 -1.348415696379e+02 
-1.360762952288e+02 6.246312420586e+00 0.0 
6.246312420586e+00 -3.141004416336e+02 0.0 
0.0 0.0 -1.346530210587e+02 
-1.330191527814e+02 5.788617804612e+00 0.0 
5.788617804612e+00 -3.053776955828e+02 0.0 
0.0 0.0 -1.311190545093e+02 
-1.397782025567e+02 7.155670130812e+00 0.0 
7.155670130812e+00 -3.290962595259e+02 0.0 
0.0 0.0 -1.402623386248e+02 
-1.351713431771e+02 6.839099014635e+00 0.0 
6.839099014635e+00 -3.198619011439e+02 0.0 
0.0 0.0 -1.361099732963e+02 
-4.627127898317e+01 -2.307673305356e-01 0.0 
-2.307673305356e-01 -1.171260883818e+02 0.0 
0.0 0.0 -4.861921020949e+01 
-5.791124279685e+01 3.160559692429e+00 0.0 
3.160559692429e+00 -1.229207689093e+02 0.0 
0.0 0.0 -5.384960351185e+01 
-1.321503948323e+02 1.757818719568e+00 0.0 
1.757818719568e+00 -3.052802529269e+02 0.0 
0.0 0.0 -1.308291943278e+02 
-7.893270166530e+01 1.923464787506e+00 0.0 
1.923464787506e+00 -1.724390205731e+02 0.0 
0.0 0.0 -7.501151667150e+01 
-1.417737288084e+02 3.870034087681e+00 0.0 
3.870034087681e+00 -3.390345939093e+02 0.0 
0.0 0.0 -1.438424968153e+02 
-1.370321535536e+02 3.339315725829e+00 0.0 
3.339315725829e+00 -3.291342563012e+02 0.0 
0.0 0.0 -1.394499229564e+02 
-1.774034661077e+01 3.844960970227e-01 0.0 
3.844960970227e-01 -4.360864351437e+01 0.0 
0.0 0.0 -1.800469703754e+01 
-2.038195098526e+01 5.091445897497e-02 0.0 
5.091445897497e-02 -5.153027233315e+01 0.0 
0.0 0.0 -2.117366699552e+01 
-1.302549471508e+02 5.213051897498e-01 0.0 
5.213051897498e-01 -3.020246099640e+02 0.0 
0.0 0.0 -1.292838671344e+02 
-3.520030081528e+01 6.919602607452e+00 0.0 
6.919602607452e+00 -7.400477269733e+01 0.0 
0.0 0.0 -3.236152205379e+01 
-3.948134307200e+01 5.823775517225e+00 0.0 
5.823775517225e+00 -8.232245942851e+01 0.0 
0.0 0.0 -3.614114075016e+01 
-3.066106595295e+01 7.991985315594e+00 0.0 
7.991985315594e+00 -6.637422943520e+01 0.0 
0.0 0.0 -2.871058861645e+01 
-1.526457248750e+02 3.019535856325e-01 0.0 
3.019535856325e-01 -3.613463296584e+02 0.0 
0.0 0.0 -1.537976163600e+02 
-7.623394912220e+01 2.869459262598e-02 0.0 
2.869459262598e-02 -1.726853431556e+02 0.0 
0.0 0.0 -7.427578768333e+01 
-1.431308002959e+02 8.743843068778e-01 0.0 
8.743843068778e-01 -3.413133213897e+02 0.0 
0.0 0.0 -1.449332365057e+02 
-7.405207522703e+01 4.001875516508e+00 0.0 
4.001875516508e+00 -1.610139224358e+02 0.0 
0.0 0.0 -7.011979929884e+01 
-1.341966280724e+02 6.995196250207e-01 0.0 
6.995196250207e-01 -3.114937117711e+02 0.0 
0.0 0.0 -1.333071019530e+02 
-1.065517865000e+02 6.743884805150e+00 0.0 
6.743884805150e+00 -2.502798975667e+02 0.0 
0.0 0.0 -1.066495052200e+02 
-6.775765899322e+01 6.909849796795e+00 0.0 
6.909849796795e+00 -1.532681880103e+02 0.0 
0.0 0.0 -6.590775410107e+01 
-1.250670886436e+02 4.811197529748e+00 0.0 
4.811197529748e+00 -3.025203779493e+02 0.0 
0.0 0.0 -1.278762399779e+02 
-1.259587091087e+02 4.142866973666e-01 0.0 
4.142866973666e-01 -2.914911410519e+02 0.0 
0.0 0.0 -1.248349550482e+02 
-1.346149909827e+02 3.615476236756e-01 0.0 
3.615476236756e-01 -3.131133904391e+02 0.0 
0.0 0.0 -1.339185144265e+02 
-9.185522373580e+01 5.525091502167e-01 0.0 
5.525091502167e-01 -2.072331102227e+02 0.0 
0.0 0.0 -8.932650018755e+01 
-8.753988947576e+01 4.854621859288e-01 0.0 
4.854621859288e-01 -1.976196409710e+02 0.0 
0.0 0.0 -8.514785913403e+01 
-9.551992679464e+01 7.813562858452e-01 0.0 
7.813562858452e-01 -2.157269508425e+02 0.0 
0.0 0.0 -9.297406329115e+01 
-2.505723920620e+01 4.901524011340e+00 0.0 
4.901524011340e+00 -7.048540344091e+01 0.0 
0.0 0.0 -2.826279279413e+01 
-1.810047751083e+01 4.105386787548e+00 0.0 
4.105386787548e+00 -5.106381879435e+01 0.0 
0.0 0.0 -2.034928889155e+01 
-1.251927408586e+02 9.081561653438e-01 0.0 
9.081561653438e-01 -2.893278873461e+02 0.0 
0.0 0.0 -1.239561884614e+02 
-5.527648548743e+01 -2.519055230533e-01 0.0 
-2.519055230533e-01 -1.399470247036e+02 0.0 
0.0 0.0 -5.816705305732e+01 
-5.948113969851e+01 -2.252350892757e-01 0.0 
-2.252350892757e-01 -1.505258546590e+02 0.0 
0.0 0.0 -6.260209830724e+01 
-3.522273042539e+01 -6.991535684701e-01 0.0 
-6.991535684701e-01 -9.022613875173e+01 0.0 
0.0 0.0 -3.723466075313e+01 
-4.252462410567e+01 -4.872844736032e-01 0.0 
-4.872844736032e-01 -1.094739178424e+02 0.0 
0.0 0.0 -4.519956258442e+01 
-8.805054523064e+01 6.014034747189e-01 0.0 
6.014034747189e-01 -2.197028768287e+02 0.0 
0.0 0.0 -9.192602661781e+01 
-8.425044470215e+01 6.385496437262e-01 0.0 
6.385496437262e-01 -2.111283630863e+02 0.0 
0.0 0.0 -8.821364233653e+01 
-1.173411990600e+02 5.169897260762e+00 0.0 
5.169897260762e+00 -2.663656215580e+02 0.0 
0.0 0.0 -1.147120461854e+02 
-1.213503013093e+02 4.993018916362e+00 0.0 
4.993018916362e+00 -2.760092505228e+02 0.0 
0.0 0.0 -1.188078655496e+02 
-1.090695615569e+02 5.577783728875e+00 0.0 
5.577783728875e+00 -2.472792280049e+02 0.0 
0.0 0.0 -1.065046368685e+02 
-1.072816577328e+02 4.245785616326e+00 0.0 
4.245785616326e+00 -2.637670879051e+02 0.0 
0.0 0.0 -1.109146236914e+02 
-9.873942433552e+01 4.007724974047e+00 0.0 
4.007724974047e+00 -2.448576158507e+02 0.0 
0.0 0.0 -1.026791120559e+02 
-9.487477174328e+01 4.361011080774e+00 0.0 
4.361011080774e+00 -2.356206314788e+02 0.0 
0.0 0.0 -9.874862096664e+01 
-1.322837810495e+02 1.388851759463e+00 0.0 
1.388851759463e+00 -3.065877073023e+02 0.0 
0.0 0.0 -1.312614465055e+02 
-1.374900067613e+02 1.261358971724e+00 0.0 
1.261358971724e+00 -3.196770387195e+02 0.0 
0.0 0.0 -1.367501136442e+02 
-5.832597021316e+01 1.398592783656e+00 0.0 
1.398592783656e+00 -1.518603382012e+02 0.0 
0.0 0.0 -6.265589252430e+01 
-5.463892609228e+01 1.674534342061e+00 0.0 
1.674534342061e+00 -1.432993698620e+02 0.0 
0.0 0.0 -5.898148878628e+01 
-5.796789392244e+01 6.139775203021e-01 0.0 
6.139775203021e-01 -1.499483799428e+02 0.0 
0.0 0.0 -6.197488215956e+01 
-1.357583350450e+02 2.044523668810e+00 0.0 
2.044523668810e+00 -3.141262846823e+02 0.0 
0.0 0.0 -1.345653859182e+02 
-1.478202957217e+02 1.182723678298e+00 0.0 
1.182723678298e+00 -3.514244660168e+02 0.0 
0.0 0.0 -1.493734285215e+02 
-1.436459689728e+02 1.549992945506e+00 0.0 
1.549992945506e+00 -3.428208284134e+02 0.0 
0.0 0.0 -1.455400392159e+02 
-1.951510940462e+01 -6.912350286993e-01 0.0 
-6.912350286993e-01 -4.770733610291e+01 0.0 
0.0 0.0 -1.976673365226e+01 
-2.334731369115e+01 -7.940729317577e-01 0.0 
-7.940729317577e-01 -5.838418896074e+01 0.0 
0.0 0.0 -2.411945079557e+01 
-2.187264882644e+01 8.507444470829e+00 0.0 
8.507444470829e+00 -5.510939414563e+01 0.0 
0.0 0.0 -2.269461289162e+01 
-1.856098904161e+01 7.226576438250e+00 0.0 
7.226576438250e+00 -5.046088243145e+01 0.0 
0.0 0.0 -2.030656144192e+01 
-1.344771247346e+02 2.960927924560e+00 0.0 
2.960927924560e+00 -3.102218980650e+02 0.0 
0.0 0.0 -1.330097068399e+02 
-1.307922649196e+02 3.086030245347e+00 0.0 
3.086030245347e+00 -3.003964422878e+02 0.0 
0.0 0.0 -1.289566121622e+02 
-1.391893008295e+02 2.857837402097e+00 0.0 
2.857837402097e+00 -3.223843012092e+02 0.0 
0.0 0.0 -1.380720806116e+02 
-4.145965395185e+01 -2.492304286541e-01 0.0 
-2.492304286541e-01 -1.047229084247e+02 0.0 
0.0 0.0 -4.345476871295e+01 
-1.191490041090e+02 6.753900517026e+00 0.0 
6.753900517026e+00 -2.782884179412e+02 0.0 
0.0 0.0 -1.188312266151e+02 
-1.426534707703e+02 5.378432273128e+00 0.0 
5.378432273128e+00 -3.398541604511e+02 0.0 
0.0 0.0 -1.443522893664e+02 
-1.383145562671e+02 5.561843946875e+00 0.0 
5.561843946875e+00 -3.304641091761e+02 0.0 
0.0 0.0 -1.402335996330e+02 
-1.481811912603e+02 5.238369296463e+00 0.0 
5.238369296463e+00 -3.517781332133e+02 0.0 
0.0 0.0 -1.495877973421e+02 
-1.316059915341e+02 7.054172674523e+00 0.0 
7.054172674523e+00 -3.086400502573e+02 0.0 
0.0 0.0 -1.316738125374e+02 
-1.394979519675e+02 7.314648966715e+00 0.0 
7.314648966715e+00 -3.272866894877e+02 0.0 
0.0 0.0 -1.396353924366e+02 
-1.394768018615e+02 7.211403041651e+00 0.0 
7.211403041651e+00 -3.254382171147e+02 0.0 
0.0 0.0 -1.390745056929e+02 
-1.487323645545e+01 6.712663602812e-01 0.0 
6.712663602812e-01 -3.535060378481e+01 0.0 
0.0 0.0 -1.466715207208e+01 
-1.318662301012e+02 3.302861659013e-01 0.0 
3.302861659013e-01 -3.062405185149e+02 0.0 
0.0 0.0 -1.310320245848e+02 
-8.786017445182e+01 3.072698839389e-01 0.0 
3.072698839389e-01 -1.990502672556e+02 0.0 
0.0 0.0 -8.567313251223e+01 
-1.400282994165e+01 7.807585992300e-02 0.0 
7.807585992300e-02 -2.791924087773e+01 0.0 
0.0 0.0 -1.231701203677e+01 
-8.410064291159e+01 1.976391994838e-01 0.0 
1.976391994838e-01 -1.902169972425e+02 0.0 
0.0 0.0 -8.189529204622e+01 
-8.872186296698e+01 2.287765066522e-01 0.0 
2.287765066522e-01 -2.015161714758e+02 0.0 
0.0 0.0 -8.667141033282e+01 
-7.969540749401e+01 1.289393114333e-01 0.0 
1.289393114333e-01 -1.801605729141e+02 0.0 
0.0 0.0 -7.755679412243e+01 
-3.388734020575e+01 -2.549544640119e-01 0.0 
-2.549544640119e-01 -8.550485559265e+01 0.0 
0.0 0.0 -3.541765873952e+01 
-8.605670208814e+01 5.613311786667e-01 0.0 
5.613311786667e-01 -1.931692454884e+02 0.0 
0.0 0.0 -8.336778427297e+01 
-9.125282575732e+01 8.377731842784e-01 0.0 
8.377731842784e-01 -2.050533510105e+02 0.0 
0.0 0.0 -8.849185303035e+01 
-1.544617560159e+01 -7.267270341160e-01 0.0 
-7.267270341160e-01 -3.607162319322e+01 0.0 
0.0 0.0 -1.516595289722e+01 
-1.397484353098e+02 1.870124523379e+00 0.0 
1.870124523379e+00 -3.245088501389e+02 0.0 
0.0 0.0 -1.388771856346e+02 
-1.552988164003e+01 -5.388273417131e-01 0.0 
-5.388273417131e-01 -3.754643747911e+01 0.0 
0.0 0.0 -1.552146487860e+01 
-1.849286171864e+01 -4.833355888274e-01 0.0 
-4.833355888274e-01 -4.539406365971e+01 0.0 
0.0 0.0 -1.876607761351e+01 
-1.462071791525e+02 3.579440351171e+00 0.0 
3.579440351171e+00 -3.481473227743e+02 0.0 
0.0 0.0 -1.479063505780e+02 
-1.412081877325e+02 3.116699924011e+00 0.0 
3.116699924011e+00 -3.378541764236e+02 0.0 
0.0 0.0 -1.433187092468e+02 
-1.500275659290e+02 3.387172408410e+00 0.0 
3.387172408410e+00 -3.562512509384e+02 0.0 
0.0 0.0 -1.514836450602e+02 
-1.450172590743e+02 2.823564865478e+00 0.0 
2.823564865478e+00 -3.458413285306e+02 0.0 
0.0 0.0 -1.468575762815e+02 
-1.362971367256e+02 2.660247864306e+00 0.0 
2.660247864306e+00 -3.274755501334e+02 0.0 
0.0 0.0 -1.387318060577e+02 
-1.405821180319e+02 2.402613326192e+00 0.0 
2.402613326192e+00 -3.364566603719e+02 0.0 
0.0 0.0 -1.427116335211e+02 
-8.323516797025e+01 3.271425707452e-01 0.0 
3.271425707452e-01 -1.879291487906e+02 0.0 
0.0 0.0 -8.094929502825e+01 
-1.506873022755e+02 2.635530495958e+00 0.0 
2.635530495958e+00 -3.574140784153e+02 0.0 
0.0 0.0 -1.520304142072e+02 
-1.450324995080e+02 2.153821388151e+00 0.0 
2.153821388151e+00 -3.456133574759e+02 0.0 
0.0 0.0 -1.467937570952e+02 
-1.549997988345e+02 2.359809561929e+00 0.0 
2.359809561929e+00 -3.666557334900e+02 0.0 
0.0 0.0 -1.560966596973e+02 
-6.286369927470e+01 1.768490201873e+00 0.0 
1.768490201873e+00 -1.347853169789e+02 0.0 
0.0 0.0 -5.889470487609e+01 
-4.780890255724e+01 6.186909474041e+00 0.0 
6.186909474041e+00 -1.024211472326e+02 0.0 
0.0 0.0 -4.466901493696e+01 
-4.401563135499e+01 4.911223443942e+00 0.0 
4.911223443942e+00 -9.171522292080e+01 0.0 
0.0 0.0 -4.031925628274e+01 
-3.503682175126e+01 3.917853036138e+00 0.0 
3.917853036138e+00 -7.121957665165e+01 0.0 
0.0 0.0 -3.147691952087e+01 
-1.413565169441e+02 6.182971319204e+00 0.0 
6.182971319204e+00 -3.270283051990e+02 0.0 
0.0 0.0 -1.401154466429e+02 
-1.363991331332e+02 5.562992928813e+00 0.0 
5.562992928813e+00 -3.140429701077e+02 0.0 
0.0 0.0 -1.347326309722e+02 
-1.293322296224e+02 5.039406455267e-01 0.0 
5.039406455267e-01 -3.119901724853e+02 0.0 
0.0 0.0 -1.319967206323e+02 
-1.204197008947e+02 4.213017724460e-01 0.0 
4.213017724460e-01 -2.925523214222e+02 0.0 
0.0 0.0 -1.234916066951e+02 
-8.423090472028e+01 9.953514160658e-02 0.0 
9.953514160658e-02 -1.913125003915e+02 0.0 
0.0 0.0 -8.226302153353e+01 
-8.374232573341e+01 1.218185370069e-01 0.0 
1.218185370069e-01 -1.902753944281e+02 0.0 
0.0 0.0 -8.180531604845e+01 
-9.127210871765e+01 3.499518948978e-02 0.0 
3.499518948978e-02 -2.080784384795e+02 0.0 
0.0 0.0 -8.940516415916e+01 
-9.020365630751e+01 1.402843970816e-01 0.0 
1.402843970816e-01 -2.056849188552e+02 0.0 
0.0 0.0 -8.836657254880e+01 
-9.772018087153e+01 6.017622773958e-02 0.0 
6.017622773958e-02 -2.235854198146e+02 0.0 
0.0 0.0 -9.599168020584e+01 
-9.663253677633e+01 1.714685931081e-01 0.0 
1.714685931081e-01 -2.208606148070e+02 0.0 
0.0 0.0 -9.484794547500e+01 
-1.042902458314e+02 3.072366370983e-01 0.0 
3.072366370983e-01 -2.391218727960e+02 0.0 
0.0 0.0 -1.026236355882e+02 
-1.435755624759e+02 7.250149350325e+00 0.0 
7.250149350325e+00 -3.347768830056e+02 0.0 
0.0 0.0 -1.431057336445e+02 
-2.671075870643e+01 6.435466274595e+00 0.0 
6.435466274595e+00 -5.373128505051e+01 0.0 
0.0 0.0 -2.373261312708e+01 
-7.106310507446e+01 1.497963221657e+00 0.0 
1.497963221657e+00 -1.541670457225e+02 0.0 
0.0 0.0 -6.716904523910e+01 
-1.436323933409e+02 7.182109611846e+00 0.0 
7.182109611846e+00 -3.386691038051e+02 0.0 
0.0 0.0 -1.442904491438e+02 
-1.384083053235e+02 6.754385813918e+00 0.0 
6.754385813918e+00 -3.281433061935e+02 0.0 
0.0 0.0 -1.395654834551e+02 
-6.221105531363e+01 2.783608619837e+00 0.0 
2.783608619837e+00 -1.328521945812e+02 0.0 
0.0 0.0 -5.811897496845e+01 
-5.414911359542e+01 2.220921135854e+00 0.0 
2.220921135854e+00 -1.145427701678e+02 0.0 
0.0 0.0 -5.020756512896e+01 
-1.479712273505e+02 4.383688121451e+00 0.0 
4.383688121451e+00 -3.519074119465e+02 0.0 
0.0 0.0 -1.495635917891e+02 
-5.783871879141e+01 7.789849500066e+00 0.0 
7.789849500066e+00 -1.356799403050e+02 0.0 
0.0 0.0 -5.765559772894e+01 
-1.442030239045e+02 2.243181099136e+00 0.0 
2.243181099136e+00 -3.359332884579e+02 0.0 
0.0 0.0 -1.436408937087e+02 
-9.984469514664e+00 2.079271904945e+00 0.0 
2.079271904945e+00 -1.418124711152e+01 0.0 
0.0 0.0 -7.211420566954e+00 
-1.310985693193e+01 2.468400480750e+00 0.0 
2.468400480750e+00 -3.127187642127e+01 0.0 
0.0 0.0 -1.302681466080e+01 
-6.271442591099e+01 7.422007750061e+00 0.0 
7.422007750061e+00 -1.439968174219e+02 0.0 
0.0 0.0 -6.161337299987e+01 
-7.034497057187e+01 3.226427478070e+00 0.0 
3.226427478070e+00 -1.518462062592e+02 0.0 
0.0 0.0 -6.625735304932e+01 
-5.249277562274e+01 5.316490926382e+00 0.0 
5.316490926382e+00 -1.118205057844e+02 0.0 
0.0 0.0 -4.889398442215e+01 
-4.912917917088e+01 4.241658464575e+00 0.0 
4.241658464575e+00 -1.028786448673e+02 0.0 
0.0 0.0 -4.520234721146e+01 
-1.160557757055e+02 4.502347773676e+00 0.0 
4.502347773676e+00 -2.830105237343e+02 0.0 
0.0 0.0 -1.193198898319e+02 
-2.081073827742e+01 -8.543919508980e-01 0.0 
-8.543919508980e-01 -5.077594956207e+01 0.0 
0.0 0.0 -2.107600635185e+01 
-2.618305401038e+01 8.767380646538e+00 0.0 
8.767380646538e+00 -6.026527303678e+01 0.0 
0.0 0.0 -2.553449811415e+01 
-1.053301734561e+02 1.709776860391e-01 0.0 
1.709776860391e-01 -2.413531892787e+02 0.0 
0.0 0.0 -1.036050088204e+02 
-1.846862344741e+01 8.578803773524e+00 0.0 
8.578803773524e+00 -4.161349140791e+01 0.0 
0.0 0.0 -1.762463445660e+01 
-1.251468862709e+02 2.234515268268e-01 0.0 
2.234515268268e-01 -3.027836081856e+02 0.0 
0.0 0.0 -1.279791483369e+02 
-6.132461613584e+01 7.628197469120e+00 0.0 
7.628197469120e+00 -1.471423972938e+02 0.0 
0.0 0.0 -6.214010402889e+01 
-7.769281606067e+01 4.746048052374e+00 0.0 
4.746048052374e+00 -1.705299943698e+02 0.0 
0.0 0.0 -7.406684312915e+01 
-3.397107069774e+01 8.598944039373e+00 0.0 
8.598944039373e+00 -7.898917563582e+01 0.0 
0.0 0.0 -3.348807390007e+01 
-5.162101055664e+01 7.146494854730e+00 0.0 
7.146494854730e+00 -1.139950296691e+02 0.0 
0.0 0.0 -4.928481206771e+01 
-9.473867058980e+01 2.757995727436e+00 0.0 
2.757995727436e+00 -2.100689819451e+02 0.0 
0.0 0.0 -9.104229576048e+01 
-8.705092181363e+01 1.797521651450e+00 0.0 
1.797521651450e+00 -1.924263577002e+02 0.0 
0.0 0.0 -8.344318385414e+01 
-8.302765769409e+01 1.818809439292e+00 0.0 
1.818809439292e+00 -1.825055780196e+02 0.0 
0.0 0.0 -7.925997071410e+01 
-6.477879882599e+01 7.232622073197e+00 0.0 
7.232622073197e+00 -1.581150218460e+02 0.0 
0.0 0.0 -6.646814620161e+01 
-5.349368991552e+01 3.604848549858e+00 0.0 
3.604848549858e+00 -1.128356065603e+02 0.0 
0.0 0.0 -4.949878894274e+01 
-4.422670533851e+01 2.919350274803e+00 0.0 
2.919350274803e+00 -9.186329648622e+01 0.0 
0.0 0.0 -4.042700054742e+01 
-9.034478206341e+01 3.688502522177e+00 0.0 
3.688502522177e+00 -1.994794053561e+02 0.0 
0.0 0.0 -8.654725622585e+01 
-1.230459363221e+02 2.724880254348e+00 0.0 
2.724880254348e+00 -2.808169190611e+02 0.0 
0.0 0.0 -1.207588566150e+02 
-1.267133613582e+02 3.136808676214e+00 0.0 
3.136808676214e+00 -2.898552248869e+02 0.0 
0.0 0.0 -1.245705758735e+02 
-1.341366029120e+02 3.504509081554e+00 0.0 
3.504509081554e+00 -3.087611062875e+02 0.0 
0.0 0.0 -1.324693127599e+02 
-1.303718989423e+02 3.600675577911e+00 0.0 
3.600675577911e+00 -2.989232257745e+02 0.0 
0.0 0.0 -1.283885374150e+02 
-1.227708309456e+02 3.248195582313e+00 0.0 
3.248195582313e+00 -2.795669211964e+02 0.0 
0.0 0.0 -1.203013256426e+02 
-1.264890508850e+02 3.746287360823e+00 0.0 
3.746287360823e+00 -2.886749236055e+02 0.0 
0.0 0.0 -1.241491923471e+02 
-1.339588459367e+02 4.031368327201e+00 0.0 
4.031368327201e+00 -3.080265704961e+02 0.0 
0.0 0.0 -1.321956249298e+02 
-1.304403950035e+02 4.212100407442e+00 0.0 
4.212100407442e+00 -2.984486105228e+02 0.0 
0.0 0.0 -1.282667016579e+02 
-1.391023409468e+02 4.686786326283e+00 0.0 
4.686786326283e+00 -3.211370823019e+02 0.0 
0.0 0.0 -1.376718269746e+02 
-1.339482518957e+02 4.774139457179e+00 0.0 
4.774139457179e+00 -3.076139886860e+02 0.0 
0.0 0.0 -1.320686721745e+02 
-1.261076639233e+02 4.301098220784e+00 0.0 
4.301098220784e+00 -2.875363457220e+02 0.0 
0.0 0.0 -1.236932028936e+02 
-1.294627237596e+02 4.777628083850e+00 0.0 
4.777628083850e+00 -2.963665255883e+02 0.0 
0.0 0.0 -1.273487748044e+02 
-1.367010797076e+02 5.202862044282e+00 0.0 
5.202862044282e+00 -3.149027463785e+02 0.0 
0.0 0.0 -1.350811478258e+02 
-1.218374682580e+02 4.417214629768e+00 0.0 
4.417214629768e+00 -2.768011166050e+02 0.0 
0.0 0.0 -1.191915754589e+02 
-1.479640492801e+02 7.500389309805e+00 0.0 
7.500389309805e+00 -3.476261782581e+02 0.0 
0.0 0.0 -1.482770682615e+02 
-7.093955689520e+01 7.207625559540e+00 0.0 
7.207625559540e+00 -1.636845037653e+02 0.0 
0.0 0.0 -6.998721819815e+01 
-1.685084666255e+01 1.991083618099e+00 0.0 
1.991083618099e+00 -4.431138496125e+01 0.0 
0.0 0.0 -1.794866948714e+01 
-1.409351677241e+01 4.407398960176e+00 0.0 
4.407398960176e+00 -3.825810495131e+01 0.0 
0.0 0.0 -1.530548651711e+01 
-8.198450202412e+01 4.317332461780e+00 0.0 
4.317332461780e+00 -1.801502462349e+02 0.0 
0.0 0.0 -7.824042447770e+01 
-1.462904885164e+02 4.780908516132e+00 0.0 
4.780908516132e+00 -3.404208305337e+02 0.0 
0.0 0.0 -1.456133957150e+02 
-1.459601437496e+02 3.927511240985e+00 0.0 
3.927511240985e+00 -3.397019091541e+02 0.0 
0.0 0.0 -1.452986158711e+02 
-4.850706847210e+01 7.639548861312e+00 0.0 
7.639548861312e+00 -1.209319977595e+02 0.0 
0.0 0.0 -5.043171986947e+01 
-1.488161652735e+02 6.800754129179e+00 0.0 
6.800754129179e+00 -3.465755175694e+02 0.0 
0.0 0.0 -1.482175048529e+02 
-8.685505348629e+01 2.354859424939e+00 0.0 
2.354859424939e+00 -1.912075462640e+02 0.0 
0.0 0.0 -8.301877992510e+01 
-3.215778672815e+01 5.524239857548e+00 0.0 
5.524239857548e+00 -8.824375792591e+01 0.0 
0.0 0.0 -3.572046339622e+01 
-1.499134089486e+02 7.460791415025e+00 0.0 
7.460791415025e+00 -3.496588727000e+02 0.0 
0.0 0.0 -1.494716844946e+02 
-1.190300904491e+02 2.785798092995e+00 0.0 
2.785798092995e+00 -2.704042852145e+02 0.0 
0.0 0.0 -1.164303126991e+02 
-1.149197449960e+02 2.881479357941e+00 0.0 
2.881479357941e+00 -2.598693319288e+02 0.0 
0.0 0.0 -1.120367230775e+02 
-1.111524786507e+02 2.432810304193e+00 0.0 
2.432810304193e+00 -2.508420346375e+02 0.0 
0.0 0.0 -1.081983539864e+02 
-1.460025050789e+02 3.294755114134e+00 0.0 
3.294755114134e+00 -3.398999971006e+02 0.0 
0.0 0.0 -1.453707506538e+02 
-9.950537834060e+01 1.041239513504e+00 0.0 
1.041239513504e+00 -2.249150617841e+02 0.0 
0.0 0.0 -9.692613203741e+01 
-1.523533119276e+02 8.002023365091e+00 0.0 
8.002023365091e+00 -3.567883357902e+02 0.0 
0.0 0.0 -1.523424943153e+02 
-1.012784432949e+02 6.399015033654e+00 0.0 
6.399015033654e+00 -2.436112619668e+02 0.0 
0.0 0.0 -1.030669115785e+02 
-9.754369365127e+01 6.627560264798e+00 0.0 
6.627560264798e+00 -2.332429860418e+02 0.0 
0.0 0.0 -9.883600390793e+01 
-8.928206046545e+01 6.715302231439e+00 0.0 
6.715302231439e+00 -2.143086783707e+02 0.0 
0.0 0.0 -9.067722165085e+01 
-1.224210048459e+02 3.834695091675e+00 0.0 
3.834695091675e+00 -2.781989304189e+02 0.0 
0.0 0.0 -1.197859805795e+02 
-1.540377900686e+02 7.297779965255e+00 0.0 
7.297779965255e+00 -3.624145952269e+02 0.0 
0.0 0.0 -1.545357155887e+02 
-1.469954523470e+02 6.792727092095e+00 0.0 
6.792727092095e+00 -3.476648827130e+02 0.0 
0.0 0.0 -1.479981005180e+02 
-1.474673691949e+02 6.523590668586e+00 0.0 
6.523590668586e+00 -3.490379332389e+02 0.0 
0.0 0.0 -1.485515907302e+02 
-1.391587032922e+02 6.290804619895e+00 0.0 
6.290804619895e+00 -3.313219329262e+02 0.0 
0.0 0.0 -1.407441908655e+02 
-1.552203843639e+02 6.649185676109e+00 0.0 
6.649185676109e+00 -3.655331970174e+02 0.0 
0.0 0.0 -1.558260744144e+02 
-1.478252124236e+02 5.651731214548e+00 0.0 
5.651731214548e+00 -3.440188781763e+02 0.0 
0.0 0.0 -1.471532271800e+02 
-1.483776847282e+02 6.076769551159e+00 0.0 
6.076769551159e+00 -3.455372148928e+02 0.0 
0.0 0.0 -1.477744698863e+02 
-4.718983396995e+01 1.176365383024e+00 0.0 
1.176365383024e+00 -1.247937554746e+02 0.0 
0.0 0.0 -5.119507683336e+01 
-5.094270123038e+01 2.047094079553e+00 0.0 
2.047094079553e+00 -1.346580840544e+02 0.0 
0.0 0.0 -5.528023558543e+01 
-5.852526204237e+01 2.509248465304e+00 0.0 
2.509248465304e+00 -1.529138718314e+02 0.0 
0.0 0.0 -6.303174016214e+01 
-5.478596289330e+01 2.975514087493e+00 0.0 
2.975514087493e+00 -1.440362799001e+02 0.0 
0.0 0.0 -5.924667283802e+01 
-4.717235129982e+01 2.505355901327e+00 0.0 
2.505355901327e+00 -1.257255511304e+02 0.0 
0.0 0.0 -5.146937072907e+01 
-5.099534075203e+01 3.521113384389e+00 0.0 
3.521113384389e+00 -1.348896731574e+02 0.0 
0.0 0.0 -5.536550417283e+01 
-5.874554174411e+01 3.908789522604e+00 0.0 
3.908789522604e+00 -1.530086059159e+02 0.0 
0.0 0.0 -6.312624429801e+01 
-4.717081638406e+01 4.179801467395e+00 0.0 
4.179801467395e+00 -1.254835532257e+02 0.0 
0.0 0.0 -5.139631088292e+01 
-1.290826747844e+02 5.321024925201e+00 0.0 
5.321024925201e+00 -2.953555607273e+02 0.0 
0.0 0.0 -1.269314706535e+02 
-1.564178777565e+02 5.808771589295e+00 0.0 
5.808771589295e+00 -3.686320774677e+02 0.0 
0.0 0.0 -1.571149865673e+02 
-1.024591244725e+02 2.919936486227e+00 0.0 
2.919936486227e+00 -2.539513256493e+02 0.0 
0.0 0.0 -1.065231350365e+02 
-9.836066809296e+01 3.161766525365e+00 0.0 
3.161766525365e+00 -2.446850313305e+02 0.0 
0.0 0.0 -1.025137098270e+02 
-8.998301898854e+01 2.849763725147e+00 0.0 
2.849763725147e+00 -2.258361983760e+02 0.0 
0.0 0.0 -9.434576520938e+01 
-7.613031266609e+01 3.889690080767e-01 0.0 
3.889690080767e-01 -1.918593790725e+02 0.0 
0.0 0.0 -7.999690752156e+01 
-8.045270108402e+01 6.781616654526e-01 0.0 
6.781616654526e-01 -2.025027339463e+02 0.0 
0.0 0.0 -8.448663050910e+01 
-8.863494434795e+01 9.576756959398e-01 0.0 
9.576756959398e-01 -2.216974590811e+02 0.0 
0.0 0.0 -9.269972102871e+01 
-7.179174159451e+01 1.662112371142e-01 0.0 
1.662112371142e-01 -1.810976941112e+02 0.0 
0.0 0.0 -7.546683071171e+01 
-1.118559285730e+02 6.453178954422e+00 0.0 
6.453178954422e+00 -2.578540360457e+02 0.0 
0.0 0.0 -1.105129893856e+02 
-1.567640122274e+02 5.444119741017e+00 0.0 
5.444119741017e+00 -3.694813516985e+02 0.0 
0.0 0.0 -1.574736091778e+02 
-9.945682069221e+01 4.910258961611e+00 0.0 
4.910258961611e+00 -2.449858514259e+02 0.0 
0.0 0.0 -1.029328016354e+02 
-7.664577560374e+01 7.190939408484e-01 0.0 
7.190939408484e-01 -1.938251978973e+02 0.0 
0.0 0.0 -8.074129205031e+01 
-7.836413256706e+01 5.383659849436e-01 0.0 
5.383659849436e-01 -1.742330072949e+02 0.0 
0.0 0.0 -7.537914195858e+01 
-8.590100052867e+01 8.064036728740e-01 0.0 
8.064036728740e-01 -1.914336156700e+02 0.0 
0.0 0.0 -8.280038485962e+01 
-8.635704373962e+01 1.125418711916e+00 0.0 
1.125418711916e+00 -1.919021752209e+02 0.0 
0.0 0.0 -8.307776568815e+01 
-9.418260148353e+01 1.357821391955e+00 0.0 
1.357821391955e+00 -2.103680741455e+02 0.0 
0.0 0.0 -9.096520268870e+01 
-8.640158061848e+01 8.498975510448e-01 0.0 
8.498975510448e-01 -1.930598209380e+02 0.0 
0.0 0.0 -8.343842046694e+01 
-9.182513005034e+01 5.621697445416e-01 0.0 
5.621697445416e-01 -2.282787973274e+02 0.0 
0.0 0.0 -9.563117821333e+01 
-9.559166519560e+01 5.029374466659e-01 0.0 
5.029374466659e-01 -2.368245160999e+02 0.0 
0.0 0.0 -9.932485438865e+01 
-9.113696339836e+01 2.990768761812e-01 0.0 
2.990768761812e-01 -2.263008680580e+02 0.0 
0.0 0.0 -9.483134943691e+01 
-9.938046274993e+01 4.263260427630e-01 0.0 
4.263260427630e-01 -2.453274394155e+02 0.0 
0.0 0.0 -1.030123706496e+02 
-9.471885145261e+01 2.854643289290e-01 0.0 
2.854643289290e-01 -2.343704141805e+02 0.0 
0.0 0.0 -9.832677968995e+01 
-8.717486445377e+01 2.148293753970e-01 0.0 
2.148293753970e-01 -2.166782830445e+02 0.0 
0.0 0.0 -9.075594424947e+01 
-1.030463273246e+02 3.442340147209e-01 0.0 
3.442340147209e-01 -2.534491372450e+02 0.0 
0.0 0.0 -1.065486393709e+02 
-9.769609430087e+01 1.259632902867e-01 0.0 
1.259632902867e-01 -2.411912000204e+02 0.0 
0.0 0.0 -1.012661882964e+02 
-7.784394348101e+01 3.732653838772e-01 0.0 
3.732653838772e-01 -1.738282502900e+02 0.0 
0.0 0.0 -7.510165813131e+01 
-1.128170885159e+01 -4.873750434141e-01 0.0 
-4.873750434141e-01 -1.721815558666e+01 0.0 
0.0 0.0 -8.539819137671e+00 
-1.566309262260e+01 -7.415203848787e-01 0.0 
-7.415203848787e-01 -3.392302427583e+01 0.0 
0.0 0.0 -1.460377789503e+01 
-1.553553603926e+01 -7.344251038723e-01 0.0 
-7.344251038723e-01 -3.349792970122e+01 0.0 
0.0 0.0 -1.443858918533e+01 
-2.039930283434e+01 -7.085585587416e-01 0.0 
-7.085585587416e-01 -4.945205862672e+01 0.0 
0.0 0.0 -2.055540843832e+01 
-2.040838767197e+01 -5.234036069078e-01 0.0 
-5.234036069078e-01 -5.055929998833e+01 0.0 
0.0 0.0 -2.089030629809e+01 
-2.621053294084e+01 -3.012239030662e-01 0.0 
-3.012239030662e-01 -6.758004323087e+01 0.0 
0.0 0.0 -2.773717285151e+01 
-2.500797144192e+01 1.220768705916e-01 0.0 
1.220768705916e-01 -6.501905391561e+01 0.0 
0.0 0.0 -2.660810760726e+01 
-1.559716655657e+01 -5.164076366238e-01 0.0 
-5.164076366238e-01 -3.392387016644e+01 0.0 
0.0 0.0 -1.459673736729e+01 
-1.044421406298e+01 -5.162041880833e-01 0.0 
-5.162041880833e-01 -1.698592326128e+01 0.0 
0.0 0.0 -8.219747100532e+00 
-1.525771005247e+01 -7.886582829651e-01 0.0 
-7.886582829651e-01 -3.347490350740e+01 0.0 
0.0 0.0 -1.435654441566e+01 
-9.921581949617e+00 -5.058090922400e-01 0.0 
-5.058090922400e-01 -1.682111287542e+01 0.0 
0.0 0.0 -8.018009772654e+00 
-1.490289476135e+01 -7.896161340857e-01 0.0 
-7.896161340857e-01 -3.300656850881e+01 0.0 
0.0 0.0 -1.410768842478e+01 
-2.125337567429e+01 -8.696654880091e-01 0.0 
-8.696654880091e-01 -5.187142097026e+01 0.0 
0.0 0.0 -2.153743899337e+01 
-3.087285557637e+01 -7.859485960373e-01 0.0 
-7.859485960373e-01 -7.839819368815e+01 0.0 
0.0 0.0 -3.238131477935e+01 
-1.575629001805e+02 1.304723311831e+00 0.0 
1.304723311831e+00 -3.717541007462e+02 0.0 
0.0 0.0 -1.583951002780e+02 
-7.464755928900e+01 -1.460571708537e-02 0.0 
-1.460571708537e-02 -1.869195197423e+02 0.0 
0.0 0.0 -7.807012370939e+01 
-7.065278580723e+01 -9.713241238162e-02 0.0 
-9.713241238162e-02 -1.774946767501e+02 0.0 
0.0 0.0 -7.404423876719e+01 
-6.310712657248e+01 -1.519274543246e-01 0.0 
-1.519274543246e-01 -1.587070059582e+02 0.0 
0.0 0.0 -6.614423975920e+01 
-6.710941501687e+01 -4.581443761536e-02 0.0 
-4.581443761536e-02 -1.688297946887e+02 0.0 
0.0 0.0 -7.038176291167e+01 
-7.773467343357e+01 -4.769554069430e-02 0.0 
-4.769554069430e-02 -1.946527442206e+02 0.0 
0.0 0.0 -8.131622529626e+01 
-5.891869479969e+01 -1.136338557229e-01 0.0 
-1.136338557229e-01 -1.483362597601e+02 0.0 
0.0 0.0 -6.177648636795e+01 
-5.609811968020e+01 -2.186222941707e-01 0.0 
-2.186222941707e-01 -1.413398809519e+02 0.0 
0.0 0.0 -5.883140018962e+01 
-7.094827205163e+00 -9.126477724904e-02 0.0 
-9.126477724904e-02 -1.714454144694e+01 0.0 
0.0 0.0 -7.259697925384e+00 
-1.333154386843e+01 -1.291773791616e-01 0.0 
-1.291773791616e-01 -3.369085536520e+01 0.0 
0.0 0.0 -1.381068004318e+01 
-1.273633071629e+01 -2.127774366100e-01 0.0 
-2.127774366100e-01 -3.205365997732e+01 0.0 
0.0 0.0 -1.307146399580e+01 
-1.974642190413e+01 -2.092540223813e-01 0.0 
-2.092540223813e-01 -5.039019303538e+01 0.0 
0.0 0.0 -2.064098448185e+01 
-1.985897527561e+01 -2.416434600178e-01 0.0 
-2.416434600178e-01 -5.003448505145e+01 0.0 
0.0 0.0 -2.056803809812e+01 
-1.365332575172e+01 -2.542495501037e-01 0.0 
-2.542495501037e-01 -3.398407953936e+01 0.0 
0.0 0.0 -1.401840313637e+01 
-1.372646191142e+01 -3.626887709134e-01 0.0 
-3.626887709134e-01 -3.398789396350e+01 0.0 
0.0 0.0 -1.404796085243e+01 
-7.425159656722e+00 -2.080985515940e-01 0.0 
-2.080985515940e-01 -1.702191180134e+01 0.0 
0.0 0.0 -7.328700042067e+00 
-1.378445540535e+01 -3.648956591552e-01 0.0 
-3.648956591552e-01 -3.385808409525e+01 0.0 
0.0 0.0 -1.405412672525e+01 
-2.029851684859e+01 -4.853346323445e-01 0.0 
-4.853346323445e-01 -5.083715708801e+01 0.0 
0.0 0.0 -2.094070218098e+01 
-7.502795080131e+00 -2.457420659929e-01 0.0 
-2.457420659929e-01 -1.644896767790e+01 0.0 
0.0 0.0 -7.197265847371e+00 
-1.149728724748e+02 2.155672100570e-01 0.0 
2.155672100570e-01 -2.650823392450e+02 0.0 
0.0 0.0 -1.136165635159e+02 
-1.193277831015e+02 3.101560122374e-01 0.0 
3.101560122374e-01 -2.757780821392e+02 0.0 
0.0 0.0 -1.181317595722e+02 
-1.569168507192e+02 4.519398407865e+00 0.0 
4.519398407865e+00 -3.701943773554e+02 0.0 
0.0 0.0 -1.577333684224e+02 
-7.834788222729e+01 3.175127428798e-01 0.0 
3.175127428798e-01 -1.758755976205e+02 0.0 
0.0 0.0 -7.586704395433e+01 
-9.158542802720e+00 -4.241130429678e-01 0.0 
-4.241130429678e-01 -1.708030193028e+01 0.0 
0.0 0.0 -7.855817063739e+00 
-1.431732722217e+02 8.092092338789e-01 0.0 
8.092092338789e-01 -3.341718678936e+02 0.0 
0.0 0.0 -1.428035420346e+02 
-1.447572271152e+02 1.515404992753e+00 0.0 
1.515404992753e+00 -3.376406934101e+02 0.0 
0.0 0.0 -1.443193761576e+02 
-1.448571645096e+02 1.209185370738e+00 0.0 
1.209185370738e+00 -3.378961873235e+02 0.0 
0.0 0.0 -1.444260055499e+02 
-1.433953329371e+02 2.640595439197e-01 0.0 
2.640595439197e-01 -3.420258620505e+02 0.0 
0.0 0.0 -1.452263584963e+02 
-1.479764091187e+02 5.950541358606e-01 0.0 
5.950541358606e-01 -3.515667383116e+02 0.0 
0.0 0.0 -1.494629442291e+02 
-1.432755433155e+02 4.301115124097e-01 0.0 
4.301115124097e-01 -3.346455510010e+02 0.0 
0.0 0.0 -1.429763282950e+02 
-4.894452831264e+01 -4.185665362785e-01 0.0 
-4.185665362785e-01 -1.251565024515e+02 0.0 
0.0 0.0 -5.183030922926e+01 
-1.378483410731e+02 3.920415326062e+00 0.0 
3.920415326062e+00 -3.177796128429e+02 0.0 
0.0 0.0 -1.362883861748e+02 
-1.294790530844e+02 8.003202207205e-01 0.0 
8.003202207205e-01 -3.001066023519e+02 0.0 
0.0 0.0 -1.284756966309e+02 
-2.868314098487e+01 6.623687564541e+00 0.0 
6.623687564541e+00 -7.814576830712e+01 0.0 
0.0 0.0 -3.164867278759e+01 
-4.662664941471e+01 -1.816651367148e-01 0.0 
-1.816651367148e-01 -1.206649433177e+02 0.0 
0.0 0.0 -4.978747781973e+01 
-1.163390393956e+02 6.051460542818e-01 0.0 
6.051460542818e-01 -2.835601200281e+02 0.0 
0.0 0.0 -1.195697478271e+02 
-1.053367639392e+02 1.483123561510e+00 0.0 
1.483123561510e+00 -2.598718967689e+02 0.0 
0.0 0.0 -1.091625982124e+02 
-1.347640451064e+02 1.371175354618e+00 0.0 
1.371175354618e+00 -3.239145168099e+02 0.0 
0.0 0.0 -1.372035685749e+02 
-1.085055260595e+02 8.989633502432e-01 0.0 
8.989633502432e-01 -2.664054943119e+02 0.0 
0.0 0.0 -1.120733061114e+02 
-1.267401885950e+02 1.792841399962e+00 0.0 
1.792841399962e+00 -3.068336916977e+02 0.0 
0.0 0.0 -1.296721640878e+02 
-1.472827106225e+02 5.952704640097e+00 0.0 
5.952704640097e+00 -3.493382274355e+02 0.0 
0.0 0.0 -1.485862814174e+02 
-3.141832679589e+01 -3.069383355159e-01 0.0 
-3.069383355159e-01 -7.897942297771e+01 0.0 
0.0 0.0 -3.271932493208e+01 
-1.003727636238e+02 6.067708172069e-01 0.0 
6.067708172069e-01 -2.284759084057e+02 0.0 
0.0 0.0 -9.825460160885e+01 
-9.707254465190e+01 3.138131404222e-01 0.0 
3.138131404222e-01 -2.213767608766e+02 0.0 
0.0 0.0 -9.513479165855e+01 
-1.172049457315e+02 7.717096538341e-01 0.0 
7.717096538341e-01 -2.697175634131e+02 0.0 
0.0 0.0 -1.156767527434e+02 
-5.169451544921e+01 -3.382636641636e-01 0.0 
-3.382636641636e-01 -1.312327331092e+02 0.0 
0.0 0.0 -5.447817456752e+01 
-8.326233897848e+01 2.382117316744e-01 0.0 
2.382117316744e-01 -2.077349439183e+02 0.0 
0.0 0.0 -8.689918486902e+01 
-3.299773767223e+01 -6.481122369956e-01 0.0 
-6.481122369956e-01 -8.375134885158e+01 0.0 
0.0 0.0 -3.462472595714e+01 
-1.435057631742e+02 6.905842772616e+00 0.0 
6.905842772616e+00 -3.332531544339e+02 0.0 
0.0 0.0 -1.426276752824e+02 
-8.247690036931e+01 3.322015727587e+00 0.0 
3.322015727587e+00 -1.805314342202e+02 0.0 
0.0 0.0 -7.850250037684e+01 
-8.566629589685e+01 2.277733192328e+00 0.0 
2.277733192328e+00 -2.160179374781e+02 0.0 
0.0 0.0 -9.010527001250e+01 
-6.812569257573e+01 1.377402689931e-01 0.0 
1.377402689931e-01 -1.724838546003e+02 0.0 
0.0 0.0 -7.178286415280e+01 
-5.313986044699e+01 -2.087558159912e-01 0.0 
-2.087558159912e-01 -1.362125822310e+02 0.0 
0.0 0.0 -5.640573280341e+01 
-4.324929507732e+01 -1.450550593164e-01 0.0 
-1.450550593164e-01 -1.125072111128e+02 0.0 
0.0 0.0 -4.632695185703e+01 
-7.575998235486e+01 6.808695411014e+00 0.0 
6.808695411014e+00 -1.726303739627e+02 0.0 
0.0 0.0 -7.411710689526e+01 
-8.092261801249e+01 1.113824056864e+00 0.0 
1.113824056864e+00 -2.043077829682e+02 0.0 
0.0 0.0 -8.516912029421e+01 
-1.192390231804e+02 2.788605747634e+00 0.0 
2.788605747634e+00 -2.909805556876e+02 0.0 
0.0 0.0 -1.226658736604e+02 
-1.215195044739e+02 7.123267042554e-01 0.0 
7.123267042554e-01 -2.805191687185e+02 0.0 
0.0 0.0 -1.202116019577e+02 
-9.131326151880e+00 -4.481980547717e-01 0.0 
-4.481980547717e-01 -1.901916802229e+01 0.0 
0.0 0.0 -8.330447083374e+00 
-1.239542247713e+02 3.278162515350e+00 0.0 
3.278162515350e+00 -3.011475193140e+02 0.0 
0.0 0.0 -1.271305232256e+02 
-9.745729394962e+01 1.745971085440e+00 0.0 
1.745971085440e+00 -2.424825119961e+02 0.0 
0.0 0.0 -1.015819417837e+02 
-1.038455072171e+02 1.043798907073e+00 0.0 
1.043798907073e+00 -2.357462992080e+02 0.0 
0.0 0.0 -1.014775419275e+02 
-1.219123771855e+02 6.320846728940e+00 0.0 
6.320846728940e+00 -2.915816092524e+02 0.0 
0.0 0.0 -1.236481959314e+02 
-3.002460864121e+01 -3.618383064010e-01 0.0 
-3.618383064010e-01 -7.751681495250e+01 0.0 
0.0 0.0 -3.186242707812e+01 
-1.204043646861e+02 1.248164024281e+00 0.0 
1.248164024281e+00 -2.767524167613e+02 0.0 
0.0 0.0 -1.187470344342e+02 
-1.346361825452e+02 2.413101737769e+00 0.0 
2.413101737769e+00 -3.112665645688e+02 0.0 
0.0 0.0 -1.333708241342e+02 
-9.529655013906e+01 1.133546515703e+00 0.0 
1.133546515703e+00 -2.142450554944e+02 0.0 
0.0 0.0 -9.246248169004e+01 
-2.558680304702e+01 -6.476457201321e-01 0.0 
-6.476457201321e-01 -6.431534194838e+01 0.0 
0.0 0.0 -2.657064349862e+01 
-9.191917061314e+01 4.222389369292e-01 0.0 
4.222389369292e-01 -2.085276127970e+02 0.0 
0.0 0.0 -8.973403502305e+01 
-1.425474665174e+02 4.618707841954e+00 0.0 
4.618707841954e+00 -3.402512759991e+02 0.0 
0.0 0.0 -1.444396227550e+02 
-1.192727453097e+02 2.346629426182e+00 0.0 
2.346629426182e+00 -2.717598488225e+02 0.0 
0.0 0.0 -1.169097782397e+02 
-4.746518960086e+01 -3.408845865854e-01 0.0 
-3.408845865854e-01 -1.202319374738e+02 0.0 
0.0 0.0 -4.990913812240e+01 
-8.732267758447e+01 5.188475842340e+00 0.0 
5.188475842340e+00 -2.168294475940e+02 0.0 
0.0 0.0 -9.084563755354e+01 
-8.129659369322e+01 5.404185651581e+00 0.0 
5.404185651581e+00 -1.804173800166e+02 0.0 
0.0 0.0 -7.811419211295e+01 
-7.155376192012e+01 1.023745698856e+00 0.0 
1.023745698856e+00 -1.559240046470e+02 0.0 
0.0 0.0 -6.784332997015e+01 
-1.328500600831e+02 9.726710993110e-01 0.0 
9.726710993110e-01 -3.084571318803e+02 0.0 
0.0 0.0 -1.319921575890e+02 
-9.039143371339e+01 6.910516481656e+00 0.0 
6.910516481656e+00 -2.123742402918e+02 0.0 
0.0 0.0 -9.042970220157e+01 
-1.298811090955e+02 5.923445781304e+00 0.0 
5.923445781304e+00 -3.111140832833e+02 0.0 
0.0 0.0 -1.318985577136e+02 
-1.041035075216e+02 5.406759447651e+00 0.0 
5.406759447651e+00 -2.542667968049e+02 0.0 
0.0 0.0 -1.071110912979e+02 
-5.098271591705e+01 -2.644190537181e-01 0.0 
-2.644190537181e-01 -1.289466650628e+02 0.0 
0.0 0.0 -5.357881429394e+01 
-1.322121132427e+02 2.880152380538e+00 0.0 
2.880152380538e+00 -3.189286735070e+02 0.0 
0.0 0.0 -1.349422360249e+02 
-8.464429243628e+01 6.496301444188e+00 0.0 
6.496301444188e+00 -2.058536113162e+02 0.0 
0.0 0.0 -8.674937112575e+01 
-1.283674226932e+02 1.450719825215e+00 0.0 
1.450719825215e+00 -2.963897414776e+02 0.0 
0.0 0.0 -1.270271492512e+02 
-1.168840655323e+02 5.792947288725e+00 0.0 
5.792947288725e+00 -2.665661624501e+02 0.0 
0.0 0.0 -1.146350683947e+02 
-6.722505861317e+01 5.551205747315e+00 0.0 
5.551205747315e+00 -1.702434548278e+02 0.0 
0.0 0.0 -7.084055403230e+01 
-1.236808855936e+02 1.895358470500e+00 0.0 
1.895358470500e+00 -2.837939834008e+02 0.0 
0.0 0.0 -1.218424606983e+02 
-8.603056118750e+01 3.148547674683e+00 0.0 
3.148547674683e+00 -2.167175717290e+02 0.0 
0.0 0.0 -9.042443987496e+01 
-1.265860395147e+02 6.603503474635e+00 0.0 
6.603503474635e+00 -3.008420499209e+02 0.0 
0.0 0.0 -1.278284268307e+02 
-7.831113471911e+01 3.615919452129e+00 0.0 
3.615919452129e+00 -1.708056775699e+02 0.0 
0.0 0.0 -7.433504368669e+01 
-1.012573533017e+02 5.374561949388e+00 0.0 
5.374561949388e+00 -2.280796285828e+02 0.0 
0.0 0.0 -9.840109456534e+01 
-1.099904733135e+02 4.184124000336e+00 0.0 
4.184124000336e+00 -2.473670425180e+02 0.0 
0.0 0.0 -1.068072547495e+02 
-9.608019860677e+01 6.364464071645e+00 0.0 
6.364464071645e+00 -2.196748044849e+02 0.0 
0.0 0.0 -9.432650092750e+01 
-1.116511685942e+02 3.010645364563e-01 0.0 
3.010645364563e-01 -2.730191394489e+02 0.0 
0.0 0.0 -1.150010924129e+02 
-1.280719742198e+02 3.067759244225e+00 0.0 
3.067759244225e+00 -3.100871175361e+02 0.0 
0.0 0.0 -1.310477275268e+02 
-2.920011535380e+01 1.755264010708e+00 0.0 
1.755264010708e+00 -8.027281596306e+01 0.0 
0.0 0.0 -3.244187939506e+01 
-5.975935260859e+01 7.045652224023e+00 0.0 
7.045652224023e+00 -1.338007551509e+02 0.0 
0.0 0.0 -5.766803232784e+01 
-1.036008532552e+02 1.350382960289e+00 0.0 
1.350382960289e+00 -2.341054113688e+02 0.0 
0.0 0.0 -1.009118793872e+02 
-1.316330867659e+02 6.737217115151e+00 0.0 
6.737217115151e+00 -3.050545664669e+02 0.0 
0.0 0.0 -1.306062959698e+02 
-1.362202140702e+02 1.579049645813e+00 0.0 
1.579049645813e+00 -3.158239238595e+02 0.0 
0.0 0.0 -1.352132413789e+02 
-7.338901769330e+01 5.224850112693e+00 0.0 
5.224850112693e+00 -1.611744198797e+02 0.0 
0.0 0.0 -6.996903127191e+01 
-1.274170778003e+02 2.417860565267e+00 0.0 
2.417860565267e+00 -3.085581142653e+02 0.0 
0.0 0.0 -1.303925576197e+02 
-1.312656605129e+02 2.103581330120e+00 0.0 
2.103581330120e+00 -3.029060859701e+02 0.0 
0.0 0.0 -1.298515239449e+02 
-8.477172841551e+01 1.026596025225e+00 0.0 
1.026596025225e+00 -2.130004091350e+02 0.0 
0.0 0.0 -8.893164126516e+01 
-3.575945228170e+01 -1.205431998712e-01 0.0 
-1.205431998712e-01 -9.055090785550e+01 0.0 
0.0 0.0 -3.749310804116e+01 
-2.191522704554e+01 6.205032182241e+00 0.0 
6.205032182241e+00 -6.125848472692e+01 0.0 
0.0 0.0 -2.455211353174e+01 
-5.120617047741e+01 5.265687537642e+00 0.0 
5.265687537642e+00 -1.338967474322e+02 0.0 
0.0 0.0 -5.513087537288e+01 
-8.576043592100e+01 6.943006853409e+00 0.0 
6.943006853409e+00 -2.039091491686e+02 0.0 
0.0 0.0 -8.650087552689e+01 
-9.302214812912e+01 1.328150119283e+00 0.0 
1.328150119283e+00 -2.321207017426e+02 0.0 
0.0 0.0 -9.714285496152e+01 
-1.389896744897e+02 3.414406764548e+00 0.0 
3.414406764548e+00 -3.216027368418e+02 0.0 
0.0 0.0 -1.377777233994e+02 
-1.315335217784e+02 2.210738251395e+00 0.0 
2.210738251395e+00 -3.172376598421e+02 0.0 
0.0 0.0 -1.342313544862e+02 
-1.203405613675e+02 4.286322538439e+00 0.0 
4.286322538439e+00 -2.927234357294e+02 0.0 
0.0 0.0 -1.235191991291e+02 
-1.102465480299e+01 7.151214545844e+00 0.0 
7.151214545844e+00 -2.082595876100e+01 0.0 
0.0 0.0 -9.155184069197e+00 
-7.522050904309e+01 1.395660030595e+00 0.0 
1.395660030595e+00 -1.640542331068e+02 0.0 
0.0 0.0 -7.138242264495e+01 
-1.356743325558e+02 1.995638718568e+00 0.0 
1.995638718568e+00 -3.259468312133e+02 0.0 
0.0 0.0 -1.380863491307e+02 
-9.107919099302e+01 4.755274014144e+00 0.0 
4.755274014144e+00 -2.263144875965e+02 0.0 
0.0 0.0 -9.481810357684e+01 
-1.303177677458e+02 6.481338324885e+00 0.0 
6.481338324885e+00 -3.102867379802e+02 0.0 
0.0 0.0 -1.317813517178e+02 
-8.989513230410e+01 1.251419952803e-01 0.0 
1.251419952803e-01 -2.229029472366e+02 0.0 
0.0 0.0 -9.343942386220e+01 
-1.437707428932e+02 7.199869684210e+00 0.0 
7.199869684210e+00 -3.343335344111e+02 0.0 
0.0 0.0 -1.430312831913e+02 
-5.857868079539e+01 1.963318749003e+00 0.0 
1.963318749003e+00 -1.247095096496e+02 0.0 
0.0 0.0 -5.458645713349e+01 
-1.398733324914e+02 1.759674480253e+00 0.0 
1.759674480253e+00 -3.349114266561e+02 0.0 
0.0 0.0 -1.420354277443e+02 
-1.207170214628e+02 4.992067529662e+00 0.0 
4.992067529662e+00 -2.925990810848e+02 0.0 
0.0 0.0 -1.235948307643e+02 
-5.314936906549e+01 7.890864160665e+00 0.0 
7.890864160665e+00 -1.281919996825e+02 0.0 
0.0 0.0 -5.400241062440e+01 
-7.653988009801e+01 1.510004900976e-02 0.0 
1.510004900976e-02 -1.733018542378e+02 0.0 
0.0 0.0 -7.455252030074e+01 
-1.502756616905e+02 1.879120376377e+00 0.0 
1.879120376377e+00 -3.566901111789e+02 0.0 
0.0 0.0 -1.516897318608e+02 
-1.296370790593e+02 5.278724541139e+00 0.0 
5.278724541139e+00 -3.119048098506e+02 0.0 
0.0 0.0 -1.320625666730e+02 
-1.039555074504e+02 6.391593464233e+00 0.0 
6.391593464233e+00 -2.387322172393e+02 0.0 
0.0 0.0 -1.024063174069e+02 
-8.657524702538e+01 4.152609331388e+00 0.0 
4.152609331388e+00 -2.170426402209e+02 0.0 
0.0 0.0 -9.068536617390e+01 
-6.320618268894e+01 1.103484074435e+00 0.0 
1.103484074435e+00 -1.362496193647e+02 0.0 
0.0 0.0 -5.943674061608e+01 
-9.691733537121e+01 1.227811536948e+00 0.0 
1.227811536948e+00 -2.407862084539e+02 0.0 
0.0 0.0 -1.009110631475e+02 
-1.054528483268e+02 5.115975090961e+00 0.0 
5.115975090961e+00 -2.375291574003e+02 0.0 
0.0 0.0 -1.024946017181e+02 
-1.458727415843e+02 2.903028472161e+00 0.0 
2.903028472161e+00 -3.397962925461e+02 0.0 
0.0 0.0 -1.453007102391e+02 
-1.338686718385e+02 5.767835855337e+00 0.0 
5.767835855337e+00 -3.204768439884e+02 0.0 
0.0 0.0 -1.359036547481e+02 
-1.069895910345e+02 2.518354832988e+00 0.0 
2.518354832988e+00 -2.403090178538e+02 0.0 
0.0 0.0 -1.037895826665e+02 
-9.245963974842e+01 8.893916023568e-01 0.0 
8.893916023568e-01 -2.302671096711e+02 0.0 
0.0 0.0 -9.641802482585e+01 
-1.103701139413e+02 6.708327138086e+00 0.0 
6.708327138086e+00 -2.609131482505e+02 0.0 
0.0 0.0 -1.109849786576e+02 
-2.006743017162e+01 -3.490010514642e-01 0.0 
-3.490010514642e-01 -5.017076580307e+01 0.0 
0.0 0.0 -2.067145879241e+01 
-6.702285603792e+01 1.607254710024e+00 0.0 
1.607254710024e+00 -1.445220887017e+02 0.0 
0.0 0.0 -6.306348342190e+01 
-9.627107860132e+01 8.193756982685e-01 0.0 
8.193756982685e-01 -2.388118837214e+02 0.0 
0.0 0.0 -1.001248886968e+02 
-5.495697773675e+01 4.536486679079e+00 0.0 
4.536486679079e+00 -1.435704306703e+02 0.0 
0.0 0.0 -5.915822252211e+01 
-9.039326713123e+01 3.769581561408e+00 0.0 
3.769581561408e+00 -2.262049438688e+02 0.0 
0.0 0.0 -9.457946330002e+01 
-1.437646523567e+02 7.380938167146e+00 0.0 
7.380938167146e+00 -3.376209683429e+02 0.0 
0.0 0.0 -1.440156862099e+02 
-1.000927652453e+02 7.346080811527e-01 0.0 
7.346080811527e-01 -2.473649269818e+02 0.0 
0.0 0.0 -1.038373076681e+02 
-6.288009620687e+01 4.783468444317e+00 0.0 
4.783468444317e+00 -1.616978465379e+02 0.0 
0.0 0.0 -6.697338282343e+01 
-1.039144866604e+02 6.306956338090e-01 0.0 
6.306956338090e-01 -2.558756335230e+02 0.0 
0.0 0.0 -1.075370360550e+02 
-5.484332526104e+01 1.291084828218e+00 0.0 
1.291084828218e+00 -1.166883437362e+02 0.0 
0.0 0.0 -5.105950069918e+01 
-1.107921816532e+02 2.985970958375e+00 0.0 
2.985970958375e+00 -2.494107270637e+02 0.0 
0.0 0.0 -1.076608726151e+02 
-1.077614104659e+02 5.153301623747e-01 0.0 
5.153301623747e-01 -2.643279068317e+02 0.0 
0.0 0.0 -1.112267951893e+02 
-1.132377043135e+02 5.366733591741e+00 0.0 
5.366733591741e+00 -2.567546712180e+02 0.0 
0.0 0.0 -1.105977126595e+02 
-2.099890310630e+01 -4.524028519090e-01 0.0 
-4.524028519090e-01 -5.248530812023e+01 0.0 
0.0 0.0 -2.164526336796e+01 
-1.074173140889e+02 6.609001270000e+00 0.0 
6.609001270000e+00 -2.487805229125e+02 0.0 
0.0 0.0 -1.064593511004e+02 
-1.385147066927e+02 5.297585484219e-01 0.0 
5.297585484219e-01 -3.316066858982e+02 0.0 
0.0 0.0 -1.406364177773e+02 
-6.143228547874e+01 5.062108193848e-01 0.0 
5.062108193848e-01 -1.579630899226e+02 0.0 
0.0 0.0 -6.541861262040e+01 
-9.429778367453e+01 3.433276845300e+00 0.0 
3.433276845300e+00 -2.353626370494e+02 0.0 
0.0 0.0 -9.849812621719e+01 
-1.186863339908e+02 3.362338698264e+00 0.0 
3.362338698264e+00 -2.690398936537e+02 0.0 
0.0 0.0 -1.159178682933e+02 
-4.622755987578e+01 1.709998994065e+00 0.0 
1.709998994065e+00 -9.688530310753e+01 0.0 
0.0 0.0 -4.253385889499e+01 
-1.027630612250e+02 3.709101606505e+00 0.0 
3.709101606505e+00 -2.542268961462e+02 0.0 
0.0 0.0 -1.066969872114e+02 
-1.210087452061e+02 5.625940165460e+00 0.0 
5.625940165460e+00 -2.760708105044e+02 0.0 
0.0 0.0 -1.187238667132e+02 
-1.109898339225e+02 6.706632026336e+00 0.0 
6.706632026336e+00 -2.589881736627e+02 0.0 
0.0 0.0 -1.105934022756e+02 
-9.388018741299e+01 6.805907212968e+00 0.0 
6.805907212968e+00 -2.227521868849e+02 0.0 
0.0 0.0 -9.458971228935e+01 
-1.114552084321e+02 3.986787703297e+00 0.0 
3.986787703297e+00 -2.733807651952e+02 0.0 
0.0 0.0 -1.150507920882e+02 
-4.991974222213e+01 2.513947192088e+00 0.0 
2.513947192088e+00 -1.047902789028e+02 0.0 
0.0 0.0 -4.601300633749e+01 
-4.559284324138e+01 -4.851379075903e-01 0.0 
-4.851379075903e-01 -1.170001191939e+02 0.0 
0.0 0.0 -4.837788873057e+01 
-3.821590253191e+01 -6.655038422292e-01 0.0 
-6.655038422292e-01 -9.783862370262e+01 0.0 
0.0 0.0 -4.041635787036e+01 
-6.661259957232e+01 4.191032246456e+00 0.0 
4.191032246456e+00 -1.711023040009e+02 0.0 
0.0 0.0 -7.091447107198e+01 
-1.251071003048e+02 5.461544229261e+00 0.0 
5.461544229261e+00 -2.857559326511e+02 0.0 
0.0 0.0 -1.228589098868e+02 
-2.631502070196e+01 -1.508097946416e-01 0.0 
-1.508097946416e-01 -6.662129069579e+01 0.0 
0.0 0.0 -2.748089341933e+01 
-1.182526679428e+02 3.948234116894e+00 0.0 
3.948234116894e+00 -2.676743006718e+02 0.0 
0.0 0.0 -1.153780905844e+02 
-2.796918277334e+01 -7.983658560197e-01 0.0 
-7.983658560197e-01 -7.054669512679e+01 0.0 
0.0 0.0 -2.915476337004e+01 
-6.249392971642e+01 3.362840586897e+00 0.0 
3.362840586897e+00 -1.621280113392e+02 0.0 
0.0 0.0 -6.698658231669e+01 
-1.233285184463e+02 6.838967385641e+00 0.0 
6.838967385641e+00 -2.893554470310e+02 0.0 
0.0 0.0 -1.234051896432e+02 
-9.917540127291e+01 2.544842644309e-01 0.0 
2.544842644309e-01 -2.270643362075e+02 0.0 
0.0 0.0 -9.747192124414e+01 
-6.622519980203e+01 2.893338801576e+00 0.0 
2.893338801576e+00 -1.710272330574e+02 0.0 
0.0 0.0 -7.077572985784e+01 
-4.353023118541e+01 -1.308346546328e-01 0.0 
-1.308346546328e-01 -1.100089071523e+02 0.0 
0.0 0.0 -4.566174150132e+01 
-6.221926290295e+01 2.123481306461e+00 0.0 
2.123481306461e+00 -1.615582891481e+02 0.0 
0.0 0.0 -6.673326561530e+01 
-1.020596789087e+02 6.717517333243e+00 0.0 
6.717517333243e+00 -2.417041992525e+02 0.0 
0.0 0.0 -1.027291634483e+02 
-6.592767045952e+01 1.814976207363e+00 0.0 
1.814976207363e+00 -1.701481106625e+02 0.0 
0.0 0.0 -7.042273433662e+01 
-6.195596373285e+01 1.175469053127e+00 0.0 
1.175469053127e+00 -1.602325290204e+02 0.0 
0.0 0.0 -6.625654782598e+01 
-1.372928269616e+02 9.331505070729e-01 0.0 
9.331505070729e-01 -3.195145645465e+02 0.0 
0.0 0.0 -1.366422174524e+02 
-6.555687653168e+01 9.946194700909e-01 0.0 
9.946194700909e-01 -1.684964363264e+02 0.0 
0.0 0.0 -6.981599385743e+01 
-1.448404281699e+02 3.168951928507e-01 0.0 
3.168951928507e-01 -3.379991145821e+02 0.0 
0.0 0.0 -1.444518628256e+02 
-1.583152199099e+02 6.553422955361e-01 0.0 
6.553422955361e-01 -3.731716371179e+02 0.0 
0.0 0.0 -1.590460571083e+02 
-8.280029304033e+01 1.675606250994e-01 0.0 
1.675606250994e-01 -1.882239830062e+02 0.0 
0.0 0.0 -8.090728281395e+01 
-3.680917362476e+01 1.822934473912e+00 0.0 
1.822934473912e+00 -7.624920257773e+01 0.0 
0.0 0.0 -3.351751286075e+01 
-1.188173663332e+01 2.770841899609e-02 0.0 
2.770841899609e-02 -1.712470719302e+01 0.0 
0.0 0.0 -8.566485677334e+00 
-4.169271480425e+01 3.855383523986e+00 0.0 
3.855383523986e+00 -8.548346171582e+01 0.0 
0.0 0.0 -3.775285295602e+01 
-5.393942662550e+01 1.474289971258e-01 0.0 
1.474289971258e-01 -1.393300602591e+02 0.0 
0.0 0.0 -5.758084606537e+01 
-1.176750524320e+02 4.519971056751e+00 0.0 
4.519971056751e+00 -2.665209594831e+02 0.0 
0.0 0.0 -1.148588035745e+02 
-8.319650654431e+01 2.399600030749e-02 0.0 
2.399600030749e-02 -1.889875625465e+02 0.0 
0.0 0.0 -8.125522072723e+01 
-4.985817815794e+01 -2.346456756990e-01 0.0 
-2.346456756990e-01 -1.283905383122e+02 0.0 
0.0 0.0 -5.307461494104e+01 
-1.413854843274e+02 5.152434849934e+00 0.0 
5.152434849934e+00 -3.268900868143e+02 0.0 
0.0 0.0 -1.400826713425e+02 
-1.512213330271e+02 7.911759368099e+00 0.0 
7.911759368099e+00 -3.534855040797e+02 0.0 
0.0 0.0 -1.510120511320e+02 
-1.110329914098e+02 2.299418035895e-01 0.0 
2.299418035895e-01 -2.555178726724e+02 0.0 
0.0 0.0 -1.095652592247e+02 
-1.339166915021e+02 6.294473269267e+00 0.0 
6.294473269267e+00 -3.191574414452e+02 0.0 
0.0 0.0 -1.355222398842e+02 
-1.148936940247e+02 6.748721409554e+00 0.0 
6.748721409554e+00 -2.697543643890e+02 0.0 
0.0 0.0 -1.149944175241e+02 
-1.300157670624e+02 2.101813940562e-01 0.0 
2.101813940562e-01 -3.020030550100e+02 0.0 
0.0 0.0 -1.292056466217e+02 
-7.626208997709e+01 3.097697854029e-01 0.0 
3.097697854029e-01 -1.719232159971e+02 0.0 
0.0 0.0 -7.405559179226e+01 
-1.466949852075e+01 -7.381299535294e-01 0.0 
-7.381299535294e-01 -3.292916616541e+01 0.0 
0.0 0.0 -1.400262658133e+01 
-1.161557124421e+02 1.573238968992e-01 0.0 
1.573238968992e-01 -2.829951456647e+02 0.0 
0.0 0.0 -1.193452574320e+02 
-2.800003551659e+01 2.593417931679e+00 0.0 
2.593417931679e+00 -5.628293107362e+01 0.0 
0.0 0.0 -2.488488997706e+01 
-3.093585080150e+01 5.271913676797e+00 0.0 
5.271913676797e+00 -6.204089549413e+01 0.0 
0.0 0.0 -2.749302388869e+01 
-2.244657359755e+01 7.778150129560e+00 0.0 
7.778150129560e+00 -4.647694621112e+01 0.0 
0.0 0.0 -2.027705594260e+01 
-5.364457677575e+01 -2.108953862711e-01 0.0 
-2.108953862711e-01 -1.358195673139e+02 0.0 
0.0 0.0 -5.643924322690e+01 
-2.038910287585e+01 -8.293425007044e-01 0.0 
-8.293425007044e-01 -4.908665871523e+01 0.0 
0.0 0.0 -2.044272847732e+01 
-2.165527123207e+01 4.163012118909e+00 0.0 
4.163012118909e+00 -4.144749535210e+01 0.0 
0.0 0.0 -1.853082997525e+01 
-1.460259596380e+02 7.077576859378e+00 0.0 
7.077576859378e+00 -3.450120617064e+02 0.0 
0.0 0.0 -1.469114064033e+02 
-8.441198304883e+01 5.890747651891e-01 0.0 
5.890747651891e-01 -1.896035283708e+02 0.0 
0.0 0.0 -8.180465342590e+01 
-1.274024793811e+02 6.959558968091e+00 0.0 
6.959558968091e+00 -2.976494460714e+02 0.0 
0.0 0.0 -1.271155776358e+02 
-1.396460663070e+01 6.636536004230e+00 0.0 
6.636536004230e+00 -2.598575966665e+01 0.0 
0.0 0.0 -1.158510988921e+01 
-1.386589256047e+02 2.393889723092e+00 0.0 
2.393889723092e+00 -3.217075873542e+02 0.0 
0.0 0.0 -1.377099538877e+02 
-1.445672955138e+02 7.512968204007e+00 0.0 
7.512968204007e+00 -3.384253653916e+02 0.0 
0.0 0.0 -1.444977982716e+02 
-1.582534823166e+02 3.597357010201e+00 0.0 
3.597357010201e+00 -3.731215901955e+02 0.0 
0.0 0.0 -1.590125217536e+02 
-1.356702184193e+02 7.166804774776e+00 0.0 
7.166804774776e+00 -3.172064381029e+02 0.0 
0.0 0.0 -1.354629969567e+02 
-1.532505268375e+01 7.987648960899e+00 0.0 
7.987648960899e+00 -3.787583903403e+01 0.0 
0.0 0.0 -1.556026751533e+01 
-9.233661497825e+01 1.224875335677e+00 0.0 
1.224875335677e+00 -2.064206694866e+02 0.0 
0.0 0.0 -8.922718533945e+01 
-1.428979584421e+02 6.663455269014e+00 0.0 
6.663455269014e+00 -3.316262134063e+02 0.0 
0.0 0.0 -1.419572515545e+02 
-1.175788317377e+02 3.179609385101e-01 0.0 
3.179609385101e-01 -2.710327919992e+02 0.0 
0.0 0.0 -1.161834871211e+02 
-1.593154155636e+02 2.556940813513e+00 0.0 
2.556940813513e+00 -3.750651620212e+02 0.0 
0.0 0.0 -1.599141732754e+02 
-8.390454559164e+01 5.500915399599e-01 0.0 
5.500915399599e-01 -1.873864610600e+02 0.0 
0.0 0.0 -8.098730199548e+01 
-1.382733277115e+02 5.465606154884e-01 0.0 
5.465606154884e-01 -3.220472499787e+02 0.0 
0.0 0.0 -1.376961733071e+02 
-2.644224421639e+01 7.141477986729e-01 0.0 
7.141477986729e-01 -7.129235652218e+01 0.0 
0.0 0.0 -2.892038022157e+01 
-1.383335424473e+02 2.312338516264e-01 0.0 
2.312338516264e-01 -3.222454276375e+02 0.0 
0.0 0.0 -1.377736910254e+02 
-1.253993955771e+02 4.890484647702e+00 0.0 
4.890484647702e+00 -2.859980169223e+02 0.0 
0.0 0.0 -1.230192237498e+02 
-9.350723513556e+01 1.162764125738e-01 0.0 
1.162764125738e-01 -2.129482552015e+02 0.0 
0.0 0.0 -9.153664710111e+01 
-9.246216790211e+01 1.345476056251e+00 0.0 
1.345476056251e+00 -2.058217554458e+02 0.0 
0.0 0.0 -8.908517700437e+01 
-1.522894457091e+02 9.239996580826e-01 0.0 
9.239996580826e-01 -3.605172434347e+02 0.0 
0.0 0.0 -1.534420067431e+02 
-1.404113300294e+02 4.461080297888e+00 0.0 
4.461080297888e+00 -3.250116820493e+02 0.0 
0.0 0.0 -1.392269036236e+02 
-1.323606437373e+01 6.100169277067e+00 0.0 
6.100169277067e+00 -3.416435765753e+01 0.0 
0.0 0.0 -1.382012660938e+01 
-1.107680941823e+02 1.179956253752e-01 0.0 
1.179956253752e-01 -2.544462965272e+02 0.0 
0.0 0.0 -1.091643172129e+02 
-6.706608143772e+01 2.179244355295e-02 0.0 
2.179244355295e-02 -1.690200938625e+02 0.0 
0.0 0.0 -7.042585259008e+01 
-1.489418841793e+01 -2.368713555431e-01 0.0 
-2.368713555431e-01 -3.107266852641e+01 0.0 
0.0 0.0 -1.358249685426e+01 
-1.496956950492e+02 3.927788918112e+00 0.0 
3.927788918112e+00 -3.555612077119e+02 0.0 
0.0 0.0 -1.511770708283e+02 
-1.325759336445e+02 5.220815243893e+00 0.0 
5.220815243893e+00 -3.045035978256e+02 0.0 
0.0 0.0 -1.307238594410e+02 
-1.513916256391e+02 1.434759511968e+00 0.0 
1.434759511968e+00 -3.590499212905e+02 0.0 
0.0 0.0 -1.527324640789e+02 
-1.958496217740e+01 -2.306589319711e-01 0.0 
-2.306589319711e-01 -4.970483876393e+01 0.0 
0.0 0.0 -2.038694028240e+01 
-1.350894841202e+01 -6.966094075830e-01 0.0 
-6.966094075830e-01 -3.108388177549e+01 0.0 
0.0 0.0 -1.305976754610e+01 
-1.504212423777e+02 4.905034416957e+00 0.0 
4.905034416957e+00 -3.568192425419e+02 0.0 
0.0 0.0 -1.517721454759e+02 
-1.428582401706e+02 5.890430549783e+00 0.0 
5.890430549783e+00 -3.308754017853e+02 0.0 
0.0 0.0 -1.417200925868e+02 
-3.041138609666e+01 3.989455049849e-01 0.0 
3.989455049849e-01 -8.068255551779e+01 0.0 
0.0 0.0 -3.292818248433e+01 
-1.463605433752e+02 2.030462260967e+00 0.0 
2.030462260967e+00 -3.415650074690e+02 0.0 
0.0 0.0 -1.459776652533e+02 
-1.103212827836e+01 4.079499930782e+00 0.0 
4.079499930782e+00 -2.462803199837e+01 0.0 
0.0 0.0 -1.037985206807e+01 
-7.570079230057e+01 9.940563805265e-02 0.0 
9.940563805265e-02 -1.698772262359e+02 0.0 
0.0 0.0 -7.327340556095e+01 
-1.348938442641e+01 -3.466181225563e-01 0.0 
-3.466181225563e-01 -3.228095323266e+01 0.0 
0.0 0.0 -1.350687090239e+01 
-1.593847477278e+02 2.360554243421e+00 0.0 
2.360554243421e+00 -3.751753657263e+02 0.0 
0.0 0.0 -1.599680340362e+02 
-1.389065788529e+02 1.380876719013e+00 0.0 
1.380876719013e+00 -3.232103465136e+02 0.0 
0.0 0.0 -1.382350776099e+02 
-7.422000864242e+01 -1.307398408654e-01 0.0 
-1.307398408654e-01 -1.860405543296e+02 0.0 
0.0 0.0 -7.767816889159e+01 
-7.943912724469e+01 7.203314405677e-01 0.0 
7.203314405677e-01 -1.754029640145e+02 0.0 
0.0 0.0 -7.605262737775e+01 
-4.877701721589e+01 -2.398017421917e-01 0.0 
-2.398017421917e-01 -1.232485699519e+02 0.0 
0.0 0.0 -5.120767615035e+01 
-1.382155404124e+02 6.827395115421e+00 0.0 
6.827395115421e+00 -3.213297072099e+02 0.0 
0.0 0.0 -1.374635742867e+02 
-1.936167751313e+01 -9.083677590404e-01 0.0 
-9.083677590404e-01 -4.613806782135e+01 0.0 
0.0 0.0 -1.924992360034e+01 
-1.394816502951e+02 1.147371732132e+00 0.0 
1.147371732132e+00 -3.249478780118e+02 0.0 
0.0 0.0 -1.389288584921e+02 
-1.500582267477e+02 5.812649859755e+00 0.0 
5.812649859755e+00 -3.555806464308e+02 0.0 
0.0 0.0 -1.512916619536e+02 
-1.408813705758e+02 3.184705259684e+00 0.0 
3.184705259684e+00 -3.267668705377e+02 0.0 
0.0 0.0 -1.398944723340e+02 
-1.550038532559e+02 7.910618778093e+00 0.0 
7.910618778093e+00 -3.637570847178e+02 0.0 
0.0 0.0 -1.552282813921e+02 
-1.335973432557e+01 8.743844192099e-01 0.0 
8.743844192099e-01 -2.878769631374e+01 0.0 
0.0 0.0 -1.234608349872e+01 
-1.462449105978e+02 7.643879055070e+00 0.0 
7.643879055070e+00 -3.418815623950e+02 0.0 
0.0 0.0 -1.460379418979e+02 
-1.412261555894e+02 5.919610307902e+00 0.0 
5.919610307902e+00 -3.363585080137e+02 0.0 
0.0 0.0 -1.428753990809e+02 
-7.597438724505e+01 -1.341447887837e-01 0.0 
-1.341447887837e-01 -1.717231175758e+02 0.0 
0.0 0.0 -7.390925144626e+01 
-1.403579274894e+02 3.646554481388e+00 0.0 
3.646554481388e+00 -3.249078304488e+02 0.0 
0.0 0.0 -1.391797273815e+02 
-6.006291674323e+01 -2.451333007151e-01 0.0 
-2.451333007151e-01 -1.514425805932e+02 0.0 
0.0 0.0 -6.305164920093e+01 
-2.621959974171e+01 -3.395284884781e-01 0.0 
-3.395284884781e-01 -6.567339289997e+01 0.0 
0.0 0.0 -2.716789779251e+01 
-1.456934569314e+02 2.436021959875e-01 0.0 
2.436021959875e-01 -3.400544757843e+02 0.0 
0.0 0.0 -1.453243798147e+02 
-6.085224559554e+00 -4.629299718392e-03 0.0 
-4.629299718392e-03 -1.411638978589e+01 0.0 
0.0 0.0 -5.972835378299e+00 
-7.526314335666e+01 9.527981808302e-02 0.0 
9.527981808302e-02 -1.706080163957e+02 0.0 
0.0 0.0 -7.336134792572e+01 
-1.603878965597e+02 1.277949533504e-01 0.0 
1.277949533504e-01 -3.773989948477e+02 0.0 
0.0 0.0 -1.609360674222e+02 
-2.507543562814e+01 -3.267380233307e-01 0.0 
-3.267380233307e-01 -6.276927280913e+01 0.0 
0.0 0.0 -2.595341253118e+01 
-8.895881709178e+01 1.759398714439e-01 0.0 
1.759398714439e-01 -2.025757626590e+02 0.0 
0.0 0.0 -8.706037392524e+01 
-1.429094190549e+02 5.615932135500e+00 0.0 
5.615932135500e+00 -3.307974885889e+02 0.0 
0.0 0.0 -1.417120722931e+02 
-9.192540623021e+01 2.196086167954e-02 0.0 
2.196086167954e-02 -2.278995816429e+02 0.0 
0.0 0.0 -9.554749636194e+01 
-1.254820300554e+02 4.686503072159e-01 0.0 
4.686503072159e-01 -2.907711328664e+02 0.0 
0.0 0.0 -1.244759488765e+02 
-2.456611431248e+01 -6.825833997699e-01 0.0 
-6.825833997699e-01 -6.160516164304e+01 0.0 
0.0 0.0 -2.545138278666e+01 
-1.146296277479e+01 -3.107870465359e-01 0.0 
-3.107870465359e-01 -1.454034413082e+01 0.0 
0.0 0.0 -7.818264709215e+00 
-1.035229132689e+02 2.926494417440e-01 0.0 
2.926494417440e-01 -2.373673993708e+02 0.0 
0.0 0.0 -1.018670937919e+02 
-1.463853136823e+02 7.462884521367e+00 0.0 
7.462884521367e+00 -3.435036757185e+02 0.0 
0.0 0.0 -1.465666968202e+02 
-1.408555498084e+02 2.694107832762e+00 0.0 
2.694107832762e+00 -3.271799250053e+02 0.0 
0.0 0.0 -1.400106424441e+02 
-9.796108397959e+01 7.646018010834e-02 0.0 
7.646018010834e-02 -2.237217682235e+02 0.0 
0.0 0.0 -9.610485566094e+01 
-1.716485595299e+01 5.821879122273e+00 0.0 
5.821879122273e+00 -4.753268673105e+01 0.0 
0.0 0.0 -1.900926280521e+01 
-1.384915088646e+02 5.475795538816e+00 0.0 
5.475795538816e+00 -3.196174698784e+02 0.0 
0.0 0.0 -1.370326936229e+02 
-8.054388264269e+01 1.021126744891e-01 0.0 
1.021126744891e-01 -2.007710299332e+02 0.0 
0.0 0.0 -8.399447377277e+01 
-1.382547510155e+02 6.628114698557e+00 0.0 
6.628114698557e+00 -3.201785865936e+02 0.0 
0.0 0.0 -1.371300012827e+02 
-1.407226148120e+02 6.661882090938e+00 0.0 
6.661882090938e+00 -3.341148969851e+02 0.0 
0.0 0.0 -1.420512535391e+02 
-9.459750963475e+00 4.099257189259e+00 0.0 
4.099257189259e+00 -1.249478821076e+01 0.0 
0.0 0.0 -6.453440729376e+00 
-9.919765043275e+01 2.016237554741e-03 0.0 
2.016237554741e-03 -2.447843500926e+02 0.0 
0.0 0.0 -1.027946001576e+02 
-1.293590221861e+01 -3.263478803031e-01 0.0 
-3.263478803031e-01 -3.024712762194e+01 0.0 
0.0 0.0 -1.265646050167e+01 
-1.524102108037e+02 3.187010741731e+00 0.0 
3.187010741731e+00 -3.612197510665e+02 0.0 
0.0 0.0 -1.536889885611e+02 
-8.396354531044e+01 1.420812294922e-01 0.0 
1.420812294922e-01 -2.091842037044e+02 0.0 
0.0 0.0 -8.754432470446e+01 
-3.133477807147e+00 1.297663435442e+00 0.0 
1.297663435442e+00 -7.644140770463e+00 0.0 
0.0 0.0 -2.667935397241e+00 
-6.848425044049e+00 8.604384634553e-02 0.0 
8.604384634553e-02 -1.045488277836e+01 0.0 
0.0 0.0 -4.790992346722e+00 
-1.385184703617e+01 1.485680795331e+00 0.0 
1.485680795331e+00 -2.830383638535e+01 0.0 
0.0 0.0 -1.224670502646e+01 
-1.436046094096e+01 -2.212784432123e-02 0.0 
-2.212784432123e-02 -2.894716445831e+01 0.0 
0.0 0.0 -1.259228761978e+01 
-2.368494896923e+01 1.210638765165e+00 0.0 
1.210638765165e+00 -4.813088125662e+01 0.0 
0.0 0.0 -2.114474906775e+01 
-2.321099930422e+01 -2.009842610568e-02 0.0 
-2.009842610568e-02 -4.961067733703e+01 0.0 
0.0 0.0 -2.144650299237e+01 
-3.302351578792e+01 9.166237437889e-01 0.0 
9.166237437889e-01 -6.786902101146e+01 0.0 
0.0 0.0 -2.986776103981e+01 
-3.117171700452e+01 -1.163412439272e-02 0.0 
-1.163412439272e-02 -6.806201232714e+01 0.0 
0.0 0.0 -2.937011879950e+01 
-4.171970964194e+01 7.616714292541e-01 0.0 
7.616714292541e-01 -8.735666145541e+01 0.0 
0.0 0.0 -3.832291132921e+01 
-4.010494250084e+01 -9.210550021576e-03 0.0 
-9.210550021576e-03 -8.872003968699e+01 0.0 
0.0 0.0 -3.824749465635e+01 
-5.037144776900e+01 6.436887005494e-01 0.0 
6.436887005494e-01 -1.069392921758e+02 0.0 
0.0 0.0 -4.679322198343e+01 
-4.807752195933e+01 -1.228539578934e-03 0.0 
-1.228539578934e-03 -1.071919865332e+02 0.0 
0.0 0.0 -4.618085254777e+01 
-5.880158200321e+01 6.134821893524e-01 0.0 
6.134821893524e-01 -1.264203429957e+02 0.0 
0.0 0.0 -5.516657749967e+01 
-5.700939210730e+01 -4.657077656750e-02 0.0 
-4.657077656750e-02 -1.278645308748e+02 0.0 
0.0 0.0 -5.506217689464e+01 
-6.711935777103e+01 6.340526593075e-01 0.0 
6.340526593075e-01 -1.460088415083e+02 0.0 
0.0 0.0 -6.353845978379e+01 
-6.478874148896e+01 -1.543693211333e-01 0.0 
-1.543693211333e-01 -1.462784292504e+02 0.0 
0.0 0.0 -6.292015122180e+01 

TENSORS node_materi_strain_total float
-1.249605756870e-06 2.455783493735e-07 0.0 
2.455783493735e-07 1.601211421065e-05 0.0 
0.0 0.0 0.0 
-2.667537405113e-05 -2.606828386998e-06 0.0 
-2.606828386998e-06 9.234627572353e-04 0.0 
0.0 0.0 0.0 
4.226937899476e-06 4.574263360690e-06 0.0 
4.574263360690e-06 1.236385016844e-03 0.0 
0.0 0.0 0.0 
-1.577517097340e-06 -1.192172299311e-06 0.0 
-1.192172299311e-06 1.515639576639e-03 0.0 
0.0 0.0 0.0 
7.645225943801e-07 -6.809983891609e-07 0.0 
-6.809983891609e-07 4.601210524561e-05 0.0 
0.0 0.0 0.0 
5.641181380245e-06 1.717512150168e-06 0.0 
1.717512150168e-06 1.056650612667e-04 0.0 
0.0 0.0 0.0 
1.253696730415e-05 1.806990773649e-06 0.0 
1.806990773649e-06 1.607884056171e-04 0.0 
0.0 0.0 0.0 
1.847111728777e-05 1.694001147045e-06 0.0 
1.694001147045e-06 2.238021396127e-04 0.0 
0.0 0.0 0.0 
2.415491273082e-05 1.305570984375e-06 0.0 
1.305570984375e-06 2.848783144094e-04 0.0 
0.0 0.0 0.0 
3.020694160938e-05 1.275184800638e-06 0.0 
1.275184800638e-06 3.450893779990e-04 0.0 
0.0 0.0 0.0 
3.534351043307e-05 1.486050670058e-06 0.0 
1.486050670058e-06 4.057489319143e-04 0.0 
0.0 0.0 0.0 
3.954903087104e-05 1.449325524068e-06 0.0 
1.449325524068e-06 4.670211451579e-04 0.0 
0.0 0.0 0.0 
4.301366595860e-05 1.598647572117e-06 0.0 
1.598647572117e-06 5.288947481400e-04 0.0 
0.0 0.0 0.0 
4.499862653481e-05 2.171216543198e-06 0.0 
2.171216543198e-06 5.923749935381e-04 0.0 
0.0 0.0 0.0 
4.536294131426e-05 3.287110702419e-06 0.0 
3.287110702419e-06 6.585965564639e-04 0.0 
0.0 0.0 0.0 
4.623625805422e-05 3.553099100018e-06 0.0 
3.553099100018e-06 7.229220899346e-04 0.0 
0.0 0.0 0.0 
4.604835992080e-05 4.776559269594e-06 0.0 
4.776559269594e-06 7.820899225551e-04 0.0 
0.0 0.0 0.0 
4.330188303747e-05 2.560715168048e-06 0.0 
2.560715168048e-06 8.487589990642e-04 0.0 
0.0 0.0 0.0 
3.943500994759e-05 2.651655650335e-06 0.0 
2.651655650335e-06 9.180089155831e-04 0.0 
0.0 0.0 0.0 
3.432713453718e-05 2.861019784516e-06 0.0 
2.861019784516e-06 9.860894799496e-04 0.0 
0.0 0.0 0.0 
2.761437420551e-05 2.880196023602e-06 0.0 
2.880196023602e-06 1.055809454443e-03 0.0 
0.0 0.0 0.0 
1.932309161072e-05 3.480790699495e-06 0.0 
3.480790699495e-06 1.127120231222e-03 0.0 
0.0 0.0 0.0 
1.142262088464e-05 4.117024502113e-06 0.0 
4.117024502113e-06 1.195833908521e-03 0.0 
0.0 0.0 0.0 
-9.119262921094e-07 2.535009251759e-06 0.0 
2.535009251759e-06 1.518676845904e-03 0.0 
0.0 0.0 0.0 
-1.486745315601e-06 4.824438376020e-06 0.0 
4.824438376020e-06 1.515487453338e-03 0.0 
0.0 0.0 0.0 
-1.430595336231e-06 5.802584842225e-06 0.0 
5.802584842225e-06 1.516133850808e-03 0.0 
0.0 0.0 0.0 
-1.550662938388e-06 1.043516534517e-05 0.0 
1.043516534517e-05 1.515724228273e-03 0.0 
0.0 0.0 0.0 
-1.888468820802e-06 1.201883849666e-05 0.0 
1.201883849666e-05 1.513350585079e-03 0.0 
0.0 0.0 0.0 
-1.569920457523e-06 1.507325219581e-05 0.0 
1.507325219581e-05 1.514683343629e-03 0.0 
0.0 0.0 0.0 
-1.400064452188e-06 1.815598434170e-05 0.0 
1.815598434170e-05 1.514283006752e-03 0.0 
0.0 0.0 0.0 
-1.998204016362e-06 2.118991847633e-05 0.0 
2.118991847633e-05 1.512409125316e-03 0.0 
0.0 0.0 0.0 
-1.865705281157e-06 2.376027154226e-05 0.0 
2.376027154226e-05 1.513292880787e-03 0.0 
0.0 0.0 0.0 
-1.920374720021e-06 2.896846149143e-05 0.0 
2.896846149143e-05 1.511657902915e-03 0.0 
0.0 0.0 0.0 
-2.517722375880e-06 3.191262369864e-05 0.0 
3.191262369864e-05 1.508064563059e-03 0.0 
0.0 0.0 0.0 
-2.355057883115e-06 3.622791117351e-05 0.0 
3.622791117351e-05 1.507633896750e-03 0.0 
0.0 0.0 0.0 
-2.225424551379e-06 4.088073669026e-05 0.0 
4.088073669026e-05 1.505829667912e-03 0.0 
0.0 0.0 0.0 
-2.652062359165e-06 4.545594529556e-05 0.0 
4.545594529556e-05 1.501900647317e-03 0.0 
0.0 0.0 0.0 
-2.763582773735e-06 5.014089061732e-05 0.0 
5.014089061732e-05 1.497429537071e-03 0.0 
0.0 0.0 0.0 
-3.176967534269e-06 5.554080966873e-05 0.0 
5.554080966873e-05 1.491344319273e-03 0.0 
0.0 0.0 0.0 
-3.538847831700e-06 6.054145372390e-05 0.0 
6.054145372390e-05 1.486127702282e-03 0.0 
0.0 0.0 0.0 
-3.207242140276e-06 6.640953590462e-05 0.0 
6.640953590462e-05 1.481959627303e-03 0.0 
0.0 0.0 0.0 
-3.198700472236e-06 7.187626871788e-05 0.0 
7.187626871788e-05 1.476677913667e-03 0.0 
0.0 0.0 0.0 
-2.854878003592e-06 7.747405266017e-05 0.0 
7.747405266017e-05 1.470491675706e-03 0.0 
0.0 0.0 0.0 
-2.623401090844e-06 8.319503245377e-05 0.0 
8.319503245377e-05 1.461957898483e-03 0.0 
0.0 0.0 0.0 
-2.752289626281e-06 8.791614120507e-05 0.0 
8.791614120507e-05 1.452369119883e-03 0.0 
0.0 0.0 0.0 
-2.357391400568e-06 9.265498872866e-05 0.0 
9.265498872866e-05 1.442353871776e-03 0.0 
0.0 0.0 0.0 
-2.080232272550e-06 9.664308070485e-05 0.0 
9.664308070485e-05 1.431384890880e-03 0.0 
0.0 0.0 0.0 
-1.796094343513e-06 1.000846224820e-04 0.0 
1.000846224820e-04 1.420412872209e-03 0.0 
0.0 0.0 0.0 
-1.143823739317e-06 1.028790908556e-04 0.0 
1.028790908556e-04 1.409130492307e-03 0.0 
0.0 0.0 0.0 
-7.984155318367e-07 1.046016677663e-04 0.0 
1.046016677663e-04 1.397190317741e-03 0.0 
0.0 0.0 0.0 
6.716832031313e-08 1.054727770811e-04 0.0 
1.054727770811e-04 1.384699198053e-03 0.0 
0.0 0.0 0.0 
2.286147896916e-07 1.052672236997e-04 0.0 
1.052672236997e-04 1.371423580696e-03 0.0 
0.0 0.0 0.0 
4.835429881685e-07 1.036558058823e-04 0.0 
1.036558058823e-04 1.361332679412e-03 0.0 
0.0 0.0 0.0 
1.524606148440e-06 1.030771691654e-04 0.0 
1.030771691654e-04 1.347662087947e-03 0.0 
0.0 0.0 0.0 
1.926500848404e-06 9.945795043640e-05 0.0 
9.945795043640e-05 1.332516700567e-03 0.0 
0.0 0.0 0.0 
2.349125945692e-06 9.517473429514e-05 0.0 
9.517473429514e-05 1.320363205020e-03 0.0 
0.0 0.0 0.0 
2.549562664470e-06 9.064344747972e-05 0.0 
9.064344747972e-05 1.310838093102e-03 0.0 
0.0 0.0 0.0 
3.117166655982e-06 8.589968459306e-05 0.0 
8.589968459306e-05 1.301041327220e-03 0.0 
0.0 0.0 0.0 
2.562188450961e-06 8.020127782033e-05 0.0 
8.020127782033e-05 1.291977732850e-03 0.0 
0.0 0.0 0.0 
3.665104779375e-06 7.472343385192e-05 0.0 
7.472343385192e-05 1.284010050325e-03 0.0 
0.0 0.0 0.0 
3.052914378558e-06 6.864419879267e-05 0.0 
6.864419879267e-05 1.275411256059e-03 0.0 
0.0 0.0 0.0 
3.989322106509e-06 6.246972442281e-05 0.0 
6.246972442281e-05 1.267689314030e-03 0.0 
0.0 0.0 0.0 
3.312511600499e-06 5.632887234657e-05 0.0 
5.632887234657e-05 1.260397241524e-03 0.0 
0.0 0.0 0.0 
2.815992775259e-06 5.015198155584e-05 0.0 
5.015198155584e-05 1.256586058158e-03 0.0 
0.0 0.0 0.0 
3.310458789096e-06 4.476989847474e-05 0.0 
4.476989847474e-05 1.255407178674e-03 0.0 
0.0 0.0 0.0 
3.846055779559e-06 3.860929323685e-05 0.0 
3.860929323685e-05 1.253018408135e-03 0.0 
0.0 0.0 0.0 
3.942599293649e-06 3.202352154047e-05 0.0 
3.202352154047e-05 1.240272818373e-03 0.0 
0.0 0.0 0.0 
3.694878555856e-06 2.649115909834e-05 0.0 
2.649115909834e-05 1.245425777027e-03 0.0 
0.0 0.0 0.0 
2.827940650096e-06 2.109995556277e-05 0.0 
2.109995556277e-05 1.240491651612e-03 0.0 
0.0 0.0 0.0 
2.536035079048e-06 1.519254489843e-05 0.0 
1.519254489843e-05 1.240548132201e-03 0.0 
0.0 0.0 0.0 
2.846833753993e-06 1.114650577277e-05 0.0 
1.114650577277e-05 1.241929865022e-03 0.0 
0.0 0.0 0.0 
2.710669311012e-06 6.010252529135e-06 0.0 
6.010252529135e-06 1.241034169744e-03 0.0 
0.0 0.0 0.0 
-2.513726947617e-05 -1.748170190793e-06 0.0 
-1.748170190793e-06 9.873948013377e-04 0.0 
0.0 0.0 0.0 
-2.490694007040e-05 -1.884075458676e-06 0.0 
-1.884075458676e-06 1.051242969387e-03 0.0 
0.0 0.0 0.0 
-2.338908758966e-05 -1.742137817031e-06 0.0 
-1.742137817031e-06 1.113749152473e-03 0.0 
0.0 0.0 0.0 
-2.151451837547e-05 -1.760281578979e-06 0.0 
-1.760281578979e-06 1.174681104899e-03 0.0 
0.0 0.0 0.0 
-1.920012214796e-05 -1.413740123636e-06 0.0 
-1.413740123636e-06 1.236533144822e-03 0.0 
0.0 0.0 0.0 
-1.576560137617e-05 -1.469915334171e-06 0.0 
-1.469915334171e-06 1.297960883040e-03 0.0 
0.0 0.0 0.0 
-1.264683970577e-05 -1.187742696437e-06 0.0 
-1.187742696437e-06 1.358612302779e-03 0.0 
0.0 0.0 0.0 
-8.761312210911e-06 -1.302708106831e-06 0.0 
-1.302708106831e-06 1.418474252291e-03 0.0 
0.0 0.0 0.0 
-4.785823223126e-06 -1.463264397752e-06 0.0 
-1.463264397752e-06 1.479428725900e-03 0.0 
0.0 0.0 0.0 
-5.499065170237e-05 3.997292776150e-05 0.0 
3.997292776150e-05 4.797501339763e-05 0.0 
0.0 0.0 0.0 
-4.426961184496e-05 8.281371083668e-06 0.0 
8.281371083668e-06 9.255488414813e-04 0.0 
0.0 0.0 0.0 
-4.851047986798e-05 9.388989133305e-05 0.0 
9.388989133305e-05 1.737928290723e-04 0.0 
0.0 0.0 0.0 
-2.795016894885e-05 7.112867585201e-05 0.0 
7.112867585201e-05 3.715553664996e-04 0.0 
0.0 0.0 0.0 
-1.910790914033e-05 3.380773896331e-05 0.0 
3.380773896331e-05 4.573204105163e-04 0.0 
0.0 0.0 0.0 
-2.861292443699e-05 2.369768166960e-05 0.0 
2.369768166960e-05 5.249310126427e-04 0.0 
0.0 0.0 0.0 
-3.573230097344e-05 1.797934712132e-05 0.0 
1.797934712132e-05 5.923306449439e-04 0.0 
0.0 0.0 0.0 
-3.996795556868e-05 1.328501490766e-05 0.0 
1.328501490766e-05 6.591617460712e-04 0.0 
0.0 0.0 0.0 
-4.311738049247e-05 1.024855047012e-05 0.0 
1.024855047012e-05 7.256992291532e-04 0.0 
0.0 0.0 0.0 
-4.456413176362e-05 8.401234710667e-06 0.0 
8.401234710667e-06 7.916827049234e-04 0.0 
0.0 0.0 0.0 
-4.455771644862e-05 7.879417692207e-06 0.0 
7.879417692207e-06 8.570916497493e-04 0.0 
0.0 0.0 0.0 
-2.817611046463e-05 -3.499480141178e-06 0.0 
-3.499480141178e-06 4.339679894806e-04 0.0 
0.0 0.0 0.0 
-2.492486261760e-05 -3.422775595470e-06 0.0 
-3.422775595470e-06 4.719573018643e-04 0.0 
0.0 0.0 0.0 
-2.352010709245e-05 -4.973082048074e-06 0.0 
-4.973082048074e-06 5.351972837213e-04 0.0 
0.0 0.0 0.0 
-2.375038670088e-05 -4.080135571461e-06 0.0 
-4.080135571461e-06 5.995695393883e-04 0.0 
0.0 0.0 0.0 
-2.430957679175e-05 -4.985758200722e-06 0.0 
-4.985758200722e-06 6.640994432616e-04 0.0 
0.0 0.0 0.0 
-2.495012788226e-05 -4.045073652126e-06 0.0 
-4.045073652126e-06 7.286402700707e-04 0.0 
0.0 0.0 0.0 
-2.542634450253e-05 -4.786896807215e-06 0.0 
-4.786896807215e-06 7.929747755915e-04 0.0 
0.0 0.0 0.0 
-2.555608376589e-05 -3.367215053778e-06 0.0 
-3.367215053778e-06 8.567261735223e-04 0.0 
0.0 0.0 0.0 
-2.586449218175e-05 1.191520052731e-06 0.0 
1.191520052731e-06 9.146369831795e-04 0.0 
0.0 0.0 0.0 
-2.575388866812e-05 -2.762503713986e-08 0.0 
-2.762503713986e-08 9.185464760076e-04 0.0 
0.0 0.0 0.0 
-2.645946326899e-05 -6.844057552978e-08 0.0 
-6.844057552978e-08 9.190150758146e-04 0.0 
0.0 0.0 0.0 
-2.696505811263e-05 -3.498216397203e-07 0.0 
-3.498216397203e-07 9.184233720934e-04 0.0 
0.0 0.0 0.0 
-2.731237597681e-05 1.275643226051e-07 0.0 
1.275643226051e-07 9.271603279899e-04 0.0 
0.0 0.0 0.0 
-2.840541813444e-05 5.462324649972e-08 0.0 
5.462324649972e-08 9.200060180793e-04 0.0 
0.0 0.0 0.0 
-2.912410241022e-05 -1.005985575128e-07 0.0 
-1.005985575128e-07 9.195321864856e-04 0.0 
0.0 0.0 0.0 
-3.032929921380e-05 5.233593568402e-07 0.0 
5.233593568402e-07 9.204957308197e-04 0.0 
0.0 0.0 0.0 
-3.224204951519e-05 6.782698519736e-07 0.0 
6.782698519736e-07 9.223973961391e-04 0.0 
0.0 0.0 0.0 
-3.392498123197e-05 1.392311202115e-06 0.0 
1.392311202115e-06 9.223926080931e-04 0.0 
0.0 0.0 0.0 
-3.527250761256e-05 2.006797714376e-06 0.0 
2.006797714376e-06 9.222056628913e-04 0.0 
0.0 0.0 0.0 
-3.726463669177e-05 2.889096569433e-06 0.0 
2.889096569433e-06 9.221110586112e-04 0.0 
0.0 0.0 0.0 
-3.902957235948e-05 4.512771133392e-06 0.0 
4.512771133392e-06 9.221263767285e-04 0.0 
0.0 0.0 0.0 
-4.121130103206e-05 6.426425630503e-06 0.0 
6.426425630503e-06 9.229309705370e-04 0.0 
0.0 0.0 0.0 
-6.416193000295e-05 1.012188656732e-05 0.0 
1.012188656732e-05 4.755395060752e-05 0.0 
0.0 0.0 0.0 
-7.200699896914e-05 -3.404006740324e-07 0.0 
-3.404006740324e-07 4.782802733298e-05 0.0 
0.0 0.0 0.0 
-7.014227247023e-05 -4.530924300907e-06 0.0 
-4.530924300907e-06 4.493867134718e-05 0.0 
0.0 0.0 0.0 
-6.308782262539e-05 -5.507045311841e-06 0.0 
-5.507045311841e-06 4.158505824544e-05 0.0 
0.0 0.0 0.0 
-5.538462077148e-05 -5.960074613183e-06 0.0 
-5.960074613183e-06 3.981324749976e-05 0.0 
0.0 0.0 0.0 
-4.967859029196e-05 -4.913683320794e-06 0.0 
-4.913683320794e-06 3.845066299002e-05 0.0 
0.0 0.0 0.0 
-4.346168391700e-05 -4.248783185969e-06 0.0 
-4.248783185969e-06 3.605744970396e-05 0.0 
0.0 0.0 0.0 
-3.723367775899e-05 -3.868516391968e-06 0.0 
-3.868516391968e-06 3.329148930561e-05 0.0 
0.0 0.0 0.0 
-3.155915132643e-05 -3.762803854828e-06 0.0 
-3.762803854828e-06 3.089215743050e-05 0.0 
0.0 0.0 0.0 
-2.618395460215e-05 -3.608780455511e-06 0.0 
-3.608780455511e-06 2.855488186163e-05 0.0 
0.0 0.0 0.0 
-2.105497367029e-05 -3.242207414947e-06 0.0 
-3.242207414947e-06 2.698295908747e-05 0.0 
0.0 0.0 0.0 
-1.925915684838e-05 -2.691481493246e-06 0.0 
-2.691481493246e-06 2.671922422885e-05 0.0 
0.0 0.0 0.0 
-1.423503951444e-05 -1.682801671229e-06 0.0 
-1.682801671229e-06 2.399683410181e-05 0.0 
0.0 0.0 0.0 
-8.788465657809e-06 -2.173282179028e-06 0.0 
-2.173282179028e-06 2.072188972568e-05 0.0 
0.0 0.0 0.0 
-5.863781848266e-06 -2.426604356371e-06 0.0 
-2.426604356371e-06 1.948209529434e-05 0.0 
0.0 0.0 0.0 
-4.810930578173e-06 -1.618855272864e-06 0.0 
-1.618855272864e-06 1.937779296239e-05 0.0 
0.0 0.0 0.0 
-3.377789264995e-06 -5.608755569745e-07 0.0 
-5.608755569745e-07 1.873610454369e-05 0.0 
0.0 0.0 0.0 
-7.121007568796e-07 6.727082911800e-07 0.0 
6.727082911800e-07 1.639502411418e-05 0.0 
0.0 0.0 0.0 
-5.056760454814e-09 1.161718981899e-06 0.0 
1.161718981899e-06 1.464977101384e-05 0.0 
0.0 0.0 0.0 
7.627638355527e-06 1.416432047961e-05 0.0 
1.416432047961e-05 4.053630718800e-04 0.0 
0.0 0.0 0.0 
2.136406052677e-05 6.974997609230e-06 0.0 
6.974997609230e-06 4.150668195722e-04 0.0 
0.0 0.0 0.0 
2.389021196214e-05 3.226109061525e-06 0.0 
3.226109061525e-06 4.180429911644e-04 0.0 
0.0 0.0 0.0 
2.425378384189e-05 -1.469355315361e-06 0.0 
-1.469355315361e-06 4.181037369823e-04 0.0 
0.0 0.0 0.0 
2.390592968937e-05 -2.446002148776e-06 0.0 
-2.446002148776e-06 4.193452475594e-04 0.0 
0.0 0.0 0.0 
2.152040107539e-05 -3.366381450244e-06 0.0 
-3.366381450244e-06 4.202568734324e-04 0.0 
0.0 0.0 0.0 
1.851622879527e-05 -3.440762442758e-06 0.0 
-3.440762442758e-06 4.216552901912e-04 0.0 
0.0 0.0 0.0 
1.491463804800e-05 -3.521360151702e-06 0.0 
-3.521360151702e-06 4.230485810868e-04 0.0 
0.0 0.0 0.0 
1.117172372330e-05 -3.386721157335e-06 0.0 
-3.386721157335e-06 4.245936840352e-04 0.0 
0.0 0.0 0.0 
7.393426908253e-06 -3.241911210416e-06 0.0 
-3.241911210416e-06 4.261115592118e-04 0.0 
0.0 0.0 0.0 
3.734393938341e-06 -3.054555440248e-06 0.0 
-3.054555440248e-06 4.276023799093e-04 0.0 
0.0 0.0 0.0 
2.521380763435e-07 -2.873278078362e-06 0.0 
-2.873278078362e-06 4.290208074006e-04 0.0 
0.0 0.0 0.0 
-2.996662942271e-06 -2.689443155531e-06 0.0 
-2.689443155531e-06 4.303576324568e-04 0.0 
0.0 0.0 0.0 
-5.987402755592e-06 -2.510708254098e-06 0.0 
-2.510708254098e-06 4.315962340500e-04 0.0 
0.0 0.0 0.0 
-8.704365301685e-06 -2.331832843382e-06 0.0 
-2.331832843382e-06 4.327319496428e-04 0.0 
0.0 0.0 0.0 
-1.114512034565e-05 -2.151859772269e-06 0.0 
-2.151859772269e-06 4.337597905624e-04 0.0 
0.0 0.0 0.0 
-1.331398101608e-05 -1.970573949848e-06 0.0 
-1.970573949848e-06 4.346753694368e-04 0.0 
0.0 0.0 0.0 
-1.521916677398e-05 -1.790862696457e-06 0.0 
-1.790862696457e-06 4.354746237415e-04 0.0 
0.0 0.0 0.0 
-1.686643689354e-05 -1.615671108801e-06 0.0 
-1.615671108801e-06 4.361547199205e-04 0.0 
0.0 0.0 0.0 
-1.825428896870e-05 -1.446140120818e-06 0.0 
-1.446140120818e-06 4.367109129246e-04 0.0 
0.0 0.0 0.0 
-1.936792940257e-05 -1.277086727433e-06 0.0 
-1.277086727433e-06 4.371333604909e-04 0.0 
0.0 0.0 0.0 
-2.017131259335e-05 -1.087351616597e-06 0.0 
-1.087351616597e-06 4.374048081449e-04 0.0 
0.0 0.0 0.0 
-2.059706089993e-05 -8.167395194680e-07 0.0 
-8.167395194680e-07 4.375028091727e-04 0.0 
0.0 0.0 0.0 
-2.054684634171e-05 -2.736117088356e-07 0.0 
-2.736117088356e-07 4.374406761141e-04 0.0 
0.0 0.0 0.0 
-2.024751308827e-05 1.469243575445e-06 0.0 
1.469243575445e-06 4.377432369163e-04 0.0 
0.0 0.0 0.0 
-2.574954670170e-05 3.965662158352e-06 0.0 
3.965662158352e-06 4.398861062417e-04 0.0 
0.0 0.0 0.0 
-1.489438008188e-06 1.333742999937e-05 0.0 
1.333742999937e-05 4.484211343740e-04 0.0 
0.0 0.0 0.0 
-2.669996362257e-07 7.232535784743e-06 0.0 
7.232535784743e-06 4.602579632895e-04 0.0 
0.0 0.0 0.0 
4.703226131460e-06 1.705741899647e-06 0.0 
1.705741899647e-06 4.573503812006e-04 0.0 
0.0 0.0 0.0 
5.613272486808e-06 -1.406942656729e-06 0.0 
-1.406942656729e-06 4.576347378784e-04 0.0 
0.0 0.0 0.0 
5.732720885313e-06 -2.799499572343e-06 0.0 
-2.799499572343e-06 4.582963711168e-04 0.0 
0.0 0.0 0.0 
4.638305798443e-06 -3.692810507342e-06 0.0 
-3.692810507342e-06 4.588896043820e-04 0.0 
0.0 0.0 0.0 
2.961663744749e-06 -4.093362806396e-06 0.0 
-4.093362806396e-06 4.598013329856e-04 0.0 
0.0 0.0 0.0 
8.491695189979e-07 -4.251050768852e-06 0.0 
-4.251050768852e-06 4.607617602445e-04 0.0 
0.0 0.0 0.0 
-1.430854163524e-06 -4.237110151672e-06 0.0 
-4.237110151672e-06 4.617872961279e-04 0.0 
0.0 0.0 0.0 
-3.791472611148e-06 -4.133433558007e-06 0.0 
-4.133433558007e-06 4.628116610712e-04 0.0 
0.0 0.0 0.0 
-6.120262933692e-06 -3.968574715095e-06 0.0 
-3.968574715095e-06 4.638222826055e-04 0.0 
0.0 0.0 0.0 
-8.365630726703e-06 -3.767859495692e-06 0.0 
-3.767859495692e-06 4.647920564777e-04 0.0 
0.0 0.0 0.0 
-1.048142566455e-05 -3.541719170109e-06 0.0 
-3.541719170109e-06 4.657093751491e-04 0.0 
0.0 0.0 0.0 
-1.244118922526e-05 -3.296537601963e-06 0.0 
-3.296537601963e-06 4.665613125793e-04 0.0 
0.0 0.0 0.0 
-1.422472376043e-05 -3.037474482882e-06 0.0 
-3.037474482882e-06 4.673361045479e-04 0.0 
0.0 0.0 0.0 
-1.582278986856e-05 -2.771140491305e-06 0.0 
-2.771140491305e-06 4.680236589550e-04 0.0 
0.0 0.0 0.0 
-1.723116807573e-05 -2.502204538408e-06 0.0 
-2.502204538408e-06 4.686179518946e-04 0.0 
0.0 0.0 0.0 
-1.844625901628e-05 -2.231816855325e-06 0.0 
-2.231816855325e-06 4.691146997699e-04 0.0 
0.0 0.0 0.0 
-1.946250288944e-05 -1.955384644726e-06 0.0 
-1.955384644726e-06 4.695098558060e-04 0.0 
0.0 0.0 0.0 
-2.027123487155e-05 -1.657859267064e-06 0.0 
-1.657859267064e-06 4.698000380730e-04 0.0 
0.0 0.0 0.0 
-2.086361253082e-05 -1.304513867588e-06 0.0 
-1.304513867588e-06 4.699869093237e-04 0.0 
0.0 0.0 0.0 
-2.124272313945e-05 -8.283281930587e-07 0.0 
-8.283281930587e-07 4.700918683476e-04 0.0 
0.0 0.0 0.0 
-2.149337847440e-05 -1.324817214973e-07 0.0 
-1.324817214973e-07 4.702366611696e-04 0.0 
0.0 0.0 0.0 
-2.219322787182e-05 7.673779562615e-07 0.0 
7.673779562615e-07 4.709836260061e-04 0.0 
0.0 0.0 0.0 
-2.437253624774e-05 3.426615168483e-06 0.0 
3.426615168483e-06 4.718377315855e-04 0.0 
0.0 0.0 0.0 
-2.357556208728e-05 1.305402108482e-06 0.0 
1.305402108482e-06 5.354193143758e-04 0.0 
0.0 0.0 0.0 
-2.299892453829e-05 -2.910473216496e-07 0.0 
-2.910473216496e-07 5.352781779190e-04 0.0 
0.0 0.0 0.0 
-2.252066128381e-05 -1.171324210797e-06 0.0 
-1.171324210797e-06 5.349528829384e-04 0.0 
0.0 0.0 0.0 
-2.213306469234e-05 -1.775527361082e-06 0.0 
-1.775527361082e-06 5.347208300059e-04 0.0 
0.0 0.0 0.0 
-2.174021033818e-05 -2.350996168658e-06 0.0 
-2.350996168658e-06 5.345447107409e-04 0.0 
0.0 0.0 0.0 
-2.127938832345e-05 -2.899559876507e-06 0.0 
-2.899559876507e-06 5.343654990538e-04 0.0 
0.0 0.0 0.0 
-2.071921422555e-05 -3.431696673753e-06 0.0 
-3.431696673753e-06 5.341469751697e-04 0.0 
0.0 0.0 0.0 
-2.004828463046e-05 -3.954174546620e-06 0.0 
-3.954174546620e-06 5.338731751494e-04 0.0 
0.0 0.0 0.0 
-1.926961503248e-05 -4.469651348876e-06 0.0 
-4.469651348876e-06 5.335414273915e-04 0.0 
0.0 0.0 0.0 
-1.839145343850e-05 -4.976005300785e-06 0.0 
-4.976005300785e-06 5.331538746676e-04 0.0 
0.0 0.0 0.0 
-1.742633058003e-05 -5.465664853208e-06 0.0 
-5.465664853208e-06 5.327163029923e-04 0.0 
0.0 0.0 0.0 
-1.639097510349e-05 -5.922360429064e-06 0.0 
-5.922360429064e-06 5.322369275331e-04 0.0 
0.0 0.0 0.0 
-1.531693863947e-05 -6.319071232433e-06 0.0 
-6.319071232433e-06 5.317369252674e-04 0.0 
0.0 0.0 0.0 
-1.425288252666e-05 -6.635282252271e-06 0.0 
-6.635282252271e-06 5.312352080076e-04 0.0 
0.0 0.0 0.0 
-1.325251277160e-05 -6.831168790076e-06 0.0 
-6.831168790076e-06 5.307554618130e-04 0.0 
0.0 0.0 0.0 
-1.237943244518e-05 -6.873799732481e-06 0.0 
-6.873799732481e-06 5.302896412418e-04 0.0 
0.0 0.0 0.0 
-1.171870248214e-05 -6.642163086224e-06 0.0 
-6.642163086224e-06 5.298971722409e-04 0.0 
0.0 0.0 0.0 
-1.141088436835e-05 -6.097766276613e-06 0.0 
-6.097766276613e-06 5.295128615606e-04 0.0 
0.0 0.0 0.0 
-1.156927365318e-05 -4.913423852249e-06 0.0 
-4.913423852249e-06 5.293091495852e-04 0.0 
0.0 0.0 0.0 
-1.250041127545e-05 -3.056144756975e-06 0.0 
-3.056144756975e-06 5.289380229612e-04 0.0 
0.0 0.0 0.0 
-1.400777796105e-05 4.438947779522e-07 0.0 
4.438947779522e-07 5.289901459538e-04 0.0 
0.0 0.0 0.0 
-1.782167888615e-05 5.793467752885e-06 0.0 
5.793467752885e-06 5.315338984385e-04 0.0 
0.0 0.0 0.0 
-1.836054988199e-05 1.142871891806e-05 0.0 
1.142871891806e-05 5.192412900064e-04 0.0 
0.0 0.0 0.0 
-2.848765806451e-05 9.209535726514e-06 0.0 
9.209535726514e-06 5.873002772386e-04 0.0 
0.0 0.0 0.0 
-2.820055239623e-05 4.322987283665e-06 0.0 
4.322987283665e-06 5.996077622931e-04 0.0 
0.0 0.0 0.0 
-2.539906898238e-05 -2.535964411864e-07 0.0 
-2.535964411864e-07 5.975334351404e-04 0.0 
0.0 0.0 0.0 
-2.384583330791e-05 -3.273765014508e-06 0.0 
-3.273765014508e-06 5.975974652106e-04 0.0 
0.0 0.0 0.0 
-2.248338023349e-05 -4.941859437724e-06 0.0 
-4.941859437724e-06 5.978993903490e-04 0.0 
0.0 0.0 0.0 
-2.167513119232e-05 -6.035840332110e-06 0.0 
-6.035840332110e-06 5.978906940102e-04 0.0 
0.0 0.0 0.0 
-2.115812154888e-05 -6.580060242360e-06 0.0 
-6.580060242360e-06 5.980187251563e-04 0.0 
0.0 0.0 0.0 
-2.093935128452e-05 -6.807611107545e-06 0.0 
-6.807611107545e-06 5.981022040424e-04 0.0 
0.0 0.0 0.0 
-2.092151883465e-05 -6.788126116886e-06 0.0 
-6.788126116886e-06 5.982530228194e-04 0.0 
0.0 0.0 0.0 
-2.107627291155e-05 -6.588519309506e-06 0.0 
-6.588519309506e-06 5.984348618973e-04 0.0 
0.0 0.0 0.0 
-2.131618145320e-05 -6.237625353101e-06 0.0 
-6.237625353101e-06 5.986328361528e-04 0.0 
0.0 0.0 0.0 
-2.159013134841e-05 -5.791649554971e-06 0.0 
-5.791649554971e-06 5.988085097550e-04 0.0 
0.0 0.0 0.0 
-2.187828941267e-05 -5.292252793738e-06 0.0 
-5.292252793738e-06 5.989649608860e-04 0.0 
0.0 0.0 0.0 
-2.216586082458e-05 -4.756317884950e-06 0.0 
-4.756317884950e-06 5.991013226480e-04 0.0 
0.0 0.0 0.0 
-2.243575783171e-05 -4.193244049404e-06 0.0 
-4.193244049404e-06 5.992125860496e-04 0.0 
0.0 0.0 0.0 
-2.267331406893e-05 -3.609032342908e-06 0.0 
-3.609032342908e-06 5.992965207665e-04 0.0 
0.0 0.0 0.0 
-2.287965787051e-05 -3.017900171319e-06 0.0 
-3.017900171319e-06 5.993626876319e-04 0.0 
0.0 0.0 0.0 
-2.307728182762e-05 -2.431355321802e-06 0.0 
-2.431355321802e-06 5.994404531004e-04 0.0 
0.0 0.0 0.0 
-2.329386409557e-05 -1.870505110179e-06 0.0 
-1.870505110179e-06 5.995593305551e-04 0.0 
0.0 0.0 0.0 
-2.354817032213e-05 -1.393608418562e-06 0.0 
-1.393608418562e-06 5.997159979671e-04 0.0 
0.0 0.0 0.0 
-2.376850219121e-05 -1.153589860568e-06 0.0 
-1.153589860568e-06 5.997680652828e-04 0.0 
0.0 0.0 0.0 
-2.376686115716e-05 1.959337457982e-06 0.0 
1.959337457982e-06 5.996393860047e-04 0.0 
0.0 0.0 0.0 
-2.435639965827e-05 1.022055426269e-06 0.0 
1.022055426269e-06 6.641648960355e-04 0.0 
0.0 0.0 0.0 
-2.436427568756e-05 -9.685710395621e-07 0.0 
-9.685710395621e-07 6.642155595212e-04 0.0 
0.0 0.0 0.0 
-2.431339541015e-05 -1.840777972342e-06 0.0 
-1.840777972342e-06 6.642059803810e-04 0.0 
0.0 0.0 0.0 
-2.429112391037e-05 -2.366721955339e-06 0.0 
-2.366721955339e-06 6.642011441947e-04 0.0 
0.0 0.0 0.0 
-2.431316581595e-05 -2.929130825144e-06 0.0 
-2.929130825144e-06 6.642266537761e-04 0.0 
0.0 0.0 0.0 
-2.438671030760e-05 -3.519221899152e-06 0.0 
-3.519221899152e-06 6.642838216818e-04 0.0 
0.0 0.0 0.0 
-2.449876385604e-05 -4.127171868378e-06 0.0 
-4.127171868378e-06 6.643501085362e-04 0.0 
0.0 0.0 0.0 
-2.463137562318e-05 -4.718351807630e-06 0.0 
-4.718351807630e-06 6.643964534689e-04 0.0 
0.0 0.0 0.0 
-2.479655921093e-05 -5.258519942816e-06 0.0 
-5.258519942816e-06 6.644365996463e-04 0.0 
0.0 0.0 0.0 
-2.503937189433e-05 -5.735036839470e-06 0.0 
-5.735036839470e-06 6.644885415529e-04 0.0 
0.0 0.0 0.0 
-2.536220717175e-05 -6.141896771377e-06 0.0 
-6.141896771377e-06 6.645425632296e-04 0.0 
0.0 0.0 0.0 
-2.576450210290e-05 -6.441554242414e-06 0.0 
-6.441554242414e-06 6.645730043711e-04 0.0 
0.0 0.0 0.0 
-2.626542247615e-05 -6.546382877228e-06 0.0 
-6.546382877228e-06 6.645540998721e-04 0.0 
0.0 0.0 0.0 
-2.695174211030e-05 -6.337842217962e-06 0.0 
-6.337842217962e-06 6.646001603658e-04 0.0 
0.0 0.0 0.0 
-2.793430795828e-05 -5.861729741563e-06 0.0 
-5.861729741563e-06 6.646593042706e-04 0.0 
0.0 0.0 0.0 
-2.918320533257e-05 -4.909900926004e-06 0.0 
-4.909900926004e-06 6.648151073577e-04 0.0 
0.0 0.0 0.0 
-3.076066661436e-05 -3.571754901968e-06 0.0 
-3.571754901968e-06 6.646179137092e-04 0.0 
0.0 0.0 0.0 
-3.227219099342e-05 -9.938708113931e-07 0.0 
-9.938708113931e-07 6.644959600514e-04 0.0 
0.0 0.0 0.0 
-3.484101583535e-05 2.584880899943e-06 0.0 
2.584880899943e-06 6.668289319748e-04 0.0 
0.0 0.0 0.0 
-3.488600371835e-05 6.265095878546e-06 0.0 
6.265095878546e-06 6.541571927501e-04 0.0 
0.0 0.0 0.0 
-3.856231085971e-05 5.046634529266e-06 0.0 
5.046634529266e-06 7.200724374150e-04 0.0 
0.0 0.0 0.0 
-3.870939419887e-05 2.108128379143e-06 0.0 
2.108128379143e-06 7.329204299963e-04 0.0 
0.0 0.0 0.0 
-3.652241091547e-05 -4.772356846201e-07 0.0 
-4.772356846201e-07 7.307357213013e-04 0.0 
0.0 0.0 0.0 
-3.484315765234e-05 -2.426757498393e-06 0.0 
-2.426757498393e-06 7.305897102898e-04 0.0 
0.0 0.0 0.0 
-3.300110502730e-05 -3.570327524804e-06 0.0 
-3.570327524804e-06 7.305994083793e-04 0.0 
0.0 0.0 0.0 
-3.161881931555e-05 -4.450545186187e-06 0.0 
-4.450545186187e-06 7.304113560190e-04 0.0 
0.0 0.0 0.0 
-3.046128040992e-05 -4.835327866986e-06 0.0 
-4.835327866986e-06 7.304172741865e-04 0.0 
0.0 0.0 0.0 
-2.942972137582e-05 -4.889750223574e-06 0.0 
-4.889750223574e-06 7.302726778181e-04 0.0 
0.0 0.0 0.0 
-2.852847522707e-05 -4.756050929612e-06 0.0 
-4.756050929612e-06 7.300623507256e-04 0.0 
0.0 0.0 0.0 
-2.772304695368e-05 -4.523427739727e-06 0.0 
-4.523427739727e-06 7.298199164342e-04 0.0 
0.0 0.0 0.0 
-2.708253070568e-05 -4.227511556231e-06 0.0 
-4.227511556231e-06 7.296397248830e-04 0.0 
0.0 0.0 0.0 
-2.658650040310e-05 -3.802150447420e-06 0.0 
-3.802150447420e-06 7.294921829129e-04 0.0 
0.0 0.0 0.0 
-2.610440240073e-05 -3.312649115318e-06 0.0 
-3.312649115318e-06 7.292882070818e-04 0.0 
0.0 0.0 0.0 
-2.572141689986e-05 -2.837406857478e-06 0.0 
-2.837406857478e-06 7.290899607852e-04 0.0 
0.0 0.0 0.0 
-2.542495246969e-05 -2.379757540085e-06 0.0 
-2.379757540085e-06 7.289380691145e-04 0.0 
0.0 0.0 0.0 
-2.522465391003e-05 -1.935773082441e-06 0.0 
-1.935773082441e-06 7.288244824352e-04 0.0 
0.0 0.0 0.0 
-2.507821822103e-05 -1.549636698392e-06 0.0 
-1.549636698392e-06 7.287471193663e-04 0.0 
0.0 0.0 0.0 
-2.502710305398e-05 -1.244728251157e-06 0.0 
-1.244728251157e-06 7.287264360710e-04 0.0 
0.0 0.0 0.0 
-2.498841348397e-05 1.959146111487e-06 0.0 
1.959146111487e-06 7.286923445716e-04 0.0 
0.0 0.0 0.0 
-2.561345342769e-05 1.181401592944e-06 0.0 
1.181401592944e-06 7.932055471746e-04 0.0 
0.0 0.0 0.0 
-2.557235020545e-05 -8.180989784847e-07 0.0 
-8.180989784847e-07 7.931104322031e-04 0.0 
0.0 0.0 0.0 
-2.576937357309e-05 -1.457163930304e-06 0.0 
-1.457163930304e-06 7.931912219996e-04 0.0 
0.0 0.0 0.0 
-2.612646064559e-05 -1.815767843550e-06 0.0 
-1.815767843550e-06 7.934076697845e-04 0.0 
0.0 0.0 0.0 
-2.649486614231e-05 -2.119293026292e-06 0.0 
-2.119293026292e-06 7.935911984896e-04 0.0 
0.0 0.0 0.0 
-2.708638066904e-05 -2.440728772344e-06 0.0 
-2.440728772344e-06 7.938870124740e-04 0.0 
0.0 0.0 0.0 
-2.776559259053e-05 -2.734246476963e-06 0.0 
-2.734246476963e-06 7.942225360117e-04 0.0 
0.0 0.0 0.0 
-2.859576566531e-05 -3.123113462009e-06 0.0 
-3.123113462009e-06 7.945048976108e-04 0.0 
0.0 0.0 0.0 
-2.943198291633e-05 -3.250263568994e-06 0.0 
-3.250263568994e-06 7.946524603086e-04 0.0 
0.0 0.0 0.0 
-3.059430532889e-05 -3.237358788496e-06 0.0 
-3.237358788496e-06 7.950459658103e-04 0.0 
0.0 0.0 0.0 
-3.187804243880e-05 -3.216541018592e-06 0.0 
-3.216541018592e-06 7.954006102989e-04 0.0 
0.0 0.0 0.0 
-3.324287969220e-05 -2.963564489284e-06 0.0 
-2.963564489284e-06 7.956036073154e-04 0.0 
0.0 0.0 0.0 
-3.485709275556e-05 -2.438127867844e-06 0.0 
-2.438127867844e-06 7.957815481293e-04 0.0 
0.0 0.0 0.0 
-3.653120737224e-05 -1.494973624879e-06 0.0 
-1.494973624879e-06 7.954971001498e-04 0.0 
0.0 0.0 0.0 
-3.823653723981e-05 4.293732758834e-07 0.0 
4.293732758834e-07 7.957231027877e-04 0.0 
0.0 0.0 0.0 
-4.056127084281e-05 2.360606712305e-06 0.0 
2.360606712305e-06 7.985916826869e-04 0.0 
0.0 0.0 0.0 
-4.058337444609e-05 4.429609104332e-06 0.0 
4.429609104332e-06 7.860066162814e-04 0.0 
0.0 0.0 0.0 
-4.084817228456e-05 5.134419740028e-06 0.0 
5.134419740028e-06 8.507750401233e-04 0.0 
0.0 0.0 0.0 
-4.100934156067e-05 3.340282272307e-06 0.0 
3.340282272307e-06 8.630296199827e-04 0.0 
0.0 0.0 0.0 
-3.890715776513e-05 1.712479623378e-06 0.0 
1.712479623378e-06 8.605225654896e-04 0.0 
0.0 0.0 0.0 
-3.671511557644e-05 5.525785121194e-07 0.0 
5.525785121194e-07 8.602857401870e-04 0.0 
0.0 0.0 0.0 
-3.499961064703e-05 -3.950503350609e-07 0.0 
-3.950503350609e-07 8.602306626708e-04 0.0 
0.0 0.0 0.0 
-3.341168574652e-05 -8.104036361688e-07 0.0 
-8.104036361688e-07 8.600326695771e-04 0.0 
0.0 0.0 0.0 
-3.193066313488e-05 -1.071801709028e-06 0.0 
-1.071801709028e-06 8.594829864315e-04 0.0 
0.0 0.0 0.0 
-3.065109199104e-05 -1.462231212933e-06 0.0 
-1.462231212933e-06 8.591490043614e-04 0.0 
0.0 0.0 0.0 
-2.929905842532e-05 -1.336062831380e-06 0.0 
-1.336062831380e-06 8.589442658962e-04 0.0 
0.0 0.0 0.0 
-2.846228608971e-05 -1.396709498198e-06 0.0 
-1.396709498198e-06 8.584871003826e-04 0.0 
0.0 0.0 0.0 
-2.760299980829e-05 -1.220884851960e-06 0.0 
-1.220884851960e-06 8.581245948978e-04 0.0 
0.0 0.0 0.0 
-2.693646925545e-05 -1.294965211662e-06 0.0 
-1.294965211662e-06 8.577890634780e-04 0.0 
0.0 0.0 0.0 
-2.653353564055e-05 -1.007468199655e-06 0.0 
-1.007468199655e-06 8.576811842311e-04 0.0 
0.0 0.0 0.0 
-2.604608241152e-05 -9.344136078422e-07 0.0 
-9.344136078422e-07 8.572589935188e-04 0.0 
0.0 0.0 0.0 
-2.589866160764e-05 -1.241082790442e-06 0.0 
-1.241082790442e-06 8.575868677198e-04 0.0 
0.0 0.0 0.0 
-2.622486486085e-05 2.355738904555e-06 0.0 
2.355738904555e-06 8.579428569271e-04 0.0 
0.0 0.0 0.0 
-5.362149160300e-05 7.510287721842e-05 0.0 
7.510287721842e-05 9.378639478075e-05 0.0 
0.0 0.0 0.0 
-4.206607757314e-05 9.800806808712e-05 0.0 
9.800806808712e-05 2.680162326057e-04 0.0 
0.0 0.0 0.0 
-2.270098405394e-05 4.354631510488e-05 0.0 
4.354631510488e-05 4.285601363453e-04 0.0 
0.0 0.0 0.0 
-2.670267334900e-05 2.997135692888e-05 0.0 
2.997135692888e-05 4.992853495401e-04 0.0 
0.0 0.0 0.0 
-3.325460997413e-05 2.216870136938e-05 0.0 
2.216870136938e-05 5.650104988099e-04 0.0 
0.0 0.0 0.0 
-3.791528414134e-05 1.687353770013e-05 0.0 
1.687353770013e-05 6.323873492843e-04 0.0 
0.0 0.0 0.0 
-4.220376272523e-05 1.267562594065e-05 0.0 
1.267562594065e-05 6.989445112065e-04 0.0 
0.0 0.0 0.0 
-4.392995841277e-05 1.030097290507e-05 0.0 
1.030097290507e-05 7.649754399821e-04 0.0 
0.0 0.0 0.0 
-4.443283584928e-05 9.052627925033e-06 0.0 
9.052627925033e-06 8.304625601622e-04 0.0 
0.0 0.0 0.0 
-4.348182634288e-05 9.085687718872e-06 0.0 
9.085687718872e-06 8.957500507044e-04 0.0 
0.0 0.0 0.0 
-2.740662209718e-05 1.009966195351e-04 0.0 
1.009966195351e-04 3.219342029391e-04 0.0 
0.0 0.0 0.0 
7.439820878955e-06 9.072964162984e-05 0.0 
9.072964162984e-05 1.286094502769e-03 0.0 
0.0 0.0 0.0 
-2.118322953476e-05 -6.217919787517e-06 0.0 
-6.217919787517e-06 4.706188840453e-05 0.0 
0.0 0.0 0.0 
-4.055590837813e-05 -6.846758038122e-06 0.0 
-6.846758038122e-06 5.336192510315e-05 0.0 
0.0 0.0 0.0 
1.005032880981e-05 6.480274443764e-05 0.0 
6.480274443764e-05 1.241667363737e-03 0.0 
0.0 0.0 0.0 
-4.292873963411e-05 4.424947063418e-05 0.0 
4.424947063418e-05 5.489465819391e-04 0.0 
0.0 0.0 0.0 
4.558173692788e-05 3.640292026268e-07 0.0 
3.640292026268e-07 6.277328854262e-04 0.0 
0.0 0.0 0.0 
2.021866375498e-06 1.026313713091e-04 0.0 
1.026313713091e-04 1.333602850529e-03 0.0 
0.0 0.0 0.0 
-4.758975358497e-05 2.335789431155e-05 0.0 
2.335789431155e-05 6.806175085808e-04 0.0 
0.0 0.0 0.0 
-4.040009444003e-06 9.968628282664e-05 0.0 
9.968628282664e-05 1.388874872927e-03 0.0 
0.0 0.0 0.0 
-4.942973343826e-05 1.498784311790e-05 0.0 
1.498784311790e-05 8.166955413089e-04 0.0 
0.0 0.0 0.0 
1.007661082963e-05 4.070346014587e-05 0.0 
4.070346014587e-05 1.225386818242e-03 0.0 
0.0 0.0 0.0 
-7.269616119336e-06 -3.470155740682e-06 0.0 
-3.470155740682e-06 3.920622721583e-05 0.0 
0.0 0.0 0.0 
-7.943048388304e-06 8.382014906832e-05 0.0 
8.382014906832e-05 1.433467853811e-03 0.0 
0.0 0.0 0.0 
-4.662629333517e-05 1.311343799156e-05 0.0 
1.311343799156e-05 9.493776669700e-04 0.0 
0.0 0.0 0.0 
3.324189299651e-05 -8.767388242210e-07 0.0 
-8.767388242210e-07 3.781858354103e-04 0.0 
0.0 0.0 0.0 
4.479558270993e-05 2.398424096149e-06 0.0 
2.398424096149e-06 8.053065251397e-04 0.0 
0.0 0.0 0.0 
-9.330280422622e-06 6.742177662900e-05 0.0 
6.742177662900e-05 1.454443581931e-03 0.0 
0.0 0.0 0.0 
-7.878842250138e-06 4.702112450824e-05 0.0 
4.702112450824e-05 1.476480834706e-03 0.0 
0.0 0.0 0.0 
-4.883974957422e-06 1.304796045047e-05 0.0 
1.304796045047e-05 1.490118637267e-03 0.0 
0.0 0.0 0.0 
-6.174011045714e-06 2.273524354296e-05 0.0 
2.273524354296e-05 1.482894139884e-03 0.0 
0.0 0.0 0.0 
-6.863619814409e-06 3.311266251820e-05 0.0 
3.311266251820e-05 1.485308265221e-03 0.0 
0.0 0.0 0.0 
-4.095921948064e-05 8.807836669663e-06 0.0 
8.807836669663e-06 9.800853883888e-04 0.0 
0.0 0.0 0.0 
-3.322839135959e-05 3.585032868776e-06 0.0 
3.585032868776e-06 9.804743127467e-04 0.0 
0.0 0.0 0.0 
-2.895420942157e-05 1.467410092718e-06 0.0 
1.467410092718e-06 9.837487634218e-04 0.0 
0.0 0.0 0.0 
-2.023640168395e-05 2.348757903160e-07 0.0 
2.348757903160e-07 1.206058792257e-03 0.0 
0.0 0.0 0.0 
9.317525353122e-06 2.358826536849e-05 0.0 
2.358826536849e-05 1.213162746992e-03 0.0 
0.0 0.0 0.0 
-4.045256460429e-05 7.794638142724e-06 0.0 
7.794638142724e-06 5.888900384924e-05 0.0 
0.0 0.0 0.0 
-4.958426910543e-07 -1.921855106566e-06 0.0 
-1.921855106566e-06 3.918803932116e-05 0.0 
0.0 0.0 0.0 
3.127607447980e-05 3.490081223795e-06 0.0 
3.490081223795e-06 1.018497591018e-03 0.0 
0.0 0.0 0.0 
-2.667579378958e-05 1.011395758347e-06 0.0 
1.011395758347e-06 9.754746101538e-04 0.0 
0.0 0.0 0.0 
1.518942439522e-05 -1.497796483529e-06 0.0 
-1.497796483529e-06 1.921730235675e-04 0.0 
0.0 0.0 0.0 
-1.025017740053e-05 5.601275400922e-05 0.0 
5.601275400922e-05 1.458509432925e-03 0.0 
0.0 0.0 0.0 
-1.040790201005e-06 1.035761260243e-04 0.0 
1.035761260243e-04 1.366452860643e-03 0.0 
0.0 0.0 0.0 
-6.487146236078e-06 9.284836838578e-05 0.0 
9.284836838578e-05 1.413105885772e-03 0.0 
0.0 0.0 0.0 
5.106601680500e-06 9.883111904484e-05 0.0 
9.883111904484e-05 1.306812330152e-03 0.0 
0.0 0.0 0.0 
8.127088528968e-06 8.109722689122e-05 0.0 
8.109722689122e-05 1.267862713394e-03 0.0 
0.0 0.0 0.0 
-3.306205003980e-05 -6.916951608890e-06 0.0 
-6.916951608890e-06 5.360970124776e-05 0.0 
0.0 0.0 0.0 
-3.673941664042e-05 5.572550095944e-06 0.0 
5.572550095944e-06 9.785517064953e-04 0.0 
0.0 0.0 0.0 
1.137918226300e-05 5.164341107535e-05 0.0 
5.164341107535e-05 1.218588600875e-03 0.0 
0.0 0.0 0.0 
-1.491139199367e-05 8.347086469701e-07 0.0 
8.347086469701e-07 1.327095477404e-03 0.0 
0.0 0.0 0.0 
-1.363373249530e-05 -5.905484662949e-06 0.0 
-5.905484662949e-06 4.493145472451e-05 0.0 
0.0 0.0 0.0 
4.140778035659e-05 -5.155846326975e-07 0.0 
-5.155846326975e-07 4.982911270793e-04 0.0 
0.0 0.0 0.0 
-4.016145753605e-06 8.109293717785e-06 0.0 
8.109293717785e-06 1.499482690117e-03 0.0 
0.0 0.0 0.0 
-4.639061721934e-05 3.422601849293e-05 0.0 
3.422601849293e-05 6.196121939105e-04 0.0 
0.0 0.0 0.0 
-3.918343688038e-05 7.031111950699e-05 0.0 
7.031111950699e-05 4.675221629896e-04 0.0 
0.0 0.0 0.0 
-4.933951369903e-05 1.852686666219e-05 0.0 
1.852686666219e-05 7.493744491192e-04 0.0 
0.0 0.0 0.0 
-4.849685644244e-05 1.308889634015e-05 0.0 
1.308889634015e-05 8.825966141096e-04 0.0 
0.0 0.0 0.0 
-3.054733279031e-05 7.446841480896e-05 0.0 
7.446841480896e-05 1.402285530118e-04 0.0 
0.0 0.0 0.0 
-2.372421705660e-05 3.713712487357e-07 0.0 
3.713712487357e-07 1.087424528275e-03 0.0 
0.0 0.0 0.0 
7.159392846523e-06 1.295514601883e-05 0.0 
1.295514601883e-05 1.221973239210e-03 0.0 
0.0 0.0 0.0 
2.148703432292e-06 2.048432964584e-07 0.0 
2.048432964584e-07 3.531182640026e-05 0.0 
0.0 0.0 0.0 
-6.733717176997e-06 2.102773582601e-06 0.0 
2.102773582601e-06 1.445459063302e-03 0.0 
0.0 0.0 0.0 
-4.528170124003e-05 1.322440818560e-05 0.0 
1.322440818560e-05 9.796527844124e-04 0.0 
0.0 0.0 0.0 
-4.668503517517e-05 1.751331996825e-05 0.0 
1.751331996825e-05 1.003781458350e-03 0.0 
0.0 0.0 0.0 
-4.430750768281e-05 1.723245675165e-05 0.0 
1.723245675165e-05 1.034458398058e-03 0.0 
0.0 0.0 0.0 
-4.615511346730e-05 2.221676935045e-05 0.0 
2.221676935045e-05 1.061631094361e-03 0.0 
0.0 0.0 0.0 
-4.376744367030e-05 2.208019510158e-05 0.0 
2.208019510158e-05 1.095291395476e-03 0.0 
0.0 0.0 0.0 
-4.445821993001e-05 2.718636949372e-05 0.0 
2.718636949372e-05 1.118905923501e-03 0.0 
0.0 0.0 0.0 
-4.683537074866e-05 2.792039429226e-05 0.0 
2.792039429226e-05 1.084945468830e-03 0.0 
0.0 0.0 0.0 
-4.436582519546e-05 3.297967399643e-05 0.0 
3.297967399643e-05 1.141627796039e-03 0.0 
0.0 0.0 0.0 
-4.682031578002e-05 3.411433556034e-05 0.0 
3.411433556034e-05 1.106749587454e-03 0.0 
0.0 0.0 0.0 
-4.136736966437e-05 2.671593726687e-05 0.0 
2.671593726687e-05 1.153147044999e-03 0.0 
0.0 0.0 0.0 
-4.366891033730e-05 3.910591854626e-05 0.0 
3.910591854626e-05 1.163098813829e-03 0.0 
0.0 0.0 0.0 
-4.602569980796e-05 4.060983345128e-05 0.0 
4.060983345128e-05 1.127318139278e-03 0.0 
0.0 0.0 0.0 
-4.221930756707e-05 4.556522169530e-05 0.0 
4.556522169530e-05 1.183254255722e-03 0.0 
0.0 0.0 0.0 
-4.440703487476e-05 4.732824414220e-05 0.0 
4.732824414220e-05 1.146622498500e-03 0.0 
0.0 0.0 0.0 
-4.789154009518e-05 4.254690944521e-05 0.0 
4.254690944521e-05 1.091181993387e-03 0.0 
0.0 0.0 0.0 
-4.595511349028e-05 4.959260592824e-05 0.0 
4.959260592824e-05 1.109432598516e-03 0.0 
0.0 0.0 0.0 
-4.916912962427e-05 4.499801331536e-05 0.0 
4.499801331536e-05 1.054347669451e-03 0.0 
0.0 0.0 0.0 
-4.680012461309e-05 5.237463132760e-05 0.0 
5.237463132760e-05 1.071441753065e-03 0.0 
0.0 0.0 0.0 
-4.303987275761e-05 5.656133452969e-05 0.0 
5.656133452969e-05 1.126313892678e-03 0.0 
0.0 0.0 0.0 
-4.330219040218e-05 5.949520772914e-05 0.0 
5.949520772914e-05 1.086993668899e-03 0.0 
0.0 0.0 0.0 
-4.687611666817e-05 5.574961405244e-05 0.0 
5.574961405244e-05 1.032411020908e-03 0.0 
0.0 0.0 0.0 
-4.264049726765e-05 6.307817794484e-05 0.0 
6.307817794484e-05 1.046474269222e-03 0.0 
0.0 0.0 0.0 
-4.610491432165e-05 5.986470680287e-05 0.0 
5.986470680287e-05 9.923244643560e-04 0.0 
0.0 0.0 0.0 
-4.098454161633e-05 6.726886927133e-05 0.0 
6.726886927133e-05 1.004747268165e-03 0.0 
0.0 0.0 0.0 
-4.441321886589e-05 6.468608092683e-05 0.0 
6.468608092683e-05 9.508034570059e-04 0.0 
0.0 0.0 0.0 
-3.821669878486e-05 7.204920798884e-05 0.0 
7.204920798884e-05 9.614803356620e-04 0.0 
0.0 0.0 0.0 
-3.473012568348e-05 7.368302809529e-05 0.0 
7.368302809529e-05 1.015848929298e-03 0.0 
0.0 0.0 0.0 
-3.089891985212e-05 7.812969664703e-05 0.0 
7.812969664703e-05 9.707996631037e-04 0.0 
0.0 0.0 0.0 
-3.414249864155e-05 7.740045013690e-05 0.0 
7.740045013690e-05 9.164550796299e-04 0.0 
0.0 0.0 0.0 
-2.567887314967e-05 8.281929177239e-05 0.0 
8.281929177239e-05 9.239027065118e-04 0.0 
0.0 0.0 0.0 
-2.861604901622e-05 8.308931316059e-05 0.0 
8.308931316059e-05 8.693411361032e-04 0.0 
0.0 0.0 0.0 
-1.894870852729e-05 8.746726361886e-05 0.0 
8.746726361886e-05 8.747424591606e-04 0.0 
0.0 0.0 0.0 
-1.667325655833e-05 8.642290348537e-05 0.0 
8.642290348537e-05 9.308181622533e-04 0.0 
0.0 0.0 0.0 
-9.102457829350e-06 8.961353929718e-05 0.0 
8.961353929718e-05 8.802830871931e-04 0.0 
0.0 0.0 0.0 
-1.066627191624e-05 9.150061533647e-05 0.0 
9.150061533647e-05 8.228928178682e-04 0.0 
0.0 0.0 0.0 
-2.250721416464e-07 9.182745194923e-05 0.0 
9.182745194923e-05 8.276711177871e-04 0.0 
0.0 0.0 0.0 
-9.714488446074e-07 9.434689882003e-05 0.0 
9.434689882003e-05 7.685956981108e-04 0.0 
0.0 0.0 0.0 
9.760455821350e-06 9.261833800511e-05 0.0 
9.261833800511e-05 7.732500710568e-04 0.0 
0.0 0.0 0.0 
1.004937979617e-05 9.545692216293e-05 0.0 
9.545692216293e-05 7.120058005303e-04 0.0 
0.0 0.0 0.0 
2.047002265297e-05 9.126846944503e-05 0.0 
9.126846944503e-05 7.169747429674e-04 0.0 
0.0 0.0 0.0 
1.919036947366e-05 8.901970691995e-05 0.0 
8.901970691995e-05 7.798132576997e-04 0.0 
0.0 0.0 0.0 
2.916709764433e-05 8.570136583174e-05 0.0 
8.570136583174e-05 7.245012963001e-04 0.0 
0.0 0.0 0.0 
3.119267643873e-05 8.729478662510e-05 0.0 
8.729478662510e-05 6.596962855435e-04 0.0 
0.0 0.0 0.0 
3.866572554660e-05 8.003135034719e-05 0.0 
8.003135034719e-05 6.689127031190e-04 0.0 
0.0 0.0 0.0 
3.622657773724e-05 7.951820044566e-05 0.0 
7.951820044566e-05 7.346913674705e-04 0.0 
0.0 0.0 0.0 
4.439055068606e-05 7.277085864391e-05 0.0 
7.277085864391e-05 6.809676772288e-04 0.0 
0.0 0.0 0.0 
4.168897871441e-05 7.327278438281e-05 0.0 
7.327278438281e-05 7.473264119868e-04 0.0 
0.0 0.0 0.0 
4.859342217918e-05 6.590707693773e-05 0.0 
6.590707693773e-05 6.954926210955e-04 0.0 
0.0 0.0 0.0 
5.108404250657e-05 6.427168251278e-05 0.0 
6.427168251278e-05 6.288613379247e-04 0.0 
0.0 0.0 0.0 
5.399061358150e-05 5.724489544928e-05 0.0 
5.724489544928e-05 6.453722573467e-04 0.0 
0.0 0.0 0.0 
5.151716026760e-05 5.960459082494e-05 0.0 
5.960459082494e-05 7.119942220785e-04 0.0 
0.0 0.0 0.0 
5.581309154053e-05 5.098532080210e-05 0.0 
5.098532080210e-05 6.635115199799e-04 0.0 
0.0 0.0 0.0 
5.751104626532e-05 4.761868626696e-05 0.0 
4.761868626696e-05 5.973234581263e-04 0.0 
0.0 0.0 0.0 
5.842692727757e-05 4.192649903021e-05 0.0 
4.192649903021e-05 6.172699384013e-04 0.0 
0.0 0.0 0.0 
5.677480948685e-05 4.563876266025e-05 0.0 
4.563876266025e-05 6.833114886712e-04 0.0 
0.0 0.0 0.0 
5.867197611316e-05 3.709491880712e-05 0.0 
3.709491880712e-05 6.385067702474e-04 0.0 
0.0 0.0 0.0 
5.925288772960e-05 3.269227725446e-05 0.0 
3.269227725446e-05 5.732751804539e-04 0.0 
0.0 0.0 0.0 
5.902658070245e-05 2.865613438669e-05 0.0 
2.865613438669e-05 5.957845658761e-04 0.0 
0.0 0.0 0.0 
5.840670105313e-05 3.308855065761e-05 0.0 
3.308855065761e-05 6.611502521389e-04 0.0 
0.0 0.0 0.0 
5.844559514182e-05 2.529469394934e-05 0.0 
2.529469394934e-05 6.191131320912e-04 0.0 
0.0 0.0 0.0 
5.792839733280e-05 2.060037384215e-05 0.0 
2.060037384215e-05 5.548185516410e-04 0.0 
0.0 0.0 0.0 
5.725494343434e-05 1.810532709660e-05 0.0 
1.810532709660e-05 5.788082044452e-04 0.0 
0.0 0.0 0.0 
5.760587471726e-05 2.264494922527e-05 0.0 
2.264494922527e-05 6.434193306185e-04 0.0 
0.0 0.0 0.0 
5.641164451424e-05 1.612077980778e-05 0.0 
1.612077980778e-05 6.034225404406e-04 0.0 
0.0 0.0 0.0 
5.651513299635e-05 2.049149460797e-05 0.0 
2.049149460797e-05 6.683295116231e-04 0.0 
0.0 0.0 0.0 
5.494946933922e-05 1.157504498869e-05 0.0 
1.157504498869e-05 5.394903775614e-04 0.0 
0.0 0.0 0.0 
5.429674265893e-05 1.029960105744e-05 0.0 
1.029960105744e-05 5.645991237744e-04 0.0 
0.0 0.0 0.0 
5.173220898425e-05 5.977201562470e-06 0.0 
5.977201562470e-06 5.012483001415e-04 0.0 
0.0 0.0 0.0 
5.142298409400e-05 5.380813719043e-06 0.0 
5.380813719043e-06 5.269578153850e-04 0.0 
0.0 0.0 0.0 
-7.691865007301e-06 8.824573467989e-05 0.0 
8.824573467989e-05 9.380004791279e-04 0.0 
0.0 0.0 0.0 
4.789845130189e-05 1.451039027521e-06 0.0 
1.451039027521e-06 4.643128659559e-04 0.0 
0.0 0.0 0.0 
4.769003653071e-05 1.704087852972e-06 0.0 
1.704087852972e-06 4.393628442895e-04 0.0 
0.0 0.0 0.0 
4.800839901738e-05 1.424628781553e-06 0.0 
1.424628781553e-06 4.903812429998e-04 0.0 
0.0 0.0 0.0 
5.100535824191e-05 5.056751338861e-06 0.0 
5.056751338861e-06 5.534006459665e-04 0.0 
0.0 0.0 0.0 
4.364427809278e-05 -2.047159564885e-06 0.0 
-2.047159564885e-06 4.282838219563e-04 0.0 
0.0 0.0 0.0 
4.423250597111e-05 -1.561650828873e-06 0.0 
-1.561650828873e-06 4.546105211926e-04 0.0 
0.0 0.0 0.0 
3.909705830333e-05 -4.410736436743e-06 0.0 
-4.410736436743e-06 3.931284868544e-04 0.0 
0.0 0.0 0.0 
-1.794147613328e-06 9.757483744788e-05 0.0 
9.757483744788e-05 7.084547709083e-04 0.0 
0.0 0.0 0.0 
-3.918536795894e-05 6.316837940250e-05 0.0 
6.316837940250e-05 1.141939730369e-03 0.0 
0.0 0.0 0.0 
4.020202345941e-05 -3.529063039477e-06 0.0 
-3.529063039477e-06 4.195589444766e-04 0.0 
0.0 0.0 0.0 
3.449245501841e-05 -5.853215404801e-06 0.0 
-5.853215404801e-06 3.585860997432e-04 0.0 
0.0 0.0 0.0 
3.276314838537e-05 -6.850179687322e-06 0.0 
-6.850179687322e-06 3.323521099266e-04 0.0 
0.0 0.0 0.0 
2.791678355230e-05 -7.613249405951e-06 0.0 
-7.613249405951e-06 2.982252732427e-04 0.0 
0.0 0.0 0.0 
-4.075007766234e-05 2.157298952789e-05 0.0 
2.157298952789e-05 1.128847461815e-03 0.0 
0.0 0.0 0.0 
-3.821846397526e-05 2.653930461967e-05 0.0 
2.653930461967e-05 1.187466909538e-03 0.0 
0.0 0.0 0.0 
-3.793277065473e-05 2.137697462035e-05 0.0 
2.137697462035e-05 1.161092041444e-03 0.0 
0.0 0.0 0.0 
-3.498501832520e-05 2.608444056174e-05 0.0 
2.608444056174e-05 1.221439406517e-03 0.0 
0.0 0.0 0.0 
-3.489500892306e-05 2.125155528069e-05 0.0 
2.125155528069e-05 1.195852322645e-03 0.0 
0.0 0.0 0.0 
3.011015501260e-05 -6.487844775298e-06 0.0 
-6.487844775298e-06 3.242911310237e-04 0.0 
0.0 0.0 0.0 
-3.937718992451e-05 4.426124724083e-05 0.0 
4.426124724083e-05 1.219775728286e-03 0.0 
0.0 0.0 0.0 
-3.457985606860e-05 3.125826590688e-05 0.0 
3.125826590688e-05 1.245965759150e-03 0.0 
0.0 0.0 0.0 
-4.986854065388e-05 5.172140009907e-05 0.0 
5.172140009907e-05 9.783314440182e-04 0.0 
0.0 0.0 0.0 
-3.740320044351e-05 7.654740033389e-05 0.0 
7.654740033389e-05 8.629956473942e-04 0.0 
0.0 0.0 0.0 
3.370401296957e-05 7.907154935961e-05 0.0 
7.907154935961e-05 8.002268571408e-04 0.0 
0.0 0.0 0.0 
4.472461220458e-05 -1.025400583847e-06 0.0 
-1.025400583847e-06 4.811885943701e-04 0.0 
0.0 0.0 0.0 
4.118276217320e-05 -2.568313580039e-06 0.0 
-2.568313580039e-06 4.462314573774e-04 0.0 
0.0 0.0 0.0 
4.497738280026e-05 -5.278876916787e-07 0.0 
-5.278876916787e-07 5.081259419594e-04 0.0 
0.0 0.0 0.0 
5.669492920035e-05 2.698687508178e-05 0.0 
2.698687508178e-05 7.091282274206e-04 0.0 
0.0 0.0 0.0 
5.533161646198e-05 2.469053011570e-05 0.0 
2.469053011570e-05 7.340868309998e-04 0.0 
0.0 0.0 0.0 
5.458261777295e-05 3.115705577320e-05 0.0 
3.115705577320e-05 7.755924765659e-04 0.0 
0.0 0.0 0.0 
5.291781543637e-05 2.871788198224e-05 0.0 
2.871788198224e-05 8.005258618612e-04 0.0 
0.0 0.0 0.0 
5.130668646824e-05 3.514806764157e-05 0.0 
3.514806764157e-05 8.426537334900e-04 0.0 
0.0 0.0 0.0 
4.931111328636e-05 3.260288644778e-05 0.0 
3.260288644778e-05 8.676205459189e-04 0.0 
0.0 0.0 0.0 
5.094931488584e-05 2.649889997397e-05 0.0 
2.649889997397e-05 8.260481840734e-04 0.0 
0.0 0.0 0.0 
4.695127705863e-05 3.016756657149e-05 0.0 
3.016756657149e-05 8.932339533225e-04 0.0 
0.0 0.0 0.0 
4.871832579023e-05 2.441701116836e-05 0.0 
2.441701116836e-05 8.521093607392e-04 0.0 
0.0 0.0 0.0 
4.691156416733e-05 3.902440007400e-05 0.0 
3.902440007400e-05 9.102627809590e-04 0.0 
0.0 0.0 0.0 
4.883352784272e-05 4.181346350837e-05 0.0 
4.181346350837e-05 8.858653321107e-04 0.0 
0.0 0.0 0.0 
4.431364642140e-05 2.780848775406e-05 0.0 
2.780848775406e-05 9.193963718719e-04 0.0 
0.0 0.0 0.0 
4.626912980802e-05 2.241309655135e-05 0.0 
2.241309655135e-05 8.786830334471e-04 0.0 
0.0 0.0 0.0 
4.146021570435e-05 2.550098467849e-05 0.0 
2.550098467849e-05 9.461511893648e-04 0.0 
0.0 0.0 0.0 
4.365164722719e-05 2.034587769087e-05 0.0 
2.034587769087e-05 9.057306119429e-04 0.0 
0.0 0.0 0.0 
4.759344455737e-05 1.749212888452e-05 0.0 
1.749212888452e-05 8.387393979567e-04 0.0 
0.0 0.0 0.0 
4.528664474453e-05 1.572659048107e-05 0.0 
1.572659048107e-05 8.659621917361e-04 0.0 
0.0 0.0 0.0 
4.832681025798e-05 1.310572529623e-05 0.0 
1.310572529623e-05 7.998288703353e-04 0.0 
0.0 0.0 0.0 
3.879320317738e-05 7.375788114559e-05 0.0 
7.375788114559e-05 8.134526021410e-04 0.0 
0.0 0.0 0.0 
3.108968870632e-05 7.894384021586e-05 0.0 
7.894384021586e-05 8.656147102890e-04 0.0 
0.0 0.0 0.0 
3.572676959403e-05 7.446808265851e-05 0.0 
7.446808265851e-05 8.793508370552e-04 0.0 
0.0 0.0 0.0 
2.835174072680e-05 7.924637934319e-05 0.0 
7.924637934319e-05 9.308031786262e-04 0.0 
0.0 0.0 0.0 
3.242217184004e-05 7.553872349156e-05 0.0 
7.553872349156e-05 9.451541561215e-04 0.0 
0.0 0.0 0.0 
2.540114638735e-05 8.011675758614e-05 0.0 
8.011675758614e-05 9.958997148486e-04 0.0 
0.0 0.0 0.0 
2.876445529162e-05 7.713866777263e-05 0.0 
7.713866777263e-05 1.010820986454e-03 0.0 
0.0 0.0 0.0 
3.525357304494e-05 7.185868947650e-05 0.0 
7.185868947650e-05 9.611203735015e-04 0.0 
0.0 0.0 0.0 
-4.007680785154e-05 5.219232401726e-05 0.0 
5.219232401726e-05 1.201919337305e-03 0.0 
0.0 0.0 0.0 
4.106489224306e-05 8.040033171723e-05 0.0 
8.040033171723e-05 6.026406427475e-04 0.0 
0.0 0.0 0.0 
3.327548721910e-05 8.885844567233e-05 0.0 
8.885844567233e-05 5.942602205076e-04 0.0 
0.0 0.0 0.0 
4.334561000489e-05 8.032122132309e-05 0.0 
8.032122132309e-05 5.356570091327e-04 0.0 
0.0 0.0 0.0 
3.538397075916e-05 9.012422361410e-05 0.0 
9.012422361410e-05 5.280797049961e-04 0.0 
0.0 0.0 0.0 
4.531511887044e-05 7.933875529297e-05 0.0 
7.933875529297e-05 4.678046071711e-04 0.0 
0.0 0.0 0.0 
3.736943200453e-05 9.061555817291e-05 0.0 
9.061555817291e-05 4.610432052158e-04 0.0 
0.0 0.0 0.0 
4.643295586593e-05 7.684906153619e-05 0.0 
7.684906153619e-05 3.989903507764e-04 0.0 
0.0 0.0 0.0 
5.162905176130e-05 6.504926360066e-05 0.0 
6.504926360066e-05 4.105861697942e-04 0.0 
0.0 0.0 0.0 
5.040844339573e-05 5.951425613297e-05 0.0 
5.951425613297e-05 3.414539899931e-04 0.0 
0.0 0.0 0.0 
5.340386154440e-05 4.864254026875e-05 0.0 
4.864254026875e-05 3.579867048518e-04 0.0 
0.0 0.0 0.0 
4.857937579805e-05 4.067819082438e-05 0.0 
4.067819082438e-05 2.901539673071e-04 0.0 
0.0 0.0 0.0 
5.041309977949e-05 3.204393320980e-05 0.0 
3.204393320980e-05 3.106032234363e-04 0.0 
0.0 0.0 0.0 
-2.766657009012e-05 7.898090607213e-05 0.0 
7.898090607213e-05 1.025919721893e-03 0.0 
0.0 0.0 0.0 
2.084398193506e-05 8.298212156398e-05 0.0 
8.298212156398e-05 9.823267510915e-04 0.0 
0.0 0.0 0.0 
1.844512325100e-05 8.396710658988e-05 0.0 
8.396710658988e-05 1.046716878637e-03 0.0 
0.0 0.0 0.0 
1.364542522501e-05 8.580362639042e-05 0.0 
8.580362639042e-05 1.033121767805e-03 0.0 
0.0 0.0 0.0 
2.535553399807e-05 -8.712825899878e-06 0.0 
-8.712825899878e-06 2.722345969048e-04 0.0 
0.0 0.0 0.0 
4.093492491086e-05 1.814514091080e-05 0.0 
1.814514091080e-05 9.332382684269e-04 0.0 
0.0 0.0 0.0 
4.372127470031e-05 4.558742592343e-05 0.0 
4.558742592343e-05 9.539893657292e-04 0.0 
0.0 0.0 0.0 
4.548887664901e-05 4.852061067179e-05 0.0 
4.852061067179e-05 9.299815408611e-04 0.0 
0.0 0.0 0.0 
3.090093893058e-05 7.423747609402e-05 0.0 
7.423747609402e-05 1.027588224626e-03 0.0 
0.0 0.0 0.0 
2.343609547735e-05 -7.515722629542e-06 0.0 
-7.515722629542e-06 2.648193746360e-04 0.0 
0.0 0.0 0.0 
3.871192132680e-05 8.956939820828e-05 0.0 
8.956939820828e-05 3.932147206710e-04 0.0 
0.0 0.0 0.0 
2.634269960256e-05 1.013714716363e-04 0.0 
1.013714716363e-04 4.600190870489e-04 0.0 
0.0 0.0 0.0 
-3.142672319695e-05 2.552201970248e-05 0.0 
2.552201970248e-05 1.255156407118e-03 0.0 
0.0 0.0 0.0 
-3.154332427043e-05 2.105533842047e-05 0.0 
2.105533842047e-05 1.229363128132e-03 0.0 
0.0 0.0 0.0 
3.976303925635e-05 5.225879103267e-05 0.0 
5.225879103267e-05 9.987653808043e-04 0.0 
0.0 0.0 0.0 
2.598382540719e-05 -6.239979712595e-06 0.0 
-6.239979712595e-06 2.905936121529e-04 0.0 
0.0 0.0 0.0 
4.167219218539e-05 3.366663994520e-05 0.0 
3.366663994520e-05 9.611104847408e-04 0.0 
0.0 0.0 0.0 
4.586279686084e-05 5.137261148645e-05 0.0 
5.137261148645e-05 2.729096811666e-04 0.0 
0.0 0.0 0.0 
4.294038007576e-05 1.387378401781e-05 0.0 
1.387378401781e-05 8.935857010981e-04 0.0 
0.0 0.0 0.0 
3.808495609185e-05 1.581481052077e-05 0.0 
1.581481052077e-05 9.610942893099e-04 0.0 
0.0 0.0 0.0 
5.184427905088e-05 2.087398838332e-05 0.0 
2.087398838332e-05 7.856434454784e-04 0.0 
0.0 0.0 0.0 
1.196859028248e-05 8.711454331313e-05 0.0 
8.711454331313e-05 1.097039995504e-03 0.0 
0.0 0.0 0.0 
7.110787203983e-06 8.772288351201e-05 0.0 
8.772288351201e-05 1.082922892068e-03 0.0 
0.0 0.0 0.0 
5.488858196952e-05 3.969546152788e-05 0.0 
3.969546152788e-05 3.777665219239e-04 0.0 
0.0 0.0 0.0 
5.097697297866e-05 2.511717739262e-05 0.0 
2.511717739262e-05 3.332803209084e-04 0.0 
0.0 0.0 0.0 
4.324174178860e-05 1.708868924064e-05 0.0 
1.708868924064e-05 2.701133155929e-04 0.0 
0.0 0.0 0.0 
4.401557435322e-05 1.283016514668e-05 0.0 
1.283016514668e-05 2.948096391950e-04 0.0 
0.0 0.0 0.0 
5.162097367957e-05 2.002816226567e-05 0.0 
2.002816226567e-05 3.569115933435e-04 0.0 
0.0 0.0 0.0 
4.526720448842e-05 9.227598531756e-06 0.0 
9.227598531756e-06 3.173468089175e-04 0.0 
0.0 0.0 0.0 
3.584220407045e-05 2.569746563203e-06 0.0 
2.569746563203e-06 2.562700427179e-04 0.0 
0.0 0.0 0.0 
3.729994861712e-05 5.503503871690e-07 0.0 
5.503503871690e-07 2.804347671205e-04 0.0 
0.0 0.0 0.0 
4.610273868825e-05 6.553664256880e-06 0.0 
6.553664256880e-06 3.418708271081e-04 0.0 
0.0 0.0 0.0 
3.885444770912e-05 -8.880318788043e-07 0.0 
-8.880318788043e-07 3.052820859635e-04 0.0 
0.0 0.0 0.0 
2.848846894880e-05 -5.864375522175e-06 0.0 
-5.864375522175e-06 2.450484184496e-04 0.0 
0.0 0.0 0.0 
3.100149520430e-05 -6.169782263759e-06 0.0 
-6.169782263759e-06 2.700024728891e-04 0.0 
0.0 0.0 0.0 
3.518750368388e-05 2.039560846510e-05 0.0 
2.039560846510e-05 1.001200773329e-03 0.0 
0.0 0.0 0.0 
3.920618927748e-05 3.037701062577e-05 0.0 
3.037701062577e-05 2.243735175340e-04 0.0 
0.0 0.0 0.0 
-5.047206157338e-05 3.758911946222e-05 0.0 
3.758911946222e-05 1.035736315669e-03 0.0 
0.0 0.0 0.0 
3.752346299209e-05 4.940890333228e-05 0.0 
4.940890333228e-05 1.022487397120e-03 0.0 
0.0 0.0 0.0 
2.456962592475e-05 7.952942040736e-05 0.0 
7.952942040736e-05 1.076080812124e-03 0.0 
0.0 0.0 0.0 
-2.766534535235e-05 2.494640506675e-05 0.0 
2.494640506675e-05 1.288816564081e-03 0.0 
0.0 0.0 0.0 
-2.809458279113e-05 2.075507443281e-05 0.0 
2.075507443281e-05 1.262906569845e-03 0.0 
0.0 0.0 0.0 
-3.135000549128e-05 1.722040783633e-05 0.0 
1.722040783633e-05 1.202613857680e-03 0.0 
0.0 0.0 0.0 
-2.828718305276e-05 1.704798073464e-05 0.0 
1.704798073464e-05 1.236406161106e-03 0.0 
0.0 0.0 0.0 
-2.459143364623e-05 2.022001379020e-05 0.0 
2.022001379020e-05 1.296555161448e-03 0.0 
0.0 0.0 0.0 
-2.509192173435e-05 1.667386739255e-05 0.0 
1.667386739255e-05 1.270015635810e-03 0.0 
0.0 0.0 0.0 
-2.827005921667e-05 1.369356552536e-05 0.0 
1.369356552536e-05 1.209313655348e-03 0.0 
0.0 0.0 0.0 
-2.529457946767e-05 1.348082294062e-05 0.0 
1.348082294062e-05 1.242852237862e-03 0.0 
0.0 0.0 0.0 
-2.793536147755e-05 1.073787386110e-05 0.0 
1.073787386110e-05 1.181611619559e-03 0.0 
0.0 0.0 0.0 
-2.531813316498e-05 1.069161429246e-05 0.0 
1.069161429246e-05 1.215262483317e-03 0.0 
0.0 0.0 0.0 
-2.226194809749e-05 1.307043850209e-05 0.0 
1.307043850209e-05 1.276351051993e-03 0.0 
0.0 0.0 0.0 
-2.264358035516e-05 1.032923123753e-05 0.0 
1.032923123753e-05 1.248923982838e-03 0.0 
0.0 0.0 0.0 
-2.534980474656e-05 8.301088366917e-06 0.0 
8.301088366917e-06 1.187470791368e-03 0.0 
0.0 0.0 0.0 
-2.294279157089e-05 7.922230603287e-06 0.0 
7.922230603287e-06 1.221170617140e-03 0.0 
0.0 0.0 0.0 
-2.532650288313e-05 6.174524805864e-06 0.0 
6.174524805864e-06 1.159303726968e-03 0.0 
0.0 0.0 0.0 
-2.304995848299e-05 5.788836264652e-06 0.0 
5.788836264652e-06 1.192818387429e-03 0.0 
0.0 0.0 0.0 
-2.045572167471e-05 7.519242130706e-06 0.0 
7.519242130706e-06 1.254851247305e-03 0.0 
0.0 0.0 0.0 
1.964421547255e-05 -6.643819207563e-06 0.0 
-6.643819207563e-06 2.328588237856e-04 0.0 
0.0 0.0 0.0 
3.683065102441e-05 6.843566090368e-05 0.0 
6.843566090368e-05 9.787209045773e-04 0.0 
0.0 0.0 0.0 
3.161280619538e-05 7.157795454192e-05 0.0 
7.157795454192e-05 1.046503782182e-03 0.0 
0.0 0.0 0.0 
4.176224516750e-05 -2.152878173175e-06 0.0 
-2.152878173175e-06 4.749241996245e-04 0.0 
0.0 0.0 0.0 
4.538789811326e-05 -2.993783367457e-07 0.0 
-2.993783367457e-07 5.344855226703e-04 0.0 
0.0 0.0 0.0 
4.767651987891e-05 2.206134364328e-06 0.0 
2.206134364328e-06 5.706428345209e-04 0.0 
0.0 0.0 0.0 
4.765263204635e-05 2.283194804203e-06 0.0 
2.283194804203e-06 5.982443023596e-04 0.0 
0.0 0.0 0.0 
-2.092613255987e-05 5.410529554019e-06 0.0 
5.410529554019e-06 1.226281709922e-03 0.0 
0.0 0.0 0.0 
-1.820627581870e-05 6.966679513533e-06 0.0 
6.966679513533e-06 1.288572908365e-03 0.0 
0.0 0.0 0.0 
2.749442864898e-05 1.020930866846e-04 0.0 
1.020930866846e-04 3.946706928574e-04 0.0 
0.0 0.0 0.0 
1.172093852425e-05 1.097080636976e-04 0.0 
1.097080636976e-04 4.660406706489e-04 0.0 
0.0 0.0 0.0 
-2.686345547180e-05 2.958666511454e-05 0.0 
2.958666511454e-05 1.313934978046e-03 0.0 
0.0 0.0 0.0 
4.040986633066e-05 1.172041466865e-05 0.0 
1.172041466865e-05 9.219162173157e-04 0.0 
0.0 0.0 0.0 
4.437801341761e-05 1.014058828779e-05 0.0 
1.014058828779e-05 8.549776214520e-04 0.0 
0.0 0.0 0.0 
-3.171681494048e-05 8.326892060725e-05 0.0 
8.326892060725e-05 8.157829799761e-04 0.0 
0.0 0.0 0.0 
-4.064730838880e-05 7.524954902491e-05 0.0 
7.524954902491e-05 8.103773722186e-04 0.0 
0.0 0.0 0.0 
-3.496266503313e-05 8.301977826379e-05 0.0 
8.301977826379e-05 7.629980578975e-04 0.0 
0.0 0.0 0.0 
-4.379322299351e-05 7.307284370923e-05 0.0 
7.307284370923e-05 7.577049098559e-04 0.0 
0.0 0.0 0.0 
-4.758364147682e-05 6.532251568533e-05 0.0 
6.532251568533e-05 8.027227985606e-04 0.0 
0.0 0.0 0.0 
-3.846420627385e-05 8.197281268945e-05 0.0 
8.197281268945e-05 7.100469023120e-04 0.0 
0.0 0.0 0.0 
5.025952059534e-05 4.484029079858e-05 0.0 
4.484029079858e-05 8.616239464747e-04 0.0 
0.0 0.0 0.0 
-1.925464223695e-05 1.237020692863e-05 0.0 
1.237020692863e-05 1.309903852457e-03 0.0 
0.0 0.0 0.0 
3.071064550216e-05 -7.669054887540e-06 0.0 
-7.669054887540e-06 3.065289553461e-04 0.0 
0.0 0.0 0.0 
2.250227120300e-05 -9.491627725008e-06 0.0 
-9.491627725008e-06 2.468040748029e-04 0.0 
0.0 0.0 0.0 
3.490656373780e-05 1.328009930147e-05 0.0 
1.328009930147e-05 9.898319477477e-04 0.0 
0.0 0.0 0.0 
4.129602803737e-05 6.592681216423e-05 0.0 
6.592681216423e-05 9.117214872429e-04 0.0 
0.0 0.0 0.0 
-3.114274491680e-05 7.539236948791e-05 0.0 
7.539236948791e-05 1.070975579009e-03 0.0 
0.0 0.0 0.0 
-2.440893765743e-05 8.014965657088e-05 0.0 
8.014965657088e-05 1.081835522661e-03 0.0 
0.0 0.0 0.0 
-2.743119424797e-05 7.739477819399e-05 0.0 
7.739477819399e-05 1.126906263972e-03 0.0 
0.0 0.0 0.0 
-2.107914451675e-05 8.184356308297e-05 0.0 
8.184356308297e-05 1.138479043116e-03 0.0 
0.0 0.0 0.0 
-2.354189265648e-05 7.985057638333e-05 0.0 
7.985057638333e-05 1.183509281694e-03 0.0 
0.0 0.0 0.0 
-1.770159467710e-05 8.414966858327e-05 0.0 
8.414966858327e-05 1.195592117151e-03 0.0 
0.0 0.0 0.0 
-1.474277776666e-05 8.540447865870e-05 0.0 
8.540447865870e-05 1.149983511809e-03 0.0 
0.0 0.0 0.0 
6.437334823898e-06 8.973213247635e-05 0.0 
8.973213247635e-05 1.146350754311e-03 0.0 
0.0 0.0 0.0 
-1.209855702172e-05 8.772297743115e-05 0.0 
8.772297743115e-05 1.208058734776e-03 0.0 
0.0 0.0 0.0 
-2.294128582353e-05 4.490388739945e-06 0.0 
4.490388739945e-06 1.163206443861e-03 0.0 
0.0 0.0 0.0 
1.522570796545e-05 8.555478858378e-05 0.0 
8.555478858378e-05 9.692943385383e-04 0.0 
0.0 0.0 0.0 
4.676796436883e-05 4.618727315774e-06 0.0 
4.618727315774e-06 3.670417112706e-04 0.0 
0.0 0.0 0.0 
1.638219948030e-05 -8.181649721488e-06 0.0 
-8.181649721488e-06 2.065475798346e-04 0.0 
0.0 0.0 0.0 
1.916060173005e-05 -9.487046422717e-06 0.0 
-9.487046422717e-06 2.095173905089e-04 0.0 
0.0 0.0 0.0 
2.222616000872e-05 -5.264337634700e-06 0.0 
-5.264337634700e-06 2.562396394763e-04 0.0 
0.0 0.0 0.0 
2.829709122424e-05 -4.661970885598e-06 0.0 
-4.661970885598e-06 3.165235836873e-04 0.0 
0.0 0.0 0.0 
3.299938771365e-05 5.622976707326e-05 0.0 
5.622976707326e-05 1.067656998950e-03 0.0 
0.0 0.0 0.0 
-1.951103416664e-05 8.292619879085e-05 0.0 
8.292619879085e-05 1.240538175514e-03 0.0 
0.0 0.0 0.0 
-2.478890201916e-05 7.802633422120e-05 0.0 
7.802633422120e-05 1.226820403086e-03 0.0 
0.0 0.0 0.0 
-4.956203604458e-05 6.132821084844e-05 0.0 
6.132821084844e-05 7.505372918360e-04 0.0 
0.0 0.0 0.0 
-5.188954146723e-05 5.358619113176e-05 0.0 
5.358619113176e-05 7.927298805680e-04 0.0 
0.0 0.0 0.0 
1.032822436705e-05 8.946440652612e-05 0.0 
8.946440652612e-05 1.160594837444e-03 0.0 
0.0 0.0 0.0 
-3.687479216656e-05 1.725611122467e-05 0.0 
1.725611122467e-05 1.135584354670e-03 0.0 
0.0 0.0 0.0 
-3.049459804583e-05 1.063329574795e-05 0.0 
1.063329574795e-05 1.148093238626e-03 0.0 
0.0 0.0 0.0 
-2.967284627794e-05 8.069411583295e-06 0.0 
8.069411583295e-06 1.119618299901e-03 0.0 
0.0 0.0 0.0 
1.577442273531e-05 -5.972432050030e-06 0.0 
-5.972432050030e-06 1.916616871557e-04 0.0 
0.0 0.0 0.0 
1.592087951637e-05 -9.196798985466e-06 0.0 
-9.196798985466e-06 1.874066354482e-04 0.0 
0.0 0.0 0.0 
-2.102810122316e-05 1.950274206462e-05 0.0 
1.950274206462e-05 1.330124073635e-03 0.0 
0.0 0.0 0.0 
1.132833842045e-05 1.063888437510e-04 0.0 
1.063888437510e-04 5.269352724567e-04 0.0 
0.0 0.0 0.0 
-4.908510765123e-06 1.088901360466e-04 0.0 
1.088901360466e-04 5.349324191716e-04 0.0 
0.0 0.0 0.0 
3.530477004487e-05 4.048617576295e-05 0.0 
4.048617576295e-05 2.059813108007e-04 0.0 
0.0 0.0 0.0 
2.237518966948e-05 1.910431824784e-05 0.0 
1.910431824784e-05 1.617474290664e-04 0.0 
0.0 0.0 0.0 
-1.855808765651e-05 5.340377672471e-06 0.0 
5.340377672471e-06 1.259115440631e-03 0.0 
0.0 0.0 0.0 
-1.551291010510e-05 6.225762235084e-06 0.0 
6.225762235084e-06 1.320712314272e-03 0.0 
0.0 0.0 0.0 
4.944497400120e-05 4.594871916929e-06 0.0 
4.594871916929e-06 6.340492009900e-04 0.0 
0.0 0.0 0.0 
4.862768937693e-05 4.134627906798e-06 0.0 
4.134627906798e-06 6.616886019232e-04 0.0 
0.0 0.0 0.0 
3.516881457107e-05 5.904109105849e-05 0.0 
5.904109105849e-05 1.044756390385e-03 0.0 
0.0 0.0 0.0 
2.300683354676e-05 -9.336592867940e-06 0.0 
-9.336592867940e-06 2.356238171438e-04 0.0 
0.0 0.0 0.0 
-1.448638289090e-05 8.137991670822e-06 0.0 
8.137991670822e-06 1.349778679087e-03 0.0 
0.0 0.0 0.0 
4.228132077881e-05 6.214487739264e-05 0.0 
6.214487739264e-05 9.306901717060e-04 0.0 
0.0 0.0 0.0 
4.664024249175e-05 5.930023123488e-05 0.0 
5.930023123488e-05 8.632420317867e-04 0.0 
0.0 0.0 0.0 
4.592866055021e-05 1.064799536373e-06 0.0 
1.064799536373e-06 5.615925323499e-04 0.0 
0.0 0.0 0.0 
1.169817726900e-05 1.120118628659e-04 0.0 
1.120118628659e-04 4.055595001972e-04 0.0 
0.0 0.0 0.0 
2.725305694447e-05 1.002414924496e-04 0.0 
1.002414924496e-04 3.291750321051e-04 0.0 
0.0 0.0 0.0 
5.232029879861e-05 1.266988186527e-05 0.0 
1.266988186527e-05 4.049149262456e-04 0.0 
0.0 0.0 0.0 
3.327993094267e-05 -6.159438192852e-06 0.0 
-6.159438192852e-06 2.953690141636e-04 0.0 
0.0 0.0 0.0 
2.464695908936e-05 -3.871186496302e-06 0.0 
-3.871186496302e-06 2.821425508498e-04 0.0 
0.0 0.0 0.0 
2.792058274533e-05 6.354711839158e-05 0.0 
6.354711839158e-05 1.113926817318e-03 0.0 
0.0 0.0 0.0 
-1.986929871722e-05 2.326222032449e-05 0.0 
2.326222032449e-05 1.355754383262e-03 0.0 
0.0 0.0 0.0 
-8.824194625260e-06 8.785951298294e-05 0.0 
8.785951298294e-05 1.162053107801e-03 0.0 
0.0 0.0 0.0 
-1.059774173351e-05 8.653314067272e-05 0.0 
8.653314067272e-05 1.102868362697e-03 0.0 
0.0 0.0 0.0 
-6.579698837143e-06 9.046450147289e-05 0.0 
9.046450147289e-05 1.221201175098e-03 0.0 
0.0 0.0 0.0 
1.105955936150e-05 -1.114811919629e-05 0.0 
-1.114811919629e-05 1.774488079838e-04 0.0 
0.0 0.0 0.0 
2.992183269057e-05 5.329106757672e-05 0.0 
5.329106757672e-05 1.092507244954e-03 0.0 
0.0 0.0 0.0 
3.749165347807e-05 9.267327767289e-06 0.0 
9.267327767289e-06 9.510125188400e-04 0.0 
0.0 0.0 0.0 
-2.032741494014e-05 8.179962966141e-05 0.0 
8.179962966141e-05 1.281606015995e-03 0.0 
0.0 0.0 0.0 
-2.474476380177e-05 7.648851298149e-05 0.0 
7.648851298149e-05 1.268587587637e-03 0.0 
0.0 0.0 0.0 
-3.664660770120e-06 1.051866622716e-04 0.0 
1.051866622716e-04 5.912149729884e-04 0.0 
0.0 0.0 0.0 
-1.954199511611e-05 1.017930776180e-04 0.0 
1.017930776180e-04 5.990838445524e-04 0.0 
0.0 0.0 0.0 
-2.228485425008e-05 1.038670124094e-04 0.0 
1.038670124094e-04 5.475795094257e-04 0.0 
0.0 0.0 0.0 
-3.379427330397e-05 9.254765046367e-05 0.0 
9.254765046367e-05 6.068158764886e-04 0.0 
0.0 0.0 0.0 
-4.905409969452e-05 2.897124258667e-05 0.0 
2.897124258667e-05 1.050449012024e-03 0.0 
0.0 0.0 0.0 
-1.688253952401e-05 9.936252574726e-05 0.0 
9.936252574726e-05 6.523735499738e-04 0.0 
0.0 0.0 0.0 
-5.155867650869e-05 4.006967363049e-05 0.0 
4.006967363049e-05 9.994296983310e-04 0.0 
0.0 0.0 0.0 
-5.202699144215e-05 3.237873403421e-05 0.0 
3.237873403421e-05 9.802722198077e-04 0.0 
0.0 0.0 0.0 
-5.297490727999e-05 3.486996209015e-05 0.0 
3.486996209015e-05 9.447573688580e-04 0.0 
0.0 0.0 0.0 
-5.017193900919e-05 5.810693857099e-05 0.0 
5.810693857099e-05 8.448217766558e-04 0.0 
0.0 0.0 0.0 
-5.309761324712e-05 4.710862403673e-05 0.0 
4.710862403673e-05 8.323853331771e-04 0.0 
0.0 0.0 0.0 
2.323388982765e-05 9.663990870973e-05 0.0 
9.663990870973e-05 5.892635875137e-04 0.0 
0.0 0.0 0.0 
2.516080846526e-05 8.331462402683e-05 0.0 
8.331462402683e-05 8.534144650641e-04 0.0 
0.0 0.0 0.0 
4.991112811574e-05 4.818747899257e-06 0.0 
4.818747899257e-06 6.070239399438e-04 0.0 
0.0 0.0 0.0 
5.023662680063e-05 1.446675710201e-05 0.0 
1.446675710201e-05 7.728818549031e-04 0.0 
0.0 0.0 0.0 
5.587181492284e-05 3.395669719304e-05 0.0 
3.395669719304e-05 7.511862718826e-04 0.0 
0.0 0.0 0.0 
-1.845174995363e-05 1.534822440026e-05 0.0 
1.534822440026e-05 1.336594213605e-03 0.0 
0.0 0.0 0.0 
-1.525240967918e-05 1.426056673312e-05 0.0 
1.426056673312e-05 1.370420623716e-03 0.0 
0.0 0.0 0.0 
-2.733450151752e-05 6.290204378709e-06 0.0 
6.290204378709e-06 1.125414130333e-03 0.0 
0.0 0.0 0.0 
-2.660077430849e-05 4.307963371894e-06 0.0 
4.307963371894e-06 1.096477440590e-03 0.0 
0.0 0.0 0.0 
1.716236342523e-05 -9.583298251307e-06 0.0 
-9.583298251307e-06 2.125988996231e-04 0.0 
0.0 0.0 0.0 
1.296758956419e-05 -1.000046707859e-05 0.0 
-1.000046707859e-05 1.877753537379e-04 0.0 
0.0 0.0 0.0 
5.519716901585e-05 1.870864130107e-05 0.0 
1.870864130107e-05 6.938821621873e-04 0.0 
0.0 0.0 0.0 
3.450943762725e-05 4.660409678276e-05 0.0 
4.660409678276e-05 1.046822101975e-03 0.0 
0.0 0.0 0.0 
-2.278125095743e-05 2.864237851569e-05 0.0 
2.864237851569e-05 1.347074871768e-03 0.0 
0.0 0.0 0.0 
-2.131615883964e-05 3.339621329365e-05 0.0 
3.339621329365e-05 1.371627062437e-03 0.0 
0.0 0.0 0.0 
-2.559036693023e-05 3.459645331253e-05 0.0 
3.459645331253e-05 1.337931668988e-03 0.0 
0.0 0.0 0.0 
3.019546953076e-05 6.604249918680e-05 0.0 
6.604249918680e-05 1.090864761768e-03 0.0 
0.0 0.0 0.0 
4.911070277706e-05 7.081087772588e-05 0.0 
7.081087772588e-05 5.471850067440e-04 0.0 
0.0 0.0 0.0 
4.257823875268e-05 6.859143512360e-05 0.0 
6.859143512360e-05 8.284484511037e-04 0.0 
0.0 0.0 0.0 
2.661461921531e-05 1.280991784916e-05 0.0 
1.280991784916e-05 1.840736365705e-04 0.0 
0.0 0.0 0.0 
-1.454284503649e-05 8.582292375272e-05 0.0 
8.582292375272e-05 9.874679605029e-04 0.0 
0.0 0.0 0.0 
8.245116419170e-06 -9.244153331696e-06 0.0 
-9.244153331696e-06 1.541856744991e-04 0.0 
0.0 0.0 0.0 
-3.863237448807e-05 6.072612283951e-05 0.0 
6.072612283951e-05 1.181214970882e-03 0.0 
0.0 0.0 0.0 
3.167503336417e-05 1.045853069402e-05 0.0 
1.045853069402e-05 1.019307696411e-03 0.0 
0.0 0.0 0.0 
2.828752789393e-05 1.477377201646e-05 0.0 
1.477377201646e-05 1.058176647274e-03 0.0 
0.0 0.0 0.0 
5.487441519773e-06 9.244961602733e-05 0.0 
9.244961602733e-05 1.208218915105e-03 0.0 
0.0 0.0 0.0 
-4.842196790911e-05 1.815935229449e-05 0.0 
1.815935229449e-05 9.718692483666e-04 0.0 
0.0 0.0 0.0 
-6.427411797053e-06 8.753111271101e-05 0.0 
8.753111271101e-05 9.962368409071e-04 0.0 
0.0 0.0 0.0 
7.954497724024e-07 8.844622449087e-05 0.0 
8.844622449087e-05 9.462570718451e-04 0.0 
0.0 0.0 0.0 
-5.243093662266e-05 2.705900659756e-05 0.0 
2.705900659756e-05 9.250039999008e-04 0.0 
0.0 0.0 0.0 
-5.314631826840e-05 2.936117971945e-05 0.0 
2.936117971945e-05 8.903671283015e-04 0.0 
0.0 0.0 0.0 
-5.343705255935e-05 3.803113597786e-05 0.0 
3.803113597786e-05 9.085889744047e-04 0.0 
0.0 0.0 0.0 
-5.356427408685e-05 3.246299403598e-05 0.0 
3.246299403598e-05 8.546162696398e-04 0.0 
0.0 0.0 0.0 
5.237137199302e-05 1.017722536728e-05 0.0 
1.017722536728e-05 4.292950712215e-04 0.0 
0.0 0.0 0.0 
4.727155786962e-05 3.222142266613e-06 0.0 
3.222142266613e-06 3.917452941216e-04 0.0 
0.0 0.0 0.0 
-1.492831702670e-05 8.743435427575e-05 0.0 
8.743435427575e-05 1.301926984174e-03 0.0 
0.0 0.0 0.0 
-9.245664143398e-06 9.175911876177e-05 0.0 
9.175911876177e-05 1.265421597233e-03 0.0 
0.0 0.0 0.0 
-1.917699280640e-05 8.079996736696e-05 0.0 
8.079996736696e-05 1.323210617911e-03 0.0 
0.0 0.0 0.0 
-2.302764228438e-05 7.522012274451e-05 0.0 
7.522012274451e-05 1.310562380012e-03 0.0 
0.0 0.0 0.0 
8.797367731406e-06 9.279907655761e-05 0.0 
9.279907655761e-05 1.223192002746e-03 0.0 
0.0 0.0 0.0 
1.336246915762e-05 8.882251220250e-05 0.0 
8.882251220250e-05 1.175032373911e-03 0.0 
0.0 0.0 0.0 
2.996142454740e-05 -3.432185984082e-06 0.0 
-3.432185984082e-06 3.409805877664e-04 0.0 
0.0 0.0 0.0 
-5.333381304419e-05 4.126117044470e-05 0.0 
4.126117044470e-05 7.797766930792e-04 0.0 
0.0 0.0 0.0 
-1.574832601102e-05 2.208957149975e-05 0.0 
2.208957149975e-05 1.389213356750e-03 0.0 
0.0 0.0 0.0 
-5.133530260617e-05 2.524450254861e-05 0.0 
2.524450254861e-05 9.592844884609e-04 0.0 
0.0 0.0 0.0 
2.606369386560e-05 4.999482586162e-05 0.0 
4.999482586162e-05 1.115492641347e-03 0.0 
0.0 0.0 0.0 
3.114324327402e-05 4.368269353493e-05 0.0 
4.368269353493e-05 1.072583718686e-03 0.0 
0.0 0.0 0.0 
4.888933092084e-06 4.513089178121e-06 0.0 
4.513089178121e-06 1.255820554359e-04 0.0 
0.0 0.0 0.0 
1.066642318402e-05 -9.777609410254e-07 0.0 
-9.777609410254e-07 1.471873276111e-04 0.0 
0.0 0.0 0.0 
-1.192497283931e-05 6.908697976425e-06 0.0 
6.908697976425e-06 1.382726063963e-03 0.0 
0.0 0.0 0.0 
-3.730852379064e-05 8.993752153177e-05 0.0 
8.993752153177e-05 5.588684233636e-04 0.0 
0.0 0.0 0.0 
-4.433567449704e-05 7.630828398769e-05 0.0 
7.630828398769e-05 6.089729987236e-04 0.0 
0.0 0.0 0.0 
-2.558293681350e-05 1.037534062251e-04 0.0 
1.037534062251e-04 4.987461950923e-04 0.0 
0.0 0.0 0.0 
1.495928908742e-05 4.279638881586e-06 0.0 
4.279638881586e-06 1.160096487366e-03 0.0 
0.0 0.0 0.0 
-2.554047072051e-05 1.509648996074e-07 0.0 
1.509648996074e-07 9.732996267977e-04 0.0 
0.0 0.0 0.0 
2.477601735151e-05 1.153226389754e-05 0.0 
1.153226389754e-05 1.088331113672e-03 0.0 
0.0 0.0 0.0 
-5.158125037408e-05 5.204417964009e-05 0.0 
5.204417964009e-05 8.854586279440e-04 0.0 
0.0 0.0 0.0 
-1.020879602437e-05 9.367810081439e-06 0.0 
9.367810081439e-06 1.411611127017e-03 0.0 
0.0 0.0 0.0 
1.108717278708e-06 8.783425321331e-05 0.0 
8.783425321331e-05 1.006614563441e-03 0.0 
0.0 0.0 0.0 
-2.405910831282e-05 9.042761273741e-05 0.0 
9.042761273741e-05 7.643320658888e-04 0.0 
0.0 0.0 0.0 
3.644304448073e-05 6.188899864537e-05 0.0 
6.188899864537e-05 1.022212990276e-03 0.0 
0.0 0.0 0.0 
-1.347442713928e-05 4.127215722491e-06 0.0 
4.127215722491e-06 1.350162932485e-03 0.0 
0.0 0.0 0.0 
-9.768855675533e-06 5.661470410026e-06 0.0 
5.661470410026e-06 1.417147183431e-03 0.0 
0.0 0.0 0.0 
-3.152135896086e-05 7.901501124452e-06 0.0 
7.901501124452e-06 1.085892335117e-03 0.0 
0.0 0.0 0.0 
-3.090914996432e-05 4.963501209851e-06 0.0 
4.963501209851e-06 1.055347918438e-03 0.0 
0.0 0.0 0.0 
-3.291642796323e-05 1.039665683764e-05 0.0 
1.039665683764e-05 1.112737609497e-03 0.0 
0.0 0.0 0.0 
4.145253131952e-05 6.394163606561e-05 0.0 
6.394163606561e-05 2.605234236774e-04 0.0 
0.0 0.0 0.0 
2.813045722998e-05 5.324789248249e-05 0.0 
5.324789248249e-05 1.889142599705e-04 0.0 
0.0 0.0 0.0 
-1.636802424532e-05 1.150809185652e-05 0.0 
1.150809185652e-05 1.343254035551e-03 0.0 
0.0 0.0 0.0 
3.743409185353e-05 -3.575144748385e-06 0.0 
-3.575144748385e-06 4.119986979037e-04 0.0 
0.0 0.0 0.0 
3.860479815998e-05 -1.823110256884e-06 0.0 
-1.823110256884e-06 4.451968676941e-04 0.0 
0.0 0.0 0.0 
2.607429448361e-05 -9.057626315798e-06 0.0 
-9.057626315798e-06 2.594053610347e-04 0.0 
0.0 0.0 0.0 
3.503742869930e-05 -6.097446949150e-06 0.0 
-6.097446949150e-06 3.189563471692e-04 0.0 
0.0 0.0 0.0 
5.072888105336e-05 7.630226140246e-06 0.0 
7.630226140246e-06 6.707989852641e-04 0.0 
0.0 0.0 0.0 
5.170149411445e-05 8.180795439201e-06 0.0 
8.180795439201e-06 6.439501447908e-04 0.0 
0.0 0.0 0.0 
-3.454098956474e-05 6.694370406924e-05 0.0 
6.694370406924e-05 1.197325632205e-03 0.0 
0.0 0.0 0.0 
-3.358591854373e-05 6.495361530606e-05 0.0 
6.495361530606e-05 1.236799828581e-03 0.0 
0.0 0.0 0.0 
-3.341189321765e-05 7.215113265884e-05 0.0 
7.215113265884e-05 1.114516790471e-03 0.0 
0.0 0.0 0.0 
4.708584366893e-05 5.523837736719e-05 0.0 
5.523837736719e-05 8.835276916821e-04 0.0 
0.0 0.0 0.0 
5.107093897653e-05 5.212031369646e-05 0.0 
5.212031369646e-05 8.161034198827e-04 0.0 
0.0 0.0 0.0 
5.030621889516e-05 5.660269910461e-05 0.0 
5.660269910461e-05 7.964744072214e-04 0.0 
0.0 0.0 0.0 
-1.411599114087e-05 1.729219347860e-05 0.0 
1.729219347860e-05 1.395157255186e-03 0.0 
0.0 0.0 0.0 
-1.024015468354e-05 1.626397278912e-05 0.0 
1.626397278912e-05 1.435302695043e-03 0.0 
0.0 0.0 0.0 
5.625248440633e-05 1.846644405607e-05 0.0 
1.846644405607e-05 4.682479961036e-04 0.0 
0.0 0.0 0.0 
5.635196037823e-05 2.215934354302e-05 0.0 
2.215934354302e-05 4.447610230766e-04 0.0 
0.0 0.0 0.0 
5.227495694241e-05 8.292496690559e-06 0.0 
8.292496690559e-06 4.530592317640e-04 0.0 
0.0 0.0 0.0 
-1.422927232209e-05 2.610618644258e-05 0.0 
2.610618644258e-05 1.414421930043e-03 0.0 
0.0 0.0 0.0 
2.069916195302e-05 1.664373799097e-05 0.0 
1.664373799097e-05 1.126893805536e-03 0.0 
0.0 0.0 0.0 
2.360056340670e-05 1.906204488835e-05 0.0 
1.906204488835e-05 1.097547543993e-03 0.0 
0.0 0.0 0.0 
2.637347401080e-06 -9.960702664086e-06 0.0 
-9.960702664086e-06 1.306124479448e-04 0.0 
0.0 0.0 0.0 
8.035360879936e-06 -1.085830757483e-05 0.0 
-1.085830757483e-05 1.629910902538e-04 0.0 
0.0 0.0 0.0 
9.815659275103e-06 1.105382407077e-04 0.0 
1.105382407077e-04 3.446414914626e-04 0.0 
0.0 0.0 0.0 
2.293685720970e-05 9.267235180766e-05 0.0 
9.267235180766e-05 2.632936001959e-04 0.0 
0.0 0.0 0.0 
-1.929942800923e-05 3.850876187306e-05 0.0 
3.850876187306e-05 1.393694144679e-03 0.0 
0.0 0.0 0.0 
-2.391912160208e-05 4.011720802064e-05 0.0 
4.011720802064e-05 1.361560427360e-03 0.0 
0.0 0.0 0.0 
-1.424119011485e-05 3.714175499676e-05 0.0 
3.714175499676e-05 1.432082323146e-03 0.0 
0.0 0.0 0.0 
2.618589513570e-05 -2.223636398428e-06 0.0 
-2.223636398428e-06 3.026115976716e-04 0.0 
0.0 0.0 0.0 
-4.135528092271e-06 8.825504066866e-05 0.0 
8.825504066866e-05 1.115659347988e-03 0.0 
0.0 0.0 0.0 
2.247474391818e-05 7.082806252554e-05 0.0 
7.082806252554e-05 1.158095087294e-03 0.0 
0.0 0.0 0.0 
2.486196758415e-05 7.362173793171e-05 0.0 
7.362173793171e-05 1.136332562856e-03 0.0 
0.0 0.0 0.0 
1.861319128998e-05 6.882955597547e-05 0.0 
6.882955597547e-05 1.190653802588e-03 0.0 
0.0 0.0 0.0 
1.636459755427e-06 9.155208820896e-05 0.0 
9.155208820896e-05 1.192888938382e-03 0.0 
0.0 0.0 0.0 
1.245828693301e-06 9.456446418143e-05 0.0 
9.456446418143e-05 1.252176935288e-03 0.0 
0.0 0.0 0.0 
-4.845880708889e-06 9.422376864920e-05 0.0 
9.422376864920e-05 1.280094941034e-03 0.0 
0.0 0.0 0.0 
-2.850196416752e-06 7.767757071981e-06 0.0 
7.767757071981e-06 1.037471168555e-04 0.0 
0.0 0.0 0.0 
-1.049112581255e-05 3.033988143432e-06 0.0 
3.033988143432e-06 1.396043856932e-03 0.0 
0.0 0.0 0.0 
-2.844179422038e-05 3.875903060401e-06 0.0 
3.875903060401e-06 1.059601939661e-03 0.0 
0.0 0.0 0.0 
-2.138143450940e-05 -1.350850874882e-06 0.0 
-1.350850874882e-06 8.165006310636e-05 0.0 
0.0 0.0 0.0 
-2.734503281210e-05 2.538101492447e-06 0.0 
2.538101492447e-06 1.030821612621e-03 0.0 
0.0 0.0 0.0 
-2.632616951875e-05 2.845891753182e-06 0.0 
2.845891753182e-06 1.067022362617e-03 0.0 
0.0 0.0 0.0 
-2.702928997369e-05 1.343302735918e-06 0.0 
1.343302735918e-06 9.981890236846e-04 0.0 
0.0 0.0 0.0 
2.061847281210e-05 -2.567413489972e-06 0.0 
-2.567413489972e-06 2.436751172180e-04 0.0 
0.0 0.0 0.0 
-3.377036415608e-05 6.498992815784e-06 0.0 
6.498992815784e-06 1.041056959766e-03 0.0 
0.0 0.0 0.0 
-3.529295253483e-05 9.729553983672e-06 0.0 
9.729553983672e-06 1.078571442837e-03 0.0 
0.0 0.0 0.0 
-4.140209902121e-06 -9.201031135676e-06 0.0 
-9.201031135676e-06 9.617825155732e-05 0.0 
0.0 0.0 0.0 
-9.875960300702e-06 2.457042659016e-05 0.0 
2.457042659016e-05 1.446840855129e-03 0.0 
0.0 0.0 0.0 
-1.548418019655e-06 -7.969755678271e-06 0.0 
-7.969755678271e-06 1.001752515008e-04 0.0 
0.0 0.0 0.0 
4.083308554910e-06 -7.538751687255e-06 0.0 
-7.538751687255e-06 1.223640388099e-04 0.0 
0.0 0.0 0.0 
2.354015020796e-05 4.763369577547e-05 0.0 
4.763369577547e-05 1.141828673514e-03 0.0 
0.0 0.0 0.0 
2.776787851200e-05 4.041600703674e-05 0.0 
4.041600703674e-05 1.098155806982e-03 0.0 
0.0 0.0 0.0 
1.879252911733e-05 4.352993384359e-05 0.0 
4.352993384359e-05 1.166113736123e-03 0.0 
0.0 0.0 0.0 
2.313127242430e-05 3.773845346271e-05 0.0 
3.773845346271e-05 1.122571028993e-03 0.0 
0.0 0.0 0.0 
3.178658960035e-05 3.420985513021e-05 0.0 
3.420985513021e-05 1.055215294614e-03 0.0 
0.0 0.0 0.0 
2.800726791030e-05 3.171752076394e-05 0.0 
3.171752076394e-05 1.083575777689e-03 0.0 
0.0 0.0 0.0 
-3.026570921660e-05 3.153682415668e-06 0.0 
3.153682415668e-06 1.024165985074e-03 0.0 
0.0 0.0 0.0 
1.826886907175e-05 3.558563597063e-05 0.0 
3.558563597063e-05 1.161075240094e-03 0.0 
0.0 0.0 0.0 
2.362865522147e-05 2.833514651375e-05 0.0 
2.833514651375e-05 1.113319299753e-03 0.0 
0.0 0.0 0.0 
1.384219439830e-05 3.141788184954e-05 0.0 
3.141788184954e-05 1.191297632535e-03 0.0 
0.0 0.0 0.0 
-5.206257213284e-05 2.329504477996e-05 0.0 
2.329504477996e-05 8.365892201239e-04 0.0 
0.0 0.0 0.0 
-4.181461545388e-05 8.065914291618e-05 0.0 
8.065914291618e-05 6.577264416777e-04 0.0 
0.0 0.0 0.0 
-4.903412640419e-05 6.404414452304e-05 0.0 
6.404414452304e-05 6.552469898188e-04 0.0 
0.0 0.0 0.0 
-4.723874404057e-05 5.394401165237e-05 0.0 
5.394401165237e-05 6.044517130464e-04 0.0 
0.0 0.0 0.0 
-1.542450280077e-05 8.078474218763e-05 0.0 
8.078474218763e-05 1.373293786139e-03 0.0 
0.0 0.0 0.0 
-2.120726604697e-05 7.395727166738e-05 0.0 
7.395727166738e-05 1.347040981962e-03 0.0 
0.0 0.0 0.0 
3.459164464611e-05 6.632604411231e-06 0.0 
6.632604411231e-06 9.825223469158e-04 0.0 
0.0 0.0 0.0 
3.959788844547e-05 5.815242793187e-06 0.0 
5.815242793187e-06 9.141730397467e-04 0.0 
0.0 0.0 0.0 
-2.641969275560e-05 1.832962420536e-06 0.0 
1.832962420536e-06 1.034073791620e-03 0.0 
0.0 0.0 0.0 
-2.559530833202e-05 9.647954586898e-07 0.0 
9.647954586898e-07 1.030461178048e-03 0.0 
0.0 0.0 0.0 
-2.490008733030e-05 2.839781524292e-06 0.0 
2.839781524292e-06 1.087745313496e-03 0.0 
0.0 0.0 0.0 
-2.447244791097e-05 1.290355808467e-06 0.0 
1.290355808467e-06 1.079958693154e-03 0.0 
0.0 0.0 0.0 
-2.341599400522e-05 3.057220384448e-06 0.0 
3.057220384448e-06 1.137206598822e-03 0.0 
0.0 0.0 0.0 
-2.281766906484e-05 1.166699994841e-06 0.0 
1.166699994841e-06 1.128212411860e-03 0.0 
0.0 0.0 0.0 
-2.124153337518e-05 1.782165484133e-06 0.0 
1.782165484133e-06 1.186254932506e-03 0.0 
0.0 0.0 0.0 
-6.427961727784e-06 9.620648394204e-05 0.0 
9.620648394204e-05 1.327232051785e-03 0.0 
0.0 0.0 0.0 
-3.879907451989e-05 8.435514641861e-05 0.0 
8.435514641861e-05 5.116784002815e-04 0.0 
0.0 0.0 0.0 
-5.081156575593e-05 1.976980243119e-05 0.0 
1.976980243119e-05 9.039827707718e-04 0.0 
0.0 0.0 0.0 
1.016535233522e-05 9.253664185107e-05 0.0 
9.253664185107e-05 1.237959413233e-03 0.0 
0.0 0.0 0.0 
1.465959696393e-05 8.755280951237e-05 0.0 
8.755280951237e-05 1.186525971498e-03 0.0 
0.0 0.0 0.0 
-5.364166467114e-05 3.633991912698e-05 0.0 
3.633991912698e-05 8.171385335265e-04 0.0 
0.0 0.0 0.0 
-5.211188318538e-05 2.969264127091e-05 0.0 
2.969264127091e-05 7.646469889303e-04 0.0 
0.0 0.0 0.0 
1.982914769941e-05 5.803482830897e-05 0.0 
5.803482830897e-05 1.170861787649e-03 0.0 
0.0 0.0 0.0 
-2.647140680545e-06 1.013935026713e-04 0.0 
1.013935026713e-04 6.487038036574e-04 0.0 
0.0 0.0 0.0 
-7.274995930023e-06 2.893112883572e-05 0.0 
2.893112883572e-05 1.478904016149e-03 0.0 
0.0 0.0 0.0 
-3.460440968267e-05 2.660903853547e-05 0.0 
2.660903853547e-05 6.383122154655e-05 0.0 
0.0 0.0 0.0 
-1.458099574414e-07 3.295454954900e-05 0.0 
3.295454954900e-05 1.113915914689e-04 0.0 
0.0 0.0 0.0 
-1.445611120310e-05 9.669953268988e-05 0.0 
9.669953268988e-05 7.075346579974e-04 0.0 
0.0 0.0 0.0 
-5.351161593716e-05 4.203437416942e-05 0.0 
4.203437416942e-05 8.710986158760e-04 0.0 
0.0 0.0 0.0 
-4.640722629973e-05 6.979913764107e-05 0.0 
6.979913764107e-05 7.047354555915e-04 0.0 
0.0 0.0 0.0 
-5.019218573134e-05 5.536581216515e-05 0.0 
5.536581216515e-05 6.994762681637e-04 0.0 
0.0 0.0 0.0 
4.231877593156e-05 5.857917821794e-05 0.0 
5.857917821794e-05 9.522680387663e-04 0.0 
0.0 0.0 0.0 
3.820857580772e-06 -1.129759569858e-05 0.0 
-1.129759569858e-05 1.406681367688e-04 0.0 
0.0 0.0 0.0 
-8.914708225042e-06 1.138069142094e-04 0.0 
1.138069142094e-04 4.265303739623e-04 0.0 
0.0 0.0 0.0 
-2.146054635772e-05 4.364403477824e-06 0.0 
4.364403477824e-06 1.193354930863e-03 0.0 
0.0 0.0 0.0 
-1.105067125173e-05 1.115651138736e-04 0.0 
1.115651138736e-04 3.717837730434e-04 0.0 
0.0 0.0 0.0 
3.707805536342e-05 3.174209018575e-06 0.0 
3.174209018575e-06 9.493472746180e-04 0.0 
0.0 0.0 0.0 
1.039016524418e-05 9.892222164424e-05 0.0 
9.892222164424e-05 6.497830717514e-04 0.0 
0.0 0.0 0.0 
-4.755012441373e-05 6.170746481333e-05 0.0 
6.170746481333e-05 8.974873422384e-04 0.0 
0.0 0.0 0.0 
-6.371272616823e-06 1.122080938371e-04 0.0 
1.122080938371e-04 4.801578845419e-04 0.0 
0.0 0.0 0.0 
-3.072290630483e-05 9.222418058188e-05 0.0 
9.222418058188e-05 6.580512943896e-04 0.0 
0.0 0.0 0.0 
-4.891166554551e-05 3.562442008600e-05 0.0 
3.562442008600e-05 1.071456945497e-03 0.0 
0.0 0.0 0.0 
-4.839475577317e-05 2.283301326145e-05 0.0 
2.283301326145e-05 1.028190487132e-03 0.0 
0.0 0.0 0.0 
-5.003097424922e-05 2.396014881830e-05 0.0 
2.396014881830e-05 9.941151045869e-04 0.0 
0.0 0.0 0.0 
2.175730740794e-05 9.381659174342e-05 0.0 
9.381659174342e-05 6.534472230094e-04 0.0 
0.0 0.0 0.0 
-5.228110265459e-05 4.764334877867e-05 0.0 
4.764334877867e-05 7.412526972317e-04 0.0 
0.0 0.0 0.0 
-4.990169055401e-05 3.818584949499e-05 0.0 
3.818584949499e-05 6.837795525668e-04 0.0 
0.0 0.0 0.0 
-4.984861386909e-05 4.801485483907e-05 0.0 
4.801485483907e-05 1.016737747172e-03 0.0 
0.0 0.0 0.0 
-2.977720654640e-05 3.578515317223e-05 0.0 
3.578515317223e-05 1.304020464527e-03 0.0 
0.0 0.0 0.0 
-2.827350571074e-05 4.141645795571e-05 0.0 
4.141645795571e-05 1.326897707925e-03 0.0 
0.0 0.0 0.0 
-2.176589394652e-05 4.555417171229e-05 0.0 
4.555417171229e-05 1.381650749258e-03 0.0 
0.0 0.0 0.0 
-2.631925862112e-05 4.712345632181e-05 0.0 
4.712345632181e-05 1.348530392506e-03 0.0 
0.0 0.0 0.0 
-3.236202902089e-05 4.241067663901e-05 0.0 
4.241067663901e-05 1.292248345654e-03 0.0 
0.0 0.0 0.0 
-3.032682551955e-05 4.823626618846e-05 0.0 
4.823626618846e-05 1.313537626689e-03 0.0 
0.0 0.0 0.0 
-2.332865593270e-05 5.321032785709e-05 0.0 
5.321032785709e-05 1.369390198222e-03 0.0 
0.0 0.0 0.0 
-2.735322030728e-05 5.475405392469e-05 0.0 
5.475405392469e-05 1.335222622143e-03 0.0 
0.0 0.0 0.0 
-1.879314796149e-05 6.005490499971e-05 0.0 
6.005490499971e-05 1.400214442280e-03 0.0 
0.0 0.0 0.0 
-2.430115834197e-05 6.095747205444e-05 0.0 
6.095747205444e-05 1.353768850083e-03 0.0 
0.0 0.0 0.0 
-3.125914886572e-05 5.613478947451e-05 0.0 
5.613478947451e-05 1.296646936196e-03 0.0 
0.0 0.0 0.0 
-2.854874651814e-05 6.222832963652e-05 0.0 
6.222832963652e-05 1.313984529159e-03 0.0 
0.0 0.0 0.0 
-2.191371030617e-05 6.718234642074e-05 0.0 
6.718234642074e-05 1.365925537013e-03 0.0 
0.0 0.0 0.0 
-3.474736508585e-05 5.727252125015e-05 0.0 
5.727252125015e-05 1.257916095654e-03 0.0 
0.0 0.0 0.0 
5.601294446156e-06 9.716893157571e-05 0.0 
9.716893157571e-05 1.284630526596e-03 0.0 
0.0 0.0 0.0 
-1.242954055112e-05 9.388472806356e-05 0.0 
9.388472806356e-05 7.651741660135e-04 0.0 
0.0 0.0 0.0 
1.525470709925e-05 2.647038913348e-05 0.0 
2.647038913348e-05 1.409378719883e-04 0.0 
0.0 0.0 0.0 
1.507553440299e-05 6.011808338073e-05 0.0 
6.011808338073e-05 1.605482800776e-04 0.0 
0.0 0.0 0.0 
-4.912923186429e-05 5.627197392191e-05 0.0 
5.627197392191e-05 9.387003888243e-04 0.0 
0.0 0.0 0.0 
-9.570838285566e-06 6.235544661803e-05 0.0 
6.235544661803e-05 1.459161897927e-03 0.0 
0.0 0.0 0.0 
-8.979082291657e-06 5.106691831859e-05 0.0 
5.106691831859e-05 1.471354253721e-03 0.0 
0.0 0.0 0.0 
2.481794607634e-05 9.933637578079e-05 0.0 
9.933637578079e-05 5.248351949067e-04 0.0 
0.0 0.0 0.0 
-7.596396193466e-06 8.832569852347e-05 0.0 
8.832569852347e-05 1.423044066891e-03 0.0 
0.0 0.0 0.0 
-5.073891527128e-05 3.042607103071e-05 0.0 
3.042607103071e-05 1.015509913989e-03 0.0 
0.0 0.0 0.0 
4.571741078681e-05 7.206857134111e-05 0.0 
7.206857134111e-05 3.298864499061e-04 0.0 
0.0 0.0 0.0 
-5.482814074624e-06 9.630363952277e-05 0.0 
9.630363952277e-05 1.401483351777e-03 0.0 
0.0 0.0 0.0 
-3.371305476996e-05 3.675628099426e-05 0.0 
3.675628099426e-05 1.269606404727e-03 0.0 
0.0 0.0 0.0 
-3.738597360738e-05 3.736285948640e-05 0.0 
3.736285948640e-05 1.234300869528e-03 0.0 
0.0 0.0 0.0 
-3.805332120353e-05 3.183170247558e-05 0.0 
3.183170247558e-05 1.211324909329e-03 0.0 
0.0 0.0 0.0 
-7.355239153665e-06 4.178754139465e-05 0.0 
4.178754139465e-05 1.481040771304e-03 0.0 
0.0 0.0 0.0 
-3.394689045968e-05 1.355982093522e-05 0.0 
1.355982093522e-05 1.141206411248e-03 0.0 
0.0 0.0 0.0 
-1.676860570029e-07 1.034040865278e-04 0.0 
1.034040865278e-04 1.353449357818e-03 0.0 
0.0 0.0 0.0 
2.305771431850e-05 8.282351336013e-05 0.0 
8.282351336013e-05 9.178864861687e-04 0.0 
0.0 0.0 0.0 
1.659861608265e-05 8.604524438131e-05 0.0 
8.604524438131e-05 9.057863332954e-04 0.0 
0.0 0.0 0.0 
1.792133145824e-05 8.725908831885e-05 0.0 
8.725908831885e-05 8.426434360551e-04 0.0 
0.0 0.0 0.0 
-3.398386484789e-05 4.944071083022e-05 0.0 
4.944071083022e-05 1.276938095220e-03 0.0 
0.0 0.0 0.0 
6.161840880314e-06 9.525512965916e-05 0.0 
9.525512965916e-05 1.297145191535e-03 0.0 
0.0 0.0 0.0 
1.250268655092e-05 8.810250100623e-05 0.0 
8.810250100623e-05 1.235025763134e-03 0.0 
0.0 0.0 0.0 
1.432081673240e-05 8.383116748912e-05 0.0 
8.383116748912e-05 1.223734652249e-03 0.0 
0.0 0.0 0.0 
1.889802117965e-05 8.181816167980e-05 0.0 
8.181816167980e-05 1.168068236012e-03 0.0 
0.0 0.0 0.0 
8.319170327509e-06 8.641168284916e-05 0.0 
8.641168284916e-05 1.275606278717e-03 0.0 
0.0 0.0 0.0 
-8.491969272995e-06 7.328666235831e-05 0.0 
7.328666235831e-05 1.451669796503e-03 0.0 
0.0 0.0 0.0 
-7.964840508856e-06 7.873284749335e-05 0.0 
7.873284749335e-05 1.445429461379e-03 0.0 
0.0 0.0 0.0 
5.209053220497e-05 1.589261964821e-05 0.0 
1.589261964821e-05 3.805651823364e-04 0.0 
0.0 0.0 0.0 
5.620774776312e-05 2.679939246115e-05 0.0 
2.679939246115e-05 4.218645916842e-04 0.0 
0.0 0.0 0.0 
5.845580180734e-05 3.268523661599e-05 0.0 
3.268523661599e-05 4.870704693675e-04 0.0 
0.0 0.0 0.0 
5.793212509708e-05 3.867130493534e-05 0.0 
3.867130493534e-05 4.657799813350e-04 0.0 
0.0 0.0 0.0 
5.575169913411e-05 3.253840024802e-05 0.0 
3.253840024802e-05 3.993401968225e-04 0.0 
0.0 0.0 0.0 
5.680949363869e-05 4.592921860281e-05 0.0 
4.592921860281e-05 4.453318969778e-04 0.0 
0.0 0.0 0.0 
5.688307877268e-05 5.068334058389e-05 0.0 
5.068334058389e-05 5.124333428382e-04 0.0 
0.0 0.0 0.0 
5.485373058811e-05 5.464993461649e-05 0.0 
5.464993461649e-05 4.264517683708e-04 0.0 
0.0 0.0 0.0 
-2.771759995287e-05 6.914799564265e-05 0.0 
6.914799564265e-05 1.292857721278e-03 0.0 
0.0 0.0 0.0 
9.142227866225e-06 7.616047266451e-05 0.0 
7.616047266451e-05 1.259273840588e-03 0.0 
0.0 0.0 0.0 
5.290572371763e-05 3.796310647562e-05 0.0 
3.796310647562e-05 8.182254835288e-04 0.0 
0.0 0.0 0.0 
5.397697197788e-05 4.110080370841e-05 0.0 
4.110080370841e-05 7.940458674168e-04 0.0 
0.0 0.0 0.0 
5.670963802777e-05 3.723959374952e-05 0.0 
3.723959374952e-05 7.273052992960e-04 0.0 
0.0 0.0 0.0 
5.047617645844e-05 4.872638729137e-06 0.0 
4.872638729137e-06 5.802059720033e-04 0.0 
0.0 0.0 0.0 
5.265616730354e-05 8.730437920155e-06 0.0 
8.730437920155e-06 6.172234259799e-04 0.0 
0.0 0.0 0.0 
5.299657604996e-05 1.233456378830e-05 0.0 
1.233456378830e-05 6.815924957742e-04 0.0 
0.0 0.0 0.0 
4.782586599417e-05 1.814843926483e-06 0.0 
1.814843926483e-06 5.438988786928e-04 0.0 
0.0 0.0 0.0 
-1.742427462503e-05 8.384098297841e-05 0.0 
8.384098297841e-05 1.092225612596e-03 0.0 
0.0 0.0 0.0 
9.470940876888e-06 7.013903284027e-05 0.0 
7.013903284027e-05 1.250755355774e-03 0.0 
0.0 0.0 0.0 
4.517422193262e-05 6.374495668517e-05 0.0 
6.374495668517e-05 8.450381716908e-04 0.0 
0.0 0.0 0.0 
5.353466148724e-05 9.407124501581e-06 0.0 
9.407124501581e-06 5.906305356666e-04 0.0 
0.0 0.0 0.0 
-3.913851604113e-05 6.626828980069e-06 0.0 
6.626828980069e-06 9.798271149181e-04 0.0 
0.0 0.0 0.0 
-3.986697800877e-05 1.154825164938e-05 0.0 
1.154825164938e-05 1.034029734297e-03 0.0 
0.0 0.0 0.0 
-4.246035618046e-05 1.315630571087e-05 0.0 
1.315630571087e-05 1.034360308665e-03 0.0 
0.0 0.0 0.0 
-3.979442557224e-05 1.623345392355e-05 0.0 
1.623345392355e-05 1.092602002701e-03 0.0 
0.0 0.0 0.0 
-3.756413143909e-05 8.915185410458e-06 0.0 
8.915185410458e-06 1.039947541561e-03 0.0 
0.0 0.0 0.0 
4.958579048708e-05 7.011171709277e-06 0.0 
7.011171709277e-06 6.980103464006e-04 0.0 
0.0 0.0 0.0 
4.843361318071e-05 6.285089685637e-06 0.0 
6.285089685637e-06 7.254483345658e-04 0.0 
0.0 0.0 0.0 
4.798553104364e-05 3.954893414087e-06 0.0 
3.954893414087e-06 6.894497208328e-04 0.0 
0.0 0.0 0.0 
4.733472512775e-05 5.300979718817e-06 0.0 
5.300979718817e-06 7.530375511473e-04 0.0 
0.0 0.0 0.0 
4.748371841923e-05 2.860461388392e-06 0.0 
2.860461388392e-06 7.155861221757e-04 0.0 
0.0 0.0 0.0 
4.766103861083e-05 1.863551236755e-06 0.0 
1.863551236755e-06 6.568795641776e-04 0.0 
0.0 0.0 0.0 
4.636825584592e-05 3.807442420792e-06 0.0 
3.807442420792e-06 7.795811806096e-04 0.0 
0.0 0.0 0.0 
4.668738236609e-05 2.197152282623e-06 0.0 
2.197152282623e-06 7.380594717288e-04 0.0 
0.0 0.0 0.0 
-3.501721999133e-05 3.860144100452e-06 0.0 
3.860144100452e-06 9.789622588949e-04 0.0 
0.0 0.0 0.0 
-3.625359820519e-05 -6.944634811516e-06 0.0 
-6.944634811516e-06 5.484704797432e-05 0.0 
0.0 0.0 0.0 
-1.405051817312e-05 -8.864711362915e-06 0.0 
-8.864711362915e-06 9.499039341802e-05 0.0 
0.0 0.0 0.0 
-1.372538419229e-05 -1.018851798742e-05 0.0 
-1.018851798742e-05 9.277484245096e-05 0.0 
0.0 0.0 0.0 
2.427879407666e-06 -9.527836688974e-06 0.0 
-9.527836688974e-06 1.391136858786e-04 0.0 
0.0 0.0 0.0 
5.769927257593e-06 -5.346093135954e-06 0.0 
-5.346093135954e-06 1.427692691621e-04 0.0 
0.0 0.0 0.0 
2.089814122613e-05 -3.726182888232e-06 0.0 
-3.726182888232e-06 1.935138509935e-04 0.0 
0.0 0.0 0.0 
2.176286181195e-05 -3.145273462151e-07 0.0 
-3.145273462151e-07 1.865216073040e-04 0.0 
0.0 0.0 0.0 
-1.339817540003e-05 -7.563768980689e-06 0.0 
-7.563768980689e-06 9.540811019867e-05 0.0 
0.0 0.0 0.0 
-2.910127813734e-05 -6.884664132408e-06 0.0 
-6.884664132408e-06 5.123941844446e-05 0.0 
0.0 0.0 0.0 
-1.161296137362e-05 -1.006697559947e-05 0.0 
-1.006697559947e-05 9.169718594989e-05 0.0 
0.0 0.0 0.0 
-2.471748379222e-05 -6.449779411917e-06 0.0 
-6.449779411917e-06 4.886396282903e-05 0.0 
0.0 0.0 0.0 
-9.864419457550e-06 -1.024112754022e-05 0.0 
-1.024112754022e-05 8.912107883348e-05 0.0 
0.0 0.0 0.0 
4.357919797439e-06 -1.098194005054e-05 0.0 
-1.098194005054e-05 1.447675330996e-04 0.0 
0.0 0.0 0.0 
1.911028111708e-05 -1.023477554951e-05 0.0 
-1.023477554951e-05 2.230711708645e-04 0.0 
0.0 0.0 0.0 
9.760771550159e-06 1.831393170521e-05 0.0 
1.831393170521e-05 1.202307240192e-03 0.0 
0.0 0.0 0.0 
4.407139099016e-05 1.610824938349e-07 0.0 
1.610824938349e-07 5.601695833513e-04 0.0 
0.0 0.0 0.0 
4.273792950308e-05 1.446285955608e-07 0.0 
1.446285955608e-07 5.302015008883e-04 0.0 
0.0 0.0 0.0 
4.010152212005e-05 -6.352199352683e-07 0.0 
-6.352199352683e-07 4.704032527354e-04 0.0 
0.0 0.0 0.0 
4.188452365485e-05 -9.874720310649e-07 0.0 
-9.874720310649e-07 5.027503014699e-04 0.0 
0.0 0.0 0.0 
4.497191708290e-05 9.501671342928e-07 0.0 
9.501671342928e-07 5.852955824524e-04 0.0 
0.0 0.0 0.0 
3.764860408798e-05 -4.422590638826e-07 0.0 
-4.422590638826e-07 4.377443902850e-04 0.0 
0.0 0.0 0.0 
3.614961327288e-05 -1.137777149923e-06 0.0 
-1.137777149923e-06 4.157942019272e-04 0.0 
0.0 0.0 0.0 
1.195964740538e-06 -1.356577004968e-06 0.0 
-1.356577004968e-06 3.819421655911e-05 0.0 
0.0 0.0 0.0 
5.825697694399e-06 -2.813067195197e-06 0.0 
-2.813067195197e-06 8.417022973443e-05 0.0 
0.0 0.0 0.0 
4.350808346900e-06 -1.469872361033e-06 0.0 
-1.469872361033e-06 7.937061092151e-05 0.0 
0.0 0.0 0.0 
9.765293071210e-06 -1.988519172509e-06 0.0 
-1.988519172509e-06 1.360603968972e-04 0.0 
0.0 0.0 0.0 
1.001298394387e-05 -3.744158867445e-06 0.0 
-3.744158867445e-06 1.348711670088e-04 0.0 
0.0 0.0 0.0 
5.322862295820e-06 -3.263319696868e-06 0.0 
-3.263319696868e-06 8.501664179868e-05 0.0 
0.0 0.0 0.0 
4.128653953569e-06 -3.877679393455e-06 0.0 
-3.877679393455e-06 8.566675674615e-05 0.0 
0.0 0.0 0.0 
-1.758691593875e-06 -2.872305516068e-06 0.0 
-2.872305516068e-06 3.929693535643e-05 0.0 
0.0 0.0 0.0 
3.356451247531e-06 -5.028961101895e-06 0.0 
-5.028961101895e-06 8.590816333483e-05 0.0 
0.0 0.0 0.0 
9.314727369980e-06 -5.501837991849e-06 0.0 
-5.501837991849e-06 1.378452194517e-04 0.0 
0.0 0.0 0.0 
-3.473120973837e-06 -3.579961931051e-06 0.0 
-3.579961931051e-06 3.854552161608e-05 0.0 
0.0 0.0 0.0 
-1.758242534707e-05 6.617213983597e-07 0.0 
6.617213983597e-07 1.267918923358e-03 0.0 
0.0 0.0 0.0 
-1.617278564673e-05 2.332862151925e-06 0.0 
2.332862151925e-06 1.301495790855e-03 0.0 
0.0 0.0 0.0 
1.018350461490e-05 5.845548801432e-05 0.0 
5.845548801432e-05 1.233843233649e-03 0.0 
0.0 0.0 0.0 
-3.137672027661e-05 2.212424693799e-06 0.0 
2.212424693799e-06 9.852672642641e-04 0.0 
0.0 0.0 0.0 
-1.661464454805e-05 -5.361577627764e-06 0.0 
-5.361577627764e-06 4.617346866217e-05 0.0 
0.0 0.0 0.0 
-5.398249268675e-06 1.044216772817e-05 0.0 
1.044216772817e-05 1.480963419256e-03 0.0 
0.0 0.0 0.0 
-5.252389937390e-06 1.880269122810e-05 0.0 
1.880269122810e-05 1.488892479047e-03 0.0 
0.0 0.0 0.0 
-4.507354224600e-06 1.642294995824e-05 0.0 
1.642294995824e-05 1.490668680827e-03 0.0 
0.0 0.0 0.0 
2.385145709013e-05 4.096888562707e-06 0.0 
4.096888562707e-06 1.089443998672e-03 0.0 
0.0 0.0 0.0 
2.031524854451e-05 8.028769693524e-06 0.0 
8.028769693524e-06 1.124550005390e-03 0.0 
0.0 0.0 0.0 
-4.942610619753e-06 6.037074405600e-06 0.0 
6.037074405600e-06 1.483227985763e-03 0.0 
0.0 0.0 0.0 
3.783420479642e-05 -5.184455310453e-06 0.0 
-5.184455310453e-06 3.668735877130e-04 0.0 
0.0 0.0 0.0 
-1.928654791304e-05 5.178567955249e-05 0.0 
5.178567955249e-05 1.402400984724e-03 0.0 
0.0 0.0 0.0 
-1.348940575929e-05 1.059938671026e-05 0.0 
1.059938671026e-05 1.376656894374e-03 0.0 
0.0 0.0 0.0 
3.850898304347e-05 8.605124119229e-05 0.0 
8.605124119229e-05 3.252918908865e-04 0.0 
0.0 0.0 0.0 
4.139049974838e-05 -2.182355926206e-06 0.0 
-2.182355926206e-06 3.553174709635e-04 0.0 
0.0 0.0 0.0 
4.218762218100e-05 8.065438924725e-06 0.0 
8.065438924725e-06 8.836838707034e-04 0.0 
0.0 0.0 0.0 
4.980109991478e-05 1.918932820097e-05 0.0 
1.918932820097e-05 8.120390585032e-04 0.0 
0.0 0.0 0.0 
3.166890882163e-05 1.764491522569e-05 0.0 
1.764491522569e-05 1.029071532649e-03 0.0 
0.0 0.0 0.0 
4.634410532300e-05 1.169080408019e-05 0.0 
1.169080408019e-05 8.272470305741e-04 0.0 
0.0 0.0 0.0 
3.839320175506e-05 2.305192572444e-05 0.0 
2.305192572444e-05 9.734784154253e-04 0.0 
0.0 0.0 0.0 
1.664610828946e-05 7.911525241487e-05 0.0 
7.911525241487e-05 1.207130953508e-03 0.0 
0.0 0.0 0.0 
1.891645050071e-05 -4.344041355224e-06 0.0 
-4.344041355224e-06 2.237788782059e-04 0.0 
0.0 0.0 0.0 
-2.755523398347e-05 8.363118382843e-06 0.0 
8.363118382843e-06 1.153376830054e-03 0.0 
0.0 0.0 0.0 
-2.503603648679e-05 4.571563693248e-06 0.0 
4.571563693248e-06 1.130538856685e-03 0.0 
0.0 0.0 0.0 
-1.993359741187e-05 9.780215134054e-06 0.0 
9.780215134054e-06 1.282565334187e-03 0.0 
0.0 0.0 0.0 
3.590971547796e-05 -4.761011987363e-06 0.0 
-4.761011987363e-06 3.849950821782e-04 0.0 
0.0 0.0 0.0 
4.762980428138e-05 2.081153607838e-06 0.0 
2.081153607838e-06 6.281168886125e-04 0.0 
0.0 0.0 0.0 
2.037255947821e-05 -8.807169293816e-06 0.0 
-8.807169293816e-06 2.387686127042e-04 0.0 
0.0 0.0 0.0 
-1.096949870314e-05 9.010022557467e-05 0.0 
9.010022557467e-05 1.360523601340e-03 0.0 
0.0 0.0 0.0 
-5.214373003352e-05 4.318826279109e-05 0.0 
4.318826279109e-05 9.625672802783e-04 0.0 
0.0 0.0 0.0 
5.773587959405e-05 2.975045703734e-05 0.0 
2.975045703734e-05 6.847516213094e-04 0.0 
0.0 0.0 0.0 
4.800416213846e-05 1.578552730476e-06 0.0 
1.578552730476e-06 5.169965895289e-04 0.0 
0.0 0.0 0.0 
4.291185398660e-05 -2.367259280638e-06 0.0 
-2.367259280638e-06 4.025878827012e-04 0.0 
0.0 0.0 0.0 
4.024427940652e-05 -1.680861222257e-06 0.0 
-1.680861222257e-06 3.307183216149e-04 0.0 
0.0 0.0 0.0 
-2.139238618441e-05 8.887832895729e-05 0.0 
8.887832895729e-05 8.192723675595e-04 0.0 
0.0 0.0 0.0 
5.541855632788e-05 1.457738625359e-05 0.0 
1.457738625359e-05 6.288701556438e-04 0.0 
0.0 0.0 0.0 
4.449511154940e-05 3.637591839576e-05 0.0 
3.637591839576e-05 9.353319166859e-04 0.0 
0.0 0.0 0.0 
-1.732029166163e-05 9.053314510427e-06 0.0 
9.053314510427e-06 1.316203301126e-03 0.0 
0.0 0.0 0.0 
-1.140342531978e-05 -4.499739314326e-06 0.0 
-4.499739314326e-06 4.896137694616e-05 0.0 
0.0 0.0 0.0 
4.137477358076e-05 4.285410179564e-05 0.0 
4.285410179564e-05 9.783504796384e-04 0.0 
0.0 0.0 0.0 
5.369532575572e-05 2.267844565544e-05 0.0 
2.267844565544e-05 7.596062265514e-04 0.0 
0.0 0.0 0.0 
-3.115679602754e-05 1.381776842915e-05 0.0 
1.381776842915e-05 1.175603887574e-03 0.0 
0.0 0.0 0.0 
2.211442041185e-05 8.172676210818e-05 0.0 
8.172676210818e-05 1.060861570615e-03 0.0 
0.0 0.0 0.0 
2.576812460775e-05 -4.876284047322e-06 0.0 
-4.876284047322e-06 2.226935558742e-04 0.0 
0.0 0.0 0.0 
-2.178541757804e-05 1.614759844596e-05 0.0 
1.614759844596e-05 1.303436342834e-03 0.0 
0.0 0.0 0.0 
-1.720483180684e-05 3.188393139246e-05 0.0 
3.188393139246e-05 1.402408987104e-03 0.0 
0.0 0.0 0.0 
-3.629273548694e-05 1.282546346334e-05 0.0 
1.282546346334e-05 1.107022367464e-03 0.0 
0.0 0.0 0.0 
1.248772956997e-05 -8.796617693163e-06 0.0 
-8.796617693163e-06 1.795098478263e-04 0.0 
0.0 0.0 0.0 
-2.940542545782e-05 5.866726779305e-06 0.0 
5.866726779305e-06 1.090188494456e-03 0.0 
0.0 0.0 0.0 
2.443492111004e-05 6.038330921280e-05 0.0 
6.038330921280e-05 1.137121564829e-03 0.0 
0.0 0.0 0.0 
-3.084753287613e-05 3.046766005477e-05 0.0 
3.046766005477e-05 1.280075012498e-03 0.0 
0.0 0.0 0.0 
3.209604456515e-05 -5.262965541415e-06 0.0 
-5.262965541415e-06 3.506209241096e-04 0.0 
0.0 0.0 0.0 
4.572572302723e-05 6.726299936659e-05 0.0 
6.726299936659e-05 7.620869721029e-04 0.0 
0.0 0.0 0.0 
-4.158332138117e-05 7.030752056778e-05 0.0 
7.030752056778e-05 9.078175565714e-04 0.0 
0.0 0.0 0.0 
-4.708536800957e-05 1.262899009920e-05 0.0 
1.262899009920e-05 9.155392415678e-04 0.0 
0.0 0.0 0.0 
-1.235705956965e-05 1.324657603444e-05 0.0 
1.324657603444e-05 1.401951448074e-03 0.0 
0.0 0.0 0.0 
3.347904715863e-07 8.980544056563e-05 0.0 
8.980544056563e-05 8.867302112852e-04 0.0 
0.0 0.0 0.0 
2.571155408707e-05 7.750696778968e-05 0.0 
7.750696778968e-05 1.094905754638e-03 0.0 
0.0 0.0 0.0 
3.911241412857e-05 7.006193375082e-05 0.0 
7.006193375082e-05 8.947463796356e-04 0.0 
0.0 0.0 0.0 
3.381027703631e-05 -3.747394230659e-06 0.0 
-3.747394230659e-06 3.776530017057e-04 0.0 
0.0 0.0 0.0 
3.513020909807e-05 3.697826013461e-05 0.0 
3.697826013461e-05 1.029654747543e-03 0.0 
0.0 0.0 0.0 
2.720026126431e-05 8.432969046701e-05 0.0 
8.432969046701e-05 7.889607372349e-04 0.0 
0.0 0.0 0.0 
-1.749077137688e-05 1.862161715294e-05 0.0 
1.862161715294e-05 1.363368564261e-03 0.0 
0.0 0.0 0.0 
-2.922276678291e-05 7.491291341122e-05 0.0 
7.491291341122e-05 1.170488584124e-03 0.0 
0.0 0.0 0.0 
4.687429959856e-05 7.204218244965e-05 0.0 
7.204218244965e-05 6.143724186800e-04 0.0 
0.0 0.0 0.0 
-2.379811360333e-05 2.423747634488e-05 0.0 
2.423747634488e-05 1.322136193581e-03 0.0 
0.0 0.0 0.0 
5.700705807517e-05 4.106729260930e-05 0.0 
4.106729260930e-05 7.045101982894e-04 0.0 
0.0 0.0 0.0 
1.581667618585e-05 8.592025457736e-05 0.0 
8.592025457736e-05 1.111078355826e-03 0.0 
0.0 0.0 0.0 
-5.215288107520e-05 4.713317146457e-05 0.0 
4.713317146457e-05 9.247636721216e-04 0.0 
0.0 0.0 0.0 
-3.731139137394e-05 6.969645296650e-05 0.0 
6.969645296650e-05 1.059252394382e-03 0.0 
0.0 0.0 0.0 
-4.196325025037e-05 5.413374627243e-05 0.0 
5.413374627243e-05 1.164386943003e-03 0.0 
0.0 0.0 0.0 
-2.286943361853e-05 8.272697970378e-05 0.0 
8.272697970378e-05 9.792942102299e-04 0.0 
0.0 0.0 0.0 
4.361465678204e-05 5.210212122753e-06 0.0 
5.210212122753e-06 8.464314439722e-04 0.0 
0.0 0.0 0.0 
3.838948000875e-05 4.007509785434e-05 0.0 
4.007509785434e-05 1.003721559482e-03 0.0 
0.0 0.0 0.0 
4.141898638351e-05 2.286161241053e-05 0.0 
2.286161241053e-05 2.454635114781e-04 0.0 
0.0 0.0 0.0 
-2.718332440294e-05 9.156267362877e-05 0.0 
9.156267362877e-05 7.106582913976e-04 0.0 
0.0 0.0 0.0 
-3.423385711128e-05 1.716476533748e-05 0.0 
1.716476533748e-05 1.168903696875e-03 0.0 
0.0 0.0 0.0 
-1.434222938303e-05 8.709514256448e-05 0.0 
8.709514256448e-05 1.251574101477e-03 0.0 
0.0 0.0 0.0 
-1.233806797204e-05 2.102945852595e-05 0.0 
2.102945852595e-05 1.422043030942e-03 0.0 
0.0 0.0 0.0 
-4.475643437083e-05 6.819420541644e-05 0.0 
6.819420541644e-05 8.549736983756e-04 0.0 
0.0 0.0 0.0 
3.866817717831e-05 3.101613477450e-05 0.0 
3.101613477450e-05 9.872496519363e-04 0.0 
0.0 0.0 0.0 
-1.871808343634e-05 2.752431831118e-05 0.0 
2.752431831118e-05 1.379556363206e-03 0.0 
0.0 0.0 0.0 
5.427084016030e-05 1.337336137284e-05 0.0 
1.337336137284e-05 6.550160764723e-04 0.0 
0.0 0.0 0.0 
2.218201676563e-05 -1.313580762373e-06 0.0 
-1.313580762373e-06 2.589684846513e-04 0.0 
0.0 0.0 0.0 
3.482635059408e-05 8.047377587486e-05 0.0 
8.047377587486e-05 2.596354339007e-04 0.0 
0.0 0.0 0.0 
5.084089371258e-05 6.863791352986e-05 0.0 
6.863791352986e-05 4.792729865915e-04 0.0 
0.0 0.0 0.0 
9.402143384370e-06 9.025834751098e-05 0.0 
9.025834751098e-05 8.340047336330e-04 0.0 
0.0 0.0 0.0 
5.369382797016e-05 1.718295571044e-05 0.0 
1.718295571044e-05 7.200011277874e-04 0.0 
0.0 0.0 0.0 
-1.633272317617e-05 4.503173466136e-05 0.0 
4.503173466136e-05 1.422491301585e-03 0.0 
0.0 0.0 0.0 
3.542238037113e-05 2.845619030811e-05 0.0 
2.845619030811e-05 1.014126321402e-03 0.0 
0.0 0.0 0.0 
4.134461773823e-05 5.520581918383e-05 0.0 
5.520581918383e-05 9.754405583839e-04 0.0 
0.0 0.0 0.0 
-2.442072019186e-05 9.353176378010e-05 0.0 
9.353176378010e-05 2.269445603343e-04 0.0 
0.0 0.0 0.0 
-4.953804515882e-05 1.882947101683e-05 0.0 
1.882947101683e-05 9.377896139265e-04 0.0 
0.0 0.0 0.0 
3.187767634016e-05 2.562729271193e-05 0.0 
2.562729271193e-05 1.041879029682e-03 0.0 
0.0 0.0 0.0 
4.855804269011e-05 6.170530912337e-05 0.0 
6.170530912337e-05 7.785648150903e-04 0.0 
0.0 0.0 0.0 
1.845768738532e-05 8.436270973941e-05 0.0 
8.436270973941e-05 1.124993254915e-03 0.0 
0.0 0.0 0.0 
4.738531160116e-05 1.557679004387e-06 0.0 
1.557679004387e-06 6.770576099144e-04 0.0 
0.0 0.0 0.0 
-9.261567531504e-06 9.290506038736e-05 0.0 
9.290506038736e-05 1.346811061718e-03 0.0 
0.0 0.0 0.0 
-5.211061116328e-05 2.631276006920e-05 0.0 
2.631276006920e-05 8.010392379029e-04 0.0 
0.0 0.0 0.0 
2.791065996980e-05 2.253129674673e-05 0.0 
2.253129674673e-05 1.071237650526e-03 0.0 
0.0 0.0 0.0 
3.721824850041e-05 6.542886446600e-05 0.0 
6.542886446600e-05 9.995670111803e-04 0.0 
0.0 0.0 0.0 
1.089091119418e-05 1.027244215755e-04 0.0 
1.027244215755e-04 5.879595159649e-04 0.0 
0.0 0.0 0.0 
-2.582475466845e-05 4.797278327642e-07 0.0 
4.797278327642e-07 9.754502994379e-04 0.0 
0.0 0.0 0.0 
1.808949338129e-05 2.492898966076e-05 0.0 
2.492898966076e-05 1.150755900653e-03 0.0 
0.0 0.0 0.0 
3.105714997335e-05 6.878797582006e-05 0.0 
6.878797582006e-05 1.068851990097e-03 0.0 
0.0 0.0 0.0 
-2.013597461762e-05 8.300082887699e-05 0.0 
8.300082887699e-05 1.035390906586e-03 0.0 
0.0 0.0 0.0 
5.336757003294e-05 5.391403352410e-05 0.0 
5.391403352410e-05 7.300175057304e-04 0.0 
0.0 0.0 0.0 
-4.879259977847e-05 1.363145900178e-05 0.0 
1.363145900178e-05 8.494596587089e-04 0.0 
0.0 0.0 0.0 
5.204317885251e-05 1.581192138444e-05 0.0 
1.581192138444e-05 7.464176417647e-04 0.0 
0.0 0.0 0.0 
-3.878989674801e-05 6.615415037226e-05 0.0 
6.615415037226e-05 1.101183554448e-03 0.0 
0.0 0.0 0.0 
-6.674575712703e-06 3.787177744365e-05 0.0 
3.787177744365e-05 1.484398325490e-03 0.0 
0.0 0.0 0.0 
2.514522312447e-05 7.474033575146e-05 0.0 
7.474033575146e-05 1.113508442213e-03 0.0 
0.0 0.0 0.0 
-4.135131489680e-05 3.220072586754e-05 0.0 
3.220072586754e-05 1.176185755557e-03 0.0 
0.0 0.0 0.0 
5.162673437945e-05 1.136794421098e-05 0.0 
1.136794421098e-05 7.081314685723e-04 0.0 
0.0 0.0 0.0 
7.858626537331e-06 8.711323671012e-05 0.0 
8.711323671012e-05 1.019204023032e-03 0.0 
0.0 0.0 0.0 
9.941446991106e-06 -5.000583104594e-06 0.0 
-5.000583104594e-06 1.353580212791e-04 0.0 
0.0 0.0 0.0 
-5.147999437810e-05 2.125764198872e-05 0.0 
2.125764198872e-05 8.706981772246e-04 0.0 
0.0 0.0 0.0 
5.012859009830e-05 1.040238153798e-05 0.0 
1.040238153798e-05 7.349909452776e-04 0.0 
0.0 0.0 0.0 
5.452215418493e-05 5.901661903326e-05 0.0 
5.901661903326e-05 4.945577071523e-04 0.0 
0.0 0.0 0.0 
5.427772605130e-05 4.896501827110e-05 0.0 
4.896501827110e-05 7.495772659470e-04 0.0 
0.0 0.0 0.0 
4.328913754033e-06 9.690978476737e-05 0.0 
9.690978476737e-05 1.268552693527e-03 0.0 
0.0 0.0 0.0 
4.856765222313e-05 9.396891091668e-06 0.0 
9.396891091668e-06 7.622683514755e-04 0.0 
0.0 0.0 0.0 
5.312174528523e-05 6.208107692449e-05 0.0 
6.208107692449e-05 5.619966234837e-04 0.0 
0.0 0.0 0.0 
4.696549302126e-05 8.248196783600e-06 0.0 
8.248196783600e-06 7.897842782240e-04 0.0 
0.0 0.0 0.0 
-4.907776704120e-05 1.637840708414e-05 0.0 
1.637840708414e-05 7.830904071433e-04 0.0 
0.0 0.0 0.0 
-4.074193851156e-05 3.805602503782e-05 0.0 
3.805602503782e-05 1.198765808601e-03 0.0 
0.0 0.0 0.0 
4.547703951996e-05 6.709845556738e-06 0.0 
6.709845556738e-06 8.173581479097e-04 0.0 
0.0 0.0 0.0 
-3.451221701186e-05 6.930437086467e-05 0.0 
6.930437086467e-05 1.156532787165e-03 0.0 
0.0 0.0 0.0 
8.782826943784e-06 -7.368055385590e-06 0.0 
-7.368055385590e-06 1.433413376110e-04 0.0 
0.0 0.0 0.0 
-1.255888883861e-05 8.579707990216e-05 0.0 
8.579707990216e-05 1.044729337034e-03 0.0 
0.0 0.0 0.0 
2.819664109684e-05 7.559637949288e-06 0.0 
7.559637949288e-06 1.052438167356e-03 0.0 
0.0 0.0 0.0 
5.200377096511e-05 6.884680468451e-06 0.0 
6.884680468451e-06 4.767371247594e-04 0.0 
0.0 0.0 0.0 
5.445746558830e-05 4.476682742121e-05 0.0 
4.476682742121e-05 7.708528251663e-04 0.0 
0.0 0.0 0.0 
-3.607738490049e-05 4.325383929846e-05 0.0 
4.325383929846e-05 1.256390946786e-03 0.0 
0.0 0.0 0.0 
-4.844635937503e-05 2.063827474542e-05 0.0 
2.063827474542e-05 7.152483473800e-04 0.0 
0.0 0.0 0.0 
5.103585470008e-05 4.823643905196e-05 0.0 
4.823643905196e-05 8.379669879068e-04 0.0 
0.0 0.0 0.0 
-2.982472359451e-05 7.271909387031e-05 0.0 
7.271909387031e-05 1.212566748936e-03 0.0 
0.0 0.0 0.0 
-5.254477358589e-06 8.755586256724e-05 0.0 
8.755586256724e-05 1.055321219399e-03 0.0 
0.0 0.0 0.0 
8.996455043190e-06 8.853192110661e-05 0.0 
8.853192110661e-05 8.951358871392e-04 0.0 
0.0 0.0 0.0 
4.673736205955e-05 5.170785024566e-05 0.0 
5.170785024566e-05 9.062253997768e-04 0.0 
0.0 0.0 0.0 
-5.154121256819e-05 3.397584479872e-05 0.0 
3.397584479872e-05 7.291905873851e-04 0.0 
0.0 0.0 0.0 
3.640780561435e-05 -5.682755894981e-06 0.0 
-5.682755894981e-06 3.418709462967e-04 0.0 
0.0 0.0 0.0 
2.851522511186e-05 -8.506785812552e-06 0.0 
-8.506785812552e-06 2.823836838114e-04 0.0 
0.0 0.0 0.0 
5.582422940350e-05 5.433662337991e-05 0.0 
5.433662337991e-05 5.789231154652e-04 0.0 
0.0 0.0 0.0 
-2.931126744408e-05 7.078653164554e-05 0.0 
7.078653164554e-05 1.253628789133e-03 0.0 
0.0 0.0 0.0 
1.458231819181e-05 -3.685186240329e-06 0.0 
-3.685186240329e-06 1.860456600697e-04 0.0 
0.0 0.0 0.0 
-3.737462773142e-05 5.072137539155e-05 0.0 
5.072137539155e-05 1.239632127726e-03 0.0 
0.0 0.0 0.0 
1.555042350117e-05 -1.110939907966e-05 0.0 
-1.110939907966e-05 1.996228401773e-04 0.0 
0.0 0.0 0.0 
5.831226218544e-05 4.360602693660e-05 0.0 
4.360602693660e-05 5.316615800858e-04 0.0 
0.0 0.0 0.0 
1.627557865758e-06 8.930734474516e-05 0.0 
8.930734474516e-05 1.131420496851e-03 0.0 
0.0 0.0 0.0 
-2.223459696306e-05 -2.991532892400e-07 0.0 
-2.991532892400e-07 1.147902144390e-03 0.0 
0.0 0.0 0.0 
5.905636037022e-05 3.766746061557e-05 0.0 
3.766746061557e-05 5.519878017027e-04 0.0 
0.0 0.0 0.0 
2.784711544823e-05 -1.016530419309e-06 0.0 
-1.016530419309e-06 3.187997040026e-04 0.0 
0.0 0.0 0.0 
5.857011251831e-05 2.775418052151e-05 0.0 
2.775418052151e-05 5.089478818690e-04 0.0 
0.0 0.0 0.0 
8.501007983774e-06 8.742832783472e-05 0.0 
8.742832783472e-05 9.567023003280e-04 0.0 
0.0 0.0 0.0 
5.837697246347e-05 2.379535090271e-05 0.0 
2.379535090271e-05 5.316674587843e-04 0.0 
0.0 0.0 0.0 
5.597156690192e-05 1.555556816894e-05 0.0 
1.555556816894e-05 4.917343105731e-04 0.0 
0.0 0.0 0.0 
-9.319282726794e-06 1.171577060712e-05 0.0 
1.171577060712e-05 1.435935054455e-03 0.0 
0.0 0.0 0.0 
5.553339765137e-05 1.331900085719e-05 0.0 
1.331900085719e-05 5.153845408867e-04 0.0 
0.0 0.0 0.0 
-3.536486752942e-06 3.138744300145e-06 0.0 
3.138744300145e-06 1.493372210729e-03 0.0 
0.0 0.0 0.0 
9.580163931235e-06 8.068118582056e-06 0.0 
8.068118582056e-06 1.204545514199e-03 0.0 
0.0 0.0 0.0 
-2.500899670870e-05 -4.478467652305e-07 0.0 
-4.478467652305e-07 1.023535455499e-03 0.0 
0.0 0.0 0.0 
-4.479342914416e-05 2.535714669749e-05 0.0 
2.535714669749e-05 6.447056575487e-04 0.0 
0.0 0.0 0.0 
-4.270897041790e-05 6.132566985532e-07 0.0 
6.132566985532e-07 6.020650981720e-05 0.0 
0.0 0.0 0.0 
-5.006856440377e-05 4.881454777401e-05 0.0 
4.881454777401e-05 6.533891990943e-04 0.0 
0.0 0.0 0.0 
4.755446963830e-05 2.279824564632e-06 0.0 
2.279824564632e-06 4.155266995296e-04 0.0 
0.0 0.0 0.0 
-3.718744013335e-05 5.879623703124e-05 0.0 
5.879623703124e-05 1.219495015170e-03 0.0 
0.0 0.0 0.0 
-2.503573835840e-05 9.507157278057e-07 0.0 
9.507157278057e-07 1.026078063393e-03 0.0 
0.0 0.0 0.0 
4.214107109265e-05 -2.291110214942e-06 0.0 
-2.291110214942e-06 3.787562908389e-04 0.0 
0.0 0.0 0.0 
-1.644361745240e-05 6.706717013846e-05 0.0 
6.706717013846e-05 1.406783615736e-03 0.0 
0.0 0.0 0.0 
-2.868387675955e-06 1.015957978784e-04 0.0 
1.015957978784e-04 1.378663617175e-03 0.0 
0.0 0.0 0.0 
-1.905144625263e-05 2.095813879783e-06 0.0 
2.095813879783e-06 1.238030946196e-03 0.0 
0.0 0.0 0.0 
1.933429424961e-05 8.283730334476e-05 0.0 
8.283730334476e-05 1.139631472648e-03 0.0 
0.0 0.0 0.0 
1.396968141165e-06 8.815358825437e-05 0.0 
8.815358825437e-05 1.068667708269e-03 0.0 
0.0 0.0 0.0 
-1.161164548850e-05 1.272538115434e-06 0.0 
1.272538115434e-06 1.383178851438e-03 0.0 
0.0 0.0 0.0 
-2.795934404451e-05 -1.441711920114e-07 0.0 
-1.441711920114e-07 9.717286601761e-04 0.0 
0.0 0.0 0.0 
-8.193973487706e-06 -9.531687435326e-06 0.0 
-9.531687435326e-06 8.796456327287e-05 0.0 
0.0 0.0 0.0 
4.147095066923e-05 2.852823831166e-06 0.0 
2.852823831166e-06 8.803308394424e-04 0.0 
0.0 0.0 0.0 
-4.195465631041e-05 3.425713698729e-05 0.0 
3.425713698729e-05 5.747453979726e-04 0.0 
0.0 0.0 0.0 
-4.475980602977e-05 6.857822518951e-05 0.0 
6.857822518951e-05 5.601381944404e-04 0.0 
0.0 0.0 0.0 
-2.865247856622e-05 1.010012182076e-04 0.0 
1.010012182076e-04 4.512344796920e-04 0.0 
0.0 0.0 0.0 
3.461204134384e-05 -2.514598084532e-06 0.0 
-2.514598084532e-06 3.989874332044e-04 0.0 
0.0 0.0 0.0 
2.092765993722e-06 -1.022925200578e-05 0.0 
-1.022925200578e-05 1.373610346257e-04 0.0 
0.0 0.0 0.0 
-4.035803741674e-05 5.478366442957e-05 0.0 
5.478366442957e-05 5.121110369785e-04 0.0 
0.0 0.0 0.0 
1.036916873239e-05 9.063386164410e-05 0.0 
9.063386164410e-05 1.242877923487e-03 0.0 
0.0 0.0 0.0 
-3.204467339297e-05 4.108224670857e-06 0.0 
4.108224670857e-06 1.029505602540e-03 0.0 
0.0 0.0 0.0 
-3.107660360380e-06 8.978715668795e-05 0.0 
8.978715668795e-05 1.176348327753e-03 0.0 
0.0 0.0 0.0 
-3.070920860717e-05 8.679274767510e-05 0.0 
8.679274767510e-05 4.086314486467e-04 0.0 
0.0 0.0 0.0 
-1.300200447955e-05 3.002356340903e-05 0.0 
3.002356340903e-05 1.435118954256e-03 0.0 
0.0 0.0 0.0 
-1.466008335124e-06 9.816696703541e-05 0.0 
9.816696703541e-05 1.304113043182e-03 0.0 
0.0 0.0 0.0 
9.295687753134e-06 4.546746569255e-05 0.0 
4.546746569255e-05 1.228199828384e-03 0.0 
0.0 0.0 0.0 
-2.056024498431e-06 9.294440219676e-05 0.0 
9.294440219676e-05 1.237417228011e-03 0.0 
0.0 0.0 0.0 
2.311043300155e-06 1.036200956230e-04 0.0 
1.036200956230e-04 2.823657249524e-04 0.0 
0.0 0.0 0.0 
-3.800897025688e-05 1.265407387608e-05 0.0 
1.265407387608e-05 1.081427063913e-03 0.0 
0.0 0.0 0.0 
-1.312125342430e-05 8.592087721895e-05 0.0 
8.592087721895e-05 1.371387950494e-03 0.0 
0.0 0.0 0.0 
-1.704588176728e-05 3.902840851455e-06 0.0 
3.902840851455e-06 1.286564005625e-03 0.0 
0.0 0.0 0.0 
9.288160506227e-06 3.767073606764e-05 0.0 
3.767073606764e-05 1.225306758910e-03 0.0 
0.0 0.0 0.0 
-3.533047472133e-05 7.024856400810e-06 0.0 
7.024856400810e-06 1.022287270082e-03 0.0 
0.0 0.0 0.0 
-7.711900370337e-06 7.965054271802e-06 0.0 
7.965054271802e-06 1.444354627273e-03 0.0 
0.0 0.0 0.0 
3.167448501943e-05 8.347516082889e-06 0.0 
8.347516082889e-06 2.087539241117e-04 0.0 
0.0 0.0 0.0 
-7.191575123011e-06 4.368356332915e-06 0.0 
4.368356332915e-06 1.445309243832e-03 0.0 
0.0 0.0 0.0 
-3.166051847923e-05 6.338613021042e-05 0.0 
6.338613021042e-05 1.275563637139e-03 0.0 
0.0 0.0 0.0 
-2.483673072925e-05 3.726631855112e-06 0.0 
3.726631855112e-06 1.103358029116e-03 0.0 
0.0 0.0 0.0 
-4.215081577470e-05 1.844827096137e-05 0.0 
1.844827096137e-05 1.076849757577e-03 0.0 
0.0 0.0 0.0 
1.568839357221e-05 1.265424771630e-05 0.0 
1.265424771630e-05 1.158628483956e-03 0.0 
0.0 0.0 0.0 
-1.687092680906e-05 5.614257524937e-05 0.0 
5.614257524937e-05 1.418575441326e-03 0.0 
0.0 0.0 0.0 
7.847081938414e-06 8.050203942053e-05 0.0 
8.050203942053e-05 1.938164684033e-04 0.0 
0.0 0.0 0.0 
-1.929681125143e-05 4.322782282671e-06 0.0 
4.322782282671e-06 1.234542580328e-03 0.0 
0.0 0.0 0.0 
4.288469115830e-05 -1.162710970173e-06 0.0 
-1.162710970173e-06 5.035006995384e-04 0.0 
0.0 0.0 0.0 
-1.601363722729e-05 -4.808678948310e-06 0.0 
-4.808678948310e-06 8.873250522682e-05 0.0 
0.0 0.0 0.0 
1.818736467616e-05 5.392356779265e-05 0.0 
5.392356779265e-05 1.175553283625e-03 0.0 
0.0 0.0 0.0 
-2.544322345836e-05 6.775048551328e-05 0.0 
6.775048551328e-05 1.328830054979e-03 0.0 
0.0 0.0 0.0 
1.608888311457e-05 2.144909528066e-05 0.0 
2.144909528066e-05 1.156846194325e-03 0.0 
0.0 0.0 0.0 
9.312811575368e-06 -9.667019580299e-07 0.0 
-9.667019580299e-07 1.339083949562e-04 0.0 
0.0 0.0 0.0 
-5.982105557178e-06 -7.858196635726e-06 0.0 
-7.858196635726e-06 8.103696715582e-05 0.0 
0.0 0.0 0.0 
1.662909184783e-05 6.457254951537e-05 0.0 
6.457254951537e-05 1.198524190017e-03 0.0 
0.0 0.0 0.0 
-1.487441491057e-05 7.710148912372e-05 0.0 
7.710148912372e-05 1.398079387457e-03 0.0 
0.0 0.0 0.0 
3.376924142839e-05 6.279867988975e-06 0.0 
6.279867988975e-06 2.371456391996e-04 0.0 
0.0 0.0 0.0 
-5.065991750497e-06 2.604979336848e-05 0.0 
2.604979336848e-05 1.497464341667e-03 0.0 
0.0 0.0 0.0 
-8.501519937920e-06 5.222207872630e-05 0.0 
5.222207872630e-05 1.171875775573e-04 0.0 
0.0 0.0 0.0 
-2.982335748543e-05 1.756057498961e-06 0.0 
1.756057498961e-06 9.656261728643e-04 0.0 
0.0 0.0 0.0 
8.705303816322e-07 -5.900416335074e-06 0.0 
-5.900416335074e-06 8.200225320842e-05 0.0 
0.0 0.0 0.0 
8.893370903484e-06 2.679890256420e-05 0.0 
2.679890256420e-05 1.219961464466e-03 0.0 
0.0 0.0 0.0 
-9.942779854000e-06 1.978477165849e-05 0.0 
1.978477165849e-05 1.445252340806e-03 0.0 
0.0 0.0 0.0 
4.471300850635e-05 1.091361944778e-06 0.0 
1.091361944778e-06 5.575037939361e-04 0.0 
0.0 0.0 0.0 
-4.274824302514e-05 1.144255136433e-05 0.0 
1.144255136433e-05 9.813411821287e-04 0.0 
0.0 0.0 0.0 
3.124011329092e-05 -1.744099634489e-06 0.0 
-1.744099634489e-06 3.597238452075e-04 0.0 
0.0 0.0 0.0 
-1.099019254536e-05 9.174062501550e-05 0.0 
9.174062501550e-05 1.298600735238e-03 0.0 
0.0 0.0 0.0 
7.075241923671e-07 -1.096813390034e-05 0.0 
-1.096813390034e-05 1.272525023466e-04 0.0 
0.0 0.0 0.0 
-8.640878185662e-06 1.382764628610e-05 0.0 
1.382764628610e-05 1.451982328862e-03 0.0 
0.0 0.0 0.0 
1.495706557497e-05 7.510245250127e-05 0.0 
7.510245250127e-05 1.217632462027e-03 0.0 
0.0 0.0 0.0 
-1.371072687790e-05 4.209716869444e-05 0.0 
4.209716869444e-05 1.441308789945e-03 0.0 
0.0 0.0 0.0 
2.479450891935e-06 1.029254051248e-04 0.0 
1.029254051248e-04 1.338762946523e-03 0.0 
0.0 0.0 0.0 
-1.084200594994e-05 1.392199545699e-05 0.0 
1.392199545699e-05 8.922451821021e-05 0.0 
0.0 0.0 0.0 
-4.016513125649e-06 9.864378311659e-05 0.0 
9.864378311659e-05 1.332609878087e-03 0.0 
0.0 0.0 0.0 
1.997963372817e-05 7.929984414051e-05 0.0 
7.929984414051e-05 1.170037242065e-03 0.0 
0.0 0.0 0.0 
-2.704629870642e-05 1.744828418158e-06 0.0 
1.744828418158e-06 9.708260940236e-04 0.0 
0.0 0.0 0.0 
-1.535820230723e-05 5.041000902183e-05 0.0 
5.041000902183e-05 1.427335258794e-03 0.0 
0.0 0.0 0.0 
3.845158285989e-05 -1.109592207124e-06 0.0 
-1.109592207124e-06 4.477384091379e-04 0.0 
0.0 0.0 0.0 
1.413220189690e-05 -7.766450384684e-06 0.0 
-7.766450384684e-06 1.834903835730e-04 0.0 
0.0 0.0 0.0 
-2.624302055532e-06 1.088979913933e-06 0.0 
1.088979913933e-06 1.499799015728e-03 0.0 
0.0 0.0 0.0 
4.401185638159e-08 -3.741316725355e-07 0.0 
-3.741316725355e-07 2.879895328003e-05 0.0 
0.0 0.0 0.0 
-2.574759652469e-05 -4.055611942710e-07 0.0 
-4.055611942710e-07 9.666081892939e-04 0.0 
0.0 0.0 0.0 
7.296975174986e-06 4.759654542847e-06 0.0 
4.759654542847e-06 1.219311522277e-03 0.0 
0.0 0.0 0.0 
1.427135752565e-05 -4.523317305965e-06 0.0 
-4.523317305965e-06 1.740771005263e-04 0.0 
0.0 0.0 0.0 
-2.412760512849e-05 3.323963635521e-07 0.0 
3.323963635521e-07 1.069709452200e-03 0.0 
0.0 0.0 0.0 
-1.485979619429e-05 7.231816664913e-05 0.0 
7.231816664913e-05 1.408472921142e-03 0.0 
0.0 0.0 0.0 
4.649697505551e-05 1.004896037385e-06 0.0 
1.004896037385e-06 6.937798646658e-04 0.0 
0.0 0.0 0.0 
-1.349838765268e-05 1.528802019535e-06 0.0 
1.528802019535e-06 1.348252526279e-03 0.0 
0.0 0.0 0.0 
1.430438518195e-05 -7.941083213318e-06 0.0 
-7.941083213318e-06 1.742142937355e-04 0.0 
0.0 0.0 0.0 
-4.598027822174e-05 -4.218326842228e-06 0.0 
-4.218326842228e-06 5.173224051921e-05 0.0 
0.0 0.0 0.0 
-2.118242005209e-05 7.421156918983e-07 0.0 
7.421156918983e-07 1.180685789172e-03 0.0 
0.0 0.0 0.0 
1.153208597726e-06 9.972021509133e-05 0.0 
9.972021509133e-05 1.302260356050e-03 0.0 
0.0 0.0 0.0 
-1.210728349919e-05 3.378381668181e-05 0.0 
3.378381668181e-05 1.449092748646e-03 0.0 
0.0 0.0 0.0 
-2.360511272730e-05 3.968213046996e-06 0.0 
3.968213046996e-06 1.137600121974e-03 0.0 
0.0 0.0 0.0 
2.503703634233e-05 7.218519136086e-05 0.0 
7.218519136086e-05 2.114397052169e-04 0.0 
0.0 0.0 0.0 
-1.992185327260e-05 7.192293937108e-05 0.0 
7.192293937108e-05 1.371547803886e-03 0.0 
0.0 0.0 0.0 
4.694245121747e-05 1.123539378810e-06 0.0 
1.123539378810e-06 6.048206348061e-04 0.0 
0.0 0.0 0.0 
-1.663821665552e-05 8.500282981859e-05 0.0 
8.500282981859e-05 1.329329920596e-03 0.0 
0.0 0.0 0.0 
1.467124950638e-05 8.600684848629e-05 0.0 
8.600684848629e-05 1.194268789012e-03 0.0 
0.0 0.0 0.0 
-3.791375435240e-05 5.196156948358e-05 0.0 
5.196156948358e-05 7.839549657236e-05 0.0 
0.0 0.0 0.0 
4.596435866913e-05 1.458450632838e-06 0.0 
1.458450632838e-06 7.501538826096e-04 0.0 
0.0 0.0 0.0 
-3.664150504235e-06 -6.480740444102e-06 0.0 
-6.480740444102e-06 7.727818499257e-05 0.0 
0.0 0.0 0.0 
1.555563142550e-05 3.998099953499e-05 0.0 
3.998099953499e-05 1.180420192254e-03 0.0 
0.0 0.0 0.0 
4.660422515359e-05 8.451899838615e-07 0.0 
8.451899838615e-07 6.323010314296e-04 0.0 
0.0 0.0 0.0 
5.984593827807e-06 1.435079637696e-05 0.0 
1.435079637696e-05 4.243980216005e-04 0.0 
0.0 0.0 0.0 
-2.748856496121e-05 1.398771539392e-06 0.0 
1.398771539392e-06 4.430753749820e-04 0.0 
0.0 0.0 0.0 
-1.554999066264e-05 1.770626314295e-05 0.0 
1.770626314295e-05 4.890703335318e-04 0.0 
0.0 0.0 0.0 
-2.378418207000e-05 -3.476508847465e-07 0.0 
-3.476508847465e-07 5.014655489692e-04 0.0 
0.0 0.0 0.0 
-2.677845016696e-05 1.355267051483e-05 0.0 
1.355267051483e-05 5.568217246904e-04 0.0 
0.0 0.0 0.0 
-2.357931385571e-05 -3.959325740438e-07 0.0 
-3.959325740438e-07 5.692297543965e-04 0.0 
0.0 0.0 0.0 
-3.362391301515e-05 1.045133384187e-05 0.0 
1.045133384187e-05 6.236811997796e-04 0.0 
0.0 0.0 0.0 
-2.403456301781e-05 -4.239670282522e-07 0.0 
-4.239670282522e-07 6.300081521184e-04 0.0 
0.0 0.0 0.0 
-3.890690680519e-05 7.163764209602e-06 0.0 
7.163764209602e-06 6.902466528925e-04 0.0 
0.0 0.0 0.0 
-2.462747613813e-05 -4.129715975500e-07 0.0 
-4.129715975500e-07 6.982384153281e-04 0.0 
0.0 0.0 0.0 
-4.151166123786e-05 5.689623311725e-06 0.0 
5.689623311725e-06 7.561804432096e-04 0.0 
0.0 0.0 0.0 
-2.527645202233e-05 -3.445344908740e-07 0.0 
-3.445344908740e-07 7.590761672135e-04 0.0 
0.0 0.0 0.0 
-4.260060936639e-05 5.102823406791e-06 0.0 
5.102823406791e-06 8.215805397376e-04 0.0 
0.0 0.0 0.0 
-2.561592652511e-05 -3.324017961204e-08 0.0 
-3.324017961204e-08 8.270496660554e-04 0.0 
0.0 0.0 0.0 
-4.219712507669e-05 5.630462578006e-06 0.0 
5.630462578006e-06 8.863767314007e-04 0.0 
0.0 0.0 0.0 
-2.629157049908e-05 7.848853930238e-07 0.0 
7.848853930238e-07 8.875446722800e-04 0.0 
0.0 0.0 0.0 

TENSORS node_materi_strain_plasti float
-2.612663767757e-06 -3.252607646113e-07 0.0 
-3.252607646113e-07 2.093720605042e-05 0.0 
0.0 0.0 -4.924303274428e-06 
-1.079056608654e-04 -1.683663743376e-05 0.0 
-1.683663743376e-05 6.796608024097e-04 0.0 
0.0 0.0 -1.043867513459e-04 
-1.990082416844e-04 1.461466422752e-05 0.0 
1.461466422752e-05 1.338163054070e-03 0.0 
0.0 0.0 -1.998931639748e-04 
-1.992789450115e-04 -1.457804817178e-05 0.0 
-1.457804817178e-05 1.339096739606e-03 0.0 
0.0 0.0 -1.998931639748e-04 
-1.229078891716e-05 5.366280014175e-06 0.0 
5.366280014175e-06 5.053145956954e-05 0.0 
0.0 0.0 -1.268018299698e-05 
-2.543886988905e-05 1.901414525611e-05 0.0 
1.901414525611e-05 1.267844857367e-04 0.0 
0.0 0.0 -2.428620303623e-05 
-3.444505010393e-05 1.562750611400e-05 0.0 
1.562750611400e-05 1.836714106930e-04 0.0 
0.0 0.0 -3.399136149544e-05 
-4.457783022682e-05 1.417525000785e-05 0.0 
1.417525000785e-05 2.618842628781e-04 0.0 
0.0 0.0 -4.406465996183e-05 
-5.572937533165e-05 1.046680884978e-05 0.0 
1.046680884978e-05 3.321775894220e-04 0.0 
0.0 0.0 -5.415704333790e-05 
-6.374532394610e-05 9.877096268524e-06 0.0 
9.877096268524e-06 3.996726964643e-04 0.0 
0.0 0.0 -6.415842296661e-05 
-7.312975922456e-05 1.092726545402e-05 0.0 
1.092726545402e-05 4.685103703879e-04 0.0 
0.0 0.0 -7.410179773499e-05 
-8.340975388222e-05 9.760341255261e-06 0.0 
9.760341255261e-06 5.380090096821e-04 0.0 
0.0 0.0 -8.402736785582e-05 
-9.329317044903e-05 9.748725627981e-06 0.0 
9.748725627981e-06 6.067337971893e-04 0.0 
0.0 0.0 -9.400794208654e-05 
-1.048395173574e-04 1.245666822366e-05 0.0 
1.245666822366e-05 6.774763461161e-04 0.0 
0.0 0.0 -1.040542782181e-04 
-1.176369272068e-04 1.876149311443e-05 0.0 
1.876149311443e-05 7.541898349339e-04 0.0 
0.0 0.0 -1.141079629734e-04 
-1.251371721908e-04 1.991670015406e-05 0.0 
1.991670015406e-05 8.235151932197e-04 0.0 
0.0 0.0 -1.240613786258e-04 
-1.319668018372e-04 2.596472290694e-05 0.0 
2.596472290694e-05 8.806369836317e-04 0.0 
0.0 0.0 -1.335504265687e-04 
-1.429595426911e-04 1.016247294305e-05 0.0 
1.016247294305e-05 9.540683438175e-04 0.0 
0.0 0.0 -1.433712649586e-04 
-1.532202596459e-04 9.657610282115e-06 0.0 
9.657610282115e-06 1.025836369529e-03 0.0 
0.0 0.0 -1.536785213545e-04 
-1.630955816410e-04 9.924116732642e-06 0.0 
9.924116732642e-06 1.095392565861e-03 0.0 
0.0 0.0 -1.636867096734e-04 
-1.736417197982e-04 9.148824907428e-06 0.0 
9.148824907428e-06 1.166298828267e-03 0.0 
0.0 0.0 -1.737495185000e-04 
-1.844935295981e-04 1.136666883781e-05 0.0 
1.136666883781e-05 1.237760949854e-03 0.0 
0.0 0.0 -1.839110754151e-04 
-1.928395893447e-04 1.466620459946e-05 0.0 
1.466620459946e-05 1.307601711888e-03 0.0 
0.0 0.0 -1.934749151625e-04 
-1.992084498245e-04 -9.667205419172e-07 0.0 
-9.667205419172e-07 1.341308611164e-03 0.0 
0.0 0.0 -2.005353038101e-04 
-2.003235822205e-04 -4.576902611969e-07 0.0 
-4.576902611969e-07 1.339283177977e-03 0.0 
0.0 0.0 -1.999418651152e-04 
-2.004195521241e-04 -9.594112326717e-06 0.0 
-9.594112326717e-06 1.337828695600e-03 0.0 
0.0 0.0 -2.002354755130e-04 
-2.008845907091e-04 4.519063874005e-06 0.0 
4.519063874005e-06 1.338578482993e-03 0.0 
0.0 0.0 -2.001689849711e-04 
-2.005719087583e-04 -1.259819984252e-06 0.0 
-1.259819984252e-06 1.336698736025e-03 0.0 
0.0 0.0 -1.998101597465e-04 
-2.003033749392e-04 1.612771953849e-07 0.0 
1.612771953849e-07 1.336699884288e-03 0.0 
0.0 0.0 -2.002576402756e-04 
-1.988174270910e-04 4.435871277180e-07 0.0 
4.435871277180e-07 1.338020991228e-03 0.0 
0.0 0.0 -2.002582685247e-04 
-2.006018029555e-04 -1.428553602928e-06 0.0 
-1.428553602928e-06 1.338259915715e-03 0.0 
0.0 0.0 -2.000295381545e-04 
-2.002076965602e-04 -6.442142530929e-06 0.0 
-6.442142530929e-06 1.339568721789e-03 0.0 
0.0 0.0 -2.004389858384e-04 
-2.006688150029e-04 4.111887006866e-06 0.0 
4.111887006866e-06 1.340190933063e-03 0.0 
0.0 0.0 -2.003568725688e-04 
-2.004204281591e-04 -1.032720327526e-06 0.0 
-1.032720327526e-06 1.338293566306e-03 0.0 
0.0 0.0 -1.999970921405e-04 
-2.007190085647e-04 -7.221768717102e-07 0.0 
-7.221768717102e-07 1.338675392550e-03 0.0 
0.0 0.0 -2.003793839065e-04 
-1.990986785052e-04 -1.590259053481e-08 0.0 
-1.590259053481e-08 1.341350099485e-03 0.0 
0.0 0.0 -2.004146187826e-04 
-2.007914892723e-04 -4.264335361636e-07 0.0 
-4.264335361636e-07 1.339816171211e-03 0.0 
0.0 0.0 -2.002852565091e-04 
-1.994100966532e-04 -1.572894639504e-06 0.0 
-1.572894639504e-06 1.338161131957e-03 0.0 
0.0 0.0 -2.001446319728e-04 
-2.007511256741e-04 1.494960023589e-06 0.0 
1.494960023589e-06 1.335513206817e-03 0.0 
0.0 0.0 -1.998462653075e-04 
-2.008601944157e-04 -3.837724735001e-07 0.0 
-3.837724735001e-07 1.334384440132e-03 0.0 
0.0 0.0 -1.998029376683e-04 
-1.990688471561e-04 2.458886044848e-07 0.0 
2.458886044848e-07 1.337655076969e-03 0.0 
0.0 0.0 -2.000088186226e-04 
-2.001853082778e-04 -6.402158915260e-07 0.0 
-6.402158915260e-07 1.339281899659e-03 0.0 
0.0 0.0 -2.002091174222e-04 
-2.005241707287e-04 -7.501540653690e-07 0.0 
-7.501540653690e-07 1.339203182872e-03 0.0 
0.0 0.0 -2.004865334549e-04 
-2.005853306472e-04 2.540125145858e-06 0.0 
2.540125145858e-06 1.339503555012e-03 0.0 
0.0 0.0 -2.003832587333e-04 
-1.997808965748e-04 -1.605993664681e-07 0.0 
-1.605993664681e-07 1.339666309980e-03 0.0 
0.0 0.0 -2.002174839672e-04 
-2.003075530794e-04 4.838064349886e-07 0.0 
4.838064349886e-07 1.338766324707e-03 0.0 
0.0 0.0 -2.002580803729e-04 
-2.003470639015e-04 -2.444069971792e-07 0.0 
-2.444069971792e-07 1.338072796155e-03 0.0 
0.0 0.0 -2.002440284024e-04 
-2.004510673748e-04 -1.928377971682e-07 0.0 
-1.928377971682e-07 1.340065919944e-03 0.0 
0.0 0.0 -2.002334986692e-04 
-1.995883615915e-04 -7.312419057630e-07 0.0 
-7.312419057630e-07 1.340320439837e-03 0.0 
0.0 0.0 -2.003661129950e-04 
-2.011747927060e-04 -8.722415594416e-07 0.0 
-8.722415594416e-07 1.340079435223e-03 0.0 
0.0 0.0 -2.004908485340e-04 
-1.995361419384e-04 -6.780112919620e-07 0.0 
-6.780112919620e-07 1.340717740891e-03 0.0 
0.0 0.0 -2.004762665914e-04 
-2.008009995012e-04 -8.793815483888e-07 0.0 
-8.793815483888e-07 1.341377617168e-03 0.0 
0.0 0.0 -2.003014926434e-04 
-2.004900975472e-04 -5.374113392905e-06 0.0 
-5.374113392905e-06 1.342707157093e-03 0.0 
0.0 0.0 -2.006997735404e-04 
-2.011614755125e-04 5.177742394411e-06 0.0 
5.177742394411e-06 1.341994191491e-03 0.0 
0.0 0.0 -2.005870641008e-04 
-2.001672680472e-04 1.642921574497e-06 0.0 
1.642921574497e-06 1.338462129955e-03 0.0 
0.0 0.0 -2.000675234999e-04 
-1.999895739659e-04 -6.988816100823e-09 0.0 
-6.988816100823e-09 1.336248125534e-03 0.0 
0.0 0.0 -2.001823097425e-04 
-2.001225026340e-04 -1.240829705364e-06 0.0 
-1.240829705364e-06 1.339474803775e-03 0.0 
0.0 0.0 -2.001929620191e-04 
-1.997428951088e-04 -2.864922555171e-07 0.0 
-2.864922555171e-07 1.339287980767e-03 0.0 
0.0 0.0 -2.002863172658e-04 
-2.011305945918e-04 -1.592599752619e-06 0.0 
-1.592599752619e-06 1.339001312879e-03 0.0 
0.0 0.0 -2.003537156312e-04 
-1.994489271156e-04 -3.123074052844e-07 0.0 
-3.123074052844e-07 1.340206734430e-03 0.0 
0.0 0.0 -2.003469717371e-04 
-2.008676553467e-04 -6.044515584201e-08 0.0 
-6.044515584201e-08 1.338725412238e-03 0.0 
0.0 0.0 -2.002396863610e-04 
-1.992453131624e-04 -1.009025233623e-06 0.0 
-1.009025233623e-06 1.337264745438e-03 0.0 
0.0 0.0 -2.001151187552e-04 
-2.007508866938e-04 2.802615914654e-07 0.0 
2.802615914654e-07 1.337086357069e-03 0.0 
0.0 0.0 -1.998355947622e-04 
-2.010860201950e-04 -2.268840142145e-06 0.0 
-2.268840142145e-06 1.337518567927e-03 0.0 
0.0 0.0 -2.000624918399e-04 
-1.999308478327e-04 1.605132680389e-06 0.0 
1.605132680389e-06 1.340948129084e-03 0.0 
0.0 0.0 -2.004978758543e-04 
-1.989515291925e-04 -1.597226336294e-06 0.0 
-1.597226336294e-06 1.342999130641e-03 0.0 
0.0 0.0 -2.005641941534e-04 
-2.002462740351e-04 -1.655488014151e-06 0.0 
-1.655488014151e-06 1.333093131656e-03 0.0 
0.0 0.0 -1.993486092159e-04 
-1.990090833406e-04 5.684559175637e-07 0.0 
5.684559175637e-07 1.340609276749e-03 0.0 
0.0 0.0 -2.003850096553e-04 
-2.008054096670e-04 9.372155481798e-08 0.0 
9.372155481798e-08 1.339007845984e-03 0.0 
0.0 0.0 -1.998785251170e-04 
-2.008250670669e-04 -6.084757154766e-06 0.0 
-6.084757154766e-06 1.338299561836e-03 0.0 
0.0 0.0 -2.002828574513e-04 
-2.004005035862e-04 2.502291620358e-06 0.0 
2.502291620358e-06 1.342657178018e-03 0.0 
0.0 0.0 -2.004849633189e-04 
-2.007882536758e-04 -1.247747538696e-07 0.0 
-1.247747538696e-07 1.343259988120e-03 0.0 
0.0 0.0 -2.003783523096e-04 
-1.146671904274e-04 -1.178176757847e-05 0.0 
-1.178176757847e-05 7.450986713540e-04 0.0 
0.0 0.0 -1.147343130870e-04 
-1.264453810116e-04 -1.334151081515e-05 0.0 
-1.334151081515e-05 8.198209596703e-04 0.0 
0.0 0.0 -1.244847198447e-04 
-1.356765189360e-04 -1.297470350471e-05 0.0 
-1.297470350471e-05 8.891398730811e-04 0.0 
0.0 0.0 -1.343891602869e-04 
-1.452353386135e-04 -1.385252952600e-05 0.0 
-1.385252952600e-05 9.563155137830e-04 0.0 
0.0 0.0 -1.441570129583e-04 
-1.551452079967e-04 -1.219781350268e-05 0.0 
-1.219781350268e-05 1.026181140671e-03 0.0 
0.0 0.0 -1.540481715075e-04 
-1.626979226826e-04 -1.337619385664e-05 0.0 
-1.337619385664e-05 1.096146543984e-03 0.0 
0.0 0.0 -1.639185295300e-04 
-1.730204163278e-04 -1.189570542028e-05 0.0 
-1.189570542028e-05 1.165335265964e-03 0.0 
0.0 0.0 -1.737435638217e-04 
-1.827904030233e-04 -1.370279642459e-05 0.0 
-1.370279642459e-05 1.231374955592e-03 0.0 
0.0 0.0 -1.836722557877e-04 
-1.920175721782e-04 -1.513479483673e-05 0.0 
-1.513479483673e-05 1.306410256595e-03 0.0 
0.0 0.0 -1.933173094176e-04 
-2.628312394672e-06 4.861178510582e-06 0.0 
4.861178510582e-06 1.556544794842e-05 0.0 
0.0 0.0 -4.409292559605e-06 
-1.048316007749e-04 -9.621305853345e-07 0.0 
-9.621305853345e-07 6.811678198845e-04 0.0 
0.0 0.0 -1.041824356080e-04 
-1.603258868989e-05 6.293505815657e-06 0.0 
6.293505815657e-06 6.888897348946e-05 0.0 
0.0 0.0 -1.632019118638e-05 
-2.522964320310e-05 7.260362317063e-06 0.0 
7.260362317063e-06 1.382870135500e-04 0.0 
0.0 0.0 -2.661692323397e-05 
-3.172273434562e-05 2.609174110429e-06 0.0 
2.609174110429e-06 1.868917573465e-04 0.0 
0.0 0.0 -3.377761721591e-05 
-4.239577254127e-05 2.241292013527e-06 0.0 
2.241292013527e-06 2.540904609616e-04 0.0 
0.0 0.0 -4.361962961408e-05 
-5.200855234888e-05 2.436357541103e-06 0.0 
2.436357541103e-06 3.241483764866e-04 0.0 
0.0 0.0 -5.364127140931e-05 
-6.051274250007e-05 -6.301292665322e-07 0.0 
-6.301292665322e-07 3.944343599617e-04 0.0 
0.0 0.0 -6.369887817887e-05 
-7.141834889080e-05 9.678265043948e-08 0.0 
9.678265043948e-08 4.646211674391e-04 0.0 
0.0 0.0 -7.370455344612e-05 
-8.170243524055e-05 5.000006177168e-08 0.0 
5.000006177168e-08 5.347878226306e-04 0.0 
0.0 0.0 -8.371130494101e-05 
-9.180060726483e-05 -4.722006417284e-07 0.0 
-4.722006417284e-07 6.049326733472e-04 0.0 
0.0 0.0 -9.373011205136e-05 
-2.431559275074e-05 -2.951830995814e-05 0.0 
-2.951830995814e-05 1.522079100898e-04 0.0 
0.0 0.0 -2.733333333333e-05 
-3.481144295916e-05 -2.407763231895e-05 0.0 
-2.407763231895e-05 1.915090082020e-04 0.0 
0.0 0.0 -3.400000000000e-05 
-4.479954490040e-05 -3.034758567600e-05 0.0 
-3.034758567600e-05 2.608172571825e-04 0.0 
0.0 0.0 -4.400000000000e-05 
-5.460502904689e-05 -2.471936197141e-05 0.0 
-2.471936197141e-05 3.301921564289e-04 0.0 
0.0 0.0 -5.400000000000e-05 
-6.456638670251e-05 -3.069381358953e-05 0.0 
-3.069381358953e-05 3.997152644097e-04 0.0 
0.0 0.0 -6.400000000000e-05 
-7.449630958426e-05 -2.494664394193e-05 0.0 
-2.494664394193e-05 4.692561610563e-04 0.0 
0.0 0.0 -7.400000000000e-05 
-8.434259877890e-05 -3.002568002087e-05 0.0 
-3.002568002087e-05 5.385348917960e-04 0.0 
0.0 0.0 -8.400000000000e-05 
-9.370207488884e-05 -2.126272979996e-05 0.0 
-2.126272979996e-05 6.064301356153e-04 0.0 
0.0 0.0 -9.400000000000e-05 
-1.036969649510e-04 8.247914357618e-06 0.0 
8.247914357618e-06 6.682236523530e-04 0.0 
0.0 0.0 -1.031244360596e-04 
-1.030331121809e-04 6.398061947281e-07 0.0 
6.398061947281e-07 6.730085857154e-04 0.0 
0.0 0.0 -1.036639830904e-04 
-1.040246848300e-04 6.551258288294e-07 0.0 
6.551258288294e-07 6.737003815122e-04 0.0 
0.0 0.0 -1.036786795573e-04 
-1.036199691061e-04 -1.060092899920e-06 0.0 
-1.060092899920e-06 6.728402332334e-04 0.0 
0.0 0.0 -1.035503476195e-04 
-1.036187730866e-04 6.987826892712e-07 0.0 
6.987826892712e-07 6.843234116976e-04 0.0 
0.0 0.0 -1.047113471711e-04 
-1.033931728263e-04 8.121956357098e-07 0.0 
8.121956357098e-07 6.742373380345e-04 0.0 
0.0 0.0 -1.036717283195e-04 
-1.019647128334e-04 -9.227752753182e-07 0.0 
-9.227752753182e-07 6.731432047700e-04 0.0 
0.0 0.0 -1.035575096558e-04 
-1.024936313905e-04 1.772285713447e-06 0.0 
1.772285713447e-06 6.748371062497e-04 0.0 
0.0 0.0 -1.035838249569e-04 
-1.042470993802e-04 3.635416729023e-07 0.0 
3.635416729023e-07 6.762559263978e-04 0.0 
0.0 0.0 -1.038366668071e-04 
-1.045602445557e-04 1.897285970682e-06 0.0 
1.897285970682e-06 6.765304608455e-04 0.0 
0.0 0.0 -1.037414779538e-04 
-1.033276288020e-04 1.064407616834e-06 0.0 
1.064407616834e-06 6.759918874459e-04 0.0 
0.0 0.0 -1.036749887244e-04 
-1.038467522998e-04 5.163460192194e-07 0.0 
5.163460192194e-07 6.750993881616e-04 0.0 
0.0 0.0 -1.036742376103e-04 
-1.031100844336e-04 2.320623075698e-06 0.0 
2.320623075698e-06 6.745066352922e-04 0.0 
0.0 0.0 -1.037248800197e-04 
-1.035625589850e-04 3.164755832638e-06 0.0 
3.164755832638e-06 6.761520668862e-04 0.0 
0.0 0.0 -1.038372224314e-04 
-3.888660396223e-06 -2.385114651317e-06 0.0 
-2.385114651317e-06 2.042711759429e-05 0.0 
0.0 0.0 -4.472331749510e-06 
-5.169101753905e-06 -7.084154542495e-07 0.0 
-7.084154542495e-07 2.271348961565e-05 0.0 
0.0 0.0 -4.502040609288e-06 
-2.364246160799e-06 1.028376057694e-06 0.0 
1.028376057694e-06 2.131091607623e-05 0.0 
0.0 0.0 -4.337518410806e-06 
-1.587498611084e-06 -3.133011703373e-06 0.0 
-3.133011703373e-06 2.050781746996e-05 0.0 
0.0 0.0 -4.334754490686e-06 
-5.046560316982e-06 -4.634948452893e-06 0.0 
-4.634948452893e-06 2.392890582554e-05 0.0 
0.0 0.0 -4.561117883842e-06 
-6.265007612969e-06 -9.207565944816e-07 0.0 
-9.207565944816e-07 2.697395437511e-05 0.0 
0.0 0.0 -4.603166802451e-06 
-5.736513677339e-06 8.387511243069e-08 0.0 
8.387511243069e-08 2.687139260663e-05 0.0 
0.0 0.0 -4.588253942932e-06 
-4.839540945368e-06 -2.011555288387e-07 0.0 
-2.011555288387e-07 2.583465999306e-05 0.0 
0.0 0.0 -4.580819930830e-06 
-4.612792911559e-06 -5.630253563300e-07 0.0 
-5.630253563300e-07 2.605477154738e-05 0.0 
0.0 0.0 -4.566377142626e-06 
-3.958290915494e-06 -1.184167375848e-06 0.0 
-1.184167375848e-06 2.564531167106e-05 0.0 
0.0 0.0 -4.572797242576e-06 
-4.022129294500e-06 -2.439723680986e-06 0.0 
-2.439723680986e-06 2.664958176089e-05 0.0 
0.0 0.0 -4.590091569785e-06 
-6.268342663527e-06 6.977096205287e-07 0.0 
6.977096205287e-07 2.905288206764e-05 0.0 
0.0 0.0 -4.700025780019e-06 
-5.376994636987e-06 4.381417467922e-06 0.0 
4.381417467922e-06 2.721428218001e-05 0.0 
0.0 0.0 -4.652230755744e-06 
-2.838762493559e-06 1.392931258625e-06 0.0 
1.392931258625e-06 2.367722917541e-05 0.0 
0.0 0.0 -4.515582628821e-06 
-3.990779392774e-06 -6.597448414294e-07 0.0 
-6.597448414294e-07 2.387859913914e-05 0.0 
0.0 0.0 -4.562958168800e-06 
-6.201113197701e-06 2.425591329864e-07 0.0 
2.425591329864e-07 2.634678490736e-05 0.0 
0.0 0.0 -4.590849357655e-06 
-6.954870756755e-06 8.464675035122e-07 0.0 
8.464675035122e-07 2.697964767619e-05 0.0 
0.0 0.0 -4.587172474505e-06 
-4.599856540822e-06 4.128708826148e-06 0.0 
4.128708826148e-06 2.250512897823e-05 0.0 
0.0 0.0 -4.562260372237e-06 
-2.212869655358e-06 7.040915964333e-07 0.0 
7.040915964333e-07 1.983031900883e-05 0.0 
0.0 0.0 -4.417496077222e-06 
-1.026195775993e-05 -1.644769759815e-06 0.0 
-1.644769759815e-06 1.312580702332e-04 0.0 
0.0 0.0 -2.825115427466e-05 
-2.179899976297e-05 -3.327457669097e-06 0.0 
-3.327457669097e-06 1.582936374712e-04 0.0 
0.0 0.0 -2.968836570599e-05 
-2.717620819583e-05 4.001707513508e-06 0.0 
4.001707513508e-06 1.621808945440e-04 0.0 
0.0 0.0 -2.844444444444e-05 
-2.978057478511e-05 -1.165650162693e-06 0.0 
-1.165650162693e-06 1.621383455798e-04 0.0 
0.0 0.0 -2.844444444444e-05 
-2.921274806909e-05 8.305695288811e-07 0.0 
8.305695288811e-07 1.632081802307e-04 0.0 
0.0 0.0 -2.844444444444e-05 
-2.946828635806e-05 4.783454070394e-08 0.0 
4.783454070394e-08 1.629080846512e-04 0.0 
0.0 0.0 -2.844444444444e-05 
-2.921459510280e-05 7.726347649522e-07 0.0 
7.726347649522e-07 1.630233636624e-04 0.0 
0.0 0.0 -2.844444444444e-05 
-2.918817136312e-05 6.040599890421e-07 0.0 
6.040599890421e-07 1.628373813236e-04 0.0 
0.0 0.0 -2.844444444444e-05 
-2.909245890494e-05 7.722666777264e-07 0.0 
7.722666777264e-07 1.628149635236e-04 0.0 
0.0 0.0 -2.844444444444e-05 
-2.903478880595e-05 6.915051756174e-07 0.0 
6.915051756174e-07 1.627247794145e-04 0.0 
0.0 0.0 -2.844444444444e-05 
-2.896704520104e-05 6.288785285919e-07 0.0 
6.288785285919e-07 1.626724634277e-04 0.0 
0.0 0.0 -2.844444444444e-05 
-2.891773244768e-05 4.593622278468e-07 0.0 
4.593622278468e-07 1.626192617532e-04 0.0 
0.0 0.0 -2.844444444444e-05 
-2.888178772729e-05 2.687280361973e-07 0.0 
2.687280361973e-07 1.625913542145e-04 0.0 
0.0 0.0 -2.844444444444e-05 
-2.886794466115e-05 4.792854860015e-08 0.0 
4.792854860015e-08 1.625797692571e-04 0.0 
0.0 0.0 -2.844444444444e-05 
-2.887620690930e-05 -1.622426593441e-07 0.0 
-1.622426593441e-07 1.625907703480e-04 0.0 
0.0 0.0 -2.844444444444e-05 
-2.890102710083e-05 -3.426783364603e-07 0.0 
-3.426783364603e-07 1.626167587532e-04 0.0 
0.0 0.0 -2.844444444444e-05 
-2.893227962403e-05 -4.816991160278e-07 0.0 
-4.816991160278e-07 1.626461636465e-04 0.0 
0.0 0.0 -2.844444444444e-05 
-2.896237197275e-05 -5.894249383595e-07 0.0 
-5.894249383595e-07 1.626666512819e-04 0.0 
0.0 0.0 -2.844444444444e-05 
-2.898471336849e-05 -6.822507806385e-07 0.0 
-6.822507806385e-07 1.626699288379e-04 0.0 
0.0 0.0 -2.844444444444e-05 
-2.899114900388e-05 -7.782800603811e-07 0.0 
-7.782800603811e-07 1.626477306285e-04 0.0 
0.0 0.0 -2.844444444444e-05 
-2.896956272390e-05 -8.925415586914e-07 0.0 
-8.925415586914e-07 1.625895453271e-04 0.0 
0.0 0.0 -2.844444444444e-05 
-2.890290233695e-05 -1.024654975745e-06 0.0 
-1.024654975745e-06 1.624827329957e-04 0.0 
0.0 0.0 -2.844444444444e-05 
-2.876838130093e-05 -1.121906233039e-06 0.0 
-1.121906233039e-06 1.623182679225e-04 0.0 
0.0 0.0 -2.844444444444e-05 
-2.854088375291e-05 -8.770158078932e-07 0.0 
-8.770158078932e-07 1.621420604824e-04 0.0 
0.0 0.0 -2.844444444444e-05 
-2.822603385061e-05 2.861356309454e-06 0.0 
2.861356309454e-06 1.628161239124e-04 0.0 
0.0 0.0 -2.844444444444e-05 
-3.044907278555e-05 1.267815602294e-05 0.0 
1.267815602294e-05 1.656666928940e-04 0.0 
0.0 0.0 -2.816666666667e-05 
-2.635784649527e-05 3.023599991205e-06 0.0 
3.023599991205e-06 1.754994643042e-04 0.0 
0.0 0.0 -3.279586449964e-05 
-3.342957154738e-05 -1.428230834183e-06 0.0 
-1.428230834183e-06 1.937372714669e-04 0.0 
0.0 0.0 -3.439645528541e-05 
-3.433676816902e-05 1.423425013521e-06 0.0 
1.423425013521e-06 1.909850886953e-04 0.0 
0.0 0.0 -3.400000000000e-05 
-3.504811682074e-05 1.017276523045e-07 0.0 
1.017276523045e-07 1.903954401692e-04 0.0 
0.0 0.0 -3.400000000000e-05 
-3.475883280557e-05 8.275041871259e-07 0.0 
8.275041871259e-07 1.909295942363e-04 0.0 
0.0 0.0 -3.400000000000e-05 
-3.476718964368e-05 6.674693375523e-07 0.0 
6.674693375523e-07 1.905564479674e-04 0.0 
0.0 0.0 -3.400000000000e-05 
-3.465636554937e-05 8.034649928025e-07 0.0 
8.034649928025e-07 1.906219403581e-04 0.0 
0.0 0.0 -3.400000000000e-05 
-3.463333973170e-05 7.756039964563e-07 0.0 
7.756039964563e-07 1.904961722334e-04 0.0 
0.0 0.0 -3.400000000000e-05 
-3.455481925026e-05 7.446491180549e-07 0.0 
7.446491180549e-07 1.904484670683e-04 0.0 
0.0 0.0 -3.400000000000e-05 
-3.450861733375e-05 6.101627205472e-07 0.0 
6.101627205472e-07 1.903734959664e-04 0.0 
0.0 0.0 -3.400000000000e-05 
-3.445653623328e-05 4.290053438309e-07 0.0 
4.290053438309e-07 1.903323815166e-04 0.0 
0.0 0.0 -3.400000000000e-05 
-3.443063610829e-05 1.991945827126e-07 0.0 
1.991945827126e-07 1.903067296367e-04 0.0 
0.0 0.0 -3.400000000000e-05 
-3.442810645012e-05 -4.141107895420e-08 0.0 
-4.141107895420e-08 1.903121848046e-04 0.0 
0.0 0.0 -3.400000000000e-05 
-3.444817075231e-05 -2.580070050544e-07 0.0 
-2.580070050544e-07 1.903391032696e-04 0.0 
0.0 0.0 -3.400000000000e-05 
-3.447368869704e-05 -4.269536035544e-07 0.0 
-4.269536035544e-07 1.903730351739e-04 0.0 
0.0 0.0 -3.400000000000e-05 
-3.449570884593e-05 -5.530106626938e-07 0.0 
-5.530106626938e-07 1.903982130225e-04 0.0 
0.0 0.0 -3.400000000000e-05 
-3.450875738063e-05 -6.495177737791e-07 0.0 
-6.495177737791e-07 1.904058521572e-04 0.0 
0.0 0.0 -3.400000000000e-05 
-3.450560192681e-05 -7.304044745140e-07 0.0 
-7.304044745140e-07 1.903880482122e-04 0.0 
0.0 0.0 -3.400000000000e-05 
-3.447675244413e-05 -8.069657295755e-07 0.0 
-8.069657295755e-07 1.903364635921e-04 0.0 
0.0 0.0 -3.400000000000e-05 
-3.441055491183e-05 -8.828364346676e-07 0.0 
-8.828364346676e-07 1.902436989104e-04 0.0 
0.0 0.0 -3.400000000000e-05 
-3.429817085697e-05 -9.362193017797e-07 0.0 
-9.362193017797e-07 1.901102552784e-04 0.0 
0.0 0.0 -3.400000000000e-05 
-3.413811234369e-05 -8.868077408759e-07 0.0 
-8.868077408759e-07 1.899571004772e-04 0.0 
0.0 0.0 -3.400000000000e-05 
-3.397177696146e-05 -5.984876856420e-07 0.0 
-5.984876856420e-07 1.898800230821e-04 0.0 
0.0 0.0 -3.400000000000e-05 
-3.407836345250e-05 -3.059519767749e-07 0.0 
-3.059519767749e-07 1.903305099338e-04 0.0 
0.0 0.0 -3.400000000000e-05 
-3.460283539434e-05 1.705188566677e-05 0.0 
1.705188566677e-05 1.911985687843e-04 0.0 
0.0 0.0 -3.400000000000e-05 
-4.455327315977e-05 1.167838660116e-05 0.0 
1.167838660116e-05 2.604601866799e-04 0.0 
0.0 0.0 -4.400000000000e-05 
-4.411949662139e-05 2.747099334527e-06 0.0 
2.747099334527e-06 2.598190346923e-04 0.0 
0.0 0.0 -4.400000000000e-05 
-4.406401131858e-05 -2.627410997222e-07 0.0 
-2.627410997222e-07 2.596613345305e-04 0.0 
0.0 0.0 -4.400000000000e-05 
-4.413979454266e-05 -5.879314611794e-07 0.0 
-5.879314611794e-07 2.597036670706e-04 0.0 
0.0 0.0 -4.400000000000e-05 
-4.425161335125e-05 -6.632845015873e-07 0.0 
-6.632845015873e-07 2.598123821449e-04 0.0 
0.0 0.0 -4.400000000000e-05 
-4.435458459021e-05 -6.804876884903e-07 0.0 
-6.804876884903e-07 2.599204827840e-04 0.0 
0.0 0.0 -4.400000000000e-05 
-4.442806416961e-05 -6.802021940728e-07 0.0 
-6.802021940728e-07 2.599953638461e-04 0.0 
0.0 0.0 -4.400000000000e-05 
-4.446670361324e-05 -6.574637951664e-07 0.0 
-6.574637951664e-07 2.600301131491e-04 0.0 
0.0 0.0 -4.400000000000e-05 
-4.448172913590e-05 -6.048167667418e-07 0.0 
-6.048167667418e-07 2.600334851022e-04 0.0 
0.0 0.0 -4.400000000000e-05 
-4.448133099563e-05 -5.161692673206e-07 0.0 
-5.161692673206e-07 2.600126903058e-04 0.0 
0.0 0.0 -4.400000000000e-05 
-4.446956848312e-05 -3.874719342341e-07 0.0 
-3.874719342341e-07 2.599742191345e-04 0.0 
0.0 0.0 -4.400000000000e-05 
-4.444289703346e-05 -2.034956803443e-07 0.0 
-2.034956803443e-07 2.599215045726e-04 0.0 
0.0 0.0 -4.400000000000e-05 
-4.441849143332e-05 6.484075759357e-08 0.0 
6.484075759357e-08 2.598898736161e-04 0.0 
0.0 0.0 -4.400000000000e-05 
-4.443209793791e-05 3.465651675754e-07 0.0 
3.465651675754e-07 2.599002687236e-04 0.0 
0.0 0.0 -4.400000000000e-05 
-4.448687436373e-05 6.177294269502e-07 0.0 
6.177294269502e-07 2.599760522650e-04 0.0 
0.0 0.0 -4.400000000000e-05 
-4.455296902831e-05 7.215046356319e-07 0.0 
7.215046356319e-07 2.600309796975e-04 0.0 
0.0 0.0 -4.400000000000e-05 
-4.459092640311e-05 9.029734736165e-07 0.0 
9.029734736165e-07 2.601693669081e-04 0.0 
0.0 0.0 -4.400000000000e-05 
-4.464455030691e-05 7.094389924431e-07 0.0 
7.094389924431e-07 2.601428842768e-04 0.0 
0.0 0.0 -4.400000000000e-05 
-4.458090555975e-05 1.034786167333e-06 0.0 
1.034786167333e-06 2.603965205166e-04 0.0 
0.0 0.0 -4.400000000000e-05 
-4.467873362862e-05 4.574748873904e-07 0.0 
4.574748873904e-07 2.599271191011e-04 0.0 
0.0 0.0 -4.400000000000e-05 
-4.396213681874e-05 2.188574361429e-06 0.0 
2.188574361429e-06 2.605797292245e-04 0.0 
0.0 0.0 -4.400000000000e-05 
-4.354108487199e-05 -1.114121571067e-06 0.0 
-1.114121571067e-06 2.642457942881e-04 0.0 
0.0 0.0 -4.440087463557e-05 
-3.653623355074e-05 1.890043377624e-06 0.0 
1.890043377624e-06 2.461851802042e-04 0.0 
0.0 0.0 -4.280102040816e-05 
-4.613301209441e-05 3.619110181881e-06 0.0 
3.619110181881e-06 3.157829509857e-04 0.0 
0.0 0.0 -5.279515429360e-05 
-5.272430673223e-05 -9.182146848104e-07 0.0 
-9.182146848104e-07 3.334727456063e-04 0.0 
0.0 0.0 -5.439584653737e-05 
-5.380973540994e-05 1.644998673954e-06 0.0 
1.644998673954e-06 3.302664481471e-04 0.0 
0.0 0.0 -5.400000000000e-05 
-5.466689081061e-05 3.147190341774e-07 0.0 
3.147190341774e-07 3.296224174576e-04 0.0 
0.0 0.0 -5.400000000000e-05 
-5.456479812606e-05 8.907554722933e-07 0.0 
8.907554722933e-07 3.301278746856e-04 0.0 
0.0 0.0 -5.400000000000e-05 
-5.469843557399e-05 7.294571082761e-07 0.0 
7.294571082761e-07 3.297896585847e-04 0.0 
0.0 0.0 -5.400000000000e-05 
-5.455713654919e-05 8.293328218573e-07 0.0 
8.293328218573e-07 3.297859209611e-04 0.0 
0.0 0.0 -5.400000000000e-05 
-5.447176827306e-05 6.045948425803e-07 0.0 
6.045948425803e-07 3.295846238880e-04 0.0 
0.0 0.0 -5.400000000000e-05 
-5.439587138175e-05 2.699825687268e-07 0.0 
2.699825687268e-07 3.295445281644e-04 0.0 
0.0 0.0 -5.400000000000e-05 
-5.444020560872e-05 -9.373025041376e-08 0.0 
-9.373025041376e-08 3.295833112604e-04 0.0 
0.0 0.0 -5.400000000000e-05 
-5.448526328926e-05 -2.925786431971e-07 0.0 
-2.925786431971e-07 3.296759622065e-04 0.0 
0.0 0.0 -5.400000000000e-05 
-5.448521490030e-05 -4.042919985534e-07 0.0 
-4.042919985534e-07 3.297222213790e-04 0.0 
0.0 0.0 -5.400000000000e-05 
-5.446593747581e-05 -5.017291938270e-07 0.0 
-5.017291938270e-07 3.297482559229e-04 0.0 
0.0 0.0 -5.400000000000e-05 
-5.444715703514e-05 -5.661052701272e-07 0.0 
-5.661052701272e-07 3.297630960230e-04 0.0 
0.0 0.0 -5.400000000000e-05 
-5.441902664921e-05 -5.791858778638e-07 0.0 
-5.791858778638e-07 3.297520271910e-04 0.0 
0.0 0.0 -5.400000000000e-05 
-5.435489545421e-05 -5.320435298485e-07 0.0 
-5.320435298485e-07 3.296952773800e-04 0.0 
0.0 0.0 -5.400000000000e-05 
-5.425282743638e-05 -4.796851552699e-07 0.0 
-4.796851552699e-07 3.295926353122e-04 0.0 
0.0 0.0 -5.400000000000e-05 
-5.415150905155e-05 -4.389405642830e-07 0.0 
-4.389405642830e-07 3.294912033637e-04 0.0 
0.0 0.0 -5.400000000000e-05 
-5.408758113007e-05 -3.988049795922e-07 0.0 
-3.988049795922e-07 3.294501912325e-04 0.0 
0.0 0.0 -5.400000000000e-05 
-5.412553104182e-05 -4.108986155667e-07 0.0 
-4.108986155667e-07 3.295530381932e-04 0.0 
0.0 0.0 -5.400000000000e-05 
-5.432573387972e-05 -1.150061439258e-06 0.0 
-1.150061439258e-06 3.298496077656e-04 0.0 
0.0 0.0 -5.400000000000e-05 
-5.454235109009e-05 1.621095232876e-05 0.0 
1.621095232876e-05 3.301284745679e-04 0.0 
0.0 0.0 -5.400000000000e-05 
-6.449104081877e-05 1.102095358613e-05 0.0 
1.102095358613e-05 3.995973409364e-04 0.0 
0.0 0.0 -6.400000000000e-05 
-6.422906796569e-05 2.177518514987e-06 0.0 
2.177518514987e-06 3.992543368403e-04 0.0 
0.0 0.0 -6.400000000000e-05 
-6.408383134524e-05 -3.034071916938e-07 0.0 
-3.034071916938e-07 3.990967741269e-04 0.0 
0.0 0.0 -6.400000000000e-05 
-6.408041873393e-05 -3.033981082000e-07 0.0 
-3.033981082000e-07 3.990993988085e-04 0.0 
0.0 0.0 -6.400000000000e-05 
-6.413758657569e-05 -2.664267529371e-07 0.0 
-2.664267529371e-07 3.991827780022e-04 0.0 
0.0 0.0 -6.400000000000e-05 
-6.424201883682e-05 -2.687503912124e-07 0.0 
-2.687503912124e-07 3.993046003732e-04 0.0 
0.0 0.0 -6.400000000000e-05 
-6.435001536576e-05 -3.748421087071e-07 0.0 
-3.748421087071e-07 3.994006642501e-04 0.0 
0.0 0.0 -6.400000000000e-05 
-6.439349834041e-05 -4.644553275205e-07 0.0 
-4.644553275205e-07 3.993979902157e-04 0.0 
0.0 0.0 -6.400000000000e-05 
-6.439694071681e-05 -4.217729739727e-07 0.0 
-4.217729739727e-07 3.993619939022e-04 0.0 
0.0 0.0 -6.400000000000e-05 
-6.446545681239e-05 -3.034361081742e-07 0.0 
-3.034361081742e-07 3.993593597444e-04 0.0 
0.0 0.0 -6.400000000000e-05 
-6.453884953312e-05 -2.444575558042e-07 0.0 
-2.444575558042e-07 3.993592142806e-04 0.0 
0.0 0.0 -6.400000000000e-05 
-6.453841394424e-05 -2.364183723064e-07 0.0 
-2.364183723064e-07 3.992848240483e-04 0.0 
0.0 0.0 -6.400000000000e-05 
-6.443555698589e-05 -5.018406128309e-08 0.0 
-5.018406128309e-08 3.990730026429e-04 0.0 
0.0 0.0 -6.400000000000e-05 
-6.439006881427e-05 5.953405842576e-07 0.0 
5.953405842576e-07 3.990989476378e-04 0.0 
0.0 0.0 -6.400000000000e-05 
-6.459707428735e-05 8.270995238340e-07 0.0 
8.270995238340e-07 3.992307724164e-04 0.0 
0.0 0.0 -6.400000000000e-05 
-6.478530700370e-05 1.165018707171e-06 0.0 
1.165018707171e-06 3.997535009593e-04 0.0 
0.0 0.0 -6.400000000000e-05 
-6.492709823616e-05 1.223192506191e-07 0.0 
1.223192506191e-07 3.993858055679e-04 0.0 
0.0 0.0 -6.400000000000e-05 
-6.387749569822e-05 1.643573763821e-06 0.0 
1.643573763821e-06 3.997389601482e-04 0.0 
0.0 0.0 -6.400000000000e-05 
-6.329773463465e-05 -1.345766021157e-06 0.0 
-1.345766021157e-06 4.036796173873e-04 0.0 
0.0 0.0 -6.440087463557e-05 
-5.619569592719e-05 6.249853982819e-07 0.0 
6.249853982819e-07 3.855354190560e-04 0.0 
0.0 0.0 -6.280102040816e-05 
-6.626641426913e-05 1.378973851741e-06 0.0 
1.378973851741e-06 4.548482350430e-04 0.0 
0.0 0.0 -7.279421768707e-05 
-7.356607765690e-05 -1.854881774075e-06 0.0 
-1.854881774075e-06 4.734083990815e-04 0.0 
0.0 0.0 -7.439504373177e-05 
-7.451973324986e-05 1.818776252699e-06 0.0 
1.818776252699e-06 4.701147270985e-04 0.0 
0.0 0.0 -7.400000000000e-05 
-7.507189263132e-05 1.139871955262e-06 0.0 
1.139871955262e-06 4.690018492736e-04 0.0 
0.0 0.0 -7.400000000000e-05 
-7.440307977863e-05 1.316267280214e-06 0.0 
1.316267280214e-06 4.689046979315e-04 0.0 
0.0 0.0 -7.400000000000e-05 
-7.447964919173e-05 1.327643289489e-07 0.0 
1.327643289489e-07 4.685645119696e-04 0.0 
0.0 0.0 -7.400000000000e-05 
-7.463811246650e-05 -2.009510893623e-07 0.0 
-2.009510893623e-07 4.690373350481e-04 0.0 
0.0 0.0 -7.400000000000e-05 
-7.464635801585e-05 -7.665068053576e-08 0.0 
-7.665068053576e-08 4.691773352964e-04 0.0 
0.0 0.0 -7.400000000000e-05 
-7.456896915362e-05 6.486733144631e-08 0.0 
6.486733144631e-08 4.691551129947e-04 0.0 
0.0 0.0 -7.400000000000e-05 
-7.434965880918e-05 -2.979712214473e-08 0.0 
-2.979712214473e-08 4.690260974999e-04 0.0 
0.0 0.0 -7.400000000000e-05 
-7.428013090329e-05 -3.745306366773e-07 0.0 
-3.745306366773e-07 4.690784611457e-04 0.0 
0.0 0.0 -7.400000000000e-05 
-7.436926452788e-05 -3.179218437662e-07 0.0 
-3.179218437662e-07 4.692164839065e-04 0.0 
0.0 0.0 -7.400000000000e-05 
-7.420923464376e-05 -8.861031691497e-08 0.0 
-8.861031691497e-08 4.691097441108e-04 0.0 
0.0 0.0 -7.400000000000e-05 
-7.408672818249e-05 -9.997158663720e-08 0.0 
-9.997158663720e-08 4.689363840629e-04 0.0 
0.0 0.0 -7.400000000000e-05 
-7.401015679154e-05 -2.369586485918e-07 0.0 
-2.369586485918e-07 4.688345953373e-04 0.0 
0.0 0.0 -7.400000000000e-05 
-7.402043488264e-05 -3.858604555162e-07 0.0 
-3.858604555162e-07 4.687795838329e-04 0.0 
0.0 0.0 -7.400000000000e-05 
-7.406733317633e-05 -8.624702852559e-07 0.0 
-8.624702852559e-07 4.688475136122e-04 0.0 
0.0 0.0 -7.400000000000e-05 
-7.437229827430e-05 -1.941892756436e-06 0.0 
-1.941892756436e-06 4.691620651443e-04 0.0 
0.0 0.0 -7.400000000000e-05 
-7.450735550024e-05 1.576544860626e-05 0.0 
1.576544860626e-05 4.693163051132e-04 0.0 
0.0 0.0 -7.400000000000e-05 
-8.485563316515e-05 1.075809198226e-05 0.0 
1.075809198226e-05 5.391859337594e-04 0.0 
0.0 0.0 -8.400000000000e-05 
-8.409846415960e-05 9.414650263605e-07 0.0 
9.414650263605e-07 5.383995603087e-04 0.0 
0.0 0.0 -8.400000000000e-05 
-8.389555484943e-05 -6.021980322684e-07 0.0 
-6.021980322684e-07 5.381860091551e-04 0.0 
0.0 0.0 -8.400000000000e-05 
-8.398436323506e-05 -4.920223144165e-07 0.0 
-4.920223144165e-07 5.383843948043e-04 0.0 
0.0 0.0 -8.400000000000e-05 
-8.378599896788e-05 -1.313884382087e-07 0.0 
-1.313884382087e-07 5.383410839076e-04 0.0 
0.0 0.0 -8.400000000000e-05 
-8.397004303126e-05 1.320895791523e-07 0.0 
1.320895791523e-07 5.385599452968e-04 0.0 
0.0 0.0 -8.400000000000e-05 
-8.409172541067e-05 3.119498635538e-07 0.0 
3.119498635538e-07 5.388399091460e-04 0.0 
0.0 0.0 -8.400000000000e-05 
-8.425202054181e-05 -4.105999003094e-07 0.0 
-4.105999003094e-07 5.388170517081e-04 0.0 
0.0 0.0 -8.400000000000e-05 
-8.405009752117e-05 1.267934535994e-07 0.0 
1.267934535994e-07 5.383656166005e-04 0.0 
0.0 0.0 -8.400000000000e-05 
-8.446225278370e-05 7.431195345640e-07 0.0 
7.431195345640e-07 5.387309105085e-04 0.0 
0.0 0.0 -8.400000000000e-05 
-8.472976723877e-05 3.614371366169e-07 0.0 
3.614371366169e-07 5.389575801292e-04 0.0 
0.0 0.0 -8.400000000000e-05 
-8.468281700183e-05 1.764545941254e-07 0.0 
1.764545941254e-07 5.387723880717e-04 0.0 
0.0 0.0 -8.400000000000e-05 
-8.488166774851e-05 3.307409063185e-08 0.0 
3.307409063185e-08 5.387187096913e-04 0.0 
0.0 0.0 -8.400000000000e-05 
-8.470036612902e-05 2.233472977468e-07 0.0 
2.233472977468e-07 5.376128164124e-04 0.0 
0.0 0.0 -8.400000000000e-05 
-8.431282722659e-05 3.361858424154e-06 0.0 
3.361858424154e-06 5.388019778082e-04 0.0 
0.0 0.0 -8.400000000000e-05 
-8.416442060440e-05 -6.991529090742e-07 0.0 
-6.991529090742e-07 5.438481516276e-04 0.0 
0.0 0.0 -8.440087463557e-05 
-7.699797766990e-05 8.136884982108e-07 0.0 
8.136884982108e-07 5.256926397960e-04 0.0 
0.0 0.0 -8.280102040816e-05 
-8.729514730737e-05 2.431575192883e-06 0.0 
2.431575192883e-06 5.952071725442e-04 0.0 
0.0 0.0 -9.279292626141e-05 
-9.515402825116e-05 -3.487467194031e-07 0.0 
-3.487467194031e-07 6.124983923015e-04 0.0 
0.0 0.0 -9.439393679549e-05 
-9.530518963518e-05 1.748549076388e-06 0.0 
1.748549076388e-06 6.086982827348e-04 0.0 
0.0 0.0 -9.400000000000e-05 
-9.443822007151e-05 1.536080356852e-06 0.0 
1.536080356852e-06 6.081273132837e-04 0.0 
0.0 0.0 -9.400000000000e-05 
-9.455496517287e-05 4.180655032130e-07 0.0 
4.180655032130e-07 6.085997108048e-04 0.0 
0.0 0.0 -9.400000000000e-05 
-9.458632400686e-05 1.150725883443e-06 0.0 
1.150725883443e-06 6.089170576803e-04 0.0 
0.0 0.0 -9.400000000000e-05 
-9.431195159654e-05 1.533006736186e-06 0.0 
1.533006736186e-06 6.081280804878e-04 0.0 
0.0 0.0 -9.400000000000e-05 
-9.421230709675e-05 -1.354647329153e-07 0.0 
-1.354647329153e-07 6.080912884899e-04 0.0 
0.0 0.0 -9.400000000000e-05 
-9.337909431243e-05 6.942444443618e-07 0.0 
6.942444443618e-07 6.085993616068e-04 0.0 
0.0 0.0 -9.400000000000e-05 
-9.374302250683e-05 3.925743234368e-08 0.0 
3.925743234368e-08 6.082422955829e-04 0.0 
0.0 0.0 -9.400000000000e-05 
-9.357184311787e-05 3.344127971799e-07 0.0 
3.344127971799e-07 6.080020201806e-04 0.0 
0.0 0.0 -9.400000000000e-05 
-9.351707113181e-05 -1.166879688300e-06 0.0 
-1.166879688300e-06 6.078331273393e-04 0.0 
0.0 0.0 -9.400000000000e-05 
-9.397267376399e-05 -4.718022942719e-07 0.0 
-4.718022942719e-07 6.082084038474e-04 0.0 
0.0 0.0 -9.400000000000e-05 
-9.376740862845e-05 -1.478812201538e-06 0.0 
-1.478812201538e-06 6.074134740605e-04 0.0 
0.0 0.0 -9.400000000000e-05 
-9.429475212128e-05 -5.091328171579e-06 0.0 
-5.091328171579e-06 6.089719886990e-04 0.0 
0.0 0.0 -9.400000000000e-05 
-9.572461714176e-05 1.686230062982e-05 0.0 
1.686230062982e-05 6.103161186201e-04 0.0 
0.0 0.0 -9.400000000000e-05 
-9.168972231207e-06 3.086373565098e-06 0.0 
3.086373565098e-06 3.559574852661e-05 0.0 
0.0 0.0 -1.067913767518e-05 
-2.319324557595e-05 9.600073751645e-06 0.0 
9.600073751645e-06 1.051649730873e-04 0.0 
0.0 0.0 -2.186514004066e-05 
-2.526708561103e-05 6.310853555671e-06 0.0 
6.310853555671e-06 1.563086297405e-04 0.0 
0.0 0.0 -2.983264867227e-05 
-3.537296998936e-05 6.864872435128e-06 0.0 
6.864872435128e-06 2.269082270308e-04 0.0 
0.0 0.0 -3.986440968097e-05 
-4.488160423805e-05 2.620282550735e-06 0.0 
2.620282550735e-06 2.956678138489e-04 0.0 
0.0 0.0 -4.966355900614e-05 
-5.332449771990e-05 4.791519907196e-06 0.0 
4.791519907196e-06 3.657467620854e-04 0.0 
0.0 0.0 -5.966365156130e-05 
-6.508558424635e-05 3.075872768086e-06 0.0 
3.075872768086e-06 4.344526873071e-04 0.0 
0.0 0.0 -6.975401418979e-05 
-7.497012245692e-05 4.311534055672e-06 0.0 
4.311534055672e-06 5.043026023732e-04 0.0 
0.0 0.0 -7.976546830823e-05 
-8.509296828041e-05 3.418368169262e-06 0.0 
3.418368169262e-06 5.740185323213e-04 0.0 
0.0 0.0 -8.978403836533e-05 
-9.498556415872e-05 3.738944843297e-06 0.0 
3.738944843297e-06 6.453839669724e-04 0.0 
0.0 0.0 -9.979450657254e-05 
-2.903947000217e-05 4.451191488364e-07 0.0 
4.451191488364e-07 1.483933272917e-04 0.0 
0.0 0.0 -2.805418351568e-05 
-1.947382551544e-04 -2.159516415369e-06 0.0 
-2.159516415369e-06 1.315627443457e-03 0.0 
0.0 0.0 -1.955083413980e-04 
-8.567559438263e-06 -1.698793721464e-06 0.0 
-1.698793721464e-06 4.448364337142e-05 0.0 
0.0 0.0 -8.578267221574e-06 
-8.136868517871e-06 -4.367899646924e-06 0.0 
-4.367899646924e-06 4.087946457471e-05 0.0 
0.0 0.0 -8.341387659605e-06 
-1.954641214955e-04 3.125550394228e-06 0.0 
3.125550394228e-06 1.316340498285e-03 0.0 
0.0 0.0 -1.955041315648e-04 
-5.006254034077e-05 3.860488417876e-06 0.0 
3.860488417876e-06 2.918098893608e-04 0.0 
0.0 0.0 -4.819929352323e-05 
-1.113057377054e-04 -1.249747274644e-06 0.0 
-1.249747274644e-06 7.175137801225e-04 0.0 
0.0 0.0 -1.095085134540e-04 
-1.950754387674e-04 1.968519813096e-06 0.0 
1.968519813096e-06 1.314054090021e-03 0.0 
0.0 0.0 -1.951497400597e-04 
-6.837076637649e-05 -4.771419097857e-06 0.0 
-4.771419097857e-06 4.223371659246e-04 0.0 
0.0 0.0 -6.746904573659e-05 
-1.952596228174e-04 5.860291744710e-07 0.0 
5.860291744710e-07 1.317160681800e-03 0.0 
0.0 0.0 -1.956021977692e-04 
-8.896698281549e-05 5.176874405716e-07 0.0 
5.176874405716e-07 5.656380992247e-04 0.0 
0.0 0.0 -8.786970436408e-05 
-1.941939648637e-04 1.847287419424e-06 0.0 
1.847287419424e-06 1.320485000250e-03 0.0 
0.0 0.0 -1.961487763302e-04 
-7.650674215329e-06 1.236502144193e-06 0.0 
1.236502144193e-06 3.991553915001e-05 0.0 
0.0 0.0 -8.186248162006e-06 
-1.957069062092e-04 9.003290222843e-07 0.0 
9.003290222843e-07 1.317426151316e-03 0.0 
0.0 0.0 -1.956722400187e-04 
-1.089453835626e-04 2.369159746168e-06 0.0 
2.369159746168e-06 7.099109707760e-04 0.0 
0.0 0.0 -1.080461297714e-04 
-6.859129019067e-05 1.013206430907e-06 0.0 
1.013206430907e-06 4.370886358119e-04 0.0 
0.0 0.0 -6.960710895285e-05 
-1.371687672462e-04 1.989641405698e-06 0.0 
1.989641405698e-06 9.073488131676e-04 0.0 
0.0 0.0 -1.368826812983e-04 
-1.943229683407e-04 -1.445358278171e-06 0.0 
-1.445358278171e-06 1.315110082613e-03 0.0 
0.0 0.0 -1.951920106767e-04 
-1.956930830492e-04 2.604495501023e-06 0.0 
2.604495501023e-06 1.317782772153e-03 0.0 
0.0 0.0 -1.956442140825e-04 
-1.963197173795e-04 -2.638308879700e-06 0.0 
-2.638308879700e-06 1.317317020312e-03 0.0 
0.0 0.0 -1.954857917668e-04 
-1.946046977129e-04 1.619923868870e-06 0.0 
1.619923868870e-06 1.311223827380e-03 0.0 
0.0 0.0 -1.946591103862e-04 
-1.965700765428e-04 -3.277130686746e-06 0.0 
-3.277130686746e-06 1.319377863823e-03 0.0 
0.0 0.0 -1.957959275784e-04 
-1.125606473740e-04 1.719511349206e-06 0.0 
1.719511349206e-06 7.393436574216e-04 0.0 
0.0 0.0 -1.128301714015e-04 
-1.128503086942e-04 1.743206654311e-06 0.0 
1.743206654311e-06 7.389768954601e-04 0.0 
0.0 0.0 -1.129477424158e-04 
-1.131980592598e-04 -1.862024743753e-06 0.0 
-1.862024743753e-06 7.425708164452e-04 0.0 
0.0 0.0 -1.137040567910e-04 
-1.496411633683e-04 -5.197980004835e-06 0.0 
-5.197980004835e-06 9.903344520159e-04 0.0 
0.0 0.0 -1.492512252364e-04 
-1.950888054502e-04 -1.662594662544e-06 0.0 
-1.662594662544e-06 1.318271302421e-03 0.0 
0.0 0.0 -1.954311278458e-04 
-7.420624434335e-06 -2.743944179506e-06 0.0 
-2.743944179506e-06 4.036171462300e-05 0.0 
0.0 0.0 -8.192647634203e-06 
-9.873734262922e-06 8.287041108010e-07 0.0 
8.287041108010e-07 4.596430085012e-05 0.0 
0.0 0.0 -8.762595040287e-06 
-1.681367322331e-04 -1.737857054475e-07 0.0 
-1.737857054475e-07 1.127342030325e-03 0.0 
0.0 0.0 -1.684329593750e-04 
-1.137312378447e-04 2.941922033179e-06 0.0 
2.941922033179e-06 7.354400071240e-04 0.0 
0.0 0.0 -1.125050824252e-04 
-4.041482156002e-05 3.417558897105e-07 0.0 
3.417558897105e-07 2.241831831132e-04 0.0 
0.0 0.0 -3.891752881399e-05 
-1.947641557456e-04 7.923084531915e-07 0.0 
7.923084531915e-07 1.304507022875e-03 0.0 
0.0 0.0 -1.939800207710e-04 
-1.960054809974e-04 2.031047324452e-06 0.0 
2.031047324452e-06 1.320447363547e-03 0.0 
0.0 0.0 -1.960961780200e-04 
-1.959837947468e-04 7.548015026684e-07 0.0 
7.548015026684e-07 1.316397764372e-03 0.0 
0.0 0.0 -1.957100175409e-04 
-1.949003992159e-04 1.873708810936e-06 0.0 
1.873708810936e-06 1.312448359133e-03 0.0 
0.0 0.0 -1.946892349944e-04 
-1.963394652884e-04 -2.461762416477e-06 0.0 
-2.461762416477e-06 1.317843150582e-03 0.0 
0.0 0.0 -1.958367853254e-04 
-9.399904561967e-06 3.751811683982e-07 0.0 
3.751811683982e-07 4.607602797327e-05 0.0 
0.0 0.0 -8.777929302786e-06 
-1.121136777944e-04 2.136242843992e-06 0.0 
2.136242843992e-06 7.375316866664e-04 0.0 
0.0 0.0 -1.125147119063e-04 
-1.945054015985e-04 1.526423234173e-06 0.0 
1.526423234173e-06 1.305744790732e-03 0.0 
0.0 0.0 -1.939771297832e-04 
-1.693349048774e-04 -4.546658260319e-06 0.0 
-4.546658260319e-06 1.130612016236e-03 0.0 
0.0 0.0 -1.685397735077e-04 
-8.598075030748e-06 -2.223307893963e-06 0.0 
-2.223307893963e-06 4.388775337437e-05 0.0 
0.0 0.0 -8.698177642707e-06 
-8.871376934976e-05 -9.707224206822e-07 0.0 
-9.707224206822e-07 5.731446297532e-04 0.0 
0.0 0.0 -8.906156601093e-05 
-1.979802513817e-04 -1.566370620822e-06 0.0 
-1.566370620822e-06 1.328935425363e-03 0.0 
0.0 0.0 -1.967971955909e-04 
-6.059110968862e-05 -2.270349058910e-06 0.0 
-2.270349058910e-06 3.638632698663e-04 0.0 
0.0 0.0 -5.846208800394e-05 
-3.934380255029e-05 1.116524761702e-06 0.0 
1.116524761702e-06 2.201048627676e-04 0.0 
0.0 0.0 -3.823193484201e-05 
-7.905584954535e-05 -1.125239316858e-06 0.0 
-1.125239316858e-06 4.942495490073e-04 0.0 
0.0 0.0 -7.767853477808e-05 
-9.853492259670e-05 -1.059175576559e-06 0.0 
-1.059175576559e-06 6.356901872357e-04 0.0 
0.0 0.0 -9.791554816786e-05 
-1.758731503853e-05 -2.183232337716e-06 0.0 
-2.183232337716e-06 7.214564488676e-05 0.0 
0.0 0.0 -1.677835640721e-05 
-1.304400768820e-04 -1.226623402604e-06 0.0 
-1.226623402604e-06 8.588836031036e-04 0.0 
0.0 0.0 -1.302718197671e-04 
-1.976961881145e-04 -1.904942962871e-06 0.0 
-1.904942962871e-06 1.329827350337e-03 0.0 
0.0 0.0 -1.970859964037e-04 
-7.778984465367e-06 4.389754775789e-06 0.0 
4.389754775789e-06 4.119927433976e-05 0.0 
0.0 0.0 -8.754673005183e-06 
-1.866018908338e-04 -2.006069315689e-08 0.0 
-2.006069315689e-08 1.262553750678e-03 0.0 
0.0 0.0 -1.880896313740e-04 
-1.123534650814e-04 1.611587689509e-06 0.0 
1.611587689509e-06 7.392560460262e-04 0.0 
0.0 0.0 -1.129840772622e-04 
-1.171047806051e-04 7.449209117803e-07 0.0 
7.449209117803e-07 7.664746806855e-04 0.0 
0.0 0.0 -1.171402528589e-04 
-1.209300272193e-04 3.259751506580e-06 0.0 
3.259751506580e-06 8.015413982557e-04 0.0 
0.0 0.0 -1.217336839916e-04 
-1.273390226549e-04 -1.216641127310e-06 0.0 
-1.216641127310e-06 8.349727543367e-04 0.0 
0.0 0.0 -1.264258636278e-04 
-1.320700965903e-04 1.876866623278e-08 0.0 
1.876866623278e-08 8.692918616205e-04 0.0 
0.0 0.0 -1.317698771115e-04 
-1.368244106801e-04 -1.114619508482e-06 0.0 
-1.114619508482e-06 9.001255364591e-04 0.0 
0.0 0.0 -1.359061374524e-04 
-1.313516644010e-04 -1.071478350727e-06 0.0 
-1.071478350727e-06 8.642075030487e-04 0.0 
0.0 0.0 -1.306688636612e-04 
-1.406252513590e-04 -1.352739222539e-06 0.0 
-1.352739222539e-06 9.300768557182e-04 0.0 
0.0 0.0 -1.401216342492e-04 
-1.355168506451e-04 -8.441429406155e-07 0.0 
-8.441429406155e-07 8.933027720166e-04 0.0 
0.0 0.0 -1.348466119664e-04 
-1.406309551036e-04 -1.423065028084e-06 0.0 
-1.423065028084e-06 9.373189590449e-04 0.0 
0.0 0.0 -1.412262538548e-04 
-1.447717080924e-04 -1.617847745048e-06 0.0 
-1.617847745048e-06 9.594996109507e-04 0.0 
0.0 0.0 -1.443446404888e-04 
-1.395639979808e-04 -9.495865010562e-07 0.0 
-9.495865010562e-07 9.223387170950e-04 0.0 
0.0 0.0 -1.390295894150e-04 
-1.488518955481e-04 -1.324901186338e-06 0.0 
-1.324901186338e-06 9.887094425207e-04 0.0 
0.0 0.0 -1.485505823874e-04 
-1.436922961000e-04 -1.046451979584e-06 0.0 
-1.046451979584e-06 9.515310653716e-04 0.0 
0.0 0.0 -1.432156325536e-04 
-1.343600788387e-04 -5.167793523512e-07 0.0 
-5.167793523512e-07 8.856735470671e-04 0.0 
0.0 0.0 -1.337521069633e-04 
-1.385105152453e-04 -4.710394907329e-07 0.0 
-4.710394907329e-07 9.146329712672e-04 0.0 
0.0 0.0 -1.379179829106e-04 
-1.289648752830e-04 -8.618976580072e-08 0.0 
-8.618976580072e-08 8.489207055611e-04 0.0 
0.0 0.0 -1.284753219673e-04 
-1.331501462654e-04 -2.281806353291e-07 0.0 
-2.281806353291e-07 8.778469958775e-04 0.0 
0.0 0.0 -1.326245976321e-04 
-1.426230691977e-04 -3.445547381833e-07 0.0 
-3.445547381833e-07 9.438219498313e-04 0.0 
0.0 0.0 -1.420797641308e-04 
-1.372349024752e-04 -4.912623478835e-07 0.0 
-4.912623478835e-07 9.068017641173e-04 0.0 
0.0 0.0 -1.367729294110e-04 
-1.278087679959e-04 -1.828532417460e-07 0.0 
-1.828532417460e-07 8.408634527744e-04 0.0 
0.0 0.0 -1.273259478075e-04 
-1.318398283045e-04 -3.075890479271e-07 0.0 
-3.075890479271e-07 8.695930318134e-04 0.0 
0.0 0.0 -1.314613401273e-04 
-1.224174681950e-04 5.152664304941e-08 0.0 
5.152664304941e-08 8.039186497448e-04 0.0 
0.0 0.0 -1.220343484428e-04 
-1.264174440320e-04 -1.610988413992e-07 0.0 
-1.610988413992e-07 8.325618017429e-04 0.0 
0.0 0.0 -1.261611736566e-04 
-1.170510544419e-04 2.223926002175e-08 0.0 
2.223926002175e-08 7.668217430428e-04 0.0 
0.0 0.0 -1.167242641243e-04 
-1.210374224200e-04 -1.474818318747e-07 0.0 
-1.474818318747e-07 7.955505097843e-04 0.0 
0.0 0.0 -1.208544874677e-04 
-1.304043414113e-04 -3.154242512105e-07 0.0 
-3.154242512105e-07 8.613589922912e-04 0.0 
0.0 0.0 -1.303042425932e-04 
-1.250914766715e-04 -9.789090931160e-08 0.0 
-9.789090931160e-08 8.242842117775e-04 0.0 
0.0 0.0 -1.249864172613e-04 
-1.156698454984e-04 4.104440089507e-08 0.0 
4.104440089507e-08 7.584999711117e-04 0.0 
0.0 0.0 -1.155496960434e-04 
-1.197696986214e-04 6.686600869341e-08 0.0 
6.686600869341e-08 7.872430335080e-04 0.0 
0.0 0.0 -1.196691756306e-04 
-1.103345672185e-04 1.936070379506e-07 0.0 
1.936070379506e-07 7.215726378401e-04 0.0 
0.0 0.0 -1.102360968649e-04 
-1.143831646187e-04 2.841694026705e-07 0.0 
2.841694026705e-07 7.499983246613e-04 0.0 
0.0 0.0 -1.143358844566e-04 
-1.238585560106e-04 1.680319022195e-07 0.0 
1.680319022195e-07 8.159376449007e-04 0.0 
0.0 0.0 -1.237972835831e-04 
-1.185140209161e-04 8.396902968215e-08 0.0 
8.396902968215e-08 7.787352394438e-04 0.0 
0.0 0.0 -1.184549252722e-04 
-1.089992092054e-04 6.281890232424e-08 0.0 
6.281890232424e-08 7.122982226840e-04 0.0 
0.0 0.0 -1.089619939006e-04 
-1.132389115670e-04 -1.057915283395e-07 0.0 
-1.057915283395e-07 7.414300503039e-04 0.0 
0.0 0.0 -1.130977248571e-04 
-1.037240861722e-04 -4.723566763671e-07 0.0 
-4.723566763671e-07 6.746986895894e-04 0.0 
0.0 0.0 -1.035578799258e-04 
-1.079391861501e-04 -9.525050174364e-10 0.0 
-9.525050174364e-10 7.042191649168e-04 0.0 
0.0 0.0 -1.077352770641e-04 
-9.832371136087e-05 -3.508088035027e-07 0.0 
-3.508088035027e-07 6.371418654706e-04 0.0 
0.0 0.0 -9.813603890825e-05 
-1.025291601956e-04 7.520025507393e-08 0.0 
7.520025507393e-08 6.664875104737e-04 0.0 
0.0 0.0 -1.023264466889e-04 
-1.121330899491e-04 -3.201268622929e-08 0.0 
-3.201268622929e-08 7.333893815298e-04 0.0 
0.0 0.0 -1.119135318789e-04 
-1.067345759512e-04 -1.457462253013e-07 0.0 
-1.457462253013e-07 6.958135066491e-04 0.0 
0.0 0.0 -1.065124872911e-04 
-9.708388481881e-05 -1.123756317370e-07 0.0 
-1.123756317370e-07 6.287043899204e-04 0.0 
0.0 0.0 -9.687936111797e-05 
-1.012280793484e-04 -2.016817593289e-07 0.0 
-2.016817593289e-07 6.578039102236e-04 0.0 
0.0 0.0 -1.010667964543e-04 
-1.108655634829e-04 -2.805142089434e-07 0.0 
-2.805142089434e-07 7.250705567917e-04 0.0 
0.0 0.0 -1.107220969010e-04 
-1.053738009019e-04 -2.657681640372e-07 0.0 
-2.657681640372e-07 6.869604308345e-04 0.0 
0.0 0.0 -1.052625016289e-04 
-1.150267739913e-04 -3.300558054111e-07 0.0 
-3.300558054111e-07 7.543777337130e-04 0.0 
0.0 0.0 -1.149374102432e-04 
-1.095605670490e-04 -1.992187362341e-07 0.0 
-1.992187362341e-07 7.162738244309e-04 0.0 
0.0 0.0 -1.094674241824e-04 
-9.992608341546e-05 -2.285291460902e-07 0.0 
-2.285291460902e-07 6.491377746979e-04 0.0 
0.0 0.0 -9.983047339662e-05 
-1.041038271013e-04 -4.784792107373e-08 0.0 
-4.784792107373e-08 6.783667909797e-04 0.0 
0.0 0.0 -1.040110107548e-04 
-1.137411101647e-04 -1.005325563354e-07 0.0 
-1.005325563354e-07 7.455825181624e-04 0.0 
0.0 0.0 -1.136680319875e-04 
-1.082869868131e-04 -5.329032704078e-08 0.0 
-5.329032704078e-08 7.073386927023e-04 0.0 
0.0 0.0 -1.081830392180e-04 
-9.869624350956e-05 -1.279251488153e-07 0.0 
-1.279251488153e-07 6.404070926404e-04 0.0 
0.0 0.0 -9.856705257735e-05 
-1.028159541346e-04 2.106799420310e-07 0.0 
2.106799420310e-07 6.694648529012e-04 0.0 
0.0 0.0 -1.027256921484e-04 
-1.124881435347e-04 1.468300417499e-07 0.0 
1.468300417499e-07 7.366254737130e-04 0.0 
0.0 0.0 -1.123746868942e-04 
-1.069630032943e-04 3.797193907441e-07 0.0 
3.797193907441e-07 6.984570345631e-04 0.0 
0.0 0.0 -1.069064678657e-04 
-9.735694714147e-05 3.040392105123e-07 0.0 
3.040392105123e-07 6.314702925721e-04 0.0 
0.0 0.0 -9.729074097479e-05 
-1.014698791265e-04 5.263077294053e-07 0.0 
5.263077294053e-07 6.606218601415e-04 0.0 
0.0 0.0 -1.014450936127e-04 
-1.111588134786e-04 4.465606502622e-07 0.0 
4.465606502622e-07 7.280983055299e-04 0.0 
0.0 0.0 -1.111412434799e-04 
-1.056103560307e-04 3.527345838497e-07 0.0 
3.527345838497e-07 6.896411777924e-04 0.0 
0.0 0.0 -1.056341277852e-04 
-9.592602067126e-05 5.327638544790e-07 0.0 
5.327638544790e-07 6.223325700671e-04 0.0 
0.0 0.0 -9.597584338962e-05 
-1.000042351432e-04 6.050193751295e-07 0.0 
6.050193751295e-07 6.512858928885e-04 0.0 
0.0 0.0 -1.001195007473e-04 
-1.097885953069e-04 3.509867728239e-07 0.0 
3.509867728239e-07 7.191866513993e-04 0.0 
0.0 0.0 -1.098732949993e-04 
-1.041219874635e-04 4.565113330363e-07 0.0 
4.565113330363e-07 6.802416856987e-04 0.0 
0.0 0.0 -1.043104098158e-04 
-1.139943776011e-04 2.608804957771e-07 0.0 
2.608804957771e-07 7.487261930972e-04 0.0 
0.0 0.0 -1.141349681178e-04 
-9.432131286435e-05 6.931090399305e-07 0.0 
6.931090399305e-07 6.120807620329e-04 0.0 
0.0 0.0 -9.453138577379e-05 
-9.843300825502e-05 3.791394769862e-07 0.0 
3.791394769862e-07 6.410640369442e-04 0.0 
0.0 0.0 -9.871483819285e-05 
-8.857532524913e-05 7.670792375352e-07 0.0 
7.670792375352e-07 5.725816228305e-04 0.0 
0.0 0.0 -8.888275660121e-05 
-9.270105845016e-05 2.622529703410e-07 0.0 
2.622529703410e-07 6.018362902946e-04 0.0 
0.0 0.0 -9.310666704106e-05 
-1.280450341640e-04 2.022914446801e-07 0.0 
2.022914446801e-07 8.448927114390e-04 0.0 
0.0 0.0 -1.279397651938e-04 
-8.276712932225e-05 6.443736138370e-07 0.0 
6.443736138370e-07 5.330826812988e-04 0.0 
0.0 0.0 -8.324826898147e-05 
-7.884768894366e-05 1.023704289178e-06 0.0 
1.023704289178e-06 5.047676539199e-04 0.0 
0.0 0.0 -7.914375511354e-05 
-8.697616798037e-05 -7.331328903651e-10 0.0 
-7.331328903651e-10 5.626687258914e-04 0.0 
0.0 0.0 -8.749891481922e-05 
-9.702972984445e-05 -9.951343649239e-08 0.0 
-9.951343649239e-08 6.318920870484e-04 0.0 
0.0 0.0 -9.740424872913e-05 
-7.706547232469e-05 2.380236829533e-07 0.0 
2.380236829533e-07 4.936160224660e-04 0.0 
0.0 0.0 -7.760805980730e-05 
-8.127460870577e-05 -1.704001729844e-07 0.0 
-1.704001729844e-07 5.235024448564e-04 0.0 
0.0 0.0 -8.188641417383e-05 
-7.155045226520e-05 3.113369261567e-07 0.0 
3.113369261567e-07 4.544691373911e-04 0.0 
0.0 0.0 -7.197242596511e-05 
-9.398834813403e-05 -4.649841708635e-07 0.0 
-4.649841708635e-07 6.067163141264e-04 0.0 
0.0 0.0 -9.378238744040e-05 
-1.466888889075e-04 -6.905876409825e-07 0.0 
-6.905876409825e-07 9.729931165237e-04 0.0 
0.0 0.0 -1.462607504514e-04 
-7.572467440231e-05 1.210487184868e-07 0.0 
1.210487184868e-07 4.846162633768e-04 0.0 
0.0 0.0 -7.626743364961e-05 
-6.621416197033e-05 -1.397216265960e-07 0.0 
-1.397216265960e-07 4.154095652474e-04 0.0 
0.0 0.0 -6.634679566782e-05 
-6.190172954625e-05 4.165851450949e-07 0.0 
4.165851450949e-07 3.853087909955e-04 0.0 
0.0 0.0 -6.205237226325e-05 
-5.628575454228e-05 3.940532300383e-08 0.0 
3.940532300383e-08 3.460724695174e-04 0.0 
0.0 0.0 -5.642855255362e-05 
-1.354938510920e-04 -2.913953566673e-06 0.0 
-2.913953566673e-06 9.082152710087e-04 0.0 
0.0 0.0 -1.368953805519e-04 
-1.462552660591e-04 1.249747586106e-07 0.0 
1.249747586106e-07 9.752174249571e-04 0.0 
0.0 0.0 -1.465891790687e-04 
-1.414040401139e-04 -1.271486640511e-06 0.0 
-1.271486640511e-06 9.428451641582e-04 0.0 
0.0 0.0 -1.420291944686e-04 
-1.520026480131e-04 -3.631190555520e-07 0.0 
-3.631190555520e-07 1.012864624851e-03 0.0 
0.0 0.0 -1.519432683735e-04 
-1.472985787471e-04 -1.382728633740e-06 0.0 
-1.382728633740e-06 9.819853291120e-04 0.0 
0.0 0.0 -1.475277143832e-04 
-6.049783873772e-05 -1.110839167728e-06 0.0 
-1.110839167728e-06 3.760535738177e-04 0.0 
0.0 0.0 -6.071687451653e-05 
-1.539446624240e-04 -1.181077219234e-06 0.0 
-1.181077219234e-06 1.026370553893e-03 0.0 
0.0 0.0 -1.540030753513e-04 
-1.562964739112e-04 4.946292658219e-07 0.0 
4.946292658219e-07 1.043020722120e-03 0.0 
0.0 0.0 -1.563396320792e-04 
-1.184118913967e-04 1.857139776565e-07 0.0 
1.857139776565e-07 7.754976810309e-04 0.0 
0.0 0.0 -1.179280690692e-04 
-1.062500152817e-04 1.741187945378e-07 0.0 
1.741187945378e-07 6.928514360504e-04 0.0 
0.0 0.0 -1.061413340584e-04 
-1.205167248159e-04 -5.462407212351e-07 0.0 
-5.462407212351e-07 7.925156879070e-04 0.0 
0.0 0.0 -1.204127835607e-04 
-8.548976471001e-05 -7.615656520967e-07 0.0 
-7.615656520967e-07 5.535587085213e-04 0.0 
0.0 0.0 -8.618857558133e-05 
-7.988885271144e-05 1.897397534693e-07 0.0 
1.897397534693e-07 5.152050676733e-04 0.0 
0.0 0.0 -8.057008281249e-05 
-9.032121231226e-05 -1.684930927318e-06 0.0 
-1.684930927318e-06 5.843848000393e-04 0.0 
0.0 0.0 -9.050178936823e-05 
-1.196337930892e-04 1.102008659663e-07 0.0 
1.102008659663e-07 7.876256328336e-04 0.0 
0.0 0.0 -1.197064290626e-04 
-1.239088484819e-04 1.270562820447e-07 0.0 
1.270562820447e-07 8.174720289214e-04 0.0 
0.0 0.0 -1.239919845821e-04 
-1.295076006245e-04 6.163016450201e-08 0.0 
6.163016450201e-08 8.563536897128e-04 0.0 
0.0 0.0 -1.295728275001e-04 
-1.338245653935e-04 6.187832994800e-08 0.0 
6.187832994800e-08 8.862996102706e-04 0.0 
0.0 0.0 -1.338680086136e-04 
-1.393975761356e-04 4.550308926582e-08 0.0 
4.550308926582e-08 9.252125319019e-04 0.0 
0.0 0.0 -1.394574676997e-04 
-1.437406368722e-04 1.277074154763e-07 0.0 
1.277074154763e-07 9.552601406530e-04 0.0 
0.0 0.0 -1.437562178924e-04 
-1.381365115215e-04 -6.384328167054e-08 0.0 
-6.384328167054e-08 9.162527365186e-04 0.0 
0.0 0.0 -1.381609243235e-04 
-1.481035666194e-04 -1.079358485104e-07 0.0 
-1.079358485104e-07 9.853010756590e-04 0.0 
0.0 0.0 -1.480541560501e-04 
-1.424433669279e-04 -2.461913392848e-07 0.0 
-2.461913392848e-07 9.462005835288e-04 0.0 
0.0 0.0 -1.424551100593e-04 
-1.492800736972e-04 1.903860536893e-07 0.0 
1.903860536893e-07 9.941570401524e-04 0.0 
0.0 0.0 -1.493525342080e-04 
-1.449751840430e-04 -1.306362921352e-07 0.0 
-1.306362921352e-07 9.640748764024e-04 0.0 
0.0 0.0 -1.450229800689e-04 
-1.523999948246e-04 -3.989684281703e-07 0.0 
-3.989684281703e-07 1.015224728092e-03 0.0 
0.0 0.0 -1.523522284989e-04 
-1.467103464147e-04 -2.659540217928e-07 0.0 
-2.659540217928e-07 9.761558421408e-04 0.0 
0.0 0.0 -1.467489045856e-04 
-1.565625592364e-04 -4.158419287494e-07 0.0 
-4.158419287494e-07 1.045129081510e-03 0.0 
0.0 0.0 -1.566543602455e-04 
-1.508966779748e-04 -3.393169835015e-07 0.0 
-3.393169835015e-07 1.005998704446e-03 0.0 
0.0 0.0 -1.510511651883e-04 
-1.410712457468e-04 -1.790301414096e-07 0.0 
-1.790301414096e-07 9.369358529960e-04 0.0 
0.0 0.0 -1.411301529270e-04 
-1.452736367783e-04 -1.279390741404e-07 0.0 
-1.279390741404e-07 9.667244667063e-04 0.0 
0.0 0.0 -1.454254449112e-04 
-1.355658465602e-04 -3.525019047488e-07 0.0 
-3.525019047488e-07 8.980272974833e-04 0.0 
0.0 0.0 -1.355350811980e-04 
-1.247169685603e-04 -5.424891476077e-07 0.0 
-5.424891476077e-07 8.219820472476e-04 0.0 
0.0 0.0 -1.246443719175e-04 
-1.302412994967e-04 -6.709375140069e-07 0.0 
-6.709375140069e-07 8.602885817839e-04 0.0 
0.0 0.0 -1.301366355066e-04 
-1.344319823677e-04 -5.992072868323e-07 0.0 
-5.992072868323e-07 8.897694935505e-04 0.0 
0.0 0.0 -1.343775141111e-04 
-1.400237331498e-04 -7.656893218291e-07 0.0 
-7.656893218291e-07 9.282252120942e-04 0.0 
0.0 0.0 -1.398832378697e-04 
-1.441786028548e-04 -7.248633173167e-07 0.0 
-7.248633173167e-07 9.577423680475e-04 0.0 
0.0 0.0 -1.441376510238e-04 
-1.498975004286e-04 -8.881523903677e-07 0.0 
-8.881523903677e-07 9.963296213112e-04 0.0 
0.0 0.0 -1.496454511588e-04 
-1.540303661717e-04 -7.919312302376e-07 0.0 
-7.919312302376e-07 1.025660690864e-03 0.0 
0.0 0.0 -1.539048756661e-04 
-1.483333586792e-04 -5.305309886562e-07 0.0 
-5.305309886562e-07 9.873032168340e-04 0.0 
0.0 0.0 -1.483914164041e-04 
-1.531422374596e-04 -8.663739869802e-07 0.0 
-8.663739869802e-07 1.017764678093e-03 0.0 
0.0 0.0 -1.527153750466e-04 
-9.159847415972e-05 -1.256689801576e-07 0.0 
-1.256689801576e-07 5.906791861929e-04 0.0 
0.0 0.0 -9.143391812226e-05 
-8.744560526880e-05 -1.314299425383e-07 0.0 
-1.314299425383e-07 5.615762013321e-04 0.0 
0.0 0.0 -8.725348065585e-05 
-8.202336977827e-05 5.298561278528e-08 0.0 
5.298561278528e-08 5.236724682599e-04 0.0 
0.0 0.0 -8.181782897632e-05 
-7.787136643021e-05 -4.089849052193e-08 0.0 
-4.089849052193e-08 4.946511796611e-04 0.0 
0.0 0.0 -7.764583100160e-05 
-7.249839660415e-05 3.138088007650e-07 0.0 
3.138088007650e-07 4.567503960433e-04 0.0 
0.0 0.0 -7.221245969917e-05 
-6.836637044469e-05 1.575150055605e-07 0.0 
1.575150055605e-07 4.279278736544e-04 0.0 
0.0 0.0 -6.805748655366e-05 
-6.305635467696e-05 5.617632190064e-07 0.0 
5.617632190064e-07 3.898265041818e-04 0.0 
0.0 0.0 -6.258396351101e-05 
-6.700103591366e-05 8.220641914788e-07 0.0 
8.220641914788e-07 4.186472656110e-04 0.0 
0.0 0.0 -6.675491739715e-05 
-5.754489831194e-05 1.185749684510e-06 0.0 
1.185749684510e-06 3.514253860379e-04 0.0 
0.0 0.0 -5.707878267586e-05 
-6.126290636031e-05 1.086382821669e-06 0.0 
1.086382821669e-06 3.802508716618e-04 0.0 
0.0 0.0 -6.128043668686e-05 
-5.191997638371e-05 1.314501197429e-06 0.0 
1.314501197429e-06 3.126420855080e-04 0.0 
0.0 0.0 -5.156902369321e-05 
-5.548063518944e-05 1.243851983737e-06 0.0 
1.243851983737e-06 3.415672031581e-04 0.0 
0.0 0.0 -5.575645035334e-05 
-1.344754893882e-04 -2.441387490923e-07 0.0 
-2.441387490923e-07 8.901905827652e-04 0.0 
0.0 0.0 -1.344534760290e-04 
-1.456336275119e-04 -7.568221187931e-07 0.0 
-7.568221187931e-07 9.666800779835e-04 0.0 
0.0 0.0 -1.453735332694e-04 
-1.555049783814e-04 -4.155015620933e-07 0.0 
-4.155015620933e-07 1.035032948266e-03 0.0 
0.0 0.0 -1.551468130506e-04 
-1.509958831296e-04 -4.550450407200e-07 0.0 
-4.550450407200e-07 1.004729653599e-03 0.0 
0.0 0.0 -1.507981208515e-04 
-5.237773532105e-05 7.911299625011e-08 0.0 
7.911299625011e-08 3.162172589784e-04 0.0 
0.0 0.0 -5.213283032136e-05 
-1.549595763032e-04 -3.953475088671e-07 0.0 
-3.953475088671e-07 1.035774981690e-03 0.0 
0.0 0.0 -1.553660438793e-04 
-1.548355158551e-04 -2.147058021658e-07 0.0 
-2.147058021658e-07 1.033072477775e-03 0.0 
0.0 0.0 -1.549384463224e-04 
-1.505618374828e-04 -5.346193515463e-07 0.0 
-5.346193515463e-07 1.002549198399e-03 0.0 
0.0 0.0 -1.505609887339e-04 
-1.581943545466e-04 -1.140192146814e-07 0.0 
-1.140192146814e-07 1.055484497313e-03 0.0 
0.0 0.0 -1.581898251365e-04 
-5.074202381651e-05 -4.469562897143e-07 0.0 
-4.469562897143e-07 3.073591846823e-04 0.0 
0.0 0.0 -5.088881735611e-05 
-5.888894202551e-05 -5.741143861358e-08 0.0 
-5.741143861358e-08 3.614604751917e-04 0.0 
0.0 0.0 -5.849107602244e-05 
-6.412075790079e-05 -1.262278375695e-08 0.0 
-1.262278375695e-08 3.988248925712e-04 0.0 
0.0 0.0 -6.391656864161e-05 
-1.574092422667e-04 -9.339425827558e-07 0.0 
-9.339425827558e-07 1.050297343269e-03 0.0 
0.0 0.0 -1.573311895261e-04 
-1.526877283991e-04 -1.284456620320e-06 0.0 
-1.284456620320e-06 1.019137079127e-03 0.0 
0.0 0.0 -1.529187321887e-04 
-1.603825137223e-04 -5.841749785693e-07 0.0 
-5.841749785693e-07 1.071965760526e-03 0.0 
0.0 0.0 -1.605236522104e-04 
-5.469413786455e-05 -7.281622474744e-07 0.0 
-7.281622474744e-07 3.375315586186e-04 0.0 
0.0 0.0 -5.513621196740e-05 
-1.581536908889e-04 -3.654449846177e-07 0.0 
-3.654449846177e-07 1.054473463793e-03 0.0 
0.0 0.0 -1.579496168166e-04 
-4.796468630861e-05 1.896906112626e-06 0.0 
1.896906112626e-06 2.843046372018e-04 0.0 
0.0 0.0 -4.740762976608e-05 
-1.492957563781e-04 2.220942752480e-07 0.0 
2.220942752480e-07 9.964627124321e-04 0.0 
0.0 0.0 -1.497345920687e-04 
-1.590878470858e-04 -2.496159838047e-07 0.0 
-2.496159838047e-07 1.065574434498e-03 0.0 
0.0 0.0 -1.596751832792e-04 
-1.325072402165e-04 -1.969088110070e-07 0.0 
-1.969088110070e-07 8.772948073459e-04 0.0 
0.0 0.0 -1.325798954328e-04 
-1.608189791387e-04 2.014272611918e-07 0.0 
2.014272611918e-07 1.073406976442e-03 0.0 
0.0 0.0 -1.606363799130e-04 
-1.561309716741e-04 -2.339592577672e-07 0.0 
-2.339592577672e-07 1.041858527671e-03 0.0 
0.0 0.0 -1.562164154417e-04 
-6.542148837339e-05 5.946748364299e-07 0.0 
5.946748364299e-07 4.098578497775e-04 0.0 
0.0 0.0 -6.552037126556e-05 
-6.021736437679e-05 -6.684208511404e-07 0.0 
-6.684208511404e-07 3.714517723808e-04 0.0 
0.0 0.0 -6.000043125475e-05 
-5.068915045621e-05 -1.408380561498e-07 0.0 
-1.408380561498e-07 3.045038040978e-04 0.0 
0.0 0.0 -5.043265711026e-05 
-5.453954142818e-05 2.060651504186e-07 0.0 
2.060651504186e-07 3.366924109337e-04 0.0 
0.0 0.0 -5.469261876575e-05 
-6.451407366441e-05 2.351316534634e-07 0.0 
2.351316534634e-07 4.022325511173e-04 0.0 
0.0 0.0 -6.426716227193e-05 
-5.833627625562e-05 1.475332914289e-06 0.0 
1.475332914289e-06 3.627446873596e-04 0.0 
0.0 0.0 -5.871258337438e-05 
-4.807156131251e-05 2.860984901678e-06 0.0 
2.860984901678e-06 2.943856579529e-04 0.0 
0.0 0.0 -4.913324142619e-05 
-5.254361987426e-05 1.123300701462e-06 0.0 
1.123300701462e-06 3.235079135303e-04 0.0 
0.0 0.0 -5.312780584397e-05 
-6.250659233249e-05 1.032214388617e-06 0.0 
1.032214388617e-06 3.916354902735e-04 0.0 
0.0 0.0 -6.289080004402e-05 
-5.683371271564e-05 6.514617663209e-07 0.0 
6.514617663209e-07 3.524304224725e-04 0.0 
0.0 0.0 -5.728364188530e-05 
-4.626688611708e-05 9.433782266074e-08 0.0 
9.433782266074e-08 2.835389789337e-04 0.0 
0.0 0.0 -4.745589417336e-05 
-5.129426302525e-05 -1.503356296708e-07 0.0 
-1.503356296708e-07 3.125902668457e-04 0.0 
0.0 0.0 -5.163203607156e-05 
-1.648607225605e-04 -6.089305084908e-07 0.0 
-6.089305084908e-07 1.104792906558e-03 0.0 
0.0 0.0 -1.652812738464e-04 
-4.167405797836e-05 8.410179837610e-07 0.0 
8.410179837610e-07 2.451219688669e-04 0.0 
0.0 0.0 -4.186284350154e-05 
-1.249684890118e-04 -2.205649056544e-07 0.0 
-2.205649056544e-07 8.202073805391e-04 0.0 
0.0 0.0 -1.243305906297e-04 
-1.646630308387e-04 -1.022913161014e-08 0.0 
-1.022913161014e-08 1.101899429601e-03 0.0 
0.0 0.0 -1.648518411109e-04 
-1.639675080930e-04 -1.299974009233e-07 0.0 
-1.299974009233e-07 1.093025674446e-03 0.0 
0.0 0.0 -1.635990625314e-04 
-1.626548351363e-04 -9.421237167933e-07 0.0 
-9.421237167933e-07 1.087804894673e-03 0.0 
0.0 0.0 -1.627548864773e-04 
-1.581986558715e-04 -9.653447949462e-07 0.0 
-9.653447949462e-07 1.056782727253e-03 0.0 
0.0 0.0 -1.583405447554e-04 
-1.481377693349e-04 -2.120708352151e-07 0.0 
-2.120708352151e-07 9.876266265678e-04 0.0 
0.0 0.0 -1.484606848305e-04 
-1.540154319252e-04 -3.355995825506e-07 0.0 
-3.355995825506e-07 1.026130043866e-03 0.0 
0.0 0.0 -1.539002516356e-04 
-1.639459642661e-04 -1.118185498440e-06 0.0 
-1.118185498440e-06 1.095163385158e-03 0.0 
0.0 0.0 -1.637913674505e-04 
-1.597127986535e-04 -5.251908400988e-07 0.0 
-5.251908400988e-07 1.064343135399e-03 0.0 
0.0 0.0 -1.593514347843e-04 
-1.498284746973e-04 -2.503307102559e-07 0.0 
-2.503307102559e-07 9.952508194671e-04 0.0 
0.0 0.0 -1.494394109873e-04 
-1.551654717719e-04 -2.221504212273e-07 0.0 
-2.221504212273e-07 1.032948984562e-03 0.0 
0.0 0.0 -1.548970433853e-04 
-1.450485534152e-04 -2.383136960808e-07 0.0 
-2.383136960808e-07 9.636019756158e-04 0.0 
0.0 0.0 -1.449683599891e-04 
-1.505550421048e-04 1.094892235923e-07 0.0 
1.094892235923e-07 1.001407844642e-03 0.0 
0.0 0.0 -1.504333548381e-04 
-1.604309941691e-04 -2.109459501862e-07 0.0 
-2.109459501862e-07 1.070618892500e-03 0.0 
0.0 0.0 -1.603701620288e-04 
-1.560376916017e-04 -3.456752304365e-07 0.0 
-3.456752304365e-07 1.039490983705e-03 0.0 
0.0 0.0 -1.559081117414e-04 
-1.463603444154e-04 5.238436514868e-07 0.0 
5.238436514868e-07 9.703937077682e-04 0.0 
0.0 0.0 -1.459586303199e-04 
-1.516966554836e-04 -5.880015514228e-07 0.0 
-5.880015514228e-07 1.008208762980e-03 0.0 
0.0 0.0 -1.514361790689e-04 
-1.421096498293e-04 1.604631745138e-07 0.0 
1.604631745138e-07 9.389173202103e-04 0.0 
0.0 0.0 -1.414740555389e-04 
-1.468086585315e-04 -1.361458900587e-06 0.0 
-1.361458900587e-06 9.758542090481e-04 0.0 
0.0 0.0 -1.469409179663e-04 
-1.568420766373e-04 -2.584461478695e-07 0.0 
-2.584461478695e-07 1.046197364230e-03 0.0 
0.0 0.0 -1.569152749070e-04 
-4.415663167365e-05 -1.039285152091e-07 0.0 
-1.039285152091e-07 2.708684229223e-04 0.0 
0.0 0.0 -4.553936700826e-05 
-1.526637656570e-04 1.250996266672e-07 0.0 
1.250996266672e-07 1.017041372094e-03 0.0 
0.0 0.0 -1.526598922342e-04 
-1.628543927015e-04 1.351270598111e-06 0.0 
1.351270598111e-06 1.085793726948e-03 0.0 
0.0 0.0 -1.625747755015e-04 
-8.563655870662e-05 -3.488146837263e-06 0.0 
-3.488146837263e-06 5.496252535939e-04 0.0 
0.0 0.0 -8.506982008416e-05 
-9.486581924080e-05 -3.814151178450e-06 0.0 
-3.814151178450e-06 6.119359456549e-04 0.0 
0.0 0.0 -9.488074031859e-05 
-1.005495603609e-04 3.086228134672e-07 0.0 
3.086228134672e-07 6.529918919365e-04 0.0 
0.0 0.0 -1.004348942539e-04 
-1.044776236545e-04 -3.577979789199e-07 0.0 
-3.577979789199e-07 6.841250152862e-04 0.0 
0.0 0.0 -1.048029480622e-04 
-1.519826796643e-04 -1.039717232479e-06 0.0 
-1.039717232479e-06 1.014113556129e-03 0.0 
0.0 0.0 -1.523216651845e-04 
-1.628631714461e-04 6.789175869979e-07 0.0 
6.789175869979e-07 1.084318911977e-03 0.0 
0.0 0.0 -1.624109035739e-04 
-5.449179525623e-05 -7.987416053236e-08 0.0 
-7.987416053236e-08 3.327114773236e-04 0.0 
0.0 0.0 -5.446356520677e-05 
-5.983794664642e-05 5.165551288586e-07 0.0 
5.165551288586e-07 3.698050392348e-04 0.0 
0.0 0.0 -5.981452797925e-05 
-1.671906361362e-04 -6.280906550939e-07 0.0 
-6.280906550939e-07 1.118589944564e-03 0.0 
0.0 0.0 -1.671574094483e-04 
-1.535741135101e-04 4.867165336146e-08 0.0 
4.867165336146e-08 1.026955907390e-03 0.0 
0.0 0.0 -1.540568046000e-04 
-1.438756782793e-04 7.792960236787e-07 0.0 
7.792960236787e-07 9.575022276215e-04 0.0 
0.0 0.0 -1.441490849774e-04 
-1.009130978815e-04 2.058688768753e-07 0.0 
2.058688768753e-07 6.559900048877e-04 0.0 
0.0 0.0 -1.008290295839e-04 
-9.685773395831e-05 4.264808855012e-07 0.0 
4.264808855012e-07 6.270397862493e-04 0.0 
0.0 0.0 -9.674459360631e-05 
-9.135164612507e-05 -1.903780837398e-07 0.0 
-1.903780837398e-07 5.899287429268e-04 0.0 
0.0 0.0 -9.139696625653e-05 
-8.725354889556e-05 6.962837147414e-07 0.0 
6.962837147414e-07 5.598510728809e-04 0.0 
0.0 0.0 -8.718447207042e-05 
-9.300425525152e-05 1.437996831779e-06 0.0 
1.437996831779e-06 5.988622257639e-04 0.0 
0.0 0.0 -9.260497328457e-05 
-8.151290837503e-05 -1.410580149273e-06 0.0 
-1.410580149273e-06 5.218003047074e-04 0.0 
0.0 0.0 -8.172223224803e-05 
-1.406089208823e-04 -2.402054608789e-07 0.0 
-2.402054608789e-07 9.332894798307e-04 0.0 
0.0 0.0 -1.405957691658e-04 
-1.658683700673e-04 -7.646942833602e-07 0.0 
-7.646942833602e-07 1.108741460833e-03 0.0 
0.0 0.0 -1.658562309426e-04 
-5.781518420954e-05 1.266454175936e-06 0.0 
1.266454175936e-06 3.557470476378e-04 0.0 
0.0 0.0 -5.779306812918e-05 
-4.802865254420e-05 7.137000022052e-07 0.0 
7.137000022052e-07 2.866754704248e-04 0.0 
0.0 0.0 -4.790438838533e-05 
-1.638603738935e-04 -1.751728736807e-07 0.0 
-1.751728736807e-07 1.096449059773e-03 0.0 
0.0 0.0 -1.639950272516e-04 
-1.428406885554e-04 -4.063061608448e-08 0.0 
-4.063061608448e-08 9.487085255522e-04 0.0 
0.0 0.0 -1.428423306355e-04 
-1.397754667912e-04 -5.337001690441e-07 0.0 
-5.337001690441e-07 9.273626177410e-04 0.0 
0.0 0.0 -1.397960314865e-04 
-1.438858799674e-04 -3.687014672475e-07 0.0 
-3.687014672475e-07 9.563861152014e-04 0.0 
0.0 0.0 -1.439752108775e-04 
-1.492610894434e-04 -6.859194927329e-07 0.0 
-6.859194927329e-07 9.938921068845e-04 0.0 
0.0 0.0 -1.493569516990e-04 
-1.533583656652e-04 -2.578988813186e-07 0.0 
-2.578988813186e-07 1.023001986965e-03 0.0 
0.0 0.0 -1.535627705943e-04 
-1.589055659580e-04 -8.108043834338e-07 0.0 
-8.108043834338e-07 1.060829964530e-03 0.0 
0.0 0.0 -1.589810023698e-04 
-1.631518145122e-04 -4.384743000289e-07 0.0 
-4.384743000289e-07 1.089769235200e-03 0.0 
0.0 0.0 -1.631781870057e-04 
-1.576954622164e-04 7.757103855090e-08 0.0 
7.757103855090e-08 1.052834468886e-03 0.0 
0.0 0.0 -1.577686755743e-04 
-1.655653749574e-04 1.153777774229e-06 0.0 
1.153777774229e-06 1.110734179248e-03 0.0 
0.0 0.0 -1.661194977352e-04 
-1.676568937117e-04 -5.380450323566e-07 0.0 
-5.380450323566e-07 1.120118409862e-03 0.0 
0.0 0.0 -1.673875415144e-04 
-1.408452494755e-04 1.226026312677e-06 0.0 
1.226026312677e-06 9.416014478326e-04 0.0 
0.0 0.0 -1.423072560050e-04 
-1.411610954119e-04 -1.667686956676e-07 0.0 
-1.667686956676e-07 9.361864568386e-04 0.0 
0.0 0.0 -1.409767306836e-04 
-6.685806001299e-05 8.336719987083e-07 0.0 
8.336719987083e-07 4.210903405702e-04 0.0 
0.0 0.0 -6.711978442003e-05 
-4.180859338127e-05 -2.391316367319e-06 0.0 
-2.391316367319e-06 2.386470707080e-04 0.0 
0.0 0.0 -4.128748474099e-05 
-4.202443748219e-05 2.082260459364e-08 0.0 
2.082260459364e-08 2.421619926750e-04 0.0 
0.0 0.0 -4.155413421678e-05 
-4.885629556399e-05 9.695166710736e-07 0.0 
9.695166710736e-07 2.973049205982e-04 0.0 
0.0 0.0 -4.949622909127e-05 
-5.886475257555e-05 5.012940386976e-07 0.0 
5.012940386976e-07 3.671165151901e-04 0.0 
0.0 0.0 -5.942331684616e-05 
-1.701524326179e-04 -2.478949267954e-07 0.0 
-2.478949267954e-07 1.141091287684e-03 0.0 
0.0 0.0 -1.704540905158e-04 
-1.688701131472e-04 -7.880779693720e-07 0.0 
-7.880779693720e-07 1.128148657559e-03 0.0 
0.0 0.0 -1.686097943865e-04 
-1.645187862567e-04 -7.830603816417e-07 0.0 
-7.830603816417e-07 1.098043410909e-03 0.0 
0.0 0.0 -1.643423135982e-04 
-8.335621055865e-05 3.090761482563e-06 0.0 
3.090761482563e-06 5.330757850641e-04 0.0 
0.0 0.0 -8.309698707208e-05 
-8.907622380058e-05 9.098765487224e-07 0.0 
9.098765487224e-07 5.710176681635e-04 0.0 
0.0 0.0 -8.857956952730e-05 
-1.698091735536e-04 4.492498910090e-07 0.0 
4.492498910090e-07 1.141399927452e-03 0.0 
0.0 0.0 -1.704417977873e-04 
-1.357890576857e-04 -2.245189513229e-07 0.0 
-2.245189513229e-07 9.134142540395e-04 0.0 
0.0 0.0 -1.376677267776e-04 
-1.395432965358e-04 -1.715851711574e-07 0.0 
-1.715851711574e-07 9.262509041073e-04 0.0 
0.0 0.0 -1.395319589165e-04 
-1.347947841220e-04 2.713370184276e-07 0.0 
2.713370184276e-07 8.938256624501e-04 0.0 
0.0 0.0 -1.350285088515e-04 
-3.672231146069e-05 -2.132510581459e-06 0.0 
-2.132510581459e-06 2.203530386721e-04 0.0 
0.0 0.0 -3.892831888128e-05 
-3.637712963261e-05 7.197511136289e-07 0.0 
7.197511136289e-07 2.141167117019e-04 0.0 
0.0 0.0 -3.788396651025e-05 
-1.694800178962e-04 -9.883703524795e-07 0.0 
-9.883703524795e-07 1.133513736801e-03 0.0 
0.0 0.0 -1.692545752333e-04 
-6.937545800042e-05 3.228980611411e-07 0.0 
3.228980611411e-07 4.358386743780e-04 0.0 
0.0 0.0 -6.923809046111e-05 
-6.522800914265e-05 4.802178938973e-07 0.0 
4.802178938973e-07 4.068593445534e-04 0.0 
0.0 0.0 -6.513959669466e-05 
-3.835293382449e-05 1.419780011636e-06 0.0 
1.419780011636e-06 2.169955699432e-04 0.0 
0.0 0.0 -3.762272808090e-05 
-3.184713987987e-05 3.230456577081e-07 0.0 
3.230456577081e-07 1.763378694127e-04 0.0 
0.0 0.0 -3.215802126946e-05 
-1.564097184147e-04 2.852905095697e-06 0.0 
2.852905095697e-06 1.049316422252e-03 0.0 
0.0 0.0 -1.577722324506e-04 
-1.666476506988e-04 2.040589658683e-06 0.0 
2.040589658683e-06 1.120282174027e-03 0.0 
0.0 0.0 -1.676789152757e-04 
-1.096907460405e-04 -3.286013999443e-07 0.0 
-3.286013999443e-07 7.221561234987e-04 0.0 
0.0 0.0 -1.103539394458e-04 
-1.146883842954e-04 -1.653249674978e-06 0.0 
-1.653249674978e-06 7.528293944776e-04 0.0 
0.0 0.0 -1.147244957885e-04 
-1.658368221067e-04 -7.296927506316e-07 0.0 
-7.296927506316e-07 1.111095675298e-03 0.0 
0.0 0.0 -1.661337593878e-04 
-4.600380394054e-05 -1.491158073068e-07 0.0 
-1.491158073068e-07 2.738216254214e-04 0.0 
0.0 0.0 -4.591192000902e-05 
-1.719378156417e-04 1.421041712674e-07 0.0 
1.421041712674e-07 1.154049105325e-03 0.0 
0.0 0.0 -1.723772497485e-04 
-1.472965570201e-04 4.727447796770e-07 0.0 
4.727447796770e-07 9.788476002172e-04 0.0 
0.0 0.0 -1.471186205066e-04 
-1.373907042142e-04 1.793164290013e-07 0.0 
1.793164290013e-07 9.102123959892e-04 0.0 
0.0 0.0 -1.372860605493e-04 
-9.767120859221e-05 2.136804418641e-06 0.0 
2.136804418641e-06 6.441362083975e-04 0.0 
0.0 0.0 -9.906935000530e-05 
-5.062215510686e-05 1.026665089058e-06 0.0 
1.026665089058e-06 3.047645721911e-04 0.0 
0.0 0.0 -5.049648738178e-05 
-4.540502709285e-05 6.832131871420e-07 0.0 
6.832131871420e-07 2.672371430162e-04 0.0 
0.0 0.0 -4.513648964862e-05 
-7.256428344436e-05 1.111321589037e-06 0.0 
1.111321589037e-06 4.598861736081e-04 0.0 
0.0 0.0 -7.268378841861e-05 
-5.559787971176e-05 4.468565818418e-07 0.0 
4.468565818418e-07 3.424877842220e-04 0.0 
0.0 0.0 -5.585123947100e-05 
-5.303663475667e-05 2.464193940360e-07 0.0 
2.464193940360e-07 3.275568518533e-04 0.0 
0.0 0.0 -5.375179489994e-05 
-1.757934592010e-04 1.094510029965e-06 0.0 
1.094510029965e-06 1.179890690537e-03 0.0 
0.0 0.0 -1.760744972657e-04 
-1.733244805152e-04 -1.137885131472e-06 0.0 
-1.137885131472e-06 1.163616194136e-03 0.0 
0.0 0.0 -1.736362873376e-04 
-1.621997224677e-04 -1.527288975187e-06 0.0 
-1.527288975187e-06 1.082969057806e-03 0.0 
0.0 0.0 -1.620259229750e-04 
-1.525464893974e-04 4.621401952160e-09 0.0 
4.621401952160e-09 1.015177504387e-03 0.0 
0.0 0.0 -1.523516756879e-04 
-1.708917266004e-04 -1.191002855825e-06 0.0 
-1.191002855825e-06 1.149869569914e-03 0.0 
0.0 0.0 -1.717432538670e-04 
-3.490930834727e-05 -8.429582514125e-07 0.0 
-8.429582514125e-07 2.054757264963e-04 0.0 
0.0 0.0 -3.598778460012e-05 
-1.750597953055e-04 -3.250942675730e-07 0.0 
-3.250942675730e-07 1.172414927759e-03 0.0 
0.0 0.0 -1.748691643181e-04 
-1.586399412700e-04 -2.193877546445e-07 0.0 
-2.193877546445e-07 1.058088814965e-03 0.0 
0.0 0.0 -1.584205238596e-04 
-1.750232827386e-04 1.287113450679e-06 0.0 
1.287113450679e-06 1.163117526416e-03 0.0 
0.0 0.0 -1.736397701047e-04 
-1.700112759458e-04 -1.265368885599e-07 0.0 
-1.265368885599e-07 1.135355063019e-03 0.0 
0.0 0.0 -1.696829740659e-04 
-7.476684779119e-05 6.450836384554e-07 0.0 
6.450836384554e-07 4.725536723755e-04 0.0 
0.0 0.0 -7.452749745521e-05 
-7.091016921093e-05 -6.094699303138e-07 0.0 
-6.094699303138e-07 4.445526167574e-04 0.0 
0.0 0.0 -7.058709718060e-05 
-6.137074756451e-05 4.293104842185e-07 0.0 
4.293104842185e-07 3.794045980526e-04 0.0 
0.0 0.0 -6.117385547845e-05 
-6.706588179639e-05 1.609427156406e-06 0.0 
1.609427156406e-06 4.182950742711e-04 0.0 
0.0 0.0 -6.657037245228e-05 
-1.266094766854e-04 -6.739720647019e-07 0.0 
-6.739720647019e-07 8.277553541706e-04 0.0 
0.0 0.0 -1.254250592285e-04 
-8.035638793885e-05 -1.393926461580e-07 0.0 
-1.393926461580e-07 5.104400494154e-04 0.0 
0.0 0.0 -8.000873303496e-05 
-1.195834177750e-04 -1.404073059010e-07 0.0 
-1.404073059010e-07 7.834003609027e-04 0.0 
0.0 0.0 -1.190894946197e-04 
-1.155376331103e-04 -2.307315433277e-07 0.0 
-2.307315433277e-07 7.547800193782e-04 0.0 
0.0 0.0 -1.149779503611e-04 
-1.103258532928e-04 1.102189864937e-07 0.0 
1.102189864937e-07 7.186555490901e-04 0.0 
0.0 0.0 -1.097928741388e-04 
-9.842809374509e-05 1.902629040635e-07 0.0 
1.902629040635e-07 6.359410459750e-04 0.0 
0.0 0.0 -9.791810678625e-05 
-9.437419777145e-05 -2.159475299136e-07 0.0 
-2.159475299136e-07 6.080813734442e-04 0.0 
0.0 0.0 -9.392806562918e-05 
-8.322610419495e-05 -1.701840068511e-07 0.0 
-1.701840068511e-07 5.319942046353e-04 0.0 
0.0 0.0 -8.302446698330e-05 
-1.259991147617e-04 -5.365801846221e-07 0.0 
-5.365801846221e-07 8.306372732465e-04 0.0 
0.0 0.0 -1.258546578921e-04 
-1.058761433090e-04 7.571849957902e-08 0.0 
7.571849957902e-08 6.921175985289e-04 0.0 
0.0 0.0 -1.060443156317e-04 
-1.312139144854e-04 -3.837092576883e-07 0.0 
-3.837092576883e-07 8.682026054100e-04 0.0 
0.0 0.0 -1.312656420104e-04 
-1.251895528939e-04 1.195207152195e-07 0.0 
1.195207152195e-07 8.263310173887e-04 0.0 
0.0 0.0 -1.252521985300e-04 
-1.703049238627e-04 -5.676244569173e-07 0.0 
-5.676244569173e-07 1.139278121345e-03 0.0 
0.0 0.0 -1.702664597809e-04 
-1.760146123077e-04 -1.359452968980e-06 0.0 
-1.359452968980e-06 1.178275809354e-03 0.0 
0.0 0.0 -1.757907768048e-04 
-1.365524219146e-04 1.370157856815e-06 0.0 
1.370157856815e-06 9.012669428523e-04 0.0 
0.0 0.0 -1.359860927471e-04 
-1.307920283978e-04 1.357393189447e-07 0.0 
1.357393189447e-07 8.686300506088e-04 0.0 
0.0 0.0 -1.314620690688e-04 
-4.233213601894e-05 -2.593523707964e-07 0.0 
-2.593523707964e-07 2.470565775743e-04 0.0 
0.0 0.0 -4.219739737344e-05 
-3.886008786518e-05 1.163800211807e-06 0.0 
1.163800211807e-06 2.179605684997e-04 0.0 
0.0 0.0 -3.798854165781e-05 
-1.182815464932e-04 7.930796381187e-08 0.0 
7.930796381187e-08 7.785584436133e-04 0.0 
0.0 0.0 -1.184174655913e-04 
-1.693736305393e-04 6.591876404938e-07 0.0 
6.591876404938e-07 1.131789490517e-03 0.0 
0.0 0.0 -1.691294037713e-04 
-1.725748694788e-04 -2.401644388829e-08 0.0 
-2.401644388829e-08 1.155505334098e-03 0.0 
0.0 0.0 -1.725143790870e-04 
-1.770772882819e-04 -4.241524903004e-07 0.0 
-4.241524903004e-07 1.186342832568e-03 0.0 
0.0 0.0 -1.769059244357e-04 
-1.714408370001e-04 -4.978042219239e-07 0.0 
-4.978042219239e-07 1.148550534216e-03 0.0 
0.0 0.0 -1.715053987883e-04 
-1.710166963781e-04 1.347194091456e-07 0.0 
1.347194091456e-07 1.148948053295e-03 0.0 
0.0 0.0 -1.716410088010e-04 
-8.613875064520e-05 1.983705843856e-08 0.0 
1.983705843856e-08 5.527937603815e-04 0.0 
0.0 0.0 -8.600610143220e-05 
-1.288985122743e-04 -4.311114656055e-07 0.0 
-4.311114656055e-07 8.513543686181e-04 0.0 
0.0 0.0 -1.288645011303e-04 
-3.653516155706e-05 -1.602670112053e-06 0.0 
-1.602670112053e-06 2.073406842075e-04 0.0 
0.0 0.0 -3.634822514125e-05 
-1.333225735758e-04 1.155434495762e-07 0.0 
1.155434495762e-07 8.819083259488e-04 0.0 
0.0 0.0 -1.332694147460e-04 
-3.243355553450e-05 -5.508408617257e-07 0.0 
-5.508408617257e-07 1.777229056962e-04 0.0 
0.0 0.0 -3.243805315734e-05 
-1.521318087540e-04 -2.136602868641e-07 0.0 
-2.136602868641e-07 1.009920947414e-03 0.0 
0.0 0.0 -1.515479370354e-04 
-1.681720023865e-04 8.090304823283e-08 0.0 
8.090304823283e-08 1.126882532784e-03 0.0 
0.0 0.0 -1.684223758654e-04 
-1.735596513314e-04 4.917479192797e-09 0.0 
4.917479192797e-09 1.165356413454e-03 0.0 
0.0 0.0 -1.738820625913e-04 
-1.749637471521e-04 2.720388968619e-07 0.0 
2.720388968619e-07 1.178416888185e-03 0.0 
0.0 0.0 -1.757938962529e-04 
-1.125612094541e-04 1.713025509613e-06 0.0 
1.713025509613e-06 7.350876687057e-04 0.0 
0.0 0.0 -1.120642929630e-04 
-1.375852130868e-04 4.206176119327e-07 0.0 
4.206176119327e-07 9.112604874474e-04 0.0 
0.0 0.0 -1.374408399149e-04 
-1.323430315928e-04 2.679124462257e-07 0.0 
2.679124462257e-07 8.742078643875e-04 0.0 
0.0 0.0 -1.321308925596e-04 
-1.061253817389e-04 5.601605163015e-07 0.0 
5.601605163015e-07 6.904423550458e-04 0.0 
0.0 0.0 -1.057303730324e-04 
-1.010535408523e-04 5.872506187825e-07 0.0 
5.872506187825e-07 6.547439695766e-04 0.0 
0.0 0.0 -1.006129583810e-04 
-1.050589004756e-04 5.249789125323e-07 0.0 
5.249789125323e-07 6.823405630018e-04 0.0 
0.0 0.0 -1.045943784994e-04 
-9.594121695788e-05 5.701784484997e-07 0.0 
5.701784484997e-07 6.189426135763e-04 0.0 
0.0 0.0 -9.539409567622e-05 
-7.670722250222e-05 7.477520012380e-07 0.0 
7.477520012380e-07 4.887760317978e-04 0.0 
0.0 0.0 -7.683892420519e-05 
-7.103860008569e-05 4.652611723913e-07 0.0 
4.652611723913e-07 4.497405032502e-04 0.0 
0.0 0.0 -7.125283206988e-05 
-1.794791303054e-04 3.046290545187e-07 0.0 
3.046290545187e-07 1.202568044115e-03 0.0 
0.0 0.0 -1.788063205342e-04 
-1.769207863009e-04 3.279526117005e-06 0.0 
3.279526117005e-06 1.187698538996e-03 0.0 
0.0 0.0 -1.767990258301e-04 
-1.796288049769e-04 -8.041882013151e-07 0.0 
-8.041882013151e-07 1.202665816041e-03 0.0 
0.0 0.0 -1.789543763817e-04 
-1.735511399808e-04 -6.381743090034e-08 0.0 
-6.381743090034e-08 1.174777860682e-03 0.0 
0.0 0.0 -1.752247752347e-04 
-1.776329748734e-04 -4.492702858952e-07 0.0 
-4.492702858952e-07 1.208120942378e-03 0.0 
0.0 0.0 -1.801365737201e-04 
-1.734650378150e-04 -1.715499755081e-07 0.0 
-1.715499755081e-07 1.171053020005e-03 0.0 
0.0 0.0 -1.746253154232e-04 
-6.397194449559e-05 -8.644213742386e-07 0.0 
-8.644213742386e-07 3.958263205946e-04 0.0 
0.0 0.0 -6.341026310084e-05 
-8.522640710731e-05 3.477888862429e-07 0.0 
3.477888862429e-07 5.439871764934e-04 0.0 
0.0 0.0 -8.469390476807e-05 
-1.776955029070e-04 -1.524143709276e-06 0.0 
-1.524143709276e-06 1.201358150170e-03 0.0 
0.0 0.0 -1.791227834549e-04 
-1.112229346520e-04 4.789206220835e-07 0.0 
4.789206220835e-07 7.257595216689e-04 0.0 
0.0 0.0 -1.108630369651e-04 
-1.797556034384e-04 -6.312345564761e-07 0.0 
-6.312345564761e-07 1.200035518570e-03 0.0 
0.0 0.0 -1.789253132142e-04 
-1.736948380453e-04 5.431781983200e-07 0.0 
5.431781983200e-07 1.162780945010e-03 0.0 
0.0 0.0 -1.734070790826e-04 
-2.519516585345e-05 -9.707201663460e-07 0.0 
-9.707201663460e-07 1.373677520700e-04 0.0 
0.0 0.0 -2.664754339747e-05 
-3.015018737399e-05 -3.279297815400e-06 0.0 
-3.279297815400e-06 1.664829630556e-04 0.0 
0.0 0.0 -3.052430242461e-05 
-1.769892636273e-04 2.634610193557e-07 0.0 
2.634610193557e-07 1.192719086742e-03 0.0 
0.0 0.0 -1.776883310004e-04 
-5.758327952376e-05 -3.462473019858e-08 0.0 
-3.462473019858e-08 3.517263668732e-04 0.0 
0.0 0.0 -5.717887963261e-05 
-6.329339839047e-05 1.198404527509e-06 0.0 
1.198404527509e-06 3.880051844578e-04 0.0 
0.0 0.0 -6.238035407746e-05 
-5.212222281800e-05 -2.848057552127e-07 0.0 
-2.848057552127e-07 3.138366464287e-04 0.0 
0.0 0.0 -5.189549137910e-05 
-1.887618442225e-04 7.084845367266e-07 0.0 
7.084845367266e-07 1.267778144178e-03 0.0 
0.0 0.0 -1.887465440047e-04 
-1.122732225603e-04 -4.441296090606e-07 0.0 
-4.441296090606e-07 7.339799403067e-04 0.0 
0.0 0.0 -1.121888505450e-04 
-1.770685012225e-04 3.305358162577e-07 0.0 
3.305358162577e-07 1.195492347302e-03 0.0 
0.0 0.0 -1.784128478473e-04 
-1.037318983505e-04 3.959585097191e-08 0.0 
3.959585097191e-08 6.732989381237e-04 0.0 
0.0 0.0 -1.032702350429e-04 
-1.811215610528e-04 5.481099123404e-07 0.0 
5.481099123404e-07 1.225364590535e-03 0.0 
0.0 0.0 -1.824766045798e-04 
-1.418983722809e-04 3.275014927135e-07 0.0 
3.275014927135e-07 9.414952171589e-04 0.0 
0.0 0.0 -1.417367461992e-04 
-9.531983498029e-05 1.199130758146e-06 0.0 
1.199130758146e-06 6.176848429937e-04 0.0 
0.0 0.0 -9.530949026541e-05 
-1.618025468886e-04 -1.313138482705e-06 0.0 
-1.313138482705e-06 1.080414047570e-03 0.0 
0.0 0.0 -1.617266240239e-04 
-1.712367337160e-04 -2.517022686550e-06 0.0 
-2.517022686550e-06 1.155497819449e-03 0.0 
0.0 0.0 -1.723711093632e-04 
-1.839585546077e-04 1.922702604488e-06 0.0 
1.922702604488e-06 1.233266053318e-03 0.0 
0.0 0.0 -1.832438941626e-04 
-1.282285700338e-04 1.437764343269e-06 0.0 
1.437764343269e-06 8.565496247714e-04 0.0 
0.0 0.0 -1.295806172002e-04 
-1.247283955189e-04 -2.695014414448e-06 0.0 
-2.695014414448e-06 8.206621223611e-04 0.0 
0.0 0.0 -1.249156399969e-04 
-1.336973054243e-04 4.780502432986e-07 0.0 
4.780502432986e-07 8.862457055751e-04 0.0 
0.0 0.0 -1.338771030064e-04 
-4.352546499244e-05 4.436478363746e-07 0.0 
4.436478363746e-07 2.551361667223e-04 0.0 
0.0 0.0 -4.330579966881e-05 
-3.389814883689e-05 -2.442715112613e-07 0.0 
-2.442715112613e-07 1.810863350630e-04 0.0 
0.0 0.0 -3.279405811742e-05 
-1.716063829927e-04 -5.958765859028e-07 0.0 
-5.958765859028e-07 1.146696562296e-03 0.0 
0.0 0.0 -1.713135399111e-04 
-7.523536838437e-05 -6.007458973842e-07 0.0 
-6.007458973842e-07 4.758491836951e-04 0.0 
0.0 0.0 -7.509208182934e-05 
-8.235594042686e-05 2.209891807401e-06 0.0 
2.209891807401e-06 5.147698268391e-04 0.0 
0.0 0.0 -8.038827667338e-05 
-5.001146581911e-05 6.274014862647e-08 0.0 
6.274014862647e-08 3.012652504281e-04 0.0 
0.0 0.0 -4.993066604202e-05 
-5.951991557963e-05 4.745024153846e-07 0.0 
4.745024153846e-07 3.695589487495e-04 0.0 
0.0 0.0 -5.978314405524e-05 
-1.155737714789e-04 -3.760380621998e-07 0.0 
-3.760380621998e-07 7.609985150200e-04 0.0 
0.0 0.0 -1.159213944990e-04 
-1.114463395749e-04 -2.406998584791e-07 0.0 
-2.406998584791e-07 7.310738123434e-04 0.0 
0.0 0.0 -1.116262644424e-04 
-1.561658126362e-04 -5.299206413350e-07 0.0 
-5.299206413350e-07 1.039568765867e-03 0.0 
0.0 0.0 -1.558038104416e-04 
-1.616536575182e-04 8.873878670221e-08 0.0 
8.873878670221e-08 1.076746179334e-03 0.0 
0.0 0.0 -1.611194038499e-04 
-1.452021797269e-04 -7.201116330741e-07 0.0 
-7.201116330741e-07 9.647061708381e-04 0.0 
0.0 0.0 -1.451343074576e-04 
-1.417360905196e-04 8.632870990933e-08 0.0 
8.632870990933e-08 9.403024522762e-04 0.0 
0.0 0.0 -1.415933767274e-04 
-1.319020358547e-04 3.977806768541e-08 0.0 
3.977806768541e-08 8.718254866790e-04 0.0 
0.0 0.0 -1.317570344669e-04 
-1.275952978262e-04 -1.808898908879e-07 0.0 
-1.808898908879e-07 8.422298684311e-04 0.0 
0.0 0.0 -1.275414768178e-04 
-1.808056931016e-04 -1.525758788825e-06 0.0 
-1.525758788825e-06 1.206677931101e-03 0.0 
0.0 0.0 -1.799800510317e-04 
-1.870307763930e-04 -2.673876865903e-07 0.0 
-2.673876865903e-07 1.255623469781e-03 0.0 
0.0 0.0 -1.864092322314e-04 
-8.236599237368e-05 5.694757370753e-07 0.0 
5.694757370753e-07 5.272929756111e-04 0.0 
0.0 0.0 -8.232948673513e-05 
-7.828325005813e-05 7.807941924694e-07 0.0 
7.807941924694e-07 4.983469412597e-04 0.0 
0.0 0.0 -7.818189541436e-05 
-8.066781870606e-05 6.215778532638e-07 0.0 
6.215778532638e-07 5.167877030226e-04 0.0 
0.0 0.0 -8.085192856594e-05 
-1.821793884671e-04 -9.452425038887e-07 0.0 
-9.452425038887e-07 1.232295246858e-03 0.0 
0.0 0.0 -1.834584547941e-04 
-1.830922366977e-04 2.536660346183e-06 0.0 
2.536660346183e-06 1.235147881441e-03 0.0 
0.0 0.0 -1.836006722523e-04 
-1.803954664386e-04 -2.175726806454e-06 0.0 
-2.175726806454e-06 1.202974169961e-03 0.0 
0.0 0.0 -1.793731166858e-04 
-2.884547195492e-05 -1.949294581992e-06 0.0 
-1.949294581992e-06 1.508764218898e-04 0.0 
0.0 0.0 -2.821170413667e-05 
-3.570881000968e-05 -1.070718923965e-06 0.0 
-1.070718923965e-06 1.885432469507e-04 0.0 
0.0 0.0 -3.370638853217e-05 
-4.213783208319e-05 -1.170748262368e-07 0.0 
-1.170748262368e-07 2.402822286115e-04 0.0 
0.0 0.0 -4.126795851095e-05 
-3.586246974089e-05 -2.546283779184e-06 0.0 
-2.546283779184e-06 2.018033726068e-04 0.0 
0.0 0.0 -3.610688574664e-05 
-1.813118037091e-04 3.339770754457e-08 0.0 
3.339770754457e-08 1.214209313964e-03 0.0 
0.0 0.0 -1.810888083315e-04 
-1.759503644858e-04 -2.370337744285e-09 0.0 
-2.370337744285e-09 1.179752016776e-03 0.0 
0.0 0.0 -1.758947287297e-04 
-1.868380600491e-04 -2.026246098821e-08 0.0 
-2.026246098821e-08 1.260450932184e-03 0.0 
0.0 0.0 -1.871207327665e-04 
-5.677368414960e-05 2.032718348151e-06 0.0 
2.032718348151e-06 3.527741904510e-04 0.0 
0.0 0.0 -5.702308739092e-05 
-1.568027754872e-04 9.086678946457e-07 0.0 
9.086678946457e-07 1.045425867798e-03 0.0 
0.0 0.0 -1.567983548164e-04 
-1.807947804281e-04 1.816885949765e-06 0.0 
1.816885949765e-06 1.215031055035e-03 0.0 
0.0 0.0 -1.811848825972e-04 
-1.767874529665e-04 2.635533244676e-06 0.0 
2.635533244676e-06 1.187503191795e-03 0.0 
0.0 0.0 -1.767018567944e-04 
-1.863663002342e-04 1.461510242915e-06 0.0 
1.461510242915e-06 1.257417594462e-03 0.0 
0.0 0.0 -1.866936124609e-04 
-1.705605319310e-04 -3.043131196868e-07 0.0 
-3.043131196868e-07 1.147035567734e-03 0.0 
0.0 0.0 -1.713153186433e-04 
-1.813551999588e-04 -1.051944771726e-06 0.0 
-1.051944771726e-06 1.212243561196e-03 0.0 
0.0 0.0 -1.808143025540e-04 
-1.810144852020e-04 9.510582154737e-07 0.0 
9.510582154737e-07 1.215244823925e-03 0.0 
0.0 0.0 -1.813984546852e-04 
-2.289882463440e-05 -1.917411223350e-06 0.0 
-1.917411223350e-06 1.064438362998e-04 0.0 
0.0 0.0 -2.272772520152e-05 
-1.796453692485e-04 -2.519464026569e-06 0.0 
-2.519464026569e-06 1.205769465943e-03 0.0 
0.0 0.0 -1.799989151485e-04 
-1.255838269039e-04 -2.372108616113e-07 0.0 
-2.372108616113e-07 8.274746007515e-04 0.0 
0.0 0.0 -1.255735778981e-04 
-1.648487917531e-05 -4.731674107763e-06 0.0 
-4.731674107763e-06 7.996115120316e-05 0.0 
0.0 0.0 -1.701907742944e-05 
-1.197277503755e-04 -6.241620168612e-08 0.0 
-6.241620168612e-08 7.962718767862e-04 0.0 
0.0 0.0 -1.210522788133e-04 
-1.264445161814e-04 -2.564056665928e-07 0.0 
-2.564056665928e-07 8.371650247824e-04 0.0 
0.0 0.0 -1.267742309066e-04 
-1.154487627705e-04 -6.658166254296e-07 0.0 
-6.658166254296e-07 7.569378951924e-04 0.0 
0.0 0.0 -1.162214466274e-04 
-4.660515595758e-05 1.493989084367e-06 0.0 
1.493989084367e-06 2.841958466787e-04 0.0 
0.0 0.0 -4.732948783071e-05 
-1.214260254664e-04 -1.596625013767e-06 0.0 
-1.596625013767e-06 8.039136548600e-04 0.0 
0.0 0.0 -1.226115929076e-04 
-1.277494935593e-04 -2.322994823893e-06 0.0 
-2.322994823893e-06 8.489823059285e-04 0.0 
0.0 0.0 -1.283491864751e-04 
-2.181725480317e-05 4.928406156629e-07 0.0 
4.928406156629e-07 1.070930809537e-04 0.0 
0.0 0.0 -2.131994005793e-05 
-1.874449477591e-04 5.176155724587e-07 0.0 
5.176155724587e-07 1.267519228381e-03 0.0 
0.0 0.0 -1.888952332360e-04 
-2.478565018414e-05 -1.930000472000e-06 0.0 
-1.930000472000e-06 1.118328058531e-04 0.0 
0.0 0.0 -2.334665006309e-05 
-2.656716960799e-05 -2.510778064998e-06 0.0 
-2.510778064998e-06 1.411464559949e-04 0.0 
0.0 0.0 -2.709867152969e-05 
-1.817312836183e-04 2.201942420486e-06 0.0 
2.201942420486e-06 1.232410437945e-03 0.0 
0.0 0.0 -1.831822052943e-04 
-1.773206336066e-04 -2.021839507971e-07 0.0 
-2.021839507971e-07 1.191992626232e-03 0.0 
0.0 0.0 -1.776517324320e-04 
-1.872954897737e-04 -1.006614931482e-06 0.0 
-1.006614931482e-06 1.259866749947e-03 0.0 
0.0 0.0 -1.871589901852e-04 
-1.824456739670e-04 2.064220422989e-06 0.0 
2.064220422989e-06 1.218220290450e-03 0.0 
0.0 0.0 -1.816528226986e-04 
-1.719240551568e-04 -7.467342115413e-07 0.0 
-7.467342115413e-07 1.152044759436e-03 0.0 
0.0 0.0 -1.720599434401e-04 
-1.761500249536e-04 9.670950468971e-07 0.0 
9.670950468971e-07 1.183630845697e-03 0.0 
0.0 0.0 -1.764735915037e-04 
-1.203392003903e-04 -2.198342008040e-06 0.0 
-2.198342008040e-06 7.898463321084e-04 0.0 
0.0 0.0 -1.197898394197e-04 
-1.865443414806e-04 2.647479046358e-06 0.0 
2.647479046358e-06 1.260124298644e-03 0.0 
0.0 0.0 -1.873527554397e-04 
-1.803841241731e-04 6.709369355739e-07 0.0 
6.709369355739e-07 1.214344074041e-03 0.0 
0.0 0.0 -1.811164307615e-04 
-1.921061091143e-04 1.480715088923e-06 0.0 
1.480715088923e-06 1.296918019707e-03 0.0 
0.0 0.0 -1.916891122952e-04 
-9.208569695246e-05 6.093443112200e-07 0.0 
6.093443112200e-07 5.924864494399e-04 0.0 
0.0 0.0 -9.162005200151e-05 
-7.283645161877e-05 4.586395072900e-07 0.0 
4.586395072900e-07 4.547389083214e-04 0.0 
0.0 0.0 -7.184037522857e-05 
-6.889002091575e-05 3.964795035727e-07 0.0 
3.964795035727e-07 4.246717698014e-04 0.0 
0.0 0.0 -6.790877045087e-05 
-5.909497143754e-05 6.023844365174e-06 0.0 
6.023844365174e-06 3.592168662585e-04 0.0 
0.0 0.0 -5.813495639200e-05 
-1.853176739262e-04 8.122300759658e-07 0.0 
8.122300759658e-07 1.250781756793e-03 0.0 
0.0 0.0 -1.860270850411e-04 
-1.796312402729e-04 3.276727185624e-06 0.0 
3.276727185624e-06 1.208836358275e-03 0.0 
0.0 0.0 -1.800885023177e-04 
-1.631801230170e-04 1.627520387689e-07 0.0 
1.627520387689e-07 1.090569837524e-03 0.0 
0.0 0.0 -1.631333845344e-04 
-1.534477329204e-04 6.766395027793e-07 0.0 
6.766395027793e-07 1.020410487752e-03 0.0 
0.0 0.0 -1.531108459605e-04 
-1.224599435499e-04 1.078011159301e-06 0.0 
1.078011159301e-06 8.009987656654e-04 0.0 
0.0 0.0 -1.216227322220e-04 
-1.215744765480e-04 -1.237691044798e-06 0.0 
-1.237691044798e-06 7.963280792961e-04 0.0 
0.0 0.0 -1.211602941205e-04 
-1.308077100931e-04 4.769688121849e-06 0.0 
4.769688121849e-06 8.600072513362e-04 0.0 
0.0 0.0 -1.301779020232e-04 
-1.297276618714e-04 -1.066682707188e-06 0.0 
-1.066682707188e-06 8.491749556053e-04 0.0 
0.0 0.0 -1.291373028237e-04 
-1.389532460221e-04 4.549858847667e-06 0.0 
4.549858847667e-06 9.158165643447e-04 0.0 
0.0 0.0 -1.380077606708e-04 
-1.362521981567e-04 -2.124783431130e-06 0.0 
-2.124783431130e-06 9.054980890478e-04 0.0 
0.0 0.0 -1.366342160092e-04 
-1.454793170856e-04 -4.423821596291e-06 0.0 
-4.423821596291e-06 9.700799799999e-04 0.0 
0.0 0.0 -1.459037168719e-04 
-1.870833549466e-04 3.909084775636e-06 0.0 
3.909084775636e-06 1.256272641087e-03 0.0 
0.0 0.0 -1.867631680280e-04 
-4.779563930822e-05 1.388169697748e-06 0.0 
1.388169697748e-06 2.856867328083e-04 0.0 
0.0 0.0 -4.771245731983e-05 
-1.019348355349e-04 5.925610993024e-07 0.0 
5.925610993024e-07 6.625121101145e-04 0.0 
0.0 0.0 -1.017460476387e-04 
-1.826285801103e-04 -1.661566205844e-06 0.0 
-1.661566205844e-06 1.237533025725e-03 0.0 
0.0 0.0 -1.842392070075e-04 
-1.784932399449e-04 -5.084121371407e-07 0.0 
-5.084121371407e-07 1.196504370322e-03 0.0 
0.0 0.0 -1.781095211982e-04 
-9.045878749083e-05 3.060141382145e-07 0.0 
3.060141382145e-07 5.804720461946e-04 0.0 
0.0 0.0 -9.001416730698e-05 
-8.189605333165e-05 1.641333009624e-06 0.0 
1.641333009624e-06 5.186644514913e-04 0.0 
0.0 0.0 -8.102430021026e-05 
-1.866907463054e-04 2.093765460227e-06 0.0 
2.093765460227e-06 1.251863261449e-03 0.0 
0.0 0.0 -1.858191563033e-04 
-8.427129088721e-05 2.509183407979e-07 0.0 
2.509183407979e-07 5.389541208829e-04 0.0 
0.0 0.0 -8.400472401885e-05 
-1.942862609106e-04 -4.604509060764e-07 0.0 
-4.604509060764e-07 1.310239742523e-03 0.0 
0.0 0.0 -1.943189575261e-04 
-7.089778492893e-06 -8.429924576269e-07 0.0 
-8.429924576269e-07 3.992716951653e-05 0.0 
0.0 0.0 -8.535005130452e-06 
-1.936791033226e-05 1.730686598501e-06 0.0 
1.730686598501e-06 1.017559906333e-04 0.0 
0.0 0.0 -2.030164989952e-05 
-8.968053387105e-05 4.268638781566e-07 0.0 
4.268638781566e-07 5.769858883096e-04 0.0 
0.0 0.0 -8.953811051246e-05 
-9.967591826382e-05 1.816339090071e-07 0.0 
1.816339090071e-07 6.455070859268e-04 0.0 
0.0 0.0 -9.930333011984e-05 
-7.698272719919e-05 1.369511196201e-06 0.0 
1.369511196201e-06 4.917432221998e-04 0.0 
0.0 0.0 -7.735978650723e-05 
-7.290112700995e-05 4.485042513467e-07 0.0 
4.485042513467e-07 4.686595431743e-04 0.0 
0.0 0.0 -7.375775675111e-05 
-1.516976068027e-04 9.731432031669e-08 0.0 
9.731432031669e-08 1.010085692234e-03 0.0 
0.0 0.0 -1.515828990902e-04 
-2.955388113014e-05 -3.810006738129e-07 0.0 
-3.810006738129e-07 1.597998460951e-04 0.0 
0.0 0.0 -2.992625374333e-05 
-4.708750000530e-05 -3.380683912339e-07 0.0 
-3.380683912339e-07 2.775741899182e-04 0.0 
0.0 0.0 -4.660401843130e-05 
-1.459872513037e-04 4.283387118632e-06 0.0 
4.283387118632e-06 9.787274438894e-04 0.0 
0.0 0.0 -1.469538452094e-04 
-3.739432352920e-05 8.132963554310e-08 0.0 
8.132963554310e-08 2.132217851977e-04 0.0 
0.0 0.0 -3.731550915806e-05 
-1.581113812495e-04 5.386783396549e-07 0.0 
5.386783396549e-07 1.056624836089e-03 0.0 
0.0 0.0 -1.583700297543e-04 
-8.859117282002e-05 -4.886909086428e-07 0.0 
-4.886909086428e-07 5.694929478328e-04 0.0 
0.0 0.0 -8.837999545446e-05 
-1.077149909289e-04 1.768026495229e-08 0.0 
1.768026495229e-08 7.012731036170e-04 0.0 
0.0 0.0 -1.073025146250e-04 
-5.592229804259e-05 8.436426505878e-07 0.0 
8.436426505878e-07 3.420524339702e-04 0.0 
0.0 0.0 -5.582998379547e-05 
-7.655387121575e-05 -1.360505059231e-06 0.0 
-1.360505059231e-06 4.844624894690e-04 0.0 
0.0 0.0 -7.620154526702e-05 
-1.304375061833e-04 -4.590487413421e-07 0.0 
-4.590487413421e-07 8.567018780296e-04 0.0 
0.0 0.0 -1.295787134191e-04 
-1.227913220526e-04 -1.069536414788e-06 0.0 
-1.069536414788e-06 7.988115105914e-04 0.0 
0.0 0.0 -1.212971597528e-04 
-1.171271358387e-04 6.312522150107e-07 0.0 
6.312522150107e-07 7.632427069466e-04 0.0 
0.0 0.0 -1.160760923294e-04 
-9.288654497448e-05 -4.149904162910e-07 0.0 
-4.149904162910e-07 5.993038953958e-04 0.0 
0.0 0.0 -9.268233649937e-05 
-7.967235479004e-05 1.560635261011e-06 0.0 
1.560635261011e-06 5.060818193185e-04 0.0 
0.0 0.0 -7.932496478153e-05 
-6.976412058096e-05 4.685918450985e-07 0.0 
4.685918450985e-07 4.348311074162e-04 0.0 
0.0 0.0 -6.925859231108e-05 
-1.236762265939e-04 1.286441015265e-07 0.0 
1.286441015265e-07 8.121194052814e-04 0.0 
0.0 0.0 -1.231954486131e-04 
-1.661664385129e-04 7.234197314207e-07 0.0 
7.234197314207e-07 1.111077522090e-03 0.0 
0.0 0.0 -1.661212681597e-04 
-1.708685371099e-04 1.275890329840e-06 0.0 
1.275890329840e-06 1.141280747299e-03 0.0 
0.0 0.0 -1.704512426999e-04 
-1.799814060202e-04 -8.892695818753e-09 0.0 
-8.892695818753e-09 1.206980088396e-03 0.0 
0.0 0.0 -1.798902840516e-04 
-1.752252711223e-04 6.293476179296e-07 0.0 
6.293476179296e-07 1.171825368199e-03 0.0 
0.0 0.0 -1.746897123557e-04 
-1.653204529079e-04 3.682681378693e-07 0.0 
3.682681378693e-07 1.103833188294e-03 0.0 
0.0 0.0 -1.650619928257e-04 
-1.692700239592e-04 -9.309390044845e-07 0.0 
-9.309390044845e-07 1.133313101005e-03 0.0 
0.0 0.0 -1.693613594316e-04 
-1.794459408941e-04 1.605079206946e-06 0.0 
1.605079206946e-06 1.200644277872e-03 0.0 
0.0 0.0 -1.790391580507e-04 
-1.729836631084e-04 -6.502744120058e-09 0.0 
-6.502744120058e-09 1.165149049271e-03 0.0 
0.0 0.0 -1.738884562940e-04 
-1.853394956414e-04 -1.746634483939e-06 0.0 
-1.746634483939e-06 1.245260351070e-03 0.0 
0.0 0.0 -1.851430293189e-04 
-1.779629991439e-04 -2.212681777784e-06 0.0 
-2.212681777784e-06 1.194508684255e-03 0.0 
0.0 0.0 -1.780963771770e-04 
-1.680008323397e-04 4.410252086398e-07 0.0 
4.410252086398e-07 1.124792316923e-03 0.0 
0.0 0.0 -1.681296768602e-04 
-1.732313668130e-04 2.383290929429e-07 0.0 
2.383290929429e-07 1.152919895369e-03 0.0 
0.0 0.0 -1.721639567129e-04 
-1.820197878976e-04 -9.097203098576e-07 0.0 
-9.097203098576e-07 1.219293629434e-03 0.0 
0.0 0.0 -1.811651920545e-04 
-1.627398560099e-04 -3.025378736543e-07 0.0 
-3.025378736543e-07 1.085392768176e-03 0.0 
0.0 0.0 -1.623890973126e-04 
-1.881496038472e-04 -6.722589035003e-07 0.0 
-6.722589035003e-07 1.272625835057e-03 0.0 
0.0 0.0 -1.896816515354e-04 
-9.936624462153e-05 3.711915790743e-07 0.0 
3.711915790743e-07 6.447993785367e-04 0.0 
0.0 0.0 -9.931710713211e-05 
-2.678077344496e-05 1.172604196378e-06 0.0 
1.172604196378e-06 1.469601996083e-04 0.0 
0.0 0.0 -2.776378382453e-05 
-2.718822131563e-05 5.643793796885e-06 0.0 
5.643793796885e-06 1.398182331985e-04 0.0 
0.0 0.0 -2.650814903740e-05 
-1.130938350532e-04 2.933038375314e-07 0.0 
2.933038375314e-07 7.386015135744e-04 0.0 
0.0 0.0 -1.126376112924e-04 
-1.957395771822e-04 4.072718166248e-07 0.0 
4.072718166248e-07 1.314065316165e-03 0.0 
0.0 0.0 -1.949709453146e-04 
-1.956422709446e-04 1.854437157925e-08 0.0 
1.854437157925e-08 1.316914351373e-03 0.0 
0.0 0.0 -1.952630510734e-04 
-7.363791568969e-05 4.448116745504e-08 0.0 
4.448116745504e-08 4.652432970724e-04 0.0 
0.0 0.0 -7.343539360029e-05 
-1.953259047097e-04 -1.682103116944e-07 0.0 
-1.682103116944e-07 1.316528916423e-03 0.0 
0.0 0.0 -1.955120939844e-04 
-1.210496703093e-04 -3.742029869829e-07 0.0 
-3.742029869829e-07 7.914115177246e-04 0.0 
0.0 0.0 -1.201823113336e-04 
-5.355766991560e-05 5.069063859747e-07 0.0 
5.069063859747e-07 3.232453025466e-04 0.0 
0.0 0.0 -5.296028401754e-05 
-1.953834150830e-04 -1.373297745112e-06 0.0 
-1.373297745112e-06 1.316914533701e-03 0.0 
0.0 0.0 -1.956430189105e-04 
-1.606320410693e-04 1.081811570651e-06 0.0 
1.081811570651e-06 1.073242688732e-03 0.0 
0.0 0.0 -1.607160970497e-04 
-1.551352503420e-04 -1.927443336718e-07 0.0 
-1.927443336718e-07 1.034924921134e-03 0.0 
0.0 0.0 -1.552285616758e-04 
-1.505583948677e-04 4.103370421327e-07 0.0 
4.103370421327e-07 1.004971037607e-03 0.0 
0.0 0.0 -1.509086942990e-04 
-1.950225372489e-04 -2.088550178189e-06 0.0 
-2.088550178189e-06 1.319599496419e-03 0.0 
0.0 0.0 -1.958801056209e-04 
-1.389109183028e-04 4.741451933548e-08 0.0 
4.741451933548e-08 9.181432809719e-04 0.0 
0.0 0.0 -1.384942297845e-04 
-1.959295069713e-04 -1.244434436796e-06 0.0 
-1.244434436796e-06 1.320610998766e-03 0.0 
0.0 0.0 -1.959024498733e-04 
-1.357909290755e-04 -7.273641547470e-07 0.0 
-7.273641547470e-07 8.985832613114e-04 0.0 
0.0 0.0 -1.355985557075e-04 
-1.314159132553e-04 -2.260781221256e-07 0.0 
-2.260781221256e-07 8.680741570170e-04 0.0 
0.0 0.0 -1.312144960014e-04 
-1.217410062802e-04 -7.968137970678e-08 0.0 
-7.968137970678e-08 8.004989808175e-04 0.0 
0.0 0.0 -1.215252423283e-04 
-1.635653543320e-04 -8.206507231058e-07 0.0 
-8.206507231058e-07 1.094591173860e-03 0.0 
0.0 0.0 -1.638368049481e-04 
-1.957128907948e-04 7.679802216988e-07 0.0 
7.679802216988e-07 1.315946828038e-03 0.0 
0.0 0.0 -1.954016999139e-04 
-1.877918467821e-04 -4.059023819972e-07 0.0 
-4.059023819972e-07 1.261052432128e-03 0.0 
0.0 0.0 -1.872601071101e-04 
-1.870380449284e-04 -1.951022404989e-06 0.0 
-1.951022404989e-06 1.260361361027e-03 0.0 
0.0 0.0 -1.872639817026e-04 
-1.800805456319e-04 7.540324232616e-08 0.0 
7.540324232616e-08 1.200437685780e-03 0.0 
0.0 0.0 -1.783672283586e-04 
-1.950646193177e-04 -5.546188052747e-08 0.0 
-5.546188052747e-08 1.316661406715e-03 0.0 
0.0 0.0 -1.955098189886e-04 
-1.957560602186e-04 -3.716868616247e-07 0.0 
-3.716868616247e-07 1.318924671883e-03 0.0 
0.0 0.0 -1.959998991124e-04 
-1.963981539868e-04 -5.303133434365e-07 0.0 
-5.303133434365e-07 1.320493656548e-03 0.0 
0.0 0.0 -1.962751064225e-04 
-6.844923036856e-05 1.199739337794e-06 0.0 
1.199739337794e-06 4.307455297825e-04 0.0 
0.0 0.0 -6.847160534926e-05 
-7.419643775584e-05 3.743388539179e-07 0.0 
3.743388539179e-07 4.695492771341e-04 0.0 
0.0 0.0 -7.401623890332e-05 
-8.376895134064e-05 1.300131340796e-07 0.0 
1.300131340796e-07 5.365706547931e-04 0.0 
0.0 0.0 -8.364053759108e-05 
-7.953934562445e-05 -2.075640414834e-08 0.0 
-2.075640414834e-08 5.072934929808e-04 0.0 
0.0 0.0 -7.948224144010e-05 
-6.989506786319e-05 -6.245293844847e-08 0.0 
-6.245293844847e-08 4.396733402016e-04 0.0 
0.0 0.0 -6.978551441703e-05 
-7.524805855893e-05 3.094892115024e-07 0.0 
3.094892115024e-07 4.777101055957e-04 0.0 
0.0 0.0 -7.524542772725e-05 
-8.492603218944e-05 -2.618464199117e-07 0.0 
-2.618464199117e-07 5.448643552104e-04 0.0 
0.0 0.0 -8.485997776147e-05 
-7.105462536305e-05 6.250310806945e-07 0.0 
6.250310806945e-07 4.479089343025e-04 0.0 
0.0 0.0 -7.097692746601e-05 
-1.705288852515e-04 -5.065676993725e-08 0.0 
-5.065676993725e-08 1.143493746239e-03 0.0 
0.0 0.0 -1.707769389999e-04 
-1.957870609060e-04 1.292884007357e-06 0.0 
1.292884007357e-06 1.318859783043e-03 0.0 
0.0 0.0 -1.958668742322e-04 
-1.350455497016e-04 7.864309328477e-09 0.0 
7.864309328477e-09 8.951240562794e-04 0.0 
0.0 0.0 -1.351191360868e-04 
-1.307165790976e-04 -4.322242656549e-09 0.0 
-4.322242656549e-09 8.644169275053e-04 0.0 
0.0 0.0 -1.307040085326e-04 
-1.209043728309e-04 3.853306452192e-07 0.0 
3.853306452192e-07 7.961045906332e-04 0.0 
0.0 0.0 -1.208983099878e-04 
-1.015178106691e-04 -3.679167517203e-07 0.0 
-3.679167517203e-07 6.622225460757e-04 0.0 
0.0 0.0 -1.017282540064e-04 
-1.070947291555e-04 -1.713274614578e-07 0.0 
-1.713274614578e-07 7.010953756025e-04 0.0 
0.0 0.0 -1.073098139330e-04 
-1.170318119329e-04 -2.304405178400e-07 0.0 
-2.304405178400e-07 7.699550145936e-04 0.0 
0.0 0.0 -1.171862911330e-04 
-9.606943952016e-05 -6.918043120030e-07 0.0 
-6.918043120030e-07 6.234320450168e-04 0.0 
0.0 0.0 -9.611914699067e-05 
-1.481119786321e-04 -1.006868581402e-07 0.0 
-1.006868581402e-07 9.856164309774e-04 0.0 
0.0 0.0 -1.481459134429e-04 
-1.955042779643e-04 -1.269047585912e-06 0.0 
-1.269047585912e-06 1.318349589731e-03 0.0 
0.0 0.0 -1.957504584866e-04 
-1.330884753948e-04 -1.768196315293e-07 0.0 
-1.768196315293e-07 8.806785880526e-04 0.0 
0.0 0.0 -1.330749450653e-04 
-1.026965489879e-04 1.178065411022e-07 0.0 
1.178065411022e-07 6.708683582992e-04 0.0 
0.0 0.0 -1.029894966699e-04 
-1.130854337220e-04 -7.438576483953e-07 0.0 
-7.438576483953e-07 7.384022260134e-04 0.0 
0.0 0.0 -1.127517955912e-04 
-1.209813153641e-04 2.130007804037e-06 0.0 
2.130007804037e-06 7.983489600902e-04 0.0 
0.0 0.0 -1.214223410530e-04 
-1.212906592670e-04 -2.948275088070e-06 0.0 
-2.948275088070e-06 8.006247840124e-04 0.0 
0.0 0.0 -1.214609177556e-04 
-1.289650632578e-04 -2.836448343722e-06 0.0 
-2.836448343722e-06 8.628838233816e-04 0.0 
0.0 0.0 -1.309968220184e-04 
-1.213818105996e-04 -4.266965506249e-06 0.0 
-4.266965506249e-06 8.042830918570e-04 0.0 
0.0 0.0 -1.223387611305e-04 
-1.201218344436e-04 -5.940699395266e-07 0.0 
-5.940699395266e-07 7.912234115192e-04 0.0 
0.0 0.0 -1.202289988118e-04 
-1.246396976616e-04 -5.061942420403e-07 0.0 
-5.061942420403e-07 8.213580181559e-04 0.0 
0.0 0.0 -1.245418513326e-04 
-1.191093718333e-04 1.337880474637e-07 0.0 
1.337880474637e-07 7.836030816467e-04 0.0 
0.0 0.0 -1.190678843757e-04 
-1.287401379332e-04 -4.825176742022e-07 0.0 
-4.825176742022e-07 8.510925999983e-04 0.0 
0.0 0.0 -1.288600603647e-04 
-1.226230270594e-04 -1.701149775371e-06 0.0 
-1.701149775371e-06 8.113018730487e-04 0.0 
0.0 0.0 -1.232036783932e-04 
-1.130241629680e-04 -1.858461286811e-06 0.0 
-1.858461286811e-06 7.480336692277e-04 0.0 
0.0 0.0 -1.141311642346e-04 
-1.321533265726e-04 -1.335199541160e-06 0.0 
-1.335199541160e-06 8.794062915419e-04 0.0 
0.0 0.0 -1.329915258165e-04 
-1.262846614202e-04 1.119259017791e-06 0.0 
1.119259017791e-06 8.372331183149e-04 0.0 
0.0 0.0 -1.265608218447e-04 
-1.120104832196e-04 -1.984611779904e-06 0.0 
-1.984611779904e-06 7.374063381166e-04 0.0 
0.0 0.0 -1.126429727744e-04 
-9.422976514582e-06 -1.217518494265e-06 0.0 
-1.217518494265e-06 4.558842274141e-05 0.0 
0.0 0.0 -8.813944590281e-06 
-2.032999859278e-05 1.550107281015e-06 0.0 
1.550107281015e-06 1.008000227599e-04 0.0 
0.0 0.0 -2.005057187811e-05 
-1.923634066646e-05 -1.281983274152e-06 0.0 
-1.281983274152e-06 9.903712088906e-05 0.0 
0.0 0.0 -1.977126557535e-05 
-2.892124709552e-05 -6.331508506686e-07 0.0 
-6.331508506686e-07 1.562935872075e-04 0.0 
0.0 0.0 -2.931975365146e-05 
-3.044620434302e-05 2.916307507694e-06 0.0 
2.916307507694e-06 1.611495346811e-04 0.0 
0.0 0.0 -2.995118946101e-05 
-3.774799277366e-05 3.794557032569e-07 0.0 
3.794557032569e-07 2.202737536706e-04 0.0 
0.0 0.0 -3.879981516104e-05 
-3.645995758034e-05 -3.803053327811e-06 0.0 
-3.803053327811e-06 2.139692199118e-04 0.0 
0.0 0.0 -3.742104924291e-05 
-2.033881415161e-05 -1.700939409159e-06 0.0 
-1.700939409159e-06 1.011583560657e-04 0.0 
0.0 0.0 -1.994621821224e-05 
-8.875489974186e-06 -3.480193746508e-07 0.0 
-3.480193746508e-07 4.471598822964e-05 0.0 
0.0 0.0 -8.692282348679e-06 
-1.963315251852e-05 3.711641581478e-07 0.0 
3.711641581478e-07 9.816218701372e-05 0.0 
0.0 0.0 -1.973534442338e-05 
-8.550733775924e-06 2.514775744061e-07 0.0 
2.514775744061e-07 4.381249491722e-05 0.0 
0.0 0.0 -8.579688284227e-06 
-1.901805583189e-05 4.776440578628e-08 0.0 
4.776440578628e-08 9.639762974465e-05 0.0 
0.0 0.0 -1.949131874972e-05 
-2.991788690013e-05 6.474225871532e-07 0.0 
6.474225871532e-07 1.629475291055e-04 0.0 
0.0 0.0 -3.058298354955e-05 
-4.437694804010e-05 -3.488760205633e-08 0.0 
-3.488760205633e-08 2.590089634221e-04 0.0 
0.0 0.0 -4.387725951834e-05 
-1.952890502554e-04 2.705057302809e-06 0.0 
2.705057302809e-06 1.308737158744e-03 0.0 
0.0 0.0 -1.942312205382e-04 
-9.935449687594e-05 7.019136318893e-07 0.0 
7.019136318893e-07 6.421560261642e-04 0.0 
0.0 0.0 -9.893255040107e-05 
-9.532292627254e-05 2.814699913044e-06 0.0 
2.814699913044e-06 6.114496525194e-04 0.0 
0.0 0.0 -9.397196729617e-05 
-8.400669900114e-05 2.679673941902e-06 0.0 
2.679673941902e-06 5.409587176071e-04 0.0 
0.0 0.0 -8.462574969392e-05 
-9.027594374168e-05 -7.837686841303e-07 0.0 
-7.837686841303e-07 5.798954878733e-04 0.0 
0.0 0.0 -8.961994476413e-05 
-1.045740752791e-04 3.140418326637e-06 0.0 
3.140418326637e-06 6.688688744112e-04 0.0 
0.0 0.0 -1.029858181470e-04 
-7.880649475037e-05 2.069962121030e-06 0.0 
2.069962121030e-06 5.047681260686e-04 0.0 
0.0 0.0 -7.930380845106e-05 
-7.495741100239e-05 3.408625348592e-06 0.0 
3.408625348592e-06 4.823631646977e-04 0.0 
0.0 0.0 -7.557437765277e-05 
-9.687066653002e-06 -3.402698014617e-07 0.0 
-3.402698014617e-07 4.591586104220e-05 0.0 
0.0 0.0 -8.739712030662e-06 
-2.047661094667e-05 -2.267522532193e-06 0.0 
-2.267522532193e-06 1.000681362490e-04 0.0 
0.0 0.0 -2.007353836932e-05 
-1.994917007271e-05 2.592468629793e-06 0.0 
2.592468629793e-06 9.445303527474e-05 0.0 
0.0 0.0 -1.994324578594e-05 
-3.151456459980e-05 1.463566236896e-06 0.0 
1.463566236896e-06 1.596924898443e-04 0.0 
0.0 0.0 -2.965054416063e-05 
-2.861510418730e-05 -1.205587774427e-06 0.0 
-1.205587774427e-06 1.581911772624e-04 0.0 
0.0 0.0 -2.941027143855e-05 
-1.937098915206e-05 8.384890895992e-08 0.0 
8.384890895992e-08 1.007669973979e-04 0.0 
0.0 0.0 -1.994784544742e-05 
-1.998172865117e-05 1.674549256837e-06 0.0 
1.674549256837e-06 1.004783062935e-04 0.0 
0.0 0.0 -1.993089637160e-05 
-9.184527398116e-06 -3.340486906928e-07 0.0 
-3.340486906928e-07 4.449611849599e-05 0.0 
0.0 0.0 -8.679810794752e-06 
-1.977844276233e-05 -5.706350657546e-07 0.0 
-5.706350657546e-07 9.957383946922e-05 0.0 
0.0 0.0 -1.962916685114e-05 
-2.895230255585e-05 1.615024457259e-06 0.0 
1.615024457259e-06 1.596384447765e-04 0.0 
0.0 0.0 -2.991862060476e-05 
-7.803011911719e-06 -7.706301462869e-07 0.0 
-7.706301462869e-07 4.106703932536e-05 0.0 
0.0 0.0 -8.301770963759e-06 
-1.590145051585e-04 -4.281304664763e-06 0.0 
-4.281304664763e-06 1.062076659957e-03 0.0 
0.0 0.0 -1.590640962770e-04 
-1.651868147433e-04 -3.398332014324e-06 0.0 
-3.398332014324e-06 1.099025294548e-03 0.0 
0.0 0.0 -1.645623349770e-04 
-1.955657779701e-04 -5.933825758626e-07 0.0 
-5.933825758626e-07 1.315952615564e-03 0.0 
0.0 0.0 -1.951345524439e-04 
-1.128859712793e-04 -3.830481927276e-06 0.0 
-3.830481927276e-06 7.447363822067e-04 0.0 
0.0 0.0 -1.137601485512e-04 
-8.506649409316e-06 3.037838616352e-07 0.0 
3.037838616352e-07 4.456634567568e-05 0.0 
0.0 0.0 -8.827439468020e-06 
-1.944078863341e-04 -1.551046245181e-07 0.0 
-1.551046245181e-07 1.307325842461e-03 0.0 
0.0 0.0 -1.938161294973e-04 
-1.950362438059e-04 -1.795147355396e-06 0.0 
-1.795147355396e-06 1.317406774879e-03 0.0 
0.0 0.0 -1.954759163179e-04 
-1.946257604888e-04 1.407080277293e-06 0.0 
1.407080277293e-06 1.317652425531e-03 0.0 
0.0 0.0 -1.957234727395e-04 
-1.786106491459e-04 1.328228983500e-06 0.0 
1.328228983500e-06 1.198614709334e-03 0.0 
0.0 0.0 -1.786587739673e-04 
-1.826581066041e-04 5.861318546716e-07 0.0 
5.861318546716e-07 1.232821746468e-03 0.0 
0.0 0.0 -1.836483987139e-04 
-1.952382200043e-04 8.912494885484e-07 0.0 
8.912494885484e-07 1.308332215826e-03 0.0 
0.0 0.0 -1.941854046512e-04 
-6.737308308447e-05 5.138193223355e-07 0.0 
5.138193223355e-07 4.244241960940e-04 0.0 
0.0 0.0 -6.769213596492e-05 
-1.828682302183e-04 1.640560627373e-06 0.0 
1.640560627373e-06 1.239731587643e-03 0.0 
0.0 0.0 -1.838610959833e-04 
-1.772400966804e-04 3.904476817882e-07 0.0 
3.904476817882e-07 1.184738121319e-03 0.0 
0.0 0.0 -1.767943248163e-04 
-4.906868359316e-05 -1.133942934728e-07 0.0 
-1.133942934728e-07 2.953935878240e-04 0.0 
0.0 0.0 -4.902575320116e-05 
-6.530462737817e-05 3.585817021726e-07 0.0 
3.585817021726e-07 4.102635123792e-04 0.0 
0.0 0.0 -6.560435786130e-05 
-1.483067082024e-04 3.970804381230e-07 0.0 
3.970804381230e-07 9.886270184883e-04 0.0 
0.0 0.0 -1.484951207735e-04 
-1.367944353413e-04 -1.825561973167e-07 0.0 
-1.825561973167e-07 9.072242838815e-04 0.0 
0.0 0.0 -1.368596897040e-04 
-1.696034640066e-04 -3.607287686916e-07 0.0 
-3.607287686916e-07 1.134493911371e-03 0.0 
0.0 0.0 -1.695585677381e-04 
-1.398704134916e-04 8.561054054679e-09 0.0 
8.561054054679e-09 9.278981832241e-04 0.0 
0.0 0.0 -1.398333781397e-04 
-1.606909834555e-04 -5.100249501151e-07 0.0 
-5.100249501151e-07 1.075019221100e-03 0.0 
0.0 0.0 -1.609685038039e-04 
-1.869198009603e-04 3.460184187221e-06 0.0 
3.460184187221e-06 1.256233406915e-03 0.0 
0.0 0.0 -1.866194889163e-04 
-4.208478570565e-05 -7.076859870355e-07 0.0 
-7.076859870355e-07 2.599245066963e-04 0.0 
0.0 0.0 -4.408826043591e-05 
-1.404915308446e-04 9.501955183076e-07 0.0 
9.501955183076e-07 9.316401756296e-04 0.0 
0.0 0.0 -1.404724030559e-04 
-1.368005256677e-04 9.839857355172e-07 0.0 
9.839857355172e-07 9.063105631980e-04 0.0 
0.0 0.0 -1.369552780944e-04 
-1.614580578208e-04 -5.040207315794e-07 0.0 
-5.040207315794e-07 1.077622303329e-03 0.0 
0.0 0.0 -1.613909692546e-04 
-7.092154026938e-05 -7.271687064730e-07 0.0 
-7.271687064730e-07 4.457927222897e-04 0.0 
0.0 0.0 -7.064368720930e-05 
-1.092130498400e-04 -2.031197807860e-06 0.0 
-2.031197807860e-06 7.170877506305e-04 0.0 
0.0 0.0 -1.095638575444e-04 
-4.734326755177e-05 -7.634204257468e-07 0.0 
-7.634204257468e-07 2.775049997667e-04 0.0 
0.0 0.0 -4.656497932609e-05 
-1.872735419036e-04 6.485390613283e-07 0.0 
6.485390613283e-07 1.262586229201e-03 0.0 
0.0 0.0 -1.877191857934e-04 
-1.143324629321e-04 4.116664924937e-09 0.0 
4.116664924937e-09 7.469603610316e-04 0.0 
0.0 0.0 -1.138559328007e-04 
-1.153850895440e-04 2.798510741524e-07 0.0 
2.798510741524e-07 7.578160194775e-04 0.0 
0.0 0.0 -1.154143056347e-04 
-9.134271070788e-05 -4.241415328680e-07 0.0 
-4.241415328680e-07 5.928584725244e-04 0.0 
0.0 0.0 -9.180364234441e-05 
-7.295992473616e-05 6.931326544943e-07 0.0 
6.931326544943e-07 4.642607920090e-04 0.0 
0.0 0.0 -7.341543808938e-05 
-6.127928487910e-05 4.097090977135e-07 0.0 
4.097090977135e-07 3.818653258479e-04 0.0 
0.0 0.0 -6.151402614941e-05 
-1.048886373049e-04 7.305772282163e-07 0.0 
7.305772282163e-07 6.839939901015e-04 0.0 
0.0 0.0 -1.048536320953e-04 
-1.083489495467e-04 1.953470287276e-07 0.0 
1.953470287276e-07 7.097911034353e-04 0.0 
0.0 0.0 -1.085629762122e-04 
-1.537049609822e-04 2.480873530320e-07 0.0 
2.480873530320e-07 1.024308554960e-03 0.0 
0.0 0.0 -1.536510162914e-04 
-1.672004607334e-04 -4.138652897847e-07 0.0 
-4.138652897847e-07 1.115841044060e-03 0.0 
0.0 0.0 -1.668829017826e-04 
-1.175626501518e-05 2.653670795412e-06 0.0 
2.653670795412e-06 5.212615490244e-05 0.0 
0.0 0.0 -1.076426758597e-05 
-1.591679461113e-04 4.759781921774e-07 0.0 
4.759781921774e-07 1.063059671778e-03 0.0 
0.0 0.0 -1.592508397865e-04 
-1.282088974266e-04 -3.835691054215e-08 0.0 
-3.835691054215e-08 8.473404205640e-04 0.0 
0.0 0.0 -1.282838013392e-04 
-1.443596124248e-04 4.967652743944e-07 0.0 
4.967652743944e-07 9.572886199512e-04 0.0 
0.0 0.0 -1.439863651620e-04 
-1.598472287202e-04 -8.884907360877e-07 0.0 
-8.884907360877e-07 1.064451867688e-03 0.0 
0.0 0.0 -1.593960054358e-04 
-4.175998057522e-05 -3.447721282185e-07 0.0 
-3.447721282185e-07 2.572900811957e-04 0.0 
0.0 0.0 -4.363646550326e-05 
-1.650522666270e-04 -1.570677394041e-07 0.0 
-1.570677394041e-07 1.102136320565e-03 0.0 
0.0 0.0 -1.648121423230e-04 
-1.826232045261e-04 1.027217602921e-06 0.0 
1.027217602921e-06 1.220901163882e-03 0.0 
0.0 0.0 -1.818680320623e-04 
-1.325762676814e-04 -3.821282481616e-06 0.0 
-3.821282481616e-06 8.784259184788e-04 0.0 
0.0 0.0 -1.331264220316e-04 
-3.693963444370e-05 -7.544466628917e-07 0.0 
-7.544466628917e-07 2.092667936724e-04 0.0 
0.0 0.0 -3.663743814291e-05 
-1.313856992864e-04 7.552411984502e-07 0.0 
7.552411984502e-07 8.610864945210e-04 0.0 
0.0 0.0 -1.303870364997e-04 
-1.805690084043e-04 6.802145348003e-07 0.0 
6.802145348003e-07 1.208990479033e-03 0.0 
0.0 0.0 -1.804058984264e-04 
-1.618620090762e-04 -7.704497118794e-08 0.0 
-7.704497118794e-08 1.080863256528e-03 0.0 
0.0 0.0 -1.617330481104e-04 
-6.471559328570e-05 -1.662931831611e-06 0.0 
-1.662931831611e-06 4.062530166876e-04 0.0 
0.0 0.0 -6.504030707074e-05 
-1.192254745372e-04 -3.743731676596e-07 0.0 
-3.743731676596e-07 7.837384510995e-04 0.0 
0.0 0.0 -1.191527179664e-04 
-1.116344855219e-04 1.062141944630e-07 0.0 
1.062141944630e-07 7.298456137402e-04 0.0 
0.0 0.0 -1.114223846842e-04 
-1.018383685965e-04 -1.359407971871e-06 0.0 
-1.359407971871e-06 6.707473892556e-04 0.0 
0.0 0.0 -1.029886159366e-04 
-1.821879658306e-04 1.203703486797e-06 0.0 
1.203703486797e-06 1.214225172284e-03 0.0 
0.0 0.0 -1.809836386841e-04 
-1.227568816259e-04 -6.254739179736e-08 0.0 
-6.254739179736e-08 8.076906619440e-04 0.0 
0.0 0.0 -1.225941817511e-04 
-1.685234158846e-04 1.004345265447e-06 0.0 
1.004345265447e-06 1.124593655933e-03 0.0 
0.0 0.0 -1.680081379364e-04 
-1.385983115983e-04 -4.518781372797e-07 0.0 
-4.518781372797e-07 9.192006383534e-04 0.0 
0.0 0.0 -1.386121366338e-04 
-6.938466731060e-05 -6.198930646466e-07 0.0 
-6.198930646466e-07 4.371957454374e-04 0.0 
0.0 0.0 -6.944566544735e-05 
-1.681992938910e-04 -9.274416247642e-07 0.0 
-9.274416247642e-07 1.123747739326e-03 0.0 
0.0 0.0 -1.678379068203e-04 
-1.163255558547e-04 -2.444566148572e-07 0.0 
-2.444566148572e-07 7.630787415271e-04 0.0 
0.0 0.0 -1.161597941560e-04 
-1.747594319775e-04 -4.754811496893e-07 0.0 
-4.754811496893e-07 1.171391248362e-03 0.0 
0.0 0.0 -1.746922153459e-04 
-1.547158004377e-04 -7.908026844222e-07 0.0 
-7.908026844222e-07 1.031372856638e-03 0.0 
0.0 0.0 -1.547299964433e-04 
-9.575522477032e-05 -2.469845308842e-07 0.0 
-2.469845308842e-07 6.198169541374e-04 0.0 
0.0 0.0 -9.562808392031e-05 
-1.680741224093e-04 -8.043675432309e-07 0.0 
-8.043675432309e-07 1.125048534485e-03 0.0 
0.0 0.0 -1.681755324449e-04 
-1.167097397872e-04 2.723456768358e-07 0.0 
2.723456768358e-07 7.659716634377e-04 0.0 
0.0 0.0 -1.165963749253e-04 
-1.652487966176e-04 1.494188142168e-07 0.0 
1.494188142168e-07 1.103453328263e-03 0.0 
0.0 0.0 -1.649144376955e-04 
-1.090718422596e-04 2.524371737845e-07 0.0 
2.524371737845e-07 7.103678881211e-04 0.0 
0.0 0.0 -1.086081446058e-04 
-1.357966733163e-04 -3.457047510780e-07 0.0 
-3.457047510780e-07 8.984402994021e-04 0.0 
0.0 0.0 -1.356166455148e-04 
-1.479451278654e-04 -5.197314638619e-07 0.0 
-5.197314638619e-07 9.805721187296e-04 0.0 
0.0 0.0 -1.473637189475e-04 
-1.291946076143e-04 -2.210645520775e-08 0.0 
-2.210645520775e-08 8.530967429073e-04 0.0 
0.0 0.0 -1.291232438263e-04 
-1.429493388473e-04 2.592746297642e-06 0.0 
2.592746297642e-06 9.504562516353e-04 0.0 
0.0 0.0 -1.430149859860e-04 
-1.638426906912e-04 3.884553588315e-07 0.0 
3.884553588315e-07 1.093570341671e-03 0.0 
0.0 0.0 -1.635473777094e-04 
-4.679395941113e-05 8.636054265734e-08 0.0 
8.636054265734e-08 2.742855012463e-04 0.0 
0.0 0.0 -4.607001325828e-05 
-8.578179911004e-05 -6.161056704632e-08 0.0 
-6.161056704632e-08 5.513847511004e-04 0.0 
0.0 0.0 -8.578563835690e-05 
-1.423249179194e-04 -7.804262925553e-07 0.0 
-7.804262925553e-07 9.497515173482e-04 0.0 
0.0 0.0 -1.430477210920e-04 
-1.735818036023e-04 -9.773598649861e-07 0.0 
-9.773598649861e-07 1.155171653987e-03 0.0 
0.0 0.0 -1.725878545680e-04 
-1.836468666056e-04 1.003626260766e-06 0.0 
1.003626260766e-06 1.240389692506e-03 0.0 
0.0 0.0 -1.843994436203e-04 
-1.023143520992e-04 5.423079028455e-07 0.0 
5.423079028455e-07 6.643953733865e-04 0.0 
0.0 0.0 -1.020177412065e-04 
-1.622496068517e-04 -8.321051479419e-07 0.0 
-8.321051479419e-07 1.084090239035e-03 0.0 
0.0 0.0 -1.622365463781e-04 
-1.781376606747e-04 3.555220392374e-07 0.0 
3.555220392374e-07 1.192018732814e-03 0.0 
0.0 0.0 -1.778033526228e-04 
-1.126735395111e-04 5.522608983235e-08 0.0 
5.522608983235e-08 7.397928820176e-04 0.0 
0.0 0.0 -1.128655126259e-04 
-5.035207840853e-05 5.069616719063e-07 0.0 
5.069616719063e-07 3.007678980219e-04 0.0 
0.0 0.0 -4.999657030114e-05 
-3.927566979207e-05 -3.832849885569e-07 0.0 
-3.832849885569e-07 2.313033145196e-04 0.0 
0.0 0.0 -3.982249606560e-05 
-7.656825341724e-05 3.679510810454e-07 0.0 
3.679510810454e-07 4.857975545201e-04 0.0 
0.0 0.0 -7.638798348873e-05 
-1.174853009841e-04 -1.483166653642e-09 0.0 
-1.483166653642e-09 7.706480780895e-04 0.0 
0.0 0.0 -1.172617294919e-04 
-1.226008469953e-04 -1.659916804789e-07 0.0 
-1.659916804789e-07 8.085563299237e-04 0.0 
0.0 0.0 -1.227254861441e-04 
-1.869186648422e-04 1.288893444476e-06 0.0 
1.288893444476e-06 1.255438194585e-03 0.0 
0.0 0.0 -1.863413058393e-04 
-1.661774130078e-04 -5.668139200530e-07 0.0 
-5.668139200530e-07 1.113816736532e-03 0.0 
0.0 0.0 -1.665279681784e-04 
-1.561062454374e-04 -1.032747631753e-06 0.0 
-1.032747631753e-06 1.041295622328e-03 0.0 
0.0 0.0 -1.561285722757e-04 
-2.290814551487e-05 1.131949368258e-06 0.0 
1.131949368258e-06 1.115970032557e-04 0.0 
0.0 0.0 -2.279054486229e-05 
-1.065384879856e-04 1.371781238190e-06 0.0 
1.371781238190e-06 6.979852258937e-04 0.0 
0.0 0.0 -1.068955660026e-04 
-1.703396393732e-04 -6.320212589166e-07 0.0 
-6.320212589166e-07 1.144009893404e-03 0.0 
0.0 0.0 -1.708611002394e-04 
-1.234023393735e-04 -2.265061210127e-07 0.0 
-2.265061210127e-07 8.130545487096e-04 0.0 
0.0 0.0 -1.233545184740e-04 
-1.695777077806e-04 2.106230318132e-07 0.0 
2.106230318132e-07 1.131440026902e-03 0.0 
0.0 0.0 -1.690088035303e-04 
-1.159592254194e-04 -1.383338685156e-07 0.0 
-1.383338685156e-07 7.703209590687e-04 0.0 
0.0 0.0 -1.172687467652e-04 
-1.871117190239e-04 -1.386491014739e-06 0.0 
-1.386491014739e-06 1.261256540934e-03 0.0 
0.0 0.0 -1.874631276173e-04 
-8.657535319631e-05 1.579232664336e-06 0.0 
1.579232664336e-06 5.555478256840e-04 0.0 
0.0 0.0 -8.636364963772e-05 
-1.755150914368e-04 -6.889429931338e-07 0.0 
-6.889429931338e-07 1.176166452702e-03 0.0 
0.0 0.0 -1.753185131199e-04 
-1.573111243631e-04 1.063973160771e-06 0.0 
1.063973160771e-06 1.048972338121e-03 0.0 
0.0 0.0 -1.571178519447e-04 
-7.892866904534e-05 2.863749736169e-07 0.0 
2.863749736169e-07 5.022036140890e-04 0.0 
0.0 0.0 -7.873003997367e-05 
-1.124601082612e-04 5.668543912746e-07 0.0 
5.668543912746e-07 7.365972072198e-04 0.0 
0.0 0.0 -1.124710309571e-04 
-1.868644922347e-04 1.000849535727e-06 0.0 
1.000849535727e-06 1.255765804165e-03 0.0 
0.0 0.0 -1.865710734017e-04 
-1.676555622800e-04 3.291135704867e-07 0.0 
3.291135704867e-07 1.118261925556e-03 0.0 
0.0 0.0 -1.671813732751e-04 
-1.386017071923e-04 -1.797723160640e-07 0.0 
-1.797723160640e-07 9.191547604494e-04 0.0 
0.0 0.0 -1.386052031399e-04 
-1.179182420809e-04 -1.397755678998e-07 0.0 
-1.397755678998e-07 7.747023837777e-04 0.0 
0.0 0.0 -1.178542631832e-04 
-9.266051543288e-05 -1.427667931752e-06 0.0 
-1.427667931752e-06 5.998378060181e-04 0.0 
0.0 0.0 -9.287066260160e-05 
-1.268908472920e-04 -2.992571917759e-07 0.0 
-2.992571917759e-07 8.385766200168e-04 0.0 
0.0 0.0 -1.270155650522e-04 
-1.412610616596e-04 -7.070516204550e-07 0.0 
-7.070516204550e-07 9.356355867827e-04 0.0 
0.0 0.0 -1.409283708239e-04 
-1.952715328492e-04 2.648146111006e-07 0.0 
2.648146111006e-07 1.320373790754e-03 0.0 
0.0 0.0 -1.960333646234e-04 
-1.736029799723e-04 -4.830607358394e-07 0.0 
-4.830607358394e-07 1.152851948528e-03 0.0 
0.0 0.0 -1.722934252721e-04 
-1.452011068003e-04 -1.075773922608e-06 0.0 
-1.075773922608e-06 9.666398033647e-04 0.0 
0.0 0.0 -1.454499006876e-04 
-1.212938627555e-04 -3.882932393123e-07 0.0 
-3.882932393123e-07 7.997072957628e-04 0.0 
0.0 0.0 -1.214615911284e-04 
-1.463822189693e-04 -1.900321700036e-07 0.0 
-1.900321700036e-07 9.728037690076e-04 0.0 
0.0 0.0 -1.462476041952e-04 
-2.746226357204e-05 -9.271388711199e-07 0.0 
-9.271388711199e-07 1.571302735165e-04 0.0 
0.0 0.0 -2.955133849294e-05 
-9.672248826248e-05 7.266615167990e-07 0.0 
7.266615167990e-07 6.276593153662e-04 0.0 
0.0 0.0 -9.671433789260e-05 
-1.257056545510e-04 -4.990050790239e-07 0.0 
-4.990050790239e-07 8.296358928903e-04 0.0 
0.0 0.0 -1.257347134077e-04 
-8.071247393308e-05 8.458441046785e-08 0.0 
8.458441046785e-08 5.152581703620e-04 0.0 
0.0 0.0 -8.061844590833e-05 
-1.221886675709e-04 -7.908405440188e-08 0.0 
-7.908405440188e-08 8.040667053497e-04 0.0 
0.0 0.0 -1.220458434280e-04 
-1.840762203294e-04 1.915177188951e-06 0.0 
1.915177188951e-06 1.245437645367e-03 0.0 
0.0 0.0 -1.851416939921e-04 
-1.301442044184e-04 -3.060279266349e-07 0.0 
-3.060279266349e-07 8.596681305344e-04 0.0 
0.0 0.0 -1.300328051442e-04 
-9.031994090937e-05 -2.080257032609e-07 0.0 
-2.080257032609e-07 5.822092092616e-04 0.0 
0.0 0.0 -9.022896017931e-05 
-1.344673763446e-04 9.830708816548e-08 0.0 
9.830708816548e-08 8.894298640129e-04 0.0 
0.0 0.0 -1.343397272354e-04 
-8.268637292058e-05 -8.113913653822e-07 0.0 
-8.113913653822e-07 5.290888140562e-04 0.0 
0.0 0.0 -8.279832518349e-05 
-1.497839366065e-04 -1.523194842093e-06 0.0 
-1.523194842093e-06 9.970276981604e-04 0.0 
0.0 0.0 -1.497490155909e-04 
-1.382259707113e-04 2.110689173297e-08 0.0 
2.110689173297e-08 9.185304756848e-04 0.0 
0.0 0.0 -1.386530088269e-04 
-1.506650140695e-04 -9.263316559378e-07 0.0 
-9.263316559378e-07 1.001955608578e-03 0.0 
0.0 0.0 -1.504726885606e-04 
-3.022468714226e-05 -2.973636621545e-06 0.0 
-2.973636621545e-06 1.677942898081e-04 0.0 
0.0 0.0 -3.060483068446e-05 
-1.428673620023e-04 -2.398732156922e-07 0.0 
-2.398732156922e-07 9.482366823991e-04 0.0 
0.0 0.0 -1.427619920137e-04 
-1.726984643621e-04 1.345553639607e-06 0.0 
1.345553639607e-06 1.160671593896e-03 0.0 
0.0 0.0 -1.733128613594e-04 
-8.463363897670e-05 6.078796328986e-07 0.0 
6.078796328986e-07 5.444031302841e-04 0.0 
0.0 0.0 -8.481515710027e-05 
-1.264518580475e-04 2.684568646022e-07 0.0 
2.684568646022e-07 8.338232778496e-04 0.0 
0.0 0.0 -1.263048705811e-04 
-1.596353680421e-04 -9.131275579431e-07 0.0 
-9.131275579431e-07 1.065304755547e-03 0.0 
0.0 0.0 -1.595480372087e-04 
-7.302589173434e-05 -3.183424354861e-06 0.0 
-3.183424354861e-06 4.574500906094e-04 0.0 
0.0 0.0 -7.259764510955e-05 
-1.362250571880e-04 3.623633479400e-08 0.0 
3.623633479400e-08 9.021775671400e-04 0.0 
0.0 0.0 -1.361198740657e-04 
-1.602145110429e-04 -8.362565613447e-07 0.0 
-8.362565613447e-07 1.068772108230e-03 0.0 
0.0 0.0 -1.600932078566e-04 
-1.471273090538e-04 7.392924497516e-07 0.0 
7.392924497516e-07 9.780830439502e-04 0.0 
0.0 0.0 -1.470264431059e-04 
-1.270633471131e-04 1.102546760642e-07 0.0 
1.102546760642e-07 8.375443541897e-04 0.0 
0.0 0.0 -1.268359787636e-04 
-1.460791581632e-04 -2.407797944151e-07 0.0 
-2.407797944151e-07 9.714799924540e-04 0.0 
0.0 0.0 -1.460739326938e-04 
-7.660927585480e-05 2.589062603144e-06 0.0 
2.589062603144e-06 4.833163137169e-04 0.0 
0.0 0.0 -7.585562978697e-05 
-6.337475630904e-05 1.248073807384e-06 0.0 
1.248073807384e-06 3.958823544252e-04 0.0 
0.0 0.0 -6.357697056388e-05 
-5.388339958482e-05 2.895282728563e-07 0.0 
2.895282728563e-07 3.277752654746e-04 0.0 
0.0 0.0 -5.379270529687e-05 
-9.451957039609e-05 -2.935916480427e-07 0.0 
-2.935916480427e-07 6.114923592848e-04 0.0 
0.0 0.0 -9.441947030406e-05 
-1.655470867204e-04 -4.270866697213e-07 0.0 
-4.270866697213e-07 1.106817959118e-03 0.0 
0.0 0.0 -1.654622947108e-04 
-3.839223720892e-05 -3.449317819975e-06 0.0 
-3.449317819975e-06 2.174158836143e-04 0.0 
0.0 0.0 -3.781821007497e-05 
-1.582398840472e-04 -1.211336256148e-06 0.0 
-1.211336256148e-06 1.056196191213e-03 0.0 
0.0 0.0 -1.582347619750e-04 
-3.976493932031e-05 -1.461285902805e-06 0.0 
-1.461285902805e-06 2.310785421131e-04 0.0 
0.0 0.0 -3.990281506442e-05 
-8.912786947884e-05 -2.218013861212e-07 0.0 
-2.218013861212e-07 5.740010873261e-04 0.0 
0.0 0.0 -8.903564786089e-05 
-1.609314023663e-04 8.015374636601e-07 0.0 
8.015374636601e-07 1.078902557479e-03 0.0 
0.0 0.0 -1.615622346724e-04 
-1.398208268631e-04 -7.214897453684e-06 0.0 
-7.214897453684e-06 9.283629550766e-04 0.0 
0.0 0.0 -1.397314702741e-04 
-9.326712864409e-05 1.081123901449e-07 0.0 
1.081123901449e-07 6.029249672552e-04 0.0 
0.0 0.0 -9.316659828873e-05 
-5.971178892461e-05 1.368640181835e-06 0.0 
1.368640181835e-06 3.694230737418e-04 0.0 
0.0 0.0 -5.984927026599e-05 
-8.786689087998e-05 2.978470750166e-07 0.0 
2.978470750166e-07 5.651036338672e-04 0.0 
0.0 0.0 -8.775496813769e-05 
-1.366866866355e-04 2.012050051265e-07 0.0 
2.012050051265e-07 9.045962273325e-04 0.0 
0.0 0.0 -1.364843956035e-04 
-9.193121234076e-05 4.013204139827e-07 0.0 
4.013204139827e-07 5.938843893935e-04 0.0 
0.0 0.0 -9.187235440198e-05 
-8.634860532519e-05 5.489409565849e-07 0.0 
5.489409565849e-07 5.556459598693e-04 0.0 
0.0 0.0 -8.641257901652e-05 
-1.873076348652e-04 -8.303719696611e-07 0.0 
-8.303719696611e-07 1.255027706073e-03 0.0 
0.0 0.0 -1.864462757575e-04 
-9.029085277060e-05 7.778954920217e-07 0.0 
7.778954920217e-07 5.838501403615e-04 0.0 
0.0 0.0 -9.045572518728e-05 
-1.942906890229e-04 -1.961786413827e-06 0.0 
-1.961786413827e-06 1.320208759113e-03 0.0 
0.0 0.0 -1.958055517464e-04 
-1.946815352992e-04 -9.026625198253e-07 0.0 
-9.026625198253e-07 1.313526635210e-03 0.0 
0.0 0.0 -1.947608156509e-04 
-1.203676963192e-04 -5.252269783046e-06 0.0 
-5.252269783046e-06 7.911029022502e-04 0.0 
0.0 0.0 -1.199678325534e-04 
-6.382312409295e-05 3.317997073278e-06 0.0 
3.317997073278e-06 3.867196355365e-04 0.0 
0.0 0.0 -6.182128488093e-05 
-9.762668327602e-06 5.060945032083e-07 0.0 
5.060945032083e-07 4.694411596940e-05 0.0 
0.0 0.0 -1.015196033753e-05 
-6.438901127768e-05 -2.610876075629e-06 0.0 
-2.610876075629e-06 4.083460003589e-04 0.0 
0.0 0.0 -6.553865090092e-05 
-7.498804079240e-05 7.264952039937e-07 0.0 
7.264952039937e-07 4.774096760748e-04 0.0 
0.0 0.0 -7.520405771235e-05 
-1.574390158364e-04 7.322658693656e-08 0.0 
7.322658693656e-08 1.047023690082e-03 0.0 
0.0 0.0 -1.568628108499e-04 
-1.202462798349e-04 1.277535447616e-06 0.0 
1.277535447616e-06 7.923369076637e-04 0.0 
0.0 0.0 -1.204472570985e-04 
-6.913329999888e-05 1.518567138290e-06 0.0 
1.518567138290e-06 4.374135939075e-04 0.0 
0.0 0.0 -6.946069291118e-05 
-1.870210423738e-04 1.710341786507e-07 0.0 
1.710341786507e-07 1.262084104717e-03 0.0 
0.0 0.0 -1.875139937252e-04 
-1.961583819331e-04 -2.514147813671e-06 0.0 
-2.514147813671e-06 1.318669280984e-03 0.0 
0.0 0.0 -1.960106588935e-04 
-1.542863799404e-04 -1.786859133762e-06 0.0 
-1.786859133762e-06 1.026998591695e-03 0.0 
0.0 0.0 -1.543154520944e-04 
-1.744631732482e-04 2.018301688582e-06 0.0 
2.018301688582e-06 1.157934353510e-03 0.0 
0.0 0.0 -1.729253385307e-04 
-1.515018167516e-04 8.404198603292e-07 0.0 
8.404198603292e-07 1.010295705910e-03 0.0 
0.0 0.0 -1.515893794002e-04 
-1.789376768634e-04 -2.919640014592e-06 0.0 
-2.919640014592e-06 1.191538801034e-03 0.0 
0.0 0.0 -1.778575971036e-04 
-1.110411603683e-04 -8.342356804498e-06 0.0 
-8.342356804498e-06 7.312796766666e-04 0.0 
0.0 0.0 -1.117662927266e-04 
-1.911119346146e-05 1.280039211139e-07 0.0 
1.280039211139e-07 9.580427244612e-05 0.0 
0.0 0.0 -1.958655518621e-05 
-1.481869069540e-04 1.615226342953e-06 0.0 
1.615226342953e-06 9.850665679094e-04 0.0 
0.0 0.0 -1.481937727541e-04 
-5.301773043500e-05 1.085407750924e-06 0.0 
1.085407750924e-06 3.130804062890e-04 0.0 
0.0 0.0 -5.155996613848e-05 
-5.287064574584e-05 8.669478230715e-08 0.0 
8.669478230715e-08 3.211142711540e-04 0.0 
0.0 0.0 -5.286758958265e-05 
-4.293484566845e-05 -2.294669534039e-07 0.0 
-2.294669534039e-07 2.490277005517e-04 0.0 
0.0 0.0 -4.248609661651e-05 
-7.457102542764e-05 4.540838739860e-07 0.0 
4.540838739860e-07 4.629980056454e-04 0.0 
0.0 0.0 -7.285240290645e-05 
-2.774703220549e-05 1.104401006757e-06 0.0 
1.104401006757e-06 1.537348123985e-04 0.0 
0.0 0.0 -2.914266538000e-05 
-4.307384339748e-05 1.329013767483e-06 0.0 
1.329013767483e-06 2.553580944067e-04 0.0 
0.0 0.0 -4.333354231935e-05 
-1.879084470079e-04 -2.749275055618e-06 0.0 
-2.749275055618e-06 1.255451133352e-03 0.0 
0.0 0.0 -1.867668077911e-04 
-1.189011343897e-04 -7.099494553202e-06 0.0 
-7.099494553202e-06 7.923665314969e-04 0.0 
0.0 0.0 -1.207517460948e-04 
-1.659393230097e-04 -1.374219794473e-06 0.0 
-1.374219794473e-06 1.113429222670e-03 0.0 
0.0 0.0 -1.665613853390e-04 
-3.293815057038e-05 1.035559240217e-06 0.0 
1.035559240217e-06 1.835663013155e-04 0.0 
0.0 0.0 -3.316239960270e-05 
-1.877702954761e-04 -2.194005982338e-06 0.0 
-2.194005982338e-06 1.259619262861e-03 0.0 
0.0 0.0 -1.871049233185e-04 
-1.875538609812e-04 9.967607666470e-07 0.0 
9.967607666470e-07 1.259292980625e-03 0.0 
0.0 0.0 -1.869913167940e-04 
-1.965092283334e-04 -2.596350880128e-06 0.0 
-2.596350880128e-06 1.320494070457e-03 0.0 
0.0 0.0 -1.959374034051e-04 
-1.758179036347e-04 -4.481197506713e-07 0.0 
-4.481197506713e-07 1.181701348802e-03 0.0 
0.0 0.0 -1.764557581508e-04 
-3.270582193410e-05 -4.386817373036e-07 0.0 
-4.386817373036e-07 1.770411407639e-04 0.0 
0.0 0.0 -3.195907242369e-05 
-1.266388969174e-04 -6.538610975457e-06 0.0 
-6.538610975457e-06 8.502071903162e-04 0.0 
0.0 0.0 -1.290525119649e-04 
-1.885161697494e-04 -1.408082556477e-06 0.0 
-1.408082556477e-06 1.262346972473e-03 0.0 
0.0 0.0 -1.876241058639e-04 
-1.609443742117e-04 -4.613026983514e-07 0.0 
-4.613026983514e-07 1.083073354588e-03 0.0 
0.0 0.0 -1.620379724609e-04 
-1.949934473796e-04 8.861010983955e-06 0.0 
8.861010983955e-06 1.323301005755e-03 0.0 
0.0 0.0 -1.964977576321e-04 
-1.170915995552e-04 -2.526672373362e-07 0.0 
-2.526672373362e-07 7.818822557443e-04 0.0 
0.0 0.0 -1.196852915840e-04 
-1.881251343584e-04 1.719532540905e-06 0.0 
1.719532540905e-06 1.262091246564e-03 0.0 
0.0 0.0 -1.879162412457e-04 
-4.159837246659e-05 -1.872810599717e-06 0.0 
-1.872810599717e-06 2.367903641582e-04 0.0 
0.0 0.0 -4.105708941867e-05 
-1.880384365163e-04 2.724632523543e-06 0.0 
2.724632523543e-06 1.261692801511e-03 0.0 
0.0 0.0 -1.881249298770e-04 
-1.672657211226e-04 -3.803404194110e-07 0.0 
-3.803404194110e-07 1.114623838802e-03 0.0 
0.0 0.0 -1.665474363985e-04 
-1.318213223878e-04 4.430076983304e-06 0.0 
4.430076983304e-06 8.772776289306e-04 0.0 
0.0 0.0 -1.326022361065e-04 
-1.268048282990e-04 1.914164460218e-06 0.0 
1.914164460218e-06 8.466567585872e-04 0.0 
0.0 0.0 -1.285548941949e-04 
-1.877454760479e-04 1.284504322459e-06 0.0 
1.284504322459e-06 1.264298494462e-03 0.0 
0.0 0.0 -1.884505761775e-04 
-1.888991999446e-04 -3.702937246346e-06 0.0 
-3.702937246346e-06 1.261816131107e-03 0.0 
0.0 0.0 -1.874258164109e-04 
-2.628632611275e-05 2.399677637307e-06 0.0 
2.399677637307e-06 1.387230862011e-04 0.0 
0.0 0.0 -2.654059898772e-05 
-1.521013519928e-04 5.577678305588e-06 0.0 
5.577678305588e-06 1.024057332589e-03 0.0 
0.0 0.0 -1.536536413446e-04 
-9.055668035440e-05 -2.892025472723e-06 0.0 
-2.892025472723e-06 5.805249846311e-04 0.0 
0.0 0.0 -8.976434653209e-05 
-1.704710855302e-05 -3.458702652501e-06 0.0 
-3.458702652501e-06 8.989110359220e-05 0.0 
0.0 0.0 -1.808546165336e-05 
-1.884986873262e-04 5.724623714394e-06 0.0 
5.724623714394e-06 1.260552726885e-03 0.0 
0.0 0.0 -1.874281668734e-04 
-1.771946189262e-04 -2.402253146537e-07 0.0 
-2.402253146537e-07 1.178369612400e-03 0.0 
0.0 0.0 -1.758283601128e-04 
-1.891214672248e-04 5.594443250151e-06 0.0 
5.594443250151e-06 1.262060829366e-03 0.0 
0.0 0.0 -1.877794506222e-04 
-3.041019390796e-05 4.063728315188e-06 0.0 
4.063728315188e-06 1.568790135595e-04 0.0 
0.0 0.0 -2.929729011833e-05 
-1.923826485663e-05 2.395451325704e-06 0.0 
2.395451325704e-06 8.936390066832e-05 0.0 
0.0 0.0 -1.909551055642e-05 
-1.897110782286e-04 1.614204189851e-06 0.0 
1.614204189851e-06 1.273238434675e-03 0.0 
0.0 0.0 -1.887784298001e-04 
-1.886445185701e-04 1.051783953080e-06 0.0 
1.051783953080e-06 1.269174095551e-03 0.0 
0.0 0.0 -1.885660222491e-04 
-4.447382147791e-05 2.187152848341e-06 0.0 
2.187152848341e-06 2.726065505036e-04 0.0 
0.0 0.0 -4.552470986649e-05 
-1.972951013402e-04 -6.924320481765e-07 0.0 
-6.924320481765e-07 1.331208438024e-03 0.0 
0.0 0.0 -1.972065251748e-04 
-1.846003121508e-05 -1.622840747709e-06 0.0 
-1.622840747709e-06 8.564597044111e-05 0.0 
0.0 0.0 -1.843810201100e-05 
-1.091119861245e-04 9.275684085525e-07 0.0 
9.275684085525e-07 7.216506540820e-04 0.0 
0.0 0.0 -1.108446562541e-04 
-1.806806328908e-05 -2.788761483685e-06 0.0 
-2.788761483685e-06 9.325750213385e-05 0.0 
0.0 0.0 -1.871126948293e-05 
-1.949690694268e-04 -7.776605200528e-06 0.0 
-7.776605200528e-06 1.321740719942e-03 0.0 
0.0 0.0 -1.962797183211e-04 
-1.894401262255e-04 3.666748622647e-06 0.0 
3.666748622647e-06 1.266754761130e-03 0.0 
0.0 0.0 -1.882268625302e-04 
-9.871077405525e-05 5.581959752057e-06 0.0 
5.581959752057e-06 6.396670141167e-04 0.0 
0.0 0.0 -9.846769932235e-05 
-1.118450688366e-04 4.156485273902e-06 0.0 
4.156485273902e-06 7.411970212637e-04 0.0 
0.0 0.0 -1.131213240816e-04 
-6.675482278899e-05 2.746646028006e-06 0.0 
2.746646028006e-06 4.187062855815e-04 0.0 
0.0 0.0 -6.639636993191e-05 
-1.817394697373e-04 5.968977030046e-06 0.0 
5.968977030046e-06 1.213512747672e-03 0.0 
0.0 0.0 -1.805248368263e-04 
-2.549001927232e-05 1.681293934371e-06 0.0 
1.681293934371e-06 1.416935565870e-04 0.0 
0.0 0.0 -2.765034433090e-05 
-1.904991185222e-04 -2.176372463226e-06 0.0 
-2.176372463226e-06 1.275606109758e-03 0.0 
0.0 0.0 -1.890445337758e-04 
-1.902901370943e-04 -9.239913511013e-07 0.0 
-9.239913511013e-07 1.276413630327e-03 0.0 
0.0 0.0 -1.892125449932e-04 
-1.899738152617e-04 1.392000637091e-06 0.0 
1.392000637091e-06 1.275351249225e-03 0.0 
0.0 0.0 -1.890927655262e-04 
-1.980969591010e-04 1.747220192367e-07 0.0 
1.747220192367e-07 1.334413570643e-03 0.0 
0.0 0.0 -1.976588442224e-04 
-1.595876566451e-05 5.109996014523e-06 0.0 
5.109996014523e-06 8.560533841461e-05 0.0 
0.0 0.0 -1.829422046362e-05 
-1.907894524984e-04 -1.453289198629e-06 0.0 
-1.453289198629e-06 1.278087489939e-03 0.0 
0.0 0.0 -1.894635324722e-04 
-1.817965180967e-04 4.689820275562e-06 0.0 
4.689820275562e-06 1.212613848096e-03 0.0 
0.0 0.0 -1.803359864353e-04 
-1.117957005377e-04 6.977421344692e-06 0.0 
6.977421344692e-06 7.320600126907e-04 0.0 
0.0 0.0 -1.115961672155e-04 
-1.879277561833e-04 6.009601527580e-06 0.0 
6.009601527580e-06 1.263394424764e-03 0.0 
0.0 0.0 -1.878861552790e-04 
-8.116031042482e-05 4.154281404345e-06 0.0 
4.154281404345e-06 5.182033185543e-04 0.0 
0.0 0.0 -8.075837133452e-05 
-3.557600018319e-05 -6.705160068937e-06 0.0 
-6.705160068937e-06 2.127372360934e-04 0.0 
0.0 0.0 -3.738032741976e-05 
-1.948498336035e-04 -4.155697267809e-06 0.0 
-4.155697267809e-06 1.324960786423e-03 0.0 
0.0 0.0 -1.970235340649e-04 
-6.441570103541e-06 -6.279015523928e-07 0.0 
-6.279015523928e-07 3.480654244499e-05 0.0 
0.0 0.0 -7.946641316233e-06 
-1.120604214633e-04 -3.288397658700e-06 0.0 
-3.288397658700e-06 7.283085618337e-04 0.0 
0.0 0.0 -1.110361655408e-04 
-1.968531726492e-04 6.196640298584e-06 0.0 
6.196640298584e-06 1.326994606246e-03 0.0 
0.0 0.0 -1.970239266116e-04 
-3.317100676700e-05 -5.514460053326e-07 0.0 
-5.514460053326e-07 2.002819803963e-04 0.0 
0.0 0.0 -3.602866455310e-05 
-1.267924167818e-04 -3.909643930437e-06 0.0 
-3.909643930437e-06 8.405854862832e-04 0.0 
0.0 0.0 -1.273445728183e-04 
-1.883260687280e-04 -1.377902224743e-06 0.0 
-1.377902224743e-06 1.272138406880e-03 0.0 
0.0 0.0 -1.890317804362e-04 
-1.203896409836e-04 1.438809671102e-06 0.0 
1.438809671102e-06 7.891647527459e-04 0.0 
0.0 0.0 -1.197994443266e-04 
-1.726861375007e-04 -9.127303948545e-06 0.0 
-9.127303948545e-06 1.150354645725e-03 0.0 
0.0 0.0 -1.722668051730e-04 
-3.289244603068e-05 1.865001967380e-06 0.0 
1.865001967380e-06 1.965766441920e-04 0.0 
0.0 0.0 -3.568834104832e-05 
-5.881706171023e-06 -3.561904745218e-07 0.0 
-3.561904745218e-07 3.491879089690e-05 0.0 
0.0 0.0 -7.282502801701e-06 
-1.446887067247e-04 -6.124654101547e-06 0.0 
-6.124654101547e-06 9.637426034631e-04 0.0 
0.0 0.0 -1.450319398739e-04 
-1.900119233844e-04 5.405432627128e-06 0.0 
5.405432627128e-06 1.271140965081e-03 0.0 
0.0 0.0 -1.888071511890e-04 
-1.907231428786e-04 -2.479170288195e-06 0.0 
-2.479170288195e-06 1.279898250331e-03 0.0 
0.0 0.0 -1.895996551150e-04 
-1.374681624272e-04 5.948461411176e-06 0.0 
5.948461411176e-06 9.167037354941e-04 0.0 
0.0 0.0 -1.379940178424e-04 
-3.140963832924e-05 -6.998474457374e-06 0.0 
-6.998474457374e-06 1.796728179544e-04 0.0 
0.0 0.0 -3.246938559274e-05 
-1.841130626501e-04 1.475194732939e-06 0.0 
1.475194732939e-06 1.232968589940e-03 0.0 
0.0 0.0 -1.831558075192e-04 
-1.038243241623e-04 -4.078507790945e-07 0.0 
-4.078507790945e-07 6.921885952500e-04 0.0 
0.0 0.0 -1.059090906887e-04 
-1.833573372240e-04 -2.325322525301e-06 0.0 
-2.325322525301e-06 1.222189390314e-03 0.0 
0.0 0.0 -1.813408670945e-04 
-1.831720387608e-04 -1.195237391827e-06 0.0 
-1.195237391827e-06 1.215102366402e-03 0.0 
0.0 0.0 -1.805709848148e-04 
-8.505788794989e-06 -2.657547953589e-06 0.0 
-2.657547953589e-06 3.877580200424e-05 0.0 
0.0 0.0 -9.674067485877e-06 
-1.292364309074e-04 2.864479089253e-06 0.0 
2.864479089253e-06 8.498544276161e-04 0.0 
0.0 0.0 -1.284404431535e-04 
-1.837715794025e-05 -4.476436000323e-06 0.0 
-4.476436000323e-06 8.791465953263e-05 0.0 
0.0 0.0 -1.834574975625e-05 
-1.906256035079e-04 -2.900280215013e-06 0.0 
-2.900280215013e-06 1.276520367600e-03 0.0 
0.0 0.0 -1.895571240875e-04 
-1.101124519025e-04 -2.003731999075e-06 0.0 
-2.003731999075e-06 7.232878293546e-04 0.0 
0.0 0.0 -1.101665449339e-04 
-1.751991782833e-05 -5.037656567576e-06 0.0 
-5.037656567576e-06 1.487923325492e-04 0.0 
0.0 0.0 -2.955656298491e-05 
-2.974193989597e-05 5.604030738002e-07 0.0 
5.604030738002e-07 1.627059505933e-04 0.0 
0.0 0.0 -2.900000000000e-05 
-3.257073803526e-05 -3.215174392719e-06 0.0 
-3.215174392719e-06 2.193867322123e-04 0.0 
0.0 0.0 -3.788759349893e-05 
-3.979792889465e-05 -1.199778171411e-07 0.0 
-1.199778171411e-07 2.200789478701e-04 0.0 
0.0 0.0 -3.900000000000e-05 
-4.165891267230e-05 -4.371266864637e-06 0.0 
-4.371266864637e-06 2.889985860028e-04 0.0 
0.0 0.0 -4.790306122449e-05 
-4.964086180168e-05 -2.693060693399e-07 0.0 
-2.693060693399e-07 3.013640208770e-04 0.0 
0.0 0.0 -4.900000000000e-05 
-5.048456417060e-05 -2.929549654779e-06 0.0 
-2.929549654779e-06 3.593010990798e-04 0.0 
0.0 0.0 -5.788546288080e-05 
-5.961378635258e-05 -5.454468222937e-07 0.0 
-5.454468222937e-07 3.590027679778e-04 0.0 
0.0 0.0 -5.900000000000e-05 
-6.265158996412e-05 -5.475928741402e-06 0.0 
-5.475928741402e-06 4.290425473903e-04 0.0 
0.0 0.0 -6.790306122449e-05 
-6.948065415978e-05 -5.864688945389e-07 0.0 
-5.864688945389e-07 4.403815007264e-04 0.0 
0.0 0.0 -6.900000000000e-05 
-7.287737908661e-05 -5.356659590834e-06 0.0 
-5.356659590834e-06 4.997222128530e-04 0.0 
0.0 0.0 -7.788265306121e-05 
-7.961974967197e-05 -6.571269526957e-07 0.0 
-6.571269526957e-07 4.982209090245e-04 0.0 
0.0 0.0 -7.900000000000e-05 
-8.324861204494e-05 -5.744890109580e-06 0.0 
-5.744890109580e-06 5.692366340431e-04 0.0 
0.0 0.0 -8.790306122449e-05 
-8.930212876051e-05 1.144359831531e-06 0.0 
1.144359831531e-06 5.794802677978e-04 0.0 
0.0 0.0 -8.900000000000e-05 
-9.352423002678e-05 -5.224443985984e-06 0.0 
-5.224443985984e-06 6.401887908398e-04 0.0 
0.0 0.0 -9.787877878422e-05 
-1.009998970260e-04 5.583373135514e-06 0.0 
5.583373135514e-06 6.372022866514e-04 0.0 
0.0 0.0 -9.900000000000e-05 

SCALARS node_materi_plasti_kappa_shear float
LOOKUP_TABLE default
1.731369050501e-05
4.545550431279e-04
8.879540853347e-04
8.885778472785e-04
4.289921439406e-05
9.327668990988e-05
1.307750198866e-04
1.795624514288e-04
2.257201379956e-04
2.695509172566e-04
3.144422750007e-04
3.602182894153e-04
4.054873038985e-04
4.525148308088e-04
5.038541824834e-04
5.495995247736e-04
5.862111262393e-04
6.342650658052e-04
6.814841447557e-04
7.273130426229e-04
7.742201728224e-04
8.215906888973e-04
8.669064806701e-04
8.898091793777e-04
8.888004860446e-04
8.881476431534e-04
8.886611550675e-04
8.873292207379e-04
8.873796625284e-04
8.877145688059e-04
8.882991997087e-04
8.891081577287e-04
8.895674516380e-04
8.882569121584e-04
8.886773248083e-04
8.897614672626e-04
8.893270601288e-04
8.879317372578e-04
8.867155421258e-04
8.860750537291e-04
8.875036930769e-04
8.888199397314e-04
8.889528056051e-04
8.891193998000e-04
8.889269682470e-04
8.885711942666e-04
8.881774963459e-04
8.893558715015e-04
8.892926716099e-04
8.896475655307e-04
8.895391621796e-04
8.902345752377e-04
8.910618100376e-04
8.908268286946e-04
8.883017444198e-04
8.870033247227e-04
8.889101297818e-04
8.887178507321e-04
8.889749525521e-04
8.891814831339e-04
8.887055024058e-04
8.873576980909e-04
8.876113339264e-04
8.880420548052e-04
8.897938021992e-04
8.907165225603e-04
8.860205656141e-04
8.893069775074e-04
8.887535151655e-04
8.885180406595e-04
8.909163501419e-04
8.913403494152e-04
4.970460226215e-04
5.465414378926e-04
5.921313660911e-04
6.364287587029e-04
6.825537522220e-04
7.278134995944e-04
7.735342273326e-04
8.173136017165e-04
8.659377019958e-04
1.387818063272e-05
4.539930109995e-04
5.438054036256e-05
9.848328679852e-05
1.286994926032e-04
1.725075511252e-04
2.183476322774e-04
2.642608575334e-04
3.107394956161e-04
3.570654865108e-04
4.033178026184e-04
1.096926443784e-04
1.362380341837e-04
1.805100708743e-04
2.254865019445e-04
2.707860879461e-04
3.162883577622e-04
3.616329343761e-04
4.060157178949e-04
4.461572723987e-04
4.482375507592e-04
4.489251939510e-04
4.482810220245e-04
4.560054951225e-04
4.490487455221e-04
4.479848053994e-04
4.491487522400e-04
4.505166080725e-04
4.507339705437e-04
4.500429840668e-04
4.496777136800e-04
4.491474461797e-04
4.502737102712e-04
1.443236451681e-05
1.609184950887e-05
1.444777850682e-05
1.445196928896e-05
1.742545827470e-05
1.883427368881e-05
1.852391460304e-05
1.764215548380e-05
1.771561269883e-05
1.733046749832e-05
1.810073159380e-05
2.048990176091e-05
1.919122443325e-05
1.606222747872e-05
1.631184331598e-05
1.838276961406e-05
1.899682157401e-05
1.674761483558e-05
1.515472777583e-05
9.539244929917e-05
1.130596935979e-04
1.098405314732e-04
1.104552241588e-04
1.108812089296e-04
1.107755852608e-04
1.107703370917e-04
1.106536113346e-04
1.106140438461e-04
1.105446187208e-04
1.104944423720e-04
1.104485740816e-04
1.104214180406e-04
1.104103888553e-04
1.104192316999e-04
1.104418323070e-04
1.104683822832e-04
1.104894562402e-04
1.104983625758e-04
1.104880529452e-04
1.104490773968e-04
1.103692574102e-04
1.102363337893e-04
1.100674397688e-04
1.105110764274e-04
1.157660605669e-04
1.185638359136e-04
1.317450063700e-04
1.300557092033e-04
1.298692064916e-04
1.300895360239e-04
1.298722039598e-04
1.298782040023e-04
1.297986302856e-04
1.297480882160e-04
1.296907079062e-04
1.296511257970e-04
1.296282552404e-04
1.296305185578e-04
1.296521209985e-04
1.296795537219e-04
1.297009574791e-04
1.297096142338e-04
1.296988834258e-04
1.296612610424e-04
1.295891537710e-04
1.294801914640e-04
1.293455106666e-04
1.292521579067e-04
1.297801592430e-04
1.340221478094e-04
1.781988047114e-04
1.755201894282e-04
1.753379703646e-04
1.753848561580e-04
1.754802128008e-04
1.755724470979e-04
1.756369081575e-04
1.756680449584e-04
1.756741383737e-04
1.756617249940e-04
1.756357698326e-04
1.755973091705e-04
1.755718929635e-04
1.755821672844e-04
1.756425224492e-04
1.756937924859e-04
1.757856167632e-04
1.757854304704e-04
1.759163536534e-04
1.756787495987e-04
1.758919282271e-04
1.781750100815e-04
1.651336438905e-04
2.109708302842e-04
2.236620319499e-04
2.218312568736e-04
2.216843488834e-04
2.219428590784e-04
2.217846971553e-04
2.217415831349e-04
2.215999074723e-04
2.215541127844e-04
2.215891944876e-04
2.216558522700e-04
2.216827294030e-04
2.216923896073e-04
2.216956791642e-04
2.216811887582e-04
2.216297808589e-04
2.215409133773e-04
2.214529972215e-04
2.214107640670e-04
2.214815066151e-04
2.218511843967e-04
2.241914065437e-04
2.692547529093e-04
2.675660618296e-04
2.673934583820e-04
2.673939568732e-04
2.674585768179e-04
2.675591031638e-04
2.676459040090e-04
2.676570538580e-04
2.676372015587e-04
2.676553404665e-04
2.676764041519e-04
2.676333042631e-04
2.674812840926e-04
2.674838661980e-04
2.676204239189e-04
2.679795855057e-04
2.678105543472e-04
2.677301033404e-04
2.700799073531e-04
2.570066425718e-04
3.028056095170e-04
3.161844696852e-04
3.143201194648e-04
3.138173456820e-04
3.135666727045e-04
3.133894152578e-04
3.137072245185e-04
3.137903749499e-04
3.137552108189e-04
3.136173653508e-04
3.136276881298e-04
3.137330253685e-04
3.136250543478e-04
3.134895440990e-04
3.134087321469e-04
3.133800931571e-04
3.134342156714e-04
3.138051608859e-04
3.154278010076e-04
3.611485313111e-04
3.593958689772e-04
3.591898798686e-04
3.593297202165e-04
3.592471895824e-04
3.594265497814e-04
3.596237032014e-04
3.596571460670e-04
3.593377794373e-04
3.596684783014e-04
3.598758848307e-04
3.597552388914e-04
3.597821813941e-04
3.590976444273e-04
3.597033129801e-04
3.627706280632e-04
3.496857881406e-04
3.956894430432e-04
4.084843113251e-04
4.060961241034e-04
4.055043726269e-04
4.058070391746e-04
4.060008361141e-04
4.054675210445e-04
4.054158394705e-04
4.054705070724e-04
4.053661824669e-04
4.051783298876e-04
4.050677983318e-04
4.054138231738e-04
4.048987951044e-04
4.060536754366e-04
4.085853059390e-04
3.439412955423e-05
7.855211595373e-05
1.080821571076e-04
1.542628667609e-04
1.987126948131e-04
2.444555121765e-04
2.902585631940e-04
3.362497538655e-04
3.823052700951e-04
4.292533059372e-04
1.065540971725e-04
8.722366970816e-04
3.071877777411e-05
2.955753103127e-05
8.728796448070e-04
1.993419400918e-04
4.786993620079e-04
8.715410235367e-04
2.838574358308e-04
8.733046452917e-04
3.784478368563e-04
8.750925786310e-04
2.796371051266e-05
8.736269387387e-04
4.733271556655e-04
2.936877367691e-04
6.035474916513e-04
8.717572086583e-04
8.738199405046e-04
8.737494710065e-04
8.696287808285e-04
8.750806370792e-04
4.919558859900e-04
4.918398764198e-04
4.949307231399e-04
6.589482462508e-04
8.738674271820e-04
2.813705699443e-05
3.195365789908e-05
7.486411905949e-04
4.900146372998e-04
1.541367175474e-04
8.655890379535e-04
8.755682138923e-04
8.730973644309e-04
8.703784410466e-04
8.740973276145e-04
3.187356296986e-05
4.907091952207e-04
8.662583448289e-04
7.508115515426e-04
3.074176072344e-05
3.834518994422e-04
8.815314033999e-04
2.457863140164e-04
1.527805289882e-04
3.313833785311e-04
4.244970235113e-04
5.636808983146e-05
5.718052096935e-04
8.819662471530e-04
3.001251584579e-05
8.373343036417e-04
4.924452570696e-04
5.108818745462e-04
5.332387487364e-04
5.560142054344e-04
5.787643014481e-04
5.991259251811e-04
5.752635265182e-04
6.186942134972e-04
5.944516730932e-04
6.231926228760e-04
6.380835551574e-04
6.135840024034e-04
6.573144048118e-04
6.328089844586e-04
5.894129404993e-04
6.085043193505e-04
5.651248587261e-04
5.842235601993e-04
6.277370129424e-04
6.033008816137e-04
5.598285256637e-04
5.787470750073e-04
5.354343962972e-04
5.543066005166e-04
5.109771159406e-04
5.298843866555e-04
5.732568666387e-04
5.488106401566e-04
5.054467442157e-04
5.243830125588e-04
4.810781478793e-04
4.998224426771e-04
5.432974154275e-04
5.187745459682e-04
4.750268661506e-04
4.942061513858e-04
4.503195040673e-04
4.696890934292e-04
4.255957344176e-04
4.448505048632e-04
4.889334273357e-04
4.641717549476e-04
4.199472596373e-04
4.391094936345e-04
4.834394634788e-04
4.583112576687e-04
5.027462790146e-04
4.776197235482e-04
4.333642288832e-04
4.526081348578e-04
4.969211450957e-04
4.717210733978e-04
4.275809977385e-04
4.467222286567e-04
4.910180813087e-04
4.658552900682e-04
4.216677957086e-04
4.408729284411e-04
4.853895838457e-04
4.600318407553e-04
4.156094397672e-04
4.346988666159e-04
4.795014301536e-04
4.538188443789e-04
4.989809666093e-04
4.088754149089e-04
4.280167623936e-04
3.828819013324e-04
4.021805478245e-04
5.624042399684e-04
3.568746175437e-04
3.381624883378e-04
3.763715402787e-04
4.219792148569e-04
3.309364607346e-04
3.505799184385e-04
3.052633941202e-04
4.056941669208e-04
6.469586485139e-04
3.250320809889e-04
2.796631607038e-04
2.599302819126e-04
2.342013255709e-04
6.036748186582e-04
6.482174305303e-04
6.269535787043e-04
6.731337752938e-04
6.527067380216e-04
2.538439629180e-04
6.821261244064e-04
6.930466000944e-04
5.166862193674e-04
4.621843229341e-04
5.278976428177e-04
3.703184973447e-04
3.451321418538e-04
3.906862459586e-04
5.246371866953e-04
5.443146240762e-04
5.699547953913e-04
5.897069522284e-04
6.153672919097e-04
6.351883362805e-04
6.094609170451e-04
6.550126832138e-04
6.292102542344e-04
6.608318434088e-04
6.410047653727e-04
6.747478106556e-04
6.489569127364e-04
6.944404496434e-04
6.686255413523e-04
6.230894205853e-04
6.427296395524e-04
5.974326100299e-04
5.473118415211e-04
5.725790691740e-04
5.920079111203e-04
6.173889614791e-04
6.368362109388e-04
6.623309645012e-04
6.816599341203e-04
6.563140336921e-04
6.764880034757e-04
3.948980065668e-04
3.757422617964e-04
3.507921955189e-04
3.317100384563e-04
3.067998146490e-04
2.878591714287e-04
2.628952814348e-04
2.817770972622e-04
2.377365497028e-04
2.565509120403e-04
2.123913595215e-04
2.311386405196e-04
5.922576399657e-04
6.427827676104e-04
6.878682679612e-04
6.678822000469e-04
2.148067718258e-04
6.882180801932e-04
6.864985118878e-04
6.664359755593e-04
7.013124766121e-04
2.087760264216e-04
2.441964081010e-04
2.687157839923e-04
6.978563593589e-04
6.772610625539e-04
7.121601343833e-04
2.283568469402e-04
7.006628053783e-04
1.937776703377e-04
6.622880887680e-04
7.078272471647e-04
5.837558227301e-04
7.131417687537e-04
6.924127382572e-04
2.759772220359e-04
2.508908842006e-04
2.067202652783e-04
2.273131006144e-04
2.708850174899e-04
2.448672349258e-04
1.998980645288e-04
2.191272268305e-04
2.639108306055e-04
2.381925193768e-04
1.928266391849e-04
2.123220651939e-04
7.337275495344e-04
1.682265145296e-04
5.462050413710e-04
7.318865140830e-04
7.261568958084e-04
7.225832230558e-04
7.021288971226e-04
6.565124913041e-04
6.819655065462e-04
7.275032532752e-04
7.072262295563e-04
6.616628008332e-04
6.865235503483e-04
6.407465733666e-04
6.657182290584e-04
7.113460086993e-04
6.908411643582e-04
6.453255735266e-04
6.702622678794e-04
6.246789880058e-04
6.489319520512e-04
6.952190037192e-04
1.840273521277e-04
6.759567359458e-04
7.214607443990e-04
3.679720332759e-04
4.092817550487e-04
4.360686121868e-04
4.564588720529e-04
6.740705970757e-04
7.205777350965e-04
2.252804046805e-04
2.496360743898e-04
7.429139095365e-04
6.823424879043e-04
6.366049028177e-04
4.378451378818e-04
4.188880438556e-04
3.943752891281e-04
3.748640538969e-04
4.003452629813e-04
3.498940421147e-04
6.207438251872e-04
7.364909888472e-04
2.405871186206e-04
1.954370079604e-04
7.282805554458e-04
6.308606560243e-04
6.167686675707e-04
6.359024740525e-04
6.606418547102e-04
6.798245018957e-04
7.048195630289e-04
7.239151784800e-04
6.995250348688e-04
7.376440826471e-04
7.439657402355e-04
6.261993285558e-04
6.226819723499e-04
2.832721408126e-04
1.644730842850e-04
1.669301588230e-04
2.020973455329e-04
2.478170423544e-04
7.577119654081e-04
7.492733009352e-04
7.294398050137e-04
3.569060949548e-04
3.819409900850e-04
7.577870500628e-04
6.069742862614e-04
6.160208837845e-04
5.947078797033e-04
1.502552835389e-04
1.472236624068e-04
7.528104372185e-04
2.930236053531e-04
2.739490413792e-04
1.500905215988e-04
1.240537225359e-04
6.973593058681e-04
7.439041173789e-04
4.813505419260e-04
5.017144862583e-04
7.379119109569e-04
1.870277448814e-04
7.663141417339e-04
6.508032487137e-04
6.054849935165e-04
4.293291398523e-04
2.069471688254e-04
1.825426121622e-04
3.087667916428e-04
2.317056376954e-04
2.217281548421e-04
7.833146767017e-04
7.725249111761e-04
7.195048383756e-04
6.747855449436e-04
7.634484368176e-04
1.418552388889e-04
7.784896772250e-04
7.030108063973e-04
7.725824598691e-04
7.540604595900e-04
3.171474948001e-04
2.987852970653e-04
2.558668176592e-04
2.815832131691e-04
5.513698858348e-04
3.420076733765e-04
5.219255427951e-04
5.030668813377e-04
4.792452590639e-04
4.247335201093e-04
4.063236056300e-04
3.563244576484e-04
5.530404887445e-04
4.617109805981e-04
5.777394579271e-04
5.501611182387e-04
7.566237315057e-04
7.823745579098e-04
5.997434588477e-04
5.780237946273e-04
1.697495562144e-04
1.508805515530e-04
5.186529117619e-04
7.516991623626e-04
7.672690893153e-04
7.876001356161e-04
7.626509320592e-04
7.627778325953e-04
3.699499845101e-04
5.666666454918e-04
1.438245311811e-04
5.868006376027e-04
1.247175489974e-04
6.713548583210e-04
7.483917891977e-04
7.736774679398e-04
7.821572245300e-04
4.899015071153e-04
6.061770746778e-04
5.817931729752e-04
4.605724853742e-04
4.370223372958e-04
4.552736079605e-04
4.133656439147e-04
3.276923247088e-04
3.020339028758e-04
7.979659689173e-04
7.883460447529e-04
7.982408092041e-04
7.795524967648e-04
8.013069214063e-04
7.771428291273e-04
2.665794004091e-04
3.640873967819e-04
7.971681631113e-04
4.838853975756e-04
7.968536680470e-04
7.720983615569e-04
9.810668217613e-05
1.158569237012e-04
7.915840785144e-04
2.380574401882e-04
2.618006099049e-04
2.132008951494e-04
8.415052523991e-04
4.886663809025e-04
7.934056144555e-04
4.492884086887e-04
8.130387548701e-04
6.261760504981e-04
4.125814814439e-04
7.178732318399e-04
7.666642762268e-04
8.185709815987e-04
5.696834584242e-04
5.469719599133e-04
5.897324846543e-04
1.746640571462e-04
1.267235960322e-04
7.616042996353e-04
3.196076646027e-04
3.449992437643e-04
2.048866664362e-04
2.493062780569e-04
5.070116633323e-04
4.873520815403e-04
6.908734956118e-04
7.154878992919e-04
6.414340301825e-04
6.254037858679e-04
5.801902790572e-04
5.606256376154e-04
8.012681753723e-04
8.329963825512e-04
3.530470634913e-04
3.340524441574e-04
3.460614324759e-04
8.175524335045e-04
8.195011765415e-04
7.988609115481e-04
1.072300634752e-04
1.330632502214e-04
1.652810804939e-04
1.397493906304e-04
8.060647275400e-04
7.832275887001e-04
8.359053686964e-04
2.373558503067e-04
6.948259004067e-04
8.063839968108e-04
7.881231808626e-04
8.339301416529e-04
7.615215817857e-04
8.048887775842e-04
8.067360300635e-04
8.088210451328e-05
8.001969768968e-04
5.513628864854e-04
5.991210265794e-05
5.303750343771e-04
5.575493484435e-04
5.056018791105e-04
1.923253731113e-04
5.350945061517e-04
5.648908884563e-04
7.689491788832e-05
8.408831798945e-04
8.340401133038e-05
9.990498025281e-05
8.174634215095e-04
7.911886027123e-04
8.358366351121e-04
8.088717682168e-04
7.649515697637e-04
7.857574983214e-04
5.264350640623e-04
8.358546589260e-04
8.061222461893e-04
8.605711697752e-04
3.958089654574e-04
3.059852068258e-04
2.858172523062e-04
2.426109781750e-04
8.296191495191e-04
8.022538523192e-04
7.244602053986e-04
6.782170569491e-04
5.336023792134e-04
5.298854478294e-04
5.720377334188e-04
5.651841783924e-04
6.088002111604e-04
6.018654128492e-04
6.443068834977e-04
8.334708182106e-04
1.951336418689e-04
4.420082584187e-04
8.207982746555e-04
7.940700745776e-04
3.881584802576e-04
3.471998577605e-04
8.305993334525e-04
3.609425281377e-04
8.689143425974e-04
2.787060135920e-05
7.286647819476e-05
3.859558184678e-04
4.309545412117e-04
3.298825060451e-04
3.137520652760e-04
6.714664482733e-04
1.125731627303e-04
1.894537224626e-04
6.501544121412e-04
1.477430287242e-04
7.019854955118e-04
3.810844111669e-04
4.677711350311e-04
2.313148587081e-04
3.252238421852e-04
5.703579268460e-04
5.324043867603e-04
5.086674172278e-04
4.006419728863e-04
3.391204703335e-04
2.923835719857e-04
5.408511218791e-04
7.379651171000e-04
7.579706773122e-04
8.011548755258e-04
7.780826984350e-04
7.332840892905e-04
7.526479975870e-04
7.971803115054e-04
7.735197813416e-04
8.262472905690e-04
7.929598925790e-04
7.470527542953e-04
7.659248830045e-04
8.091032939205e-04
7.211619544472e-04
8.442167902149e-04
4.306865788467e-04
1.044765289972e-04
9.827683643382e-05
4.923540219683e-04
8.714790847238e-04
8.731736799155e-04
3.123792524490e-04
8.729287150019e-04
5.272649318487e-04
2.191398239417e-04
8.732031985156e-04
7.130087249815e-04
6.877858420163e-04
6.679067510146e-04
8.747254954737e-04
6.109742344751e-04
8.755701857100e-04
5.978551322893e-04
5.777687862342e-04
5.331862976259e-04
7.271016044260e-04
8.726832412974e-04
8.363453721647e-04
8.357287884966e-04
7.967949130083e-04
8.729311769591e-04
8.746048210339e-04
8.757603934564e-04
2.896480078818e-04
3.151536061377e-04
3.591713235696e-04
3.399576539233e-04
2.956226792121e-04
3.205301867894e-04
3.646701735677e-04
3.009725532030e-04
7.593675824400e-04
8.745186206880e-04
5.955179239956e-04
5.752952465899e-04
5.302262826699e-04
4.419860638094e-04
4.675978432361e-04
5.129738354448e-04
4.164548397465e-04
6.551879346242e-04
8.741019856414e-04
5.859901048920e-04
4.476603996913e-04
4.915230817815e-04
5.309240068605e-04
5.323700613709e-04
5.736894063965e-04
5.351590388547e-04
5.269854541203e-04
5.469085242661e-04
5.219164243980e-04
5.664660482549e-04
5.401131126200e-04
4.979524260253e-04
5.848853311671e-04
5.569185072007e-04
4.906420102381e-04
3.170448400109e-05
6.995385727615e-05
6.849074955060e-05
1.073511835087e-04
1.105991917856e-04
1.504731351132e-04
1.458387750102e-04
7.076324639262e-05
3.090762372850e-05
6.811155019588e-05
3.024275800373e-05
6.701952661023e-05
1.132561805515e-04
1.774278331148e-04
8.683268420300e-04
4.289563965157e-04
4.087467011713e-04
3.620022030675e-04
3.871398276738e-04
4.468882401977e-04
3.382483447187e-04
3.227666928477e-04
3.186373403238e-05
6.968070788243e-05
6.930431433067e-05
1.103830641038e-04
1.084283513711e-04
6.955844240917e-05
6.957251263225e-05
3.087829288754e-05
6.916668823128e-05
1.092093195758e-04
2.860096868461e-05
7.056820037004e-04
7.299566898429e-04
8.725577123160e-04
4.959692094609e-04
3.091218048916e-05
8.671852048698e-04
8.733432179252e-04
8.734531321064e-04
7.957971286484e-04
8.182028176353e-04
8.680808008300e-04
2.856246407715e-04
8.221505899075e-04
7.867365561803e-04
2.006879828875e-04
2.760157267466e-04
6.570374827172e-04
6.034788526751e-04
7.534404223277e-04
6.171445062617e-04
7.141191166494e-04
8.333331487220e-04
1.769391207037e-04
6.197356729893e-04
6.031369019689e-04
7.159815276405e-04
2.996957630434e-04
4.779314782195e-04
1.896480084331e-04
8.372249201877e-04
4.978685116583e-04
5.049912460344e-04
3.962534712183e-04
3.116673154321e-04
2.575495564398e-04
4.563132910929e-04
4.733113038568e-04
6.807420950213e-04
7.412727405057e-04
3.900894407946e-05
7.062809791721e-04
5.640134143322e-04
6.366157628327e-04
7.072992914154e-04
1.751116105001e-04
7.321461800821e-04
8.104970881191e-04
5.847505123753e-04
1.450668962481e-04
5.736378135269e-04
8.027337595558e-04
7.180376744355e-04
2.736317130801e-04
5.220914710743e-04
4.865818052908e-04
4.471177866967e-04
8.063363278817e-04
5.378993798996e-04
7.470022916029e-04
6.114026488664e-04
2.939212611736e-04
7.463767332910e-04
5.084976424556e-04
7.777626792266e-04
6.854084072495e-04
4.140791467985e-04
7.471678807682e-04
5.103813785756e-04
7.329713830172e-04
4.737289604077e-04
5.977356866437e-04
6.519892618683e-04
5.678021419543e-04
6.319192717496e-04
7.264774776897e-04
1.875624189713e-04
3.688310981205e-04
6.314501505079e-04
7.672682440834e-04
8.229065015772e-04
4.434680652511e-04
7.201561125460e-04
7.914028017314e-04
4.930979507901e-04
2.040260336769e-04
1.581177402907e-04
3.258736548738e-04
5.134927945261e-04
5.384299011222e-04
8.328361271424e-04
7.396786737532e-04
6.920128991829e-04
8.196000574170e-05
4.652440764187e-04
7.595631118992e-04
5.413940581115e-04
7.514691837904e-04
5.124079232766e-04
8.363223980306e-04
3.713304271161e-04
7.809543171496e-04
6.971423152539e-04
3.367042725643e-04
4.902204304360e-04
8.332513049421e-04
7.429330284217e-04
6.113513461743e-04
5.161141755974e-04
4.006034501526e-04
5.581912762765e-04
6.223072189553e-04
8.752979443997e-04
7.659203639430e-04
6.426709006855e-04
5.325586862055e-04
6.468672484863e-04
1.073528278852e-04
4.189303666797e-04
5.523127417924e-04
3.452338039030e-04
5.354806018552e-04
8.261173123730e-04
5.721454322879e-04
3.892915712256e-04
5.917818965199e-04
3.539736687271e-04
6.627781278346e-04
6.108539446376e-04
6.660506999495e-04
1.163652973912e-04
6.305577701447e-04
7.706780509162e-04
3.642601618824e-04
5.551389630622e-04
7.078379568633e-04
3.068275794996e-04
6.002627334512e-04
7.101300016245e-04
6.503083964526e-04
5.576201452771e-04
6.459702225838e-04
3.237473504565e-04
2.667167922262e-04
2.221184360012e-04
4.085364404529e-04
7.352038309621e-04
1.486189434307e-04
7.017840156360e-04
1.592352416656e-04
3.838129177836e-04
7.166805507109e-04
6.173636955304e-04
4.028477991315e-04
2.492989866975e-04
3.779520455053e-04
6.018674573376e-04
3.968794592392e-04
3.716672737304e-04
8.329159667528e-04
3.902334651909e-04
8.748882416506e-04
8.711247298713e-04
5.265534076551e-04
2.606176973493e-04
3.608218628589e-05
2.743663405466e-04
3.201182020186e-04
6.958586502563e-04
5.269760115519e-04
2.937831755636e-04
8.369611183303e-04
8.745831491043e-04
6.824073644152e-04
7.692285890476e-04
6.715862034514e-04
7.913186766418e-04
4.873605112046e-04
6.716351408429e-05
6.550406917342e-04
2.121979415798e-04
2.182245527634e-04
1.712289286332e-04
3.107224161433e-04
1.057301483358e-04
1.752557479945e-04
8.331013379116e-04
5.272790897640e-04
7.395202468706e-04
1.285853407158e-04
8.358234000511e-04
8.354665319098e-04
8.757509275415e-04
7.846429612781e-04
1.241570316100e-04
5.651773772313e-04
8.374854402619e-04
7.189201776621e-04
8.774612593526e-04
5.201256590730e-04
8.377629979176e-04
1.628222754370e-04
8.372912793325e-04
7.405810874684e-04
5.837048570091e-04
5.629391932633e-04
8.390585364860e-04
8.374355334258e-04
9.795501197394e-05
6.799231894058e-04
3.879757720191e-04
6.464184088928e-05
8.366012277656e-04
7.827055704325e-04
8.377349647591e-04
1.105757531249e-04
6.604595936869e-05
8.445536335797e-04
8.418018754541e-04
1.845877810614e-04
8.826549608499e-04
6.138757031092e-05
4.804799717199e-04
6.556100966196e-05
8.765991424528e-04
8.406352288090e-04
4.268003565694e-04
4.929667183317e-04
2.809817149082e-04
8.054666026434e-04
9.866382460825e-05
8.462920394623e-04
8.466481683937e-04
8.459200057126e-04
8.848347209820e-04
6.317410965350e-05
8.478579638221e-04
8.049072796093e-04
4.880930937126e-04
8.381519655459e-04
3.464907722736e-04
1.453132550396e-04
8.782340449193e-04
2.788672853684e-05
4.852288266984e-04
8.800271141742e-04
1.366420641944e-04
5.591160485789e-04
8.434724703118e-04
5.260519714094e-04
7.639465125204e-04
1.346350386641e-04
2.489926233996e-05
6.405845470091e-04
8.434966522637e-04
8.489495605041e-04
6.092101199237e-04
1.233072216685e-04
8.180905916336e-04
4.606593074043e-04
8.111203909914e-04
8.066949311417e-04
3.153365254742e-05
5.661385301693e-04
6.389298898293e-05
8.469003976225e-04
4.815533645814e-04
1.063810118024e-04
1.173513282371e-04
1.474995886566e-04
1.546977997438e-04
1.930912926159e-04
2.061381711949e-04
2.390794373089e-04
2.445931968886e-04
2.856605147877e-04
2.967755800048e-04
3.322884574065e-04
3.356786539240e-04
3.782594336362e-04
3.879906112582e-04
4.250700443092e-04
4.273709822799e-04

SCALARS node_materi_plasti_phimob float
LOOKUP_TABLE default
-5.946150143463e+01
1.566382840520e+01
2.054129498640e+01
2.013456607866e+01
-3.166957867631e+01
-6.653737323879e+00
3.482898498624e+00
9.358011309000e+00
1.277808553550e+01
1.487244897265e+01
1.637638735232e+01
1.750124310232e+01
1.832675811182e+01
1.899198967746e+01
1.953297960255e+01
1.984149151396e+01
2.003443050399e+01
2.025770655853e+01
2.040282966282e+01
2.049446138659e+01
2.055643171244e+01
2.058698696396e+01
2.057943629487e+01
2.014543537531e+01
2.014157688526e+01
2.014390690679e+01
2.014628619307e+01
2.013903663963e+01
2.014409733338e+01
2.014052489114e+01
2.014703978841e+01
2.015309887020e+01
2.015762368943e+01
2.015219517955e+01
2.016240902922e+01
2.016358492977e+01
2.017378831055e+01
2.017093851645e+01
2.017872507345e+01
2.018552658411e+01
2.019482423318e+01
2.021676512675e+01
2.023629374457e+01
2.025172597536e+01
2.026251900362e+01
2.028357458535e+01
2.030184764538e+01
2.032298232945e+01
2.034089881126e+01
2.038447159148e+01
2.038757448076e+01
2.042833168509e+01
2.044088063197e+01
2.047689799400e+01
2.047808896525e+01
2.048881378752e+01
2.050386988192e+01
2.051149938811e+01
2.052972503088e+01
2.052387067979e+01
2.053974219085e+01
2.053045443916e+01
2.054749358376e+01
2.054577507491e+01
2.053460516411e+01
2.052955362545e+01
2.055620209074e+01
2.052853561679e+01
2.054688489739e+01
2.054028424326e+01
2.053980260565e+01
2.054535599961e+01
1.654452922289e+01
1.728170084160e+01
1.786771519661e+01
1.835177962159e+01
1.877698608320e+01
1.913317612278e+01
1.945456077721e+01
1.973500216040e+01
1.998753849360e+01
-5.035603308885e+01
1.546530855771e+01
-3.117854583620e+01
-3.809463386773e+01
-3.111289648581e+01
-8.303802753533e+00
1.873589292656e+00
7.202950810971e+00
1.043833357681e+01
1.262245268658e+01
1.419958422386e+01
1.791833955873e+01
-3.342274411078e+01
-8.455900729332e+00
2.022593558343e+00
7.473739989679e+00
1.072459770921e+01
1.290422777623e+01
1.443276655496e+01
1.549979543191e+01
1.554706654472e+01
1.555272381023e+01
1.553325005144e+01
1.564577813039e+01
1.552697928926e+01
1.549521873039e+01
1.549600783772e+01
1.551106939535e+01
1.549381044858e+01
1.546439223943e+01
1.544595789083e+01
1.542506596874e+01
1.542624817022e+01
-5.359826612747e+01
-5.203365658167e+01
-5.216433296160e+01
-5.428374742744e+01
-5.627222775263e+01
-5.764792623748e+01
-5.909106683706e+01
-6.000386979093e+01
-6.022496395878e+01
-6.025343219919e+01
-5.989425915462e+01
-5.806271884857e+01
-5.900352501764e+01
-6.140617904776e+01
-6.093596585320e+01
-6.003470872519e+01
-5.991703646355e+01
-6.124048046425e+01
-6.320229023462e+01
4.016730865568e+01
-1.656744919522e+01
-5.398706532342e+01
-5.454345459457e+01
-5.445815654194e+01
-5.465911474788e+01
-5.471827446810e+01
-5.485911647933e+01
-5.496277545831e+01
-5.508601898572e+01
-5.518158506092e+01
-5.527156870571e+01
-5.533464154378e+01
-5.536514265091e+01
-5.538172628324e+01
-5.539608137383e+01
-5.540865726863e+01
-5.542025564047e+01
-5.543112616457e+01
-5.544167439533e+01
-5.545267893281e+01
-5.546541025625e+01
-5.548159062569e+01
-5.549928633135e+01
-5.533641928139e+01
-1.618307339555e+01
-3.760179571091e+01
-3.262839120976e+01
-3.472065155961e+01
-3.498190402115e+01
-3.498529049790e+01
-3.515850614121e+01
-3.527446667128e+01
-3.543534047157e+01
-3.555530047476e+01
-3.564452920749e+01
-3.571647464188e+01
-3.577420074206e+01
-3.581954588269e+01
-3.585902991783e+01
-3.589323378046e+01
-3.592335218205e+01
-3.594986729158e+01
-3.597321178643e+01
-3.599381723091e+01
-3.601193123915e+01
-3.602699256664e+01
-3.603649296407e+01
-3.602002753362e+01
-3.548225401713e+01
-3.339331579106e+01
-9.189440282983e+00
-9.263154123792e+00
-9.227513962469e+00
-9.203571280508e+00
-9.181064702470e+00
-9.159473899852e+00
-9.138256097168e+00
-9.116501334559e+00
-9.093192048143e+00
-9.067815528783e+00
-9.040165113308e+00
-9.010310327034e+00
-8.977054984898e+00
-8.940220409078e+00
-8.900096173029e+00
-8.861978894494e+00
-8.816707099783e+00
-8.764929268888e+00
-8.705908600867e+00
-8.693094096209e+00
-8.617416106116e+00
-7.835824407619e+00
-9.963174894902e+00
1.084175834730e+00
2.219898040135e+00
1.885648127126e+00
1.865393450551e+00
1.880473911955e+00
1.870288784440e+00
1.865885176956e+00
1.852925425787e+00
1.842670688844e+00
1.833954899151e+00
1.826694185871e+00
1.818223028483e+00
1.809615379127e+00
1.801465689412e+00
1.793405804129e+00
1.784623926825e+00
1.774562706519e+00
1.763979327741e+00
1.754432566795e+00
1.754098436003e+00
1.836194518486e+00
2.080051096226e+00
7.353647512437e+00
7.339445725909e+00
7.338257564409e+00
7.339185494711e+00
7.341581572530e+00
7.344114887725e+00
7.345422800797e+00
7.344010165619e+00
7.341291427724e+00
7.338938598343e+00
7.335915341418e+00
7.330223568803e+00
7.320706024231e+00
7.314352877463e+00
7.309848882273e+00
7.309597263754e+00
7.293108004974e+00
7.283680353258e+00
7.465369200153e+00
6.744446319471e+00
1.013141085011e+01
1.063524338519e+01
1.054255786296e+01
1.054660584026e+01
1.055627359741e+01
1.056721542770e+01
1.058750811642e+01
1.060226407744e+01
1.061322669322e+01
1.062068975496e+01
1.062982799031e+01
1.063995515199e+01
1.064455697420e+01
1.064721168593e+01
1.064988570007e+01
1.065275344843e+01
1.065794915703e+01
1.068328114420e+01
1.074223485555e+01
1.287464807945e+01
1.285988621856e+01
1.285350504048e+01
1.285075920736e+01
1.284287143562e+01
1.283813276403e+01
1.283222064627e+01
1.282219115923e+01
1.280535545521e+01
1.279776504712e+01
1.278657351010e+01
1.276861699764e+01
1.275207625278e+01
1.272508661459e+01
1.271727449810e+01
1.279087534821e+01
1.241919560707e+01
1.404663695550e+01
1.433364914997e+01
1.429281045682e+01
1.430216154798e+01
1.432320081891e+01
1.434233397393e+01
1.435113042122e+01
1.436446606932e+01
1.437598320851e+01
1.438739713927e+01
1.439478350164e+01
1.440179878074e+01
1.441368698603e+01
1.441354728026e+01
1.443659500459e+01
1.447596031054e+01
-3.908141055634e+01
-2.908495717211e+01
-1.614080951389e+01
-1.449205337558e+01
-1.211701189820e+00
5.421558418457e+00
9.289054746188e+00
1.181250271055e+01
1.359479763991e+01
1.493380885974e+01
-1.708710493911e+01
2.050326215087e+01
-4.073750297490e+01
-4.025397716337e+01
2.058219307816e+01
-1.653349418333e+00
1.929238094568e+01
2.037012068010e+01
8.728806030033e+00
2.021281882417e+01
1.337001004809e+01
2.056660220364e+01
-4.158980325895e+01
2.012833309207e+01
1.584908798932e+01
1.574912494232e+01
2.014360613270e+01
2.006739536057e+01
2.005315021828e+01
2.004291720502e+01
2.001705111449e+01
2.005190116223e+01
1.627287403832e+01
1.634215170278e+01
1.642960270850e+01
1.857154070682e+01
2.057452737778e+01
-4.046482041436e+01
-3.975554220379e+01
2.052720297195e+01
1.637812468598e+01
6.815584092160e+00
2.002050859242e+01
2.030088953921e+01
2.016880331800e+01
2.044674387769e+01
2.055457141253e+01
-3.981382045969e+01
1.628020576435e+01
2.059585988555e+01
1.929962267191e+01
-4.001766779181e+01
1.796156021159e+01
2.007855066017e+01
5.178391601141e+00
-1.253873153427e+01
1.146649187912e+01
1.475207085173e+01
-2.767342913198e+01
1.762510550148e+01
2.058011308539e+01
-4.143870825065e+01
1.984944896143e+01
1.625924382419e+01
1.658600268213e+01
1.693368732173e+01
1.725935138699e+01
1.757721837505e+01
1.781965592431e+01
1.752126862940e+01
1.804500187912e+01
1.777014638157e+01
1.809165250054e+01
1.826259669322e+01
1.800868170959e+01
1.847145237350e+01
1.823981713599e+01
1.773989053442e+01
1.799655452301e+01
1.745137359697e+01
1.773901662565e+01
1.824442349437e+01
1.801554532539e+01
1.746699953903e+01
1.777694174818e+01
1.718049053686e+01
1.753022796294e+01
1.687868296604e+01
1.727632289494e+01
1.786215629539e+01
1.764919879135e+01
1.701714809865e+01
1.743566585238e+01
1.675574900199e+01
1.722196295377e+01
1.781811295934e+01
1.765079583249e+01
1.701604167282e+01
1.760116151411e+01
1.695067359621e+01
1.767488834503e+01
1.703953856460e+01
1.777344653314e+01
1.827603671977e+01
1.836535245588e+01
1.787228551413e+01
1.843170618198e+01
1.883903871247e+01
1.887327137048e+01
1.921814278272e+01
1.922434602380e+01
1.885130312669e+01
1.917343752926e+01
1.950377242831e+01
1.943087940635e+01
1.904472592172e+01
1.928787363363e+01
1.964010576378e+01
1.948782891180e+01
1.906013154983e+01
1.926468911433e+01
1.965684718921e+01
1.943933199117e+01
1.895728816046e+01
1.915062258316e+01
1.959211532506e+01
1.932141479775e+01
1.972454077897e+01
1.877921012443e+01
1.898388052110e+01
1.831812450529e+01
1.857227840579e+01
1.817456215097e+01
1.776117807122e+01
1.741578408866e+01
1.808260711589e+01
1.880653896175e+01
1.710254971430e+01
1.750584894253e+01
1.632804844066e+01
1.612800593274e+01
1.848345804282e+01
1.683366251374e+01
1.541506521367e+01
1.467163228112e+01
1.337001461201e+01
1.786980750649e+01
1.835609539844e+01
1.814030328176e+01
1.860034811867e+01
1.841079063396e+01
1.430620015504e+01
1.869396972286e+01
1.877766745907e+01
1.681513109937e+01
1.624163142062e+01
1.917522267840e+01
1.786137412515e+01
1.727674234368e+01
1.819439295831e+01
1.992106843117e+01
2.002383249410e+01
2.016442935282e+01
2.024340756809e+01
2.034174839471e+01
2.040138380371e+01
2.030860744475e+01
2.044859475826e+01
2.036236837321e+01
2.046723013543e+01
2.041126654842e+01
2.048442224013e+01
2.040600133455e+01
2.050976121460e+01
2.044052235521e+01
2.030638297110e+01
2.035319242535e+01
2.018618968189e+01
1.950158562562e+01
1.945856839317e+01
1.973804242746e+01
1.969936655259e+01
1.993623086512e+01
1.990500640566e+01
2.010257306079e+01
2.012573847492e+01
1.867373335013e+01
1.792979507279e+01
1.726419575094e+01
1.729345423696e+01
1.649444645495e+01
1.644913865678e+01
1.547386441199e+01
1.524738587571e+01
1.614559487729e+01
1.457220187279e+01
1.547009808210e+01
1.330014394723e+01
1.432994349227e+01
1.817435235639e+01
1.965839242735e+01
1.987316593981e+01
1.961991794532e+01
1.225647910245e+01
2.046737273560e+01
2.051054557849e+01
2.045483520171e+01
2.025925908868e+01
1.179681597123e+01
1.401750223363e+01
1.411603836004e+01
1.882630030644e+01
1.865121087224e+01
2.053342345300e+01
1.297493835673e+01
2.054327395321e+01
1.194817455757e+01
2.039141891776e+01
2.049069789980e+01
2.018692716083e+01
1.984638222279e+01
1.959222674870e+01
1.618184033317e+01
1.519321085941e+01
1.274526219237e+01
1.383829954209e+01
1.591293703473e+01
1.467491594441e+01
1.190205759268e+01
1.309040943648e+01
1.542197080574e+01
1.408397801995e+01
1.098703511354e+01
1.238535267850e+01
2.054186815788e+01
9.493270999409e+00
1.715457652626e+01
2.057301251217e+01
2.023840881289e+01
1.903638623820e+01
1.887588274035e+01
1.846652159152e+01
1.870904683112e+01
1.908714638884e+01
1.893178441433e+01
1.853186384649e+01
1.876526567421e+01
1.833856490950e+01
1.858791385458e+01
1.898034010423e+01
1.881772536759e+01
1.840177495698e+01
1.864454143153e+01
1.820048549172e+01
1.845400261232e+01
1.886680129397e+01
9.862790259748e+00
2.027658105172e+01
2.038423316166e+01
1.772931709179e+01
1.848395296852e+01
1.887806595252e+01
1.907898832165e+01
1.868849725879e+01
1.907602279001e+01
1.223960150880e+01
1.217621242992e+01
1.919023557710e+01
2.042876234501e+01
2.030093755481e+01
1.591175551433e+01
1.526384385416e+01
1.482709767917e+01
1.396347427736e+01
1.455688219666e+01
1.334045114122e+01
2.033683721708e+01
1.918083284113e+01
1.380553604545e+01
1.088375761700e+01
2.051955438830e+01
2.014269262523e+01
1.835408686160e+01
1.861937846842e+01
1.877558320353e+01
1.900261326787e+01
1.914155081279e+01
1.933688969128e+01
1.921594264335e+01
1.982784962713e+01
1.952124459865e+01
1.823558189072e+01
1.935733607583e+01
1.606718502168e+01
8.001367471970e+00
8.274591184277e+00
1.129448472608e+01
1.396194912438e+01
2.057991725243e+01
1.946249433797e+01
1.927979488208e+01
1.305637414376e+01
1.380607194597e+01
2.003000839158e+01
1.792348622730e+01
1.806820470639e+01
1.784047270222e+01
6.523981561860e+00
6.058091896519e+00
1.928209204850e+01
1.394944879892e+01
1.194816985505e+01
7.130711192521e+00
2.399406510804e+00
1.889697193972e+01
1.925203667631e+01
1.936564250165e+01
1.953529467724e+01
2.053892488181e+01
1.025649555813e+01
1.940419134528e+01
2.028622004951e+01
2.014241787567e+01
1.869668224980e+01
9.601298979538e+00
9.282820223238e+00
1.697118337264e+01
1.352172262516e+01
1.256061764028e+01
2.057662949753e+01
1.941708401472e+01
1.941398462605e+01
1.909754696770e+01
1.968748936601e+01
4.800235200961e+00
2.061181239284e+01
2.047246946785e+01
1.958123783461e+01
1.941859458770e+01
1.374928737144e+01
1.210511997016e+01
9.564395649202e+00
1.037260512202e+01
1.720001945585e+01
1.387991520313e+01
1.680776379385e+01
1.645878644786e+01
1.603911552127e+01
1.508448923780e+01
1.446005885390e+01
1.639171912885e+01
1.911455750431e+01
1.920846521001e+01
2.011451297419e+01
2.006823476460e+01
1.932284290347e+01
1.950198712639e+01
1.791590433485e+01
1.766522240858e+01
8.467183475408e+00
6.210599620394e+00
1.984173332796e+01
2.060292325442e+01
1.937415294650e+01
1.951237969601e+01
1.933525670733e+01
2.052954150953e+01
1.789965599707e+01
1.976398767085e+01
5.909307482893e+00
1.831387139773e+01
2.118486922039e+00
1.867917629189e+01
2.053520058497e+01
2.056544537780e+01
2.003162321109e+01
1.618906164527e+01
1.861571724487e+01
1.858384498779e+01
1.562467314465e+01
1.510584528904e+01
1.557484994508e+01
1.451681161334e+01
1.739161513114e+01
1.660209117958e+01
1.976493525267e+01
1.978445974199e+01
1.970806174753e+01
1.955465723516e+01
2.017336069385e+01
2.018894079500e+01
1.479703837911e+01
1.303016786184e+01
1.958416679145e+01
1.608906348416e+01
2.062225863621e+01
2.061701811454e+01
-4.181940773634e+00
3.231852042969e-01
1.956783231844e+01
6.808685749432e+00
8.200240743192e+00
5.621909202696e+00
2.057396630938e+01
1.635928568860e+01
2.055708793098e+01
1.557619181158e+01
1.969766836836e+01
1.896596546835e+01
1.556093457183e+01
2.048146000931e+01
1.940674826813e+01
1.973315418134e+01
1.751660156410e+01
1.723225786560e+01
1.775572395072e+01
1.005355528772e+01
2.795958625093e+00
1.936685972673e+01
1.662133391746e+01
1.725674146203e+01
1.168867940269e+01
1.438319918830e+01
1.962887815039e+01
1.949684736975e+01
1.888853080006e+01
1.906009553316e+01
1.853392435021e+01
2.027420832485e+01
2.011482853917e+01
1.995867630794e+01
1.962515236893e+01
1.981004811856e+01
1.801351814037e+01
1.767108914819e+01
1.774241653139e+01
1.970840810664e+01
2.058574353041e+01
2.059535915198e+01
-1.999825276632e+00
3.164255239995e+00
5.374623079092e+00
3.929336868005e+00
1.963979339544e+01
1.947896798649e+01
1.981615543059e+01
1.341888424813e+01
1.932214212547e+01
2.055459252585e+01
2.052748434904e+01
2.058522309225e+01
1.983299817731e+01
2.006812740450e+01
1.993945307370e+01
-1.103234616942e+01
1.963485564844e+01
1.730185270607e+01
-1.981727911466e+01
1.700584952144e+01
1.739854650927e+01
1.663837710786e+01
1.054520264825e+01
1.704298695200e+01
1.742416235636e+01
-1.138911452423e+01
1.985838958994e+01
-9.136675245788e+00
-3.260130989605e+00
2.060768874251e+01
2.061527331437e+01
2.061585869724e+01
2.061578271115e+01
2.060026276527e+01
2.060200081629e+01
1.691373139287e+01
2.059371390932e+01
2.059045827287e+01
2.061144277898e+01
1.396020735148e+01
1.125609236208e+01
9.597161856399e+00
5.513422605914e+00
1.987425330412e+01
1.968388399793e+01
2.050118445563e+01
2.040978497887e+01
1.706917683283e+01
1.704017130013e+01
1.761743070787e+01
1.754984546992e+01
1.805217048917e+01
1.797633239570e+01
1.842316416857e+01
2.002948414096e+01
6.364154124630e-01
1.519215457079e+01
2.031247304186e+01
2.032880522539e+01
1.381086884140e+01
1.225311005782e+01
2.062117777858e+01
1.508346015602e+01
2.000974160680e+01
-4.110166211320e+01
-1.474989695685e+01
1.519327433761e+01
1.505163531297e+01
1.214625431226e+01
1.103792478694e+01
2.039638010947e+01
-5.068679155783e-01
5.460573955527e+00
1.846458648315e+01
-1.582067373292e+00
2.045195787718e+01
1.624514972375e+01
1.608109083758e+01
9.395863072211e+00
1.271745276161e+01
1.747474920190e+01
1.691407577784e+01
1.652608637312e+01
1.715793576119e+01
1.210370601431e+01
9.444652283678e+00
1.714330973415e+01
1.914883071655e+01
1.930230465394e+01
1.960684288232e+01
1.944853974910e+01
1.911466464605e+01
1.927031444279e+01
1.959133252120e+01
1.942823137843e+01
1.978267974832e+01
1.957975931597e+01
1.924921938056e+01
1.940723375982e+01
1.969652111964e+01
1.905998263644e+01
2.031830163028e+01
1.621806105846e+01
-2.640425690311e+00
-5.029514885602e+00
1.646203817483e+01
2.005958359961e+01
2.004930148047e+01
1.541751408065e+01
2.014150058599e+01
1.684542251178e+01
1.337570789417e+01
2.018845738139e+01
1.894795823158e+01
1.873168307183e+01
1.854656762196e+01
2.005106901357e+01
1.799486160295e+01
2.033319334476e+01
1.940758217938e+01
1.905154623102e+01
1.869555136152e+01
1.908051567584e+01
2.048996167625e+01
2.047373068087e+01
2.050103567769e+01
2.046073540999e+01
2.053107115138e+01
2.010278401237e+01
2.012608924278e+01
1.647912792956e+01
1.727208884138e+01
1.818295566837e+01
1.781921127869e+01
1.678095775972e+01
1.737406616049e+01
1.817492689405e+01
1.682846121544e+01
1.939324021143e+01
2.056609178643e+01
2.026693123005e+01
2.017211074364e+01
1.995129054319e+01
1.902033204620e+01
1.934425725783e+01
1.974160934774e+01
1.864303849682e+01
1.886725986850e+01
2.057120144526e+01
1.997415519169e+01
1.917216752326e+01
1.628202728017e+01
1.693531368599e+01
1.693175969683e+01
1.752656134582e+01
1.700663245770e+01
1.975759502878e+01
1.987479009552e+01
1.967986132749e+01
1.997266798398e+01
1.978814228690e+01
1.945373577876e+01
2.004830795959e+01
1.988436461516e+01
1.629948425071e+01
-3.939997370173e+01
-1.328470075161e+01
-1.374493138274e+01
-1.149427004841e+00
-2.721948003406e-01
6.793390397795e+00
6.309072925352e+00
-1.346387759624e+01
-4.040536532189e+01
-1.380769073707e+01
-4.071857124865e+01
-1.418577373559e+01
-1.217305602142e-01
9.290390428456e+00
2.058729198448e+01
1.868826419643e+01
1.840235198729e+01
1.756626911511e+01
1.805612981995e+01
1.896545916983e+01
1.701836338881e+01
1.660668794861e+01
-3.976057006231e+01
-1.269005961678e+01
-1.454458184060e+01
-1.670943418023e-01
-3.958241972791e-01
-1.258488922810e+01
-1.267416915134e+01
-4.012272252700e+01
-1.302042438397e+01
-1.293213215246e-01
-4.125950214524e+01
1.896453522901e+01
1.916053270846e+01
2.059140269578e+01
1.641727603056e+01
-4.028747124414e+01
2.000249603211e+01
2.003667183717e+01
2.003947654085e+01
2.056948393035e+01
2.056979900780e+01
2.001314891441e+01
1.574367635845e+01
1.973061516301e+01
1.953936525931e+01
1.171018040935e+01
1.561870862241e+01
2.035423573182e+01
2.025131214853e+01
2.056024278270e+01
2.024941672666e+01
2.052766479751e+01
2.054857924307e+01
9.228724797920e+00
1.813154808165e+01
1.797393292681e+01
1.902924455167e+01
1.606380184230e+01
1.929030610549e+01
1.036886836207e+01
1.997680608294e+01
1.643414773842e+01
1.979999236615e+01
1.837387990113e+01
1.664815812895e+01
1.493559700513e+01
1.648884486221e+01
1.947634788060e+01
2.051098382145e+01
1.922623118310e+01
-3.596911005991e+01
2.055084753496e+01
2.011163543322e+01
1.827678871834e+01
2.007911700711e+01
9.442818913751e+00
1.913551204934e+01
1.966800475767e+01
1.768382814990e+01
5.389965046402e+00
1.759397341886e+01
2.059709209501e+01
1.899129169036e+01
1.510192205489e+01
1.952188014067e+01
1.656451690500e+01
1.531259770476e+01
1.966231917513e+01
1.813444108216e+01
2.036910765409e+01
1.996274122509e+01
1.580035211143e+01
2.059978239050e+01
1.877231012064e+01
1.946048472499e+01
1.893228210973e+01
1.844542826965e+01
1.923265031914e+01
1.981032009780e+01
2.005451412392e+01
1.602704159106e+01
1.807286801516e+01
1.846275138401e+01
1.799554904534e+01
2.026244474708e+01
2.058251865899e+01
1.135800454974e+01
1.435739789818e+01
1.820620809249e+01
1.962869975026e+01
1.974360694212e+01
1.568329608036e+01
2.056154963260e+01
1.954547702995e+01
1.961628513027e+01
1.148211326504e+01
7.833736584704e+00
1.717332393003e+01
1.819303893469e+01
1.994491893923e+01
1.980090566260e+01
2.056967888503e+01
2.047578355848e+01
-2.007030865596e+01
1.571031598889e+01
2.057557851193e+01
1.976475618771e+01
2.021981747242e+01
1.956003508487e+01
2.000061667993e+01
1.317115350026e+01
2.059251586172e+01
2.039776020942e+01
1.524536115396e+01
1.638034018759e+01
2.060026078380e+01
2.047793391880e+01
1.846532592955e+01
1.972708184242e+01
1.409306812416e+01
2.003502263533e+01
1.828030889086e+01
2.005310589228e+01
2.046563927289e+01
1.829895172424e+01
1.985054362321e+01
1.931669799173e+01
-4.612122457801e-01
1.461588325158e+01
1.995156943222e+01
1.773193350505e+01
1.990820765229e+01
2.020471075396e+01
2.004372281744e+01
1.837193078341e+01
2.012451258588e+01
1.248023720259e+01
1.850253337904e+01
2.018766125049e+01
1.871229912959e+01
4.840043010088e-01
1.873410736178e+01
2.054814159456e+01
1.804535259303e+01
2.005446022537e+01
1.891128205995e+01
1.021514443981e+01
2.023887474984e+01
1.908874204678e+01
1.899261689666e+01
1.862871540655e+01
2.037723787062e+01
1.120476791863e+01
1.508989513663e+01
1.282602301975e+01
1.874573124955e+01
1.924395055424e+01
6.230129267591e+00
1.888059080224e+01
7.257690588349e+00
1.853041374862e+01
1.958239261310e+01
1.814236668952e+01
1.882056537380e+01
1.403190764132e+01
1.848268506322e+01
1.899833510097e+01
1.873917310430e+01
1.830402524447e+01
1.981556853348e+01
1.855508440742e+01
2.004300627050e+01
2.057444490348e+01
1.697390354150e+01
6.691213241732e+00
-3.718982670727e+01
8.474767294600e+00
1.704039846650e+01
1.886927104409e+01
1.699656455641e+01
1.616571647785e+01
1.986359997747e+01
2.026175169646e+01
1.877699265071e+01
2.034748944617e+01
1.929820302125e+01
1.958075608212e+01
1.629707319715e+01
-1.406949181087e+01
2.033466326107e+01
8.772670204012e-01
3.169115501108e+00
-1.335912567545e+00
1.634090522402e+01
-1.411945953730e+00
-6.579587361903e+00
2.042607928485e+01
1.693672827681e+01
1.960557938023e+01
-1.759766457209e+01
1.982070692130e+01
2.013727447788e+01
2.059407929806e+01
1.987218972155e+01
-3.056302260947e+00
1.742816176556e+01
1.995286259875e+01
1.906339873281e+01
2.056679785924e+01
1.681790356192e+01
1.985081774239e+01
8.769370624888e+00
1.985521399915e+01
1.923246703067e+01
1.774441936840e+01
1.737950286767e+01
2.056751274754e+01
1.984838668136e+01
-7.582057351670e+00
1.874596818728e+01
1.811583811650e+01
-1.673062258478e+01
2.062069046691e+01
1.954413360022e+01
2.060054895248e+01
-3.861017964715e-01
-1.543789176435e+01
2.061012531670e+01
1.992528886377e+01
1.067712980700e+01
2.008394937291e+01
-2.062132491764e+01
1.617836852300e+01
-1.475813730193e+01
2.056360281309e+01
1.985877186915e+01
1.868602368255e+01
1.627778774221e+01
1.531347734040e+01
1.985258058250e+01
-3.068319408275e+00
1.988798351194e+01
2.058327735938e+01
1.987941909158e+01
2.044876643317e+01
-1.821588610721e+01
2.014502463180e+01
2.051832361724e+01
1.630719754084e+01
1.984467579997e+01
1.724177807399e+01
5.838567213291e+00
2.006662298068e+01
-4.585888746336e+01
1.628300131981e+01
2.056687619732e+01
4.923243234182e+00
1.745158153212e+01
1.991864382061e+01
1.968056623945e+01
1.940856619305e+01
4.580190242776e+00
-4.156515800533e+01
1.838757354799e+01
2.024659251056e+01
1.989387567652e+01
1.804437577350e+01
2.011375700080e+00
1.976906463952e+01
1.905686907004e+01
1.980865494519e+01
2.042820488403e+01
-3.945178163235e+01
1.995349890961e+01
-1.632735196964e+01
2.061353755690e+01
1.930096012367e+01
2.154624316604e+01
-1.331240775377e+01
-1.817348291178e+01
-1.749939010941e+01
-2.562607656190e+00
-1.557490511559e+00
4.714295090673e+00
5.156233815900e+00
8.853797783769e+00
9.450846342074e+00
1.152602308695e+01
1.190381921750e+01
1.338798217683e+01
1.380714518677e+01
1.477659544343e+01
1.506682298038e+01

SCALARS node_materi_stress_average_a_sig float
LOOKUP_TABLE default
-5.362258913175e+00
-9.806408571244e+01
-2.360783597720e+02
-2.133460995562e+02
-1.263448364796e+01
-2.419436822869e+01
-3.514761750828e+01
-4.766692293152e+01
-5.964755308488e+01
-7.158394978408e+01
-8.348459457007e+01
-9.536996646735e+01
-1.073042786616e+02
-1.193397818298e+02
-1.316844045458e+02
-1.438450293689e+02
-1.549823581541e+02
-1.671347411169e+02
-1.796958337226e+02
-1.919317512362e+02
-2.042896714433e+02
-2.167908523875e+02
-2.288024433813e+02
-2.140303999066e+02
-2.133405720385e+02
-2.135198350583e+02
-2.135045917929e+02
-2.131514256005e+02
-2.135956408593e+02
-2.138495541424e+02
-2.136408553147e+02
-2.142098864416e+02
-2.142614731998e+02
-2.140235566310e+02
-2.145306919764e+02
-2.150722049465e+02
-2.150045787180e+02
-2.151878800499e+02
-2.150240590847e+02
-2.153316213575e+02
-2.163305103324e+02
-2.170628449600e+02
-2.178616846887e+02
-2.184443839976e+02
-2.191275702214e+02
-2.198611247371e+02
-2.206734583068e+02
-2.217083795617e+02
-2.228530920502e+02
-2.238229556932e+02
-2.249632692876e+02
-2.257872343194e+02
-2.272414533542e+02
-2.280376652829e+02
-2.284053760826e+02
-2.293567388950e+02
-2.304049229717e+02
-2.313067792307e+02
-2.320530442878e+02
-2.328572690222e+02
-2.332490734891e+02
-2.336722981223e+02
-2.338466365570e+02
-2.344973228664e+02
-2.354806484669e+02
-2.359705041529e+02
-2.345717148493e+02
-2.361878902213e+02
-2.357550600675e+02
-2.362194324383e+02
-2.367295354533e+02
-2.367001816693e+02
-1.104323871142e+02
-1.225258622511e+02
-1.345783911305e+02
-1.463557319184e+02
-1.583687902177e+02
-1.705026068823e+02
-1.823752369907e+02
-1.941629541087e+02
-2.062924519170e+02
-6.940412186986e+00
-9.948279363273e+01
-9.509533133344e+00
-8.725501775487e+00
-1.330173165530e+01
-2.547258703550e+01
-3.801337927557e+01
-5.051758330351e+01
-6.268243929828e+01
-7.480303236212e+01
-8.687915112934e+01
-5.675036526923e+00
-1.297209383300e+01
-2.502837797111e+01
-3.714733122454e+01
-4.927991760311e+01
-6.142247577364e+01
-7.355365516068e+01
-8.562983091417e+01
-9.655172810825e+01
-9.734521937928e+01
-9.735835645801e+01
-9.725143036991e+01
-9.896057451366e+01
-9.752662417132e+01
-9.751108772479e+01
-9.766120146719e+01
-9.795029020833e+01
-9.796872989467e+01
-9.807132785254e+01
-9.812664817477e+01
-9.834774556543e+01
-9.870234790557e+01
-7.204615624580e+00
-7.996107087708e+00
-7.773334036678e+00
-7.455594926397e+00
-7.542919987170e+00
-7.441809300560e+00
-7.120137669991e+00
-6.800782668622e+00
-6.527777551653e+00
-6.311622890219e+00
-6.138247698268e+00
-6.307661489240e+00
-5.913442754197e+00
-5.296230897842e+00
-5.198989683313e+00
-5.213483839952e+00
-5.127956251421e+00
-4.859923940510e+00
-4.548481680053e+00
-2.708167677953e+00
-4.577767919374e+00
-4.644845824027e+00
-4.388909719764e+00
-4.450910131630e+00
-4.527432537665e+00
-4.691993019986e+00
-4.862721457691e+00
-5.051980293899e+00
-5.237639262925e+00
-5.419609253809e+00
-5.591270874607e+00
-5.751271969952e+00
-5.897471664019e+00
-6.029470480356e+00
-6.147310675196e+00
-6.251596855702e+00
-6.342957417358e+00
-6.421966592428e+00
-6.488885361281e+00
-6.543434848465e+00
-6.584416814492e+00
-6.609233751291e+00
-6.614501135311e+00
-6.646752741696e+00
-6.631755047375e+00
-1.084565741149e+01
-1.268863046229e+01
-1.171622609951e+01
-1.150827608193e+01
-1.151180578572e+01
-1.152177901194e+01
-1.160021483986e+01
-1.168765856152e+01
-1.179476715448e+01
-1.190372418105e+01
-1.201448546763e+01
-1.212080564812e+01
-1.222134407249e+01
-1.231423409694e+01
-1.239899714078e+01
-1.247513625751e+01
-1.254252591314e+01
-1.260116712765e+01
-1.265102985262e+01
-1.269202839975e+01
-1.272406563571e+01
-1.274748691045e+01
-1.276374695212e+01
-1.278847902891e+01
-1.292754483768e+01
-2.500526343597e+01
-2.495169039085e+01
-2.493042512977e+01
-2.491467560120e+01
-2.489635569924e+01
-2.487331562195e+01
-2.484496156103e+01
-2.481154325141e+01
-2.477332863394e+01
-2.473074484009e+01
-2.468455651992e+01
-2.463605459246e+01
-2.458761629623e+01
-2.454048710872e+01
-2.449885240498e+01
-2.446398348938e+01
-2.444999756218e+01
-2.444969639814e+01
-2.450631158540e+01
-2.456756448223e+01
-2.480293536775e+01
-2.575046744977e+01
-2.389862605429e+01
-3.656371951011e+01
-3.843991058649e+01
-3.752686221493e+01
-3.726699122869e+01
-3.717892220367e+01
-3.707297168273e+01
-3.703068173371e+01
-3.699583357142e+01
-3.698476273316e+01
-3.698204305550e+01
-3.698950368481e+01
-3.700155233934e+01
-3.701630391448e+01
-3.703170643037e+01
-3.704634769366e+01
-3.705976460234e+01
-3.707139817621e+01
-3.708137691994e+01
-3.709142863691e+01
-3.710497329220e+01
-3.712702589953e+01
-3.714279988585e+01
-4.927481697837e+01
-4.926449875341e+01
-4.926002981757e+01
-4.925907998252e+01
-4.926097528887e+01
-4.926378918018e+01
-4.926660868368e+01
-4.926995116913e+01
-4.927708439583e+01
-4.928706110612e+01
-4.930333405747e+01
-4.932815898632e+01
-4.936239735509e+01
-4.942170504733e+01
-4.949239181806e+01
-4.961135766087e+01
-4.971678835307e+01
-4.996980794934e+01
-5.086725717889e+01
-4.900698668496e+01
-6.124874662706e+01
-6.312974513365e+01
-6.228180695523e+01
-6.201528366706e+01
-6.190860956674e+01
-6.177436050621e+01
-6.170360240041e+01
-6.164066840318e+01
-6.158768902855e+01
-6.154829743418e+01
-6.152009467208e+01
-6.149512807241e+01
-6.147639206549e+01
-6.145675933293e+01
-6.144261015841e+01
-6.142994336876e+01
-6.142593994088e+01
-6.142420282109e+01
-6.142541821044e+01
-7.356151723727e+01
-7.356358451262e+01
-7.357238382326e+01
-7.359323520253e+01
-7.362156271604e+01
-7.364910587172e+01
-7.369093669285e+01
-7.372132493507e+01
-7.375792014059e+01
-7.381808310362e+01
-7.389210375253e+01
-7.397740362055e+01
-7.407604888075e+01
-7.416221312548e+01
-7.441688208614e+01
-7.530553655939e+01
-7.344056053444e+01
-8.548992094327e+01
-8.726942813006e+01
-8.648147378126e+01
-8.634320571680e+01
-8.623447446735e+01
-8.614247915357e+01
-8.602198379955e+01
-8.594842241857e+01
-8.596458831862e+01
-8.587287156526e+01
-8.582571516444e+01
-8.578862183208e+01
-8.575734012441e+01
-8.570276286039e+01
-8.574908587213e+01
-8.573945911767e+01
-8.102732144289e+00
-9.999889424061e+00
-9.056010160182e+00
-2.107656050541e+01
-3.333197548893e+01
-4.574208105350e+01
-5.791138061886e+01
-7.006408524754e+01
-8.213803460066e+01
-9.425398142002e+01
-1.513658576524e+01
-2.246649988021e+02
-1.138995311365e+01
-1.191355259302e+01
-2.281433881429e+02
-3.289324246363e+01
-1.259600934894e+02
-2.205500029371e+02
-5.574786088344e+01
-2.172582635030e+02
-8.028757283331e+01
-2.307549376056e+02
-1.038927971770e+01
-2.139398366637e+02
-1.045755133458e+02
-7.809802095893e+01
-1.591098464621e+02
-2.116294977429e+02
-2.103459089904e+02
-2.086707930937e+02
-2.079821380518e+02
-2.097751712959e+02
-1.096757843468e+02
-1.090914001347e+02
-1.096782545876e+02
-1.524699397184e+02
-2.306807618595e+02
-1.145304877087e+01
-1.058977845105e+01
-1.976605019350e+02
-1.080405157744e+02
-4.134740381669e+01
-2.089319935975e+02
-2.197060402007e+02
-2.154537911002e+02
-2.218306294166e+02
-2.265888052709e+02
-1.217247263501e+01
-1.089438664677e+02
-2.272440460620e+02
-1.760991357137e+02
-1.121696905632e+01
-1.013879535943e+02
-2.102872136235e+02
-4.524849196212e+01
-2.182511306152e+01
-6.802806547607e+01
-9.231572745748e+01
-1.170294509372e+01
-1.295683759591e+02
-2.329407063518e+02
-1.001819781300e+01
-1.995475820274e+02
-1.102743880588e+02
-1.154481058158e+02
-1.210388117113e+02
-1.270454754338e+02
-1.331871641580e+02
-1.386204569996e+02
-1.325648912904e+02
-1.441678456044e+02
-1.380463190995e+02
-1.449418447024e+02
-1.497056338915e+02
-1.435771767391e+02
-1.552567778858e+02
-1.491548161625e+02
-1.375253849488e+02
-1.431178928879e+02
-1.314922599967e+02
-1.371186821368e+02
-1.487601102230e+02
-1.427891103593e+02
-1.311174164709e+02
-1.368199611220e+02
-1.251497381797e+02
-1.308999363343e+02
-1.191870343605e+02
-1.250055635419e+02
-1.366999571803e+02
-1.308406875645e+02
-1.191469154396e+02
-1.250239279986e+02
-1.133378697090e+02
-1.192383063548e+02
-1.309077864118e+02
-1.251553723539e+02
-1.134585313362e+02
-1.194342471623e+02
-1.077265460865e+02
-1.137748839875e+02
-1.020669631173e+02
-1.081175237493e+02
-1.197463035493e+02
-1.140914871767e+02
-1.024934966574e+02
-1.084166124186e+02
-1.200098751346e+02
-1.142638272043e+02
-1.258663935558e+02
-1.200532147369e+02
-1.085602843167e+02
-1.142554378560e+02
-1.257792087887e+02
-1.198727235533e+02
-1.084485111166e+02
-1.139864512762e+02
-1.254726112862e+02
-1.194926919078e+02
-1.080788659891e+02
-1.135014365522e+02
-1.250417659215e+02
-1.189153342755e+02
-1.074414376055e+02
-1.127509184229e+02
-1.243726896455e+02
-1.180784717098e+02
-1.298259743870e+02
-1.064408657396e+02
-1.117048112624e+02
-1.000222614561e+02
-1.052795364984e+02
-1.368029617551e+02
-9.356902245340e+01
-8.850195090492e+01
-9.881555318185e+01
-1.106266736610e+02
-8.706194560014e+01
-9.230675179954e+01
-8.052329412040e+01
-9.573359619195e+01
-1.544550934981e+02
-8.576184381522e+01
-7.394323196106e+01
-6.875644892384e+01
-6.217274554037e+01
-1.395045620036e+02
-1.512126166138e+02
-1.453933141904e+02
-1.574630511873e+02
-1.518870960327e+02
-6.732563056597e+01
-1.615061236148e+02
-1.630360688596e+02
-1.194619935257e+02
-1.074274153912e+02
-1.316883205326e+02
-9.758203091304e+01
-9.103776979989e+01
-1.028739252909e+02
-1.361470932552e+02
-1.416687084758e+02
-1.480219506042e+02
-1.535876247320e+02
-1.599763792753e+02
-1.655775927467e+02
-1.591277159076e+02
-1.711520516175e+02
-1.646463484135e+02
-1.719992195375e+02
-1.663121277866e+02
-1.766998452047e+02
-1.701439084379e+02
-1.822308767405e+02
-1.756239370938e+02
-1.635403382200e+02
-1.689653055930e+02
-1.569443323583e+02
-1.375570710110e+02
-1.434493679910e+02
-1.493268846833e+02
-1.552745939697e+02
-1.611710168823e+02
-1.671510855857e+02
-1.730515014949e+02
-1.670389298059e+02
-1.607925447399e+02
-9.690699573972e+01
-9.094975818120e+01
-8.549282616574e+01
-7.950030020830e+01
-7.419326407376e+01
-6.816759702451e+01
-6.300885796064e+01
-6.889623075826e+01
-5.784998287292e+01
-6.356699576735e+01
-5.262701011811e+01
-5.811808333774e+01
-1.425220068342e+02
-1.612065597071e+02
-1.731306803130e+02
-1.670781991843e+02
-5.702015396456e+01
-1.810944058531e+02
-1.783835846939e+02
-1.725776478679e+02
-1.789706963548e+02
-5.564116259117e+01
-5.700091929209e+01
-6.192423980359e+01
-1.637605216643e+02
-1.582008774747e+02
-1.847424674916e+02
-6.077526355874e+01
-1.832317790188e+02
-4.705682661308e+01
-1.743883129926e+02
-1.865362575999e+02
-1.526665228410e+02
-1.790937591843e+02
-1.729116756958e+02
-6.921556887451e+01
-6.358196524485e+01
-5.274578774284e+01
-5.830974478696e+01
-6.909944537573e+01
-6.320692902615e+01
-5.226670593707e+01
-5.717888879817e+01
-6.837644440042e+01
-6.222623369699e+01
-5.096446816821e+01
-5.589771473337e+01
-1.932302512235e+02
-4.198423805001e+01
-1.259111247398e+02
-1.905002629429e+02
-1.848661388563e+02
-1.701101781639e+02
-1.645733546381e+02
-1.525946064585e+02
-1.590416173685e+02
-1.710103504040e+02
-1.654981787029e+02
-1.534974927873e+02
-1.599734587646e+02
-1.479502136630e+02
-1.544507312463e+02
-1.664709354056e+02
-1.609828804784e+02
-1.489409859608e+02
-1.554855806634e+02
-1.434117732817e+02
-1.499492409221e+02
-1.620574071306e+02
-4.944160475953e+01
-1.728937028624e+02
-1.849536981992e+02
-9.661246261314e+01
-1.080339842008e+02
-1.147205325820e+02
-1.201495565132e+02
-1.564666897392e+02
-1.686043884662e+02
-5.075066988854e+01
-5.545195025867e+01
-1.756407439648e+02
-1.798256482694e+02
-1.677089324278e+02
-1.016205154775e+02
-9.563507437967e+01
-8.979134981544e+01
-8.353774318162e+01
-8.964945105809e+01
-7.754484866789e+01
-1.604778024471e+02
-1.730056120570e+02
-6.363235704315e+01
-5.199219147122e+01
-1.919812985973e+02
-1.609571067708e+02
-1.483912324296e+02
-1.542251511160e+02
-1.601258519335e+02
-1.659737734678e+02
-1.718893370901e+02
-1.776999752750e+02
-1.718690338535e+02
-1.850144317653e+02
-1.836095384260e+02
-1.442583233662e+02
-1.550963562647e+02
-7.360161426819e+01
-4.410174742722e+01
-4.423096468380e+01
-5.403552182652e+01
-6.589840336629e+01
-1.969244855116e+02
-1.836165265718e+02
-1.777189856299e+02
-7.759992706627e+01
-8.381622068096e+01
-1.911078882414e+02
-1.399942946262e+02
-1.415073625616e+02
-1.358760881231e+02
-4.134328337831e+01
-3.988929706321e+01
-1.774796979160e+02
-6.689758020142e+01
-6.039178145202e+01
-3.647478970722e+01
-3.156153581991e+01
-1.629110698018e+02
-1.749682373581e+02
-1.266900245128e+02
-1.320576796425e+02
-1.911116699209e+02
-4.948883091047e+01
-1.807064783096e+02
-1.667799048593e+02
-1.548525271447e+02
-1.134153380821e+02
-4.419433752873e+01
-3.987094763360e+01
-7.969529094989e+01
-6.100079595575e+01
-5.916730255472e+01
-2.032806075216e+02
-1.829125782617e+02
-1.778274388990e+02
-1.659696274454e+02
-1.897087645881e+02
-3.815623498380e+01
-2.028302932984e+02
-1.852710466059e+02
-1.889510161828e+02
-1.835621311856e+02
-7.201241451619e+01
-6.574225465160e+01
-5.386225229076e+01
-5.939693133952e+01
-1.264272377986e+02
-7.756030387927e+01
-1.198573617167e+02
-1.143055344432e+02
-1.082866955251e+02
-9.563622636475e+01
-8.994503668171e+01
-8.480313565404e+01
-1.374902294448e+02
-1.213309268029e+02
-1.515712366148e+02
-1.424055296366e+02
-1.784023025454e+02
-1.849962195901e+02
-1.368688569441e+02
-1.313243659968e+02
-4.532701159238e+01
-4.034880518330e+01
-1.352882958155e+02
-1.961687814121e+02
-1.818627108428e+02
-1.873786256020e+02
-1.811124480819e+02
-1.972905214694e+02
-9.137090180818e+01
-1.433663902868e+02
-3.677838699862e+01
-1.425584881747e+02
-3.378577971697e+01
-1.603687998165e+02
-1.975052865502e+02
-2.041302938186e+02
-1.968879356835e+02
-1.096702977700e+02
-1.484565369979e+02
-1.427313082976e+02
-1.028082921263e+02
-9.680533286713e+01
-1.022537848476e+02
-9.073840301739e+01
-8.491551909657e+01
-7.870646101846e+01
-1.961820878896e+02
-1.952156005881e+02
-1.949432526404e+02
-1.898386342912e+02
-2.030456002358e+02
-1.970477392057e+02
-7.067219252482e+01
-7.822720507268e+01
-1.894199473623e+02
-1.087944129700e+02
-2.082169398443e+02
-2.018721109371e+02
-2.645122905423e+01
-3.102863010464e+01
-1.871878080831e+02
-4.718886518880e+01
-5.264831441689e+01
-4.191529466820e+01
-2.225965569645e+02
-1.077316933204e+02
-2.097924527304e+02
-1.017285989872e+02
-1.929991472655e+02
-1.544937297622e+02
-9.564453370155e+01
-1.851545688569e+02
-1.807616017363e+02
-1.938822986161e+02
-1.294716113820e+02
-1.234357965269e+02
-1.347403136428e+02
-4.126847848042e+01
-2.983786173224e+01
-1.794922722221e+02
-8.446352108280e+01
-9.086969755490e+01
-5.422784331008e+01
-6.573270151082e+01
-1.332264828924e+02
-1.278641500416e+02
-1.661396222678e+02
-1.720558057939e+02
-1.542844754768e+02
-1.606544564431e+02
-1.487587174140e+02
-1.430813413963e+02
-1.900443116191e+02
-1.979723863750e+02
-9.094740031288e+01
-8.563992824685e+01
-8.996371867492e+01
-1.948166685485e+02
-2.162060634200e+02
-2.106689455340e+02
-2.899639305326e+01
-3.528365114915e+01
-3.322555195457e+01
-2.977614430499e+01
-1.925695765465e+02
-1.867151064565e+02
-1.998818942168e+02
-6.321244369649e+01
-1.720895495551e+02
-2.089533068626e+02
-2.030040883587e+02
-2.165157072719e+02
-1.906399514430e+02
-2.021400112973e+02
-2.013298415564e+02
-2.163033077078e+01
-1.897129244003e+02
-1.241945247399e+02
-1.807969428538e+01
-1.187376440668e+02
-1.256364815919e+02
-1.124709248435e+02
-5.160328484598e+01
-1.208645772832e+02
-1.282660099327e+02
-2.222791723068e+01
-2.010448236944e+02
-2.286592799925e+01
-2.755100099729e+01
-2.140869508349e+02
-2.074603578010e+02
-2.192541539759e+02
-2.125720546288e+02
-2.008348309723e+02
-2.065834706416e+02
-1.173712039297e+02
-2.200439316327e+02
-2.124798713597e+02
-2.259173973406e+02
-8.551457370991e+01
-6.496635490894e+01
-5.868337018618e+01
-4.591110597459e+01
-2.028334229287e+02
-1.950582447377e+02
-1.911063742467e+02
-1.788212096707e+02
-1.192688088818e+02
-1.186076787367e+02
-1.295852371188e+02
-1.280850492372e+02
-1.390990936307e+02
-1.374470323528e+02
-1.486785847385e+02
-2.071527263753e+02
-3.472488562801e+01
-9.746639867870e+01
-2.088639820966e+02
-2.020390316574e+02
-8.439407495443e+01
-7.296648296405e+01
-2.164807436954e+02
-8.372475227513e+01
-2.079257353570e+02
-1.045904573104e+01
-1.913618267133e+01
-8.944153877759e+01
-9.614950996013e+01
-7.106908860977e+01
-6.573672374988e+01
-1.727953964239e+02
-3.088756473044e+01
-3.732760838710e+01
-1.500961238517e+02
-2.590224977064e+01
-1.853032142645e+02
-9.020237248618e+01
-1.074298845199e+02
-4.881610674454e+01
-7.163361743114e+01
-1.319499827651e+02
-1.209734877893e+02
-1.149310688093e+02
-9.645398895787e+01
-7.194269513952e+01
-5.883900079072e+01
-1.254571478818e+02
-1.748739039994e+02
-1.803797207062e+02
-1.917890073198e+02
-1.858945540440e+02
-1.742130259282e+02
-1.797710556125e+02
-1.913936804542e+02
-1.857185690614e+02
-1.993037500744e+02
-1.912103042521e+02
-1.791124041796e+02
-1.843926747174e+02
-1.955616579706e+02
-1.726100534406e+02
-2.146224319332e+02
-1.015370929529e+02
-2.637030037031e+01
-2.255236941361e+01
-1.134583909122e+02
-2.107749049217e+02
-2.103202229249e+02
-7.329026203367e+01
-2.145363958986e+02
-1.203604598918e+02
-5.204066935009e+01
-2.163479887144e+02
-1.686215627876e+02
-1.622752666674e+02
-1.567309557582e+02
-2.104244176111e+02
-1.404488573874e+02
-2.204947140110e+02
-1.493188722801e+02
-1.432075612003e+02
-1.314226534957e+02
-1.734686386148e+02
-2.236627002947e+02
-2.142194785260e+02
-2.150189643880e+02
-2.037416090280e+02
-2.255265519319e+02
-2.129991059266e+02
-2.138964565024e+02
-7.439288875929e+01
-8.029367362340e+01
-9.149029134531e+01
-8.602297187714e+01
-7.478909105310e+01
-8.041683936076e+01
-9.162679731934e+01
-7.468356016422e+01
-1.837899020551e+02
-2.273883139305e+02
-1.543111950528e+02
-1.485198030835e+02
-1.367216608580e+02
-1.159955330867e+02
-1.224806885131e+02
-1.343440414859e+02
-1.094520888058e+02
-1.600743180014e+02
-2.279063243679e+02
-1.491251579179e+02
-1.170707551838e+02
-1.093254272735e+02
-1.200450003528e+02
-1.204456615496e+02
-1.318386261059e+02
-1.209666073411e+02
-1.385783685304e+02
-1.439136785614e+02
-1.374230602978e+02
-1.492400909384e+02
-1.424720151077e+02
-1.315363639159e+02
-1.543480346468e+02
-1.467178275392e+02
-1.089246173008e+02
-1.234656119197e+01
-2.139663159782e+01
-2.115735164194e+01
-3.013558996646e+01
-3.061933131946e+01
-4.050924967441e+01
-3.887837765493e+01
-2.137259136344e+01
-1.188329480826e+01
-2.102971932518e+01
-1.158690153256e+01
-2.067238389831e+01
-3.155407854597e+01
-4.721745468129e+01
-2.292373670683e+02
-1.132124009136e+02
-1.073972337748e+02
-9.598612409662e+01
-1.021069908724e+02
-1.179012143168e+02
-8.967714697592e+01
-8.542313360723e+01
-1.049968885916e+01
-2.027769309227e+01
-1.928715156314e+01
-3.025919980712e+01
-3.015383280839e+01
-2.055193614248e+01
-2.058743890912e+01
-1.059192383338e+01
-2.056555540862e+01
-3.069212537253e+01
-1.038300953513e+01
-1.645572584119e+02
-1.710792082710e+02
-2.282815321657e+02
-1.100301746007e+02
-1.136488726558e+01
-2.067162273833e+02
-2.089057655610e+02
-2.090597857943e+02
-2.102158511613e+02
-2.163353638865e+02
-2.069658075372e+02
-7.531044666448e+01
-1.973054466969e+02
-1.860204506891e+02
-4.615919402653e+01
-7.235969018405e+01
-1.731563024169e+02
-1.581237529735e+02
-1.986273768304e+02
-1.623281088276e+02
-1.877486814602e+02
-2.150690731585e+02
-4.770569156856e+01
-1.423677578795e+02
-1.378613657290e+02
-1.675330872960e+02
-7.913514104197e+01
-1.259654892553e+02
-5.045793749365e+01
-2.064621976302e+02
-1.138369449888e+02
-1.305965011292e+02
-1.041308037763e+02
-8.191939182714e+01
-6.736115268237e+01
-1.075024877376e+02
-1.234665070916e+02
-1.776284841761e+02
-1.740834250501e+02
-1.216031375251e+01
-1.840774224370e+02
-1.471739159098e+02
-1.470231161176e+02
-1.790473941231e+02
-4.646795022394e+01
-1.719679386272e+02
-1.930911904161e+02
-1.340013624412e+02
-3.882426283134e+01
-1.300602728111e+02
-2.090794550905e+02
-1.693141241239e+02
-7.253542173236e+01
-1.316659209107e+02
-1.132760552743e+02
-9.844036551244e+01
-1.910997831841e+02
-1.310651254023e+02
-1.909645833641e+02
-1.551604652081e+02
-7.783606509125e+01
-1.953610075916e+02
-1.257490916261e+02
-1.839281044740e+02
-1.660284321257e+02
-1.027696891578e+02
-1.764391098976e+02
-1.310575242638e+02
-1.850855054221e+02
-1.078172853252e+02
-1.425793588166e+02
-1.547215901937e+02
-1.366938346731e+02
-1.665571334853e+02
-1.897356064276e+02
-4.730493690397e+01
-8.374271336244e+01
-1.462060480037e+02
-1.890979830675e+02
-1.957524597695e+02
-1.015108229483e+02
-1.887892498951e+02
-1.880077568093e+02
-1.289012596052e+02
-5.460115605945e+01
-3.590860843473e+01
-8.007793109415e+01
-1.253901535388e+02
-1.407619016111e+02
-1.994567115770e+02
-1.943341787023e+02
-1.788610654087e+02
-1.366859921106e+01
-1.035523882649e+02
-1.999025043000e+02
-1.374039273888e+02
-1.907952858146e+02
-1.354125011343e+02
-2.070451868319e+02
-7.929154919282e+01
-2.056067289639e+02
-1.789703111040e+02
-7.844792645747e+01
-1.081314182122e+02
-2.195518349101e+02
-1.912014851943e+02
-1.483646806989e+02
-1.314344178067e+02
-8.629751422323e+01
-1.462048689909e+02
-1.484922024817e+02
-2.103232481232e+02
-1.967497235250e+02
-1.503627305183e+02
-1.397149247484e+02
-1.607560802831e+02
-3.030321825570e+01
-9.153614272052e+01
-1.450692836732e+02
-8.589521030972e+01
-1.370592247667e+02
-2.084671023032e+02
-1.504316666317e+02
-9.718377518941e+01
-1.557757187461e+02
-7.419705656548e+01
-1.559545937773e+02
-1.611053708289e+02
-1.601966960637e+02
-3.170982486483e+01
-1.542190627006e+02
-2.035859367894e+02
-9.493799600725e+01
-1.427195156471e+02
-1.678813653126e+02
-6.188224062610e+01
-1.545623148609e+02
-1.719344741412e+02
-1.601904699536e+02
-1.370740288624e+02
-1.666289219052e+02
-6.690767582081e+01
-7.032361705527e+01
-5.882362803497e+01
-1.028764582151e+02
-1.779073142809e+02
-4.013906827236e+01
-1.671016863996e+02
-4.255688042339e+01
-9.720284112410e+01
-1.786963850402e+02
-1.412372195749e+02
-1.026760542391e+02
-6.640029327969e+01
-9.683693922210e+01
-1.488310138698e+02
-1.021661718196e+02
-9.614834685974e+01
-1.978165363202e+02
-1.012897689052e+02
-2.090971351925e+02
-2.301776380454e+02
-1.173105196202e+02
-4.885862968775e+01
-1.252430983456e+01
-5.497634315870e+01
-8.361677764998e+01
-1.663516051632e+02
-1.178130966060e+02
-7.710777713706e+01
-2.027860808281e+02
-2.185729627463e+02
-1.587053744356e+02
-1.961987909438e+02
-1.665474919793e+02
-1.870748228980e+02
-1.074136325888e+02
-2.053376375583e+01
-1.728320385130e+02
-3.638928552242e+01
-4.015659006144e+01
-2.973352525042e+01
-8.196779577219e+01
-2.997283002280e+01
-2.721119885314e+01
-2.126498092492e+02
-1.186067216152e+02
-1.840558343628e+02
-1.717849206219e+01
-1.993588222822e+02
-2.091634863923e+02
-2.301291980886e+02
-1.961132178263e+02
-2.292038641104e+01
-1.293281566014e+02
-2.054938078010e+02
-1.682650369527e+02
-2.314315836201e+02
-1.174261028824e+02
-1.993389169991e+02
-4.221832698671e+01
-1.994508870368e+02
-1.781388787497e+02
-1.326640458127e+02
-1.291230334508e+02
-2.220828986290e+02
-2.015499719008e+02
-2.040684954688e+01
-1.581262359741e+02
-1.021706759634e+02
-1.984978459953e+01
-2.188113245298e+02
-1.892677969704e+02
-2.210580036695e+02
-2.989224707457e+01
-1.921753257787e+01
-2.196708767985e+02
-2.051512448476e+02
-4.800737469959e+01
-2.113010720325e+02
-1.534667078160e+01
-1.062838080325e+02
-1.975906952049e+01
-2.315093824968e+02
-2.001173343255e+02
-1.126462439545e+02
-1.102982395456e+02
-7.441108777272e+01
-1.990029406364e+02
-2.824988964494e+01
-2.011194622663e+02
-2.189768450440e+02
-2.025142378158e+02
-2.246630731220e+02
-1.816450471267e+01
-2.113881382969e+02
-2.068200208947e+02
-1.072022520890e+02
-2.014818284399e+02
-9.151904884579e+01
-3.968696347806e+01
-2.103574375101e+02
-8.724816574582e+00
-1.064108358927e+02
-2.329076529432e+02
-3.793270698948e+01
-1.261983178920e+02
-2.051396599790e+02
-1.384574947450e+02
-1.802430372661e+02
-3.720755291406e+01
-1.127385720494e+01
-1.475858021439e+02
-2.121518954070e+02
-2.026820390859e+02
-1.392625692880e+02
-2.790226849642e+01
-1.983805574553e+02
-1.217697954496e+02
-1.985211129639e+02
-2.056295884454e+02
-9.469326634536e+00
-1.489255335610e+02
-1.861316344741e+01
-2.224396501438e+02
-1.268973579064e+02
-4.481851324950e+00
-7.364766723043e+00
-1.813412948266e+01
-1.863330433969e+01
-3.098685976453e+01
-3.142272654454e+01
-4.358676594640e+01
-4.286794937705e+01
-5.579976080885e+01
-5.569082561473e+01
-6.803465397606e+01
-6.715012034678e+01
-8.012950083286e+01
-7.997869995892e+01
-9.222221968769e+01
-9.132910732037e+01

SCALARS node_materi_stress_size_dev_sd_sig float
LOOKUP_TABLE default
3.865108865253e+00
7.249562934547e+01
1.789985821882e+02
1.613452512437e+02
9.918505325621e+00
1.965053602605e+01
2.848419587566e+01
3.848659295784e+01
4.815542952022e+01
5.753685511534e+01
6.694080934192e+01
7.633106333969e+01
8.564443814802e+01
9.504579374626e+01
1.046448561082e+02
1.136567241662e+02
1.217785763222e+02
1.307831579928e+02
1.398768015285e+02
1.486003816586e+02
1.573232466976e+02
1.660256303660e+02
1.742172313739e+02
1.618555405037e+02
1.614430050441e+02
1.615679655367e+02
1.615935660690e+02
1.613033374805e+02
1.616030630428e+02
1.616739791090e+02
1.616557264588e+02
1.620304242517e+02
1.621151667909e+02
1.619020871507e+02
1.623021203956e+02
1.625786157400e+02
1.626740711378e+02
1.627033601202e+02
1.627101983491e+02
1.629470570194e+02
1.635681192312e+02
1.642359968503e+02
1.649059394225e+02
1.654050651585e+02
1.658838650497e+02
1.665469459131e+02
1.672183063301e+02
1.680579356939e+02
1.689084792593e+02
1.698207014155e+02
1.706125746400e+02
1.713819088820e+02
1.724374066161e+02
1.731663855814e+02
1.734235475174e+02
1.741286784183e+02
1.749229687093e+02
1.755793080672e+02
1.761846981567e+02
1.767042942926e+02
1.770555628341e+02
1.772963438889e+02
1.775050936506e+02
1.779411137218e+02
1.785554969143e+02
1.788639328251e+02
1.780399184610e+02
1.790071593656e+02
1.788082515452e+02
1.790907825591e+02
1.794377102075e+02
1.794473370710e+02
8.162360486289e+01
9.094836250841e+01
1.001102828606e+02
1.091422071491e+02
1.184142069454e+02
1.276639696465e+02
1.369512348893e+02
1.461858949209e+02
1.556625129342e+02
5.120773061760e+00
7.166888679325e+01
1.072820604150e+01
8.792798440114e+00
9.539851723148e+00
1.739209233853e+01
2.602737605361e+01
3.487320236660e+01
4.380299411506e+01
5.281288789060e+01
6.191190559899e+01
2.959067671138e+00
8.414727234312e+00
1.755552339869e+01
2.661573169516e+01
3.569973236111e+01
4.477247584827e+01
5.385589197254e+01
6.287692323133e+01
7.115490971440e+01
7.165037078776e+01
7.168553364115e+01
7.153215083103e+01
7.267956573797e+01
7.157311526216e+01
7.137243328038e+01
7.142027173563e+01
7.159982498811e+01
7.149538107149e+01
7.133969098768e+01
7.124533566808e+01
7.117598410597e+01
7.127381701561e+01
3.764953696424e+00
3.917472716570e+00
4.030748635950e+00
3.628094180169e+00
3.083414328228e+00
2.924203173954e+00
2.797587851649e+00
2.719473285896e+00
2.733658394320e+00
2.806394823826e+00
2.980018141592e+00
3.364233297251e+00
3.419016260175e+00
3.225853152729e+00
3.482395149384e+00
3.776475765586e+00
3.912167553183e+00
3.747852061453e+00
3.395799591060e+00
2.822512835005e+00
5.906413375784e+00
6.504537758339e+00
6.621095203721e+00
6.578758460417e+00
6.418905975266e+00
6.210401541189e+00
5.969590028615e+00
5.725893491708e+00
5.484568398168e+00
5.257350359971e+00
5.047566922062e+00
4.858962756476e+00
4.692263293780e+00
4.547609167046e+00
4.423538571315e+00
4.317972666462e+00
4.228770367099e+00
4.154144116223e+00
4.092652311430e+00
4.043302909556e+00
4.005799608163e+00
3.980917122641e+00
3.971318308559e+00
3.993451655831e+00
3.772982515578e+00
8.292835521577e+00
1.023751231788e+01
1.006322123074e+01
1.006270509105e+01
1.005387357825e+01
9.960767455459e+00
9.851615821034e+00
9.715669203488e+00
9.574004230206e+00
9.430177881252e+00
9.291554991116e+00
9.161293064064e+00
9.042329863764e+00
8.935426016312e+00
8.840235441205e+00
8.756086517657e+00
8.682442677175e+00
8.618672991071e+00
8.564130601890e+00
8.518249959384e+00
8.480774101142e+00
8.451470556216e+00
8.427728018514e+00
8.395979269527e+00
8.376659018367e+00
1.748281037571e+01
1.744938661825e+01
1.747093286425e+01
1.750127541368e+01
1.753371758586e+01
1.756820522237e+01
1.760526368421e+01
1.764566727456e+01
1.769041086344e+01
1.773985611136e+01
1.779383289725e+01
1.785146515383e+01
1.791319283066e+01
1.797851673867e+01
1.804564324728e+01
1.810629737689e+01
1.815952936569e+01
1.818983641303e+01
1.820800844491e+01
1.817115909057e+01
1.814036935575e+01
1.844251284936e+01
1.653966590129e+01
2.508578570183e+01
2.696517430448e+01
2.666308944229e+01
2.669010874771e+01
2.674308123836e+01
2.675236065988e+01
2.675677537092e+01
2.674315262090e+01
2.672890755477e+01
2.671558486178e+01
2.670205349648e+01
2.668467815005e+01
2.666628572069e+01
2.664858602991e+01
2.663122692667e+01
2.661277780476e+01
2.659251472846e+01
2.657202435791e+01
2.655344758676e+01
2.654353902891e+01
2.655805891603e+01
2.659823627199e+01
3.567017373574e+01
3.563489472514e+01
3.562260602436e+01
3.562396925114e+01
3.562911648750e+01
3.563468612431e+01
3.563711065765e+01
3.563218089768e+01
3.562354287417e+01
3.561594945957e+01
3.560607681942e+01
3.558832357625e+01
3.555898059405e+01
3.553660577087e+01
3.551780185793e+01
3.550847721033e+01
3.545340009932e+01
3.540787188873e+01
3.576069239613e+01
3.386227355117e+01
4.274127141880e+01
4.466197025801e+01
4.434647367190e+01
4.435156150931e+01
4.438025913611e+01
4.441372579945e+01
4.448192287355e+01
4.453053856943e+01
4.456656697481e+01
4.459065891837e+01
4.462161982458e+01
4.465647864710e+01
4.467179207262e+01
4.468069989891e+01
4.469002378860e+01
4.469968300761e+01
4.471431498685e+01
4.474579728280e+01
4.476742050849e+01
5.388251026539e+01
5.381586394145e+01
5.378535726995e+01
5.377630913749e+01
5.374529211092e+01
5.372850088576e+01
5.370858037741e+01
5.366944217275e+01
5.360117566607e+01
5.357731600642e+01
5.353894163575e+01
5.347250293155e+01
5.341578522620e+01
5.330920456507e+01
5.330814868824e+01
5.371372370628e+01
5.179826253150e+01
6.087392338784e+01
6.277513440380e+01
6.242489449586e+01
6.244312759013e+01
6.253071592425e+01
6.261147069742e+01
6.263262644276e+01
6.268646164926e+01
6.274684846552e+01
6.278909022432e+01
6.281744009218e+01
6.284617668609e+01
6.290238601957e+01
6.288743766653e+01
6.298522982529e+01
6.308393345682e+01
8.675023585335e+00
1.129373519960e+01
6.827109804556e+00
1.410336291821e+01
2.250266857346e+01
3.119266143816e+01
4.008449955986e+01
4.904943427434e+01
5.809918866871e+01
6.729822554058e+01
1.469049024872e+01
1.710019260077e+02
6.736817628450e+00
5.642383670965e+00
1.737830488681e+02
2.227192613739e+01
1.001852797325e+02
1.675286818977e+02
3.855749566660e+01
1.644420347467e+02
5.679561300992e+01
1.754902669530e+02
7.103366152823e+00
1.615081870085e+02
7.531538929731e+01
6.267607245939e+01
1.249444078205e+02
1.594690201751e+02
1.586300077635e+02
1.576529437948e+02
1.569392749089e+02
1.583307494020e+02
7.956723944019e+01
7.985615164949e+01
8.065786128817e+01
1.138044082088e+02
1.754816287550e+02
5.344465153463e+00
8.064170075036e+00
1.526567085548e+02
7.979703771845e+01
3.350164282359e+01
1.574487922072e+02
1.666111492229e+02
1.628648219794e+02
1.687825739995e+02
1.725774241943e+02
6.433557093018e+00
7.939167432899e+01
1.732365345105e+02
1.321504514575e+02
7.216330316174e+00
8.106776781003e+01
1.589809900112e+02
3.102078377312e+01
1.572484136875e+01
4.762400454313e+01
6.588861420375e+01
1.071442095842e+01
9.619732740402e+01
1.770575224854e+02
7.747564892031e+00
1.503768245967e+02
7.959150742359e+01
8.342364857579e+01
8.778007334762e+01
9.231040956104e+01
9.709880034354e+01
1.012012166493e+02
9.640074787931e+01
1.053697799008e+02
1.005514262671e+02
1.061079543209e+02
1.096226236708e+02
1.048050461942e+02
1.139537504821e+02
1.091816716285e+02
1.000919036144e+02
1.045162601066e+02
9.543447503569e+01
9.993398874053e+01
1.090682172135e+02
1.045644427764e+02
9.543167408575e+01
1.001548020263e+02
9.103728229988e+01
9.588050585240e+01
8.674927304094e+01
9.174533797515e+01
1.008584695312e+02
9.685443040332e+01
8.777233269417e+01
9.302054243172e+01
8.398960658492e+01
8.935395059722e+01
9.830632227485e+01
9.473369487843e+01
8.584538302316e+01
9.131079327799e+01
8.251420243471e+01
8.802357073828e+01
7.933196735849e+01
8.477872056079e+01
9.334369772429e+01
9.001122260263e+01
8.153354368789e+01
8.658985174796e+01
9.504683233615e+01
9.144240637356e+01
9.989969412443e+01
9.612845973327e+01
8.772050002802e+01
9.221975386152e+01
1.006611013232e+02
9.657602138222e+01
8.812917937588e+01
9.234408954663e+01
1.008499731729e+02
9.648342049550e+01
8.793062686848e+01
9.196980537571e+01
1.006143016474e+02
9.597442364422e+01
8.726880254818e+01
9.118958742906e+01
9.999003015062e+01
9.510990738886e+01
1.039820548097e+02
8.619417740813e+01
9.008783913188e+01
8.103474568167e+01
8.495539255836e+01
1.035914289620e+02
7.578688445944e+01
7.196799139849e+01
7.974556736733e+01
8.894618209209e+01
7.047139446149e+01
7.447182165384e+01
6.512272774566e+01
7.353137059545e+01
1.137430789742e+02
6.916255742606e+01
5.975352749154e+01
5.568070135947e+01
5.025880483748e+01
1.019821746507e+02
1.111460514169e+02
1.067499384737e+02
1.161921727978e+02
1.119620145910e+02
5.434052543610e+01
1.188833676482e+02
1.204323220792e+02
8.636300078084e+01
7.867424385318e+01
1.035675317436e+02
7.848450108333e+01
7.321728756142e+01
8.254498694244e+01
1.087838097493e+02
1.128047448550e+02
1.175385848036e+02
1.215664691108e+02
1.262428039356e+02
1.302676236091e+02
1.255479628981e+02
1.342417394446e+02
1.294891908135e+02
1.348909690512e+02
1.308037929054e+02
1.381644614258e+02
1.333910013021e+02
1.420418533813e+02
1.372560037776e+02
1.285307934926e+02
1.323871235577e+02
1.236331808510e+02
1.084107579423e+02
1.121537462634e+02
1.169700996793e+02
1.207877453112e+02
1.255691342371e+02
1.294549927860e+02
1.341770762332e+02
1.302156210270e+02
1.183640206673e+02
7.819952001523e+01
7.312015228142e+01
6.988026297842e+01
6.480259785962e+01
6.162390440716e+01
5.658208694318e+01
5.337746761980e+01
5.806371406526e+01
4.964095182646e+01
5.402548612017e+01
4.531608876564e+01
4.947377826907e+01
1.059273762892e+02
1.245773664760e+02
1.333306352990e+02
1.283268450338e+02
4.617183244310e+01
1.410921460569e+02
1.394176448425e+02
1.352360707379e+02
1.387993075332e+02
4.490882129596e+01
4.843776679150e+01
5.115026981628e+01
1.212697761912e+02
1.170310489366e+02
1.438547018551e+02
4.898953894841e+01
1.428643330717e+02
4.103987103600e+01
1.362202350218e+02
1.449014683585e+02
1.207486577777e+02
1.372079956694e+02
1.320838747904e+02
5.831662762592e+01
5.364168621101e+01
4.470732701606e+01
4.891129276000e+01
5.782920953593e+01
5.268600510626e+01
4.346461856975e+01
4.734996529142e+01
5.665388275579e+01
5.131376681316e+01
4.176832641287e+01
4.580723102321e+01
1.496935530168e+02
3.628165572871e+01
9.108935623839e+01
1.479606378632e+02
1.427041268659e+02
1.263873509044e+02
1.221621567090e+02
1.128075520961e+02
1.179923303151e+02
1.273671102281e+02
1.231791027144e+02
1.138364129788e+02
1.189831825033e+02
1.096547223298e+02
1.148017568453e+02
1.241435834185e+02
1.199753600503e+02
1.106702819113e+02
1.158145786293e+02
1.065259575692e+02
1.115941257502e+02
1.209685611782e+02
3.975660536451e+01
1.347523752048e+02
1.433740410592e+02
7.759149615739e+01
8.648776740017e+01
9.175687357039e+01
9.580283290714e+01
1.166850412958e+02
1.261621181669e+02
4.308114973908e+01
4.525281736964e+01
1.306531562378e+02
1.400705312274e+02
1.313354338156e+02
7.493190251031e+01
6.953007123342e+01
6.578249184792e+01
6.016573132732e+01
6.431290424879e+01
5.631758087247e+01
1.265644209582e+02
1.293449589137e+02
5.164303925538e+01
4.210294260599e+01
1.487429472848e+02
1.261798422582e+02
1.099801328108e+02
1.150237140705e+02
1.191553596427e+02
1.241672148352e+02
1.283834532900e+02
1.333338223480e+02
1.292303040213e+02
1.410854506856e+02
1.383567908987e+02
1.071896093106e+02
1.194666806783e+02
6.066232212476e+01
3.560516492570e+01
3.597023742749e+01
4.353366974890e+01
5.305802825036e+01
1.523877782149e+02
1.376326222134e+02
1.326611322043e+02
5.504639400113e+01
5.943110329593e+01
1.460270751121e+02
1.026539001337e+02
1.045540420787e+02
1.003613861646e+02
3.320446298312e+01
3.220212000024e+01
1.325810469729e+02
5.352006239415e+01
4.731697576204e+01
3.199385730962e+01
2.672658182776e+01
1.216668224865e+02
1.310710183911e+02
1.008706070363e+02
1.048966896708e+02
1.482308908519e+02
4.026126527270e+01
1.355492953097e+02
1.306481703932e+02
1.220648372883e+02
9.046130299661e+01
3.721447936963e+01
3.515246224693e+01
6.581154871451e+01
4.987799521465e+01
4.762186284976e+01
1.567251693276e+02
1.367406148475e+02
1.343126220191e+02
1.252187312648e+02
1.433782074587e+02
3.047914368555e+01
1.565781988274e+02
1.439614986208e+02
1.416584302620e+02
1.370618458740e+02
5.588302900113e+01
4.975896100453e+01
4.087269134357e+01
4.358026578989e+01
9.162318683712e+01
5.866512800047e+01
8.643308405817e+01
8.217953682717e+01
7.757261890405e+01
6.849980325415e+01
6.385531727227e+01
6.771150063450e+01
1.071579566993e+02
9.692500074248e+01
1.197609953366e+02
1.134416301763e+02
1.334934218038e+02
1.387793989238e+02
1.014006889858e+02
9.717464131339e+01
3.657231685561e+01
3.249706878823e+01
1.079670505838e+02
1.519733143876e+02
1.357225222427e+02
1.400393100545e+02
1.348996862234e+02
1.524129247088e+02
7.470461956329e+01
1.130937166577e+02
3.106773231229e+01
1.072429140156e+02
2.701536813452e+01
1.182408003659e+02
1.525856174773e+02
1.572546703107e+02
1.499216931125e+02
7.896142066644e+01
1.124542886593e+02
1.088484646629e+02
7.344921134560e+01
6.888171694195e+01
7.300333983167e+01
6.430756248715e+01
6.974122393807e+01
6.455879945281e+01
1.475787802209e+02
1.473533244808e+02
1.462077262854e+02
1.417488391667e+02
1.547115945400e+02
1.507281149048e+02
5.691932499670e+01
5.499544258037e+01
1.419241637177e+02
7.804512409423e+01
1.603183774581e+02
1.559445585055e+02
2.102132064136e+01
2.511562447528e+01
1.406493925183e+02
3.432827517044e+01
3.733957045256e+01
3.204691988934e+01
1.699355610602e+02
7.956370897112e+01
1.610892976684e+02
7.288268502797e+01
1.451303448967e+02
1.177006782181e+02
7.125960585306e+01
1.439178259453e+02
1.356190288791e+02
1.460293938189e+02
9.525798552898e+01
9.087461920911e+01
9.921045737807e+01
3.651890905259e+01
2.668424361805e+01
1.345295787204e+02
6.798480245091e+01
7.309758733121e+01
4.412275462052e+01
5.360964045296e+01
1.059503804270e+02
1.020199133500e+02
1.229828780699e+02
1.275247837563e+02
1.141820859795e+02
1.264554259902e+02
1.178659480499e+02
1.135377492409e+02
1.427512697612e+02
1.490687404430e+02
7.469180169493e+01
7.072449269493e+01
7.352565059409e+01
1.461548783683e+02
1.656201327816e+02
1.618727244787e+02
2.293766234431e+01
2.831980706631e+01
2.938443225376e+01
2.734516250780e+01
1.441586417251e+02
1.393050650566e+02
1.500906997057e+02
5.086052001299e+01
1.304169479224e+02
1.605049789415e+02
1.563099323142e+02
1.658305041404e+02
1.448639361069e+02
1.536214640508e+02
1.523431091791e+02
1.683125871136e+01
1.427185566509e+02
9.169325867892e+01
1.211025178923e+01
8.755830517062e+01
9.294513360419e+01
8.291654098034e+01
4.153643809479e+01
8.857873837043e+01
9.407262533655e+01
1.698728403578e+01
1.512363151108e+02
1.799602020203e+01
2.186474051546e+01
1.642721624774e+02
1.597669449225e+02
1.678580138728e+02
1.632748831580e+02
1.551577431818e+02
1.591049359252e+02
8.643183456670e+01
1.682873431291e+02
1.630877573439e+02
1.724026039460e+02
6.046106835709e+01
4.675229777058e+01
4.113060622448e+01
3.158818812131e+01
1.523606956194e+02
1.459428987736e+02
1.480655148352e+02
1.393098056971e+02
8.824622556308e+01
8.778552210596e+01
9.614322222658e+01
9.504912648146e+01
1.034814479398e+02
1.021684383398e+02
1.107770739617e+02
1.566433137231e+02
2.508246312467e+01
6.953067453586e+01
1.593029703060e+02
1.547428352800e+02
5.954958901048e+01
5.109319299094e+01
1.659827550251e+02
6.457857711319e+01
1.568091904015e+02
5.768346229012e+00
1.526767972106e+01
6.764019661991e+01
6.842774981682e+01
5.053734068198e+01
4.596712732071e+01
1.351552104935e+02
2.438886901034e+01
3.071072986025e+01
1.117735413627e+02
2.275549555063e+01
1.438977941080e+02
7.056883831514e+01
7.761481545873e+01
3.890528819601e+01
5.288296095430e+01
9.579097934371e+01
8.758560944878e+01
8.284434386647e+01
7.621793133270e+01
5.042137235069e+01
4.074518682716e+01
9.084801927034e+01
1.298204489752e+02
1.341614845087e+02
1.433515294701e+02
1.385320090826e+02
1.291251937059e+02
1.334948894254e+02
1.429646980713e+02
1.382025304504e+02
1.493653118355e+02
1.427307880234e+02
1.329418683193e+02
1.373138768245e+02
1.463519549241e+02
1.277739817392e+02
1.632407898619e+02
7.679716279225e+01
2.216653355566e+01
2.023832897473e+01
8.195116306114e+01
1.589277900227e+02
1.585575624053e+02
5.935638154029e+01
1.620005376164e+02
8.687585219375e+01
4.509297304648e+01
1.636126891805e+02
1.247336548056e+02
1.196146484158e+02
1.153323168499e+02
1.586436223286e+02
1.034761042124e+02
1.673080745837e+02
1.158450526585e+02
1.106718154392e+02
1.019622650046e+02
1.283959986971e+02
1.702491458736e+02
1.637201844072e+02
1.643999034562e+02
1.565104274479e+02
1.717305964954e+02
1.606654318579e+02
1.614557837143e+02
6.181552964024e+01
6.671597989046e+01
7.537924905332e+01
7.124585739836e+01
6.255853460707e+01
6.697223361849e+01
7.544363583746e+01
6.256858496929e+01
1.368549770544e+02
1.731832201524e+02
1.221373963495e+02
1.178992964298e+02
1.092605156470e+02
9.295570215588e+01
9.805278034179e+01
1.070328213145e+02
8.778637440813e+01
1.201061974725e+02
1.735648616193e+02
1.176357570965e+02
9.405470500758e+01
7.952688650185e+01
8.746776022002e+01
8.756117853201e+01
9.622460443912e+01
8.832882870738e+01
1.098959756339e+02
1.138249087023e+02
1.088848024587e+02
1.177120498987e+02
1.125817266748e+02
1.043083120318e+02
1.213998059851e+02
1.157334510028e+02
7.951579139621e+01
6.311314949122e+00
1.539566656868e+01
1.516954867234e+01
2.367921529942e+01
2.443496575045e+01
3.317511992522e+01
3.203611175606e+01
1.540570291684e+01
6.485544376178e+00
1.529620631141e+01
6.589304346027e+00
1.515788009077e+01
2.491474637410e+01
3.821950918700e+01
1.745573829767e+02
9.030485285581e+01
8.588508085518e+01
7.684739243718e+01
8.175119052318e+01
9.403517597401e+01
7.187104132107e+01
6.851171398377e+01
8.140107405083e+00
1.643221051982e+01
1.564040636514e+01
2.466521899616e+01
2.435628601780e+01
1.645690252652e+01
1.642172526169e+01
7.880887015126e+00
1.628924913315e+01
2.468624626463e+01
7.440512392755e+00
1.231216899664e+02
1.282329478471e+02
1.739254631136e+02
8.066417114761e+01
7.085706605985e+00
1.561050557677e+02
1.576823110998e+02
1.578012824600e+02
1.614392586643e+02
1.656294056487e+02
1.563764371418e+02
6.108566262169e+01
1.476583661875e+02
1.397328142881e+02
4.033429142372e+01
5.920437182344e+01
1.352385135849e+02
1.246625242952e+02
1.534667294479e+02
1.274995452985e+02
1.458855246268e+02
1.646633769813e+02
3.831584704448e+01
1.054746416319e+02
1.022951916792e+02
1.251593364375e+02
6.383840436962e+01
1.001802993981e+02
4.080245708479e+01
1.555946237464e+02
8.186697652529e+01
1.047160974467e+02
8.375520719429e+01
6.653604966824e+01
5.533559392714e+01
8.035252660935e+01
9.906798386413e+01
1.389045084583e+02
1.303638040966e+02
8.443239276179e+00
1.434735115242e+02
1.167912493376e+02
1.086861881228e+02
1.381207337884e+02
3.805257735847e+01
1.283517412636e+02
1.447776753169e+02
9.831155191344e+01
3.124124729906e+01
9.611674748409e+01
1.607903136156e+02
1.255248776519e+02
5.844360758546e+01
1.045910397803e+02
8.261604273541e+01
7.046653755774e+01
1.437406731443e+02
1.000613284667e+02
1.473976355493e+02
1.216391644142e+02
6.262547279210e+01
1.514059755438e+02
9.854806266605e+01
1.377553521238e+02
1.234155512843e+02
8.304957106817e+01
1.315160749409e+02
1.050521079631e+02
1.420821968822e+02
7.736511315357e+01
1.050109286428e+02
1.136435215140e+02
1.020358395858e+02
1.304110054604e+02
1.474787414735e+02
4.051836614458e+01
6.213035137774e+01
1.076880191966e+02
1.423383335193e+02
1.470755877963e+02
7.348512413511e+01
1.467412353372e+02
1.407561333152e+02
1.030522229926e+02
4.404666643196e+01
3.231726745843e+01
6.639167171254e+01
9.666712898294e+01
1.119449133283e+02
1.496780812003e+02
1.505699584656e+02
1.396021348454e+02
1.344875060979e+01
7.417527237117e+01
1.544073592169e+02
1.091322434949e+02
1.466369572889e+02
1.071829256977e+02
1.562287898931e+02
5.576616235659e+01
1.583921952130e+02
1.393600675253e+02
6.194033052772e+01
7.982952995702e+01
1.679833986172e+02
1.480290857747e+02
1.110510802266e+02
1.050527795235e+02
6.125650098616e+01
1.158854375452e+02
1.093073237506e+02
1.586251008093e+02
1.517603602588e+02
1.102420344382e+02
1.109457693310e+02
1.230339373142e+02
2.434142964322e+01
6.499438866895e+01
1.148489498206e+02
7.099036002946e+01
1.093509051670e+02
1.585246658251e+02
1.187525811938e+02
7.935514313085e+01
1.226268583693e+02
5.214169821137e+01
1.145591893587e+02
1.264471173426e+02
1.185168860784e+02
2.545681213778e+01
1.161921739113e+02
1.568017232711e+02
7.724442760086e+01
1.136068577741e+02
1.240000589855e+02
4.301733930876e+01
1.222080026040e+02
1.277985820230e+02
1.213734558814e+02
1.053755787739e+02
1.308899810223e+02
4.661446747534e+01
5.720483139218e+01
4.781800521767e+01
8.382440934224e+01
1.323222235203e+02
3.244514252567e+01
1.233190367100e+02
3.430921403139e+01
7.972217977770e+01
1.358737939784e+02
1.051238382614e+02
8.387444157502e+01
5.343100887469e+01
7.938819912505e+01
1.141429674912e+02
8.336070471254e+01
7.856325204293e+01
1.490555879441e+02
8.237810871087e+01
1.578729133590e+02
1.751343817321e+02
8.686153827262e+01
3.372579013674e+01
6.102660382746e+00
3.786179662817e+01
6.828344035715e+01
1.228644587455e+02
8.718137616367e+01
6.285034001973e+01
1.521730931648e+02
1.656119092505e+02
1.185755986180e+02
1.508601149408e+02
1.267619159008e+02
1.407592423416e+02
7.902439977011e+01
1.522435654113e+01
1.349407327912e+02
2.473740889781e+01
2.792663446629e+01
2.332093181038e+01
6.598495268839e+01
2.343895745858e+01
1.853511838100e+01
1.624199033668e+02
8.697650807135e+01
1.394710543801e+02
1.439688044776e+01
1.498857637056e+02
1.586689693703e+02
1.752038992889e+02
1.486542957575e+02
2.152048046841e+01
9.446014095869e+01
1.547686058367e+02
1.258689513247e+02
1.759521594483e+02
8.571194742281e+01
1.502889433211e+02
3.566566112286e+01
1.503928603925e+02
1.322915598975e+02
9.833768384894e+01
9.398597543733e+01
1.695537480621e+02
1.513429704909e+02
1.893404972232e+01
1.179730689337e+02
8.190794827787e+01
1.378049958860e+01
1.675790801805e+02
1.413335190645e+02
1.690197325364e+02
2.427418743645e+01
1.457006437798e+01
1.681176449216e+02
1.542072874110e+02
4.006228412501e+01
1.595661560762e+02
1.275589552137e+01
7.790475033240e+01
1.534394990497e+01
1.759863251792e+02
1.507709307933e+02
8.992274915229e+01
7.977913052728e+01
5.983910560483e+01
1.501308299623e+02
2.194622715061e+01
1.516674010202e+02
1.675089021753e+02
1.522460074574e+02
1.707216947422e+02
1.308897016247e+01
1.601863907806e+02
1.588765968985e+02
7.903531810100e+01
1.512555974329e+02
7.342227813919e+01
3.183743025018e+01
1.588463704296e+02
6.603783087310e+00
7.863678240002e+01
1.769655467507e+02
3.042829998149e+01
9.355284633089e+01
1.541059020401e+02
1.095736788467e+02
1.353722100042e+02
2.990298744055e+01
4.779120675039e+00
1.099665629061e+02
1.612183023951e+02
1.525269116118e+02
1.034493543303e+02
2.544640350711e+01
1.486896638821e+02
9.678722394243e+01
1.492960403856e+02
1.576462995196e+02
7.201173254616e+00
1.174301413269e+02
1.425747990831e+01
1.700323684756e+02
1.008123943360e+02
4.298411038614e+00
4.056420539340e+00
1.268215845260e+01
1.269361113118e+01
2.114317406613e+01
2.231053254755e+01
2.985132591289e+01
3.088258992785e+01
3.873869349560e+01
4.047367909226e+01
4.772406971693e+01
4.905940533667e+01
5.675933801482e+01
5.866412332062e+01
6.592963287514e+01
6.731222359584e+01

SCALARS node_materi_strain_total_average_a_ept float
LOOKUP_TABLE default
4.920836151260e-06
2.989291277281e-04
4.135373182479e-04
5.046873531804e-04
1.559220928000e-05
3.710208088231e-05
5.777512430708e-05
8.075775230017e-05
1.030110757134e-04
1.250987732028e-04
1.470308141158e-04
1.688567253430e-04
1.906361380329e-04
2.124578733576e-04
2.346531659261e-04
2.563861159963e-04
2.760460941586e-04
2.973536273672e-04
3.191479751769e-04
3.401388714956e-04
3.611412762163e-04
3.821477742776e-04
4.024188431352e-04
5.059216398705e-04
5.046669026741e-04
5.049010851571e-04
5.047245217781e-04
5.038207054194e-04
5.043711410572e-04
5.042943141000e-04
5.034703071000e-04
5.038090585019e-04
5.032458427316e-04
5.018489468943e-04
5.017596129558e-04
5.012014144536e-04
4.997495283193e-04
4.982219847658e-04
4.960557839130e-04
4.941962848168e-04
4.929174617208e-04
4.911597377316e-04
4.892122659009e-04
4.864448324641e-04
4.832056100856e-04
4.799988267919e-04
4.764348862024e-04
4.728722592885e-04
4.693288895225e-04
4.654639674030e-04
4.615887887910e-04
4.572173984952e-04
4.539387408000e-04
4.497288980317e-04
4.448144004718e-04
4.409041103220e-04
4.377958852556e-04
4.347194979588e-04
4.315133071005e-04
4.292250517013e-04
4.261547234792e-04
4.238928787123e-04
4.212365843747e-04
4.198006836445e-04
4.195725458209e-04
4.189548213049e-04
4.147384725555e-04
4.163735518608e-04
4.144398640875e-04
4.143613890934e-04
4.149255662587e-04
4.145816130184e-04
3.207525106205e-04
3.421120097722e-04
3.634533549610e-04
3.843888621745e-04
4.057776742248e-04
4.273984272212e-04
4.486551543579e-04
4.699043133600e-04
4.915476342257e-04
-2.338546101581e-06
2.937597432121e-04
4.176078306811e-05
1.145350658502e-04
1.460708337920e-04
1.654393627352e-04
1.855327813235e-04
2.063979301675e-04
2.275272828869e-04
2.490395243866e-04
2.708446444336e-04
1.352639596720e-04
1.490108130822e-04
1.705590588763e-04
1.919397175625e-04
2.132632888233e-04
2.345633807295e-04
2.558494770296e-04
2.770566965855e-04
2.962574969993e-04
2.975975291132e-04
2.975185375152e-04
2.971527713269e-04
2.999493173377e-04
2.972001999816e-04
2.968026946918e-04
2.967221438686e-04
2.967184488746e-04
2.961558756204e-04
2.956443850929e-04
2.949488073065e-04
2.943656014563e-04
2.939065565016e-04
-5.535993131812e-06
-8.059657212055e-06
-8.401200374350e-06
-7.167588126652e-06
-5.190457757240e-06
-3.742642433980e-06
-2.468078071015e-06
-1.314062817793e-06
-2.223312986432e-07
7.903090864946e-07
1.975995139057e-06
2.486689126823e-06
3.253931529125e-06
3.977808022625e-06
4.539437815359e-06
4.855620794738e-06
5.119438426231e-06
5.227641119099e-06
4.881571417796e-06
1.376635700785e-04
1.454769600330e-04
1.473110677088e-04
1.474525069414e-04
1.477503924162e-04
1.472590915026e-04
1.467238396621e-04
1.459877397116e-04
1.452551359195e-04
1.445016620400e-04
1.437789246159e-04
1.430909818256e-04
1.424536565048e-04
1.418696104315e-04
1.413425281137e-04
1.408715567389e-04
1.404537961402e-04
1.400851523225e-04
1.397627610090e-04
1.394855413186e-04
1.392551436961e-04
1.390778318505e-04
1.389685827576e-04
1.389646099241e-04
1.391652412760e-04
1.380455198467e-04
1.489772321219e-04
1.533303212177e-04
1.540178691107e-04
1.544160034551e-04
1.546763640007e-04
1.545093033935e-04
1.542543322435e-04
1.538703099212e-04
1.534521473214e-04
1.530067294867e-04
1.525673398906e-04
1.521421419170e-04
1.517426498282e-04
1.513733744513e-04
1.510371269292e-04
1.507336230288e-04
1.504622612730e-04
1.502228135845e-04
1.500157843055e-04
1.498429344005e-04
1.497077655976e-04
1.496163817360e-04
1.495810942317e-04
1.495967993781e-04
1.491550651126e-04
1.706145840962e-04
1.707597511269e-04
1.708107405515e-04
1.708625884379e-04
1.709348334676e-04
1.710287035768e-04
1.711425869814e-04
1.712749635063e-04
1.714239374530e-04
1.715874737430e-04
1.717633241374e-04
1.719486508099e-04
1.721399955427e-04
1.723274418270e-04
1.725009830138e-04
1.726367362655e-04
1.727261565863e-04
1.727006590641e-04
1.725799586440e-04
1.721458705619e-04
1.716607893309e-04
1.712374065174e-04
1.669602467081e-04
1.862708730580e-04
1.904690699656e-04
1.907114553860e-04
1.912505439676e-04
1.918053367052e-04
1.920718542726e-04
1.922868678691e-04
1.923876175860e-04
1.924438346616e-04
1.924528629952e-04
1.924388848999e-04
1.924061261355e-04
1.923622238245e-04
1.923118206078e-04
1.922589427393e-04
1.922077355659e-04
1.921610099205e-04
1.921210570909e-04
1.920884888198e-04
1.920559425483e-04
1.919998543638e-04
1.919575082825e-04
2.132694987924e-04
2.132837612779e-04
2.132975283236e-04
2.133033400948e-04
2.133044959867e-04
2.132990371247e-04
2.132837815601e-04
2.132550259486e-04
2.132133468118e-04
2.131497232195e-04
2.130601186859e-04
2.129361674227e-04
2.127628924653e-04
2.125494727519e-04
2.122416654374e-04
2.118773006750e-04
2.112857490316e-04
2.107412563526e-04
2.106626387131e-04
2.064237296773e-04
2.271700421851e-04
2.314036785991e-04
2.314044367953e-04
2.319155175458e-04
2.325327677840e-04
2.329308455678e-04
2.333186645922e-04
2.336143188141e-04
2.338446251662e-04
2.340322898269e-04
2.341857313925e-04
2.343018941699e-04
2.343946015604e-04
2.344561812951e-04
2.345043722149e-04
2.345332761750e-04
2.345563003818e-04
2.345664443390e-04
2.345679770292e-04
2.558640312490e-04
2.558460273326e-04
2.558072828089e-04
2.557604030463e-04
2.556987774491e-04
2.556002106016e-04
2.554856478070e-04
2.553030439818e-04
2.550734924641e-04
2.548172201605e-04
2.545075226200e-04
2.541202425411e-04
2.536414851246e-04
2.529886309259e-04
2.524955218493e-04
2.526768039480e-04
2.484744139451e-04
2.699756226129e-04
2.740067594740e-04
2.738718025748e-04
2.745235415369e-04
2.750770173413e-04
2.755403279435e-04
2.758507744322e-04
2.761659707901e-04
2.765484024903e-04
2.766749380976e-04
2.768405316965e-04
2.769508647408e-04
2.770492161968e-04
2.770709703691e-04
2.772294020374e-04
2.772393306888e-04
1.338830105925e-05
7.531671834419e-05
1.352863840971e-04
1.575275587304e-04
1.772519629453e-04
1.981573550477e-04
2.189135828271e-04
2.403484938564e-04
2.620099081043e-04
2.840894081205e-04
9.817586028063e-05
4.311781078825e-04
8.626219623257e-06
4.268672241675e-06
4.172392308489e-04
1.686726141017e-04
2.244382074513e-04
4.452082389681e-04
2.110092516653e-04
4.616116211612e-04
2.557552692902e-04
4.118211430238e-04
1.064553703217e-05
4.751749351410e-04
3.009171245449e-04
1.371425761356e-04
2.833673692832e-04
4.817044338363e-04
4.895339974852e-04
4.950782207700e-04
4.922400429461e-04
4.928148818023e-04
3.130420563027e-04
3.157486404624e-04
3.182648513334e-04
3.952741301910e-04
4.074934241149e-04
6.145479748316e-06
1.289739887670e-05
3.499245551658e-04
3.162662721214e-04
6.912081598759e-05
4.827530851748e-04
4.551373568140e-04
4.688729131786e-04
4.373063106110e-04
4.253299339742e-04
6.849217069319e-06
3.139374299516e-04
4.099892610461e-04
4.373946951368e-04
1.043257407640e-05
1.798996358120e-04
4.984888481211e-04
1.910738588971e-04
1.427795753697e-04
2.333449784734e-04
2.780332525557e-04
3.656040674049e-05
3.545667704063e-04
4.097108773523e-04
1.248684327752e-05
4.795751153750e-04
3.114570277241e-04
3.190321410583e-04
3.300502967918e-04
3.384919936312e-04
3.505079839354e-04
3.581492345235e-04
3.460366993605e-04
3.657539902813e-04
3.533097572245e-04
3.705932251115e-04
3.731433011638e-04
3.604308131566e-04
3.803449827182e-04
3.674051545418e-04
3.477634844306e-04
3.544924950084e-04
3.350595132757e-04
3.415472094841e-04
3.610913399736e-04
3.478971594988e-04
3.285116347467e-04
3.346112573181e-04
3.154065166781e-04
3.212542421827e-04
3.021300793800e-04
3.077545456257e-04
3.270396012047e-04
3.133002477505e-04
2.941041936628e-04
2.994079444540e-04
2.802416956956e-04
2.852645835444e-04
3.047149685650e-04
2.903935431213e-04
2.707421819840e-04
2.758153485485e-04
2.558747497554e-04
2.610035089594e-04
2.406850601088e-04
2.458149218734e-04
2.663345423911e-04
2.512227979815e-04
2.302963206608e-04
2.358594762219e-04
2.569726484026e-04
2.417860759716e-04
2.630051302337e-04
2.480286810916e-04
2.266484601438e-04
2.331209569761e-04
2.545037941154e-04
2.397748705068e-04
2.182781681305e-04
2.252322885596e-04
2.466954327193e-04
2.323929154535e-04
2.108426893945e-04
2.182703821928e-04
2.398523177307e-04
2.258529090777e-04
2.042489829913e-04
2.120210492932e-04
2.336750684453e-04
2.199447283183e-04
2.416148815398e-04
1.981466156335e-04
2.062986221444e-04
1.843268363753e-04
1.927935998263e-04
3.101028713735e-04
1.707371057526e-04
1.623509602734e-04
1.794632140057e-04
2.014686680695e-04
1.573093666830e-04
1.662810090546e-04
1.440751817193e-04
2.355535410983e-04
3.675847874700e-04
1.532536559787e-04
1.310261849205e-04
1.217050861040e-04
1.087140189317e-04
3.626991280508e-04
3.830828151874e-04
3.743864235965e-04
3.954847960641e-04
3.869857712405e-04
1.181337620121e-04
3.934661794537e-04
4.037953010273e-04
3.094876344548e-04
2.751974823169e-04
2.779769567035e-04
1.753044021916e-04
1.624714065169e-04
1.843677749199e-04
2.552743855403e-04
2.631394824873e-04
2.767250314463e-04
2.844812257659e-04
2.979868066528e-04
3.056438864018e-04
2.923324996531e-04
3.133950767937e-04
3.002758955098e-04
3.190581150421e-04
3.115662866511e-04
3.212366727644e-04
3.083173877517e-04
3.292038016897e-04
3.164607530567e-04
2.954442808380e-04
3.037496121602e-04
2.827185601978e-04
2.840819351061e-04
2.989014663318e-04
3.050258688831e-04
3.197183064510e-04
3.258587759872e-04
3.404336204120e-04
3.465284805819e-04
3.321246488488e-04
3.872808431511e-04
2.145685116635e-04
2.091785692422e-04
1.930008730459e-04
1.878212252518e-04
1.710399086805e-04
1.661375457401e-04
1.484744355474e-04
1.540717405185e-04
1.306208111296e-04
1.371301887987e-04
1.129111143684e-04
1.203387744053e-04
3.327510506008e-04
3.343902443422e-04
3.550540006293e-04
3.489223976767e-04
9.919671030097e-05
3.247243977792e-04
3.325702134765e-04
3.251568058367e-04
3.528297211855e-04
9.608515670446e-05
1.439755473326e-04
1.621205955505e-04
4.079098946404e-04
3.992732679539e-04
3.461761400202e-04
1.055258125200e-04
3.342608923087e-04
1.062574926758e-04
3.121753603913e-04
3.330597484673e-04
2.791625748431e-04
3.696695285955e-04
3.633445597573e-04
1.442183679645e-04
1.280857646290e-04
1.044516857938e-04
1.129417378494e-04
1.361775223410e-04
1.208713378020e-04
9.737074892946e-05
1.059115719125e-04
1.293245219321e-04
1.147121778909e-04
9.117896246613e-05
1.003346560311e-04
3.454627590042e-04
8.785990227050e-05
3.284214180319e-04
3.533369533705e-04
3.668834793494e-04
4.203837395764e-04
4.116039956847e-04
3.904212840629e-04
4.027063260177e-04
4.239879092672e-04
4.149745713587e-04
3.936811987105e-04
4.058525527982e-04
3.845587526938e-04
3.966481167173e-04
4.180297012984e-04
4.087601341609e-04
3.873736622072e-04
3.994092751898e-04
3.779924080283e-04
3.899228096486e-04
4.114651752101e-04
8.416767975271e-05
3.385171852006e-04
3.593721961257e-04
1.722288149307e-04
1.932911402612e-04
2.061064514666e-04
2.152989781353e-04
4.017851924541e-04
4.234555441822e-04
1.407217071688e-04
1.592538697244e-04
4.290238408581e-04
3.207753612154e-04
2.997852116232e-04
2.613553883452e-04
2.565766879433e-04
2.426784642881e-04
2.379705622875e-04
2.517130523613e-04
2.238608986794e-04
3.039611556900e-04
4.302164034067e-04
1.124132002828e-04
8.976878200195e-05
3.415795038285e-04
3.176725050934e-04
3.466109446975e-04
3.524755283345e-04
3.664916899081e-04
3.724666328665e-04
3.866557963459e-04
3.926301741578e-04
3.784135780142e-04
3.842626963785e-04
3.986533925847e-04
3.800883860126e-04
3.281733488346e-04
1.379365585465e-04
7.430992643831e-05
7.622599741300e-05
9.282193316167e-05
1.149402249705e-04
3.668854622212e-04
4.070090471158e-04
4.006771670223e-04
2.336584185971e-04
2.469467797003e-04
3.903076872703e-04
3.662365208346e-04
3.725328801934e-04
3.633151512077e-04
6.914536996366e-05
6.777583832152e-05
4.363653241374e-04
1.794212036257e-04
1.766746361355e-04
8.042869361519e-05
6.137420624529e-05
4.135191176581e-04
4.350664680558e-04
2.278313916638e-04
2.367720971001e-04
3.599750683188e-04
8.621021689686e-05
4.450974320655e-04
3.243238308283e-04
3.032940914261e-04
2.025070643000e-04
1.390858924887e-04
1.188093630165e-04
1.524117416814e-04
1.095496483688e-04
1.022631699797e-04
3.806158000210e-04
4.452950281818e-04
3.844096377253e-04
3.640902069878e-04
4.048738254204e-04
6.283612244842e-05
3.741430258816e-04
3.295013907727e-04
4.204262003516e-04
4.146142746116e-04
1.958501040728e-04
1.931806164787e-04
1.750982183919e-04
1.910072010616e-04
3.337983041098e-04
2.118303368166e-04
3.159570072741e-04
3.094150761218e-04
2.972608205260e-04
2.648832792155e-04
2.597625733100e-04
2.041658257805e-04
2.928584245098e-04
2.189783560199e-04
2.743728272346e-04
2.690193622685e-04
4.393808212170e-04
4.517227380122e-04
3.660265429384e-04
3.566255554270e-04
7.658708768279e-05
6.691431443401e-05
2.496931104010e-04
3.604438465342e-04
4.414312069368e-04
4.501036345324e-04
4.374471006858e-04
3.736867437663e-04
1.987652365070e-04
2.903422299521e-04
7.022941859526e-05
3.243083718221e-04
5.414359697276e-05
3.808608654645e-04
3.503275765917e-04
3.621547250559e-04
4.045687855415e-04
3.078157601525e-04
3.299364763700e-04
3.156841738725e-04
2.908576877594e-04
2.790736033444e-04
2.850506406151e-04
2.670173318510e-04
1.605554810715e-04
1.463389506637e-04
4.289995557157e-04
4.187253110300e-04
4.346778750349e-04
4.291782459093e-04
4.106631234924e-04
3.961316143563e-04
1.236473374379e-04
2.421476266783e-04
4.578216769129e-04
3.026497286182e-04
3.805187784042e-04
3.679089873199e-04
4.349032950931e-05
5.261791693170e-05
4.569336970414e-04
1.738532998577e-04
1.882124414089e-04
1.577210860929e-04
3.916852588178e-04
3.159197186924e-04
3.710357103411e-04
2.779591258566e-04
4.671341103309e-04
3.359077602398e-04
2.467576525253e-04
3.528853449188e-04
4.455628351154e-04
4.691261092519e-04
3.514569920521e-04
3.414795894911e-04
3.599403938447e-04
1.006586516657e-04
7.234823906683e-05
4.422953371018e-04
1.498109299191e-04
1.612672219514e-04
9.515988517279e-05
1.179979252895e-04
2.405092887725e-04
2.318838796351e-04
3.875948808800e-04
4.010713033458e-04
3.603682990845e-04
3.102045117837e-04
2.890581196198e-04
2.822602087055e-04
4.603470880152e-04
4.750208467866e-04
1.748334935033e-04
1.670376611516e-04
1.684447295688e-04
4.667308859068e-04
3.825309891629e-04
3.737160358000e-04
4.441659844863e-05
5.700881704459e-05
1.181523835792e-04
9.541015246852e-05
4.581315722231e-04
4.458804352527e-04
4.726137110105e-04
1.095991642691e-04
3.705079399651e-04
3.935232770708e-04
3.870648434801e-04
4.030889979592e-04
3.981751327123e-04
4.178075879936e-04
4.250830201083e-04
3.363230681293e-05
4.618509103731e-04
3.437200484801e-04
2.008954286565e-05
3.344921932698e-04
3.468987310328e-04
3.237199112370e-04
8.809786334338e-05
3.357621985367e-04
3.477594967675e-04
3.067934721840e-05
4.789882982759e-04
3.287561116039e-05
4.214911578828e-05
3.884562745738e-04
3.753078951645e-04
3.949687550800e-04
3.819007671390e-04
3.623339614047e-04
3.705276818664e-04
3.313000919525e-04
3.931147030554e-04
3.789826516581e-04
4.017132756444e-04
2.615088826637e-04
2.053039420746e-04
2.020709544715e-04
1.857376563353e-04
4.526230944461e-04
4.419445719716e-04
3.390379971873e-04
3.179236427307e-04
3.358846996216e-04
3.349552899052e-04
3.542817420552e-04
3.518287484144e-04
3.712635349390e-04
3.684649142651e-04
3.883377997103e-04
4.402680300190e-04
1.576264419205e-04
2.843904016720e-04
4.160415885227e-04
4.003951894873e-04
2.544989562851e-04
2.375117019150e-04
3.968969784495e-04
2.153522209923e-04
4.905430067396e-04
9.742270621295e-06
3.708192717050e-05
2.310261822648e-04
2.725289999796e-04
2.194427430973e-04
2.164280274775e-04
3.315289382326e-04
4.816299811652e-05
1.392052219124e-04
3.906314615019e-04
1.202443672639e-04
3.288084433271e-04
2.200577456652e-04
2.833124059416e-04
1.579288706417e-04
2.091094626949e-04
3.408484266504e-04
3.265985771196e-04
3.146947101126e-04
2.250681768058e-04
2.296571981924e-04
2.112926206709e-04
3.222963777677e-04
4.247477526602e-04
4.328747340713e-04
4.532949517704e-04
4.407370446284e-04
4.199621055443e-04
4.277369337230e-04
4.486871807630e-04
4.359564672787e-04
4.604737647729e-04
4.431558972471e-04
4.217959291102e-04
4.284785942138e-04
4.480039422356e-04
4.077229101893e-04
4.300772736806e-04
2.509148751541e-04
5.206419302919e-05
5.854127149352e-05
2.965237189867e-04
4.831970198805e-04
4.874583904765e-04
1.832177136610e-04
4.718158902324e-04
3.215903329057e-04
1.252012868976e-04
4.653335125675e-04
4.119644499857e-04
3.989716319735e-04
3.910905293753e-04
4.912285107169e-04
3.690865069295e-04
4.510938905870e-04
3.136480668291e-04
3.074616497927e-04
2.868549225044e-04
4.143180767907e-04
4.344356774719e-04
4.158428165617e-04
4.126851563272e-04
3.956554190637e-04
4.279751496814e-04
4.810592757433e-04
4.791548736235e-04
1.442185715138e-04
1.593574464824e-04
1.818420903916e-04
1.745707021440e-04
1.516972986522e-04
1.673804635388e-04
1.897721405370e-04
1.604351663196e-04
4.217133737751e-04
4.228053561516e-04
2.903770690821e-04
2.826742797982e-04
2.613383124413e-04
2.102273828206e-04
2.232931977611e-04
2.448630239414e-04
1.972415815623e-04
3.582671126571e-04
4.200754322169e-04
2.967374645411e-04
2.147217323846e-04
3.135628662923e-04
3.313875854294e-04
3.306333174949e-04
3.509358590431e-04
3.341278033739e-04
2.491987122959e-04
2.579606492488e-04
2.458117506255e-04
2.667907587584e-04
2.543566135316e-04
2.348468675961e-04
2.753164788185e-04
2.615822846983e-04
3.146483463012e-04
6.197816589707e-06
2.697995841497e-05
2.634981941956e-05
4.718052176210e-05
4.951306547323e-05
7.147066407321e-05
6.942815637198e-05
2.733664493288e-05
7.379380102374e-06
2.669474152542e-05
8.048826345604e-06
2.641888645864e-05
4.970848429900e-05
8.072715066052e-05
4.040226705809e-04
2.014136581138e-04
1.909798101304e-04
1.701682582851e-04
1.815449417082e-04
2.100891665118e-04
1.584643314577e-04
1.506479384000e-04
1.313006043322e-05
2.999864247628e-05
2.790713975614e-05
4.860856332282e-05
4.829471698421e-05
3.011316803150e-05
2.993180356657e-05
1.251274792085e-05
2.975487152745e-05
4.905331560724e-05
1.169080021408e-05
4.167788326702e-04
4.284410017359e-04
4.146755794213e-04
3.179635146625e-04
9.852941371371e-06
4.918550566623e-04
4.945466963698e-04
4.953871088676e-04
3.710984852541e-04
3.816217513116e-04
4.927617917144e-04
1.349025975032e-04
4.610381456038e-04
4.543891628715e-04
1.212669579767e-04
1.322359902373e-04
3.086238309615e-04
2.872800528060e-04
3.535801471570e-04
2.911970452990e-04
3.372905390601e-04
4.079256872657e-04
8.089844290220e-05
3.752738653567e-04
3.685009400660e-04
4.208772455918e-04
1.403015992187e-04
2.252488976313e-04
8.638039072747e-05
4.498513675455e-04
3.034745167483e-04
2.474958336345e-04
1.883335838891e-04
1.484999122293e-04
1.236542003405e-04
2.659599937917e-04
2.280962373239e-04
3.266090094118e-04
4.329610031549e-04
1.251931720879e-05
3.399084177397e-04
2.711005174357e-04
3.814823638488e-04
3.609919970091e-04
8.282056016065e-05
4.272169750854e-04
4.617347184325e-04
3.569098773258e-04
6.399919246541e-05
3.535943563326e-04
3.871854953130e-04
4.164091598738e-04
1.275723228916e-04
2.692708983767e-04
2.887447450634e-04
2.894846245194e-04
4.631981295016e-04
2.956883339189e-04
3.735391029084e-04
3.112862645881e-04
1.371544262473e-04
3.549283188804e-04
2.720536661664e-04
4.486259309614e-04
3.804219391137e-04
2.204155727595e-04
4.327793599926e-04
2.538390854549e-04
3.756316773374e-04
2.908702636821e-04
3.406470010028e-04
3.741412309175e-04
3.188082588705e-04
2.966820335848e-04
3.473703464968e-04
9.562749928719e-05
2.278249889982e-04
3.782232799213e-04
4.124106240314e-04
4.699016543235e-04
2.700724213349e-04
3.419726097049e-04
4.536127599233e-04
2.364289722109e-04
9.371683380564e-05
9.815392816491e-05
1.767046267680e-04
2.811356256725e-04
2.578983185859e-04
4.687195261361e-04
3.498495672576e-04
3.389283920407e-04
6.750794671414e-05
2.960838562559e-04
3.579189020074e-04
2.757076192602e-04
3.811503141001e-04
2.414809738385e-04
4.458498313956e-04
2.496428755799e-04
3.663827701654e-04
3.455950865602e-04
1.996168090530e-04
3.165418482565e-04
3.896151313449e-04
3.666363800234e-04
3.384183106561e-04
2.611283585878e-04
2.668890196435e-04
2.661536068724e-04
3.541312192334e-04
4.925745832593e-04
3.795512217791e-04
3.782781468866e-04
2.532527343172e-04
3.423542165231e-04
4.843315609008e-05
2.730727276155e-04
2.617065117920e-04
1.830266204458e-04
2.679516639994e-04
4.242938690936e-04
2.702786678996e-04
2.050394562563e-04
2.789165904151e-04
2.446708800340e-04
3.860079566966e-04
2.876117291432e-04
3.740068567178e-04
5.070805485159e-05
3.440568160653e-04
3.602116028175e-04
1.762469652415e-04
2.751034302515e-04
4.067711872951e-04
2.222673293350e-04
2.963342808689e-04
3.942473417805e-04
3.500222473470e-04
3.013774473941e-04
3.176542539455e-04
2.258831249390e-04
1.260929173037e-04
1.036329696411e-04
2.115824482896e-04
4.081058405630e-04
6.687599275385e-05
4.007524999983e-04
7.172442122615e-05
1.966579474238e-04
3.776826849056e-04
3.752225158091e-04
2.036813873576e-04
1.155489398169e-04
1.891726647958e-04
3.217344361039e-04
1.966814770826e-04
1.825686258250e-04
4.755385905760e-04
1.903059795127e-04
4.966119079919e-04
4.047085593768e-04
3.328421529302e-04
1.999707428015e-04
5.832513133099e-06
2.011068782302e-04
1.543603897226e-04
3.941025250121e-04
3.336807750116e-04
1.402991206439e-04
4.634466660945e-04
4.585984098330e-04
4.063264999812e-04
3.863219222991e-04
3.566882254701e-04
4.571890686497e-04
3.145897720439e-04
2.659019659505e-05
3.072672633705e-04
1.775969138874e-04
1.717927961369e-04
1.408606670419e-04
1.445331581827e-04
4.648460020647e-05
1.572509998539e-04
4.177490307399e-04
3.324869763825e-04
3.910802224641e-04
1.259740800132e-04
4.740389832589e-04
4.342156782823e-04
4.124985053789e-04
4.117870678375e-04
9.489225608420e-05
3.478060312185e-04
4.527555656898e-04
4.231727079526e-04
4.115316398054e-04
3.289855984536e-04
4.788809089675e-04
8.014280304370e-05
4.793725562362e-04
4.146343728866e-04
3.595070994624e-04
3.448996472674e-04
3.914389591762e-04
4.672348381722e-04
6.722118344722e-05
4.050819230254e-04
1.821284635656e-04
2.423962266651e-05
3.979135494338e-04
4.344622771737e-04
3.909783591465e-04
4.774040217720e-05
2.501828719955e-05
4.050510939549e-04
4.610683241823e-04
9.030496020934e-05
4.974661166387e-04
3.622868587311e-05
3.119342717930e-04
2.762426119669e-05
4.096182784565e-04
4.784365203173e-04
2.007389341475e-04
3.128643130345e-04
1.303213194995e-04
4.292035142308e-04
4.265334217965e-05
4.811138168922e-04
4.108631758675e-04
4.758660210223e-04
4.470807991384e-04
2.612750408676e-05
4.428644549872e-04
3.966722919310e-04
3.145932651057e-04
4.706590188288e-04
1.620633306659e-04
6.587419515663e-05
4.990582378907e-04
9.614321712137e-06
3.136201975897e-04
4.088694991507e-04
6.278281935064e-05
3.485272823571e-04
4.645377083158e-04
2.467589465738e-04
4.449180462087e-04
6.283955963913e-05
1.917320765821e-06
3.865011230399e-04
4.344711882159e-04
4.789951550490e-04
3.713316697489e-04
7.882558051973e-05
4.505419835378e-04
2.172543620079e-04
4.375639013135e-04
4.029800128396e-04
1.349391407332e-05
2.653727470929e-04
2.453801149611e-05
3.986586078931e-04
2.263017521944e-04
1.434608718095e-04
1.385289366736e-04
1.578401142897e-04
1.592271222997e-04
1.766810915078e-04
1.818834801803e-04
1.966857622548e-04
2.019911963669e-04
2.171132486958e-04
2.245369797300e-04
2.382229273239e-04
2.445999050637e-04
2.596599767904e-04
2.671445798434e-04
2.813932021080e-04
2.870843672603e-04

SCALARS node_materi_strain_total_size_dev_sd_ept float
LOOKUP_TABLE default
1.361712334567e-05
7.651357791119e-04
1.007803693137e-03
1.238160201267e-03
3.727297775667e-05
8.410192969507e-05
1.265018671613e-04
1.756954054014e-04
2.234025015574e-04
2.702837049309e-04
3.178546763441e-04
3.662503186015e-04
4.154016490640e-04
4.663983210378e-04
5.202331265759e-04
5.723441860225e-04
6.206660866761e-04
6.760343681841e-04
7.339913224803e-04
7.915073150605e-04
8.510250787443e-04
9.125167752712e-04
9.717820418629e-04
1.240372093111e-03
1.238016532234e-03
1.238529742384e-03
1.238305130987e-03
1.236534089705e-03
1.237558789790e-03
1.237245326745e-03
1.236056766518e-03
1.236817376422e-03
1.235727523415e-03
1.233184819841e-03
1.233005396762e-03
1.231771828300e-03
1.229063180071e-03
1.225828550571e-03
1.221504610130e-03
1.217878771632e-03
1.214961811773e-03
1.211283048879e-03
1.206802574159e-03
1.200535247682e-03
1.193473563345e-03
1.185901986435e-03
1.177529702780e-03
1.169095931048e-03
1.160176472667e-03
1.150675594772e-03
1.140371981941e-03
1.129522827686e-03
1.120952634520e-03
1.109358818482e-03
1.096270351649e-03
1.085491440853e-03
1.076912143260e-03
1.067957226565e-03
1.059936938834e-03
1.052216703173e-03
1.044645250500e-03
1.037208526126e-03
1.030842996215e-03
1.027301830971e-03
1.025642953177e-03
1.022976955476e-03
1.012086566502e-03
1.016071738197e-03
1.012144628195e-03
1.012097645639e-03
1.012993932199e-03
1.012231032380e-03
8.166639266035e-04
8.686871439932e-04
9.190730495683e-04
9.680291203258e-04
1.017556041483e-03
1.066277207211e-03
1.114502494698e-03
1.161774146707e-03
1.209908802873e-03
9.222167423767e-05
7.745019422301e-04
2.120281784944e-04
3.310563931536e-04
3.844254557650e-04
4.420224875334e-04
4.995114265774e-04
5.555576580931e-04
6.110667327664e-04
6.654521579226e-04
7.187803505636e-04
3.664117703606e-04
3.959491218564e-04
4.469537037950e-04
4.995582477644e-04
5.524717644864e-04
6.054022948040e-04
6.581219171188e-04
7.101931333951e-04
7.575797705924e-04
7.607220418070e-04
7.614046109945e-04
7.611370054037e-04
7.684162240030e-04
7.630426399891e-04
7.629627493105e-04
7.642648184184e-04
7.666367539803e-04
7.673578023868e-04
7.677881749710e-04
7.685764467665e-04
7.693684230727e-04
7.709989323844e-04
8.056733206196e-05
8.531052468023e-05
8.227235633302e-05
7.493945936796e-05
6.813789927844e-05
6.287036080823e-05
5.662938934055e-05
5.019383004442e-05
4.448004625937e-05
3.905321477337e-05
3.436134666812e-05
3.287505654320e-05
2.742961590377e-05
2.164743133230e-05
1.907598765433e-05
1.825251045756e-05
1.686577265267e-05
1.371948545216e-05
1.207583453818e-05
3.285192251298e-04
3.306713644602e-04
3.320389257904e-04
3.319285668776e-04
3.330816125224e-04
3.347325981843e-04
3.370104698548e-04
3.395292150965e-04
3.422431594071e-04
3.449703648648e-04
3.476481901707e-04
3.502147069593e-04
3.526357969021e-04
3.548842155659e-04
3.569460048033e-04
3.588128260292e-04
3.604800946769e-04
3.619456252462e-04
3.632075840261e-04
3.642597623466e-04
3.650862477648e-04
3.656559623066e-04
3.659200460451e-04
3.658458409035e-04
3.659679322938e-04
3.701683156664e-04
3.672286197788e-04
3.760472323974e-04
3.715276552493e-04
3.713921307018e-04
3.719002144687e-04
3.728392174705e-04
3.742677536978e-04
3.759122860882e-04
3.776807856655e-04
3.794864972952e-04
3.812737691298e-04
3.829991371156e-04
3.846331688823e-04
3.861531825934e-04
3.875399189109e-04
3.887801295410e-04
3.898660588512e-04
3.907916924157e-04
3.915504235134e-04
3.921349012293e-04
3.925419003567e-04
3.927897722405e-04
3.930152753702e-04
3.939310674656e-04
3.956092118590e-04
4.471074239652e-04
4.467383684983e-04
4.462685109733e-04
4.459153184256e-04
4.456069871701e-04
4.452680782404e-04
4.448555661888e-04
4.443516990866e-04
4.437558217952e-04
4.430733996232e-04
4.423145542481e-04
4.414928586680e-04
4.406382795767e-04
4.397860880115e-04
4.389767096909e-04
4.382288489777e-04
4.376226711341e-04
4.371634607601e-04
4.370340730637e-04
4.370901167987e-04
4.377498220030e-04
4.415272107042e-04
4.319521806047e-04
4.917441193890e-04
5.015243925822e-04
4.985768444200e-04
4.979783906590e-04
4.976647121809e-04
4.973340571709e-04
4.972302660396e-04
4.972106232266e-04
4.973255051548e-04
4.975349203443e-04
4.977904125108e-04
4.980406604007e-04
4.982810696103e-04
4.985052219063e-04
4.987020652768e-04
4.988637172300e-04
4.989987618336e-04
4.991410011149e-04
4.993265764283e-04
4.995610309338e-04
4.996974115816e-04
4.995967173489e-04
5.525022128275e-04
5.525467538816e-04
5.525214889309e-04
5.525119697429e-04
5.525476569572e-04
5.526328252270e-04
5.527435289609e-04
5.528478628499e-04
5.529614584998e-04
5.531178534177e-04
5.533097352884e-04
5.535148062695e-04
5.537179689171e-04
5.540471739372e-04
5.545101102980e-04
5.551603633858e-04
5.556650982997e-04
5.562038469907e-04
5.592422034082e-04
5.489853371569e-04
6.043373393930e-04
6.148468711054e-04
6.120988451933e-04
6.112550424208e-04
6.104716198601e-04
6.097292653223e-04
6.092382514946e-04
6.086749230234e-04
6.081120157745e-04
6.075633814745e-04
6.071362820169e-04
6.067968908917e-04
6.064175033587e-04
6.060864304024e-04
6.058312979209e-04
6.056495115960e-04
6.055213535585e-04
6.054811498166e-04
6.054405196301e-04
6.583575571250e-04
6.582612492246e-04
6.584136421057e-04
6.587448406972e-04
6.590541379060e-04
6.595511897705e-04
6.601186017241e-04
6.607089563626e-04
6.611901716193e-04
6.620117923291e-04
6.628550335596e-04
6.636086658906e-04
6.644495234890e-04
6.649397666089e-04
6.658646199875e-04
6.692296582766e-04
6.589947274729e-04
7.119543217035e-04
7.220007571476e-04
7.190281114660e-04
7.178792660282e-04
7.170913341172e-04
7.162446718983e-04
7.151586673367e-04
7.143373482524e-04
7.135896580729e-04
7.128583595173e-04
7.121942762453e-04
7.116359042559e-04
7.113749135977e-04
7.108221709905e-04
7.110278706700e-04
7.114631746328e-04
1.497140498581e-04
2.753099970151e-04
3.647800311058e-04
4.211302200306e-04
4.765195278128e-04
5.330307202938e-04
5.889452097447e-04
6.434495237471e-04
6.970356268104e-04
7.498690196180e-04
3.096415502582e-04
1.054900220199e-03
5.017609601917e-05
6.731543848356e-05
1.013889498601e-03
4.709032868524e-04
4.949838465338e-04
1.097695731749e-03
5.770801046833e-04
1.144381307922e-03
6.882237305667e-04
9.980971767408e-04
3.569421741181e-05
1.179648743376e-03
7.950990773169e-04
2.961533864901e-04
6.400355854292e-04
1.195184962401e-03
1.210598653405e-03
1.218815232447e-03
1.213732322827e-03
1.216462545939e-03
8.175660188172e-04
8.144741229826e-04
8.153077551324e-04
9.931075060998e-04
9.873250768629e-04
7.150200529329e-05
3.231573373077e-05
8.191448676233e-04
8.075836143875e-04
1.511046484420e-04
1.197696984030e-03
1.125700000296e-03
1.163884246974e-03
1.074062054028e-03
1.038257565249e-03
6.262629109599e-05
8.144355124104e-04
9.930499309037e-04
1.089708122037e-03
4.413556364253e-05
3.910467316820e-04
1.226019002125e-03
5.280970954578e-04
4.109033952605e-04
6.335087254689e-04
7.414606517930e-04
1.663679242090e-04
8.977206887301e-04
9.949957370797e-04
2.799753858114e-05
1.182974731802e-03
8.192089721565e-04
8.396580377180e-04
8.636328226999e-04
8.868187838768e-04
9.132285364323e-04
9.330555041193e-04
9.064409121449e-04
9.519084644591e-04
9.246247960280e-04
9.596191086962e-04
9.695651605644e-04
9.415581533370e-04
9.859201614909e-04
9.572018707926e-04
9.131122044971e-04
9.278343759414e-04
8.839239907823e-04
8.976081533553e-04
9.411019696096e-04
9.096221054058e-04
8.663291769581e-04
8.769208861947e-04
8.340007551772e-04
8.429911878072e-04
8.003252909894e-04
8.075571482034e-04
8.503816224351e-04
8.131076757755e-04
7.704190109062e-04
7.739756677046e-04
7.312826629193e-04
7.326027709125e-04
7.765852489945e-04
7.335237634378e-04
6.885543529404e-04
6.882454302461e-04
6.419714190009e-04
6.409358445972e-04
5.928654177146e-04
5.914868920469e-04
6.415011599311e-04
5.925399678160e-04
5.406512238380e-04
5.430103122702e-04
5.963432171941e-04
5.485409506636e-04
6.028743179751e-04
5.569597044009e-04
5.022243389410e-04
5.127749518779e-04
5.677839914198e-04
5.254385583760e-04
4.708522449631e-04
4.855541101643e-04
5.401183696958e-04
5.018624920996e-04
4.482510325695e-04
4.660041362624e-04
5.197434944645e-04
4.847349702535e-04
4.322905667587e-04
4.517675240532e-04
5.045000955675e-04
4.719043806608e-04
5.249427074663e-04
4.201797605001e-04
4.407438098238e-04
3.899594669884e-04
4.109484790080e-04
7.790939035235e-04
3.611529209566e-04
3.409491948256e-04
3.823107289271e-04
4.325922911387e-04
3.333189558751e-04
3.545193875566e-04
3.063405333513e-04
5.953962269132e-04
9.529882482129e-04
3.274305574315e-04
2.798904379197e-04
2.592080531881e-04
2.331895576582e-04
9.392741751815e-04
9.862502987269e-04
9.643609238052e-04
1.012558294434e-03
9.914180425018e-04
2.535523341912e-04
1.014334561816e-03
1.032680329241e-03
8.231778085668e-04
7.284768582459e-04
6.497615238237e-04
3.759653666207e-04
3.487704863029e-04
3.977952562561e-04
5.586042472414e-04
5.791693586952e-04
6.137868091045e-04
6.344309897464e-04
6.699104814388e-04
6.907013378583e-04
6.557293248267e-04
7.122092806582e-04
6.776130005566e-04
7.269323149588e-04
7.066952515799e-04
7.343166973905e-04
7.000361166861e-04
7.570311710365e-04
7.229378206447e-04
6.667075022495e-04
6.896698980980e-04
6.345201885218e-04
6.572540308313e-04
7.033444358938e-04
7.116902031793e-04
7.570330041559e-04
7.663079980598e-04
8.109338445552e-04
8.211219429003e-04
7.774330724633e-04
1.000852120381e-03
4.895626188283e-04
4.886482302959e-04
4.358466009274e-04
4.365025929068e-04
3.817328065379e-04
3.841544194414e-04
3.271496628268e-04
3.293859006133e-04
2.739166714777e-04
2.816461977129e-04
2.271826394572e-04
2.400525119082e-04
8.564945399060e-04
8.023228003477e-04
8.554924701508e-04
8.467648968542e-04
2.130409433020e-04
7.462774433627e-04
7.644310602762e-04
7.446224267475e-04
8.333357046682e-04
2.075920323865e-04
3.316246506320e-04
3.924469216214e-04
1.038526141127e-03
1.017328810740e-03
8.031572622511e-04
2.275754599610e-04
7.697699580976e-04
2.190648679797e-04
7.129964083414e-04
7.699782627718e-04
6.220929752830e-04
8.993615541517e-04
8.900030082686e-04
2.940662304208e-04
2.563557683716e-04
2.066025994462e-04
2.256364597709e-04
2.742624877399e-04
2.431023923690e-04
1.962880978073e-04
2.153689099033e-04
2.625119617343e-04
2.350143528571e-04
1.897058050219e-04
2.091349585670e-04
8.040146497686e-04
1.748371783015e-04
8.686432782983e-04
8.229398271737e-04
8.760096893874e-04
1.064373378066e-03
1.043230707073e-03
9.952736614983e-04
1.021550034113e-03
1.069196184798e-03
1.047622866696e-03
9.993293161310e-04
1.025444334055e-03
9.765043292006e-04
1.002867562029e-03
1.051505007824e-03
1.029214599021e-03
9.801490940534e-04
1.006641080030e-03
9.571144294401e-04
9.835113800928e-04
1.033088764911e-03
1.828792299273e-04
7.904658950580e-04
8.479217043716e-04
3.719113553012e-04
4.191069312045e-04
4.477459337470e-04
4.702302570500e-04
1.009935275227e-03
1.059672064463e-03
3.434517426064e-04
4.065926960888e-04
1.084764096569e-03
7.369848765055e-04
6.808438036704e-04
6.895326939280e-04
6.871636544174e-04
6.484554575141e-04
6.456189992783e-04
6.819705082986e-04
6.072430129816e-04
6.868522369489e-04
1.077620724879e-03
2.389782212358e-04
1.934515000613e-04
7.945494337936e-04
7.340889999716e-04
8.938171732502e-04
9.006080362741e-04
9.379241042142e-04
9.454001384535e-04
9.825948071917e-04
9.906769551748e-04
9.527207192052e-04
9.419616461956e-04
9.990842512177e-04
9.592780187583e-04
7.945497718512e-04
2.826128854754e-04
1.627828691168e-04
1.643577367792e-04
2.008990983094e-04
2.477854039250e-04
8.622581824714e-04
1.027667290981e-03
1.017964848232e-03
6.399188628265e-04
6.737269564194e-04
9.518794759650e-04
9.429313633768e-04
9.502272878475e-04
9.265862878303e-04
1.507021169823e-04
1.475235264532e-04
1.095074818390e-03
4.514979289301e-04
4.650259442809e-04
1.659718764519e-04
1.268560219187e-04
1.035750429743e-03
1.084781403234e-03
4.987825090594e-04
5.215817965474e-04
8.431952989685e-04
1.841891338701e-04
1.108110833595e-03
7.484237006134e-04
6.916886834623e-04
4.409881501502e-04
3.628691416045e-04
2.947009505755e-04
3.119720275421e-04
2.289604972830e-04
2.210624254804e-04
9.028199289533e-04
1.115654073710e-03
9.605058933063e-04
9.130837146526e-04
1.007955758464e-03
1.414702073876e-04
8.832883225021e-04
7.617668293089e-04
1.061147950585e-03
1.051623870946e-03
5.065621897339e-04
5.177361798535e-04
4.795190175098e-04
5.263520148222e-04
8.793544074338e-04
5.576789552282e-04
8.397872856755e-04
8.237257611645e-04
7.954323786883e-04
7.158941510950e-04
7.054738555469e-04
4.913235999492e-04
6.968025532370e-04
4.766141666189e-04
6.119209993608e-04
5.937965455526e-04
1.099149296839e-03
1.125402929320e-03
9.302994048486e-04
9.063454836107e-04
1.675702003665e-04
1.489804822973e-04
5.460579281015e-04
8.435709801969e-04
1.110038709174e-03
1.129719410165e-03
1.104096893043e-03
8.835697883277e-04
4.396917054144e-04
6.668234256648e-04
1.418559689198e-04
8.212842721875e-04
1.233593353894e-04
9.843635483176e-04
8.197694899592e-04
8.529398543321e-04
9.929195411184e-04
8.144215250431e-04
8.253958510130e-04
7.823548140773e-04
7.784929023681e-04
7.507703269333e-04
7.664989070170e-04
7.221156591770e-04
3.315267456866e-04
3.024474741295e-04
1.076291969203e-03
1.045095265758e-03
1.094292831341e-03
1.084821763083e-03
1.003776271631e-03
9.622358052952e-04
2.670636924578e-04
6.621138389571e-04
1.141199191696e-03
8.058201028859e-04
9.031159903958e-04
8.655351071839e-04
1.008030950896e-04
1.160769506795e-04
1.133932900431e-03
4.891098511835e-04
5.274352133813e-04
4.430620378533e-04
9.411866154070e-04
8.053252254673e-04
8.788298784169e-04
7.485525856735e-04
1.156841767081e-03
8.307838169415e-04
6.468915184867e-04
8.248174278655e-04
1.107960672657e-03
1.161132100752e-03
8.998414166895e-04
8.746078818954e-04
9.223954674668e-04
2.176495803292e-04
1.626277751911e-04
1.103625250224e-03
3.222419238050e-04
3.488206964615e-04
2.024077076523e-04
2.475168669204e-04
5.283246963267e-04
5.061306979368e-04
9.965215970919e-04
1.027942217774e-03
9.295588576219e-04
7.072908156611e-04
6.506937047471e-04
6.358438895316e-04
1.145208602606e-03
1.176347442783e-03
3.624945456381e-04
3.438971406832e-04
3.507306500067e-04
1.161310369686e-03
9.120757968935e-04
8.870756984539e-04
1.065199310051e-04
1.308298610827e-04
3.184832065992e-04
2.443699190156e-04
1.147200101949e-03
1.123035892065e-03
1.176320726752e-03
2.371359079549e-04
9.211201805520e-04
9.418815559411e-04
9.237167056282e-04
9.695543941578e-04
9.818961035125e-04
1.030603688802e-03
1.055621170602e-03
8.659600331789e-05
1.144180114374e-03
8.770204309244e-04
7.692060156728e-05
8.530526066486e-04
8.821733383808e-04
8.262758471912e-04
1.911338976199e-04
8.641850165847e-04
8.955117394364e-04
8.132065125991e-05
1.185902203696e-03
8.319912977460e-05
9.886178772123e-05
9.252945285198e-04
8.873646883979e-04
9.465533067593e-04
9.088479327221e-04
8.502779750644e-04
8.746774183714e-04
8.488654880366e-04
9.419897188596e-04
9.004223380348e-04
9.681090613882e-04
7.060571263936e-04
5.664937801295e-04
5.634343406210e-04
5.195361914119e-04
1.133412145072e-03
1.113536482203e-03
7.885394323307e-04
7.308362645935e-04
8.553114823642e-04
8.520106115689e-04
8.984872574715e-04
8.919431624435e-04
9.382409142896e-04
9.306381872356e-04
9.773635862928e-04
1.094801259732e-03
4.505701381308e-04
7.602069807320e-04
1.015135997406e-03
9.707939278938e-04
6.920439540638e-04
6.480189397702e-04
9.515592304015e-04
5.497773910797e-04
1.211192268220e-03
8.002022473475e-05
1.022492279406e-04
5.994969390981e-04
7.364739651578e-04
6.033938844216e-04
5.978242035187e-04
7.653326244429e-04
1.144481185039e-04
3.870108240809e-04
9.832679319270e-04
3.462119537576e-04
7.604670959419e-04
5.446292073116e-04
7.579989499703e-04
4.253809061314e-04
5.655136601551e-04
8.968932967987e-04
8.605582673328e-04
8.335573377378e-04
5.413896072377e-04
6.312696461648e-04
5.822604733124e-04
8.539476084827e-04
1.078278835988e-03
1.096697751529e-03
1.138926675552e-03
1.113966218355e-03
1.070255067016e-03
1.087233937298e-03
1.130254776859e-03
1.104259724024e-03
1.154148424544e-03
1.118727323684e-03
1.074633529754e-03
1.088270824160e-03
1.128333781258e-03
1.044704097812e-03
1.055599916104e-03
6.437389676096e-04
1.156093087242e-04
1.514930640918e-04
7.912813808852e-04
1.198575558189e-03
1.207200305176e-03
4.416980321093e-04
1.171701445232e-03
8.517190193211e-04
2.725377454749e-04
1.154611880579e-03
1.051948153292e-03
1.024769839876e-03
1.005945922642e-03
1.213718218458e-03
9.461488535855e-04
1.114788279515e-03
7.494273806944e-04
7.429225838014e-04
6.919105373828e-04
1.059073256957e-03
1.065160843290e-03
1.011035760933e-03
1.000429807350e-03
9.531523122993e-04
1.045316391590e-03
1.193274947799e-03
1.188679649992e-03
2.926626781164e-04
3.261611139450e-04
3.789350007140e-04
3.631435964469e-04
3.092929492906e-04
3.488812757269e-04
4.036345148232e-04
3.370829948798e-04
1.071580951005e-03
1.030127134650e-03
6.497829065606e-04
6.301481252993e-04
5.745166798846e-04
4.545851318420e-04
4.840561063831e-04
5.364769788306e-04
4.259192018761e-04
9.067816953249e-04
1.022216963427e-03
6.783050142527e-04
4.621375450560e-04
8.165266774202e-04
8.611738478658e-04
8.626094915058e-04
9.090774725949e-04
8.649489853561e-04
5.508861159334e-04
5.736453748023e-04
5.444304922330e-04
5.965152165169e-04
5.658999078479e-04
5.179866102737e-04
6.184887509239e-04
5.845042989005e-04
8.140100527458e-04
6.560288993796e-05
8.481747254852e-05
8.318792226193e-05
1.134110516655e-04
1.145377088282e-04
1.502928615793e-04
1.442335720586e-04
8.458583409507e-05
5.834204178892e-05
8.129019069425e-05
5.373536415318e-05
7.845866532847e-05
1.174948334410e-04
1.754560708982e-04
9.780622769740e-04
4.404882705437e-04
4.165577275299e-04
3.688040819808e-04
3.945103694104e-04
4.606330688767e-04
3.430818076916e-04
3.257449891207e-04
3.076871221917e-05
6.659307298814e-05
6.313888748414e-05
1.073653747010e-04
1.064020202969e-04
6.750594114560e-05
6.854322136860e-05
3.307772393761e-05
6.918093706524e-05
1.092241996906e-04
3.336806305247e-05
1.042504018004e-03
1.069335616724e-03
1.006697277557e-03
8.175839285861e-04
4.662925358687e-05
1.211501414654e-03
1.218115831720e-03
1.219191410696e-03
8.799706983567e-04
9.100817891871e-04
1.213103470263e-03
2.854562683292e-04
1.155333497738e-03
1.129682401778e-03
2.792675473131e-04
2.747983490744e-04
7.050255841491e-04
6.442317568239e-04
8.279837340017e-04
6.575497075653e-04
7.803219352170e-04
9.852667553375e-04
1.756100385207e-04
9.532501583862e-04
9.334923028595e-04
1.055532814464e-03
3.008362332024e-04
4.945673753540e-04
1.876057257858e-04
1.122622885190e-03
8.103671037149e-04
5.387261187903e-04
4.039631670871e-04
3.126866907099e-04
2.552034033474e-04
6.893906049959e-04
4.928389280292e-04
7.479650320132e-04
1.081891564182e-03
4.579901679249e-05
7.848192681300e-04
6.003556941985e-04
9.730419960532e-04
8.650602182358e-04
1.724129832987e-04
1.073498655196e-03
1.153032216763e-03
9.192337505463e-04
1.422912503052e-04
9.024176211518e-04
9.226033726849e-04
1.058872229895e-03
2.742197903306e-04
6.118787190490e-04
7.652630920984e-04
7.676874846014e-04
1.149919119639e-03
7.349325421790e-04
8.904493087539e-04
7.219562302303e-04
2.955655604767e-04
8.283933121077e-04
6.445015909025e-04
1.120704073588e-03
9.736317730937e-04
4.942486689482e-04
1.089904331490e-03
5.564661942068e-04
9.089622595393e-04
7.800860933906e-04
8.860032890270e-04
9.713258003166e-04
8.175032414331e-04
6.740489841962e-04
8.063152455485e-04
1.886248093026e-04
6.056640238827e-04
9.689884000627e-04
1.035165199525e-03
1.166542066030e-03
7.235100029296e-04
7.919881988024e-04
1.134789713652e-03
5.144444590193e-04
2.030064877869e-04
2.295057942558e-04
3.847546531669e-04
6.890817908975e-04
5.677504125255e-04
1.169918797455e-03
8.149492568212e-04
7.840099875039e-04
2.364838643607e-04
7.871566083430e-04
8.387632525098e-04
6.229703614140e-04
9.188895241547e-04
5.345260007224e-04
1.111261578848e-03
6.773473283017e-04
8.640806818168e-04
8.067052676834e-04
4.973721007122e-04
8.072016103873e-04
9.329573570060e-04
8.657978915793e-04
8.617640066406e-04
5.805368577872e-04
7.145941620929e-04
5.897750374209e-04
9.201281750890e-04
1.215920359857e-03
9.052779566738e-04
9.787305896287e-04
5.585365829368e-04
8.380911656153e-04
1.069267325280e-04
7.334597034787e-04
5.809217583511e-04
3.924661542982e-04
5.951579727083e-04
1.043049292442e-03
6.036859983993e-04
4.474893395242e-04
6.266718726244e-04
6.607451844735e-04
9.972910626339e-04
6.496699368990e-04
9.637022288744e-04
1.140987866590e-04
8.667260888803e-04
8.481027334674e-04
3.699844560225e-04
6.116715943146e-04
1.042675971553e-03
6.054509293628e-04
6.678359239641e-04
1.007715668473e-03
8.726487396848e-04
7.379294663883e-04
7.253024090805e-04
6.193662623901e-04
2.656456065477e-04
2.201795098684e-04
4.581177340122e-04
1.040583791034e-03
1.464090079519e-04
1.030253508593e-03
1.578124002943e-04
4.169463778187e-04
9.317370669120e-04
9.464661009635e-04
4.319230712053e-04
2.497120487695e-04
3.957778446229e-04
7.874641842523e-04
4.137146175942e-04
3.813469424179e-04
1.176375788098e-03
4.005132673115e-04
1.220787699999e-03
9.796860774221e-04
8.461081393134e-04
5.467841548703e-04
7.312713256882e-05
5.593371946947e-04
3.216409038954e-04
1.014649984991e-03
8.481958554814e-04
2.935833209408e-04
1.159292071799e-03
1.135969852047e-03
1.018719143069e-03
9.301203487116e-04
8.808605235192e-04
1.134132386718e-03
8.050702959828e-04
7.658652661626e-05
7.024805978906e-04
4.897117285495e-04
4.864420712001e-04
4.065843452363e-04
3.126213527979e-04
1.122464009538e-04
4.423859788587e-04
1.018694894487e-03
8.539904176177e-04
9.701016913520e-04
3.679405820358e-04
1.177879204655e-03
1.074409940206e-03
1.001114757810e-03
1.019694650128e-03
2.723901084633e-04
8.990785958401e-04
1.131670917513e-03
1.057517160485e-03
9.981113266491e-04
8.495431891677e-04
1.182525209875e-03
1.595375480684e-04
1.183053063525e-03
1.058459065949e-03
9.112121133343e-04
8.973268462559e-04
9.398473137779e-04
1.167912542278e-03
1.924356887608e-04
1.015987711232e-03
3.947688225313e-04
8.008409908644e-05
9.555449893824e-04
1.099702013434e-03
9.385520043653e-04
1.057478970213e-04
6.963141574207e-05
9.761540979327e-04
1.152815901352e-03
1.816379140673e-04
1.225301877373e-03
1.237818328662e-04
8.008873429460e-04
6.712270674124e-05
9.932069406969e-04
1.184454114745e-03
4.380910367453e-04
8.194312398702e-04
2.818374253149e-04
1.072693044894e-03
1.047682063852e-04
1.189242717570e-03
9.938348128765e-04
1.183958591057e-03
1.101742224763e-03
8.011409519217e-05
1.098608044288e-03
9.538954568434e-04
8.039490833465e-04
1.173901366120e-03
3.509374590891e-04
1.448131442058e-04
1.225654507548e-03
2.350225627748e-05
7.999511074359e-04
9.926209451849e-04
1.368297561034e-04
8.834290434369e-04
1.160642395506e-03
5.484747540175e-04
1.106397556049e-03
1.372403964416e-04
6.938999135628e-05
9.727894812391e-04
1.072136170109e-03
1.189113113774e-03
9.386485526628e-04
1.926514713201e-04
1.132661396979e-03
4.758316354140e-04
1.098844541781e-03
9.767849659467e-04
1.115215625216e-04
5.946257136382e-04
6.529166748921e-05
9.591896119410e-04
4.983377646763e-04
3.447003359355e-04
3.735030433008e-04
4.065933002677e-04
4.194923079324e-04
4.663542043850e-04
4.746935956698e-04
5.237092705136e-04
5.244873318032e-04
5.802088761680e-04
5.804249930121e-04
6.350955322075e-04
6.303557911171e-04
6.889060619323e-04
6.859800641453e-04
7.415937627659e-04
7.356464655569e-04


CELL_DATA 2299

SCALARS element_number int
LOOKUP_TABLE default
407
408
409
410
411
412
413
414
415
416
417
418
419
420
421
422
423
424
425
426
427
428
429
430
431
432
433
434
435
436
437
438
439
440
441
442
443
444
445
446
447
448
449
450
451
452
453
454
455
456
457
458
459
460
461
462
463
464
465
466
467
468
469
470
471
472
473
474
475
476
477
478
479
480
481
482
483
484
485
486
487
488
489
490
491
492
493
494
495
496
497
498
499
500
501
502
503
504
505
506
507
508
509
510
511
512
513
514
515
516
517
518
519
520
521
522
523
524
525
526
527
528
529
530
531
532
533
534
535
536
537
538
539
540
541
542
543
544
545
546
547
548
549
550
551
552
553
554
555
556
557
558
559
560
561
562
563
564
565
566
567
568
569
570
571
572
573
574
575
576
577
578
579
580
581
582
583
584
585
586
587
588
589
590
591
592
593
594
595
596
597
598
599
600
601
602
603
604
605
606
607
608
609
610
611
612
613
614
615
616
617
618
619
620
621
622
623
624
625
626
627
628
629
630
631
632
633
634
635
636
637
638
639
640
641
642
643
644
645
646
647
648
649
650
651
652
653
654
655
656
657
658
659
660
661
662
663
664
665
666
667
668
669
670
671
672
673
674
675
676
677
678
679
680
681
682
683
684
685
686
687
688
689
690
691
692
693
694
695
696
697
698
699
700
701
702
703
704
705
706
707
708
709
710
711
712
713
714
715
716
717
718
719
720
721
722
723
724
725
726
727
728
729
730
731
732
733
734
735
736
737
738
739
740
741
742
743
744
745
746
747
748
749
750
751
752
753
754
755
756
757
758
759
760
761
762
763
764
765
766
767
768
769
770
771
772
773
774
775
776
777
778
779
780
781
782
783
784
785
786
787
788
789
790
791
792
793
794
795
796
797
798
799
800
801
802
803
804
805
806
807
808
809
810
811
812
813
814
815
816
817
818
819
820
821
822
823
824
825
826
827
828
829
830
831
832
833
834
835
836
837
838
839
840
841
842
843
844
845
846
847
848
849
850
851
852
853
854
855
856
857
858
859
860
861
862
863
864
865
866
867
868
869
870
871
872
873
874
875
876
877
878
879
880
881
882
883
884
885
886
887
888
889
890
891
892
893
894
895
896
897
898
899
900
901
902
903
904
905
906
907
908
909
910
911
912
913
914
915
916
917
918
919
920
921
922
923
924
925
926
927
928
929
930
931
932
933
934
935
936
937
938
939
940
941
942
943
944
945
946
947
948
949
950
951
952
953
954
955
956
957
958
959
960
961
962
963
964
965
966
967
968
969
970
971
972
973
974
975
976
977
978
979
980
981
982
983
984
985
986
987
988
989
990
991
992
993
994
995
996
997
998
999
1000
1001
1002
1003
1004
1005
1006
1007
1008
1009
1010
1011
1012
1013
1014
1015
1016
1017
1018
1019
1020
1021
1022
1023
1024
1025
1026
1027
1028
1029
1030
1031
1032
1033
1034
1035
1036
1037
1038
1039
1040
1041
1042
1043
1044
1045
1046
1047
1048
1049
1050
1051
1052
1053
1054
1055
1056
1057
1058
1059
1060
1061
1062
1063
1064
1065
1066
1067
1068
1069
1070
1071
1072
1073
1074
1075
1076
1077
1078
1079
1080
1081
1082
1083
1084
1085
1086
1087
1088
1089
1090
1091
1092
1093
1094
1095
1096
1097
1098
1099
1100
1101
1102
1103
1104
1105
1106
1107
1108
1109
1110
1111
1112
1113
1114
1115
1116
1117
1118
1119
1120
1121
1122
1123
1124
1125
1126
1127
1128
1129
1130
1131
1132
1133
1134
1135
1136
1137
1138
1139
1140
1141
1142
1143
1144
1145
1146
1147
1148
1149
1150
1151
1152
1153
1154
1155
1156
1157
1158
1159
1160
1161
1162
1163
1164
1165
1166
1167
1168
1169
1170
1171
1172
1173
1174
1175
1176
1177
1178
1179
1180
1181
1182
1183
1184
1185
1186
1187
1188
1189
1190
1191
1192
1193
1194
1195
1196
1197
1198
1199
1200
1201
1202
1203
1204
1205
1206
1207
1208
1209
1210
1211
1212
1213
1214
1215
1216
1217
1218
1219
1220
1221
1222
1223
1224
1225
1226
1227
1228
1229
1230
1231
1232
1233
1234
1235
1236
1237
1238
1239
1240
1241
1242
1243
1244
1245
1246
1247
1248
1249
1250
1251
1252
1253
1254
1255
1256
1257
1258
1259
1260
1261
1262
1263
1264
1265
1266
1267
1268
1269
1270
1271
1272
1273
1274
1275
1276
1277
1278
1279
1280
1281
1282
1283
1284
1285
1286
1287
1288
1289
1290
1291
1292
1293
1294
1295
1296
1297
1298
1299
1300
1301
1302
1303
1304
1305
1306
1307
1308
1309
1310
1311
1312
1313
1314
1315
1316
1317
1318
1319
1320
1321
1322
1323
1324
1325
1326
1327
1328
1329
1330
1331
1332
1333
1334
1335
1336
1337
1338
1339
1340
1341
1342
1343
1344
1345
1346
1347
1348
1349
1350
1351
1352
1353
1354
1355
1356
1357
1358
1359
1360
1361
1362
1363
1364
1365
1366
1367
1368
1369
1370
1371
1372
1373
1374
1375
1376
1377
1378
1379
1380
1381
1382
1383
1384
1385
1386
1387
1388
1389
1390
1391
1392
1393
1394
1395
1396
1397
1398
1399
1400
1401
1402
1403
1404
1405
1406
1407
1408
1409
1410
1411
1412
1413
1414
1415
1416
1417
1418
1419
1420
1421
1422
1423
1424
1425
1426
1427
1428
1429
1430
1431
1432
1433
1434
1435
1436
1437
1438
1439
1440
1441
1442
1443
1444
1445
1446
1447
1448
1449
1450
1451
1452
1453
1454
1455
1456
1457
1458
1459
1460
1461
1462
1463
1464
1465
1466
1467
1468
1469
1470
1471
1472
1473
1474
1475
1476
1477
1478
1479
1480
1481
1482
1483
1484
1485
1486
1487
1488
1489
1490
1491
1492
1493
1494
1495
1496
1497
1498
1499
1500
1501
1502
1503
1504
1505
1506
1507
1508
1509
1510
1511
1512
1513
1514
1515
1516
1517
1518
1519
1520
1521
1522
1523
1524
1525
1526
1527
1528
1529
1530
1531
1532
1533
1534
1535
1536
1537
1538
1539
1540
1541
1542
1543
1544
1545
1546
1547
1548
1549
1550
1551
1552
1553
1554
1555
1556
1557
1558
1559
1560
1561
1562
1563
1564
1565
1566
1567
1568
1569
1570
1571
1572
1573
1574
1575
1576
1577
1578
1579
1580
1581
1582
1583
1584
1585
1586
1587
1588
1589
1590
1591
1592
1593
1594
1595
1596
1597
1598
1599
1600
1601
1602
1603
1604
1605
1606
1607
1608
1609
1610
1611
1612
1613
1614
1615
1616
1617
1618
1619
1620
1621
1622
1623
1624
1625
1626
1627
1628
1629
1630
1631
1632
1633
1634
1635
1636
1637
1638
1639
1640
1641
1642
1643
1644
1645
1646
1647
1648
1649
1650
1651
1652
1653
1654
1655
1656
1657
1658
1659
1660
1661
1662
1663
1664
1665
1666
1667
1668
1669
1670
1671
1672
1673
1674
1675
1676
1677
1678
1679
1680
1681
1682
1683
1684
1685
1686
1687
1688
1689
1690
1691
1692
1693
1694
1695
1696
1697
1698
1699
1700
1701
1702
1703
1704
1705
1706
1707
1708
1709
1710
1711
1712
1713
1714
1715
1716
1717
1718
1719
1720
1721
1722
1723
1724
1725
1726
1727
1728
1729
1730
1731
1732
1733
1734
1735
1736
1737
1738
1739
1740
1741
1742
1743
1744
1745
1746
1747
1748
1749
1750
1751
1752
1753
1754
1755
1756
1757
1758
1759
1760
1761
1762
1763
1764
1765
1766
1767
1768
1769
1770
1771
1772
1773
1774
1775
1776
1777
1778
1779
1780
1781
1782
1783
1784
1785
1786
1787
1788
1789
1790
1791
1792
1793
1794
1795
1796
1797
1798
1799
1800
1801
1802
1803
1804
1805
1806
1807
1808
1809
1810
1811
1812
1813
1814
1815
1816
1817
1818
1819
1820
1821
1822
1823
1824
1825
1826
1827
1828
1829
1830
1831
1832
1833
1834
1835
1836
1837
1838
1839
1840
1841
1842
1843
1844
1845
1846
1847
1848
1849
1850
1851
1852
1853
1854
1855
1856
1857
1858
1859
1860
1861
1862
1863
1864
1865
1866
1867
1868
1869
1870
1871
1872
1873
1874
1875
1876
1877
1878
1879
1880
1881
1882
1883
1884
1885
1886
1887
1888
1889
1890
1891
1892
1893
1894
1895
1896
1897
1898
1899
1900
1901
1902
1903
1904
1905
1906
1907
1908
1909
1910
1911
1912
1913
1914
1915
1916
1917
1918
1919
1920
1921
1922
1923
1924
1925
1926
1927
1928
1929
1930
1931
1932
1933
1934
1935
1936
1937
1938
1939
1940
1941
1942
1943
1944
1945
1946
1947
1948
1949
1950
1951
1952
1953
1954
1955
1956
1957
1958
1959
1960
1961
1962
1963
1964
1965
1966
1967
1968
1969
1970
1971
1972
1973
1974
1975
1976
1977
1978
1979
1980
1981
1982
1983
1984
1985
1986
1987
1988
1989
1990
1991
1992
1993
1994
1995
1996
1997
1998
1999
2000
2001
2002
2003
2004
2005
2006
2007
2008
2009
2010
2011
2012
2013
2014
2015
2016
2017
2018
2019
2020
2021
2022
2023
2024
2025
2026
2027
2028
2029
2030
2031
2032
2033
2034
2035
2036
2037
2038
2039
2040
2041
2042
2043
2044
2045
2046
2047
2048
2049
2050
2051
2052
2053
2054
2055
2056
2057
2058
2059
2060
2061
2062
2063
2064
2065
2066
2067
2068
2069
2070
2071
2072
2073
2074
2075
2076
2077
2078
2079
2080
2081
2082
2083
2084
2085
2086
2087
2088
2089
2090
2091
2092
2093
2094
2095
2096
2097
2098
2099
2100
2101
2102
2103
2104
2105
2106
2107
2108
2109
2110
2111
2112
2113
2114
2115
2116
2117
2118
2119
2120
2121
2122
2123
2124
2125
2126
2127
2128
2129
2130
2131
2132
2133
2134
2135
2136
2137
2138
2139
2140
2141
2142
2143
2144
2145
2146
2147
2148
2149
2150
2151
2152
2153
2154
2155
2156
2157
2158
2159
2160
2161
2162
2163
2164
2165
2166
2167
2168
2169
2170
2171
2172
2173
2174
2175
2176
2177
2178
2179
2180
2181
2182
2183
2184
2185
2186
2187
2188
2189
2190
2191
2192
2193
2194
2195
2196
2197
2198
2199
2200
2201
2202
2203
2204
2205
2206
2207
2208
2209
2210
2211
2212
2213
2214
2215
2216
2217
2218
2219
2220
2221
2222
2223
2224
2225
2226
2227
2228
2229
2230
2231
2232
2233
2234
2235
2236
2237
2238
2239
2240
2241
2242
2243
2244
2245
2246
2247
2248
2249
2250
2251
2252
2253
2254
2255
2256
2257
2258
2259
2260
2261
2262
2263
2264
2265
2266
2267
2268
2269
2270
2271
2272
2273
2274
2275
2276
2277
2278
2279
2280
2281
2282
2283
2284
2285
2286
2287
2288
2289
2290
2291
2292
2293
2294
2295
2296
2297
2298
2299
2300
2301
2302
2303
2304
2305
2306
2307
2308
2309
2310
2311
2312
2313
2314
2315
2316
2317
2318
2319
2320
2321
2322
2323
2324
2325
2451
2452
2453
2454
2455
2456
2457
2458
2459
2460
2461
2462
2463
2464
2465
2466
2467
2468
2469
2470
2471
2472
2473
2474
2475
2476
2477
2478
2479
2480
2481
2482
2483
2484
2485
2486
2487
2488
2489
2490
2491
2492
2493
2494
2495
2496
2497
2498
2499
2500
2501
2502
2503
2504
2505
2506
2507
2508
2509
2510
2511
2512
2513
2514
2515
2516
2517
2518
2519
2520
2521
2522
2523
2524
2525
2526
2527
2528
2529
2530
2531
2532
2533
2534
2535
2536
2537
2538
2539
2540
2541
2542
2543
2544
2545
2546
2547
2548
2549
2550
2551
2552
2553
2554
2555
2556
2557
2558
2559
2560
2561
2562
2563
2564
2565
2566
2567
2568
2569
2570
2571
2572
2573
2574
2575
2576
2577
2578
2579
2580
2581
2582
2583
2584
2585
2586
2587
2588
2589
2590
2591
2592
2593
2594
2595
2596
2597
2598
2599
2600
2601
2602
2603
2604
2605
2606
2607
2608
2609
2610
2611
2612
2613
2614
2615
2616
2617
2618
2619
2620
2621
2622
2623
2624
2625
2626
2627
2628
2629
2630
2631
2632
2633
2634
2635
2636
2637
2638
2639
2640
2641
2642
2643
2644
2645
2646
2647
2648
2649
2650
2651
2652
2653
2654
2655
2656
2657
2658
2659
2660
2661
2662
2663
2664
2665
2666
2667
2668
2669
2670
2671
2672
2673
2674
2675
2676
2677
2678
2679
2680
2681
2682
2683
2684
2685
2686
2687
2688
2689
2690
2691
2692
2693
2694
2695
2696
2697
2698
2699
2700
2701
2702
2703
2704
2705
2706
2707
2708
2709
2710
2711
2712
2713
2714
2715
2716
2717
2718
2719
2720
2721
2722
2723
2724
2725
2726
2727
2728
2729
2730
2731
2732
2733
2734
2735
2736
2737
2738
2739
2740
2741
2742
2743
2744
2745
2746
2747
2748
2749
2750
2751
2752
2753
2754
2755
2756
2757
2758
2759
2760
2761
2762
2763
2764
2765
2766
2767
2768
2769
2770
2771
2772
2773
2774
2775
2776
2777
2778
2779
2780
2781
2782
2783
2784
2785
2786
2787
2788
2789
2790
2791
2792
2793
2794
2795
2796
2797
2798
2799
2800
2801
2802
2803
2804
2805
2806
2807
2808
2809
2810
2811
2812
2813
2814
2815
2816
2817
2818
2819
2820
2821
2822
2823
2824
2825
2826
2827
2828
2829
2830

SCALARS element_group int
LOOKUP_TABLE default
0
0
0
0
0
0
0
0
0
0
0
0
0
0
0
0
0
0
0
0
0
0
0
0
0
0
0
0
0
0
0
0
0
0
0
0
0
0
0
0
0
0
0
0
0
0
0
0
0
0
0
0
0
0
0
0
0
0
0
0
0
0
0
0
0
0
0
0
0
0
0
0
0
0
0
0
0
0
0
0
0
0
0
0
0
0
0
0
0
0
0
0
0
0
0
0
0
0
0
0
0
0
0
0
0
0
0
0
0
0
0
0
0
0
0
0
0
0
0
0
0
0
0
0
0
0
0
0
0
0
0
0
0
0
0
0
0
0
0
0
0
0
0
0
0
0
0
0
0
0
0
0
0
0
0
0
0
0
0
0
0
0
0
0
0
0
0
0
0
0
0
0
0
0
0
0
0
0
0
0
0
0
0
0
0
0
0
0
0
0
0
0
0
0
0
0
0
0
0
0
0
0
0
0
0
0
0
0
0
0
0
0
0
0
0
0
0
0
0
0
0
0
0
0
0
0
0
0
0
0
0
0
0
0
0
0
0
0
0
0
0
0
0
0
0
0
0
0
0
0
0
0
0
0
0
0
0
0
0
0
0
0
0
0
0
0
0
0
0
0
0
0
0
0
0
0
0
0
0
0
0
0
0
0
0
0
0
0
0
0
0
0
0
0
0
0
0
0
0
0
0
0
0
0
0
0
0
0
0
0
0
0
0
0
0
0
0
0
0
0
0
0
0
0
0
0
0
0
0
0
0
0
0
0
0
0
0
0
0
0
0
0
0
0
0
0
0
0
0
0
0
0
0
0
0
0
0
0
0
0
0
0
0
0
0
0
0
0
0
0
0
0
0
0
0
0
0
0
0
0
0
0
0
0
0
0
0
0
0
0
0
0
0
0
0
0
0
0
0
0
0
0
0
0
0
0
0
0
0
0
0
0
0
0
0
0
0
0
0
0
0
0
0
0
0
0
0
0
0
0
0
0
0
0
0
0
0
0
0
0
0
0
0
0
0
0
0
0
0
0
0
0
0
0
0
0
0
0
0
0
0
0
0
0
0
0
0
0
0
0
0
0
0
0
0
0
0
0
0
0
0
0
0
0
0
0
0
0
0
0
0
0
0
0
0
0
0
0
0
0
0
0
0
0
0
0
0
0
0
0
0
0
0
0
0
0
0
0
0
0
0
0
0
0
0
0
0
0
0
0
0
0
0
0
0
0
0
0
0
0
0
0
0
0
0
0
0
0
0
0
0
0
0
0
0
0
0
0
0
0
0
0
0
0
0
0
0
0
0
0
0
0
0
0
0
0
0
0
0
0
0
0
0
0
0
0
0
0
0
0
0
0
0
0
0
0
0
0
0
0
0
0
0
0
0
0
0
0
0
0
0
0
0
0
0
0
0
0
0
0
0
0
0
0
0
0
0
0
0
0
0
0
0
0
0
0
0
0
0
0
0
0
0
0
0
0
0
0
0
0
0
0
0
0
0
0
0
0
0
0
0
0
0
0
0
0
0
0
0
0
0
0
0
0
0
0
0
0
0
0
0
0
0
0
0
0
0
0
0
0
0
0
0
0
0
0
0
0
0
0
0
0
0
0
0
0
0
0
0
0
0
0
0
0
0
0
0
0
0
0
0
0
0
0
0
0
0
0
0
0
0
0
0
0
0
0
0
0
0
0
0
0
0
0
0
0
0
0
0
0
0
0
0
0
0
0
0
0
0
0
0
0
0
0
0
0
0
0
0
0
0
0
0
0
0
0
0
0
0
0
0
0
0
0
0
0
0
0
0
0
0
0
0
0
0
0
0
0
0
0
0
0
0
0
0
0
0
0
0
0
0
0
0
0
0
0
0
0
0
0
0
0
0
0
0
0
0
0
0
0
0
0
0
0
0
0
0
0
0
0
0
0
0
0
0
0
0
0
0
0
0
0
0
0
0
0
0
0
0
0
0
0
0
0
0
0
0
0
0
0
0
0
0
0
0
0
0
0
0
0
0
0
0
0
0
0
0
0
0
0
0
0
0
0
0
0
0
0
0
0
0
0
0
0
0
0
0
0
0
0
0
0
0
0
0
0
0
0
0
0
0
0
0
0
0
0
0
0
0
0
0
0
0
0
0
0
0
0
0
0
0
0
0
0
0
0
0
0
0
0
0
0
0
0
0
0
0
0
0
0
0
0
0
0
0
0
0
0
0
0
0
0
0
0
0
0
0
0
0
0
0
0
0
0
0
0
0
0
0
0
0
0
0
0
0
0
0
0
0
0
0
0
0
0
0
0
0
0
0
0
0
0
0
0
0
0
0
0
0
0
0
0
0
0
0
0
0
0
0
0
0
0
0
0
0
0
0
0
0
0
0
0
0
0
0
0
0
0
0
0
0
0
0
0
0
0
0
0
0
0
0
0
0
0
0
0
0
0
0
0
0
0
0
0
0
0
0
0
0
0
0
0
0
0
0
0
0
0
0
0
0
0
0
0
0
0
0
0
0
0
0
0
0
0
0
0
0
0
0
0
0
0
0
0
0
0
0
0
0
0
0
0
0
0
0
0
0
0
0
0
0
0
0
0
0
0
0
0
0
0
0
0
0
0
0
0
0
0
0
0
0
0
0
0
0
0
0
0
0
0
0
0
0
0
0
0
0
0
0
0
0
0
0
0
0
0
0
0
0
0
0
0
0
0
0
0
0
0
0
0
0
0
0
0
0
0
0
0
0
0
0
0
0
0
0
0
0
0
0
0
0
0
0
0
0
0
0
0
0
0
0
0
0
0
0
0
0
0
0
0
0
0
0
0
0
0
0
0
0
0
0
0
0
0
0
0
0
0
0
0
0
0
0
0
0
0
0
0
0
0
0
0
0
0
0
0
0
0
0
0
0
0
0
0
0
0
0
0
0
0
0
0
0
0
0
0
0
0
0
0
0
0
0
0
0
0
0
0
0
0
0
0
0
0
0
0
0
0
0
0
0
0
0
0
0
0
0
0
0
0
0
0
0
0
0
0
0
0
0
0
0
0
0
0
0
0
0
0
0
0
0
0
0
0
0
0
0
0
0
0
0
0
0
0
0
0
0
0
0
0
0
0
0
0
0
0
0
0
0
0
0
0
0
0
0
0
0
0
0
0
0
0
0
0
0
0
0
0
0
0
0
0
0
0
0
0
0
0
0
0
0
0
0
0
0
0
0
0
0
0
0
0
0
0
0
0
0
0
0
0
0
0
0
0
0
0
0
0
0
0
0
0
0
0
0
0
0
0
0
0
0
0
0
0
0
0
0
0
0
0
0
0
0
0
0
0
0
0
0
0
0
0
0
0
0
0
0
0
0
0
0
0
0
0
0
0
0
0
0
0
0
0
0
0
0
0
0
0
0
0
0
0
0
0
0
0
0
0
0
0
0
0
0
0
0
0
0
0
0
0
0
0
0
0
0
0
0
0
0
0
0
0
0
0
0
0
0
0
0
0
0
0
0
0
0
0
0
0
0
0
0
0
0
0
0
0
0
0
0
0
0
0
0
0
0
0
0
0
0
0
0
0
0
0
0
0
0
0
0
0
0
0
0
0
0
0
0
0
0
0
0
0
0
0
0
0
0
0
0
0
0
0
0
0
0
0
0
0
0
0
0
0
0
0
0
0
0
0
0
0
0
0
0
0
0
0
0
0
0
0
0
0
0
0
0
0
0
0
0
0
0
0
0
0
0
0
0
0
0
0
0
0
0
0
0
0
0
0
0
0
0
0
0
0
0
0
0
0
0
0
0
0
0
0
0
0
0
0
0
0
0
0
0
0
0
0
0
0
0
0
0
0
0
0
0
0
0
0
0
0
0
0
0
0
0
0
0
0
0
0
0
0
0
0
0
0
0
0
0
0
0
0
0
0
0
0
0
0
0
0
0
0
0
0
0
0
0
0
0
0
0
0
0
0
0
0
0
0
0
0
0
0
0
0
0
0
0
0
0
0
0
0
0
0
0
0
0
0
0
0
0
0
0
0
0
0
0
0
0
0
0
0
0
0
0
0
0
0
0
0
0
0
0
0
0
0
0
0
0
0
0
0
0
0
0
0
0
0
0
0
0
0
0
0
0
0
0
0
0
0
0
0
0
0
0
0
0
0
0
0
0
0
0
0
0
0
0
0
0
0
0
0
0
0
0
0
0
0
0
0
0
0
0
0
0
0
0
0
0
0
0
0
0
0
0
0
0
0
0
0
0
0
0
0
0
0
0
0
0
0
0
0
0
0
0
0
0
0
0
0
0
0
0
0
0
0
0
0
0
0
0
0
0
0
0
0
0
0
0
0
0
0
0
0
0
0
0
0
0
0
0
0
0
0
0
0
0
0
0
0
0
0
0
0
0
0
0
0
0
0
0
0
0
0
0
0
0
0
0
0
0
0
0
0
0
0
0
0
0
0
0
0
0
0
0
0
0
0
0
0
0
0
0
0
0
0
0
0
0
0
0
0
0
0
0
0
0
0
0
0
0
0
0
0
0
0
0
0
0
0
0
0
0
0
0
0
0
0
0
0
0
0
0
0
0
0
0
0
0
0
0
0
0
0
0
0
0
0
0
0
0
0
0
0
0
0
0
0
0
0
0
0
0
0
0
0
0
0
0
0
0
0
0
0
0
0
0
0
0
0
0
0
0
0
0
0
0
0
0
0
0
0
0
0
0
0
0
0
0
0
0
0
0
0
0
0
0
0
0
0
0
0
0
0
0
0
0
0
0
0
0
0
0
0
0
0
0
0
0
0
0
0
0
0
0
0
0
0
0
0
0
0
0
0
0
0
0
0
0
0
0
0
0
0
0
0
0
0
0
0
0
0
0
0
0
0
0
0
0
0
0
0
0
0
0
0
0
0
0
0
0
0
0
0
0
0
0
0
0
0
0
0
0
0
0
0
0
0
0
0
0
0
0
0
0
0
0
0
0
0
0
0
0
0
0
0
0
0
0
0
0
0
0
0
0
0
0
0
0
0
0
0
0
0
0
0
0
0
0
0
0
0
0
0
0
0
0
0
0
0
0
0
0
0
0
0
0
0
0
0
0
0
0
0
0
0
0
0
0
0
0
0
0
0
0
0
0
0
0
0
0
0
0
0
0
0
0
0
0
0
0
0
0
0
0
0
0
0
0
0
0
0
0
0
0
0
0
0
0
0
0
0
0
0
0
0
0
0
0
0
0
0
0
0
0
0
0
0
0


VECTORS element_materi_velocity float
3.220824177354e-04 1.721877106483e-03 0.0 
3.401232172776e-04 1.658116499150e-03 0.0 
8.109540463091e-05 1.549835536025e-04 0.0 
1.083200419697e-05 2.252196421210e-04 0.0 
1.120798845585e-04 1.253834487048e-03 0.0 
-2.635171436890e-05 6.106936930334e-04 0.0 
8.413424939701e-05 1.243607167255e-03 0.0 
3.307856455443e-04 1.652179313450e-03 0.0 
9.319349142985e-05 1.250969005702e-03 0.0 
1.580338332048e-05 2.304896786015e-04 0.0 
2.908619281745e-05 -3.721550191297e-05 0.0 
2.995098278515e-04 1.714063066653e-03 0.0 
1.367154404169e-05 3.103065344780e-06 0.0 
1.687881892379e-04 1.115537970174e-03 0.0 
1.130751721458e-05 3.088050930215e-06 0.0 
8.723339045786e-06 1.592091287179e-04 0.0 
1.455528309372e-04 1.301287635587e-03 0.0 
-1.904755863260e-05 5.350426955059e-04 0.0 
1.129083652989e-05 -1.243035360817e-04 0.0 
9.789299971898e-06 -1.232303953193e-04 0.0 
1.874875176491e-05 2.361321926985e-04 0.0 
3.381135545292e-04 1.690780764128e-03 0.0 
3.516052227633e-04 1.637412456030e-03 0.0 
1.599288605243e-04 5.923989438149e-05 0.0 
1.930780372845e-04 9.678054987920e-04 0.0 
3.221423991524e-05 -3.085604266127e-05 0.0 
2.325711247792e-04 1.409858884389e-03 0.0 
1.375211925496e-04 1.250012011063e-04 0.0 
2.048159470117e-04 9.673033111638e-04 0.0 
1.317585053693e-04 4.762585344420e-05 0.0 
3.557749858527e-05 1.580296249938e-04 0.0 
-1.706612547144e-05 -6.737974359611e-05 0.0 
9.322332531328e-05 1.897057755542e-04 0.0 
9.367017904850e-06 -7.769558166688e-06 0.0 
7.060690634948e-05 1.602162336912e-05 0.0 
2.058654903991e-05 4.215039793972e-06 0.0 
1.889884611127e-05 3.842951625665e-06 0.0 
1.353446432298e-04 7.504085695860e-05 0.0 
7.006066414611e-05 1.387764872018e-03 0.0 
6.366461717408e-05 1.389879461425e-03 0.0 
3.429211035162e-04 1.571141420698e-03 0.0 
6.734609325017e-05 1.861233138521e-05 0.0 
2.585971707780e-04 1.654172316160e-03 0.0 
2.422484066830e-04 1.358559764350e-03 0.0 
5.821891199314e-06 3.188900303683e-04 0.0 
2.679835273424e-04 1.569153576794e-03 0.0 
-4.772135585385e-06 1.616839361793e-04 0.0 
6.609397566030e-06 2.708983457410e-04 0.0 
-6.518963687737e-05 1.311023589100e-04 0.0 
1.663659848508e-04 1.184696077883e-03 0.0 
3.492212006623e-04 1.608424691461e-03 0.0 
1.434511252150e-05 -1.196618844649e-04 0.0 
1.323273884401e-04 1.808814625987e-04 0.0 
3.359769724880e-04 1.630390708054e-03 0.0 
5.834109438585e-05 1.568126423045e-04 0.0 
3.112833911768e-05 -1.070171419925e-04 0.0 
1.225806354551e-05 -1.177818433544e-04 0.0 
1.897355415130e-05 -7.673727125485e-06 0.0 
1.688369296886e-05 -1.204272186369e-04 0.0 
1.044191334009e-05 1.605220678871e-04 0.0 
-1.258557379752e-04 2.374090274086e-04 0.0 
2.113554958150e-04 1.680940638396e-04 0.0 
4.437195704058e-04 1.304761819135e-03 0.0 
1.000656018896e-04 1.649607249923e-04 0.0 
2.219983184055e-05 3.956953451052e-06 0.0 
3.384535562314e-04 1.667050283019e-03 0.0 
-1.161403566051e-04 2.724239637335e-04 0.0 
1.003974161159e-04 1.843473213597e-04 0.0 
4.740077835765e-05 -1.824835066773e-05 0.0 
1.010672637893e-04 1.276063425707e-04 0.0 
4.854152259016e-05 -2.335041089768e-05 0.0 
9.942256310333e-06 4.509948110992e-05 0.0 
1.803479317719e-04 1.700613789318e-04 0.0 
4.768230564895e-07 -1.309518375163e-04 0.0 
2.884515642232e-05 -1.042458007756e-04 0.0 
3.546379973699e-05 2.072185584996e-04 0.0 
7.286012554412e-05 1.900568290449e-04 0.0 
1.643921834258e-04 1.335646041346e-03 0.0 
2.143876148663e-05 -1.178430337038e-04 0.0 
1.641151579014e-04 1.465885549226e-03 0.0 
5.175464136553e-05 -4.244521617594e-07 0.0 
1.367224833712e-04 1.261544876896e-03 0.0 
3.492719164987e-04 1.657685126140e-03 0.0 
3.290392064335e-04 1.718301229248e-03 0.0 
1.051527202603e-04 1.168269873089e-03 0.0 
9.625491374573e-05 1.163836092581e-03 0.0 
2.857299287213e-05 -2.028160536768e-05 0.0 
5.034255621604e-06 -1.149006196590e-05 0.0 
2.433336279899e-04 5.249295899947e-04 0.0 
1.206359040388e-04 1.248326035043e-03 0.0 
-1.325661629730e-05 -5.805131814789e-05 0.0 
2.321419142524e-04 1.231104680767e-03 0.0 
1.776694694446e-05 6.364329659468e-04 0.0 
2.157268980533e-05 6.878913974337e-04 0.0 
1.976351935515e-05 8.368859074490e-05 0.0 
9.707260126042e-05 5.387160641889e-05 0.0 
1.537677281895e-04 1.265648739530e-03 0.0 
7.768092569461e-05 2.041676928034e-05 0.0 
1.340206348869e-05 1.009271472355e-03 0.0 
4.219931396779e-04 1.394174679073e-03 0.0 
1.090239182391e-04 1.327087902876e-03 0.0 
1.451212972904e-05 3.401341907242e-06 0.0 
3.734862291837e-04 3.138400288892e-04 0.0 
2.126442464124e-04 1.608995872807e-04 0.0 
4.384140679070e-04 1.164764935190e-03 0.0 
-2.469304279222e-05 1.274724257653e-04 0.0 
1.582962415659e-05 7.506971516112e-07 0.0 
1.791971049785e-05 5.486388789762e-04 0.0 
-9.582351673989e-05 1.646184119580e-04 0.0 
2.646542008906e-05 5.185386496046e-06 0.0 
2.678093467509e-04 5.907994057313e-04 0.0 
4.304587826256e-07 -1.311492177010e-04 0.0 
5.032207492435e-04 8.939690468161e-04 0.0 
2.908273302224e-04 1.367869453468e-03 0.0 
5.557548306771e-05 -8.665967941548e-05 0.0 
4.070324157154e-04 1.434456404911e-03 0.0 
4.538955468080e-04 1.250686138547e-03 0.0 
5.051879727388e-05 1.180107881124e-05 0.0 
1.703460737948e-05 1.071228571532e-03 0.0 
4.414668553179e-04 1.283332266066e-03 0.0 
3.725089822178e-05 -5.953526015969e-05 0.0 
2.422965429418e-04 1.268205866017e-03 0.0 
1.412423918779e-05 5.031360570312e-04 0.0 
4.500099314848e-04 1.218294354648e-03 0.0 
-2.173352931173e-05 9.565210491731e-04 0.0 
3.211990562640e-04 1.481076519014e-03 0.0 
4.767215890219e-05 -9.080097066956e-05 0.0 
3.191082062558e-04 1.543465199517e-03 0.0 
2.684694241824e-05 1.468044342160e-04 0.0 
5.066525736464e-05 8.950447898470e-04 0.0 
4.524277467586e-05 -2.918752974946e-05 0.0 
8.597255550589e-06 2.229562580194e-04 0.0 
4.191010791577e-04 1.285100855154e-03 0.0 
3.326360515395e-04 1.529134501056e-03 0.0 
7.553063761431e-05 1.797823148745e-05 0.0 
9.385652095655e-06 2.838340635009e-06 0.0 
4.026945030147e-05 -1.927550895695e-05 0.0 
4.172561093812e-04 1.232906535333e-03 0.0 
9.400933871637e-05 3.178997562847e-05 0.0 
3.906031120547e-04 1.392039980039e-03 0.0 
2.092437799574e-05 1.642869639448e-04 0.0 
1.160827612828e-04 1.558395272521e-04 0.0 
1.787888376652e-04 1.108899085247e-03 0.0 
4.178086239808e-05 8.331988832146e-04 0.0 
4.048437922125e-04 1.365487482398e-03 0.0 
3.286621806970e-04 1.590282672106e-03 0.0 
4.273380116191e-04 1.154570962480e-03 0.0 
4.733915359415e-04 1.064671048671e-03 0.0 
8.053787848653e-05 1.316166915898e-03 0.0 
5.036691667408e-04 8.370868259757e-04 0.0 
-7.888707623453e-06 -7.660458687447e-05 0.0 
1.938508822675e-05 1.206736921912e-03 0.0 
7.945376206460e-06 -1.267455976359e-04 0.0 
3.070779833814e-04 1.426997445203e-03 0.0 
7.669572575290e-05 2.499761605932e-05 0.0 
4.334951572622e-04 1.240643468840e-03 0.0 
2.172714232566e-05 -1.578505948102e-05 0.0 
2.970080318321e-04 1.630615721547e-03 0.0 
3.742421200083e-04 3.327909248998e-04 0.0 
4.535381826493e-05 1.268885239349e-03 0.0 
4.955674475257e-04 8.472429044083e-04 0.0 
2.140597619994e-05 -4.174158588927e-06 0.0 
4.127694247639e-05 -4.752694327657e-05 0.0 
2.216560848535e-05 1.147039666732e-06 0.0 
3.211570214631e-04 1.214811083135e-03 0.0 
3.027120025116e-05 5.436068003736e-06 0.0 
1.924744761306e-05 1.281545641192e-03 0.0 
4.585145896055e-04 1.077862494873e-03 0.0 
2.933857637538e-04 1.434159688917e-03 0.0 
1.863608916529e-05 -3.942460194578e-05 0.0 
2.827160958838e-04 1.705012793818e-03 0.0 
4.923559966719e-04 7.835577082788e-04 0.0 
3.638926373500e-05 7.550980248300e-04 0.0 
5.175031868237e-05 1.319120892425e-03 0.0 
4.864738100333e-04 9.851114513685e-04 0.0 
3.073944037625e-04 1.491968429521e-03 0.0 
2.479630703648e-04 3.832287917284e-04 0.0 
5.838314364134e-05 -7.993776410006e-05 0.0 
1.123667490298e-04 9.578554625940e-05 0.0 
1.243374210691e-04 1.521216925773e-04 0.0 
3.824082357774e-04 1.517074982486e-03 0.0 
5.221401271583e-05 -7.781623150639e-05 0.0 
2.313266057196e-04 1.029487222506e-04 0.0 
3.748235993321e-04 1.470804369008e-03 0.0 
3.599578948172e-04 1.558176793184e-03 0.0 
2.996202290811e-04 1.295630655006e-03 0.0 
4.953538335055e-04 9.687901098643e-04 0.0 
1.536702185196e-05 1.737778895641e-04 0.0 
2.314614389053e-04 5.975659072767e-04 0.0 
1.498739878255e-05 -1.542914159833e-06 0.0 
2.247161902510e-04 1.474685420876e-03 0.0 
4.716285444996e-04 7.165166861234e-04 0.0 
2.314807550551e-04 5.259160117960e-04 0.0 
-3.159028537573e-04 6.488455726818e-04 0.0 
3.607261688063e-04 1.492815581381e-03 0.0 
2.588080881374e-04 9.642615387855e-05 0.0 
9.693587758928e-06 -1.127963471418e-04 0.0 
8.522863124665e-05 2.031363810070e-04 0.0 
2.140179748378e-04 8.138459690346e-04 0.0 
2.143320866600e-04 -6.913211135723e-07 0.0 
2.678432621724e-04 1.070543856864e-04 0.0 
2.304905865805e-04 1.155226461000e-03 0.0 
1.914936542446e-04 1.036443288233e-03 0.0 
1.260283283867e-04 4.308666476329e-05 0.0 
1.331567245615e-04 -5.193551847814e-05 0.0 
4.480479387586e-04 1.049614236560e-03 0.0 
3.418202356030e-04 1.129631513867e-03 0.0 
1.987254130504e-04 7.416617479648e-04 0.0 
3.129784451592e-04 1.149126421549e-03 0.0 
3.137561451309e-04 1.288345145714e-03 0.0 
4.354624684942e-04 3.743880148838e-04 0.0 
2.695582248636e-04 4.457053238541e-04 0.0 
-1.836009311086e-04 5.683844062156e-04 0.0 
3.724375668020e-04 1.567561371699e-03 0.0 
4.113176659907e-04 1.439994100478e-03 0.0 
4.409802956819e-04 1.126705848618e-03 0.0 
2.088594515608e-04 5.283571572602e-04 0.0 
1.256325687004e-04 6.034325005291e-04 0.0 
2.641002832746e-04 8.796910660944e-05 0.0 
5.830021511827e-05 1.300201989845e-03 0.0 
4.789755914881e-04 7.840799795340e-04 0.0 
2.635968395871e-04 7.653610238446e-05 0.0 
-1.302555451073e-06 -9.638065011717e-05 0.0 
1.933819886400e-04 6.696400299868e-04 0.0 
-6.716557292235e-06 -9.924292510397e-05 0.0 
1.350368545112e-05 -1.157418372097e-04 0.0 
2.202132984155e-04 1.581040149650e-03 0.0 
1.087953713026e-04 -5.816887308813e-05 0.0 
1.754067770334e-04 5.978075049373e-04 0.0 
1.000798526248e-04 -5.504135033691e-05 0.0 
3.189465540155e-04 1.163393207255e-03 0.0 
1.011488117993e-04 7.874449855317e-05 0.0 
5.135837719284e-05 -6.483020211995e-05 0.0 
2.562257534119e-04 1.119376759820e-04 0.0 
3.356786511008e-04 1.204355989781e-03 0.0 
2.636895383654e-05 4.456070322290e-06 0.0 
-2.627461550441e-04 5.721311174588e-04 0.0 
3.865577626993e-04 1.084038159140e-03 0.0 
4.977383205863e-04 7.184550630232e-04 0.0 
3.702627622164e-04 1.527164191732e-03 0.0 
2.746074047225e-04 9.910927782686e-05 0.0 
3.257371263448e-05 6.100733573206e-06 0.0 
2.402791446482e-04 6.678686190247e-04 0.0 
3.992679980755e-04 6.797505899792e-04 0.0 
2.485956988248e-04 1.018449080910e-04 0.0 
2.381653040020e-05 -2.602502022022e-05 0.0 
4.213698242479e-04 1.102526014870e-03 0.0 
2.223148306502e-04 7.424574513333e-04 0.0 
1.755734744498e-04 1.388365471839e-04 0.0 
4.911900317253e-04 6.599060014854e-04 0.0 
3.573053848851e-04 1.175210479310e-03 0.0 
3.066528825739e-04 1.009205199397e-03 0.0 
1.608206256206e-05 7.655931304155e-05 0.0 
4.602899992345e-04 1.019046294416e-03 0.0 
4.828576541549e-04 4.569606476705e-04 0.0 
4.381975259506e-05 1.179093127869e-03 0.0 
3.235019212879e-05 1.199859717661e-05 0.0 
2.990300307112e-04 1.156089843093e-03 0.0 
4.126137148719e-04 7.573425629590e-04 0.0 
2.282691188675e-04 5.798966155805e-04 0.0 
6.425223162909e-05 1.868234586669e-04 0.0 
1.649467838602e-04 5.970910417951e-04 0.0 
3.320848244001e-04 1.066047389000e-03 0.0 
4.698057884656e-04 1.129224374796e-03 0.0 
1.467727547140e-04 5.249192230834e-04 0.0 
2.434166674920e-04 5.959172416693e-04 0.0 
3.993300250981e-04 1.069795321989e-03 0.0 
3.689490439659e-05 7.724950410353e-06 0.0 
4.727471820318e-04 4.145881113968e-04 0.0 
3.751700374334e-04 1.028930622927e-03 0.0 
5.065031038909e-04 8.748858518092e-04 0.0 
4.681826538514e-04 4.089781575992e-04 0.0 
3.067164716844e-04 5.596866853968e-04 0.0 
2.116826252740e-04 1.247400822708e-03 0.0 
4.835027221331e-04 5.510552861417e-04 0.0 
2.951264852612e-04 2.347380793456e-04 0.0 
2.281718933383e-04 6.690158799053e-04 0.0 
-2.813179382845e-04 5.094468057123e-04 0.0 
2.898692036486e-04 1.088168875445e-03 0.0 
4.146155788598e-04 6.244824977434e-04 0.0 
3.802404870082e-04 9.888180250772e-04 0.0 
2.885676879068e-04 4.894772681065e-04 0.0 
3.076468789853e-04 9.365097936244e-04 0.0 
3.853588796672e-06 -5.705541403834e-05 0.0 
4.092151501018e-04 1.433704632015e-03 0.0 
4.538531005306e-04 3.688273180968e-04 0.0 
3.177646635940e-04 1.075087203328e-03 0.0 
2.091739002525e-04 1.155023296887e-03 0.0 
4.740606007078e-05 4.946463862435e-04 0.0 
3.124378246615e-04 2.780488112471e-04 0.0 
2.464161354715e-04 1.773982349703e-04 0.0 
3.863862730528e-04 1.530762215530e-03 0.0 
2.344615285263e-04 7.414464198882e-04 0.0 
4.214952562869e-04 1.395132075067e-03 0.0 
4.715248852404e-04 5.459735998018e-04 0.0 
4.784606608225e-04 6.574453533305e-04 0.0 
1.088455129450e-04 5.242045981930e-04 0.0 
5.092449448093e-04 8.050918524032e-04 0.0 
2.158470778818e-04 1.112665866762e-03 0.0 
2.990100197591e-05 7.716077841795e-05 0.0 
3.910102143839e-05 8.106754073717e-05 0.0 
4.638051396928e-04 9.443938877273e-04 0.0 
3.648291590545e-04 6.592346980424e-04 0.0 
3.299227176158e-04 8.732276896022e-04 0.0 
3.772084731447e-04 9.553621709099e-04 0.0 
3.419417665347e-04 7.168821328568e-04 0.0 
2.626479730066e-04 2.161045018361e-04 0.0 
4.072802144572e-04 1.125341052271e-03 0.0 
2.716041567722e-05 1.996570658785e-04 0.0 
4.521888854173e-04 7.085098083600e-04 0.0 
4.386363651491e-04 4.010976550095e-04 0.0 
2.607045794269e-04 1.028524282223e-03 0.0 
4.534699391112e-05 1.749573237170e-05 0.0 
3.572555328471e-04 8.035251760819e-04 0.0 
4.268959243675e-04 1.026758676071e-03 0.0 
1.562053754350e-04 4.762914934150e-04 0.0 
3.703154821213e-04 1.812357933223e-04 0.0 
4.927730499583e-04 6.040490193567e-04 0.0 
2.616784571509e-04 1.593443243915e-04 0.0 
3.563952817496e-04 1.117362680948e-03 0.0 
4.184800376487e-05 6.219348809524e-05 0.0 
4.495446398820e-04 5.866349031471e-04 0.0 
4.460289221634e-04 3.381197949913e-04 0.0 
2.453607704585e-04 9.182062786218e-04 0.0 
1.389328170434e-04 8.793785897168e-04 0.0 
2.753234889404e-04 8.779370144610e-05 0.0 
3.882638056641e-04 1.268752254292e-03 0.0 
1.389312832146e-04 9.530165221757e-04 0.0 
5.275319229048e-05 5.809301651006e-05 0.0 
2.403823752902e-04 7.693192933973e-05 0.0 
4.190823068671e-05 6.935941870128e-05 0.0 
1.701250821327e-04 9.599011583783e-04 0.0 
2.799663332094e-04 5.870393088019e-04 0.0 
3.211755689900e-04 1.371716110376e-03 0.0 
3.562220901373e-04 1.254189946406e-03 0.0 
3.608077364827e-04 1.042992528791e-03 0.0 
3.490292802653e-04 9.816654284532e-04 0.0 
4.768012985166e-04 1.025335995998e-03 0.0 
5.695994996985e-05 5.178167192356e-05 0.0 
2.159925389104e-04 1.033468286493e-03 0.0 
2.930726909653e-04 1.229060013971e-03 0.0 
4.680658421628e-04 5.965066848618e-04 0.0 
8.137585545418e-05 -6.246494240732e-05 0.0 
3.324633727170e-04 1.343114998325e-03 0.0 
4.160374350451e-04 1.174860549346e-03 0.0 
3.893952020563e-05 1.315202552362e-03 0.0 
2.455411494044e-04 1.267486935525e-04 0.0 
4.404997994593e-04 6.395666938524e-04 0.0 
1.970452469974e-04 5.985469768177e-04 0.0 
4.154924093590e-04 1.088601008599e-03 0.0 
3.643901057990e-04 1.178693753045e-03 0.0 
4.295537747373e-04 3.036274516739e-04 0.0 
2.832279825118e-04 5.805710467351e-05 0.0 
5.534443512641e-05 3.827454617342e-05 0.0 
3.623753887250e-04 1.435159731355e-03 0.0 
3.140156985351e-04 3.560478892798e-04 0.0 
2.128507654319e-04 3.090717894842e-06 0.0 
3.664369967768e-04 1.504393754564e-03 0.0 
3.839522843806e-04 1.352530090507e-03 0.0 
2.060799121837e-04 4.587405572185e-04 0.0 
4.167029326437e-04 9.748049850323e-04 0.0 
3.833047665076e-04 1.500498587197e-03 0.0 
3.604170739983e-04 1.315313173577e-03 0.0 
5.659252338994e-05 2.800389844119e-05 0.0 
1.408038002175e-04 7.421767476969e-05 0.0 
1.954138372761e-04 4.595330370753e-04 0.0 
2.047808428609e-04 6.699093977107e-04 0.0 
2.920696410884e-04 6.497161757480e-05 0.0 
4.520297019142e-04 1.264784271897e-03 0.0 
3.479863155033e-04 5.840795728586e-04 0.0 
3.993382606624e-04 5.564028546273e-04 0.0 
4.399317548154e-04 1.001712011622e-03 0.0 
3.877833805546e-04 2.027108392401e-04 0.0 
1.519389129376e-04 -4.191295775142e-05 0.0 
1.648907548068e-04 4.588793208240e-04 0.0 
2.964385013949e-04 3.050348452081e-04 0.0 
4.888853345531e-04 1.019523711182e-03 0.0 
3.850751518125e-04 1.087794927861e-03 0.0 
4.773729672867e-04 1.131301036701e-03 0.0 
4.071612477609e-05 7.511038602984e-05 0.0 
3.546156075727e-05 8.177495939533e-05 0.0 
9.001318288982e-05 2.032714424883e-04 0.0 
2.882109769604e-04 6.589967914360e-05 0.0 
1.373891478772e-04 5.229698178284e-04 0.0 
3.584664021638e-04 1.273665033715e-03 0.0 
4.356077476562e-04 5.255110398479e-04 0.0 
2.101493808755e-04 5.049604676586e-04 0.0 
4.154235835293e-04 1.385206496513e-03 0.0 
1.910163062081e-04 1.250761540279e-03 0.0 
1.594870023879e-04 9.585343245228e-04 0.0 
1.135332934383e-04 4.575172450845e-05 0.0 
2.281466767081e-04 4.576987739914e-04 0.0 
2.927058370764e-04 1.015323449970e-03 0.0 
3.493437251478e-04 9.089636719544e-04 0.0 
2.428837629759e-04 4.635019866003e-04 0.0 
-4.855521950723e-06 -7.288705502697e-06 0.0 
5.077150074044e-04 7.681739798965e-04 0.0 
4.903519829661e-04 9.121373147839e-04 0.0 
5.100084308255e-04 7.552622013308e-04 0.0 
-9.488951229566e-06 1.096755944787e-03 0.0 
3.639485867890e-05 1.140599913401e-03 0.0 
6.976117900393e-05 -5.847161532954e-05 0.0 
4.039317257353e-04 9.104689271786e-04 0.0 
2.379918557066e-05 9.555527927896e-06 0.0 
4.102145558571e-04 3.094316066115e-04 0.0 
2.798991972363e-04 1.233527385871e-03 0.0 
4.670205811185e-06 -1.282177523179e-04 0.0 
4.659187459826e-04 1.061974483438e-03 0.0 
5.049956121036e-04 7.132274130734e-04 0.0 
3.215552499347e-04 9.287958642987e-04 0.0 
4.596828628355e-05 6.157219446501e-05 0.0 
3.420856815858e-04 1.267583350223e-03 0.0 
3.910102055906e-04 9.394577474039e-04 0.0 
1.658041313851e-04 -3.480309657464e-05 0.0 
1.663753056543e-04 5.272966380027e-04 0.0 
2.760856144731e-04 5.913579487045e-05 0.0 
5.076029356618e-05 6.173172722885e-05 0.0 
2.117938095796e-05 3.691638043451e-05 0.0 
1.400371883890e-05 3.825935416447e-05 0.0 
1.956427762026e-05 4.287353514184e-05 0.0 
3.201316871919e-04 8.567405219010e-04 0.0 
1.766149213974e-04 5.277667421592e-04 0.0 
1.888073601462e-04 3.906481904000e-04 0.0 
4.676624015497e-04 1.179780516016e-03 0.0 
4.404808614826e-04 1.309335106424e-03 0.0 
1.285813256662e-04 -5.625937661968e-05 0.0 
1.748263443722e-04 4.593035445855e-04 0.0 
5.505668377156e-05 5.508544486864e-05 0.0 
1.367681155525e-04 4.551547999788e-04 0.0 
4.439768907007e-04 3.596985071594e-04 0.0 
1.459106733195e-04 4.568157517559e-04 0.0 
4.040277458139e-04 5.126321606219e-04 0.0 
4.948074312117e-04 9.440558039034e-04 0.0 
4.021062837811e-04 1.417586266832e-03 0.0 
2.825373534689e-04 8.463125480095e-04 0.0 
3.824508168909e-05 1.631153227447e-04 0.0 
4.719162440533e-04 1.162229111994e-03 0.0 
1.778465935533e-04 1.861341704272e-04 0.0 
1.416911883157e-04 -5.022938853912e-05 0.0 
2.017987428992e-04 8.254127833063e-05 0.0 
8.942038621196e-05 3.437947980776e-05 0.0 
4.370817281791e-04 1.003949563126e-03 0.0 
2.072884972874e-05 3.244303826678e-05 0.0 
6.398431075444e-05 1.532785003002e-04 0.0 
4.174395284419e-04 9.019484880797e-04 0.0 
-3.080544057626e-05 -5.227508528806e-06 0.0 
2.484913224742e-05 3.182174463655e-05 0.0 
1.004915557441e-04 4.594119558532e-05 0.0 
2.161161237396e-04 1.108638818457e-04 0.0 
4.188300777576e-04 2.963293885743e-04 0.0 
5.763794095178e-05 3.650893089840e-05 0.0 
-5.719362582372e-05 -1.645560523783e-05 0.0 
4.886932052379e-04 1.050443319847e-03 0.0 
3.901434735303e-04 8.673670117076e-04 0.0 
4.421658071908e-04 9.279694304188e-04 0.0 
4.032266431650e-04 9.950265935493e-04 0.0 
3.424645882048e-04 9.715213256663e-04 0.0 
2.684203097172e-05 2.818303391775e-05 0.0 
4.589294191448e-04 4.916518008373e-04 0.0 
4.155436620541e-05 4.208298773837e-04 0.0 
4.741072760373e-05 9.764721728526e-06 0.0 
-3.718575042288e-05 -1.933006260542e-05 0.0 
3.764705101740e-04 1.357387278358e-03 0.0 
5.341578202934e-05 1.216816737028e-04 0.0 
3.186554658997e-04 1.353421700462e-03 0.0 
5.232053278763e-05 2.368780230704e-05 0.0 
2.874529717001e-05 2.487926097267e-05 0.0 
3.348814143294e-04 9.924514557429e-04 0.0 
-3.703523288214e-06 9.697436114170e-05 0.0 
-1.407847487691e-05 3.946314946248e-04 0.0 
3.405566736269e-05 9.483792026461e-05 0.0 
1.419937815272e-04 2.489707597200e-05 0.0 
2.022952003687e-04 1.295653298318e-03 0.0 
2.722059923768e-04 1.165620416735e-03 0.0 
2.751104152812e-05 1.986033676280e-05 0.0 
1.817096389127e-04 1.298432555196e-03 0.0 
2.616157563426e-05 7.532405149772e-05 0.0 
3.859060256064e-04 4.564005651052e-04 0.0 
1.484456074441e-04 1.031837511267e-03 0.0 
3.981850769748e-04 1.406525211447e-03 0.0 
4.254290153538e-04 3.216929209543e-04 0.0 
1.911121691824e-04 6.304555436730e-04 0.0 
2.980454735349e-05 1.809472148778e-05 0.0 
1.953674381813e-05 3.819400559533e-05 0.0 
1.589728313701e-05 3.890142425348e-05 0.0 
2.612236348615e-04 4.656240690582e-05 0.0 
1.060270687542e-04 -6.916473559373e-05 0.0 
5.015023095572e-04 8.997517353950e-04 0.0 
2.483185360826e-04 4.183582342619e-05 0.0 
2.995665013254e-05 1.547194429867e-05 0.0 
3.934886421633e-04 8.234697142474e-04 0.0 
3.076779361868e-04 2.129962265949e-04 0.0 
2.997969515504e-04 1.589997965645e-04 0.0 
1.290327600481e-04 9.495029566172e-04 0.0 
4.149452611569e-05 1.476536946867e-05 0.0 
-1.928271523343e-05 7.269242190135e-05 0.0 
2.568465953023e-05 1.115584816452e-05 0.0 
2.572179696596e-04 1.127309199824e-04 0.0 
2.111915403613e-05 2.975044982846e-05 0.0 
1.990212517358e-04 3.905928289742e-04 0.0 
-7.551601121664e-05 1.271619728848e-06 0.0 
5.025892606134e-04 9.252730503378e-04 0.0 
1.193581378253e-04 4.501919620801e-04 0.0 
2.591116131876e-05 2.990998259231e-05 0.0 
3.337722964690e-04 8.476943568465e-04 0.0 
3.696945849536e-04 3.866704728454e-04 0.0 
1.842134273394e-04 8.835541615916e-04 0.0 
1.614577867748e-04 7.206387720310e-05 0.0 
2.499932007751e-04 7.466659468939e-05 0.0 
2.826904833449e-04 1.280176088792e-04 0.0 
-7.728922530976e-05 1.029452481598e-04 0.0 
2.821465279984e-05 2.690241095089e-05 0.0 
2.791522847456e-04 6.086475518124e-04 0.0 
2.241077714591e-04 7.461823508432e-05 0.0 
1.466756725530e-04 1.113356684144e-03 0.0 
1.621967831565e-04 -9.462241374532e-06 0.0 
2.904617456116e-04 1.763087385067e-04 0.0 
3.631606170764e-04 8.967223202749e-04 0.0 
2.783339359829e-05 1.841420941062e-05 0.0 
1.033920624857e-04 -6.614574919254e-05 0.0 
2.580431764912e-04 6.294815875925e-05 0.0 
4.740876705615e-04 8.411813234957e-04 0.0 
3.482752023208e-04 1.390479881067e-04 0.0 
3.345517240018e-04 2.300871762908e-04 0.0 
2.768997362207e-04 6.531148732522e-05 0.0 
4.742111395563e-04 9.121653162119e-04 0.0 
3.797759002353e-04 5.664281782523e-04 0.0 
3.875630400232e-04 2.737781610805e-04 0.0 
4.913176809370e-04 8.410845524670e-04 0.0 
1.830298249897e-04 -2.691913952589e-05 0.0 
4.318383202465e-04 9.210376157684e-04 0.0 
1.182906143020e-04 -6.413597442816e-05 0.0 
3.913391273772e-04 4.383848000300e-04 0.0 
4.514475514768e-04 3.422304932685e-04 0.0 
4.948384510088e-05 2.071137609242e-05 0.0 
1.168358009637e-04 3.852429703510e-04 0.0 
1.406040313453e-04 -1.987790240295e-05 0.0 
2.663587325740e-05 1.253195414252e-05 0.0 
1.195163980535e-04 5.272169058728e-05 0.0 
5.089371618927e-04 6.922888561421e-04 0.0 
-5.237182316983e-05 7.503337577472e-05 0.0 
3.835251043463e-05 1.265305730417e-05 0.0 
1.423161374017e-04 3.912375574444e-04 0.0 
2.153078809336e-04 7.109380009192e-05 0.0 
2.154780834046e-05 7.940204443803e-06 0.0 
2.478814779923e-04 4.769190125687e-05 0.0 
4.320419732989e-04 1.302608574678e-03 0.0 
2.762186590431e-04 1.093232077187e-03 0.0 
4.638362580244e-04 3.785479701717e-04 0.0 
2.675679848142e-04 4.391373882850e-05 0.0 
3.581443347052e-04 1.611679712839e-04 0.0 
2.262085382167e-04 8.143723046791e-04 0.0 
4.029965133592e-04 1.257531921953e-03 0.0 
3.702666108527e-04 2.771021506698e-04 0.0 
3.433043325939e-05 1.054824326908e-03 0.0 
1.688421173269e-04 -3.567960653362e-05 0.0 
3.983358657749e-04 2.637582248286e-04 0.0 
2.343653098581e-04 5.179284415457e-05 0.0 
1.411666367975e-04 -1.131531314806e-05 0.0 
-9.505314064323e-05 3.833842532996e-05 0.0 
4.577272755637e-04 1.003306663556e-03 0.0 
2.413020820292e-04 8.539863003694e-05 0.0 
1.476767477312e-04 -3.999719753250e-05 0.0 
5.052024947473e-04 7.201280048593e-04 0.0 
2.616006985188e-04 5.859417719126e-05 0.0 
1.278451325846e-04 1.022415359225e-03 0.0 
2.010966064006e-04 4.738055111885e-05 0.0 
1.994671777523e-05 6.825165024867e-06 0.0 
4.030965069030e-04 8.500793609002e-04 0.0 
1.287829309165e-04 -4.302321821143e-05 0.0 
4.298665725411e-04 8.801595979152e-04 0.0 
1.340955221717e-04 -4.575671218428e-05 0.0 
-7.308802934991e-05 1.661614323007e-05 0.0 
2.656995086909e-04 1.024480367213e-03 0.0 
3.642612154323e-05 -8.665656082688e-05 0.0 
-1.061809354416e-05 -1.071663572731e-04 0.0 
1.078738790999e-04 -5.525410646242e-05 0.0 
2.397939718775e-04 5.619295426613e-05 0.0 
3.501825995053e-05 4.632107182422e-04 0.0 
3.770772700325e-04 1.774584090803e-04 0.0 
3.620271178209e-04 1.590571075254e-04 0.0 
2.728103402741e-04 1.305879601415e-03 0.0 
1.828193191076e-04 1.392081422190e-03 0.0 
4.548850828393e-05 1.523837910642e-04 0.0 
4.537971315922e-04 9.012192486672e-04 0.0 
-1.144553001896e-05 -1.107967663370e-04 0.0 
4.668158613468e-05 -7.483964554792e-05 0.0 
-4.081249914409e-05 3.057012170485e-05 0.0 
1.268418904184e-04 -4.989459533187e-05 0.0 
2.570082518971e-04 3.771020280700e-04 0.0 
3.994393677848e-05 4.680025433317e-04 0.0 
1.516223979634e-04 2.301924758836e-05 0.0 
1.158209927454e-04 -6.983701652971e-05 0.0 
1.283514103378e-04 -1.587349230430e-05 0.0 
1.976181131517e-04 6.355981775749e-05 0.0 
1.414954250369e-04 4.096725499225e-04 0.0 
2.578790374070e-05 -8.782783790888e-05 0.0 
1.725529792880e-05 -1.027009173444e-04 0.0 
3.603471900404e-05 1.099521913445e-05 0.0 
1.840579265940e-05 5.827892279298e-06 0.0 
2.730518353625e-05 -7.710898213911e-05 0.0 
1.154870054774e-04 -4.766300108228e-05 0.0 
2.576889996512e-04 3.918292533394e-05 0.0 
1.842974028202e-04 6.588327902270e-05 0.0 
5.769926859828e-05 -7.839452110681e-05 0.0 
2.071801770732e-04 5.909409466257e-05 0.0 
9.045140251567e-06 -1.189160477261e-04 0.0 
1.123221070958e-04 -5.856007189106e-05 0.0 
1.560588019544e-04 -3.182647074820e-05 0.0 
3.130766720844e-06 -1.239774791620e-04 0.0 
2.160425192076e-05 -8.275838189387e-05 0.0 
1.088094300734e-04 3.822295377072e-04 0.0 
-7.364083598536e-06 -1.181025362094e-04 0.0 
2.024340747584e-04 1.383430269747e-03 0.0 
2.122988464493e-04 1.423578099426e-03 0.0 
3.622566921653e-04 1.801955306253e-04 0.0 
8.551306628703e-06 -1.036436597131e-04 0.0 
2.114629165793e-04 3.881163052906e-05 0.0 
3.104230330264e-04 1.054924187674e-03 0.0 
9.754690655627e-05 1.652839794108e-05 0.0 
1.054154106189e-04 1.087980378084e-04 0.0 
7.204694748954e-05 5.626580979761e-04 0.0 
4.068070031168e-04 1.334516919212e-03 0.0 
1.865017014884e-05 -6.477766343031e-05 0.0 
3.745485542948e-04 1.298487708574e-03 0.0 
1.287652551776e-04 1.394214258591e-03 0.0 
1.205613683904e-04 1.440868683318e-03 0.0 
-6.596464679075e-06 -1.152442734020e-04 0.0 
2.936896982508e-06 -1.190511492751e-04 0.0 
6.159434867867e-06 -1.279180830283e-04 0.0 
8.256201666695e-05 -8.368327426999e-05 0.0 
1.157177967376e-06 -1.259898598268e-04 0.0 
2.253543670782e-05 -7.150411977406e-05 0.0 
-1.383966499592e-04 1.682445845839e-04 0.0 
1.018267377170e-04 -7.719483534668e-05 0.0 
3.037441718598e-05 8.864274309312e-04 0.0 
1.731004131750e-04 1.438831067730e-03 0.0 
2.158263298881e-04 3.287611680620e-04 0.0 
2.321670135447e-04 4.289865801764e-05 0.0 
2.744218751968e-05 1.020965314545e-03 0.0 
4.638386817946e-06 -9.913530548219e-05 0.0 
5.837836957179e-06 -1.270394189169e-04 0.0 
5.798828380543e-06 4.048195924302e-05 0.0 
1.318454224175e-05 8.430226882609e-05 0.0 
1.359737208600e-04 1.107448097660e-03 0.0 
1.461718399710e-04 1.396633554997e-03 0.0 
2.318699233119e-05 -9.760924730040e-05 0.0 
8.680987629890e-06 7.998828770326e-05 0.0 
9.695577844473e-05 -7.707811377425e-05 0.0 
1.922648607928e-04 1.432187378703e-03 0.0 
1.639922451516e-04 1.396627807575e-03 0.0 
3.346905427001e-04 1.405798832559e-03 0.0 
1.215785679537e-05 3.706469733325e-05 0.0 
1.046225190748e-05 7.973773561023e-05 0.0 
6.157499626898e-07 -1.216677722582e-04 0.0 
-3.822472561102e-06 -1.213605753358e-04 0.0 
3.145138853718e-05 -7.993687018763e-05 0.0 
1.701345050927e-04 -2.512926967646e-05 0.0 
1.030770088077e-05 2.076338216687e-06 0.0 
-1.739165700282e-04 2.060164472481e-04 0.0 
9.500015402500e-06 5.850697499561e-04 0.0 
-1.130633403948e-04 1.072568903431e-04 0.0 
3.395358088375e-04 1.435941655741e-04 0.0 
-1.176838845144e-04 8.348865069315e-05 0.0 
-1.435368851817e-04 1.390401737193e-04 0.0 
3.321651047573e-04 1.243198700305e-04 0.0 
4.074971794570e-05 3.568707828640e-06 0.0 
2.553779440120e-05 9.364790568167e-04 0.0 
3.989888058064e-04 1.202011386501e-03 0.0 
2.691536336534e-06 -1.275477060851e-04 0.0 
1.059355338620e-04 -1.704488043771e-05 0.0 
2.105467473439e-06 4.769886060301e-05 0.0 
4.143291508956e-06 8.081806435910e-05 0.0 
1.548390997992e-04 1.441372594127e-03 0.0 
3.411319405444e-04 1.597485786389e-04 0.0 
4.663423526933e-06 3.925577636721e-05 0.0 
3.730234015529e-04 3.699923100451e-04 0.0 
3.584806949528e-06 -1.294028203365e-04 0.0 
1.055268278394e-06 -1.289956214958e-04 0.0 
1.626940980700e-06 -1.299720716358e-04 0.0 
5.230720734644e-06 -8.887142599680e-05 0.0 
8.281483388572e-06 2.139339904318e-06 0.0 
1.133690126655e-06 2.196177832881e-04 0.0 
-1.059176841099e-06 -1.290308493735e-04 0.0 
1.160378435770e-05 -7.156265532449e-05 0.0 
2.810960830174e-06 8.228397436298e-07 0.0 
1.166708794988e-05 2.733667342721e-06 0.0 
3.378091101178e-05 9.568964435929e-06 0.0 
5.352789764629e-06 7.313970146441e-04 0.0 
2.089219918416e-06 5.113471897574e-04 0.0 
5.470522558398e-06 1.316500160688e-06 0.0 
6.196565391482e-06 1.417167182033e-06 0.0 
4.652947811091e-06 5.851485423503e-04 0.0 
-1.390956648507e-06 -1.299850829954e-04 0.0 
8.991674760814e-05 1.443053280605e-03 0.0 
1.375801058803e-04 1.441939173841e-03 0.0 
-2.067328486432e-06 -1.258957042218e-04 0.0 
1.007440987904e-05 2.347763267917e-06 0.0 
3.230689749481e-05 8.494192143498e-06 0.0 
1.615491282767e-05 4.092554562720e-06 0.0 
-2.647415236767e-06 -1.274887783578e-04 0.0 
-4.531962256755e-06 -1.235761266345e-04 0.0 
1.762892634464e-05 5.167326855151e-06 0.0 
1.615198466714e-05 4.401637580778e-06 0.0 
2.789061871955e-06 8.066717145290e-04 0.0 
4.674602427587e-05 1.445765099864e-03 0.0 
2.563727892674e-06 6.574761624528e-04 0.0 
3.432281127270e-06 1.103089500477e-03 0.0 
1.995952418421e-05 1.445902619905e-03 0.0 
-1.701904481874e-05 -1.012164112287e-04 0.0 
-3.347667455910e-05 -7.291688955950e-05 0.0 
-4.482217805125e-05 -5.330725610217e-05 0.0 
-5.894419007059e-05 -2.878474733483e-05 0.0 
5.942821964489e-06 -6.572269099647e-05 0.0 
5.660962393209e-06 -7.762778996439e-05 0.0 
-3.231098808944e-05 -6.503156557110e-05 0.0 
6.222670257226e-06 -3.131344916851e-05 0.0 
-4.357032327839e-05 -4.328211387839e-05 0.0 
9.821263044816e-06 3.858910963498e-05 0.0 
4.017564102958e-06 4.073251133605e-05 0.0 
7.385713861208e-06 4.382030958307e-05 0.0 
1.915517090686e-06 -1.266367155603e-04 0.0 
3.912919810757e-06 -1.081800474016e-04 0.0 
3.824041767738e-06 4.901179977221e-05 0.0 
4.332762283247e-06 -4.415800173965e-06 0.0 
2.037824035517e-06 3.311920375609e-05 0.0 
3.187958829064e-06 4.445627480085e-07 0.0 
1.944754394430e-06 2.475957825763e-06 0.0 
1.089168312785e-05 -8.321865416871e-05 0.0 
7.841605870696e-06 8.974431110826e-05 0.0 
5.861865803255e-06 8.213100352830e-05 0.0 
7.520721112311e-06 -1.688724703669e-06 0.0 
5.132713223494e-06 1.916014356920e-06 0.0 
6.353275668435e-05 -1.585320549335e-05 0.0 
-9.167091126491e-05 5.719914689887e-05 0.0 
9.139144221527e-05 -7.009588651694e-05 0.0 
-7.337066218223e-07 -1.158856895452e-04 0.0 
9.128202775619e-05 1.403874495729e-05 0.0 
1.252478247286e-04 -5.370246048376e-05 0.0 
7.294596800262e-05 1.247016993330e-07 0.0 
7.556215219943e-05 -8.273130657643e-05 0.0 
1.274292971658e-05 -1.087753577795e-04 0.0 
5.088006440817e-05 2.774178619817e-06 0.0 
9.512974237560e-05 -5.914104428433e-05 0.0 
1.971372176573e-05 -9.341465890679e-05 0.0 
6.416071300874e-05 -1.803892550824e-06 0.0 
1.294413617020e-05 3.713245578469e-04 0.0 
9.869107552590e-06 -9.399797471987e-05 0.0 
2.317639211743e-04 5.857248214977e-05 0.0 
1.803654924687e-04 5.630015447751e-06 0.0 
7.475007542937e-05 -1.371179801207e-05 0.0 
5.457089788849e-05 -1.244953886990e-05 0.0 
4.415334838415e-04 4.810610225981e-04 0.0 
3.906008029779e-04 1.336278739415e-03 0.0 
5.072079519711e-04 7.849685466144e-04 0.0 
1.181176987932e-04 -1.345499692237e-05 0.0 
4.584760485507e-05 -1.422440117580e-06 0.0 
3.598591595486e-05 -1.050996489075e-05 0.0 
1.094456059873e-04 -4.309302972872e-05 0.0 
2.443771685651e-05 3.827876600909e-04 0.0 
3.142818343144e-05 5.298324931606e-04 0.0 
6.014994262390e-05 1.220979812708e-03 0.0 
1.309833406590e-04 -3.467293200050e-06 0.0 
9.591160992944e-05 -1.413431679466e-05 0.0 
1.671958414899e-05 3.790178514499e-04 0.0 
2.145974545337e-05 4.548377868625e-04 0.0 
1.920720759662e-04 5.874643528978e-06 0.0 
3.467888586533e-05 2.558269258067e-06 0.0 
6.545923332911e-05 5.581188156201e-04 0.0 
2.561992459721e-05 -1.128594216671e-05 0.0 
6.777650832677e-05 1.037767989132e-05 0.0 
2.844305342309e-05 3.864918537246e-04 0.0 
5.593138013567e-05 7.650011692530e-04 0.0 
2.276370294575e-04 4.704572945892e-05 0.0 
3.958526028656e-05 -1.114175905687e-04 0.0 
1.059934955327e-04 -2.411052093902e-05 0.0 
1.752745152239e-05 -7.516983003028e-05 0.0 
-6.213296500532e-05 5.305551416382e-05 0.0 
2.592507333168e-05 4.546504981921e-04 0.0 
3.686211265270e-05 3.514481854264e-07 0.0 
-4.838533411036e-05 1.299147234001e-05 0.0 
1.697361137552e-04 3.927533109676e-04 0.0 
7.053637336587e-05 1.146502914347e-03 0.0 
8.443179141113e-05 -1.587866487837e-06 0.0 
4.659157206851e-05 -5.016663840273e-06 0.0 
2.046468996051e-04 1.298948949673e-05 0.0 
3.768867295475e-05 -6.270362481480e-06 0.0 
6.796867542052e-05 1.223358969336e-03 0.0 
3.822832875371e-04 2.534683116776e-04 0.0 
5.184790498269e-05 8.801895597765e-06 0.0 
2.073408536493e-05 -1.177924310823e-04 0.0 
8.446098967058e-05 1.631028800984e-05 0.0 
4.308466195765e-05 6.833356722080e-04 0.0 
3.351742246192e-05 -1.119003346637e-04 0.0 
1.298486014495e-04 -3.415579782905e-05 0.0 
5.211635577139e-05 -5.130547057187e-05 0.0 
7.667452641651e-05 9.246588300083e-04 0.0 
1.081316467525e-04 -7.388882673775e-05 0.0 
3.179564102239e-05 6.011493362007e-04 0.0 
4.853807949571e-05 8.333027882569e-04 0.0 
1.093528285555e-04 -4.424725625298e-05 0.0 
4.378959111265e-05 -1.400298579434e-05 0.0 
5.567012184447e-05 -7.702819325108e-06 0.0 
3.709918160029e-05 6.781525837528e-04 0.0 
3.992570920628e-05 -1.095957618696e-04 0.0 
8.975155484783e-05 -5.523417089578e-05 0.0 
2.857885268894e-04 2.100218386756e-04 0.0 
4.880769303917e-05 6.159509342051e-04 0.0 
8.757735010107e-05 -6.639714703736e-05 0.0 
1.671330793501e-04 -6.170545629082e-07 0.0 
1.093758739777e-04 2.188950124196e-05 0.0 
4.913196119000e-05 7.603850183274e-04 0.0 
-1.738251007097e-05 3.359438424475e-04 0.0 
1.609260507268e-05 -9.830603993517e-05 0.0 
2.259736647142e-04 3.997509656466e-04 0.0 
5.379472453018e-05 -1.014825376246e-08 0.0 
6.244591942135e-05 8.423514133698e-04 0.0 
3.792159974306e-05 -4.191080874771e-05 0.0 
8.130546955181e-05 1.075797995210e-03 0.0 
1.903168531255e-04 5.701793621177e-05 0.0 
8.962522635804e-05 -4.395737799983e-05 0.0 
6.529214310959e-05 -5.902339899478e-06 0.0 
3.318175193951e-05 -1.139113331047e-04 0.0 
7.369488676080e-05 1.230014000176e-05 0.0 
9.636151465023e-05 -4.793148824458e-05 0.0 
2.644026905195e-05 -1.139131119711e-04 0.0 
7.736883126720e-05 -5.806876026152e-05 0.0 
9.606023617217e-05 -7.648213648575e-05 0.0 
9.221930344217e-05 -8.361050260213e-05 0.0 
4.997668127871e-05 -3.988655386645e-05 0.0 
-1.533666362411e-05 -9.674721751411e-05 0.0 
-2.249002987720e-05 -8.273982062486e-05 0.0 
8.435873955665e-05 -1.693523317009e-05 0.0 
3.772613344479e-05 -1.126190902877e-04 0.0 
1.191740496966e-04 -7.441824006355e-06 0.0 
1.427422162152e-04 -4.922286959824e-06 0.0 
1.569905416846e-04 -4.443291882860e-05 0.0 
1.754724681668e-04 3.447349943250e-05 0.0 
5.606346332535e-05 4.821424519984e-04 0.0 
2.755984099474e-05 6.623193966918e-04 0.0 
8.288457186702e-05 -7.716847259613e-05 0.0 
1.774080056436e-04 5.944932561396e-05 0.0 
2.992747940498e-05 -1.162145276972e-04 0.0 
7.521584601531e-05 9.977415093961e-04 0.0 
7.867906374277e-05 1.151050753434e-03 0.0 
5.241936193637e-05 -8.652664217865e-05 0.0 
1.373007543280e-04 2.965383965880e-05 0.0 
8.411706173385e-05 7.109472451268e-04 0.0 
4.352064008315e-05 -1.093572898206e-04 0.0 
5.749649132892e-05 4.175697053186e-04 0.0 
5.202131519562e-05 4.126813659418e-04 0.0 
5.291409690593e-05 -1.048787715167e-04 0.0 
4.163301549532e-04 1.377689672492e-03 0.0 
7.470850501314e-05 -9.019384740916e-05 0.0 
7.541023789863e-05 -8.507651962995e-06 0.0 
6.979511889130e-05 -4.242883497376e-05 0.0 
1.335756716575e-04 3.896440925328e-04 0.0 
5.043007526497e-05 4.775136241015e-04 0.0 
9.665733910983e-05 -8.525002475160e-06 0.0 
1.077376139458e-04 -5.422393202202e-06 0.0 
6.120133897228e-05 -8.851049999889e-05 0.0 
8.576463120629e-05 -6.121772801512e-06 0.0 
7.662869820524e-05 7.065516180471e-04 0.0 
5.736601258688e-05 -4.463130156158e-05 0.0 
6.985066573098e-05 8.470926210995e-04 0.0 
6.795717045264e-05 6.299075979461e-04 0.0 
4.822082070653e-04 4.592979770373e-04 0.0 
4.738043191882e-05 5.442428277994e-04 0.0 
7.053232108462e-05 -6.520138905852e-05 0.0 
7.691369349591e-05 -4.684409594878e-05 0.0 
7.560552695876e-05 -8.722977438940e-05 0.0 
1.698458907827e-04 -3.503972436656e-05 0.0 
7.004019050885e-05 7.744518807999e-04 0.0 
2.445512343537e-04 2.231771237982e-05 0.0 
7.118308635344e-05 -9.523608878097e-05 0.0 
2.882047401328e-05 -8.824405305353e-05 0.0 
7.749162451320e-05 7.790123391607e-04 0.0 
7.949483251613e-05 -9.000435416888e-05 0.0 
8.895033360286e-05 1.832702034294e-05 0.0 
5.582280251048e-05 6.927143062664e-04 0.0 
9.404624464585e-05 9.687572983698e-07 0.0 
9.514456066765e-05 4.002382523690e-05 0.0 
7.536265239072e-05 -6.962290244581e-05 0.0 
5.994640580414e-05 -1.006823261874e-04 0.0 
3.877076494887e-05 -9.127894948566e-05 0.0 
1.299928968798e-04 1.897515553743e-06 0.0 
5.443520892724e-05 9.108933698329e-04 0.0 
1.704401070888e-05 -9.184083809580e-05 0.0 
9.688427199677e-05 -7.902243049551e-05 0.0 
2.123542341499e-05 -1.194635882860e-04 0.0 
8.471426167014e-05 9.292607631355e-04 0.0 
8.491835955547e-05 -8.053573616375e-05 0.0 
1.552763903187e-04 9.417455156835e-08 0.0 
6.518220421972e-05 -9.025755818309e-05 0.0 
3.651603348371e-05 5.346885195770e-04 0.0 
9.506524004486e-05 -8.261797218628e-05 0.0 
1.638630693193e-04 1.607258454205e-05 0.0 
9.755143251835e-05 -3.854241270932e-05 0.0 
1.547854601773e-04 5.834904256915e-06 0.0 
5.889902678737e-05 -5.591170359454e-05 0.0 
1.169053512486e-04 2.882838207294e-06 0.0 
3.520696493197e-04 2.706194979767e-04 0.0 
2.660593657961e-05 -1.175952676159e-04 0.0 
6.543662897525e-05 1.066658377864e-03 0.0 
3.273084943898e-04 1.267551837395e-04 0.0 
4.796526331921e-04 1.062761982599e-03 0.0 
6.154362990721e-05 9.153258440202e-04 0.0 
1.286430988974e-04 -1.438324253232e-05 0.0 
1.106918973489e-04 8.687900141767e-04 0.0 
2.521079088685e-05 -1.186969624894e-04 0.0 
1.152745339315e-04 1.859307423095e-05 0.0 
3.305822046328e-04 1.432150356262e-04 0.0 
3.670165503711e-04 2.587124945131e-04 0.0 
4.179181008266e-05 3.350311461126e-04 0.0 
2.425356721941e-04 2.751727205806e-05 0.0 
4.494051475905e-05 -1.054329098842e-04 0.0 
2.070972476193e-04 2.012627573826e-05 0.0 
1.156352107009e-04 2.508840748025e-05 0.0 
1.972841264291e-04 1.910544086822e-05 0.0 
1.064593592770e-04 -4.625397423463e-07 0.0 
6.252686657403e-05 6.974238100836e-04 0.0 
1.729180976905e-04 6.816373867705e-05 0.0 
1.805776709109e-04 1.174750029872e-05 0.0 
1.163827937627e-04 1.092590032759e-03 0.0 
4.079741416076e-05 -1.072344782834e-04 0.0 
1.073347913333e-04 -7.554842486600e-05 0.0 
4.824207806082e-04 8.081424804285e-04 0.0 
1.412608422947e-04 6.183251499315e-06 0.0 
4.448191450669e-04 1.265309741536e-03 0.0 
4.976499796219e-04 8.024925372690e-04 0.0 
9.315888918554e-05 7.877723222523e-04 0.0 
6.748969581565e-05 9.931497311377e-04 0.0 
1.183086775948e-04 1.018782446361e-03 0.0 
7.126725820748e-05 -5.365279555928e-05 0.0 
1.668549371252e-04 3.943281181477e-05 0.0 
2.340714170910e-04 3.152490128875e-05 0.0 
8.982207752194e-05 1.081221495910e-03 0.0 
1.566983757874e-04 3.183595043132e-04 0.0 
3.452432271261e-04 2.570301980642e-04 0.0 
1.668543276510e-04 1.124115999341e-05 0.0 
6.130677282579e-05 6.253402483433e-04 0.0 
1.574993506717e-04 -4.496757141240e-05 0.0 
1.315843193478e-04 -6.129039164636e-05 0.0 
5.551080600711e-05 -9.500986862303e-05 0.0 
2.191939526309e-04 3.402790856810e-05 0.0 
1.195711564757e-04 -6.631977156243e-05 0.0 
9.352073613269e-05 8.606193685995e-04 0.0 
1.104088280626e-04 9.421126537778e-04 0.0 
4.524436201458e-04 3.425839207164e-04 0.0 
1.268879582216e-04 -6.198469838375e-05 0.0 
4.112855890361e-04 5.103631874372e-04 0.0 
1.184831097591e-04 -6.918313646489e-05 0.0 
1.439224488106e-04 -5.361125901534e-05 0.0 
6.201810758045e-05 -9.574124833974e-05 0.0 
1.982715741412e-04 5.201247084922e-05 0.0 
2.278614397543e-04 6.369654284608e-06 0.0 
5.317544764188e-05 5.489226381204e-04 0.0 
2.560770002601e-04 3.030302050519e-05 0.0 
2.206612980869e-04 2.851022966989e-05 0.0 
2.367261605105e-04 1.936151524569e-05 0.0 
5.061682186527e-04 6.772779654594e-04 0.0 
5.556775453414e-05 -1.009979925059e-04 0.0 
1.443454019078e-04 3.387894709975e-05 0.0 
1.248330745214e-04 3.144296969603e-05 0.0 
4.026377734924e-04 6.114757031004e-04 0.0 
1.709367961986e-04 -3.586006474181e-05 0.0 
2.318231884128e-04 2.458583149249e-05 0.0 
8.534183498896e-05 8.562550125875e-04 0.0 
1.437048311209e-04 -5.187283965732e-05 0.0 
4.957022529527e-04 1.000496727511e-03 0.0 
8.514424781516e-05 -8.781244761199e-05 0.0 
1.632248992547e-04 1.417129640081e-05 0.0 
1.846156948743e-04 -2.656494515028e-05 0.0 
7.398656504978e-05 -9.403671263994e-05 0.0 
4.790782763286e-05 -1.068879788537e-04 0.0 
2.215574948743e-04 8.772903199252e-06 0.0 
1.934129055825e-04 1.850533619467e-05 0.0 
2.754407717329e-04 3.646641664202e-04 0.0 
-2.345376738500e-05 -8.902191301761e-05 0.0 
3.260906056239e-04 1.140702052069e-04 0.0 
2.758545435659e-04 5.237887133141e-05 0.0 
1.991503469129e-04 -1.582738020671e-05 0.0 
1.015352494331e-04 9.380319069819e-04 0.0 
2.353684551499e-04 1.316172249277e-05 0.0 
8.616642434782e-05 -8.587650404947e-05 0.0 
2.124768194080e-04 -6.044758752888e-06 0.0 
4.286897143202e-05 6.111884510722e-04 0.0 
7.602955592651e-05 -9.003024826535e-05 0.0 
2.438624078050e-05 -1.013722883036e-04 0.0 
4.324600137462e-05 -9.968904421351e-05 0.0 
1.746702473383e-04 7.372158426317e-06 0.0 
1.543742011433e-04 -4.418765770973e-05 0.0 
3.051304134969e-04 8.165865174590e-05 0.0 
2.402010609248e-04 1.629715235011e-05 0.0 
9.025939573310e-05 -1.746320020364e-05 0.0 
3.912606317287e-05 -1.048553413085e-04 0.0 
1.589689080357e-04 1.034824629969e-03 0.0 
6.527794520842e-05 -9.821513879841e-05 0.0 
2.108640596112e-04 5.171128012835e-05 0.0 
3.149642704896e-04 4.014721533821e-04 0.0 
2.802870451420e-04 9.479232775996e-04 0.0 
8.827090122763e-05 5.038096690071e-04 0.0 
2.334773829291e-04 3.205844881285e-04 0.0 
4.721794632582e-04 4.176570019617e-04 0.0 
3.636949272720e-04 5.053122973077e-04 0.0 
1.234830646141e-04 1.059322865148e-05 0.0 
1.944774620531e-04 -1.778635531023e-05 0.0 
5.050825995327e-04 6.532101169907e-04 0.0 
2.135229916445e-04 1.592912249868e-04 0.0 
7.913660352397e-05 9.067487212319e-06 0.0 
1.318755106452e-04 -6.008662487214e-05 0.0 
2.595497770125e-04 3.545043536774e-05 0.0 
2.885516790042e-04 6.285542551191e-05 0.0 
6.629875955249e-05 -9.614461798635e-05 0.0 
2.602397312002e-04 3.520428268674e-05 0.0 
3.091458311062e-04 9.155040256678e-05 0.0 
3.552543585970e-04 1.491257199546e-04 0.0 
1.418882046981e-04 -5.365168568791e-05 0.0 
3.601574596861e-04 1.952103753699e-04 0.0 
1.014564717722e-04 7.918622210337e-04 0.0 
3.769181869933e-04 1.943093615567e-04 0.0 
1.749181020709e-04 4.493871799332e-05 0.0 
1.608030974911e-04 4.380920875199e-05 0.0 
1.473092863652e-04 4.826675229184e-05 0.0 
2.831028035224e-04 5.567812999782e-05 0.0 
1.862352644375e-04 2.649893532232e-04 0.0 
3.739197532871e-04 8.119609804700e-04 0.0 
1.387905026251e-04 2.831556470596e-06 0.0 
2.929720556185e-04 8.709166137434e-04 0.0 
1.111538393664e-04 4.473504061792e-04 0.0 
3.081484281156e-04 8.204099555652e-05 0.0 
4.862390065562e-04 9.204464667529e-04 0.0 
3.032438283980e-04 7.934422994622e-04 0.0 
4.815785516321e-04 9.501792354616e-04 0.0 
9.760156108690e-05 2.575038394325e-08 0.0 
4.300529017444e-05 2.136606048405e-04 0.0 
6.744057516228e-05 -2.624536188123e-05 0.0 
2.158486326196e-04 1.205201235663e-04 0.0 
3.719735367701e-05 3.985937849598e-04 0.0 
3.277920940740e-04 1.560166640919e-04 0.0 
9.177218923907e-05 1.007766943223e-03 0.0 
9.345023319861e-05 5.751623458201e-04 0.0 
3.385160473547e-04 1.246718253128e-04 0.0 
4.412052565504e-04 3.105286095041e-04 0.0 
6.775805381446e-05 3.593584936305e-04 0.0 
1.752659546343e-04 2.175906710647e-05 0.0 
1.082991868161e-04 7.230198821569e-04 0.0 
3.077994652676e-04 1.126875747623e-04 0.0 
1.332480905681e-04 3.126867790118e-05 0.0 
1.138180451911e-04 6.542954988269e-04 0.0 
1.312310820863e-04 1.315203022161e-04 0.0 
1.300076608138e-04 3.510915171810e-05 0.0 
2.093898044328e-04 -7.649539480791e-06 0.0 
1.004142758583e-04 1.012173731057e-03 0.0 
1.073619706557e-04 1.090062064252e-03 0.0 
2.669328913318e-04 4.005416095478e-05 0.0 
2.033094442183e-04 3.082409689558e-05 0.0 
2.093548720039e-04 4.209354525102e-05 0.0 
3.528793735230e-05 -9.794198289637e-05 0.0 
3.671478363268e-04 5.365158216794e-04 0.0 
4.041158276345e-04 2.347580177704e-04 0.0 
3.600351971390e-04 1.653313003908e-04 0.0 
5.033791599964e-04 8.292412310775e-04 0.0 
5.376496713505e-05 2.865961906467e-04 0.0 
1.602132088479e-04 3.925724961776e-04 0.0 
4.188847644043e-05 4.034250554085e-04 0.0 
4.329819604958e-04 1.254601717752e-03 0.0 
1.355946211810e-04 5.917130258431e-04 0.0 
1.910924476375e-04 2.368547845378e-05 0.0 
5.156152369818e-05 3.472442133700e-04 0.0 
1.353988167119e-04 7.328223426381e-04 0.0 
2.199418190041e-04 1.629443699367e-06 0.0 
4.253310228094e-04 2.948505562502e-04 0.0 
1.053660489813e-04 6.507495978629e-04 0.0 
7.516734572771e-05 4.288956120256e-04 0.0 
8.203324814167e-05 6.388425073817e-04 0.0 
9.991039941471e-05 7.192425382591e-04 0.0 
1.504210417114e-04 2.941456419379e-05 0.0 
2.508432480432e-04 1.558078484093e-04 0.0 
1.799563024451e-04 3.917485257913e-05 0.0 
2.059685964452e-04 1.361306792354e-05 0.0 
3.485441942774e-04 1.452337399621e-03 0.0 
3.188563690441e-04 1.646039301131e-04 0.0 
1.873318691922e-04 7.413237149826e-04 0.0 
5.544215761387e-05 -1.036109602688e-04 0.0 
3.881685100389e-04 2.041161677064e-04 0.0 
3.758945065042e-04 1.727542071708e-04 0.0 
4.206082247655e-04 2.768825623789e-04 0.0 
2.601169069075e-04 2.842011209311e-04 0.0 
4.097458532543e-04 2.590942081127e-04 0.0 
3.907364406951e-04 2.417563278736e-04 0.0 
3.846711395459e-04 1.221858634180e-03 0.0 
2.139559325717e-04 1.968215399716e-07 0.0 
1.489652356251e-04 8.819092733625e-04 0.0 
9.903533162504e-05 1.328656202038e-03 0.0 
-1.067826495431e-04 1.363763787930e-03 0.0 
2.172844182346e-04 1.505795205891e-05 0.0 
3.030008648272e-04 1.364937574280e-04 0.0 
1.275711412903e-04 3.274667526500e-04 0.0 
4.421195969035e-04 3.101504757538e-04 0.0 
2.128282363797e-04 7.400780578039e-06 0.0 
1.197793743445e-04 8.725474041522e-04 0.0 
8.505350999764e-05 1.702687337777e-03 0.0 
3.364790479403e-04 1.718131062971e-04 0.0 
4.156472883638e-04 2.521827532693e-04 0.0 
3.787076749110e-04 1.163187905822e-03 0.0 
1.980003476786e-04 3.474266213722e-05 0.0 
1.993602876591e-04 1.253525027013e-04 0.0 
2.006119528609e-04 4.437956803682e-05 0.0 
1.640733012684e-04 4.804862970547e-05 0.0 
3.684869392720e-04 2.140115840781e-04 0.0 
8.952900323590e-05 6.430479017326e-04 0.0 
3.409170503086e-04 3.516187524097e-04 0.0 
1.575831531459e-04 4.305103530037e-05 0.0 
1.989641248867e-04 1.824387575263e-03 0.0 
1.281876557016e-04 8.027145749132e-04 0.0 
2.522115917001e-04 1.838540160090e-04 0.0 
8.600197485460e-05 5.712379935876e-04 0.0 
4.022851027061e-04 2.475826023244e-04 0.0 
4.341614699648e-04 3.021983853363e-04 0.0 
1.287702512624e-04 -3.254041480177e-05 0.0 
8.828386868157e-05 3.837691458407e-04 0.0 
6.812635361908e-05 4.915700737312e-04 0.0 
4.878431098465e-05 -1.047158650094e-04 0.0 
2.632511554732e-04 1.850357943426e-03 0.0 
3.590699692126e-04 4.181835132108e-04 0.0 
3.729235938785e-05 3.304036634762e-04 0.0 
1.549450701561e-04 8.022063228668e-05 0.0 
4.623810776739e-04 8.025938514069e-04 0.0 
1.260061025583e-04 7.298834031270e-04 0.0 
1.776398401232e-04 -1.691988692661e-05 0.0 
2.436377179195e-04 2.385815094607e-04 0.0 
4.723694184226e-04 9.254502327383e-04 0.0 
8.677680069012e-05 2.958208262005e-05 0.0 
1.670698792842e-04 1.090867927958e-04 0.0 
1.245887635956e-04 6.581321950181e-05 0.0 
4.268410772653e-04 2.796730219319e-04 0.0 
2.264748204370e-05 7.353270762219e-05 0.0 
2.944179145315e-04 1.829788262095e-03 0.0 
1.226141574207e-04 2.193744519872e-05 0.0 
4.596441038764e-04 4.490533080428e-04 0.0 
1.578682606479e-04 8.102502669893e-04 0.0 
1.785293322156e-04 3.745905032124e-04 0.0 
1.412758420162e-04 4.340793792908e-05 0.0 
1.150067842070e-04 4.121579504137e-05 0.0 
5.664692894470e-05 -9.628173968512e-05 0.0 
3.577775995241e-04 2.227971942039e-04 0.0 
3.157603250424e-04 9.155073421353e-05 0.0 
2.852238492750e-04 1.984592383465e-04 0.0 
4.792834095440e-04 1.105805259660e-03 0.0 
1.715284516086e-04 6.685855338623e-04 0.0 
2.149128362040e-04 1.261506714141e-04 0.0 
1.189327361693e-04 7.993969549071e-04 0.0 
1.355326231711e-04 3.283774676218e-04 0.0 
1.177378503555e-04 5.859111792260e-04 0.0 
1.197186759458e-04 5.178720523894e-04 0.0 
2.975347360447e-04 6.906878740886e-04 0.0 
1.250664635658e-04 1.699526661158e-05 0.0 
1.316724496257e-04 6.605903499383e-04 0.0 
4.899646591088e-04 4.972048142793e-04 0.0 
3.043326995556e-04 1.769855775056e-03 0.0 
1.775192123089e-04 1.040069923765e-04 0.0 
3.123096554743e-04 4.490320407598e-04 0.0 
5.733945530972e-05 -9.936832561243e-05 0.0 
3.158554064155e-04 2.208858070890e-04 0.0 
4.508309663464e-06 -1.244365373896e-04 0.0 
4.985000498728e-04 6.983501442636e-04 0.0 
3.256285178566e-04 1.793319786672e-04 0.0 
9.401994280766e-05 3.770255788632e-04 0.0 
8.890641434007e-05 3.102114631717e-04 0.0 
3.515806763387e-04 2.053423635594e-04 0.0 
9.564483189372e-05 5.076566898488e-04 0.0 
4.820384950839e-04 5.031943179305e-04 0.0 
3.363262130910e-04 4.594043019520e-04 0.0 
2.985263908045e-04 1.681739603069e-03 0.0 
1.803849019908e-04 3.306929818260e-04 0.0 
2.812047830282e-04 1.573075323412e-03 0.0 
2.694113298406e-04 1.512724262863e-03 0.0 
4.639179863403e-04 3.792795313698e-04 0.0 
2.555222862117e-04 1.449506139377e-03 0.0 
4.711460963729e-04 5.263928067771e-04 0.0 
5.067307259007e-04 6.451833386251e-04 0.0 
4.116828416183e-04 2.422042321656e-04 0.0 
2.061596102163e-04 2.188482620594e-04 0.0 
4.479564649876e-04 3.388941678754e-04 0.0 
6.893032873402e-05 4.249548702428e-04 0.0 
1.482932043040e-04 3.196721450241e-04 0.0 
1.483602044508e-04 1.514664719697e-05 0.0 
2.514527949509e-04 1.648483173820e-04 0.0 
3.322011843825e-04 1.120441051402e-04 0.0 
1.113317567047e-04 5.147536078407e-04 0.0 
4.261433143935e-04 2.738882515939e-04 0.0 
1.003972375273e-04 1.259056898324e-05 0.0 
1.092761600745e-04 5.825552676257e-04 0.0 
1.450607946534e-04 5.939692353812e-04 0.0 
3.725952574407e-04 1.998608851512e-04 0.0 
4.668230826372e-04 4.149931533129e-04 0.0 
2.836906793332e-04 3.564269643560e-04 0.0 
3.607386292790e-04 8.254118655314e-04 0.0 
1.922767214763e-04 1.782642444514e-04 0.0 
2.944127359442e-04 3.891082675130e-04 0.0 
4.917491804921e-04 1.024930592031e-03 0.0 
4.524965385682e-04 8.304032050630e-04 0.0 
7.766958348122e-05 9.418393442921e-06 0.0 
1.411423012100e-04 6.632737520067e-04 0.0 
4.540744505612e-04 3.729259298801e-04 0.0 
4.136754685120e-04 6.755320519097e-04 0.0 
2.914447282623e-04 1.425286528212e-04 0.0 
7.458562588992e-05 4.959445749919e-04 0.0 
2.427062206090e-04 3.169379011524e-04 0.0 
1.698587875808e-04 8.853421761374e-04 0.0 
2.320263628584e-04 8.297228840571e-05 0.0 
4.296142861741e-04 2.781505891705e-04 0.0 
2.842761779117e-04 1.302149223413e-04 0.0 
4.947763267221e-04 7.364419922100e-04 0.0 
7.399589676418e-05 3.649645949271e-04 0.0 
1.948411359463e-04 2.629394369481e-04 0.0 
3.996027321954e-04 2.262980597021e-04 0.0 
2.537606701149e-04 3.658024739061e-04 0.0 
3.140462278594e-04 3.029286084494e-04 0.0 
4.807873809401e-04 6.139768604885e-04 0.0 
4.707753429228e-04 4.555141387961e-04 0.0 
3.924733990375e-04 2.244883683101e-04 0.0 
2.307560409305e-04 6.794967046370e-05 0.0 
2.370420382184e-04 3.119083713958e-04 0.0 
4.175061569195e-04 2.510384542581e-04 0.0 
2.899925677741e-04 7.999044619788e-04 0.0 
7.098223313514e-05 7.467398414688e-06 0.0 
2.978318608304e-04 7.232669288298e-04 0.0 
3.357255363384e-04 3.651160276999e-04 0.0 
2.795592672727e-04 8.762118471459e-04 0.0 
2.526862838248e-04 1.027365516327e-03 0.0 
3.684319545602e-04 7.425909186216e-04 0.0 
2.828400472656e-04 1.760743833563e-04 0.0 
1.420347034912e-04 1.846180919571e-05 0.0 
1.551241405072e-04 7.375718136259e-04 0.0 
8.232122553322e-05 3.078490602285e-04 0.0 
2.669312613619e-04 9.520169931009e-04 0.0 
4.262600340925e-04 4.277349470280e-04 0.0 
2.808078521738e-04 2.672167518741e-04 0.0 
5.653608883244e-05 3.502548770336e-04 0.0 
5.006286399071e-04 6.190132525584e-04 0.0 
4.919757144187e-04 6.378011042953e-04 0.0 
4.456441545904e-04 4.014762177388e-04 0.0 
1.610260692387e-04 6.674131327034e-04 0.0 
4.584555220888e-04 1.183139461573e-03 0.0 
4.569813997627e-04 4.754531350030e-04 0.0 
4.697499381399e-04 1.142161070579e-03 0.0 
3.402189115427e-04 2.252961558900e-04 0.0 
2.093335051256e-04 1.851356204462e-04 0.0 
4.290783288318e-04 3.244902339686e-04 0.0 
7.860126815058e-05 3.263685747388e-04 0.0 
1.025318514001e-04 3.140256762599e-04 0.0 
4.447792747821e-04 1.174542284069e-03 0.0 
3.560951850526e-04 1.427089148970e-04 0.0 
2.483546493501e-04 2.214568250972e-04 0.0 
1.655417350634e-04 7.394549847845e-04 0.0 
1.693507842380e-04 2.539056815404e-05 0.0 
4.994083262484e-04 6.025807848118e-04 0.0 
2.856773048036e-05 3.047416541045e-04 0.0 
5.081575269633e-05 5.863073323094e-06 0.0 
4.575007488637e-04 7.354837534438e-04 0.0 
3.954723445088e-04 3.160504936345e-04 0.0 
2.559751793474e-04 3.006411700527e-04 0.0 
-6.319059010543e-05 3.183089646309e-04 0.0 
1.798681807015e-04 3.123554474299e-05 0.0 
4.396503816142e-04 7.710175852308e-04 0.0 
1.809257246957e-04 8.863558072159e-04 0.0 
1.747935611722e-04 -8.303378653923e-06 0.0 
4.440267615608e-04 3.658698250593e-04 0.0 
9.270317168640e-05 9.892677579304e-06 0.0 
4.698218938358e-04 5.572321449337e-04 0.0 
4.296560201098e-04 3.907486349632e-04 0.0 
4.415172195101e-04 6.960465912133e-04 0.0 
2.359905614517e-05 2.527872973290e-04 0.0 
3.719740833116e-04 4.900007511409e-04 0.0 
3.362597131817e-04 2.096907049837e-04 0.0 
1.524388706553e-04 2.156435070881e-04 0.0 
3.226441923884e-04 3.902225358468e-04 0.0 
3.476085654810e-04 3.767338276844e-04 0.0 
1.378268448998e-04 1.066356989073e-05 0.0 
4.878001914672e-05 2.814333158326e-04 0.0 
1.361962691715e-04 8.372934807652e-05 0.0 
3.140811513137e-04 2.075414210715e-04 0.0 
4.881149786055e-04 5.043143075229e-04 0.0 
4.114631989199e-04 5.919317926332e-04 0.0 
5.776989557726e-05 4.189213454172e-06 0.0 
4.004878249762e-05 -5.306717099718e-05 0.0 
3.522852910292e-04 4.328431382500e-04 0.0 
1.476127884369e-04 8.081841980699e-04 0.0 
1.164540459617e-04 1.348241434767e-05 0.0 
1.705670546111e-04 3.338171239910e-05 0.0 
3.967143287912e-05 1.402519349189e-03 0.0 
2.647024156085e-05 1.402949651040e-03 0.0 
2.720407938824e-04 7.338605054831e-04 0.0 
3.968804817024e-04 5.315727216184e-04 0.0 
1.513949080924e-04 -1.305415670762e-05 0.0 
3.483102901757e-04 6.873393434869e-04 0.0 
4.832744496061e-04 5.466506700266e-04 0.0 
2.032741422998e-04 8.672038163208e-05 0.0 
4.962144819446e-04 5.507070411892e-04 0.0 
2.031088829315e-05 7.505711992392e-05 0.0 
2.583464325416e-04 1.172265056980e-03 0.0 
4.931385805475e-04 6.013142519899e-04 0.0 
1.888060474782e-04 -1.303445501748e-06 0.0 
3.496199600756e-04 4.716777068708e-04 0.0 
1.990297482695e-04 -9.229667357255e-06 0.0 
4.318405214439e-04 6.324405611895e-04 0.0 
4.272779406281e-04 8.098468984535e-04 0.0 
1.793527923190e-04 8.131470692263e-04 0.0 
3.379987554056e-04 6.205638355190e-04 0.0 
3.139478583361e-04 5.655399650340e-04 0.0 
9.081310090602e-06 -1.266564807444e-04 0.0 
1.901032923222e-04 -1.793386102730e-05 0.0 
4.574756646070e-04 1.140378861032e-03 0.0 
3.298594367872e-04 7.773217125154e-04 0.0 
3.108068599425e-04 7.161925069376e-04 0.0 
2.494490620135e-04 1.392037088791e-04 0.0 
2.592792572779e-06 -1.220626259428e-04 0.0 
1.808871074085e-04 2.428844887969e-04 0.0 
4.785954307938e-04 7.413678401278e-04 0.0 
1.756176693170e-04 -2.619013528397e-05 0.0 
2.814655516567e-04 1.507052098433e-03 0.0 
2.676951468598e-04 1.445613427857e-03 0.0 
1.906405440779e-04 8.138433982656e-04 0.0 
2.654631382103e-04 7.504157757211e-04 0.0 
1.698242796247e-04 -1.586545380277e-05 0.0 
2.941980036750e-04 1.234259886640e-04 0.0 
1.952903464227e-04 2.903249866628e-04 0.0 
1.096176524090e-04 1.026869702490e-04 0.0 
9.600435387348e-05 4.420897405555e-04 0.0 
1.359439686024e-04 -3.527522689897e-05 0.0 
1.228889263361e-04 1.046587962556e-05 0.0 
1.117581235306e-05 -1.211903675653e-04 0.0 
2.978840720927e-04 1.127268732859e-04 0.0 
4.653819919369e-04 7.072965852320e-04 0.0 
8.755297709334e-06 -1.251392695146e-04 0.0 
8.877911934353e-05 4.383487341639e-04 0.0 
1.645646458205e-04 3.190586267389e-04 0.0 
3.430088776686e-04 7.672805728799e-04 0.0 
4.382765822537e-04 7.868406873529e-04 0.0 
3.648433787103e-04 1.584028721554e-04 0.0 
2.911525174541e-04 7.854522934773e-05 0.0 
8.725737655591e-05 3.748833577881e-04 0.0 
2.708626658135e-04 7.413454035558e-05 0.0 
4.771540678949e-04 6.463432753542e-04 0.0 
4.846186782228e-04 7.082593671074e-04 0.0 
-1.958982507534e-04 1.120815897088e-03 0.0 
1.178481381109e-04 2.967401023471e-04 0.0 
3.046091869242e-04 3.266417502617e-04 0.0 
2.411655072065e-04 9.566250665433e-04 0.0 
2.765623252088e-04 2.774326183962e-04 0.0 
4.484319034168e-04 8.477134251090e-04 0.0 
1.977948635642e-04 5.283084795604e-04 0.0 
2.629170992730e-04 2.925524566013e-04 0.0 
2.771909351444e-04 1.373651027978e-03 0.0 
2.983125211575e-04 3.370886333693e-04 0.0 
1.132353780998e-04 6.970883887698e-06 0.0 
4.260981743409e-04 5.495441964570e-04 0.0 
1.920494602948e-04 -9.276558864074e-06 0.0 
1.982463861024e-04 -1.222192588061e-06 0.0 
1.101291643269e-04 3.167658466646e-04 0.0 
3.035276966587e-04 8.110021518573e-05 0.0 
4.321775920058e-04 7.195941714664e-04 0.0 
4.743871253598e-04 4.432923380010e-04 0.0 
2.427472995616e-04 6.772924867176e-05 0.0 
4.989235432765e-04 5.786226471852e-04 0.0 
3.601007445843e-04 3.445112525478e-04 0.0 
3.906623853501e-04 2.010443187565e-04 0.0 
4.038398209874e-04 4.130600964877e-04 0.0 
3.360683372922e-04 6.985781126839e-04 0.0 
3.868567954657e-04 3.620390737328e-04 0.0 
3.806867489605e-04 7.283154176931e-04 0.0 
2.805100648203e-04 1.651007916739e-04 0.0 
3.077919705074e-04 1.809623784828e-04 0.0 
5.022566860301e-04 5.897818425693e-04 0.0 
2.039513861818e-04 8.865499486270e-04 0.0 
9.910643188450e-05 7.289527205862e-06 0.0 
9.036329040217e-05 4.632778566175e-06 0.0 
1.658506093657e-04 7.801790367956e-04 0.0 
3.718157724234e-04 6.613451834307e-04 0.0 
5.622522108937e-05 7.189805202976e-06 0.0 
3.754148714855e-04 1.552121259937e-03 0.0 
1.340019098391e-04 -2.522290391525e-05 0.0 
-1.023861648489e-04 1.190514533898e-03 0.0 
7.727267985799e-05 5.284933911384e-06 0.0 
3.653159074913e-04 4.324398720286e-04 0.0 
3.324335777747e-05 -4.841725686816e-05 0.0 
3.979124061343e-04 3.373525920055e-04 0.0 
2.159352730834e-04 8.862144864137e-04 0.0 
2.285775210433e-04 9.579064546670e-04 0.0 
4.568861738927e-04 6.444123878217e-04 0.0 
3.031563040316e-04 1.618897303856e-03 0.0 
2.934414155064e-04 1.565153898214e-03 0.0 
6.946981069315e-05 3.333480830749e-06 0.0 
2.886729690744e-04 8.301430081010e-05 0.0 
3.608935748433e-04 1.497072763226e-04 0.0 
3.084394970102e-04 1.264153523152e-04 0.0 
4.019882620259e-04 2.189153556913e-04 0.0 
3.947911121163e-04 4.512383196470e-04 0.0 
2.912941657837e-04 1.629694092045e-03 0.0 
2.493458743418e-04 1.102761866546e-03 0.0 
3.330064335664e-05 1.446110207619e-03 0.0 
3.033576983677e-04 1.680584828108e-04 0.0 
4.974147153584e-04 5.459348773123e-04 0.0 
1.785229410297e-04 1.100727063053e-04 0.0 
2.975510364574e-05 -3.546771220878e-06 0.0 
4.043406055466e-04 2.234872402073e-04 0.0 
4.698396809137e-05 7.565015937648e-06 0.0 
3.760776009487e-04 2.867869475960e-04 0.0 
2.167202309672e-04 1.486999526136e-04 0.0 
4.626350024217e-04 6.165675509643e-04 0.0 
4.150484020320e-04 4.719215540256e-04 0.0 
2.124261017275e-04 7.834782448762e-05 0.0 
1.992302830731e-04 -1.392753952233e-05 0.0 
4.033784888177e-04 6.948859257948e-04 0.0 
3.871272783012e-04 1.917682323310e-04 0.0 
4.108819706858e-04 7.619542564520e-04 0.0 
4.683174542083e-04 8.527689416488e-04 0.0 
3.982871464303e-04 4.003190173562e-04 0.0 
3.808745402980e-04 1.844152587412e-04 0.0 
1.648271765415e-04 -7.372359633857e-06 0.0 
3.991275810600e-04 7.803978287343e-04 0.0 
-1.259711722172e-04 7.962325714109e-04 0.0 
4.493510998370e-04 3.885109246916e-04 0.0 
7.919967702083e-05 1.154073387031e-03 0.0 
2.875918571882e-05 -1.086305608323e-04 0.0 
1.474357698189e-04 -2.020608181687e-05 0.0 
2.978845566642e-04 4.216628001914e-04 0.0 
2.407138226255e-04 8.854594339345e-04 0.0 
3.146361000528e-04 1.710684422780e-03 0.0 
1.048962524834e-05 3.646801028894e-05 0.0 
-2.660975232765e-04 9.197656142884e-04 0.0 
3.105044221862e-04 1.667455669780e-03 0.0 
3.483244228715e-04 1.344023588133e-04 0.0 
1.154750366546e-04 -3.687266128494e-05 0.0 
3.485078354299e-04 1.391390411628e-03 0.0 
3.276614582482e-04 1.575384323424e-04 0.0 
3.056551154047e-04 8.757007293509e-05 0.0 
4.393282327533e-04 6.089935260097e-04 0.0 
4.148737998611e-04 3.333142830088e-04 0.0 
2.204712701623e-04 3.934423695373e-04 0.0 
2.099237372262e-04 7.189343815374e-04 0.0 
1.496386140808e-04 -2.983799408753e-05 0.0 
1.078148870239e-04 -3.350955693520e-05 0.0 
1.219944767509e-04 -6.160460990908e-05 0.0 
2.611921565063e-04 1.308804171091e-03 0.0 
2.534663519148e-04 8.837365096064e-04 0.0 
1.074800959650e-05 -1.589334823901e-05 0.0 
7.582585842157e-06 -1.236351760180e-04 0.0 
-1.174250791004e-04 3.512653505059e-04 0.0 
7.399073610668e-05 -7.237840475662e-05 0.0 
9.495639063265e-05 -3.691004165849e-05 0.0 
3.981613393729e-04 2.740955680813e-04 0.0 
3.236573870249e-04 1.745447666429e-04 0.0 
3.425072009050e-04 2.968392801823e-04 0.0 
1.251458216529e-04 -2.262915796224e-05 0.0 
2.593059114140e-04 7.368682120484e-04 0.0 
8.703187719888e-05 -3.306721904913e-05 0.0 
4.146899167061e-04 3.139172533615e-04 0.0 
3.827531226548e-04 6.463592638146e-04 0.0 
1.547767687575e-04 1.185501910555e-03 0.0 
3.460227838317e-04 2.724659779126e-04 0.0 
7.458213831965e-05 -3.569929441543e-05 0.0 
1.122540134455e-04 -2.658356449902e-05 0.0 
3.115184828220e-04 1.776992705392e-03 0.0 
3.800842332780e-04 2.147692040590e-04 0.0 
6.634615985024e-05 -3.153794125670e-05 0.0 
5.896418255991e-06 8.790414649942e-04 0.0 
6.539637511307e-06 1.024647133175e-03 0.0 
3.149059275597e-04 1.748187651887e-03 0.0 
1.032774371993e-04 -2.341778235643e-05 0.0 
2.724115322737e-04 8.854095507350e-05 0.0 
2.239252180795e-04 1.234577564280e-03 0.0 
2.165261118324e-04 1.412568543156e-04 0.0 
7.657100270564e-05 -4.649740623972e-05 0.0 
2.764884627778e-04 7.817551824600e-05 0.0 
4.654317811753e-04 4.319539160309e-04 0.0 
3.034224725702e-04 1.728608133099e-03 0.0 
5.416980911372e-05 -3.352273411989e-05 0.0 
7.106861143201e-06 -1.120079242505e-04 0.0 
2.544214536332e-04 1.243096595792e-03 0.0 
9.091379734390e-05 -2.650095218325e-05 0.0 
3.401913019671e-04 1.208040425237e-04 0.0 
1.558987567207e-04 -2.208635989195e-05 0.0 
-9.349915352692e-05 6.531512435545e-04 0.0 
7.256945603953e-06 4.517562711484e-04 0.0 
3.286306748506e-04 1.272322609548e-04 0.0 
2.374069777894e-04 1.122072112329e-04 0.0 
4.186676044858e-04 4.505339341520e-04 0.0 
8.201902363386e-05 -2.292896663996e-05 0.0 
6.990112501943e-05 -2.533388034710e-05 0.0 
3.799280351545e-04 2.609999730059e-04 0.0 
2.812363868782e-05 -2.637669114556e-05 0.0 
-7.159944749221e-05 7.397082176127e-04 0.0 
6.102352219720e-05 -2.148155435851e-05 0.0 
2.199602636588e-04 8.659221236503e-05 0.0 
2.247662740380e-04 2.476544690534e-05 0.0 
3.701882290920e-04 5.819578650815e-04 0.0 
3.753566685787e-04 1.569902633178e-03 0.0 
3.492494432531e-04 6.088451763912e-04 0.0 
8.235178407987e-05 2.344916683993e-05 0.0 
-2.437229762834e-04 3.880597400657e-04 0.0 
1.056799125801e-06 3.946859994831e-05 0.0 
2.265910043944e-06 1.003209183661e-06 0.0 
4.108833812492e-06 1.255817344134e-03 0.0 
2.779397383605e-04 6.000286310092e-05 0.0 
4.316857287881e-04 5.268493549359e-04 0.0 
4.136502149545e-04 3.445692616767e-04 0.0 
2.197742734878e-05 -1.068945691445e-04 0.0 
-1.910835549363e-04 9.740552374223e-04 0.0 
2.966452651742e-05 3.250567431488e-04 0.0 
2.638448969599e-04 8.082074019467e-04 0.0 
2.533998907284e-04 1.380468309175e-03 0.0 
5.624855608933e-05 4.656890445118e-05 0.0 
5.786733905223e-06 -1.189764427620e-04 0.0 
5.501430044744e-05 4.154998024130e-05 0.0 
2.511077653821e-04 8.116383489059e-04 0.0 
2.296367708460e-04 9.823251239547e-06 0.0 
4.506646157295e-04 5.584538476312e-04 0.0 
2.617648146100e-04 4.856663453229e-05 0.0 
2.783742383096e-04 1.368773348037e-03 0.0 
2.282852924208e-04 1.909749764301e-05 0.0 
2.649692557033e-04 6.632122468520e-04 0.0 
2.967251055712e-05 -5.191842766635e-07 0.0 
3.119887237983e-04 1.150808223823e-04 0.0 
3.352760142960e-04 5.446968205757e-04 0.0 
-2.019726244536e-04 3.325225383269e-04 0.0 
3.639172839777e-04 2.026426039602e-04 0.0 
2.082895995987e-04 5.986644904574e-04 0.0 
1.836047256186e-04 -2.384476409066e-05 0.0 
1.903998558568e-04 -3.392892815573e-06 0.0 
4.542181940984e-04 5.314848564662e-04 0.0 
1.119931455025e-04 1.069382423025e-04 0.0 
2.876767091630e-04 1.812260022562e-03 0.0 
3.007802761735e-04 1.804192423940e-03 0.0 
1.633436335725e-04 -3.118186027266e-05 0.0 
3.335602348623e-04 1.151966496019e-04 0.0 
4.901755719901e-04 5.267173260563e-04 0.0 
3.452774499036e-04 5.327954288820e-04 0.0 
1.355450470763e-04 2.553461760326e-04 0.0 
3.014625223844e-04 1.804761766162e-03 0.0 
1.086726464582e-05 7.280123725597e-04 0.0 
1.682373728790e-04 2.117875181825e-04 0.0 
3.932712034155e-04 3.305345509865e-04 0.0 
8.885483491247e-05 1.298319495631e-03 0.0 
3.880079553314e-04 1.517707075074e-03 0.0 
3.146234892373e-04 9.032701869736e-05 0.0 
3.029441398802e-04 5.744104195937e-04 0.0 
3.302255037487e-04 1.085966947378e-04 0.0 
8.844928089073e-05 6.614225402701e-04 0.0 
3.187397295428e-04 1.078744224461e-04 0.0 
3.152877498583e-04 1.465741610359e-03 0.0 
4.860586584941e-04 4.891464584074e-04 0.0 
3.200856390971e-04 1.033968313108e-04 0.0 
4.388585096109e-04 4.784927438973e-04 0.0 
4.140615752398e-05 9.064202495053e-04 0.0 
1.505362024774e-04 -4.285157897462e-05 0.0 
1.466588853364e-04 1.069488235228e-03 0.0 
3.018296574708e-04 9.651673553274e-05 0.0 
3.393737002868e-04 1.531323741736e-03 0.0 
-1.214787958994e-04 4.003319627770e-04 0.0 
2.691482650390e-06 2.958824943339e-04 0.0 
3.647012442151e-06 4.410375025280e-04 0.0 
-2.261561553380e-05 -3.405508872313e-05 0.0 
2.957460035632e-04 9.889457413986e-05 0.0 
9.917228069721e-05 -6.794539280793e-05 0.0 
1.060565520025e-04 -6.934020648262e-05 0.0 
2.886808745083e-04 4.304540748651e-04 0.0 
4.402975127380e-04 4.533003605907e-04 0.0 
3.274964068658e-04 4.713577466972e-04 0.0 
3.465529956773e-04 1.708909225640e-04 0.0 
7.576804895773e-05 1.450685045409e-03 0.0 
6.027065628389e-05 1.546595689378e-05 0.0 
8.307164267192e-05 -7.473133240600e-05 0.0 
2.694746758322e-04 1.335098954442e-04 0.0 
4.820165376793e-04 5.124443494662e-04 0.0 
1.634798712956e-05 -1.224061824310e-04 0.0 
3.026410475979e-04 6.482463138938e-04 0.0 
3.969645819435e-04 2.489122005508e-04 0.0 
5.171023711972e-06 8.971623897630e-06 0.0 
3.411959689011e-04 2.089446582810e-04 0.0 
5.713753974896e-06 -2.048499529559e-05 0.0 
2.775090620274e-04 6.590808327153e-04 0.0 
6.219424514916e-05 -4.084767614701e-05 0.0 
2.234430495973e-05 -5.068874463347e-05 0.0 
2.982138209898e-04 5.011748983951e-04 0.0 
3.171996407354e-04 2.478841872665e-04 0.0 
1.950847033007e-04 -7.623715155124e-06 0.0 
1.455619317726e-05 -1.110002160883e-04 0.0 
4.689442799987e-04 4.635350598472e-04 0.0 
3.107356384036e-06 9.551683338835e-04 0.0 
-1.437417872120e-06 4.875590882196e-05 0.0 
1.253200473463e-04 1.382327215007e-04 0.0 
7.240832307872e-05 1.527061431234e-04 0.0 
1.428101521458e-05 1.157414304810e-03 0.0 
4.816543020308e-05 2.215630441391e-04 0.0 
8.074698598978e-05 1.369171920538e-04 0.0 
3.458369551234e-04 1.540394614968e-04 0.0 
2.949551148734e-04 9.073953217000e-05 0.0 
1.263891934599e-04 6.073371425357e-05 0.0 
-2.300558482390e-04 4.440462801347e-04 0.0 
3.193941332444e-06 -1.158731373669e-04 0.0 
1.657244327315e-05 -4.639139654583e-05 0.0 
1.809404670744e-04 -2.132297873186e-05 0.0 
2.891929272131e-04 1.145596793179e-04 0.0 
2.374029060222e-04 1.797707402383e-03 0.0 
2.662723005827e-04 1.810815697575e-03 0.0 
1.327840349550e-04 1.176514541627e-03 0.0 
3.625643284248e-04 2.236900053767e-04 0.0 
3.994076419866e-05 -1.045928457869e-04 0.0 
3.478852338393e-04 3.235149632507e-04 0.0 
2.139826680100e-05 5.041130884490e-06 0.0 
2.747876974963e-05 6.785922179293e-06 0.0 
2.946522914081e-04 8.037116810229e-05 0.0 
1.715383704041e-04 1.264804265549e-03 0.0 
-1.517177544052e-04 3.219038118255e-04 0.0 
1.557982910666e-04 1.694318253488e-03 0.0 
9.077549715867e-05 1.262562340661e-04 0.0 
2.058664536941e-04 1.755249561311e-03 0.0 
4.560374953153e-04 4.468017086335e-04 0.0 
2.403058941409e-04 4.386261190234e-05 0.0 
3.103034666419e-04 1.285355327027e-04 0.0 
-3.535618707545e-05 1.988754352168e-04 0.0 
8.298134234461e-06 3.991678351884e-04 0.0 
2.600107155619e-04 5.637092560966e-05 0.0 
2.583590309146e-05 3.177466370031e-04 0.0 
2.195929339752e-05 5.292382718283e-04 0.0 
3.162266599240e-06 8.716746055132e-05 0.0 
5.076870874118e-06 1.826048927291e-06 0.0 
7.541114939762e-06 1.173899572935e-03 0.0 
2.455790115718e-04 3.039037156264e-05 0.0 
2.786193592005e-04 1.854635086201e-03 0.0 
2.454491687689e-04 2.489816416760e-05 0.0 
8.281691103007e-06 1.882525534779e-06 0.0 
-4.230278032107e-06 1.414251307419e-03 0.0 
8.886748499707e-05 1.580609362289e-03 0.0 
2.479887664580e-04 1.313184897568e-04 0.0 
1.285266417023e-04 1.309165881056e-03 0.0 
1.563239325124e-05 3.044428319611e-04 0.0 
3.082912891023e-04 4.920504130645e-04 0.0 
2.521931970833e-04 1.933841513359e-04 0.0 
2.390878216780e-04 4.570409906735e-04 0.0 
4.843425121870e-05 1.122417237038e-03 0.0 
1.576516324411e-04 -2.820104512528e-05 0.0 
1.705636184989e-04 -1.411134124493e-05 0.0 
1.362179693474e-05 8.006527085271e-04 0.0 
2.869970162410e-04 2.349129283130e-04 0.0 
2.220938702487e-04 1.370130475976e-03 0.0 
2.609264783580e-05 1.319584970107e-03 0.0 
3.118054110124e-05 1.190618202379e-03 0.0 
5.563055620809e-05 1.139594729817e-03 0.0 
6.420074948411e-05 2.278661697476e-04 0.0 
1.385293672029e-04 -3.782984068098e-05 0.0 
2.258906088071e-05 1.944073132468e-04 0.0 
5.329419047450e-05 9.841882290487e-04 0.0 
9.692049848137e-05 5.649438360799e-05 0.0 
1.490176816901e-04 2.677350149712e-04 0.0 
3.147530840662e-04 6.406730592756e-04 0.0 
7.119919537520e-05 3.062824877113e-04 0.0 
6.918528460909e-05 -7.607472423003e-05 0.0 
6.450357692060e-05 -8.631660226209e-05 0.0 
1.022866178317e-04 2.561198947440e-05 0.0 
-8.591097414481e-05 1.981799778508e-04 0.0 
1.711460300679e-05 -1.136708297971e-04 0.0 
2.750325891932e-05 2.168964347850e-05 0.0 
2.734675826179e-06 -1.281757572422e-04 0.0 
3.219113695810e-05 1.275428729860e-03 0.0 
1.729587613385e-04 7.426131082189e-05 0.0 
5.300360792558e-06 -7.968077722546e-05 0.0 
-3.470882627407e-06 -1.085332727213e-04 0.0 
1.352552011294e-05 7.528014151469e-05 0.0 
1.124519357894e-04 1.406951554099e-03 0.0 
3.304183864010e-05 2.103201440992e-04 0.0 
1.655997747835e-04 8.038584602110e-05 0.0 
9.730623625222e-05 1.408672426515e-03 0.0 
-1.699020609548e-04 4.459635329017e-04 0.0 
5.507565489690e-06 1.632951408085e-04 0.0 
2.677261037155e-05 -1.123885475638e-04 0.0 
3.708895543337e-05 2.741995098881e-04 0.0 
6.593988174360e-06 1.510437366472e-06 0.0 
1.216084219302e-04 2.607396457771e-04 0.0 
1.407295624751e-04 2.250700806572e-04 0.0 
1.893942921513e-04 1.167011512978e-03 0.0 
4.183737648077e-05 -8.099603936054e-05 0.0 
3.480055586247e-04 3.067778282337e-04 0.0 
5.079735822311e-05 2.972283458630e-05 0.0 
1.292527036527e-05 6.540127279742e-04 0.0 
5.094946100216e-05 2.710005739720e-05 0.0 
-2.547769811715e-05 2.394505152668e-04 0.0 
3.912535245446e-05 7.709701401629e-06 0.0 
1.586020446336e-04 1.581118531303e-04 0.0 
1.233075708634e-05 -1.249338916616e-04 0.0 
1.013406062642e-04 3.744420372832e-05 0.0 
5.738825344642e-05 1.838280629323e-04 0.0 
2.940348486736e-05 1.480836057429e-04 0.0 
7.251499488693e-05 1.300466557066e-03 0.0 
2.370178027206e-04 1.098521854304e-03 0.0 
2.773062406138e-04 1.258904999321e-03 0.0 
9.659842050172e-05 1.578240489801e-04 0.0 
3.207028142393e-05 -9.610904896553e-05 0.0 
4.851478508818e-05 7.974156196566e-04 0.0 
3.184265247038e-04 2.632451415769e-04 0.0 
5.985860878318e-05 1.452618053030e-03 0.0 
7.759344227849e-05 2.523403560409e-04 0.0 
4.457818404198e-07 8.281185140187e-05 0.0 
4.457818404198e-07 3.495719756321e-05 0.0 
-4.729937270884e-07 -1.311017530234e-04 0.0 
-4.636427386389e-08 -1.313533178675e-04 0.0 
3.219328167120e-06 1.400994926807e-03 0.0 
7.662644825720e-06 1.451700502428e-03 0.0 
8.801585694073e-07 7.492241926252e-07 0.0 
8.801585694073e-07 1.550374426808e-06 0.0 
4.081227988034e-07 -1.307470726967e-04 0.0 
-1.712882006392e-04 2.416193241799e-04 0.0 
3.966941009788e-05 5.666888672735e-06 0.0 
2.098689537687e-04 1.959994046709e-04 0.0 
2.792095910989e-05 -1.161331453859e-04 0.0 
6.425893978996e-05 1.231413830195e-05 0.0 
9.884030094998e-06 -3.682314725538e-05 0.0 
1.010184632958e-05 -5.952297960413e-05 0.0 
3.615085832098e-05 9.275723079874e-04 0.0 
7.318200867016e-05 6.380071280019e-05 0.0 
3.993855401004e-04 3.798547672278e-04 0.0 
2.018942607038e-05 -1.154319721157e-04 0.0 
5.936493857639e-05 -6.650448041925e-05 0.0 
1.297214852416e-04 2.176430172245e-04 0.0 
1.557792523735e-06 3.654415305336e-04 0.0 
1.953506785393e-05 -5.778732501333e-05 0.0 
2.354576443058e-05 1.076088422005e-03 0.0 
1.911457434299e-04 2.124467901426e-04 0.0 
2.301633302322e-04 3.925730595106e-04 0.0 
2.772975296209e-04 5.154560751574e-04 0.0 
8.289283222987e-05 1.403532404745e-03 0.0 
4.204877581415e-04 3.813260215054e-04 0.0 
9.692320096126e-05 2.594725656380e-04 0.0 
2.490783566981e-05 -1.116715517964e-04 0.0 
-2.724962414244e-05 -4.567799789910e-05 0.0 
2.247389068571e-04 2.625766236355e-04 0.0 
2.746154971251e-04 1.443116768796e-04 0.0 
4.585069749459e-05 7.006171276706e-05 0.0 
1.887178012268e-05 8.163321935803e-04 0.0 
2.206685628634e-05 4.494786216883e-06 0.0 
2.372960108591e-04 2.472094309415e-04 0.0 
1.990599030983e-04 2.023610162856e-04 0.0 
1.193642423212e-05 -2.612012139014e-05 0.0 
-1.625008543628e-04 6.356880768427e-04 0.0 
2.308231192853e-04 1.854056989389e-03 0.0 
3.482670617486e-04 1.451468369914e-03 0.0 
1.981644612904e-04 1.119525745195e-03 0.0 
4.212050012830e-04 4.048773007171e-04 0.0 
2.915355479565e-05 2.655484574958e-04 0.0 
1.081748206359e-04 5.395226527397e-05 0.0 
-1.320605994729e-05 2.861147023636e-05 0.0 
-4.052689272421e-06 -3.471203191335e-05 0.0 
1.508378029095e-04 1.783508925783e-03 0.0 
3.085188311829e-05 7.489538159127e-04 0.0 
4.723513465754e-05 -9.898764658568e-05 0.0 
6.583973735548e-05 2.479065144588e-04 0.0 
1.625197380187e-05 -1.231256549024e-04 0.0 
1.839141657123e-04 9.755326233978e-05 0.0 
1.227295628475e-04 1.165289389591e-03 0.0 
1.115554267481e-04 7.980712308062e-05 0.0 
3.176855947908e-04 2.915029820906e-04 0.0 
2.174564707697e-04 1.113474425100e-03 0.0 
8.790668347451e-05 2.741092406995e-05 0.0 
5.055150578323e-05 1.811599372490e-04 0.0 
4.535788142907e-06 1.911381888493e-04 0.0 
-3.940602423179e-06 1.566301666196e-03 0.0 
6.516295011342e-05 3.001047312419e-04 0.0 
1.008724818177e-04 1.144301111533e-04 0.0 
1.904957674543e-04 9.693998461159e-05 0.0 
2.863764111134e-04 2.464336338097e-04 0.0 
1.132385692196e-05 2.693367616573e-06 0.0 
2.664317594184e-04 5.205117097475e-04 0.0 
-2.882521625713e-04 7.073156807729e-04 0.0 
1.303690437624e-04 9.506945336586e-04 0.0 
1.908937754474e-04 3.342003057070e-04 0.0 
1.796076362077e-04 1.029552578898e-03 0.0 
2.092957715558e-05 2.737405441578e-06 0.0 
2.502838413584e-04 2.120993333916e-04 0.0 
4.019578111115e-05 8.963427737442e-06 0.0 
2.679207886679e-05 6.003678261981e-04 0.0 
1.081508906082e-04 7.062234083898e-05 0.0 
1.106551208318e-04 3.154487978169e-05 0.0 
1.154331539117e-04 3.484607158757e-05 0.0 
3.491750029895e-05 -9.921692291442e-05 0.0 
1.835610098205e-05 4.230288802696e-06 0.0 
1.635398825756e-04 1.316249872388e-03 0.0 
1.888519808045e-05 3.083999292723e-04 0.0 
7.327094464035e-06 -2.204820276953e-05 0.0 
1.240758014530e-05 4.280145541516e-04 0.0 
2.839090427435e-05 8.088875670536e-04 0.0 
1.295981791983e-06 -1.302835634108e-04 0.0 
1.084162937796e-04 2.501920541314e-04 0.0 
2.596456519504e-04 4.511160460567e-04 0.0 
2.408400345016e-05 1.589281471270e-04 0.0 
9.622196626074e-06 2.944861542565e-04 0.0 
1.405860785697e-04 9.107120899542e-05 0.0 
5.834954461408e-05 1.062129349963e-03 0.0 
-1.214692555955e-05 -8.407933991481e-05 0.0 
-7.476104933140e-05 4.926579211006e-04 0.0 
-2.579924478684e-06 -9.050762127350e-05 0.0 
2.724613281969e-05 -4.105296948862e-05 0.0 
-3.169629502238e-04 7.843877307930e-04 0.0 
5.278005952827e-05 -7.160273252187e-05 0.0 
2.625325243998e-05 3.278002570823e-06 0.0 
1.183707457046e-04 2.696257831648e-04 0.0 
2.277702260405e-04 1.024406892209e-03 0.0 
7.289311197118e-05 -7.992155490077e-05 0.0 
1.001334015909e-04 2.348253469957e-05 0.0 
1.676351505989e-04 6.556886711888e-05 0.0 
1.320479282287e-04 9.962122937326e-05 0.0 
1.644348686904e-04 1.872676056238e-04 0.0 
2.079391626686e-04 3.326947136416e-04 0.0 
8.423507212914e-06 -4.533903697977e-05 0.0 
-6.631710381641e-05 2.737699942258e-04 0.0 
3.649320651635e-05 4.787558012635e-06 0.0 
3.231511776989e-06 -1.296133727346e-04 0.0 
8.191587354933e-07 -1.294995203574e-04 0.0 
-1.098160471140e-04 9.035189786180e-04 0.0 
7.447834502948e-06 -8.804460242508e-05 0.0 
6.719239450088e-05 2.023369216995e-05 0.0 
8.689494509586e-05 1.197153617387e-04 0.0 
2.621684468865e-05 2.650328076170e-04 0.0 
1.033401955264e-04 7.977829594456e-05 0.0 
1.995378548261e-04 8.045663963750e-05 0.0 
4.702235616887e-05 9.798190137634e-04 0.0 
6.139806251730e-06 3.145983193163e-05 0.0 
1.475579064269e-04 1.228731237603e-04 0.0 
1.051230433040e-04 1.455752241897e-03 0.0 
2.593680420500e-05 4.826164056476e-05 0.0 
1.564438955046e-06 -1.128050979284e-04 0.0 
1.279055356584e-05 2.927604548505e-06 0.0 
2.216165234632e-04 1.281730170688e-03 0.0 
1.232634261576e-05 -1.242953445432e-04 0.0 
3.690009029373e-05 -7.651791668778e-05 0.0 
9.907662831835e-05 1.457168544629e-04 0.0 
4.138349291558e-05 2.815242377687e-04 0.0 
4.855094604509e-05 1.432363336547e-04 0.0 
2.006624314491e-05 -1.062295968707e-04 0.0 
-6.394027171033e-05 4.260632290793e-04 0.0 
5.316139875636e-05 1.163082110147e-05 0.0 
1.502580966221e-06 7.442579751152e-05 0.0 
3.146068613351e-06 1.752433376287e-06 0.0 
7.328161979611e-06 1.320025557490e-03 0.0 
1.494061053878e-04 6.064702347762e-05 0.0 
1.686151136438e-05 -1.220281021182e-04 0.0 
6.148027344919e-05 2.484821630166e-04 0.0 
-1.251727570117e-06 -1.050790342667e-04 0.0 
7.721393173856e-05 2.738562131712e-05 0.0 
6.483318165967e-05 1.858235002080e-04 0.0 
-1.420189270648e-04 5.076173472361e-04 0.0 
2.446445710283e-04 2.425364758440e-04 0.0 
2.655823882798e-05 6.712268648329e-04 0.0 
1.614449889540e-05 1.505905962483e-04 0.0 
2.099281086962e-05 1.162811309853e-05 0.0 
1.121467843759e-05 8.764071010767e-04 0.0 
7.887881923477e-05 1.200167254560e-04 0.0 
8.319250844821e-05 2.531411364854e-04 0.0 
2.220633039337e-05 7.705982513832e-04 0.0 
1.303195707386e-04 1.981253098197e-04 0.0 
3.923522866100e-05 -9.074318348992e-05 0.0 
5.241061201982e-05 1.408683956113e-03 0.0 
1.754806757686e-04 1.465206120849e-04 0.0 
1.579471967075e-06 1.583537600456e-04 0.0 
-4.953297109106e-07 -1.307248561786e-04 0.0 
1.426490448684e-05 1.408724669283e-03 0.0 
2.824912963838e-06 2.547651719960e-06 0.0 
3.212468227282e-05 -1.127761800254e-04 0.0 
1.816435257891e-04 8.493551396866e-05 0.0 
1.056247121805e-04 2.685800067117e-04 0.0 
1.900649134973e-05 1.953683983368e-04 0.0 
1.974426439455e-05 -1.212847556309e-04 0.0 
-1.185481440046e-06 7.449933725405e-04 0.0 
4.159024365089e-06 -5.369538505112e-05 0.0 
1.054622067163e-05 5.219871659836e-04 0.0 
-2.118276893176e-04 2.872529870063e-04 0.0 
3.753174258782e-05 1.408979634419e-04 0.0 
2.021973121888e-05 9.046731351363e-04 0.0 
6.839197694954e-05 3.923572132750e-05 0.0 
3.820248127591e-05 1.011482946236e-03 0.0 
1.319473469387e-04 1.091346009900e-04 0.0 
7.820384202861e-06 -4.766238237269e-05 0.0 
-2.582242542384e-04 8.248892007602e-04 0.0 
4.449505345318e-05 -9.638306493010e-05 0.0 
5.383321733886e-05 -6.163075965750e-05 0.0 
3.661359837772e-06 -4.196668348206e-05 0.0 
1.831068695628e-04 1.248576655222e-04 0.0 
2.784589989547e-05 -6.662800725183e-05 0.0 
3.596213089564e-05 -5.848660905159e-05 0.0 
7.773797894361e-06 -1.003828331081e-04 0.0 
6.876016389967e-05 1.383463332625e-05 0.0 
2.197198557189e-04 2.706361526710e-04 0.0 
1.098557535122e-04 7.496902386722e-04 0.0 
2.636271092876e-06 1.499677061553e-04 0.0 
5.090823007782e-06 2.749710669439e-06 0.0 
1.393042164073e-05 1.327732371502e-03 0.0 
1.528804254302e-05 9.371583091457e-04 0.0 
3.833806328059e-05 -6.702947060235e-05 0.0 
4.296389472090e-05 -6.244396468924e-05 0.0 
2.634746906969e-05 -6.093527530243e-05 0.0 
2.209699388062e-04 1.120216267158e-04 0.0 
4.134733054665e-05 3.114417525814e-05 0.0 
1.838872549717e-04 2.231308208815e-04 0.0 
2.521969259264e-05 1.159965723346e-03 0.0 
4.552367967343e-05 1.838566851528e-04 0.0 
2.155289714304e-04 1.037121296273e-04 0.0 
4.488140531906e-05 1.040582641898e-03 0.0 
1.730498963000e-04 2.858434706848e-04 0.0 
1.790492796246e-04 1.275271648623e-04 0.0 
1.345573348764e-04 9.406019625841e-05 0.0 
-1.993654110014e-04 7.718924166870e-04 0.0 
1.804032234513e-04 2.852071886461e-04 0.0 
1.544939968886e-04 2.319277969314e-04 0.0 
6.832935969989e-06 -1.053298701116e-04 0.0 
4.262250685043e-05 -7.131451767325e-05 0.0 
-2.139953871122e-04 6.979048961770e-04 0.0 
1.432448263949e-04 2.322441490572e-04 0.0 
1.836444835861e-05 2.601411992394e-03 0.0 
2.297757472963e-05 2.651499627825e-03 0.0 
2.936138472263e-05 2.600717641005e-03 0.0 
3.334261654984e-05 2.650592783262e-03 0.0 
4.037960991580e-05 2.600389995492e-03 0.0 
4.437350704040e-05 2.650464332784e-03 0.0 
5.164345065226e-05 2.600486779743e-03 0.0 
5.574271654706e-05 2.650697120806e-03 0.0 
6.284297947828e-05 2.600757323821e-03 0.0 
6.694891156961e-05 2.650958331512e-03 0.0 
7.370084166448e-05 2.600966639554e-03 0.0 
7.767174166272e-05 2.651028890844e-03 0.0 
8.400708453896e-05 2.600903483743e-03 0.0 
8.769244680033e-05 2.650707625509e-03 0.0 
9.359454642765e-05 2.600352974902e-03 0.0 
9.683754176520e-05 2.649775436950e-03 0.0 
1.023160949572e-04 2.599076141921e-03 0.0 
1.049484726883e-04 2.647978339865e-03 0.0 
1.100304968481e-04 2.596795892623e-03 0.0 
1.118661014345e-04 2.645016269116e-03 0.0 
1.187317129161e-05 1.902476030163e-03 0.0 
1.165947811191e-04 2.593185590918e-03 0.0 
1.174229303768e-04 2.640532887209e-03 0.0 
1.218610378610e-04 2.587857092724e-03 0.0 
-6.657077419889e-05 1.913802432837e-03 0.0 
1.214399985738e-04 2.634102388295e-03 0.0 
1.256766142011e-04 2.580345475922e-03 0.0 
4.547778238013e-05 1.936655052311e-03 0.0 
1.237280476936e-04 2.625213591197e-03 0.0 
1.278880362169e-04 2.570092623327e-03 0.0 
1.240924436895e-04 2.613252362485e-03 0.0 
1.283473838853e-04 2.556430114447e-03 0.0 
1.223406767929e-04 2.597487162146e-03 0.0 
1.269223945213e-04 2.538561474534e-03 0.0 
1.182914498458e-04 2.577040202252e-03 0.0 
1.235068718865e-04 2.515530397684e-03 0.0 
1.117871026501e-04 2.550868076566e-03 0.0 
2.631265949104e-05 1.792455558387e-03 0.0 
1.180411099237e-04 2.486192221106e-03 0.0 
1.027139855767e-04 2.517689209555e-03 0.0 
1.105309061144e-04 2.449142691030e-03 0.0 
9.103131444206e-05 2.475994728037e-03 0.0 
7.684525412774e-05 2.423815879641e-03 0.0 
1.011005615458e-04 2.402694486365e-03 0.0 
6.047310605375e-05 2.358941372505e-03 0.0 
9.004398370001e-05 2.344691306917e-03 0.0 
4.267295871081e-05 2.278091175904e-03 0.0 
7.789839153833e-05 2.272583392845e-03 0.0 
2.481131002395e-05 2.178383377354e-03 0.0 
9.429503407195e-06 2.055404766500e-03 0.0 
6.556430048169e-05 2.182895166880e-03 0.0 
5.404004314663e-05 2.072487641305e-03 0.0 
-5.213128599947e-05 1.803781961061e-03 0.0 
2.519599704075e-06 2.626462872022e-03 0.0 
1.252760787038e-05 2.626497321767e-03 0.0 
8.286340346984e-06 2.677334794782e-03 0.0 
6.760867227470e-06 2.575625399007e-03 0.0 
-8.619852291310e-05 1.699706044359e-03 0.0 
1.678015554261e-05 2.500252336919e-03 0.0 
2.089613167560e-05 2.449923275263e-03 0.0 
2.886423448460e-05 2.500300943918e-03 0.0 
3.290624282556e-05 2.449909895123e-03 0.0 
4.044038642956e-05 2.500123804440e-03 0.0 
4.464011197838e-05 2.449909625861e-03 0.0 
5.184927907648e-05 2.500198263872e-03 0.0 
5.619246923627e-05 2.450130327869e-03 0.0 
6.308690374327e-05 2.500479046756e-03 0.0 
6.751972513438e-05 2.450476643663e-03 0.0 
7.402773096426e-05 2.500763228770e-03 0.0 
7.852513039531e-05 2.450756251766e-03 0.0 
8.453358397178e-05 2.500834255450e-03 0.0 
8.910069905412e-05 2.450754071507e-03 0.0 
9.447629924862e-05 2.500468649193e-03 0.0 
9.914099460906e-05 2.450236621034e-03 0.0 
1.037377949801e-04 2.499421651713e-03 0.0 
1.085460470435e-04 2.448941028502e-03 0.0 
1.122063711805e-04 2.497413071468e-03 0.0 
1.422671783512e-04 1.972028622898e-03 0.0 
1.172212987908e-04 2.446562464621e-03 0.0 
1.197741041430e-04 2.494114607579e-03 0.0 
1.250779191464e-04 2.442741182239e-03 0.0 
1.588101460572e-04 1.989498168336e-03 0.0 
1.263367036068e-04 2.489136371094e-03 0.0 
1.320347982334e-04 2.437047591330e-03 0.0 
1.317957481149e-04 2.482011400587e-03 0.0 
1.380225293771e-04 2.428965710171e-03 0.0 
1.360633839866e-04 2.472178817636e-03 0.0 
1.069188440865e-04 1.997548613605e-03 0.0 
1.429892904128e-04 2.417875116701e-03 0.0 
1.390688828390e-04 2.458966674354e-03 0.0 
1.469100313750e-04 2.403032331873e-03 0.0 
1.407702501498e-04 2.441570084353e-03 0.0 
1.497985164870e-04 2.383543486867e-03 0.0 
1.411660828993e-04 2.419025072480e-03 0.0 
1.517247580949e-04 2.358338362572e-03 0.0 
1.403195543556e-04 2.390167832317e-03 0.0 
1.528309128728e-04 2.326110458732e-03 0.0 
1.383693889785e-04 2.353588328996e-03 0.0 
1.533633592467e-04 2.285288022609e-03 0.0 
1.607659960690e-04 1.896457626224e-03 0.0 
1.536915815212e-04 2.233858307333e-03 0.0 
1.355941234863e-04 2.307542142970e-03 0.0 
1.543846314690e-04 2.169561725318e-03 0.0 
1.323967491530e-04 2.249886078004e-03 0.0 
1.558090742784e-04 2.089349062625e-03 0.0 
1.294571515006e-04 2.178008974572e-03 0.0 
1.271416560870e-04 2.088727471874e-03 0.0 
1.254176618044e-04 1.921977616931e-03 0.0 
2.073605449100e-06 2.474623889554e-03 0.0 
1.049732079940e-05 2.474880793113e-03 0.0 
6.256053276010e-06 2.424336156839e-03 0.0 
6.314872972495e-06 2.525168525827e-03 0.0 
1.085871398374e-04 1.878166930442e-03 0.0 
1.649258492354e-05 2.298505942376e-03 0.0 
2.074726387882e-05 2.349076314438e-03 0.0 
2.885610381066e-05 2.298833871716e-03 0.0 
3.304697994840e-05 2.349289783746e-03 0.0 
4.099518969482e-05 2.299023021759e-03 0.0 
4.505417812079e-05 2.349428954557e-03 0.0 
5.291480570019e-05 2.299309071000e-03 0.0 
5.684392971758e-05 2.349721806301e-03 0.0 
6.465663181004e-05 2.299724280077e-03 0.0 
6.843799271985e-05 2.350130398552e-03 0.0 
7.621889858074e-05 2.300151598348e-03 0.0 
7.979803042633e-05 2.350490866455e-03 0.0 
8.756478473301e-05 2.300413166014e-03 0.0 
9.085899978433e-05 2.350598367382e-03 0.0 
9.864311547780e-05 2.300298105469e-03 0.0 
1.015495101080e-04 2.350221781434e-03 0.0 
1.094013147353e-04 2.299563595856e-03 0.0 
1.118010512997e-04 2.349097812244e-03 0.0 
2.179284536417e-04 1.982764494887e-03 0.0 
1.197920072737e-04 2.297927690230e-03 0.0 
1.215519306278e-04 2.346920299642e-03 0.0 
1.297767055140e-04 2.295058729437e-03 0.0 
1.946836888373e-04 2.016387033423e-03 0.0 
1.307498886805e-04 2.343327469077e-03 0.0 
2.259738758511e-04 1.986229645178e-03 0.0 
1.393290533189e-04 2.290562421629e-03 0.0 
1.393551784114e-04 2.337887355028e-03 0.0 
1.484385059250e-04 2.283966312625e-03 0.0 
1.473449070092e-04 2.330080858511e-03 0.0 
1.571160882904e-04 2.274704044663e-03 0.0 
1.547196170846e-04 2.319285195387e-03 0.0 
1.654008559345e-04 2.262095541303e-03 0.0 
1.615116777987e-04 2.304751120135e-03 0.0 
2.350080987645e-04 1.919866509577e-03 0.0 
1.733707860405e-04 2.245328746137e-03 0.0 
1.677974059541e-04 2.285583360389e-03 0.0 
1.811499754495e-04 2.223424581837e-03 0.0 
1.737097611780e-04 2.260697998408e-03 0.0 
1.794583431849e-04 2.228808843106e-03 0.0 
1.889319877508e-04 2.195225852526e-03 0.0 
1.853297983819e-04 2.188304929336e-03 0.0 
1.969632584258e-04 2.159303620097e-03 0.0 
1.917357609423e-04 2.137291352215e-03 0.0 
1.989878128269e-04 2.073386206250e-03 0.0 
2.056047420427e-04 2.113992094580e-03 0.0 
2.150441099320e-04 2.057143603818e-03 0.0 
2.117633339600e-04 1.953489048113e-03 0.0 
2.042260638990e-06 2.323458798004e-03 0.0 
1.032727316700e-05 2.323585294106e-03 0.0 
6.224708465899e-06 2.373940091551e-03 0.0 
6.144825340093e-06 2.273104000559e-03 0.0 
2.045572093713e-04 1.927221773776e-03 0.0 
1.658043927315e-05 2.197600973497e-03 0.0 
2.102635565629e-05 2.147229824635e-03 0.0 
2.904734123852e-05 2.197892350791e-03 0.0 
3.364917873537e-05 2.147537162272e-03 0.0 
4.140615105393e-05 2.198211921209e-03 0.0 
4.615824568324e-05 2.147920833233e-03 0.0 
5.360791190353e-05 2.198612050225e-03 0.0 
5.855884034370e-05 2.148393614339e-03 0.0 
6.567843623283e-05 2.199093108890e-03 0.0 
7.087672480198e-05 2.148910591513e-03 0.0 
7.763582624008e-05 2.199562962496e-03 0.0 
8.312506352968e-05 2.149354677441e-03 0.0 
8.947489017702e-05 2.199865612852e-03 0.0 
9.530335835532e-05 2.149554359105e-03 0.0 
1.011773686048e-04 2.199801650354e-03 0.0 
1.074048318105e-04 2.149293899600e-03 0.0 
1.127223833107e-04 2.199132169136e-03 0.0 
2.580240098790e-04 1.944555358871e-03 0.0 
1.194237265412e-04 2.148313914342e-03 0.0 
1.240936139397e-04 2.197575219047e-03 0.0 
2.605005478978e-04 1.938697517018e-03 0.0 
1.313614031072e-04 2.146306139212e-03 0.0 
1.352845713274e-04 2.194797040190e-03 0.0 
1.432310625172e-04 2.142903436426e-03 0.0 
1.463023613422e-04 2.190400078225e-03 0.0 
1.550612616592e-04 2.137667135083e-03 0.0 
2.431367020365e-04 1.982731843851e-03 0.0 
1.571712811494e-04 2.183908436085e-03 0.0 
1.668990194448e-04 2.130069481090e-03 0.0 
1.679374255017e-04 2.174750543782e-03 0.0 
1.788180411536e-04 2.119478874163e-03 0.0 
1.786779427922e-04 2.162242720959e-03 0.0 
1.909216503397e-04 2.105135168347e-03 0.0 
1.895036717238e-04 2.145565614692e-03 0.0 
2.033565690700e-04 2.086140323212e-03 0.0 
2.005762528823e-04 2.123744676105e-03 0.0 
2.163029743198e-04 2.061396804849e-03 0.0 
2.733635266388e-04 1.892975725461e-03 0.0 
2.300092432534e-04 2.029676011705e-03 0.0 
2.120989234599e-04 2.095604564700e-03 0.0 
2.445986850546e-04 1.989425665200e-03 0.0 
2.243472227854e-04 2.059792076522e-03 0.0 
2.374896643559e-04 2.014624374019e-03 0.0 
2.584762187963e-04 1.931152210441e-03 0.0 
2.071289734753e-06 2.172157602672e-03 0.0 
1.044415661237e-05 2.172246492460e-03 0.0 
6.341591911269e-06 2.121733927340e-03 0.0 
6.173854435856e-06 2.222670167792e-03 0.0 
2.573696897160e-04 1.918407409336e-03 0.0 
1.700908026562e-05 1.995516791756e-03 0.0 
2.131223953440e-05 2.046180521673e-03 0.0 
2.979247753113e-05 1.995837441180e-03 0.0 
3.410843114986e-05 2.046531555622e-03 0.0 
4.257448117193e-05 1.996258952381e-03 0.0 
4.686732338675e-05 2.046973471055e-03 0.0 
5.534749015322e-05 1.996755097137e-03 0.0 
5.958934088988e-05 2.047484023429e-03 0.0 
6.813419642376e-05 1.997289241470e-03 0.0 
7.230198444673e-05 2.048016315003e-03 0.0 
8.097019501249e-05 1.997777483371e-03 0.0 
8.503417265734e-05 2.048463474825e-03 0.0 
9.388790051446e-05 1.998083654289e-03 0.0 
9.780725956510e-05 2.048663603159e-03 0.0 
1.069159186260e-04 1.998024810504e-03 0.0 
1.106394806219e-04 2.048407815696e-03 0.0 
2.739181432773e-04 1.873643654835e-03 0.0 
1.200818780447e-04 1.997372498148e-03 0.0 
1.235485724638e-04 2.047440327257e-03 0.0 
2.648270917776e-04 1.916149769008e-03 0.0 
1.334163196145e-04 1.995849459949e-03 0.0 
1.365592628595e-04 2.045453967199e-03 0.0 
2.726405924526e-04 1.860452126862e-03 0.0 
1.469603479543e-04 1.993124399231e-03 0.0 
1.497089793918e-04 2.042082967480e-03 0.0 
1.607678139829e-04 1.988803415477e-03 0.0 
1.630487974252e-04 2.036890941282e-03 0.0 
1.749059259783e-04 1.982418058555e-03 0.0 
1.766461285076e-04 2.029355297362e-03 0.0 
2.881068175613e-04 1.829080850141e-03 0.0 
1.894549327545e-04 1.973399538451e-03 0.0 
1.905884393436e-04 2.018842052560e-03 0.0 
2.045220915091e-04 1.961079753889e-03 0.0 
2.049954008665e-04 2.004609022881e-03 0.0 
2.200081207970e-04 1.985748113111e-03 0.0 
2.202289739776e-04 1.944647259125e-03 0.0 
2.358176451986e-04 1.961230619572e-03 0.0 
2.367424754881e-04 1.923186280727e-03 0.0 
2.525114123980e-04 1.929812520403e-03 0.0 
2.541157634833e-04 1.895574888121e-03 0.0 
2.790157660617e-04 1.871586964314e-03 0.0 
2.098072225934e-06 2.020631644125e-03 0.0 
1.061369621791e-05 2.020700199861e-03 0.0 
6.368374402450e-06 2.071222513521e-03 0.0 
6.343394041391e-06 1.970109330466e-03 0.0 
2.817982428806e-04 1.868936003504e-03 0.0 
1.716166584793e-05 1.894336182026e-03 0.0 
2.177133561791e-05 1.843808759558e-03 0.0 
3.009898803233e-05 1.894646288794e-03 0.0 
3.491612242683e-05 1.844157092517e-03 0.0 
4.307566194770e-05 1.895075641662e-03 0.0 
4.812349494639e-05 1.844622491905e-03 0.0 
5.610248093708e-05 1.895587428707e-03 0.0 
6.142116690008e-05 1.845147854167e-03 0.0 
6.921103165010e-05 1.896120740639e-03 0.0 
7.485754508912e-05 1.845655798386e-03 0.0 
8.244892042854e-05 1.896585467585e-03 0.0 
8.848377627105e-05 1.846041277603e-03 0.0 
9.585877871212e-05 1.896853472853e-03 0.0 
1.023528078423e-04 1.846152130315e-03 0.0 
1.094905887055e-04 1.896743519097e-03 0.0 
2.733779692238e-04 1.776880590422e-03 0.0 
1.165224190102e-04 1.845790548439e-03 0.0 
2.692271226689e-04 1.758501340955e-03 0.0 
1.233901463535e-04 1.896036522298e-03 0.0 
1.310450335816e-04 1.844713537643e-03 0.0 
1.376045124236e-04 1.894458646185e-03 0.0 
1.459818283952e-04 1.842615546145e-03 0.0 
1.521947206810e-04 1.891676791941e-03 0.0 
1.614079525608e-04 1.839133740260e-03 0.0 
2.687814175472e-04 1.821831490171e-03 0.0 
1.672324144251e-04 1.887301795547e-03 0.0 
1.774060118396e-04 1.833841828297e-03 0.0 
1.827985399505e-04 1.880870565501e-03 0.0 
1.940665730073e-04 1.826237437913e-03 0.0 
1.989827632819e-04 1.871829172056e-03 0.0 
2.114771130601e-04 1.815690848585e-03 0.0 
2.158829346982e-04 1.859498916309e-03 0.0 
2.297516776054e-04 1.801502895064e-03 0.0 
2.489276447103e-04 1.782795803354e-03 0.0 
2.336244075274e-04 1.843121968889e-03 0.0 
2.859809151980e-04 1.738509061979e-03 0.0 
2.522665658516e-04 1.821759261206e-03 0.0 
2.813843635214e-04 1.783459961728e-03 0.0 
2.142104441223e-06 1.868871646156e-03 0.0 
1.081031401551e-05 1.868929852452e-03 0.0 
6.564992200053e-06 1.818281905821e-03 0.0 
6.387426256680e-06 1.919519592787e-03 0.0 
2.868478895120e-04 1.787842966137e-03 0.0 
1.743033287602e-05 1.691713831290e-03 0.0 
2.195174900719e-05 1.742486376533e-03 0.0 
3.057752389889e-05 1.691983272465e-03 0.0 
3.521424490412e-05 1.742816459213e-03 0.0 
4.383603079105e-05 1.692378395111e-03 0.0 
4.858574131244e-05 1.743265878659e-03 0.0 
5.724744063341e-05 1.692843121504e-03 0.0 
6.210388023036e-05 1.743760160210e-03 0.0 
7.086185117042e-05 1.693288610304e-03 0.0 
7.582565127917e-05 1.744211362008e-03 0.0 
8.474771099430e-05 1.693636732789e-03 0.0 
8.981446064677e-05 1.744536979185e-03 0.0 
9.896445058578e-05 1.693762281614e-03 0.0 
2.600547334371e-04 1.662323698975e-03 0.0 
1.041277953402e-04 1.744565237495e-03 0.0 
1.135877469937e-04 1.693487796212e-03 0.0 
2.585976194306e-04 1.709583121714e-03 0.0 
1.188445898005e-04 1.744121718374e-03 0.0 
1.286902992848e-04 1.692626700097e-03 0.0 
2.541956272506e-04 1.640217612597e-03 0.0 
1.340230157226e-04 1.742972545507e-03 0.0 
1.443347019600e-04 1.690907628663e-03 0.0 
1.497340357907e-04 1.740805520760e-03 0.0 
1.606019280635e-04 1.688001199190e-03 0.0 
1.660629525478e-04 1.737268172895e-03 0.0 
2.717669512085e-04 1.627660755853e-03 0.0 
1.775833846235e-04 1.683543974861e-03 0.0 
1.831019820510e-04 1.731949574977e-03 0.0 
2.009379611115e-04 1.724364097605e-03 0.0 
1.953658982662e-04 1.677104971872e-03 0.0 
2.196658978425e-04 1.713929254958e-03 0.0 
2.140429361685e-04 1.668194238120e-03 0.0 
2.392758061025e-04 1.699936270083e-03 0.0 
2.335958479776e-04 1.656170697700e-03 0.0 
2.703098372021e-04 1.674920178592e-03 0.0 
2.154579833833e-06 1.716912531778e-03 0.0 
1.091104304693e-05 1.716975081064e-03 0.0 
6.577467592662e-06 1.767627102144e-03 0.0 
6.488155288105e-06 1.666260510698e-03 0.0 
2.776004192991e-04 1.684874939982e-03 0.0 
1.745076177579e-05 1.590319266757e-03 0.0 
2.203113418601e-05 1.539679253984e-03 0.0 
3.063648017794e-05 1.590570714449e-03 0.0 
3.539527197193e-05 1.539954636949e-03 0.0 
4.395810157981e-05 1.590929130864e-03 0.0 
4.893806436126e-05 1.540330452209e-03 0.0 
5.747769289347e-05 1.591356959301e-03 0.0 
6.273364957144e-05 1.540725703873e-03 0.0 
7.126136825144e-05 1.591740316170e-03 0.0 
7.683109689681e-05 1.541026377703e-03 0.0 
8.535363953092e-05 1.592000042618e-03 0.0 
9.131450697011e-05 1.541179586184e-03 0.0 
2.387565982920e-04 1.534510699210e-03 0.0 
9.985856837249e-05 1.592041578785e-03 0.0 
2.314236858161e-04 1.509441636444e-03 0.0 
1.062776160623e-04 1.540995088587e-03 0.0 
1.148434499291e-04 1.591638350133e-03 0.0 
1.217983097718e-04 1.540312632662e-03 0.0 
1.303883163208e-04 1.590667060463e-03 0.0 
1.379662256420e-04 1.538948026369e-03 0.0 
1.465798948435e-04 1.588842749159e-03 0.0 
1.548610349100e-04 1.536572935761e-03 0.0 
2.400553977124e-04 1.582994174475e-03 0.0 
1.634837342993e-04 1.585833493695e-03 0.0 
1.725699672120e-04 1.532836412217e-03 0.0 
1.812085930519e-04 1.581279919679e-03 0.0 
1.911845807000e-04 1.527380531705e-03 0.0 
2.107683402704e-04 1.519754660459e-03 0.0 
1.998232884867e-04 1.574799983782e-03 0.0 
2.194159251068e-04 1.565889789065e-03 0.0 
2.487781977792e-04 1.503159108644e-03 0.0 
2.500769971996e-04 1.551642583908e-03 0.0 
2.161244046320e-06 1.564831611179e-03 0.0 
1.093813615919e-05 1.564878509463e-03 0.0 
6.604560704920e-06 1.514151617012e-03 0.0 
6.494819500592e-06 1.615558503629e-03 0.0 
2.585372686129e-04 1.565100449648e-03 0.0 

VECTORS element_materi_displacement float
0.0 0.0 0.0 
0.0 0.0 0.0 
0.0 0.0 0.0 
0.0 0.0 0.0 
0.0 0.0 0.0 
0.0 0.0 0.0 
0.0 0.0 0.0 
0.0 0.0 0.0 
0.0 0.0 0.0 
0.0 0.0 0.0 
0.0 0.0 0.0 
0.0 0.0 0.0 
0.0 0.0 0.0 
0.0 0.0 0.0 
0.0 0.0 0.0 
0.0 0.0 0.0 
0.0 0.0 0.0 
0.0 0.0 0.0 
0.0 0.0 0.0 
0.0 0.0 0.0 
0.0 0.0 0.0 
0.0 0.0 0.0 
0.0 0.0 0.0 
0.0 0.0 0.0 
0.0 0.0 0.0 
0.0 0.0 0.0 
0.0 0.0 0.0 
0.0 0.0 0.0 
0.0 0.0 0.0 
0.0 0.0 0.0 
0.0 0.0 0.0 
0.0 0.0 0.0 
0.0 0.0 0.0 
0.0 0.0 0.0 
0.0 0.0 0.0 
0.0 0.0 0.0 
0.0 0.0 0.0 
0.0 0.0 0.0 
0.0 0.0 0.0 
0.0 0.0 0.0 
0.0 0.0 0.0 
0.0 0.0 0.0 
0.0 0.0 0.0 
0.0 0.0 0.0 
0.0 0.0 0.0 
0.0 0.0 0.0 
0.0 0.0 0.0 
0.0 0.0 0.0 
0.0 0.0 0.0 
0.0 0.0 0.0 
0.0 0.0 0.0 
0.0 0.0 0.0 
0.0 0.0 0.0 
0.0 0.0 0.0 
0.0 0.0 0.0 
0.0 0.0 0.0 
0.0 0.0 0.0 
0.0 0.0 0.0 
0.0 0.0 0.0 
0.0 0.0 0.0 
0.0 0.0 0.0 
0.0 0.0 0.0 
0.0 0.0 0.0 
0.0 0.0 0.0 
0.0 0.0 0.0 
0.0 0.0 0.0 
0.0 0.0 0.0 
0.0 0.0 0.0 
0.0 0.0 0.0 
0.0 0.0 0.0 
0.0 0.0 0.0 
0.0 0.0 0.0 
0.0 0.0 0.0 
0.0 0.0 0.0 
0.0 0.0 0.0 
0.0 0.0 0.0 
0.0 0.0 0.0 
0.0 0.0 0.0 
0.0 0.0 0.0 
0.0 0.0 0.0 
0.0 0.0 0.0 
0.0 0.0 0.0 
0.0 0.0 0.0 
0.0 0.0 0.0 
0.0 0.0 0.0 
0.0 0.0 0.0 
0.0 0.0 0.0 
0.0 0.0 0.0 
0.0 0.0 0.0 
0.0 0.0 0.0 
0.0 0.0 0.0 
0.0 0.0 0.0 
0.0 0.0 0.0 
0.0 0.0 0.0 
0.0 0.0 0.0 
0.0 0.0 0.0 
0.0 0.0 0.0 
0.0 0.0 0.0 
0.0 0.0 0.0 
0.0 0.0 0.0 
0.0 0.0 0.0 
0.0 0.0 0.0 
0.0 0.0 0.0 
0.0 0.0 0.0 
0.0 0.0 0.0 
0.0 0.0 0.0 
0.0 0.0 0.0 
0.0 0.0 0.0 
0.0 0.0 0.0 
0.0 0.0 0.0 
0.0 0.0 0.0 
0.0 0.0 0.0 
0.0 0.0 0.0 
0.0 0.0 0.0 
0.0 0.0 0.0 
0.0 0.0 0.0 
0.0 0.0 0.0 
0.0 0.0 0.0 
0.0 0.0 0.0 
0.0 0.0 0.0 
0.0 0.0 0.0 
0.0 0.0 0.0 
0.0 0.0 0.0 
0.0 0.0 0.0 
0.0 0.0 0.0 
0.0 0.0 0.0 
0.0 0.0 0.0 
0.0 0.0 0.0 
0.0 0.0 0.0 
0.0 0.0 0.0 
0.0 0.0 0.0 
0.0 0.0 0.0 
0.0 0.0 0.0 
0.0 0.0 0.0 
0.0 0.0 0.0 
0.0 0.0 0.0 
0.0 0.0 0.0 
0.0 0.0 0.0 
0.0 0.0 0.0 
0.0 0.0 0.0 
0.0 0.0 0.0 
0.0 0.0 0.0 
0.0 0.0 0.0 
0.0 0.0 0.0 
0.0 0.0 0.0 
0.0 0.0 0.0 
0.0 0.0 0.0 
0.0 0.0 0.0 
0.0 0.0 0.0 
0.0 0.0 0.0 
0.0 0.0 0.0 
0.0 0.0 0.0 
0.0 0.0 0.0 
0.0 0.0 0.0 
0.0 0.0 0.0 
0.0 0.0 0.0 
0.0 0.0 0.0 
0.0 0.0 0.0 
0.0 0.0 0.0 
0.0 0.0 0.0 
0.0 0.0 0.0 
0.0 0.0 0.0 
0.0 0.0 0.0 
0.0 0.0 0.0 
0.0 0.0 0.0 
0.0 0.0 0.0 
0.0 0.0 0.0 
0.0 0.0 0.0 
0.0 0.0 0.0 
0.0 0.0 0.0 
0.0 0.0 0.0 
0.0 0.0 0.0 
0.0 0.0 0.0 
0.0 0.0 0.0 
0.0 0.0 0.0 
0.0 0.0 0.0 
0.0 0.0 0.0 
0.0 0.0 0.0 
0.0 0.0 0.0 
0.0 0.0 0.0 
0.0 0.0 0.0 
0.0 0.0 0.0 
0.0 0.0 0.0 
0.0 0.0 0.0 
0.0 0.0 0.0 
0.0 0.0 0.0 
0.0 0.0 0.0 
0.0 0.0 0.0 
0.0 0.0 0.0 
0.0 0.0 0.0 
0.0 0.0 0.0 
0.0 0.0 0.0 
0.0 0.0 0.0 
0.0 0.0 0.0 
0.0 0.0 0.0 
0.0 0.0 0.0 
0.0 0.0 0.0 
0.0 0.0 0.0 
0.0 0.0 0.0 
0.0 0.0 0.0 
0.0 0.0 0.0 
0.0 0.0 0.0 
0.0 0.0 0.0 
0.0 0.0 0.0 
0.0 0.0 0.0 
0.0 0.0 0.0 
0.0 0.0 0.0 
0.0 0.0 0.0 
0.0 0.0 0.0 
0.0 0.0 0.0 
0.0 0.0 0.0 
0.0 0.0 0.0 
0.0 0.0 0.0 
0.0 0.0 0.0 
0.0 0.0 0.0 
0.0 0.0 0.0 
0.0 0.0 0.0 
0.0 0.0 0.0 
0.0 0.0 0.0 
0.0 0.0 0.0 
0.0 0.0 0.0 
0.0 0.0 0.0 
0.0 0.0 0.0 
0.0 0.0 0.0 
0.0 0.0 0.0 
0.0 0.0 0.0 
0.0 0.0 0.0 
0.0 0.0 0.0 
0.0 0.0 0.0 
0.0 0.0 0.0 
0.0 0.0 0.0 
0.0 0.0 0.0 
0.0 0.0 0.0 
0.0 0.0 0.0 
0.0 0.0 0.0 
0.0 0.0 0.0 
0.0 0.0 0.0 
0.0 0.0 0.0 
0.0 0.0 0.0 
0.0 0.0 0.0 
0.0 0.0 0.0 
0.0 0.0 0.0 
0.0 0.0 0.0 
0.0 0.0 0.0 
0.0 0.0 0.0 
0.0 0.0 0.0 
0.0 0.0 0.0 
0.0 0.0 0.0 
0.0 0.0 0.0 
0.0 0.0 0.0 
0.0 0.0 0.0 
0.0 0.0 0.0 
0.0 0.0 0.0 
0.0 0.0 0.0 
0.0 0.0 0.0 
0.0 0.0 0.0 
0.0 0.0 0.0 
0.0 0.0 0.0 
0.0 0.0 0.0 
0.0 0.0 0.0 
0.0 0.0 0.0 
0.0 0.0 0.0 
0.0 0.0 0.0 
0.0 0.0 0.0 
0.0 0.0 0.0 
0.0 0.0 0.0 
0.0 0.0 0.0 
0.0 0.0 0.0 
0.0 0.0 0.0 
0.0 0.0 0.0 
0.0 0.0 0.0 
0.0 0.0 0.0 
0.0 0.0 0.0 
0.0 0.0 0.0 
0.0 0.0 0.0 
0.0 0.0 0.0 
0.0 0.0 0.0 
0.0 0.0 0.0 
0.0 0.0 0.0 
0.0 0.0 0.0 
0.0 0.0 0.0 
0.0 0.0 0.0 
0.0 0.0 0.0 
0.0 0.0 0.0 
0.0 0.0 0.0 
0.0 0.0 0.0 
0.0 0.0 0.0 
0.0 0.0 0.0 
0.0 0.0 0.0 
0.0 0.0 0.0 
0.0 0.0 0.0 
0.0 0.0 0.0 
0.0 0.0 0.0 
0.0 0.0 0.0 
0.0 0.0 0.0 
0.0 0.0 0.0 
0.0 0.0 0.0 
0.0 0.0 0.0 
0.0 0.0 0.0 
0.0 0.0 0.0 
0.0 0.0 0.0 
0.0 0.0 0.0 
0.0 0.0 0.0 
0.0 0.0 0.0 
0.0 0.0 0.0 
0.0 0.0 0.0 
0.0 0.0 0.0 
0.0 0.0 0.0 
0.0 0.0 0.0 
0.0 0.0 0.0 
0.0 0.0 0.0 
0.0 0.0 0.0 
0.0 0.0 0.0 
0.0 0.0 0.0 
0.0 0.0 0.0 
0.0 0.0 0.0 
0.0 0.0 0.0 
0.0 0.0 0.0 
0.0 0.0 0.0 
0.0 0.0 0.0 
0.0 0.0 0.0 
0.0 0.0 0.0 
0.0 0.0 0.0 
0.0 0.0 0.0 
0.0 0.0 0.0 
0.0 0.0 0.0 
0.0 0.0 0.0 
0.0 0.0 0.0 
0.0 0.0 0.0 
0.0 0.0 0.0 
0.0 0.0 0.0 
0.0 0.0 0.0 
0.0 0.0 0.0 
0.0 0.0 0.0 
0.0 0.0 0.0 
0.0 0.0 0.0 
0.0 0.0 0.0 
0.0 0.0 0.0 
0.0 0.0 0.0 
0.0 0.0 0.0 
0.0 0.0 0.0 
0.0 0.0 0.0 
0.0 0.0 0.0 
0.0 0.0 0.0 
0.0 0.0 0.0 
0.0 0.0 0.0 
0.0 0.0 0.0 
0.0 0.0 0.0 
0.0 0.0 0.0 
0.0 0.0 0.0 
0.0 0.0 0.0 
0.0 0.0 0.0 
0.0 0.0 0.0 
0.0 0.0 0.0 
0.0 0.0 0.0 
0.0 0.0 0.0 
0.0 0.0 0.0 
0.0 0.0 0.0 
0.0 0.0 0.0 
0.0 0.0 0.0 
0.0 0.0 0.0 
0.0 0.0 0.0 
0.0 0.0 0.0 
0.0 0.0 0.0 
0.0 0.0 0.0 
0.0 0.0 0.0 
0.0 0.0 0.0 
0.0 0.0 0.0 
0.0 0.0 0.0 
0.0 0.0 0.0 
0.0 0.0 0.0 
0.0 0.0 0.0 
0.0 0.0 0.0 
0.0 0.0 0.0 
0.0 0.0 0.0 
0.0 0.0 0.0 
0.0 0.0 0.0 
0.0 0.0 0.0 
0.0 0.0 0.0 
0.0 0.0 0.0 
0.0 0.0 0.0 
0.0 0.0 0.0 
0.0 0.0 0.0 
0.0 0.0 0.0 
0.0 0.0 0.0 
0.0 0.0 0.0 
0.0 0.0 0.0 
0.0 0.0 0.0 
0.0 0.0 0.0 
0.0 0.0 0.0 
0.0 0.0 0.0 
0.0 0.0 0.0 
0.0 0.0 0.0 
0.0 0.0 0.0 
0.0 0.0 0.0 
0.0 0.0 0.0 
0.0 0.0 0.0 
0.0 0.0 0.0 
0.0 0.0 0.0 
0.0 0.0 0.0 
0.0 0.0 0.0 
0.0 0.0 0.0 
0.0 0.0 0.0 
0.0 0.0 0.0 
0.0 0.0 0.0 
0.0 0.0 0.0 
0.0 0.0 0.0 
0.0 0.0 0.0 
0.0 0.0 0.0 
0.0 0.0 0.0 
0.0 0.0 0.0 
0.0 0.0 0.0 
0.0 0.0 0.0 
0.0 0.0 0.0 
0.0 0.0 0.0 
0.0 0.0 0.0 
0.0 0.0 0.0 
0.0 0.0 0.0 
0.0 0.0 0.0 
0.0 0.0 0.0 
0.0 0.0 0.0 
0.0 0.0 0.0 
0.0 0.0 0.0 
0.0 0.0 0.0 
0.0 0.0 0.0 
0.0 0.0 0.0 
0.0 0.0 0.0 
0.0 0.0 0.0 
0.0 0.0 0.0 
0.0 0.0 0.0 
0.0 0.0 0.0 
0.0 0.0 0.0 
0.0 0.0 0.0 
0.0 0.0 0.0 
0.0 0.0 0.0 
0.0 0.0 0.0 
0.0 0.0 0.0 
0.0 0.0 0.0 
0.0 0.0 0.0 
0.0 0.0 0.0 
0.0 0.0 0.0 
0.0 0.0 0.0 
0.0 0.0 0.0 
0.0 0.0 0.0 
0.0 0.0 0.0 
0.0 0.0 0.0 
0.0 0.0 0.0 
0.0 0.0 0.0 
0.0 0.0 0.0 
0.0 0.0 0.0 
0.0 0.0 0.0 
0.0 0.0 0.0 
0.0 0.0 0.0 
0.0 0.0 0.0 
0.0 0.0 0.0 
0.0 0.0 0.0 
0.0 0.0 0.0 
0.0 0.0 0.0 
0.0 0.0 0.0 
0.0 0.0 0.0 
0.0 0.0 0.0 
0.0 0.0 0.0 
0.0 0.0 0.0 
0.0 0.0 0.0 
0.0 0.0 0.0 
0.0 0.0 0.0 
0.0 0.0 0.0 
0.0 0.0 0.0 
0.0 0.0 0.0 
0.0 0.0 0.0 
0.0 0.0 0.0 
0.0 0.0 0.0 
0.0 0.0 0.0 
0.0 0.0 0.0 
0.0 0.0 0.0 
0.0 0.0 0.0 
0.0 0.0 0.0 
0.0 0.0 0.0 
0.0 0.0 0.0 
0.0 0.0 0.0 
0.0 0.0 0.0 
0.0 0.0 0.0 
0.0 0.0 0.0 
0.0 0.0 0.0 
0.0 0.0 0.0 
0.0 0.0 0.0 
0.0 0.0 0.0 
0.0 0.0 0.0 
0.0 0.0 0.0 
0.0 0.0 0.0 
0.0 0.0 0.0 
0.0 0.0 0.0 
0.0 0.0 0.0 
0.0 0.0 0.0 
0.0 0.0 0.0 
0.0 0.0 0.0 
0.0 0.0 0.0 
0.0 0.0 0.0 
0.0 0.0 0.0 
0.0 0.0 0.0 
0.0 0.0 0.0 
0.0 0.0 0.0 
0.0 0.0 0.0 
0.0 0.0 0.0 
0.0 0.0 0.0 
0.0 0.0 0.0 
0.0 0.0 0.0 
0.0 0.0 0.0 
0.0 0.0 0.0 
0.0 0.0 0.0 
0.0 0.0 0.0 
0.0 0.0 0.0 
0.0 0.0 0.0 
0.0 0.0 0.0 
0.0 0.0 0.0 
0.0 0.0 0.0 
0.0 0.0 0.0 
0.0 0.0 0.0 
0.0 0.0 0.0 
0.0 0.0 0.0 
0.0 0.0 0.0 
0.0 0.0 0.0 
0.0 0.0 0.0 
0.0 0.0 0.0 
0.0 0.0 0.0 
0.0 0.0 0.0 
0.0 0.0 0.0 
0.0 0.0 0.0 
0.0 0.0 0.0 
0.0 0.0 0.0 
0.0 0.0 0.0 
0.0 0.0 0.0 
0.0 0.0 0.0 
0.0 0.0 0.0 
0.0 0.0 0.0 
0.0 0.0 0.0 
0.0 0.0 0.0 
0.0 0.0 0.0 
0.0 0.0 0.0 
0.0 0.0 0.0 
0.0 0.0 0.0 
0.0 0.0 0.0 
0.0 0.0 0.0 
0.0 0.0 0.0 
0.0 0.0 0.0 
0.0 0.0 0.0 
0.0 0.0 0.0 
0.0 0.0 0.0 
0.0 0.0 0.0 
0.0 0.0 0.0 
0.0 0.0 0.0 
0.0 0.0 0.0 
0.0 0.0 0.0 
0.0 0.0 0.0 
0.0 0.0 0.0 
0.0 0.0 0.0 
0.0 0.0 0.0 
0.0 0.0 0.0 
0.0 0.0 0.0 
0.0 0.0 0.0 
0.0 0.0 0.0 
0.0 0.0 0.0 
0.0 0.0 0.0 
0.0 0.0 0.0 
0.0 0.0 0.0 
0.0 0.0 0.0 
0.0 0.0 0.0 
0.0 0.0 0.0 
0.0 0.0 0.0 
0.0 0.0 0.0 
0.0 0.0 0.0 
0.0 0.0 0.0 
0.0 0.0 0.0 
0.0 0.0 0.0 
0.0 0.0 0.0 
0.0 0.0 0.0 
0.0 0.0 0.0 
0.0 0.0 0.0 
0.0 0.0 0.0 
0.0 0.0 0.0 
0.0 0.0 0.0 
0.0 0.0 0.0 
0.0 0.0 0.0 
0.0 0.0 0.0 
0.0 0.0 0.0 
0.0 0.0 0.0 
0.0 0.0 0.0 
0.0 0.0 0.0 
0.0 0.0 0.0 
0.0 0.0 0.0 
0.0 0.0 0.0 
0.0 0.0 0.0 
0.0 0.0 0.0 
0.0 0.0 0.0 
0.0 0.0 0.0 
0.0 0.0 0.0 
0.0 0.0 0.0 
0.0 0.0 0.0 
0.0 0.0 0.0 
0.0 0.0 0.0 
0.0 0.0 0.0 
0.0 0.0 0.0 
0.0 0.0 0.0 
0.0 0.0 0.0 
0.0 0.0 0.0 
0.0 0.0 0.0 
0.0 0.0 0.0 
0.0 0.0 0.0 
0.0 0.0 0.0 
0.0 0.0 0.0 
0.0 0.0 0.0 
0.0 0.0 0.0 
0.0 0.0 0.0 
0.0 0.0 0.0 
0.0 0.0 0.0 
0.0 0.0 0.0 
0.0 0.0 0.0 
0.0 0.0 0.0 
0.0 0.0 0.0 
0.0 0.0 0.0 
0.0 0.0 0.0 
0.0 0.0 0.0 
0.0 0.0 0.0 
0.0 0.0 0.0 
0.0 0.0 0.0 
0.0 0.0 0.0 
0.0 0.0 0.0 
0.0 0.0 0.0 
0.0 0.0 0.0 
0.0 0.0 0.0 
0.0 0.0 0.0 
0.0 0.0 0.0 
0.0 0.0 0.0 
0.0 0.0 0.0 
0.0 0.0 0.0 
0.0 0.0 0.0 
0.0 0.0 0.0 
0.0 0.0 0.0 
0.0 0.0 0.0 
0.0 0.0 0.0 
0.0 0.0 0.0 
0.0 0.0 0.0 
0.0 0.0 0.0 
0.0 0.0 0.0 
0.0 0.0 0.0 
0.0 0.0 0.0 
0.0 0.0 0.0 
0.0 0.0 0.0 
0.0 0.0 0.0 
0.0 0.0 0.0 
0.0 0.0 0.0 
0.0 0.0 0.0 
0.0 0.0 0.0 
0.0 0.0 0.0 
0.0 0.0 0.0 
0.0 0.0 0.0 
0.0 0.0 0.0 
0.0 0.0 0.0 
0.0 0.0 0.0 
0.0 0.0 0.0 
0.0 0.0 0.0 
0.0 0.0 0.0 
0.0 0.0 0.0 
0.0 0.0 0.0 
0.0 0.0 0.0 
0.0 0.0 0.0 
0.0 0.0 0.0 
0.0 0.0 0.0 
0.0 0.0 0.0 
0.0 0.0 0.0 
0.0 0.0 0.0 
0.0 0.0 0.0 
0.0 0.0 0.0 
0.0 0.0 0.0 
0.0 0.0 0.0 
0.0 0.0 0.0 
0.0 0.0 0.0 
0.0 0.0 0.0 
0.0 0.0 0.0 
0.0 0.0 0.0 
0.0 0.0 0.0 
0.0 0.0 0.0 
0.0 0.0 0.0 
0.0 0.0 0.0 
0.0 0.0 0.0 
0.0 0.0 0.0 
0.0 0.0 0.0 
0.0 0.0 0.0 
0.0 0.0 0.0 
0.0 0.0 0.0 
0.0 0.0 0.0 
0.0 0.0 0.0 
0.0 0.0 0.0 
0.0 0.0 0.0 
0.0 0.0 0.0 
0.0 0.0 0.0 
0.0 0.0 0.0 
0.0 0.0 0.0 
0.0 0.0 0.0 
0.0 0.0 0.0 
0.0 0.0 0.0 
0.0 0.0 0.0 
0.0 0.0 0.0 
0.0 0.0 0.0 
0.0 0.0 0.0 
0.0 0.0 0.0 
0.0 0.0 0.0 
0.0 0.0 0.0 
0.0 0.0 0.0 
0.0 0.0 0.0 
0.0 0.0 0.0 
0.0 0.0 0.0 
0.0 0.0 0.0 
0.0 0.0 0.0 
0.0 0.0 0.0 
0.0 0.0 0.0 
0.0 0.0 0.0 
0.0 0.0 0.0 
0.0 0.0 0.0 
0.0 0.0 0.0 
0.0 0.0 0.0 
0.0 0.0 0.0 
0.0 0.0 0.0 
0.0 0.0 0.0 
0.0 0.0 0.0 
0.0 0.0 0.0 
0.0 0.0 0.0 
0.0 0.0 0.0 
0.0 0.0 0.0 
0.0 0.0 0.0 
0.0 0.0 0.0 
0.0 0.0 0.0 
0.0 0.0 0.0 
0.0 0.0 0.0 
0.0 0.0 0.0 
0.0 0.0 0.0 
0.0 0.0 0.0 
0.0 0.0 0.0 
0.0 0.0 0.0 
0.0 0.0 0.0 
0.0 0.0 0.0 
0.0 0.0 0.0 
0.0 0.0 0.0 
0.0 0.0 0.0 
0.0 0.0 0.0 
0.0 0.0 0.0 
0.0 0.0 0.0 
0.0 0.0 0.0 
0.0 0.0 0.0 
0.0 0.0 0.0 
0.0 0.0 0.0 
0.0 0.0 0.0 
0.0 0.0 0.0 
0.0 0.0 0.0 
0.0 0.0 0.0 
0.0 0.0 0.0 
0.0 0.0 0.0 
0.0 0.0 0.0 
0.0 0.0 0.0 
0.0 0.0 0.0 
0.0 0.0 0.0 
0.0 0.0 0.0 
0.0 0.0 0.0 
0.0 0.0 0.0 
0.0 0.0 0.0 
0.0 0.0 0.0 
0.0 0.0 0.0 
0.0 0.0 0.0 
0.0 0.0 0.0 
0.0 0.0 0.0 
0.0 0.0 0.0 
0.0 0.0 0.0 
0.0 0.0 0.0 
0.0 0.0 0.0 
0.0 0.0 0.0 
0.0 0.0 0.0 
0.0 0.0 0.0 
0.0 0.0 0.0 
0.0 0.0 0.0 
0.0 0.0 0.0 
0.0 0.0 0.0 
0.0 0.0 0.0 
0.0 0.0 0.0 
0.0 0.0 0.0 
0.0 0.0 0.0 
0.0 0.0 0.0 
0.0 0.0 0.0 
0.0 0.0 0.0 
0.0 0.0 0.0 
0.0 0.0 0.0 
0.0 0.0 0.0 
0.0 0.0 0.0 
0.0 0.0 0.0 
0.0 0.0 0.0 
0.0 0.0 0.0 
0.0 0.0 0.0 
0.0 0.0 0.0 
0.0 0.0 0.0 
0.0 0.0 0.0 
0.0 0.0 0.0 
0.0 0.0 0.0 
0.0 0.0 0.0 
0.0 0.0 0.0 
0.0 0.0 0.0 
0.0 0.0 0.0 
0.0 0.0 0.0 
0.0 0.0 0.0 
0.0 0.0 0.0 
0.0 0.0 0.0 
0.0 0.0 0.0 
0.0 0.0 0.0 
0.0 0.0 0.0 
0.0 0.0 0.0 
0.0 0.0 0.0 
0.0 0.0 0.0 
0.0 0.0 0.0 
0.0 0.0 0.0 
0.0 0.0 0.0 
0.0 0.0 0.0 
0.0 0.0 0.0 
0.0 0.0 0.0 
0.0 0.0 0.0 
0.0 0.0 0.0 
0.0 0.0 0.0 
0.0 0.0 0.0 
0.0 0.0 0.0 
0.0 0.0 0.0 
0.0 0.0 0.0 
0.0 0.0 0.0 
0.0 0.0 0.0 
0.0 0.0 0.0 
0.0 0.0 0.0 
0.0 0.0 0.0 
0.0 0.0 0.0 
0.0 0.0 0.0 
0.0 0.0 0.0 
0.0 0.0 0.0 
0.0 0.0 0.0 
0.0 0.0 0.0 
0.0 0.0 0.0 
0.0 0.0 0.0 
0.0 0.0 0.0 
0.0 0.0 0.0 
0.0 0.0 0.0 
0.0 0.0 0.0 
0.0 0.0 0.0 
0.0 0.0 0.0 
0.0 0.0 0.0 
0.0 0.0 0.0 
0.0 0.0 0.0 
0.0 0.0 0.0 
0.0 0.0 0.0 
0.0 0.0 0.0 
0.0 0.0 0.0 
0.0 0.0 0.0 
0.0 0.0 0.0 
0.0 0.0 0.0 
0.0 0.0 0.0 
0.0 0.0 0.0 
0.0 0.0 0.0 
0.0 0.0 0.0 
0.0 0.0 0.0 
0.0 0.0 0.0 
0.0 0.0 0.0 
0.0 0.0 0.0 
0.0 0.0 0.0 
0.0 0.0 0.0 
0.0 0.0 0.0 
0.0 0.0 0.0 
0.0 0.0 0.0 
0.0 0.0 0.0 
0.0 0.0 0.0 
0.0 0.0 0.0 
0.0 0.0 0.0 
0.0 0.0 0.0 
0.0 0.0 0.0 
0.0 0.0 0.0 
0.0 0.0 0.0 
0.0 0.0 0.0 
0.0 0.0 0.0 
0.0 0.0 0.0 
0.0 0.0 0.0 
0.0 0.0 0.0 
0.0 0.0 0.0 
0.0 0.0 0.0 
0.0 0.0 0.0 
0.0 0.0 0.0 
0.0 0.0 0.0 
0.0 0.0 0.0 
0.0 0.0 0.0 
0.0 0.0 0.0 
0.0 0.0 0.0 
0.0 0.0 0.0 
0.0 0.0 0.0 
0.0 0.0 0.0 
0.0 0.0 0.0 
0.0 0.0 0.0 
0.0 0.0 0.0 
0.0 0.0 0.0 
0.0 0.0 0.0 
0.0 0.0 0.0 
0.0 0.0 0.0 
0.0 0.0 0.0 
0.0 0.0 0.0 
0.0 0.0 0.0 
0.0 0.0 0.0 
0.0 0.0 0.0 
0.0 0.0 0.0 
0.0 0.0 0.0 
0.0 0.0 0.0 
0.0 0.0 0.0 
0.0 0.0 0.0 
0.0 0.0 0.0 
0.0 0.0 0.0 
0.0 0.0 0.0 
0.0 0.0 0.0 
0.0 0.0 0.0 
0.0 0.0 0.0 
0.0 0.0 0.0 
0.0 0.0 0.0 
0.0 0.0 0.0 
0.0 0.0 0.0 
0.0 0.0 0.0 
0.0 0.0 0.0 
0.0 0.0 0.0 
0.0 0.0 0.0 
0.0 0.0 0.0 
0.0 0.0 0.0 
0.0 0.0 0.0 
0.0 0.0 0.0 
0.0 0.0 0.0 
0.0 0.0 0.0 
0.0 0.0 0.0 
0.0 0.0 0.0 
0.0 0.0 0.0 
0.0 0.0 0.0 
0.0 0.0 0.0 
0.0 0.0 0.0 
0.0 0.0 0.0 
0.0 0.0 0.0 
0.0 0.0 0.0 
0.0 0.0 0.0 
0.0 0.0 0.0 
0.0 0.0 0.0 
0.0 0.0 0.0 
0.0 0.0 0.0 
0.0 0.0 0.0 
0.0 0.0 0.0 
0.0 0.0 0.0 
0.0 0.0 0.0 
0.0 0.0 0.0 
0.0 0.0 0.0 
0.0 0.0 0.0 
0.0 0.0 0.0 
0.0 0.0 0.0 
0.0 0.0 0.0 
0.0 0.0 0.0 
0.0 0.0 0.0 
0.0 0.0 0.0 
0.0 0.0 0.0 
0.0 0.0 0.0 
0.0 0.0 0.0 
0.0 0.0 0.0 
0.0 0.0 0.0 
0.0 0.0 0.0 
0.0 0.0 0.0 
0.0 0.0 0.0 
0.0 0.0 0.0 
0.0 0.0 0.0 
0.0 0.0 0.0 
0.0 0.0 0.0 
0.0 0.0 0.0 
0.0 0.0 0.0 
0.0 0.0 0.0 
0.0 0.0 0.0 
0.0 0.0 0.0 
0.0 0.0 0.0 
0.0 0.0 0.0 
0.0 0.0 0.0 
0.0 0.0 0.0 
0.0 0.0 0.0 
0.0 0.0 0.0 
0.0 0.0 0.0 
0.0 0.0 0.0 
0.0 0.0 0.0 
0.0 0.0 0.0 
0.0 0.0 0.0 
0.0 0.0 0.0 
0.0 0.0 0.0 
0.0 0.0 0.0 
0.0 0.0 0.0 
0.0 0.0 0.0 
0.0 0.0 0.0 
0.0 0.0 0.0 
0.0 0.0 0.0 
0.0 0.0 0.0 
0.0 0.0 0.0 
0.0 0.0 0.0 
0.0 0.0 0.0 
0.0 0.0 0.0 
0.0 0.0 0.0 
0.0 0.0 0.0 
0.0 0.0 0.0 
0.0 0.0 0.0 
0.0 0.0 0.0 
0.0 0.0 0.0 
0.0 0.0 0.0 
0.0 0.0 0.0 
0.0 0.0 0.0 
0.0 0.0 0.0 
0.0 0.0 0.0 
0.0 0.0 0.0 
0.0 0.0 0.0 
0.0 0.0 0.0 
0.0 0.0 0.0 
0.0 0.0 0.0 
0.0 0.0 0.0 
0.0 0.0 0.0 
0.0 0.0 0.0 
0.0 0.0 0.0 
0.0 0.0 0.0 
0.0 0.0 0.0 
0.0 0.0 0.0 
0.0 0.0 0.0 
0.0 0.0 0.0 
0.0 0.0 0.0 
0.0 0.0 0.0 
0.0 0.0 0.0 
0.0 0.0 0.0 
0.0 0.0 0.0 
0.0 0.0 0.0 
0.0 0.0 0.0 
0.0 0.0 0.0 
0.0 0.0 0.0 
0.0 0.0 0.0 
0.0 0.0 0.0 
0.0 0.0 0.0 
0.0 0.0 0.0 
0.0 0.0 0.0 
0.0 0.0 0.0 
0.0 0.0 0.0 
0.0 0.0 0.0 
0.0 0.0 0.0 
0.0 0.0 0.0 
0.0 0.0 0.0 
0.0 0.0 0.0 
0.0 0.0 0.0 
0.0 0.0 0.0 
0.0 0.0 0.0 
0.0 0.0 0.0 
0.0 0.0 0.0 
0.0 0.0 0.0 
0.0 0.0 0.0 
0.0 0.0 0.0 
0.0 0.0 0.0 
0.0 0.0 0.0 
0.0 0.0 0.0 
0.0 0.0 0.0 
0.0 0.0 0.0 
0.0 0.0 0.0 
0.0 0.0 0.0 
0.0 0.0 0.0 
0.0 0.0 0.0 
0.0 0.0 0.0 
0.0 0.0 0.0 
0.0 0.0 0.0 
0.0 0.0 0.0 
0.0 0.0 0.0 
0.0 0.0 0.0 
0.0 0.0 0.0 
0.0 0.0 0.0 
0.0 0.0 0.0 
0.0 0.0 0.0 
0.0 0.0 0.0 
0.0 0.0 0.0 
0.0 0.0 0.0 
0.0 0.0 0.0 
0.0 0.0 0.0 
0.0 0.0 0.0 
0.0 0.0 0.0 
0.0 0.0 0.0 
0.0 0.0 0.0 
0.0 0.0 0.0 
0.0 0.0 0.0 
0.0 0.0 0.0 
0.0 0.0 0.0 
0.0 0.0 0.0 
0.0 0.0 0.0 
0.0 0.0 0.0 
0.0 0.0 0.0 
0.0 0.0 0.0 
0.0 0.0 0.0 
0.0 0.0 0.0 
0.0 0.0 0.0 
0.0 0.0 0.0 
0.0 0.0 0.0 
0.0 0.0 0.0 
0.0 0.0 0.0 
0.0 0.0 0.0 
0.0 0.0 0.0 
0.0 0.0 0.0 
0.0 0.0 0.0 
0.0 0.0 0.0 
0.0 0.0 0.0 
0.0 0.0 0.0 
0.0 0.0 0.0 
0.0 0.0 0.0 
0.0 0.0 0.0 
0.0 0.0 0.0 
0.0 0.0 0.0 
0.0 0.0 0.0 
0.0 0.0 0.0 
0.0 0.0 0.0 
0.0 0.0 0.0 
0.0 0.0 0.0 
0.0 0.0 0.0 
0.0 0.0 0.0 
0.0 0.0 0.0 
0.0 0.0 0.0 
0.0 0.0 0.0 
0.0 0.0 0.0 
0.0 0.0 0.0 
0.0 0.0 0.0 
0.0 0.0 0.0 
0.0 0.0 0.0 
0.0 0.0 0.0 
0.0 0.0 0.0 
0.0 0.0 0.0 
0.0 0.0 0.0 
0.0 0.0 0.0 
0.0 0.0 0.0 
0.0 0.0 0.0 
0.0 0.0 0.0 
0.0 0.0 0.0 
0.0 0.0 0.0 
0.0 0.0 0.0 
0.0 0.0 0.0 
0.0 0.0 0.0 
0.0 0.0 0.0 
0.0 0.0 0.0 
0.0 0.0 0.0 
0.0 0.0 0.0 
0.0 0.0 0.0 
0.0 0.0 0.0 
0.0 0.0 0.0 
0.0 0.0 0.0 
0.0 0.0 0.0 
0.0 0.0 0.0 
0.0 0.0 0.0 
0.0 0.0 0.0 
0.0 0.0 0.0 
0.0 0.0 0.0 
0.0 0.0 0.0 
0.0 0.0 0.0 
0.0 0.0 0.0 
0.0 0.0 0.0 
0.0 0.0 0.0 
0.0 0.0 0.0 
0.0 0.0 0.0 
0.0 0.0 0.0 
0.0 0.0 0.0 
0.0 0.0 0.0 
0.0 0.0 0.0 
0.0 0.0 0.0 
0.0 0.0 0.0 
0.0 0.0 0.0 
0.0 0.0 0.0 
0.0 0.0 0.0 
0.0 0.0 0.0 
0.0 0.0 0.0 
0.0 0.0 0.0 
0.0 0.0 0.0 
0.0 0.0 0.0 
0.0 0.0 0.0 
0.0 0.0 0.0 
0.0 0.0 0.0 
0.0 0.0 0.0 
0.0 0.0 0.0 
0.0 0.0 0.0 
0.0 0.0 0.0 
0.0 0.0 0.0 
0.0 0.0 0.0 
0.0 0.0 0.0 
0.0 0.0 0.0 
0.0 0.0 0.0 
0.0 0.0 0.0 
0.0 0.0 0.0 
0.0 0.0 0.0 
0.0 0.0 0.0 
0.0 0.0 0.0 
0.0 0.0 0.0 
0.0 0.0 0.0 
0.0 0.0 0.0 
0.0 0.0 0.0 
0.0 0.0 0.0 
0.0 0.0 0.0 
0.0 0.0 0.0 
0.0 0.0 0.0 
0.0 0.0 0.0 
0.0 0.0 0.0 
0.0 0.0 0.0 
0.0 0.0 0.0 
0.0 0.0 0.0 
0.0 0.0 0.0 
0.0 0.0 0.0 
0.0 0.0 0.0 
0.0 0.0 0.0 
0.0 0.0 0.0 
0.0 0.0 0.0 
0.0 0.0 0.0 
0.0 0.0 0.0 
0.0 0.0 0.0 
0.0 0.0 0.0 
0.0 0.0 0.0 
0.0 0.0 0.0 
0.0 0.0 0.0 
0.0 0.0 0.0 
0.0 0.0 0.0 
0.0 0.0 0.0 
0.0 0.0 0.0 
0.0 0.0 0.0 
0.0 0.0 0.0 
0.0 0.0 0.0 
0.0 0.0 0.0 
0.0 0.0 0.0 
0.0 0.0 0.0 
0.0 0.0 0.0 
0.0 0.0 0.0 
0.0 0.0 0.0 
0.0 0.0 0.0 
0.0 0.0 0.0 
0.0 0.0 0.0 
0.0 0.0 0.0 
0.0 0.0 0.0 
0.0 0.0 0.0 
0.0 0.0 0.0 
0.0 0.0 0.0 
0.0 0.0 0.0 
0.0 0.0 0.0 
0.0 0.0 0.0 
0.0 0.0 0.0 
0.0 0.0 0.0 
0.0 0.0 0.0 
0.0 0.0 0.0 
0.0 0.0 0.0 
0.0 0.0 0.0 
0.0 0.0 0.0 
0.0 0.0 0.0 
0.0 0.0 0.0 
0.0 0.0 0.0 
0.0 0.0 0.0 
0.0 0.0 0.0 
0.0 0.0 0.0 
0.0 0.0 0.0 
0.0 0.0 0.0 
0.0 0.0 0.0 
0.0 0.0 0.0 
0.0 0.0 0.0 
0.0 0.0 0.0 
0.0 0.0 0.0 
0.0 0.0 0.0 
0.0 0.0 0.0 
0.0 0.0 0.0 
0.0 0.0 0.0 
0.0 0.0 0.0 
0.0 0.0 0.0 
0.0 0.0 0.0 
0.0 0.0 0.0 
0.0 0.0 0.0 
0.0 0.0 0.0 
0.0 0.0 0.0 
0.0 0.0 0.0 
0.0 0.0 0.0 
0.0 0.0 0.0 
0.0 0.0 0.0 
0.0 0.0 0.0 
0.0 0.0 0.0 
0.0 0.0 0.0 
0.0 0.0 0.0 
0.0 0.0 0.0 
0.0 0.0 0.0 
0.0 0.0 0.0 
0.0 0.0 0.0 
0.0 0.0 0.0 
0.0 0.0 0.0 
0.0 0.0 0.0 
0.0 0.0 0.0 
0.0 0.0 0.0 
0.0 0.0 0.0 
0.0 0.0 0.0 
0.0 0.0 0.0 
0.0 0.0 0.0 
0.0 0.0 0.0 
0.0 0.0 0.0 
0.0 0.0 0.0 
0.0 0.0 0.0 
0.0 0.0 0.0 
0.0 0.0 0.0 
0.0 0.0 0.0 
0.0 0.0 0.0 
0.0 0.0 0.0 
0.0 0.0 0.0 
0.0 0.0 0.0 
0.0 0.0 0.0 
0.0 0.0 0.0 
0.0 0.0 0.0 
0.0 0.0 0.0 
0.0 0.0 0.0 
0.0 0.0 0.0 
0.0 0.0 0.0 
0.0 0.0 0.0 
0.0 0.0 0.0 
0.0 0.0 0.0 
0.0 0.0 0.0 
0.0 0.0 0.0 
0.0 0.0 0.0 
0.0 0.0 0.0 
0.0 0.0 0.0 
0.0 0.0 0.0 
0.0 0.0 0.0 
0.0 0.0 0.0 
0.0 0.0 0.0 
0.0 0.0 0.0 
0.0 0.0 0.0 
0.0 0.0 0.0 
0.0 0.0 0.0 
0.0 0.0 0.0 
0.0 0.0 0.0 
0.0 0.0 0.0 
0.0 0.0 0.0 
0.0 0.0 0.0 
0.0 0.0 0.0 
0.0 0.0 0.0 
0.0 0.0 0.0 
0.0 0.0 0.0 
0.0 0.0 0.0 
0.0 0.0 0.0 
0.0 0.0 0.0 
0.0 0.0 0.0 
0.0 0.0 0.0 
0.0 0.0 0.0 
0.0 0.0 0.0 
0.0 0.0 0.0 
0.0 0.0 0.0 
0.0 0.0 0.0 
0.0 0.0 0.0 
0.0 0.0 0.0 
0.0 0.0 0.0 
0.0 0.0 0.0 
0.0 0.0 0.0 
0.0 0.0 0.0 
0.0 0.0 0.0 
0.0 0.0 0.0 
0.0 0.0 0.0 
0.0 0.0 0.0 
0.0 0.0 0.0 
0.0 0.0 0.0 
0.0 0.0 0.0 
0.0 0.0 0.0 
0.0 0.0 0.0 
0.0 0.0 0.0 
0.0 0.0 0.0 
0.0 0.0 0.0 
0.0 0.0 0.0 
0.0 0.0 0.0 
0.0 0.0 0.0 
0.0 0.0 0.0 
0.0 0.0 0.0 
0.0 0.0 0.0 
0.0 0.0 0.0 
0.0 0.0 0.0 
0.0 0.0 0.0 
0.0 0.0 0.0 
0.0 0.0 0.0 
0.0 0.0 0.0 
0.0 0.0 0.0 
0.0 0.0 0.0 
0.0 0.0 0.0 
0.0 0.0 0.0 
0.0 0.0 0.0 
0.0 0.0 0.0 
0.0 0.0 0.0 
0.0 0.0 0.0 
0.0 0.0 0.0 
0.0 0.0 0.0 
0.0 0.0 0.0 
0.0 0.0 0.0 
0.0 0.0 0.0 
0.0 0.0 0.0 
0.0 0.0 0.0 
0.0 0.0 0.0 
0.0 0.0 0.0 
0.0 0.0 0.0 
0.0 0.0 0.0 
0.0 0.0 0.0 
0.0 0.0 0.0 
0.0 0.0 0.0 
0.0 0.0 0.0 
0.0 0.0 0.0 
0.0 0.0 0.0 
0.0 0.0 0.0 
0.0 0.0 0.0 
0.0 0.0 0.0 
0.0 0.0 0.0 
0.0 0.0 0.0 
0.0 0.0 0.0 
0.0 0.0 0.0 
0.0 0.0 0.0 
0.0 0.0 0.0 
0.0 0.0 0.0 
0.0 0.0 0.0 
0.0 0.0 0.0 
0.0 0.0 0.0 
0.0 0.0 0.0 
0.0 0.0 0.0 
0.0 0.0 0.0 
0.0 0.0 0.0 
0.0 0.0 0.0 
0.0 0.0 0.0 
0.0 0.0 0.0 
0.0 0.0 0.0 
0.0 0.0 0.0 
0.0 0.0 0.0 
0.0 0.0 0.0 
0.0 0.0 0.0 
0.0 0.0 0.0 
0.0 0.0 0.0 
0.0 0.0 0.0 
0.0 0.0 0.0 
0.0 0.0 0.0 
0.0 0.0 0.0 
0.0 0.0 0.0 
0.0 0.0 0.0 
0.0 0.0 0.0 
0.0 0.0 0.0 
0.0 0.0 0.0 
0.0 0.0 0.0 
0.0 0.0 0.0 
0.0 0.0 0.0 
0.0 0.0 0.0 
0.0 0.0 0.0 
0.0 0.0 0.0 
0.0 0.0 0.0 
0.0 0.0 0.0 
0.0 0.0 0.0 
0.0 0.0 0.0 
0.0 0.0 0.0 
0.0 0.0 0.0 
0.0 0.0 0.0 
0.0 0.0 0.0 
0.0 0.0 0.0 
0.0 0.0 0.0 
0.0 0.0 0.0 
0.0 0.0 0.0 
0.0 0.0 0.0 
0.0 0.0 0.0 
0.0 0.0 0.0 
0.0 0.0 0.0 
0.0 0.0 0.0 
0.0 0.0 0.0 
0.0 0.0 0.0 
0.0 0.0 0.0 
0.0 0.0 0.0 
0.0 0.0 0.0 
0.0 0.0 0.0 
0.0 0.0 0.0 
0.0 0.0 0.0 
0.0 0.0 0.0 
0.0 0.0 0.0 
0.0 0.0 0.0 
0.0 0.0 0.0 
0.0 0.0 0.0 
0.0 0.0 0.0 
0.0 0.0 0.0 
0.0 0.0 0.0 
0.0 0.0 0.0 
0.0 0.0 0.0 
0.0 0.0 0.0 
0.0 0.0 0.0 
0.0 0.0 0.0 
0.0 0.0 0.0 
0.0 0.0 0.0 
0.0 0.0 0.0 
0.0 0.0 0.0 
0.0 0.0 0.0 
0.0 0.0 0.0 
0.0 0.0 0.0 
0.0 0.0 0.0 
0.0 0.0 0.0 
0.0 0.0 0.0 
0.0 0.0 0.0 
0.0 0.0 0.0 
0.0 0.0 0.0 
0.0 0.0 0.0 
0.0 0.0 0.0 
0.0 0.0 0.0 
0.0 0.0 0.0 
0.0 0.0 0.0 
0.0 0.0 0.0 
0.0 0.0 0.0 
0.0 0.0 0.0 
0.0 0.0 0.0 
0.0 0.0 0.0 
0.0 0.0 0.0 
0.0 0.0 0.0 
0.0 0.0 0.0 
0.0 0.0 0.0 
0.0 0.0 0.0 
0.0 0.0 0.0 
0.0 0.0 0.0 
0.0 0.0 0.0 
0.0 0.0 0.0 
0.0 0.0 0.0 
0.0 0.0 0.0 
0.0 0.0 0.0 
0.0 0.0 0.0 
0.0 0.0 0.0 
0.0 0.0 0.0 
0.0 0.0 0.0 
0.0 0.0 0.0 
0.0 0.0 0.0 
0.0 0.0 0.0 
0.0 0.0 0.0 
0.0 0.0 0.0 
0.0 0.0 0.0 
0.0 0.0 0.0 
0.0 0.0 0.0 
0.0 0.0 0.0 
0.0 0.0 0.0 
0.0 0.0 0.0 
0.0 0.0 0.0 
0.0 0.0 0.0 
0.0 0.0 0.0 
0.0 0.0 0.0 
0.0 0.0 0.0 
0.0 0.0 0.0 
0.0 0.0 0.0 
0.0 0.0 0.0 
0.0 0.0 0.0 
0.0 0.0 0.0 
0.0 0.0 0.0 
0.0 0.0 0.0 
0.0 0.0 0.0 
0.0 0.0 0.0 
0.0 0.0 0.0 
0.0 0.0 0.0 
0.0 0.0 0.0 
0.0 0.0 0.0 
0.0 0.0 0.0 
0.0 0.0 0.0 
0.0 0.0 0.0 
0.0 0.0 0.0 
0.0 0.0 0.0 
0.0 0.0 0.0 
0.0 0.0 0.0 
0.0 0.0 0.0 
0.0 0.0 0.0 
0.0 0.0 0.0 
0.0 0.0 0.0 
0.0 0.0 0.0 
0.0 0.0 0.0 
0.0 0.0 0.0 
0.0 0.0 0.0 
0.0 0.0 0.0 
0.0 0.0 0.0 
0.0 0.0 0.0 
0.0 0.0 0.0 
0.0 0.0 0.0 
0.0 0.0 0.0 
0.0 0.0 0.0 
0.0 0.0 0.0 
0.0 0.0 0.0 
0.0 0.0 0.0 
0.0 0.0 0.0 
0.0 0.0 0.0 
0.0 0.0 0.0 
0.0 0.0 0.0 
0.0 0.0 0.0 
0.0 0.0 0.0 
0.0 0.0 0.0 
0.0 0.0 0.0 
0.0 0.0 0.0 
0.0 0.0 0.0 
0.0 0.0 0.0 
0.0 0.0 0.0 
0.0 0.0 0.0 
0.0 0.0 0.0 
0.0 0.0 0.0 
0.0 0.0 0.0 
0.0 0.0 0.0 
0.0 0.0 0.0 
0.0 0.0 0.0 
0.0 0.0 0.0 
0.0 0.0 0.0 
0.0 0.0 0.0 
0.0 0.0 0.0 
0.0 0.0 0.0 
0.0 0.0 0.0 
0.0 0.0 0.0 
0.0 0.0 0.0 
0.0 0.0 0.0 
0.0 0.0 0.0 
0.0 0.0 0.0 
0.0 0.0 0.0 
0.0 0.0 0.0 
0.0 0.0 0.0 
0.0 0.0 0.0 
0.0 0.0 0.0 
0.0 0.0 0.0 
0.0 0.0 0.0 
0.0 0.0 0.0 
0.0 0.0 0.0 
0.0 0.0 0.0 
0.0 0.0 0.0 
0.0 0.0 0.0 
0.0 0.0 0.0 
0.0 0.0 0.0 
0.0 0.0 0.0 
0.0 0.0 0.0 
0.0 0.0 0.0 
0.0 0.0 0.0 
0.0 0.0 0.0 
0.0 0.0 0.0 
0.0 0.0 0.0 
0.0 0.0 0.0 
0.0 0.0 0.0 
0.0 0.0 0.0 
0.0 0.0 0.0 
0.0 0.0 0.0 
0.0 0.0 0.0 
0.0 0.0 0.0 
0.0 0.0 0.0 
0.0 0.0 0.0 
0.0 0.0 0.0 
0.0 0.0 0.0 
0.0 0.0 0.0 
0.0 0.0 0.0 
0.0 0.0 0.0 
0.0 0.0 0.0 
0.0 0.0 0.0 
0.0 0.0 0.0 
0.0 0.0 0.0 
0.0 0.0 0.0 
0.0 0.0 0.0 
0.0 0.0 0.0 
0.0 0.0 0.0 
0.0 0.0 0.0 
0.0 0.0 0.0 
0.0 0.0 0.0 
0.0 0.0 0.0 
0.0 0.0 0.0 
0.0 0.0 0.0 
0.0 0.0 0.0 
0.0 0.0 0.0 
0.0 0.0 0.0 
0.0 0.0 0.0 
0.0 0.0 0.0 
0.0 0.0 0.0 
0.0 0.0 0.0 
0.0 0.0 0.0 
0.0 0.0 0.0 
0.0 0.0 0.0 
0.0 0.0 0.0 
0.0 0.0 0.0 
0.0 0.0 0.0 
0.0 0.0 0.0 
0.0 0.0 0.0 
0.0 0.0 0.0 
0.0 0.0 0.0 
0.0 0.0 0.0 
0.0 0.0 0.0 
0.0 0.0 0.0 
0.0 0.0 0.0 
0.0 0.0 0.0 
0.0 0.0 0.0 
0.0 0.0 0.0 
0.0 0.0 0.0 
0.0 0.0 0.0 
0.0 0.0 0.0 
0.0 0.0 0.0 
0.0 0.0 0.0 
0.0 0.0 0.0 
0.0 0.0 0.0 
0.0 0.0 0.0 
0.0 0.0 0.0 
0.0 0.0 0.0 
0.0 0.0 0.0 
0.0 0.0 0.0 
0.0 0.0 0.0 
0.0 0.0 0.0 
0.0 0.0 0.0 
0.0 0.0 0.0 
0.0 0.0 0.0 
0.0 0.0 0.0 
0.0 0.0 0.0 
0.0 0.0 0.0 
0.0 0.0 0.0 
0.0 0.0 0.0 
0.0 0.0 0.0 
0.0 0.0 0.0 
0.0 0.0 0.0 
0.0 0.0 0.0 
0.0 0.0 0.0 
0.0 0.0 0.0 
0.0 0.0 0.0 
0.0 0.0 0.0 
0.0 0.0 0.0 
0.0 0.0 0.0 
0.0 0.0 0.0 
0.0 0.0 0.0 
0.0 0.0 0.0 
0.0 0.0 0.0 
0.0 0.0 0.0 
0.0 0.0 0.0 
0.0 0.0 0.0 
0.0 0.0 0.0 
0.0 0.0 0.0 
0.0 0.0 0.0 
0.0 0.0 0.0 
0.0 0.0 0.0 
0.0 0.0 0.0 
0.0 0.0 0.0 
0.0 0.0 0.0 
0.0 0.0 0.0 
0.0 0.0 0.0 
0.0 0.0 0.0 
0.0 0.0 0.0 
0.0 0.0 0.0 
0.0 0.0 0.0 
0.0 0.0 0.0 
0.0 0.0 0.0 
0.0 0.0 0.0 
0.0 0.0 0.0 
0.0 0.0 0.0 
0.0 0.0 0.0 
0.0 0.0 0.0 
0.0 0.0 0.0 
0.0 0.0 0.0 
0.0 0.0 0.0 
0.0 0.0 0.0 
0.0 0.0 0.0 
0.0 0.0 0.0 
0.0 0.0 0.0 
0.0 0.0 0.0 
0.0 0.0 0.0 
0.0 0.0 0.0 
0.0 0.0 0.0 
0.0 0.0 0.0 
0.0 0.0 0.0 
0.0 0.0 0.0 
0.0 0.0 0.0 
0.0 0.0 0.0 
0.0 0.0 0.0 
0.0 0.0 0.0 
0.0 0.0 0.0 
0.0 0.0 0.0 
0.0 0.0 0.0 
0.0 0.0 0.0 
0.0 0.0 0.0 
0.0 0.0 0.0 
0.0 0.0 0.0 
0.0 0.0 0.0 
0.0 0.0 0.0 
0.0 0.0 0.0 
0.0 0.0 0.0 
0.0 0.0 0.0 
0.0 0.0 0.0 
0.0 0.0 0.0 
0.0 0.0 0.0 
0.0 0.0 0.0 
0.0 0.0 0.0 
0.0 0.0 0.0 
0.0 0.0 0.0 
0.0 0.0 0.0 
0.0 0.0 0.0 
0.0 0.0 0.0 
0.0 0.0 0.0 
0.0 0.0 0.0 
0.0 0.0 0.0 
0.0 0.0 0.0 
0.0 0.0 0.0 
0.0 0.0 0.0 
0.0 0.0 0.0 
0.0 0.0 0.0 
0.0 0.0 0.0 
0.0 0.0 0.0 
0.0 0.0 0.0 
0.0 0.0 0.0 
0.0 0.0 0.0 
0.0 0.0 0.0 
0.0 0.0 0.0 
0.0 0.0 0.0 
0.0 0.0 0.0 
0.0 0.0 0.0 
0.0 0.0 0.0 
0.0 0.0 0.0 
0.0 0.0 0.0 
0.0 0.0 0.0 
0.0 0.0 0.0 
0.0 0.0 0.0 
0.0 0.0 0.0 
0.0 0.0 0.0 
0.0 0.0 0.0 
0.0 0.0 0.0 
0.0 0.0 0.0 
0.0 0.0 0.0 
0.0 0.0 0.0 
0.0 0.0 0.0 
0.0 0.0 0.0 
0.0 0.0 0.0 
0.0 0.0 0.0 
0.0 0.0 0.0 
0.0 0.0 0.0 
0.0 0.0 0.0 
0.0 0.0 0.0 
0.0 0.0 0.0 
0.0 0.0 0.0 
0.0 0.0 0.0 
0.0 0.0 0.0 
0.0 0.0 0.0 
0.0 0.0 0.0 
0.0 0.0 0.0 
0.0 0.0 0.0 
0.0 0.0 0.0 
0.0 0.0 0.0 
0.0 0.0 0.0 
0.0 0.0 0.0 
0.0 0.0 0.0 
0.0 0.0 0.0 
0.0 0.0 0.0 
0.0 0.0 0.0 
0.0 0.0 0.0 
0.0 0.0 0.0 
0.0 0.0 0.0 
0.0 0.0 0.0 
0.0 0.0 0.0 
0.0 0.0 0.0 
0.0 0.0 0.0 
0.0 0.0 0.0 
0.0 0.0 0.0 
0.0 0.0 0.0 
0.0 0.0 0.0 
0.0 0.0 0.0 
0.0 0.0 0.0 
0.0 0.0 0.0 
0.0 0.0 0.0 
0.0 0.0 0.0 
0.0 0.0 0.0 
0.0 0.0 0.0 
0.0 0.0 0.0 
0.0 0.0 0.0 
0.0 0.0 0.0 
0.0 0.0 0.0 
0.0 0.0 0.0 
0.0 0.0 0.0 
0.0 0.0 0.0 
0.0 0.0 0.0 
0.0 0.0 0.0 
0.0 0.0 0.0 
0.0 0.0 0.0 
0.0 0.0 0.0 
0.0 0.0 0.0 
0.0 0.0 0.0 
0.0 0.0 0.0 
0.0 0.0 0.0 
0.0 0.0 0.0 
0.0 0.0 0.0 
0.0 0.0 0.0 
0.0 0.0 0.0 
0.0 0.0 0.0 
0.0 0.0 0.0 
0.0 0.0 0.0 
0.0 0.0 0.0 
0.0 0.0 0.0 
0.0 0.0 0.0 
0.0 0.0 0.0 
0.0 0.0 0.0 
0.0 0.0 0.0 
0.0 0.0 0.0 
0.0 0.0 0.0 
0.0 0.0 0.0 
0.0 0.0 0.0 
0.0 0.0 0.0 
0.0 0.0 0.0 
0.0 0.0 0.0 
0.0 0.0 0.0 
0.0 0.0 0.0 
0.0 0.0 0.0 
0.0 0.0 0.0 
0.0 0.0 0.0 
0.0 0.0 0.0 
0.0 0.0 0.0 
0.0 0.0 0.0 
0.0 0.0 0.0 
0.0 0.0 0.0 
0.0 0.0 0.0 
0.0 0.0 0.0 
0.0 0.0 0.0 
0.0 0.0 0.0 
0.0 0.0 0.0 
0.0 0.0 0.0 
0.0 0.0 0.0 
0.0 0.0 0.0 
0.0 0.0 0.0 
0.0 0.0 0.0 
0.0 0.0 0.0 
0.0 0.0 0.0 
0.0 0.0 0.0 
0.0 0.0 0.0 
0.0 0.0 0.0 
0.0 0.0 0.0 
0.0 0.0 0.0 
0.0 0.0 0.0 
0.0 0.0 0.0 
0.0 0.0 0.0 
0.0 0.0 0.0 
0.0 0.0 0.0 
0.0 0.0 0.0 
0.0 0.0 0.0 
0.0 0.0 0.0 
0.0 0.0 0.0 
0.0 0.0 0.0 
0.0 0.0 0.0 
0.0 0.0 0.0 
0.0 0.0 0.0 
0.0 0.0 0.0 
0.0 0.0 0.0 
0.0 0.0 0.0 
0.0 0.0 0.0 
0.0 0.0 0.0 
0.0 0.0 0.0 
0.0 0.0 0.0 
0.0 0.0 0.0 
0.0 0.0 0.0 
0.0 0.0 0.0 
0.0 0.0 0.0 
0.0 0.0 0.0 
0.0 0.0 0.0 
0.0 0.0 0.0 
0.0 0.0 0.0 
0.0 0.0 0.0 
0.0 0.0 0.0 
0.0 0.0 0.0 
0.0 0.0 0.0 
0.0 0.0 0.0 
0.0 0.0 0.0 
0.0 0.0 0.0 
0.0 0.0 0.0 
0.0 0.0 0.0 
0.0 0.0 0.0 
0.0 0.0 0.0 
0.0 0.0 0.0 
0.0 0.0 0.0 
0.0 0.0 0.0 
0.0 0.0 0.0 
0.0 0.0 0.0 
0.0 0.0 0.0 
0.0 0.0 0.0 
0.0 0.0 0.0 
0.0 0.0 0.0 
0.0 0.0 0.0 
0.0 0.0 0.0 
0.0 0.0 0.0 
0.0 0.0 0.0 
0.0 0.0 0.0 
0.0 0.0 0.0 
0.0 0.0 0.0 
0.0 0.0 0.0 
0.0 0.0 0.0 
0.0 0.0 0.0 
0.0 0.0 0.0 
0.0 0.0 0.0 
0.0 0.0 0.0 
0.0 0.0 0.0 
0.0 0.0 0.0 
0.0 0.0 0.0 
0.0 0.0 0.0 
0.0 0.0 0.0 
0.0 0.0 0.0 
0.0 0.0 0.0 
0.0 0.0 0.0 
0.0 0.0 0.0 
0.0 0.0 0.0 
0.0 0.0 0.0 
0.0 0.0 0.0 
0.0 0.0 0.0 
0.0 0.0 0.0 
0.0 0.0 0.0 
0.0 0.0 0.0 
0.0 0.0 0.0 
0.0 0.0 0.0 
0.0 0.0 0.0 
0.0 0.0 0.0 
0.0 0.0 0.0 
0.0 0.0 0.0 
0.0 0.0 0.0 
0.0 0.0 0.0 
0.0 0.0 0.0 
0.0 0.0 0.0 
0.0 0.0 0.0 
0.0 0.0 0.0 
0.0 0.0 0.0 
0.0 0.0 0.0 
0.0 0.0 0.0 
0.0 0.0 0.0 
0.0 0.0 0.0 
0.0 0.0 0.0 
0.0 0.0 0.0 
0.0 0.0 0.0 
0.0 0.0 0.0 
0.0 0.0 0.0 
0.0 0.0 0.0 
0.0 0.0 0.0 
0.0 0.0 0.0 
0.0 0.0 0.0 
0.0 0.0 0.0 
0.0 0.0 0.0 
0.0 0.0 0.0 
0.0 0.0 0.0 
0.0 0.0 0.0 
0.0 0.0 0.0 
0.0 0.0 0.0 
0.0 0.0 0.0 
0.0 0.0 0.0 
0.0 0.0 0.0 
0.0 0.0 0.0 
0.0 0.0 0.0 
0.0 0.0 0.0 
0.0 0.0 0.0 
0.0 0.0 0.0 
0.0 0.0 0.0 
0.0 0.0 0.0 
0.0 0.0 0.0 
0.0 0.0 0.0 
0.0 0.0 0.0 
0.0 0.0 0.0 
0.0 0.0 0.0 
0.0 0.0 0.0 
0.0 0.0 0.0 
0.0 0.0 0.0 
0.0 0.0 0.0 
0.0 0.0 0.0 
0.0 0.0 0.0 
0.0 0.0 0.0 
0.0 0.0 0.0 
0.0 0.0 0.0 
0.0 0.0 0.0 
0.0 0.0 0.0 
0.0 0.0 0.0 
0.0 0.0 0.0 
0.0 0.0 0.0 
0.0 0.0 0.0 
0.0 0.0 0.0 
0.0 0.0 0.0 
0.0 0.0 0.0 
0.0 0.0 0.0 
0.0 0.0 0.0 
0.0 0.0 0.0 
0.0 0.0 0.0 
0.0 0.0 0.0 
0.0 0.0 0.0 
0.0 0.0 0.0 
0.0 0.0 0.0 
0.0 0.0 0.0 
0.0 0.0 0.0 
0.0 0.0 0.0 
0.0 0.0 0.0 
0.0 0.0 0.0 
0.0 0.0 0.0 
0.0 0.0 0.0 
0.0 0.0 0.0 
0.0 0.0 0.0 
0.0 0.0 0.0 
0.0 0.0 0.0 
0.0 0.0 0.0 
0.0 0.0 0.0 
0.0 0.0 0.0 
0.0 0.0 0.0 
0.0 0.0 0.0 
0.0 0.0 0.0 
0.0 0.0 0.0 
0.0 0.0 0.0 
0.0 0.0 0.0 
0.0 0.0 0.0 
0.0 0.0 0.0 
0.0 0.0 0.0 
0.0 0.0 0.0 
0.0 0.0 0.0 
0.0 0.0 0.0 
0.0 0.0 0.0 
0.0 0.0 0.0 
0.0 0.0 0.0 
0.0 0.0 0.0 
0.0 0.0 0.0 
0.0 0.0 0.0 
0.0 0.0 0.0 
0.0 0.0 0.0 
0.0 0.0 0.0 
0.0 0.0 0.0 
0.0 0.0 0.0 
0.0 0.0 0.0 
0.0 0.0 0.0 
0.0 0.0 0.0 
0.0 0.0 0.0 
0.0 0.0 0.0 
0.0 0.0 0.0 
0.0 0.0 0.0 
0.0 0.0 0.0 
0.0 0.0 0.0 
0.0 0.0 0.0 
0.0 0.0 0.0 
0.0 0.0 0.0 
0.0 0.0 0.0 
0.0 0.0 0.0 
0.0 0.0 0.0 
0.0 0.0 0.0 
0.0 0.0 0.0 
0.0 0.0 0.0 
0.0 0.0 0.0 
0.0 0.0 0.0 
0.0 0.0 0.0 
0.0 0.0 0.0 
0.0 0.0 0.0 
0.0 0.0 0.0 
0.0 0.0 0.0 
0.0 0.0 0.0 
0.0 0.0 0.0 
0.0 0.0 0.0 
0.0 0.0 0.0 
0.0 0.0 0.0 
0.0 0.0 0.0 
0.0 0.0 0.0 
0.0 0.0 0.0 
0.0 0.0 0.0 
0.0 0.0 0.0 
0.0 0.0 0.0 
0.0 0.0 0.0 
0.0 0.0 0.0 
0.0 0.0 0.0 
0.0 0.0 0.0 
0.0 0.0 0.0 
0.0 0.0 0.0 
0.0 0.0 0.0 
0.0 0.0 0.0 
0.0 0.0 0.0 
0.0 0.0 0.0 
0.0 0.0 0.0 
0.0 0.0 0.0 
0.0 0.0 0.0 
0.0 0.0 0.0 
0.0 0.0 0.0 
0.0 0.0 0.0 
0.0 0.0 0.0 
0.0 0.0 0.0 
0.0 0.0 0.0 
0.0 0.0 0.0 
0.0 0.0 0.0 
0.0 0.0 0.0 
0.0 0.0 0.0 
0.0 0.0 0.0 
0.0 0.0 0.0 
0.0 0.0 0.0 
0.0 0.0 0.0 
0.0 0.0 0.0 
0.0 0.0 0.0 
0.0 0.0 0.0 
0.0 0.0 0.0 
0.0 0.0 0.0 
0.0 0.0 0.0 
0.0 0.0 0.0 
0.0 0.0 0.0 
0.0 0.0 0.0 
0.0 0.0 0.0 
0.0 0.0 0.0 
0.0 0.0 0.0 
0.0 0.0 0.0 
0.0 0.0 0.0 
0.0 0.0 0.0 
0.0 0.0 0.0 
0.0 0.0 0.0 
0.0 0.0 0.0 
0.0 0.0 0.0 
0.0 0.0 0.0 
0.0 0.0 0.0 
0.0 0.0 0.0 
0.0 0.0 0.0 
0.0 0.0 0.0 
0.0 0.0 0.0 
0.0 0.0 0.0 
0.0 0.0 0.0 
0.0 0.0 0.0 
0.0 0.0 0.0 
0.0 0.0 0.0 
0.0 0.0 0.0 
0.0 0.0 0.0 
0.0 0.0 0.0 
0.0 0.0 0.0 
0.0 0.0 0.0 
0.0 0.0 0.0 
0.0 0.0 0.0 
0.0 0.0 0.0 
0.0 0.0 0.0 
0.0 0.0 0.0 
0.0 0.0 0.0 
0.0 0.0 0.0 
0.0 0.0 0.0 
0.0 0.0 0.0 
0.0 0.0 0.0 
0.0 0.0 0.0 
0.0 0.0 0.0 
0.0 0.0 0.0 
0.0 0.0 0.0 
0.0 0.0 0.0 
0.0 0.0 0.0 
0.0 0.0 0.0 
0.0 0.0 0.0 
0.0 0.0 0.0 
0.0 0.0 0.0 
0.0 0.0 0.0 
0.0 0.0 0.0 
0.0 0.0 0.0 
0.0 0.0 0.0 
0.0 0.0 0.0 
0.0 0.0 0.0 
0.0 0.0 0.0 
0.0 0.0 0.0 
0.0 0.0 0.0 
0.0 0.0 0.0 
0.0 0.0 0.0 
0.0 0.0 0.0 
0.0 0.0 0.0 
0.0 0.0 0.0 
0.0 0.0 0.0 
0.0 0.0 0.0 
0.0 0.0 0.0 
0.0 0.0 0.0 
0.0 0.0 0.0 
0.0 0.0 0.0 
0.0 0.0 0.0 
0.0 0.0 0.0 
0.0 0.0 0.0 
0.0 0.0 0.0 
0.0 0.0 0.0 
0.0 0.0 0.0 
0.0 0.0 0.0 
0.0 0.0 0.0 
0.0 0.0 0.0 
0.0 0.0 0.0 
0.0 0.0 0.0 
0.0 0.0 0.0 
0.0 0.0 0.0 
0.0 0.0 0.0 
0.0 0.0 0.0 
0.0 0.0 0.0 
0.0 0.0 0.0 
0.0 0.0 0.0 
0.0 0.0 0.0 
0.0 0.0 0.0 
0.0 0.0 0.0 
0.0 0.0 0.0 
0.0 0.0 0.0 
0.0 0.0 0.0 
0.0 0.0 0.0 
0.0 0.0 0.0 
0.0 0.0 0.0 
0.0 0.0 0.0 
0.0 0.0 0.0 
0.0 0.0 0.0 
0.0 0.0 0.0 
0.0 0.0 0.0 
0.0 0.0 0.0 
0.0 0.0 0.0 
0.0 0.0 0.0 
0.0 0.0 0.0 
0.0 0.0 0.0 
0.0 0.0 0.0 
0.0 0.0 0.0 
0.0 0.0 0.0 
0.0 0.0 0.0 
0.0 0.0 0.0 
0.0 0.0 0.0 
0.0 0.0 0.0 
0.0 0.0 0.0 
0.0 0.0 0.0 
0.0 0.0 0.0 
0.0 0.0 0.0 
0.0 0.0 0.0 
0.0 0.0 0.0 
0.0 0.0 0.0 
0.0 0.0 0.0 
0.0 0.0 0.0 
0.0 0.0 0.0 
0.0 0.0 0.0 
0.0 0.0 0.0 
0.0 0.0 0.0 
0.0 0.0 0.0 
0.0 0.0 0.0 
0.0 0.0 0.0 
0.0 0.0 0.0 

TENSORS element_materi_stress float
-3.867447923733e+01 1.503336808756e+00 0.0 
1.503336808756e+00 -8.227438911945e+01 0.0 
0.0 0.0 -3.588466050703e+01 
-4.022024142208e+01 4.269363298701e+00 0.0 
4.269363298701e+00 -7.996574872880e+01 0.0 
0.0 0.0 -3.565579704526e+01 
-1.428146836678e+02 4.869303656904e+00 0.0 
4.869303656904e+00 -3.313934479329e+02 0.0 
0.0 0.0 -1.418624394802e+02 
-1.388824522111e+02 1.160220985448e+00 0.0 
1.160220985448e+00 -3.235261779753e+02 0.0 
0.0 0.0 -1.383225890559e+02 
-8.298874615506e+01 -6.307626689019e-01 0.0 
-6.307626689019e-01 -1.872717281742e+02 0.0 
0.0 0.0 -8.067814229877e+01 
-1.433082524328e+01 3.574888854813e+00 0.0 
3.574888854813e+00 -4.108392052229e+01 0.0 
0.0 0.0 -1.622442372967e+01 
-8.302511524033e+01 -8.783171064317e-01 0.0 
-8.783171064317e-01 -1.875689867240e+02 0.0 
0.0 0.0 -8.077823058929e+01 
-3.830265943285e+01 3.699868151489e+00 0.0 
3.699868151489e+00 -7.867785499020e+01 0.0 
0.0 0.0 -3.469415432692e+01 
-8.323781155204e+01 1.389508484935e+00 0.0 
1.389508484935e+00 -1.880056944720e+02 0.0 
0.0 0.0 -8.097305180720e+01 
-1.383037608346e+02 -1.657030557610e-01 0.0 
-1.657030557610e-01 -3.219366170557e+02 0.0 
0.0 0.0 -1.376721133671e+02 
-1.018871764620e+02 -3.915454574722e-01 0.0 
-3.915454574722e-01 -2.506566196441e+02 0.0 
0.0 0.0 -1.053631388318e+02 
-3.151063162654e+01 2.789511303998e+00 0.0 
2.789511303998e+00 -6.288173208303e+01 0.0 
0.0 0.0 -2.791770911287e+01 
-1.527529037691e+02 -2.232870017221e-01 0.0 
-2.232870017221e-01 -3.617072120863e+02 0.0 
0.0 0.0 -1.539380347566e+02 
-9.088648063646e+01 8.815884043710e-02 0.0 
8.815884043710e-02 -2.041740012836e+02 0.0 
0.0 0.0 -8.811814457601e+01 
-1.568364105797e+02 1.659797744619e+00 0.0 
1.659797744619e+00 -3.696555466087e+02 0.0 
0.0 0.0 -1.575475871565e+02 
-1.418542890443e+02 -2.249279299781e-01 0.0 
-2.249279299781e-01 -3.315325691759e+02 0.0 
0.0 0.0 -1.416160574661e+02 
-8.146003738920e+01 3.732613149210e-01 0.0 
3.732613149210e-01 -1.830396757387e+02 0.0 
0.0 0.0 -7.894991393838e+01 
-1.601766514351e+01 2.872411753892e+00 0.0 
2.872411753892e+00 -4.203608544638e+01 0.0 
0.0 0.0 -1.701612517697e+01 
-3.017051947451e+01 2.471709462738e-01 0.0 
2.471709462738e-01 -7.663889106486e+01 0.0 
0.0 0.0 -3.164282316181e+01 
-3.117964807863e+01 -5.246134012477e-01 0.0 
-5.246134012477e-01 -7.943430022670e+01 0.0 
0.0 0.0 -3.278418449160e+01 
-1.388854459769e+02 1.706689295328e+00 0.0 
1.706689295328e+00 -3.226340369137e+02 0.0 
0.0 0.0 -1.380558448672e+02 
-4.531479256699e+01 1.386675649017e+00 0.0 
1.386675649017e+00 -9.462228020820e+01 0.0 
0.0 0.0 -4.158112183256e+01 
-5.087453510997e+01 2.794314370892e+00 0.0 
2.794314370892e+00 -1.067752730163e+02 0.0 
0.0 0.0 -4.689494243789e+01 
-1.428562688203e+02 6.352839282549e+00 0.0 
6.352839282549e+00 -3.396059053763e+02 0.0 
0.0 0.0 -1.443386522590e+02 
-9.870435034469e+01 5.120319732231e-01 0.0 
5.120319732231e-01 -2.217897469783e+02 0.0 
0.0 0.0 -9.574822919689e+01 
-1.074941808987e+02 8.758118894310e-01 0.0 
8.758118894310e-01 -2.636850272396e+02 0.0 
0.0 0.0 -1.109537624415e+02 
-7.550965041673e+01 7.978883416823e-01 0.0 
7.978883416823e-01 -1.665285197403e+02 0.0 
0.0 0.0 -7.221145104711e+01 
-1.470335139103e+02 7.583947817462e+00 0.0 
7.583947817462e+00 -3.427212369594e+02 0.0 
0.0 0.0 -1.465264252609e+02 
-9.933179032388e+01 2.579636784061e+00 0.0 
2.579636784061e+00 -2.223119052819e+02 0.0 
0.0 0.0 -9.609310868174e+01 
-1.464245937430e+02 5.062841386070e+00 0.0 
5.062841386070e+00 -3.483781903584e+02 0.0 
0.0 0.0 -1.480408352304e+02 
-2.342205674937e+01 -8.625496642682e-02 0.0 
-8.625496642682e-02 -5.829750112951e+01 0.0 
0.0 0.0 -2.411586736366e+01 
-1.197090555391e+01 -7.055295732455e-01 0.0 
-7.055295732455e-01 -2.584278961051e+01 0.0 
0.0 0.0 -1.094410854933e+01 
-1.432060134866e+02 4.530130275133e+00 0.0 
4.530130275133e+00 -3.320256683024e+02 0.0 
0.0 0.0 -1.421695045367e+02 
-1.296261747601e+02 9.446653919835e-01 0.0 
9.446653919835e-01 -3.123690970880e+02 0.0 
0.0 0.0 -1.321985815544e+02 
-1.513414810361e+02 4.560815065843e+00 0.0 
4.560815065843e+00 -3.582135598196e+02 0.0 
0.0 0.0 -1.524665122567e+02 
-1.598435836065e+02 1.059045429415e+00 0.0 
1.059045429415e+00 -3.773442147001e+02 0.0 
0.0 0.0 -1.607563394920e+02 
-1.602949828119e+02 4.014890555011e+00 0.0 
4.014890555011e+00 -3.772768137254e+02 0.0 
0.0 0.0 -1.608715389612e+02 
-1.478681760015e+02 6.603628351599e+00 0.0 
6.603628351599e+00 -3.484301305307e+02 0.0 
0.0 0.0 -1.484894919597e+02 
-7.497879325418e+01 1.330697881496e+00 0.0 
1.330697881496e+00 -1.687085243115e+02 0.0 
0.0 0.0 -7.270619526972e+01 
-7.507148811156e+01 -1.378300239183e+00 0.0 
-1.378300239183e+00 -1.693837142043e+02 0.0 
0.0 0.0 -7.293656069475e+01 
-5.944138990264e+01 2.415645331535e+00 0.0 
2.415645331535e+00 -1.262937944733e+02 0.0 
0.0 0.0 -5.532055531277e+01 
-1.534956775726e+02 4.467811926804e+00 0.0 
4.467811926804e+00 -3.618271396169e+02 0.0 
0.0 0.0 -1.541968451568e+02 
-2.549575554795e+01 3.012892019223e+00 0.0 
3.012892019223e+00 -5.140696603715e+01 0.0 
0.0 0.0 -2.267081647553e+01 
-7.611571599536e+01 5.054900038359e-01 0.0 
5.054900038359e-01 -1.672253665648e+02 0.0 
0.0 0.0 -7.260232476804e+01 
-1.343329691047e+02 5.588750017927e-01 0.0 
5.588750017927e-01 -3.123675721534e+02 0.0 
0.0 0.0 -1.336101623774e+02 
-2.721738288414e+01 6.606415076933e+00 0.0 
6.606415076933e+00 -5.167384688553e+01 0.0 
0.0 0.0 -2.326736893090e+01 
-1.719954861062e+01 -5.755456248029e-01 0.0 
-5.755456248029e-01 -4.343029965803e+01 0.0 
0.0 0.0 -1.778895448060e+01 
-1.350096679952e+02 -3.144897207219e-05 0.0 
-3.144897207219e-05 -3.140790966593e+02 0.0 
0.0 0.0 -1.343266293963e+02 
-1.247966078642e+01 -6.479053870099e-01 0.0 
-6.479053870099e-01 -2.580177457248e+01 0.0 
0.0 0.0 -1.147430403897e+01 
-8.769233480801e+01 1.434749093741e+00 0.0 
1.434749093741e+00 -1.956670185969e+02 0.0 
0.0 0.0 -8.460780602147e+01 
-5.523171417042e+01 2.569566541343e+00 0.0 
2.569566541343e+00 -1.167851811188e+02 0.0 
0.0 0.0 -5.120506858676e+01 
-3.839463807379e+01 4.289571981096e-02 0.0 
4.289571981096e-02 -9.629693496490e+01 0.0 
0.0 0.0 -4.000747191161e+01 
-3.007425229509e+01 1.037182217732e+00 0.0 
1.037182217732e+00 -8.030170057491e+01 0.0 
0.0 0.0 -3.271278586100e+01 
-5.399542508401e+01 8.363194365429e-01 0.0 
8.363194365429e-01 -1.145562498890e+02 0.0 
0.0 0.0 -5.016550249190e+01 
-1.424647337698e+02 3.569925496643e+00 0.0 
3.569925496643e+00 -3.309433426470e+02 0.0 
0.0 0.0 -1.416224229250e+02 
-5.030800867294e+01 3.207336866534e-01 0.0 
3.207336866534e-01 -1.270062176183e+02 0.0 
0.0 0.0 -5.279426788736e+01 
-3.922572299023e+01 -6.545675139688e-01 0.0 
-6.545675139688e-01 -9.940086866368e+01 0.0 
0.0 0.0 -4.118797749617e+01 
-1.294443539413e+02 -4.279907445749e-01 0.0 
-4.279907445749e-01 -3.123451870407e+02 0.0 
0.0 0.0 -1.321368622946e+02 
-2.355974555529e+01 -4.903242436520e-01 0.0 
-4.903242436520e-01 -5.880413279276e+01 0.0 
0.0 0.0 -2.430916350442e+01 
-1.421048090424e+02 1.468766996463e+00 0.0 
1.468766996463e+00 -3.316743719912e+02 0.0 
0.0 0.0 -1.417337543101e+02 
-1.387043049059e+01 -1.240696914545e-01 0.0 
-1.240696914545e-01 -2.250450538821e+01 0.0 
0.0 0.0 -1.051248076364e+01 
-1.396006518707e+02 6.363295039666e+00 0.0 
6.363295039666e+00 -3.270443827811e+02 0.0 
0.0 0.0 -1.395935103955e+02 
-5.632742791325e+01 4.083054218052e+00 0.0 
4.083054218052e+00 -1.215075351021e+02 0.0 
0.0 0.0 -5.295048890460e+01 
-2.717743943137e+01 1.870599732899e-01 0.0 
1.870599732899e-01 -7.275218668088e+01 0.0 
0.0 0.0 -2.957888783367e+01 
-1.525008928583e+02 1.990266409234e+00 0.0 
1.990266409234e+00 -3.611063302558e+02 0.0 
0.0 0.0 -1.536821669343e+02 
-4.936717936868e+01 1.092244630775e+00 0.0 
1.092244630775e+00 -1.040829948251e+02 0.0 
0.0 0.0 -4.563505225813e+01 
-1.146545056756e+01 -5.360828687937e-01 0.0 
-5.360828687937e-01 -2.116154081070e+01 0.0 
0.0 0.0 -1.009005136823e+01 
-1.439233880377e+02 5.432358765091e+00 0.0 
5.432358765091e+00 -3.324954714749e+02 0.0 
0.0 0.0 -1.425256578538e+02 
-2.536334669787e+01 -1.940295038394e-01 0.0 
-1.940295038394e-01 -6.344901763482e+01 0.0 
0.0 0.0 -2.624370929981e+01 
-1.448192406749e+02 6.274320911384e+00 0.0 
6.274320911384e+00 -3.368461241411e+02 0.0 
0.0 0.0 -1.440996094448e+02 
-1.121928706451e+02 1.192845541522e+00 0.0 
1.192845541522e+00 -2.741296857569e+02 0.0 
0.0 0.0 -1.154967669206e+02 
-1.476119133712e+02 2.302493185020e+00 0.0 
2.302493185020e+00 -3.457611311996e+02 0.0 
0.0 0.0 -1.476119133712e+02 
-1.407155233870e+02 6.904999516825e+00 0.0 
6.904999516825e+00 -3.275169380662e+02 0.0 
0.0 0.0 -1.400697384360e+02 
-1.181482592858e+01 -9.322249907187e-01 0.0 
-9.322249907187e-01 -2.973289222332e+01 0.0 
0.0 0.0 -1.206431544557e+01 
-5.218146458954e+01 -7.209419985849e-01 0.0 
-7.209419985849e-01 -1.323040660128e+02 0.0 
0.0 0.0 -5.494565918069e+01 
-1.402905339155e+02 2.402056853615e+00 0.0 
2.402056853615e+00 -3.257106101204e+02 0.0 
0.0 0.0 -1.394003432108e+02 
-1.431508180452e+02 3.854755145513e+00 0.0 
3.854755145513e+00 -3.316050234626e+02 0.0 
0.0 0.0 -1.420267524523e+02 
-1.860601928640e+01 9.408099176085e+00 0.0 
9.408099176085e+00 -3.598895846965e+01 0.0 
0.0 0.0 -1.597849332681e+01 
-2.337345285002e+01 -4.484113601740e-01 0.0 
-4.484113601740e-01 -5.894067245231e+01 0.0 
0.0 0.0 -2.429423759070e+01 
-1.748187835191e+01 5.589332413419e+00 0.0 
5.589332413419e+00 -3.573882752335e+01 0.0 
0.0 0.0 -1.556621176258e+01 
-2.450123188512e+01 -1.499004304000e+00 0.0 
-1.499004304000e+00 -6.279589812009e+01 0.0 
0.0 0.0 -2.578913900156e+01 
-8.159000591718e+01 2.217642928900e-01 0.0 
2.217642928900e-01 -1.827900875502e+02 0.0 
0.0 0.0 -7.891402804020e+01 
-4.673413214974e+01 3.122916601851e+00 0.0 
3.122916601851e+00 -9.759783017205e+01 0.0 
0.0 0.0 -4.289958869654e+01 
-4.017994501169e+01 1.798361282521e+00 0.0 
1.798361282521e+00 -8.301107917145e+01 0.0 
0.0 0.0 -3.655730725494e+01 
-8.756775318811e+01 1.351873129261e+00 0.0 
1.351873129261e+00 -1.982170563947e+02 0.0 
0.0 0.0 -8.533544287483e+01 
-8.735119709539e+01 -5.706479117874e-01 0.0 
-5.706479117874e-01 -1.980963195215e+02 0.0 
0.0 0.0 -8.523425498507e+01 
-1.159722079704e+02 1.088923060505e+00 0.0 
1.088923060505e+00 -2.826287024313e+02 0.0 
0.0 0.0 -1.191802731205e+02 
-1.256896235622e+02 -7.257617175871e-01 0.0 
-7.257617175871e-01 -3.040518362881e+02 0.0 
0.0 0.0 -1.285224379551e+02 
-1.227815278378e+02 5.108558900108e+00 0.0 
5.108558900108e+00 -2.782136398155e+02 0.0 
0.0 0.0 -1.198985502960e+02 
-8.305128196592e+01 1.514213572542e+00 0.0 
1.514213572542e+00 -1.866124617559e+02 0.0 
0.0 0.0 -8.049912311654e+01 
-1.172013432823e+01 -7.077190519080e-01 0.0 
-7.077190519080e-01 -2.573546363268e+01 0.0 
0.0 0.0 -1.119279460761e+01 
-8.341468302557e+01 8.959200909549e-01 0.0 
8.959200909549e-01 -1.846720557882e+02 0.0 
0.0 0.0 -8.002602164414e+01 
-1.152057211613e+02 6.443320950280e-01 0.0 
6.443320950280e-01 -2.660913400280e+02 0.0 
0.0 0.0 -1.139891183568e+02 
-1.140617266163e+02 -1.792036152448e-01 0.0 
-1.792036152448e-01 -2.625627960125e+02 0.0 
0.0 0.0 -1.125873567886e+02 
-1.485834936628e+02 2.587259962229e+00 0.0 
2.587259962229e+00 -3.464170854512e+02 0.0 
0.0 0.0 -1.481001737342e+02 
-1.521991306094e+02 8.284363774964e+00 0.0 
8.284363774964e+00 -3.568543523486e+02 0.0 
0.0 0.0 -1.523160448874e+02 
-8.174874622399e+01 8.671758961261e-01 0.0 
8.671758961261e-01 -1.824053935202e+02 0.0 
0.0 0.0 -7.884624192325e+01 
-1.521581412278e+02 4.494328897170e+00 0.0 
4.494328897170e+00 -3.618270723113e+02 0.0 
0.0 0.0 -1.537955640617e+02 
-9.532819621165e+01 6.768011509860e-01 0.0 
6.768011509860e-01 -2.176538688675e+02 0.0 
0.0 0.0 -9.349461952374e+01 
-5.360675729675e+01 5.576083935153e+00 0.0 
5.576083935153e+00 -1.128551878158e+02 0.0 
0.0 0.0 -4.953858353377e+01 
-7.932538594340e+01 9.422130275045e-01 0.0 
9.422130275045e-01 -1.780484474986e+02 0.0 
0.0 0.0 -7.681215003260e+01 
-1.563894354362e+02 2.643127087387e-01 0.0 
2.643127087387e-01 -3.693396496434e+02 0.0 
0.0 0.0 -1.573187255239e+02 
-1.193359769691e+02 7.732862728121e+00 0.0 
7.732862728121e+00 -2.800023291697e+02 0.0 
0.0 0.0 -1.194014918417e+02 
-1.402601187901e+02 8.231022563991e+00 0.0 
8.231022563991e+00 -3.277491120012e+02 0.0 
0.0 0.0 -1.400027692374e+02 
-4.752401982444e+01 8.491029293456e+00 0.0 
8.491029293456e+00 -1.042805967263e+02 0.0 
0.0 0.0 -4.514138496523e+01 
-1.916981376348e+01 -8.018920378939e-01 0.0 
-8.018920378939e-01 -4.263236546298e+01 0.0 
0.0 0.0 -1.814065376794e+01 
-1.432310010041e+02 1.336867729278e+00 0.0 
1.336867729278e+00 -3.415532342836e+02 0.0 
0.0 0.0 -1.450352705863e+02 
-1.217194210450e+02 2.542340818129e-02 0.0 
2.542340818129e-02 -2.814324038565e+02 0.0 
0.0 0.0 -1.205455474705e+02 
-1.441846332385e+01 -4.830276285433e-01 0.0 
-4.830276285433e-01 -2.556848752481e+01 0.0 
0.0 0.0 -1.159608525460e+01 
-1.559126504341e+02 2.315086746046e+00 0.0 
2.315086746046e+00 -3.667390632718e+02 0.0 
0.0 0.0 -1.563955141118e+02 
-1.173910711177e+02 3.331928210939e+00 0.0 
3.331928210939e+00 -2.663727923698e+02 0.0 
0.0 0.0 -1.147291590463e+02 
-8.830842969057e+00 4.398730865138e-01 0.0 
4.398730865138e-01 -2.203158912933e+01 0.0 
0.0 0.0 -8.858729629516e+00 
-6.694970438907e+01 6.235607913362e+00 0.0 
6.235607913362e+00 -1.535169022771e+02 0.0 
0.0 0.0 -6.573998199986e+01 
-7.584096842791e+01 1.933298054153e+00 0.0 
1.933298054153e+00 -1.652227392711e+02 0.0 
0.0 0.0 -7.191911230969e+01 
-6.350827147739e+01 1.517186074032e-01 0.0 
1.517186074032e-01 -1.605877670797e+02 0.0 
0.0 0.0 -6.682881156714e+01 
-4.794394971916e+01 3.836121415047e+00 0.0 
3.836121415047e+00 -1.008372397079e+02 0.0 
0.0 0.0 -4.423435682812e+01 
-5.687909470411e+01 6.879652373984e+00 0.0 
6.879652373984e+00 -1.220428693003e+02 0.0 
0.0 0.0 -5.327658920131e+01 
-1.544242154604e+02 3.025879602250e+00 0.0 
3.025879602250e+00 -3.652362269615e+02 0.0 
0.0 0.0 -1.554981327266e+02 
-9.273213909267e+01 -6.621864229217e-01 0.0 
-6.621864229217e-01 -2.110976182533e+02 0.0 
0.0 0.0 -9.074892720379e+01 
-5.194352361620e+01 4.835646814323e+00 0.0 
4.835646814323e+00 -1.123181266527e+02 0.0 
0.0 0.0 -4.887849508067e+01 
-2.443161750779e+01 -7.851828772749e-02 0.0 
-7.851828772749e-02 -6.069943147014e+01 0.0 
0.0 0.0 -2.513931469338e+01 
-8.310527686773e+01 5.648955485226e-01 0.0 
5.648955485226e-01 -1.836886271558e+02 0.0 
0.0 0.0 -7.963817120705e+01 
-1.225880026190e+02 6.196166978584e-01 0.0 
6.196166978584e-01 -2.831336035816e+02 0.0 
0.0 0.0 -1.213164818602e+02 
-5.220101164546e+01 7.775591141665e+00 0.0 
7.775591141665e+00 -1.126301687692e+02 0.0 
0.0 0.0 -4.904935412440e+01 
-1.338775922509e+01 7.520939133734e+00 0.0 
7.520939133734e+00 -3.005872615201e+01 0.0 
0.0 0.0 -1.263394561313e+01 
-6.768217150157e+01 2.134079958776e+00 0.0 
2.134079958776e+00 -1.457964954163e+02 0.0 
0.0 0.0 -6.364360007537e+01 
-6.308317758877e+01 -3.818308790577e-01 0.0 
-3.818308790577e-01 -1.591681258215e+02 0.0 
0.0 0.0 -6.627539102308e+01 
-6.256014391552e+01 4.979965894990e-01 0.0 
4.979965894990e-01 -1.347923975059e+02 0.0 
0.0 0.0 -5.880576242641e+01 
-1.430276095466e+02 1.249150463887e+00 0.0 
1.249150463887e+00 -3.335529705755e+02 0.0 
0.0 0.0 -1.425741740366e+02 
-1.471953235635e+01 7.007980884903e+00 0.0 
7.007980884903e+00 -4.193700670113e+01 0.0 
0.0 0.0 -1.659696171724e+01 
-1.071095578610e+02 -2.937427967465e-01 0.0 
-2.937427967465e-01 -2.627032590363e+02 0.0 
0.0 0.0 -1.105438450692e+02 
-1.386818120866e+02 -5.068347283400e-01 0.0 
-5.068347283400e-01 -3.235110918744e+02 0.0 
0.0 0.0 -1.382578711883e+02 
-6.973256008041e+01 2.748560957860e+00 0.0 
2.748560957860e+00 -1.511100281555e+02 0.0 
0.0 0.0 -6.585277647077e+01 
-6.367848899424e+01 2.273050944599e+00 0.0 
2.273050944599e+00 -1.363241253320e+02 0.0 
0.0 0.0 -5.960078429786e+01 
-1.507350979659e+02 2.873153884370e+00 0.0 
2.873153884370e+00 -3.580021847306e+02 0.0 
0.0 0.0 -1.522211848090e+02 
-1.531104170699e+02 1.610689683588e+00 0.0 
1.610689683588e+00 -3.623597062848e+02 0.0 
0.0 0.0 -1.542410370064e+02 
-1.158747325737e+02 -2.641708365448e-01 0.0 
-2.641708365448e-01 -2.826392915975e+02 0.0 
0.0 0.0 -1.191542072514e+02 
-7.473800676036e+01 4.459452624546e+00 0.0 
4.459452624546e+00 -1.616828004740e+02 0.0 
0.0 0.0 -7.052624217030e+01 
-1.520344230400e+02 5.471533488077e+00 0.0 
5.471533488077e+00 -3.606411711902e+02 0.0 
0.0 0.0 -1.534026782691e+02 
-6.595651189419e+01 1.952608773710e+00 0.0 
1.952608773710e+00 -1.420885552741e+02 0.0 
0.0 0.0 -6.201352015049e+01 
-1.414223806189e+02 1.325185965477e+00 0.0 
1.325185965477e+00 -3.291030756902e+02 0.0 
0.0 0.0 -1.407576368927e+02 
-1.453764620813e+02 6.096950196308e+00 0.0 
6.096950196308e+00 -3.372435319256e+02 0.0 
0.0 0.0 -1.443859982021e+02 
-9.097375786703e+01 2.014772821555e+00 0.0 
2.014772821555e+00 -2.036609947318e+02 0.0 
0.0 0.0 -8.799042577966e+01 
-1.055941661692e+02 -4.121454865319e-01 0.0 
-4.121454865319e-01 -2.418695968093e+02 0.0 
0.0 0.0 -1.038391288935e+02 
-6.666656597076e+01 4.114965384234e+00 0.0 
4.114965384234e+00 -1.425224532583e+02 0.0 
0.0 0.0 -6.235670576872e+01 
-5.826500880165e+01 5.429466201537e-01 0.0 
5.429466201537e-01 -1.249948716605e+02 0.0 
0.0 0.0 -5.457796413865e+01 
-7.770092632501e+01 3.119624068566e+00 0.0 
3.119624068566e+00 -1.702100720799e+02 0.0 
0.0 0.0 -7.397329952146e+01 
-5.564290934475e+01 8.254796872469e+00 0.0 
8.254796872469e+00 -1.243791219916e+02 0.0 
0.0 0.0 -5.360660940090e+01 
-8.014877004041e+01 9.397969469190e-01 0.0 
9.397969469190e-01 -1.808374105406e+02 0.0 
0.0 0.0 -7.789585417431e+01 
-6.651856702090e+01 8.405872386499e+00 0.0 
8.405872386499e+00 -1.537141536112e+02 0.0 
0.0 0.0 -6.566981618964e+01 
-1.125839658988e+01 -3.783948943614e-01 0.0 
-3.783948943614e-01 -2.512803332549e+01 0.0 
0.0 0.0 -1.093410656670e+01 
-8.602888377374e+01 1.128543069001e-01 0.0 
1.128543069001e-01 -1.957771125134e+02 0.0 
0.0 0.0 -8.414179888614e+01 
-2.302087204326e+01 -1.632456652597e-01 0.0 
-1.632456652597e-01 -5.992107349205e+01 0.0 
0.0 0.0 -2.448258366059e+01 
-7.176512549615e+01 2.043405513595e+00 0.0 
2.043405513595e+00 -1.556228419957e+02 0.0 
0.0 0.0 -6.781639024756e+01 
-1.532869694717e+02 5.318511511568e+00 0.0 
5.318511511568e+00 -3.610963772754e+02 0.0 
0.0 0.0 -1.539150040241e+02 
-4.750435389330e+01 5.757049689038e+00 0.0 
5.757049689038e+00 -1.039834226937e+02 0.0 
0.0 0.0 -4.504633297610e+01 
-1.205629108004e+02 -5.463878311131e-01 0.0 
-5.463878311131e-01 -2.928980910604e+02 0.0 
0.0 0.0 -1.236383005582e+02 
-3.142102591314e+01 5.571409712444e+00 0.0 
5.571409712444e+00 -6.087224473370e+01 0.0 
0.0 0.0 -2.728798119405e+01 
-1.190925524699e+02 5.839152030662e+00 0.0 
5.839152030662e+00 -2.796536101517e+02 0.0 
0.0 0.0 -1.192238487865e+02 
-8.030598458516e+01 4.694622328447e-02 0.0 
4.694622328447e-02 -1.824077574540e+02 0.0 
0.0 0.0 -7.841412261176e+01 
-6.217245130868e+01 6.703835256909e+00 0.0 
6.703835256909e+00 -1.451901720625e+02 0.0 
0.0 0.0 -6.180878701136e+01 
-1.338839520491e+02 1.350210529199e+00 0.0 
1.350210529199e+00 -3.217726575756e+02 0.0 
0.0 0.0 -1.362969828874e+02 
-2.413903379124e+01 -1.439621855759e+00 0.0 
-1.439621855759e+00 -6.020737097653e+01 0.0 
0.0 0.0 -2.490392143033e+01 
-1.430704156301e+02 -2.374200079104e-01 0.0 
-2.374200079104e-01 -3.412468341927e+02 0.0 
0.0 0.0 -1.448951749468e+02 
-8.250543091041e+01 1.229784340483e+00 0.0 
1.229784340483e+00 -1.815440416858e+02 0.0 
0.0 0.0 -7.881484177885e+01 
-1.540081018354e+02 1.788342498196e+00 0.0 
1.788342498196e+00 -3.655252043135e+02 0.0 
0.0 0.0 -1.554599918447e+02 
-7.983772091657e+01 -6.812069769303e-02 0.0 
-6.812069769303e-02 -1.813295278325e+02 0.0 
0.0 0.0 -7.795017462473e+01 
-5.089435543622e+01 6.679529713663e+00 0.0 
6.679529713663e+00 -1.147213252579e+02 0.0 
0.0 0.0 -4.928470420825e+01 
-7.095495778823e+01 4.152401397004e-01 0.0 
4.152401397004e-01 -1.543867218518e+02 0.0 
0.0 0.0 -6.720250389199e+01 
-1.018737057027e+02 6.305836953582e-01 0.0 
6.305836953582e-01 -2.516324135203e+02 0.0 
0.0 0.0 -1.056518357669e+02 
-2.986373951249e+01 2.217418061957e+00 0.0 
2.217418061957e+00 -6.158036646401e+01 0.0 
0.0 0.0 -2.703323179295e+01 
-6.162429179603e+01 8.612692499646e+00 0.0 
8.612692499646e+00 -1.453276875759e+02 0.0 
0.0 0.0 -6.168559381158e+01 
-1.098942941509e+02 1.282825096396e+00 0.0 
1.282825096396e+00 -2.524718762730e+02 0.0 
0.0 0.0 -1.083098511272e+02 
-7.979905418576e+01 -5.432739709580e-01 0.0 
-5.432739709580e-01 -1.811468718815e+02 0.0 
0.0 0.0 -7.788377782019e+01 
-5.880532453828e+01 6.521230711112e+00 0.0 
6.521230711112e+00 -1.338109589193e+02 0.0 
0.0 0.0 -5.738488503729e+01 
-6.654799084334e+01 4.731879822803e-01 0.0 
4.731879822803e-01 -1.443980932769e+02 0.0 
0.0 0.0 -6.288382523607e+01 
-1.287689956226e+02 4.658626901835e+00 0.0 
4.658626901835e+00 -2.953894088883e+02 0.0 
0.0 0.0 -1.268475213533e+02 
-7.072645713045e+01 2.182059513678e-01 0.0 
2.182059513678e-01 -1.774428592515e+02 0.0 
0.0 0.0 -7.405079491457e+01 
-1.472524429731e+02 7.132792218321e+00 0.0 
7.132792218321e+00 -3.437419349774e+02 0.0 
0.0 0.0 -1.468983133851e+02 
-1.458620216151e+02 6.878273728706e+00 0.0 
6.878273728706e+00 -3.380751127477e+02 0.0 
0.0 0.0 -1.447811403088e+02 
-4.558679574322e+01 5.130611346228e+00 0.0 
5.130611346228e+00 -9.391824971708e+01 0.0 
0.0 0.0 -4.145151363809e+01 
-7.122165371220e+01 -2.997717819101e-01 0.0 
-2.997717819101e-01 -1.785851980449e+02 0.0 
0.0 0.0 -7.454205552714e+01 
-1.345178116110e+02 6.815554157390e+00 0.0 
6.815554157390e+00 -3.209196504245e+02 0.0 
0.0 0.0 -1.362312386106e+02 
-6.297688430449e+01 3.227461854605e+00 0.0 
3.227461854605e+00 -1.340409655427e+02 0.0 
0.0 0.0 -5.870535495417e+01 
-3.914757669736e+01 3.111272818610e+00 0.0 
3.111272818610e+00 -8.073743439399e+01 0.0 
0.0 0.0 -3.556550332741e+01 
-7.874441248822e+01 7.513501484946e-01 0.0 
7.513501484946e-01 -1.730323832555e+02 0.0 
0.0 0.0 -7.513303872311e+01 
-6.361412970345e+01 8.086933686918e+00 0.0 
8.086933686918e+00 -1.437562837457e+02 0.0 
0.0 0.0 -6.181112403476e+01 
-1.404912141019e+02 4.290930905389e-01 0.0 
4.290930905389e-01 -3.281358654759e+02 0.0 
0.0 0.0 -1.401881238733e+02 
-1.179364110463e+02 2.711937153480e+00 0.0 
2.711937153480e+00 -2.677493543086e+02 0.0 
0.0 0.0 -1.153057296065e+02 
-1.386023589791e+02 -5.768199985947e-01 0.0 
-5.768199985947e-01 -3.318723189995e+02 0.0 
0.0 0.0 -1.407424033936e+02 
-2.311001833751e+01 8.078422256876e+00 0.0 
8.078422256876e+00 -4.340818949746e+01 0.0 
0.0 0.0 -1.955546235049e+01 
-5.689257717986e+01 8.532785337824e+00 0.0 
8.532785337824e+00 -1.376368973118e+02 0.0 
0.0 0.0 -5.795884234750e+01 
-1.217126354178e+02 3.210508835166e+00 0.0 
3.210508835166e+00 -2.770699609406e+02 0.0 
0.0 0.0 -1.192347789075e+02 
-9.828423897630e+00 1.686951220120e+00 0.0 
1.686951220120e+00 -5.057383434269e+00 0.0 
0.0 0.0 -4.065742199570e+00 
-6.220647404482e+01 1.313464235595e+00 0.0 
1.313464235595e+00 -1.336586817511e+02 0.0 
0.0 0.0 -5.835954673878e+01 
-1.255296913580e+02 5.984229068115e+00 0.0 
5.984229068115e+00 -3.026469592694e+02 0.0 
0.0 0.0 -1.280529951882e+02 
-1.700029733603e+01 -1.322587792702e-01 0.0 
-1.322587792702e-01 -4.240987106173e+01 0.0 
0.0 0.0 -1.742305051933e+01 
-1.413705736987e+02 3.123517847573e+00 0.0 
3.123517847573e+00 -3.270568742702e+02 0.0 
0.0 0.0 -1.401282343906e+02 
-1.067737010896e+02 1.378691676309e+00 0.0 
1.378691676309e+00 -2.407810680317e+02 0.0 
0.0 0.0 -1.038664307364e+02 
-6.480380335718e+01 1.091237676772e-01 0.0 
1.091237676772e-01 -1.670192105641e+02 0.0 
0.0 0.0 -6.914690417640e+01 
-1.249679040188e+02 4.289481426705e+00 0.0 
4.289481426705e+00 -3.022420229013e+02 0.0 
0.0 0.0 -1.277629780760e+02 
-8.979407747554e+01 1.371850304268e+00 0.0 
1.371850304268e+00 -1.994774655684e+02 0.0 
0.0 0.0 -8.638146291318e+01 
-9.633549578627e+01 1.911379116810e+00 0.0 
1.911379116810e+00 -2.150389339641e+02 0.0 
0.0 0.0 -9.301232892511e+01 
-1.469563003916e+02 6.073557298810e+00 0.0 
6.073557298810e+00 -3.482185503483e+02 0.0 
0.0 0.0 -1.481524552220e+02 
-4.889945388892e+01 -1.018797764585e+00 0.0 
-1.018797764585e+00 -1.262216588364e+02 0.0 
0.0 0.0 -5.213633381761e+01 
-8.140262197200e+01 3.815221377160e+00 0.0 
3.815221377160e+00 -1.797919096542e+02 0.0 
0.0 0.0 -7.795835948787e+01 
-8.635012998819e+01 1.777970185154e+00 0.0 
1.777970185154e+00 -1.903713677751e+02 0.0 
0.0 0.0 -8.261644932900e+01 
-1.117477320946e+02 3.082429903923e+00 0.0 
3.082429903923e+00 -2.519789364361e+02 0.0 
0.0 0.0 -1.087180005592e+02 
-8.741282771953e+01 2.933377465853e+00 0.0 
2.933377465853e+00 -1.921689478140e+02 0.0 
0.0 0.0 -8.347453266005e+01 
-7.947331350339e+01 2.455214898982e+00 0.0 
2.455214898982e+00 -1.733309431067e+02 0.0 
0.0 0.0 -7.544127698303e+01 
-1.061291645093e+02 7.496928868839e+00 0.0 
7.496928868839e+00 -2.513138359951e+02 0.0 
0.0 0.0 -1.068329001513e+02 
-1.255219643075e+02 6.098099787482e+00 0.0 
6.098099787482e+00 -2.857904968995e+02 0.0 
0.0 0.0 -1.229937383621e+02 
-1.286829246624e+01 1.720030980774e+00 0.0 
1.720030980774e+00 -2.225950225536e+01 0.0 
0.0 0.0 -1.013833841648e+01 
-4.520630072576e+01 3.065802004905e+00 0.0 
3.065802004905e+00 -9.411802074904e+01 0.0 
0.0 0.0 -4.139729644244e+01 
-5.263241407158e+01 3.196088964106e+00 0.0 
3.196088964106e+00 -1.118872856088e+02 0.0 
0.0 0.0 -4.895590990410e+01 
-7.833331028557e+01 5.220947413791e+00 0.0 
5.220947413791e+00 -1.708877921056e+02 0.0 
0.0 0.0 -7.436633071736e+01 
-1.231639141129e+02 4.487731829742e+00 0.0 
4.487731829742e+00 -2.794165668977e+02 0.0 
0.0 0.0 -1.203741443032e+02 
-2.071154798524e+01 4.448184271514e+00 0.0 
4.448184271514e+00 -6.098735449962e+01 0.0 
0.0 0.0 -2.410967074546e+01 
-1.208031372785e+02 5.429778482042e+00 0.0 
5.429778482042e+00 -2.929850921956e+02 0.0 
0.0 0.0 -1.237364688422e+02 
-7.958354671122e+01 1.026518505952e+00 0.0 
1.026518505952e+00 -1.798569565643e+02 0.0 
0.0 0.0 -7.743215098267e+01 
-5.753669665014e+01 6.991892813665e+00 0.0 
6.991892813665e+00 -1.375997063236e+02 0.0 
0.0 0.0 -5.814092089213e+01 
-1.161594801407e+02 4.866248039537e+00 0.0 
4.866248039537e+00 -2.833484011678e+02 0.0 
0.0 0.0 -1.194523643925e+02 
-1.220194142411e+01 1.947956576870e-01 0.0 
1.947956576870e-01 -2.870255600516e+01 0.0 
0.0 0.0 -1.187134922878e+01 
-1.146677554786e+02 1.726083772474e+00 0.0 
1.726083772474e+00 -2.602211036154e+02 0.0 
0.0 0.0 -1.120666577282e+02 
-1.087637080958e+01 -6.024817041551e-01 0.0 
-6.024817041551e-01 -2.397709561739e+01 0.0 
0.0 0.0 -1.005603992809e+01 
-1.700544952313e+01 -4.560966624275e-01 0.0 
-4.560966624275e-01 -4.292145978810e+01 0.0 
0.0 0.0 -1.757807279337e+01 
-2.141232717181e+01 4.084586566088e+00 0.0 
4.084586566088e+00 -4.297022739491e+01 0.0 
0.0 0.0 -1.891476637002e+01 
-4.139147317826e+01 -1.142934319824e+00 0.0 
-1.142934319824e+00 -1.069628659879e+02 0.0 
0.0 0.0 -4.410630174985e+01 
-1.195887036914e+02 3.400575073041e+00 0.0 
3.400575073041e+00 -2.713981666281e+02 0.0 
0.0 0.0 -1.168960610958e+02 
-3.933169275613e+01 2.735237226201e-02 0.0 
2.735237226201e-02 -1.003839133959e+02 0.0 
0.0 0.0 -4.151468184562e+01 
-3.043886325056e+01 7.677698018681e+00 0.0 
7.677698018681e+00 -6.959010957451e+01 0.0 
0.0 0.0 -2.960869184752e+01 
-3.026082570081e+01 2.588178482005e-01 0.0 
2.588178482005e-01 -7.836903577550e+01 0.0 
0.0 0.0 -3.218895844289e+01 
-2.696716868553e+01 -1.462331011420e+00 0.0 
-1.462331011420e+00 -6.832573116922e+01 0.0 
0.0 0.0 -2.818786995642e+01 
-1.294549146313e+02 4.861342191743e+00 0.0 
4.861342191743e+00 -3.111910791065e+02 0.0 
0.0 0.0 -1.317937981213e+02 
-8.328822883046e+01 3.091567361771e+00 0.0 
3.091567361771e+00 -1.819825852802e+02 0.0 
0.0 0.0 -7.918124423319e+01 
-1.523035493796e+02 3.867131905643e-01 0.0 
3.867131905643e-01 -3.611481735702e+02 0.0 
0.0 0.0 -1.536355168849e+02 
-8.049836280583e+00 6.863583612622e-01 0.0 
6.863583612622e-01 -8.547472003941e+00 0.0 
0.0 0.0 -5.520892010210e+00 
-3.828295873558e+01 7.520255430652e+00 0.0 
7.520255430652e+00 -8.826716922046e+01 0.0 
0.0 0.0 -3.756503838681e+01 
-6.574270535205e+01 6.651376483783e+00 0.0 
6.651376483783e+00 -1.567199682577e+02 0.0 
0.0 0.0 -6.633880208293e+01 
-5.762019726596e+01 1.417455094396e+00 0.0 
1.417455094396e+00 -1.229221851226e+02 0.0 
0.0 0.0 -5.376271471658e+01 
-1.202695495394e+02 3.847594496476e+00 0.0 
3.847594496476e+00 -2.926017874292e+02 0.0 
0.0 0.0 -1.234614010906e+02 
-1.548788243590e+02 1.339831456397e+00 0.0 
1.339831456397e+00 -3.671234864717e+02 0.0 
0.0 0.0 -1.562006932492e+02 
-1.152712261877e+02 4.088672383880e+00 0.0 
4.088672383880e+00 -2.596723609180e+02 0.0 
0.0 0.0 -1.120830761317e+02 
-4.425689623675e+01 8.279756549146e+00 0.0 
8.279756549146e+00 -1.118334295445e+02 0.0 
0.0 0.0 -4.642709773437e+01 
-1.298154454084e+02 6.307463005959e+00 0.0 
6.307463005959e+00 -3.113598028271e+02 0.0 
0.0 0.0 -1.319525744707e+02 
-1.112634616165e+02 -7.932796394282e-01 0.0 
-7.932796394282e-01 -2.723288706317e+02 0.0 
0.0 0.0 -1.146776996745e+02 
-8.262898128482e+01 4.816096323118e+00 0.0 
4.816096323118e+00 -1.806690292626e+02 0.0 
0.0 0.0 -7.858940316424e+01 
-1.104527633784e+02 1.745539031414e+00 0.0 
1.745539031414e+00 -2.494858351107e+02 0.0 
0.0 0.0 -1.075815795467e+02 
-1.433321147594e+02 8.002449689450e+00 0.0 
8.002449689450e+00 -3.342505350595e+02 0.0 
0.0 0.0 -1.428747949457e+02 
-6.520223472062e+01 8.315040415868e+00 0.0 
8.315040415868e+00 -1.568408321872e+02 0.0 
0.0 0.0 -6.621292007235e+01 
-3.440312064566e+01 9.331613829089e+00 0.0 
9.331613829089e+00 -7.618922460529e+01 0.0 
0.0 0.0 -3.277770357528e+01 
-9.532115186696e+01 3.361316722471e+00 0.0 
3.361316722471e+00 -2.109602584574e+02 0.0 
0.0 0.0 -9.148442309731e+01 
-1.485292891831e+02 1.827544106234e+00 0.0 
1.827544106234e+00 -3.466644191560e+02 0.0 
0.0 0.0 -1.481581125017e+02 
-8.185747280018e+01 5.929189563413e+00 0.0 
5.929189563413e+00 -1.803665941565e+02 0.0 
0.0 0.0 -7.826722008701e+01 
-8.500728373210e+01 7.500274568996e+00 0.0 
7.500274568996e+00 -2.049773770292e+02 0.0 
0.0 0.0 -8.659539822840e+01 
-8.765957034705e+01 3.487765551770e-01 0.0 
3.487765551770e-01 -1.995382725753e+02 0.0 
0.0 0.0 -8.575935287670e+01 
-2.368208448573e+01 -5.224528178020e-01 0.0 
-5.224528178020e-01 -5.738361218874e+01 0.0 
0.0 0.0 -2.391970900234e+01 
-8.641001877413e+01 1.125058145653e+00 0.0 
1.125058145653e+00 -1.913354578259e+02 0.0 
0.0 0.0 -8.292364298001e+01 
-4.478050456728e+01 7.184571054912e+00 0.0 
7.184571054912e+00 -1.118188187607e+02 0.0 
0.0 0.0 -4.657979699840e+01 
-2.800084556228e+01 5.200959587847e+00 0.0 
5.200959587847e+00 -7.932699893458e+01 0.0 
0.0 0.0 -3.179835334906e+01 
-2.350504945171e+01 4.941019003671e-01 0.0 
4.941019003671e-01 -6.191704021081e+01 0.0 
0.0 0.0 -2.522662689876e+01 
-1.187385718316e+02 1.713022811653e+00 0.0 
1.713022811653e+00 -2.707256628001e+02 0.0 
0.0 0.0 -1.164392703895e+02 
-9.126319578804e+01 3.462006796480e+00 0.0 
3.462006796480e+00 -2.010171544692e+02 0.0 
0.0 0.0 -8.728410507718e+01 
-5.595941319570e+01 5.920972418091e+00 0.0 
5.920972418091e+00 -1.239755425757e+02 0.0 
0.0 0.0 -5.358048673141e+01 
-1.235999180843e+02 3.347555198920e+00 0.0 
3.347555198920e+00 -2.818432727512e+02 0.0 
0.0 0.0 -1.212329572507e+02 
-1.190289418519e+02 4.584884283125e+00 0.0 
4.584884283125e+00 -2.687552864955e+02 0.0 
0.0 0.0 -1.159352685042e+02 
-8.680887599838e+01 4.486692729116e+00 0.0 
4.486692729116e+00 -1.903793410070e+02 0.0 
0.0 0.0 -8.275646510162e+01 
-1.557776106009e+02 2.479967430307e+00 0.0 
2.479967430307e+00 -3.666848682106e+02 0.0 
0.0 0.0 -1.563387436434e+02 
-8.891011768756e+01 5.756392103329e+00 0.0 
5.756392103329e+00 -2.152066214440e+02 0.0 
0.0 0.0 -9.083502173946e+01 
-9.095406384217e+01 4.236634700924e+00 0.0 
4.236634700924e+00 -2.001205366421e+02 0.0 
0.0 0.0 -8.692238014529e+01 
-7.163577863855e+01 7.895215118619e+00 0.0 
7.895215118619e+00 -1.631351157899e+02 0.0 
0.0 0.0 -7.003126832854e+01 
-9.327480909879e+01 7.420364200232e+00 0.0 
7.420364200232e+00 -2.238143083705e+02 0.0 
0.0 0.0 -9.472673524078e+01 
-3.555806893032e+01 5.503844344145e+00 0.0 
5.503844344145e+00 -9.696944632606e+01 0.0 
0.0 0.0 -3.935825457691e+01 
-8.218030779899e+01 5.867305695341e-01 0.0 
5.867305695341e-01 -1.830530718122e+02 0.0 
0.0 0.0 -7.917001388337e+01 
-6.863162065179e+01 7.819522968860e+00 0.0 
7.819522968860e+00 -1.675615674695e+02 0.0 
0.0 0.0 -7.045795643639e+01 
-4.770139310142e+01 3.643900516120e+00 0.0 
3.643900516120e+00 -1.261783779845e+02 0.0 
0.0 0.0 -5.176393132578e+01 
-1.142595253000e+02 2.242030478958e+00 0.0 
2.242030478958e+00 -2.587444697050e+02 0.0 
0.0 0.0 -1.115011985015e+02 
-1.182777222032e+01 2.377159323822e-01 0.0 
2.377159323822e-01 -6.765913006620e+00 0.0 
0.0 0.0 -5.178105568082e+00 
-9.148159430201e+01 2.913934310679e+00 0.0 
2.913934310679e+00 -2.021385362236e+02 0.0 
0.0 0.0 -8.768603915770e+01 
-4.812936645724e+01 6.501951827765e+00 0.0 
6.501951827765e+00 -1.227227793560e+02 0.0 
0.0 0.0 -5.085564374397e+01 
-3.747815215321e+01 9.479309129735e+00 0.0 
9.479309129735e+00 -8.831508221575e+01 0.0 
0.0 0.0 -3.733797031069e+01 
-3.620367870669e+01 5.961876801958e+00 0.0 
5.961876801958e+00 -9.735371191112e+01 0.0 
0.0 0.0 -3.966721718534e+01 
-9.825354769828e+01 2.045928388156e+00 0.0 
2.045928388156e+00 -2.191704678479e+02 0.0 
0.0 0.0 -9.482720466385e+01 
-1.783411953857e+01 -5.036282798123e-01 0.0 
-5.036282798123e-01 -4.134717501136e+01 0.0 
0.0 0.0 -1.735438836498e+01 
-5.720638975884e+01 2.690547857537e+00 0.0 
2.690547857537e+00 -1.219926842176e+02 0.0 
0.0 0.0 -5.335972219294e+01 
-9.718536000385e+01 5.687631333565e+00 0.0 
5.687631333565e+00 -2.340580098543e+02 0.0 
0.0 0.0 -9.897301095744e+01 
-9.031050768111e+01 1.634450399890e+00 0.0 
1.634450399890e+00 -2.001611805599e+02 0.0 
0.0 0.0 -8.674150647232e+01 
-8.954380467155e+01 1.216572068594e+00 0.0 
1.216572068594e+00 -2.001585872461e+02 0.0 
0.0 0.0 -8.651071757530e+01 
-1.794650289836e+01 2.826080718695e+00 0.0 
2.826080718695e+00 -5.317110917530e+01 0.0 
0.0 0.0 -2.093528362210e+01 
-4.667314286434e+01 2.948875986569e+00 0.0 
2.948875986569e+00 -1.255893112670e+02 0.0 
0.0 0.0 -5.127873623939e+01 
-4.400604091214e+01 2.631513907294e+00 0.0 
2.631513907294e+00 -1.168392639922e+02 0.0 
0.0 0.0 -4.785359147132e+01 
-4.979885746880e+01 4.645243122015e+00 0.0 
4.645243122015e+00 -1.036558856052e+02 0.0 
0.0 0.0 -4.563642292221e+01 
-1.113930113366e+02 3.646384406806e+00 0.0 
3.646384406806e+00 -2.503928446716e+02 0.0 
0.0 0.0 -1.081357568024e+02 
-5.803659640309e+01 5.085296362608e+00 0.0 
5.085296362608e+00 -1.228579316031e+02 0.0 
0.0 0.0 -5.386835840185e+01 
-6.434449287094e+01 6.189734175760e+00 0.0 
6.189734175760e+00 -1.593160045744e+02 0.0 
0.0 0.0 -6.669814923360e+01 
-6.094919111633e+01 6.665397263936e+00 0.0 
6.665397263936e+00 -1.487292921066e+02 0.0 
0.0 0.0 -6.250354496688e+01 
-2.241622308639e+01 4.555592600668e+00 0.0 
4.555592600668e+00 -6.172965543334e+01 0.0 
0.0 0.0 -2.484376355592e+01 
-7.521645316706e+01 6.152994915005e+00 0.0 
6.152994915005e+00 -1.733239906307e+02 0.0 
0.0 0.0 -7.416213313933e+01 
-2.215073461129e+01 9.876495473905e+00 0.0 
9.876495473905e+00 -5.098267685426e+01 0.0 
0.0 0.0 -2.154002343967e+01 
-1.498873749526e+02 3.999201478100e+00 0.0 
3.999201478100e+00 -3.483796814844e+02 0.0 
0.0 0.0 -1.490801169311e+02 
-1.496203187276e+02 4.900856568566e+00 0.0 
4.900856568566e+00 -3.485384941456e+02 0.0 
0.0 0.0 -1.490476438619e+02 
-8.508102149379e+01 4.450852617624e+00 0.0 
4.450852617624e+00 -1.897434210369e+02 0.0 
0.0 0.0 -8.204733275919e+01 
-4.008691650734e+01 6.575578861770e+00 0.0 
6.575578861770e+00 -1.046575814048e+02 0.0 
0.0 0.0 -4.302334937365e+01 
-3.293414137049e+01 9.210036391932e+00 0.0 
9.210036391932e+00 -8.195982511953e+01 0.0 
0.0 0.0 -3.406818994701e+01 
-9.391015204251e+01 2.897414366940e+00 0.0 
2.897414366940e+00 -2.086457652521e+02 0.0 
0.0 0.0 -9.036677518837e+01 
-3.642650404853e+01 8.334973067513e+00 0.0 
8.334973067513e+00 -9.378360926823e+01 0.0 
0.0 0.0 -3.866303399503e+01 
-4.277767822340e+01 1.852093806235e+00 0.0 
1.852093806235e+00 -1.161455854160e+02 0.0 
0.0 0.0 -4.727697909183e+01 
-8.188745048077e+01 2.806517491672e+00 0.0 
2.806517491672e+00 -1.798438229570e+02 0.0 
0.0 0.0 -7.811938203132e+01 
-1.415437293074e+02 1.577993672101e+00 0.0 
1.577993672101e+00 -3.296241907859e+02 0.0 
0.0 0.0 -1.409503760280e+02 
-5.282346161829e+01 6.919356161574e+00 0.0 
6.919356161574e+00 -1.301576004422e+02 0.0 
0.0 0.0 -5.449431861814e+01 
-1.061918318162e+02 5.908692730531e+00 0.0 
5.908692730531e+00 -2.510673638453e+02 0.0 
0.0 0.0 -1.067777586985e+02 
-2.581480140315e+01 8.014911918119e+00 0.0 
8.014911918119e+00 -6.401826693286e+01 0.0 
0.0 0.0 -2.654992050080e+01 
-1.589345671866e+02 6.800559025838e+00 0.0 
6.800559025838e+00 -3.741604602294e+02 0.0 
0.0 0.0 -1.595285082248e+02 
-3.680268289134e+01 7.379882327343e+00 0.0 
7.379882327343e+00 -9.372184046277e+01 0.0 
0.0 0.0 -3.875735700623e+01 
-8.563021292914e+01 3.444634949658e+00 0.0 
3.444634949658e+00 -1.893325199094e+02 0.0 
0.0 0.0 -8.208881985155e+01 
-2.432951018941e+01 3.449416556067e+00 0.0 
3.449416556067e+00 -7.103690290942e+01 0.0 
0.0 0.0 -2.820992392965e+01 
-1.035583779064e+02 4.338967616046e+00 0.0 
4.338967616046e+00 -2.541910233161e+02 0.0 
0.0 0.0 -1.069248203668e+02 
-6.911698758478e+01 6.406030547878e+00 0.0 
6.406030547878e+00 -1.674444173800e+02 0.0 
0.0 0.0 -7.056842148944e+01 
-4.660421628873e+01 1.407863588267e+00 0.0 
1.407863588267e+00 -1.251983864735e+02 0.0 
0.0 0.0 -5.114078082866e+01 
-8.717381171936e+01 3.652381065125e+00 0.0 
3.652381065125e+00 -1.910656048663e+02 0.0 
0.0 0.0 -8.307182497571e+01 
-1.514899542756e+02 6.203834647606e+00 0.0 
6.203834647606e+00 -3.526427850560e+02 0.0 
0.0 0.0 -1.508398217995e+02 
-5.621849279265e+01 6.362135719165e+00 0.0 
6.362135719165e+00 -1.409420719154e+02 0.0 
0.0 0.0 -5.874816941242e+01 
-9.704922786186e+01 7.126154018618e+00 0.0 
7.126154018618e+00 -2.342901156286e+02 0.0 
0.0 0.0 -9.900180304714e+01 
-2.536449272615e+01 9.192112928479e+00 0.0 
9.192112928479e+00 -6.405716276392e+01 0.0 
0.0 0.0 -2.642649664702e+01 
-1.033217030126e+02 2.939152304411e-01 0.0 
2.939152304411e-01 -2.345316744536e+02 0.0 
0.0 0.0 -1.009560132399e+02 
-1.156095078460e+02 3.389690557787e+00 0.0 
3.389690557787e+00 -2.828476215945e+02 0.0 
0.0 0.0 -1.191371388322e+02 
-3.934228008284e+01 8.443230765869e+00 0.0 
8.443230765869e+00 -8.420349359673e+01 0.0 
0.0 0.0 -3.666373210387e+01 
-1.000426583557e+02 1.723576026609e+00 0.0 
1.723576026609e+00 -2.262215654409e+02 0.0 
0.0 0.0 -9.747926713896e+01 
-1.527027154334e+02 7.285216374200e+00 0.0 
7.285216374200e+00 -3.558643472723e+02 0.0 
0.0 0.0 -1.521701188117e+02 
-1.245779759829e+02 3.713973048006e+00 0.0 
3.713973048006e+00 -3.022103229663e+02 0.0 
0.0 0.0 -1.276364896848e+02 
-1.510728638679e+02 5.745630894428e+00 0.0 
5.745630894428e+00 -3.513578288073e+02 0.0 
0.0 0.0 -1.503292078026e+02 
-9.992180579852e+01 2.083295058293e+00 0.0 
2.083295058293e+00 -2.245182871482e+02 0.0 
0.0 0.0 -9.693202788402e+01 
-1.183621000066e+02 5.112192499995e+00 0.0 
5.112192499995e+00 -2.672968391576e+02 0.0 
0.0 0.0 -1.152976817492e+02 
-3.129798587474e+01 8.389468653197e+00 0.0 
8.389468653197e+00 -6.397457864454e+01 0.0 
0.0 0.0 -2.818176935578e+01 
-7.927012210735e+01 3.236756715525e+00 0.0 
3.236756715525e+00 -1.722968019823e+02 0.0 
0.0 0.0 -7.507007722689e+01 
-9.014587442293e+01 2.319434711379e+00 0.0 
2.319434711379e+00 -1.993860049673e+02 0.0 
0.0 0.0 -8.645956381708e+01 
-9.505790104959e+01 4.031830373756e+00 0.0 
4.031830373756e+00 -2.099836256434e+02 0.0 
0.0 0.0 -9.111245800789e+01 
-7.751381891621e+01 6.406379304756e+00 0.0 
6.406379304756e+00 -1.710567909578e+02 0.0 
0.0 0.0 -7.417118296219e+01 
-1.537149953593e+02 7.994170279822e+00 0.0 
7.994170279822e+00 -3.587874053476e+02 0.0 
0.0 0.0 -1.533507202120e+02 
-9.566365956512e+01 8.958564775120e-01 0.0 
8.958564775120e-01 -2.138379337186e+02 0.0 
0.0 0.0 -9.245047798513e+01 
-8.361994276886e+01 2.418071636285e+00 0.0 
2.418071636285e+00 -1.836216944296e+02 0.0 
0.0 0.0 -7.977249115954e+01 
-6.042826601144e+01 8.000007066881e+00 0.0 
8.000007066881e+00 -1.487980173584e+02 0.0 
0.0 0.0 -6.236788501097e+01 
-3.414900972476e+01 -1.368923778298e+00 0.0 
-1.368923778298e+00 -8.783541929304e+01 0.0 
0.0 0.0 -3.619532870534e+01 
-7.537352593826e+01 2.662069983968e+00 0.0 
2.662069983968e+00 -1.634240338810e+02 0.0 
0.0 0.0 -7.123926794579e+01 
-4.284450814824e+01 6.706667945710e+00 0.0 
6.706667945710e+00 -9.534874631980e+01 0.0 
0.0 0.0 -4.105797634041e+01 
-8.028710740066e+01 2.258266799488e-01 0.0 
2.258266799488e-01 -1.820557110773e+02 0.0 
0.0 0.0 -7.830284554337e+01 
-4.781234225262e+01 2.176553154917e+00 0.0 
2.176553154917e+00 -1.258740930945e+02 0.0 
0.0 0.0 -5.170593060412e+01 
-5.228463921084e+01 8.162626472076e+00 0.0 
8.162626472076e+00 -1.301829096844e+02 0.0 
0.0 0.0 -5.434026466857e+01 
-1.184195201062e+02 2.137598652610e+00 0.0 
2.137598652610e+00 -2.693200879922e+02 0.0 
0.0 0.0 -1.159218824295e+02 
-4.236221365676e+01 9.139221450195e+00 0.0 
9.139221450195e+00 -9.559707055992e+01 0.0 
0.0 0.0 -4.098778526500e+01 
-8.222186633780e+01 1.911900794721e+00 0.0 
1.911900794721e+00 -1.804834657472e+02 0.0 
0.0 0.0 -7.841159962549e+01 
-1.008138426238e+02 5.405785162794e+00 0.0 
5.405785162794e+00 -2.440571639880e+02 0.0 
0.0 0.0 -1.030613019835e+02 
-8.946201524342e+01 1.808994686554e+00 0.0 
1.808994686554e+00 -2.252334929096e+02 0.0 
0.0 0.0 -9.400865244590e+01 
-1.557470033529e+02 8.394377803577e+00 0.0 
8.394377803577e+00 -3.640715029520e+02 0.0 
0.0 0.0 -1.555455518915e+02 
-6.724466669684e+01 2.992611801553e+00 0.0 
2.992611801553e+00 -1.442356490494e+02 0.0 
0.0 0.0 -6.304409472386e+01 
-4.286252082599e+01 3.670750880216e+00 0.0 
3.670750880216e+00 -1.162412652921e+02 0.0 
0.0 0.0 -4.733113583543e+01 
-6.219564532413e+01 1.348640072880e+00 0.0 
1.348640072880e+00 -1.595610069145e+02 0.0 
0.0 0.0 -6.612699567158e+01 
-4.003489443810e+01 5.997902534418e+00 0.0 
5.997902534418e+00 -8.170734383295e+01 0.0 
0.0 0.0 -3.612267148132e+01 
-3.920910463274e+01 5.583179603197e+00 0.0 
5.583179603197e+00 -8.369662718089e+01 0.0 
0.0 0.0 -3.647171954409e+01 
-1.268193524509e+02 4.928385165946e+00 0.0 
4.928385165946e+00 -2.885891316263e+02 0.0 
0.0 0.0 -1.242225452232e+02 
-9.044993620269e+01 5.141259770508e+00 0.0 
5.141259770508e+00 -1.996146987903e+02 0.0 
0.0 0.0 -8.661939049791e+01 
-5.849394394218e+01 3.684084639835e+00 0.0 
3.684084639835e+00 -1.235645492305e+02 0.0 
0.0 0.0 -5.421754795180e+01 
-7.429501019284e+01 1.468798564199e+00 0.0 
1.468798564199e+00 -1.617670056485e+02 0.0 
0.0 0.0 -7.041860475241e+01 
-1.571397208078e+02 7.798207473451e+00 0.0 
7.798207473451e+00 -3.695513321891e+02 0.0 
0.0 0.0 -1.576073158991e+02 
-1.482608923282e+02 8.019944384361e+00 0.0 
8.019944384361e+00 -3.493241346119e+02 0.0 
0.0 0.0 -1.488755080820e+02 
-1.258647741956e+02 3.084723282590e+00 0.0 
3.084723282590e+00 -2.876132822450e+02 0.0 
0.0 0.0 -1.236434169322e+02 
-1.156112075359e+02 3.511593831481e+00 0.0 
3.511593831481e+00 -2.610648752097e+02 0.0 
0.0 0.0 -1.126028248237e+02 
-8.620075460445e+01 3.286596632776e+00 0.0 
3.286596632776e+00 -2.167719479989e+02 0.0 
0.0 0.0 -9.049181078101e+01 
-6.164224801590e+01 6.041903483575e+00 0.0 
6.041903483575e+00 -1.323313216867e+02 0.0 
0.0 0.0 -5.779207091078e+01 
-4.005669097537e+01 7.324341283248e+00 0.0 
7.324341283248e+00 -1.048145803702e+02 0.0 
0.0 0.0 -4.306138140367e+01 
-4.789745736600e+01 7.427566810023e+00 0.0 
7.427566810023e+00 -1.228273392102e+02 0.0 
0.0 0.0 -5.081743897286e+01 
-8.621095934818e+01 5.487470638389e+00 0.0 
5.487470638389e+00 -1.900101543976e+02 0.0 
0.0 0.0 -8.246633412374e+01 
-9.996031100101e+01 5.997130864227e+00 0.0 
5.997130864227e+00 -2.450634960332e+02 0.0 
0.0 0.0 -1.031071421103e+02 
-7.675206473037e+01 1.228990477397e+00 0.0 
1.228990477397e+00 -1.931749473834e+02 0.0 
0.0 0.0 -8.057810363414e+01 
-1.262083606638e+02 2.537374430480e+00 0.0 
2.537374430480e+00 -2.890480264419e+02 0.0 
0.0 0.0 -1.241769161317e+02 
-4.384582008272e+01 4.250890366744e+00 0.0 
4.250890366744e+00 -1.167870414874e+02 0.0 
0.0 0.0 -4.778985847105e+01 
-7.306417731839e+01 6.931088231750e+00 0.0 
6.931088231750e+00 -1.618828595787e+02 0.0 
0.0 0.0 -7.008411106913e+01 
-8.600415357807e+01 2.527471291994e+00 0.0 
2.527471291994e+00 -1.895004669516e+02 0.0 
0.0 0.0 -8.225138615891e+01 
-6.514400503121e+01 6.904705768568e+00 0.0 
6.904705768568e+00 -1.424322925141e+02 0.0 
0.0 0.0 -6.187288926361e+01 
-1.508879306334e+02 5.336882200307e+00 0.0 
5.336882200307e+00 -3.502150071651e+02 0.0 
0.0 0.0 -1.499308813396e+02 
-1.493282454571e+02 4.160486102756e+00 0.0 
4.160486102756e+00 -3.480181313222e+02 0.0 
0.0 0.0 -1.488039130338e+02 
-1.421191048398e+02 5.146451064031e+00 0.0 
5.146451064031e+00 -3.278030003894e+02 0.0 
0.0 0.0 -1.405766315687e+02 
-9.446772301944e+01 3.638803956480e+00 0.0 
3.638803956480e+00 -2.355337736137e+02 0.0 
0.0 0.0 -9.860044898996e+01 
-1.228045138648e+02 1.667817090053e+00 0.0 
1.667817090053e+00 -2.811977098313e+02 0.0 
0.0 0.0 -1.208006671088e+02 
-3.484871847594e+01 6.698560040314e+00 0.0 
6.698560040314e+00 -7.594168151714e+01 0.0 
0.0 0.0 -3.283711999792e+01 
-5.589494193559e+01 7.425683537272e+00 0.0 
7.425683537272e+00 -1.410387969968e+02 0.0 
0.0 0.0 -5.868012167973e+01 
-2.912685102857e+01 5.313168183524e+00 0.0 
5.313168183524e+00 -7.983026119213e+01 0.0 
0.0 0.0 -3.228713366621e+01 
-6.239288242397e+01 4.534301959065e+00 0.0 
4.534301959065e+00 -1.326667527860e+02 0.0 
0.0 0.0 -5.811789056300e+01 
-8.246964588086e+01 7.057185215310e-01 0.0 
7.057185215310e-01 -1.832182062729e+02 0.0 
0.0 0.0 -7.930635564613e+01 
-9.910137753264e+01 2.586066517925e-01 0.0 
2.586066517925e-01 -2.239218854292e+02 0.0 
0.0 0.0 -9.650697888856e+01 
-1.506207643457e+02 6.601449970355e+00 0.0 
6.601449970355e+00 -3.569164342322e+02 0.0 
0.0 0.0 -1.518611595734e+02 
-1.251563020017e+02 3.599291922793e+00 0.0 
3.599291922793e+00 -2.860007074504e+02 0.0 
0.0 0.0 -1.229471028356e+02 
-9.447074077539e+01 1.558737702694e+00 0.0 
1.558737702694e+00 -2.102059167495e+02 0.0 
0.0 0.0 -9.100299725747e+01 
-9.798312448821e+01 2.707900811813e+00 0.0 
2.707900811813e+00 -2.184266270854e+02 0.0 
0.0 0.0 -9.452292547208e+01 
-3.152908587472e+01 4.118799949273e+00 0.0 
4.118799949273e+00 -8.886422811805e+01 0.0 
0.0 0.0 -3.571799419783e+01 
-1.831272190524e+01 -1.011836750778e+00 0.0 
-1.011836750778e+00 -4.194599859182e+01 0.0 
0.0 0.0 -1.767761614912e+01 
-7.049613674639e+01 6.467246399803e+00 0.0 
6.467246399803e+00 -1.648650008516e+02 0.0 
0.0 0.0 -7.020834127939e+01 
-8.091640667627e+01 6.961427450120e+00 0.0 
6.961427450120e+00 -1.810952760905e+02 0.0 
0.0 0.0 -7.820350483003e+01 
-7.482070140923e+01 8.088816623954e+00 0.0 
8.088816623954e+00 -1.735518594311e+02 0.0 
0.0 0.0 -7.411176825211e+01 
-1.167398602331e+01 7.380777151225e+00 0.0 
7.380777151225e+00 -2.932842550299e+01 0.0 
0.0 0.0 -1.190072345789e+01 
-8.716441133614e+01 -2.019954438905e-01 0.0 
-2.019954438905e-01 -1.986977264557e+02 0.0 
0.0 0.0 -8.535864133756e+01 
-3.191470517719e+01 -1.421143732005e-01 0.0 
-1.421143732005e-01 -8.074707698775e+01 0.0 
0.0 0.0 -3.339853464948e+01 
-4.151597145009e+01 7.578346026328e+00 0.0 
7.578346026328e+00 -1.003228360668e+02 0.0 
0.0 0.0 -4.215164225506e+01 
-1.597349902388e+02 6.705310412141e+00 0.0 
6.705310412141e+00 -3.740483105573e+02 0.0 
0.0 0.0 -1.597349902388e+02 
-1.101193508178e+02 7.393578904409e+00 0.0 
7.393578904409e+00 -2.622010499127e+02 0.0 
0.0 0.0 -1.112961202191e+02 
-8.253986899636e+01 6.840045730792e-01 0.0 
6.840045730792e-01 -1.828588279123e+02 0.0 
0.0 0.0 -7.921960907260e+01 
-2.342876891372e+01 -6.694045625311e-01 0.0 
-6.694045625311e-01 -5.886870265769e+01 0.0 
0.0 0.0 -2.428924147143e+01 
-7.717480052105e+01 4.250473577602e+00 0.0 
4.250473577602e+00 -1.704893573534e+02 0.0 
0.0 0.0 -7.389924736234e+01 
-6.999533361316e+01 8.300821373353e+00 0.0 
8.300821373353e+00 -1.650217867694e+02 0.0 
0.0 0.0 -7.010513611476e+01 
-9.910486308045e+01 3.888171228723e+00 0.0 
3.888171228723e+00 -2.198673005139e+02 0.0 
0.0 0.0 -9.529164907832e+01 
-1.517647879727e+02 6.386504020426e+00 0.0 
6.386504020426e+00 -3.535886110311e+02 0.0 
0.0 0.0 -1.512060197011e+02 
-7.841143425460e+01 1.326700711183e+00 0.0 
1.326700711183e+00 -1.716227503248e+02 0.0 
0.0 0.0 -7.461025537383e+01 
-9.462336840396e+01 4.849444949588e+00 0.0 
4.849444949588e+00 -2.093079746501e+02 0.0 
0.0 0.0 -9.077940291622e+01 
-7.602192113071e+01 -1.569929372545e-01 0.0 
-1.569929372545e-01 -1.925683532289e+02 0.0 
0.0 0.0 -8.017708230788e+01 
-1.225266652635e+02 2.118539739571e+00 0.0 
2.118539739571e+00 -2.798733994895e+02 0.0 
0.0 0.0 -1.203200194259e+02 
-9.789413326166e+01 2.113743471276e+00 0.0 
2.113743471276e+00 -2.442214959349e+02 0.0 
0.0 0.0 -1.022346887590e+02 
-1.524981113778e+02 7.012518918539e+00 0.0 
7.012518918539e+00 -3.547092775595e+02 0.0 
0.0 0.0 -1.517622166812e+02 
-1.495233293008e+02 5.240750208188e+00 0.0 
5.240750208188e+00 -3.502211017018e+02 0.0 
0.0 0.0 -1.495233293008e+02 
-1.483959908609e+02 3.664388919606e+00 0.0 
3.664388919606e+00 -3.475906453421e+02 0.0 
0.0 0.0 -1.483959908609e+02 
-1.483319512151e+02 4.395256230302e+00 0.0 
4.395256230302e+00 -3.474412195018e+02 0.0 
0.0 0.0 -1.483319512151e+02 
-1.020518686551e+02 2.559649150930e+00 0.0 
2.559649150930e+00 -2.283000265826e+02 0.0 
0.0 0.0 -9.870556857132e+01 
-1.233666906192e+02 3.820397488792e+00 0.0 
3.820397488792e+00 -2.805480783524e+02 0.0 
0.0 0.0 -1.207744306915e+02 
-1.296297792307e+02 3.571970873441e+00 0.0 
3.571970873441e+00 -2.972565747540e+02 0.0 
0.0 0.0 -1.276659061954e+02 
-6.482668107830e+01 4.496822604215e+00 0.0 
4.496822604215e+00 -1.418772849295e+02 0.0 
0.0 0.0 -6.161118980233e+01 
-6.100170529378e+01 3.609648470580e+00 0.0 
3.609648470580e+00 -1.316202716452e+02 0.0 
0.0 0.0 -5.738659308171e+01 
-7.244894736075e+01 9.701572394305e-01 0.0 
9.701572394305e-01 -1.824901047035e+02 0.0 
0.0 0.0 -7.608171561929e+01 
-1.271434869863e+02 4.350142578475e+00 0.0 
4.350142578475e+00 -2.898287242994e+02 0.0 
0.0 0.0 -1.246916633857e+02 
-1.531511464124e+02 7.700855723170e+00 0.0 
7.700855723170e+00 -3.571650877005e+02 0.0 
0.0 0.0 -1.526948702339e+02 
-1.265242040773e+02 2.050137962923e+00 0.0 
2.050137962923e+00 -2.902032054271e+02 0.0 
0.0 0.0 -1.246182228513e+02 
-1.016618202329e+02 7.388174389137e+00 0.0 
7.388174389137e+00 -2.429421504543e+02 0.0 
0.0 0.0 -1.029811912062e+02 
-1.272975549847e+02 3.719450739979e+00 0.0 
3.719450739979e+00 -2.908578072705e+02 0.0 
0.0 0.0 -1.250466086765e+02 
-1.124203982519e+02 7.144871526842e+00 0.0 
7.144871526842e+00 -2.577053837725e+02 0.0 
0.0 0.0 -1.106377346073e+02 
-7.644206144275e+01 5.373257895066e+00 0.0 
5.373257895066e+00 -1.717068484186e+02 0.0 
0.0 0.0 -7.404467295840e+01 
-6.155222850417e+01 2.305075972240e+00 0.0 
2.305075972240e+00 -1.319744590590e+02 0.0 
0.0 0.0 -5.765800626895e+01 
-2.893640099011e+01 7.459011081719e+00 0.0 
7.459011081719e+00 -7.588586149128e+01 0.0 
0.0 0.0 -3.104667874442e+01 
-1.414811123264e+02 1.983183124653e+00 0.0 
1.983183124653e+00 -3.298610087319e+02 0.0 
0.0 0.0 -1.410026363175e+02 
-6.051769778165e+01 5.159108560157e+00 0.0 
5.159108560157e+00 -1.329941398422e+02 0.0 
0.0 0.0 -5.765355128716e+01 
-1.403761225060e+02 6.740088897922e+00 0.0 
6.740088897922e+00 -3.254329839013e+02 0.0 
0.0 0.0 -1.393427319222e+02 
-7.175367321516e+01 -4.430694884786e-01 0.0 
-4.430694884786e-01 -1.818919178867e+02 0.0 
0.0 0.0 -7.569367733057e+01 
-4.417117130385e+01 1.344582543829e+00 0.0 
1.344582543829e+00 -1.158522921982e+02 0.0 
0.0 0.0 -4.760703905061e+01 
-1.521680231773e+02 5.929242411261e+00 0.0 
5.929242411261e+00 -3.584985558619e+02 0.0 
0.0 0.0 -1.527999737117e+02 
-4.618535375496e+01 7.277213664954e+00 0.0 
7.277213664954e+00 -1.071215887477e+02 0.0 
0.0 0.0 -4.559208275079e+01 
-1.500472178135e+02 5.674321204378e+00 0.0 
5.674321204378e+00 -3.514435082316e+02 0.0 
0.0 0.0 -1.500472178135e+02 
-1.424002010381e+02 3.891827019738e+00 0.0 
3.891827019738e+00 -3.313631344606e+02 0.0 
0.0 0.0 -1.417290006496e+02 
-9.348205696382e+01 3.750782312022e+00 0.0 
3.750782312022e+00 -2.084793087250e+02 0.0 
0.0 0.0 -9.018840970663e+01 
-1.179421041029e+01 -7.055603337560e-01 0.0 
-7.055603337560e-01 -2.488081493683e+01 0.0 
0.0 0.0 -1.102955643296e+01 
-1.508912415535e+02 6.432230336477e+00 0.0 
6.432230336477e+00 -3.534128969581e+02 0.0 
0.0 0.0 -1.508912415535e+02 
-1.511483495455e+02 6.873463609373e+00 0.0 
6.873463609373e+00 -3.556102167280e+02 0.0 
0.0 0.0 -1.516275698820e+02 
-4.284696289307e+01 4.826973022607e-01 0.0 
4.826973022607e-01 -1.151049349124e+02 0.0 
0.0 0.0 -4.698556934164e+01 
-1.054638082230e+02 7.133326497696e+00 0.0 
7.133326497696e+00 -2.533010360708e+02 0.0 
0.0 0.0 -1.072294532881e+02 
-1.557694672138e+02 8.352039112370e+00 0.0 
8.352039112370e+00 -3.653555170739e+02 0.0 
0.0 0.0 -1.559374952863e+02 
-7.145670960254e+00 -2.989728778075e-01 0.0 
-2.989728778075e-01 -8.958277953014e+00 0.0 
0.0 0.0 -5.401097816769e+00 
-6.856447741731e+01 5.316968145041e+00 0.0 
5.316968145041e+00 -1.525228128195e+02 0.0 
0.0 0.0 -6.592618707105e+01 
-9.762670918706e+01 3.475200081735e+00 0.0 
3.475200081735e+00 -2.180681113481e+02 0.0 
0.0 0.0 -9.430844616055e+01 
-8.930579895107e+01 4.065837633113e+00 0.0 
4.065837633113e+00 -1.990355711538e+02 0.0 
0.0 0.0 -8.610241103145e+01 
-8.976807851538e+01 3.133357094502e+00 0.0 
3.133357094502e+00 -1.989223476336e+02 0.0 
0.0 0.0 -8.620712784469e+01 
-3.356959904735e+01 7.832727879993e+00 0.0 
7.832727879993e+00 -8.193233613909e+01 0.0 
0.0 0.0 -3.425058055593e+01 
-1.520068757248e+02 7.178758563016e+00 0.0 
7.178758563016e+00 -3.560160433579e+02 0.0 
0.0 0.0 -1.520068757248e+02 
-6.399747721505e+01 7.370664590658e+00 0.0 
7.370664590658e+00 -1.594350210054e+02 0.0 
0.0 0.0 -6.662974946613e+01 
-2.047144471393e+01 2.356467588492e+00 0.0 
2.356467588492e+00 -5.412619277371e+01 0.0 
0.0 0.0 -2.197929124629e+01 
-1.542144232352e+02 2.815055049441e+00 0.0 
2.815055049441e+00 -3.658832135143e+02 0.0 
0.0 0.0 -1.556292910249e+02 
-1.267068017251e+01 -6.829986749849e-01 0.0 
-6.829986749849e-01 -2.507222053249e+01 0.0 
0.0 0.0 -1.092287021150e+01 
-7.013691885534e+01 1.661463416731e+00 0.0 
1.661463416731e+00 -1.519374010568e+02 0.0 
0.0 0.0 -6.622229597364e+01 
-2.227896927792e+01 -3.432980003443e-01 0.0 
-3.432980003443e-01 -5.870309798144e+01 0.0 
0.0 0.0 -2.389462017781e+01 
-7.454427655466e+01 7.754514286464e-01 0.0 
7.754514286464e-01 -1.627297691598e+02 0.0 
0.0 0.0 -7.078221371434e+01 
-1.577385049530e+02 7.588968713531e+00 0.0 
7.588968713531e+00 -3.710486065590e+02 0.0 
0.0 0.0 -1.582361334536e+02 
-1.535004775838e+02 7.673695662633e+00 0.0 
7.673695662633e+00 -3.595011143621e+02 0.0 
0.0 0.0 -1.535004775838e+02 
-9.417875742399e+01 2.156100828897e+00 0.0 
2.156100828897e+00 -2.092375298223e+02 0.0 
0.0 0.0 -9.062488617388e+01 
-1.677536358749e+01 -7.003291127214e-01 0.0 
-7.003291127214e-01 -4.209025379206e+01 0.0 
0.0 0.0 -1.725968521386e+01 
-1.615226709991e+01 1.022104023161e+00 0.0 
1.022104023161e+00 -4.389310891866e+01 0.0 
0.0 0.0 -1.761361280557e+01 
-2.360457404292e+01 -6.331018992572e-01 0.0 
-6.331018992572e-01 -5.820228190597e+01 0.0 
0.0 0.0 -2.414205678467e+01 
-1.327889811624e+02 3.944659026835e+00 0.0 
3.944659026835e+00 -3.199490565371e+02 0.0 
0.0 0.0 -1.354214113098e+02 
-8.229255368860e+01 6.146540848947e-01 0.0 
6.146540848947e-01 -1.830189884082e+02 0.0 
0.0 0.0 -7.919346262904e+01 
-8.751613761479e+01 2.513342989649e+00 0.0 
2.513342989649e+00 -1.931373041896e+02 0.0 
0.0 0.0 -8.379603254131e+01 
-1.550341458539e+02 7.950534289958e+00 0.0 
7.950534289958e+00 -3.630796736590e+02 0.0 
0.0 0.0 -1.550341458539e+02 
-8.185032236320e+01 7.692450326141e-01 0.0 
7.692450326141e-01 -1.830399898799e+02 0.0 
0.0 0.0 -7.906709367294e+01 
-1.492834379509e+02 3.502619133654e+00 0.0 
3.502619133654e+00 -3.480107170680e+02 0.0 
0.0 0.0 -1.487882465056e+02 
-1.156990460638e+02 5.603238113464e+00 0.0 
5.603238113464e+00 -2.671788035331e+02 0.0 
0.0 0.0 -1.144633548791e+02 
-9.503600751293e+01 4.134362765727e-02 0.0 
4.134362765727e-02 -2.147888336679e+02 0.0 
0.0 0.0 -9.254745235425e+01 
-4.312467104511e+01 4.703045747617e+00 0.0 
4.703045747617e+00 -9.172899374518e+01 0.0 
0.0 0.0 -4.005609943709e+01 
-1.054966008241e+02 5.653018800114e+00 0.0 
5.653018800114e+00 -2.530190958046e+02 0.0 
0.0 0.0 -1.071547089886e+02 
-2.575845738530e+01 6.441822868424e+00 0.0 
6.441822868424e+00 -7.000124767639e+01 0.0 
0.0 0.0 -2.832791151851e+01 
-1.563535144482e+02 7.968672615034e+00 0.0 
7.968672615034e+00 -3.661582003791e+02 0.0 
0.0 0.0 -1.563535144482e+02 
-1.489245415885e+02 4.719273345899e+00 0.0 
4.719273345899e+00 -3.488239303732e+02 0.0 
0.0 0.0 -1.489245415885e+02 
-1.485294892348e+02 4.088872203157e+00 0.0 
4.088872203157e+00 -3.479021415479e+02 0.0 
0.0 0.0 -1.485294892348e+02 
-9.853301977136e+01 3.415897102949e+00 0.0 
3.415897102949e+00 -2.447690471554e+02 0.0 
0.0 0.0 -1.025906200780e+02 
-6.812206799560e+01 7.783296390290e-01 0.0 
7.783296390290e-01 -1.716585511072e+02 0.0 
0.0 0.0 -7.153418573085e+01 
-7.637504599762e+01 7.423471586059e+00 0.0 
7.423471586059e+00 -1.721284867493e+02 0.0 
0.0 0.0 -7.415105982408e+01 
-1.018993504596e+02 1.880952040889e+00 0.0 
1.880952040889e+00 -2.531904979620e+02 0.0 
0.0 0.0 -1.061269545265e+02 
-1.576129982931e+02 7.628643915383e+00 0.0 
7.628643915383e+00 -3.690969960172e+02 0.0 
0.0 0.0 -1.576129982931e+02 
-4.077169699672e+01 9.034984152301e+00 0.0 
9.034984152301e+00 -1.003182242838e+02 0.0 
0.0 0.0 -4.192697638416e+01 
-5.047974242935e+01 2.351137828845e+00 0.0 
2.351137828845e+00 -1.347047771611e+02 0.0 
0.0 0.0 -5.515535587715e+01 
-5.424595705697e+01 1.883527001980e+00 0.0 
1.883527001980e+00 -1.436161900193e+02 0.0 
0.0 0.0 -5.895864412287e+01 
-9.948279809206e+01 1.146455004168e-01 0.0 
1.146455004168e-01 -2.257217316526e+02 0.0 
0.0 0.0 -9.716135892341e+01 
-1.591876941858e+02 6.462278293085e+00 0.0 
6.462278293085e+00 -3.753397998271e+02 0.0 
0.0 0.0 -1.599582482039e+02 
-1.895704562606e+01 -8.337188953811e-01 0.0 
-8.337188953811e-01 -4.169098879437e+01 0.0 
0.0 0.0 -1.779441032613e+01 
-1.589600881182e+02 7.039822457005e+00 0.0 
7.039822457005e+00 -3.722402056091e+02 0.0 
0.0 0.0 -1.589600881182e+02 
-5.030893129602e+01 9.838761574757e-01 0.0 
9.838761574757e-01 -1.337897359502e+02 0.0 
0.0 0.0 -5.482960017385e+01 
-1.506718439712e+02 6.087027923291e+00 0.0 
6.087027923291e+00 -3.529009692661e+02 0.0 
0.0 0.0 -1.506718439712e+02 
-1.305463866009e+02 5.387873627251e+00 0.0 
5.387873627251e+00 -2.980880597452e+02 0.0 
0.0 0.0 -1.281903339038e+02 
-7.077979718398e+00 -2.892566759851e-01 0.0 
-2.892566759851e-01 -7.819116127556e+00 0.0 
0.0 0.0 -4.069128753786e+00 
-7.189348881724e+01 5.849523439003e+00 0.0 
5.849523439003e+00 -1.628005770169e+02 0.0 
0.0 0.0 -7.000821975025e+01 
-1.276569906404e+02 3.294665053215e+00 0.0 
3.294665053215e+00 -2.923898701884e+02 0.0 
0.0 0.0 -1.256140582487e+02 
-1.515345722252e+02 6.862121719207e+00 0.0 
6.862121719207e+00 -3.549140018587e+02 0.0 
0.0 0.0 -1.515345722252e+02 
-1.028598081144e+02 4.412639508058e+00 0.0 
4.412639508058e+00 -2.289923591391e+02 0.0 
0.0 0.0 -9.915565017604e+01 
-1.192573545312e+02 5.807950895777e+00 0.0 
5.807950895777e+00 -2.772504406305e+02 0.0 
0.0 0.0 -1.185523385485e+02 
-2.127073304023e+01 7.275795779345e+00 0.0 
7.275795779345e+00 -5.848173842216e+01 0.0 
0.0 0.0 -2.352574143872e+01 
-1.441094253699e+02 6.277249287735e+00 0.0 
6.277249287735e+00 -3.406919851563e+02 0.0 
0.0 0.0 -1.450404231579e+02 
-5.404873785479e+01 6.956750683938e-01 0.0 
6.956750683938e-01 -1.424070657408e+02 0.0 
0.0 0.0 -5.853674107868e+01 
-5.521972364409e+01 2.685118813479e+00 0.0 
2.685118813479e+00 -1.441831830339e+02 0.0 
0.0 0.0 -5.942087200339e+01 
-1.420724848917e+01 -7.739519373376e-01 0.0 
-7.739519373376e-01 -2.583178631399e+01 0.0 
0.0 0.0 -1.161171044095e+01 
-1.526969751401e+02 7.450835914609e+00 0.0 
7.450835914609e+00 -3.576262753269e+02 0.0 
0.0 0.0 -1.526969751401e+02 
-3.252819026633e+01 7.046790278540e+00 0.0 
7.046790278540e+00 -8.711790107352e+01 0.0 
0.0 0.0 -3.549382740196e+01 
-1.298681473636e+02 5.687693253768e+00 0.0 
5.687693253768e+00 -3.126100608015e+02 0.0 
0.0 0.0 -1.323434624495e+02 
-9.134738402605e+01 1.634509959115e+00 0.0 
1.634509959115e+00 -2.052990501096e+02 0.0 
0.0 0.0 -8.859393024069e+01 
-4.739638618793e+01 5.886849014952e-01 0.0 
5.886849014952e-01 -1.223726413069e+02 0.0 
0.0 0.0 -5.053070824844e+01 
-5.146503684385e+01 3.145625761201e+00 0.0 
3.145625761201e+00 -1.352869157551e+02 0.0 
0.0 0.0 -5.562558577968e+01 
-9.876884551402e+01 4.594988819001e+00 0.0 
4.594988819001e+00 -2.191256943890e+02 0.0 
0.0 0.0 -9.496836197091e+01 
-1.557286307750e+02 8.073191612724e+00 0.0 
8.073191612724e+00 -3.647001384750e+02 0.0 
0.0 0.0 -1.557286307750e+02 
-7.115583336010e+01 -6.227377317707e-01 0.0 
-6.227377317707e-01 -1.797626041365e+02 0.0 
0.0 0.0 -7.487553124897e+01 
-1.115599608671e+02 4.298597463383e+00 0.0 
4.298597463383e+00 -2.735794254271e+02 0.0 
0.0 0.0 -1.151418158883e+02 
-8.864992783454e+01 4.992507670645e+00 0.0 
4.992507670645e+00 -1.997839370566e+02 0.0 
0.0 0.0 -8.613015946734e+01 
-9.924190782639e+01 5.075392624030e+00 0.0 
5.075392624030e+00 -2.452006406476e+02 0.0 
0.0 0.0 -1.029327645422e+02 
-5.524339831673e+01 4.105486056565e+00 0.0 
4.105486056565e+00 -1.442723683977e+02 0.0 
0.0 0.0 -5.945473001432e+01 
-1.029152365200e+02 3.970702870275e+00 0.0 
3.970702870275e+00 -2.544586772349e+02 0.0 
0.0 0.0 -1.068121741265e+02 
-8.536667810618e+01 6.509760055408e+00 0.0 
6.509760055408e+00 -1.902582494300e+02 0.0 
0.0 0.0 -8.228747826085e+01 
-1.132104426966e+02 6.612856682515e+00 0.0 
6.612856682515e+00 -2.571716336122e+02 0.0 
0.0 0.0 -1.107146228926e+02 
-1.138642637643e+02 5.670290470760e+00 0.0 
5.670290470760e+00 -2.720375015008e+02 0.0 
0.0 0.0 -1.153705295795e+02 
-8.429363429497e+01 5.393008639073e+00 0.0 
5.393008639073e+00 -1.908330580499e+02 0.0 
0.0 0.0 -8.213800770346e+01 
-7.221630095191e+01 -1.041377697597e-01 0.0 
-1.041377697597e-01 -1.839152760049e+02 0.0 
0.0 0.0 -7.643947308704e+01 
-4.541202627339e+01 9.151820651826e+00 0.0 
9.151820651826e+00 -1.071796280395e+02 0.0 
0.0 0.0 -4.537749629388e+01 
-6.747154763033e+01 -6.566569604787e-01 0.0 
-6.566569604787e-01 -1.710743861073e+02 0.0 
0.0 0.0 -7.116378012129e+01 
-1.159406939398e+02 7.391344956864e+00 0.0 
7.391344956864e+00 -2.677311017626e+02 0.0 
0.0 0.0 -1.147015387107e+02 
-9.248275596625e+01 5.426900777097e+00 0.0 
5.426900777097e+00 -2.252358326240e+02 0.0 
0.0 0.0 -9.491557657706e+01 
-1.583430455196e+02 7.315758438331e+00 0.0 
7.315758438331e+00 -3.727074420684e+02 0.0 
0.0 0.0 -1.589151462764e+02 
-1.313430066943e+02 3.647201736332e+00 0.0 
3.647201736332e+00 -3.012071087953e+02 0.0 
0.0 0.0 -1.293650346469e+02 
-4.255388545618e+01 -9.098641553029e-01 0.0 
-9.098641553029e-01 -1.110391697247e+02 0.0 
0.0 0.0 -4.567791655426e+01 
-1.582370053639e+02 7.335415453277e+00 0.0 
7.335415453277e+00 -3.705530125159e+02 0.0 
0.0 0.0 -1.582370053639e+02 
-1.505884444176e+02 7.012762138811e+00 0.0 
7.012762138811e+00 -3.558184927169e+02 0.0 
0.0 0.0 -1.515220811404e+02 
-7.861678990057e+01 6.319678474399e+00 0.0 
6.319678474399e+00 -1.840312344892e+02 0.0 
0.0 0.0 -7.839440731693e+01 
-1.238942348299e+01 -6.913249389282e-01 0.0 
-6.913249389282e-01 -2.549097671908e+01 0.0 
0.0 0.0 -1.134190358232e+01 
-1.599434845903e+02 5.909973391811e+00 0.0 
5.909973391811e+00 -3.766633051912e+02 0.0 
0.0 0.0 -1.605820369345e+02 
-1.308933525807e+02 4.087286691876e+00 0.0 
4.087286691876e+00 -2.997849624654e+02 0.0 
0.0 0.0 -1.288034945138e+02 
-4.654991632136e+01 2.048478706517e-01 0.0 
2.048478706517e-01 -1.236884608498e+02 0.0 
0.0 0.0 -5.067151315135e+01 
-1.602198122463e+02 6.350191497594e+00 0.0 
6.350191497594e+00 -3.751795619080e+02 0.0 
0.0 0.0 -1.602198122463e+02 
-1.070588245349e+02 3.745848075536e+00 0.0 
3.745848075536e+00 -2.638051142876e+02 0.0 
0.0 0.0 -1.108591816468e+02 
-6.535885737870e+01 3.163241347513e+00 0.0 
3.163241347513e+00 -1.412307689192e+02 0.0 
0.0 0.0 -6.157688788938e+01 
-9.073796842566e+01 1.130718253354e+00 0.0 
1.130718253354e+00 -2.014663256200e+02 0.0 
0.0 0.0 -8.726128821370e+01 
-8.868548307458e+01 7.159287160609e+00 0.0 
7.159287160609e+00 -2.153643814670e+02 0.0 
0.0 0.0 -9.081495936249e+01 
-9.015560850713e+01 3.081770910942e+00 0.0 
3.081770910942e+00 -2.257915097100e+02 0.0 
0.0 0.0 -9.438413546514e+01 
-1.038209521463e+02 5.632881280654e+00 0.0 
5.632881280654e+00 -2.546037950273e+02 0.0 
0.0 0.0 -1.071274241521e+02 
-1.076617123269e+02 3.152523609560e+00 0.0 
3.152523609560e+00 -2.415203894214e+02 0.0 
0.0 0.0 -1.043546305245e+02 
-7.396096684658e+01 2.379246527928e+00 0.0 
2.379246527928e+00 -1.609472789628e+02 0.0 
0.0 0.0 -7.007247374280e+01 
-1.184839090433e+02 5.842201044930e+00 0.0 
5.842201044930e+00 -2.811068666537e+02 0.0 
0.0 0.0 -1.194772327091e+02 
-9.422212964625e+01 2.501644483615e-01 0.0 
2.501644483615e-01 -2.152612016847e+02 0.0 
0.0 0.0 -9.244499939929e+01 
-7.301661731491e+01 1.228879697932e+00 0.0 
1.228879697932e+00 -1.845412196122e+02 0.0 
0.0 0.0 -7.686735107813e+01 
-1.091799035062e+02 5.434386320759e+00 0.0 
5.434386320759e+00 -2.629576998695e+02 0.0 
0.0 0.0 -1.112412810127e+02 
-5.510084039524e+01 1.631129375461e+00 0.0 
1.631129375461e+00 -1.430247155342e+02 0.0 
0.0 0.0 -5.903766677885e+01 
-1.046916807551e+02 5.320564972889e-01 0.0 
5.320564972889e-01 -2.585788065571e+02 0.0 
0.0 0.0 -1.085811461936e+02 
-7.761958193373e+00 -2.734664267314e-01 0.0 
-2.734664267314e-01 -7.940046492097e+00 0.0 
0.0 0.0 -4.310601405641e+00 
-5.029687915639e+01 8.828405278083e+00 0.0 
8.828405278083e+00 -1.149468683566e+02 0.0 
0.0 0.0 -4.917312425389e+01 
-5.144967975279e+01 1.865635269009e+00 0.0 
1.865635269009e+00 -1.344530158424e+02 0.0 
0.0 0.0 -5.537080867857e+01 
-7.983927050669e+01 -1.852944796297e-01 0.0 
-1.852944796297e-01 -2.012488890547e+02 0.0 
0.0 0.0 -8.392644786843e+01 
-8.322145530569e+01 6.057816461470e+00 0.0 
6.057816461470e+00 -1.924802827369e+02 0.0 
0.0 0.0 -8.231052141276e+01 
-1.064541822875e+02 2.392475356437e+00 0.0 
2.392475356437e+00 -2.632631213210e+02 0.0 
0.0 0.0 -1.105151910826e+02 
-9.633744570363e+01 1.483755723610e+00 0.0 
1.483755723610e+00 -2.174419165543e+02 0.0 
0.0 0.0 -9.373380867738e+01 
-4.773161903845e+01 1.189140031688e+00 0.0 
1.189140031688e+00 -1.244081639787e+02 0.0 
0.0 0.0 -5.124193490515e+01 
-1.608551853784e+02 5.879278908546e+00 0.0 
5.879278908546e+00 -3.766620992162e+02 0.0 
0.0 0.0 -1.608551853784e+02 
-9.825756367377e+01 5.422743794710e+00 0.0 
5.422743794710e+00 -2.187179201187e+02 0.0 
0.0 0.0 -9.469264513773e+01 
-8.363224311008e+01 -2.269702227273e-01 0.0 
-2.269702227273e-01 -2.098075348848e+02 0.0 
0.0 0.0 -8.763193339847e+01 
-9.403000707601e+01 5.727988610779e+00 0.0 
5.727988610779e+00 -2.091074580416e+02 0.0 
0.0 0.0 -9.054123953530e+01 
-8.048700785301e+01 1.206619601951e+00 0.0 
1.206619601951e+00 -2.018202295089e+02 0.0 
0.0 0.0 -8.429217120857e+01 
-7.643789940432e+00 -3.068011959486e-01 0.0 
-3.068011959486e-01 -9.013108019185e+00 0.0 
0.0 0.0 -5.571315367134e+00 
-9.555707563258e+01 2.786078695261e+00 0.0 
2.786078695261e+00 -2.121790696017e+02 0.0 
0.0 0.0 -9.192084357029e+01 
-6.667732929993e+01 -8.546421827488e-01 0.0 
-8.546421827488e-01 -1.679121442277e+02 0.0 
0.0 0.0 -6.997684205829e+01 
-5.176119938993e+00 -2.202703066446e-01 0.0 
-2.202703066446e-01 -8.809851763410e+00 0.0 
0.0 0.0 -4.750466299367e+00 
-7.922143621311e+01 -4.934370857623e-01 0.0 
-4.934370857623e-01 -1.990012964363e+02 0.0 
0.0 0.0 -8.306681979482e+01 
-1.151528164766e+02 2.675782172511e+00 0.0 
2.675782172511e+00 -2.823500558560e+02 0.0 
0.0 0.0 -1.188508616998e+02 
-1.253784355116e+02 -4.541777641466e-02 0.0 
-4.541777641466e-02 -2.901426235766e+02 0.0 
0.0 0.0 -1.242563177265e+02 
-9.538798735082e+01 5.446029852434e+00 0.0 
5.446029852434e+00 -2.358581841910e+02 0.0 
0.0 0.0 -9.897385146256e+01 
-9.888795769390e+01 3.833318299410e+00 0.0 
3.833318299410e+00 -2.447450927214e+02 0.0 
0.0 0.0 -1.026899151246e+02 
-7.992201211194e+01 1.889815309164e+00 0.0 
1.889815309164e+00 -1.752146802165e+02 0.0 
0.0 0.0 -7.614100769854e+01 
-7.419492369815e+01 3.488745840004e-01 0.0 
3.488745840004e-01 -1.652249599426e+02 0.0 
0.0 0.0 -7.142596509224e+01 
-1.425580455116e+02 3.024711315313e+00 0.0 
3.024711315313e+00 -3.312026342302e+02 0.0 
0.0 0.0 -1.417282039225e+02 
-8.972815826228e+01 6.101410307294e+00 0.0 
6.101410307294e+00 -1.995944848421e+02 0.0 
0.0 0.0 -8.639679293132e+01 
-3.765642174630e+00 -1.495040843155e-01 0.0 
-1.495040843155e-01 -7.283594309565e+00 0.0 
0.0 0.0 -2.914770945259e+00 
-2.740194160223e+01 -1.484721532636e-01 0.0 
-1.484721532636e-01 -6.883936768527e+01 0.0 
0.0 0.0 -2.847239278625e+01 
-1.222161127078e+01 -6.752476419083e-01 0.0 
-6.752476419083e-01 -2.521674553342e+01 0.0 
0.0 0.0 -1.122502029866e+01 
-4.665027871519e+01 1.414039281236e-01 0.0 
1.414039281236e-01 -1.193513285004e+02 0.0 
0.0 0.0 -4.940048216468e+01 
-1.292863187414e+02 6.538712381750e+00 0.0 
6.538712381750e+00 -2.957287430465e+02 0.0 
0.0 0.0 -1.271045185364e+02 
-1.257342753011e+02 1.577941806689e+00 0.0 
1.577941806689e+00 -2.905720953568e+02 0.0 
0.0 0.0 -1.244919111974e+02 
-1.274720952018e+02 2.017978773014e+00 0.0 
2.017978773014e+00 -3.091222814714e+02 0.0 
0.0 0.0 -1.305783130019e+02 
-5.314869903444e+01 3.835519108320e-01 0.0 
3.835519108320e-01 -1.351788061045e+02 0.0 
0.0 0.0 -5.609825154168e+01 
-1.052274855461e+02 1.945716094404e+00 0.0 
1.945716094404e+00 -2.591316375478e+02 0.0 
0.0 0.0 -1.089077369282e+02 
-1.335847031295e+02 3.991895840431e+00 0.0 
3.991895840431e+00 -3.213321791503e+02 0.0 
0.0 0.0 -1.360750646840e+02 
-2.635423128652e+01 3.446611467489e+00 0.0 
3.446611467489e+00 -7.189269309507e+01 0.0 
0.0 0.0 -2.907407731448e+01 
-6.689167156007e+01 8.107964328243e-01 0.0 
8.107964328243e-01 -1.680467834519e+02 0.0 
0.0 0.0 -7.008153650358e+01 
-5.501521103682e+01 -8.209392537715e-01 0.0 
-8.209392537715e-01 -1.384970341794e+02 0.0 
0.0 0.0 -5.765367356486e+01 
-1.598999513102e+02 5.367716607963e+00 0.0 
5.367716607963e+00 -3.772646684656e+02 0.0 
0.0 0.0 -1.607493859327e+02 
-1.612663364256e+02 5.490652519927e+00 0.0 
5.490652519927e+00 -3.776214516598e+02 0.0 
0.0 0.0 -1.612663364256e+02 
-7.439785133794e+01 6.512651093429e-01 0.0 
6.512651093429e-01 -1.865181073266e+02 0.0 
0.0 0.0 -7.787478759937e+01 
-8.429282211120e+01 1.192176462125e+00 0.0 
1.192176462125e+00 -2.103976907056e+02 0.0 
0.0 0.0 -8.800715384504e+01 
-9.341392978574e+01 1.585529949691e+00 0.0 
1.585529949691e+00 -2.341392768246e+02 0.0 
0.0 0.0 -9.786596198310e+01 
-1.383420129251e+02 4.603328413375e+00 0.0 
4.603328413375e+00 -3.309901917749e+02 0.0 
0.0 0.0 -1.403996614100e+02 
-2.990415010323e+01 -1.468851634390e+00 0.0 
-1.468851634390e+00 -7.617969645735e+01 0.0 
0.0 0.0 -3.142515396817e+01 
-1.287711003708e+02 3.459653562021e+00 0.0 
3.459653562021e+00 -3.114425746611e+02 0.0 
0.0 0.0 -1.316641025096e+02 
-1.736049572469e+01 -5.442121728852e-01 0.0 
-5.442121728852e-01 -4.275166827138e+01 0.0 
0.0 0.0 -1.763364919882e+01 
-7.605114088975e+01 9.717645386850e-01 0.0 
9.717645386850e-01 -1.910703327152e+02 0.0 
0.0 0.0 -7.973644208149e+01 
-8.486648374150e+01 1.512190931359e+00 0.0 
1.512190931359e+00 -2.124418555933e+02 0.0 
0.0 0.0 -8.879250180044e+01 
-1.041189456573e+01 -2.850997563244e-01 0.0 
-2.850997563244e-01 -2.554449283177e+01 0.0 
0.0 0.0 -1.076751138902e+01 
-7.081170261938e+01 -7.664897428622e-01 0.0 
-7.664897428622e-01 -1.772176312874e+02 0.0 
0.0 0.0 -7.400880017204e+01 
-1.303791950030e+02 2.075094692478e+00 0.0 
2.075094692478e+00 -3.004079780844e+02 0.0 
0.0 0.0 -1.288361519262e+02 
-3.411074631928e+00 -1.425664587198e-01 0.0 
-1.425664587198e-01 -7.766230734690e+00 0.0 
0.0 0.0 -2.953191609985e+00 
-7.477438324800e+01 3.760017861189e-01 0.0 
3.760017861189e-01 -1.654955015894e+02 0.0 
0.0 0.0 -7.168096545121e+01 
-7.502215008429e+01 5.331639756845e-01 0.0 
5.331639756845e-01 -1.658043284789e+02 0.0 
0.0 0.0 -7.184794356895e+01 
-1.084591505122e+02 6.148305877299e+00 0.0 
6.148305877299e+00 -2.639123641062e+02 0.0 
0.0 0.0 -1.113114543855e+02 
-5.497359188221e+01 6.663174504930e-01 0.0 
6.663174504930e-01 -1.384008599985e+02 0.0 
0.0 0.0 -5.761233556423e+01 
-5.022235651029e+01 4.751340530327e-03 0.0 
4.751340530327e-03 -1.322348413334e+02 0.0 
0.0 0.0 -5.433715935310e+01 
-2.965373035407e+01 9.752059948091e+00 0.0 
9.752059948091e+00 -6.964113205983e+01 0.0 
0.0 0.0 -2.938845872417e+01 
-1.405208033925e+02 2.094006084638e+00 0.0 
2.094006084638e+00 -3.365567583467e+02 0.0 
0.0 0.0 -1.427232685218e+02 
-1.460998616974e+02 6.938602926517e+00 0.0 
6.938602926517e+00 -3.406433575952e+02 0.0 
0.0 0.0 -1.456229657878e+02 
-1.209364597518e+02 1.914257603856e+00 0.0 
1.914257603856e+00 -2.778833322367e+02 0.0 
0.0 0.0 -1.192459375965e+02 
-4.382395465640e+01 7.361736649872e+00 0.0 
7.361736649872e+00 -9.250409540725e+01 0.0 
0.0 0.0 -4.049841501909e+01 
-1.910236754365e+01 -1.655687105540e+00 0.0 
-1.655687105540e+00 -4.747774719126e+01 0.0 
0.0 0.0 -1.957403442047e+01 
-7.516664252137e+01 3.454104256026e+00 0.0 
3.454104256026e+00 -1.625051267772e+02 0.0 
0.0 0.0 -7.090153078956e+01 
-7.429130787500e+01 1.365133757163e-01 0.0 
1.365133757163e-01 -1.659740670208e+02 0.0 
0.0 0.0 -7.167961246873e+01 
-7.380603386403e+01 2.536784720162e-01 0.0 
2.536784720162e-01 -1.656959165778e+02 0.0 
0.0 0.0 -7.145058513255e+01 
-4.928627641805e+00 -1.917906728853e-01 0.0 
-1.917906728853e-01 -9.015614891363e+00 0.0 
0.0 0.0 -4.752160210591e+00 
-1.051378679358e+01 -3.184003266933e-01 0.0 
-3.184003266933e-01 -2.540949467795e+01 0.0 
0.0 0.0 -1.079831381142e+01 
-1.622179876346e+01 -4.491783920157e-03 0.0 
-4.491783920157e-03 -4.202901615396e+01 0.0 
0.0 0.0 -1.707524447523e+01 
-4.067272502357e+01 -1.322964854605e+00 0.0 
-1.322964854605e+00 -1.041582937793e+02 0.0 
0.0 0.0 -4.304930564087e+01 
-1.022422450290e+01 -2.018889079026e-01 0.0 
-2.018889079026e-01 -2.574330203605e+01 0.0 
0.0 0.0 -1.039025796168e+01 
-7.843673120800e+01 -6.941572431686e-01 0.0 
-6.941572431686e-01 -1.967119082990e+02 0.0 
0.0 0.0 -8.214459185209e+01 
-8.749630836498e+00 -3.642511951281e-01 0.0 
-3.642511951281e-01 -8.929177220753e+00 0.0 
0.0 0.0 -5.871977782328e+00 
-4.825769732638e+01 -1.169837201694e+00 0.0 
-1.169837201694e+00 -1.236355169800e+02 0.0 
0.0 0.0 -5.116796429190e+01 
-1.014753263509e+02 -3.036142047876e-02 0.0 
-3.036142047876e-02 -2.323130204627e+02 0.0 
0.0 0.0 -9.973650404408e+01 
-7.433249036306e+01 2.535059303084e-01 0.0 
2.535059303084e-01 -1.654279224090e+02 0.0 
0.0 0.0 -7.152812383163e+01 
-1.333401053365e+02 6.387356046801e+00 0.0 
6.387356046801e+00 -3.050672469925e+02 0.0 
0.0 0.0 -1.311222056987e+02 
-1.105193456494e+02 2.164004087260e+00 0.0 
2.164004087260e+00 -2.722677138704e+02 0.0 
0.0 0.0 -1.144361178559e+02 
-9.392701349747e+01 -1.802285028521e-01 0.0 
-1.802285028521e-01 -2.147079192207e+02 0.0 
0.0 0.0 -9.219047981545e+01 
-5.868774915163e+01 -7.830409712101e-01 0.0 
-7.830409712101e-01 -1.478139576327e+02 0.0 
0.0 0.0 -6.155051203528e+01 
-1.707478421997e+01 -2.064982772151e-01 0.0 
-2.064982772151e-01 -4.251307178651e+01 0.0 
0.0 0.0 -1.747635680194e+01 
-1.475302557438e+02 1.590754753679e+00 0.0 
1.590754753679e+00 -3.455705967354e+02 0.0 
0.0 0.0 -1.475302557438e+02 
-1.480914610723e+02 1.671595233384e+00 0.0 
1.671595233384e+00 -3.457831995159e+02 0.0 
0.0 0.0 -1.477623981765e+02 
-9.087326707750e+01 -3.096931223369e-01 0.0 
-3.096931223369e-01 -2.048886076298e+02 0.0 
0.0 0.0 -8.832856241219e+01 
-7.396027941948e+01 2.025559936955e-01 0.0 
2.025559936955e-01 -1.654550671260e+02 0.0 
0.0 0.0 -7.142460396365e+01 
-5.960663365121e+01 3.341336078896e-01 0.0 
3.341336078896e-01 -1.498279427205e+02 0.0 
0.0 0.0 -6.243037291151e+01 
-1.480922488281e+02 1.264792100951e+00 0.0 
1.264792100951e+00 -3.457094633216e+02 0.0 
0.0 0.0 -1.477405136449e+02 
-4.547599614934e+01 1.498705617905e-01 0.0 
1.498705617905e-01 -1.157412104414e+02 0.0 
0.0 0.0 -4.796516197721e+01 
-7.460296652354e+01 4.157019005022e-01 0.0 
4.157019005022e-01 -1.654003976761e+02 0.0 
0.0 0.0 -7.160100925989e+01 
-7.448526868281e+01 2.137186333383e-01 0.0 
2.137186333383e-01 -1.653618872588e+02 0.0 
0.0 0.0 -7.155414678247e+01 
-7.046554011278e+01 8.995844626769e-01 0.0 
8.995844626769e-01 -1.530310406054e+02 0.0 
0.0 0.0 -6.664897421545e+01 
-1.484406568940e+02 3.372029346041e+00 0.0 
3.372029346041e+00 -3.476948660860e+02 0.0 
0.0 0.0 -1.484406568940e+02 
-1.487243417952e+02 1.347696563622e+00 0.0 
1.347696563622e+00 -3.461714853021e+02 0.0 
0.0 0.0 -1.480687481292e+02 
-1.037326193791e+01 -2.756851482370e-01 0.0 
-2.756851482370e-01 -2.555340752888e+01 0.0 
0.0 0.0 -1.037800084004e+01 
-4.873010123276e+00 -1.192582753082e-01 0.0 
-1.192582753082e-01 -9.111479842398e+00 0.0 
0.0 0.0 -4.772601796999e+00 
-2.267129888200e+01 -1.426195308339e+00 0.0 
-1.426195308339e+00 -5.698810917187e+01 0.0 
0.0 0.0 -2.349782241616e+01 
-8.418531668400e+01 1.207178625913e-01 0.0 
1.207178625913e-01 -2.118565811305e+02 0.0 
0.0 0.0 -8.841256934436e+01 
-1.480049994183e+02 -5.827737364696e-01 0.0 
-5.827737364696e-01 -3.518378176558e+02 0.0 
0.0 0.0 -1.495528451222e+02 
-1.008656323547e+01 -1.719606479664e-01 0.0 
-1.719606479664e-01 -7.213397492721e+00 0.0 
0.0 0.0 -4.789988218458e+00 
-1.188284499782e+02 9.817825816594e-01 0.0 
9.817825816594e-01 -2.744784340152e+02 0.0 
0.0 0.0 -1.175920651980e+02 
-8.514541567073e+00 -3.507258663132e-01 0.0 
-3.507258663132e-01 -9.078765918790e+00 0.0 
0.0 0.0 -5.858942286494e+00 
-1.073892597494e+02 3.993796712633e+00 0.0 
3.993796712633e+00 -2.635786564054e+02 0.0 
0.0 0.0 -1.108903748465e+02 
-8.533104170023e+00 -3.725716622007e-01 0.0 
-3.725716622007e-01 -8.142656471807e+00 0.0 
0.0 0.0 -4.602728192549e+00 
-9.320708106505e+00 -3.043882461524e-01 0.0 
-3.043882461524e-01 -8.098941969116e+00 0.0 
0.0 0.0 -4.825895022686e+00 
-1.027323799655e+02 3.472589425389e+00 0.0 
3.472589425389e+00 -2.540071824196e+02 0.0 
0.0 0.0 -1.066218687155e+02 
-1.432288624951e+02 4.657321274656e-01 0.0 
4.657321274656e-01 -3.418635773739e+02 0.0 
0.0 0.0 -1.451277319607e+02 
-1.009758674188e+02 5.516685638331e-01 0.0 
5.516685638331e-01 -2.310102698592e+02 0.0 
0.0 0.0 -9.919584118341e+01 
-7.895047661712e+01 4.114579676944e+00 0.0 
4.114579676944e+00 -1.714810616830e+02 0.0 
0.0 0.0 -7.472946149003e+01 
-1.027078947107e+01 -1.263160153807e-01 0.0 
-1.263160153807e-01 -2.553408210071e+01 0.0 
0.0 0.0 -1.072395559603e+01 
-1.090882261990e+02 1.836763658058e+00 0.0 
1.836763658058e+00 -2.676674534662e+02 0.0 
0.0 0.0 -1.126267038995e+02 
-1.470422431871e+02 5.712358911295e-01 0.0 
5.712358911295e-01 -3.444319007698e+02 0.0 
0.0 0.0 -1.470422431871e+02 
-1.478674158489e+02 1.136943796060e+00 0.0 
1.136943796060e+00 -3.453984430897e+02 0.0 
0.0 0.0 -1.475797576816e+02 
-7.411501804908e+01 1.687740148481e-01 0.0 
1.687740148481e-01 -1.654071674386e+02 0.0 
0.0 0.0 -7.145665564629e+01 
-1.120845313922e+02 4.483877313027e+00 0.0 
4.483877313027e+00 -2.730487955905e+02 0.0 
0.0 0.0 -1.151399980948e+02 
-1.476269931920e+02 1.200208092969e+00 0.0 
1.200208092969e+00 -3.457963174479e+02 0.0 
0.0 0.0 -1.476269931920e+02 
-1.195425106334e+02 7.630319060178e+00 0.0 
7.630319060178e+00 -2.777503596007e+02 0.0 
0.0 0.0 -1.187878610702e+02 
-1.643271429919e+01 -3.354661824050e-01 0.0 
-3.354661824050e-01 -4.140545880373e+01 0.0 
0.0 0.0 -1.695145193088e+01 
-1.004601449032e+01 -1.312579214886e-01 0.0 
-1.312579214886e-01 -2.553770308709e+01 0.0 
0.0 0.0 -1.027511527322e+01 
-9.943161966539e+00 2.896590543981e-02 0.0 
2.896590543981e-02 -2.512580025921e+01 0.0 
0.0 0.0 -1.036195618175e+01 
-6.670717620896e+01 -7.486719577822e-01 0.0 
-7.486719577822e-01 -1.674077671817e+02 0.0 
0.0 0.0 -6.983448301720e+01 
-1.621044672163e+02 1.766547957298e+00 0.0 
1.766547957298e+00 -3.819449707058e+02 0.0 
0.0 0.0 -1.628148313766e+02 
-1.392672626774e+02 9.643228231704e-01 0.0 
9.643228231704e-01 -3.242099431104e+02 0.0 
0.0 0.0 -1.386431617363e+02 
-4.427850227319e+00 -7.685148390094e-04 0.0 
-7.685148390094e-04 -9.081716227820e+00 0.0 
0.0 0.0 -4.621548048213e+00 
-7.876787440065e+01 7.290099029797e-01 0.0 
7.290099029797e-01 -1.968567588265e+02 0.0 
0.0 0.0 -8.228738996816e+01 
-1.638705735472e+02 1.016659483706e+00 0.0 
1.016659483706e+00 -3.836980049436e+02 0.0 
0.0 0.0 -1.638705735472e+02 
-1.616058621994e+02 1.518763786035e+00 0.0 
1.518763786035e+00 -3.813020055423e+02 0.0 
0.0 0.0 -1.624723603225e+02 
-1.603895420904e+02 4.952382066265e+00 0.0 
4.952382066265e+00 -3.779752262984e+02 0.0 
0.0 0.0 -1.611094305166e+02 
-1.107326332085e+02 -7.866217360324e-01 0.0 
-7.866217360324e-01 -2.550675765700e+02 0.0 
0.0 0.0 -1.093400629335e+02 
-1.231275915195e+02 8.868289120141e-01 0.0 
8.868289120141e-01 -2.846614693600e+02 0.0 
0.0 0.0 -1.219367182638e+02 
-1.630011086017e+02 1.424851822645e+00 0.0 
1.424851822645e+00 -3.816692534040e+02 0.0 
0.0 0.0 -1.630011086017e+02 
-1.632485789083e+02 1.914790880248e+00 0.0 
1.914790880248e+00 -3.822466841193e+02 0.0 
0.0 0.0 -1.632485789083e+02 
-1.189895792803e+02 -6.098471940923e-01 0.0 
-6.098471940923e-01 -2.746276581308e+02 0.0 
0.0 0.0 -1.176851712233e+02 
-2.703443756446e+00 -2.895958136417e-01 0.0 
-2.895958136417e-01 -6.780526597919e+00 0.0 
0.0 0.0 -2.445191106310e+00 
-7.331419416433e+01 6.292850308364e-02 0.0 
6.292850308364e-02 -1.649264596088e+02 0.0 
0.0 0.0 -7.107219613193e+01 
-7.399195612494e+01 3.616875316026e-02 0.0 
3.616875316026e-02 -1.657476431632e+02 0.0 
0.0 0.0 -7.152187978643e+01 
-4.659975348100e+00 -5.657252731151e-02 0.0 
-5.657252731151e-02 -9.080524036194e+00 0.0 
0.0 0.0 -4.698301557639e+00 
-1.630581871729e+02 3.116629554663e+00 0.0 
3.116629554663e+00 -3.818024367368e+02 0.0 
0.0 0.0 -1.630581871729e+02 
-1.601239958708e+02 4.347708350754e+00 0.0 
4.347708350754e+00 -3.782081469284e+02 0.0 
0.0 0.0 -1.610996428398e+02 
-1.618734593141e+02 4.028364406499e+00 0.0 
4.028364406499e+00 -3.790380717329e+02 0.0 
0.0 0.0 -1.618734593141e+02 
-2.940109191262e+00 -3.078477657180e-02 0.0 
-3.078477657180e-02 -7.889921193785e+00 0.0 
0.0 0.0 -2.849009115514e+00 
-3.111193088339e+00 -1.397448442853e-01 0.0 
-1.397448442853e-01 -7.991703696504e+00 0.0 
0.0 0.0 -2.930869035453e+00 
-1.615015841190e+02 4.989574265324e+00 0.0 
4.989574265324e+00 -3.781703629442e+02 0.0 
0.0 0.0 -1.615015841190e+02 
-1.617852968492e+02 4.590559908324e+00 0.0 
4.590559908324e+00 -3.788323593149e+02 0.0 
0.0 0.0 -1.617852968492e+02 
-1.064412746959e+02 9.406000001590e-01 0.0 
9.406000001590e-01 -2.451614676763e+02 0.0 
0.0 0.0 -1.050808227117e+02 
-7.285358524740e+01 -1.118661092578e-01 0.0 
-1.118661092578e-01 -1.645736149150e+02 0.0 
0.0 0.0 -7.082816004871e+01 
-1.150004453920e+02 9.272140345746e-01 0.0 
9.272140345746e-01 -2.649189962721e+02 0.0 
0.0 0.0 -1.135758324992e+02 
-8.999098713653e+01 9.050168329912e-01 0.0 
9.050168329912e-01 -2.058570048588e+02 0.0 
0.0 0.0 -8.835439759860e+01 
-7.300628068068e+01 -4.857084727111e-02 0.0 
-4.857084727111e-02 -1.646644821566e+02 0.0 
0.0 0.0 -7.090122885118e+01 
-4.284456310025e+00 -2.924751032722e-01 0.0 
-2.924751032722e-01 -7.535261112559e+00 0.0 
0.0 0.0 -3.145915226775e+00 
-5.465858880384e+00 -5.667829252487e-02 0.0 
-5.667829252487e-02 -8.249684314573e+00 0.0 
0.0 0.0 -3.714662958487e+00 
-5.863148624534e+00 -1.874759957711e-01 0.0 
-1.874759957711e-01 -7.808397706963e+00 0.0 
0.0 0.0 -3.701463899449e+00 
-6.429221013271e+00 -2.151453331298e-01 0.0 
-2.151453331298e-01 -7.939030244498e+00 0.0 
0.0 0.0 -3.910475377331e+00 
-8.284540398989e+01 -8.893155109280e-01 0.0 
-8.893155109280e-01 -2.068574984590e+02 0.0 
0.0 0.0 -8.651087073466e+01 
-7.475768410047e+01 -7.759522925056e-01 0.0 
-7.759522925056e-01 -1.870363467377e+02 0.0 
0.0 0.0 -7.813820925144e+01 
-6.238051756569e+00 -2.225408442703e-01 0.0 
-2.225408442703e-01 -9.041937035037e+00 0.0 
0.0 0.0 -5.161024108417e+00 
-1.079228004534e+02 -8.289976463009e-01 0.0 
-8.289976463009e-01 -2.646222984232e+02 0.0 
0.0 0.0 -1.113635296630e+02 
-6.825137481529e+00 -2.935394636192e-01 0.0 
-2.935394636192e-01 -9.006424036279e+00 0.0 
0.0 0.0 -5.321307628115e+00 
-1.478752997436e+02 2.593858513306e+00 0.0 
2.593858513306e+00 -3.463756994017e+02 0.0 
0.0 0.0 -1.478752997436e+02 
-1.473311318709e+02 9.948337133375e-01 0.0 
9.948337133375e-01 -3.451059743654e+02 0.0 
0.0 0.0 -1.473311318709e+02 
-1.474998917334e+02 1.792464307813e+00 0.0 
1.792464307813e+00 -3.454997473779e+02 0.0 
0.0 0.0 -1.474998917334e+02 
-2.723656513141e+01 -9.374003584960e-01 0.0 
-9.374003584960e-01 -6.864132166336e+01 0.0 
0.0 0.0 -2.836336603843e+01 
-5.087478493723e+01 -8.011800308866e-01 0.0 
-8.011800308866e-01 -1.281424034213e+02 0.0 
0.0 0.0 -5.330515650755e+01 
-1.470602898695e+02 8.472832535847e-01 0.0 
8.472832535847e-01 -3.444740096954e+02 0.0 
0.0 0.0 -1.470602898695e+02 
-1.346033758210e+02 -7.037587317359e-01 0.0 
-7.037587317359e-01 -3.233412471928e+02 0.0 
0.0 0.0 -1.369833869041e+02 
-1.479191950216e+02 7.378913140987e-01 0.0 
7.378913140987e-01 -3.464781217172e+02 0.0 
0.0 0.0 -1.479191950216e+02 
-1.436732537292e+02 -7.518189565595e-01 0.0 
-7.518189565595e-01 -3.427951606732e+02 0.0 
0.0 0.0 -1.455405243207e+02 
-1.529541768082e+02 -8.507579232072e-01 0.0 
-8.507579232072e-01 -3.622263573262e+02 0.0 
0.0 0.0 -1.541541602403e+02 
-7.071351206758e+01 7.686899637016e-01 0.0 
7.686899637016e-01 -1.771763659766e+02 0.0 
0.0 0.0 -7.396696341324e+01 
-1.476446283089e+02 1.076824992028e+00 0.0 
1.076824992028e+00 -3.449707585088e+02 0.0 
0.0 0.0 -1.473846160453e+02 
-1.477227574174e+02 3.015100649701e-01 0.0 
3.015100649701e-01 -3.453774156146e+02 0.0 
0.0 0.0 -1.475300519096e+02 
-1.387465552542e+02 1.064604665962e+00 0.0 
1.064604665962e+00 -3.320765942445e+02 0.0 
0.0 0.0 -1.408469448496e+02 
-1.481138292381e+02 1.094297559903e+00 0.0 
1.094297559903e+00 -3.520200464461e+02 0.0 
0.0 0.0 -1.496401627052e+02 
-1.168995404848e+02 1.531784364709e+00 0.0 
1.531784364709e+00 -2.847193258839e+02 0.0 
0.0 0.0 -1.200856599106e+02 
-8.085610826321e+00 -3.441282361873e-01 0.0 
-3.441282361873e-01 -9.001826036407e+00 0.0 
0.0 0.0 -5.702707241698e+00 
-7.150346525454e+01 8.201372827367e-01 0.0 
8.201372827367e-01 -1.802017683904e+02 0.0 
0.0 0.0 -7.511157009348e+01 
-1.045119681182e+01 -2.008904277204e-01 0.0 
-2.008904277204e-01 -2.527524313274e+01 0.0 
0.0 0.0 -1.031793198337e+01 
-1.408528463769e+02 3.424041953749e+00 0.0 
3.424041953749e+00 -3.368908271234e+02 0.0 
0.0 0.0 -1.429231020501e+02 
-7.550091233053e+01 -4.435893022100e-01 0.0 
-4.435893022100e-01 -1.905301858975e+02 0.0 
0.0 0.0 -7.940932946840e+01 
-1.301961113633e+02 5.886215334985e-01 0.0 
5.886215334985e-01 -3.141752877740e+02 0.0 
0.0 0.0 -1.329114197412e+02 
-3.788328207260e+01 -1.625481729258e-02 0.0 
-1.625481729258e-02 -9.625600252070e+01 0.0 
0.0 0.0 -3.984178537799e+01 
-1.681245560257e+01 -9.031274389519e-01 0.0 
-9.031274389519e-01 -4.141454368677e+01 0.0 
0.0 0.0 -1.706809978680e+01 
-1.393313884294e+02 2.151085942586e+00 0.0 
2.151085942586e+00 -3.335654659737e+02 0.0 
0.0 0.0 -1.414690563209e+02 
-7.993339899185e+01 9.915149933665e-01 0.0 
9.915149933665e-01 -1.996442290591e+02 0.0 
0.0 0.0 -8.347328841529e+01 
-6.245507428873e+01 -8.182534112931e-01 0.0 
-8.182534112931e-01 -1.576916320644e+02 0.0 
0.0 0.0 -6.564401190594e+01 
-1.304984830427e+02 2.012730028205e+00 0.0 
2.012730028205e+00 -3.146271463792e+02 0.0 
0.0 0.0 -1.331376888266e+02 
-1.303100641522e+02 -4.225032687025e-01 0.0 
-4.225032687025e-01 -3.023042586362e+02 0.0 
0.0 0.0 -1.293842968365e+02 
-6.277390878756e+01 7.399794435547e-01 0.0 
7.399794435547e-01 -1.577861319653e+02 0.0 
0.0 0.0 -6.576801222586e+01 
-1.203585356216e+02 4.610551763816e+00 0.0 
4.610551763816e+00 -2.927923218760e+02 0.0 
0.0 0.0 -1.235452572493e+02 
-1.053277335126e+02 1.053266405251e+00 0.0 
1.053266405251e+00 -2.604837633525e+02 0.0 
0.0 0.0 -1.093434490595e+02 
-1.165337262245e+02 7.866055916956e-02 0.0 
7.866055916956e-02 -2.842434830763e+02 0.0 
0.0 0.0 -1.198331627903e+02 
-1.205451446734e+02 -3.061061417218e-02 0.0 
-3.061061417218e-02 -2.930160462447e+02 0.0 
0.0 0.0 -1.236683572754e+02 
-5.961488846607e+01 5.693695207309e+00 0.0 
5.693695207309e+00 -1.511220267514e+02 0.0 
0.0 0.0 -6.282107456523e+01 
-7.101521187895e+01 3.703730600143e+00 0.0 
3.703730600143e+00 -1.527261214306e+02 0.0 
0.0 0.0 -6.672239999285e+01 
-7.960177141741e+01 7.738142836200e+00 0.0 
7.738142836200e+00 -1.823528828825e+02 0.0 
0.0 0.0 -7.818639628997e+01 
-1.086213330825e+02 3.936446655279e-01 0.0 
3.936446655279e-01 -2.671511089444e+02 0.0 
0.0 0.0 -1.123317326080e+02 
-1.345259851852e+02 1.847084924137e+00 0.0 
1.847084924137e+00 -3.232956992864e+02 0.0 
0.0 0.0 -1.369465053415e+02 
-1.246264524976e+02 -2.547955769795e-01 0.0 
-2.547955769795e-01 -3.019298671403e+02 0.0 
0.0 0.0 -1.275668958914e+02 
-3.849635581973e+01 -1.251821688761e+00 0.0 
-1.251821688761e+00 -9.971613074456e+01 0.0 
0.0 0.0 -4.106374596929e+01 
-1.300437244837e+02 -2.366896607066e-01 0.0 
-2.366896607066e-01 -3.011684378559e+02 0.0 
0.0 0.0 -1.289636487019e+02 
-1.216562716749e+02 -2.825339448235e-01 0.0 
-2.825339448235e-01 -2.812562541298e+02 0.0 
0.0 0.0 -1.204737577414e+02 
-8.425764104121e+01 -7.781409911194e-01 0.0 
-7.781409911194e-01 -1.913055502025e+02 0.0 
0.0 0.0 -8.226895737312e+01 
-1.133074919888e+02 7.458106862639e-01 0.0 
7.458106862639e-01 -2.777955958583e+02 0.0 
0.0 0.0 -1.169309263541e+02 
-1.125759186841e+02 2.468776812524e-01 0.0 
2.468776812524e-01 -2.757221699047e+02 0.0 
0.0 0.0 -1.160894265766e+02 
-1.305627232655e+02 1.256326808881e+00 0.0 
1.256326808881e+00 -3.030902133573e+02 0.0 
0.0 0.0 -1.296958809868e+02 
-1.260536627096e+02 -2.646763889973e-01 0.0 
-2.646763889973e-01 -2.919580505593e+02 0.0 
0.0 0.0 -1.250035139807e+02 
-1.019923008305e+02 2.578971359702e+00 0.0 
2.578971359702e+00 -2.523347788245e+02 0.0 
0.0 0.0 -1.058981238965e+02 
-1.434796074239e+02 1.911966919508e+00 0.0 
1.911966919508e+00 -3.421565368689e+02 0.0 
0.0 0.0 -1.452908432878e+02 
-1.204097900723e+02 2.966051376763e-01 0.0 
2.966051376763e-01 -2.773865028695e+02 0.0 
0.0 0.0 -1.189388878825e+02 
-1.248049542924e+02 1.148835154781e+00 0.0 
1.148835154781e+00 -3.020044810926e+02 0.0 
0.0 0.0 -1.276428306155e+02 
-1.454827584681e+02 3.357364881732e+00 0.0 
3.357364881732e+00 -3.465358859390e+02 0.0 
0.0 0.0 -1.472055933221e+02 
-1.301658482763e+02 1.524924628538e+00 0.0 
1.524924628538e+00 -3.016380911274e+02 0.0 
0.0 0.0 -1.291411818211e+02 
-1.095816421772e+02 1.367650250748e+00 0.0 
1.367650250748e+00 -2.511626117592e+02 0.0 
0.0 0.0 -1.078232761809e+02 
-1.157272170747e+02 4.051961300769e+00 0.0 
4.051961300769e+00 -2.828916840078e+02 0.0 
0.0 0.0 -1.191856703248e+02 
-3.909800169124e+01 -1.122617364969e+00 0.0 
-1.122617364969e+00 -9.914994926529e+01 0.0 
0.0 0.0 -4.107438528696e+01 
-3.538729830940e+01 -1.192917300550e+00 0.0 
-1.192917300550e+00 -9.191245200850e+01 0.0 
0.0 0.0 -3.778992509537e+01 
-1.950948792568e+01 6.766275743643e-03 0.0 
6.766275743643e-03 -4.797474707669e+01 0.0 
0.0 0.0 -1.984527050071e+01 
-1.375515365115e+01 -7.463168327664e-01 0.0 
-7.463168327664e-01 -2.556067380311e+01 0.0 
0.0 0.0 -1.139474823628e+01 
-1.263749173093e+02 1.331863682564e+00 0.0 
1.331863682564e+00 -2.923171943371e+02 0.0 
0.0 0.0 -1.252076334939e+02 
-1.383615988698e+02 1.099223632341e-01 0.0 
1.099223632341e-01 -3.313626044330e+02 0.0 
0.0 0.0 -1.405172609908e+02 
-1.319716049583e+01 -7.512647949577e-01 0.0 
-7.512647949577e-01 -2.518313968345e+01 0.0 
0.0 0.0 -1.111409005378e+01 
-1.308464165292e+02 4.774075198355e+00 0.0 
4.774075198355e+00 -2.987266684106e+02 0.0 
0.0 0.0 -1.284719254820e+02 
-8.842712091260e+01 -6.118457112767e-01 0.0 
-6.118457112767e-01 -2.003609354905e+02 0.0 
0.0 0.0 -8.623641692092e+01 
-1.265623223969e+02 2.235584716135e+00 0.0 
2.235584716135e+00 -3.061367876648e+02 0.0 
0.0 0.0 -1.294097330185e+02 
-1.293193346273e+02 3.502395534643e-02 0.0 
3.502395534643e-02 -3.121116283608e+02 0.0 
0.0 0.0 -1.320292888964e+02 
-5.375052079406e+01 -1.079368099158e-01 0.0 
-1.079368099158e-01 -1.404286586688e+02 0.0 
0.0 0.0 -5.785375383887e+01 
-1.295493007008e+02 1.510599950984e+00 0.0 
1.510599950984e+00 -3.125130025540e+02 0.0 
0.0 0.0 -1.322186909764e+02 
-8.452888193145e+01 1.264257601469e+00 0.0 
1.264257601469e+00 -1.913569848621e+02 0.0 
0.0 0.0 -8.236576003808e+01 
-1.139168241816e+02 7.189490986279e+00 0.0 
7.189490986279e+00 -2.723798460850e+02 0.0 
0.0 0.0 -1.154890010800e+02 
-1.497055770505e+02 1.430529055977e+00 0.0 
1.430529055977e+00 -3.553327439373e+02 0.0 
0.0 0.0 -1.511114962964e+02 
-3.782215273186e+01 -7.610211848362e-01 0.0 
-7.610211848362e-01 -9.583546125661e+01 0.0 
0.0 0.0 -3.969728419654e+01 
-1.457333036721e+02 3.873189448140e+00 0.0 
3.873189448140e+00 -3.474018431580e+02 0.0 
0.0 0.0 -1.475405440490e+02 
-1.139828498357e+02 1.248680181200e+00 0.0 
1.248680181200e+00 -2.620163822324e+02 0.0 
0.0 0.0 -1.123997696204e+02 
-4.249498179302e+01 -1.067584220482e+00 0.0 
-1.067584220482e+00 -1.076281285374e+02 0.0 
0.0 0.0 -4.463693309913e+01 
-4.350180854907e+01 1.963519479182e-01 0.0 
1.963519479182e-01 -1.116605295167e+02 0.0 
0.0 0.0 -4.614870141973e+01 
-9.051754504649e+01 -5.514700770730e-01 0.0 
-5.514700770730e-01 -2.248558331684e+02 0.0 
0.0 0.0 -9.421201346447e+01 
-1.003573919274e+02 -2.846680481827e-01 0.0 
-2.846680481827e-01 -2.292456260957e+02 0.0 
0.0 0.0 -9.848090540692e+01 
-5.957206257269e+01 -8.774586128766e-01 0.0 
-8.774586128766e-01 -1.516059331180e+02 0.0 
0.0 0.0 -6.295339870722e+01 
-1.183296837362e+02 1.245966055404e+00 0.0 
1.245966055404e+00 -2.727694720706e+02 0.0 
0.0 0.0 -1.169297467421e+02 
-1.056675667852e+02 1.292103517685e+00 0.0 
1.292103517685e+00 -2.418124409884e+02 0.0 
0.0 0.0 -1.038440023321e+02 
-8.744652065943e+01 -2.410932810775e-01 0.0 
-2.410932810775e-01 -2.184193523611e+02 0.0 
0.0 0.0 -9.135976190615e+01 
-1.206769472335e+02 1.355406664028e+00 0.0 
1.355406664028e+00 -2.932134952112e+02 0.0 
0.0 0.0 -1.237671327334e+02 
-1.256189811436e+02 1.712231764460e+00 0.0 
1.712231764460e+00 -3.040173680026e+02 0.0 
0.0 0.0 -1.284909047439e+02 
-1.134584549821e+02 -4.154526403550e-01 0.0 
-4.154526403550e-01 -2.614551615238e+02 0.0 
0.0 0.0 -1.120740849518e+02 
-3.292317061457e+01 8.715974852174e-02 0.0 
8.715974852174e-02 -8.301525232627e+01 0.0 
0.0 0.0 -3.438152688225e+01 
-8.301914371945e+01 -4.405573948012e-01 0.0 
-4.405573948012e-01 -2.076967742195e+02 0.0 
0.0 0.0 -8.681477538169e+01 
-1.313563434311e+02 6.142451103052e+00 0.0 
6.142451103052e+00 -3.094124385312e+02 0.0 
0.0 0.0 -1.318306345887e+02 
-1.177276227292e+02 1.458230894533e+00 0.0 
1.458230894533e+00 -2.709060103725e+02 0.0 
0.0 0.0 -1.161900899305e+02 
-7.476254402230e+01 -7.202467860580e-01 0.0 
-7.202467860580e-01 -1.879762478198e+02 0.0 
0.0 0.0 -7.842163755264e+01 
-1.059374740491e+02 2.445106241583e+00 0.0 
2.445106241583e+00 -2.610616464827e+02 0.0 
0.0 0.0 -1.096997361595e+02 
-1.418083244709e+02 4.231706719008e+00 0.0 
4.231706719008e+00 -3.389269111345e+02 0.0 
0.0 0.0 -1.438205706816e+02 
-1.093097414922e+02 -2.589084359682e-01 0.0 
-2.589084359682e-01 -2.507754805317e+02 0.0 
0.0 0.0 -1.076255666072e+02 
-1.806364756403e+01 1.177549228269e+00 0.0 
1.177549228269e+00 -4.473153275442e+01 0.0 
0.0 0.0 -1.843855409554e+01 
-1.885875305461e+01 9.736745009543e-02 0.0 
9.736745009543e-02 -4.665147604078e+01 0.0 
0.0 0.0 -1.925306872862e+01 
-3.283009484615e+01 4.371222250492e+00 0.0 
4.371222250492e+00 -8.947424133759e+01 0.0 
0.0 0.0 -3.629130085512e+01 
-1.342452627045e+02 3.317369277757e-01 0.0 
3.317369277757e-01 -3.228490176758e+02 0.0 
0.0 0.0 -1.367282841141e+02 
-1.047718320268e+02 -2.494897324265e-01 0.0 
-2.494897324265e-01 -2.400018037308e+02 0.0 
0.0 0.0 -1.030320907273e+02 
-9.924656383083e+01 1.092222848207e+00 0.0 
1.092222848207e+00 -2.444956054303e+02 0.0 
0.0 0.0 -1.027226507783e+02 
-9.226628120183e+01 -3.908799519311e-01 0.0 
-3.908799519311e-01 -2.097155814600e+02 0.0 
0.0 0.0 -9.019455879855e+01 
-1.340293606213e+02 5.420777499588e+00 0.0 
5.420777499588e+00 -3.218172101416e+02 0.0 
0.0 0.0 -1.363539712289e+02 
-9.123066198436e+01 -2.900977322005e-01 0.0 
-2.900977322005e-01 -2.269875856145e+02 0.0 
0.0 0.0 -9.506547427966e+01 
-1.253580042181e+02 2.308935100658e-01 0.0 
2.308935100658e-01 -3.035818391831e+02 0.0 
0.0 0.0 -1.282819530204e+02 
-3.953704658900e+01 3.025700571611e-01 0.0 
3.025700571611e-01 -9.966622073931e+01 0.0 
0.0 0.0 -4.136098019849e+01 
-1.451484639038e+02 1.661227775148e+00 0.0 
1.661227775148e+00 -3.464934080306e+02 0.0 
0.0 0.0 -1.470925615803e+02 
-8.797672754479e+01 1.187937513950e+00 0.0 
1.187937513950e+00 -2.189663320025e+02 0.0 
0.0 0.0 -9.168291786418e+01 
-4.280461553669e+01 4.658283349164e-01 0.0 
4.658283349164e-01 -1.081007889152e+02 0.0 
0.0 0.0 -4.487162133556e+01 
-8.349169477214e+01 1.060337231977e+00 0.0 
1.060337231977e+00 -2.082480828410e+02 0.0 
0.0 0.0 -8.712193328393e+01 
-6.319199062019e+01 -7.990003279224e-01 0.0 
-7.990003279224e-01 -1.601453297953e+02 0.0 
0.0 0.0 -6.660119612465e+01 
-4.892139709716e+01 2.467119165935e-01 0.0 
2.467119165935e-01 -1.242335656842e+02 0.0 
0.0 0.0 -5.154648883441e+01 
-9.874964764821e+01 -4.269276039394e-01 0.0 
-4.269276039394e-01 -2.438650099177e+02 0.0 
0.0 0.0 -1.023843972698e+02 
-5.863340951918e+00 -2.006671429665e-01 0.0 
-2.006671429665e-01 -9.332370729155e+00 0.0 
0.0 0.0 -5.154382731045e+00 
-6.476475605714e+00 -2.441930071724e-01 0.0 
-2.441930071724e-01 -9.541587309221e+00 0.0 
0.0 0.0 -5.415426608486e+00 
-1.129705005443e+02 1.700338676985e+00 0.0 
1.700338676985e+00 -2.762090740247e+02 0.0 
0.0 0.0 -1.163538723707e+02 
-3.634013628568e+01 1.466503607319e-01 0.0 
1.466503607319e-01 -9.149935070706e+01 0.0 
0.0 0.0 -3.795184609782e+01 
-1.138095067215e+02 2.185685745462e+00 0.0 
2.185685745462e+00 -2.783250905599e+02 0.0 
0.0 0.0 -1.172403791844e+02 
-1.098787357227e+02 2.311691213465e+00 0.0 
2.311691213465e+00 -2.697323636083e+02 0.0 
0.0 0.0 -1.134833297993e+02 
-6.799932114704e+01 -4.366915361107e-01 0.0 
-4.366915361107e-01 -1.732422988371e+02 0.0 
0.0 0.0 -7.197248599524e+01 
-4.283490550413e+01 -4.122119434411e-01 0.0 
-4.122119434411e-01 -1.132789664304e+02 0.0 
0.0 0.0 -4.643416158035e+01 
-1.252183619351e+02 1.886750886602e+00 0.0 
1.886750886602e+00 -2.887026871451e+02 0.0 
0.0 0.0 -1.237763147241e+02 
-1.555423857867e+01 4.418585258727e+00 0.0 
4.418585258727e+00 -4.425994975800e+01 0.0 
0.0 0.0 -1.754425650100e+01 
-6.680973432382e+01 -7.011003375966e-01 0.0 
-7.011003375966e-01 -1.688681313883e+02 0.0 
0.0 0.0 -7.030335971364e+01 
-1.385356725817e+02 5.861935892245e+00 0.0 
5.861935892245e+00 -3.309078329149e+02 0.0 
0.0 0.0 -1.404330516490e+02 
-3.131966217567e+01 -1.160698473959e+00 0.0 
-1.160698473959e+00 -7.904020902360e+01 0.0 
0.0 0.0 -3.270796135978e+01 
-9.699526054445e+01 1.188515816279e+00 0.0 
1.188515816279e+00 -2.208160545511e+02 0.0 
0.0 0.0 -9.494339452867e+01 
-8.872187543031e+01 1.163340356238e+00 0.0 
1.163340356238e+00 -2.008259584979e+02 0.0 
0.0 0.0 -8.646435017847e+01 
-3.047745351960e+01 -1.201293467264e-01 0.0 
-1.201293467264e-01 -7.674809400270e+01 0.0 
0.0 0.0 -3.176766425669e+01 
-1.375373849381e+02 4.395788340776e+00 0.0 
4.395788340776e+00 -3.299212786980e+02 0.0 
0.0 0.0 -1.398375990908e+02 
-1.128877410735e+02 1.740888052838e+00 0.0 
1.740888052838e+00 -2.582444847069e+02 0.0 
0.0 0.0 -1.109396677341e+02 
-3.580408914038e+01 -1.164505525056e+00 0.0 
-1.164505525056e+00 -9.089590480065e+01 0.0 
0.0 0.0 -3.760999818231e+01 
-1.288231835255e+02 2.041717238318e+00 0.0 
2.041717238318e+00 -2.973160205452e+02 0.0 
0.0 0.0 -1.274417612212e+02 
-1.281987323737e+02 5.690603670586e-01 0.0 
5.690603670586e-01 -2.967223197319e+02 0.0 
0.0 0.0 -1.270763156317e+02 
-4.041408002201e+01 2.342878921774e-01 0.0 
2.342878921774e-01 -1.021372640269e+02 0.0 
0.0 0.0 -4.236540321466e+01 
-4.825590048699e+01 6.688386801733e+00 0.0 
6.688386801733e+00 -1.013620761277e+02 0.0 
0.0 0.0 -4.448539298441e+01 
-4.127535588722e+01 7.972716494647e-02 0.0 
7.972716494647e-02 -1.047270549153e+02 0.0 
0.0 0.0 -4.340072324077e+01 
-1.217385998021e+02 1.875230650521e+00 0.0 
1.875230650521e+00 -2.954676863320e+02 0.0 
0.0 0.0 -1.247618858402e+02 
-9.500318566292e+01 -3.579291195044e-01 0.0 
-3.579291195044e-01 -2.355259165631e+02 0.0 
0.0 0.0 -9.875873066780e+01 
-1.299875440373e+02 2.537802966589e+00 0.0 
2.537802966589e+00 -2.990190753017e+02 0.0 
0.0 0.0 -1.283019858017e+02 
-1.247069176218e+02 2.422559319757e-01 0.0 
2.422559319757e-01 -2.882087407213e+02 0.0 
0.0 0.0 -1.234746975029e+02 
-1.177645789745e+02 2.037238270884e+00 0.0 
2.037238270884e+00 -2.869142206414e+02 0.0 
0.0 0.0 -1.210036398848e+02 
-1.173187042115e+02 5.877407564183e-01 0.0 
5.877407564183e-01 -2.864074583591e+02 0.0 
0.0 0.0 -1.207178487712e+02 
-3.321579490648e+01 -1.419916845511e+00 0.0 
-1.419916845511e+00 -8.468717356166e+01 0.0 
0.0 0.0 -3.497089054044e+01 
-1.213366477158e+02 4.136865674250e-01 0.0 
4.136865674250e-01 -2.949769585884e+02 0.0 
0.0 0.0 -1.244940818912e+02 
-1.123484269403e+02 9.743072741073e-02 0.0 
9.743072741073e-02 -2.577403014292e+02 0.0 
0.0 0.0 -1.106266185109e+02 
-9.543193355773e+01 1.070635780428e+00 0.0 
1.070635780428e+00 -2.360245201092e+02 0.0 
0.0 0.0 -9.903693610008e+01 
-1.052256144118e+02 1.364306233700e+00 0.0 
1.364306233700e+00 -2.404636801877e+02 0.0 
0.0 0.0 -1.033067883799e+02 
-1.171851410613e+02 1.716047118929e+00 0.0 
1.716047118929e+00 -2.690098488543e+02 0.0 
0.0 0.0 -1.154584969747e+02 
-8.068086517447e+01 5.876682958505e+00 0.0 
5.876682958505e+00 -1.964479022711e+02 0.0 
0.0 0.0 -8.273863023368e+01 
-1.209992593113e+02 2.114769675025e-02 0.0 
2.114769675025e-02 -2.793277914959e+02 0.0 
0.0 0.0 -1.196981152422e+02 
-7.884023699469e+01 -6.763993412195e-01 0.0 
-6.763993412195e-01 -1.977816767644e+02 0.0 
0.0 0.0 -8.258657412771e+01 
-9.165083711974e+01 1.161073762257e+00 0.0 
1.161073762257e+00 -2.274923497209e+02 0.0 
0.0 0.0 -9.534295605219e+01 
-5.899395608310e+01 -1.053120191543e+00 0.0 
-1.053120191543e+00 -1.495297132926e+02 0.0 
0.0 0.0 -6.215710081270e+01 
-6.153979528284e+01 8.651989977486e-01 0.0 
8.651989977486e-01 -1.569631432134e+02 0.0 
0.0 0.0 -6.515088154889e+01 
-1.085573942308e+02 -9.710418232297e-02 0.0 
-9.710418232297e-02 -2.488649594421e+02 0.0 
0.0 0.0 -1.068267061019e+02 
-8.583031654055e+01 2.527110939041e+00 0.0 
2.527110939041e+00 -2.157280937994e+02 0.0 
0.0 0.0 -9.006752310199e+01 
-4.469914280911e+01 2.008997188112e-01 0.0 
2.008997188112e-01 -1.132300414898e+02 0.0 
0.0 0.0 -4.697875528967e+01 
-2.311631474021e+01 -2.305798886763e-01 0.0 
-2.305798886763e-01 -5.739191965471e+01 0.0 
0.0 0.0 -2.375247031848e+01 
-1.090842812396e+02 1.529968428143e+00 0.0 
1.529968428143e+00 -2.493609735806e+02 0.0 
0.0 0.0 -1.071335764461e+02 
-4.410245989148e+01 -1.241264014664e+00 0.0 
-1.241264014664e+00 -1.126572503855e+02 0.0 
0.0 0.0 -4.662791308309e+01 
-1.457748559934e+02 2.483223748939e+00 0.0 
2.483223748939e+00 -3.472203931574e+02 0.0 
0.0 0.0 -1.474985747452e+02 
-1.129613767828e+02 -1.165936744924e-01 0.0 
-1.165936744924e-01 -2.596443567075e+02 0.0 
0.0 0.0 -1.113817200471e+02 
-1.261583261955e+02 7.763587467441e-01 0.0 
7.763587467441e-01 -3.056484060301e+02 0.0 
0.0 0.0 -1.291420196677e+02 
-1.515209157151e+02 6.542793798728e+00 0.0 
6.542793798728e+00 -3.568679791549e+02 0.0 
0.0 0.0 -1.521166684610e+02 
-7.534622810578e+01 9.217022784253e-01 0.0 
9.217022784253e-01 -1.887151405651e+02 0.0 
0.0 0.0 -7.881841060125e+01 
-3.990165480455e+01 -1.263422282146e+00 0.0 
-1.263422282146e+00 -1.015890791370e+02 0.0 
0.0 0.0 -4.204722018246e+01 
-2.579812309648e+01 -1.489941138374e+00 0.0 
-1.489941138374e+00 -6.500544900697e+01 0.0 
0.0 0.0 -2.684107163104e+01 
-1.185297360345e+02 2.573941435577e+00 0.0 
2.573941435577e+00 -2.888823203399e+02 0.0 
0.0 0.0 -1.218236169123e+02 
-1.010398753586e+02 -4.176730323016e-01 0.0 
-4.176730323016e-01 -2.311921706615e+02 0.0 
0.0 0.0 -9.926961380604e+01 
-1.891381682567e+01 -1.276844523822e+00 0.0 
-1.276844523822e+00 -4.619201103129e+01 0.0 
0.0 0.0 -1.913174835709e+01 
-6.029864466822e+01 5.447189269115e-01 0.0 
5.447189269115e-01 -1.522266398870e+02 0.0 
0.0 0.0 -6.335758536657e+01 
-3.546650279262e+01 3.485485369791e-01 0.0 
3.485485369791e-01 -8.890397935865e+01 0.0 
0.0 0.0 -3.691114464538e+01 
-1.009205789185e+02 1.317537684152e+00 0.0 
1.317537684152e+00 -2.297507752099e+02 0.0 
0.0 0.0 -9.880140623853e+01 
-6.401776469523e+01 6.695612164378e-01 0.0 
6.695612164378e-01 -1.608171091145e+02 0.0 
0.0 0.0 -6.705046214293e+01 
-1.093195130795e+02 9.040613733270e-01 0.0 
9.040613733270e-01 -2.691761661978e+02 0.0 
0.0 0.0 -1.131487037832e+02 
-5.928409407738e+01 5.789255041241e-01 0.0 
5.789255041241e-01 -1.498969544915e+02 0.0 
0.0 0.0 -6.235431457067e+01 
-1.220503974139e+02 1.431055956315e+00 0.0 
1.431055956315e+00 -2.817436578211e+02 0.0 
0.0 0.0 -1.207382165705e+02 
-5.179666908529e+01 -1.093513391056e+00 0.0 
-1.093513391056e+00 -1.321872793314e+02 0.0 
0.0 0.0 -5.479518452500e+01 
-1.191994867454e+02 3.174090275564e+00 0.0 
3.174090275564e+00 -2.905643666280e+02 0.0 
0.0 0.0 -1.225291560120e+02 
-3.626800150829e+01 -3.388538860624e-02 0.0 
-3.388538860624e-02 -9.254551368639e+01 0.0 
0.0 0.0 -3.824405455840e+01 
-1.145216499974e+02 2.730076232077e+00 0.0 
2.730076232077e+00 -2.801835327291e+02 0.0 
0.0 0.0 -1.180115548180e+02 
-8.731309542128e+01 8.610353332606e-01 0.0 
8.610353332606e-01 -2.172348591651e+02 0.0 
0.0 0.0 -9.096438637590e+01 
-1.220814844548e+02 9.602249803717e-01 0.0 
9.602249803717e-01 -2.970220701970e+02 0.0 
0.0 0.0 -1.253310663955e+02 
-5.449738106331e+01 3.351501795419e+00 0.0 
3.351501795419e+00 -1.438051711357e+02 0.0 
0.0 0.0 -5.909076565971e+01 
-3.475497319360e+01 -1.131908997578e+00 0.0 
-1.131908997578e+00 -8.807087623672e+01 0.0 
0.0 0.0 -3.644775482909e+01 
-9.326980776859e+01 1.066020211751e+00 0.0 
1.066020211751e+00 -2.118655340064e+02 0.0 
0.0 0.0 -9.114060253249e+01 
-1.077404002241e+02 5.319978436518e+00 0.0 
5.319978436518e+00 -2.640098433302e+02 0.0 
0.0 0.0 -1.111250730663e+02 
-7.288142274328e+01 4.738776452220e+00 0.0 
4.738776452220e+00 -1.613673750175e+02 0.0 
0.0 0.0 -6.987463932822e+01 
-1.013487511830e+02 1.252270839161e+00 0.0 
1.252270839161e+00 -2.314024960726e+02 0.0 
0.0 0.0 -9.942537417669e+01 
-4.009138531963e+01 2.461982081758e-01 0.0 
2.461982081758e-01 -1.033000287442e+02 0.0 
0.0 0.0 -4.261742421914e+01 
-1.037602348182e+02 1.260085833851e-01 0.0 
1.260085833851e-01 -2.363732246467e+02 0.0 
0.0 0.0 -1.016400378395e+02 
-3.159639696814e+01 3.125755092723e-01 0.0 
3.125755092723e-01 -7.995747933801e+01 0.0 
0.0 0.0 -3.306616289184e+01 
-1.369331974206e+02 3.746793352444e+00 0.0 
3.746793352444e+00 -3.287770792435e+02 0.0 
0.0 0.0 -1.393130829992e+02 
-1.123736859765e+02 5.839306956775e+00 0.0 
5.839306956775e+00 -2.734624246979e+02 0.0 
0.0 0.0 -1.153508332023e+02 
-1.185912641277e+02 7.424247799785e+00 0.0 
7.424247799785e+00 -2.814668696764e+02 0.0 
0.0 0.0 -1.196174401412e+02 
-1.332251821484e+02 2.048034426894e+00 0.0 
2.048034426894e+00 -3.087098933411e+02 0.0 
0.0 0.0 -1.321805226469e+02 
-9.410250741039e+01 2.883592178960e+00 0.0 
2.883592178960e+00 -2.347109032320e+02 0.0 
0.0 0.0 -9.824402319271e+01 
-3.241322766979e+01 -1.316134286179e+00 0.0 
-1.316134286179e+00 -8.236224781398e+01 0.0 
0.0 0.0 -3.403264264513e+01 
-1.065257852541e+02 3.039884208192e+00 0.0 
3.039884208192e+00 -2.626264916877e+02 0.0 
0.0 0.0 -1.103456830826e+02 
-1.413093807361e+02 2.726124289184e+00 0.0 
2.726124289184e+00 -3.383815724044e+02 0.0 
0.0 0.0 -1.435072859421e+02 
-5.129418826782e+01 1.056211158083e+00 0.0 
1.056211158083e+00 -1.329092201318e+02 0.0 
0.0 0.0 -5.486102251987e+01 
-1.225461260489e+02 2.415305403272e+00 0.0 
2.415305403272e+00 -2.975366211394e+02 0.0 
0.0 0.0 -1.256248241565e+02 
-1.133879285828e+02 1.523337895101e+00 0.0 
1.523337895101e+00 -2.601002245304e+02 0.0 
0.0 0.0 -1.116464459340e+02 
-3.928886521823e+01 -2.461391150273e-01 0.0 
-2.461391150273e-01 -1.047860392767e+02 0.0 
0.0 0.0 -4.282247134849e+01 
-1.105230808126e+02 2.882202470365e+00 0.0 
2.882202470365e+00 -2.714375107960e+02 0.0 
0.0 0.0 -1.141881774826e+02 
-9.227076915639e+01 1.320152373287e+00 0.0 
1.320152373287e+00 -2.082674709316e+02 0.0 
0.0 0.0 -8.976147202641e+01 
-4.726305384677e+01 3.823259899906e-01 0.0 
3.823259899906e-01 -1.192559402355e+02 0.0 
0.0 0.0 -4.955569822467e+01 
-5.669629969500e+01 4.596809852185e-01 0.0 
4.596809852185e-01 -1.436915427858e+02 0.0 
0.0 0.0 -5.971635274423e+01 
-8.876200806296e+01 6.978650287822e+00 0.0 
6.978650287822e+00 -2.002378622288e+02 0.0 
0.0 0.0 -8.629996108754e+01 
-1.180111520865e+02 1.140299164940e+00 0.0 
1.140299164940e+00 -2.883466284201e+02 0.0 
0.0 0.0 -1.215073341520e+02 
-6.603689489051e+01 5.439080706112e+00 0.0 
5.439080706112e+00 -1.419767048779e+02 0.0 
0.0 0.0 -6.200407993051e+01 
-8.423937520961e+01 7.360245077692e+00 0.0 
7.360245077692e+00 -1.912309947050e+02 0.0 
0.0 0.0 -8.224111097439e+01 
-1.080497797314e+02 1.128841700592e-01 0.0 
1.128841700592e-01 -2.470325895452e+02 0.0 
0.0 0.0 -1.061247107830e+02 
-9.656124288866e+01 -4.581843922502e-01 0.0 
-4.581843922502e-01 -2.203578764340e+02 0.0 
0.0 0.0 -9.467573579681e+01 
-9.562153544882e+01 -1.064676680244e-01 0.0 
-1.064676680244e-01 -2.168376074182e+02 0.0 
0.0 0.0 -9.333774286009e+01 
-8.690518358200e+01 -3.888844222813e-01 0.0 
-3.888844222813e-01 -2.166717296215e+02 0.0 
0.0 0.0 -9.067307396105e+01 
-1.334132583563e+02 4.644238055073e+00 0.0 
4.644238055073e+00 -3.210217858798e+02 0.0 
0.0 0.0 -1.359305132708e+02 
-1.025306013366e+02 3.217449682272e+00 0.0 
3.217449682272e+00 -2.537441189162e+02 0.0 
0.0 0.0 -1.064824160758e+02 
-9.255876619101e+01 1.130615432610e+00 0.0 
1.130615432610e+00 -2.100890628584e+02 0.0 
0.0 0.0 -9.039434871481e+01 
-1.352121772073e+02 5.556326019831e+00 0.0 
5.556326019831e+00 -3.095338039375e+02 0.0 
0.0 0.0 -1.330237943434e+02 
-1.232102988582e+02 7.644459491133e+00 0.0 
7.644459491133e+00 -2.904831000818e+02 0.0 
0.0 0.0 -1.237080196820e+02 
-1.139600345776e+02 1.311490433396e+00 0.0 
1.311490433396e+00 -2.796327185995e+02 0.0 
0.0 0.0 -1.176778259531e+02 
-1.166798701609e+02 7.742871401009e-02 0.0 
7.742871401009e-02 -2.685205334951e+02 0.0 
0.0 0.0 -1.151601210968e+02 
-6.510982432940e+01 9.123528117996e-01 0.0 
9.123528117996e-01 -1.653103454623e+02 0.0 
0.0 0.0 -6.872605093752e+01 
-6.090484294030e+01 6.502273711425e-01 0.0 
6.502273711425e-01 -1.545434160837e+02 0.0 
0.0 0.0 -6.423447770722e+01 
-3.360510267136e+01 -4.347061093340e-03 0.0 
-4.347061093340e-03 -8.516395922302e+01 0.0 
0.0 0.0 -3.523071856831e+01 
-1.111023000331e+02 3.532249275372e+00 0.0 
3.532249275372e+00 -2.728117387455e+02 0.0 
0.0 0.0 -1.147742116336e+02 
-6.451867584410e+01 7.125514471225e-01 0.0 
7.125514471225e-01 -1.630961371422e+02 0.0 
0.0 0.0 -6.788444389590e+01 
-1.047762915050e+02 1.547808647572e+00 0.0 
1.547808647572e+00 -2.385951863692e+02 0.0 
0.0 0.0 -1.026114433622e+02 
-1.004796063150e+02 1.561589567321e+00 0.0 
1.561589567321e+00 -2.278955998370e+02 0.0 
0.0 0.0 -9.811256184558e+01 
-8.405462098795e+01 6.750958493334e+00 0.0 
6.750958493334e+00 -2.067244433577e+02 0.0 
0.0 0.0 -8.683371930371e+01 
-5.239444942830e+01 -9.727039125747e-01 0.0 
-9.727039125747e-01 -1.345794880766e+02 0.0 
0.0 0.0 -5.569218125148e+01 
-5.152580793933e+01 5.725269261096e+00 0.0 
5.725269261096e+00 -1.329549384812e+02 0.0 
0.0 0.0 -5.494422392614e+01 
-5.596442044490e+01 -9.341657121195e-01 0.0 
-9.341657121195e-01 -1.430721788674e+02 0.0 
0.0 0.0 -5.931097979368e+01 
-6.012669700607e+01 -7.116578625798e-01 0.0 
-7.116578625798e-01 -1.539128666231e+02 0.0 
0.0 0.0 -6.381186908874e+01 
-3.653894560029e+01 -1.355804693215e+00 0.0 
-1.355804693215e+00 -9.317228780932e+01 0.0 
0.0 0.0 -3.851337002288e+01 
-1.292532523612e+02 4.908133876110e+00 0.0 
4.908133876110e+00 -3.119482428554e+02 0.0 
0.0 0.0 -1.319604485650e+02 
-7.267985513591e+01 4.389604883884e-01 0.0 
4.389604883884e-01 -1.859010695636e+02 0.0 
0.0 0.0 -7.717427740986e+01 
-1.214736168219e+02 1.666706397103e+00 0.0 
1.666706397103e+00 -2.798064638771e+02 0.0 
0.0 0.0 -1.199840242097e+02 
-7.691340428097e+01 9.525625394716e-01 0.0 
9.525625394716e-01 -1.962311833977e+02 0.0 
0.0 0.0 -8.154337630360e+01 
-1.059083250204e+02 1.671181191102e+00 0.0 
1.671181191102e+00 -2.620657822272e+02 0.0 
0.0 0.0 -1.099922321743e+02 
-8.898190298616e+01 1.078028855844e+00 0.0 
1.078028855844e+00 -2.239037905581e+02 0.0 
0.0 0.0 -9.346570806329e+01 
-8.287167740201e+01 7.859107251420e+00 0.0 
7.859107251420e+00 -1.927213351141e+02 0.0 
0.0 0.0 -8.227790375483e+01 
-3.707354454075e+01 5.696315205710e-02 0.0 
5.696315205710e-02 -9.373273636556e+01 0.0 
0.0 0.0 -3.884188427189e+01 
-1.369743718365e+02 3.021936185090e+00 0.0 
3.021936185090e+00 -3.293199972132e+02 0.0 
0.0 0.0 -1.394883107149e+02 
-1.427844499921e+02 5.068493199891e+00 0.0 
5.068493199891e+00 -3.411042532853e+02 0.0 
0.0 0.0 -1.447666109832e+02 
-1.085734710312e+02 4.971251100384e+00 0.0 
4.971251100384e+00 -2.472696029741e+02 0.0 
0.0 0.0 -1.063529222016e+02 
-6.427347696335e+01 -4.259154207143e-01 0.0 
-4.259154207143e-01 -1.646601840732e+02 0.0 
0.0 0.0 -6.828009831097e+01 
-9.737297487039e+01 1.382536287216e+00 0.0 
1.382536287216e+00 -2.429746267955e+02 0.0 
0.0 0.0 -1.017042804998e+02 
-1.042010304865e+02 -1.196555580237e-01 0.0 
-1.196555580237e-01 -2.380736537266e+02 0.0 
0.0 0.0 -1.022824052639e+02 
-6.876835181205e+01 9.357336590262e-01 0.0 
9.357336590262e-01 -1.738694105467e+02 0.0 
0.0 0.0 -7.239132870761e+01 
-6.853031174825e+01 7.489992011762e+00 0.0 
7.489992011762e+00 -1.529882977480e+02 0.0 
0.0 0.0 -6.605558284888e+01 
-5.236612012094e+01 3.502751283375e-01 0.0 
3.502751283375e-01 -1.327477780167e+02 0.0 
0.0 0.0 -5.513416944128e+01 
-4.395162710678e+01 6.295476055029e-01 0.0 
6.295476055029e-01 -1.139822637284e+02 0.0 
0.0 0.0 -4.698016725054e+01 
-6.930682220859e+01 1.248444786333e+00 0.0 
1.248444786333e+00 -1.759711261505e+02 0.0 
0.0 0.0 -7.318338450773e+01 
-4.755848776308e+01 -1.132349938716e+00 0.0 
-1.132349938716e+00 -1.211753277862e+02 0.0 
0.0 0.0 -5.022014466480e+01 
-4.382930851060e+01 3.171069599243e-01 0.0 
3.171069599243e-01 -1.106869294708e+02 0.0 
0.0 0.0 -4.595487139443e+01 
-8.971479147275e+01 2.385002661637e+00 0.0 
2.385002661637e+00 -2.245012900512e+02 0.0 
0.0 0.0 -9.386482445717e+01 
-1.099287546968e+02 1.482857344972e+00 0.0 
1.482857344972e+00 -2.708784265532e+02 0.0 
0.0 0.0 -1.138421543750e+02 
-1.281532116797e+02 5.330112029280e+00 0.0 
5.330112029280e+00 -2.950943304194e+02 0.0 
0.0 0.0 -1.265742626297e+02 
-5.094546855761e+00 -4.007447703437e-01 0.0 
-4.007447703437e-01 -8.986420626009e+00 0.0 
0.0 0.0 -3.824290244531e+00 
-7.351526719476e+01 2.149397292788e+00 0.0 
2.149397292788e+00 -1.886368545988e+02 0.0 
0.0 0.0 -7.824563653807e+01 
-7.309436924972e+01 1.189264960488e+00 0.0 
1.189264960488e+00 -1.875416712032e+02 0.0 
0.0 0.0 -7.779081213587e+01 
-6.844931744969e+01 -3.420077477971e-02 0.0 
-3.420077477971e-02 -1.753421877119e+02 0.0 
0.0 0.0 -7.273745154847e+01 
-9.989831030574e+01 -1.092796272885e-01 0.0 
-1.092796272885e-01 -2.273739542709e+02 0.0 
0.0 0.0 -9.778167937298e+01 
-8.074238598877e+01 7.574162120257e-01 0.0 
7.574162120257e-01 -2.048631909702e+02 0.0 
0.0 0.0 -8.528167308769e+01 
-5.536127930012e+01 -1.040435682098e+00 0.0 
-1.040435682098e+00 -1.407675888604e+02 0.0 
0.0 0.0 -5.843866044817e+01 
-7.352535937225e+01 1.658747137755e+00 0.0 
1.658747137755e+00 -1.865271161629e+02 0.0 
0.0 0.0 -7.761574266054e+01 
-1.172270365765e+02 -1.689983523409e-01 0.0 
-1.689983523409e-01 -2.704228336880e+02 0.0 
0.0 0.0 -1.158949610794e+02 
-5.575408592246e+01 4.491144627802e-01 0.0 
4.491144627802e-01 -1.412650180670e+02 0.0 
0.0 0.0 -5.870573119683e+01 
-2.178069666951e+01 -1.259053628555e+00 0.0 
-1.259053628555e+00 -5.419151324963e+01 0.0 
0.0 0.0 -2.239166297574e+01 
-2.913181647149e+01 -1.348512336892e+00 0.0 
-1.348512336892e+00 -7.386877903129e+01 0.0 
0.0 0.0 -3.050017865083e+01 
-4.638451362726e+01 -5.281037386307e-01 0.0 
-5.281037386307e-01 -1.217127626714e+02 0.0 
0.0 0.0 -5.002918288960e+01 
-5.652688634012e+01 -7.039465960315e-01 0.0 
-7.039465960315e-01 -1.455006325145e+02 0.0 
0.0 0.0 -6.020825565638e+01 
-7.733568517516e+01 1.791342129024e+00 0.0 
1.791342129024e+00 -1.975132954299e+02 0.0 
0.0 0.0 -8.205469418153e+01 
-7.774020523389e+01 2.146134960133e+00 0.0 
2.146134960133e+00 -1.968613096276e+02 0.0 
0.0 0.0 -8.198045445844e+01 
-3.279154933606e+01 4.314416094259e-02 0.0 
4.314416094259e-02 -8.374564712204e+01 0.0 
0.0 0.0 -3.456115893743e+01 
-2.922378907969e+01 7.916180334793e-02 0.0 
7.916180334793e-02 -7.420808286635e+01 0.0 
0.0 0.0 -3.062956158381e+01 
-9.544174889376e+01 1.872967774810e+00 0.0 
1.872967774810e+00 -2.149445859175e+02 0.0 
0.0 0.0 -9.271590044339e+01 
-4.811406646759e+01 3.454177314937e-01 0.0 
3.454177314937e-01 -1.217332589452e+02 0.0 
0.0 0.0 -5.055419762384e+01 
-1.239824477611e+02 2.957667320310e+00 0.0 
2.957667320310e+00 -3.014278617360e+02 0.0 
0.0 0.0 -1.272230928491e+02 
-1.241732310998e+02 5.390449013725e+00 0.0 
5.390449013725e+00 -2.858463909140e+02 0.0 
0.0 0.0 -1.226058866042e+02 
-9.939329279456e+01 3.255960768887e+00 0.0 
3.255960768887e+00 -2.209995753550e+02 0.0 
0.0 0.0 -9.571786044487e+01 
-1.236185810212e+02 8.838836863062e-01 0.0 
8.838836863062e-01 -2.845273716289e+02 0.0 
0.0 0.0 -1.220437857950e+02 
-1.321855393938e+02 5.220174562337e+00 0.0 
5.220174562337e+00 -3.044281219735e+02 0.0 
0.0 0.0 -1.305840984102e+02 
-8.039446702310e+01 7.214306755868e+00 0.0 
7.214306755868e+00 -1.966133438231e+02 0.0 
0.0 0.0 -8.270234325387e+01 
-1.163689508089e+02 5.158769859590e+00 0.0 
5.158769859590e+00 -2.665207032693e+02 0.0 
0.0 0.0 -1.144668962235e+02 
-3.680874977093e+01 2.149600805737e-01 0.0 
2.149600805737e-01 -9.491653501077e+01 0.0 
0.0 0.0 -3.911758543451e+01 
-7.726723539865e+01 1.597521773783e+00 0.0 
1.597521773783e+00 -1.950839682839e+02 0.0 
0.0 0.0 -8.130536110476e+01 
-7.393666953933e+01 6.465576680116e+00 0.0 
6.465576680116e+00 -1.757747361681e+02 0.0 
0.0 0.0 -7.451342171224e+01 
-3.928320962206e+01 9.615256522357e-01 0.0 
9.615256522357e-01 -1.068225035634e+02 0.0 
0.0 0.0 -4.343171395564e+01 
-2.991854329232e+01 -8.254419969667e-02 0.0 
-8.254419969667e-02 -7.584064203681e+01 0.0 
0.0 0.0 -3.132775559874e+01 
-6.379295959198e+01 -6.922742826634e-01 0.0 
-6.922742826634e-01 -1.624811712151e+02 0.0 
0.0 0.0 -6.748223924213e+01 
-7.393421323827e+01 2.312855791816e+00 0.0 
2.312855791816e+00 -1.881741105594e+02 0.0 
0.0 0.0 -7.823249713930e+01 
-7.809484228082e+01 2.923370629839e+00 0.0 
2.923370629839e+00 -1.980942148163e+02 0.0 
0.0 0.0 -8.245671712912e+01 
-5.101305312108e+01 -1.001603686779e+00 0.0 
-1.001603686779e+00 -1.297074269796e+02 0.0 
0.0 0.0 -5.381614403021e+01 
-8.507029449478e+01 1.274017003426e+00 0.0 
1.274017003426e+00 -2.151316189161e+02 0.0 
0.0 0.0 -8.966057402326e+01 
-7.424586222088e+01 3.199499387679e+00 0.0 
3.199499387679e+00 -1.892057790274e+02 0.0 
0.0 0.0 -7.863549237447e+01 
-7.782509404486e+01 2.830594495759e+00 0.0 
2.830594495759e+00 -1.982234665303e+02 0.0 
0.0 0.0 -8.241456817256e+01 
-5.736357720342e+01 5.849767869786e-01 0.0 
5.849767869786e-01 -1.461298049584e+02 0.0 
0.0 0.0 -6.064801464855e+01 
-1.131220137562e+02 6.602577891413e+00 0.0 
6.602577891413e+00 -2.731413664633e+02 0.0 
0.0 0.0 -1.154790140658e+02 
-1.086082808716e+02 1.771925909325e+00 0.0 
1.771925909325e+00 -2.475445155793e+02 0.0 
0.0 0.0 -1.064458389353e+02 
-7.406695177412e+01 3.285894469192e+00 0.0 
3.285894469192e+00 -1.891312808104e+02 0.0 
0.0 0.0 -7.855946977535e+01 
-1.329304422768e+02 3.236149719130e+00 0.0 
3.236149719130e+00 -3.205117209262e+02 0.0 
0.0 0.0 -1.356326489609e+02 
-4.050173890339e+01 7.063454104101e-01 0.0 
7.063454104101e-01 -1.055047834441e+02 0.0 
0.0 0.0 -4.340195670424e+01 
-1.428059761602e+02 4.316091365717e+00 0.0 
4.316091365717e+00 -3.410242919336e+02 0.0 
0.0 0.0 -1.447490804281e+02 
-8.117507901586e+01 1.501743494893e+00 0.0 
1.501743494893e+00 -2.062955331620e+02 0.0 
0.0 0.0 -8.584118365336e+01 
-1.369136198242e+02 4.969097868595e+00 0.0 
4.969097868595e+00 -3.155881769080e+02 0.0 
0.0 0.0 -1.353505390197e+02 
-1.024367533187e+02 5.156211257513e+00 0.0 
5.156211257513e+00 -2.284295133168e+02 0.0 
0.0 0.0 -9.885987999068e+01 
-3.911797276614e+01 -8.967931771390e-01 0.0 
-8.967931771390e-01 -1.026364005011e+02 0.0 
0.0 0.0 -4.212631198019e+01 
-1.031643901323e+02 3.751144198693e+00 0.0 
3.751144198693e+00 -2.298791953324e+02 0.0 
0.0 0.0 -9.951307563942e+01 
-1.268970820393e+02 1.602495562957e+00 0.0 
1.602495562957e+00 -2.917607895127e+02 0.0 
0.0 0.0 -1.251973614656e+02 
-8.551877341150e+01 2.099199994504e+00 0.0 
2.099199994504e+00 -2.162216816787e+02 0.0 
0.0 0.0 -9.012213652706e+01 
-5.822637850554e+01 8.578566545568e+00 0.0 
8.578566545568e+00 -1.339924339155e+02 0.0 
0.0 0.0 -5.726564372632e+01 
-1.069205994778e+02 4.260781927005e+00 0.0 
4.260781927005e+00 -2.388945523604e+02 0.0 
0.0 0.0 -1.033445455514e+02 
-8.078577032189e+01 4.878458790680e+00 0.0 
4.878458790680e+00 -1.805898671651e+02 0.0 
0.0 0.0 -7.801269124611e+01 
-3.199491085583e+01 -1.227490948430e+00 0.0 
-1.227490948430e+00 -8.311158194818e+01 0.0 
0.0 0.0 -3.413194784120e+01 
-1.396401713169e+02 1.257247340968e+00 0.0 
1.257247340968e+00 -3.242638636483e+02 0.0 
0.0 0.0 -1.387712104895e+02 
-2.825246892915e+01 -1.423517231907e+00 0.0 
-1.423517231907e+00 -7.251005776359e+01 0.0 
0.0 0.0 -2.982875800782e+01 
-1.397561523108e+02 7.796292645706e+00 0.0 
7.796292645706e+00 -3.297781833370e+02 0.0 
0.0 0.0 -1.404603006943e+02 
-1.288998157534e+02 1.746943531587e-01 0.0 
1.746943531587e-01 -2.988425125779e+02 0.0 
0.0 0.0 -1.279226984994e+02 
-1.170599715729e+02 6.334731868524e+00 0.0 
6.334731868524e+00 -2.828589410845e+02 0.0 
0.0 0.0 -1.195756737972e+02 
-9.594228345407e+01 -3.741399558656e-01 0.0 
-3.741399558656e-01 -2.182957414296e+02 0.0 
0.0 0.0 -9.387140746511e+01 
-1.204989372120e+02 2.261754894831e+00 0.0 
2.261754894831e+00 -2.761626246170e+02 0.0 
0.0 0.0 -1.185984685487e+02 
-7.842122326731e+01 3.893899497711e+00 0.0 
3.893899497711e+00 -1.987232332386e+02 0.0 
0.0 0.0 -8.274333695177e+01 
-9.238426580595e+01 6.767247010620e+00 0.0 
6.767247010620e+00 -2.254651539742e+02 0.0 
0.0 0.0 -9.495482593404e+01 
-1.316336848948e+02 1.096094369728e+00 0.0 
1.096094369728e+00 -3.040936125104e+02 0.0 
0.0 0.0 -1.303181892216e+02 
-1.186441292754e+02 1.752175242592e+00 0.0 
1.752175242592e+00 -2.900119765501e+02 0.0 
0.0 0.0 -1.221968317476e+02 
-1.124828900429e+02 2.012939128772e+00 0.0 
2.012939128772e+00 -2.565186379146e+02 0.0 
0.0 0.0 -1.103004583872e+02 
-1.113669708400e+02 3.665267452015e+00 0.0 
3.665267452015e+00 -2.730724960783e+02 0.0 
0.0 0.0 -1.149318400755e+02 
-3.569189121022e+01 -8.020461737366e-01 0.0 
-8.020461737366e-01 -9.421432450504e+01 0.0 
0.0 0.0 -3.857186471458e+01 
-1.163472791968e+02 2.301305196558e+00 0.0 
2.301305196558e+00 -2.654645331728e+02 0.0 
0.0 0.0 -1.141435437109e+02 
-1.473061824562e+02 7.409317639579e+00 0.0 
7.409317639579e+00 -3.417174189601e+02 0.0 
0.0 0.0 -1.463070804249e+02 
-1.423503942819e+02 3.445728884161e+00 0.0 
3.445728884161e+00 -3.404053162156e+02 0.0 
0.0 0.0 -1.444267131493e+02 
-7.646345168368e+01 2.997931477189e-01 0.0 
2.997931477189e-01 -1.944599945619e+02 0.0 
0.0 0.0 -8.087703387368e+01 
-9.649808707322e+01 1.378353712695e+00 0.0 
1.378353712695e+00 -2.187661394278e+02 0.0 
0.0 0.0 -9.417926795031e+01 
-9.159693667701e+01 -3.826207853377e-01 0.0 
-3.826207853377e-01 -2.077013571502e+02 0.0 
0.0 0.0 -8.938948814816e+01 
-8.193402351548e+01 2.713276425377e+00 0.0 
2.713276425377e+00 -2.068835221723e+02 0.0 
0.0 0.0 -8.624526370632e+01 
-1.145757174996e+02 1.946258321542e+00 0.0 
1.946258321542e+00 -2.811723483837e+02 0.0 
0.0 0.0 -1.183244197650e+02 
-1.192652408508e+02 2.437717883315e+00 0.0 
2.437717883315e+00 -2.913528213973e+02 0.0 
0.0 0.0 -1.227854186744e+02 
-2.622371037800e+01 1.963654433138e-02 0.0 
1.963654433138e-02 -6.552547387167e+01 0.0 
0.0 0.0 -2.712475527490e+01 
-4.349423737656e+01 5.677020361952e+00 0.0 
5.677020361952e+00 -1.149279147653e+02 0.0 
0.0 0.0 -4.712664564255e+01 
-7.854587940398e+01 3.960275852651e+00 0.0 
3.960275852651e+00 -1.983854197313e+02 0.0 
0.0 0.0 -8.267938974059e+01 
-7.457986434718e+01 4.310557513681e+00 0.0 
4.310557513681e+00 -1.895944326380e+02 0.0 
0.0 0.0 -7.885228909554e+01 
-7.983735609130e+01 5.792824571196e+00 0.0 
5.792824571196e+00 -1.820411907067e+02 0.0 
0.0 0.0 -7.816356403940e+01 
-1.363352933723e+02 2.613283898198e+00 0.0 
2.613283898198e+00 -3.150721313021e+02 0.0 
0.0 0.0 -1.350222274023e+02 
-1.298112285067e+02 3.143120678632e+00 0.0 
3.143120678632e+00 -2.980155685712e+02 0.0 
0.0 0.0 -1.279480391234e+02 
-1.293425603423e+02 1.766190806386e+00 0.0 
1.766190806386e+00 -2.992097200477e+02 0.0 
0.0 0.0 -1.281656841170e+02 
-7.036928006057e+01 4.926130287560e+00 0.0 
4.926130287560e+00 -1.516621328424e+02 0.0 
0.0 0.0 -6.620942387090e+01 
-1.190524572526e+02 1.307809349102e+00 0.0 
1.307809349102e+00 -2.721748974160e+02 0.0 
0.0 0.0 -1.169682064006e+02 
-1.151450263210e+02 3.345584769606e+00 0.0 
3.345584769606e+00 -2.817182800709e+02 0.0 
0.0 0.0 -1.186589919176e+02 
-1.320233715070e+02 6.851069748265e-01 0.0 
6.851069748265e-01 -3.059928286291e+02 0.0 
0.0 0.0 -1.310048600408e+02 
-1.121806041626e+02 2.334117516146e+00 0.0 
2.334117516146e+00 -2.547807593592e+02 0.0 
0.0 0.0 -1.096884090565e+02 
-8.153321484381e+01 2.033959196102e+00 0.0 
2.033959196102e+00 -2.054816859143e+02 0.0 
0.0 0.0 -8.570447022744e+01 
-7.487259159686e+01 4.486824405838e+00 0.0 
4.486824405838e+00 -1.889359735346e+02 0.0 
0.0 0.0 -7.874256953945e+01 
-1.156365129480e+02 6.295207062268e-01 0.0 
6.295207062268e-01 -2.648831266516e+02 0.0 
0.0 0.0 -1.137558918799e+02 
-1.284725347666e+02 2.500875293927e+00 0.0 
2.500875293927e+00 -2.958450322372e+02 0.0 
0.0 0.0 -1.268952701011e+02 
-1.161276109196e+02 3.159612718345e-01 0.0 
3.159612718345e-01 -2.666686964696e+02 0.0 
0.0 0.0 -1.144388922167e+02 
-1.118481855579e+02 3.520762391287e-01 0.0 
3.520762391287e-01 -2.559718989853e+02 0.0 
0.0 0.0 -1.099460253630e+02 
-1.322702085689e+02 2.466335788273e+00 0.0 
2.466335788273e+00 -3.193846455315e+02 0.0 
0.0 0.0 -1.350964562301e+02 
-1.358030105444e+02 7.813850965835e+00 0.0 
7.813850965835e+00 -3.199660927529e+02 0.0 
0.0 0.0 -1.363307309892e+02 
-1.281378396850e+02 2.704063350204e+00 0.0 
2.704063350204e+00 -3.104435419600e+02 0.0 
0.0 0.0 -1.311744144935e+02 
-1.013444407784e+02 1.207812802968e+00 0.0 
1.207812802968e+00 -2.517499223904e+02 0.0 
0.0 0.0 -1.055283089506e+02 
-6.634616720801e+01 1.073222277804e+00 0.0 
1.073222277804e+00 -1.432047796075e+02 0.0 
0.0 0.0 -6.246528404464e+01 
-1.216514359724e+02 6.746133054383e+00 0.0 
6.746133054383e+00 -2.920167001600e+02 0.0 
0.0 0.0 -1.237004408397e+02 
-1.108752590243e+02 1.366909152537e+00 0.0 
1.366909152537e+00 -2.512561208408e+02 0.0 
0.0 0.0 -1.082394139595e+02 
-4.333082468439e+01 -1.122875517667e+00 0.0 
-1.122875517667e+00 -1.101639645160e+02 0.0 
0.0 0.0 -4.564843676013e+01 
-7.887775882104e+01 5.035749601476e+00 0.0 
5.035749601476e+00 -1.987740686345e+02 0.0 
0.0 0.0 -8.289554823666e+01 
-9.052405681591e+01 3.674642037366e+00 0.0 
3.674642037366e+00 -2.261205871663e+02 0.0 
0.0 0.0 -9.459339319466e+01 
-1.007859979506e+02 6.801358536046e+00 0.0 
6.801358536046e+00 -2.443334321282e+02 0.0 
0.0 0.0 -1.031358290236e+02 
-3.900414833673e+01 2.445438857126e+00 0.0 
2.445438857126e+00 -1.072113419598e+02 0.0 
0.0 0.0 -4.346464708895e+01 
-7.507920488852e+01 5.543579026659e+00 0.0 
5.543579026659e+00 -1.892784584815e+02 0.0 
0.0 0.0 -7.890729901099e+01 
-1.092523108909e+02 6.872403898861e+00 0.0 
6.872403898861e+00 -2.632937309935e+02 0.0 
0.0 0.0 -1.113638125653e+02 
-7.811898060920e+01 2.118558532196e+00 0.0 
2.118558532196e+00 -1.707216029593e+02 0.0 
0.0 0.0 -7.425217507055e+01 
-8.460933909241e+01 6.158918400019e-01 0.0 
6.158918400019e-01 -2.135465662171e+02 0.0 
0.0 0.0 -8.904677159287e+01 
-1.040887747360e+02 2.057027769716e+00 0.0 
2.057027769716e+00 -2.350818257956e+02 0.0 
0.0 0.0 -1.013511801595e+02 
-7.894011388748e+01 -5.193286365398e-01 0.0 
-5.193286365398e-01 -1.779356466825e+02 0.0 
0.0 0.0 -7.666272817100e+01 
-8.632745936591e+00 6.390040904823e+00 0.0 
6.390040904823e+00 -1.358907754751e+01 0.0 
0.0 0.0 -6.266547045229e+00 
-9.804752675789e+01 2.721263282370e+00 0.0 
2.721263282370e+00 -2.435534387161e+02 0.0 
0.0 0.0 -1.020802896422e+02 
-1.207029314392e+02 4.661603231565e+00 0.0 
4.661603231565e+00 -2.919930674785e+02 0.0 
0.0 0.0 -1.234087996753e+02 
-1.337914935654e+02 2.872052006565e+00 0.0 
2.872052006565e+00 -3.081183953098e+02 0.0 
0.0 0.0 -1.321729666626e+02 
-8.776853496329e+01 5.045358234470e+00 0.0 
5.045358234470e+00 -2.163578476724e+02 0.0 
0.0 0.0 -9.083791479070e+01 
-9.290486385033e+01 9.158853376709e-01 0.0 
9.158853376709e-01 -2.326442698872e+02 0.0 
0.0 0.0 -9.726474012127e+01 
-1.043412366133e+02 1.767739831842e+00 0.0 
1.767739831842e+00 -2.368859291371e+02 0.0 
0.0 0.0 -1.019681497251e+02 
-1.093747931307e+01 2.232452430684e+00 0.0 
2.232452430684e+00 -2.155941290086e+01 0.0 
0.0 0.0 -9.349067664179e+00 
-1.167830424408e+02 4.926517914585e+00 0.0 
4.926517914585e+00 -2.824377535754e+02 0.0 
0.0 0.0 -1.193662388048e+02 
-9.614473620188e+01 6.374926482471e+00 0.0 
6.374926482471e+00 -2.353593191784e+02 0.0 
0.0 0.0 -9.905121661410e+01 
-8.309146493231e+01 3.878274643598e+00 0.0 
3.878274643598e+00 -1.812623097630e+02 0.0 
0.0 0.0 -7.890613240860e+01 
-1.198042737450e+02 3.835135461199e+00 0.0 
3.835135461199e+00 -2.918834077229e+02 0.0 
0.0 0.0 -1.231063044404e+02 
-4.069051571270e+01 1.529352443765e+00 0.0 
1.529352443765e+00 -1.075252354851e+02 0.0 
0.0 0.0 -4.406472535934e+01 
-1.245140120670e+02 4.356217478286e+00 0.0 
4.356217478286e+00 -3.019576964214e+02 0.0 
0.0 0.0 -1.275415125465e+02 
-1.377437443970e+02 3.730338998567e+00 0.0 
3.730338998567e+00 -3.305956184501e+02 0.0 
0.0 0.0 -1.401018088541e+02 
-1.129349870281e+02 5.188939486574e+00 0.0 
5.188939486574e+00 -2.727584688404e+02 0.0 
0.0 0.0 -1.153080367606e+02 
-1.166879156749e+02 1.979448118921e+00 0.0 
1.979448118921e+00 -2.671915760872e+02 0.0 
0.0 0.0 -1.147638475286e+02 
-1.240337797241e+02 7.559016193543e+00 0.0 
7.559016193543e+00 -2.870443321023e+02 0.0 
0.0 0.0 -1.229234335479e+02 
-1.383287029521e+02 5.254353053810e+00 0.0 
5.254353053810e+00 -3.311209063004e+02 0.0 
0.0 0.0 -1.404348827758e+02 
-1.969000161642e+01 1.005663856636e+00 0.0 
1.005663856636e+00 -4.041515093605e+01 0.0 
0.0 0.0 -1.763154576574e+01 
-1.082985071675e+02 2.015730754588e+00 0.0 
2.015730754588e+00 -2.458420148146e+02 0.0 
0.0 0.0 -1.058421565946e+02 
-1.360288430843e+02 7.964065462087e+00 0.0 
7.964065462087e+00 -3.186160763998e+02 0.0 
0.0 0.0 -1.359934758452e+02 
-1.198674814219e+02 5.810899025503e-01 0.0 
5.810899025503e-01 -2.756096103115e+02 0.0 
0.0 0.0 -1.182431275200e+02 
-1.044944951381e+02 5.104689124199e+00 0.0 
5.104689124199e+00 -2.538686489675e+02 0.0 
0.0 0.0 -1.071089432317e+02 
-7.949741930983e+01 6.211390168196e+00 0.0 
6.211390168196e+00 -1.980210119338e+02 0.0 
0.0 0.0 -8.285552937308e+01 
-9.185096884286e+01 1.657454383642e-02 0.0 
1.657454383642e-02 -2.290047006451e+02 0.0 
0.0 0.0 -9.585670084640e+01 
-2.151507162991e+01 1.724116802649e+00 0.0 
1.724116802649e+00 -6.189216644700e+01 0.0 
0.0 0.0 -2.462217142307e+01 
-1.241214763940e+02 5.063949028227e-01 0.0 
5.063949028227e-01 -2.863130148166e+02 0.0 
0.0 0.0 -1.227303473632e+02 
-4.686088603537e+01 -1.079163531601e+00 0.0 
-1.079163531601e+00 -1.188151383574e+02 0.0 
0.0 0.0 -4.930280731783e+01 
-2.870498443940e+01 6.957672675813e-01 0.0 
6.957672675813e-01 -5.949023614442e+01 0.0 
0.0 0.0 -2.605856617515e+01 
-1.203746984391e+02 7.264398359542e+00 0.0 
7.264398359542e+00 -2.769669212999e+02 0.0 
0.0 0.0 -1.188024859217e+02 
-1.328441919574e+02 3.832275276722e-01 0.0 
3.832275276722e-01 -3.082429638816e+02 0.0 
0.0 0.0 -1.319261467517e+02 
-3.712244183760e+01 8.068558119051e-01 0.0 
8.068558119051e-01 -9.722036420419e+01 0.0 
0.0 0.0 -3.990284181253e+01 
-9.320383045141e+01 6.604587061162e+00 0.0 
6.604587061162e+00 -2.094305603666e+02 0.0 
0.0 0.0 -9.039031724540e+01 
-1.114393901583e+02 6.390629734288e-01 0.0 
6.390629734288e-01 -2.541869439935e+02 0.0 
0.0 0.0 -1.092879002456e+02 
-8.921839041286e+01 1.858455130121e+00 0.0 
1.858455130121e+00 -2.228715290533e+02 0.0 
0.0 0.0 -9.322697583984e+01 
-4.037493468056e+01 3.042550056283e+00 0.0 
3.042550056283e+00 -1.079267936278e+02 0.0 
0.0 0.0 -4.409051849250e+01 
-5.409305434198e+01 7.029265680799e+00 0.0 
7.029265680799e+00 -1.259484439488e+02 0.0 
0.0 0.0 -5.361244948723e+01 
-2.910504332079e+01 -1.019364193200e+00 0.0 
-1.019364193200e+00 -7.527268689278e+01 0.0 
0.0 0.0 -3.091331906407e+01 
-3.586687251105e+01 1.081201550107e-03 0.0 
1.081201550107e-03 -9.654332173210e+01 0.0 
0.0 0.0 -3.932305827295e+01 
-3.238196308746e+01 -6.583116126815e-01 0.0 
-6.583116126815e-01 -8.620832126380e+01 0.0 
0.0 0.0 -3.517708530538e+01 
-9.610696789413e+01 5.063004789992e+00 0.0 
5.063004789992e+00 -2.350634157370e+02 0.0 
0.0 0.0 -9.895111508935e+01 
-1.498154568449e+02 3.191793758718e+00 0.0 
3.191793758718e+00 -3.481786058468e+02 0.0 
0.0 0.0 -1.489982188075e+02 
-3.740303660387e+01 4.098524155705e-01 0.0 
4.098524155705e-01 -7.863979545268e+01 0.0 
0.0 0.0 -3.441284961697e+01 
-1.364786414453e+02 2.271280190894e+00 0.0 
2.271280190894e+00 -3.282420735015e+02 0.0 
0.0 0.0 -1.390162144840e+02 
-6.776476303491e+01 5.626615456338e+00 0.0 
5.626615456338e+00 -1.694566356125e+02 0.0 
0.0 0.0 -7.076641959423e+01 
-1.080429241963e+02 2.376666170682e+00 0.0 
2.376666170682e+00 -2.442415072233e+02 0.0 
0.0 0.0 -1.052853294259e+02 
-2.802634344280e+01 2.573470099371e+00 0.0 
2.573470099371e+00 -8.010777132226e+01 0.0 
0.0 0.0 -3.204023442952e+01 
-1.430940460396e+02 5.755820423419e+00 0.0 
5.755820423419e+00 -3.410300840096e+02 0.0 
0.0 0.0 -1.448372390148e+02 
-3.373351660593e+01 1.880803113323e-01 0.0 
1.880803113323e-01 -8.689959534101e+01 0.0 
0.0 0.0 -3.578993358408e+01 
-5.497072493446e+01 -9.805597520177e-01 0.0 
-9.805597520177e-01 -1.389981288173e+02 0.0 
0.0 0.0 -5.779065612553e+01 
-1.175918048398e+02 5.510732739856e+00 0.0 
5.510732739856e+00 -2.819221276811e+02 0.0 
0.0 0.0 -1.194541797563e+02 
-8.226792193139e+01 3.566333426260e+00 0.0 
3.566333426260e+00 -2.077039524849e+02 0.0 
0.0 0.0 -8.659156232489e+01 
-1.317655753208e+02 7.794940646576e+00 0.0 
7.794940646576e+00 -3.098942056727e+02 0.0 
0.0 0.0 -1.320979342980e+02 
-6.061179820664e+01 7.588153044437e+00 0.0 
7.588153044437e+00 -1.334706721886e+02 0.0 
0.0 0.0 -5.782474111856e+01 
-1.157424243287e+02 3.023726028200e+00 0.0 
3.023726028200e+00 -2.623282089789e+02 0.0 
0.0 0.0 -1.130211899923e+02 
-1.393584491742e+02 6.186874218255e+00 0.0 
6.186874218255e+00 -3.292571055487e+02 0.0 
0.0 0.0 -1.401846664168e+02 
-1.075861400617e+02 3.471860985408e-01 0.0 
3.471860985408e-01 -2.452748797492e+02 0.0 
0.0 0.0 -1.054583059433e+02 
-1.343834713509e+02 4.614077081438e+00 0.0 
4.614077081438e+00 -3.087436775594e+02 0.0 
0.0 0.0 -1.325381446731e+02 
-1.201337457797e+02 2.607199223274e+00 0.0 
2.607199223274e+00 -2.743562324965e+02 0.0 
0.0 0.0 -1.179469934829e+02 
-1.239011389186e+02 2.937861330691e+00 0.0 
2.937861330691e+00 -2.833538216946e+02 0.0 
0.0 0.0 -1.217764881840e+02 
-3.221985371776e+01 6.567443208288e+00 0.0 
6.567443208288e+00 -8.687030884811e+01 0.0 
0.0 0.0 -3.532704876976e+01 
-1.315892512698e+02 1.834990352090e+00 0.0 
1.834990352090e+00 -3.178018000053e+02 0.0 
0.0 0.0 -1.344173153825e+02 
-1.152847989238e+02 9.712610004829e-01 0.0 
9.712610004829e-01 -2.631970820507e+02 0.0 
0.0 0.0 -1.131445642923e+02 
-8.535366057145e+01 6.052367027091e+00 0.0 
6.052367027091e+00 -2.048361371021e+02 0.0 
0.0 0.0 -8.665693930208e+01 
-4.587173940374e+01 9.963067261370e-02 0.0 
9.963067261370e-02 -9.791378473482e+01 0.0 
0.0 0.0 -4.273565724157e+01 
-1.444039047697e+02 8.114889386832e+00 0.0 
8.114889386832e+00 -3.389236639245e+02 0.0 
0.0 0.0 -1.445982706083e+02 
-3.915751496351e+01 4.529988029870e+00 0.0 
4.529988029870e+00 -1.067854340129e+02 0.0 
0.0 0.0 -4.338288469292e+01 
-5.164299878611e+01 4.958105251157e-01 0.0 
4.958105251157e-01 -1.302849065738e+02 0.0 
0.0 0.0 -5.417837160799e+01 
-1.268441975812e+02 5.946293946000e+00 0.0 
5.946293946000e+00 -3.002643408007e+02 0.0 
0.0 0.0 -1.277325615146e+02 
-3.157243780618e+01 5.078170994294e-01 0.0 
5.078170994294e-01 -7.981710751260e+01 0.0 
0.0 0.0 -3.301686359564e+01 
-8.754766331583e+01 7.607080081338e+00 0.0 
7.607080081338e+00 -2.014395650830e+02 0.0 
0.0 0.0 -8.629616851966e+01 
-1.213998864993e+02 5.335077211420e+00 0.0 
5.335077211420e+00 -2.916401156142e+02 0.0 
0.0 0.0 -1.235120006341e+02 
-1.314324845859e+02 3.103671235490e+00 0.0 
3.103671235490e+00 -3.023918787160e+02 0.0 
0.0 0.0 -1.297473089906e+02 
-1.352126779093e+02 3.484045667930e+00 0.0 
3.484045667930e+00 -3.118084848235e+02 0.0 
0.0 0.0 -1.337063488198e+02 
-1.177579732216e+02 6.985969851357e+00 0.0 
6.985969851357e+00 -2.823001232802e+02 0.0 
0.0 0.0 -1.196174289505e+02 
-1.242691203270e+02 2.564801291725e+00 0.0 
2.564801291725e+00 -2.850909161992e+02 0.0 
0.0 0.0 -1.224080109579e+02 
-7.249627262214e+01 6.019131467865e+00 0.0 
6.019131467865e+00 -1.778333724723e+02 0.0 
0.0 0.0 -7.469889352834e+01 
-1.210620482462e+02 6.826208475944e+00 0.0 
6.826208475944e+00 -2.765184512305e+02 0.0 
0.0 0.0 -1.188741498430e+02 
-5.436075453959e+01 -7.286962528206e-02 0.0 
-7.286962528206e-02 -1.173606019181e+02 0.0 
0.0 0.0 -5.111640693731e+01 
-1.326674610146e+02 4.130439161255e+00 0.0 
4.130439161255e+00 -3.055036605761e+02 0.0 
0.0 0.0 -1.310513364772e+02 
-6.267378129381e+01 -9.685633136309e-02 0.0 
-9.685633136309e-02 -1.368291311509e+02 0.0 
0.0 0.0 -5.945087373342e+01 
-6.735044847899e+01 4.979489279654e-02 0.0 
4.979489279654e-02 -1.466287029426e+02 0.0 
0.0 0.0 -6.379374542647e+01 
-8.418753792589e+01 5.470865117821e+00 0.0 
5.470865117821e+00 -2.065120418627e+02 0.0 
0.0 0.0 -8.680987393658e+01 
-7.106310571445e+01 -1.455483143676e-01 0.0 
-1.455483143676e-01 -1.565454728117e+02 0.0 
0.0 0.0 -6.788257355785e+01 
-9.888742157886e+01 7.600094156319e+00 0.0 
7.600094156319e+00 -2.306433024422e+02 0.0 
0.0 0.0 -9.845921720632e+01 
-7.813936450384e+01 8.011588367551e+00 0.0 
8.011588367551e+00 -1.841948708533e+02 0.0 
0.0 0.0 -7.830027060713e+01 
-8.326359225987e+01 5.711922749662e+00 0.0 
5.711922749662e+00 -2.077248995261e+02 0.0 
0.0 0.0 -8.689654753579e+01 
-3.538371705936e+01 1.274368352087e+00 0.0 
1.274368352087e+00 -9.753794471443e+01 0.0 
0.0 0.0 -3.947649853214e+01 
-7.948821055833e+01 5.041921516901e+00 0.0 
5.041921516901e+00 -1.977628947746e+02 0.0 
0.0 0.0 -8.277533159987e+01 
-1.278356553799e+02 8.099149109261e-01 0.0 
8.099149109261e-01 -2.952860125635e+02 0.0 
0.0 0.0 -1.265365003830e+02 
-1.342698704074e+02 3.357121904491e+00 0.0 
3.357121904491e+00 -3.089722021636e+02 0.0 
0.0 0.0 -1.325726217713e+02 
-1.227201569056e+02 1.571584826220e+00 0.0 
1.571584826220e+00 -2.987611482283e+02 0.0 
0.0 0.0 -1.260443915402e+02 
-1.352740014378e+02 6.194368501241e+00 0.0 
6.194368501241e+00 -3.193965538435e+02 0.0 
0.0 0.0 -1.360011665844e+02 
-8.161667819303e+01 2.432632471959e+00 0.0 
2.432632471959e+00 -2.071745967310e+02 0.0 
0.0 0.0 -8.623738247721e+01 
-1.232065205785e+02 1.246180525834e+00 0.0 
1.246180525834e+00 -2.827663492838e+02 0.0 
0.0 0.0 -1.213918609587e+02 
-8.310702065775e+01 4.550632245845e+00 0.0 
4.550632245845e+00 -2.074099634948e+02 0.0 
0.0 0.0 -8.675509524576e+01 
-1.357915486120e+02 1.602430443330e+00 0.0 
1.602430443330e+00 -3.264975884358e+02 0.0 
0.0 0.0 -1.382867411143e+02 
-1.194126418179e+02 9.490910887023e-01 0.0 
9.490910887023e-01 -2.737701300317e+02 0.0 
0.0 0.0 -1.175548315549e+02 
-1.198094747308e+02 2.989679510329e+00 0.0 
2.989679510329e+00 -2.727961703467e+02 0.0 
0.0 0.0 -1.173816935232e+02 
-1.082550686024e+02 4.791968352457e+00 0.0 
4.791968352457e+00 -2.635298751387e+02 0.0 
0.0 0.0 -1.111354831223e+02 
-7.594750969526e+01 5.544136914095e+00 0.0 
5.544136914095e+00 -1.879195066645e+02 0.0 
0.0 0.0 -7.876010490793e+01 
-1.286690448956e+02 6.979851996123e+00 0.0 
6.979851996123e+00 -2.954734694606e+02 0.0 
0.0 0.0 -1.268427543068e+02 
-1.017154247079e+02 3.252304361501e+00 0.0 
3.252304361501e+00 -2.277542097636e+02 0.0 
0.0 0.0 -9.844089034148e+01 
-3.681001078076e+01 1.984742603492e+00 0.0 
1.984742603492e+00 -9.830414387500e+01 0.0 
0.0 0.0 -4.013424639673e+01 
-4.001675206957e+01 5.017167463636e+00 0.0 
5.017167463636e+00 -1.072609236164e+02 0.0 
0.0 0.0 -4.378330270578e+01 
-6.392254066274e+01 5.901826611108e+00 0.0 
5.901826611108e+00 -1.434119514843e+02 0.0 
0.0 0.0 -6.180034764412e+01 
-9.293215417939e+01 4.628397166993e+00 0.0 
4.628397166993e+00 -2.089199952130e+02 0.0 
0.0 0.0 -9.015564481771e+01 
-1.400190601354e+02 1.331211279083e+00 0.0 
1.331211279083e+00 -3.353350750526e+02 0.0 
0.0 0.0 -1.422062405564e+02 
-1.160014924705e+02 2.660827151454e+00 0.0 
2.660827151454e+00 -2.637893146342e+02 0.0 
0.0 0.0 -1.135372421314e+02 
-7.579788391366e+01 6.743253148193e+00 0.0 
6.743253148193e+00 -1.881188874310e+02 0.0 
0.0 0.0 -7.877503140339e+01 
-1.053563253797e+02 6.423610481218e+00 0.0 
6.423610481218e+00 -2.378742601556e+02 0.0 
0.0 0.0 -1.025691756606e+02 
-1.254168310370e+02 5.092812664932e+00 0.0 
5.092812664932e+00 -3.014909921468e+02 0.0 
0.0 0.0 -1.276723469552e+02 
-1.246852439544e+02 2.191832345703e+00 0.0 
2.191832345703e+00 -2.868482706464e+02 0.0 
0.0 0.0 -1.230600543802e+02 
-1.325114998476e+02 6.731938349832e+00 0.0 
6.731938349832e+00 -3.047997349672e+02 0.0 
0.0 0.0 -1.307933704444e+02 
-1.031525799910e+02 6.697363922156e-01 0.0 
6.697363922156e-01 -2.332242665834e+02 0.0 
0.0 0.0 -1.005130539723e+02 
-1.293540303393e+02 4.203916830079e+00 0.0 
4.203916830079e+00 -3.120680450338e+02 0.0 
0.0 0.0 -1.320266226119e+02 
-8.778536254098e+01 6.294114242263e+00 0.0 
6.294114242263e+00 -2.166342728283e+02 0.0 
0.0 0.0 -9.092589061078e+01 
-1.256923100851e+02 6.527963897409e+00 0.0 
6.527963897409e+00 -3.017979725357e+02 0.0 
0.0 0.0 -1.278470847862e+02 
-8.772754122575e+01 5.747819703268e+00 0.0 
5.747819703268e+00 -2.011180093105e+02 0.0 
0.0 0.0 -8.625366516087e+01 
-1.320178660737e+02 2.714942856464e+00 0.0 
2.714942856464e+00 -3.044946135710e+02 0.0 
0.0 0.0 -1.305537438934e+02 
-1.376203377702e+02 6.957739066357e+00 0.0 
6.957739066357e+00 -3.160644756877e+02 0.0 
0.0 0.0 -1.357054440374e+02 
-9.979653793710e+01 4.693460352357e+00 0.0 
4.693460352357e+00 -2.447017380854e+02 0.0 
0.0 0.0 -1.029494828067e+02 
-3.523608284296e+01 3.195429177411e+00 0.0 
3.195429177411e+00 -9.813416840234e+01 0.0 
0.0 0.0 -3.961107537359e+01 
-1.272106925544e+02 6.034472810762e+00 0.0 
6.034472810762e+00 -2.964682735097e+02 0.0 
0.0 0.0 -1.267036898192e+02 
-9.547806877267e+01 7.513761270760e+00 0.0 
7.513761270760e+00 -2.204449119279e+02 0.0 
0.0 0.0 -9.437689421016e+01 
-7.217042119458e+01 7.290165697887e+00 0.0 
7.290165697887e+00 -1.779792280713e+02 0.0 
0.0 0.0 -7.464489477976e+01 
-1.045915991702e+02 6.470723623518e+00 0.0 
6.470723623518e+00 -2.542022841500e+02 0.0 
0.0 0.0 -1.072381649961e+02 
-1.250763211465e+02 5.144131765634e+00 0.0 
5.144131765634e+00 -3.026877810312e+02 0.0 
0.0 0.0 -1.279292306533e+02 
-3.659619769817e+01 3.620022727750e+00 0.0 
3.620022727750e+00 -9.880829416453e+01 0.0 
0.0 0.0 -4.022134755881e+01 
-9.141682764538e+01 4.622638033751e+00 0.0 
4.622638033751e+00 -2.259958172483e+02 0.0 
0.0 0.0 -9.482379346810e+01 
-1.060520610611e+02 2.456460507327e+00 0.0 
2.456460507327e+00 -2.381789590300e+02 0.0 
0.0 0.0 -1.028693060273e+02 
-1.403970479267e+02 2.853913023674e+00 0.0 
2.853913023674e+00 -3.358006261953e+02 0.0 
0.0 0.0 -1.424593022366e+02 
-1.097813254878e+02 2.977361202690e+00 0.0 
2.977361202690e+00 -2.472871008036e+02 0.0 
0.0 0.0 -1.067205278874e+02 
-1.236039484431e+02 5.773602160545e+00 0.0 
5.773602160545e+00 -2.864901175016e+02 0.0 
0.0 0.0 -1.226282197834e+02 
-1.022739301155e+02 1.966792387088e+00 0.0 
1.966792387088e+00 -2.291642588673e+02 0.0 
0.0 0.0 -9.903145669482e+01 
-9.440524542683e+01 9.840117984362e-01 0.0 
9.840117984362e-01 -2.112860006827e+02 0.0 
0.0 0.0 -9.130737383285e+01 
-1.054055228806e+02 3.789756343023e+00 0.0 
3.789756343023e+00 -2.372110332576e+02 0.0 
0.0 0.0 -1.023849668415e+02 
-1.307273007689e+02 5.884416162452e+00 0.0 
5.884416162452e+00 -3.102070127979e+02 0.0 
0.0 0.0 -1.318802940700e+02 
-1.280105129564e+02 3.465212587949e+00 0.0 
3.465212587949e+00 -3.096797502835e+02 0.0 
0.0 0.0 -1.309070789720e+02 
-1.111535500468e+02 1.014424010183e+00 0.0 
1.014424010183e+00 -2.527054555809e+02 0.0 
0.0 0.0 -1.087577016883e+02 
-1.346765353967e+02 1.951546036606e+00 0.0 
1.951546036606e+00 -3.113054645132e+02 0.0 
0.0 0.0 -1.333945999730e+02 
-9.846852420316e+01 1.488170331107e+00 0.0 
1.488170331107e+00 -2.202614135681e+02 0.0 
0.0 0.0 -9.521898133137e+01 
-5.953681287479e+01 6.688753172712e+00 0.0 
6.688753172712e+00 -1.513178524038e+02 0.0 
0.0 0.0 -6.285639958358e+01 
-1.319742108609e+02 7.761417319187e+00 0.0 
7.761417319187e+00 -3.062415765704e+02 0.0 
0.0 0.0 -1.310647362294e+02 
-1.327156053983e+02 2.469352578691e+00 0.0 
2.469352578691e+00 -3.065823016648e+02 0.0 
0.0 0.0 -1.313893721189e+02 
-8.655794012353e+01 6.149634717932e+00 0.0 
6.149634717932e+00 -2.028306830103e+02 0.0 
0.0 0.0 -8.641658694016e+01 
-9.112555780441e+01 5.952165479833e+00 0.0 
5.952165479833e+00 -2.114048990423e+02 0.0 
0.0 0.0 -9.035913705401e+01 
-6.762705774143e+01 6.734935011697e+00 0.0 
6.734935011697e+00 -1.696467757386e+02 0.0 
0.0 0.0 -7.078215004400e+01 
-1.149415690180e+02 1.337975917934e+00 0.0 
1.337975917934e+00 -2.616680682269e+02 0.0 
0.0 0.0 -1.125828911735e+02 
-6.917919503874e+01 3.985771485290e+00 0.0 
3.985771485290e+00 -1.511932196157e+02 0.0 
0.0 0.0 -6.571172439632e+01 
-1.025102180092e+02 5.922035175837e+00 0.0 
5.922035175837e+00 -2.405483955313e+02 0.0 
0.0 0.0 -1.025175840621e+02 
-6.963454600555e+01 6.243781220740e+00 0.0 
6.243781220740e+00 -1.518261723421e+02 0.0 
0.0 0.0 -6.603821550428e+01 
-1.222462233245e+02 5.749305525757e+00 0.0 
5.749305525757e+00 -2.910957421205e+02 0.0 
0.0 0.0 -1.236025896335e+02 
-1.396176287230e+02 7.795784715554e+00 0.0 
7.795784715554e+00 -3.246687859967e+02 0.0 
0.0 0.0 -1.388859244159e+02 
-7.132080322555e+01 6.119509988659e+00 0.0 
6.119509988659e+00 -1.795744283136e+02 0.0 
0.0 0.0 -7.486856946176e+01 
-2.376993351466e+01 2.004090734323e+00 0.0 
2.004090734323e+00 -6.291132972053e+01 0.0 
0.0 0.0 -2.560437897056e+01 
-1.343220971003e+02 2.394347636082e+00 0.0 
2.394347636082e+00 -3.099613723345e+02 0.0 
0.0 0.0 -1.328850408304e+02 
-7.343836785025e+01 3.536537746723e+00 0.0 
3.536537746723e+00 -1.605307089571e+02 0.0 
0.0 0.0 -6.979072304222e+01 
-8.601821168285e+01 3.068889114964e+00 0.0 
3.068889114964e+00 -2.167134978627e+02 0.0 
0.0 0.0 -9.041951286368e+01 
-1.354808223183e+02 6.240291477039e+00 0.0 
6.240291477039e+00 -3.158857854227e+02 0.0 
0.0 0.0 -1.350099823223e+02 
-1.118999328361e+02 2.684202981242e+00 0.0 
2.684202981242e+00 -2.533071481775e+02 0.0 
0.0 0.0 -1.091621243041e+02 
-1.238965781055e+02 3.641740958128e+00 0.0 
3.641740958128e+00 -3.008190732942e+02 0.0 
0.0 0.0 -1.270146954199e+02 
-7.340558417770e+01 7.999151375011e+00 0.0 
7.999151375011e+00 -1.758797720273e+02 0.0 
0.0 0.0 -7.438560686151e+01 
-1.909971890799e+01 4.585002780242e-01 0.0 
4.585002780242e-01 -5.222562038474e+01 0.0 
0.0 0.0 -2.099760178782e+01 
-1.447685587117e+02 2.698540766579e+00 0.0 
2.698540766579e+00 -3.456323853809e+02 0.0 
0.0 0.0 -1.467202832278e+02 
-9.647897808459e+01 5.090698178230e+00 0.0 
5.090698178230e+00 -2.188966144694e+02 0.0 
0.0 0.0 -9.421267776619e+01 
-1.146065666663e+02 7.579036304507e+00 0.0 
7.579036304507e+00 -2.707502739603e+02 0.0 
0.0 0.0 -1.152070521880e+02 
-1.320631157812e+02 5.699728117704e+00 0.0 
5.699728117704e+00 -3.054607949019e+02 0.0 
0.0 0.0 -1.308571732049e+02 
-1.430932022317e+01 1.457528118132e-01 0.0 
1.457528118132e-01 -3.483852124074e+01 0.0 
0.0 0.0 -1.434435243917e+01 
-1.233684141356e+02 2.210739732739e+00 0.0 
2.210739732739e+00 -3.002782481038e+02 0.0 
0.0 0.0 -1.266939986718e+02 
-4.876754274222e+01 8.789031102401e+00 0.0 
8.789031102401e+00 -1.188764487690e+02 0.0 
0.0 0.0 -4.989319745335e+01 
-1.039864593095e+02 2.356250604588e+00 0.0 
2.356250604588e+00 -2.338520603585e+02 0.0 
0.0 0.0 -1.009515559004e+02 
-9.751214576918e+01 2.156721242036e+00 0.0 
2.156721242036e+00 -2.419733236596e+02 0.0 
0.0 0.0 -1.014456408286e+02 
-7.127198134028e+01 5.044982030336e+00 0.0 
5.044982030336e+00 -1.792985984353e+02 0.0 
0.0 0.0 -7.477117393267e+01 
-1.361980306951e+02 3.039403624108e+00 0.0 
3.039403624108e+00 -3.269871776499e+02 0.0 
0.0 0.0 -1.385555625035e+02 
-9.904180997478e+01 5.882142496721e+00 0.0 
5.882142496721e+00 -2.303342543083e+02 0.0 
0.0 0.0 -9.841281928494e+01 
-6.312062222633e+01 5.022182503120e+00 0.0 
5.022182503120e+00 -1.609953925566e+02 0.0 
0.0 0.0 -6.683480443487e+01 
-1.010437225907e+02 6.705375391180e+00 0.0 
6.705375391180e+00 -2.285701508001e+02 0.0 
0.0 0.0 -9.848416201726e+01 
-2.125565637507e+01 6.961746955473e-01 0.0 
6.961746955473e-01 -5.319651552712e+01 0.0 
0.0 0.0 -2.193565157066e+01 
-1.167968349731e+02 6.974338456426e+00 0.0 
6.974338456426e+00 -2.670574216906e+02 0.0 
0.0 0.0 -1.147562769991e+02 
-1.224232355628e+02 7.305866648761e+00 0.0 
7.305866648761e+00 -2.915044860841e+02 0.0 
0.0 0.0 -1.237783164941e+02 
-1.398961991757e+02 6.387148994351e+00 0.0 
6.387148994351e+00 -3.228250019196e+02 0.0 
0.0 0.0 -1.384163603286e+02 
-1.246829974966e+02 7.178339817249e+00 0.0 
7.178339817249e+00 -2.864165269560e+02 0.0 
0.0 0.0 -1.229298573358e+02 
-4.754906347786e+01 5.465833008551e+00 0.0 
5.465833008551e+00 -1.251391393717e+02 0.0 
0.0 0.0 -5.140646085486e+01 
-1.232508400391e+02 2.999215360791e+00 0.0 
2.999215360791e+00 -2.993076801854e+02 0.0 
0.0 0.0 -1.263675560673e+02 
-1.359095951819e+02 1.057391265937e+00 0.0 
1.057391265937e+00 -3.148024272835e+02 0.0 
0.0 0.0 -1.348136067396e+02 
-1.482539501947e+02 8.350236456196e+00 0.0 
8.350236456196e+00 -3.472871811528e+02 0.0 
0.0 0.0 -1.482623394043e+02 
-1.270976346730e+02 7.553721276641e+00 0.0 
7.553721276641e+00 -3.007154494569e+02 0.0 
0.0 0.0 -1.279439252390e+02 
-7.681855580706e+01 7.643686487808e+00 0.0 
7.643686487808e+00 -1.862729930123e+02 0.0 
0.0 0.0 -7.852746464582e+01 
-1.089034814989e+02 6.828234269096e+00 0.0 
6.828234269096e+00 -2.477645472491e+02 0.0 
0.0 0.0 -1.066004086244e+02 
-1.389355127924e+02 7.674642736313e-01 0.0 
7.674642736313e-01 -3.330556352850e+02 0.0 
0.0 0.0 -1.411973444232e+02 
-9.080407381092e+01 9.252608011453e-01 0.0 
9.252608011453e-01 -2.253628863556e+02 0.0 
0.0 0.0 -9.445008804995e+01 
-1.199719510122e+02 5.513115257860e+00 0.0 
5.513115257860e+00 -2.764368520125e+02 0.0 
0.0 0.0 -1.185226409074e+02 
-1.072976572767e+02 6.569657190369e-01 0.0 
6.569657190369e-01 -2.436446960331e+02 0.0 
0.0 0.0 -1.048827059929e+02 
-1.320951732821e+02 3.259224999586e+00 0.0 
3.259224999586e+00 -3.183292476458e+02 0.0 
0.0 0.0 -1.347273262784e+02 
-1.286355681447e+02 4.125101186360e+00 0.0 
4.125101186360e+00 -3.109694002789e+02 0.0 
0.0 0.0 -1.314814905271e+02 
-7.291511790302e+01 5.424164242609e-02 0.0 
5.424164242609e-02 -1.648638346599e+02 0.0 
0.0 0.0 -7.093368576889e+01 
-7.288961113512e+01 -1.286399945537e-01 0.0 
-1.286399945537e-01 -1.648095922996e+02 0.0 
0.0 0.0 -7.090976103041e+01 
-1.110575650245e+02 4.187720639476e+00 0.0 
4.187720639476e+00 -2.491472670254e+02 0.0 
0.0 0.0 -1.076614496150e+02 
-1.121436146398e+02 5.333505604463e+00 0.0 
5.333505604463e+00 -2.571926300200e+02 0.0 
0.0 0.0 -1.104008733979e+02 
-1.014003165841e+02 2.043630474225e+00 0.0 
2.043630474225e+00 -2.506338732937e+02 0.0 
0.0 0.0 -1.052102569633e+02 
-1.101718523389e+02 5.458316769300e+00 0.0 
5.458316769300e+00 -2.475170627031e+02 0.0 
0.0 0.0 -1.069066745126e+02 
-9.450137664982e+01 6.019040976919e+00 0.0 
6.019040976919e+00 -2.216137712234e+02 0.0 
0.0 0.0 -9.443454436197e+01 
-1.376324600000e+02 5.363123654280e+00 0.0 
5.363123654280e+00 -3.287833030618e+02 0.0 
0.0 0.0 -1.395247289185e+02 
-7.724712265684e+01 6.219032222191e+00 0.0 
6.219032222191e+00 -1.861497552822e+02 0.0 
0.0 0.0 -7.861906338170e+01 
-1.489039951487e+02 2.977728812340e+00 0.0 
2.977728812340e+00 -3.472256554304e+02 0.0 
0.0 0.0 -1.484388951737e+02 
-8.699509891576e+01 7.994496139328e-01 0.0 
7.994496139328e-01 -1.928081291939e+02 0.0 
0.0 0.0 -8.354096843289e+01 
-9.087957375784e+01 7.714913599855e+00 0.0 
7.714913599855e+00 -2.116860614345e+02 0.0 
0.0 0.0 -9.036969055770e+01 
-9.684998165591e+01 7.833281617167e-01 0.0 
7.833281617167e-01 -2.413757802046e+02 0.0 
0.0 0.0 -1.010677285582e+02 
-4.376413579243e+01 6.342089144992e+00 0.0 
6.342089144992e+00 -1.151910807092e+02 0.0 
0.0 0.0 -4.728656495050e+01 
-8.536103794095e+01 1.935843641439e+00 0.0 
1.935843641439e+00 -2.141578898653e+02 0.0 
0.0 0.0 -8.945567834188e+01 
-1.043000190055e+02 5.198424214389e+00 0.0 
5.198424214389e+00 -2.380109036856e+02 0.0 
0.0 0.0 -1.022932768073e+02 
-9.713898959617e+01 4.302173873995e+00 0.0 
4.302173873995e+00 -2.182029110120e+02 0.0 
0.0 0.0 -9.420257018244e+01 
-1.070451730910e+02 1.026221193808e+00 0.0 
1.026221193808e+00 -2.422871953658e+02 0.0 
0.0 0.0 -1.043997105371e+02 
-1.131477409488e+02 4.095473344817e+00 0.0 
4.095473344817e+00 -2.564054508107e+02 0.0 
0.0 0.0 -1.104659575279e+02 
-1.178263279443e+02 5.750709846542e+00 0.0 
5.750709846542e+00 -2.665801872388e+02 0.0 
0.0 0.0 -1.149219545549e+02 
-2.345053020469e+01 1.767672102906e-01 0.0 
1.767672102906e-01 -5.890729049832e+01 0.0 
0.0 0.0 -2.430734621090e+01 
-8.030142911545e+01 1.999347421369e-01 0.0 
1.999347421369e-01 -2.031165929668e+02 0.0 
0.0 0.0 -8.462540662466e+01 
-7.395032293496e+01 5.723918635551e+00 0.0 
5.723918635551e+00 -1.611136039920e+02 0.0 
0.0 0.0 -7.011917807809e+01 
-1.057296052855e+02 3.100778460519e+00 0.0 
3.100778460519e+00 -2.374315535970e+02 0.0 
0.0 0.0 -1.025483476647e+02 
-1.106523545750e+02 4.774083657871e+00 0.0 
4.774083657871e+00 -2.481655312480e+02 0.0 
0.0 0.0 -1.072453657469e+02 
-1.343960490786e+02 5.872553372730e+00 0.0 
5.872553372730e+00 -3.192941901462e+02 0.0 
0.0 0.0 -1.357070717674e+02 
-3.488746294647e+01 -8.150991694447e-01 0.0 
-8.150991694447e-01 -8.876995600433e+01 0.0 
0.0 0.0 -3.669722568524e+01 
-3.337431059633e+01 2.280193831229e+00 0.0 
2.280193831229e+00 -8.974327111941e+01 0.0 
0.0 0.0 -3.653527451472e+01 
-9.214516358497e+01 5.413704759952e+00 0.0 
5.413704759952e+00 -2.099230634829e+02 0.0 
0.0 0.0 -9.022046812037e+01 
-8.105114971083e+01 1.549358138253e+00 0.0 
1.549358138253e+00 -2.037257772871e+02 0.0 
0.0 0.0 -8.503307809937e+01 
-6.789618214363e+01 1.817157186178e+00 0.0 
1.817157186178e+00 -1.473798682876e+02 0.0 
0.0 0.0 -6.418281512936e+01 
-7.212057423776e+01 1.617597700095e+00 0.0 
1.617597700095e+00 -1.573449967289e+02 0.0 
0.0 0.0 -6.843967129000e+01 
-1.078463029503e+02 2.683733998363e+00 0.0 
2.683733998363e+00 -2.429063828325e+02 0.0 
0.0 0.0 -1.048258057348e+02 
-2.894197250410e+01 8.186972583915e+00 0.0 
8.186972583915e+00 -7.606473620595e+01 0.0 
0.0 0.0 -3.110201261301e+01 
-9.243467448302e+01 4.065639768034e-01 0.0 
4.065639768034e-01 -2.309926110773e+02 0.0 
0.0 0.0 -9.662818566809e+01 
-1.210699684470e+02 6.076293589479e+00 0.0 
6.076293589479e+00 -2.924560946492e+02 0.0 
0.0 0.0 -1.236578189288e+02 
-3.169382951687e+01 1.839891045341e+00 0.0 
1.839891045341e+00 -8.890329351014e+01 0.0 
0.0 0.0 -3.577913690810e+01 
-1.465112926263e+02 7.270966006454e+00 0.0 
7.270966006454e+00 -3.420136912698e+02 0.0 
0.0 0.0 -1.461574951688e+02 
-1.278161598830e+02 2.766477934583e+00 0.0 
2.766477934583e+00 -2.936088779457e+02 0.0 
0.0 0.0 -1.260275113486e+02 
-8.866260862968e+01 1.453321269078e+00 0.0 
1.453321269078e+00 -2.210160305528e+02 0.0 
0.0 0.0 -9.250359175476e+01 
-1.268365323488e+02 1.376935264969e+00 0.0 
1.376935264969e+00 -3.074690592433e+02 0.0 
0.0 0.0 -1.298916774776e+02 
-1.650105530882e+01 -3.826804361686e-01 0.0 
-3.826804361686e-01 -4.231893256211e+01 0.0 
0.0 0.0 -1.724599636128e+01 
-1.164289651735e+02 5.593799053331e+00 0.0 
5.593799053331e+00 -2.830351221181e+02 0.0 
0.0 0.0 -1.194392261875e+02 
-9.661857591490e+01 7.002302242968e+00 0.0 
7.002302242968e+00 -2.193559216629e+02 0.0 
0.0 0.0 -9.439234927333e+01 
-1.673998461284e+01 -3.356395586277e-01 0.0 
-3.356395586277e-01 -4.222016057220e+01 0.0 
0.0 0.0 -1.728804355551e+01 
-1.272471251757e+02 1.238400758879e+00 0.0 
1.238400758879e+00 -2.931713944479e+02 0.0 
0.0 0.0 -1.257255558871e+02 
-2.979257284124e+01 2.871167880711e+00 0.0 
2.871167880711e+00 -8.092494247951e+01 0.0 
0.0 0.0 -3.281525459622e+01 
-1.065233228807e+02 4.928984503851e+00 0.0 
4.928984503851e+00 -2.381679419447e+02 0.0 
0.0 0.0 -1.030073794476e+02 
-9.755459881971e+01 6.258539496455e+00 0.0 
6.258539496455e+00 -2.187566836361e+02 0.0 
0.0 0.0 -9.449338473675e+01 
-8.267887738509e+01 4.598180669757e+00 0.0 
4.598180669757e+00 -2.080285093509e+02 0.0 
0.0 0.0 -8.681221602080e+01 
-1.023024171657e+02 2.641611858020e+00 0.0 
2.641611858020e+00 -2.539226675072e+02 0.0 
0.0 0.0 -1.064675254018e+02 
-1.308166869875e+02 1.568414981660e+00 0.0 
1.568414981660e+00 -3.019934369088e+02 0.0 
0.0 0.0 -1.294430371689e+02 
-1.109718481971e+02 2.892208922001e+00 0.0 
2.892208922001e+00 -2.730316297712e+02 0.0 
0.0 0.0 -1.148010433905e+02 
-9.559121111673e+01 5.712461363171e+00 0.0 
5.712461363171e+00 -2.201020913541e+02 0.0 
0.0 0.0 -9.430799074125e+01 
-9.212167861240e+01 7.315429425135e+00 0.0 
7.315429425135e+00 -2.103143065977e+02 0.0 
0.0 0.0 -9.033079556302e+01 
-9.617566507558e+00 7.238971168028e+00 0.0 
7.238971168028e+00 -1.280768238338e+01 0.0 
0.0 0.0 -6.327574667281e+00 
-2.508372668291e+01 1.206620692636e+00 0.0 
1.206620692636e+00 -7.089559053769e+01 0.0 
0.0 0.0 -2.839379516618e+01 
-1.281807837197e+02 7.408456263334e+00 0.0 
7.408456263334e+00 -2.960719501801e+02 0.0 
0.0 0.0 -1.268758201699e+02 
-9.960783605052e+01 2.859453513240e+00 0.0 
2.859453513240e+00 -2.222643138633e+02 0.0 
0.0 0.0 -9.616164497415e+01 
-1.312958388479e+02 6.074727536013e+00 0.0 
6.074727536013e+00 -3.055165665000e+02 0.0 
0.0 0.0 -1.306437216044e+02 
-4.949649605633e+01 7.289275344718e+00 0.0 
7.289275344718e+00 -1.188601472446e+02 0.0 
0.0 0.0 -5.010699299029e+01 
-1.221044849789e+02 2.637930597145e+00 0.0 
2.637930597145e+00 -2.784487312089e+02 0.0 
0.0 0.0 -1.197659648563e+02 
-1.325052405634e+02 7.405542317848e+00 0.0 
7.405542317848e+00 -3.058274144855e+02 0.0 
0.0 0.0 -1.310997965147e+02 
-7.515944044418e+01 3.093862202154e-01 0.0 
3.093862202154e-01 -1.645809988004e+02 0.0 
0.0 0.0 -7.152213177337e+01 
-1.276599645721e+02 5.801583095294e+00 0.0 
5.801583095294e+00 -2.954506383292e+02 0.0 
0.0 0.0 -1.265331808704e+02 
-1.273100131761e+02 2.815032551599e+00 0.0 
2.815032551599e+00 -3.079953921898e+02 0.0 
0.0 0.0 -1.301916216098e+02 
-1.078141035296e+02 5.510396964819e+00 0.0 
5.510396964819e+00 -2.480113075726e+02 0.0 
0.0 0.0 -1.063476233306e+02 
-8.851304662900e+01 4.952666368101e-01 0.0 
4.952666368101e-01 -2.222740845073e+02 0.0 
0.0 0.0 -9.283613934088e+01 
-9.360464982473e+01 2.268565568211e+00 0.0 
2.268565568211e+00 -2.332368819537e+02 0.0 
0.0 0.0 -9.765245953353e+01 
-1.352791826237e+02 4.167240430176e+00 0.0 
4.167240430176e+00 -3.111300845974e+02 0.0 
0.0 0.0 -1.335227801663e+02 
-9.383102816272e+01 2.381811730458e+00 0.0 
2.381811730458e+00 -2.350032724111e+02 0.0 
0.0 0.0 -9.825029017215e+01 
-1.007542427147e+02 4.792744346392e+00 0.0 
4.792744346392e+00 -2.280732604013e+02 0.0 
0.0 0.0 -9.824825093481e+01 
-9.350935057352e+01 5.905827221483e+00 0.0 
5.905827221483e+00 -2.236420594702e+02 0.0 
0.0 0.0 -9.474542301312e+01 
-1.198169458108e+02 3.174113337628e+00 0.0 
3.174113337628e+00 -2.922613954209e+02 0.0 
0.0 0.0 -1.232235023695e+02 
-8.618439945723e+01 7.815871977674e+00 0.0 
7.815871977674e+00 -2.030202362020e+02 0.0 
0.0 0.0 -8.636139069778e+01 
-5.071736431642e+01 4.016680439475e+00 0.0 
4.016680439475e+00 -1.343565289375e+02 0.0 
0.0 0.0 -5.512216797617e+01 
-9.512533805480e+01 4.213225856891e+00 0.0 
4.213225856891e+00 -2.354535172666e+02 0.0 
0.0 0.0 -9.877365659642e+01 
-5.503775567206e+01 4.959381624272e+00 0.0 
4.959381624272e+00 -1.428206994523e+02 0.0 
0.0 0.0 -5.895753653731e+01 
-1.094413821950e+02 3.599170718098e+00 0.0 
3.599170718098e+00 -2.468275068562e+02 0.0 
0.0 0.0 -1.064806667154e+02 
-5.531986823161e+01 5.778706088882e+00 0.0 
5.778706088882e+00 -1.431224970785e+02 0.0 
0.0 0.0 -5.913270959305e+01 
-1.060489664235e+02 5.699296175572e+00 0.0 
5.699296175572e+00 -2.378555354705e+02 0.0 
0.0 0.0 -1.027713505682e+02 
-1.309870971858e+02 7.480606722830e+00 0.0 
7.480606722830e+00 -3.106688222805e+02 0.0 
0.0 0.0 -1.320967758399e+02 
-1.260347455731e+02 5.647104511368e+00 0.0 
5.647104511368e+00 -3.008607867857e+02 0.0 
0.0 0.0 -1.276686597077e+02 
-8.193387933231e+01 6.250433540286e+00 0.0 
6.250433540286e+00 -1.944487041663e+02 0.0 
0.0 0.0 -8.251477504958e+01 
-1.029771944680e+02 1.001841418542e+00 0.0 
1.001841418542e+00 -2.319457890237e+02 0.0 
0.0 0.0 -1.000768950475e+02 
-1.309698325565e+02 1.171402624778e+00 0.0 
1.171402624778e+00 -3.161474938884e+02 0.0 
0.0 0.0 -1.337351979335e+02 
-1.313753491381e+02 2.618724093005e+00 0.0 
2.618724093005e+00 -3.166521667415e+02 0.0 
0.0 0.0 -1.340082547639e+02 
-2.190622856463e+01 7.695610392176e+00 0.0 
7.695610392176e+00 -5.885315848682e+01 0.0 
0.0 0.0 -2.382781611544e+01 
-1.090382618343e+02 4.291077661647e+00 0.0 
4.291077661647e+00 -2.467765698054e+02 0.0 
0.0 0.0 -1.063444494919e+02 
-1.446746883285e+02 9.035377288601e-01 0.0 
9.035377288601e-01 -3.450069175515e+02 0.0 
0.0 0.0 -1.465044817640e+02 
-5.330711171530e+01 1.767861537884e+00 0.0 
1.767861537884e+00 -1.131264376933e+02 0.0 
0.0 0.0 -4.953006482259e+01 
-9.686519469985e+01 1.697265079445e+00 0.0 
1.697265079445e+00 -2.400773696864e+02 0.0 
0.0 0.0 -1.006827693159e+02 
-1.099668221456e+01 7.880533591295e+00 0.0 
7.880533591295e+00 -1.450932603852e+01 0.0 
0.0 0.0 -7.251802475925e+00 
-1.350866748832e+02 9.591776667597e-01 0.0 
9.591776667597e-01 -3.247584477523e+02 0.0 
0.0 0.0 -1.375535367906e+02 
-4.704581589211e+01 4.807201398084e+00 0.0 
4.807201398084e+00 -1.247803183214e+02 0.0 
0.0 0.0 -5.114784026404e+01 
-9.356334482147e+01 -3.969357751934e-01 0.0 
-3.969357751934e-01 -2.316186301021e+02 0.0 
0.0 0.0 -9.715459247707e+01 
-1.144953268153e+02 5.825728592436e+00 0.0 
5.825728592436e+00 -2.704033807845e+02 0.0 
0.0 0.0 -1.150696122799e+02 
-1.038410072237e+02 2.706463345879e+00 0.0 
2.706463345879e+00 -2.326298129455e+02 0.0 
0.0 0.0 -1.005412460507e+02 
-9.908147008195e+01 1.093982331574e+00 0.0 
1.093982331574e+00 -2.217115212460e+02 0.0 
0.0 0.0 -9.583789739839e+01 
-9.997939346533e+01 5.450464003078e+00 0.0 
5.450464003078e+00 -2.289685733362e+02 0.0 
0.0 0.0 -9.828439004044e+01 
-5.959093408878e+01 1.850656374333e+00 0.0 
1.850656374333e+00 -1.278167008131e+02 0.0 
0.0 0.0 -5.582229047055e+01 
-6.387843741833e+01 1.633319722729e+00 0.0 
1.633319722729e+00 -1.377307870956e+02 0.0 
0.0 0.0 -6.008276735419e+01 
-1.353775123062e+02 2.375413422015e+00 0.0 
2.375413422015e+00 -3.252145477716e+02 0.0 
0.0 0.0 -1.377776180233e+02 
-1.073475317528e+02 4.555354389430e+00 0.0 
4.555354389430e+00 -2.640397973701e+02 0.0 
0.0 0.0 -1.110161987369e+02 
-9.090554768666e+01 4.844738068626e+00 0.0 
4.844738068626e+00 -2.265586079195e+02 0.0 
0.0 0.0 -9.483924668186e+01 
-1.160360502404e+02 4.161007543868e+00 0.0 
4.161007543868e+00 -2.826125001415e+02 0.0 
0.0 0.0 -1.191945651146e+02 
-8.679843046553e+01 4.095856669258e+00 0.0 
4.095856669258e+00 -2.168749529311e+02 0.0 
0.0 0.0 -9.070201501898e+01 
-5.156715527437e+01 6.566322666585e+00 0.0 
6.566322666585e+00 -1.331613014317e+02 0.0 
0.0 0.0 -5.501853701183e+01 
-5.897741836612e+01 3.166381899620e-02 0.0 
3.166381899620e-02 -1.269632420802e+02 0.0 
0.0 0.0 -5.538219813390e+01 
-9.155058168180e+01 2.321055532799e+00 0.0 
2.321055532799e+00 -2.032984151749e+02 0.0 
0.0 0.0 -8.805469905702e+01 
-7.298317920438e+01 -2.124722408869e-02 0.0 
-2.124722408869e-02 -1.650242481430e+02 0.0 
0.0 0.0 -7.100222820421e+01 
-1.262666174163e+02 7.140329410881e+00 0.0 
7.140329410881e+00 -3.012620160691e+02 0.0 
0.0 0.0 -1.278585900456e+02 
-8.149565255015e+01 7.801362856822e+00 0.0 
7.801362856822e+00 -1.945845901083e+02 0.0 
0.0 0.0 -8.242407279753e+01 
-1.436808843076e+02 6.587870545595e+00 0.0 
6.587870545595e+00 -3.381870331994e+02 0.0 
0.0 0.0 -1.441603752521e+02 
-1.336843642534e+02 -3.032154402502e-01 0.0 
-3.032154402502e-01 -3.213758395088e+02 0.0 
0.0 0.0 -1.361180611287e+02 
-9.156483193731e+01 5.855691113259e+00 0.0 
5.855691113259e+00 -2.263367795356e+02 0.0 
0.0 0.0 -9.497048344187e+01 
-1.499158651390e+02 3.046372359578e+00 0.0 
3.046372359578e+00 -3.556688961799e+02 0.0 
0.0 0.0 -1.512754283957e+02 
-5.913829210937e+01 5.101793976031e+00 0.0 
5.101793976031e+00 -1.528661025231e+02 0.0 
0.0 0.0 -6.320131838974e+01 
-1.392727925725e+02 6.474282464035e+00 0.0 
6.474282464035e+00 -3.279738984842e+02 0.0 
0.0 0.0 -1.397740073170e+02 
-1.000251689463e+02 7.292422635565e+00 0.0 
7.292422635565e+00 -2.293848704757e+02 0.0 
0.0 0.0 -9.842301182660e+01 
-1.112900932691e+02 5.747454877641e+00 0.0 
5.747454877641e+00 -2.579910019349e+02 0.0 
0.0 0.0 -1.103843285612e+02 
-1.343355272534e+02 6.101294146513e+00 0.0 
6.101294146513e+00 -3.216326632321e+02 0.0 
0.0 0.0 -1.363904571456e+02 
-6.569487530495e+01 1.270385642903e+00 0.0 
1.270385642903e+00 -1.676469962274e+02 0.0 
0.0 0.0 -6.960256145971e+01 
-1.049348580717e+02 4.519492022274e+00 0.0 
4.519492022274e+00 -2.373841064010e+02 0.0 
0.0 0.0 -1.022956893418e+02 
-8.707450133377e+01 5.246198555658e+00 0.0 
5.246198555658e+00 -2.172429044882e+02 0.0 
0.0 0.0 -9.089522174658e+01 
-1.018051052280e+02 5.950811475992e+00 0.0 
5.950811475992e+00 -2.281865498907e+02 0.0 
0.0 0.0 -9.859749653559e+01 
-5.337944014610e+01 8.822844203807e+00 0.0 
8.822844203807e+00 -1.260211980039e+02 0.0 
0.0 0.0 -5.342019144500e+01 
-1.148917183206e+02 5.832586362813e+00 0.0 
5.832586362813e+00 -2.682676338836e+02 0.0 
0.0 0.0 -1.145478056613e+02 
-8.225028724800e+01 3.483007541960e+00 0.0 
3.483007541960e+00 -2.075917345380e+02 0.0 
0.0 0.0 -8.655260653580e+01 
-1.007928634448e+02 6.621955691700e-01 0.0 
6.621955691700e-01 -2.500485244739e+02 0.0 
0.0 0.0 -1.048524163756e+02 
-1.012747355493e+02 4.029487225794e+00 0.0 
4.029487225794e+00 -2.275937788914e+02 0.0 
0.0 0.0 -9.826055433221e+01 
-1.166462798365e+01 5.440461374447e+00 0.0 
5.440461374447e+00 -2.559648898666e+01 0.0 
0.0 0.0 -1.077833509109e+01 
-1.017645081274e+02 5.796280033045e+00 0.0 
5.796280033045e+00 -2.426778990202e+02 0.0 
0.0 0.0 -1.029327221443e+02 
-1.553390731993e+01 9.330845870402e+00 0.0 
9.330845870402e+00 -3.281435594744e+01 0.0 
0.0 0.0 -1.410447898021e+01 
-2.497414656339e+01 -1.369378727501e+00 0.0 
-1.369378727501e+00 -6.312634074787e+01 0.0 
0.0 0.0 -2.603014619338e+01 
-9.627426555180e+01 3.210624470179e-01 0.0 
3.210624470179e-01 -2.394823795100e+02 0.0 
0.0 0.0 -1.003269935185e+02 
-1.251540710657e+02 6.668499976765e+00 0.0 
6.668499976765e+00 -2.859538379722e+02 0.0 
0.0 0.0 -1.229323727114e+02 
-1.026216289521e+02 1.467717730011e+00 0.0 
1.467717730011e+00 -2.302387731080e+02 0.0 
0.0 0.0 -9.945812061803e+01 
-5.128400648016e+01 2.093277776450e+00 0.0 
2.093277776450e+00 -1.085823635298e+02 0.0 
0.0 0.0 -4.755991100299e+01 
-1.483264730336e+02 2.872027968824e+00 0.0 
2.872027968824e+00 -3.474284370784e+02 0.0 
0.0 0.0 -1.483264730336e+02 
-1.026665450910e+01 6.901223610607e+00 0.0 
6.901223610607e+00 -1.059841931179e+01 0.0 
0.0 0.0 -5.967100162688e+00 
-5.550802834634e+01 1.706218818675e+00 0.0 
1.706218818675e+00 -1.182681833148e+02 0.0 
0.0 0.0 -5.173286349833e+01 
-9.430117308601e+01 3.291945602777e+00 0.0 
3.291945602777e+00 -2.352406762271e+02 0.0 
0.0 0.0 -9.846255479394e+01 
-9.241810803058e+01 1.414412077079e+00 0.0 
1.414412077079e+00 -2.295719518229e+02 0.0 
0.0 0.0 -9.619701795606e+01 
-7.140462449539e+01 2.765594026792e+00 0.0 
2.765594026792e+00 -1.539836937435e+02 0.0 
0.0 0.0 -6.721649547166e+01 
-6.196823355819e+01 2.273575366942e+00 0.0 
2.273575366942e+00 -1.617657790877e+02 0.0 
0.0 0.0 -6.672020379378e+01 
-9.875347042826e+01 4.223925265679e+00 0.0 
4.223925265679e+00 -2.449703012810e+02 0.0 
0.0 0.0 -1.027171315128e+02 
-1.045066732029e+02 7.061801560932e+00 0.0 
7.061801560932e+00 -2.384982607168e+02 0.0 
0.0 0.0 -1.025014801759e+02 
-1.101164633447e+02 5.797329588278e+00 0.0 
5.797329588278e+00 -2.618922246220e+02 0.0 
0.0 0.0 -1.112026063900e+02 
-1.285606040565e+02 4.119322142296e+00 0.0 
4.119322142296e+00 -2.951118261271e+02 0.0 
0.0 0.0 -1.267017290551e+02 
-2.464952647342e+01 6.298136860230e+00 0.0 
6.298136860230e+00 -6.949341710414e+01 0.0 
0.0 0.0 -2.784288307327e+01 
-8.801505437194e+01 7.143076232597e-02 0.0 
7.143076232597e-02 -2.204356389230e+02 0.0 
0.0 0.0 -9.213520798849e+01 
-9.569550476553e+01 -5.280038268016e-02 0.0 
-5.280038268016e-02 -2.375958518948e+02 0.0 
0.0 0.0 -9.958740699811e+01 
-4.965689633195e+01 3.566740622393e-01 0.0 
3.566740622393e-01 -1.267261300099e+02 0.0 
0.0 0.0 -5.251490790255e+01 
-7.906364170184e+01 1.529247730246e-01 0.0 
1.529247730246e-01 -1.743659462246e+02 0.0 
0.0 0.0 -7.562887637794e+01 
-1.033969480573e+02 3.219342969463e+00 0.0 
3.219342969463e+00 -2.309194985404e+02 0.0 
0.0 0.0 -9.989493397931e+01 
-1.207533002690e+02 9.473489074714e-01 0.0 
9.473489074714e-01 -2.930329565435e+02 0.0 
0.0 0.0 -1.237358770437e+02 
-1.719827713779e+01 -3.700547851717e-01 0.0 
-3.700547851717e-01 -4.234936790892e+01 0.0 
0.0 0.0 -1.746429351401e+01 
-1.326036561255e+01 5.247439301526e-01 0.0 
5.247439301526e-01 -2.636149999347e+01 0.0 
0.0 0.0 -1.148655968181e+01 
-3.490015816525e+01 -1.249986256525e-01 0.0 
-1.249986256525e-01 -8.846187053626e+01 0.0 
0.0 0.0 -3.660860861045e+01 
-9.618325731733e+01 1.354660272179e+00 0.0 
1.354660272179e+00 -2.381317102688e+02 0.0 
0.0 0.0 -9.989449027584e+01 
-6.704531390968e+01 5.348586302932e+00 0.0 
5.348586302932e+00 -1.710178863490e+02 0.0 
0.0 0.0 -7.101896007762e+01 
-5.902454464019e+01 3.587639448831e+00 0.0 
3.587639448831e+00 -1.534156829029e+02 0.0 
0.0 0.0 -6.333206826294e+01 
-5.137698673705e+01 4.725778122817e+00 0.0 
4.725778122817e+00 -1.347880329984e+02 0.0 
0.0 0.0 -5.544950592064e+01 
-1.001362400588e+02 2.257825141683e-01 0.0 
2.257825141683e-01 -2.480255648757e+02 0.0 
0.0 0.0 -1.040485414804e+02 
-1.101130291000e+02 2.335446348980e+00 0.0 
2.335446348980e+00 -2.482321028301e+02 0.0 
0.0 0.0 -1.071035395790e+02 
-9.952730479652e+01 -1.370218033939e-01 0.0 
-1.370218033939e-01 -2.461438094776e+02 0.0 
0.0 0.0 -1.033013342822e+02 
-6.675010582826e+01 4.401742207839e+00 0.0 
4.401742207839e+00 -1.706713237032e+02 0.0 
0.0 0.0 -7.082642885943e+01 
-1.096151628537e+02 6.205685984487e+00 0.0 
6.205685984487e+00 -2.473784039430e+02 0.0 
0.0 0.0 -1.066980700390e+02 
-8.711299866667e+01 -4.509019008950e-02 0.0 
-4.509019008950e-02 -1.954466164876e+02 0.0 
0.0 0.0 -8.436788454629e+01 
-1.230278006445e+02 5.917187134669e+00 0.0 
5.917187134669e+00 -2.901019876802e+02 0.0 
0.0 0.0 -1.235389364974e+02 
-9.995474429273e+01 1.286939300658e+00 0.0 
1.286939300658e+00 -2.466657249546e+02 0.0 
0.0 0.0 -1.035861407742e+02 
-1.006604552102e+02 1.615020357762e+00 0.0 
1.615020357762e+00 -2.485958634037e+02 0.0 
0.0 0.0 -1.043768955842e+02 
-4.279436614173e+01 2.485716207462e+00 0.0 
2.485716207462e+00 -8.892728447549e+01 0.0 
0.0 0.0 -3.911649518516e+01 
-7.081481123083e+01 4.789914823794e+00 0.0 
4.789914823794e+00 -1.804482281369e+02 0.0 
0.0 0.0 -7.497891181032e+01 
-1.033524280912e+02 -2.243473099104e-01 0.0 
-2.243473099104e-01 -2.545941627465e+02 0.0 
0.0 0.0 -1.069839772513e+02 
-1.027688889008e+02 -6.193241289121e-01 0.0 
-6.193241289121e-01 -2.358519938476e+02 0.0 
0.0 0.0 -1.011862648245e+02 
-9.514290010539e+01 -6.808415575981e-01 0.0 
-6.808415575981e-01 -2.176972967960e+02 0.0 
0.0 0.0 -9.345205907042e+01 
-4.711829928518e+01 2.119493090252e+00 0.0 
2.119493090252e+00 -9.898427639442e+01 0.0 
0.0 0.0 -4.343077270388e+01 
-1.040238363362e+02 1.132155940513e-01 0.0 
1.132155940513e-01 -2.565923202904e+02 0.0 
0.0 0.0 -1.077848469880e+02 
-5.888006785914e+01 2.348465091692e+00 0.0 
2.348465091692e+00 -1.527661211259e+02 0.0 
0.0 0.0 -6.309385669550e+01 
-2.250381813862e+01 7.738475578692e+00 0.0 
7.738475578692e+00 -5.117591950655e+01 0.0 
0.0 0.0 -2.170392129355e+01 
-1.401489651068e+02 8.036167167117e+00 0.0 
8.036167167117e+00 -3.288471078862e+02 0.0 
0.0 0.0 -1.402988218979e+02 
-3.117661756623e+01 -1.425528554217e+00 0.0 
-1.425528554217e+00 -8.012877840267e+01 0.0 
0.0 0.0 -3.299161879067e+01 
-6.165096453258e+01 1.127400406985e+00 0.0 
1.127400406985e+00 -1.607766143729e+02 0.0 
0.0 0.0 -6.632827367165e+01 
-9.786631387110e+01 7.567084411323e+00 0.0 
7.567084411323e+00 -2.323234890816e+02 0.0 
0.0 0.0 -9.865694088580e+01 
-5.056609295142e+01 1.521009859491e-01 0.0 
1.521009859491e-01 -1.074345995501e+02 0.0 
0.0 0.0 -4.700020775046e+01 
-1.037908372468e+02 1.209585208846e+00 0.0 
1.209585208846e+00 -2.552893022022e+02 0.0 
0.0 0.0 -1.073240418347e+02 
-4.716201390298e+01 7.674204907638e-01 0.0 
7.674204907638e-01 -1.189978927779e+02 0.0 
0.0 0.0 -4.944797200426e+01 
-8.323406824610e+01 1.871628669931e+00 0.0 
1.871628669931e+00 -1.827026728953e+02 0.0 
0.0 0.0 -7.938102234243e+01 
-1.044662330457e+02 1.514574448999e+00 0.0 
1.514574448999e+00 -2.571300065556e+02 0.0 
0.0 0.0 -1.080788718804e+02 
-8.653156255680e+01 4.205964198793e+00 0.0 
4.205964198793e+00 -2.172042823495e+02 0.0 
0.0 0.0 -9.072075347190e+01 
-9.308974639437e+01 1.776695512438e+00 0.0 
1.776695512438e+00 -2.315865387090e+02 0.0 
0.0 0.0 -9.700288553101e+01 
-1.394404076692e+01 3.639357304789e+00 0.0 
3.639357304789e+00 -3.231274119492e+01 0.0 
0.0 0.0 -1.347703458855e+01 
-1.262088725465e+02 9.360095587885e-01 0.0 
9.360095587885e-01 -2.932058665427e+02 0.0 
0.0 0.0 -1.254244217268e+02 
-7.049091406140e+01 3.538834213355e+00 0.0 
3.538834213355e+00 -1.804280393845e+02 0.0 
0.0 0.0 -7.487568603377e+01 
-1.341650743392e+02 5.354744595681e+00 0.0 
5.354744595681e+00 -3.208776331842e+02 0.0 
0.0 0.0 -1.361128122570e+02 
-1.114451254747e+02 7.527649987530e+00 0.0 
7.527649987530e+00 -2.585291152628e+02 0.0 
0.0 0.0 -1.105922722212e+02 
-1.079084415479e+02 -1.798995788673e-02 0.0 
-1.798995788673e-02 -2.651119416300e+02 0.0 
0.0 0.0 -1.115061149534e+02 
-1.082777681881e+02 1.362019124388e+00 0.0 
1.362019124388e+00 -2.656081557739e+02 0.0 
0.0 0.0 -1.117657771886e+02 
-6.239511011399e+01 3.620345785013e+00 0.0 
3.620345785013e+00 -1.618733050840e+02 0.0 
0.0 0.0 -6.688052455940e+01 
-2.244206639069e+01 -1.314891707486e+00 0.0 
-1.314891707486e+00 -5.433358055994e+01 0.0 
0.0 0.0 -2.263269408519e+01 
-1.089127600823e+01 4.301895137415e+00 0.0 
4.301895137415e+00 -3.121704812044e+01 0.0 
0.0 0.0 -1.223249723860e+01 
-1.118450007631e+02 -1.543787938500e-01 0.0 
-1.543787938500e-01 -2.736428754745e+02 0.0 
0.0 0.0 -1.152463628713e+02 
-1.338198759776e+02 4.785962769465e+00 0.0 
4.785962769465e+00 -3.214793658400e+02 0.0 
0.0 0.0 -1.361897725453e+02 
-5.869070495423e+01 1.456019598356e+00 0.0 
1.456019598356e+00 -1.514118074264e+02 0.0 
0.0 0.0 -6.263075371419e+01 
-1.127271093082e+02 4.733806102373e+00 0.0 
4.733806102373e+00 -2.565973609436e+02 0.0 
0.0 0.0 -1.103973410755e+02 
-4.877298135414e+01 2.030428804871e+00 0.0 
2.030428804871e+00 -1.024201218575e+02 0.0 
0.0 0.0 -4.495793096350e+01 
-1.138121498747e+02 5.980082731635e+00 0.0 
5.980082731635e+00 -2.570649943941e+02 0.0 
0.0 0.0 -1.108631432807e+02 
-1.521509688879e+02 4.421301978185e+00 0.0 
4.421301978185e+00 -3.614981740914e+02 0.0 
0.0 0.0 -1.536947428938e+02 
-1.182966040469e+01 -3.563090179890e-01 0.0 
-3.563090179890e-01 -7.196722337225e+00 0.0 
0.0 0.0 -5.307914822575e+00 
-1.476124121983e+02 4.221366028762e-01 0.0 
4.221366028762e-01 -3.457622951294e+02 0.0 
0.0 0.0 -1.476124121983e+02 
-1.636323495500e+02 6.251193634591e-01 0.0 
6.251193634591e-01 -3.831421489499e+02 0.0 
0.0 0.0 -1.636323495500e+02 
-8.185256944659e+01 7.902101436271e-01 0.0 
7.902101436271e-01 -1.860825860055e+02 0.0 
0.0 0.0 -7.998054663562e+01 
-7.022080672074e+01 2.509518061422e+00 0.0 
2.509518061422e+00 -1.796539717383e+02 0.0 
0.0 0.0 -7.456243353771e+01 
-1.079712363837e+02 7.321767286900e+00 0.0 
7.321767286900e+00 -2.485066176988e+02 0.0 
0.0 0.0 -1.065433562247e+02 
-6.325978131719e+01 5.983882742238e+00 0.0 
5.983882742238e+00 -1.612742102197e+02 0.0 
0.0 0.0 -6.696019746106e+01 
-2.218665912006e+01 -7.727975523669e-03 0.0 
-7.727975523669e-03 -5.497186192347e+01 0.0 
0.0 0.0 -2.274755631306e+01 
-1.028711912626e+01 6.800529473339e+00 0.0 
6.800529473339e+00 -1.309811214935e+01 0.0 
0.0 0.0 -6.615569382683e+00 
-1.334276889565e+02 1.522475896357e+00 0.0 
1.522475896357e+00 -3.099199092359e+02 0.0 
0.0 0.0 -1.326042794577e+02 
-1.073048158394e+02 3.724670880950e+00 0.0 
3.724670880950e+00 -2.401258179865e+02 0.0 
0.0 0.0 -1.038291901478e+02 
-7.632045332347e+01 1.681451135781e+00 0.0 
1.681451135781e+00 -1.681134778569e+02 0.0 
0.0 0.0 -7.293017935412e+01 
-1.546212572042e+02 8.218244125805e+00 0.0 
8.218244125805e+00 -3.606381320845e+02 0.0 
0.0 0.0 -1.541778167866e+02 
-3.929680379487e+01 7.203080661935e-01 0.0 
7.203080661935e-01 -9.958627976080e+01 0.0 
0.0 0.0 -4.126492506670e+01 
-1.546848971658e+02 8.355192437911e+00 0.0 
8.355192437911e+00 -3.621767051613e+02 0.0 
0.0 0.0 -1.546584806981e+02 
-1.064114821558e+02 1.878621250674e+00 0.0 
1.878621250674e+00 -2.392967662708e+02 0.0 
0.0 0.0 -1.033124745280e+02 
-6.987527948444e+01 1.739363954389e+00 0.0 
1.739363954389e+00 -1.781776860595e+02 0.0 
0.0 0.0 -7.401588966318e+01 
-1.034364691745e+02 5.712708334103e+00 0.0 
5.712708334103e+00 -2.390236736360e+02 0.0 
0.0 0.0 -1.023380428432e+02 
-6.529203439694e+01 8.641261592173e-01 0.0 
8.641261592173e-01 -1.691108412711e+02 0.0 
0.0 0.0 -6.992086270040e+01 
-2.644133116623e+01 6.309928410547e+00 0.0 
6.309928410547e+00 -5.636624897707e+01 0.0 
0.0 0.0 -2.444227404299e+01 
-6.127209439834e+01 2.614346531994e-01 0.0 
2.614346531994e-01 -1.589403410397e+02 0.0 
0.0 0.0 -6.566373063142e+01 
-1.138193108137e+02 2.792163429729e+00 0.0 
2.792163429729e+00 -2.573019329115e+02 0.0 
0.0 0.0 -1.109363731176e+02 
-1.386161482405e+02 1.608928478810e+00 0.0 
1.608928478810e+00 -3.318192308292e+02 0.0 
0.0 0.0 -1.407306137209e+02 
-6.562911409480e+01 1.846475580412e+00 0.0 
1.846475580412e+00 -1.703525574700e+02 0.0 
0.0 0.0 -7.039450146943e+01 
-1.168168467494e+02 4.561445464394e+00 0.0 
4.561445464394e+00 -2.660752089806e+02 0.0 
0.0 0.0 -1.144676167190e+02 
-9.516933769804e+00 -3.933889150210e-01 0.0 
-3.933889150210e-01 -8.324346793932e+00 0.0 
0.0 0.0 -5.853639692363e+00 
-6.607122330515e+01 3.077056441181e+00 0.0 
3.077056441181e+00 -1.709261670843e+02 0.0 
0.0 0.0 -7.069921711684e+01 
-1.193824423190e+02 4.005729746379e+00 0.0 
4.005729746379e+00 -2.702078788838e+02 0.0 
0.0 0.0 -1.164770963609e+02 
-6.063213223972e+01 -3.422231036282e-01 0.0 
-3.422231036282e-01 -1.562897171826e+02 0.0 
0.0 0.0 -6.467655482669e+01 
-5.474256739512e+01 9.391188111668e-01 0.0 
9.391188111668e-01 -1.410580640286e+02 0.0 
0.0 0.0 -5.834018942711e+01 
-1.034346934515e+02 7.470420220265e+00 0.0 
7.470420220265e+00 -2.394356900498e+02 0.0 
0.0 0.0 -1.024611150504e+02 
-2.909156530372e+01 -5.867038929769e-01 0.0 
-5.867038929769e-01 -7.771868191183e+01 0.0 
0.0 0.0 -3.164307416466e+01 
-3.341888344369e+01 2.574454333350e+00 0.0 
2.574454333350e+00 -6.810738618956e+01 0.0 
0.0 0.0 -3.005788088998e+01 
-3.884393409337e+01 2.678141163799e+00 0.0 
2.678141163799e+00 -7.967113618497e+01 0.0 
0.0 0.0 -3.515452108350e+01 
-5.309505503196e+01 -6.347789318266e-01 0.0 
-6.347789318266e-01 -1.375121084297e+02 0.0 
0.0 0.0 -5.678214903850e+01 
-9.477249623251e+01 4.501971776814e+00 0.0 
4.501971776814e+00 -2.357647033681e+02 0.0 
0.0 0.0 -9.876115988020e+01 
-8.995788248559e+01 6.081417451077e+00 0.0 
6.081417451077e+00 -2.131896606248e+02 0.0 
0.0 0.0 -9.054426293312e+01 
-1.174166952608e+02 6.428303605912e+00 0.0 
6.428303605912e+00 -2.666354892412e+02 0.0 
0.0 0.0 -1.148156553506e+02 
-1.370747029193e+02 4.241582128996e+00 0.0 
4.241582128996e+00 -3.168268130058e+02 0.0 
0.0 0.0 -1.357704547775e+02 
-4.189618678214e+01 3.815500159945e-01 0.0 
3.815500159945e-01 -8.791970972563e+01 0.0 
0.0 0.0 -3.854476895233e+01 
-1.110005921408e+02 1.095006226418e+00 0.0 
1.095006226418e+00 -2.553882122483e+02 0.0 
0.0 0.0 -1.095166413167e+02 
-1.390077374676e+02 5.717268468725e+00 0.0 
5.717268468725e+00 -3.225557130632e+02 0.0 
0.0 0.0 -1.380690351593e+02 
-5.869197396275e+01 4.244459651850e+00 0.0 
4.244459651850e+00 -1.524842513485e+02 0.0 
0.0 0.0 -6.295286759337e+01 
-1.405507215783e+01 7.267049337028e+00 0.0 
7.267049337028e+00 -3.228794673673e+01 0.0 
0.0 0.0 -1.350290566837e+01 
-5.451490043664e+01 3.981486188014e+00 0.0 
3.981486188014e+00 -1.141997304695e+02 0.0 
0.0 0.0 -5.021438927185e+01 
-9.041781948972e+01 3.883175350109e+00 0.0 
3.883175350109e+00 -2.262530216442e+02 0.0 
0.0 0.0 -9.460125234019e+01 
-1.170704802308e+02 3.903120965940e+00 0.0 
3.903120965940e+00 -2.659239793029e+02 0.0 
0.0 0.0 -1.144983378601e+02 
-8.983061154256e+01 2.703980606474e+00 0.0 
2.703980606474e+00 -2.257478954859e+02 0.0 
0.0 0.0 -9.427355210852e+01 
-1.972633964033e+01 6.041964054524e+00 0.0 
6.041964054524e+00 -5.417865672553e+01 0.0 
0.0 0.0 -2.177149890976e+01 
-1.032073127113e+02 4.799654073005e+00 0.0 
4.799654073005e+00 -2.544958643351e+02 0.0 
0.0 0.0 -1.069109531139e+02 
-3.078550680412e+01 5.143976683930e+00 0.0 
5.143976683930e+00 -6.399461890355e+01 0.0 
0.0 0.0 -2.803403771230e+01 
-8.963714112930e+01 7.656588267501e+00 0.0 
7.656588267501e+00 -2.133755668083e+02 0.0 
0.0 0.0 -9.050381238127e+01 
-9.818127619139e+01 2.904796342268e+00 0.0 
2.904796342268e+00 -2.444366281063e+02 0.0 
0.0 0.0 -1.023853712893e+02 
-1.069262667796e+02 5.874006913563e+00 0.0 
5.874006913563e+00 -2.491970388925e+02 0.0 
0.0 0.0 -1.064369917016e+02 
-1.012673876529e+02 9.511930326085e-01 0.0 
9.511930326085e-01 -2.310737843964e+02 0.0 
0.0 0.0 -9.930235161480e+01 
-5.399789948924e+01 5.012625280265e-01 0.0 
5.012625280265e-01 -1.381177789903e+02 0.0 
0.0 0.0 -5.723470354385e+01 
-1.796218917040e+01 7.851857205032e+00 0.0 
7.851857205032e+00 -4.643109093285e+01 0.0 
0.0 0.0 -1.891798403097e+01 
-1.067863591007e+02 3.129267710626e+00 0.0 
3.129267710626e+00 -2.634961182775e+02 0.0 
0.0 0.0 -1.106847432135e+02 
-3.497722463833e+01 4.037588670046e+00 0.0 
4.037588670046e+00 -7.208006006367e+01 0.0 
0.0 0.0 -3.171718541060e+01 
-1.164631168075e+01 3.762589051974e-02 0.0 
3.762589051974e-02 -2.560059203244e+01 0.0 
0.0 0.0 -1.077407111396e+01 
-1.341461733149e+02 -5.597207171736e-01 0.0 
-5.597207171736e-01 -3.119277897945e+02 0.0 
0.0 0.0 -1.334221889328e+02 
-1.266636986641e+02 -6.642068271924e-01 0.0 
-6.642068271924e-01 -2.934911369983e+02 0.0 
0.0 0.0 -1.256464506987e+02 
-1.163072618832e+01 -5.592501338283e-01 0.0 
-5.592501338283e-01 -2.470759116803e+01 0.0 
0.0 0.0 -1.088354304047e+01 
-1.118565235554e+02 5.087956600402e+00 0.0 
5.087956600402e+00 -2.735210229899e+02 0.0 
0.0 0.0 -1.152132639636e+02 
-4.222552572850e+01 1.178128676944e-02 0.0 
1.178128676944e-02 -1.076608687316e+02 0.0 
0.0 0.0 -4.456591833803e+01 
-4.473343160546e+01 -1.258954638265e+00 0.0 
-1.258954638265e+00 -1.150778630969e+02 0.0 
0.0 0.0 -4.754338841071e+01 
-1.246211943145e+02 4.842154127314e+00 0.0 
4.842154127314e+00 -2.855590591487e+02 0.0 
0.0 0.0 -1.226540760390e+02 
-1.069189155627e+02 7.553210531930e+00 0.0 
7.553210531930e+00 -2.495201980052e+02 0.0 
0.0 0.0 -1.065317340704e+02 
-1.205191468730e+02 4.997739006020e+00 0.0 
4.997739006020e+00 -2.759533364037e+02 0.0 
0.0 0.0 -1.185417449830e+02 
-6.670050793374e+01 3.965162741834e+00 0.0 
3.965162741834e+00 -1.714257506052e+02 0.0 
0.0 0.0 -7.103787756169e+01 
-7.322536894478e+01 -4.139563746008e-02 0.0 
-4.139563746008e-02 -1.649021697957e+02 0.0 
0.0 0.0 -7.103826162215e+01 
-1.535484507045e+02 4.263599297875e+00 0.0 
4.263599297875e+00 -3.624963196627e+02 0.0 
0.0 0.0 -1.544134311102e+02 
-3.729755563859e+01 -1.395299988633e+00 0.0 
-1.395299988633e+00 -9.572680427099e+01 0.0 
0.0 0.0 -3.950730797287e+01 
-1.300397128696e+02 6.888257180670e+00 0.0 
6.888257180670e+00 -3.104071723018e+02 0.0 
0.0 0.0 -1.317340655514e+02 
-9.426742980630e+01 7.682220166478e+00 0.0 
7.682220166478e+00 -2.219050292560e+02 0.0 
0.0 0.0 -9.445173771869e+01 
-3.029058008311e+01 -8.827074010516e-01 0.0 
-8.827074010516e-01 -7.591956668417e+01 0.0 
0.0 0.0 -3.146304403019e+01 
-1.133919427020e+02 3.431770775783e+00 0.0 
3.431770775783e+00 -2.563886960462e+02 0.0 
0.0 0.0 -1.105341916245e+02 
-7.040716808570e+01 3.816349030761e+00 0.0 
3.816349030761e+00 -1.800352941609e+02 0.0 
0.0 0.0 -7.473273867399e+01 
-1.726344180133e+01 -8.854207739457e-01 0.0 
-8.854207739457e-01 -4.202217135829e+01 0.0 
0.0 0.0 -1.738568394789e+01 
-5.825709807270e+01 2.779668427537e+00 0.0 
2.779668427537e+00 -1.529217451646e+02 0.0 
0.0 0.0 -6.295365297119e+01 
-1.168537889221e+02 -7.240063031278e-01 0.0 
-7.240063031278e-01 -2.845896509560e+02 0.0 
0.0 0.0 -1.200330319634e+02 
-1.147825206177e+02 4.661361042297e+00 0.0 
4.661361042297e+00 -2.583321914977e+02 0.0 
0.0 0.0 -1.115344136346e+02 
-2.918595391208e+01 -2.420810537948e-01 0.0 
-2.420810537948e-01 -7.317178175443e+01 0.0 
0.0 0.0 -3.030732069996e+01 
-9.411136601042e+01 5.741672266733e-01 0.0 
5.741672266733e-01 -2.321489387971e+02 0.0 
0.0 0.0 -9.747809144226e+01 
-1.209196118698e+02 4.374173364831e+00 0.0 
4.374173364831e+00 -2.758199566436e+02 0.0 
0.0 0.0 -1.186218705540e+02 
-1.277557874758e+02 7.703241642832e+00 0.0 
7.703241642832e+00 -2.994683637492e+02 0.0 
0.0 0.0 -1.277672453675e+02 
-5.715583066879e+01 -2.134112038734e-01 0.0 
-2.134112038734e-01 -1.482904015786e+02 0.0 
0.0 0.0 -6.123386967421e+01 
-4.702397250181e+01 -8.368695805671e-01 0.0 
-8.368695805671e-01 -1.189894677777e+02 0.0 
0.0 0.0 -4.940403208386e+01 
-9.804300661215e+01 5.942305759943e+00 0.0 
5.942305759943e+00 -2.320773160683e+02 0.0 
0.0 0.0 -9.863609680412e+01 
-9.855240101533e+01 8.708740942966e-01 0.0 
8.708740942966e-01 -2.253790409912e+02 0.0 
0.0 0.0 -9.677943260196e+01 
-1.713286777325e+01 -7.573229118052e-01 0.0 
-7.573229118052e-01 -4.142764241678e+01 0.0 
0.0 0.0 -1.716815305701e+01 
-1.465425268475e+02 7.083401429038e+00 0.0 
7.083401429038e+00 -3.403359579634e+02 0.0 
0.0 0.0 -1.456635454433e+02 
-1.422894429946e+02 4.329005049984e+00 0.0 
4.329005049984e+00 -3.315284352830e+02 0.0 
0.0 0.0 -1.417453634833e+02 
-8.703325280230e+01 8.062875772782e-01 0.0 
8.062875772782e-01 -1.979406579414e+02 0.0 
0.0 0.0 -8.509217322311e+01 
-1.402877789455e+02 3.102922657177e+00 0.0 
3.102922657177e+00 -3.249144131146e+02 0.0 
0.0 0.0 -1.391606576180e+02 
-1.437154056207e+02 4.826361552658e+00 0.0 
4.826361552658e+00 -3.344802797682e+02 0.0 
0.0 0.0 -1.430587056167e+02 
-6.979573195609e+01 2.578790398641e+00 0.0 
2.578790398641e+00 -1.798859733313e+02 0.0 
0.0 0.0 -7.450451158622e+01 
-6.646231757637e+01 2.792916599089e+00 0.0 
2.792916599089e+00 -1.709520459749e+02 0.0 
0.0 0.0 -7.082430906539e+01 
-1.498546372165e+02 7.448510889172e+00 0.0 
7.448510889172e+00 -3.542759086131e+02 0.0 
0.0 0.0 -1.508391637489e+02 
-9.221092503417e+00 1.217793286281e-01 0.0 
1.217793286281e-01 -8.708340763562e+00 0.0 
0.0 0.0 -5.929442162880e+00 
-4.283897934467e+01 -8.116319984058e-01 0.0 
-8.116319984058e-01 -1.084881933519e+02 0.0 
0.0 0.0 -4.499815180897e+01 
-9.549440897777e+01 -7.527127958525e-01 0.0 
-7.527127958525e-01 -2.365949926283e+02 0.0 
0.0 0.0 -9.922682048181e+01 
-5.811142597770e+01 8.647497403497e-01 0.0 
8.647497403497e-01 -1.489712070683e+02 0.0 
0.0 0.0 -6.172478991381e+01 
-5.792641614685e+01 1.468435652315e+00 0.0 
1.468435652315e+00 -1.521970974787e+02 0.0 
0.0 0.0 -6.263705408768e+01 
-2.500687673275e+01 3.314870181298e+00 0.0 
3.314870181298e+00 -4.829481173968e+01 0.0 
0.0 0.0 -2.159050654173e+01 
-3.012859442553e+01 3.508341232795e+00 0.0 
3.508341232795e+00 -6.073320272068e+01 0.0 
0.0 0.0 -2.685853914386e+01 
-8.826447531641e+01 1.187390100041e+00 0.0 
1.187390100041e+00 -1.983152873828e+02 0.0 
0.0 0.0 -8.557392880976e+01 
-6.294197078858e+01 4.493941095058e+00 0.0 
4.493941095058e+00 -1.623129431904e+02 0.0 
0.0 0.0 -6.717647419369e+01 
-4.988011424899e+01 -8.670572382570e-01 0.0 
-8.670572382570e-01 -1.266527988188e+02 0.0 
0.0 0.0 -5.255987392034e+01 
-1.229421794962e+02 5.973155659544e+00 0.0 
5.973155659544e+00 -2.875167088278e+02 0.0 
0.0 0.0 -1.227376664972e+02 
-1.617578629936e+02 3.520228685073e+00 0.0 
3.520228685073e+00 -3.808786783448e+02 0.0 
0.0 0.0 -1.623909624015e+02 
-1.606473552909e+02 4.297509869938e+00 0.0 
4.297509869938e+00 -3.791306401380e+02 0.0 
0.0 0.0 -1.615333986287e+02 
-6.937530946973e+01 1.491457380156e+00 0.0 
1.491457380156e+00 -1.790286987755e+02 0.0 
0.0 0.0 -7.412120247356e+01 
-8.167433713800e+01 7.951644968806e-02 0.0 
7.951644968806e-02 -1.821129660372e+02 0.0 
0.0 0.0 -7.873619095257e+01 
-1.356455874855e+01 -7.378619187705e-02 0.0 
-7.378619187705e-02 -2.106593713835e+01 0.0 
0.0 0.0 -9.989148766070e+00 
-1.848088731815e+01 5.583829626352e+00 0.0 
5.583829626352e+00 -3.128873899944e+01 0.0 
0.0 0.0 -1.453088789528e+01 
-2.865634229924e+01 3.587754460720e-01 0.0 
3.587754460720e-01 -7.342544357541e+01 0.0 
0.0 0.0 -3.022453576240e+01 
-2.226321990305e+01 4.409696826244e+00 0.0 
4.409696826244e+00 -4.098089035999e+01 0.0 
0.0 0.0 -1.857323307891e+01 
-1.023632485158e+02 7.593812195774e+00 0.0 
7.593812195774e+00 -2.407652915043e+02 0.0 
0.0 0.0 -1.025385620060e+02 
-5.771062057642e+01 4.844481220995e-01 0.0 
4.844481220995e-01 -1.508210205907e+02 0.0 
0.0 0.0 -6.215949235012e+01 
-6.276669720795e+01 3.157194508276e+00 0.0 
3.157194508276e+00 -1.623052984659e+02 0.0 
0.0 0.0 -6.712159870216e+01 
-1.835159203743e+01 9.584517166033e-02 0.0 
9.584517166033e-02 -4.176617029793e+01 0.0 
0.0 0.0 -1.763532870061e+01 
-1.275925358240e+02 1.142665067042e-01 0.0 
1.142665067042e-01 -2.965993425587e+02 0.0 
0.0 0.0 -1.268575635148e+02 
-6.256459006077e+01 2.104438637306e+00 0.0 
2.104438637306e+00 -1.613664918426e+02 0.0 
0.0 0.0 -6.677932457100e+01 
-1.332682547073e+02 4.730241599485e-02 0.0 
4.730241599485e-02 -3.095243822370e+02 0.0 
0.0 0.0 -1.324377910833e+02 
-1.217959196382e+02 9.163727944996e-01 0.0 
9.163727944996e-01 -2.811221588444e+02 0.0 
0.0 0.0 -1.204754235448e+02 
-1.477692315124e+02 1.727698536756e-01 0.0 
1.727698536756e-01 -3.452781851620e+02 0.0 
0.0 0.0 -1.475142250023e+02 
-1.626055642238e+02 6.417657595876e-01 0.0 
6.417657595876e-01 -3.828712196156e+02 0.0 
0.0 0.0 -1.632430351518e+02 
-8.700545245455e+01 -5.906085268721e-01 0.0 
-5.906085268721e-01 -1.983904464517e+02 0.0 
0.0 0.0 -8.521876967187e+01 
-6.620573801042e+01 1.882347148583e+00 0.0 
1.882347148583e+00 -1.697446719520e+02 0.0 
0.0 0.0 -7.038512298873e+01 
-3.292862633771e+01 5.603787811327e-01 0.0 
5.603787811327e-01 -6.818202222322e+01 0.0 
0.0 0.0 -2.993319456828e+01 
-6.898869861558e+01 6.268072238163e-01 0.0 
6.268072238163e-01 -1.775357014286e+02 0.0 
0.0 0.0 -7.355732001325e+01 
-1.633009428897e+02 2.853159443923e+00 0.0 
2.853159443923e+00 -3.823688667427e+02 0.0 
0.0 0.0 -1.633009428897e+02 
-1.233096365446e+01 8.261857742469e+00 0.0 
8.261857742469e+00 -1.567715997725e+01 0.0 
0.0 0.0 -8.002437089514e+00 
-1.496091107331e+01 6.625003072491e+00 0.0 
6.625003072491e+00 -2.269112912392e+01 0.0 
0.0 0.0 -1.089561205917e+01 
-1.344471141446e+02 7.214159711717e+00 0.0 
7.214159711717e+00 -3.194699223670e+02 0.0 
0.0 0.0 -1.357751109535e+02 
-8.139030233259e+01 2.820883657494e-01 0.0 
2.820883657494e-01 -1.826520337457e+02 0.0 
0.0 0.0 -7.881270082350e+01 
-1.339819209812e+02 -2.795874299726e-01 0.0 
-2.795874299726e-01 -3.115530582376e+02 0.0 
0.0 0.0 -1.332604937656e+02 
-1.215245169732e+02 6.257498812355e+00 0.0 
6.257498812355e+00 -2.762479312801e+02 0.0 
0.0 0.0 -1.189317344760e+02 
-1.352712327289e+02 6.318651993494e+00 0.0 
6.318651993494e+00 -3.177053099433e+02 0.0 
0.0 0.0 -1.354929628017e+02 
-1.262642297359e+02 5.625495006611e+00 0.0 
5.625495006611e+00 -2.871534915115e+02 0.0 
0.0 0.0 -1.236253163742e+02 
-8.888018096181e+01 -5.592418905514e-01 0.0 
-5.592418905514e-01 -2.019735138073e+02 0.0 
0.0 0.0 -8.685610843073e+01 
-5.073024620668e+01 4.970952674056e-01 0.0 
4.970952674056e-01 -1.303716162076e+02 0.0 
0.0 0.0 -5.393055872428e+01 
-4.980143447275e+01 -5.681997004671e-01 0.0 
-5.681997004671e-01 -1.297769642416e+02 0.0 
0.0 0.0 -5.347351961432e+01 
-1.068402539702e+02 -6.066370059695e-01 0.0 
-6.066370059695e-01 -2.449874289878e+02 0.0 
0.0 0.0 -1.051483048874e+02 
-1.317780103024e+02 7.994428147799e+00 0.0 
7.994428147799e+00 -3.075851869548e+02 0.0 
0.0 0.0 -1.314089591772e+02 
-7.532365189367e+01 4.080040488075e-01 0.0 
4.080040488075e-01 -1.660834852394e+02 0.0 
0.0 0.0 -7.202214113993e+01 
-8.003595778841e+01 8.396771253231e-05 0.0 
8.396771253231e-05 -1.814840814236e+02 0.0 
0.0 0.0 -7.805601176359e+01 
-8.690857357501e+01 3.510219849078e-01 0.0 
3.510219849078e-01 -1.973792411827e+02 0.0 
0.0 0.0 -8.488634442733e+01 
-8.913035520973e+01 1.155161559461e+00 0.0 
1.155161559461e+00 -2.029585802554e+02 0.0 
0.0 0.0 -8.722668063954e+01 
-2.264047163471e+01 2.328320863171e-01 0.0 
2.328320863171e-01 -6.161341353484e+01 0.0 
0.0 0.0 -2.487616555087e+01 
-4.577613561564e+01 -8.940590813379e-01 0.0 
-8.940590813379e-01 -1.187687389088e+02 0.0 
0.0 0.0 -4.896346235733e+01 
-1.415719000866e+02 8.819884419977e-01 0.0 
8.819884419977e-01 -3.298091789820e+02 0.0 
0.0 0.0 -1.410143237206e+02 
-9.749821977427e+01 1.163238846546e+00 0.0 
1.163238846546e+00 -2.221930440474e+02 0.0 
0.0 0.0 -9.550737914649e+01 
-1.513782497977e+02 7.061347343643e+00 0.0 
7.061347343643e+00 -3.560747083926e+02 0.0 
0.0 0.0 -1.518358874571e+02 
-1.385590044012e+02 5.756644932301e+00 0.0 
5.756644932301e+00 -3.184750200974e+02 0.0 
0.0 0.0 -1.367102073496e+02 
-1.142042322427e+02 5.269955885891e+00 0.0 
5.269955885891e+00 -2.572210254159e+02 0.0 
0.0 0.0 -1.110275772976e+02 
-1.350609092906e+02 2.850600558811e+00 0.0 
2.850600558811e+00 -3.122491189997e+02 0.0 
0.0 0.0 -1.337930084871e+02 
-7.027052942416e+01 -5.780170321025e-01 0.0 
-5.780170321025e-01 -1.765552749610e+02 0.0 
0.0 0.0 -7.364774131555e+01 
-6.354862839264e+01 -6.824840200277e-01 0.0 
-6.824840200277e-01 -1.610988333365e+02 0.0 
0.0 0.0 -6.699423851875e+01 
-1.457628506351e+02 3.406244111462e+00 0.0 
3.406244111462e+00 -3.473411464560e+02 0.0 
0.0 0.0 -1.475311991273e+02 
-1.196392081765e+01 -6.859203131529e-01 0.0 
-6.859203131529e-01 -2.434412348240e+01 0.0 
0.0 0.0 -1.094509796105e+01 
-4.563389457789e+01 3.033260818752e-02 0.0 
3.033260818752e-02 -1.145907405820e+02 0.0 
0.0 0.0 -4.766739054796e+01 
-1.542473583494e+02 7.933762936586e+00 0.0 
7.933762936586e+00 -3.612438361485e+02 0.0 
0.0 0.0 -1.542473583494e+02 
-2.262806704942e+01 6.411589419322e-01 0.0 
6.411589419322e-01 -5.751517115518e+01 0.0 
0.0 0.0 -2.364297146138e+01 
-8.012830715647e+01 -3.966477738651e-02 0.0 
-3.966477738651e-02 -1.815736578235e+02 0.0 
0.0 0.0 -7.811058949399e+01 
-1.432937769644e+02 6.683062284743e+00 0.0 
6.683062284743e+00 -3.411884762675e+02 0.0 
0.0 0.0 -1.449446759696e+02 
-1.672781773124e+01 -1.142896609688e+00 0.0 
-1.142896609688e+00 -3.899540650456e+01 0.0 
0.0 0.0 -1.631696727074e+01 
-1.031967767068e+01 -1.744813184569e-01 0.0 
-1.744813184569e-01 -2.392873433073e+01 0.0 
0.0 0.0 -9.874523600422e+00 
-1.486469142324e+02 2.353455634148e+00 0.0 
2.353455634148e+00 -3.465630604710e+02 0.0 
0.0 0.0 -1.481629924110e+02 
-7.358211745505e+01 -2.753549444678e-01 0.0 
-2.753549444678e-01 -1.648745285703e+02 0.0 
0.0 0.0 -7.113699380761e+01 
-1.403257540612e+02 7.579946050272e-01 0.0 
7.579946050272e-01 -3.260507477843e+02 0.0 
0.0 0.0 -1.395129505537e+02 
-1.435169683528e+02 6.495231626222e+00 0.0 
6.495231626222e+00 -3.397658661029e+02 0.0 
0.0 0.0 -1.445848503367e+02 
-7.335560889812e+01 2.857234321253e-01 0.0 
2.857234321253e-01 -1.645619936436e+02 0.0 
0.0 0.0 -7.097528076252e+01 
-1.413323371348e+01 3.332939085592e-01 0.0 
3.332939085592e-01 -2.261551129214e+01 0.0 
0.0 0.0 -1.062462350168e+01 
-1.408313593178e+02 7.013727188724e-01 0.0 
7.013727188724e-01 -3.288404889603e+02 0.0 
0.0 0.0 -1.405015544834e+02 
-2.502241146934e+01 2.920525390708e-01 0.0 
2.920525390708e-01 -6.326700297231e+01 0.0 
0.0 0.0 -2.608682433249e+01 
-1.353757923850e+02 8.867959528975e-01 0.0 
8.867959528975e-01 -3.149805538921e+02 0.0 
0.0 0.0 -1.347069038831e+02 
-1.634236197784e+02 2.180986278590e+00 0.0 
2.180986278590e+00 -3.826551128162e+02 0.0 
0.0 0.0 -1.634236197784e+02 
-1.372155509018e+02 4.820681533534e+00 0.0 
4.820681533534e+00 -3.167121692961e+02 0.0 
0.0 0.0 -1.357783160594e+02 
-2.855010082091e+01 6.498123757058e-01 0.0 
6.498123757058e-01 -7.948256817406e+01 0.0 
0.0 0.0 -3.200980069849e+01 
-8.926418563579e+01 8.571220977473e-01 0.0 
8.571220977473e-01 -1.995455697635e+02 0.0 
0.0 0.0 -8.624292661980e+01 
-7.115971920141e+01 4.741385885888e-01 0.0 
4.741385885888e-01 -1.792477579867e+02 0.0 
0.0 0.0 -7.472224315642e+01 
-1.233132609364e+02 7.639163079686e+00 0.0 
7.639163079686e+00 -2.878534654697e+02 0.0 
0.0 0.0 -1.229500179218e+02 
-1.568456603229e+02 8.646419463803e+00 0.0 
8.646419463803e+00 -3.675172076727e+02 0.0 
0.0 0.0 -1.569088603987e+02 
-1.152855348491e+02 -3.141306521851e-01 0.0 
-3.141306521851e-01 -2.660131582333e+02 0.0 
0.0 0.0 -1.139896079247e+02 
-1.568186588148e+02 7.635394791796e+00 0.0 
7.635394791796e+00 -3.688581661271e+02 0.0 
0.0 0.0 -1.573030474826e+02 
-1.629928203791e+01 -5.007520498373e-01 0.0 
-5.007520498373e-01 -4.049096597378e+01 0.0 
0.0 0.0 -1.663707440351e+01 
-1.553599600397e+02 3.268188515197e+00 0.0 
3.268188515197e+00 -3.671882459256e+02 0.0 
0.0 0.0 -1.563644617896e+02 
-3.298323362491e+01 6.932890514679e-01 0.0 
6.932890514679e-01 -8.962719203485e+01 0.0 
0.0 0.0 -3.638312769793e+01 
-2.257015198781e+01 -6.302451707718e-01 0.0 
-6.302451707718e-01 -5.748972681454e+01 0.0 
0.0 0.0 -2.361796364071e+01 
-1.516763066910e+02 6.644263183137e+00 0.0 
6.644263183137e+00 -3.592756081510e+02 0.0 
0.0 0.0 -1.528855744526e+02 
-1.433203936980e+02 3.393763469858e+00 0.0 
3.393763469858e+00 -3.319965492552e+02 0.0 
0.0 0.0 -1.421950828860e+02 
-1.432874085257e+02 2.641617317669e+00 0.0 
2.641617317669e+00 -3.336510979036e+02 0.0 
0.0 0.0 -1.426815519288e+02 
-7.975209391445e+01 -6.913968900147e-01 0.0 
-6.913968900147e-01 -1.803517073396e+02 0.0 
0.0 0.0 -7.763114037623e+01 
-9.061569755640e+01 5.765900079408e-01 0.0 
5.765900079408e-01 -2.020393396365e+02 0.0 
0.0 0.0 -8.739651115788e+01 
-2.653637630460e+01 9.544642941738e+00 0.0 
9.544642941738e+00 -5.618353329266e+01 0.0 
0.0 0.0 -2.441597287918e+01 
-1.455919414132e+02 5.896175652824e+00 0.0 
5.896175652824e+00 -3.364851724361e+02 0.0 
0.0 0.0 -1.442231341548e+02 
-5.962275392703e+01 -7.550798056687e-01 0.0 
-7.550798056687e-01 -1.498988228757e+02 0.0 
0.0 0.0 -6.245647304082e+01 
-1.605723605673e+01 6.242103406399e+00 0.0 
6.242103406399e+00 -4.277088814182e+01 0.0 
0.0 0.0 -1.724843725956e+01 
-1.274457321821e+02 6.202197697875e+00 0.0 
6.202197697875e+00 -2.990529259656e+02 0.0 
0.0 0.0 -1.275495974443e+02 
-7.289518253591e+01 1.083132679798e-01 0.0 
1.083132679798e-01 -1.641675923436e+02 0.0 
0.0 0.0 -7.071883246386e+01 
-1.374477093232e+02 2.406982528029e+00 0.0 
2.406982528029e+00 -3.184893859628e+02 0.0 
0.0 0.0 -1.363811285858e+02 
-1.472800534260e+02 7.693821163549e-01 0.0 
7.693821163549e-01 -3.438628241168e+02 0.0 
0.0 0.0 -1.469428632628e+02 
-1.478440438150e+02 1.685950815802e-01 0.0 
1.685950815802e-01 -3.463027689017e+02 0.0 
0.0 0.0 -1.478440438150e+02 
-2.771628744783e+00 3.467890690338e-01 0.0 
3.467890690338e-01 -6.610214311190e+00 0.0 
0.0 0.0 -2.414552916792e+00 
-5.075157137203e+00 -2.839877256985e-01 0.0 
-2.839877256985e-01 -1.041765129058e+01 0.0 
0.0 0.0 -4.884349078496e+00 
-7.368232679489e+01 6.759897041343e-01 0.0 
6.759897041343e-01 -1.666091724125e+02 0.0 
0.0 0.0 -7.168744976221e+01 
-7.228126751826e+01 -1.068167239282e-01 0.0 
-1.068167239282e-01 -1.640961995488e+02 0.0 
0.0 0.0 -7.051324012011e+01 
-1.638321434224e+02 2.570781237747e-01 0.0 
2.570781237747e-01 -3.836083346523e+02 0.0 
0.0 0.0 -1.638321434224e+02 
-1.619160446297e+02 -6.775502396319e-01 0.0 
-6.775502396319e-01 -3.808512916279e+02 0.0 
0.0 0.0 -1.624302008773e+02 
-9.478140052565e+00 -6.554753308216e-01 0.0 
-6.554753308216e-01 -2.295782588954e+01 0.0 
0.0 0.0 -9.330789782631e+00 
-9.150135063357e+00 -3.228358535978e-01 0.0 
-3.228358535978e-01 -8.218473039875e+00 0.0 
0.0 0.0 -5.711008778175e+00 
-1.477709430255e+02 1.062131078982e+00 0.0 
1.062131078982e+00 -3.511348250829e+02 0.0 
0.0 0.0 -1.492717304325e+02 
-1.395236633094e+02 6.209084354842e+00 0.0 
6.209084354842e+00 -3.250718313669e+02 0.0 
0.0 0.0 -1.389786484029e+02 
-2.972378439896e+01 4.616416142305e-02 0.0 
4.616416142305e-02 -7.391059879034e+01 0.0 
0.0 0.0 -3.069031495679e+01 
-1.491223226302e+02 3.436380763903e+00 0.0 
3.436380763903e+00 -3.537801833497e+02 0.0 
0.0 0.0 -1.504707517940e+02 
-1.026722733701e+02 2.918684138703e-01 0.0 
2.918684138703e-01 -2.523297920635e+02 0.0 
0.0 0.0 -1.061006196301e+02 
-8.748119612254e+01 8.015685673761e-01 0.0 
8.015685673761e-01 -2.179393767095e+02 0.0 
0.0 0.0 -9.122617184961e+01 
-1.012551021324e+02 -1.540006835672e-01 0.0 
-1.540006835672e-01 -2.320508703448e+02 0.0 
0.0 0.0 -9.959179174317e+01 
-2.691629429458e+01 -7.986311145946e-01 0.0 
-7.986311145946e-01 -6.905317907966e+01 0.0 
0.0 0.0 -2.839084201227e+01 
-1.151118027977e+02 7.609026909275e+00 0.0 
7.609026909275e+00 -2.686887297138e+02 0.0 
0.0 0.0 -1.147401597534e+02 
-2.399090212958e+01 -5.902829187595e-01 0.0 
-5.902829187595e-01 -5.928607666140e+01 0.0 
0.0 0.0 -2.458309363729e+01 
-7.955135846140e+01 8.296800712717e-01 0.0 
8.296800712717e-01 -1.982896939918e+02 0.0 
0.0 0.0 -8.295231573596e+01 
-1.394484635726e+02 4.761486067731e+00 0.0 
4.761486067731e+00 -3.225777641035e+02 0.0 
0.0 0.0 -1.382078683028e+02 
-1.311503529201e+02 8.758648414176e-01 0.0 
8.758648414176e-01 -3.044266220122e+02 0.0 
0.0 0.0 -1.302730924797e+02 
-8.765884063863e+01 -3.696404126575e-01 0.0 
-3.696404126575e-01 -2.170782269420e+02 0.0 
0.0 0.0 -9.102112027418e+01 
-9.276021373453e+01 8.349426785589e-01 0.0 
8.349426785589e-01 -2.116816700840e+02 0.0 
0.0 0.0 -9.093256514557e+01 
-1.404048553578e+02 6.615840073726e+00 0.0 
6.615840073726e+00 -3.256546521066e+02 0.0 
0.0 0.0 -1.394178522393e+02 
-1.297385373189e+02 6.040259965766e+00 0.0 
6.040259965766e+00 -2.960126715181e+02 0.0 
0.0 0.0 -1.273253626511e+02 
-1.219519805613e+02 5.676964974739e+00 0.0 
5.676964974739e+00 -2.765259876510e+02 0.0 
0.0 0.0 -1.191433904637e+02 
-7.320542373162e+01 1.114662607438e-02 0.0 
1.114662607438e-02 -1.648162679980e+02 0.0 
0.0 0.0 -7.100650751888e+01 
-1.106813304960e+02 7.642246743926e+00 0.0 
7.642246743926e+00 -2.600518102960e+02 0.0 
0.0 0.0 -1.108199422376e+02 
-1.366691796051e+02 3.075412004109e+00 0.0 
3.075412004109e+00 -3.165475274975e+02 0.0 
0.0 0.0 -1.355650121308e+02 
-4.487689980061e+01 -6.188505360348e-01 0.0 
-6.188505360348e-01 -1.141126561656e+02 0.0 
0.0 0.0 -4.729686678986e+01 
-1.233387907154e+01 -4.278733289930e-01 0.0 
-4.278733289930e-01 -2.504679956018e+01 0.0 
0.0 0.0 -1.081420358952e+01 
-1.354312126456e+02 7.026173673881e+00 0.0 
7.026173673881e+00 -3.127491206744e+02 0.0 
0.0 0.0 -1.340540999960e+02 
-1.297749830765e+02 5.533276219784e+00 0.0 
5.533276219784e+00 -3.101646902324e+02 0.0 
0.0 0.0 -1.315819019927e+02 
-2.266515966669e+01 -3.644257085628e-01 0.0 
-3.644257085628e-01 -5.758858238628e+01 0.0 
0.0 0.0 -2.367612261589e+01 
-1.072032027264e+02 8.056868280146e-01 0.0 
8.056868280146e-01 -2.461153188158e+02 0.0 
0.0 0.0 -1.055955564627e+02 
-1.550349855722e+02 1.781607308306e+00 0.0 
1.781607308306e+00 -3.657683221020e+02 0.0 
0.0 0.0 -1.558409923022e+02 
-1.347884066597e+02 6.220750094935e+00 0.0 
6.220750094935e+00 -3.132744326961e+02 0.0 
0.0 0.0 -1.340188518068e+02 
-1.406818224736e+02 7.289898227018e+00 0.0 
7.289898227018e+00 -3.265989373101e+02 0.0 
0.0 0.0 -1.397842279351e+02 
-1.115286050743e+02 9.713451870880e-01 0.0 
9.713451870880e-01 -2.724926023652e+02 0.0 
0.0 0.0 -1.148063622319e+02 
-9.396555222221e+00 2.590934451782e+00 0.0 
2.590934451782e+00 -2.216687505497e+01 0.0 
0.0 0.0 -9.345820132378e+00 
-2.349033528565e+01 1.136948878348e+00 0.0 
1.136948878348e+00 -4.792454236068e+01 0.0 
0.0 0.0 -2.102446329390e+01 
-3.571820902133e+01 7.259199898203e+00 0.0 
7.259199898203e+00 -7.221763634115e+01 0.0 
0.0 0.0 -3.198075360874e+01 
-8.965550549624e+01 8.576246949426e-01 0.0 
8.576246949426e-01 -1.996072705173e+02 0.0 
0.0 0.0 -8.637883280405e+01 
-1.106451746000e+02 5.843311452905e+00 0.0 
5.843311452905e+00 -2.597263262183e+02 0.0 
0.0 0.0 -1.107114502455e+02 
-1.364468708254e+02 1.726286815031e+00 0.0 
1.726286815031e+00 -3.172694144634e+02 0.0 
0.0 0.0 -1.357148855866e+02 
-1.501085225247e+02 6.742113652723e+00 0.0 
6.742113652723e+00 -3.534484947566e+02 0.0 
0.0 0.0 -1.506671051844e+02 
-1.875711443135e+01 -7.026194024448e-01 0.0 
-7.026194024448e-01 -4.160055094057e+01 0.0 
0.0 0.0 -1.770729961158e+01 
-1.780029333768e+01 -1.118028352953e+00 0.0 
-1.118028352953e+00 -4.026311748553e+01 0.0 
0.0 0.0 -1.701902324696e+01 
-1.506205456730e+01 1.280652598617e+00 0.0 
1.280652598617e+00 -3.036430243561e+01 0.0 
0.0 0.0 -1.322790710087e+01 
-1.096828558921e+02 -8.077524794472e-01 0.0 
-8.077524794472e-01 -2.517978357149e+02 0.0 
0.0 0.0 -1.080442074821e+02 
-5.527851765062e+01 4.621296844601e-01 0.0 
4.621296844601e-01 -1.396730775737e+02 0.0 
0.0 0.0 -5.808547856730e+01 
-1.381567326762e+02 3.174649078452e+00 0.0 
3.174649078452e+00 -3.198552930038e+02 0.0 
0.0 0.0 -1.370036077040e+02 
-2.838747041838e+01 3.474013126688e-01 0.0 
3.474013126688e-01 -7.085119562082e+01 0.0 
0.0 0.0 -2.937159981176e+01 
-1.421467854608e+02 6.371028684323e+00 0.0 
6.371028684323e+00 -3.363014048777e+02 0.0 
0.0 0.0 -1.431344571015e+02 
-8.776384971204e+01 -2.600825052771e-01 0.0 
-2.600825052771e-01 -1.976477714195e+02 0.0 
0.0 0.0 -8.522348633948e+01 
-1.488288415174e+02 7.543049340551e+00 0.0 
7.543049340551e+00 -3.478609212881e+02 0.0 
0.0 0.0 -1.486069288416e+02 
-1.278276423945e+02 7.898081135826e+00 0.0 
7.898081135826e+00 -2.972279569040e+02 0.0 
0.0 0.0 -1.271166797896e+02 
-9.004360419699e+01 1.531648628541e+00 0.0 
1.531648628541e+00 -1.998321413118e+02 0.0 
0.0 0.0 -8.656272365265e+01 
-1.524188211412e+02 5.588973148363e+00 0.0 
5.588973148363e+00 -3.614295083660e+02 0.0 
0.0 0.0 -1.537544988522e+02 
-1.429530112915e+02 2.569163718489e+00 0.0 
2.569163718489e+00 -3.320322966757e+02 0.0 
0.0 0.0 -1.420955923902e+02 
-1.418738996369e+02 -6.581679499809e-07 0.0 
-6.581679499809e-07 -3.301009181401e+02 0.0 
0.0 0.0 -1.411924453331e+02 
-6.352795260314e+00 2.667874283888e+00 0.0 
2.667874283888e+00 -1.353053616898e+01 0.0 
0.0 0.0 -5.564999428787e+00 
-1.346352156671e+02 1.482650890324e+00 0.0 
1.482650890324e+00 -3.119190739473e+02 0.0 
0.0 0.0 -1.335662868843e+02 
-1.454803303146e+02 6.492073123035e+00 0.0 
6.492073123035e+00 -3.390442418370e+02 0.0 
0.0 0.0 -1.449573716455e+02 
-1.422679519450e+02 7.388631919465e+00 0.0 
7.388631919465e+00 -3.369565612762e+02 0.0 
0.0 0.0 -1.433673539664e+02 
-1.311080509751e+02 6.050328087815e+00 0.0 
6.050328087815e+00 -3.066604323066e+02 0.0 
0.0 0.0 -1.309305449845e+02 
-1.627029664721e+02 3.509449175928e+00 0.0 
3.509449175928e+00 -3.809735884350e+02 0.0 
0.0 0.0 -1.627029664721e+02 
-1.210695788484e+02 3.725821238159e+00 0.0 
3.725821238159e+00 -2.757692293249e+02 0.0 
0.0 0.0 -1.186516424520e+02 
-8.427546526522e+00 1.917845063139e+00 0.0 
1.917845063139e+00 -8.633228567552e+00 0.0 
0.0 0.0 -5.669975428748e+00 
-1.867294200744e+01 8.833493520096e+00 0.0 
8.833493520096e+00 -4.668542896775e+01 0.0 
0.0 0.0 -1.920751129256e+01 
-1.335813591480e+02 5.803346642893e+00 0.0 
5.803346642893e+00 -3.063414081192e+02 0.0 
0.0 0.0 -1.315768301802e+02 
-9.545413010591e+01 4.834779473324e-01 0.0 
4.834779473324e-01 -2.142505784562e+02 0.0 
0.0 0.0 -9.251141256862e+01 
-1.476887178211e+02 1.666248148400e+00 0.0 
1.666248148400e+00 -3.506956253664e+02 0.0 
0.0 0.0 -1.491153029563e+02 
-1.360032458488e+02 8.043102815892e+00 0.0 
8.043102815892e+00 -3.164942046307e+02 0.0 
0.0 0.0 -1.353492351439e+02 
-1.558227687411e+02 3.303691310022e+00 0.0 
3.303691310022e+00 -3.669998759347e+02 0.0 
0.0 0.0 -1.564467934027e+02 
-1.183703038109e+02 -5.444687806122e-01 0.0 
-5.444687806122e-01 -2.724793976761e+02 0.0 
0.0 0.0 -1.168549104461e+02 
-1.492899529045e+02 7.589276026135e+00 0.0 
7.589276026135e+00 -3.497744346582e+02 0.0 
0.0 0.0 -1.493193162688e+02 
-1.470961088563e+02 5.381907852481e+00 0.0 
5.381907852481e+00 -3.493487816488e+02 0.0 
0.0 0.0 -1.485334671515e+02 
-1.466718025777e+02 4.144097839285e+00 0.0 
4.144097839285e+00 -3.490069493703e+02 0.0 
0.0 0.0 -1.483036255844e+02 
-5.752479172408e+01 2.643083179159e-01 0.0 
2.643083179159e-01 -1.450231483676e+02 0.0 
0.0 0.0 -6.036438202751e+01 
-1.622949806813e+02 3.124343248722e+00 0.0 
3.124343248722e+00 -3.817396145271e+02 0.0 
0.0 0.0 -1.628103785625e+02 
-8.129431112151e+01 4.141064503342e-01 0.0 
4.141064503342e-01 -1.813003106579e+02 0.0 
0.0 0.0 -7.837838653381e+01 
-1.345127341554e+02 1.320594126731e+00 0.0 
1.320594126731e+00 -3.120607054368e+02 0.0 
0.0 0.0 -1.335720318777e+02 
-1.720873655403e+01 -6.600225582134e-01 0.0 
-6.600225582134e-01 -4.116966833815e+01 0.0 
0.0 0.0 -1.711352146765e+01 
-1.286811703312e+02 7.694468298458e-01 0.0 
7.694468298458e-01 -2.973972985282e+02 0.0 
0.0 0.0 -1.274235406578e+02 
-1.081420818441e+02 3.670857432938e-01 0.0 
3.670857432938e-01 -2.478953409495e+02 0.0 
0.0 0.0 -1.064112268381e+02 
-1.673078259760e+01 2.245686061846e-01 0.0 
2.245686061846e-01 -4.191243692958e+01 0.0 
0.0 0.0 -1.719296585816e+01 
-2.670615166454e+01 1.683898238625e+00 0.0 
1.683898238625e+00 -7.168722995758e+01 0.0 
0.0 0.0 -2.911801448664e+01 
-1.248114429419e+02 4.155044558640e+00 0.0 
4.155044558640e+00 -2.854148954009e+02 0.0 
0.0 0.0 -1.226679015028e+02 
-1.412311941538e+02 1.579203768256e+00 0.0 
1.579203768256e+00 -3.295916124308e+02 0.0 
0.0 0.0 -1.408468419754e+02 
-1.352709731998e+02 9.616633747395e-01 0.0 
9.616633747395e-01 -3.146955425537e+02 0.0 
0.0 0.0 -1.345899547260e+02 
-1.477259150761e+02 6.765068968825e+00 0.0 
6.765068968825e+00 -3.471007035422e+02 0.0 
0.0 0.0 -1.480479855855e+02 
-9.271737093828e+01 -7.227936303721e-01 0.0 
-7.227936303721e-01 -2.112494440377e+02 0.0 
0.0 0.0 -9.079004449280e+01 
-1.152657835626e+01 -6.052006419493e-01 0.0 
-6.052006419493e-01 -2.456757105998e+01 0.0 
0.0 0.0 -1.042824482487e+01 
-1.470969356729e+01 1.749615346584e+00 0.0 
1.749615346584e+00 -3.596344568435e+01 0.0 
0.0 0.0 -1.480194177549e+01 
-1.188002905982e+01 -1.278894774502e+00 0.0 
-1.278894774502e+00 -2.802657480912e+01 0.0 
0.0 0.0 -1.156339601781e+01 
-2.265945262309e+01 -3.366156028680e-01 0.0 
-3.366156028680e-01 -5.444912258847e+01 0.0 
0.0 0.0 -2.273257256347e+01 
-9.219388933456e+00 5.058820295098e+00 0.0 
5.058820295098e+00 -6.923524781369e+00 0.0 
0.0 0.0 -4.638495913758e+00 
-7.753989503362e+01 -4.173400466504e-01 0.0 
-4.173400466504e-01 -1.933815665770e+02 0.0 
0.0 0.0 -8.087643848318e+01 
-1.475683137902e+02 1.866599392260e-01 0.0 
1.866599392260e-01 -3.505990966476e+02 0.0 
0.0 0.0 -1.490502231313e+02 
-1.372265379242e+02 3.479133566756e+00 0.0 
3.479133566756e+00 -3.169891369755e+02 0.0 
0.0 0.0 -1.358647024699e+02 
-9.619380071650e+01 2.351434862995e+00 0.0 
2.351434862995e+00 -2.139218969936e+02 0.0 
0.0 0.0 -9.263470931303e+01 
-6.727652076399e+01 9.995387111240e-01 0.0 
9.995387111240e-01 -1.694157346839e+02 0.0 
0.0 0.0 -7.060767663438e+01 
-1.462739347126e+02 4.601618399683e+00 0.0 
4.601618399683e+00 -3.481393153990e+02 0.0 
0.0 0.0 -1.479239750335e+02 
-1.425621292236e+02 5.054069716159e+00 0.0 
5.054069716159e+00 -3.399486661629e+02 0.0 
0.0 0.0 -1.443532386159e+02 
-1.485440481104e+02 7.562886583624e+00 0.0 
7.562886583624e+00 -3.477592520118e+02 0.0 
0.0 0.0 -1.484909900367e+02 
-1.403050301805e+02 6.647805668913e+00 0.0 
6.647805668913e+00 -3.257345560771e+02 0.0 
0.0 0.0 -1.394118758773e+02 
-1.323150031788e+02 4.586762290684e+00 0.0 
4.586762290684e+00 -3.044586446643e+02 0.0 
0.0 0.0 -1.306320943529e+02 
-1.669783866015e+01 -1.112280573682e+00 0.0 
-1.112280573682e+00 -4.047485013465e+01 0.0 
0.0 0.0 -1.675180663844e+01 
-1.741445455643e+01 3.297516183199e-01 0.0 
3.297516183199e-01 -3.616870520540e+01 0.0 
0.0 0.0 -1.567494792855e+01 
-1.478405483828e+02 2.155003483794e+00 0.0 
2.155003483794e+00 -3.516730813840e+02 0.0 
0.0 0.0 -1.494540889301e+02 
-1.592384720048e+01 -2.596831504627e-01 0.0 
-2.596831504627e-01 -4.120961660652e+01 0.0 
0.0 0.0 -1.674003914210e+01 
-1.921334512577e+01 -1.089934494978e+00 0.0 
-1.089934494978e+00 -4.901826647066e+01 0.0 
0.0 0.0 -2.006948347893e+01 
-1.018481572115e+01 6.085536757441e+00 0.0 
6.085536757441e+00 -2.515348033976e+01 0.0 
0.0 0.0 -1.020148881827e+01 
-1.615192032291e+01 -7.766011741382e-02 0.0 
-7.766011741382e-02 -3.870182317834e+01 0.0 
0.0 0.0 -1.605612305037e+01 
-1.537685104255e+02 4.988891266473e+00 0.0 
4.988891266473e+00 -3.628127992332e+02 0.0 
0.0 0.0 -1.545743928976e+02 
-1.451271927266e+02 6.275930027873e+00 0.0 
6.275930027873e+00 -3.378125681109e+02 0.0 
0.0 0.0 -1.444819282513e+02 
-1.361392326636e+02 2.631511972602e-01 0.0 
2.631511972602e-01 -3.172582710752e+02 0.0 
0.0 0.0 -1.356192511216e+02 
-1.484622250903e+02 7.529622173006e+00 0.0 
7.529622173006e+00 -3.476805712312e+02 0.0 
0.0 0.0 -1.484428388964e+02 
-1.379715234025e+02 6.473569353186e+00 0.0 
6.473569353186e+00 -3.291278626706e+02 0.0 
0.0 0.0 -1.397298158219e+02 
-9.757657009795e+01 -7.871589163417e-01 0.0 
-7.871589163417e-01 -2.224842700222e+02 0.0 
0.0 0.0 -9.561825203604e+01 
-1.483114953881e+02 2.080543782898e+00 0.0 
2.080543782898e+00 -3.473934892390e+02 0.0 
0.0 0.0 -1.483114953881e+02 
-3.448548362560e+01 7.040702343245e-01 0.0 
7.040702343245e-01 -9.027012832885e+01 0.0 
0.0 0.0 -3.702668358634e+01 
-7.330073531877e+01 6.377531164103e-02 0.0 
6.377531164103e-02 -1.639655147847e+02 0.0 
0.0 0.0 -7.077987503103e+01 
-2.326080630962e+01 -9.624528247215e-01 0.0 
-9.624528247215e-01 -5.571260246486e+01 0.0 
0.0 0.0 -2.329202263234e+01 
-1.037550624286e+01 -5.375155859346e-01 0.0 
-5.375155859346e-01 -2.438076763960e+01 0.0 
0.0 0.0 -1.057374204522e+01 
-1.624136612558e+02 1.951976181059e+00 0.0 
1.951976181059e+00 -3.820823523464e+02 0.0 
0.0 0.0 -1.629488040807e+02 
-8.316578526907e+01 1.149790609603e+00 0.0 
1.149790609603e+00 -1.842197295984e+02 0.0 
0.0 0.0 -7.981565446025e+01 
-2.309660186488e+01 -4.497531798627e-01 0.0 
-4.497531798627e-01 -5.704764448316e+01 0.0 
0.0 0.0 -2.364327390441e+01 
-7.397844082468e+01 -8.978626794348e-01 0.0 
-8.978626794348e-01 -1.860256362202e+02 0.0 
0.0 0.0 -7.760122311345e+01 
-1.461784378726e+02 5.943257352366e+00 0.0 
5.943257352366e+00 -3.385746611338e+02 0.0 
0.0 0.0 -1.450259297019e+02 
-1.360564243572e+02 2.102395596781e+00 0.0 
2.102395596781e+00 -3.158046276747e+02 0.0 
0.0 0.0 -1.351583156096e+02 
-1.425970395740e+02 3.283613661221e+00 0.0 
3.283613661221e+00 -3.323166101172e+02 0.0 
0.0 0.0 -1.420740949074e+02 
-5.263786315252e+01 3.867853671957e-01 0.0 
3.867853671957e-01 -1.324882715553e+02 0.0 
0.0 0.0 -5.513784041234e+01 
-1.580750655229e+01 1.119822277772e+00 0.0 
1.119822277772e+00 -3.667836776910e+01 0.0 
0.0 0.0 -1.534576229642e+01 
-1.541657249414e+02 3.927383417995e+00 0.0 
3.927383417995e+00 -3.655105313589e+02 0.0 
0.0 0.0 -1.555028768901e+02 
-1.486617853954e+02 1.058151284785e-01 0.0 
1.058151284785e-01 -3.464886939140e+02 0.0 
0.0 0.0 -1.481451437928e+02 
-1.625003680307e+02 5.191809526285e-01 0.0 
5.191809526285e-01 -3.829012977208e+02 0.0 
0.0 0.0 -1.632204997255e+02 
-7.871799825776e+01 -5.101890173521e-01 0.0 
-5.101890173521e-01 -1.785103347963e+02 0.0 
0.0 0.0 -7.676849991623e+01 
-1.446708883566e+02 6.024226531144e+00 0.0 
6.024226531144e+00 -3.427442319058e+02 0.0 
0.0 0.0 -1.458245360787e+02 
-2.330891655012e+01 -6.555410530214e-02 0.0 
-6.555410530214e-02 -5.828435649924e+01 0.0 
0.0 0.0 -2.407798191481e+01 
-1.376737463344e+02 1.829728535595e+00 0.0 
1.829728535595e+00 -3.198041952714e+02 0.0 
0.0 0.0 -1.368433824817e+02 
-1.028259299427e+01 -3.965814150180e-01 0.0 
-3.965814150180e-01 -2.342099942955e+01 0.0 
0.0 0.0 -1.021883547468e+01 
-1.531995098728e+02 5.811053942682e+00 0.0 
5.811053942682e+00 -3.613897121063e+02 0.0 
0.0 0.0 -1.539767665937e+02 
-1.428836479061e+02 3.081271352803e+00 0.0 
3.081271352803e+00 -3.315747489641e+02 0.0 
0.0 0.0 -1.419375190611e+02 
-1.050192611402e+01 1.131564672615e+00 0.0 
1.131564672615e+00 -2.308056479066e+01 0.0 
0.0 0.0 -1.018401880603e+01 
-1.353682862325e+02 7.512243383487e+00 0.0 
7.512243383487e+00 -3.141863966102e+02 0.0 
0.0 0.0 -1.344664048528e+02 
-1.143198981548e+02 1.045309729209e+00 0.0 
1.045309729209e+00 -2.625086555779e+02 0.0 
0.0 0.0 -1.126485661198e+02 
-1.417051225366e+02 1.235241059410e+00 0.0 
1.235241059410e+00 -3.307876031974e+02 0.0 
0.0 0.0 -1.413478177202e+02 
-1.577775667349e+02 7.925568516261e+00 0.0 
7.925568516261e+00 -3.694809890482e+02 0.0 
0.0 0.0 -1.577775667349e+02 
-1.028667821690e+02 1.284914702522e+00 0.0 
1.284914702522e+00 -2.358612916860e+02 0.0 
0.0 0.0 -1.012184221565e+02 
-1.450338915505e+02 5.564063335395e+00 0.0 
5.564063335395e+00 -3.377036947588e+02 0.0 
0.0 0.0 -1.444212758928e+02 
-1.381580623776e+02 3.757895286510e+00 0.0 
3.757895286510e+00 -3.194570583891e+02 0.0 
0.0 0.0 -1.368845362300e+02 
-1.076339084045e+02 1.645387490657e-01 0.0 
1.645387490657e-01 -2.474668543813e+02 0.0 
0.0 0.0 -1.061302288357e+02 
-1.405774829298e+02 5.566129860120e+00 0.0 
5.566129860120e+00 -3.252499738561e+02 0.0 
0.0 0.0 -1.393482370357e+02 
-6.338929670793e+01 3.714806330493e-01 0.0 
3.714806330493e-01 -1.588647104089e+02 0.0 
0.0 0.0 -6.627620213504e+01 
-7.252266468078e+01 1.160184922907e-01 0.0 
1.160184922907e-01 -1.640604528853e+02 0.0 
0.0 0.0 -7.057493526982e+01 
-1.428263476487e+02 6.823494512303e+00 0.0 
6.823494512303e+00 -3.342856087975e+02 0.0 
0.0 0.0 -1.427335869339e+02 
-1.423875210618e+02 -3.250588578455e-01 0.0 
-3.250588578455e-01 -3.320939858025e+02 0.0 
0.0 0.0 -1.419444520593e+02 
-4.270353894160e+00 1.296544023807e-01 0.0 
1.296544023807e-01 -8.564668308819e+00 0.0 
0.0 0.0 -4.375755484060e+00 
-7.250795058158e+01 -2.150754622466e-01 0.0 
-2.150754622466e-01 -1.642871597188e+02 0.0 
0.0 0.0 -7.063853309010e+01 
-1.569224005695e+02 7.861363633886e-01 0.0 
7.861363633886e-01 -3.700697216785e+02 0.0 
0.0 0.0 -1.576976366744e+02 
-2.898744786065e+01 -9.971648639508e-01 0.0 
-9.971648639508e-01 -7.296261362351e+01 0.0 
0.0 0.0 -3.018501844525e+01 
-1.427548891797e+02 6.649145001256e+00 0.0 
6.649145001256e+00 -3.398268269608e+02 0.0 
0.0 0.0 -1.443745148421e+02 
-1.381988650597e+02 4.287260390008e+00 0.0 
4.287260390008e+00 -3.179665925533e+02 0.0 
0.0 0.0 -1.364496372839e+02 
-1.415451253632e+02 1.630191146958e+00 0.0 
1.630191146958e+00 -3.296149223412e+02 0.0 
0.0 0.0 -1.409480143113e+02 
-2.801403731951e+01 -8.355389733856e-01 0.0 
-8.355389733856e-01 -7.017344062790e+01 0.0 
0.0 0.0 -2.905624338422e+01 
-1.574720326492e+01 6.102268245134e+00 0.0 
6.102268245134e+00 -4.241686516091e+01 0.0 
0.0 0.0 -1.704922052775e+01 
-9.096595420244e+01 -1.318476715247e+00 0.0 
-1.318476715247e+00 -2.264949096798e+02 0.0 
0.0 0.0 -9.483825916469e+01 
-1.223395689563e+02 -9.608805711741e-02 0.0 
-9.608805711741e-02 -2.835195531208e+02 0.0 
0.0 0.0 -1.213577366231e+02 
-1.121026800885e+01 -4.145587584716e-01 0.0 
-4.145587584716e-01 -5.967261613858e+00 0.0 
0.0 0.0 -4.753258886811e+00 
-1.426794676753e+02 2.782745259283e+00 0.0 
2.782745259283e+00 -3.327101260153e+02 0.0 
0.0 0.0 -1.422168781072e+02 
-1.003110882438e+02 -1.519864113848e-02 0.0 
-1.519864113848e-02 -2.299304323074e+02 0.0 
0.0 0.0 -9.867245616538e+01 
-2.775000883771e+01 -1.416210774631e-01 0.0 
-1.416210774631e-01 -6.929807136227e+01 0.0 
0.0 0.0 -2.871442405999e+01 
-9.446564618334e+01 -7.618503885906e-02 0.0 
-7.618503885906e-02 -2.161692373154e+02 0.0 
0.0 0.0 -9.279046504962e+01 
-1.480598173802e+02 8.300942316965e+00 0.0 
8.300942316965e+00 -3.454318448751e+02 0.0 
0.0 0.0 -1.476474986766e+02 
-9.584067142944e+01 1.196859299785e+00 0.0 
1.196859299785e+00 -2.371410451008e+02 0.0 
0.0 0.0 -9.949451495907e+01 
-9.355549668242e+00 5.015269271804e+00 0.0 
5.015269271804e+00 -1.044214907161e+01 0.0 
0.0 0.0 -5.513306946589e+00 
-5.669456376831e+01 -7.245447698143e-01 0.0 
-7.245447698143e-01 -1.442580954924e+02 0.0 
0.0 0.0 -5.988579777821e+01 
-8.347246463939e+01 -2.564984829620e-01 0.0 
-2.564984829620e-01 -2.081836211259e+02 0.0 
0.0 0.0 -8.709682572958e+01 
-1.001071926837e+02 -1.356517425387e+00 0.0 
-1.356517425387e+00 -2.462235071500e+02 0.0 
0.0 0.0 -1.034992099501e+02 
-1.435054068826e+02 8.072003401108e+00 0.0 
8.072003401108e+00 -3.363298857926e+02 0.0 
0.0 0.0 -1.435505878025e+02 
-8.108531472751e+01 7.227082255512e-01 0.0 
7.227082255512e-01 -2.029033322138e+02 0.0 
0.0 0.0 -8.479659408241e+01 
-8.675213258608e+01 -2.143124837207e-01 0.0 
-2.143124837207e-01 -2.154186818115e+02 0.0 
0.0 0.0 -9.025124431926e+01 
-1.517282915307e+01 -8.917277423234e-01 0.0 
-8.917277423234e-01 -3.700418380999e+01 0.0 
0.0 0.0 -1.525310388892e+01 
-1.487258144706e+02 2.452543167293e+00 0.0 
2.452543167293e+00 -3.539249511750e+02 0.0 
0.0 0.0 -1.503952296937e+02 
-1.349425526662e+02 5.688844880597e+00 0.0 
5.688844880597e+00 -3.127429053605e+02 0.0 
0.0 0.0 -1.339056374080e+02 
-1.873926222432e+01 6.304474646581e+00 0.0 
6.304474646581e+00 -5.403707386899e+01 0.0 
0.0 0.0 -2.143290082799e+01 
-1.422938809588e+02 4.992775113693e-01 0.0 
4.992775113693e-01 -3.315241061866e+02 0.0 
0.0 0.0 -1.417453961436e+02 
-1.567685261462e+02 -2.458704334079e-01 0.0 
-2.458704334079e-01 -3.695643285588e+02 0.0 
0.0 0.0 -1.574998564115e+02 
-7.912617363082e+01 6.324905898077e-01 0.0 
6.324905898077e-01 -1.795372155024e+02 0.0 
0.0 0.0 -7.719901673996e+01 
-1.003932392353e+02 -5.518674708754e-03 0.0 
-5.518674708754e-03 -2.299425250569e+02 0.0 
0.0 0.0 -9.870072928767e+01 
-8.130936806309e+01 -5.552633715359e-01 0.0 
-5.552633715359e-01 -2.027948684451e+02 0.0 
0.0 0.0 -8.483127095245e+01 
-8.418987521844e+01 5.249611617316e-01 0.0 
5.249611617316e-01 -2.090138166405e+02 0.0 
0.0 0.0 -8.756110755768e+01 
-8.648103595707e+01 2.323126154349e-01 0.0 
2.323126154349e-01 -2.157903194112e+02 0.0 
0.0 0.0 -9.028140661049e+01 
-1.374357790013e+02 5.883648549570e+00 0.0 
5.883648549570e+00 -3.270595751569e+02 0.0 
0.0 0.0 -1.389486062475e+02 
-2.223830245379e+01 -1.145786273507e+00 0.0 
-1.145786273507e+00 -5.637337292216e+01 0.0 
0.0 0.0 -2.318350261278e+01 
-1.401901042274e+02 7.161909195669e+00 0.0 
7.161909195669e+00 -3.240116987493e+02 0.0 
0.0 0.0 -1.388605408930e+02 
-8.623959605565e+01 -2.121987825959e-01 0.0 
-2.121987825959e-01 -1.963817545030e+02 0.0 
0.0 0.0 -8.438640516759e+01 
-1.428147910644e+02 3.114252571991e+00 0.0 
3.114252571991e+00 -3.314977140601e+02 0.0 
0.0 0.0 -1.418937515374e+02 
-1.376374855813e+02 6.892753358180e+00 0.0 
6.892753358180e+00 -3.269656554285e+02 0.0 
0.0 0.0 -1.389809423029e+02 
-9.524071383132e+01 4.484525067011e-01 0.0 
4.484525067011e-01 -2.168306790388e+02 0.0 
0.0 0.0 -9.322141786104e+01 
-1.353238931186e+02 4.800774916953e+00 0.0 
4.800774916953e+00 -3.123249601293e+02 0.0 
0.0 0.0 -1.338946559744e+02 
-1.426493177466e+02 6.827867915573e+00 0.0 
6.827867915573e+00 -3.353458543054e+02 0.0 
0.0 0.0 -1.429985516156e+02 
-1.487559758018e+02 8.060206295191e+00 0.0 
8.060206295191e+00 -3.489675002941e+02 0.0 
0.0 0.0 -1.489170428288e+02 
-8.960106994363e+00 4.630839963664e+00 0.0 
4.630839963664e+00 -1.805201728024e+01 0.0 
0.0 0.0 -7.917670143443e+00 
-1.359362050461e+02 5.974425504766e+00 0.0 
5.974425504766e+00 -3.127720763955e+02 0.0 
0.0 0.0 -1.342124844325e+02 
-1.399936662377e+02 5.073166867682e+00 0.0 
5.073166867682e+00 -3.235466737661e+02 0.0 
0.0 0.0 -1.386621020011e+02 
-1.614577671204e+01 6.425580229395e-02 0.0 
6.425580229395e-02 -3.813080324761e+01 0.0 
0.0 0.0 -1.588297398789e+01 
-7.720033444019e+01 4.871367150794e-01 0.0 
4.871367150794e-01 -1.929626128191e+02 0.0 
0.0 0.0 -8.064888417777e+01 
-1.133616269479e+01 3.873511352593e+00 0.0 
3.873511352593e+00 -1.842302135301e+01 0.0 
0.0 0.0 -8.527755214340e+00 
-1.406262969906e+02 5.964480544562e+00 0.0 
5.964480544562e+00 -3.241936652451e+02 0.0 
0.0 0.0 -1.390459886707e+02 
-6.887618368006e+00 4.591060378464e-01 0.0 
4.591060378464e-01 -1.150151483688e+01 0.0 
0.0 0.0 -5.116739961466e+00 
-5.770767280417e+00 -1.229540138678e-01 0.0 
-1.229540138678e-01 -9.770492376313e+00 0.0 
0.0 0.0 -4.262377897019e+00 
-6.069619280089e+00 1.127608348935e-01 0.0 
1.127608348935e-01 -9.872291524155e+00 0.0 
0.0 0.0 -4.382573241273e+00 
-5.764236137348e+00 1.909289144761e-02 0.0 
1.909289144761e-02 -9.691650844191e+00 0.0 
0.0 0.0 -4.236766094462e+00 
-5.960390384802e+00 2.848418575809e-02 0.0 
2.848418575809e-02 -9.773632998575e+00 0.0 
0.0 0.0 -4.320207015013e+00 
-5.809431305014e+00 -9.524109103164e-03 0.0 
-9.524109103164e-03 -9.716435420683e+00 0.0 
0.0 0.0 -4.257760017709e+00 
-5.889313588569e+00 -1.403812647412e-02 0.0 
-1.403812647412e-02 -9.751278459895e+00 0.0 
0.0 0.0 -4.292177614539e+00 
-5.783461522969e+00 -3.546539587236e-02 0.0 
-3.546539587236e-02 -9.729390288731e+00 0.0 
0.0 0.0 -4.253855543510e+00 
-5.812321055510e+00 -3.998116474304e-02 0.0 
-3.998116474304e-02 -9.742785510073e+00 0.0 
0.0 0.0 -4.266531969675e+00 
-5.705588044124e+00 -5.725131524412e-02 0.0 
-5.725131524412e-02 -9.733954602000e+00 0.0 
0.0 0.0 -4.231862793837e+00 
-5.721767700604e+00 -5.757934804413e-02 0.0 
-5.757934804413e-02 -9.740820650074e+00 0.0 
0.0 0.0 -4.238776505203e+00 
-5.588119199725e+00 -7.689609396257e-02 0.0 
-7.689609396257e-02 -9.733529523613e+00 0.0 
0.0 0.0 -4.196494617001e+00 
-5.615038665157e+00 -7.114500397701e-02 0.0 
-7.114500397701e-02 -9.742435832771e+00 0.0 
0.0 0.0 -4.207242349378e+00 
-5.437046595300e+00 -9.588199989742e-02 0.0 
-9.588199989742e-02 -9.729959607688e+00 0.0 
0.0 0.0 -4.150101860897e+00 
-5.490859902619e+00 -8.305118615061e-02 0.0 
-8.305118615061e-02 -9.746274339600e+00 0.0 
0.0 0.0 -4.171140272666e+00 
-5.254524417777e+00 -1.151927489863e-01 0.0 
-1.151927489863e-01 -9.724180776900e+00 0.0 
0.0 0.0 -4.093611558403e+00 
-5.348395992288e+00 -9.460594972316e-02 0.0 
-9.460594972316e-02 -9.751773422801e+00 0.0 
0.0 0.0 -4.130050824527e+00 
-5.040430974986e+00 -1.354667383546e-01 0.0 
-1.354667383546e-01 -9.716553458495e+00 0.0 
0.0 0.0 -4.027095330044e+00 
-5.187187829209e+00 -1.065517583322e-01 0.0 
-1.065517583322e-01 -9.758804156980e+00 0.0 
0.0 0.0 -4.083797595857e+00 
-4.793269858377e+00 -1.571486706596e-01 0.0 
-1.571486706596e-01 -9.707116569121e+00 0.0 
0.0 0.0 -3.950115928249e+00 
-2.053469258323e+00 1.852934260940e+00 0.0 
1.852934260940e+00 -1.161424141691e+01 0.0 
0.0 0.0 -3.700313202571e+00 
-5.007080492984e+00 -1.193439915447e-01 0.0 
-1.193439915447e-01 -9.767490861156e+00 0.0 
0.0 0.0 -4.032371406242e+00 
-4.510649748491e+00 -1.805505541123e-01 0.0 
-1.805505541123e-01 -9.695774067381e+00 0.0 
0.0 0.0 -3.861927144762e+00 
-4.808375052293e+00 -1.332113457843e-01 0.0 
-1.332113457843e-01 -9.778183628298e+00 0.0 
0.0 0.0 -3.975967604177e+00 
9.814904270616e-01 -3.299045239319e-01 0.0 
-3.299045239319e-01 -4.880038144206e+00 0.0 
0.0 0.0 -1.081636109770e-01 
-4.189706851532e+00 -2.056330648056e-01 0.0 
-2.056330648056e-01 -9.682875516009e+00 0.0 
0.0 0.0 -3.761774710262e+00 
-4.591436871820e+00 -1.475862453552e-01 0.0 
-1.475862453552e-01 -9.791381802986e+00 0.0 
0.0 0.0 -3.914845602442e+00 
-6.180094621417e+00 7.915056093432e-01 0.0 
7.915056093432e-01 -1.074128064698e+01 0.0 
0.0 0.0 -4.676412580518e+00 
-3.828351857045e+00 -2.317051194695e-01 0.0 
-2.317051194695e-01 -9.667974005356e+00 0.0 
0.0 0.0 -3.648897758720e+00 
-4.358468914175e+00 -1.621064754423e-01 0.0 
-1.621064754423e-01 -9.807539583832e+00 0.0 
0.0 0.0 -3.849802549402e+00 
-3.425664010855e+00 -2.578362143873e-01 0.0 
-2.578362143873e-01 -9.651576805328e+00 0.0 
0.0 0.0 -3.523172244855e+00 
-4.113214095383e+00 -1.752116568077e-01 0.0 
-1.752116568077e-01 -9.827195706617e+00 0.0 
0.0 0.0 -3.782122940600e+00 
-2.983278461120e+00 -2.830196347170e-01 0.0 
-2.830196347170e-01 -9.630946206437e+00 0.0 
0.0 0.0 -3.384267400267e+00 
-3.864779815462e+00 -1.882779073592e-01 0.0 
-1.882779073592e-01 -9.850912407848e+00 0.0 
0.0 0.0 -3.714707666993e+00 
-2.502592936345e+00 -3.061627743570e-01 0.0 
-3.061627743570e-01 -9.610938853007e+00 0.0 
0.0 0.0 -3.234059536805e+00 
-3.618590022472e+00 -1.960360835205e-01 0.0 
-1.960360835205e-01 -9.879377276360e+00 0.0 
0.0 0.0 -3.649390189650e+00 
-1.991505217314e+00 -3.257235570975e-01 0.0 
-3.257235570975e-01 -9.580652130138e+00 0.0 
0.0 0.0 -3.071647204235e+00 
-8.539065203188e+00 3.328243680059e+00 0.0 
3.328243680059e+00 -1.238358257930e+01 0.0 
0.0 0.0 -5.876794334745e+00 
-3.397785678093e+00 -2.061254719059e-01 0.0 
-2.061254719059e-01 -9.913656521932e+00 0.0 
0.0 0.0 -3.593432660008e+00 
-1.452574749508e+00 -3.388097008885e-01 0.0 
-3.388097008885e-01 -9.562150814626e+00 0.0 
0.0 0.0 -2.904417669240e+00 
-3.200137011295e+00 -1.984005978696e-01 0.0 
-1.984005978696e-01 -9.953613485254e+00 0.0 
0.0 0.0 -3.546125148964e+00 
-9.102408897849e-01 -3.451105042166e-01 0.0 
-3.451105042166e-01 -9.509354679705e+00 0.0 
0.0 0.0 -2.725878670847e+00 
-3.607501944572e-01 -3.303723299511e-01 0.0 
-3.303723299511e-01 -9.521323122918e+00 0.0 
0.0 0.0 -2.564621995213e+00 
-3.100137621816e+00 -2.076894331940e-01 0.0 
-2.076894331940e-01 -1.000429901430e+01 0.0 
0.0 0.0 -3.531330990835e+00 
1.104938604150e-01 -3.030713988824e-01 0.0 
-3.030713988824e-01 -9.410637876633e+00 0.0 
0.0 0.0 -2.390043204865e+00 
-3.027278246721e+00 -1.489328989964e-01 0.0 
-1.489328989964e-01 -1.005734506506e+01 0.0 
0.0 0.0 -3.525386993534e+00 
5.303429280959e-01 -1.956605386212e-01 0.0 
-1.956605386212e-01 -9.560763923451e+00 0.0 
0.0 0.0 -2.309126298607e+00 
-3.267903989430e+00 -1.615650424695e-01 0.0 
-1.615650424695e-01 -1.013860114105e+01 0.0 
0.0 0.0 -3.621951539144e+00 
6.039924765558e-01 -8.516557549207e-02 0.0 
-8.516557549207e-02 -9.269660177676e+00 0.0 
0.0 0.0 -2.199700310336e+00 
4.607765510780e-01 3.435343286575e-01 0.0 
3.435343286575e-01 -9.969001149270e+00 0.0 
0.0 0.0 -2.452467379458e+00 
-3.421321549725e+00 7.624221395604e-02 0.0 
7.624221395604e-02 -1.019042627524e+01 0.0 
0.0 0.0 -3.683524347490e+00 
-4.568223651337e+00 2.438247101262e-02 0.0 
2.438247101262e-02 -1.033758590800e+01 0.0 
0.0 0.0 -4.071742867801e+00 
-2.922867194137e+00 3.393803247009e-01 0.0 
3.393803247009e-01 -1.698700941437e+00 0.0 
0.0 0.0 -9.864704406723e-01 
-7.040346126136e+00 1.496252291422e+00 0.0 
1.496252291422e+00 -9.462189029537e+00 0.0 
0.0 0.0 -4.550760546702e+00 
-6.695297743695e+00 -1.302439200884e+00 0.0 
-1.302439200884e+00 -1.151595332495e+01 0.0 
0.0 0.0 -5.063375320594e+00 
-5.001066149175e+00 2.360053759457e-01 0.0 
2.360053759457e-01 -5.304259588641e+00 0.0 
0.0 0.0 -2.691597721345e+00 
-8.656990157188e+00 -8.564308110238e-02 0.0 
-8.564308110238e-02 -1.553712917031e+01 0.0 
0.0 0.0 -6.858235798248e+00 
-4.642561289899e+00 3.448994666811e+00 0.0 
3.448994666811e+00 -7.018022707956e+00 0.0 
0.0 0.0 -3.098175199357e+00 
-1.381803371785e+01 2.315519703716e-01 0.0 
2.315519703716e-01 -2.767248398653e+01 0.0 
0.0 0.0 -1.204715531131e+01 
-1.454379747389e+01 -2.630411324313e-01 0.0 
-2.630411324313e-01 -2.932678668204e+01 0.0 
0.0 0.0 -1.276117524678e+01 
-1.439224496261e+01 7.355046871672e-03 0.0 
7.355046871672e-03 -2.929175145003e+01 0.0 
0.0 0.0 -1.270519892379e+01 
-1.455528366541e+01 -5.885262961495e-02 0.0 
-5.885262961495e-02 -2.945860191253e+01 0.0 
0.0 0.0 -1.280416567338e+01 
-1.436375976142e+01 -3.187319643733e-02 0.0 
-3.187319643733e-02 -2.938149487736e+01 0.0 
0.0 0.0 -1.272357639163e+01 
-1.451300075949e+01 -8.020720119968e-02 0.0 
-8.020720119968e-02 -2.948273636181e+01 0.0 
0.0 0.0 -1.279872113639e+01 
-1.430963942676e+01 -7.049893221493e-02 0.0 
-7.049893221493e-02 -2.939870541567e+01 0.0 
0.0 0.0 -1.271250345273e+01 
-1.446522290378e+01 -1.188598032169e-01 0.0 
-1.188598032169e-01 -2.949789940275e+01 0.0 
0.0 0.0 -1.278893669196e+01 
-1.423944106946e+01 -1.071892928776e-01 0.0 
-1.071892928776e-01 -2.940606554262e+01 0.0 
0.0 0.0 -1.269365198363e+01 
-1.441181072282e+01 -1.587353533386e-01 0.0 
-1.587353533386e-01 -2.951028548338e+01 0.0 
0.0 0.0 -1.277662886186e+01 
-1.415011858787e+01 -1.406978563975e-01 0.0 
-1.406978563975e-01 -2.940697272036e+01 0.0 
0.0 0.0 -1.266712739247e+01 
-1.435102764799e+01 -1.980098383613e-01 0.0 
-1.980098383613e-01 -2.952088302331e+01 0.0 
0.0 0.0 -1.276157320139e+01 
-1.404086009967e+01 -1.719342192288e-01 0.0 
-1.719342192288e-01 -2.940268584664e+01 0.0 
0.0 0.0 -1.263306378389e+01 
-1.428212442242e+01 -2.372719945752e-01 0.0 
-2.372719945752e-01 -2.953053483165e+01 0.0 
0.0 0.0 -1.274379777622e+01 
-1.391152934790e+01 -2.022300352794e-01 0.0 
-2.022300352794e-01 -2.939450304526e+01 0.0 
0.0 0.0 -1.259180971795e+01 
-1.420420311247e+01 -2.773311920600e-01 0.0 
-2.773311920600e-01 -2.953982976035e+01 0.0 
0.0 0.0 -1.272320986185e+01 
-1.376209211003e+01 -2.325638038859e-01 0.0 
-2.325638038859e-01 -2.938373103086e+01 0.0 
0.0 0.0 -1.254374694226e+01 
-1.411710166923e+01 -3.186273642335e-01 0.0 
-3.186273642335e-01 -2.954913406858e+01 0.0 
0.0 0.0 -1.269987072134e+01 
-1.359247173514e+01 -2.635544592974e-01 0.0 
-2.635544592974e-01 -2.937113327081e+01 0.0 
0.0 0.0 -1.248908150178e+01 
-1.386491028774e+01 2.041375003215e+00 0.0 
2.041375003215e+00 -3.164120235254e+01 0.0 
0.0 0.0 -1.325183379209e+01 
-1.402127323951e+01 -3.613907306083e-01 0.0 
-3.613907306083e-01 -2.955870756753e+01 0.0 
0.0 0.0 -1.267399424211e+01 
-1.340272115112e+01 -2.953939346831e-01 0.0 
-2.953939346831e-01 -2.935731906347e+01 0.0 
0.0 0.0 -1.242801206438e+01 
-1.391851407448e+01 -4.055448344023e-01 0.0 
-4.055448344023e-01 -2.956892076791e+01 0.0 
0.0 0.0 -1.264623045272e+01 
-1.585387337949e+01 8.408467846004e-01 0.0 
8.408467846004e-01 -3.037084101990e+01 0.0 
0.0 0.0 -1.346741431982e+01 
-1.319317887081e+01 -3.278941545977e-01 0.0 
-3.278941545977e-01 -2.934272587151e+01 0.0 
0.0 0.0 -1.236077142270e+01 
-1.381193575138e+01 -4.509447285750e-01 0.0 
-4.509447285750e-01 -2.958097039548e+01 0.0 
0.0 0.0 -1.261787184406e+01 
-1.296478930993e+01 -3.598136750198e-01 0.0 
-3.598136750198e-01 -2.932920415858e+01 0.0 
0.0 0.0 -1.228819804055e+01 
-1.370091661320e+01 -4.949203832229e-01 0.0 
-4.949203832229e-01 -2.959435262457e+01 0.0 
0.0 0.0 -1.258858077133e+01 
-1.272014971911e+01 -3.888481570510e-01 0.0 
-3.888481570510e-01 -2.931812812869e+01 0.0 
0.0 0.0 -1.221148335434e+01 
-1.090852618706e+01 7.807077988978e-01 0.0 
7.807077988978e-01 -2.513162515801e+01 0.0 
0.0 0.0 -1.041204540352e+01 
-1.359315716185e+01 -5.348816717275e-01 0.0 
-5.348816717275e-01 -2.961063036843e+01 0.0 
0.0 0.0 -1.256113625908e+01 
-1.246354421050e+01 -4.117669262812e-01 0.0 
-4.117669262812e-01 -2.931129930855e+01 0.0 
0.0 0.0 -1.213245305571e+01 
-1.348799204101e+01 -5.644103600704e-01 0.0 
-5.644103600704e-01 -2.962589373960e+01 0.0 
0.0 0.0 -1.253416573418e+01 
-1.220244041045e+01 -4.258588616634e-01 0.0 
-4.258588616634e-01 -2.930545379615e+01 0.0 
0.0 0.0 -1.205236826198e+01 
-1.341733079061e+01 -5.855296329601e-01 0.0 
-5.855296329601e-01 -2.964961703143e+01 0.0 
0.0 0.0 -1.252008434661e+01 
-1.194608416477e+01 -4.255661450782e-01 0.0 
-4.255661450782e-01 -2.931019694172e+01 0.0 
0.0 0.0 -1.197688433195e+01 
-1.335453424841e+01 -5.797100225355e-01 0.0 
-5.797100225355e-01 -2.966457575854e+01 0.0 
0.0 0.0 -1.250573300208e+01 
-1.170984734723e+01 -4.078476892842e-01 0.0 
-4.078476892842e-01 -2.930846708325e+01 0.0 
0.0 0.0 -1.190549432914e+01 
-1.339658953711e+01 -5.660684855622e-01 0.0 
-5.660684855622e-01 -2.970786397096e+01 0.0 
0.0 0.0 -1.253133605242e+01 
-1.151255995275e+01 -3.574074250117e-01 0.0 
-3.574074250117e-01 -2.934926701532e+01 0.0 
0.0 0.0 -1.185854809042e+01 
-1.341089094663e+01 -4.745823831985e-01 0.0 
-4.745823831985e-01 -2.970822306138e+01 0.0 
0.0 0.0 -1.253573420240e+01 
-1.741684637891e+01 2.034866483744e+00 0.0 
2.034866483744e+00 -3.284175279727e+01 0.0 
0.0 0.0 -1.467757975285e+01 
-1.373121351754e+01 -4.149027065884e-01 0.0 
-4.149027065884e-01 -2.981825044448e+01 0.0 
0.0 0.0 -1.266483918860e+01 
-1.138473311558e+01 -2.752151224103e-01 0.0 
-2.752151224103e-01 -2.933502183309e+01 0.0 
0.0 0.0 -1.181592648460e+01 
-1.379511621916e+01 -8.270640996012e-02 0.0 
-8.270640996012e-02 -2.975406355930e+01 0.0 
0.0 0.0 -1.266475393354e+01 
-1.137190194108e+01 -1.059267392781e-01 0.0 
-1.059267392781e-01 -2.952813368522e+01 0.0 
0.0 0.0 -1.187001068789e+01 
-1.481620713817e+01 9.820100028170e-03 0.0 
9.820100028170e-03 -3.008508763554e+01 0.0 
0.0 0.0 -1.307038843211e+01 
-1.153126058549e+01 1.293687282569e-01 0.0 
1.293687282569e-01 -2.941976653186e+01 0.0 
0.0 0.0 -1.188530813520e+01 
-1.198874532458e+01 6.005773355665e-01 0.0 
6.005773355665e-01 -3.018108174990e+01 0.0 
0.0 0.0 -1.225094812234e+01 
-1.321710529098e+01 1.085773895467e+00 0.0 
1.085773895467e+00 -2.360076523356e+01 0.0 
0.0 0.0 -1.064536115736e+01 
-1.416765743057e+01 1.436212809420e+00 0.0 
1.436212809420e+00 -2.994980252552e+01 0.0 
0.0 0.0 -1.283523798683e+01 
-1.451909755278e+01 -1.460378956140e+00 0.0 
-1.460378956140e+00 -2.787975025967e+01 0.0 
0.0 0.0 -1.231965434374e+01 
-1.650861660040e+01 1.313873848665e-01 0.0 
1.313873848665e-01 -3.404651782429e+01 0.0 
0.0 0.0 -1.476654032741e+01 
-1.224647218010e+01 -1.957326154308e-01 0.0 
-1.957326154308e-01 -2.391258722376e+01 0.0 
0.0 0.0 -1.044771782116e+01 
-1.245069113073e+01 2.432078975285e+00 0.0 
2.432078975285e+00 -2.537267250203e+01 0.0 
0.0 0.0 -1.094700908983e+01 
-2.376062209105e+01 2.270163081650e-01 0.0 
2.270163081650e-01 -5.081157265982e+01 0.0 
0.0 0.0 -2.197165842526e+01 
-2.298501202012e+01 -3.088586363676e-01 0.0 
-3.088586363676e-01 -4.902295395656e+01 0.0 
0.0 0.0 -2.120238979300e+01 
-2.300739479984e+01 -4.646087848525e-02 0.0 
-4.646087848525e-02 -4.899988958448e+01 0.0 
0.0 0.0 -2.120218531530e+01 
-2.287533235561e+01 -9.841730331701e-02 0.0 
-9.841730331701e-02 -4.887204885632e+01 0.0 
0.0 0.0 -2.112421436358e+01 
-2.294883068550e+01 -9.064373387393e-02 0.0 
-9.064373387393e-02 -4.890184134546e+01 0.0 
0.0 0.0 -2.115520160929e+01 
-2.281939714173e+01 -1.199845482968e-01 0.0 
-1.199845482968e-01 -4.886432792037e+01 0.0 
0.0 0.0 -2.110511751863e+01 
-2.292227476245e+01 -1.304896674082e-01 0.0 
-1.304896674082e-01 -4.891039969502e+01 0.0 
0.0 0.0 -2.114980233724e+01 
-2.276678064909e+01 -1.637575232752e-01 0.0 
-1.637575232752e-01 -4.886820080846e+01 0.0 
0.0 0.0 -2.109049443726e+01 
-2.289491096339e+01 -1.721660666010e-01 0.0 
-1.721660666010e-01 -4.892449637266e+01 0.0 
0.0 0.0 -2.114582220082e+01 
-2.270912520537e+01 -2.113014612434e-01 0.0 
-2.113014612434e-01 -4.887068594266e+01 0.0 
0.0 0.0 -2.107394334441e+01 
-2.286613225265e+01 -2.132658729748e-01 0.0 
-2.132658729748e-01 -4.893651554777e+01 0.0 
0.0 0.0 -2.114079434012e+01 
-2.264315988985e+01 -2.592124018054e-01 0.0 
-2.592124018054e-01 -4.886919158766e+01 0.0 
0.0 0.0 -2.105370544325e+01 
-2.283645962954e+01 -2.533750073463e-01 0.0 
-2.533750073463e-01 -4.894578020794e+01 0.0 
0.0 0.0 -2.113467195125e+01 
-2.256750866680e+01 -3.070868048596e-01 0.0 
-3.070868048596e-01 -4.886309806854e+01 0.0 
0.0 0.0 -2.102918202060e+01 
-2.280751110251e+01 -2.937024542321e-01 0.0 
-2.937024542321e-01 -4.895321472722e+01 0.0 
0.0 0.0 -2.112821774892e+01 
-2.248195578480e+01 -3.556587416262e-01 0.0 
-3.556587416262e-01 -4.885458599578e+01 0.0 
0.0 0.0 -2.100096253417e+01 
-2.277789277381e+01 -3.344403745240e-01 0.0 
-3.344403745240e-01 -4.895995518062e+01 0.0 
0.0 0.0 -2.112135438633e+01 
-2.238652851985e+01 -4.047214308267e-01 0.0 
-4.047214308267e-01 -4.884446338668e+01 0.0 
0.0 0.0 -2.096929757196e+01 
-2.378113257942e+01 1.700225449747e+00 0.0 
1.700225449747e+00 -5.139448293911e+01 0.0 
0.0 0.0 -2.215268465556e+01 
-2.274832177851e+01 -3.755057267211e-01 0.0 
-3.755057267211e-01 -4.896675003548e+01 0.0 
0.0 0.0 -2.111452154420e+01 
-2.228206890559e+01 -4.537021346781e-01 0.0 
-4.537021346781e-01 -4.883389745505e+01 0.0 
0.0 0.0 -2.093478990819e+01 
-2.272099974972e+01 -4.157916391814e-01 0.0 
-4.157916391814e-01 -4.897445419662e+01 0.0 
0.0 0.0 -2.110863618390e+01 
-2.115084060936e+01 6.386534230097e-01 0.0 
6.386534230097e-01 -4.486589906833e+01 0.0 
0.0 0.0 -1.940502190331e+01 
-2.217031708398e+01 -5.013746738733e-01 0.0 
-5.013746738733e-01 -4.882312779008e+01 0.0 
0.0 0.0 -2.089803346222e+01 
-2.520045089473e+01 6.675622274294e-01 0.0 
6.675622274294e-01 -5.002608544649e+01 0.0 
0.0 0.0 -2.216796090237e+01 
-2.270103466773e+01 -4.541037725212e-01 0.0 
-4.541037725212e-01 -4.898391785587e+01 0.0 
0.0 0.0 -2.110548575708e+01 
-2.205389773722e+01 -5.465744155191e-01 0.0 
-5.465744155191e-01 -4.881221502910e+01 0.0 
0.0 0.0 -2.085983382989e+01 
-2.269456032390e+01 -4.920188604252e-01 0.0 
-4.920188604252e-01 -4.899792197220e+01 0.0 
0.0 0.0 -2.110774468883e+01 
-2.193712820540e+01 -5.871856039593e-01 0.0 
-5.871856039593e-01 -4.881217967303e+01 0.0 
0.0 0.0 -2.082479236353e+01 
-2.269497548960e+01 -5.203708483654e-01 0.0 
-5.203708483654e-01 -4.901679680143e+01 0.0 
0.0 0.0 -2.111353168731e+01 
-2.182375061109e+01 -6.162078753936e-01 0.0 
-6.162078753936e-01 -4.881534841665e+01 0.0 
0.0 0.0 -2.079172970832e+01 
-2.271738587359e+01 -5.410975683203e-01 0.0 
-5.410975683203e-01 -4.904374191388e+01 0.0 
0.0 0.0 -2.112833833624e+01 
-2.172431320322e+01 -6.270356767693e-01 0.0 
-6.270356767693e-01 -4.884397645141e+01 0.0 
0.0 0.0 -2.077048689639e+01 
-2.686023210774e+01 1.537238509757e+00 0.0 
1.537238509757e+00 -5.259605599774e+01 0.0 
0.0 0.0 -2.343688643165e+01 
-2.275409837716e+01 -5.262355479891e-01 0.0 
-5.262355479891e-01 -4.907239594421e+01 0.0 
0.0 0.0 -2.114794829641e+01 
-2.164566278739e+01 -6.099539437617e-01 0.0 
-6.099539437617e-01 -4.884905835724e+01 0.0 
0.0 0.0 -2.074841634339e+01 
-2.287287539534e+01 -5.133878987370e-01 0.0 
-5.133878987370e-01 -4.912137112779e+01 0.0 
0.0 0.0 -2.119827395694e+01 
-2.161478375442e+01 -5.598445829425e-01 0.0 
-5.598445829425e-01 -4.893849127257e+01 0.0 
0.0 0.0 -2.076598250810e+01 
-2.163102721527e+01 -4.582295264373e-01 0.0 
-4.582295264373e-01 -4.892155188667e+01 0.0 
0.0 0.0 -2.076577373058e+01 
-2.297641865664e+01 -4.063700499311e-01 0.0 
-4.063700499311e-01 -4.915626093544e+01 0.0 
0.0 0.0 -2.123980387762e+01 
-2.176211757171e+01 -2.910112139151e-01 0.0 
-2.910112139151e-01 -4.919441851990e+01 0.0 
0.0 0.0 -2.088696082748e+01 
-2.330766355902e+01 -3.592318593746e-01 0.0 
-3.592318593746e-01 -4.926214102272e+01 0.0 
0.0 0.0 -2.137094137452e+01 
-2.196553158148e+01 -3.405219713375e-02 0.0 
-3.405219713375e-02 -4.903165926034e+01 0.0 
0.0 0.0 -2.089915725255e+01 
-2.242112504167e+01 3.565918483302e-01 0.0 
3.565918483302e-01 -4.988141747850e+01 0.0 
0.0 0.0 -2.129076275605e+01 
-2.340540156870e+01 -2.633585398639e-02 0.0 
-2.633585398639e-02 -4.926496987156e+01 0.0 
0.0 0.0 -2.140111143208e+01 
-2.437913913850e+01 -1.918490433693e-02 0.0 
-1.918490433693e-02 -4.959386091700e+01 0.0 
0.0 0.0 -2.179190001665e+01 
-2.294759058039e+01 9.664376781457e-01 0.0 
9.664376781457e-01 -4.366708702129e+01 0.0 
0.0 0.0 -1.958440328050e+01 
-2.339513697134e+01 1.450251385071e+00 0.0 
1.450251385071e+00 -4.867408552240e+01 0.0 
0.0 0.0 -2.122076674812e+01 
-2.306341793713e+01 -1.468530951143e+00 0.0 
-1.468530951143e+00 -5.061837473549e+01 0.0 
0.0 0.0 -2.170453780179e+01 
-2.099811636139e+01 1.208286636965e-01 0.0 
1.208286636965e-01 -4.452201726660e+01 0.0 
0.0 0.0 -1.925604008840e+01 
-2.538732594704e+01 -1.829428020468e-01 0.0 
-1.829428020468e-01 -5.462823182362e+01 0.0 
0.0 0.0 -2.360466733120e+01 
-2.203334507326e+01 1.782294169070e+00 0.0 
1.782294169070e+00 -4.478960830536e+01 0.0 
0.0 0.0 -1.964688601359e+01 
-3.062938573121e+01 2.263272525837e-01 0.0 
2.263272525837e-01 -6.683868782019e+01 0.0 
0.0 0.0 -2.884042206542e+01 
-3.143651593693e+01 -2.918749533624e-01 0.0 
-2.918749533624e-01 -6.852263487646e+01 0.0 
0.0 0.0 -2.958774524402e+01 
-3.137460853191e+01 -7.317638835149e-02 0.0 
-7.317638835149e-02 -6.852338829264e+01 0.0 
0.0 0.0 -2.956939904737e+01 
-3.150259890520e+01 -1.203919322689e-01 0.0 
-1.203919322689e-01 -6.863388482859e+01 0.0 
0.0 0.0 -2.964094512014e+01 
-3.138388037274e+01 -1.192908917550e-01 0.0 
-1.192908917550e-01 -6.858362394902e+01 0.0 
0.0 0.0 -2.959025129653e+01 
-3.151113880797e+01 -1.543272657457e-01 0.0 
-1.543272657457e-01 -6.864562551200e+01 0.0 
0.0 0.0 -2.964702929599e+01 
-3.135100470545e+01 -1.565420254047e-01 0.0 
-1.565420254047e-01 -6.857743622869e+01 0.0 
0.0 0.0 -2.957853228024e+01 
-3.151294696734e+01 -2.006252732335e-01 0.0 
-2.006252732335e-01 -6.865781855962e+01 0.0 
0.0 0.0 -2.965122965809e+01 
-3.131738890101e+01 -1.972894623823e-01 0.0 
-1.972894623823e-01 -6.857694489375e+01 0.0 
0.0 0.0 -2.956830013843e+01 
-3.151448003654e+01 -2.486095425887e-01 0.0 
-2.486095425887e-01 -6.867006242892e+01 0.0 
0.0 0.0 -2.965536273964e+01 
-3.128384603489e+01 -2.395480220641e-01 0.0 
-2.395480220641e-01 -6.857784770634e+01 0.0 
0.0 0.0 -2.955850812237e+01 
-3.151563034527e+01 -2.963449747851e-01 0.0 
-2.963449747851e-01 -6.867946092840e+01 0.0 
0.0 0.0 -2.965852738210e+01 
-3.124998724894e+01 -2.811816800938e-01 0.0 
-2.811816800938e-01 -6.857734465319e+01 0.0 
0.0 0.0 -2.954819957064e+01 
-3.152382423847e+01 -3.430025890778e-01 0.0 
-3.430025890778e-01 -6.868532479606e+01 0.0 
0.0 0.0 -2.966274471036e+01 
-3.121495238702e+01 -3.233365923004e-01 0.0 
-3.233365923004e-01 -6.857057772441e+01 0.0 
0.0 0.0 -2.953565903343e+01 
-3.154075975884e+01 -3.920357554932e-01 0.0 
-3.920357554932e-01 -6.869057143453e+01 0.0 
0.0 0.0 -2.966939935801e+01 
-3.117880280662e+01 -3.654100433103e-01 0.0 
-3.654100433103e-01 -6.856207859053e+01 0.0 
0.0 0.0 -2.952226441915e+01 
-3.317876029700e+01 1.465453273359e+00 0.0 
1.465453273359e+00 -7.102318600524e+01 0.0 
0.0 0.0 -3.086058389067e+01 
-3.156187412734e+01 -4.408635285687e-01 0.0 
-4.408635285687e-01 -6.869532036585e+01 0.0 
0.0 0.0 -2.967715834796e+01 
-3.114308176333e+01 -4.058534484299e-01 0.0 
-4.058534484299e-01 -6.855452333339e+01 0.0 
0.0 0.0 -2.950928152902e+01 
-3.436674267620e+01 4.094229997249e-01 0.0 
4.094229997249e-01 -6.979785467243e+01 0.0 
0.0 0.0 -3.084937920459e+01 
-3.158772813652e+01 -4.872511023688e-01 0.0 
-4.872511023688e-01 -6.870095208289e+01 0.0 
0.0 0.0 -2.968660406582e+01 
-3.111113235964e+01 -4.416668204795e-01 0.0 
-4.416668204795e-01 -6.855143028645e+01 0.0 
0.0 0.0 -2.949876879383e+01 
-3.162656202729e+01 -5.272246504026e-01 0.0 
-5.272246504026e-01 -6.870810690659e+01 0.0 
0.0 0.0 -2.970040068016e+01 
-3.108677780112e+01 -4.712243042354e-01 0.0 
-4.712243042354e-01 -6.855065183377e+01 0.0 
0.0 0.0 -2.949122889047e+01 
-3.168638606544e+01 -5.594402424674e-01 0.0 
-5.594402424674e-01 -6.871641496475e+01 0.0 
0.0 0.0 -2.972084030906e+01 
-3.079651545710e+01 4.569807222390e-01 0.0 
4.569807222390e-01 -6.456773899374e+01 0.0 
0.0 0.0 -2.820927633525e+01 
-3.107324562104e+01 -4.958634129697e-01 0.0 
-4.958634129697e-01 -6.854818766552e+01 0.0 
0.0 0.0 -2.948642998597e+01 
-3.178108156229e+01 -5.923831208391e-01 0.0 
-5.923831208391e-01 -6.874078687565e+01 0.0 
0.0 0.0 -2.975656053138e+01 
-3.107524512916e+01 -5.074631078640e-01 0.0 
-5.074631078640e-01 -6.857075929374e+01 0.0 
0.0 0.0 -2.949380132687e+01 
-3.186167119127e+01 -5.992932498045e-01 0.0 
-5.992932498045e-01 -6.876532213804e+01 0.0 
0.0 0.0 -2.978809799879e+01 
-3.110239562262e+01 -4.970635943301e-01 0.0 
-4.970635943301e-01 -6.860876466163e+01 0.0 
0.0 0.0 -2.951334808528e+01 
-3.201676690714e+01 -5.908218217556e-01 0.0 
-5.908218217556e-01 -6.882603818359e+01 0.0 
0.0 0.0 -2.985284152722e+01 
-3.116678798694e+01 -4.460811692765e-01 0.0 
-4.460811692765e-01 -6.870200503370e+01 0.0 
0.0 0.0 -2.956063790619e+01 
-3.210992468811e+01 -4.966395657759e-01 0.0 
-4.966395657759e-01 -6.884714980039e+01 0.0 
0.0 0.0 -2.988712234655e+01 
-3.128146957871e+01 -3.618105911895e-01 0.0 
-3.618105911895e-01 -6.874142422234e+01 0.0 
0.0 0.0 -2.960686814032e+01 
-3.248900120161e+01 -4.421607051143e-01 0.0 
-4.421607051143e-01 -6.899088619103e+01 0.0 
0.0 0.0 -3.004396621779e+01 
-3.594927577841e+01 1.080253122832e+00 0.0 
1.080253122832e+00 -7.233351267899e+01 0.0 
0.0 0.0 -3.208483653722e+01 
-3.253787621680e+01 -1.448341051300e-01 0.0 
-1.448341051300e-01 -6.896822434395e+01 0.0 
0.0 0.0 -3.005183016822e+01 
-3.147108923194e+01 -2.028433292567e-01 0.0 
-2.028433292567e-01 -6.897715894447e+01 0.0 
0.0 0.0 -2.973447445292e+01 
-3.351608807994e+01 -1.306835846717e-01 0.0 
-1.306835846717e-01 -6.935993797866e+01 0.0 
0.0 0.0 -3.046280781758e+01 
-3.172909291520e+01 -1.208706753003e-02 0.0 
-1.208706753003e-02 -6.891214285382e+01 0.0 
0.0 0.0 -2.979237073071e+01 
-3.212475638549e+01 3.226899895564e-01 0.0 
3.226899895564e-01 -6.961013111074e+01 0.0 
0.0 0.0 -3.012046624887e+01 
-3.216951161916e+01 6.638078567260e-01 0.0 
6.638078567260e-01 -6.355164636788e+01 0.0 
0.0 0.0 -2.831634739611e+01 
-3.098347200391e+01 1.458791350364e+00 0.0 
1.458791350364e+00 -6.902156449572e+01 0.0 
0.0 0.0 -2.960151094989e+01 
-3.132309856501e+01 -1.460001712274e+00 0.0 
-1.460001712274e+00 -6.703096349258e+01 0.0 
0.0 0.0 -2.910621861728e+01 
-3.338582047146e+01 1.332213625755e-01 0.0 
1.332213625755e-01 -7.315060375850e+01 0.0 
0.0 0.0 -3.156092726899e+01 
-2.899447697768e+01 -1.785474982361e-01 0.0 
-1.785474982361e-01 -6.304491756178e+01 0.0 
0.0 0.0 -2.721181836184e+01 
-3.129015439714e+01 1.289617927569e+00 0.0 
1.289617927569e+00 -6.423539361879e+01 0.0 
0.0 0.0 -2.825766440478e+01 
-4.066527965942e+01 2.481053065986e-01 0.0 
2.481053065986e-01 -8.992799171896e+01 0.0 
0.0 0.0 -3.877798141352e+01 
-3.985617201150e+01 -2.906755829446e-01 0.0 
-2.906755829446e-01 -8.816849905047e+01 0.0 
0.0 0.0 -3.800740131859e+01 
-3.995132630513e+01 -5.607009466042e-02 0.0 
-5.607009466042e-02 -8.817553404406e+01 0.0 
0.0 0.0 -3.803805810476e+01 
-3.980909977207e+01 -1.173481085918e-01 0.0 
-1.173481085918e-01 -8.801572018462e+01 0.0 
0.0 0.0 -3.794744598701e+01 
-3.994166981889e+01 -1.153479688583e-01 0.0 
-1.153479688583e-01 -8.807149607084e+01 0.0 
0.0 0.0 -3.800394976692e+01 
-3.980691959530e+01 -1.528666219319e-01 0.0 
-1.528666219319e-01 -8.800244734910e+01 0.0 
0.0 0.0 -3.794281008332e+01 
-3.995767441748e+01 -1.596084358128e-01 0.0 
-1.596084358128e-01 -8.806775513340e+01 0.0 
0.0 0.0 -3.800762886526e+01 
-3.980297320760e+01 -1.983486399816e-01 0.0 
-1.983486399816e-01 -8.800121312022e+01 0.0 
0.0 0.0 -3.794125589835e+01 
-3.998676594184e+01 -2.006485868914e-01 0.0 
-2.006485868914e-01 -8.807844828278e+01 0.0 
0.0 0.0 -3.801956426739e+01 
-3.979976348723e+01 -2.449019327728e-01 0.0 
-2.449019327728e-01 -8.800239048052e+01 0.0 
0.0 0.0 -3.794064619033e+01 
-4.001891327502e+01 -2.421269436026e-01 0.0 
-2.421269436026e-01 -8.809104656481e+01 0.0 
0.0 0.0 -3.803298795195e+01 
-3.979911794062e+01 -2.907055242847e-01 0.0 
-2.907055242847e-01 -8.800759865089e+01 0.0 
0.0 0.0 -3.794201497745e+01 
-4.005477946217e+01 -2.756698821444e-01 0.0 
-2.756698821444e-01 -8.810307352701e+01 0.0 
0.0 0.0 -3.804735589676e+01 
-3.980199613839e+01 -3.314418791641e-01 0.0 
-3.314418791641e-01 -8.800105922920e+01 0.0 
0.0 0.0 -3.794091661028e+01 
-4.010731481594e+01 -3.088009835081e-01 0.0 
-3.088009835081e-01 -8.810860330193e+01 0.0 
0.0 0.0 -3.806477543536e+01 
-3.981150857130e+01 -3.719010360884e-01 0.0 
-3.719010360884e-01 -8.798898533028e+01 0.0 
0.0 0.0 -3.794014817048e+01 
-4.193529328812e+01 1.211453364575e+00 0.0 
1.211453364575e+00 -9.053907320478e+01 0.0 
0.0 0.0 -3.934230994787e+01 
-4.018171233076e+01 -3.461588502565e-01 0.0 
-3.461588502565e-01 -8.811508999177e+01 0.0 
0.0 0.0 -3.808904069676e+01 
-3.982997843127e+01 -4.133077658965e-01 0.0 
-4.133077658965e-01 -8.798756374168e+01 0.0 
0.0 0.0 -3.794526265188e+01 
-3.979822381158e+01 3.863057461196e-01 0.0 
3.863057461196e-01 -8.401825468583e+01 0.0 
0.0 0.0 -3.674494354922e+01 
-4.024684045467e+01 -3.822054145878e-01 0.0 
-3.822054145878e-01 -8.812153763951e+01 0.0 
0.0 0.0 -3.811051342826e+01 
-3.985701941163e+01 -4.474351026326e-01 0.0 
-4.474351026326e-01 -8.799596505813e+01 0.0 
0.0 0.0 -3.795589534093e+01 
-4.304547841557e+01 2.891919440568e-01 0.0 
2.891919440568e-01 -8.928549195739e+01 0.0 
0.0 0.0 -3.929929111189e+01 
-4.032897335997e+01 -4.057525191733e-01 0.0 
-4.057525191733e-01 -8.813427152895e+01 0.0 
0.0 0.0 -3.813897346668e+01 
-3.989782969995e+01 -4.689781096242e-01 0.0 
-4.689781096242e-01 -8.800773147614e+01 0.0 
0.0 0.0 -3.797166835282e+01 
-4.044165759136e+01 -4.149161408066e-01 0.0 
-4.149161408066e-01 -8.815104504081e+01 0.0 
0.0 0.0 -3.817781078965e+01 
-3.995902636969e+01 -4.766835015073e-01 0.0 
-4.766835015073e-01 -8.801924234132e+01 0.0 
0.0 0.0 -3.799348061330e+01 
-4.057697188106e+01 -4.111299796488e-01 0.0 
-4.111299796488e-01 -8.816451048757e+01 0.0 
0.0 0.0 -3.822244471059e+01 
-4.004241543251e+01 -4.743262871461e-01 0.0 
-4.743262871461e-01 -8.801723257285e+01 0.0 
0.0 0.0 -3.801789440161e+01 
-4.439054388574e+01 7.801781613445e-01 0.0 
7.801781613445e-01 -9.178905750476e+01 0.0 
0.0 0.0 -4.045388041715e+01 
-4.077892823919e+01 -4.335950897484e-01 0.0 
-4.335950897484e-01 -8.821216062515e+01 0.0 
0.0 0.0 -3.829732665930e+01 
-4.016389785574e+01 -4.554833800246e-01 0.0 
-4.554833800246e-01 -8.813718435514e+01 0.0 
0.0 0.0 -3.809032466326e+01 
-4.090244251641e+01 -3.663845581893e-01 0.0 
-3.663845581893e-01 -8.826189890807e+01 0.0 
0.0 0.0 -3.834930242734e+01 
-4.030763822997e+01 -3.872362436560e-01 0.0 
-3.872362436560e-01 -8.817140460355e+01 0.0 
0.0 0.0 -3.814371285006e+01 
-4.053117076255e+01 -2.592987528394e-01 0.0 
-2.592987528394e-01 -8.849672397410e+01 0.0 
0.0 0.0 -3.830836842100e+01 
-4.120622709147e+01 -3.548810372765e-01 0.0 
-3.548810372765e-01 -8.839080727365e+01 0.0 
0.0 0.0 -3.847911030954e+01 
-4.076557274148e+01 -6.935529799888e-02 0.0 
-6.935529799888e-02 -8.830288645071e+01 0.0 
0.0 0.0 -3.832053775766e+01 
-4.126193651485e+01 -4.746486890267e-02 0.0 
-4.746486890267e-02 -8.841430799357e+01 0.0 
0.0 0.0 -3.850287335252e+01 
-4.114920059004e+01 1.548342697838e-01 0.0 
1.548342697838e-01 -8.906131454818e+01 0.0 
0.0 0.0 -3.866315454147e+01 
-4.225939855932e+01 -1.336366907318e-01 0.0 
-1.336366907318e-01 -8.876319335592e+01 0.0 
0.0 0.0 -3.890677757457e+01 
-4.075477758233e+01 6.687484449768e-01 0.0 
6.687484449768e-01 -8.308026042629e+01 0.0 
0.0 0.0 -3.675051140259e+01 
-4.029479228095e+01 1.465026242314e+00 0.0 
1.465026242314e+00 -8.777501701699e+01 0.0 
0.0 0.0 -3.802094278938e+01 
-3.995703538767e+01 -1.458213895657e+00 0.0 
-1.458213895657e+00 -8.974673250369e+01 0.0 
0.0 0.0 -3.851113036741e+01 
-3.787820709514e+01 1.310067659913e-01 0.0 
1.310067659913e-01 -8.363283921374e+01 0.0 
0.0 0.0 -3.605331389266e+01 
-4.228973523959e+01 -1.746613127343e-01 0.0 
-1.746613127343e-01 -9.372557001354e+01 0.0 
0.0 0.0 -4.040459157594e+01 
-4.031058455553e+01 1.090871717866e+00 0.0 
1.090871717866e+00 -8.366681905753e+01 0.0 
0.0 0.0 -3.679322108392e+01 
-4.755295771945e+01 2.642272244688e-01 0.0 
2.642272244688e-01 -1.059992405257e+02 0.0 
0.0 0.0 -4.566565947354e+01 
-4.833300629395e+01 -2.515923972456e-01 0.0 
-2.515923972456e-01 -1.076795577457e+02 0.0 
0.0 0.0 -4.640376921188e+01 
-4.832093347338e+01 -4.035532065043e-02 0.0 
-4.035532065043e-02 -1.077046174366e+02 0.0 
0.0 0.0 -4.640766527300e+01 
-4.845220486564e+01 -8.177828478886e-02 0.0 
-8.177828478886e-02 -1.077889609682e+02 0.0 
0.0 0.0 -4.647234975014e+01 
-4.837600169378e+01 -1.052855558795e-01 0.0 
-1.052855558795e-01 -1.077516037789e+02 0.0 
0.0 0.0 -4.643828164181e+01 
-4.847543748711e+01 -1.320943736241e-01 0.0 
-1.320943736241e-01 -1.077991016238e+02 0.0 
0.0 0.0 -4.648236173328e+01 
-4.839939360877e+01 -1.391860537468e-01 0.0 
-1.391860537468e-01 -1.077650999131e+02 0.0 
0.0 0.0 -4.644934805656e+01 
-4.853836419153e+01 -1.701333929265e-01 0.0 
-1.701333929265e-01 -1.078105366635e+02 0.0 
0.0 0.0 -4.650467025652e+01 
-4.842173037301e+01 -1.757417594668e-01 0.0 
-1.757417594668e-01 -1.077600319555e+02 0.0 
0.0 0.0 -4.645452869856e+01 
-4.858900945340e+01 -2.133025136524e-01 0.0 
-2.133025136524e-01 -1.078209437223e+02 0.0 
0.0 0.0 -4.652298595272e+01 
-4.845098179892e+01 -2.097802932260e-01 0.0 
-2.097802932260e-01 -1.077658731206e+02 0.0 
0.0 0.0 -4.646505647585e+01 
-4.865690010321e+01 -2.540890266530e-01 0.0 
-2.540890266530e-01 -1.078400497485e+02 0.0 
0.0 0.0 -4.654908495553e+01 
-4.848824419532e+01 -2.360947717172e-01 0.0 
-2.360947717172e-01 -1.077811579044e+02 0.0 
0.0 0.0 -4.648082062991e+01 
-4.870177972268e+01 -2.745170177186e-01 0.0 
-2.745170177186e-01 -1.078399617145e+02 0.0 
0.0 0.0 -4.656252243115e+01 
-4.854129575482e+01 -2.549475544571e-01 0.0 
-2.549475544571e-01 -1.077878921593e+02 0.0 
0.0 0.0 -4.649875637424e+01 
-5.059964655888e+01 1.154766518787e+00 0.0 
1.154766518787e+00 -1.100549581559e+02 0.0 
0.0 0.0 -4.779638141444e+01 
-4.882898208464e+01 -2.944761543619e-01 0.0 
-2.944761543619e-01 -1.078391050630e+02 0.0 
0.0 0.0 -4.660042614429e+01 
-5.158761355715e+01 2.154267551667e-01 0.0 
2.154267551667e-01 -1.089770387038e+02 0.0 
0.0 0.0 -4.776939567830e+01 
-4.859837960460e+01 -2.884444542014e-01 0.0 
-2.884444542014e-01 -1.077539802974e+02 0.0 
0.0 0.0 -4.650570797060e+01 
-4.892213286584e+01 -3.419005343061e-01 0.0 
-3.419005343061e-01 -1.078477821833e+02 0.0 
0.0 0.0 -4.663097451475e+01 
-4.867083249075e+01 -3.088426016691e-01 0.0 
-3.088426016691e-01 -1.077775190570e+02 0.0 
0.0 0.0 -4.653450546433e+01 
-4.901553424198e+01 -3.586647441773e-01 0.0 
-3.586647441773e-01 -1.078675482033e+02 0.0 
0.0 0.0 -4.666492473359e+01 
-4.876481880886e+01 -3.071694309916e-01 0.0 
-3.071694309916e-01 -1.078179109097e+02 0.0 
0.0 0.0 -4.657481891557e+01 
-4.916995056941e+01 -3.496559629844e-01 0.0 
-3.496559629844e-01 -1.078939696422e+02 0.0 
0.0 0.0 -4.671917606349e+01 
-4.861296917396e+01 3.126731539840e-01 0.0 
3.126731539840e-01 -1.035881914567e+02 0.0 
0.0 0.0 -4.526034818921e+01 
-4.888109873442e+01 -2.926470133304e-01 0.0 
-2.926470133304e-01 -1.078430743746e+02 0.0 
0.0 0.0 -4.661725193271e+01 
-4.933965531810e+01 -3.305013373138e-01 0.0 
-3.305013373138e-01 -1.079183779087e+02 0.0 
0.0 0.0 -4.677740996805e+01 
-4.902724681944e+01 -2.594384838418e-01 0.0 
-2.594384838418e-01 -1.078818186771e+02 0.0 
0.0 0.0 -4.667271964897e+01 
-4.950045545618e+01 -2.735118938355e-01 0.0 
-2.735118938355e-01 -1.079172422614e+02 0.0 
0.0 0.0 -4.682530931528e+01 
-4.920094279301e+01 -2.327339660847e-01 0.0 
-2.327339660847e-01 -1.078635279174e+02 0.0 
0.0 0.0 -4.671934121312e+01 
-4.989408357097e+01 -3.184260107124e-01 0.0 
-3.184260107124e-01 -1.080789086920e+02 0.0 
0.0 0.0 -4.699189767889e+01 
-4.941763333976e+01 -1.449744559687e-01 0.0 
-1.449744559687e-01 -1.081306774959e+02 0.0 
0.0 0.0 -4.686449325069e+01 
-4.983989566352e+01 -1.057608526882e-01 0.0 
-1.057608526882e-01 -1.080854279479e+02 0.0 
0.0 0.0 -4.697759708343e+01 
-5.082612173884e+01 -1.566111394506e-01 0.0 
-1.566111394506e-01 -1.085227566207e+02 0.0 
0.0 0.0 -4.740466350787e+01 
-4.966869455484e+01 -2.385214884792e-02 0.0 
-2.385214884792e-02 -1.081365646882e+02 0.0 
0.0 0.0 -4.694157777290e+01 
-5.292751131881e+01 5.859470856776e-01 0.0 
5.859470856776e-01 -1.113980008631e+02 0.0 
0.0 0.0 -4.889765365456e+01 
-4.998536022791e+01 2.021277268695e-01 0.0 
2.021277268695e-01 -1.087689633241e+02 0.0 
0.0 0.0 -4.722629706559e+01 
-4.934566402437e+01 5.213680437489e-01 0.0 
5.213680437489e-01 -1.027160182273e+02 0.0 
0.0 0.0 -4.521850467550e+01 
-4.788754971512e+01 1.469646158751e+00 0.0 
1.469646158751e+00 -1.081372327849e+02 0.0 
0.0 0.0 -4.640743474999e+01 
-4.822511001595e+01 -1.446712574746e+00 0.0 
-1.446712574746e+00 -1.061647200396e+02 0.0 
0.0 0.0 -4.591694901668e+01 
-5.028301295401e+01 1.388561709836e-01 0.0 
1.388561709836e-01 -1.122828368320e+02 0.0 
0.0 0.0 -4.836975493580e+01 
-4.591441515225e+01 -1.667039133041e-01 0.0 
-1.667039133041e-01 -1.021831564764e+02 0.0 
0.0 0.0 -4.402927148860e+01 
-4.896982796959e+01 8.665604807256e-01 0.0 
8.665604807256e-01 -1.031089742501e+02 0.0 
0.0 0.0 -4.522364066591e+01 
-5.742506161964e+01 3.128714495026e-01 0.0 
3.128714495026e-01 -1.291060622406e+02 0.0 
0.0 0.0 -5.555933715807e+01 
-5.674610676759e+01 -2.168957978381e-01 0.0 
-2.168957978381e-01 -1.273101255175e+02 0.0 
0.0 0.0 -5.481686968552e+01 
-5.689244878764e+01 3.541194382701e-02 0.0 
3.541194382701e-02 -1.273299619062e+02 0.0 
0.0 0.0 -5.486672320814e+01 
-5.673813673152e+01 -3.963544714938e-02 0.0 
-3.963544714938e-02 -1.271228019886e+02 0.0 
0.0 0.0 -5.475828161603e+01 
-5.687997703665e+01 -7.913504569894e-02 0.0 
-7.913504569894e-02 -1.271926774281e+02 0.0 
0.0 0.0 -5.482179633943e+01 
-5.678221440051e+01 -9.563971478395e-02 0.0 
-9.563971478395e-02 -1.271815810884e+02 0.0 
0.0 0.0 -5.478913864668e+01 
-5.689871727682e+01 -7.639315541743e-02 0.0 
-7.639315541743e-02 -1.272236786781e+02 0.0 
0.0 0.0 -5.483671878648e+01 
-5.682027960446e+01 -1.110563955051e-01 0.0 
-1.110563955051e-01 -1.271350059604e+02 0.0 
0.0 0.0 -5.478658566945e+01 
-5.704244315085e+01 -1.212682598947e-01 0.0 
-1.212682598947e-01 -1.272305909544e+02 0.0 
0.0 0.0 -5.488191023158e+01 
-5.688183397387e+01 -1.563125126411e-01 0.0 
-1.563125126411e-01 -1.271708676034e+02 0.0 
0.0 0.0 -5.481581047318e+01 
-5.707796559853e+01 -1.431664794262e-01 0.0 
-1.431664794262e-01 -1.272431526096e+02 0.0 
0.0 0.0 -5.489633546244e+01 
-5.693944314129e+01 -1.803215875952e-01 0.0 
-1.803215875952e-01 -1.271659835040e+02 0.0 
0.0 0.0 -5.483162799360e+01 
-5.722048634684e+01 -1.825304305406e-01 0.0 
-1.825304305406e-01 -1.272778493455e+02 0.0 
0.0 0.0 -5.494950070769e+01 
-5.905762984296e+01 1.070590282306e+00 0.0 
1.070590282306e+00 -1.295411244698e+02 0.0 
0.0 0.0 -5.617962629382e+01 
-5.702036068244e+01 -2.063955082706e-01 0.0 
-2.063955082706e-01 -1.272499839539e+02 0.0 
0.0 0.0 -5.488110339090e+01 
-5.727228823774e+01 -1.248394375043e-01 0.0 
-1.248394375043e-01 -1.272901303074e+02 0.0 
0.0 0.0 -5.496872556354e+01 
-5.705020643581e+01 3.068731974834e-01 0.0 
3.068731974834e-01 -1.230456209136e+02 0.0 
0.0 0.0 -5.362874820484e+01 
-5.709791022804e+01 -1.915074870048e-01 0.0 
-1.915074870048e-01 -1.271332707309e+02 0.0 
0.0 0.0 -5.486935428769e+01 
-5.743667737649e+01 -1.887729613673e-01 0.0 
-1.887729613673e-01 -1.272563473268e+02 0.0 
0.0 0.0 -5.500790741099e+01 
-5.986204400220e+01 2.319587466792e-01 0.0 
2.319587466792e-01 -1.283601968446e+02 0.0 
0.0 0.0 -5.606667225404e+01 
-5.720968706828e+01 -2.242800837403e-01 0.0 
-2.242800837403e-01 -1.271854086557e+02 0.0 
0.0 0.0 -5.491852871719e+01 
-5.753508765708e+01 -2.129057469767e-01 0.0 
-2.129057469767e-01 -1.272910764355e+02 0.0 
0.0 0.0 -5.504784922776e+01 
-5.733663358887e+01 -2.190610071818e-01 0.0 
-2.190610071818e-01 -1.272834466794e+02 0.0 
0.0 0.0 -5.498602408048e+01 
-5.769515397528e+01 -1.561718465695e-01 0.0 
-1.561718465695e-01 -1.273441622974e+02 0.0 
0.0 0.0 -5.511179488181e+01 
-5.748431295690e+01 -1.772429712801e-01 0.0 
-1.772429712801e-01 -1.272941485463e+02 0.0 
0.0 0.0 -5.503353845097e+01 
-6.131109042569e+01 5.323103997884e-01 0.0 
5.323103997884e-01 -1.308263576851e+02 0.0 
0.0 0.0 -5.724123443324e+01 
-5.793179367584e+01 -1.242485035058e-01 0.0 
-1.242485035058e-01 -1.273814028168e+02 0.0 
0.0 0.0 -5.519395894780e+01 
-5.766550964164e+01 -1.342234975919e-01 0.0 
-1.342234975919e-01 -1.273453713303e+02 0.0 
0.0 0.0 -5.510326429159e+01 
-5.788830494204e+01 -4.652148455994e-02 0.0 
-4.652148455994e-02 -1.274888910617e+02 0.0 
0.0 0.0 -5.521315880113e+01 
-5.811415009975e+01 -8.872557046925e-02 0.0 
-8.872557046925e-02 -1.274274994478e+02 0.0 
0.0 0.0 -5.526249486427e+01 
-5.810261694510e+01 2.767714601272e-02 0.0 
2.767714601272e-02 -1.272321532316e+02 0.0 
0.0 0.0 -5.520043105301e+01 
-5.816317754157e+01 1.019866982173e-01 0.0 
1.019866982173e-01 -1.273772619398e+02 0.0 
0.0 0.0 -5.526213184441e+01 
-5.845178294331e+01 1.361313120489e-01 0.0 
1.361313120489e-01 -1.281798316007e+02 0.0 
0.0 0.0 -5.558948436321e+01 
-5.906736390128e+01 -1.722883400125e-01 0.0 
-1.722883400125e-01 -1.277533766299e+02 0.0 
0.0 0.0 -5.564622215936e+01 
-5.778740130836e+01 5.441548778321e-01 0.0 
5.441548778321e-01 -1.222682689143e+02 0.0 
0.0 0.0 -5.361670106679e+01 
-5.722375258553e+01 1.429695343843e+00 0.0 
1.429695343843e+00 -1.268172740138e+02 0.0 
0.0 0.0 -5.481230797981e+01 
-5.684638561523e+01 -1.492166247576e+00 0.0 
-1.492166247576e+00 -1.290102071265e+02 0.0 
0.0 0.0 -5.535697782251e+01 
-5.478003618217e+01 1.082463889511e-01 0.0 
1.082463889511e-01 -1.227758910310e+02 0.0 
0.0 0.0 -5.286677816396e+01 
-5.918739404627e+01 -2.320585914879e-01 0.0 
-2.320585914879e-01 -1.328547513279e+02 0.0 
0.0 0.0 -5.721264361226e+01 
-5.738704842161e+01 7.446892845111e-01 0.0 
7.446892845111e-01 -1.225090533876e+02 0.0 
0.0 0.0 -5.356883054275e+01 
-6.448915402246e+01 4.437725290727e-01 0.0 
4.437725290727e-01 -1.455889445139e+02 0.0 
0.0 0.0 -6.262342956090e+01 
-6.537173939947e+01 2.649459802773e-03 0.0 
2.649459802773e-03 -1.468505525004e+02 0.0 
0.0 0.0 -6.326668756997e+01 
-6.523503509651e+01 2.430485963935e-02 0.0 
2.430485963935e-02 -1.467959966268e+02 0.0 
0.0 0.0 -6.320930951700e+01 
-6.520264709517e+01 1.110614593109e-02 0.0 
1.110614593109e-02 -1.468696732215e+02 0.0 
0.0 0.0 -6.322169609501e+01 
-6.533031195710e+01 -4.205592135212e-02 0.0 
-4.205592135212e-02 -1.469101255758e+02 0.0 
0.0 0.0 -6.327213125988e+01 
-6.533300449373e+01 -7.294937517142e-02 0.0 
-7.294937517142e-02 -1.470255931564e+02 0.0 
0.0 0.0 -6.330757929504e+01 
-6.541127775653e+01 1.006534203031e-02 0.0 
1.006534203031e-02 -1.470863197974e+02 0.0 
0.0 0.0 -6.334927926619e+01 
-6.551888988037e+01 3.359906377750e-02 0.0 
3.359906377750e-02 -1.469562428140e+02 0.0 
0.0 0.0 -6.334253980832e+01 
-6.547008215207e+01 -6.334291845785e-02 0.0 
-6.334291845785e-02 -1.468950819573e+02 0.0 
0.0 0.0 -6.330954923280e+01 
-6.555949087414e+01 -1.090167377070e-01 0.0 
-1.090167377070e-01 -1.470151209642e+02 0.0 
0.0 0.0 -6.337238355151e+01 
-6.556630417534e+01 -4.755059212703e-02 0.0 
-4.755059212703e-02 -1.470492759555e+02 0.0 
0.0 0.0 -6.338467403925e+01 
-6.563241403415e+01 -3.833119479708e-02 0.0 
-3.833119479708e-02 -1.470023059717e+02 0.0 
0.0 0.0 -6.339041600176e+01 
-6.736243781691e+01 1.159755426967e+00 0.0 
1.159755426967e+00 -1.490859782607e+02 0.0 
0.0 0.0 -6.453452482330e+01 
-6.567497485934e+01 -6.179427599203e-02 0.0 
-6.179427599203e-02 -1.470049892080e+02 0.0 
0.0 0.0 -6.340398922020e+01 
-6.747543605112e+01 1.906017615358e-01 0.0 
1.906017615358e-01 -1.477820195539e+02 0.0 
0.0 0.0 -6.417723668149e+01 
-6.609900599712e+01 -1.457837390702e-01 0.0 
-1.457837390702e-01 -1.471614797008e+02 0.0 
0.0 0.0 -6.357814570938e+01 
-6.575961879061e+01 -5.551124872716e-02 0.0 
-5.551124872716e-02 -1.470939015975e+02 0.0 
0.0 0.0 -6.345605611642e+01 
-6.577724518281e+01 -8.242389799750e-03 0.0 
-8.242389799750e-03 -1.469620763216e+02 0.0 
0.0 0.0 -6.342179645133e+01 
-6.587530018187e+01 -7.474132781626e-02 0.0 
-7.474132781626e-02 -1.469464672061e+02 0.0 
0.0 0.0 -6.344653021638e+01 
-6.597395468692e+01 -1.142234914971e-01 0.0 
-1.142234914971e-01 -1.470389731411e+02 0.0 
0.0 0.0 -6.350387834841e+01 
-6.603847721443e+01 -3.352488573525e-02 0.0 
-3.352488573525e-02 -1.471323187359e+02 0.0 
0.0 0.0 -6.355123878511e+01 
-6.630098389691e+01 -5.498043826806e-02 0.0 
-5.498043826806e-02 -1.471744210835e+02 0.0 
0.0 0.0 -6.364262149412e+01 
-6.544698093982e+01 3.326777207215e-01 0.0 
3.326777207215e-01 -1.426391497199e+02 0.0 
0.0 0.0 -6.202583919790e+01 
-6.622028249289e+01 3.705935032045e-02 0.0 
3.705935032045e-02 -1.472361288385e+02 0.0 
0.0 0.0 -6.363692339942e+01 
-6.651294953420e+01 6.250431220344e-02 0.0 
6.250431220344e-02 -1.471823271417e+02 0.0 
0.0 0.0 -6.370858300277e+01 
-6.641162229425e+01 7.929208036966e-02 0.0 
7.929208036966e-02 -1.471676695931e+02 0.0 
0.0 0.0 -6.367378756621e+01 
-6.682133477536e+01 5.439360484197e-02 0.0 
5.439360484197e-02 -1.472432569303e+02 0.0 
0.0 0.0 -6.381937751171e+01 
-6.714280558407e+01 5.395973658167e-02 0.0 
5.395973658167e-02 -1.474191913117e+02 0.0 
0.0 0.0 -6.396859906872e+01 
-6.660901118522e+01 1.140680403677e-01 0.0 
1.140680403677e-01 -1.472488419806e+02 0.0 
0.0 0.0 -6.375735594975e+01 
-6.682188856795e+01 2.520964653317e-01 0.0 
2.520964653317e-01 -1.475809210014e+02 0.0 
0.0 0.0 -6.392084287079e+01 
-6.959621034413e+01 5.285966164386e-01 0.0 
5.285966164386e-01 -1.504597450014e+02 0.0 
0.0 0.0 -6.561678660365e+01 
-6.607180198325e+01 5.151808731028e-01 0.0 
5.151808731028e-01 -1.418504930511e+02 0.0 
0.0 0.0 -6.197668851029e+01 
-6.465508234338e+01 1.296759152699e+00 0.0 
1.296759152699e+00 -1.468814115320e+02 0.0 
0.0 0.0 -6.306094816263e+01 
-6.487533599854e+01 -1.577182299608e+00 0.0 
-1.577182299608e+00 -1.455842871442e+02 0.0 
0.0 0.0 -6.273788694282e+01 
-6.683770363381e+01 -7.778126217157e-02 0.0 
-7.778126217157e-02 -1.513945504851e+02 0.0 
0.0 0.0 -6.506967623566e+01 
-6.278684398008e+01 -2.592728754528e-01 0.0 
-2.592728754528e-01 -1.412534678402e+02 0.0 
0.0 0.0 -6.081209354608e+01 
-6.575629071999e+01 7.649391383459e-01 0.0 
7.649391383459e-01 -1.421134391861e+02 0.0 
0.0 0.0 -6.196091897183e+01 

TENSORS element_materi_strain_total float
-4.408514451626e-05 3.711481581585e-05 0.0 
3.711481581585e-05 6.533857155728e-04 0.0 
0.0 0.0 0.0 
-5.325337489703e-05 3.572474053796e-05 0.0 
3.572474053796e-05 6.534971061427e-04 0.0 
0.0 0.0 0.0 
-9.544896275138e-06 6.098306715055e-05 0.0 
6.098306715055e-05 1.430108714155e-03 0.0 
0.0 0.0 0.0 
-8.158185968887e-06 1.973508371937e-06 0.0 
1.973508371937e-06 1.449184414118e-03 0.0 
0.0 0.0 0.0 
-3.035915315819e-05 9.073260515107e-06 0.0 
9.073260515107e-06 1.022447726773e-03 0.0 
0.0 0.0 0.0 
2.062847391771e-05 6.303060765776e-05 0.0 
6.303060765776e-05 1.528183264812e-04 0.0 
0.0 0.0 0.0 
-2.722865409677e-05 8.796244093265e-06 0.0 
8.796244093265e-06 1.022719611824e-03 0.0 
0.0 0.0 0.0 
-4.814933825781e-05 5.115897852027e-05 0.0 
5.115897852027e-05 6.289137557343e-04 0.0 
0.0 0.0 0.0 
-3.021560333183e-05 -3.519638567471e-06 0.0 
-3.519638567471e-06 1.024042000184e-03 0.0 
0.0 0.0 0.0 
-7.540817594687e-06 1.466156833076e-05 0.0 
1.466156833076e-05 1.443919741515e-03 0.0 
0.0 0.0 0.0 
4.642460122417e-05 6.013182403533e-06 0.0 
6.013182403533e-06 7.692969892357e-04 0.0 
0.0 0.0 0.0 
-4.788058537275e-05 3.628007926125e-05 0.0 
3.628007926125e-05 6.009043323825e-04 0.0 
0.0 0.0 0.0 
1.650241018702e-05 1.404017066711e-05 0.0 
1.404017066711e-05 1.161464363192e-03 0.0 
0.0 0.0 0.0 
-3.528306029499e-05 1.509721952668e-05 0.0 
1.509721952668e-05 1.075571286972e-03 0.0 
0.0 0.0 0.0 
9.447711527333e-06 7.831006489453e-06 0.0 
7.831006489453e-06 1.192612595789e-03 0.0 
0.0 0.0 0.0 
-5.376479837116e-06 1.237328053265e-05 0.0 
1.237328053265e-05 1.473563050833e-03 0.0 
0.0 0.0 0.0 
-3.485791504398e-05 5.204098573011e-06 0.0 
5.204098573011e-06 1.008788063588e-03 0.0 
0.0 0.0 0.0 
1.425806540500e-05 2.245694622636e-05 0.0 
2.245694622636e-05 1.428531485843e-04 0.0 
0.0 0.0 0.0 
1.422118130190e-05 -5.703150721963e-06 0.0 
-5.703150721963e-06 2.173252246476e-04 0.0 
0.0 0.0 0.0 
2.106664765478e-05 1.439344781198e-06 0.0 
1.439344781198e-06 2.247566028164e-04 0.0 
0.0 0.0 0.0 
-8.773301623299e-06 5.136894261145e-06 0.0 
5.136894261145e-06 1.445531297732e-03 0.0 
0.0 0.0 0.0 
-4.820307652698e-05 2.495361184414e-05 0.0 
2.495361184414e-05 7.095878408316e-04 0.0 
0.0 0.0 0.0 
-5.266355303868e-05 2.882375731142e-05 0.0 
2.882375731142e-05 7.371000047598e-04 0.0 
0.0 0.0 0.0 
1.963976921293e-05 7.117916186788e-05 0.0 
7.117916186788e-05 1.169181173819e-03 0.0 
0.0 0.0 0.0 
-3.653814661364e-05 2.313374561380e-05 0.0 
2.313374561380e-05 1.128629841261e-03 0.0 
0.0 0.0 0.0 
4.504965689467e-05 5.044692701113e-07 0.0 
5.044692701113e-07 8.145741399321e-04 0.0 
0.0 0.0 0.0 
-4.262118273524e-05 9.000179510708e-06 0.0 
9.000179510708e-06 9.527369355673e-04 0.0 
0.0 0.0 0.0 
-7.937092835975e-06 9.958148914961e-05 0.0 
9.958148914961e-05 1.362120969186e-03 0.0 
0.0 0.0 0.0 
-4.166591610733e-05 1.454058241415e-05 0.0 
1.454058241415e-05 1.129378279912e-03 0.0 
0.0 0.0 0.0 
1.939754145108e-05 7.707252242228e-05 0.0 
7.707252242228e-05 1.191150706491e-03 0.0 
0.0 0.0 0.0 
9.371624744681e-06 1.395070994137e-06 0.0 
1.395070994137e-06 1.713088066935e-04 0.0 
0.0 0.0 0.0 
-1.399368871580e-05 -6.852537577008e-06 0.0 
-6.852537577008e-06 6.698758630219e-05 0.0 
0.0 0.0 0.0 
-1.797228513234e-05 6.306395478788e-05 0.0 
6.306395478788e-05 1.434447247793e-03 0.0 
0.0 0.0 0.0 
3.404594397893e-05 -1.543016563613e-06 0.0 
-1.543016563613e-06 9.828413413504e-04 0.0 
0.0 0.0 0.0 
1.842980124311e-05 4.367697468088e-05 0.0 
4.367697468088e-05 1.177992397333e-03 0.0 
0.0 0.0 0.0 
9.009559482465e-06 4.279978533513e-05 0.0 
4.279978533513e-05 1.231433919561e-03 0.0 
0.0 0.0 0.0 
6.760837692132e-06 2.157367479006e-05 0.0 
2.157367479006e-05 1.230127087502e-03 0.0 
0.0 0.0 0.0 
1.013136866646e-05 9.901045231749e-05 0.0 
9.901045231749e-05 1.270519649054e-03 0.0 
0.0 0.0 0.0 
-2.775775575148e-05 -6.506282751104e-06 0.0 
-6.506282751104e-06 9.609228017100e-04 0.0 
0.0 0.0 0.0 
-2.658988105952e-05 8.842047553147e-06 0.0 
8.842047553147e-06 9.634299616972e-04 0.0 
0.0 0.0 0.0 
-5.340884375982e-05 2.115952896780e-05 0.0 
2.115952896780e-05 8.098684838613e-04 0.0 
0.0 0.0 0.0 
1.179699427256e-05 5.884632269439e-05 0.0 
5.884632269439e-05 1.205977430556e-03 0.0 
0.0 0.0 0.0 
-3.699790596534e-05 5.551365228048e-05 0.0 
5.551365228048e-05 5.365853517210e-04 0.0 
0.0 0.0 0.0 
-4.384717846173e-05 1.072099317709e-05 0.0 
1.072099317709e-05 9.557845527883e-04 0.0 
0.0 0.0 0.0 
-1.122609507631e-05 -9.705594337503e-08 0.0 
-9.705594337503e-08 1.415165771897e-03 0.0 
0.0 0.0 0.0 
-5.147206336342e-05 7.160132846065e-05 0.0 
7.160132846065e-05 5.380808200111e-04 0.0 
0.0 0.0 0.0 
8.383029096226e-06 -7.810447892627e-06 0.0 
-7.810447892627e-06 1.161636134974e-04 0.0 
0.0 0.0 0.0 
-6.743217913052e-06 4.737301449774e-06 0.0 
4.737301449774e-06 1.420172411224e-03 0.0 
0.0 0.0 0.0 
-1.306778794974e-05 -8.078973898491e-06 0.0 
-8.078973898491e-06 6.802259883809e-05 0.0 
0.0 0.0 0.0 
-3.698804436580e-05 5.061760225756e-06 0.0 
5.061760225756e-06 1.048306637139e-03 0.0 
0.0 0.0 0.0 
-5.308246183489e-05 2.490641843249e-05 0.0 
2.490641843249e-05 7.739731507208e-04 0.0 
0.0 0.0 0.0 
2.179711124994e-05 -4.724514113928e-06 0.0 
-4.724514113928e-06 2.766425380698e-04 0.0 
0.0 0.0 0.0 
3.390701240757e-05 2.474897707635e-06 0.0 
2.474897707635e-06 2.415584194591e-04 0.0 
0.0 0.0 0.0 
-4.877098972877e-05 2.057376771592e-05 0.0 
2.057376771592e-05 7.764781744455e-04 0.0 
0.0 0.0 0.0 
-8.608624587958e-06 4.581703881874e-05 0.0 
4.581703881874e-05 1.449726140708e-03 0.0 
0.0 0.0 0.0 
3.104672204479e-05 -6.721866396614e-06 0.0 
-6.721866396614e-06 3.714390691862e-04 0.0 
0.0 0.0 0.0 
2.674431492222e-05 2.321938362888e-06 0.0 
2.321938362888e-06 2.861071610945e-04 0.0 
0.0 0.0 0.0 
3.495003876797e-05 8.139302452735e-06 0.0 
8.139302452735e-06 9.831077048188e-04 0.0 
0.0 0.0 0.0 
9.351848149652e-06 -4.739454566578e-06 0.0 
-4.739454566578e-06 1.627849128758e-04 0.0 
0.0 0.0 0.0 
-5.760474107053e-06 3.657453127025e-06 0.0 
3.657453127025e-06 1.473687155297e-03 0.0 
0.0 0.0 0.0 
-4.346382736131e-05 -1.108844806351e-05 0.0 
-1.108844806351e-05 6.997274042786e-05 0.0 
0.0 0.0 0.0 
4.646429652144e-07 9.983579092992e-05 0.0 
9.983579092992e-05 1.268744768279e-03 0.0 
0.0 0.0 0.0 
-4.405273068819e-05 7.005740550503e-05 0.0 
7.005740550503e-05 7.312444865892e-04 0.0 
0.0 0.0 0.0 
3.326406263726e-05 1.151909704299e-05 0.0 
1.151909704299e-05 2.075634436447e-04 0.0 
0.0 0.0 0.0 
1.591991105321e-05 1.218835374229e-05 0.0 
1.218835374229e-05 1.162007573188e-03 0.0 
0.0 0.0 0.0 
-4.973887891535e-05 2.204392270575e-05 0.0 
2.204392270575e-05 7.424395604143e-04 0.0 
0.0 0.0 0.0 
-1.759148009173e-05 -3.564913260324e-06 0.0 
-3.564913260324e-06 5.674431603730e-05 0.0 
0.0 0.0 0.0 
-1.866752617985e-05 6.466954637679e-05 0.0 
6.466954637679e-05 1.428673373770e-03 0.0 
0.0 0.0 0.0 
1.080476885540e-05 -1.829767562797e-05 0.0 
-1.829767562797e-05 1.790325757223e-04 0.0 
0.0 0.0 0.0 
-8.027940147426e-06 8.128217090601e-05 0.0 
8.128217090601e-05 1.402578613569e-03 0.0 
0.0 0.0 0.0 
4.392296838440e-05 2.794898848240e-06 0.0 
2.794898848240e-06 8.508228983202e-04 0.0 
0.0 0.0 0.0 
0.0 2.957373057527e-05 0.0 
2.957373057527e-05 1.508407813362e-03 0.0 
0.0 0.0 0.0 
-9.082562758334e-06 8.989097310391e-05 0.0 
8.989097310391e-05 1.318204217511e-03 0.0 
0.0 0.0 0.0 
3.078650814947e-06 4.393519472548e-06 0.0 
4.393519472548e-06 7.451272726700e-05 0.0 
0.0 0.0 0.0 
3.465154792703e-05 2.021086851572e-06 0.0 
2.021086851572e-06 3.879866310963e-04 0.0 
0.0 0.0 0.0 
-1.029852562207e-05 1.823925681253e-05 0.0 
1.823925681253e-05 1.451743223182e-03 0.0 
0.0 0.0 0.0 
-1.665502346593e-05 4.970208694562e-05 0.0 
4.970208694562e-05 1.448167688793e-03 0.0 
0.0 0.0 0.0 
-3.400354086069e-05 1.080246597358e-04 0.0 
1.080246597358e-04 4.321632601676e-04 0.0 
0.0 0.0 0.0 
1.546106705708e-05 -6.731508208153e-06 0.0 
-6.731508208153e-06 1.624531667208e-04 0.0 
0.0 0.0 0.0 
-2.630355985511e-05 8.766849897603e-05 0.0 
8.766849897603e-05 4.312971533698e-04 0.0 
0.0 0.0 0.0 
1.492540142922e-05 -3.187672147463e-06 0.0 
-3.187672147463e-06 1.766812108763e-04 0.0 
0.0 0.0 0.0 
-3.235875811725e-05 5.282881705961e-06 0.0 
5.282881705961e-06 1.007963998974e-03 0.0 
0.0 0.0 0.0 
-5.248621494447e-05 3.314701096635e-05 0.0 
3.314701096635e-05 7.026598656621e-04 0.0 
0.0 0.0 0.0 
-4.870625669728e-05 2.499321789260e-05 0.0 
2.499321789260e-05 6.688440814102e-04 0.0 
0.0 0.0 0.0 
-3.206408736300e-05 -9.254715297240e-07 0.0 
-9.254715297240e-07 1.057262205080e-03 0.0 
0.0 0.0 0.0 
-2.867867581635e-05 9.293467401850e-06 0.0 
9.293467401850e-06 1.057158191319e-03 0.0 
0.0 0.0 0.0 
4.126921462722e-05 3.014204270861e-07 0.0 
3.014204270861e-07 8.794248663098e-04 0.0 
0.0 0.0 0.0 
3.727585690338e-05 5.133662098419e-06 0.0 
5.133662098419e-06 9.535613853766e-04 0.0 
0.0 0.0 0.0 
-3.772093213228e-05 5.066219157537e-05 0.0 
5.066219157537e-05 1.269245680729e-03 0.0 
0.0 0.0 0.0 
-3.251022941786e-05 -2.332980666546e-06 0.0 
-2.332980666546e-06 1.019936458973e-03 0.0 
0.0 0.0 0.0 
-6.736003147712e-06 -6.420858363084e-06 0.0 
-6.420858363084e-06 6.438262550690e-05 0.0 
0.0 0.0 0.0 
-4.339394339237e-05 1.320966886137e-05 0.0 
1.320966886137e-05 1.011905349608e-03 0.0 
0.0 0.0 0.0 
-1.746235284350e-05 1.110856184394e-07 0.0 
1.110856184394e-07 1.271459387429e-03 0.0 
0.0 0.0 0.0 
-1.908260664851e-05 6.103964542187e-06 0.0 
6.103964542187e-06 1.260223753653e-03 0.0 
0.0 0.0 0.0 
-7.553167127639e-06 3.203704707026e-05 0.0 
3.203704707026e-05 1.508075011251e-03 0.0 
0.0 0.0 0.0 
5.855190432502e-07 9.652913256794e-05 0.0 
9.652913256794e-05 1.315327575478e-03 0.0 
0.0 0.0 0.0 
-3.506808851717e-05 3.033011607776e-06 0.0 
3.033011607776e-06 1.006856147072e-03 0.0 
0.0 0.0 0.0 
1.804495634961e-05 5.830085738507e-05 0.0 
5.830085738507e-05 1.204205780219e-03 0.0 
0.0 0.0 0.0 
-2.246156171370e-05 -2.798549508764e-06 0.0 
-2.798549508764e-06 1.117779147882e-03 0.0 
0.0 0.0 0.0 
-5.219528572364e-05 6.216041590145e-05 0.0 
6.216041590145e-05 7.246987625984e-04 0.0 
0.0 0.0 0.0 
-3.108470934343e-05 -1.337137640316e-06 0.0 
-1.337137640316e-06 9.919469877580e-04 0.0 
0.0 0.0 0.0 
1.020064620616e-05 1.793967972799e-05 0.0 
1.793967972799e-05 1.191979845743e-03 0.0 
0.0 0.0 0.0 
1.093647234107e-06 8.388620370591e-05 0.0 
8.388620370591e-05 1.101362801341e-03 0.0 
0.0 0.0 0.0 
-3.852458974940e-06 9.087995332858e-05 0.0 
9.087995332858e-05 1.270196449713e-03 0.0 
0.0 0.0 0.0 
-3.134125280901e-05 9.506837996521e-05 0.0 
9.506837996521e-05 6.332977143935e-04 0.0 
0.0 0.0 0.0 
-1.301922023489e-05 -6.093632807562e-06 0.0 
-6.093632807562e-06 1.246352724693e-04 0.0 
0.0 0.0 0.0 
2.404289860247e-05 2.419226793982e-06 0.0 
2.419226793982e-06 1.088149577466e-03 0.0 
0.0 0.0 0.0 
-1.690637452945e-05 5.799476568969e-06 0.0 
5.799476568969e-06 1.319212497190e-03 0.0 
0.0 0.0 0.0 
-3.703117652554e-05 -9.610284559715e-06 0.0 
-9.610284559715e-06 7.538371215832e-05 0.0 
0.0 0.0 0.0 
1.085745356821e-05 2.364587601776e-05 0.0 
2.364587601776e-05 1.186095537234e-03 0.0 
0.0 0.0 0.0 
-3.507269178027e-05 5.704516210895e-05 0.0 
5.704516210895e-05 1.229055945505e-03 0.0 
0.0 0.0 0.0 
3.413464217950e-07 -7.006836745306e-06 0.0 
-7.006836745306e-06 4.698516305068e-05 0.0 
0.0 0.0 0.0 
-1.560304813519e-05 9.674026119851e-05 0.0 
9.674026119851e-05 7.356383097104e-04 0.0 
0.0 0.0 0.0 
-5.027196569118e-05 1.410485685630e-05 0.0 
1.410485685630e-05 9.438084373594e-04 0.0 
0.0 0.0 0.0 
4.235383157192e-05 -3.379422845339e-06 0.0 
-3.379422845339e-06 4.761763254253e-04 0.0 
0.0 0.0 0.0 
-4.594065810404e-05 6.243201540508e-05 0.0 
6.243201540508e-05 6.791211212946e-04 0.0 
0.0 0.0 0.0 
-4.672870337008e-05 7.261137463279e-05 0.0 
7.261137463279e-05 7.310568725045e-04 0.0 
0.0 0.0 0.0 
1.218321042540e-05 4.763049814911e-05 0.0 
4.763049814911e-05 1.199546110843e-03 0.0 
0.0 0.0 0.0 
-2.282783286600e-05 5.353635687815e-06 0.0 
5.353635687815e-06 1.096821196479e-03 0.0 
0.0 0.0 0.0 
-3.935911266140e-05 8.055952487197e-05 0.0 
8.055952487197e-05 6.839810315735e-04 0.0 
0.0 0.0 0.0 
7.605628115970e-06 -1.847460711771e-05 0.0 
-1.847460711771e-05 1.705480003884e-04 0.0 
0.0 0.0 0.0 
-4.325170169273e-05 1.696641241127e-05 0.0 
1.696641241127e-05 1.005649117022e-03 0.0 
0.0 0.0 0.0 
-1.271708467954e-05 1.170632367687e-06 0.0 
1.170632367687e-06 1.324034983903e-03 0.0 
0.0 0.0 0.0 
-4.097857733121e-05 8.226228452749e-05 0.0 
8.226228452749e-05 6.839001664263e-04 0.0 
0.0 0.0 0.0 
-8.265045673195e-06 8.626179249298e-05 0.0 
8.626179249298e-05 2.477864416079e-04 0.0 
0.0 0.0 0.0 
-5.249670666441e-05 1.631985879906e-05 0.0 
1.631985879906e-05 8.769460510554e-04 0.0 
0.0 0.0 0.0 
3.799292286710e-05 4.440111600795e-07 0.0 
4.440111600795e-07 4.728998152828e-04 0.0 
0.0 0.0 0.0 
-4.817916650801e-05 1.815982022412e-05 0.0 
1.815982022412e-05 8.438793626191e-04 0.0 
0.0 0.0 0.0 
-6.041881475793e-06 2.866392123060e-05 0.0 
2.866392123060e-05 1.473926868676e-03 0.0 
0.0 0.0 0.0 
2.223119963451e-05 1.043960359830e-04 0.0 
1.043960359830e-04 2.307129484873e-04 0.0 
0.0 0.0 0.0 
4.577373211845e-05 8.812848772250e-06 0.0 
8.812848772250e-06 8.104794128951e-04 0.0 
0.0 0.0 0.0 
-7.799053524216e-06 1.062807904754e-05 0.0 
1.062807904754e-05 1.449441843288e-03 0.0 
0.0 0.0 0.0 
-5.074504240321e-05 4.895617544256e-05 0.0 
4.895617544256e-05 8.592476535534e-04 0.0 
0.0 0.0 0.0 
-5.313550736419e-05 1.792123928007e-05 0.0 
1.792123928007e-05 8.442022326725e-04 0.0 
0.0 0.0 0.0 
2.130217509899e-05 5.625648464631e-05 0.0 
5.625648464631e-05 1.178244910111e-03 0.0 
0.0 0.0 0.0 
1.544901473172e-05 1.265591526547e-06 0.0 
1.265591526547e-06 1.163911799820e-03 0.0 
0.0 0.0 0.0 
4.219073004741e-05 9.875791075212e-06 0.0 
9.875791075212e-06 8.796839724607e-04 0.0 
0.0 0.0 0.0 
-5.514616651214e-05 4.484638267453e-05 0.0 
4.484638267453e-05 8.983262568008e-04 0.0 
0.0 0.0 0.0 
1.753316403952e-05 7.660705245333e-05 0.0 
7.660705245333e-05 1.229547158708e-03 0.0 
0.0 0.0 0.0 
-5.155700766146e-05 3.882202918764e-05 0.0 
3.882202918764e-05 8.444178404818e-04 0.0 
0.0 0.0 0.0 
-4.278499775245e-06 1.662809991828e-05 0.0 
1.662809991828e-05 1.463633895714e-03 0.0 
0.0 0.0 0.0 
-1.420246937422e-05 8.498538216508e-05 0.0 
8.498538216508e-05 1.408059649972e-03 0.0 
0.0 0.0 0.0 
-3.910501344140e-05 5.977285061423e-06 0.0 
5.977285061423e-06 1.073795321350e-03 0.0 
0.0 0.0 0.0 
-2.124641854528e-05 9.239678015712e-06 0.0 
9.239678015712e-06 1.195221358041e-03 0.0 
0.0 0.0 0.0 
-5.635959555017e-05 3.979206387749e-05 0.0 
3.979206387749e-05 8.443791947086e-04 0.0 
0.0 0.0 0.0 
-4.901472460972e-05 1.923104340795e-05 0.0 
1.923104340795e-05 8.103511632569e-04 0.0 
0.0 0.0 0.0 
-4.902690299380e-05 5.412477682055e-05 0.0 
5.412477682055e-05 9.123914254936e-04 0.0 
0.0 0.0 0.0 
-2.678459378858e-05 9.464078646010e-05 0.0 
9.464078646010e-05 6.853632655388e-04 0.0 
0.0 0.0 0.0 
-2.879466241190e-05 -2.546365213814e-06 0.0 
-2.546365213814e-06 1.000496435083e-03 0.0 
0.0 0.0 0.0 
-1.132091185729e-05 9.304815998757e-05 0.0 
9.304815998757e-05 7.360748489480e-04 0.0 
0.0 0.0 0.0 
-3.716462076198e-06 -1.041369467197e-05 0.0 
-1.041369467197e-05 6.119619256051e-05 0.0 
0.0 0.0 0.0 
-2.524924151948e-05 4.454072020146e-07 0.0 
4.454072020146e-07 1.047945343276e-03 0.0 
0.0 0.0 0.0 
1.396985746371e-05 -1.887036670550e-06 0.0 
-1.887036670550e-06 1.654252795733e-04 0.0 
0.0 0.0 0.0 
-5.157034201830e-05 1.502218494409e-05 0.0 
1.502218494409e-05 9.105864174537e-04 0.0 
0.0 0.0 0.0 
1.087133530775e-05 6.945566078143e-05 0.0 
6.945566078143e-05 1.223675023100e-03 0.0 
0.0 0.0 0.0 
-3.306325946462e-05 9.197443521987e-05 0.0 
9.197443521987e-05 6.335286826173e-04 0.0 
0.0 0.0 0.0 
4.001301745249e-05 8.226912106454e-06 0.0 
8.226912106454e-06 9.146459370255e-04 0.0 
0.0 0.0 0.0 
-5.297455319608e-05 5.577174920682e-05 0.0 
5.577174920682e-05 5.771914346886e-04 0.0 
0.0 0.0 0.0 
1.950340615231e-06 9.367017600853e-05 0.0 
9.367017600853e-05 1.100476481745e-03 0.0 
0.0 0.0 0.0 
-2.630382943059e-05 1.089537708790e-06 0.0 
1.089537708790e-06 1.005413400158e-03 0.0 
0.0 0.0 0.0 
-4.970940407523e-06 1.027592829610e-04 0.0 
1.027592829610e-04 6.777226230401e-04 0.0 
0.0 0.0 0.0 
3.124480233407e-05 1.355097998467e-06 0.0 
1.355097998467e-06 1.017175674593e-03 0.0 
0.0 0.0 0.0 
1.242547206659e-05 -5.541242593329e-06 0.0 
-5.541242593329e-06 1.680612495063e-04 0.0 
0.0 0.0 0.0 
2.529082062508e-05 1.341936509405e-05 0.0 
1.341936509405e-05 1.086983662355e-03 0.0 
0.0 0.0 0.0 
-4.886765926426e-05 2.948002052756e-05 0.0 
2.948002052756e-05 9.874146855566e-04 0.0 
0.0 0.0 0.0 
1.676303864739e-05 2.421718340151e-05 0.0 
2.421718340151e-05 1.182993938847e-03 0.0 
0.0 0.0 0.0 
-2.519873957885e-05 9.344097395983e-07 0.0 
9.344097395983e-07 1.001400894816e-03 0.0 
0.0 0.0 0.0 
-2.155904626278e-05 9.901928139730e-05 0.0 
9.901928139730e-05 6.261448628435e-04 0.0 
0.0 0.0 0.0 
-4.637174056732e-05 1.697372710693e-05 0.0 
1.697372710693e-05 9.096374846782e-04 0.0 
0.0 0.0 0.0 
4.483905073482e-05 -1.158711767125e-06 0.0 
-1.158711767125e-06 7.740630361266e-04 0.0 
0.0 0.0 0.0 
-3.892745253098e-05 4.735271871458e-05 0.0 
4.735271871458e-05 5.745639988821e-04 0.0 
0.0 0.0 0.0 
5.998445173905e-07 9.611534710531e-05 0.0 
9.611534710531e-05 6.785976551624e-04 0.0 
0.0 0.0 0.0 
-2.128465070783e-05 -7.197006276182e-07 0.0 
-7.197006276182e-07 1.228564893822e-03 0.0 
0.0 0.0 0.0 
-2.719249011873e-05 4.506235299712e-06 0.0 
4.506235299712e-06 1.001567334138e-03 0.0 
0.0 0.0 0.0 
-1.862236172101e-05 9.761522131236e-05 0.0 
9.761522131236e-05 6.789820390423e-04 0.0 
0.0 0.0 0.0 
-4.820829472796e-05 1.708212547476e-05 0.0 
1.708212547476e-05 8.764805376331e-04 0.0 
0.0 0.0 0.0 
-2.431098459632e-05 7.608156914611e-05 0.0 
7.608156914611e-05 1.282278432841e-03 0.0 
0.0 0.0 0.0 
4.239869302647e-05 -1.406362192693e-06 0.0 
-1.406362192693e-06 5.306205460736e-04 0.0 
0.0 0.0 0.0 
-2.260703272139e-06 9.674518098874e-05 0.0 
9.674518098874e-05 1.356062947024e-03 0.0 
0.0 0.0 0.0 
-1.526613387959e-05 8.683180421902e-05 0.0 
8.683180421902e-05 1.398693545305e-03 0.0 
0.0 0.0 0.0 
-5.344080988723e-05 5.644605148149e-05 0.0 
5.644605148149e-05 6.763381416364e-04 0.0 
0.0 0.0 0.0 
4.604516654338e-05 1.495807211899e-06 0.0 
1.495807211899e-06 5.328299805996e-04 0.0 
0.0 0.0 0.0 
2.154868032478e-05 7.396364915068e-05 0.0 
7.396364915068e-05 1.129572488315e-03 0.0 
0.0 0.0 0.0 
-5.585065823177e-05 3.019233541299e-05 0.0 
3.019233541299e-05 8.279834244540e-04 0.0 
0.0 0.0 0.0 
-4.894243376596e-05 5.279863431950e-05 0.0 
5.279863431950e-05 6.329253873689e-04 0.0 
0.0 0.0 0.0 
-4.767792148241e-05 2.306613243613e-05 0.0 
2.306613243613e-05 9.658971034734e-04 0.0 
0.0 0.0 0.0 
-2.350896699033e-05 9.243335760870e-05 0.0 
9.243335760870e-05 7.378370853375e-04 0.0 
0.0 0.0 0.0 
-5.395756278115e-06 1.481696077069e-05 0.0 
1.481696077069e-05 1.462487006583e-03 0.0 
0.0 0.0 0.0 
-3.417677482354e-05 4.979275174594e-05 0.0 
4.979275174594e-05 1.247742653972e-03 0.0 
0.0 0.0 0.0 
2.837909299069e-05 9.639553092288e-06 0.0 
9.639553092288e-06 1.052654204778e-03 0.0 
0.0 0.0 0.0 
-4.665982870700e-05 8.871816365838e-05 0.0 
8.871816365838e-05 4.910809509888e-04 0.0 
0.0 0.0 0.0 
1.372083538986e-05 9.617628618177e-05 0.0 
9.617628618177e-05 6.193430021844e-04 0.0 
0.0 0.0 0.0 
-3.168522828689e-05 5.629121655820e-05 0.0 
5.629121655820e-05 1.267703527496e-03 0.0 
0.0 0.0 0.0 
-7.250102028944e-05 2.058869202583e-05 0.0 
2.058869202583e-05 5.642062867528e-05 0.0 
0.0 0.0 0.0 
-5.093137275025e-05 2.874022379936e-05 0.0 
2.874022379936e-05 8.280106794598e-04 0.0 
0.0 0.0 0.0 
3.277409993729e-05 6.042156874723e-05 0.0 
6.042156874723e-05 1.035097098118e-03 0.0 
0.0 0.0 0.0 
3.107449980666e-06 -7.882548318340e-06 0.0 
-7.882548318340e-06 1.132816924945e-04 0.0 
0.0 0.0 0.0 
-1.331216655809e-05 5.826461059313e-05 0.0 
5.826461059313e-05 1.429382661659e-03 0.0 
0.0 0.0 0.0 
-3.724826370211e-05 3.252042002493e-05 0.0 
3.252042002493e-05 1.181851460713e-03 0.0 
0.0 0.0 0.0 
5.665905828689e-05 1.551164484664e-05 0.0 
1.551164484664e-05 5.066562993743e-04 0.0 
0.0 0.0 0.0 
3.600407692539e-05 7.370487009137e-05 0.0 
7.370487009137e-05 1.034190174604e-03 0.0 
0.0 0.0 0.0 
-4.375057778594e-05 1.706691214627e-05 0.0 
1.706691214627e-05 1.056259377053e-03 0.0 
0.0 0.0 0.0 
-3.963600296419e-05 1.273630988521e-05 0.0 
1.273630988521e-05 1.107677721870e-03 0.0 
0.0 0.0 0.0 
1.595211413452e-05 6.828310154014e-05 0.0 
6.828310154014e-05 1.188912926031e-03 0.0 
0.0 0.0 0.0 
4.249004901768e-05 2.028785016997e-06 0.0 
2.028785016997e-06 3.709461202424e-04 0.0 
0.0 0.0 0.0 
-4.519231921807e-05 6.350202559501e-05 0.0 
6.350202559501e-05 9.241926533654e-04 0.0 
0.0 0.0 0.0 
-4.913045414290e-05 3.635017798812e-05 0.0 
3.635017798812e-05 1.008038075521e-03 0.0 
0.0 0.0 0.0 
-3.923373576886e-05 2.565406858508e-05 0.0 
2.565406858508e-05 1.217416327440e-03 0.0 
0.0 0.0 0.0 
-5.234379567243e-05 2.447769795047e-05 0.0 
2.447769795047e-05 1.022750890622e-03 0.0 
0.0 0.0 0.0 
-5.255616993227e-05 1.982815975028e-05 0.0 
1.982815975028e-05 9.658787566862e-04 0.0 
0.0 0.0 0.0 
9.062511026281e-06 8.260867602079e-05 0.0 
8.260867602079e-05 9.881364176922e-04 0.0 
0.0 0.0 0.0 
-3.311515698179e-05 6.372845517838e-05 0.0 
6.372845517838e-05 1.265052282690e-03 0.0 
0.0 0.0 0.0 
-3.340865707857e-05 2.197577672745e-05 0.0 
2.197577672745e-05 8.809902477513e-05 0.0 
0.0 0.0 0.0 
-4.655686521082e-05 4.794433401083e-05 0.0 
4.794433401083e-05 6.752716045895e-04 0.0 
0.0 0.0 0.0 
-4.857087281207e-05 5.546383173937e-05 0.0 
5.546383173937e-05 7.257659343121e-04 0.0 
0.0 0.0 0.0 
-5.207112021699e-05 5.441517204161e-05 0.0 
5.441517204161e-05 9.123660075792e-04 0.0 
0.0 0.0 0.0 
-3.630203128180e-05 4.259558361722e-05 0.0 
4.259558361722e-05 1.286075775253e-03 0.0 
0.0 0.0 0.0 
4.663909944824e-05 7.150843056829e-05 0.0 
7.150843056829e-05 2.183403405267e-04 0.0 
0.0 0.0 0.0 
3.823658458546e-05 5.399965715391e-05 0.0 
5.399965715391e-05 9.874717014557e-04 0.0 
0.0 0.0 0.0 
-2.716761547861e-05 -4.239204479172e-06 0.0 
-4.239204479172e-06 9.969856496401e-04 0.0 
0.0 0.0 0.0 
7.529401300665e-06 1.056262294834e-04 0.0 
1.056262294834e-04 6.180430103462e-04 0.0 
0.0 0.0 0.0 
4.285765487411e-05 4.748775633623e-05 0.0 
4.748775633623e-05 9.414409182305e-04 0.0 
0.0 0.0 0.0 
-5.460227370024e-06 -1.191573010482e-05 0.0 
-1.191573010482e-05 7.469992833742e-05 0.0 
0.0 0.0 0.0 
-3.347490751571e-05 3.763278716448e-05 0.0 
3.763278716448e-05 1.240153287846e-03 0.0 
0.0 0.0 0.0 
-9.936308422165e-06 -2.685051766105e-06 0.0 
-2.685051766105e-06 5.824203073890e-05 0.0 
0.0 0.0 0.0 
9.029516726988e-06 -6.328811536683e-06 0.0 
-6.328811536683e-06 1.133714458335e-04 0.0 
0.0 0.0 0.0 
-3.130514099858e-05 7.047386599268e-05 0.0 
7.047386599268e-05 4.901481037904e-04 0.0 
0.0 0.0 0.0 
3.543302595732e-05 -1.857434004800e-06 0.0 
-1.857434004800e-06 3.102982760275e-04 0.0 
0.0 0.0 0.0 
-3.496045893725e-05 3.027476751490e-05 0.0 
3.027476751490e-05 1.275637570820e-03 0.0 
0.0 0.0 0.0 
2.817574215563e-05 -1.411071325631e-05 0.0 
-1.411071325631e-05 2.906364597275e-04 0.0 
0.0 0.0 0.0 
-1.093290144671e-05 1.130475590599e-04 0.0 
1.130475590599e-04 4.540634688535e-04 0.0 
0.0 0.0 0.0 
2.524543989324e-05 -1.020517992491e-05 0.0 
-1.020517992491e-05 2.258896393810e-04 0.0 
0.0 0.0 0.0 
1.574851105923e-05 -4.815752989741e-06 0.0 
-4.815752989741e-06 1.924619659872e-04 0.0 
0.0 0.0 0.0 
2.997452858344e-05 7.817389187268e-05 0.0 
7.817389187268e-05 1.079735880370e-03 0.0 
0.0 0.0 0.0 
-5.384041454615e-05 2.608257888704e-05 0.0 
2.608257888704e-05 9.875484921991e-04 0.0 
0.0 0.0 0.0 
1.739671411904e-05 2.361622333613e-05 0.0 
2.361622333613e-05 1.162636292261e-03 0.0 
0.0 0.0 0.0 
-3.287627551485e-05 8.922658696408e-06 0.0 
8.922658696408e-06 3.107539831237e-05 0.0 
0.0 0.0 0.0 
-9.403040795108e-06 1.116612128338e-04 0.0 
1.116612128338e-04 5.073348783209e-04 0.0 
0.0 0.0 0.0 
7.621182839257e-06 1.018156031287e-04 0.0 
1.018156031287e-04 6.804846955966e-04 0.0 
0.0 0.0 0.0 
-5.061934067419e-05 3.230428608666e-05 0.0 
3.230428608666e-05 7.899215144758e-04 0.0 
0.0 0.0 0.0 
4.121911385591e-05 6.674725840415e-05 0.0 
6.674725840415e-05 9.865936798190e-04 0.0 
0.0 0.0 0.0 
1.576392758951e-05 3.209889612379e-05 0.0 
3.209889612379e-05 1.190251603978e-03 0.0 
0.0 0.0 0.0 
-4.147805772103e-05 3.773166671202e-05 0.0 
3.773166671202e-05 1.228365205141e-03 0.0 
0.0 0.0 0.0 
2.799174953538e-05 9.350520483203e-05 0.0 
9.350520483203e-05 4.931662278316e-04 0.0 
0.0 0.0 0.0 
2.708297579734e-05 6.765440697882e-05 0.0 
6.765440697882e-05 1.079808291904e-03 0.0 
0.0 0.0 0.0 
4.348163862011e-05 8.971844343621e-06 0.0 
8.971844343621e-06 8.436033739154e-04 0.0 
0.0 0.0 0.0 
-5.301154261572e-05 4.920203156010e-05 0.0 
4.920203156010e-05 9.518471447860e-04 0.0 
0.0 0.0 0.0 
-3.677028953353e-05 3.802986993807e-05 0.0 
3.802986993807e-05 1.204392331954e-03 0.0 
0.0 0.0 0.0 
-6.361285592504e-06 9.209759989175e-05 0.0 
9.209759989175e-05 1.307698079177e-03 0.0 
0.0 0.0 0.0 
1.289710570163e-05 9.265789066643e-05 0.0 
9.265789066643e-05 6.818021063757e-04 0.0 
0.0 0.0 0.0 
-2.126374301248e-05 1.084768457523e-04 0.0 
1.084768457523e-04 5.236216922659e-04 0.0 
0.0 0.0 0.0 
-5.071224757036e-05 2.942409145316e-05 0.0 
2.942409145316e-05 1.079083144899e-03 0.0 
0.0 0.0 0.0 
-5.761124160064e-06 3.120285434197e-05 0.0 
3.120285434197e-05 1.511107097703e-03 0.0 
0.0 0.0 0.0 
-4.698068018361e-05 6.299228244446e-05 0.0 
6.299228244446e-05 9.242639918254e-04 0.0 
0.0 0.0 0.0 
2.046148206136e-05 8.314166252406e-05 0.0 
8.314166252406e-05 8.117735323301e-04 0.0 
0.0 0.0 0.0 
-2.635642586457e-05 6.160737440205e-07 0.0 
6.160737440205e-07 1.060384114610e-03 0.0 
0.0 0.0 0.0 
3.706885089327e-06 -1.560709844761e-05 0.0 
-1.560709844761e-05 1.629376217007e-04 0.0 
0.0 0.0 0.0 
-4.754641589777e-05 2.844925961243e-05 0.0 
2.844925961243e-05 1.022094164263e-03 0.0 
0.0 0.0 0.0 
2.319461853939e-05 1.074842318233e-04 0.0 
1.074842318233e-04 4.910848883610e-04 0.0 
0.0 0.0 0.0 
4.883134139821e-05 8.077274706429e-05 0.0 
8.077274706429e-05 2.921539547311e-04 0.0 
0.0 0.0 0.0 
2.319162514741e-05 -7.977409109686e-06 0.0 
-7.977409109686e-06 1.752454796979e-04 0.0 
0.0 0.0 0.0 
-2.997804302673e-05 3.687950329882e-05 0.0 
3.687950329882e-05 1.274766268152e-03 0.0 
0.0 0.0 0.0 
-5.254420861478e-05 3.134774687026e-05 0.0 
3.134774687026e-05 1.043972261268e-03 0.0 
0.0 0.0 0.0 
-3.061070817278e-05 9.037991592130e-05 0.0 
9.037991592130e-05 6.860730745184e-04 0.0 
0.0 0.0 0.0 
-3.088978019716e-05 2.911610340488e-05 0.0 
2.911610340488e-05 1.309828147468e-03 0.0 
0.0 0.0 0.0 
-3.975650513488e-05 4.395080546135e-05 0.0 
4.395080546135e-05 1.248989404544e-03 0.0 
0.0 0.0 0.0 
-5.323855142569e-05 4.493216002149e-05 0.0 
4.493216002149e-05 9.899057478444e-04 0.0 
0.0 0.0 0.0 
1.187106027056e-05 3.791510302302e-05 0.0 
3.791510302302e-05 1.193898205548e-03 0.0 
0.0 0.0 0.0 
2.484042114936e-05 8.932292008189e-05 0.0 
8.932292008189e-05 8.204646581345e-04 0.0 
0.0 0.0 0.0 
-5.278707315726e-05 4.133561993295e-05 0.0 
4.133561993295e-05 1.027211298674e-03 0.0 
0.0 0.0 0.0 
-2.076309095023e-05 8.920522041460e-05 0.0 
8.920522041460e-05 7.922492558834e-04 0.0 
0.0 0.0 0.0 
1.871264675879e-05 8.156359696763e-05 0.0 
8.156359696763e-05 8.746960614550e-04 0.0 
0.0 0.0 0.0 
4.889740431646e-05 8.591476261836e-05 0.0 
8.591476261836e-05 3.614949691026e-04 0.0 
0.0 0.0 0.0 
-4.201109512092e-05 1.099521492238e-05 0.0 
1.099521492238e-05 1.008302772537e-03 0.0 
0.0 0.0 0.0 
2.350735000745e-05 8.726504852183e-05 0.0 
8.726504852183e-05 6.860498101997e-04 0.0 
0.0 0.0 0.0 
5.288380911739e-05 3.306093917383e-05 0.0 
3.306093917383e-05 4.127534335370e-04 0.0 
0.0 0.0 0.0 
-3.585449573507e-05 4.374887223232e-05 0.0 
4.374887223232e-05 1.227174699257e-03 0.0 
0.0 0.0 0.0 
-8.710849420457e-05 8.543089797171e-07 0.0 
8.543089797171e-07 5.516582483489e-05 0.0 
0.0 0.0 0.0 
-5.045230895528e-05 2.291901174249e-05 0.0 
2.291901174249e-05 1.057036085534e-03 0.0 
0.0 0.0 0.0 
3.522655022858e-05 9.881224789446e-05 0.0 
9.881224789446e-05 4.930684283573e-04 0.0 
0.0 0.0 0.0 
-1.759604995821e-06 1.098064783753e-04 0.0 
1.098064783753e-04 5.075556885701e-04 0.0 
0.0 0.0 0.0 
4.432633092044e-05 6.363143635615e-05 0.0 
6.363143635615e-05 3.653092834901e-04 0.0 
0.0 0.0 0.0 
-4.522989314837e-05 4.025180342908e-05 0.0 
4.025180342908e-05 1.099228142583e-03 0.0 
0.0 0.0 0.0 
-5.122188937445e-06 -1.533069938136e-05 0.0 
-1.533069938136e-05 1.135409089934e-04 0.0 
0.0 0.0 0.0 
-5.043412856687e-05 4.869469929715e-05 0.0 
4.869469929715e-05 7.677993819055e-04 0.0 
0.0 0.0 0.0 
2.305948886527e-05 8.825668557797e-05 0.0 
8.825668557797e-05 8.849979014209e-04 0.0 
0.0 0.0 0.0 
-4.770695938716e-05 3.481820396081e-05 0.0 
3.481820396081e-05 1.043335078765e-03 0.0 
0.0 0.0 0.0 
-4.216188161565e-05 1.388793663647e-05 0.0 
1.388793663647e-05 1.060755708968e-03 0.0 
0.0 0.0 0.0 
3.714513391895e-05 5.096307766918e-05 0.0 
5.096307766918e-05 1.691170278142e-04 0.0 
0.0 0.0 0.0 
5.984494243028e-05 5.303139989096e-05 0.0 
5.303139989096e-05 4.096349008527e-04 0.0 
0.0 0.0 0.0 
4.960030889722e-05 1.899418573167e-05 0.0 
1.899418573167e-05 3.671213874461e-04 0.0 
0.0 0.0 0.0 
-5.444862265025e-05 4.774822445271e-05 0.0 
4.774822445271e-05 7.156620445514e-04 0.0 
0.0 0.0 0.0 
-4.247574698835e-05 3.147223075037e-05 0.0 
3.147223075037e-05 1.205671338856e-03 0.0 
0.0 0.0 0.0 
-5.463133779615e-05 5.329923518922e-05 0.0 
5.329923518922e-05 7.671337445589e-04 0.0 
0.0 0.0 0.0 
3.042455112623e-05 9.467469070239e-05 0.0 
9.467469070239e-05 6.258171914524e-04 0.0 
0.0 0.0 0.0 
1.997262171627e-05 1.011419732998e-04 0.0 
1.011419732998e-04 6.204279608433e-04 0.0 
0.0 0.0 0.0 
2.913595450482e-05 4.394753809216e-05 0.0 
4.394753809216e-05 2.283527547318e-04 0.0 
0.0 0.0 0.0 
-1.369614031543e-05 9.483744750444e-05 0.0 
9.483744750444e-05 7.939937584343e-04 0.0 
0.0 0.0 0.0 
-9.031163665019e-06 1.141863276031e-04 0.0 
1.141863276031e-04 4.002923814679e-04 0.0 
0.0 0.0 0.0 
-8.290748321205e-06 5.179382426740e-05 0.0 
5.179382426740e-05 1.497167605235e-03 0.0 
0.0 0.0 0.0 
-1.061654349510e-05 6.149074744100e-05 0.0 
6.149074744100e-05 1.486166988413e-03 0.0 
0.0 0.0 0.0 
-3.973532657775e-05 7.188871010596e-05 0.0 
7.188871010596e-05 9.347258141974e-04 0.0 
0.0 0.0 0.0 
3.789110423691e-05 9.969845551534e-05 0.0 
9.969845551534e-05 4.251018809602e-04 0.0 
0.0 0.0 0.0 
1.491333160542e-05 1.059502807032e-04 0.0 
1.059502807032e-04 4.359776211575e-04 0.0 
0.0 0.0 0.0 
-4.658228679089e-05 5.160309850244e-05 0.0 
5.160309850244e-05 1.044036027720e-03 0.0 
0.0 0.0 0.0 
2.878992272715e-05 9.420418550633e-05 0.0 
9.420418550633e-05 4.281376235664e-04 0.0 
0.0 0.0 0.0 
5.860162899229e-05 3.892946128529e-05 0.0 
3.892946128529e-05 3.639725244950e-04 0.0 
0.0 0.0 0.0 
-4.947254085841e-05 4.979938711745e-05 0.0 
4.979938711745e-05 9.517129526992e-04 0.0 
0.0 0.0 0.0 
-1.091527360153e-05 1.761886633755e-05 0.0 
1.761886633755e-05 1.464827202395e-03 0.0 
0.0 0.0 0.0 
2.150740767748e-05 1.045388577628e-04 0.0 
1.045388577628e-04 5.559375584416e-04 0.0 
0.0 0.0 0.0 
7.318806451995e-06 9.151997799072e-05 0.0 
9.151997799072e-05 9.870715819635e-04 0.0 
0.0 0.0 0.0 
9.092472275762e-06 1.178782597810e-04 0.0 
1.178782597810e-04 3.740864101049e-04 0.0 
0.0 0.0 0.0 
9.351499967947e-06 8.896925830644e-05 0.0 
8.896925830644e-05 1.301092926159e-03 0.0 
0.0 0.0 0.0 
2.529030254128e-05 1.099516035085e-04 0.0 
1.099516035085e-04 4.256171274521e-04 0.0 
0.0 0.0 0.0 
-4.643899017776e-05 5.871855458783e-05 0.0 
5.871855458783e-05 9.656181368063e-04 0.0 
0.0 0.0 0.0 
4.918050365510e-05 6.036358696443e-05 0.0 
6.036358696443e-05 2.350446019785e-04 0.0 
0.0 0.0 0.0 
4.379305484514e-05 7.058702313006e-05 0.0 
7.058702313006e-05 8.771881226384e-04 0.0 
0.0 0.0 0.0 
1.870654714642e-05 9.767715004331e-05 0.0 
9.767715004331e-05 6.844211511210e-04 0.0 
0.0 0.0 0.0 
5.869978321416e-05 3.263846029063e-05 0.0 
3.263846029063e-05 3.875706676184e-04 0.0 
0.0 0.0 0.0 
-5.394426671557e-05 3.361065854855e-05 0.0 
3.361065854855e-05 1.008409184917e-03 0.0 
0.0 0.0 0.0 
-8.564634010777e-06 7.916995559160e-05 0.0 
7.916995559160e-05 1.470543321219e-03 0.0 
0.0 0.0 0.0 
3.262515444846e-05 9.686815957169e-05 0.0 
9.686815957169e-05 5.599541596246e-04 0.0 
0.0 0.0 0.0 
2.525613207216e-05 7.786106140813e-05 0.0 
7.786106140813e-05 8.864503815238e-04 0.0 
0.0 0.0 0.0 
1.364731261377e-05 1.068220777870e-04 0.0 
1.068220777870e-04 3.755753395003e-04 0.0 
0.0 0.0 0.0 
-3.087982552719e-05 1.956771304288e-05 0.0 
1.956771304288e-05 1.171702121403e-03 0.0 
0.0 0.0 0.0 
4.593175451784e-05 5.960265773542e-05 0.0 
5.960265773542e-05 9.398985388731e-04 0.0 
0.0 0.0 0.0 
-3.514538166505e-05 9.636650908999e-05 0.0 
9.636650908999e-05 5.833672822348e-04 0.0 
0.0 0.0 0.0 
-3.438713167803e-05 8.349152757155e-06 0.0 
8.349152757155e-06 1.145597771250e-03 0.0 
0.0 0.0 0.0 
-7.072174201705e-06 9.570017591882e-05 0.0 
9.570017591882e-05 1.442354678808e-03 0.0 
0.0 0.0 0.0 
3.964708542248e-05 6.251678611221e-05 0.0 
6.251678611221e-05 1.009498813356e-03 0.0 
0.0 0.0 0.0 
-9.596101416709e-06 7.340824687361e-05 0.0 
7.340824687361e-05 1.476778120414e-03 0.0 
0.0 0.0 0.0 
-3.711124512307e-05 1.134897980691e-05 0.0 
1.134897980691e-05 1.138600448138e-03 0.0 
0.0 0.0 0.0 
-4.024650579426e-05 5.231114474350e-05 0.0 
5.231114474350e-05 1.230065045443e-03 0.0 
0.0 0.0 0.0 
-4.080084357749e-05 9.440890505775e-05 0.0 
9.440890505775e-05 5.376619731126e-04 0.0 
0.0 0.0 0.0 
-5.506796495280e-05 2.855053027476e-05 0.0 
2.855053027476e-05 9.529113563100e-04 0.0 
0.0 0.0 0.0 
-4.836182444934e-05 4.393428107649e-05 0.0 
4.393428107649e-05 1.026818112283e-03 0.0 
0.0 0.0 0.0 
-5.174938894026e-05 3.840950235272e-05 0.0 
3.840950235272e-05 1.063842397075e-03 0.0 
0.0 0.0 0.0 
-4.358431949247e-05 6.936732816719e-05 0.0 
6.936732816719e-05 8.816176644555e-04 0.0 
0.0 0.0 0.0 
-5.388283030539e-06 1.030454144555e-04 0.0 
1.030454144555e-04 1.420607902823e-03 0.0 
0.0 0.0 0.0 
-3.944201025696e-05 2.243647390109e-05 0.0 
2.243647390109e-05 1.101790981041e-03 0.0 
0.0 0.0 0.0 
-5.119388324615e-05 1.845962263293e-05 0.0 
1.845962263293e-05 1.000655026921e-03 0.0 
0.0 0.0 0.0 
2.503566874967e-05 8.948279722676e-05 0.0 
8.948279722676e-05 6.221651180645e-04 0.0 
0.0 0.0 0.0 
2.638285163714e-05 -3.624264483238e-06 0.0 
-3.624264483238e-06 2.515747580740e-04 0.0 
0.0 0.0 0.0 
-5.399630141523e-05 2.101648128804e-05 0.0 
2.101648128804e-05 9.313255346102e-04 0.0 
0.0 0.0 0.0 
-2.348607779612e-05 1.012164964646e-04 0.0 
1.012164964646e-04 5.735513903562e-04 0.0 
0.0 0.0 0.0 
-2.620907161788e-05 -1.692997738146e-07 0.0 
-1.692997738146e-07 1.003908935171e-03 0.0 
0.0 0.0 0.0 
5.044745942029e-05 1.440252181490e-05 0.0 
1.440252181490e-05 3.903229245814e-04 0.0 
0.0 0.0 0.0 
2.654165098415e-05 9.163137821552e-05 0.0 
9.163137821552e-05 5.577537259240e-04 0.0 
0.0 0.0 0.0 
-3.234987622869e-05 4.328914411227e-05 0.0 
4.328914411227e-05 1.262988463906e-03 0.0 
0.0 0.0 0.0 
-1.794721471460e-05 1.050576300145e-04 0.0 
1.050576300145e-04 5.730277149889e-04 0.0 
0.0 0.0 0.0 
-5.020770907782e-05 3.860044867527e-05 0.0 
3.860044867527e-05 9.721162320937e-04 0.0 
0.0 0.0 0.0 
2.908553979952e-05 8.437343485121e-05 0.0 
8.437343485121e-05 8.973268640950e-04 0.0 
0.0 0.0 0.0 
5.913180345130e-05 3.835868592516e-05 0.0 
3.835868592516e-05 7.167974703295e-04 0.0 
0.0 0.0 0.0 
2.015049609394e-07 1.089697194971e-04 0.0 
1.089697194971e-04 1.384538784529e-03 0.0 
0.0 0.0 0.0 
-5.544137567037e-05 2.631743261565e-05 0.0 
2.631743261565e-05 8.635966469974e-04 0.0 
0.0 0.0 0.0 
5.790014174112e-05 6.245015077771e-05 0.0 
6.245015077771e-05 3.899089590416e-04 0.0 
0.0 0.0 0.0 
5.126689650758e-05 4.107496082210e-06 0.0 
4.107496082210e-06 4.849644761868e-04 0.0 
0.0 0.0 0.0 
-5.232331815685e-05 6.685438085956e-05 0.0 
6.685438085956e-05 6.309247816991e-04 0.0 
0.0 0.0 0.0 
-3.580046333396e-05 8.723525423723e-05 0.0 
8.723525423723e-05 5.843739267946e-04 0.0 
0.0 0.0 0.0 
-3.377848557540e-05 4.901402040223e-05 0.0 
4.901402040223e-05 1.306242832084e-03 0.0 
0.0 0.0 0.0 
-5.017842670074e-05 5.283123269755e-05 0.0 
5.283123269755e-05 1.005601580957e-03 0.0 
0.0 0.0 0.0 
-5.627428785238e-05 3.380087641232e-05 0.0 
3.380087641232e-05 7.898069682162e-04 0.0 
0.0 0.0 0.0 
-5.092523706096e-05 3.296488517096e-05 0.0 
3.296488517096e-05 9.175218281745e-04 0.0 
0.0 0.0 0.0 
5.779502545211e-06 1.031116140991e-04 0.0 
1.031116140991e-04 1.332014913512e-03 0.0 
0.0 0.0 0.0 
7.512705283874e-06 9.340872416131e-05 0.0 
9.340872416131e-05 1.272613955297e-03 0.0 
0.0 0.0 0.0 
-2.820416398486e-05 5.499988719639e-05 0.0 
5.499988719639e-05 1.304874377972e-03 0.0 
0.0 0.0 0.0 
-3.891094375430e-05 3.101240063007e-05 0.0 
3.101240063007e-05 1.241346414866e-03 0.0 
0.0 0.0 0.0 
5.581937255461e-05 2.856199644541e-05 0.0 
2.856199644541e-05 6.950253786879e-04 0.0 
0.0 0.0 0.0 
-5.034401694415e-05 6.508472315215e-05 0.0 
6.508472315215e-05 7.769954677819e-04 0.0 
0.0 0.0 0.0 
3.857372307148e-05 8.108732502063e-05 0.0 
8.108732502063e-05 4.280439982050e-04 0.0 
0.0 0.0 0.0 
3.770117285185e-05 8.241897219526e-05 0.0 
8.241897219526e-05 4.955623229335e-04 0.0 
0.0 0.0 0.0 
-4.903451596339e-05 5.766928292635e-05 0.0 
5.766928292635e-05 9.657869649156e-04 0.0 
0.0 0.0 0.0 
4.090202225648e-05 6.339130386229e-05 0.0 
6.339130386229e-05 8.623393146379e-04 0.0 
0.0 0.0 0.0 
5.001803133742e-05 1.081845075885e-06 0.0 
1.081845075885e-06 5.859543341233e-04 0.0 
0.0 0.0 0.0 
-2.697093142912e-05 4.818659703873e-05 0.0 
4.818659703873e-05 1.320647001734e-03 0.0 
0.0 0.0 0.0 
5.135644646326e-05 4.121375419341e-05 0.0 
4.121375419341e-05 3.932512985942e-04 0.0 
0.0 0.0 0.0 
-3.876746729259e-05 7.614967894201e-05 0.0 
7.614967894201e-05 8.369210335688e-04 0.0 
0.0 0.0 0.0 
-4.915960474150e-05 4.648754718191e-05 0.0 
4.648754718191e-05 9.895691324797e-04 0.0 
0.0 0.0 0.0 
-4.249497334174e-05 7.504877003364e-05 0.0 
7.504877003364e-05 7.844986993177e-04 0.0 
0.0 0.0 0.0 
-9.621726420828e-06 6.784551203114e-05 0.0 
6.784551203114e-05 1.482018788351e-03 0.0 
0.0 0.0 0.0 
-9.530902602806e-06 5.806482050402e-05 0.0 
5.806482050402e-05 1.490834795636e-03 0.0 
0.0 0.0 0.0 
-1.783285598567e-05 4.999695934651e-05 0.0 
4.999695934651e-05 1.430630936291e-03 0.0 
0.0 0.0 0.0 
5.379969231600e-05 3.273894794019e-05 0.0 
3.273894794019e-05 7.613405450932e-04 0.0 
0.0 0.0 0.0 
-2.609152663979e-05 3.614266667588e-05 0.0 
3.614266667588e-05 1.308910184481e-03 0.0 
0.0 0.0 0.0 
-2.646366751713e-05 1.004233803012e-04 0.0 
1.004233803012e-04 5.245740983875e-04 0.0 
0.0 0.0 0.0 
3.603335446178e-05 8.237076519986e-05 0.0 
8.237076519986e-05 5.621596064966e-04 0.0 
0.0 0.0 0.0 
4.043850216062e-05 5.605107427961e-05 0.0 
5.605107427961e-05 2.964218504851e-04 0.0 
0.0 0.0 0.0 
-5.598628785197e-05 4.564143729213e-05 0.0 
4.564143729213e-05 8.060721865126e-04 0.0 
0.0 0.0 0.0 
-3.871434596503e-05 7.833352856669e-06 0.0 
7.833352856669e-06 1.009113494226e-03 0.0 
0.0 0.0 0.0 
-3.338461888480e-05 1.941372653507e-05 0.0 
1.941372653507e-05 1.137830911380e-03 0.0 
0.0 0.0 0.0 
1.508966491293e-05 8.565506514661e-05 0.0 
8.565506514661e-05 1.244859947044e-03 0.0 
0.0 0.0 0.0 
-2.845571242127e-05 6.287681156769e-05 0.0 
6.287681156769e-05 1.285278503362e-03 0.0 
0.0 0.0 0.0 
-4.556287068413e-05 3.373919080065e-05 0.0 
3.373919080065e-05 1.078394708061e-03 0.0 
0.0 0.0 0.0 
-4.561337771802e-05 4.902243094819e-05 0.0 
4.902243094819e-05 1.081853462709e-03 0.0 
0.0 0.0 0.0 
5.383083404431e-05 6.831056922984e-05 0.0 
6.831056922984e-05 3.038787747087e-04 0.0 
0.0 0.0 0.0 
-1.005540127252e-05 -1.030424128547e-05 0.0 
-1.030424128547e-05 1.178872579475e-04 0.0 
0.0 0.0 0.0 
-3.919105137973e-06 9.913488903901e-05 0.0 
9.913488903901e-05 7.384756294491e-04 0.0 
0.0 0.0 0.0 
-3.536308400498e-05 7.654059607954e-05 0.0 
7.654059607954e-05 8.899428575622e-04 0.0 
0.0 0.0 0.0 
-9.274946910609e-06 9.034239023722e-05 0.0 
9.034239023722e-05 7.946131936560e-04 0.0 
0.0 0.0 0.0 
1.639418311550e-06 1.102556619626e-04 0.0 
1.102556619626e-04 2.482685481549e-04 0.0 
0.0 0.0 0.0 
-2.484919137269e-05 3.338404698554e-06 0.0 
3.338404698554e-06 1.057871799939e-03 0.0 
0.0 0.0 0.0 
1.868177824971e-05 -1.662309530989e-05 0.0 
-1.662309530989e-05 2.305744929176e-04 0.0 
0.0 0.0 0.0 
8.170086575054e-06 1.129532955370e-04 0.0 
1.129532955370e-04 4.956176700242e-04 0.0 
0.0 0.0 0.0 
0.0 8.716054099405e-05 0.0 
8.716054099405e-05 1.306474044104e-03 0.0 
0.0 0.0 0.0 
1.502583278978e-05 8.087570745700e-05 0.0 
8.087570745700e-05 1.002149235358e-03 0.0 
0.0 0.0 0.0 
-4.689314734885e-05 2.270069934212e-05 0.0 
2.270069934212e-05 1.000120580658e-03 0.0 
0.0 0.0 0.0 
9.879851252892e-06 1.888252523533e-06 0.0 
1.888252523533e-06 1.623157312207e-04 0.0 
0.0 0.0 0.0 
-4.290730199996e-05 6.939649078333e-05 0.0 
6.939649078333e-05 8.816104765039e-04 0.0 
0.0 0.0 0.0 
1.225044366171e-06 9.257574246570e-05 0.0 
9.257574246570e-05 7.393731732535e-04 0.0 
0.0 0.0 0.0 
-5.017445797495e-05 3.602232486550e-05 0.0 
3.602232486550e-05 1.099785182517e-03 0.0 
0.0 0.0 0.0 
-7.870203272531e-06 8.603388430757e-05 0.0 
8.603388430757e-05 1.461790062807e-03 0.0 
0.0 0.0 0.0 
-4.997113921767e-05 3.107800983150e-05 0.0 
3.107800983150e-05 9.526099778052e-04 0.0 
0.0 0.0 0.0 
-5.045297495421e-05 4.888566878563e-05 0.0 
4.888566878563e-05 1.044401175299e-03 0.0 
0.0 0.0 0.0 
5.430251764160e-05 1.264984068341e-05 0.0 
1.264984068341e-05 5.841991686648e-04 0.0 
0.0 0.0 0.0 
-2.867578790600e-05 4.249606559434e-05 0.0 
4.249606559434e-05 1.298310796829e-03 0.0 
0.0 0.0 0.0 
5.650072688024e-05 4.218634045545e-05 0.0 
4.218634045545e-05 7.836367543759e-04 0.0 
0.0 0.0 0.0 
-8.256868878842e-06 9.051160664187e-05 0.0 
9.051160664187e-05 1.452393860343e-03 0.0 
0.0 0.0 0.0 
0.0 6.831289019846e-05 0.0 
6.831289019846e-05 1.479479304553e-03 0.0 
0.0 0.0 0.0 
0.0 4.713464732887e-05 0.0 
4.713464732887e-05 1.499758173224e-03 0.0 
0.0 0.0 0.0 
0.0 5.706340824646e-05 0.0 
5.706340824646e-05 1.487835329429e-03 0.0 
0.0 0.0 0.0 
-4.401600197634e-05 4.700413807600e-05 0.0 
4.700413807600e-05 1.118859090974e-03 0.0 
0.0 0.0 0.0 
-3.390635427780e-05 3.583252094949e-05 0.0 
3.583252094949e-05 1.299201894095e-03 0.0 
0.0 0.0 0.0 
-2.477303455373e-05 6.206503321843e-05 0.0 
6.206503321843e-05 1.325156223188e-03 0.0 
0.0 0.0 0.0 
-4.206086686998e-05 7.369256836458e-05 0.0 
7.369256836458e-05 7.846624042123e-04 0.0 
0.0 0.0 0.0 
-4.757797230326e-05 6.190365360343e-05 0.0 
6.190365360343e-05 7.773853551756e-04 0.0 
0.0 0.0 0.0 
4.755788300392e-05 -2.435809270220e-06 0.0 
-2.435809270220e-06 5.492645727330e-04 0.0 
0.0 0.0 0.0 
-3.229206234823e-05 4.150163625033e-05 0.0 
4.150163625033e-05 1.321665367096e-03 0.0 
0.0 0.0 0.0 
-6.240696817650e-06 9.973861034960e-05 0.0 
9.973861034960e-05 1.431377005251e-03 0.0 
0.0 0.0 0.0 
-2.463472367142e-05 4.128597925349e-05 0.0 
4.128597925349e-05 1.332326369184e-03 0.0 
0.0 0.0 0.0 
1.689939550387e-05 8.076346263301e-05 0.0 
8.076346263301e-05 9.382559025335e-04 0.0 
0.0 0.0 0.0 
-2.952444553983e-05 3.465849996697e-05 0.0 
3.465849996697e-05 1.333253634708e-03 0.0 
0.0 0.0 0.0 
-2.305524782831e-05 7.855835452649e-05 0.0 
7.855835452649e-05 1.110563738517e-03 0.0 
0.0 0.0 0.0 
-3.125911967661e-05 8.366473142585e-05 0.0 
8.366473142585e-05 8.427548846992e-04 0.0 
0.0 0.0 0.0 
-5.118909805690e-05 4.312792378481e-05 0.0 
4.312792378481e-05 8.063222588226e-04 0.0 
0.0 0.0 0.0 
2.740429256987e-05 1.111640919228e-04 0.0 
1.111640919228e-04 3.593460511790e-04 0.0 
0.0 0.0 0.0 
-7.010523333184e-06 3.283174547583e-05 0.0 
3.283174547583e-05 1.459687086437e-03 0.0 
0.0 0.0 0.0 
-3.707804674691e-05 8.194222056718e-05 0.0 
8.194222056718e-05 7.377715287296e-04 0.0 
0.0 0.0 0.0 
-9.942523533590e-06 8.690777865177e-05 0.0 
8.690777865177e-05 1.329459507794e-03 0.0 
0.0 0.0 0.0 
5.156451995525e-05 8.821642855341e-06 0.0 
8.821642855341e-06 5.475543094893e-04 0.0 
0.0 0.0 0.0 
4.503139106093e-05 3.792353288873e-06 0.0 
3.792353288873e-06 3.496629732558e-04 0.0 
0.0 0.0 0.0 
9.821957603240e-06 8.033240826034e-05 0.0 
8.033240826034e-05 1.239987048906e-03 0.0 
0.0 0.0 0.0 
-7.983151648738e-06 1.086053409309e-04 0.0 
1.086053409309e-04 5.628076714825e-04 0.0 
0.0 0.0 0.0 
0.0 7.390766908156e-05 0.0 
7.390766908156e-05 1.473776316034e-03 0.0 
0.0 0.0 0.0 
-1.078919477204e-05 4.952953912005e-05 0.0 
4.952953912005e-05 1.446866459200e-03 0.0 
0.0 0.0 0.0 
-4.330545704900e-05 6.258347746892e-05 0.0 
6.258347746892e-05 1.019412946414e-03 0.0 
0.0 0.0 0.0 
-9.940049998658e-06 -9.337130829263e-06 0.0 
-9.337130829263e-06 6.408863719520e-05 0.0 
0.0 0.0 0.0 
0.0 8.420667974638e-05 0.0 
8.420667974638e-05 1.456928242777e-03 0.0 
0.0 0.0 0.0 
6.806673945814e-06 8.768248527884e-05 0.0 
8.768248527884e-05 1.263061231889e-03 0.0 
0.0 0.0 0.0 
5.369262206778e-05 2.127305898010e-05 0.0 
2.127305898010e-05 3.469796494748e-04 0.0 
0.0 0.0 0.0 
2.277502261916e-05 7.790567907225e-05 0.0 
7.790567907225e-05 9.508296188290e-04 0.0 
0.0 0.0 0.0 
6.858443690749e-07 1.089023670461e-04 0.0 
1.089023670461e-04 1.371097811915e-03 0.0 
0.0 0.0 0.0 
-2.267945086531e-05 -3.886647411497e-06 0.0 
-3.886647411497e-06 2.784536679123e-05 0.0 
0.0 0.0 0.0 
-3.433939974762e-05 8.294580241717e-05 0.0 
8.294580241717e-05 7.900896673607e-04 0.0 
0.0 0.0 0.0 
-4.366809097867e-05 5.906662090975e-05 0.0 
5.906662090975e-05 1.059675898049e-03 0.0 
0.0 0.0 0.0 
-4.202288195032e-05 6.691803703275e-05 0.0 
6.691803703275e-05 9.778071304032e-04 0.0 
0.0 0.0 0.0 
-4.687119214497e-05 5.484503461000e-05 0.0 
5.484503461000e-05 1.005303101016e-03 0.0 
0.0 0.0 0.0 
8.813015384357e-06 1.162015754298e-04 0.0 
1.162015754298e-04 4.344691425675e-04 0.0 
0.0 0.0 0.0 
0.0 9.323465304021e-05 0.0 
9.323465304021e-05 1.436921679993e-03 0.0 
0.0 0.0 0.0 
3.406126947714e-05 8.155094471637e-05 0.0 
8.155094471637e-05 6.278583388561e-04 0.0 
0.0 0.0 0.0 
1.917039549526e-05 1.746875560539e-05 0.0 
1.746875560539e-05 1.748461184066e-04 0.0 
0.0 0.0 0.0 
1.737516121358e-05 4.106897761819e-05 0.0 
4.106897761819e-05 1.195698991398e-03 0.0 
0.0 0.0 0.0 
-2.276404331758e-05 -8.509771256984e-06 0.0 
-8.509771256984e-06 6.762841944075e-05 0.0 
0.0 0.0 0.0 
-5.136652169946e-05 3.551225324954e-05 0.0 
3.551225324954e-05 8.818095289747e-04 0.0 
0.0 0.0 0.0 
2.197367285217e-05 -3.553723074037e-06 0.0 
-3.553723074037e-06 1.610416312925e-04 0.0 
0.0 0.0 0.0 
-4.878013126142e-05 2.398176500727e-05 0.0 
2.398176500727e-05 9.309294839079e-04 0.0 
0.0 0.0 0.0 
7.047377837077e-06 9.807245257677e-05 0.0 
9.807245257677e-05 1.320258811565e-03 0.0 
0.0 0.0 0.0 
0.0 1.002524742658e-04 0.0 
1.002524742658e-04 1.414774726408e-03 0.0 
0.0 0.0 0.0 
-4.710222657744e-05 4.188234993716e-05 0.0 
4.188234993716e-05 1.063337862950e-03 0.0 
0.0 0.0 0.0 
3.661184499348e-06 -1.108697524460e-05 0.0 
-1.108697524460e-05 1.142376699499e-04 0.0 
0.0 0.0 0.0 
1.917404755147e-05 2.795489248493e-05 0.0 
2.795489248493e-05 1.303632804577e-04 0.0 
0.0 0.0 0.0 
4.249272588019e-06 -4.926850791036e-06 0.0 
-4.926850791036e-06 1.692286210699e-04 0.0 
0.0 0.0 0.0 
3.372226425147e-05 3.643381448848e-05 0.0 
3.643381448848e-05 1.039024708320e-03 0.0 
0.0 0.0 0.0 
-4.028122946853e-05 1.016851185580e-05 0.0 
1.016851185580e-05 1.006871153821e-03 0.0 
0.0 0.0 0.0 
-4.924373364534e-05 1.681858095272e-05 0.0 
1.681858095272e-05 1.032888147170e-03 0.0 
0.0 0.0 0.0 
0.0 1.037856508216e-04 0.0 
1.037856508216e-04 1.391169745292e-03 0.0 
0.0 0.0 0.0 
-3.896757525435e-05 6.795789331475e-06 0.0 
6.795789331475e-06 1.007957134201e-03 0.0 
0.0 0.0 0.0 
-7.956187077496e-06 4.679585069112e-05 0.0 
4.679585069112e-05 1.501804460039e-03 0.0 
0.0 0.0 0.0 
-1.585620782918e-05 8.723699739660e-05 0.0 
8.723699739660e-05 1.120575200794e-03 0.0 
0.0 0.0 0.0 
-3.287375452488e-05 1.564746210858e-05 0.0 
1.564746210858e-05 1.109869360606e-03 0.0 
0.0 0.0 0.0 
-4.339067126002e-05 7.475969554251e-05 0.0 
7.475969554251e-05 6.338620479247e-04 0.0 
0.0 0.0 0.0 
2.127070705105e-05 8.778075661820e-05 0.0 
8.778075661820e-05 9.494582486098e-04 0.0 
0.0 0.0 0.0 
3.448978675014e-05 7.100643942489e-05 0.0 
7.100643942489e-05 2.928270396114e-04 0.0 
0.0 0.0 0.0 
0.0 1.032363431283e-04 0.0 
1.032363431283e-04 1.364783865836e-03 0.0 
0.0 0.0 0.0 
0.0 6.307020548425e-05 0.0 
6.307020548425e-05 1.484380789004e-03 0.0 
0.0 0.0 0.0 
0.0 5.149420025570e-05 0.0 
5.149420025570e-05 1.495362832755e-03 0.0 
0.0 0.0 0.0 
5.283695380953e-05 2.983201021119e-05 0.0 
2.983201021119e-05 7.854896988726e-04 0.0 
0.0 0.0 0.0 
4.476826060529e-05 -5.129299166570e-06 0.0 
-5.129299166570e-06 5.131436562298e-04 0.0 
0.0 0.0 0.0 
-2.899858550909e-05 8.289167850997e-05 0.0 
8.289167850997e-05 8.428600936556e-04 0.0 
0.0 0.0 0.0 
5.503528985029e-05 3.909019244295e-05 0.0 
3.909019244295e-05 8.079753040910e-04 0.0 
0.0 0.0 0.0 
0.0 9.944327903461e-05 0.0 
9.944327903461e-05 1.339881687853e-03 0.0 
0.0 0.0 0.0 
1.489850003522e-05 1.033851486320e-04 0.0 
1.033851486320e-04 4.970067741219e-04 0.0 
0.0 0.0 0.0 
6.080412131571e-05 4.507343619245e-05 0.0 
4.507343619245e-05 4.309567283654e-04 0.0 
0.0 0.0 0.0 
6.106482011115e-05 3.837873309044e-05 0.0 
3.837873309044e-05 4.531083261736e-04 0.0 
0.0 0.0 0.0 
-3.045708436900e-05 1.591784002868e-05 0.0 
1.591784002868e-05 1.144725622912e-03 0.0 
0.0 0.0 0.0 
7.686565352882e-06 8.216285421127e-05 0.0 
8.216285421127e-05 1.291987774992e-03 0.0 
0.0 0.0 0.0 
-1.364971490880e-05 -9.383801725236e-06 0.0 
-9.383801725236e-06 1.198538850093e-04 0.0 
0.0 0.0 0.0 
0.0 9.163279213314e-05 0.0 
9.163279213314e-05 1.315177303160e-03 0.0 
0.0 0.0 0.0 
5.857665221276e-05 2.746173850072e-05 0.0 
2.746173850072e-05 4.111118594197e-04 0.0 
0.0 0.0 0.0 
0.0 7.934453330735e-05 0.0 
7.934453330735e-05 1.467155389866e-03 0.0 
0.0 0.0 0.0 
-3.114150022476e-05 5.589946352517e-05 0.0 
5.589946352517e-05 1.326254850320e-03 0.0 
0.0 0.0 0.0 
-3.899204633206e-05 -3.685301643815e-06 0.0 
-3.685301643815e-06 3.362241045957e-05 0.0 
0.0 0.0 0.0 
-2.464606279939e-05 9.008651625392e-05 0.0 
9.008651625392e-05 7.921380325444e-04 0.0 
0.0 0.0 0.0 
-2.653116847495e-05 2.792887485258e-05 0.0 
2.792887485258e-05 1.343686730524e-03 0.0 
0.0 0.0 0.0 
0.0 8.903013722696e-05 0.0 
8.903013722696e-05 1.447785256528e-03 0.0 
0.0 0.0 0.0 
-4.869378738404e-05 4.294071049165e-05 0.0 
4.294071049165e-05 1.119413964097e-03 0.0 
0.0 0.0 0.0 
-9.367774256197e-06 9.028158266080e-05 0.0 
9.028158266080e-05 1.131576622184e-03 0.0 
0.0 0.0 0.0 
2.884541629911e-05 1.090731378527e-04 0.0 
1.090731378527e-04 2.929757752392e-04 0.0 
0.0 0.0 0.0 
1.510273709537e-05 8.207151954024e-05 0.0 
8.207151954024e-05 1.200138629923e-03 0.0 
0.0 0.0 0.0 
5.821951759644e-05 2.336588830516e-05 0.0 
2.336588830516e-05 4.354155242350e-04 0.0 
0.0 0.0 0.0 
5.453722835247e-05 2.138098225594e-05 0.0 
2.138098225594e-05 4.554073328387e-04 0.0 
0.0 0.0 0.0 
-3.461785183467e-05 -8.843085414553e-06 0.0 
-8.843085414553e-06 7.595958814632e-05 0.0 
0.0 0.0 0.0 
0.0 9.695597872475e-05 0.0 
9.695597872475e-05 1.425855987396e-03 0.0 
0.0 0.0 0.0 
3.798005188083e-05 7.773083849839e-05 0.0 
7.773083849839e-05 3.600598669191e-04 0.0 
0.0 0.0 0.0 
3.225642298821e-05 5.854742160100e-05 0.0 
5.854742160100e-05 1.058119824037e-03 0.0 
0.0 0.0 0.0 
-3.533815150158e-05 3.883888892020e-06 0.0 
3.883888892020e-06 1.079477836349e-03 0.0 
0.0 0.0 0.0 
4.088707775196e-05 -6.378710614771e-06 0.0 
-6.378710614771e-06 3.621919046626e-04 0.0 
0.0 0.0 0.0 
5.392054326792e-05 2.653391881427e-05 0.0 
2.653391881427e-05 4.336664394733e-04 0.0 
0.0 0.0 0.0 
-4.992082668986e-05 4.568314707937e-05 0.0 
4.568314707937e-05 1.082324718246e-03 0.0 
0.0 0.0 0.0 
0.0 1.036629609247e-04 0.0 
1.036629609247e-04 1.378389064337e-03 0.0 
0.0 0.0 0.0 
4.808745827400e-05 6.050002298147e-06 0.0 
6.050002298147e-06 5.387665427048e-04 0.0 
0.0 0.0 0.0 
4.658807468960e-05 4.073369902352e-05 0.0 
4.073369902352e-05 8.964092868318e-04 0.0 
0.0 0.0 0.0 
-3.292121091469e-05 7.887510146743e-05 0.0 
7.887510146743e-05 9.436057199572e-04 0.0 
0.0 0.0 0.0 
4.787621384184e-05 5.183020470780e-05 0.0 
5.183020470780e-05 8.305444436856e-04 0.0 
0.0 0.0 0.0 
5.484407427403e-05 3.939317732934e-05 0.0 
3.939317732934e-05 4.798891177158e-04 0.0 
0.0 0.0 0.0 
5.073116917864e-05 3.678495399683e-05 0.0 
3.678495399683e-05 8.284312548752e-04 0.0 
0.0 0.0 0.0 
-4.012589174718e-05 7.061323950419e-05 0.0 
7.061323950419e-05 9.348978433381e-04 0.0 
0.0 0.0 0.0 
-3.243039567491e-05 7.123859796620e-05 0.0 
7.123859796620e-05 1.142933186166e-03 0.0 
0.0 0.0 0.0 
1.938965126880e-05 8.805473495941e-05 0.0 
8.805473495941e-05 1.013820049689e-03 0.0 
0.0 0.0 0.0 
-2.816554337959e-05 8.408394592701e-05 0.0 
8.408394592701e-05 8.965824752611e-04 0.0 
0.0 0.0 0.0 
5.519708515056e-05 1.332789617963e-05 0.0 
1.332789617963e-05 5.576252172359e-04 0.0 
0.0 0.0 0.0 
-5.281390115242e-07 1.052568585882e-04 0.0 
1.052568585882e-04 5.632508916429e-04 0.0 
0.0 0.0 0.0 
4.839948015456e-05 5.790600096668e-06 0.0 
5.790600096668e-06 5.114845567189e-04 0.0 
0.0 0.0 0.0 
-1.628263311404e-05 8.181468650733e-05 0.0 
8.181468650733e-05 1.121531102509e-03 0.0 
0.0 0.0 0.0 
3.149836812200e-05 8.460601655429e-05 0.0 
8.460601655429e-05 8.320304597069e-04 0.0 
0.0 0.0 0.0 
7.648687993411e-06 9.313700931197e-05 0.0 
9.313700931197e-05 1.310862932043e-03 0.0 
0.0 0.0 0.0 
-2.499213016738e-05 3.320811386029e-05 0.0 
3.320811386029e-05 1.367018575314e-03 0.0 
0.0 0.0 0.0 
4.084050914588e-05 2.438647650438e-06 0.0 
2.438647650438e-06 3.245535856062e-04 0.0 
0.0 0.0 0.0 
0.0 9.581895817550e-05 0.0 
9.581895817550e-05 1.325653500336e-03 0.0 
0.0 0.0 0.0 
1.513297400990e-05 9.063729540275e-05 0.0 
9.063729540275e-05 1.256845963910e-03 0.0 
0.0 0.0 0.0 
-2.972629125964e-06 9.606995075678e-05 0.0 
9.606995075678e-05 7.979124372024e-04 0.0 
0.0 0.0 0.0 
-1.360971860997e-05 -9.701799087050e-06 0.0 
-9.701799087050e-06 6.723334609515e-05 0.0 
0.0 0.0 0.0 
1.099531433812e-05 7.711865941558e-05 0.0 
7.711865941558e-05 1.284007349277e-03 0.0 
0.0 0.0 0.0 
-2.782088386799e-05 4.054856561142e-05 0.0 
4.054856561142e-05 1.355542728351e-03 0.0 
0.0 0.0 0.0 
5.378392150224e-05 1.775989125736e-05 0.0 
1.775989125736e-05 3.717811155299e-04 0.0 
0.0 0.0 0.0 
0.0 8.156925447869e-05 0.0 
8.156925447869e-05 1.295557011397e-03 0.0 
0.0 0.0 0.0 
4.948244607217e-05 3.397980510890e-05 0.0 
3.397980510890e-05 8.527976812165e-04 0.0 
0.0 0.0 0.0 
-4.974391621859e-05 5.468472852297e-05 0.0 
5.468472852297e-05 8.191697410529e-04 0.0 
0.0 0.0 0.0 
-4.503904554565e-05 2.765090528603e-05 0.0 
2.765090528603e-05 1.056348918247e-03 0.0 
0.0 0.0 0.0 
2.759779382400e-05 7.827746357106e-05 0.0 
7.827746357106e-05 8.218473281434e-04 0.0 
0.0 0.0 0.0 
5.503480123714e-05 2.541954230467e-05 0.0 
2.541954230467e-05 7.186915090913e-04 0.0 
0.0 0.0 0.0 
4.296968755635e-05 5.900375752190e-05 0.0 
5.900375752190e-05 8.790785759798e-04 0.0 
0.0 0.0 0.0 
-4.268178694666e-05 2.614066851086e-05 0.0 
2.614066851086e-05 1.182789633157e-03 0.0 
0.0 0.0 0.0 
-5.102317498817e-05 4.459590388356e-05 0.0 
4.459590388356e-05 8.983412522408e-04 0.0 
0.0 0.0 0.0 
1.282373255385e-05 9.087377804124e-05 0.0 
9.087377804124e-05 1.064704927016e-03 0.0 
0.0 0.0 0.0 
-2.514274251786e-05 1.372199904880e-06 0.0 
1.372199904880e-06 1.110722500369e-03 0.0 
0.0 0.0 0.0 
5.046013847232e-05 1.390190256017e-06 0.0 
1.390190256017e-06 5.594444773562e-04 0.0 
0.0 0.0 0.0 
2.653762027816e-05 8.463907269209e-05 0.0 
8.463907269209e-05 9.625013176673e-04 0.0 
0.0 0.0 0.0 
5.135406520362e-05 7.867468749713e-06 0.0 
7.867468749713e-06 4.374140529186e-04 0.0 
0.0 0.0 0.0 
5.063550524365e-05 2.130769085303e-05 0.0 
2.130769085303e-05 8.045585514029e-04 0.0 
0.0 0.0 0.0 
-4.576681749202e-05 -3.931831984757e-06 0.0 
-3.931831984757e-06 3.634338463154e-05 0.0 
0.0 0.0 0.0 
-1.493522746543e-05 1.017913369353e-04 0.0 
1.017913369353e-04 6.256737132495e-04 0.0 
0.0 0.0 0.0 
5.101114696582e-05 1.066615404727e-05 0.0 
1.066615404727e-05 4.135325717567e-04 0.0 
0.0 0.0 0.0 
5.330619813337e-05 1.205752940421e-05 0.0 
1.205752940421e-05 6.111287339223e-04 0.0 
0.0 0.0 0.0 
-1.186283710075e-05 9.288598784786e-05 0.0 
9.288598784786e-05 8.513754313437e-04 0.0 
0.0 0.0 0.0 
5.284775651493e-05 4.590533663838e-05 0.0 
4.590533663838e-05 8.510222077416e-04 0.0 
0.0 0.0 0.0 
-3.294221038885e-05 5.281210806644e-06 0.0 
5.281210806644e-06 1.117986656875e-03 0.0 
0.0 0.0 0.0 
4.584583587230e-05 1.435619302485e-06 0.0 
1.435619302485e-06 3.743660643656e-04 0.0 
0.0 0.0 0.0 
0.0 7.687172477104e-05 0.0 
7.687172477104e-05 1.288388412162e-03 0.0 
0.0 0.0 0.0 
-4.678055818141e-05 5.628564984278e-05 0.0 
5.628564984278e-05 1.060071423715e-03 0.0 
0.0 0.0 0.0 
5.226819194881e-05 1.159737123726e-05 0.0 
1.159737123726e-05 6.378989923950e-04 0.0 
0.0 0.0 0.0 
-4.564921408867e-05 6.046765610386e-05 0.0 
6.046765610386e-05 1.019720026640e-03 0.0 
0.0 0.0 0.0 
4.946718320276e-05 1.015260685457e-06 0.0 
1.015260685457e-06 6.127935807509e-04 0.0 
0.0 0.0 0.0 
-2.694216945287e-05 -3.988415547332e-06 0.0 
-3.988415547332e-06 2.990867282571e-05 0.0 
0.0 0.0 0.0 
-4.808564831027e-05 2.219142931918e-05 0.0 
2.219142931918e-05 1.090981068604e-03 0.0 
0.0 0.0 0.0 
4.201887551281e-05 4.549853545056e-06 0.0 
4.549853545056e-06 4.996402646900e-04 0.0 
0.0 0.0 0.0 
-5.533497315136e-06 -2.863513986380e-06 0.0 
-2.863513986380e-06 1.933571149149e-05 0.0 
0.0 0.0 0.0 
5.039368549431e-05 8.825093061857e-06 0.0 
8.825093061857e-06 6.011616281354e-04 0.0 
0.0 0.0 0.0 
4.802603575871e-05 4.940527885963e-05 0.0 
4.940527885963e-05 9.189403879324e-04 0.0 
0.0 0.0 0.0 
-1.442303395605e-05 1.405311789351e-05 0.0 
1.405311789351e-05 1.346154427774e-03 0.0 
0.0 0.0 0.0 
4.657679847786e-05 5.654275813787e-05 0.0 
5.654275813787e-05 8.126245341042e-04 0.0 
0.0 0.0 0.0 
4.940376811158e-05 6.402117681819e-05 0.0 
6.402117681819e-05 8.284374641585e-04 0.0 
0.0 0.0 0.0 
-4.920461407010e-05 1.331442502024e-05 0.0 
1.331442502024e-05 9.774409535452e-04 0.0 
0.0 0.0 0.0 
-3.880051543481e-05 3.961689706805e-06 0.0 
3.961689706805e-06 9.521524824312e-04 0.0 
0.0 0.0 0.0 
-6.843417799329e-06 3.763228999517e-05 0.0 
3.763228999517e-05 1.458104725314e-03 0.0 
0.0 0.0 0.0 
-4.351358930221e-05 6.514614745646e-05 0.0 
6.514614745646e-05 9.780441873284e-04 0.0 
0.0 0.0 0.0 
-8.159628912763e-06 -2.576810343063e-06 0.0 
-2.576810343063e-06 2.009556455707e-05 0.0 
0.0 0.0 0.0 
1.226343241911e-05 -1.677452851327e-05 0.0 
-1.677452851327e-05 1.945846282030e-04 0.0 
0.0 0.0 0.0 
-1.293008760461e-05 -1.003978909280e-05 0.0 
-1.003978909280e-05 6.607031281569e-05 0.0 
0.0 0.0 0.0 
3.602825272297e-05 -1.007221206401e-05 0.0 
-1.007221206401e-05 3.498436786538e-04 0.0 
0.0 0.0 0.0 
-2.870659062415e-05 6.962426801775e-05 0.0 
6.962426801775e-05 1.282563769700e-03 0.0 
0.0 0.0 0.0 
-1.653817643710e-05 5.599704658920e-06 0.0 
5.599704658920e-06 1.347173840091e-03 0.0 
0.0 0.0 0.0 
3.988683137179e-05 4.068711939365e-05 0.0 
4.068711939365e-05 9.943238436845e-04 0.0 
0.0 0.0 0.0 
3.884845078295e-05 -9.633730789237e-06 0.0 
-9.633730789237e-06 3.982223221479e-04 0.0 
0.0 0.0 0.0 
4.782379802215e-05 1.065660196031e-05 0.0 
1.065660196031e-05 8.062915725202e-04 0.0 
0.0 0.0 0.0 
3.336491953032e-05 6.620309205923e-05 0.0 
6.620309205923e-05 1.078135105327e-03 0.0 
0.0 0.0 0.0 
3.584550180946e-05 3.194292577783e-05 0.0 
3.194292577783e-05 2.398251455233e-04 0.0 
0.0 0.0 0.0 
4.116174152058e-05 -6.281726271573e-06 0.0 
-6.281726271573e-06 4.998351447325e-04 0.0 
0.0 0.0 0.0 
3.668444690930e-05 3.868883180404e-06 0.0 
3.868883180404e-06 4.068680834270e-04 0.0 
0.0 0.0 0.0 
9.158743135673e-06 7.097546939744e-05 0.0 
7.097546939744e-05 1.275351799088e-03 0.0 
0.0 0.0 0.0 
0.0 7.017991736915e-05 0.0 
7.017991736915e-05 1.279634389535e-03 0.0 
0.0 0.0 0.0 
4.371207305520e-05 -4.251723591741e-06 0.0 
-4.251723591741e-06 5.590504147850e-04 0.0 
0.0 0.0 0.0 
4.919559412131e-05 8.611928100938e-07 0.0 
8.611928100938e-07 6.395554946110e-04 0.0 
0.0 0.0 0.0 
5.792691184281e-05 3.520465632161e-05 0.0 
3.520465632161e-05 7.411616535331e-04 0.0 
0.0 0.0 0.0 
2.888497973141e-05 7.318406294847e-05 0.0 
7.318406294847e-05 1.124865839262e-03 0.0 
0.0 0.0 0.0 
1.949000722656e-05 -4.123567467637e-06 0.0 
-4.123567467637e-06 2.155739070482e-04 0.0 
0.0 0.0 0.0 
3.808548096096e-05 5.950715745565e-05 0.0 
5.950715745565e-05 1.032212539334e-03 0.0 
0.0 0.0 0.0 
3.703683604916e-06 -4.599776630988e-06 0.0 
-4.599776630988e-06 1.132803837351e-04 0.0 
0.0 0.0 0.0 
4.719887080928e-05 -2.081794023281e-06 0.0 
-2.081794023281e-06 5.761936427695e-04 0.0 
0.0 0.0 0.0 
5.114296807429e-05 4.847850938258e-06 0.0 
4.847850938258e-06 6.501593074897e-04 0.0 
0.0 0.0 0.0 
4.641217321577e-06 -2.632780819574e-06 0.0 
-2.632780819574e-06 5.873320777439e-05 0.0 
0.0 0.0 0.0 
4.395774479682e-05 4.750300758118e-06 0.0 
4.750300758118e-06 5.287047439815e-04 0.0 
0.0 0.0 0.0 
-2.040287243066e-05 3.989698182807e-05 0.0 
3.989698182807e-05 1.365820006955e-03 0.0 
0.0 0.0 0.0 
-7.137640026245e-06 -2.209723978540e-06 0.0 
-2.209723978540e-06 1.982026359282e-05 0.0 
0.0 0.0 0.0 
-4.006111198018e-05 5.909813178349e-06 0.0 
5.909813178349e-06 9.522644384830e-04 0.0 
0.0 0.0 0.0 
-4.002642844547e-05 7.015425835894e-06 0.0 
7.015425835894e-06 9.511028277056e-04 0.0 
0.0 0.0 0.0 
3.714924202347e-05 6.533773127302e-05 0.0 
6.533773127302e-05 9.286091038461e-04 0.0 
0.0 0.0 0.0 
3.529147242731e-05 -5.657168797316e-06 0.0 
-5.657168797316e-06 4.065173241308e-04 0.0 
0.0 0.0 0.0 
5.370730565124e-05 1.492426952965e-05 0.0 
1.492426952965e-05 3.969802286679e-04 0.0 
0.0 0.0 0.0 
-3.681360835173e-06 1.140548915718e-04 0.0 
1.140548915718e-04 4.539024366736e-04 0.0 
0.0 0.0 0.0 
2.908995840234e-05 4.031345571590e-05 0.0 
4.031345571590e-05 1.087952110246e-03 0.0 
0.0 0.0 0.0 
-6.487477807404e-06 8.960858055470e-05 0.0 
8.960858055470e-05 1.383949642168e-03 0.0 
0.0 0.0 0.0 
-2.196853681724e-05 1.017823588838e-05 0.0 
1.017823588838e-05 1.307209415403e-03 0.0 
0.0 0.0 0.0 
-4.392920475504e-05 8.342482780517e-05 0.0 
8.342482780517e-05 6.327762625353e-04 0.0 
0.0 0.0 0.0 
2.597785012437e-06 -3.621282365513e-06 0.0 
-3.621282365513e-06 1.302666386771e-04 0.0 
0.0 0.0 0.0 
-5.589380789583e-05 3.142397272545e-05 0.0 
3.142397272545e-05 9.177419486326e-04 0.0 
0.0 0.0 0.0 
-3.198423399020e-05 1.732949963746e-06 0.0 
1.732949963746e-06 9.536105628158e-04 0.0 
0.0 0.0 0.0 
-3.177584514424e-05 7.034827432530e-07 0.0 
7.034827432530e-07 9.523255551451e-04 0.0 
0.0 0.0 0.0 
-2.294076605791e-06 -2.493278747509e-06 0.0 
-2.493278747509e-06 1.853045773315e-05 0.0 
0.0 0.0 0.0 
3.706913521917e-06 -3.434855577842e-06 0.0 
-3.434855577842e-06 5.898869144927e-05 0.0 
0.0 0.0 0.0 
9.678337932861e-06 -3.899015051247e-06 0.0 
-3.899015051247e-06 1.103286797128e-04 0.0 
0.0 0.0 0.0 
3.101027279495e-05 -2.245244702291e-06 0.0 
-2.245244702291e-06 3.011973848248e-04 0.0 
0.0 0.0 0.0 
4.845405172649e-07 -2.457044852899e-06 0.0 
-2.457044852899e-06 5.991627802482e-05 0.0 
0.0 0.0 0.0 
4.430893828866e-05 5.045777167764e-06 0.0 
5.045777167764e-06 5.921243874236e-04 0.0 
0.0 0.0 0.0 
-3.740948970421e-05 -4.735265536666e-06 0.0 
-4.735265536666e-06 3.414000477031e-05 0.0 
0.0 0.0 0.0 
3.806720712585e-05 -1.432654027102e-08 0.0 
-1.432654027102e-08 3.616788038980e-04 0.0 
0.0 0.0 0.0 
-2.113531769077e-05 4.058607599364e-06 0.0 
4.058607599364e-06 1.164789170406e-03 0.0 
0.0 0.0 0.0 
-3.636221231618e-05 4.051650349408e-06 0.0 
4.051650349408e-06 9.513990536105e-04 0.0 
0.0 0.0 0.0 
-2.663316910323e-05 6.789567188346e-05 0.0 
6.789567188346e-05 1.320740380400e-03 0.0 
0.0 0.0 0.0 
5.099451107493e-05 4.278339677117e-05 0.0 
4.278339677117e-05 8.753507607877e-04 0.0 
0.0 0.0 0.0 
-2.311767686236e-05 3.529947974825e-06 0.0 
3.529947974825e-06 1.108947036311e-03 0.0 
0.0 0.0 0.0 
3.752655497102e-05 5.045670532776e-06 0.0 
5.045670532776e-06 4.360669032208e-04 0.0 
0.0 0.0 0.0 
5.896739734279e-06 -3.754426357213e-06 0.0 
-3.754426357213e-06 1.117437866158e-04 0.0 
0.0 0.0 0.0 
0.0 1.912223920685e-05 0.0 
1.912223920685e-05 1.513323969622e-03 0.0 
0.0 0.0 0.0 
-5.994612049087e-06 2.165068915106e-05 0.0 
2.165068915106e-05 1.512430554891e-03 0.0 
0.0 0.0 0.0 
-3.150023531706e-05 1.330038643273e-05 0.0 
1.330038643273e-05 1.078768408992e-03 0.0 
0.0 0.0 0.0 
-3.501129744954e-05 2.070217196893e-06 0.0 
2.070217196893e-06 9.526749038877e-04 0.0 
0.0 0.0 0.0 
3.765313446280e-05 -4.701103692579e-06 0.0 
-4.701103692579e-06 4.422000101554e-04 0.0 
0.0 0.0 0.0 
-4.709761372568e-06 1.472948930951e-05 0.0 
1.472948930951e-05 1.514677235902e-03 0.0 
0.0 0.0 0.0 
3.249613189427e-05 -1.244083443139e-05 0.0 
-1.244083443139e-05 3.374026475995e-04 0.0 
0.0 0.0 0.0 
-3.800631814388e-05 5.091816951317e-06 0.0 
5.091816951317e-06 9.506039863467e-04 0.0 
0.0 0.0 0.0 
-3.538270445413e-05 3.320365125306e-06 0.0 
3.320365125306e-06 9.519223016543e-04 0.0 
0.0 0.0 0.0 
-4.981761844824e-05 2.519639907394e-05 0.0 
2.519639907394e-05 8.976285999704e-04 0.0 
0.0 0.0 0.0 
0.0 4.243733786668e-05 0.0 
4.243733786668e-05 1.504139308688e-03 0.0 
0.0 0.0 0.0 
-4.200193356563e-06 1.872559074654e-05 0.0 
1.872559074654e-05 1.514262005383e-03 0.0 
0.0 0.0 0.0 
-1.303903000904e-06 -3.059020271819e-06 0.0 
-3.059020271819e-06 6.023480054895e-05 0.0 
0.0 0.0 0.0 
-1.305308241606e-06 -1.550357579006e-06 0.0 
-1.550357579006e-06 1.863771035837e-05 0.0 
0.0 0.0 0.0 
8.206426178603e-06 -4.016851708716e-06 0.0 
-4.016851708716e-06 1.579321566496e-04 0.0 
0.0 0.0 0.0 
5.514854127586e-05 1.625899312558e-05 0.0 
1.625899312558e-05 6.484395142643e-04 0.0 
0.0 0.0 0.0 
2.024500662712e-05 1.003197796136e-05 0.0 
1.003197796136e-05 1.124831698817e-03 0.0 
0.0 0.0 0.0 
-6.787188004076e-05 -7.304195105285e-06 0.0 
-7.304195105285e-06 4.338915187185e-05 0.0 
0.0 0.0 0.0 
-1.645053857346e-05 -3.251056596907e-06 0.0 
-3.251056596907e-06 1.297390805949e-03 0.0 
0.0 0.0 0.0 
-3.452279064753e-05 -4.559436262071e-06 0.0 
-4.559436262071e-06 3.366579807573e-05 0.0 
0.0 0.0 0.0 
4.544529865980e-05 6.648560687831e-05 0.0 
6.648560687831e-05 8.956704240244e-04 0.0 
0.0 0.0 0.0 
-5.364048765888e-05 -4.340850502713e-06 0.0 
-4.340850502713e-06 3.977560503721e-05 0.0 
0.0 0.0 0.0 
-6.087249256947e-05 -5.840763197598e-06 0.0 
-5.840763197598e-06 4.191058585712e-05 0.0 
0.0 0.0 0.0 
5.036532107372e-05 5.971605326534e-05 0.0 
5.971605326534e-05 8.482964080532e-04 0.0 
0.0 0.0 0.0 
2.497318283856e-05 2.071406830607e-05 0.0 
2.071406830607e-05 1.092002485408e-03 0.0 
0.0 0.0 0.0 
-2.302272267363e-05 9.344737751410e-08 0.0 
9.344737751410e-08 1.160485884640e-03 0.0 
0.0 0.0 0.0 
-5.523695848297e-05 4.023054673120e-05 0.0 
4.023054673120e-05 9.359630007095e-04 0.0 
0.0 0.0 0.0 
5.907598561450e-06 -2.661186726541e-06 0.0 
-2.661186726541e-06 5.793976680946e-05 0.0 
0.0 0.0 0.0 
4.593096173600e-05 9.157358199471e-06 0.0 
9.157358199471e-06 8.333252125350e-04 0.0 
0.0 0.0 0.0 
0.0 5.527945921208e-06 0.0 
5.527945921208e-06 1.513415036128e-03 0.0 
0.0 0.0 0.0 
-4.291786008692e-06 3.865406557581e-06 0.0 
3.865406557581e-06 1.515604454981e-03 0.0 
0.0 0.0 0.0 
-3.452380461400e-05 3.074458769230e-06 0.0 
3.074458769230e-06 9.513522224143e-04 0.0 
0.0 0.0 0.0 
3.977436768077e-05 7.253976786897e-05 0.0 
7.253976786897e-05 9.440685383055e-04 0.0 
0.0 0.0 0.0 
0.0 1.662012307171e-05 0.0 
1.662012307171e-05 1.515263045251e-03 0.0 
0.0 0.0 0.0 
-1.005101768270e-05 8.357650792307e-05 0.0 
8.357650792307e-05 1.132553986676e-03 0.0 
0.0 0.0 0.0 
5.462676499590e-06 -1.278988702684e-06 0.0 
-1.278988702684e-06 1.087065597269e-04 0.0 
0.0 0.0 0.0 
2.409102021206e-06 -2.425097347585e-06 0.0 
-2.425097347585e-06 5.883037764298e-05 0.0 
0.0 0.0 0.0 
5.599731417005e-06 -2.859688985915e-06 0.0 
-2.859688985915e-06 5.747220789853e-05 0.0 
0.0 0.0 0.0 
4.158102343377e-05 4.919760966142e-06 0.0 
4.919760966142e-06 4.976843783284e-04 0.0 
0.0 0.0 0.0 
7.608105237145e-06 1.394852966453e-05 0.0 
1.394852966453e-05 1.240188959981e-03 0.0 
0.0 0.0 0.0 
-6.728633863640e-06 -4.904177579075e-06 0.0 
-4.904177579075e-06 1.451194012149e-03 0.0 
0.0 0.0 0.0 
2.518071671620e-06 -9.990692907122e-09 0.0 
-9.990692907122e-09 1.594596818233e-05 0.0 
0.0 0.0 0.0 
4.498961535826e-05 -4.454041121340e-06 0.0 
-4.454041121340e-06 5.921380878264e-04 0.0 
0.0 0.0 0.0 
0.0 1.362865234951e-05 0.0 
1.362865234951e-05 1.243382124767e-03 0.0 
0.0 0.0 0.0 
8.483821950289e-06 2.250200260144e-05 0.0 
2.250200260144e-05 1.240457405518e-03 0.0 
0.0 0.0 0.0 
1.196796631953e-05 6.448826864536e-05 0.0 
6.448826864536e-05 1.267591897737e-03 0.0 
0.0 0.0 0.0 
-1.919859003885e-05 5.842215131325e-06 0.0 
5.842215131325e-06 1.236686295087e-03 0.0 
0.0 0.0 0.0 
-1.430688110327e-05 -4.691757405473e-06 0.0 
-4.691757405473e-06 1.328936400867e-03 0.0 
0.0 0.0 0.0 
0.0 1.800045268124e-05 0.0 
1.800045268124e-05 1.238073311856e-03 0.0 
0.0 0.0 0.0 
0.0 2.279741140562e-05 0.0 
2.279741140562e-05 1.242944237463e-03 0.0 
0.0 0.0 0.0 
-1.573758401163e-05 5.243702080112e-06 0.0 
5.243702080112e-06 1.297690207498e-03 0.0 
0.0 0.0 0.0 
-1.260888993215e-08 1.878815121275e-06 0.0 
1.878815121275e-06 1.463702974958e-05 0.0 
0.0 0.0 0.0 
-2.900184071108e-05 7.036411805035e-07 0.0 
7.036411805035e-07 9.494016725911e-04 0.0 
0.0 0.0 0.0 
-3.331481462310e-05 2.732389015955e-06 0.0 
2.732389015955e-06 9.528996689792e-04 0.0 
0.0 0.0 0.0 
4.982407240117e-07 -7.354428550496e-07 0.0 
-7.354428550496e-07 1.793083428447e-05 0.0 
0.0 0.0 0.0 
0.0 4.130768109985e-05 0.0 
4.130768109985e-05 1.254276043914e-03 0.0 
0.0 0.0 0.0 
9.937534801496e-06 5.842551689632e-05 0.0 
5.842551689632e-05 1.260283085115e-03 0.0 
0.0 0.0 0.0 
0.0 5.241740513174e-05 0.0 
5.241740513174e-05 1.256680174656e-03 0.0 
0.0 0.0 0.0 
-4.641765052327e-06 1.493004451717e-07 0.0 
1.493004451717e-07 1.860207441062e-05 0.0 
0.0 0.0 0.0 
-5.989843466669e-06 -1.096484261046e-06 0.0 
-1.096484261046e-06 1.967540493597e-05 0.0 
0.0 0.0 0.0 
0.0 6.477720961143e-05 0.0 
6.477720961143e-05 1.271247579554e-03 0.0 
0.0 0.0 0.0 
0.0 5.814369501165e-05 0.0 
5.814369501165e-05 1.264228464800e-03 0.0 
0.0 0.0 0.0 
-2.114943739140e-05 -5.121744825082e-06 0.0 
-5.121744825082e-06 1.205657098626e-03 0.0 
0.0 0.0 0.0 
-2.680917275488e-05 9.267134059703e-07 0.0 
9.267134059703e-07 9.474939493432e-04 0.0 
0.0 0.0 0.0 
-1.725233901362e-05 -4.961690677152e-06 0.0 
-4.961690677152e-06 1.267256040755e-03 0.0 
0.0 0.0 0.0 
-2.472197536030e-05 -5.085740315228e-06 0.0 
-5.085740315228e-06 1.080593548732e-03 0.0 
0.0 0.0 0.0 
-2.515390720093e-05 3.554113633937e-07 0.0 
3.554113633937e-07 9.470322665590e-04 0.0 
0.0 0.0 0.0 
-1.267227074553e-05 -1.079522207641e-06 0.0 
-1.079522207641e-06 2.273439312850e-05 0.0 
0.0 0.0 0.0 
-2.316744265474e-05 -3.539725439016e-06 0.0 
-3.539725439016e-06 2.836380269700e-05 0.0 
0.0 0.0 0.0 
-2.599611893017e-05 -3.293865830310e-06 0.0 
-3.293865830310e-06 2.802337138985e-05 0.0 
0.0 0.0 0.0 
-3.300595678191e-05 -3.716462509173e-06 0.0 
-3.716462509173e-06 3.120869504070e-05 0.0 
0.0 0.0 0.0 
4.555644643500e-05 5.819501358434e-06 0.0 
5.819501358434e-06 6.246955013538e-04 0.0 
0.0 0.0 0.0 
4.444981781115e-05 5.148189392499e-06 0.0 
5.148189392499e-06 5.602913914340e-04 0.0 
0.0 0.0 0.0 
-1.400135942597e-05 -2.893030975514e-06 0.0 
-2.893030975514e-06 2.456170317555e-05 0.0 
0.0 0.0 0.0 
4.507472559112e-05 5.779423874264e-06 0.0 
5.779423874264e-06 8.168747372823e-04 0.0 
0.0 0.0 0.0 
-1.954978809438e-05 -3.816013027050e-06 0.0 
-3.816013027050e-06 2.643257915436e-05 0.0 
0.0 0.0 0.0 
0.0 3.412709345038e-05 0.0 
3.412709345038e-05 1.507710864563e-03 0.0 
0.0 0.0 0.0 
0.0 1.387014420621e-05 0.0 
1.387014420621e-05 1.514109749734e-03 0.0 
0.0 0.0 0.0 
0.0 2.279682707110e-05 0.0 
2.279682707110e-05 1.511472851436e-03 0.0 
0.0 0.0 0.0 
1.589224485832e-05 5.646108615820e-06 0.0 
5.646108615820e-06 1.918976971600e-04 0.0 
0.0 0.0 0.0 
3.321250390087e-05 5.069650274713e-06 0.0 
5.069650274713e-06 3.746625683911e-04 0.0 
0.0 0.0 0.0 
0.0 1.065516766384e-05 0.0 
1.065516766384e-05 1.512613895345e-03 0.0 
0.0 0.0 0.0 
3.165960272922e-05 4.992413818742e-06 0.0 
4.992413818742e-06 1.021865713122e-03 0.0 
0.0 0.0 0.0 
0.0 8.014402047886e-06 0.0 
8.014402047886e-06 1.519382061314e-03 0.0 
0.0 0.0 0.0 
2.380655380940e-05 5.291037707914e-06 0.0 
5.291037707914e-06 1.092221742764e-03 0.0 
0.0 0.0 0.0 
1.490449658959e-05 6.308935114026e-06 0.0 
6.308935114026e-06 1.163673090138e-03 0.0 
0.0 0.0 0.0 
4.301015663088e-05 -5.272007642290e-06 0.0 
-5.272007642290e-06 5.287084746575e-04 0.0 
0.0 0.0 0.0 
-5.665406462407e-06 1.153120361993e-05 0.0 
1.153120361993e-05 1.513328110158e-03 0.0 
0.0 0.0 0.0 
-4.651988815163e-06 1.263592632378e-05 0.0 
1.263592632378e-05 1.515176728160e-03 0.0 
0.0 0.0 0.0 
2.737696607791e-05 -1.642863455851e-06 0.0 
-1.642863455851e-06 1.053340907445e-03 0.0 
0.0 0.0 0.0 
1.925822443316e-05 -1.157600723455e-06 0.0 
-1.157600723455e-06 1.125465860765e-03 0.0 
0.0 0.0 0.0 
4.222630525463e-05 5.914085356180e-06 0.0 
5.914085356180e-06 8.887055095039e-04 0.0 
0.0 0.0 0.0 
-3.097774660010e-05 -4.473667070436e-06 0.0 
-4.473667070436e-06 3.205335944312e-05 0.0 
0.0 0.0 0.0 
4.428290706149e-05 -4.505368337438e-06 0.0 
-4.505368337438e-06 5.402755296304e-04 0.0 
0.0 0.0 0.0 
-2.218135210619e-06 -4.486596941693e-06 0.0 
-4.486596941693e-06 5.956968845600e-05 0.0 
0.0 0.0 0.0 
2.695627894145e-05 3.151042536372e-05 0.0 
3.151042536372e-05 1.088848265653e-03 0.0 
0.0 0.0 0.0 
5.094324311794e-05 8.695363624154e-06 0.0 
8.695363624154e-06 5.745403010011e-04 0.0 
0.0 0.0 0.0 
3.578432722895e-05 2.163029566802e-05 0.0 
2.163029566802e-05 9.940687322714e-04 0.0 
0.0 0.0 0.0 
2.510121944121e-05 -1.480902138013e-05 0.0 
-1.480902138013e-05 2.771315936203e-04 0.0 
0.0 0.0 0.0 
6.101255059177e-06 -2.691164569325e-06 0.0 
-2.691164569325e-06 1.086728757893e-04 0.0 
0.0 0.0 0.0 
2.794969063968e-05 1.375378560550e-05 0.0 
1.375378560550e-05 1.063375193716e-03 0.0 
0.0 0.0 0.0 
4.785324299927e-05 -1.923268801985e-06 0.0 
-1.923268801985e-06 6.029038252231e-04 0.0 
0.0 0.0 0.0 
3.919650154915e-05 4.407619320133e-06 0.0 
4.407619320133e-06 4.675018668514e-04 0.0 
0.0 0.0 0.0 
3.470155030083e-05 1.184430747857e-05 0.0 
1.184430747857e-05 9.956290225368e-04 0.0 
0.0 0.0 0.0 
-1.049410811893e-05 9.129444376448e-06 0.0 
9.129444376448e-06 1.383683766197e-03 0.0 
0.0 0.0 0.0 
3.953951420832e-05 -5.617454926716e-06 0.0 
-5.617454926716e-06 4.673121539245e-04 0.0 
0.0 0.0 0.0 
4.146384152093e-05 4.470012847435e-05 0.0 
4.470012847435e-05 9.650818133100e-04 0.0 
0.0 0.0 0.0 
5.222670520011e-05 2.817853859440e-05 0.0 
2.817853859440e-05 8.176930650823e-04 0.0 
0.0 0.0 0.0 
4.341814209630e-05 1.619690633937e-05 0.0 
1.619690633937e-05 8.871131901189e-04 0.0 
0.0 0.0 0.0 
4.057889709919e-05 1.356685789074e-05 0.0 
1.356685789074e-05 9.165385310261e-04 0.0 
0.0 0.0 0.0 
4.147292505130e-05 8.820331661691e-05 0.0 
8.820331661691e-05 5.676069085512e-04 0.0 
0.0 0.0 0.0 
-5.623870850779e-05 3.519368995071e-05 0.0 
3.519368995071e-05 8.818794974710e-04 0.0 
0.0 0.0 0.0 
-1.839220432254e-05 8.674465895681e-05 0.0 
8.674465895681e-05 8.473909725621e-04 0.0 
0.0 0.0 0.0 
4.830085157881e-05 1.970306504574e-05 0.0 
1.970306504574e-05 8.316859804343e-04 0.0 
0.0 0.0 0.0 
3.152038125553e-05 8.675389652972e-06 0.0 
8.675389652972e-06 1.025003327801e-03 0.0 
0.0 0.0 0.0 
3.769783792329e-05 1.132945170109e-05 0.0 
1.132945170109e-05 9.470280467516e-04 0.0 
0.0 0.0 0.0 
3.386766585067e-05 -1.303491424004e-06 0.0 
-1.303491424004e-06 2.883950212935e-04 0.0 
0.0 0.0 0.0 
-1.120105445529e-05 1.333941549944e-05 0.0 
1.333941549944e-05 1.379833500273e-03 0.0 
0.0 0.0 0.0 
-1.575430672229e-05 1.198217044200e-05 0.0 
1.198217044200e-05 1.318735539577e-03 0.0 
0.0 0.0 0.0 
-2.635501223347e-05 7.443502686848e-06 0.0 
7.443502686848e-06 1.034386674989e-03 0.0 
0.0 0.0 0.0 
4.716419585882e-05 2.424020589982e-05 0.0 
2.424020589982e-05 8.711434392537e-04 0.0 
0.0 0.0 0.0 
4.587596813432e-05 1.799005371764e-05 0.0 
1.799005371764e-05 8.592496999060e-04 0.0 
0.0 0.0 0.0 
-1.269796050618e-05 4.902895210865e-07 0.0 
4.902895210865e-07 1.386162597262e-03 0.0 
0.0 0.0 0.0 
-1.369220461189e-05 1.045774629377e-05 0.0 
1.045774629377e-05 1.351883057457e-03 0.0 
0.0 0.0 0.0 
5.083436627440e-05 1.888961264835e-05 0.0 
1.888961264835e-05 7.934755738803e-04 0.0 
0.0 0.0 0.0 
2.461154685607e-05 1.027431801545e-05 0.0 
1.027431801545e-05 1.092941812890e-03 0.0 
0.0 0.0 0.0 
-1.908984287613e-05 1.835061691467e-05 0.0 
1.835061691467e-05 1.306236815173e-03 0.0 
0.0 0.0 0.0 
3.695256528347e-05 1.374349537500e-06 0.0 
1.374349537500e-06 9.470186796434e-04 0.0 
0.0 0.0 0.0 
2.280421028011e-05 2.722543777141e-05 0.0 
2.722543777141e-05 1.120013328454e-03 0.0 
0.0 0.0 0.0 
-1.357776293331e-05 4.342623157560e-06 0.0 
4.342623157560e-06 1.381339751640e-03 0.0 
0.0 0.0 0.0 
-2.294770071609e-05 2.297679559509e-06 0.0 
2.297679559509e-06 1.224475154451e-03 0.0 
0.0 0.0 0.0 
4.506234294599e-05 3.807326464865e-05 0.0 
3.807326464865e-05 9.206716681542e-04 0.0 
0.0 0.0 0.0 
2.608158743156e-05 -3.237491920866e-07 0.0 
-3.237491920866e-07 2.856786093250e-04 0.0 
0.0 0.0 0.0 
3.150519014739e-05 -1.090049597754e-06 0.0 
-1.090049597754e-06 2.646488950140e-04 0.0 
0.0 0.0 0.0 
1.790382494260e-06 -1.744682275404e-05 0.0 
-1.744682275404e-05 1.321531516176e-04 0.0 
0.0 0.0 0.0 
-3.100370488762e-05 -9.582871316516e-06 0.0 
-9.582871316516e-06 7.297051068900e-05 0.0 
0.0 0.0 0.0 
-1.452317274819e-05 2.040221275813e-06 0.0 
2.040221275813e-06 1.352703826913e-03 0.0 
0.0 0.0 0.0 
2.854385022188e-05 1.590074068234e-05 0.0 
1.590074068234e-05 1.052345174801e-03 0.0 
0.0 0.0 0.0 
-2.698714278682e-05 -9.291409782608e-06 0.0 
-9.291409782608e-06 7.009027026172e-05 0.0 
0.0 0.0 0.0 
-2.975901076752e-05 4.746839688082e-05 0.0 
4.746839688082e-05 1.342303939219e-03 0.0 
0.0 0.0 0.0 
-2.553608011646e-05 8.046405333742e-06 0.0 
8.046405333742e-06 1.063502173819e-03 0.0 
0.0 0.0 0.0 
3.766405478589e-05 1.405995191943e-05 0.0 
1.405995191943e-05 9.678907148027e-04 0.0 
0.0 0.0 0.0 
3.513114119325e-05 1.490474512876e-05 0.0 
1.490474512876e-05 9.836841940176e-04 0.0 
0.0 0.0 0.0 
5.344617571024e-05 1.250578231793e-05 0.0 
1.250578231793e-05 4.213068742041e-04 0.0 
0.0 0.0 0.0 
3.463259548564e-05 4.745723983079e-06 0.0 
4.745723983079e-06 9.851475969049e-04 0.0 
0.0 0.0 0.0 
-2.740899370879e-05 -3.871672037516e-06 0.0 
-3.871672037516e-06 1.034135578865e-03 0.0 
0.0 0.0 0.0 
2.006505760344e-05 7.863677858491e-05 0.0 
7.863677858491e-05 1.015202036395e-03 0.0 
0.0 0.0 0.0 
2.004624498109e-05 3.535733428093e-05 0.0 
3.535733428093e-05 1.149142428974e-03 0.0 
0.0 0.0 0.0 
2.472294709110e-05 1.149823105616e-06 0.0 
1.149823105616e-06 2.754928274877e-04 0.0 
0.0 0.0 0.0 
2.255560686049e-05 3.779377848620e-05 0.0 
3.779377848620e-05 1.132804788049e-03 0.0 
0.0 0.0 0.0 
-2.051435431139e-05 2.120976205968e-06 0.0 
2.120976205968e-06 1.258405774211e-03 0.0 
0.0 0.0 0.0 
2.846046838090e-05 1.400177533855e-06 0.0 
1.400177533855e-06 3.115659930990e-04 0.0 
0.0 0.0 0.0 
3.484377326579e-05 -1.091388518316e-05 0.0 
-1.091388518316e-05 3.264272067618e-04 0.0 
0.0 0.0 0.0 
4.823818382471e-05 7.778774028610e-06 0.0 
7.778774028610e-06 6.838915102318e-04 0.0 
0.0 0.0 0.0 
-2.542276437190e-05 1.150948242799e-05 0.0 
1.150948242799e-05 1.156150689377e-03 0.0 
0.0 0.0 0.0 
4.456638058792e-05 3.080359115876e-06 0.0 
3.080359115876e-06 4.492572995130e-04 0.0 
0.0 0.0 0.0 
-1.816713490377e-05 1.113315995809e-06 0.0 
1.113315995809e-06 1.292077691143e-03 0.0 
0.0 0.0 0.0 
-2.282744321680e-05 5.233533019580e-09 0.0 
5.233533019580e-09 1.194885899652e-03 0.0 
0.0 0.0 0.0 
5.115996849248e-05 1.096710590469e-05 0.0 
1.096710590469e-05 6.651282275698e-04 0.0 
0.0 0.0 0.0 
3.946396533894e-05 3.783531911782e-06 0.0 
3.783531911782e-06 9.172367362891e-04 0.0 
0.0 0.0 0.0 
3.744548382811e-05 7.273655988282e-06 0.0 
7.273655988282e-06 9.564400080504e-04 0.0 
0.0 0.0 0.0 
-1.908598739120e-05 1.091723924111e-05 0.0 
1.091723924111e-05 1.257148259456e-03 0.0 
0.0 0.0 0.0 
1.933365558360e-05 -1.265374531478e-05 0.0 
-1.265374531478e-05 2.367099504224e-04 0.0 
0.0 0.0 0.0 
4.969066492477e-05 8.294952815076e-06 0.0 
8.294952815076e-06 6.287586610245e-04 0.0 
0.0 0.0 0.0 
6.907511376220e-06 9.547343891789e-05 0.0 
9.547343891789e-05 1.177438088697e-03 0.0 
0.0 0.0 0.0 
-2.002333670892e-05 4.075881862554e-06 0.0 
4.075881862554e-06 1.286159258461e-03 0.0 
0.0 0.0 0.0 
4.824295463512e-05 6.872141988666e-06 0.0 
6.872141988666e-06 5.645558386620e-04 0.0 
0.0 0.0 0.0 
4.896868991988e-05 1.714067646665e-05 0.0 
1.714067646665e-05 8.194842890701e-04 0.0 
0.0 0.0 0.0 
2.614391921019e-05 3.981806177127e-05 0.0 
3.981806177127e-05 1.108080385625e-03 0.0 
0.0 0.0 0.0 
-2.059794118670e-05 1.089975095592e-05 0.0 
1.089975095592e-05 1.223464074350e-03 0.0 
0.0 0.0 0.0 
3.335470260435e-06 -6.994356494091e-07 0.0 
-6.994356494091e-07 1.334623862970e-04 0.0 
0.0 0.0 0.0 
3.106936236286e-06 -1.418319671500e-05 0.0 
-1.418319671500e-05 1.276721383872e-04 0.0 
0.0 0.0 0.0 
4.426641961341e-05 4.323620911006e-05 0.0 
4.323620911006e-05 3.080824603137e-04 0.0 
0.0 0.0 0.0 
3.212651555184e-05 1.932432983641e-05 0.0 
1.932432983641e-05 1.023391889027e-03 0.0 
0.0 0.0 0.0 
-2.324009904120e-05 1.126022289057e-05 0.0 
1.126022289057e-05 1.189924177360e-03 0.0 
0.0 0.0 0.0 
4.731131892632e-05 -1.912330947524e-06 0.0 
-1.912330947524e-06 7.492431388627e-04 0.0 
0.0 0.0 0.0 
-2.670873458277e-05 9.140522493391e-06 0.0 
9.140522493391e-06 1.093982064699e-03 0.0 
0.0 0.0 0.0 
3.049998054871e-05 5.590913244231e-05 0.0 
5.590913244231e-05 1.079641364011e-03 0.0 
0.0 0.0 0.0 
4.996031120164e-05 1.042296957762e-05 0.0 
1.042296957762e-05 6.924784392044e-04 0.0 
0.0 0.0 0.0 
3.851431029722e-05 1.765816772382e-05 0.0 
1.765816772382e-05 9.548432450539e-04 0.0 
0.0 0.0 0.0 
2.459255961562e-05 -9.755385825385e-06 0.0 
-9.755385825385e-06 2.872149276036e-04 0.0 
0.0 0.0 0.0 
2.499435582792e-05 3.958059226552e-05 0.0 
3.958059226552e-05 1.120525622888e-03 0.0 
0.0 0.0 0.0 
4.837668797508e-05 5.441557118449e-07 0.0 
5.441557118449e-07 6.667873693764e-04 0.0 
0.0 0.0 0.0 
2.629205912008e-05 -8.501793461951e-06 0.0 
-8.501793461951e-06 3.131187228715e-04 0.0 
0.0 0.0 0.0 
4.714559869368e-05 -2.269830984580e-06 0.0 
-2.269830984580e-06 6.305019964301e-04 0.0 
0.0 0.0 0.0 
4.502123049166e-05 3.562843989291e-06 0.0 
3.562843989291e-06 4.758553113930e-04 0.0 
0.0 0.0 0.0 
3.428900178104e-05 -1.139471624940e-05 0.0 
-1.139471624940e-05 3.634794550209e-04 0.0 
0.0 0.0 0.0 
4.760570625950e-05 8.536454104106e-06 0.0 
8.536454104106e-06 7.472194381644e-04 0.0 
0.0 0.0 0.0 
-9.216456871353e-06 -2.608672858564e-06 0.0 
-2.608672858564e-06 2.312315549857e-05 0.0 
0.0 0.0 0.0 
-1.379363696397e-05 -3.174509093241e-06 0.0 
-3.174509093241e-06 2.566091631118e-05 0.0 
0.0 0.0 0.0 
4.401502216145e-05 7.635960420321e-06 0.0 
7.635960420321e-06 8.608508779824e-04 0.0 
0.0 0.0 0.0 
2.207473195437e-05 -1.125580650145e-05 0.0 
-1.125580650145e-05 2.621733739070e-04 0.0 
0.0 0.0 0.0 
4.471779478621e-05 1.360154416838e-05 0.0 
1.360154416838e-05 8.727920646923e-04 0.0 
0.0 0.0 0.0 
4.691852185457e-05 1.544366537986e-05 0.0 
1.544366537986e-05 8.459647794368e-04 0.0 
0.0 0.0 0.0 
5.207394977114e-05 9.010837840086e-06 0.0 
9.010837840086e-06 5.207219513474e-04 0.0 
0.0 0.0 0.0 
4.720255499735e-05 9.505316947993e-06 0.0 
9.505316947993e-06 3.345830054917e-04 0.0 
0.0 0.0 0.0 
-1.859596586529e-05 9.235830090965e-06 0.0 
9.235830090965e-06 1.340734038970e-03 0.0 
0.0 0.0 0.0 
2.424499176601e-05 5.081959121582e-05 0.0 
5.081959121582e-05 1.742789348762e-04 0.0 
0.0 0.0 0.0 
4.516359188456e-05 3.902898738576e-06 0.0 
3.902898738576e-06 5.032210626157e-04 0.0 
0.0 0.0 0.0 
2.517582924066e-05 6.372102161972e-05 0.0 
6.372102161972e-05 1.124005891458e-03 0.0 
0.0 0.0 0.0 
2.036908896308e-05 -9.239618283653e-07 0.0 
-9.239618283653e-07 2.236008031991e-04 0.0 
0.0 0.0 0.0 
-2.738206041364e-05 1.039815348553e-06 0.0 
1.039815348553e-06 1.128813568657e-03 0.0 
0.0 0.0 0.0 
-2.820532492842e-05 -1.587428664305e-06 0.0 
-1.587428664305e-06 1.064802400932e-03 0.0 
0.0 0.0 0.0 
1.696870256040e-05 -1.599150213845e-05 0.0 
-1.599150213845e-05 2.175939654434e-04 0.0 
0.0 0.0 0.0 
2.972212945918e-05 4.369105061016e-05 0.0 
4.369105061016e-05 1.081552145773e-03 0.0 
0.0 0.0 0.0 
-2.542866032418e-05 7.736630315523e-06 0.0 
7.736630315523e-06 1.246423253637e-03 0.0 
0.0 0.0 0.0 
2.355423850808e-05 -1.740499489962e-06 0.0 
-1.740499489962e-06 2.602457257308e-04 0.0 
0.0 0.0 0.0 
-1.775324858477e-05 1.267042325959e-05 0.0 
1.267042325959e-05 1.366764814002e-03 0.0 
0.0 0.0 0.0 
-1.501393788395e-05 2.015581519249e-05 0.0 
2.015581519249e-05 1.365579915148e-03 0.0 
0.0 0.0 0.0 
2.583850599636e-05 -1.241944741522e-05 0.0 
-1.241944741522e-05 2.949190428725e-04 0.0 
0.0 0.0 0.0 
-5.016686725101e-05 7.097408953008e-05 0.0 
7.097408953008e-05 6.783104589889e-04 0.0 
0.0 0.0 0.0 
2.772358003944e-05 -1.360291556435e-05 0.0 
-1.360291556435e-05 3.029896140558e-04 0.0 
0.0 0.0 0.0 
4.027605940848e-05 9.712814713480e-06 0.0 
9.712814713480e-06 9.278568201407e-04 0.0 
0.0 0.0 0.0 
4.871454852329e-05 9.653569501774e-06 0.0 
9.653569501774e-06 7.200955477731e-04 0.0 
0.0 0.0 0.0 
-2.274263124369e-05 4.677649857329e-05 0.0 
4.677649857329e-05 1.354430191830e-03 0.0 
0.0 0.0 0.0 
-1.619927815388e-05 1.746951941898e-05 0.0 
1.746951941898e-05 1.339759204634e-03 0.0 
0.0 0.0 0.0 
4.248765412429e-05 1.172364329471e-05 0.0 
1.172364329471e-05 9.001664173867e-04 0.0 
0.0 0.0 0.0 
4.440663810756e-05 2.218387846048e-05 0.0 
2.218387846048e-05 8.985537754622e-04 0.0 
0.0 0.0 0.0 
2.263701523209e-05 -3.650289813690e-06 0.0 
-3.650289813690e-06 2.414429330737e-04 0.0 
0.0 0.0 0.0 
4.156943452971e-05 1.998332562132e-05 0.0 
1.998332562132e-05 9.262772010541e-04 0.0 
0.0 0.0 0.0 
-2.256040927107e-05 1.603488257955e-05 0.0 
1.603488257955e-05 1.245444495446e-03 0.0 
0.0 0.0 0.0 
4.729137486548e-05 -3.426573694318e-07 0.0 
-3.426573694318e-07 7.216526174902e-04 0.0 
0.0 0.0 0.0 
-2.541980545756e-05 2.766228398729e-06 0.0 
2.766228398729e-06 1.190919936523e-03 0.0 
0.0 0.0 0.0 
-2.239050784791e-05 7.202065548932e-06 0.0 
7.202065548932e-06 1.280004020672e-03 0.0 
0.0 0.0 0.0 
2.653163850752e-05 9.064819132293e-05 0.0 
9.064819132293e-05 7.557970442305e-04 0.0 
0.0 0.0 0.0 
-1.722133128412e-05 1.492480745127e-05 0.0 
1.492480745127e-05 1.312662094628e-03 0.0 
0.0 0.0 0.0 
4.745742854739e-05 6.983373785397e-06 0.0 
6.983373785397e-06 5.958267520958e-04 0.0 
0.0 0.0 0.0 
4.773248404977e-05 1.192567452861e-07 0.0 
1.192567452861e-07 6.941122354029e-04 0.0 
0.0 0.0 0.0 
4.122851848432e-05 3.103672243135e-06 0.0 
3.103672243135e-06 4.420053716347e-04 0.0 
0.0 0.0 0.0 
4.736423060936e-05 -2.374423285680e-06 0.0 
-2.374423285680e-06 4.708253619736e-04 0.0 
0.0 0.0 0.0 
-2.294448641083e-05 1.349186087863e-05 0.0 
1.349186087863e-05 1.217822817766e-03 0.0 
0.0 0.0 0.0 
5.522251559964e-05 1.851539810541e-05 0.0 
1.851539810541e-05 6.769325914104e-04 0.0 
0.0 0.0 0.0 
2.994934803513e-05 -1.234781523101e-05 0.0 
-1.234781523101e-05 3.290786099150e-04 0.0 
0.0 0.0 0.0 
7.522553335138e-06 -1.548790943878e-05 0.0 
-1.548790943878e-05 1.593731290144e-04 0.0 
0.0 0.0 0.0 
-2.539734716911e-05 5.119968229193e-06 0.0 
5.119968229193e-06 1.218808240247e-03 0.0 
0.0 0.0 0.0 
3.299269667667e-05 -1.403040636224e-06 0.0 
-1.403040636224e-06 3.273647541606e-04 0.0 
0.0 0.0 0.0 
2.569649553830e-05 4.736173906849e-05 0.0 
4.736173906849e-05 1.131838219197e-03 0.0 
0.0 0.0 0.0 
-2.037409207190e-05 1.312519076058e-05 0.0 
1.312519076058e-05 1.251438064900e-03 0.0 
0.0 0.0 0.0 
3.916364314538e-05 2.448789410038e-05 0.0 
2.448789410038e-05 9.662995299184e-04 0.0 
0.0 0.0 0.0 
8.003211487528e-06 8.321581507554e-05 0.0 
8.321581507554e-05 1.250360774043e-03 0.0 
0.0 0.0 0.0 
4.552590247786e-05 -4.258199977359e-06 0.0 
-4.258199977359e-06 5.669187407218e-04 0.0 
0.0 0.0 0.0 
2.807814571426e-05 -1.828770596533e-06 0.0 
-1.828770596533e-06 2.932711256105e-04 0.0 
0.0 0.0 0.0 
1.335441566530e-05 -3.608443204723e-06 0.0 
-3.608443204723e-06 1.815943360686e-04 0.0 
0.0 0.0 0.0 
4.291587120564e-05 1.863444404878e-05 0.0 
1.863444404878e-05 9.130306495555e-04 0.0 
0.0 0.0 0.0 
-2.345443182705e-05 9.630364787818e-06 0.0 
9.630364787818e-06 1.161933278704e-03 0.0 
0.0 0.0 0.0 
3.897831423627e-06 -3.689345006379e-06 0.0 
-3.689345006379e-06 1.250982612273e-04 0.0 
0.0 0.0 0.0 
4.117602298015e-05 -7.770443620417e-06 0.0 
-7.770443620417e-06 4.509437828073e-04 0.0 
0.0 0.0 0.0 
2.149815352159e-05 -8.591568330723e-06 0.0 
-8.591568330723e-06 2.539574142484e-04 0.0 
0.0 0.0 0.0 
-2.762578612781e-05 3.157706160261e-06 0.0 
3.157706160261e-06 1.157124817770e-03 0.0 
0.0 0.0 0.0 
4.254084848454e-05 -7.048403672079e-06 0.0 
-7.048403672079e-06 4.774935491829e-04 0.0 
0.0 0.0 0.0 
4.979126003013e-05 2.618329236459e-05 0.0 
2.618329236459e-05 8.442455110076e-04 0.0 
0.0 0.0 0.0 
3.854936820247e-05 -8.112406713257e-06 0.0 
-8.112406713257e-06 4.431828982758e-04 0.0 
0.0 0.0 0.0 
-1.743896653028e-05 3.070401756603e-06 0.0 
3.070401756603e-06 1.319905028347e-03 0.0 
0.0 0.0 0.0 
3.933493319175e-05 7.257956536400e-07 0.0 
7.257956536400e-07 3.881042656237e-04 0.0 
0.0 0.0 0.0 
4.321170719690e-05 2.647891405396e-05 0.0 
2.647891405396e-05 9.278079759820e-04 0.0 
0.0 0.0 0.0 
2.574143594058e-05 -1.478313063356e-05 0.0 
-1.478313063356e-05 2.668291099603e-04 0.0 
0.0 0.0 0.0 
4.538912102592e-05 2.069442246823e-05 0.0 
2.069442246823e-05 8.863366033756e-04 0.0 
0.0 0.0 0.0 
4.707620558198e-05 -1.175845997259e-06 0.0 
-1.175845997259e-06 6.594535039974e-04 0.0 
0.0 0.0 0.0 
4.238725863259e-05 2.698304149928e-05 0.0 
2.698304149928e-05 9.386217707568e-04 0.0 
0.0 0.0 0.0 
5.955807966140e-05 5.764314501143e-05 0.0 
5.764314501143e-05 4.773225913655e-04 0.0 
0.0 0.0 0.0 
2.231556680687e-05 1.071628000777e-06 0.0 
1.071628000777e-06 2.515054197885e-04 0.0 
0.0 0.0 0.0 
-2.651029270528e-05 -6.231681882895e-07 0.0 
-6.231681882895e-07 1.099978185596e-03 0.0 
0.0 0.0 0.0 
4.378116570725e-05 5.474458821771e-05 0.0 
5.474458821771e-05 8.974248748186e-04 0.0 
0.0 0.0 0.0 
-3.927880390830e-05 7.597499498718e-05 0.0 
7.597499498718e-05 8.369478949710e-04 0.0 
0.0 0.0 0.0 
-2.523213491012e-05 6.397658610675e-07 0.0 
6.397658610675e-07 1.162227740056e-03 0.0 
0.0 0.0 0.0 
3.288101130572e-05 -1.130471996908e-05 0.0 
-1.130471996908e-05 3.013602663458e-04 0.0 
0.0 0.0 0.0 
-2.788760094663e-05 1.615544062038e-05 0.0 
1.615544062038e-05 1.178369029564e-03 0.0 
0.0 0.0 0.0 
1.792342528084e-05 -1.039875046169e-05 0.0 
-1.039875046169e-05 2.272647030346e-04 0.0 
0.0 0.0 0.0 
3.052201526343e-05 3.332169079947e-05 0.0 
3.332169079947e-05 1.064992808353e-03 0.0 
0.0 0.0 0.0 
3.864451745872e-05 6.160698631313e-05 0.0 
6.160698631313e-05 9.457141586631e-04 0.0 
0.0 0.0 0.0 
1.298070661249e-05 8.196531072737e-05 0.0 
8.196531072737e-05 1.065940942949e-03 0.0 
0.0 0.0 0.0 
-1.435258259808e-05 1.114403463797e-05 0.0 
1.114403463797e-05 1.402028663540e-03 0.0 
0.0 0.0 0.0 
5.392206956856e-05 2.295264372934e-05 0.0 
2.295264372934e-05 7.430279159002e-04 0.0 
0.0 0.0 0.0 
2.062741680020e-05 -2.807813033820e-06 0.0 
-2.807813033820e-06 2.345473320577e-04 0.0 
0.0 0.0 0.0 
4.968471654787e-05 2.492762227266e-05 0.0 
2.492762227266e-05 8.347076978281e-04 0.0 
0.0 0.0 0.0 
2.841089414352e-05 5.094735770814e-05 0.0 
5.094735770814e-05 1.106343215930e-03 0.0 
0.0 0.0 0.0 
4.653438504953e-05 -1.134530473792e-07 0.0 
-1.134530473792e-07 3.992127702288e-04 0.0 
0.0 0.0 0.0 
4.031812477234e-05 1.643215206850e-05 0.0 
1.643215206850e-05 9.402419719371e-04 0.0 
0.0 0.0 0.0 
-2.273056572777e-05 4.592201131703e-06 0.0 
4.592201131703e-06 1.252443551842e-03 0.0 
0.0 0.0 0.0 
4.657721821832e-05 1.175609936476e-05 0.0 
1.175609936476e-05 3.091415060466e-04 0.0 
0.0 0.0 0.0 
4.765981803634e-05 2.275582478354e-05 0.0 
2.275582478354e-05 8.602486480962e-04 0.0 
0.0 0.0 0.0 
-3.147045608332e-05 2.678891215308e-06 0.0 
2.678891215308e-06 1.088930943135e-03 0.0 
0.0 0.0 0.0 
3.026563401032e-05 -9.080852727521e-06 0.0 
-9.080852727521e-06 3.474542093851e-04 0.0 
0.0 0.0 0.0 
4.001835337375e-05 -8.706112939250e-06 0.0 
-8.706112939250e-06 4.245276904020e-04 0.0 
0.0 0.0 0.0 
-3.211285351679e-05 7.670274544168e-05 0.0 
7.670274544168e-05 9.439120325527e-04 0.0 
0.0 0.0 0.0 
4.543580887306e-05 2.928254914679e-05 0.0 
2.928254914679e-05 9.113772180536e-04 0.0 
0.0 0.0 0.0 
-5.296360606655e-05 5.729339288565e-05 0.0 
5.729339288565e-05 8.188188742027e-04 0.0 
0.0 0.0 0.0 
-2.605172831727e-05 8.185047491718e-05 0.0 
8.185047491718e-05 8.969044131635e-04 0.0 
0.0 0.0 0.0 
-2.524523640346e-05 1.621363722859e-05 0.0 
1.621363722859e-05 1.211910425089e-03 0.0 
0.0 0.0 0.0 
-2.526215310439e-05 9.831633908273e-06 0.0 
9.831633908273e-06 1.127786249836e-03 0.0 
0.0 0.0 0.0 
-2.970420147963e-05 1.304495673425e-05 0.0 
1.304495673425e-05 1.116949125181e-03 0.0 
0.0 0.0 0.0 
4.886038941665e-05 7.696263575543e-06 0.0 
7.696263575543e-06 6.574929101011e-04 0.0 
0.0 0.0 0.0 
3.276517525985e-05 4.613758261080e-05 0.0 
4.613758261080e-05 1.057573204854e-03 0.0 
0.0 0.0 0.0 
5.142758792043e-05 2.724533211337e-05 0.0 
2.724533211337e-05 8.097652930799e-04 0.0 
0.0 0.0 0.0 
-2.961377256616e-05 1.132251605674e-06 0.0 
1.132251605674e-06 1.094907369006e-03 0.0 
0.0 0.0 0.0 
-2.645966809767e-05 5.315209053676e-05 0.0 
5.315209053676e-05 1.366599223473e-03 0.0 
0.0 0.0 0.0 
6.337815890101e-06 8.416056919738e-05 0.0 
8.416056919738e-05 1.115576210726e-03 0.0 
0.0 0.0 0.0 
4.827436052901e-05 3.154931233273e-05 0.0 
3.154931233273e-05 8.846480478035e-04 0.0 
0.0 0.0 0.0 
-1.983816570428e-05 1.553440905720e-05 0.0 
1.553440905720e-05 1.279020771054e-03 0.0 
0.0 0.0 0.0 
4.754441035826e-05 -2.700982202579e-06 0.0 
-2.700982202579e-06 4.962183289396e-04 0.0 
0.0 0.0 0.0 
4.389580085706e-05 -6.211554772566e-06 0.0 
-6.211554772566e-06 4.599732897919e-04 0.0 
0.0 0.0 0.0 
2.008879589410e-05 -1.511658945815e-05 0.0 
-1.511658945815e-05 2.432215912622e-04 0.0 
0.0 0.0 0.0 
4.776840066278e-05 3.138469219629e-05 0.0 
3.138469219629e-05 8.770965813993e-04 0.0 
0.0 0.0 0.0 
4.441629840790e-05 -5.686463917928e-06 0.0 
-5.686463917928e-06 4.864469595589e-04 0.0 
0.0 0.0 0.0 
-2.798850687991e-05 5.283283295209e-06 0.0 
5.283283295209e-06 1.184990238958e-03 0.0 
0.0 0.0 0.0 
-3.055126367435e-05 5.228908493396e-06 0.0 
5.228908493396e-06 1.151247062100e-03 0.0 
0.0 0.0 0.0 
3.606426733982e-05 7.321489103272e-05 0.0 
7.321489103272e-05 7.681626335740e-04 0.0 
0.0 0.0 0.0 
4.338098115064e-05 2.104916635435e-06 0.0 
2.104916635435e-06 3.965107091839e-04 0.0 
0.0 0.0 0.0 
4.417594158013e-05 8.864381860781e-05 0.0 
8.864381860781e-05 4.999799866405e-04 0.0 
0.0 0.0 0.0 
4.402440356466e-05 2.558672244056e-06 0.0 
2.558672244056e-06 4.227583840339e-04 0.0 
0.0 0.0 0.0 
4.844944180871e-05 5.468125205378e-06 0.0 
5.468125205378e-06 4.581447492460e-04 0.0 
0.0 0.0 0.0 
2.557232058664e-05 -2.852894480649e-06 0.0 
-2.852894480649e-06 2.674244645922e-04 0.0 
0.0 0.0 0.0 
3.531311226368e-05 4.884280346710e-05 0.0 
4.884280346710e-05 1.033775480757e-03 0.0 
0.0 0.0 0.0 
5.858330590303e-05 2.013332612328e-05 0.0 
2.013332612328e-05 5.700845436678e-04 0.0 
0.0 0.0 0.0 
-1.941409297423e-05 6.428800541018e-06 0.0 
6.428800541018e-06 1.313668264239e-03 0.0 
0.0 0.0 0.0 
6.021887687324e-05 2.684293703061e-05 0.0 
2.684293703061e-05 6.096850442634e-04 0.0 
0.0 0.0 0.0 
5.313188322886e-05 3.640498721673e-05 0.0 
3.640498721673e-05 8.329367803657e-04 0.0 
0.0 0.0 0.0 
5.836719735597e-05 2.868248065502e-05 0.0 
2.868248065502e-05 6.999804574370e-04 0.0 
0.0 0.0 0.0 
-7.798873722153e-06 8.812325671567e-05 0.0 
8.812325671567e-05 8.520711140108e-04 0.0 
0.0 0.0 0.0 
2.318461026163e-05 -1.364405992694e-05 0.0 
-1.364405992694e-05 2.692230711223e-04 0.0 
0.0 0.0 0.0 
3.168000116283e-05 5.294757179890e-05 0.0 
5.294757179890e-05 1.079825312953e-03 0.0 
0.0 0.0 0.0 
2.433302244209e-05 4.985074557374e-05 0.0 
4.985074557374e-05 1.130692189097e-03 0.0 
0.0 0.0 0.0 
-2.883002375931e-05 7.843094076373e-05 0.0 
7.843094076373e-05 1.098764438919e-03 0.0 
0.0 0.0 0.0 
5.248016225656e-05 9.441059365974e-06 0.0 
9.441059365974e-06 4.943150732872e-04 0.0 
0.0 0.0 0.0 
5.634689364609e-05 3.261749982077e-05 0.0 
3.261749982077e-05 7.661349939185e-04 0.0 
0.0 0.0 0.0 
-2.528863894213e-05 1.376128410670e-05 0.0 
1.376128410670e-05 1.183998246524e-03 0.0 
0.0 0.0 0.0 
4.761299227374e-05 -2.613848677574e-06 0.0 
-2.613848677574e-06 5.225296348177e-04 0.0 
0.0 0.0 0.0 
-3.229025461760e-05 8.387511609458e-05 0.0 
8.387511609458e-05 7.899341680280e-04 0.0 
0.0 0.0 0.0 
3.571924932366e-05 -1.022349444938e-05 0.0 
-1.022349444938e-05 3.898161200513e-04 0.0 
0.0 0.0 0.0 
3.962083900455e-05 -5.923668098788e-06 0.0 
-5.923668098788e-06 3.370079440428e-04 0.0 
0.0 0.0 0.0 
5.078215855514e-05 1.815880875129e-06 0.0 
1.815880875129e-06 5.334218441433e-04 0.0 
0.0 0.0 0.0 
3.466950110220e-05 -4.760215164324e-07 0.0 
-4.760215164324e-07 3.536733936873e-04 0.0 
0.0 0.0 0.0 
2.810988244328e-05 -1.091540130375e-05 0.0 
-1.091540130375e-05 3.210440678509e-04 0.0 
0.0 0.0 0.0 
5.409851740446e-05 1.652225771016e-05 0.0 
1.652225771016e-05 7.018695528813e-04 0.0 
0.0 0.0 0.0 
5.086903419915e-05 3.393171039648e-05 0.0 
3.393171039648e-05 8.585165269699e-04 0.0 
0.0 0.0 0.0 
-2.102502549262e-05 8.241172983777e-05 0.0 
8.241172983777e-05 1.254793064081e-03 0.0 
0.0 0.0 0.0 
-2.081639092644e-05 -1.360209947482e-06 0.0 
-1.360209947482e-06 2.613295367837e-05 0.0 
0.0 0.0 0.0 
6.145871554253e-05 4.208081451846e-05 0.0 
4.208081451846e-05 6.040703653123e-04 0.0 
0.0 0.0 0.0 
6.104824930553e-05 2.968359358573e-05 0.0 
2.968359358573e-05 5.851999489024e-04 0.0 
0.0 0.0 0.0 
5.596679089837e-05 1.430670482734e-05 0.0 
1.430670482734e-05 5.315917902264e-04 0.0 
0.0 0.0 0.0 
-2.748903047178e-05 1.352504809517e-05 0.0 
1.352504809517e-05 1.150285740149e-03 0.0 
0.0 0.0 0.0 
5.914487290237e-05 2.455279492353e-05 0.0 
2.455279492353e-05 6.345474294747e-04 0.0 
0.0 0.0 0.0 
4.039720129922e-05 1.719518002673e-06 0.0 
1.719518002673e-06 4.147045084621e-04 0.0 
0.0 0.0 0.0 
5.343807095226e-05 7.483370033141e-06 0.0 
7.483370033141e-06 5.720535930018e-04 0.0 
0.0 0.0 0.0 
-1.827690505329e-05 1.259597343970e-05 0.0 
1.259597343970e-05 1.285165157457e-03 0.0 
0.0 0.0 0.0 
3.673275129934e-05 -8.977068422837e-06 0.0 
-8.977068422837e-06 4.163862207840e-04 0.0 
0.0 0.0 0.0 
8.899350689928e-06 -3.011612425727e-06 0.0 
-3.011612425727e-06 1.479115348717e-04 0.0 
0.0 0.0 0.0 
1.723564003475e-05 -3.648551693262e-06 0.0 
-3.648551693262e-06 2.082759244655e-04 0.0 
0.0 0.0 0.0 
4.769686563799e-05 7.884279260677e-06 0.0 
7.884279260677e-06 3.601002548268e-04 0.0 
0.0 0.0 0.0 
4.828587238581e-05 5.441840994410e-06 0.0 
5.441840994410e-06 4.322802049546e-04 0.0 
0.0 0.0 0.0 
6.128683001760e-05 3.781951185310e-05 0.0 
3.781951185310e-05 6.269743022276e-04 0.0 
0.0 0.0 0.0 
5.527152563478e-05 1.395333726915e-05 0.0 
1.395333726915e-05 6.118313198189e-04 0.0 
0.0 0.0 0.0 
2.272996979125e-05 -1.568976182484e-05 0.0 
-1.568976182484e-05 2.407402559343e-04 0.0 
0.0 0.0 0.0 
1.552657329196e-05 -1.477310717007e-05 0.0 
-1.477310717007e-05 2.099192927252e-04 0.0 
0.0 0.0 0.0 
-3.760195618108e-05 6.963289041145e-06 0.0 
6.963289041145e-06 1.109809236834e-03 0.0 
0.0 0.0 0.0 
3.188142311816e-05 -1.107003951949e-05 0.0 
-1.107003951949e-05 3.553037608257e-04 0.0 
0.0 0.0 0.0 
4.232117376302e-05 5.287459903373e-05 0.0 
5.287459903373e-05 9.871890730364e-04 0.0 
0.0 0.0 0.0 
-2.038294474793e-05 8.402230936601e-05 0.0 
8.402230936601e-05 1.211820365540e-03 0.0 
0.0 0.0 0.0 
-4.840949163276e-05 2.800362402203e-05 0.0 
2.800362402203e-05 1.113809725456e-03 0.0 
0.0 0.0 0.0 
-2.066874253970e-05 2.571714319146e-05 0.0 
2.571714319146e-05 1.326005457806e-03 0.0 
0.0 0.0 0.0 
-1.949157165859e-05 8.094251900104e-05 0.0 
8.094251900104e-05 1.295831570983e-03 0.0 
0.0 0.0 0.0 
2.982483095426e-05 7.926352534888e-05 0.0 
7.926352534888e-05 7.574835765145e-04 0.0 
0.0 0.0 0.0 
-2.471229257284e-05 8.100828938696e-05 0.0 
8.100828938696e-05 1.154951305621e-03 0.0 
0.0 0.0 0.0 
3.046438166421e-05 -1.137323730364e-05 0.0 
-1.137323730364e-05 2.759059152984e-04 0.0 
0.0 0.0 0.0 
5.279289323146e-05 6.321587358421e-06 0.0 
6.321587358421e-06 5.973965847290e-04 0.0 
0.0 0.0 0.0 
7.222070881330e-06 9.798382992111e-05 0.0 
9.798382992111e-05 7.423942760674e-04 0.0 
0.0 0.0 0.0 
5.325743131079e-05 2.584029604892e-05 0.0 
2.584029604892e-05 3.235101569545e-04 0.0 
0.0 0.0 0.0 
1.839117169444e-05 -1.573232092660e-05 0.0 
-1.573232092660e-05 2.169534602938e-04 0.0 
0.0 0.0 0.0 
4.847379903539e-05 5.595195296571e-06 0.0 
5.595195296571e-06 4.846995038559e-04 0.0 
0.0 0.0 0.0 
5.595214787490e-05 1.620599019847e-05 0.0 
1.620599019847e-05 5.875614279762e-04 0.0 
0.0 0.0 0.0 
5.672107607402e-05 2.401965470704e-05 0.0 
2.401965470704e-05 6.292122388092e-04 0.0 
0.0 0.0 0.0 
3.605816672514e-05 4.610339812880e-07 0.0 
4.610339812880e-07 3.800864892587e-04 0.0 
0.0 0.0 0.0 
5.969607959799e-05 3.114652937463e-05 0.0 
3.114652937463e-05 6.749752371515e-04 0.0 
0.0 0.0 0.0 
5.702087131931e-05 2.777132724004e-05 0.0 
2.777132724004e-05 6.065783979834e-04 0.0 
0.0 0.0 0.0 
5.952795151032e-05 5.094403704217e-05 0.0 
5.094403704217e-05 6.487751486779e-04 0.0 
0.0 0.0 0.0 
4.326659039267e-05 -6.569385912378e-06 0.0 
-6.569385912378e-06 4.340934773344e-04 0.0 
0.0 0.0 0.0 
3.070491877533e-05 7.103575445655e-05 0.0 
7.103575445655e-05 9.786684699682e-04 0.0 
0.0 0.0 0.0 
-2.845053048917e-05 8.020925433874e-06 0.0 
8.020925433874e-06 1.212867221494e-03 0.0 
0.0 0.0 0.0 
5.830731634249e-05 5.673631638820e-05 0.0 
5.673631638820e-05 6.286357513081e-04 0.0 
0.0 0.0 0.0 
3.549173041462e-05 5.654760224051e-05 0.0 
5.654760224051e-05 1.055980925121e-03 0.0 
0.0 0.0 0.0 
3.817551047836e-05 -4.927294620185e-06 0.0 
-4.927294620185e-06 3.116902979590e-04 0.0 
0.0 0.0 0.0 
2.579822973847e-05 7.152850475477e-05 0.0 
7.152850475477e-05 1.150453986705e-03 0.0 
0.0 0.0 0.0 
6.065184302773e-05 3.415728952590e-05 0.0 
3.415728952590e-05 6.504757710037e-04 0.0 
0.0 0.0 0.0 
-1.678526981286e-05 8.204474162341e-05 0.0 
8.204474162341e-05 1.340753704495e-03 0.0 
0.0 0.0 0.0 
-4.696154399919e-05 5.277897223589e-05 0.0 
5.277897223589e-05 1.099348500887e-03 0.0 
0.0 0.0 0.0 
3.953937359302e-05 3.199004437977e-06 0.0 
3.199004437977e-06 2.990959742055e-04 0.0 
0.0 0.0 0.0 
-4.801583350433e-05 3.425269808247e-05 0.0 
3.425269808247e-05 1.135315498821e-03 0.0 
0.0 0.0 0.0 
-2.208838313056e-05 3.516798836267e-05 0.0 
3.516798836267e-05 1.342754570811e-03 0.0 
0.0 0.0 0.0 
5.978038567034e-05 4.180614745566e-05 0.0 
4.180614745566e-05 6.929671317693e-04 0.0 
0.0 0.0 0.0 
-1.271043810724e-05 9.760091307115e-05 0.0 
9.760091307115e-05 6.789530419060e-04 0.0 
0.0 0.0 0.0 
-4.678866661179e-05 4.073824335037e-05 0.0 
4.073824335037e-05 1.155683497222e-03 0.0 
0.0 0.0 0.0 
-3.616640828608e-05 7.758707240155e-05 0.0 
7.758707240155e-05 8.897895491082e-04 0.0 
0.0 0.0 0.0 
2.888904472420e-05 -7.599293252196e-07 0.0 
-7.599293252196e-07 2.382635305367e-04 0.0 
0.0 0.0 0.0 
-9.530436736127e-06 3.175140379629e-05 0.0 
3.175140379629e-05 1.444969192465e-03 0.0 
0.0 0.0 0.0 
1.922325388581e-05 -3.254918684210e-06 0.0 
-3.254918684210e-06 2.054333096901e-04 0.0 
0.0 0.0 0.0 
1.120905365415e-05 8.665717034679e-05 0.0 
8.665717034679e-05 1.208072948645e-03 0.0 
0.0 0.0 0.0 
-1.346191344676e-05 1.641379666942e-05 0.0 
1.641379666942e-05 1.372808061732e-03 0.0 
0.0 0.0 0.0 
3.281551509726e-05 6.759144190017e-05 0.0 
6.759144190017e-05 9.950321916217e-04 0.0 
0.0 0.0 0.0 
-2.725389104286e-05 1.176144823638e-05 0.0 
1.176144823638e-05 1.121506272487e-03 0.0 
0.0 0.0 0.0 
-2.499576718651e-05 1.409265947647e-05 0.0 
1.409265947647e-05 1.300722934733e-03 0.0 
0.0 0.0 0.0 
5.613919658964e-05 3.674702687910e-05 0.0 
3.674702687910e-05 6.511041985326e-04 0.0 
0.0 0.0 0.0 
3.333987360032e-05 7.327155063798e-05 0.0 
7.327155063798e-05 8.336227745163e-04 0.0 
0.0 0.0 0.0 
-1.522141276400e-05 2.861257853175e-05 0.0 
2.861257853175e-05 1.384677856188e-03 0.0 
0.0 0.0 0.0 
4.605138624236e-05 3.738755374102e-05 0.0 
3.738755374102e-05 9.260920895828e-04 0.0 
0.0 0.0 0.0 
-2.860836417451e-05 1.120311631914e-05 0.0 
1.120311631914e-05 1.240295507621e-03 0.0 
0.0 0.0 0.0 
4.604440115563e-05 6.290055245965e-05 0.0 
6.290055245965e-05 9.165169321335e-04 0.0 
0.0 0.0 0.0 
3.812402651726e-05 4.191687363815e-06 0.0 
4.191687363815e-06 2.734093787835e-04 0.0 
0.0 0.0 0.0 
-2.851908090984e-05 1.473643149844e-05 0.0 
1.473643149844e-05 1.267121890062e-03 0.0 
0.0 0.0 0.0 
-9.557920484737e-06 9.609996260918e-05 0.0 
9.609996260918e-05 1.376853963866e-03 0.0 
0.0 0.0 0.0 
2.732624268398e-05 6.117783211057e-05 0.0 
6.117783211057e-05 1.128141089253e-03 0.0 
0.0 0.0 0.0 
5.760345716577e-05 1.854216707095e-05 0.0 
1.854216707095e-05 5.955057133098e-04 0.0 
0.0 0.0 0.0 
-2.968555043636e-05 2.689940403335e-06 0.0 
2.689940403335e-06 1.122355664433e-03 0.0 
0.0 0.0 0.0 
-2.913657552217e-05 1.124872455831e-05 0.0 
1.124872455831e-05 1.087941264409e-03 0.0 
0.0 0.0 0.0 
5.608137769553e-05 2.085869864830e-05 0.0 
2.085869864830e-05 6.525443615921e-04 0.0 
0.0 0.0 0.0 
4.877128893144e-05 4.006622248332e-05 0.0 
4.006622248332e-05 9.003752574499e-04 0.0 
0.0 0.0 0.0 
4.592500668932e-05 4.639717036083e-05 0.0 
4.639717036083e-05 9.432058493584e-04 0.0 
0.0 0.0 0.0 
1.268961116474e-05 -1.548441319957e-05 0.0 
-1.548441319957e-05 1.834646474255e-04 0.0 
0.0 0.0 0.0 
4.683229210301e-05 8.817114357971e-05 0.0 
8.817114357971e-05 4.313163730072e-04 0.0 
0.0 0.0 0.0 
5.363276837933e-05 6.563905943540e-05 0.0 
6.563905943540e-05 6.772778336661e-04 0.0 
0.0 0.0 0.0 
5.539842246405e-05 4.192629591053e-05 0.0 
4.192629591053e-05 6.311405012216e-04 0.0 
0.0 0.0 0.0 
-2.185823320977e-05 8.950445210397e-05 0.0 
8.950445210397e-05 8.470020922773e-04 0.0 
0.0 0.0 0.0 
-1.436800166466e-05 1.956048469657e-05 0.0 
1.956048469657e-05 1.418414896990e-03 0.0 
0.0 0.0 0.0 
-2.470522429776e-05 5.382257095806e-05 0.0 
5.382257095806e-05 1.341550921830e-03 0.0 
0.0 0.0 0.0 
-1.537335317581e-05 8.211922399499e-06 0.0 
8.211922399499e-06 1.373452747980e-03 0.0 
0.0 0.0 0.0 
-5.456173940188e-05 5.044941530043e-05 0.0 
5.044941530043e-05 8.591209644124e-04 0.0 
0.0 0.0 0.0 
-2.710034746312e-05 3.118428503553e-05 0.0 
3.118428503553e-05 1.284222695998e-03 0.0 
0.0 0.0 0.0 
4.564135614804e-05 2.890208412118e-05 0.0 
2.890208412118e-05 9.020904315005e-04 0.0 
0.0 0.0 0.0 
-1.406349443955e-05 2.391871836348e-05 0.0 
2.391871836348e-05 1.392874124552e-03 0.0 
0.0 0.0 0.0 
-3.199144158317e-05 1.512332676080e-05 0.0 
1.512332676080e-05 1.233410062287e-03 0.0 
0.0 0.0 0.0 
5.442863452720e-05 1.205968342665e-05 0.0 
1.205968342665e-05 6.365126433707e-04 0.0 
0.0 0.0 0.0 
5.020878868045e-05 7.238483732784e-05 0.0 
7.238483732784e-05 6.606165398662e-04 0.0 
0.0 0.0 0.0 
-2.483659804176e-05 2.258297001719e-05 0.0 
2.258297001719e-05 1.266194843570e-03 0.0 
0.0 0.0 0.0 
-2.034726212208e-05 1.675829897107e-05 0.0 
1.675829897107e-05 1.360596631656e-03 0.0 
0.0 0.0 0.0 
-2.213373144844e-05 1.892019976547e-05 0.0 
1.892019976547e-05 1.272788311626e-03 0.0 
0.0 0.0 0.0 
-2.516224855476e-05 1.922108730687e-05 0.0 
1.922108730687e-05 1.239350888740e-03 0.0 
0.0 0.0 0.0 
3.626097678255e-05 4.731856025243e-05 0.0 
4.731856025243e-05 1.037235326046e-03 0.0 
0.0 0.0 0.0 
8.638255599269e-06 8.670106643237e-05 0.0 
8.670106643237e-05 1.192898871952e-03 0.0 
0.0 0.0 0.0 
3.972033872746e-05 4.997671847812e-05 0.0 
4.997671847812e-05 1.011558296365e-03 0.0 
0.0 0.0 0.0 
5.442124905719e-05 3.031009114842e-05 0.0 
3.031009114842e-05 7.916475925833e-04 0.0 
0.0 0.0 0.0 
-5.044360864270e-05 2.640080060894e-05 0.0 
2.640080060894e-05 8.635061144957e-04 0.0 
0.0 0.0 0.0 
2.651739034221e-05 7.333435768083e-05 0.0 
7.333435768083e-05 1.044002204709e-03 0.0 
0.0 0.0 0.0 
-3.420619188521e-05 3.220565006882e-05 0.0 
3.220565006882e-05 1.216449967609e-03 0.0 
0.0 0.0 0.0 
3.024400610951e-05 -7.849743731046e-07 0.0 
-7.849743731046e-07 3.195008532313e-04 0.0 
0.0 0.0 0.0 
5.215865983366e-05 5.136014758435e-05 0.0 
5.136014758435e-05 6.795874934014e-04 0.0 
0.0 0.0 0.0 
5.283582445981e-05 6.174983075535e-05 0.0 
6.174983075535e-05 7.619333674036e-04 0.0 
0.0 0.0 0.0 
3.046634164749e-05 7.366489680251e-05 0.0 
7.366489680251e-05 8.988636096519e-04 0.0 
0.0 0.0 0.0 
5.809169245485e-05 4.675030621246e-05 0.0 
4.675030621246e-05 3.417625821129e-04 0.0 
0.0 0.0 0.0 
4.968027601970e-05 5.790441574841e-05 0.0 
5.790441574841e-05 6.630600991087e-04 0.0 
0.0 0.0 0.0 
2.735588364056e-05 7.448596957510e-05 0.0 
7.448596957510e-05 9.640022856536e-04 0.0 
0.0 0.0 0.0 
-5.086314378189e-05 4.123044932672e-05 0.0 
4.123044932672e-05 9.357986183995e-04 0.0 
0.0 0.0 0.0 
5.782906018847e-05 2.261635282704e-05 0.0 
2.261635282704e-05 6.601343951644e-04 0.0 
0.0 0.0 0.0 
-3.455405596209e-05 1.141758212650e-05 0.0 
1.141758212650e-05 1.172429066016e-03 0.0 
0.0 0.0 0.0 
-2.919202628682e-05 6.337614314560e-06 0.0 
6.337614314560e-06 9.921387993306e-04 0.0 
0.0 0.0 0.0 
-3.465232660915e-05 9.869075019578e-05 0.0 
9.869075019578e-05 3.001922597161e-04 0.0 
0.0 0.0 0.0 
5.249456221779e-05 2.080175932147e-05 0.0 
2.080175932147e-05 7.679628133919e-04 0.0 
0.0 0.0 0.0 
3.527243060120e-05 7.489131234490e-05 0.0 
7.489131234490e-05 1.011129869354e-03 0.0 
0.0 0.0 0.0 
-2.064362265453e-05 5.250803338127e-05 0.0 
5.250803338127e-05 1.375399307367e-03 0.0 
0.0 0.0 0.0 
3.977837384195e-05 7.973499440835e-05 0.0 
7.973499440835e-05 7.792996628477e-04 0.0 
0.0 0.0 0.0 
5.676045857905e-05 2.656653945747e-05 0.0 
2.656653945747e-05 7.255452524699e-04 0.0 
0.0 0.0 0.0 
-3.142522741650e-05 8.171417804346e-06 0.0 
8.171417804346e-06 1.179281935124e-03 0.0 
0.0 0.0 0.0 
-2.536422223121e-05 4.551201114680e-05 0.0 
4.551201114680e-05 4.488764424042e-04 0.0 
0.0 0.0 0.0 
3.361593627349e-05 7.819968869176e-05 0.0 
7.819968869176e-05 9.934296087308e-04 0.0 
0.0 0.0 0.0 
3.774365531739e-05 6.824050347051e-05 0.0 
6.824050347051e-05 8.471244564239e-04 0.0 
0.0 0.0 0.0 
-5.489158091065e-05 3.644948636776e-05 0.0 
3.644948636776e-05 9.724542295375e-04 0.0 
0.0 0.0 0.0 
4.294783469949e-05 3.544165398373e-05 0.0 
3.544165398373e-05 9.448765686042e-04 0.0 
0.0 0.0 0.0 
4.402823716720e-05 7.020450727780e-06 0.0 
7.020450727780e-06 3.259647739857e-04 0.0 
0.0 0.0 0.0 
3.952924752393e-05 4.207411416340e-05 0.0 
4.207411416340e-05 9.888474025839e-04 0.0 
0.0 0.0 0.0 
3.067119791389e-05 6.348683570821e-05 0.0 
6.348683570821e-05 1.101500936030e-03 0.0 
0.0 0.0 0.0 
3.071532420651e-05 8.141236288112e-05 0.0 
8.141236288112e-05 9.771121785378e-04 0.0 
0.0 0.0 0.0 
-2.534706958601e-05 1.077245759337e-05 0.0 
1.077245759337e-05 1.273773326588e-03 0.0 
0.0 0.0 0.0 
-1.416557157086e-05 8.319634835020e-05 0.0 
8.319634835020e-05 1.179821145066e-03 0.0 
0.0 0.0 0.0 
2.793482418006e-05 5.308507112579e-05 0.0 
5.308507112579e-05 1.102830748448e-03 0.0 
0.0 0.0 0.0 
-3.248593168026e-05 3.045100555142e-05 0.0 
3.045100555142e-05 5.241996404923e-04 0.0 
0.0 0.0 0.0 
-3.170512345607e-05 1.151108127428e-05 0.0 
1.151108127428e-05 1.206598525209e-03 0.0 
0.0 0.0 0.0 
3.166282440681e-07 8.920870374754e-05 0.0 
8.920870374754e-05 1.224134415795e-03 0.0 
0.0 0.0 0.0 
-2.160148286257e-05 2.217091364223e-05 0.0 
2.217091364223e-05 1.299756313609e-03 0.0 
0.0 0.0 0.0 
3.389003637588e-05 8.040922306599e-05 0.0 
8.040922306599e-05 9.112953758605e-04 0.0 
0.0 0.0 0.0 
4.357297155666e-05 6.632508553880e-05 0.0 
6.632508553880e-05 7.149104220601e-04 0.0 
0.0 0.0 0.0 
5.220585643340e-05 1.424694735372e-05 0.0 
1.424694735372e-05 7.018833165797e-04 0.0 
0.0 0.0 0.0 
4.135113088566e-05 3.823117046870e-05 0.0 
3.823117046870e-05 1.887022163498e-04 0.0 
0.0 0.0 0.0 
-1.828896769440e-05 2.149842505549e-05 0.0 
2.149842505549e-05 1.333040282931e-03 0.0 
0.0 0.0 0.0 
3.227241546377e-05 7.033862013014e-07 0.0 
7.033862013014e-07 3.461836948599e-04 0.0 
0.0 0.0 0.0 
-3.889042260297e-05 2.279364207517e-05 0.0 
2.279364207517e-05 5.896750551175e-04 0.0 
0.0 0.0 0.0 
-2.006671689181e-05 8.031119708451e-05 0.0 
8.031119708451e-05 1.167512985201e-03 0.0 
0.0 0.0 0.0 
-1.197934039809e-05 1.934627865881e-05 0.0 
1.934627865881e-05 1.400969172023e-03 0.0 
0.0 0.0 0.0 
3.652586751413e-05 -3.069888687741e-06 0.0 
-3.069888687741e-06 2.872781223247e-04 0.0 
0.0 0.0 0.0 
-3.669324719169e-05 7.171846987794e-05 0.0 
7.171846987794e-05 9.889682643833e-04 0.0 
0.0 0.0 0.0 
-2.796754801593e-05 2.286487963125e-05 0.0 
2.286487963125e-05 1.232508850628e-03 0.0 
0.0 0.0 0.0 
5.227644741690e-05 9.502716935259e-06 0.0 
9.502716935259e-06 6.881589354875e-04 0.0 
0.0 0.0 0.0 
4.855297235906e-05 2.518690841134e-05 0.0 
2.518690841134e-05 3.452243919513e-04 0.0 
0.0 0.0 0.0 
-6.683569799049e-06 1.055076153073e-04 0.0 
1.055076153073e-04 6.191243772626e-04 0.0 
0.0 0.0 0.0 
2.684346640236e-05 -9.059649017732e-07 0.0 
-9.059649017732e-07 2.144210708090e-04 0.0 
0.0 0.0 0.0 
4.574789090217e-05 1.459351751677e-05 0.0 
1.459351751677e-05 2.850538284174e-04 0.0 
0.0 0.0 0.0 
3.617834628433e-05 5.957986941998e-06 0.0 
5.957986941998e-06 2.497521426332e-04 0.0 
0.0 0.0 0.0 
3.689187699640e-05 7.988608104105e-05 0.0 
7.988608104105e-05 8.453941722399e-04 0.0 
0.0 0.0 0.0 
-6.676273654138e-06 4.185220229086e-05 0.0 
4.185220229086e-05 1.505795266319e-03 0.0 
0.0 0.0 0.0 
-4.221452612985e-05 1.827738640361e-05 0.0 
1.827738640361e-05 6.569320248722e-04 0.0 
0.0 0.0 0.0 
3.259927579724e-05 4.388731637911e-05 0.0 
4.388731637911e-05 1.063266530418e-03 0.0 
0.0 0.0 0.0 
3.885037078843e-05 8.730984713866e-05 0.0 
8.730984713866e-05 6.344632114552e-04 0.0 
0.0 0.0 0.0 
-3.541123992989e-05 1.534109236133e-05 0.0 
1.534109236133e-05 1.199900083859e-03 0.0 
0.0 0.0 0.0 
5.161501988216e-05 4.833130355692e-05 0.0 
4.833130355692e-05 2.542052539900e-04 0.0 
0.0 0.0 0.0 
2.201333949992e-05 6.043412376522e-05 0.0 
6.043412376522e-05 1.149823620375e-03 0.0 
0.0 0.0 0.0 
2.821872269032e-05 -1.060648803963e-05 0.0 
-1.060648803963e-05 2.513371549762e-04 0.0 
0.0 0.0 0.0 
3.802537287889e-05 2.045698656104e-06 0.0 
2.045698656104e-06 4.087245288378e-04 0.0 
0.0 0.0 0.0 
2.384560468216e-05 8.562330754929e-05 0.0 
8.562330754929e-05 1.027582819237e-03 0.0 
0.0 0.0 0.0 
5.618069897451e-05 3.216670395854e-05 0.0 
3.216670395854e-05 6.722466903357e-04 0.0 
0.0 0.0 0.0 
5.251007749285e-06 8.682952745464e-05 0.0 
8.682952745464e-05 1.178570092504e-03 0.0 
0.0 0.0 0.0 
-3.603008936071e-05 8.408155561599e-05 0.0 
8.408155561599e-05 7.374987401196e-04 0.0 
0.0 0.0 0.0 
-3.562579927785e-05 2.490281880915e-05 0.0 
2.490281880915e-05 1.251371133035e-03 0.0 
0.0 0.0 0.0 
1.365553302834e-05 9.510423466297e-05 0.0 
9.510423466297e-05 1.206766678979e-03 0.0 
0.0 0.0 0.0 
-2.808638371843e-05 1.938940566753e-05 0.0 
1.938940566753e-05 1.205717349545e-03 0.0 
0.0 0.0 0.0 
-2.548282712911e-05 4.617333469103e-05 0.0 
4.617333469103e-05 1.376377028660e-03 0.0 
0.0 0.0 0.0 
-2.822761976851e-05 1.870969101608e-05 0.0 
1.870969101608e-05 1.293241528431e-03 0.0 
0.0 0.0 0.0 
-2.763908580894e-05 2.307028280840e-05 0.0 
2.307028280840e-05 1.318905066523e-03 0.0 
0.0 0.0 0.0 
4.013932172797e-05 9.878082209065e-05 0.0 
9.878082209065e-05 3.564499852724e-04 0.0 
0.0 0.0 0.0 
3.652328977077e-05 3.755645642153e-05 0.0 
3.755645642153e-05 1.020280537164e-03 0.0 
0.0 0.0 0.0 
-2.767435367124e-05 2.676157944288e-05 0.0 
2.676157944288e-05 1.258826614442e-03 0.0 
0.0 0.0 0.0 
1.666211418438e-05 9.294571323184e-05 0.0 
9.294571323184e-05 8.104281720409e-04 0.0 
0.0 0.0 0.0 
-4.527070495364e-05 1.512730669605e-05 0.0 
1.512730669605e-05 7.237088087459e-04 0.0 
0.0 0.0 0.0 
6.281171172517e-06 9.095261259561e-05 0.0 
9.095261259561e-05 1.254884275171e-03 0.0 
0.0 0.0 0.0 
5.448460303348e-05 7.375696797564e-05 0.0 
7.375696797564e-05 3.733843461979e-04 0.0 
0.0 0.0 0.0 
3.401037353101e-05 -9.971798234739e-06 0.0 
-9.971798234739e-06 3.816066786313e-04 0.0 
0.0 0.0 0.0 
1.165229724620e-05 9.239352274739e-05 0.0 
9.239352274739e-05 1.128280536735e-03 0.0 
0.0 0.0 0.0 
1.834814610291e-05 -5.713810805887e-06 0.0 
-5.713810805887e-06 2.258172262490e-04 0.0 
0.0 0.0 0.0 
-1.626945218514e-05 8.503008185352e-05 0.0 
8.503008185352e-05 9.031633319609e-04 0.0 
0.0 0.0 0.0 
2.714577423890e-05 8.294678869121e-05 0.0 
8.294678869121e-05 1.042715805178e-03 0.0 
0.0 0.0 0.0 
-2.195623794898e-05 2.677721830606e-05 0.0 
2.677721830606e-05 1.375886027723e-03 0.0 
0.0 0.0 0.0 
-2.041865567048e-05 3.205233682292e-05 0.0 
3.205233682292e-05 1.401222820929e-03 0.0 
0.0 0.0 0.0 
2.388738791326e-05 7.590305423432e-05 0.0 
7.590305423432e-05 1.028997651600e-03 0.0 
0.0 0.0 0.0 
-2.434096040149e-05 1.785634031025e-05 0.0 
1.785634031025e-05 1.326955369295e-03 0.0 
0.0 0.0 0.0 
2.834789102768e-05 9.250905608801e-05 0.0 
9.250905608801e-05 6.910660572867e-04 0.0 
0.0 0.0 0.0 
-2.842753892107e-05 7.384769017534e-05 0.0 
7.384769017534e-05 1.199314936891e-03 0.0 
0.0 0.0 0.0 
-4.640159214109e-05 1.311574023502e-05 0.0 
1.311574023502e-05 7.896901983395e-04 0.0 
0.0 0.0 0.0 
-2.246625603786e-05 6.713078332604e-05 0.0 
6.713078332604e-05 1.340793859628e-03 0.0 
0.0 0.0 0.0 
-4.629585894300e-05 1.254101380433e-05 0.0 
1.254101380433e-05 8.551527708724e-04 0.0 
0.0 0.0 0.0 
-4.353944811075e-05 1.166878692204e-05 0.0 
1.166878692204e-05 8.871404286612e-04 0.0 
0.0 0.0 0.0 
3.394540108936e-05 8.532437995326e-05 0.0 
8.532437995326e-05 7.663982840567e-04 0.0 
0.0 0.0 0.0 
-4.447375924788e-05 1.335707450973e-05 0.0 
1.335707450973e-05 9.205694428760e-04 0.0 
0.0 0.0 0.0 
-5.784309491386e-06 8.484577630497e-05 0.0 
8.484577630497e-05 9.675902444883e-04 0.0 
0.0 0.0 0.0 
1.890872859400e-06 8.997459050036e-05 0.0 
8.997459050036e-05 7.988054790362e-04 0.0 
0.0 0.0 0.0 
4.715318591453e-05 5.981729048348e-05 0.0 
5.981729048348e-05 7.295587973155e-04 0.0 
0.0 0.0 0.0 
5.333417201214e-05 3.130930306320e-05 0.0 
3.130930306320e-05 2.982276539623e-04 0.0 
0.0 0.0 0.0 
4.262145491807e-05 7.974800661889e-05 0.0 
7.974800661889e-05 7.128784735744e-04 0.0 
0.0 0.0 0.0 
-1.718263556849e-05 2.493207837569e-05 0.0 
2.493207837569e-05 1.359612697160e-03 0.0 
0.0 0.0 0.0 
-2.114495886452e-05 6.182489531352e-05 0.0 
6.182489531352e-05 1.366159136924e-03 0.0 
0.0 0.0 0.0 
4.301505636528e-05 3.468694995348e-05 0.0 
3.468694995348e-05 9.522682239564e-04 0.0 
0.0 0.0 0.0 
1.042082570502e-05 9.507198488442e-05 0.0 
9.507198488442e-05 1.191642884769e-03 0.0 
0.0 0.0 0.0 
5.994554423538e-05 4.598412839345e-05 0.0 
4.598412839345e-05 6.700666670929e-04 0.0 
0.0 0.0 0.0 
-2.326881642289e-05 3.063899257399e-05 0.0 
3.063899257399e-05 1.317976597124e-03 0.0 
0.0 0.0 0.0 
4.731254252444e-05 7.337177309244e-05 0.0 
7.337177309244e-05 7.275320345568e-04 0.0 
0.0 0.0 0.0 
3.307436201738e-05 3.504192297365e-05 0.0 
3.504192297365e-05 1.047384782249e-03 0.0 
0.0 0.0 0.0 
-2.418745279809e-05 2.633453824740e-05 0.0 
2.633453824740e-05 1.292330473222e-03 0.0 
0.0 0.0 0.0 
-3.173022131342e-05 2.402589295218e-05 0.0 
2.402589295218e-05 1.285130619940e-03 0.0 
0.0 0.0 0.0 
3.746145841932e-05 7.644775266851e-05 0.0 
7.644775266851e-05 9.269143285364e-04 0.0 
0.0 0.0 0.0 
3.632008997467e-05 8.627674193830e-05 0.0 
8.627674193830e-05 7.006249772721e-04 0.0 
0.0 0.0 0.0 
-2.398570001882e-05 7.701890795327e-05 0.0 
7.701890795327e-05 1.255159018601e-03 0.0 
0.0 0.0 0.0 
-4.321502426574e-05 5.623028045255e-05 0.0 
5.623028045255e-05 1.098864198191e-03 0.0 
0.0 0.0 0.0 
4.251532430044e-05 1.044290981530e-05 0.0 
1.044290981530e-05 3.016258106410e-04 0.0 
0.0 0.0 0.0 
4.887970575340e-05 5.144083997833e-05 0.0 
5.144083997833e-05 3.769937960292e-04 0.0 
0.0 0.0 0.0 
-2.754322638421e-05 9.022520485417e-05 0.0 
9.022520485417e-05 7.381955438293e-04 0.0 
0.0 0.0 0.0 
-3.631092697565e-05 7.405357952104e-05 0.0 
7.405357952104e-05 9.886401847674e-04 0.0 
0.0 0.0 0.0 
2.908103176180e-05 3.220898435983e-05 0.0 
3.220898435983e-05 1.075697409227e-03 0.0 
0.0 0.0 0.0 
-3.208184897940e-05 1.931359952363e-05 0.0 
1.931359952363e-05 1.259726881971e-03 0.0 
0.0 0.0 0.0 
3.858342214724e-05 7.328165778189e-05 0.0 
7.328165778189e-05 7.026002598314e-04 0.0 
0.0 0.0 0.0 
-3.621205708726e-05 6.903934020257e-05 0.0 
6.903934020257e-05 1.087184497483e-03 0.0 
0.0 0.0 0.0 
2.938119459683e-05 8.093276904893e-05 0.0 
8.093276904893e-05 1.060483470425e-03 0.0 
0.0 0.0 0.0 
-2.137271705960e-05 1.334535873080e-05 0.0 
1.334535873080e-05 1.334050406847e-03 0.0 
0.0 0.0 0.0 
-2.449509214075e-05 7.677433851405e-05 0.0 
7.677433851405e-05 1.296294587685e-03 0.0 
0.0 0.0 0.0 
-3.393994436462e-05 2.262934701282e-05 0.0 
2.262934701282e-05 1.165627151321e-03 0.0 
0.0 0.0 0.0 
3.452496009504e-05 6.910129985372e-05 0.0 
6.910129985372e-05 1.056496824869e-03 0.0 
0.0 0.0 0.0 
4.078426210552e-05 6.724195560570e-05 0.0 
6.724195560570e-05 7.811752453080e-04 0.0 
0.0 0.0 0.0 
2.780316667250e-05 7.047528689754e-05 0.0 
7.047528689754e-05 1.061452002915e-03 0.0 
0.0 0.0 0.0 
-1.925779602829e-05 8.878792603381e-05 0.0 
8.878792603381e-05 9.026185136558e-04 0.0 
0.0 0.0 0.0 
-1.923198425202e-05 2.112604472303e-05 0.0 
2.112604472303e-05 1.385455305416e-03 0.0 
0.0 0.0 0.0 
-2.223826791115e-05 7.473196679530e-05 0.0 
7.473196679530e-05 1.341206421655e-03 0.0 
0.0 0.0 0.0 
4.096329760439e-05 7.516651326897e-05 0.0 
7.516651326897e-05 8.604951099829e-04 0.0 
0.0 0.0 0.0 
5.666276700933e-05 5.670951414782e-05 0.0 
5.670951414782e-05 3.210752792189e-04 0.0 
0.0 0.0 0.0 
-7.031440733996e-06 9.219946445421e-05 0.0 
9.219946445421e-05 1.190955772589e-03 0.0 
0.0 0.0 0.0 
-1.438522472652e-05 8.379905513978e-05 0.0 
8.379905513978e-05 9.595238159863e-04 0.0 
0.0 0.0 0.0 
3.196462620547e-05 8.045913258332e-05 0.0 
8.045913258332e-05 6.929231040109e-04 0.0 
0.0 0.0 0.0 
3.440540962263e-05 6.944127830206e-05 0.0 
6.944127830206e-05 9.129322981722e-04 0.0 
0.0 0.0 0.0 
3.715899797574e-05 5.156295668053e-05 0.0 
5.156295668053e-05 1.010930696248e-03 0.0 
0.0 0.0 0.0 
4.753241584443e-05 3.329067630275e-05 0.0 
3.329067630275e-05 3.249283141138e-04 0.0 
0.0 0.0 0.0 
4.422117720271e-05 7.417220170996e-05 0.0 
7.417220170996e-05 7.940993015103e-04 0.0 
0.0 0.0 0.0 
-4.192934563196e-05 4.538979290424e-05 0.0 
4.538979290424e-05 1.155037423551e-03 0.0 
0.0 0.0 0.0 
2.756187966635e-05 2.159327766650e-05 0.0 
2.159327766650e-05 1.077190509209e-03 0.0 
0.0 0.0 0.0 
-4.006950287427e-05 5.190163086513e-05 0.0 
5.190163086513e-05 1.174059201517e-03 0.0 
0.0 0.0 0.0 
-1.271776293787e-05 8.958605995276e-05 0.0 
8.958605995276e-05 1.178884015102e-03 0.0 
0.0 0.0 0.0 
-4.299155814014e-05 3.901460557461e-05 0.0 
3.901460557461e-05 1.134666304903e-03 0.0 
0.0 0.0 0.0 
-4.356295714658e-05 2.769488532784e-05 0.0 
2.769488532784e-05 1.090089182055e-03 0.0 
0.0 0.0 0.0 
-3.979108746255e-05 6.315667309176e-05 0.0 
6.315667309176e-05 1.114361041847e-03 0.0 
0.0 0.0 0.0 
1.537984431077e-05 9.186664732117e-05 0.0 
9.186664732117e-05 1.142625893697e-03 0.0 
0.0 0.0 0.0 
3.752757813369e-05 2.998316332540e-05 0.0 
2.998316332540e-05 9.960400573190e-04 0.0 
0.0 0.0 0.0 
-3.109902305565e-05 2.695456825191e-05 0.0 
2.695456825191e-05 1.225280605698e-03 0.0 
0.0 0.0 0.0 
-1.649963538219e-05 3.855387958957e-05 0.0 
3.855387958957e-05 1.400392217680e-03 0.0 
0.0 0.0 0.0 
-4.346285936385e-05 3.301820458321e-05 0.0 
3.301820458321e-05 1.113102307078e-03 0.0 
0.0 0.0 0.0 
4.298825681248e-05 7.266315591309e-05 0.0 
7.266315591309e-05 5.700923208962e-04 0.0 
0.0 0.0 0.0 
-1.184181315717e-05 8.580823905159e-05 0.0 
8.580823905159e-05 1.237794971304e-03 0.0 
0.0 0.0 0.0 
-1.628356491445e-05 1.536469913262e-05 0.0 
1.536469913262e-05 1.393869060075e-03 0.0 
0.0 0.0 0.0 
-1.955839487366e-06 9.396822889766e-05 0.0 
9.396822889766e-05 8.566667956995e-04 0.0 
0.0 0.0 0.0 
-1.000165974863e-05 9.155182624451e-05 0.0 
9.155182624451e-05 9.088059784563e-04 0.0 
0.0 0.0 0.0 
4.090241211618e-05 7.316559984293e-05 0.0 
7.316559984293e-05 6.366644481639e-04 0.0 
0.0 0.0 0.0 
-3.076982680184e-05 3.173897518769e-05 0.0 
3.173897518769e-05 1.250443721907e-03 0.0 
0.0 0.0 0.0 
-4.561304750439e-05 6.627527670131e-05 0.0 
6.627527670131e-05 8.293301561104e-04 0.0 
0.0 0.0 0.0 
-1.437551008232e-07 9.171555990562e-05 0.0 
9.171555990562e-05 9.756157051697e-04 0.0 
0.0 0.0 0.0 
-4.694233917257e-05 6.768547940486e-05 0.0 
6.768547940486e-05 8.291445338808e-04 0.0 
0.0 0.0 0.0 
1.738987380051e-05 8.937038884864e-05 0.0 
8.937038884864e-05 1.078186610592e-03 0.0 
0.0 0.0 0.0 
-9.266465204716e-06 8.971955706612e-05 0.0 
8.971955706612e-05 1.294248537980e-03 0.0 
0.0 0.0 0.0 
4.598323476634e-05 6.519044179805e-05 0.0 
6.519044179805e-05 6.486001500607e-04 0.0 
0.0 0.0 0.0 
2.535397210202e-05 1.081697420314e-05 0.0 
1.081697420314e-05 1.932401358165e-04 0.0 
0.0 0.0 0.0 
-1.826719981735e-05 4.583603221240e-05 0.0 
4.583603221240e-05 1.390061009442e-03 0.0 
0.0 0.0 0.0 
-4.793653071644e-05 5.947315556082e-05 0.0 
5.947315556082e-05 8.712994598248e-04 0.0 
0.0 0.0 0.0 
5.710985332863e-05 5.399151559801e-05 0.0 
5.399151559801e-05 7.150387838464e-04 0.0 
0.0 0.0 0.0 
-3.493306883873e-06 9.616533357110e-05 0.0 
9.616533357110e-05 1.249925229861e-03 0.0 
0.0 0.0 0.0 
-3.577907156826e-05 1.991479726396e-05 0.0 
1.991479726396e-05 1.226133917195e-03 0.0 
0.0 0.0 0.0 
4.034059380231e-05 3.277613920369e-05 0.0 
3.277613920369e-05 9.701307179200e-04 0.0 
0.0 0.0 0.0 
1.262432784221e-05 9.003131675231e-05 0.0 
9.003131675231e-05 7.435594007674e-04 0.0 
0.0 0.0 0.0 
2.586612172206e-05 2.085355237431e-05 0.0 
2.085355237431e-05 1.498704370708e-04 0.0 
0.0 0.0 0.0 
2.299028358865e-05 1.764481258864e-05 0.0 
1.764481258864e-05 1.110311728479e-03 0.0 
0.0 0.0 0.0 
-2.954123701915e-05 8.011738967722e-05 0.0 
8.011738967722e-05 9.981968015020e-04 0.0 
0.0 0.0 0.0 
7.593778014403e-06 8.247181613881e-05 0.0 
8.247181613881e-05 1.051268365527e-03 0.0 
0.0 0.0 0.0 
-1.607275563686e-05 8.802338797203e-05 0.0 
8.802338797203e-05 1.269876498900e-03 0.0 
0.0 0.0 0.0 
-1.258133288884e-06 1.257185688826e-05 0.0 
1.257185688826e-05 9.805097356530e-05 0.0 
0.0 0.0 0.0 
4.321820947273e-05 4.368185684162e-05 0.0 
4.368185684162e-05 9.684264350578e-04 0.0 
0.0 0.0 0.0 
1.444569949305e-05 1.000463341566e-04 0.0 
1.000463341566e-04 5.580003405246e-04 0.0 
0.0 0.0 0.0 
-3.875289493749e-05 1.553600422051e-05 0.0 
1.553600422051e-05 1.166443965320e-03 0.0 
0.0 0.0 0.0 
5.126453696058e-05 1.340890048198e-05 0.0 
1.340890048198e-05 7.534841247063e-04 0.0 
0.0 0.0 0.0 
4.537343204758e-05 7.969512279801e-05 0.0 
7.969512279801e-05 6.462002179803e-04 0.0 
0.0 0.0 0.0 
3.113336863314e-05 2.473776184952e-05 0.0 
2.473776184952e-05 1.048985257662e-03 0.0 
0.0 0.0 0.0 
-8.240271786697e-06 9.076850459314e-05 0.0 
9.076850459314e-05 9.667029780203e-04 0.0 
0.0 0.0 0.0 
4.811411921279e-05 7.950912607541e-05 0.0 
7.950912607541e-05 5.791586285622e-04 0.0 
0.0 0.0 0.0 
-3.325813160882e-05 7.287774989478e-05 0.0 
7.287774989478e-05 1.043709657910e-03 0.0 
0.0 0.0 0.0 
1.076275898337e-05 -5.238000904143e-06 0.0 
-5.238000904143e-06 1.546740250151e-04 0.0 
0.0 0.0 0.0 
-2.631289169630e-05 7.615246250242e-05 0.0 
7.615246250242e-05 1.155622015179e-03 0.0 
0.0 0.0 0.0 
1.699984553860e-05 8.015211886968e-05 0.0 
8.015211886968e-05 1.079568812959e-03 0.0 
0.0 0.0 0.0 
-1.865939386281e-05 7.205064674458e-05 0.0 
7.205064674458e-05 1.372717372906e-03 0.0 
0.0 0.0 0.0 
-2.270587280884e-05 7.853401269499e-05 0.0 
7.853401269499e-05 1.212589831291e-03 0.0 
0.0 0.0 0.0 
5.001363258894e-05 5.717386629786e-05 0.0 
5.717386629786e-05 4.459528168486e-04 0.0 
0.0 0.0 0.0 
4.055582453821e-05 2.415877856914e-05 0.0 
2.415877856914e-05 9.539401620604e-04 0.0 
0.0 0.0 0.0 
-1.108707903241e-05 2.730928929077e-05 0.0 
2.730928929077e-05 1.418108998430e-03 0.0 
0.0 0.0 0.0 
1.080606800485e-06 9.480912582948e-05 0.0 
9.480912582948e-05 1.300089982421e-03 0.0 
0.0 0.0 0.0 
1.062711559174e-05 8.392369031674e-05 0.0 
8.392369031674e-05 1.129550745006e-03 0.0 
0.0 0.0 0.0 
2.201350919639e-05 8.505154770901e-05 0.0 
8.505154770901e-05 7.491130184858e-04 0.0 
0.0 0.0 0.0 
-2.982757412151e-05 7.427470573114e-05 0.0 
7.427470573114e-05 1.099323554582e-03 0.0 
0.0 0.0 0.0 
2.812176285216e-05 2.284981334711e-05 0.0 
2.284981334711e-05 1.061802408641e-03 0.0 
0.0 0.0 0.0 
4.676481598831e-05 -2.384436988501e-06 0.0 
-2.384436988501e-06 6.857577157482e-04 0.0 
0.0 0.0 0.0 
-1.870981519192e-05 8.553869417428e-05 0.0 
8.553869417428e-05 1.166757235642e-03 0.0 
0.0 0.0 0.0 
-3.100203840323e-05 2.283786418227e-05 0.0 
2.283786418227e-05 1.199034520536e-03 0.0 
0.0 0.0 0.0 
3.455363320670e-05 2.751517950699e-05 0.0 
2.751517950699e-05 1.021833264018e-03 0.0 
0.0 0.0 0.0 
3.690800437162e-05 3.955309694617e-05 0.0 
3.955309694617e-05 1.013188325862e-03 0.0 
0.0 0.0 0.0 
-2.620356809113e-05 -4.745426899594e-09 0.0 
-4.745426899594e-09 9.482990618657e-04 0.0 
0.0 0.0 0.0 
-2.566328619935e-05 8.796893184619e-07 0.0 
8.796893184619e-07 9.478202616264e-04 0.0 
0.0 0.0 0.0 
-4.451592123023e-05 3.898278640662e-05 0.0 
3.898278640662e-05 1.191947203955e-03 0.0 
0.0 0.0 0.0 
-2.247398766297e-05 8.326367281351e-05 0.0 
8.326367281351e-05 1.109843083365e-03 0.0 
0.0 0.0 0.0 
4.963230481447e-05 1.211564122253e-05 0.0 
1.211564122253e-05 7.799001974134e-04 0.0 
0.0 0.0 0.0 
-4.289461574347e-05 5.652388979372e-05 0.0 
5.652388979372e-05 1.154278761154e-03 0.0 
0.0 0.0 0.0 
-1.013639558511e-06 9.238739157307e-05 0.0 
9.238739157307e-05 9.157639861286e-04 0.0 
0.0 0.0 0.0 
2.261158627670e-05 7.957041740824e-05 0.0 
7.957041740824e-05 1.143554798778e-03 0.0 
0.0 0.0 0.0 
1.762051069765e-05 9.507669755573e-05 0.0 
9.507669755573e-05 7.476390199435e-04 0.0 
0.0 0.0 0.0 
-7.065173649345e-06 3.620397015693e-05 0.0 
3.620397015693e-05 1.507636396959e-03 0.0 
0.0 0.0 0.0 
-4.374771846893e-05 2.192993409641e-05 0.0 
2.192993409641e-05 1.032664176069e-03 0.0 
0.0 0.0 0.0 
-6.726084732067e-06 8.612185422385e-05 0.0 
8.612185422385e-05 9.096158716875e-04 0.0 
0.0 0.0 0.0 
5.491105832434e-05 2.468119918940e-05 0.0 
2.468119918940e-05 7.516425974430e-04 0.0 
0.0 0.0 0.0 
4.548338175070e-05 6.853273366666e-05 0.0 
6.853273366666e-05 4.343931346555e-04 0.0 
0.0 0.0 0.0 
5.342070578562e-05 1.065786260007e-05 0.0 
1.065786260007e-05 6.620133286899e-04 0.0 
0.0 0.0 0.0 
-2.606798919280e-05 8.153448135437e-05 0.0 
8.153448135437e-05 1.053617799956e-03 0.0 
0.0 0.0 0.0 
-3.849411980661e-05 6.989381489398e-05 0.0 
6.989381489398e-05 1.031946937832e-03 0.0 
0.0 0.0 0.0 
-3.438787968246e-05 2.713352257358e-05 0.0 
2.713352257358e-05 1.191728212473e-03 0.0 
0.0 0.0 0.0 
-3.528994428215e-05 6.727237515534e-05 0.0 
6.727237515534e-05 1.169432976276e-03 0.0 
0.0 0.0 0.0 
-3.829485071416e-05 6.030947284065e-05 0.0 
6.030947284065e-05 1.209177334465e-03 0.0 
0.0 0.0 0.0 
9.709764112076e-06 -5.427830949322e-06 0.0 
-5.427830949322e-06 1.625157474281e-04 0.0 
0.0 0.0 0.0 
5.643658706878e-05 1.726666423841e-05 0.0 
1.726666423841e-05 6.216582685989e-04 0.0 
0.0 0.0 0.0 
-5.021279414730e-05 6.046566245476e-05 0.0 
6.046566245476e-05 8.711914643318e-04 0.0 
0.0 0.0 0.0 
-4.201674872351e-05 5.374146972630e-05 0.0 
5.374146972630e-05 1.136766637883e-03 0.0 
0.0 0.0 0.0 
-4.485750167860e-05 4.764327234374e-05 0.0 
4.764327234374e-05 1.174952599308e-03 0.0 
0.0 0.0 0.0 
1.769737073465e-05 8.982532219830e-05 0.0 
8.982532219830e-05 1.155795451381e-03 0.0 
0.0 0.0 0.0 
2.117296090209e-05 5.149705631202e-06 0.0 
5.149705631202e-06 2.536914954292e-04 0.0 
0.0 0.0 0.0 
4.176861386540e-05 1.639165455311e-05 0.0 
1.639165455311e-05 2.792655537927e-04 0.0 
0.0 0.0 0.0 
-2.511553571838e-05 8.441351597293e-05 0.0 
8.441351597293e-05 9.514583578685e-04 0.0 
0.0 0.0 0.0 
5.201874735872e-05 5.486568293594e-06 0.0 
5.486568293594e-06 6.234594974148e-04 0.0 
0.0 0.0 0.0 
-4.914078167162e-05 7.528156936704e-06 0.0 
7.528156936704e-06 8.880519638479e-04 0.0 
0.0 0.0 0.0 
-4.789799640059e-05 8.188035293993e-06 0.0 
8.188035293993e-06 9.213037466174e-04 0.0 
0.0 0.0 0.0 
-3.914134073557e-05 2.061087946724e-05 0.0 
2.061087946724e-05 1.192509486885e-03 0.0 
0.0 0.0 0.0 
2.842940072223e-05 9.250753637618e-05 0.0 
9.250753637618e-05 3.624957485171e-04 0.0 
0.0 0.0 0.0 
5.463665298167e-05 1.961608244431e-05 0.0 
1.961608244431e-05 7.129906651695e-04 0.0 
0.0 0.0 0.0 
3.353965859243e-05 6.456795906619e-05 0.0 
6.456795906619e-05 1.012706473944e-03 0.0 
0.0 0.0 0.0 
5.319873214105e-05 3.933475071596e-05 0.0 
3.933475071596e-05 2.742108446852e-04 0.0 
0.0 0.0 0.0 
-5.222506307412e-06 9.237329044289e-05 0.0 
9.237329044289e-05 1.370255609159e-03 0.0 
0.0 0.0 0.0 
-2.335840200496e-05 2.238237970215e-05 0.0 
2.238237970215e-05 1.351477514202e-03 0.0 
0.0 0.0 0.0 
5.031151105106e-05 4.370826560843e-06 0.0 
4.370826560843e-06 6.767072156255e-04 0.0 
0.0 0.0 0.0 
3.983368105520e-05 3.219628087049e-05 0.0 
3.219628087049e-05 9.791356671001e-04 0.0 
0.0 0.0 0.0 
9.373154422843e-06 -5.373916874920e-06 0.0 
-5.373916874920e-06 1.111634461535e-04 0.0 
0.0 0.0 0.0 
3.883512497538e-05 5.771503255832e-05 0.0 
5.771503255832e-05 9.651404450213e-04 0.0 
0.0 0.0 0.0 
-2.900943475204e-05 7.695095744499e-05 0.0 
7.695095744499e-05 9.986568023586e-04 0.0 
0.0 0.0 0.0 
1.035621978929e-05 -3.908753239392e-06 0.0 
-3.908753239392e-06 1.101668007519e-04 0.0 
0.0 0.0 0.0 
-1.940543022405e-05 2.950291621939e-05 0.0 
2.950291621939e-05 1.350835679214e-03 0.0 
0.0 0.0 0.0 
3.820090029794e-05 2.316669111276e-05 0.0 
2.316669111276e-05 2.584216515213e-04 0.0 
0.0 0.0 0.0 
-4.627091616050e-05 4.993759687141e-05 0.0 
4.993759687141e-05 1.137372609967e-03 0.0 
0.0 0.0 0.0 
-3.991651757451e-05 6.713398061990e-05 0.0 
6.713398061990e-05 1.032325142017e-03 0.0 
0.0 0.0 0.0 
5.362420468247e-05 4.549525785806e-05 0.0 
4.549525785806e-05 6.975874821493e-04 0.0 
0.0 0.0 0.0 
5.402164618484e-05 4.923779865164e-05 0.0 
4.923779865164e-05 8.266077892471e-04 0.0 
0.0 0.0 0.0 
-1.837658042825e-05 3.381740934086e-05 0.0 
3.381740934086e-05 1.375449454226e-03 0.0 
0.0 0.0 0.0 
4.976202399698e-05 5.273170025232e-05 0.0 
5.273170025232e-05 8.946141567214e-04 0.0 
0.0 0.0 0.0 
-1.675562472370e-05 8.829138929889e-05 0.0 
8.829138929889e-05 9.588568868915e-04 0.0 
0.0 0.0 0.0 
-2.336978193773e-05 8.107714234171e-05 0.0 
8.107714234171e-05 9.519404465690e-04 0.0 
0.0 0.0 0.0 
-4.151585234191e-05 1.058785721245e-04 0.0 
1.058785721245e-04 2.040558434362e-04 0.0 
0.0 0.0 0.0 
4.287061068764e-05 2.977299863526e-05 0.0 
2.977299863526e-05 2.118467020031e-04 0.0 
0.0 0.0 0.0 
-1.704668969171e-05 8.299460985348e-05 0.0 
8.299460985348e-05 1.224342566831e-03 0.0 
0.0 0.0 0.0 
-4.554031595483e-05 2.103986394876e-05 0.0 
2.103986394876e-05 1.124758910504e-03 0.0 
0.0 0.0 0.0 
-9.788064038729e-06 9.255314292467e-05 0.0 
9.255314292467e-05 1.236553937762e-03 0.0 
0.0 0.0 0.0 
7.789264891533e-06 1.092071937687e-04 0.0 
1.092071937687e-04 5.566510700656e-04 0.0 
0.0 0.0 0.0 
-3.069846043713e-05 4.902952222794e-05 0.0 
4.902952222794e-05 1.284755378763e-03 0.0 
0.0 0.0 0.0 
-1.895622124692e-05 8.202513701924e-05 0.0 
8.202513701924e-05 1.270317269914e-03 0.0 
0.0 0.0 0.0 
-4.529027561595e-05 1.731037747921e-05 0.0 
1.731037747921e-05 9.432933882429e-04 0.0 
0.0 0.0 0.0 
-1.496271054047e-05 8.793343773958e-05 0.0 
8.793343773958e-05 1.223466068836e-03 0.0 
0.0 0.0 0.0 
3.763284992142e-05 2.175081393649e-05 0.0 
2.175081393649e-05 9.808016686625e-04 0.0 
0.0 0.0 0.0 
-1.900108911024e-05 8.577495141320e-05 0.0 
8.577495141320e-05 1.063441763833e-03 0.0 
0.0 0.0 0.0 
5.632401205591e-05 2.106736304415e-05 0.0 
2.106736304415e-05 6.863669143784e-04 0.0 
0.0 0.0 0.0 
5.275026008156e-05 1.482147216755e-05 0.0 
1.482147216755e-05 7.273635295397e-04 0.0 
0.0 0.0 0.0 
-2.335359917283e-05 3.893812425738e-05 0.0 
3.893812425738e-05 1.392272783683e-03 0.0 
0.0 0.0 0.0 
5.737811140971e-05 4.562933924067e-05 0.0 
4.562933924067e-05 7.594570475880e-04 0.0 
0.0 0.0 0.0 
-3.266069373109e-05 7.619699898085e-05 0.0 
7.619699898085e-05 1.043253525206e-03 0.0 
0.0 0.0 0.0 
1.583377246650e-05 9.149695529922e-05 0.0 
9.149695529922e-05 8.734606819465e-04 0.0 
0.0 0.0 0.0 
4.423562905376e-05 5.606510108470e-05 0.0 
5.606510108470e-05 9.634026821408e-04 0.0 
0.0 0.0 0.0 
2.134046173330e-06 8.743952069985e-05 0.0 
8.743952069985e-05 8.575973894147e-04 0.0 
0.0 0.0 0.0 
5.708528527171e-05 6.665722252013e-05 0.0 
6.665722252013e-05 4.585280248572e-04 0.0 
0.0 0.0 0.0 
4.740000034831e-05 6.892372064073e-05 0.0 
6.892372064073e-05 8.105610186258e-04 0.0 
0.0 0.0 0.0 
5.071810288682e-05 7.872143080028e-05 0.0 
7.872143080028e-05 5.114113724145e-04 0.0 
0.0 0.0 0.0 
-3.910604891422e-05 6.074059473284e-05 0.0 
6.074059473284e-05 1.153658244025e-03 0.0 
0.0 0.0 0.0 
4.953041659106e-05 6.100909785254e-05 0.0 
6.100909785254e-05 5.141698796389e-04 0.0 
0.0 0.0 0.0 
-4.296870442067e-05 5.953515317642e-05 0.0 
5.953515317642e-05 1.114867470291e-03 0.0 
0.0 0.0 0.0 
1.359475761853e-05 8.278063225339e-05 0.0 
8.278063225339e-05 1.144034398813e-03 0.0 
0.0 0.0 0.0 
2.090862025494e-05 8.742804985456e-05 0.0 
8.742804985456e-05 1.092503673891e-03 0.0 
0.0 0.0 0.0 
7.351990452875e-06 9.538916412506e-05 0.0 
9.538916412506e-05 8.029734913593e-04 0.0 
0.0 0.0 0.0 
-3.711044585186e-05 2.730711343280e-05 0.0 
2.730711343280e-05 1.157862462814e-03 0.0 
0.0 0.0 0.0 
3.630638739294e-05 2.949518271152e-05 0.0 
2.949518271152e-05 1.006617288718e-03 0.0 
0.0 0.0 0.0 
3.455094666571e-05 1.916247003050e-05 0.0 
1.916247003050e-05 1.008288262559e-03 0.0 
0.0 0.0 0.0 
2.400792368040e-05 8.637304705970e-05 0.0 
8.637304705970e-05 2.968925279270e-04 0.0 
0.0 0.0 0.0 
-3.543419304075e-05 6.974395392793e-05 0.0 
6.974395392793e-05 1.128619553944e-03 0.0 
0.0 0.0 0.0 
2.482798343428e-05 3.006683780585e-05 0.0 
3.006683780585e-05 1.107463856407e-03 0.0 
0.0 0.0 0.0 
-5.029277679680e-05 3.627658667686e-05 0.0 
3.627658667686e-05 7.546407349950e-04 0.0 
0.0 0.0 0.0 
4.966486578351e-05 7.608056303490e-06 0.0 
7.608056303490e-06 7.411354000564e-04 0.0 
0.0 0.0 0.0 
-5.003005376836e-05 8.945488194104e-05 0.0 
8.945488194104e-05 2.998005946648e-04 0.0 
0.0 0.0 0.0 
3.263244392104e-05 2.656607965368e-05 0.0 
2.656607965368e-05 1.034495450716e-03 0.0 
0.0 0.0 0.0 
5.301284570014e-05 7.694102290777e-05 0.0 
7.694102290777e-05 4.428839659925e-04 0.0 
0.0 0.0 0.0 
4.769091065104e-05 5.486965503091e-06 0.0 
5.486965503091e-06 7.057523125569e-04 0.0 
0.0 0.0 0.0 
7.538897302428e-06 9.203927332437e-05 0.0 
9.203927332437e-05 1.050126125273e-03 0.0 
0.0 0.0 0.0 
-4.237080590797e-05 2.093769613917e-05 0.0 
2.093769613917e-05 1.158711751764e-03 0.0 
0.0 0.0 0.0 
-3.999892420636e-05 2.728200498108e-05 0.0 
2.728200498108e-05 1.123922550830e-03 0.0 
0.0 0.0 0.0 
-2.209488993921e-05 8.491308447485e-05 0.0 
8.491308447485e-05 1.007114073915e-03 0.0 
0.0 0.0 0.0 
-5.017919132944e-05 9.289006770161e-06 0.0 
9.289006770161e-06 8.221876415211e-04 0.0 
0.0 0.0 0.0 
-4.939412072646e-05 9.386169774054e-06 0.0 
9.386169774054e-06 8.556705101725e-04 0.0 
0.0 0.0 0.0 
3.132960635632e-05 1.646695941856e-05 0.0 
1.646695941856e-05 1.036161949705e-03 0.0 
0.0 0.0 0.0 
4.760645300705e-05 4.364825622877e-05 0.0 
4.364825622877e-05 8.726589834311e-04 0.0 
0.0 0.0 0.0 
5.112108087801e-05 4.875695700555e-05 0.0 
4.875695700555e-05 7.640891413798e-04 0.0 
0.0 0.0 0.0 
4.093741671607e-05 6.941649792872e-05 0.0 
6.941649792872e-05 9.636741955754e-04 0.0 
0.0 0.0 0.0 
5.064389062936e-05 6.732040751878e-05 0.0 
6.732040751878e-05 7.440849484848e-04 0.0 
0.0 0.0 0.0 
4.468507923683e-05 7.132484080061e-05 0.0 
7.132484080061e-05 5.026918597972e-04 0.0 
0.0 0.0 0.0 
-4.429811871454e-05 1.155177296855e-05 0.0 
1.155177296855e-05 8.215938492522e-04 0.0 
0.0 0.0 0.0 
-4.725157768704e-05 1.701488112050e-05 0.0 
1.701488112050e-05 1.066815074021e-03 0.0 
0.0 0.0 0.0 
-2.633216183834e-05 2.927139236487e-07 0.0 
2.927139236487e-07 9.487078069721e-04 0.0 
0.0 0.0 0.0 
1.989928984325e-05 7.830725345003e-05 0.0 
7.830725345003e-05 1.093800660827e-03 0.0 
0.0 0.0 0.0 
1.185296219464e-05 8.725442917610e-05 0.0 
8.725442917610e-05 8.041287591674e-04 0.0 
0.0 0.0 0.0 
9.741812987629e-06 9.888669969924e-05 0.0 
9.888669969924e-05 1.253283935211e-03 0.0 
0.0 0.0 0.0 
3.207202808220e-05 1.285170079452e-05 0.0 
1.285170079452e-05 1.015656378783e-03 0.0 
0.0 0.0 0.0 
4.423927978681e-05 6.165436778916e-05 0.0 
6.165436778916e-05 7.960715054418e-04 0.0 
0.0 0.0 0.0 
1.745058120517e-05 2.355900719796e-05 0.0 
2.355900719796e-05 1.150408266245e-03 0.0 
0.0 0.0 0.0 
5.274928131827e-05 5.195992061716e-05 0.0 
5.195992061716e-05 5.293271113658e-04 0.0 
0.0 0.0 0.0 
5.982068148391e-06 9.803618008843e-05 0.0 
9.803618008843e-05 1.237852638471e-03 0.0 
0.0 0.0 0.0 
-2.087133464013e-05 8.071578868929e-05 0.0 
8.071578868929e-05 1.007738693777e-03 0.0 
0.0 0.0 0.0 
-1.184256920728e-05 8.875370645937e-05 0.0 
8.875370645937e-05 1.072999117894e-03 0.0 
0.0 0.0 0.0 
2.696570559890e-05 6.549809703864e-05 0.0 
6.549809703864e-05 1.103565085657e-03 0.0 
0.0 0.0 0.0 
5.101851128519e-05 2.773518468313e-06 0.0 
2.773518468313e-06 5.086032749335e-04 0.0 
0.0 0.0 0.0 
-3.461448293451e-05 7.282429086050e-05 0.0 
7.282429086050e-05 1.086747661630e-03 0.0 
0.0 0.0 0.0 
4.965246243849e-05 5.404076989834e-05 0.0 
5.404076989834e-05 7.461135164819e-04 0.0 
0.0 0.0 0.0 
-4.197047710963e-05 6.309029224123e-05 0.0 
6.309029224123e-05 1.074056602127e-03 0.0 
0.0 0.0 0.0 
3.528584124890e-07 1.007516280993e-04 0.0 
1.007516280993e-04 6.197821142273e-04 0.0 
0.0 0.0 0.0 
-4.677393330432e-06 9.160299050530e-05 0.0 
9.160299050530e-05 1.084520030452e-03 0.0 
0.0 0.0 0.0 
5.586199441021e-05 5.944987002929e-05 0.0 
5.944987002929e-05 6.953427431211e-04 0.0 
0.0 0.0 0.0 
5.286031762597e-05 2.294500291916e-05 0.0 
2.294500291916e-05 7.780810226885e-04 0.0 
0.0 0.0 0.0 
-3.964315737059e-05 6.614817711826e-05 0.0 
6.614817711826e-05 1.073637678604e-03 0.0 
0.0 0.0 0.0 
-1.732317560166e-05 6.299463574600e-05 0.0 
6.299463574600e-05 1.639383761358e-04 0.0 
0.0 0.0 0.0 
1.503695131100e-05 9.071971775498e-05 0.0 
9.071971775498e-05 9.369191407456e-04 0.0 
0.0 0.0 0.0 
-1.807923059893e-05 1.055374420774e-04 0.0 
1.055374420774e-04 3.425073690013e-04 0.0 
0.0 0.0 0.0 
1.207517286717e-05 -2.352625942892e-06 0.0 
-2.352625942892e-06 1.759915265254e-04 0.0 
0.0 0.0 0.0 
5.280332645774e-05 1.820009576147e-05 0.0 
1.820009576147e-05 7.392563269377e-04 0.0 
0.0 0.0 0.0 
-2.922156161400e-05 7.172650194579e-05 0.0 
7.172650194579e-05 1.241206134149e-03 0.0 
0.0 0.0 0.0 
-4.036412126829e-05 3.237496999642e-05 0.0 
3.237496999642e-05 1.146847963025e-03 0.0 
0.0 0.0 0.0 
-4.993590985169e-05 1.257920315769e-05 0.0 
1.257920315769e-05 7.560542634975e-04 0.0 
0.0 0.0 0.0 
0.0 3.835266991323e-05 0.0 
3.835266991323e-05 1.507554428730e-03 0.0 
0.0 0.0 0.0 
-5.392608292476e-05 9.977749586620e-05 0.0 
9.977749586620e-05 1.134328012788e-04 0.0 
0.0 0.0 0.0 
-4.966821867713e-05 1.221020879009e-05 0.0 
1.221020879009e-05 7.898626494445e-04 0.0 
0.0 0.0 0.0 
5.402362760187e-05 5.671526720293e-05 0.0 
5.671526720293e-05 7.812174925967e-04 0.0 
0.0 0.0 0.0 
4.923216427311e-05 3.737912974869e-06 0.0 
3.737912974869e-06 7.036206648037e-04 0.0 
0.0 0.0 0.0 
-5.480735864105e-05 2.354773394618e-05 0.0 
2.354773394618e-05 8.980267025342e-04 0.0 
0.0 0.0 0.0 
6.168724389655e-05 4.322951833106e-05 0.0 
4.322951833106e-05 5.180288751505e-04 0.0 
0.0 0.0 0.0 
5.143048589784e-05 4.002744196570e-05 0.0 
4.002744196570e-05 8.048018133211e-04 0.0 
0.0 0.0 0.0 
-2.602773802873e-05 7.749177358659e-05 0.0 
7.749177358659e-05 1.054223195714e-03 0.0 
0.0 0.0 0.0 
1.405885011074e-05 9.058041101871e-05 0.0 
9.058041101871e-05 1.000847086291e-03 0.0 
0.0 0.0 0.0 
-2.579624353782e-05 6.878663834466e-05 0.0 
6.878663834466e-05 1.302918356288e-03 0.0 
0.0 0.0 0.0 
4.118399578146e-05 9.550906369935e-05 0.0 
9.550906369935e-05 2.877647502679e-04 0.0 
0.0 0.0 0.0 
5.371291227640e-05 1.519593380918e-05 0.0 
1.519593380918e-05 6.750130385615e-04 0.0 
0.0 0.0 0.0 
5.061311564902e-05 1.332679958560e-05 0.0 
1.332679958560e-05 7.291773990226e-04 0.0 
0.0 0.0 0.0 
3.756083375261e-05 -1.060438652349e-05 0.0 
-1.060438652349e-05 3.721202734992e-04 0.0 
0.0 0.0 0.0 
-4.460248614857e-05 1.839236070454e-05 0.0 
1.839236070454e-05 9.764031109447e-04 0.0 
0.0 0.0 0.0 
-4.573341753622e-05 2.679886378689e-05 0.0 
2.679886378689e-05 1.147656109737e-03 0.0 
0.0 0.0 0.0 
3.923090979430e-05 -2.285955520043e-06 0.0 
-2.285955520043e-06 9.149085994931e-04 0.0 
0.0 0.0 0.0 
4.650857851063e-06 -4.165726185589e-06 0.0 
-4.165726185589e-06 1.116000108157e-04 0.0 
0.0 0.0 0.0 
-2.432275144892e-05 -1.216084258424e-05 0.0 
-1.216084258424e-05 7.713774797602e-05 0.0 
0.0 0.0 0.0 
2.209510611073e-05 -1.544744453331e-05 0.0 
-1.544744453331e-05 2.536572729568e-04 0.0 
0.0 0.0 0.0 
4.817249533118e-05 3.068086501043e-06 0.0 
3.068086501043e-06 7.308699784268e-04 0.0 
0.0 0.0 0.0 
5.160936640536e-05 5.542170818832e-05 0.0 
5.542170818832e-05 5.964816823165e-04 0.0 
0.0 0.0 0.0 
5.597526979817e-05 3.286641648200e-05 0.0 
3.286641648200e-05 4.997737516466e-04 0.0 
0.0 0.0 0.0 
5.292193503337e-05 4.737321401886e-05 0.0 
4.737321401886e-05 4.614346100305e-04 0.0 
0.0 0.0 0.0 
5.085996048226e-05 1.691245651125e-05 0.0 
1.691245651125e-05 7.661490810877e-04 0.0 
0.0 0.0 0.0 
-3.904570612512e-05 4.434063452039e-05 0.0 
4.434063452039e-05 1.190851279292e-03 0.0 
0.0 0.0 0.0 
4.894976490610e-05 1.228448613665e-05 0.0 
1.228448613665e-05 7.567140449454e-04 0.0 
0.0 0.0 0.0 
5.284720552301e-05 7.118746264901e-05 0.0 
7.118746264901e-05 5.938972540167e-04 0.0 
0.0 0.0 0.0 
-3.810836561191e-05 6.558303490925e-05 0.0 
6.558303490925e-05 1.129172360093e-03 0.0 
0.0 0.0 0.0 
-3.367274834065e-05 1.172370410785e-05 0.0 
1.172370410785e-05 1.048394299124e-03 0.0 
0.0 0.0 0.0 
7.276852229010e-06 9.290566066435e-05 0.0 
9.290566066435e-05 1.114498922525e-03 0.0 
0.0 0.0 0.0 
4.707207507226e-05 2.162169651454e-06 0.0 
2.162169651454e-06 7.584197616421e-04 0.0 
0.0 0.0 0.0 
4.819557796854e-05 6.582116498936e-06 0.0 
6.582116498936e-06 7.679798101157e-04 0.0 
0.0 0.0 0.0 
-4.926843832198e-05 1.744986828498e-05 0.0 
1.744986828498e-05 6.891323057121e-04 0.0 
0.0 0.0 0.0 
5.398927726930e-05 4.828820417430e-05 0.0 
4.828820417430e-05 6.131600644166e-04 0.0 
0.0 0.0 0.0 
4.728012639355e-05 1.090631150272e-05 0.0 
1.090631150272e-05 7.841639772463e-04 0.0 
0.0 0.0 0.0 
-2.153282610862e-05 4.675900507923e-06 0.0 
4.675900507923e-06 1.175986362626e-03 0.0 
0.0 0.0 0.0 
-2.358399578228e-05 4.694327283913e-06 0.0 
4.694327283913e-06 1.118254055240e-03 0.0 
0.0 0.0 0.0 
-4.923813690982e-05 1.593058126524e-05 0.0 
1.593058126524e-05 7.235927368914e-04 0.0 
0.0 0.0 0.0 
4.884971176011e-05 1.562275356167e-05 0.0 
1.562275356167e-05 7.935415653189e-04 0.0 
0.0 0.0 0.0 
5.477072847437e-05 1.715476211479e-05 0.0 
1.715476211479e-05 4.775869447167e-04 0.0 
0.0 0.0 0.0 
-1.091147664734e-05 1.154322396957e-04 0.0 
1.154322396957e-04 4.003095756915e-04 0.0 
0.0 0.0 0.0 
4.046607895658e-06 9.007786107107e-05 0.0 
9.007786107107e-05 1.239675370391e-03 0.0 
0.0 0.0 0.0 
2.359629306792e-05 -3.901062787796e-06 0.0 
-3.901062787796e-06 2.284223242355e-04 0.0 
0.0 0.0 0.0 
6.070876229858e-05 2.861005233325e-05 0.0 
2.861005233325e-05 4.986830955065e-04 0.0 
0.0 0.0 0.0 
1.004944159044e-05 8.347104805502e-05 0.0 
8.347104805502e-05 9.263883116708e-04 0.0 
0.0 0.0 0.0 
-4.366791562005e-05 1.251669046537e-05 0.0 
1.251669046537e-05 7.559277083542e-04 0.0 
0.0 0.0 0.0 
4.604451965240e-05 8.900309222768e-07 0.0 
8.900309222768e-07 7.866739645677e-04 0.0 
0.0 0.0 0.0 
3.007946339872e-05 -6.365251624430e-06 0.0 
-6.365251624430e-06 3.464580020558e-04 0.0 
0.0 0.0 0.0 
-4.641851136922e-05 1.192391969346e-05 0.0 
1.192391969346e-05 1.003171781714e-03 0.0 
0.0 0.0 0.0 
4.662524772381e-05 5.497104266107e-06 0.0 
5.497104266107e-06 7.953273110239e-04 0.0 
0.0 0.0 0.0 
5.430210657464e-05 4.067061019070e-05 0.0 
4.067061019070e-05 7.172966517279e-04 0.0 
0.0 0.0 0.0 
5.106193427462e-05 8.585805477197e-06 0.0 
8.585805477197e-06 7.147935136727e-04 0.0 
0.0 0.0 0.0 
-5.574780394979e-06 3.866201345948e-05 0.0 
3.866201345948e-05 1.409013744360e-04 0.0 
0.0 0.0 0.0 
-1.485569195592e-05 -2.801176751721e-06 0.0 
-2.801176751721e-06 1.356184924131e-03 0.0 
0.0 0.0 0.0 
5.694133538392e-05 3.249085934189e-05 0.0 
3.249085934189e-05 5.856264562385e-04 0.0 
0.0 0.0 0.0 
2.413288785275e-05 8.510515696669e-05 0.0 
8.510515696669e-05 1.130152278695e-03 0.0 
0.0 0.0 0.0 
-1.136506281041e-05 8.316936998042e-05 0.0 
8.316936998042e-05 1.074029316466e-03 0.0 
0.0 0.0 0.0 
4.676772042234e-05 1.424159431592e-05 0.0 
1.424159431592e-05 8.211875166784e-04 0.0 
0.0 0.0 0.0 
4.509802360952e-05 4.397514828740e-06 0.0 
4.397514828740e-06 8.228930578080e-04 0.0 
0.0 0.0 0.0 
5.821129730554e-05 6.095491437851e-05 0.0 
6.095491437851e-05 5.439958542510e-04 0.0 
0.0 0.0 0.0 
4.856964716193e-06 -5.212769425309e-06 0.0 
-5.212769425309e-06 1.521516538239e-04 0.0 
0.0 0.0 0.0 
1.824698650976e-05 6.487505247910e-05 0.0 
6.487505247910e-05 1.354797748145e-04 0.0 
0.0 0.0 0.0 
4.474286696143e-05 1.245746846620e-05 0.0 
1.245746846620e-05 8.491155766206e-04 0.0 
0.0 0.0 0.0 
2.899108148613e-05 7.634761221054e-05 0.0 
7.634761221054e-05 1.103954465428e-03 0.0 
0.0 0.0 0.0 
5.142833829197e-05 5.871532890111e-06 0.0 
5.871532890111e-06 4.613246420224e-04 0.0 
0.0 0.0 0.0 
-3.027603423800e-05 7.579059125080e-05 0.0 
7.579059125080e-05 1.142298598537e-03 0.0 
0.0 0.0 0.0 
-4.977535496198e-05 4.062860278860e-05 0.0 
4.062860278860e-05 7.171364500389e-04 0.0 
0.0 0.0 0.0 
-3.873366280405e-05 6.277823126981e-05 0.0 
6.277823126981e-05 1.170078578702e-03 0.0 
0.0 0.0 0.0 
1.868128437699e-05 6.564226493181e-05 0.0 
6.564226493181e-05 1.210324381571e-03 0.0 
0.0 0.0 0.0 
-8.612104827588e-05 -3.458642273979e-06 0.0 
-3.458642273979e-06 5.286435521068e-05 0.0 
0.0 0.0 0.0 
0.0 2.920098753175e-06 0.0 
2.920098753175e-06 1.517581096901e-03 0.0 
0.0 0.0 0.0 
0.0 8.383003106134e-06 0.0 
8.383003106134e-06 1.240704800527e-03 0.0 
0.0 0.0 0.0 
-2.506083802023e-05 -4.528115623480e-06 0.0 
-4.528115623480e-06 1.016674935346e-03 0.0 
0.0 0.0 0.0 
5.645698901757e-05 1.933655565236e-05 0.0 
1.933655565236e-05 5.646793647396e-04 0.0 
0.0 0.0 0.0 
-1.850790066116e-05 8.090720156747e-05 0.0 
8.090720156747e-05 1.064242752032e-03 0.0 
0.0 0.0 0.0 
4.802539392545e-05 6.350534153448e-05 0.0 
6.350534153448e-05 5.817138132962e-04 0.0 
0.0 0.0 0.0 
8.500029371250e-06 -1.350939572746e-05 0.0 
-1.350939572746e-05 1.514961609443e-04 0.0 
0.0 0.0 0.0 
-5.008950433727e-05 7.601360600840e-05 0.0 
7.601360600840e-05 2.038898425019e-04 0.0 
0.0 0.0 0.0 
-1.289692110107e-05 7.780035427484e-06 0.0 
7.780035427484e-06 1.406833235127e-03 0.0 
0.0 0.0 0.0 
-4.551509739203e-05 3.265499378920e-05 0.0 
3.265499378920e-05 1.170775172451e-03 0.0 
0.0 0.0 0.0 
-4.828862852790e-05 8.118354941647e-06 0.0 
8.118354941647e-06 9.572553595936e-04 0.0 
0.0 0.0 0.0 
-3.431471217952e-06 1.061198476573e-04 0.0 
1.061198476573e-04 1.409427082965e-03 0.0 
0.0 0.0 0.0 
2.396291976181e-05 -6.354148429708e-06 0.0 
-6.354148429708e-06 2.867958842490e-04 0.0 
0.0 0.0 0.0 
-2.395246595510e-06 1.077544018336e-04 0.0 
1.077544018336e-04 1.397211540383e-03 0.0 
0.0 0.0 0.0 
-4.008252710774e-05 3.838775222263e-05 0.0 
3.838775222263e-05 1.169757156611e-03 0.0 
0.0 0.0 0.0 
5.403107870960e-05 9.241705633411e-06 0.0 
9.241705633411e-06 5.479527641645e-04 0.0 
0.0 0.0 0.0 
-1.431289532627e-05 8.820217353056e-05 0.0 
8.820217353056e-05 1.015584960245e-03 0.0 
0.0 0.0 0.0 
6.016860346092e-05 2.486289103380e-05 0.0 
2.486289103380e-05 5.216932833574e-04 0.0 
0.0 0.0 0.0 
-2.601264629543e-05 9.792153963474e-05 0.0 
9.792153963474e-05 4.760279669525e-04 0.0 
0.0 0.0 0.0 
5.729895806628e-05 1.753994599835e-05 0.0 
1.753994599835e-05 4.829564207240e-04 0.0 
0.0 0.0 0.0 
-3.729017451226e-05 5.076883859867e-05 0.0 
5.076883859867e-05 1.210758622809e-03 0.0 
0.0 0.0 0.0 
2.815020394653e-05 5.672883922425e-06 0.0 
5.672883922425e-06 1.054009506159e-03 0.0 
0.0 0.0 0.0 
6.187279494152e-05 3.764079709938e-05 0.0 
3.764079709938e-05 5.392833540443e-04 0.0 
0.0 0.0 0.0 
-3.072134840632e-05 7.346896819122e-05 0.0 
7.346896819122e-05 1.184223053441e-03 0.0 
0.0 0.0 0.0 
-4.762282300674e-05 -5.114055895273e-06 0.0 
-5.114055895273e-06 3.304402570103e-05 0.0 
0.0 0.0 0.0 
6.000823353491e-05 5.344694570989e-05 0.0 
5.344694570989e-05 5.626089319319e-04 0.0 
0.0 0.0 0.0 
-3.795448940436e-05 3.662463925530e-05 0.0 
3.662463925530e-05 1.264231968328e-03 0.0 
0.0 0.0 0.0 
5.278140030085e-05 9.900469123749e-06 0.0 
9.900469123749e-06 4.687324562851e-04 0.0 
0.0 0.0 0.0 
4.704754134854e-05 -1.038828421896e-06 0.0 
-1.038828421896e-06 4.232187024851e-04 0.0 
0.0 0.0 0.0 
-1.269171901563e-05 8.316063126467e-05 0.0 
8.316063126467e-05 1.016400428097e-03 0.0 
0.0 0.0 0.0 
3.588648740860e-05 7.557068996362e-06 0.0 
7.557068996362e-06 2.236000317315e-04 0.0 
0.0 0.0 0.0 
-4.925050794768e-05 2.451512152554e-05 0.0 
2.451512152554e-05 6.226690718736e-04 0.0 
0.0 0.0 0.0 
-4.466000888925e-05 2.132627047762e-05 0.0 
2.132627047762e-05 6.565489329964e-04 0.0 
0.0 0.0 0.0 
4.808699098779e-05 5.616063167025e-06 0.0 
5.616063167025e-06 4.078805647159e-04 0.0 
0.0 0.0 0.0 
5.162453769314e-05 4.422203946201e-05 0.0 
4.422203946201e-05 7.835816996291e-04 0.0 
0.0 0.0 0.0 
7.394195171928e-06 9.343757602460e-05 0.0 
9.343757602460e-05 8.638630793922e-04 0.0 
0.0 0.0 0.0 
-3.379969797013e-05 6.846144563901e-05 0.0 
6.846144563901e-05 1.184804578275e-03 0.0 
0.0 0.0 0.0 
-1.656117821291e-05 6.509700832062e-05 0.0 
6.509700832062e-05 1.381010464875e-03 0.0 
0.0 0.0 0.0 
-4.156607253736e-05 1.462790706100e-05 0.0 
1.462790706100e-05 6.896376356709e-04 0.0 
0.0 0.0 0.0 
-1.894055913021e-05 -4.287258336850e-06 0.0 
-4.287258336850e-06 1.237462150203e-03 0.0 
0.0 0.0 0.0 
-1.279204461735e-05 8.356648286003e-05 0.0 
8.356648286003e-05 1.349047195073e-03 0.0 
0.0 0.0 0.0 
5.528792723375e-05 6.945711417945e-05 0.0 
6.945711417945e-05 5.265640256562e-04 0.0 
0.0 0.0 0.0 
-6.328638301301e-06 1.102381053087e-04 0.0 
1.102381053087e-04 3.426740443417e-04 0.0 
0.0 0.0 0.0 
-5.582629914025e-05 4.002549920494e-05 0.0 
4.002549920494e-05 7.540186280235e-04 0.0 
0.0 0.0 0.0 
5.434846276464e-05 3.634244549004e-05 0.0 
3.634244549004e-05 7.382442223083e-04 0.0 
0.0 0.0 0.0 
-3.417291168895e-05 6.541355654966e-05 0.0 
6.541355654966e-05 1.208514589317e-03 0.0 
0.0 0.0 0.0 
5.748515023152e-05 4.943372016741e-05 0.0 
4.943372016741e-05 7.362398265023e-04 0.0 
0.0 0.0 0.0 
2.486148164915e-05 7.000905594783e-05 0.0 
7.000905594783e-05 2.366392867792e-04 0.0 
0.0 0.0 0.0 
4.805788811568e-05 4.729233933925e-05 0.0 
4.729233933925e-05 8.501881336827e-04 0.0 
0.0 0.0 0.0 
-3.654392417740e-05 8.300707570747e-05 0.0 
8.300707570747e-05 5.370705868335e-04 0.0 
0.0 0.0 0.0 
1.101755212907e-05 8.508368180845e-05 0.0 
8.508368180845e-05 8.650375104235e-04 0.0 
0.0 0.0 0.0 
5.447804553294e-05 5.294597820141e-05 0.0 
5.294597820141e-05 8.027923416492e-04 0.0 
0.0 0.0 0.0 
-6.633186010907e-06 9.058939661044e-05 0.0 
9.058939661044e-05 1.025119447472e-03 0.0 
0.0 0.0 0.0 
-2.224735751144e-05 -4.424675716278e-07 0.0 
-4.424675716278e-07 1.160644487687e-03 0.0 
0.0 0.0 0.0 
4.248679722019e-05 -6.605325894807e-06 0.0 
-6.605325894807e-06 4.095765109930e-04 0.0 
0.0 0.0 0.0 
1.205002256288e-05 1.159719088209e-04 0.0 
1.159719088209e-04 3.127560075904e-04 0.0 
0.0 0.0 0.0 
5.062060946215e-05 5.626681992498e-05 0.0 
5.626681992498e-05 8.707528661094e-04 0.0 
0.0 0.0 0.0 
-4.147352700357e-05 6.739154068465e-05 0.0 
6.739154068465e-05 5.857383005694e-04 0.0 
0.0 0.0 0.0 
-9.460123573724e-06 1.619936128932e-05 0.0 
1.619936128932e-05 7.413506116416e-05 0.0 
0.0 0.0 0.0 
-8.453899132954e-06 5.593446334499e-06 0.0 
5.593446334499e-06 1.413849733230e-03 0.0 
0.0 0.0 0.0 
-1.253223437792e-05 5.725922392079e-06 0.0 
5.725922392079e-06 1.356521495979e-03 0.0 
0.0 0.0 0.0 
-9.689229175103e-06 -8.485464526781e-06 0.0 
-8.485464526781e-06 6.260332355601e-05 0.0 
0.0 0.0 0.0 
4.364567649917e-05 5.050991099621e-05 0.0 
5.050991099621e-05 9.179869352953e-04 0.0 
0.0 0.0 0.0 
3.028304816333e-05 -1.307291758082e-05 0.0 
-1.307291758082e-05 3.127105594076e-04 0.0 
0.0 0.0 0.0 
3.665162407218e-05 -5.183702137690e-07 0.0 
-5.183702137690e-07 3.353067699496e-04 0.0 
0.0 0.0 0.0 
-2.552874128048e-05 7.745172057254e-05 0.0 
7.745172057254e-05 1.240836399222e-03 0.0 
0.0 0.0 0.0 
-5.071229376874e-06 8.410680758720e-05 0.0 
8.410680758720e-05 1.025992242196e-03 0.0 
0.0 0.0 0.0 
-2.569064132052e-05 7.913086604902e-05 0.0 
7.913086604902e-05 1.198628899254e-03 0.0 
0.0 0.0 0.0 
5.626708580619e-05 3.794439492975e-05 0.0 
3.794439492975e-05 5.654925394547e-04 0.0 
0.0 0.0 0.0 
-2.784462684557e-05 1.021405179347e-06 0.0 
1.021405179347e-06 9.489467682708e-04 0.0 
0.0 0.0 0.0 
9.353575946225e-06 5.252826745312e-05 0.0 
5.252826745312e-05 1.200772743466e-03 0.0 
0.0 0.0 0.0 
2.872157664702e-05 -2.927941016841e-06 0.0 
-2.927941016841e-06 2.754247766747e-04 0.0 
0.0 0.0 0.0 
2.142886649215e-05 7.639105280156e-05 0.0 
7.639105280156e-05 1.108038407109e-03 0.0 
0.0 0.0 0.0 
2.176065262205e-06 8.547807197473e-05 0.0 
8.547807197473e-05 9.168741453884e-04 0.0 
0.0 0.0 0.0 
2.040479605325e-05 1.025584339969e-06 0.0 
1.025584339969e-06 2.138760960384e-04 0.0 
0.0 0.0 0.0 
-3.749241043993e-05 5.864269599545e-05 0.0 
5.864269599545e-05 1.191343646781e-03 0.0 
0.0 0.0 0.0 
5.617538364455e-05 6.354122936505e-05 0.0 
6.354122936505e-05 6.105123021793e-04 0.0 
0.0 0.0 0.0 
3.182691024506e-06 -9.977640858133e-06 0.0 
-9.977640858133e-06 1.135241799854e-04 0.0 
0.0 0.0 0.0 
6.098392181553e-05 4.978214770351e-05 0.0 
4.978214770351e-05 4.972855246357e-04 0.0 
0.0 0.0 0.0 
4.179826314510e-05 5.107260372630e-06 0.0 
5.107260372630e-06 8.855567618795e-04 0.0 
0.0 0.0 0.0 
-4.272223454194e-05 4.561003804676e-05 0.0 
4.561003804676e-05 1.212039585275e-03 0.0 
0.0 0.0 0.0 
1.524485844762e-05 -1.730063367948e-05 0.0 
-1.730063367948e-05 2.076690080286e-04 0.0 
0.0 0.0 0.0 
4.811406908489e-05 -1.386499174060e-06 0.0 
-1.386499174060e-06 7.072296678408e-04 0.0 
0.0 0.0 0.0 
-3.021978020612e-05 7.175811613417e-05 0.0 
7.175811613417e-05 1.225340421071e-03 0.0 
0.0 0.0 0.0 
1.198524452573e-06 8.663007587645e-05 0.0 
8.663007587645e-05 1.163740674682e-03 0.0 
0.0 0.0 0.0 
5.316183172988e-05 1.076905127665e-05 0.0 
1.076905127665e-05 4.445842749619e-04 0.0 
0.0 0.0 0.0 
3.137410924658e-05 3.608124791279e-06 0.0 
3.608124791279e-06 3.466785572190e-04 0.0 
0.0 0.0 0.0 
7.507703638998e-06 9.222419347764e-05 0.0 
9.222419347764e-05 9.251915940138e-04 0.0 
0.0 0.0 0.0 
-2.186129162640e-05 -4.835000419779e-06 0.0 
-4.835000419779e-06 1.142399853446e-03 0.0 
0.0 0.0 0.0 
1.788698460903e-06 -1.097120495434e-05 0.0 
-1.097120495434e-05 1.119985426028e-04 0.0 
0.0 0.0 0.0 
-1.216726853648e-05 9.220989422317e-05 0.0 
9.220989422317e-05 1.389573861619e-03 0.0 
0.0 0.0 0.0 
-9.669578389992e-06 5.767919281336e-05 0.0 
5.767919281336e-05 1.437848859847e-03 0.0 
0.0 0.0 0.0 
-2.381192978662e-05 -3.897075218003e-06 0.0 
-3.897075218003e-06 1.054638797236e-03 0.0 
0.0 0.0 0.0 
-1.313988287999e-05 2.322291687627e-05 0.0 
2.322291687627e-05 1.446199960794e-03 0.0 
0.0 0.0 0.0 
-8.551432243209e-06 6.931139714343e-05 0.0 
6.931139714343e-05 1.429603190346e-03 0.0 
0.0 0.0 0.0 
6.109594217496e-05 4.736996048908e-05 0.0 
4.736996048908e-05 5.829029604247e-04 0.0 
0.0 0.0 0.0 
5.659814070968e-05 2.286370204512e-05 0.0 
2.286370204512e-05 5.420293665506e-04 0.0 
0.0 0.0 0.0 
1.017419317439e-05 9.407188878438e-05 0.0 
9.407188878438e-05 1.270149404539e-03 0.0 
0.0 0.0 0.0 
-4.279145442698e-05 1.583131272165e-06 0.0 
1.583131272165e-06 3.545390195336e-05 0.0 
0.0 0.0 0.0 
2.732885752854e-05 5.121155751632e-06 0.0 
5.121155751632e-06 3.141475635502e-04 0.0 
0.0 0.0 0.0 
4.574434357529e-05 6.140307677824e-06 0.0 
6.140307677824e-06 7.227716857501e-04 0.0 
0.0 0.0 0.0 
4.713492768027e-05 -1.754096986863e-06 0.0 
-1.754096986863e-06 4.468819668151e-04 0.0 
0.0 0.0 0.0 
6.099648866753e-05 3.292653603426e-05 0.0 
3.292653603426e-05 4.755119054927e-04 0.0 
0.0 0.0 0.0 
-4.769855981979e-05 3.328290029245e-05 0.0 
3.328290029245e-05 5.555102103871e-04 0.0 
0.0 0.0 0.0 
-4.322494694087e-05 3.199475171449e-05 0.0 
3.199475171449e-05 5.882403205504e-04 0.0 
0.0 0.0 0.0 
-3.359665225489e-05 3.064978391130e-06 0.0 
3.064978391130e-06 1.057149964264e-03 0.0 
0.0 0.0 0.0 
5.495181826132e-05 4.436673846341e-05 0.0 
4.436673846341e-05 5.467798576957e-04 0.0 
0.0 0.0 0.0 
3.373775312898e-05 1.467490063417e-06 0.0 
1.467490063417e-06 3.706082513977e-04 0.0 
0.0 0.0 0.0 
-3.282494334345e-06 9.280339721940e-05 0.0 
9.280339721940e-05 1.145110158991e-03 0.0 
0.0 0.0 0.0 
9.931376367289e-06 4.553220535857e-05 0.0 
4.553220535857e-05 1.255468276889e-03 0.0 
0.0 0.0 0.0 
8.447978325776e-06 5.056873057000e-05 0.0 
5.056873057000e-05 1.256600784602e-03 0.0 
0.0 0.0 0.0 
6.162546848065e-05 3.330616328186e-05 0.0 
3.330616328186e-05 5.620631425942e-04 0.0 
0.0 0.0 0.0 
-3.566398251387e-05 8.847092732173e-06 0.0 
8.847092732173e-06 1.005699352322e-03 0.0 
0.0 0.0 0.0 
-4.581195103526e-05 3.674396995973e-06 0.0 
3.674396995973e-06 6.926633808457e-05 0.0 
0.0 0.0 0.0 
-5.236904970385e-05 5.606652220169e-05 0.0 
5.606652220169e-05 4.921915066223e-04 0.0 
0.0 0.0 0.0 
2.101332367821e-05 -2.955672584480e-06 0.0 
-2.955672584480e-06 2.174486751914e-04 0.0 
0.0 0.0 0.0 
-4.848803461222e-05 4.312479775933e-05 0.0 
4.312479775933e-05 5.256288554636e-04 0.0 
0.0 0.0 0.0 
2.030633883932e-06 8.402635370915e-05 0.0 
8.402635370915e-05 9.765067558818e-04 0.0 
0.0 0.0 0.0 
5.775796205154e-05 2.000775176366e-05 0.0 
2.000775176366e-05 4.595318592875e-04 0.0 
0.0 0.0 0.0 
5.647376001816e-05 2.732923350225e-05 0.0 
2.732923350225e-05 5.205926249032e-04 0.0 
0.0 0.0 0.0 
-1.280346185661e-05 -9.643785858947e-06 0.0 
-9.643785858947e-06 1.234159125729e-04 0.0 
0.0 0.0 0.0 
-1.150054875176e-05 3.811485737039e-06 0.0 
3.811485737039e-06 1.366972171895e-03 0.0 
0.0 0.0 0.0 
5.470387081341e-05 1.379274106985e-05 0.0 
1.379274106985e-05 5.008564999573e-04 0.0 
0.0 0.0 0.0 
-1.003862668147e-05 1.540704245467e-05 0.0 
1.540704245467e-05 1.405632049879e-03 0.0 
0.0 0.0 0.0 
-1.498006659262e-05 1.162470348538e-06 0.0 
1.162470348538e-06 1.317942103925e-03 0.0 
0.0 0.0 0.0 
-4.460235946802e-06 6.025270453678e-06 0.0 
6.025270453678e-06 1.515466226985e-03 0.0 
0.0 0.0 0.0 
8.540501261978e-06 1.142786186267e-05 0.0 
1.142786186267e-05 1.241702669773e-03 0.0 
0.0 0.0 0.0 
-2.493800683068e-05 3.961629562681e-06 0.0 
3.961629562681e-06 1.056460424083e-03 0.0 
0.0 0.0 0.0 
5.447166872741e-05 1.125854625789e-05 0.0 
1.125854625789e-05 5.240431580900e-04 0.0 
0.0 0.0 0.0 
-3.726522767034e-05 1.883630777586e-05 0.0 
1.883630777586e-05 6.220804858903e-04 0.0 
0.0 0.0 0.0 
5.947272561047e-05 2.225466632465e-05 0.0 
2.225466632465e-05 5.457341267805e-04 0.0 
0.0 0.0 0.0 
0.0 3.540939874904e-05 0.0 
3.540939874904e-05 1.251875242900e-03 0.0 
0.0 0.0 0.0 
-5.698890161687e-05 9.180287572523e-05 0.0 
9.180287572523e-05 3.981624017555e-04 0.0 
0.0 0.0 0.0 
-5.309881978655e-05 7.342765506637e-05 0.0 
7.342765506637e-05 4.515388207620e-04 0.0 
0.0 0.0 0.0 
1.560084582541e-05 8.257069990861e-05 0.0 
8.257069990861e-05 1.156381020085e-03 0.0 
0.0 0.0 0.0 
-3.184332893347e-05 4.487660757090e-06 0.0 
4.487660757090e-06 1.006908678236e-03 0.0 
0.0 0.0 0.0 
-9.314231856128e-06 1.180519848338e-05 0.0 
1.180519848338e-05 1.412362980810e-03 0.0 
0.0 0.0 0.0 
-3.398635097562e-05 6.607506082427e-05 0.0 
6.607506082427e-05 1.225701429274e-03 0.0 
0.0 0.0 0.0 
3.140517242706e-06 9.689739479418e-05 0.0 
9.689739479418e-05 1.222153575126e-03 0.0 
0.0 0.0 0.0 
-3.503809815386e-05 5.657685033294e-05 0.0 
5.657685033294e-05 1.286865439927e-03 0.0 
0.0 0.0 0.0 
-2.435276697854e-05 6.399318757645e-06 0.0 
6.399318757645e-06 1.068173061300e-03 0.0 
0.0 0.0 0.0 
4.187822436386e-05 -6.387025752240e-06 0.0 
-6.387025752240e-06 3.861534298775e-04 0.0 
0.0 0.0 0.0 
4.801730171944e-05 6.473784105114e-06 0.0 
6.473784105114e-06 3.844412583220e-04 0.0 
0.0 0.0 0.0 
-1.920430555058e-05 6.078422630518e-06 0.0 
6.078422630518e-06 1.204699973959e-03 0.0 
0.0 0.0 0.0 
-4.024085149212e-06 8.653907965740e-05 0.0 
8.653907965740e-05 1.207178459413e-03 0.0 
0.0 0.0 0.0 
-4.124141650452e-05 8.268386055027e-06 0.0 
8.268386055027e-06 9.530682683032e-04 0.0 
0.0 0.0 0.0 
-2.566316380015e-05 7.075207072112e-07 0.0 
7.075207072112e-07 1.001845810884e-03 0.0 
0.0 0.0 0.0 
-2.497605524254e-05 -2.584318733889e-07 0.0 
-2.584318733889e-07 1.053068898299e-03 0.0 
0.0 0.0 0.0 
-2.720970918468e-05 -2.984726774093e-06 0.0 
-2.984726774093e-06 1.071606306506e-03 0.0 
0.0 0.0 0.0 
2.720914861531e-05 1.556493141030e-05 0.0 
1.556493141030e-05 1.791198850023e-04 0.0 
0.0 0.0 0.0 
4.187611224338e-05 1.673054237381e-06 0.0 
1.673054237381e-06 3.481374405512e-04 0.0 
0.0 0.0 0.0 
-9.240636000718e-06 1.807084358259e-05 0.0 
1.807084358259e-05 1.466156451499e-03 0.0 
0.0 0.0 0.0 
-2.482027721007e-05 -1.114223707783e-06 0.0 
-1.114223707783e-06 1.132782429988e-03 0.0 
0.0 0.0 0.0 
5.787288006598e-06 1.028255664445e-04 0.0 
1.028255664445e-04 1.313677742237e-03 0.0 
0.0 0.0 0.0 
-2.440531292491e-05 6.240045339960e-05 0.0 
6.240045339960e-05 1.382798479014e-03 0.0 
0.0 0.0 0.0 
-4.203587558549e-05 5.409684796484e-05 0.0 
5.409684796484e-05 1.192227920053e-03 0.0 
0.0 0.0 0.0 
-1.805218807305e-05 2.595346985006e-05 0.0 
2.595346985006e-05 1.407305857777e-03 0.0 
0.0 0.0 0.0 
4.657978724398e-05 3.735259822590e-06 0.0 
3.735259822590e-06 5.270643101556e-04 0.0 
0.0 0.0 0.0 
4.055889857257e-05 2.779972620086e-06 0.0 
2.779972620086e-06 4.787646618012e-04 0.0 
0.0 0.0 0.0 
2.097849997229e-05 5.479067270103e-05 0.0 
5.479067270103e-05 1.146070071445e-03 0.0 
0.0 0.0 0.0 
-1.285043492960e-05 -4.145488866790e-06 0.0 
-4.145488866790e-06 6.482755165593e-05 0.0 
0.0 0.0 0.0 
2.759302783151e-05 -4.431001367516e-06 0.0 
-4.431001367516e-06 3.326110558473e-04 0.0 
0.0 0.0 0.0 
0.0 1.022649506435e-04 0.0 
1.022649506435e-04 1.403189667548e-03 0.0 
0.0 0.0 0.0 
1.294804213203e-05 -6.154283106852e-06 0.0 
-6.154283106852e-06 1.576734033057e-04 0.0 
0.0 0.0 0.0 
-2.487727646383e-05 1.172488247978e-06 0.0 
1.172488247978e-06 1.002119920108e-03 0.0 
0.0 0.0 0.0 
1.818579133039e-05 8.343185893572e-05 0.0 
8.343185893572e-05 1.197983078385e-03 0.0 
0.0 0.0 0.0 
-3.801293944394e-06 -4.321322836757e-06 0.0 
-4.321322836757e-06 1.047206572435e-04 0.0 
0.0 0.0 0.0 
-5.442666660027e-06 -5.618393961838e-06 0.0 
-5.618393961838e-06 5.678462941816e-05 0.0 
0.0 0.0 0.0 
-5.597115843470e-06 2.235518799864e-05 0.0 
2.235518799864e-05 1.512946993246e-03 0.0 
0.0 0.0 0.0 
-3.007954194889e-05 3.159737184261e-06 0.0 
3.159737184261e-06 9.496948801475e-04 0.0 
0.0 0.0 0.0 
-9.160181487666e-06 2.637016052852e-05 0.0 
2.637016052852e-05 1.452861241483e-03 0.0 
0.0 0.0 0.0 
1.140375279096e-05 8.527270507616e-05 0.0 
8.527270507616e-05 1.212260130452e-03 0.0 
0.0 0.0 0.0 
-2.974348550921e-05 -4.185865402263e-07 0.0 
-4.185865402263e-07 9.484390043295e-04 0.0 
0.0 0.0 0.0 
-4.283264115779e-05 3.569448085905e-06 0.0 
3.569448085905e-06 7.954413863054e-05 0.0 
0.0 0.0 0.0 
-4.512533052559e-06 1.866029954604e-06 0.0 
1.866029954604e-06 1.465920874007e-03 0.0 
0.0 0.0 0.0 
1.369727034284e-05 -1.357428147067e-05 0.0 
-1.357428147067e-05 1.765577002981e-04 0.0 
0.0 0.0 0.0 
-1.037712100282e-05 2.088954239029e-05 0.0 
2.088954239029e-05 1.420894475944e-03 0.0 
0.0 0.0 0.0 
0.0 2.831122728766e-05 0.0 
2.831122728766e-05 1.247655023529e-03 0.0 
0.0 0.0 0.0 
-2.120152296803e-05 5.159377251184e-05 0.0 
5.159377251184e-05 1.394502934971e-03 0.0 
0.0 0.0 0.0 
4.484995812759e-05 2.341452806998e-05 0.0 
2.341452806998e-05 2.333456823511e-04 0.0 
0.0 0.0 0.0 
-3.822689823818e-05 1.279379813903e-05 0.0 
1.279379813903e-05 1.059189564715e-03 0.0 
0.0 0.0 0.0 
4.141945269387e-05 -3.746412703058e-06 0.0 
-3.746412703058e-06 5.363621545720e-04 0.0 
0.0 0.0 0.0 
-4.033679702586e-06 8.418811595546e-05 0.0 
8.418811595546e-05 1.145755684238e-03 0.0 
0.0 0.0 0.0 
1.450628964506e-06 1.054840981500e-04 0.0 
1.054840981500e-04 1.361704838914e-03 0.0 
0.0 0.0 0.0 
-1.791494131465e-05 5.384416789631e-06 0.0 
5.384416789631e-06 1.271028040655e-03 0.0 
0.0 0.0 0.0 
4.573818445319e-06 1.075412520931e-04 0.0 
1.075412520931e-04 1.345595242501e-03 0.0 
0.0 0.0 0.0 
8.550237557747e-06 6.865314773788e-06 0.0 
6.865314773788e-06 1.103835707983e-04 0.0 
0.0 0.0 0.0 
1.402201543943e-05 3.311859336935e-05 0.0 
3.311859336935e-05 1.196422488950e-03 0.0 
0.0 0.0 0.0 
4.307537001846e-05 1.849884223460e-05 0.0 
1.849884223460e-05 2.666567733514e-04 0.0 
0.0 0.0 0.0 
1.408342455278e-05 -1.629797089070e-06 0.0 
-1.629797089070e-06 1.578829094278e-04 0.0 
0.0 0.0 0.0 
1.413552009066e-05 7.880270173617e-05 0.0 
7.880270173617e-05 1.240514193615e-03 0.0 
0.0 0.0 0.0 
-1.442043090583e-05 3.984135101426e-05 0.0 
3.984135101426e-05 1.458072865263e-03 0.0 
0.0 0.0 0.0 
-7.929837273157e-06 2.189820371418e-05 0.0 
2.189820371418e-05 1.473881951029e-03 0.0 
0.0 0.0 0.0 
-2.689648161025e-05 6.391425443308e-06 0.0 
6.391425443308e-06 9.992734752062e-04 0.0 
0.0 0.0 0.0 
-4.233852338342e-05 2.251546893228e-05 0.0 
2.251546893228e-05 1.064743910922e-03 0.0 
0.0 0.0 0.0 
-2.802381903177e-05 1.082422075448e-04 0.0 
1.082422075448e-04 4.765279709822e-04 0.0 
0.0 0.0 0.0 
-1.620656065249e-05 7.058105585147e-05 0.0 
7.058105585147e-05 1.430076127389e-03 0.0 
0.0 0.0 0.0 
3.961615630654e-05 3.083815880750e-06 0.0 
3.083815880750e-06 4.425192063369e-04 0.0 
0.0 0.0 0.0 
2.047089182500e-05 6.845753900010e-05 0.0 
6.845753900010e-05 2.216686563572e-04 0.0 
0.0 0.0 0.0 
2.279662366211e-06 9.456383626028e-05 0.0 
9.456383626028e-05 1.162688416576e-03 0.0 
0.0 0.0 0.0 
-2.694487615096e-05 -1.048696192215e-07 0.0 
-1.048696192215e-07 9.459825443960e-04 0.0 
0.0 0.0 0.0 
-1.371866596789e-05 4.271108148737e-05 0.0 
4.271108148737e-05 1.418022331465e-03 0.0 
0.0 0.0 0.0 
-3.155034194680e-06 -3.961861695935e-06 0.0 
-3.961861695935e-06 1.511677714943e-03 0.0 
0.0 0.0 0.0 
0.0 1.577517097313e-06 0.0 
1.577517097313e-06 1.519601438335e-03 0.0 
0.0 0.0 0.0 
-1.372782060138e-06 -7.916540652791e-08 0.0 
-7.916540652791e-08 1.548580300215e-05 0.0 
0.0 0.0 0.0 
-1.126429453602e-06 5.703221052748e-07 0.0 
5.703221052748e-07 1.653842541915e-05 0.0 
0.0 0.0 0.0 
-2.520145508178e-05 -3.935506551606e-06 0.0 
-3.935506551606e-06 9.534017958328e-04 0.0 
0.0 0.0 0.0 
-2.682328467141e-05 6.598307085648e-07 0.0 
6.598307085648e-07 9.458329509020e-04 0.0 
0.0 0.0 0.0 
0.0 4.226937899448e-06 0.0 
4.226937899448e-06 1.241306605666e-03 0.0 
0.0 0.0 0.0 
8.453875798953e-06 4.921588821932e-06 0.0 
4.921588821932e-06 1.231463428022e-03 0.0 
0.0 0.0 0.0 
1.007703705147e-06 2.959514452933e-06 0.0 
2.959514452933e-06 5.115889463836e-05 0.0 
0.0 0.0 0.0 
-4.470864170736e-05 -4.196866096771e-06 0.0 
-4.196866096771e-06 3.245838973465e-05 0.0 
0.0 0.0 0.0 
1.797318563579e-05 2.327031448980e-05 0.0 
2.327031448980e-05 1.127766373384e-03 0.0 
0.0 0.0 0.0 
-6.741909919117e-06 9.917075575690e-05 0.0 
9.917075575690e-05 1.296062590366e-03 0.0 
0.0 0.0 0.0 
1.550046983012e-05 -1.036057671413e-05 0.0 
-1.036057671413e-05 2.088634124753e-04 0.0 
0.0 0.0 0.0 
1.676903548953e-05 3.483341346599e-05 0.0 
3.483341346599e-05 1.151825614449e-03 0.0 
0.0 0.0 0.0 
4.566674552842e-05 -1.167007086108e-07 0.0 
-1.167007086108e-07 7.748879014546e-04 0.0 
0.0 0.0 0.0 
4.539525685221e-05 -4.190108589129e-06 0.0 
-4.190108589129e-06 6.613746879507e-04 0.0 
0.0 0.0 0.0 
-2.402702224635e-05 5.347093383426e-06 0.0 
5.347093383426e-06 1.164264508329e-03 0.0 
0.0 0.0 0.0 
2.134573762036e-05 8.405088414016e-07 0.0 
8.405088414016e-07 1.982616230283e-04 0.0 
0.0 0.0 0.0 
-4.718924118796e-06 8.368905640021e-05 0.0 
8.368905640021e-05 1.085539745823e-03 0.0 
0.0 0.0 0.0 
8.969094258404e-06 -5.237560133768e-06 0.0 
-5.237560133768e-06 1.640179613918e-04 0.0 
0.0 0.0 0.0 
4.728409638277e-05 -3.408917924345e-06 0.0 
-3.408917924345e-06 5.968142526707e-04 0.0 
0.0 0.0 0.0 
-1.426969450102e-05 7.034355973886e-05 0.0 
7.034355973886e-05 1.388540059020e-03 0.0 
0.0 0.0 0.0 
-1.110140363614e-05 -4.597393075916e-06 0.0 
-4.597393075916e-06 1.390379011493e-03 0.0 
0.0 0.0 0.0 
4.842301530084e-05 3.473333652750e-06 0.0 
3.473333652750e-06 6.570440055780e-04 0.0 
0.0 0.0 0.0 
-2.449906792479e-05 -2.942886197487e-06 0.0 
-2.942886197487e-06 1.099054411032e-03 0.0 
0.0 0.0 0.0 
-1.525835346661e-05 9.212594961832e-05 0.0 
9.212594961832e-05 1.336582022104e-03 0.0 
0.0 0.0 0.0 
-3.146570727919e-05 6.227823427894e-05 0.0 
6.227823427894e-05 1.303897723718e-03 0.0 
0.0 0.0 0.0 
-3.722668705830e-05 5.815020976149e-05 0.0 
5.815020976149e-05 1.247832930468e-03 0.0 
0.0 0.0 0.0 
-2.850319360337e-05 9.189613822068e-07 0.0 
9.189613822068e-07 9.490038206106e-04 0.0 
0.0 0.0 0.0 
1.578916318135e-06 8.345926576730e-05 0.0 
8.345926576730e-05 1.037774561445e-03 0.0 
0.0 0.0 0.0 
-1.526520315853e-05 4.916166593462e-05 0.0 
4.916166593462e-05 1.405090737673e-03 0.0 
0.0 0.0 0.0 
2.996591059934e-05 8.437290843209e-07 0.0 
8.437290843209e-07 3.316972806586e-04 0.0 
0.0 0.0 0.0 
-1.941090897428e-05 -8.893159993619e-06 0.0 
-8.893159993619e-06 6.665294644415e-05 0.0 
0.0 0.0 0.0 
-1.948430091037e-05 8.045451465239e-05 0.0 
8.045451465239e-05 1.306461038319e-03 0.0 
0.0 0.0 0.0 
2.304524003516e-05 8.526430077158e-05 0.0 
8.526430077158e-05 1.107444324493e-03 0.0 
0.0 0.0 0.0 
1.657305454228e-05 -1.283943168093e-05 0.0 
-1.283943168093e-05 1.591267352601e-04 0.0 
0.0 0.0 0.0 
-2.152028141245e-05 -1.520868435072e-06 0.0 
-1.520868435072e-06 1.208468892182e-03 0.0 
0.0 0.0 0.0 
8.716202285264e-06 2.000228018288e-05 0.0 
2.000228018288e-05 1.180807292800e-03 0.0 
0.0 0.0 0.0 
-1.095726512357e-05 8.992684364968e-05 0.0 
8.992684364968e-05 1.276820449392e-03 0.0 
0.0 0.0 0.0 
-1.382679926898e-05 9.257686836681e-05 0.0 
9.257686836681e-05 1.323972102793e-03 0.0 
0.0 0.0 0.0 
4.303266037620e-05 -3.204538742751e-06 0.0 
-3.204538742751e-06 8.438454980308e-04 0.0 
0.0 0.0 0.0 
4.238054660544e-07 3.745604486523e-05 0.0 
3.745604486523e-05 7.195912642266e-05 0.0 
0.0 0.0 0.0 
-3.204173688764e-05 2.237523495369e-05 0.0 
2.237523495369e-05 5.545081276608e-04 0.0 
0.0 0.0 0.0 
-4.909686247279e-05 7.818400479700e-05 0.0 
7.818400479700e-05 5.861626728187e-04 0.0 
0.0 0.0 0.0 
-3.780641764428e-05 1.361069548594e-05 0.0 
1.361069548594e-05 1.059945711515e-03 0.0 
0.0 0.0 0.0 
9.389314958863e-07 9.217755431988e-05 0.0 
9.217755431988e-05 1.036726533987e-03 0.0 
0.0 0.0 0.0 
-1.053762940828e-05 1.015014399837e-05 0.0 
1.015014399837e-05 1.428609004189e-03 0.0 
0.0 0.0 0.0 
7.163297779389e-06 9.277337904037e-05 0.0 
9.277337904037e-05 1.271733287372e-03 0.0 
0.0 0.0 0.0 
-1.294777760363e-05 -1.145164174856e-05 0.0 
-1.145164174856e-05 1.185224574938e-04 0.0 
0.0 0.0 0.0 
-9.821921721387e-06 -1.052367478098e-05 0.0 
-1.052367478098e-05 1.113606032206e-04 0.0 
0.0 0.0 0.0 
-2.151602985700e-05 3.192181988256e-05 0.0 
3.192181988256e-05 4.900315842624e-04 0.0 
0.0 0.0 0.0 
-1.896686294667e-05 1.049136339493e-05 0.0 
1.049136339493e-05 1.226355507810e-03 0.0 
0.0 0.0 0.0 
3.455011320486e-05 -7.648289342515e-06 0.0 
-7.648289342515e-06 4.113406471222e-04 0.0 
0.0 0.0 0.0 
-1.514831136717e-05 2.995999288296e-05 0.0 
2.995999288296e-05 1.427458155482e-03 0.0 
0.0 0.0 0.0 
1.510488566714e-05 -8.488886351038e-06 0.0 
-8.488886351038e-06 1.992487033033e-04 0.0 
0.0 0.0 0.0 
1.220228220600e-05 9.008665702226e-05 0.0 
9.008665702226e-05 1.214898972251e-03 0.0 
0.0 0.0 0.0 
-2.991439824140e-05 1.003858316665e-05 0.0 
1.003858316665e-05 1.055568912255e-03 0.0 
0.0 0.0 0.0 
-3.671763992852e-08 9.816309983098e-05 0.0 
9.816309983098e-05 1.334370882821e-03 0.0 
0.0 0.0 0.0 
-9.046869173468e-06 8.509977728995e-05 0.0 
8.509977728995e-05 1.192300961301e-03 0.0 
0.0 0.0 0.0 
-4.131060380363e-05 1.328843352821e-05 0.0 
1.328843352821e-05 1.060035774342e-03 0.0 
0.0 0.0 0.0 
1.710326772564e-05 6.901755873260e-05 0.0 
6.901755873260e-05 1.222352479729e-03 0.0 
0.0 0.0 0.0 
-1.263921371109e-05 3.924135318508e-05 0.0 
3.924135318508e-05 1.461303145891e-03 0.0 
0.0 0.0 0.0 
-6.753477046373e-06 4.668068552884e-06 0.0 
4.668068552884e-06 1.468963591726e-03 0.0 
0.0 0.0 0.0 
-7.531791222481e-06 4.959469123853e-05 0.0 
4.959469123853e-05 3.959530114834e-04 0.0 
0.0 0.0 0.0 
-1.388391563573e-05 3.236369003159e-05 0.0 
3.236369003159e-05 1.406814368403e-03 0.0 
0.0 0.0 0.0 
-6.955260053232e-06 8.659829622818e-05 0.0 
8.659829622818e-05 1.394458446792e-03 0.0 
0.0 0.0 0.0 
1.375878115972e-05 8.818981578012e-05 0.0 
8.818981578012e-05 1.215611791015e-03 0.0 
0.0 0.0 0.0 
-5.384961688781e-07 9.552873374518e-05 0.0 
9.552873374518e-05 1.205056285997e-03 0.0 
0.0 0.0 0.0 
0.0 4.746980896579e-05 0.0 
4.746980896579e-05 1.256477215217e-03 0.0 
0.0 0.0 0.0 
-3.195025023317e-05 6.416296717247e-05 0.0 
6.416296717247e-05 1.246985958957e-03 0.0 
0.0 0.0 0.0 
-3.584842427107e-05 2.493198582081e-05 0.0 
2.493198582081e-05 3.320428626385e-05 0.0 
0.0 0.0 0.0 
4.289895564114e-06 9.929773240136e-05 0.0 
9.929773240136e-05 3.121630348728e-04 0.0 
0.0 0.0 0.0 
-2.839466873328e-05 6.209943072262e-05 0.0 
6.209943072262e-05 1.341796165432e-03 0.0 
0.0 0.0 0.0 
-3.527051899632e-05 1.815228080879e-05 0.0 
1.815228080879e-05 1.106527000112e-03 0.0 
0.0 0.0 0.0 
2.036134049366e-05 6.996286118093e-06 0.0 
6.996286118093e-06 1.121958930693e-03 0.0 
0.0 0.0 0.0 
-7.526266905478e-06 8.798546072528e-05 0.0 
8.798546072528e-05 1.251173829537e-03 0.0 
0.0 0.0 0.0 
9.743899787695e-06 3.928599391393e-05 0.0 
3.928599391393e-05 1.200075454109e-03 0.0 
0.0 0.0 0.0 
-1.596057505182e-05 1.059864905457e-05 0.0 
1.059864905457e-05 1.290931666618e-03 0.0 
0.0 0.0 0.0 
-5.858770333322e-07 9.765194810666e-05 0.0 
9.765194810666e-05 1.323588068058e-03 0.0 
0.0 0.0 0.0 
1.764303379836e-05 5.763510276619e-05 0.0 
5.763510276619e-05 1.170621571403e-03 0.0 
0.0 0.0 0.0 
2.102088858402e-05 6.648088980082e-05 0.0 
6.648088980082e-05 1.169811423466e-03 0.0 
0.0 0.0 0.0 
3.548303193535e-05 -5.314674349707e-06 0.0 
-5.314674349707e-06 4.272608033100e-04 0.0 
0.0 0.0 0.0 
1.153816733868e-05 3.911079986166e-05 0.0 
3.911079986166e-05 1.252903937592e-03 0.0 
0.0 0.0 0.0 
-3.525950986916e-05 6.458713330495e-06 0.0 
6.458713330495e-06 1.002179914753e-03 0.0 
0.0 0.0 0.0 
-1.012121285815e-05 3.319316785058e-06 0.0 
3.319316785058e-06 1.413410421064e-03 0.0 
0.0 0.0 0.0 
3.084128739950e-06 -1.428648256185e-05 0.0 
-1.428648256185e-05 1.111582316409e-04 0.0 
0.0 0.0 0.0 
-1.283319093637e-05 6.804505809371e-07 0.0 
6.804505809371e-07 1.368221521464e-03 0.0 
0.0 0.0 0.0 
-2.131619485568e-05 2.576250150585e-06 0.0 
2.576250150585e-06 1.213644589948e-03 0.0 
0.0 0.0 0.0 
5.074278403683e-06 -5.170129834024e-06 0.0 
-5.170129834024e-06 1.096883401475e-04 0.0 
0.0 0.0 0.0 
2.762510318144e-05 5.089051376118e-06 0.0 
5.089051376118e-06 2.156906345150e-04 0.0 
0.0 0.0 0.0 
-2.848612461304e-05 7.036188137203e-05 0.0 
7.036188137203e-05 1.264881413476e-03 0.0 
0.0 0.0 0.0 
-6.125760841913e-06 1.907066200829e-05 0.0 
1.907066200829e-05 1.464877246275e-03 0.0 
0.0 0.0 0.0 
-1.014959407886e-05 -5.769734023120e-08 0.0 
-5.769734023120e-08 1.422047498913e-03 0.0 
0.0 0.0 0.0 
5.734573521154e-06 1.055101504589e-04 0.0 
1.055101504589e-04 1.300277644321e-03 0.0 
0.0 0.0 0.0 
-2.493692916383e-05 9.065009498400e-06 0.0 
9.065009498400e-06 1.098525255929e-03 0.0 
0.0 0.0 0.0 
-1.312980513513e-05 -8.559410220952e-06 0.0 
-8.559410220952e-06 6.281852730061e-05 0.0 
0.0 0.0 0.0 
6.350288225709e-06 3.723795281200e-05 0.0 
3.723795281200e-05 1.191144049941e-04 0.0 
0.0 0.0 0.0 
-7.471151549421e-06 -1.194591209115e-06 0.0 
-1.194591209115e-06 7.205212675809e-05 0.0 
0.0 0.0 0.0 
3.802038197387e-06 -1.728147516744e-05 0.0 
-1.728147516744e-05 1.523450511314e-04 0.0 
0.0 0.0 0.0 
-5.662251054661e-05 7.439810543787e-05 0.0 
7.439810543787e-05 5.430012525376e-05 0.0 
0.0 0.0 0.0 
4.620954962964e-05 4.312636029124e-06 0.0 
4.312636029124e-06 5.810731441320e-04 0.0 
0.0 0.0 0.0 
2.169834196586e-05 1.692998955288e-05 0.0 
1.692998955288e-05 1.121747595134e-03 0.0 
0.0 0.0 0.0 
-1.767839156930e-05 5.837899678725e-05 0.0 
5.837899678725e-05 1.395447227727e-03 0.0 
0.0 0.0 0.0 
-4.391236364354e-05 1.693406629903e-05 0.0 
1.693406629903e-05 1.101418744527e-03 0.0 
0.0 0.0 0.0 
4.253224537654e-05 -7.543002255509e-06 0.0 
-7.543002255509e-06 5.048776542365e-04 0.0 
0.0 0.0 0.0 
2.125761601368e-05 4.774155677774e-05 0.0 
4.774155677774e-05 1.148472912884e-03 0.0 
0.0 0.0 0.0 
2.402778319710e-05 8.278945663689e-05 0.0 
8.278945663689e-05 1.172004084489e-03 0.0 
0.0 0.0 0.0 
-1.705772433636e-06 1.048920398327e-04 0.0 
1.048920398327e-04 1.340481644760e-03 0.0 
0.0 0.0 0.0 
-1.240344839004e-05 8.364918779089e-05 0.0 
8.364918779089e-05 1.346722610486e-03 0.0 
0.0 0.0 0.0 
-2.229445714363e-05 7.454216199697e-05 0.0 
7.454216199697e-05 1.320296094543e-03 0.0 
0.0 0.0 0.0 
1.616411029692e-06 -7.536267566123e-06 0.0 
-7.536267566123e-06 1.092469719162e-04 0.0 
0.0 0.0 0.0 
-1.792285668223e-05 -7.274752414082e-06 0.0 
-7.274752414082e-06 1.070509398686e-04 0.0 
0.0 0.0 0.0 
1.959527488538e-05 1.613947499300e-05 0.0 
1.613947499300e-05 1.130027074333e-03 0.0 
0.0 0.0 0.0 
9.891271166129e-06 -1.326496184786e-06 0.0 
-1.326496184786e-06 1.070703837216e-04 0.0 
0.0 0.0 0.0 
8.770614922105e-06 5.929146811979e-06 0.0 
5.929146811979e-06 1.327941163856e-04 0.0 
0.0 0.0 0.0 
1.736716658041e-06 9.332606815105e-05 0.0 
9.332606815105e-05 1.578660916399e-04 0.0 
0.0 0.0 0.0 
-1.791815080754e-06 -1.480196423984e-05 0.0 
-1.480196423984e-05 1.043973319164e-04 0.0 
0.0 0.0 0.0 
8.696984754142e-06 6.408693134544e-05 0.0 
6.408693134544e-05 1.219511093915e-03 0.0 
0.0 0.0 0.0 
-9.300808656798e-06 7.590117064303e-05 0.0 
7.590117064303e-05 1.419056693400e-03 0.0 
0.0 0.0 0.0 
-9.893199887867e-06 1.757727905306e-05 0.0 
1.757727905306e-05 1.429036467396e-03 0.0 
0.0 0.0 0.0 
-2.308509497895e-06 9.789184432953e-05 0.0 
9.789184432953e-05 1.350944566074e-03 0.0 
0.0 0.0 0.0 
2.066248627841e-05 7.273203688781e-05 0.0 
7.273203688781e-05 1.144424728482e-03 0.0 
0.0 0.0 0.0 
-2.305178663053e-05 9.623747382532e-06 0.0 
9.623747382532e-06 1.133771209095e-03 0.0 
0.0 0.0 0.0 
0.0 2.612879955704e-05 0.0 
2.612879955704e-05 1.515458797679e-03 0.0 
0.0 0.0 0.0 
3.546919242026e-05 5.849745367381e-07 0.0 
5.849745367381e-07 2.660464918198e-04 0.0 
0.0 0.0 0.0 
-2.901702433877e-05 1.038660176525e-06 0.0 
1.038660176525e-06 9.459111927559e-04 0.0 
0.0 0.0 0.0 
1.944781264251e-06 -7.958755737709e-06 0.0 
-7.958755737709e-06 1.602366613798e-04 0.0 
0.0 0.0 0.0 
2.809278861315e-06 -3.441177605823e-06 0.0 
-3.441177605823e-06 5.695707804065e-05 0.0 
0.0 0.0 0.0 
1.108463566757e-05 2.836483860173e-05 0.0 
2.836483860173e-05 1.245678070088e-03 0.0 
0.0 0.0 0.0 
-4.213403536424e-05 1.048966817053e-05 0.0 
1.048966817053e-05 1.008902869484e-03 0.0 
0.0 0.0 0.0 
1.035341754196e-05 -3.845130518426e-06 0.0 
-3.845130518426e-06 1.565890781161e-04 0.0 
0.0 0.0 0.0 
4.415768943922e-05 5.847479836564e-06 0.0 
5.847479836564e-06 5.576162825687e-04 0.0 
0.0 0.0 0.0 
-1.402030979825e-05 7.860589150237e-05 0.0 
7.860589150237e-05 1.424789597368e-03 0.0 
0.0 0.0 0.0 
-1.313556233606e-05 1.497462702778e-05 0.0 
1.497462702778e-05 1.422801537933e-03 0.0 
0.0 0.0 0.0 
-8.235125485201e-06 4.216621650980e-05 0.0 
4.216621650980e-05 1.458328002203e-03 0.0 
0.0 0.0 0.0 
3.280936209626e-05 -5.784670769977e-06 0.0 
-5.784670769977e-06 3.879304772378e-04 0.0 
0.0 0.0 0.0 
-4.569688000888e-06 2.740710003024e-06 0.0 
2.740710003024e-06 1.093332516731e-04 0.0 
0.0 0.0 0.0 
1.546766161264e-05 4.231755719790e-05 0.0 
4.231755719790e-05 1.201031128641e-03 0.0 
0.0 0.0 0.0 
-2.735778876328e-06 3.107411904789e-06 0.0 
3.107411904789e-06 1.518848002475e-03 0.0 
0.0 0.0 0.0 
8.132007933037e-06 5.420816581823e-06 0.0 
5.420816581823e-06 1.241091103040e-03 0.0 
0.0 0.0 0.0 
-2.514951532651e-05 3.219111602707e-06 0.0 
3.219111602707e-06 9.921076728343e-04 0.0 
0.0 0.0 0.0 
1.441052155826e-05 7.797545083389e-05 0.0 
7.797545083389e-05 1.192219520191e-03 0.0 
0.0 0.0 0.0 
1.556318419182e-05 -7.970517242658e-06 0.0 
-7.970517242658e-06 1.598438789618e-04 0.0 
0.0 0.0 0.0 
-1.319603764138e-05 3.624161838523e-05 0.0 
3.624161838523e-05 1.427962209738e-03 0.0 
0.0 0.0 0.0 
-8.164967018054e-07 -5.965779663564e-06 0.0 
-5.965779663564e-06 5.501744301939e-05 0.0 
0.0 0.0 0.0 
7.766988159075e-06 7.474688435442e-05 0.0 
7.474688435442e-05 1.238037325293e-03 0.0 
0.0 0.0 0.0 
-1.418236802897e-05 4.841916943350e-05 0.0 
4.841916943350e-05 1.452100626825e-03 0.0 
0.0 0.0 0.0 
-3.697865243013e-06 9.862505094700e-06 0.0 
9.862505094700e-06 6.399573458915e-05 0.0 
0.0 0.0 0.0 
-1.434242565679e-05 8.713768420020e-05 0.0 
8.713768420020e-05 1.277944316128e-03 0.0 
0.0 0.0 0.0 
-1.788331493779e-05 -3.586010239693e-07 0.0 
-3.586010239693e-07 1.259614624936e-03 0.0 
0.0 0.0 0.0 
-4.615034842503e-06 1.376355312081e-05 0.0 
1.376355312081e-05 1.470019451216e-03 0.0 
0.0 0.0 0.0 
0.0 1.022469763686e-04 0.0 
1.022469763686e-04 1.357509333486e-03 0.0 
0.0 0.0 0.0 
-2.139269188406e-05 -5.778280365939e-06 0.0 
-5.778280365939e-06 1.175860873041e-03 0.0 
0.0 0.0 0.0 
-8.033087314785e-06 7.334164960820e-05 0.0 
7.334164960820e-05 1.429241703617e-03 0.0 
0.0 0.0 0.0 
-1.799704400163e-05 3.734802502727e-05 0.0 
3.734802502727e-05 1.420020123968e-03 0.0 
0.0 0.0 0.0 
-1.923507686852e-05 2.800934349626e-06 0.0 
2.800934349626e-06 1.212874425291e-03 0.0 
0.0 0.0 0.0 
-1.479163036378e-05 7.128443776221e-05 0.0 
7.128443776221e-05 1.388376021020e-03 0.0 
0.0 0.0 0.0 
4.096272336840e-05 -4.869778393398e-06 0.0 
-4.869778393398e-06 4.707230236460e-04 0.0 
0.0 0.0 0.0 
-2.733663072430e-05 -2.800666636750e-07 0.0 
-2.800666636750e-07 9.461649802467e-04 0.0 
0.0 0.0 0.0 
-2.892602631976e-06 9.953886971101e-05 0.0 
9.953886971101e-05 1.308779201368e-03 0.0 
0.0 0.0 0.0 
-4.473801611060e-06 4.476246081756e-06 0.0 
4.476246081756e-06 1.475414450609e-03 0.0 
0.0 0.0 0.0 
1.370220668706e-06 1.685507230949e-06 0.0 
1.685507230949e-06 1.382648028980e-05 0.0 
0.0 0.0 0.0 
-2.590902164523e-05 1.299052891111e-06 0.0 
1.299052891111e-06 9.461784059972e-04 0.0 
0.0 0.0 0.0 
1.090949026539e-05 1.120549570380e-06 0.0 
1.120549570380e-06 1.192365207403e-03 0.0 
0.0 0.0 0.0 
1.703310799606e-05 -2.928325396704e-06 0.0 
-2.928325396704e-06 2.055596769790e-04 0.0 
0.0 0.0 0.0 
1.639578828905e-05 8.887911195501e-05 0.0 
8.887911195501e-05 1.207699218092e-03 0.0 
0.0 0.0 0.0 
-2.076942358153e-05 4.539214251575e-05 0.0 
4.539214251575e-05 1.407168746643e-03 0.0 
0.0 0.0 0.0 
-8.917890788940e-06 9.576411675660e-06 0.0 
9.576411675660e-06 1.466090270012e-03 0.0 
0.0 0.0 0.0 
1.625187567456e-05 -6.822553286337e-07 0.0 
-6.822553286337e-07 1.968209328223e-04 0.0 
0.0 0.0 0.0 
1.783200021643e-05 8.320315209147e-05 0.0 
8.320315209147e-05 1.992629897800e-04 0.0 
0.0 0.0 0.0 
4.513712065557e-05 8.231939337952e-06 0.0 
8.231939337952e-06 6.897194800872e-04 0.0 
0.0 0.0 0.0 
-1.558542193980e-05 4.782618163730e-06 0.0 
4.782618163730e-06 1.325849030001e-03 0.0 
0.0 0.0 0.0 
-7.668294612806e-05 -5.020074733468e-06 0.0 
-5.020074733468e-06 4.890763312981e-05 0.0 
0.0 0.0 0.0 
-6.823375462317e-06 3.394817912060e-05 0.0 
3.394817912060e-05 1.465995989730e-03 0.0 
0.0 0.0 0.0 
-2.121960675006e-05 2.684621862778e-06 0.0 
2.684621862778e-06 1.157266632569e-03 0.0 
0.0 0.0 0.0 
1.677703475589e-05 -1.433856720102e-05 0.0 
-1.433856720102e-05 1.964997044175e-04 0.0 
0.0 0.0 0.0 
-2.405048204035e-05 3.942026066680e-06 0.0 
3.942026066680e-06 1.114030492879e-03 0.0 
0.0 0.0 0.0 
-6.814395472232e-06 9.879856181797e-05 0.0 
9.879856181797e-05 1.355145899057e-03 0.0 
0.0 0.0 0.0 
4.616804486424e-05 -6.239596681027e-06 0.0 
-6.239596681027e-06 7.245396607882e-04 0.0 
0.0 0.0 0.0 
-5.031588133764e-05 5.113303035119e-05 0.0 
5.113303035119e-05 1.136262578096e-04 0.0 
0.0 0.0 0.0 
3.820307982205e-05 1.108664666656e-06 0.0 
1.108664666656e-06 4.252891971137e-04 0.0 
0.0 0.0 0.0 
4.795510706579e-05 4.661879192271e-06 0.0 
4.661879192271e-06 6.286119163801e-04 0.0 
0.0 0.0 0.0 
4.740360864286e-05 8.666954643129e-06 0.0 
8.666954643129e-06 7.545071289283e-04 0.0 
0.0 0.0 0.0 
-6.121868291187e-07 9.413869145709e-05 0.0 
9.413869145709e-05 1.280136590346e-03 0.0 
0.0 0.0 0.0 
4.522929718509e-05 -3.559100740182e-06 0.0 
-3.559100740182e-06 6.121561115395e-04 0.0 
0.0 0.0 0.0 
4.814946950682e-05 3.743868342948e-06 0.0 
3.743868342948e-06 6.519645414516e-04 0.0 
0.0 0.0 0.0 
-1.572081777645e-06 -2.033706794464e-06 0.0 
-2.033706794464e-06 9.713172237857e-05 0.0 
0.0 0.0 0.0 
1.842239902405e-05 4.239905547896e-05 0.0 
4.239905547896e-05 1.153469772672e-03 0.0 
0.0 0.0 0.0 
-1.690161544143e-05 8.611489903895e-05 0.0 
8.611489903895e-05 1.307051888383e-03 0.0 
0.0 0.0 0.0 
3.777581625508e-05 8.843661854910e-05 0.0 
8.843661854910e-05 2.253486582917e-04 0.0 
0.0 0.0 0.0 
-2.756895595590e-06 2.455861817401e-07 0.0 
2.455861817401e-07 1.473453472277e-03 0.0 
0.0 0.0 0.0 
8.989501877554e-06 8.108379840653e-06 0.0 
8.108379840653e-06 1.190331267253e-03 0.0 
0.0 0.0 0.0 
-2.565470589855e-05 -3.270294622132e-06 0.0 
-3.270294622132e-06 9.955201209033e-04 0.0 
0.0 0.0 0.0 
-2.257521466331e-05 2.246682767205e-06 0.0 
2.246682767205e-06 1.157132574107e-03 0.0 
0.0 0.0 0.0 
4.669032030358e-05 5.071270783990e-06 0.0 
5.071270783990e-06 6.111888905895e-04 0.0 
0.0 0.0 0.0 
4.778244969739e-05 -1.442931157540e-06 0.0 
-1.442931157540e-06 6.315981972562e-04 0.0 
0.0 0.0 0.0 
4.516958907508e-05 4.128426900910e-07 0.0 
4.128426900910e-07 6.545974163110e-04 0.0 
0.0 0.0 0.0 
1.748924820366e-05 8.798719181812e-05 0.0 
8.798719181812e-05 1.168395645609e-03 0.0 
0.0 0.0 0.0 
1.488131772698e-05 -5.409170288329e-06 0.0 
-5.409170288329e-06 1.569467445917e-04 0.0 
0.0 0.0 0.0 
-1.914336506914e-05 8.266959799241e-05 0.0 
8.266959799241e-05 1.349832043688e-03 0.0 
0.0 0.0 0.0 
-2.424995354555e-05 2.702900343421e-06 0.0 
2.702900343421e-06 1.050087512976e-03 0.0 
0.0 0.0 0.0 
-1.272947931397e-05 2.952793983518e-05 0.0 
2.952793983518e-05 1.462744242388e-03 0.0 
0.0 0.0 0.0 
1.430867708851e-05 7.970541780201e-05 0.0 
7.970541780201e-05 1.167377159893e-03 0.0 
0.0 0.0 0.0 
-2.464891520781e-05 1.370665973971e-06 0.0 
1.370665973971e-06 1.115289911879e-03 0.0 
0.0 0.0 0.0 
-2.010883510450e-05 7.136744590570e-05 0.0 
7.136744590570e-05 1.351810640548e-03 0.0 
0.0 0.0 0.0 
2.500404328698e-06 9.822586167275e-05 0.0 
9.822586167275e-05 1.278587942275e-03 0.0 
0.0 0.0 0.0 
-1.270870998771e-06 1.030744237612e-04 0.0 
1.030744237612e-04 1.328711535250e-03 0.0 
0.0 0.0 0.0 
-1.336606919855e-05 6.356565273093e-05 0.0 
6.356565273093e-05 8.861794870452e-05 0.0 
0.0 0.0 0.0 
-2.459942895172e-05 6.742900183080e-05 0.0 
6.742900183080e-05 1.352261349348e-03 0.0 
0.0 0.0 0.0 
-1.827187740755e-05 7.978140592507e-05 0.0 
7.978140592507e-05 1.375476990079e-03 0.0 
0.0 0.0 0.0 
-5.356382495325e-07 -9.803433891555e-06 0.0 
-9.803433891555e-06 1.012998004886e-04 0.0 
0.0 0.0 0.0 
4.573318422563e-05 -2.452700650637e-06 0.0 
-2.452700650637e-06 5.796374078082e-04 0.0 
0.0 0.0 0.0 
-3.341588640815e-05 4.577907307710e-05 0.0 
4.577907307710e-05 1.022288648300e-04 0.0 
0.0 0.0 0.0 
-2.183749453544e-05 6.975240543165e-05 0.0 
6.975240543165e-05 1.389814018436e-03 0.0 
0.0 0.0 0.0 
-2.350725136213e-05 1.271996084525e-06 0.0 
1.271996084525e-06 4.464059458926e-04 0.0 
0.0 0.0 0.0 
-1.909631288455e-05 3.517910133985e-06 0.0 
3.517910133985e-06 4.380087198379e-04 0.0 
0.0 0.0 0.0 
-2.180810474917e-05 8.062418953201e-07 0.0 
8.062418953201e-07 4.378041414999e-04 0.0 
0.0 0.0 0.0 
-1.983812163109e-05 8.357869703021e-08 0.0 
8.357869703021e-08 4.374168494112e-04 0.0 
0.0 0.0 0.0 
-2.133801848370e-05 -2.152693374710e-07 0.0 
-2.152693374710e-07 4.373873592058e-04 0.0 
0.0 0.0 0.0 
-2.046439891035e-05 -6.891444860661e-07 0.0 
-6.891444860661e-07 4.375178197253e-04 0.0 
0.0 0.0 0.0 
-2.097501442755e-05 -7.487608623579e-07 0.0 
-7.487608623579e-07 4.375116693689e-04 0.0 
0.0 0.0 0.0 
-2.035176936188e-05 -1.012313209980e-06 0.0 
-1.012313209980e-06 4.374789384238e-04 0.0 
0.0 0.0 0.0 
-2.045448892685e-05 -1.022040137546e-06 0.0 
-1.022040137546e-06 4.374780175611e-04 0.0 
0.0 0.0 0.0 
-1.970767949133e-05 -1.227701502266e-06 0.0 
-1.227701502266e-06 4.372574684497e-04 0.0 
0.0 0.0 0.0 
-1.973009206691e-05 -1.184997251546e-06 0.0 
-1.184997251546e-06 4.372676216691e-04 0.0 
0.0 0.0 0.0 
-1.866601664946e-05 -1.418561428487e-06 0.0 
-1.418561428487e-06 4.368749913539e-04 0.0 
0.0 0.0 0.0 
-1.879923650960e-05 -1.306902151008e-06 0.0 
-1.306902151008e-06 4.369074675843e-04 0.0 
0.0 0.0 0.0 
-1.729761374702e-05 -1.612956782958e-06 0.0 
-1.612956782958e-06 4.363502798355e-04 0.0 
0.0 0.0 0.0 
-1.766835039441e-05 -1.415702784838e-06 0.0 
-1.415702784838e-06 4.364197482052e-04 0.0 
0.0 0.0 0.0 
-1.563334653920e-05 -1.818353758608e-06 0.0 
-1.818353758608e-06 4.356941317207e-04 0.0 
0.0 0.0 0.0 
-1.634390690797e-05 -1.520165629695e-06 0.0 
-1.520165629695e-06 4.358186359656e-04 0.0 
0.0 0.0 0.0 
-1.368024687476e-05 -2.034068701069e-06 0.0 
-2.034068701069e-06 4.349111035382e-04 0.0 
0.0 0.0 0.0 
-1.483034322536e-05 -1.620830275888e-06 0.0 
-1.620830275888e-06 4.351125745430e-04 0.0 
0.0 0.0 0.0 
-1.143135294812e-05 -2.256822872587e-06 0.0 
-2.256822872587e-06 4.340024302292e-04 0.0 
0.0 0.0 0.0 
1.347414055797e-05 1.347331127875e-05 0.0 
1.347331127875e-05 4.242016002602e-04 0.0 
0.0 0.0 0.0 
-1.313207465525e-05 -1.715128130956e-06 0.0 
-1.715128130956e-06 4.343077135540e-04 0.0 
0.0 0.0 0.0 
-8.871933433574e-06 -2.483628313263e-06 0.0 
-2.483628313263e-06 4.329692279039e-04 0.0 
0.0 0.0 0.0 
-1.125715457140e-05 -1.799639019652e-06 0.0 
-1.799639019652e-06 4.334119388807e-04 0.0 
0.0 0.0 0.0 
4.804764948974e-05 -4.387272700003e-06 0.0 
-4.387272700003e-06 3.903117357629e-04 0.0 
0.0 0.0 0.0 
-5.984007900084e-06 -2.712231197231e-06 0.0 
-2.712231197231e-06 4.318146821438e-04 0.0 
0.0 0.0 0.0 
-9.223118613622e-06 -1.876802192131e-06 0.0 
-1.876802192131e-06 4.324348410656e-04 0.0 
0.0 0.0 0.0 
-1.146693304399e-05 1.257269694722e-05 0.0 
1.257269694722e-05 4.313374829923e-04 0.0 
0.0 0.0 0.0 
-2.755081753070e-06 -2.943091372932e-06 0.0 
-2.943091372932e-06 4.305391789405e-04 0.0 
0.0 0.0 0.0 
-7.054348319935e-06 -1.948623483383e-06 0.0 
-1.948623483383e-06 4.313862948773e-04 0.0 
0.0 0.0 0.0 
8.194412461915e-07 -3.176614610277e-06 0.0 
-3.176614610277e-06 4.291474235525e-04 0.0 
0.0 0.0 0.0 
-4.789682099604e-06 -2.027573020089e-06 0.0 
-2.027573020089e-06 4.302770676472e-04 0.0 
0.0 0.0 0.0 
4.726655082443e-06 -3.415646604720e-06 0.0 
-3.415646604720e-06 4.276379310020e-04 0.0 
0.0 0.0 0.0 
-2.476065664170e-06 -2.098995194458e-06 0.0 
-2.098995194458e-06 4.291300924133e-04 0.0 
0.0 0.0 0.0 
8.952592396749e-06 -3.649024521566e-06 0.0 
-3.649024521566e-06 4.260391163127e-04 0.0 
0.0 0.0 0.0 
-2.107935959117e-07 -2.198379705987e-06 0.0 
-2.198379705987e-06 4.279669856118e-04 0.0 
0.0 0.0 0.0 
1.343848192392e-05 -3.878329403696e-06 0.0 
-3.878329403696e-06 4.243285757111e-04 0.0 
0.0 0.0 0.0 
-2.504633666023e-05 4.586329903874e-05 0.0 
4.586329903874e-05 4.492150635453e-04 0.0 
0.0 0.0 0.0 
1.928112544514e-06 -2.236406011693e-06 0.0 
-2.236406011693e-06 4.268444929698e-04 0.0 
0.0 0.0 0.0 
1.814857670146e-05 -4.045428056615e-06 0.0 
-4.045428056615e-06 4.226079834249e-04 0.0 
0.0 0.0 0.0 
3.697278302850e-06 -2.345372972351e-06 0.0 
-2.345372972351e-06 4.257796652174e-04 0.0 
0.0 0.0 0.0 
2.289805913969e-05 -4.173279426141e-06 0.0 
-4.173279426141e-06 4.207580946183e-04 0.0 
0.0 0.0 0.0 
2.762939422074e-05 -4.029644084130e-06 0.0 
-4.029644084130e-06 4.192252453497e-04 0.0 
0.0 0.0 0.0 
5.021233025371e-06 -2.119363818003e-06 0.0 
-2.119363818003e-06 4.249825306055e-04 0.0 
0.0 0.0 0.0 
3.182592588513e-05 -3.808239191659e-06 0.0 
-3.808239191659e-06 4.172184221696e-04 0.0 
0.0 0.0 0.0 
5.105883120304e-06 -2.261261074944e-06 0.0 
-2.261261074944e-06 4.243269527779e-04 0.0 
0.0 0.0 0.0 
3.541362469739e-05 -2.466854866495e-06 0.0 
-2.466854866495e-06 4.163808552820e-04 0.0 
0.0 0.0 0.0 
4.478238485595e-06 -1.062912388174e-06 0.0 
-1.062912388174e-06 4.244364652266e-04 0.0 
0.0 0.0 0.0 
3.674934080600e-05 -8.127798996994e-07 0.0 
-8.127798996994e-07 4.135543928696e-04 0.0 
0.0 0.0 0.0 
3.540138510338e-05 6.241254910948e-06 0.0 
6.241254910948e-06 4.144164592734e-04 0.0 
0.0 0.0 0.0 
5.983860222880e-07 -1.128431179889e-06 0.0 
-1.128431179889e-06 4.243759627953e-04 0.0 
0.0 0.0 0.0 
-4.800900229585e-07 4.249852173327e-06 0.0 
4.249852173327e-06 4.261581213501e-04 0.0 
0.0 0.0 0.0 
-1.253707807625e-05 2.453847890338e-06 0.0 
2.453847890338e-06 4.338636868337e-04 0.0 
0.0 0.0 0.0 
-2.547403934483e-05 -7.678025259469e-06 0.0 
-7.678025259469e-06 4.395652218492e-04 0.0 
0.0 0.0 0.0 
-2.951644097571e-05 1.039367743779e-05 0.0 
1.039367743779e-05 4.467590021242e-04 0.0 
0.0 0.0 0.0 
-3.087818158443e-05 6.790649771122e-07 0.0 
6.790649771122e-07 4.283707571120e-04 0.0 
0.0 0.0 0.0 
-2.408559793987e-05 2.200369002138e-06 0.0 
2.200369002138e-06 4.576065188426e-04 0.0 
0.0 0.0 0.0 
-1.262765634691e-05 4.442638624848e-05 0.0 
4.442638624848e-05 3.919137930433e-04 0.0 
0.0 0.0 0.0 
-2.350725136213e-05 -1.824537411153e-06 0.0 
-1.824537411153e-06 4.976963199359e-04 0.0 
0.0 0.0 0.0 
-2.343234212376e-05 9.453765699885e-07 0.0 
9.453765699885e-07 5.029538197903e-04 0.0 
0.0 0.0 0.0 
-2.180810474917e-05 -1.127195350969e-07 0.0 
-1.127195350969e-07 5.030328090803e-04 0.0 
0.0 0.0 0.0 
-2.282990274960e-05 -6.694634781786e-07 0.0 
-6.694634781786e-07 5.028908600659e-04 0.0 
0.0 0.0 0.0 
-2.133801848370e-05 -6.872585705875e-07 0.0 
-6.872585705875e-07 5.028879477547e-04 0.0 
0.0 0.0 0.0 
-2.236587410387e-05 -1.303744394070e-06 0.0 
-1.303744394070e-06 5.026256260530e-04 0.0 
0.0 0.0 0.0 
-2.097501442755e-05 -1.325791507800e-06 0.0 
-1.325791507800e-06 5.026207879777e-04 0.0 
0.0 0.0 0.0 
-2.197089911427e-05 -1.882736365464e-06 0.0 
-1.882736365464e-06 5.024275789571e-04 0.0 
0.0 0.0 0.0 
-2.045448892685e-05 -1.835441122378e-06 0.0 
-1.835441122378e-06 5.024044636535e-04 0.0 
0.0 0.0 0.0 
-2.155056775044e-05 -2.420358405192e-06 0.0 
-2.420358405192e-06 5.022273403215e-04 0.0 
0.0 0.0 0.0 
-1.973009206691e-05 -2.256617183460e-06 0.0 
-2.256617183460e-06 5.021653167834e-04 0.0 
0.0 0.0 0.0 
-2.105034353417e-05 -2.933312267241e-06 0.0 
-2.933312267241e-06 5.019828375783e-04 0.0 
0.0 0.0 0.0 
-1.879923650960e-05 -2.631917586613e-06 0.0 
-2.631917586613e-06 5.018608998668e-04 0.0 
0.0 0.0 0.0 
-2.044476654262e-05 -3.436767491679e-06 0.0 
-3.436767491679e-06 5.016770067376e-04 0.0 
0.0 0.0 0.0 
-1.766835039441e-05 -2.986654334855e-06 0.0 
-2.986654334855e-06 5.014727963901e-04 0.0 
0.0 0.0 0.0 
-1.972914731041e-05 -3.939106409000e-06 0.0 
-3.939106409000e-06 5.013067637800e-04 0.0 
0.0 0.0 0.0 
-1.634390690797e-05 -3.333244313450e-06 0.0 
-3.333244313450e-06 5.009956353061e-04 0.0 
0.0 0.0 0.0 
-1.890799206994e-05 -4.443342564846e-06 0.0 
-4.443342564846e-06 5.008751238655e-04 0.0 
0.0 0.0 0.0 
-1.483034322536e-05 -3.675191462880e-06 0.0 
-3.675191462880e-06 5.004288805113e-04 0.0 
0.0 0.0 0.0 
-1.546076172709e-05 1.547525805618e-05 0.0 
1.547525805618e-05 4.963178413406e-04 0.0 
0.0 0.0 0.0 
-1.799215385323e-05 -4.946725541335e-06 0.0 
-4.946725541335e-06 5.003893769444e-04 0.0 
0.0 0.0 0.0 
-1.313207465525e-05 -4.010148613645e-06 0.0 
-4.010148613645e-06 4.997756515055e-04 0.0 
0.0 0.0 0.0 
-1.699674346467e-05 -5.441084372738e-06 0.0 
-5.441084372738e-06 4.998609981544e-04 0.0 
0.0 0.0 0.0 
-2.339416853114e-05 1.197331775609e-05 0.0 
1.197331775609e-05 5.012403580964e-04 0.0 
0.0 0.0 0.0 
-1.125715457140e-05 -4.329597161527e-06 0.0 
-4.329597161527e-06 4.990423454772e-04 0.0 
0.0 0.0 0.0 
-1.594399971716e-05 -5.909926889628e-06 0.0 
-5.909926889628e-06 4.993082012801e-04 0.0 
0.0 0.0 0.0 
-9.223118613622e-06 -4.622118560483e-06 0.0 
-4.622118560483e-06 4.982442420474e-04 0.0 
0.0 0.0 0.0 
-1.488376874004e-05 -6.342375186326e-06 0.0 
-6.342375186326e-06 4.987529419729e-04 0.0 
0.0 0.0 0.0 
-7.054348319935e-06 -4.874146178896e-06 0.0 
-4.874146178896e-06 4.973948399627e-04 0.0 
0.0 0.0 0.0 
-4.800900229585e-07 1.226378838299e-05 0.0 
1.226378838299e-05 4.695006692921e-04 0.0 
0.0 0.0 0.0 
-1.385295800926e-05 -6.715716118952e-06 0.0 
-6.715716118952e-06 4.982161918625e-04 0.0 
0.0 0.0 0.0 
-4.789682099604e-06 -5.068774878972e-06 0.0 
-5.068774878972e-06 4.965118777309e-04 0.0 
0.0 0.0 0.0 
-1.294399522178e-05 -7.018544646448e-06 0.0 
-7.018544646448e-06 4.977204767687e-04 0.0 
0.0 0.0 0.0 
-2.476065664170e-06 -5.171067003357e-06 0.0 
-5.171067003357e-06 4.955925208652e-04 0.0 
0.0 0.0 0.0 
-1.216399885773e-05 -7.164535688936e-06 0.0 
-7.164535688936e-06 4.972979543520e-04 0.0 
0.0 0.0 0.0 
-2.107935959117e-07 -5.140658795731e-06 0.0 
-5.140658795731e-06 4.946971072122e-04 0.0 
0.0 0.0 0.0 
-1.177810270714e-05 -7.174438211854e-06 0.0 
-7.174438211854e-06 4.969827452737e-04 0.0 
0.0 0.0 0.0 
1.928112544514e-06 -4.878092484153e-06 0.0 
-4.878092484153e-06 4.937506546885e-04 0.0 
0.0 0.0 0.0 
-1.162937592769e-05 -6.752879761011e-06 0.0 
-6.752879761011e-06 4.968312149745e-04 0.0 
0.0 0.0 0.0 
3.697278302850e-06 -4.301997552556e-06 0.0 
-4.301997552556e-06 4.929939866387e-04 0.0 
0.0 0.0 0.0 
-1.250524700547e-05 -6.130775286279e-06 0.0 
-6.130775286279e-06 4.968790508468e-04 0.0 
0.0 0.0 0.0 
-2.581514388189e-05 2.963353079823e-05 0.0 
2.963353079823e-05 5.067379436863e-04 0.0 
0.0 0.0 0.0 
-1.348730120021e-05 -4.088311092146e-06 0.0 
-4.088311092146e-06 4.973272454698e-04 0.0 
0.0 0.0 0.0 
5.021233025371e-06 -3.086073988723e-06 0.0 
-3.086073988723e-06 4.919442983653e-04 0.0 
0.0 0.0 0.0 
-1.731453417608e-05 -2.498259915101e-06 0.0 
-2.498259915101e-06 4.979506212797e-04 0.0 
0.0 0.0 0.0 
5.105883120304e-06 -1.212343376115e-06 0.0 
-1.212343376115e-06 4.919719541325e-04 0.0 
0.0 0.0 0.0 
-1.734751692439e-05 3.884544622613e-06 0.0 
3.884544622613e-06 4.983465949335e-04 0.0 
0.0 0.0 0.0 
4.478238485595e-06 2.401360005621e-06 0.0 
2.401360005621e-06 4.899040116844e-04 0.0 
0.0 0.0 0.0 
5.983860222880e-07 8.606745204207e-06 0.0 
8.606745204207e-06 4.906583972821e-04 0.0 
0.0 0.0 0.0 
-2.044396701861e-05 1.345247533439e-05 0.0 
1.345247533439e-05 4.837248798084e-04 0.0 
0.0 0.0 0.0 
-2.605421524582e-05 -8.767565181950e-06 0.0 
-8.767565181950e-06 5.054179691111e-04 0.0 
0.0 0.0 0.0 
-2.153307790675e-05 7.964066840201e-06 0.0 
7.964066840201e-06 4.973191050635e-04 0.0 
0.0 0.0 0.0 
-2.346383718754e-05 -1.141224254639e-06 0.0 
-1.141224254639e-06 5.178856240480e-04 0.0 
0.0 0.0 0.0 
-2.408559793987e-05 5.541190574013e-07 0.0 
5.541190574013e-07 4.852394976544e-04 0.0 
0.0 0.0 0.0 
-1.146693304399e-05 3.124451224737e-05 0.0 
3.124451224737e-05 4.653891935276e-04 0.0 
0.0 0.0 0.0 
-2.374025008345e-05 -2.380638695261e-06 0.0 
-2.380638695261e-06 5.733180720244e-04 0.0 
0.0 0.0 0.0 
-2.343234212376e-05 3.268570309807e-07 0.0 
3.268570309807e-07 5.678567995719e-04 0.0 
0.0 0.0 0.0 
-2.366095273387e-05 -1.067615560429e-06 0.0 
-1.067615560429e-06 5.677359732419e-04 0.0 
0.0 0.0 0.0 
-2.282990274960e-05 -1.168718957163e-06 0.0 
-1.168718957163e-06 5.671988057638e-04 0.0 
0.0 0.0 0.0 
-2.339439551224e-05 -1.425240261637e-06 0.0 
-1.425240261637e-06 5.671677474248e-04 0.0 
0.0 0.0 0.0 
-2.236587410387e-05 -1.773519603147e-06 0.0 
-1.773519603147e-06 5.669463105682e-04 0.0 
0.0 0.0 0.0 
-2.314982729024e-05 -1.958941770615e-06 0.0 
-1.958941770615e-06 5.669199910472e-04 0.0 
0.0 0.0 0.0 
-2.197089911427e-05 -2.408430525396e-06 0.0 
-2.408430525396e-06 5.667846854323e-04 0.0 
0.0 0.0 0.0 
-2.294383937285e-05 -2.512019000769e-06 0.0 
-2.512019000769e-06 5.667736612394e-04 0.0 
0.0 0.0 0.0 
-2.155056775044e-05 -3.046991592748e-06 0.0 
-3.046991592748e-06 5.666505348418e-04 0.0 
0.0 0.0 0.0 
-2.274441530459e-05 -3.060425709784e-06 0.0 
-3.060425709784e-06 5.666673414955e-04 0.0 
0.0 0.0 0.0 
-2.105034353417e-05 -3.679654100620e-06 0.0 
-3.679654100620e-06 5.664996233024e-04 0.0 
0.0 0.0 0.0 
-2.252582869011e-05 -3.601287550645e-06 0.0 
-3.601287550645e-06 5.665576416536e-04 0.0 
0.0 0.0 0.0 
-2.044476654262e-05 -4.307241045718e-06 0.0 
-4.307241045718e-06 5.663038418793e-04 0.0 
0.0 0.0 0.0 
-2.227352968232e-05 -4.129021675174e-06 0.0 
-4.129021675174e-06 5.664211435323e-04 0.0 
0.0 0.0 0.0 
-1.972914731041e-05 -4.926256323295e-06 0.0 
-4.926256323295e-06 5.660574985771e-04 0.0 
0.0 0.0 0.0 
-2.199950452619e-05 -4.642093002754e-06 0.0 
-4.642093002754e-06 5.662556016792e-04 0.0 
0.0 0.0 0.0 
-1.890799206994e-05 -5.533865479912e-06 0.0 
-5.533865479912e-06 5.657579411409e-04 0.0 
0.0 0.0 0.0 
-2.778989886132e-05 1.097932198958e-05 0.0 
1.097932198958e-05 5.652776039866e-04 0.0 
0.0 0.0 0.0 
-2.171808555929e-05 -5.135303991808e-06 0.0 
-5.135303991808e-06 5.660640308942e-04 0.0 
0.0 0.0 0.0 
-1.799215385323e-05 -6.121602763928e-06 0.0 
-6.121602763928e-06 5.654078946495e-04 0.0 
0.0 0.0 0.0 
-2.144811418914e-05 -5.600639712755e-06 0.0 
-5.600639712755e-06 5.658546743321e-04 0.0 
0.0 0.0 0.0 
-1.734751692439e-05 1.007530487595e-05 0.0 
1.007530487595e-05 5.403727720794e-04 0.0 
0.0 0.0 0.0 
-1.699674346467e-05 -6.673788114847e-06 0.0 
-6.673788114847e-06 5.650092223681e-04 0.0 
0.0 0.0 0.0 
-3.211598962638e-05 9.566593488652e-06 0.0 
9.566593488652e-06 5.677718551786e-04 0.0 
0.0 0.0 0.0 
-2.120720968590e-05 -6.019880811941e-06 0.0 
-6.019880811941e-06 5.656369259590e-04 0.0 
0.0 0.0 0.0 
-1.594399971716e-05 -7.159885223705e-06 0.0 
-7.159885223705e-06 5.645638719600e-04 0.0 
0.0 0.0 0.0 
-2.102297630879e-05 -6.343154600612e-06 0.0 
-6.343154600612e-06 5.654311483634e-04 0.0 
0.0 0.0 0.0 
-1.488376874004e-05 -7.536966933843e-06 0.0 
-7.536966933843e-06 5.641211459808e-04 0.0 
0.0 0.0 0.0 
-2.098949334139e-05 -6.571043682283e-06 0.0 
-6.571043682283e-06 5.652746578757e-04 0.0 
0.0 0.0 0.0 
-1.385295800926e-05 -7.771445413330e-06 0.0 
-7.771445413330e-06 5.636514703913e-04 0.0 
0.0 0.0 0.0 
-2.113148806793e-05 -6.611556366849e-06 0.0 
-6.611556366849e-06 5.651818655459e-04 0.0 
0.0 0.0 0.0 
-1.294399522178e-05 -7.800975315908e-06 0.0 
-7.800975315908e-06 5.632508885789e-04 0.0 
0.0 0.0 0.0 
-3.269807047901e-05 2.181617842344e-05 0.0 
2.181617842344e-05 5.728098718836e-04 0.0 
0.0 0.0 0.0 
-2.158454084789e-05 -6.539299957424e-06 0.0 
-6.539299957424e-06 5.651739348020e-04 0.0 
0.0 0.0 0.0 
-1.216399885773e-05 -7.548375782813e-06 0.0 
-7.548375782813e-06 5.627020720840e-04 0.0 
0.0 0.0 0.0 
-2.221721816720e-05 -5.967419153825e-06 0.0 
-5.967419153825e-06 5.652436583543e-04 0.0 
0.0 0.0 0.0 
-1.177810270714e-05 -6.857550884188e-06 0.0 
-6.857550884188e-06 5.624594961693e-04 0.0 
0.0 0.0 0.0 
-1.162937592769e-05 -5.577430186138e-06 0.0 
-5.577430186138e-06 5.616039103147e-04 0.0 
0.0 0.0 0.0 
-2.357846148493e-05 -5.346206132334e-06 0.0 
-5.346206132334e-06 5.654491479430e-04 0.0 
0.0 0.0 0.0 
-1.250524700547e-05 -3.385858230883e-06 0.0 
-3.385858230883e-06 5.618331508712e-04 0.0 
0.0 0.0 0.0 
-2.484367435562e-05 -3.331602096627e-06 0.0 
-3.331602096627e-06 5.657135838653e-04 0.0 
0.0 0.0 0.0 
-1.348730120021e-05 2.130745869892e-07 0.0 
2.130745869892e-07 5.595471104767e-04 0.0 
0.0 0.0 0.0 
-1.731453417608e-05 6.145409202882e-06 0.0 
6.145409202882e-06 5.611138299271e-04 0.0 
0.0 0.0 0.0 
-2.803860426670e-05 -1.858924530811e-06 0.0 
-1.858924530811e-06 5.660972817372e-04 0.0 
0.0 0.0 0.0 
-2.754888013401e-05 4.103799261204e-06 0.0 
4.103799261204e-06 5.660301144370e-04 0.0 
0.0 0.0 0.0 
-2.927831440314e-05 1.133987677033e-05 0.0 
1.133987677033e-05 5.488266508120e-04 0.0 
0.0 0.0 0.0 
-2.109853874888e-05 -8.728972406995e-06 0.0 
-8.728972406995e-06 5.649229012370e-04 0.0 
0.0 0.0 0.0 
-2.603155872327e-05 7.807883136452e-06 0.0 
7.807883136452e-06 5.737621340836e-04 0.0 
0.0 0.0 0.0 
-2.346383718754e-05 -1.254566348711e-06 0.0 
-1.254566348711e-06 5.525626404890e-04 0.0 
0.0 0.0 0.0 
-2.372332076317e-05 5.919253230790e-07 0.0 
5.919253230790e-07 5.856713417765e-04 0.0 
0.0 0.0 0.0 
-2.339416853114e-05 2.269252427916e-05 0.0 
2.269252427916e-05 5.360029668351e-04 0.0 
0.0 0.0 0.0 
-2.374025008345e-05 -2.546917623746e-06 0.0 
-2.546917623746e-06 6.260295615499e-04 0.0 
0.0 0.0 0.0 
-2.437626538887e-05 1.481715577277e-07 0.0 
1.481715577277e-07 6.317672962561e-04 0.0 
0.0 0.0 0.0 
-2.366095273387e-05 -1.401395872680e-06 0.0 
-1.401395872680e-06 6.319006890523e-04 0.0 
0.0 0.0 0.0 
-2.434842269095e-05 -1.594065132607e-06 0.0 
-1.594065132607e-06 6.321412052896e-04 0.0 
0.0 0.0 0.0 
-2.339439551224e-05 -1.704614726855e-06 0.0 
-1.704614726855e-06 6.321515670302e-04 0.0 
0.0 0.0 0.0 
-2.430886486460e-05 -2.158157289083e-06 0.0 
-2.158157289083e-06 6.320857047795e-04 0.0 
0.0 0.0 0.0 
-2.314982729024e-05 -2.202557009737e-06 0.0 
-2.202557009737e-06 6.320846624808e-04 0.0 
0.0 0.0 0.0 
-2.430545852528e-05 -2.739807863909e-06 0.0 
-2.739807863909e-06 6.320450149779e-04 0.0 
0.0 0.0 0.0 
-2.294383937285e-05 -2.766375760388e-06 0.0 
-2.766375760388e-06 6.320347034250e-04 0.0 
0.0 0.0 0.0 
-2.435087011776e-05 -3.373915098655e-06 0.0 
-3.373915098655e-06 6.320420306589e-04 0.0 
0.0 0.0 0.0 
-2.274441530459e-05 -3.347673865573e-06 0.0 
-3.347673865573e-06 6.320078541306e-04 0.0 
0.0 0.0 0.0 
-2.444905289001e-05 -4.038071036468e-06 0.0 
-4.038071036468e-06 6.320624896310e-04 0.0 
0.0 0.0 0.0 
-2.252582869011e-05 -3.927081794360e-06 0.0 
-3.927081794360e-06 6.319841743863e-04 0.0 
0.0 0.0 0.0 
-2.457106370279e-05 -4.714051790775e-06 0.0 
-4.714051790775e-06 6.320796716694e-04 0.0 
0.0 0.0 0.0 
-2.227352968232e-05 -4.480780439750e-06 0.0 
-4.480780439750e-06 6.319290431764e-04 0.0 
0.0 0.0 0.0 
-2.471994922004e-05 -5.361271901059e-06 0.0 
-5.361271901059e-06 6.320953737120e-04 0.0 
0.0 0.0 0.0 
-2.199950452619e-05 -4.998483967671e-06 0.0 
-4.998483967671e-06 6.318492752109e-04 0.0 
0.0 0.0 0.0 
-3.571081939435e-05 7.513588659997e-06 0.0 
7.513588659997e-06 6.330094022768e-04 0.0 
0.0 0.0 0.0 
-2.492656423514e-05 -5.973123701036e-06 0.0 
-5.973123701036e-06 6.321165070571e-04 0.0 
0.0 0.0 0.0 
-2.171808555929e-05 -5.470646619250e-06 0.0 
-5.470646619250e-06 6.317464093339e-04 0.0 
0.0 0.0 0.0 
-3.703077737760e-05 6.623168389552e-06 0.0 
6.623168389552e-06 6.340974899106e-04 0.0 
0.0 0.0 0.0 
-2.521623474039e-05 -6.535054793293e-06 0.0 
-6.535054793293e-06 6.321518150179e-04 0.0 
0.0 0.0 0.0 
-2.144811418914e-05 -5.886649448790e-06 0.0 
-5.886649448790e-06 6.316262343022e-04 0.0 
0.0 0.0 0.0 
-2.558969750444e-05 -7.030952533761e-06 0.0 
-7.030952533761e-06 6.321972599468e-04 0.0 
0.0 0.0 0.0 
-2.120720968590e-05 -6.213841496511e-06 0.0 
-6.213841496511e-06 6.314727000083e-04 0.0 
0.0 0.0 0.0 
-2.605326576277e-05 -7.413749430574e-06 0.0 
-7.413749430574e-06 6.322451171070e-04 0.0 
0.0 0.0 0.0 
-2.754888013401e-05 8.838749734785e-06 0.0 
8.838749734785e-06 6.089833155716e-04 0.0 
0.0 0.0 0.0 
-2.102297630879e-05 -6.380604293693e-06 0.0 
-6.380604293693e-06 6.312594079858e-04 0.0 
0.0 0.0 0.0 
-2.662040496748e-05 -7.549192802123e-06 0.0 
-7.549192802123e-06 6.323423202632e-04 0.0 
0.0 0.0 0.0 
-2.098949334139e-05 -6.347794388762e-06 0.0 
-6.347794388762e-06 6.310894564476e-04 0.0 
0.0 0.0 0.0 
-2.754118687920e-05 -7.494243246076e-06 0.0 
-7.494243246076e-06 6.325197519816e-04 0.0 
0.0 0.0 0.0 
-2.113148806793e-05 -6.049583547972e-06 0.0 
-6.049583547972e-06 6.308960220123e-04 0.0 
0.0 0.0 0.0 
-2.857267623990e-05 -7.032355040127e-06 0.0 
-7.032355040127e-06 6.327791127672e-04 0.0 
0.0 0.0 0.0 
-2.158454084789e-05 -5.446591225881e-06 0.0 
-5.446591225881e-06 6.308305272313e-04 0.0 
0.0 0.0 0.0 
-3.028327026600e-05 -6.433367267429e-06 0.0 
-6.433367267429e-06 6.330436240944e-04 0.0 
0.0 0.0 0.0 
-2.221721816720e-05 -4.279988605287e-06 0.0 
-4.279988605287e-06 6.303503474954e-04 0.0 
0.0 0.0 0.0 
-3.153081938956e-05 -4.636633814392e-06 0.0 
-4.636633814392e-06 6.333669568055e-04 0.0 
0.0 0.0 0.0 
-3.695427784201e-05 1.619859887212e-05 0.0 
1.619859887212e-05 6.388601036300e-04 0.0 
0.0 0.0 0.0 
-3.460135223865e-05 -3.260924961602e-06 0.0 
-3.260924961602e-06 6.335054362328e-04 0.0 
0.0 0.0 0.0 
-2.357846148493e-05 -2.563358036321e-06 0.0 
-2.563358036321e-06 6.305267353266e-04 0.0 
0.0 0.0 0.0 
-3.412460964414e-05 1.790420001290e-06 0.0 
1.790420001290e-06 6.332809951459e-04 0.0 
0.0 0.0 0.0 
-2.484367435562e-05 4.369313259760e-07 0.0 
4.369313259760e-07 6.287859775813e-04 0.0 
0.0 0.0 0.0 
-2.803860426670e-05 4.827454883937e-06 0.0 
4.827454883937e-06 6.294896216417e-04 0.0 
0.0 0.0 0.0 
-3.428167469022e-05 9.254398100570e-06 0.0 
9.254398100570e-06 6.138719776401e-04 0.0 
0.0 0.0 0.0 
-2.645636652832e-05 -8.722465429510e-06 0.0 
-8.722465429510e-06 6.342098120182e-04 0.0 
0.0 0.0 0.0 
-2.164246652647e-05 7.744802379785e-06 0.0 
7.744802379785e-06 6.255811040721e-04 0.0 
0.0 0.0 0.0 
-2.431609825326e-05 -1.257175290867e-06 0.0 
-1.257175290867e-06 6.467675898618e-04 0.0 
0.0 0.0 0.0 
-2.372332076317e-05 5.389702275834e-07 0.0 
5.389702275834e-07 6.134741025217e-04 0.0 
0.0 0.0 0.0 
-3.211598962638e-05 1.734826457099e-05 0.0 
1.734826457099e-05 6.060305706770e-04 0.0 
0.0 0.0 0.0 
-2.501385041631e-05 -2.519646299578e-06 0.0 
-2.519646299578e-06 7.022612716110e-04 0.0 
0.0 0.0 0.0 
-2.437626538887e-05 1.161780142413e-07 0.0 
1.161780142413e-07 6.966777849275e-04 0.0 
0.0 0.0 0.0 
-2.507532523188e-05 -1.437454961717e-06 0.0 
-1.437454961717e-06 6.965241692796e-04 0.0 
0.0 0.0 0.0 
-2.434842269095e-05 -1.642859842338e-06 0.0 
-1.642859842338e-06 6.962822123222e-04 0.0 
0.0 0.0 0.0 
-2.517140183755e-05 -1.767600209579e-06 0.0 
-1.767600209579e-06 6.962681305247e-04 0.0 
0.0 0.0 0.0 
-2.430886486460e-05 -2.177370633590e-06 0.0 
-2.177370633590e-06 6.963070623398e-04 0.0 
0.0 0.0 0.0 
-2.536826939226e-05 -2.210870256719e-06 0.0 
-2.210870256719e-06 6.963109564606e-04 0.0 
0.0 0.0 0.0 
-2.430545852528e-05 -2.711568678994e-06 0.0 
-2.711568678994e-06 6.963734641294e-04 0.0 
0.0 0.0 0.0 
-2.562249823679e-05 -2.700438241290e-06 0.0 
-2.700438241290e-06 6.963968254843e-04 0.0 
0.0 0.0 0.0 
-2.435087011776e-05 -3.282679307629e-06 0.0 
-3.282679307629e-06 6.964678839809e-04 0.0 
0.0 0.0 0.0 
-2.597600052545e-05 -3.201793059973e-06 0.0 
-3.201793059973e-06 6.965287152894e-04 0.0 
0.0 0.0 0.0 
-2.444905289001e-05 -3.871199026613e-06 0.0 
-3.871199026613e-06 6.965939563999e-04 0.0 
0.0 0.0 0.0 
-2.642652126050e-05 -3.741339535264e-06 0.0 
-3.741339535264e-06 6.966999671907e-04 0.0 
0.0 0.0 0.0 
-2.457106370279e-05 -4.471288026790e-06 0.0 
-4.471288026790e-06 6.966803919399e-04 0.0 
0.0 0.0 0.0 
-2.693269821108e-05 -4.254278550916e-06 0.0 
-4.254278550916e-06 6.968616611105e-04 0.0 
0.0 0.0 0.0 
-2.471994922004e-05 -5.028440136490e-06 0.0 
-5.028440136490e-06 6.967325792051e-04 0.0 
0.0 0.0 0.0 
-4.138613300364e-05 4.605026054497e-06 0.0 
4.605026054497e-06 7.003037219822e-04 0.0 
0.0 0.0 0.0 
-2.748682382903e-05 -4.689638922574e-06 0.0 
-4.689638922574e-06 6.970251127782e-04 0.0 
0.0 0.0 0.0 
-2.492656423514e-05 -5.500161028067e-06 0.0 
-5.500161028067e-06 6.968007499146e-04 0.0 
0.0 0.0 0.0 
-3.412460964414e-05 5.986656844713e-06 0.0 
5.986656844713e-06 6.764182640828e-04 0.0 
0.0 0.0 0.0 
-2.823254785567e-05 -5.042046623384e-06 0.0 
-5.042046623384e-06 6.972364310927e-04 0.0 
0.0 0.0 0.0 
-2.521623474039e-05 -5.889188271787e-06 0.0 
-5.889188271787e-06 6.968793369013e-04 0.0 
0.0 0.0 0.0 
-4.020537972260e-05 5.272778491490e-06 0.0 
5.272778491490e-06 6.993407812250e-04 0.0 
0.0 0.0 0.0 
-2.911326435173e-05 -5.336480891513e-06 0.0 
-5.336480891513e-06 6.974780388243e-04 0.0 
0.0 0.0 0.0 
-2.558969750444e-05 -6.173054689120e-06 0.0 
-6.173054689120e-06 6.969226943851e-04 0.0 
0.0 0.0 0.0 
-3.009387639707e-05 -5.532430886568e-06 0.0 
-5.532430886568e-06 6.977124447665e-04 0.0 
0.0 0.0 0.0 
-2.605326576277e-05 -6.285296417950e-06 0.0 
-6.285296417950e-06 6.968878100131e-04 0.0 
0.0 0.0 0.0 
-3.122221708762e-05 -5.550904478348e-06 0.0 
-5.550904478348e-06 6.979111352570e-04 0.0 
0.0 0.0 0.0 
-2.662040496748e-05 -6.098549840680e-06 0.0 
-6.098549840680e-06 6.966788086067e-04 0.0 
0.0 0.0 0.0 
-4.115024057305e-05 1.200508546981e-05 0.0 
1.200508546981e-05 7.050711002110e-04 0.0 
0.0 0.0 0.0 
-3.239777562702e-05 -5.029462618571e-06 0.0 
-5.029462618571e-06 6.981348975674e-04 0.0 
0.0 0.0 0.0 
-2.754118687920e-05 -5.507810411562e-06 0.0 
-5.507810411562e-06 6.968357273285e-04 0.0 
0.0 0.0 0.0 
-3.424663344354e-05 -4.552539598845e-06 0.0 
-4.552539598845e-06 6.984951338604e-04 0.0 
0.0 0.0 0.0 
-2.857267623990e-05 -4.533846604798e-06 0.0 
-4.533846604798e-06 6.964300776737e-04 0.0 
0.0 0.0 0.0 
-3.028327026600e-05 -3.010428784667e-06 0.0 
-3.010428784667e-06 6.969955812257e-04 0.0 
0.0 0.0 0.0 
-3.580279813575e-05 -3.002816633124e-06 0.0 
-3.002816633124e-06 6.988117211537e-04 0.0 
0.0 0.0 0.0 
-3.153081938956e-05 -6.578032105046e-07 0.0 
-6.578032105046e-07 6.949233566802e-04 0.0 
0.0 0.0 0.0 
-3.871860220783e-05 -2.412307729532e-06 0.0 
-2.412307729532e-06 6.990276159542e-04 0.0 
0.0 0.0 0.0 
-3.460135223865e-05 3.263278543236e-06 0.0 
3.263278543236e-06 6.961673475734e-04 0.0 
0.0 0.0 0.0 
-3.779034121920e-05 1.892216611224e-06 0.0 
1.892216611224e-06 6.984859276897e-04 0.0 
0.0 0.0 0.0 
-3.896664399994e-05 6.058288469391e-06 0.0 
6.058288469391e-06 6.791935252941e-04 0.0 
0.0 0.0 0.0 
-2.214974413217e-05 -8.715444073723e-06 0.0 
-8.715444073723e-06 6.939612990533e-04 0.0 
0.0 0.0 0.0 
-2.706990295565e-05 7.738978681378e-06 0.0 
7.738978681378e-06 7.027754878925e-04 0.0 
0.0 0.0 0.0 
-2.431609825326e-05 -1.247948008786e-06 0.0 
-1.247948008786e-06 6.814590721131e-04 0.0 
0.0 0.0 0.0 
-2.497415921143e-05 5.725270109317e-07 0.0 
5.725270109317e-07 7.147578022533e-04 0.0 
0.0 0.0 0.0 
-3.703077737760e-05 1.230458668239e-05 0.0 
1.230458668239e-05 6.724632604256e-04 0.0 
0.0 0.0 0.0 
-2.501385041631e-05 -2.474864540187e-06 0.0 
-2.474864540187e-06 7.551477775201e-04 0.0 
0.0 0.0 0.0 
-2.560800163864e-05 2.153008393120e-07 0.0 
2.153008393120e-07 7.607953132194e-04 0.0 
0.0 0.0 0.0 
-2.507532523188e-05 -1.367882559017e-06 0.0 
-1.367882559017e-06 7.609522998682e-04 0.0 
0.0 0.0 0.0 
-2.562743249634e-05 -1.478598194493e-06 0.0 
-1.478598194493e-06 7.612198727207e-04 0.0 
0.0 0.0 0.0 
-2.517140183755e-05 -1.603424423205e-06 0.0 
-1.603424423205e-06 7.612360314826e-04 0.0 
0.0 0.0 0.0 
-2.595971613595e-05 -1.865476593915e-06 0.0 
-1.865476593915e-06 7.614028721570e-04 0.0 
0.0 0.0 0.0 
-2.536826939226e-05 -1.989896377635e-06 0.0 
-1.989896377635e-06 7.614218416463e-04 0.0 
0.0 0.0 0.0 
-2.626272103479e-05 -2.302265541460e-06 0.0 
-2.302265541460e-06 7.615600101485e-04 0.0 
0.0 0.0 0.0 
-2.562249823679e-05 -2.363506144414e-06 0.0 
-2.363506144414e-06 7.615653168178e-04 0.0 
0.0 0.0 0.0 
-2.678063375694e-05 -2.720935071172e-06 0.0 
-2.720935071172e-06 7.617944405558e-04 0.0 
0.0 0.0 0.0 
-2.597600052545e-05 -2.755089320389e-06 0.0 
-2.755089320389e-06 7.617865825829e-04 0.0 
0.0 0.0 0.0 
-2.737231794248e-05 -3.155994191835e-06 0.0 
-3.155994191835e-06 7.620754580868e-04 0.0 
0.0 0.0 0.0 
-2.642652126050e-05 -3.150479557832e-06 0.0 
-3.150479557832e-06 7.620445629415e-04 0.0 
0.0 0.0 0.0 
-2.822949977266e-05 -3.659573353035e-06 0.0 
-3.659573353035e-06 7.623839191171e-04 0.0 
0.0 0.0 0.0 
-2.693269821108e-05 -3.535943660686e-06 0.0 
-3.535943660686e-06 7.622825951776e-04 0.0 
0.0 0.0 0.0 
-4.461965941649e-05 3.017457088689e-06 0.0 
3.017457088689e-06 7.668351929437e-04 0.0 
0.0 0.0 0.0 
-2.893619093380e-05 -4.114770432535e-06 0.0 
-4.114770432535e-06 7.625887614979e-04 0.0 
0.0 0.0 0.0 
-4.179739373200e-05 4.278891073010e-06 0.0 
4.278891073010e-06 7.651283935570e-04 0.0 
0.0 0.0 0.0 
-2.748682382903e-05 -3.741997634185e-06 0.0 
-3.741997634185e-06 7.623476395289e-04 0.0 
0.0 0.0 0.0 
-2.997297411755e-05 -4.295802554438e-06 0.0 
-4.295802554438e-06 7.629153916859e-04 0.0 
0.0 0.0 0.0 
-2.823254785567e-05 -3.870919675712e-06 0.0 
-3.870919675712e-06 7.625941736051e-04 0.0 
0.0 0.0 0.0 
-3.126299220724e-05 -4.467447589659e-06 0.0 
-4.467447589659e-06 7.633220854424e-04 0.0 
0.0 0.0 0.0 
-2.911326435173e-05 -3.930222525618e-06 0.0 
-3.930222525618e-06 7.628640384880e-04 0.0 
0.0 0.0 0.0 
-3.257434925286e-05 -4.565564414543e-06 0.0 
-4.565564414543e-06 7.636704914451e-04 0.0 
0.0 0.0 0.0 
-3.779034121920e-05 5.411601174197e-06 0.0 
5.411601174197e-06 7.430027161970e-04 0.0 
0.0 0.0 0.0 
-3.009387639707e-05 -3.800747934083e-06 0.0 
-3.800747934083e-06 7.629883589999e-04 0.0 
0.0 0.0 0.0 
-3.408222972734e-05 -4.416205335465e-06 0.0 
-4.416205335465e-06 7.639746849943e-04 0.0 
0.0 0.0 0.0 
-3.122221708762e-05 -3.426382149505e-06 0.0 
-3.426382149505e-06 7.630292110883e-04 0.0 
0.0 0.0 0.0 
-3.585252549654e-05 -4.090229084716e-06 0.0 
-4.090229084716e-06 7.641225153754e-04 0.0 
0.0 0.0 0.0 
-3.239777562702e-05 -2.507742945302e-06 0.0 
-2.507742945302e-06 7.625915682190e-04 0.0 
0.0 0.0 0.0 
-3.717662514346e-05 -2.525780945889e-06 0.0 
-2.525780945889e-06 7.644357588106e-04 0.0 
0.0 0.0 0.0 
-3.424663344354e-05 -1.298628628654e-06 0.0 
-1.298628628654e-06 7.631033644899e-04 0.0 
0.0 0.0 0.0 
-4.038740651557e-05 -1.812865804727e-06 0.0 
-1.812865804727e-06 7.646969581847e-04 0.0 
0.0 0.0 0.0 
-3.980839453965e-05 1.695143112895e-06 0.0 
1.695143112895e-06 7.645385961459e-04 0.0 
0.0 0.0 0.0 
-3.580279813575e-05 6.401522797884e-07 0.0 
6.401522797884e-07 7.620010063765e-04 0.0 
0.0 0.0 0.0 
-4.285557327977e-05 9.523265584505e-06 0.0 
9.523265584505e-06 7.709342319497e-04 0.0 
0.0 0.0 0.0 
-3.871860220783e-05 3.226843646918e-06 0.0 
3.226843646918e-06 7.630398069520e-04 0.0 
0.0 0.0 0.0 
-4.078107103600e-05 4.806169399510e-06 0.0 
4.806169399510e-06 7.439496317481e-04 0.0 
0.0 0.0 0.0 
-2.770244897399e-05 -8.656765648601e-06 0.0 
-8.656765648601e-06 7.632620296236e-04 0.0 
0.0 0.0 0.0 
-2.288455869270e-05 7.818493713485e-06 0.0 
7.818493713485e-06 7.546317788001e-04 0.0 
0.0 0.0 0.0 
-2.554464121118e-05 -1.159254131270e-06 0.0 
-1.159254131270e-06 7.758309110779e-04 0.0 
0.0 0.0 0.0 
-2.497415921143e-05 6.193881028897e-07 0.0 
6.193881028897e-07 7.425799493526e-04 0.0 
0.0 0.0 0.0 
-4.020537972260e-05 9.633762955940e-06 0.0 
9.633762955940e-06 7.394882200566e-04 0.0 
0.0 0.0 0.0 
-2.642712267231e-05 -2.460271256573e-06 0.0 
-2.460271256573e-06 8.313749559863e-04 0.0 
0.0 0.0 0.0 
-2.560800163864e-05 2.945429764448e-07 0.0 
2.945429764448e-07 8.254638351299e-04 0.0 
0.0 0.0 0.0 
-2.588790773084e-05 -1.314288800830e-06 0.0 
-1.314288800830e-06 8.252755293365e-04 0.0 
0.0 0.0 0.0 
-2.562743249634e-05 -1.257668132325e-06 0.0 
-1.257668132325e-06 8.249557429441e-04 0.0 
0.0 0.0 0.0 
-2.627054233639e-05 -1.099610591095e-06 0.0 
-1.099610591095e-06 8.249886423619e-04 0.0 
0.0 0.0 0.0 
-2.595971613595e-05 -1.438205646793e-06 0.0 
-1.438205646793e-06 8.253441703316e-04 0.0 
0.0 0.0 0.0 
-2.694562013983e-05 -1.495432501717e-06 0.0 
-1.495432501717e-06 8.253443509194e-04 0.0 
0.0 0.0 0.0 
-2.626272103479e-05 -1.803330399779e-06 0.0 
-1.803330399779e-06 8.253727735039e-04 0.0 
0.0 0.0 0.0 
-2.725998903363e-05 -1.565232478545e-06 0.0 
-1.565232478545e-06 8.254643695187e-04 0.0 
0.0 0.0 0.0 
-2.678063375694e-05 -1.960488522381e-06 0.0 
-1.960488522381e-06 8.257902803928e-04 0.0 
0.0 0.0 0.0 
-2.823638008997e-05 -1.821114606500e-06 0.0 
-1.821114606500e-06 8.258848058476e-04 0.0 
0.0 0.0 0.0 
-2.737231794248e-05 -2.230750921786e-06 0.0 
-2.230750921786e-06 8.259905073780e-04 0.0 
0.0 0.0 0.0 
-2.896339885239e-05 -1.833903156516e-06 0.0 
-1.833903156516e-06 8.262213572918e-04 0.0 
0.0 0.0 0.0 
-4.578251994625e-05 2.639356060945e-06 0.0 
2.639356060945e-06 8.324583540240e-04 0.0 
0.0 0.0 0.0 
-2.822949977266e-05 -2.374777680772e-06 0.0 
-2.374777680772e-06 8.266194112547e-04 0.0 
0.0 0.0 0.0 
-3.031051436786e-05 -2.379583256122e-06 0.0 
-2.379583256122e-06 8.267323616880e-04 0.0 
0.0 0.0 0.0 
-3.980839453965e-05 4.967635817681e-06 0.0 
4.967635817681e-06 8.089150011505e-04 0.0 
0.0 0.0 0.0 
-2.893619093380e-05 -2.674032388902e-06 0.0 
-2.674032388902e-06 8.264223369296e-04 0.0 
0.0 0.0 0.0 
-3.128674356623e-05 -2.140488161567e-06 0.0 
-2.140488161567e-06 8.268695028724e-04 0.0 
0.0 0.0 0.0 
-4.195197570722e-05 4.714362311791e-06 0.0 
4.714362311791e-06 8.294257117134e-04 0.0 
0.0 0.0 0.0 
-2.997297411755e-05 -2.534490242338e-06 0.0 
-2.534490242338e-06 8.267711293370e-04 0.0 
0.0 0.0 0.0 
-3.286135146807e-05 -1.900063861806e-06 0.0 
-1.900063861806e-06 8.273941809576e-04 0.0 
0.0 0.0 0.0 
-3.126299220724e-05 -2.355428807022e-06 0.0 
-2.355428807022e-06 8.272788338339e-04 0.0 
0.0 0.0 0.0 
-3.448030736086e-05 -1.896922893352e-06 0.0 
-1.896922893352e-06 8.279122746269e-04 0.0 
0.0 0.0 0.0 
-3.257434925286e-05 -2.083659881357e-06 0.0 
-2.083659881357e-06 8.273559379570e-04 0.0 
0.0 0.0 0.0 
-4.324145505430e-05 8.427670027780e-06 0.0 
8.427670027780e-06 8.359403307934e-04 0.0 
0.0 0.0 0.0 
-3.605024379572e-05 -1.477886540328e-06 0.0 
-1.477886540328e-06 8.282165260711e-04 0.0 
0.0 0.0 0.0 
-3.408222972734e-05 -1.437322829930e-06 0.0 
-1.437322829930e-06 8.274156444250e-04 0.0 
0.0 0.0 0.0 
-3.585252549654e-05 -5.470069473461e-07 0.0 
-5.470069473461e-07 8.275964554074e-04 0.0 
0.0 0.0 0.0 
-3.805082899799e-05 -7.116208600999e-07 0.0 
-7.116208600999e-07 8.285507774852e-04 0.0 
0.0 0.0 0.0 
-3.717662514346e-05 1.117805729414e-06 0.0 
1.117805729414e-06 8.257055159671e-04 0.0 
0.0 0.0 0.0 
-4.073116732639e-05 -4.168875554324e-07 0.0 
-4.168875554324e-07 8.285307871196e-04 0.0 
0.0 0.0 0.0 
-4.038740651557e-05 3.680463207762e-06 0.0 
3.680463207762e-06 8.281061512132e-04 0.0 
0.0 0.0 0.0 
-4.004452667727e-05 3.415246097394e-06 0.0 
3.415246097394e-06 8.282908680606e-04 0.0 
0.0 0.0 0.0 
-4.157006792538e-05 4.376631720759e-06 0.0 
4.376631720759e-06 8.090084729826e-04 0.0 
0.0 0.0 0.0 
-2.291364661378e-05 -8.397188235058e-06 0.0 
-8.397188235058e-06 8.224071423923e-04 0.0 
0.0 0.0 0.0 
-2.827680994055e-05 8.151644356276e-06 0.0 
8.151644356276e-06 8.320007863913e-04 0.0 
0.0 0.0 0.0 
-2.554464121118e-05 -9.343792139329e-07 0.0 
-9.343792139329e-07 8.103990192720e-04 0.0 
0.0 0.0 0.0 
-2.572860833494e-05 1.046962374267e-06 0.0 
1.046962374267e-06 8.433917161659e-04 0.0 
0.0 0.0 0.0 
-4.179739373200e-05 8.032509254727e-06 0.0 
8.032509254727e-06 8.054094269003e-04 0.0 
0.0 0.0 0.0 
-2.642712267231e-05 -2.895081323688e-06 0.0 
-2.895081323688e-06 8.853272761058e-04 0.0 
0.0 0.0 0.0 
-2.515390720093e-05 -3.367491966826e-07 0.0 
-3.367491966826e-07 8.890151291039e-04 0.0 
0.0 0.0 0.0 
-2.588790773084e-05 -7.346491413262e-07 0.0 
-7.346491413262e-07 8.890644806563e-04 0.0 
0.0 0.0 0.0 
-2.633216183834e-05 -6.221664903346e-07 0.0 
-6.221664903346e-07 8.896389111281e-04 0.0 
0.0 0.0 0.0 
-2.627054233639e-05 -5.780984911422e-07 0.0 
-5.780984911422e-07 8.896306546859e-04 0.0 
0.0 0.0 0.0 
-2.680917275488e-05 -4.250603744213e-07 0.0 
-4.250603744213e-07 8.903200708925e-04 0.0 
0.0 0.0 0.0 
-2.694562013983e-05 -1.008401592763e-06 0.0 
-1.008401592763e-06 8.904592161949e-04 0.0 
0.0 0.0 0.0 
-2.694487615096e-05 -1.207244994211e-06 0.0 
-1.207244994211e-06 8.901194714870e-04 0.0 
0.0 0.0 0.0 
-2.725998903363e-05 -6.901493029594e-07 0.0 
-6.901493029594e-07 8.899741992439e-04 0.0 
0.0 0.0 0.0 
-2.784462684557e-05 -4.619558067619e-07 0.0 
-4.619558067619e-07 8.907465491241e-04 0.0 
0.0 0.0 0.0 
-2.823638008997e-05 -8.263683946121e-07 0.0 
-8.263683946121e-07 8.908873652596e-04 0.0 
0.0 0.0 0.0 
-2.900184071108e-05 -1.027944061685e-06 0.0 
-1.027944061685e-06 8.910499326196e-04 0.0 
0.0 0.0 0.0 
-4.571619503868e-05 2.803041183195e-06 0.0 
2.803041183195e-06 8.974242215032e-04 0.0 
0.0 0.0 0.0 
-2.896339885239e-05 -6.401758480859e-07 0.0 
-6.401758480859e-07 8.908886338994e-04 0.0 
0.0 0.0 0.0 
-4.262118273524e-05 5.611014175838e-06 0.0 
5.611014175838e-06 8.943441953611e-04 0.0 
0.0 0.0 0.0 
-2.901702433877e-05 -2.591862521085e-07 0.0 
-2.591862521085e-07 8.915026827183e-04 0.0 
0.0 0.0 0.0 
-3.031051436786e-05 -5.287507946736e-07 0.0 
-5.287507946736e-07 8.917011485252e-04 0.0 
0.0 0.0 0.0 
-3.177584514424e-05 -9.737869162157e-07 0.0 
-9.737869162157e-07 8.918389256263e-04 0.0 
0.0 0.0 0.0 
-3.128674356623e-05 -7.674576011908e-08 0.0 
-7.674576011908e-08 8.913297505269e-04 0.0 
0.0 0.0 0.0 
-3.331481462310e-05 -4.866993477763e-08 0.0 
-4.866993477763e-08 8.923799137415e-04 0.0 
0.0 0.0 0.0 
-3.286135146807e-05 2.696477064375e-07 0.0 
2.696477064375e-07 8.921534411539e-04 0.0 
0.0 0.0 0.0 
-3.452380461400e-05 2.558244589536e-07 0.0 
2.558244589536e-07 8.928954983818e-04 0.0 
0.0 0.0 0.0 
-4.004452667727e-05 6.055157323217e-06 0.0 
6.055157323217e-06 8.740680063608e-04 0.0 
0.0 0.0 0.0 
-3.448030736086e-05 7.645215797772e-07 0.0 
7.645215797772e-07 8.925617885083e-04 0.0 
0.0 0.0 0.0 
-3.636221231618e-05 5.739660035848e-07 0.0 
5.739660035848e-07 8.931031127786e-04 0.0 
0.0 0.0 0.0 
-3.605024379572e-05 1.749679721310e-06 0.0 
1.749679721310e-06 8.922343360829e-04 0.0 
0.0 0.0 0.0 
-3.800631814388e-05 1.905776684172e-06 0.0 
1.905776684172e-06 8.931733804174e-04 0.0 
0.0 0.0 0.0 
-4.002642844547e-05 3.866949253031e-06 0.0 
3.866949253031e-06 8.934898507778e-04 0.0 
0.0 0.0 0.0 
-3.805082899799e-05 3.286844897592e-06 0.0 
3.286844897592e-06 8.921237766406e-04 0.0 
0.0 0.0 0.0 
-4.073116732639e-05 4.796598952521e-06 0.0 
4.796598952521e-06 8.928437455069e-04 0.0 
0.0 0.0 0.0 
-4.231915616804e-05 8.358940087464e-06 0.0 
8.358940087464e-06 9.007271826798e-04 0.0 
0.0 0.0 0.0 
-4.070862242278e-05 5.304711718147e-06 0.0 
5.304711718147e-06 8.732875150592e-04 0.0 
0.0 0.0 0.0 
-2.785347177992e-05 -7.500497362546e-06 0.0 
-7.500497362546e-06 8.901748870407e-04 0.0 
0.0 0.0 0.0 
-2.476091721004e-05 8.909316268824e-06 0.0 
8.909316268824e-06 8.846314584230e-04 0.0 
0.0 0.0 0.0 
-2.682328467141e-05 3.488596575942e-07 0.0 
3.488596575942e-07 9.044413951658e-04 0.0 
0.0 0.0 0.0 
-2.572860833494e-05 1.381863008223e-06 0.0 
1.381863008223e-06 8.709309484904e-04 0.0 
0.0 0.0 0.0 
-4.195197570722e-05 7.636577781854e-06 0.0 
7.636577781854e-06 8.714719883327e-04 0.0 
0.0 0.0 0.0 

TENSORS element_materi_strain_plasti float
-7.112834060814e-05 3.514287460403e-05 0.0 
3.514287460403e-05 4.221004333340e-04 0.0 
0.0 0.0 -6.331083958573e-05 
-5.846555959083e-05 -3.955396469031e-05 0.0 
-3.955396469031e-05 3.778270157352e-04 0.0 
0.0 0.0 -6.454996159239e-05 
-1.889012089990e-04 -4.635760778403e-06 0.0 
-4.635760778403e-06 1.261715003762e-03 0.0 
0.0 0.0 -1.917354871627e-04 
-1.892197240299e-04 -2.621872887778e-05 0.0 
-2.621872887778e-05 1.272074442975e-03 0.0 
0.0 0.0 -1.883397590782e-04 
-1.197492232907e-04 3.454635042166e-05 0.0 
3.454635042166e-05 7.881734594548e-04 0.0 
0.0 0.0 -1.194279202642e-04 
-3.089019924433e-05 3.311410509038e-05 0.0 
3.311410509038e-05 1.513652850395e-04 0.0 
0.0 0.0 -2.690189283898e-05 
-1.181845121128e-04 4.042873295375e-05 0.0 
4.042873295375e-05 7.806844228614e-04 0.0 
0.0 0.0 -1.201653584795e-04 
-6.192381097420e-05 6.121385101826e-06 0.0 
6.121385101826e-06 4.031113170469e-04 0.0 
0.0 0.0 -6.068503909357e-05 
-1.204422882212e-04 -4.316649774326e-05 0.0 
-4.316649774326e-05 7.921064928151e-04 0.0 
0.0 0.0 -1.196685615722e-04 
-1.872884217324e-04 3.363141611130e-05 0.0 
3.363141611130e-05 1.259931992447e-03 0.0 
0.0 0.0 -1.879590212157e-04 
-1.310105652939e-04 2.220654670134e-05 0.0 
2.220654670134e-05 8.586450598517e-04 0.0 
0.0 0.0 -1.322476557103e-04 
-5.719807020115e-05 3.286461856494e-08 0.0 
3.286461856494e-08 3.230799459092e-04 0.0 
0.0 0.0 -5.602547750609e-05 
-1.877824496395e-04 3.388580337900e-05 0.0 
3.388580337900e-05 1.270169470641e-03 0.0 
0.0 0.0 -1.888781569884e-04 
-1.271872132406e-04 2.790230920199e-05 0.0 
2.790230920199e-05 8.458021199286e-04 0.0 
0.0 0.0 -1.278925217316e-04 
-1.932284152260e-04 -2.749272838120e-05 0.0 
-2.749272838120e-05 1.293984431102e-03 0.0 
0.0 0.0 -1.934308312547e-04 
-1.951772105051e-04 3.059468724474e-05 0.0 
3.059468724474e-05 1.293909326463e-03 0.0 
0.0 0.0 -1.928977411855e-04 
-1.183364621444e-04 7.034029580759e-07 0.0 
7.034029580759e-07 7.884128395372e-04 0.0 
0.0 0.0 -1.161101519611e-04 
-2.611548289249e-05 -2.976881314846e-05 0.0 
-2.976881314846e-05 1.366026820107e-04 0.0 
0.0 0.0 -2.739356786257e-05 
-4.655901900947e-05 -1.783274604704e-05 0.0 
-1.783274604704e-05 2.713105741166e-04 0.0 
0.0 0.0 -4.164025237647e-05 
-4.525890771348e-05 1.651863799484e-05 0.0 
1.651863799484e-05 2.466759593770e-04 0.0 
0.0 0.0 -4.546658199970e-05 
-1.855467270519e-04 -3.410013315625e-05 0.0 
-3.410013315625e-05 1.271232436366e-03 0.0 
0.0 0.0 -1.875582398551e-04 
-7.183248799894e-05 1.385365681385e-05 0.0 
1.385365681385e-05 4.407830654411e-04 0.0 
0.0 0.0 -7.216713101957e-05 
-7.730219154025e-05 -1.500465902034e-05 0.0 
-1.500465902034e-05 4.983174969402e-04 0.0 
0.0 0.0 -7.637334323853e-05 
-1.811871610611e-04 -2.281549761052e-05 0.0 
-2.281549761052e-05 1.217872226341e-03 0.0 
0.0 0.0 -1.815559455716e-04 
-1.350733973102e-04 3.295465992380e-05 0.0 
3.295465992380e-05 9.016620137675e-04 0.0 
0.0 0.0 -1.369648256180e-04 
-1.376188637296e-04 -2.176217058498e-05 0.0 
-2.176217058498e-05 9.243651343577e-04 0.0 
0.0 0.0 -1.376939605679e-04 
-1.069658315495e-04 -2.744737862324e-06 0.0 
-2.744737862324e-06 7.297614599069e-04 0.0 
0.0 0.0 -1.072212406194e-04 
-1.912521162051e-04 1.980335045204e-06 0.0 
1.980335045204e-06 1.305953059909e-03 0.0 
0.0 0.0 -1.899071758113e-04 
-1.362716787782e-04 -3.798939155730e-05 0.0 
-3.798939155730e-05 9.083018994538e-04 0.0 
0.0 0.0 -1.367086240186e-04 
-1.873007466112e-04 2.251116880675e-05 0.0 
2.251116880675e-05 1.247916240988e-03 0.0 
0.0 0.0 -1.856871487262e-04 
-3.243755210516e-05 5.032771115372e-06 0.0 
5.032771115372e-06 2.086151015531e-04 0.0 
0.0 0.0 -3.278963886402e-05 
-1.654166470030e-05 4.638693750366e-06 0.0 
4.638693750366e-06 9.012172148024e-05 0.0 
0.0 0.0 -1.589633704410e-05 
-1.936928702910e-04 8.344522422306e-06 0.0 
8.344522422306e-06 1.305844555641e-03 0.0 
0.0 0.0 -1.891952015075e-04 
-1.629254088575e-04 -2.764733331880e-05 0.0 
-2.764733331880e-05 1.087637140145e-03 0.0 
0.0 0.0 -1.635300645102e-04 
-1.844440851533e-04 -3.122724235015e-05 0.0 
-3.122724235015e-05 1.269225288252e-03 0.0 
0.0 0.0 -1.882484805285e-04 
-2.000892196314e-04 5.806438950548e-05 0.0 
5.806438950548e-05 1.337814960827e-03 0.0 
0.0 0.0 -1.972329526028e-04 
-1.979323581362e-04 -6.123980485016e-05 0.0 
-6.123980485016e-05 1.334624137008e-03 0.0 
0.0 0.0 -1.971979658877e-04 
-1.876565914579e-04 2.632656749342e-05 0.0 
2.632656749342e-05 1.265796013128e-03 0.0 
0.0 0.0 -1.897108526679e-04 
-1.089254337778e-04 -4.761071042110e-05 0.0 
-4.761071042110e-05 7.109927537120e-04 0.0 
0.0 0.0 -1.107114518244e-04 
-1.094034421642e-04 5.351990132505e-05 0.0 
5.351990132505e-05 7.212963119965e-04 0.0 
0.0 0.0 -1.105676175232e-04 
-8.675634194158e-05 -2.048772068430e-05 0.0 
-2.048772068430e-05 5.676637230470e-04 0.0 
0.0 0.0 -8.691834785005e-05 
-1.894316575551e-04 1.529535291875e-06 0.0 
1.529535291875e-06 1.267582633286e-03 0.0 
0.0 0.0 -1.921134732322e-04 
-4.839148529355e-05 3.269211206116e-05 0.0 
3.269211206116e-05 2.885062742471e-04 0.0 
0.0 0.0 -4.811778726964e-05 
-1.084239785972e-04 8.299246254447e-06 0.0 
8.299246254447e-06 6.943716908755e-04 0.0 
0.0 0.0 -1.102508860907e-04 
-1.837583847109e-04 -1.472486193336e-05 0.0 
-1.472486193336e-05 1.244009219740e-03 0.0 
0.0 0.0 -1.819287770889e-04 
-4.809827435414e-05 -2.856413507896e-05 0.0 
-2.856413507896e-05 2.876955400614e-04 0.0 
0.0 0.0 -4.797639238285e-05 
-2.674214069171e-05 -6.567095403776e-07 0.0 
-6.567095403776e-07 1.170205921082e-04 0.0 
0.0 0.0 -2.746289347828e-05 
-1.830752196458e-04 9.475420572823e-06 0.0 
9.475420572823e-06 1.215993436390e-03 0.0 
0.0 0.0 -1.852115035180e-04 
-1.474418981779e-05 6.875922652760e-07 0.0 
6.875922652760e-07 4.915161551588e-05 0.0 
0.0 0.0 -1.474603958490e-05 
-1.203307146343e-04 -2.717995598574e-05 0.0 
-2.717995598574e-05 8.158947777103e-04 0.0 
0.0 0.0 -1.234415444935e-04 
-8.234981639965e-05 -1.699589320995e-05 0.0 
-1.699589320995e-05 5.359221535030e-04 0.0 
0.0 0.0 -8.161374715243e-05 
-5.082688459540e-05 -1.056431694294e-05 0.0 
-1.056431694294e-05 3.372053744103e-04 0.0 
0.0 0.0 -5.165715595373e-05 
-4.611236241503e-05 -2.201694224577e-05 0.0 
-2.201694224577e-05 2.721561722188e-04 0.0 
0.0 0.0 -4.571843846580e-05 
-8.132390918315e-05 1.940323008173e-05 0.0 
1.940323008173e-05 5.127711064819e-04 0.0 
0.0 0.0 -8.234191315183e-05 
-1.899869588384e-04 -1.183985275253e-06 0.0 
-1.183985275253e-06 1.270300843848e-03 0.0 
0.0 0.0 -1.923283752319e-04 
-6.895815039131e-05 -2.178280864622e-05 0.0 
-2.178280864622e-05 4.406253786073e-04 0.0 
0.0 0.0 -6.768350264862e-05 
-5.417817485919e-05 2.166263208896e-05 0.0 
2.166263208896e-05 3.190902094138e-04 0.0 
0.0 0.0 -5.541318120416e-05 
-1.632126763507e-04 2.740636426442e-05 0.0 
2.740636426442e-05 1.093574435161e-03 0.0 
0.0 0.0 -1.631601065255e-04 
-3.323583887555e-05 3.269521201795e-06 0.0 
3.269521201795e-06 2.033859620122e-04 0.0 
0.0 0.0 -3.284525368658e-05 
-1.937347679597e-04 -3.087303565399e-05 0.0 
-3.087303565399e-05 1.295743109935e-03 0.0 
0.0 0.0 -1.927980053726e-04 
-1.410948374280e-05 -1.895108414919e-05 0.0 
-1.895108414919e-05 7.768302090073e-05 0.0 
0.0 0.0 -1.429900283189e-05 
-1.810662248895e-04 3.422591082853e-05 0.0 
3.422591082853e-05 1.214874210850e-03 0.0 
0.0 0.0 -1.816237070315e-04 
-8.260879868620e-05 3.395540134069e-05 0.0 
3.395540134069e-05 5.200982356105e-04 0.0 
0.0 0.0 -8.245627511043e-05 
-3.949603130373e-05 1.817463478044e-05 0.0 
1.817463478044e-05 2.392386227040e-04 0.0 
0.0 0.0 -4.154126471103e-05 
-1.880584302466e-04 -2.737021915549e-05 0.0 
-2.737021915549e-05 1.269816799986e-03 0.0 
0.0 0.0 -1.886217783130e-04 
-7.828481688491e-05 1.568948501134e-05 0.0 
1.568948501134e-05 4.753725480920e-04 0.0 
0.0 0.0 -7.706359040663e-05 
-9.040619779534e-06 6.808328067989e-06 0.0 
6.808328067989e-06 3.080905476409e-05 0.0 
0.0 0.0 -9.329329279096e-06 
-1.897461617520e-04 -1.190223513879e-05 0.0 
-1.190223513879e-05 1.300793159363e-03 0.0 
0.0 0.0 -1.892491279630e-04 
-3.670459678346e-05 -3.155058415611e-05 0.0 
-3.155058415611e-05 2.097964586862e-04 0.0 
0.0 0.0 -3.606465181366e-05 
-1.910292024481e-04 -5.680018839651e-07 0.0 
-5.680018839651e-07 1.267292748539e-03 0.0 
0.0 0.0 -1.923564682915e-04 
-1.423720417950e-04 -2.542418638308e-05 0.0 
-2.542418638308e-05 9.582298228247e-04 0.0 
0.0 0.0 -1.433443585977e-04 
-2.007748921200e-04 -7.173616599769e-07 0.0 
-7.173616599769e-07 1.325499155450e-03 0.0 
0.0 0.0 -2.007748921200e-04 
-1.856237250837e-04 2.519587703745e-07 0.0 
2.519587703745e-07 1.217908679066e-03 0.0 
0.0 0.0 -1.849363666885e-04 
-1.959401746035e-05 3.302488870378e-05 0.0 
3.302488870378e-05 8.419396161668e-05 0.0 
0.0 0.0 -1.942930455437e-05 
-7.294356160709e-05 2.278666566635e-05 0.0 
2.278666566635e-05 4.423978020253e-04 0.0 
0.0 0.0 -7.166057984914e-05 
-1.881200936435e-04 -2.597496456892e-05 0.0 
-2.597496456892e-05 1.274260032451e-03 0.0 
0.0 0.0 -1.893940471826e-04 
-1.918449780582e-04 -8.194598920860e-07 0.0 
-8.194598920860e-07 1.307445909733e-03 0.0 
0.0 0.0 -1.898028072996e-04 
-3.750417093390e-05 -2.856125910662e-05 0.0 
-2.856125910662e-05 2.170807613547e-04 0.0 
0.0 0.0 -3.765846754783e-05 
-3.201050297440e-05 -1.804321051782e-06 0.0 
-1.804321051782e-06 1.678376622842e-04 0.0 
0.0 0.0 -3.550136840268e-05 
-3.928328821311e-05 3.001435520315e-05 0.0 
3.001435520315e-05 2.151736419894e-04 0.0 
0.0 0.0 -3.788339401932e-05 
-3.841727809162e-05 3.259876760906e-05 0.0 
3.259876760906e-05 1.973706613177e-04 0.0 
0.0 0.0 -3.659988700710e-05 
-1.163465053479e-04 4.799891796781e-06 0.0 
4.799891796781e-06 7.474963377636e-04 0.0 
0.0 0.0 -1.187754596314e-04 
-7.387818471422e-05 -1.490180971543e-05 0.0 
-1.490180971543e-05 4.683625195835e-04 0.0 
0.0 0.0 -7.124103466145e-05 
-6.818690854033e-05 3.229042439658e-06 0.0 
3.229042439658e-06 3.926939187943e-04 0.0 
0.0 0.0 -6.657494268075e-05 
-1.280956191016e-04 -3.699964442022e-05 0.0 
-3.699964442022e-05 8.260012594816e-04 0.0 
0.0 0.0 -1.250515658111e-04 
-1.265295814047e-04 3.342378051017e-05 0.0 
3.342378051017e-05 8.211688879782e-04 0.0 
0.0 0.0 -1.253711530225e-04 
-1.484422711167e-04 -2.770915871896e-05 0.0 
-2.770915871896e-05 9.841615042540e-04 0.0 
0.0 0.0 -1.480066387926e-04 
-1.583372546511e-04 2.913712885410e-05 0.0 
2.913712885410e-05 1.064432221446e-03 0.0 
0.0 0.0 -1.587865244471e-04 
-1.631334298294e-04 -3.149814825206e-05 0.0 
-3.149814825206e-05 1.098864964118e-03 0.0 
0.0 0.0 -1.628912057404e-04 
-1.190806096983e-04 -4.403551421918e-05 0.0 
-4.403551421918e-05 7.749316267703e-04 0.0 
0.0 0.0 -1.197484453225e-04 
-1.483799586843e-05 5.558978623438e-06 0.0 
5.558978623438e-06 4.973861707578e-05 0.0 
0.0 0.0 -1.495740908886e-05 
-1.182760976271e-04 3.125415357905e-06 0.0 
3.125415357905e-06 7.592172627745e-04 0.0 
0.0 0.0 -1.189347521933e-04 
-1.620624140011e-04 -1.653046323385e-05 0.0 
-1.653046323385e-05 1.054965702531e-03 0.0 
0.0 0.0 -1.604158976160e-04 
-1.568829102868e-04 1.686722308074e-05 0.0 
1.686722308074e-05 1.064364903998e-03 0.0 
0.0 0.0 -1.569671113975e-04 
-1.992656462665e-04 -3.194664877417e-06 0.0 
-3.194664877417e-06 1.366255928620e-03 0.0 
0.0 0.0 -1.979956382108e-04 
-1.950636109885e-04 -2.233519301319e-05 0.0 
-2.233519301319e-05 1.308516150632e-03 0.0 
0.0 0.0 -1.941292444173e-04 
-1.156817175628e-04 -1.648055008373e-05 0.0 
-1.648055008373e-05 7.482785284577e-04 0.0 
0.0 0.0 -1.183461849553e-04 
-1.927191275468e-04 -2.508365562689e-07 0.0 
-2.508365562689e-07 1.307929168688e-03 0.0 
0.0 0.0 -1.894775870554e-04 
-1.342251932282e-04 -2.319392894316e-05 0.0 
-2.319392894316e-05 8.854475909505e-04 0.0 
0.0 0.0 -1.356001284572e-04 
-7.729101182484e-05 -2.065735051107e-05 0.0 
-2.065735051107e-05 5.080668279858e-04 0.0 
0.0 0.0 -7.798198501994e-05 
-1.130620333788e-04 -2.717181399575e-05 0.0 
-2.717181399575e-05 7.549273825549e-04 0.0 
0.0 0.0 -1.146493908758e-04 
-1.950077973870e-04 2.900722902877e-05 0.0 
2.900722902877e-05 1.296464444951e-03 0.0 
0.0 0.0 -1.931276724533e-04 
-1.563208394466e-04 -3.328202351934e-05 0.0 
-3.328202351934e-05 1.049294579874e-03 0.0 
0.0 0.0 -1.565627933380e-04 
-1.819468009343e-04 -3.224668000663e-05 0.0 
-3.224668000663e-05 1.222740499621e-03 0.0 
0.0 0.0 -1.814398861444e-04 
-7.158014488702e-05 -3.063000169944e-05 0.0 
-3.063000169944e-05 4.571234338187e-04 0.0 
0.0 0.0 -7.121314524778e-05 
-2.401359942616e-05 8.661927370116e-06 0.0 
8.661927370116e-06 1.537990966386e-04 0.0 
0.0 0.0 -2.437345913331e-05 
-1.778980369956e-04 -2.992010737325e-05 0.0 
-2.992010737325e-05 1.196087071121e-03 0.0 
0.0 0.0 -1.784854310292e-04 
-1.679646052206e-04 1.093794452522e-05 0.0 
1.093794452522e-05 1.134281409959e-03 0.0 
0.0 0.0 -1.663185871606e-04 
-1.591223534516e-05 -6.661850777305e-06 0.0 
-6.661850777305e-06 9.101730959340e-05 0.0 
0.0 0.0 -1.557197371984e-05 
-1.881889712418e-04 -1.290050336167e-05 0.0 
-1.290050336167e-05 1.273792918307e-03 0.0 
0.0 0.0 -1.927691970005e-04 
-1.581915922847e-04 2.746019073347e-05 0.0 
2.746019073347e-05 1.044290574645e-03 0.0 
0.0 0.0 -1.577237574333e-04 
-1.522398741045e-05 -2.545037373997e-05 0.0 
-2.545037373997e-05 5.739303510054e-05 0.0 
0.0 0.0 -1.520280724627e-05 
-9.452563605332e-05 3.135471664961e-05 0.0 
3.135471664961e-05 6.036525676249e-04 0.0 
0.0 0.0 -9.464897897786e-05 
-1.065966120753e-04 -2.205603569538e-05 0.0 
-2.205603569538e-05 7.064327249630e-04 0.0 
0.0 0.0 -1.073087759210e-04 
-8.739882265024e-05 -1.070352948316e-05 0.0 
-1.070352948316e-05 5.348438843142e-04 0.0 
0.0 0.0 -8.658563305536e-05 
-7.050193455009e-05 2.512487401893e-05 0.0 
2.512487401893e-05 4.479548223167e-04 0.0 
0.0 0.0 -7.278598402964e-05 
-8.197347761458e-05 -3.364821245799e-05 0.0 
-3.364821245799e-05 5.279356728588e-04 0.0 
0.0 0.0 -8.207734578087e-05 
-1.943526740554e-04 1.658812663972e-05 0.0 
1.658812663972e-05 1.282091895606e-03 0.0 
0.0 0.0 -1.925749600208e-04 
-1.285507174143e-04 2.792411837159e-05 0.0 
2.792411837159e-05 8.722892326704e-04 0.0 
0.0 0.0 -1.315046391038e-04 
-7.635084208109e-05 3.539223257155e-05 0.0 
3.539223257155e-05 4.849768366675e-04 0.0 
0.0 0.0 -7.683710038160e-05 
-3.602345366775e-05 -3.490773875451e-05 0.0 
-3.490773875451e-05 2.028232612913e-04 0.0 
0.0 0.0 -3.442901837107e-05 
-1.143531422852e-04 1.924554056095e-05 0.0 
1.924554056095e-05 7.838716458168e-04 0.0 
0.0 0.0 -1.161738141813e-04 
-1.655806278350e-04 -1.376876940895e-05 0.0 
-1.376876940895e-05 1.108151184003e-03 0.0 
0.0 0.0 -1.693933130199e-04 
-7.665289294717e-05 -3.764080062832e-05 0.0 
-3.764080062832e-05 4.894086693533e-04 0.0 
0.0 0.0 -7.664586338968e-05 
-2.552121638192e-05 -2.302083249112e-05 0.0 
-2.302083249112e-05 1.475281213149e-04 0.0 
0.0 0.0 -2.705574766418e-05 
-9.705129782474e-05 -2.284636133005e-05 0.0 
-2.284636133005e-05 6.381494146743e-04 0.0 
0.0 0.0 -9.705601970096e-05 
-8.718862749644e-05 1.081562517566e-05 0.0 
1.081562517566e-05 5.609465076163e-04 0.0 
0.0 0.0 -8.368277571756e-05 
-9.188005610208e-05 2.337172912127e-05 0.0 
2.337172912127e-05 5.885957333175e-04 0.0 
0.0 0.0 -9.250784895245e-05 
-1.937480155634e-04 2.484993040014e-05 0.0 
2.484993040014e-05 1.298240083639e-03 0.0 
0.0 0.0 -1.936007957173e-04 
-3.355945300028e-05 2.658456895858e-05 0.0 
2.658456895858e-05 1.727565400742e-04 0.0 
0.0 0.0 -3.138407094312e-05 
-1.371246585787e-04 2.526301025991e-05 0.0 
2.526301025991e-05 9.050145966039e-04 0.0 
0.0 0.0 -1.382526569903e-04 
-1.907913629677e-04 3.443386103192e-05 0.0 
3.443386103192e-05 1.270684136511e-03 0.0 
0.0 0.0 -1.885035411211e-04 
-9.913884905617e-05 2.644976598077e-05 0.0 
2.644976598077e-05 6.359580153606e-04 0.0 
0.0 0.0 -9.883099357817e-05 
-9.221379330775e-05 -2.325684599943e-05 0.0 
-2.325684599943e-05 6.043674081660e-04 0.0 
0.0 0.0 -9.208844699642e-05 
-1.862615746056e-04 3.781096829900e-05 0.0 
3.781096829900e-05 1.269973218665e-03 0.0 
0.0 0.0 -1.882446207449e-04 
-1.884096905909e-04 -3.934674872020e-05 0.0 
-3.934674872020e-05 1.273205454370e-03 0.0 
0.0 0.0 -1.891606461478e-04 
-1.485481393432e-04 2.662002390059e-05 0.0 
2.662002390059e-05 9.835102888330e-04 0.0 
0.0 0.0 -1.481056985806e-04 
-1.041353074706e-04 -2.625300288913e-05 0.0 
-2.625300288913e-05 6.829723859406e-04 0.0 
0.0 0.0 -1.037420806291e-04 
-1.908037455824e-04 1.095423421666e-05 0.0 
1.095423421666e-05 1.307953283663e-03 0.0 
0.0 0.0 -1.905495916442e-04 
-9.518883604242e-05 2.687623025881e-05 0.0 
2.687623025881e-05 6.089232024020e-04 0.0 
0.0 0.0 -9.489072104906e-05 
-1.881130056819e-04 -1.198635265848e-06 0.0 
-1.198635265848e-06 1.269458159220e-03 0.0 
0.0 0.0 -1.924761743472e-04 
-1.914420449492e-04 1.145005922615e-05 0.0 
1.145005922615e-05 1.305589104302e-03 0.0 
0.0 0.0 -1.901156060054e-04 
-1.284773038693e-04 -4.042952323759e-05 0.0 
-4.042952323759e-05 8.353342118354e-04 0.0 
0.0 0.0 -1.281556075638e-04 
-1.456984047061e-04 2.919513868125e-05 0.0 
2.919513868125e-05 9.798728505287e-04 0.0 
0.0 0.0 -1.472674707441e-04 
-9.472925069399e-05 -2.740497223510e-05 0.0 
-2.740497223510e-05 6.169641832868e-04 0.0 
0.0 0.0 -9.439783777044e-05 
-8.853676466141e-05 2.434547469191e-05 0.0 
2.434547469191e-05 5.534202716498e-04 0.0 
0.0 0.0 -8.745362067080e-05 
-1.087467394465e-04 2.713932785839e-05 0.0 
2.713932785839e-05 7.009636801692e-04 0.0 
0.0 0.0 -1.081789848988e-04 
-8.105832168209e-05 -2.534314576398e-05 0.0 
-2.534314576398e-05 5.269671489274e-04 0.0 
0.0 0.0 -8.074562716359e-05 
-1.149166540237e-04 -2.952745104752e-05 0.0 
-2.952745104752e-05 7.749980976508e-04 0.0 
0.0 0.0 -1.154098978710e-04 
-9.441274236993e-05 -3.245636207382e-05 0.0 
-3.245636207382e-05 6.148929569629e-04 0.0 
0.0 0.0 -9.412559131899e-05 
-1.356916071786e-05 -1.098912209053e-05 0.0 
-1.098912209053e-05 4.639558825144e-05 0.0 
0.0 0.0 -1.406846894296e-05 
-1.232833288672e-04 -2.043397575373e-06 0.0 
-2.043397575373e-06 8.352777480186e-04 0.0 
0.0 0.0 -1.225661908866e-04 
-4.062993237950e-05 4.703139556520e-07 0.0 
4.703139556520e-07 1.797601039323e-04 0.0 
0.0 0.0 -3.559753881786e-05 
-1.023820434635e-04 -2.308417346528e-05 0.0 
-2.308417346528e-05 6.740366547045e-04 0.0 
0.0 0.0 -1.021452596768e-04 
-1.900125356384e-04 6.300222620786e-07 0.0 
6.300222620786e-07 1.270960970669e-03 0.0 
0.0 0.0 -1.927194217641e-04 
-7.262888074723e-05 3.426557852476e-05 0.0 
3.426557852476e-05 4.504323440592e-04 0.0 
0.0 0.0 -7.151989320621e-05 
-1.531305076902e-04 3.065990782185e-05 0.0 
3.065990782185e-05 1.022734797488e-03 0.0 
0.0 0.0 -1.531634582904e-04 
-5.235610672335e-05 -3.331315410991e-05 0.0 
-3.331315410991e-05 3.222309724492e-04 0.0 
0.0 0.0 -5.311113487535e-05 
-1.564923507781e-04 3.552239921985e-05 0.0 
3.552239921985e-05 1.043761629599e-03 0.0 
0.0 0.0 -1.567358392781e-04 
-1.202044561882e-04 9.584736121846e-07 0.0 
9.584736121846e-07 7.504029993438e-04 0.0 
0.0 0.0 -1.184948324117e-04 
-8.921525541755e-05 3.121884924231e-05 0.0 
3.121884924231e-05 5.680733164514e-04 0.0 
0.0 0.0 -8.897195087526e-05 
-1.682691344288e-04 -3.239527776225e-05 0.0 
-3.239527776225e-05 1.126335943431e-03 0.0 
0.0 0.0 -1.681445358648e-04 
-3.271371250102e-05 2.634768306306e-05 0.0 
2.634768306306e-05 1.862670599746e-04 0.0 
0.0 0.0 -3.519564525945e-05 
-1.767977369675e-04 3.301165039377e-05 0.0 
3.301165039377e-05 1.194421621902e-03 0.0 
0.0 0.0 -1.783666864750e-04 
-1.165583599501e-04 2.698564820255e-05 0.0 
2.698564820255e-05 7.555372528015e-04 0.0 
0.0 0.0 -1.156683593961e-04 
-1.920096128522e-04 1.937461849935e-06 0.0 
1.937461849935e-06 1.307268561636e-03 0.0 
0.0 0.0 -1.898980813789e-04 
-1.182997139398e-04 3.639957619216e-06 0.0 
3.639957619216e-06 7.503854203479e-04 0.0 
0.0 0.0 -1.176390761550e-04 
-7.627591541802e-05 2.437079023937e-05 0.0 
2.437079023937e-05 4.698282448248e-04 0.0 
0.0 0.0 -7.564233511891e-05 
-1.002018332227e-04 2.315121058164e-05 0.0 
2.315121058164e-05 6.584644118649e-04 0.0 
0.0 0.0 -1.026119933064e-04 
-1.351190133783e-04 -1.871259961356e-05 0.0 
-1.871259961356e-05 8.920173210254e-04 0.0 
0.0 0.0 -1.308423732783e-04 
-5.484982403945e-05 3.705256781827e-05 0.0 
3.705256781827e-05 3.376111435306e-04 0.0 
0.0 0.0 -5.271897186252e-05 
-8.886891279122e-05 -3.169931078017e-05 0.0 
-3.169931078017e-05 5.765392386080e-04 0.0 
0.0 0.0 -8.867183110647e-05 
-1.531566637255e-04 -3.479285376154e-05 0.0 
-3.479285376154e-05 1.020094408152e-03 0.0 
0.0 0.0 -1.524697723262e-04 
-1.174942329115e-04 2.313759384433e-05 0.0 
2.313759384433e-05 7.831828593042e-04 0.0 
0.0 0.0 -1.152003355451e-04 
-8.515004989233e-05 2.567844413580e-05 0.0 
2.567844413580e-05 5.346133759294e-04 0.0 
0.0 0.0 -8.499340168425e-05 
-9.805234325585e-05 2.186136341024e-05 0.0 
2.186136341024e-05 6.234712022513e-04 0.0 
0.0 0.0 -9.747820142233e-05 
-1.698406473465e-04 3.103883884451e-05 0.0 
3.103883884451e-05 1.138199375279e-03 0.0 
0.0 0.0 -1.705088282513e-04 
-9.365555901584e-05 -8.486079120948e-06 0.0 
-8.486079120948e-06 6.269873305719e-04 0.0 
0.0 0.0 -9.283786084866e-05 
-1.904373484596e-04 8.037764301143e-06 0.0 
8.037764301143e-06 1.268105410096e-03 0.0 
0.0 0.0 -1.927803298305e-04 
-1.910376123415e-04 -5.171508508335e-06 0.0 
-5.171508508335e-06 1.305994090806e-03 0.0 
0.0 0.0 -1.898229354431e-04 
-6.861783798480e-05 -2.050379203895e-05 0.0 
-2.050379203895e-05 4.453059741638e-04 0.0 
0.0 0.0 -6.893569546425e-05 
-9.290116882094e-05 1.078568075346e-05 0.0 
1.078568075346e-05 5.964552685483e-04 0.0 
0.0 0.0 -9.578111177017e-05 
-1.736492418864e-04 -2.927710979079e-05 0.0 
-2.927710979079e-05 1.161594644870e-03 0.0 
0.0 0.0 -1.729233712160e-04 
-9.087963058823e-05 -2.352933739376e-05 0.0 
-2.352933739376e-05 5.915224073559e-04 0.0 
0.0 0.0 -9.055885391067e-05 
-6.615167518160e-05 2.470417535513e-05 0.0 
2.470417535513e-05 3.792937580834e-04 0.0 
0.0 0.0 -6.377619522508e-05 
-1.123815242548e-04 2.659716101140e-05 0.0 
2.659716101140e-05 7.274681183303e-04 0.0 
0.0 0.0 -1.116514617188e-04 
-9.023769363097e-05 -2.539356064248e-05 0.0 
-2.539356064248e-05 5.927749569100e-04 0.0 
0.0 0.0 -9.016780033359e-05 
-1.933145694824e-04 1.847750118737e-05 0.0 
1.847750118737e-05 1.271781840963e-03 0.0 
0.0 0.0 -1.918589861752e-04 
-1.590817006198e-04 2.907513750142e-05 0.0 
2.907513750142e-05 1.054056791896e-03 0.0 
0.0 0.0 -1.591037845145e-04 
-1.728367159342e-04 3.427642614804e-05 0.0 
3.427642614804e-05 1.161809866144e-03 0.0 
0.0 0.0 -1.733952315365e-04 
-4.323292157822e-05 -3.260265136202e-05 0.0 
-3.260265136202e-05 2.542139140644e-04 0.0 
0.0 0.0 -4.278232070249e-05 
-8.351564551766e-05 -2.949984641989e-05 0.0 
-2.949984641989e-05 5.399072445252e-04 0.0 
0.0 0.0 -8.337503372822e-05 
-1.628911585660e-04 2.910920340207e-05 0.0 
2.910920340207e-05 1.083707985150e-03 0.0 
0.0 0.0 -1.634180649126e-04 
-4.265741739718e-06 -2.683347671446e-06 0.0 
-2.683347671446e-06 2.779779537552e-05 0.0 
0.0 0.0 -6.679583525061e-06 
-9.202938689146e-05 2.333037747325e-05 0.0 
2.333037747325e-05 5.833864669440e-04 0.0 
0.0 0.0 -9.110806911972e-05 
-1.621301817421e-04 -3.474681827654e-05 0.0 
-3.474681827654e-05 1.087399984763e-03 0.0 
0.0 0.0 -1.621013318865e-04 
-2.647246740284e-05 -1.232636837565e-05 0.0 
-1.232636837565e-05 1.529325955368e-04 0.0 
0.0 0.0 -2.408412600064e-05 
-1.857893834714e-04 3.531775714936e-05 0.0 
3.531775714936e-05 1.270668189248e-03 0.0 
0.0 0.0 -1.886276279175e-04 
-1.456981155765e-04 2.919485646583e-05 0.0 
2.919485646583e-05 9.663206150300e-04 0.0 
0.0 0.0 -1.462443664659e-04 
-8.972960447932e-05 2.818607173368e-05 0.0 
2.818607173368e-05 5.719993527864e-04 0.0 
0.0 0.0 -8.992835211633e-05 
-1.626522217749e-04 3.588322308841e-05 0.0 
3.588322308841e-05 1.081933053943e-03 0.0 
0.0 0.0 -1.623203359564e-04 
-1.232850647809e-04 -1.534283618420e-06 0.0 
-1.534283618420e-06 8.439287432935e-04 0.0 
0.0 0.0 -1.238984763055e-04 
-1.290139728958e-04 -2.422323726664e-05 0.0 
-2.422323726664e-05 8.899156396031e-04 0.0 
0.0 0.0 -1.325791391267e-04 
-1.852665524105e-04 -2.134628668879e-05 0.0 
-2.134628668879e-05 1.242411010167e-03 0.0 
0.0 0.0 -1.856686537505e-04 
-6.834313658287e-05 3.054631191321e-05 0.0 
3.054631191321e-05 4.235028941011e-04 0.0 
0.0 0.0 -6.875374652758e-05 
-1.126229297884e-04 2.780829538386e-05 0.0 
2.780829538386e-05 7.291444854309e-04 0.0 
0.0 0.0 -1.122060228641e-04 
-1.204186006984e-04 2.647313116222e-05 0.0 
2.647313116222e-05 7.832880835705e-04 0.0 
0.0 0.0 -1.198259951250e-04 
-1.511295492835e-04 -2.883504033183e-05 0.0 
-2.883504033183e-05 1.013855965193e-03 0.0 
0.0 0.0 -1.512823234748e-04 
-1.216859479991e-04 -2.731241821125e-05 0.0 
-2.731241821125e-05 8.002184542220e-04 0.0 
0.0 0.0 -1.205399881000e-04 
-1.113723575775e-04 -2.417926787298e-05 0.0 
-2.417926787298e-05 7.331871425551e-04 0.0 
0.0 0.0 -1.112326624099e-04 
-1.413007434337e-04 -2.970279854823e-05 0.0 
-2.970279854823e-05 9.413829080689e-04 0.0 
0.0 0.0 -1.412146911137e-04 
-1.660148486685e-04 -3.109368411777e-05 0.0 
-3.109368411777e-05 1.112677337996e-03 0.0 
0.0 0.0 -1.657666289772e-04 
-1.315732548335e-05 -7.692520452241e-07 0.0 
-7.692520452241e-07 8.434115995763e-05 0.0 
0.0 0.0 -1.523807105164e-05 
-6.678617265699e-05 1.617781589415e-05 0.0 
1.617781589415e-05 4.361919367653e-04 0.0 
0.0 0.0 -6.974636312929e-05 
-7.951724172922e-05 2.782935041198e-05 0.0 
2.782935041198e-05 4.935008951510e-04 0.0 
0.0 0.0 -7.874092309440e-05 
-1.082260438161e-04 -2.691428867534e-05 0.0 
-2.691428867534e-05 7.109857938248e-04 0.0 
0.0 0.0 -1.077256579858e-04 
-1.642964652876e-04 -3.148986033885e-05 0.0 
-3.148986033885e-05 1.105967087523e-03 0.0 
0.0 0.0 -1.642614415327e-04 
-3.618362754970e-05 2.736407007723e-05 0.0 
2.736407007723e-05 2.086903937200e-04 0.0 
0.0 0.0 -3.864713111506e-05 
-1.564000420693e-04 -3.317492622528e-05 0.0 
-3.317492622528e-05 1.048657376479e-03 0.0 
0.0 0.0 -1.565033163265e-04 
-1.156497145505e-04 -3.516789011310e-05 0.0 
-3.516789011310e-05 7.502047125979e-04 0.0 
0.0 0.0 -1.164502435431e-04 
-8.397727272476e-05 2.946324581154e-05 0.0 
2.946324581154e-05 5.318825966419e-04 0.0 
0.0 0.0 -8.365175887955e-05 
-1.508856871714e-04 -3.154693635550e-05 0.0 
-3.154693635550e-05 1.010987541511e-03 0.0 
0.0 0.0 -1.509358467712e-04 
-1.992206068345e-05 -2.889614730951e-05 0.0 
-2.889614730951e-05 8.287217049266e-05 0.0 
0.0 0.0 -1.875953185269e-05 
-1.556622730397e-04 3.038739624462e-05 0.0 
3.038739624462e-05 1.034138176467e-03 0.0 
0.0 0.0 -1.560016362795e-04 
-1.437982534633e-05 1.029442077582e-05 0.0 
1.029442077582e-05 7.970629733058e-05 0.0 
0.0 0.0 -1.510781838351e-05 
-2.570586355009e-05 -7.991098502523e-07 0.0 
-7.991098502523e-07 1.127575880689e-04 0.0 
0.0 0.0 -2.729127776400e-05 
-4.194184282385e-05 3.474848126707e-05 0.0 
3.474848126707e-05 2.513992056333e-04 0.0 
0.0 0.0 -4.310499224862e-05 
-5.889908142508e-05 2.600142430583e-05 0.0 
2.600142430583e-05 3.528829077978e-04 0.0 
0.0 0.0 -5.903933595174e-05 
-1.610257286591e-04 -2.786541686928e-05 0.0 
-2.786541686928e-05 1.081190214243e-03 0.0 
0.0 0.0 -1.610696234640e-04 
-5.476704679840e-05 -2.893258819142e-05 0.0 
-2.893258819142e-05 3.440414388131e-04 0.0 
0.0 0.0 -5.456393079061e-05 
-5.163315478531e-05 2.647496963403e-05 0.0 
2.647496963403e-05 3.049271572106e-04 0.0 
0.0 0.0 -5.149248157812e-05 
-4.366093994894e-05 -2.713962390303e-05 0.0 
-2.713962390303e-05 2.644614859736e-04 0.0 
0.0 0.0 -4.384065419509e-05 
-3.933534437072e-05 2.838910031743e-05 0.0 
2.838910031743e-05 2.172478170370e-04 0.0 
0.0 0.0 -3.921473890832e-05 
-1.680595828810e-04 2.995288676004e-05 0.0 
2.995288676004e-05 1.117099767863e-03 0.0 
0.0 0.0 -1.676286260939e-04 
-1.157691997288e-04 -2.821559363196e-05 0.0 
-2.821559363196e-05 7.614917365493e-04 0.0 
0.0 0.0 -1.153195849472e-04 
-1.884304056946e-04 3.717790371758e-05 0.0 
3.717790371758e-05 1.273139237753e-03 0.0 
0.0 0.0 -1.885115422441e-04 
0.0 0.0 0.0 
0.0 0.0 0.0 
0.0 0.0 0.0 
-6.073075435371e-05 2.779578447063e-05 0.0 
2.779578447063e-05 3.692130858621e-04 0.0 
0.0 0.0 -6.066067809259e-05 
-9.359168136837e-05 3.069541767913e-05 0.0 
3.069541767913e-05 5.989493619825e-04 0.0 
0.0 0.0 -9.346360670616e-05 
-8.611303417377e-05 2.775473971904e-05 0.0 
2.775473971904e-05 5.420210967722e-04 0.0 
0.0 0.0 -8.564096664159e-05 
-1.570602199792e-04 3.345705989991e-05 0.0 
3.345705989991e-05 1.042425010846e-03 0.0 
0.0 0.0 -1.567852636697e-04 
-1.928100163882e-04 2.936217438128e-05 0.0 
2.936217438128e-05 1.304792838197e-03 0.0 
0.0 0.0 -1.913896484052e-04 
-1.544569729700e-04 -3.084214855682e-05 0.0 
-3.084214855682e-05 1.037077783695e-03 0.0 
0.0 0.0 -1.544248659763e-04 
-6.869349223690e-05 -2.826326061375e-05 0.0 
-2.826326061375e-05 4.368318291179e-04 0.0 
0.0 0.0 -6.847262230322e-05 
-1.681247358756e-04 -2.868522419727e-05 0.0 
-2.868522419727e-05 1.120151786447e-03 0.0 
0.0 0.0 -1.674250338637e-04 
-1.435900585209e-04 3.856895931237e-05 0.0 
3.856895931237e-05 9.474561629382e-04 0.0 
0.0 0.0 -1.426866023873e-04 
-1.135532837026e-04 -2.681444128085e-05 0.0 
-2.681444128085e-05 7.480946909015e-04 0.0 
0.0 0.0 -1.130562566545e-04 
-1.499249798733e-04 3.067572505939e-05 0.0 
3.067572505939e-05 9.944265321611e-04 0.0 
0.0 0.0 -1.504800801517e-04 
-1.863757598195e-04 -2.386849214221e-05 0.0 
-2.386849214221e-05 1.244147855382e-03 0.0 
0.0 0.0 -1.859596318053e-04 
-9.333492539951e-05 -3.087526947971e-05 0.0 
-3.087526947971e-05 6.086612624671e-04 0.0 
0.0 0.0 -9.309312152870e-05 
-5.642363476155e-05 -2.566826805163e-05 0.0 
-2.566826805163e-05 3.519070743608e-04 0.0 
0.0 0.0 -5.629031366394e-05 
-1.307741012141e-04 -2.854605187792e-05 0.0 
-2.854605187792e-05 8.651184174892e-04 0.0 
0.0 0.0 -1.299393276493e-04 
-1.994711361555e-04 1.488956192184e-05 0.0 
1.488956192184e-05 1.364194760264e-03 0.0 
0.0 0.0 -1.985353088532e-04 
-1.121064498204e-04 -2.817436375982e-05 0.0 
-2.817436375982e-05 7.383690860162e-04 0.0 
0.0 0.0 -1.117990549081e-04 
-1.167106519063e-04 -2.872381374577e-05 0.0 
-2.872381374577e-05 7.713662195201e-04 0.0 
0.0 0.0 -1.165266455158e-04 
-1.260578035270e-04 -7.836042946561e-06 0.0 
-7.836042946561e-06 8.498512038137e-04 0.0 
0.0 0.0 -1.244042047770e-04 
-3.179935585513e-05 -1.763042363236e-05 0.0 
-1.763042363236e-05 1.961286519246e-04 0.0 
0.0 0.0 -3.241712222852e-05 
-1.231319864475e-04 2.764700743790e-05 0.0 
2.764700743790e-05 7.907293750341e-04 0.0 
0.0 0.0 -1.209084558732e-04 
-6.905505917890e-05 2.816961621887e-05 0.0 
2.816961621887e-05 4.271679056782e-04 0.0 
0.0 0.0 -6.885887611378e-05 
-4.897721551762e-05 2.632054484457e-05 0.0 
2.632054484457e-05 2.838529677145e-04 0.0 
0.0 0.0 -4.844095568774e-05 
-3.558784672985e-05 -2.880146762892e-05 0.0 
-2.880146762892e-05 1.946353418351e-04 0.0 
0.0 0.0 -3.639896506568e-05 
-1.614850212427e-04 2.922041349465e-05 0.0 
2.922041349465e-05 1.072918812013e-03 0.0 
0.0 0.0 -1.613978969627e-04 
-1.255033903270e-04 -2.731668296794e-05 0.0 
-2.731668296794e-05 8.288788500150e-04 0.0 
0.0 0.0 -1.246873609535e-04 
-8.112707161296e-05 2.681454897224e-05 0.0 
2.681454897224e-05 5.130150958306e-04 0.0 
0.0 0.0 -8.144240747594e-05 
-1.665837591113e-04 -2.880422836215e-05 0.0 
-2.880422836215e-05 1.119259672453e-03 0.0 
0.0 0.0 -1.664644697516e-04 
-1.582047777180e-04 -3.130538043856e-05 0.0 
-3.130538043856e-05 1.066325272985e-03 0.0 
0.0 0.0 -1.586660261033e-04 
-1.188629648026e-04 -2.678969091403e-05 0.0 
-2.678969091403e-05 7.847225641269e-04 0.0 
0.0 0.0 -1.183057550348e-04 
-1.886854844882e-04 1.135105285806e-05 0.0 
1.135105285806e-05 1.274732412044e-03 0.0 
0.0 0.0 -1.932618152055e-04 
-1.213677155165e-04 2.897964547722e-05 0.0 
2.897964547722e-05 7.927140784185e-04 0.0 
0.0 0.0 -1.211843839911e-04 
-1.239491645660e-04 -2.748126235811e-05 0.0 
-2.748126235811e-05 8.207516205795e-04 0.0 
0.0 0.0 -1.235739794681e-04 
-9.975160353529e-05 -2.686515225488e-05 0.0 
-2.686515225488e-05 6.567392202688e-04 0.0 
0.0 0.0 -9.984714661518e-05 
-1.263578697939e-04 -2.980227527077e-05 0.0 
-2.980227527077e-05 8.380978382458e-04 0.0 
0.0 0.0 -1.261954767068e-04 
-5.849212426998e-05 2.872957228896e-05 0.0 
2.872957228896e-05 3.506208493125e-04 0.0 
0.0 0.0 -5.798711518065e-05 
-1.213481477356e-04 6.735435036876e-06 0.0 
6.735435036876e-06 7.521902963625e-04 0.0 
0.0 0.0 -1.184708735178e-04 
-9.753040931020e-05 -2.877750014671e-05 0.0 
-2.877750014671e-05 6.382612359797e-04 0.0 
0.0 0.0 -9.729539411790e-05 
-7.014498760133e-05 -2.861953507146e-05 0.0 
-2.861953507146e-05 4.491200428710e-04 0.0 
0.0 0.0 -7.021579980210e-05 
-1.548439846447e-04 2.920495201174e-05 0.0 
2.920495201174e-05 1.025468902843e-03 0.0 
0.0 0.0 -1.548477372900e-04 
-7.400239448952e-06 -4.471996282504e-06 0.0 
-4.471996282504e-06 3.348355740734e-05 0.0 
0.0 0.0 -6.737411723468e-06 
-1.269059540153e-04 -2.992426859267e-05 0.0 
-2.992426859267e-05 8.357764802867e-04 0.0 
0.0 0.0 -1.257958619361e-04 
-7.326865481566e-05 2.857374826703e-05 0.0 
2.857374826703e-05 4.565907868803e-04 0.0 
0.0 0.0 -7.305360031667e-05 
-6.016605764575e-05 -2.684908062252e-05 0.0 
-2.684908062252e-05 3.790547108985e-04 0.0 
0.0 0.0 -6.022881660267e-05 
-5.821846839884e-05 -2.774592413861e-05 0.0 
-2.774592413861e-05 3.619705275702e-04 0.0 
0.0 0.0 -5.751879909679e-05 
-1.351640918224e-04 2.730946876611e-05 0.0 
2.730946876611e-05 8.850173502736e-04 0.0 
0.0 0.0 -1.344766581215e-04 
-2.303458757806e-05 -1.756706348761e-05 0.0 
-1.756706348761e-05 1.393624808345e-04 0.0 
0.0 0.0 -2.414890389727e-05 
-8.463000670150e-05 2.743515429835e-05 0.0 
2.743515429835e-05 5.331920973471e-04 0.0 
0.0 0.0 -8.420255649138e-05 
-1.310820143303e-04 2.863495648326e-05 0.0 
2.863495648326e-05 8.604743158959e-04 0.0 
0.0 0.0 -1.309020407989e-04 
-1.263625231525e-04 2.714069752448e-05 0.0 
2.714069752448e-05 8.190547291893e-04 0.0 
0.0 0.0 -1.250525794797e-04 
-1.272471088817e-04 -3.855000510512e-06 0.0 
-3.855000510512e-06 8.469629814487e-04 0.0 
0.0 0.0 -1.245153595172e-04 
-3.451533027297e-05 2.844805665229e-05 0.0 
2.844805665229e-05 1.808943530398e-04 0.0 
0.0 0.0 -3.280631478328e-05 
-7.063190463533e-05 2.939202413112e-05 0.0 
2.939202413112e-05 4.392145115516e-04 0.0 
0.0 0.0 -7.060413318996e-05 
-6.508843028441e-05 -3.043099012630e-05 0.0 
-3.043099012630e-05 4.105469834446e-04 0.0 
0.0 0.0 -6.467058191239e-05 
-7.469256331376e-05 -2.527987226695e-05 0.0 
-2.527987226695e-05 4.809368026629e-04 0.0 
0.0 0.0 -7.435558976913e-05 
-1.502309888333e-04 -3.186153307622e-05 0.0 
-3.186153307622e-05 1.005619770116e-03 0.0 
0.0 0.0 -1.500995507885e-04 
-8.411103689448e-05 -2.561923504937e-05 0.0 
-2.561923504937e-05 5.446630925718e-04 0.0 
0.0 0.0 -8.366679311450e-05 
-9.244608085661e-05 2.841629283501e-05 0.0 
2.841629283501e-05 5.900259211260e-04 0.0 
0.0 0.0 -9.227309926833e-05 
-8.825859911860e-05 2.898361773724e-05 0.0 
2.898361773724e-05 5.610179827723e-04 0.0 
0.0 0.0 -8.802462077767e-05 
-4.037281909572e-05 -3.055033143304e-05 0.0 
-3.055033143304e-05 2.285588841850e-04 0.0 
0.0 0.0 -3.795074749666e-05 
-1.043807176337e-04 2.969702721876e-05 0.0 
2.969702721876e-05 6.736275783202e-04 0.0 
0.0 0.0 -1.043907376787e-04 
-4.291565100880e-05 -2.841622711530e-05 0.0 
-2.841622711530e-05 2.495146198089e-04 0.0 
0.0 0.0 -4.182373257491e-05 
-1.960133420005e-04 -3.915898958092e-07 0.0 
-3.915898958092e-07 1.365024672998e-03 0.0 
0.0 0.0 -1.982169479593e-04 
-2.008761767446e-04 -4.440775900705e-06 0.0 
-4.440775900705e-06 1.363686351067e-03 0.0 
0.0 0.0 -1.977044065024e-04 
-1.166270540496e-04 2.805525215369e-05 0.0 
2.805525215369e-05 7.581594275037e-04 0.0 
0.0 0.0 -1.163296810217e-04 
-6.377729921261e-05 2.843186062466e-05 0.0 
2.843186062466e-05 3.894200307401e-04 0.0 
0.0 0.0 -6.349477618752e-05 
-5.472494021236e-05 -2.756038478394e-05 0.0 
-2.756038478394e-05 3.420299138774e-04 0.0 
0.0 0.0 -5.489564032307e-05 
-1.286062633098e-04 2.787342346443e-05 0.0 
2.787342346443e-05 8.404326398301e-04 0.0 
0.0 0.0 -1.280878756227e-04 
-5.924292318693e-05 -2.830092874267e-05 0.0 
-2.830092874267e-05 3.712937095837e-04 0.0 
0.0 0.0 -5.895795660960e-05 
-6.498740843255e-05 2.970448360848e-05 0.0 
2.970448360848e-05 3.998906408149e-04 0.0 
0.0 0.0 -6.509812613533e-05 
-1.139448242020e-04 2.662931945144e-05 0.0 
2.662931945144e-05 7.377302601230e-04 0.0 
0.0 0.0 -1.134571731864e-04 
-1.931977199045e-04 -5.790102799525e-06 0.0 
-5.790102799525e-06 1.309642249160e-03 0.0 
0.0 0.0 -1.899960389348e-04 
-7.860743769092e-05 2.917445532478e-05 0.0 
2.917445532478e-05 4.940483609679e-04 0.0 
0.0 0.0 -7.839370437043e-05 
-1.417199735287e-04 2.941394498762e-05 0.0 
2.941394498762e-05 9.349322217144e-04 0.0 
0.0 0.0 -1.414217305113e-04 
-4.661344112576e-05 2.736880969088e-05 0.0 
2.736880969088e-05 2.670838018736e-04 0.0 
0.0 0.0 -4.614936513201e-05 
-1.967992094278e-04 1.123981941095e-06 0.0 
1.123981941095e-06 1.365295639638e-03 0.0 
0.0 0.0 -1.984294758987e-04 
-5.951651457585e-05 2.802626650619e-05 0.0 
2.802626650619e-05 3.606106616578e-04 0.0 
0.0 0.0 -5.939605362352e-05 
-1.179287062834e-04 2.787660048455e-05 0.0 
2.787660048455e-05 7.663966719587e-04 0.0 
0.0 0.0 -1.175278261142e-04 
-4.409418717161e-05 3.104234347111e-05 0.0 
3.104234347111e-05 2.441849578649e-04 0.0 
0.0 0.0 -4.282931220362e-05 
-1.381450842626e-04 2.836088824292e-05 0.0 
2.836088824292e-05 9.092073412549e-04 0.0 
0.0 0.0 -1.381743871232e-04 
-9.791138306631e-05 2.879750584179e-05 0.0 
2.879750584179e-05 6.273190453691e-04 0.0 
0.0 0.0 -9.774928945211e-05 
-6.965606683394e-05 2.867246728631e-05 0.0 
2.867246728631e-05 4.309923865951e-04 0.0 
0.0 0.0 -6.938051102899e-05 
-1.200769966056e-04 -2.774059059615e-05 0.0 
-2.774059059615e-05 7.919085176899e-04 0.0 
0.0 0.0 -1.194585575575e-04 
-1.988427120039e-04 -2.959789654557e-06 0.0 
-2.959789654557e-06 1.363764641001e-03 0.0 
0.0 0.0 -1.987298001823e-04 
-8.291571741031e-05 2.832079044508e-05 0.0 
2.832079044508e-05 5.233038309385e-04 0.0 
0.0 0.0 -8.265507580179e-05 
-1.306758629051e-04 -2.955788166782e-05 0.0 
-2.955788166782e-05 8.695191991227e-04 0.0 
0.0 0.0 -1.305485175686e-04 
-4.578173906005e-05 -2.535078056645e-05 0.0 
-2.535078056645e-05 2.780519891852e-04 0.0 
0.0 0.0 -4.562300070248e-05 
-1.437792750518e-04 3.149363009429e-05 0.0 
3.149363009429e-05 9.490378851935e-04 0.0 
0.0 0.0 -1.436534165706e-04 
-1.511792253345e-04 3.107336096836e-05 0.0 
3.107336096836e-05 1.002609936336e-03 0.0 
0.0 0.0 -1.512517770320e-04 
-6.196699647241e-05 -2.679098173262e-05 0.0 
-2.679098173262e-05 3.903858421673e-04 0.0 
0.0 0.0 -6.164273853391e-05 
-1.399199792627e-04 -2.811467117751e-05 0.0 
-2.811467117751e-05 9.272505815491e-04 0.0 
0.0 0.0 -1.388569334018e-04 
-1.985355386787e-04 1.984726108435e-06 0.0 
1.984726108435e-06 1.364959960964e-03 0.0 
0.0 0.0 -1.983871205594e-04 
-1.614928444495e-04 2.847027297627e-05 0.0 
2.847027297627e-05 1.071649121551e-03 0.0 
0.0 0.0 -1.613792517474e-04 
-1.982422487002e-04 -2.569909507912e-06 0.0 
-2.569909507912e-06 1.365758727609e-03 0.0 
0.0 0.0 -1.983136761333e-04 
-1.361916076227e-04 -3.146771190181e-05 0.0 
-3.146771190181e-05 9.179571631392e-04 0.0 
0.0 0.0 -1.379474753881e-04 
-1.576486168105e-04 -2.829471551287e-05 0.0 
-2.829471551287e-05 1.056700414691e-03 0.0 
0.0 0.0 -1.572395483614e-04 
-5.266868770523e-05 -2.930837486761e-05 0.0 
-2.930837486761e-05 3.216672696281e-04 0.0 
0.0 0.0 -5.237865887416e-05 
-1.106230900853e-04 -2.705461405413e-05 0.0 
-2.705461405413e-05 7.266788580309e-04 0.0 
0.0 0.0 -1.101557085785e-04 
-1.243986606814e-04 2.756325965713e-05 0.0 
2.756325965713e-05 8.114376097232e-04 0.0 
0.0 0.0 -1.239588741081e-04 
-1.293044827764e-04 -2.800858501220e-05 0.0 
-2.800858501220e-05 8.573256290427e-04 0.0 
0.0 0.0 -1.288458533782e-04 
-1.066562308207e-04 -2.783120558929e-05 0.0 
-2.783120558929e-05 7.017640661734e-04 0.0 
0.0 0.0 -1.065261787303e-04 
-1.990029541207e-04 -1.757598364359e-06 0.0 
-1.757598364359e-06 1.366381337533e-03 0.0 
0.0 0.0 -1.983502480037e-04 
-1.298318789187e-04 2.158067938686e-05 0.0 
2.158067938686e-05 8.815706967553e-04 0.0 
0.0 0.0 -1.321612292015e-04 
-1.176326388033e-04 -2.595061727756e-05 0.0 
-2.595061727756e-05 7.723158987367e-04 0.0 
0.0 0.0 -1.164556264782e-04 
-8.783787209566e-05 -2.903458928538e-05 0.0 
-2.903458928538e-05 5.705379246605e-04 0.0 
0.0 0.0 -8.765849385152e-05 
-4.943082231834e-05 2.834348926926e-05 0.0 
2.834348926926e-05 2.859345548030e-04 0.0 
0.0 0.0 -4.921152720794e-05 
-1.062878110515e-04 -2.718085700709e-05 0.0 
-2.718085700709e-05 6.972114022315e-04 0.0 
0.0 0.0 -1.060368635384e-04 
-6.633274732441e-05 2.805962634071e-05 0.0 
2.805962634071e-05 4.063292376683e-04 0.0 
0.0 0.0 -6.607158303000e-05 
-1.158557996194e-04 -6.210093226299e-06 0.0 
-6.210093226299e-06 7.885063370646e-04 0.0 
0.0 0.0 -1.154421321462e-04 
-6.910380331659e-05 -2.778533839803e-05 0.0 
-2.778533839803e-05 4.414244386129e-04 0.0 
0.0 0.0 -6.893461416734e-05 
-7.822135333654e-05 -2.896553184294e-05 0.0 
-2.896553184294e-05 5.031498839476e-04 0.0 
0.0 0.0 -7.803987337015e-05 
-1.602384540181e-04 3.100072325668e-05 0.0 
3.100072325668e-05 1.064154990020e-03 0.0 
0.0 0.0 -1.603578675858e-04 
-6.566815985925e-05 -2.750449767600e-05 0.0 
-2.750449767600e-05 4.167092244980e-04 0.0 
0.0 0.0 -6.558851423748e-05 
-1.152845892592e-04 2.749147668780e-05 0.0 
2.749147668780e-05 7.465056274970e-04 0.0 
0.0 0.0 -1.146103474413e-04 
-1.353451354842e-04 2.819645546977e-05 0.0 
2.819645546977e-05 8.892812196543e-04 0.0 
0.0 0.0 -1.352137036071e-04 
-1.205044148237e-04 2.968350999990e-05 0.0 
2.968350999990e-05 7.873013113578e-04 0.0 
0.0 0.0 -1.205299346428e-04 
-1.958940259279e-04 -3.143838988157e-07 0.0 
-3.143838988157e-07 1.365374549896e-03 0.0 
0.0 0.0 -1.987143998872e-04 
-9.668730117965e-05 -2.517304160907e-05 0.0 
-2.517304160907e-05 6.291397970161e-04 0.0 
0.0 0.0 -9.585336115805e-05 
-6.653143432308e-05 2.946077866981e-05 0.0 
2.946077866981e-05 4.089865087981e-04 0.0 
0.0 0.0 -6.633958094145e-05 
-8.520951336944e-05 -2.684964973046e-05 0.0 
-2.684964973046e-05 5.564426473023e-04 0.0 
0.0 0.0 -8.536885536016e-05 
-6.423500688610e-05 -2.223670417576e-05 0.0 
-2.223670417576e-05 3.967373019254e-04 0.0 
0.0 0.0 -6.277058716750e-05 
-6.233409830209e-05 2.930783879135e-05 0.0 
2.930783879135e-05 3.806227503841e-04 0.0 
0.0 0.0 -6.211964112063e-05 
-1.686029388230e-04 -3.010997351014e-05 0.0 
-3.010997351014e-05 1.134847194407e-03 0.0 
0.0 0.0 -1.685829472084e-04 
-1.228035280568e-04 -2.801028863811e-05 0.0 
-2.801028863811e-05 8.126298515026e-04 0.0 
0.0 0.0 -1.224221955183e-04 
-8.576695021724e-05 -2.818444781109e-05 0.0 
-2.818444781109e-05 5.521166414815e-04 0.0 
0.0 0.0 -8.508581023982e-05 
-1.058888784043e-04 2.774100767274e-05 0.0 
2.774100767274e-05 6.820542708577e-04 0.0 
0.0 0.0 -1.053569120690e-04 
-1.984005188917e-04 3.469833888433e-06 0.0 
3.469833888433e-06 1.365869131785e-03 0.0 
0.0 0.0 -1.981012852499e-04 
-1.891870000816e-04 -2.170110567076e-05 0.0 
-2.170110567076e-05 1.288510292263e-03 0.0 
0.0 0.0 -1.887097005658e-04 
-1.683150849776e-04 2.979696904543e-05 0.0 
2.979696904543e-05 1.122642711197e-03 0.0 
0.0 0.0 -1.689885654173e-04 
-1.554302986174e-04 -2.927663835836e-05 0.0 
-2.927663835836e-05 1.044556448181e-03 0.0 
0.0 0.0 -1.556283301217e-04 
-1.157857925219e-04 -2.832751956135e-05 0.0 
-2.832751956135e-05 7.671670755825e-04 0.0 
0.0 0.0 -1.158214347813e-04 
-8.793389765940e-05 -2.692004426865e-05 0.0 
-2.692004426865e-05 5.710151647237e-04 0.0 
0.0 0.0 -8.764218308180e-05 
-6.353474277312e-05 -2.825822332319e-05 0.0 
-2.825822332319e-05 4.001707208949e-04 0.0 
0.0 0.0 -6.304749027677e-05 
-7.291093511829e-05 -2.827879267007e-05 0.0 
-2.827879267007e-05 4.665581668852e-04 0.0 
0.0 0.0 -7.265234708097e-05 
-1.174853072823e-04 -2.733567074543e-05 0.0 
-2.733567074543e-05 7.760237591612e-04 0.0 
0.0 0.0 -1.171309192368e-04 
-1.335212434515e-04 -2.914279474533e-05 0.0 
-2.914279474533e-05 8.905694576090e-04 0.0 
0.0 0.0 -1.335144612876e-04 
-1.018718395078e-04 -2.979006226054e-05 0.0 
-2.979006226054e-05 6.715941915170e-04 0.0 
0.0 0.0 -1.021513650962e-04 
-1.706976735812e-04 3.040145888498e-05 0.0 
3.040145888498e-05 1.134074140794e-03 0.0 
0.0 0.0 -1.701355210695e-04 
-6.585088392687e-05 -2.809564114852e-05 0.0 
-2.809564114852e-05 4.191270390209e-04 0.0 
0.0 0.0 -6.593483134189e-05 
-1.012822856145e-04 -2.790893614150e-05 0.0 
-2.790893614150e-05 6.647252503200e-04 0.0 
0.0 0.0 -1.012556795624e-04 
-1.190728906021e-04 2.726084077196e-05 0.0 
2.726084077196e-05 7.740175104497e-04 0.0 
0.0 0.0 -1.186992623097e-04 
-9.180435571147e-05 -2.942480991547e-05 0.0 
-2.942480991547e-05 5.980965186942e-04 0.0 
0.0 0.0 -9.183388734860e-05 
-1.951933135343e-04 -3.067913145712e-06 0.0 
-3.067913145712e-06 1.365527233008e-03 0.0 
0.0 0.0 -1.980132279339e-04 
-2.004839790609e-04 7.957002336378e-06 0.0 
7.957002336378e-06 1.363848061926e-03 0.0 
0.0 0.0 -1.977693979613e-04 
-1.862548850903e-04 -3.381380897180e-05 0.0 
-3.381380897180e-05 1.277935188165e-03 0.0 
0.0 0.0 -1.884741816281e-04 
-1.255545849599e-04 -2.913100698812e-05 0.0 
-2.913100698812e-05 8.346700099746e-04 0.0 
0.0 0.0 -1.256288396591e-04 
-1.668512740992e-04 2.892208901038e-05 0.0 
2.892208901038e-05 1.110735165857e-03 0.0 
0.0 0.0 -1.668097552869e-04 
-5.710219261571e-05 2.668419955422e-05 0.0 
2.668419955422e-05 3.418831237588e-04 0.0 
0.0 0.0 -5.678930531275e-05 
-8.241925476564e-05 -2.832624156936e-05 0.0 
-2.832624156936e-05 5.333885698677e-04 0.0 
0.0 0.0 -8.224527255366e-05 
-4.853944390359e-05 -2.604022421239e-05 0.0 
-2.604022421239e-05 2.959627034739e-04 0.0 
0.0 0.0 -4.789427177487e-05 
-8.945478626281e-05 -2.660897635143e-05 0.0 
-2.660897635143e-05 5.805998989638e-04 0.0 
0.0 0.0 -8.904339260345e-05 
-1.163162734636e-04 -2.681975846469e-06 0.0 
-2.681975846469e-06 7.498217446733e-04 0.0 
0.0 0.0 -1.187247005501e-04 
-1.378749770551e-04 3.210368012353e-05 0.0 
3.210368012353e-05 9.111791288023e-04 0.0 
0.0 0.0 -1.382175405433e-04 
-1.908460110853e-04 -3.275689360255e-07 0.0 
-3.275689360255e-07 1.305230985071e-03 0.0 
0.0 0.0 -1.898105380384e-04 
-1.673198694714e-04 3.217203314276e-05 0.0 
3.217203314276e-05 1.110802916425e-03 0.0 
0.0 0.0 -1.675837462092e-04 
-1.307963472837e-04 2.695120133125e-05 0.0 
2.695120133125e-05 8.556346688023e-04 0.0 
0.0 0.0 -1.303141423325e-04 
-1.340100066794e-04 2.763944078925e-05 0.0 
2.763944078925e-05 8.772925572874e-04 0.0 
0.0 0.0 -1.333792161710e-04 
-5.307775534030e-05 2.953233977858e-05 0.0 
2.953233977858e-05 3.124408790926e-04 0.0 
0.0 0.0 -5.245278118421e-05 
-2.595268965567e-05 5.699272949294e-06 0.0 
5.699272949294e-06 1.472249447242e-04 0.0 
0.0 0.0 -2.415366321274e-05 
-9.908936880668e-05 3.012137168314e-05 0.0 
3.012137168314e-05 6.362497375305e-04 0.0 
0.0 0.0 -9.891160473977e-05 
-1.107375038864e-04 -2.791592154402e-05 0.0 
-2.791592154402e-05 7.305458695935e-04 0.0 
0.0 0.0 -1.106421438825e-04 
-1.040373993302e-04 -2.962445174837e-05 0.0 
-2.962445174837e-05 6.836342105130e-04 0.0 
0.0 0.0 -1.039785834622e-04 
-2.890800069675e-05 2.861111799326e-05 0.0 
2.861111799326e-05 1.404310217184e-04 0.0 
0.0 0.0 -2.759983235877e-05 
-1.283084597460e-04 1.192869093826e-05 0.0 
1.192869093826e-05 8.062000095070e-04 0.0 
0.0 0.0 -1.269342783548e-04 
-4.518956868723e-05 -2.955121691656e-05 0.0 
-2.955121691656e-05 2.739636501554e-04 0.0 
0.0 0.0 -4.458156379712e-05 
-6.480437248805e-05 2.886959438942e-05 0.0 
2.886959438942e-05 3.978928491972e-04 0.0 
0.0 0.0 -6.471073859852e-05 
-2.011730791700e-04 -1.698872757966e-08 0.0 
-1.698872757966e-08 1.328124099864e-03 0.0 
0.0 0.0 -2.011730791700e-04 
-1.460374838192e-04 -3.048163660064e-05 0.0 
-3.048163660064e-05 9.751989198997e-04 0.0 
0.0 0.0 -1.457653143910e-04 
-1.205798788541e-04 2.761727978419e-05 0.0 
2.761727978419e-05 7.635288783755e-04 0.0 
0.0 0.0 -1.168501105142e-04 
-3.395354607204e-05 2.118102367287e-05 0.0 
2.118102367287e-05 2.067871695949e-04 0.0 
0.0 0.0 -3.264725407480e-05 
-1.072259052960e-04 2.828066854900e-05 0.0 
2.828066854900e-05 6.926707853574e-04 0.0 
0.0 0.0 -1.069007943593e-04 
-9.875212805042e-05 -3.066987077576e-05 0.0 
-3.066987077576e-05 6.455932732231e-04 0.0 
0.0 0.0 -9.854973989574e-05 
-1.347121276017e-04 -2.904780221579e-05 0.0 
-2.904780221579e-05 8.937363280174e-04 0.0 
0.0 0.0 -1.341094516545e-04 
-1.991811038418e-04 6.018664084073e-06 0.0 
6.018664084073e-06 1.364715316697e-03 0.0 
0.0 0.0 -1.985748880999e-04 
-1.110533222846e-04 2.766180117225e-05 0.0 
2.766180117225e-05 7.188072929314e-04 0.0 
0.0 0.0 -1.104975085169e-04 
-1.281880349500e-04 -2.831423111803e-05 0.0 
-2.831423111803e-05 8.493800491293e-04 0.0 
0.0 0.0 -1.277066113365e-04 
-1.022800064688e-04 2.938149773544e-05 0.0 
2.938149773544e-05 6.613696873366e-04 0.0 
0.0 0.0 -1.025654288072e-04 
-1.657781793003e-04 2.991009795984e-05 0.0 
2.991009795984e-05 1.103461715683e-03 0.0 
0.0 0.0 -1.657887872837e-04 
-1.303012997508e-04 2.941535065773e-05 0.0 
2.941535065773e-05 8.562179753406e-04 0.0 
0.0 0.0 -1.303748051659e-04 
-1.970164637737e-04 -1.302278598281e-06 0.0 
-1.302278598281e-06 1.366138488450e-03 0.0 
0.0 0.0 -1.983262259508e-04 
-2.010155577921e-04 3.662749840251e-07 0.0 
3.662749840251e-07 1.326332536677e-03 0.0 
0.0 0.0 -2.010155577921e-04 
-2.011542863586e-04 -1.004817252029e-06 0.0 
-1.004817252029e-06 1.325128672458e-03 0.0 
0.0 0.0 -2.011542863586e-04 
-2.007067363607e-04 -1.498454949362e-07 0.0 
-1.498454949362e-07 1.318361508107e-03 0.0 
0.0 0.0 -2.007067363607e-04 
-1.391843029499e-04 2.745739822782e-05 0.0 
2.745739822782e-05 9.142042162451e-04 0.0 
0.0 0.0 -1.386702020626e-04 
-1.656573127809e-04 -2.766529280961e-05 0.0 
-2.766529280961e-05 1.111954587801e-03 0.0 
0.0 0.0 -1.654503375633e-04 
-1.726299045536e-04 3.125882372741e-05 0.0 
3.125882372741e-05 1.154413842026e-03 0.0 
0.0 0.0 -1.733872194588e-04 
-9.246943249656e-05 3.046774901958e-05 0.0 
3.046774901958e-05 5.891823098647e-04 0.0 
0.0 0.0 -9.220995221430e-05 
-8.867527655773e-05 2.995644697180e-05 0.0 
2.995644697180e-05 5.611104943418e-04 0.0 
0.0 0.0 -8.809376301141e-05 
-9.622211545223e-05 -3.009570676563e-05 0.0 
-3.009570676563e-05 6.328174754954e-04 0.0 
0.0 0.0 -9.655401109520e-05 
-1.701961923366e-04 -3.010043453970e-05 0.0 
-3.010043453970e-05 1.143557443824e-03 0.0 
0.0 0.0 -1.697778367964e-04 
-1.986751491008e-04 -7.450281032106e-07 0.0 
-7.450281032106e-07 1.364365235868e-03 0.0 
0.0 0.0 -1.983660426036e-04 
-1.710340879663e-04 2.926837147099e-05 0.0 
2.926837147099e-05 1.140451459410e-03 0.0 
0.0 0.0 -1.711771202328e-04 
-1.362026136940e-04 -3.056560885154e-05 0.0 
-3.056560885154e-05 9.064457611163e-04 0.0 
0.0 0.0 -1.359501865459e-04 
-1.710918547977e-04 -2.738871930552e-05 0.0 
-2.738871930552e-05 1.149183258739e-03 0.0 
0.0 0.0 -1.708297112636e-04 
-1.484338095600e-04 -2.864995064493e-05 0.0 
-2.864995064493e-05 9.946985301084e-04 0.0 
0.0 0.0 -1.485531891111e-04 
-1.058391682515e-04 2.762475757998e-05 0.0 
2.762475757998e-05 6.839177814814e-04 0.0 
0.0 0.0 -1.057460988714e-04 
-9.007502322936e-05 2.632387229137e-05 0.0 
2.632387229137e-05 5.712847458693e-04 0.0 
0.0 0.0 -8.951081423028e-05 
-5.003262353380e-05 2.839389572085e-05 0.0 
2.839389572085e-05 2.942091527215e-04 0.0 
0.0 0.0 -5.000330529763e-05 
-1.931223455613e-04 1.410072971069e-05 0.0 
1.410072971069e-05 1.274197783005e-03 0.0 
0.0 0.0 -1.923320103442e-04 
-8.673133120512e-05 2.974761857028e-05 0.0 
2.974761857028e-05 5.527785355338e-04 0.0 
0.0 0.0 -8.688718888654e-05 
-1.811235048976e-04 -1.426754042442e-06 0.0 
-1.426754042442e-06 1.216021958167e-03 0.0 
0.0 0.0 -1.846150589539e-04 
-9.663648622258e-05 2.916309241112e-05 0.0 
2.916309241112e-05 6.223980992345e-04 0.0 
0.0 0.0 -9.698095267749e-05 
-6.297861531256e-05 -2.737443956180e-05 0.0 
-2.737443956180e-05 4.020391048555e-04 0.0 
0.0 0.0 -6.334372566563e-05 
-1.910403343780e-04 6.504513827889e-06 0.0 
6.504513827889e-06 1.269011526396e-03 0.0 
0.0 0.0 -1.926469350330e-04 
-7.031800198741e-05 2.800312657303e-05 0.0 
2.800312657303e-05 4.340280219417e-04 0.0 
0.0 0.0 -7.004737339288e-05 
-2.012981183411e-04 2.829868493086e-07 0.0 
2.829868493086e-07 1.325754434692e-03 0.0 
0.0 0.0 -2.012981183411e-04 
-1.944617061092e-04 -2.128424273080e-06 0.0 
-2.128424273080e-06 1.270536569317e-03 0.0 
0.0 0.0 -1.923981163876e-04 
-1.274261734323e-04 2.764661482526e-05 0.0 
2.764661482526e-05 8.320608034777e-04 0.0 
0.0 0.0 -1.269381307268e-04 
-1.388257339176e-05 -3.296929808695e-07 0.0 
-3.296929808695e-07 4.627629862134e-05 0.0 
0.0 0.0 -1.388302509839e-05 
-2.011432062587e-04 1.175370744359e-06 0.0 
1.175370744359e-06 1.325704875416e-03 0.0 
0.0 0.0 -2.011432062587e-04 
-1.921224080021e-04 -3.345083285998e-06 0.0 
-3.345083285998e-06 1.269046594870e-03 0.0 
0.0 0.0 -1.926992175726e-04 
-6.391416598869e-05 2.999598810142e-05 0.0 
2.999598810142e-05 3.912627427439e-04 0.0 
0.0 0.0 -6.380490422505e-05 
-1.404753262357e-04 -2.965513079560e-05 0.0 
-2.965513079560e-05 9.376027128924e-04 0.0 
0.0 0.0 -1.402969630079e-04 
-1.999507595383e-04 6.517171705061e-07 0.0 
6.517171705061e-07 1.367200749641e-03 0.0 
0.0 0.0 -1.984522389651e-04 
0.0 0.0 0.0 
0.0 0.0 0.0 
0.0 0.0 0.0 
-9.642422921866e-05 2.765043306328e-05 0.0 
2.765043306328e-05 6.184893464754e-04 0.0 
0.0 0.0 -9.638260397252e-05 
-1.327711764227e-04 2.777803969438e-05 0.0 
2.777803969438e-05 8.691844784454e-04 0.0 
0.0 0.0 -1.322405047887e-04 
-1.220159274826e-04 2.812429560457e-05 0.0 
2.812429560457e-05 7.950189731712e-04 0.0 
0.0 0.0 -1.216370884873e-04 
-1.233780413330e-04 2.822278476293e-05 0.0 
2.822278476293e-05 8.034120475729e-04 0.0 
0.0 0.0 -1.227992079070e-04 
-5.537653594295e-05 2.875222597985e-05 0.0 
2.875222597985e-05 3.316168811288e-04 0.0 
0.0 0.0 -5.533679171570e-05 
-2.012041008673e-04 -1.784165579869e-07 0.0 
-1.784165579869e-07 1.324183447082e-03 0.0 
0.0 0.0 -2.012041008673e-04 
-9.201494534921e-05 -2.853538992438e-05 0.0 
-2.853538992438e-05 6.003334109930e-04 0.0 
0.0 0.0 -9.185667556238e-05 
-3.303106360170e-05 -2.633064609002e-05 0.0 
-2.633064609002e-05 1.883634797952e-04 0.0 
0.0 0.0 -3.259945417627e-05 
-1.918713440306e-04 8.946523950926e-06 0.0 
8.946523950926e-06 1.309054848055e-03 0.0 
0.0 0.0 -1.908532239790e-04 
-1.533408055875e-05 7.384230356388e-07 0.0 
7.384230356388e-07 8.948803933365e-05 0.0 
0.0 0.0 -1.529156673429e-05 
-1.006599210971e-04 2.782645766406e-05 0.0 
2.782645766406e-05 6.455369390174e-04 0.0 
0.0 0.0 -1.001834968599e-04 
-3.451081164849e-05 1.818301860879e-06 0.0 
1.818301860879e-06 1.688175235099e-04 0.0 
0.0 0.0 -3.548102280213e-05 
-1.062965573196e-04 2.780179286973e-05 0.0 
2.780179286973e-05 6.883223029444e-04 0.0 
0.0 0.0 -1.064232429825e-04 
-1.976952572840e-04 -1.168281398261e-06 0.0 
-1.168281398261e-06 1.362992457342e-03 0.0 
0.0 0.0 -1.982734646138e-04 
-2.011883062674e-04 9.888613031940e-07 0.0 
9.888613031940e-07 1.328146716782e-03 0.0 
0.0 0.0 -2.011883062674e-04 
-1.301088029822e-04 2.770607832302e-05 0.0 
2.770607832302e-05 8.484055931934e-04 0.0 
0.0 0.0 -1.292069026561e-04 
-2.954464874618e-05 -3.965393558445e-06 0.0 
-3.965393558445e-06 1.122999320296e-04 0.0 
0.0 0.0 -2.690965210263e-05 
-2.739399671943e-05 2.933508036766e-05 0.0 
2.933508036766e-05 1.380090285650e-04 0.0 
0.0 0.0 -2.757055009735e-05 
-3.542847344044e-05 6.606947798617e-06 0.0 
6.606947798617e-06 2.063449622469e-04 0.0 
0.0 0.0 -3.269047038571e-05 
-1.687743102681e-04 -2.969350572077e-05 0.0 
-2.969350572077e-05 1.134034339831e-03 0.0 
0.0 0.0 -1.682749826031e-04 
-1.155575491131e-04 4.356017504332e-06 0.0 
4.356017504332e-06 7.906999410851e-04 0.0 
0.0 0.0 -1.155645034189e-04 
-1.225223585343e-04 -3.170975582543e-05 0.0 
-3.170975582543e-05 8.033648067797e-04 0.0 
0.0 0.0 -1.216399908441e-04 
-2.013754095761e-04 8.574101042678e-07 0.0 
8.574101042678e-07 1.328505872694e-03 0.0 
0.0 0.0 -2.013754095761e-04 
-1.185922722511e-04 -6.408792185017e-06 0.0 
-6.408792185017e-06 7.903114053093e-04 0.0 
0.0 0.0 -1.158066699702e-04 
-1.999465830534e-04 2.523603907241e-06 0.0 
2.523603907241e-06 1.365706190659e-03 0.0 
0.0 0.0 -1.984278847636e-04 
-1.529420189163e-04 2.878980384314e-05 0.0 
2.878980384314e-05 1.013778882456e-03 0.0 
0.0 0.0 -1.531497964885e-04 
-1.341342697016e-04 3.021998989808e-05 0.0 
3.021998989808e-05 8.804430663277e-04 0.0 
0.0 0.0 -1.336117322397e-04 
-7.066337245358e-05 2.724020164699e-05 0.0 
2.724020164699e-05 4.173118245595e-04 0.0 
0.0 0.0 -6.716413209789e-05 
-1.409646218039e-04 2.858302443344e-05 0.0 
2.858302443344e-05 9.281763591865e-04 0.0 
0.0 0.0 -1.406799227165e-04 
-4.298549671642e-05 -2.547451572923e-05 0.0 
-2.547451572923e-05 2.695670933754e-04 0.0 
0.0 0.0 -4.407237973489e-05 
-2.011132486541e-04 -7.128017343346e-07 0.0 
-7.128017343346e-07 1.328659301781e-03 0.0 
0.0 0.0 -2.011132486541e-04 
-2.009976701417e-04 3.439303975141e-06 0.0 
3.439303975141e-06 1.321105461220e-03 0.0 
0.0 0.0 -2.009976701417e-04 
-2.010626616006e-04 -3.322276770675e-06 0.0 
-3.322276770675e-06 1.324330050416e-03 0.0 
0.0 0.0 -2.010626616006e-04 
-1.299093591511e-04 -2.914930425429e-05 0.0 
-2.914930425429e-05 8.658441252439e-04 0.0 
0.0 0.0 -1.299975089739e-04 
-9.052284020770e-05 -3.049516894790e-05 0.0 
-3.049516894790e-05 5.936904225557e-04 0.0 
0.0 0.0 -9.093357025479e-05 
-1.054046505950e-04 -2.722690421760e-05 0.0 
-2.722690421760e-05 6.941162488956e-04 0.0 
0.0 0.0 -1.053178853420e-04 
-1.346471619318e-04 2.927563182277e-05 0.0 
2.927563182277e-05 8.856709839770e-04 0.0 
0.0 0.0 -1.347235989126e-04 
-2.009441844947e-04 5.418162692692e-07 0.0 
5.418162692692e-07 1.327955075341e-03 0.0 
0.0 0.0 -2.009441844947e-04 
-6.443925901357e-05 -2.813929069584e-05 0.0 
-2.813929069584e-05 4.076252186495e-04 0.0 
0.0 0.0 -6.431912701200e-05 
-7.485675959243e-05 2.901728883495e-05 0.0 
2.901728883495e-05 4.688085198426e-04 0.0 
0.0 0.0 -7.487790608676e-05 
-7.928698614329e-05 2.778576412939e-05 0.0 
2.778576412939e-05 4.984401812577e-04 0.0 
0.0 0.0 -7.908687439778e-05 
-1.394721343079e-04 2.885489704653e-05 0.0 
2.885489704653e-05 9.192978405546e-04 0.0 
0.0 0.0 -1.391937591313e-04 
-2.008612103287e-04 -3.693527197654e-06 0.0 
-3.693527197654e-06 1.364519917838e-03 0.0 
0.0 0.0 -1.985305734468e-04 
-2.250927834624e-05 2.909087829438e-06 0.0 
2.909087829438e-06 1.468758923848e-04 0.0 
0.0 0.0 -2.397382233655e-05 
-2.011163638586e-04 2.302003841694e-07 0.0 
2.302003841694e-07 1.324189736521e-03 0.0 
0.0 0.0 -2.011163638586e-04 
-7.377337448231e-05 2.934269690708e-05 0.0 
2.934269690708e-05 4.594549865471e-04 0.0 
0.0 0.0 -7.358133128319e-05 
-2.014316818412e-04 4.263406091415e-07 0.0 
4.263406091415e-07 1.328090472923e-03 0.0 
0.0 0.0 -2.014316818412e-04 
-1.734276927947e-04 -2.828578725819e-05 0.0 
-2.828578725819e-05 1.166116999412e-03 0.0 
0.0 0.0 -1.729148776319e-04 
-6.741246855669e-06 1.500702879826e-07 0.0 
1.500702879826e-07 3.827256342879e-05 0.0 
0.0 0.0 -6.864263063556e-06 
-1.004959508363e-04 2.808542309375e-05 0.0 
2.808542309375e-05 6.454212743012e-04 0.0 
0.0 0.0 -1.003583859079e-04 
-1.718759866272e-04 -2.980354167843e-05 0.0 
-2.980354167843e-05 1.157131136303e-03 0.0 
0.0 0.0 -1.719029392456e-04 
-2.011830196921e-04 -3.548902454822e-07 0.0 
-3.548902454822e-07 1.327155566075e-03 0.0 
0.0 0.0 -2.011830196921e-04 
-1.388407500422e-04 -2.884720622620e-05 0.0 
-2.884720622620e-05 9.230769586163e-04 0.0 
0.0 0.0 -1.383010158571e-04 
-1.575526722260e-04 2.955644203139e-05 0.0 
2.955644203139e-05 1.043750468826e-03 0.0 
0.0 0.0 -1.573501057445e-04 
-4.123088931291e-05 2.897558544234e-05 0.0 
2.897558544234e-05 2.287469859808e-04 0.0 
0.0 0.0 -4.076119643165e-05 
-1.813025862255e-04 9.345575993617e-07 0.0 
9.345575993617e-07 1.215376006819e-03 0.0 
0.0 0.0 -1.843023520775e-04 
-7.788490820688e-05 2.864422483209e-05 0.0 
2.864422483209e-05 4.890843703452e-04 0.0 
0.0 0.0 -7.776038389268e-05 
-7.872164132443e-05 -2.705112463858e-05 0.0 
-2.705112463858e-05 5.083022021505e-04 0.0 
0.0 0.0 -7.864394100603e-05 
-1.651857613722e-05 2.436579541672e-06 0.0 
2.436579541672e-06 9.382250948335e-05 0.0 
0.0 0.0 -1.564271892946e-05 
-2.011619417363e-04 1.902236696599e-07 0.0 
1.902236696599e-07 1.325669705516e-03 0.0 
0.0 0.0 -2.011619417363e-04 
-5.404101206327e-05 -2.775487024526e-05 0.0 
-2.775487024526e-05 3.346238881161e-04 0.0 
0.0 0.0 -5.346778118095e-05 
-1.664978969876e-04 -3.078518139598e-05 0.0 
-3.078518139598e-05 1.121532468591e-03 0.0 
0.0 0.0 -1.665752238587e-04 
-1.278730840806e-04 -3.472948115295e-05 0.0 
-3.472948115295e-05 8.520267496029e-04 0.0 
0.0 0.0 -1.283298317887e-04 
-6.603291402412e-05 -2.806322866842e-05 0.0 
-2.806322866842e-05 4.217037645698e-04 0.0 
0.0 0.0 -6.617380498945e-05 
-7.463675443451e-05 -2.871843216267e-05 0.0 
-2.871843216267e-05 4.786814676414e-04 0.0 
0.0 0.0 -7.447016153659e-05 
-1.335206736850e-04 -2.810341513530e-05 0.0 
-2.810341513530e-05 8.862841769034e-04 0.0 
0.0 0.0 -1.330061330556e-04 
-2.013389903111e-04 -2.577060081338e-06 0.0 
-2.577060081338e-06 1.328272800082e-03 0.0 
0.0 0.0 -2.013389903111e-04 
-9.595163826971e-05 2.829118562233e-05 0.0 
2.829118562233e-05 6.147361544056e-04 0.0 
0.0 0.0 -9.568302398834e-05 
-1.453761414593e-04 -3.029613600092e-05 0.0 
-3.029613600092e-05 9.724967985982e-04 0.0 
0.0 0.0 -1.454001008742e-04 
-1.206262125757e-04 2.794500349809e-05 0.0 
2.794500349809e-05 7.866369625336e-04 0.0 
0.0 0.0 -1.204619904346e-04 
-1.322723275388e-04 -2.829979880917e-05 0.0 
-2.829979880917e-05 8.816831760065e-04 0.0 
0.0 0.0 -1.321674040750e-04 
-7.980000717296e-05 -2.795628281200e-05 0.0 
-2.795628281200e-05 5.159636454028e-04 0.0 
0.0 0.0 -7.989676937832e-05 
-1.354049195082e-04 -2.966836663350e-05 0.0 
-2.966836663350e-05 9.031731980439e-04 0.0 
0.0 0.0 -1.354758998029e-04 
-1.160382141721e-04 -2.802728243222e-05 0.0 
-2.802728243222e-05 7.673309827378e-04 0.0 
0.0 0.0 -1.159419204142e-04 
-1.497221933922e-04 -2.945707781298e-05 0.0 
-2.945707781298e-05 1.002549953165e-03 0.0 
0.0 0.0 -1.497374551683e-04 
-1.506619844600e-04 2.868191767905e-05 0.0 
2.868191767905e-05 9.959081628399e-04 0.0 
0.0 0.0 -1.504701801305e-04 
-1.152928167139e-04 2.794966723813e-05 0.0 
2.794966723813e-05 7.495122634304e-04 0.0 
0.0 0.0 -1.151504190239e-04 
-9.797200402357e-05 2.936337437301e-05 0.0 
2.936337437301e-05 6.310607353231e-04 0.0 
0.0 0.0 -9.826785141749e-05 
-6.968070852175e-05 -2.743361977117e-05 0.0 
-2.743361977117e-05 4.442581749229e-04 0.0 
0.0 0.0 -6.960145924383e-05 
-9.096858632181e-05 2.865428116578e-05 0.0 
2.865428116578e-05 5.831558172230e-04 0.0 
0.0 0.0 -9.136904409387e-05 
-1.529042345816e-04 -2.854559586381e-05 0.0 
-2.854559586381e-05 1.024686749938e-03 0.0 
0.0 0.0 -1.527306194461e-04 
-1.256058487050e-04 2.811261290406e-05 0.0 
2.811261290406e-05 8.215081039068e-04 0.0 
0.0 0.0 -1.254775488864e-04 
-1.980780648734e-04 -3.935700772682e-06 0.0 
-3.935700772682e-06 1.366110574938e-03 0.0 
0.0 0.0 -1.982894430286e-04 
-1.754272809192e-04 -2.841101742405e-05 0.0 
-2.841101742405e-05 1.186882516095e-03 0.0 
0.0 0.0 -1.761487873678e-04 
-6.082182731614e-05 2.853376333875e-05 0.0 
2.853376333875e-05 3.715508262051e-04 0.0 
0.0 0.0 -6.104993218691e-05 
-2.011571007552e-04 9.171145657894e-07 0.0 
9.171145657894e-07 1.321562182738e-03 0.0 
0.0 0.0 -2.011571007552e-04 
-1.869664199368e-04 -1.057224803580e-06 0.0 
-1.057224803580e-06 1.305229682683e-03 0.0 
0.0 0.0 -1.899621165516e-04 
-1.086484700099e-04 2.782826117920e-05 0.0 
2.782826117920e-05 7.032557878447e-04 0.0 
0.0 0.0 -1.085668144712e-04 
-1.464969908307e-05 -1.429149761968e-06 0.0 
-1.429149761968e-06 4.885109050726e-05 0.0 
0.0 0.0 -1.465773918179e-05 
-1.958263237412e-04 5.780106440857e-07 0.0 
5.780106440857e-07 1.365777430136e-03 0.0 
0.0 0.0 -1.985204576056e-04 
-1.757264082716e-04 -2.517232276593e-05 0.0 
-2.517232276593e-05 1.179270301901e-03 0.0 
0.0 0.0 -1.750736792729e-04 
-6.782541782712e-05 3.019373787777e-05 0.0 
3.019373787777e-05 4.206013080560e-04 0.0 
0.0 0.0 -6.802858053956e-05 
-2.012563967287e-04 -1.966469980067e-06 0.0 
-1.966469980067e-06 1.324444202799e-03 0.0 
0.0 0.0 -2.012563967287e-04 
-1.398061958654e-04 -2.943243974614e-05 0.0 
-2.943243974614e-05 9.347188127772e-04 0.0 
0.0 0.0 -1.398839994836e-04 
-9.402070193648e-05 2.712518201061e-05 0.0 
2.712518201061e-05 5.984767473335e-04 0.0 
0.0 0.0 -9.344238907910e-05 
-1.259751156612e-04 2.590313598485e-05 0.0 
2.590313598485e-05 8.271536243356e-04 0.0 
0.0 0.0 -1.261329128710e-04 
-1.209053773198e-04 -2.958653903370e-05 0.0 
-2.958653903370e-05 8.015101038896e-04 0.0 
0.0 0.0 -1.208199794009e-04 
-1.200662961737e-04 -2.928695907517e-05 0.0 
-2.928695907517e-05 7.971639168788e-04 0.0 
0.0 0.0 -1.201302469568e-04 
-1.377407696400e-04 -2.844739825321e-05 0.0 
-2.844739825321e-05 9.201029016575e-04 0.0 
0.0 0.0 -1.377263211214e-04 
-1.455051528160e-04 -2.968427682686e-05 0.0 
-2.968427682686e-05 9.765284886093e-04 0.0 
0.0 0.0 -1.458154293005e-04 
-1.046610403714e-04 2.733139804099e-05 0.0 
2.733139804099e-05 6.730778598484e-04 0.0 
0.0 0.0 -1.041882757323e-04 
-1.560008307498e-04 2.985032891431e-05 0.0 
2.985032891431e-05 1.035131189223e-03 0.0 
0.0 0.0 -1.559113556481e-04 
-1.346325198006e-04 -3.759875847639e-06 0.0 
-3.759875847639e-06 9.030385431769e-04 0.0 
0.0 0.0 -1.325924704931e-04 
-9.742891063834e-05 -2.917049163419e-05 0.0 
-2.917049163419e-05 6.415916256564e-04 0.0 
0.0 0.0 -9.782951018876e-05 
-1.452307842680e-04 2.798410104444e-05 0.0 
2.798410104444e-05 9.572278053497e-04 0.0 
0.0 0.0 -1.449704969611e-04 
-7.715625378280e-05 -2.667442626255e-05 0.0 
-2.667442626255e-05 4.986036227452e-04 0.0 
0.0 0.0 -7.733157599954e-05 
-1.363333543933e-04 2.878191277654e-05 0.0 
2.878191277654e-05 8.968468110316e-04 0.0 
0.0 0.0 -1.364058089354e-04 
-7.777375980435e-06 -7.535368744987e-07 0.0 
-7.535368744987e-07 3.923141655039e-05 0.0 
0.0 0.0 -6.878196728934e-06 
-7.528604578945e-05 -2.595586335955e-05 0.0 
-2.595586335955e-05 4.832975377931e-04 0.0 
0.0 0.0 -7.495963205652e-05 
-7.310000528410e-05 -2.717420889967e-05 0.0 
-2.717420889967e-05 4.696905978795e-04 0.0 
0.0 0.0 -7.313647621482e-05 
-1.067255440210e-04 2.893271527878e-05 0.0 
2.893271527878e-05 6.917423590188e-04 0.0 
0.0 0.0 -1.068984364518e-04 
-1.139491260445e-04 2.826874769749e-05 0.0 
2.826874769749e-05 7.405843148328e-04 0.0 
0.0 0.0 -1.139284295517e-04 
-1.402043620025e-04 2.960631400939e-05 0.0 
2.960631400939e-05 9.251192422938e-04 0.0 
0.0 0.0 -1.402590041820e-04 
-1.335394728763e-04 -2.801522720058e-05 0.0 
-2.801522720058e-05 8.959684456723e-04 0.0 
0.0 0.0 -1.344445438287e-04 
-6.737158343628e-05 -2.804640221892e-05 0.0 
-2.804640221892e-05 4.313606597416e-04 0.0 
0.0 0.0 -6.758331304146e-05 
-2.012741767181e-04 8.821979198627e-07 0.0 
8.821979198627e-07 1.328039817999e-03 0.0 
0.0 0.0 -2.012741767181e-04 
-1.322856537807e-04 -2.842003897691e-05 0.0 
-2.842003897691e-05 8.785134865185e-04 0.0 
0.0 0.0 -1.318490365677e-04 
-1.109362290093e-04 2.909596826543e-05 0.0 
2.909596826543e-05 7.212635507904e-04 0.0 
0.0 0.0 -1.112084472091e-04 
-1.268451666326e-04 -2.799239167254e-05 0.0 
-2.799239167254e-05 8.413818391972e-04 0.0 
0.0 0.0 -1.265499305732e-04 
-1.064793262471e-04 -2.934158827982e-05 0.0 
-2.934158827982e-05 7.019469370670e-04 0.0 
0.0 0.0 -1.064793858277e-04 
0.0 0.0 0.0 
0.0 0.0 0.0 
0.0 0.0 0.0 
-1.318178097822e-04 -2.805518743843e-05 0.0 
-2.805518743843e-05 8.722935110683e-04 0.0 
0.0 0.0 -1.310031782818e-04 
-9.021933528390e-05 3.132040384158e-05 0.0 
3.132040384158e-05 5.739755637610e-04 0.0 
0.0 0.0 -8.934454493796e-05 
0.0 0.0 0.0 
0.0 0.0 0.0 
0.0 0.0 0.0 
-1.052154278640e-04 3.047955035353e-05 0.0 
3.047955035353e-05 6.816420493296e-04 0.0 
0.0 0.0 -1.056191267961e-04 
-1.502367494217e-04 2.924022123396e-05 0.0 
2.924022123396e-05 9.937951500591e-04 0.0 
0.0 0.0 -1.501881972789e-04 
-1.718775265069e-04 2.928709797380e-05 0.0 
2.928709797380e-05 1.146088071217e-03 0.0 
0.0 0.0 -1.720420237578e-04 
-1.280234877616e-04 -2.851125988754e-05 0.0 
-2.851125988754e-05 8.523441205577e-04 0.0 
0.0 0.0 -1.279840527869e-04 
-1.326450779531e-04 2.837607785170e-05 0.0 
2.837607785170e-05 8.704271803974e-04 0.0 
0.0 0.0 -1.326233994657e-04 
-1.124800331858e-04 -2.250634799779e-05 0.0 
-2.250634799779e-05 7.434000254204e-04 0.0 
0.0 0.0 -1.124284764899e-04 
-1.124934330556e-04 -1.147359770401e-06 0.0 
-1.147359770401e-06 6.878881025193e-04 0.0 
0.0 0.0 -1.096893794977e-04 
-1.889722149430e-04 -3.377914207804e-06 0.0 
-3.377914207804e-06 1.272437990102e-03 0.0 
0.0 0.0 -1.929167378009e-04 
-1.214486582279e-04 -2.834437307674e-05 0.0 
-2.834437307674e-05 8.042147269737e-04 0.0 
0.0 0.0 -1.212428182282e-04 
-3.901684544272e-06 -1.266514493921e-06 0.0 
-1.266514493921e-06 3.364292570627e-05 0.0 
0.0 0.0 -6.803381613341e-06 
-4.019702923064e-05 -2.968878104168e-05 0.0 
-2.968878104168e-05 2.317309542851e-04 0.0 
0.0 0.0 -3.854459625752e-05 
-1.433007491539e-05 -2.523139495984e-06 0.0 
-2.523139495984e-06 4.782663812836e-05 0.0 
0.0 0.0 -1.435566994842e-05 
-6.398639061022e-05 -2.382092625923e-05 0.0 
-2.382092625923e-05 4.115367021604e-04 0.0 
0.0 0.0 -6.426199848985e-05 
-1.705216486236e-04 -3.075798588999e-05 0.0 
-3.075798588999e-05 1.144180239023e-03 0.0 
0.0 0.0 -1.701784606649e-04 
-1.720848907896e-04 -2.982707765609e-05 0.0 
-2.982707765609e-05 1.154451966353e-03 0.0 
0.0 0.0 -1.716974477008e-04 
-1.636081653310e-04 2.890679068895e-05 0.0 
2.890679068895e-05 1.083797119579e-03 0.0 
0.0 0.0 -1.631141653006e-04 
-7.191278251009e-05 -2.923981126011e-05 0.0 
-2.923981126011e-05 4.644308216806e-04 0.0 
0.0 0.0 -7.241705069886e-05 
-1.359669915306e-04 -2.927541453388e-05 0.0 
-2.927541453388e-05 9.079369783679e-04 0.0 
0.0 0.0 -1.359475215862e-04 
-1.703257054035e-04 2.861689226726e-05 0.0 
2.861689226726e-05 1.140054647222e-03 0.0 
0.0 0.0 -1.713159247262e-04 
-4.183047912369e-05 -2.572604659906e-05 0.0 
-2.572604659906e-05 2.560153946945e-04 0.0 
0.0 0.0 -4.231798256975e-05 
-8.943823586418e-05 -3.364415979658e-05 0.0 
-3.364415979658e-05 5.775390913927e-04 0.0 
0.0 0.0 -8.913173311910e-05 
-7.231586338472e-05 2.908218695887e-05 0.0 
2.908218695887e-05 4.640276074048e-04 0.0 
0.0 0.0 -7.470029742937e-05 
-2.002434364986e-04 2.390306987834e-06 0.0 
2.390306987834e-06 1.365017058433e-03 0.0 
0.0 0.0 -1.983595295415e-04 
-2.012462808875e-04 -2.397130779802e-06 0.0 
-2.397130779802e-06 1.326802955155e-03 0.0 
0.0 0.0 -2.012462808875e-04 
-1.001924190894e-04 -2.543634002640e-05 0.0 
-2.543634002640e-05 6.415530807948e-04 0.0 
0.0 0.0 -9.870432074603e-05 
-1.098744198639e-04 -2.927420239507e-05 0.0 
-2.927420239507e-05 7.316606535654e-04 0.0 
0.0 0.0 -1.107837014452e-04 
-1.248013625041e-04 2.918553395126e-05 0.0 
2.918553395126e-05 8.167887655362e-04 0.0 
0.0 0.0 -1.248518557812e-04 
-1.744561955947e-04 2.668158714920e-05 0.0 
2.668158714920e-05 1.182258303691e-03 0.0 
0.0 0.0 -1.765917450224e-04 
-4.348855545644e-05 2.994300755885e-05 0.0 
2.994300755885e-05 2.445057852649e-04 0.0 
0.0 0.0 -4.320551243875e-05 
-1.652296485327e-04 2.906332229875e-05 0.0 
2.906332229875e-05 1.101447253650e-03 0.0 
0.0 0.0 -1.657061016896e-04 
-2.403565913090e-05 4.949963233040e-06 0.0 
4.949963233040e-06 1.531777656687e-04 0.0 
0.0 0.0 -2.418834757213e-05 
-1.015799043054e-04 -2.942946605237e-05 0.0 
-2.942946605237e-05 6.633561862995e-04 0.0 
0.0 0.0 -1.008698596220e-04 
-1.119529650465e-04 -2.962126233882e-05 0.0 
-2.962126233882e-05 7.407931298335e-04 0.0 
0.0 0.0 -1.120576983545e-04 
-1.459957790495e-05 2.147032025287e-06 0.0 
2.147032025287e-06 4.870772312705e-05 0.0 
0.0 0.0 -1.461777652376e-05 
-9.161840063277e-05 2.942933483065e-05 0.0 
2.942933483065e-05 6.062252670522e-04 0.0 
0.0 0.0 -9.401387724495e-05 
-1.768726332775e-04 2.584150165173e-05 0.0 
2.584150165173e-05 1.176843255176e-03 0.0 
0.0 0.0 -1.765293208453e-04 
-8.070653634049e-06 -7.127200303669e-07 0.0 
-7.127200303669e-07 3.799287171116e-05 0.0 
0.0 0.0 -6.885492893058e-06 
-1.096879873477e-04 2.043579917607e-06 0.0 
2.043579917607e-06 6.860751141181e-04 0.0 
0.0 0.0 -1.098413067258e-04 
-1.057188370874e-04 1.685883039911e-07 0.0 
1.685883039911e-07 7.271365247556e-04 0.0 
0.0 0.0 -1.069570933414e-04 
-1.432107105009e-04 -2.918049026374e-05 0.0 
-2.918049026374e-05 9.585008998201e-04 0.0 
0.0 0.0 -1.432800021710e-04 
-7.316489204152e-05 -2.863859130745e-05 0.0 
-2.863859130745e-05 4.706303893412e-04 0.0 
0.0 0.0 -7.415269660255e-05 
-7.204753212897e-05 2.972500420552e-05 0.0 
2.972500420552e-05 4.499764828814e-04 0.0 
0.0 0.0 -7.226240082359e-05 
-5.120365076624e-05 -2.544377550683e-05 0.0 
-2.544377550683e-05 3.155956943602e-04 0.0 
0.0 0.0 -5.097082111979e-05 
-1.766764062378e-04 2.618275323120e-05 0.0 
2.618275323120e-05 1.179907026535e-03 0.0 
0.0 0.0 -1.771343179597e-04 
-1.932169887683e-04 -1.186514980035e-06 0.0 
-1.186514980035e-06 1.270206526665e-03 0.0 
0.0 0.0 -1.929291577857e-04 
-1.651550878866e-04 -2.941422592351e-05 0.0 
-2.941422592351e-05 1.109208798495e-03 0.0 
0.0 0.0 -1.651633390879e-04 
-6.755242304519e-05 -2.455549728632e-05 0.0 
-2.455549728632e-05 4.248768375292e-04 0.0 
0.0 0.0 -6.685523357515e-05 
-3.212136007057e-05 3.580530001302e-05 0.0 
3.580530001302e-05 1.447902451166e-04 0.0 
0.0 0.0 -2.858747568434e-05 
-1.054343223867e-04 -2.695876520577e-05 0.0 
-2.695876520577e-05 6.907711584095e-04 0.0 
0.0 0.0 -1.049869670044e-04 
-1.082088607967e-04 -8.344784113160e-08 0.0 
-8.344784113160e-08 6.889651327617e-04 0.0 
0.0 0.0 -1.101766670879e-04 
-1.083270449213e-04 -5.188674785914e-06 0.0 
-5.188674785914e-06 7.291063979252e-04 0.0 
0.0 0.0 -1.071720332863e-04 
0.0 0.0 0.0 
0.0 0.0 0.0 
0.0 0.0 0.0 
-1.419401195472e-05 1.408697338343e-06 0.0 
1.408697338343e-06 4.733218519253e-05 0.0 
0.0 0.0 -1.420207424477e-05 
-2.834770026484e-05 -7.681243720571e-06 0.0 
-7.681243720571e-06 1.096902963104e-04 0.0 
0.0 0.0 -2.693124394472e-05 
-5.719939767419e-05 2.990659681515e-05 0.0 
2.990659681515e-05 3.452165164042e-04 0.0 
0.0 0.0 -5.731412244432e-05 
-1.720930858718e-05 3.350218996686e-07 0.0 
3.350218996686e-07 9.401005302813e-05 0.0 
0.0 0.0 -1.553541414024e-05 
-1.076654832369e-04 2.813964265791e-05 0.0 
2.813964265791e-05 6.806882370998e-04 0.0 
0.0 0.0 -1.037722331524e-04 
0.0 0.0 0.0 
0.0 0.0 0.0 
0.0 0.0 0.0 
-6.700184681606e-05 3.038711416349e-05 0.0 
3.038711416349e-05 4.144588213805e-04 0.0 
0.0 0.0 -6.723558339016e-05 
-1.422690385554e-04 8.906612131176e-06 0.0 
8.906612131176e-06 9.279461319085e-04 0.0 
0.0 0.0 -1.437384108528e-04 
-1.067106135208e-04 1.512146510798e-06 0.0 
1.512146510798e-06 7.288241095318e-04 0.0 
0.0 0.0 -1.068051661132e-04 
-1.732229403376e-04 -3.027991344990e-05 0.0 
-3.027991344990e-05 1.178111385867e-03 0.0 
0.0 0.0 -1.754224665252e-04 
-1.445452663558e-04 2.930268727359e-05 0.0 
2.930268727359e-05 9.544571665351e-04 0.0 
0.0 0.0 -1.446217387457e-04 
-1.353694455665e-04 1.174583702380e-05 0.0 
1.174583702380e-05 8.660998565929e-04 0.0 
0.0 0.0 -1.348267065705e-04 
-7.873004197628e-05 3.045040631702e-05 0.0 
3.045040631702e-05 5.029221835495e-04 0.0 
0.0 0.0 -7.904067945980e-05 
-2.336863266121e-05 -2.139897506835e-06 0.0 
-2.139897506835e-06 1.525920777976e-04 0.0 
0.0 0.0 -2.404492882983e-05 
-2.011462452073e-04 -3.115145181966e-06 0.0 
-3.115145181966e-06 1.323800969612e-03 0.0 
0.0 0.0 -2.011462452073e-04 
-1.997611016349e-04 -1.600977658655e-07 0.0 
-1.600977658655e-07 1.366080671060e-03 0.0 
0.0 0.0 -1.980443072317e-04 
-1.272448923164e-04 3.465279404623e-05 0.0 
3.465279404623e-05 8.424875497443e-04 0.0 
0.0 0.0 -1.288258176484e-04 
-1.119386170519e-04 -1.126021442298e-06 0.0 
-1.126021442298e-06 6.885955176049e-04 0.0 
0.0 0.0 -1.098911005281e-04 
-7.877315288786e-05 -1.808968119029e-05 0.0 
-1.808968119029e-05 5.143209401366e-04 0.0 
0.0 0.0 -7.971767696681e-05 
-1.985236644042e-04 -3.425616005704e-06 0.0 
-3.425616005704e-06 1.362863135910e-03 0.0 
0.0 0.0 -1.983864604134e-04 
-6.236203446175e-05 -2.877830346934e-05 0.0 
-2.877830346934e-05 3.955051293210e-04 0.0 
0.0 0.0 -6.249901059374e-05 
-1.058650871008e-04 -6.246155104235e-07 0.0 
-6.246155104235e-07 7.256170483752e-04 0.0 
0.0 0.0 -1.068842133844e-04 
-1.069697525894e-04 1.084045783815e-06 0.0 
1.084045783815e-06 6.877400680898e-04 0.0 
0.0 0.0 -1.096916328397e-04 
-1.015389602943e-04 2.700360211827e-05 0.0 
2.700360211827e-05 6.538816838809e-04 0.0 
0.0 0.0 -1.013366985113e-04 
-2.012735984050e-04 -2.798087263703e-06 0.0 
-2.798087263703e-06 1.328613650514e-03 0.0 
0.0 0.0 -2.012735984050e-04 
-1.940648784859e-04 2.411070838906e-06 0.0 
2.411070838906e-06 1.364173949612e-03 0.0 
0.0 0.0 -1.983874027871e-04 
-1.690083312634e-05 1.049773310524e-06 0.0 
1.049773310524e-06 9.202054593460e-05 0.0 
0.0 0.0 -1.553532439781e-05 
0.0 0.0 0.0 
0.0 0.0 0.0 
0.0 0.0 0.0 
-3.585533076935e-05 2.904737459937e-05 0.0 
2.904737459937e-05 1.788685704198e-04 0.0 
0.0 0.0 -3.331695100386e-05 
-1.122713198486e-04 2.937932182379e-05 0.0 
2.937932182379e-05 7.306935959273e-04 0.0 
0.0 0.0 -1.124655765398e-04 
-1.835773402027e-04 3.521607307094e-05 0.0 
3.521607307094e-05 1.234731404255e-03 0.0 
0.0 0.0 -1.837003526785e-04 
-5.776823163620e-06 -1.013741336344e-05 0.0 
-1.013741336344e-05 3.224761562078e-05 0.0 
0.0 0.0 -6.760418344035e-06 
-1.642553307267e-04 -3.202846031696e-05 0.0 
-3.202846031696e-05 1.094624480443e-03 0.0 
0.0 0.0 -1.638777942950e-04 
0.0 0.0 0.0 
0.0 0.0 0.0 
0.0 0.0 0.0 
-1.424654463444e-04 2.913249922816e-05 0.0 
2.913249922816e-05 9.390706018894e-04 0.0 
0.0 0.0 -1.423962487430e-04 
-9.432165051581e-06 1.005162211791e-06 0.0 
1.005162211791e-06 4.138276126950e-05 0.0 
0.0 0.0 -6.886565099861e-06 
-9.362857787326e-06 -3.767431995236e-06 0.0 
-3.767431995236e-06 3.953910185584e-05 0.0 
0.0 0.0 -6.922935307491e-06 
-1.370365661157e-04 2.914478147057e-05 0.0 
2.914478147057e-05 9.005660180564e-04 0.0 
0.0 0.0 -1.368385334393e-04 
-1.786566956368e-04 2.931910129804e-05 0.0 
2.931910129804e-05 1.196344419870e-03 0.0 
0.0 0.0 -1.789445754221e-04 
-1.403014539755e-04 -1.415648790463e-05 0.0 
-1.415648790463e-05 9.602064443499e-04 0.0 
0.0 0.0 -1.404190723625e-04 
-1.093898583646e-04 -2.651797813815e-05 0.0 
-2.651797813815e-05 7.193684517441e-04 0.0 
0.0 0.0 -1.090260965338e-04 
-1.456607726240e-05 -2.038157053184e-06 0.0 
-2.038157053184e-06 4.859194839432e-05 0.0 
0.0 0.0 -1.458251619940e-05 
-1.403045830740e-04 -2.944113871056e-05 0.0 
-2.944113871056e-05 9.375602710699e-04 0.0 
0.0 0.0 -1.402353347023e-04 
-2.006696725991e-04 -3.796241326952e-06 0.0 
-3.796241326952e-06 1.322105168317e-03 0.0 
0.0 0.0 -2.006696725991e-04 
-1.989054431028e-04 -2.182972558240e-05 0.0 
-2.182972558240e-05 1.362302379513e-03 0.0 
0.0 0.0 -1.983532132695e-04 
-1.068515601043e-04 1.760793152409e-06 0.0 
1.760793152409e-06 7.282983415426e-04 0.0 
0.0 0.0 -1.068864667265e-04 
-1.479030554931e-04 2.849872559925e-05 0.0 
2.849872559925e-05 9.774939211832e-04 0.0 
0.0 0.0 -1.479563560404e-04 
-2.012411575798e-04 2.034835726214e-06 0.0 
2.034835726214e-06 1.326088054461e-03 0.0 
0.0 0.0 -2.012411575798e-04 
-1.572471139556e-04 -3.123527971848e-05 0.0 
-3.123527971848e-05 1.052974899250e-03 0.0 
0.0 0.0 -1.570065405944e-04 
-2.512952758235e-05 6.164143337161e-06 0.0 
6.164143337161e-06 1.447280408939e-04 0.0 
0.0 0.0 -2.384861487001e-05 
-1.601508775722e-05 -1.437488736464e-06 0.0 
-1.437488736464e-06 9.300170481307e-05 0.0 
0.0 0.0 -1.544587960073e-05 
-1.543264015197e-05 -6.472491513265e-06 0.0 
-6.472491513265e-06 5.180474928483e-05 0.0 
0.0 0.0 -1.558804677123e-05 
-8.807433739710e-05 2.930499283462e-05 0.0 
2.930499283462e-05 5.721318599331e-04 0.0 
0.0 0.0 -8.900037232384e-05 
-2.000509150237e-04 -1.803318756068e-05 0.0 
-1.803318756068e-05 1.362940764782e-03 0.0 
0.0 0.0 -1.984242861770e-04 
-1.873647884484e-04 -3.488074856058e-05 0.0 
-3.488074856058e-05 1.273069634555e-03 0.0 
0.0 0.0 -1.887494668184e-04 
0.0 0.0 0.0 
0.0 0.0 0.0 
0.0 0.0 0.0 
-1.048455043466e-04 -2.786233972015e-05 0.0 
-2.786233972015e-05 6.764000404035e-04 0.0 
0.0 0.0 -1.040814173273e-04 
-2.017197471554e-04 8.241581226717e-07 0.0 
8.241581226717e-07 1.329062272743e-03 0.0 
0.0 0.0 -2.017197471554e-04 
-2.005984413255e-04 5.516146765968e-06 0.0 
5.516146765968e-06 1.367793765917e-03 0.0 
0.0 0.0 -1.978177876756e-04 
-1.955632613542e-04 2.146035678258e-07 0.0 
2.146035678258e-07 1.364429749039e-03 0.0 
0.0 0.0 -1.981726781329e-04 
-1.551674337257e-04 3.213659539949e-05 0.0 
3.213659539949e-05 1.026132370703e-03 0.0 
0.0 0.0 -1.540722572613e-04 
-1.676819576491e-04 -3.244106652331e-05 0.0 
-3.244106652331e-05 1.132368160945e-03 0.0 
0.0 0.0 -1.688564288694e-04 
-2.007045390215e-04 -1.045242026293e-06 0.0 
-1.045242026293e-06 1.322895647985e-03 0.0 
0.0 0.0 -2.007045390215e-04 
-2.011132486540e-04 -4.189740075221e-06 0.0 
-4.189740075221e-06 1.326334124050e-03 0.0 
0.0 0.0 -2.011132486540e-04 
-1.626580735659e-04 2.634343120663e-05 0.0 
2.634343120663e-05 1.095653417165e-03 0.0 
0.0 0.0 -1.638777942950e-04 
-3.467643311259e-06 1.128712139723e-05 0.0 
1.128712139723e-05 2.762392691705e-05 0.0 
0.0 0.0 -6.812318873104e-06 
-1.069489536729e-04 -2.288587191676e-07 0.0 
-2.288587191676e-07 7.222038744284e-04 0.0 
0.0 0.0 -1.070930873830e-04 
-1.082084560241e-04 4.524390449744e-06 0.0 
4.524390449744e-06 7.317697196541e-04 0.0 
0.0 0.0 -1.070046338016e-04 
0.0 0.0 0.0 
0.0 0.0 0.0 
0.0 0.0 0.0 
-2.013470386860e-04 1.582993778474e-06 0.0 
1.582993778474e-06 1.331092746641e-03 0.0 
0.0 0.0 -2.013470386860e-04 
-2.004992679381e-04 3.810616673030e-06 0.0 
3.810616673030e-06 1.366146148260e-03 0.0 
0.0 0.0 -1.977533921434e-04 
-2.006939626645e-04 9.733569450258e-08 0.0 
9.733569450258e-08 1.322104658797e-03 0.0 
0.0 0.0 -2.006939626645e-04 
-1.033192631121e-05 1.099005081210e-06 0.0 
1.099005081210e-06 3.989146001766e-05 0.0 
0.0 0.0 -6.874462243606e-06 
-1.053268595906e-05 1.440397429326e-06 0.0 
1.440397429326e-06 4.104748301093e-05 0.0 
0.0 0.0 -6.887055179908e-06 
-2.011132486540e-04 -1.745116755586e-07 0.0 
-1.745116755586e-07 1.324356223126e-03 0.0 
0.0 0.0 -2.011132486540e-04 
-2.010594294788e-04 -3.067167593136e-06 0.0 
-3.067167593136e-06 1.323008264150e-03 0.0 
0.0 0.0 -2.010594294788e-04 
-1.525144534316e-04 -3.469908965430e-05 0.0 
-3.469908965430e-05 9.919929974676e-04 0.0 
0.0 0.0 -1.490508918356e-04 
-1.073514247561e-04 4.761945652643e-06 0.0 
4.761945652643e-06 7.219659484264e-04 0.0 
0.0 0.0 -1.068727795842e-04 
-1.577537368329e-04 -3.403094625324e-05 0.0 
-3.403094625324e-05 1.060418053842e-03 0.0 
0.0 0.0 -1.590213654257e-04 
-1.328454241957e-04 -3.370191828823e-05 0.0 
-3.370191828823e-05 8.485398635158e-04 0.0 
0.0 0.0 -1.293991128285e-04 
-1.046169236010e-04 1.973664755836e-06 0.0 
1.973664755836e-06 7.223528969599e-04 0.0 
0.0 0.0 -1.068286901835e-04 
-4.614602936406e-06 5.445308269796e-06 0.0 
5.445308269796e-06 3.738876181996e-05 0.0 
0.0 0.0 -6.743366273123e-06 
-7.288647016025e-06 -5.605815272385e-06 0.0 
-5.605815272385e-06 4.290456148284e-05 0.0 
0.0 0.0 -6.886751345948e-06 
-4.777740867475e-06 -1.713355770572e-06 0.0 
-1.713355770572e-06 3.704418379984e-05 0.0 
0.0 0.0 -6.883523363406e-06 
-7.097131879006e-06 -1.839146356973e-06 0.0 
-1.839146356973e-06 3.989175121334e-05 0.0 
0.0 0.0 -6.834868364323e-06 
-1.111644977682e-04 3.476120600100e-05 0.0 
3.476120600100e-05 7.142233904721e-04 0.0 
0.0 0.0 -1.090698765213e-04 
-9.850854995735e-05 3.047113839014e-05 0.0 
3.047113839014e-05 6.418056074726e-04 0.0 
0.0 0.0 -9.901154080588e-05 
0.0 0.0 0.0 
0.0 0.0 0.0 
0.0 0.0 0.0 
-1.379803939868e-04 3.311278655235e-05 0.0 
3.311278655235e-05 9.246797732210e-04 0.0 
0.0 0.0 -1.383256398532e-04 
0.0 0.0 0.0 
0.0 0.0 0.0 
0.0 0.0 0.0 
-2.012207460908e-04 8.138655548157e-07 0.0 
8.138655548157e-07 1.323125614848e-03 0.0 
0.0 0.0 -2.012207460908e-04 
-2.011453028336e-04 1.874611865645e-06 0.0 
1.874611865645e-06 1.321148462492e-03 0.0 
0.0 0.0 -2.011453028336e-04 
-2.008980620244e-04 -1.010417860953e-06 0.0 
-1.010417860953e-06 1.324898106472e-03 0.0 
0.0 0.0 -2.008980620244e-04 
-3.774320917617e-05 3.566462655254e-05 0.0 
3.566462655254e-05 2.216925288799e-04 0.0 
0.0 0.0 -3.898704224316e-05 
-6.749434365589e-05 3.096998135248e-05 0.0 
3.096998135248e-05 4.319785382730e-04 0.0 
0.0 0.0 -6.911201714261e-05 
-2.005699367862e-04 -7.190292655297e-07 0.0 
-7.190292655297e-07 1.323013138076e-03 0.0 
0.0 0.0 -2.005699367862e-04 
-1.680240814146e-04 2.828255466262e-05 0.0 
2.828255466262e-05 1.134108335992e-03 0.0 
0.0 0.0 -1.687435400630e-04 
-2.016835406704e-04 -3.156370070795e-06 0.0 
-3.156370070795e-06 1.329078538970e-03 0.0 
0.0 0.0 -2.016835406704e-04 
-1.793487015674e-04 3.012936828637e-05 0.0 
3.012936828637e-05 1.204201687729e-03 0.0 
0.0 0.0 -1.788807376869e-04 
-1.896811634642e-04 3.473757623144e-05 0.0 
3.473757623144e-05 1.274809396155e-03 0.0 
0.0 0.0 -1.889858754357e-04 
-9.329662399263e-05 -3.052995434082e-05 0.0 
-3.052995434082e-05 6.062639241622e-04 0.0 
0.0 0.0 -9.401191312989e-05 
-2.000004866553e-04 -4.935042552872e-06 0.0 
-4.935042552872e-06 1.365934607507e-03 0.0 
0.0 0.0 -1.977152396198e-04 
-2.004002946706e-04 1.743259095834e-05 0.0 
1.743259095834e-05 1.363643771933e-03 0.0 
0.0 0.0 -1.982534774566e-04 
-1.735523764126e-04 -3.096544822671e-05 0.0 
-3.096544822671e-05 1.160586461079e-03 0.0 
0.0 0.0 -1.736242777500e-04 
-1.844507237627e-04 -3.076693800438e-05 0.0 
-3.076693800438e-05 1.234271765678e-03 0.0 
0.0 0.0 -1.838666131227e-04 
-1.480705946354e-04 -2.799822277007e-05 0.0 
-2.799822277007e-05 9.966603041907e-04 0.0 
0.0 0.0 -1.488773473547e-04 
0.0 0.0 0.0 
0.0 0.0 0.0 
0.0 0.0 0.0 
-9.787607230901e-05 -3.033430602603e-05 0.0 
-3.033430602603e-05 6.248974769917e-04 0.0 
0.0 0.0 -9.525361646419e-05 
-1.594166567358e-05 -3.750042762657e-06 0.0 
-3.750042762657e-06 8.963110813763e-05 0.0 
0.0 0.0 -1.545597323287e-05 
-1.766298993527e-04 -2.600424007003e-05 0.0 
-2.600424007003e-05 1.189008728009e-03 0.0 
0.0 0.0 -1.766728545426e-04 
-1.011715525641e-04 2.892404910577e-05 0.0 
2.892404910577e-05 6.528362141215e-04 0.0 
0.0 0.0 -1.013053728898e-04 
-1.643672164407e-04 2.795643146507e-05 0.0 
2.795643146507e-05 1.094563530101e-03 0.0 
0.0 0.0 -1.648525347569e-04 
-5.293095072300e-05 -2.919541751065e-05 0.0 
-2.919541751065e-05 3.265136357570e-04 0.0 
0.0 0.0 -5.257162719418e-05 
-2.326140168062e-05 1.809898427410e-05 0.0 
1.809898427410e-05 1.126266936620e-04 0.0 
0.0 0.0 -2.603928234478e-05 
-1.740902369364e-04 -2.842066329623e-05 0.0 
-2.842066329623e-05 1.173125089393e-03 0.0 
0.0 0.0 -1.742502449863e-04 
-1.033465261807e-04 -2.962592743150e-05 0.0 
-2.962592743150e-05 6.925891601377e-04 0.0 
0.0 0.0 -1.051812066754e-04 
-8.643013593859e-05 3.008982733389e-05 0.0 
3.008982733389e-05 5.377346504154e-04 0.0 
0.0 0.0 -8.417044846400e-05 
-1.640235310558e-04 -2.864236577619e-05 0.0 
-2.864236577619e-05 1.105176284391e-03 0.0 
0.0 0.0 -1.644154061664e-04 
-1.767953130454e-04 2.924397373916e-05 0.0 
2.924397373916e-05 1.186936749162e-03 0.0 
0.0 0.0 -1.783361800307e-04 
-8.342488227328e-05 -3.047437538585e-05 0.0 
-3.047437538585e-05 5.389729855638e-04 0.0 
0.0 0.0 -8.404105178381e-05 
-1.553105581953e-04 -3.047408891050e-05 0.0 
-3.047408891050e-05 1.042435393668e-03 0.0 
0.0 0.0 -1.553470185564e-04 
-1.377037381347e-04 2.897215065226e-05 0.0 
2.897215065226e-05 9.063511737441e-04 0.0 
0.0 0.0 -1.377261412248e-04 
-1.487663362168e-04 3.034863814033e-05 0.0 
3.034863814033e-05 9.863621124124e-04 0.0 
0.0 0.0 -1.492918029589e-04 
-1.536565537427e-04 2.792959174996e-05 0.0 
2.792959174996e-05 1.019186869417e-03 0.0 
0.0 0.0 -1.536336870150e-04 
-8.703976113534e-05 2.837055784379e-05 0.0 
2.837055784379e-05 5.518675504069e-04 0.0 
0.0 0.0 -8.683226689744e-05 
-1.002022259484e-04 -2.590961570230e-05 0.0 
-2.590961570230e-05 6.551468687222e-04 0.0 
0.0 0.0 -9.977007195992e-05 
-1.093881919947e-04 -2.770239582758e-05 0.0 
-2.770239582758e-05 7.220131976624e-04 0.0 
0.0 0.0 -1.093958643288e-04 
-1.406127741505e-04 2.917136878775e-05 0.0 
2.917136878775e-05 9.268398262503e-04 0.0 
0.0 0.0 -1.406784318969e-04 
-1.687115161712e-04 -3.067342872161e-05 0.0 
-3.067342872161e-05 1.136830953558e-03 0.0 
0.0 0.0 -1.687651353947e-04 
-1.585913072065e-04 2.928358840365e-05 0.0 
2.928358840365e-05 1.052859338839e-03 0.0 
0.0 0.0 -1.580633810106e-04 
-5.479081598616e-05 2.994038105978e-05 0.0 
2.994038105978e-05 3.289222848753e-04 0.0 
0.0 0.0 -5.528240989263e-05 
-1.746871843674e-04 3.283276217726e-05 0.0 
3.283276217726e-05 1.185116148222e-03 0.0 
0.0 0.0 -1.775271150753e-04 
-1.679442359996e-04 3.131022344942e-05 0.0 
3.131022344942e-05 1.115031446851e-03 0.0 
0.0 0.0 -1.675626104125e-04 
-1.221593488371e-04 3.511867114280e-05 0.0 
3.511867114280e-05 8.006612417280e-04 0.0 
0.0 0.0 -1.216572242888e-04 
-1.462466688388e-04 2.908933395677e-05 0.0 
2.908933395677e-05 9.660970915257e-04 0.0 
0.0 0.0 -1.463062179487e-04 
-1.447835164611e-04 2.956128772271e-05 0.0 
2.956128772271e-05 9.567010152770e-04 0.0 
0.0 0.0 -1.449838819924e-04 
-1.792333390310e-04 -3.168391798873e-05 0.0 
-3.168391798873e-05 1.203028324022e-03 0.0 
0.0 0.0 -1.778043281469e-04 
-1.726861877255e-04 2.779707870147e-05 0.0 
2.779707870147e-05 1.157249200719e-03 0.0 
0.0 0.0 -1.726459165900e-04 
-1.329452909279e-04 -2.927403005553e-05 0.0 
-2.927403005553e-05 8.870966851266e-04 0.0 
0.0 0.0 -1.330039573441e-04 
-1.775653267684e-04 -2.916250387629e-05 0.0 
-2.916250387629e-05 1.203364525945e-03 0.0 
0.0 0.0 -1.786308073928e-04 
-1.654805505207e-04 2.898950024976e-05 0.0 
2.898950024976e-05 1.100881704438e-03 0.0 
0.0 0.0 -1.655124361118e-04 
-1.580020696379e-04 -2.712101494930e-05 0.0 
-2.712101494930e-05 1.052848737751e-03 0.0 
0.0 0.0 -1.580622427210e-04 
-1.810952274087e-04 -3.284061138223e-05 0.0 
-3.284061138223e-05 1.222270948259e-03 0.0 
0.0 0.0 -1.815025845867e-04 
-1.775177136140e-04 -3.096279402686e-05 0.0 
-3.096279402686e-05 1.194150968252e-03 0.0 
0.0 0.0 -1.772606145979e-04 
-1.518616300347e-04 -3.096354740043e-05 0.0 
-3.096354740043e-05 1.015068895178e-03 0.0 
0.0 0.0 -1.517726872707e-04 
-1.496823891535e-04 -2.920446452269e-05 0.0 
-2.920446452269e-05 1.003862088151e-03 0.0 
0.0 0.0 -1.497848398488e-04 
-5.427687096238e-05 2.854055310501e-05 0.0 
2.854055310501e-05 3.273443379495e-04 0.0 
0.0 0.0 -5.466547164956e-05 
-5.095033440368e-05 2.883575061878e-05 0.0 
2.883575061878e-05 3.031424762161e-04 0.0 
0.0 0.0 -5.122137633346e-05 
-3.072034194903e-05 -3.506956867742e-05 0.0 
-3.506956867742e-05 1.557986335542e-04 0.0 
0.0 0.0 -2.814555096794e-05 
-1.579898709992e-05 2.384950188939e-07 0.0 
2.384950188939e-07 9.239980657952e-05 0.0 
0.0 0.0 -1.548055260559e-05 
-1.719981887166e-04 -3.054801319503e-05 0.0 
-3.054801319503e-05 1.160032239923e-03 0.0 
0.0 0.0 -1.726497055680e-04 
-1.730057153277e-04 2.894349992059e-05 0.0 
2.894349992059e-05 1.155971227885e-03 0.0 
0.0 0.0 -1.735259579760e-04 
-1.534650184937e-05 9.500651036844e-07 0.0 
9.500651036844e-07 8.883806811954e-05 0.0 
0.0 0.0 -1.543927480913e-05 
-1.729354271187e-04 -2.918916139558e-05 0.0 
-2.918916139558e-05 1.170988397774e-03 0.0 
0.0 0.0 -1.740447999656e-04 
-1.236089081148e-04 3.200079916068e-05 0.0 
3.200079916068e-05 8.273931967603e-04 0.0 
0.0 0.0 -1.265519798902e-04 
-1.594739007149e-04 -3.000529878065e-05 0.0 
-3.000529878065e-05 1.075639781327e-03 0.0 
0.0 0.0 -1.601216174199e-04 
-1.636627678593e-04 2.889886741851e-05 0.0 
2.889886741851e-05 1.086851557310e-03 0.0 
0.0 0.0 -1.635645035532e-04 
-7.625528765098e-05 2.781792169367e-05 0.0 
2.781792169367e-05 4.777485640918e-04 0.0 
0.0 0.0 -7.635943377870e-05 
-1.632628531148e-04 -2.978415075944e-05 0.0 
-2.978415075944e-05 1.096266397172e-03 0.0 
0.0 0.0 -1.631933750172e-04 
-1.207910536096e-04 -4.061404171323e-05 0.0 
-4.061404171323e-05 8.019844783726e-04 0.0 
0.0 0.0 -1.215026445147e-04 
-1.504315644849e-04 -2.965320847345e-05 0.0 
-2.965320847345e-05 1.005966507733e-03 0.0 
0.0 0.0 -1.500583224091e-04 
-1.846754410923e-04 3.352091310646e-05 0.0 
3.352091310646e-05 1.245792346023e-03 0.0 
0.0 0.0 -1.864447358774e-04 
-5.279032525833e-05 2.208619701697e-05 0.0 
2.208619701697e-05 3.133772429488e-04 0.0 
0.0 0.0 -5.313656330857e-05 
-1.831953493923e-04 -2.511536867923e-05 0.0 
-2.511536867923e-05 1.231406037521e-03 0.0 
0.0 0.0 -1.822568313532e-04 
-1.571776203955e-04 -2.822373229928e-05 0.0 
-2.822373229928e-05 1.054015413805e-03 0.0 
0.0 0.0 -1.572433088830e-04 
-5.834406746481e-05 3.055754480025e-05 0.0 
3.055754480025e-05 3.570231696704e-04 0.0 
0.0 0.0 -5.895916886618e-05 
-6.008933693805e-05 -2.693292101219e-05 0.0 
-2.693292101219e-05 3.827519316289e-04 0.0 
0.0 0.0 -6.052350288525e-05 
-1.184340009129e-04 2.989577006112e-05 0.0 
2.989577006112e-05 7.732438321287e-04 0.0 
0.0 0.0 -1.186440953039e-04 
-1.421755537841e-04 3.042033410873e-05 0.0 
3.042033410873e-05 9.320324598368e-04 0.0 
0.0 0.0 -1.411471141782e-04 
-8.083756678408e-05 2.897464216654e-05 0.0 
2.897464216654e-05 5.134881601291e-04 0.0 
0.0 0.0 -8.144657762318e-05 
-1.627359267385e-04 -3.016848544890e-05 0.0 
-3.016848544890e-05 1.091242501789e-03 0.0 
0.0 0.0 -1.627679727590e-04 
-1.463730196707e-04 -3.358422439378e-05 0.0 
-3.358422439378e-05 9.789488013624e-04 0.0 
0.0 0.0 -1.472519143444e-04 
-1.152261228612e-04 2.820263711739e-05 0.0 
2.820263711739e-05 7.517075314357e-04 0.0 
0.0 0.0 -1.155139551463e-04 
-1.539721025279e-04 -2.767350944115e-05 0.0 
-2.767350944115e-05 1.026348259349e-03 0.0 
0.0 0.0 -1.532636563680e-04 
-1.586940631686e-04 -2.997071389939e-05 0.0 
-2.997071389939e-05 1.067020467702e-03 0.0 
0.0 0.0 -1.588045401937e-04 
-1.586913358411e-04 3.263624713145e-05 0.0 
3.263624713145e-05 1.044672031080e-03 0.0 
0.0 0.0 -1.576021588438e-04 
-4.550621427776e-05 -2.757364409112e-05 0.0 
-2.757364409112e-05 2.786110438531e-04 0.0 
0.0 0.0 -4.588123838153e-05 
-1.095812830794e-04 2.804439789498e-05 0.0 
2.804439789498e-05 7.132223363853e-04 0.0 
0.0 0.0 -1.099287363951e-04 
-1.704275424327e-04 3.124314915643e-05 0.0 
3.124314915643e-05 1.141631777300e-03 0.0 
0.0 0.0 -1.711692687607e-04 
-1.617652388930e-04 -2.976223953276e-05 0.0 
-2.976223953276e-05 1.085248624266e-03 0.0 
0.0 0.0 -1.617298285672e-04 
-9.932779323652e-05 3.247070041484e-05 0.0 
3.247070041484e-05 6.407303244551e-04 0.0 
0.0 0.0 -1.000025319772e-04 
-1.372362599773e-04 -2.929140934786e-05 0.0 
-2.929140934786e-05 9.170515288159e-04 0.0 
0.0 0.0 -1.372955424611e-04 
-1.781532306591e-04 -3.038825115168e-05 0.0 
-3.038825115168e-05 1.202531523701e-03 0.0 
0.0 0.0 -1.781379491294e-04 
-1.507990336472e-04 2.853112124702e-05 0.0 
2.853112124702e-05 1.007077831849e-03 0.0 
0.0 0.0 -1.520953659658e-04 
-2.863924773083e-05 -3.201515123380e-05 0.0 
-3.201515123380e-05 1.478580457183e-04 0.0 
0.0 0.0 -2.710093308172e-05 
-2.955220796048e-05 -3.089794713249e-05 0.0 
-3.089794713249e-05 1.503888673604e-04 0.0 
0.0 0.0 -2.753304043464e-05 
-5.273989345688e-05 -2.717936029267e-05 0.0 
-2.717936029267e-05 3.233117972350e-04 0.0 
0.0 0.0 -5.201063495363e-05 
-1.693284171481e-04 3.002349955065e-05 0.0 
3.002349955065e-05 1.126502264070e-03 0.0 
0.0 0.0 -1.691756543757e-04 
-1.472485094623e-04 2.900717882423e-05 0.0 
2.900717882423e-05 9.697797839987e-04 0.0 
0.0 0.0 -1.466250473148e-04 
-1.255735830660e-04 -3.222245594843e-05 0.0 
-3.222245594843e-05 8.565507458900e-04 0.0 
0.0 0.0 -1.276957716749e-04 
-1.309605655324e-04 2.844392373699e-05 0.0 
2.844392373699e-05 8.631762486065e-04 0.0 
0.0 0.0 -1.311842221922e-04 
-1.705994579248e-04 -2.912195010466e-05 0.0 
-2.912195010466e-05 1.150350461823e-03 0.0 
0.0 0.0 -1.708795005752e-04 
-1.197229653638e-04 2.838848019244e-05 0.0 
2.838848019244e-05 7.818358523863e-04 0.0 
0.0 0.0 -1.198307167265e-04 
-1.587419479579e-04 2.931310418594e-05 0.0 
2.931310418594e-05 1.056312831607e-03 0.0 
0.0 0.0 -1.592449238259e-04 
-5.334541196780e-05 -2.737759313696e-05 0.0 
-2.737759313696e-05 3.380073693947e-04 0.0 
0.0 0.0 -5.422683465997e-05 
-1.820085836177e-04 3.596926237720e-05 0.0 
3.596926237720e-05 1.220521251632e-03 0.0 
0.0 0.0 -1.817296696507e-04 
-1.149006963939e-04 -2.979806393901e-05 0.0 
-2.979806393901e-05 7.621150101384e-04 0.0 
0.0 0.0 -1.150969102169e-04 
-5.891651114318e-05 -2.911512363173e-05 0.0 
-2.911512363173e-05 3.703729731158e-04 0.0 
0.0 0.0 -5.833749487792e-05 
-1.097144826369e-04 -3.210843000057e-05 0.0 
-3.210843000057e-05 7.218042111898e-04 0.0 
0.0 0.0 -1.096669806773e-04 
-8.504854609334e-05 2.789969650457e-05 0.0 
2.789969650457e-05 5.434275787344e-04 0.0 
0.0 0.0 -8.575010502695e-05 
-6.662869610533e-05 -2.920394233023e-05 0.0 
-2.920394233023e-05 4.253303798385e-04 0.0 
0.0 0.0 -6.679150530213e-05 
-1.281203035701e-04 2.817302591064e-05 0.0 
2.817302591064e-05 8.398276961004e-04 0.0 
0.0 0.0 -1.284742647491e-04 
0.0 0.0 0.0 
0.0 0.0 0.0 
0.0 0.0 0.0 
0.0 0.0 0.0 
0.0 0.0 0.0 
0.0 0.0 0.0 
-1.445088964832e-04 -2.893688476098e-05 0.0 
-2.893688476098e-05 9.674073108634e-04 0.0 
0.0 0.0 -1.445400849015e-04 
-4.892423638284e-05 -2.632452238192e-05 0.0 
-2.632452238192e-05 3.096365629157e-04 0.0 
0.0 0.0 -5.004674077938e-05 
-1.457493822096e-04 -2.962474104526e-05 0.0 
-2.962474104526e-05 9.767716228798e-04 0.0 
0.0 0.0 -1.458658349781e-04 
-1.415183033580e-04 -2.921664079038e-05 0.0 
-2.921664079038e-05 9.471227879207e-04 0.0 
0.0 0.0 -1.415771022166e-04 
-9.224355795817e-05 2.937565561905e-05 0.0 
2.937565561905e-05 5.919004124542e-04 0.0 
0.0 0.0 -9.266636470267e-05 
-6.202111907479e-05 2.972814442546e-05 0.0 
2.972814442546e-05 3.814986374049e-04 0.0 
0.0 0.0 -6.243334508123e-05 
-1.705073254263e-04 -3.058386286971e-05 0.0 
-3.058386286971e-05 1.147565254188e-03 0.0 
0.0 0.0 -1.706579733040e-04 
-3.233825504350e-05 -1.324403429526e-05 0.0 
-1.324403429526e-05 1.436007537479e-04 0.0 
0.0 0.0 -3.071301381923e-05 
-9.032577727252e-05 2.603440625466e-05 0.0 
2.603440625466e-05 5.755517471348e-04 0.0 
0.0 0.0 -9.007223908940e-05 
-1.758201471036e-04 -2.496828995894e-05 0.0 
-2.496828995894e-05 1.183557369344e-03 0.0 
0.0 0.0 -1.763300484694e-04 
-4.234236352950e-05 2.833023666619e-05 0.0 
2.833023666619e-05 2.526301394403e-04 0.0 
0.0 0.0 -4.466356309917e-05 
-1.370406890181e-04 -2.882178052615e-05 0.0 
-2.882178052615e-05 9.084977336144e-04 0.0 
0.0 0.0 -1.363328868096e-04 
-1.251017907088e-04 -3.342170659080e-05 0.0 
-3.342170659080e-05 8.360831923250e-04 0.0 
0.0 0.0 -1.262442940543e-04 
-4.243995648314e-05 -2.885964126201e-05 0.0 
-2.885964126201e-05 2.574366796815e-04 0.0 
0.0 0.0 -4.263591946142e-05 
-1.739889600423e-04 -2.690839563986e-05 0.0 
-2.690839563986e-05 1.171323703451e-03 0.0 
0.0 0.0 -1.738083055154e-04 
-1.553384911707e-04 -2.978982874275e-05 0.0 
-2.978982874275e-05 1.040098894659e-03 0.0 
0.0 0.0 -1.552347842588e-04 
-5.039241409165e-05 2.679614467153e-05 0.0 
2.679614467153e-05 2.983848210045e-04 0.0 
0.0 0.0 -5.046983505462e-05 
-1.747728255798e-04 -2.774380167709e-05 0.0 
-2.774380167709e-05 1.177437247902e-03 0.0 
0.0 0.0 -1.749780669508e-04 
-1.757727651253e-04 2.551606084145e-05 0.0 
2.551606084145e-05 1.168074540028e-03 0.0 
0.0 0.0 -1.753502448874e-04 
-5.505726652839e-05 -3.093038002705e-05 0.0 
-3.093038002705e-05 3.465532391474e-04 0.0 
0.0 0.0 -5.552857102027e-05 
-7.317029843834e-05 -3.194987778490e-05 0.0 
-3.194987778490e-05 4.614269377597e-04 0.0 
0.0 0.0 -7.202002872087e-05 
-5.677279645057e-05 -2.927873741732e-05 0.0 
-2.927873741732e-05 3.560995133108e-04 0.0 
0.0 0.0 -5.686660089389e-05 
-1.535151853389e-04 -2.933036748660e-05 0.0 
-2.933036748660e-05 1.036192859014e-03 0.0 
0.0 0.0 -1.544885262514e-04 
-1.242530601195e-04 2.861329611066e-05 0.0 
2.861329611066e-05 8.120316343009e-04 0.0 
0.0 0.0 -1.241455235793e-04 
-1.762597939278e-04 2.757012001528e-05 0.0 
2.757012001528e-05 1.169740478878e-03 0.0 
0.0 0.0 -1.754294197466e-04 
-1.711850229745e-04 2.864038460658e-05 0.0 
2.864038460658e-05 1.139237277346e-03 0.0 
0.0 0.0 -1.710046063662e-04 
-1.497953027623e-04 -2.952090845357e-05 0.0 
-2.952090845357e-05 1.006551656477e-03 0.0 
0.0 0.0 -1.501751650533e-04 
-1.503962620125e-04 2.908649725408e-05 0.0 
2.908649725408e-05 9.959224082837e-04 0.0 
0.0 0.0 -1.506140208444e-04 
-4.755962799573e-05 2.961725835591e-05 0.0 
2.961725835591e-05 2.764290125414e-04 0.0 
0.0 0.0 -4.738039998630e-05 
-1.544053010064e-04 2.921080048960e-05 0.0 
2.921080048960e-05 1.025561320549e-03 0.0 
0.0 0.0 -1.549280912548e-04 
-1.557486119605e-04 2.953656624643e-05 0.0 
2.953656624643e-05 1.031918401575e-03 0.0 
0.0 0.0 -1.555717122721e-04 
-1.233043498576e-04 -2.852184502998e-05 0.0 
-2.852184502998e-05 8.222615261922e-04 0.0 
0.0 0.0 -1.237306916726e-04 
-1.467661945651e-04 -2.993950527874e-05 0.0 
-2.993950527874e-05 9.778837446955e-04 0.0 
0.0 0.0 -1.462911275235e-04 
-1.606564974618e-04 -3.021309399430e-05 0.0 
-3.021309399430e-05 1.078198516753e-03 0.0 
0.0 0.0 -1.607123627396e-04 
-1.117498861518e-04 2.850262572474e-05 0.0 
2.850262572474e-05 7.245894762642e-04 0.0 
0.0 0.0 -1.115305788895e-04 
-1.668451985095e-04 2.929977478704e-05 0.0 
2.929977478704e-05 1.108305524184e-03 0.0 
0.0 0.0 -1.665387401245e-04 
-1.057225299962e-04 3.155313044250e-05 0.0 
3.155313044250e-05 6.826770249726e-04 0.0 
0.0 0.0 -1.044775758143e-04 
-1.196746585436e-04 -2.994940432812e-05 0.0 
-2.994940432812e-05 7.923200024953e-04 0.0 
0.0 0.0 -1.194095964715e-04 
-8.002674295402e-05 3.358846946639e-05 0.0 
3.358846946639e-05 5.079680145232e-04 0.0 
0.0 0.0 -8.013437995356e-05 
-8.330364669841e-05 -2.724402051282e-05 0.0 
-2.724402051282e-05 5.442521817240e-04 0.0 
0.0 0.0 -8.372375584921e-05 
-1.515465133375e-04 2.950843049766e-05 0.0 
2.950843049766e-05 1.000906494757e-03 0.0 
0.0 0.0 -1.511009726023e-04 
-1.144286686682e-04 -2.867408820424e-05 0.0 
-2.867408820424e-05 7.585750249113e-04 0.0 
0.0 0.0 -1.145674989690e-04 
-6.084802831260e-05 -2.991902315111e-05 0.0 
-2.991902315111e-05 3.860715331104e-04 0.0 
0.0 0.0 -6.116241410045e-05 
-3.353257843682e-05 -2.498074177198e-05 0.0 
-2.498074177198e-05 1.896944408225e-04 0.0 
0.0 0.0 -3.278510925449e-05 
-1.508054349256e-04 -2.953924267332e-05 0.0 
-2.953924267332e-05 1.009022901988e-03 0.0 
0.0 0.0 -1.507672500721e-04 
-6.144560576959e-05 2.946678310881e-05 0.0 
2.946678310881e-05 3.752423857179e-04 0.0 
0.0 0.0 -6.160741095528e-05 
-1.795193782850e-04 3.015966066455e-05 0.0 
3.015966066455e-05 1.220916437867e-03 0.0 
0.0 0.0 -1.828075300492e-04 
-1.564210717973e-04 2.928181705796e-05 0.0 
2.928181705796e-05 1.038697099430e-03 0.0 
0.0 0.0 -1.565825172896e-04 
-1.601803915316e-04 2.879046078541e-05 0.0 
2.879046078541e-05 1.065098279090e-03 0.0 
0.0 0.0 -1.605560195386e-04 
-1.924510169718e-04 -3.681008615861e-06 0.0 
-3.681008615861e-06 1.266195614385e-03 0.0 
0.0 0.0 -1.927094427628e-04 
-9.917312679716e-05 -3.248065919378e-05 0.0 
-3.248065919378e-05 6.537270345769e-04 0.0 
0.0 0.0 -9.956065683389e-05 
-5.578848237072e-05 2.919143814272e-05 0.0 
2.919143814272e-05 3.356753976095e-04 0.0 
0.0 0.0 -5.597427817213e-05 
-3.764707681470e-05 3.152158318827e-05 0.0 
3.152158318827e-05 2.055269805242e-04 0.0 
0.0 0.0 -3.744316153082e-05 
-1.513908916278e-04 -2.965358922743e-05 0.0 
-2.965358922743e-05 1.015985434205e-03 0.0 
0.0 0.0 -1.514863114221e-04 
-1.425433722621e-04 3.012022841548e-05 0.0 
3.012022841548e-05 9.394937491690e-04 0.0 
0.0 0.0 -1.421023406183e-04 
-2.681800511095e-05 2.581926760662e-05 0.0 
2.581926760662e-05 1.385235032261e-04 0.0 
0.0 0.0 -2.788272662613e-05 
-7.959731755198e-05 -2.970357934053e-05 0.0 
-2.970357934053e-05 5.241419312225e-04 0.0 
0.0 0.0 -8.100711145360e-05 
-4.597324572621e-05 -2.624539862290e-05 0.0 
-2.624539862290e-05 3.001894932538e-04 0.0 
0.0 0.0 -4.869105516194e-05 
-1.408940546525e-04 -2.794056746742e-05 0.0 
-2.794056746742e-05 9.400214273018e-04 0.0 
0.0 0.0 -1.408175133641e-04 
-8.220239972126e-05 -3.150539897154e-05 0.0 
-3.150539897154e-05 5.540054204137e-04 0.0 
0.0 0.0 -8.531818138572e-05 
-1.420072539078e-04 2.886098902268e-05 0.0 
2.886098902268e-05 9.363360353424e-04 0.0 
0.0 0.0 -1.420190347897e-04 
-8.142682941929e-05 -3.127687653374e-05 0.0 
-3.127687653374e-05 5.123505803199e-04 0.0 
0.0 0.0 -8.006333120906e-05 
-1.676020446456e-04 -3.106665135098e-05 0.0 
-3.106665135098e-05 1.123875757488e-03 0.0 
0.0 0.0 -1.672214290798e-04 
-7.117572739314e-05 2.988293947474e-05 0.0 
2.988293947474e-05 4.447820599446e-04 0.0 
0.0 0.0 -7.152995986871e-05 
-1.528626195223e-04 -2.956851905674e-05 0.0 
-2.956851905674e-05 1.025224946446e-03 0.0 
0.0 0.0 -1.527886262531e-04 
-5.059375724921e-05 -2.868524116335e-05 0.0 
-2.868524116335e-05 3.156970290875e-04 0.0 
0.0 0.0 -5.064650353833e-05 
-1.471629417592e-04 -2.959313709753e-05 0.0 
-2.959313709753e-05 9.860061145689e-04 0.0 
0.0 0.0 -1.471833001180e-04 
-1.144539418112e-04 -2.473861065929e-05 0.0 
-2.473861065929e-05 7.560825404925e-04 0.0 
0.0 0.0 -1.140633649831e-04 
-1.560905633689e-04 2.900023350889e-05 0.0 
2.900023350889e-05 1.035339225371e-03 0.0 
0.0 0.0 -1.562332567718e-04 
-8.041016399686e-05 2.814724334195e-05 0.0 
2.814724334195e-05 5.070504478833e-04 0.0 
0.0 0.0 -8.025424390503e-05 
-4.885024697967e-05 3.157288993858e-05 0.0 
3.157288993858e-05 2.863708627365e-04 0.0 
0.0 0.0 -4.915965252508e-05 
-1.306396509784e-04 -2.896286188210e-05 0.0 
-2.896286188210e-05 8.760759259617e-04 0.0 
0.0 0.0 -1.318090263425e-04 
-1.421840376928e-04 -2.883026291404e-05 0.0 
-2.883026291404e-05 9.494244979280e-04 0.0 
0.0 0.0 -1.419644564515e-04 
-1.018318441446e-04 2.874180221663e-05 0.0 
2.874180221663e-05 6.553763140814e-04 0.0 
0.0 0.0 -1.016412246321e-04 
-1.420263861118e-04 -3.127951009604e-05 0.0 
-3.127951009604e-05 9.447561927313e-04 0.0 
0.0 0.0 -1.417981522837e-04 
-5.634120637729e-05 -2.901059335072e-05 0.0 
-2.901059335072e-05 3.528621573190e-04 0.0 
0.0 0.0 -5.638371198943e-05 
-1.449671090102e-04 2.903465807275e-05 0.0 
2.903465807275e-05 9.569114950414e-04 0.0 
0.0 0.0 -1.446420687869e-04 
-4.539864356175e-05 -2.892446416447e-05 0.0 
-2.892446416447e-05 2.698402511523e-04 0.0 
0.0 0.0 -4.421511183446e-05 
-1.729769140722e-04 -3.077324556460e-05 0.0 
-3.077324556460e-05 1.164178924141e-03 0.0 
0.0 0.0 -1.725604168134e-04 
-1.475790650913e-04 -2.860800824990e-05 0.0 
-2.860800824990e-05 9.878754875081e-04 0.0 
0.0 0.0 -1.475206686141e-04 
-1.559172333653e-04 -2.909982133967e-05 0.0 
-2.909982133967e-05 1.044176401684e-03 0.0 
0.0 0.0 -1.555576518016e-04 
-1.814415509393e-04 -3.096082582331e-05 0.0 
-3.096082582331e-05 1.219536896500e-03 0.0 
0.0 0.0 -1.806695418618e-04 
-1.243391768637e-04 -2.906810919430e-05 0.0 
-2.906810919430e-05 8.271957787415e-04 0.0 
0.0 0.0 -1.244215412621e-04 
-4.664731672080e-05 2.860386537301e-05 0.0 
2.860386537301e-05 2.677194554706e-04 0.0 
0.0 0.0 -4.622233884158e-05 
-1.385662832492e-04 -2.918174486768e-05 0.0 
-2.918174486768e-05 9.260656173097e-04 0.0 
0.0 0.0 -1.385923280275e-04 
-1.786563386237e-04 3.101548389749e-05 0.0 
3.101548389749e-05 1.192786428697e-03 0.0 
0.0 0.0 -1.784944650888e-04 
-7.162593897649e-05 -2.768839620490e-05 0.0 
-2.768839620490e-05 4.607586366936e-04 0.0 
0.0 0.0 -7.179147874927e-05 
-1.555062997913e-04 -2.993363634807e-05 0.0 
-2.993363634807e-05 1.045876444410e-03 0.0 
0.0 0.0 -1.558013491646e-04 
-1.563360137049e-04 -3.042238300922e-05 0.0 
-3.042238300922e-05 1.046916559821e-03 0.0 
0.0 0.0 -1.562447224125e-04 
-5.757013598642e-05 2.991181572022e-05 0.0 
2.991181572022e-05 3.517212459558e-04 0.0 
0.0 0.0 -5.821047451129e-05 
-1.428729262720e-04 -2.942561466243e-05 0.0 
-2.942561466243e-05 9.560791547854e-04 0.0 
0.0 0.0 -1.428864875989e-04 
-1.287965022508e-04 -2.896617927485e-05 0.0 
-2.896617927485e-05 8.622522049021e-04 0.0 
0.0 0.0 -1.299469088572e-04 
-6.374853467835e-05 -2.810218119480e-05 0.0 
-2.810218119480e-05 4.066202706617e-04 0.0 
0.0 0.0 -6.420979177598e-05 
-7.595105816060e-05 -2.936393149418e-05 0.0 
-2.936393149418e-05 4.942830544211e-04 0.0 
0.0 0.0 -7.670872189436e-05 
-1.201712666697e-04 -2.803941660002e-05 0.0 
-2.803941660002e-05 7.961944137223e-04 0.0 
0.0 0.0 -1.200650238334e-04 
-1.519360189963e-04 2.891732000513e-05 0.0 
2.891732000513e-05 1.005387589283e-03 0.0 
0.0 0.0 -1.519214610183e-04 
-9.356553445047e-05 -2.682931258762e-05 0.0 
-2.682931258762e-05 6.080636784229e-04 0.0 
0.0 0.0 -9.302852286394e-05 
-1.148225546297e-04 -2.766542218562e-05 0.0 
-2.766542218562e-05 7.592972424786e-04 0.0 
0.0 0.0 -1.147482613702e-04 
-1.503198881368e-04 2.949228603565e-05 0.0 
2.949228603565e-05 9.943051761167e-04 0.0 
0.0 0.0 -1.501005480629e-04 
-1.374005660342e-04 3.157606201505e-05 0.0 
3.157606201505e-05 9.005540063851e-04 0.0 
0.0 0.0 -1.366500051239e-04 
-1.347749466574e-04 2.885807283713e-05 0.0 
2.885807283713e-05 8.878066807984e-04 0.0 
0.0 0.0 -1.347600488312e-04 
-1.145362197550e-04 2.550352213040e-05 0.0 
2.550352213040e-05 7.456789542705e-04 0.0 
0.0 0.0 -1.144140342440e-04 
-1.695537970541e-04 -2.847502421030e-05 0.0 
-2.847502421030e-05 1.141434530816e-03 0.0 
0.0 0.0 -1.695946584253e-04 
-1.342454359541e-04 -2.916302751234e-05 0.0 
-2.916302751234e-05 8.959753783056e-04 0.0 
0.0 0.0 -1.342994322642e-04 
-1.322842234433e-04 -2.713149803653e-05 0.0 
-2.713149803653e-05 8.716283599231e-04 0.0 
0.0 0.0 -1.308078780678e-04 
-1.770483125758e-04 -3.816029544209e-05 0.0 
-3.816029544209e-05 1.206702644282e-03 0.0 
0.0 0.0 -1.790376217081e-04 
-1.611476114444e-04 -3.043480837471e-05 0.0 
-3.043480837471e-05 1.081441463167e-03 0.0 
0.0 0.0 -1.610150566254e-04 
-1.476770815163e-04 2.899987339716e-05 0.0 
2.899987339716e-05 9.753794939162e-04 0.0 
0.0 0.0 -1.476201541636e-04 
-1.611330782201e-04 2.905567155013e-05 0.0 
2.905567155013e-05 1.069983027336e-03 0.0 
0.0 0.0 -1.610516503497e-04 
-8.740593351110e-05 -2.912313751195e-05 0.0 
-2.912313751195e-05 5.726625862703e-04 0.0 
0.0 0.0 -8.793939796372e-05 
-8.171492670432e-05 -2.932902119484e-05 0.0 
-2.932902119484e-05 5.334328304052e-04 0.0 
0.0 0.0 -8.232547559154e-05 
-4.800447364230e-05 -3.012015532788e-05 0.0 
-3.012015532788e-05 2.869100395093e-04 0.0 
0.0 0.0 -4.696026287600e-05 
-1.441554214945e-04 -2.906909676708e-05 0.0 
-2.906909676708e-05 9.649388349351e-04 0.0 
0.0 0.0 -1.441889713514e-04 
-8.596373130116e-05 -2.989926546104e-05 0.0 
-2.989926546104e-05 5.634483412629e-04 0.0 
0.0 0.0 -8.662504503560e-05 
-1.451435112077e-04 -2.967645824646e-05 0.0 
-2.967645824646e-05 9.706064754812e-04 0.0 
0.0 0.0 -1.452980301833e-04 
-1.396166376490e-04 -3.014351176356e-05 0.0 
-3.014351176356e-05 9.327092269117e-04 0.0 
0.0 0.0 -1.398369520768e-04 
-1.154194635136e-04 -2.909513876125e-05 0.0 
-2.909513876125e-05 7.637657077962e-04 0.0 
0.0 0.0 -1.153554527486e-04 
-7.239252784308e-05 2.950013499781e-05 0.0 
2.950013499781e-05 4.534037638191e-04 0.0 
0.0 0.0 -7.290299529228e-05 
-7.749228313482e-05 2.843063642712e-05 0.0 
2.843063642712e-05 4.849158394470e-04 0.0 
0.0 0.0 -7.722881688633e-05 
-7.663260260599e-05 2.940565300322e-05 0.0 
2.940565300322e-05 4.835296870814e-04 0.0 
0.0 0.0 -7.715173463647e-05 
-8.222724475914e-05 2.943935483783e-05 0.0 
2.943935483783e-05 5.226854242882e-04 0.0 
0.0 0.0 -8.276944949314e-05 
-5.179916544049e-05 2.954513306229e-05 0.0 
2.954513306229e-05 3.061348363473e-04 0.0 
0.0 0.0 -5.170396853346e-05 
-1.651578227306e-04 -2.992587384468e-05 0.0 
-2.992587384468e-05 1.111733425696e-03 0.0 
0.0 0.0 -1.652773843454e-04 
-9.948855107052e-05 2.885367954846e-05 0.0 
2.885367954846e-05 6.405116978971e-04 0.0 
0.0 0.0 -9.964436741213e-05 
-1.662477458002e-04 -3.047676524263e-05 0.0 
-3.047676524263e-05 1.116582984939e-03 0.0 
0.0 0.0 -1.661983567841e-04 
-1.051663505476e-04 2.891924803496e-05 0.0 
2.891924803496e-05 6.798882607135e-04 0.0 
0.0 0.0 -1.051955911267e-04 
-1.389859752123e-04 2.935926346480e-05 0.0 
2.935926346480e-05 9.155140148814e-04 0.0 
0.0 0.0 -1.390270654409e-04 
-1.191970428493e-04 2.933621105808e-05 0.0 
2.933621105808e-05 7.778286910325e-04 0.0 
0.0 0.0 -1.192747742027e-04 
-1.135913502195e-04 -2.809027510556e-05 0.0 
-2.809027510556e-05 7.506742469309e-04 0.0 
0.0 0.0 -1.135115339107e-04 
-5.106044890974e-05 -2.876916180737e-05 0.0 
-2.876916180737e-05 3.172111510085e-04 0.0 
0.0 0.0 -5.125664266653e-05 
-1.752549930891e-04 2.732480278546e-05 0.0 
2.732480278546e-05 1.160084193771e-03 0.0 
0.0 0.0 -1.742537888328e-04 
-1.812425183446e-04 -3.207933204969e-05 0.0 
-3.207933204969e-05 1.217777268391e-03 0.0 
0.0 0.0 -1.798074479024e-04 
-1.447184212035e-04 2.760935291747e-05 0.0 
2.760935291747e-05 9.561038377489e-04 0.0 
0.0 0.0 -1.447555322295e-04 
-8.799170026550e-05 2.995591967052e-05 0.0 
2.995591967052e-05 5.618551981543e-04 0.0 
0.0 0.0 -8.838578500301e-05 
-1.291031073422e-04 2.928905617391e-05 0.0 
2.928905617391e-05 8.466471064723e-04 0.0 
0.0 0.0 -1.291430278065e-04 
-1.459743152275e-04 3.063361272201e-05 0.0 
3.063361272201e-05 9.624952180302e-04 0.0 
0.0 0.0 -1.456278041792e-04 
-9.171757827104e-05 -2.955677248983e-05 0.0 
-2.955677248983e-05 6.024985060915e-04 0.0 
0.0 0.0 -9.223187090242e-05 
-9.603230277326e-05 -2.698956011667e-05 0.0 
-2.698956011667e-05 6.292701278524e-04 0.0 
0.0 0.0 -9.591352384746e-05 
-7.135185944171e-05 -2.955414223554e-05 0.0 
-2.955414223554e-05 4.555824851191e-04 0.0 
0.0 0.0 -7.108646760088e-05 
-6.173474433371e-05 -2.821557394065e-05 0.0 
-2.821557394065e-05 3.922513376835e-04 0.0 
0.0 0.0 -6.198456146935e-05 
-9.316424430426e-05 -2.882780269440e-05 0.0 
-2.882780269440e-05 6.119471839096e-04 0.0 
0.0 0.0 -9.355109297069e-05 
-6.583505479960e-05 2.848905537375e-05 0.0 
2.848905537375e-05 4.054485477537e-04 0.0 
0.0 0.0 -6.590301617946e-05 
-5.935575914896e-05 -3.007558356553e-05 0.0 
-3.007558356553e-05 3.768942854085e-04 0.0 
0.0 0.0 -5.983332410254e-05 
-1.186940583282e-04 -2.896555378225e-05 0.0 
-2.896555378225e-05 7.883535485114e-04 0.0 
0.0 0.0 -1.188421469351e-04 
-1.433278607698e-04 2.930912982368e-05 0.0 
2.930912982368e-05 9.454702771552e-04 0.0 
0.0 0.0 -1.433226991522e-04 
-1.697903046334e-04 2.624054691426e-05 0.0 
2.624054691426e-05 1.127471310275e-03 0.0 
0.0 0.0 -1.692916167909e-04 
-1.151638097456e-05 7.698944133971e-06 0.0 
7.698944133971e-06 4.425408472007e-05 0.0 
0.0 0.0 -7.213325994108e-06 
-1.023191081859e-04 2.827729942445e-05 0.0 
2.827729942445e-05 6.591938883861e-04 0.0 
0.0 0.0 -1.022830222654e-04 
-1.009919753862e-04 2.844629819877e-05 0.0 
2.844629819877e-05 6.501505763727e-04 0.0 
0.0 0.0 -1.009864671718e-04 
-9.380039017869e-05 2.950262979894e-05 0.0 
2.950262979894e-05 6.011532312502e-04 0.0 
0.0 0.0 -9.402143779290e-05 
-1.401352914634e-04 2.989136649985e-05 0.0 
2.989136649985e-05 9.247108301771e-04 0.0 
0.0 0.0 -1.401624631175e-04 
-1.092974960508e-04 2.941276833440e-05 0.0 
2.941276833440e-05 7.090642486070e-04 0.0 
0.0 0.0 -1.094316366672e-04 
-7.543451708232e-05 3.049036373989e-05 0.0 
3.049036373989e-05 4.754198894243e-04 0.0 
0.0 0.0 -7.582576345695e-05 
-9.891173193058e-05 -2.816068551534e-05 0.0 
-2.816068551534e-05 6.514539666403e-04 0.0 
0.0 0.0 -9.917482013514e-05 
-1.630278650561e-04 2.958590404027e-05 0.0 
2.958590404027e-05 1.077076320853e-03 0.0 
0.0 0.0 -1.620679414655e-04 
-7.702359286569e-05 -2.963111287796e-05 0.0 
-2.963111287796e-05 4.862675717220e-04 0.0 
0.0 0.0 -7.538495559814e-05 
-3.103148260616e-05 2.671216949097e-05 0.0 
2.671216949097e-05 1.654737900210e-04 0.0 
0.0 0.0 -3.198827131509e-05 
-4.232169889993e-05 2.776421737267e-05 0.0 
2.776421737267e-05 2.393069009664e-04 0.0 
0.0 0.0 -4.176863060321e-05 
-6.634744212772e-05 2.949925572575e-05 0.0 
2.949925572575e-05 4.106962890164e-04 0.0 
0.0 0.0 -6.666360735527e-05 
-7.816150117384e-05 2.918629348564e-05 0.0 
2.918629348564e-05 4.928270898341e-04 0.0 
0.0 0.0 -7.858957244827e-05 
-1.065476951188e-04 2.906412835157e-05 0.0 
2.906412835157e-05 6.891124057052e-04 0.0 
0.0 0.0 -1.064874080537e-04 
-1.046128651473e-04 -2.789283442515e-05 0.0 
-2.789283442515e-05 6.906263249349e-04 0.0 
0.0 0.0 -1.047611508630e-04 
-4.666634849019e-05 -3.250127183419e-05 0.0 
-3.250127183419e-05 2.826590938430e-04 0.0 
0.0 0.0 -4.639139346366e-05 
-4.422650169735e-05 -3.160442122719e-05 0.0 
-3.160442122719e-05 2.477476152980e-04 0.0 
0.0 0.0 -4.147803243573e-05 
-1.354421094691e-04 -3.477058406277e-05 0.0 
-3.477058406277e-05 8.849155839961e-04 0.0 
0.0 0.0 -1.332761831430e-04 
-6.529992034190e-05 -3.112094005781e-05 0.0 
-3.112094005781e-05 4.161966199991e-04 0.0 
0.0 0.0 -6.545963842888e-05 
-1.599173792757e-04 2.884984773938e-05 0.0 
2.884984773938e-05 1.062308732050e-03 0.0 
0.0 0.0 -1.601101668940e-04 
-1.640145792258e-04 2.789294437519e-05 0.0 
2.789294437519e-05 1.089847340667e-03 0.0 
0.0 0.0 -1.640071129216e-04 
-1.358364218526e-04 -2.864773194701e-05 0.0 
-2.864773194701e-05 9.015663085663e-04 0.0 
0.0 0.0 -1.352075507658e-04 
-1.691090522456e-04 2.845331053896e-05 0.0 
2.845331053896e-05 1.125515006597e-03 0.0 
0.0 0.0 -1.689126476464e-04 
-1.733194685301e-04 2.616049938131e-05 0.0 
2.616049938131e-05 1.162751062090e-03 0.0 
0.0 0.0 -1.746466296582e-04 
-1.113103175969e-04 -2.904492495481e-05 0.0 
-2.904492495481e-05 7.344679781971e-04 0.0 
0.0 0.0 -1.111327575513e-04 
-1.543419338426e-04 2.788856242459e-05 0.0 
2.788856242459e-05 1.022661884889e-03 0.0 
0.0 0.0 -1.543563508806e-04 
-5.167148472389e-05 -2.833543670219e-05 0.0 
-2.833543670219e-05 3.235982211277e-04 0.0 
0.0 0.0 -5.212100276158e-05 
-1.031213424207e-04 -2.889239140152e-05 0.0 
-2.889239140152e-05 6.806580574394e-04 0.0 
0.0 0.0 -1.034186014727e-04 
-1.034709279330e-04 2.786266615920e-05 0.0 
2.786266615920e-05 6.660582760632e-04 0.0 
0.0 0.0 -1.031952205665e-04 
-6.028919658758e-05 2.668092513971e-05 0.0 
2.668092513971e-05 3.649654199911e-04 0.0 
0.0 0.0 -5.961607156176e-05 
-4.213494566204e-05 -2.931849266110e-05 0.0 
-2.931849266110e-05 2.567319807664e-04 0.0 
0.0 0.0 -4.220635737303e-05 
-8.654776667845e-05 2.918952194239e-05 0.0 
2.918952194239e-05 5.528325958387e-04 0.0 
0.0 0.0 -8.706093026186e-05 
-1.004769780148e-04 -2.772227019028e-05 0.0 
-2.772227019028e-05 6.610823099679e-04 0.0 
0.0 0.0 -1.005514351764e-04 
-1.060430099672e-04 -2.796832696173e-05 0.0 
-2.796832696173e-05 6.996637265558e-04 0.0 
0.0 0.0 -1.060597130133e-04 
-7.058429708504e-05 2.696376381882e-05 0.0 
2.696376381882e-05 4.358412197202e-04 0.0 
0.0 0.0 -7.020228199149e-05 
-1.149702114763e-04 2.916861666016e-05 0.0 
2.916861666016e-05 7.482016199016e-04 0.0 
0.0 0.0 -1.149926572041e-04 
-1.018961975089e-04 -2.764432959957e-05 0.0 
-2.764432959957e-05 6.700658488310e-04 0.0 
0.0 0.0 -1.018518768314e-04 
-1.078880338181e-04 2.829261719461e-05 0.0 
2.829261719461e-05 6.977513239731e-04 0.0 
0.0 0.0 -1.077528216683e-04 
-7.751274952550e-05 -2.834816828620e-05 0.0 
-2.834816828620e-05 5.042136075216e-04 0.0 
0.0 0.0 -7.808165313150e-05 
-1.487528116968e-04 -2.959551626362e-05 0.0 
-2.959551626362e-05 9.968448808877e-04 0.0 
0.0 0.0 -1.488167264463e-04 
-1.501088830239e-04 -3.002822277470e-05 0.0 
-3.002822277470e-05 1.002368649967e-03 0.0 
0.0 0.0 -1.497700977071e-04 
-1.036611104552e-04 2.803937657742e-05 0.0 
2.803937657742e-05 6.681495958179e-04 0.0 
0.0 0.0 -1.035656927818e-04 
-1.696613133079e-04 2.895531178363e-05 0.0 
2.895531178363e-05 1.131067865055e-03 0.0 
0.0 0.0 -1.700243568296e-04 
-5.727268235776e-05 -2.821956991103e-05 0.0 
-2.821956991103e-05 3.625919856272e-04 0.0 
0.0 0.0 -5.774536142498e-05 
-1.807378797874e-04 3.083863400090e-05 0.0 
3.083863400090e-05 1.216171179677e-03 0.0 
0.0 0.0 -1.812757540428e-04 
-1.107278423169e-04 2.926924818457e-05 0.0 
2.926924818457e-05 7.182977638167e-04 0.0 
0.0 0.0 -1.107203250571e-04 
-1.769840871489e-04 3.489293866335e-05 0.0 
3.489293866335e-05 1.208578847919e-03 0.0 
0.0 0.0 -1.805188677947e-04 
-1.376232392385e-04 -2.850354822354e-05 0.0 
-2.850354822354e-05 9.154990550666e-04 0.0 
0.0 0.0 -1.371610485043e-04 
-5.639757509564e-05 2.971463148157e-05 0.0 
2.971463148157e-05 3.421275802933e-04 0.0 
0.0 0.0 -5.682853890605e-05 
-1.399417025807e-04 -2.902435300106e-05 0.0 
-2.902435300106e-05 9.305736500539e-04 0.0 
0.0 0.0 -1.393929574840e-04 
-1.722474544452e-04 2.867109208845e-05 0.0 
2.867109208845e-05 1.148502992599e-03 0.0 
0.0 0.0 -1.722554387731e-04 
-1.162793321609e-04 2.903309505420e-05 0.0 
2.903309505420e-05 7.572372561352e-04 0.0 
0.0 0.0 -1.162159973290e-04 
-8.454182586218e-05 -2.784090404248e-05 0.0 
-2.784090404248e-05 5.479081559787e-04 0.0 
0.0 0.0 -8.432093988479e-05 
-1.438863246759e-04 -2.930384340139e-05 0.0 
-2.930384340139e-05 9.596245582464e-04 0.0 
0.0 0.0 -1.435863591065e-04 
-1.111530589725e-04 2.833421624542e-05 0.0 
2.833421624542e-05 7.207793346527e-04 0.0 
0.0 0.0 -1.110366786716e-04 
-4.573862906079e-05 3.039490600873e-05 0.0 
3.039490600873e-05 2.711520722753e-04 0.0 
0.0 0.0 -4.684619297515e-05 
-1.870955320648e-04 3.081437672742e-05 0.0 
3.081437672742e-05 1.264311478356e-03 0.0 
0.0 0.0 -1.888615860838e-04 
-4.248482680505e-05 3.050161066116e-05 0.0 
3.050161066116e-05 2.352616891617e-04 0.0 
0.0 0.0 -4.121632266810e-05 
-1.771088727211e-04 -2.938926809476e-05 0.0 
-2.938926809476e-05 1.212909459550e-03 0.0 
0.0 0.0 -1.791639973893e-04 
-1.771566623871e-04 2.828554015672e-05 0.0 
2.828554015672e-05 1.177203819354e-03 0.0 
0.0 0.0 -1.763972732427e-04 
-1.529661344135e-04 -2.952014478129e-05 0.0 
-2.952014478129e-05 1.026629378024e-03 0.0 
0.0 0.0 -1.530775205951e-04 
-1.359594450574e-04 3.325053532527e-05 0.0 
3.325053532527e-05 8.922454278314e-04 0.0 
0.0 0.0 -1.356269418710e-04 
-1.644239763161e-04 -3.062030831265e-05 0.0 
-3.062030831265e-05 1.103176739090e-03 0.0 
0.0 0.0 -1.641343017522e-04 
-1.073732254289e-04 -2.774733318227e-05 0.0 
-2.774733318227e-05 7.082936325730e-04 0.0 
0.0 0.0 -1.073249441206e-04 
-1.251403265974e-04 -2.940532100017e-05 0.0 
-2.940532100017e-05 8.313761795825e-04 0.0 
0.0 0.0 -1.250629185325e-04 
-1.768873143391e-04 2.872670345058e-05 0.0 
2.872670345058e-05 1.193015524360e-03 0.0 
0.0 0.0 -1.787673453274e-04 
-1.533533607312e-04 2.921855117467e-05 0.0 
2.921855117467e-05 1.014614364332e-03 0.0 
0.0 0.0 -1.532196148344e-04 
-1.544705070620e-04 -2.993018470978e-05 0.0 
-2.993018470978e-05 1.033859279725e-03 0.0 
0.0 0.0 -1.542337544108e-04 
-1.470105554746e-04 3.050415116692e-05 0.0 
3.050415116692e-05 9.703822682050e-04 0.0 
0.0 0.0 -1.467116565689e-04 
-5.190467070806e-05 2.923657524478e-05 0.0 
2.923657524478e-05 3.125147726987e-04 0.0 
0.0 0.0 -5.258904166863e-05 
-1.585497388479e-04 -3.036107211364e-05 0.0 
-3.036107211364e-05 1.064785683487e-03 0.0 
0.0 0.0 -1.586792192556e-04 
-1.867823602022e-04 -4.423334107085e-07 0.0 
-4.423334107085e-07 1.306209639085e-03 0.0 
0.0 0.0 -1.902127661242e-04 
-1.799952498831e-04 3.276671323295e-05 0.0 
3.276671323295e-05 1.203252067028e-03 0.0 
0.0 0.0 -1.803293472919e-04 
-1.036283366723e-04 2.928971230122e-05 0.0 
2.928971230122e-05 6.701110471026e-04 0.0 
0.0 0.0 -1.038552253682e-04 
-1.348425674588e-04 -3.045731572340e-05 0.0 
-3.045731572340e-05 8.997616749557e-04 0.0 
0.0 0.0 -1.353016656203e-04 
-1.306027592527e-04 3.244558953540e-05 0.0 
3.244558953540e-05 8.557133569559e-04 0.0 
0.0 0.0 -1.301630146057e-04 
-1.102559799513e-04 -2.882778976320e-05 0.0 
-2.882778976320e-05 7.287644293276e-04 0.0 
0.0 0.0 -1.102912351658e-04 
-1.488807296024e-04 2.952972860655e-05 0.0 
2.952972860655e-05 9.845338823176e-04 0.0 
0.0 0.0 -1.489188890839e-04 
-1.543542798127e-04 2.941367575548e-05 0.0 
2.941367575548e-05 1.023344437634e-03 0.0 
0.0 0.0 -1.545169747944e-04 
-3.601998227787e-05 -3.147937655175e-05 0.0 
-3.147937655175e-05 2.167298522228e-04 0.0 
0.0 0.0 -3.699600978290e-05 
-6.801309851159e-05 2.873975774867e-05 0.0 
2.873975774867e-05 4.179957074076e-04 0.0 
0.0 0.0 -6.762408315678e-05 
-1.091497725492e-04 2.831094670187e-05 0.0 
2.831094670187e-05 7.067995318092e-04 0.0 
0.0 0.0 -1.090469065526e-04 
-1.032766425254e-04 -2.822190353465e-05 0.0 
-2.822190353465e-05 6.789187616226e-04 0.0 
0.0 0.0 -1.031335432607e-04 
-1.099107092343e-04 2.839546535684e-05 0.0 
2.839546535684e-05 7.120464211608e-04 0.0 
0.0 0.0 -1.098117726994e-04 
-1.811121707674e-04 -2.882441196002e-05 0.0 
-2.882441196002e-05 1.237667273714e-03 0.0 
0.0 0.0 -1.838140267123e-04 
-1.748866853698e-04 2.592400427167e-05 0.0 
2.592400427167e-05 1.162787881872e-03 0.0 
0.0 0.0 -1.744029230557e-04 
-1.761187774956e-04 -2.949711616705e-05 0.0 
-2.949711616705e-05 1.184397801600e-03 0.0 
0.0 0.0 -1.760448152485e-04 
-9.882657544989e-05 -2.718055687570e-05 0.0 
-2.718055687570e-05 6.452046498512e-04 0.0 
0.0 0.0 -9.834296651366e-05 
-1.624121206718e-04 2.836552699441e-05 0.0 
2.836552699441e-05 1.080211199209e-03 0.0 
0.0 0.0 -1.624070342850e-04 
-1.485275509050e-04 -2.918103576740e-05 0.0 
-2.918103576740e-05 9.950382173190e-04 0.0 
0.0 0.0 -1.484873542982e-04 
-1.805851059428e-04 3.002465538148e-05 0.0 
3.002465538148e-05 1.203046068310e-03 0.0 
0.0 0.0 -1.797622605636e-04 
-1.528376056470e-04 -3.044040189818e-05 0.0 
-3.044040189818e-05 1.026184810031e-03 0.0 
0.0 0.0 -1.532447004422e-04 
-1.087929439093e-04 -2.876357224537e-05 0.0 
-2.876357224537e-05 7.196828290104e-04 0.0 
0.0 0.0 -1.089952584493e-04 
-1.049428023921e-04 2.811224010391e-05 0.0 
2.811224010391e-05 6.773445023375e-04 0.0 
0.0 0.0 -1.048418778190e-04 
-1.594051931958e-04 2.879840167248e-05 0.0 
2.879840167248e-05 1.056615529052e-03 0.0 
0.0 0.0 -1.590166690394e-04 
-1.738854057278e-04 -3.150615969996e-05 0.0 
-3.150615969996e-05 1.172347359832e-03 0.0 
0.0 0.0 -1.740425842566e-04 
-1.602067260143e-04 2.962540646325e-05 0.0 
2.962540646325e-05 1.063407039079e-03 0.0 
0.0 0.0 -1.600263377024e-04 
-1.549984104106e-04 2.928819239640e-05 0.0 
2.928819239640e-05 1.025787824362e-03 0.0 
0.0 0.0 -1.545642443906e-04 
-1.691936656852e-04 3.051239000977e-05 0.0 
3.051239000977e-05 1.122993866756e-03 0.0 
0.0 0.0 -1.687134228720e-04 
-1.733516422302e-04 -2.975799224699e-05 0.0 
-2.975799224699e-05 1.180345126224e-03 0.0 
0.0 0.0 -1.751295320469e-04 
-1.641761333923e-04 2.964778985093e-05 0.0 
2.964778985093e-05 1.092162958901e-03 0.0 
0.0 0.0 -1.644209996092e-04 
-1.334029697755e-04 2.921704941968e-05 0.0 
2.921704941968e-05 8.764535109902e-04 0.0 
0.0 0.0 -1.334339325936e-04 
-9.629059373289e-05 2.489782199496e-05 0.0 
2.489782199496e-05 6.169410298163e-04 0.0 
0.0 0.0 -9.629846621400e-05 
-1.586938225999e-04 -2.873074405230e-05 0.0 
-2.873074405230e-05 1.064075480535e-03 0.0 
0.0 0.0 -1.585741496670e-04 
-1.515595690388e-04 2.887166217167e-05 0.0 
2.887166217167e-05 1.004996075128e-03 0.0 
0.0 0.0 -1.516193629955e-04 
-6.015828007311e-05 2.762481471313e-05 0.0 
2.762481471313e-05 3.663761052862e-04 0.0 
0.0 0.0 -6.027332919800e-05 
-1.086909470084e-04 -2.820919446967e-05 0.0 
-2.820919446967e-05 7.173514364266e-04 0.0 
0.0 0.0 -1.086183444390e-04 
-1.229754690729e-04 2.795896853918e-05 0.0 
2.795896853918e-05 8.030480005080e-04 0.0 
0.0 0.0 -1.229099206091e-04 
-1.348799327205e-04 -2.950552833220e-05 0.0 
-2.950552833220e-05 8.992538641476e-04 0.0 
0.0 0.0 -1.347984704188e-04 
-6.075364579538e-05 2.991920213964e-05 0.0 
2.991920213964e-05 3.704456528343e-04 0.0 
0.0 0.0 -6.085885447137e-05 
-1.045153483669e-04 -2.832422319633e-05 0.0 
-2.832422319633e-05 6.878595611022e-04 0.0 
0.0 0.0 -1.044304007945e-04 
-1.446479183094e-04 -2.971056222020e-05 0.0 
-2.971056222020e-05 9.673313026673e-04 0.0 
0.0 0.0 -1.445542801823e-04 
-1.100060346855e-04 2.737837681636e-05 0.0 
2.737837681636e-05 7.101421002689e-04 0.0 
0.0 0.0 -1.094113629060e-04 
-1.135560558010e-04 2.921951781404e-05 0.0 
2.921951781404e-05 7.388528165105e-04 0.0 
0.0 0.0 -1.136984934835e-04 
-1.423148992764e-04 -3.064755775960e-05 0.0 
-3.064755775960e-05 9.560334399626e-04 0.0 
0.0 0.0 -1.433495728088e-04 
-1.141564569451e-04 2.617777317916e-05 0.0 
2.617777317916e-05 7.567005103659e-04 0.0 
0.0 0.0 -1.145704449725e-04 
-2.757145428849e-05 3.124043686616e-05 0.0 
3.124043686616e-05 1.158691705071e-04 0.0 
0.0 0.0 -2.367971326705e-05 
-1.286436208275e-04 -2.914932669868e-05 0.0 
-2.914932669868e-05 8.571420336644e-04 0.0 
0.0 0.0 -1.287122655492e-04 
-1.576792209224e-04 2.858094066912e-05 0.0 
2.858094066912e-05 1.045870248437e-03 0.0 
0.0 0.0 -1.577753644542e-04 
-1.791334658592e-04 3.034271459186e-05 0.0 
3.034271459186e-05 1.201260178593e-03 0.0 
0.0 0.0 -1.795306929420e-04 
-1.201199461226e-04 2.829067472047e-05 0.0 
2.829067472047e-05 7.831094393938e-04 0.0 
0.0 0.0 -1.199963822083e-04 
-1.234760846803e-04 2.932006013550e-05 0.0 
2.932006013550e-05 8.076650151061e-04 0.0 
0.0 0.0 -1.235581517372e-04 
-1.448894787138e-04 -2.961840001921e-05 0.0 
-2.961840001921e-05 9.648117356658e-04 0.0 
0.0 0.0 -1.443143808439e-04 
-3.842228905377e-05 3.298025909580e-05 0.0 
3.298025909580e-05 1.877070748678e-04 0.0 
0.0 0.0 -3.370741825810e-05 
-1.534698621194e-04 2.830991160432e-05 0.0 
2.830991160432e-05 1.016299861510e-03 0.0 
0.0 0.0 -1.535042456599e-04 
-1.293327155133e-04 -2.926708160322e-05 0.0 
-2.926708160322e-05 8.610400331546e-04 0.0 
0.0 0.0 -1.292921254718e-04 
-1.147182049359e-04 -2.793616799804e-05 0.0 
-2.793616799804e-05 7.557812794768e-04 0.0 
0.0 0.0 -1.142359468334e-04 
-1.540623557645e-04 -2.883021402370e-05 0.0 
-2.883021402370e-05 1.033805831342e-03 0.0 
0.0 0.0 -1.540837914240e-04 
-5.903277897526e-05 -2.572226208233e-05 0.0 
-2.572226208233e-05 3.742033353159e-04 0.0 
0.0 0.0 -5.919629073606e-05 
-1.595117392718e-04 -2.911342610863e-05 0.0 
-2.911342610863e-05 1.072689065088e-03 0.0 
0.0 0.0 -1.596834805621e-04 
-1.756154530572e-04 2.998485745368e-05 0.0 
2.998485745368e-05 1.171075078384e-03 0.0 
0.0 0.0 -1.756318130281e-04 
-1.493681148336e-04 2.791229911131e-05 0.0 
2.791229911131e-05 9.866947003208e-04 0.0 
0.0 0.0 -1.492337925182e-04 
-1.600204318750e-04 -2.992073590521e-05 0.0 
-2.992073590521e-05 1.071726323190e-03 0.0 
0.0 0.0 -1.596862481900e-04 
-1.621340043399e-04 -3.014172433171e-05 0.0 
-3.014172433171e-05 1.091751763439e-03 0.0 
0.0 0.0 -1.624029330596e-04 
-1.746509001542e-04 -3.044303714749e-05 0.0 
-3.044303714749e-05 1.180873641495e-03 0.0 
0.0 0.0 -1.752053866267e-04 
-4.948712705896e-05 3.475475083029e-05 0.0 
3.475475083029e-05 2.597308075809e-04 0.0 
0.0 0.0 -4.376112143753e-05 
-1.485603472495e-04 -2.938683707073e-05 0.0 
-2.938683707073e-05 9.955677447018e-04 0.0 
0.0 0.0 -1.487877812405e-04 
-1.753095903577e-04 -2.864829451917e-05 0.0 
-2.864829451917e-05 1.185024325076e-03 0.0 
0.0 0.0 -1.760859927092e-04 
-1.649582730615e-04 2.923348981816e-05 0.0 
2.923348981816e-05 1.094893116976e-03 0.0 
0.0 0.0 -1.644733909230e-04 
-1.395633018813e-04 2.809652890280e-05 0.0 
2.809652890280e-05 9.186543678537e-04 0.0 
0.0 0.0 -1.394655130409e-04 
-1.099611654985e-04 -2.884597329549e-05 0.0 
-2.884597329549e-05 7.257598080870e-04 0.0 
0.0 0.0 -1.098787062330e-04 
-1.209104407542e-04 2.806295656769e-05 0.0 
2.806295656769e-05 7.902223779801e-04 0.0 
0.0 0.0 -1.210417811416e-04 
-3.627372368124e-05 3.163530406853e-05 0.0 
3.163530406853e-05 2.039563500799e-04 0.0 
0.0 0.0 -3.723255725578e-05 
-1.701409886376e-04 2.983058263759e-05 0.0 
2.983058263759e-05 1.132501183017e-03 0.0 
0.0 0.0 -1.699366983435e-04 
-6.411787123099e-05 2.946502422422e-05 0.0 
2.946502422422e-05 3.968096580559e-04 0.0 
0.0 0.0 -6.464531002275e-05 
-5.822127891541e-05 2.749733519323e-05 0.0 
2.749733519323e-05 3.240066522493e-04 0.0 
0.0 0.0 -5.373429374777e-05 
-1.578004283830e-04 -2.825196317906e-05 0.0 
-2.825196317906e-05 1.061236006077e-03 0.0 
0.0 0.0 -1.581724742171e-04 
-1.810622318850e-04 2.872864159815e-05 0.0 
2.872864159815e-05 1.210843086462e-03 0.0 
0.0 0.0 -1.810174791607e-04 
-5.321706588155e-05 -2.711802848501e-05 0.0 
-2.711802848501e-05 3.340376413156e-04 0.0 
0.0 0.0 -5.359773372147e-05 
-1.254962992742e-04 -2.828232383433e-05 0.0 
-2.828232383433e-05 8.331892923083e-04 0.0 
0.0 0.0 -1.253787237607e-04 
-1.535703452329e-04 2.911412195335e-05 0.0 
2.911412195335e-05 1.018186094186e-03 0.0 
0.0 0.0 -1.535721660833e-04 
-1.174362539490e-04 -2.931439951264e-05 0.0 
-2.931439951264e-05 7.791228558505e-04 0.0 
0.0 0.0 -1.176010908151e-04 
-6.016009984886e-05 -2.873248464068e-05 0.0 
-2.873248464068e-05 3.813492115723e-04 0.0 
0.0 0.0 -6.041048265268e-05 
-7.982616898902e-05 2.825432291390e-05 0.0 
2.825432291390e-05 5.000258330386e-04 0.0 
0.0 0.0 -7.939046230173e-05 
-3.959656613655e-05 2.469153921964e-05 0.0 
2.469153921964e-05 2.420385823143e-04 0.0 
0.0 0.0 -4.293244787628e-05 
-5.330489538924e-05 2.915892379323e-05 0.0 
2.915892379323e-05 3.232040539711e-04 0.0 
0.0 0.0 -5.412237138681e-05 
-4.874214390061e-05 2.903207581372e-05 0.0 
2.903207581372e-05 2.849835911649e-04 0.0 
0.0 0.0 -4.858390135199e-05 
-1.298006905679e-04 2.813403754230e-05 0.0 
2.813403754230e-05 8.507929242894e-04 0.0 
0.0 0.0 -1.297186540265e-04 
-1.946741073417e-04 7.177668550599e-07 0.0 
7.177668550599e-07 1.366433303394e-03 0.0 
0.0 0.0 -1.986219281740e-04 
-6.700715880952e-05 2.589861000239e-05 0.0 
2.589861000239e-05 3.925714316040e-04 0.0 
0.0 0.0 -6.366506350946e-05 
-1.734025229933e-04 2.872134779497e-05 0.0 
2.872134779497e-05 1.153015807625e-03 0.0 
0.0 0.0 -1.730133492871e-04 
-9.662877635408e-05 2.832769241253e-05 0.0 
2.832769241253e-05 6.190294534954e-04 0.0 
0.0 0.0 -9.645761187127e-05 
-1.474086229932e-04 -3.111113571506e-05 0.0 
-3.111113571506e-05 9.884847841183e-04 0.0 
0.0 0.0 -1.478461150791e-04 
-4.750635885556e-05 2.975238453019e-05 0.0 
2.975238453019e-05 2.739120908498e-04 0.0 
0.0 0.0 -4.694079591042e-05 
-1.816621119292e-04 -2.878308347844e-05 0.0 
-2.878308347844e-05 1.218135406772e-03 0.0 
0.0 0.0 -1.810139427526e-04 
-4.655502041116e-05 -2.610306417390e-05 0.0 
-2.610306417390e-05 2.951982444198e-04 0.0 
0.0 0.0 -4.804032238546e-05 
-7.357331614798e-05 2.958595086467e-05 0.0 
2.958595086467e-05 4.672675042292e-04 0.0 
0.0 0.0 -7.493958354298e-05 
-1.550973332285e-04 2.796756386232e-05 0.0 
2.796756386232e-05 1.025417246301e-03 0.0 
0.0 0.0 -1.547320639971e-04 
-1.115692087861e-04 -2.839126116568e-05 0.0 
-2.839126116568e-05 7.371116053840e-04 0.0 
0.0 0.0 -1.115425826451e-04 
-1.699290889586e-04 -2.900940190171e-05 0.0 
-2.900940190171e-05 1.149889600330e-03 0.0 
0.0 0.0 -1.708594300032e-04 
-8.624183478928e-05 -2.912886792339e-05 0.0 
-2.912886792339e-05 5.626870180004e-04 0.0 
0.0 0.0 -8.644348757353e-05 
-1.569167022033e-04 -2.881123911490e-05 0.0 
-2.881123911490e-05 1.051025089677e-03 0.0 
0.0 0.0 -1.566669492989e-04 
-1.769191692021e-04 2.934973965132e-05 0.0 
2.934973965132e-05 1.199034094636e-03 0.0 
0.0 0.0 -1.798338780755e-04 
-1.495364599630e-04 2.975197277300e-05 0.0 
2.975197277300e-05 9.877659320422e-04 0.0 
0.0 0.0 -1.491119197843e-04 
-1.807112013151e-04 -2.761933473531e-05 0.0 
-2.761933473531e-05 1.210002262212e-03 0.0 
0.0 0.0 -1.792176209978e-04 
-1.628975544781e-04 -3.036779777295e-05 0.0 
-3.036779777295e-05 1.095193631651e-03 0.0 
0.0 0.0 -1.630977145684e-04 
-1.675201900776e-04 -3.024382898117e-05 0.0 
-3.024382898117e-05 1.126388508701e-03 0.0 
0.0 0.0 -1.675015638186e-04 
-5.424555064715e-05 2.680812076581e-05 0.0 
2.680812076581e-05 3.226336525028e-04 0.0 
0.0 0.0 -5.399133669915e-05 
-1.676277495680e-04 2.740316368874e-05 0.0 
2.740316368874e-05 1.112871955034e-03 0.0 
0.0 0.0 -1.673862058733e-04 
-1.578559859789e-04 2.827037287320e-05 0.0 
2.827037287320e-05 1.049443790061e-03 0.0 
0.0 0.0 -1.580046825171e-04 
-1.171678476607e-04 2.852988375933e-05 0.0 
2.852988375933e-05 7.623350065851e-04 0.0 
0.0 0.0 -1.168873383469e-04 
-7.813173762117e-05 2.766421590413e-05 0.0 
2.766421590413e-05 4.622030552975e-04 0.0 
0.0 0.0 -7.363010077577e-05 
-1.810895077962e-04 -2.908189886640e-05 0.0 
-2.908189886640e-05 1.245299465341e-03 0.0 
0.0 0.0 -1.848439230673e-04 
-6.258589564450e-05 2.973424717467e-05 0.0 
2.973424717467e-05 3.796477966190e-04 0.0 
0.0 0.0 -6.214069219561e-05 
-6.877743183419e-05 -3.283467012249e-05 0.0 
-3.283467012249e-05 4.454002116560e-04 0.0 
0.0 0.0 -6.982795868082e-05 
-1.656560229546e-04 3.018340289880e-05 0.0 
3.018340289880e-05 1.102559420523e-03 0.0 
0.0 0.0 -1.657595890666e-04 
-4.452637910278e-05 -2.463086619694e-05 0.0 
-2.463086619694e-05 2.688625379708e-04 0.0 
0.0 0.0 -4.409698994278e-05 
-1.188635475057e-04 -2.772391840776e-05 0.0 
-2.772391840776e-05 7.879380998938e-04 0.0 
0.0 0.0 -1.188635276708e-04 
-1.592882983328e-04 2.718156988550e-05 0.0 
2.718156988550e-05 1.054709056437e-03 0.0 
0.0 0.0 -1.589765888202e-04 
-1.772222272296e-04 -2.714101551062e-05 0.0 
-2.714101551062e-05 1.191839625875e-03 0.0 
0.0 0.0 -1.771732720199e-04 
-1.824779395496e-04 -2.648051372033e-05 0.0 
-2.648051372033e-05 1.225568720394e-03 0.0 
0.0 0.0 -1.816415620416e-04 
-1.546092874475e-04 -2.982910766663e-05 0.0 
-2.982910766663e-05 1.035340165495e-03 0.0 
0.0 0.0 -1.543237508850e-04 
-1.687071199467e-04 -3.097215296435e-05 0.0 
-3.097215296435e-05 1.133984998622e-03 0.0 
0.0 0.0 -1.685605813437e-04 
-1.021935529673e-04 2.852069401152e-05 0.0 
2.852069401152e-05 6.571110725585e-04 0.0 
0.0 0.0 -1.019073722143e-04 
-1.593527883530e-04 -2.978604002386e-05 0.0 
-2.978604002386e-05 1.069539853505e-03 0.0 
0.0 0.0 -1.593679286731e-04 
-8.787271678042e-05 2.812609072738e-05 0.0 
2.812609072738e-05 5.317977245242e-04 0.0 
0.0 0.0 -8.364764346898e-05 
-1.787194194283e-04 2.687014845945e-05 0.0 
2.687014845945e-05 1.178995119648e-03 0.0 
0.0 0.0 -1.772627823762e-04 
-9.805451043270e-05 2.760029222410e-05 0.0 
2.760029222410e-05 6.018798204524e-04 0.0 
0.0 0.0 -9.365644977482e-05 
-9.596485627522e-05 2.204290663138e-05 0.0 
2.204290663138e-05 6.347192065111e-04 0.0 
0.0 0.0 -9.866254784712e-05 
-1.159093866371e-04 2.840626684317e-05 0.0 
2.840626684317e-05 7.538245928729e-04 0.0 
0.0 0.0 -1.157644195874e-04 
-1.068023676316e-04 3.049840519302e-05 0.0 
3.049840519302e-05 6.737297633016e-04 0.0 
0.0 0.0 -1.036755264196e-04 
-1.327131526045e-04 -2.791089545436e-05 0.0 
-2.791089545436e-05 8.830463531689e-04 0.0 
0.0 0.0 -1.324954999561e-04 
-1.083462229029e-04 -2.835211655561e-05 0.0 
-2.835211655561e-05 7.134008523618e-04 0.0 
0.0 0.0 -1.081453164196e-04 
-1.141683981921e-04 -2.887541052425e-05 0.0 
-2.887541052425e-05 7.550230559135e-04 0.0 
0.0 0.0 -1.140931655197e-04 
-5.515908320108e-05 2.948502897213e-05 0.0 
2.948502897213e-05 3.310071093917e-04 0.0 
0.0 0.0 -5.528709606717e-05 
-1.104134789677e-04 2.840605379835e-05 0.0 
2.840605379835e-05 7.154837500031e-04 0.0 
0.0 0.0 -1.103023603459e-04 
-1.746713077398e-04 2.880636906730e-05 0.0 
2.880636906730e-05 1.164068735679e-03 0.0 
0.0 0.0 -1.743776871305e-04 
-1.783703106015e-04 3.636462111026e-05 0.0 
3.636462111026e-05 1.201299505939e-03 0.0 
0.0 0.0 -1.792895840060e-04 
-1.577150641991e-04 2.851269442524e-05 0.0 
2.851269442524e-05 1.044375076497e-03 0.0 
0.0 0.0 -1.575150703147e-04 
-1.745723709241e-04 2.909038873658e-05 0.0 
2.909038873658e-05 1.170222223010e-03 0.0 
0.0 0.0 -1.755400497234e-04 
-1.120725847370e-04 2.871981251597e-05 0.0 
2.871981251597e-05 7.269648264993e-04 0.0 
0.0 0.0 -1.119489732781e-04 
-1.675311839949e-04 2.887729147629e-05 0.0 
2.887729147629e-05 1.117903748534e-03 0.0 
0.0 0.0 -1.678529426297e-04 
-1.146259152953e-04 2.842710779289e-05 0.0 
2.842710779289e-05 7.448564873363e-04 0.0 
0.0 0.0 -1.145134881756e-04 
-1.710224470009e-04 2.842065442071e-05 0.0 
2.842065442071e-05 1.142895506605e-03 0.0 
0.0 0.0 -1.716593064874e-04 
-1.634807050442e-04 2.799270818855e-05 0.0 
2.799270818855e-05 1.086902354100e-03 0.0 
0.0 0.0 -1.634447856658e-04 
-1.622367908960e-04 -2.967988136421e-05 0.0 
-2.967988136421e-05 1.088570664713e-03 0.0 
0.0 0.0 -1.620677252808e-04 
-1.436975778517e-04 2.830432817314e-05 0.0 
2.830432817314e-05 9.480503595790e-04 0.0 
0.0 0.0 -1.437136475121e-04 
-1.063431585595e-04 2.840592411012e-05 0.0 
2.840592411012e-05 6.863040493332e-04 0.0 
0.0 0.0 -1.060995107696e-04 
-1.691497108962e-04 -2.743833599267e-05 0.0 
-2.743833599267e-05 1.134677276168e-03 0.0 
0.0 0.0 -1.689057885308e-04 
-1.381914899866e-04 2.790064750608e-05 0.0 
2.790064750608e-05 9.063015758904e-04 0.0 
0.0 0.0 -1.375454124849e-04 
-5.561996790627e-05 -3.071748806018e-05 0.0 
-3.071748806018e-05 3.409512690699e-04 0.0 
0.0 0.0 -5.492022919918e-05 
-6.179236649455e-05 -2.756467409787e-05 0.0 
-2.756467409787e-05 3.903060721867e-04 0.0 
0.0 0.0 -6.170691397715e-05 
-9.087582305261e-05 2.700291781953e-05 0.0 
2.700291781953e-05 5.782509110046e-04 0.0 
0.0 0.0 -9.092110591052e-05 
-1.259880962207e-04 2.776883270027e-05 0.0 
2.776883270027e-05 8.237716666486e-04 0.0 
0.0 0.0 -1.257717909469e-04 
-1.753841120844e-04 2.980647546350e-05 0.0 
2.980647546350e-05 1.173927080456e-03 0.0 
0.0 0.0 -1.760317983730e-04 
-1.577119756164e-04 -3.055430689054e-05 0.0 
-3.055430689054e-05 1.057688489879e-03 0.0 
0.0 0.0 -1.576653810449e-04 
-1.057975756223e-04 -2.876126628924e-05 0.0 
-2.876126628924e-05 6.965772625478e-04 0.0 
0.0 0.0 -1.056780804030e-04 
-1.401532218735e-04 -2.893519210654e-05 0.0 
-2.893519210654e-05 9.357130400283e-04 0.0 
0.0 0.0 -1.401741111350e-04 
-1.632303776345e-04 2.945240880963e-05 0.0 
2.945240880963e-05 1.086067743780e-03 0.0 
0.0 0.0 -1.632898652955e-04 
-1.698320922867e-04 -3.029692352669e-05 0.0 
-3.029692352669e-05 1.141081462631e-03 0.0 
0.0 0.0 -1.695868396911e-04 
-1.762766478419e-04 -2.148172006753e-05 0.0 
-2.148172006753e-05 1.172735995291e-03 0.0 
0.0 0.0 -1.741172379421e-04 
-1.423952570170e-04 2.784554782803e-05 0.0 
2.784554782803e-05 9.441048027351e-04 0.0 
0.0 0.0 -1.427691508950e-04 
-1.672340961037e-04 2.890076212539e-05 0.0 
2.890076212539e-05 1.110820323191e-03 0.0 
0.0 0.0 -1.670153566545e-04 
-1.196206745500e-04 -2.916305908743e-05 0.0 
-2.916305908743e-05 7.932912096618e-04 0.0 
0.0 0.0 -1.195780717481e-04 
-1.631267095900e-04 -2.877648753756e-05 0.0 
-2.877648753756e-05 1.093964271595e-03 0.0 
0.0 0.0 -1.629178051474e-04 
-1.193648583036e-04 2.813253978265e-05 0.0 
2.813253978265e-05 7.781106719393e-04 0.0 
0.0 0.0 -1.192674511187e-04 
-1.785040923208e-04 -2.833642482200e-05 0.0 
-2.833642482200e-05 1.202406861450e-03 0.0 
0.0 0.0 -1.783056964125e-04 
-1.774180478980e-04 -3.143728213467e-05 0.0 
-3.143728213467e-05 1.216846253912e-03 0.0 
0.0 0.0 -1.800733985141e-04 
-1.339733609669e-04 2.830305737665e-05 0.0 
2.830305737665e-05 8.799971748813e-04 0.0 
0.0 0.0 -1.339483752660e-04 
-5.685501053660e-05 3.033786968296e-05 0.0 
3.033786968296e-05 3.408752435242e-04 0.0 
0.0 0.0 -5.664287464774e-05 
-1.674932513127e-04 2.750263582860e-05 0.0 
2.750263582860e-05 1.111155514655e-03 0.0 
0.0 0.0 -1.670528461364e-04 
-1.284040368042e-04 -2.775968276020e-05 0.0 
-2.775968276020e-05 8.537309068525e-04 0.0 
0.0 0.0 -1.283340813903e-04 
-1.016895440755e-04 -2.862604297841e-05 0.0 
-2.862604297841e-05 6.674652453701e-04 0.0 
0.0 0.0 -1.014860136736e-04 
-1.390418925560e-04 -2.935625760733e-05 0.0 
-2.935625760733e-05 9.288785969762e-04 0.0 
0.0 0.0 -1.390419464427e-04 
-1.608753793423e-04 -3.062151254544e-05 0.0 
-3.062151254544e-05 1.081540098949e-03 0.0 
0.0 0.0 -1.609465537294e-04 
-5.579409708541e-05 -2.753923831601e-05 0.0 
-2.753923831601e-05 3.517647136068e-04 0.0 
0.0 0.0 -5.619956474153e-05 
-1.242874580104e-04 2.815581454240e-05 0.0 
2.815581454240e-05 8.122824974036e-04 0.0 
0.0 0.0 -1.242180795178e-04 
-1.444954382542e-04 2.691161261798e-05 0.0 
2.691161261798e-05 9.508761997336e-04 0.0 
0.0 0.0 -1.439419080609e-04 
-1.748732396412e-04 -3.101518328253e-05 0.0 
-3.101518328253e-05 1.183866334775e-03 0.0 
0.0 0.0 -1.756258132784e-04 
-1.484265095921e-04 2.639187046033e-05 0.0 
2.639187046033e-05 9.793613921147e-04 0.0 
0.0 0.0 -1.481473755224e-04 
-1.628394148518e-04 2.905846373136e-05 0.0 
2.905846373136e-05 1.081802942582e-03 0.0 
0.0 0.0 -1.628061244897e-04 
-1.405884391169e-04 2.689260908494e-05 0.0 
2.689260908494e-05 9.219062369141e-04 0.0 
0.0 0.0 -1.397490354451e-04 
-1.346362126131e-04 2.980546389634e-05 0.0 
2.980546389634e-05 8.629731244664e-04 0.0 
0.0 0.0 -1.313455861883e-04 
-1.422308942789e-04 2.777968126491e-05 0.0 
2.777968126491e-05 9.352014107076e-04 0.0 
0.0 0.0 -1.417070353249e-04 
-1.696348231764e-04 3.073847441857e-05 0.0 
3.073847441857e-05 1.132512673150e-03 0.0 
0.0 0.0 -1.700257545721e-04 
-1.628061011134e-04 -3.012920063587e-05 0.0 
-3.012920063587e-05 1.094588289745e-03 0.0 
0.0 0.0 -1.626783210446e-04 
-1.525480366069e-04 2.753411223908e-05 0.0 
2.753411223908e-05 1.012270815341e-03 0.0 
0.0 0.0 -1.525950422115e-04 
-1.817674885626e-04 2.636756222739e-05 0.0 
2.636756222739e-05 1.218171265063e-03 0.0 
0.0 0.0 -1.819330136886e-04 
-1.367783378107e-04 2.734398055764e-05 0.0 
2.734398055764e-05 8.928204252328e-04 0.0 
0.0 0.0 -1.355595357802e-04 
-8.657515392004e-05 -2.858127066433e-05 0.0 
-2.858127066433e-05 5.623682383036e-04 0.0 
0.0 0.0 -8.640878351826e-05 
-1.720286776127e-04 -3.018037219568e-05 0.0 
-3.018037219568e-05 1.158953410419e-03 0.0 
0.0 0.0 -1.720100346656e-04 
-1.785542716781e-04 -3.347376878072e-05 0.0 
-3.347376878072e-05 1.210212792631e-03 0.0 
0.0 0.0 -1.795117393957e-04 
-1.181566759780e-04 2.804595512908e-05 0.0 
2.804595512908e-05 7.695120543693e-04 0.0 
0.0 0.0 -1.180384278745e-04 
-1.234361083838e-04 2.834735001336e-05 0.0 
2.834735001336e-05 8.068300268397e-04 0.0 
0.0 0.0 -1.233979183903e-04 
-9.615008310342e-05 -2.877711061827e-05 0.0 
-2.877711061827e-05 6.293964481875e-04 0.0 
0.0 0.0 -9.603629528614e-05 
-1.570985069047e-04 2.869057650911e-05 0.0 
2.869057650911e-05 1.042670134457e-03 0.0 
0.0 0.0 -1.569914920818e-04 
-9.804713378094e-05 2.892049478508e-05 0.0 
2.892049478508e-05 6.274327291699e-04 0.0 
0.0 0.0 -9.751120462800e-05 
-1.373039782519e-04 2.945820523949e-05 0.0 
2.945820523949e-05 9.031137517948e-04 0.0 
0.0 0.0 -1.370644644624e-04 
-9.733425656402e-05 -2.696735292952e-05 0.0 
-2.696735292952e-05 6.363689780604e-04 0.0 
0.0 0.0 -9.714421390796e-05 
-1.604810832406e-04 2.925883402761e-05 0.0 
2.925883402761e-05 1.064262862584e-03 0.0 
0.0 0.0 -1.602381950242e-04 
-1.814386097987e-04 -2.325128847214e-05 0.0 
-2.325128847214e-05 1.217845530327e-03 0.0 
0.0 0.0 -1.816843005859e-04 
-1.003684445551e-04 -2.872637610904e-05 0.0 
-2.872637610904e-05 6.585462596242e-04 0.0 
0.0 0.0 -1.002307182508e-04 
-3.526749537505e-05 -3.047241068612e-05 0.0 
-3.047241068612e-05 2.153990238607e-04 0.0 
0.0 0.0 -3.677367655039e-05 
-1.806631145188e-04 2.941902588667e-05 0.0 
2.941902588667e-05 1.208966272057e-03 0.0 
0.0 0.0 -1.810776462098e-04 
-1.033178748637e-04 2.699632970684e-05 0.0 
2.699632970684e-05 6.637091035959e-04 0.0 
0.0 0.0 -1.028007266516e-04 
-1.175293277585e-04 2.819191420696e-05 0.0 
2.819191420696e-05 7.649488685247e-04 0.0 
0.0 0.0 -1.174222657364e-04 
-1.740611927883e-04 3.008308873920e-05 0.0 
3.008308873920e-05 1.179667388234e-03 0.0 
0.0 0.0 -1.766888058523e-04 
-1.524480229041e-04 -2.995968298439e-05 0.0 
-2.995968298439e-05 1.020372756015e-03 0.0 
0.0 0.0 -1.522604622525e-04 
-1.585768344365e-04 -2.913298650394e-05 0.0 
-2.913298650394e-05 1.064240986158e-03 0.0 
0.0 0.0 -1.583819031520e-04 
-1.028812223476e-04 -2.791530224567e-05 0.0 
-2.791530224567e-05 6.762699737186e-04 0.0 
0.0 0.0 -1.027652553003e-04 
-3.047731217096e-05 2.978609752000e-05 0.0 
2.978609752000e-05 1.644412884572e-04 0.0 
0.0 0.0 -3.167095645526e-05 
-1.827018091400e-04 -3.487243475378e-05 0.0 
-3.487243475378e-05 1.223693620193e-03 0.0 
0.0 0.0 -1.803196740198e-04 
-1.299869374800e-04 2.787662672047e-05 0.0 
2.787662672047e-05 8.523815142426e-04 0.0 
0.0 0.0 -1.299076046001e-04 
-1.512839301296e-04 -3.211131163956e-05 0.0 
-3.211131163956e-05 1.010330699503e-03 0.0 
0.0 0.0 -1.510713963618e-04 
-1.740688791628e-04 2.785384488376e-05 0.0 
2.785384488376e-05 1.160296302710e-03 0.0 
0.0 0.0 -1.736733770178e-04 
-2.424829434384e-05 2.135414066938e-05 0.0 
2.135414066938e-05 1.009887765283e-04 0.0 
0.0 0.0 -2.253474224696e-05 
-1.588289344536e-04 2.988448063203e-05 0.0 
2.988448063203e-05 1.053618048293e-03 0.0 
0.0 0.0 -1.588145449557e-04 
-7.398149687921e-05 -2.842214034926e-05 0.0 
-2.842214034926e-05 4.736710158424e-04 0.0 
0.0 0.0 -7.379368512750e-05 
-1.417757164372e-04 -3.019050727827e-05 0.0 
-3.019050727827e-05 9.514786018212e-04 0.0 
0.0 0.0 -1.424765658182e-04 
-1.273110853056e-04 -2.925695132898e-05 0.0 
-2.925695132898e-05 8.481813906053e-04 0.0 
0.0 0.0 -1.274401864931e-04 
-1.007593383753e-04 2.822071280729e-05 0.0 
2.822071280729e-05 6.480510024074e-04 0.0 
0.0 0.0 -1.006432667219e-04 
-1.707598802574e-04 -2.954897052777e-05 0.0 
-2.954897052777e-05 1.153161559221e-03 0.0 
0.0 0.0 -1.712453353817e-04 
-1.329505705343e-04 2.860130427155e-05 0.0 
2.860130427155e-05 8.732611453068e-04 0.0 
0.0 0.0 -1.328871777156e-04 
-9.118212509623e-05 2.844150706971e-05 0.0 
2.844150706971e-05 5.810800157713e-04 0.0 
0.0 0.0 -9.101187559806e-05 
-1.348270760039e-04 -2.858426038110e-05 0.0 
-2.858426038110e-05 8.990222661828e-04 0.0 
0.0 0.0 -1.348432318503e-04 
-2.929431270807e-05 -2.857654389252e-05 0.0 
-2.857654389252e-05 1.760253783659e-04 0.0 
0.0 0.0 -3.121713414881e-05 
-1.537482864892e-04 -2.902787486223e-05 0.0 
-2.902787486223e-05 1.032059817805e-03 0.0 
0.0 0.0 -1.539626484545e-04 
-1.604406715089e-04 -2.964829512842e-05 0.0 
-2.964829512842e-05 1.074466508454e-03 0.0 
0.0 0.0 -1.598244649411e-04 
-1.844616251081e-04 -2.196458036396e-05 0.0 
-2.196458036396e-05 1.231467805983e-03 0.0 
0.0 0.0 -1.850401362575e-04 
-1.635274807000e-04 -2.956880985849e-05 0.0 
-2.956880985849e-05 1.099342516608e-03 0.0 
0.0 0.0 -1.636124299818e-04 
-7.150477036681e-05 -2.776392562661e-05 0.0 
-2.776392562661e-05 4.572663187996e-04 0.0 
0.0 0.0 -7.137223705482e-05 
-1.570462429545e-04 -2.966204224228e-05 0.0 
-2.966204224228e-05 1.054975147839e-03 0.0 
0.0 0.0 -1.570847591254e-04 
-1.810625471898e-04 2.712640566716e-05 0.0 
2.712640566716e-05 1.230837214805e-03 0.0 
0.0 0.0 -1.842233179068e-04 
-1.891002400454e-04 -2.748789620214e-05 0.0 
-2.748789620214e-05 1.278407905451e-03 0.0 
0.0 0.0 -1.900717871215e-04 
-1.657110930776e-04 -2.854937255919e-05 0.0 
-2.854937255919e-05 1.112870521473e-03 0.0 
0.0 0.0 -1.653364313119e-04 
-1.071209963560e-04 -2.863275326497e-05 0.0 
-2.863275326497e-05 7.049432181714e-04 0.0 
0.0 0.0 -1.069186906485e-04 
-1.442583782278e-04 -2.898467953421e-05 0.0 
-2.898467953421e-05 9.652668360639e-04 0.0 
0.0 0.0 -1.443707514742e-04 
-1.759295624301e-04 2.574555557981e-05 0.0 
2.574555557981e-05 1.162894992702e-03 0.0 
0.0 0.0 -1.746475140816e-04 
-1.188179409512e-04 -2.882565480678e-05 0.0 
-2.882565480678e-05 7.850400880713e-04 0.0 
0.0 0.0 -1.181845718321e-04 
-1.584483271371e-04 2.773639164420e-05 0.0 
2.773639164420e-05 1.051528373706e-03 0.0 
0.0 0.0 -1.585795433073e-04 
-1.477641435519e-04 2.859461966958e-05 0.0 
2.859461966958e-05 9.807497853317e-04 0.0 
0.0 0.0 -1.481564718376e-04 
-1.666109147089e-04 -2.970949097526e-05 0.0 
-2.970949097526e-05 1.123406416293e-03 0.0 
0.0 0.0 -1.669465589644e-04 
-1.640742339727e-04 -2.814643695304e-05 0.0 
-2.814643695304e-05 1.102737689409e-03 0.0 
0.0 0.0 -1.639852473733e-04 
-1.101476556860e-04 -1.419773556877e-06 0.0 
-1.419773556877e-06 6.855531227093e-04 0.0 
0.0 0.0 -1.097027053386e-04 
-1.095838507761e-04 5.104018495320e-06 0.0 
5.104018495320e-06 6.852974449944e-04 0.0 
0.0 0.0 -1.096586159380e-04 
-1.492847548809e-04 -3.091516381313e-05 0.0 
-3.091516381313e-05 9.984061546489e-04 0.0 
0.0 0.0 -1.489183339744e-04 
-1.487773235054e-04 2.785619991096e-05 0.0 
2.785619991096e-05 9.847103116342e-04 0.0 
0.0 0.0 -1.489589719869e-04 
-1.316033445496e-04 -2.890310988479e-05 0.0 
-2.890310988479e-05 8.785172676280e-04 0.0 
0.0 0.0 -1.317064244343e-04 
-1.470787480711e-04 -2.886845641438e-05 0.0 
-2.886845641438e-05 9.813735906609e-04 0.0 
0.0 0.0 -1.466314440693e-04 
-1.276790192920e-04 2.827971774625e-05 0.0 
2.827971774625e-05 8.356151426700e-04 0.0 
0.0 0.0 -1.275341994755e-04 
-1.790311321725e-04 1.969961980520e-05 0.0 
1.969961980520e-05 1.177311147527e-03 0.0 
0.0 0.0 -1.770432225081e-04 
-1.075373971259e-04 2.845855733448e-05 0.0 
2.845855733448e-05 6.950205170450e-04 0.0 
0.0 0.0 -1.073226784003e-04 
-1.995879498343e-04 -5.013008806985e-06 0.0 
-5.013008806985e-06 1.363897218258e-03 0.0 
0.0 0.0 -1.985690758598e-04 
-1.206431140158e-04 2.307417823056e-05 0.0 
2.307417823056e-05 7.999499804229e-04 0.0 
0.0 0.0 -1.217990918242e-04 
-1.230873173652e-04 -2.834404514853e-05 0.0 
-2.834404514853e-05 8.168726937961e-04 0.0 
0.0 0.0 -1.229897142350e-04 
-1.277789710916e-04 2.899586617417e-05 0.0 
2.899586617417e-05 8.376167932335e-04 0.0 
0.0 0.0 -1.278593196867e-04 
-6.749379846372e-05 -2.782885043647e-05 0.0 
-2.782885043647e-05 4.285534232864e-04 0.0 
0.0 0.0 -6.718560115948e-05 
-1.130846881410e-04 -2.901620947727e-05 0.0 
-2.901620947727e-05 7.492911164906e-04 0.0 
0.0 0.0 -1.132750687146e-04 
-1.393795706141e-04 2.790993313463e-05 0.0 
2.790993313463e-05 9.183577294076e-04 0.0 
0.0 0.0 -1.393992299975e-04 
-1.313953089638e-04 2.793110906410e-05 0.0 
2.793110906410e-05 8.609063871163e-04 0.0 
0.0 0.0 -1.310746415357e-04 
-1.472158165240e-04 2.758529410816e-05 0.0 
2.758529410816e-05 9.752002146418e-04 0.0 
0.0 0.0 -1.472189500432e-04 
-1.516300742627e-04 2.806244334544e-05 0.0 
2.806244334544e-05 1.001799986608e-03 0.0 
0.0 0.0 -1.512033144533e-04 
-1.566655293626e-04 -2.889951032878e-05 0.0 
-2.889951032878e-05 1.046948901408e-03 0.0 
0.0 0.0 -1.561275327105e-04 
-3.388460750578e-05 -1.545160936620e-05 0.0 
-1.545160936620e-05 2.099343336454e-04 0.0 
0.0 0.0 -3.245576353708e-05 
-1.079103303358e-04 2.933502518126e-05 0.0 
2.933502518126e-05 7.001507540581e-04 0.0 
0.0 0.0 -1.081352097849e-04 
-1.027907419891e-04 -2.789055961483e-05 0.0 
-2.789055961483e-05 6.727593674768e-04 0.0 
0.0 0.0 -1.023828309811e-04 
-1.434897197293e-04 2.686269947909e-05 0.0 
2.686269947909e-05 9.426378339422e-04 0.0 
0.0 0.0 -1.428293200757e-04 
-1.483261696105e-04 -2.883963041716e-05 0.0 
-2.883963041716e-05 9.902814330651e-04 0.0 
0.0 0.0 -1.477595226970e-04 
-1.733622378423e-04 2.696425670561e-05 0.0 
2.696425670561e-05 1.158199599596e-03 0.0 
0.0 0.0 -1.740163136221e-04 
-5.146390240149e-05 3.149198966797e-05 0.0 
3.149198966797e-05 2.950977217837e-04 0.0 
0.0 0.0 -4.910994769955e-05 
-4.998322073950e-05 -2.650173050573e-05 0.0 
-2.650173050573e-05 3.137392583323e-04 0.0 
0.0 0.0 -5.065930366581e-05 
-1.246841514279e-04 2.807070818710e-05 0.0 
2.807070818710e-05 8.153369030926e-04 0.0 
0.0 0.0 -1.245896567492e-04 
-1.074667000404e-04 -2.931017500739e-05 0.0 
-2.931017500739e-05 7.103792899815e-04 0.0 
0.0 0.0 -1.077203783481e-04 
-9.918600810801e-05 -3.218977296722e-05 0.0 
-3.218977296722e-05 6.451476881974e-04 0.0 
0.0 0.0 -9.831899762194e-05 
-1.033843323464e-04 -2.568146961447e-05 0.0 
-2.568146961447e-05 6.823399375890e-04 0.0 
0.0 0.0 -1.033380742667e-04 
-1.467772705035e-04 -2.855532502296e-05 0.0 
-2.855532502296e-05 9.829234791858e-04 0.0 
0.0 0.0 -1.469023935692e-04 
-4.918821938130e-05 -2.784621442943e-05 0.0 
-2.784621442943e-05 3.054917735983e-04 0.0 
0.0 0.0 -4.953709868763e-05 
-1.222003796169e-04 2.866150149173e-05 0.0 
2.866150149173e-05 7.992287747919e-04 0.0 
0.0 0.0 -1.223213871927e-04 
-1.574838851652e-04 -2.884771519407e-05 0.0 
-2.884771519407e-05 1.055743233401e-03 0.0 
0.0 0.0 -1.573814874934e-04 
-5.103366446644e-05 3.083233425307e-05 0.0 
3.083233425307e-05 3.010972732110e-04 0.0 
0.0 0.0 -5.112340052147e-05 
-1.934610965695e-04 -4.298535282020e-06 0.0 
-4.298535282020e-06 1.268654757538e-03 0.0 
0.0 0.0 -1.928379572095e-04 
-1.729742724807e-04 -2.716366689485e-05 0.0 
-2.716366689485e-05 1.161879060048e-03 0.0 
0.0 0.0 -1.728683014225e-04 
-1.159629787201e-04 -2.904469987433e-05 0.0 
-2.904469987433e-05 7.705849919696e-04 0.0 
0.0 0.0 -1.163417091451e-04 
-1.616915685660e-04 2.859224485179e-05 0.0 
2.859224485179e-05 1.074324548804e-03 0.0 
0.0 0.0 -1.618083629464e-04 
-2.727429490673e-05 -7.981424094550e-07 0.0 
-7.981424094550e-07 1.116265976979e-04 0.0 
0.0 0.0 -2.696321564760e-05 
-1.521690046607e-04 -3.000871026997e-05 0.0 
-3.000871026997e-05 1.017696781759e-03 0.0 
0.0 0.0 -1.518707364543e-04 
-1.295839926014e-04 -2.815794342717e-05 0.0 
-2.815794342717e-05 8.619661847659e-04 0.0 
0.0 0.0 -1.295155041898e-04 
-2.359634361323e-05 9.091220455368e-07 0.0 
9.091220455368e-07 1.106951619002e-04 0.0 
0.0 0.0 -2.682779714776e-05 
-1.728538985111e-04 2.680741270793e-05 0.0 
2.680741270793e-05 1.154427413958e-03 0.0 
0.0 0.0 -1.732288690391e-04 
-4.759083390138e-05 -2.831698267297e-05 0.0 
-2.831698267297e-05 2.848913946214e-04 0.0 
0.0 0.0 -4.649687138448e-05 
-1.430104513494e-04 -2.827840335732e-05 0.0 
-2.827840335732e-05 9.522047249633e-04 0.0 
0.0 0.0 -1.424467998190e-04 
-1.308115066644e-04 -2.845406566805e-05 0.0 
-2.845406566805e-05 8.700772173504e-04 0.0 
0.0 0.0 -1.306907721685e-04 
-1.129064275361e-04 -2.856218169756e-05 0.0 
-2.856218169756e-05 7.462380760800e-04 0.0 
0.0 0.0 -1.127972299543e-04 
-1.359129833258e-04 2.979368899475e-05 0.0 
2.979368899475e-05 8.944895224544e-04 0.0 
0.0 0.0 -1.357882224401e-04 
-1.779538886446e-04 2.685602915856e-05 0.0 
2.685602915856e-05 1.186518068831e-03 0.0 
0.0 0.0 -1.774347558581e-04 
-1.457575943922e-04 3.026596853263e-05 0.0 
3.026596853263e-05 9.632506474158e-04 0.0 
0.0 0.0 -1.457400808753e-04 
-1.288002410826e-04 2.805878315534e-05 0.0 
2.805878315534e-05 8.440094574945e-04 0.0 
0.0 0.0 -1.287264812403e-04 
-1.242825439840e-04 -2.804688037007e-05 0.0 
-2.804688037007e-05 8.250067063846e-04 0.0 
0.0 0.0 -1.241942416882e-04 
-1.736395521226e-05 2.354389388036e-05 0.0 
2.354389388036e-05 7.964528863018e-05 0.0 
0.0 0.0 -1.861799679395e-05 
-4.157545693324e-05 2.817385926199e-05 0.0 
2.817385926199e-05 2.365575590948e-04 0.0 
0.0 0.0 -4.141517733842e-05 
-1.678318203631e-04 -2.663064313971e-05 0.0 
-2.663064313971e-05 1.127397061509e-03 0.0 
0.0 0.0 -1.677496568182e-04 
-1.370203440637e-04 -3.226606344672e-05 0.0 
-3.226606344672e-05 9.081664366392e-04 0.0 
0.0 0.0 -1.362805121017e-04 
-1.736141937904e-04 2.716336991301e-05 0.0 
2.716336991301e-05 1.149649766564e-03 0.0 
0.0 0.0 -1.723036539172e-04 
-7.429185192102e-05 2.889322857484e-05 0.0 
2.889322857484e-05 4.644168819778e-04 0.0 
0.0 0.0 -7.414465667103e-05 
-1.649902886651e-04 2.947284893012e-05 0.0 
2.947284893012e-05 1.093935083842e-03 0.0 
0.0 0.0 -1.646925898217e-04 
-1.739966132604e-04 -2.849382622555e-05 0.0 
-2.849382622555e-05 1.167419998479e-03 0.0 
0.0 0.0 -1.733111646468e-04 
-1.056965695515e-04 2.657671323282e-05 0.0 
2.657671323282e-05 6.973803664085e-04 0.0 
0.0 0.0 -1.076913066561e-04 
-1.684634156381e-04 2.502571500154e-05 0.0 
2.502571500154e-05 1.117308510720e-03 0.0 
0.0 0.0 -1.681488932201e-04 
-1.612200699048e-04 -2.968921846860e-05 0.0 
-2.968921846860e-05 1.084762543557e-03 0.0 
0.0 0.0 -1.613920101890e-04 
-1.435042771724e-04 2.827958174112e-05 0.0 
2.827958174112e-05 9.471256299073e-04 0.0 
0.0 0.0 -1.435674306479e-04 
-1.178719447516e-04 2.925779353124e-05 0.0 
2.925779353124e-05 7.691196797978e-04 0.0 
0.0 0.0 -1.179957515531e-04 
-1.230064472571e-04 -2.933976043839e-05 0.0 
-2.933976043839e-05 8.180684852634e-04 0.0 
0.0 0.0 -1.231351811242e-04 
-1.812260547849e-04 -3.047200266982e-05 0.0 
-3.047200266982e-05 1.223288115478e-03 0.0 
0.0 0.0 -1.807056875578e-04 
-1.260212927046e-04 2.933157348944e-05 0.0 
2.933157348944e-05 8.259598448106e-04 0.0 
0.0 0.0 -1.259489979917e-04 
-1.353161328246e-04 2.778264495549e-05 0.0 
2.778264495549e-05 8.897119970146e-04 0.0 
0.0 0.0 -1.352333322325e-04 
-1.267391738953e-04 2.944240283987e-05 0.0 
2.944240283987e-05 8.300608908324e-04 0.0 
0.0 0.0 -1.265040046469e-04 
-1.558042942572e-04 2.960325539106e-05 0.0 
2.960325539106e-05 1.032329659142e-03 0.0 
0.0 0.0 -1.557546880476e-04 
-1.178031641948e-04 -2.833363001983e-05 0.0 
-2.833363001983e-05 7.792538415973e-04 0.0 
0.0 0.0 -1.176363242409e-04 
-7.616423057155e-05 2.888075361391e-05 0.0 
2.888075361391e-05 4.767557616214e-04 0.0 
0.0 0.0 -7.598706826662e-05 
-1.284551892997e-04 2.830356900228e-05 0.0 
2.830356900228e-05 8.414205268390e-04 0.0 
0.0 0.0 -1.284270486071e-04 
-8.163145150663e-05 2.849893936950e-05 0.0 
2.849893936950e-05 5.141388462768e-04 0.0 
0.0 0.0 -8.139240314519e-05 
-1.476035922618e-04 2.790275079514e-05 0.0 
2.790275079514e-05 9.723513416991e-04 0.0 
0.0 0.0 -1.469868445827e-04 
-8.102880366192e-05 -2.822816260586e-05 0.0 
-2.822816260586e-05 5.241451611897e-04 0.0 
0.0 0.0 -8.099228255434e-05 
-1.416684014624e-04 -2.911139421202e-05 0.0 
-2.911139421202e-05 9.446400297649e-04 0.0 
0.0 0.0 -1.413087031611e-04 
-1.704134817182e-04 -2.893451028680e-05 0.0 
-2.893451028680e-05 1.143317166872e-03 0.0 
0.0 0.0 -1.695824168335e-04 
-1.648116269840e-04 2.803138241354e-05 0.0 
2.803138241354e-05 1.093290237044e-03 0.0 
0.0 0.0 -1.644793634901e-04 
-1.128875860972e-04 2.826705620268e-05 0.0 
2.826705620268e-05 7.324835187191e-04 0.0 
0.0 0.0 -1.126879322255e-04 
-1.413103611302e-04 2.856634998349e-05 0.0 
2.856634998349e-05 9.375047760794e-04 0.0 
0.0 0.0 -1.419038077447e-04 
-1.657595976086e-04 2.853389717882e-05 0.0 
2.853389717882e-05 1.104349844714e-03 0.0 
0.0 0.0 -1.661162351013e-04 
-1.653889785276e-04 -2.976188635714e-05 0.0 
-2.976188635714e-05 1.114688989457e-03 0.0 
0.0 0.0 -1.657121520580e-04 
-4.122208403583e-05 -2.733977607716e-05 0.0 
-2.733977607716e-05 2.407308049745e-04 0.0 
0.0 0.0 -4.024936955575e-05 
-1.462865341652e-04 2.791988865304e-05 0.0 
2.791988865304e-05 9.640304959560e-04 0.0 
0.0 0.0 -1.458719015759e-04 
-1.798320892613e-04 3.664169466135e-05 0.0 
3.664169466135e-05 1.207776909166e-03 0.0 
0.0 0.0 -1.808727580343e-04 
-8.155951077410e-05 2.658877336874e-05 0.0 
2.658877336874e-05 5.082367721589e-04 0.0 
0.0 0.0 -8.036834358255e-05 
-1.261065842356e-04 -2.891277945860e-05 0.0 
-2.891277945860e-05 8.392634847212e-04 0.0 
0.0 0.0 -1.261429800108e-04 
-2.464432722710e-05 -2.598410949158e-05 0.0 
-2.598410949158e-05 1.199804601247e-04 0.0 
0.0 0.0 -2.329771006100e-05 
-1.698720281199e-04 2.819353997162e-05 0.0 
2.819353997162e-05 1.134065551803e-03 0.0 
0.0 0.0 -1.704352672439e-04 
-7.209795018933e-05 2.889480946534e-05 0.0 
2.889480946534e-05 4.471234739761e-04 0.0 
0.0 0.0 -7.178447905439e-05 
-1.214879839983e-04 2.129426116121e-05 0.0 
2.129426116121e-05 7.908873499093e-04 0.0 
0.0 0.0 -1.224926751266e-04 
-1.512350690369e-04 3.260960324541e-05 0.0 
3.260960324541e-05 1.003149541653e-03 0.0 
0.0 0.0 -1.513082552986e-04 
-1.410567308220e-04 -2.849265471453e-05 0.0 
-2.849265471453e-05 9.457036391268e-04 0.0 
0.0 0.0 -1.415828201621e-04 
-1.344535840298e-04 2.612046934124e-05 0.0 
2.612046934124e-05 8.995841949147e-04 0.0 
0.0 0.0 -1.366211047096e-04 
-1.341134389053e-04 2.811410486968e-05 0.0 
2.811410486968e-05 8.812581479058e-04 0.0 
0.0 0.0 -1.340535934895e-04 
-8.946040519151e-05 -2.953905219233e-05 0.0 
-2.953905219233e-05 5.742848433877e-04 0.0 
0.0 0.0 -8.827358089900e-05 
-9.333279709743e-05 -2.369397324284e-05 0.0 
-2.369397324284e-05 6.111413459436e-04 0.0 
0.0 0.0 -9.328238720484e-05 
-1.698818200285e-04 -2.882683013526e-05 0.0 
-2.882683013526e-05 1.144701307571e-03 0.0 
0.0 0.0 -1.700100520615e-04 
-1.409975246060e-04 -3.114270166762e-05 0.0 
-3.114270166762e-05 9.412074701777e-04 0.0 
0.0 0.0 -1.409113068204e-04 
-1.224899796510e-04 -2.844927577316e-05 0.0 
-2.844927577316e-05 8.138192071892e-04 0.0 
0.0 0.0 -1.224729735915e-04 
-1.523712328566e-04 3.064679971689e-05 0.0 
3.064679971689e-05 1.008635964013e-03 0.0 
0.0 0.0 -1.522479562080e-04 
-1.188292947714e-04 2.814854163685e-05 0.0 
2.814854163685e-05 7.741609344606e-04 0.0 
0.0 0.0 -1.187265862058e-04 
-7.698231420718e-05 -2.807470773001e-05 0.0 
-2.807470773001e-05 4.953557652573e-04 0.0 
0.0 0.0 -7.679943085705e-05 
-8.618619312566e-05 2.228028664320e-05 0.0 
2.228028664320e-05 5.633842965339e-04 0.0 
0.0 0.0 -8.862593743002e-05 
-1.284395253225e-04 -2.631768161175e-05 0.0 
-2.631768161175e-05 8.441014789476e-04 0.0 
0.0 0.0 -1.266344217576e-04 
-1.074097245906e-04 1.137855673603e-06 0.0 
1.137855673603e-06 7.273751056144e-04 0.0 
0.0 0.0 -1.068299257544e-04 
-1.648361548193e-04 -2.903405778283e-05 0.0 
-2.903405778283e-05 1.103487992394e-03 0.0 
0.0 0.0 -1.640398004813e-04 
-1.125117604938e-04 -2.832657592519e-05 0.0 
-2.832657592519e-05 7.420818515929e-04 0.0 
0.0 0.0 -1.122952594724e-04 
-1.815273626527e-04 2.648876521301e-05 0.0 
2.648876521301e-05 1.237129381465e-03 0.0 
0.0 0.0 -1.850357933615e-04 
-1.677426973633e-04 3.358700303554e-05 0.0 
3.358700303554e-05 1.121534172788e-03 0.0 
0.0 0.0 -1.681766660669e-04 
-1.238211064038e-04 -2.893923336642e-05 0.0 
-2.893923336642e-05 8.228165218213e-04 0.0 
0.0 0.0 -1.237869166313e-04 
-1.864446355504e-04 -3.208766695310e-05 0.0 
-3.208766695310e-05 1.252430825566e-03 0.0 
0.0 0.0 -1.862208944195e-04 
-8.530940149586e-05 -2.872680214247e-05 0.0 
-2.872680214247e-05 5.536185287289e-04 0.0 
0.0 0.0 -8.523934116932e-05 
-1.812060938045e-04 2.774101611193e-05 0.0 
2.774101611193e-05 1.207038039800e-03 0.0 
0.0 0.0 -1.806723702746e-04 
-1.337032776849e-04 -2.817141114612e-05 0.0 
-2.817141114612e-05 8.910030578001e-04 0.0 
0.0 0.0 -1.336599856011e-04 
-1.477881411962e-04 2.807358610009e-05 0.0 
2.807358610009e-05 9.757986870607e-04 0.0 
0.0 0.0 -1.477205131922e-04 
-1.717661370758e-04 -2.763745373205e-05 0.0 
-2.763745373205e-05 1.155465207730e-03 0.0 
0.0 0.0 -1.720177540750e-04 
-8.915482971043e-05 -2.748298977886e-05 0.0 
-2.748298977886e-05 5.839530331415e-04 0.0 
0.0 0.0 -8.937342098373e-05 
-1.408472522219e-04 2.814178914188e-05 0.0 
2.814178914188e-05 9.273096045331e-04 0.0 
0.0 0.0 -1.405419627762e-04 
-1.183094889317e-04 -2.831962265042e-05 0.0 
-2.831962265042e-05 7.845371880710e-04 0.0 
0.0 0.0 -1.182925860037e-04 
-1.362566173497e-04 -2.854051389334e-05 0.0 
-2.854051389334e-05 9.069235503698e-04 0.0 
0.0 0.0 -1.359850532410e-04 
-7.919830953849e-05 -2.789069310031e-05 0.0 
-2.789069310031e-05 5.092955845790e-04 0.0 
0.0 0.0 -7.902140106529e-05 
-1.521909368861e-04 3.155873557746e-05 0.0 
3.155873557746e-05 1.007096083567e-03 0.0 
0.0 0.0 -1.519844081269e-04 
-1.132987595353e-04 2.834154396761e-05 0.0 
2.834154396761e-05 7.356229622935e-04 0.0 
0.0 0.0 -1.132306032040e-04 
-1.320680958621e-04 2.867292103990e-05 0.0 
2.867292103990e-05 8.674712725503e-04 0.0 
0.0 0.0 -1.321542253869e-04 
-1.368300496681e-04 2.752968636588e-05 0.0 
2.752968636588e-05 8.977721242010e-04 0.0 
0.0 0.0 -1.363712481195e-04 
-2.669160915437e-05 -1.546272424363e-05 0.0 
-1.546272424363e-05 1.161110005952e-04 0.0 
0.0 0.0 -2.089024115593e-05 
-1.363872734664e-04 3.073615465078e-05 0.0 
3.073615465078e-05 8.982822443154e-04 0.0 
0.0 0.0 -1.362374425583e-04 
-3.196098953400e-05 -3.152710847565e-05 0.0 
-3.152710847565e-05 1.832351866553e-04 0.0 
0.0 0.0 -3.246432735143e-05 
-3.780823483309e-05 3.089859502925e-05 0.0 
3.089859502925e-05 2.040662805879e-04 0.0 
0.0 0.0 -3.615541251042e-05 
-1.264532196870e-04 2.805256790047e-05 0.0 
2.805256790047e-05 8.282811887478e-04 0.0 
0.0 0.0 -1.265710825771e-04 
-1.650927065987e-04 -2.992799550430e-05 0.0 
-2.992799550430e-05 1.105940052269e-03 0.0 
0.0 0.0 -1.647532235908e-04 
-1.400518033137e-04 2.658927901254e-05 0.0 
2.658927901254e-05 9.276103799496e-04 0.0 
0.0 0.0 -1.408132903889e-04 
-7.975221115210e-05 -2.926681587233e-05 0.0 
-2.926681587233e-05 5.061325512957e-04 0.0 
0.0 0.0 -7.822954250360e-05 
-2.013483297690e-04 2.032612637039e-06 0.0 
2.032612637039e-06 1.329003344546e-03 0.0 
0.0 0.0 -2.013483297690e-04 
-1.035627632493e-05 2.012317785662e-05 0.0 
2.012317785662e-05 3.911320943316e-05 0.0 
0.0 0.0 -1.232439990353e-05 
-8.383816084979e-05 -1.994127170537e-05 0.0 
-1.994127170537e-05 5.413626143026e-04 0.0 
0.0 0.0 -8.324708519681e-05 
-1.271654449798e-04 2.783994873367e-05 0.0 
2.783994873367e-05 8.320575259278e-04 0.0 
0.0 0.0 -1.270911103786e-04 
-1.205324376648e-04 -2.929888805432e-05 0.0 
-2.929888805432e-05 8.005519843789e-04 0.0 
0.0 0.0 -1.206387729067e-04 
-1.013602283131e-04 -2.480997680423e-05 0.0 
-2.480997680423e-05 6.640206223424e-04 0.0 
0.0 0.0 -1.009985469804e-04 
-8.871913647433e-05 2.734607712163e-05 0.0 
2.734607712163e-05 5.647906116567e-04 0.0 
0.0 0.0 -8.863076730824e-05 
-1.311043943365e-04 -2.976717297625e-05 0.0 
-2.976717297625e-05 8.719910144079e-04 0.0 
0.0 0.0 -1.310072861357e-04 
-1.389619207248e-04 -2.862329341105e-05 0.0 
-2.862329341105e-05 9.281576540868e-04 0.0 
0.0 0.0 -1.390016920470e-04 
-1.460738362541e-04 3.043025274219e-05 0.0 
3.043025274219e-05 9.676325484449e-04 0.0 
0.0 0.0 -1.460128267758e-04 
-1.732762100729e-04 3.047090098963e-05 0.0 
3.047090098963e-05 1.141214836478e-03 0.0 
0.0 0.0 -1.716453415534e-04 
-4.497460723320e-05 2.726656903271e-05 0.0 
2.726656903271e-05 2.561921516371e-04 0.0 
0.0 0.0 -4.464496721659e-05 
-1.166209944052e-04 2.853466779788e-05 0.0 
2.853466779788e-05 7.601119053809e-04 0.0 
0.0 0.0 -1.167719096664e-04 
-1.253239379370e-04 2.802640912089e-05 0.0 
2.802640912089e-05 8.204946388047e-04 0.0 
0.0 0.0 -1.253423245625e-04 
-6.775366326737e-05 -3.048229866519e-05 0.0 
-3.048229866519e-05 4.346213084644e-04 0.0 
0.0 0.0 -6.816034660215e-05 
-1.127220931764e-04 3.280867731043e-05 0.0 
3.280867731043e-05 7.331832316127e-04 0.0 
0.0 0.0 -1.127715562385e-04 
-1.406419564968e-04 -3.010518963226e-05 0.0 
-3.010518963226e-05 9.368893413982e-04 0.0 
0.0 0.0 -1.404347219739e-04 
-1.530603703096e-04 -2.920298263434e-05 0.0 
-2.920298263434e-05 1.018521684544e-03 0.0 
0.0 0.0 -1.535177820318e-04 
-2.288599488340e-05 1.289972043286e-06 0.0 
1.289972043286e-06 1.500050201402e-04 0.0 
0.0 0.0 -2.407863984352e-05 
-1.904718743730e-05 -3.796502735245e-05 0.0 
-3.796502735245e-05 7.353718879473e-05 0.0 
0.0 0.0 -1.778391308807e-05 
-4.862036817725e-05 -2.764492479964e-05 0.0 
-2.764492479964e-05 3.006710189870e-04 0.0 
0.0 0.0 -4.850561850037e-05 
-1.250248464412e-04 -2.908499407456e-05 0.0 
-2.908499407456e-05 8.306354519711e-04 0.0 
0.0 0.0 -1.249513133117e-04 
-9.487833492244e-05 -2.821982749961e-05 0.0 
-2.821982749961e-05 6.208435078207e-04 0.0 
0.0 0.0 -9.483030114460e-05 
-8.410233070287e-05 -2.754579270561e-05 0.0 
-2.754579270561e-05 5.457436342908e-04 0.0 
0.0 0.0 -8.407979340540e-05 
-7.564452835468e-05 -2.812380315554e-05 0.0 
-2.812380315554e-05 4.861034660231e-04 0.0 
0.0 0.0 -7.562371400132e-05 
-1.308199925164e-04 2.795456765413e-05 0.0 
2.795456765413e-05 8.583699019635e-04 0.0 
0.0 0.0 -1.308200345188e-04 
-1.492653203134e-04 2.795966396730e-05 0.0 
2.795966396730e-05 9.867209101107e-04 0.0 
0.0 0.0 -1.493429779604e-04 
-1.297619321001e-04 2.813153916154e-05 0.0 
2.813153916154e-05 8.505758307982e-04 0.0 
0.0 0.0 -1.296493136919e-04 
-9.537410332307e-05 2.792962789421e-05 0.0 
2.792962789421e-05 6.106733548119e-04 0.0 
0.0 0.0 -9.522910944095e-05 
-1.456775150903e-04 -3.018176577816e-05 0.0 
-3.018176577816e-05 9.731377158713e-04 0.0 
0.0 0.0 -1.454913560695e-04 
-1.215295702296e-04 2.461975315803e-05 0.0 
2.461975315803e-05 8.148115380054e-04 0.0 
0.0 0.0 -1.235433054540e-04 
-1.607975492377e-04 3.196445582729e-05 0.0 
3.196445582729e-05 1.071803692603e-03 0.0 
0.0 0.0 -1.614296353785e-04 
-1.294007234012e-04 -2.913608251421e-05 0.0 
-2.913608251421e-05 8.607493369835e-04 0.0 
0.0 0.0 -1.292646442145e-04 
-1.305405341983e-04 -2.882629630394e-05 0.0 
-2.882629630394e-05 8.689129694931e-04 0.0 
0.0 0.0 -1.304223873054e-04 
-6.968339329854e-05 -2.972888482406e-05 0.0 
-2.972888482406e-05 4.334906827197e-04 0.0 
0.0 0.0 -6.822727741190e-05 
-9.912831729497e-05 -2.796137707004e-05 0.0 
-2.796137707004e-05 6.504811582310e-04 0.0 
0.0 0.0 -9.898428703081e-05 
-1.338904054535e-04 2.764565306312e-05 0.0 
2.764565306312e-05 8.796508899650e-04 0.0 
0.0 0.0 -1.339603927656e-04 
-1.451942325546e-04 2.545422836756e-05 0.0 
2.545422836756e-05 9.593435678016e-04 0.0 
0.0 0.0 -1.442355194375e-04 
-1.361868027580e-04 2.709053506538e-05 0.0 
2.709053506538e-05 9.012697796478e-04 0.0 
0.0 0.0 -1.345837404303e-04 
-7.449260603113e-05 -2.324565781608e-05 0.0 
-2.324565781608e-05 4.730958793735e-04 0.0 
0.0 0.0 -7.319231467821e-05 
-1.351502038915e-04 2.830190167801e-05 0.0 
2.830190167801e-05 8.885438377553e-04 0.0 
0.0 0.0 -1.351067771782e-04 
-8.277379542059e-05 -2.675056815443e-05 0.0 
-2.675056815443e-05 5.366126160003e-04 0.0 
0.0 0.0 -8.276526902223e-05 
-4.268302624522e-05 2.966411434536e-05 0.0 
2.966411434536e-05 2.450626322876e-04 0.0 
0.0 0.0 -4.217020858377e-05 
-1.783377964353e-04 -2.878462420289e-05 0.0 
-2.878462420289e-05 1.216695363592e-03 0.0 
0.0 0.0 -1.804362660462e-04 
-4.529678387534e-05 2.926161683405e-05 0.0 
2.926161683405e-05 2.590325448345e-04 0.0 
0.0 0.0 -4.529806102550e-05 
-8.742939480876e-05 2.790769408488e-05 0.0 
2.790769408488e-05 5.558475884308e-04 0.0 
0.0 0.0 -8.733313829944e-05 
-1.317265343520e-04 -2.980209858436e-05 0.0 
-2.980209858436e-05 8.750838916963e-04 0.0 
0.0 0.0 -1.314978247514e-04 
-7.591084973546e-05 2.107875529606e-05 0.0 
2.107875529606e-05 4.931826175602e-04 0.0 
0.0 0.0 -7.859944172783e-05 
-1.334719851974e-04 -2.966915358544e-05 0.0 
-2.966915358544e-05 8.920345164479e-04 0.0 
0.0 0.0 -1.335848452069e-04 
-6.387562636780e-05 -3.268343600872e-05 0.0 
-3.268343600872e-05 4.032800898130e-04 0.0 
0.0 0.0 -6.423763444998e-05 
-1.136812058642e-04 -2.481450603128e-05 0.0 
-2.481450603128e-05 7.554211615018e-04 0.0 
0.0 0.0 -1.173522912428e-04 
-1.350637719422e-04 -2.838472714175e-05 0.0 
-2.838472714175e-05 8.988460543843e-04 0.0 
0.0 0.0 -1.347247148155e-04 
-1.171592619295e-04 -2.801384878721e-05 0.0 
-2.801384878721e-05 7.755561146277e-04 0.0 
0.0 0.0 -1.170018866078e-04 
-1.217089587309e-04 -2.902247236899e-05 0.0 
-2.902247236899e-05 8.097798257773e-04 0.0 
0.0 0.0 -1.219000842292e-04 
-2.184335631700e-05 -1.729926300555e-05 0.0 
-1.729926300555e-05 1.250103729472e-04 0.0 
0.0 0.0 -2.233965624082e-05 
-1.775429286585e-04 -2.993860203194e-05 0.0 
-2.993860203194e-05 1.168952343716e-03 0.0 
0.0 0.0 -1.728850973588e-04 
-9.777928932074e-05 -2.702797086344e-05 0.0 
-2.702797086344e-05 6.417468029030e-04 0.0 
0.0 0.0 -9.771858906392e-05 
-1.742936274983e-04 3.098695444566e-05 0.0 
3.098695444566e-05 1.160612036868e-03 0.0 
0.0 0.0 -1.731059224200e-04 
-1.475958375390e-04 -2.938015971493e-05 0.0 
-2.938015971493e-05 9.867581376832e-04 0.0 
0.0 0.0 -1.473178670231e-04 
-1.394115090974e-04 2.895092753690e-05 0.0 
2.895092753690e-05 9.183306099949e-04 0.0 
0.0 0.0 -1.394094752486e-04 
-1.392759160733e-04 -2.661746757661e-05 0.0 
-2.661746757661e-05 9.284264619517e-04 0.0 
0.0 0.0 -1.390298226761e-04 
-8.994283602845e-05 2.778083834669e-05 0.0 
2.778083834669e-05 5.730895634602e-04 0.0 
0.0 0.0 -8.984374554363e-05 
-2.917258118515e-05 2.376164554401e-05 0.0 
2.376164554401e-05 1.745437757761e-04 0.0 
0.0 0.0 -3.155138587282e-05 
-2.317643182854e-05 1.790083138541e-05 0.0 
1.790083138541e-05 9.845334346925e-05 0.0 
0.0 0.0 -2.398754234351e-05 
-1.432208171698e-04 2.892878557249e-05 0.0 
2.892878557249e-05 9.478265663156e-04 0.0 
0.0 0.0 -1.437459767248e-04 
-1.740260011077e-04 2.826019241499e-05 0.0 
2.826019241499e-05 1.153801197259e-03 0.0 
0.0 0.0 -1.722084272143e-04 
-8.118601345419e-05 -2.611344377703e-05 0.0 
-2.611344377703e-05 5.279662901466e-04 0.0 
0.0 0.0 -8.139371786675e-05 
-1.500944745800e-04 2.850222383989e-05 0.0 
2.850222383989e-05 9.934228736818e-04 0.0 
0.0 0.0 -1.501054273671e-04 
-7.521111464244e-05 2.846605665054e-05 0.0 
2.846605665054e-05 4.657051250380e-04 0.0 
0.0 0.0 -7.503141475880e-05 
-1.512386812048e-04 -2.992568848289e-05 0.0 
-2.992568848289e-05 1.010913185445e-03 0.0 
0.0 0.0 -1.508421041237e-04 
-1.913679647201e-04 1.633067843082e-05 0.0 
1.633067843082e-05 1.304046368860e-03 0.0 
0.0 0.0 -1.899801870201e-04 
-8.107065812765e-06 2.346749919756e-06 0.0 
2.346749919756e-06 3.465691143960e-05 0.0 
0.0 0.0 -6.768710104396e-06 
-2.012431250738e-04 -5.135354168430e-06 0.0 
-5.135354168430e-06 1.328125823973e-03 0.0 
0.0 0.0 -2.012431250738e-04 
-2.010076978229e-04 5.129027623315e-07 0.0 
5.129027623315e-07 1.332224423205e-03 0.0 
0.0 0.0 -2.010076978229e-04 
-1.200525084162e-04 -2.960169498126e-05 0.0 
-2.960169498126e-05 7.774099100136e-04 0.0 
0.0 0.0 -1.193279669386e-04 
-9.640785059628e-05 -2.657435829226e-05 0.0 
-2.657435829226e-05 6.329376874412e-04 0.0 
0.0 0.0 -9.642369099328e-05 
-1.430993903661e-04 -2.855154632445e-05 0.0 
-2.855154632445e-05 9.576101063938e-04 0.0 
0.0 0.0 -1.431539317715e-04 
-9.069725416876e-05 -2.857026822921e-05 0.0 
-2.857026822921e-05 5.911546440220e-04 0.0 
0.0 0.0 -9.061723822400e-05 
-3.022990634783e-05 -2.681786409130e-05 0.0 
-2.681786409130e-05 1.822763229384e-04 0.0 
0.0 0.0 -3.143827221009e-05 
-2.037753453247e-05 -2.478655429001e-05 0.0 
-2.478655429001e-05 8.790842240506e-05 0.0 
0.0 0.0 -1.801817686168e-05 
-1.836175097671e-04 -2.402430245032e-05 0.0 
-2.402430245032e-05 1.223987652140e-03 0.0 
0.0 0.0 -1.814249121503e-04 
-1.450545934085e-04 -3.153145532631e-05 0.0 
-3.153145532631e-05 9.685145142433e-04 0.0 
0.0 0.0 -1.447226300079e-04 
-1.125869054840e-04 -2.748101964700e-05 0.0 
-2.748101964700e-05 7.294325003239e-04 0.0 
0.0 0.0 -1.083718385576e-04 
-1.962159152819e-04 -1.434651956337e-06 0.0 
-1.434651956337e-06 1.365722808943e-03 0.0 
0.0 0.0 -1.985491694924e-04 
-5.585822177885e-05 -3.143630658045e-05 0.0 
-3.143630658045e-05 3.376755851757e-04 0.0 
0.0 0.0 -5.423556500690e-05 
-2.007881053171e-04 -1.726199718447e-06 0.0 
-1.726199718447e-06 1.364640639189e-03 0.0 
0.0 0.0 -1.987362728011e-04 
-1.448517594688e-04 2.793135192776e-05 0.0 
2.793135192776e-05 9.587643079544e-04 0.0 
0.0 0.0 -1.450563315224e-04 
-9.484276981656e-05 -2.674005154729e-05 0.0 
-2.674005154729e-05 6.234132904817e-04 0.0 
0.0 0.0 -9.504591620249e-05 
-1.382279383007e-04 2.787393037445e-05 0.0 
2.787393037445e-05 9.097739666025e-04 0.0 
0.0 0.0 -1.381945852821e-04 
-9.142868377808e-05 2.725850192794e-05 0.0 
2.725850192794e-05 5.832477346610e-04 0.0 
0.0 0.0 -9.142251929393e-05 
-4.742959093977e-05 3.178494059526e-05 0.0 
3.178494059526e-05 2.793740196453e-04 0.0 
0.0 0.0 -4.740468724644e-05 
-8.571259270612e-05 2.828259101351e-05 0.0 
2.828259101351e-05 5.446684396391e-04 0.0 
0.0 0.0 -8.592027974235e-05 
-1.533744480417e-04 2.894142802439e-05 0.0 
2.894142802439e-05 1.015636410024e-03 0.0 
0.0 0.0 -1.535624635791e-04 
-1.726464644829e-04 -3.048637260420e-05 0.0 
-3.048637260420e-05 1.163840887987e-03 0.0 
0.0 0.0 -1.733086171842e-04 
-9.280503597506e-05 2.727322910805e-05 0.0 
2.727322910805e-05 5.925489514016e-04 0.0 
0.0 0.0 -9.272779504641e-05 
-1.556220947506e-04 2.834035430820e-05 0.0 
2.834035430820e-05 1.030951438499e-03 0.0 
0.0 0.0 -1.554407367389e-04 
0.0 0.0 0.0 
0.0 0.0 0.0 
0.0 0.0 0.0 
-9.414991845574e-05 2.689042394907e-05 0.0 
2.689042394907e-05 6.016400273679e-04 0.0 
0.0 0.0 -9.399423243866e-05 
-1.601427960654e-04 -3.089969489527e-05 0.0 
-3.089969489527e-05 1.075322883485e-03 0.0 
0.0 0.0 -1.599578041173e-04 
-8.403714033751e-05 2.869873894183e-05 0.0 
2.869873894183e-05 5.323289088036e-04 0.0 
0.0 0.0 -8.424104700772e-05 
-7.551475753824e-05 -2.649474593413e-05 0.0 
-2.649474593413e-05 4.894460977115e-04 0.0 
0.0 0.0 -7.579321247091e-05 
-1.378493770478e-04 -2.790966319756e-05 0.0 
-2.790966319756e-05 9.196714216363e-04 0.0 
0.0 0.0 -1.378141772466e-04 
-4.197657932346e-05 3.036843921012e-05 0.0 
3.036843921012e-05 2.488746108878e-04 0.0 
0.0 0.0 -4.469345153978e-05 
-6.356553012414e-05 -1.790556961603e-05 0.0 
-1.790556961603e-05 3.571998655218e-04 0.0 
0.0 0.0 -5.800805537475e-05 
-5.963646489739e-05 -2.697912930355e-05 0.0 
-2.697912930355e-05 4.061213774054e-04 0.0 
0.0 0.0 -6.293882513644e-05 
-7.444587698182e-05 2.773637856154e-05 0.0 
2.773637856154e-05 4.649609944167e-04 0.0 
0.0 0.0 -7.460064588462e-05 
-1.268907598115e-04 -2.860718727315e-05 0.0 
-2.860718727315e-05 8.433503837867e-04 0.0 
0.0 0.0 -1.266626700847e-04 
-1.224386685492e-04 2.875829832121e-05 0.0 
2.875829832121e-05 7.993143987396e-04 0.0 
0.0 0.0 -1.222099179032e-04 
-1.550707846259e-04 -3.021300247570e-05 0.0 
-3.021300247570e-05 1.039277942014e-03 0.0 
0.0 0.0 -1.550846054886e-04 
-1.832450820655e-04 1.991288128733e-05 0.0 
1.991288128733e-05 1.215795306098e-03 0.0 
0.0 0.0 -1.836391296960e-04 
-6.655985465225e-05 1.933551370614e-05 0.0 
1.933551370614e-05 4.236408710896e-04 0.0 
0.0 0.0 -6.856221390244e-05 
-1.539423275274e-04 -3.704467856056e-05 0.0 
-3.704467856056e-05 1.025688764769e-03 0.0 
0.0 0.0 -1.542931291103e-04 
-1.848510975897e-04 1.848398553320e-05 0.0 
1.848398553320e-05 1.219703446086e-03 0.0 
0.0 0.0 -1.842621829813e-04 
-8.571771551762e-05 2.855827741082e-05 0.0 
2.855827741082e-05 5.438756567258e-04 0.0 
0.0 0.0 -8.561402555334e-05 
-3.203347885951e-05 3.153292785458e-05 0.0 
3.153292785458e-05 1.785175093333e-04 0.0 
0.0 0.0 -3.288300492123e-05 
-7.987216545887e-05 -2.346764247849e-05 0.0 
-2.346764247849e-05 5.184929031400e-04 0.0 
0.0 0.0 -7.995251146095e-05 
-1.212808198145e-04 -2.827766812275e-05 0.0 
-2.827766812275e-05 8.042920459384e-04 0.0 
0.0 0.0 -1.212446555230e-04 
-1.571887129407e-04 2.934596798488e-05 0.0 
2.934596798488e-05 1.038696799089e-03 0.0 
0.0 0.0 -1.564536520703e-04 
-1.218972312950e-04 2.856394456649e-05 0.0 
2.856394456649e-05 7.946681320418e-04 0.0 
0.0 0.0 -1.216241541690e-04 
-3.687132775950e-05 -1.707295352198e-05 0.0 
-1.707295352198e-05 2.178919936982e-04 0.0 
0.0 0.0 -3.514573890614e-05 
-1.365304663594e-04 -3.020632721963e-05 0.0 
-3.020632721963e-05 9.106175701847e-04 0.0 
0.0 0.0 -1.364410292409e-04 
-5.340251844815e-05 3.227075763275e-05 0.0 
3.227075763275e-05 3.197704478175e-04 0.0 
0.0 0.0 -5.262769246444e-05 
-1.221027789088e-04 -2.890393133813e-05 0.0 
-2.890393133813e-05 8.084198513028e-04 0.0 
0.0 0.0 -1.218536047623e-04 
-1.315166503229e-04 3.036725150384e-05 0.0 
3.036725150384e-05 8.626782461118e-04 0.0 
0.0 0.0 -1.313414595827e-04 
-1.426434875643e-04 2.845461346825e-05 0.0 
2.845461346825e-05 9.398077750181e-04 0.0 
0.0 0.0 -1.423708775668e-04 
-1.391130870296e-04 -2.561595399108e-05 0.0 
-2.561595399108e-05 9.319163416573e-04 0.0 
0.0 0.0 -1.424111980137e-04 
-7.359597002428e-05 -2.624347751830e-05 0.0 
-2.624347751830e-05 4.769960883137e-04 0.0 
0.0 0.0 -7.400431453448e-05 
-3.726862459375e-05 2.779553031089e-05 0.0 
2.779553031089e-05 2.059200017464e-04 0.0 
0.0 0.0 -3.689331396917e-05 
-1.412883241773e-04 3.117267937368e-05 0.0 
3.117267937368e-05 9.320815795036e-04 0.0 
0.0 0.0 -1.412299401741e-04 
-5.695030605691e-05 2.980577594809e-05 0.0 
2.980577594809e-05 3.524536248651e-04 0.0 
0.0 0.0 -5.785728901387e-05 
-1.619887946569e-05 3.142044942513e-05 0.0 
3.142044942513e-05 6.578946746101e-05 0.0 
0.0 0.0 -1.807788326025e-05 
-1.825504858472e-04 2.573963131551e-05 0.0 
2.573963131551e-05 1.217305172889e-03 0.0 
0.0 0.0 -1.835083836816e-04 
-1.729233565602e-04 2.872122229116e-05 0.0 
2.872122229116e-05 1.159887577617e-03 0.0 
0.0 0.0 -1.736153457326e-04 
-1.409164917213e-05 -2.430425574027e-06 0.0 
-2.430425574027e-06 4.702851798331e-05 0.0 
0.0 0.0 -1.411580091908e-05 
-1.463665932977e-04 -3.126704961804e-05 0.0 
-3.126704961804e-05 9.787427797795e-04 0.0 
0.0 0.0 -1.463746444899e-04 
-5.845062236023e-05 -2.645214861765e-05 0.0 
-2.645214861765e-05 3.686249821293e-04 0.0 
0.0 0.0 -5.830856659963e-05 
-6.281564360845e-05 3.169608016734e-05 0.0 
3.169608016734e-05 3.841253318981e-04 0.0 
0.0 0.0 -6.293782921230e-05 
-1.650668794472e-04 2.900743383490e-05 0.0 
2.900743383490e-05 1.099051719168e-03 0.0 
0.0 0.0 -1.651106757487e-04 
-1.420507125182e-04 -2.816985865578e-05 0.0 
-2.816985865578e-05 9.486624777595e-04 0.0 
0.0 0.0 -1.420128425420e-04 
-1.597126278327e-04 2.832051794153e-05 0.0 
2.832051794153e-05 1.060784632571e-03 0.0 
0.0 0.0 -1.597282110823e-04 
-9.370204679761e-05 -2.720544142818e-05 0.0 
-2.720544142818e-05 6.123683048539e-04 0.0 
0.0 0.0 -9.358332744048e-05 
-1.060009958935e-04 3.119096932655e-06 0.0 
3.119096932655e-06 7.289348751363e-04 0.0 
0.0 0.0 -1.065887642422e-04 
-1.941219239478e-04 -5.797046838501e-06 0.0 
-5.797046838501e-06 1.266619729961e-03 0.0 
0.0 0.0 -1.922307546206e-04 
-5.313245642963e-05 3.042191767076e-05 0.0 
3.042191767076e-05 3.144966903172e-04 0.0 
0.0 0.0 -5.312725273093e-05 
-1.687809558173e-04 -2.631258109430e-05 0.0 
-2.631258109430e-05 1.128223470622e-03 0.0 
0.0 0.0 -1.681832374459e-04 
-1.273764443761e-04 -2.878158037897e-05 0.0 
-2.878158037897e-05 8.455758404914e-04 0.0 
0.0 0.0 -1.271565067773e-04 
-3.822255344261e-05 2.500156110728e-05 0.0 
2.500156110728e-05 2.364164359659e-04 0.0 
0.0 0.0 -4.338531818388e-05 
-1.526166386163e-04 2.805935182056e-05 0.0 
2.805935182056e-05 1.007602313688e-03 0.0 
0.0 0.0 -1.522749921841e-04 
-9.947746693308e-05 2.785738393031e-05 0.0 
2.785738393031e-05 6.395594624911e-04 0.0 
0.0 0.0 -9.942043292989e-05 
-2.527098467302e-05 3.065658406321e-06 0.0 
3.065658406321e-06 1.096951272292e-04 0.0 
0.0 0.0 -2.686452779226e-05 
-8.455323570062e-05 2.729291629105e-05 0.0 
2.729291629105e-05 5.361235094493e-04 0.0 
0.0 0.0 -8.448194383576e-05 
-1.482631539770e-04 2.903868462658e-05 0.0 
2.903868462658e-05 9.945552025979e-04 0.0 
0.0 0.0 -1.487312575846e-04 
-1.536438978435e-04 -2.997531100621e-05 0.0 
-2.997531100621e-05 1.028351940357e-03 0.0 
0.0 0.0 -1.531470540813e-04 
-4.003077281978e-05 -2.830715996030e-05 0.0 
-2.830715996030e-05 2.471369193858e-04 0.0 
0.0 0.0 -4.069786302508e-05 
-1.167976821101e-04 -1.770134624163e-05 0.0 
-1.770134624163e-05 8.139301953201e-04 0.0 
0.0 0.0 -1.211443205810e-04 
-1.611165232338e-04 2.978772478272e-05 0.0 
2.978772478272e-05 1.070172218379e-03 0.0 
0.0 0.0 -1.607673801326e-04 
-1.654344347163e-04 -2.702413096073e-05 0.0 
-2.702413096073e-05 1.117079121565e-03 0.0 
0.0 0.0 -1.664840065771e-04 
-8.012874751740e-05 2.708679385402e-05 0.0 
2.708679385402e-05 5.044541792441e-04 0.0 
0.0 0.0 -8.027607217676e-05 
-6.457567760665e-05 2.897485867730e-05 0.0 
2.897485867730e-05 3.931630492274e-04 0.0 
0.0 0.0 -6.500901228657e-05 
-1.319964825975e-04 2.994843719676e-05 0.0 
2.994843719676e-05 8.668112520758e-04 0.0 
0.0 0.0 -1.317940137408e-04 
-1.379973298544e-04 -3.231272729127e-05 0.0 
-3.231272729127e-05 9.176099760799e-04 0.0 
0.0 0.0 -1.391846276019e-04 
-2.511391392826e-05 -2.252014201736e-06 0.0 
-2.252014201736e-06 1.091572524748e-04 0.0 
0.0 0.0 -2.644390370036e-05 
-1.911173997413e-04 2.513512913463e-07 0.0 
2.513512913463e-07 1.307038771946e-03 0.0 
0.0 0.0 -1.903768894597e-04 
-1.947762233824e-04 2.804254327122e-06 0.0 
2.804254327122e-06 1.266513292292e-03 0.0 
0.0 0.0 -1.921796786394e-04 
-1.243941132727e-04 -2.875762744524e-05 0.0 
-2.875762744524e-05 8.122420463557e-04 0.0 
0.0 0.0 -1.258162180156e-04 
-1.867429468804e-04 -3.423015533406e-05 0.0 
-3.423015533406e-05 1.277419804644e-03 0.0 
0.0 0.0 -1.882556412575e-04 
-1.928393192665e-04 1.313739391776e-05 0.0 
1.313739391776e-05 1.270533835261e-03 0.0 
0.0 0.0 -1.928249870753e-04 
-9.825942552837e-05 2.769137061349e-05 0.0 
2.769137061349e-05 6.308847079493e-04 0.0 
0.0 0.0 -9.814123251156e-05 
-9.240950567659e-05 -2.688842748606e-05 0.0 
-2.688842748606e-05 6.034653479681e-04 0.0 
0.0 0.0 -9.230175702903e-05 
-1.924550016248e-04 -5.517505549701e-06 0.0 
-5.517505549701e-06 1.309202189480e-03 0.0 
0.0 0.0 -1.898303498781e-04 
0.0 0.0 0.0 
0.0 0.0 0.0 
0.0 0.0 0.0 
-5.986600181462e-05 3.134474346182e-05 0.0 
3.134474346182e-05 3.637594613067e-04 0.0 
0.0 0.0 -5.912561730725e-05 
-1.277191406744e-04 3.185114804781e-05 0.0 
3.185114804781e-05 8.113680378929e-04 0.0 
0.0 0.0 -1.249421346972e-04 
-7.954199844612e-05 -2.599168722282e-05 0.0 
-2.599168722282e-05 5.172406604270e-04 0.0 
0.0 0.0 -7.970319495692e-05 
-8.344577563047e-05 2.767374510833e-05 0.0 
2.767374510833e-05 5.269368746357e-04 0.0 
0.0 0.0 -8.320397106721e-05 
-5.123352415357e-05 -1.962082412885e-05 0.0 
-1.962082412885e-05 2.833973025222e-04 0.0 
0.0 0.0 -4.794777681703e-05 
-5.363517740645e-05 -2.722736862369e-05 0.0 
-2.722736862369e-05 3.397176592673e-04 0.0 
0.0 0.0 -5.292094912726e-05 
-1.229699465830e-04 -2.474218581881e-05 0.0 
-2.474218581881e-05 8.338820409090e-04 0.0 
0.0 0.0 -1.243503989146e-04 
-8.954054874187e-05 -2.810899154469e-05 0.0 
-2.810899154469e-05 5.833404363378e-04 0.0 
0.0 0.0 -8.944382273678e-05 
-6.985122537492e-05 2.547846832151e-05 0.0 
2.547846832151e-05 4.232868362094e-04 0.0 
0.0 0.0 -6.875210277632e-05 
-1.622986423916e-04 3.030474729067e-05 0.0 
3.030474729067e-05 1.075790270672e-03 0.0 
0.0 0.0 -1.616748170441e-04 
-1.970457297167e-04 -4.615350947609e-07 0.0 
-4.615350947609e-07 1.365353191212e-03 0.0 
0.0 0.0 -1.987468137814e-04 
-2.011643228250e-04 -1.059779547839e-05 0.0 
-1.059779547839e-05 1.364052595584e-03 0.0 
0.0 0.0 -1.980937377599e-04 
-9.693254618166e-05 2.783443467965e-05 0.0 
2.783443467965e-05 6.218009159431e-04 0.0 
0.0 0.0 -9.686140561256e-05 
-1.156312054849e-04 1.562675777246e-05 0.0 
1.562675777246e-05 7.473137010807e-04 0.0 
0.0 0.0 -1.181631233816e-04 
-1.315446083417e-05 9.267234980748e-06 0.0 
9.267234980748e-06 7.174483292748e-05 0.0 
0.0 0.0 -1.382283957119e-05 
-3.950432290439e-05 -3.304652588177e-05 0.0 
-3.304652588177e-05 2.232498512061e-04 0.0 
0.0 0.0 -3.848526569788e-05 
-4.026754611448e-05 -1.523950676683e-05 0.0 
-1.523950676683e-05 2.585395099571e-04 0.0 
0.0 0.0 -4.089435477168e-05 
-4.405717477573e-05 -2.840252196370e-05 0.0 
-2.840252196370e-05 2.593828358352e-04 0.0 
0.0 0.0 -4.353896887732e-05 
-1.369891124347e-04 -2.938640967182e-05 0.0 
-2.938640967182e-05 9.110848461242e-04 0.0 
0.0 0.0 -1.367406709454e-04 
-8.197230901988e-05 2.741985235272e-05 0.0 
2.741985235272e-05 5.176025942286e-04 0.0 
0.0 0.0 -8.189493801327e-05 
-8.833783776842e-05 -2.742859021068e-05 0.0 
-2.742859021068e-05 5.752104247670e-04 0.0 
0.0 0.0 -8.819787836180e-05 
-2.759805077317e-05 -2.177954618106e-05 0.0 
-2.177954618106e-05 1.516326812049e-04 0.0 
0.0 0.0 -2.410601229523e-05 
-1.783949706295e-04 4.652042299768e-06 0.0 
4.652042299768e-06 1.155328432911e-03 0.0 
0.0 0.0 -1.764490618968e-04 
-8.697929300319e-05 -2.712992243026e-05 0.0 
-2.712992243026e-05 5.660070619168e-04 0.0 
0.0 0.0 -8.689161518363e-05 
-1.811862770176e-04 2.958422209347e-05 0.0 
2.958422209347e-05 1.212546250600e-03 0.0 
0.0 0.0 -1.819436774484e-04 
-1.654326848783e-04 -2.150075195991e-05 0.0 
-2.150075195991e-05 1.111682717818e-03 0.0 
0.0 0.0 -1.676190675002e-04 
-1.990579489887e-04 7.558524711792e-06 0.0 
7.558524711792e-06 1.367618541641e-03 0.0 
0.0 0.0 -1.979127976728e-04 
-1.984740657803e-04 6.169813976071e-06 0.0 
6.169813976071e-06 1.366684838106e-03 0.0 
0.0 0.0 -1.987274449783e-04 
-1.264382104229e-04 2.327908082404e-05 0.0 
2.327908082404e-05 8.335131054815e-04 0.0 
0.0 0.0 -1.247270797671e-04 
-9.081273998971e-05 -2.642393334738e-05 0.0 
-2.642393334738e-05 5.943836386239e-04 0.0 
0.0 0.0 -9.095240399918e-05 
-5.659837629473e-05 2.310276724227e-05 0.0 
2.310276724227e-05 3.554825826269e-04 0.0 
0.0 0.0 -5.827376162698e-05 
-9.543789626242e-05 2.821234483008e-05 0.0 
2.821234483008e-05 6.121934733358e-04 0.0 
0.0 0.0 -9.551854370315e-05 
-2.014992525441e-04 -3.363348043908e-06 0.0 
-3.363348043908e-06 1.330768717372e-03 0.0 
0.0 0.0 -2.014992525440e-04 
-2.911856940717e-05 -3.120254985375e-05 0.0 
-3.120254985375e-05 1.523266154115e-04 0.0 
0.0 0.0 -2.840051313461e-05 
-3.367815072839e-05 -2.539476975202e-05 0.0 
-2.539476975202e-05 1.888854888445e-04 0.0 
0.0 0.0 -3.342821812567e-05 
-1.750673059660e-04 -2.242675268741e-05 0.0 
-2.242675268741e-05 1.168754862597e-03 0.0 
0.0 0.0 -1.734041932760e-04 
-1.140629508000e-04 1.641024004697e-06 0.0 
1.641024004697e-06 7.886218254393e-04 0.0 
0.0 0.0 -1.157284414847e-04 
-1.828276393895e-04 3.087967014604e-05 0.0 
3.087967014604e-05 1.221678860241e-03 0.0 
0.0 0.0 -1.828919613360e-04 
-1.607219730026e-04 -3.054484747269e-05 0.0 
-3.054484747269e-05 1.076626864861e-03 0.0 
0.0 0.0 -1.604417944905e-04 
-1.759974315114e-04 2.950983775753e-05 0.0 
2.950983775753e-05 1.175337678647e-03 0.0 
0.0 0.0 -1.762554578086e-04 
-1.677687622884e-04 -3.310916950601e-05 0.0 
-3.310916950601e-05 1.126220187005e-03 0.0 
0.0 0.0 -1.670365378361e-04 
-1.261810872000e-04 2.733892666963e-05 0.0 
2.733892666963e-05 8.227216474371e-04 0.0 
0.0 0.0 -1.281412631256e-04 
-6.984160407426e-05 -2.569852845702e-05 0.0 
-2.569852845702e-05 4.502664572317e-04 0.0 
0.0 0.0 -7.011576570921e-05 
-7.045526019658e-05 2.772076042237e-05 0.0 
2.772076042237e-05 4.380896674180e-04 0.0 
0.0 0.0 -7.073545507566e-05 
-1.466548664850e-04 2.792940741624e-05 0.0 
2.792940741624e-05 9.823660011168e-04 0.0 
0.0 0.0 -1.494458990106e-04 
-1.706023771645e-04 -3.477697252798e-05 0.0 
-3.477697252798e-05 1.150206027511e-03 0.0 
0.0 0.0 -1.713759566437e-04 
-1.085001106667e-04 5.928666841059e-06 0.0 
5.928666841059e-06 6.853690661460e-04 0.0 
0.0 0.0 -1.101783339608e-04 
-1.150649004483e-04 1.412858253897e-06 0.0 
1.412858253897e-06 7.864362268725e-04 0.0 
0.0 0.0 -1.151410349708e-04 
-1.223216217609e-04 -9.643435354381e-06 0.0 
-9.643435354381e-06 8.365929199838e-04 0.0 
0.0 0.0 -1.236345454382e-04 
-1.294729616351e-04 -3.600365409418e-05 0.0 
-3.600365409418e-05 8.499666954327e-04 0.0 
0.0 0.0 -1.270110218628e-04 
-3.781341392471e-05 2.507622857635e-05 0.0 
2.507622857635e-05 2.052845259731e-04 0.0 
0.0 0.0 -3.595854163006e-05 
-6.458682171984e-05 2.659164458955e-05 0.0 
2.659164458955e-05 3.972184272214e-04 0.0 
0.0 0.0 -6.502768632134e-05 
-1.923886982600e-04 1.320998767323e-05 0.0 
1.320998767323e-05 1.306937799645e-03 0.0 
0.0 0.0 -1.903965550180e-04 
-1.361980047059e-04 -3.247265742576e-05 0.0 
-3.247265742576e-05 9.100748945017e-04 0.0 
0.0 0.0 -1.372586556570e-04 
-1.944603101426e-04 2.205610195430e-05 0.0 
2.205610195430e-05 1.300606094326e-03 0.0 
0.0 0.0 -1.942983085767e-04 
-1.827075834453e-04 -2.487186144062e-05 0.0 
-2.487186144062e-05 1.245028194062e-03 0.0 
0.0 0.0 -1.823366321910e-04 
-1.526241956249e-04 -2.882515710348e-05 0.0 
-2.882515710348e-05 1.018355065020e-03 0.0 
0.0 0.0 -1.518848343264e-04 
-1.838055376607e-04 -2.220867482896e-05 0.0 
-2.220867482896e-05 1.227930453973e-03 0.0 
0.0 0.0 -1.822360600334e-04 
-9.189141723329e-05 2.249896247985e-05 0.0 
2.249896247985e-05 5.929179490977e-04 0.0 
0.0 0.0 -9.456744988920e-05 
-8.923687427635e-05 2.330452976089e-05 0.0 
2.330452976089e-05 5.640846174988e-04 0.0 
0.0 0.0 -8.500284120953e-05 
-1.860377161479e-04 2.101899850403e-05 0.0 
2.101899850403e-05 1.219211786622e-03 0.0 
0.0 0.0 -1.840276857211e-04 
-1.302266885565e-05 9.542950408396e-06 0.0 
9.542950408396e-06 4.432884133333e-05 0.0 
0.0 0.0 -1.341693106186e-05 
-5.991703112053e-05 -9.650650547908e-06 0.0 
-9.650650547908e-06 3.995700475142e-04 0.0 
0.0 0.0 -6.107461134110e-05 
-2.013608632250e-04 -1.747935064146e-06 0.0 
-1.747935064146e-06 1.327091793787e-03 0.0 
0.0 0.0 -2.013608632250e-04 
-3.423275746667e-05 -2.897869870394e-05 0.0 
-2.897869870394e-05 1.741934079208e-04 0.0 
0.0 0.0 -3.398704224317e-05 
-1.166987184465e-04 3.376260708005e-06 0.0 
3.376260708005e-06 7.464150060637e-04 0.0 
0.0 0.0 -1.180517715949e-04 
-1.852951862543e-04 -6.895901531864e-06 0.0 
-6.895901531864e-06 1.252882415007e-03 0.0 
0.0 0.0 -1.820192905179e-04 
-2.189567273794e-05 2.107266617838e-05 0.0 
2.107266617838e-05 1.234442803628e-04 0.0 
0.0 0.0 -2.343543478003e-05 
-1.465373239062e-05 -6.700273643796e-06 0.0 
-6.700273643796e-06 8.151640789741e-05 0.0 
0.0 0.0 -1.499806864391e-05 
-1.979646109231e-04 -1.647947049056e-05 0.0 
-1.647947049056e-05 1.362929175419e-03 0.0 
0.0 0.0 -1.986584787576e-04 
-1.077110760694e-04 1.347870292468e-05 0.0 
1.347870292468e-05 6.884288505410e-04 0.0 
0.0 0.0 -1.094181415373e-04 
-1.878064882795e-04 3.303246132633e-05 0.0 
3.303246132633e-05 1.280874072015e-03 0.0 
0.0 0.0 -1.892127523904e-04 
-1.872574646803e-04 1.669387870555e-06 0.0 
1.669387870555e-06 1.214710811889e-03 0.0 
0.0 0.0 -1.847787516803e-04 
-1.081384153803e-04 -8.265982315710e-06 0.0 
-8.265982315710e-06 6.863175329085e-04 0.0 
0.0 0.0 -1.093391956339e-04 
-1.183108474329e-05 -1.526745450730e-06 0.0 
-1.526745450730e-06 8.288041116295e-05 0.0 
0.0 0.0 -1.461037633882e-05 
-1.928461778371e-04 -1.450363078147e-05 0.0 
-1.450363078147e-05 1.269631515360e-03 0.0 
0.0 0.0 -1.926211076318e-04 
-3.664328028393e-05 -3.474192895717e-05 0.0 
-3.474192895717e-05 2.008554549357e-04 0.0 
0.0 0.0 -3.650318340572e-05 
-1.865092181227e-04 1.872239000524e-05 0.0 
1.872239000524e-05 1.228864859043e-03 0.0 
0.0 0.0 -1.848276476440e-04 
-2.014642658289e-04 -8.318866801391e-08 0.0 
-8.318866801391e-08 1.329164711416e-03 0.0 
0.0 0.0 -2.014642658289e-04 
-1.863725232052e-04 -2.215017484820e-05 0.0 
-2.215017484820e-05 1.224672282405e-03 0.0 
0.0 0.0 -1.838550531888e-04 
-4.579760219593e-05 2.993393437161e-05 0.0 
2.993393437161e-05 2.630911927245e-04 0.0 
0.0 0.0 -4.567146191493e-05 
-1.231376912533e-04 3.302421736628e-06 0.0 
3.302421736628e-06 8.455036824614e-04 0.0 
0.0 0.0 -1.241871602230e-04 
-9.897320674459e-05 -1.982042870943e-05 0.0 
-1.982042870943e-05 6.300759750379e-04 0.0 
0.0 0.0 -9.407984802336e-05 
-1.609514246157e-04 -3.024200816091e-05 0.0 
-3.024200816091e-05 1.078541844928e-03 0.0 
0.0 0.0 -1.616399041023e-04 
-1.984206323310e-04 -1.383870975889e-05 0.0 
-1.383870975889e-05 1.364918109129e-03 0.0 
0.0 0.0 -1.990496603105e-04 
-1.603101285724e-04 1.893623053607e-05 0.0 
1.893623053607e-05 1.069942872822e-03 0.0 
0.0 0.0 -1.592422372747e-04 
-2.006038303863e-04 1.656223959945e-05 0.0 
1.656223959945e-05 1.363483438763e-03 0.0 
0.0 0.0 -1.988805961512e-04 
-2.157799468526e-05 2.675018284335e-05 0.0 
2.675018284335e-05 1.121671203490e-04 0.0 
0.0 0.0 -2.573693149021e-05 
-1.906849838871e-04 -1.873571465641e-05 0.0 
-1.873571465641e-05 1.306053010621e-03 0.0 
0.0 0.0 -1.916484765783e-04 
-5.146266627946e-05 1.897216913104e-05 0.0 
1.897216913104e-05 3.060778228498e-04 0.0 
0.0 0.0 -5.033941334868e-05 
-3.400990015803e-05 1.312678026193e-05 0.0 
1.312678026193e-05 1.676110055634e-04 0.0 
0.0 0.0 -3.447177322316e-05 
-1.921352674404e-04 -1.514543928923e-05 0.0 
-1.514543928923e-05 1.307880338866e-03 0.0 
0.0 0.0 -1.905503066306e-04 
-1.903818942750e-04 -8.555148187785e-06 0.0 
-8.555148187785e-06 1.309224873111e-03 0.0 
0.0 0.0 -1.905905039252e-04 
-1.935313273260e-04 -2.488564283104e-05 0.0 
-2.488564283104e-05 1.299799287321e-03 0.0 
0.0 0.0 -1.934776258129e-04 
-1.157635836836e-04 3.075917002700e-05 0.0 
3.075917002700e-05 7.564878727472e-04 0.0 
0.0 0.0 -1.164394980702e-04 
-1.278320406392e-04 3.003959765809e-05 0.0 
3.003959765809e-05 8.242995150328e-04 0.0 
0.0 0.0 -1.273429404365e-04 
-4.747607610046e-05 -3.167630139555e-05 0.0 
-3.167630139555e-05 2.832612339686e-04 0.0 
0.0 0.0 -4.701750159920e-05 
-1.893682873149e-04 -1.213845527048e-05 0.0 
-1.213845527048e-05 1.308095530746e-03 0.0 
0.0 0.0 -1.909562210215e-04 
-7.758444785249e-05 2.579970670889e-05 0.0 
2.579970670889e-05 5.061981746731e-04 0.0 
0.0 0.0 -8.036225567980e-05 
-2.672886924063e-05 -2.537961056617e-05 0.0 
-2.537961056617e-05 1.614624818245e-04 0.0 
0.0 0.0 -3.171414542872e-05 
-1.655918154031e-04 2.787053237580e-05 0.0 
2.787053237580e-05 1.112934476303e-03 0.0 
0.0 0.0 -1.665212293607e-04 
-1.050972551552e-04 -3.025884205917e-06 0.0 
-3.025884205917e-06 7.225874036591e-04 0.0 
0.0 0.0 -1.064449299410e-04 
-1.855125743211e-04 2.284061724598e-05 0.0 
2.284061724598e-05 1.238197266214e-03 0.0 
0.0 0.0 -1.856594579394e-04 
-1.969980593816e-04 -2.792765841710e-05 0.0 
-2.792765841710e-05 1.348466243731e-03 0.0 
0.0 0.0 -1.982264973081e-04 
-2.015598306414e-04 -1.228437926459e-06 0.0 
-1.228437926459e-06 1.329727235481e-03 0.0 
0.0 0.0 -2.015598306414e-04 
-3.170965654814e-06 -9.174846607934e-06 0.0 
-9.174846607934e-06 3.186703010945e-05 0.0 
0.0 0.0 -6.440169358563e-06 
-2.054361880700e-06 8.524325078712e-06 0.0 
8.524325078712e-06 1.000738199139e-05 0.0 
0.0 0.0 -3.408437190294e-06 
-1.090415563488e-04 -2.544674541070e-05 0.0 
-2.544674541070e-05 7.025551525996e-04 0.0 
0.0 0.0 -1.097735026919e-04 
-1.102790978540e-04 4.096896239264e-06 0.0 
4.096896239264e-06 7.242490524547e-04 0.0 
0.0 0.0 -1.064401693586e-04 
-2.015598306414e-04 1.769844580753e-06 0.0 
1.769844580753e-06 1.328559462674e-03 0.0 
0.0 0.0 -2.015598306414e-04 
-1.964566527274e-04 2.745948387429e-05 0.0 
2.745948387429e-05 1.347766645467e-03 0.0 
0.0 0.0 -1.982264973081e-04 
-1.175853557175e-05 2.296138750723e-05 0.0 
2.296138750723e-05 7.476526502358e-05 0.0 
0.0 0.0 -1.468179278604e-05 
0.0 0.0 0.0 
0.0 0.0 0.0 
0.0 0.0 0.0 
-1.860643112087e-04 1.892522092608e-05 0.0 
1.892522092608e-05 1.220604956089e-03 0.0 
0.0 0.0 -1.845272605536e-04 
-1.810613338557e-04 3.690531828789e-05 0.0 
3.690531828789e-05 1.227609320804e-03 0.0 
0.0 0.0 -1.814046177210e-04 
-3.775454928550e-05 -2.192142162525e-05 0.0 
-2.192142162525e-05 2.530653962175e-04 0.0 
0.0 0.0 -4.069012186385e-05 
-1.867893258397e-04 -1.967907292950e-05 0.0 
-1.967907292950e-05 1.242445273872e-03 0.0 
0.0 0.0 -1.860287822001e-04 
-1.322273957044e-04 -7.821980177849e-06 0.0 
-7.821980177849e-06 8.613081851453e-04 0.0 
0.0 0.0 -1.333256398531e-04 
-1.174513720599e-04 -2.922099993004e-05 0.0 
-2.922099993004e-05 7.623791286875e-04 0.0 
0.0 0.0 -1.141619444601e-04 
-1.434157263431e-04 1.469820453960e-05 0.0 
1.469820453960e-05 9.640681819544e-04 0.0 
0.0 0.0 -1.410117391569e-04 
-3.721642999109e-05 2.244542666226e-05 0.0 
2.244542666226e-05 2.273693429633e-04 0.0 
0.0 0.0 -3.939304728150e-05 
-1.516361842959e-04 -3.045658684071e-05 0.0 
-3.045658684071e-05 1.014390478774e-03 0.0 
0.0 0.0 -1.517486197524e-04 
-3.145165589743e-05 4.872235620209e-06 0.0 
4.872235620209e-06 2.090450929269e-04 0.0 
0.0 0.0 -3.272226055558e-05 
-1.018895751593e-04 -2.838951770175e-05 0.0 
-2.838951770175e-05 6.787429923759e-04 0.0 
0.0 0.0 -1.049612269729e-04 
-1.842198203986e-04 1.688848171670e-05 0.0 
1.688848171670e-05 1.232258602772e-03 0.0 
0.0 0.0 -1.860778644041e-04 
-1.784559347742e-04 -3.196727202869e-05 0.0 
-3.196727202869e-05 1.203750059331e-03 0.0 
0.0 0.0 -1.787589168632e-04 
-1.106507503052e-04 1.655731803460e-05 0.0 
1.655731803460e-05 7.326885674445e-04 0.0 
0.0 0.0 -1.153641303439e-04 
-1.319245288081e-04 -2.759428203750e-05 0.0 
-2.759428203750e-05 8.842042796758e-04 0.0 
0.0 0.0 -1.311848925397e-04 
-1.849952147230e-04 1.224005731978e-05 0.0 
1.224005731978e-05 1.253709795229e-03 0.0 
0.0 0.0 -1.825679017964e-04 
-1.712361580956e-04 -3.249029055204e-05 0.0 
-3.249029055204e-05 1.152848638026e-03 0.0 
0.0 0.0 -1.711417214974e-04 
-1.621790656513e-04 -3.130066982025e-05 0.0 
-3.130066982025e-05 1.085309995837e-03 0.0 
0.0 0.0 -1.614640498619e-04 
-1.095991344629e-04 1.548110486480e-06 0.0 
1.548110486480e-06 6.849847840864e-04 0.0 
0.0 0.0 -1.096818516252e-04 
-1.466797614329e-04 -3.177988380746e-05 0.0 
-3.177988380746e-05 9.793946946612e-04 0.0 
0.0 0.0 -1.464567251102e-04 
-1.856217654582e-04 1.836261976242e-05 0.0 
1.836261976242e-05 1.223913084915e-03 0.0 
0.0 0.0 -1.847107394661e-04 
-6.401317792094e-05 1.777757210555e-05 0.0 
1.777757210555e-05 3.770292953028e-04 0.0 
0.0 0.0 -6.251951766002e-05 
-1.488249501970e-05 -6.661613433421e-06 0.0 
-6.661613433421e-06 9.049355169821e-05 0.0 
0.0 0.0 -1.522736731176e-05 
-1.794781203063e-04 -2.177148621612e-05 0.0 
-2.177148621612e-05 1.190948333360e-03 0.0 
0.0 0.0 -1.778962838413e-04 
-1.689754393540e-04 2.666341982877e-05 0.0 
2.666341982877e-05 1.121590302909e-03 0.0 
0.0 0.0 -1.685307334786e-04 
-3.117516894872e-05 -1.620379493923e-05 0.0 
-1.620379493923e-05 1.675088401558e-04 0.0 
0.0 0.0 -3.460570515138e-05 
-1.490209525484e-04 -2.398959439852e-05 0.0 
-2.398959439852e-05 1.009624786866e-03 0.0 
0.0 0.0 -1.484000725648e-04 
-1.941728230886e-04 -6.317229650202e-06 0.0 
-6.317229650202e-06 1.268109449836e-03 0.0 
0.0 0.0 -1.924109378829e-04 
-1.782640686020e-04 1.811418483105e-05 0.0 
1.811418483105e-05 1.176788769021e-03 0.0 
0.0 0.0 -1.773110165667e-04 
-1.844275111855e-04 -4.383617168843e-06 0.0 
-4.383617168843e-06 1.252791151838e-03 0.0 
0.0 0.0 -1.822694409164e-04 
-1.426350801095e-04 -3.166405234979e-05 0.0 
-3.166405234979e-05 9.429700556337e-04 0.0 
0.0 0.0 -1.430568974379e-04 
-1.367048638434e-05 7.547793984128e-06 0.0 
7.547793984128e-06 4.809613176051e-05 0.0 
0.0 0.0 -1.475384801836e-05 
-4.817205637438e-05 1.518979907033e-05 0.0 
1.518979907033e-05 2.815959802160e-04 0.0 
0.0 0.0 -4.818665537949e-05 
-5.802518359896e-05 -3.237118775929e-05 0.0 
-3.237118775929e-05 3.560287674836e-04 0.0 
0.0 0.0 -5.751524148975e-05 
-1.222811217371e-04 4.923148903369e-06 0.0 
4.923148903369e-06 8.049151145100e-04 0.0 
0.0 0.0 -1.270714490912e-04 
-1.466466955193e-04 3.242901086422e-05 0.0 
3.242901086422e-05 9.717833108994e-04 0.0 
0.0 0.0 -1.467240436239e-04 
-1.865030099579e-04 -2.458316919408e-05 0.0 
-2.458316919408e-05 1.244081238438e-03 0.0 
0.0 0.0 -1.854811886535e-04 
-1.924470582108e-04 1.025180310993e-05 0.0 
1.025180310993e-05 1.267008412016e-03 0.0 
0.0 0.0 -1.923487814140e-04 
-2.301609062590e-05 -4.635179033559e-06 0.0 
-4.635179033559e-06 1.491120452597e-04 0.0 
0.0 0.0 -2.371590567936e-05 
-2.273962015617e-05 8.021387614827e-06 0.0 
8.021387614827e-06 1.424948937247e-04 0.0 
0.0 0.0 -2.307420961409e-05 
-3.644996023323e-05 3.054667220110e-05 0.0 
3.054667220110e-05 2.219148594571e-04 0.0 
0.0 0.0 -3.877784743978e-05 
-1.505507532998e-04 4.198429125548e-05 0.0 
4.198429125548e-05 1.006744199268e-03 0.0 
0.0 0.0 -1.528863196834e-04 
-7.623962459717e-05 -2.731195048099e-05 0.0 
-2.731195048099e-05 4.837899918121e-04 0.0 
0.0 0.0 -7.429924588524e-05 
-1.863524508622e-04 -2.262089027383e-05 0.0 
-2.262089027383e-05 1.249803366509e-03 0.0 
0.0 0.0 -1.861947641336e-04 
-3.704741075814e-05 -2.601020683146e-05 0.0 
-2.601020683146e-05 2.394628484622e-04 0.0 
0.0 0.0 -3.935861431135e-05 
-1.838103394031e-04 1.452656825211e-05 0.0 
1.452656825211e-05 1.213648829434e-03 0.0 
0.0 0.0 -1.831728902790e-04 
-1.220456595190e-04 2.683931147050e-05 0.0 
2.683931147050e-05 8.169008266022e-04 0.0 
0.0 0.0 -1.251559851210e-04 
-1.901741937142e-04 2.069168076264e-07 0.0 
2.069168076264e-07 1.274360012601e-03 0.0 
0.0 0.0 -1.930223408588e-04 
-1.664726505804e-04 -3.515055495158e-05 0.0 
-3.515055495158e-05 1.122391429995e-03 0.0 
0.0 0.0 -1.666682952710e-04 
-1.230362842828e-04 -1.324599728564e-05 0.0 
-1.324599728564e-05 8.068584181325e-04 0.0 
0.0 0.0 -1.269771275557e-04 
-1.906319308292e-04 -7.278184392238e-06 0.0 
-7.278184392238e-06 1.308928167031e-03 0.0 
0.0 0.0 -1.903713883127e-04 
-1.924018578301e-04 1.168444968946e-05 0.0 
1.168444968946e-05 1.309753043894e-03 0.0 
0.0 0.0 -1.909090898364e-04 
-1.885954729481e-04 9.336154218136e-06 0.0 
9.336154218136e-06 1.306961112302e-03 0.0 
0.0 0.0 -1.907009018511e-04 
-2.601124528020e-05 2.982465109596e-05 0.0 
2.982465109596e-05 1.494137909599e-04 0.0 
0.0 0.0 -2.872079986757e-05 
-1.827342744304e-04 2.617845691474e-05 0.0 
2.617845691474e-05 1.218950538624e-03 0.0 
0.0 0.0 -1.827464329712e-04 
-1.931535913243e-04 4.402691257463e-06 0.0 
4.402691257463e-06 1.267632643707e-03 0.0 
0.0 0.0 -1.929967939697e-04 
-1.822938180470e-04 -1.572479834584e-05 0.0 
-1.572479834584e-05 1.239626265032e-03 0.0 
0.0 0.0 -1.817603729293e-04 
-1.697190279031e-04 3.374893720717e-05 0.0 
3.374893720717e-05 1.140711286613e-03 0.0 
0.0 0.0 -1.714881096122e-04 
-2.013997750954e-04 3.693939357452e-06 0.0 
3.693939357452e-06 1.326398449399e-03 0.0 
0.0 0.0 -2.013997750954e-04 
-1.623768653750e-04 3.145458215279e-05 0.0 
3.145458215279e-05 1.075477552169e-03 0.0 
0.0 0.0 -1.618597882954e-04 
0.0 0.0 0.0 
0.0 0.0 0.0 
0.0 0.0 0.0 
-3.901664739789e-05 -3.107536671977e-05 0.0 
-3.107536671977e-05 2.123759730741e-04 0.0 
0.0 0.0 -3.635714225545e-05 
-1.788762468223e-04 -2.668815126998e-05 0.0 
-2.668815126998e-05 1.194169313249e-03 0.0 
0.0 0.0 -1.765404546707e-04 
-1.302843948315e-04 2.373413498694e-05 0.0 
2.373413498694e-05 8.753673031711e-04 0.0 
0.0 0.0 -1.332692038199e-04 
-1.814833852286e-04 -2.932987962222e-05 0.0 
-2.932987962222e-05 1.228315456518e-03 0.0 
0.0 0.0 -1.832991189648e-04 
-1.755755594055e-04 -3.314975176265e-05 0.0 
-3.314975176265e-05 1.186338389567e-03 0.0 
0.0 0.0 -1.765514316642e-04 
-1.922058959132e-04 -7.323986232709e-06 0.0 
-7.323986232709e-06 1.275540875639e-03 0.0 
0.0 0.0 -1.938374750990e-04 
-1.590886801341e-04 3.535348640505e-05 0.0 
3.535348640505e-05 1.086454937064e-03 0.0 
0.0 0.0 -1.628282188246e-04 
-1.943136192193e-04 -2.017280466188e-06 0.0 
-2.017280466188e-06 1.274660348820e-03 0.0 
0.0 0.0 -1.933460184500e-04 
-1.860409899402e-04 -2.465939863213e-05 0.0 
-2.465939863213e-05 1.243243537266e-03 0.0 
0.0 0.0 -1.849983659001e-04 
-1.854493454621e-04 2.521523578023e-05 0.0 
2.521523578023e-05 1.237363143253e-03 0.0 
0.0 0.0 -1.852565349593e-04 
-7.800610219477e-05 -1.750136496523e-05 0.0 
-1.750136496523e-05 5.077823231346e-04 0.0 
0.0 0.0 -7.657446018549e-05 
-1.940082963474e-04 -3.011324743449e-06 0.0 
-3.011324743449e-06 1.367135927910e-03 0.0 
0.0 0.0 -1.988462912301e-04 
-1.122847898646e-04 2.150658952302e-06 0.0 
2.150658952302e-06 7.831127334676e-04 0.0 
0.0 0.0 -1.149322996356e-04 
-1.805030425337e-04 -2.769681372488e-05 0.0 
-2.769681372488e-05 1.229209747324e-03 0.0 
0.0 0.0 -1.826109592864e-04 
-2.210772205688e-05 -1.141237861015e-05 0.0 
-1.141237861015e-05 1.058730840806e-04 0.0 
0.0 0.0 -2.642964691976e-05 
-1.709643782764e-04 -1.864471641412e-05 0.0 
-1.864471641412e-05 1.187155150464e-03 0.0 
0.0 0.0 -1.744803730939e-04 
-1.477070854664e-04 -4.391729024467e-06 0.0 
-4.391729024467e-06 1.020449993757e-03 0.0 
0.0 0.0 -1.488920056885e-04 
-2.536340853786e-05 -1.617904342885e-05 0.0 
-1.617904342885e-05 1.410312003150e-04 0.0 
0.0 0.0 -2.442930455436e-05 
-4.478297823031e-05 -3.360325145203e-05 0.0 
-3.360325145203e-05 2.463363294936e-04 0.0 
0.0 0.0 -4.105386472454e-05 
-1.667572652522e-04 3.269260421942e-05 0.0 
3.269260421942e-05 1.106671823298e-03 0.0 
0.0 0.0 -1.661371793467e-04 
-1.939345119211e-04 -2.917973958076e-06 0.0 
-2.917973958076e-06 1.271284650607e-03 0.0 
0.0 0.0 -1.928053293992e-04 
-1.848839491830e-04 -2.511864242369e-05 0.0 
-2.511864242369e-05 1.245193806993e-03 0.0 
0.0 0.0 -1.835875952628e-04 
-1.881692614413e-04 3.512850772842e-05 0.0 
3.512850772842e-05 1.283926120996e-03 0.0 
0.0 0.0 -1.897169183402e-04 
-1.319951739136e-04 3.692265338647e-05 0.0 
3.692265338647e-05 8.669086104393e-04 0.0 
0.0 0.0 -1.321134885410e-04 
-1.418897775030e-05 -1.383603751222e-06 0.0 
-1.383603751222e-06 8.390464903167e-05 0.0 
0.0 0.0 -1.533750852324e-05 
-1.776342507387e-05 2.898590661281e-05 0.0 
2.898590661281e-05 1.254111435077e-04 0.0 
0.0 0.0 -2.291448659297e-05 
-2.228661035164e-05 3.086208171882e-05 0.0 
3.086208171882e-05 7.414588274207e-05 0.0 
0.0 0.0 -1.893168834827e-05 
-2.834935998913e-05 -2.581094466031e-05 0.0 
-2.581094466031e-05 1.798484559935e-04 0.0 
0.0 0.0 -3.120083896163e-05 
-3.619195444299e-06 1.726688320319e-05 0.0 
1.726688320319e-05 1.889854846973e-05 0.0 
0.0 0.0 -6.548294153755e-06 
-9.846508312271e-05 1.947611327116e-05 0.0 
1.947611327116e-05 6.774458586389e-04 0.0 
0.0 0.0 -1.012995679080e-04 
-1.809123785598e-04 2.900682068589e-05 0.0 
2.900682068589e-05 1.227040363573e-03 0.0 
0.0 0.0 -1.833458990909e-04 
-1.833994977543e-04 2.630052083884e-05 0.0 
2.630052083884e-05 1.234115337032e-03 0.0 
0.0 0.0 -1.834249670905e-04 
-1.300388728735e-04 -2.726917383980e-05 0.0 
-2.726917383980e-05 8.766264197221e-04 0.0 
0.0 0.0 -1.323946974752e-04 
-9.060072859628e-05 -4.107401100024e-05 0.0 
-4.107401100024e-05 5.837911416729e-04 0.0 
0.0 0.0 -8.982794765771e-05 
-1.833530943830e-04 -2.415896483629e-05 0.0 
-2.415896483629e-05 1.239029730488e-03 0.0 
0.0 0.0 -1.831601862249e-04 
-1.805620370494e-04 3.417310065365e-05 0.0 
3.417310065365e-05 1.228469068547e-03 0.0 
0.0 0.0 -1.813053981465e-04 
-1.918538788466e-04 1.314902849118e-05 0.0 
1.314902849118e-05 1.311238991232e-03 0.0 
0.0 0.0 -1.908378613718e-04 
-1.864057830892e-04 -5.544571809971e-06 0.0 
-5.544571809971e-06 1.222330684115e-03 0.0 
0.0 0.0 -1.856133406407e-04 
-1.761014518088e-04 2.982850443616e-05 0.0 
2.982850443616e-05 1.172453916966e-03 0.0 
0.0 0.0 -1.756848094018e-04 
-2.508081297429e-05 1.384675978348e-05 0.0 
1.384675978348e-05 1.057075733602e-04 0.0 
0.0 0.0 -2.599564028619e-05 
-1.693383348172e-05 -2.312304690448e-05 0.0 
-2.312304690448e-05 1.227259030012e-04 0.0 
0.0 0.0 -2.162456296189e-05 
-1.849301832798e-04 -2.375114059264e-05 0.0 
-2.375114059264e-05 1.241181941517e-03 0.0 
0.0 0.0 -1.835494310512e-04 
-2.714207379428e-05 4.098769542459e-06 0.0 
4.098769542459e-06 1.072549946886e-04 0.0 
0.0 0.0 -2.642284971932e-05 
-3.135918366895e-05 4.019659049340e-05 0.0 
4.019659049340e-05 1.551282952784e-04 0.0 
0.0 0.0 -2.899999999997e-05 
-2.063383903873e-05 2.842818060864e-05 0.0 
2.842818060864e-05 9.408870534126e-05 0.0 
0.0 0.0 -2.215380543414e-05 
-2.425090272541e-05 -2.758476542693e-05 0.0 
-2.758476542693e-05 1.189291029536e-04 0.0 
0.0 0.0 -2.370445218759e-05 
-1.950651601912e-04 -1.537310237433e-06 0.0 
-1.537310237433e-06 1.272610956963e-03 0.0 
0.0 0.0 -1.932856728082e-04 
-1.944294159836e-04 -1.137183943863e-05 0.0 
-1.137183943863e-05 1.275116374494e-03 0.0 
0.0 0.0 -1.935170455059e-04 
-1.886696034913e-04 2.831262697735e-05 0.0 
2.831262697735e-05 1.244837435708e-03 0.0 
0.0 0.0 -1.855361636489e-04 
-1.959472726026e-04 1.351216090056e-08 0.0 
1.351216090056e-08 1.278564115673e-03 0.0 
0.0 0.0 -1.938907836251e-04 
-1.787271859105e-04 -2.284872940721e-05 0.0 
-2.284872940721e-05 1.187153147202e-03 0.0 
0.0 0.0 -1.765318707366e-04 
-1.351456084785e-04 3.971362658995e-05 0.0 
3.971362658995e-05 9.093020497765e-04 0.0 
0.0 0.0 -1.375519566527e-04 
-2.017604167332e-04 -1.836539241269e-06 0.0 
-1.836539241269e-06 1.330878883476e-03 0.0 
0.0 0.0 -2.017604167332e-04 
-4.752774343128e-05 -1.713587701896e-05 0.0 
-1.713587701896e-05 3.107525644044e-04 0.0 
0.0 0.0 -4.996133636201e-05 
-1.024919488492e-04 4.191622503833e-07 0.0 
4.191622503833e-07 7.218789940397e-04 0.0 
0.0 0.0 -1.062461082510e-04 
-2.975599916326e-05 9.106261967341e-06 0.0 
9.106261967341e-06 1.955746439529e-04 0.0 
0.0 0.0 -3.129496823211e-05 
-1.232098886184e-05 7.093050022653e-06 0.0 
7.093050022653e-06 4.161179421085e-05 0.0 
0.0 0.0 -1.255320229243e-05 
-1.944497355390e-04 5.978296495926e-06 0.0 
5.978296495926e-06 1.366328994781e-03 0.0 
0.0 0.0 -1.985775144829e-04 
-1.145512522937e-04 -8.915219508627e-06 0.0 
-8.915219508627e-06 7.945910020626e-04 0.0 
0.0 0.0 -1.159689174441e-04 
-2.848344092071e-05 4.003321639578e-06 0.0 
4.003321639578e-06 1.986241883576e-04 0.0 
0.0 0.0 -3.173012194873e-05 
-1.014959600204e-04 3.503938933843e-05 0.0 
3.503938933843e-05 6.393289370777e-04 0.0 
0.0 0.0 -9.855747970559e-05 
-1.905583345653e-04 2.687091843220e-06 0.0 
2.687091843220e-06 1.311634272187e-03 0.0 
0.0 0.0 -1.915206309854e-04 
-1.857526928997e-04 -2.471303146073e-05 0.0 
-2.471303146073e-05 1.243107974826e-03 0.0 
0.0 0.0 -1.842925442824e-04 
-1.948868254755e-04 -1.041522172143e-06 0.0 
-1.041522172143e-06 1.275180970734e-03 0.0 
0.0 0.0 -1.934499806569e-04 
-7.012133808743e-05 -2.162576108704e-05 0.0 
-2.162576108704e-05 4.594521408120e-04 0.0 
0.0 0.0 -7.043099580601e-05 
-2.186534210929e-05 -2.363395921601e-05 0.0 
-2.363395921601e-05 1.124805107313e-04 0.0 
0.0 0.0 -2.329832943476e-05 
-1.928869723946e-04 -1.747685447208e-05 0.0 
-1.747685447208e-05 1.309527415302e-03 0.0 
0.0 0.0 -1.909716586738e-04 
-1.948223937585e-04 3.463630469138e-06 0.0 
3.463630469138e-06 1.366072774039e-03 0.0 
0.0 0.0 -1.988029557152e-04 
-1.997972325631e-04 -2.657071604694e-06 0.0 
-2.657071604694e-06 1.368996078479e-03 0.0 
0.0 0.0 -1.985675284643e-04 
-1.149075065172e-04 1.970313765657e-05 0.0 
1.970313765657e-05 7.553309514488e-04 0.0 
0.0 0.0 -1.151014696305e-04 
-1.853670490970e-04 -6.789881419622e-07 0.0 
-6.789881419622e-07 1.217253462195e-03 0.0 
0.0 0.0 -1.847801502676e-04 
-2.929766823262e-05 -1.423662774746e-05 0.0 
-1.423662774746e-05 1.684447109910e-04 0.0 
0.0 0.0 -3.486300268346e-05 
-1.886376341972e-04 2.491029484498e-05 0.0 
2.491029484498e-05 1.251144203043e-03 0.0 
0.0 0.0 -1.862363266401e-04 
-1.225588461862e-05 -1.620442536661e-06 0.0 
-1.620442536661e-06 4.088176785210e-05 0.0 
0.0 0.0 -1.226823567149e-05 
-1.959443734270e-04 -1.593633800897e-06 0.0 
-1.593633800897e-06 1.275907277954e-03 0.0 
0.0 0.0 -1.936070242144e-04 
-1.921705025686e-04 1.672528369413e-05 0.0 
1.672528369413e-05 1.305355282221e-03 0.0 
0.0 0.0 -1.902878095246e-04 
-1.213509693042e-05 -9.695671298578e-06 0.0 
-9.695671298578e-06 4.146515921011e-05 0.0 
0.0 0.0 -1.257002669129e-05 
-1.793207099600e-04 -2.104295957024e-05 0.0 
-2.104295957024e-05 1.192465817629e-03 0.0 
0.0 0.0 -1.767027422389e-04 
-1.542349507493e-04 -2.789525500736e-05 0.0 
-2.789525500736e-05 1.046690456158e-03 0.0 
0.0 0.0 -1.580789522666e-04 
-1.934231585208e-04 -4.589161303043e-06 0.0 
-4.589161303043e-06 1.276393454338e-03 0.0 
0.0 0.0 -1.934530862915e-04 
-2.019364116565e-04 -1.570828685488e-06 0.0 
-1.570828685488e-06 1.334544060367e-03 0.0 
0.0 0.0 -2.019364116565e-04 
-1.443736664853e-04 -4.496434299745e-05 0.0 
-4.496434299745e-05 9.564830102373e-04 0.0 
0.0 0.0 -1.444096547634e-04 
-1.939456756852e-04 2.017652496132e-06 0.0 
2.017652496132e-06 1.279640861987e-03 0.0 
0.0 0.0 -1.938765919206e-04 
-1.869172796684e-04 -2.300922739472e-05 0.0 
-2.300922739472e-05 1.248797853845e-03 0.0 
0.0 0.0 -1.854760755851e-04 
-1.511310601618e-04 1.323861223544e-06 0.0 
1.323861223544e-06 9.820371097651e-04 0.0 
0.0 0.0 -1.514438176870e-04 
-1.859523187257e-04 -2.150500838708e-06 0.0 
-2.150500838708e-06 1.237126209909e-03 0.0 
0.0 0.0 -1.871408849840e-04 
-8.159488617983e-05 -1.939805324608e-05 0.0 
-1.939805324608e-05 5.359838852638e-04 0.0 
0.0 0.0 -8.502783899585e-05 
-1.113338579071e-04 -3.576614126909e-06 0.0 
-3.576614126909e-06 6.830287758959e-04 0.0 
0.0 0.0 -1.093177095251e-04 
-1.875695645106e-04 2.166688210212e-05 0.0 
2.166688210212e-05 1.248595569192e-03 0.0 
0.0 0.0 -1.858828511717e-04 
-1.916898687047e-04 1.740402246749e-05 0.0 
1.740402246749e-05 1.297694891500e-03 0.0 
0.0 0.0 -1.929759641265e-04 
0.0 0.0 0.0 
0.0 0.0 0.0 
0.0 0.0 0.0 
-1.108754537982e-04 8.190067800634e-06 0.0 
8.190067800634e-06 6.858465185805e-04 0.0 
0.0 0.0 -1.092688595421e-04 
-1.923809518426e-04 -1.819844630735e-05 0.0 
-1.819844630735e-05 1.300229094043e-03 0.0 
0.0 0.0 -1.932123727438e-04 
-4.002001247467e-05 2.006963566931e-05 0.0 
2.006963566931e-05 2.328825741027e-04 0.0 
0.0 0.0 -4.148470287098e-05 
-1.866472002231e-04 4.880453877379e-06 0.0 
4.880453877379e-06 1.252749307024e-03 0.0 
0.0 0.0 -1.819878549007e-04 
-1.819209478198e-04 -2.068448510871e-05 0.0 
-2.068448510871e-05 1.244408370608e-03 0.0 
0.0 0.0 -1.838914853240e-04 
-1.915111223810e-04 -2.323214646959e-05 0.0 
-2.323214646959e-05 1.305780620660e-03 0.0 
0.0 0.0 -1.903556752671e-04 
-3.701661376552e-05 2.035950265076e-05 0.0 
2.035950265076e-05 2.272671486071e-04 0.0 
0.0 0.0 -3.971981059879e-05 
-2.769286414478e-05 7.747329809448e-06 0.0 
7.747329809448e-06 1.806614107884e-04 0.0 
0.0 0.0 -2.859863994447e-05 
-1.242949117924e-04 5.074427327232e-05 0.0 
5.074427327232e-05 7.859669856420e-04 0.0 
0.0 0.0 -1.190920679387e-04 
-1.709477821043e-04 1.206352581251e-05 0.0 
1.206352581251e-05 1.132186117532e-03 0.0 
0.0 0.0 -1.681261804956e-04 
1.014327330369e-06 7.383782533250e-07 0.0 
7.383782533250e-07 2.927583678911e-05 0.0 
0.0 0.0 -6.243845128022e-06 
-1.946447373769e-04 -4.455018500166e-06 0.0 
-4.455018500166e-06 1.280717844331e-03 0.0 
0.0 0.0 -1.938350263003e-04 
-1.424463118062e-04 5.764408395156e-06 0.0 
5.764408395156e-06 9.202154133526e-04 0.0 
0.0 0.0 -1.425289220759e-04 
-3.478878306297e-05 -2.499498638801e-05 0.0 
-2.499498638801e-05 2.296892403380e-04 0.0 
0.0 0.0 -3.902841992921e-05 
-1.377312918912e-04 9.864863143696e-06 0.0 
9.864863143696e-06 8.735402280856e-04 0.0 
0.0 0.0 -1.354581645892e-04 
-1.922007867126e-04 -1.822737660514e-05 0.0 
-1.822737660514e-05 1.307890918218e-03 0.0 
0.0 0.0 -1.907465343871e-04 
-1.254239889598e-04 -4.359753515645e-05 0.0 
-4.359753515645e-05 8.286556014884e-04 0.0 
0.0 0.0 -1.240920679387e-04 
-1.353144492439e-05 -2.813094036452e-05 0.0 
-2.813094036452e-05 4.877548767693e-05 0.0 
0.0 0.0 -1.316471896826e-05 
-8.142748840058e-05 2.105549334848e-05 0.0 
2.105549334848e-05 4.801057020835e-04 0.0 
0.0 0.0 -7.814452609390e-05 
-1.089615496817e-04 1.599271894156e-05 0.0 
1.599271894156e-05 7.175407804816e-04 0.0 
0.0 0.0 -1.097999625750e-04 
-1.256926158202e-04 5.260336234632e-05 0.0 
5.260336234632e-05 8.559229925288e-04 0.0 
0.0 0.0 -1.289999999999e-04 
-1.861165675973e-04 -2.159470551463e-05 0.0 
-2.159470551463e-05 1.249429060897e-03 0.0 
0.0 0.0 -1.849170288086e-04 
-1.106499789189e-04 -2.590861534469e-05 0.0 
-2.590861534469e-05 6.926866843830e-04 0.0 
0.0 0.0 -1.076326444904e-04 
-1.112884178496e-04 1.305986126263e-05 0.0 
1.305986126263e-05 7.358491413001e-04 0.0 
0.0 0.0 -1.139494348250e-04 
-2.588411427290e-05 1.911750771148e-05 0.0 
1.911750771148e-05 1.061373083438e-04 0.0 
0.0 0.0 -2.326846092920e-05 
-1.893744793615e-04 2.103198860830e-05 0.0 
2.103198860830e-05 1.246033425132e-03 0.0 
0.0 0.0 -1.860944804855e-04 
-1.813760335911e-04 2.431983118237e-05 0.0 
2.431983118237e-05 1.192575940689e-03 0.0 
0.0 0.0 -1.779543165055e-04 
-3.341687545780e-05 1.295689628708e-05 0.0 
1.295689628708e-05 1.947474497127e-04 0.0 
0.0 0.0 -3.617538986514e-05 
-1.891790155312e-04 -1.249004293212e-05 0.0 
-1.249004293212e-05 1.282842787366e-03 0.0 
0.0 0.0 -1.935524225335e-04 
-1.940711954716e-04 2.260939094991e-05 0.0 
2.260939094991e-05 1.289421750568e-03 0.0 
0.0 0.0 -1.935534039001e-04 
-1.151984927981e-04 -2.298534457927e-05 0.0 
-2.298534457927e-05 7.735611340850e-04 0.0 
0.0 0.0 -1.145968264807e-04 
-1.409477362984e-04 4.636851076838e-06 0.0 
4.636851076838e-06 9.500238057427e-04 0.0 
0.0 0.0 -1.403751509546e-04 
-1.057221588411e-04 2.457938922791e-05 0.0 
2.457938922791e-05 7.039272758311e-04 0.0 
0.0 0.0 -1.066277415830e-04 
-1.061891266013e-04 -1.653485252010e-05 0.0 
-1.653485252010e-05 7.204456328921e-04 0.0 
0.0 0.0 -1.101455558886e-04 
-1.167125773018e-04 -5.214442621127e-06 0.0 
-5.214442621127e-06 7.635304123669e-04 0.0 
0.0 0.0 -1.124773478824e-04 
-1.793168656901e-04 2.299952134744e-05 0.0 
2.299952134744e-05 1.185887205723e-03 0.0 
0.0 0.0 -1.771393596935e-04 
-3.152584898735e-05 1.897210253453e-05 0.0 
1.897210253453e-05 1.627411535502e-04 0.0 
0.0 0.0 -3.411956464738e-05 
-1.845315344105e-04 -2.087044310257e-05 0.0 
-2.087044310257e-05 1.251382198176e-03 0.0 
0.0 0.0 -1.826724926888e-04 
-1.258093955466e-04 1.092296903434e-05 0.0 
1.092296903434e-05 7.989141246955e-04 0.0 
0.0 0.0 -1.256509235457e-04 
-1.915790341267e-04 -2.191468720141e-05 0.0 
-2.191468720141e-05 1.308072793879e-03 0.0 
0.0 0.0 -1.908230686647e-04 
-1.803448451633e-04 -1.980075170866e-05 0.0 
-1.980075170866e-05 1.182538242344e-03 0.0 
0.0 0.0 -1.771885848702e-04 
-1.319350983937e-04 -8.918433226288e-06 0.0 
-8.918433226288e-06 9.046918759966e-04 0.0 
0.0 0.0 -1.335370307995e-04 
-1.816836816126e-04 1.791474397062e-05 0.0 
1.791474397062e-05 1.201235583197e-03 0.0 
0.0 0.0 -1.801549293832e-04 
-1.875547155475e-04 1.892715754060e-05 0.0 
1.892715754060e-05 1.233891763137e-03 0.0 
0.0 0.0 -1.855150795789e-04 
-1.939054531168e-04 -3.416516152567e-06 0.0 
-3.416516152567e-06 1.313797531553e-03 0.0 
0.0 0.0 -1.905407107676e-04 
-1.393318625630e-05 6.729466406601e-06 0.0 
6.729466406601e-06 4.687704386898e-05 0.0 
0.0 0.0 -1.411879611972e-05 
-1.819939651451e-04 -2.047705946231e-05 0.0 
-2.047705946231e-05 1.208295386483e-03 0.0 
0.0 0.0 -1.798029041703e-04 
-1.850233720890e-04 2.766047329041e-05 0.0 
2.766047329041e-05 1.254110806432e-03 0.0 
0.0 0.0 -1.840618297566e-04 
-1.944390477997e-05 -2.127751864275e-05 0.0 
-2.127751864275e-05 1.299757536440e-04 0.0 
0.0 0.0 -2.232470194434e-05 
-1.017184515676e-04 -1.757095589334e-05 0.0 
-1.757095589334e-05 6.550290312805e-04 0.0 
0.0 0.0 -1.026204892046e-04 
-1.144511734995e-05 -9.153149013220e-06 0.0 
-9.153149013220e-06 7.932793000554e-05 0.0 
0.0 0.0 -1.453852818766e-05 
-1.859119756783e-04 -1.557168329532e-05 0.0 
-1.557168329532e-05 1.264074963678e-03 0.0 
0.0 0.0 -1.846184893018e-04 
-3.115249874379e-05 -9.392764814956e-06 0.0 
-9.392764814956e-06 1.520746859397e-04 0.0 
0.0 0.0 -3.066666666667e-05 
-2.682058423371e-05 1.023262462853e-05 0.0 
1.023262462853e-05 1.789475414021e-04 0.0 
0.0 0.0 -2.733333333333e-05 
-3.054317291122e-05 -1.319297916592e-06 0.0 
-1.319297916592e-06 1.318371458440e-04 0.0 
0.0 0.0 -3.066666666667e-05 
-2.731434440690e-05 -3.292577835775e-07 0.0 
-3.292577835775e-07 1.776636844910e-04 0.0 
0.0 0.0 -2.733333333333e-05 
-3.068230134311e-05 -1.171127504652e-06 0.0 
-1.171127504652e-06 1.309485636588e-04 0.0 
0.0 0.0 -3.066666666667e-05 
-2.762600550872e-05 -1.130662135450e-06 0.0 
-1.130662135450e-06 1.778139332973e-04 0.0 
0.0 0.0 -2.733333333333e-05 
-3.087891343183e-05 -1.132530436389e-06 0.0 
-1.132530436389e-06 1.311466470252e-04 0.0 
0.0 0.0 -3.066666666667e-05 
-2.780022496225e-05 -1.102526127279e-06 0.0 
-1.102526127279e-06 1.779942234450e-04 0.0 
0.0 0.0 -2.733333333333e-05 
-3.102589747765e-05 -1.004569991772e-06 0.0 
-1.004569991772e-06 1.313359802530e-04 0.0 
0.0 0.0 -3.066666666667e-05 
-2.788258457094e-05 -9.668688081841e-07 0.0 
-9.668688081841e-07 1.781179952891e-04 0.0 
0.0 0.0 -2.733333333333e-05 
-3.111787319336e-05 -8.729314539437e-07 0.0 
-8.729314539437e-07 1.314608622191e-04 0.0 
0.0 0.0 -3.066666666667e-05 
-2.790823040739e-05 -8.378244139465e-07 0.0 
-8.378244139465e-07 1.781897784732e-04 0.0 
0.0 0.0 -2.733333333333e-05 
-3.116455107115e-05 -7.640341986132e-07 0.0 
-7.640341986132e-07 1.315316495351e-04 0.0 
0.0 0.0 -3.066666666667e-05 
-2.790066553311e-05 -7.329815685835e-07 0.0 
-7.329815685835e-07 1.782217638771e-04 0.0 
0.0 0.0 -2.733333333333e-05 
-3.117866187168e-05 -6.720747297610e-07 0.0 
-6.720747297610e-07 1.315631577420e-04 0.0 
0.0 0.0 -3.066666666667e-05 
-2.787481270068e-05 -6.416960435711e-07 0.0 
-6.416960435711e-07 1.782248648945e-04 0.0 
0.0 0.0 -2.733333333333e-05 
-3.117208639374e-05 -5.805765665885e-07 0.0 
-5.805765665885e-07 1.315676964099e-04 0.0 
0.0 0.0 -3.066666666667e-05 
-2.784021682385e-05 -5.460022049189e-07 0.0 
-5.460022049189e-07 1.782073925414e-04 0.0 
0.0 0.0 -2.733333333333e-05 
-3.115293685845e-05 -4.713148351393e-07 0.0 
-4.713148351393e-07 1.315543265043e-04 0.0 
0.0 0.0 -3.066666666667e-05 
-2.780368518980e-05 -4.277803080253e-07 0.0 
-4.277803080253e-07 1.781767718938e-04 0.0 
0.0 0.0 -2.733333333333e-05 
-3.667122527508e-05 -2.122966822693e-05 0.0 
-2.122966822693e-05 1.767731432372e-04 0.0 
0.0 0.0 -2.873639455782e-05 
-3.112752319427e-05 -3.273124817502e-07 0.0 
-3.273124817502e-07 1.315309331346e-04 0.0 
0.0 0.0 -3.066666666667e-05 
-2.777187291842e-05 -2.729422196053e-07 0.0 
-2.729422196053e-07 1.781425712313e-04 0.0 
0.0 0.0 -2.733333333333e-05 
-3.110252441256e-05 -1.357830489110e-07 0.0 
-1.357830489110e-07 1.315074138609e-04 0.0 
0.0 0.0 -3.066666666667e-05 
1.865078729081e-06 -1.970277777752e-07 0.0 
-1.970277777752e-07 1.420892405103e-04 0.0 
0.0 0.0 -3.201706826615e-05 
-2.775422339691e-05 -7.800270951605e-08 0.0 
-7.800270951605e-08 1.781223259519e-04 0.0 
0.0 0.0 -2.733333333333e-05 
-3.109409877837e-05 8.363799497494e-08 0.0 
8.363799497494e-08 1.314964783393e-04 0.0 
0.0 0.0 -3.066666666667e-05 
-2.258573317897e-05 4.566248051516e-06 0.0 
4.566248051516e-06 1.328474345229e-04 0.0 
0.0 0.0 -3.066666666667e-05 
-2.775551180818e-05 1.381503603416e-07 0.0 
1.381503603416e-07 1.781205034801e-04 0.0 
0.0 0.0 -2.733333333333e-05 
-3.110835224456e-05 3.175213947338e-07 0.0 
3.175213947338e-07 1.315035429915e-04 0.0 
0.0 0.0 -3.066666666667e-05 
-2.778149912914e-05 3.505123535167e-07 0.0 
3.505123535167e-07 1.781500161720e-04 0.0 
0.0 0.0 -2.733333333333e-05 
-3.115216375409e-05 5.003570368217e-07 0.0 
5.003570368217e-07 1.315296802721e-04 0.0 
0.0 0.0 -3.066666666667e-05 
-2.781953445980e-05 5.272172932021e-07 0.0 
5.272172932021e-07 1.781780888155e-04 0.0 
0.0 0.0 -2.733333333333e-05 
-3.119179440074e-05 6.972352024228e-07 0.0 
6.972352024228e-07 1.315674207111e-04 0.0 
0.0 0.0 -3.066666666667e-05 
-2.788980674257e-05 6.621830901506e-07 0.0 
6.621830901506e-07 1.782718807566e-04 0.0 
0.0 0.0 -2.733333333333e-05 
-3.127786243588e-05 7.001787595592e-07 0.0 
7.001787595592e-07 1.316234844057e-04 0.0 
0.0 0.0 -3.066666666667e-05 
-2.793669723939e-05 7.121536771423e-07 0.0 
7.121536771423e-07 1.782789730811e-04 0.0 
0.0 0.0 -2.733333333333e-05 
-2.083987659497e-05 5.192262395949e-06 0.0 
5.192262395949e-06 1.601604535816e-04 0.0 
0.0 0.0 -3.040306122449e-05 
-3.128196488704e-05 8.864502461672e-07 0.0 
8.864502461672e-07 1.316740698415e-04 0.0 
0.0 0.0 -3.066666666667e-05 
-2.805871458840e-05 7.181961098696e-07 0.0 
7.181961098696e-07 1.784918476482e-04 0.0 
0.0 0.0 -2.733333333333e-05 
-3.146723415353e-05 4.676695999066e-07 0.0 
4.676695999066e-07 1.317436802558e-04 0.0 
0.0 0.0 -3.066666666667e-05 
-2.803856534745e-05 6.263142573500e-07 0.0 
6.263142573500e-07 1.782766160668e-04 0.0 
0.0 0.0 -2.733333333333e-05 
-2.835427252241e-05 5.303924104693e-07 0.0 
5.303924104693e-07 1.789956933432e-04 0.0 
0.0 0.0 -2.733333333333e-05 
-3.125094743854e-05 1.161197627037e-06 0.0 
1.161197627037e-06 1.317977815772e-04 0.0 
0.0 0.0 -3.066666666667e-05 
-2.801438929685e-05 2.633779876239e-07 0.0 
2.633779876239e-07 1.778194862359e-04 0.0 
0.0 0.0 -2.733333333333e-05 
-3.203619725494e-05 -6.502667759813e-07 0.0 
-6.502667759813e-07 1.319090743744e-04 0.0 
0.0 0.0 -3.066666666667e-05 
-2.883280858308e-05 1.534642711598e-07 0.0 
1.534642711598e-07 1.799854777383e-04 0.0 
0.0 0.0 -2.733333333333e-05 
-3.079104632735e-05 2.074866327860e-06 0.0 
2.074866327860e-06 1.318195767180e-04 0.0 
0.0 0.0 -3.066666666667e-05 
-2.703199875693e-05 5.887451633951e-07 0.0 
5.887451633951e-07 1.747972044784e-04 0.0 
0.0 0.0 -2.733333333333e-05 
-2.980411932691e-05 3.550617276802e-06 0.0 
3.550617276802e-06 1.814647316143e-04 0.0 
0.0 0.0 -2.733333333333e-05 
-3.347691701532e-05 -4.239159922635e-06 0.0 
-4.239159922635e-06 1.316323545227e-04 0.0 
0.0 0.0 -3.066666666667e-05 
-2.469250650365e-05 7.865760100327e-06 0.0 
7.865760100327e-06 1.302807475393e-04 0.0 
0.0 0.0 -3.066666666667e-05 
-1.443364817236e-05 -3.916192661548e-06 0.0 
-3.916192661548e-06 1.161464928675e-04 0.0 
0.0 0.0 -2.706972789116e-05 
-2.210942681219e-05 -5.425861009592e-05 0.0 
-5.425861009592e-05 1.494137921260e-04 0.0 
0.0 0.0 -2.900000000000e-05 
-3.730144947539e-05 5.465077409855e-05 0.0 
5.465077409855e-05 1.766425161808e-04 0.0 
0.0 0.0 -2.900000000000e-05 
-2.652175868930e-05 -4.778009820364e-06 0.0 
-4.778009820364e-06 1.550020280535e-04 0.0 
0.0 0.0 -2.566666666667e-05 
-3.303512460698e-05 6.627458112937e-06 0.0 
6.627458112937e-06 1.697654660127e-04 0.0 
0.0 0.0 -3.233333333333e-05 
-1.821730383652e-05 -8.210888401217e-07 0.0 
-8.210888401217e-07 1.355384773217e-04 0.0 
0.0 0.0 -2.566666666667e-05 
-3.781916541046e-05 -9.669426051968e-06 0.0 
-9.669426051968e-06 2.301589260470e-04 0.0 
0.0 0.0 -3.733333333333e-05 
-4.092491983796e-05 8.729822583191e-06 0.0 
8.729822583191e-06 2.009734351153e-04 0.0 
0.0 0.0 -4.066666666667e-05 
-3.720983957789e-05 -4.166702888572e-07 0.0 
-4.166702888572e-07 2.479913252547e-04 0.0 
0.0 0.0 -3.733333333333e-05 
-4.073203551989e-05 1.912414136314e-07 0.0 
1.912414136314e-07 2.020651978415e-04 0.0 
0.0 0.0 -4.066666666667e-05 
-3.734896800978e-05 -5.458140338044e-07 0.0 
-5.458140338044e-07 2.487742214024e-04 0.0 
0.0 0.0 -3.733333333333e-05 
-4.074690567022e-05 -5.221015569479e-07 0.0 
-5.221015569479e-07 2.021844906501e-04 0.0 
0.0 0.0 -4.066666666667e-05 
-3.754558009850e-05 -8.186107780119e-07 0.0 
-8.186107780119e-07 2.488747468293e-04 0.0 
0.0 0.0 -3.733333333333e-05 
-4.084584502726e-05 -6.751178472883e-07 0.0 
-6.751178472883e-07 2.023107608641e-04 0.0 
0.0 0.0 -4.066666666667e-05 
-3.769256414432e-05 -8.839606299389e-07 0.0 
-8.839606299389e-07 2.489991732538e-04 0.0 
0.0 0.0 -3.733333333333e-05 
-4.095987022466e-05 -7.135976235807e-07 0.0 
-7.135976235807e-07 2.024315430679e-04 0.0 
0.0 0.0 -4.066666666667e-05 
-3.778453986003e-05 -8.550901005864e-07 0.0 
-8.550901005864e-07 2.491166393793e-04 0.0 
0.0 0.0 -3.733333333333e-05 
-4.105410239505e-05 -7.183687370872e-07 0.0 
-7.183687370872e-07 2.025205319300e-04 0.0 
0.0 0.0 -4.066666666667e-05 
-3.783121773782e-05 -7.935454732762e-07 0.0 
-7.935454732762e-07 2.491993200158e-04 0.0 
0.0 0.0 -3.733333333333e-05 
-4.111318680875e-05 -7.044631244033e-07 0.0 
-7.044631244033e-07 2.025712551249e-04 0.0 
0.0 0.0 -4.066666666667e-05 
-3.784532853834e-05 -7.153277524469e-07 0.0 
-7.153277524469e-07 2.492411429785e-04 0.0 
0.0 0.0 -3.733333333333e-05 
-4.114290171895e-05 -6.676018244403e-07 0.0 
-6.676018244403e-07 2.025894891272e-04 0.0 
0.0 0.0 -4.066666666667e-05 
-3.783875306040e-05 -6.198297258670e-07 0.0 
-6.198297258670e-07 2.492487617912e-04 0.0 
0.0 0.0 -3.733333333333e-05 
-4.115065641406e-05 -6.023736596212e-07 0.0 
-6.023736596212e-07 2.025822140463e-04 0.0 
0.0 0.0 -4.066666666667e-05 
-3.781960352511e-05 -4.979669840281e-07 0.0 
-4.979669840281e-07 2.492288868419e-04 0.0 
0.0 0.0 -3.733333333333e-05 
-4.621169411584e-05 -2.212523397124e-05 0.0 
-2.212523397124e-05 2.452866569748e-04 0.0 
0.0 0.0 -3.872092683227e-05 
-4.114419355370e-05 -4.972920868529e-07 0.0 
-4.972920868529e-07 2.025573168415e-04 0.0 
0.0 0.0 -4.066666666667e-05 
-3.779418986094e-05 -3.400549255306e-07 0.0 
-3.400549255306e-07 2.491899758271e-04 0.0 
0.0 0.0 -3.733333333333e-05 
-4.112372304841e-05 -3.380030510148e-07 0.0 
-3.380030510148e-07 2.025226389185e-04 0.0 
0.0 0.0 -4.066666666667e-05 
-3.303686742204e-05 2.084619112561e-06 0.0 
2.084619112561e-06 2.036515718641e-04 0.0 
0.0 0.0 -4.066666666667e-05 
-3.776919107923e-05 -1.339463035146e-07 0.0 
-1.339463035146e-07 2.491410866450e-04 0.0 
0.0 0.0 -3.733333333333e-05 
-4.108783558863e-05 -9.529083630623e-08 0.0 
-9.529083630623e-08 2.024951491152e-04 0.0 
0.0 0.0 -4.066666666667e-05 
-3.776076544504e-05 1.109184295478e-07 0.0 
1.109184295478e-07 2.491106549150e-04 0.0 
0.0 0.0 -3.733333333333e-05 
-4.109006946238e-05 1.831795911426e-07 0.0 
1.831795911426e-07 2.024946427316e-04 0.0 
0.0 0.0 -4.066666666667e-05 
-3.777501891122e-05 3.617597255350e-07 0.0 
3.617597255350e-07 2.491145553625e-04 0.0 
0.0 0.0 -3.733333333333e-05 
-2.941343333592e-05 4.229173994627e-06 0.0 
4.229173994627e-06 2.174288971154e-04 0.0 
0.0 0.0 -3.538759349893e-05 
-4.110335293992e-05 4.754912270096e-07 0.0 
4.754912270096e-07 2.025262819506e-04 0.0 
0.0 0.0 -4.066666666667e-05 
-3.781883042075e-05 5.683903253688e-07 0.0 
5.683903253688e-07 2.491702123511e-04 0.0 
0.0 0.0 -3.733333333333e-05 
-4.121091989970e-05 6.375800689339e-07 0.0 
6.375800689339e-07 2.025796075057e-04 0.0 
0.0 0.0 -4.066666666667e-05 
-3.785846106741e-05 7.301963965339e-07 0.0 
7.301963965339e-07 2.492159661428e-04 0.0 
0.0 0.0 -3.733333333333e-05 
-4.116646175243e-05 8.946990790910e-07 0.0 
8.946990790910e-07 2.026485459214e-04 0.0 
0.0 0.0 -4.066666666667e-05 
-3.794452910255e-05 7.834021805717e-07 0.0 
7.834021805717e-07 2.493635044725e-04 0.0 
0.0 0.0 -3.733333333333e-05 
-4.141035317160e-05 7.235841622150e-07 0.0 
7.235841622150e-07 2.027143677742e-04 0.0 
0.0 0.0 -4.066666666667e-05 
-3.794863155371e-05 8.478549530821e-07 0.0 
8.478549530821e-07 2.493226338252e-04 0.0 
0.0 0.0 -3.733333333333e-05 
-4.104774729339e-05 1.212021102596e-06 0.0 
1.212021102596e-06 2.027927445822e-04 0.0 
0.0 0.0 -4.066666666667e-05 
-3.813390082019e-05 6.885979451933e-07 0.0 
6.885979451933e-07 2.497066659957e-04 0.0 
0.0 0.0 -3.733333333333e-05 
-4.179487599718e-05 7.759139060390e-08 0.0 
7.759139060390e-08 2.027880726802e-04 0.0 
0.0 0.0 -4.066666666667e-05 
-3.059227124207e-05 6.360533019117e-06 0.0 
6.360533019117e-06 2.294458842785e-04 0.0 
0.0 0.0 -4.038759349893e-05 
-4.029110159074e-05 2.610848187008e-06 0.0 
2.610848187008e-06 2.029882584628e-04 0.0 
0.0 0.0 -4.066666666667e-05 
-3.791761410521e-05 9.834452052227e-07 0.0 
9.834452052227e-07 2.490258712289e-04 0.0 
0.0 0.0 -3.733333333333e-05 
-4.328649112970e-05 -2.846153171239e-06 0.0 
-2.846153171239e-06 2.027783130813e-04 0.0 
0.0 0.0 -4.066666666667e-05 
-3.870286392160e-05 3.294084689996e-07 0.0 
3.294084689996e-07 2.508608864312e-04 0.0 
0.0 0.0 -3.733333333333e-05 
-3.531854041237e-05 7.513766644493e-06 0.0 
7.513766644493e-06 2.022043512448e-04 0.0 
0.0 0.0 -4.066666666667e-05 
-3.745771299402e-05 1.439133076564e-06 0.0 
1.439133076564e-06 2.471853041742e-04 0.0 
0.0 0.0 -3.733333333333e-05 
-4.014358368198e-05 1.598479683686e-06 0.0 
1.598479683686e-06 2.530834677737e-04 0.0 
0.0 0.0 -3.733333333333e-05 
-2.406555344720e-05 -1.325170613380e-06 0.0 
-1.325170613380e-06 1.853854904806e-04 0.0 
0.0 0.0 -3.705426016560e-05 
-4.773276247715e-05 -5.487666340881e-05 0.0 
-5.487666340881e-05 2.339073081141e-04 0.0 
0.0 0.0 -3.900000000000e-05 
-3.194031618913e-05 5.389798654005e-05 0.0 
5.389798654005e-05 2.056003519706e-04 0.0 
0.0 0.0 -3.900000000000e-05 
-4.315017897202e-05 -5.698520515806e-06 0.0 
-5.698520515806e-06 2.278586648408e-04 0.0 
0.0 0.0 -4.233333333333e-05 
-3.636845794032e-05 6.197286116004e-06 0.0 
6.197286116004e-06 2.129494665549e-04 0.0 
0.0 0.0 -3.566666666667e-05 
-2.758573317897e-05 -7.450288626601e-07 0.0 
-7.450288626601e-07 2.055894845529e-04 0.0 
0.0 0.0 -3.566666666667e-05 
-5.115038909489e-05 -1.066370140281e-05 0.0 
-1.066370140281e-05 2.909036237404e-04 0.0 
0.0 0.0 -5.066666666667e-05 
-4.759158650463e-05 8.684038607520e-06 0.0 
8.684038607520e-06 3.188574670315e-04 0.0 
0.0 0.0 -4.733333333333e-05 
-5.085989610145e-05 -9.272482802418e-07 0.0 
-9.272482802418e-07 2.717727954080e-04 0.0 
0.0 0.0 -5.066666666667e-05 
-4.739870218655e-05 2.214119719171e-07 0.0 
2.214119719171e-07 3.172539875028e-04 0.0 
0.0 0.0 -4.733333333333e-05 
-5.074388418815e-05 -4.937434425518e-07 0.0 
-4.937434425518e-07 2.705407306617e-04 0.0 
0.0 0.0 -5.066666666667e-05 
-4.741357233689e-05 -4.274409505775e-07 0.0 
-4.274409505775e-07 3.171493791242e-04 0.0 
0.0 0.0 -4.733333333333e-05 
-5.077435242920e-05 -5.251521886155e-07 0.0 
-5.251521886155e-07 2.704744233650e-04 0.0 
0.0 0.0 -5.066666666667e-05 
-4.751251169393e-05 -5.591654456356e-07 0.0 
-5.591654456356e-07 3.172282015912e-04 0.0 
0.0 0.0 -4.733333333333e-05 
-5.087235212600e-05 -5.477202699122e-07 0.0 
-5.477202699122e-07 2.705630921400e-04 0.0 
0.0 0.0 -5.066666666667e-05 
-4.762653689132e-05 -6.001451931681e-07 0.0 
-6.001451931681e-07 3.173415219525e-04 0.0 
0.0 0.0 -4.733333333333e-05 
-5.098168910847e-05 -5.759387222219e-07 0.0 
-5.759387222219e-07 2.706783838615e-04 0.0 
0.0 0.0 -5.066666666667e-05 
-4.772076906172e-05 -6.197857542977e-07 0.0 
-6.197857542977e-07 3.174342765130e-04 0.0 
0.0 0.0 -4.733333333333e-05 
-5.106925553891e-05 -6.148249102859e-07 0.0 
-6.148249102859e-07 2.707687156573e-04 0.0 
0.0 0.0 -5.066666666667e-05 
-4.777985347542e-05 -6.302251650863e-07 0.0 
-6.302251650863e-07 3.174780838358e-04 0.0 
0.0 0.0 -4.733333333333e-05 
-5.110938275235e-05 -6.217795403131e-07 0.0 
-6.217795403131e-07 2.708127709170e-04 0.0 
0.0 0.0 -5.066666666667e-05 
-4.780956838562e-05 -6.053853643083e-07 0.0 
-6.053853643083e-07 3.174879369113e-04 0.0 
0.0 0.0 -4.733333333333e-05 
-5.113117215563e-05 -5.887362678853e-07 0.0 
-5.887362678853e-07 2.708240786717e-04 0.0 
0.0 0.0 -5.066666666667e-05 
-4.781732308072e-05 -5.449737583287e-07 0.0 
-5.449737583287e-07 3.174684300656e-04 0.0 
0.0 0.0 -4.733333333333e-05 
-5.535647040899e-05 -2.224721771426e-05 0.0 
-2.224721771426e-05 3.151114578633e-04 0.0 
0.0 0.0 -4.873639455782e-05 
-5.114534917985e-05 -5.074590888670e-07 0.0 
-5.074590888670e-07 2.708096679475e-04 0.0 
0.0 0.0 -5.066666666667e-05 
-4.781086022037e-05 -4.469500262259e-07 0.0 
-4.469500262259e-07 3.174296260920e-04 0.0 
0.0 0.0 -4.733333333333e-05 
-5.115405450020e-05 -3.906968067935e-07 0.0 
-3.906968067935e-07 2.707769751642e-04 0.0 
0.0 0.0 -5.066666666667e-05 
-4.005493497019e-05 3.545620753650e-06 0.0 
3.545620753650e-06 2.877213180819e-04 0.0 
0.0 0.0 -4.540306122449e-05 
-4.779038971508e-05 -3.118347089870e-07 0.0 
-3.118347089870e-07 3.173687819636e-04 0.0 
0.0 0.0 -4.733333333333e-05 
-4.336028639231e-05 1.776569064140e-06 0.0 
1.776569064140e-06 2.725941409189e-04 0.0 
0.0 0.0 -5.066666666667e-05 
-5.113174051410e-05 -2.330635383312e-07 0.0 
-2.330635383312e-07 2.707232099099e-04 0.0 
0.0 0.0 -5.066666666667e-05 
-4.775450225529e-05 -1.088356439118e-07 0.0 
-1.088356439118e-07 3.172781608830e-04 0.0 
0.0 0.0 -4.733333333333e-05 
-5.106103971955e-05 1.061811698324e-07 0.0 
1.061811698324e-07 2.706701197139e-04 0.0 
0.0 0.0 -5.066666666667e-05 
-4.775673612905e-05 1.928918352567e-07 0.0 
1.928918352567e-07 3.172905143377e-04 0.0 
0.0 0.0 -4.733333333333e-05 
-5.109739057831e-05 3.875546929347e-07 0.0 
3.875546929347e-07 2.706837710260e-04 0.0 
0.0 0.0 -5.066666666667e-05 
-4.777001960659e-05 4.785139335738e-07 0.0 
4.785139335738e-07 3.172918469328e-04 0.0 
0.0 0.0 -4.733333333333e-05 
-5.114053674906e-05 8.454240426302e-07 0.0 
8.454240426302e-07 2.707487787219e-04 0.0 
0.0 0.0 -5.066666666667e-05 
-4.787758656637e-05 7.009769641847e-07 0.0 
7.009769641847e-07 3.175395861276e-04 0.0 
0.0 0.0 -4.733333333333e-05 
-3.859763791424e-05 3.664155593188e-06 0.0 
3.664155593188e-06 2.982362191000e-04 0.0 
0.0 0.0 -5.040306122449e-05 
-5.137125646484e-05 6.035243328694e-07 0.0 
6.035243328694e-07 2.708584208901e-04 0.0 
0.0 0.0 -5.066666666667e-05 
-4.783312841910e-05 7.620509721787e-07 0.0 
7.620509721787e-07 3.173437515974e-04 0.0 
0.0 0.0 -4.733333333333e-05 
-5.111406613470e-05 1.413247059512e-06 0.0 
1.413247059512e-06 2.709105882421e-04 0.0 
0.0 0.0 -5.066666666667e-05 
-4.807701983827e-05 8.408573881303e-07 0.0 
8.408573881303e-07 3.180354434408e-04 0.0 
0.0 0.0 -4.733333333333e-05 
-4.771441396005e-05 7.591073150930e-07 0.0 
7.591073150930e-07 3.169623596771e-04 0.0 
0.0 0.0 -4.733333333333e-05 
-5.166913602441e-05 -1.267909664581e-07 0.0 
-1.267909664581e-07 2.710297563612e-04 0.0 
0.0 0.0 -5.066666666667e-05 
-4.846154266385e-05 7.945751000270e-07 0.0 
7.945751000270e-07 3.191634342060e-04 0.0 
0.0 0.0 -4.733333333333e-05 
-5.033295262382e-05 2.676824150486e-06 0.0 
2.676824150486e-06 2.709658459585e-04 0.0 
0.0 0.0 -5.066666666667e-05 
-4.695776825741e-05 1.311506299456e-06 0.0 
1.311506299456e-06 3.146029699114e-04 0.0 
0.0 0.0 -4.733333333333e-05 
-4.995315779637e-05 3.019430349178e-06 0.0 
3.019430349178e-06 3.221256746523e-04 0.0 
0.0 0.0 -4.733333333333e-05 
-5.264949915731e-05 -3.033116857975e-06 0.0 
-3.033116857975e-06 2.709941081171e-04 0.0 
0.0 0.0 -5.066666666667e-05 
-4.458143821664e-05 8.706406035169e-06 0.0 
8.706406035169e-06 2.701222728083e-04 0.0 
0.0 0.0 -5.066666666667e-05 
-3.262660739579e-05 -2.447626091127e-06 0.0 
-2.447626091127e-06 2.549253489660e-04 0.0 
0.0 0.0 -4.706972789116e-05 
-4.183172584708e-05 -5.516448082583e-05 0.0 
-5.516448082583e-05 2.878160453026e-04 0.0 
0.0 0.0 -4.900000000000e-05 
-5.736611696375e-05 5.379757100263e-05 0.0 
5.379757100263e-05 3.156420142217e-04 0.0 
0.0 0.0 -4.900000000000e-05 
-4.648351230535e-05 -5.650677953531e-06 0.0 
-5.650677953531e-06 2.936870104723e-04 0.0 
0.0 0.0 -4.566666666667e-05 
-5.288209209055e-05 5.940363499374e-06 0.0 
5.940363499374e-06 3.083110135113e-04 0.0 
0.0 0.0 -5.233333333333e-05 
-3.803686742204e-05 -9.545998375183e-07 0.0 
-9.545998375183e-07 2.755250232948e-04 0.0 
0.0 0.0 -4.566666666667e-05 
-5.781705576156e-05 -1.097834381467e-05 0.0 
-1.097834381467e-05 3.693403496953e-04 0.0 
0.0 0.0 -5.733333333333e-05 
-6.100891304768e-05 7.885091902878e-06 0.0 
7.885091902878e-06 3.405875281446e-04 0.0 
0.0 0.0 -6.066666666667e-05 
-5.752656276812e-05 -9.002056482216e-07 0.0 
-9.002056482216e-07 3.876358825742e-04 0.0 
0.0 0.0 -5.733333333333e-05 
-6.081359015182e-05 -5.794002622293e-08 0.0 
-5.794002622293e-08 3.417160881662e-04 0.0 
0.0 0.0 -6.066666666667e-05 
-5.741055085482e-05 -3.076662680791e-07 0.0 
-3.076662680791e-07 3.883987448460e-04 0.0 
0.0 0.0 -5.733333333333e-05 
-6.074210787550e-05 -3.038056687787e-07 0.0 
-3.038056687787e-07 3.417341222542e-04 0.0 
0.0 0.0 -6.066666666667e-05 
-5.744101909586e-05 -3.350213589507e-07 0.0 
-3.350213589507e-07 3.884037471439e-04 0.0 
0.0 0.0 -5.733333333333e-05 
-6.076980017163e-05 -2.633586237472e-07 0.0 
-2.633586237472e-07 3.417973373645e-04 0.0 
0.0 0.0 -6.066666666667e-05 
-5.753901879267e-05 -4.032254988366e-07 0.0 
-4.032254988366e-07 3.884804185775e-04 0.0 
0.0 0.0 -5.733333333333e-05 
-6.084901192467e-05 -2.839820900020e-07 0.0 
-2.839820900020e-07 3.418997932862e-04 0.0 
0.0 0.0 -6.066666666667e-05 
-5.764835577513e-05 -4.670991574783e-07 0.0 
-4.670991574783e-07 3.885926020556e-04 0.0 
0.0 0.0 -5.733333333333e-05 
-6.097338103546e-05 -3.711727285251e-07 0.0 
-3.711727285251e-07 3.420012923996e-04 0.0 
0.0 0.0 -6.066666666667e-05 
-5.773592220557e-05 -5.434399062823e-07 0.0 
-5.434399062823e-07 3.886963937928e-04 0.0 
0.0 0.0 -5.733333333333e-05 
-6.104369650402e-05 -5.100362655251e-07 0.0 
-5.100362655251e-07 3.420398794502e-04 0.0 
0.0 0.0 -6.066666666667e-05 
-5.777604941901e-05 -5.548094796899e-07 0.0 
-5.548094796899e-07 3.887163194926e-04 0.0 
0.0 0.0 -5.733333333333e-05 
-6.105893067594e-05 -5.296141592932e-07 0.0 
-5.296141592932e-07 3.420372773735e-04 0.0 
0.0 0.0 -6.066666666667e-05 
-5.779783882230e-05 -4.963068092733e-07 0.0 
-4.963068092733e-07 3.887001927722e-04 0.0 
0.0 0.0 -5.733333333333e-05 
-6.429332232619e-05 -2.307460778734e-05 0.0 
-2.307460778734e-05 3.850600827683e-04 0.0 
0.0 0.0 -5.871879621414e-05 
-6.109192576982e-05 -4.837956592854e-07 0.0 
-4.837956592854e-07 3.420192799563e-04 0.0 
0.0 0.0 -6.066666666667e-05 
-5.781201584652e-05 -3.891035793225e-07 0.0 
-3.891035793225e-07 3.886678861241e-04 0.0 
0.0 0.0 -5.733333333333e-05 
-5.197171891332e-05 2.601338786256e-06 0.0 
2.601338786256e-06 3.430943376592e-04 0.0 
0.0 0.0 -6.066666666667e-05 
-6.116828848797e-05 -4.015809249984e-07 0.0 
-4.015809249984e-07 3.420050059064e-04 0.0 
0.0 0.0 -6.066666666667e-05 
-5.782072116687e-05 -2.899615651131e-07 0.0 
-2.899615651131e-07 3.886441670397e-04 0.0 
0.0 0.0 -5.733333333333e-05 
-6.121626665852e-05 -3.540641570560e-07 0.0 
-3.540641570560e-07 3.419641075570e-04 0.0 
0.0 0.0 -6.066666666667e-05 
-5.779840718077e-05 -1.758510829020e-07 0.0 
-1.758510829020e-07 3.885785316046e-04 0.0 
0.0 0.0 -5.733333333333e-05 
-6.116783759642e-05 -2.820525569960e-07 0.0 
-2.820525569960e-07 3.418542542977e-04 0.0 
0.0 0.0 -6.066666666667e-05 
-4.930023443078e-05 5.796000691354e-06 0.0 
5.796000691354e-06 3.582468498007e-04 0.0 
0.0 0.0 -5.538546288080e-05 
-5.772770638621e-05 1.312401498261e-07 0.0 
1.312401498261e-07 3.883955911533e-04 0.0 
0.0 0.0 -5.733333333333e-05 
-6.096829823239e-05 3.035755375707e-07 0.0 
3.035755375707e-07 3.418039294054e-04 0.0 
0.0 0.0 -6.066666666667e-05 
-5.776405724498e-05 4.984520269403e-07 0.0 
4.984520269403e-07 3.884232433503e-04 0.0 
0.0 0.0 -5.733333333333e-05 
-6.125140204367e-05 5.931380027649e-07 0.0 
5.931380027649e-07 3.418903324586e-04 0.0 
0.0 0.0 -6.066666666667e-05 
-5.780720341573e-05 8.244863566380e-07 0.0 
8.244863566380e-07 3.884697708382e-04 0.0 
0.0 0.0 -5.733333333333e-05 
-6.110831296764e-05 1.296657285393e-06 0.0 
1.296657285393e-06 3.420973359667e-04 0.0 
0.0 0.0 -6.066666666667e-05 
-5.803792313151e-05 7.049279494282e-07 0.0 
7.049279494282e-07 3.890016332223e-04 0.0 
0.0 0.0 -5.733333333333e-05 
-6.205350649242e-05 4.589417531418e-08 0.0 
4.589417531418e-08 3.421906476610e-04 0.0 
0.0 0.0 -6.066666666667e-05 
-5.778073280136e-05 8.470981603539e-07 0.0 
8.470981603539e-07 3.884329098950e-04 0.0 
0.0 0.0 -5.733333333333e-05 
-6.041203126657e-05 2.222910704188e-06 0.0 
2.222910704188e-06 3.423435831242e-04 0.0 
0.0 0.0 -6.066666666667e-05 
-4.710203058735e-05 4.310616550608e-06 0.0 
4.310616550608e-06 3.686964131418e-04 0.0 
0.0 0.0 -6.038546288080e-05 
-6.294942027381e-05 -2.756163189823e-06 0.0 
-2.756163189823e-06 3.420852271838e-04 0.0 
0.0 0.0 -6.066666666667e-05 
-5.833580269108e-05 1.472104880338e-07 0.0 
1.472104880338e-07 3.900149670501e-04 0.0 
0.0 0.0 -5.733333333333e-05 
-5.509863290017e-05 6.978613204043e-06 0.0 
6.978613204043e-06 3.416103539067e-04 0.0 
0.0 0.0 -6.066666666667e-05 
-5.699961929049e-05 1.188126407733e-06 0.0 
1.188126407733e-06 3.866763485151e-04 0.0 
0.0 0.0 -5.733333333333e-05 
-5.931616582398e-05 1.264970039408e-06 0.0 
1.264970039408e-06 3.921885981794e-04 0.0 
0.0 0.0 -5.733333333333e-05 
-4.124266933807e-05 1.249791926263e-06 0.0 
1.249791926263e-06 3.252010506084e-04 0.0 
0.0 0.0 -5.705212954747e-05 
-6.749087282606e-05 -5.537350596849e-05 0.0 
-5.537350596849e-05 3.726705081140e-04 0.0 
0.0 0.0 -5.900000000000e-05 
-5.182302720593e-05 5.344964927870e-05 0.0 
5.344964927870e-05 3.446027874510e-04 0.0 
0.0 0.0 -5.900000000000e-05 
-6.292581995443e-05 -5.978106008697e-06 0.0 
-5.978106008697e-06 3.667667175588e-04 0.0 
0.0 0.0 -6.233333333333e-05 
-5.621542542388e-05 5.720175409305e-06 0.0 
5.720175409305e-06 3.519710587876e-04 0.0 
0.0 0.0 -5.566666666667e-05 
-4.836028639231e-05 1.166463025180e-06 0.0 
1.166463025180e-06 3.464077171258e-04 0.0 
0.0 0.0 -5.566666666667e-05 
-7.114563988620e-05 -1.149003057072e-05 0.0 
-1.149003057072e-05 4.298780722485e-04 0.0 
0.0 0.0 -7.066666666667e-05 
-6.767557971435e-05 7.789921185043e-06 0.0 
7.789921185043e-06 4.581053887753e-04 0.0 
0.0 0.0 -6.733333333333e-05 
-7.086950529367e-05 -1.417087462263e-06 0.0 
-1.417087462263e-06 4.109780231572e-04 0.0 
0.0 0.0 -7.066666666667e-05 
-6.748025681849e-05 -2.346688612902e-07 0.0 
-2.346688612902e-07 4.565031102245e-04 0.0 
0.0 0.0 -6.733333333333e-05 
-7.064770782861e-05 -5.361532288411e-07 0.0 
-5.361532288411e-07 4.098128991423e-04 0.0 
0.0 0.0 -7.066666666667e-05 
-6.740877454217e-05 -3.802090969509e-07 0.0 
-3.802090969509e-07 4.564156801283e-04 0.0 
0.0 0.0 -6.733333333333e-05 
-7.068434388014e-05 -2.719211823047e-07 0.0 
-2.719211823047e-07 4.097592646131e-04 0.0 
0.0 0.0 -7.066666666667e-05 
-6.743646683829e-05 -2.660727184679e-07 0.0 
-2.660727184679e-07 4.564862413471e-04 0.0 
0.0 0.0 -6.733333333333e-05 
-7.071554313554e-05 -1.840132234043e-07 0.0 
-1.840132234043e-07 4.098289843511e-04 0.0 
0.0 0.0 -7.066666666667e-05 
-6.751567859134e-05 -1.979083631644e-07 0.0 
-1.979083631644e-07 4.566038930868e-04 0.0 
0.0 0.0 -6.733333333333e-05 
-7.082563799221e-05 -1.082855862797e-07 0.0 
-1.082855862797e-07 4.099501439232e-04 0.0 
0.0 0.0 -7.066666666667e-05 
-6.764004770212e-05 -1.840544218251e-07 0.0 
-1.840544218251e-07 4.567798774879e-04 0.0 
0.0 0.0 -6.733333333333e-05 
-7.099668157673e-05 -3.152621347735e-07 0.0 
-3.152621347735e-07 4.100909630507e-04 0.0 
0.0 0.0 -7.066666666667e-05 
-6.771036317068e-05 -3.250871953116e-07 0.0 
-3.250871953116e-07 4.567955793193e-04 0.0 
0.0 0.0 -6.733333333333e-05 
-7.104635293021e-05 -4.797315306229e-07 0.0 
-4.797315306229e-07 4.100980900426e-04 0.0 
0.0 0.0 -7.066666666667e-05 
-6.772559734261e-05 -3.874533346802e-07 0.0 
-3.874533346802e-07 4.567007956159e-04 0.0 
0.0 0.0 -6.733333333333e-05 
-7.641374413823e-05 -2.228773536997e-05 0.0 
-2.228773536997e-05 4.555521205124e-04 0.0 
0.0 0.0 -6.873639455782e-05 
-7.094875925373e-05 -3.791477384794e-07 0.0 
-3.791477384794e-07 4.100304202801e-04 0.0 
0.0 0.0 -7.066666666667e-05 
-6.775859243649e-05 -2.543201428247e-07 0.0 
-2.543201428247e-07 4.566839974153e-04 0.0 
0.0 0.0 -6.733333333333e-05 
-5.983502745799e-05 1.929364290318e-06 0.0 
1.929364290318e-06 4.273284517158e-04 0.0 
0.0 0.0 -6.540306122449e-05 
-7.112696317891e-05 -1.467524674862e-07 0.0 
-1.467524674862e-07 4.100464125056e-04 0.0 
0.0 0.0 -7.066666666667e-05 
-6.783495515464e-05 -1.450638751277e-07 0.0 
-1.450638751277e-07 4.567335765583e-04 0.0 
0.0 0.0 -6.733333333333e-05 
-6.217161144140e-05 3.026566437504e-06 0.0 
3.026566437504e-06 4.118280588832e-04 0.0 
0.0 0.0 -7.066666666667e-05 
-7.130993240556e-05 -1.233962845206e-07 0.0 
-1.233962845206e-07 4.100835803005e-04 0.0 
0.0 0.0 -7.066666666667e-05 
-6.788293332518e-05 -1.526785280095e-07 0.0 
-1.526785280095e-07 4.567248483215e-04 0.0 
0.0 0.0 -6.733333333333e-05 
-7.133053464148e-05 -2.770421121641e-07 0.0 
-2.770421121641e-07 4.100311566981e-04 0.0 
0.0 0.0 -7.066666666667e-05 
-6.783450426309e-05 -1.768217967111e-07 0.0 
-1.768217967111e-07 4.565560458107e-04 0.0 
0.0 0.0 -6.733333333333e-05 
-7.128003053814e-05 -4.124294858267e-07 0.0 
-4.124294858267e-07 4.098246570243e-04 0.0 
0.0 0.0 -7.066666666667e-05 
-6.763496489906e-05 1.353837844384e-07 0.0 
1.353837844384e-07 4.560035381661e-04 0.0 
0.0 0.0 -6.733333333333e-05 
-6.037667670586e-05 3.725538744657e-06 0.0 
3.725538744657e-06 4.387855452071e-04 0.0 
0.0 0.0 -7.040306122449e-05 
-7.080362175516e-05 1.214547096316e-06 0.0 
1.214547096316e-06 4.096944057901e-04 0.0 
0.0 0.0 -7.066666666667e-05 
-6.791806871034e-05 8.269470575155e-07 0.0 
8.269470575155e-07 4.567782366562e-04 0.0 
0.0 0.0 -6.733333333333e-05 
-7.172247895238e-05 4.209193152321e-07 0.0 
4.209193152321e-07 4.100255547766e-04 0.0 
0.0 0.0 -7.066666666667e-05 
-6.777497963431e-05 1.000449125460e-06 0.0 
1.000449125460e-06 4.561234038025e-04 0.0 
0.0 0.0 -6.733333333333e-05 
-6.872017315909e-05 7.209100044906e-07 0.0 
7.209100044906e-07 4.587775367494e-04 0.0 
0.0 0.0 -6.733333333333e-05 
-7.101694663725e-05 3.221273702941e-06 0.0 
3.221273702941e-06 4.103304483538e-04 0.0 
0.0 0.0 -7.066666666667e-05 
-6.707869793323e-05 4.876313269616e-07 0.0 
4.876313269616e-07 4.540272230233e-04 0.0 
0.0 0.0 -6.733333333333e-05 
-7.351744776430e-05 -3.590528867594e-06 0.0 
-3.590528867594e-06 4.105429329544e-04 0.0 
0.0 0.0 -7.066666666667e-05 
-6.961608694047e-05 2.500866072093e-06 0.0 
2.500866072093e-06 4.606767609940e-04 0.0 
0.0 0.0 -6.733333333333e-05 
-6.487293508417e-05 7.258987181476e-06 0.0 
7.258987181476e-06 4.092859995140e-04 0.0 
0.0 0.0 -7.066666666667e-05 
-5.398091155439e-05 -5.270882630615e-06 0.0 
-5.270882630615e-06 3.945040721260e-04 0.0 
0.0 0.0 -6.706972789116e-05 
-6.158970074179e-05 -5.552157044761e-05 0.0 
-5.552157044761e-05 4.267642640122e-04 0.0 
0.0 0.0 -6.900000000000e-05 
-7.727313769225e-05 5.339151864984e-05 0.0 
5.339151864984e-05 4.548383156643e-04 0.0 
0.0 0.0 -6.900000000000e-05 
-6.625915328777e-05 -5.902071933345e-06 0.0 
-5.902071933345e-06 4.326595679538e-04 0.0 
0.0 0.0 -6.566666666667e-05 
-7.280062491732e-05 5.686248152954e-06 0.0 
5.686248152954e-06 4.472638552754e-04 0.0 
0.0 0.0 -7.233333333333e-05 
-5.697171891332e-05 -3.753491299719e-06 0.0 
-3.753491299719e-06 4.144867007492e-04 0.0 
0.0 0.0 -6.566666666667e-05 
-7.781230655286e-05 -1.181963691656e-05 0.0 
-1.181963691656e-05 5.088176645313e-04 0.0 
0.0 0.0 -7.733333333333e-05 
-8.119458623839e-05 6.972004007010e-06 0.0 
6.972004007010e-06 4.800472308251e-04 0.0 
0.0 0.0 -8.066666666667e-05 
-7.753617196034e-05 -1.686526781122e-06 0.0 
-1.686526781122e-06 5.271460113287e-04 0.0 
0.0 0.0 -7.733333333333e-05 
-8.055598266159e-05 -8.309609844759e-07 0.0 
-8.309609844759e-07 4.810024852218e-04 0.0 
0.0 0.0 -8.066666666667e-05 
-7.731437449528e-05 -4.694243935429e-07 0.0 
-4.694243935429e-07 5.276425525984e-04 0.0 
0.0 0.0 -7.733333333333e-05 
-8.071639800283e-05 -2.964994736049e-07 0.0 
-2.964994736049e-07 4.811871574007e-04 0.0 
0.0 0.0 -8.066666666667e-05 
-7.735101054680e-05 -3.609553578528e-07 0.0 
-3.609553578528e-07 5.278599491145e-04 0.0 
0.0 0.0 -7.733333333333e-05 
-8.049136654625e-05 -1.810628668294e-07 0.0 
-1.810628668294e-07 4.812029401063e-04 0.0 
0.0 0.0 -8.066666666667e-05 
-7.738220980221e-05 -1.577265426917e-07 0.0 
-1.577265426917e-07 5.278701924915e-04 0.0 
0.0 0.0 -7.733333333333e-05 
-8.058899491475e-05 1.039952126182e-07 0.0 
1.039952126182e-07 4.813345582273e-04 0.0 
0.0 0.0 -8.066666666667e-05 
-7.749230465888e-05 -5.589101690132e-08 0.0 
-5.589101690132e-08 5.280305322976e-04 0.0 
0.0 0.0 -7.733333333333e-05 
-8.063738768920e-05 2.943263093068e-07 0.0 
2.943263093068e-07 4.815246670627e-04 0.0 
0.0 0.0 -8.066666666667e-05 
-7.766334824340e-05 -1.624950510170e-07 0.0 
-1.624950510170e-07 5.282822808427e-04 0.0 
0.0 0.0 -7.733333333333e-05 
-8.108582164939e-05 -1.817042453861e-07 0.0 
-1.817042453861e-07 4.816572964670e-04 0.0 
0.0 0.0 -8.066666666667e-05 
-7.771301959687e-05 -4.432509054862e-07 0.0 
-4.432509054862e-07 5.283746937170e-04 0.0 
0.0 0.0 -7.733333333333e-05 
-8.689319893331e-05 -2.398901531109e-05 0.0 
-2.398901531109e-05 5.261728810593e-04 0.0 
0.0 0.0 -7.871598639454e-05 
-8.063163037591e-05 -5.731608516610e-07 0.0 
-5.731608516610e-07 4.813582541077e-04 0.0 
0.0 0.0 -8.066666666667e-05 
-7.282722797358e-05 2.956686511685e-06 0.0 
2.956686511685e-06 4.834944195558e-04 0.0 
0.0 0.0 -8.066666666667e-05 
-7.761542592040e-05 1.556054086580e-08 0.0 
1.556054086580e-08 5.279085131106e-04 0.0 
0.0 0.0 -7.733333333333e-05 
-8.085458222001e-05 2.978087830834e-07 0.0 
2.978087830834e-07 4.814005580441e-04 0.0 
0.0 0.0 -8.066666666667e-05 
-7.779362984557e-05 2.880682919728e-07 0.0 
2.880682919728e-07 5.280866836434e-04 0.0 
0.0 0.0 -7.733333333333e-05 
-8.137173526484e-05 3.903881692923e-07 0.0 
3.903881692923e-07 4.816228572156e-04 0.0 
0.0 0.0 -8.066666666667e-05 
-7.797659907223e-05 1.259601545473e-07 0.0 
1.259601545473e-07 5.283575677450e-04 0.0 
0.0 0.0 -7.733333333333e-05 
-8.138094734250e-05 -4.007379149127e-08 0.0 
-4.007379149127e-08 4.816094746352e-04 0.0 
0.0 0.0 -8.066666666667e-05 
-6.958892147872e-05 2.693700344811e-06 0.0 
2.693700344811e-06 4.979075358180e-04 0.0 
0.0 0.0 -7.538265306121e-05 
-7.799720130815e-05 7.326478423494e-09 0.0 
7.326478423494e-09 5.282573840779e-04 0.0 
0.0 0.0 -7.733333333333e-05 
-8.143970684332e-05 -2.393759007723e-07 0.0 
-2.393759007723e-07 4.814739348898e-04 0.0 
0.0 0.0 -8.066666666667e-05 
-7.794669720480e-05 -1.073637191230e-07 0.0 
-1.073637191230e-07 5.280808317875e-04 0.0 
0.0 0.0 -7.733333333333e-05 
-8.174229233143e-05 -1.069148929710e-06 0.0 
-1.069148929710e-06 4.809843103418e-04 0.0 
0.0 0.0 -8.066666666667e-05 
-7.747028842183e-05 1.035597227599e-06 0.0 
1.035597227599e-06 5.267993287079e-04 0.0 
0.0 0.0 -7.733333333333e-05 
-8.011487521303e-05 3.227514386744e-06 0.0 
3.227514386744e-06 4.812335686475e-04 0.0 
0.0 0.0 -8.066666666667e-05 
-7.838914561904e-05 1.172078597877e-06 0.0 
1.172078597877e-06 5.288970930108e-04 0.0 
0.0 0.0 -7.733333333333e-05 
-8.384419164103e-05 -8.759494395606e-07 0.0 
-8.759494395606e-07 4.817654260896e-04 0.0 
0.0 0.0 -8.066666666667e-05 
-7.599610420366e-05 7.462175851506e-06 0.0 
7.462175851506e-06 4.817404732796e-04 0.0 
0.0 0.0 -8.066666666667e-05 
-7.768361330392e-05 1.900460429623e-06 0.0 
1.900460429623e-06 5.268691696083e-04 0.0 
0.0 0.0 -7.733333333333e-05 
-7.085007670582e-05 3.811906941392e-06 0.0 
3.811906941392e-06 5.100816028034e-04 0.0 
0.0 0.0 -8.038265306121e-05 
-8.018411443096e-05 1.198366395229e-06 0.0 
1.198366395229e-06 5.324278016454e-04 0.0 
0.0 0.0 -7.733333333333e-05 
-6.417731922861e-05 -3.943230338450e-06 0.0 
-3.943230338450e-06 4.647268317312e-04 0.0 
0.0 0.0 -7.704931972788e-05 
-8.746095442730e-05 -5.552433142474e-05 0.0 
-5.552433142474e-05 5.117494040768e-04 0.0 
0.0 0.0 -7.900000000000e-05 
-7.187846570217e-05 5.325151437038e-05 0.0 
5.325151437038e-05 4.838528020986e-04 0.0 
0.0 0.0 -7.900000000000e-05 
-8.300562030776e-05 -5.928768708113e-06 0.0 
-5.928768708113e-06 5.060343090617e-04 0.0 
0.0 0.0 -8.233333333333e-05 
-7.613395825065e-05 5.573077951687e-06 0.0 
5.573077951687e-06 4.912471208609e-04 0.0 
0.0 0.0 -7.566666666667e-05 
-6.717161144140e-05 -3.263046586986e-06 0.0 
-3.263046586986e-06 4.846642233179e-04 0.0 
0.0 0.0 -7.566666666667e-05 
-9.283937133862e-05 -1.305520020021e-05 0.0 
-1.305520020021e-05 5.701490487258e-04 0.0 
0.0 0.0 -9.066666666667e-05 
-8.786125290506e-05 6.228376696680e-06 0.0 
6.228376696680e-06 5.972094942788e-04 0.0 
0.0 0.0 -8.733333333333e-05 
-9.022014186398e-05 -3.549288141163e-06 0.0 
-3.549288141163e-06 5.499642990775e-04 0.0 
0.0 0.0 -9.066666666667e-05 
-8.722264932826e-05 -1.484814638766e-06 0.0 
-1.484814638766e-06 5.950278411204e-04 0.0 
0.0 0.0 -8.733333333333e-05 
-9.018085993915e-05 -1.417099940171e-07 0.0 
-1.417099940171e-07 5.484767631814e-04 0.0 
0.0 0.0 -9.066666666667e-05 
-8.738306466949e-05 -3.897787092036e-07 0.0 
-3.897787092036e-07 5.957792554076e-04 0.0 
0.0 0.0 -8.733333333333e-05 
-9.080630643208e-05 -1.004642962581e-06 0.0 
-1.004642962581e-06 5.490414961774e-04 0.0 
0.0 0.0 -9.066666666667e-05 
-8.715803321291e-05 -7.191945164273e-07 0.0 
-7.191945164273e-07 5.952355706191e-04 0.0 
0.0 0.0 -8.733333333333e-05 
-8.983972774977e-05 2.250980017128e-08 0.0 
2.250980017128e-08 5.486638855821e-04 0.0 
0.0 0.0 -9.066666666667e-05 
-8.725566158141e-05 1.431482839066e-07 0.0 
1.431482839066e-07 5.957393564191e-04 0.0 
0.0 0.0 -8.733333333333e-05 
-9.054185498745e-05 8.009925208000e-08 0.0 
8.009925208000e-08 5.490600954273e-04 0.0 
0.0 0.0 -9.066666666667e-05 
-8.730405435587e-05 2.268594339034e-07 0.0 
2.268594339034e-07 5.956704623471e-04 0.0 
0.0 0.0 -8.733333333333e-05 
-9.010725221013e-05 1.077984881025e-06 0.0 
1.077984881025e-06 5.491565562495e-04 0.0 
0.0 0.0 -9.066666666667e-05 
-9.710486836519e-05 -2.255663521806e-05 0.0 
-2.255663521806e-05 5.958483065018e-04 0.0 
0.0 0.0 -8.873639455782e-05 
-8.775248831606e-05 6.167278534911e-07 0.0 
6.167278534911e-07 5.967481919071e-04 0.0 
0.0 0.0 -8.733333333333e-05 
-9.103086627003e-05 -1.513341137134e-06 0.0 
-1.513341137134e-06 5.495772900249e-04 0.0 
0.0 0.0 -9.066666666667e-05 
-8.073249876148e-05 1.956568500794e-06 0.0 
1.956568500794e-06 5.676914892222e-04 0.0 
0.0 0.0 -8.540306122449e-05 
-8.729829704258e-05 -3.688701156799e-07 0.0 
-3.688701156799e-07 5.951865840250e-04 0.0 
0.0 0.0 -8.733333333333e-05 
-9.037940068144e-05 6.271206724163e-07 0.0 
6.271206724163e-07 5.487658884447e-04 0.0 
0.0 0.0 -9.066666666667e-05 
-8.327880964785e-05 3.397797209923e-06 0.0 
3.397797209923e-06 5.519081980575e-04 0.0 
0.0 0.0 -9.066666666667e-05 
-8.752124888667e-05 7.623016925715e-07 0.0 
7.623016925715e-07 5.955739018708e-04 0.0 
0.0 0.0 -8.733333333333e-05 
-9.119391855359e-05 1.735421697781e-06 0.0 
1.735421697781e-06 5.492228013243e-04 0.0 
0.0 0.0 -9.066666666667e-05 
-8.803840193150e-05 9.847285726832e-07 0.0 
9.847285726832e-07 5.964786609531e-04 0.0 
0.0 0.0 -8.733333333333e-05 
-9.156330581238e-05 2.666222241028e-07 0.0 
2.666222241028e-07 5.495997176964e-04 0.0 
0.0 0.0 -9.066666666667e-05 
-8.804761400916e-05 4.409974905671e-07 0.0 
4.409974905671e-07 5.960772025302e-04 0.0 
0.0 0.0 -8.733333333333e-05 
-8.073638837697e-05 3.015269661060e-06 0.0 
3.015269661060e-06 5.789040759249e-04 0.0 
0.0 0.0 -9.040306122449e-05 
-9.112505899787e-05 2.746880104957e-07 0.0 
2.746880104957e-07 5.493199630352e-04 0.0 
0.0 0.0 -9.066666666667e-05 
-8.810637350998e-05 6.151652775298e-07 0.0 
6.151652775298e-07 5.958963692618e-04 0.0 
0.0 0.0 -8.733333333333e-05 
-8.840895899809e-05 1.155447038660e-07 0.0 
1.155447038660e-07 5.965143081286e-04 0.0 
0.0 0.0 -8.733333333333e-05 
-9.164597760345e-05 8.836231120007e-07 0.0 
8.836231120007e-07 5.493625037381e-04 0.0 
0.0 0.0 -9.066666666667e-05 
-8.678154187969e-05 1.516005662498e-06 0.0 
1.516005662498e-06 5.914512376221e-04 0.0 
0.0 0.0 -8.733333333333e-05 
-9.368423993004e-05 -3.485429264516e-06 0.0 
-3.485429264516e-06 5.486941450264e-04 0.0 
0.0 0.0 -9.066666666667e-05 
-9.051085830770e-05 3.821512302252e-06 0.0 
3.821512302252e-06 6.011139986344e-04 0.0 
0.0 0.0 -8.733333333333e-05 
-8.623635069903e-05 1.130998903511e-05 0.0 
1.130998903511e-05 5.483505428446e-04 0.0 
0.0 0.0 -9.066666666667e-05 
-7.442069267613e-05 -5.394763382115e-06 0.0 
-5.394763382115e-06 5.345026645236e-04 0.0 
0.0 0.0 -8.706972789116e-05 
-8.056486673946e-05 -5.396645541003e-05 0.0 
-5.396645541003e-05 5.644717008348e-04 0.0 
0.0 0.0 -8.900000000000e-05 
-9.791450863527e-05 5.509961114953e-05 0.0 
5.509961114953e-05 5.954927673430e-04 0.0 
0.0 0.0 -8.900000000000e-05 
-8.633895364109e-05 -4.683164540594e-06 0.0 
-4.683164540594e-06 5.718841532106e-04 0.0 
0.0 0.0 -8.566666666667e-05 
-9.239018602622e-05 8.127448127221e-06 0.0 
8.127448127221e-06 5.860724498030e-04 0.0 
0.0 0.0 -9.233333333333e-05 
-7.782722797358e-05 -3.296902887833e-06 0.0 
-3.296902887833e-06 5.542989905497e-04 0.0 
0.0 0.0 -8.566666666667e-05 
-9.950603800529e-05 -1.732824840327e-05 0.0 
-1.732824840327e-05 6.532123038277e-04 0.0 
0.0 0.0 -9.733333333333e-05 
-9.845490008412e-05 -7.423843482372e-07 0.0 
-7.423843482372e-07 6.182720398665e-04 0.0 
0.0 0.0 -1.006666666667e-04 
-9.688680853064e-05 -2.101224633275e-06 0.0 
-2.101224633275e-06 6.650247464175e-04 0.0 
0.0 0.0 -9.733333333333e-05 
-1.012464655028e-04 -1.533092774878e-06 0.0 
-1.533092774878e-06 6.197292804394e-04 0.0 
0.0 0.0 -1.006666666667e-04 
-9.684752660582e-05 -6.274302712926e-08 0.0 
-6.274302712926e-08 6.662579141266e-04 0.0 
0.0 0.0 -9.733333333333e-05 
-1.011453118386e-04 1.046563005614e-06 0.0 
1.046563005614e-06 6.213209177569e-04 0.0 
0.0 0.0 -1.006666666667e-04 
-9.747297309875e-05 -2.278502078315e-06 0.0 
-2.278502078315e-06 6.683740764344e-04 0.0 
0.0 0.0 -9.733333333333e-05 
-9.931899188090e-05 -3.288065646636e-06 0.0 
-3.288065646636e-06 6.197642772278e-04 0.0 
0.0 0.0 -1.006666666667e-04 
-9.650639441643e-05 2.666172739854e-07 0.0 
2.666172739854e-07 6.659194579952e-04 0.0 
0.0 0.0 -9.733333333333e-05 
-1.000788983180e-04 1.910523566858e-06 0.0 
1.910523566858e-06 6.207688021561e-04 0.0 
0.0 0.0 -1.006666666667e-04 
-9.720852165412e-05 -4.164213939214e-07 0.0 
-4.164213939214e-07 6.678605235040e-04 0.0 
0.0 0.0 -9.733333333333e-05 
-1.005225329566e-04 -1.059277058645e-06 0.0 
-1.059277058645e-06 6.206711688955e-04 0.0 
0.0 0.0 -1.006666666667e-04 
-1.076654382393e-04 -2.454755873475e-05 0.0 
-2.454755873475e-05 6.666235465443e-04 0.0 
0.0 0.0 -9.871211211756e-05 
-9.677391887680e-05 3.262994796209e-07 0.0 
3.262994796209e-07 6.670349670739e-04 0.0 
0.0 0.0 -9.733333333333e-05 
-1.004112575968e-04 6.266382551746e-06 0.0 
6.266382551746e-06 6.238730393685e-04 0.0 
0.0 0.0 -1.006666666667e-04 
-9.691250726487e-05 3.272004711609e-06 0.0 
3.272004711609e-06 6.207526912737e-04 0.0 
0.0 0.0 -1.006666666667e-04 
-9.769753293670e-05 3.857908775590e-07 0.0 
3.857908775590e-07 6.683264731120e-04 0.0 
0.0 0.0 -9.733333333333e-05 
-1.018216783017e-04 -1.733271697638e-06 0.0 
-1.733271697638e-06 6.205292306068e-04 0.0 
0.0 0.0 -1.006666666667e-04 
-9.704606734811e-05 1.789783002985e-06 0.0 
1.789783002985e-06 6.661622647259e-04 0.0 
0.0 0.0 -9.733333333333e-05 
-1.018704888891e-04 2.872470909369e-06 0.0 
2.872470909369e-06 6.210028127133e-04 0.0 
0.0 0.0 -1.006666666667e-04 
-9.786058522026e-05 1.410942441991e-06 0.0 
1.410942441991e-06 6.680408138480e-04 0.0 
0.0 0.0 -9.733333333333e-05 
-1.006317600444e-04 1.941140312877e-06 0.0 
1.941140312877e-06 6.214755597104e-04 0.0 
0.0 0.0 -1.006666666667e-04 
-9.094846281658e-05 3.460693907673e-06 0.0 
3.460693907673e-06 6.387381401671e-04 0.0 
0.0 0.0 -9.537877878422e-05 
-9.822997247904e-05 5.655000512226e-07 0.0 
5.655000512226e-07 6.686847925497e-04 0.0 
0.0 0.0 -9.733333333333e-05 
-1.005721140742e-04 -4.771801101198e-07 0.0 
-4.771801101198e-07 6.209284532513e-04 0.0 
0.0 0.0 -1.006666666667e-04 
-9.779172566454e-05 1.437765353010e-06 0.0 
1.437765353010e-06 6.669881357659e-04 0.0 
0.0 0.0 -9.733333333333e-05 
-9.964754038308e-05 2.397319642454e-06 0.0 
2.397319642454e-06 6.203504795262e-04 0.0 
0.0 0.0 -1.006666666667e-04 
-9.942841041269e-05 6.330945354939e-06 0.0 
6.330945354939e-06 6.210142166029e-04 0.0 
0.0 0.0 -1.006666666667e-04 
-9.831264427012e-05 3.607920745624e-06 0.0 
3.607920745624e-06 6.668464283750e-04 0.0 
0.0 0.0 -9.733333333333e-05 
-1.003509065967e-04 3.038689806417e-06 0.0 
3.038689806417e-06 6.697580945376e-04 0.0 
0.0 0.0 -9.733333333333e-05 
-9.096542632604e-05 2.974368147523e-06 0.0 
2.974368147523e-06 6.503827388711e-04 0.0 
0.0 0.0 -1.003787787842e-04 
-8.451759272524e-05 -2.785279264380e-06 0.0 
-2.785279264380e-06 6.050107377767e-04 0.0 
0.0 0.0 -9.704544545089e-05 
-1.061297274301e-04 -4.871673269526e-05 0.0 
-4.871673269526e-05 6.458409108431e-04 0.0 
0.0 0.0 -9.900000000000e-05 
-9.597407948562e-05 5.882537232744e-05 0.0 
5.882537232744e-05 6.276346610407e-04 0.0 
0.0 0.0 -9.900000000000e-05 
-1.061722618288e-04 2.720032131649e-06 0.0 
2.720032131649e-06 6.459980937412e-04 0.0 
0.0 0.0 -1.023333333333e-04 
-9.572351935955e-05 9.504820778219e-06 0.0 
9.504820778219e-06 6.293354809804e-04 0.0 
0.0 0.0 -9.566666666667e-05 
-8.827880964785e-05 -4.615262033286e-06 0.0 
-4.615262033286e-06 6.261214177850e-04 0.0 
0.0 0.0 -9.566666666667e-05 

SCALARS element_materi_plasti_kappa_shear float
LOOKUP_TABLE default
2.847132974464e-04
2.567335577462e-04
8.383458615127e-04
8.438320912051e-04
5.252340220498e-04
1.092332508777e-04
5.211056369626e-04
2.682011350187e-04
5.284032086376e-04
8.364231581825e-04
5.721664887116e-04
2.192159031084e-04
8.427469438430e-04
5.626516430071e-04
8.591411753051e-04
8.596118674820e-04
5.228709310720e-04
9.890289689114e-05
1.829897689724e-04
1.694158919351e-04
8.423436282844e-04
2.963793359042e-04
3.324051967767e-04
8.081759085961e-04
6.000118969986e-04
6.135444959901e-04
4.831662702076e-04
8.640260917564e-04
6.044060870881e-04
8.284633969501e-04
1.393644665420e-04
6.157167640348e-05
8.645031697050e-04
7.227162512376e-04
8.409567717064e-04
8.889842858592e-04
8.867272022491e-04
8.401574712595e-04
4.762820424766e-04
4.829160232604e-04
3.784313710213e-04
8.419842235364e-04
1.971583877801e-04
4.640967896192e-04
8.239259452907e-04
1.959288160543e-04
8.321288766212e-05
8.084255947212e-04
3.689720172040e-05
5.421120849717e-04
3.571518168043e-04
2.245192715023e-04
1.849539392691e-04
3.438430703420e-04
8.437751075118e-04
2.946472074171e-04
2.169482347232e-04
7.261086015541e-04
1.365401986572e-04
8.602343425103e-04
5.633449810247e-05
8.068338246298e-04
3.495820234045e-04
1.625404768038e-04
8.423121318073e-04
3.196875078224e-04
2.407380933191e-05
8.605021510781e-04
1.455927549119e-04
8.423461725362e-04
6.362218458080e-04
8.811950242161e-04
8.101315001547e-04
6.837837458653e-05
2.980351712693e-04
8.450728483081e-04
8.650274645365e-04
1.497776459891e-04
1.164171881254e-04
1.495511738586e-04
1.394737434445e-04
4.994656174592e-04
3.126596433046e-04
2.656451840487e-04
5.512146343309e-04
5.478404078236e-04
6.543703068282e-04
7.066969326251e-04
7.292257809066e-04
5.182254199727e-04
3.772961361312e-05
5.068209088843e-04
7.023712359703e-04
7.053137767572e-04
9.034935541177e-04
8.681099508839e-04
4.998503861448e-04
8.654654996241e-04
5.895620793702e-04
3.387865222816e-04
5.023282053966e-04
8.610484090904e-04
6.969273947015e-04
8.114912522944e-04
3.066747276919e-04
1.031286558348e-04
7.940042257422e-04
7.514569823258e-04
6.199677439276e-05
8.454993593349e-04
6.946613572604e-04
4.904031993171e-05
4.043465054524e-04
4.701260917007e-04
3.591769958220e-04
3.010429561774e-04
3.537650535641e-04
8.520744351586e-04
5.793631570773e-04
3.261491376649e-04
1.418039967851e-04
5.194733326263e-04
7.366211917707e-04
3.289742658715e-04
1.029625399055e-04
4.250840810499e-04
3.733497519716e-04
3.937484836423e-04
8.617156175713e-04
1.214391796965e-04
6.025351137927e-04
8.438264723838e-04
4.251430981113e-04
4.028071146060e-04
8.421798094545e-04
8.449973380302e-04
6.540085342923e-04
4.550812470554e-04
8.653037555385e-04
4.073208974334e-04
8.427923186268e-04
8.640045548534e-04
5.578310155526e-04
6.509573146725e-04
4.117138516470e-04
3.711211770560e-04
4.681101004950e-04
3.518672901193e-04
5.147824992523e-04
4.107193794640e-04
3.646113790962e-05
5.532223658631e-04
1.258155624666e-04
4.487912821367e-04
8.442761777728e-04
3.036097253508e-04
6.795876328870e-04
2.190343751187e-04
6.939470314270e-04
5.021535652402e-04
3.806977165922e-04
7.481063603695e-04
1.298522692207e-04
7.928147477738e-04
5.039709184499e-04
8.650019251011e-04
5.013582088109e-04
3.160516627979e-04
4.393239970158e-04
5.920825198174e-04
2.289923969885e-04
3.854224720753e-04
6.780718451191e-04
5.198603884199e-04
3.586956886529e-04
4.169796386473e-04
7.560276412873e-04
4.159140997811e-04
8.428055575623e-04
8.639767009483e-04
2.975132247583e-04
3.989799041527e-04
7.712498508063e-04
3.945945745463e-04
2.576819868644e-04
4.854060291149e-04
3.951341740237e-04
8.456558194475e-04
7.010154264104e-04
7.714816593417e-04
1.746707301352e-04
3.610997931363e-04
7.204647992586e-04
1.945331205908e-05
3.903836025195e-04
7.222445599691e-04
1.036327141325e-04
8.424473339204e-04
6.428453457772e-04
3.831449392291e-04
7.193613777923e-04
5.586004203897e-04
5.898087867421e-04
8.246624455494e-04
2.857235697232e-04
4.866694704310e-04
5.222557039026e-04
6.732665719341e-04
5.326319802480e-04
4.881655111683e-04
6.257681940146e-04
7.388362075692e-04
5.690614774354e-05
2.917017983456e-04
3.317775165376e-04
4.735931798939e-04
7.340526410142e-04
1.447054251006e-04
6.965604954019e-04
5.013674676710e-04
3.566918662294e-04
6.715636749960e-04
6.571013662794e-05
6.877012871154e-04
5.549518836130e-05
8.040745949318e-05
1.732184497000e-04
2.392003364027e-04
7.177475001527e-04
2.320046903568e-04
2.075153724814e-04
1.800041788403e-04
1.507998795129e-04
7.424671531813e-04
5.071426105021e-04
8.446796247734e-04
0.0
2.497594834345e-04
4.009784043095e-04
3.635781274630e-04
6.932515688423e-04
8.647303225506e-04
6.886146806345e-04
2.931670056878e-04
7.441379809633e-04
6.308353337863e-04
4.980516236996e-04
6.615635321969e-04
8.261379668094e-04
4.064024309512e-04
2.371048478647e-04
5.754464620744e-04
9.026357122934e-04
4.917413561400e-04
5.134823346619e-04
5.630191156583e-04
1.329471826665e-04
5.277021269871e-04
2.878196777098e-04
1.938006262720e-04
1.362334838042e-04
7.132570322814e-04
5.514544182274e-04
3.441653812797e-04
7.429062318585e-04
7.078085783757e-04
5.222121837301e-04
8.463050092743e-04
5.284876028695e-04
5.460070011469e-04
4.376131710040e-04
5.575789166973e-04
2.377977007102e-04
5.035541614816e-04
4.257154416742e-04
3.011811086088e-04
6.820805742593e-04
2.384378149136e-05
5.562902183290e-04
3.071842567668e-04
2.550196540710e-04
2.439773196071e-04
5.894366693464e-04
9.570931057482e-05
3.576303071845e-04
5.731391386351e-04
5.461339597621e-04
5.616867596350e-04
1.271009961872e-04
2.958157551279e-04
2.761694005421e-04
3.216903735558e-04
6.680530276719e-04
3.637979337747e-04
3.949989305544e-04
3.759115002993e-04
1.575634516332e-04
4.501668004301e-04
1.708993772794e-04
9.019026024371e-04
9.023973057295e-04
5.057511345693e-04
2.631127598012e-04
2.307674832005e-04
5.600193776098e-04
2.500946570906e-04
2.700679866253e-04
4.922948739685e-04
8.667616329614e-04
3.318462296128e-04
6.222149882880e-04
1.830371105394e-04
9.023475672024e-04
2.441397582287e-04
5.112104398270e-04
1.689503966276e-04
6.053623747982e-04
4.196544349858e-04
2.903890059932e-04
5.270871447235e-04
9.021440381368e-04
3.510699855254e-04
5.781821550489e-04
1.886309360797e-04
6.316875196563e-04
6.668857487106e-04
2.624435093985e-04
6.164660003841e-04
9.026438880277e-04
7.124911027791e-04
9.030006616607e-04
6.099328680256e-04
7.015574955173e-04
2.180182464546e-04
4.840383207087e-04
5.408811792003e-04
5.701871426172e-04
4.675332375955e-04
9.035883904622e-04
5.850053230518e-04
5.141279373987e-04
3.811690988531e-04
1.956242149518e-04
4.646237938930e-04
2.742553589397e-04
5.220512861019e-04
2.960117191843e-04
3.368501384635e-04
7.076177555195e-04
2.798327001462e-04
4.981195041245e-04
5.922020028832e-04
5.249691217824e-04
9.022141612185e-04
4.195717744466e-04
2.760615473356e-04
3.714756492195e-04
2.666495641069e-04
2.573536274962e-04
7.531436391681e-04
5.406886875803e-04
3.691632618911e-04
4.556110258937e-04
9.030518011548e-04
8.532871781874e-04
7.461245423291e-04
6.934880992847e-04
5.105698072065e-04
3.813116805693e-04
2.690679185397e-04
3.126694468458e-04
5.164893174634e-04
5.919748660066e-04
4.476339003619e-04
7.537614717665e-04
2.814322894241e-04
4.431267281225e-04
5.162384399113e-04
3.994083330778e-04
9.019027868778e-04
9.024199943996e-04
8.466674059490e-04
5.551721733312e-04
7.381697029613e-04
2.318050061718e-04
3.566133739436e-04
2.004113789535e-04
3.876518657495e-04
5.007689008681e-04
6.066206779727e-04
8.634617584911e-04
7.387016338322e-04
5.700145676085e-04
5.843478329972e-04
2.129102317008e-04
9.963202888369e-05
4.255642556790e-04
4.864892581303e-04
4.557093610505e-04
1.015080950596e-04
5.392744089157e-04
1.864447400827e-04
2.686669338435e-04
8.829401381496e-04
6.479849204365e-04
5.101152900271e-04
1.402250907171e-04
4.625920286436e-04
4.307827734044e-04
5.943113921106e-04
9.027611341500e-04
4.797580040648e-04
5.649702214781e-04
4.419535104601e-04
7.334092120784e-04
5.703474346401e-04
9.028672049198e-04
8.818149095568e-04
8.812004500202e-04
8.770344726619e-04
6.086454399872e-04
7.380884957385e-04
7.670249911297e-04
3.946547610248e-04
3.761808931614e-04
4.220813725199e-04
7.589723938571e-04
9.023328764655e-04
7.577932565223e-04
6.026760527823e-04
7.626774697069e-04
6.606437481449e-04
4.567756297563e-04
3.825801685651e-04
2.007576887360e-04
8.470469883245e-04
3.704624717408e-04
8.076533810370e-04
4.162571300339e-04
2.699749840163e-04
8.434505841465e-04
2.924500070844e-04
8.816442479766e-04
8.452247512919e-04
5.545088614739e-04
3.473443607641e-05
8.815269345483e-04
8.437795076668e-04
2.644715325930e-04
6.230832692164e-04
9.043633052623e-04
0.0
4.136686690805e-04
5.789929662663e-04
5.300876254499e-04
5.356595073985e-04
2.252617715596e-04
8.806829294995e-04
4.006991802615e-04
1.303841541133e-04
8.663125818618e-04
6.051131586377e-05
4.315774978662e-04
1.176867923368e-04
4.596515473754e-04
9.012311898413e-04
8.829625409697e-04
5.653646595553e-04
8.124087917367e-05
9.994837872237e-05
1.389614691644e-04
7.526188084607e-04
5.232481456078e-04
5.352467886841e-04
8.832777862969e-04
5.239926934470e-04
9.034954834455e-04
6.742815143354e-04
5.863949273689e-04
2.820464387522e-04
6.178481751699e-04
1.825530642902e-04
8.832148814275e-04
8.787933827960e-04
8.806921593160e-04
5.756624678762e-04
3.963242992692e-04
4.623808742286e-04
5.898300044950e-04
8.827105655163e-04
2.739608454354e-04
3.152297798322e-04
3.346486994201e-04
6.118815291473e-04
9.031087235632e-04
9.826315240639e-05
8.806359177385e-04
3.091995583178e-04
8.830701307018e-04
7.737556814763e-04
2.602550826630e-05
4.315307198807e-04
7.678889909001e-04
8.823867652727e-04
6.136211757286e-04
6.941437612341e-04
1.584089862020e-04
8.072406538751e-04
3.285549430036e-04
3.399738602395e-04
6.350089245098e-05
8.815166830728e-04
2.259416864064e-04
7.443039276558e-04
5.669420517884e-04
2.830302926058e-04
3.206987936709e-04
5.893066187854e-04
8.831255390234e-04
4.112126309151e-04
6.461218310913e-04
5.245062035981e-04
5.860608677982e-04
3.451263767299e-04
6.003773440688e-04
5.107552153637e-04
6.659208771778e-04
6.625383459481e-04
5.000360828217e-04
4.220154532181e-04
2.979654696955e-04
3.903746207876e-04
6.804313980790e-04
5.475016889342e-04
9.031543334572e-04
7.872511197512e-04
2.513213857487e-04
8.791428665884e-04
8.623865534779e-04
4.695549206328e-04
3.669236207070e-05
9.023712677026e-04
7.825243345501e-04
2.836634880462e-04
8.808658468444e-04
6.210975252764e-04
4.005662234096e-04
5.509439591359e-04
5.333534302821e-04
5.303907689406e-04
6.114043158285e-04
6.485756697789e-04
4.497226363466e-04
6.883221258394e-04
5.985234349652e-04
4.277851164570e-04
6.370445780655e-04
3.335340985590e-04
5.972217102501e-04
2.690095818511e-05
3.234473257319e-04
3.145667651333e-04
4.619525145775e-04
4.941683527065e-04
6.157927676169e-04
5.953076823754e-04
2.893667186736e-04
8.829502872488e-04
5.841509097847e-04
4.814294041828e-04
5.596214459887e-04
4.676664971932e-04
0.0
5.801676505400e-04
3.844985916664e-04
0.0
4.554300220234e-04
6.611400294946e-04
7.615386503395e-04
5.667217612568e-04
5.798125605848e-04
4.946399896661e-04
4.612945919967e-04
8.448933154629e-04
5.351237915901e-04
2.265059230248e-05
1.593136185292e-04
3.598215869650e-05
2.756541644964e-04
7.595674519950e-04
7.663452637067e-04
7.206272217663e-04
3.111805889127e-04
6.034032161237e-04
7.573752906356e-04
1.740144548794e-04
3.864583664951e-04
3.117083041406e-04
9.031633853049e-04
8.822228944503e-04
4.285735382123e-04
4.870038452019e-04
5.444247428616e-04
7.843706278062e-04
1.688678543700e-04
7.320309974875e-04
1.024779424926e-04
4.424111468176e-04
4.932536473152e-04
3.661873855527e-05
4.046650665538e-04
7.818962903618e-04
2.628493764547e-05
4.594828512294e-04
4.812071489687e-04
6.367624673799e-04
3.155481759348e-04
3.029147364412e-04
2.132280228371e-04
7.837934729915e-04
8.448257163848e-04
7.363444438744e-04
2.851623301377e-04
1.072863423375e-04
4.603504121984e-04
4.608177344525e-04
4.831872055831e-04
0.0
3.555241354687e-05
7.966173186171e-05
2.342846998403e-04
6.373569268983e-05
4.549076851565e-04
0.0
2.796945326255e-04
6.183777696222e-04
4.824258644607e-04
7.814158546744e-04
6.352076666034e-04
5.781612852690e-04
3.372841396968e-04
1.018092465349e-04
8.804341959841e-04
9.035439950554e-04
5.614027168615e-04
4.616000397093e-04
3.431731325220e-04
9.014339937115e-04
2.659509024599e-04
4.803513075401e-04
4.596149613707e-04
4.369192074101e-04
8.832852469207e-04
9.009032309479e-04
6.250414495270e-05
0.0
1.266214781953e-04
4.876279566065e-04
8.196533199701e-04
2.444433938167e-05
7.274110977346e-04
0.0
6.250843933025e-04
2.867078562402e-05
2.783203544243e-05
5.997115799954e-04
7.944815531001e-04
6.355701656843e-04
4.791132808813e-04
3.652595870710e-05
6.229816343343e-04
8.791826602914e-04
9.014687340808e-04
4.821873124554e-04
6.503883133201e-04
8.818062794857e-04
6.993504510242e-04
9.789390783998e-05
6.279365927203e-05
3.939974307887e-05
3.825618914400e-04
9.021047273405e-04
8.443030366409e-04
0.0
4.516920689161e-04
8.837977955305e-04
9.047268419961e-04
9.014166279866e-04
6.824648899155e-04
7.516239818066e-04
8.796515991076e-04
8.818821043928e-04
7.273160736883e-04
2.211575098140e-05
4.787532764467e-04
4.846356056311e-04
0.0
8.847559387122e-04
9.037195635447e-04
8.791881994104e-04
2.812709352533e-05
2.886337119670e-05
8.807302274622e-04
8.799262388240e-04
6.606959234620e-04
4.786921816039e-04
7.045004432885e-04
5.666139951839e-04
4.780950833957e-04
2.553609013369e-05
2.943212211666e-05
2.487007266475e-05
2.712132983020e-05
4.772021594015e-04
4.286502641088e-04
0.0
6.145195953194e-04
0.0
8.800821581416e-04
8.788987143881e-04
8.809194080868e-04
1.543232978874e-04
2.904945093705e-04
8.796413922759e-04
7.525259440061e-04
8.837915350881e-04
7.992262474011e-04
8.460368269156e-04
4.052497561465e-04
9.034475555497e-04
9.025505378386e-04
7.709083270600e-04
8.195089923752e-04
6.617362762152e-04
0.0
4.176416125064e-04
6.092826118018e-05
7.888929342564e-04
4.363249681698e-04
7.275214838645e-04
2.209065391860e-04
8.130906403886e-05
7.783803544764e-04
4.610171208733e-04
3.609674789086e-04
7.334454872420e-04
7.883388593484e-04
3.608088371091e-04
6.922006084626e-04
6.034876983327e-04
6.562206089320e-04
6.777106223571e-04
3.699030016403e-04
4.367455166762e-04
4.808107450877e-04
6.170029851943e-04
7.543946188843e-04
6.998918906108e-04
2.236916744938e-04
7.865894495829e-04
7.412777532416e-04
5.338023001125e-04
6.428876137913e-04
6.366868729429e-04
7.982659732682e-04
7.683299234494e-04
5.896655507063e-04
7.981209395123e-04
7.317182777282e-04
6.996282799597e-04
8.110166413215e-04
7.924641880625e-04
6.744131504159e-04
6.666687721535e-04
2.222812676772e-04
2.065367340502e-04
1.125541859685e-04
6.237733767345e-05
7.698425966602e-04
7.679810230490e-04
6.018528781591e-05
7.767838420586e-04
5.508431979073e-04
7.139111020130e-04
7.225345758280e-04
3.210916204918e-04
7.277792051553e-04
5.345154592761e-04
6.681973168260e-04
8.270717611794e-04
2.126569924615e-04
8.168359037540e-04
6.998709092975e-04
2.419277465397e-04
2.572139128868e-04
5.157383088969e-04
6.206435762795e-04
3.445305893728e-04
7.246223149107e-04
6.508258121004e-04
5.014012835763e-04
6.818156971164e-04
7.083328473163e-04
6.952144219196e-04
1.892569743241e-04
4.759731321316e-04
7.583758524429e-04
7.205684773619e-04
4.286991399852e-04
6.094148028769e-04
7.977133214395e-04
6.694832793452e-04
1.063908867657e-04
1.078325644387e-04
2.185995729447e-04
7.487063186168e-04
6.453888805748e-04
5.685571839540e-04
5.747340170202e-04
7.632873978513e-04
5.213198554590e-04
7.022694847875e-04
2.278532579141e-04
8.104690401052e-04
5.072778477496e-04
2.493887876613e-04
4.811363962896e-04
3.641239825016e-04
2.855768811343e-04
5.596568083914e-04
0.0
0.0
6.426259570283e-04
2.090044132862e-04
6.487981239576e-04
6.292228741945e-04
3.962033144448e-04
2.579044153745e-04
7.616473441749e-04
1.019762165519e-04
3.852520764996e-04
7.853811998397e-04
1.733076863571e-04
6.041255787992e-04
5.562754309982e-04
1.755785073398e-04
7.771304788849e-04
6.907987842018e-04
2.031638653013e-04
7.812508794649e-04
7.761681869909e-04
2.340588006308e-04
3.099693431780e-04
2.401902132467e-04
6.877850878179e-04
5.412899770906e-04
7.773630800326e-04
7.570625316910e-04
6.683791686238e-04
6.625290522613e-04
1.893340517518e-04
6.820308372633e-04
6.862847063831e-04
5.467902184326e-04
6.498698714300e-04
7.159072219897e-04
4.836380743717e-04
7.367030404168e-04
4.559169101876e-04
5.273150536082e-04
3.411674526490e-04
3.634633618335e-04
6.658946142908e-04
5.048839066709e-04
2.598481237302e-04
1.310675626010e-04
6.702674056581e-04
2.538844621688e-04
8.100545142142e-04
6.906694072020e-04
7.081089564605e-04
8.422326803080e-04
4.360105328501e-04
2.279423584864e-04
1.438342882826e-04
6.746645813760e-04
6.253129879063e-04
9.918819555368e-05
3.502385490955e-04
2.023555415197e-04
6.246699331793e-04
3.695628740598e-04
6.232537801749e-04
3.438500574503e-04
7.461722125166e-04
2.994852823397e-04
6.807902368991e-04
2.134297640903e-04
6.549102842848e-04
5.031003560477e-04
6.885245121902e-04
3.402916395449e-04
1.961866029563e-04
5.822861240524e-04
6.308362435894e-04
4.380632245669e-04
6.281676019648e-04
2.380403549024e-04
6.367384190698e-04
1.839508450066e-04
7.725002622058e-04
6.561620715166e-04
6.933815038025e-04
8.092250112126e-04
5.501611933615e-04
1.836188012187e-04
6.153653481655e-04
7.923633784811e-04
3.086645625323e-04
6.943493645373e-04
6.953376833628e-04
2.383737125918e-04
6.351661673105e-04
5.732469191631e-04
2.731502544442e-04
3.307497968412e-04
5.297758459477e-04
6.688023425968e-04
4.058187172305e-04
5.054096064123e-04
6.614441040854e-04
5.998784189862e-04
5.910883509517e-04
4.972646323121e-04
7.574466861930e-04
5.955283378909e-04
5.798186174699e-04
8.003940697799e-04
7.180161900282e-04
6.490287924266e-04
7.113553544645e-04
3.823555630989e-04
3.565404549641e-04
1.953976897051e-04
6.410050228313e-04
3.763189430417e-04
6.449063337001e-04
6.199045494020e-04
5.084125206731e-04
3.051454170769e-04
3.258730291925e-04
3.248932828681e-04
3.506411482378e-04
2.087274372249e-04
7.378551383479e-04
4.282574386795e-04
7.412552030348e-04
4.541815597642e-04
6.095351943613e-04
5.187506594856e-04
4.997510169959e-04
2.146153585684e-04
7.711538397404e-04
8.079476018067e-04
6.361701368165e-04
3.764967077337e-04
5.641220258623e-04
6.406080403220e-04
4.020423173836e-04
4.195882062222e-04
3.055816158326e-04
2.636950223364e-04
4.082271319947e-04
2.736025990170e-04
2.537953830401e-04
5.245273162057e-04
6.292993035880e-04
7.492900454241e-04
3.203758316606e-05
4.405577458711e-04
4.346027194587e-04
4.023785191973e-04
6.155232675037e-04
4.734346387430e-04
3.196066524516e-04
4.342139395113e-04
7.163087986927e-04
3.260933403649e-04
1.168244718053e-04
1.647945889040e-04
2.770873895178e-04
3.310730520104e-04
4.602757153186e-04
4.600207765890e-04
1.928157764076e-04
1.707341749778e-04
5.895058594021e-04
2.797745439378e-04
7.062976887918e-04
7.244525292787e-04
5.994482200641e-04
7.479362706432e-04
7.722073383501e-04
4.891222082220e-04
6.801196645123e-04
2.186358735565e-04
4.535223376976e-04
4.450813002302e-04
2.467733830818e-04
1.750442891068e-04
3.704464435431e-04
4.405809917950e-04
4.660198440887e-04
2.935158266565e-04
4.992118488517e-04
4.465362306875e-04
4.659568211177e-04
3.372178723478e-04
6.620913788087e-04
6.659627664384e-04
4.464589383721e-04
7.516390930913e-04
2.441816649308e-04
8.072504021232e-04
4.795300791222e-04
8.017371460895e-04
6.085549533664e-04
2.321228935279e-04
6.185852731565e-04
7.630767509020e-04
5.051417859831e-04
3.661414466216e-04
6.376993777508e-04
4.811178594329e-04
1.857807587189e-04
8.390465361483e-04
1.628736303485e-04
8.036589317589e-04
7.822328340233e-04
6.817113985780e-04
5.944690303378e-04
7.324063707552e-04
4.717283072585e-04
5.530050660420e-04
7.919782093494e-04
6.749206336022e-04
6.866667910661e-04
6.457616521014e-04
2.126152465348e-04
7.069826387246e-04
8.629714234730e-04
7.993865070988e-04
4.477431927428e-04
5.982374328927e-04
5.702467583063e-04
4.852758503030e-04
6.550541832802e-04
6.806275031618e-04
1.495582113029e-04
2.819536409307e-04
4.719088448474e-04
4.524404810498e-04
4.753774359264e-04
8.204202764357e-04
7.726022105671e-04
7.860269249390e-04
4.302864262974e-04
7.179879766962e-04
6.608709654568e-04
7.991666135651e-04
6.815066276248e-04
4.792430800077e-04
4.524987585418e-04
7.025482517895e-04
7.779314873333e-04
7.070226180185e-04
6.822309135255e-04
7.465300404061e-04
7.826368761699e-04
7.260240088116e-04
5.837814341675e-04
4.125387530949e-04
7.065160572798e-04
6.683788434956e-04
2.478373517059e-04
4.777284192442e-04
5.353515613939e-04
5.977625510039e-04
2.507745920709e-04
4.583293862520e-04
6.426616075672e-04
4.741323037944e-04
4.930461985426e-04
6.351704220665e-04
5.035899061353e-04
8.748336872995e-05
5.699093729231e-04
6.954848808431e-04
7.976626568000e-04
5.222109466484e-04
5.384171766190e-04
6.412047717611e-04
1.333587154635e-04
6.759698665895e-04
5.725287969111e-04
5.032199876639e-04
6.864279124225e-04
2.514950635447e-04
7.120564692623e-04
7.780948302509e-04
6.564610749456e-04
7.116821158201e-04
7.246360851013e-04
7.833643354194e-04
1.802790547338e-04
6.612816129093e-04
7.861355491829e-04
7.278229343817e-04
6.115797601383e-04
4.833414631771e-04
5.268286526492e-04
1.425296761520e-04
7.526132568008e-04
2.678943445110e-04
2.211120256558e-04
7.044851606333e-04
8.041173484502e-04
2.253293374700e-04
5.541855973425e-04
6.771406016496e-04
5.185055617143e-04
2.565916003583e-04
3.358426263350e-04
1.654267237843e-04
2.195587793392e-04
1.948064560472e-04
5.668209511317e-04
9.024478657275e-04
2.656438147348e-04
7.662341416689e-04
4.141061097714e-04
6.566720836641e-04
1.877799869201e-04
8.084989395093e-04
1.994569434083e-04
3.140464818660e-04
6.820386484981e-04
4.908002713549e-04
7.628181862507e-04
3.758479425673e-04
6.979283655874e-04
7.957911377227e-04
6.571731431381e-04
8.029731230695e-04
7.270515574910e-04
7.476451225947e-04
2.191637260577e-04
7.397348748796e-04
6.976508043859e-04
5.085012302089e-04
3.119003519742e-04
8.251246623771e-04
2.569217320374e-04
2.989728286296e-04
7.328562567959e-04
1.824812964156e-04
5.242757088580e-04
7.013386659934e-04
7.908799406318e-04
8.131260850100e-04
6.875825611049e-04
7.527048348784e-04
4.392290927810e-04
7.101308226447e-04
3.576610988848e-04
7.839173444398e-04
4.037880571281e-04
4.232159837033e-04
5.029022043263e-04
4.507734252293e-04
5.870500808989e-04
4.752244134070e-04
5.026363052125e-04
2.249310114461e-04
4.776453301647e-04
7.733738486002e-04
7.976476035845e-04
6.945548351068e-04
7.772416007150e-04
4.852334699188e-04
7.428006378953e-04
4.970035832582e-04
7.593068717160e-04
7.224411528600e-04
7.227149131648e-04
6.309607774765e-04
4.584456414079e-04
7.531944029664e-04
6.034972236900e-04
2.308119231500e-04
2.624460620044e-04
3.872761120802e-04
5.489843774695e-04
7.797820896700e-04
7.023632392718e-04
4.641088760791e-04
6.218312804433e-04
7.219008359154e-04
7.573917115974e-04
7.785266204009e-04
6.280166874005e-04
7.383877363914e-04
5.278638301658e-04
7.262918204668e-04
5.188928070716e-04
7.977154867570e-04
8.063595481927e-04
5.860927408408e-04
2.315643799225e-04
7.386133228481e-04
5.676947967437e-04
4.449348027813e-04
6.172626666964e-04
7.179827493323e-04
2.370266014843e-04
5.414414582278e-04
6.328258620691e-04
7.852987061870e-04
6.515827953541e-04
7.191722898294e-04
6.137788463093e-04
5.757943947390e-04
6.225247935544e-04
7.525361268811e-04
7.265450907645e-04
6.730854564585e-04
8.087327558910e-04
5.947165434318e-04
3.757083337357e-04
7.690299236002e-04
8.027797653313e-04
5.132285230033e-04
5.378259550272e-04
4.198490164914e-04
6.932498007595e-04
4.196989786401e-04
6.013383056530e-04
4.244065472614e-04
7.076412824923e-04
8.082825049946e-04
4.390606027736e-04
1.483230989868e-04
8.029617023960e-04
4.435164002791e-04
5.102475381477e-04
7.829133683486e-04
6.777367698023e-04
7.065388141309e-04
4.506750626244e-04
1.167461404750e-04
8.120451166423e-04
5.678324770761e-04
6.713655535843e-04
7.707853918245e-04
7.492364537136e-05
7.006400612350e-04
3.174082064534e-04
6.321144681099e-04
5.639974680990e-04
4.332125152761e-04
7.650774128591e-04
5.816219672421e-04
3.891223975006e-04
5.975818898240e-04
1.224806412890e-04
6.853035704159e-04
7.134125102004e-04
8.179492543020e-04
7.297421601193e-04
3.065079168190e-04
7.004003726196e-04
8.165253916176e-04
8.479924542833e-04
7.386332535642e-04
4.696607101220e-04
6.412724926972e-04
7.730297312435e-04
5.224557452220e-04
6.991686312028e-04
6.522881639181e-04
7.454810025326e-04
7.319099201394e-04
4.592718609033e-04
4.589748948830e-04
6.632348156822e-04
6.550643866417e-04
5.839389106664e-04
6.520225668259e-04
5.568349206801e-04
7.827592798598e-04
4.641682869918e-04
9.023985271437e-04
5.323389960366e-04
5.433977192185e-04
5.581483784777e-04
2.876533767836e-04
4.987925639303e-04
6.113280308229e-04
5.734936793022e-04
6.486149626944e-04
6.664011184541e-04
6.953526663877e-04
1.412062264109e-04
4.675204502198e-04
4.485143747990e-04
6.274607649306e-04
6.578443530004e-04
7.694390836844e-04
2.018827599834e-04
2.118548485698e-04
5.434196226545e-04
4.731655300953e-04
4.306957946138e-04
4.543511483622e-04
6.528939094235e-04
2.067591147696e-04
5.327937831684e-04
7.010212531473e-04
2.056531891882e-04
8.439841012356e-04
7.711259233898e-04
5.127813030370e-04
7.142204993727e-04
8.010879403205e-05
6.760026335023e-04
5.731440943210e-04
7.848797575394e-05
7.668831780950e-04
1.937244266693e-04
6.327922999710e-04
5.785286832994e-04
4.968174943866e-04
5.956127873224e-04
7.880861604784e-04
6.409960854337e-04
5.623311144195e-04
5.487641104452e-04
6.109272857415e-05
1.629874435700e-04
7.482510755206e-04
6.040877386252e-04
7.640917445135e-04
3.123204989809e-04
7.273523556962e-04
7.747935678475e-04
4.649937047846e-04
7.426717535746e-04
7.200303897050e-04
6.303284010483e-04
5.129756421741e-04
5.441585730997e-04
8.113189037915e-04
5.503878304791e-04
5.924281748206e-04
5.531250535128e-04
6.865936238777e-04
5.186424646122e-04
3.204813496190e-04
5.606647508770e-04
3.450779890532e-04
6.470302402465e-04
3.505252796099e-04
6.277520247305e-04
7.587948185469e-04
7.268103064184e-04
4.888355696636e-04
6.236801479114e-04
7.339558663339e-04
7.397456106695e-04
1.647892676569e-04
6.415300113061e-04
8.022742046257e-04
3.412132358055e-04
5.581165807734e-04
8.708025055710e-05
7.535189856760e-04
3.010719485934e-04
5.274804108231e-04
6.673026496075e-04
6.282397646401e-04
5.981992314315e-04
5.868815627898e-04
3.840091498006e-04
4.074033715262e-04
7.595591585227e-04
6.255621355899e-04
5.413215478798e-04
6.709724982699e-04
5.163063894937e-04
3.315774455480e-04
3.763959762493e-04
5.615934434708e-04
4.817973037771e-04
7.326130562771e-04
4.941499276580e-04
8.205042127968e-04
7.452468947420e-04
5.472972600878e-04
8.312900741524e-04
3.699819044739e-04
8.018291199323e-04
5.922723470957e-04
6.492908331354e-04
7.668482132430e-04
3.896525471501e-04
6.172543904820e-04
5.220226255599e-04
6.028779115149e-04
3.408590409728e-04
6.699987248021e-04
4.909242862165e-04
5.778210378881e-04
5.978296419795e-04
8.229029560999e-05
5.981137410256e-04
1.283223021349e-04
1.425604046919e-04
5.519635169088e-04
7.343432326654e-04
6.172079870032e-04
3.390874049380e-04
8.835512891396e-04
3.541794485888e-05
3.613399971481e-04
5.544855267789e-04
5.326254913468e-04
4.424845602747e-04
3.782682788717e-04
5.798739096979e-04
6.167777849602e-04
6.437007506706e-04
7.590632464972e-04
1.759096795290e-04
5.070291229362e-04
5.467926510370e-04
2.917605163705e-04
4.894986857120e-04
6.227812367473e-04
6.771752748072e-04
1.001730422140e-04
6.527003657202e-05
2.035166912421e-04
5.524955955532e-04
4.141708406182e-04
3.646770521929e-04
3.255364608925e-04
5.717928128404e-04
6.564800500114e-04
5.666644769925e-04
4.085506308660e-04
6.465993337185e-04
5.417387641993e-04
7.125425157821e-04
5.723661868930e-04
5.777202621077e-04
2.916076193924e-04
4.336480661839e-04
5.858412025591e-04
6.379366452071e-04
5.991263956497e-04
3.166301193058e-04
5.916947495787e-04
3.585996022864e-04
1.686121238923e-04
8.065430386563e-04
1.781249146415e-04
3.724154870578e-04
5.819798147523e-04
3.300189918571e-04
5.928518961627e-04
2.717893358977e-04
5.034514971512e-04
5.975048584584e-04
5.161248570229e-04
5.386329409282e-04
8.667360441849e-05
7.766355700003e-04
4.278027150325e-04
7.709884658024e-04
6.554981013868e-04
6.113729652278e-04
6.169416889889e-04
3.837801442347e-04
1.206709874370e-04
7.269670928316e-05
6.307319205139e-04
7.666183021714e-04
3.527221907689e-04
6.608281624570e-04
3.135411494528e-04
6.715213762121e-04
8.631320342243e-04
2.443176703526e-05
8.829965077119e-04
8.852121263970e-04
5.187863560737e-04
4.219301114264e-04
6.361517130024e-04
3.946797178832e-04
1.259295258068e-04
6.663094765465e-05
8.124043100395e-04
6.435964837156e-04
4.857059802391e-04
9.024611897643e-04
2.289087475018e-04
9.032106261994e-04
6.378439507150e-04
4.156051056860e-04
6.056962681492e-04
3.904754317435e-04
1.913315701783e-04
3.651077128310e-04
6.756031953244e-04
7.724144175276e-04
3.966058680347e-04
6.856021964007e-04
0.0
4.025686827041e-04
7.139120631654e-04
3.570731400853e-04
3.273347299656e-04
6.111873319657e-04
1.714241601602e-04
2.420040212522e-04
2.712090176002e-04
3.127039070016e-04
5.608332313648e-04
5.328849272093e-04
6.902231196026e-04
8.080955017943e-04
2.842556977963e-04
6.821682045895e-04
8.109606697113e-04
3.645861892778e-04
1.258230046435e-04
3.462855414954e-04
5.351169772372e-04
6.908562819823e-04
5.298709099370e-04
1.475829349837e-04
6.052995487488e-04
2.176340386909e-04
5.379426478048e-04
5.747509196573e-04
6.255223732288e-04
6.198429424376e-04
3.190834650638e-04
1.430237184057e-04
6.204770996910e-04
2.385014860191e-04
5.727538746632e-05
8.088933360730e-04
7.702342677557e-04
3.537830069708e-05
6.503365910815e-04
2.479462791813e-04
2.600158871832e-04
7.304280687047e-04
6.303423890784e-04
7.052277971026e-04
4.085225165101e-04
4.822303009211e-04
8.428341203802e-04
2.144184038726e-04
7.491156234450e-04
5.624077246742e-04
1.620147722767e-04
6.703416370318e-04
4.275751542475e-04
7.844671194514e-05
3.593652216936e-04
6.605802268349e-04
6.829403826903e-04
1.683856497506e-04
5.389059366488e-04
7.114080209456e-04
7.412554945830e-04
3.386366915786e-04
2.659836531276e-04
5.773807037095e-04
6.106537074396e-04
7.794080869892e-05
8.647472179011e-04
8.429320017221e-04
5.419416684598e-04
8.464641737961e-04
8.449768812639e-04
4.218473016108e-04
4.026312649594e-04
8.662430778611e-04
0.0
2.463689065015e-04
5.423185032493e-04
3.455780040321e-04
3.534199359639e-04
1.932563100895e-04
2.285242578868e-04
5.533910755366e-04
3.894757547290e-04
2.855356333337e-04
7.152732176559e-04
9.025430170280e-04
9.028555141478e-04
4.158729496666e-04
4.991986293731e-04
5.007569812017e-05
1.549723110472e-04
1.733686555641e-04
1.773311158401e-04
6.057473022357e-04
3.472267394595e-04
3.840401147294e-04
1.047743844350e-04
7.694785082956e-04
3.779515105815e-04
8.054340909103e-04
7.382880291593e-04
9.042222901304e-04
9.037391284983e-04
5.542239624201e-04
3.965200569982e-04
2.395169663989e-04
4.095473271816e-04
8.846617183911e-04
1.091075619098e-04
1.309117937249e-04
7.757007018757e-04
5.216493301951e-04
8.114985139276e-04
7.149555952708e-04
7.808260194802e-04
7.476070933347e-04
5.490969887376e-04
3.014610573917e-04
2.949948221418e-04
6.532450277148e-04
7.635848575454e-04
4.588641132707e-04
5.205058156000e-04
5.540928897098e-04
5.659168286544e-04
1.420511469143e-04
2.680728897049e-04
8.651629045309e-04
6.052440982456e-04
8.634119896890e-04
8.245717668539e-04
6.764662760295e-04
8.149161431282e-04
3.967880254959e-04
3.767005960415e-04
8.110139756078e-04
3.456957431072e-05
2.657950424331e-04
8.824542840959e-04
1.237061144379e-04
4.987214213507e-04
8.294168402688e-04
8.695215841111e-05
5.602562008274e-05
9.015334466947e-04
4.603425485764e-04
8.489922161072e-04
8.087138917439e-04
4.591008030381e-04
5.552241480747e-05
8.444214902365e-04
1.414135789209e-04
8.168961864666e-04
8.837090559571e-04
8.142426765288e-04
1.807958899793e-04
5.595583047635e-04
4.199792468794e-04
7.164591502921e-04
9.028817437699e-04
7.102313129860e-04
9.026811156520e-04
8.288145526137e-05
8.646233726606e-04
2.069739792553e-04
1.172764018555e-04
8.657097316282e-04
8.659008612292e-04
8.625184092857e-04
5.047279818662e-04
5.503926425959e-04
1.934303277458e-04
8.651050625011e-04
3.388354453695e-04
1.130064855855e-04
7.389517174799e-04
4.782630476822e-04
8.223389270151e-04
8.930658412704e-04
8.840898532866e-04
2.334843234610e-05
1.127894866393e-05
4.694771593736e-04
4.807281389759e-04
8.834165587509e-04
8.924916119185e-04
5.576594174246e-05
0.0
8.119181321880e-04
8.142322994912e-04
1.701766019211e-04
8.251842060796e-04
5.739886326733e-04
5.078648088346e-04
6.388823889726e-04
1.550243662730e-04
6.739268272391e-04
1.393043346543e-04
4.524792319836e-04
8.185153464905e-04
7.987444324357e-04
4.885491561285e-04
5.870976835179e-04
8.300271616539e-04
7.651236002798e-04
7.207118451451e-04
4.587797315069e-04
6.508513547530e-04
8.137396714987e-04
2.548267730587e-04
6.130172025363e-05
7.910594940571e-04
7.454571359396e-04
1.168423234533e-04
6.691954016891e-04
8.437645600948e-04
7.822748954745e-04
8.291678905268e-04
6.276953752614e-04
3.676099362061e-05
1.910008398258e-04
2.410902129174e-04
5.367277688070e-04
6.465619629802e-04
8.260192756098e-04
8.426510046720e-04
9.968867775761e-05
9.583122356830e-05
1.529254075451e-04
6.701562114990e-04
3.239280242567e-04
8.294279570789e-04
1.624109286017e-04
8.067702666274e-04
5.436640056567e-04
8.463726308532e-04
7.450121923899e-04
5.381792224530e-04
8.657268182902e-04
8.669176791877e-04
8.641188598614e-04
1.063408641689e-04
8.096899185402e-04
8.433515583067e-04
8.209426083778e-04
7.578403458605e-04
8.820824508574e-04
7.152183658321e-04
0.0
1.476863544574e-04
7.925042984467e-04
5.819610102914e-04
8.150003304523e-04
7.872814678585e-04
8.479070143319e-04
7.210640868520e-04
8.478357315245e-04
8.252654922692e-04
8.217924527872e-04
3.382456616413e-04
9.027319105777e-04
5.177284306761e-04
8.149780141979e-04
7.602985457212e-05
7.853489742656e-04
6.747924126657e-04
9.715604780866e-05
1.703587158512e-04
7.357623737217e-04
8.456239339759e-04
8.256639794594e-04
8.510870588008e-04
5.779321806582e-04
5.698562791087e-05
8.903845588755e-05
6.283407249005e-05
1.237561416650e-04
2.218122983909e-05
4.492152745151e-04
8.141022284179e-04
8.188324132241e-04
5.825183578263e-04
3.912991429550e-04
8.215127337613e-04
8.144364166830e-04
8.676175675571e-04
8.131246206762e-04
7.790398171077e-04
7.703091579876e-05
8.521732389425e-05
8.233105816384e-04
7.749586532649e-05
1.142956473345e-04
7.248547269918e-05
8.699680012182e-05
8.468513703275e-04
8.482556314247e-04
8.272172742286e-04
8.507165112290e-04
7.882896166762e-04
6.050128159723e-04
8.848716184046e-04
2.082654753157e-04
4.770383954530e-04
1.308584681555e-04
3.200133854228e-05
9.023297721724e-04
5.253788953819e-04
1.321285258096e-04
4.283053972209e-04
8.675733916602e-04
8.249021745336e-04
8.483302000566e-04
3.066024421432e-04
8.148429218192e-05
8.670431337253e-04
9.023411771345e-04
9.053923630978e-04
5.028745524170e-04
8.096342445588e-04
1.166784308444e-04
8.309395715063e-04
3.072536449822e-05
8.491015123023e-04
8.642157995562e-04
3.254999792424e-05
7.915264275696e-04
6.950269549080e-04
8.486200653356e-04
8.870888049155e-04
6.371787866159e-04
8.507580346646e-04
8.288142407060e-04
6.543265911992e-04
8.219609091343e-04
3.580802034436e-04
4.580585415293e-04
8.289670477400e-04
8.604442280761e-04
0.0
4.595975431843e-04
8.621910031762e-04
1.592545715764e-04
8.297085483634e-04
8.243206064822e-04
8.644406776067e-04
1.547160338610e-04
1.208044010377e-04
5.264955792143e-04
7.516483182700e-04
1.891156848520e-05
8.515789897366e-04
6.135789601255e-04
1.559509946477e-04
5.832862224491e-04
8.658507257749e-04
5.521778443811e-04
4.558321396471e-05
3.239427989419e-04
4.776913424967e-04
5.701251507252e-04
8.287479897685e-04
4.636624967177e-04
4.900391319366e-04
7.786229875005e-05
8.280550521141e-04
7.926388045417e-04
1.331660701839e-04
8.512291248288e-04
8.566440339274e-04
5.134667395409e-04
6.297245589001e-04
4.683583638001e-04
4.786896715519e-04
5.070171589005e-04
7.879088551411e-04
1.144990407912e-04
8.287518740281e-04
5.339553679767e-04
8.658836050112e-04
7.862007520820e-04
5.990262297868e-04
7.981889298720e-04
8.203027348467e-04
8.695097463781e-04
3.580066420134e-05
8.023135303917e-04
8.310675113497e-04
8.967195667714e-05
4.375219600786e-04
5.410315473195e-05
8.369220774202e-04
1.060630185137e-04
1.193878995555e-04
9.379526954330e-05
1.183500601834e-04
9.332045924007e-05
1.185317998829e-04
9.349115067675e-05
1.186860508083e-04
9.364153366354e-05
1.187801877588e-04
9.373896066041e-05
1.188280837711e-04
9.379241071714e-05
1.188436643472e-04
9.381398973907e-05
1.188374336410e-04
9.381409216621e-05
1.188168429135e-04
9.380020741011e-05
1.187880965260e-04
1.228548079313e-04
9.377872003291e-05
1.187586803619e-04
9.375742194130e-05
1.157890223755e-04
1.187415927965e-04
9.374860535478e-05
9.227381004680e-05
1.187409684146e-04
9.375731560614e-05
1.187659701010e-04
9.378590440150e-05
1.187938477424e-04
9.382044357158e-05
1.188690358019e-04
9.387780799166e-05
1.188870123689e-04
1.074932437662e-04
9.390977703856e-05
1.190453421308e-04
9.400077709541e-05
1.189147147776e-04
1.194211077150e-04
9.397518878269e-05
1.186424205607e-04
9.426322750682e-05
1.201308702069e-04
9.387033602125e-05
1.166147161399e-04
1.213211340380e-04
9.462008612956e-05
9.158574424152e-05
7.938697313666e-05
1.147193361149e-04
1.329473715565e-04
1.046659526420e-04
1.170726526350e-04
9.100135238535e-05
1.548793020190e-04
1.398583083142e-04
1.646971575123e-04
1.401603119576e-04
1.651896890035e-04
1.402343217064e-04
1.653056434901e-04
1.403364600330e-04
1.654203101123e-04
1.404393468954e-04
1.655145835356e-04
1.405180074321e-04
1.655755201380e-04
1.405643214736e-04
1.656033941395e-04
1.405832710722e-04
1.656055046448e-04
1.405810214083e-04
1.655880763316e-04
1.676429061094e-04
1.405643649430e-04
1.655578570877e-04
1.405379441217e-04
1.389227043048e-04
1.655221024453e-04
1.405113109071e-04
1.655020779017e-04
1.405117521784e-04
1.655088119870e-04
1.443319784934e-04
1.405345488367e-04
1.655542038496e-04
1.405971232595e-04
1.655927246128e-04
1.406254501371e-04
1.657030671808e-04
1.407331409774e-04
1.656809761560e-04
1.406767154371e-04
1.659556361556e-04
1.408854959846e-04
1.531712737841e-04
1.405901903800e-04
1.655014109628e-04
1.413440324429e-04
1.667860907958e-04
1.389069220690e-04
1.643091316219e-04
1.684969091712e-04
1.248521962396e-04
1.692850054625e-04
1.492953996098e-04
1.563356513805e-04
1.438751425223e-04
1.370181524225e-04
1.976333862393e-04
2.116731572351e-04
1.862186243852e-04
2.105135771650e-04
1.854721293060e-04
2.104577930494e-04
1.854427323826e-04
2.105321862864e-04
1.855223010247e-04
2.106306724529e-04
1.856205509068e-04
2.107115213645e-04
1.856981488192e-04
2.107539297177e-04
1.857352136190e-04
2.107681397284e-04
1.857479377639e-04
2.107589556243e-04
2.131686355800e-04
1.857434794709e-04
2.107344521858e-04
1.857268407030e-04
1.908372584021e-04
2.106931599542e-04
1.845702532177e-04
1.856890788764e-04
2.106302587185e-04
1.856378609051e-04
2.106380971703e-04
1.856566304066e-04
2.106431631274e-04
1.857081639528e-04
2.108179316691e-04
1.980009761142e-04
1.858373073386e-04
2.106922178983e-04
1.857973773904e-04
2.111624469953e-04
2.104376803483e-04
1.860216229082e-04
2.119249337184e-04
1.856176602761e-04
2.088598079787e-04
2.140888372367e-04
1.863106585679e-04
1.836826105287e-04
1.703583003672e-04
2.001760913214e-04
2.196716975602e-04
1.962435353328e-04
2.084613605653e-04
1.832797690290e-04
2.467242924841e-04
2.318971739121e-04
2.569604721247e-04
2.323582238135e-04
2.573660128964e-04
2.323481834884e-04
2.573777332793e-04
2.323926280916e-04
2.574504022643e-04
2.324746838915e-04
2.575468697238e-04
2.325693421246e-04
2.576322522147e-04
2.326122074981e-04
2.576553806804e-04
2.326151529556e-04
2.576522502379e-04
2.588705843304e-04
2.326142016962e-04
2.576375128508e-04
2.306571559578e-04
2.326278861306e-04
2.576262050767e-04
2.326180735072e-04
2.575817555027e-04
2.325405437276e-04
2.371444383033e-04
2.574556691956e-04
2.324538276695e-04
2.574825913594e-04
2.325861304384e-04
2.575227655495e-04
2.326671156115e-04
2.578962146880e-04
2.329911614336e-04
2.574939041830e-04
2.326152256377e-04
2.440244319060e-04
2.332069693135e-04
2.585665773561e-04
2.307697375987e-04
2.562555830984e-04
2.601089679822e-04
2.162782946957e-04
2.577307751470e-04
2.370799216689e-04
2.479843099940e-04
2.355777807444e-04
2.300605477233e-04
2.893562250950e-04
3.035610020743e-04
2.781398742463e-04
3.024796248070e-04
2.774000520103e-04
3.024086532762e-04
2.773792771481e-04
3.024572659554e-04
2.774284649834e-04
3.025480157212e-04
2.775301685476e-04
3.026855389739e-04
2.776610420386e-04
3.027150412041e-04
2.776797469847e-04
3.026647938250e-04
3.057519497818e-04
2.776123204034e-04
3.026644902344e-04
2.828915978971e-04
2.776728359796e-04
3.027151159073e-04
2.761654015987e-04
2.777471929607e-04
3.027239513287e-04
2.777229964406e-04
3.026125050717e-04
2.775893337710e-04
3.022358251205e-04
2.911528140928e-04
2.773787975288e-04
3.027660250717e-04
2.778333905826e-04
3.023471162595e-04
3.041522434489e-04
2.778236615926e-04
3.009345726581e-04
2.786762187220e-04
3.055181121834e-04
2.755391628935e-04
2.628456973792e-04
2.894887970220e-04
3.094946284243e-04
2.879404696216e-04
3.001784249515e-04
2.747666986158e-04
3.387590509463e-04
3.239558570236e-04
3.490589559299e-04
3.242489538052e-04
3.492778332294e-04
3.244009492226e-04
3.494137940559e-04
3.243450263155e-04
3.494285644229e-04
3.244491555650e-04
3.495528953540e-04
3.245729995313e-04
3.497476816412e-04
3.247790095566e-04
3.498156307860e-04
3.524344535621e-04
3.244756318896e-04
3.234927653718e-04
3.495180048905e-04
3.245640602665e-04
3.496724803304e-04
3.248419696225e-04
3.498816701128e-04
3.248366754099e-04
3.293404958308e-04
3.498297634467e-04
3.247755033259e-04
3.497132450553e-04
3.245820555673e-04
3.488372345038e-04
3.242701434091e-04
3.503144451308e-04
3.256426464242e-04
3.234521601643e-04
3.489428141026e-04
3.382079507074e-04
3.528736187585e-04
3.091709295256e-04
3.479959789487e-04
3.272882465017e-04
3.399401601187e-04
3.274902301269e-04
3.210995550700e-04
3.823738146998e-04
3.954225263856e-04
3.697566624949e-04
3.939322582241e-04
3.688694981486e-04
3.944097865815e-04
3.693773633782e-04
3.940314017453e-04
3.688791821506e-04
3.943498072948e-04
3.693104022334e-04
3.943240387101e-04
3.692423004483e-04
3.983221388088e-04
3.950761893213e-04
3.697532978986e-04
3.757283910689e-04
3.940431169502e-04
3.690941919872e-04
3.688922250286e-04
3.943316706399e-04
3.695967294386e-04
3.950039595106e-04
3.699171745464e-04
3.947738597822e-04
3.836764221872e-04
3.696289525295e-04
3.946866788540e-04
3.951305091693e-04
3.698050963930e-04
3.917401968718e-04
3.700257270424e-04
3.984140208452e-04
3.678384251997e-04
3.553107824800e-04
3.787353646523e-04
4.015883610286e-04
3.798602337846e-04
3.917784855672e-04
3.672570110000e-04
4.343021193814e-04
4.144431140943e-04
4.400238155636e-04
4.160910928413e-04
4.407194433539e-04
4.169792812266e-04
4.421275663541e-04
4.155655137509e-04
4.404257626118e-04
4.163557751547e-04
4.417490498800e-04
4.164243392235e-04
4.451512402664e-04
4.411469643058e-04
4.182864247912e-04
4.154450539294e-04
4.421592365309e-04
4.167200733669e-04
4.407251200889e-04
4.170139093125e-04
4.420435047998e-04
4.169234513539e-04
4.225836555007e-04
4.425201970351e-04
4.165861177248e-04
4.414159334299e-04
4.159924669279e-04
4.163537947849e-04
4.414971076271e-04
4.437645096039e-04
4.307709466435e-04
4.017743348262e-04
4.348445271150e-04
4.227645607119e-04
4.331703470473e-04
4.187044942453e-04
4.146339968586e-04

SCALARS element_materi_plasti_phimob float
LOOKUP_TABLE default
8.143049000984e+00
7.432607238639e+00
1.994198256010e+01
1.987242391883e+01
1.689959959620e+01
-2.360677351268e+00
1.691904823560e+01
7.360380799553e+00
1.693424298232e+01
1.984767075418e+01
2.000065071611e+01
3.312165327103e+00
2.058351873983e+01
1.740454647085e+01
2.054315776794e+01
1.998674994384e+01
1.671669411213e+01
-3.264811825293e+00
9.074868511985e+00
9.731786957913e+00
1.984184663315e+01
9.945654445443e+00
1.148307045608e+01
2.051265422952e+01
1.788000560917e+01
2.017938229359e+01
1.591679464880e+01
2.011018728469e+01
1.786968845030e+01
2.060421147271e+01
3.459024434806e+00
-2.084359895413e+01
1.994113786246e+01
2.048047917015e+01
2.056421004423e+01
2.064937139211e+01
2.058935000365e+01
2.038515316369e+01
1.616272138533e+01
1.621217270667e+01
1.332180330353e+01
2.049429516223e+01
-7.051028925798e-01
1.591798866876e+01
1.972481827549e+01
5.757098467530e-02
-3.487763016524e+00
1.974908129296e+01
-2.134997665407e+01
1.709707601181e+01
1.250559519004e+01
1.225314836072e+01
1.086648696588e+01
1.229915806044e+01
1.994027138609e+01
1.564321483617e+01
1.289917283613e+01
2.051203524353e+01
3.703874997245e+00
1.997919984270e+01
-2.666183421286e+01
2.001103746246e+01
1.309777636642e+01
9.191042521542e+00
2.058211513967e+01
1.118231687110e+01
-2.896192238564e+01
1.992320855594e+01
5.308198279696e+00
2.002559266727e+01
2.026559526977e+01
2.016040193872e+01
1.993330536414e+01
-1.525055639594e+01
1.615144876005e+01
1.987423402487e+01
1.992726015842e+01
-4.507402545448e+00
3.935331772132e+00
-8.607423030450e+00
5.624784302077e+00
1.668539556868e+01
1.039360649978e+01
8.085195330958e+00
1.728446436930e+01
1.729253421210e+01
2.033866018266e+01
2.046628976857e+01
1.907030754457e+01
1.684772378190e+01
-2.123077843320e+01
1.666566978465e+01
1.899941438880e+01
1.891250778011e+01
2.012784057841e+01
2.037109531627e+01
1.664224569138e+01
2.071430082386e+01
1.789609814271e+01
1.223244863229e+01
1.652279428374e+01
2.058759055681e+01
1.947309044374e+01
1.999345708548e+01
1.188346932483e+01
-5.061334020409e+00
2.056008628897e+01
1.925555252846e+01
-2.186498289108e+01
2.046897816047e+01
1.887810078430e+01
-2.628644475500e+01
1.566932421706e+01
1.577356492645e+01
1.780308125108e+01
1.087332105225e+01
1.322748242549e+01
2.059745771376e+01
1.770001967830e+01
1.233455762158e+01
4.278913073630e+00
1.661730886713e+01
1.927351578830e+01
1.252613551608e+01
-9.456715143038e+00
1.470918108830e+01
1.768201433666e+01
1.401419264356e+01
1.999322841008e+01
6.230822733800e-01
2.015649992248e+01
1.988226886955e+01
1.505509464898e+01
1.408453927388e+01
2.063322331520e+01
2.057917418364e+01
2.035835824220e+01
1.559544635070e+01
2.065264611553e+01
1.448946673048e+01
1.992814482502e+01
2.000868899522e+01
1.736872123678e+01
1.847959433908e+01
1.449715651829e+01
1.327073691512e+01
1.604274163939e+01
1.377498147938e+01
1.666728681065e+01
1.580793247178e+01
-2.212599180155e+01
1.724494567291e+01
4.847521743361e+00
1.528531332120e+01
2.048060569941e+01
1.161928626595e+01
2.041507991304e+01
2.984833247697e+00
1.943764765098e+01
1.677343676117e+01
1.543109770788e+01
2.053216012905e+01
4.260345387342e+00
2.056018097789e+01
1.650703863663e+01
2.068096654860e+01
1.673297785394e+01
1.294341806865e+01
1.523810103154e+01
2.011877292504e+01
3.063690920876e+00
1.587261495246e+01
1.871418962520e+01
1.672280481284e+01
1.447809220937e+01
1.466998655831e+01
1.941201241346e+01
1.837886147050e+01
2.012889169213e+01
2.001528661870e+01
9.938053432288e+00
1.841199667013e+01
2.040390091098e+01
1.390705973096e+01
7.730792082056e+00
1.616484813240e+01
1.510813308065e+01
1.994420796723e+01
1.890260375912e+01
2.055455810253e+01
-2.864132191681e+00
1.602263784393e+01
1.907696138019e+01
-5.340507485522e+01
1.392168304823e+01
2.042232895818e+01
-4.346677452442e+00
1.986454088624e+01
1.834054955483e+01
1.855651512032e+01
2.046608822278e+01
1.718242512390e+01
1.766180651901e+01
2.051446419865e+01
1.608639537098e+01
1.649272704120e+01
1.683509791228e+01
1.857006867147e+01
1.688159711080e+01
1.613091442169e+01
1.921302427224e+01
1.922823447416e+01
-2.627118825317e+01
9.912002920467e+00
1.210683071689e+01
1.607424688148e+01
1.909407322316e+01
8.125761254055e+00
2.042590448441e+01
1.664288843788e+01
1.556946205659e+01
2.041514651296e+01
-1.699072931254e+01
1.876544835507e+01
-2.347531720144e+01
-3.828184381391e+00
-4.667897585693e+00
1.425688378164e+01
1.896340402210e+01
1.317369900472e+01
7.052721421972e+00
9.833123240113e+00
7.045487598387e+00
2.043996140858e+01
1.648377783152e+01
2.061347790464e+01
-5.808809565094e+01
1.032600558073e+01
1.649923974426e+01
1.307162166835e+01
2.047155544168e+01
2.066205278835e+01
1.871035903160e+01
1.507974518143e+01
2.041169934379e+01
2.027617257174e+01
1.646439162777e+01
1.852965968383e+01
2.002859912101e+01
1.686696796471e+01
8.362210067919e+00
1.749707364355e+01
2.013707444758e+01
1.653187843350e+01
1.859522653129e+01
1.736449723473e+01
2.651261974493e+00
1.689734434315e+01
1.462221224488e+01
1.241301215912e+01
5.762140208089e+00
1.898155495179e+01
1.717819787571e+01
1.355742591479e+01
1.916419300543e+01
1.888776373006e+01
1.682180798575e+01
2.048746019828e+01
1.888534373463e+01
1.715135003659e+01
1.612880019690e+01
1.895669059048e+01
1.457755341673e+01
1.665235040758e+01
1.763846107559e+01
1.674129251219e+01
1.872436109532e+01
-4.930162787625e+01
1.723092956787e+01
1.592189963326e+01
1.139263665999e+01
1.441402527730e+01
1.776358979902e+01
-5.715678241879e+00
1.301486549718e+01
1.921481666831e+01
1.718682570374e+01
1.724941933818e+01
4.657138242488e+00
1.703028738928e+01
1.594140847325e+01
1.116489196746e+01
1.851903953620e+01
1.310750244603e+01
1.747403818045e+01
1.663997578055e+01
7.232849416793e+00
1.659570808971e+01
3.936112944376e+00
2.012793038909e+01
2.014976417124e+01
1.692631940750e+01
1.476415893739e+01
1.153654925645e+01
1.745931118249e+01
1.357781437301e+01
1.632494136922e+01
1.644050163567e+01
1.993976184205e+01
1.575697973966e+01
1.911864044454e+01
7.473940774017e+00
2.060098582963e+01
1.309946553560e+01
1.683557039538e+01
1.071910768990e+01
2.005875337230e+01
1.734447893874e+01
1.689881896987e+01
1.682955236890e+01
2.019029485211e+01
1.678997645046e+01
1.932885823217e+01
8.466078507616e+00
1.825417624641e+01
2.045777948644e+01
9.146723871679e+00
1.803796018511e+01
2.023522496128e+01
2.053282934418e+01
2.016890990015e+01
1.795073262681e+01
1.886847361956e+01
4.828189819046e+00
1.607158147370e+01
1.715142135999e+01
1.746234893994e+01
1.619376652645e+01
2.027858635349e+01
1.763728864650e+01
1.657477559407e+01
1.698369262710e+01
1.151950331178e+01
1.566388934738e+01
1.077660167277e+01
1.674802807213e+01
1.653221321256e+01
1.615705233139e+01
1.894030377576e+01
1.122670709879e+01
1.645310253307e+01
1.954568879387e+01
1.999933625761e+01
2.036241895208e+01
1.459948878908e+01
1.641751778114e+01
1.809791777581e+01
8.104274339003e+00
8.689505060795e+00
1.925668272444e+01
1.717087625577e+01
1.309792550920e+01
1.560856775440e+01
2.055129398819e+01
2.041751088520e+01
1.926500923804e+01
1.875001571213e+01
1.977536165761e+01
1.394327835983e+01
1.496567981827e+01
1.618111714619e+01
1.686255146373e+01
1.989095096936e+01
1.904754234786e+01
1.930101805300e+01
1.612582226918e+01
1.584344659293e+01
1.680647509449e+01
1.474630453056e+01
2.014053448484e+01
2.014531277407e+01
1.985805253386e+01
2.003740443289e+01
1.918042888160e+01
7.548125603323e+00
1.705182983206e+01
1.188989505578e+01
1.384117019047e+01
1.663902317227e+01
1.797394427603e+01
2.060779782830e+01
1.924370033147e+01
1.750634636601e+01
1.774345312516e+01
1.383760318174e+01
-5.344823477032e+00
1.640515056556e+01
1.669712670274e+01
1.670145080973e+01
-9.258088227541e+00
1.734922374524e+01
9.851325847149e+00
1.282177061497e+01
2.046459264770e+01
1.953975769585e+01
1.660475022447e+01
3.855066450982e+00
1.613383108076e+01
1.675200015452e+01
1.775196748861e+01
2.020683535779e+01
1.607960656771e+01
1.746327540968e+01
1.917301754439e+01
1.914256970702e+01
2.021875790068e+01
2.020832636719e+01
2.023193967187e+01
2.018883975222e+01
2.019481703824e+01
1.800917453402e+01
1.912600781741e+01
1.942962073154e+01
1.464147624143e+01
1.385040834111e+01
1.867657175159e+01
1.928436297964e+01
2.025526808156e+01
1.932758201434e+01
1.927099377067e+01
1.931368059865e+01
1.883400552572e+01
1.632794472495e+01
1.380198289113e+01
1.088962063649e+01
1.995182051855e+01
1.412452774043e+01
1.987896027075e+01
1.880026326395e+01
1.552282154547e+01
2.046713877034e+01
1.257192664240e+01
2.024944580821e+01
1.995898876709e+01
1.749039370800e+01
-2.259020254960e+01
2.027920199489e+01
2.042012527324e+01
1.595575943009e+01
1.958498512776e+01
2.045786122854e+01
-5.812847602573e+01
1.537448576189e+01
1.775496112858e+01
1.721372830256e+01
1.715763869589e+01
1.065401862458e+01
2.031547014597e+01
1.771648072038e+01
3.094408248206e+00
2.068060686334e+01
-2.216754278217e+01
1.508426397349e+01
4.623822075697e+00
1.566915410004e+01
2.056668484251e+01
2.035555592621e+01
1.747084070077e+01
-4.439316704294e+00
-2.065778230774e+00
3.272398428681e+00
2.059339983674e+01
1.663954129500e+01
1.693893147084e+01
2.039202418494e+01
1.668184159101e+01
2.014525899770e+01
1.903898051398e+01
1.774467703662e+01
9.824590457251e+00
1.950015048351e+01
9.940706150645e+00
2.041885352148e+01
2.021199854283e+01
2.019604540803e+01
2.014473321060e+01
1.824123485529e+01
1.641848314581e+01
2.030140560914e+01
2.043780631254e+01
1.355283388793e+01
1.752004554660e+01
1.792800692165e+01
1.804856576078e+01
2.064531917816e+01
-5.712386185615e+00
2.045458992504e+01
1.733944642258e+01
2.026914057339e+01
1.941804357116e+01
-6.137531541649e+01
1.601465952320e+01
1.935207880920e+01
2.030002864879e+01
1.800155841803e+01
1.925407379393e+01
7.349109537625e+00
2.038404378546e+01
1.771943269588e+01
1.767480783442e+01
-2.137415178325e+01
2.033480470863e+01
1.312215827432e+01
2.050515175704e+01
1.744397715079e+01
1.576094673297e+01
1.725923968718e+01
1.774035693765e+01
2.040828030525e+01
1.863718013036e+01
2.038040569529e+01
1.733134369220e+01
2.005745550811e+01
1.775307310866e+01
2.023455805950e+01
1.697314672939e+01
1.875027595332e+01
1.974047803199e+01
1.708841838414e+01
1.898652233283e+01
1.334997253344e+01
1.835987440073e+01
1.906481417082e+01
1.927459867841e+01
2.059242707303e+01
1.948365458011e+01
1.490992023269e+01
2.044516659502e+01
2.053226103215e+01
1.716307401118e+01
-2.177103916204e+01
2.061858671782e+01
1.945672669482e+01
1.650915876020e+01
2.046891968702e+01
2.032082499393e+01
1.447852215737e+01
1.723772346665e+01
1.902703712185e+01
1.990505090161e+01
2.007439167540e+01
1.832366375440e+01
1.557374022161e+01
1.971532379393e+01
1.783802794636e+01
1.883674643838e+01
1.977941932772e+01
1.743485621705e+01
2.025189918333e+01
-6.069450719236e+01
1.322859701349e+01
1.701536820645e+01
1.934319076640e+01
1.731046091960e+01
2.038130760643e+01
1.780636329672e+01
1.615588348519e+01
2.047493622746e+01
1.776485203624e+01
1.948810553369e+01
1.750982309572e+01
1.924117983012e+01
-5.794178676394e+01
1.755069249707e+01
1.806041282530e+01
-5.855059615808e+01
1.918968175092e+01
2.049592357463e+01
1.939133806771e+01
1.988740673807e+01
2.006200887347e+01
1.624078761656e+01
1.593004435996e+01
1.994243654104e+01
1.724489314775e+01
-6.327774815713e+01
6.958370415166e+00
-2.215806933537e+01
1.528551783220e+01
1.940737108945e+01
1.938880719388e+01
2.060016486042e+01
1.642715858882e+01
2.019758119872e+01
2.056918920775e+01
9.657909149754e+00
1.800974849820e+01
1.642652753949e+01
2.066414711824e+01
2.047808909408e+01
1.871410441984e+01
1.938845430232e+01
2.010412588422e+01
2.055399235746e+01
9.081821600919e+00
2.057648265764e+01
-4.294408076407e+00
1.893012552571e+01
1.951874549034e+01
-2.097214940042e+01
1.831390665247e+01
1.950360295330e+01
-6.163202117614e+01
1.589654712706e+01
1.589984091637e+01
2.006571458588e+01
1.641970055291e+01
1.699240087108e+01
8.587586078074e+00
2.061881142034e+01
2.008712538292e+01
1.915595237764e+01
1.012004453609e+01
-1.226540702019e+00
1.561076772306e+01
1.598712448732e+01
1.601083755842e+01
-5.789812822635e+01
-2.128998762198e+01
-4.053601337776e+00
1.373976006491e+01
-2.047373664426e+01
1.907739793245e+01
-5.759013316017e+01
1.570691411711e+01
1.826866363676e+01
1.593437529968e+01
1.953152498990e+01
2.044259939868e+01
1.782760347463e+01
1.702294627240e+01
-4.305660326112e+00
2.015495608151e+01
2.013104433491e+01
1.745280027430e+01
1.597390521144e+01
1.709035378720e+01
2.012814757245e+01
1.483050656731e+01
1.590516613569e+01
1.591318357724e+01
1.515540300951e+01
2.018726618174e+01
2.011079450619e+01
-2.092532959538e+01
-5.761228042039e+01
3.225919942651e+00
1.962175226318e+01
2.058607467037e+01
-5.449077851242e+01
1.913965383316e+01
-5.748482613652e+01
2.022445527002e+01
-5.872318099063e+01
-5.673577158530e+01
2.021727788465e+01
2.058441993045e+01
1.823426639616e+01
1.604542807123e+01
-2.088415769918e+01
2.026243613852e+01
2.014067465666e+01
2.012954868549e+01
1.595414630054e+01
2.021195380790e+01
2.015582408572e+01
1.927371589718e+01
-4.869767690620e+00
-2.068885036320e+01
-2.133832028376e+01
1.795557842627e+01
2.064226920418e+01
1.987515974333e+01
-5.762539085561e+01
1.899948026463e+01
2.049704749569e+01
2.067114492487e+01
2.063601296309e+01
1.878203510556e+01
1.930420393852e+01
2.048153602992e+01
2.048797373739e+01
1.913554224348e+01
-6.489469830879e+01
1.599119270967e+01
1.599676233568e+01
-5.768993258329e+01
2.049067710732e+01
2.068921974409e+01
2.047490101304e+01
-6.120135222834e+01
-6.085982457903e+01
2.047699036023e+01
2.047835999415e+01
1.858914095772e+01
1.600582921521e+01
1.895978218633e+01
1.758968639798e+01
1.599861111490e+01
-6.239019282807e+01
-6.018171733081e+01
-6.160630416877e+01
-6.117110043411e+01
1.929126837032e+01
1.868522039745e+01
-5.789475596428e+01
2.018553246784e+01
-5.798289199469e+01
2.016834302150e+01
2.014832034197e+01
2.015511894881e+01
6.991372459070e+00
1.568651523165e+01
2.014160375039e+01
2.053661522104e+01
2.016149737822e+01
2.058530995088e+01
2.059214633703e+01
1.833947551175e+01
2.012718582653e+01
2.013575745062e+01
2.054736996540e+01
2.058350460397e+01
2.035870319743e+01
-5.785551232818e+01
1.859847338541e+01
-2.137858812174e+01
2.059811658716e+01
1.901324431727e+01
2.053681159991e+01
1.252338443895e+01
-5.134826838997e+00
2.057548809515e+01
1.907657266996e+01
1.762544757254e+01
2.052625390668e+01
1.957809034821e+01
1.752520460830e+01
2.048349167595e+01
2.032077384927e+01
2.038299972980e+01
2.042986652255e+01
1.756915669522e+01
1.509890740779e+01
1.693179030548e+01
2.030439004249e+01
2.055112015741e+01
2.047361235876e+01
1.342571571417e+01
1.954995579180e+01
1.925209936020e+01
1.708296148269e+01
2.040785221868e+01
2.034792895084e+01
1.959422426544e+01
1.942387475244e+01
2.018713176928e+01
2.056966953918e+01
1.916517851379e+01
2.044738347653e+01
2.059628067205e+01
1.956216428932e+01
1.867164603134e+01
2.044653802158e+01
1.289427269344e+01
1.237062890644e+01
-1.296618887848e+00
-2.167421235753e+01
1.942007710620e+01
2.055338609676e+01
-2.210810395397e+01
1.942184828724e+01
1.735567953823e+01
2.049935154829e+01
2.051418503865e+01
1.739470383244e+01
2.051064814805e+01
1.706430373068e+01
1.980556389727e+01
2.058410468996e+01
1.241481751305e+01
2.062921854132e+01
1.889355735115e+01
1.389291024871e+01
1.460679346310e+01
1.965762092483e+01
1.818208015163e+01
1.748113269840e+01
1.909703656497e+01
1.847276701776e+01
1.962242105937e+01
2.042561570004e+01
2.048088903903e+01
1.890111285372e+01
1.021874544026e+01
1.936087658391e+01
1.993431412954e+01
1.905365734371e+01
1.883636225276e+01
2.025529134733e+01
2.060987433070e+01
1.866976236584e+01
-2.911517795777e+00
-1.915599435783e+00
1.329150876124e+01
2.055858844784e+01
1.844087661449e+01
1.990988845119e+01
1.765018723491e+01
2.054947399397e+01
1.974834014413e+01
2.048628974020e+01
1.281662821158e+01
2.063956860532e+01
1.955584864339e+01
1.387104905281e+01
1.930781160937e+01
1.783645838622e+01
1.554734216150e+01
1.995331468700e+01
-5.698318278691e+01
-5.636923977694e+01
2.031891502359e+01
1.163222857296e+01
2.036278498504e+01
2.031379019833e+01
1.856529602685e+01
1.542775007783e+01
1.934480984333e+01
3.372608194640e-02
1.818890035545e+01
2.053021688183e+01
9.485538790304e+00
1.795547942838e+01
1.736356390952e+01
8.924643172481e+00
2.060422067045e+01
1.879057248114e+01
1.173457634447e+01
1.947423624707e+01
1.948545877215e+01
1.318517999890e+01
1.111193977555e+01
1.358375143837e+01
2.043382584102e+01
1.986389553758e+01
1.947382505272e+01
1.935342081552e+01
2.040318919861e+01
2.043842523658e+01
1.079388001275e+01
2.046165476272e+01
1.880037648039e+01
1.982005597540e+01
1.843423150854e+01
1.900457121839e+01
1.849506554415e+01
1.921125388324e+01
1.911936542859e+01
1.970702283708e+01
1.727220328779e+01
1.782300205749e+01
1.862695500754e+01
1.972051836253e+01
1.447845995258e+01
3.077319658135e+00
1.861718220624e+01
1.462151933752e+01
2.059602321007e+01
1.884936751818e+01
2.052541412946e+01
2.045348475925e+01
1.877294138530e+01
1.329732028039e+01
5.995522933013e+00
2.044620181949e+01
1.823943002196e+01
-2.270207256137e+00
1.732715997219e+01
1.112917336729e+01
1.816994234006e+01
1.766411063713e+01
2.036928494037e+01
1.723162531246e+01
1.924951345647e+01
1.629592038482e+01
2.048157310090e+01
1.207240072397e+01
2.040799907554e+01
1.949870444452e+01
2.051166833348e+01
1.791965016105e+01
1.123912744825e+01
1.770571271568e+01
2.021891804238e+01
1.575934472423e+01
1.822953362252e+01
1.374487671057e+01
1.832150203591e+01
9.699112639910e+00
2.060702065038e+01
2.022088703991e+01
1.977024062160e+01
1.965459907652e+01
2.001439195543e+01
1.028917154040e+01
2.030175811416e+01
2.063797386798e+01
1.669143152072e+01
2.047620153796e+01
1.884417190910e+01
1.466557878064e+01
2.036017693811e+01
1.755954398019e+01
1.497039208495e+01
1.691330869144e+01
1.738469383104e+01
2.049087975491e+01
1.454396304369e+01
1.715889314215e+01
1.857041294928e+01
1.796071162474e+01
1.782340830133e+01
1.953186824556e+01
2.058168113883e+01
2.023087342819e+01
1.765153966198e+01
1.958722135873e+01
1.974106555245e+01
2.046068408866e+01
1.901309538389e+01
1.813157498837e+01
1.757280372367e+01
1.071496421948e+01
2.038745745809e+01
1.792238443809e+01
1.836868048260e+01
1.809956253199e+01
1.908141759420e+01
1.661414058598e+01
1.686480333632e+01
1.707764670028e+01
1.774178240407e+01
1.218313444026e+01
2.054927844489e+01
1.916447485945e+01
1.920392127188e+01
1.947134109450e+01
2.036732948026e+01
1.994652850426e+01
1.739376590122e+01
1.205590222293e+01
2.063995792132e+01
2.063169864933e+01
1.856722329880e+01
1.830664478734e+01
2.019104602931e+01
1.838025852783e+01
1.841636814907e+01
1.549151333722e+01
1.617658553828e+01
1.507437195477e+01
1.860688586098e+01
1.537056390733e+01
1.414904232851e+01
1.984166288627e+01
2.041981224903e+01
1.944062467874e+01
-5.763719943795e+01
1.935857413404e+01
1.930340379801e+01
1.878128667580e+01
1.811121632217e+01
1.961360297022e+01
1.680786779731e+01
1.900487311979e+01
1.906281715357e+01
1.675265398146e+01
1.904672498307e+00
8.454877380027e+00
1.606127222051e+01
1.738229790706e+01
1.954723212008e+01
1.932865183624e+01
1.061520678530e+01
8.515160369314e+00
1.772629111986e+01
1.525134658897e+01
2.056824641666e+01
1.930721418905e+01
1.779202382023e+01
1.926861134807e+01
1.956587678547e+01
1.867336846246e+01
1.896245686181e+01
1.264550959072e+01
1.919108858668e+01
1.723885876597e+01
1.533299377254e+01
8.854992530398e+00
1.806781740332e+01
1.915264507359e+01
1.942419157985e+01
1.602379324048e+01
1.983579497899e+01
1.923984307418e+01
1.952410397492e+01
1.718176628298e+01
2.004267387544e+01
1.856001513505e+01
1.928727128388e+01
2.060986792972e+01
1.425063218509e+01
2.061201601495e+01
1.970162769316e+01
1.971047075338e+01
1.800863035965e+01
1.406219417929e+01
1.802322850418e+01
1.936710024218e+01
1.986971199982e+01
1.466506633890e+01
1.824573897589e+01
1.662815925241e+01
1.087369989871e+01
1.985715287179e+01
8.370665309490e+00
2.025014831824e+01
1.952680995252e+01
2.020569262768e+01
1.788619719214e+01
1.911023700248e+01
1.944570138627e+01
1.937893924038e+01
1.957046554909e+01
2.052911127050e+01
1.873629774980e+01
2.035878526998e+01
1.304341013198e+01
1.890012564705e+01
2.006271145854e+01
2.063108779424e+01
1.933262655052e+01
1.787299362509e+01
1.757611145252e+01
1.958278270790e+01
2.049173461837e+01
2.053905828449e+01
5.919213134699e+00
1.593058575538e+01
1.935861804270e+01
1.923056658579e+01
1.684362791215e+01
1.971474279207e+01
1.944701630590e+01
1.951694524333e+01
1.508642671717e+01
1.902496660252e+01
2.044021090235e+01
1.961947171712e+01
1.867413104999e+01
1.948425945028e+01
1.903887831039e+01
1.891622681419e+01
1.943833973854e+01
1.896538955405e+01
1.874967536759e+01
2.062594824799e+01
2.010310854748e+01
2.059898564532e+01
2.026199174866e+01
1.456299277906e+01
2.018560256235e+01
1.858759040523e+01
1.425433020210e+01
1.935378362136e+01
1.986165487591e+01
1.962872222502e+01
1.567218228462e+01
1.907258790492e+01
1.983898001946e+01
1.603599227329e+01
1.974067250028e+01
1.823212075364e+01
1.654875291354e+01
-3.193099135678e+01
2.010744660795e+01
2.033469561343e+01
1.960264889201e+01
1.933152410610e+01
2.004191898140e+01
1.830982631158e+01
-2.676992468942e+01
2.019095176025e+01
1.966294109825e+01
1.645468137009e+01
2.049599303139e+01
1.481642835007e+01
2.053001549762e+01
2.061781956473e+01
2.000884314084e+01
1.895552855815e+01
1.938213920966e+01
2.057658092361e+01
-6.872915586230e+00
1.849633732715e+01
1.994397144152e+01
1.912274099376e+01
1.981840382173e+01
1.910349142328e+01
1.984740738421e+01
7.422854407982e+00
1.931142166685e+01
1.504844917911e+01
2.325626406240e+00
1.918481562642e+01
1.965668900748e+01
1.330864767208e+01
1.761007141705e+01
1.869142696955e+01
1.975184474082e+01
1.519651617454e+01
1.418933610898e+01
9.147819372089e+00
1.378025988811e+01
1.191740869174e+01
1.959460318915e+01
2.012279100929e+01
7.357492466463e+00
2.063069173339e+01
1.812599198310e+01
1.843387055865e+01
1.229302350698e+01
2.058106132194e+01
1.135677915737e+01
1.656315689236e+01
1.997912006119e+01
1.962295808473e+01
1.993804614756e+01
1.427257762894e+01
1.879793834877e+01
2.024463284804e+01
1.851386647898e+01
1.959946556922e+01
1.905584147092e+01
1.920745633749e+01
1.309764858206e+01
2.060732609635e+01
1.886206426243e+01
1.840639253425e+01
1.052127231392e+01
2.021922605946e+01
1.563903954689e+01
1.588457079019e+01
1.993510688864e+01
9.654222905538e+00
1.757799338797e+01
2.016925503834e+01
1.952189184667e+01
1.966118672396e+01
2.001811198750e+01
1.925597047908e+01
1.803379606275e+01
1.911850329492e+01
1.267791786700e+01
1.957331742271e+01
1.424575619676e+01
1.482305083654e+01
1.895781932946e+01
1.543903937340e+01
1.842786368672e+01
1.744350727032e+01
1.940709172460e+01
1.444379845002e+01
1.901681928364e+01
1.945058406252e+01
1.960900593057e+01
2.055413706394e+01
2.011569072435e+01
1.971266467147e+01
1.922089287550e+01
1.936540873690e+01
2.059981122787e+01
1.907170704217e+01
1.900938258962e+01
2.003744419240e+01
1.858184523808e+01
1.943711383268e+01
1.800756473585e+01
1.391960691689e+01
1.538092340620e+01
1.495317707597e+01
1.757216297574e+01
2.060039459341e+01
1.884709588031e+01
1.872296236696e+01
1.832531312042e+01
2.031797154610e+01
1.930203914562e+01
1.957122031427e+01
1.819564313741e+01
2.053099007035e+01
1.941019555222e+01
2.032064042227e+01
1.750901205525e+01
1.956702745934e+01
1.970068737932e+01
1.985254408976e+01
1.487011106336e+01
1.955461135405e+01
1.811087959602e+01
1.824494506249e+01
1.987104014086e+01
2.050042233025e+01
1.435403168807e+01
1.963131056763e+01
1.825839095583e+01
2.058143314396e+01
1.847060255669e+01
1.937083254528e+01
1.803861615644e+01
1.757817181836e+01
1.826110323808e+01
2.012284427839e+01
2.056009116569e+01
1.863916627967e+01
1.966841760073e+01
1.780989605857e+01
1.771918416762e+01
1.966401505113e+01
1.960515551077e+01
1.777694586137e+01
1.789017234490e+01
1.827880538541e+01
1.881425236493e+01
1.514416192002e+01
1.872544367392e+01
1.521800527391e+01
1.995130271708e+01
1.990079661701e+01
1.872178978277e+01
6.310612356324e+00
1.963979820687e+01
1.560319463173e+01
1.981380923164e+01
1.980780759269e+01
1.862293812157e+01
2.053456625779e+01
1.753568581939e+01
2.545860078864e+00
2.063974484711e+01
1.790917530807e+01
1.949411807588e+01
1.961467263946e+01
-1.051053806791e+01
2.057428684833e+01
1.496719535328e+01
1.817399630234e+01
2.004155918836e+01
1.863568705586e+01
2.057783321192e+01
1.837472442506e+01
1.816915148501e+01
1.813887882272e+01
1.525321057854e+00
1.897507625012e+01
1.999229030971e+01
1.981210371014e+01
1.931378757552e+01
1.669924224317e+01
2.051126035686e+01
1.972571309570e+01
2.025903535845e+01
1.996525376306e+01
1.816309436532e+01
1.858793187150e+01
2.059711186134e+01
1.965000443783e+01
1.917226670534e+01
1.845093720238e+01
2.057049060952e+01
2.056674590264e+01
1.602563834460e+01
1.602337278624e+01
1.848357037826e+01
1.881053498565e+01
2.012446184362e+01
1.847339422641e+01
1.828829627320e+01
2.050122883562e+01
1.792516293704e+01
2.013818646789e+01
1.695193902040e+01
1.795543657990e+01
2.012366143256e+01
1.595743143968e+01
1.962510509334e+01
1.839502405054e+01
1.780826101280e+01
1.839912940415e+01
1.869642744632e+01
1.887563858392e+01
3.847384257155e+00
1.948433510252e+01
1.565066695680e+01
1.824505657901e+01
1.846677175228e+01
2.026312636427e+01
1.142843856239e+01
1.281118423492e+01
1.770868952856e+01
1.936129513479e+01
1.485252155137e+01
1.541270450499e+01
1.838024006738e+01
1.123651066917e+01
1.995140776711e+01
2.033231395910e+01
1.350194812142e+01
2.011224830320e+01
1.938940053298e+01
1.964911909404e+01
2.056599250321e+01
-3.994934401004e+00
2.034033141250e+01
1.795121897120e+01
-4.305425485767e+00
1.940208951420e+01
1.149024054229e+01
1.824133734235e+01
1.783249924311e+01
1.957970600311e+01
2.029795023071e+01
1.953817584420e+01
2.043142455880e+01
1.805633219876e+01
1.776428817314e+01
-2.990492037353e+01
9.784986033122e+00
1.949283875264e+01
1.784749424732e+01
1.966303067915e+01
1.438270815902e+01
1.910957662278e+01
1.961538084863e+01
1.577564337768e+01
1.948679694246e+01
2.053256451966e+01
1.866175737974e+01
1.985337844698e+01
1.994766205952e+01
1.963526746624e+01
2.011394942371e+01
1.811015000563e+01
1.881206093494e+01
2.052261919263e+01
1.799483916967e+01
1.741784936467e+01
1.987141952151e+01
1.757427197406e+01
1.847451106387e+01
1.758768573515e+01
1.826643251598e+01
2.014978441355e+01
2.014560926175e+01
1.783483687090e+01
1.813875985720e+01
2.057138123797e+01
2.054875902651e+01
7.304555367727e+00
1.850469029100e+01
2.059593267483e+01
1.217813065217e+01
1.996643012248e+01
-2.541895978603e+01
2.057366985782e+01
1.677941484665e+01
1.973796924513e+01
1.943209385021e+01
1.811936383454e+01
1.784752609725e+01
1.822479998841e+01
1.349736054439e+01
1.422074645123e+01
2.056720278528e+01
2.029537715174e+01
1.984669424674e+01
2.035394326230e+01
1.964251448412e+01
1.698147941646e+01
1.344694145917e+01
1.729865004861e+01
1.603314724299e+01
2.017031538419e+01
1.807127840654e+01
2.025304205443e+01
2.053126737786e+01
1.967475977857e+01
2.058460386302e+01
1.807059046037e+01
2.015325289428e+01
1.826796541198e+01
1.890894595199e+01
2.048770878275e+01
1.836306656675e+01
1.830995674653e+01
1.965078172810e+01
1.805102796248e+01
1.477318377130e+01
1.914171027470e+01
1.960984496901e+01
2.019314537821e+01
1.803729267382e+01
-1.715169407842e+01
1.916050078004e+01
-5.268589179399e+00
5.462464743936e+00
2.003439931356e+01
1.926185732086e+01
1.807131751489e+01
1.171676711039e+01
2.018069759827e+01
-3.298264237783e+01
1.267531304459e+01
2.003683760534e+01
1.977776152873e+01
1.516899071517e+01
1.862999484942e+01
2.013004441437e+01
1.842701699738e+01
1.945958945269e+01
1.941053670493e+01
1.045104662080e+01
1.974074350389e+01
1.994653292842e+01
1.586399131301e+01
1.624503923870e+01
1.806036340965e+01
2.039047969124e+01
-4.568205812837e+00
-2.042798426410e+01
1.128583379733e+01
1.989466586861e+01
1.864134540167e+01
1.814398143745e+01
1.728004824518e+01
2.011230618340e+01
1.849232878124e+01
2.003634264882e+01
1.863527035217e+01
1.851245315537e+01
1.712840634821e+01
1.969766877597e+01
1.999847353688e+01
2.005897844609e+01
9.123351458038e+00
1.897041731445e+01
2.011015647988e+01
1.836596362278e+01
1.791322490758e+01
1.057384172885e+01
2.018144608210e+01
1.802074111863e+01
2.023274058390e+00
2.010446392932e+01
1.008943181434e+01
1.853535762137e+01
1.889421464171e+01
1.159764478144e+01
2.009011168713e+01
1.495092360975e+01
1.653456852179e+01
2.014437093057e+01
1.976464931526e+01
1.986516232111e+01
-1.196532043976e+01
1.946485239676e+01
1.902718981095e+01
2.043936735986e+01
1.894202171755e+01
2.024140323437e+01
2.021632868475e+01
1.853673586571e+01
1.500214910963e+00
-1.019678316865e+01
2.028727545892e+01
2.054878813493e+01
1.779267179182e+01
1.873832382684e+01
1.098121302745e+01
1.869870053910e+01
2.068884357597e+01
-4.930122554172e+01
2.015387138728e+01
2.049185991897e+01
1.691322469618e+01
1.895735050616e+01
1.869505566876e+01
1.823186555669e+01
2.083402152129e+00
-3.064807475724e+01
1.968695136649e+01
1.827944538337e+01
1.598131382458e+01
2.029144338529e+01
1.292590996756e+01
2.038569346722e+01
1.828966644648e+01
1.880504440450e+01
1.851536013101e+01
1.877130757244e+01
2.250399847584e+00
1.831200713133e+01
1.868719265686e+01
2.055059669106e+01
1.889125398952e+01
1.890895022003e+01
-5.626263666764e+01
1.886935110936e+01
1.892671862772e+01
1.802786108340e+01
1.712855364144e+01
1.855796662358e+01
1.031540564304e+01
4.868763255973e+00
7.467535979514e+00
1.700307617395e+01
2.000729848672e+01
1.833329278324e+01
1.891067674522e+01
1.974271638000e+01
8.982631679335e+00
1.877976484677e+01
1.984694300480e+01
1.811577706387e+01
-7.932969611100e+00
1.224693243087e+01
1.991197948749e+01
1.888148753475e+01
1.997995702803e+01
5.147724556927e+00
2.018656923834e+01
4.214361600847e+00
1.851759384356e+01
2.018353251189e+01
1.878529407779e+01
1.821675985240e+01
1.676035731368e+01
2.257170093429e+00
2.033977495196e+01
6.037821525110e+00
-2.118602558080e+01
1.971922541105e+01
1.944885706627e+01
-2.280850866295e+01
2.032392456180e+01
1.402723554343e+01
1.501934697850e+01
1.926461733743e+01
1.882301098217e+01
1.911345597625e+01
1.876964332700e+01
1.599792198280e+01
2.053622748730e+01
1.269298267959e+01
2.029280427673e+01
1.845783582559e+01
8.667421178545e+00
1.867523267050e+01
1.899794700822e+01
-4.904078027741e+00
1.831092097062e+01
2.035171952866e+01
1.868321871745e+01
8.020639809240e+00
1.966479085533e+01
1.907857333007e+01
1.972089626860e+01
1.772864501552e+01
1.501492310291e+01
1.875729441024e+01
1.810023428426e+01
-5.413014177168e+00
2.005518708356e+01
1.997208397621e+01
1.730941245166e+01
1.984863454743e+01
1.999779699051e+01
1.914110590982e+01
1.872781468255e+01
2.053884252632e+01
-5.749811632704e+01
1.397990807656e+01
1.987411549818e+01
1.749810999637e+01
1.825673861118e+01
-2.288523522216e+00
2.806149179495e+00
1.723138951853e+01
1.845859079790e+01
1.575015458098e+01
1.945657695232e+01
2.062649405454e+01
2.067577988121e+01
1.911611360772e+01
1.662505914664e+01
-2.914409099595e+01
-1.257359048045e+01
8.509335386626e+00
-6.102078677544e+00
1.884633605707e+01
1.804362655375e+01
1.846420435608e+01
-5.534401886136e+00
1.951616201630e+01
1.832709463557e+01
1.968012068593e+01
1.923830598348e+01
2.013018461183e+01
2.063050040231e+01
1.734219143065e+01
1.857744378194e+01
4.891522641231e+00
1.898157823065e+01
2.049364461826e+01
-2.271303147382e+01
-1.974942122790e+01
2.029556534113e+01
1.669302850144e+01
1.971460993898e+01
1.907289468090e+01
1.996598669260e+01
1.923594758581e+01
1.742585114045e+01
1.630836684233e+01
1.657563912940e+01
1.855180043408e+01
1.972694543974e+01
1.589460348637e+01
1.672670048766e+01
1.728068779554e+01
1.747179796003e+01
6.236885687129e+00
1.555058533396e+01
1.994375655685e+01
1.799738594761e+01
2.042225782942e+01
1.972763643167e+01
1.867359889607e+01
1.968374340885e+01
1.837818490303e+01
1.789020742869e+01
2.061487302133e+01
-2.348480710922e+01
1.442060825502e+01
2.037569712228e+01
3.554249616271e+00
1.672515419193e+01
2.057448807635e+01
-7.284594649025e+00
-2.346725155824e+01
2.012878297980e+01
1.595982400491e+01
1.988161966967e+01
2.041308116635e+01
1.595447440468e+01
-2.650870757362e+01
1.995019171467e+01
5.449459723550e+00
1.976170076613e+01
2.049244234893e+01
1.973348559041e+01
1.150748868262e+01
1.723015957453e+01
1.854702001236e+01
1.945917744744e+01
2.045759135067e+01
1.899043315879e+01
2.054669064573e+01
-5.698910055140e+00
2.059917393678e+01
1.292300790391e+01
3.581284789705e+00
2.062060822984e+01
1.992997676489e+01
1.998526634511e+01
1.666521490393e+01
1.728524988564e+01
3.689808456332e+00
1.997133773635e+01
1.710212983379e+01
-4.986781462655e-01
1.970587509185e+01
1.596511083688e+01
1.977547122087e+01
2.011004252907e+01
2.015908962825e+01
-6.545126799127e+01
-5.347173487799e+01
1.610487085396e+01
1.602059173771e+01
2.049531512735e+01
2.058727484545e+01
-2.482408528874e+01
-5.743132709447e+01
2.056954660420e+01
1.990915887148e+01
8.032449396138e+00
2.056880239951e+01
2.000886427552e+01
1.954893774477e+01
1.827058066915e+01
7.435501404473e+00
1.916402453020e+01
3.702392160277e+00
1.898373085019e+01
1.981890377036e+01
1.961062132683e+01
1.937997356517e+01
1.773460852124e+01
1.988426455069e+01
1.938831266422e+01
1.905346759072e+01
1.599222090307e+01
1.918272185484e+01
1.975077953523e+01
1.465450947103e+01
-2.216649794978e+01
1.970277942274e+01
2.029450406965e+01
3.564146605930e+00
1.858379747500e+01
2.053291013131e+01
1.975220163819e+01
1.990628739823e+01
2.023586767909e+01
-2.509481652397e+01
-2.507146803252e+00
6.425208540901e+00
1.720138832839e+01
1.909963979753e+01
1.978568475590e+01
2.041765683222e+01
-5.740867078716e+00
-6.515893057836e+00
-1.548642551983e+01
1.869488087847e+01
1.658538914102e+01
1.978723701260e+01
7.362295124793e+00
2.035816697655e+01
1.722610401350e+01
2.019272575031e+01
1.956279054917e+01
1.718633252917e+01
2.065291075283e+01
1.994836215001e+01
1.993722037155e+01
-4.207573954384e+01
1.969242542013e+01
2.006454425273e+01
2.041121732247e+01
1.972211080085e+01
2.048664433047e+01
1.906336595297e+01
-5.367798357549e+01
2.765326617488e+00
1.956185694285e+01
1.767873316909e+01
2.054975918607e+01
1.981360084816e+01
2.051003584757e+01
1.908082629060e+01
2.027225306486e+01
2.057314542307e+01
2.060285754245e+01
1.687350815391e+01
2.060433915078e+01
1.659673061155e+01
1.970425205581e+01
-5.687671883955e+00
1.948367421061e+01
1.860743638097e+01
-4.613728996227e+00
9.052179684068e+00
1.924317168536e+01
1.995532943331e+01
1.975730774705e+01
2.030299240730e+01
1.771082362832e+01
-2.269070292314e+01
-9.171277499354e+00
-1.763739898048e+01
1.341347509033e+00
-4.398504083586e+01
1.883169504083e+01
2.055893509490e+01
1.973717344386e+01
1.760621815315e+01
1.812885552919e+01
2.060482768686e+01
2.057350558613e+01
2.023286272525e+01
1.989258775119e+01
1.955618504146e+01
-5.979594519577e+00
-1.004185985970e+01
2.060584357364e+01
-4.629169473916e+00
-9.692657946786e-02
-1.573509364842e+01
-7.450770467571e+00
2.053286928920e+01
2.004135317007e+01
1.980083472505e+01
2.023961215546e+01
2.048825700344e+01
1.800755416553e+01
2.017539468198e+01
1.225750042102e+01
1.590599700812e+01
1.831610003419e+00
-2.298470064988e+01
2.060519076405e+01
1.665436099754e+01
2.861072919121e+00
1.876891951558e+01
2.000999271641e+01
1.975544763460e+01
1.997868458675e+01
1.599615961724e+01
-9.092233077141e+00
2.066806396080e+01
2.012334511041e+01
2.064889295251e+01
1.661549211854e+01
2.045413858465e+01
3.536344308562e+00
1.980856283299e+01
-2.467227902094e+01
2.052445678019e+01
1.993791619783e+01
-2.512118680514e+01
1.976194964047e+01
1.889378542539e+01
1.997019169888e+01
2.044619702374e+01
1.836053927399e+01
2.003891878690e+01
1.977504668753e+01
1.862123047146e+01
1.985489155466e+01
1.750952217363e+01
1.599301090993e+01
2.007487680087e+01
1.997741320840e+01
-5.926090440380e+01
1.601497132224e+01
2.055888770214e+01
8.073203014357e+00
2.055403030168e+01
1.972180965286e+01
1.993944982305e+01
7.275219028730e+00
-6.585195502802e-01
1.975873269256e+01
1.930462655328e+01
-5.092913667543e+01
1.998616158716e+01
1.822359065108e+01
6.966281616725e+00
1.787388081195e+01
2.014917235641e+01
1.985684708070e+01
-4.027654845533e+01
1.704171587197e+01
1.930035605470e+01
1.990889476862e+01
2.015547787997e+01
1.922238291197e+01
1.940024657531e+01
-8.555346022218e+00
2.064017871326e+01
1.972101611976e+01
6.032625558073e+00
1.996322442724e+01
2.054401035915e+01
1.665908056663e+01
1.821813990578e+01
1.913946306526e+01
1.921548223537e+01
1.952722583047e+01
2.039460702970e+01
3.103411583333e+00
1.984262688154e+01
1.726892133649e+01
1.993905479985e+01
2.036808859997e+01
1.785310336847e+01
1.967959379128e+01
2.019661843316e+01
2.030562076751e+01
-2.924652147466e+01
1.966831645657e+01
1.982470303613e+01
-7.943088291068e+00
1.887048717387e+01
-3.007281382040e+01
1.981781835897e+01
-5.015069245517e+01
-5.534622972420e+01
-5.506051460767e+01
-5.560251351230e+01
-5.536555873861e+01
-5.552978674314e+01
-5.542883036803e+01
-5.548615476590e+01
-5.544691996652e+01
-5.546315603633e+01
-5.544327660320e+01
-5.545160415891e+01
-5.542704521675e+01
-5.544637381034e+01
-5.540227475805e+01
-5.544472992533e+01
-5.537054238766e+01
-5.544549460841e+01
-5.533211593923e+01
-5.544836125826e+01
-4.738472787855e+01
-5.528651057673e+01
-5.545337228648e+01
-5.523259611384e+01
8.616069906838e+01
-5.545921044939e+01
-5.516891515278e+01
-5.202943567782e+01
-5.546730235056e+01
-5.509429949305e+01
-5.544232278773e+01
-5.500770454443e+01
-5.536467878495e+01
-5.490795007701e+01
-5.527212632080e+01
-5.478247574126e+01
-5.520345489509e+01
-4.259099852083e+01
-5.459823562771e+01
-5.508663585213e+01
-5.440579400710e+01
-5.508491957875e+01
-5.486354645407e+01
-5.420635737148e+01
-5.509318197826e+01
-5.402061581130e+01
-5.444319441940e+01
-5.383809322817e+01
-5.545254680935e+01
-5.301633229289e+01
-5.373462255497e+01
-5.349231686802e+01
8.999999999514e+01
-5.416332087768e+01
-4.923537139799e+01
8.999999999514e+01
-3.985093873453e+01
-5.565877309650e+01
-1.876212721040e+01
-1.678032139013e+01
-1.679363871521e+01
-1.662447201974e+01
-1.667346760817e+01
-1.658341274804e+01
-1.663790157845e+01
-1.655173599923e+01
-1.661041272171e+01
-1.652178804173e+01
-1.658603406542e+01
-1.649193955715e+01
-1.656300378404e+01
-1.646093552015e+01
-1.653963762928e+01
-1.642777204417e+01
-1.651424700501e+01
-1.639190666596e+01
-1.648580648600e+01
-1.351826717251e+01
-1.635308594792e+01
-1.645352247464e+01
-1.631127381439e+01
-1.576027759676e+01
-1.641690424091e+01
-1.626574728632e+01
-1.637390205292e+01
-1.621720571660e+01
-1.632357968647e+01
-2.163993663850e+01
-1.616594679598e+01
-1.626499454363e+01
-1.611743143849e+01
-1.620441585645e+01
-1.606788953083e+01
-1.609694532223e+01
-1.603407975241e+01
-1.589685149069e+01
-1.599249008252e+01
-1.566679296751e+01
-1.600437713012e+01
-1.305814768168e+01
-1.595434981366e+01
-1.558279579227e+01
-1.606515515947e+01
-1.528407774463e+01
-1.591692812182e+01
-1.559030020505e+01
-1.480077082823e+01
-2.447758015446e+01
-1.572761166919e+01
-1.841165978653e+01
-1.190918382017e+01
-2.394910516173e+01
-2.095517263377e+01
-9.087766562336e-01
-1.763769680137e+00
-1.785742950798e+00
-1.830979986739e+00
-1.830423464059e+00
-1.822327948068e+00
-1.818793305967e+00
-1.807256103292e+00
-1.803540644947e+00
-1.791654703905e+00
-1.789099126318e+00
-1.776327904595e+00
-1.776005300682e+00
-1.761324516402e+00
-1.764070062690e+00
-1.745268234662e+00
-1.752281645087e+00
-1.727676693968e+00
-5.077859106542e-01
-1.740360430270e+00
-1.708056948583e+00
-1.728340296230e+00
-3.969149704796e+00
-1.686711198085e+00
-1.675278669084e+00
-1.716954620205e+00
-1.664270802299e+00
-1.705952345135e+00
-1.635251706108e+00
-1.693898000687e+00
-1.605440548626e+00
-1.682420126828e+00
-1.564343584625e+00
-5.629128035933e-01
-1.674484527951e+00
-1.543308428616e+00
-1.673633936997e+00
-1.484385627611e+00
-1.501501869836e+00
-1.680266790260e+00
-1.374248957303e+00
-1.696040597913e+00
-1.521556301436e+00
-1.126173082459e+00
-1.721236582468e+00
-1.753184535051e+00
-5.210582205718e+00
-2.002653951863e+00
-7.955302441581e-01
-4.184153476103e+00
7.523756258888e-01
-4.121340912094e+00
4.860839269273e+00
5.301641847747e+00
5.312975281062e+00
5.326425239667e+00
5.332336496885e+00
5.328973902263e+00
5.336829719715e+00
5.333113829520e+00
5.343522471418e+00
5.337399663247e+00
5.350748579621e+00
5.340832803760e+00
5.357594509163e+00
5.341697804887e+00
5.362542390500e+00
5.340712976761e+00
5.367158711652e+00
5.841423158271e+00
5.338798515873e+00
5.372053816565e+00
5.173167813885e+00
5.336292706209e+00
5.377749323205e+00
5.331722434373e+00
5.382699472170e+00
5.323338038518e+00
3.978147909363e+00
5.384869651854e+00
5.313732080149e+00
5.392524452993e+00
5.306534573264e+00
5.400252204607e+00
5.297020899037e+00
5.419286197497e+00
5.284551565257e+00
5.409321837450e+00
5.259434968324e+00
5.731256037922e+00
5.239405655922e+00
5.452373020825e+00
5.184498797493e+00
5.378391284571e+00
5.542524818379e+00
3.306353257136e+00
5.593817354009e+00
4.824563377247e+00
6.459719327008e+00
3.746835205338e+00
3.775190128477e+00
9.650318130853e+00
9.379684460504e+00
9.364755667864e+00
9.351191858609e+00
9.342094195301e+00
9.348523693728e+00
9.338644038890e+00
9.349027784149e+00
9.336412567752e+00
9.350013119095e+00
9.334147999880e+00
9.351547160749e+00
9.331121395644e+00
9.349743130578e+00
9.323808148958e+00
9.345556542031e+00
9.591561514444e+00
9.313117809982e+00
9.342404010044e+00
8.378379928491e+00
9.303985893067e+00
9.340096648297e+00
9.113402288070e+00
9.293434200689e+00
9.336196735734e+00
9.278657241232e+00
9.328727490791e+00
9.259265175815e+00
9.314303708258e+00
9.468476196445e+00
9.237023122532e+00
9.321999327582e+00
9.227719159925e+00
9.305567129224e+00
9.343670885365e+00
9.207486906142e+00
9.258950074487e+00
9.202718698961e+00
9.371944932083e+00
9.119973467905e+00
7.976773495695e+00
9.231437263377e+00
9.742427672541e+00
8.609986014320e+00
1.021953441806e+01
8.211333062883e+00
1.178133682835e+01
1.195895388351e+01
1.196463789409e+01
1.196021556732e+01
1.196479975898e+01
1.195866999114e+01
1.196378901252e+01
1.195165957287e+01
1.195978122424e+01
1.194626399498e+01
1.195665120963e+01
1.193989744452e+01
1.195397663480e+01
1.193351294302e+01
1.194756865892e+01
1.204360845414e+01
1.191521986265e+01
1.171765467226e+01
1.193369691932e+01
1.190353585246e+01
1.192739804489e+01
1.189361831264e+01
1.192082705971e+01
1.187603401964e+01
1.119555415635e+01
1.190843520762e+01
1.185591052569e+01
1.189405305739e+01
1.183260178564e+01
1.186604571655e+01
1.180433005066e+01
1.188052420720e+01
1.181266161391e+01
1.174755048987e+01
1.184567602519e+01
1.193655031400e+01
1.190824417223e+01
1.092837942331e+01
1.211154485914e+01
1.172391778727e+01
1.244393992733e+01
1.133587429625e+01
1.105921083295e+01
1.392146804530e+01
1.377176371964e+01
1.375587274624e+01
1.374787350056e+01
1.373933411898e+01
1.375013730589e+01
1.374107841642e+01
1.373922094531e+01
1.372401671494e+01
1.373628616139e+01
1.372124913054e+01
1.372844864309e+01
1.370804150296e+01
1.377990282000e+01
1.372944670921e+01
1.370311867817e+01
1.315381965013e+01
1.370428010344e+01
1.367816794486e+01
1.352308654059e+01
1.369723204853e+01
1.367049942951e+01
1.369430659469e+01
1.365745594644e+01
1.367719912746e+01
1.366743707437e+01
1.363283012804e+01
1.366129297739e+01
1.365241883493e+01
1.361618033560e+01
1.359169419040e+01
1.360342910935e+01
1.367343029781e+01
1.354100662865e+01
1.295076916283e+01
1.365403344305e+01
1.398841156877e+01
1.340739287541e+01
1.417874285986e+01
1.303713549513e+01
1.502969849691e+01
1.506569334700e+01
1.507507367244e+01
1.508650110473e+01
1.507662853858e+01
1.508859841525e+01
1.508634512107e+01
1.506060581032e+01
1.505952567639e+01
1.506238851432e+01
1.506523481225e+01
1.505291681348e+01
1.508566241318e+01
1.504849193329e+01
1.493260533330e+01
1.501823951308e+01
1.504856091433e+01
1.503258802748e+01
1.502008074766e+01
1.501902321557e+01
1.502177914118e+01
1.499724648708e+01
1.459799546440e+01
1.501271624471e+01
1.497468552735e+01
1.498431793946e+01
1.494715808283e+01
1.493049372595e+01
1.497118982454e+01
1.498315091053e+01
1.498375564197e+01
1.443896825415e+01
1.515306552875e+01
1.499221650420e+01
1.537678550038e+01
1.474522438819e+01
1.450533454741e+01


