# vtk DataFile Version 2.0
Calculation  at time 4.000000000000e+00 
ASCII
DATASET UNSTRUCTURED_GRID
Field FieldData 1
Time 1 1 double
4.000000000000e+00

POINTS 1191 float
0.0 0.0 0.0 
5.000000000000e+01 -1.000000000000e+01 0.0 
0.0 -2.000000000000e+01 0.0 
5.000000000000e+01 -2.000000000000e+01 0.0 
0.0 -9.999999999991e-01 0.0 
0.0 -1.999999999998e+00 0.0 
0.0 -2.999999999997e+00 0.0 
0.0 -3.999999999994e+00 0.0 
0.0 -4.999999999991e+00 0.0 
0.0 -5.999999999988e+00 0.0 
0.0 -6.999999999985e+00 0.0 
0.0 -7.999999999982e+00 0.0 
0.0 -8.999999999983e+00 0.0 
0.0 -9.999999999985e+00 0.0 
0.0 -1.099999999999e+01 0.0 
0.0 -1.199999999999e+01 0.0 
0.0 -1.299999999999e+01 0.0 
0.0 -1.399999999999e+01 0.0 
0.0 -1.499999999999e+01 0.0 
0.0 -1.599999999999e+01 0.0 
0.0 -1.700000000000e+01 0.0 
0.0 -1.800000000000e+01 0.0 
0.0 -1.900000000000e+01 0.0 
4.900000000001e+01 -2.000000000000e+01 0.0 
4.800000000001e+01 -2.000000000000e+01 0.0 
4.700000000002e+01 -2.000000000000e+01 0.0 
4.600000000003e+01 -2.000000000000e+01 0.0 
4.500000000004e+01 -2.000000000000e+01 0.0 
4.400000000004e+01 -2.000000000000e+01 0.0 
4.300000000005e+01 -2.000000000000e+01 0.0 
4.200000000006e+01 -2.000000000000e+01 0.0 
4.100000000006e+01 -2.000000000000e+01 0.0 
4.000000000007e+01 -2.000000000000e+01 0.0 
3.900000000008e+01 -2.000000000000e+01 0.0 
3.800000000009e+01 -2.000000000000e+01 0.0 
3.700000000009e+01 -2.000000000000e+01 0.0 
3.600000000010e+01 -2.000000000000e+01 0.0 
3.500000000011e+01 -2.000000000000e+01 0.0 
3.400000000011e+01 -2.000000000000e+01 0.0 
3.300000000012e+01 -2.000000000000e+01 0.0 
3.200000000013e+01 -2.000000000000e+01 0.0 
3.100000000013e+01 -2.000000000000e+01 0.0 
3.000000000013e+01 -2.000000000000e+01 0.0 
2.900000000013e+01 -2.000000000000e+01 0.0 
2.800000000013e+01 -2.000000000000e+01 0.0 
2.700000000013e+01 -2.000000000000e+01 0.0 
2.600000000013e+01 -2.000000000000e+01 0.0 
2.500000000013e+01 -2.000000000000e+01 0.0 
2.400000000013e+01 -2.000000000000e+01 0.0 
2.300000000013e+01 -2.000000000000e+01 0.0 
2.200000000013e+01 -2.000000000000e+01 0.0 
2.100000000013e+01 -2.000000000000e+01 0.0 
2.000000000013e+01 -2.000000000000e+01 0.0 
1.900000000013e+01 -2.000000000000e+01 0.0 
1.800000000013e+01 -2.000000000000e+01 0.0 
1.700000000012e+01 -2.000000000000e+01 0.0 
1.600000000011e+01 -2.000000000000e+01 0.0 
1.500000000011e+01 -2.000000000000e+01 0.0 
1.400000000010e+01 -2.000000000000e+01 0.0 
1.300000000009e+01 -2.000000000000e+01 0.0 
1.200000000009e+01 -2.000000000000e+01 0.0 
1.100000000008e+01 -2.000000000000e+01 0.0 
1.000000000007e+01 -2.000000000000e+01 0.0 
9.000000000064e+00 -2.000000000000e+01 0.0 
8.000000000057e+00 -2.000000000000e+01 0.0 
7.000000000050e+00 -2.000000000000e+01 0.0 
6.000000000043e+00 -2.000000000000e+01 0.0 
5.000000000036e+00 -2.000000000000e+01 0.0 
4.000000000028e+00 -2.000000000000e+01 0.0 
3.000000000021e+00 -2.000000000000e+01 0.0 
2.000000000014e+00 -2.000000000000e+01 0.0 
1.000000000007e+00 -2.000000000000e+01 0.0 
5.000000000000e+01 -1.100000000000e+01 0.0 
5.000000000000e+01 -1.200000000000e+01 0.0 
5.000000000000e+01 -1.300000000000e+01 0.0 
5.000000000000e+01 -1.400000000000e+01 0.0 
5.000000000000e+01 -1.500000000000e+01 0.0 
5.000000000000e+01 -1.600000000000e+01 0.0 
5.000000000000e+01 -1.700000000000e+01 0.0 
5.000000000000e+01 -1.800000000000e+01 0.0 
5.000000000000e+01 -1.900000000000e+01 0.0 
2.000000000000e+01 0.0 0.0 
3.500000000000e+01 -1.000000000000e+01 0.0 
2.150000000000e+01 -1.000000000000e+00 0.0 
2.300000000000e+01 -2.000000000000e+00 0.0 
2.450000000000e+01 -3.000000000000e+00 0.0 
2.600000000000e+01 -4.000000000000e+00 0.0 
2.750000000000e+01 -5.000000000000e+00 0.0 
2.900000000000e+01 -6.000000000000e+00 0.0 
3.050000000000e+01 -7.000000000000e+00 0.0 
3.200000000000e+01 -8.000000000000e+00 0.0 
3.350000000000e+01 -9.000000000000e+00 0.0 
5.000000000000e+01 -3.000000000000e+00 0.0 
5.000000000000e+01 -4.000000000000e+00 0.0 
5.000000000000e+01 -5.000000000000e+00 0.0 
5.000000000000e+01 -6.000000000000e+00 0.0 
5.000000000000e+01 -7.000000000000e+00 0.0 
5.000000000000e+01 -8.000000000000e+00 0.0 
5.000000000000e+01 -9.000000000000e+00 0.0 
4.900000000000e+01 -1.000000000000e+01 0.0 
4.800000000000e+01 -1.000000000000e+01 0.0 
4.700000000000e+01 -1.000000000000e+01 0.0 
4.600000000000e+01 -1.000000000000e+01 0.0 
4.500000000000e+01 -1.000000000000e+01 0.0 
4.400000000000e+01 -1.000000000000e+01 0.0 
4.300000000000e+01 -1.000000000000e+01 0.0 
4.200000000000e+01 -1.000000000000e+01 0.0 
4.100000000000e+01 -1.000000000000e+01 0.0 
4.000000000000e+01 -1.000000000000e+01 0.0 
3.900000000000e+01 -1.000000000000e+01 0.0 
3.800000000000e+01 -1.000000000000e+01 0.0 
3.700000000000e+01 -1.000000000000e+01 0.0 
3.600000000000e+01 -1.000000000000e+01 0.0 
1.900000000000e+01 0.0 0.0 
1.800000000000e+01 0.0 0.0 
1.700000000000e+01 0.0 0.0 
1.600000000000e+01 0.0 0.0 
1.500000000000e+01 0.0 0.0 
1.400000000000e+01 0.0 0.0 
1.300000000000e+01 0.0 0.0 
1.200000000000e+01 0.0 0.0 
1.100000000000e+01 0.0 0.0 
1.000000000000e+01 0.0 0.0 
9.000000000000e+00 0.0 0.0 
8.000000000000e+00 0.0 0.0 
7.000000000000e+00 0.0 0.0 
6.000000000000e+00 0.0 0.0 
5.000000000000e+00 0.0 0.0 
4.000000000000e+00 0.0 0.0 
3.000000000000e+00 0.0 0.0 
2.000000000000e+00 0.0 0.0 
1.000000000000e+00 0.0 0.0 
2.548076923077e+01 -3.000000000000e+00 0.0 
2.646153846153e+01 -3.000000000000e+00 0.0 
2.744230769230e+01 -3.000000000000e+00 0.0 
2.842307692306e+01 -3.000000000000e+00 0.0 
2.940384615383e+01 -3.000000000000e+00 0.0 
3.038461538459e+01 -3.000000000000e+00 0.0 
3.136538461536e+01 -3.000000000000e+00 0.0 
3.234615384612e+01 -3.000000000000e+00 0.0 
3.332692307687e+01 -3.000000000000e+00 0.0 
3.430769230762e+01 -3.000000000000e+00 0.0 
3.528846153837e+01 -3.000000000000e+00 0.0 
3.626923076912e+01 -3.000000000000e+00 0.0 
3.724999999988e+01 -3.000000000000e+00 0.0 
3.823076923065e+01 -3.000000000000e+00 0.0 
3.921153846143e+01 -3.000000000000e+00 0.0 
4.019230769221e+01 -3.000000000000e+00 0.0 
4.117307692299e+01 -3.000000000000e+00 0.0 
4.215384615377e+01 -3.000000000000e+00 0.0 
4.313461538455e+01 -3.000000000000e+00 0.0 
4.411538461533e+01 -3.000000000000e+00 0.0 
4.509615384611e+01 -3.000000000000e+00 0.0 
4.607692307688e+01 -3.000000000000e+00 0.0 
4.705769230766e+01 -3.000000000000e+00 0.0 
4.803846153844e+01 -3.000000000000e+00 0.0 
4.901923076922e+01 -3.000000000000e+00 0.0 
4.900000000000e+01 -4.000000000000e+00 0.0 
4.800000000000e+01 -4.000000000000e+00 0.0 
4.700000000000e+01 -4.000000000000e+00 0.0 
4.600000000000e+01 -4.000000000000e+00 0.0 
4.500000000000e+01 -4.000000000000e+00 0.0 
4.400000000000e+01 -4.000000000000e+00 0.0 
4.300000000000e+01 -4.000000000000e+00 0.0 
4.200000000000e+01 -4.000000000000e+00 0.0 
4.100000000000e+01 -4.000000000000e+00 0.0 
4.000000000000e+01 -4.000000000000e+00 0.0 
3.900000000000e+01 -4.000000000000e+00 0.0 
3.800000000000e+01 -4.000000000000e+00 0.0 
3.700000000000e+01 -4.000000000000e+00 0.0 
3.600000000000e+01 -4.000000000000e+00 0.0 
3.500000000000e+01 -4.000000000000e+00 0.0 
3.400000000000e+01 -4.000000000000e+00 0.0 
3.300000000000e+01 -4.000000000000e+00 0.0 
3.200000000000e+01 -4.000000000000e+00 0.0 
3.100000000000e+01 -4.000000000000e+00 0.0 
3.000000000000e+01 -4.000000000000e+00 0.0 
2.900000000000e+01 -4.000000000000e+00 0.0 
2.800000000000e+01 -4.000000000000e+00 0.0 
2.700000000000e+01 -4.000000000000e+00 0.0 
2.847826086957e+01 -5.000000000000e+00 0.0 
2.945652173913e+01 -5.000000000000e+00 0.0 
3.043478260870e+01 -5.000000000000e+00 0.0 
3.141304347826e+01 -5.000000000000e+00 0.0 
3.239130434783e+01 -5.000000000000e+00 0.0 
3.336956521739e+01 -5.000000000000e+00 0.0 
3.434782608696e+01 -5.000000000000e+00 0.0 
3.532608695652e+01 -5.000000000000e+00 0.0 
3.630434782609e+01 -5.000000000000e+00 0.0 
3.728260869565e+01 -5.000000000000e+00 0.0 
3.826086956522e+01 -5.000000000000e+00 0.0 
3.923913043478e+01 -5.000000000000e+00 0.0 
4.021739130435e+01 -5.000000000000e+00 0.0 
4.119565217391e+01 -5.000000000000e+00 0.0 
4.217391304348e+01 -5.000000000000e+00 0.0 
4.315217391304e+01 -5.000000000000e+00 0.0 
4.413043478261e+01 -5.000000000000e+00 0.0 
4.510869565217e+01 -5.000000000000e+00 0.0 
4.608695652174e+01 -5.000000000000e+00 0.0 
4.706521739130e+01 -5.000000000000e+00 0.0 
4.804347826087e+01 -5.000000000000e+00 0.0 
4.902173913043e+01 -5.000000000000e+00 0.0 
4.900000000001e+01 -6.000000000000e+00 0.0 
4.800000000003e+01 -6.000000000000e+00 0.0 
4.700000000004e+01 -6.000000000000e+00 0.0 
4.600000000006e+01 -6.000000000000e+00 0.0 
4.500000000007e+01 -6.000000000000e+00 0.0 
4.400000000009e+01 -6.000000000000e+00 0.0 
4.300000000010e+01 -6.000000000000e+00 0.0 
4.200000000012e+01 -6.000000000000e+00 0.0 
4.100000000013e+01 -6.000000000000e+00 0.0 
4.000000000014e+01 -6.000000000000e+00 0.0 
3.900000000014e+01 -6.000000000000e+00 0.0 
3.800000000012e+01 -6.000000000000e+00 0.0 
3.700000000010e+01 -6.000000000000e+00 0.0 
3.600000000008e+01 -6.000000000000e+00 0.0 
3.500000000006e+01 -6.000000000000e+00 0.0 
3.400000000005e+01 -6.000000000000e+00 0.0 
3.300000000003e+01 -6.000000000000e+00 0.0 
3.200000000001e+01 -6.000000000000e+00 0.0 
3.100000000000e+01 -6.000000000000e+00 0.0 
3.000000000000e+01 -6.000000000000e+00 0.0 
3.147499999998e+01 -7.000000000000e+00 0.0 
3.244999999998e+01 -7.000000000000e+00 0.0 
3.342499999998e+01 -7.000000000000e+00 0.0 
3.439999999998e+01 -7.000000000000e+00 0.0 
3.537499999998e+01 -7.000000000000e+00 0.0 
3.634999999998e+01 -7.000000000000e+00 0.0 
3.732499999998e+01 -7.000000000000e+00 0.0 
3.829999999998e+01 -7.000000000000e+00 0.0 
3.927499999999e+01 -7.000000000000e+00 0.0 
4.024999999999e+01 -7.000000000000e+00 0.0 
4.122499999999e+01 -7.000000000000e+00 0.0 
4.219999999999e+01 -7.000000000000e+00 0.0 
4.317499999999e+01 -7.000000000000e+00 0.0 
4.414999999999e+01 -7.000000000000e+00 0.0 
4.512499999999e+01 -7.000000000000e+00 0.0 
4.609999999999e+01 -7.000000000000e+00 0.0 
4.707500000000e+01 -7.000000000000e+00 0.0 
4.805000000000e+01 -7.000000000000e+00 0.0 
4.902500000000e+01 -7.000000000000e+00 0.0 
4.900000000000e+01 -8.000000000000e+00 0.0 
4.800000000000e+01 -8.000000000000e+00 0.0 
4.700000000000e+01 -8.000000000000e+00 0.0 
4.600000000000e+01 -8.000000000000e+00 0.0 
4.500000000000e+01 -8.000000000000e+00 0.0 
4.400000000000e+01 -8.000000000000e+00 0.0 
4.300000000000e+01 -8.000000000000e+00 0.0 
4.200000000000e+01 -8.000000000000e+00 0.0 
4.100000000000e+01 -8.000000000000e+00 0.0 
4.000000000000e+01 -8.000000000000e+00 0.0 
3.900000000000e+01 -8.000000000000e+00 0.0 
3.800000000000e+01 -8.000000000000e+00 0.0 
3.700000000000e+01 -8.000000000000e+00 0.0 
3.600000000000e+01 -8.000000000000e+00 0.0 
3.500000000000e+01 -8.000000000000e+00 0.0 
3.400000000000e+01 -8.000000000000e+00 0.0 
3.300000000000e+01 -8.000000000000e+00 0.0 
3.447058823527e+01 -9.000000000000e+00 0.0 
3.544117647055e+01 -9.000000000000e+00 0.0 
3.641176470582e+01 -9.000000000000e+00 0.0 
3.738235294109e+01 -9.000000000000e+00 0.0 
3.835294117637e+01 -9.000000000000e+00 0.0 
3.932352941164e+01 -9.000000000000e+00 0.0 
4.029411764691e+01 -9.000000000000e+00 0.0 
4.126470588219e+01 -9.000000000000e+00 0.0 
4.223529411748e+01 -9.000000000000e+00 0.0 
4.320588235279e+01 -9.000000000000e+00 0.0 
4.417647058811e+01 -9.000000000000e+00 0.0 
4.514705882342e+01 -9.000000000000e+00 0.0 
4.611764705874e+01 -9.000000000000e+00 0.0 
4.708823529405e+01 -9.000000000000e+00 0.0 
4.805882352937e+01 -9.000000000000e+00 0.0 
4.902941176468e+01 -9.000000000000e+00 0.0 
2.075000000000e+01 -5.000000000006e-01 0.0 
2.225000000000e+01 -1.500000000000e+00 0.0 
2.375000000000e+01 -2.500000000000e+00 0.0 
2.525000000000e+01 -3.500000000000e+00 0.0 
2.675000000000e+01 -4.500000000000e+00 0.0 
2.825000000000e+01 -5.500000000000e+00 0.0 
2.975000000000e+01 -6.500000000000e+00 0.0 
3.125000000000e+01 -7.500000000000e+00 0.0 
3.275000000000e+01 -8.500000000000e+00 0.0 
3.425000000000e+01 -9.500000000000e+00 0.0 
2.226951693683e+01 -2.403913980114e+00 0.0 
1.650149491944e+01 -1.913490915758e+01 0.0 
1.050042386896e+01 -8.504605092970e-01 0.0 
1.553146524712e+01 -8.281255032105e-01 0.0 
1.150000000008e+01 -1.913397459621e+01 0.0 
2.530060260647e+01 -4.428336431260e+00 0.0 
8.651114563942e-01 -1.052096295641e+01 0.0 
2.050000000013e+01 -1.913397459622e+01 0.0 
2.819198729811e+01 -6.399519052838e+00 0.0 
2.445670302931e+01 -1.915649188023e+01 0.0 
3.117591465718e+01 -8.394293040695e+00 0.0 
7.465053044742e+00 -1.920411160581e+01 0.0 
6.398295709691e+00 -8.230098819370e-01 0.0 
2.849659607461e+01 -1.914296187762e+01 0.0 
3.418732642882e+01 -1.040265792588e+01 0.0 
8.386450935063e-01 -6.533605142809e+00 0.0 
9.178661865596e-01 -1.329769195597e+01 0.0 
3.149448624493e+01 -1.910466733764e+01 0.0 
3.552916747426e+01 -1.914628590759e+01 0.0 
4.449210346537e+01 -1.914359085008e+01 0.0 
4.140975975145e+01 -1.906941860733e+01 0.0 
3.847475958753e+01 -1.916622382724e+01 0.0 
3.653774794640e+01 -1.088712800241e+01 0.0 
4.047886341787e+01 -1.090139014048e+01 0.0 
4.348006339825e+01 -1.092792621489e+01 0.0 
4.919519968029e+01 -1.451526755068e+01 0.0 
4.500000000032e+00 -1.913397459621e+01 0.0 
1.856136921614e+01 -8.212235170404e-01 0.0 
3.499895312306e+00 -8.661165539723e-01 0.0 
9.076088696565e-01 -1.642306201891e+01 0.0 
4.655174095477e+01 -1.086183387525e+01 0.0 
9.430688970604e-01 -3.496112672958e+00 0.0 
3.353992337063e+01 -1.901202090820e+01 0.0 
2.249746016977e+01 -1.921262287282e+01 0.0 
2.650122741777e+01 -1.916123026018e+01 0.0 
1.863571384842e+01 -1.908325534840e+01 0.0 
1.450089971693e+01 -1.917691901860e+01 0.0 
1.350044695317e+01 -8.659695299584e-01 0.0 
3.849987469880e+01 -1.084154983397e+01 0.0 
9.454419857884e+00 -1.900818879936e+01 0.0 
4.917398660523e+01 -1.645692866081e+01 0.0 
8.500000000000e+00 -8.660254037844e-01 0.0 
8.660319230785e-01 -8.500111697188e+00 0.0 
4.649022621545e+01 -1.930506220113e+01 0.0 
2.667688107845e+01 -5.420288124331e+00 0.0 
2.379251615665e+01 -3.412225477429e+00 0.0 
2.966631491830e+01 -7.389030232731e+00 0.0 
3.267915035995e+01 -9.396934932445e+00 0.0 
2.074836922338e+01 -1.320054020319e+00 0.0 
4.915985743621e+01 -1.261973384855e+01 0.0 
2.527129768623e+00 -1.931592414663e+01 0.0 
1.538676247410e+00 -8.436956619311e-01 0.0 
4.908096641539e+01 -1.842484004551e+01 0.0 
3.478612492673e+01 -1.090889364140e+01 0.0 
3.409757055860e+01 -1.131991530427e+01 0.0 
3.501895309466e+01 -1.177687842717e+01 0.0 
3.407758073088e+01 -1.224293381580e+01 0.0 
3.484541875390e+01 -1.277051428430e+01 0.0 
3.400322025842e+01 -1.319022775640e+01 0.0 
3.321672625034e+01 -1.266779191233e+01 0.0 
3.315244139236e+01 -1.360984106532e+01 0.0 
3.236335186892e+01 -1.308463225210e+01 0.0 
3.478337442841e+01 -1.372341158982e+01 0.0 
3.230105923633e+01 -1.403023731610e+01 0.0 
3.150954055289e+01 -1.350301767700e+01 0.0 
3.144604792090e+01 -1.444931742516e+01 0.0 
3.065653897123e+01 -1.392357262981e+01 0.0 
3.071897610812e+01 -1.297447031198e+01 0.0 
2.986790411740e+01 -1.339226181535e+01 0.0 
2.993181466745e+01 -1.244703272398e+01 0.0 
2.908023061869e+01 -1.286254537734e+01 0.0 
2.901619051372e+01 -1.380881655279e+01 0.0 
2.822986160390e+01 -1.327695262116e+01 0.0 
2.829453476870e+01 -1.233265343811e+01 0.0 
2.744542905518e+01 -1.274510491105e+01 0.0 
2.751120089246e+01 -1.180368086886e+01 0.0 
2.666218649885e+01 -1.221619339205e+01 0.0 
2.672371209234e+01 -1.127125228527e+01 0.0 
2.587763216302e+01 -1.168539979114e+01 0.0 
2.581165585299e+01 -1.262994410089e+01 0.0 
2.502890882577e+01 -1.209827323619e+01 0.0 
2.509631327757e+01 -1.115492410304e+01 0.0 
2.424662989877e+01 -1.156630981079e+01 0.0 
2.431704046904e+01 -1.062389179334e+01 0.0 
2.346445438728e+01 -1.103427680694e+01 0.0 
2.339382552877e+01 -1.197964871788e+01 0.0 
2.260936050780e+01 -1.144513277642e+01 0.0 
2.268075012022e+01 -1.049911928216e+01 0.0 
2.182525737661e+01 -1.090920811464e+01 0.0 
2.189682319817e+01 -9.961716944568e+00 0.0 
2.104174127792e+01 -1.037266986667e+01 0.0 
2.111304367575e+01 -9.424179358711e+00 0.0 
2.025306185381e+01 -9.832727364719e+00 0.0 
2.018141124247e+01 -1.079140628871e+01 0.0 
1.938594498257e+01 -1.025147354112e+01 0.0 
1.946106490453e+01 -9.288010758448e+00 0.0 
1.858929958352e+01 -9.706319802516e+00 0.0 
1.851540991219e+01 -1.067205988724e+01 0.0 
1.771485303178e+01 -1.012504443115e+01 0.0 
1.764134552256e+01 -1.109360378538e+01 0.0 
1.683745148095e+01 -1.054496365337e+01 0.0 
1.691852964353e+01 -9.582555261178e+00 0.0 
1.603603813062e+01 -1.000160132379e+01 0.0 
1.595824239350e+01 -1.096750698862e+01 0.0 
1.515080624291e+01 -1.041639501931e+01 0.0 
1.523171602559e+01 -9.451711491453e+00 0.0 
1.434621060709e+01 -9.871956467464e+00 0.0 
1.426777178765e+01 -1.083749501371e+01 0.0 
1.345775282374e+01 -1.028803175500e+01 0.0 
1.354103873368e+01 -9.324918457162e+00 0.0 
1.265072018622e+01 -9.742612837270e+00 0.0 
1.257285762070e+01 -1.071557782384e+01 0.0 
1.175874815690e+01 -1.015972324288e+01 0.0 
1.184203019714e+01 -9.193604071377e+00 0.0 
1.094927709905e+01 -9.612103238656e+00 0.0 
1.086938022910e+01 -1.058685085646e+01 0.0 
1.005424098961e+01 -1.002939116380e+01 0.0 
9.977974613295e+00 -1.101324897989e+01 0.0 
1.012915646404e+01 -9.051815821181e+00 0.0 
9.237127782494e+00 -9.471239055559e+00 0.0 
9.308426593771e+00 -8.483376461131e+00 0.0 
8.418806073345e+00 -8.910712374517e+00 0.0 
2.253688464062e+01 -1.239459402279e+01 0.0 
8.495126726666e+00 -7.921646665254e+00 0.0 
9.389727383206e+00 -7.512103628377e+00 0.0 
7.601560812974e+00 -8.349460349344e+00 0.0 
7.525680547759e+00 -9.339736686940e+00 0.0 
7.677888324502e+00 -7.359727833346e+00 0.0 
6.782001206724e+00 -7.788454494773e+00 0.0 
6.858778622885e+00 -6.797338062822e+00 0.0 
2.196596590865e+01 -8.979025665442e+00 0.0 
2.816540108272e+01 -1.422634142353e+01 0.0 
5.961601194403e+00 -7.226824010712e+00 0.0 
6.038171749656e+00 -6.234825887079e+00 0.0 
6.936257279557e+00 -5.805287640737e+00 0.0 
6.115068918323e+00 -5.242109758768e+00 0.0 
3.564391741903e+01 -1.329240553876e+01 0.0 
3.558115605778e+01 -1.425902892003e+01 0.0 
3.645445282201e+01 -1.381970786460e+01 0.0 
3.639744204358e+01 -1.479198128612e+01 0.0 
3.727266909778e+01 -1.435399586226e+01 0.0 
5.216667013081e+00 -5.671788584287e+00 0.0 
3.220697293295e+01 -1.499594545107e+01 0.0 
3.551112158269e+01 -1.523479869250e+01 0.0 
2.836056961467e+01 -1.139032434851e+01 0.0 
2.516730388602e+01 -1.021382726837e+01 0.0 
1.844436907403e+01 -1.164097215196e+01 0.0 
5.885434318740e+00 -8.218694781467e+00 0.0 
5.064071066867e+00 -7.656614643901e+00 0.0 
4.988089103470e+00 -8.649722082718e+00 0.0 
1.079421050408e+01 -1.157014985435e+01 0.0 
9.902420005256e+00 -1.199903342656e+01 0.0 
1.071994252214e+01 -1.255727909771e+01 0.0 
9.826974788171e+00 -1.298659581767e+01 0.0 
1.064607883789e+01 -1.354595476388e+01 0.0 
9.751541265343e+00 -1.397556905071e+01 0.0 
8.932296185869e+00 -1.341553353988e+01 0.0 
8.856399248106e+00 -1.440570715508e+01 0.0 
8.036186803543e+00 -1.384470558472e+01 0.0 
1.057112875118e+01 -1.453516759081e+01 0.0 
1.146582585687e+01 -1.410539926903e+01 0.0 
7.959894480382e+00 -1.483563350928e+01 0.0 
7.138792279156e+00 -1.427465094140e+01 0.0 
7.062506792418e+00 -1.526615385482e+01 0.0 
6.240693558277e+00 -1.470508863040e+01 0.0 
6.316957575451e+00 -1.371212581281e+01 0.0 
5.418183007107e+00 -1.414253605022e+01 0.0 
5.494748364428e+00 -1.314886770603e+01 0.0 
1.756825565873e+01 -1.206433872514e+01 0.0 
1.837565773345e+01 -1.261356468266e+01 0.0 
1.749574831391e+01 -1.303769280014e+01 0.0 
1.830539187332e+01 -1.358828364284e+01 0.0 
1.742278925170e+01 -1.401367746928e+01 0.0 
1.823303007798e+01 -1.456432294258e+01 0.0 
1.734941694138e+01 -1.499213734361e+01 0.0 
1.653760041637e+01 -1.443920312098e+01 0.0 
3.056237977307e+01 -1.487132260174e+01 0.0 
1.866469084762e+01 -8.742953000418e+00 0.0 
1.953669694916e+01 -8.326038909849e+00 0.0 
1.874194303780e+01 -7.780688158966e+00 0.0 
1.961032016741e+01 -7.366854697285e+00 0.0 
1.881715755159e+01 -6.821102209649e+00 0.0 
1.968369797150e+01 -6.407747217358e+00 0.0 
1.889237123259e+01 -5.858375520026e+00 0.0 
1.802038875366e+01 -6.276202618170e+00 0.0 
1.809793837984e+01 -5.307629520489e+00 0.0 
1.721985207997e+01 -5.728242054488e+00 0.0 
1.729850893523e+01 -4.756990819347e+00 0.0 
1.641745664240e+01 -5.174636548624e+00 0.0 
2.495978509456e+01 -1.304406404294e+01 0.0 
1.911567814831e+01 -1.413854250293e+01 0.0 
1.904387332608e+01 -1.511463127723e+01 0.0 
1.992115934240e+01 -1.468788025898e+01 0.0 
7.013706899628e+00 -4.812582868662e+00 0.0 
5.342091874585e+00 -1.513658157269e+01 0.0 
1.139098043784e+01 -1.509488509480e+01 0.0 
1.228151810610e+01 -1.465617481983e+01 0.0 
1.646373110164e+01 -1.541993323337e+01 0.0 
5.293328636712e+00 -4.678385108584e+00 0.0 
1.975965862987e+01 -5.448124345648e+00 0.0 
2.054318374236e+01 -5.992561293251e+00 0.0 
3.721453439063e+01 -1.533216152738e+01 0.0 
3.809302733893e+01 -1.489235527381e+01 0.0 
1.220852788900e+01 -1.565304565230e+01 0.0 
4.394120899730e+00 -5.108397613210e+00 0.0 
8.779354620288e+00 -1.539524721159e+01 0.0 
1.817791047702e+01 -4.338570146253e+00 0.0 
4.518860013839e+00 -1.457343189307e+01 0.0 
4.442712140414e+00 -1.556841391069e+01 0.0 
8.115343466391e+00 -1.285760324283e+01 0.0 
1.985334703171e+01 -1.566478400426e+01 0.0 
2.071953850276e+01 -1.522074243119e+01 0.0 
1.634012953883e+01 -6.154777738301e+00 0.0 
1.553479994708e+01 -5.593730508879e+00 0.0 
1.561265946942e+01 -4.617761762647e+00 0.0 
1.470674212978e+01 -5.064576488228e+00 0.0 
1.464498299883e+01 -6.026514471420e+00 0.0 
1.383271561817e+01 -5.467796261169e+00 0.0 
1.389241253067e+01 -4.504338666645e+00 0.0 
1.301868735463e+01 -4.907185188626e+00 0.0 
1.294514184846e+01 -5.888160903592e+00 0.0 
1.212955968622e+01 -5.328262335277e+00 0.0 
1.220721122383e+01 -4.341264976687e+00 0.0 
1.131324345897e+01 -4.766773516508e+00 0.0 
5.266597955397e+00 -1.613148974258e+01 0.0 
1.737805990867e+01 -3.786677807525e+00 0.0 
3.078438094513e+01 -1.203225297748e+01 0.0 
1.131569882285e+01 -1.608511932110e+01 0.0 
1.728478341782e+01 -1.596017432313e+01 0.0 
3.803465906019e+01 -1.587509751228e+01 0.0 
3.891681276677e+01 -1.543395196905e+01 0.0 
3.897340985302e+01 -1.444710288980e+01 0.0 
3.980095968193e+01 -1.499059496613e+01 0.0 
3.974334598189e+01 -1.597921884150e+01 0.0 
4.062964983717e+01 -1.553518690417e+01 0.0 
4.068729602479e+01 -1.454434445295e+01 0.0 
4.151772679790e+01 -1.508974196007e+01 0.0 
4.157505195739e+01 -1.409694289912e+01 0.0 
4.240699932656e+01 -1.464347955968e+01 0.0 
4.234898051011e+01 -1.563721375790e+01 0.0 
4.323934606035e+01 -1.519082036405e+01 0.0 
4.329740528208e+01 -1.419587509788e+01 0.0 
4.413056841369e+01 -1.474359631875e+01 0.0 
4.418850110108e+01 -1.374786684042e+01 0.0 
4.502219770667e+01 -1.429605103525e+01 0.0 
4.496411937907e+01 -1.529215882720e+01 0.0 
4.490027319897e+00 -4.154167794594e+00 0.0 
1.565080385988e+01 -1.486411982419e+01 0.0 
1.557610691279e+01 -1.584855627870e+01 0.0 
4.195350646612e+00 -8.089117689096e+00 0.0 
4.124027797830e+00 -9.082831955007e+00 0.0 
4.917944318925e+00 -9.643530901533e+00 0.0 
4.020105689502e+00 -1.007439673661e+01 0.0 
4.587185899277e+01 -1.484039992728e+01 0.0 
4.580078661551e+01 -1.584043391042e+01 0.0 
2.061956522375e+01 -5.046701343981e+00 0.0 
2.139572955529e+01 -5.579553449826e+00 0.0 
3.715344357292e+01 -1.631485124583e+01 0.0 
3.618886196443e+00 -1.500471207167e+01 0.0 
3.695606940204e+00 -1.400939692294e+01 0.0 
2.438890661143e+01 -9.686110599723e+00 0.0 
2.523267572778e+01 -9.276766000622e+00 0.0 
2.446094171539e+01 -8.751904591412e+00 0.0 
2.529089822738e+01 -8.321495612547e+00 0.0 
2.606882688827e+01 -8.864724051119e+00 0.0 
2.452116646430e+01 -7.792756462004e+00 0.0 
1.235543269617e+01 -1.365845617339e+01 0.0 
4.318116874181e+01 -1.618567469992e+01 0.0 
7.835066111909e+00 -5.376366223896e+00 0.0 
7.905687335704e+00 -4.382539065697e+00 0.0 
3.542640009567e+00 -1.600035116542e+01 0.0 
1.572431503071e+01 -1.388358386695e+01 0.0 
2.574684696680e+01 -1.357896141127e+01 0.0 
2.488842657651e+01 -1.399674354505e+01 0.0 
2.568301775611e+01 -1.453552048595e+01 0.0 
2.481535572009e+01 -1.495542756508e+01 0.0 
2.561729699688e+01 -1.549784648532e+01 0.0 
2.474623061296e+01 -1.592058894178e+01 0.0 
2.394234041695e+01 -1.537572575827e+01 0.0 
2.065825452567e+01 -1.621899055217e+01 0.0 
2.387180528935e+01 -1.634552264687e+01 0.0 
4.585364400844e+01 -1.383912334080e+01 0.0 
1.998744432052e+01 -1.370317155541e+01 0.0 
1.205356951443e+01 -6.313580285498e+00 0.0 
5.396543905849e+00 -3.731818611283e+00 0.0 
1.139652573295e+01 -3.745819399350e+00 0.0 
3.574124306703e+00 -4.551456826011e+00 0.0 
3.494140761930e+00 -5.539787055649e+00 0.0 
1.213651452413e+01 -1.664505033022e+01 0.0 
2.555045568519e+01 -1.646529356744e+01 0.0 
2.641671114986e+01 -1.603899382371e+01 0.0 
2.612920721894e+01 -7.906435260873e+00 0.0 
2.690339829698e+01 -8.456969591431e+00 0.0 
1.978024383368e+01 -1.664410216353e+01 0.0 
3.732829979082e+01 -1.336926601859e+01 0.0 
4.074336584605e+01 -1.355133328401e+01 0.0 
4.163204691081e+01 -1.310280943992e+01 0.0 
3.773826114429e+00 -3.493444309145e+00 0.0 
1.228783001032e+01 -3.374822835872e+00 0.0 
4.057110462520e+01 -1.652588478000e+01 0.0 
2.132535497898e+01 -6.523623360525e+00 0.0 
2.216932532211e+01 -6.110044769206e+00 0.0 
1.825781152128e+01 -3.370146817147e+00 0.0 
1.745679445888e+01 -2.812942552063e+00 0.0 
4.666517057280e+01 -1.539981381543e+01 0.0 
4.660575894464e+01 -1.639014410186e+01 0.0 
4.838230979954e+00 -1.063643436446e+01 0.0 
3.938942630206e+00 -1.106778981745e+01 0.0 
1.302967218620e+01 -1.621373452436e+01 0.0 
1.049548003190e+01 -4.204825123240e+00 0.0 
4.573571907195e+01 -1.683820511148e+01 0.0 
1.483686335807e+01 -1.430849689310e+01 0.0 
1.490982658890e+01 -1.332679386284e+01 0.0 
3.190805600162e+00 -9.510968358545e+00 0.0 
2.146625721848e+01 -4.642437303115e+00 0.0 
2.069866208266e+01 -4.111852942193e+00 0.0 
1.286859345584e+01 -6.873252723348e+00 0.0 
1.041794493184e+01 -5.194814260291e+00 0.0 
2.671081808965e+00 -4.976806516331e+00 0.0 
1.295786792925e+01 -1.720506531799e+01 0.0 
3.968438206511e+01 -1.696869067241e+01 0.0 
2.308550456051e+01 -1.579963151273e+01 0.0 
2.315593682844e+01 -1.482967445235e+01 0.0 
2.299471449450e+01 -1.677069968132e+01 0.0 
1.057344714696e+01 -3.214252277840e+00 0.0 
1.124057603753e+01 -1.707713739755e+01 0.0 
2.718402535754e+00 -1.543629882103e+01 0.0 
2.638549692805e+01 -1.696744916809e+01 0.0 
2.723416349007e+01 -1.658104204545e+01 0.0 
2.210193351704e+01 -7.046769643417e+00 0.0 
2.295180925161e+01 -6.657397605239e+00 0.0 
2.301355235833e+01 -5.709111896800e+00 0.0 
2.379052718281e+01 -6.254965406962e+00 0.0 
3.243528601237e+01 -1.214181853533e+01 0.0 
2.287977995457e+01 -7.583722368300e+00 0.0 
2.999876029544e+01 -1.150837653096e+01 0.0 
3.084435366963e+01 -1.109693775882e+01 0.0 
3.006650579669e+01 -1.057778994262e+01 0.0 
2.683802665066e+01 -9.386863216633e+00 0.0 
2.768641973621e+01 -8.988883915666e+00 0.0 
2.040296980397e+01 -7.903629133404e+00 0.0 
1.925235024054e+01 -1.218872783130e+01 0.0 
5.735667000424e+00 -1.020577277283e+01 0.0 
6.396559909872e+00 -1.272326295703e+01 0.0 
1.161199420714e+01 -1.212812778229e+01 0.0 
4.229046132615e+01 -1.663084237572e+01 0.0 
4.312275399692e+01 -1.718087491556e+01 0.0 
4.335502068163e+01 -1.320039231514e+01 0.0 
4.424630298089e+01 -1.275160688731e+01 0.0 
7.090116643816e+00 -3.818998061530e+00 0.0 
7.989472176569e+00 -3.389238711200e+00 0.0 
9.085824861778e+00 -1.144036167408e+01 0.0 
1.041972423731e+01 -1.651614080893e+01 0.0 
3.797525112640e+01 -1.686052038746e+01 0.0 
3.709114253394e+01 -1.730125999865e+01 0.0 
3.626966748340e+01 -1.675477052919e+01 0.0 
1.385164591440e+01 -1.677597757552e+01 0.0 
1.787152588784e+01 -8.198993896093e+00 0.0 
1.668849729812e+01 -1.248560611628e+01 0.0 
1.659546177905e+01 -3.232482605530e+00 0.0 
2.332214717345e+01 -1.292598167641e+01 0.0 
7.168238450786e+00 -2.824711686516e+00 0.0 
2.894878403906e+01 -1.475427524446e+01 0.0 
2.646763248247e+00 -1.643270107952e+01 0.0 
3.467431944285e+00 -1.699648837348e+01 0.0 
2.059475877282e+01 -1.719473628526e+01 0.0 
3.333868355437e+01 -1.080596971682e+01 0.0 
2.246451062637e+01 -1.334557761546e+01 0.0 
2.167821896388e+01 -1.280847834858e+01 0.0 
3.089653185767e+01 -1.017198487212e+01 0.0 
3.012604365669e+01 -9.657298805968e+00 0.0 
2.929627299435e+01 -1.006100135274e+01 0.0 
2.936201435219e+01 -9.136748899251e+00 0.0 
1.198219052702e+01 -7.291887238230e+00 0.0 
1.116702076035e+01 -6.731976101053e+00 0.0 
2.551388807505e+01 -1.746927036981e+01 0.0 
2.378639090370e+01 -1.728678807149e+01 0.0 
2.718543627188e+01 -1.748668016909e+01 0.0 
2.804681050301e+01 -1.712626668293e+01 0.0 
1.970737034667e+01 -1.762317646822e+01 0.0 
1.889535776135e+01 -1.707158098231e+01 0.0 
2.593777711283e+00 -5.971157087874e+00 0.0 
2.773468281110e+01 -8.067164273938e+00 0.0 
4.051205884347e+01 -1.751819982458e+01 0.0 
3.166903145421e+01 -1.068032992414e+01 0.0 
1.033042452886e+01 -1.748285844336e+01 0.0 
9.519274604626e+00 -1.694349240233e+01 0.0 
1.668308673328e+01 -2.255861778986e+00 0.0 
1.570531902832e+01 -2.676795860126e+00 0.0 
4.655826903379e+01 -1.736656245706e+01 0.0 
2.384148070773e+01 -5.328744256413e+00 0.0 
2.460255123641e+01 -5.852182672816e+00 0.0 
2.306638135119e+01 -4.798935440613e+00 0.0 
8.467720450578e-01 -1.849576263072e+01 0.0 
4.849657322345e+01 -1.084860705506e+01 0.0 
2.565860899507e+00 -1.742859793981e+01 0.0 
2.764418872564e+01 -9.927142821799e+00 0.0 
4.565165880064e+01 -1.785336695404e+01 0.0 
2.162231831329e+01 -1.376528337468e+01 0.0 
2.360646352969e+01 -9.136041963102e+00 0.0 
1.392738739903e+01 -1.578285505772e+01 0.0 
4.756405947478e+01 -1.683706841809e+01 0.0 
4.740895034054e+01 -1.793766756892e+01 0.0 
4.080779328826e+01 -1.257387192544e+01 0.0 
4.168907939671e+01 -1.210739129181e+01 0.0 
3.991197722154e+01 -1.300815793917e+01 0.0 
1.905536506762e+01 -3.940076697685e+00 0.0 
1.923879596617e+01 -2.875000734166e+00 0.0 
4.401386745746e+01 -1.673483229438e+01 0.0 
4.247233362525e+00 -7.094581653070e+00 0.0 
3.286051630211e+00 -7.635300020553e+00 0.0 
9.609533347623e+00 -4.594311677967e+00 0.0 
9.523554636369e+00 -5.595597029530e+00 0.0 
5.660336628893e+00 -1.119290329628e+01 0.0 
6.558070063295e+00 -1.076385809362e+01 0.0 
2.809866407414e+01 -1.518037766799e+01 0.0 
2.888868674504e+01 -1.570360690070e+01 0.0 
2.654431550819e+01 -1.411217777162e+01 0.0 
1.402158265969e+01 -1.375404617952e+01 0.0 
1.409592494026e+01 -1.277071998942e+01 0.0 
1.499355196178e+01 -1.235270737023e+01 0.0 
4.221535326155e+01 -1.759335617494e+01 0.0 
4.305583287033e+01 -1.822663146802e+01 0.0 
1.280748808359e+01 -7.834332838285e+00 0.0 
1.368988389326e+01 -7.420529606172e+00 0.0 
1.110091796060e+01 -7.683966794328e+00 0.0 
3.963446145980e+01 -1.794331310122e+01 0.0 
3.423932362213e+00 -1.796415590455e+01 0.0 
4.280814572302e+00 -1.752272834860e+01 0.0 
8.050136380041e+00 -2.421582378631e+00 0.0 
8.888674091650e+00 -2.984264211327e+00 0.0 
2.152839430898e+01 -3.732609965436e+00 0.0 
2.077799585292e+01 -3.183896021866e+00 0.0 
3.618719395821e+01 -1.770276572576e+01 0.0 
3.538165138340e+01 -1.718709995539e+01 0.0 
3.702925326420e+01 -1.828844288807e+01 0.0 
1.756739438711e+00 -5.353284859169e+00 0.0 
2.233710191104e+01 -1.527265621324e+01 0.0 
1.389483555057e+01 -1.771797164730e+01 0.0 
1.475634224300e+01 -1.728357428390e+01 0.0 
1.298797563052e+01 -1.825968924755e+01 0.0 
2.145331271866e+01 -1.673705379077e+01 0.0 
2.133282821169e+01 -1.769400773673e+01 0.0 
2.292139194136e+01 -1.774915400288e+01 0.0 
1.750750053243e+01 -1.861475593469e+00 0.0 
4.830478841772e+01 -1.752611802221e+01 0.0 
4.341203507805e+01 -1.220326745522e+01 0.0 
1.685254151866e+01 -1.443085301632e+00 0.0 
4.431538535165e+01 -1.171841387375e+01 0.0 
4.511308610496e+01 -1.229557320599e+01 0.0 
4.510133242889e+01 -1.123680627466e+01 0.0 
1.846818030617e+00 -4.410877617069e+00 0.0 
3.995468694584e+01 -1.186571542989e+01 0.0 
3.901387459804e+01 -1.242507616755e+01 0.0 
8.966735877533e+00 -1.837818700423e+00 0.0 
4.049310011091e+01 -1.848269508791e+01 0.0 
7.278862053803e+00 -1.918523922691e+00 0.0 
6.429715522129e+00 -2.316676521184e+00 0.0 
9.443505505022e+00 -1.792198868094e+01 0.0 
8.620386951051e+00 -1.737590365556e+01 0.0 
8.571868171503e+00 -1.834436667826e+01 0.0 
7.758629848526e+00 -1.775677907213e+01 0.0 
7.806648388584e+00 -1.680761266021e+01 0.0 
6.908555145436e+00 -1.723746463044e+01 0.0 
4.251709122090e+01 -1.156937480156e+01 0.0 
6.931136405615e+00 -1.832465719263e+01 0.0 
6.015545461353e+00 -1.768865355295e+01 0.0 
5.960535926343e+00 -1.872011001764e+01 0.0 
3.023253444786e+01 -8.761960642196e+00 0.0 
2.454622702599e+01 -6.749421992767e+00 0.0 
2.537499741604e+01 -6.347634963783e+00 0.0 
2.544077378460e+01 -5.431358513649e+00 0.0 
2.801367161747e+01 -1.820907270221e+01 0.0 
2.884507806914e+01 -1.762032095326e+01 0.0 
1.821474531936e+00 -1.588901260460e+01 0.0 
1.821006262604e+00 -1.489370287756e+01 0.0 
4.599962488908e+01 -1.176478780598e+01 0.0 
4.705457470007e+01 -1.172182804229e+01 0.0 
4.667668314802e+01 -1.263464558483e+01 0.0 
4.759648056504e+01 -1.252380987933e+01 0.0 
4.728041618103e+01 -1.341928568376e+01 0.0 
4.825209352360e+01 -1.330491640804e+01 0.0 
4.778118233428e+01 -1.420151961695e+01 0.0 
2.388192727579e+01 -1.826934810142e+01 0.0 
2.381714684947e+01 -4.385917965223e+00 0.0 
3.172733219247e+01 -9.758744265248e+00 0.0 
1.882012070658e+01 -1.805540597212e+01 0.0 
1.805667505243e+01 -1.742221226236e+01 0.0 
2.852599958080e+01 -8.597196079481e+00 0.0 
2.856486123437e+01 -7.661382718527e+00 0.0 
1.111792842875e+01 -1.818223852980e+01 0.0 
2.203322722466e+01 -7.986646678802e+00 0.0 
3.955703676900e+01 -1.903246763601e+01 0.0 
1.944842206513e+01 -8.038750575182e-01 0.0 
1.909882767783e+01 -1.746322740933e+00 0.0 
2.281147422941e+01 -8.525912918334e+00 0.0 
2.850633001468e+01 -9.533271335986e+00 0.0 
2.532883344309e+01 -7.308951659710e+00 0.0 
2.620475466461e+01 -6.979208585400e+00 0.0 
1.396278270396e+01 -1.475095389807e+01 0.0 
9.791001166724e+00 -2.554159793552e+00 0.0 
2.229293380421e+01 -4.269762271052e+00 0.0 
4.677238984118e+01 -1.430071795514e+01 0.0 
2.228658385918e+01 -3.344747535984e+00 0.0 
8.940223674553e-01 -1.543595733415e+01 0.0 
2.118566862474e+01 -8.435876987696e+00 0.0 
2.678325936437e+01 -1.032621195706e+01 0.0 
2.223400220487e+01 -5.179046761770e+00 0.0 
2.375370625384e+01 -7.251580562134e+00 0.0 
3.156971327386e+01 -1.255534750737e+01 0.0 
3.328226391312e+01 -1.172914813316e+01 0.0 
3.250948774219e+01 -1.120157009348e+01 0.0 
2.032993445717e+01 -8.867880112202e+00 0.0 
2.697226974856e+01 -7.536633082045e+00 0.0 
2.707377810386e+01 -6.590835263295e+00 0.0 
2.914099246827e+01 -1.191678458549e+01 0.0 
3.544824072239e+01 -1.621126558525e+01 0.0 
3.456511855436e+01 -1.665054783843e+01 0.0 
3.448395810225e+01 -1.759117813016e+01 0.0 
3.368378673938e+01 -1.708037781328e+01 0.0 
3.375560452567e+01 -1.610973066913e+01 0.0 
3.288001547988e+01 -1.654324255651e+01 0.0 
3.282475929147e+01 -1.749725654692e+01 0.0 
3.199880906313e+01 -1.697294088625e+01 0.0 
3.197001272932e+01 -1.811667776864e+01 0.0 
3.111884713021e+01 -1.742166785755e+01 0.0 
3.120418962865e+01 -1.642155709385e+01 0.0 
3.034666704371e+01 -1.683123833816e+01 0.0 
3.026224379976e+01 -1.772592851714e+01 0.0 
3.046632362943e+01 -1.582232843075e+01 0.0 
1.961344017324e+01 -1.857459447985e+01 0.0 
2.274975894774e+01 -9.532738811922e+00 0.0 
1.833923246887e+01 -2.396746883672e+00 0.0 
1.988859500848e+01 -2.249244376594e+00 0.0 
2.758045562861e+01 -1.086434261689e+01 0.0 
3.247300178163e+01 -1.909930104252e+01 0.0 
3.461947482503e+01 -1.911879848019e+01 0.0 
2.047161538662e+01 -6.941478180358e+00 0.0 
2.750230940214e+01 -1.915490590764e+01 0.0 
3.165081350803e+01 -1.161860780120e+01 0.0 
1.897456727641e+01 -4.889634688522e+00 0.0 
2.549338539756e+01 -1.914858252089e+01 0.0 
3.462873135081e+01 -1.567482276144e+01 0.0 
3.384432415243e+01 -1.512280684518e+01 0.0 
3.471433767690e+01 -1.469086942990e+01 0.0 
3.651470373046e+01 -1.918207952149e+01 0.0 
3.901742690249e+01 -1.345028556517e+01 0.0 
2.153224102692e+01 -1.920169709333e+01 0.0 
1.918382939341e+01 -1.316226275662e+01 0.0 
2.005389162382e+01 -1.271962165174e+01 0.0 
2.011472087878e+01 -1.175029352900e+01 0.0 
3.210679478412e+01 -1.598038618242e+01 0.0 
1.752175226543e+01 -1.914713022656e+01 0.0 
1.696897240059e+01 -1.832772588765e+01 0.0 
1.599682523337e+01 -1.832599992024e+01 0.0 
1.644507199462e+01 -1.743697981535e+01 0.0 
1.549987712903e+01 -1.915192375101e+01 0.0 
3.050250861901e+01 -1.918943550234e+01 0.0 
2.949944061527e+01 -1.922950455235e+01 0.0 
1.375892575273e+01 -6.447160534926e+00 0.0 
1.457223670180e+01 -7.006709243857e+00 0.0 
1.450818793236e+01 -7.965943451779e+00 0.0 
1.538804712402e+01 -7.553409623699e+00 0.0 
1.545817644768e+01 -6.580929593419e+00 0.0 
1.626506893751e+01 -7.129032608911e+00 0.0 
1.619833811522e+01 -8.086588580887e+00 0.0 
1.714448609609e+01 -6.697429609777e+00 0.0 
2.887616543568e+01 -1.668015232137e+01 0.0 
1.349814589130e+01 -1.918225301544e+01 0.0 
1.153887772210e+01 -1.311384581217e+01 0.0 
1.242708159886e+01 -1.267046795531e+01 0.0 
1.249799674267e+01 -1.169005616014e+01 0.0 
6.631723893693e+00 -9.774184881867e+00 0.0 
7.451471631867e+00 -1.033148796006e+01 0.0 
7.377795355458e+00 -1.132196345268e+01 0.0 
5.810931797536e+00 -9.211654212252e+00 0.0 
2.402683899133e+01 -1.441378562320e+01 0.0 
1.249768692036e+01 -1.917388426624e+01 0.0 
1.580373499437e+01 -1.290751860664e+01 0.0 
8.344650507834e+00 -9.898403995170e+00 0.0 
3.750622115305e+01 -1.086526401533e+01 0.0 
3.699391251667e+01 -1.171695900794e+01 0.0 
3.606517829518e+01 -1.173717504500e+01 0.0 
3.650257641795e+01 -1.270047380221e+01 0.0 
3.808951488918e+01 -1.183518714175e+01 0.0 
4.760380962420e+00 -1.162484888315e+01 0.0 
3.861210370848e+00 -1.205657631736e+01 0.0 
3.038284309476e+00 -1.149851280664e+01 0.0 
2.961598794889e+00 -1.248856794980e+01 0.0 
2.138953225512e+00 -1.193212674534e+01 0.0 
2.227383593457e+00 -1.096258903918e+01 0.0 
2.043265419276e+00 -1.292158472959e+01 0.0 
1.252449446028e+00 -1.225502002753e+01 0.0 
3.949985210740e+01 -1.086594001795e+01 0.0 
1.453499444792e+01 -8.768805922472e-01 0.0 
1.403518950933e+01 -1.749965556633e+00 0.0 
1.300715031023e+01 -1.714737233040e+00 0.0 
1.350929389899e+01 -2.527443911291e+00 0.0 
1.449600910711e+01 -2.595486162864e+00 0.0 
1.395693872901e+01 -3.484211041558e+00 0.0 
1.495105865208e+01 -3.364609636216e+00 0.0 
1.508822528740e+01 -1.766586020494e+00 0.0 
1.250223858430e+01 -8.634590186802e-01 0.0 
1.200279523409e+01 -1.709044504992e+00 0.0 
1.150086239419e+01 -8.592789190668e-01 0.0 
1.101482754194e+01 -1.677730591922e+00 0.0 
1.148018564526e+01 -2.659323866909e+00 0.0 
8.800552119754e+00 -3.989875954728e+00 0.0 
3.452790439430e+00 -1.901136170646e+01 0.0 
8.658451825200e-01 -9.503462241795e+00 0.0 
1.694787786797e+00 -9.000589234502e+00 0.0 
1.703436717094e+00 -8.038819004041e+00 0.0 
2.594197971110e+00 -8.563955242845e+00 0.0 
1.630513735412e+00 -9.907244747511e+00 0.0 
8.566859292791e-01 -7.512203837972e+00 0.0 
1.685461277022e+00 -7.164280248030e+00 0.0 
2.506394468801e+00 -8.623386730818e-01 0.0 
2.007475081581e+00 -1.727729545205e+00 0.0 
9.211534699767e-01 -1.628791366312e+00 0.0 
1.500000000020e+00 -2.598063549486e+00 0.0 
2.482078929963e+00 -2.553580088725e+00 0.0 
2.999795253092e+00 -1.732169015019e+00 0.0 
3.999712607169e+00 -1.728832897453e+00 0.0 
4.499752199340e+00 -8.656478679175e-01 0.0 
4.964377774841e+00 -1.730129617941e+00 0.0 
4.425017908337e+00 -2.597541756243e+00 0.0 
5.446573195014e+00 -8.410144840023e-01 0.0 
4.915722346614e+01 -1.550640962770e+01 0.0 
4.826794919243e+01 -1.600000000000e+01 0.0 
1.053139533193e+01 -1.911782884365e+01 0.0 
4.156049861949e+01 -1.095160998589e+01 0.0 
9.494526624416e+00 -8.650570090219e-01 0.0 
4.555762166964e+01 -1.897098103585e+01 0.0 
4.250656411371e+01 -1.914387356218e+01 0.0 
4.350906466345e+01 -1.917234727395e+01 0.0 
8.759665722424e-01 -1.746422130609e+01 0.0 
1.698936011838e+00 -1.795012186674e+01 0.0 
4.742476811029e+01 -1.900090177972e+01 0.0 
7.749196752349e+00 -6.368049313489e+00 0.0 
3.361572113416e+01 -1.798765193915e+01 0.0 
4.484660149212e+01 -1.728661231383e+01 0.0 
1.984038172228e+01 -4.502575320116e+00 0.0 
1.035080352627e+01 -6.166639575753e+00 0.0 
2.753558010652e+00 -1.444909521181e+01 0.0 
7.217069543032e+00 -1.328635391078e+01 0.0 
4.364336727739e+00 -1.655585677381e+01 0.0 
4.595208426108e+00 -1.357919665443e+01 0.0 
6.164967006980e+00 -1.569873454630e+01 0.0 
1.487855768353e+01 -1.826523774028e+01 0.0 
2.791876456372e+00 -4.019632415181e+00 0.0 
4.246464893515e+01 -1.364898659620e+01 0.0 
4.503855590351e+01 -1.329552780944e+01 0.0 
4.407239109604e+01 -1.573900004093e+01 0.0 
5.141054449252e+00 -6.664290382472e+00 0.0 
3.141083947149e+00 -1.055790764912e+01 0.0 
6.196463198741e+00 -4.256497932609e+00 0.0 
2.599618716181e+01 -1.836893455464e+01 0.0 
2.923057372337e+01 -1.098461757645e+01 0.0 
1.168343877486e+01 -1.114079645041e+01 0.0 
6.706222096238e+00 -8.780364234441e+00 0.0 
8.567858614669e+00 -6.943121440850e+00 0.0 
1.123755132901e+01 -5.753525820030e+00 0.0 
2.353456234423e+01 -1.008536320953e+01 0.0 
9.162073319168e+00 -1.045593739109e+01 0.0 
9.676343469685e+00 -1.496493008366e+01 0.0 
4.490637882905e+01 -1.628778970202e+01 0.0 
7.398129387772e+00 -9.639977982323e-01 0.0 
1.049641705805e+01 -1.552503975272e+01 0.0 
9.010356286268e+00 -1.242805042052e+01 0.0 
3.985573925497e+01 -1.399863651620e+01 0.0 
1.816196318262e+01 -1.554066497931e+01 0.0 
1.306332244168e+01 -3.963646550326e+00 0.0 
4.145850903932e+01 -1.608094559275e+01 0.0 
3.794664933633e+01 -1.779020121986e+01 0.0 
3.819614412903e+01 -1.290749321016e+01 0.0 
6.270014188119e+00 -3.255093186826e+00 0.0 
4.251165370388e+01 -1.263870364997e+01 0.0 
1.207347709171e+01 -1.763942826023e+01 0.0 
3.633240829927e+01 -1.577330481104e+01 0.0 
4.319052668832e+00 -6.101812561904e+00 0.0 
1.676492415806e+01 -1.151547901392e+01 0.0 
2.594059220037e+01 -1.074225223009e+01 0.0 
3.340750911501e+01 -9.898764354137e+00 0.0 
4.397619591281e+01 -1.769773736461e+01 0.0 
2.175611595028e+01 -1.185718747128e+01 0.0 
1.641818733106e+01 -1.640685203215e+01 0.0 
1.661211421753e+01 -1.346121366338e+01 0.0 
3.428853504935e+00 -6.551993389271e+00 0.0 
8.700728832502e+00 -1.638460872825e+01 0.0 
1.931369795309e+01 -1.121629383702e+01 0.0 
4.139798872363e+01 -1.706922153459e+01 0.0 
2.647837478700e+01 -1.507353829290e+01 0.0 
1.779469616424e+01 -9.161615782908e+00 0.0 
3.885879219319e+01 -1.642026488918e+01 0.0 
1.338194936770e+01 -1.125916521471e+01 0.0 
1.897071181111e+01 -1.609204322578e+01 0.0 
2.844308548793e+01 -1.046221003096e+01 0.0 
2.659854702194e+01 -1.316109415760e+01 0.0 
2.979604503271e+01 -1.433296157755e+01 0.0 
2.417694041347e+01 -1.251231397779e+01 0.0 
1.807401327411e+00 -1.388891148480e+01 0.0 
9.599810618782e+00 -1.595439365034e+01 0.0 
1.652144692160e+01 -4.205392788472e+00 0.0 
2.367839450246e+01 -8.188385218643e+00 0.0 
3.814894930468e+01 -1.390748338767e+01 0.0 
2.466448215774e+01 -1.685878545680e+01 0.0 
4.134044524611e+01 -1.806610045954e+01 0.0 
2.600511411958e+01 -9.801774120648e+00 0.0 
7.882158050716e+00 -1.582364037353e+01 0.0 
3.881607873422e+01 -1.737970515013e+01 0.0 
8.270182347708e+00 -1.088622154920e+01 0.0 
8.672520392520e-01 -4.532984309881e+00 0.0 
1.993447205337e+01 -3.579061902667e+00 0.0 
1.794616079549e+01 -7.238038888498e+00 0.0 
2.097277068165e+01 -1.132450168636e+01 0.0 
8.194803300681e+00 -1.187214224265e+01 0.0 
3.522279404911e+01 -1.823342818178e+01 0.0 
6.984481050295e+00 -1.625271465557e+01 0.0 
1.309433007797e+01 -1.521718594215e+01 0.0 
2.150246167611e+01 -1.885399038185e+00 0.0 
3.250689370209e+01 -1.028789870535e+01 0.0 
6.085886272238e+00 -1.668342132851e+01 0.0 
1.588455661727e+01 -1.193498985921e+01 0.0 
1.809323400821e+01 -1.651110084195e+01 0.0 
1.348885082381e+00 -1.136065576512e+01 0.0 
2.497670221995e+01 -1.834631276173e+01 0.0 
2.937062818424e+01 -8.233711194470e+00 0.0 
5.185823744469e+00 -1.711566910207e+01 0.0 
1.477497877209e+01 -1.530177014512e+01 0.0 
2.125346158933e+01 -7.473003997367e+00 0.0 
4.751561118290e+01 -1.084897772632e+01 0.0 
5.056026576843e+00 -1.825750475525e+01 0.0 
1.473948554523e+01 -1.634577436309e+01 0.0 
2.410566630936e+01 -1.345970002612e+01 0.0 
1.507337507513e+01 -1.138527895328e+01 0.0 
3.189857338687e+01 -8.887781229006e+00 0.0 
7.298712468334e+00 -1.230231046246e+01 0.0 
2.738235495295e+01 -1.368931690364e+01 0.0 
3.750141041969e+01 -1.920449893070e+01 0.0 
1.557271965640e+01 -1.683317951731e+01 0.0 
3.393731848929e+01 -1.413034777044e+01 0.0 
6.482156824153e+00 -1.174575135362e+01 0.0 
2.077971718439e+01 -1.421279621836e+01 0.0 
3.455084320178e+00 -2.562590040585e+00 0.0 
3.099056096250e+01 -9.270280416035e+00 0.0 
5.580176125418e+00 -1.217387969259e+01 0.0 
1.707247630389e+01 -7.660651981710e+00 0.0 
1.418658814174e+01 -1.180390575393e+01 0.0 
2.049103025389e+01 -1.811296706038e+01 0.0 
4.680386172316e+00 -1.260396879301e+01 0.0 
1.699679896554e+01 -8.624561788199e+00 0.0 
3.779470168555e+00 -1.303424899720e+01 0.0 
3.036589870126e+01 -7.879832518349e+00 0.0 
3.306993001774e+01 -1.457671062095e+01 0.0 
2.840150110165e+00 -1.346530088269e+01 0.0 
2.732011135052e+01 -1.464591214560e+01 0.0 
5.423639259568e+00 -2.659711955016e+00 0.0 
2.324455961696e+01 -1.387269388211e+01 0.0 
1.752768355571e+00 -1.693128613594e+01 0.0 
1.020244783051e+01 -8.076834012808e+00 0.0 
1.330873875224e+01 -1.222417528206e+01 0.0 
3.297727364880e+01 -1.555480372087e+01 0.0 
2.890929955439e+01 -6.868664170731e+00 0.0 
1.323294664622e+01 -1.320754260334e+01 0.0 
2.726532861246e+01 -1.560593120806e+01 0.0 
2.240020643398e+01 -1.429299177247e+01 0.0 
2.090445823633e+01 -1.228128621332e+01 0.0 
1.315809881502e+01 -1.420739326938e+01 0.0 
2.781328038068e+01 -7.181956082300e+00 0.0 
8.614200829057e+00 -5.936933226306e+00 0.0 
8.714765730069e+00 -4.979270529687e+00 0.0 
1.611881701099e+01 -9.041973294003e+00 0.0 
2.806830314340e+01 -1.614622947108e+01 0.0 
2.084435391396e+00 -3.385085422913e+00 0.0 
3.133211811152e+01 -1.542347619750e+01 0.0 
9.693114650768e+00 -3.590281506442e+00 0.0 
1.531883592202e+01 -8.504584946143e+00 0.0 
2.151589117094e+01 -1.578915763018e+01 0.0 
4.918943882696e+01 -1.355538828056e+01 0.0 
1.443236615188e+01 -8.918701794549e+00 0.0 
8.276250966452e-01 -5.537685192197e+00 0.0 
1.362790867918e+01 -8.374718262212e+00 0.0 
2.083767477370e+01 -1.324843956035e+01 0.0 
1.273834678703e+01 -8.790890389337e+00 0.0 
1.192275845670e+01 -8.242261327467e+00 0.0 
4.477236023583e+01 -1.824312396664e+01 0.0 
1.102989384254e+01 -8.649855800911e+00 0.0 
4.849096516045e+01 -1.917293752213e+01 0.0 
1.588996752238e+00 -1.910230934687e+01 0.0 
4.904245197583e+01 -1.159839008158e+01 0.0 
2.753852929608e+01 -5.782128488093e+00 0.0 
1.756133602833e+01 -8.306130313187e-01 0.0 
2.615423700951e+01 -6.153865090092e+00 0.0 
1.028818761294e+01 -7.122020845892e+00 0.0 
2.970818901196e+01 -1.527821347593e+01 0.0 
4.801461623449e+01 -1.164472570985e+01 0.0 
9.455722100419e+00 -6.546069291118e+00 0.0 
3.089099236677e+01 -1.835339328261e+01 0.0 
2.350000000013e+01 -1.920825896750e+01 0.0 
4.830620531887e+01 -1.506626155470e+01 0.0 
1.725381944701e+01 -1.688794487850e+01 0.0 
2.156246225273e+01 -1.475893794002e+01 0.0 
4.919319648787e+01 -1.742767505896e+01 0.0 
4.437935623576e+01 -1.077662927266e+01 0.0 
1.001520521978e+01 -1.652692675208e+00 0.0 
9.067160240050e-01 -1.441937727541e+01 0.0 
2.603365149390e+01 -4.755996613848e+00 0.0 
2.458344439002e+01 -4.873645517696e+00 0.0 
2.304312390142e+01 -3.836552768096e+00 0.0 
2.546923202198e+00 -6.902480355749e+00 0.0 
1.251534969393e+01 -2.490989965776e+00 0.0 
2.454061833377e+01 -3.933354231935e+00 0.0 
1.788186558740e+01 -1.827424884923e+01 0.0 
4.090785243552e+01 -1.166553231904e+01 0.0 
2.230128851568e+01 -1.623015738726e+01 0.0 
2.302362347568e+01 -2.916239960270e+00 0.0 
3.878119254461e+01 -1.830091164002e+01 0.0 
2.210081359958e+01 -1.829238229150e+01 0.0 
8.443704882233e+00 -1.921993252862e+01 0.0 
2.218405824691e+01 -1.724557581508e+01 0.0 
2.151157503963e+01 -2.790636689331e+00 0.0 
3.741658958955e+01 -1.250400191722e+01 0.0 
2.697247663737e+01 -1.838290202309e+01 0.0 
4.743362342862e+01 -1.585850773010e+01 0.0 
6.671345075358e+00 -1.924977576322e+01 0.0 
3.900825404537e+01 -1.157220003875e+01 0.0 
4.649692961375e+01 -1.836335837481e+01 0.0 
1.578831424832e+01 -3.678284023361e+00 0.0 
4.814208768888e+01 -1.841249298770e+01 0.0 
2.964123298315e+01 -1.625739458193e+01 0.0 
4.580760351902e+01 -1.284294554687e+01 0.0 
3.561520879615e+01 -1.245548941949e+01 0.0 
2.555418095658e+00 -1.841101588290e+01 0.0 
3.288468366144e+01 -1.834258164109e+01 0.0 
2.065894391445e+01 -2.240688571739e+00 0.0 
4.739171429915e+01 -1.496536413446e+01 0.0 
3.478086729185e+00 -8.576434653209e+00 0.0 
1.606010630246e+01 -1.588421807951e+00 0.0 
1.018329200594e+01 -1.834320874317e+01 0.0 
2.957213339430e+01 -1.720496954591e+01 0.0 
4.142712790164e+00 -1.837794506222e+01 0.0 
6.698721532573e-01 -2.499999999997e+00 0.0 
8.037039123140e+00 -1.571229354954e+00 0.0 
1.203541361428e+01 -1.847784298001e+01 0.0 
2.899968332038e+01 -1.848264722179e+01 0.0 
1.469229460948e+01 -4.219485753730e+00 0.0 
4.049590781957e+01 -1.932812501995e+01 0.0 
1.996211678340e+01 -1.506329754720e+00 0.0 
4.250588298353e+01 -1.067383247529e+01 0.0 
5.831497011152e+00 -1.635396227234e+00 0.0 
5.317606125670e+00 -1.923927974868e+01 0.0 
4.208546426993e+01 -1.842830665025e+01 0.0 
2.327553405011e+00 -9.459409929662e+00 0.0 
3.568351902251e+01 -1.096637218582e+01 0.0 
1.682104374890e+00 -6.231413350963e+00 0.0 
2.451812238018e+01 -1.766524914339e+01 0.0 
1.058003429638e+01 -2.391839617098e+00 0.0 
4.399988753123e+01 -1.851998776342e+01 0.0 
1.400000000010e+01 -1.852293523028e+01 0.0 
3.604719565984e+01 -1.850662876800e+01 0.0 
1.951297136734e+01 -1.938092349694e+01 0.0 
1.821365318472e+01 -1.531276353287e+00 0.0 
2.298031859732e+01 -1.854635324722e+01 0.0 
1.552168066204e+01 -1.764280741977e+01 0.0 
4.572957713638e+01 -1.073347898229e+01 0.0 
3.429637429624e+01 -1.838861552790e+01 0.0 
2.427434426052e+00 -7.705577451869e+00 0.0 
4.662792031485e+00 -3.359424455416e+00 0.0 
4.926794919243e+01 -1.926794919243e+01 0.0 
7.320508075690e-01 -7.320508075688e-01 0.0 
4.926794919243e+01 -1.073205080757e+01 0.0 
7.320508075705e-01 -1.926794919243e+01 0.0 
2.917460242467e+00 -3.202866455310e+00 0.0 
4.838200575963e+01 -1.232674147454e+01 0.0 
2.998445708009e+01 -1.854403752148e+01 0.0 
5.949940090766e-01 -1.152762038165e+01 0.0 
4.844763495759e+01 -1.678092548787e+01 0.0 
1.301685480160e+01 -3.170056592566e+00 0.0 
1.650046335855e+01 -6.731535384067e-01 0.0 
4.854881540991e+01 -1.405224059779e+01 0.0 
2.119545114693e+01 -1.846813384545e+01 0.0 
3.797852849897e+01 -1.857978513215e+01 0.0 
4.649823708745e+01 -1.338351810816e+01 0.0 
2.012685900976e+01 -2.889659035009e+00 0.0 
2.953271913273e+01 -1.791558075192e+01 0.0 
2.408509097292e+00 -1.021949208421e+01 0.0 
2.642589566221e+01 -1.773216561448e+01 0.0 
1.730010270775e+01 -1.763165076721e+01 0.0 
2.017406551304e+01 -8.513536440582e-01 0.0 
5.254761581934e-01 -1.249999999999e+01 0.0 
6.640448215642e+00 -1.545337834885e+00 0.0 
7.843361506349e+00 -1.852719839527e+01 0.0 
1.588442191088e+00 -1.066158564320e+01 0.0 
2.580823483239e+01 -3.416278049680e+00 0.0 
4.950961538461e+01 -3.500000000000e+00 0.0 
2.731250000000e+01 -4.420918367347e+00 0.0 
4.951086956522e+01 -4.500000000000e+00 0.0 
2.880770112393e+01 -5.415638864241e+00 0.0 
4.951086956522e+01 -5.500000000000e+00 0.0 
3.031250000000e+01 -6.420918367347e+00 0.0 
4.951250000000e+01 -6.500000000000e+00 0.0 
3.180701530612e+01 -7.414795918363e+00 0.0 
4.951250000000e+01 -7.500000000000e+00 0.0 
3.331250000000e+01 -8.420918367347e+00 0.0 
4.951470588234e+01 -8.500000000000e+00 0.0 
3.480610198624e+01 -9.413633635267e+00 0.0 
4.951470588234e+01 -9.500000000000e+00 0.0 

CELLS 2241 8964 
3 328 798 1074 
3 798 328 1076 
3 808 301 819 
3 921 686 1110 
3 688 748 914 
3 778 691 817 
3 308 730 732 
3 328 755 1076 
3 730 308 748 
3 681 916 1110 
3 300 875 876 
3 755 328 1090 
3 920 1072 1116 
3 737 868 958 
3 1072 334 1116 
3 327 921 1110 
3 736 307 877 
3 691 778 816 
3 315 735 1057 
3 735 315 995 
3 916 681 1069 
3 1046 292 1052 
3 773 1046 1052 
3 723 722 932 
3 422 578 867 
3 875 300 984 
3 112 82 1137 
3 767 293 1009 
3 420 422 867 
3 932 722 1142 
3 672 882 884 
3 325 738 915 
3 808 819 1117 
3 19 313 788 
3 323 742 744 
3 751 66 1108 
3 66 751 1134 
3 770 319 814 
3 734 103 1087 
3 103 734 1148 
3 1010 752 1036 
3 288 774 913 
3 1091 289 1095 
3 82 337 1137 
3 729 336 1086 
3 768 1091 1095 
3 882 672 885 
3 336 729 1112 
3 878 879 885 
3 868 737 1109 
3 330 773 1010 
3 720 735 995 
3 498 1111 1129 
3 330 1010 1036 
3 820 302 1000 
3 1093 665 1138 
3 720 995 1064 
3 313 758 788 
3 581 909 1027 
3 916 327 1110 
3 287 1121 1162 
3 1101 727 1103 
3 547 575 781 
3 1111 884 1129 
3 892 711 1116 
3 773 330 1046 
3 1121 731 1162 
3 301 808 1081 
3 608 569 890 
3 297 756 822 
3 984 927 1038 
3 33 32 776 
3 767 1009 1139 
3 4 5 902 
3 899 1093 1138 
3 739 304 990 
3 820 1000 1149 
3 787 1092 1099 
3 909 581 1151 
3 1092 329 1099 
3 569 582 890 
3 307 736 1097 
3 292 798 1052 
3 798 292 1074 
3 748 688 960 
3 730 748 960 
3 759 984 1089 
3 18 19 788 
3 813 810 1058 
3 688 914 1097 
3 915 738 1088 
3 339 866 1137 
3 912 1083 1107 
3 1107 1083 1119 
3 305 33 776 
3 814 319 1144 
3 736 877 1109 
3 913 774 1122 
3 333 765 1062 
3 781 575 782 
3 914 748 1132 
3 334 892 1116 
3 495 1061 1085 
3 726 1101 1103 
3 616 614 792 
3 879 882 885 
3 919 920 1042 
3 685 912 1107 
3 287 878 885 
3 1015 310 1134 
3 460 813 1058 
3 4 902 1153 
3 683 779 815 
3 650 966 1004 
3 694 896 1120 
3 754 781 782 
3 549 547 781 
3 323 744 1102 
3 765 333 1157 
3 753 549 781 
3 784 714 1059 
3 337 339 1137 
3 912 685 1160 
3 549 753 792 
3 1104 1003 1118 
3 769 1019 1028 
3 896 694 1150 
3 1019 294 1028 
3 304 739 1130 
3 716 1104 1118 
3 875 984 1038 
3 686 921 1112 
3 623 680 780 
3 294 752 1028 
3 742 323 1122 
3 920 677 1072 
3 759 927 984 
3 780 680 980 
3 724 852 1142 
3 656 772 780 
3 706 917 918 
3 756 297 1128 
3 958 868 1105 
3 565 537 786 
3 772 623 780 
3 752 294 1036 
3 680 818 980 
3 792 618 987 
3 308 732 1087 
3 779 414 815 
3 738 325 1126 
3 1073 1079 1157 
3 903 315 1057 
3 331 769 1004 
3 852 724 861 
3 753 616 792 
3 788 759 1089 
3 755 289 1091 
3 1061 721 1085 
3 314 760 761 
3 775 414 779 
3 758 313 1042 
3 608 784 1059 
3 920 679 1042 
3 795 668 823 
3 310 1015 1124 
3 1073 678 1079 
3 614 618 792 
3 966 331 1004 
3 300 876 1173 
3 289 755 1090 
3 414 775 789 
3 537 588 786 
3 760 314 1148 
3 618 779 987 
3 769 331 1019 
3 662 851 1056 
3 896 597 1120 
3 293 767 1082 
3 822 756 1106 
3 754 782 1076 
3 597 896 1136 
3 839 969 1023 
3 772 656 1010 
3 755 754 1076 
3 795 650 1004 
3 779 683 987 
3 303 916 1069 
3 426 835 1045 
3 313 919 1042 
3 768 329 1092 
3 624 789 1013 
3 810 835 1058 
3 81 113 777 
3 656 752 1010 
3 1012 684 1016 
3 908 1040 1133 
3 923 316 1149 
3 421 346 828 
3 1043 402 1070 
3 532 1012 1016 
3 866 339 1115 
3 867 578 1105 
3 722 724 1142 
3 1053 944 1080 
3 790 361 818 
3 620 510 823 
3 427 421 828 
3 617 795 823 
3 668 795 1004 
3 566 1026 1066 
3 851 700 1056 
3 777 311 778 
3 782 798 1076 
3 782 575 797 
3 680 790 818 
3 835 805 1045 
3 691 690 996 
3 684 783 1002 
3 734 760 1148 
3 789 775 1013 
3 480 1002 1051 
3 740 950 1174 
3 826 427 828 
3 950 296 1174 
3 908 909 1040 
3 329 768 1095 
3 1053 696 1054 
3 800 427 826 
3 696 695 1054 
3 676 785 791 
3 502 883 955 
3 714 891 1059 
3 969 532 1023 
3 668 620 823 
3 711 892 1124 
3 113 311 777 
3 585 615 791 
3 375 414 789 
3 773 772 1010 
3 783 684 1012 
3 751 1015 1134 
3 1037 426 1045 
3 484 466 821 
3 532 1016 1023 
3 984 300 1089 
3 818 428 980 
3 827 828 1024 
3 727 1101 1146 
3 375 789 796 
3 615 676 791 
3 345 617 793 
3 776 32 1130 
3 361 790 965 
3 834 377 973 
3 761 760 762 
3 890 582 1094 
3 617 794 795 
3 584 484 821 
3 690 824 925 
3 672 884 1111 
3 427 800 962 
3 510 793 823 
3 549 792 987 
3 800 639 962 
3 835 426 1058 
3 428 799 941 
3 295 749 1108 
3 625 834 973 
3 353 619 799 
3 683 815 946 
3 625 833 834 
3 467 483 824 
3 865 306 866 
3 379 376 796 
3 496 847 848 
3 827 1037 1045 
3 113 114 311 
3 617 343 794 
3 466 464 821 
3 540 585 791 
3 469 467 824 
3 348 345 793 
3 738 784 1088 
3 576 666 797 
3 625 832 833 
3 793 617 823 
3 865 866 867 
3 586 691 816 
3 496 848 850 
3 497 500 847 
3 782 797 798 
3 827 1024 1037 
3 575 576 797 
3 462 379 796 
3 789 624 796 
3 586 690 691 
3 815 371 946 
3 715 785 787 
3 37 302 820 
3 39 316 819 
3 362 361 965 
3 483 466 484 
3 539 540 598 
3 354 353 799 
3 483 484 539 
3 496 497 847 
3 428 941 980 
3 917 706 1135 
3 821 624 1013 
3 1026 682 1066 
3 715 598 785 
3 320 57 840 
3 539 484 540 
3 359 428 818 
3 586 490 690 
3 862 555 970 
3 376 375 796 
3 500 844 847 
3 619 510 620 
3 42 841 842 
3 464 462 624 
3 625 453 832 
3 599 598 715 
3 830 515 953 
3 1002 783 1051 
3 615 616 674 
3 689 830 953 
3 318 45 822 
3 592 684 1002 
3 41 301 841 
3 958 578 988 
3 813 460 1078 
3 676 674 768 
3 621 620 653 
3 353 510 619 
3 353 351 510 
3 429 965 991 
3 293 47 825 
3 420 867 1115 
3 794 650 795 
3 624 462 796 
3 695 891 1054 
3 653 668 769 
3 615 614 616 
3 314 761 1014 
3 500 843 844 
3 464 624 821 
3 804 826 827 
3 585 614 615 
3 619 620 621 
3 453 455 832 
3 628 855 942 
3 50 317 831 
3 656 654 752 
3 468 470 850 
3 709 1043 1070 
3 675 754 755 
3 674 616 675 
3 810 807 835 
3 359 357 428 
3 666 772 773 
3 621 653 654 
3 54 319 836 
3 319 770 1096 
3 807 805 835 
3 827 826 828 
3 855 395 942 
3 547 548 575 
3 467 466 483 
3 465 464 466 
3 361 359 818 
3 642 862 970 
3 410 856 857 
3 803 801 804 
3 470 496 850 
3 544 429 545 
3 799 619 941 
3 546 545 547 
3 301 40 819 
3 316 38 820 
3 316 923 1117 
3 628 854 855 
3 639 541 962 
3 615 674 676 
3 463 462 464 
3 690 490 824 
3 576 623 666 
3 864 865 868 
3 830 958 988 
3 840 838 932 
3 811 810 813 
3 345 343 617 
3 352 351 353 
3 490 469 824 
3 887 889 890 
3 414 373 815 
3 367 365 429 
3 373 371 815 
3 284 1003 1104 
3 761 762 763 
3 891 695 1059 
3 540 584 585 
3 57 56 840 
3 474 476 566 
3 338 650 794 
3 315 903 1125 
3 965 790 991 
3 375 373 414 
3 351 348 793 
3 297 43 842 
3 653 620 668 
3 357 354 799 
3 410 857 863 
3 801 800 826 
3 628 853 854 
3 44 297 822 
3 41 40 301 
3 37 36 302 
3 39 38 316 
3 350 348 351 
3 804 801 826 
3 809 807 810 
3 547 545 548 
3 575 548 576 
3 859 856 943 
3 803 804 805 
3 46 318 825 
3 718 639 800 
3 832 566 833 
3 718 800 801 
3 559 557 860 
3 367 429 544 
3 666 623 772 
3 539 598 599 
3 305 776 1100 
3 546 547 549 
3 940 659 1009 
3 856 410 943 
3 501 504 843 
3 320 840 932 
3 585 613 614 
3 42 41 841 
3 316 820 1149 
3 358 357 359 
3 887 888 889 
3 44 43 297 
3 285 836 837 
3 500 501 843 
3 455 474 832 
3 291 51 831 
3 121 286 888 
3 544 545 546 
3 356 354 357 
3 360 359 361 
3 428 357 799 
3 598 540 791 
3 46 45 318 
3 461 379 462 
3 587 586 816 
3 749 295 1175 
3 888 286 889 
3 655 654 656 
3 882 883 884 
3 769 668 1004 
3 285 55 836 
3 48 47 293 
3 510 351 793 
3 879 881 882 
3 728 587 816 
3 882 881 883 
3 972 670 985 
3 864 306 865 
3 340 338 794 
3 50 49 317 
3 322 864 868 
3 302 36 829 
3 562 559 860 
3 689 737 830 
3 675 753 754 
3 474 566 832 
3 690 925 996 
3 52 51 291 
3 40 39 819 
3 38 37 820 
3 628 436 853 
3 431 433 859 
3 367 544 946 
3 436 438 853 
3 54 53 319 
3 540 484 584 
3 847 846 848 
3 844 845 846 
3 579 689 953 
3 58 320 852 
3 879 880 881 
3 56 55 285 
3 843 708 844 
3 43 42 842 
3 809 810 811 
3 120 121 888 
3 544 683 946 
3 638 541 639 
3 45 44 822 
3 350 351 352 
3 605 562 606 
3 599 715 716 
3 838 837 839 
3 600 707 708 
3 844 708 845 
3 878 321 879 
3 47 46 825 
3 824 483 925 
3 592 640 684 
3 689 736 737 
3 926 658 945 
3 844 846 847 
3 352 353 354 
3 51 50 831 
3 433 535 859 
3 444 480 550 
3 364 362 365 
3 703 596 704 
3 848 846 849 
3 853 550 854 
3 365 362 965 
3 701 558 975 
3 474 475 476 
3 366 365 367 
3 403 405 863 
3 585 584 613 
3 431 859 943 
3 606 562 860 
3 430 453 625 
3 56 285 840 
3 717 639 718 
3 601 926 945 
3 55 54 836 
3 285 837 838 
3 372 371 373 
3 879 321 880 
3 59 852 861 
3 802 801 803 
3 504 600 843 
3 58 57 320 
3 438 444 853 
3 576 622 623 
3 343 340 794 
3 430 625 973 
3 434 628 942 
3 596 555 862 
3 828 346 1024 
3 655 780 980 
3 476 494 495 
3 763 762 764 
3 405 410 863 
3 455 457 474 
3 600 657 707 
3 627 449 928 
3 119 120 886 
3 614 613 618 
3 600 708 843 
3 856 698 857 
3 370 368 371 
3 444 550 853 
3 579 687 689 
3 504 567 600 
3 59 58 852 
3 356 357 358 
3 626 697 698 
3 358 359 360 
3 626 698 856 
3 886 120 888 
3 342 340 343 
3 895 894 896 
3 296 126 910 
3 535 590 626 
3 444 479 480 
3 924 594 949 
3 704 862 1006 
3 704 596 862 
3 338 298 650 
3 322 110 864 
3 719 829 1022 
3 360 361 362 
3 126 127 910 
3 714 634 891 
3 880 886 887 
3 696 1053 1080 
3 612 662 1056 
3 692 924 949 
3 489 972 985 
3 413 411 922 
3 451 449 627 
3 592 603 640 
3 509 490 586 
3 326 894 895 
3 299 898 899 
3 288 60 861 
3 60 59 861 
3 894 893 897 
3 626 590 697 
3 434 436 628 
3 640 722 723 
3 634 553 891 
3 487 572 592 
3 908 906 909 
3 535 626 859 
3 857 698 858 
3 312 905 906 
3 326 893 894 
3 638 639 717 
3 127 128 907 
3 111 306 864 
3 111 112 306 
3 555 459 970 
3 299 10 898 
3 600 567 657 
3 785 598 791 
3 745 743 746 
3 825 318 940 
3 629 523 956 
3 675 616 753 
3 738 714 784 
3 621 654 655 
3 107 307 914 
3 106 107 914 
3 127 907 910 
3 907 906 908 
3 901 903 904 
3 477 418 552 
3 312 900 905 
3 893 290 897 
3 287 117 878 
3 418 413 922 
3 766 764 786 
3 109 110 322 
3 662 757 851 
3 438 443 444 
3 763 764 765 
3 10 11 898 
3 901 904 905 
3 30 29 917 
3 304 30 917 
3 689 687 736 
3 307 108 877 
3 898 895 899 
3 28 303 918 
3 552 418 922 
3 110 111 864 
3 109 322 877 
3 653 769 1028 
3 36 35 829 
3 917 29 918 
3 312 906 907 
3 128 312 907 
3 713 634 714 
3 857 858 994 
3 919 677 920 
3 116 117 287 
3 324 911 912 
3 118 321 878 
3 595 555 596 
3 118 119 321 
3 117 118 878 
3 702 596 703 
3 648 711 712 
3 765 764 766 
3 941 655 980 
3 900 901 905 
3 450 451 930 
3 25 24 921 
3 327 25 921 
3 108 109 877 
3 531 459 555 
3 29 28 918 
3 605 606 721 
3 901 902 903 
3 900 335 901 
3 901 335 902 
3 11 12 326 
3 334 69 892 
3 80 79 336 
3 130 335 900 
3 13 290 893 
3 70 69 334 
3 68 310 892 
3 61 288 913 
3 76 309 911 
3 78 77 324 
3 69 68 892 
3 68 67 310 
3 324 77 911 
3 130 131 335 
3 104 105 308 
3 107 108 307 
3 312 129 900 
3 65 64 295 
3 323 62 913 
3 63 62 323 
3 129 130 900 
3 128 129 312 
3 61 60 288 
3 62 61 913 
3 76 75 309 
3 101 102 314 
3 77 76 911 
3 74 73 333 
3 99 100 678 
3 125 126 296 
3 123 124 325 
3 122 123 915 
3 121 122 286 
3 13 14 290 
3 12 13 893 
3 123 325 915 
3 16 17 300 
3 286 122 915 
3 34 33 305 
3 28 27 303 
3 31 30 304 
3 6 7 315 
3 9 10 299 
3 27 26 916 
3 19 20 313 
3 26 25 327 
3 20 21 919 
3 21 22 677 
3 326 12 893 
3 303 27 916 
3 26 327 916 
3 313 20 919 
3 21 677 919 
3 542 543 927 
3 321 119 886 
3 433 534 535 
3 907 908 910 
3 745 746 747 
3 626 856 859 
3 508 492 929 
3 477 552 553 
3 1040 741 1133 
3 648 712 929 
3 535 536 590 
3 326 895 898 
3 492 554 929 
3 685 686 729 
3 11 326 898 
3 480 479 487 
3 442 440 493 
3 542 491 543 
3 610 542 927 
3 461 462 463 
3 655 656 780 
3 371 368 946 
3 450 449 451 
3 554 647 648 
3 758 610 759 
3 601 695 696 
3 673 594 681 
3 589 538 594 
3 734 733 760 
3 448 446 449 
3 491 450 930 
3 685 673 686 
3 589 673 685 
3 493 440 952 
3 648 679 711 
3 551 523 629 
3 758 759 788 
3 749 747 750 
3 681 594 924 
3 528 526 529 
3 444 443 479 
3 488 570 571 
3 507 593 601 
3 713 714 738 
3 880 321 886 
3 589 594 673 
3 648 647 679 
3 887 886 888 
3 806 805 807 
3 732 632 733 
3 478 492 508 
3 554 610 647 
3 657 658 709 
3 647 610 758 
3 732 733 734 
3 474 457 475 
3 749 750 751 
3 720 602 735 
3 744 743 745 
3 537 529 538 
3 571 602 665 
3 601 696 926 
3 873 871 874 
3 525 527 631 
3 412 416 431 
3 588 538 589 
3 528 537 565 
3 697 590 869 
3 759 610 927 
3 554 542 610 
3 537 538 588 
3 530 482 568 
3 590 536 591 
3 563 649 725 
3 529 936 949 
3 535 534 536 
3 442 493 928 
3 742 670 743 
3 528 529 537 
3 671 587 728 
3 645 740 741 
3 471 469 490 
3 554 648 929 
3 527 526 528 
3 875 873 876 
3 631 632 730 
3 592 572 603 
3 869 591 870 
3 492 542 554 
3 571 570 602 
3 745 747 749 
3 590 591 869 
3 665 602 720 
3 591 536 938 
3 431 432 433 
3 417 413 418 
3 872 873 875 
3 125 296 950 
3 325 124 950 
3 543 491 930 
3 488 530 570 
3 448 449 450 
3 449 446 928 
3 405 409 410 
3 504 505 567 
3 551 629 630 
3 817 691 1167 
3 433 533 534 
3 640 603 722 
3 570 530 581 
3 631 527 632 
3 730 632 732 
3 633 553 634 
3 669 636 670 
3 522 520 523 
3 488 482 530 
3 705 629 974 
3 630 629 705 
3 425 482 488 
3 754 753 781 
3 419 418 477 
3 492 491 542 
3 870 871 872 
3 718 801 802 
3 551 630 692 
3 478 450 491 
3 448 450 478 
3 477 553 633 
3 478 491 492 
3 522 523 524 
3 872 871 873 
3 525 526 527 
3 524 523 551 
3 377 378 973 
3 936 692 949 
3 536 597 938 
3 870 591 871 
3 533 432 693 
3 407 404 408 
3 525 524 526 
3 399 401 434 
3 417 419 425 
3 645 634 713 
3 522 524 525 
3 417 418 419 
3 742 743 744 
3 529 526 936 
3 478 508 931 
3 285 838 840 
3 536 534 597 
3 425 419 482 
3 633 634 645 
3 447 446 448 
3 528 565 935 
3 645 713 740 
3 431 416 432 
3 735 602 933 
3 525 631 934 
3 433 432 533 
3 446 442 928 
3 533 693 694 
3 594 538 949 
3 416 413 417 
3 441 445 489 
3 601 593 695 
3 445 442 446 
3 874 871 938 
3 447 448 931 
3 848 849 1030 
3 602 570 933 
3 733 632 935 
3 595 596 702 
3 545 429 991 
3 527 528 935 
3 507 601 945 
3 519 521 579 
3 570 581 933 
3 746 743 972 
3 531 555 595 
3 476 475 494 
3 630 705 706 
3 434 435 436 
3 568 482 939 
3 439 437 440 
3 669 670 742 
3 657 567 658 
3 448 478 931 
3 526 524 936 
3 501 503 504 
3 441 440 442 
3 687 580 688 
3 571 665 971 
3 412 413 416 
3 364 365 366 
3 445 446 447 
3 576 548 622 
3 366 367 368 
3 521 520 522 
3 632 527 935 
3 579 580 687 
3 871 591 938 
3 609 511 636 
3 436 437 438 
3 631 730 960 
3 808 807 809 
3 495 494 563 
3 441 442 445 
3 524 551 936 
3 405 407 409 
3 409 411 412 
3 477 633 939 
3 438 439 443 
3 412 431 943 
3 521 522 934 
3 579 521 580 
3 381 383 430 
3 922 411 944 
3 463 464 465 
3 412 411 413 
3 409 407 411 
3 419 477 939 
3 487 511 572 
3 400 398 402 
3 551 692 936 
3 396 398 399 
3 438 437 439 
3 434 401 435 
3 370 371 372 
3 482 419 939 
3 609 636 669 
3 609 669 774 
3 556 558 701 
3 405 404 407 
3 436 435 437 
3 522 525 934 
3 410 409 943 
3 544 546 683 
3 416 417 937 
3 567 505 945 
3 403 404 405 
3 417 425 937 
3 488 571 963 
3 435 401 635 
3 439 440 441 
3 574 611 612 
3 124 125 950 
3 392 390 393 
3 396 394 397 
3 403 402 404 
3 580 521 934 
3 399 400 401 
3 432 416 937 
3 400 402 403 
3 538 529 949 
3 693 432 937 
3 645 741 959 
3 939 633 959 
3 658 567 945 
3 407 408 944 
3 392 394 395 
3 399 398 400 
3 507 569 593 
3 568 939 959 
3 830 737 958 
3 937 425 963 
3 487 479 511 
3 560 573 574 
3 344 343 345 
3 583 517 604 
3 612 661 662 
3 378 381 973 
3 558 560 975 
3 505 506 507 
3 403 863 947 
3 374 373 375 
3 497 499 500 
3 569 506 582 
3 409 412 943 
3 396 397 398 
3 395 394 396 
3 693 937 963 
3 399 434 942 
3 392 393 394 
3 388 390 391 
3 411 407 944 
3 458 456 459 
3 519 520 521 
3 388 386 389 
3 572 511 609 
3 504 503 505 
3 722 603 724 
3 395 396 942 
3 662 756 757 
3 355 354 356 
3 505 507 945 
3 347 345 348 
3 637 541 638 
3 395 855 978 
3 618 775 779 
3 349 348 350 
3 429 365 965 
3 507 506 569 
3 739 710 776 
3 593 569 608 
3 770 664 771 
3 924 692 967 
3 481 459 531 
3 934 631 960 
3 518 517 583 
3 391 390 392 
3 430 452 453 
3 667 604 710 
3 441 489 948 
3 516 518 519 
3 595 702 783 
3 505 503 506 
3 516 514 517 
3 825 940 1009 
3 609 774 961 
3 400 403 947 
3 580 934 960 
3 688 580 960 
3 396 399 942 
3 443 439 948 
3 479 443 951 
3 633 645 959 
3 465 466 467 
3 384 386 387 
3 388 389 390 
3 368 367 946 
3 667 710 739 
3 803 805 806 
3 692 630 967 
3 623 622 680 
3 513 485 541 
3 439 441 948 
3 705 974 990 
3 486 514 515 
3 401 400 947 
3 384 382 385 
3 516 517 518 
3 583 604 667 
3 523 520 956 
3 519 518 520 
3 670 636 985 
3 663 577 664 
3 636 511 951 
3 440 437 952 
3 752 654 1028 
3 458 481 512 
3 423 421 427 
3 425 488 963 
3 387 386 388 
3 704 1006 1018 
3 453 454 455 
3 470 472 496 
3 384 385 386 
3 455 456 457 
3 621 655 941 
3 635 401 947 
3 515 830 988 
3 748 308 1132 
3 84 275 284 
3 437 435 952 
3 481 531 532 
3 802 803 923 
3 430 383 452 
3 435 635 952 
3 519 579 953 
3 85 276 329 
3 458 459 481 
3 454 452 642 
3 619 621 941 
3 443 948 951 
3 500 499 501 
3 511 479 951 
3 603 572 961 
3 457 456 458 
3 520 518 956 
3 564 562 605 
3 572 609 961 
3 86 277 289 
3 515 516 953 
3 725 649 726 
3 518 583 956 
3 455 454 456 
3 383 382 384 
3 1025 697 1029 
3 509 586 587 
3 629 956 974 
3 963 571 971 
3 87 278 328 
3 561 559 562 
3 630 706 967 
3 501 502 503 
3 363 362 364 
3 515 514 516 
3 994 858 999 
3 496 472 497 
3 618 613 775 
3 582 506 955 
3 501 499 502 
3 503 502 955 
3 453 452 454 
3 829 35 1022 
3 88 279 292 
3 743 670 972 
3 380 379 461 
3 424 486 988 
3 471 490 509 
3 724 603 961 
3 506 503 955 
3 694 693 971 
3 475 457 954 
3 392 395 978 
3 563 577 649 
3 546 549 987 
3 423 427 962 
3 663 664 770 
3 516 519 953 
3 803 806 923 
3 514 513 977 
3 513 541 637 
3 483 539 925 
3 746 972 992 
3 486 513 514 
3 377 834 998 
3 89 280 330 
3 663 770 814 
3 468 467 469 
3 693 963 971 
3 563 494 577 
3 315 7 995 
3 369 368 370 
3 458 512 954 
3 637 638 957 
3 638 717 719 
3 457 458 954 
3 604 517 977 
3 378 376 379 
3 560 574 975 
3 90 281 294 
3 809 811 812 
3 91 282 331 
3 283 91 966 
3 381 430 973 
3 82 283 298 
3 651 406 652 
3 372 373 374 
3 384 387 964 
3 497 472 498 
3 381 382 383 
3 583 667 974 
3 806 807 808 
3 489 445 992 
3 649 577 663 
3 391 392 978 
3 513 637 977 
3 383 384 964 
3 747 746 1001 
3 517 514 977 
3 541 485 962 
3 459 456 970 
3 378 380 381 
3 574 573 611 
3 352 354 355 
3 497 498 499 
3 468 469 470 
3 683 546 987 
3 360 362 363 
3 750 747 1005 
3 486 485 513 
3 381 380 382 
3 556 701 981 
3 512 481 969 
3 956 583 974 
3 612 611 661 
3 578 424 988 
3 684 640 1016 
3 452 383 964 
3 481 532 969 
3 366 368 369 
3 710 604 993 
3 662 661 756 
3 454 642 970 
3 470 469 471 
3 564 605 607 
3 369 406 644 
3 378 379 380 
3 456 454 970 
3 487 592 1002 
3 470 471 472 
3 642 452 964 
3 347 348 349 
3 750 1005 1011 
3 349 350 460 
3 561 562 564 
3 344 345 347 
3 341 340 342 
3 355 356 415 
3 664 577 979 
3 972 489 992 
3 424 485 486 
3 638 719 957 
3 342 343 344 
3 461 463 641 
3 564 607 660 
3 974 667 990 
3 370 372 968 
3 369 370 406 
3 380 461 976 
3 485 423 962 
3 622 548 991 
3 651 652 682 
3 548 545 991 
3 494 475 979 
3 660 727 767 
3 385 382 976 
3 509 587 643 
3 717 718 1000 
3 680 622 790 
3 1018 391 1031 
3 660 607 727 
3 424 423 485 
3 948 489 985 
3 374 375 376 
3 643 587 671 
3 1011 712 1015 
3 363 364 473 
3 476 495 1026 
3 611 573 659 
3 671 728 731 
3 951 948 985 
3 584 821 1013 
3 422 424 578 
3 493 999 1020 
3 382 380 976 
3 747 1001 1005 
3 644 406 651 
3 461 641 976 
3 363 473 556 
3 643 671 672 
3 558 559 560 
3 475 954 979 
3 757 756 1128 
3 560 561 573 
3 468 850 997 
3 445 447 992 
3 667 739 990 
3 814 291 1032 
3 577 494 979 
3 377 376 378 
3 556 557 558 
3 929 712 1011 
3 873 874 1008 
3 560 559 561 
3 486 515 988 
3 746 992 1001 
3 636 951 985 
3 101 314 1014 
3 678 100 1014 
3 347 349 426 
3 558 557 559 
3 627 928 1020 
3 355 415 646 
3 652 406 968 
3 839 1023 1147 
3 374 376 377 
3 34 305 1022 
3 339 338 340 
3 406 370 968 
3 493 952 999 
3 465 467 468 
3 635 947 994 
3 556 473 557 
3 358 360 981 
3 422 423 424 
3 646 415 699 
3 646 699 700 
3 904 903 1057 
3 947 863 994 
3 790 622 991 
3 350 352 982 
3 460 350 982 
3 771 664 1007 
3 7 8 995 
3 498 472 986 
3 364 366 983 
3 863 857 994 
3 91 331 966 
3 298 283 966 
3 422 421 423 
3 539 599 925 
3 999 858 1020 
3 532 531 1012 
3 472 471 986 
3 293 825 1009 
3 977 637 993 
3 698 697 1025 
3 992 447 1001 
3 909 906 1027 
3 595 783 1012 
3 473 364 983 
3 905 904 1027 
3 604 977 993 
3 471 509 986 
3 352 355 982 
3 360 363 981 
3 388 391 1018 
3 854 550 1047 
3 637 957 993 
3 550 480 1051 
3 369 644 983 
3 366 369 983 
3 275 83 1003 
3 509 643 986 
3 561 564 989 
3 341 342 346 
3 564 660 989 
3 613 584 1013 
3 805 804 1045 
3 659 573 989 
3 650 298 966 
3 573 561 989 
3 447 931 1001 
3 860 557 1017 
3 635 994 999 
3 952 635 999 
3 718 802 1000 
3 855 854 1044 
3 363 556 981 
3 834 833 1050 
3 480 487 1002 
3 968 372 998 
3 997 850 1030 
3 862 642 1006 
3 641 463 997 
3 355 646 982 
3 641 997 1030 
3 415 356 1021 
3 664 979 1007 
3 979 954 1007 
3 372 374 998 
3 420 421 422 
3 1001 931 1005 
3 931 508 1005 
3 599 716 996 
3 415 1021 1039 
3 750 1011 1015 
3 666 773 1052 
3 627 1025 1029 
3 284 275 1003 
3 1005 508 1011 
3 465 468 997 
3 876 873 1008 
3 1026 495 1085 
3 420 346 421 
3 341 346 420 
3 473 983 1017 
3 90 294 1019 
3 331 282 1019 
3 508 929 1011 
3 1047 550 1051 
3 704 1018 1031 
3 531 595 1012 
3 964 387 1006 
3 463 465 997 
3 282 90 1019 
3 339 340 341 
3 100 101 1014 
3 954 512 1007 
3 374 377 998 
3 663 814 1032 
3 647 758 1042 
3 642 964 1006 
3 751 750 1015 
3 1030 849 1034 
3 726 649 1032 
3 983 644 1017 
3 606 860 1041 
3 640 723 1016 
3 404 402 1043 
3 981 701 1021 
3 1006 387 1018 
3 358 981 1021 
3 775 613 1013 
3 721 606 1049 
3 387 388 1018 
3 928 493 1020 
3 356 358 1021 
3 1118 332 1131 
3 833 566 1066 
3 787 284 1104 
3 568 959 1040 
3 627 1020 1025 
3 574 612 1048 
3 346 342 1024 
3 89 330 1036 
3 35 34 1022 
3 83 274 332 
3 294 281 1036 
3 703 704 1031 
3 697 869 1029 
3 654 653 1028 
3 1060 845 1063 
3 1044 854 1047 
3 557 473 1017 
3 566 476 1026 
3 811 1113 1123 
3 925 599 996 
3 858 698 1025 
3 1029 869 1033 
3 922 944 1053 
3 337 298 338 
3 342 344 1024 
3 18 788 1089 
3 906 905 1027 
3 731 728 1075 
3 891 553 1054 
3 869 870 1033 
3 385 1034 1055 
3 846 845 1060 
3 850 848 1030 
3 451 627 1029 
3 347 426 1037 
3 1033 870 1035 
3 385 976 1034 
3 1021 701 1039 
3 737 736 1109 
3 495 563 1061 
3 870 872 1035 
3 451 1029 1033 
3 88 292 1046 
3 389 386 1055 
3 1035 872 1038 
3 309 75 1062 
3 74 333 1062 
3 330 280 1046 
3 930 451 1033 
3 708 707 1065 
3 787 785 1092 
3 649 663 1032 
3 695 593 1059 
3 1065 707 1067 
3 1050 833 1066 
3 281 89 1036 
3 872 875 1038 
3 9 299 1064 
3 337 338 339 
3 930 1033 1035 
3 391 978 1031 
3 1020 858 1025 
3 778 817 1131 
3 1086 324 1160 
3 393 390 1063 
3 969 839 1084 
3 606 1041 1049 
3 543 930 1035 
3 543 1035 1038 
3 1034 849 1055 
3 608 890 1140 
3 817 1118 1131 
3 927 543 1038 
3 1016 723 1023 
3 657 709 1068 
3 701 975 1039 
3 798 797 1052 
3 699 415 1039 
3 774 288 1127 
3 114 115 1075 
3 24 23 1071 
3 71 70 1072 
3 73 72 1073 
3 397 394 1067 
3 860 1017 1041 
3 976 641 1034 
3 959 741 1040 
3 83 332 1003 
3 924 967 1069 
3 344 347 1037 
3 82 298 337 
3 48 293 1082 
3 995 8 1064 
3 317 49 1082 
3 1024 344 1037 
3 402 398 1070 
3 1017 644 1041 
3 397 1067 1068 
3 676 768 1092 
3 1068 709 1070 
3 426 349 1058 
3 679 647 1042 
3 393 1063 1065 
3 699 1039 1048 
3 1075 115 1162 
3 389 1055 1060 
3 804 827 1045 
3 408 404 1043 
3 709 658 1077 
3 644 651 1041 
3 883 502 1129 
3 87 328 1074 
3 292 279 1074 
3 408 1077 1080 
3 703 1031 1044 
3 968 998 1050 
3 1039 975 1048 
3 808 809 1081 
3 280 88 1046 
3 911 309 1083 
3 756 661 1106 
3 641 1030 1034 
3 284 787 1099 
3 797 666 1052 
3 978 855 1044 
3 646 700 1078 
3 1031 978 1044 
3 691 996 1167 
3 702 703 1047 
3 768 674 1091 
3 998 834 1050 
3 703 1044 1047 
3 1041 651 1049 
3 565 786 1166 
3 944 408 1080 
3 715 787 1104 
3 702 1047 1051 
3 675 755 1091 
3 1075 728 1145 
3 336 79 1086 
3 78 324 1086 
3 889 286 1088 
3 783 702 1051 
3 552 1053 1054 
3 552 922 1053 
3 1048 612 1056 
3 651 682 1049 
3 975 574 1048 
3 389 1060 1063 
3 103 104 1087 
3 323 913 1122 
3 553 552 1054 
3 512 969 1084 
3 652 968 1050 
3 735 933 1057 
3 460 982 1078 
3 386 385 1055 
3 887 890 1094 
3 849 846 1060 
3 17 18 1089 
3 349 460 1058 
3 593 608 1059 
3 876 1008 1159 
3 700 699 1056 
3 563 725 1061 
3 1043 709 1077 
3 1064 299 1138 
3 652 1050 1066 
3 75 74 1062 
3 881 880 1094 
3 940 318 1106 
3 819 316 1117 
3 333 1073 1157 
3 776 710 1100 
3 841 301 1081 
3 390 389 1063 
3 393 1065 1067 
3 837 836 1096 
3 311 114 1075 
3 8 9 1064 
3 876 1159 1173 
3 408 1043 1077 
3 845 708 1065 
3 86 289 1090 
3 328 278 1090 
3 736 687 1097 
3 1055 849 1060 
3 971 665 1093 
3 605 721 1098 
3 295 64 1102 
3 63 323 1102 
3 394 393 1067 
3 322 868 1109 
3 731 1075 1162 
3 85 329 1095 
3 884 883 1129 
3 289 277 1095 
3 682 652 1066 
3 707 657 1068 
3 1063 845 1065 
3 885 672 1121 
3 729 1086 1160 
3 1067 707 1068 
3 681 924 1069 
3 589 685 1107 
3 921 24 1071 
3 70 334 1072 
3 333 73 1073 
3 397 1068 1070 
3 279 87 1074 
3 398 397 1070 
3 66 65 1108 
3 84 284 1099 
3 329 276 1099 
3 771 1007 1084 
3 914 307 1097 
3 686 673 1110 
3 699 1048 1056 
3 725 726 1103 
3 811 813 1113 
3 762 760 1114 
3 1077 926 1080 
3 658 926 1077 
3 1083 309 1163 
3 1098 725 1103 
3 306 112 1137 
3 678 1014 1079 
3 761 763 1079 
3 760 733 1114 
3 643 672 1111 
3 926 696 1080 
3 706 918 1141 
3 935 565 1114 
3 291 814 1144 
3 809 812 1081 
3 982 646 1078 
3 993 957 1100 
3 597 534 1120 
3 533 694 1120 
3 774 669 1122 
3 287 885 1121 
3 720 1064 1138 
3 49 48 1082 
3 6 315 1125 
3 1014 761 1079 
3 838 839 1147 
3 713 738 1126 
3 296 910 1133 
3 31 304 1130 
3 106 914 1132 
3 990 304 1135 
3 837 1096 1171 
3 308 105 1132 
3 311 1075 1145 
3 921 1071 1112 
3 568 1040 1151 
3 706 705 1135 
3 67 66 1134 
3 806 808 1117 
3 498 986 1111 
3 868 865 1105 
3 896 894 1136 
3 721 1061 1098 
3 52 291 1144 
3 912 911 1083 
3 319 53 1144 
3 672 671 1121 
3 749 751 1108 
3 499 498 1129 
3 904 1057 1156 
3 320 932 1142 
3 829 719 1143 
3 739 776 1130 
3 732 734 1087 
3 339 341 1115 
3 785 676 1092 
3 841 1081 1158 
3 899 895 1150 
3 716 1118 1167 
3 1061 725 1098 
3 102 103 1148 
3 719 717 1143 
3 3 80 1152 
3 23 3 1152 
3 131 0 1153 
3 0 4 1153 
3 72 1 1154 
3 1 99 1154 
3 2 71 1155 
3 22 2 1155 
3 902 335 1153 
3 116 287 1162 
3 1015 712 1124 
3 660 767 1139 
3 581 530 1151 
3 745 749 1175 
3 16 300 1173 
3 290 14 1159 
3 786 764 1166 
3 955 883 1161 
3 721 1049 1085 
3 1040 909 1151 
3 938 597 1169 
3 1081 812 1158 
3 79 78 1086 
3 1008 290 1159 
3 763 765 1157 
3 659 940 1170 
3 1113 851 1123 
3 1078 700 1113 
3 104 308 1087 
3 682 1026 1085 
3 1000 802 1149 
3 665 720 1138 
3 286 915 1088 
3 611 659 1170 
3 1007 512 1084 
3 883 881 1161 
3 766 1083 1163 
3 892 310 1124 
3 659 989 1139 
3 1009 659 1139 
3 300 17 1089 
3 777 778 1131 
3 278 86 1090 
3 674 675 1091 
3 865 867 1105 
3 1049 682 1085 
3 967 706 1141 
3 836 319 1096 
3 880 887 1094 
3 889 1088 1140 
3 277 85 1095 
3 786 588 1119 
3 694 971 1093 
3 957 719 1165 
3 1057 933 1156 
3 770 771 1096 
3 687 688 1097 
3 831 317 1101 
3 607 605 1098 
3 867 866 1115 
3 861 724 1127 
3 719 1022 1165 
3 1071 336 1112 
3 276 84 1099 
3 710 993 1100 
3 318 822 1106 
3 1096 771 1171 
3 607 1098 1103 
3 64 63 1102 
3 813 1078 1113 
3 81 777 1172 
3 716 715 1104 
3 812 811 1123 
3 578 958 1105 
3 679 920 1116 
3 727 607 1103 
3 295 1102 1175 
3 588 589 1107 
3 291 831 1164 
3 961 774 1127 
3 724 961 1127 
3 1093 899 1150 
3 65 295 1108 
3 877 322 1109 
3 673 681 1110 
3 890 889 1140 
3 685 729 1160 
3 766 786 1119 
3 902 5 1125 
3 986 643 1111 
3 700 851 1113 
3 304 917 1135 
3 729 686 1112 
3 1032 291 1164 
3 733 935 1114 
3 325 950 1126 
3 816 778 1145 
3 950 740 1126 
3 784 608 1140 
3 274 81 1172 
3 597 1136 1169 
3 711 679 1116 
3 923 806 1117 
3 341 420 1115 
3 534 533 1120 
3 669 742 1122 
3 723 932 1147 
3 1101 317 1146 
3 940 1106 1170 
3 851 757 1123 
3 1088 784 1140 
3 671 731 1121 
3 712 711 1124 
3 903 902 1125 
3 5 6 1125 
3 1003 332 1118 
3 740 713 1126 
3 288 861 1127 
3 297 842 1128 
3 1069 967 1141 
3 317 1082 1146 
3 1023 723 1147 
3 1114 565 1166 
3 32 31 1130 
3 502 499 1129 
3 105 106 1132 
3 881 1094 1161 
3 910 908 1133 
3 310 67 1134 
3 866 306 1137 
3 1027 904 1156 
3 894 897 1136 
3 1128 842 1158 
3 705 990 1135 
3 302 829 1143 
3 299 899 1138 
3 728 816 1145 
3 1102 744 1175 
3 1071 23 1152 
3 71 1072 1155 
3 1073 72 1154 
3 932 838 1147 
3 581 1027 1156 
3 1100 957 1165 
3 296 1133 1174 
3 852 320 1142 
3 1000 302 1143 
3 778 311 1145 
3 989 660 1139 
3 588 1107 1119 
3 918 303 1141 
3 53 52 1144 
3 309 1062 1163 
3 842 841 1158 
3 717 1000 1143 
3 1083 766 1119 
3 1128 1158 1168 
3 895 896 1150 
3 314 102 1148 
3 767 727 1146 
3 80 336 1152 
3 335 131 1153 
3 99 678 1154 
3 677 22 1155 
3 530 568 1151 
3 839 837 1171 
3 802 923 1149 
3 303 1069 1141 
3 933 581 1156 
3 1118 817 1167 
3 14 15 1159 
3 324 912 1160 
3 115 116 1162 
3 1022 305 1165 
3 765 766 1163 
3 582 955 1161 
3 764 762 1166 
3 1082 767 1146 
3 1159 15 1173 
3 332 274 1172 
3 694 1093 1150 
3 874 938 1169 
3 15 16 1173 
3 726 1032 1164 
3 897 290 1176 
3 1008 874 1176 
3 741 740 1174 
3 744 745 1175 
3 661 611 1170 
3 996 716 1167 
3 336 1071 1152 
3 1072 677 1155 
3 678 1073 1154 
3 1062 765 1163 
3 1169 897 1176 
3 874 1169 1176 
3 290 1008 1176 
3 771 1084 1171 
3 1094 582 1161 
3 1106 661 1170 
3 1079 763 1157 
3 305 1100 1165 
3 1084 839 1171 
3 762 1114 1166 
3 812 1123 1168 
3 1101 726 1164 
3 831 1101 1164 
3 1131 332 1172 
3 1123 757 1168 
3 757 1128 1168 
3 1133 741 1174 
3 1136 897 1169 
3 777 1131 1172 
3 1158 812 1168 
3 155 156 157 
3 155 157 158 
3 154 155 158 
3 159 154 158 
3 153 154 159 
3 160 153 159 
3 152 153 160 
3 161 152 160 
3 151 152 161 
3 162 151 161 
3 150 151 162 
3 163 150 162 
3 149 150 163 
3 164 149 163 
3 148 149 164 
3 165 148 164 
3 147 148 165 
3 147 165 166 
3 146 147 166 
3 133 86 1177 
3 167 146 166 
3 145 146 167 
3 145 167 168 
3 86 133 179 
3 144 145 168 
3 144 168 169 
3 143 144 169 
3 143 169 170 
3 142 143 170 
3 132 133 1177 
3 142 170 171 
3 141 142 171 
3 141 171 172 
3 140 141 172 
3 140 172 173 
3 139 140 173 
3 139 173 174 
3 138 139 174 
3 138 174 175 
3 137 138 175 
3 137 175 176 
3 86 277 1177 
3 136 176 177 
3 136 137 176 
3 135 177 178 
3 135 136 177 
3 134 178 179 
3 134 135 178 
3 133 134 179 
3 277 132 1177 
3 92 93 1178 
3 157 156 1178 
3 93 157 1178 
3 156 92 1178 
3 132 277 85 
3 157 200 201 
3 157 158 200 
3 158 199 200 
3 158 159 199 
3 159 198 199 
3 159 160 198 
3 160 197 198 
3 160 161 197 
3 161 196 197 
3 161 162 196 
3 162 195 196 
3 162 163 195 
3 163 194 195 
3 163 164 194 
3 194 164 193 
3 164 165 193 
3 165 192 193 
3 165 166 192 
3 87 178 1179 
3 166 191 192 
3 166 167 191 
3 167 190 191 
3 178 179 1179 
3 190 167 168 
3 178 87 180 
3 189 190 168 
3 169 189 168 
3 188 189 169 
3 170 188 169 
3 188 170 187 
3 170 171 187 
3 187 171 186 
3 171 172 186 
3 278 87 1179 
3 186 172 185 
3 172 173 185 
3 185 173 184 
3 173 174 184 
3 174 175 183 
3 174 183 184 
3 175 176 182 
3 183 175 182 
3 176 177 181 
3 177 178 180 
3 182 176 181 
3 181 177 180 
3 179 278 1179 
3 94 93 1180 
3 157 201 1180 
3 93 157 1180 
3 201 94 1180 
3 278 179 86 
3 200 201 202 
3 200 202 203 
3 199 200 203 
3 199 203 204 
3 198 199 204 
3 205 198 204 
3 205 197 198 
3 205 206 197 
3 206 196 197 
3 206 207 196 
3 207 195 196 
3 207 208 195 
3 208 194 195 
3 208 209 194 
3 194 209 193 
3 209 210 193 
3 210 192 193 
3 181 88 1181 
3 210 211 192 
3 211 191 192 
3 221 88 181 
3 211 212 191 
3 212 190 191 
3 212 213 190 
3 190 213 189 
3 213 214 189 
3 180 181 1181 
3 189 214 188 
3 214 215 188 
3 188 215 187 
3 215 216 187 
3 187 216 186 
3 216 217 186 
3 186 217 185 
3 217 218 185 
3 185 218 184 
3 218 219 184 
3 88 279 1181 
3 219 220 183 
3 219 183 184 
3 220 221 182 
3 183 220 182 
3 182 221 181 
3 279 180 1181 
3 94 95 1182 
3 202 201 1182 
3 95 202 1182 
3 201 94 1182 
3 279 87 180 
3 239 240 202 
3 203 239 202 
3 238 239 203 
3 204 238 203 
3 237 238 204 
3 205 237 204 
3 236 237 205 
3 206 236 205 
3 235 236 206 
3 235 206 207 
3 234 235 207 
3 208 234 207 
3 233 234 208 
3 209 233 208 
3 232 233 209 
3 210 232 209 
3 89 220 1183 
3 231 232 210 
3 231 210 211 
3 220 221 1183 
3 231 211 230 
3 230 211 212 
3 220 89 222 
3 229 230 212 
3 229 212 213 
3 228 229 213 
3 228 213 214 
3 227 228 214 
3 215 227 214 
3 280 89 1183 
3 226 227 215 
3 226 215 216 
3 225 226 216 
3 225 216 217 
3 224 217 218 
3 224 225 217 
3 218 219 223 
3 224 218 223 
3 219 220 222 
3 219 222 223 
3 221 280 1183 
3 96 95 1184 
3 202 240 1184 
3 95 202 1184 
3 240 96 1184 
3 221 88 280 
3 239 240 241 
3 242 239 241 
3 238 239 242 
3 243 238 242 
3 237 238 243 
3 244 237 243 
3 236 237 244 
3 245 236 244 
3 235 236 245 
3 246 235 245 
3 234 235 246 
3 247 234 246 
3 233 234 247 
3 233 247 248 
3 232 233 248 
3 223 90 1185 
3 249 232 248 
3 90 223 257 
3 232 249 231 
3 249 250 231 
3 231 250 230 
3 250 251 230 
3 251 229 230 
3 229 251 252 
3 222 223 1185 
3 229 252 228 
3 252 253 228 
3 253 227 228 
3 253 254 227 
3 254 226 227 
3 255 226 254 
3 226 255 225 
3 225 255 256 
3 224 256 257 
3 224 225 256 
3 90 281 1185 
3 223 224 257 
3 281 222 1185 
3 96 97 1186 
3 241 240 1186 
3 97 241 1186 
3 240 96 1186 
3 89 222 281 
3 272 273 241 
3 242 272 241 
3 271 272 242 
3 243 271 242 
3 270 271 243 
3 244 270 243 
3 269 270 244 
3 245 269 244 
3 268 269 245 
3 246 268 245 
3 267 268 246 
3 247 267 246 
3 266 267 247 
3 91 256 1187 
3 266 247 248 
3 265 266 248 
3 256 257 1187 
3 249 265 248 
3 265 249 264 
3 256 91 258 
3 249 250 264 
3 250 263 264 
3 250 251 263 
3 251 262 263 
3 251 252 262 
3 282 91 1187 
3 252 261 262 
3 252 253 261 
3 253 254 260 
3 253 260 261 
3 254 255 259 
3 254 259 260 
3 255 256 258 
3 255 258 259 
3 257 282 1187 
3 98 97 1188 
3 241 273 1188 
3 97 241 1188 
3 273 98 1188 
3 90 282 257 
3 272 273 99 
3 272 99 100 
3 271 272 100 
3 271 100 101 
3 270 271 101 
3 270 101 102 
3 269 270 102 
3 269 102 103 
3 268 269 103 
3 268 103 104 
3 267 268 104 
3 267 104 105 
3 259 82 1189 
3 266 267 105 
3 112 82 259 
3 266 105 106 
3 265 266 106 
3 107 265 106 
3 264 265 107 
3 108 264 107 
3 263 264 108 
3 263 108 109 
3 258 259 1189 
3 263 109 262 
3 109 110 262 
3 110 261 262 
3 110 111 261 
3 111 112 260 
3 261 111 260 
3 260 112 259 
3 82 283 1189 
3 283 258 1189 
3 98 1 1190 
3 99 273 1190 
3 1 99 1190 
3 273 98 1190 
3 283 91 258 

CELL_TYPES 2241
5
5
5
5
5
5
5
5
5
5
5
5
5
5
5
5
5
5
5
5
5
5
5
5
5
5
5
5
5
5
5
5
5
5
5
5
5
5
5
5
5
5
5
5
5
5
5
5
5
5
5
5
5
5
5
5
5
5
5
5
5
5
5
5
5
5
5
5
5
5
5
5
5
5
5
5
5
5
5
5
5
5
5
5
5
5
5
5
5
5
5
5
5
5
5
5
5
5
5
5
5
5
5
5
5
5
5
5
5
5
5
5
5
5
5
5
5
5
5
5
5
5
5
5
5
5
5
5
5
5
5
5
5
5
5
5
5
5
5
5
5
5
5
5
5
5
5
5
5
5
5
5
5
5
5
5
5
5
5
5
5
5
5
5
5
5
5
5
5
5
5
5
5
5
5
5
5
5
5
5
5
5
5
5
5
5
5
5
5
5
5
5
5
5
5
5
5
5
5
5
5
5
5
5
5
5
5
5
5
5
5
5
5
5
5
5
5
5
5
5
5
5
5
5
5
5
5
5
5
5
5
5
5
5
5
5
5
5
5
5
5
5
5
5
5
5
5
5
5
5
5
5
5
5
5
5
5
5
5
5
5
5
5
5
5
5
5
5
5
5
5
5
5
5
5
5
5
5
5
5
5
5
5
5
5
5
5
5
5
5
5
5
5
5
5
5
5
5
5
5
5
5
5
5
5
5
5
5
5
5
5
5
5
5
5
5
5
5
5
5
5
5
5
5
5
5
5
5
5
5
5
5
5
5
5
5
5
5
5
5
5
5
5
5
5
5
5
5
5
5
5
5
5
5
5
5
5
5
5
5
5
5
5
5
5
5
5
5
5
5
5
5
5
5
5
5
5
5
5
5
5
5
5
5
5
5
5
5
5
5
5
5
5
5
5
5
5
5
5
5
5
5
5
5
5
5
5
5
5
5
5
5
5
5
5
5
5
5
5
5
5
5
5
5
5
5
5
5
5
5
5
5
5
5
5
5
5
5
5
5
5
5
5
5
5
5
5
5
5
5
5
5
5
5
5
5
5
5
5
5
5
5
5
5
5
5
5
5
5
5
5
5
5
5
5
5
5
5
5
5
5
5
5
5
5
5
5
5
5
5
5
5
5
5
5
5
5
5
5
5
5
5
5
5
5
5
5
5
5
5
5
5
5
5
5
5
5
5
5
5
5
5
5
5
5
5
5
5
5
5
5
5
5
5
5
5
5
5
5
5
5
5
5
5
5
5
5
5
5
5
5
5
5
5
5
5
5
5
5
5
5
5
5
5
5
5
5
5
5
5
5
5
5
5
5
5
5
5
5
5
5
5
5
5
5
5
5
5
5
5
5
5
5
5
5
5
5
5
5
5
5
5
5
5
5
5
5
5
5
5
5
5
5
5
5
5
5
5
5
5
5
5
5
5
5
5
5
5
5
5
5
5
5
5
5
5
5
5
5
5
5
5
5
5
5
5
5
5
5
5
5
5
5
5
5
5
5
5
5
5
5
5
5
5
5
5
5
5
5
5
5
5
5
5
5
5
5
5
5
5
5
5
5
5
5
5
5
5
5
5
5
5
5
5
5
5
5
5
5
5
5
5
5
5
5
5
5
5
5
5
5
5
5
5
5
5
5
5
5
5
5
5
5
5
5
5
5
5
5
5
5
5
5
5
5
5
5
5
5
5
5
5
5
5
5
5
5
5
5
5
5
5
5
5
5
5
5
5
5
5
5
5
5
5
5
5
5
5
5
5
5
5
5
5
5
5
5
5
5
5
5
5
5
5
5
5
5
5
5
5
5
5
5
5
5
5
5
5
5
5
5
5
5
5
5
5
5
5
5
5
5
5
5
5
5
5
5
5
5
5
5
5
5
5
5
5
5
5
5
5
5
5
5
5
5
5
5
5
5
5
5
5
5
5
5
5
5
5
5
5
5
5
5
5
5
5
5
5
5
5
5
5
5
5
5
5
5
5
5
5
5
5
5
5
5
5
5
5
5
5
5
5
5
5
5
5
5
5
5
5
5
5
5
5
5
5
5
5
5
5
5
5
5
5
5
5
5
5
5
5
5
5
5
5
5
5
5
5
5
5
5
5
5
5
5
5
5
5
5
5
5
5
5
5
5
5
5
5
5
5
5
5
5
5
5
5
5
5
5
5
5
5
5
5
5
5
5
5
5
5
5
5
5
5
5
5
5
5
5
5
5
5
5
5
5
5
5
5
5
5
5
5
5
5
5
5
5
5
5
5
5
5
5
5
5
5
5
5
5
5
5
5
5
5
5
5
5
5
5
5
5
5
5
5
5
5
5
5
5
5
5
5
5
5
5
5
5
5
5
5
5
5
5
5
5
5
5
5
5
5
5
5
5
5
5
5
5
5
5
5
5
5
5
5
5
5
5
5
5
5
5
5
5
5
5
5
5
5
5
5
5
5
5
5
5
5
5
5
5
5
5
5
5
5
5
5
5
5
5
5
5
5
5
5
5
5
5
5
5
5
5
5
5
5
5
5
5
5
5
5
5
5
5
5
5
5
5
5
5
5
5
5
5
5
5
5
5
5
5
5
5
5
5
5
5
5
5
5
5
5
5
5
5
5
5
5
5
5
5
5
5
5
5
5
5
5
5
5
5
5
5
5
5
5
5
5
5
5
5
5
5
5
5
5
5
5
5
5
5
5
5
5
5
5
5
5
5
5
5
5
5
5
5
5
5
5
5
5
5
5
5
5
5
5
5
5
5
5
5
5
5
5
5
5
5
5
5
5
5
5
5
5
5
5
5
5
5
5
5
5
5
5
5
5
5
5
5
5
5
5
5
5
5
5
5
5
5
5
5
5
5
5
5
5
5
5
5
5
5
5
5
5
5
5
5
5
5
5
5
5
5
5
5
5
5
5
5
5
5
5
5
5
5
5
5
5
5
5
5
5
5
5
5
5
5
5
5
5
5
5
5
5
5
5
5
5
5
5
5
5
5
5
5
5
5
5
5
5
5
5
5
5
5
5
5
5
5
5
5
5
5
5
5
5
5
5
5
5
5
5
5
5
5
5
5
5
5
5
5
5
5
5
5
5
5
5
5
5
5
5
5
5
5
5
5
5
5
5
5
5
5
5
5
5
5
5
5
5
5
5
5
5
5
5
5
5
5
5
5
5
5
5
5
5
5
5
5
5
5
5
5
5
5
5
5
5
5
5
5
5
5
5
5
5
5
5
5
5
5
5
5
5
5
5
5
5
5
5
5
5
5
5
5
5
5
5
5
5
5
5
5
5
5
5
5
5
5
5
5
5
5
5
5
5
5
5
5
5
5
5
5
5
5
5
5
5
5
5
5
5
5
5
5
5
5
5
5
5
5
5
5
5
5
5
5
5
5
5
5
5
5
5
5
5
5
5
5
5
5
5
5
5
5
5
5
5
5
5
5
5
5
5
5
5
5
5
5
5
5
5
5
5
5
5
5
5
5
5
5
5
5
5
5
5
5
5
5
5
5
5
5
5
5
5
5
5
5
5
5
5
5
5
5
5
5
5
5
5
5
5
5
5
5
5
5
5
5
5
5
5
5
5
5
5
5
5
5
5
5
5
5
5
5
5
5
5
5
5
5
5
5
5
5
5
5
5
5
5
5
5
5
5
5
5
5
5
5
5
5
5
5
5
5
5
5
5
5
5
5
5
5
5
5
5
5
5
5
5
5
5
5
5
5
5
5
5
5
5
5
5
5
5
5
5
5
5
5
5
5
5
5
5
5
5
5
5
5
5
5
5
5
5
5
5
5
5
5
5
5
5
5
5
5
5
5
5
5
5
5
5
5
5
5
5
5
5
5
5
5
5
5
5
5
5
5
5
5
5
5
5
5
5
5
5
5
5
5
5
5
5
5
5
5
5
5
5
5
5
5
5
5
5
5
5
5
5
5
5
5
5
5
5
5
5
5
5
5
5
5
5
5
5
5
5
5
5
5
5
5
5
5
5
5
5
5
5
5
5
5
5
5
5
5
5
5
5
5
5
5
5
5
5
5
5
5
5
5
5
5
5
5
5
5
5
5
5
5
5
5
5
5
5
5
5
5
5
5
5
5
5
5
5
5
5
5
5
5
5
5
5
5
5
5
5
5
5
5
5
5
5
5
5
5
5
5
5
5
5
5
5
5
5
5
5
5
5
5
5
5
5
5
5
5
5
5
5
5
5
5
5
5
5
5
5
5
5
5
5
5
5
5
5
5
5
5
5
5
5
5
5
5
5
5
5
5
5
5
5
5
5
5
5
5
5
5
5
5
5
5
5
5
5
5
5
5
5
5
5
5
5
5
5
5
5
5
5
5
5
5
5
5
5
5
5
5
5
5
5
5
5
5
5
5
5
5
5
5
5
5
5
5
5
5
5
5
5
5
5
5
5
5
5
5
5
5
5
5
5
5
5
5
5
5
5
5
5
5
5
5
5
5
5
5
5
5
5
5
5
5
5
5
5
5
5
5
5
5
5
5
5
5
5
5
5
5
5
5
5
5
5
5
5
5
5
5
5
5
5
5
5
5
5
5
5
5
5
5
5
5
5
5
5
5
5
5
5
5
5
5
5
5
5
5
5
5
5
5
5
5
5
5
5
5
5
5
5
5
5
5
5
5
5
5
5
5
5
5
5
5
5
5
5
5
5
5
5
5
5
5
5
5
5
5
5
5
5
5
5
5
5
5
5
5
5
5
5
5
5
5
5
5
5
5
5
5
5
5
5
5
5
5
5
5
5
5
5
5
5
5
5
5
5
5
5
5
5
5
5
5
5
5
5
5
5
5
5
5
5
5
5
5
5
5
5
5
5
5
5
5
5
5
5
5
5
5
5
5
5
5
5
5
5
5
5
5
5
5
5
5
5
5
5
5
5
5
5
5
5
5
5
5
5
5
5
5
5
5
5
5
5
5
5
5
5
5
5
5
5
5
5
5
5
5
5
5
5
5
5
5
5
5
5
5
5
5
5
5
5
5
5
5
5
5
5
5
5
5
5
5
5
5
5
5
5
5
5
5
5
5
5
5
5
5
5
5
5
5
5
5
5
5
5
5
5
5
5
5
5
5
5
5

POINT_DATA 1191

VECTORS coord float
0.0 0.0 0.0 
5.000000000000e+01 -1.000000000000e+01 0.0 
0.0 -2.000000000000e+01 0.0 
5.000000000000e+01 -2.000000000000e+01 0.0 
0.0 -9.999999999991e-01 0.0 
0.0 -1.999999999998e+00 0.0 
0.0 -2.999999999997e+00 0.0 
0.0 -3.999999999994e+00 0.0 
0.0 -4.999999999991e+00 0.0 
0.0 -5.999999999988e+00 0.0 
0.0 -6.999999999985e+00 0.0 
0.0 -7.999999999982e+00 0.0 
0.0 -8.999999999983e+00 0.0 
0.0 -9.999999999985e+00 0.0 
0.0 -1.099999999999e+01 0.0 
0.0 -1.199999999999e+01 0.0 
0.0 -1.299999999999e+01 0.0 
0.0 -1.399999999999e+01 0.0 
0.0 -1.499999999999e+01 0.0 
0.0 -1.599999999999e+01 0.0 
0.0 -1.700000000000e+01 0.0 
0.0 -1.800000000000e+01 0.0 
0.0 -1.900000000000e+01 0.0 
4.900000000001e+01 -2.000000000000e+01 0.0 
4.800000000001e+01 -2.000000000000e+01 0.0 
4.700000000002e+01 -2.000000000000e+01 0.0 
4.600000000003e+01 -2.000000000000e+01 0.0 
4.500000000004e+01 -2.000000000000e+01 0.0 
4.400000000004e+01 -2.000000000000e+01 0.0 
4.300000000005e+01 -2.000000000000e+01 0.0 
4.200000000006e+01 -2.000000000000e+01 0.0 
4.100000000006e+01 -2.000000000000e+01 0.0 
4.000000000007e+01 -2.000000000000e+01 0.0 
3.900000000008e+01 -2.000000000000e+01 0.0 
3.800000000009e+01 -2.000000000000e+01 0.0 
3.700000000009e+01 -2.000000000000e+01 0.0 
3.600000000010e+01 -2.000000000000e+01 0.0 
3.500000000011e+01 -2.000000000000e+01 0.0 
3.400000000011e+01 -2.000000000000e+01 0.0 
3.300000000012e+01 -2.000000000000e+01 0.0 
3.200000000013e+01 -2.000000000000e+01 0.0 
3.100000000013e+01 -2.000000000000e+01 0.0 
3.000000000013e+01 -2.000000000000e+01 0.0 
2.900000000013e+01 -2.000000000000e+01 0.0 
2.800000000013e+01 -2.000000000000e+01 0.0 
2.700000000013e+01 -2.000000000000e+01 0.0 
2.600000000013e+01 -2.000000000000e+01 0.0 
2.500000000013e+01 -2.000000000000e+01 0.0 
2.400000000013e+01 -2.000000000000e+01 0.0 
2.300000000013e+01 -2.000000000000e+01 0.0 
2.200000000013e+01 -2.000000000000e+01 0.0 
2.100000000013e+01 -2.000000000000e+01 0.0 
2.000000000013e+01 -2.000000000000e+01 0.0 
1.900000000013e+01 -2.000000000000e+01 0.0 
1.800000000013e+01 -2.000000000000e+01 0.0 
1.700000000012e+01 -2.000000000000e+01 0.0 
1.600000000011e+01 -2.000000000000e+01 0.0 
1.500000000011e+01 -2.000000000000e+01 0.0 
1.400000000010e+01 -2.000000000000e+01 0.0 
1.300000000009e+01 -2.000000000000e+01 0.0 
1.200000000009e+01 -2.000000000000e+01 0.0 
1.100000000008e+01 -2.000000000000e+01 0.0 
1.000000000007e+01 -2.000000000000e+01 0.0 
9.000000000064e+00 -2.000000000000e+01 0.0 
8.000000000057e+00 -2.000000000000e+01 0.0 
7.000000000050e+00 -2.000000000000e+01 0.0 
6.000000000043e+00 -2.000000000000e+01 0.0 
5.000000000036e+00 -2.000000000000e+01 0.0 
4.000000000028e+00 -2.000000000000e+01 0.0 
3.000000000021e+00 -2.000000000000e+01 0.0 
2.000000000014e+00 -2.000000000000e+01 0.0 
1.000000000007e+00 -2.000000000000e+01 0.0 
5.000000000000e+01 -1.100000000000e+01 0.0 
5.000000000000e+01 -1.200000000000e+01 0.0 
5.000000000000e+01 -1.300000000000e+01 0.0 
5.000000000000e+01 -1.400000000000e+01 0.0 
5.000000000000e+01 -1.500000000000e+01 0.0 
5.000000000000e+01 -1.600000000000e+01 0.0 
5.000000000000e+01 -1.700000000000e+01 0.0 
5.000000000000e+01 -1.800000000000e+01 0.0 
5.000000000000e+01 -1.900000000000e+01 0.0 
2.000000000000e+01 0.0 0.0 
3.500000000000e+01 -1.000000000000e+01 0.0 
2.150000000000e+01 -1.000000000000e+00 0.0 
2.300000000000e+01 -2.000000000000e+00 0.0 
2.450000000000e+01 -3.000000000000e+00 0.0 
2.600000000000e+01 -4.000000000000e+00 0.0 
2.750000000000e+01 -5.000000000000e+00 0.0 
2.900000000000e+01 -6.000000000000e+00 0.0 
3.050000000000e+01 -7.000000000000e+00 0.0 
3.200000000000e+01 -8.000000000000e+00 0.0 
3.350000000000e+01 -9.000000000000e+00 0.0 
5.000000000000e+01 -3.000000000000e+00 0.0 
5.000000000000e+01 -4.000000000000e+00 0.0 
5.000000000000e+01 -5.000000000000e+00 0.0 
5.000000000000e+01 -6.000000000000e+00 0.0 
5.000000000000e+01 -7.000000000000e+00 0.0 
5.000000000000e+01 -8.000000000000e+00 0.0 
5.000000000000e+01 -9.000000000000e+00 0.0 
4.900000000000e+01 -1.000000000000e+01 0.0 
4.800000000000e+01 -1.000000000000e+01 0.0 
4.700000000000e+01 -1.000000000000e+01 0.0 
4.600000000000e+01 -1.000000000000e+01 0.0 
4.500000000000e+01 -1.000000000000e+01 0.0 
4.400000000000e+01 -1.000000000000e+01 0.0 
4.300000000000e+01 -1.000000000000e+01 0.0 
4.200000000000e+01 -1.000000000000e+01 0.0 
4.100000000000e+01 -1.000000000000e+01 0.0 
4.000000000000e+01 -1.000000000000e+01 0.0 
3.900000000000e+01 -1.000000000000e+01 0.0 
3.800000000000e+01 -1.000000000000e+01 0.0 
3.700000000000e+01 -1.000000000000e+01 0.0 
3.600000000000e+01 -1.000000000000e+01 0.0 
1.900000000000e+01 0.0 0.0 
1.800000000000e+01 0.0 0.0 
1.700000000000e+01 0.0 0.0 
1.600000000000e+01 0.0 0.0 
1.500000000000e+01 0.0 0.0 
1.400000000000e+01 0.0 0.0 
1.300000000000e+01 0.0 0.0 
1.200000000000e+01 0.0 0.0 
1.100000000000e+01 0.0 0.0 
1.000000000000e+01 0.0 0.0 
9.000000000000e+00 0.0 0.0 
8.000000000000e+00 0.0 0.0 
7.000000000000e+00 0.0 0.0 
6.000000000000e+00 0.0 0.0 
5.000000000000e+00 0.0 0.0 
4.000000000000e+00 0.0 0.0 
3.000000000000e+00 0.0 0.0 
2.000000000000e+00 0.0 0.0 
1.000000000000e+00 0.0 0.0 
2.548076923077e+01 -3.000000000000e+00 0.0 
2.646153846153e+01 -3.000000000000e+00 0.0 
2.744230769230e+01 -3.000000000000e+00 0.0 
2.842307692306e+01 -3.000000000000e+00 0.0 
2.940384615383e+01 -3.000000000000e+00 0.0 
3.038461538459e+01 -3.000000000000e+00 0.0 
3.136538461536e+01 -3.000000000000e+00 0.0 
3.234615384612e+01 -3.000000000000e+00 0.0 
3.332692307687e+01 -3.000000000000e+00 0.0 
3.430769230762e+01 -3.000000000000e+00 0.0 
3.528846153837e+01 -3.000000000000e+00 0.0 
3.626923076912e+01 -3.000000000000e+00 0.0 
3.724999999988e+01 -3.000000000000e+00 0.0 
3.823076923065e+01 -3.000000000000e+00 0.0 
3.921153846143e+01 -3.000000000000e+00 0.0 
4.019230769221e+01 -3.000000000000e+00 0.0 
4.117307692299e+01 -3.000000000000e+00 0.0 
4.215384615377e+01 -3.000000000000e+00 0.0 
4.313461538455e+01 -3.000000000000e+00 0.0 
4.411538461533e+01 -3.000000000000e+00 0.0 
4.509615384611e+01 -3.000000000000e+00 0.0 
4.607692307688e+01 -3.000000000000e+00 0.0 
4.705769230766e+01 -3.000000000000e+00 0.0 
4.803846153844e+01 -3.000000000000e+00 0.0 
4.901923076922e+01 -3.000000000000e+00 0.0 
4.900000000000e+01 -4.000000000000e+00 0.0 
4.800000000000e+01 -4.000000000000e+00 0.0 
4.700000000000e+01 -4.000000000000e+00 0.0 
4.600000000000e+01 -4.000000000000e+00 0.0 
4.500000000000e+01 -4.000000000000e+00 0.0 
4.400000000000e+01 -4.000000000000e+00 0.0 
4.300000000000e+01 -4.000000000000e+00 0.0 
4.200000000000e+01 -4.000000000000e+00 0.0 
4.100000000000e+01 -4.000000000000e+00 0.0 
4.000000000000e+01 -4.000000000000e+00 0.0 
3.900000000000e+01 -4.000000000000e+00 0.0 
3.800000000000e+01 -4.000000000000e+00 0.0 
3.700000000000e+01 -4.000000000000e+00 0.0 
3.600000000000e+01 -4.000000000000e+00 0.0 
3.500000000000e+01 -4.000000000000e+00 0.0 
3.400000000000e+01 -4.000000000000e+00 0.0 
3.300000000000e+01 -4.000000000000e+00 0.0 
3.200000000000e+01 -4.000000000000e+00 0.0 
3.100000000000e+01 -4.000000000000e+00 0.0 
3.000000000000e+01 -4.000000000000e+00 0.0 
2.900000000000e+01 -4.000000000000e+00 0.0 
2.800000000000e+01 -4.000000000000e+00 0.0 
2.700000000000e+01 -4.000000000000e+00 0.0 
2.847826086957e+01 -5.000000000000e+00 0.0 
2.945652173913e+01 -5.000000000000e+00 0.0 
3.043478260870e+01 -5.000000000000e+00 0.0 
3.141304347826e+01 -5.000000000000e+00 0.0 
3.239130434783e+01 -5.000000000000e+00 0.0 
3.336956521739e+01 -5.000000000000e+00 0.0 
3.434782608696e+01 -5.000000000000e+00 0.0 
3.532608695652e+01 -5.000000000000e+00 0.0 
3.630434782609e+01 -5.000000000000e+00 0.0 
3.728260869565e+01 -5.000000000000e+00 0.0 
3.826086956522e+01 -5.000000000000e+00 0.0 
3.923913043478e+01 -5.000000000000e+00 0.0 
4.021739130435e+01 -5.000000000000e+00 0.0 
4.119565217391e+01 -5.000000000000e+00 0.0 
4.217391304348e+01 -5.000000000000e+00 0.0 
4.315217391304e+01 -5.000000000000e+00 0.0 
4.413043478261e+01 -5.000000000000e+00 0.0 
4.510869565217e+01 -5.000000000000e+00 0.0 
4.608695652174e+01 -5.000000000000e+00 0.0 
4.706521739130e+01 -5.000000000000e+00 0.0 
4.804347826087e+01 -5.000000000000e+00 0.0 
4.902173913043e+01 -5.000000000000e+00 0.0 
4.900000000001e+01 -6.000000000000e+00 0.0 
4.800000000003e+01 -6.000000000000e+00 0.0 
4.700000000004e+01 -6.000000000000e+00 0.0 
4.600000000006e+01 -6.000000000000e+00 0.0 
4.500000000007e+01 -6.000000000000e+00 0.0 
4.400000000009e+01 -6.000000000000e+00 0.0 
4.300000000010e+01 -6.000000000000e+00 0.0 
4.200000000012e+01 -6.000000000000e+00 0.0 
4.100000000013e+01 -6.000000000000e+00 0.0 
4.000000000014e+01 -6.000000000000e+00 0.0 
3.900000000014e+01 -6.000000000000e+00 0.0 
3.800000000012e+01 -6.000000000000e+00 0.0 
3.700000000010e+01 -6.000000000000e+00 0.0 
3.600000000008e+01 -6.000000000000e+00 0.0 
3.500000000006e+01 -6.000000000000e+00 0.0 
3.400000000005e+01 -6.000000000000e+00 0.0 
3.300000000003e+01 -6.000000000000e+00 0.0 
3.200000000001e+01 -6.000000000000e+00 0.0 
3.100000000000e+01 -6.000000000000e+00 0.0 
3.000000000000e+01 -6.000000000000e+00 0.0 
3.147499999998e+01 -7.000000000000e+00 0.0 
3.244999999998e+01 -7.000000000000e+00 0.0 
3.342499999998e+01 -7.000000000000e+00 0.0 
3.439999999998e+01 -7.000000000000e+00 0.0 
3.537499999998e+01 -7.000000000000e+00 0.0 
3.634999999998e+01 -7.000000000000e+00 0.0 
3.732499999998e+01 -7.000000000000e+00 0.0 
3.829999999998e+01 -7.000000000000e+00 0.0 
3.927499999999e+01 -7.000000000000e+00 0.0 
4.024999999999e+01 -7.000000000000e+00 0.0 
4.122499999999e+01 -7.000000000000e+00 0.0 
4.219999999999e+01 -7.000000000000e+00 0.0 
4.317499999999e+01 -7.000000000000e+00 0.0 
4.414999999999e+01 -7.000000000000e+00 0.0 
4.512499999999e+01 -7.000000000000e+00 0.0 
4.609999999999e+01 -7.000000000000e+00 0.0 
4.707500000000e+01 -7.000000000000e+00 0.0 
4.805000000000e+01 -7.000000000000e+00 0.0 
4.902500000000e+01 -7.000000000000e+00 0.0 
4.900000000000e+01 -8.000000000000e+00 0.0 
4.800000000000e+01 -8.000000000000e+00 0.0 
4.700000000000e+01 -8.000000000000e+00 0.0 
4.600000000000e+01 -8.000000000000e+00 0.0 
4.500000000000e+01 -8.000000000000e+00 0.0 
4.400000000000e+01 -8.000000000000e+00 0.0 
4.300000000000e+01 -8.000000000000e+00 0.0 
4.200000000000e+01 -8.000000000000e+00 0.0 
4.100000000000e+01 -8.000000000000e+00 0.0 
4.000000000000e+01 -8.000000000000e+00 0.0 
3.900000000000e+01 -8.000000000000e+00 0.0 
3.800000000000e+01 -8.000000000000e+00 0.0 
3.700000000000e+01 -8.000000000000e+00 0.0 
3.600000000000e+01 -8.000000000000e+00 0.0 
3.500000000000e+01 -8.000000000000e+00 0.0 
3.400000000000e+01 -8.000000000000e+00 0.0 
3.300000000000e+01 -8.000000000000e+00 0.0 
3.447058823527e+01 -9.000000000000e+00 0.0 
3.544117647055e+01 -9.000000000000e+00 0.0 
3.641176470582e+01 -9.000000000000e+00 0.0 
3.738235294109e+01 -9.000000000000e+00 0.0 
3.835294117637e+01 -9.000000000000e+00 0.0 
3.932352941164e+01 -9.000000000000e+00 0.0 
4.029411764691e+01 -9.000000000000e+00 0.0 
4.126470588219e+01 -9.000000000000e+00 0.0 
4.223529411748e+01 -9.000000000000e+00 0.0 
4.320588235279e+01 -9.000000000000e+00 0.0 
4.417647058811e+01 -9.000000000000e+00 0.0 
4.514705882342e+01 -9.000000000000e+00 0.0 
4.611764705874e+01 -9.000000000000e+00 0.0 
4.708823529405e+01 -9.000000000000e+00 0.0 
4.805882352937e+01 -9.000000000000e+00 0.0 
4.902941176468e+01 -9.000000000000e+00 0.0 
2.075000000000e+01 -5.000000000006e-01 0.0 
2.225000000000e+01 -1.500000000000e+00 0.0 
2.375000000000e+01 -2.500000000000e+00 0.0 
2.525000000000e+01 -3.500000000000e+00 0.0 
2.675000000000e+01 -4.500000000000e+00 0.0 
2.825000000000e+01 -5.500000000000e+00 0.0 
2.975000000000e+01 -6.500000000000e+00 0.0 
3.125000000000e+01 -7.500000000000e+00 0.0 
3.275000000000e+01 -8.500000000000e+00 0.0 
3.425000000000e+01 -9.500000000000e+00 0.0 
2.226951693683e+01 -2.403913980114e+00 0.0 
1.650149491944e+01 -1.913490915758e+01 0.0 
1.050042386896e+01 -8.504605092970e-01 0.0 
1.553146524712e+01 -8.281255032105e-01 0.0 
1.150000000008e+01 -1.913397459621e+01 0.0 
2.530060260647e+01 -4.428336431260e+00 0.0 
8.651114563942e-01 -1.052096295641e+01 0.0 
2.050000000013e+01 -1.913397459622e+01 0.0 
2.819198729811e+01 -6.399519052838e+00 0.0 
2.445670302931e+01 -1.915649188023e+01 0.0 
3.117591465718e+01 -8.394293040695e+00 0.0 
7.465053044742e+00 -1.920411160581e+01 0.0 
6.398295709691e+00 -8.230098819370e-01 0.0 
2.849659607461e+01 -1.914296187762e+01 0.0 
3.418732642882e+01 -1.040265792588e+01 0.0 
8.386450935063e-01 -6.533605142809e+00 0.0 
9.178661865596e-01 -1.329769195597e+01 0.0 
3.149448624493e+01 -1.910466733764e+01 0.0 
3.552916747426e+01 -1.914628590759e+01 0.0 
4.449210346537e+01 -1.914359085008e+01 0.0 
4.140975975145e+01 -1.906941860733e+01 0.0 
3.847475958753e+01 -1.916622382724e+01 0.0 
3.653774794640e+01 -1.088712800241e+01 0.0 
4.047886341787e+01 -1.090139014048e+01 0.0 
4.348006339825e+01 -1.092792621489e+01 0.0 
4.919519968029e+01 -1.451526755068e+01 0.0 
4.500000000032e+00 -1.913397459621e+01 0.0 
1.856136921614e+01 -8.212235170404e-01 0.0 
3.499895312306e+00 -8.661165539723e-01 0.0 
9.076088696565e-01 -1.642306201891e+01 0.0 
4.655174095477e+01 -1.086183387525e+01 0.0 
9.430688970604e-01 -3.496112672958e+00 0.0 
3.353992337063e+01 -1.901202090820e+01 0.0 
2.249746016977e+01 -1.921262287282e+01 0.0 
2.650122741777e+01 -1.916123026018e+01 0.0 
1.863571384842e+01 -1.908325534840e+01 0.0 
1.450089971693e+01 -1.917691901860e+01 0.0 
1.350044695317e+01 -8.659695299584e-01 0.0 
3.849987469880e+01 -1.084154983397e+01 0.0 
9.454419857884e+00 -1.900818879936e+01 0.0 
4.917398660523e+01 -1.645692866081e+01 0.0 
8.500000000000e+00 -8.660254037844e-01 0.0 
8.660319230785e-01 -8.500111697188e+00 0.0 
4.649022621545e+01 -1.930506220113e+01 0.0 
2.667688107845e+01 -5.420288124331e+00 0.0 
2.379251615665e+01 -3.412225477429e+00 0.0 
2.966631491830e+01 -7.389030232731e+00 0.0 
3.267915035995e+01 -9.396934932445e+00 0.0 
2.074836922338e+01 -1.320054020319e+00 0.0 
4.915985743621e+01 -1.261973384855e+01 0.0 
2.527129768623e+00 -1.931592414663e+01 0.0 
1.538676247410e+00 -8.436956619311e-01 0.0 
4.908096641539e+01 -1.842484004551e+01 0.0 
3.478612492673e+01 -1.090889364140e+01 0.0 
3.409757055860e+01 -1.131991530427e+01 0.0 
3.501895309466e+01 -1.177687842717e+01 0.0 
3.407758073088e+01 -1.224293381580e+01 0.0 
3.484541875390e+01 -1.277051428430e+01 0.0 
3.400322025842e+01 -1.319022775640e+01 0.0 
3.321672625034e+01 -1.266779191233e+01 0.0 
3.315244139236e+01 -1.360984106532e+01 0.0 
3.236335186892e+01 -1.308463225210e+01 0.0 
3.478337442841e+01 -1.372341158982e+01 0.0 
3.230105923633e+01 -1.403023731610e+01 0.0 
3.150954055289e+01 -1.350301767700e+01 0.0 
3.144604792090e+01 -1.444931742516e+01 0.0 
3.065653897123e+01 -1.392357262981e+01 0.0 
3.071897610812e+01 -1.297447031198e+01 0.0 
2.986790411740e+01 -1.339226181535e+01 0.0 
2.993181466745e+01 -1.244703272398e+01 0.0 
2.908023061869e+01 -1.286254537734e+01 0.0 
2.901619051372e+01 -1.380881655279e+01 0.0 
2.822986160390e+01 -1.327695262116e+01 0.0 
2.829453476870e+01 -1.233265343811e+01 0.0 
2.744542905518e+01 -1.274510491105e+01 0.0 
2.751120089246e+01 -1.180368086886e+01 0.0 
2.666218649885e+01 -1.221619339205e+01 0.0 
2.672371209234e+01 -1.127125228527e+01 0.0 
2.587763216302e+01 -1.168539979114e+01 0.0 
2.581165585299e+01 -1.262994410089e+01 0.0 
2.502890882577e+01 -1.209827323619e+01 0.0 
2.509631327757e+01 -1.115492410304e+01 0.0 
2.424662989877e+01 -1.156630981079e+01 0.0 
2.431704046904e+01 -1.062389179334e+01 0.0 
2.346445438728e+01 -1.103427680694e+01 0.0 
2.339382552877e+01 -1.197964871788e+01 0.0 
2.260936050780e+01 -1.144513277642e+01 0.0 
2.268075012022e+01 -1.049911928216e+01 0.0 
2.182525737661e+01 -1.090920811464e+01 0.0 
2.189682319817e+01 -9.961716944568e+00 0.0 
2.104174127792e+01 -1.037266986667e+01 0.0 
2.111304367575e+01 -9.424179358711e+00 0.0 
2.025306185381e+01 -9.832727364719e+00 0.0 
2.018141124247e+01 -1.079140628871e+01 0.0 
1.938594498257e+01 -1.025147354112e+01 0.0 
1.946106490453e+01 -9.288010758448e+00 0.0 
1.858929958352e+01 -9.706319802516e+00 0.0 
1.851540991219e+01 -1.067205988724e+01 0.0 
1.771485303178e+01 -1.012504443115e+01 0.0 
1.764134552256e+01 -1.109360378538e+01 0.0 
1.683745148095e+01 -1.054496365337e+01 0.0 
1.691852964353e+01 -9.582555261178e+00 0.0 
1.603603813062e+01 -1.000160132379e+01 0.0 
1.595824239350e+01 -1.096750698862e+01 0.0 
1.515080624291e+01 -1.041639501931e+01 0.0 
1.523171602559e+01 -9.451711491453e+00 0.0 
1.434621060709e+01 -9.871956467464e+00 0.0 
1.426777178765e+01 -1.083749501371e+01 0.0 
1.345775282374e+01 -1.028803175500e+01 0.0 
1.354103873368e+01 -9.324918457162e+00 0.0 
1.265072018622e+01 -9.742612837270e+00 0.0 
1.257285762070e+01 -1.071557782384e+01 0.0 
1.175874815690e+01 -1.015972324288e+01 0.0 
1.184203019714e+01 -9.193604071377e+00 0.0 
1.094927709905e+01 -9.612103238656e+00 0.0 
1.086938022910e+01 -1.058685085646e+01 0.0 
1.005424098961e+01 -1.002939116380e+01 0.0 
9.977974613295e+00 -1.101324897989e+01 0.0 
1.012915646404e+01 -9.051815821181e+00 0.0 
9.237127782494e+00 -9.471239055559e+00 0.0 
9.308426593771e+00 -8.483376461131e+00 0.0 
8.418806073345e+00 -8.910712374517e+00 0.0 
2.253688464062e+01 -1.239459402279e+01 0.0 
8.495126726666e+00 -7.921646665254e+00 0.0 
9.389727383206e+00 -7.512103628377e+00 0.0 
7.601560812974e+00 -8.349460349344e+00 0.0 
7.525680547759e+00 -9.339736686940e+00 0.0 
7.677888324502e+00 -7.359727833346e+00 0.0 
6.782001206724e+00 -7.788454494773e+00 0.0 
6.858778622885e+00 -6.797338062822e+00 0.0 
2.196596590865e+01 -8.979025665442e+00 0.0 
2.816540108272e+01 -1.422634142353e+01 0.0 
5.961601194403e+00 -7.226824010712e+00 0.0 
6.038171749656e+00 -6.234825887079e+00 0.0 
6.936257279557e+00 -5.805287640737e+00 0.0 
6.115068918323e+00 -5.242109758768e+00 0.0 
3.564391741903e+01 -1.329240553876e+01 0.0 
3.558115605778e+01 -1.425902892003e+01 0.0 
3.645445282201e+01 -1.381970786460e+01 0.0 
3.639744204358e+01 -1.479198128612e+01 0.0 
3.727266909778e+01 -1.435399586226e+01 0.0 
5.216667013081e+00 -5.671788584287e+00 0.0 
3.220697293295e+01 -1.499594545107e+01 0.0 
3.551112158269e+01 -1.523479869250e+01 0.0 
2.836056961467e+01 -1.139032434851e+01 0.0 
2.516730388602e+01 -1.021382726837e+01 0.0 
1.844436907403e+01 -1.164097215196e+01 0.0 
5.885434318740e+00 -8.218694781467e+00 0.0 
5.064071066867e+00 -7.656614643901e+00 0.0 
4.988089103470e+00 -8.649722082718e+00 0.0 
1.079421050408e+01 -1.157014985435e+01 0.0 
9.902420005256e+00 -1.199903342656e+01 0.0 
1.071994252214e+01 -1.255727909771e+01 0.0 
9.826974788171e+00 -1.298659581767e+01 0.0 
1.064607883789e+01 -1.354595476388e+01 0.0 
9.751541265343e+00 -1.397556905071e+01 0.0 
8.932296185869e+00 -1.341553353988e+01 0.0 
8.856399248106e+00 -1.440570715508e+01 0.0 
8.036186803543e+00 -1.384470558472e+01 0.0 
1.057112875118e+01 -1.453516759081e+01 0.0 
1.146582585687e+01 -1.410539926903e+01 0.0 
7.959894480382e+00 -1.483563350928e+01 0.0 
7.138792279156e+00 -1.427465094140e+01 0.0 
7.062506792418e+00 -1.526615385482e+01 0.0 
6.240693558277e+00 -1.470508863040e+01 0.0 
6.316957575451e+00 -1.371212581281e+01 0.0 
5.418183007107e+00 -1.414253605022e+01 0.0 
5.494748364428e+00 -1.314886770603e+01 0.0 
1.756825565873e+01 -1.206433872514e+01 0.0 
1.837565773345e+01 -1.261356468266e+01 0.0 
1.749574831391e+01 -1.303769280014e+01 0.0 
1.830539187332e+01 -1.358828364284e+01 0.0 
1.742278925170e+01 -1.401367746928e+01 0.0 
1.823303007798e+01 -1.456432294258e+01 0.0 
1.734941694138e+01 -1.499213734361e+01 0.0 
1.653760041637e+01 -1.443920312098e+01 0.0 
3.056237977307e+01 -1.487132260174e+01 0.0 
1.866469084762e+01 -8.742953000418e+00 0.0 
1.953669694916e+01 -8.326038909849e+00 0.0 
1.874194303780e+01 -7.780688158966e+00 0.0 
1.961032016741e+01 -7.366854697285e+00 0.0 
1.881715755159e+01 -6.821102209649e+00 0.0 
1.968369797150e+01 -6.407747217358e+00 0.0 
1.889237123259e+01 -5.858375520026e+00 0.0 
1.802038875366e+01 -6.276202618170e+00 0.0 
1.809793837984e+01 -5.307629520489e+00 0.0 
1.721985207997e+01 -5.728242054488e+00 0.0 
1.729850893523e+01 -4.756990819347e+00 0.0 
1.641745664240e+01 -5.174636548624e+00 0.0 
2.495978509456e+01 -1.304406404294e+01 0.0 
1.911567814831e+01 -1.413854250293e+01 0.0 
1.904387332608e+01 -1.511463127723e+01 0.0 
1.992115934240e+01 -1.468788025898e+01 0.0 
7.013706899628e+00 -4.812582868662e+00 0.0 
5.342091874585e+00 -1.513658157269e+01 0.0 
1.139098043784e+01 -1.509488509480e+01 0.0 
1.228151810610e+01 -1.465617481983e+01 0.0 
1.646373110164e+01 -1.541993323337e+01 0.0 
5.293328636712e+00 -4.678385108584e+00 0.0 
1.975965862987e+01 -5.448124345648e+00 0.0 
2.054318374236e+01 -5.992561293251e+00 0.0 
3.721453439063e+01 -1.533216152738e+01 0.0 
3.809302733893e+01 -1.489235527381e+01 0.0 
1.220852788900e+01 -1.565304565230e+01 0.0 
4.394120899730e+00 -5.108397613210e+00 0.0 
8.779354620288e+00 -1.539524721159e+01 0.0 
1.817791047702e+01 -4.338570146253e+00 0.0 
4.518860013839e+00 -1.457343189307e+01 0.0 
4.442712140414e+00 -1.556841391069e+01 0.0 
8.115343466391e+00 -1.285760324283e+01 0.0 
1.985334703171e+01 -1.566478400426e+01 0.0 
2.071953850276e+01 -1.522074243119e+01 0.0 
1.634012953883e+01 -6.154777738301e+00 0.0 
1.553479994708e+01 -5.593730508879e+00 0.0 
1.561265946942e+01 -4.617761762647e+00 0.0 
1.470674212978e+01 -5.064576488228e+00 0.0 
1.464498299883e+01 -6.026514471420e+00 0.0 
1.383271561817e+01 -5.467796261169e+00 0.0 
1.389241253067e+01 -4.504338666645e+00 0.0 
1.301868735463e+01 -4.907185188626e+00 0.0 
1.294514184846e+01 -5.888160903592e+00 0.0 
1.212955968622e+01 -5.328262335277e+00 0.0 
1.220721122383e+01 -4.341264976687e+00 0.0 
1.131324345897e+01 -4.766773516508e+00 0.0 
5.266597955397e+00 -1.613148974258e+01 0.0 
1.737805990867e+01 -3.786677807525e+00 0.0 
3.078438094513e+01 -1.203225297748e+01 0.0 
1.131569882285e+01 -1.608511932110e+01 0.0 
1.728478341782e+01 -1.596017432313e+01 0.0 
3.803465906019e+01 -1.587509751228e+01 0.0 
3.891681276677e+01 -1.543395196905e+01 0.0 
3.897340985302e+01 -1.444710288980e+01 0.0 
3.980095968193e+01 -1.499059496613e+01 0.0 
3.974334598189e+01 -1.597921884150e+01 0.0 
4.062964983717e+01 -1.553518690417e+01 0.0 
4.068729602479e+01 -1.454434445295e+01 0.0 
4.151772679790e+01 -1.508974196007e+01 0.0 
4.157505195739e+01 -1.409694289912e+01 0.0 
4.240699932656e+01 -1.464347955968e+01 0.0 
4.234898051011e+01 -1.563721375790e+01 0.0 
4.323934606035e+01 -1.519082036405e+01 0.0 
4.329740528208e+01 -1.419587509788e+01 0.0 
4.413056841369e+01 -1.474359631875e+01 0.0 
4.418850110108e+01 -1.374786684042e+01 0.0 
4.502219770667e+01 -1.429605103525e+01 0.0 
4.496411937907e+01 -1.529215882720e+01 0.0 
4.490027319897e+00 -4.154167794594e+00 0.0 
1.565080385988e+01 -1.486411982419e+01 0.0 
1.557610691279e+01 -1.584855627870e+01 0.0 
4.195350646612e+00 -8.089117689096e+00 0.0 
4.124027797830e+00 -9.082831955007e+00 0.0 
4.917944318925e+00 -9.643530901533e+00 0.0 
4.020105689502e+00 -1.007439673661e+01 0.0 
4.587185899277e+01 -1.484039992728e+01 0.0 
4.580078661551e+01 -1.584043391042e+01 0.0 
2.061956522375e+01 -5.046701343981e+00 0.0 
2.139572955529e+01 -5.579553449826e+00 0.0 
3.715344357292e+01 -1.631485124583e+01 0.0 
3.618886196443e+00 -1.500471207167e+01 0.0 
3.695606940204e+00 -1.400939692294e+01 0.0 
2.438890661143e+01 -9.686110599723e+00 0.0 
2.523267572778e+01 -9.276766000622e+00 0.0 
2.446094171539e+01 -8.751904591412e+00 0.0 
2.529089822738e+01 -8.321495612547e+00 0.0 
2.606882688827e+01 -8.864724051119e+00 0.0 
2.452116646430e+01 -7.792756462004e+00 0.0 
1.235543269617e+01 -1.365845617339e+01 0.0 
4.318116874181e+01 -1.618567469992e+01 0.0 
7.835066111909e+00 -5.376366223896e+00 0.0 
7.905687335704e+00 -4.382539065697e+00 0.0 
3.542640009567e+00 -1.600035116542e+01 0.0 
1.572431503071e+01 -1.388358386695e+01 0.0 
2.574684696680e+01 -1.357896141127e+01 0.0 
2.488842657651e+01 -1.399674354505e+01 0.0 
2.568301775611e+01 -1.453552048595e+01 0.0 
2.481535572009e+01 -1.495542756508e+01 0.0 
2.561729699688e+01 -1.549784648532e+01 0.0 
2.474623061296e+01 -1.592058894178e+01 0.0 
2.394234041695e+01 -1.537572575827e+01 0.0 
2.065825452567e+01 -1.621899055217e+01 0.0 
2.387180528935e+01 -1.634552264687e+01 0.0 
4.585364400844e+01 -1.383912334080e+01 0.0 
1.998744432052e+01 -1.370317155541e+01 0.0 
1.205356951443e+01 -6.313580285498e+00 0.0 
5.396543905849e+00 -3.731818611283e+00 0.0 
1.139652573295e+01 -3.745819399350e+00 0.0 
3.574124306703e+00 -4.551456826011e+00 0.0 
3.494140761930e+00 -5.539787055649e+00 0.0 
1.213651452413e+01 -1.664505033022e+01 0.0 
2.555045568519e+01 -1.646529356744e+01 0.0 
2.641671114986e+01 -1.603899382371e+01 0.0 
2.612920721894e+01 -7.906435260873e+00 0.0 
2.690339829698e+01 -8.456969591431e+00 0.0 
1.978024383368e+01 -1.664410216353e+01 0.0 
3.732829979082e+01 -1.336926601859e+01 0.0 
4.074336584605e+01 -1.355133328401e+01 0.0 
4.163204691081e+01 -1.310280943992e+01 0.0 
3.773826114429e+00 -3.493444309145e+00 0.0 
1.228783001032e+01 -3.374822835872e+00 0.0 
4.057110462520e+01 -1.652588478000e+01 0.0 
2.132535497898e+01 -6.523623360525e+00 0.0 
2.216932532211e+01 -6.110044769206e+00 0.0 
1.825781152128e+01 -3.370146817147e+00 0.0 
1.745679445888e+01 -2.812942552063e+00 0.0 
4.666517057280e+01 -1.539981381543e+01 0.0 
4.660575894464e+01 -1.639014410186e+01 0.0 
4.838230979954e+00 -1.063643436446e+01 0.0 
3.938942630206e+00 -1.106778981745e+01 0.0 
1.302967218620e+01 -1.621373452436e+01 0.0 
1.049548003190e+01 -4.204825123240e+00 0.0 
4.573571907195e+01 -1.683820511148e+01 0.0 
1.483686335807e+01 -1.430849689310e+01 0.0 
1.490982658890e+01 -1.332679386284e+01 0.0 
3.190805600162e+00 -9.510968358545e+00 0.0 
2.146625721848e+01 -4.642437303115e+00 0.0 
2.069866208266e+01 -4.111852942193e+00 0.0 
1.286859345584e+01 -6.873252723348e+00 0.0 
1.041794493184e+01 -5.194814260291e+00 0.0 
2.671081808965e+00 -4.976806516331e+00 0.0 
1.295786792925e+01 -1.720506531799e+01 0.0 
3.968438206511e+01 -1.696869067241e+01 0.0 
2.308550456051e+01 -1.579963151273e+01 0.0 
2.315593682844e+01 -1.482967445235e+01 0.0 
2.299471449450e+01 -1.677069968132e+01 0.0 
1.057344714696e+01 -3.214252277840e+00 0.0 
1.124057603753e+01 -1.707713739755e+01 0.0 
2.718402535754e+00 -1.543629882103e+01 0.0 
2.638549692805e+01 -1.696744916809e+01 0.0 
2.723416349007e+01 -1.658104204545e+01 0.0 
2.210193351704e+01 -7.046769643417e+00 0.0 
2.295180925161e+01 -6.657397605239e+00 0.0 
2.301355235833e+01 -5.709111896800e+00 0.0 
2.379052718281e+01 -6.254965406962e+00 0.0 
3.243528601237e+01 -1.214181853533e+01 0.0 
2.287977995457e+01 -7.583722368300e+00 0.0 
2.999876029544e+01 -1.150837653096e+01 0.0 
3.084435366963e+01 -1.109693775882e+01 0.0 
3.006650579669e+01 -1.057778994262e+01 0.0 
2.683802665066e+01 -9.386863216633e+00 0.0 
2.768641973621e+01 -8.988883915666e+00 0.0 
2.040296980397e+01 -7.903629133404e+00 0.0 
1.925235024054e+01 -1.218872783130e+01 0.0 
5.735667000424e+00 -1.020577277283e+01 0.0 
6.396559909872e+00 -1.272326295703e+01 0.0 
1.161199420714e+01 -1.212812778229e+01 0.0 
4.229046132615e+01 -1.663084237572e+01 0.0 
4.312275399692e+01 -1.718087491556e+01 0.0 
4.335502068163e+01 -1.320039231514e+01 0.0 
4.424630298089e+01 -1.275160688731e+01 0.0 
7.090116643816e+00 -3.818998061530e+00 0.0 
7.989472176569e+00 -3.389238711200e+00 0.0 
9.085824861778e+00 -1.144036167408e+01 0.0 
1.041972423731e+01 -1.651614080893e+01 0.0 
3.797525112640e+01 -1.686052038746e+01 0.0 
3.709114253394e+01 -1.730125999865e+01 0.0 
3.626966748340e+01 -1.675477052919e+01 0.0 
1.385164591440e+01 -1.677597757552e+01 0.0 
1.787152588784e+01 -8.198993896093e+00 0.0 
1.668849729812e+01 -1.248560611628e+01 0.0 
1.659546177905e+01 -3.232482605530e+00 0.0 
2.332214717345e+01 -1.292598167641e+01 0.0 
7.168238450786e+00 -2.824711686516e+00 0.0 
2.894878403906e+01 -1.475427524446e+01 0.0 
2.646763248247e+00 -1.643270107952e+01 0.0 
3.467431944285e+00 -1.699648837348e+01 0.0 
2.059475877282e+01 -1.719473628526e+01 0.0 
3.333868355437e+01 -1.080596971682e+01 0.0 
2.246451062637e+01 -1.334557761546e+01 0.0 
2.167821896388e+01 -1.280847834858e+01 0.0 
3.089653185767e+01 -1.017198487212e+01 0.0 
3.012604365669e+01 -9.657298805968e+00 0.0 
2.929627299435e+01 -1.006100135274e+01 0.0 
2.936201435219e+01 -9.136748899251e+00 0.0 
1.198219052702e+01 -7.291887238230e+00 0.0 
1.116702076035e+01 -6.731976101053e+00 0.0 
2.551388807505e+01 -1.746927036981e+01 0.0 
2.378639090370e+01 -1.728678807149e+01 0.0 
2.718543627188e+01 -1.748668016909e+01 0.0 
2.804681050301e+01 -1.712626668293e+01 0.0 
1.970737034667e+01 -1.762317646822e+01 0.0 
1.889535776135e+01 -1.707158098231e+01 0.0 
2.593777711283e+00 -5.971157087874e+00 0.0 
2.773468281110e+01 -8.067164273938e+00 0.0 
4.051205884347e+01 -1.751819982458e+01 0.0 
3.166903145421e+01 -1.068032992414e+01 0.0 
1.033042452886e+01 -1.748285844336e+01 0.0 
9.519274604626e+00 -1.694349240233e+01 0.0 
1.668308673328e+01 -2.255861778986e+00 0.0 
1.570531902832e+01 -2.676795860126e+00 0.0 
4.655826903379e+01 -1.736656245706e+01 0.0 
2.384148070773e+01 -5.328744256413e+00 0.0 
2.460255123641e+01 -5.852182672816e+00 0.0 
2.306638135119e+01 -4.798935440613e+00 0.0 
8.467720450578e-01 -1.849576263072e+01 0.0 
4.849657322345e+01 -1.084860705506e+01 0.0 
2.565860899507e+00 -1.742859793981e+01 0.0 
2.764418872564e+01 -9.927142821799e+00 0.0 
4.565165880064e+01 -1.785336695404e+01 0.0 
2.162231831329e+01 -1.376528337468e+01 0.0 
2.360646352969e+01 -9.136041963102e+00 0.0 
1.392738739903e+01 -1.578285505772e+01 0.0 
4.756405947478e+01 -1.683706841809e+01 0.0 
4.740895034054e+01 -1.793766756892e+01 0.0 
4.080779328826e+01 -1.257387192544e+01 0.0 
4.168907939671e+01 -1.210739129181e+01 0.0 
3.991197722154e+01 -1.300815793917e+01 0.0 
1.905536506762e+01 -3.940076697685e+00 0.0 
1.923879596617e+01 -2.875000734166e+00 0.0 
4.401386745746e+01 -1.673483229438e+01 0.0 
4.247233362525e+00 -7.094581653070e+00 0.0 
3.286051630211e+00 -7.635300020553e+00 0.0 
9.609533347623e+00 -4.594311677967e+00 0.0 
9.523554636369e+00 -5.595597029530e+00 0.0 
5.660336628893e+00 -1.119290329628e+01 0.0 
6.558070063295e+00 -1.076385809362e+01 0.0 
2.809866407414e+01 -1.518037766799e+01 0.0 
2.888868674504e+01 -1.570360690070e+01 0.0 
2.654431550819e+01 -1.411217777162e+01 0.0 
1.402158265969e+01 -1.375404617952e+01 0.0 
1.409592494026e+01 -1.277071998942e+01 0.0 
1.499355196178e+01 -1.235270737023e+01 0.0 
4.221535326155e+01 -1.759335617494e+01 0.0 
4.305583287033e+01 -1.822663146802e+01 0.0 
1.280748808359e+01 -7.834332838285e+00 0.0 
1.368988389326e+01 -7.420529606172e+00 0.0 
1.110091796060e+01 -7.683966794328e+00 0.0 
3.963446145980e+01 -1.794331310122e+01 0.0 
3.423932362213e+00 -1.796415590455e+01 0.0 
4.280814572302e+00 -1.752272834860e+01 0.0 
8.050136380041e+00 -2.421582378631e+00 0.0 
8.888674091650e+00 -2.984264211327e+00 0.0 
2.152839430898e+01 -3.732609965436e+00 0.0 
2.077799585292e+01 -3.183896021866e+00 0.0 
3.618719395821e+01 -1.770276572576e+01 0.0 
3.538165138340e+01 -1.718709995539e+01 0.0 
3.702925326420e+01 -1.828844288807e+01 0.0 
1.756739438711e+00 -5.353284859169e+00 0.0 
2.233710191104e+01 -1.527265621324e+01 0.0 
1.389483555057e+01 -1.771797164730e+01 0.0 
1.475634224300e+01 -1.728357428390e+01 0.0 
1.298797563052e+01 -1.825968924755e+01 0.0 
2.145331271866e+01 -1.673705379077e+01 0.0 
2.133282821169e+01 -1.769400773673e+01 0.0 
2.292139194136e+01 -1.774915400288e+01 0.0 
1.750750053243e+01 -1.861475593469e+00 0.0 
4.830478841772e+01 -1.752611802221e+01 0.0 
4.341203507805e+01 -1.220326745522e+01 0.0 
1.685254151866e+01 -1.443085301632e+00 0.0 
4.431538535165e+01 -1.171841387375e+01 0.0 
4.511308610496e+01 -1.229557320599e+01 0.0 
4.510133242889e+01 -1.123680627466e+01 0.0 
1.846818030617e+00 -4.410877617069e+00 0.0 
3.995468694584e+01 -1.186571542989e+01 0.0 
3.901387459804e+01 -1.242507616755e+01 0.0 
8.966735877533e+00 -1.837818700423e+00 0.0 
4.049310011091e+01 -1.848269508791e+01 0.0 
7.278862053803e+00 -1.918523922691e+00 0.0 
6.429715522129e+00 -2.316676521184e+00 0.0 
9.443505505022e+00 -1.792198868094e+01 0.0 
8.620386951051e+00 -1.737590365556e+01 0.0 
8.571868171503e+00 -1.834436667826e+01 0.0 
7.758629848526e+00 -1.775677907213e+01 0.0 
7.806648388584e+00 -1.680761266021e+01 0.0 
6.908555145436e+00 -1.723746463044e+01 0.0 
4.251709122090e+01 -1.156937480156e+01 0.0 
6.931136405615e+00 -1.832465719263e+01 0.0 
6.015545461353e+00 -1.768865355295e+01 0.0 
5.960535926343e+00 -1.872011001764e+01 0.0 
3.023253444786e+01 -8.761960642196e+00 0.0 
2.454622702599e+01 -6.749421992767e+00 0.0 
2.537499741604e+01 -6.347634963783e+00 0.0 
2.544077378460e+01 -5.431358513649e+00 0.0 
2.801367161747e+01 -1.820907270221e+01 0.0 
2.884507806914e+01 -1.762032095326e+01 0.0 
1.821474531936e+00 -1.588901260460e+01 0.0 
1.821006262604e+00 -1.489370287756e+01 0.0 
4.599962488908e+01 -1.176478780598e+01 0.0 
4.705457470007e+01 -1.172182804229e+01 0.0 
4.667668314802e+01 -1.263464558483e+01 0.0 
4.759648056504e+01 -1.252380987933e+01 0.0 
4.728041618103e+01 -1.341928568376e+01 0.0 
4.825209352360e+01 -1.330491640804e+01 0.0 
4.778118233428e+01 -1.420151961695e+01 0.0 
2.388192727579e+01 -1.826934810142e+01 0.0 
2.381714684947e+01 -4.385917965223e+00 0.0 
3.172733219247e+01 -9.758744265248e+00 0.0 
1.882012070658e+01 -1.805540597212e+01 0.0 
1.805667505243e+01 -1.742221226236e+01 0.0 
2.852599958080e+01 -8.597196079481e+00 0.0 
2.856486123437e+01 -7.661382718527e+00 0.0 
1.111792842875e+01 -1.818223852980e+01 0.0 
2.203322722466e+01 -7.986646678802e+00 0.0 
3.955703676900e+01 -1.903246763601e+01 0.0 
1.944842206513e+01 -8.038750575182e-01 0.0 
1.909882767783e+01 -1.746322740933e+00 0.0 
2.281147422941e+01 -8.525912918334e+00 0.0 
2.850633001468e+01 -9.533271335986e+00 0.0 
2.532883344309e+01 -7.308951659710e+00 0.0 
2.620475466461e+01 -6.979208585400e+00 0.0 
1.396278270396e+01 -1.475095389807e+01 0.0 
9.791001166724e+00 -2.554159793552e+00 0.0 
2.229293380421e+01 -4.269762271052e+00 0.0 
4.677238984118e+01 -1.430071795514e+01 0.0 
2.228658385918e+01 -3.344747535984e+00 0.0 
8.940223674553e-01 -1.543595733415e+01 0.0 
2.118566862474e+01 -8.435876987696e+00 0.0 
2.678325936437e+01 -1.032621195706e+01 0.0 
2.223400220487e+01 -5.179046761770e+00 0.0 
2.375370625384e+01 -7.251580562134e+00 0.0 
3.156971327386e+01 -1.255534750737e+01 0.0 
3.328226391312e+01 -1.172914813316e+01 0.0 
3.250948774219e+01 -1.120157009348e+01 0.0 
2.032993445717e+01 -8.867880112202e+00 0.0 
2.697226974856e+01 -7.536633082045e+00 0.0 
2.707377810386e+01 -6.590835263295e+00 0.0 
2.914099246827e+01 -1.191678458549e+01 0.0 
3.544824072239e+01 -1.621126558525e+01 0.0 
3.456511855436e+01 -1.665054783843e+01 0.0 
3.448395810225e+01 -1.759117813016e+01 0.0 
3.368378673938e+01 -1.708037781328e+01 0.0 
3.375560452567e+01 -1.610973066913e+01 0.0 
3.288001547988e+01 -1.654324255651e+01 0.0 
3.282475929147e+01 -1.749725654692e+01 0.0 
3.199880906313e+01 -1.697294088625e+01 0.0 
3.197001272932e+01 -1.811667776864e+01 0.0 
3.111884713021e+01 -1.742166785755e+01 0.0 
3.120418962865e+01 -1.642155709385e+01 0.0 
3.034666704371e+01 -1.683123833816e+01 0.0 
3.026224379976e+01 -1.772592851714e+01 0.0 
3.046632362943e+01 -1.582232843075e+01 0.0 
1.961344017324e+01 -1.857459447985e+01 0.0 
2.274975894774e+01 -9.532738811922e+00 0.0 
1.833923246887e+01 -2.396746883672e+00 0.0 
1.988859500848e+01 -2.249244376594e+00 0.0 
2.758045562861e+01 -1.086434261689e+01 0.0 
3.247300178163e+01 -1.909930104252e+01 0.0 
3.461947482503e+01 -1.911879848019e+01 0.0 
2.047161538662e+01 -6.941478180358e+00 0.0 
2.750230940214e+01 -1.915490590764e+01 0.0 
3.165081350803e+01 -1.161860780120e+01 0.0 
1.897456727641e+01 -4.889634688522e+00 0.0 
2.549338539756e+01 -1.914858252089e+01 0.0 
3.462873135081e+01 -1.567482276144e+01 0.0 
3.384432415243e+01 -1.512280684518e+01 0.0 
3.471433767690e+01 -1.469086942990e+01 0.0 
3.651470373046e+01 -1.918207952149e+01 0.0 
3.901742690249e+01 -1.345028556517e+01 0.0 
2.153224102692e+01 -1.920169709333e+01 0.0 
1.918382939341e+01 -1.316226275662e+01 0.0 
2.005389162382e+01 -1.271962165174e+01 0.0 
2.011472087878e+01 -1.175029352900e+01 0.0 
3.210679478412e+01 -1.598038618242e+01 0.0 
1.752175226543e+01 -1.914713022656e+01 0.0 
1.696897240059e+01 -1.832772588765e+01 0.0 
1.599682523337e+01 -1.832599992024e+01 0.0 
1.644507199462e+01 -1.743697981535e+01 0.0 
1.549987712903e+01 -1.915192375101e+01 0.0 
3.050250861901e+01 -1.918943550234e+01 0.0 
2.949944061527e+01 -1.922950455235e+01 0.0 
1.375892575273e+01 -6.447160534926e+00 0.0 
1.457223670180e+01 -7.006709243857e+00 0.0 
1.450818793236e+01 -7.965943451779e+00 0.0 
1.538804712402e+01 -7.553409623699e+00 0.0 
1.545817644768e+01 -6.580929593419e+00 0.0 
1.626506893751e+01 -7.129032608911e+00 0.0 
1.619833811522e+01 -8.086588580887e+00 0.0 
1.714448609609e+01 -6.697429609777e+00 0.0 
2.887616543568e+01 -1.668015232137e+01 0.0 
1.349814589130e+01 -1.918225301544e+01 0.0 
1.153887772210e+01 -1.311384581217e+01 0.0 
1.242708159886e+01 -1.267046795531e+01 0.0 
1.249799674267e+01 -1.169005616014e+01 0.0 
6.631723893693e+00 -9.774184881867e+00 0.0 
7.451471631867e+00 -1.033148796006e+01 0.0 
7.377795355458e+00 -1.132196345268e+01 0.0 
5.810931797536e+00 -9.211654212252e+00 0.0 
2.402683899133e+01 -1.441378562320e+01 0.0 
1.249768692036e+01 -1.917388426624e+01 0.0 
1.580373499437e+01 -1.290751860664e+01 0.0 
8.344650507834e+00 -9.898403995170e+00 0.0 
3.750622115305e+01 -1.086526401533e+01 0.0 
3.699391251667e+01 -1.171695900794e+01 0.0 
3.606517829518e+01 -1.173717504500e+01 0.0 
3.650257641795e+01 -1.270047380221e+01 0.0 
3.808951488918e+01 -1.183518714175e+01 0.0 
4.760380962420e+00 -1.162484888315e+01 0.0 
3.861210370848e+00 -1.205657631736e+01 0.0 
3.038284309476e+00 -1.149851280664e+01 0.0 
2.961598794889e+00 -1.248856794980e+01 0.0 
2.138953225512e+00 -1.193212674534e+01 0.0 
2.227383593457e+00 -1.096258903918e+01 0.0 
2.043265419276e+00 -1.292158472959e+01 0.0 
1.252449446028e+00 -1.225502002753e+01 0.0 
3.949985210740e+01 -1.086594001795e+01 0.0 
1.453499444792e+01 -8.768805922472e-01 0.0 
1.403518950933e+01 -1.749965556633e+00 0.0 
1.300715031023e+01 -1.714737233040e+00 0.0 
1.350929389899e+01 -2.527443911291e+00 0.0 
1.449600910711e+01 -2.595486162864e+00 0.0 
1.395693872901e+01 -3.484211041558e+00 0.0 
1.495105865208e+01 -3.364609636216e+00 0.0 
1.508822528740e+01 -1.766586020494e+00 0.0 
1.250223858430e+01 -8.634590186802e-01 0.0 
1.200279523409e+01 -1.709044504992e+00 0.0 
1.150086239419e+01 -8.592789190668e-01 0.0 
1.101482754194e+01 -1.677730591922e+00 0.0 
1.148018564526e+01 -2.659323866909e+00 0.0 
8.800552119754e+00 -3.989875954728e+00 0.0 
3.452790439430e+00 -1.901136170646e+01 0.0 
8.658451825200e-01 -9.503462241795e+00 0.0 
1.694787786797e+00 -9.000589234502e+00 0.0 
1.703436717094e+00 -8.038819004041e+00 0.0 
2.594197971110e+00 -8.563955242845e+00 0.0 
1.630513735412e+00 -9.907244747511e+00 0.0 
8.566859292791e-01 -7.512203837972e+00 0.0 
1.685461277022e+00 -7.164280248030e+00 0.0 
2.506394468801e+00 -8.623386730818e-01 0.0 
2.007475081581e+00 -1.727729545205e+00 0.0 
9.211534699767e-01 -1.628791366312e+00 0.0 
1.500000000020e+00 -2.598063549486e+00 0.0 
2.482078929963e+00 -2.553580088725e+00 0.0 
2.999795253092e+00 -1.732169015019e+00 0.0 
3.999712607169e+00 -1.728832897453e+00 0.0 
4.499752199340e+00 -8.656478679175e-01 0.0 
4.964377774841e+00 -1.730129617941e+00 0.0 
4.425017908337e+00 -2.597541756243e+00 0.0 
5.446573195014e+00 -8.410144840023e-01 0.0 
4.915722346614e+01 -1.550640962770e+01 0.0 
4.826794919243e+01 -1.600000000000e+01 0.0 
1.053139533193e+01 -1.911782884365e+01 0.0 
4.156049861949e+01 -1.095160998589e+01 0.0 
9.494526624416e+00 -8.650570090219e-01 0.0 
4.555762166964e+01 -1.897098103585e+01 0.0 
4.250656411371e+01 -1.914387356218e+01 0.0 
4.350906466345e+01 -1.917234727395e+01 0.0 
8.759665722424e-01 -1.746422130609e+01 0.0 
1.698936011838e+00 -1.795012186674e+01 0.0 
4.742476811029e+01 -1.900090177972e+01 0.0 
7.749196752349e+00 -6.368049313489e+00 0.0 
3.361572113416e+01 -1.798765193915e+01 0.0 
4.484660149212e+01 -1.728661231383e+01 0.0 
1.984038172228e+01 -4.502575320116e+00 0.0 
1.035080352627e+01 -6.166639575753e+00 0.0 
2.753558010652e+00 -1.444909521181e+01 0.0 
7.217069543032e+00 -1.328635391078e+01 0.0 
4.364336727739e+00 -1.655585677381e+01 0.0 
4.595208426108e+00 -1.357919665443e+01 0.0 
6.164967006980e+00 -1.569873454630e+01 0.0 
1.487855768353e+01 -1.826523774028e+01 0.0 
2.791876456372e+00 -4.019632415181e+00 0.0 
4.246464893515e+01 -1.364898659620e+01 0.0 
4.503855590351e+01 -1.329552780944e+01 0.0 
4.407239109604e+01 -1.573900004093e+01 0.0 
5.141054449252e+00 -6.664290382472e+00 0.0 
3.141083947149e+00 -1.055790764912e+01 0.0 
6.196463198741e+00 -4.256497932609e+00 0.0 
2.599618716181e+01 -1.836893455464e+01 0.0 
2.923057372337e+01 -1.098461757645e+01 0.0 
1.168343877486e+01 -1.114079645041e+01 0.0 
6.706222096238e+00 -8.780364234441e+00 0.0 
8.567858614669e+00 -6.943121440850e+00 0.0 
1.123755132901e+01 -5.753525820030e+00 0.0 
2.353456234423e+01 -1.008536320953e+01 0.0 
9.162073319168e+00 -1.045593739109e+01 0.0 
9.676343469685e+00 -1.496493008366e+01 0.0 
4.490637882905e+01 -1.628778970202e+01 0.0 
7.398129387772e+00 -9.639977982323e-01 0.0 
1.049641705805e+01 -1.552503975272e+01 0.0 
9.010356286268e+00 -1.242805042052e+01 0.0 
3.985573925497e+01 -1.399863651620e+01 0.0 
1.816196318262e+01 -1.554066497931e+01 0.0 
1.306332244168e+01 -3.963646550326e+00 0.0 
4.145850903932e+01 -1.608094559275e+01 0.0 
3.794664933633e+01 -1.779020121986e+01 0.0 
3.819614412903e+01 -1.290749321016e+01 0.0 
6.270014188119e+00 -3.255093186826e+00 0.0 
4.251165370388e+01 -1.263870364997e+01 0.0 
1.207347709171e+01 -1.763942826023e+01 0.0 
3.633240829927e+01 -1.577330481104e+01 0.0 
4.319052668832e+00 -6.101812561904e+00 0.0 
1.676492415806e+01 -1.151547901392e+01 0.0 
2.594059220037e+01 -1.074225223009e+01 0.0 
3.340750911501e+01 -9.898764354137e+00 0.0 
4.397619591281e+01 -1.769773736461e+01 0.0 
2.175611595028e+01 -1.185718747128e+01 0.0 
1.641818733106e+01 -1.640685203215e+01 0.0 
1.661211421753e+01 -1.346121366338e+01 0.0 
3.428853504935e+00 -6.551993389271e+00 0.0 
8.700728832502e+00 -1.638460872825e+01 0.0 
1.931369795309e+01 -1.121629383702e+01 0.0 
4.139798872363e+01 -1.706922153459e+01 0.0 
2.647837478700e+01 -1.507353829290e+01 0.0 
1.779469616424e+01 -9.161615782908e+00 0.0 
3.885879219319e+01 -1.642026488918e+01 0.0 
1.338194936770e+01 -1.125916521471e+01 0.0 
1.897071181111e+01 -1.609204322578e+01 0.0 
2.844308548793e+01 -1.046221003096e+01 0.0 
2.659854702194e+01 -1.316109415760e+01 0.0 
2.979604503271e+01 -1.433296157755e+01 0.0 
2.417694041347e+01 -1.251231397779e+01 0.0 
1.807401327411e+00 -1.388891148480e+01 0.0 
9.599810618782e+00 -1.595439365034e+01 0.0 
1.652144692160e+01 -4.205392788472e+00 0.0 
2.367839450246e+01 -8.188385218643e+00 0.0 
3.814894930468e+01 -1.390748338767e+01 0.0 
2.466448215774e+01 -1.685878545680e+01 0.0 
4.134044524611e+01 -1.806610045954e+01 0.0 
2.600511411958e+01 -9.801774120648e+00 0.0 
7.882158050716e+00 -1.582364037353e+01 0.0 
3.881607873422e+01 -1.737970515013e+01 0.0 
8.270182347708e+00 -1.088622154920e+01 0.0 
8.672520392520e-01 -4.532984309881e+00 0.0 
1.993447205337e+01 -3.579061902667e+00 0.0 
1.794616079549e+01 -7.238038888498e+00 0.0 
2.097277068165e+01 -1.132450168636e+01 0.0 
8.194803300681e+00 -1.187214224265e+01 0.0 
3.522279404911e+01 -1.823342818178e+01 0.0 
6.984481050295e+00 -1.625271465557e+01 0.0 
1.309433007797e+01 -1.521718594215e+01 0.0 
2.150246167611e+01 -1.885399038185e+00 0.0 
3.250689370209e+01 -1.028789870535e+01 0.0 
6.085886272238e+00 -1.668342132851e+01 0.0 
1.588455661727e+01 -1.193498985921e+01 0.0 
1.809323400821e+01 -1.651110084195e+01 0.0 
1.348885082381e+00 -1.136065576512e+01 0.0 
2.497670221995e+01 -1.834631276173e+01 0.0 
2.937062818424e+01 -8.233711194470e+00 0.0 
5.185823744469e+00 -1.711566910207e+01 0.0 
1.477497877209e+01 -1.530177014512e+01 0.0 
2.125346158933e+01 -7.473003997367e+00 0.0 
4.751561118290e+01 -1.084897772632e+01 0.0 
5.056026576843e+00 -1.825750475525e+01 0.0 
1.473948554523e+01 -1.634577436309e+01 0.0 
2.410566630936e+01 -1.345970002612e+01 0.0 
1.507337507513e+01 -1.138527895328e+01 0.0 
3.189857338687e+01 -8.887781229006e+00 0.0 
7.298712468334e+00 -1.230231046246e+01 0.0 
2.738235495295e+01 -1.368931690364e+01 0.0 
3.750141041969e+01 -1.920449893070e+01 0.0 
1.557271965640e+01 -1.683317951731e+01 0.0 
3.393731848929e+01 -1.413034777044e+01 0.0 
6.482156824153e+00 -1.174575135362e+01 0.0 
2.077971718439e+01 -1.421279621836e+01 0.0 
3.455084320178e+00 -2.562590040585e+00 0.0 
3.099056096250e+01 -9.270280416035e+00 0.0 
5.580176125418e+00 -1.217387969259e+01 0.0 
1.707247630389e+01 -7.660651981710e+00 0.0 
1.418658814174e+01 -1.180390575393e+01 0.0 
2.049103025389e+01 -1.811296706038e+01 0.0 
4.680386172316e+00 -1.260396879301e+01 0.0 
1.699679896554e+01 -8.624561788199e+00 0.0 
3.779470168555e+00 -1.303424899720e+01 0.0 
3.036589870126e+01 -7.879832518349e+00 0.0 
3.306993001774e+01 -1.457671062095e+01 0.0 
2.840150110165e+00 -1.346530088269e+01 0.0 
2.732011135052e+01 -1.464591214560e+01 0.0 
5.423639259568e+00 -2.659711955016e+00 0.0 
2.324455961696e+01 -1.387269388211e+01 0.0 
1.752768355571e+00 -1.693128613594e+01 0.0 
1.020244783051e+01 -8.076834012808e+00 0.0 
1.330873875224e+01 -1.222417528206e+01 0.0 
3.297727364880e+01 -1.555480372087e+01 0.0 
2.890929955439e+01 -6.868664170731e+00 0.0 
1.323294664622e+01 -1.320754260334e+01 0.0 
2.726532861246e+01 -1.560593120806e+01 0.0 
2.240020643398e+01 -1.429299177247e+01 0.0 
2.090445823633e+01 -1.228128621332e+01 0.0 
1.315809881502e+01 -1.420739326938e+01 0.0 
2.781328038068e+01 -7.181956082300e+00 0.0 
8.614200829057e+00 -5.936933226306e+00 0.0 
8.714765730069e+00 -4.979270529687e+00 0.0 
1.611881701099e+01 -9.041973294003e+00 0.0 
2.806830314340e+01 -1.614622947108e+01 0.0 
2.084435391396e+00 -3.385085422913e+00 0.0 
3.133211811152e+01 -1.542347619750e+01 0.0 
9.693114650768e+00 -3.590281506442e+00 0.0 
1.531883592202e+01 -8.504584946143e+00 0.0 
2.151589117094e+01 -1.578915763018e+01 0.0 
4.918943882696e+01 -1.355538828056e+01 0.0 
1.443236615188e+01 -8.918701794549e+00 0.0 
8.276250966452e-01 -5.537685192197e+00 0.0 
1.362790867918e+01 -8.374718262212e+00 0.0 
2.083767477370e+01 -1.324843956035e+01 0.0 
1.273834678703e+01 -8.790890389337e+00 0.0 
1.192275845670e+01 -8.242261327467e+00 0.0 
4.477236023583e+01 -1.824312396664e+01 0.0 
1.102989384254e+01 -8.649855800911e+00 0.0 
4.849096516045e+01 -1.917293752213e+01 0.0 
1.588996752238e+00 -1.910230934687e+01 0.0 
4.904245197583e+01 -1.159839008158e+01 0.0 
2.753852929608e+01 -5.782128488093e+00 0.0 
1.756133602833e+01 -8.306130313187e-01 0.0 
2.615423700951e+01 -6.153865090092e+00 0.0 
1.028818761294e+01 -7.122020845892e+00 0.0 
2.970818901196e+01 -1.527821347593e+01 0.0 
4.801461623449e+01 -1.164472570985e+01 0.0 
9.455722100419e+00 -6.546069291118e+00 0.0 
3.089099236677e+01 -1.835339328261e+01 0.0 
2.350000000013e+01 -1.920825896750e+01 0.0 
4.830620531887e+01 -1.506626155470e+01 0.0 
1.725381944701e+01 -1.688794487850e+01 0.0 
2.156246225273e+01 -1.475893794002e+01 0.0 
4.919319648787e+01 -1.742767505896e+01 0.0 
4.437935623576e+01 -1.077662927266e+01 0.0 
1.001520521978e+01 -1.652692675208e+00 0.0 
9.067160240050e-01 -1.441937727541e+01 0.0 
2.603365149390e+01 -4.755996613848e+00 0.0 
2.458344439002e+01 -4.873645517696e+00 0.0 
2.304312390142e+01 -3.836552768096e+00 0.0 
2.546923202198e+00 -6.902480355749e+00 0.0 
1.251534969393e+01 -2.490989965776e+00 0.0 
2.454061833377e+01 -3.933354231935e+00 0.0 
1.788186558740e+01 -1.827424884923e+01 0.0 
4.090785243552e+01 -1.166553231904e+01 0.0 
2.230128851568e+01 -1.623015738726e+01 0.0 
2.302362347568e+01 -2.916239960270e+00 0.0 
3.878119254461e+01 -1.830091164002e+01 0.0 
2.210081359958e+01 -1.829238229150e+01 0.0 
8.443704882233e+00 -1.921993252862e+01 0.0 
2.218405824691e+01 -1.724557581508e+01 0.0 
2.151157503963e+01 -2.790636689331e+00 0.0 
3.741658958955e+01 -1.250400191722e+01 0.0 
2.697247663737e+01 -1.838290202309e+01 0.0 
4.743362342862e+01 -1.585850773010e+01 0.0 
6.671345075358e+00 -1.924977576322e+01 0.0 
3.900825404537e+01 -1.157220003875e+01 0.0 
4.649692961375e+01 -1.836335837481e+01 0.0 
1.578831424832e+01 -3.678284023361e+00 0.0 
4.814208768888e+01 -1.841249298770e+01 0.0 
2.964123298315e+01 -1.625739458193e+01 0.0 
4.580760351902e+01 -1.284294554687e+01 0.0 
3.561520879615e+01 -1.245548941949e+01 0.0 
2.555418095658e+00 -1.841101588290e+01 0.0 
3.288468366144e+01 -1.834258164109e+01 0.0 
2.065894391445e+01 -2.240688571739e+00 0.0 
4.739171429915e+01 -1.496536413446e+01 0.0 
3.478086729185e+00 -8.576434653209e+00 0.0 
1.606010630246e+01 -1.588421807951e+00 0.0 
1.018329200594e+01 -1.834320874317e+01 0.0 
2.957213339430e+01 -1.720496954591e+01 0.0 
4.142712790164e+00 -1.837794506222e+01 0.0 
6.698721532573e-01 -2.499999999997e+00 0.0 
8.037039123140e+00 -1.571229354954e+00 0.0 
1.203541361428e+01 -1.847784298001e+01 0.0 
2.899968332038e+01 -1.848264722179e+01 0.0 
1.469229460948e+01 -4.219485753730e+00 0.0 
4.049590781957e+01 -1.932812501995e+01 0.0 
1.996211678340e+01 -1.506329754720e+00 0.0 
4.250588298353e+01 -1.067383247529e+01 0.0 
5.831497011152e+00 -1.635396227234e+00 0.0 
5.317606125670e+00 -1.923927974868e+01 0.0 
4.208546426993e+01 -1.842830665025e+01 0.0 
2.327553405011e+00 -9.459409929662e+00 0.0 
3.568351902251e+01 -1.096637218582e+01 0.0 
1.682104374890e+00 -6.231413350963e+00 0.0 
2.451812238018e+01 -1.766524914339e+01 0.0 
1.058003429638e+01 -2.391839617098e+00 0.0 
4.399988753123e+01 -1.851998776342e+01 0.0 
1.400000000010e+01 -1.852293523028e+01 0.0 
3.604719565984e+01 -1.850662876800e+01 0.0 
1.951297136734e+01 -1.938092349694e+01 0.0 
1.821365318472e+01 -1.531276353287e+00 0.0 
2.298031859732e+01 -1.854635324722e+01 0.0 
1.552168066204e+01 -1.764280741977e+01 0.0 
4.572957713638e+01 -1.073347898229e+01 0.0 
3.429637429624e+01 -1.838861552790e+01 0.0 
2.427434426052e+00 -7.705577451869e+00 0.0 
4.662792031485e+00 -3.359424455416e+00 0.0 
4.926794919243e+01 -1.926794919243e+01 0.0 
7.320508075690e-01 -7.320508075688e-01 0.0 
4.926794919243e+01 -1.073205080757e+01 0.0 
7.320508075705e-01 -1.926794919243e+01 0.0 
2.917460242467e+00 -3.202866455310e+00 0.0 
4.838200575963e+01 -1.232674147454e+01 0.0 
2.998445708009e+01 -1.854403752148e+01 0.0 
5.949940090766e-01 -1.152762038165e+01 0.0 
4.844763495759e+01 -1.678092548787e+01 0.0 
1.301685480160e+01 -3.170056592566e+00 0.0 
1.650046335855e+01 -6.731535384067e-01 0.0 
4.854881540991e+01 -1.405224059779e+01 0.0 
2.119545114693e+01 -1.846813384545e+01 0.0 
3.797852849897e+01 -1.857978513215e+01 0.0 
4.649823708745e+01 -1.338351810816e+01 0.0 
2.012685900976e+01 -2.889659035009e+00 0.0 
2.953271913273e+01 -1.791558075192e+01 0.0 
2.408509097292e+00 -1.021949208421e+01 0.0 
2.642589566221e+01 -1.773216561448e+01 0.0 
1.730010270775e+01 -1.763165076721e+01 0.0 
2.017406551304e+01 -8.513536440582e-01 0.0 
5.254761581934e-01 -1.249999999999e+01 0.0 
6.640448215642e+00 -1.545337834885e+00 0.0 
7.843361506349e+00 -1.852719839527e+01 0.0 
1.588442191088e+00 -1.066158564320e+01 0.0 
2.580823483239e+01 -3.416278049680e+00 0.0 
4.950961538461e+01 -3.500000000000e+00 0.0 
2.731250000000e+01 -4.420918367347e+00 0.0 
4.951086956522e+01 -4.500000000000e+00 0.0 
2.880770112393e+01 -5.415638864241e+00 0.0 
4.951086956522e+01 -5.500000000000e+00 0.0 
3.031250000000e+01 -6.420918367347e+00 0.0 
4.951250000000e+01 -6.500000000000e+00 0.0 
3.180701530612e+01 -7.414795918363e+00 0.0 
4.951250000000e+01 -7.500000000000e+00 0.0 
3.331250000000e+01 -8.420918367347e+00 0.0 
4.951470588234e+01 -8.500000000000e+00 0.0 
3.480610198624e+01 -9.413633635267e+00 0.0 
4.951470588234e+01 -9.500000000000e+00 0.0 

SCALARS node_number int
LOOKUP_TABLE default
1
2
3
4
5
6
7
8
9
10
11
12
13
14
15
16
17
18
19
20
21
22
23
24
25
26
27
28
29
30
31
32
33
34
35
36
37
38
39
40
41
42
43
44
45
46
47
48
49
50
51
52
53
54
55
56
57
58
59
60
61
62
63
64
65
66
67
68
69
70
71
72
73
74
75
76
77
78
79
80
81
82
84
85
86
87
88
89
90
91
92
93
96
97
98
99
100
101
102
104
105
106
107
108
109
110
111
112
113
114
115
116
117
118
119
120
121
122
123
124
125
126
127
128
129
130
131
132
133
134
135
136
220
221
222
223
224
225
226
227
228
229
230
231
232
233
234
235
236
237
238
239
240
241
242
243
244
245
246
247
248
249
250
251
252
253
254
255
256
257
258
259
260
261
262
263
264
265
266
267
268
269
270
271
272
273
274
275
276
277
278
279
280
281
282
283
284
285
286
287
288
289
290
291
292
293
294
295
296
297
298
299
300
301
302
303
304
305
306
307
308
309
310
311
312
313
314
315
316
317
318
319
320
321
322
323
324
325
326
327
328
329
330
331
332
333
334
335
336
337
338
339
340
341
342
343
344
345
346
347
348
349
350
351
352
353
354
355
356
357
358
359
360
361
362
363
364
365
366
367
368
369
370
371
372
373
374
375
376
377
378
379
380
381
382
383
384
385
386
387
388
389
390
391
392
393
394
395
396
397
398
399
400
401
402
403
404
405
406
407
408
409
410
411
412
413
414
415
416
417
418
419
420
421
422
423
424
425
426
427
428
429
430
431
432
433
434
435
436
437
438
439
440
441
442
443
444
445
446
447
448
449
450
451
452
453
454
455
456
457
458
459
460
461
462
463
464
465
466
467
468
469
470
471
472
473
474
475
476
477
478
479
480
481
482
483
484
485
486
487
488
489
490
491
492
493
494
495
496
497
498
499
500
501
502
503
504
505
506
507
508
509
510
511
512
513
514
515
516
517
518
519
520
521
522
523
524
525
526
527
528
529
530
531
532
533
534
535
536
537
538
539
540
541
542
543
544
545
546
547
548
549
550
551
552
553
554
555
556
557
558
559
560
561
562
563
564
565
566
567
568
569
570
571
572
573
574
575
576
577
578
579
580
581
582
583
584
585
586
587
588
589
590
591
592
593
594
595
596
597
598
599
600
601
602
603
604
605
606
607
608
609
610
611
612
613
614
615
616
617
618
619
620
621
622
623
624
625
626
627
628
629
630
631
632
633
634
635
636
637
638
639
640
641
642
643
644
645
646
647
648
649
650
651
652
653
654
655
656
657
658
659
660
661
662
663
664
665
666
667
668
669
670
671
672
673
674
675
676
677
678
679
680
681
682
683
684
685
686
687
688
689
690
691
692
693
694
695
696
697
698
699
700
701
702
703
704
705
706
707
708
709
710
711
712
713
714
715
716
717
718
719
720
721
722
723
724
725
726
727
728
729
730
731
732
733
734
735
736
737
738
739
740
741
742
743
744
745
746
747
748
749
750
751
752
753
754
755
756
757
758
759
760
761
762
763
764
765
766
767
768
769
770
771
772
773
774
775
776
777
778
779
780
781
782
783
784
785
786
787
788
789
790
791
792
793
794
795
796
797
798
799
800
801
802
803
804
805
806
807
808
809
810
811
812
813
814
815
816
817
818
819
820
821
822
823
824
825
826
827
828
829
830
831
832
833
834
835
836
837
838
839
840
841
842
843
844
845
846
847
848
849
850
851
852
853
854
855
856
857
858
859
860
861
862
863
864
865
866
867
868
869
870
871
872
873
874
875
876
877
878
879
880
881
882
883
884
885
886
887
888
889
890
891
892
893
894
895
896
897
898
899
900
901
902
903
904
905
906
907
908
909
910
911
912
913
914
915
916
917
918
919
920
921
922
923
924
925
926
927
928
929
930
931
932
933
934
935
936
937
938
939
940
941
942
943
944
945
946
947
948
949
950
951
952
953
954
955
956
957
958
959
960
961
962
963
964
965
966
967
968
969
970
971
972
973
974
975
976
977
978
979
980
981
982
983
984
985
986
987
988
989
990
991
992
993
994
995
996
997
998
999
1000
1001
1002
1003
1004
1005
1006
1007
1008
1009
1010
1011
1012
1013
1014
1015
1016
1017
1018
1019
1020
1021
1022
1023
1024
1025
1026
1027
1028
1029
1030
1031
1032
1033
1034
1035
1036
1037
1038
1039
1040
1041
1042
1043
1044
1045
1046
1047
1048
1049
1050
1051
1052
1053
1054
1055
1056
1057
1058
1059
1060
1061
1062
1063
1064
1065
1066
1067
1068
1069
1070
1071
1072
1073
1074
1075
1076
1077
1078
1079
1080
1081
1082
1083
1084
1085
1086
1087
1088
1089
1090
1091
1092
1093
1094
1095
1096
1097
1098
1099
1100
1101
1102
1103
1104
1105
1106
1107
1108
1109
1110
1111
1112
1113
1114
1115
1116
1117
1118
1119
1120
1121
1122
1123
1124
1125
1126
1127
1128
1129
1130
1131
1132
1133
1134
1135
1136
1137
1138
1139
1140
1141
1142
1143
1144
1145
1146
1147
1148
1149
1150
1151
1152
1153
1154
1155
1156
1157
1158
1159
1160
1161
1162
1163
1164
1165
1166
1167
1168
1169
1170
1171
1172
1173
1174
1175
1176
1177
1178
1179
1180
1181
1182
1183
1184
1185
1186
1187
1188
1189
1190
1191
1192
1193
1194
1195
1196
1197
1198
1199
1200
1201
1202
1203
1204
1205
1206
1207
1208
1209
1210
1211
1212
1213
1214
1215
1216
1217
1218
1219
1220
1221
1222
1223
1224
1225
1226
1227
1228
1229
1230
1231
1232
1233
1234
1235
1236
1237
1238
1239
1240
1241
1242
1243
1244
1245
1246
1247
1248
1249
1250
1251
1252
1253
1254
1255
1256
1257
1258
1259
1260
1261
1262
1263
1264
1271
1272
1273
1274
1275
1276
1277
1278
1279
1280
1281
1282
1283
1284

VECTORS node_mesh_deformation float
0.0 1.196870759203e-02 0.0 
0.000000000000e+00 1.383386331483e-02 0.0 
0.0 0.000000000000e+00 0.0 
0.000000000000e+00 0.000000000000e+00 0.0 
0.0 1.195213467581e-02 0.0 
0.0 1.187831092671e-02 0.0 
0.0 1.174717058609e-02 0.0 
0.0 1.155808606920e-02 0.0 
0.0 1.130868324205e-02 0.0 
0.0 1.100016682508e-02 0.0 
0.0 1.063240989444e-02 0.0 
0.0 1.020445173318e-02 0.0 
0.0 9.715876577403e-03 0.0 
0.0 9.165478265249e-03 0.0 
0.0 8.551178259601e-03 0.0 
0.0 7.871971702766e-03 0.0 
0.0 7.127773352657e-03 0.0 
0.0 6.320797471588e-03 0.0 
0.0 5.444207699751e-03 0.0 
0.0 4.498330916507e-03 0.0 
0.0 3.482540528768e-03 0.0 
0.0 2.394327528108e-03 0.0 
0.0 1.232176773616e-03 0.0 
0.000000000000e+00 0.000000000000e+00 0.0 
0.000000000000e+00 0.000000000000e+00 0.0 
0.000000000000e+00 0.000000000000e+00 0.0 
0.000000000000e+00 0.000000000000e+00 0.0 
0.000000000000e+00 0.000000000000e+00 0.0 
0.000000000000e+00 0.000000000000e+00 0.0 
0.000000000000e+00 0.000000000000e+00 0.0 
0.000000000000e+00 0.000000000000e+00 0.0 
0.000000000000e+00 0.000000000000e+00 0.0 
0.000000000000e+00 0.000000000000e+00 0.0 
0.000000000000e+00 0.000000000000e+00 0.0 
0.000000000000e+00 0.000000000000e+00 0.0 
0.000000000000e+00 0.000000000000e+00 0.0 
0.000000000000e+00 0.000000000000e+00 0.0 
0.000000000000e+00 0.000000000000e+00 0.0 
0.000000000000e+00 0.000000000000e+00 0.0 
0.000000000000e+00 0.000000000000e+00 0.0 
0.000000000000e+00 0.000000000000e+00 0.0 
0.000000000000e+00 0.000000000000e+00 0.0 
0.000000000000e+00 0.000000000000e+00 0.0 
0.000000000000e+00 0.000000000000e+00 0.0 
0.000000000000e+00 0.000000000000e+00 0.0 
0.000000000000e+00 0.000000000000e+00 0.0 
0.000000000000e+00 0.000000000000e+00 0.0 
0.000000000000e+00 0.000000000000e+00 0.0 
0.000000000000e+00 0.000000000000e+00 0.0 
0.000000000000e+00 0.000000000000e+00 0.0 
0.000000000000e+00 0.000000000000e+00 0.0 
0.000000000000e+00 0.000000000000e+00 0.0 
0.000000000000e+00 0.000000000000e+00 0.0 
0.000000000000e+00 0.000000000000e+00 0.0 
0.000000000000e+00 0.000000000000e+00 0.0 
0.000000000000e+00 0.000000000000e+00 0.0 
0.000000000000e+00 0.000000000000e+00 0.0 
0.000000000000e+00 0.000000000000e+00 0.0 
0.000000000000e+00 0.000000000000e+00 0.0 
0.000000000000e+00 0.000000000000e+00 0.0 
0.000000000000e+00 0.000000000000e+00 0.0 
0.000000000000e+00 0.000000000000e+00 0.0 
0.000000000000e+00 0.000000000000e+00 0.0 
0.000000000000e+00 0.000000000000e+00 0.0 
0.000000000000e+00 0.000000000000e+00 0.0 
0.000000000000e+00 0.000000000000e+00 0.0 
0.000000000000e+00 0.000000000000e+00 0.0 
0.000000000000e+00 0.000000000000e+00 0.0 
0.000000000000e+00 0.000000000000e+00 0.0 
0.000000000000e+00 0.000000000000e+00 0.0 
0.000000000000e+00 0.000000000000e+00 0.0 
0.000000000000e+00 0.000000000000e+00 0.0 
0.000000000000e+00 1.272869609056e-02 0.0 
0.000000000000e+00 1.156041637454e-02 0.0 
0.000000000000e+00 1.032860486551e-02 0.0 
0.000000000000e+00 9.035516596231e-03 0.0 
0.000000000000e+00 7.679981860580e-03 0.0 
0.000000000000e+00 6.263823782110e-03 0.0 
0.000000000000e+00 4.787195031046e-03 0.0 
0.000000000000e+00 3.250538781337e-03 0.0 
0.000000000000e+00 1.654696797281e-03 0.0 
-1.035095432190e-03 1.469255993607e-02 0.0 
7.299728248640e-04 1.372832741730e-02 0.0 
-6.600524922575e-04 1.566386158555e-02 0.0 
-2.446618295870e-04 1.663142165960e-02 0.0 
1.911452233117e-04 1.735207111673e-02 0.0 
5.423090221761e-04 1.750562554362e-02 0.0 
7.420924555710e-04 1.730926299641e-02 0.0 
8.407664373351e-04 1.688843655803e-02 0.0 
8.717479694873e-04 1.629265894029e-02 0.0 
8.553305448302e-04 1.555358653766e-02 0.0 
8.044414549317e-04 1.469300642593e-02 0.0 
0.000000000000e+00 1.977184933866e-02 0.0 
0.000000000000e+00 1.911174173130e-02 0.0 
0.000000000000e+00 1.839531298847e-02 0.0 
0.000000000000e+00 1.760998793886e-02 0.0 
0.000000000000e+00 1.676471829379e-02 0.0 
0.000000000000e+00 1.584993274278e-02 0.0 
0.000000000000e+00 1.487583499662e-02 0.0 
4.083333075755e-05 1.383431841882e-02 0.0 
8.011973954325e-05 1.383557648407e-02 0.0 
1.207648684129e-04 1.383726281491e-02 0.0 
1.621469484405e-04 1.383823637515e-02 0.0 
2.039991259437e-04 1.384074644925e-02 0.0 
2.470645826165e-04 1.384115427498e-02 0.0 
2.917660577921e-04 1.384192011517e-02 0.0 
3.369914544535e-04 1.384049775369e-02 0.0 
3.855872647875e-04 1.383906988843e-02 0.0 
4.364611155125e-04 1.383319845880e-02 0.0 
4.893252169325e-04 1.382399083770e-02 0.0 
5.449696520401e-04 1.381097938206e-02 0.0 
6.032626788652e-04 1.379159297794e-02 0.0 
6.646837461233e-04 1.376399589564e-02 0.0 
-9.383701621637e-04 1.417300728104e-02 0.0 
-8.197019755549e-04 1.375515828789e-02 0.0 
-7.004214208095e-04 1.341319461366e-02 0.0 
-5.907134922474e-04 1.313493558745e-02 0.0 
-4.934312161335e-04 1.290932561062e-02 0.0 
-4.062624326480e-04 1.272242387424e-02 0.0 
-3.292706566089e-04 1.256762978847e-02 0.0 
-2.631955819101e-04 1.244023456522e-02 0.0 
-2.067551001392e-04 1.233596266153e-02 0.0 
-1.590694270650e-04 1.225209779473e-02 0.0 
-1.209671058238e-04 1.218272711880e-02 0.0 
-8.787396960486e-05 1.212951134315e-02 0.0 
-5.938852110976e-05 1.208416593029e-02 0.0 
-4.057925838197e-05 1.204767276844e-02 0.0 
-2.785363117930e-05 1.202100370683e-02 0.0 
-1.747193441881e-05 1.200101229829e-02 0.0 
-9.288028372634e-06 1.198600180434e-02 0.0 
-3.198759071399e-06 1.197605568553e-02 0.0 
-2.156975171030e-06 1.196916448190e-02 0.0 
1.592349452864e-04 1.792062947876e-02 0.0 
1.980846999317e-04 1.832132693328e-02 0.0 
2.307032787776e-04 1.863609340320e-02 0.0 
2.666513248961e-04 1.888626797691e-02 0.0 
3.007200486351e-04 1.908634411619e-02 0.0 
3.305524997828e-04 1.924632461264e-02 0.0 
3.548559657887e-04 1.937409648791e-02 0.0 
3.731463269574e-04 1.947550550743e-02 0.0 
3.853328939769e-04 1.955549541805e-02 0.0 
3.915743413003e-04 1.961790707373e-02 0.0 
3.921578413397e-04 1.966598415647e-02 0.0 
3.874674924234e-04 1.970238300147e-02 0.0 
3.779376395343e-04 1.972934964794e-02 0.0 
3.640322865976e-04 1.974875497865e-02 0.0 
3.462169189135e-04 1.976216663714e-02 0.0 
3.249443388285e-04 1.977089359809e-02 0.0 
3.006487989552e-04 1.977603471237e-02 0.0 
2.737495467002e-04 1.977851262727e-02 0.0 
2.446606879900e-04 1.977910184246e-02 0.0 
2.138086512176e-04 1.977845384965e-02 0.0 
1.816627558213e-04 1.977711737456e-02 0.0 
1.487839677523e-04 1.977553873461e-02 0.0 
1.158883269667e-04 1.977395925742e-02 0.0 
8.369641414419e-05 1.977178070443e-02 0.0 
4.572511745238e-05 1.976796530874e-02 0.0 
3.966773475383e-05 1.911755265542e-02 0.0 
7.808944936727e-05 1.911789333302e-02 0.0 
1.147786538240e-04 1.911994852804e-02 0.0 
1.504298528872e-04 1.912189818376e-02 0.0 
1.852715460444e-04 1.912386676336e-02 0.0 
2.192349163934e-04 1.912563283860e-02 0.0 
2.521179468928e-04 1.912676034477e-02 0.0 
2.836666816606e-04 1.912667494401e-02 0.0 
3.136133076964e-04 1.912467372842e-02 0.0 
3.416892857189e-04 1.911991247785e-02 0.0 
3.676318838046e-04 1.911137908040e-02 0.0 
3.911892790853e-04 1.909786010672e-02 0.0 
4.121321371784e-04 1.907789246621e-02 0.0 
4.302872842104e-04 1.904972247592e-02 0.0 
4.455395545548e-04 1.901123940610e-02 0.0 
4.579000828997e-04 1.895993293325e-02 0.0 
4.674638879010e-04 1.889271568338e-02 0.0 
4.746794402095e-04 1.880599519990e-02 0.0 
4.800413071244e-04 1.869500301025e-02 0.0 
4.850311262352e-04 1.855455737134e-02 0.0 
4.907715985496e-04 1.837597199116e-02 0.0 
5.017007656285e-04 1.815334064701e-02 0.0 
5.149832346270e-04 1.786882098150e-02 0.0 
6.988731873037e-04 1.755546181410e-02 0.0 
6.645893243018e-04 1.775471557536e-02 0.0 
6.311120377873e-04 1.791008546880e-02 0.0 
6.021355175783e-04 1.803517686820e-02 0.0 
5.748353369484e-04 1.813282073256e-02 0.0 
5.487858947291e-04 1.820957863537e-02 0.0 
5.228682187592e-04 1.826856077947e-02 0.0 
4.966805089808e-04 1.831347550582e-02 0.0 
4.697897542343e-04 1.834683458134e-02 0.0 
4.419752245397e-04 1.837098882750e-02 0.0 
4.130902236099e-04 1.838779838957e-02 0.0 
3.831164979786e-04 1.839889166220e-02 0.0 
3.520850324108e-04 1.840558889100e-02 0.0 
3.200574255615e-04 1.840898852189e-02 0.0 
2.871200510342e-04 1.841000892730e-02 0.0 
2.533737576655e-04 1.840941101869e-02 0.0 
2.189243340851e-04 1.840781958211e-02 0.0 
1.838450686904e-04 1.840570679385e-02 0.0 
1.481512376742e-04 1.840338009868e-02 0.0 
1.117909924773e-04 1.840092817456e-02 0.0 
7.475603796081e-05 1.839809456127e-02 0.0 
3.736147245803e-05 1.839241233176e-02 0.0 
3.834863569097e-05 1.761501531930e-02 0.0 
7.696493482712e-05 1.761465254410e-02 0.0 
1.154725338210e-04 1.761722862297e-02 0.0 
1.537316966207e-04 1.761992576377e-02 0.0 
1.917309065362e-04 1.762251516745e-02 0.0 
2.295081004746e-04 1.762482410418e-02 0.0 
2.671074353060e-04 1.762652016792e-02 0.0 
3.045367899404e-04 1.762711808448e-02 0.0 
3.418017423584e-04 1.762592488712e-02 0.0 
3.789397194396e-04 1.762209546351e-02 0.0 
4.160226502279e-04 1.761459925647e-02 0.0 
4.531393445504e-04 1.760221657893e-02 0.0 
4.904088610189e-04 1.758346976648e-02 0.0 
5.279957077846e-04 1.755643211534e-02 0.0 
5.663712064106e-04 1.751901166295e-02 0.0 
6.058164877771e-04 1.746846499115e-02 0.0 
6.472929959571e-04 1.740221218124e-02 0.0 
6.906704388996e-04 1.731537458773e-02 0.0 
7.383306738404e-04 1.720601255337e-02 0.0 
7.866578326805e-04 1.706429573625e-02 0.0 
8.128435292214e-04 1.641215275141e-02 0.0 
7.583236472328e-04 1.650957124288e-02 0.0 
7.037949116295e-04 1.658312909003e-02 0.0 
6.531943350367e-04 1.664188845902e-02 0.0 
6.048629818025e-04 1.668567965679e-02 0.0 
5.588948834898e-04 1.671854999666e-02 0.0 
5.144439866243e-04 1.674185570585e-02 0.0 
4.713428842464e-04 1.675804883105e-02 0.0 
4.293491501457e-04 1.676868629701e-02 0.0 
3.882926770729e-04 1.677502895474e-02 0.0 
3.479876197190e-04 1.677811825095e-02 0.0 
3.082121492071e-04 1.677886685195e-02 0.0 
2.688958893629e-04 1.677807814742e-02 0.0 
2.299611850489e-04 1.677636228668e-02 0.0 
1.912971674614e-04 1.677407808694e-02 0.0 
1.527987005687e-04 1.677153543146e-02 0.0 
1.144295086348e-04 1.676893254022e-02 0.0 
7.616231400931e-05 1.676630497423e-02 0.0 
3.804674602748e-05 1.676120584468e-02 0.0 
3.960024031358e-05 1.585460835690e-02 0.0 
7.938085319381e-05 1.585373496968e-02 0.0 
1.192916710551e-04 1.585600587967e-02 0.0 
1.596259165808e-04 1.585841927204e-02 0.0 
2.003457670199e-04 1.586082845611e-02 0.0 
2.416855843208e-04 1.586285394260e-02 0.0 
2.837379769858e-04 1.586419010689e-02 0.0 
3.268235947118e-04 1.586443865781e-02 0.0 
3.708410068128e-04 1.586306401633e-02 0.0 
4.161760806980e-04 1.585881794694e-02 0.0 
4.631658930947e-04 1.585083002701e-02 0.0 
5.119308372201e-04 1.583808870685e-02 0.0 
5.627826829198e-04 1.581908252509e-02 0.0 
6.161201144437e-04 1.579224887685e-02 0.0 
6.716184844677e-04 1.575389138277e-02 0.0 
7.313809648224e-04 1.570417804840e-02 0.0 
7.915027969219e-04 1.563674026238e-02 0.0 
7.415468402030e-04 1.474714618615e-02 0.0 
6.820202226052e-04 1.479249872312e-02 0.0 
6.225993317273e-04 1.482289099883e-02 0.0 
5.668176624951e-04 1.484611124292e-02 0.0 
5.138581453537e-04 1.486244026720e-02 0.0 
4.631988982950e-04 1.487341074638e-02 0.0 
4.147677184889e-04 1.488064404889e-02 0.0 
3.684152035177e-04 1.488441800651e-02 0.0 
3.234803226988e-04 1.488525858584e-02 0.0 
2.802677019318e-04 1.488552393892e-02 0.0 
2.380777375919e-04 1.488437204577e-02 0.0 
1.971168788089e-04 1.488286914917e-02 0.0 
1.566884582189e-04 1.488065280103e-02 0.0 
1.171107836129e-04 1.487882382316e-02 0.0 
7.809024453564e-05 1.487644489475e-02 0.0 
3.869090096487e-05 1.487133567986e-02 0.0 
-8.473792564381e-04 1.516170509242e-02 0.0 
-4.572762903017e-04 1.616237703544e-02 0.0 
-1.813218342761e-05 1.704124114875e-02 0.0 
3.980249459197e-04 1.748403580724e-02 0.0 
6.630349162187e-04 1.743938365106e-02 0.0 
8.035574393546e-04 1.712190130311e-02 0.0 
8.654229038889e-04 1.660995947313e-02 0.0 
8.703177105573e-04 1.593971330815e-02 0.0 
8.350531274601e-04 1.513748715698e-02 0.0 
7.709048060818e-04 1.422284271433e-02 0.0 
2.979714293616e-05 1.590107278313e-02 0.0 
2.285165599467e-04 1.163664183817e-03 0.0 
-1.025712854048e-04 1.226239174198e-02 0.0 
-3.438082622811e-04 1.298278541044e-02 0.0 
1.573405400119e-04 1.111788663337e-03 0.0 
7.283098079327e-04 1.689266582198e-02 0.0 
5.354784501699e-05 8.855645496009e-03 0.0 
2.652434562087e-04 1.227236541091e-03 0.0 
9.564244601279e-04 1.638384537452e-02 0.0 
2.577151876793e-04 1.260057910450e-03 0.0 
9.414544094355e-04 1.508938305926e-02 0.0 
9.070245363230e-05 1.002675784605e-03 0.0 
-1.468873644761e-05 1.204156747102e-02 0.0 
2.243921663450e-04 1.338664998833e-03 0.0 
7.927989505987e-04 1.325023317275e-02 0.0 
3.684441183383e-05 1.081242658119e-02 0.0 
5.636896047745e-05 6.898499855708e-03 0.0 
1.917182954472e-04 1.431817368328e-03 0.0 
1.265943372886e-04 1.393605076714e-03 0.0 
3.667595223789e-05 1.418423510874e-03 0.0 
6.640835989913e-05 1.537395105366e-03 0.0 
8.908271895081e-05 1.372026132692e-03 0.0 
6.370448699684e-04 1.279927106118e-02 0.0 
4.108811044716e-04 1.283894455680e-02 0.0 
2.678334721082e-04 1.281886755181e-02 0.0 
2.586488866285e-05 8.345173319677e-03 0.0 
5.459027188337e-05 1.078658111712e-03 0.0 
-5.483760163649e-04 1.393211310409e-02 0.0 
2.459908542640e-06 1.197577918623e-02 0.0 
3.923782045256e-05 4.078047281649e-03 0.0 
1.369078329105e-04 1.288996163139e-02 0.0 
1.919708684850e-05 1.166392386385e-02 0.0 
1.771430150939e-04 1.595922058584e-03 0.0 
2.458234266207e-04 1.146871827821e-03 0.0 
2.412286932341e-04 1.283043836054e-03 0.0 
2.666131999725e-04 1.265728878128e-03 0.0 
1.913637581001e-04 1.084081641736e-03 0.0 
-2.230410056381e-04 1.260223811178e-02 0.0 
5.181775956729e-04 1.288777014311e-02 0.0 
1.445722851265e-04 1.254510312108e-03 0.0 
1.846530695104e-05 5.596643101299e-03 0.0 
-4.999287908980e-05 1.212803327271e-02 0.0 
4.826727121376e-05 9.968695701966e-03 0.0 
1.766000131198e-05 1.154846328710e-03 0.0 
8.886820877443e-04 1.673864133849e-02 0.0 
4.411271483740e-04 1.660821002287e-02 0.0 
9.709900342294e-04 1.581917069996e-02 0.0 
8.788411877489e-04 1.422803035467e-02 0.0 
-4.349059240276e-04 1.506097153478e-02 0.0 
3.161522470663e-05 1.080555491571e-02 0.0 
2.546033803030e-05 8.516861046033e-04 0.0 
3.798058196836e-07 1.196020140787e-02 0.0 
9.795700329107e-06 2.581162006351e-03 0.0 
7.525515190352e-04 1.271121917772e-02 0.0 
8.006458156089e-04 1.221002913513e-02 0.0 
7.319497216471e-04 1.171678628020e-02 0.0 
7.894961117145e-04 1.111674907667e-02 0.0 
7.208592127412e-04 1.050091584556e-02 0.0 
7.635645129724e-04 9.939202470317e-03 0.0 
8.394199312391e-04 1.055352480654e-02 0.0 
8.020417199646e-04 9.363539983598e-03 0.0 
8.845099398584e-04 9.985889649851e-03 0.0 
6.871048042711e-04 9.285018790454e-03 0.0 
8.341092196531e-04 8.774181133937e-03 0.0 
9.231260174971e-04 9.402982698164e-03 0.0 
8.585513388439e-04 8.174892572557e-03 0.0 
9.532482853167e-04 8.805677262124e-03 0.0 
1.009823868284e-03 1.000181947684e-02 0.0 
1.045507825459e-03 9.410236329664e-03 0.0 
1.092652511577e-03 1.056517235227e-02 0.0 
1.133406646481e-03 9.976545442031e-03 0.0 
1.070701336378e-03 8.810314886235e-03 0.0 
1.162683782667e-03 9.380069844282e-03 0.0 
1.215528960461e-03 1.050410785932e-02 0.0 
1.247830676004e-03 9.909138380770e-03 0.0 
1.290251106287e-03 1.098849794829e-02 0.0 
1.324342654431e-03 1.039107445475e-02 0.0 
1.356501421377e-03 1.142988271043e-02 0.0 
1.390838535428e-03 1.082822589949e-02 0.0 
1.342965383174e-03 9.788760365872e-03 0.0 
1.408495299565e-03 1.022640319532e-02 0.0 
1.444851498022e-03 1.121572068039e-02 0.0 
1.460093210021e-03 1.061485246932e-02 0.0 
1.484083139729e-03 1.155170555749e-02 0.0 
1.495364883450e-03 1.095208037936e-02 0.0 
1.457182432173e-03 1.001811336273e-02 0.0 
1.487997036897e-03 1.036257153788e-02 0.0 
1.511868176692e-03 1.123959852020e-02 0.0 
1.499146722445e-03 1.065962398081e-02 0.0 
1.507129959187e-03 1.147759347072e-02 0.0 
1.488913867654e-03 1.091018403898e-02 0.0 
1.479380356109e-03 1.166647015138e-02 0.0 
1.455923925565e-03 1.111787449813e-02 0.0 
1.454854844699e-03 1.035727646859e-02 0.0 
1.418118656701e-03 1.058544414285e-02 0.0 
1.399663701125e-03 1.128789134358e-02 0.0 
1.359801150343e-03 1.078137467347e-02 0.0 
1.368054233755e-03 1.007504074745e-02 0.0 
1.309165507411e-03 1.029940301180e-02 0.0 
1.307718705242e-03 9.585047243064e-03 0.0 
1.249642078179e-03 9.838154670319e-03 0.0 
1.232797140414e-03 1.049388182766e-02 0.0 
1.175696801027e-03 1.006249177153e-02 0.0 
1.182989929243e-03 9.393460636456e-03 0.0 
1.112109452501e-03 9.651445793818e-03 0.0 
1.088023006993e-03 1.026922180139e-02 0.0 
1.029729453291e-03 9.884966743584e-03 0.0 
1.043893332675e-03 9.251000258100e-03 0.0 
9.664099365949e-04 9.515667933480e-03 0.0 
9.384867748441e-04 1.010283841008e-02 0.0 
8.814775753159e-04 9.760988119471e-03 0.0 
8.999746570879e-04 9.148870381910e-03 0.0 
8.205826379886e-04 9.427196333572e-03 0.0 
7.913431932920e-04 9.993327693691e-03 0.0 
7.372175256428e-04 9.685118773200e-03 0.0 
7.571206861758e-04 9.092389536784e-03 0.0 
6.795562990813e-04 9.380804769746e-03 0.0 
6.910770248894e-04 8.759995235886e-03 0.0 
6.504953958508e-04 9.934895185287e-03 0.0 
5.997264229833e-04 9.653934201930e-03 0.0 
5.635728286073e-04 1.017472994643e-02 0.0 
5.197517184072e-04 9.913473521936e-03 0.0 
1.436809076541e-03 9.429099381652e-03 0.0 
4.798991958843e-04 1.039792469153e-02 0.0 
5.139386477779e-04 1.062735534098e-02 0.0 
4.418089917353e-04 1.015897931874e-02 0.0 
4.718431130746e-04 9.648961257293e-03 0.0 
4.000586097979e-04 1.060775363368e-02 0.0 
3.672897645624e-04 1.039000858609e-02 0.0 
3.256816039077e-04 1.080437644829e-02 0.0 
1.484331751872e-03 1.226635579087e-02 0.0 
1.083453142883e-03 8.202311522790e-03 0.0 
2.975913508116e-04 1.060699591791e-02 0.0 
2.581866624851e-04 1.098754144646e-02 0.0 
2.757052342828e-04 1.115993137286e-02 0.0 
2.121935372639e-04 1.130951028871e-02 0.0 
6.503025077933e-04 9.869473418348e-03 0.0 
6.093904276412e-04 8.603642370865e-03 0.0 
5.790548130378e-04 9.207809289618e-03 0.0 
5.314759445056e-04 7.902267116970e-03 0.0 
5.072919434426e-04 8.513821878150e-03 0.0 
1.980922945952e-04 1.115693736004e-02 0.0 
7.622583950919e-04 7.483866638662e-03 0.0 
5.503232046422e-04 7.270619109432e-03 0.0 
1.242215361579e-03 1.157919078940e-02 0.0 
1.453486738026e-03 1.215693853691e-02 0.0 
1.347371292614e-03 9.302712092314e-03 0.0 
3.295212581040e-04 1.016707916567e-02 0.0 
2.638420769552e-04 1.040399743992e-02 0.0 
2.874497611538e-04 9.937997591758e-03 0.0 
7.582877861800e-04 8.430841276232e-03 0.0 
6.848683909055e-04 8.073543461576e-03 0.0 
7.400934235466e-04 7.701252328820e-03 0.0 
6.608241615957e-04 7.320223456533e-03 0.0 
7.025190409902e-04 6.903951350294e-03 0.0 
6.190234276140e-04 6.499119209860e-03 0.0 
5.821386051110e-04 6.937651169231e-03 0.0 
5.373652345337e-04 6.091129823009e-03 0.0 
5.048628967526e-04 6.551396176800e-03 0.0 
6.457087091345e-04 6.038642620252e-03 0.0 
7.338340293579e-04 6.465256792477e-03 0.0 
4.584275420916e-04 5.678986362724e-03 0.0 
4.298035782275e-04 6.159389575330e-03 0.0 
3.830212356428e-04 5.260371774028e-03 0.0 
3.577768960517e-04 5.760502042540e-03 0.0 
3.928027943276e-04 6.619543646133e-03 0.0 
3.240119228343e-04 6.240244796285e-03 0.0 
3.491590920168e-04 7.059612603879e-03 0.0 
1.278128103920e-03 8.804112169225e-03 0.0 
1.298702572054e-03 8.463433210057e-03 0.0 
1.221064159552e-03 7.956249516544e-03 0.0 
1.222241942202e-03 7.557822691336e-03 0.0 
1.136726208198e-03 7.041110052453e-03 0.0 
1.118098396820e-03 6.586569308766e-03 0.0 
1.024966654075e-03 6.058589701121e-03 0.0 
1.044858035815e-03 6.535434922405e-03 0.0 
8.747719379798e-04 7.560231680515e-03 0.0 
1.320881265034e-03 1.142209280360e-02 0.0 
1.349101715498e-03 1.192599860755e-02 0.0 
1.248883335041e-03 1.199787123138e-02 0.0 
1.263359949196e-03 1.249778921167e-02 0.0 
1.140563710326e-03 1.250646958952e-02 0.0 
1.138134059584e-03 1.300476868213e-02 0.0 
9.912686450271e-04 1.295110424487e-02 0.0 
1.000188885996e-03 1.249275483891e-02 0.0 
8.295582023834e-04 1.288093057078e-02 0.0 
8.480235867943e-04 1.246706569558e-02 0.0 
6.614740834756e-04 1.280293865070e-02 0.0 
6.907471163977e-04 1.243763718360e-02 0.0 
1.345236654558e-03 9.186256881021e-03 0.0 
1.203721019145e-03 7.123602324178e-03 0.0 
1.079720954451e-03 6.095701415173e-03 0.0 
1.165187639160e-03 6.651175511191e-03 0.0 
2.187560282536e-04 1.145722118854e-02 0.0 
2.894527846617e-04 5.353169597429e-03 0.0 
6.601959383623e-04 5.554066520720e-03 0.0 
7.530238778664e-04 6.010205552762e-03 0.0 
9.264867534675e-04 5.539322242804e-03 0.0 
1.575358320478e-04 1.144563489215e-02 0.0 
9.678069399506e-04 1.344805860854e-02 0.0 
1.118546275418e-03 1.354488076262e-02 0.0 
4.551519244984e-04 7.168072918850e-03 0.0 
4.371222173063e-04 7.792605214210e-03 0.0 
6.605209940638e-04 5.045060999048e-03 0.0 
1.459042295249e-04 1.131192162925e-02 0.0 
4.767998562745e-04 5.177130267791e-03 0.0 
6.150250896191e-04 1.320593352821e-02 0.0 
2.582538785667e-04 5.852571064404e-03 0.0 
2.254861359727e-04 4.937072679287e-03 0.0 
5.370880796960e-04 7.353601128115e-03 0.0 
1.021480770781e-03 5.566357894168e-03 0.0 
1.109447572539e-03 6.156243115921e-03 0.0 
8.546436259991e-04 1.208416363392e-02 0.0 
7.075935017475e-04 1.210083928326e-02 0.0 
5.358792962422e-04 1.240834749851e-02 0.0 
5.684023593062e-04 1.210090483960e-02 0.0 
7.141921272726e-04 1.178097478008e-02 0.0 
5.818848463068e-04 1.183193713110e-02 0.0 
4.341108130159e-04 1.211392288708e-02 0.0 
4.574321702187e-04 1.188006505549e-02 0.0 
5.863032871929e-04 1.157028476072e-02 0.0 
4.710986733407e-04 1.165121104787e-02 0.0 
3.438398033797e-04 1.192731249123e-02 0.0 
3.660570888435e-04 1.172740965891e-02 0.0 
2.458857141994e-04 4.396637903671e-03 0.0 
4.346974357361e-04 1.307744637473e-02 0.0 
1.042356750222e-03 1.114082220377e-02 0.0 
5.661826641870e-04 4.573244692082e-03 0.0 
8.875057155571e-04 5.023098748337e-03 0.0 
3.816080796710e-04 6.408208643483e-03 0.0 
3.693959330491e-04 7.046084795439e-03 0.0 
4.146595051395e-04 8.411389006577e-03 0.0 
3.521640712236e-04 7.674410841371e-03 0.0 
3.049774111616e-04 6.274148810187e-03 0.0 
2.927737305001e-04 6.915979044935e-03 0.0 
3.308353157934e-04 8.293557620009e-03 0.0 
2.760567219369e-04 7.547035116737e-03 0.0 
3.061907647819e-04 8.900636070145e-03 0.0 
2.556497597297e-04 8.166041598169e-03 0.0 
2.248017816484e-04 6.778616005560e-03 0.0 
2.082815882360e-04 7.411617236382e-03 0.0 
2.322366568848e-04 8.773643351844e-03 0.0 
1.882290345208e-04 8.032753323375e-03 0.0 
2.062187351726e-04 9.368343429690e-03 0.0 
1.651642173499e-04 8.641234668099e-03 0.0 
1.478091999800e-04 7.272409200779e-03 0.0 
1.138166315346e-04 1.155862083729e-02 0.0 
9.486570637893e-04 6.039486969897e-03 0.0 
8.244901315422e-04 5.026228550264e-03 0.0 
2.266481653610e-04 1.019357677172e-02 0.0 
2.444599068445e-04 9.700940815460e-03 0.0 
3.038210928672e-04 9.410195410013e-03 0.0 
2.509147565481e-04 9.148465380976e-03 0.0 
1.272998288471e-04 7.901460467846e-03 0.0 
1.108862242916e-04 6.494153507978e-03 0.0 
9.270353033592e-04 1.398905467194e-02 0.0 
1.078714722361e-03 1.412957579425e-02 0.0 
3.877180972793e-04 5.760277369884e-03 0.0 
1.960834859043e-04 5.455632424718e-03 0.0 
2.201156969432e-04 6.331447427252e-03 0.0 
1.479951265850e-03 1.243741828852e-02 0.0 
1.433454536844e-03 1.304781543899e-02 0.0 
1.446112903604e-03 1.327458593781e-02 0.0 
1.381347631828e-03 1.390886642105e-02 0.0 
1.367286568463e-03 1.365828266803e-02 0.0 
1.377756600025e-03 1.408388308630e-02 0.0 
8.236594687823e-04 6.906330714584e-03 0.0 
1.777343730893e-04 5.990081449113e-03 0.0 
2.859342285504e-04 1.132831769180e-02 0.0 
2.165149859890e-04 1.160141804611e-02 0.0 
1.668125588545e-04 4.510855214459e-03 0.0 
1.046187137970e-03 6.981887711467e-03 0.0 
1.267952640966e-03 8.696689650915e-03 0.0 
1.254620538141e-03 8.088857495441e-03 0.0 
1.165073753665e-03 7.546590993057e-03 0.0 
1.135844717169e-03 6.933711967958e-03 0.0 
1.033578725288e-03 6.338649335051e-03 0.0 
9.874128058520e-04 5.719395183448e-03 0.0 
1.091136488085e-03 6.324157177211e-03 0.0 
9.431851848269e-04 4.991815006935e-03 0.0 
9.260126339541e-04 5.100773939247e-03 0.0 
1.420093827633e-04 9.248697366163e-03 0.0 
1.280824688990e-03 7.681497825525e-03 0.0 
5.813025151635e-04 1.131744550911e-02 0.0 
1.170442916321e-04 1.166755035085e-02 0.0 
2.407600917405e-04 1.197701804726e-02 0.0 
1.021695946908e-04 1.145017142898e-02 0.0 
1.275018515718e-04 1.117094288365e-02 0.0 
5.465188629259e-04 4.014895174226e-03 0.0 
8.720803168814e-04 5.072343116193e-03 0.0 
9.212640189951e-04 5.702915751943e-03 0.0 
1.295810307020e-03 1.452997687820e-02 0.0 
1.283656165548e-03 1.425548049158e-02 0.0 
8.472224443068e-04 4.416135559275e-03 0.0 
5.447763046504e-04 9.811588796129e-03 0.0 
3.592104902950e-04 9.614850348346e-03 0.0 
3.279936558371e-04 1.019583526070e-02 0.0 
7.501468503524e-05 1.168762723956e-02 0.0 
2.057172083898e-04 1.214344606971e-02 0.0 
2.448508712334e-04 5.480388172039e-03 0.0 
1.241382212310e-03 1.361494715447e-02 0.0 
1.199691982443e-03 1.422784812546e-02 0.0 
3.550384569415e-04 1.346849385652e-02 0.0 
1.677835900047e-04 1.329293041936e-02 0.0 
9.359509486728e-05 7.122230251277e-03 0.0 
7.930578973969e-05 5.695873101374e-03 0.0 
3.107638992974e-04 8.821204483963e-03 0.0 
2.534002935226e-04 8.532260360717e-03 0.0 
6.447668275911e-04 4.505961199371e-03 0.0 
2.732530960010e-04 1.179740980402e-02 0.0 
9.082197091459e-05 5.029902189726e-03 0.0 
9.524518472421e-04 6.507167180251e-03 0.0 
1.029985868286e-03 7.398612912237e-03 0.0 
1.925870539927e-04 9.460292571461e-03 0.0 
8.616679562508e-04 1.458178140422e-02 0.0 
6.812255330075e-04 1.436975621950e-02 0.0 
6.947043683265e-04 1.119889905716e-02 0.0 
3.769147956749e-04 1.153213021176e-02 0.0 
8.518340506702e-05 1.132748935428e-02 0.0 
5.089814041135e-04 3.427408619110e-03 0.0 
2.466046115330e-04 4.815447776146e-03 0.0 
1.031010711877e-03 5.718017494173e-03 0.0 
1.181149190671e-03 6.889130485602e-03 0.0 
8.506744578547e-04 4.487940390536e-03 0.0 
1.616039500174e-04 1.200638821794e-02 0.0 
4.517468928800e-04 3.520738268104e-03 0.0 
1.388007674867e-04 5.048597338844e-03 0.0 
7.543803024284e-04 4.445166751971e-03 0.0 
8.000901974228e-04 5.027628258375e-03 0.0 
1.333634922648e-03 1.364311913922e-02 0.0 
1.289803468033e-03 1.426277232984e-02 0.0 
1.133487921813e-03 1.487658518502e-02 0.0 
1.216675451118e-03 1.491395760032e-02 0.0 
9.129121543054e-04 1.114452395488e-02 0.0 
1.397069050451e-03 1.360836713986e-02 0.0 
1.115007090810e-03 1.166467024769e-02 0.0 
1.052100550890e-03 1.222268077456e-02 0.0 
1.113112180438e-03 1.270782874998e-02 0.0 
1.337884187055e-03 1.336374489343e-02 0.0 
1.256098904065e-03 1.393967261853e-02 0.0 
1.362778915311e-03 1.246419766437e-02 0.0 
1.367417820216e-03 8.986759268153e-03 0.0 
3.669568920524e-04 9.102205772981e-03 0.0 
4.168190538403e-04 7.408506231370e-03 0.0 
8.191046920558e-04 8.082274313699e-03 0.0 
1.862546244737e-04 5.332381180789e-03 0.0 
1.404803527905e-04 4.509183401922e-03 0.0 
2.499878345432e-04 1.007594399482e-02 0.0 
2.191863790699e-04 1.064354353953e-02 0.0 
1.568259486442e-04 1.169706279231e-02 0.0 
1.431799401130e-04 1.181748302095e-02 0.0 
6.233605185297e-04 8.427066184055e-03 0.0 
4.753290147796e-04 4.099774048722e-03 0.0 
3.120770367602e-04 4.963923711902e-03 0.0 
3.047178837576e-04 4.291996129034e-03 0.0 
3.864296894491e-04 5.100549015044e-03 0.0 
6.109832800014e-04 3.935478218988e-03 0.0 
1.222644730859e-03 1.152820409177e-02 0.0 
1.201174638787e-03 8.323040509758e-03 0.0 
2.637516623381e-04 1.296173708276e-02 0.0 
1.392222065949e-03 9.032091142220e-03 0.0 
9.353565697268e-05 1.187949019539e-02 0.0 
9.828301541894e-04 7.596933282889e-03 0.0 
1.144925904879e-04 4.074119522393e-03 0.0 
1.324060213981e-04 3.495702673256e-03 0.0 
7.495413298351e-04 3.792014276691e-03 0.0 
8.576645116349e-04 1.275401431938e-02 0.0 
1.358783702237e-03 8.440695303673e-03 0.0 
1.400516481624e-03 8.853538141567e-03 0.0 
1.039977285316e-03 1.324363727774e-02 0.0 
1.088300499330e-03 1.369208942940e-02 0.0 
1.167352967101e-03 1.315345810767e-02 0.0 
1.128639915986e-03 1.410906643193e-02 0.0 
6.722833642296e-04 1.092711096402e-02 0.0 
5.672503214207e-04 1.107526882146e-02 0.0 
6.716878907618e-04 3.705149979385e-03 0.0 
7.363543935917e-04 3.860049963556e-03 0.0 
6.271195948919e-04 3.758148123513e-03 0.0 
6.728307436781e-04 4.309369402726e-03 0.0 
6.421429447236e-04 3.204165839804e-03 0.0 
7.426276730733e-04 3.844552845727e-03 0.0 
1.026815693406e-04 1.102174379591e-02 0.0 
1.188340996379e-03 1.481694897977e-02 0.0 
1.870210678447e-04 3.985049075336e-03 0.0 
9.855173359874e-04 1.276742064579e-02 0.0 
3.652781050825e-04 3.051673691498e-03 0.0 
3.897951722660e-04 3.624600984828e-03 0.0 
6.782988464238e-07 1.313930856678e-02 0.0 
1.100417267761e-04 1.283079122923e-02 0.0 
6.245308070163e-05 4.231583677097e-03 0.0 
1.040396711769e-03 1.554053354082e-02 0.0 
1.114681592433e-03 1.557206162458e-02 0.0 
9.283108109237e-04 1.541517532625e-02 0.0 
1.732765767481e-05 1.829476946295e-03 0.0 
5.902884545606e-05 1.290238931350e-02 0.0 
8.616344195289e-05 3.029884116120e-03 0.0 
1.294347210067e-03 1.300384224821e-02 0.0 
6.611089130359e-05 3.479500320687e-03 0.0 
1.310588027735e-03 7.862642786256e-03 0.0 
1.487248346212e-03 1.267717344439e-02 0.0 
7.451502634765e-04 4.996938505169e-03 0.0 
5.076970641227e-05 5.034815252387e-03 0.0 
3.734396122468e-05 3.349393359606e-03 0.0 
3.775739020497e-04 1.085644867878e-02 0.0 
3.425128555747e-04 1.143132190560e-02 0.0 
4.139379897197e-04 1.030621701130e-02 0.0 
5.545740119217e-04 1.365021972716e-02 0.0 
2.262939129807e-04 1.397418313268e-02 0.0 
1.353229363090e-04 5.181835413794e-03 0.0 
2.047485066239e-04 1.062618902357e-02 0.0 
1.683716027974e-04 1.038786990891e-02 0.0 
2.864547120645e-04 1.163939152164e-02 0.0 
3.752257269873e-04 1.134874043031e-02 0.0 
3.709663939837e-04 8.480277406004e-03 0.0 
4.311380056494e-04 8.779908120047e-03 0.0 
9.773786755218e-04 6.970064708508e-03 0.0 
8.681424930117e-04 6.331054856407e-03 0.0 
1.179153014753e-03 8.165208618069e-03 0.0 
9.392300753284e-04 6.944716240225e-03 0.0 
9.979259994939e-04 7.787173126609e-03 0.0 
1.082916474415e-03 8.218138611820e-03 0.0 
1.420389396642e-04 3.875853498524e-03 0.0 
9.446534141233e-05 2.890976484970e-03 0.0 
7.799739295287e-04 1.077865364383e-02 0.0 
8.109885481939e-04 1.107879496761e-02 0.0 
6.414943188702e-04 1.067468206949e-02 0.0 
1.777661744740e-04 3.323857292262e-03 0.0 
9.543711948279e-05 2.441734992118e-03 0.0 
1.410922743643e-04 2.936356734704e-03 0.0 
7.022789013256e-05 1.197288338333e-02 0.0 
1.202863651724e-04 1.193332996278e-02 0.0 
5.868345395683e-04 1.496258558790e-02 0.0 
3.736342829725e-04 1.469170841543e-02 0.0 
2.929314500264e-04 3.669357110162e-03 0.0 
3.773159001668e-04 4.441944659128e-03 0.0 
2.064957848091e-04 2.768684761175e-03 0.0 
6.114527236067e-05 1.121261231850e-02 0.0 
1.118257594634e-03 6.274272433059e-03 0.0 
4.635153850003e-04 2.867621797119e-03 0.0 
5.702387664801e-04 3.398885550805e-03 0.0 
3.419286198341e-04 2.205120157090e-03 0.0 
8.539044213869e-04 4.421533478055e-03 0.0 
6.452311895018e-04 3.192220491439e-03 0.0 
6.350520395308e-04 3.194472963301e-03 0.0 
-1.279794321043e-04 1.344261165288e-02 0.0 
2.850741688576e-05 3.987009664101e-03 0.0 
2.612376835387e-04 1.131905260661e-02 0.0 
-2.407200718828e-04 1.327869599785e-02 0.0 
2.264939828009e-04 1.190027026363e-02 0.0 
1.889361830720e-04 1.120606184932e-02 0.0 
1.961500231431e-04 1.246218837055e-02 0.0 
5.020344037532e-05 1.146909643316e-02 0.0 
4.319521981984e-04 1.171408695156e-02 0.0 
4.736253004936e-04 1.102520947042e-02 0.0 
1.915256143548e-05 1.208841456629e-02 0.0 
1.204019653827e-04 2.477865743980e-03 0.0 
3.545375882563e-05 1.199810074598e-02 0.0 
5.876516886438e-05 1.192448978963e-02 0.0 
2.820846941720e-04 2.538557045391e-03 0.0 
3.098679475340e-04 3.139356705251e-03 0.0 
2.059441380453e-04 2.041097289784e-03 0.0 
2.419323248386e-04 2.706269618976e-03 0.0 
3.248577847854e-04 3.738622039087e-03 0.0 
2.540752816120e-04 3.267655228974e-03 0.0 
3.077500184006e-04 1.207548498863e-02 0.0 
1.668491685578e-04 2.050900022205e-03 0.0 
1.891282021216e-04 2.764917126068e-03 0.0 
1.101925073623e-04 1.578902463208e-03 0.0 
1.037848765190e-03 1.461092431460e-02 0.0 
1.260850920733e-03 1.489816224744e-02 0.0 
1.154072801338e-03 1.554096445132e-02 0.0 
9.788344627992e-04 1.625547752075e-02 0.0 
4.529661359598e-04 2.739651785554e-03 0.0 
5.526099869861e-04 3.630363446192e-03 0.0 
8.671818102624e-05 4.610225140040e-03 0.0 
9.918024300992e-05 5.545103036642e-03 0.0 
1.562387669907e-04 1.184508563410e-02 0.0 
1.137737143964e-04 1.189443248588e-02 0.0 
1.240950503387e-04 1.078900973771e-02 0.0 
8.945452847087e-05 1.092634413074e-02 0.0 
9.506094459510e-05 9.797167962027e-03 0.0 
6.112699096406e-05 9.943639691965e-03 0.0 
7.251324630886e-05 8.769761030875e-03 0.0 
5.017857569847e-04 2.519035578342e-03 0.0 
7.965294734511e-04 1.609222330805e-02 0.0 
9.634061507278e-04 1.376804523989e-02 0.0 
5.264719994997e-04 2.617426105335e-03 0.0 
6.489009274269e-04 3.376305271406e-03 0.0 
1.165247937852e-03 1.448851316422e-02 0.0 
1.084238670082e-03 1.536855699623e-02 0.0 
3.002874251994e-04 2.264710876897e-03 0.0 
1.425751315075e-03 1.300133458326e-02 0.0 
8.969706745887e-05 1.593915660813e-03 0.0 
-6.074925849155e-04 1.435063470988e-02 0.0 
-1.942535366695e-04 1.408942686447e-02 0.0 
1.468143305260e-03 1.289520654161e-02 0.0 
1.215356633676e-03 1.356531258330e-02 0.0 
1.287367907508e-03 1.476617076749e-02 0.0 
1.188659680519e-03 1.533774466284e-02 0.0 
8.561812577135e-04 6.023033457758e-03 0.0 
8.305053115265e-05 1.205367118028e-02 0.0 
7.749347035109e-04 1.521241685028e-02 0.0 
1.050092752308e-04 8.636115878414e-03 0.0 
4.508856449199e-04 1.558503561832e-02 0.0 
4.551948901554e-05 5.041397683602e-03 0.0 
1.436278730683e-03 1.239230024733e-02 0.0 
1.361304155019e-03 1.242249955694e-02 0.0 
1.016134292218e-03 1.475346115974e-02 0.0 
1.351045361620e-03 1.420021214196e-02 0.0 
9.654238010732e-04 1.058298161695e-02 0.0 
8.570291374284e-04 1.168839335070e-02 0.0 
9.208313315980e-04 1.224985385944e-02 0.0 
1.426426994758e-03 1.182310115980e-02 0.0 
1.197530602688e-03 1.509854455479e-02 0.0 
1.070343318911e-03 1.593379238966e-02 0.0 
1.171008293280e-03 1.109402162040e-02 0.0 
4.727482349267e-04 5.882490377545e-03 0.0 
4.692190828237e-04 5.223315318020e-03 0.0 
3.616883176605e-04 3.816447888141e-03 0.0 
4.567014921548e-04 4.568891696078e-03 0.0 
5.653500387055e-04 5.987490069163e-03 0.0 
5.591168811350e-04 5.336941756930e-03 0.0 
4.338635526935e-04 3.926938716784e-03 0.0 
5.422800545887e-04 4.684414958088e-03 0.0 
3.655671553702e-04 2.972771064513e-03 0.0 
5.085799572804e-04 3.997208011992e-03 0.0 
6.547955291794e-04 5.453914651611e-03 0.0 
6.338032231881e-04 4.832176831801e-03 0.0 
4.862683377844e-04 3.519734078051e-03 0.0 
7.711959907297e-04 6.262260510722e-03 0.0 
4.107241013926e-04 1.966790056105e-03 0.0 
1.507010896542e-03 1.208033902717e-02 0.0 
4.594430957283e-05 1.367471120442e-02 0.0 
-3.980850131313e-06 1.440658925167e-02 0.0 
1.305793339910e-03 1.202023071911e-02 0.0 
1.778175495062e-04 1.448591149394e-03 0.0 
1.431170444661e-04 1.432490243914e-03 0.0 
1.261230804840e-03 1.303909277254e-02 0.0 
2.332029255214e-04 1.307163247166e-03 0.0 
9.837141685409e-04 1.170190330554e-02 0.0 
7.955536884019e-04 1.333537387370e-02 0.0 
2.532147929735e-04 1.287228149952e-03 0.0 
5.620683970307e-04 6.630696158270e-03 0.0 
6.531918971859e-04 7.377091036069e-03 0.0 
6.344669093323e-04 7.996489597213e-03 0.0 
1.094186332935e-04 1.340236006452e-03 0.0 
4.490395456713e-04 9.731117313365e-03 0.0 
2.475169727347e-04 1.147304515392e-03 0.0 
1.299565756185e-03 8.088066758706e-03 0.0 
1.367748760050e-03 8.647603639515e-03 0.0 
1.425354761288e-03 9.537014826151e-03 0.0 
6.650683350813e-04 6.116125174088e-03 0.0 
2.371222495050e-04 1.160221004763e-03 0.0 
4.287704472929e-04 2.212369056785e-03 0.0 
4.056765136955e-04 2.188488310836e-03 0.0 
6.019240335320e-04 3.288491805886e-03 0.0 
2.117617757573e-04 1.129803718563e-03 0.0 
1.874501930779e-04 1.288104645955e-03 0.0 
1.908015117387e-04 1.215446827715e-03 0.0 
7.087696739330e-04 1.148436974103e-02 0.0 
8.350833422330e-04 1.139195457982e-02 0.0 
9.271345384914e-04 1.095091484655e-02 0.0 
9.597590990431e-04 1.129772471422e-02 0.0 
8.499085618041e-04 1.172769406100e-02 0.0 
9.832053224450e-04 1.166908400661e-02 0.0 
1.077989646483e-03 1.119907491296e-02 0.0 
9.965798299518e-04 1.206850525108e-02 0.0 
7.204508702863e-04 4.980715382871e-03 0.0 
1.779535583584e-04 1.068587398802e-03 0.0 
7.869655848758e-04 7.309823024183e-03 0.0 
8.713346629570e-04 7.725466153639e-03 0.0 
8.965757179062e-04 8.471795379373e-03 0.0 
4.207874445914e-04 9.377520798797e-03 0.0 
4.895488022845e-04 9.075964536562e-03 0.0 
4.943226334948e-04 8.440422072804e-03 0.0 
3.529343039705e-04 9.665935505147e-03 0.0 
1.225437717295e-03 7.485666086049e-03 0.0 
1.635602213330e-04 1.069639116171e-03 0.0 
1.117978254122e-03 7.854604467491e-03 0.0 
5.459122678406e-04 9.368064815437e-03 0.0 
5.771523228049e-04 1.284626107022e-02 0.0 
6.019810764428e-04 1.184695498336e-02 0.0 
6.617885036775e-04 1.179931669644e-02 0.0 
6.153415264549e-04 1.064175253698e-02 0.0 
5.350691856592e-04 1.172829444289e-02 0.0 
3.100559289120e-04 8.171981816211e-03 0.0 
2.490904943735e-04 7.856141043819e-03 0.0 
1.951206175246e-04 8.235695762403e-03 0.0 
1.886187328415e-04 7.531654656075e-03 0.0 
1.365510035720e-04 7.928013275938e-03 0.0 
1.413453855577e-04 8.582330215047e-03 0.0 
1.279556081508e-04 7.197418710813e-03 0.0 
7.886494605835e-05 7.693849555142e-03 0.0 
4.633295994125e-04 1.287207854984e-02 0.0 
-2.755488943400e-04 1.277594689264e-02 0.0 
-7.846186135652e-05 1.261854067213e-02 0.0 
-5.950127579091e-05 1.246709596225e-02 0.0 
7.621481059772e-05 1.244194685423e-02 0.0 
8.810795547909e-05 1.259484790357e-02 0.0 
2.570418275809e-04 1.235213419348e-02 0.0 
2.547695624227e-04 1.255455514672e-02 0.0 
-1.014460355773e-04 1.281368433898e-02 0.0 
-1.764838679019e-04 1.246558606376e-02 0.0 
-3.761467966257e-05 1.234529056295e-02 0.0 
-1.361479660140e-04 1.235307882562e-02 0.0 
-2.390970233890e-05 1.224953052343e-02 0.0 
9.839208674656e-05 1.217773036426e-02 0.0 
2.081701065162e-04 1.173565605319e-02 0.0 
4.888364632283e-05 1.225887647493e-03 0.0 
5.185997797230e-05 9.447790846076e-03 0.0 
9.888969327032e-05 9.719182352185e-03 0.0 
9.018436667230e-05 1.019103730860e-02 0.0 
1.455919173603e-04 9.948673062363e-03 0.0 
9.866262453184e-05 9.221645387736e-03 0.0 
4.291931079237e-05 1.042187905874e-02 0.0 
8.139549225761e-05 1.057059880950e-02 0.0 
2.664371782757e-06 1.196463958057e-02 0.0 
1.209832054627e-05 1.191109109929e-02 0.0 
3.840382654330e-06 1.191380142649e-02 0.0 
1.887720536642e-05 1.181364633894e-02 0.0 
3.021961061789e-05 1.182332182639e-02 0.0 
1.883116084134e-05 1.191823211500e-02 0.0 
2.374235814706e-05 1.193204955687e-02 0.0 
-3.288816099456e-07 1.199275591661e-02 0.0 
2.715096558603e-05 1.195063731261e-02 0.0 
5.462301911585e-05 1.184245607438e-02 0.0 
-5.461621855218e-06 1.201449558880e-02 0.0 
2.268248280757e-05 6.970999464851e-03 0.0 
4.331598265850e-05 6.265189500844e-03 0.0 
1.435331721051e-04 1.124262478907e-03 0.0 
3.572148759048e-04 1.278804572495e-02 0.0 
-7.169545366814e-05 1.218852638854e-02 0.0 
3.418858486981e-05 1.702978965181e-03 0.0 
5.150654823893e-05 1.416525163652e-03 0.0 
4.255084236604e-05 1.371406875894e-03 0.0 
2.858116667914e-05 2.987054198261e-03 0.0 
4.646360825111e-05 2.452911650298e-03 0.0 
1.776899111405e-05 1.654595887036e-03 0.0 
3.471352517774e-04 1.099723123967e-02 0.0 
3.359508217358e-04 3.196698019288e-03 0.0 
9.789669644533e-05 4.351476791271e-03 0.0 
7.497699180341e-04 1.382447815767e-02 0.0 
4.676973388396e-04 1.121616886843e-02 0.0 
1.569872753033e-04 5.945808323499e-03 0.0 
4.640620251060e-04 6.988213217353e-03 0.0 
1.859061493619e-04 3.960144515414e-03 0.0 
2.834325850776e-04 6.699684916795e-03 0.0 
3.119053057379e-04 4.832672799591e-03 0.0 
3.921049762621e-04 2.238037442268e-03 0.0 
6.802893175806e-05 1.156656023549e-02 0.0 
2.790836234325e-04 9.494564436464e-03 0.0 
1.799419964996e-04 9.955086153585e-03 0.0 
1.647081793621e-04 6.637404861271e-03 0.0 
2.342151659782e-04 1.081007667094e-02 0.0 
1.983681116555e-04 8.846234054262e-03 0.0 
1.620618654110e-04 1.157186522023e-02 0.0 
4.525872704768e-04 2.444287306808e-03 0.0 
1.180775780679e-03 1.215282987143e-02 0.0 
8.302009894816e-04 8.789389286544e-03 0.0 
3.992594507700e-04 9.915012271126e-03 0.0 
4.274554762898e-04 1.081737541095e-02 0.0 
4.745508700541e-04 1.142880692128e-02 0.0 
1.506008317754e-03 1.183897373901e-02 0.0 
6.196281679962e-04 9.072150322959e-03 0.0 
5.597226733070e-04 5.610006241616e-03 0.0 
1.253174564368e-04 5.843984233525e-03 0.0 
-2.229767375894e-05 1.207411733526e-02 0.0 
5.699666070509e-04 5.104438122022e-03 0.0 
6.109492289745e-04 7.715200093463e-03 0.0 
3.886065149814e-04 9.020918019933e-03 0.0 
9.861005130460e-04 5.551143752152e-03 0.0 
3.153679122860e-04 1.211998836001e-02 0.0 
2.373138457017e-04 6.136625614296e-03 0.0 
2.330177292507e-04 3.550780920836e-03 0.0 
5.096742513473e-04 1.041359645880e-02 0.0 
1.077671937804e-04 1.178046932147e-02 0.0 
2.962844958319e-04 1.078177193633e-02 0.0 
4.105133213645e-04 2.911846188344e-03 0.0 
4.674107584037e-04 6.528897633011e-03 0.0 
1.773029638095e-04 1.099829866520e-02 0.0 
1.239135126539e-03 9.113355725191e-03 0.0 
1.411722556604e-03 1.181900864907e-02 0.0 
8.404137901579e-04 1.375206823291e-02 0.0 
1.011318966988e-04 3.718250859084e-03 0.0 
1.463428267755e-03 9.786723461046e-03 0.0 
7.811387931795e-04 4.471963381203e-03 0.0 
1.136313471356e-03 7.462973740532e-03 0.0 
1.511000277001e-04 1.082551996264e-02 0.0 
4.009219455554e-04 4.194286972840e-03 0.0 
1.406891167065e-03 9.819668885287e-03 0.0 
1.900562025554e-04 4.672545954747e-03 0.0 
1.064830161411e-03 6.961838585456e-03 0.0 
1.281651367218e-03 1.094680854175e-02 0.0 
3.117762893510e-04 5.624365221632e-03 0.0 
9.716280001850e-04 8.860625522578e-03 0.0 
9.266086656332e-04 5.003108532200e-03 0.0 
1.241322842681e-03 1.259574493103e-02 0.0 
1.265550895340e-03 9.305110455731e-03 0.0 
9.747604333228e-04 8.212284435354e-03 0.0 
1.408864267223e-03 9.625905647908e-03 0.0 
1.071828408339e-04 6.419764476449e-03 0.0 
4.831421226772e-04 4.652084315186e-03 0.0 
4.966201855510e-04 1.273202932003e-02 0.0 
1.436388901087e-03 1.346542718334e-02 0.0 
4.791760357605e-04 9.122894242202e-03 0.0 
8.146579779229e-04 4.487385201266e-03 0.0 
1.340819560696e-04 3.138155943873e-03 0.0 
1.404420733767e-03 1.276222205210e-02 0.0 
3.981307139256e-04 4.741073165917e-03 0.0 
2.432229651887e-04 4.187646639505e-03 0.0 
5.577002722994e-04 8.759755234681e-03 0.0 
2.417063677307e-05 1.143408432675e-02 0.0 
4.833535477218e-04 1.414069617645e-02 0.0 
1.129838229172e-03 1.204297172572e-02 0.0 
1.469775574556e-03 1.009406129536e-02 0.0 
5.548317078521e-04 8.088882340992e-03 0.0 
2.576326373855e-04 2.838733557464e-03 0.0 
3.242233500407e-04 4.297567354481e-03 0.0 
7.569317889153e-04 5.519670144670e-03 0.0 
-1.933867186281e-04 1.547831606269e-02 0.0 
9.152985125525e-04 1.326880283874e-02 0.0 
2.559415993302e-04 3.844666619258e-03 0.0 
1.163869849616e-03 8.659023950409e-03 0.0 
8.262589551116e-04 4.458596320177e-03 0.0 
8.581507980931e-05 8.316639098123e-03 0.0 
4.712991653300e-04 2.445461514043e-03 0.0 
1.070694934196e-03 1.498868263704e-02 0.0 
1.939596861158e-04 3.381576319740e-03 0.0 
8.492215127234e-04 5.537556865301e-03 0.0 
1.358136148820e-03 1.303711925526e-02 0.0 
9.795801861401e-05 1.290190481056e-02 0.0 
1.230065295630e-04 2.117295552932e-03 0.0 
7.142808757301e-04 4.445109322781e-03 0.0 
1.330890597508e-03 8.585448751347e-03 0.0 
1.110324645737e-03 8.966840061021e-03 0.0 
9.157782744786e-04 1.467928110947e-02 0.0 
4.857147289083e-04 7.747849098958e-03 0.0 
1.178838753859e-03 8.780106046746e-03 0.0 
9.546469008370e-05 1.307697266963e-03 0.0 
6.769083976099e-04 3.948569880993e-03 0.0 
7.192838786949e-04 8.719795528295e-03 0.0 
4.299041936298e-04 8.124372625776e-03 0.0 
1.245961002525e-03 7.266998587617e-03 0.0 
4.254310658425e-05 1.183235822327e-02 0.0 
1.003650641913e-03 1.419704758981e-02 0.0 
3.650453638091e-04 7.799388065019e-03 0.0 
1.108462849743e-03 1.160844166729e-02 0.0 
1.033261821576e-03 8.551931028530e-03 0.0 
5.378307864987e-04 2.605196511119e-03 0.0 
3.009238823131e-04 7.466060139539e-03 0.0 
1.186571247366e-03 1.108208305976e-02 0.0 
2.379591743242e-04 7.124553900336e-03 0.0 
9.645360303985e-04 1.547604992130e-02 0.0 
7.439735035675e-04 8.089263995233e-03 0.0 
1.743272734767e-04 6.773394746926e-03 0.0 
1.082047114195e-03 7.587861305097e-03 0.0 
6.750858565763e-05 1.185494141383e-02 0.0 
1.300738784423e-03 7.993249113568e-03 0.0 
6.742911367397e-05 3.556959931341e-03 0.0 
6.043028856961e-04 1.042618898171e-02 0.0 
9.539114187085e-04 8.145832288315e-03 0.0 
6.635434459810e-04 6.746881434266e-03 0.0 
9.687818656090e-04 1.614147285266e-02 0.0 
9.124524955215e-04 7.351301997572e-03 0.0 
9.569843650503e-04 6.342490849301e-03 0.0 
1.254567998107e-03 7.403367555957e-03 0.0 
1.422869331844e-03 9.215644161745e-03 0.0 
8.467484156665e-04 6.474876265594e-03 0.0 
1.090876978573e-03 1.562664544662e-02 0.0 
3.602679438899e-04 1.118655043309e-02 0.0 
2.895266149494e-04 1.148481726362e-02 0.0 
1.141283844824e-03 1.066405655250e-02 0.0 
8.406356848063e-04 5.675344689038e-03 0.0 
3.890097926673e-05 1.168891428654e-02 0.0 
7.708494776431e-04 6.857039638859e-03 0.0 
1.890310894925e-04 1.187245842081e-02 0.0 
1.038489785854e-03 1.081483746591e-02 0.0 
1.029954658911e-03 5.579895208530e-03 0.0 
2.755390649867e-05 9.618224344210e-03 0.0 
9.916432226529e-04 1.044957784037e-02 0.0 
2.987230234663e-05 1.115126752709e-02 0.0 
8.877526001942e-04 1.062167435231e-02 0.0 
1.347966910878e-03 8.268997099632e-03 0.0 
8.425867578836e-04 1.029963120074e-02 0.0 
7.423436660776e-04 1.049078807668e-02 0.0 
6.685627478475e-05 2.866802901107e-03 0.0 
6.990118336283e-04 1.020931213573e-02 0.0 
8.200326611529e-06 1.373073430770e-03 0.0 
2.053292697979e-05 1.115079569281e-03 0.0 
3.696064418790e-05 1.203834546060e-02 0.0 
8.983030010121e-04 1.671647178493e-02 0.0 
-4.770583364504e-04 1.354872942371e-02 0.0 
1.065540571872e-03 1.598215371079e-02 0.0 
5.440479540475e-04 1.085015492057e-02 0.0 
8.796797373058e-04 6.959687691582e-03 0.0 
7.681674604498e-05 1.198391389872e-02 0.0 
4.497917991415e-04 1.101880095815e-02 0.0 
3.514731019827e-04 2.588729671217e-03 0.0 
2.454914802783e-04 1.168159012281e-03 0.0 
4.958925043042e-05 7.591230980658e-03 0.0 
7.300476573988e-04 3.971846516578e-03 0.0 
1.188413128805e-03 6.772980886389e-03 0.0 
1.391838119957e-05 4.137186393052e-03 0.0 
2.285911429496e-04 1.298556400591e-02 0.0 
-9.833050313546e-06 1.217063806366e-02 0.0 
5.171399980630e-05 5.962779005035e-03 0.0 
7.727249446496e-04 1.698676111278e-02 0.0 
8.980693465332e-04 1.622996845311e-02 0.0 
6.310316902010e-04 1.588350693708e-02 0.0 
1.180621167567e-04 1.068214574053e-02 0.0 
7.349760680952e-05 1.231202586743e-02 0.0 
6.121788704512e-04 1.680738105877e-02 0.0 
4.583435407675e-04 2.306901891178e-03 0.0 
3.849924906802e-04 1.195550766327e-02 0.0 
9.563115950328e-04 5.116485469692e-03 0.0 
2.496217143424e-04 1.627997362183e-02 0.0 
1.662568960370e-04 2.759061797942e-03 0.0 
5.018433612562e-04 2.425510352897e-03 0.0 
1.022969352125e-04 9.853352048665e-04 0.0 
7.509499367657e-04 3.822011795634e-03 0.0 
2.234042990814e-04 1.525143560229e-02 0.0 
5.641003236718e-04 1.090285278891e-02 0.0 
4.329424062774e-04 2.451322392403e-03 0.0 
6.677201870531e-05 6.470184821460e-03 0.0 
7.353595632065e-05 9.425892196440e-04 0.0 
4.855888416060e-04 1.204992973571e-02 0.0 
4.101608051599e-05 2.677941467031e-03 0.0 
3.479771900246e-04 1.267062763725e-02 0.0 
2.009233784861e-05 2.598995249002e-03 0.0 
7.526574529884e-04 5.613496826555e-03 0.0 
1.555993869360e-04 1.052834417461e-02 0.0 
6.774836690369e-04 1.091685890387e-02 0.0 
5.634970496704e-05 1.930533736687e-03 0.0 
3.008081131455e-04 2.637919914012e-03 0.0 
-7.944185711040e-06 1.484369125466e-02 0.0 
7.772857282617e-05 7.728826328611e-03 0.0 
1.962581793720e-04 9.949738381877e-03 0.0 
-1.713833225701e-04 1.305059071553e-02 0.0 
2.510848418051e-04 2.058791246672e-03 0.0 
6.035080753684e-04 4.261387244544e-03 0.0 
9.399847673475e-05 1.972129861947e-03 0.0 
7.639343148402e-06 1.182063938019e-02 0.0 
6.369415121554e-06 1.206208596375e-02 0.0 
2.780102120052e-04 1.922818207230e-03 0.0 
3.688032593061e-04 2.353341559797e-03 0.0 
4.173326416286e-04 1.232160555536e-02 0.0 
5.511315184492e-05 1.112071095562e-03 0.0 
-3.167266765018e-04 1.455787610209e-02 0.0 
3.131966558385e-04 1.310084460176e-02 0.0 
2.514324499270e-05 1.197899647517e-02 0.0 
5.921028694100e-05 9.516878380964e-04 0.0 
9.910923611756e-05 2.567563306137e-03 0.0 
1.386432663306e-04 9.477185403977e-03 0.0 
6.921392347508e-04 1.268421674297e-02 0.0 
6.989124597023e-05 1.092572683336e-02 0.0 
6.417297127257e-04 3.383715853928e-03 0.0 
6.519866307286e-05 1.213270671234e-02 0.0 
6.701320204172e-05 2.424308744640e-03 0.0 
3.182258996777e-04 1.900360469246e-03 0.0 
2.023145051595e-04 2.415785169944e-03 0.0 
1.865135427614e-04 8.690299348331e-04 0.0 
-2.593234111536e-04 1.373332676091e-02 0.0 
4.317761083001e-04 2.099571973474e-03 0.0 
5.319861419846e-04 3.006167450049e-03 0.0 
1.716889132695e-04 1.303336721489e-02 0.0 
2.587162064671e-04 2.584475310286e-03 0.0 
1.253527511489e-04 1.034525296480e-02 0.0 
8.712534301036e-05 1.172416121866e-02 0.0 
3.730729218887e-06 1.216885482442e-03 0.0 
-9.078538550922e-07 1.195756057356e-02 0.0 
2.859882874873e-05 1.303066748426e-02 0.0 
8.316866362490e-06 9.096116159846e-04 0.0 
5.032536715932e-05 1.172749931013e-02 0.0 
6.070717540752e-05 1.116543421913e-02 0.0 
3.343784886916e-04 2.279468173072e-03 0.0 
3.680743529333e-05 8.202708120750e-03 0.0 
3.324542829830e-05 5.115361776831e-03 0.0 
1.848135337514e-04 1.227018862853e-02 0.0 
-4.502053586677e-04 1.323133154949e-02 0.0 
4.798005988960e-05 8.967019803560e-03 0.0 
4.511569363963e-04 2.154453841474e-03 0.0 
1.554550366691e-04 2.312027158911e-03 0.0 
1.241937165446e-04 9.841160966875e-03 0.0 
2.464697752416e-04 1.440545760618e-02 0.0 
4.727373935651e-04 3.216001396606e-03 0.0 
1.488026378720e-04 9.044327888619e-03 0.0 
5.924261304777e-04 3.374468926879e-03 0.0 
5.849361541301e-04 3.085849264920e-03 0.0 
-6.281492467934e-04 1.475445332731e-02 0.0 
3.369909276341e-05 7.509147022528e-03 0.0 
1.850665240521e-05 1.200825940749e-02 0.0 
1.687361766418e-04 1.817904196777e-03 0.0 
9.855354569477e-05 8.767852555389e-03 0.0 
3.417603298139e-04 1.780410374201e-02 0.0 
2.252337597497e-05 1.944953425776e-02 0.0 
6.179246671074e-04 1.767043769537e-02 0.0 
1.779786344258e-05 1.876226060339e-02 0.0 
7.595989768241e-04 1.730866217915e-02 0.0 
1.985982531494e-05 1.801141822594e-02 0.0 
8.221965308799e-04 1.676115970666e-02 0.0 
1.762589037924e-05 1.719602716731e-02 0.0 
8.280164176639e-04 1.607464181103e-02 0.0 
2.034938425766e-05 1.631590089070e-02 0.0 
7.942905304574e-04 1.525338942181e-02 0.0 
1.795139544214e-05 1.537115259215e-02 0.0 
7.326429806724e-04 1.433817067075e-02 0.0 
2.034089958869e-05 1.436219520989e-02 0.0 

VECTORS node_bounda_dof_materi_velocity_x float
1.000000000000e+00 0.0 0.0 
1.000000000000e+00 0.0 0.0 
1.000000000000e+00 0.0 0.0 
1.000000000000e+00 0.0 0.0 
1.000000000000e+00 0.0 0.0 
1.000000000000e+00 0.0 0.0 
1.000000000000e+00 0.0 0.0 
1.000000000000e+00 0.0 0.0 
1.000000000000e+00 0.0 0.0 
1.000000000000e+00 0.0 0.0 
1.000000000000e+00 0.0 0.0 
1.000000000000e+00 0.0 0.0 
1.000000000000e+00 0.0 0.0 
1.000000000000e+00 0.0 0.0 
1.000000000000e+00 0.0 0.0 
1.000000000000e+00 0.0 0.0 
1.000000000000e+00 0.0 0.0 
1.000000000000e+00 0.0 0.0 
1.000000000000e+00 0.0 0.0 
1.000000000000e+00 0.0 0.0 
1.000000000000e+00 0.0 0.0 
1.000000000000e+00 0.0 0.0 
1.000000000000e+00 0.0 0.0 
1.000000000000e+00 0.0 0.0 
1.000000000000e+00 0.0 0.0 
1.000000000000e+00 0.0 0.0 
1.000000000000e+00 0.0 0.0 
1.000000000000e+00 0.0 0.0 
1.000000000000e+00 0.0 0.0 
1.000000000000e+00 0.0 0.0 
1.000000000000e+00 0.0 0.0 
1.000000000000e+00 0.0 0.0 
1.000000000000e+00 0.0 0.0 
1.000000000000e+00 0.0 0.0 
1.000000000000e+00 0.0 0.0 
1.000000000000e+00 0.0 0.0 
1.000000000000e+00 0.0 0.0 
1.000000000000e+00 0.0 0.0 
1.000000000000e+00 0.0 0.0 
1.000000000000e+00 0.0 0.0 
1.000000000000e+00 0.0 0.0 
1.000000000000e+00 0.0 0.0 
1.000000000000e+00 0.0 0.0 
1.000000000000e+00 0.0 0.0 
1.000000000000e+00 0.0 0.0 
1.000000000000e+00 0.0 0.0 
1.000000000000e+00 0.0 0.0 
1.000000000000e+00 0.0 0.0 
1.000000000000e+00 0.0 0.0 
1.000000000000e+00 0.0 0.0 
1.000000000000e+00 0.0 0.0 
1.000000000000e+00 0.0 0.0 
1.000000000000e+00 0.0 0.0 
1.000000000000e+00 0.0 0.0 
1.000000000000e+00 0.0 0.0 
1.000000000000e+00 0.0 0.0 
1.000000000000e+00 0.0 0.0 
1.000000000000e+00 0.0 0.0 
1.000000000000e+00 0.0 0.0 
1.000000000000e+00 0.0 0.0 
1.000000000000e+00 0.0 0.0 
1.000000000000e+00 0.0 0.0 
1.000000000000e+00 0.0 0.0 
1.000000000000e+00 0.0 0.0 
1.000000000000e+00 0.0 0.0 
1.000000000000e+00 0.0 0.0 
1.000000000000e+00 0.0 0.0 
1.000000000000e+00 0.0 0.0 
1.000000000000e+00 0.0 0.0 
1.000000000000e+00 0.0 0.0 
1.000000000000e+00 0.0 0.0 
1.000000000000e+00 0.0 0.0 
1.000000000000e+00 0.0 0.0 
1.000000000000e+00 0.0 0.0 
1.000000000000e+00 0.0 0.0 
1.000000000000e+00 0.0 0.0 
1.000000000000e+00 0.0 0.0 
1.000000000000e+00 0.0 0.0 
1.000000000000e+00 0.0 0.0 
1.000000000000e+00 0.0 0.0 
1.000000000000e+00 0.0 0.0 
0.0 0.0 0.0 
0.0 0.0 0.0 
0.0 0.0 0.0 
0.0 0.0 0.0 
0.0 0.0 0.0 
0.0 0.0 0.0 
0.0 0.0 0.0 
0.0 0.0 0.0 
0.0 0.0 0.0 
0.0 0.0 0.0 
0.0 0.0 0.0 
1.000000000000e+00 0.0 0.0 
1.000000000000e+00 0.0 0.0 
1.000000000000e+00 0.0 0.0 
1.000000000000e+00 0.0 0.0 
1.000000000000e+00 0.0 0.0 
1.000000000000e+00 0.0 0.0 
1.000000000000e+00 0.0 0.0 
0.0 0.0 0.0 
0.0 0.0 0.0 
0.0 0.0 0.0 
0.0 0.0 0.0 
0.0 0.0 0.0 
0.0 0.0 0.0 
0.0 0.0 0.0 
0.0 0.0 0.0 
0.0 0.0 0.0 
0.0 0.0 0.0 
0.0 0.0 0.0 
0.0 0.0 0.0 
0.0 0.0 0.0 
0.0 0.0 0.0 
0.0 0.0 0.0 
0.0 0.0 0.0 
0.0 0.0 0.0 
0.0 0.0 0.0 
0.0 0.0 0.0 
0.0 0.0 0.0 
0.0 0.0 0.0 
0.0 0.0 0.0 
0.0 0.0 0.0 
0.0 0.0 0.0 
0.0 0.0 0.0 
0.0 0.0 0.0 
0.0 0.0 0.0 
0.0 0.0 0.0 
0.0 0.0 0.0 
0.0 0.0 0.0 
0.0 0.0 0.0 
0.0 0.0 0.0 
0.0 0.0 0.0 
0.0 0.0 0.0 
0.0 0.0 0.0 
0.0 0.0 0.0 
0.0 0.0 0.0 
0.0 0.0 0.0 
0.0 0.0 0.0 
0.0 0.0 0.0 
0.0 0.0 0.0 
0.0 0.0 0.0 
0.0 0.0 0.0 
0.0 0.0 0.0 
0.0 0.0 0.0 
0.0 0.0 0.0 
0.0 0.0 0.0 
0.0 0.0 0.0 
0.0 0.0 0.0 
0.0 0.0 0.0 
0.0 0.0 0.0 
0.0 0.0 0.0 
0.0 0.0 0.0 
0.0 0.0 0.0 
0.0 0.0 0.0 
0.0 0.0 0.0 
0.0 0.0 0.0 
0.0 0.0 0.0 
0.0 0.0 0.0 
0.0 0.0 0.0 
0.0 0.0 0.0 
0.0 0.0 0.0 
0.0 0.0 0.0 
0.0 0.0 0.0 
0.0 0.0 0.0 
0.0 0.0 0.0 
0.0 0.0 0.0 
0.0 0.0 0.0 
0.0 0.0 0.0 
0.0 0.0 0.0 
0.0 0.0 0.0 
0.0 0.0 0.0 
0.0 0.0 0.0 
0.0 0.0 0.0 
0.0 0.0 0.0 
0.0 0.0 0.0 
0.0 0.0 0.0 
0.0 0.0 0.0 
0.0 0.0 0.0 
0.0 0.0 0.0 
0.0 0.0 0.0 
0.0 0.0 0.0 
0.0 0.0 0.0 
0.0 0.0 0.0 
0.0 0.0 0.0 
0.0 0.0 0.0 
0.0 0.0 0.0 
0.0 0.0 0.0 
0.0 0.0 0.0 
0.0 0.0 0.0 
0.0 0.0 0.0 
0.0 0.0 0.0 
0.0 0.0 0.0 
0.0 0.0 0.0 
0.0 0.0 0.0 
0.0 0.0 0.0 
0.0 0.0 0.0 
0.0 0.0 0.0 
0.0 0.0 0.0 
0.0 0.0 0.0 
0.0 0.0 0.0 
0.0 0.0 0.0 
0.0 0.0 0.0 
0.0 0.0 0.0 
0.0 0.0 0.0 
0.0 0.0 0.0 
0.0 0.0 0.0 
0.0 0.0 0.0 
0.0 0.0 0.0 
0.0 0.0 0.0 
0.0 0.0 0.0 
0.0 0.0 0.0 
0.0 0.0 0.0 
0.0 0.0 0.0 
0.0 0.0 0.0 
0.0 0.0 0.0 
0.0 0.0 0.0 
0.0 0.0 0.0 
0.0 0.0 0.0 
0.0 0.0 0.0 
0.0 0.0 0.0 
0.0 0.0 0.0 
0.0 0.0 0.0 
0.0 0.0 0.0 
0.0 0.0 0.0 
0.0 0.0 0.0 
0.0 0.0 0.0 
0.0 0.0 0.0 
0.0 0.0 0.0 
0.0 0.0 0.0 
0.0 0.0 0.0 
0.0 0.0 0.0 
0.0 0.0 0.0 
0.0 0.0 0.0 
0.0 0.0 0.0 
0.0 0.0 0.0 
0.0 0.0 0.0 
0.0 0.0 0.0 
0.0 0.0 0.0 
0.0 0.0 0.0 
0.0 0.0 0.0 
0.0 0.0 0.0 
0.0 0.0 0.0 
0.0 0.0 0.0 
0.0 0.0 0.0 
0.0 0.0 0.0 
0.0 0.0 0.0 
0.0 0.0 0.0 
0.0 0.0 0.0 
0.0 0.0 0.0 
0.0 0.0 0.0 
0.0 0.0 0.0 
0.0 0.0 0.0 
0.0 0.0 0.0 
0.0 0.0 0.0 
0.0 0.0 0.0 
0.0 0.0 0.0 
0.0 0.0 0.0 
0.0 0.0 0.0 
0.0 0.0 0.0 
0.0 0.0 0.0 
0.0 0.0 0.0 
0.0 0.0 0.0 
0.0 0.0 0.0 
0.0 0.0 0.0 
0.0 0.0 0.0 
0.0 0.0 0.0 
0.0 0.0 0.0 
0.0 0.0 0.0 
0.0 0.0 0.0 
0.0 0.0 0.0 
0.0 0.0 0.0 
0.0 0.0 0.0 
0.0 0.0 0.0 
0.0 0.0 0.0 
0.0 0.0 0.0 
0.0 0.0 0.0 
0.0 0.0 0.0 
0.0 0.0 0.0 
0.0 0.0 0.0 
0.0 0.0 0.0 
0.0 0.0 0.0 
0.0 0.0 0.0 
0.0 0.0 0.0 
0.0 0.0 0.0 
0.0 0.0 0.0 
0.0 0.0 0.0 
0.0 0.0 0.0 
0.0 0.0 0.0 
0.0 0.0 0.0 
0.0 0.0 0.0 
0.0 0.0 0.0 
0.0 0.0 0.0 
0.0 0.0 0.0 
0.0 0.0 0.0 
0.0 0.0 0.0 
0.0 0.0 0.0 
0.0 0.0 0.0 
0.0 0.0 0.0 
0.0 0.0 0.0 
0.0 0.0 0.0 
0.0 0.0 0.0 
0.0 0.0 0.0 
0.0 0.0 0.0 
0.0 0.0 0.0 
0.0 0.0 0.0 
0.0 0.0 0.0 
0.0 0.0 0.0 
0.0 0.0 0.0 
0.0 0.0 0.0 
0.0 0.0 0.0 
0.0 0.0 0.0 
0.0 0.0 0.0 
0.0 0.0 0.0 
0.0 0.0 0.0 
0.0 0.0 0.0 
0.0 0.0 0.0 
0.0 0.0 0.0 
0.0 0.0 0.0 
0.0 0.0 0.0 
0.0 0.0 0.0 
0.0 0.0 0.0 
0.0 0.0 0.0 
0.0 0.0 0.0 
0.0 0.0 0.0 
0.0 0.0 0.0 
0.0 0.0 0.0 
0.0 0.0 0.0 
0.0 0.0 0.0 
0.0 0.0 0.0 
0.0 0.0 0.0 
0.0 0.0 0.0 
0.0 0.0 0.0 
0.0 0.0 0.0 
0.0 0.0 0.0 
0.0 0.0 0.0 
0.0 0.0 0.0 
0.0 0.0 0.0 
0.0 0.0 0.0 
0.0 0.0 0.0 
0.0 0.0 0.0 
0.0 0.0 0.0 
0.0 0.0 0.0 
0.0 0.0 0.0 
0.0 0.0 0.0 
0.0 0.0 0.0 
0.0 0.0 0.0 
0.0 0.0 0.0 
0.0 0.0 0.0 
0.0 0.0 0.0 
0.0 0.0 0.0 
0.0 0.0 0.0 
0.0 0.0 0.0 
0.0 0.0 0.0 
0.0 0.0 0.0 
0.0 0.0 0.0 
0.0 0.0 0.0 
0.0 0.0 0.0 
0.0 0.0 0.0 
0.0 0.0 0.0 
0.0 0.0 0.0 
0.0 0.0 0.0 
0.0 0.0 0.0 
0.0 0.0 0.0 
0.0 0.0 0.0 
0.0 0.0 0.0 
0.0 0.0 0.0 
0.0 0.0 0.0 
0.0 0.0 0.0 
0.0 0.0 0.0 
0.0 0.0 0.0 
0.0 0.0 0.0 
0.0 0.0 0.0 
0.0 0.0 0.0 
0.0 0.0 0.0 
0.0 0.0 0.0 
0.0 0.0 0.0 
0.0 0.0 0.0 
0.0 0.0 0.0 
0.0 0.0 0.0 
0.0 0.0 0.0 
0.0 0.0 0.0 
0.0 0.0 0.0 
0.0 0.0 0.0 
0.0 0.0 0.0 
0.0 0.0 0.0 
0.0 0.0 0.0 
0.0 0.0 0.0 
0.0 0.0 0.0 
0.0 0.0 0.0 
0.0 0.0 0.0 
0.0 0.0 0.0 
0.0 0.0 0.0 
0.0 0.0 0.0 
0.0 0.0 0.0 
0.0 0.0 0.0 
0.0 0.0 0.0 
0.0 0.0 0.0 
0.0 0.0 0.0 
0.0 0.0 0.0 
0.0 0.0 0.0 
0.0 0.0 0.0 
0.0 0.0 0.0 
0.0 0.0 0.0 
0.0 0.0 0.0 
0.0 0.0 0.0 
0.0 0.0 0.0 
0.0 0.0 0.0 
0.0 0.0 0.0 
0.0 0.0 0.0 
0.0 0.0 0.0 
0.0 0.0 0.0 
0.0 0.0 0.0 
0.0 0.0 0.0 
0.0 0.0 0.0 
0.0 0.0 0.0 
0.0 0.0 0.0 
0.0 0.0 0.0 
0.0 0.0 0.0 
0.0 0.0 0.0 
0.0 0.0 0.0 
0.0 0.0 0.0 
0.0 0.0 0.0 
0.0 0.0 0.0 
0.0 0.0 0.0 
0.0 0.0 0.0 
0.0 0.0 0.0 
0.0 0.0 0.0 
0.0 0.0 0.0 
0.0 0.0 0.0 
0.0 0.0 0.0 
0.0 0.0 0.0 
0.0 0.0 0.0 
0.0 0.0 0.0 
0.0 0.0 0.0 
0.0 0.0 0.0 
0.0 0.0 0.0 
0.0 0.0 0.0 
0.0 0.0 0.0 
0.0 0.0 0.0 
0.0 0.0 0.0 
0.0 0.0 0.0 
0.0 0.0 0.0 
0.0 0.0 0.0 
0.0 0.0 0.0 
0.0 0.0 0.0 
0.0 0.0 0.0 
0.0 0.0 0.0 
0.0 0.0 0.0 
0.0 0.0 0.0 
0.0 0.0 0.0 
0.0 0.0 0.0 
0.0 0.0 0.0 
0.0 0.0 0.0 
0.0 0.0 0.0 
0.0 0.0 0.0 
0.0 0.0 0.0 
0.0 0.0 0.0 
0.0 0.0 0.0 
0.0 0.0 0.0 
0.0 0.0 0.0 
0.0 0.0 0.0 
0.0 0.0 0.0 
0.0 0.0 0.0 
0.0 0.0 0.0 
0.0 0.0 0.0 
0.0 0.0 0.0 
0.0 0.0 0.0 
0.0 0.0 0.0 
0.0 0.0 0.0 
0.0 0.0 0.0 
0.0 0.0 0.0 
0.0 0.0 0.0 
0.0 0.0 0.0 
0.0 0.0 0.0 
0.0 0.0 0.0 
0.0 0.0 0.0 
0.0 0.0 0.0 
0.0 0.0 0.0 
0.0 0.0 0.0 
0.0 0.0 0.0 
0.0 0.0 0.0 
0.0 0.0 0.0 
0.0 0.0 0.0 
0.0 0.0 0.0 
0.0 0.0 0.0 
0.0 0.0 0.0 
0.0 0.0 0.0 
0.0 0.0 0.0 
0.0 0.0 0.0 
0.0 0.0 0.0 
0.0 0.0 0.0 
0.0 0.0 0.0 
0.0 0.0 0.0 
0.0 0.0 0.0 
0.0 0.0 0.0 
0.0 0.0 0.0 
0.0 0.0 0.0 
0.0 0.0 0.0 
0.0 0.0 0.0 
0.0 0.0 0.0 
0.0 0.0 0.0 
0.0 0.0 0.0 
0.0 0.0 0.0 
0.0 0.0 0.0 
0.0 0.0 0.0 
0.0 0.0 0.0 
0.0 0.0 0.0 
0.0 0.0 0.0 
0.0 0.0 0.0 
0.0 0.0 0.0 
0.0 0.0 0.0 
0.0 0.0 0.0 
0.0 0.0 0.0 
0.0 0.0 0.0 
0.0 0.0 0.0 
0.0 0.0 0.0 
0.0 0.0 0.0 
0.0 0.0 0.0 
0.0 0.0 0.0 
0.0 0.0 0.0 
0.0 0.0 0.0 
0.0 0.0 0.0 
0.0 0.0 0.0 
0.0 0.0 0.0 
0.0 0.0 0.0 
0.0 0.0 0.0 
0.0 0.0 0.0 
0.0 0.0 0.0 
0.0 0.0 0.0 
0.0 0.0 0.0 
0.0 0.0 0.0 
0.0 0.0 0.0 
0.0 0.0 0.0 
0.0 0.0 0.0 
0.0 0.0 0.0 
0.0 0.0 0.0 
0.0 0.0 0.0 
0.0 0.0 0.0 
0.0 0.0 0.0 
0.0 0.0 0.0 
0.0 0.0 0.0 
0.0 0.0 0.0 
0.0 0.0 0.0 
0.0 0.0 0.0 
0.0 0.0 0.0 
0.0 0.0 0.0 
0.0 0.0 0.0 
0.0 0.0 0.0 
0.0 0.0 0.0 
0.0 0.0 0.0 
0.0 0.0 0.0 
0.0 0.0 0.0 
0.0 0.0 0.0 
0.0 0.0 0.0 
0.0 0.0 0.0 
0.0 0.0 0.0 
0.0 0.0 0.0 
0.0 0.0 0.0 
0.0 0.0 0.0 
0.0 0.0 0.0 
0.0 0.0 0.0 
0.0 0.0 0.0 
0.0 0.0 0.0 
0.0 0.0 0.0 
0.0 0.0 0.0 
0.0 0.0 0.0 
0.0 0.0 0.0 
0.0 0.0 0.0 
0.0 0.0 0.0 
0.0 0.0 0.0 
0.0 0.0 0.0 
0.0 0.0 0.0 
0.0 0.0 0.0 
0.0 0.0 0.0 
0.0 0.0 0.0 
0.0 0.0 0.0 
0.0 0.0 0.0 
0.0 0.0 0.0 
0.0 0.0 0.0 
0.0 0.0 0.0 
0.0 0.0 0.0 
0.0 0.0 0.0 
0.0 0.0 0.0 
0.0 0.0 0.0 
0.0 0.0 0.0 
0.0 0.0 0.0 
0.0 0.0 0.0 
0.0 0.0 0.0 
0.0 0.0 0.0 
0.0 0.0 0.0 
0.0 0.0 0.0 
0.0 0.0 0.0 
0.0 0.0 0.0 
0.0 0.0 0.0 
0.0 0.0 0.0 
0.0 0.0 0.0 
0.0 0.0 0.0 
0.0 0.0 0.0 
0.0 0.0 0.0 
0.0 0.0 0.0 
0.0 0.0 0.0 
0.0 0.0 0.0 
0.0 0.0 0.0 
0.0 0.0 0.0 
0.0 0.0 0.0 
0.0 0.0 0.0 
0.0 0.0 0.0 
0.0 0.0 0.0 
0.0 0.0 0.0 
0.0 0.0 0.0 
0.0 0.0 0.0 
0.0 0.0 0.0 
0.0 0.0 0.0 
0.0 0.0 0.0 
0.0 0.0 0.0 
0.0 0.0 0.0 
0.0 0.0 0.0 
0.0 0.0 0.0 
0.0 0.0 0.0 
0.0 0.0 0.0 
0.0 0.0 0.0 
0.0 0.0 0.0 
0.0 0.0 0.0 
0.0 0.0 0.0 
0.0 0.0 0.0 
0.0 0.0 0.0 
0.0 0.0 0.0 
0.0 0.0 0.0 
0.0 0.0 0.0 
0.0 0.0 0.0 
0.0 0.0 0.0 
0.0 0.0 0.0 
0.0 0.0 0.0 
0.0 0.0 0.0 
0.0 0.0 0.0 
0.0 0.0 0.0 
0.0 0.0 0.0 
0.0 0.0 0.0 
0.0 0.0 0.0 
0.0 0.0 0.0 
0.0 0.0 0.0 
0.0 0.0 0.0 
0.0 0.0 0.0 
0.0 0.0 0.0 
0.0 0.0 0.0 
0.0 0.0 0.0 
0.0 0.0 0.0 
0.0 0.0 0.0 
0.0 0.0 0.0 
0.0 0.0 0.0 
0.0 0.0 0.0 
0.0 0.0 0.0 
0.0 0.0 0.0 
0.0 0.0 0.0 
0.0 0.0 0.0 
0.0 0.0 0.0 
0.0 0.0 0.0 
0.0 0.0 0.0 
0.0 0.0 0.0 
0.0 0.0 0.0 
0.0 0.0 0.0 
0.0 0.0 0.0 
0.0 0.0 0.0 
0.0 0.0 0.0 
0.0 0.0 0.0 
0.0 0.0 0.0 
0.0 0.0 0.0 
0.0 0.0 0.0 
0.0 0.0 0.0 
0.0 0.0 0.0 
0.0 0.0 0.0 
0.0 0.0 0.0 
0.0 0.0 0.0 
0.0 0.0 0.0 
0.0 0.0 0.0 
0.0 0.0 0.0 
0.0 0.0 0.0 
0.0 0.0 0.0 
0.0 0.0 0.0 
0.0 0.0 0.0 
0.0 0.0 0.0 
0.0 0.0 0.0 
0.0 0.0 0.0 
0.0 0.0 0.0 
0.0 0.0 0.0 
0.0 0.0 0.0 
0.0 0.0 0.0 
0.0 0.0 0.0 
0.0 0.0 0.0 
0.0 0.0 0.0 
0.0 0.0 0.0 
0.0 0.0 0.0 
0.0 0.0 0.0 
0.0 0.0 0.0 
0.0 0.0 0.0 
0.0 0.0 0.0 
0.0 0.0 0.0 
0.0 0.0 0.0 
0.0 0.0 0.0 
0.0 0.0 0.0 
0.0 0.0 0.0 
0.0 0.0 0.0 
0.0 0.0 0.0 
0.0 0.0 0.0 
0.0 0.0 0.0 
0.0 0.0 0.0 
0.0 0.0 0.0 
0.0 0.0 0.0 
0.0 0.0 0.0 
0.0 0.0 0.0 
0.0 0.0 0.0 
0.0 0.0 0.0 
0.0 0.0 0.0 
0.0 0.0 0.0 
0.0 0.0 0.0 
0.0 0.0 0.0 
0.0 0.0 0.0 
0.0 0.0 0.0 
0.0 0.0 0.0 
0.0 0.0 0.0 
0.0 0.0 0.0 
0.0 0.0 0.0 
0.0 0.0 0.0 
0.0 0.0 0.0 
0.0 0.0 0.0 
0.0 0.0 0.0 
0.0 0.0 0.0 
0.0 0.0 0.0 
0.0 0.0 0.0 
0.0 0.0 0.0 
0.0 0.0 0.0 
0.0 0.0 0.0 
0.0 0.0 0.0 
0.0 0.0 0.0 
0.0 0.0 0.0 
0.0 0.0 0.0 
0.0 0.0 0.0 
0.0 0.0 0.0 
0.0 0.0 0.0 
0.0 0.0 0.0 
0.0 0.0 0.0 
0.0 0.0 0.0 
0.0 0.0 0.0 
0.0 0.0 0.0 
0.0 0.0 0.0 
0.0 0.0 0.0 
0.0 0.0 0.0 
0.0 0.0 0.0 
0.0 0.0 0.0 
0.0 0.0 0.0 
0.0 0.0 0.0 
0.0 0.0 0.0 
0.0 0.0 0.0 
0.0 0.0 0.0 
0.0 0.0 0.0 
0.0 0.0 0.0 
0.0 0.0 0.0 
0.0 0.0 0.0 
0.0 0.0 0.0 
0.0 0.0 0.0 
0.0 0.0 0.0 
0.0 0.0 0.0 
0.0 0.0 0.0 
0.0 0.0 0.0 
0.0 0.0 0.0 
0.0 0.0 0.0 
0.0 0.0 0.0 
0.0 0.0 0.0 
0.0 0.0 0.0 
0.0 0.0 0.0 
0.0 0.0 0.0 
0.0 0.0 0.0 
0.0 0.0 0.0 
0.0 0.0 0.0 
0.0 0.0 0.0 
0.0 0.0 0.0 
0.0 0.0 0.0 
0.0 0.0 0.0 
0.0 0.0 0.0 
0.0 0.0 0.0 
0.0 0.0 0.0 
0.0 0.0 0.0 
0.0 0.0 0.0 
0.0 0.0 0.0 
0.0 0.0 0.0 
0.0 0.0 0.0 
0.0 0.0 0.0 
0.0 0.0 0.0 
0.0 0.0 0.0 
0.0 0.0 0.0 
0.0 0.0 0.0 
0.0 0.0 0.0 
0.0 0.0 0.0 
0.0 0.0 0.0 
0.0 0.0 0.0 
0.0 0.0 0.0 
0.0 0.0 0.0 
0.0 0.0 0.0 
0.0 0.0 0.0 
0.0 0.0 0.0 
0.0 0.0 0.0 
0.0 0.0 0.0 
0.0 0.0 0.0 
0.0 0.0 0.0 
0.0 0.0 0.0 
0.0 0.0 0.0 
0.0 0.0 0.0 
0.0 0.0 0.0 
0.0 0.0 0.0 
0.0 0.0 0.0 
0.0 0.0 0.0 
0.0 0.0 0.0 
0.0 0.0 0.0 
0.0 0.0 0.0 
0.0 0.0 0.0 
0.0 0.0 0.0 
0.0 0.0 0.0 
0.0 0.0 0.0 
0.0 0.0 0.0 
0.0 0.0 0.0 
0.0 0.0 0.0 
0.0 0.0 0.0 
0.0 0.0 0.0 
0.0 0.0 0.0 
0.0 0.0 0.0 
0.0 0.0 0.0 
0.0 0.0 0.0 
0.0 0.0 0.0 
0.0 0.0 0.0 
0.0 0.0 0.0 
0.0 0.0 0.0 
0.0 0.0 0.0 
0.0 0.0 0.0 
0.0 0.0 0.0 
0.0 0.0 0.0 
0.0 0.0 0.0 
0.0 0.0 0.0 
0.0 0.0 0.0 
0.0 0.0 0.0 
0.0 0.0 0.0 
0.0 0.0 0.0 
0.0 0.0 0.0 
0.0 0.0 0.0 
0.0 0.0 0.0 
0.0 0.0 0.0 
0.0 0.0 0.0 
0.0 0.0 0.0 
0.0 0.0 0.0 
0.0 0.0 0.0 
0.0 0.0 0.0 
0.0 0.0 0.0 
0.0 0.0 0.0 
0.0 0.0 0.0 
0.0 0.0 0.0 
0.0 0.0 0.0 
0.0 0.0 0.0 
0.0 0.0 0.0 
0.0 0.0 0.0 
0.0 0.0 0.0 
0.0 0.0 0.0 
0.0 0.0 0.0 
0.0 0.0 0.0 
0.0 0.0 0.0 
0.0 0.0 0.0 
0.0 0.0 0.0 
0.0 0.0 0.0 
0.0 0.0 0.0 
0.0 0.0 0.0 
0.0 0.0 0.0 
0.0 0.0 0.0 
0.0 0.0 0.0 
0.0 0.0 0.0 
0.0 0.0 0.0 
0.0 0.0 0.0 
0.0 0.0 0.0 
0.0 0.0 0.0 
0.0 0.0 0.0 
0.0 0.0 0.0 
0.0 0.0 0.0 
0.0 0.0 0.0 
0.0 0.0 0.0 
0.0 0.0 0.0 
0.0 0.0 0.0 
0.0 0.0 0.0 
0.0 0.0 0.0 
0.0 0.0 0.0 
0.0 0.0 0.0 
0.0 0.0 0.0 
0.0 0.0 0.0 
0.0 0.0 0.0 
0.0 0.0 0.0 
0.0 0.0 0.0 
0.0 0.0 0.0 
0.0 0.0 0.0 
0.0 0.0 0.0 
0.0 0.0 0.0 
0.0 0.0 0.0 
0.0 0.0 0.0 
0.0 0.0 0.0 
0.0 0.0 0.0 
0.0 0.0 0.0 
0.0 0.0 0.0 
0.0 0.0 0.0 
0.0 0.0 0.0 
0.0 0.0 0.0 
0.0 0.0 0.0 
0.0 0.0 0.0 
0.0 0.0 0.0 
0.0 0.0 0.0 
0.0 0.0 0.0 
0.0 0.0 0.0 
0.0 0.0 0.0 
0.0 0.0 0.0 
0.0 0.0 0.0 
0.0 0.0 0.0 
0.0 0.0 0.0 
0.0 0.0 0.0 
0.0 0.0 0.0 
0.0 0.0 0.0 
0.0 0.0 0.0 
0.0 0.0 0.0 
0.0 0.0 0.0 
0.0 0.0 0.0 
0.0 0.0 0.0 
0.0 0.0 0.0 
0.0 0.0 0.0 
0.0 0.0 0.0 
0.0 0.0 0.0 
0.0 0.0 0.0 
0.0 0.0 0.0 
0.0 0.0 0.0 
0.0 0.0 0.0 
0.0 0.0 0.0 
0.0 0.0 0.0 
0.0 0.0 0.0 
0.0 0.0 0.0 
0.0 0.0 0.0 
0.0 0.0 0.0 
0.0 0.0 0.0 
0.0 0.0 0.0 
0.0 0.0 0.0 
0.0 0.0 0.0 
0.0 0.0 0.0 
0.0 0.0 0.0 
0.0 0.0 0.0 
0.0 0.0 0.0 
0.0 0.0 0.0 
0.0 0.0 0.0 
0.0 0.0 0.0 
0.0 0.0 0.0 
0.0 0.0 0.0 
0.0 0.0 0.0 
0.0 0.0 0.0 
0.0 0.0 0.0 
0.0 0.0 0.0 
0.0 0.0 0.0 
0.0 0.0 0.0 
0.0 0.0 0.0 
0.0 0.0 0.0 
0.0 0.0 0.0 
0.0 0.0 0.0 
0.0 0.0 0.0 
0.0 0.0 0.0 
0.0 0.0 0.0 
0.0 0.0 0.0 
0.0 0.0 0.0 
0.0 0.0 0.0 
0.0 0.0 0.0 
0.0 0.0 0.0 
0.0 0.0 0.0 
0.0 0.0 0.0 
0.0 0.0 0.0 
0.0 0.0 0.0 
0.0 0.0 0.0 
0.0 0.0 0.0 
0.0 0.0 0.0 
0.0 0.0 0.0 
0.0 0.0 0.0 
0.0 0.0 0.0 
0.0 0.0 0.0 
0.0 0.0 0.0 
0.0 0.0 0.0 
0.0 0.0 0.0 
0.0 0.0 0.0 
0.0 0.0 0.0 
0.0 0.0 0.0 
0.0 0.0 0.0 
0.0 0.0 0.0 
0.0 0.0 0.0 
0.0 0.0 0.0 
0.0 0.0 0.0 
0.0 0.0 0.0 
0.0 0.0 0.0 
0.0 0.0 0.0 
0.0 0.0 0.0 
0.0 0.0 0.0 
0.0 0.0 0.0 
0.0 0.0 0.0 
0.0 0.0 0.0 
0.0 0.0 0.0 
0.0 0.0 0.0 
0.0 0.0 0.0 
0.0 0.0 0.0 
0.0 0.0 0.0 
0.0 0.0 0.0 
0.0 0.0 0.0 
0.0 0.0 0.0 
0.0 0.0 0.0 
0.0 0.0 0.0 
0.0 0.0 0.0 
0.0 0.0 0.0 
0.0 0.0 0.0 
0.0 0.0 0.0 
0.0 0.0 0.0 
0.0 0.0 0.0 
0.0 0.0 0.0 
0.0 0.0 0.0 
0.0 0.0 0.0 
0.0 0.0 0.0 
0.0 0.0 0.0 
0.0 0.0 0.0 
0.0 0.0 0.0 
0.0 0.0 0.0 
0.0 0.0 0.0 
0.0 0.0 0.0 
0.0 0.0 0.0 
0.0 0.0 0.0 
0.0 0.0 0.0 
0.0 0.0 0.0 
0.0 0.0 0.0 
0.0 0.0 0.0 
0.0 0.0 0.0 
0.0 0.0 0.0 
0.0 0.0 0.0 
0.0 0.0 0.0 
0.0 0.0 0.0 
0.0 0.0 0.0 
0.0 0.0 0.0 
0.0 0.0 0.0 
0.0 0.0 0.0 
0.0 0.0 0.0 
0.0 0.0 0.0 
0.0 0.0 0.0 
0.0 0.0 0.0 
0.0 0.0 0.0 
0.0 0.0 0.0 
0.0 0.0 0.0 
0.0 0.0 0.0 
0.0 0.0 0.0 
0.0 0.0 0.0 
0.0 0.0 0.0 
0.0 0.0 0.0 
0.0 0.0 0.0 
0.0 0.0 0.0 
0.0 0.0 0.0 
0.0 0.0 0.0 
0.0 0.0 0.0 
0.0 0.0 0.0 
0.0 0.0 0.0 
0.0 0.0 0.0 
0.0 0.0 0.0 
0.0 0.0 0.0 
0.0 0.0 0.0 
0.0 0.0 0.0 
0.0 0.0 0.0 
0.0 0.0 0.0 
0.0 0.0 0.0 
0.0 0.0 0.0 
0.0 0.0 0.0 
0.0 0.0 0.0 
0.0 0.0 0.0 
0.0 0.0 0.0 
0.0 0.0 0.0 
0.0 0.0 0.0 
0.0 0.0 0.0 
0.0 0.0 0.0 
0.0 0.0 0.0 
0.0 0.0 0.0 
0.0 0.0 0.0 
0.0 0.0 0.0 
0.0 0.0 0.0 
0.0 0.0 0.0 
0.0 0.0 0.0 
0.0 0.0 0.0 
0.0 0.0 0.0 
0.0 0.0 0.0 
0.0 0.0 0.0 
0.0 0.0 0.0 
0.0 0.0 0.0 
0.0 0.0 0.0 
0.0 0.0 0.0 
0.0 0.0 0.0 
0.0 0.0 0.0 
0.0 0.0 0.0 
0.0 0.0 0.0 
0.0 0.0 0.0 
0.0 0.0 0.0 
0.0 0.0 0.0 
0.0 0.0 0.0 
0.0 0.0 0.0 
0.0 0.0 0.0 
0.0 0.0 0.0 
0.0 0.0 0.0 
0.0 0.0 0.0 
0.0 0.0 0.0 
0.0 0.0 0.0 
0.0 0.0 0.0 
0.0 0.0 0.0 
0.0 0.0 0.0 
0.0 0.0 0.0 
0.0 0.0 0.0 
0.0 0.0 0.0 
0.0 0.0 0.0 
0.0 0.0 0.0 
0.0 0.0 0.0 
0.0 0.0 0.0 
0.0 0.0 0.0 
0.0 0.0 0.0 
0.0 0.0 0.0 
0.0 0.0 0.0 
0.0 0.0 0.0 
0.0 0.0 0.0 
0.0 0.0 0.0 
0.0 0.0 0.0 
0.0 0.0 0.0 
0.0 0.0 0.0 
0.0 0.0 0.0 
0.0 0.0 0.0 
0.0 0.0 0.0 
0.0 0.0 0.0 
0.0 0.0 0.0 
0.0 0.0 0.0 
0.0 0.0 0.0 
0.0 0.0 0.0 
0.0 0.0 0.0 
0.0 0.0 0.0 
0.0 0.0 0.0 
0.0 0.0 0.0 
0.0 0.0 0.0 
0.0 0.0 0.0 
0.0 0.0 0.0 
0.0 0.0 0.0 
0.0 0.0 0.0 
0.0 0.0 0.0 
0.0 0.0 0.0 
0.0 0.0 0.0 
0.0 0.0 0.0 
0.0 0.0 0.0 
0.0 0.0 0.0 
0.0 0.0 0.0 
0.0 0.0 0.0 
0.0 0.0 0.0 
0.0 0.0 0.0 
0.0 0.0 0.0 
0.0 0.0 0.0 
0.0 0.0 0.0 
0.0 0.0 0.0 
0.0 0.0 0.0 
0.0 0.0 0.0 
0.0 0.0 0.0 
0.0 0.0 0.0 
0.0 0.0 0.0 
0.0 0.0 0.0 
0.0 0.0 0.0 
0.0 0.0 0.0 
0.0 0.0 0.0 
0.0 0.0 0.0 
0.0 0.0 0.0 
0.0 0.0 0.0 
0.0 0.0 0.0 
0.0 0.0 0.0 
0.0 0.0 0.0 
0.0 0.0 0.0 
0.0 0.0 0.0 
0.0 0.0 0.0 
0.0 0.0 0.0 
0.0 0.0 0.0 
0.0 0.0 0.0 
0.0 0.0 0.0 
0.0 0.0 0.0 
0.0 0.0 0.0 
0.0 0.0 0.0 
0.0 0.0 0.0 
0.0 0.0 0.0 
0.0 0.0 0.0 
0.0 0.0 0.0 
0.0 0.0 0.0 
0.0 0.0 0.0 
0.0 0.0 0.0 
0.0 0.0 0.0 
0.0 0.0 0.0 

VECTORS node_bounda_dof_materi_velocity_y float
0.0 0.0 0.0 
0.0 0.0 0.0 
0.0 1.000000000000e+00 0.0 
0.0 1.000000000000e+00 0.0 
0.0 0.0 0.0 
0.0 0.0 0.0 
0.0 0.0 0.0 
0.0 0.0 0.0 
0.0 0.0 0.0 
0.0 0.0 0.0 
0.0 0.0 0.0 
0.0 0.0 0.0 
0.0 0.0 0.0 
0.0 0.0 0.0 
0.0 0.0 0.0 
0.0 0.0 0.0 
0.0 0.0 0.0 
0.0 0.0 0.0 
0.0 0.0 0.0 
0.0 0.0 0.0 
0.0 0.0 0.0 
0.0 0.0 0.0 
0.0 0.0 0.0 
0.0 1.000000000000e+00 0.0 
0.0 1.000000000000e+00 0.0 
0.0 1.000000000000e+00 0.0 
0.0 1.000000000000e+00 0.0 
0.0 1.000000000000e+00 0.0 
0.0 1.000000000000e+00 0.0 
0.0 1.000000000000e+00 0.0 
0.0 1.000000000000e+00 0.0 
0.0 1.000000000000e+00 0.0 
0.0 1.000000000000e+00 0.0 
0.0 1.000000000000e+00 0.0 
0.0 1.000000000000e+00 0.0 
0.0 1.000000000000e+00 0.0 
0.0 1.000000000000e+00 0.0 
0.0 1.000000000000e+00 0.0 
0.0 1.000000000000e+00 0.0 
0.0 1.000000000000e+00 0.0 
0.0 1.000000000000e+00 0.0 
0.0 1.000000000000e+00 0.0 
0.0 1.000000000000e+00 0.0 
0.0 1.000000000000e+00 0.0 
0.0 1.000000000000e+00 0.0 
0.0 1.000000000000e+00 0.0 
0.0 1.000000000000e+00 0.0 
0.0 1.000000000000e+00 0.0 
0.0 1.000000000000e+00 0.0 
0.0 1.000000000000e+00 0.0 
0.0 1.000000000000e+00 0.0 
0.0 1.000000000000e+00 0.0 
0.0 1.000000000000e+00 0.0 
0.0 1.000000000000e+00 0.0 
0.0 1.000000000000e+00 0.0 
0.0 1.000000000000e+00 0.0 
0.0 1.000000000000e+00 0.0 
0.0 1.000000000000e+00 0.0 
0.0 1.000000000000e+00 0.0 
0.0 1.000000000000e+00 0.0 
0.0 1.000000000000e+00 0.0 
0.0 1.000000000000e+00 0.0 
0.0 1.000000000000e+00 0.0 
0.0 1.000000000000e+00 0.0 
0.0 1.000000000000e+00 0.0 
0.0 1.000000000000e+00 0.0 
0.0 1.000000000000e+00 0.0 
0.0 1.000000000000e+00 0.0 
0.0 1.000000000000e+00 0.0 
0.0 1.000000000000e+00 0.0 
0.0 1.000000000000e+00 0.0 
0.0 1.000000000000e+00 0.0 
0.0 0.0 0.0 
0.0 0.0 0.0 
0.0 0.0 0.0 
0.0 0.0 0.0 
0.0 0.0 0.0 
0.0 0.0 0.0 
0.0 0.0 0.0 
0.0 0.0 0.0 
0.0 0.0 0.0 
0.0 0.0 0.0 
0.0 0.0 0.0 
0.0 0.0 0.0 
0.0 0.0 0.0 
0.0 0.0 0.0 
0.0 0.0 0.0 
0.0 0.0 0.0 
0.0 0.0 0.0 
0.0 0.0 0.0 
0.0 0.0 0.0 
0.0 0.0 0.0 
0.0 0.0 0.0 
0.0 0.0 0.0 
0.0 0.0 0.0 
0.0 0.0 0.0 
0.0 0.0 0.0 
0.0 0.0 0.0 
0.0 0.0 0.0 
0.0 0.0 0.0 
0.0 0.0 0.0 
0.0 0.0 0.0 
0.0 0.0 0.0 
0.0 0.0 0.0 
0.0 0.0 0.0 
0.0 0.0 0.0 
0.0 0.0 0.0 
0.0 0.0 0.0 
0.0 0.0 0.0 
0.0 0.0 0.0 
0.0 0.0 0.0 
0.0 0.0 0.0 
0.0 0.0 0.0 
0.0 0.0 0.0 
0.0 0.0 0.0 
0.0 0.0 0.0 
0.0 0.0 0.0 
0.0 0.0 0.0 
0.0 0.0 0.0 
0.0 0.0 0.0 
0.0 0.0 0.0 
0.0 0.0 0.0 
0.0 0.0 0.0 
0.0 0.0 0.0 
0.0 0.0 0.0 
0.0 0.0 0.0 
0.0 0.0 0.0 
0.0 0.0 0.0 
0.0 0.0 0.0 
0.0 0.0 0.0 
0.0 0.0 0.0 
0.0 0.0 0.0 
0.0 0.0 0.0 
0.0 0.0 0.0 
0.0 0.0 0.0 
0.0 0.0 0.0 
0.0 0.0 0.0 
0.0 0.0 0.0 
0.0 0.0 0.0 
0.0 0.0 0.0 
0.0 0.0 0.0 
0.0 0.0 0.0 
0.0 0.0 0.0 
0.0 0.0 0.0 
0.0 0.0 0.0 
0.0 0.0 0.0 
0.0 0.0 0.0 
0.0 0.0 0.0 
0.0 0.0 0.0 
0.0 0.0 0.0 
0.0 0.0 0.0 
0.0 0.0 0.0 
0.0 0.0 0.0 
0.0 0.0 0.0 
0.0 0.0 0.0 
0.0 0.0 0.0 
0.0 0.0 0.0 
0.0 0.0 0.0 
0.0 0.0 0.0 
0.0 0.0 0.0 
0.0 0.0 0.0 
0.0 0.0 0.0 
0.0 0.0 0.0 
0.0 0.0 0.0 
0.0 0.0 0.0 
0.0 0.0 0.0 
0.0 0.0 0.0 
0.0 0.0 0.0 
0.0 0.0 0.0 
0.0 0.0 0.0 
0.0 0.0 0.0 
0.0 0.0 0.0 
0.0 0.0 0.0 
0.0 0.0 0.0 
0.0 0.0 0.0 
0.0 0.0 0.0 
0.0 0.0 0.0 
0.0 0.0 0.0 
0.0 0.0 0.0 
0.0 0.0 0.0 
0.0 0.0 0.0 
0.0 0.0 0.0 
0.0 0.0 0.0 
0.0 0.0 0.0 
0.0 0.0 0.0 
0.0 0.0 0.0 
0.0 0.0 0.0 
0.0 0.0 0.0 
0.0 0.0 0.0 
0.0 0.0 0.0 
0.0 0.0 0.0 
0.0 0.0 0.0 
0.0 0.0 0.0 
0.0 0.0 0.0 
0.0 0.0 0.0 
0.0 0.0 0.0 
0.0 0.0 0.0 
0.0 0.0 0.0 
0.0 0.0 0.0 
0.0 0.0 0.0 
0.0 0.0 0.0 
0.0 0.0 0.0 
0.0 0.0 0.0 
0.0 0.0 0.0 
0.0 0.0 0.0 
0.0 0.0 0.0 
0.0 0.0 0.0 
0.0 0.0 0.0 
0.0 0.0 0.0 
0.0 0.0 0.0 
0.0 0.0 0.0 
0.0 0.0 0.0 
0.0 0.0 0.0 
0.0 0.0 0.0 
0.0 0.0 0.0 
0.0 0.0 0.0 
0.0 0.0 0.0 
0.0 0.0 0.0 
0.0 0.0 0.0 
0.0 0.0 0.0 
0.0 0.0 0.0 
0.0 0.0 0.0 
0.0 0.0 0.0 
0.0 0.0 0.0 
0.0 0.0 0.0 
0.0 0.0 0.0 
0.0 0.0 0.0 
0.0 0.0 0.0 
0.0 0.0 0.0 
0.0 0.0 0.0 
0.0 0.0 0.0 
0.0 0.0 0.0 
0.0 0.0 0.0 
0.0 0.0 0.0 
0.0 0.0 0.0 
0.0 0.0 0.0 
0.0 0.0 0.0 
0.0 0.0 0.0 
0.0 0.0 0.0 
0.0 0.0 0.0 
0.0 0.0 0.0 
0.0 0.0 0.0 
0.0 0.0 0.0 
0.0 0.0 0.0 
0.0 0.0 0.0 
0.0 0.0 0.0 
0.0 0.0 0.0 
0.0 0.0 0.0 
0.0 0.0 0.0 
0.0 0.0 0.0 
0.0 0.0 0.0 
0.0 0.0 0.0 
0.0 0.0 0.0 
0.0 0.0 0.0 
0.0 0.0 0.0 
0.0 0.0 0.0 
0.0 0.0 0.0 
0.0 0.0 0.0 
0.0 0.0 0.0 
0.0 0.0 0.0 
0.0 0.0 0.0 
0.0 0.0 0.0 
0.0 0.0 0.0 
0.0 0.0 0.0 
0.0 0.0 0.0 
0.0 0.0 0.0 
0.0 0.0 0.0 
0.0 0.0 0.0 
0.0 0.0 0.0 
0.0 0.0 0.0 
0.0 0.0 0.0 
0.0 0.0 0.0 
0.0 0.0 0.0 
0.0 0.0 0.0 
0.0 0.0 0.0 
0.0 0.0 0.0 
0.0 0.0 0.0 
0.0 0.0 0.0 
0.0 0.0 0.0 
0.0 0.0 0.0 
0.0 0.0 0.0 
0.0 0.0 0.0 
0.0 0.0 0.0 
0.0 0.0 0.0 
0.0 0.0 0.0 
0.0 0.0 0.0 
0.0 0.0 0.0 
0.0 0.0 0.0 
0.0 0.0 0.0 
0.0 0.0 0.0 
0.0 0.0 0.0 
0.0 0.0 0.0 
0.0 0.0 0.0 
0.0 0.0 0.0 
0.0 0.0 0.0 
0.0 0.0 0.0 
0.0 0.0 0.0 
0.0 0.0 0.0 
0.0 0.0 0.0 
0.0 0.0 0.0 
0.0 0.0 0.0 
0.0 0.0 0.0 
0.0 0.0 0.0 
0.0 0.0 0.0 
0.0 0.0 0.0 
0.0 0.0 0.0 
0.0 0.0 0.0 
0.0 0.0 0.0 
0.0 0.0 0.0 
0.0 0.0 0.0 
0.0 0.0 0.0 
0.0 0.0 0.0 
0.0 0.0 0.0 
0.0 0.0 0.0 
0.0 0.0 0.0 
0.0 0.0 0.0 
0.0 0.0 0.0 
0.0 0.0 0.0 
0.0 0.0 0.0 
0.0 0.0 0.0 
0.0 0.0 0.0 
0.0 0.0 0.0 
0.0 0.0 0.0 
0.0 0.0 0.0 
0.0 0.0 0.0 
0.0 0.0 0.0 
0.0 0.0 0.0 
0.0 0.0 0.0 
0.0 0.0 0.0 
0.0 0.0 0.0 
0.0 0.0 0.0 
0.0 0.0 0.0 
0.0 0.0 0.0 
0.0 0.0 0.0 
0.0 0.0 0.0 
0.0 0.0 0.0 
0.0 0.0 0.0 
0.0 0.0 0.0 
0.0 0.0 0.0 
0.0 0.0 0.0 
0.0 0.0 0.0 
0.0 0.0 0.0 
0.0 0.0 0.0 
0.0 0.0 0.0 
0.0 0.0 0.0 
0.0 0.0 0.0 
0.0 0.0 0.0 
0.0 0.0 0.0 
0.0 0.0 0.0 
0.0 0.0 0.0 
0.0 0.0 0.0 
0.0 0.0 0.0 
0.0 0.0 0.0 
0.0 0.0 0.0 
0.0 0.0 0.0 
0.0 0.0 0.0 
0.0 0.0 0.0 
0.0 0.0 0.0 
0.0 0.0 0.0 
0.0 0.0 0.0 
0.0 0.0 0.0 
0.0 0.0 0.0 
0.0 0.0 0.0 
0.0 0.0 0.0 
0.0 0.0 0.0 
0.0 0.0 0.0 
0.0 0.0 0.0 
0.0 0.0 0.0 
0.0 0.0 0.0 
0.0 0.0 0.0 
0.0 0.0 0.0 
0.0 0.0 0.0 
0.0 0.0 0.0 
0.0 0.0 0.0 
0.0 0.0 0.0 
0.0 0.0 0.0 
0.0 0.0 0.0 
0.0 0.0 0.0 
0.0 0.0 0.0 
0.0 0.0 0.0 
0.0 0.0 0.0 
0.0 0.0 0.0 
0.0 0.0 0.0 
0.0 0.0 0.0 
0.0 0.0 0.0 
0.0 0.0 0.0 
0.0 0.0 0.0 
0.0 0.0 0.0 
0.0 0.0 0.0 
0.0 0.0 0.0 
0.0 0.0 0.0 
0.0 0.0 0.0 
0.0 0.0 0.0 
0.0 0.0 0.0 
0.0 0.0 0.0 
0.0 0.0 0.0 
0.0 0.0 0.0 
0.0 0.0 0.0 
0.0 0.0 0.0 
0.0 0.0 0.0 
0.0 0.0 0.0 
0.0 0.0 0.0 
0.0 0.0 0.0 
0.0 0.0 0.0 
0.0 0.0 0.0 
0.0 0.0 0.0 
0.0 0.0 0.0 
0.0 0.0 0.0 
0.0 0.0 0.0 
0.0 0.0 0.0 
0.0 0.0 0.0 
0.0 0.0 0.0 
0.0 0.0 0.0 
0.0 0.0 0.0 
0.0 0.0 0.0 
0.0 0.0 0.0 
0.0 0.0 0.0 
0.0 0.0 0.0 
0.0 0.0 0.0 
0.0 0.0 0.0 
0.0 0.0 0.0 
0.0 0.0 0.0 
0.0 0.0 0.0 
0.0 0.0 0.0 
0.0 0.0 0.0 
0.0 0.0 0.0 
0.0 0.0 0.0 
0.0 0.0 0.0 
0.0 0.0 0.0 
0.0 0.0 0.0 
0.0 0.0 0.0 
0.0 0.0 0.0 
0.0 0.0 0.0 
0.0 0.0 0.0 
0.0 0.0 0.0 
0.0 0.0 0.0 
0.0 0.0 0.0 
0.0 0.0 0.0 
0.0 0.0 0.0 
0.0 0.0 0.0 
0.0 0.0 0.0 
0.0 0.0 0.0 
0.0 0.0 0.0 
0.0 0.0 0.0 
0.0 0.0 0.0 
0.0 0.0 0.0 
0.0 0.0 0.0 
0.0 0.0 0.0 
0.0 0.0 0.0 
0.0 0.0 0.0 
0.0 0.0 0.0 
0.0 0.0 0.0 
0.0 0.0 0.0 
0.0 0.0 0.0 
0.0 0.0 0.0 
0.0 0.0 0.0 
0.0 0.0 0.0 
0.0 0.0 0.0 
0.0 0.0 0.0 
0.0 0.0 0.0 
0.0 0.0 0.0 
0.0 0.0 0.0 
0.0 0.0 0.0 
0.0 0.0 0.0 
0.0 0.0 0.0 
0.0 0.0 0.0 
0.0 0.0 0.0 
0.0 0.0 0.0 
0.0 0.0 0.0 
0.0 0.0 0.0 
0.0 0.0 0.0 
0.0 0.0 0.0 
0.0 0.0 0.0 
0.0 0.0 0.0 
0.0 0.0 0.0 
0.0 0.0 0.0 
0.0 0.0 0.0 
0.0 0.0 0.0 
0.0 0.0 0.0 
0.0 0.0 0.0 
0.0 0.0 0.0 
0.0 0.0 0.0 
0.0 0.0 0.0 
0.0 0.0 0.0 
0.0 0.0 0.0 
0.0 0.0 0.0 
0.0 0.0 0.0 
0.0 0.0 0.0 
0.0 0.0 0.0 
0.0 0.0 0.0 
0.0 0.0 0.0 
0.0 0.0 0.0 
0.0 0.0 0.0 
0.0 0.0 0.0 
0.0 0.0 0.0 
0.0 0.0 0.0 
0.0 0.0 0.0 
0.0 0.0 0.0 
0.0 0.0 0.0 
0.0 0.0 0.0 
0.0 0.0 0.0 
0.0 0.0 0.0 
0.0 0.0 0.0 
0.0 0.0 0.0 
0.0 0.0 0.0 
0.0 0.0 0.0 
0.0 0.0 0.0 
0.0 0.0 0.0 
0.0 0.0 0.0 
0.0 0.0 0.0 
0.0 0.0 0.0 
0.0 0.0 0.0 
0.0 0.0 0.0 
0.0 0.0 0.0 
0.0 0.0 0.0 
0.0 0.0 0.0 
0.0 0.0 0.0 
0.0 0.0 0.0 
0.0 0.0 0.0 
0.0 0.0 0.0 
0.0 0.0 0.0 
0.0 0.0 0.0 
0.0 0.0 0.0 
0.0 0.0 0.0 
0.0 0.0 0.0 
0.0 0.0 0.0 
0.0 0.0 0.0 
0.0 0.0 0.0 
0.0 0.0 0.0 
0.0 0.0 0.0 
0.0 0.0 0.0 
0.0 0.0 0.0 
0.0 0.0 0.0 
0.0 0.0 0.0 
0.0 0.0 0.0 
0.0 0.0 0.0 
0.0 0.0 0.0 
0.0 0.0 0.0 
0.0 0.0 0.0 
0.0 0.0 0.0 
0.0 0.0 0.0 
0.0 0.0 0.0 
0.0 0.0 0.0 
0.0 0.0 0.0 
0.0 0.0 0.0 
0.0 0.0 0.0 
0.0 0.0 0.0 
0.0 0.0 0.0 
0.0 0.0 0.0 
0.0 0.0 0.0 
0.0 0.0 0.0 
0.0 0.0 0.0 
0.0 0.0 0.0 
0.0 0.0 0.0 
0.0 0.0 0.0 
0.0 0.0 0.0 
0.0 0.0 0.0 
0.0 0.0 0.0 
0.0 0.0 0.0 
0.0 0.0 0.0 
0.0 0.0 0.0 
0.0 0.0 0.0 
0.0 0.0 0.0 
0.0 0.0 0.0 
0.0 0.0 0.0 
0.0 0.0 0.0 
0.0 0.0 0.0 
0.0 0.0 0.0 
0.0 0.0 0.0 
0.0 0.0 0.0 
0.0 0.0 0.0 
0.0 0.0 0.0 
0.0 0.0 0.0 
0.0 0.0 0.0 
0.0 0.0 0.0 
0.0 0.0 0.0 
0.0 0.0 0.0 
0.0 0.0 0.0 
0.0 0.0 0.0 
0.0 0.0 0.0 
0.0 0.0 0.0 
0.0 0.0 0.0 
0.0 0.0 0.0 
0.0 0.0 0.0 
0.0 0.0 0.0 
0.0 0.0 0.0 
0.0 0.0 0.0 
0.0 0.0 0.0 
0.0 0.0 0.0 
0.0 0.0 0.0 
0.0 0.0 0.0 
0.0 0.0 0.0 
0.0 0.0 0.0 
0.0 0.0 0.0 
0.0 0.0 0.0 
0.0 0.0 0.0 
0.0 0.0 0.0 
0.0 0.0 0.0 
0.0 0.0 0.0 
0.0 0.0 0.0 
0.0 0.0 0.0 
0.0 0.0 0.0 
0.0 0.0 0.0 
0.0 0.0 0.0 
0.0 0.0 0.0 
0.0 0.0 0.0 
0.0 0.0 0.0 
0.0 0.0 0.0 
0.0 0.0 0.0 
0.0 0.0 0.0 
0.0 0.0 0.0 
0.0 0.0 0.0 
0.0 0.0 0.0 
0.0 0.0 0.0 
0.0 0.0 0.0 
0.0 0.0 0.0 
0.0 0.0 0.0 
0.0 0.0 0.0 
0.0 0.0 0.0 
0.0 0.0 0.0 
0.0 0.0 0.0 
0.0 0.0 0.0 
0.0 0.0 0.0 
0.0 0.0 0.0 
0.0 0.0 0.0 
0.0 0.0 0.0 
0.0 0.0 0.0 
0.0 0.0 0.0 
0.0 0.0 0.0 
0.0 0.0 0.0 
0.0 0.0 0.0 
0.0 0.0 0.0 
0.0 0.0 0.0 
0.0 0.0 0.0 
0.0 0.0 0.0 
0.0 0.0 0.0 
0.0 0.0 0.0 
0.0 0.0 0.0 
0.0 0.0 0.0 
0.0 0.0 0.0 
0.0 0.0 0.0 
0.0 0.0 0.0 
0.0 0.0 0.0 
0.0 0.0 0.0 
0.0 0.0 0.0 
0.0 0.0 0.0 
0.0 0.0 0.0 
0.0 0.0 0.0 
0.0 0.0 0.0 
0.0 0.0 0.0 
0.0 0.0 0.0 
0.0 0.0 0.0 
0.0 0.0 0.0 
0.0 0.0 0.0 
0.0 0.0 0.0 
0.0 0.0 0.0 
0.0 0.0 0.0 
0.0 0.0 0.0 
0.0 0.0 0.0 
0.0 0.0 0.0 
0.0 0.0 0.0 
0.0 0.0 0.0 
0.0 0.0 0.0 
0.0 0.0 0.0 
0.0 0.0 0.0 
0.0 0.0 0.0 
0.0 0.0 0.0 
0.0 0.0 0.0 
0.0 0.0 0.0 
0.0 0.0 0.0 
0.0 0.0 0.0 
0.0 0.0 0.0 
0.0 0.0 0.0 
0.0 0.0 0.0 
0.0 0.0 0.0 
0.0 0.0 0.0 
0.0 0.0 0.0 
0.0 0.0 0.0 
0.0 0.0 0.0 
0.0 0.0 0.0 
0.0 0.0 0.0 
0.0 0.0 0.0 
0.0 0.0 0.0 
0.0 0.0 0.0 
0.0 0.0 0.0 
0.0 0.0 0.0 
0.0 0.0 0.0 
0.0 0.0 0.0 
0.0 0.0 0.0 
0.0 0.0 0.0 
0.0 0.0 0.0 
0.0 0.0 0.0 
0.0 0.0 0.0 
0.0 0.0 0.0 
0.0 0.0 0.0 
0.0 0.0 0.0 
0.0 0.0 0.0 
0.0 0.0 0.0 
0.0 0.0 0.0 
0.0 0.0 0.0 
0.0 0.0 0.0 
0.0 0.0 0.0 
0.0 0.0 0.0 
0.0 0.0 0.0 
0.0 0.0 0.0 
0.0 0.0 0.0 
0.0 0.0 0.0 
0.0 0.0 0.0 
0.0 0.0 0.0 
0.0 0.0 0.0 
0.0 0.0 0.0 
0.0 0.0 0.0 
0.0 0.0 0.0 
0.0 0.0 0.0 
0.0 0.0 0.0 
0.0 0.0 0.0 
0.0 0.0 0.0 
0.0 0.0 0.0 
0.0 0.0 0.0 
0.0 0.0 0.0 
0.0 0.0 0.0 
0.0 0.0 0.0 
0.0 0.0 0.0 
0.0 0.0 0.0 
0.0 0.0 0.0 
0.0 0.0 0.0 
0.0 0.0 0.0 
0.0 0.0 0.0 
0.0 0.0 0.0 
0.0 0.0 0.0 
0.0 0.0 0.0 
0.0 0.0 0.0 
0.0 0.0 0.0 
0.0 0.0 0.0 
0.0 0.0 0.0 
0.0 0.0 0.0 
0.0 0.0 0.0 
0.0 0.0 0.0 
0.0 0.0 0.0 
0.0 0.0 0.0 
0.0 0.0 0.0 
0.0 0.0 0.0 
0.0 0.0 0.0 
0.0 0.0 0.0 
0.0 0.0 0.0 
0.0 0.0 0.0 
0.0 0.0 0.0 
0.0 0.0 0.0 
0.0 0.0 0.0 
0.0 0.0 0.0 
0.0 0.0 0.0 
0.0 0.0 0.0 
0.0 0.0 0.0 
0.0 0.0 0.0 
0.0 0.0 0.0 
0.0 0.0 0.0 
0.0 0.0 0.0 
0.0 0.0 0.0 
0.0 0.0 0.0 
0.0 0.0 0.0 
0.0 0.0 0.0 
0.0 0.0 0.0 
0.0 0.0 0.0 
0.0 0.0 0.0 
0.0 0.0 0.0 
0.0 0.0 0.0 
0.0 0.0 0.0 
0.0 0.0 0.0 
0.0 0.0 0.0 
0.0 0.0 0.0 
0.0 0.0 0.0 
0.0 0.0 0.0 
0.0 0.0 0.0 
0.0 0.0 0.0 
0.0 0.0 0.0 
0.0 0.0 0.0 
0.0 0.0 0.0 
0.0 0.0 0.0 
0.0 0.0 0.0 
0.0 0.0 0.0 
0.0 0.0 0.0 
0.0 0.0 0.0 
0.0 0.0 0.0 
0.0 0.0 0.0 
0.0 0.0 0.0 
0.0 0.0 0.0 
0.0 0.0 0.0 
0.0 0.0 0.0 
0.0 0.0 0.0 
0.0 0.0 0.0 
0.0 0.0 0.0 
0.0 0.0 0.0 
0.0 0.0 0.0 
0.0 0.0 0.0 
0.0 0.0 0.0 
0.0 0.0 0.0 
0.0 0.0 0.0 
0.0 0.0 0.0 
0.0 0.0 0.0 
0.0 0.0 0.0 
0.0 0.0 0.0 
0.0 0.0 0.0 
0.0 0.0 0.0 
0.0 0.0 0.0 
0.0 0.0 0.0 
0.0 0.0 0.0 
0.0 0.0 0.0 
0.0 0.0 0.0 
0.0 0.0 0.0 
0.0 0.0 0.0 
0.0 0.0 0.0 
0.0 0.0 0.0 
0.0 0.0 0.0 
0.0 0.0 0.0 
0.0 0.0 0.0 
0.0 0.0 0.0 
0.0 0.0 0.0 
0.0 0.0 0.0 
0.0 0.0 0.0 
0.0 0.0 0.0 
0.0 0.0 0.0 
0.0 0.0 0.0 
0.0 0.0 0.0 
0.0 0.0 0.0 
0.0 0.0 0.0 
0.0 0.0 0.0 
0.0 0.0 0.0 
0.0 0.0 0.0 
0.0 0.0 0.0 
0.0 0.0 0.0 
0.0 0.0 0.0 
0.0 0.0 0.0 
0.0 0.0 0.0 
0.0 0.0 0.0 
0.0 0.0 0.0 
0.0 0.0 0.0 
0.0 0.0 0.0 
0.0 0.0 0.0 
0.0 0.0 0.0 
0.0 0.0 0.0 
0.0 0.0 0.0 
0.0 0.0 0.0 
0.0 0.0 0.0 
0.0 0.0 0.0 
0.0 0.0 0.0 
0.0 0.0 0.0 
0.0 0.0 0.0 
0.0 0.0 0.0 
0.0 0.0 0.0 
0.0 0.0 0.0 
0.0 0.0 0.0 
0.0 0.0 0.0 
0.0 0.0 0.0 
0.0 0.0 0.0 
0.0 0.0 0.0 
0.0 0.0 0.0 
0.0 0.0 0.0 
0.0 0.0 0.0 
0.0 0.0 0.0 
0.0 0.0 0.0 
0.0 0.0 0.0 
0.0 0.0 0.0 
0.0 0.0 0.0 
0.0 0.0 0.0 
0.0 0.0 0.0 
0.0 0.0 0.0 
0.0 0.0 0.0 
0.0 0.0 0.0 
0.0 0.0 0.0 
0.0 0.0 0.0 
0.0 0.0 0.0 
0.0 0.0 0.0 
0.0 0.0 0.0 
0.0 0.0 0.0 
0.0 0.0 0.0 
0.0 0.0 0.0 
0.0 0.0 0.0 
0.0 0.0 0.0 
0.0 0.0 0.0 
0.0 0.0 0.0 
0.0 0.0 0.0 
0.0 0.0 0.0 
0.0 0.0 0.0 
0.0 0.0 0.0 
0.0 0.0 0.0 
0.0 0.0 0.0 
0.0 0.0 0.0 
0.0 0.0 0.0 
0.0 0.0 0.0 
0.0 0.0 0.0 
0.0 0.0 0.0 
0.0 0.0 0.0 
0.0 0.0 0.0 
0.0 0.0 0.0 
0.0 0.0 0.0 
0.0 0.0 0.0 
0.0 0.0 0.0 
0.0 0.0 0.0 
0.0 0.0 0.0 
0.0 0.0 0.0 
0.0 0.0 0.0 
0.0 0.0 0.0 
0.0 0.0 0.0 
0.0 0.0 0.0 
0.0 0.0 0.0 
0.0 0.0 0.0 
0.0 0.0 0.0 
0.0 0.0 0.0 
0.0 0.0 0.0 
0.0 0.0 0.0 
0.0 0.0 0.0 
0.0 0.0 0.0 
0.0 0.0 0.0 
0.0 0.0 0.0 
0.0 0.0 0.0 
0.0 0.0 0.0 
0.0 0.0 0.0 
0.0 0.0 0.0 
0.0 0.0 0.0 
0.0 0.0 0.0 
0.0 0.0 0.0 
0.0 0.0 0.0 
0.0 0.0 0.0 
0.0 0.0 0.0 
0.0 0.0 0.0 
0.0 0.0 0.0 
0.0 0.0 0.0 
0.0 0.0 0.0 
0.0 0.0 0.0 
0.0 0.0 0.0 
0.0 0.0 0.0 
0.0 0.0 0.0 
0.0 0.0 0.0 
0.0 0.0 0.0 
0.0 0.0 0.0 
0.0 0.0 0.0 
0.0 0.0 0.0 
0.0 0.0 0.0 
0.0 0.0 0.0 
0.0 0.0 0.0 
0.0 0.0 0.0 
0.0 0.0 0.0 
0.0 0.0 0.0 
0.0 0.0 0.0 
0.0 0.0 0.0 
0.0 0.0 0.0 
0.0 0.0 0.0 
0.0 0.0 0.0 
0.0 0.0 0.0 
0.0 0.0 0.0 
0.0 0.0 0.0 
0.0 0.0 0.0 
0.0 0.0 0.0 
0.0 0.0 0.0 
0.0 0.0 0.0 
0.0 0.0 0.0 
0.0 0.0 0.0 
0.0 0.0 0.0 
0.0 0.0 0.0 
0.0 0.0 0.0 
0.0 0.0 0.0 
0.0 0.0 0.0 
0.0 0.0 0.0 
0.0 0.0 0.0 
0.0 0.0 0.0 
0.0 0.0 0.0 
0.0 0.0 0.0 
0.0 0.0 0.0 
0.0 0.0 0.0 
0.0 0.0 0.0 
0.0 0.0 0.0 
0.0 0.0 0.0 
0.0 0.0 0.0 
0.0 0.0 0.0 
0.0 0.0 0.0 
0.0 0.0 0.0 
0.0 0.0 0.0 
0.0 0.0 0.0 
0.0 0.0 0.0 
0.0 0.0 0.0 
0.0 0.0 0.0 
0.0 0.0 0.0 
0.0 0.0 0.0 
0.0 0.0 0.0 
0.0 0.0 0.0 
0.0 0.0 0.0 
0.0 0.0 0.0 
0.0 0.0 0.0 
0.0 0.0 0.0 
0.0 0.0 0.0 
0.0 0.0 0.0 
0.0 0.0 0.0 
0.0 0.0 0.0 
0.0 0.0 0.0 
0.0 0.0 0.0 
0.0 0.0 0.0 
0.0 0.0 0.0 
0.0 0.0 0.0 
0.0 0.0 0.0 
0.0 0.0 0.0 
0.0 0.0 0.0 
0.0 0.0 0.0 
0.0 0.0 0.0 
0.0 0.0 0.0 
0.0 0.0 0.0 
0.0 0.0 0.0 
0.0 0.0 0.0 
0.0 0.0 0.0 
0.0 0.0 0.0 
0.0 0.0 0.0 
0.0 0.0 0.0 
0.0 0.0 0.0 
0.0 0.0 0.0 
0.0 0.0 0.0 
0.0 0.0 0.0 
0.0 0.0 0.0 
0.0 0.0 0.0 
0.0 0.0 0.0 
0.0 0.0 0.0 
0.0 0.0 0.0 
0.0 0.0 0.0 
0.0 0.0 0.0 
0.0 0.0 0.0 
0.0 0.0 0.0 
0.0 0.0 0.0 
0.0 0.0 0.0 
0.0 0.0 0.0 
0.0 0.0 0.0 
0.0 0.0 0.0 
0.0 0.0 0.0 
0.0 0.0 0.0 
0.0 0.0 0.0 
0.0 0.0 0.0 
0.0 0.0 0.0 
0.0 0.0 0.0 
0.0 0.0 0.0 
0.0 0.0 0.0 
0.0 0.0 0.0 
0.0 0.0 0.0 
0.0 0.0 0.0 
0.0 0.0 0.0 
0.0 0.0 0.0 
0.0 0.0 0.0 
0.0 0.0 0.0 
0.0 0.0 0.0 
0.0 0.0 0.0 
0.0 0.0 0.0 
0.0 0.0 0.0 
0.0 0.0 0.0 
0.0 0.0 0.0 
0.0 0.0 0.0 
0.0 0.0 0.0 
0.0 0.0 0.0 
0.0 0.0 0.0 
0.0 0.0 0.0 
0.0 0.0 0.0 
0.0 0.0 0.0 
0.0 0.0 0.0 
0.0 0.0 0.0 
0.0 0.0 0.0 
0.0 0.0 0.0 
0.0 0.0 0.0 
0.0 0.0 0.0 
0.0 0.0 0.0 
0.0 0.0 0.0 
0.0 0.0 0.0 
0.0 0.0 0.0 
0.0 0.0 0.0 
0.0 0.0 0.0 
0.0 0.0 0.0 
0.0 0.0 0.0 
0.0 0.0 0.0 
0.0 0.0 0.0 
0.0 0.0 0.0 
0.0 0.0 0.0 
0.0 0.0 0.0 
0.0 0.0 0.0 
0.0 0.0 0.0 
0.0 0.0 0.0 
0.0 0.0 0.0 
0.0 0.0 0.0 
0.0 0.0 0.0 
0.0 0.0 0.0 
0.0 0.0 0.0 
0.0 0.0 0.0 
0.0 0.0 0.0 
0.0 0.0 0.0 
0.0 0.0 0.0 
0.0 0.0 0.0 
0.0 0.0 0.0 
0.0 0.0 0.0 
0.0 0.0 0.0 
0.0 0.0 0.0 
0.0 0.0 0.0 
0.0 0.0 0.0 
0.0 0.0 0.0 
0.0 0.0 0.0 
0.0 0.0 0.0 
0.0 0.0 0.0 
0.0 0.0 0.0 
0.0 0.0 0.0 
0.0 0.0 0.0 
0.0 0.0 0.0 
0.0 0.0 0.0 
0.0 0.0 0.0 
0.0 0.0 0.0 
0.0 0.0 0.0 
0.0 0.0 0.0 
0.0 0.0 0.0 
0.0 0.0 0.0 
0.0 0.0 0.0 
0.0 0.0 0.0 
0.0 0.0 0.0 
0.0 0.0 0.0 
0.0 0.0 0.0 
0.0 0.0 0.0 
0.0 0.0 0.0 
0.0 0.0 0.0 
0.0 0.0 0.0 
0.0 0.0 0.0 
0.0 0.0 0.0 
0.0 0.0 0.0 
0.0 0.0 0.0 
0.0 0.0 0.0 
0.0 0.0 0.0 
0.0 0.0 0.0 
0.0 0.0 0.0 
0.0 0.0 0.0 
0.0 0.0 0.0 
0.0 0.0 0.0 
0.0 0.0 0.0 
0.0 0.0 0.0 
0.0 0.0 0.0 
0.0 0.0 0.0 
0.0 0.0 0.0 
0.0 0.0 0.0 
0.0 0.0 0.0 
0.0 0.0 0.0 
0.0 0.0 0.0 
0.0 0.0 0.0 
0.0 0.0 0.0 
0.0 0.0 0.0 
0.0 0.0 0.0 
0.0 0.0 0.0 
0.0 0.0 0.0 
0.0 0.0 0.0 
0.0 0.0 0.0 
0.0 0.0 0.0 
0.0 0.0 0.0 
0.0 0.0 0.0 
0.0 0.0 0.0 
0.0 0.0 0.0 
0.0 0.0 0.0 
0.0 0.0 0.0 
0.0 0.0 0.0 
0.0 0.0 0.0 
0.0 0.0 0.0 
0.0 0.0 0.0 
0.0 0.0 0.0 
0.0 0.0 0.0 
0.0 0.0 0.0 
0.0 0.0 0.0 
0.0 0.0 0.0 
0.0 0.0 0.0 
0.0 0.0 0.0 
0.0 0.0 0.0 
0.0 0.0 0.0 
0.0 0.0 0.0 
0.0 0.0 0.0 
0.0 0.0 0.0 
0.0 0.0 0.0 
0.0 0.0 0.0 
0.0 0.0 0.0 
0.0 0.0 0.0 
0.0 0.0 0.0 
0.0 0.0 0.0 
0.0 0.0 0.0 
0.0 0.0 0.0 
0.0 0.0 0.0 
0.0 0.0 0.0 
0.0 0.0 0.0 
0.0 0.0 0.0 
0.0 0.0 0.0 
0.0 0.0 0.0 
0.0 0.0 0.0 
0.0 0.0 0.0 
0.0 0.0 0.0 
0.0 0.0 0.0 
0.0 0.0 0.0 
0.0 0.0 0.0 
0.0 0.0 0.0 

SCALARS node_boundary float
LOOKUP_TABLE default
1.000000000000e+00 
1.000000000000e+00 
1.000000000000e+00 
1.000000000000e+00 
1.000000000000e+00 
1.000000000000e+00 
1.000000000000e+00 
1.000000000000e+00 
1.000000000000e+00 
1.000000000000e+00 
1.000000000000e+00 
1.000000000000e+00 
1.000000000000e+00 
1.000000000000e+00 
1.000000000000e+00 
1.000000000000e+00 
1.000000000000e+00 
1.000000000000e+00 
1.000000000000e+00 
1.000000000000e+00 
1.000000000000e+00 
1.000000000000e+00 
1.000000000000e+00 
1.000000000000e+00 
1.000000000000e+00 
1.000000000000e+00 
1.000000000000e+00 
1.000000000000e+00 
1.000000000000e+00 
1.000000000000e+00 
1.000000000000e+00 
1.000000000000e+00 
1.000000000000e+00 
1.000000000000e+00 
1.000000000000e+00 
1.000000000000e+00 
1.000000000000e+00 
1.000000000000e+00 
1.000000000000e+00 
1.000000000000e+00 
1.000000000000e+00 
1.000000000000e+00 
1.000000000000e+00 
1.000000000000e+00 
1.000000000000e+00 
1.000000000000e+00 
1.000000000000e+00 
1.000000000000e+00 
1.000000000000e+00 
1.000000000000e+00 
1.000000000000e+00 
1.000000000000e+00 
1.000000000000e+00 
1.000000000000e+00 
1.000000000000e+00 
1.000000000000e+00 
1.000000000000e+00 
1.000000000000e+00 
1.000000000000e+00 
1.000000000000e+00 
1.000000000000e+00 
1.000000000000e+00 
1.000000000000e+00 
1.000000000000e+00 
1.000000000000e+00 
1.000000000000e+00 
1.000000000000e+00 
1.000000000000e+00 
1.000000000000e+00 
1.000000000000e+00 
1.000000000000e+00 
1.000000000000e+00 
1.000000000000e+00 
1.000000000000e+00 
1.000000000000e+00 
1.000000000000e+00 
1.000000000000e+00 
1.000000000000e+00 
1.000000000000e+00 
1.000000000000e+00 
1.000000000000e+00 
1.000000000000e+00 
0.0
1.000000000000e+00 
1.000000000000e+00 
1.000000000000e+00 
0.0
0.0
0.0
0.0
0.0
0.0
1.000000000000e+00 
1.000000000000e+00 
1.000000000000e+00 
1.000000000000e+00 
1.000000000000e+00 
1.000000000000e+00 
1.000000000000e+00 
0.0
0.0
0.0
0.0
0.0
0.0
0.0
0.0
0.0
0.0
0.0
0.0
0.0
0.0
1.000000000000e+00 
1.000000000000e+00 
1.000000000000e+00 
1.000000000000e+00 
1.000000000000e+00 
1.000000000000e+00 
1.000000000000e+00 
1.000000000000e+00 
1.000000000000e+00 
1.000000000000e+00 
1.000000000000e+00 
1.000000000000e+00 
1.000000000000e+00 
1.000000000000e+00 
1.000000000000e+00 
1.000000000000e+00 
1.000000000000e+00 
1.000000000000e+00 
1.000000000000e+00 
1.000000000000e+00 
1.000000000000e+00 
1.000000000000e+00 
1.000000000000e+00 
1.000000000000e+00 
1.000000000000e+00 
1.000000000000e+00 
1.000000000000e+00 
1.000000000000e+00 
1.000000000000e+00 
1.000000000000e+00 
1.000000000000e+00 
1.000000000000e+00 
1.000000000000e+00 
1.000000000000e+00 
1.000000000000e+00 
1.000000000000e+00 
1.000000000000e+00 
1.000000000000e+00 
1.000000000000e+00 
1.000000000000e+00 
1.000000000000e+00 
1.000000000000e+00 
1.000000000000e+00 
1.000000000000e+00 
0.0
0.0
0.0
0.0
0.0
0.0
0.0
0.0
0.0
0.0
0.0
0.0
0.0
0.0
0.0
0.0
0.0
0.0
0.0
0.0
0.0
0.0
0.0
0.0
0.0
0.0
0.0
0.0
0.0
0.0
0.0
0.0
0.0
0.0
0.0
0.0
0.0
0.0
0.0
0.0
0.0
0.0
0.0
0.0
0.0
0.0
0.0
0.0
0.0
0.0
0.0
0.0
0.0
0.0
0.0
0.0
0.0
0.0
0.0
0.0
0.0
0.0
0.0
0.0
0.0
0.0
0.0
0.0
0.0
0.0
0.0
0.0
0.0
0.0
0.0
0.0
0.0
0.0
0.0
0.0
0.0
0.0
0.0
0.0
0.0
0.0
0.0
0.0
0.0
0.0
0.0
0.0
0.0
0.0
0.0
0.0
0.0
0.0
0.0
0.0
0.0
0.0
0.0
0.0
0.0
0.0
0.0
0.0
0.0
0.0
0.0
0.0
0.0
0.0
0.0
0.0
0.0
1.000000000000e+00 
1.000000000000e+00 
1.000000000000e+00 
0.0
0.0
0.0
0.0
0.0
0.0
0.0
0.0
0.0
0.0
0.0
0.0
0.0
0.0
0.0
0.0
0.0
0.0
0.0
0.0
0.0
0.0
0.0
0.0
0.0
0.0
0.0
0.0
0.0
0.0
0.0
0.0
0.0
0.0
0.0
0.0
0.0
0.0
0.0
0.0
0.0
0.0
0.0
0.0
0.0
0.0
0.0
0.0
0.0
0.0
0.0
0.0
0.0
0.0
0.0
0.0
0.0
0.0
0.0
0.0
0.0
0.0
0.0
0.0
0.0
0.0
0.0
0.0
0.0
0.0
0.0
0.0
0.0
0.0
0.0
0.0
0.0
0.0
0.0
0.0
0.0
0.0
0.0
0.0
0.0
0.0
0.0
0.0
0.0
0.0
0.0
0.0
0.0
0.0
0.0
0.0
0.0
0.0
0.0
0.0
0.0
0.0
0.0
0.0
0.0
0.0
0.0
0.0
0.0
0.0
0.0
0.0
0.0
0.0
0.0
0.0
0.0
0.0
0.0
0.0
0.0
0.0
0.0
0.0
0.0
0.0
0.0
0.0
0.0
0.0
0.0
0.0
0.0
0.0
0.0
0.0
0.0
0.0
0.0
0.0
0.0
0.0
0.0
0.0
0.0
0.0
0.0
0.0
0.0
0.0
0.0
0.0
0.0
0.0
0.0
0.0
0.0
0.0
0.0
0.0
0.0
0.0
0.0
0.0
0.0
0.0
0.0
0.0
0.0
0.0
0.0
0.0
0.0
0.0
0.0
0.0
0.0
0.0
0.0
0.0
0.0
0.0
0.0
0.0
0.0
0.0
0.0
0.0
0.0
0.0
0.0
0.0
0.0
0.0
0.0
0.0
0.0
0.0
0.0
0.0
0.0
0.0
0.0
0.0
0.0
0.0
0.0
0.0
0.0
0.0
0.0
0.0
0.0
0.0
0.0
0.0
0.0
0.0
0.0
0.0
0.0
0.0
0.0
0.0
0.0
0.0
0.0
0.0
0.0
0.0
0.0
0.0
0.0
0.0
0.0
0.0
0.0
0.0
0.0
0.0
0.0
0.0
0.0
0.0
0.0
0.0
0.0
0.0
0.0
0.0
0.0
0.0
0.0
0.0
0.0
0.0
0.0
0.0
0.0
0.0
0.0
0.0
0.0
0.0
0.0
0.0
0.0
0.0
0.0
0.0
0.0
0.0
0.0
0.0
0.0
0.0
0.0
0.0
0.0
0.0
0.0
0.0
0.0
0.0
0.0
0.0
0.0
0.0
0.0
0.0
0.0
0.0
0.0
0.0
0.0
0.0
0.0
0.0
0.0
0.0
0.0
0.0
0.0
0.0
0.0
0.0
0.0
0.0
0.0
0.0
0.0
0.0
0.0
0.0
0.0
0.0
0.0
0.0
0.0
0.0
0.0
0.0
0.0
0.0
0.0
0.0
0.0
0.0
0.0
0.0
0.0
0.0
0.0
0.0
0.0
0.0
0.0
0.0
0.0
0.0
0.0
0.0
0.0
0.0
0.0
0.0
0.0
0.0
0.0
0.0
0.0
0.0
0.0
0.0
0.0
0.0
0.0
0.0
0.0
0.0
0.0
0.0
0.0
0.0
0.0
0.0
0.0
0.0
0.0
0.0
0.0
0.0
0.0
0.0
0.0
0.0
0.0
0.0
0.0
0.0
0.0
0.0
0.0
0.0
0.0
0.0
0.0
0.0
0.0
0.0
0.0
0.0
0.0
0.0
0.0
0.0
0.0
0.0
0.0
0.0
0.0
0.0
0.0
0.0
0.0
0.0
0.0
0.0
0.0
0.0
0.0
0.0
0.0
0.0
0.0
0.0
0.0
0.0
0.0
0.0
0.0
0.0
0.0
0.0
0.0
0.0
0.0
0.0
0.0
0.0
0.0
0.0
0.0
0.0
0.0
0.0
0.0
0.0
0.0
0.0
0.0
0.0
0.0
0.0
0.0
0.0
0.0
0.0
0.0
0.0
0.0
0.0
0.0
0.0
0.0
0.0
0.0
0.0
0.0
0.0
0.0
0.0
0.0
0.0
0.0
0.0
0.0
0.0
0.0
0.0
0.0
0.0
0.0
0.0
0.0
0.0
0.0
0.0
0.0
0.0
0.0
0.0
0.0
0.0
0.0
0.0
0.0
0.0
0.0
0.0
0.0
0.0
0.0
0.0
0.0
0.0
0.0
0.0
0.0
0.0
0.0
0.0
0.0
0.0
0.0
0.0
0.0
0.0
0.0
0.0
0.0
0.0
0.0
0.0
0.0
0.0
0.0
0.0
0.0
0.0
0.0
0.0
0.0
0.0
0.0
0.0
0.0
0.0
0.0
0.0
0.0
0.0
0.0
0.0
0.0
0.0
0.0
0.0
0.0
0.0
0.0
0.0
0.0
0.0
0.0
0.0
0.0
0.0
0.0
0.0
0.0
0.0
0.0
0.0
0.0
0.0
0.0
0.0
0.0
0.0
0.0
0.0
0.0
0.0
0.0
0.0
0.0
0.0
0.0
0.0
0.0
0.0
0.0
0.0
0.0
0.0
0.0
0.0
0.0
0.0
0.0
0.0
0.0
0.0
0.0
0.0
0.0
0.0
0.0
0.0
0.0
0.0
0.0
0.0
0.0
0.0
0.0
0.0
0.0
0.0
0.0
0.0
0.0
0.0
0.0
0.0
0.0
0.0
0.0
0.0
0.0
0.0
0.0
0.0
0.0
0.0
0.0
0.0
0.0
0.0
0.0
0.0
0.0
0.0
0.0
0.0
0.0
0.0
0.0
0.0
0.0
0.0
0.0
0.0
0.0
0.0
0.0
0.0
0.0
0.0
0.0
0.0
0.0
0.0
0.0
0.0
0.0
0.0
0.0
0.0
0.0
0.0
0.0
0.0
0.0
0.0
0.0
0.0
0.0
0.0
0.0
0.0
0.0
0.0
0.0
0.0
0.0
0.0
0.0
0.0
0.0
0.0
0.0
0.0
0.0
0.0
0.0
0.0
0.0
0.0
0.0
0.0
0.0
0.0
0.0
0.0
0.0
0.0
0.0
0.0
0.0
0.0
0.0
0.0
0.0
0.0
0.0
0.0
0.0
0.0
0.0
0.0
0.0
0.0
0.0
0.0
0.0
0.0
0.0
0.0
0.0
0.0
0.0
0.0
0.0
0.0
0.0
0.0
0.0
0.0
0.0
0.0
0.0
0.0
0.0
0.0
0.0
0.0
0.0
0.0
0.0
0.0
0.0
0.0
0.0
0.0
0.0
0.0
0.0
0.0
0.0
0.0
0.0
0.0
0.0
0.0
0.0
0.0
0.0
0.0
0.0
0.0
0.0
0.0
0.0
0.0
0.0
0.0
0.0
0.0
0.0
0.0
0.0
0.0
0.0
0.0
0.0
0.0
0.0
0.0
0.0
0.0
0.0
0.0
0.0
0.0
0.0
0.0
0.0
0.0
0.0
0.0
0.0
0.0
0.0
0.0
0.0
0.0
0.0
0.0
0.0
0.0
0.0
0.0
0.0
0.0
0.0
0.0
0.0
0.0
0.0
0.0
0.0
0.0
0.0
0.0
0.0
0.0
0.0
0.0
0.0
0.0
0.0
0.0
0.0
0.0
0.0
0.0
0.0
0.0
0.0
0.0
0.0
0.0
0.0
0.0
0.0
0.0
0.0
0.0
0.0
0.0
0.0
0.0
0.0
0.0
0.0
0.0
0.0
0.0
0.0
0.0
0.0
0.0
0.0
0.0
0.0
0.0
0.0
0.0
0.0
0.0
0.0
0.0
0.0
0.0
0.0
0.0
0.0
0.0
0.0
0.0
0.0
0.0
0.0
0.0
0.0
0.0
0.0
0.0
0.0
0.0
0.0
0.0
0.0
0.0
0.0
0.0
0.0
0.0
0.0
0.0
0.0
0.0
0.0
0.0
0.0
0.0
0.0
0.0
0.0
0.0
0.0
0.0
0.0
0.0
0.0
0.0
0.0
0.0
0.0
0.0
0.0
0.0
0.0
0.0
0.0
0.0
0.0
0.0
0.0
0.0
0.0
0.0

VECTORS node_force_gravity float
0.0 -1.962000000000e+01 0.0 
0.0 -1.962000000000e+01 0.0 
0.0 -1.962000000000e+01 0.0 
0.0 -1.962000000000e+01 0.0 
0.0 -1.962000000000e+01 0.0 
0.0 -1.962000000000e+01 0.0 
0.0 -1.962000000000e+01 0.0 
0.0 -1.962000000000e+01 0.0 
0.0 -1.962000000000e+01 0.0 
0.0 -1.962000000000e+01 0.0 
0.0 -1.962000000000e+01 0.0 
0.0 -1.962000000000e+01 0.0 
0.0 -1.962000000000e+01 0.0 
0.0 -1.962000000000e+01 0.0 
0.0 -1.962000000000e+01 0.0 
0.0 -1.962000000000e+01 0.0 
0.0 -1.962000000000e+01 0.0 
0.0 -1.962000000000e+01 0.0 
0.0 -1.962000000000e+01 0.0 
0.0 -1.962000000000e+01 0.0 
0.0 -1.962000000000e+01 0.0 
0.0 -1.962000000000e+01 0.0 
0.0 -1.962000000000e+01 0.0 
0.0 -1.962000000000e+01 0.0 
0.0 -1.962000000000e+01 0.0 
0.0 -1.962000000000e+01 0.0 
0.0 -1.962000000000e+01 0.0 
0.0 -1.962000000000e+01 0.0 
0.0 -1.962000000000e+01 0.0 
0.0 -1.962000000000e+01 0.0 
0.0 -1.962000000000e+01 0.0 
0.0 -1.962000000000e+01 0.0 
0.0 -1.962000000000e+01 0.0 
0.0 -1.962000000000e+01 0.0 
0.0 -1.962000000000e+01 0.0 
0.0 -1.962000000000e+01 0.0 
0.0 -1.962000000000e+01 0.0 
0.0 -1.962000000000e+01 0.0 
0.0 -1.962000000000e+01 0.0 
0.0 -1.962000000000e+01 0.0 
0.0 -1.962000000000e+01 0.0 
0.0 -1.962000000000e+01 0.0 
0.0 -1.962000000000e+01 0.0 
0.0 -1.962000000000e+01 0.0 
0.0 -1.962000000000e+01 0.0 
0.0 -1.962000000000e+01 0.0 
0.0 -1.962000000000e+01 0.0 
0.0 -1.962000000000e+01 0.0 
0.0 -1.962000000000e+01 0.0 
0.0 -1.962000000000e+01 0.0 
0.0 -1.962000000000e+01 0.0 
0.0 -1.962000000000e+01 0.0 
0.0 -1.962000000000e+01 0.0 
0.0 -1.962000000000e+01 0.0 
0.0 -1.962000000000e+01 0.0 
0.0 -1.962000000000e+01 0.0 
0.0 -1.962000000000e+01 0.0 
0.0 -1.962000000000e+01 0.0 
0.0 -1.962000000000e+01 0.0 
0.0 -1.962000000000e+01 0.0 
0.0 -1.962000000000e+01 0.0 
0.0 -1.962000000000e+01 0.0 
0.0 -1.962000000000e+01 0.0 
0.0 -1.962000000000e+01 0.0 
0.0 -1.962000000000e+01 0.0 
0.0 -1.962000000000e+01 0.0 
0.0 -1.962000000000e+01 0.0 
0.0 -1.962000000000e+01 0.0 
0.0 -1.962000000000e+01 0.0 
0.0 -1.962000000000e+01 0.0 
0.0 -1.962000000000e+01 0.0 
0.0 -1.962000000000e+01 0.0 
0.0 -1.962000000000e+01 0.0 
0.0 -1.962000000000e+01 0.0 
0.0 -1.962000000000e+01 0.0 
0.0 -1.962000000000e+01 0.0 
0.0 -1.962000000000e+01 0.0 
0.0 -1.962000000000e+01 0.0 
0.0 -1.962000000000e+01 0.0 
0.0 -1.962000000000e+01 0.0 
0.0 -1.962000000000e+01 0.0 
0.0 -1.962000000000e+01 0.0 
0.0 -1.962000000000e+01 0.0 
0.0 -1.962000000000e+01 0.0 
0.0 -1.962000000000e+01 0.0 
0.0 -1.962000000000e+01 0.0 
0.0 -1.962000000000e+01 0.0 
0.0 -1.962000000000e+01 0.0 
0.0 -1.962000000000e+01 0.0 
0.0 -1.962000000000e+01 0.0 
0.0 -1.962000000000e+01 0.0 
0.0 -1.962000000000e+01 0.0 
0.0 -1.962000000000e+01 0.0 
0.0 -1.962000000000e+01 0.0 
0.0 -1.962000000000e+01 0.0 
0.0 -1.962000000000e+01 0.0 
0.0 -1.962000000000e+01 0.0 
0.0 -1.962000000000e+01 0.0 
0.0 -1.962000000000e+01 0.0 
0.0 -1.962000000000e+01 0.0 
0.0 -1.962000000000e+01 0.0 
0.0 -1.962000000000e+01 0.0 
0.0 -1.962000000000e+01 0.0 
0.0 -1.962000000000e+01 0.0 
0.0 -1.962000000000e+01 0.0 
0.0 -1.962000000000e+01 0.0 
0.0 -1.962000000000e+01 0.0 
0.0 -1.962000000000e+01 0.0 
0.0 -1.962000000000e+01 0.0 
0.0 -1.962000000000e+01 0.0 
0.0 -1.962000000000e+01 0.0 
0.0 -1.962000000000e+01 0.0 
0.0 -1.962000000000e+01 0.0 
0.0 -1.962000000000e+01 0.0 
0.0 -1.962000000000e+01 0.0 
0.0 -1.962000000000e+01 0.0 
0.0 -1.962000000000e+01 0.0 
0.0 -1.962000000000e+01 0.0 
0.0 -1.962000000000e+01 0.0 
0.0 -1.962000000000e+01 0.0 
0.0 -1.962000000000e+01 0.0 
0.0 -1.962000000000e+01 0.0 
0.0 -1.962000000000e+01 0.0 
0.0 -1.962000000000e+01 0.0 
0.0 -1.962000000000e+01 0.0 
0.0 -1.962000000000e+01 0.0 
0.0 -1.962000000000e+01 0.0 
0.0 -1.962000000000e+01 0.0 
0.0 -1.962000000000e+01 0.0 
0.0 -1.962000000000e+01 0.0 
0.0 -1.962000000000e+01 0.0 
0.0 -1.962000000000e+01 0.0 
0.0 -1.962000000000e+01 0.0 
0.0 -1.962000000000e+01 0.0 
0.0 -1.962000000000e+01 0.0 
0.0 -1.962000000000e+01 0.0 
0.0 -1.962000000000e+01 0.0 
0.0 -1.962000000000e+01 0.0 
0.0 -1.962000000000e+01 0.0 
0.0 -1.962000000000e+01 0.0 
0.0 -1.962000000000e+01 0.0 
0.0 -1.962000000000e+01 0.0 
0.0 -1.962000000000e+01 0.0 
0.0 -1.962000000000e+01 0.0 
0.0 -1.962000000000e+01 0.0 
0.0 -1.962000000000e+01 0.0 
0.0 -1.962000000000e+01 0.0 
0.0 -1.962000000000e+01 0.0 
0.0 -1.962000000000e+01 0.0 
0.0 -1.962000000000e+01 0.0 
0.0 -1.962000000000e+01 0.0 
0.0 -1.962000000000e+01 0.0 
0.0 -1.962000000000e+01 0.0 
0.0 -1.962000000000e+01 0.0 
0.0 -1.962000000000e+01 0.0 
0.0 -1.962000000000e+01 0.0 
0.0 -1.962000000000e+01 0.0 
0.0 -1.962000000000e+01 0.0 
0.0 -1.962000000000e+01 0.0 
0.0 -1.962000000000e+01 0.0 
0.0 -1.962000000000e+01 0.0 
0.0 -1.962000000000e+01 0.0 
0.0 -1.962000000000e+01 0.0 
0.0 -1.962000000000e+01 0.0 
0.0 -1.962000000000e+01 0.0 
0.0 -1.962000000000e+01 0.0 
0.0 -1.962000000000e+01 0.0 
0.0 -1.962000000000e+01 0.0 
0.0 -1.962000000000e+01 0.0 
0.0 -1.962000000000e+01 0.0 
0.0 -1.962000000000e+01 0.0 
0.0 -1.962000000000e+01 0.0 
0.0 -1.962000000000e+01 0.0 
0.0 -1.962000000000e+01 0.0 
0.0 -1.962000000000e+01 0.0 
0.0 -1.962000000000e+01 0.0 
0.0 -1.962000000000e+01 0.0 
0.0 -1.962000000000e+01 0.0 
0.0 -1.962000000000e+01 0.0 
0.0 -1.962000000000e+01 0.0 
0.0 -1.962000000000e+01 0.0 
0.0 -1.962000000000e+01 0.0 
0.0 -1.962000000000e+01 0.0 
0.0 -1.962000000000e+01 0.0 
0.0 -1.962000000000e+01 0.0 
0.0 -1.962000000000e+01 0.0 
0.0 -1.962000000000e+01 0.0 
0.0 -1.962000000000e+01 0.0 
0.0 -1.962000000000e+01 0.0 
0.0 -1.962000000000e+01 0.0 
0.0 -1.962000000000e+01 0.0 
0.0 -1.962000000000e+01 0.0 
0.0 -1.962000000000e+01 0.0 
0.0 -1.962000000000e+01 0.0 
0.0 -1.962000000000e+01 0.0 
0.0 -1.962000000000e+01 0.0 
0.0 -1.962000000000e+01 0.0 
0.0 -1.962000000000e+01 0.0 
0.0 -1.962000000000e+01 0.0 
0.0 -1.962000000000e+01 0.0 
0.0 -1.962000000000e+01 0.0 
0.0 -1.962000000000e+01 0.0 
0.0 -1.962000000000e+01 0.0 
0.0 -1.962000000000e+01 0.0 
0.0 -1.962000000000e+01 0.0 
0.0 -1.962000000000e+01 0.0 
0.0 -1.962000000000e+01 0.0 
0.0 -1.962000000000e+01 0.0 
0.0 -1.962000000000e+01 0.0 
0.0 -1.962000000000e+01 0.0 
0.0 -1.962000000000e+01 0.0 
0.0 -1.962000000000e+01 0.0 
0.0 -1.962000000000e+01 0.0 
0.0 -1.962000000000e+01 0.0 
0.0 -1.962000000000e+01 0.0 
0.0 -1.962000000000e+01 0.0 
0.0 -1.962000000000e+01 0.0 
0.0 -1.962000000000e+01 0.0 
0.0 -1.962000000000e+01 0.0 
0.0 -1.962000000000e+01 0.0 
0.0 -1.962000000000e+01 0.0 
0.0 -1.962000000000e+01 0.0 
0.0 -1.962000000000e+01 0.0 
0.0 -1.962000000000e+01 0.0 
0.0 -1.962000000000e+01 0.0 
0.0 -1.962000000000e+01 0.0 
0.0 -1.962000000000e+01 0.0 
0.0 -1.962000000000e+01 0.0 
0.0 -1.962000000000e+01 0.0 
0.0 -1.962000000000e+01 0.0 
0.0 -1.962000000000e+01 0.0 
0.0 -1.962000000000e+01 0.0 
0.0 -1.962000000000e+01 0.0 
0.0 -1.962000000000e+01 0.0 
0.0 -1.962000000000e+01 0.0 
0.0 -1.962000000000e+01 0.0 
0.0 -1.962000000000e+01 0.0 
0.0 -1.962000000000e+01 0.0 
0.0 -1.962000000000e+01 0.0 
0.0 -1.962000000000e+01 0.0 
0.0 -1.962000000000e+01 0.0 
0.0 -1.962000000000e+01 0.0 
0.0 -1.962000000000e+01 0.0 
0.0 -1.962000000000e+01 0.0 
0.0 -1.962000000000e+01 0.0 
0.0 -1.962000000000e+01 0.0 
0.0 -1.962000000000e+01 0.0 
0.0 -1.962000000000e+01 0.0 
0.0 -1.962000000000e+01 0.0 
0.0 -1.962000000000e+01 0.0 
0.0 -1.962000000000e+01 0.0 
0.0 -1.962000000000e+01 0.0 
0.0 -1.962000000000e+01 0.0 
0.0 -1.962000000000e+01 0.0 
0.0 -1.962000000000e+01 0.0 
0.0 -1.962000000000e+01 0.0 
0.0 -1.962000000000e+01 0.0 
0.0 -1.962000000000e+01 0.0 
0.0 -1.962000000000e+01 0.0 
0.0 -1.962000000000e+01 0.0 
0.0 -1.962000000000e+01 0.0 
0.0 -1.962000000000e+01 0.0 
0.0 -1.962000000000e+01 0.0 
0.0 -1.962000000000e+01 0.0 
0.0 -1.962000000000e+01 0.0 
0.0 -1.962000000000e+01 0.0 
0.0 -1.962000000000e+01 0.0 
0.0 -1.962000000000e+01 0.0 
0.0 -1.962000000000e+01 0.0 
0.0 -1.962000000000e+01 0.0 
0.0 -1.962000000000e+01 0.0 
0.0 -1.962000000000e+01 0.0 
0.0 -1.962000000000e+01 0.0 
0.0 -1.962000000000e+01 0.0 
0.0 -1.962000000000e+01 0.0 
0.0 -1.962000000000e+01 0.0 
0.0 -1.962000000000e+01 0.0 
0.0 -1.962000000000e+01 0.0 
0.0 -1.962000000000e+01 0.0 
0.0 -1.962000000000e+01 0.0 
0.0 -1.962000000000e+01 0.0 
0.0 -1.962000000000e+01 0.0 
0.0 -1.962000000000e+01 0.0 
0.0 -1.962000000000e+01 0.0 
0.0 -1.962000000000e+01 0.0 
0.0 -1.962000000000e+01 0.0 
0.0 -1.962000000000e+01 0.0 
0.0 -1.962000000000e+01 0.0 
0.0 -1.962000000000e+01 0.0 
0.0 -1.962000000000e+01 0.0 
0.0 -1.962000000000e+01 0.0 
0.0 -1.962000000000e+01 0.0 
0.0 -1.962000000000e+01 0.0 
0.0 -1.962000000000e+01 0.0 
0.0 -1.962000000000e+01 0.0 
0.0 -1.962000000000e+01 0.0 
0.0 -1.962000000000e+01 0.0 
0.0 -1.962000000000e+01 0.0 
0.0 -1.962000000000e+01 0.0 
0.0 -1.962000000000e+01 0.0 
0.0 -1.962000000000e+01 0.0 
0.0 -1.962000000000e+01 0.0 
0.0 -1.962000000000e+01 0.0 
0.0 -1.962000000000e+01 0.0 
0.0 -1.962000000000e+01 0.0 
0.0 -1.962000000000e+01 0.0 
0.0 -1.962000000000e+01 0.0 
0.0 -1.962000000000e+01 0.0 
0.0 -1.962000000000e+01 0.0 
0.0 -1.962000000000e+01 0.0 
0.0 -1.962000000000e+01 0.0 
0.0 -1.962000000000e+01 0.0 
0.0 -1.962000000000e+01 0.0 
0.0 -1.962000000000e+01 0.0 
0.0 -1.962000000000e+01 0.0 
0.0 -1.962000000000e+01 0.0 
0.0 -1.962000000000e+01 0.0 
0.0 -1.962000000000e+01 0.0 
0.0 -1.962000000000e+01 0.0 
0.0 -1.962000000000e+01 0.0 
0.0 -1.962000000000e+01 0.0 
0.0 -1.962000000000e+01 0.0 
0.0 -1.962000000000e+01 0.0 
0.0 -1.962000000000e+01 0.0 
0.0 -1.962000000000e+01 0.0 
0.0 -1.962000000000e+01 0.0 
0.0 -1.962000000000e+01 0.0 
0.0 -1.962000000000e+01 0.0 
0.0 -1.962000000000e+01 0.0 
0.0 -1.962000000000e+01 0.0 
0.0 -1.962000000000e+01 0.0 
0.0 -1.962000000000e+01 0.0 
0.0 -1.962000000000e+01 0.0 
0.0 -1.962000000000e+01 0.0 
0.0 -1.962000000000e+01 0.0 
0.0 -1.962000000000e+01 0.0 
0.0 -1.962000000000e+01 0.0 
0.0 -1.962000000000e+01 0.0 
0.0 -1.962000000000e+01 0.0 
0.0 -1.962000000000e+01 0.0 
0.0 -1.962000000000e+01 0.0 
0.0 -1.962000000000e+01 0.0 
0.0 -1.962000000000e+01 0.0 
0.0 -1.962000000000e+01 0.0 
0.0 -1.962000000000e+01 0.0 
0.0 -1.962000000000e+01 0.0 
0.0 -1.962000000000e+01 0.0 
0.0 -1.962000000000e+01 0.0 
0.0 -1.962000000000e+01 0.0 
0.0 -1.962000000000e+01 0.0 
0.0 -1.962000000000e+01 0.0 
0.0 -1.962000000000e+01 0.0 
0.0 -1.962000000000e+01 0.0 
0.0 -1.962000000000e+01 0.0 
0.0 -1.962000000000e+01 0.0 
0.0 -1.962000000000e+01 0.0 
0.0 -1.962000000000e+01 0.0 
0.0 -1.962000000000e+01 0.0 
0.0 -1.962000000000e+01 0.0 
0.0 -1.962000000000e+01 0.0 
0.0 -1.962000000000e+01 0.0 
0.0 -1.962000000000e+01 0.0 
0.0 -1.962000000000e+01 0.0 
0.0 -1.962000000000e+01 0.0 
0.0 -1.962000000000e+01 0.0 
0.0 -1.962000000000e+01 0.0 
0.0 -1.962000000000e+01 0.0 
0.0 -1.962000000000e+01 0.0 
0.0 -1.962000000000e+01 0.0 
0.0 -1.962000000000e+01 0.0 
0.0 -1.962000000000e+01 0.0 
0.0 -1.962000000000e+01 0.0 
0.0 -1.962000000000e+01 0.0 
0.0 -1.962000000000e+01 0.0 
0.0 -1.962000000000e+01 0.0 
0.0 -1.962000000000e+01 0.0 
0.0 -1.962000000000e+01 0.0 
0.0 -1.962000000000e+01 0.0 
0.0 -1.962000000000e+01 0.0 
0.0 -1.962000000000e+01 0.0 
0.0 -1.962000000000e+01 0.0 
0.0 -1.962000000000e+01 0.0 
0.0 -1.962000000000e+01 0.0 
0.0 -1.962000000000e+01 0.0 
0.0 -1.962000000000e+01 0.0 
0.0 -1.962000000000e+01 0.0 
0.0 -1.962000000000e+01 0.0 
0.0 -1.962000000000e+01 0.0 
0.0 -1.962000000000e+01 0.0 
0.0 -1.962000000000e+01 0.0 
0.0 -1.962000000000e+01 0.0 
0.0 -1.962000000000e+01 0.0 
0.0 -1.962000000000e+01 0.0 
0.0 -1.962000000000e+01 0.0 
0.0 -1.962000000000e+01 0.0 
0.0 -1.962000000000e+01 0.0 
0.0 -1.962000000000e+01 0.0 
0.0 -1.962000000000e+01 0.0 
0.0 -1.962000000000e+01 0.0 
0.0 -1.962000000000e+01 0.0 
0.0 -1.962000000000e+01 0.0 
0.0 -1.962000000000e+01 0.0 
0.0 -1.962000000000e+01 0.0 
0.0 -1.962000000000e+01 0.0 
0.0 -1.962000000000e+01 0.0 
0.0 -1.962000000000e+01 0.0 
0.0 -1.962000000000e+01 0.0 
0.0 -1.962000000000e+01 0.0 
0.0 -1.962000000000e+01 0.0 
0.0 -1.962000000000e+01 0.0 
0.0 -1.962000000000e+01 0.0 
0.0 -1.962000000000e+01 0.0 
0.0 -1.962000000000e+01 0.0 
0.0 -1.962000000000e+01 0.0 
0.0 -1.962000000000e+01 0.0 
0.0 -1.962000000000e+01 0.0 
0.0 -1.962000000000e+01 0.0 
0.0 -1.962000000000e+01 0.0 
0.0 -1.962000000000e+01 0.0 
0.0 -1.962000000000e+01 0.0 
0.0 -1.962000000000e+01 0.0 
0.0 -1.962000000000e+01 0.0 
0.0 -1.962000000000e+01 0.0 
0.0 -1.962000000000e+01 0.0 
0.0 -1.962000000000e+01 0.0 
0.0 -1.962000000000e+01 0.0 
0.0 -1.962000000000e+01 0.0 
0.0 -1.962000000000e+01 0.0 
0.0 -1.962000000000e+01 0.0 
0.0 -1.962000000000e+01 0.0 
0.0 -1.962000000000e+01 0.0 
0.0 -1.962000000000e+01 0.0 
0.0 -1.962000000000e+01 0.0 
0.0 -1.962000000000e+01 0.0 
0.0 -1.962000000000e+01 0.0 
0.0 -1.962000000000e+01 0.0 
0.0 -1.962000000000e+01 0.0 
0.0 -1.962000000000e+01 0.0 
0.0 -1.962000000000e+01 0.0 
0.0 -1.962000000000e+01 0.0 
0.0 -1.962000000000e+01 0.0 
0.0 -1.962000000000e+01 0.0 
0.0 -1.962000000000e+01 0.0 
0.0 -1.962000000000e+01 0.0 
0.0 -1.962000000000e+01 0.0 
0.0 -1.962000000000e+01 0.0 
0.0 -1.962000000000e+01 0.0 
0.0 -1.962000000000e+01 0.0 
0.0 -1.962000000000e+01 0.0 
0.0 -1.962000000000e+01 0.0 
0.0 -1.962000000000e+01 0.0 
0.0 -1.962000000000e+01 0.0 
0.0 -1.962000000000e+01 0.0 
0.0 -1.962000000000e+01 0.0 
0.0 -1.962000000000e+01 0.0 
0.0 -1.962000000000e+01 0.0 
0.0 -1.962000000000e+01 0.0 
0.0 -1.962000000000e+01 0.0 
0.0 -1.962000000000e+01 0.0 
0.0 -1.962000000000e+01 0.0 
0.0 -1.962000000000e+01 0.0 
0.0 -1.962000000000e+01 0.0 
0.0 -1.962000000000e+01 0.0 
0.0 -1.962000000000e+01 0.0 
0.0 -1.962000000000e+01 0.0 
0.0 -1.962000000000e+01 0.0 
0.0 -1.962000000000e+01 0.0 
0.0 -1.962000000000e+01 0.0 
0.0 -1.962000000000e+01 0.0 
0.0 -1.962000000000e+01 0.0 
0.0 -1.962000000000e+01 0.0 
0.0 -1.962000000000e+01 0.0 
0.0 -1.962000000000e+01 0.0 
0.0 -1.962000000000e+01 0.0 
0.0 -1.962000000000e+01 0.0 
0.0 -1.962000000000e+01 0.0 
0.0 -1.962000000000e+01 0.0 
0.0 -1.962000000000e+01 0.0 
0.0 -1.962000000000e+01 0.0 
0.0 -1.962000000000e+01 0.0 
0.0 -1.962000000000e+01 0.0 
0.0 -1.962000000000e+01 0.0 
0.0 -1.962000000000e+01 0.0 
0.0 -1.962000000000e+01 0.0 
0.0 -1.962000000000e+01 0.0 
0.0 -1.962000000000e+01 0.0 
0.0 -1.962000000000e+01 0.0 
0.0 -1.962000000000e+01 0.0 
0.0 -1.962000000000e+01 0.0 
0.0 -1.962000000000e+01 0.0 
0.0 -1.962000000000e+01 0.0 
0.0 -1.962000000000e+01 0.0 
0.0 -1.962000000000e+01 0.0 
0.0 -1.962000000000e+01 0.0 
0.0 -1.962000000000e+01 0.0 
0.0 -1.962000000000e+01 0.0 
0.0 -1.962000000000e+01 0.0 
0.0 -1.962000000000e+01 0.0 
0.0 -1.962000000000e+01 0.0 
0.0 -1.962000000000e+01 0.0 
0.0 -1.962000000000e+01 0.0 
0.0 -1.962000000000e+01 0.0 
0.0 -1.962000000000e+01 0.0 
0.0 -1.962000000000e+01 0.0 
0.0 -1.962000000000e+01 0.0 
0.0 -1.962000000000e+01 0.0 
0.0 -1.962000000000e+01 0.0 
0.0 -1.962000000000e+01 0.0 
0.0 -1.962000000000e+01 0.0 
0.0 -1.962000000000e+01 0.0 
0.0 -1.962000000000e+01 0.0 
0.0 -1.962000000000e+01 0.0 
0.0 -1.962000000000e+01 0.0 
0.0 -1.962000000000e+01 0.0 
0.0 -1.962000000000e+01 0.0 
0.0 -1.962000000000e+01 0.0 
0.0 -1.962000000000e+01 0.0 
0.0 -1.962000000000e+01 0.0 
0.0 -1.962000000000e+01 0.0 
0.0 -1.962000000000e+01 0.0 
0.0 -1.962000000000e+01 0.0 
0.0 -1.962000000000e+01 0.0 
0.0 -1.962000000000e+01 0.0 
0.0 -1.962000000000e+01 0.0 
0.0 -1.962000000000e+01 0.0 
0.0 -1.962000000000e+01 0.0 
0.0 -1.962000000000e+01 0.0 
0.0 -1.962000000000e+01 0.0 
0.0 -1.962000000000e+01 0.0 
0.0 -1.962000000000e+01 0.0 
0.0 -1.962000000000e+01 0.0 
0.0 -1.962000000000e+01 0.0 
0.0 -1.962000000000e+01 0.0 
0.0 -1.962000000000e+01 0.0 
0.0 -1.962000000000e+01 0.0 
0.0 -1.962000000000e+01 0.0 
0.0 -1.962000000000e+01 0.0 
0.0 -1.962000000000e+01 0.0 
0.0 -1.962000000000e+01 0.0 
0.0 -1.962000000000e+01 0.0 
0.0 -1.962000000000e+01 0.0 
0.0 -1.962000000000e+01 0.0 
0.0 -1.962000000000e+01 0.0 
0.0 -1.962000000000e+01 0.0 
0.0 -1.962000000000e+01 0.0 
0.0 -1.962000000000e+01 0.0 
0.0 -1.962000000000e+01 0.0 
0.0 -1.962000000000e+01 0.0 
0.0 -1.962000000000e+01 0.0 
0.0 -1.962000000000e+01 0.0 
0.0 -1.962000000000e+01 0.0 
0.0 -1.962000000000e+01 0.0 
0.0 -1.962000000000e+01 0.0 
0.0 -1.962000000000e+01 0.0 
0.0 -1.962000000000e+01 0.0 
0.0 -1.962000000000e+01 0.0 
0.0 -1.962000000000e+01 0.0 
0.0 -1.962000000000e+01 0.0 
0.0 -1.962000000000e+01 0.0 
0.0 -1.962000000000e+01 0.0 
0.0 -1.962000000000e+01 0.0 
0.0 -1.962000000000e+01 0.0 
0.0 -1.962000000000e+01 0.0 
0.0 -1.962000000000e+01 0.0 
0.0 -1.962000000000e+01 0.0 
0.0 -1.962000000000e+01 0.0 
0.0 -1.962000000000e+01 0.0 
0.0 -1.962000000000e+01 0.0 
0.0 -1.962000000000e+01 0.0 
0.0 -1.962000000000e+01 0.0 
0.0 -1.962000000000e+01 0.0 
0.0 -1.962000000000e+01 0.0 
0.0 -1.962000000000e+01 0.0 
0.0 -1.962000000000e+01 0.0 
0.0 -1.962000000000e+01 0.0 
0.0 -1.962000000000e+01 0.0 
0.0 -1.962000000000e+01 0.0 
0.0 -1.962000000000e+01 0.0 
0.0 -1.962000000000e+01 0.0 
0.0 -1.962000000000e+01 0.0 
0.0 -1.962000000000e+01 0.0 
0.0 -1.962000000000e+01 0.0 
0.0 -1.962000000000e+01 0.0 
0.0 -1.962000000000e+01 0.0 
0.0 -1.962000000000e+01 0.0 
0.0 -1.962000000000e+01 0.0 
0.0 -1.962000000000e+01 0.0 
0.0 -1.962000000000e+01 0.0 
0.0 -1.962000000000e+01 0.0 
0.0 -1.962000000000e+01 0.0 
0.0 -1.962000000000e+01 0.0 
0.0 -1.962000000000e+01 0.0 
0.0 -1.962000000000e+01 0.0 
0.0 -1.962000000000e+01 0.0 
0.0 -1.962000000000e+01 0.0 
0.0 -1.962000000000e+01 0.0 
0.0 -1.962000000000e+01 0.0 
0.0 -1.962000000000e+01 0.0 
0.0 -1.962000000000e+01 0.0 
0.0 -1.962000000000e+01 0.0 
0.0 -1.962000000000e+01 0.0 
0.0 -1.962000000000e+01 0.0 
0.0 -1.962000000000e+01 0.0 
0.0 -1.962000000000e+01 0.0 
0.0 -1.962000000000e+01 0.0 
0.0 -1.962000000000e+01 0.0 
0.0 -1.962000000000e+01 0.0 
0.0 -1.962000000000e+01 0.0 
0.0 -1.962000000000e+01 0.0 
0.0 -1.962000000000e+01 0.0 
0.0 -1.962000000000e+01 0.0 
0.0 -1.962000000000e+01 0.0 
0.0 -1.962000000000e+01 0.0 
0.0 -1.962000000000e+01 0.0 
0.0 -1.962000000000e+01 0.0 
0.0 -1.962000000000e+01 0.0 
0.0 -1.962000000000e+01 0.0 
0.0 -1.962000000000e+01 0.0 
0.0 -1.962000000000e+01 0.0 
0.0 -1.962000000000e+01 0.0 
0.0 -1.962000000000e+01 0.0 
0.0 -1.962000000000e+01 0.0 
0.0 -1.962000000000e+01 0.0 
0.0 -1.962000000000e+01 0.0 
0.0 -1.962000000000e+01 0.0 
0.0 -1.962000000000e+01 0.0 
0.0 -1.962000000000e+01 0.0 
0.0 -1.962000000000e+01 0.0 
0.0 -1.962000000000e+01 0.0 
0.0 -1.962000000000e+01 0.0 
0.0 -1.962000000000e+01 0.0 
0.0 -1.962000000000e+01 0.0 
0.0 -1.962000000000e+01 0.0 
0.0 -1.962000000000e+01 0.0 
0.0 -1.962000000000e+01 0.0 
0.0 -1.962000000000e+01 0.0 
0.0 -1.962000000000e+01 0.0 
0.0 -1.962000000000e+01 0.0 
0.0 -1.962000000000e+01 0.0 
0.0 -1.962000000000e+01 0.0 
0.0 -1.962000000000e+01 0.0 
0.0 -1.962000000000e+01 0.0 
0.0 -1.962000000000e+01 0.0 
0.0 -1.962000000000e+01 0.0 
0.0 -1.962000000000e+01 0.0 
0.0 -1.962000000000e+01 0.0 
0.0 -1.962000000000e+01 0.0 
0.0 -1.962000000000e+01 0.0 
0.0 -1.962000000000e+01 0.0 
0.0 -1.962000000000e+01 0.0 
0.0 -1.962000000000e+01 0.0 
0.0 -1.962000000000e+01 0.0 
0.0 -1.962000000000e+01 0.0 
0.0 -1.962000000000e+01 0.0 
0.0 -1.962000000000e+01 0.0 
0.0 -1.962000000000e+01 0.0 
0.0 -1.962000000000e+01 0.0 
0.0 -1.962000000000e+01 0.0 
0.0 -1.962000000000e+01 0.0 
0.0 -1.962000000000e+01 0.0 
0.0 -1.962000000000e+01 0.0 
0.0 -1.962000000000e+01 0.0 
0.0 -1.962000000000e+01 0.0 
0.0 -1.962000000000e+01 0.0 
0.0 -1.962000000000e+01 0.0 
0.0 -1.962000000000e+01 0.0 
0.0 -1.962000000000e+01 0.0 
0.0 -1.962000000000e+01 0.0 
0.0 -1.962000000000e+01 0.0 
0.0 -1.962000000000e+01 0.0 
0.0 -1.962000000000e+01 0.0 
0.0 -1.962000000000e+01 0.0 
0.0 -1.962000000000e+01 0.0 
0.0 -1.962000000000e+01 0.0 
0.0 -1.962000000000e+01 0.0 
0.0 -1.962000000000e+01 0.0 
0.0 -1.962000000000e+01 0.0 
0.0 -1.962000000000e+01 0.0 
0.0 -1.962000000000e+01 0.0 
0.0 -1.962000000000e+01 0.0 
0.0 -1.962000000000e+01 0.0 
0.0 -1.962000000000e+01 0.0 
0.0 -1.962000000000e+01 0.0 
0.0 -1.962000000000e+01 0.0 
0.0 -1.962000000000e+01 0.0 
0.0 -1.962000000000e+01 0.0 
0.0 -1.962000000000e+01 0.0 
0.0 -1.962000000000e+01 0.0 
0.0 -1.962000000000e+01 0.0 
0.0 -1.962000000000e+01 0.0 
0.0 -1.962000000000e+01 0.0 
0.0 -1.962000000000e+01 0.0 
0.0 -1.962000000000e+01 0.0 
0.0 -1.962000000000e+01 0.0 
0.0 -1.962000000000e+01 0.0 
0.0 -1.962000000000e+01 0.0 
0.0 -1.962000000000e+01 0.0 
0.0 -1.962000000000e+01 0.0 
0.0 -1.962000000000e+01 0.0 
0.0 -1.962000000000e+01 0.0 
0.0 -1.962000000000e+01 0.0 
0.0 -1.962000000000e+01 0.0 
0.0 -1.962000000000e+01 0.0 
0.0 -1.962000000000e+01 0.0 
0.0 -1.962000000000e+01 0.0 
0.0 -1.962000000000e+01 0.0 
0.0 -1.962000000000e+01 0.0 
0.0 -1.962000000000e+01 0.0 
0.0 -1.962000000000e+01 0.0 
0.0 -1.962000000000e+01 0.0 
0.0 -1.962000000000e+01 0.0 
0.0 -1.962000000000e+01 0.0 
0.0 -1.962000000000e+01 0.0 
0.0 -1.962000000000e+01 0.0 
0.0 -1.962000000000e+01 0.0 
0.0 -1.962000000000e+01 0.0 
0.0 -1.962000000000e+01 0.0 
0.0 -1.962000000000e+01 0.0 
0.0 -1.962000000000e+01 0.0 
0.0 -1.962000000000e+01 0.0 
0.0 -1.962000000000e+01 0.0 
0.0 -1.962000000000e+01 0.0 
0.0 -1.962000000000e+01 0.0 
0.0 -1.962000000000e+01 0.0 
0.0 -1.962000000000e+01 0.0 
0.0 -1.962000000000e+01 0.0 
0.0 -1.962000000000e+01 0.0 
0.0 -1.962000000000e+01 0.0 
0.0 -1.962000000000e+01 0.0 
0.0 -1.962000000000e+01 0.0 
0.0 -1.962000000000e+01 0.0 
0.0 -1.962000000000e+01 0.0 
0.0 -1.962000000000e+01 0.0 
0.0 -1.962000000000e+01 0.0 
0.0 -1.962000000000e+01 0.0 
0.0 -1.962000000000e+01 0.0 
0.0 -1.962000000000e+01 0.0 
0.0 -1.962000000000e+01 0.0 
0.0 -1.962000000000e+01 0.0 
0.0 -1.962000000000e+01 0.0 
0.0 -1.962000000000e+01 0.0 
0.0 -1.962000000000e+01 0.0 
0.0 -1.962000000000e+01 0.0 
0.0 -1.962000000000e+01 0.0 
0.0 -1.962000000000e+01 0.0 
0.0 -1.962000000000e+01 0.0 
0.0 -1.962000000000e+01 0.0 
0.0 -1.962000000000e+01 0.0 
0.0 -1.962000000000e+01 0.0 
0.0 -1.962000000000e+01 0.0 
0.0 -1.962000000000e+01 0.0 
0.0 -1.962000000000e+01 0.0 
0.0 -1.962000000000e+01 0.0 
0.0 -1.962000000000e+01 0.0 
0.0 -1.962000000000e+01 0.0 
0.0 -1.962000000000e+01 0.0 
0.0 -1.962000000000e+01 0.0 
0.0 -1.962000000000e+01 0.0 
0.0 -1.962000000000e+01 0.0 
0.0 -1.962000000000e+01 0.0 
0.0 -1.962000000000e+01 0.0 
0.0 -1.962000000000e+01 0.0 
0.0 -1.962000000000e+01 0.0 
0.0 -1.962000000000e+01 0.0 
0.0 -1.962000000000e+01 0.0 
0.0 -1.962000000000e+01 0.0 
0.0 -1.962000000000e+01 0.0 
0.0 -1.962000000000e+01 0.0 
0.0 -1.962000000000e+01 0.0 
0.0 -1.962000000000e+01 0.0 
0.0 -1.962000000000e+01 0.0 
0.0 -1.962000000000e+01 0.0 
0.0 -1.962000000000e+01 0.0 
0.0 -1.962000000000e+01 0.0 
0.0 -1.962000000000e+01 0.0 
0.0 -1.962000000000e+01 0.0 
0.0 -1.962000000000e+01 0.0 
0.0 -1.962000000000e+01 0.0 
0.0 -1.962000000000e+01 0.0 
0.0 -1.962000000000e+01 0.0 
0.0 -1.962000000000e+01 0.0 
0.0 -1.962000000000e+01 0.0 
0.0 -1.962000000000e+01 0.0 
0.0 -1.962000000000e+01 0.0 
0.0 -1.962000000000e+01 0.0 
0.0 -1.962000000000e+01 0.0 
0.0 -1.962000000000e+01 0.0 
0.0 -1.962000000000e+01 0.0 
0.0 -1.962000000000e+01 0.0 
0.0 -1.962000000000e+01 0.0 
0.0 -1.962000000000e+01 0.0 
0.0 -1.962000000000e+01 0.0 
0.0 -1.962000000000e+01 0.0 
0.0 -1.962000000000e+01 0.0 
0.0 -1.962000000000e+01 0.0 
0.0 -1.962000000000e+01 0.0 
0.0 -1.962000000000e+01 0.0 
0.0 -1.962000000000e+01 0.0 
0.0 -1.962000000000e+01 0.0 
0.0 -1.962000000000e+01 0.0 
0.0 -1.962000000000e+01 0.0 
0.0 -1.962000000000e+01 0.0 
0.0 -1.962000000000e+01 0.0 
0.0 -1.962000000000e+01 0.0 
0.0 -1.962000000000e+01 0.0 
0.0 -1.962000000000e+01 0.0 
0.0 -1.962000000000e+01 0.0 
0.0 -1.962000000000e+01 0.0 
0.0 -1.962000000000e+01 0.0 
0.0 -1.962000000000e+01 0.0 
0.0 -1.962000000000e+01 0.0 
0.0 -1.962000000000e+01 0.0 
0.0 -1.962000000000e+01 0.0 
0.0 -1.962000000000e+01 0.0 
0.0 -1.962000000000e+01 0.0 
0.0 -1.962000000000e+01 0.0 
0.0 -1.962000000000e+01 0.0 
0.0 -1.962000000000e+01 0.0 
0.0 -1.962000000000e+01 0.0 
0.0 -1.962000000000e+01 0.0 
0.0 -1.962000000000e+01 0.0 
0.0 -1.962000000000e+01 0.0 
0.0 -1.962000000000e+01 0.0 
0.0 -1.962000000000e+01 0.0 
0.0 -1.962000000000e+01 0.0 
0.0 -1.962000000000e+01 0.0 
0.0 -1.962000000000e+01 0.0 
0.0 -1.962000000000e+01 0.0 
0.0 -1.962000000000e+01 0.0 
0.0 -1.962000000000e+01 0.0 
0.0 -1.962000000000e+01 0.0 
0.0 -1.962000000000e+01 0.0 
0.0 -1.962000000000e+01 0.0 
0.0 -1.962000000000e+01 0.0 
0.0 -1.962000000000e+01 0.0 
0.0 -1.962000000000e+01 0.0 
0.0 -1.962000000000e+01 0.0 
0.0 -1.962000000000e+01 0.0 
0.0 -1.962000000000e+01 0.0 
0.0 -1.962000000000e+01 0.0 
0.0 -1.962000000000e+01 0.0 
0.0 -1.962000000000e+01 0.0 
0.0 -1.962000000000e+01 0.0 
0.0 -1.962000000000e+01 0.0 
0.0 -1.962000000000e+01 0.0 
0.0 -1.962000000000e+01 0.0 
0.0 -1.962000000000e+01 0.0 
0.0 -1.962000000000e+01 0.0 
0.0 -1.962000000000e+01 0.0 
0.0 -1.962000000000e+01 0.0 
0.0 -1.962000000000e+01 0.0 
0.0 -1.962000000000e+01 0.0 
0.0 -1.962000000000e+01 0.0 
0.0 -1.962000000000e+01 0.0 
0.0 -1.962000000000e+01 0.0 
0.0 -1.962000000000e+01 0.0 
0.0 -1.962000000000e+01 0.0 
0.0 -1.962000000000e+01 0.0 
0.0 -1.962000000000e+01 0.0 
0.0 -1.962000000000e+01 0.0 
0.0 -1.962000000000e+01 0.0 
0.0 -1.962000000000e+01 0.0 
0.0 -1.962000000000e+01 0.0 
0.0 -1.962000000000e+01 0.0 
0.0 -1.962000000000e+01 0.0 
0.0 -1.962000000000e+01 0.0 
0.0 -1.962000000000e+01 0.0 
0.0 -1.962000000000e+01 0.0 
0.0 -1.962000000000e+01 0.0 
0.0 -1.962000000000e+01 0.0 
0.0 -1.962000000000e+01 0.0 
0.0 -1.962000000000e+01 0.0 
0.0 -1.962000000000e+01 0.0 
0.0 -1.962000000000e+01 0.0 
0.0 -1.962000000000e+01 0.0 
0.0 -1.962000000000e+01 0.0 
0.0 -1.962000000000e+01 0.0 
0.0 -1.962000000000e+01 0.0 
0.0 -1.962000000000e+01 0.0 
0.0 -1.962000000000e+01 0.0 
0.0 -1.962000000000e+01 0.0 
0.0 -1.962000000000e+01 0.0 
0.0 -1.962000000000e+01 0.0 
0.0 -1.962000000000e+01 0.0 
0.0 -1.962000000000e+01 0.0 
0.0 -1.962000000000e+01 0.0 
0.0 -1.962000000000e+01 0.0 
0.0 -1.962000000000e+01 0.0 
0.0 -1.962000000000e+01 0.0 
0.0 -1.962000000000e+01 0.0 
0.0 -1.962000000000e+01 0.0 
0.0 -1.962000000000e+01 0.0 
0.0 -1.962000000000e+01 0.0 
0.0 -1.962000000000e+01 0.0 
0.0 -1.962000000000e+01 0.0 
0.0 -1.962000000000e+01 0.0 
0.0 -1.962000000000e+01 0.0 
0.0 -1.962000000000e+01 0.0 
0.0 -1.962000000000e+01 0.0 
0.0 -1.962000000000e+01 0.0 
0.0 -1.962000000000e+01 0.0 
0.0 -1.962000000000e+01 0.0 
0.0 -1.962000000000e+01 0.0 
0.0 -1.962000000000e+01 0.0 
0.0 -1.962000000000e+01 0.0 
0.0 -1.962000000000e+01 0.0 
0.0 -1.962000000000e+01 0.0 
0.0 -1.962000000000e+01 0.0 
0.0 -1.962000000000e+01 0.0 
0.0 -1.962000000000e+01 0.0 
0.0 -1.962000000000e+01 0.0 
0.0 -1.962000000000e+01 0.0 
0.0 -1.962000000000e+01 0.0 
0.0 -1.962000000000e+01 0.0 
0.0 -1.962000000000e+01 0.0 
0.0 -1.962000000000e+01 0.0 
0.0 -1.962000000000e+01 0.0 
0.0 -1.962000000000e+01 0.0 
0.0 -1.962000000000e+01 0.0 
0.0 -1.962000000000e+01 0.0 
0.0 -1.962000000000e+01 0.0 
0.0 -1.962000000000e+01 0.0 
0.0 -1.962000000000e+01 0.0 
0.0 -1.962000000000e+01 0.0 
0.0 -1.962000000000e+01 0.0 
0.0 -1.962000000000e+01 0.0 
0.0 -1.962000000000e+01 0.0 
0.0 -1.962000000000e+01 0.0 
0.0 -1.962000000000e+01 0.0 
0.0 -1.962000000000e+01 0.0 
0.0 -1.962000000000e+01 0.0 
0.0 -1.962000000000e+01 0.0 
0.0 -1.962000000000e+01 0.0 
0.0 -1.962000000000e+01 0.0 
0.0 -1.962000000000e+01 0.0 
0.0 -1.962000000000e+01 0.0 
0.0 -1.962000000000e+01 0.0 
0.0 -1.962000000000e+01 0.0 
0.0 -1.962000000000e+01 0.0 
0.0 -1.962000000000e+01 0.0 
0.0 -1.962000000000e+01 0.0 
0.0 -1.962000000000e+01 0.0 
0.0 -1.962000000000e+01 0.0 
0.0 -1.962000000000e+01 0.0 
0.0 -1.962000000000e+01 0.0 
0.0 -1.962000000000e+01 0.0 
0.0 -1.962000000000e+01 0.0 
0.0 -1.962000000000e+01 0.0 
0.0 -1.962000000000e+01 0.0 
0.0 -1.962000000000e+01 0.0 
0.0 -1.962000000000e+01 0.0 
0.0 -1.962000000000e+01 0.0 
0.0 -1.962000000000e+01 0.0 
0.0 -1.962000000000e+01 0.0 
0.0 -1.962000000000e+01 0.0 
0.0 -1.962000000000e+01 0.0 
0.0 -1.962000000000e+01 0.0 
0.0 -1.962000000000e+01 0.0 
0.0 -1.962000000000e+01 0.0 
0.0 -1.962000000000e+01 0.0 
0.0 -1.962000000000e+01 0.0 
0.0 -1.962000000000e+01 0.0 
0.0 -1.962000000000e+01 0.0 
0.0 -1.962000000000e+01 0.0 
0.0 -1.962000000000e+01 0.0 
0.0 -1.962000000000e+01 0.0 
0.0 -1.962000000000e+01 0.0 
0.0 -1.962000000000e+01 0.0 
0.0 -1.962000000000e+01 0.0 
0.0 -1.962000000000e+01 0.0 
0.0 -1.962000000000e+01 0.0 
0.0 -1.962000000000e+01 0.0 
0.0 -1.962000000000e+01 0.0 
0.0 -1.962000000000e+01 0.0 
0.0 -1.962000000000e+01 0.0 
0.0 -1.962000000000e+01 0.0 
0.0 -1.962000000000e+01 0.0 
0.0 -1.962000000000e+01 0.0 
0.0 -1.962000000000e+01 0.0 
0.0 -1.962000000000e+01 0.0 
0.0 -1.962000000000e+01 0.0 
0.0 -1.962000000000e+01 0.0 
0.0 -1.962000000000e+01 0.0 
0.0 -1.962000000000e+01 0.0 
0.0 -1.962000000000e+01 0.0 
0.0 -1.962000000000e+01 0.0 
0.0 -1.962000000000e+01 0.0 
0.0 -1.962000000000e+01 0.0 
0.0 -1.962000000000e+01 0.0 
0.0 -1.962000000000e+01 0.0 
0.0 -1.962000000000e+01 0.0 
0.0 -1.962000000000e+01 0.0 
0.0 -1.962000000000e+01 0.0 
0.0 -1.962000000000e+01 0.0 
0.0 -1.962000000000e+01 0.0 
0.0 -1.962000000000e+01 0.0 
0.0 -1.962000000000e+01 0.0 
0.0 -1.962000000000e+01 0.0 
0.0 -1.962000000000e+01 0.0 
0.0 -1.962000000000e+01 0.0 
0.0 -1.962000000000e+01 0.0 
0.0 -1.962000000000e+01 0.0 
0.0 -1.962000000000e+01 0.0 
0.0 -1.962000000000e+01 0.0 
0.0 -1.962000000000e+01 0.0 
0.0 -1.962000000000e+01 0.0 
0.0 -1.962000000000e+01 0.0 
0.0 -1.962000000000e+01 0.0 
0.0 -1.962000000000e+01 0.0 
0.0 -1.962000000000e+01 0.0 
0.0 -1.962000000000e+01 0.0 
0.0 -1.962000000000e+01 0.0 
0.0 -1.962000000000e+01 0.0 
0.0 -1.962000000000e+01 0.0 
0.0 -1.962000000000e+01 0.0 
0.0 -1.962000000000e+01 0.0 
0.0 -1.962000000000e+01 0.0 
0.0 -1.962000000000e+01 0.0 
0.0 -1.962000000000e+01 0.0 
0.0 -1.962000000000e+01 0.0 
0.0 -1.962000000000e+01 0.0 
0.0 -1.962000000000e+01 0.0 
0.0 -1.962000000000e+01 0.0 
0.0 -1.962000000000e+01 0.0 
0.0 -1.962000000000e+01 0.0 
0.0 -1.962000000000e+01 0.0 
0.0 -1.962000000000e+01 0.0 
0.0 -1.962000000000e+01 0.0 
0.0 -1.962000000000e+01 0.0 
0.0 -1.962000000000e+01 0.0 
0.0 -1.962000000000e+01 0.0 
0.0 -1.962000000000e+01 0.0 
0.0 -1.962000000000e+01 0.0 
0.0 -1.962000000000e+01 0.0 
0.0 -1.962000000000e+01 0.0 
0.0 -1.962000000000e+01 0.0 
0.0 -1.962000000000e+01 0.0 
0.0 -1.962000000000e+01 0.0 
0.0 -1.962000000000e+01 0.0 
0.0 -1.962000000000e+01 0.0 
0.0 -1.962000000000e+01 0.0 
0.0 -1.962000000000e+01 0.0 
0.0 -1.962000000000e+01 0.0 
0.0 -1.962000000000e+01 0.0 
0.0 -1.962000000000e+01 0.0 
0.0 -1.962000000000e+01 0.0 
0.0 -1.962000000000e+01 0.0 
0.0 -1.962000000000e+01 0.0 
0.0 -1.962000000000e+01 0.0 
0.0 -1.962000000000e+01 0.0 
0.0 -1.962000000000e+01 0.0 
0.0 -1.962000000000e+01 0.0 
0.0 -1.962000000000e+01 0.0 
0.0 -1.962000000000e+01 0.0 
0.0 -1.962000000000e+01 0.0 
0.0 -1.962000000000e+01 0.0 
0.0 -1.962000000000e+01 0.0 
0.0 -1.962000000000e+01 0.0 
0.0 -1.962000000000e+01 0.0 
0.0 -1.962000000000e+01 0.0 
0.0 -1.962000000000e+01 0.0 
0.0 -1.962000000000e+01 0.0 
0.0 -1.962000000000e+01 0.0 
0.0 -1.962000000000e+01 0.0 
0.0 -1.962000000000e+01 0.0 
0.0 -1.962000000000e+01 0.0 
0.0 -1.962000000000e+01 0.0 
0.0 -1.962000000000e+01 0.0 
0.0 -1.962000000000e+01 0.0 
0.0 -1.962000000000e+01 0.0 
0.0 -1.962000000000e+01 0.0 
0.0 -1.962000000000e+01 0.0 
0.0 -1.962000000000e+01 0.0 
0.0 -1.962000000000e+01 0.0 
0.0 -1.962000000000e+01 0.0 
0.0 -1.962000000000e+01 0.0 
0.0 -1.962000000000e+01 0.0 
0.0 -1.962000000000e+01 0.0 
0.0 -1.962000000000e+01 0.0 
0.0 -1.962000000000e+01 0.0 
0.0 -1.962000000000e+01 0.0 
0.0 -1.962000000000e+01 0.0 
0.0 -1.962000000000e+01 0.0 
0.0 -1.962000000000e+01 0.0 
0.0 -1.962000000000e+01 0.0 
0.0 -1.962000000000e+01 0.0 
0.0 -1.962000000000e+01 0.0 
0.0 -1.962000000000e+01 0.0 
0.0 -1.962000000000e+01 0.0 
0.0 -1.962000000000e+01 0.0 
0.0 -1.962000000000e+01 0.0 
0.0 -1.962000000000e+01 0.0 
0.0 -1.962000000000e+01 0.0 
0.0 -1.962000000000e+01 0.0 
0.0 -1.962000000000e+01 0.0 
0.0 -1.962000000000e+01 0.0 
0.0 -1.962000000000e+01 0.0 
0.0 -1.962000000000e+01 0.0 
0.0 -1.962000000000e+01 0.0 
0.0 -1.962000000000e+01 0.0 
0.0 -1.962000000000e+01 0.0 
0.0 -1.962000000000e+01 0.0 
0.0 -1.962000000000e+01 0.0 
0.0 -1.962000000000e+01 0.0 
0.0 -1.962000000000e+01 0.0 
0.0 -1.962000000000e+01 0.0 
0.0 -1.962000000000e+01 0.0 
0.0 -1.962000000000e+01 0.0 
0.0 -1.962000000000e+01 0.0 
0.0 -1.962000000000e+01 0.0 
0.0 -1.962000000000e+01 0.0 
0.0 -1.962000000000e+01 0.0 
0.0 -1.962000000000e+01 0.0 
0.0 -1.962000000000e+01 0.0 
0.0 -1.962000000000e+01 0.0 
0.0 -1.962000000000e+01 0.0 
0.0 -1.962000000000e+01 0.0 
0.0 -1.962000000000e+01 0.0 
0.0 -1.962000000000e+01 0.0 
0.0 -1.962000000000e+01 0.0 
0.0 -1.962000000000e+01 0.0 
0.0 -1.962000000000e+01 0.0 
0.0 -1.962000000000e+01 0.0 
0.0 -1.962000000000e+01 0.0 
0.0 -1.962000000000e+01 0.0 
0.0 -1.962000000000e+01 0.0 
0.0 -1.962000000000e+01 0.0 
0.0 -1.962000000000e+01 0.0 
0.0 -1.962000000000e+01 0.0 
0.0 -1.962000000000e+01 0.0 
0.0 -1.962000000000e+01 0.0 
0.0 -1.962000000000e+01 0.0 
0.0 -1.962000000000e+01 0.0 
0.0 -1.962000000000e+01 0.0 
0.0 -1.962000000000e+01 0.0 
0.0 -1.962000000000e+01 0.0 
0.0 -1.962000000000e+01 0.0 
0.0 -1.962000000000e+01 0.0 
0.0 -1.962000000000e+01 0.0 
0.0 -1.962000000000e+01 0.0 
0.0 -1.962000000000e+01 0.0 
0.0 -1.962000000000e+01 0.0 
0.0 -1.962000000000e+01 0.0 
0.0 -1.962000000000e+01 0.0 
0.0 -1.962000000000e+01 0.0 
0.0 -1.962000000000e+01 0.0 
0.0 -1.962000000000e+01 0.0 
0.0 -1.962000000000e+01 0.0 
0.0 -1.962000000000e+01 0.0 
0.0 -1.962000000000e+01 0.0 
0.0 -1.962000000000e+01 0.0 
0.0 -1.962000000000e+01 0.0 
0.0 -1.962000000000e+01 0.0 
0.0 -1.962000000000e+01 0.0 
0.0 -1.962000000000e+01 0.0 
0.0 -1.962000000000e+01 0.0 
0.0 -1.962000000000e+01 0.0 
0.0 -1.962000000000e+01 0.0 
0.0 -1.962000000000e+01 0.0 
0.0 -1.962000000000e+01 0.0 
0.0 -1.962000000000e+01 0.0 
0.0 -1.962000000000e+01 0.0 
0.0 -1.962000000000e+01 0.0 
0.0 -1.962000000000e+01 0.0 
0.0 -1.962000000000e+01 0.0 
0.0 -1.962000000000e+01 0.0 
0.0 -1.962000000000e+01 0.0 
0.0 -1.962000000000e+01 0.0 
0.0 -1.962000000000e+01 0.0 
0.0 -1.962000000000e+01 0.0 
0.0 -1.962000000000e+01 0.0 
0.0 -1.962000000000e+01 0.0 
0.0 -1.962000000000e+01 0.0 
0.0 -1.962000000000e+01 0.0 
0.0 -1.962000000000e+01 0.0 
0.0 -1.962000000000e+01 0.0 
0.0 -1.962000000000e+01 0.0 
0.0 -1.962000000000e+01 0.0 
0.0 -1.962000000000e+01 0.0 
0.0 -1.962000000000e+01 0.0 
0.0 -1.962000000000e+01 0.0 
0.0 -1.962000000000e+01 0.0 
0.0 -1.962000000000e+01 0.0 
0.0 -1.962000000000e+01 0.0 
0.0 -1.962000000000e+01 0.0 
0.0 -1.962000000000e+01 0.0 
0.0 -1.962000000000e+01 0.0 
0.0 -1.962000000000e+01 0.0 
0.0 -1.962000000000e+01 0.0 
0.0 -1.962000000000e+01 0.0 
0.0 -1.962000000000e+01 0.0 

VECTORS node_rhside_materi_fixed float
-1.674515347103e+00 0.0 0.0 
6.239015964015e+01 0.0 0.0 
-8.176618766149e+01 -1.954166278447e+02 0.0 
7.008152959426e+01 -1.676602534180e+02 0.0 
-7.615563441755e+00 0.0 0.0 
-1.572994120479e+01 0.0 0.0 
-2.241305292170e+01 0.0 0.0 
-3.084254606590e+01 0.0 0.0 
-3.822859576002e+01 0.0 0.0 
-4.592053994736e+01 0.0 0.0 
-5.365257404033e+01 0.0 0.0 
-6.141913023990e+01 0.0 0.0 
-6.926223371302e+01 0.0 0.0 
-7.713488113317e+01 0.0 0.0 
-8.557836792488e+01 0.0 0.0 
-9.405160097921e+01 0.0 0.0 
-1.021600286373e+02 0.0 0.0 
-1.110352305402e+02 0.0 0.0 
-1.198914007733e+02 0.0 0.0 
-1.289232253153e+02 0.0 0.0 
-1.381364241845e+02 0.0 0.0 
-1.474979952778e+02 0.0 0.0 
-1.574106624181e+02 0.0 0.0 
1.682259948481e-01 -3.342687251501e+02 0.0 
1.990397566627e-01 -3.353644442084e+02 0.0 
1.664882691217e+00 -3.346118093703e+02 0.0 
5.249278567985e-01 -3.347613810186e+02 0.0 
1.733244826208e+00 -3.354094532845e+02 0.0 
1.974201018835e+00 -3.348999716702e+02 0.0 
2.101675106516e+00 -3.354647991104e+02 0.0 
2.565864198936e+00 -3.359909441982e+02 0.0 
3.687935172058e+00 -3.355722423645e+02 0.0 
2.845010680922e+00 -3.360311256064e+02 0.0 
4.174318689948e+00 -3.370585521557e+02 0.0 
4.691319742441e+00 -3.368220904418e+02 0.0 
5.029317547157e+00 -3.379423689586e+02 0.0 
5.526179550886e+00 -3.383410875002e+02 0.0 
6.274369477121e+00 -3.390427817643e+02 0.0 
6.573447784838e+00 -3.403638631416e+02 0.0 
7.881807360368e+00 -3.413472532038e+02 0.0 
8.464009655437e+00 -3.426925616320e+02 0.0 
9.177216080756e+00 -3.440520538615e+02 0.0 
9.829538310024e+00 -3.453584540136e+02 0.0 
1.006392355661e+01 -3.471769593910e+02 0.0 
1.103944596613e+01 -3.494030820390e+02 0.0 
1.143570165434e+01 -3.512896739295e+02 0.0 
1.200273223062e+01 -3.534786816069e+02 0.0 
1.241852302695e+01 -3.560969496796e+02 0.0 
1.264123951551e+01 -3.583222247417e+02 0.0 
1.276104699396e+01 -3.606277066262e+02 0.0 
1.271034328126e+01 -3.633060024306e+02 0.0 
1.262138538592e+01 -3.660251334300e+02 0.0 
1.275235499590e+01 -3.682537747527e+02 0.0 
1.164571391030e+01 -3.703235618489e+02 0.0 
1.155276604887e+01 -3.733460509205e+02 0.0 
1.112090877522e+01 -3.750106119252e+02 0.0 
1.059222486020e+01 -3.772196940164e+02 0.0 
9.796877331376e+00 -3.790135945099e+02 0.0 
9.232626616909e+00 -3.805901152509e+02 0.0 
8.438025031808e+00 -3.823025117486e+02 0.0 
7.661536138073e+00 -3.835726944910e+02 0.0 
6.994575886963e+00 -3.847970307685e+02 0.0 
6.270236945346e+00 -3.862173440849e+02 0.0 
5.746548191930e+00 -3.868905686213e+02 0.0 
4.925898140488e+00 -3.876238233041e+02 0.0 
4.246024464266e+00 -3.880971678554e+02 0.0 
3.667415223208e+00 -3.894379437545e+02 0.0 
2.811271485431e+00 -3.891178989687e+02 0.0 
2.229248945706e+00 -3.901524217144e+02 0.0 
2.041572052001e+00 -3.898818461838e+02 0.0 
1.101080901809e+00 -3.903016064560e+02 0.0 
5.541012598098e-01 -3.902854810323e+02 0.0 
7.041459352054e+01 0.0 0.0 
7.911552329578e+01 0.0 0.0 
8.732573674627e+01 0.0 0.0 
9.535240620075e+01 0.0 0.0 
1.034228372380e+02 0.0 0.0 
1.117638788234e+02 0.0 0.0 
1.196193367873e+02 0.0 0.0 
1.271119922362e+02 0.0 0.0 
1.357704702122e+02 0.0 0.0 
0.0 0.0 0.0 
0.0 0.0 0.0 
0.0 0.0 0.0 
0.0 0.0 0.0 
0.0 0.0 0.0 
0.0 0.0 0.0 
0.0 0.0 0.0 
0.0 0.0 0.0 
0.0 0.0 0.0 
0.0 0.0 0.0 
0.0 0.0 0.0 
3.202879424244e+00 0.0 0.0 
1.228619168497e+01 0.0 0.0 
2.042843457114e+01 0.0 0.0 
2.880191888144e+01 0.0 0.0 
3.724496511257e+01 0.0 0.0 
4.570764884328e+01 0.0 0.0 
5.414231439578e+01 0.0 0.0 
0.0 0.0 0.0 
0.0 0.0 0.0 
0.0 0.0 0.0 
0.0 0.0 0.0 
0.0 0.0 0.0 
0.0 0.0 0.0 
0.0 0.0 0.0 
0.0 0.0 0.0 
0.0 0.0 0.0 
0.0 0.0 0.0 
0.0 0.0 0.0 
0.0 0.0 0.0 
0.0 0.0 0.0 
0.0 0.0 0.0 
0.0 0.0 0.0 
0.0 0.0 0.0 
0.0 0.0 0.0 
0.0 0.0 0.0 
0.0 0.0 0.0 
0.0 0.0 0.0 
0.0 0.0 0.0 
0.0 0.0 0.0 
0.0 0.0 0.0 
0.0 0.0 0.0 
0.0 0.0 0.0 
0.0 0.0 0.0 
0.0 0.0 0.0 
0.0 0.0 0.0 
0.0 0.0 0.0 
0.0 0.0 0.0 
0.0 0.0 0.0 
0.0 0.0 0.0 
0.0 0.0 0.0 
0.0 0.0 0.0 
0.0 0.0 0.0 
0.0 0.0 0.0 
0.0 0.0 0.0 
0.0 0.0 0.0 
0.0 0.0 0.0 
0.0 0.0 0.0 
0.0 0.0 0.0 
0.0 0.0 0.0 
0.0 0.0 0.0 
0.0 0.0 0.0 
0.0 0.0 0.0 
0.0 0.0 0.0 
0.0 0.0 0.0 
0.0 0.0 0.0 
0.0 0.0 0.0 
0.0 0.0 0.0 
0.0 0.0 0.0 
0.0 0.0 0.0 
0.0 0.0 0.0 
0.0 0.0 0.0 
0.0 0.0 0.0 
0.0 0.0 0.0 
0.0 0.0 0.0 
0.0 0.0 0.0 
0.0 0.0 0.0 
0.0 0.0 0.0 
0.0 0.0 0.0 
0.0 0.0 0.0 
0.0 0.0 0.0 
0.0 0.0 0.0 
0.0 0.0 0.0 
0.0 0.0 0.0 
0.0 0.0 0.0 
0.0 0.0 0.0 
0.0 0.0 0.0 
0.0 0.0 0.0 
0.0 0.0 0.0 
0.0 0.0 0.0 
0.0 0.0 0.0 
0.0 0.0 0.0 
0.0 0.0 0.0 
0.0 0.0 0.0 
0.0 0.0 0.0 
0.0 0.0 0.0 
0.0 0.0 0.0 
0.0 0.0 0.0 
0.0 0.0 0.0 
0.0 0.0 0.0 
0.0 0.0 0.0 
0.0 0.0 0.0 
0.0 0.0 0.0 
0.0 0.0 0.0 
0.0 0.0 0.0 
0.0 0.0 0.0 
0.0 0.0 0.0 
0.0 0.0 0.0 
0.0 0.0 0.0 
0.0 0.0 0.0 
0.0 0.0 0.0 
0.0 0.0 0.0 
0.0 0.0 0.0 
0.0 0.0 0.0 
0.0 0.0 0.0 
0.0 0.0 0.0 
0.0 0.0 0.0 
0.0 0.0 0.0 
0.0 0.0 0.0 
0.0 0.0 0.0 
0.0 0.0 0.0 
0.0 0.0 0.0 
0.0 0.0 0.0 
0.0 0.0 0.0 
0.0 0.0 0.0 
0.0 0.0 0.0 
0.0 0.0 0.0 
0.0 0.0 0.0 
0.0 0.0 0.0 
0.0 0.0 0.0 
0.0 0.0 0.0 
0.0 0.0 0.0 
0.0 0.0 0.0 
0.0 0.0 0.0 
0.0 0.0 0.0 
0.0 0.0 0.0 
0.0 0.0 0.0 
0.0 0.0 0.0 
0.0 0.0 0.0 
0.0 0.0 0.0 
0.0 0.0 0.0 
0.0 0.0 0.0 
0.0 0.0 0.0 
0.0 0.0 0.0 
0.0 0.0 0.0 
0.0 0.0 0.0 
0.0 0.0 0.0 
0.0 0.0 0.0 
0.0 0.0 0.0 
0.0 0.0 0.0 
0.0 0.0 0.0 
0.0 0.0 0.0 
0.0 0.0 0.0 
0.0 0.0 0.0 
0.0 0.0 0.0 
0.0 0.0 0.0 
0.0 0.0 0.0 
0.0 0.0 0.0 
0.0 0.0 0.0 
0.0 0.0 0.0 
0.0 0.0 0.0 
0.0 0.0 0.0 
0.0 0.0 0.0 
0.0 0.0 0.0 
0.0 0.0 0.0 
0.0 0.0 0.0 
0.0 0.0 0.0 
0.0 0.0 0.0 
0.0 0.0 0.0 
0.0 0.0 0.0 
0.0 0.0 0.0 
0.0 0.0 0.0 
0.0 0.0 0.0 
0.0 0.0 0.0 
0.0 0.0 0.0 
0.0 0.0 0.0 
0.0 0.0 0.0 
0.0 0.0 0.0 
0.0 0.0 0.0 
0.0 0.0 0.0 
0.0 0.0 0.0 
0.0 0.0 0.0 
0.0 0.0 0.0 
0.0 0.0 0.0 
0.0 0.0 0.0 
0.0 0.0 0.0 
0.0 0.0 0.0 
0.0 0.0 0.0 
0.0 0.0 0.0 
0.0 0.0 0.0 
0.0 0.0 0.0 
0.0 0.0 0.0 
0.0 0.0 0.0 
0.0 0.0 0.0 
0.0 0.0 0.0 
0.0 0.0 0.0 
0.0 0.0 0.0 
0.0 0.0 0.0 
0.0 0.0 0.0 
0.0 0.0 0.0 
0.0 0.0 0.0 
0.0 0.0 0.0 
0.0 0.0 0.0 
0.0 0.0 0.0 
0.0 0.0 0.0 
0.0 0.0 0.0 
0.0 0.0 0.0 
0.0 0.0 0.0 
0.0 0.0 0.0 
0.0 0.0 0.0 
0.0 0.0 0.0 
0.0 0.0 0.0 
0.0 0.0 0.0 
0.0 0.0 0.0 
0.0 0.0 0.0 
0.0 0.0 0.0 
0.0 0.0 0.0 
0.0 0.0 0.0 
0.0 0.0 0.0 
0.0 0.0 0.0 
0.0 0.0 0.0 
0.0 0.0 0.0 
0.0 0.0 0.0 
0.0 0.0 0.0 
0.0 0.0 0.0 
0.0 0.0 0.0 
0.0 0.0 0.0 
0.0 0.0 0.0 
0.0 0.0 0.0 
0.0 0.0 0.0 
0.0 0.0 0.0 
0.0 0.0 0.0 
0.0 0.0 0.0 
0.0 0.0 0.0 
0.0 0.0 0.0 
0.0 0.0 0.0 
0.0 0.0 0.0 
0.0 0.0 0.0 
0.0 0.0 0.0 
0.0 0.0 0.0 
0.0 0.0 0.0 
0.0 0.0 0.0 
0.0 0.0 0.0 
0.0 0.0 0.0 
0.0 0.0 0.0 
0.0 0.0 0.0 
0.0 0.0 0.0 
0.0 0.0 0.0 
0.0 0.0 0.0 
0.0 0.0 0.0 
0.0 0.0 0.0 
0.0 0.0 0.0 
0.0 0.0 0.0 
0.0 0.0 0.0 
0.0 0.0 0.0 
0.0 0.0 0.0 
0.0 0.0 0.0 
0.0 0.0 0.0 
0.0 0.0 0.0 
0.0 0.0 0.0 
0.0 0.0 0.0 
0.0 0.0 0.0 
0.0 0.0 0.0 
0.0 0.0 0.0 
0.0 0.0 0.0 
0.0 0.0 0.0 
0.0 0.0 0.0 
0.0 0.0 0.0 
0.0 0.0 0.0 
0.0 0.0 0.0 
0.0 0.0 0.0 
0.0 0.0 0.0 
0.0 0.0 0.0 
0.0 0.0 0.0 
0.0 0.0 0.0 
0.0 0.0 0.0 
0.0 0.0 0.0 
0.0 0.0 0.0 
0.0 0.0 0.0 
0.0 0.0 0.0 
0.0 0.0 0.0 
0.0 0.0 0.0 
0.0 0.0 0.0 
0.0 0.0 0.0 
0.0 0.0 0.0 
0.0 0.0 0.0 
0.0 0.0 0.0 
0.0 0.0 0.0 
0.0 0.0 0.0 
0.0 0.0 0.0 
0.0 0.0 0.0 
0.0 0.0 0.0 
0.0 0.0 0.0 
0.0 0.0 0.0 
0.0 0.0 0.0 
0.0 0.0 0.0 
0.0 0.0 0.0 
0.0 0.0 0.0 
0.0 0.0 0.0 
0.0 0.0 0.0 
0.0 0.0 0.0 
0.0 0.0 0.0 
0.0 0.0 0.0 
0.0 0.0 0.0 
0.0 0.0 0.0 
0.0 0.0 0.0 
0.0 0.0 0.0 
0.0 0.0 0.0 
0.0 0.0 0.0 
0.0 0.0 0.0 
0.0 0.0 0.0 
0.0 0.0 0.0 
0.0 0.0 0.0 
0.0 0.0 0.0 
0.0 0.0 0.0 
0.0 0.0 0.0 
0.0 0.0 0.0 
0.0 0.0 0.0 
0.0 0.0 0.0 
0.0 0.0 0.0 
0.0 0.0 0.0 
0.0 0.0 0.0 
0.0 0.0 0.0 
0.0 0.0 0.0 
0.0 0.0 0.0 
0.0 0.0 0.0 
0.0 0.0 0.0 
0.0 0.0 0.0 
0.0 0.0 0.0 
0.0 0.0 0.0 
0.0 0.0 0.0 
0.0 0.0 0.0 
0.0 0.0 0.0 
0.0 0.0 0.0 
0.0 0.0 0.0 
0.0 0.0 0.0 
0.0 0.0 0.0 
0.0 0.0 0.0 
0.0 0.0 0.0 
0.0 0.0 0.0 
0.0 0.0 0.0 
0.0 0.0 0.0 
0.0 0.0 0.0 
0.0 0.0 0.0 
0.0 0.0 0.0 
0.0 0.0 0.0 
0.0 0.0 0.0 
0.0 0.0 0.0 
0.0 0.0 0.0 
0.0 0.0 0.0 
0.0 0.0 0.0 
0.0 0.0 0.0 
0.0 0.0 0.0 
0.0 0.0 0.0 
0.0 0.0 0.0 
0.0 0.0 0.0 
0.0 0.0 0.0 
0.0 0.0 0.0 
0.0 0.0 0.0 
0.0 0.0 0.0 
0.0 0.0 0.0 
0.0 0.0 0.0 
0.0 0.0 0.0 
0.0 0.0 0.0 
0.0 0.0 0.0 
0.0 0.0 0.0 
0.0 0.0 0.0 
0.0 0.0 0.0 
0.0 0.0 0.0 
0.0 0.0 0.0 
0.0 0.0 0.0 
0.0 0.0 0.0 
0.0 0.0 0.0 
0.0 0.0 0.0 
0.0 0.0 0.0 
0.0 0.0 0.0 
0.0 0.0 0.0 
0.0 0.0 0.0 
0.0 0.0 0.0 
0.0 0.0 0.0 
0.0 0.0 0.0 
0.0 0.0 0.0 
0.0 0.0 0.0 
0.0 0.0 0.0 
0.0 0.0 0.0 
0.0 0.0 0.0 
0.0 0.0 0.0 
0.0 0.0 0.0 
0.0 0.0 0.0 
0.0 0.0 0.0 
0.0 0.0 0.0 
0.0 0.0 0.0 
0.0 0.0 0.0 
0.0 0.0 0.0 
0.0 0.0 0.0 
0.0 0.0 0.0 
0.0 0.0 0.0 
0.0 0.0 0.0 
0.0 0.0 0.0 
0.0 0.0 0.0 
0.0 0.0 0.0 
0.0 0.0 0.0 
0.0 0.0 0.0 
0.0 0.0 0.0 
0.0 0.0 0.0 
0.0 0.0 0.0 
0.0 0.0 0.0 
0.0 0.0 0.0 
0.0 0.0 0.0 
0.0 0.0 0.0 
0.0 0.0 0.0 
0.0 0.0 0.0 
0.0 0.0 0.0 
0.0 0.0 0.0 
0.0 0.0 0.0 
0.0 0.0 0.0 
0.0 0.0 0.0 
0.0 0.0 0.0 
0.0 0.0 0.0 
0.0 0.0 0.0 
0.0 0.0 0.0 
0.0 0.0 0.0 
0.0 0.0 0.0 
0.0 0.0 0.0 
0.0 0.0 0.0 
0.0 0.0 0.0 
0.0 0.0 0.0 
0.0 0.0 0.0 
0.0 0.0 0.0 
0.0 0.0 0.0 
0.0 0.0 0.0 
0.0 0.0 0.0 
0.0 0.0 0.0 
0.0 0.0 0.0 
0.0 0.0 0.0 
0.0 0.0 0.0 
0.0 0.0 0.0 
0.0 0.0 0.0 
0.0 0.0 0.0 
0.0 0.0 0.0 
0.0 0.0 0.0 
0.0 0.0 0.0 
0.0 0.0 0.0 
0.0 0.0 0.0 
0.0 0.0 0.0 
0.0 0.0 0.0 
0.0 0.0 0.0 
0.0 0.0 0.0 
0.0 0.0 0.0 
0.0 0.0 0.0 
0.0 0.0 0.0 
0.0 0.0 0.0 
0.0 0.0 0.0 
0.0 0.0 0.0 
0.0 0.0 0.0 
0.0 0.0 0.0 
0.0 0.0 0.0 
0.0 0.0 0.0 
0.0 0.0 0.0 
0.0 0.0 0.0 
0.0 0.0 0.0 
0.0 0.0 0.0 
0.0 0.0 0.0 
0.0 0.0 0.0 
0.0 0.0 0.0 
0.0 0.0 0.0 
0.0 0.0 0.0 
0.0 0.0 0.0 
0.0 0.0 0.0 
0.0 0.0 0.0 
0.0 0.0 0.0 
0.0 0.0 0.0 
0.0 0.0 0.0 
0.0 0.0 0.0 
0.0 0.0 0.0 
0.0 0.0 0.0 
0.0 0.0 0.0 
0.0 0.0 0.0 
0.0 0.0 0.0 
0.0 0.0 0.0 
0.0 0.0 0.0 
0.0 0.0 0.0 
0.0 0.0 0.0 
0.0 0.0 0.0 
0.0 0.0 0.0 
0.0 0.0 0.0 
0.0 0.0 0.0 
0.0 0.0 0.0 
0.0 0.0 0.0 
0.0 0.0 0.0 
0.0 0.0 0.0 
0.0 0.0 0.0 
0.0 0.0 0.0 
0.0 0.0 0.0 
0.0 0.0 0.0 
0.0 0.0 0.0 
0.0 0.0 0.0 
0.0 0.0 0.0 
0.0 0.0 0.0 
0.0 0.0 0.0 
0.0 0.0 0.0 
0.0 0.0 0.0 
0.0 0.0 0.0 
0.0 0.0 0.0 
0.0 0.0 0.0 
0.0 0.0 0.0 
0.0 0.0 0.0 
0.0 0.0 0.0 
0.0 0.0 0.0 
0.0 0.0 0.0 
0.0 0.0 0.0 
0.0 0.0 0.0 
0.0 0.0 0.0 
0.0 0.0 0.0 
0.0 0.0 0.0 
0.0 0.0 0.0 
0.0 0.0 0.0 
0.0 0.0 0.0 
0.0 0.0 0.0 
0.0 0.0 0.0 
0.0 0.0 0.0 
0.0 0.0 0.0 
0.0 0.0 0.0 
0.0 0.0 0.0 
0.0 0.0 0.0 
0.0 0.0 0.0 
0.0 0.0 0.0 
0.0 0.0 0.0 
0.0 0.0 0.0 
0.0 0.0 0.0 
0.0 0.0 0.0 
0.0 0.0 0.0 
0.0 0.0 0.0 
0.0 0.0 0.0 
0.0 0.0 0.0 
0.0 0.0 0.0 
0.0 0.0 0.0 
0.0 0.0 0.0 
0.0 0.0 0.0 
0.0 0.0 0.0 
0.0 0.0 0.0 
0.0 0.0 0.0 
0.0 0.0 0.0 
0.0 0.0 0.0 
0.0 0.0 0.0 
0.0 0.0 0.0 
0.0 0.0 0.0 
0.0 0.0 0.0 
0.0 0.0 0.0 
0.0 0.0 0.0 
0.0 0.0 0.0 
0.0 0.0 0.0 
0.0 0.0 0.0 
0.0 0.0 0.0 
0.0 0.0 0.0 
0.0 0.0 0.0 
0.0 0.0 0.0 
0.0 0.0 0.0 
0.0 0.0 0.0 
0.0 0.0 0.0 
0.0 0.0 0.0 
0.0 0.0 0.0 
0.0 0.0 0.0 
0.0 0.0 0.0 
0.0 0.0 0.0 
0.0 0.0 0.0 
0.0 0.0 0.0 
0.0 0.0 0.0 
0.0 0.0 0.0 
0.0 0.0 0.0 
0.0 0.0 0.0 
0.0 0.0 0.0 
0.0 0.0 0.0 
0.0 0.0 0.0 
0.0 0.0 0.0 
0.0 0.0 0.0 
0.0 0.0 0.0 
0.0 0.0 0.0 
0.0 0.0 0.0 
0.0 0.0 0.0 
0.0 0.0 0.0 
0.0 0.0 0.0 
0.0 0.0 0.0 
0.0 0.0 0.0 
0.0 0.0 0.0 
0.0 0.0 0.0 
0.0 0.0 0.0 
0.0 0.0 0.0 
0.0 0.0 0.0 
0.0 0.0 0.0 
0.0 0.0 0.0 
0.0 0.0 0.0 
0.0 0.0 0.0 
0.0 0.0 0.0 
0.0 0.0 0.0 
0.0 0.0 0.0 
0.0 0.0 0.0 
0.0 0.0 0.0 
0.0 0.0 0.0 
0.0 0.0 0.0 
0.0 0.0 0.0 
0.0 0.0 0.0 
0.0 0.0 0.0 
0.0 0.0 0.0 
0.0 0.0 0.0 
0.0 0.0 0.0 
0.0 0.0 0.0 
0.0 0.0 0.0 
0.0 0.0 0.0 
0.0 0.0 0.0 
0.0 0.0 0.0 
0.0 0.0 0.0 
0.0 0.0 0.0 
0.0 0.0 0.0 
0.0 0.0 0.0 
0.0 0.0 0.0 
0.0 0.0 0.0 
0.0 0.0 0.0 
0.0 0.0 0.0 
0.0 0.0 0.0 
0.0 0.0 0.0 
0.0 0.0 0.0 
0.0 0.0 0.0 
0.0 0.0 0.0 
0.0 0.0 0.0 
0.0 0.0 0.0 
0.0 0.0 0.0 
0.0 0.0 0.0 
0.0 0.0 0.0 
0.0 0.0 0.0 
0.0 0.0 0.0 
0.0 0.0 0.0 
0.0 0.0 0.0 
0.0 0.0 0.0 
0.0 0.0 0.0 
0.0 0.0 0.0 
0.0 0.0 0.0 
0.0 0.0 0.0 
0.0 0.0 0.0 
0.0 0.0 0.0 
0.0 0.0 0.0 
0.0 0.0 0.0 
0.0 0.0 0.0 
0.0 0.0 0.0 
0.0 0.0 0.0 
0.0 0.0 0.0 
0.0 0.0 0.0 
0.0 0.0 0.0 
0.0 0.0 0.0 
0.0 0.0 0.0 
0.0 0.0 0.0 
0.0 0.0 0.0 
0.0 0.0 0.0 
0.0 0.0 0.0 
0.0 0.0 0.0 
0.0 0.0 0.0 
0.0 0.0 0.0 
0.0 0.0 0.0 
0.0 0.0 0.0 
0.0 0.0 0.0 
0.0 0.0 0.0 
0.0 0.0 0.0 
0.0 0.0 0.0 
0.0 0.0 0.0 
0.0 0.0 0.0 
0.0 0.0 0.0 
0.0 0.0 0.0 
0.0 0.0 0.0 
0.0 0.0 0.0 
0.0 0.0 0.0 
0.0 0.0 0.0 
0.0 0.0 0.0 
0.0 0.0 0.0 
0.0 0.0 0.0 
0.0 0.0 0.0 
0.0 0.0 0.0 
0.0 0.0 0.0 
0.0 0.0 0.0 
0.0 0.0 0.0 
0.0 0.0 0.0 
0.0 0.0 0.0 
0.0 0.0 0.0 
0.0 0.0 0.0 
0.0 0.0 0.0 
0.0 0.0 0.0 
0.0 0.0 0.0 
0.0 0.0 0.0 
0.0 0.0 0.0 
0.0 0.0 0.0 
0.0 0.0 0.0 
0.0 0.0 0.0 
0.0 0.0 0.0 
0.0 0.0 0.0 
0.0 0.0 0.0 
0.0 0.0 0.0 
0.0 0.0 0.0 
0.0 0.0 0.0 
0.0 0.0 0.0 
0.0 0.0 0.0 
0.0 0.0 0.0 
0.0 0.0 0.0 
0.0 0.0 0.0 
0.0 0.0 0.0 
0.0 0.0 0.0 
0.0 0.0 0.0 
0.0 0.0 0.0 
0.0 0.0 0.0 
0.0 0.0 0.0 
0.0 0.0 0.0 
0.0 0.0 0.0 
0.0 0.0 0.0 
0.0 0.0 0.0 
0.0 0.0 0.0 
0.0 0.0 0.0 
0.0 0.0 0.0 
0.0 0.0 0.0 
0.0 0.0 0.0 
0.0 0.0 0.0 
0.0 0.0 0.0 
0.0 0.0 0.0 
0.0 0.0 0.0 
0.0 0.0 0.0 
0.0 0.0 0.0 
0.0 0.0 0.0 
0.0 0.0 0.0 
0.0 0.0 0.0 
0.0 0.0 0.0 
0.0 0.0 0.0 
0.0 0.0 0.0 
0.0 0.0 0.0 
0.0 0.0 0.0 
0.0 0.0 0.0 
0.0 0.0 0.0 
0.0 0.0 0.0 
0.0 0.0 0.0 
0.0 0.0 0.0 
0.0 0.0 0.0 
0.0 0.0 0.0 
0.0 0.0 0.0 
0.0 0.0 0.0 
0.0 0.0 0.0 
0.0 0.0 0.0 
0.0 0.0 0.0 
0.0 0.0 0.0 
0.0 0.0 0.0 
0.0 0.0 0.0 
0.0 0.0 0.0 
0.0 0.0 0.0 
0.0 0.0 0.0 
0.0 0.0 0.0 
0.0 0.0 0.0 
0.0 0.0 0.0 
0.0 0.0 0.0 
0.0 0.0 0.0 
0.0 0.0 0.0 
0.0 0.0 0.0 
0.0 0.0 0.0 
0.0 0.0 0.0 
0.0 0.0 0.0 
0.0 0.0 0.0 
0.0 0.0 0.0 
0.0 0.0 0.0 
0.0 0.0 0.0 
0.0 0.0 0.0 
0.0 0.0 0.0 
0.0 0.0 0.0 
0.0 0.0 0.0 
0.0 0.0 0.0 
0.0 0.0 0.0 
0.0 0.0 0.0 
0.0 0.0 0.0 
0.0 0.0 0.0 
0.0 0.0 0.0 
0.0 0.0 0.0 
0.0 0.0 0.0 
0.0 0.0 0.0 
0.0 0.0 0.0 
0.0 0.0 0.0 
0.0 0.0 0.0 
0.0 0.0 0.0 
0.0 0.0 0.0 
0.0 0.0 0.0 
0.0 0.0 0.0 
0.0 0.0 0.0 
0.0 0.0 0.0 
0.0 0.0 0.0 
0.0 0.0 0.0 
0.0 0.0 0.0 
0.0 0.0 0.0 
0.0 0.0 0.0 
0.0 0.0 0.0 
0.0 0.0 0.0 
0.0 0.0 0.0 
0.0 0.0 0.0 
0.0 0.0 0.0 
0.0 0.0 0.0 
0.0 0.0 0.0 
0.0 0.0 0.0 
0.0 0.0 0.0 
0.0 0.0 0.0 
0.0 0.0 0.0 
0.0 0.0 0.0 
0.0 0.0 0.0 
0.0 0.0 0.0 
0.0 0.0 0.0 
0.0 0.0 0.0 
0.0 0.0 0.0 
0.0 0.0 0.0 
0.0 0.0 0.0 
0.0 0.0 0.0 
0.0 0.0 0.0 
0.0 0.0 0.0 
0.0 0.0 0.0 
0.0 0.0 0.0 
0.0 0.0 0.0 
0.0 0.0 0.0 
0.0 0.0 0.0 
0.0 0.0 0.0 
0.0 0.0 0.0 
0.0 0.0 0.0 
0.0 0.0 0.0 
0.0 0.0 0.0 
0.0 0.0 0.0 
0.0 0.0 0.0 
0.0 0.0 0.0 
0.0 0.0 0.0 
0.0 0.0 0.0 
0.0 0.0 0.0 
0.0 0.0 0.0 
0.0 0.0 0.0 
0.0 0.0 0.0 
0.0 0.0 0.0 
0.0 0.0 0.0 
0.0 0.0 0.0 
0.0 0.0 0.0 
0.0 0.0 0.0 
0.0 0.0 0.0 
0.0 0.0 0.0 
0.0 0.0 0.0 
0.0 0.0 0.0 
0.0 0.0 0.0 
0.0 0.0 0.0 
0.0 0.0 0.0 
0.0 0.0 0.0 
0.0 0.0 0.0 
0.0 0.0 0.0 
0.0 0.0 0.0 
0.0 0.0 0.0 
0.0 0.0 0.0 
0.0 0.0 0.0 
0.0 0.0 0.0 
0.0 0.0 0.0 
0.0 0.0 0.0 
0.0 0.0 0.0 
0.0 0.0 0.0 
0.0 0.0 0.0 
0.0 0.0 0.0 
0.0 0.0 0.0 
0.0 0.0 0.0 
0.0 0.0 0.0 
0.0 0.0 0.0 
0.0 0.0 0.0 
0.0 0.0 0.0 
0.0 0.0 0.0 
0.0 0.0 0.0 
0.0 0.0 0.0 
0.0 0.0 0.0 
0.0 0.0 0.0 
0.0 0.0 0.0 
0.0 0.0 0.0 
0.0 0.0 0.0 
0.0 0.0 0.0 
0.0 0.0 0.0 
0.0 0.0 0.0 
0.0 0.0 0.0 
0.0 0.0 0.0 
0.0 0.0 0.0 
0.0 0.0 0.0 
0.0 0.0 0.0 
0.0 0.0 0.0 
0.0 0.0 0.0 
0.0 0.0 0.0 
0.0 0.0 0.0 
0.0 0.0 0.0 
0.0 0.0 0.0 
0.0 0.0 0.0 
0.0 0.0 0.0 
0.0 0.0 0.0 
0.0 0.0 0.0 
0.0 0.0 0.0 
0.0 0.0 0.0 
0.0 0.0 0.0 
0.0 0.0 0.0 
0.0 0.0 0.0 
0.0 0.0 0.0 
0.0 0.0 0.0 
0.0 0.0 0.0 
0.0 0.0 0.0 
0.0 0.0 0.0 
0.0 0.0 0.0 
0.0 0.0 0.0 
0.0 0.0 0.0 
0.0 0.0 0.0 
0.0 0.0 0.0 
0.0 0.0 0.0 
0.0 0.0 0.0 
0.0 0.0 0.0 
0.0 0.0 0.0 
0.0 0.0 0.0 
0.0 0.0 0.0 
0.0 0.0 0.0 
0.0 0.0 0.0 
0.0 0.0 0.0 
0.0 0.0 0.0 
0.0 0.0 0.0 
0.0 0.0 0.0 
0.0 0.0 0.0 
0.0 0.0 0.0 
0.0 0.0 0.0 
0.0 0.0 0.0 
0.0 0.0 0.0 
0.0 0.0 0.0 
0.0 0.0 0.0 
0.0 0.0 0.0 
0.0 0.0 0.0 
0.0 0.0 0.0 
0.0 0.0 0.0 
0.0 0.0 0.0 
0.0 0.0 0.0 
0.0 0.0 0.0 
0.0 0.0 0.0 
0.0 0.0 0.0 
0.0 0.0 0.0 
0.0 0.0 0.0 
0.0 0.0 0.0 
0.0 0.0 0.0 
0.0 0.0 0.0 
0.0 0.0 0.0 
0.0 0.0 0.0 
0.0 0.0 0.0 
0.0 0.0 0.0 
0.0 0.0 0.0 
0.0 0.0 0.0 
0.0 0.0 0.0 
0.0 0.0 0.0 
0.0 0.0 0.0 
0.0 0.0 0.0 
0.0 0.0 0.0 
0.0 0.0 0.0 
0.0 0.0 0.0 
0.0 0.0 0.0 
0.0 0.0 0.0 
0.0 0.0 0.0 
0.0 0.0 0.0 
0.0 0.0 0.0 
0.0 0.0 0.0 
0.0 0.0 0.0 
0.0 0.0 0.0 
0.0 0.0 0.0 
0.0 0.0 0.0 
0.0 0.0 0.0 
0.0 0.0 0.0 
0.0 0.0 0.0 
0.0 0.0 0.0 
0.0 0.0 0.0 
0.0 0.0 0.0 
0.0 0.0 0.0 
0.0 0.0 0.0 
0.0 0.0 0.0 
0.0 0.0 0.0 
0.0 0.0 0.0 
0.0 0.0 0.0 
0.0 0.0 0.0 
0.0 0.0 0.0 
0.0 0.0 0.0 
0.0 0.0 0.0 
0.0 0.0 0.0 
0.0 0.0 0.0 
0.0 0.0 0.0 
0.0 0.0 0.0 
0.0 0.0 0.0 
0.0 0.0 0.0 
0.0 0.0 0.0 
0.0 0.0 0.0 
0.0 0.0 0.0 
0.0 0.0 0.0 
0.0 0.0 0.0 
0.0 0.0 0.0 
0.0 0.0 0.0 
0.0 0.0 0.0 
0.0 0.0 0.0 
0.0 0.0 0.0 
0.0 0.0 0.0 
0.0 0.0 0.0 
0.0 0.0 0.0 
0.0 0.0 0.0 
0.0 0.0 0.0 
0.0 0.0 0.0 
0.0 0.0 0.0 
0.0 0.0 0.0 
0.0 0.0 0.0 
0.0 0.0 0.0 
0.0 0.0 0.0 
0.0 0.0 0.0 
0.0 0.0 0.0 
0.0 0.0 0.0 
0.0 0.0 0.0 
0.0 0.0 0.0 
0.0 0.0 0.0 
0.0 0.0 0.0 
0.0 0.0 0.0 
0.0 0.0 0.0 
0.0 0.0 0.0 
0.0 0.0 0.0 
0.0 0.0 0.0 
0.0 0.0 0.0 
0.0 0.0 0.0 
0.0 0.0 0.0 
0.0 0.0 0.0 
0.0 0.0 0.0 
0.0 0.0 0.0 
0.0 0.0 0.0 
0.0 0.0 0.0 
0.0 0.0 0.0 
0.0 0.0 0.0 
0.0 0.0 0.0 
0.0 0.0 0.0 
0.0 0.0 0.0 
0.0 0.0 0.0 
0.0 0.0 0.0 
0.0 0.0 0.0 
0.0 0.0 0.0 
0.0 0.0 0.0 
0.0 0.0 0.0 
0.0 0.0 0.0 
0.0 0.0 0.0 
0.0 0.0 0.0 
0.0 0.0 0.0 
0.0 0.0 0.0 
0.0 0.0 0.0 
0.0 0.0 0.0 
0.0 0.0 0.0 
0.0 0.0 0.0 
0.0 0.0 0.0 
0.0 0.0 0.0 
0.0 0.0 0.0 
0.0 0.0 0.0 
0.0 0.0 0.0 
0.0 0.0 0.0 
0.0 0.0 0.0 
0.0 0.0 0.0 
0.0 0.0 0.0 
0.0 0.0 0.0 
0.0 0.0 0.0 
0.0 0.0 0.0 
0.0 0.0 0.0 
0.0 0.0 0.0 
0.0 0.0 0.0 
0.0 0.0 0.0 
0.0 0.0 0.0 
0.0 0.0 0.0 
0.0 0.0 0.0 
0.0 0.0 0.0 
0.0 0.0 0.0 
0.0 0.0 0.0 
0.0 0.0 0.0 
0.0 0.0 0.0 
0.0 0.0 0.0 
0.0 0.0 0.0 
0.0 0.0 0.0 
0.0 0.0 0.0 
0.0 0.0 0.0 
0.0 0.0 0.0 
0.0 0.0 0.0 
0.0 0.0 0.0 
0.0 0.0 0.0 
0.0 0.0 0.0 
0.0 0.0 0.0 
0.0 0.0 0.0 
0.0 0.0 0.0 
0.0 0.0 0.0 
0.0 0.0 0.0 
0.0 0.0 0.0 
0.0 0.0 0.0 
0.0 0.0 0.0 
0.0 0.0 0.0 
0.0 0.0 0.0 
0.0 0.0 0.0 
0.0 0.0 0.0 
0.0 0.0 0.0 
0.0 0.0 0.0 
0.0 0.0 0.0 
0.0 0.0 0.0 
0.0 0.0 0.0 
0.0 0.0 0.0 
0.0 0.0 0.0 
0.0 0.0 0.0 
0.0 0.0 0.0 
0.0 0.0 0.0 
0.0 0.0 0.0 
0.0 0.0 0.0 
0.0 0.0 0.0 
0.0 0.0 0.0 
0.0 0.0 0.0 
0.0 0.0 0.0 
0.0 0.0 0.0 
0.0 0.0 0.0 
0.0 0.0 0.0 
0.0 0.0 0.0 
0.0 0.0 0.0 

VECTORS node_materi_velocity float
0.0 -1.177493761500e-04 0.0 
0.0 1.485565700257e-03 0.0 
0.0 0.0 0.0 
0.0 0.0 0.0 
0.0 -1.178056621079e-04 0.0 
0.0 -1.171377831313e-04 0.0 
0.0 -1.155037160733e-04 0.0 
0.0 -1.127082983362e-04 0.0 
0.0 -1.084345319787e-04 0.0 
0.0 -1.028152354447e-04 0.0 
0.0 -9.591814420449e-05 0.0 
0.0 -8.781437431753e-05 0.0 
0.0 -7.870654080877e-05 0.0 
0.0 -6.881125496193e-05 0.0 
0.0 -5.841005278873e-05 0.0 
0.0 -4.788829872015e-05 0.0 
0.0 -3.756795746781e-05 0.0 
0.0 -2.765544542597e-05 0.0 
0.0 -1.867263598605e-05 0.0 
0.0 -1.097063144758e-05 0.0 
0.0 -4.876770694971e-06 0.0 
0.0 -8.486963007299e-07 0.0 
0.0 6.934006303541e-07 0.0 
0.0 0.0 0.0 
0.0 0.0 0.0 
0.0 0.0 0.0 
0.0 0.0 0.0 
0.0 0.0 0.0 
0.0 0.0 0.0 
0.0 0.0 0.0 
0.0 0.0 0.0 
0.0 0.0 0.0 
0.0 0.0 0.0 
0.0 0.0 0.0 
0.0 0.0 0.0 
0.0 0.0 0.0 
0.0 0.0 0.0 
0.0 0.0 0.0 
0.0 0.0 0.0 
0.0 0.0 0.0 
0.0 0.0 0.0 
0.0 0.0 0.0 
0.0 0.0 0.0 
0.0 0.0 0.0 
0.0 0.0 0.0 
0.0 0.0 0.0 
0.0 0.0 0.0 
0.0 0.0 0.0 
0.0 0.0 0.0 
0.0 0.0 0.0 
0.0 0.0 0.0 
0.0 0.0 0.0 
0.0 0.0 0.0 
0.0 0.0 0.0 
0.0 0.0 0.0 
0.0 0.0 0.0 
0.0 0.0 0.0 
0.0 0.0 0.0 
0.0 0.0 0.0 
0.0 0.0 0.0 
0.0 0.0 0.0 
0.0 0.0 0.0 
0.0 0.0 0.0 
0.0 0.0 0.0 
0.0 0.0 0.0 
0.0 0.0 0.0 
0.0 0.0 0.0 
0.0 0.0 0.0 
0.0 0.0 0.0 
0.0 0.0 0.0 
0.0 0.0 0.0 
0.0 0.0 0.0 
0.0 1.333798813001e-03 0.0 
0.0 1.182196449573e-03 0.0 
0.0 1.030984734234e-03 0.0 
0.0 8.803059326399e-04 0.0 
0.0 7.304410811891e-04 0.0 
0.0 5.815545223621e-04 0.0 
0.0 4.338800535779e-04 0.0 
0.0 2.876226233219e-04 0.0 
0.0 1.429961463082e-04 0.0 
-3.042138416558e-04 4.824480786377e-04 0.0 
2.556961997479e-04 1.444370937433e-03 0.0 
-2.565400462492e-04 6.612625645213e-04 0.0 
-2.005270458317e-04 9.503724044434e-04 0.0 
-6.854124938049e-05 1.461980278080e-03 0.0 
1.140478385422e-04 1.716102909385e-03 0.0 
2.168383626929e-04 1.790634808935e-03 0.0 
2.696175241996e-04 1.794041182027e-03 0.0 
2.913573530039e-04 1.748545327465e-03 0.0 
2.925610629975e-04 1.669002051368e-03 0.0 
2.792453603042e-04 1.565228135371e-03 0.0 
0.0 2.549293418610e-03 0.0 
0.0 2.394585334278e-03 0.0 
0.0 2.243060789555e-03 0.0 
0.0 2.091927971904e-03 0.0 
0.0 1.940603867958e-03 0.0 
0.0 1.789067894591e-03 0.0 
0.0 1.637367670167e-03 0.0 
1.404154985423e-05 1.485716856991e-03 0.0 
2.820599846450e-05 1.486171993588e-03 0.0 
4.255040187749e-05 1.486843087628e-03 0.0 
5.715421479482e-05 1.487673154902e-03 0.0 
7.209197288425e-05 1.488455505309e-03 0.0 
8.734236264572e-05 1.489058218897e-03 0.0 
1.030697796606e-04 1.489422917651e-03 0.0 
1.193049362674e-04 1.489184115590e-03 0.0 
1.361484294027e-04 1.488281596811e-03 0.0 
1.537275691879e-04 1.486346491559e-03 0.0 
1.720836546681e-04 1.482943449913e-03 0.0 
1.913755065513e-04 1.477607530083e-03 0.0 
2.116638261128e-04 1.469884555132e-03 0.0 
2.330497901609e-04 1.459028649724e-03 0.0 
-2.799140205310e-04 3.795144427415e-04 0.0 
-2.482432599621e-04 2.877239821324e-04 0.0 
-2.149606424249e-04 2.100208447727e-04 0.0 
-1.818106104337e-04 1.453250053796e-04 0.0 
-1.522790744374e-04 9.184140556883e-05 0.0 
-1.258685213890e-04 4.800987557534e-05 0.0 
-1.024112288412e-04 1.218934462681e-05 0.0 
-8.200518419272e-05 -1.703107695859e-05 0.0 
-6.446651855120e-05 -4.057969417973e-05 0.0 
-4.970357880956e-05 -5.935448585467e-05 0.0 
-3.752055810558e-05 -7.447245643388e-05 0.0 
-2.752330357707e-05 -8.607429503953e-05 0.0 
-1.978778123145e-05 -9.524259692680e-05 0.0 
-1.358826709755e-05 -1.023141147161e-04 0.0 
-8.963207085148e-06 -1.077392784339e-04 0.0 
-5.662946126594e-06 -1.116663312938e-04 0.0 
-3.415011025182e-06 -1.144584385024e-04 0.0 
-1.915281435439e-06 -1.163822957877e-04 0.0 
-8.348542928809e-07 -1.173811732258e-04 0.0 
-1.011909938444e-04 1.755191298851e-03 0.0 
-2.908342179999e-05 1.934999748072e-03 0.0 
-2.910887342286e-06 2.070352788463e-03 0.0 
2.548276699161e-05 2.175465617512e-03 0.0 
5.276680170587e-05 2.260016915967e-03 0.0 
7.661443325187e-05 2.326566509451e-03 0.0 
9.661399376792e-05 2.379761623067e-03 0.0 
1.125496160192e-04 2.421682007931e-03 0.0 
1.246062007713e-04 2.454778950735e-03 0.0 
1.330194417996e-04 2.480588394300e-03 0.0 
1.380973806466e-04 2.500559026310e-03 0.0 
1.401602509890e-04 2.515777872667e-03 0.0 
1.395383459281e-04 2.527193697139e-03 0.0 
1.365568776785e-04 2.535568530422e-03 0.0 
1.315206393312e-04 2.541536132398e-03 0.0 
1.247058056845e-04 2.545613426084e-03 0.0 
1.163629302832e-04 2.548232215863e-03 0.0 
1.067237917504e-04 2.549751581708e-03 0.0 
9.601106684907e-05 2.550468409835e-03 0.0 
8.445368569420e-05 2.550626959617e-03 0.0 
7.231736899454e-05 2.550425086243e-03 0.0 
5.996217112642e-05 2.550004337019e-03 0.0 
4.794878540688e-05 2.549362848013e-03 0.0 
3.710203560417e-05 2.548021185869e-03 0.0 
2.214365659654e-05 2.548388113423e-03 0.0 
1.624852498383e-05 2.395571530232e-03 0.0 
3.128296288860e-05 2.397114835260e-03 0.0 
4.518867549893e-05 2.398165234864e-03 0.0 
5.852239418639e-05 2.398873116350e-03 0.0 
7.144428723123e-05 2.399445731599e-03 0.0 
8.391171132599e-05 2.399852690725e-03 0.0 
9.580347594117e-05 2.399944447594e-03 0.0 
1.069720616597e-04 2.399508521905e-03 0.0 
1.172609763993e-04 2.398280141331e-03 0.0 
1.265087557775e-04 2.395936974686e-03 0.0 
1.345492412799e-04 2.392088878297e-03 0.0 
1.412125534291e-04 2.386264252673e-03 0.0 
1.463297244255e-04 2.377889705336e-03 0.0 
1.497390056811e-04 2.366261349534e-03 0.0 
1.513009775531e-04 2.350514873750e-03 0.0 
1.509116576600e-04 2.329594807734e-03 0.0 
1.485455956919e-04 2.302209078483e-03 0.0 
1.442667101754e-04 2.266767888795e-03 0.0 
1.383395959141e-04 2.221249607883e-03 0.0 
1.312141909529e-04 2.163120998394e-03 0.0 
1.238523988683e-04 2.088822578707e-03 0.0 
1.176602879663e-04 1.994469519538e-03 0.0 
1.131854237410e-04 1.873500571461e-03 0.0 
2.057872935802e-04 1.896717502059e-03 0.0 
1.986928431363e-04 1.979665741951e-03 0.0 
1.926694302024e-04 2.044731130368e-03 0.0 
1.879065595720e-04 2.095963163385e-03 0.0 
1.835366364860e-04 2.135941551147e-03 0.0 
1.790743737719e-04 2.167000054991e-03 0.0 
1.741292674248e-04 2.190850373986e-03 0.0 
1.684814770295e-04 2.208937369698e-03 0.0 
1.620040733120e-04 2.222413430606e-03 0.0 
1.546477418879e-04 2.232231250100e-03 0.0 
1.464122078997e-04 2.239166285547e-03 0.0 
1.373333470304e-04 2.243854409914e-03 0.0 
1.274692693114e-04 2.246814352829e-03 0.0 
1.168915581980e-04 2.248472710196e-03 0.0 
1.056782610727e-04 2.249181160212e-03 0.0 
9.390799916841e-05 2.249228195504e-03 0.0 
8.165271521758e-05 2.248844716472e-03 0.0 
6.896618305880e-05 2.248200975644e-03 0.0 
5.586941195307e-05 2.247389154228e-03 0.0 
4.234767365450e-05 2.246389829065e-03 0.0 
2.841360316593e-05 2.245101696409e-03 0.0 
1.419843979884e-05 2.243828360708e-03 0.0 
1.407724767695e-05 2.092345117208e-03 0.0 
2.836219122585e-05 2.093473871788e-03 0.0 
4.256712948781e-05 2.094726846307e-03 0.0 
5.656451362658e-05 2.095866116101e-03 0.0 
7.030714833493e-05 2.096861385205e-03 0.0 
8.378464335869e-05 2.097675687372e-03 0.0 
9.698888731206e-05 2.098199780489e-03 0.0 
1.099044495359e-04 2.098252183122e-03 0.0 
1.225105579014e-04 2.097582640244e-03 0.0 
1.347873934123e-04 2.095872528355e-03 0.0 
1.467242113615e-04 2.092727416511e-03 0.0 
1.583262113055e-04 2.087663060949e-03 0.0 
1.696221288590e-04 2.080086021111e-03 0.0 
1.806719238758e-04 2.069260970169e-03 0.0 
1.915908430505e-04 2.054292177625e-03 0.0 
2.025444169322e-04 2.034068015342e-03 0.0 
2.138056019227e-04 2.007262040717e-03 0.0 
2.256907962020e-04 1.972142786630e-03 0.0 
2.387315947075e-04 1.926892507012e-03 0.0 
2.528251754071e-04 1.868790688526e-03 0.0 
2.717804169949e-04 1.798880068670e-03 0.0 
2.541604351056e-04 1.838073226572e-03 0.0 
2.373940145955e-04 1.868456945251e-03 0.0 
2.216825384418e-04 1.891815137399e-03 0.0 
2.067046968768e-04 1.909383330868e-03 0.0 
1.922769570054e-04 1.922380057324e-03 0.0 
1.782149721225e-04 1.931720344563e-03 0.0 
1.644005646400e-04 1.938209650756e-03 0.0 
1.507372890904e-04 1.942482341758e-03 0.0 
1.371535457659e-04 1.945060989726e-03 0.0 
1.235957043814e-04 1.946374377511e-03 0.0 
1.100290128771e-04 1.946773991431e-03 0.0 
9.642983538100e-05 1.946540458416e-03 0.0 
8.277468970973e-05 1.945889784473e-03 0.0 
6.904713090752e-05 1.944981089237e-03 0.0 
5.523857515819e-05 1.943922874581e-03 0.0 
4.136842711849e-05 1.942796594907e-03 0.0 
2.750742573437e-05 1.941714002551e-03 0.0 
1.373859804131e-05 1.940891349150e-03 0.0 
1.409533541707e-05 1.789318755360e-03 0.0 
2.830766335206e-05 1.790004513342e-03 0.0 
4.263108751342e-05 1.790979961286e-03 0.0 
5.704606900081e-05 1.792064090573e-03 0.0 
7.154414262105e-05 1.793108525359e-03 0.0 
8.614483727167e-05 1.793992666049e-03 0.0 
1.008670190233e-04 1.794586499322e-03 0.0 
1.157656042922e-04 1.794690178226e-03 0.0 
1.308895036106e-04 1.794069237942e-03 0.0 
1.462939614917e-04 1.792403168178e-03 0.0 
1.620619090545e-04 1.789282604321e-03 0.0 
1.782910546668e-04 1.784226025787e-03 0.0 
1.950945585416e-04 1.776641283912e-03 0.0 
2.126055680327e-04 1.765825069745e-03 0.0 
2.309413408202e-04 1.750820127999e-03 0.0 
2.503121424632e-04 1.730686215289e-03 0.0 
2.705974148920e-04 1.704011973397e-03 0.0 
2.571052033225e-04 1.587899468026e-03 0.0 
2.364605722989e-04 1.604873121618e-03 0.0 
2.165748043722e-04 1.617498264942e-03 0.0 
1.977151384349e-04 1.626738520805e-03 0.0 
1.797275908427e-04 1.633233562243e-03 0.0 
1.625107261836e-04 1.637574036803e-03 0.0 
1.459465338672e-04 1.640243887154e-03 0.0 
1.299300393768e-04 1.641645288410e-03 0.0 
1.143819141121e-04 1.642160641751e-03 0.0 
9.924729484624e-05 1.642058735346e-03 0.0 
8.442908312090e-05 1.641496312242e-03 0.0 
6.989188939695e-05 1.640715531209e-03 0.0 
5.558179295556e-05 1.639790205182e-03 0.0 
4.146711896873e-05 1.638859416039e-03 0.0 
2.753816440113e-05 1.638077732823e-03 0.0 
1.375388096291e-05 1.637551498479e-03 0.0 
-2.765436935016e-04 5.634810927526e-04 0.0 
-2.349946119828e-04 7.848186736774e-04 0.0 
-1.520684900957e-04 1.209428292853e-03 0.0 
3.879496771842e-05 1.615471340275e-03 0.0 
1.761182489009e-04 1.763888390843e-03 0.0 
2.488755179682e-04 1.799124827852e-03 0.0 
2.839846627819e-04 1.776100862535e-03 0.0 
2.942859573419e-04 1.712223961753e-03 0.0 
2.875813928528e-04 1.619549366792e-03 0.0 
2.685723575460e-04 1.506518095035e-03 0.0 
-1.157474049081e-04 7.829698779562e-04 0.0 
7.001280711901e-05 2.592113237046e-05 0.0 
-3.840126619346e-05 -5.512143938088e-05 0.0 
-1.212838101331e-04 1.097098442277e-04 0.0 
4.515879266512e-05 1.084446130452e-05 0.0 
1.955588556064e-04 1.499495056986e-03 0.0 
1.412056214364e-05 -6.326785588345e-05 0.0 
8.647555951060e-05 4.532790246012e-05 0.0 
3.122220360210e-04 1.660021615163e-03 0.0 
8.859993103204e-05 6.673042353843e-05 0.0 
3.233217121763e-04 1.573383467660e-03 0.0 
2.495367019931e-05 4.397478375191e-06 0.0 
-8.662724107138e-06 -1.014489284895e-04 0.0 
8.002361332369e-05 9.005935858511e-05 0.0 
2.780630222965e-04 1.367267740424e-03 0.0 
8.960765617315e-06 -9.914245542352e-05 0.0 
1.498855132367e-05 -3.427054462651e-05 0.0 
6.934781206734e-05 1.072070924719e-04 0.0 
4.608799759078e-05 1.132302426077e-04 0.0 
1.292499663202e-05 1.217049710318e-04 0.0 
2.398194099339e-05 1.308231712147e-04 0.0 
3.216429239725e-05 1.149141758504e-04 0.0 
2.244469737440e-04 1.329088791532e-03 0.0 
1.453962248015e-04 1.349156861103e-03 0.0 
9.467518509268e-05 1.347542830407e-03 0.0 
8.854756796046e-06 8.029602079739e-04 0.0 
1.510446724122e-05 2.219840233693e-06 0.0 
-1.944662977156e-04 3.268980344834e-04 0.0 
-1.179557463755e-06 -1.137675824453e-04 0.0 
1.050141015475e-05 -7.996323242177e-06 0.0 
4.838777939020e-05 1.356060096441e-03 0.0 
4.165362717906e-06 -1.142068496456e-04 0.0 
6.434484514368e-05 1.259723081945e-04 0.0 
8.241555387497e-05 5.153341325101e-05 0.0 
8.481258951692e-05 7.784319535025e-05 0.0 
8.433126433563e-05 3.741700801832e-05 0.0 
5.711497179780e-05 1.772971753790e-05 0.0 
-7.992741207122e-05 2.166308067548e-05 0.0 
1.830345228300e-04 1.351234184997e-03 0.0 
4.060580978919e-05 8.104281646655e-06 0.0 
6.654051381371e-06 5.138596173033e-04 0.0 
-2.025859306584e-05 -8.382197755767e-05 0.0 
1.223321900360e-05 -8.319564150334e-05 0.0 
6.525196070036e-06 9.895371322677e-05 0.0 
2.737433095748e-04 1.618858719945e-03 0.0 
4.817447373611e-05 1.169226945784e-03 0.0 
3.270002558099e-04 1.636977156590e-03 0.0 
3.056814065431e-04 1.480739321886e-03 0.0 
-2.047666014145e-04 5.567424648914e-04 0.0 
1.086260823373e-05 1.088472221085e-03 0.0 
6.814235162326e-06 1.104848427849e-06 0.0 
-1.191334544467e-07 -1.171875499869e-04 0.0 
3.614860393465e-06 2.257656232689e-04 0.0 
2.652736762011e-04 1.301445581503e-03 0.0 
2.832200299992e-04 1.225904913993e-03 0.0 
2.593871993177e-04 1.173305111025e-03 0.0 
2.803250242116e-04 1.086521770230e-03 0.0 
2.569586893559e-04 1.020465394288e-03 0.0 
2.723303364255e-04 9.441087176481e-04 0.0 
2.984671184680e-04 1.005493337536e-03 0.0 
2.862588064857e-04 8.664760708762e-04 0.0 
3.147290321018e-04 9.243603357712e-04 0.0 
2.454684836212e-04 8.773651007678e-04 0.0 
2.977507668845e-04 7.881009097896e-04 0.0 
3.284372594353e-04 8.421243986904e-04 0.0 
3.063006737938e-04 7.097872212397e-04 0.0 
3.388177920747e-04 7.594795181893e-04 0.0 
3.579343001126e-04 8.904928019347e-04 0.0 
3.699983821338e-04 8.034419484315e-04 0.0 
3.856528405665e-04 9.318610925852e-04 0.0 
3.991436611260e-04 8.395998916105e-04 0.0 
3.778342723001e-04 7.173576587966e-04 0.0 
4.079516511141e-04 7.486254573242e-04 0.0 
4.256909361637e-04 8.670424036609e-04 0.0 
4.349587260359e-04 7.706499342255e-04 0.0 
4.489484648615e-04 8.843637826281e-04 0.0 
4.581032428533e-04 7.819387002015e-04 0.0 
4.683549253285e-04 8.902716928656e-04 0.0 
4.767090721180e-04 7.818654442640e-04 0.0 
4.610637081581e-04 6.834306672602e-04 0.0 
4.784226936972e-04 6.788827344076e-04 0.0 
4.897173961507e-04 7.695129638051e-04 0.0 
4.895929083731e-04 6.626354812730e-04 0.0 
4.960570302722e-04 7.442866688364e-04 0.0 
4.935847113815e-04 6.345952217166e-04 0.0 
4.829107729510e-04 5.642238845817e-04 0.0 
4.847678520326e-04 5.354742812727e-04 0.0 
4.894743240048e-04 5.954010242349e-04 0.0 
4.786130218425e-04 4.976217852932e-04 0.0 
4.765723125143e-04 5.466206911766e-04 0.0 
4.642216517535e-04 4.522936161886e-04 0.0 
4.547597409421e-04 4.903893885231e-04 0.0 
4.416850675185e-04 4.012296586239e-04 0.0 
4.478993161177e-04 3.705783072766e-04 0.0 
4.254125664165e-04 3.247881374162e-04 0.0 
4.116980254190e-04 3.469376470664e-04 0.0 
3.965530736991e-04 2.770421357538e-04 0.0 
4.064716977241e-04 2.601996824810e-04 0.0 
3.791052404668e-04 2.185330263911e-04 0.0 
3.853189196504e-04 2.060605247829e-04 0.0 
3.597156393618e-04 1.698760593965e-04 0.0 
3.476998090405e-04 1.772925291282e-04 0.0 
3.305631800188e-04 1.341418538594e-04 0.0 
3.387587229552e-04 1.298088757448e-04 0.0 
3.117760558668e-04 9.886829853666e-05 0.0 
2.987752166014e-04 9.967000269939e-05 0.0 
2.827464653798e-04 6.926549915979e-05 0.0 
2.918784941154e-04 7.052625164290e-05 0.0 
2.652317717042e-04 4.492107689053e-05 0.0 
2.525399293161e-04 4.150808442204e-05 0.0 
2.376329341217e-04 2.101609975947e-05 0.0 
2.468479765732e-04 2.596051811921e-05 0.0 
2.214606137823e-04 5.148508634612e-06 0.0 
2.096799304665e-04 -1.000512004776e-06 0.0 
1.959321021047e-04 -1.387444576428e-05 0.0 
2.044689162354e-04 -6.680249318620e-06 0.0 
1.809919517394e-04 -2.335040096442e-05 0.0 
1.866577581473e-04 -1.528861473602e-05 0.0 
1.703168163091e-04 -3.133722599966e-05 0.0 
1.576227042846e-04 -3.852793300350e-05 0.0 
1.454197266629e-04 -4.693909354641e-05 0.0 
1.348655516347e-04 -5.213138602089e-05 0.0 
4.703783500585e-04 4.752153380760e-04 0.0 
1.221129602763e-04 -6.043840512635e-05 0.0 
1.296675284311e-04 -5.439243896311e-05 0.0 
1.132366152347e-04 -6.411105222172e-05 0.0 
1.229807024769e-04 -5.523820559883e-05 0.0 
1.004130814168e-04 -7.213125582223e-05 0.0 
9.301311772533e-05 -7.454247328774e-05 0.0 
8.061861794440e-05 -8.209471173396e-05 0.0 
4.629031174547e-04 5.953519373142e-04 0.0 
3.807735550601e-04 6.331925416035e-04 0.0 
7.446928038266e-05 -8.350429497159e-05 0.0 
6.295643204066e-05 -9.045031421413e-05 0.0 
6.618860590047e-05 -8.834273822376e-05 0.0 
4.997006571936e-05 -9.599123473141e-05 0.0 
2.319195390736e-04 9.527914238959e-04 0.0 
2.180331544445e-04 8.077370205547e-04 0.0 
2.067855975349e-04 8.820586579692e-04 0.0 
1.904337488827e-04 7.363865245993e-04 0.0 
1.814150531281e-04 8.083644578468e-04 0.0 
4.752763878973e-05 -9.736799020708e-05 0.0 
2.728325316748e-04 6.512270291309e-04 0.0 
1.975328845227e-04 6.632936405711e-04 0.0 
4.339748160573e-04 9.891348855430e-04 0.0 
4.913204484476e-04 8.632354020129e-04 0.0 
4.060341003747e-04 2.412877673236e-04 0.0 
8.406703344175e-05 -7.537059560781e-05 0.0 
6.666715799440e-05 -8.356073612040e-05 0.0 
7.377056080621e-05 -7.491798128153e-05 0.0 
2.074908425076e-04 3.792718435335e-07 0.0 
1.870932263884e-04 -7.526932305291e-06 0.0 
2.046615382016e-04 6.832619887975e-06 0.0 
1.821659493659e-04 -4.326192144456e-07 0.0 
1.958825807731e-04 1.230808831625e-05 0.0 
1.718403036225e-04 5.635571502809e-06 0.0 
1.599552547253e-04 -5.413849116146e-06 0.0 
1.485142733364e-04 1.059085269221e-06 0.0 
1.382655703960e-04 -8.554235908994e-06 0.0 
1.811707644857e-04 1.644448783826e-05 0.0 
2.070520259862e-04 2.489684041321e-05 0.0 
1.261371838787e-04 -1.863847724039e-06 0.0 
1.173198843183e-04 -1.024987281257e-05 0.0 
1.049298285854e-04 -3.525308563462e-06 0.0 
9.734492971497e-05 -1.082834936114e-05 0.0 
1.064103802439e-04 -1.879916902018e-05 0.0 
8.758716810686e-05 -1.837813109116e-05 0.0 
9.390461043142e-05 -2.729961279904e-05 0.0 
3.816382234678e-04 1.915703974844e-04 0.0 
3.956445368588e-04 2.203277359702e-04 0.0 
3.683469513814e-04 1.751176900608e-04 0.0 
3.754593543861e-04 1.973135997937e-04 0.0 
3.455998844788e-04 1.567136055311e-04 0.0 
3.456371922968e-04 1.723805699305e-04 0.0 
3.134518104301e-04 1.364093251975e-04 0.0 
3.145374118429e-04 1.232398165566e-04 0.0 
3.116202431069e-04 6.310399600741e-04 0.0 
3.756404730602e-04 2.916802544291e-04 0.0 
3.861814104254e-04 3.664874357064e-04 0.0 
3.429570751805e-04 3.041619273078e-04 0.0 
3.477413611907e-04 3.830134788414e-04 0.0 
2.976679470151e-04 3.143818334461e-04 0.0 
2.950416637335e-04 3.967460521245e-04 0.0 
2.388669909597e-04 3.231146018911e-04 0.0 
2.467053020663e-04 2.510738375204e-04 0.0 
1.845663705218e-04 2.571183099212e-04 0.0 
1.972374965310e-04 1.941425288266e-04 0.0 
1.346450931251e-04 1.988576042690e-04 0.0 
1.509471138488e-04 1.439063234777e-04 0.0 
4.577701413850e-04 5.905089299014e-04 0.0 
3.762695723828e-04 2.157014143727e-04 0.0 
3.392012597329e-04 1.837181304576e-04 0.0 
3.702687451324e-04 2.289817445603e-04 0.0 
5.025832623062e-05 -9.308332416812e-05 0.0 
7.852608925075e-05 -1.054784878929e-05 0.0 
1.872894092716e-04 2.660095016955e-05 0.0 
2.150674879082e-04 3.682893165063e-05 0.0 
2.803778547447e-04 1.068198996374e-04 0.0 
3.627173257214e-05 -1.021431574276e-04 0.0 
2.268425928238e-04 4.085677115965e-04 0.0 
2.883487846100e-04 4.946531254377e-04 0.0 
1.633089339134e-04 6.621817232263e-04 0.0 
1.564994908157e-04 7.326633075004e-04 0.0 
1.895209657616e-04 3.561329061939e-05 0.0 
3.437102086195e-05 -1.030347826527e-04 0.0 
1.323036091007e-04 6.071010218676e-06 0.0 
1.120302100572e-04 2.646633768813e-04 0.0 
6.969280968051e-05 -1.721111083146e-05 0.0 
6.103816706972e-05 -9.621145449847e-06 0.0 
1.461449201328e-04 -1.635704509497e-05 0.0 
3.259152690863e-04 1.897394855189e-04 0.0 
3.580106738923e-04 2.368110750625e-04 0.0 
2.054472053109e-04 1.416223484747e-04 0.0 
1.623160307179e-04 9.827943242601e-05 0.0 
1.089716916118e-04 1.000896114456e-04 0.0 
1.243601131148e-04 5.939036894376e-05 0.0 
1.696626698212e-04 6.050419877420e-05 0.0 
1.331094216109e-04 2.800007373999e-05 0.0 
8.958259002234e-05 2.699170343904e-05 0.0 
1.003684964392e-04 9.179390761090e-08 0.0 
1.386106704306e-04 2.344431227372e-06 0.0 
1.079157275000e-04 -2.151414427974e-05 0.0 
7.161229098256e-05 -2.329446597893e-05 0.0 
8.088010952564e-05 -4.154243991306e-05 0.0 
6.684044605296e-05 -4.177651903886e-06 0.0 
6.452202137811e-05 2.058711754353e-04 0.0 
3.681991983620e-04 1.023876362859e-03 0.0 
1.612066741291e-04 2.638863148982e-05 0.0 
2.725931485035e-04 1.146958795509e-04 0.0 
1.370571530903e-04 5.862880204255e-04 0.0 
1.323531841859e-04 6.554563818675e-04 0.0 
1.480674432979e-04 8.036250125645e-04 0.0 
1.258717919330e-04 7.248135471645e-04 0.0 
1.093232026961e-04 5.771060845931e-04 0.0 
1.047361198195e-04 6.454337881687e-04 0.0 
1.179950339621e-04 7.942937767864e-04 0.0 
9.856676538368e-05 7.138327464840e-04 0.0 
1.089982444901e-04 8.635871477381e-04 0.0 
9.110331906661e-05 7.821356796371e-04 0.0 
8.031813306012e-05 6.329879188468e-04 0.0 
7.428387842358e-05 7.006397507368e-04 0.0 
8.260751726980e-05 8.504011030859e-04 0.0 
6.705090559447e-05 7.682986544124e-04 0.0 
7.328399020233e-05 9.184862156727e-04 0.0 
5.881109947571e-05 8.359046628913e-04 0.0 
5.265534924879e-05 6.863421828508e-04 0.0 
2.551799792522e-05 -1.068864744662e-04 0.0 
2.828572575299e-04 9.600901733761e-05 0.0 
2.469575712334e-04 8.284677203507e-05 0.0 
5.785772192441e-05 -8.241849712086e-05 0.0 
6.282235397300e-05 -7.328442799091e-05 0.0 
7.892793862009e-05 -6.540596568408e-05 0.0 
6.555892283746e-05 -6.361640944560e-05 0.0 
4.521448415303e-05 7.542015215716e-04 0.0 
3.962328424383e-05 6.047893567883e-04 0.0 
2.104237955384e-04 5.100243623473e-04 0.0 
2.774476227358e-04 6.115913491276e-04 0.0 
1.395624979335e-04 5.174025953715e-04 0.0 
5.289468300132e-05 -1.552079782677e-05 0.0 
5.906881119415e-05 -2.404616106493e-05 0.0 
4.926507272740e-04 8.279276069723e-04 0.0 
4.826814767677e-04 9.595049062048e-04 0.0 
4.786529647654e-04 9.138794577955e-04 0.0 
4.622672110204e-04 1.060903682257e-03 0.0 
4.642011591456e-04 1.098013729472e-03 0.0 
4.518921676641e-04 1.003407639503e-03 0.0 
2.336805859255e-04 3.614272017989e-05 0.0 
6.349713911483e-05 5.521510108159e-04 0.0 
6.726762479982e-05 -8.445873291015e-05 0.0 
4.809721956977e-05 -8.837262955538e-05 0.0 
4.505440553086e-05 -8.323465321266e-06 0.0 
3.099228075669e-04 1.070986378501e-04 0.0 
4.359595982054e-04 5.876306795568e-04 0.0 
4.276337142143e-04 5.037258561548e-04 0.0 
4.011661283201e-04 4.938065872316e-04 0.0 
3.877536063690e-04 4.185000731260e-04 0.0 
3.564249759125e-04 4.018228415392e-04 0.0 
3.376170351879e-04 3.348963936801e-04 0.0 
3.689681295575e-04 3.496434362022e-04 0.0 
3.053960580630e-04 1.893262735598e-04 0.0 
3.136194190632e-04 2.740460978028e-04 0.0 
5.053146283903e-05 9.048477299545e-04 0.0 
4.049171855820e-04 2.671651876819e-04 0.0 
1.408034519458e-04 -1.792950765315e-05 0.0 
2.519211653492e-05 -1.050892617741e-04 0.0 
4.634212137342e-05 -4.264725166488e-05 0.0 
2.357369346925e-05 -1.074435397297e-04 0.0 
3.056089649901e-05 -1.027372584952e-04 0.0 
1.572820417491e-04 3.226174785969e-05 0.0 
3.012050268912e-04 3.115991816355e-04 0.0 
3.205814865069e-04 3.764172494413e-04 0.0 
4.364532093292e-04 1.215024903768e-03 0.0 
4.375595570857e-04 1.239343434580e-03 0.0 
2.711786647280e-04 1.490831340490e-04 0.0 
1.940323238920e-04 9.572600914789e-04 0.0 
1.277111510975e-04 9.447563219267e-04 0.0 
1.163327159471e-04 1.014603750046e-03 0.0 
1.630013636050e-05 -1.106990216423e-04 0.0 
3.400508051202e-05 -2.278668232371e-05 0.0 
8.780558764788e-05 4.982277163039e-04 0.0 
3.461382402675e-04 5.879995764364e-04 0.0 
3.391670153088e-04 7.204388611587e-04 0.0 
3.174843922169e-05 2.748555791171e-04 0.0 
-1.070878666749e-05 2.158814910428e-04 0.0 
3.345696145118e-05 6.706005449551e-04 0.0 
2.836694921046e-05 5.233605071665e-04 0.0 
8.175029154123e-05 -5.543262129528e-05 0.0 
6.679074542359e-05 -5.342950201008e-05 0.0 
1.871687228498e-04 4.296035723942e-05 0.0 
5.771177451580e-05 -5.820595186169e-05 0.0 
3.241371865708e-05 4.570084338033e-04 0.0 
2.797706632409e-04 8.236701447623e-05 0.0 
3.002194491184e-04 8.880278204631e-05 0.0 
4.980638335517e-05 -7.118529721060e-05 0.0 
1.877990875658e-04 6.304705615790e-04 0.0 
1.152307081221e-04 5.242727342725e-04 0.0 
1.724491427986e-04 6.031350430704e-06 0.0 
8.661077169078e-05 -5.562076594127e-05 0.0 
2.009103524631e-05 -1.070049242924e-04 0.0 
1.481051748162e-04 3.588866936170e-05 0.0 
8.863359901411e-05 4.311951661192e-04 0.0 
3.451504635276e-04 2.882647485393e-04 0.0 
3.945654015055e-04 3.565171568991e-04 0.0 
2.850708304816e-04 2.200543666646e-04 0.0 
2.765143235355e-05 -5.873799020997e-05 0.0 
1.289159650302e-04 2.393219947069e-05 0.0 
3.738537375584e-05 -1.345554733166e-05 0.0 
2.630537707258e-04 2.850593070256e-04 0.0 
2.807938029348e-04 3.433516425197e-04 0.0 
3.957773483296e-04 6.832785032548e-04 0.0 
3.909048496008e-04 8.294668526311e-04 0.0 
3.268991469920e-04 8.806980112680e-04 0.0 
3.763780102322e-04 9.997826574176e-04 0.0 
3.236006683086e-04 1.063122816247e-03 0.0 
4.350240958056e-04 7.742397603533e-04 0.0 
3.922209149833e-04 1.063014296236e-03 0.0 
3.700727880727e-04 1.159214101448e-03 0.0 
3.898200146511e-04 1.196580625991e-03 0.0 
4.589538008237e-04 1.118353986218e-03 0.0 
4.319732306986e-04 1.248363777495e-03 0.0 
3.935737127604e-04 4.553329651381e-04 0.0 
4.210016081478e-04 2.744125571737e-04 0.0 
9.623343869013e-05 -5.655208817255e-05 0.0 
1.122460131726e-04 -2.770627879477e-05 0.0 
2.271956887110e-04 1.693016620409e-05 0.0 
6.666765639460e-05 4.853088169366e-04 0.0 
5.023175358840e-05 4.051836971760e-04 0.0 
8.859661855735e-05 1.001195057575e-03 0.0 
7.756633811999e-05 1.069555887912e-03 0.0 
3.353584404660e-05 -9.617355890844e-05 0.0 
2.840908993248e-05 -9.039348527508e-05 0.0 
1.683159695070e-04 -2.122731998399e-05 0.0 
1.343238012469e-04 1.947007858121e-05 0.0 
1.124213164157e-04 4.416496516199e-04 0.0 
1.100228344299e-04 3.745746464728e-04 0.0 
1.393894735410e-04 4.487912831750e-04 0.0 
1.794705204539e-04 4.804823414715e-05 0.0 
3.355702498916e-04 2.381508962735e-04 0.0 
3.556261699742e-04 1.503415515484e-04 0.0 
2.374690833563e-05 1.557807816460e-04 0.0 
4.628806436556e-04 4.946691546494e-04 0.0 
1.681305557597e-05 -9.746176665617e-05 0.0 
3.474430563363e-04 5.985649595469e-04 0.0 
3.081195268115e-05 -6.728089352841e-06 0.0 
3.568540887271e-05 -2.818927039616e-06 0.0 
2.432184054184e-04 1.419635845905e-04 0.0 
3.018854046449e-04 1.286255859697e-03 0.0 
4.465839804040e-04 4.150263037089e-04 0.0 
4.529078933354e-04 3.963612608009e-04 0.0 
3.637041892802e-04 1.295588718556e-03 0.0 
3.787039755866e-04 1.331622499133e-03 0.0 
4.067873566370e-04 1.225144788271e-03 0.0 
3.904540601225e-04 1.359706604224e-03 0.0 
1.692726152663e-04 -1.292150925867e-05 0.0 
1.398815591240e-04 -3.354510092001e-05 0.0 
2.324911956509e-04 2.208732799096e-04 0.0 
2.494777987877e-04 2.015208807697e-04 0.0 
2.208476466433e-04 2.491187125604e-04 0.0 
2.379685208445e-04 3.022639794023e-04 0.0 
2.059234308379e-04 1.072956302539e-04 0.0 
2.350017911864e-04 1.150195012289e-04 0.0 
2.497287866783e-05 -1.015869230736e-04 0.0 
4.047153275355e-04 1.376415784302e-03 0.0 
6.715256428801e-05 3.527536210948e-04 0.0 
3.461630291979e-04 1.252934534077e-03 0.0 
1.032165537518e-04 1.770124510473e-05 0.0 
1.092720481706e-04 1.413093006844e-05 0.0 
-4.628743113183e-05 1.658572174589e-04 0.0 
-9.904937781626e-06 1.064666191746e-04 0.0 
2.207549112875e-05 3.795421007786e-04 0.0 
3.059909716314e-04 1.070184934512e-03 0.0 
3.491362165655e-04 1.190008029225e-03 0.0 
2.421631782964e-04 9.238717140448e-04 0.0 
4.706661016329e-06 5.316595295192e-07 0.0 
2.086490257697e-05 1.357040682590e-03 0.0 
2.313714118833e-05 -1.834267963725e-06 0.0 
4.477076101140e-04 1.123648376988e-03 0.0 
2.370778189745e-05 3.082220395019e-04 0.0 
4.258612177376e-04 3.454708649596e-04 0.0 
4.850008554236e-04 7.789350396364e-04 0.0 
2.183052704992e-04 5.686515700898e-05 0.0 
1.807847382938e-05 4.574705070713e-04 0.0 
1.324508289591e-05 2.963434702396e-04 0.0 
1.336980795235e-04 1.093817988118e-03 0.0 
1.208309749011e-04 1.166501497664e-03 0.0 
1.469908817461e-04 1.025252159959e-03 0.0 
8.385775305198e-05 3.428444353617e-04 0.0 
-1.795032043821e-05 3.676138594578e-04 0.0 
4.833395704593e-05 4.714422369230e-04 0.0 
5.096693378767e-05 -9.061086245597e-05 0.0 
4.242408905515e-05 -8.842619266255e-05 0.0 
6.356591260235e-05 -6.974909144029e-05 0.0 
8.856291906441e-05 -6.614203179756e-05 0.0 
9.832556487683e-05 -4.658556960199e-05 0.0 
1.141079730937e-04 -4.682124100731e-05 0.0 
3.440300818074e-04 5.205243017249e-04 0.0 
3.074799514359e-04 4.829185701416e-04 0.0 
4.090865929895e-04 5.751623112090e-04 0.0 
2.717901880010e-04 6.684013745706e-05 0.0 
2.862140178927e-04 6.930493658473e-05 0.0 
3.125385214118e-04 9.374782719072e-05 0.0 
5.079385682154e-05 3.439242086526e-04 0.0 
3.375540094622e-05 2.527238470863e-04 0.0 
2.004771889523e-04 1.098416712267e-05 0.0 
2.062760261505e-04 3.380940679067e-05 0.0 
1.631664257729e-04 -2.761069669039e-05 0.0 
6.425803574260e-05 2.897121488014e-04 0.0 
2.555120475228e-05 5.726016394166e-07 0.0 
3.806191637702e-05 4.449123317041e-07 0.0 
9.544744807309e-06 -9.073141545070e-05 0.0 
2.092704981732e-05 -8.202852400886e-05 0.0 
7.883647670470e-05 6.449305871299e-04 0.0 
6.453595029618e-06 5.399474820245e-04 0.0 
1.059161597314e-04 3.136281646209e-04 0.0 
1.363809021640e-04 3.820336919679e-04 0.0 
7.483326329781e-05 2.344895697446e-04 0.0 
1.458274983812e-05 -1.060657176118e-04 0.0 
3.697869306770e-04 2.945186883873e-04 0.0 
1.366092642302e-04 3.835490043453e-05 0.0 
1.696456943634e-04 5.170199113443e-05 0.0 
9.980437800473e-05 2.601865504489e-05 0.0 
2.801847045329e-04 1.840055714065e-04 0.0 
2.118835321519e-04 1.299102210399e-04 0.0 
2.132447308303e-04 1.528240592934e-04 0.0 
-8.658364986940e-05 2.269855978790e-04 0.0 
9.984096284301e-06 3.564636918440e-04 0.0 
9.243131073329e-05 1.152921725551e-03 0.0 
-1.072980325288e-04 1.837664503341e-04 0.0 
7.990989315955e-05 1.226807711996e-03 0.0 
6.646639652066e-05 1.138803248696e-03 0.0 
6.920152823985e-05 1.299875169081e-03 0.0 
1.170902926219e-05 -1.103871933698e-04 0.0 
1.528123282951e-04 1.200031001237e-03 0.0 
1.679430872093e-04 1.110954732378e-03 0.0 
-4.715693387704e-06 -8.084901259818e-05 0.0 
4.331695533774e-05 2.135477330098e-04 0.0 
2.196707148278e-06 -9.673774354943e-05 0.0 
8.944379711819e-06 -1.025341891894e-04 0.0 
7.900274778226e-05 1.255020033141e-05 0.0 
8.618759929278e-05 1.030368028290e-05 0.0 
5.754301353569e-05 9.094307361401e-06 0.0 
6.686132659961e-05 7.807535356203e-06 0.0 
8.971286683874e-05 6.589322410841e-06 0.0 
6.975645706085e-05 4.658880884601e-06 0.0 
1.087329260446e-04 1.249373923342e-03 0.0 
4.580051660493e-05 5.691333347390e-06 0.0 
5.164286058783e-05 3.501562059955e-06 0.0 
3.022889371909e-05 3.679167035197e-06 0.0 
3.579739620939e-04 1.468732213352e-03 0.0 
4.062954549744e-04 1.098551131564e-03 0.0 
3.742605410149e-04 1.283670570724e-03 0.0 
3.038032986073e-04 1.404823564034e-03 0.0 
1.607531212688e-04 1.853138092669e-04 0.0 
1.964716976494e-04 2.601896004252e-04 0.0 
2.329834393421e-05 -1.104314573851e-05 0.0 
2.658639480361e-05 -1.876265803928e-05 0.0 
5.502483133081e-05 1.219107925895e-03 0.0 
4.019882177388e-05 1.225112259406e-03 0.0 
4.358548644735e-05 1.086841284764e-03 0.0 
3.148598184534e-05 1.103268764883e-03 0.0 
3.373728716985e-05 9.679698516010e-04 0.0 
2.174571324804e-05 9.850470189882e-04 0.0 
2.552723478350e-05 8.500601237036e-04 0.0 
1.710641147703e-04 1.300748592238e-04 0.0 
2.037908723500e-04 1.122550580962e-03 0.0 
3.360068943968e-04 1.392187701226e-03 0.0 
1.670077253830e-04 7.817663047821e-05 0.0 
2.031765564273e-04 9.008425231003e-05 0.0 
4.002673762912e-04 1.374062658811e-03 0.0 
3.672166081244e-04 1.510467913110e-03 0.0 
8.565826470871e-05 1.800479775650e-05 0.0 
4.357107373520e-04 6.417916238061e-04 0.0 
3.246474249018e-05 1.344591533848e-04 0.0 
-2.184069675320e-04 4.156440572779e-04 0.0 
-1.241718745596e-04 3.667590048959e-04 0.0 
4.651954924777e-04 7.170416041025e-04 0.0 
4.210023520398e-04 1.243373553191e-03 0.0 
4.258564308148e-04 1.170771577797e-03 0.0 
3.945067849482e-04 1.336868726022e-03 0.0 
2.494881887291e-04 6.283643305773e-05 0.0 
9.686130711494e-06 -7.077863689407e-05 0.0 
1.614994217925e-04 7.750789127062e-04 0.0 
3.719234892537e-05 8.352853800835e-04 0.0 
3.042484497378e-05 7.803441032013e-04 0.0 
1.219082846714e-05 -1.494245962462e-05 0.0 
4.324258314058e-04 5.272832591678e-04 0.0 
4.688009119449e-04 1.002528183703e-03 0.0 
2.622832490134e-04 7.516187767548e-04 0.0 
4.301096147557e-04 9.272001808273e-04 0.0 
3.423510342759e-04 9.775343571845e-04 0.0 
3.035107825468e-04 1.146241225929e-03 0.0 
3.247617319775e-04 1.203973270532e-03 0.0 
4.240477709196e-04 4.299657181804e-04 0.0 
4.035446185350e-04 1.365701335577e-03 0.0 
3.522739752111e-04 1.507166633947e-03 0.0 
4.113430632592e-04 9.652546162683e-04 0.0 
1.702634060029e-04 5.212383217478e-04 0.0 
1.692357815308e-04 4.514990318254e-04 0.0 
1.308003493963e-04 3.201393499319e-04 0.0 
1.647904099776e-04 3.843793654794e-04 0.0 
2.034398581149e-04 5.194824157908e-04 0.0 
2.012173595000e-04 4.493693549599e-04 0.0 
1.565176491022e-04 3.204317725639e-04 0.0 
1.951709688160e-04 3.814017312752e-04 0.0 
1.319241773354e-04 2.329626284647e-04 0.0 
1.829994256322e-04 3.131231175820e-04 0.0 
2.347580326175e-04 4.421895183567e-04 0.0 
2.268439137202e-04 3.764330854919e-04 0.0 
1.744454971117e-04 2.657398107736e-04 0.0 
2.753478479376e-04 5.057094061813e-04 0.0 
1.317790695109e-04 6.542634229811e-05 0.0 
4.837175247270e-04 6.559371988363e-04 0.0 
-5.299012752955e-05 2.892139364834e-04 0.0 
-8.912076358398e-05 4.432411721258e-04 0.0 
4.532767489077e-04 1.002095754593e-03 0.0 
6.415956856212e-05 1.116190452542e-04 0.0 
5.232971339371e-05 1.147685407430e-04 0.0 
3.486643579130e-04 4.767177704737e-04 0.0 
8.270304208427e-05 8.369067623279e-05 0.0 
3.473747365270e-04 1.114928770699e-03 0.0 
1.663920452060e-04 3.322517481948e-04 0.0 
8.811516835140e-05 7.327713716434e-05 0.0 
2.020680726024e-04 5.906878802798e-04 0.0 
2.343516718344e-04 6.602837253598e-04 0.0 
2.273613006859e-04 7.341040079197e-04 0.0 
3.997711618253e-05 1.099565523661e-04 0.0 
1.596610228401e-04 9.546909504895e-04 0.0 
8.204384762917e-05 4.696495210715e-05 0.0 
4.035535723941e-04 2.459563609701e-04 0.0 
4.294977126204e-04 3.038689736044e-04 0.0 
4.437170910783e-04 3.381470132476e-04 0.0 
2.386544121284e-04 5.150347931526e-04 0.0 
7.372061133491e-05 2.962106887687e-05 0.0 
1.321282643182e-04 5.130913591535e-05 0.0 
1.234584303036e-04 4.358892341949e-05 0.0 
1.837166609868e-04 6.823845289416e-05 0.0 
6.395711556984e-05 2.181445764972e-05 0.0 
6.759637674366e-05 9.353554742733e-05 0.0 
6.849757045990e-05 8.503759600832e-05 0.0 
1.726278488469e-04 3.027054490516e-05 0.0 
2.095330630958e-04 6.246345543896e-05 0.0 
2.417889932355e-04 6.524605867916e-05 0.0 
2.480705836027e-04 9.906307778102e-05 0.0 
2.093735086947e-04 9.815872177651e-05 0.0 
2.510867025378e-04 1.403444393003e-04 0.0 
2.870758864425e-04 1.394945741897e-04 0.0 
2.505392128059e-04 1.906536568909e-04 0.0 
2.557581393925e-04 3.682665004652e-04 0.0 
5.225343323799e-05 1.500530797979e-05 0.0 
2.203937558444e-04 2.154455997173e-05 0.0 
2.450506638200e-04 3.387049949409e-05 0.0 
2.493576417328e-04 3.034157831289e-05 0.0 
1.100634499838e-04 -5.657510014351e-05 0.0 
1.293536798856e-04 -4.581665189948e-05 0.0 
1.320844700558e-04 -3.623143288422e-05 0.0 
9.142012215647e-05 -6.628808526997e-05 0.0 
4.136765235702e-04 4.265596677376e-04 0.0 
4.762552530700e-05 1.250393980402e-05 0.0 
3.283719305890e-04 1.164466323904e-04 0.0 
1.439116366333e-04 -4.319854778984e-05 0.0 
2.034251562878e-04 1.341201384268e-03 0.0 
2.135518320200e-04 1.206281598963e-03 0.0 
2.344427234517e-04 1.193792413037e-03 0.0 
2.189345428929e-04 1.051641543790e-03 0.0 
1.897847551384e-04 1.196463306831e-03 0.0 
8.225806493264e-05 -4.529589169062e-05 0.0 
6.611763850948e-05 -4.318400014917e-05 0.0 
5.148128834720e-05 -5.072101464130e-05 0.0 
5.007104873386e-05 -4.044028794995e-05 0.0 
3.609471559555e-05 -4.741510055976e-05 0.0 
3.709455082469e-05 -5.758532300645e-05 0.0 
3.397516423811e-05 -3.720700959152e-05 0.0 
2.099636583739e-05 -4.477805178316e-05 0.0 
1.635579651998e-04 1.351961784058e-03 0.0 
-9.834058966667e-05 6.169839069475e-05 0.0 
-4.743058726668e-05 3.555209673854e-05 0.0 
-3.760955010647e-05 5.726166484232e-07 0.0 
-5.710734650532e-06 1.384824968443e-05 0.0 
-7.577942469334e-06 5.049232940814e-05 0.0 
3.991439733227e-05 2.794654094161e-05 0.0 
3.365408417611e-05 6.896403485674e-05 0.0 
-5.942082145739e-05 8.032062013708e-05 0.0 
-6.390841513621e-05 -9.641543762210e-06 0.0 
-2.797136540214e-05 -2.710749546937e-05 0.0 
-5.006464652518e-05 -3.503667092563e-05 0.0 
-2.100751070984e-05 -4.867305920194e-05 0.0 
8.362152468455e-06 -4.147425419888e-05 0.0 
4.411666130129e-05 -8.123655027471e-05 0.0 
1.329182706849e-05 1.861412807462e-06 0.0 
1.335365331581e-05 -7.362161139532e-05 0.0 
2.516746875731e-05 -7.803161048435e-05 0.0 
2.293308838910e-05 -8.685503811875e-05 0.0 
3.715636920503e-05 -8.128648557986e-05 0.0 
2.588049083848e-05 -6.911365887548e-05 0.0 
1.074376399556e-05 -9.174252539022e-05 0.0 
2.007958349883e-05 -9.407139652938e-05 0.0 
-3.870888932068e-07 -1.158386628093e-04 0.0 
2.337509207239e-06 -1.163364974346e-04 0.0 
9.579122211196e-07 -1.173941833795e-04 0.0 
4.095571856563e-06 -1.159250080995e-04 0.0 
6.393201235295e-06 -1.147396871631e-04 0.0 
3.107182439373e-06 -1.147642639316e-04 0.0 
3.380128997334e-06 -1.125473072167e-04 0.0 
-2.710031105565e-06 -1.108142479544e-04 0.0 
3.130246927287e-06 -1.094618080074e-04 0.0 
1.058993636887e-05 -1.106513758493e-04 0.0 
-5.151316213102e-06 -1.068547854634e-04 0.0 
8.151546408232e-06 6.548531046909e-04 0.0 
1.543295942891e-05 5.813584882216e-04 0.0 
4.095989040096e-05 8.983137906209e-06 0.0 
1.263437494193e-04 1.343216603039e-03 0.0 
-2.805558413830e-05 -7.128887341713e-05 0.0 
1.226699721114e-05 1.464456281903e-04 0.0 
1.876870673133e-05 1.209069457989e-04 0.0 
1.504487898437e-05 1.172745420045e-04 0.0 
7.726591507310e-06 -2.591135434306e-06 0.0 
1.254761892826e-05 -5.830909861434e-07 0.0 
6.727965648396e-06 1.425221416060e-04 0.0 
8.480220994903e-05 -7.906857045576e-05 0.0 
1.216668853541e-04 2.612779157068e-04 0.0 
3.499168627044e-05 3.906903736416e-04 0.0 
1.444027506192e-04 4.201322621895e-04 0.0 
1.129000927153e-04 -5.120680355592e-05 0.0 
4.218173389853e-05 -2.159980924631e-05 0.0 
1.259981544085e-04 -1.819348271907e-05 0.0 
5.036485081848e-05 -3.624839951876e-06 0.0 
7.613058709902e-05 -2.598824062368e-05 0.0 
8.509641492483e-05 -4.210590803271e-06 0.0 
1.174150615893e-04 3.718371677521e-05 0.0 
1.528745764640e-05 -1.108139925906e-04 0.0 
9.911714194210e-05 9.325506322915e-04 0.0 
6.386491241828e-05 9.870494962186e-04 0.0 
5.875914140497e-05 6.192245370731e-04 0.0 
5.780082893139e-05 -9.111686310718e-05 0.0 
5.199615957119e-05 -6.046599858779e-05 0.0 
3.618450550833e-05 -9.991010367485e-05 0.0 
1.577841054316e-04 1.470258578854e-04 0.0 
4.134239406365e-04 1.094481776655e-03 0.0 
2.274726633152e-04 1.130055822775e-05 0.0 
1.029355494396e-04 -6.594388859320e-05 0.0 
1.061474716909e-04 -6.775067306681e-05 0.0 
1.120804376494e-04 -3.837762463886e-05 0.0 
4.945311814958e-04 7.061416265904e-04 0.0 
1.652925208909e-04 -2.985854898023e-05 0.0 
1.561799744514e-04 1.032945288339e-05 0.0 
4.473246706150e-05 5.380359110055e-04 0.0 
-1.192762861408e-05 -9.452922646568e-05 0.0 
1.606292962919e-04 1.894181226504e-05 0.0 
1.665864629375e-04 -1.293959406449e-05 0.0 
1.384055600555e-04 8.745499568901e-04 0.0 
3.062862233513e-04 1.457711696668e-04 0.0 
6.022178925305e-05 -1.046970822255e-06 0.0 
8.495591480132e-05 5.657036282591e-04 0.0 
8.417357440092e-05 3.076187027776e-04 0.0 
1.808415528679e-04 1.033195498994e-03 0.0 
2.190329682379e-05 -1.023534269888e-04 0.0 
1.047985023683e-04 1.086190386703e-03 0.0 
1.182804380899e-04 2.651636301296e-05 0.0 
1.680405802178e-04 5.913742188649e-04 0.0 
4.314429827820e-05 -9.750680921695e-05 0.0 
3.624167520554e-04 1.611044095180e-04 0.0 
4.828467839557e-04 8.833249549842e-04 0.0 
2.935296694495e-04 1.425663196226e-03 0.0 
3.610332920072e-05 3.301224779887e-04 0.0 
4.706378581364e-04 4.477478761145e-04 0.0 
2.374017152203e-04 8.878740624550e-05 0.0 
3.396152118774e-04 1.377037963449e-04 0.0 
3.724245218288e-05 -9.644066340611e-05 0.0 
1.114739397702e-04 9.268083443170e-06 0.0 
4.282683774904e-04 3.004367251167e-04 0.0 
6.813581200178e-05 4.197336705238e-04 0.0 
3.699502363090e-04 4.745607262266e-04 0.0 
3.627917722428e-04 2.293689984833e-04 0.0 
1.120159876437e-04 5.091912674275e-04 0.0 
2.709428988069e-04 4.791779761472e-05 0.0 
2.922268560443e-04 1.501674024757e-04 0.0 
4.322519829601e-04 1.114673908107e-03 0.0 
4.384190775312e-04 6.770425110384e-04 0.0 
3.457056927864e-04 6.787618171276e-04 0.0 
4.736491366437e-04 5.826888056943e-04 0.0 
2.869464461156e-05 -2.783501856336e-05 0.0 
1.352658797987e-04 1.328914766919e-05 0.0 
9.033810946082e-05 1.494389204439e-04 0.0 
4.638734365585e-04 8.526429437575e-04 0.0 
1.709231186296e-04 8.811352499861e-04 0.0 
2.788973526431e-04 2.549934472410e-04 0.0 
4.782556833133e-05 2.745457176621e-04 0.0 
4.789648637828e-04 9.885996949669e-04 0.0 
1.098583768052e-04 3.284887607614e-06 0.0 
8.769821886247e-05 3.690629135963e-04 0.0 
1.489269538840e-04 -3.400976639981e-05 0.0 
5.770585049935e-06 -1.104375596446e-04 0.0 
5.113453404052e-05 4.346381658203e-04 0.0 
2.970014181060e-04 2.451645294866e-04 0.0 
4.631271431555e-04 4.123507498737e-04 0.0 
1.497214337551e-04 -2.494150332189e-05 0.0 
9.332314584100e-05 2.357950239663e-04 0.0 
8.899533466903e-05 1.548371157557e-06 0.0 
2.188980391604e-04 4.760271132677e-05 0.0 
-1.655523524883e-04 6.547769313194e-04 0.0 
3.207479462800e-04 1.340474642290e-03 0.0 
6.992056694215e-05 6.264515769414e-07 0.0 
3.380918955021e-04 1.240925923213e-04 0.0 
2.575905810287e-04 1.176666893359e-04 0.0 
2.251957737719e-05 -5.416647471783e-05 0.0 
1.628710880135e-04 1.371248120051e-04 0.0 
3.664114048183e-04 1.490744705335e-03 0.0 
5.278153743655e-05 3.101942002128e-07 0.0 
2.509096466585e-04 7.408287806187e-05 0.0 
3.967737380232e-04 5.595534552731e-04 0.0 
3.464720170216e-05 1.357440010509e-03 0.0 
3.345820439159e-05 2.897058989311e-06 0.0 
2.119659664481e-04 6.336200849256e-05 0.0 
4.484291970093e-04 5.042673458200e-04 0.0 
3.163983538042e-04 9.704106448882e-05 0.0 
3.165831588256e-04 1.530184973922e-03 0.0 
1.309517788971e-04 -2.696116784072e-05 0.0 
4.115339819280e-04 6.603998153118e-04 0.0 
3.443125333164e-05 1.084204334901e-04 0.0 
2.035715744028e-04 6.850286416504e-05 0.0 
2.572738379418e-04 8.049424375936e-04 0.0 
1.148917643002e-04 -3.708552048613e-05 0.0 
4.003531315937e-04 2.836529473541e-04 0.0 
8.442588714793e-06 -1.130932267785e-04 0.0 
3.482621344677e-04 1.433102992727e-03 0.0 
9.754679572172e-05 -3.672404010643e-05 0.0 
2.934120154789e-04 1.873552236643e-04 0.0 
2.930773056767e-04 7.066965085151e-05 0.0 
1.744695114159e-04 9.600036327066e-05 0.0 
8.038274680836e-05 -3.538142251115e-05 0.0 
3.257997729836e-04 1.830309536638e-04 0.0 
6.351882801746e-05 -3.330904416596e-05 0.0 
3.281395132041e-04 1.608187042061e-03 0.0 
2.662896955192e-04 7.260291983656e-04 0.0 
4.650329490347e-05 -3.073708761664e-05 0.0 
3.782835071373e-04 5.521053191943e-04 0.0 
1.261959997199e-05 -1.071739157865e-04 0.0 
4.336052669744e-04 4.257041247776e-04 0.0 
1.811584467984e-05 -4.715625531474e-06 0.0 
1.549195355677e-04 -3.893532391957e-05 0.0 
2.693750627896e-04 4.996269736758e-05 0.0 
2.381702400070e-04 5.867920902456e-04 0.0 
3.214893457852e-04 1.656612902022e-03 0.0 
2.602798753893e-04 5.074819911323e-05 0.0 
3.351075516634e-04 4.468126625057e-04 0.0 
4.136772270920e-04 3.556257092048e-04 0.0 
4.519882999386e-04 3.706940979231e-04 0.0 
2.434402319958e-04 5.001886636294e-05 0.0 
3.652990557115e-04 1.507686088149e-03 0.0 
8.654820995986e-05 -7.428289637073e-05 0.0 
6.644044197520e-05 -7.848856883503e-05 0.0 
3.134486169836e-04 1.373909432769e-04 0.0 
2.965116202617e-04 4.107587781353e-04 0.0 
8.866764968809e-06 -1.135192774216e-04 0.0 
2.757277531455e-04 5.757932357004e-04 0.0 
3.712806070933e-05 -7.143075030538e-05 0.0 
2.778372148454e-04 9.996795198832e-05 0.0 
3.371749318564e-04 2.363245822190e-04 0.0 
9.847866503670e-06 9.472457449732e-04 0.0 
2.662219981923e-04 6.760615529981e-05 0.0 
7.221231716627e-06 -1.054218765548e-04 0.0 
2.330968180036e-04 3.800228990400e-05 0.0 
4.309249509326e-04 3.274556262795e-04 0.0 
2.224281800331e-04 1.619475866165e-05 0.0 
1.923071681069e-04 -6.975111895040e-06 0.0 
2.416994515886e-05 2.512024965614e-04 0.0 
1.821912301725e-04 -2.086718910109e-05 0.0 
3.372717528830e-06 1.179197154784e-04 0.0 
5.482106867838e-06 1.292579885012e-06 0.0 
1.298757303554e-05 1.243144076791e-03 0.0 
2.842057875420e-04 1.678635672914e-03 0.0 
-1.685750833659e-04 2.410798193031e-04 0.0 
3.451500838516e-04 1.433960542056e-03 0.0 
1.359004658167e-04 -4.542938239003e-05 0.0 
3.126044512541e-04 5.564899128865e-04 0.0 
2.699663158775e-05 1.236407392182e-03 0.0 
1.102818857274e-04 -6.098990568048e-05 0.0 
1.264736498983e-04 1.955031044215e-04 0.0 
8.357826217056e-05 5.723751219291e-05 0.0 
1.752926304015e-05 7.203643299362e-04 0.0 
2.250831496512e-04 9.253055000579e-05 0.0 
3.876796040439e-04 2.918827859211e-04 0.0 
4.966102015123e-06 3.710915000588e-04 0.0 
8.082087872232e-05 1.370376648699e-03 0.0 
-1.453617518049e-05 -6.606693853913e-05 0.0 
1.380967925981e-05 -2.354694879493e-05 0.0 
2.202205803956e-04 1.606322166904e-03 0.0 
2.603953409637e-04 1.279563691982e-03 0.0 
1.157356822694e-04 9.424576621995e-04 0.0 
2.919615550225e-05 -9.525781243527e-05 0.0 
-1.950925137557e-06 -1.610174511209e-05 0.0 
1.358086728842e-04 1.363563193885e-03 0.0 
1.433555103377e-04 6.091244651790e-05 0.0 
1.360043737732e-04 1.232931083679e-03 0.0 
3.170539320446e-04 2.356734366404e-04 0.0 
-4.146739182962e-05 9.505141629930e-04 0.0 
6.034012622934e-05 2.368324281355e-04 0.0 
1.669228013034e-04 1.062102183634e-04 0.0 
2.824328537416e-05 5.184444959021e-06 0.0 
2.493170998701e-04 1.712734836308e-04 0.0 
-4.867932517406e-05 6.474633142285e-04 0.0 
2.001489142505e-04 1.089515246452e-03 0.0 
1.523306314170e-04 1.563724041655e-04 0.0 
2.359262747191e-05 6.022997845591e-04 0.0 
2.040833508436e-05 3.387890897857e-06 0.0 
1.718844073431e-04 1.241577497965e-03 0.0 
1.465520120308e-05 2.343097059804e-04 0.0 
5.321845779529e-05 1.087527885113e-04 0.0 
7.485652288802e-06 2.275268892195e-04 0.0 
2.680445658638e-04 4.340932689848e-04 0.0 
5.495372249146e-05 1.055554230138e-03 0.0 
2.411223728621e-04 1.078741714605e-03 0.0 
1.512032708161e-05 9.840326504632e-07 0.0 
1.091134614467e-04 2.100152738108e-04 0.0 
-1.045944258243e-04 5.331436203201e-04 0.0 
2.752436976218e-05 7.355847647739e-04 0.0 
5.020458214217e-05 -7.956106838569e-05 0.0 
-8.378488247908e-05 1.326400880821e-04 0.0 
7.077463366421e-05 1.352613685552e-05 0.0 
2.153038567218e-04 3.189051509558e-04 0.0 
2.535787482532e-05 1.994903370470e-06 0.0 
1.731226192676e-06 -1.163662553756e-04 0.0 
-5.720600727030e-06 -8.991923719190e-05 0.0 
8.028358118076e-05 1.909548062973e-05 0.0 
1.318830963633e-04 1.654285156405e-04 0.0 
8.026051460123e-05 5.711869474274e-05 0.0 
2.000157367230e-05 9.385574483661e-05 0.0 
-1.658713476868e-04 4.609324507738e-04 0.0 
1.107359193368e-04 1.386323310841e-03 0.0 
1.376796535487e-06 -1.056145137565e-04 0.0 
1.613743621463e-05 2.556744702745e-06 0.0 
3.527354748282e-05 2.229849523631e-04 0.0 
3.600415091156e-05 -7.291429447295e-05 0.0 
2.440119142953e-04 1.306646889844e-03 0.0 
1.699606432126e-05 -1.008326865316e-04 0.0 
2.196689115386e-04 1.863691567497e-04 0.0 
2.934123770095e-06 -5.803347836036e-05 0.0 
2.402821880934e-05 2.110226507071e-04 0.0 
9.413775070847e-05 2.742643529218e-05 0.0 
7.348413297912e-05 2.014627343153e-04 0.0 
5.994813338422e-05 2.864374944488e-05 0.0 
-1.259590558160e-04 2.877500312564e-04 0.0 
1.454939198904e-04 9.951044859272e-05 0.0 
1.601603912853e-04 5.375456318944e-05 0.0 
6.050614769377e-05 1.376195881802e-03 0.0 
9.361707051413e-05 2.109483184342e-04 0.0 
3.138725467072e-05 -8.890084045379e-05 0.0 
1.832925347512e-05 -1.085716021092e-04 0.0 
1.422194694323e-06 1.044430159422e-04 0.0 
-1.206317965099e-07 -1.176407455951e-04 0.0 
1.017111874373e-05 1.374544068000e-03 0.0 
2.128145375884e-06 8.975171899980e-07 0.0 
1.111073758105e-05 -1.128415753132e-04 0.0 
2.132665432992e-05 1.132954793846e-03 0.0 
1.201024617423e-04 1.660511520815e-04 0.0 
9.942558486474e-06 -5.276213738390e-05 0.0 
1.150744185552e-05 4.659865899370e-04 0.0 
2.528680871505e-05 -2.538911625319e-06 0.0 
-1.535070804554e-04 1.677252383022e-04 0.0 
1.687540320534e-05 8.724865385053e-04 0.0 
1.479832242080e-04 8.584011146739e-05 0.0 
5.636261447277e-05 1.960627091336e-04 0.0 
4.385724326377e-05 9.736073769066e-04 0.0 
-2.359448358317e-05 4.627821648884e-04 0.0 
1.690081743567e-04 2.349995427942e-04 0.0 
3.900509561539e-05 -6.516898750900e-05 0.0 
2.071678305146e-04 2.124385422187e-04 0.0 
1.811616696237e-04 7.367776883524e-05 0.0 
-2.321609720870e-04 4.941709131614e-04 0.0 
8.783668585860e-06 -4.256273819514e-05 0.0 
-1.392441783209e-06 -1.009013899211e-04 0.0 
4.671212419941e-05 6.933805681943e-06 0.0 
2.610457106046e-05 -6.133964337443e-05 0.0 
1.555877872555e-05 1.764693703436e-03 0.0 
9.767996482838e-06 2.471078659527e-03 0.0 
1.607580552751e-04 1.851792372538e-03 0.0 
7.499963874825e-06 2.319016354322e-03 0.0 
2.334017678989e-04 1.864031293877e-03 0.0 
6.941241698832e-06 2.167728208618e-03 0.0 
2.687805516282e-04 1.824329756236e-03 0.0 
6.849296270209e-06 2.016441252661e-03 0.0 
2.791498415274e-04 1.749787398434e-03 0.0 
6.864411521707e-06 1.864969550292e-03 0.0 
2.727894678126e-04 1.648443294075e-03 0.0 
6.850090301877e-06 1.713334938708e-03 0.0 
2.545044368921e-04 1.530680943391e-03 0.0 
6.840019216382e-06 1.561531553724e-03 0.0 

VECTORS node_materi_displacement float
0.0 1.196870759203e-02 0.0 
0.0 1.383386331483e-02 0.0 
0.0 0.0 0.0 
0.0 0.0 0.0 
0.0 1.195213467581e-02 0.0 
0.0 1.187831092671e-02 0.0 
0.0 1.174717058609e-02 0.0 
0.0 1.155808606920e-02 0.0 
0.0 1.130868324205e-02 0.0 
0.0 1.100016682508e-02 0.0 
0.0 1.063240989444e-02 0.0 
0.0 1.020445173318e-02 0.0 
0.0 9.715876577402e-03 0.0 
0.0 9.165478265249e-03 0.0 
0.0 8.551178259602e-03 0.0 
0.0 7.871971702767e-03 0.0 
0.0 7.127773352656e-03 0.0 
0.0 6.320797471588e-03 0.0 
0.0 5.444207699752e-03 0.0 
0.0 4.498330916506e-03 0.0 
0.0 3.482540528768e-03 0.0 
0.0 2.394327528108e-03 0.0 
0.0 1.232176773617e-03 0.0 
0.0 0.0 0.0 
0.0 0.0 0.0 
0.0 0.0 0.0 
0.0 0.0 0.0 
0.0 0.0 0.0 
0.0 0.0 0.0 
0.0 0.0 0.0 
0.0 0.0 0.0 
0.0 0.0 0.0 
0.0 0.0 0.0 
0.0 0.0 0.0 
0.0 0.0 0.0 
0.0 0.0 0.0 
0.0 0.0 0.0 
0.0 0.0 0.0 
0.0 0.0 0.0 
0.0 0.0 0.0 
0.0 0.0 0.0 
0.0 0.0 0.0 
0.0 0.0 0.0 
0.0 0.0 0.0 
0.0 0.0 0.0 
0.0 0.0 0.0 
0.0 0.0 0.0 
0.0 0.0 0.0 
0.0 0.0 0.0 
0.0 0.0 0.0 
0.0 0.0 0.0 
0.0 0.0 0.0 
0.0 0.0 0.0 
0.0 0.0 0.0 
0.0 0.0 0.0 
0.0 0.0 0.0 
0.0 0.0 0.0 
0.0 0.0 0.0 
0.0 0.0 0.0 
0.0 0.0 0.0 
0.0 0.0 0.0 
0.0 0.0 0.0 
0.0 0.0 0.0 
0.0 0.0 0.0 
0.0 0.0 0.0 
0.0 0.0 0.0 
0.0 0.0 0.0 
0.0 0.0 0.0 
0.0 0.0 0.0 
0.0 0.0 0.0 
0.0 0.0 0.0 
0.0 0.0 0.0 
0.0 1.272869609056e-02 0.0 
0.0 1.156041637454e-02 0.0 
0.0 1.032860486551e-02 0.0 
0.0 9.035516596231e-03 0.0 
0.0 7.679981860580e-03 0.0 
0.0 6.263823782110e-03 0.0 
0.0 4.787195031046e-03 0.0 
0.0 3.250538781336e-03 0.0 
0.0 1.654696797280e-03 0.0 
-1.035095432190e-03 1.469255993607e-02 0.0 
7.299728248657e-04 1.372832741730e-02 0.0 
-6.600524922590e-04 1.566386158555e-02 0.0 
-2.446618295881e-04 1.663142165960e-02 0.0 
1.911452233116e-04 1.735207111673e-02 0.0 
5.423090221774e-04 1.750562554362e-02 0.0 
7.420924555719e-04 1.730926299641e-02 0.0 
8.407664373345e-04 1.688843655803e-02 0.0 
8.717479694868e-04 1.629265894029e-02 0.0 
8.553305448313e-04 1.555358653766e-02 0.0 
8.044414549346e-04 1.469300642593e-02 0.0 
0.0 1.977184933866e-02 0.0 
0.0 1.911174173130e-02 0.0 
0.0 1.839531298847e-02 0.0 
0.0 1.760998793886e-02 0.0 
0.0 1.676471829379e-02 0.0 
0.0 1.584993274278e-02 0.0 
0.0 1.487583499662e-02 0.0 
4.083333075881e-05 1.383431841882e-02 0.0 
8.011973954241e-05 1.383557648407e-02 0.0 
1.207648684097e-04 1.383726281491e-02 0.0 
1.621469484375e-04 1.383823637515e-02 0.0 
2.039991259447e-04 1.384074644925e-02 0.0 
2.470645826145e-04 1.384115427498e-02 0.0 
2.917660577907e-04 1.384192011517e-02 0.0 
3.369914544540e-04 1.384049775369e-02 0.0 
3.855872647865e-04 1.383906988843e-02 0.0 
4.364611155092e-04 1.383319845880e-02 0.0 
4.893252169339e-04 1.382399083770e-02 0.0 
5.449696520390e-04 1.381097938206e-02 0.0 
6.032626788652e-04 1.379159297794e-02 0.0 
6.646837461219e-04 1.376399589564e-02 0.0 
-9.383701621650e-04 1.417300728104e-02 0.0 
-8.197019755566e-04 1.375515828789e-02 0.0 
-7.004214208086e-04 1.341319461366e-02 0.0 
-5.907134922467e-04 1.313493558745e-02 0.0 
-4.934312161334e-04 1.290932561062e-02 0.0 
-4.062624326479e-04 1.272242387424e-02 0.0 
-3.292706566084e-04 1.256762978847e-02 0.0 
-2.631955819104e-04 1.244023456522e-02 0.0 
-2.067551001387e-04 1.233596266153e-02 0.0 
-1.590694270655e-04 1.225209779473e-02 0.0 
-1.209671058238e-04 1.218272711880e-02 0.0 
-8.787396960490e-05 1.212951134315e-02 0.0 
-5.938852110947e-05 1.208416593029e-02 0.0 
-4.057925838210e-05 1.204767276844e-02 0.0 
-2.785363117946e-05 1.202100370683e-02 0.0 
-1.747193441884e-05 1.200101229829e-02 0.0 
-9.288028372805e-06 1.198600180434e-02 0.0 
-3.198759071487e-06 1.197605568553e-02 0.0 
-2.156975171028e-06 1.196916448190e-02 0.0 
1.592349452869e-04 1.792062947876e-02 0.0 
1.980846999311e-04 1.832132693328e-02 0.0 
2.307032787782e-04 1.863609340320e-02 0.0 
2.666513248961e-04 1.888626797691e-02 0.0 
3.007200486354e-04 1.908634411619e-02 0.0 
3.305524997845e-04 1.924632461264e-02 0.0 
3.548559657892e-04 1.937409648791e-02 0.0 
3.731463269573e-04 1.947550550743e-02 0.0 
3.853328939758e-04 1.955549541805e-02 0.0 
3.915743413019e-04 1.961790707373e-02 0.0 
3.921578413392e-04 1.966598415647e-02 0.0 
3.874674924223e-04 1.970238300147e-02 0.0 
3.779376395368e-04 1.972934964794e-02 0.0 
3.640322865970e-04 1.974875497865e-02 0.0 
3.462169189163e-04 1.976216663714e-02 0.0 
3.249443388256e-04 1.977089359809e-02 0.0 
3.006487989526e-04 1.977603471237e-02 0.0 
2.737495467026e-04 1.977851262727e-02 0.0 
2.446606879883e-04 1.977910184246e-02 0.0 
2.138086512160e-04 1.977845384965e-02 0.0 
1.816627558242e-04 1.977711737456e-02 0.0 
1.487839677489e-04 1.977553873461e-02 0.0 
1.158883269685e-04 1.977395925742e-02 0.0 
8.369641414648e-05 1.977178070443e-02 0.0 
4.572511744958e-05 1.976796530874e-02 0.0 
3.966773475221e-05 1.911755265542e-02 0.0 
7.808944936569e-05 1.911789333302e-02 0.0 
1.147786538223e-04 1.911994852804e-02 0.0 
1.504298528873e-04 1.912189818376e-02 0.0 
1.852715460418e-04 1.912386676336e-02 0.0 
2.192349163949e-04 1.912563283860e-02 0.0 
2.521179468934e-04 1.912676034477e-02 0.0 
2.836666816603e-04 1.912667494401e-02 0.0 
3.136133076998e-04 1.912467372842e-02 0.0 
3.416892857176e-04 1.911991247785e-02 0.0 
3.676318838034e-04 1.911137908040e-02 0.0 
3.911892790885e-04 1.909786010672e-02 0.0 
4.121321371799e-04 1.907789246621e-02 0.0 
4.302872842122e-04 1.904972247592e-02 0.0 
4.455395545535e-04 1.901123940610e-02 0.0 
4.579000829030e-04 1.895993293325e-02 0.0 
4.674638879026e-04 1.889271568338e-02 0.0 
4.746794402084e-04 1.880599519990e-02 0.0 
4.800413071246e-04 1.869500301025e-02 0.0 
4.850311262349e-04 1.855455737134e-02 0.0 
4.907715985502e-04 1.837597199116e-02 0.0 
5.017007656267e-04 1.815334064701e-02 0.0 
5.149832346285e-04 1.786882098150e-02 0.0 
6.988731873036e-04 1.755546181410e-02 0.0 
6.645893243006e-04 1.775471557536e-02 0.0 
6.311120377865e-04 1.791008546880e-02 0.0 
6.021355175773e-04 1.803517686820e-02 0.0 
5.748353369471e-04 1.813282073256e-02 0.0 
5.487858947290e-04 1.820957863537e-02 0.0 
5.228682187574e-04 1.826856077947e-02 0.0 
4.966805089836e-04 1.831347550582e-02 0.0 
4.697897542350e-04 1.834683458134e-02 0.0 
4.419752245365e-04 1.837098882750e-02 0.0 
4.130902236099e-04 1.838779838957e-02 0.0 
3.831164979795e-04 1.839889166220e-02 0.0 
3.520850324119e-04 1.840558889100e-02 0.0 
3.200574255642e-04 1.840898852189e-02 0.0 
2.871200510339e-04 1.841000892730e-02 0.0 
2.533737576659e-04 1.840941101869e-02 0.0 
2.189243340868e-04 1.840781958211e-02 0.0 
1.838450686877e-04 1.840570679385e-02 0.0 
1.481512376735e-04 1.840338009868e-02 0.0 
1.117909924786e-04 1.840092817456e-02 0.0 
7.475603796424e-05 1.839809456127e-02 0.0 
3.736147246007e-05 1.839241233176e-02 0.0 
3.834863569315e-05 1.761501531930e-02 0.0 
7.696493482358e-05 1.761465254410e-02 0.0 
1.154725338238e-04 1.761722862297e-02 0.0 
1.537316966210e-04 1.761992576377e-02 0.0 
1.917309065362e-04 1.762251516745e-02 0.0 
2.295081004733e-04 1.762482410418e-02 0.0 
2.671074353056e-04 1.762652016792e-02 0.0 
3.045367899433e-04 1.762711808448e-02 0.0 
3.418017423564e-04 1.762592488712e-02 0.0 
3.789397194404e-04 1.762209546351e-02 0.0 
4.160226502276e-04 1.761459925647e-02 0.0 
4.531393445494e-04 1.760221657893e-02 0.0 
4.904088610221e-04 1.758346976648e-02 0.0 
5.279957077876e-04 1.755643211534e-02 0.0 
5.663712064112e-04 1.751901166295e-02 0.0 
6.058164877783e-04 1.746846499115e-02 0.0 
6.472929959548e-04 1.740221218124e-02 0.0 
6.906704389011e-04 1.731537458773e-02 0.0 
7.383306738389e-04 1.720601255337e-02 0.0 
7.866578326816e-04 1.706429573625e-02 0.0 
8.128435292206e-04 1.641215275141e-02 0.0 
7.583236472344e-04 1.650957124288e-02 0.0 
7.037949116261e-04 1.658312909003e-02 0.0 
6.531943350376e-04 1.664188845902e-02 0.0 
6.048629818006e-04 1.668567965679e-02 0.0 
5.588948834888e-04 1.671854999666e-02 0.0 
5.144439866210e-04 1.674185570585e-02 0.0 
4.713428842430e-04 1.675804883105e-02 0.0 
4.293491501473e-04 1.676868629701e-02 0.0 
3.882926770749e-04 1.677502895474e-02 0.0 
3.479876197183e-04 1.677811825095e-02 0.0 
3.082121492083e-04 1.677886685195e-02 0.0 
2.688958893652e-04 1.677807814743e-02 0.0 
2.299611850505e-04 1.677636228668e-02 0.0 
1.912971674612e-04 1.677407808694e-02 0.0 
1.527987005702e-04 1.677153543146e-02 0.0 
1.144295086350e-04 1.676893254022e-02 0.0 
7.616231400699e-05 1.676630497423e-02 0.0 
3.804674602982e-05 1.676120584468e-02 0.0 
3.960024031628e-05 1.585460835690e-02 0.0 
7.938085319635e-05 1.585373496968e-02 0.0 
1.192916710585e-04 1.585600587967e-02 0.0 
1.596259165796e-04 1.585841927204e-02 0.0 
2.003457670222e-04 1.586082845611e-02 0.0 
2.416855843178e-04 1.586285394260e-02 0.0 
2.837379769866e-04 1.586419010689e-02 0.0 
3.268235947128e-04 1.586443865781e-02 0.0 
3.708410068139e-04 1.586306401633e-02 0.0 
4.161760806966e-04 1.585881794694e-02 0.0 
4.631658930950e-04 1.585083002701e-02 0.0 
5.119308372212e-04 1.583808870685e-02 0.0 
5.627826829212e-04 1.581908252509e-02 0.0 
6.161201144462e-04 1.579224887685e-02 0.0 
6.716184844650e-04 1.575389138277e-02 0.0 
7.313809648190e-04 1.570417804840e-02 0.0 
7.915027969217e-04 1.563674026238e-02 0.0 
7.415468402065e-04 1.474714618615e-02 0.0 
6.820202226077e-04 1.479249872312e-02 0.0 
6.225993317272e-04 1.482289099883e-02 0.0 
5.668176624945e-04 1.484611124292e-02 0.0 
5.138581453557e-04 1.486244026720e-02 0.0 
4.631988982966e-04 1.487341074638e-02 0.0 
4.147677184922e-04 1.488064404889e-02 0.0 
3.684152035196e-04 1.488441800651e-02 0.0 
3.234803227021e-04 1.488525858584e-02 0.0 
2.802677019351e-04 1.488552393892e-02 0.0 
2.380777375903e-04 1.488437204577e-02 0.0 
1.971168788108e-04 1.488286914916e-02 0.0 
1.566884582209e-04 1.488065280103e-02 0.0 
1.171107836098e-04 1.487882382316e-02 0.0 
7.809024453652e-05 1.487644489475e-02 0.0 
3.869090096642e-05 1.487133567986e-02 0.0 
-8.473792564364e-04 1.516170509242e-02 0.0 
-4.572762903001e-04 1.616237703544e-02 0.0 
-1.813218342696e-05 1.704124114875e-02 0.0 
3.980249459199e-04 1.748403580724e-02 0.0 
6.630349162178e-04 1.743938365106e-02 0.0 
8.035574393533e-04 1.712190130311e-02 0.0 
8.654229038894e-04 1.660995947313e-02 0.0 
8.703177105584e-04 1.593971330815e-02 0.0 
8.350531274572e-04 1.513748715698e-02 0.0 
7.709048060791e-04 1.422284271433e-02 0.0 
2.979714293636e-05 1.590107278313e-02 0.0 
2.285165599450e-04 1.163664183816e-03 0.0 
-1.025712854055e-04 1.226239174198e-02 0.0 
-3.438082622819e-04 1.298278541044e-02 0.0 
1.573405400118e-04 1.111788663338e-03 0.0 
7.283098079342e-04 1.689266582198e-02 0.0 
5.354784501693e-05 8.855645496008e-03 0.0 
2.652434562096e-04 1.227236541092e-03 0.0 
9.564244601279e-04 1.638384537452e-02 0.0 
2.577151876808e-04 1.260057910450e-03 0.0 
9.414544094361e-04 1.508938305926e-02 0.0 
9.070245363220e-05 1.002675784606e-03 0.0 
-1.468873644717e-05 1.204156747102e-02 0.0 
2.243921663458e-04 1.338664998832e-03 0.0 
7.927989505978e-04 1.325023317275e-02 0.0 
3.684441183382e-05 1.081242658119e-02 0.0 
5.636896047743e-05 6.898499855709e-03 0.0 
1.917182954488e-04 1.431817368328e-03 0.0 
1.265943372861e-04 1.393605076716e-03 0.0 
3.667595223849e-05 1.418423510875e-03 0.0 
6.640835989841e-05 1.537395105365e-03 0.0 
8.908271895128e-05 1.372026132693e-03 0.0 
6.370448699703e-04 1.279927106118e-02 0.0 
4.108811044724e-04 1.283894455680e-02 0.0 
2.678334721066e-04 1.281886755181e-02 0.0 
2.586488866196e-05 8.345173319678e-03 0.0 
5.459027188326e-05 1.078658111714e-03 0.0 
-5.483760163652e-04 1.393211310409e-02 0.0 
2.459908542655e-06 1.197577918623e-02 0.0 
3.923782045260e-05 4.078047281648e-03 0.0 
1.369078329128e-04 1.288996163140e-02 0.0 
1.919708684851e-05 1.166392386385e-02 0.0 
1.771430150928e-04 1.595922058584e-03 0.0 
2.458234266199e-04 1.146871827821e-03 0.0 
2.412286932348e-04 1.283043836052e-03 0.0 
2.666131999715e-04 1.265728878126e-03 0.0 
1.913637580995e-04 1.084081641737e-03 0.0 
-2.230410056382e-04 1.260223811178e-02 0.0 
5.181775956694e-04 1.288777014311e-02 0.0 
1.445722851271e-04 1.254510312107e-03 0.0 
1.846530695156e-05 5.596643101299e-03 0.0 
-4.999287909067e-05 1.212803327271e-02 0.0 
4.826727121375e-05 9.968695701966e-03 0.0 
1.766000131199e-05 1.154846328711e-03 0.0 
8.886820877440e-04 1.673864133849e-02 0.0 
4.411271483745e-04 1.660821002287e-02 0.0 
9.709900342303e-04 1.581917069996e-02 0.0 
8.788411877512e-04 1.422803035467e-02 0.0 
-4.349059240265e-04 1.506097153478e-02 0.0 
3.161522470907e-05 1.080555491571e-02 0.0 
2.546033803033e-05 8.516861046045e-04 0.0 
3.798058197570e-07 1.196020140787e-02 0.0 
9.795700330667e-06 2.581162006352e-03 0.0 
7.525515190359e-04 1.271121917772e-02 0.0 
8.006458156095e-04 1.221002913513e-02 0.0 
7.319497216478e-04 1.171678628020e-02 0.0 
7.894961117133e-04 1.111674907667e-02 0.0 
7.208592127445e-04 1.050091584556e-02 0.0 
7.635645129747e-04 9.939202470318e-03 0.0 
8.394199312426e-04 1.055352480654e-02 0.0 
8.020417199615e-04 9.363539983597e-03 0.0 
8.845099398606e-04 9.985889649852e-03 0.0 
6.871048042681e-04 9.285018790454e-03 0.0 
8.341092196528e-04 8.774181133937e-03 0.0 
9.231260174955e-04 9.402982698164e-03 0.0 
8.585513388453e-04 8.174892572556e-03 0.0 
9.532482853184e-04 8.805677262124e-03 0.0 
1.009823868283e-03 1.000181947684e-02 0.0 
1.045507825458e-03 9.410236329664e-03 0.0 
1.092652511577e-03 1.056517235227e-02 0.0 
1.133406646481e-03 9.976545442032e-03 0.0 
1.070701336379e-03 8.810314886235e-03 0.0 
1.162683782665e-03 9.380069844282e-03 0.0 
1.215528960462e-03 1.050410785932e-02 0.0 
1.247830676003e-03 9.909138380770e-03 0.0 
1.290251106288e-03 1.098849794829e-02 0.0 
1.324342654432e-03 1.039107445475e-02 0.0 
1.356501421377e-03 1.142988271043e-02 0.0 
1.390838535429e-03 1.082822589949e-02 0.0 
1.342965383175e-03 9.788760365872e-03 0.0 
1.408495299565e-03 1.022640319532e-02 0.0 
1.444851498023e-03 1.121572068039e-02 0.0 
1.460093210021e-03 1.061485246932e-02 0.0 
1.484083139731e-03 1.155170555749e-02 0.0 
1.495364883449e-03 1.095208037936e-02 0.0 
1.457182432173e-03 1.001811336273e-02 0.0 
1.487997036897e-03 1.036257153788e-02 0.0 
1.511868176691e-03 1.123959852020e-02 0.0 
1.499146722444e-03 1.065962398081e-02 0.0 
1.507129959186e-03 1.147759347072e-02 0.0 
1.488913867654e-03 1.091018403898e-02 0.0 
1.479380356109e-03 1.166647015138e-02 0.0 
1.455923925565e-03 1.111787449813e-02 0.0 
1.454854844697e-03 1.035727646859e-02 0.0 
1.418118656700e-03 1.058544414285e-02 0.0 
1.399663701125e-03 1.128789134359e-02 0.0 
1.359801150344e-03 1.078137467347e-02 0.0 
1.368054233754e-03 1.007504074745e-02 0.0 
1.309165507413e-03 1.029940301180e-02 0.0 
1.307718705243e-03 9.585047243064e-03 0.0 
1.249642078177e-03 9.838154670319e-03 0.0 
1.232797140414e-03 1.049388182766e-02 0.0 
1.175696801027e-03 1.006249177153e-02 0.0 
1.182989929243e-03 9.393460636456e-03 0.0 
1.112109452502e-03 9.651445793817e-03 0.0 
1.088023006994e-03 1.026922180139e-02 0.0 
1.029729453291e-03 9.884966743584e-03 0.0 
1.043893332674e-03 9.251000258100e-03 0.0 
9.664099365944e-04 9.515667933480e-03 0.0 
9.384867748437e-04 1.010283841008e-02 0.0 
8.814775753154e-04 9.760988119471e-03 0.0 
8.999746570887e-04 9.148870381910e-03 0.0 
8.205826379892e-04 9.427196333573e-03 0.0 
7.913431932929e-04 9.993327693691e-03 0.0 
7.372175256426e-04 9.685118773200e-03 0.0 
7.571206861755e-04 9.092389536784e-03 0.0 
6.795562990812e-04 9.380804769746e-03 0.0 
6.910770248885e-04 8.759995235886e-03 0.0 
6.504953958514e-04 9.934895185288e-03 0.0 
5.997264229827e-04 9.653934201931e-03 0.0 
5.635728286071e-04 1.017472994643e-02 0.0 
5.197517184076e-04 9.913473521936e-03 0.0 
1.436809076541e-03 9.429099381653e-03 0.0 
4.798991958837e-04 1.039792469153e-02 0.0 
5.139386477780e-04 1.062735534098e-02 0.0 
4.418089917349e-04 1.015897931874e-02 0.0 
4.718431130749e-04 9.648961257293e-03 0.0 
4.000586097975e-04 1.060775363368e-02 0.0 
3.672897645625e-04 1.039000858609e-02 0.0 
3.256816039079e-04 1.080437644829e-02 0.0 
1.484331751870e-03 1.226635579087e-02 0.0 
1.083453142882e-03 8.202311522790e-03 0.0 
2.975913508116e-04 1.060699591791e-02 0.0 
2.581866624855e-04 1.098754144646e-02 0.0 
2.757052342831e-04 1.115993137286e-02 0.0 
2.121935372639e-04 1.130951028871e-02 0.0 
6.503025077951e-04 9.869473418348e-03 0.0 
6.093904276425e-04 8.603642370865e-03 0.0 
5.790548130398e-04 9.207809289619e-03 0.0 
5.314759445068e-04 7.902267116970e-03 0.0 
5.072919434411e-04 8.513821878150e-03 0.0 
1.980922945955e-04 1.115693736004e-02 0.0 
7.622583950894e-04 7.483866638661e-03 0.0 
5.503232046442e-04 7.270619109432e-03 0.0 
1.242215361577e-03 1.157919078940e-02 0.0 
1.453486738025e-03 1.215693853691e-02 0.0 
1.347371292612e-03 9.302712092313e-03 0.0 
3.295212581044e-04 1.016707916567e-02 0.0 
2.638420769548e-04 1.040399743992e-02 0.0 
2.874497611541e-04 9.937997591757e-03 0.0 
7.582877861796e-04 8.430841276232e-03 0.0 
6.848683909058e-04 8.073543461575e-03 0.0 
7.400934235466e-04 7.701252328820e-03 0.0 
6.608241615963e-04 7.320223456533e-03 0.0 
7.025190409895e-04 6.903951350293e-03 0.0 
6.190234276147e-04 6.499119209859e-03 0.0 
5.821386051113e-04 6.937651169232e-03 0.0 
5.373652345346e-04 6.091129823009e-03 0.0 
5.048628967534e-04 6.551396176799e-03 0.0 
6.457087091354e-04 6.038642620252e-03 0.0 
7.338340293573e-04 6.465256792478e-03 0.0 
4.584275420919e-04 5.678986362724e-03 0.0 
4.298035782277e-04 6.159389575331e-03 0.0 
3.830212356426e-04 5.260371774028e-03 0.0 
3.577768960516e-04 5.760502042540e-03 0.0 
3.928027943275e-04 6.619543646133e-03 0.0 
3.240119228345e-04 6.240244796284e-03 0.0 
3.491590920172e-04 7.059612603878e-03 0.0 
1.278128103921e-03 8.804112169224e-03 0.0 
1.298702572054e-03 8.463433210057e-03 0.0 
1.221064159550e-03 7.956249516545e-03 0.0 
1.222241942201e-03 7.557822691335e-03 0.0 
1.136726208200e-03 7.041110052454e-03 0.0 
1.118098396818e-03 6.586569308767e-03 0.0 
1.024966654074e-03 6.058589701122e-03 0.0 
1.044858035815e-03 6.535434922406e-03 0.0 
8.747719379792e-04 7.560231680515e-03 0.0 
1.320881265034e-03 1.142209280360e-02 0.0 
1.349101715499e-03 1.192599860755e-02 0.0 
1.248883335042e-03 1.199787123138e-02 0.0 
1.263359949194e-03 1.249778921167e-02 0.0 
1.140563710326e-03 1.250646958953e-02 0.0 
1.138134059585e-03 1.300476868213e-02 0.0 
9.912686450262e-04 1.295110424487e-02 0.0 
1.000188885996e-03 1.249275483891e-02 0.0 
8.295582023837e-04 1.288093057078e-02 0.0 
8.480235867946e-04 1.246706569558e-02 0.0 
6.614740834740e-04 1.280293865070e-02 0.0 
6.907471163987e-04 1.243763718360e-02 0.0 
1.345236654558e-03 9.186256881021e-03 0.0 
1.203721019147e-03 7.123602324179e-03 0.0 
1.079720954450e-03 6.095701415174e-03 0.0 
1.165187639159e-03 6.651175511191e-03 0.0 
2.187560282536e-04 1.145722118854e-02 0.0 
2.894527846617e-04 5.353169597430e-03 0.0 
6.601959383623e-04 5.554066520720e-03 0.0 
7.530238778658e-04 6.010205552761e-03 0.0 
9.264867534692e-04 5.539322242804e-03 0.0 
1.575358320476e-04 1.144563489215e-02 0.0 
9.678069399516e-04 1.344805860854e-02 0.0 
1.118546275418e-03 1.354488076261e-02 0.0 
4.551519244985e-04 7.168072918851e-03 0.0 
4.371222173035e-04 7.792605214209e-03 0.0 
6.605209940638e-04 5.045060999049e-03 0.0 
1.459042295245e-04 1.131192162925e-02 0.0 
4.767998562753e-04 5.177130267791e-03 0.0 
6.150250896208e-04 1.320593352821e-02 0.0 
2.582538785664e-04 5.852571064403e-03 0.0 
2.254861359726e-04 4.937072679286e-03 0.0 
5.370880796962e-04 7.353601128115e-03 0.0 
1.021480770783e-03 5.566357894168e-03 0.0 
1.109447572538e-03 6.156243115922e-03 0.0 
8.546436259976e-04 1.208416363392e-02 0.0 
7.075935017475e-04 1.210083928326e-02 0.0 
5.358792962420e-04 1.240834749851e-02 0.0 
5.684023593057e-04 1.210090483960e-02 0.0 
7.141921272721e-04 1.178097478008e-02 0.0 
5.818848463074e-04 1.183193713110e-02 0.0 
4.341108130153e-04 1.211392288708e-02 0.0 
4.574321702184e-04 1.188006505549e-02 0.0 
5.863032871937e-04 1.157028476072e-02 0.0 
4.710986733412e-04 1.165121104787e-02 0.0 
3.438398033802e-04 1.192731249123e-02 0.0 
3.660570888437e-04 1.172740965891e-02 0.0 
2.458857141990e-04 4.396637903669e-03 0.0 
4.346974357365e-04 1.307744637473e-02 0.0 
1.042356750221e-03 1.114082220377e-02 0.0 
5.661826641872e-04 4.573244692081e-03 0.0 
8.875057155580e-04 5.023098748337e-03 0.0 
3.816080796704e-04 6.408208643483e-03 0.0 
3.693959330525e-04 7.046084795438e-03 0.0 
4.146595051416e-04 8.411389006577e-03 0.0 
3.521640712262e-04 7.674410841372e-03 0.0 
3.049774111596e-04 6.274148810186e-03 0.0 
2.927737305015e-04 6.915979044935e-03 0.0 
3.308353157938e-04 8.293557620008e-03 0.0 
2.760567219375e-04 7.547035116737e-03 0.0 
3.061907647843e-04 8.900636070145e-03 0.0 
2.556497597292e-04 8.166041598169e-03 0.0 
2.248017816502e-04 6.778616005559e-03 0.0 
2.082815882331e-04 7.411617236382e-03 0.0 
2.322366568880e-04 8.773643351844e-03 0.0 
1.882290345213e-04 8.032753323375e-03 0.0 
2.062187351757e-04 9.368343429691e-03 0.0 
1.651642173469e-04 8.641234668099e-03 0.0 
1.478091999782e-04 7.272409200779e-03 0.0 
1.138166315344e-04 1.155862083729e-02 0.0 
9.486570637889e-04 6.039486969897e-03 0.0 
8.244901315416e-04 5.026228550265e-03 0.0 
2.266481653613e-04 1.019357677172e-02 0.0 
2.444599068445e-04 9.700940815460e-03 0.0 
3.038210928670e-04 9.410195410013e-03 0.0 
2.509147565477e-04 9.148465380977e-03 0.0 
1.272998288485e-04 7.901460467846e-03 0.0 
1.108862242894e-04 6.494153507978e-03 0.0 
9.270353033598e-04 1.398905467194e-02 0.0 
1.078714722361e-03 1.412957579425e-02 0.0 
3.877180972798e-04 5.760277369885e-03 0.0 
1.960834859042e-04 5.455632424718e-03 0.0 
2.201156969434e-04 6.331447427251e-03 0.0 
1.479951265849e-03 1.243741828852e-02 0.0 
1.433454536846e-03 1.304781543899e-02 0.0 
1.446112903603e-03 1.327458593781e-02 0.0 
1.381347631828e-03 1.390886642105e-02 0.0 
1.367286568464e-03 1.365828266803e-02 0.0 
1.377756600024e-03 1.408388308630e-02 0.0 
8.236594687815e-04 6.906330714584e-03 0.0 
1.777343730864e-04 5.990081449114e-03 0.0 
2.859342285502e-04 1.132831769180e-02 0.0 
2.165149859889e-04 1.160141804611e-02 0.0 
1.668125588543e-04 4.510855214458e-03 0.0 
1.046187137970e-03 6.981887711466e-03 0.0 
1.267952640967e-03 8.696689650915e-03 0.0 
1.254620538140e-03 8.088857495440e-03 0.0 
1.165073753666e-03 7.546590993056e-03 0.0 
1.135844717168e-03 6.933711967958e-03 0.0 
1.033578725286e-03 6.338649335051e-03 0.0 
9.874128058532e-04 5.719395183448e-03 0.0 
1.091136488086e-03 6.324157177211e-03 0.0 
9.431851848258e-04 4.991815006935e-03 0.0 
9.260126339555e-04 5.100773939249e-03 0.0 
1.420093827652e-04 9.248697366162e-03 0.0 
1.280824688989e-03 7.681497825525e-03 0.0 
5.813025151639e-04 1.131744550911e-02 0.0 
1.170442916319e-04 1.166755035085e-02 0.0 
2.407600917408e-04 1.197701804726e-02 0.0 
1.021695946909e-04 1.145017142898e-02 0.0 
1.275018515720e-04 1.117094288365e-02 0.0 
5.465188629251e-04 4.014895174225e-03 0.0 
8.720803168830e-04 5.072343116194e-03 0.0 
9.212640189961e-04 5.702915751944e-03 0.0 
1.295810307021e-03 1.452997687820e-02 0.0 
1.283656165547e-03 1.425548049158e-02 0.0 
8.472224443058e-04 4.416135559274e-03 0.0 
5.447763046525e-04 9.811588796129e-03 0.0 
3.592104902928e-04 9.614850348346e-03 0.0 
3.279936558339e-04 1.019583526070e-02 0.0 
7.501468503508e-05 1.168762723956e-02 0.0 
2.057172083891e-04 1.214344606971e-02 0.0 
2.448508712309e-04 5.480388172037e-03 0.0 
1.241382212310e-03 1.361494715447e-02 0.0 
1.199691982442e-03 1.422784812546e-02 0.0 
3.550384569425e-04 1.346849385652e-02 0.0 
1.677835900049e-04 1.329293041936e-02 0.0 
9.359509486498e-05 7.122230251276e-03 0.0 
7.930578973794e-05 5.695873101372e-03 0.0 
3.107638992973e-04 8.821204483964e-03 0.0 
2.534002935225e-04 8.532260360717e-03 0.0 
6.447668275910e-04 4.505961199372e-03 0.0 
2.732530960012e-04 1.179740980402e-02 0.0 
9.082197091641e-05 5.029902189727e-03 0.0 
9.524518472422e-04 6.507167180251e-03 0.0 
1.029985868286e-03 7.398612912236e-03 0.0 
1.925870539927e-04 9.460292571461e-03 0.0 
8.616679562492e-04 1.458178140422e-02 0.0 
6.812255330077e-04 1.436975621950e-02 0.0 
6.947043683264e-04 1.119889905716e-02 0.0 
3.769147956756e-04 1.153213021176e-02 0.0 
8.518340506692e-05 1.132748935428e-02 0.0 
5.089814041142e-04 3.427408619110e-03 0.0 
2.466046115345e-04 4.815447776145e-03 0.0 
1.031010711877e-03 5.718017494173e-03 0.0 
1.181149190670e-03 6.889130485603e-03 0.0 
8.506744578543e-04 4.487940390535e-03 0.0 
1.616039500170e-04 1.200638821794e-02 0.0 
4.517468928794e-04 3.520738268105e-03 0.0 
1.388007674869e-04 5.048597338843e-03 0.0 
7.543803024292e-04 4.445166751970e-03 0.0 
8.000901974230e-04 5.027628258375e-03 0.0 
1.333634922649e-03 1.364311913922e-02 0.0 
1.289803468034e-03 1.426277232984e-02 0.0 
1.133487921814e-03 1.487658518502e-02 0.0 
1.216675451117e-03 1.491395760032e-02 0.0 
9.129121543026e-04 1.114452395488e-02 0.0 
1.397069050451e-03 1.360836713986e-02 0.0 
1.115007090811e-03 1.166467024769e-02 0.0 
1.052100550891e-03 1.222268077456e-02 0.0 
1.113112180436e-03 1.270782874998e-02 0.0 
1.337884187057e-03 1.336374489343e-02 0.0 
1.256098904064e-03 1.393967261852e-02 0.0 
1.362778915312e-03 1.246419766437e-02 0.0 
1.367417820215e-03 8.986759268152e-03 0.0 
3.669568920528e-04 9.102205772982e-03 0.0 
4.168190538398e-04 7.408506231370e-03 0.0 
8.191046920566e-04 8.082274313700e-03 0.0 
1.862546244702e-04 5.332381180790e-03 0.0 
1.404803527894e-04 4.509183401921e-03 0.0 
2.499878345453e-04 1.007594399482e-02 0.0 
2.191863790684e-04 1.064354353953e-02 0.0 
1.568259486441e-04 1.169706279231e-02 0.0 
1.431799401130e-04 1.181748302095e-02 0.0 
6.233605185296e-04 8.427066184055e-03 0.0 
4.753290147799e-04 4.099774048721e-03 0.0 
3.120770367628e-04 4.963923711902e-03 0.0 
3.047178837568e-04 4.291996129033e-03 0.0 
3.864296894495e-04 5.100549015045e-03 0.0 
6.109832800015e-04 3.935478218987e-03 0.0 
1.222644730857e-03 1.152820409177e-02 0.0 
1.201174638789e-03 8.323040509758e-03 0.0 
2.637516623386e-04 1.296173708276e-02 0.0 
1.392222065947e-03 9.032091142220e-03 0.0 
9.353565697236e-05 1.187949019539e-02 0.0 
9.828301541905e-04 7.596933282889e-03 0.0 
1.144925904879e-04 4.074119522395e-03 0.0 
1.324060213979e-04 3.495702673255e-03 0.0 
7.495413298343e-04 3.792014276691e-03 0.0 
8.576645116318e-04 1.275401431938e-02 0.0 
1.358783702238e-03 8.440695303673e-03 0.0 
1.400516481624e-03 8.853538141566e-03 0.0 
1.039977285318e-03 1.324363727774e-02 0.0 
1.088300499329e-03 1.369208942940e-02 0.0 
1.167352967103e-03 1.315345810767e-02 0.0 
1.128639915986e-03 1.410906643193e-02 0.0 
6.722833642295e-04 1.092711096402e-02 0.0 
5.672503214203e-04 1.107526882146e-02 0.0 
6.716878907619e-04 3.705149979384e-03 0.0 
7.363543935919e-04 3.860049963557e-03 0.0 
6.271195948913e-04 3.758148123512e-03 0.0 
6.728307436779e-04 4.309369402725e-03 0.0 
6.421429447246e-04 3.204165839805e-03 0.0 
7.426276730742e-04 3.844552845729e-03 0.0 
1.026815693404e-04 1.102174379591e-02 0.0 
1.188340996377e-03 1.481694897977e-02 0.0 
1.870210678431e-04 3.985049075337e-03 0.0 
9.855173359887e-04 1.276742064579e-02 0.0 
3.652781050821e-04 3.051673691499e-03 0.0 
3.897951722655e-04 3.624600984829e-03 0.0 
6.782988476526e-07 1.313930856678e-02 0.0 
1.100417267759e-04 1.283079122923e-02 0.0 
6.245308069863e-05 4.231583677098e-03 0.0 
1.040396711770e-03 1.554053354082e-02 0.0 
1.114681592432e-03 1.557206162458e-02 0.0 
9.283108109239e-04 1.541517532625e-02 0.0 
1.732765767482e-05 1.829476946296e-03 0.0 
5.902884545831e-05 1.290238931350e-02 0.0 
8.616344195301e-05 3.029884116120e-03 0.0 
1.294347210066e-03 1.300384224821e-02 0.0 
6.611089130187e-05 3.479500320686e-03 0.0 
1.310588027734e-03 7.862642786255e-03 0.0 
1.487248346213e-03 1.267717344439e-02 0.0 
7.451502634757e-04 4.996938505168e-03 0.0 
5.076970641208e-05 5.034815252388e-03 0.0 
3.734396122683e-05 3.349393359607e-03 0.0 
3.775739020469e-04 1.085644867878e-02 0.0 
3.425128555750e-04 1.143132190560e-02 0.0 
4.139379897228e-04 1.030621701130e-02 0.0 
5.545740119212e-04 1.365021972716e-02 0.0 
2.262939129821e-04 1.397418313268e-02 0.0 
1.353229363062e-04 5.181835413792e-03 0.0 
2.047485066241e-04 1.062618902357e-02 0.0 
1.683716027972e-04 1.038786990891e-02 0.0 
2.864547120645e-04 1.163939152164e-02 0.0 
3.752257269871e-04 1.134874043031e-02 0.0 
3.709663939834e-04 8.480277406005e-03 0.0 
4.311380056491e-04 8.779908120048e-03 0.0 
9.773786755211e-04 6.970064708508e-03 0.0 
8.681424930131e-04 6.331054856406e-03 0.0 
1.179153014752e-03 8.165208618069e-03 0.0 
9.392300753289e-04 6.944716240226e-03 0.0 
9.979259994946e-04 7.787173126608e-03 0.0 
1.082916474414e-03 8.218138611819e-03 0.0 
1.420389396657e-04 3.875853498525e-03 0.0 
9.446534141344e-05 2.890976484971e-03 0.0 
7.799739295279e-04 1.077865364383e-02 0.0 
8.109885481942e-04 1.107879496761e-02 0.0 
6.414943188703e-04 1.067468206949e-02 0.0 
1.777661744746e-04 3.323857292261e-03 0.0 
9.543711948299e-05 2.441734992117e-03 0.0 
1.410922743643e-04 2.936356734705e-03 0.0 
7.022789013295e-05 1.197288338333e-02 0.0 
1.202863651729e-04 1.193332996278e-02 0.0 
5.868345395678e-04 1.496258558790e-02 0.0 
3.736342829715e-04 1.469170841543e-02 0.0 
2.929314500238e-04 3.669357110162e-03 0.0 
3.773159001695e-04 4.441944659127e-03 0.0 
2.064957848122e-04 2.768684761177e-03 0.0 
6.114527236064e-05 1.121261231850e-02 0.0 
1.118257594633e-03 6.274272433058e-03 0.0 
4.635153850008e-04 2.867621797118e-03 0.0 
5.702387664807e-04 3.398885550804e-03 0.0 
3.419286198337e-04 2.205120157090e-03 0.0 
8.539044213855e-04 4.421533478055e-03 0.0 
6.452311895014e-04 3.192220491439e-03 0.0 
6.350520395319e-04 3.194472963301e-03 0.0 
-1.279794321030e-04 1.344261165288e-02 0.0 
2.850741688290e-05 3.987009664101e-03 0.0 
2.612376835392e-04 1.131905260661e-02 0.0 
-2.407200718844e-04 1.327869599785e-02 0.0 
2.264939828042e-04 1.190027026364e-02 0.0 
1.889361830691e-04 1.120606184932e-02 0.0 
1.961500231426e-04 1.246218837055e-02 0.0 
5.020344037522e-05 1.146909643316e-02 0.0 
4.319521981956e-04 1.171408695156e-02 0.0 
4.736253004958e-04 1.102520947042e-02 0.0 
1.915256143588e-05 1.208841456629e-02 0.0 
1.204019653843e-04 2.477865743982e-03 0.0 
3.545375882567e-05 1.199810074598e-02 0.0 
5.876516886417e-05 1.192448978963e-02 0.0 
2.820846941715e-04 2.538557045389e-03 0.0 
3.098679475345e-04 3.139356705250e-03 0.0 
2.059441380454e-04 2.041097289784e-03 0.0 
2.419323248382e-04 2.706269618977e-03 0.0 
3.248577847856e-04 3.738622039087e-03 0.0 
2.540752816123e-04 3.267655228975e-03 0.0 
3.077500183983e-04 1.207548498863e-02 0.0 
1.668491685578e-04 2.050900022204e-03 0.0 
1.891282021217e-04 2.764917126067e-03 0.0 
1.101925073622e-04 1.578902463208e-03 0.0 
1.037848765191e-03 1.461092431460e-02 0.0 
1.260850920732e-03 1.489816224744e-02 0.0 
1.154072801339e-03 1.554096445132e-02 0.0 
9.788344627982e-04 1.625547752075e-02 0.0 
4.529661359604e-04 2.739651785554e-03 0.0 
5.526099869875e-04 3.630363446191e-03 0.0 
8.671818102619e-05 4.610225140040e-03 0.0 
9.918024300997e-05 5.545103036642e-03 0.0 
1.562387669921e-04 1.184508563410e-02 0.0 
1.137737143963e-04 1.189443248588e-02 0.0 
1.240950503412e-04 1.078900973771e-02 0.0 
8.945452847192e-05 1.092634413075e-02 0.0 
9.506094459706e-05 9.797167962026e-03 0.0 
6.112699096058e-05 9.943639691964e-03 0.0 
7.251324630672e-05 8.769761030875e-03 0.0 
5.017857569842e-04 2.519035578342e-03 0.0 
7.965294734498e-04 1.609222330805e-02 0.0 
9.634061507274e-04 1.376804523989e-02 0.0 
5.264719994996e-04 2.617426105337e-03 0.0 
6.489009274284e-04 3.376305271405e-03 0.0 
1.165247937852e-03 1.448851316422e-02 0.0 
1.084238670081e-03 1.536855699623e-02 0.0 
3.002874251985e-04 2.264710876898e-03 0.0 
1.425751315075e-03 1.300133458326e-02 0.0 
8.969706745554e-05 1.593915660813e-03 0.0 
-6.074925849172e-04 1.435063470988e-02 0.0 
-1.942535366698e-04 1.408942686447e-02 0.0 
1.468143305261e-03 1.289520654161e-02 0.0 
1.215356633677e-03 1.356531258330e-02 0.0 
1.287367907508e-03 1.476617076749e-02 0.0 
1.188659680520e-03 1.533774466284e-02 0.0 
8.561812577136e-04 6.023033457757e-03 0.0 
8.305053115246e-05 1.205367118028e-02 0.0 
7.749347035097e-04 1.521241685028e-02 0.0 
1.050092752342e-04 8.636115878414e-03 0.0 
4.508856449196e-04 1.558503561832e-02 0.0 
4.551948901556e-05 5.041397683601e-03 0.0 
1.436278730683e-03 1.239230024733e-02 0.0 
1.361304155019e-03 1.242249955694e-02 0.0 
1.016134292219e-03 1.475346115974e-02 0.0 
1.351045361618e-03 1.420021214196e-02 0.0 
9.654238010740e-04 1.058298161695e-02 0.0 
8.570291374290e-04 1.168839335070e-02 0.0 
9.208313315981e-04 1.224985385944e-02 0.0 
1.426426994757e-03 1.182310115980e-02 0.0 
1.197530602689e-03 1.509854455479e-02 0.0 
1.070343318912e-03 1.593379238966e-02 0.0 
1.171008293280e-03 1.109402162040e-02 0.0 
4.727482349266e-04 5.882490377543e-03 0.0 
4.692190828254e-04 5.223315318020e-03 0.0 
3.616883176586e-04 3.816447888142e-03 0.0 
4.567014921577e-04 4.568891696079e-03 0.0 
5.653500387025e-04 5.987490069164e-03 0.0 
5.591168811344e-04 5.336941756930e-03 0.0 
4.338635526949e-04 3.926938716783e-03 0.0 
5.422800545897e-04 4.684414958089e-03 0.0 
3.655671553698e-04 2.972771064515e-03 0.0 
5.085799572806e-04 3.997208011991e-03 0.0 
6.547955291786e-04 5.453914651612e-03 0.0 
6.338032231889e-04 4.832176831800e-03 0.0 
4.862683377839e-04 3.519734078052e-03 0.0 
7.711959907308e-04 6.262260510722e-03 0.0 
4.107241013927e-04 1.966790056105e-03 0.0 
1.507010896544e-03 1.208033902717e-02 0.0 
4.594430957159e-05 1.367471120442e-02 0.0 
-3.980850131596e-06 1.440658925167e-02 0.0 
1.305793339910e-03 1.202023071911e-02 0.0 
1.778175495067e-04 1.448591149393e-03 0.0 
1.431170444657e-04 1.432490243913e-03 0.0 
1.261230804838e-03 1.303909277254e-02 0.0 
2.332029255223e-04 1.307163247165e-03 0.0 
9.837141685398e-04 1.170190330554e-02 0.0 
7.955536884028e-04 1.333537387370e-02 0.0 
2.532147929730e-04 1.287228149951e-03 0.0 
5.620683970321e-04 6.630696158269e-03 0.0 
6.531918971870e-04 7.377091036070e-03 0.0 
6.344669093313e-04 7.996489597213e-03 0.0 
1.094186332900e-04 1.340236006452e-03 0.0 
4.490395456725e-04 9.731117313365e-03 0.0 
2.475169727364e-04 1.147304515392e-03 0.0 
1.299565756185e-03 8.088066758706e-03 0.0 
1.367748760051e-03 8.647603639514e-03 0.0 
1.425354761289e-03 9.537014826151e-03 0.0 
6.650683350813e-04 6.116125174089e-03 0.0 
2.371222495038e-04 1.160221004763e-03 0.0 
4.287704472913e-04 2.212369056784e-03 0.0 
4.056765136954e-04 2.188488310837e-03 0.0 
6.019240335310e-04 3.288491805887e-03 0.0 
2.117617757573e-04 1.129803718564e-03 0.0 
1.874501930762e-04 1.288104645954e-03 0.0 
1.908015117372e-04 1.215446827716e-03 0.0 
7.087696739337e-04 1.148436974103e-02 0.0 
8.350833422326e-04 1.139195457982e-02 0.0 
9.271345384920e-04 1.095091484655e-02 0.0 
9.597590990437e-04 1.129772471422e-02 0.0 
8.499085618034e-04 1.172769406100e-02 0.0 
9.832053224439e-04 1.166908400661e-02 0.0 
1.077989646483e-03 1.119907491296e-02 0.0 
9.965798299519e-04 1.206850525108e-02 0.0 
7.204508702846e-04 4.980715382871e-03 0.0 
1.779535583586e-04 1.068587398801e-03 0.0 
7.869655848757e-04 7.309823024183e-03 0.0 
8.713346629563e-04 7.725466153638e-03 0.0 
8.965757179070e-04 8.471795379372e-03 0.0 
4.207874445913e-04 9.377520798796e-03 0.0 
4.895488022845e-04 9.075964536561e-03 0.0 
4.943226334950e-04 8.440422072804e-03 0.0 
3.529343039707e-04 9.665935505147e-03 0.0 
1.225437717294e-03 7.485666086049e-03 0.0 
1.635602213325e-04 1.069639116171e-03 0.0 
1.117978254122e-03 7.854604467492e-03 0.0 
5.459122678414e-04 9.368064815437e-03 0.0 
5.771523228028e-04 1.284626107023e-02 0.0 
6.019810764411e-04 1.184695498336e-02 0.0 
6.617885036804e-04 1.179931669644e-02 0.0 
6.153415264575e-04 1.064175253698e-02 0.0 
5.350691856559e-04 1.172829444290e-02 0.0 
3.100559289124e-04 8.171981816212e-03 0.0 
2.490904943736e-04 7.856141043818e-03 0.0 
1.951206175244e-04 8.235695762403e-03 0.0 
1.886187328416e-04 7.531654656075e-03 0.0 
1.365510035721e-04 7.928013275939e-03 0.0 
1.413453855575e-04 8.582330215047e-03 0.0 
1.279556081508e-04 7.197418710813e-03 0.0 
7.886494605844e-05 7.693849555142e-03 0.0 
4.633295994157e-04 1.287207854984e-02 0.0 
-2.755488943395e-04 1.277594689264e-02 0.0 
-7.846186135611e-05 1.261854067213e-02 0.0 
-5.950127579090e-05 1.246709596225e-02 0.0 
7.621481059769e-05 1.244194685423e-02 0.0 
8.810795547964e-05 1.259484790357e-02 0.0 
2.570418275803e-04 1.235213419348e-02 0.0 
2.547695624235e-04 1.255455514672e-02 0.0 
-1.014460355771e-04 1.281368433898e-02 0.0 
-1.764838679021e-04 1.246558606376e-02 0.0 
-3.761467966179e-05 1.234529056295e-02 0.0 
-1.361479660145e-04 1.235307882562e-02 0.0 
-2.390970233918e-05 1.224953052343e-02 0.0 
9.839208674677e-05 1.217773036426e-02 0.0 
2.081701065157e-04 1.173565605319e-02 0.0 
4.888364632270e-05 1.225887647493e-03 0.0 
5.185997797233e-05 9.447790846076e-03 0.0 
9.888969327022e-05 9.719182352186e-03 0.0 
9.018436667227e-05 1.019103730860e-02 0.0 
1.455919173604e-04 9.948673062363e-03 0.0 
9.866262453180e-05 9.221645387736e-03 0.0 
4.291931079239e-05 1.042187905874e-02 0.0 
8.139549225750e-05 1.057059880950e-02 0.0 
2.664371782729e-06 1.196463958057e-02 0.0 
1.209832054622e-05 1.191109109929e-02 0.0 
3.840382654359e-06 1.191380142649e-02 0.0 
1.887720536650e-05 1.181364633894e-02 0.0 
3.021961061773e-05 1.182332182639e-02 0.0 
1.883116084150e-05 1.191823211500e-02 0.0 
2.374235814728e-05 1.193204955687e-02 0.0 
-3.288816096993e-07 1.199275591661e-02 0.0 
2.715096558611e-05 1.195063731261e-02 0.0 
5.462301911591e-05 1.184245607438e-02 0.0 
-5.461621854834e-06 1.201449558880e-02 0.0 
2.268248281035e-05 6.970999464851e-03 0.0 
4.331598266070e-05 6.265189500844e-03 0.0 
1.435331721059e-04 1.124262478908e-03 0.0 
3.572148759027e-04 1.278804572495e-02 0.0 
-7.169545366819e-05 1.218852638854e-02 0.0 
3.418858487181e-05 1.702978965181e-03 0.0 
5.150654823557e-05 1.416525163653e-03 0.0 
4.255084236303e-05 1.371406875895e-03 0.0 
2.858116667913e-05 2.987054198261e-03 0.0 
4.646360825108e-05 2.452911650297e-03 0.0 
1.776899111241e-05 1.654595887034e-03 0.0 
3.471352517773e-04 1.099723123967e-02 0.0 
3.359508217330e-04 3.196698019288e-03 0.0 
9.789669644737e-05 4.351476791273e-03 0.0 
7.497699180327e-04 1.382447815767e-02 0.0 
4.676973388394e-04 1.121616886843e-02 0.0 
1.569872753035e-04 5.945808323500e-03 0.0 
4.640620251061e-04 6.988213217353e-03 0.0 
1.859061493621e-04 3.960144515412e-03 0.0 
2.834325850776e-04 6.699684916795e-03 0.0 
3.119053057378e-04 4.832672799591e-03 0.0 
3.921049762623e-04 2.238037442269e-03 0.0 
6.802893175803e-05 1.156656023549e-02 0.0 
2.790836234350e-04 9.494564436463e-03 0.0 
1.799419965022e-04 9.955086153585e-03 0.0 
1.647081793605e-04 6.637404861270e-03 0.0 
2.342151659780e-04 1.081007667094e-02 0.0 
1.983681116557e-04 8.846234054263e-03 0.0 
1.620618654114e-04 1.157186522023e-02 0.0 
4.525872704785e-04 2.444287306809e-03 0.0 
1.180775780680e-03 1.215282987143e-02 0.0 
8.302009894810e-04 8.789389286544e-03 0.0 
3.992594507700e-04 9.915012271126e-03 0.0 
4.274554762903e-04 1.081737541095e-02 0.0 
4.745508700541e-04 1.142880692128e-02 0.0 
1.506008317756e-03 1.183897373901e-02 0.0 
6.196281679959e-04 9.072150322959e-03 0.0 
5.597226733072e-04 5.610006241616e-03 0.0 
1.253174564401e-04 5.843984233527e-03 0.0 
-2.229767375869e-05 1.207411733526e-02 0.0 
5.699666070510e-04 5.104438122021e-03 0.0 
6.109492289750e-04 7.715200093463e-03 0.0 
3.886065149833e-04 9.020918019933e-03 0.0 
9.861005130467e-04 5.551143752152e-03 0.0 
3.153679122857e-04 1.211998836001e-02 0.0 
2.373138457022e-04 6.136625614295e-03 0.0 
2.330177292512e-04 3.550780920837e-03 0.0 
5.096742513456e-04 1.041359645880e-02 0.0 
1.077671937801e-04 1.178046932147e-02 0.0 
2.962844958317e-04 1.078177193633e-02 0.0 
4.105133213644e-04 2.911846188344e-03 0.0 
4.674107584045e-04 6.528897633010e-03 0.0 
1.773029638098e-04 1.099829866520e-02 0.0 
1.239135126541e-03 9.113355725190e-03 0.0 
1.411722556604e-03 1.181900864907e-02 0.0 
8.404137901555e-04 1.375206823291e-02 0.0 
1.011318966992e-04 3.718250859082e-03 0.0 
1.463428267757e-03 9.786723461047e-03 0.0 
7.811387931787e-04 4.471963381204e-03 0.0 
1.136313471356e-03 7.462973740532e-03 0.0 
1.511000277003e-04 1.082551996264e-02 0.0 
4.009219455547e-04 4.194286972839e-03 0.0 
1.406891167065e-03 9.819668885286e-03 0.0 
1.900562025581e-04 4.672545954747e-03 0.0 
1.064830161411e-03 6.961838585456e-03 0.0 
1.281651367218e-03 1.094680854175e-02 0.0 
3.117762893521e-04 5.624365221631e-03 0.0 
9.716280001849e-04 8.860625522578e-03 0.0 
9.266086656322e-04 5.003108532200e-03 0.0 
1.241322842681e-03 1.259574493103e-02 0.0 
1.265550895341e-03 9.305110455731e-03 0.0 
9.747604333223e-04 8.212284435353e-03 0.0 
1.408864267222e-03 9.625905647909e-03 0.0 
1.071828408339e-04 6.419764476450e-03 0.0 
4.831421226765e-04 4.652084315186e-03 0.0 
4.966201855513e-04 1.273202932003e-02 0.0 
1.436388901088e-03 1.346542718334e-02 0.0 
4.791760357601e-04 9.122894242202e-03 0.0 
8.146579779212e-04 4.487385201266e-03 0.0 
1.340819560685e-04 3.138155943871e-03 0.0 
1.404420733766e-03 1.276222205210e-02 0.0 
3.981307139254e-04 4.741073165916e-03 0.0 
2.432229651885e-04 4.187646639505e-03 0.0 
5.577002722989e-04 8.759755234682e-03 0.0 
2.417063677304e-05 1.143408432675e-02 0.0 
4.833535477227e-04 1.414069617645e-02 0.0 
1.129838229172e-03 1.204297172572e-02 0.0 
1.469775574556e-03 1.009406129536e-02 0.0 
5.548317078516e-04 8.088882340992e-03 0.0 
2.576326373867e-04 2.838733557464e-03 0.0 
3.242233500407e-04 4.297567354481e-03 0.0 
7.569317889150e-04 5.519670144670e-03 0.0 
-1.933867186271e-04 1.547831606269e-02 0.0 
9.152985125509e-04 1.326880283874e-02 0.0 
2.559415993300e-04 3.844666619258e-03 0.0 
1.163869849616e-03 8.659023950409e-03 0.0 
8.262589551110e-04 4.458596320178e-03 0.0 
8.581507980941e-05 8.316639098122e-03 0.0 
4.712991653307e-04 2.445461514042e-03 0.0 
1.070694934196e-03 1.498868263704e-02 0.0 
1.939596861161e-04 3.381576319740e-03 0.0 
8.492215127233e-04 5.537556865302e-03 0.0 
1.358136148819e-03 1.303711925526e-02 0.0 
9.795801861711e-05 1.290190481056e-02 0.0 
1.230065295631e-04 2.117295552931e-03 0.0 
7.142808757300e-04 4.445109322779e-03 0.0 
1.330890597509e-03 8.585448751347e-03 0.0 
1.110324645736e-03 8.966840061021e-03 0.0 
9.157782744788e-04 1.467928110947e-02 0.0 
4.857147289087e-04 7.747849098958e-03 0.0 
1.178838753857e-03 8.780106046746e-03 0.0 
9.546469008163e-05 1.307697266962e-03 0.0 
6.769083976103e-04 3.948569880993e-03 0.0 
7.192838786914e-04 8.719795528295e-03 0.0 
4.299041936298e-04 8.124372625776e-03 0.0 
1.245961002523e-03 7.266998587617e-03 0.0 
4.254310658443e-05 1.183235822327e-02 0.0 
1.003650641912e-03 1.419704758981e-02 0.0 
3.650453638088e-04 7.799388065019e-03 0.0 
1.108462849743e-03 1.160844166729e-02 0.0 
1.033261821576e-03 8.551931028530e-03 0.0 
5.378307865001e-04 2.605196511119e-03 0.0 
3.009238823132e-04 7.466060139539e-03 0.0 
1.186571247368e-03 1.108208305976e-02 0.0 
2.379591743243e-04 7.124553900336e-03 0.0 
9.645360303995e-04 1.547604992130e-02 0.0 
7.439735035640e-04 8.089263995232e-03 0.0 
1.743272734765e-04 6.773394746926e-03 0.0 
1.082047114197e-03 7.587861305097e-03 0.0 
6.750858565803e-05 1.185494141383e-02 0.0 
1.300738784421e-03 7.993249113567e-03 0.0 
6.742911367402e-05 3.556959931342e-03 0.0 
6.043028856955e-04 1.042618898171e-02 0.0 
9.539114187087e-04 8.145832288315e-03 0.0 
6.635434459811e-04 6.746881434265e-03 0.0 
9.687818656108e-04 1.614147285266e-02 0.0 
9.124524955209e-04 7.351301997571e-03 0.0 
9.569843650504e-04 6.342490849300e-03 0.0 
1.254567998106e-03 7.403367555957e-03 0.0 
1.422869331844e-03 9.215644161745e-03 0.0 
8.467484156661e-04 6.474876265594e-03 0.0 
1.090876978572e-03 1.562664544662e-02 0.0 
3.602679438891e-04 1.118655043309e-02 0.0 
2.895266149501e-04 1.148481726362e-02 0.0 
1.141283844822e-03 1.066405655250e-02 0.0 
8.406356848078e-04 5.675344689039e-03 0.0 
3.890097926663e-05 1.168891428654e-02 0.0 
7.708494776428e-04 6.857039638859e-03 0.0 
1.890310894934e-04 1.187245842081e-02 0.0 
1.038489785854e-03 1.081483746591e-02 0.0 
1.029954658911e-03 5.579895208530e-03 0.0 
2.755390649709e-05 9.618224344211e-03 0.0 
9.916432226536e-04 1.044957784037e-02 0.0 
2.987230234669e-05 1.115126752709e-02 0.0 
8.877526001944e-04 1.062167435231e-02 0.0 
1.347966910878e-03 8.268997099633e-03 0.0 
8.425867578838e-04 1.029963120074e-02 0.0 
7.423436660784e-04 1.049078807668e-02 0.0 
6.685627478376e-05 2.866802901107e-03 0.0 
6.990118336276e-04 1.020931213573e-02 0.0 
8.200326611722e-06 1.373073430768e-03 0.0 
2.053292697980e-05 1.115079569280e-03 0.0 
3.696064418536e-05 1.203834546060e-02 0.0 
8.983030010124e-04 1.671647178493e-02 0.0 
-4.770583364489e-04 1.354872942371e-02 0.0 
1.065540571871e-03 1.598215371079e-02 0.0 
5.440479540482e-04 1.085015492057e-02 0.0 
8.796797373050e-04 6.959687691581e-03 0.0 
7.681674604301e-05 1.198391389872e-02 0.0 
4.497917991419e-04 1.101880095815e-02 0.0 
3.514731019844e-04 2.588729671216e-03 0.0 
2.454914802789e-04 1.168159012282e-03 0.0 
4.958925043316e-05 7.591230980659e-03 0.0 
7.300476573989e-04 3.971846516578e-03 0.0 
1.188413128804e-03 6.772980886388e-03 0.0 
1.391838119640e-05 4.137186393052e-03 0.0 
2.285911429499e-04 1.298556400591e-02 0.0 
-9.833050314200e-06 1.217063806366e-02 0.0 
5.171399980635e-05 5.962779005034e-03 0.0 
7.727249446497e-04 1.698676111278e-02 0.0 
8.980693465337e-04 1.622996845311e-02 0.0 
6.310316902022e-04 1.588350693708e-02 0.0 
1.180621167567e-04 1.068214574053e-02 0.0 
7.349760681032e-05 1.231202586743e-02 0.0 
6.121788704529e-04 1.680738105877e-02 0.0 
4.583435407686e-04 2.306901891177e-03 0.0 
3.849924906827e-04 1.195550766327e-02 0.0 
9.563115950327e-04 5.116485469692e-03 0.0 
2.496217143424e-04 1.627997362183e-02 0.0 
1.662568960343e-04 2.759061797941e-03 0.0 
5.018433612557e-04 2.425510352898e-03 0.0 
1.022969352118e-04 9.853352048677e-04 0.0 
7.509499367674e-04 3.822011795636e-03 0.0 
2.234042990799e-04 1.525143560229e-02 0.0 
5.641003236700e-04 1.090285278891e-02 0.0 
4.329424062772e-04 2.451322392404e-03 0.0 
6.677201870246e-05 6.470184821459e-03 0.0 
7.353595632037e-05 9.425892196439e-04 0.0 
4.855888416064e-04 1.204992973571e-02 0.0 
4.101608051773e-05 2.677941467032e-03 0.0 
3.479771900241e-04 1.267062763725e-02 0.0 
2.009233784921e-05 2.598995249002e-03 0.0 
7.526574529899e-04 5.613496826554e-03 0.0 
1.555993869337e-04 1.052834417462e-02 0.0 
6.774836690399e-04 1.091685890387e-02 0.0 
5.634970496708e-05 1.930533736685e-03 0.0 
3.008081131433e-04 2.637919914010e-03 0.0 
-7.944185711796e-06 1.484369125466e-02 0.0 
7.772857282336e-05 7.728826328611e-03 0.0 
1.962581793722e-04 9.949738381877e-03 0.0 
-1.713833225694e-04 1.305059071553e-02 0.0 
2.510848418047e-04 2.058791246671e-03 0.0 
6.035080753687e-04 4.261387244545e-03 0.0 
9.399847673490e-05 1.972129861946e-03 0.0 
7.639343148454e-06 1.182063938019e-02 0.0 
6.369415121924e-06 1.206208596375e-02 0.0 
2.780102120058e-04 1.922818207231e-03 0.0 
3.688032593071e-04 2.353341559796e-03 0.0 
4.173326416285e-04 1.232160555536e-02 0.0 
5.511315184828e-05 1.112071095561e-03 0.0 
-3.167266765032e-04 1.455787610209e-02 0.0 
3.131966558379e-04 1.310084460176e-02 0.0 
2.514324499228e-05 1.197899647517e-02 0.0 
5.921028694110e-05 9.516878380958e-04 0.0 
9.910923611700e-05 2.567563306138e-03 0.0 
1.386432663307e-04 9.477185403977e-03 0.0 
6.921392347507e-04 1.268421674297e-02 0.0 
6.989124597023e-05 1.092572683336e-02 0.0 
6.417297127253e-04 3.383715853927e-03 0.0 
6.519866307316e-05 1.213270671234e-02 0.0 
6.701320203924e-05 2.424308744641e-03 0.0 
3.182258996768e-04 1.900360469246e-03 0.0 
2.023145051595e-04 2.415785169944e-03 0.0 
1.865135427615e-04 8.690299348331e-04 0.0 
-2.593234111540e-04 1.373332676091e-02 0.0 
4.317761083018e-04 2.099571973475e-03 0.0 
5.319861419854e-04 3.006167450050e-03 0.0 
1.716889132686e-04 1.303336721489e-02 0.0 
2.587162064650e-04 2.584475310285e-03 0.0 
1.253527511491e-04 1.034525296480e-02 0.0 
8.712534301061e-05 1.172416121866e-02 0.0 
3.730729218147e-06 1.216885482442e-03 0.0 
-9.078538550454e-07 1.195756057356e-02 0.0 
2.859882874781e-05 1.303066748426e-02 0.0 
8.316866362541e-06 9.096116159843e-04 0.0 
5.032536715948e-05 1.172749931013e-02 0.0 
6.070717540975e-05 1.116543421913e-02 0.0 
3.343784886915e-04 2.279468173071e-03 0.0 
3.680743529330e-05 8.202708120750e-03 0.0 
3.324542829813e-05 5.115361776830e-03 0.0 
1.848135337523e-04 1.227018862853e-02 0.0 
-4.502053586681e-04 1.323133154949e-02 0.0 
4.798005989206e-05 8.967019803560e-03 0.0 
4.511569363960e-04 2.154453841474e-03 0.0 
1.554550366696e-04 2.312027158911e-03 0.0 
1.241937165463e-04 9.841160966874e-03 0.0 
2.464697752421e-04 1.440545760618e-02 0.0 
4.727373935641e-04 3.216001396605e-03 0.0 
1.488026378721e-04 9.044327888618e-03 0.0 
5.924261304781e-04 3.374468926879e-03 0.0 
5.849361541287e-04 3.085849264920e-03 0.0 
-6.281492467919e-04 1.475445332731e-02 0.0 
3.369909276343e-05 7.509147022528e-03 0.0 
1.850665240532e-05 1.200825940749e-02 0.0 
1.687361766417e-04 1.817904196779e-03 0.0 
9.855354569481e-05 8.767852555390e-03 0.0 
3.417603298147e-04 1.780410374201e-02 0.0 
2.252337597453e-05 1.944953425776e-02 0.0 
6.179246671083e-04 1.767043769537e-02 0.0 
1.779786344602e-05 1.876226060339e-02 0.0 
7.595989768235e-04 1.730866217915e-02 0.0 
1.985982531244e-05 1.801141822594e-02 0.0 
8.221965308800e-04 1.676115970666e-02 0.0 
1.762589038026e-05 1.719602716731e-02 0.0 
8.280164176647e-04 1.607464181103e-02 0.0 
2.034938425666e-05 1.631590089070e-02 0.0 
7.942905304599e-04 1.525338942181e-02 0.0 
1.795139544087e-05 1.537115259214e-02 0.0 
7.326429806752e-04 1.433817067075e-02 0.0 
2.034089959066e-05 1.436219520989e-02 0.0 

TENSORS node_materi_stress float
-3.977117377046e+00 2.954602816254e-02 0.0 
2.954602816254e-02 -8.524172499603e+00 0.0 
0.0 0.0 -3.668640238075e+00 
-6.248992404296e+01 4.435938021830e-01 0.0 
4.435938021830e-01 -1.376192887283e+02 0.0 
0.0 0.0 -5.963276383139e+01 
-1.626219000901e+02 -1.440860832102e-01 0.0 
-1.440860832102e-01 -3.820140753577e+02 0.0 
0.0 0.0 -1.629907926343e+02 
-1.394509551331e+02 5.125515769388e-01 0.0 
5.125515769388e-01 -3.259080352063e+02 0.0 
0.0 0.0 -1.392076971018e+02 
-8.533087145856e+00 -2.670945470941e-01 0.0 
-2.670945470941e-01 -2.074251291090e+01 0.0 
0.0 0.0 -8.594848867079e+00 
-1.574871045654e+01 -6.145105230530e-01 0.0 
-6.145105230530e-01 -4.028007102373e+01 0.0 
0.0 0.0 -1.640863444408e+01 
-2.266769315737e+01 -4.790424014473e-01 0.0 
-4.790424014473e-01 -5.847900820880e+01 0.0 
0.0 0.0 -2.394401040985e+01 
-3.069173622092e+01 -4.364001611032e-01 0.0 
-4.364001611032e-01 -7.923939742929e+01 0.0 
0.0 0.0 -3.257934009506e+01 
-3.825865860595e+01 -3.197002275586e-01 0.0 
-3.197002275586e-01 -9.917437724793e+01 0.0 
0.0 0.0 -4.082991075616e+01 
-4.601235463991e+01 -2.982513775603e-01 0.0 
-2.982513775603e-01 -1.188277010437e+02 0.0 
0.0 0.0 -4.905201670509e+01 
-5.371321009704e+01 -3.216754090748e-01 0.0 
-3.216754090748e-01 -1.384608288386e+02 0.0 
0.0 0.0 -5.725221168071e+01 
-6.142185154349e+01 -2.758802129707e-01 0.0 
-2.758802129707e-01 -1.580592699237e+02 0.0 
0.0 0.0 -6.544433644016e+01 
-6.928296697515e+01 -2.596226764202e-01 0.0 
-2.596226764202e-01 -1.776338972340e+02 0.0 
0.0 0.0 -7.367505926276e+01 
-7.723714847735e+01 -3.148557445853e-01 0.0 
-3.148557445853e-01 -1.973669918169e+02 0.0 
0.0 0.0 -8.198124208826e+01 
-8.547758741957e+01 -4.657375657284e-01 0.0 
-4.657375657284e-01 -2.175527740567e+02 0.0 
0.0 0.0 -9.050910844287e+01 
-9.398851498470e+01 -4.847354240330e-01 0.0 
-4.847354240330e-01 -2.370598361190e+02 0.0 
0.0 0.0 -9.891450533111e+01 
-1.019319526348e+02 -6.150358432912e-01 0.0 
-6.150358432912e-01 -2.548067462803e+02 0.0 
0.0 0.0 -1.066216096745e+02 
-1.105290162230e+02 -1.712998210976e-01 0.0 
-1.712998210976e-01 -2.742682443243e+02 0.0 
0.0 0.0 -1.150391781642e+02 
-1.196428865870e+02 -1.385792196633e-01 0.0 
-1.385792196633e-01 -2.941868758235e+02 0.0 
0.0 0.0 -1.237489287232e+02 
-1.286826555087e+02 -1.265581106416e-01 0.0 
-1.265581106416e-01 -3.134621607862e+02 0.0 
0.0 0.0 -1.322434448885e+02 
-1.379339623424e+02 -9.017615462821e-02 0.0 
-9.017615462821e-02 -3.328361763052e+02 0.0 
0.0 0.0 -1.408310415943e+02 
-1.474449146571e+02 -1.208676103176e-01 0.0 
-1.208676103176e-01 -3.523160320711e+02 0.0 
0.0 0.0 -1.495282840185e+02 
-1.567331581824e+02 -1.946014692109e-01 0.0 
-1.946014692109e-01 -3.708683354172e+02 0.0 
0.0 0.0 -1.578804480799e+02 
-1.399070604438e+02 3.456418908501e-01 0.0 
3.456418908501e-01 -3.270233011057e+02 0.0 
0.0 0.0 -1.396791084648e+02 
-1.393474075787e+02 5.959271526671e-01 0.0 
5.959271526671e-01 -3.259999377921e+02 0.0 
0.0 0.0 -1.392042036112e+02 
-1.394879914959e+02 1.123544487475e+00 0.0 
1.123544487475e+00 -3.262898950315e+02 0.0 
0.0 0.0 -1.393333659582e+02 
-1.394534899163e+02 1.043260471833e+00 0.0 
1.043260471833e+00 -3.263201856810e+02 0.0 
0.0 0.0 -1.393321026792e+02 
-1.392646038918e+02 1.493589049058e+00 0.0 
1.493589049058e+00 -3.257563833872e+02 0.0 
0.0 0.0 -1.391062961837e+02 
-1.396138343969e+02 1.797062115291e+00 0.0 
1.797062115291e+00 -3.264822469847e+02 0.0 
0.0 0.0 -1.394288244145e+02 
-1.399391527654e+02 2.156330752980e+00 0.0 
2.156330752980e+00 -3.268608131876e+02 0.0 
0.0 0.0 -1.396399897859e+02 
-1.397174071870e+02 2.607855410245e+00 0.0 
2.607855410245e+00 -3.267065308842e+02 0.0 
0.0 0.0 -1.395271814213e+02 
-1.402151182590e+02 3.146471596180e+00 0.0 
3.146471596180e+00 -3.276769084538e+02 0.0 
0.0 0.0 -1.399676080138e+02 
-1.402548970493e+02 3.301522817747e+00 0.0 
3.301522817747e+00 -3.279115991920e+02 0.0 
0.0 0.0 -1.400499488724e+02 
-1.402244224956e+02 3.892765538622e+00 0.0 
3.892765538622e+00 -3.276301480940e+02 0.0 
0.0 0.0 -1.399563711769e+02 
-1.406362498822e+02 4.404317608542e+00 0.0 
4.404317608542e+00 -3.286311115099e+02 0.0 
0.0 0.0 -1.403802084176e+02 
-1.412563736933e+02 4.938993148105e+00 0.0 
4.938993148105e+00 -3.296322328435e+02 0.0 
0.0 0.0 -1.408665819610e+02 
-1.411975738420e+02 5.513995751696e+00 0.0 
5.513995751696e+00 -3.298738597929e+02 0.0 
0.0 0.0 -1.409214300905e+02 
-1.415889617960e+02 6.134443892948e+00 0.0 
6.134443892948e+00 -3.303713073123e+02 0.0 
0.0 0.0 -1.411880807325e+02 
-1.415208214256e+02 6.648490161036e+00 0.0 
6.648490161036e+00 -3.305455630313e+02 0.0 
0.0 0.0 -1.412199153371e+02 
-1.419475219908e+02 7.335210894459e+00 0.0 
7.335210894459e+00 -3.314464346285e+02 0.0 
0.0 0.0 -1.416181869858e+02 
-1.430053833564e+02 8.008136228150e+00 0.0 
8.008136228150e+00 -3.334610474906e+02 0.0 
0.0 0.0 -1.425399292541e+02 
-1.436593136144e+02 8.694588957441e+00 0.0 
8.694588957441e+00 -3.352768319261e+02 0.0 
0.0 0.0 -1.432808436621e+02 
-1.444190723350e+02 9.353609548803e+00 0.0 
9.353609548803e+00 -3.372183855601e+02 0.0 
0.0 0.0 -1.440912373685e+02 
-1.450612949038e+02 9.865087402295e+00 0.0 
9.865087402295e+00 -3.388800612253e+02 0.0 
0.0 0.0 -1.447824068387e+02 
-1.459276841125e+02 1.051400362739e+01 0.0 
1.051400362739e+01 -3.406859213210e+02 0.0 
0.0 0.0 -1.455840816301e+02 
-1.466728892946e+02 1.100312599004e+01 0.0 
1.100312599004e+01 -3.427453932377e+02 0.0 
0.0 0.0 -1.464254847597e+02 
-1.475508186933e+02 1.145101772644e+01 0.0 
1.145101772644e+01 -3.449422601220e+02 0.0 
0.0 0.0 -1.473479236446e+02 
-1.485952944086e+02 1.178847043085e+01 0.0 
1.178847043085e+01 -3.475439912819e+02 0.0 
0.0 0.0 -1.484417857072e+02 
-1.497732868022e+02 1.206533021681e+01 0.0 
1.206533021681e+01 -3.502742714502e+02 0.0 
0.0 0.0 -1.496142674757e+02 
-1.506527752344e+02 1.219062873217e+01 0.0 
1.219062873217e+01 -3.528877940156e+02 0.0 
0.0 0.0 -1.506621707750e+02 
-1.518529243289e+02 1.219625768453e+01 0.0 
1.219625768453e+01 -3.555667740798e+02 0.0 
0.0 0.0 -1.518259095226e+02 
-1.526448257446e+02 1.209161793268e+01 0.0 
1.209161793268e+01 -3.578921735743e+02 0.0 
0.0 0.0 -1.527610997957e+02 
-1.540411436923e+02 1.202071016114e+01 0.0 
1.202071016114e+01 -3.610221822477e+02 0.0 
0.0 0.0 -1.541189977820e+02 
-1.547334825081e+02 1.140518654245e+01 0.0 
1.140518654245e+01 -3.632540138561e+02 0.0 
0.0 0.0 -1.549962489093e+02 
-1.552925743184e+02 1.107520081092e+01 0.0 
1.107520081092e+01 -3.645803524593e+02 0.0 
0.0 0.0 -1.555618780333e+02 
-1.562396844323e+02 1.058862518577e+01 0.0 
1.058862518577e+01 -3.668414321935e+02 0.0 
0.0 0.0 -1.565243349877e+02 
-1.571947042263e+02 1.007210209489e+01 0.0 
1.007210209489e+01 -3.691595132903e+02 0.0 
0.0 0.0 -1.575062652550e+02 
-1.580399615586e+02 9.447359266631e+00 0.0 
9.447359266631e+00 -3.711832550675e+02 0.0 
0.0 0.0 -1.583669649878e+02 
-1.587349536721e+02 8.826269934081e+00 0.0 
8.826269934081e+00 -3.729547801828e+02 0.0 
0.0 0.0 -1.591069201565e+02 
-1.594917249397e+02 8.130251031831e+00 0.0 
8.130251031831e+00 -3.746286196162e+02 0.0 
0.0 0.0 -1.598361033668e+02 
-1.598820983719e+02 7.420929506145e+00 0.0 
7.420929506145e+00 -3.757338581281e+02 0.0 
0.0 0.0 -1.602847869500e+02 
-1.603395133765e+02 6.764751664711e+00 0.0 
6.764751664711e+00 -3.766989671126e+02 0.0 
0.0 0.0 -1.607115441467e+02 
-1.605178261545e+02 6.022752269776e+00 0.0 
6.022752269776e+00 -3.773658354272e+02 0.0 
0.0 0.0 -1.609650984745e+02 
-1.611283716482e+02 5.451663637753e+00 0.0 
5.451663637753e+00 -3.786293313924e+02 0.0 
0.0 0.0 -1.615273109122e+02 
-1.619779148756e+02 4.695253240781e+00 0.0 
4.695253240781e+00 -3.803193265795e+02 0.0 
0.0 0.0 -1.622891724365e+02 
-1.624132947238e+02 4.166151601190e+00 0.0 
4.166151601190e+00 -3.812171649614e+02 0.0 
0.0 0.0 -1.626891379056e+02 
-1.612939133967e+02 3.460300659497e+00 0.0 
3.460300659497e+00 -3.793529702667e+02 0.0 
0.0 0.0 -1.617940650990e+02 
-1.626852693611e+02 2.773397502256e+00 0.0 
2.773397502256e+00 -3.818509116385e+02 0.0 
0.0 0.0 -1.629608542999e+02 
-1.623307037590e+02 2.220585597575e+00 0.0 
2.220585597575e+00 -3.813697759167e+02 0.0 
0.0 0.0 -1.627101439027e+02 
-1.627534825996e+02 1.860315856080e+00 0.0 
1.860315856080e+00 -3.821398030766e+02 0.0 
0.0 0.0 -1.630679857028e+02 
-1.631398646922e+02 1.065725741397e+00 0.0 
1.065725741397e+00 -3.829694864239e+02 0.0 
0.0 0.0 -1.634328053349e+02 
-1.631036797106e+02 6.373372818958e-01 0.0 
6.373372818958e-01 -3.829762991870e+02 0.0 
0.0 0.0 -1.634239936693e+02 
-7.117920159224e+01 3.189334413320e-01 0.0 
3.189334413320e-01 -1.574385292245e+02 0.0 
0.0 0.0 -6.818531924502e+01 
-7.933139004829e+01 3.726827888331e-01 0.0 
3.726827888331e-01 -1.771581778767e+02 0.0 
0.0 0.0 -7.654687037750e+01 
-8.754245938308e+01 3.733628252190e-01 0.0 
3.733628252190e-01 -1.967147772038e+02 0.0 
0.0 0.0 -8.487717097605e+01 
-9.547471287916e+01 4.108152217687e-01 0.0 
4.108152217687e-01 -2.158995927244e+02 0.0 
0.0 0.0 -9.301229168106e+01 
-1.034949025770e+02 3.780687948802e-01 0.0 
3.780687948802e-01 -2.355321911673e+02 0.0 
0.0 0.0 -1.013081281233e+02 
-1.116735675469e+02 4.245510733103e-01 0.0 
4.245510733103e-01 -2.552810716293e+02 0.0 
0.0 0.0 -1.096863917529e+02 
-1.194497434376e+02 3.920757385492e-01 0.0 
3.920757385492e-01 -2.748096799945e+02 0.0 
0.0 0.0 -1.178778270296e+02 
-1.271246195250e+02 4.597869035655e-01 0.0 
4.597869035655e-01 -2.942125482899e+02 0.0 
0.0 0.0 -1.260011503445e+02 
-1.350620227682e+02 5.051035405959e-01 0.0 
5.051035405959e-01 -3.141871851483e+02 0.0 
0.0 0.0 -1.343747623749e+02 
-1.177963364295e+01 3.617900611805e+00 0.0 
3.617900611805e+00 -6.878560575619e+00 0.0 
0.0 0.0 -5.579913165517e+00 
-6.622792531913e+01 1.050610191565e+00 0.0 
1.050610191565e+00 -1.386762372940e+02 0.0 
0.0 0.0 -6.107124878395e+01 
-1.392067324188e+01 8.873017479088e+00 0.0 
8.873017479088e+00 -1.297003286165e+01 0.0 
0.0 0.0 -7.703071169863e+00 
-1.375735442516e+01 9.872990708979e+00 0.0 
9.872990708979e+00 -1.549308101447e+01 0.0 
0.0 0.0 -8.375130631892e+00 
-1.103022591296e+01 6.770297244775e+00 0.0 
6.770297244775e+00 -1.363969847724e+01 0.0 
0.0 0.0 -7.000977317058e+00 
-1.248633166779e+01 3.155012459161e+00 0.0 
3.155012459161e+00 -2.027803856062e+01 0.0 
0.0 0.0 -9.429311068523e+00 
-2.225020113948e+01 2.386947983718e+00 0.0 
2.386947983718e+00 -4.000895688934e+01 0.0 
0.0 0.0 -1.827774740865e+01 
-3.179973100031e+01 1.888406473523e+00 0.0 
1.888406473523e+00 -5.980694160564e+01 0.0 
0.0 0.0 -2.708200178178e+01 
-4.068271064045e+01 1.406526221867e+00 0.0 
1.406526221867e+00 -7.925629060020e+01 0.0 
0.0 0.0 -3.558170037219e+01 
-4.933137745994e+01 1.112716508607e+00 0.0 
1.112716508607e+00 -9.869817211923e+01 0.0 
0.0 0.0 -4.400886487375e+01 
-5.774242116286e+01 1.019093314427e+00 0.0 
1.019093314427e+00 -1.181537746104e+02 0.0 
0.0 0.0 -5.236885873198e+01 
-7.113742306235e+00 7.218654863241e-01 0.0 
7.218654863241e-01 -7.276019711544e+00 0.0 
0.0 0.0 -3.916928605334e+00 
-1.223931836023e+01 8.219659852984e-01 0.0 
8.219659852984e-01 -1.973443165190e+01 0.0 
0.0 0.0 -9.192125003637e+00 
-2.042623544939e+01 6.240761691546e-01 0.0 
6.240761691546e-01 -3.931811404906e+01 0.0 
0.0 0.0 -1.752330484954e+01 
-2.880206665735e+01 7.821652449815e-01 0.0 
7.821652449815e-01 -5.884650766972e+01 0.0 
0.0 0.0 -2.589457229812e+01 
-3.724928972075e+01 6.361651849842e-01 0.0 
6.361651849842e-01 -7.837928062030e+01 0.0 
0.0 0.0 -3.428857110232e+01 
-4.568886089843e+01 7.763814947179e-01 0.0 
7.763814947179e-01 -9.790457501696e+01 0.0 
0.0 0.0 -4.267803077462e+01 
-5.410565016705e+01 5.516089130848e-01 0.0 
5.516089130848e-01 -1.173347388078e+02 0.0 
0.0 0.0 -5.103211669244e+01 
-6.161370045224e+01 -2.314633338432e-01 0.0 
-2.314633338432e-01 -1.350091846497e+02 0.0 
0.0 0.0 -5.858686553059e+01 
-6.226002763287e+01 -3.767034745655e-02 0.0 
-3.767034745655e-02 -1.361991847575e+02 0.0 
0.0 0.0 -5.913776371712e+01 
-6.226870101815e+01 -4.397368500446e-02 0.0 
-4.397368500446e-02 -1.362339812497e+02 0.0 
0.0 0.0 -5.915080468035e+01 
-6.228536080815e+01 -2.994324832495e-04 0.0 
-2.994324832495e-04 -1.359980377967e+02 0.0 
0.0 0.0 -5.908501958145e+01 
-6.361992564587e+01 -2.318940653374e-02 0.0 
-2.318940653374e-02 -1.386393276460e+02 0.0 
0.0 0.0 -6.027777598756e+01 
-6.268962478553e+01 -3.646313963056e-02 0.0 
-3.646313963056e-02 -1.362973824062e+02 0.0 
0.0 0.0 -5.929610215752e+01 
-6.289420789141e+01 2.204745220059e-02 0.0 
2.204745220059e-02 -1.361213015995e+02 0.0 
0.0 0.0 -5.930465284728e+01 
-6.310770785213e+01 -2.682045265484e-02 0.0 
-2.682045265484e-02 -1.363142606657e+02 0.0 
0.0 0.0 -5.942659055534e+01 
-6.342223274331e+01 5.275374010181e-02 0.0 
5.275374010181e-02 -1.367620702902e+02 0.0 
0.0 0.0 -5.965529091004e+01 
-6.362575336396e+01 6.695242749224e-02 0.0 
6.695242749224e-02 -1.367148753087e+02 0.0 
0.0 0.0 -5.970218860178e+01 
-6.399542375754e+01 1.764310761569e-01 0.0 
1.764310761569e-01 -1.367164401741e+02 0.0 
0.0 0.0 -5.981355917949e+01 
-6.426764815088e+01 3.070520197409e-01 0.0 
3.070520197409e-01 -1.367324115768e+02 0.0 
0.0 0.0 -5.990001791830e+01 
-6.475861570079e+01 4.241054339163e-01 0.0 
4.241054339163e-01 -1.369539738226e+02 0.0 
0.0 0.0 -6.011377685703e+01 
-6.530194670912e+01 6.245056897323e-01 0.0 
6.245056897323e-01 -1.374614454392e+02 0.0 
0.0 0.0 -6.042901764450e+01 
-1.279772976016e+01 1.212122669208e+00 0.0 
1.212122669208e+00 -6.635033872431e+00 0.0 
0.0 0.0 -5.743728931395e+00 
-1.419847048649e+01 9.121474360265e-02 0.0 
9.121474360265e-02 -7.447397613692e+00 0.0 
0.0 0.0 -6.410631157650e+00 
-1.416608167496e+01 -4.482960308162e-01 0.0 
-4.482960308162e-01 -7.112129162305e+00 0.0 
0.0 0.0 -6.283881758928e+00 
-1.328886349279e+01 -3.837809532183e-01 0.0 
-3.837809532183e-01 -7.106877833601e+00 0.0 
0.0 0.0 -6.018864513653e+00 
-1.217171771980e+01 -4.010489170171e-01 0.0 
-4.010489170171e-01 -8.073515068919e+00 0.0 
0.0 0.0 -5.996348291666e+00 
-1.127738570855e+01 -4.847058908456e-01 0.0 
-4.847058908456e-01 -8.451260538482e+00 0.0 
0.0 0.0 -5.845577221022e+00 
-1.031984936450e+01 -4.734788924991e-01 0.0 
-4.734788924991e-01 -8.375903198308e+00 0.0 
0.0 0.0 -5.534217829802e+00 
-9.391261182034e+00 -4.270029505020e-01 0.0 
-4.270029505020e-01 -8.271632942590e+00 0.0 
0.0 0.0 -5.223616897137e+00 
-8.498656806229e+00 -3.981232814363e-01 0.0 
-3.981232814363e-01 -8.252498125124e+00 0.0 
0.0 0.0 -4.948650860335e+00 
-7.724340975788e+00 -3.491867333455e-01 0.0 
-3.491867333455e-01 -8.267518876453e+00 0.0 
0.0 0.0 -4.721504346597e+00 
-6.952037635569e+00 -2.599611402091e-01 0.0 
-2.599611402091e-01 -8.379101029988e+00 0.0 
0.0 0.0 -4.525017423312e+00 
-6.565544664073e+00 -3.286007331827e-01 0.0 
-3.286007331827e-01 -8.942524809663e+00 0.0 
0.0 0.0 -4.589090086789e+00 
-5.761964269205e+00 -3.868047965819e-01 0.0 
-3.868047965819e-01 -8.632104501878e+00 0.0 
0.0 0.0 -4.250110373566e+00 
-4.933699026080e+00 -2.914642377909e-01 0.0 
-2.914642377909e-01 -7.888578779014e+00 0.0 
0.0 0.0 -3.764908271077e+00 
-4.411303929081e+00 -2.204105114483e-01 0.0 
-2.204105114483e-01 -8.029513417104e+00 0.0 
0.0 0.0 -3.655207687402e+00 
-4.055749351429e+00 -1.826732269310e-01 0.0 
-1.826732269310e-01 -8.299459772693e+00 0.0 
0.0 0.0 -3.632314339669e+00 
-3.735994830071e+00 -1.112283862875e-01 0.0 
-1.112283862875e-01 -8.331167583135e+00 0.0 
0.0 0.0 -3.545532638079e+00 
-3.460219381708e+00 -1.304318682946e-01 0.0 
-1.304318682946e-01 -7.923779068624e+00 0.0 
0.0 0.0 -3.338092238990e+00 
-3.319690600002e+00 4.706602641155e-02 0.0 
4.706602641155e-02 -7.323185911833e+00 0.0 
0.0 0.0 -3.101279227939e+00 
-3.689183991013e+00 1.652130861451e+00 0.0 
1.652130861451e+00 -4.705475037304e+00 0.0 
0.0 0.0 -2.008918865702e+00 
-2.616065610936e+00 1.065828505434e+00 0.0 
1.065828505434e+00 -9.453665659413e+00 0.0 
0.0 0.0 -3.138810249010e+00 
-1.747747981211e+00 2.824980912903e-01 0.0 
2.824980912903e-01 -1.004518147285e+01 0.0 
0.0 0.0 -3.137878836218e+00 
-1.251618012755e+00 -2.915047665390e-02 0.0 
-2.915047665390e-02 -9.772939066781e+00 0.0 
0.0 0.0 -2.907367123861e+00 
-1.383817091007e+00 -2.078526793611e-01 0.0 
-2.078526793611e-01 -9.775223902185e+00 0.0 
0.0 0.0 -2.947712297958e+00 
-1.671168648056e+00 -2.677703391653e-01 0.0 
-2.677703391653e-01 -9.738764811668e+00 0.0 
0.0 0.0 -3.022980037917e+00 
-2.148515506667e+00 -3.017429845968e-01 0.0 
-3.017429845968e-01 -9.753722479027e+00 0.0 
0.0 0.0 -3.170671395708e+00 
-2.662926409378e+00 -3.063554583234e-01 0.0 
-3.063554583234e-01 -9.754447365732e+00 0.0 
0.0 0.0 -3.325212132533e+00 
-3.216067257623e+00 -3.010087811621e-01 0.0 
-3.010087811621e-01 -9.765837408724e+00 0.0 
0.0 0.0 -3.494571399904e+00 
-3.758125546631e+00 -2.863357098436e-01 0.0 
-2.863357098436e-01 -9.773499742634e+00 0.0 
0.0 0.0 -3.659487586780e+00 
-4.283414349558e+00 -2.674083169893e-01 0.0 
-2.674083169893e-01 -9.783028633492e+00 0.0 
0.0 0.0 -3.819932894915e+00 
-4.773757745929e+00 -2.449659928790e-01 0.0 
-2.449659928790e-01 -9.791618002367e+00 0.0 
0.0 0.0 -3.969612724489e+00 
-5.224230530182e+00 -2.210520060980e-01 0.0 
-2.210520060980e-01 -9.800715768974e+00 0.0 
0.0 0.0 -4.107483889747e+00 
-5.630697085931e+00 -1.972668245115e-01 0.0 
-1.972668245115e-01 -9.809547887335e+00 0.0 
0.0 0.0 -4.232073491980e+00 
-5.994186918257e+00 -1.747688909956e-01 0.0 
-1.747688909956e-01 -9.817861561496e+00 0.0 
0.0 0.0 -4.343614543926e+00 
-6.315675890927e+00 -1.535283902345e-01 0.0 
-1.535283902345e-01 -9.825302646078e+00 0.0 
0.0 0.0 -4.442293561101e+00 
-6.596456912464e+00 -1.331249617005e-01 0.0 
-1.331249617005e-01 -9.831768040959e+00 0.0 
0.0 0.0 -4.528467486027e+00 
-6.837695112896e+00 -1.128178372588e-01 0.0 
-1.128178372588e-01 -9.836822607313e+00 0.0 
0.0 0.0 -4.602355316063e+00 
-7.039711585431e+00 -9.118478652715e-02 0.0 
-9.118478652715e-02 -9.839437203513e+00 0.0 
0.0 0.0 -4.663744636683e+00 
-7.201163176527e+00 -6.535982447270e-02 0.0 
-6.535982447270e-02 -9.837507651849e+00 0.0 
0.0 0.0 -4.711601248513e+00 
-7.317508585387e+00 -3.007923624600e-02 0.0 
-3.007923624600e-02 -9.827117085752e+00 0.0 
0.0 0.0 -4.743387701341e+00 
-7.380610269088e+00 2.296023850644e-02 0.0 
2.296023850644e-02 -9.802004973311e+00 0.0 
0.0 0.0 -4.754784572720e+00 
-7.381688001975e+00 1.028819542296e-01 0.0 
1.028819542296e-01 -9.745692959707e+00 0.0 
0.0 0.0 -4.738214288504e+00 
-7.356855124392e+00 2.007711893192e-01 0.0 
2.007711893192e-01 -9.154022482989e+00 0.0 
0.0 0.0 -4.553263282214e+00 
-7.197814184801e+00 -2.883559306310e-01 0.0 
-2.883559306310e-01 -6.884157797169e+00 0.0 
0.0 0.0 -3.824591594591e+00 
-1.213071565982e+01 -2.533994769488e-01 0.0 
-2.533994769488e-01 -1.968725699468e+01 0.0 
0.0 0.0 -9.145391796349e+00 
-1.184938181546e+01 -3.375972446136e-02 0.0 
-3.375972446136e-02 -1.957223540215e+01 0.0 
0.0 0.0 -9.026485165282e+00 
-1.174550594162e+01 -1.824030004994e-02 0.0 
-1.824030004994e-02 -1.955123851679e+01 0.0 
0.0 0.0 -8.989023337522e+00 
-1.166335517062e+01 -6.796452807779e-02 0.0 
-6.796452807779e-02 -1.956673836238e+01 0.0 
0.0 0.0 -8.969028059901e+00 
-1.157009548588e+01 -1.165807742973e-01 0.0 
-1.165807742973e-01 -1.958084422757e+01 0.0 
0.0 0.0 -8.945281914035e+00 
-1.145480221207e+01 -1.601814719793e-01 0.0 
-1.601814719793e-01 -1.958952827446e+01 0.0 
0.0 0.0 -8.913299145957e+00 
-1.131407209820e+01 -2.004959355812e-01 0.0 
-2.004959355812e-01 -1.959392100672e+01 0.0 
0.0 0.0 -8.872397931478e+00 
-1.114701277129e+01 -2.397898559764e-01 0.0 
-2.397898559764e-01 -1.959574327453e+01 0.0 
0.0 0.0 -8.822826813747e+00 
-1.095276361506e+01 -2.793935122833e-01 0.0 
-2.793935122833e-01 -1.959635921501e+01 0.0 
0.0 0.0 -8.764736849020e+00 
-1.073108545987e+01 -3.198420651751e-01 0.0 
-3.198420651751e-01 -1.959646823419e+01 0.0 
0.0 0.0 -8.698266108217e+00 
-1.048250566143e+01 -3.610408503551e-01 0.0 
-3.610408503551e-01 -1.959648445443e+01 0.0 
0.0 0.0 -8.623697034758e+00 
-1.020890170991e+01 -4.026483667186e-01 0.0 
-4.026483667186e-01 -1.959649624163e+01 0.0 
0.0 0.0 -8.541619385464e+00 
-9.912869073370e+00 -4.439192843168e-01 0.0 
-4.439192843168e-01 -1.959864301939e+01 0.0 
0.0 0.0 -8.453453627828e+00 
-9.597331459893e+00 -4.808808981432e-01 0.0 
-4.808808981432e-01 -1.960347893039e+01 0.0 
0.0 0.0 -8.360243117084e+00 
-9.271848308994e+00 -5.096455382773e-01 0.0 
-5.096455382773e-01 -1.961383969259e+01 0.0 
0.0 0.0 -8.265706400475e+00 
-8.950012573718e+00 -5.222515168041e-01 0.0 
-5.222515168041e-01 -1.962436061181e+01 0.0 
0.0 0.0 -8.172311955657e+00 
-8.659159010769e+00 -5.176417162166e-01 0.0 
-5.176417162166e-01 -1.964846694006e+01 0.0 
0.0 0.0 -8.092287785248e+00 
-8.417013039116e+00 -4.758623071577e-01 0.0 
-4.758623071577e-01 -1.966767178305e+01 0.0 
0.0 0.0 -8.025405446649e+00 
-8.290573798588e+00 -3.980635645710e-01 0.0 
-3.980635645710e-01 -1.973533984537e+01 0.0 
0.0 0.0 -8.007774093187e+00 
-8.289761603091e+00 -2.234726839188e-01 0.0 
-2.234726839188e-01 -1.977046911994e+01 0.0 
0.0 0.0 -8.018069216910e+00 
-8.616964211263e+00 3.903513331812e-02 0.0 
3.903513331812e-02 -1.999191450295e+01 0.0 
0.0 0.0 -8.182663614264e+00 
-9.998803297557e+00 7.539681241941e-01 0.0 
7.539681241941e-01 -2.123920758781e+01 0.0 
0.0 0.0 -8.971403265610e+00 
-9.377460283950e+00 1.254711104896e+00 0.0 
1.254711104896e+00 -1.778543862925e+01 0.0 
0.0 0.0 -7.748869673961e+00 
-2.027542167209e+01 1.093570817160e+00 0.0 
1.093570817160e+00 -3.753149896895e+01 0.0 
0.0 0.0 -1.694207619231e+01 
-2.102813727302e+01 6.892867773928e-01 0.0 
6.892867773928e-01 -4.096546717472e+01 0.0 
0.0 0.0 -1.819808133432e+01 
-1.978495599294e+01 1.909960281428e-02 0.0 
1.909960281428e-02 -3.971438861245e+01 0.0 
0.0 0.0 -1.744980338162e+01 
-1.933944352249e+01 -2.645056711236e-01 0.0 
-2.645056711236e-01 -3.944693465619e+01 0.0 
0.0 0.0 -1.723591345360e+01 
-1.917027842197e+01 -4.672598221051e-01 0.0 
-4.672598221051e-01 -3.938558355979e+01 0.0 
0.0 0.0 -1.716675859453e+01 
-1.906850912055e+01 -5.716313716387e-01 0.0 
-5.716313716387e-01 -3.928406034930e+01 0.0 
0.0 0.0 -1.710577084096e+01 
-1.908586460639e+01 -6.279176323355e-01 0.0 
-6.279176323355e-01 -3.924353208014e+01 0.0 
0.0 0.0 -1.709881900596e+01 
-1.914563490699e+01 -6.380073822620e-01 0.0 
-6.380073822620e-01 -3.919822797793e+01 0.0 
0.0 0.0 -1.710315886548e+01 
-1.924428888481e+01 -6.192887079013e-01 0.0 
-6.192887079013e-01 -3.917647404848e+01 0.0 
0.0 0.0 -1.712622887999e+01 
-1.935393923127e+01 -5.824640570851e-01 0.0 
-5.824640570851e-01 -3.916388464648e+01 0.0 
0.0 0.0 -1.715534716333e+01 
-1.947355368807e+01 -5.387869900024e-01 0.0 
-5.387869900024e-01 -3.916068910178e+01 0.0 
0.0 0.0 -1.719027283695e+01 
-1.959608228446e+01 -4.906469595684e-01 0.0 
-4.906469595684e-01 -3.915855252278e+01 0.0 
0.0 0.0 -1.722639044217e+01 
-1.971501918926e+01 -4.389473351240e-01 0.0 
-4.389473351240e-01 -3.915816013740e+01 0.0 
0.0 0.0 -1.726195379800e+01 
-1.982538253523e+01 -3.858177430533e-01 0.0 
-3.858177430533e-01 -3.915897243246e+01 0.0 
0.0 0.0 -1.729530649031e+01 
-1.992526658823e+01 -3.325680626992e-01 0.0 
-3.325680626992e-01 -3.915916973665e+01 0.0 
0.0 0.0 -1.732533089746e+01 
-2.001543461654e+01 -2.797549089236e-01 0.0 
-2.797549089236e-01 -3.915672576110e+01 0.0 
0.0 0.0 -1.735164811329e+01 
-2.009662118076e+01 -2.261426687397e-01 0.0 
-2.261426687397e-01 -3.914975961051e+01 0.0 
0.0 0.0 -1.737391423738e+01 
-2.016979798156e+01 -1.722947021062e-01 0.0 
-1.722947021062e-01 -3.913878022453e+01 0.0 
0.0 0.0 -1.739257346183e+01 
-2.023968662540e+01 -1.223998482117e-01 0.0 
-1.223998482117e-01 -3.912784012219e+01 0.0 
0.0 0.0 -1.741025802427e+01 
-2.031180498962e+01 -8.408028405251e-02 0.0 
-8.408028405251e-02 -3.913369773215e+01 0.0 
0.0 0.0 -1.743365081653e+01 
-2.038808447691e+01 -4.430200595085e-02 0.0 
-4.430200595085e-02 -3.919396509694e+01 0.0 
0.0 0.0 -1.747461487215e+01 
-2.042025848907e+01 -4.781507486291e-01 0.0 
-4.781507486291e-01 -3.927956049959e+01 0.0 
0.0 0.0 -1.750994569660e+01 
-2.881354188296e+01 -3.671712248078e-01 0.0 
-3.671712248078e-01 -5.880678850662e+01 0.0 
0.0 0.0 -2.588609911687e+01 
-2.881348331826e+01 -1.889697506565e-01 0.0 
-1.889697506565e-01 -5.873660010502e+01 0.0 
0.0 0.0 -2.586502502698e+01 
-2.879291082171e+01 -1.617290514851e-01 0.0 
-1.617290514851e-01 -5.870688578319e+01 0.0 
0.0 0.0 -2.584993898147e+01 
-2.876370905561e+01 -2.075662614966e-01 0.0 
-2.075662614966e-01 -5.870477124300e+01 0.0 
0.0 0.0 -2.584054408958e+01 
-2.873484872067e+01 -2.632024192474e-01 0.0 
-2.632024192474e-01 -5.871287370128e+01 0.0 
0.0 0.0 -2.583431672658e+01 
-2.870605780731e+01 -3.229106022939e-01 0.0 
-3.229106022939e-01 -5.872229980203e+01 0.0 
0.0 0.0 -2.582850728280e+01 
-2.867801977743e+01 -3.816499841705e-01 0.0 
-3.816499841705e-01 -5.872829115521e+01 0.0 
0.0 0.0 -2.582189327979e+01 
-2.865439711590e+01 -4.403834670400e-01 0.0 
-4.403834670400e-01 -5.872811059448e+01 0.0 
0.0 0.0 -2.581475231311e+01 
-2.863637912040e+01 -5.003126798212e-01 0.0 
-5.003126798212e-01 -5.872838604565e+01 0.0 
0.0 0.0 -2.580942954982e+01 
-2.861939955563e+01 -5.576750423780e-01 0.0 
-5.576750423780e-01 -5.873247367634e+01 0.0 
0.0 0.0 -2.580556196959e+01 
-2.861216042984e+01 -6.060477948299e-01 0.0 
-6.060477948299e-01 -5.874134621885e+01 0.0 
0.0 0.0 -2.580605199461e+01 
-2.862441714210e+01 -6.416452450229e-01 0.0 
-6.416452450229e-01 -5.875290980138e+01 0.0 
0.0 0.0 -2.581319808304e+01 
-2.866365767582e+01 -6.644602881330e-01 0.0 
-6.644602881330e-01 -5.876551413372e+01 0.0 
0.0 0.0 -2.582875154286e+01 
-2.873962785849e+01 -6.728419879009e-01 0.0 
-6.728419879009e-01 -5.881044053882e+01 0.0 
0.0 0.0 -2.586502051919e+01 
-2.884340164890e+01 -6.326112360624e-01 0.0 
-6.326112360624e-01 -5.887394607653e+01 0.0 
0.0 0.0 -2.591520431763e+01 
-2.902727390859e+01 -5.409923942100e-01 0.0 
-5.409923942100e-01 -5.899853704062e+01 0.0 
0.0 0.0 -2.600774328476e+01 
-2.926889326652e+01 -3.392642123723e-01 0.0 
-3.392642123723e-01 -5.908465950849e+01 0.0 
0.0 0.0 -2.610606583250e+01 
-2.974309253868e+01 -9.717031688618e-02 0.0 
-9.717031688618e-02 -5.933922188227e+01 0.0 
0.0 0.0 -2.632469432629e+01 
-3.086909179711e+01 4.867081710400e-01 0.0 
4.867081710400e-01 -6.062072916828e+01 0.0 
0.0 0.0 -2.704694628962e+01 
-3.013734449463e+01 8.741337719436e-01 0.0 
8.741337719436e-01 -5.722814876067e+01 0.0 
0.0 0.0 -2.580964797659e+01 
-3.932529288940e+01 6.534481844337e-01 0.0 
6.534481844337e-01 -7.676046525741e+01 0.0 
0.0 0.0 -3.442572744404e+01 
-4.008801578030e+01 4.178291724889e-01 0.0 
4.178291724889e-01 -8.017442303378e+01 0.0 
0.0 0.0 -3.567873164422e+01 
-3.902818036725e+01 -7.603812401119e-02 0.0 
-7.603812401119e-02 -7.897473658547e+01 0.0 
0.0 0.0 -3.500087508581e+01 
-3.855752137870e+01 -2.850541097645e-01 0.0 
-2.850541097645e-01 -7.866354570064e+01 0.0 
0.0 0.0 -3.476632012380e+01 
-3.830864895763e+01 -4.298917116665e-01 0.0 
-4.298917116665e-01 -7.854538763715e+01 0.0 
0.0 0.0 -3.465621097843e+01 
-3.804594414315e+01 -4.795018974563e-01 0.0 
-4.795018974563e-01 -7.841826090472e+01 0.0 
0.0 0.0 -3.453926151436e+01 
-3.785712684387e+01 -5.073264658147e-01 0.0 
-5.073264658147e-01 -7.838942708102e+01 0.0 
0.0 0.0 -3.447396617747e+01 
-3.770941955234e+01 -5.167355217680e-01 0.0 
-5.167355217680e-01 -7.835800455087e+01 0.0 
0.0 0.0 -3.442022723096e+01 
-3.759576302441e+01 -5.055930038848e-01 0.0 
-5.055930038848e-01 -7.832950143376e+01 0.0 
0.0 0.0 -3.437757933745e+01 
-3.751739853704e+01 -4.734669179568e-01 0.0 
-4.734669179568e-01 -7.830681260583e+01 0.0 
0.0 0.0 -3.434726334286e+01 
-3.745325823905e+01 -4.240922943264e-01 0.0 
-4.240922943264e-01 -7.830250304647e+01 0.0 
0.0 0.0 -3.432672838566e+01 
-3.739362631756e+01 -3.788083245963e-01 0.0 
-3.788083245963e-01 -7.830569080614e+01 0.0 
0.0 0.0 -3.430979513711e+01 
-3.736106190929e+01 -3.352398589012e-01 0.0 
-3.352398589012e-01 -7.829926762120e+01 0.0 
0.0 0.0 -3.429809885915e+01 
-3.733498690814e+01 -2.844569271105e-01 0.0 
-2.844569271105e-01 -7.828704177787e+01 0.0 
0.0 0.0 -3.428660860580e+01 
-3.731740874539e+01 -2.324483218396e-01 0.0 
-2.324483218396e-01 -7.828164010440e+01 0.0 
0.0 0.0 -3.427971465494e+01 
-3.730271406585e+01 -1.842974803300e-01 0.0 
-1.842974803300e-01 -7.828120256832e+01 0.0 
0.0 0.0 -3.427517499025e+01 
-3.729408833079e+01 -1.304503949249e-01 0.0 
-1.304503949249e-01 -7.830085302668e+01 0.0 
0.0 0.0 -3.427848240724e+01 
-3.726983146455e+01 -5.761114496399e-02 0.0 
-5.761114496399e-02 -7.834560195043e+01 0.0 
0.0 0.0 -3.428463002449e+01 
-3.725465433716e+01 -4.748830246221e-01 0.0 
-4.748830246221e-01 -7.837718176530e+01 0.0 
0.0 0.0 -3.428955083074e+01 
-4.567214751204e+01 -3.427882761602e-01 0.0 
-3.427882761602e-01 -9.793567231624e+01 0.0 
0.0 0.0 -4.268234594848e+01 
-4.573559302845e+01 -1.372347827055e-01 0.0 
-1.372347827055e-01 -9.786837258246e+01 0.0 
0.0 0.0 -4.268118968327e+01 
-4.577849918021e+01 -1.374888714014e-01 0.0 
-1.374888714014e-01 -9.784013855200e+01 0.0 
0.0 0.0 -4.268559131966e+01 
-4.581953623641e+01 -1.778556045483e-01 0.0 
-1.778556045483e-01 -9.784639037094e+01 0.0 
0.0 0.0 -4.269977798221e+01 
-4.589059591304e+01 -2.241665402250e-01 0.0 
-2.241665402250e-01 -9.784468784631e+01 0.0 
0.0 0.0 -4.272058512780e+01 
-4.595242125821e+01 -2.701367120244e-01 0.0 
-2.701367120244e-01 -9.785626328114e+01 0.0 
0.0 0.0 -4.274260536181e+01 
-4.604015960469e+01 -3.110086950793e-01 0.0 
-3.110086950793e-01 -9.788122149135e+01 0.0 
0.0 0.0 -4.277641432881e+01 
-4.613515821634e+01 -3.244676636186e-01 0.0 
-3.244676636186e-01 -9.788007709260e+01 0.0 
0.0 0.0 -4.280457059268e+01 
-4.626939249273e+01 -3.646216279808e-01 0.0 
-3.646216279808e-01 -9.786362334434e+01 0.0 
0.0 0.0 -4.283990475112e+01 
-4.640637296617e+01 -3.927055455632e-01 0.0 
-3.927055455632e-01 -9.791041511227e+01 0.0 
0.0 0.0 -4.289503642353e+01 
-4.658452501645e+01 -3.757426360058e-01 0.0 
-3.757426360058e-01 -9.796236256471e+01 0.0 
0.0 0.0 -4.296406627435e+01 
-4.681477385327e+01 -3.399362185254e-01 0.0 
-3.399362185254e-01 -9.800766516689e+01 0.0 
0.0 0.0 -4.304673170605e+01 
-4.707106713882e+01 -2.725122449992e-01 0.0 
-2.725122449992e-01 -9.808243724443e+01 0.0 
0.0 0.0 -4.314605131498e+01 
-4.737348824720e+01 -1.677696459184e-01 0.0 
-1.677696459184e-01 -9.811772480965e+01 0.0 
0.0 0.0 -4.324736391706e+01 
-4.782847810937e+01 -7.317539011352e-02 0.0 
-7.317539011352e-02 -9.842261086257e+01 0.0 
0.0 0.0 -4.347532669158e+01 
-4.885156970490e+01 3.547893861433e-01 0.0 
3.547893861433e-01 -9.973308382779e+01 0.0 
0.0 0.0 -4.417539605981e+01 
-4.810768846085e+01 5.566699970522e-01 0.0 
5.566699970522e-01 -9.634447630491e+01 0.0 
0.0 0.0 -4.293564942973e+01 
-5.654339590918e+01 5.303787164989e-01 0.0 
5.303787164989e-01 -1.157856167778e+02 0.0 
0.0 0.0 -5.129870380609e+01 
-5.718785178594e+01 4.263400610341e-01 0.0 
4.263400610341e-01 -1.190721287773e+02 0.0 
0.0 0.0 -5.247799416897e+01 
-5.626835515342e+01 1.290706148414e-01 0.0 
1.290706148414e-01 -1.179118690955e+02 0.0 
0.0 0.0 -5.185406727467e+01 
-5.594416864625e+01 -3.090278080417e-03 0.0 
-3.090278080417e-03 -1.177420217226e+02 0.0 
0.0 0.0 -5.170585711066e+01 
-5.562207242140e+01 -6.609610753217e-02 0.0 
-6.609610753217e-02 -1.176738509620e+02 0.0 
0.0 0.0 -5.158877701502e+01 
-5.534440190092e+01 -1.468023628962e-01 0.0 
-1.468023628962e-01 -1.176274376009e+02 0.0 
0.0 0.0 -5.149155185055e+01 
-5.509481978894e+01 -1.928601926903e-01 0.0 
-1.928601926903e-01 -1.175097474163e+02 0.0 
0.0 0.0 -5.138137016157e+01 
-5.489110629845e+01 -1.623359538342e-01 0.0 
-1.623359538342e-01 -1.174704129495e+02 0.0 
0.0 0.0 -5.130845577439e+01 
-5.481163028250e+01 -1.831608201678e-01 0.0 
-1.831608201678e-01 -1.175316790137e+02 0.0 
0.0 0.0 -5.130299278885e+01 
-5.461516777943e+01 -1.606033300522e-01 0.0 
-1.606033300522e-01 -1.174748437386e+02 0.0 
0.0 0.0 -5.122700345542e+01 
-5.449569193224e+01 -1.539557422796e-01 0.0 
-1.539557422796e-01 -1.174508322296e+02 0.0 
0.0 0.0 -5.118395724854e+01 
-5.439800305901e+01 -9.771223907153e-02 0.0 
-9.771223907153e-02 -1.174423129713e+02 0.0 
0.0 0.0 -5.115209480910e+01 
-5.428885308642e+01 -9.797402917269e-02 0.0 
-9.797402917269e-02 -1.174628226881e+02 0.0 
0.0 0.0 -5.112550273235e+01 
-5.421167814812e+01 -4.728008785746e-02 0.0 
-4.728008785746e-02 -1.174036827547e+02 0.0 
0.0 0.0 -5.108460827086e+01 
-5.417799964966e+01 7.687976640864e-02 0.0 
7.687976640864e-02 -1.175396489954e+02 0.0 
0.0 0.0 -5.111529459351e+01 
-5.408009604517e+01 -4.787344603105e-01 0.0 
-4.787344603105e-01 -1.176143988380e+02 0.0 
0.0 0.0 -5.110834846495e+01 
-1.260772558843e+01 6.954086349448e+00 0.0 
6.954086349448e+00 -9.671508834077e+00 0.0 
0.0 0.0 -6.376169373540e+00 
-1.412563167471e+01 9.698790632575e+00 0.0 
9.698790632575e+00 -1.477129734448e+01 0.0 
0.0 0.0 -8.269078705758e+00 
-1.318232422597e+01 9.419180501310e+00 0.0 
9.419180501310e+00 -1.561282601854e+01 0.0 
0.0 0.0 -8.238545073355e+00 
-1.067372161806e+01 4.042910824243e+00 0.0 
4.042910824243e+00 -1.377191097757e+01 0.0 
0.0 0.0 -6.933689778690e+00 
-1.904773941837e+01 2.957881517498e+00 0.0 
2.957881517498e+00 -3.246903144298e+01 0.0 
0.0 0.0 -1.505503125840e+01 
-2.847698310942e+01 2.126676131256e+00 0.0 
2.126676131256e+00 -5.199201409024e+01 0.0 
0.0 0.0 -2.374069915990e+01 
-3.745827148358e+01 1.609303153733e+00 0.0 
1.609303153733e+00 -7.144778983246e+01 0.0 
0.0 0.0 -3.227181839481e+01 
-4.620932184784e+01 1.184055624614e+00 0.0 
1.184055624614e+00 -9.089988884254e+01 0.0 
0.0 0.0 -4.073276320711e+01 
-5.469546239987e+01 1.009288739323e+00 0.0 
1.009288739323e+00 -1.103243062788e+02 0.0 
0.0 0.0 -4.910593060361e+01 
-6.300712055066e+01 9.509319281451e-01 0.0 
9.509319281451e-01 -1.299007019829e+02 0.0 
0.0 0.0 -5.747234676007e+01 
-1.458155473890e+01 9.791509813804e+00 0.0 
9.791509813804e+00 -2.332186056249e+01 0.0 
0.0 0.0 -1.097102459042e+01 
-1.524569593108e+02 1.014510529272e+01 0.0 
1.014510529272e+01 -3.599633082842e+02 0.0 
0.0 0.0 -1.533260802785e+02 
-1.070404156760e+01 -6.298744821355e-01 0.0 
-6.298744821355e-01 -1.680131836290e+01 0.0 
0.0 0.0 -8.238908004002e+00 
-1.375003140314e+01 -5.459870859488e-01 0.0 
-5.459870859488e-01 -1.610299890818e+01 0.0 
0.0 0.0 -8.942816823960e+00 
-1.555956109800e+02 6.847535492211e+00 0.0 
6.847535492211e+00 -3.681686037826e+02 0.0 
0.0 0.0 -1.567292644288e+02 
-2.090630282858e+01 6.680991962153e+00 0.0 
6.680991962153e+00 -3.428230733194e+01 0.0 
0.0 0.0 -1.615658304816e+01 
-8.165064238561e+01 7.091181518092e-02 0.0 
7.091181518092e-02 -2.081875358161e+02 0.0 
0.0 0.0 -8.655145346052e+01 
-1.489016408803e+02 1.161445523146e+01 0.0 
1.161445523146e+01 -3.500076921936e+02 0.0 
0.0 0.0 -1.492727999222e+02 
-3.654914546510e+01 3.513654426765e+00 0.0 
3.513654426765e+00 -6.861599225738e+01 0.0 
0.0 0.0 -3.114954131674e+01 
-1.459514210708e+02 1.166686781037e+01 0.0 
1.166686781037e+01 -3.406089811281e+02 0.0 
0.0 0.0 -1.455681206597e+02 
-5.371655199036e+01 1.951554259312e+00 0.0 
1.951554259312e+00 -1.077601320156e+02 0.0 
0.0 0.0 -4.804300520180e+01 
-1.580605519946e+02 4.242639664557e+00 0.0 
4.242639664557e+00 -3.732178048714e+02 0.0 
0.0 0.0 -1.589835070598e+02 
-8.257353253515e+00 -4.471581511473e-01 0.0 
-4.471581511473e-01 -1.617789911786e+01 0.0 
0.0 0.0 -7.340259338564e+00 
-1.427780942114e+02 9.994949666071e+00 0.0 
9.994949666071e+00 -3.315255826755e+02 0.0 
0.0 0.0 -1.418911030661e+02 
-7.016592088329e+01 1.501946075642e+00 0.0 
1.501946075642e+00 -1.469422460892e+02 0.0 
0.0 0.0 -6.473245009173e+01 
-5.022885119188e+01 -1.563851235841e-01 0.0 
-1.563851235841e-01 -1.295691442202e+02 0.0 
0.0 0.0 -5.353939862362e+01 
-1.047542553174e+02 1.515638488141e-01 0.0 
1.515638488141e-01 -2.615041260470e+02 0.0 
0.0 0.0 -1.094775144093e+02 
-1.406741615593e+02 8.199466248887e+00 0.0 
8.199466248887e+00 -3.256422405792e+02 0.0 
0.0 0.0 -1.394949206415e+02 
-1.387927470795e+02 5.565166822317e+00 0.0 
5.565166822317e+00 -3.220155196863e+02 0.0 
0.0 0.0 -1.378424800297e+02 
-1.365760777120e+02 1.678681762830e+00 0.0 
1.678681762830e+00 -3.183028827773e+02 0.0 
0.0 0.0 -1.360636881468e+02 
-1.364526283177e+02 2.656079095583e+00 0.0 
2.656079095583e+00 -3.172130373864e+02 0.0 
0.0 0.0 -1.356996997112e+02 
-1.378923459446e+02 4.139274736334e+00 0.0 
4.139274736334e+00 -3.205326572967e+02 0.0 
0.0 0.0 -1.371275009724e+02 
-7.292858685424e+01 9.656729892979e-01 0.0 
9.656729892979e-01 -1.552491030997e+02 0.0 
0.0 0.0 -6.805330698619e+01 
-7.135232403019e+01 3.277371195831e-01 0.0 
3.277371195831e-01 -1.546724667921e+02 0.0 
0.0 0.0 -6.740743724670e+01 
-7.120912518648e+01 2.430979371647e-01 0.0 
2.430979371647e-01 -1.558774622903e+02 0.0 
0.0 0.0 -6.772597624304e+01 
-9.960775163982e+01 2.587146891032e-01 0.0 
2.587146891032e-01 -2.258408503265e+02 0.0 
0.0 0.0 -9.723458058990e+01 
-1.581482835305e+02 2.559142841677e+00 0.0 
2.559142841677e+00 -3.735517181946e+02 0.0 
0.0 0.0 -1.591100005175e+02 
-1.376412431728e+01 9.105332027010e-01 0.0 
9.105332027010e-01 -1.510574957833e+01 0.0 
0.0 0.0 -8.661226042393e+00 
-7.398839512585e+00 -2.558116375925e-01 0.0 
-2.558116375925e-01 -1.718849463572e+01 0.0 
0.0 0.0 -7.365200531063e+00 
-1.329551350227e+02 3.695938343540e-01 0.0 
3.695938343540e-01 -3.224527156339e+02 0.0 
0.0 0.0 -1.362223551970e+02 
-6.960696378899e+01 -2.177983364876e-02 0.0 
-2.177983364876e-02 -1.535403093979e+02 0.0 
0.0 0.0 -6.654418195606e+01 
-2.659017596501e+01 -1.865894312081e-01 0.0 
-1.865894312081e-01 -6.881690728783e+01 0.0 
0.0 0.0 -2.822212497585e+01 
-1.383488287296e+02 6.733240248307e+00 0.0 
6.733240248307e+00 -3.202802269652e+02 0.0 
0.0 0.0 -1.371887167084e+02 
-1.479774678412e+02 1.189737567311e+01 0.0 
1.189737567311e+01 -3.466206703265e+02 0.0 
0.0 0.0 -1.479794414503e+02 
-1.442477730890e+02 1.098593708474e+01 0.0 
1.098593708474e+01 -3.357295916662e+02 0.0 
0.0 0.0 -1.435932094266e+02 
-1.500136307840e+02 1.103003235078e+01 0.0 
1.103003235078e+01 -3.538229028413e+02 0.0 
0.0 0.0 -1.507509600876e+02 
-1.541210590635e+02 8.980279552485e+00 0.0 
8.980279552485e+00 -3.643310473830e+02 0.0 
0.0 0.0 -1.551356319340e+02 
-1.279521184225e+01 -7.941238586355e-01 0.0 
-7.941238586355e-01 -1.718324854507e+01 0.0 
0.0 0.0 -8.982739740413e+00 
-7.178671988084e+01 5.477327239892e-01 0.0 
5.477327239892e-01 -1.542206379038e+02 0.0 
0.0 0.0 -6.740220733540e+01 
-1.550613475312e+02 5.450937585245e+00 0.0 
5.450937585245e+00 -3.674832207975e+02 0.0 
0.0 0.0 -1.563633704986e+02 
-1.152544678097e+02 3.020795505855e-01 0.0 
3.020795505855e-01 -2.645761686924e+02 0.0 
0.0 0.0 -1.135491909506e+02 
-9.592677013681e+00 -5.603405510009e-01 0.0 
-5.603405510009e-01 -1.706974086794e+01 0.0 
0.0 0.0 -7.999594163991e+00 
-6.534456598390e+01 -3.522905626580e-02 0.0 
-3.522905626580e-02 -1.679639487257e+02 0.0 
0.0 0.0 -6.959255441289e+01 
-1.375189748776e+02 1.038102388091e+00 0.0 
1.038102388091e+00 -3.209628294442e+02 0.0 
0.0 0.0 -1.371445412965e+02 
-2.926049002115e+01 5.093935042484e+00 0.0 
5.093935042484e+00 -5.244554374675e+01 0.0 
0.0 0.0 -2.411181013037e+01 
-1.600098064430e+01 1.026484307072e+01 0.0 
1.026484307072e+01 -2.547603804384e+01 0.0 
0.0 0.0 -1.204310560644e+01 
-4.519228573593e+01 2.582048067578e+00 0.0 
2.582048067578e+00 -8.811830573087e+01 0.0 
0.0 0.0 -3.959317744004e+01 
-6.196144165116e+01 1.711067647165e+00 0.0 
1.711067647165e+00 -1.270906180360e+02 0.0 
0.0 0.0 -5.631561790614e+01 
-1.308893011358e+01 6.966471858650e+00 0.0 
6.966471858650e+00 -1.729870919906e+01 0.0 
0.0 0.0 -8.765559827476e+00 
-8.422054621354e+01 9.587414687101e-02 0.0 
9.587414687101e-02 -1.884970459016e+02 0.0 
0.0 0.0 -8.141527763454e+01 
-1.599388541512e+02 1.444450761157e+00 0.0 
1.444450761157e+00 -3.772173472702e+02 0.0 
0.0 0.0 -1.607468604264e+02 
-6.828413572428e+00 -1.850127968555e-01 0.0 
-1.850127968555e-01 -1.635313585402e+01 0.0 
0.0 0.0 -6.910330569411e+00 
-1.306507379394e+02 2.511037198672e-01 0.0 
2.511037198672e-01 -3.030632322690e+02 0.0 
0.0 0.0 -1.297141910625e+02 
-7.407707260035e+01 1.531874211106e+00 0.0 
1.531874211106e+00 -1.560902599507e+02 0.0 
0.0 0.0 -6.865019976532e+01 
-7.789839770288e+01 2.108486296107e+00 0.0 
2.108486296107e+00 -1.645973535499e+02 0.0 
0.0 0.0 -7.234872537583e+01 
-8.148701388284e+01 1.936746420311e+00 0.0 
1.936746420311e+00 -1.736477715368e+02 0.0 
0.0 0.0 -7.614043562590e+01 
-8.587415810744e+01 2.764749362023e+00 0.0 
2.764749362023e+00 -1.836561002026e+02 0.0 
0.0 0.0 -8.045907749300e+01 
-8.982866221302e+01 2.670640580967e+00 0.0 
2.670640580967e+00 -1.935997410667e+02 0.0 
0.0 0.0 -8.462852098391e+01 
-9.375628850852e+01 3.357374224217e+00 0.0 
3.357374224217e+00 -2.026935716523e+02 0.0 
0.0 0.0 -8.853495804825e+01 
-8.995296675076e+01 3.471758053024e+00 0.0 
3.471758053024e+00 -1.928631783538e+02 0.0 
0.0 0.0 -8.444484353137e+01 
-9.777184276199e+01 4.086748639178e+00 0.0 
4.086748639178e+00 -2.120248234651e+02 0.0 
0.0 0.0 -9.253899986813e+01 
-9.390634189543e+01 4.233475547596e+00 0.0 
4.233475547596e+00 -2.021631831562e+02 0.0 
0.0 0.0 -8.842085751549e+01 
-9.782242518299e+01 3.294495121744e+00 0.0 
3.294495121744e+00 -2.129070334680e+02 0.0 
0.0 0.0 -9.281883759529e+01 
-1.016830443140e+02 4.854000383224e+00 0.0 
4.854000383224e+00 -2.214901751109e+02 0.0 
0.0 0.0 -9.655196582747e+01 
-9.781694609253e+01 5.041074350643e+00 0.0 
5.041074350643e+00 -2.116806001471e+02 0.0 
0.0 0.0 -9.244926387188e+01 
-1.055236835293e+02 5.629181801261e+00 0.0 
5.629181801261e+00 -2.311104132303e+02 0.0 
0.0 0.0 -1.005902290279e+02 
-1.016593978902e+02 5.865301586221e+00 0.0 
5.865301586221e+00 -2.214300990545e+02 0.0 
0.0 0.0 -9.652684908342e+01 
-9.394814948320e+01 5.300377890386e+00 0.0 
5.300377890386e+00 -2.020777905768e+02 0.0 
0.0 0.0 -8.840778201800e+01 
-9.776631989957e+01 6.155912345640e+00 0.0 
6.155912345640e+00 -2.119555643255e+02 0.0 
0.0 0.0 -9.251656526753e+01 
-9.003707509070e+01 5.631260376941e+00 0.0 
5.631260376941e+00 -1.925856057060e+02 0.0 
0.0 0.0 -8.438680423900e+01 
-9.382911914697e+01 6.530162759550e+00 0.0 
6.530162759550e+00 -2.026459224682e+02 0.0 
0.0 0.0 -8.854251248454e+01 
-1.015100805522e+02 6.978961440209e+00 0.0 
6.978961440209e+00 -2.220687070745e+02 0.0 
0.0 0.0 -9.667363628802e+01 
-9.753077701450e+01 7.377541432162e+00 0.0 
7.377541432162e+00 -2.129413330409e+02 0.0 
0.0 0.0 -9.274163301663e+01 
-8.979129227672e+01 6.988783191757e+00 0.0 
6.988783191757e+00 -1.934693452572e+02 0.0 
0.0 0.0 -8.457819126018e+01 
-9.343629172303e+01 7.837265799486e+00 0.0 
7.837265799486e+00 -2.039709276646e+02 0.0 
0.0 0.0 -8.882216581630e+01 
-8.567623168204e+01 7.527331901433e+00 0.0 
7.527331901433e+00 -1.845002777809e+02 0.0 
0.0 0.0 -8.065295283889e+01 
-8.925842422841e+01 8.360769535069e+00 0.0 
8.360769535069e+00 -1.952557444160e+02 0.0 
0.0 0.0 -8.495425059333e+01 
-8.144806276235e+01 8.153579454954e+00 0.0 
8.153579454954e+00 -1.757296903277e+02 0.0 
0.0 0.0 -7.675332592702e+01 
-8.496099896366e+01 8.939020432066e+00 0.0 
8.939020432066e+00 -1.867908997546e+02 0.0 
0.0 0.0 -8.112556961547e+01 
-9.276093270791e+01 9.032221970696e+00 0.0 
9.032221970696e+00 -2.062114818787e+02 0.0 
0.0 0.0 -8.929172437599e+01 
-8.837209199464e+01 9.516950981484e+00 0.0 
9.516950981484e+00 -1.979757057079e+02 0.0 
0.0 0.0 -8.550433931078e+01 
-8.053409982301e+01 9.539433346523e+00 0.0 
9.539433346523e+00 -1.786202619082e+02 0.0 
0.0 0.0 -7.734630851935e+01 
-8.386282585910e+01 9.983363285219e+00 0.0 
9.983363285219e+00 -1.900332113723e+02 0.0 
0.0 0.0 -8.176881116943e+01 
-7.598086976187e+01 1.011862436285e+01 0.0 
1.011862436285e+01 -1.707949542161e+02 0.0 
0.0 0.0 -7.363274719339e+01 
-7.923329138194e+01 1.037336335961e+01 0.0 
1.037336335961e+01 -1.823722609118e+02 0.0 
0.0 0.0 -7.808166568812e+01 
-8.717703982076e+01 1.019206094311e+01 0.0 
1.019206094311e+01 -2.014220137353e+02 0.0 
0.0 0.0 -8.617971606682e+01 
-8.251774493496e+01 1.038363622738e+01 0.0 
1.038363622738e+01 -1.938675358563e+02 0.0 
0.0 0.0 -8.251558423737e+01 
-7.448159777473e+01 1.062423850009e+01 0.0 
1.062423850009e+01 -1.749457916384e+02 0.0 
0.0 0.0 -7.442821682393e+01 
-7.778611521334e+01 1.039983470331e+01 0.0 
1.039983470331e+01 -1.865139812713e+02 0.0 
0.0 0.0 -7.889002894541e+01 
-6.967316281707e+01 1.066074782660e+01 0.0 
1.066074782660e+01 -1.677620901321e+02 0.0 
0.0 0.0 -7.083057588475e+01 
-7.305724389485e+01 1.018448631640e+01 0.0 
1.018448631640e+01 -1.793408359777e+02 0.0 
0.0 0.0 -7.531942396176e+01 
-6.488662417815e+01 1.040026744293e+01 0.0 
1.040026744293e+01 -1.607715319923e+02 0.0 
0.0 0.0 -6.729744685113e+01 
-6.835614645597e+01 9.697860839460e+00 0.0 
9.697860839460e+00 -1.721736383964e+02 0.0 
0.0 0.0 -7.175893545571e+01 
-7.654101809556e+01 9.597785003306e+00 0.0 
9.597785003306e+00 -1.905402769811e+02 0.0 
0.0 0.0 -7.972438852299e+01 
-7.194236735427e+01 8.958329686733e+00 0.0 
8.958329686733e+00 -1.831851336850e+02 0.0 
0.0 0.0 -7.613825031179e+01 
-6.378199909181e+01 8.939258930870e+00 0.0 
8.939258930870e+00 -1.649629865556e+02 0.0 
0.0 0.0 -6.822349569422e+01 
-6.746120560530e+01 8.085617841110e+00 0.0 
8.085617841110e+00 -1.756500973875e+02 0.0 
0.0 0.0 -7.253339089784e+01 
-7.564525107598e+01 8.214291625895e+00 0.0 
8.214291625895e+00 -1.938663292430e+02 0.0 
0.0 0.0 -8.045347409570e+01 
-7.123109405929e+01 7.285090640553e+00 0.0 
7.285090640553e+00 -1.859965726454e+02 0.0 
0.0 0.0 -7.676830001142e+01 
-7.944403281522e+01 7.506509540532e+00 0.0 
7.506509540532e+00 -2.042435443334e+02 0.0 
0.0 0.0 -8.470627314458e+01 
-7.508312233937e+01 6.555221415150e+00 0.0 
6.555221415150e+00 -1.960714271660e+02 0.0 
0.0 0.0 -8.094636485162e+01 
-6.703012613553e+01 6.219880366284e+00 0.0 
6.219880366284e+00 -1.779648845543e+02 0.0 
0.0 0.0 -7.309850320695e+01 
-7.090697916564e+01 5.511109902406e+00 0.0 
5.511109902406e+00 -1.877029416285e+02 0.0 
0.0 0.0 -7.718297623823e+01 
-7.899679862587e+01 5.904257858995e+00 0.0 
5.904257858995e+00 -2.058950171336e+02 0.0 
0.0 0.0 -8.506754472783e+01 
-7.481571039687e+01 4.900243932398e+00 0.0 
4.900243932398e+00 -1.971971501324e+02 0.0 
0.0 0.0 -8.120385815879e+01 
-6.691441575420e+01 4.425080907282e+00 0.0 
4.425080907282e+00 -1.790770167798e+02 0.0 
0.0 0.0 -7.339742976021e+01 
-7.081825896661e+01 3.881133313837e+00 0.0 
3.881133313837e+00 -1.883077488695e+02 0.0 
0.0 0.0 -7.733780235083e+01 
-7.878077817109e+01 4.380613584408e+00 0.0 
4.380613584408e+00 -2.065629273461e+02 0.0 
0.0 0.0 -8.520311165515e+01 
-7.475364373729e+01 3.432092203864e+00 0.0 
3.432092203864e+00 -1.974109204275e+02 0.0 
0.0 0.0 -8.124936924944e+01 
-6.696937656158e+01 2.888814809289e+00 0.0 
2.888814809289e+00 -1.791615119050e+02 0.0 
0.0 0.0 -7.343926653997e+01 
-7.085486543513e+01 2.527942278078e+00 0.0 
2.527942278078e+00 -1.880507708242e+02 0.0 
0.0 0.0 -7.727169087779e+01 
-7.876016789818e+01 3.070326906521e+00 0.0 
3.070326906521e+00 -2.065210584855e+02 0.0 
0.0 0.0 -8.518436791510e+01 
-7.476582247898e+01 2.248079503325e+00 0.0 
2.248079503325e+00 -1.968824454460e+02 0.0 
0.0 0.0 -8.109448037749e+01 
-6.703458226036e+01 1.694184808176e+00 0.0 
1.694184808176e+00 -1.783996985652e+02 0.0 
0.0 0.0 -7.323028424766e+01 
-7.085212343118e+01 1.493506529382e+00 0.0 
1.493506529382e+00 -1.870254076207e+02 0.0 
0.0 0.0 -7.696325931557e+01 
-7.872983201318e+01 2.029167572599e+00 0.0 
2.029167572599e+00 -2.057479705369e+02 0.0 
0.0 0.0 -8.494334076503e+01 
-7.469946427304e+01 1.349236791573e+00 0.0 
1.349236791573e+00 -1.956554069130e+02 0.0 
0.0 0.0 -8.070646135581e+01 
-8.271327529914e+01 1.860245235044e+00 0.0 
1.860245235044e+00 -2.145739423970e+02 0.0 
0.0 0.0 -8.878616530885e+01 
-6.692736381585e+01 8.294505129862e-01 0.0 
8.294505129862e-01 -1.767979898563e+02 0.0 
0.0 0.0 -7.271760610166e+01 
-7.068521505064e+01 7.625459022910e-01 0.0 
7.625459022910e-01 -1.853197897470e+02 0.0 
0.0 0.0 -7.640150143928e+01 
-6.299486464725e+01 2.731489585168e-01 0.0 
2.731489585168e-01 -1.662813041135e+02 0.0 
0.0 0.0 -6.838285062821e+01 
-6.669284628968e+01 2.799651607720e-01 0.0 
2.799651607720e-01 -1.748009481436e+02 0.0 
0.0 0.0 -7.204813832997e+01 
-9.053132417187e+01 1.020209640241e+01 0.0 
1.020209640241e+01 -2.127309111467e+02 0.0 
0.0 0.0 -9.057867059556e+01 
-5.908002242402e+01 -1.571333265961e-01 0.0 
-1.571333265961e-01 -1.556167197047e+02 0.0 
0.0 0.0 -6.400902263860e+01 
-5.558276520273e+01 -1.915217220679e-01 0.0 
-1.915217220679e-01 -1.473783719127e+02 0.0 
0.0 0.0 -6.048834113462e+01 
-6.270566882809e+01 -9.083840846322e-02 0.0 
-9.083840846322e-02 -1.641459228935e+02 0.0 
0.0 0.0 -6.765547751647e+01 
-7.045724892711e+01 3.049648946606e-01 0.0 
3.049648946606e-01 -1.834620503965e+02 0.0 
0.0 0.0 -7.577578979708e+01 
-5.513670524547e+01 -4.655485525714e-01 0.0 
-4.655485525714e-01 -1.448135010423e+02 0.0 
0.0 0.0 -5.958506188634e+01 
-5.870125635568e+01 -3.620732527596e-01 0.0 
-3.620732527596e-01 -1.533672287165e+02 0.0 
0.0 0.0 -6.322054552165e+01 
-5.116404207869e+01 -6.763124718787e-01 0.0 
-6.763124718787e-01 -1.339271610731e+02 0.0 
0.0 0.0 -5.512736094555e+01 
-6.137398179227e+01 1.096324123675e+01 0.0 
1.096324123675e+01 -1.486253130673e+02 0.0 
0.0 0.0 -6.259978845786e+01 
-1.051936662576e+02 7.757425271326e+00 0.0 
7.757425271326e+00 -2.324030008287e+02 0.0 
0.0 0.0 -1.008790001259e+02 
-5.466568195681e+01 -5.464263528930e-01 0.0 
-5.464263528930e-01 -1.425018218780e+02 0.0 
0.0 0.0 -5.875025115045e+01 
-4.713393163959e+01 -7.702936217132e-01 0.0 
-7.702936217132e-01 -1.229637222209e+02 0.0 
0.0 0.0 -5.062929615816e+01 
-4.375984972424e+01 -9.229036957450e-01 0.0 
-9.229036957450e-01 -1.144160380632e+02 0.0 
0.0 0.0 -4.705276633625e+01 
-3.976310750348e+01 -9.470288842365e-01 0.0 
-9.470288842365e-01 -1.033960463824e+02 0.0 
0.0 0.0 -4.254774616578e+01 
-9.393275577765e+01 2.726583654960e+00 0.0 
2.726583654960e+00 -2.038300154512e+02 0.0 
0.0 0.0 -8.892883136866e+01 
-1.016734863447e+02 3.189023258979e+00 0.0 
3.189023258979e+00 -2.231868543730e+02 0.0 
0.0 0.0 -9.705810221531e+01 
-9.752114374345e+01 2.617676111787e+00 0.0 
2.617676111787e+00 -2.135262882952e+02 0.0 
0.0 0.0 -9.291422961160e+01 
-1.054885967675e+02 3.147031093081e+00 0.0 
3.147031093081e+00 -2.334665417553e+02 0.0 
0.0 0.0 -1.012865415568e+02 
-1.015438021155e+02 2.601140698452e+00 0.0 
2.601140698452e+00 -2.242189438463e+02 0.0 
0.0 0.0 -9.732882378853e+01 
-4.307036317529e+01 -7.610434094607e-01 0.0 
-7.610434094607e-01 -1.119146708263e+02 0.0 
0.0 0.0 -4.609551020047e+01 
-1.094257479184e+02 5.437312899354e+00 0.0 
5.437312899354e+00 -2.411148309694e+02 0.0 
0.0 0.0 -1.047621736663e+02 
-1.094174172639e+02 3.742319165170e+00 0.0 
3.742319165170e+00 -2.427720322078e+02 0.0 
0.0 0.0 -1.052568348415e+02 
-8.198499014458e+01 6.563780823579e+00 0.0 
6.563780823579e+00 -1.740177002080e+02 0.0 
0.0 0.0 -7.640080710577e+01 
-7.267503517274e+01 9.573179263142e+00 0.0 
9.573179263142e+00 -1.591751557856e+02 0.0 
0.0 0.0 -6.915505728749e+01 
-8.395556694723e+01 8.328144586168e+00 0.0 
8.328144586168e+00 -2.122494209673e+02 0.0 
0.0 0.0 -8.846149637437e+01 
-6.230473956948e+01 -2.473583711861e-01 0.0 
-2.473583711861e-01 -1.619585472911e+02 0.0 
0.0 0.0 -6.687898605817e+01 
-5.821477980404e+01 -4.204881698769e-01 0.0 
-4.204881698769e-01 -1.511244308268e+02 0.0 
0.0 0.0 -6.240176318925e+01 
-6.589737842419e+01 -1.246097162718e-01 0.0 
-1.246097162718e-01 -1.706025586677e+02 0.0 
0.0 0.0 -7.054998112756e+01 
-8.687743216561e+01 2.553437113974e+00 0.0 
2.553437113974e+00 -2.246051108152e+02 0.0 
0.0 0.0 -9.304476289424e+01 
-9.095530384114e+01 2.358511252284e+00 0.0 
2.358511252284e+00 -2.335342799745e+02 0.0 
0.0 0.0 -9.694687514470e+01 
-9.525416641041e+01 3.057295724988e+00 0.0 
3.057295724988e+00 -2.435200986616e+02 0.0 
0.0 0.0 -1.012322795216e+02 
-9.941096329475e+01 2.840242310196e+00 0.0 
2.840242310196e+00 -2.525093916321e+02 0.0 
0.0 0.0 -1.051761064780e+02 
-1.038426824331e+02 3.542938977283e+00 0.0 
3.542938977283e+00 -2.624643323138e+02 0.0 
0.0 0.0 -1.094921044241e+02 
-1.080724362572e+02 3.302443551937e+00 0.0 
3.302443551937e+00 -2.714945957452e+02 0.0 
0.0 0.0 -1.134701096007e+02 
-1.035728707747e+02 2.647050279746e+00 0.0 
2.647050279746e+00 -2.614143764333e+02 0.0 
0.0 0.0 -1.090961741624e+02 
-1.123090614116e+02 3.083036263181e+00 0.0 
3.083036263181e+00 -2.804337943584e+02 0.0 
0.0 0.0 -1.174228567310e+02 
-1.077389616371e+02 2.466065882869e+00 0.0 
2.466065882869e+00 -2.702465237518e+02 0.0 
0.0 0.0 -1.129956456167e+02 
-1.126308837592e+02 4.008198972284e+00 0.0 
4.008198972284e+00 -2.814221192525e+02 0.0 
0.0 0.0 -1.178159009035e+02 
-1.083174319698e+02 4.290677301587e+00 0.0 
4.290677301587e+00 -2.722205315175e+02 0.0 
0.0 0.0 -1.137613890462e+02 
-1.165510452437e+02 2.869912320498e+00 0.0 
2.869912320498e+00 -2.892840735171e+02 0.0 
0.0 0.0 -1.213505356282e+02 
-1.119071657676e+02 2.281881195746e+00 0.0 
2.281881195746e+00 -2.790073676258e+02 0.0 
0.0 0.0 -1.168743600180e+02 
-1.208037414574e+02 2.646684949940e+00 0.0 
2.646684949940e+00 -2.980596533419e+02 0.0 
0.0 0.0 -1.252590184398e+02 
-1.160786515701e+02 2.089122982350e+00 0.0 
2.089122982350e+00 -2.877037180340e+02 0.0 
0.0 0.0 -1.207347108812e+02 
-1.072841620629e+02 1.753108506508e+00 0.0 
1.753108506508e+00 -2.685782590644e+02 0.0 
0.0 0.0 -1.123587263382e+02 
-1.113646566406e+02 1.588420556720e+00 0.0 
1.588420556720e+00 -2.771980495184e+02 0.0 
0.0 0.0 -1.161688118477e+02 
-1.027106072298e+02 1.298291560251e+00 0.0 
1.298291560251e+00 -2.580952256093e+02 0.0 
0.0 0.0 -1.078417498517e+02 
-8.779397234086e+01 7.710413528435e+00 0.0 
7.710413528435e+00 -2.226460257378e+02 0.0 
0.0 0.0 -9.273199942360e+01 
-9.237282918681e+01 8.445899434107e+00 0.0 
8.445899434107e+00 -2.307969119310e+02 0.0 
0.0 0.0 -9.655092233533e+01 
-9.626298870396e+01 7.912358509066e+00 0.0 
7.912358509066e+00 -2.411922608563e+02 0.0 
0.0 0.0 -1.008365748681e+02 
-1.008823916293e+02 8.588736241481e+00 0.0 
8.588736241481e+00 -2.494768855391e+02 0.0 
0.0 0.0 -1.047077831505e+02 
-1.048482674266e+02 8.139263007772e+00 0.0 
8.139263007772e+00 -2.598670972974e+02 0.0 
0.0 0.0 -1.090146094172e+02 
-1.094761123138e+02 8.778133466593e+00 0.0 
8.778133466593e+00 -2.682580981344e+02 0.0 
0.0 0.0 -1.129202631345e+02 
-1.135243630515e+02 8.406472697220e+00 0.0 
8.406472697220e+00 -2.786043195551e+02 0.0 
0.0 0.0 -1.172386047820e+02 
-1.089164844176e+02 7.706498937740e+00 0.0 
7.706498937740e+00 -2.700494220305e+02 0.0 
0.0 0.0 -1.132897719344e+02 
-1.092571304869e+02 6.407374040902e+00 0.0 
6.407374040902e+00 -2.408599845978e+02 0.0 
0.0 0.0 -1.046351345254e+02 
-5.941527731544e+01 7.906351465673e+00 0.0 
7.906351465673e+00 -1.576021532605e+02 0.0 
0.0 0.0 -6.470522917278e+01 
-5.572966373489e+01 8.869901677100e+00 0.0 
8.869901677100e+00 -1.468908654903e+02 0.0 
0.0 0.0 -6.038615876755e+01 
-5.154965326763e+01 7.636774254092e+00 0.0 
7.636774254092e+00 -1.397366638025e+02 0.0 
0.0 0.0 -5.698589512103e+01 
-4.785250817298e+01 8.703132448052e+00 0.0 
8.703132448052e+00 -1.290320992982e+02 0.0 
0.0 0.0 -5.266538224137e+01 
-4.393774874054e+01 7.235037648661e+00 0.0 
7.235037648661e+00 -1.220539823879e+02 0.0 
0.0 0.0 -4.939751933855e+01 
-4.024065227347e+01 8.386864109140e+00 0.0 
8.386864109140e+00 -1.113931848823e+02 0.0 
0.0 0.0 -4.509015114673e+01 
-3.668264797718e+01 6.668115990120e+00 0.0 
6.668115990120e+00 -1.044877530950e+02 0.0 
0.0 0.0 -4.195112032165e+01 
-4.041728696362e+01 5.583787266503e+00 0.0 
5.583787266503e+00 -1.145854991808e+02 0.0 
0.0 0.0 -4.610083584334e+01 
-3.358216827537e+01 4.830381615651e+00 0.0 
4.830381615651e+00 -9.694806051692e+01 0.0 
0.0 0.0 -3.875906863769e+01 
-3.727034359726e+01 3.899691437508e+00 0.0 
3.899691437508e+00 -1.065235943796e+02 0.0 
0.0 0.0 -4.273818139305e+01 
-3.084558385647e+01 3.048220712543e+00 0.0 
3.048220712543e+00 -8.870034291205e+01 0.0 
0.0 0.0 -3.546377803055e+01 
-3.437887735688e+01 2.318704600688e+00 0.0 
2.318704600688e+00 -9.777920403801e+01 0.0 
0.0 0.0 -3.924742441847e+01 
-9.620198874918e+01 9.530159154415e+00 0.0 
9.530159154415e+00 -2.172718721099e+02 0.0 
0.0 0.0 -9.364215825773e+01 
-1.055318245652e+02 9.149165539235e+00 0.0 
9.149165539235e+00 -2.576714569509e+02 0.0 
0.0 0.0 -1.085609844548e+02 
-1.141291440755e+02 9.312674694457e+00 0.0 
9.312674694457e+00 -2.765966031717e+02 0.0 
0.0 0.0 -1.168177241742e+02 
-1.101525015428e+02 9.591882955522e+00 0.0 
9.591882955522e+00 -2.657429827409e+02 0.0 
0.0 0.0 -1.123686452851e+02 
-3.647747893273e+01 -1.082299366789e+00 0.0 
-1.082299366789e+00 -9.487458508682e+01 0.0 
0.0 0.0 -3.900561920587e+01 
-1.202553146263e+02 1.877682752977e+00 0.0 
1.877682752977e+00 -2.963514263012e+02 0.0 
0.0 0.0 -1.245820222783e+02 
-1.172394928549e+02 4.760899477576e+00 0.0 
4.760899477576e+00 -2.911824039428e+02 0.0 
0.0 0.0 -1.221265690393e+02 
-1.128288729469e+02 5.066506485145e+00 0.0 
5.066506485145e+00 -2.817494489377e+02 0.0 
0.0 0.0 -1.179734965654e+02 
-1.177066148618e+02 8.034455455692e+00 0.0 
8.034455455692e+00 -2.888155628360e+02 0.0 
0.0 0.0 -1.215566533093e+02 
-3.574879814694e+01 -8.824021653496e-01 0.0 
-8.824021653496e-01 -9.247728791318e+01 0.0 
0.0 0.0 -3.806782581804e+01 
-3.306939054414e+01 7.891515893042e+00 0.0 
7.891515893042e+00 -9.397479050964e+01 0.0 
0.0 0.0 -3.771325431613e+01 
-3.661337540365e+01 9.594816817950e+00 0.0 
9.594816817950e+00 -1.000645016538e+02 0.0 
0.0 0.0 -4.060336311724e+01 
-1.093315229682e+02 3.099831973610e+00 0.0 
3.099831973610e+00 -2.438394842901e+02 0.0 
0.0 0.0 -1.055513021775e+02 
-1.054364507995e+02 2.569929228155e+00 0.0 
2.569929228155e+00 -2.346234657586e+02 0.0 
0.0 0.0 -1.016179749674e+02 
-1.219118568339e+02 5.535607293876e+00 0.0 
5.535607293876e+00 -3.007936300153e+02 0.0 
0.0 0.0 -1.264116460548e+02 
-3.902647149964e+01 -7.218672349867e-01 0.0 
-7.218672349867e-01 -1.009767190644e+02 0.0 
0.0 0.0 -4.160095716921e+01 
-1.212386600160e+02 3.507806923731e+00 0.0 
3.507806923731e+00 -2.994372137379e+02 0.0 
0.0 0.0 -1.258027621262e+02 
-2.741351478242e+01 3.925799349414e+00 0.0 
3.925799349414e+00 -7.938476138705e+01 0.0 
0.0 0.0 -3.163948285084e+01 
-1.154559802279e+02 1.397910452208e+00 0.0 
1.397910452208e+00 -2.857840797199e+02 0.0 
0.0 0.0 -1.199720179843e+02 
-1.244105182336e+02 1.640620113642e+00 0.0 
1.640620113642e+00 -3.049359247005e+02 0.0 
0.0 0.0 -1.284039328802e+02 
-9.913695891495e+01 2.050060052322e+00 0.0 
2.050060052322e+00 -2.512150229189e+02 0.0 
0.0 0.0 -1.047055945502e+02 
-1.187662015980e+02 9.758919085602e+00 0.0 
9.758919085602e+00 -2.848938684501e+02 0.0 
0.0 0.0 -1.206980210144e+02 
-1.147236498106e+02 9.925722625434e+00 0.0 
9.925722625434e+00 -2.737713439824e+02 0.0 
0.0 0.0 -1.161484981379e+02 
-4.102620897057e+01 3.150995677354e+00 0.0 
3.150995677354e+00 -1.158994690465e+02 0.0 
0.0 0.0 -4.667770340514e+01 
-3.795723648676e+01 1.813632384744e+00 0.0 
1.813632384744e+00 -1.068000277069e+02 0.0 
0.0 0.0 -4.302717925811e+01 
-3.172871686682e+01 1.022237885690e+00 0.0 
1.022237885690e+00 -8.880710320640e+01 0.0 
0.0 0.0 -3.576074602196e+01 
-3.539706935050e+01 6.505219676341e-01 0.0 
6.505219676341e-01 -9.793732855177e+01 0.0 
0.0 0.0 -3.960031937068e+01 
-4.163514124594e+01 1.351471580937e+00 0.0 
1.351471580937e+00 -1.158845889737e+02 0.0 
0.0 0.0 -4.685591906589e+01 
-3.855480582824e+01 2.954855881173e-01 0.0 
2.954855881173e-01 -1.060010713638e+02 0.0 
0.0 0.0 -4.296676315762e+01 
-3.234959716514e+01 -3.779780287188e-01 0.0 
-3.779780287188e-01 -8.761201491373e+01 0.0 
0.0 0.0 -3.558848362366e+01 
-3.543511568991e+01 -4.705236652980e-01 0.0 
-4.705236652980e-01 -9.575607559177e+01 0.0 
0.0 0.0 -3.895735738451e+01 
-4.196137063691e+01 1.017212345554e-01 0.0 
1.017212345554e-01 -1.144897403731e+02 0.0 
0.0 0.0 -4.653533330300e+01 
-3.865064350389e+01 -5.596656287427e-01 0.0 
-5.596656287427e-01 -1.040920401590e+02 0.0 
0.0 0.0 -4.242280509885e+01 
-3.224229282624e+01 -9.884350979314e-01 0.0 
-9.884350979314e-01 -8.506367555902e+01 0.0 
0.0 0.0 -3.479179051558e+01 
-3.521123809786e+01 -9.870132536612e-01 0.0 
-9.870132536612e-01 -9.333108822960e+01 0.0 
0.0 0.0 -3.816269789824e+01 
-1.292941056192e+02 2.144687742690e+00 0.0 
2.144687742690e+00 -3.154099285834e+02 0.0 
0.0 0.0 -1.330112102608e+02 
-2.519688916409e+01 2.135442779014e+00 0.0 
2.135442779014e+00 -7.087854985172e+01 0.0 
0.0 0.0 -2.842263170474e+01 
-8.613213813083e+01 4.720338612698e+00 0.0 
4.720338612698e+00 -1.827921921586e+02 0.0 
0.0 0.0 -8.027729908682e+01 
-1.263441436975e+02 5.217121700051e+00 0.0 
5.217121700051e+00 -3.101253671235e+02 0.0 
0.0 0.0 -1.305408532463e+02 
-1.222324290461e+02 8.715845499141e+00 0.0 
8.715845499141e+00 -2.972199413214e+02 0.0 
0.0 0.0 -1.254357111102e+02 
-1.132035071642e+02 3.028832052182e+00 0.0 
3.028832052182e+00 -2.543128479657e+02 0.0 
0.0 0.0 -1.098549065390e+02 
-1.093509401139e+02 2.518828781706e+00 0.0 
2.518828781706e+00 -2.451535641450e+02 0.0 
0.0 0.0 -1.059513512777e+02 
-1.014607080087e+02 2.054000508862e+00 0.0 
2.054000508862e+00 -2.254168237632e+02 0.0 
0.0 0.0 -9.766325953158e+01 
-1.054549864573e+02 2.039474972211e+00 0.0 
2.039474972211e+00 -2.360835638819e+02 0.0 
0.0 0.0 -1.020615651018e+02 
-1.132863802792e+02 2.462354358817e+00 0.0 
2.462354358817e+00 -2.558243122333e+02 0.0 
0.0 0.0 -1.103332077537e+02 
-1.094570920061e+02 2.004891976595e+00 0.0 
2.004891976595e+00 -2.467706859929e+02 0.0 
0.0 0.0 -1.064683333997e+02 
-1.015314391799e+02 1.629143283644e+00 0.0 
1.629143283644e+00 -2.270414430277e+02 0.0 
0.0 0.0 -9.817186466228e+01 
-1.056166868752e+02 1.604779367530e+00 0.0 
1.604779367530e+00 -2.377229198184e+02 0.0 
0.0 0.0 -1.026018820081e+02 
-9.762754992373e+01 1.272138188610e+00 0.0 
1.272138188610e+00 -2.179979007132e+02 0.0 
0.0 0.0 -9.428763519109e+01 
-1.017677817756e+02 1.253773125161e+00 0.0 
1.253773125161e+00 -2.287112477047e+02 0.0 
0.0 0.0 -9.874370884410e+01 
-1.097180903715e+02 1.558043309297e+00 0.0 
1.558043309297e+00 -2.484436340477e+02 0.0 
0.0 0.0 -1.070485173258e+02 
-1.059264248372e+02 1.234059248295e+00 0.0 
1.234059248295e+00 -2.394849857646e+02 0.0 
0.0 0.0 -1.032234231805e+02 
-9.789808513230e+01 9.484967930894e-01 0.0 
9.484967930894e-01 -2.197744500369e+02 0.0 
0.0 0.0 -9.490176055077e+01 
-1.021183161455e+02 9.563813761557e-01 0.0 
9.563813761557e-01 -2.305385708656e+02 0.0 
0.0 0.0 -9.939706610334e+01 
-9.401897771582e+01 7.111707600859e-01 0.0 
7.111707600859e-01 -2.108211950438e+02 0.0 
0.0 0.0 -9.105205182790e+01 
-9.831302781495e+01 7.365997200946e-01 0.0 
7.365997200946e-01 -2.215163993236e+02 0.0 
0.0 0.0 -9.554882814156e+01 
-1.063656721776e+02 8.967657795720e-01 0.0 
8.967657795720e-01 -2.413431396268e+02 0.0 
0.0 0.0 -1.039126435413e+02 
-3.199007287593e+01 -7.791100131907e-01 0.0 
-7.791100131907e-01 -8.205154291663e+01 0.0 
0.0 0.0 -3.381248473777e+01 
-1.130849498306e+02 7.295783681773e+00 0.0 
7.295783681773e+00 -2.800677344843e+02 0.0 
0.0 0.0 -1.175458052945e+02 
-1.220427647198e+02 7.666057624497e+00 0.0 
7.666057624497e+00 -2.989883062823e+02 0.0 
0.0 0.0 -1.259093213006e+02 
-6.189793433432e+01 -1.926462609543e-01 0.0 
-1.926462609543e-01 -1.603064005502e+02 0.0 
0.0 0.0 -6.626130046537e+01 
-6.941040818828e+01 1.928303654588e-02 0.0 
1.928303654588e-02 -1.790089421594e+02 0.0 
0.0 0.0 -7.412580510431e+01 
-7.372603810946e+01 8.376805303930e-02 0.0 
8.376805303930e-02 -1.899810816496e+02 0.0 
0.0 0.0 -7.871213592773e+01 
-7.753773688894e+01 1.502027382150e-01 0.0 
1.502027382150e-01 -1.987446285504e+02 0.0 
0.0 0.0 -8.248470963179e+01 
-1.025618963925e+02 6.803066098712e-01 0.0 
6.803066098712e-01 -2.322161512723e+02 0.0 
0.0 0.0 -1.000334142995e+02 
-1.105478486371e+02 7.918401016992e-01 0.0 
7.918401016992e-01 -2.521596149260e+02 0.0 
0.0 0.0 -1.084122390689e+02 
-2.955124574191e+01 9.167357106793e+00 0.0 
9.167357106793e+00 -8.275399071684e+01 0.0 
0.0 0.0 -3.329157093763e+01 
-3.308918186869e+01 1.073453445313e+01 0.0 
1.073453445313e+01 -8.795517877375e+01 0.0 
0.0 0.0 -3.591330819273e+01 
-1.170066654808e+02 3.581130519034e+00 0.0 
3.581130519034e+00 -2.635420194121e+02 0.0 
0.0 0.0 -1.137646054679e+02 
-1.195460147274e+02 1.194905669748e+00 0.0 
1.194905669748e+00 -2.943826536299e+02 0.0 
0.0 0.0 -1.237786005072e+02 
-1.107118272413e+02 9.823823695223e-01 0.0 
9.823823695223e-01 -2.752060203532e+02 0.0 
0.0 0.0 -1.153753542784e+02 
-6.808819074179e+01 1.027734505839e+01 0.0 
1.027734505839e+01 -1.514668139705e+02 0.0 
0.0 0.0 -6.546650141367e+01 
-6.475543167254e+01 9.579073776761e+00 0.0 
9.579073776761e+00 -1.395537890006e+02 0.0 
0.0 0.0 -6.089276620194e+01 
-6.013885820614e+01 1.044347045446e+01 0.0 
1.044347045446e+01 -1.319065478774e+02 0.0 
0.0 0.0 -5.721362182505e+01 
-5.660844693946e+01 9.517722887212e+00 0.0 
9.517722887212e+00 -1.193496805443e+02 0.0 
0.0 0.0 -5.238743824514e+01 
-6.119932707857e+01 8.512319491397e+00 0.0 
8.512319491397e+00 -1.277787615184e+02 0.0 
0.0 0.0 -5.629342657910e+01 
-5.193128994964e+01 1.061088803631e+01 0.0 
1.061088803631e+01 -1.115956974947e+02 0.0 
0.0 0.0 -4.865809623329e+01 
-1.039386390616e+02 4.585868258286e+00 0.0 
4.585868258286e+00 -2.627199537029e+02 0.0 
0.0 0.0 -1.095975778293e+02 
-1.138364891243e+02 1.502156073093e+00 0.0 
1.502156073093e+00 -2.592449760622e+02 0.0 
0.0 0.0 -1.115244395559e+02 
-4.045644897296e+01 -1.068920623235e+00 0.0 
-1.068920623235e+00 -1.059602031012e+02 0.0 
0.0 0.0 -4.352499562223e+01 
-3.336328966614e+01 -1.208132268744e+00 0.0 
-1.208132268744e+00 -8.649430877146e+01 0.0 
0.0 0.0 -3.555727953128e+01 
-1.285359994425e+02 1.382206478632e+00 0.0 
1.382206478632e+00 -3.135301412889e+02 0.0 
0.0 0.0 -1.322198422194e+02 
-1.043052068522e+02 6.936977285055e+00 0.0 
6.936977285055e+00 -2.613102375952e+02 0.0 
0.0 0.0 -1.092846333342e+02 
-1.005446656845e+02 9.153686176781e+00 0.0 
9.153686176781e+00 -2.255892797888e+02 0.0 
0.0 0.0 -9.744018364198e+01 
-1.040416113235e+02 9.596721684711e+00 0.0 
9.596721684711e+00 -2.365783603342e+02 0.0 
0.0 0.0 -1.017859914973e+02 
-1.083370928342e+02 9.321949023675e+00 0.0 
9.321949023675e+00 -2.450215995539e+02 0.0 
0.0 0.0 -1.056076077164e+02 
-1.119032289661e+02 9.729027820410e+00 0.0 
9.729027820410e+00 -2.559483832601e+02 0.0 
0.0 0.0 -1.099554836678e+02 
-1.161173739532e+02 9.556229987669e+00 0.0 
9.556229987669e+00 -2.644970565479e+02 0.0 
0.0 0.0 -1.137843291503e+02 
-1.197170197738e+02 9.959273203627e+00 0.0 
9.959273203627e+00 -2.752902999570e+02 0.0 
0.0 0.0 -1.181021959192e+02 
-1.155087707849e+02 1.002851997983e+01 0.0 
1.002851997983e+01 -2.669425614079e+02 0.0 
0.0 0.0 -1.143353996578e+02 
-1.233376838531e+02 1.012273556657e+01 0.0 
1.012273556657e+01 -2.931373799307e+02 0.0 
0.0 0.0 -1.245425191352e+02 
-1.234136908086e+02 1.029389850604e+01 0.0 
1.029389850604e+01 -2.862142063359e+02 0.0 
0.0 0.0 -1.224883691434e+02 
-9.446553810442e+01 4.664771623768e-01 0.0 
4.664771623768e-01 -2.121981726006e+02 0.0 
0.0 0.0 -9.159911321151e+01 
-1.015937681620e+02 9.492236143768e+00 0.0 
9.492236143768e+00 -2.466602044231e+02 0.0 
0.0 0.0 -1.040761917755e+02 
-4.543499385587e+01 -3.241573467062e-02 0.0 
-3.241573467062e-02 -1.230579433166e+02 0.0 
0.0 0.0 -5.014788115173e+01 
-2.850687930270e+01 -8.511237374234e-01 0.0 
-8.511237374234e-01 -7.328752289204e+01 0.0 
0.0 0.0 -3.013832065842e+01 
-2.850896853806e+01 -1.272344073149e+00 0.0 
-1.272344073149e+00 -7.363273654582e+01 0.0 
0.0 0.0 -3.024251152517e+01 
-3.479771752533e+01 -6.663366218674e-01 0.0 
-6.663366218674e-01 -8.975170646478e+01 0.0 
0.0 0.0 -3.696482719703e+01 
-4.231081928961e+01 -5.920960620422e-01 0.0 
-5.920960620422e-01 -1.094484440689e+02 0.0 
0.0 0.0 -4.512777900754e+01 
-1.311545356991e+02 6.004295147300e+00 0.0 
6.004295147300e+00 -3.197833036847e+02 0.0 
0.0 0.0 -1.348813518151e+02 
-1.238246998461e+02 9.871318536573e+00 0.0 
9.871318536573e+00 -2.839219560329e+02 0.0 
0.0 0.0 -1.219239967637e+02 
-1.201150907228e+02 9.362543396334e+00 0.0 
9.362543396334e+00 -2.730708211306e+02 0.0 
0.0 0.0 -1.175557735560e+02 
-5.296494141883e+01 8.139451992545e+00 0.0 
8.139451992545e+00 -1.075518244926e+02 0.0 
0.0 0.0 -4.775502977342e+01 
-5.745872338218e+01 7.157739451140e+00 0.0 
7.157739451140e+00 -1.165094448309e+02 0.0 
0.0 0.0 -5.179045046393e+01 
-1.274675710975e+02 1.005198806966e+01 0.0 
1.005198806966e+01 -3.040061646445e+02 0.0 
0.0 0.0 -1.290421207226e+02 
-9.366398271056e+01 2.063931690607e+00 0.0 
2.063931690607e+00 -2.045920890592e+02 0.0 
0.0 0.0 -8.907682153094e+01 
-9.352270890284e+01 1.254667837944e+00 0.0 
1.254667837944e+00 -2.073881874938e+02 0.0 
0.0 0.0 -8.987326891898e+01 
-8.949406436451e+01 9.271514918972e-01 0.0 
9.271514918972e-01 -1.982667799785e+02 0.0 
0.0 0.0 -8.592825330290e+01 
-2.687713460213e+01 -5.963480431076e-01 0.0 
-5.963480431076e-01 -6.855943263356e+01 0.0 
0.0 0.0 -2.823097017070e+01 
-2.613381986036e+01 -1.282436053187e+00 0.0 
-1.282436053187e+00 -6.617684484914e+01 0.0 
0.0 0.0 -2.729319941285e+01 
-1.172597325257e+02 2.372105828726e+00 0.0 
2.372105828726e+00 -2.665458128258e+02 0.0 
0.0 0.0 -1.147416636055e+02 
-4.064309906284e+01 1.084960812300e+01 0.0 
1.084960812300e+01 -1.056368976310e+02 0.0 
0.0 0.0 -4.348399900814e+01 
-3.725432108754e+01 1.170651448392e+01 0.0 
1.170651448392e+01 -9.289893745558e+01 0.0 
0.0 0.0 -3.864597756293e+01 
-2.204112657802e+01 2.998366966009e+00 0.0 
2.998366966009e+00 -6.162844918231e+01 0.0 
0.0 0.0 -2.470087272810e+01 
-2.031308032007e+01 1.271103523742e+00 0.0 
1.271103523742e+00 -5.283373916596e+01 0.0 
0.0 0.0 -2.154404584581e+01 
-1.068041896996e+02 5.003688869417e-01 0.0 
5.003688869417e-01 -2.427533187051e+02 0.0 
0.0 0.0 -1.044672525214e+02 
-1.147345016960e+02 6.450613001607e-01 0.0 
6.450613001607e-01 -2.625614887931e+02 0.0 
0.0 0.0 -1.127887971467e+02 
-8.184157391933e+01 3.737066369730e-01 0.0 
3.737066369730e-01 -2.093905226094e+02 0.0 
0.0 0.0 -8.696962895862e+01 
-8.561282738612e+01 4.113480435258e-01 0.0 
4.113480435258e-01 -2.180743889643e+02 0.0 
0.0 0.0 -9.070616490512e+01 
-1.266692725020e+02 6.324503813482e+00 0.0 
6.324503813482e+00 -3.103093405453e+02 0.0 
0.0 0.0 -1.306935839142e+02 
-3.167108640271e+01 -1.242057283056e+00 0.0 
-1.242057283056e+00 -8.243108422702e+01 0.0 
0.0 0.0 -3.383065118892e+01 
-1.185373066803e+02 9.591346216017e-01 0.0 
9.591346216017e-01 -2.720094727840e+02 0.0 
0.0 0.0 -1.167640338393e+02 
-1.084812978895e+02 6.511928614099e+00 0.0 
6.511928614099e+00 -2.711719483871e+02 0.0 
0.0 0.0 -1.134959738830e+02 
-9.975933910454e+01 6.120843733188e+00 0.0 
6.120843733188e+00 -2.524169119215e+02 0.0 
0.0 0.0 -1.052528753078e+02 
-7.320643981936e+01 -6.314618671037e-02 0.0 
-6.314618671037e-02 -1.876661071148e+02 0.0 
0.0 0.0 -7.786176408024e+01 
-2.613710257769e+01 1.034922264683e+01 0.0 
1.034922264683e+01 -7.067689017287e+01 0.0 
0.0 0.0 -2.864419782517e+01 
-2.326562353167e+01 8.482401400506e+00 0.0 
8.482401400506e+00 -6.579168535921e+01 0.0 
0.0 0.0 -2.631719266726e+01 
-4.884000019913e+01 7.160320950470e-01 0.0 
7.160320950470e-01 -1.332077030439e+02 0.0 
0.0 0.0 -5.421431097291e+01 
-3.841546903177e+01 -9.866622527908e-01 0.0 
-9.866622527908e-01 -1.018024008602e+02 0.0 
0.0 0.0 -4.166536096759e+01 
-3.807637822779e+01 -4.743700394032e-01 0.0 
-4.743700394032e-01 -9.825081661431e+01 0.0 
0.0 0.0 -4.049815845263e+01 
-1.359612324413e+02 6.786954415904e+00 0.0 
6.786954415904e+00 -3.292364414184e+02 0.0 
0.0 0.0 -1.391593021579e+02 
-1.209793952018e+02 2.836022592571e+00 0.0 
2.836022592571e+00 -2.755136007595e+02 0.0 
0.0 0.0 -1.185478987884e+02 
-1.192227559866e+02 1.028516601674e+01 0.0 
1.028516601674e+01 -2.779665724218e+02 0.0 
0.0 0.0 -1.187567985225e+02 
-1.110949225101e+02 1.008759338827e+01 0.0 
1.008759338827e+01 -2.586431624072e+02 0.0 
0.0 0.0 -1.105214254752e+02 
-1.274091118215e+02 1.055549515201e+01 0.0 
1.055549515201e+01 -2.972962203358e+02 0.0 
0.0 0.0 -1.270115996472e+02 
-2.535115165399e+01 -1.339947165080e+00 0.0 
-1.339947165080e+00 -6.309060286635e+01 0.0 
0.0 0.0 -2.613252635610e+01 
-1.357401621636e+02 5.693054414316e+00 0.0 
5.693054414316e+00 -3.293322370969e+02 0.0 
0.0 0.0 -1.391217197781e+02 
-1.236100103282e+02 9.613110293684e-01 0.0 
9.613110293684e-01 -3.030088867972e+02 0.0 
0.0 0.0 -1.275856691376e+02 
-1.273315836327e+02 9.679158050406e+00 0.0 
9.679158050406e+00 -2.918002967974e+02 0.0 
0.0 0.0 -1.253395641290e+02 
-1.239785993078e+02 9.164788215508e+00 0.0 
9.164788215508e+00 -2.818347500237e+02 0.0 
0.0 0.0 -1.213440047994e+02 
-4.506621978835e+01 1.152594390024e+01 0.0 
1.152594390024e+01 -1.110765597193e+02 0.0 
0.0 0.0 -4.644283385230e+01 
-4.194300852574e+01 1.193916161474e+01 0.0 
1.193916161474e+01 -9.824159981389e+01 0.0 
0.0 0.0 -4.165538250189e+01 
-3.400378694950e+01 1.213117064308e+01 0.0 
1.213117064308e+01 -7.943680305242e+01 0.0 
0.0 0.0 -3.363217700057e+01 
-3.870269299731e+01 1.168889205864e+01 0.0 
1.168889205864e+01 -8.474599040521e+01 0.0 
0.0 0.0 -3.663460502076e+01 
-8.600243951460e+01 3.617364460009e+00 0.0 
3.617364460009e+00 -1.829873018770e+02 0.0 
0.0 0.0 -8.029692241748e+01 
-4.991683065690e+01 1.162041013217e+01 0.0 
1.162041013217e+01 -1.171198775334e+02 0.0 
0.0 0.0 -4.971101245710e+01 
-8.217272812593e+01 5.080703216520e+00 0.0 
5.080703216520e+00 -1.732351671957e+02 0.0 
0.0 0.0 -7.622236859650e+01 
-7.818369824342e+01 4.115348575098e+00 0.0 
4.115348575098e+00 -1.635678272547e+02 0.0 
0.0 0.0 -7.212545764945e+01 
-7.421199468494e+01 4.472363695558e+00 0.0 
4.472363695558e+00 -1.540443815619e+02 0.0 
0.0 0.0 -6.807691287406e+01 
-6.557607123232e+01 7.608765134980e+00 0.0 
7.608765134980e+00 -1.363382393331e+02 0.0 
0.0 0.0 -6.017429316962e+01 
-6.177927847172e+01 6.283229315463e+00 0.0 
6.283229315463e+00 -1.256461264277e+02 0.0 
0.0 0.0 -5.582762146982e+01 
-5.209107993337e+01 9.856055807241e+00 0.0 
9.856055807241e+00 -1.355938475524e+02 0.0 
0.0 0.0 -5.590547824574e+01 
-8.855271321890e+01 8.991177943511e+00 0.0 
8.991177943511e+00 -2.200955673030e+02 0.0 
0.0 0.0 -9.219448415657e+01 
-7.801457838996e+01 3.476422360091e-01 0.0 
3.476422360091e-01 -2.007735182411e+02 0.0 
0.0 0.0 -8.323642898933e+01 
-9.873252712835e+01 1.414668327101e+00 0.0 
1.414668327101e+00 -2.495140323644e+02 0.0 
0.0 0.0 -1.040739678478e+02 
-9.109105277349e+01 3.305151779765e+00 0.0 
3.305151779765e+00 -2.344014814517e+02 0.0 
0.0 0.0 -9.724776026757e+01 
-1.175013836588e+02 1.852850647739e+00 0.0 
1.852850647739e+00 -2.681076823701e+02 0.0 
0.0 0.0 -1.152827198086e+02 
-1.216111091544e+02 1.760602502997e+00 0.0 
1.760602502997e+00 -2.790405446786e+02 0.0 
0.0 0.0 -1.197954961499e+02 
-8.976410961774e+01 6.680225319023e-01 0.0 
6.680225319023e-01 -2.000780498633e+02 0.0 
0.0 0.0 -8.655264784431e+01 
-8.592268542482e+01 4.886710106730e-01 0.0 
4.886710106730e-01 -1.910523312086e+02 0.0 
0.0 0.0 -8.269250499003e+01 
-2.934633601102e+01 -1.132296769690e+00 0.0 
-1.132296769690e+00 -7.529963989597e+01 0.0 
0.0 0.0 -3.099379277210e+01 
-2.634348959370e+01 -1.246077554367e+00 0.0 
-1.246077554367e+00 -6.696634837895e+01 0.0 
0.0 0.0 -2.759295139179e+01 
-8.671764623847e+01 1.728530384000e+00 0.0 
1.728530384000e+00 -2.233876913963e+02 0.0 
0.0 0.0 -9.263160129043e+01 
-1.307427705740e+02 4.897481393577e+00 0.0 
4.897481393577e+00 -3.192636736808e+02 0.0 
0.0 0.0 -1.346019332764e+02 
-1.207183451695e+02 3.439076233167e+00 0.0 
3.439076233167e+00 -2.738387581379e+02 0.0 
0.0 0.0 -1.179671309922e+02 
-1.244279979363e+02 4.037277107619e+00 0.0 
4.037277107619e+00 -2.831143843067e+02 0.0 
0.0 0.0 -1.218627146729e+02 
-1.207398440090e+02 4.186858235164e+00 0.0 
4.186858235164e+00 -2.727372839569e+02 0.0 
0.0 0.0 -1.176431383897e+02 
-1.313488815783e+02 7.104826817659e+00 0.0 
7.104826817659e+00 -3.194201198775e+02 0.0 
0.0 0.0 -1.348307004367e+02 
-5.532766039900e+01 6.665068724096e+00 0.0 
6.665068724096e+00 -1.500212467997e+02 0.0 
0.0 0.0 -6.120467215961e+01 
-9.171090774373e+01 7.131958344031e+00 0.0 
7.131958344031e+00 -2.327807882188e+02 0.0 
0.0 0.0 -9.694750878875e+01 
-2.313628136539e+01 7.487836175441e-01 0.0 
7.487836175441e-01 -6.174100539799e+01 0.0 
0.0 0.0 -2.506318602901e+01 
-9.511963882598e+01 1.007334510017e+01 0.0 
1.007334510017e+01 -2.204357902021e+02 0.0 
0.0 0.0 -9.426662870842e+01 
-2.237982650711e+01 -1.056950499905e+00 0.0 
-1.056950499905e+00 -5.590757586796e+01 0.0 
0.0 0.0 -2.308622071252e+01 
-1.090801821089e+02 7.417339552495e+00 0.0 
7.417339552495e+00 -2.414598683977e+02 0.0 
0.0 0.0 -1.047620151520e+02 
-1.327627167561e+02 1.083171803143e+00 0.0 
1.083171803143e+00 -3.221913939337e+02 0.0 
0.0 0.0 -1.360862332069e+02 
-1.376980794863e+02 1.542827736936e+00 0.0 
1.542827736936e+00 -3.325220078629e+02 0.0 
0.0 0.0 -1.406660262047e+02 
-1.318356353265e+02 1.049275597691e+01 0.0 
1.049275597691e+01 -3.121628691548e+02 0.0 
0.0 0.0 -1.327995513444e+02 
-7.410934455464e+01 2.171800334820e+00 0.0 
2.171800334820e+00 -1.552806545752e+02 0.0 
0.0 0.0 -6.841699973895e+01 
-9.856270484771e+01 1.009551629503e+01 0.0 
1.009551629503e+01 -2.316109518690e+02 0.0 
0.0 0.0 -9.865209701501e+01 
-9.398543537122e+01 1.004776151073e+01 0.0 
1.004776151073e+01 -2.239435858045e+02 0.0 
0.0 0.0 -9.497870635273e+01 
-7.015434868291e+01 3.447438868695e+00 0.0 
3.447438868695e+00 -1.445983781187e+02 0.0 
0.0 0.0 -6.402581804047e+01 
-6.614123496508e+01 3.798764256448e+00 0.0 
3.798764256448e+00 -1.350618846283e+02 0.0 
0.0 0.0 -5.996093587800e+01 
-7.017431868979e+01 4.921671156668e+00 0.0 
4.921671156668e+00 -1.445830593695e+02 0.0 
0.0 0.0 -6.402721341779e+01 
-6.205592119128e+01 4.269017178862e+00 0.0 
4.269017178862e+00 -1.255182212656e+02 0.0 
0.0 0.0 -5.587224273706e+01 
-5.243254175483e+01 5.412332687705e-01 0.0 
5.412332687705e-01 -1.417257193638e+02 0.0 
0.0 0.0 -5.784747833560e+01 
-4.887052480811e+01 -1.077455701095e-01 0.0 
-1.077455701095e-01 -1.314107218444e+02 0.0 
0.0 0.0 -5.368437399575e+01 
-1.320499034524e+02 1.032312732188e+01 0.0 
1.032312732188e+01 -3.047388943230e+02 0.0 
0.0 0.0 -1.306366393326e+02 
-1.312509745216e+02 1.057725732674e+01 0.0 
1.057725732674e+01 -3.052473127759e+02 0.0 
0.0 0.0 -1.305494861893e+02 
-1.312268852751e+02 9.676727826406e+00 0.0 
9.676727826406e+00 -3.008601389105e+02 0.0 
0.0 0.0 -1.292261072557e+02 
-1.281264724247e+02 9.021707374955e+00 0.0 
9.021707374955e+00 -2.913291091246e+02 0.0 
0.0 0.0 -1.254366744648e+02 
-1.362210212551e+02 1.049778753849e+01 0.0 
1.049778753849e+01 -3.229458295014e+02 0.0 
0.0 0.0 -1.373500552269e+02 
-1.316243684990e+02 9.946254729364e+00 0.0 
9.946254729364e+00 -3.144611881575e+02 0.0 
0.0 0.0 -1.334256669970e+02 
-4.532346263011e+01 -3.859162135689e-01 0.0 
-3.859162135689e-01 -1.174021702946e+02 0.0 
0.0 0.0 -4.841768987740e+01 
-5.352178551465e+01 5.604792470295e+00 0.0 
5.604792470295e+00 -1.060775834257e+02 0.0 
0.0 0.0 -4.747981068211e+01 
-1.250104502543e+02 2.713971858567e+00 0.0 
2.713971858567e+00 -2.862426828316e+02 0.0 
0.0 0.0 -1.229759399258e+02 
-7.410529472261e+01 3.171239981310e+00 0.0 
3.171239981310e+00 -1.541598072744e+02 0.0 
0.0 0.0 -6.807953059909e+01 
-1.400266185324e+02 5.351124673356e+00 0.0 
5.351124673356e+00 -3.379719647327e+02 0.0 
0.0 0.0 -1.429995749795e+02 
-1.352126599313e+02 4.597036738355e+00 0.0 
4.597036738355e+00 -3.283560011665e+02 0.0 
0.0 0.0 -1.386705983294e+02 
-1.877445638397e+01 1.218339781094e-01 0.0 
1.218339781094e-01 -4.335522850644e+01 0.0 
0.0 0.0 -1.823890546712e+01 
-2.096797298819e+01 -3.491938635080e-01 0.0 
-3.491938635080e-01 -5.135747158418e+01 0.0 
0.0 0.0 -2.129763337171e+01 
-1.227090447042e+02 8.089875837924e-01 0.0 
8.089875837924e-01 -2.826923170478e+02 0.0 
0.0 0.0 -1.212204085256e+02 
-3.066546853295e+01 1.177558941967e+01 0.0 
1.177558941967e+01 -6.497039222914e+01 0.0 
0.0 0.0 -2.829075822863e+01 
-3.499825268288e+01 1.052260271887e+01 0.0 
1.052260271887e+01 -7.023518259505e+01 0.0 
0.0 0.0 -3.117003058338e+01 
-2.637162546081e+01 1.202221776079e+01 0.0 
1.202221776079e+01 -6.090808803693e+01 0.0 
0.0 0.0 -2.578391404932e+01 
-1.520011504598e+02 4.189515194485e-01 0.0 
4.189515194485e-01 -3.612558039676e+02 0.0 
0.0 0.0 -1.535770863282e+02 
-6.935092431589e+01 3.201818159415e-02 0.0 
3.201818159415e-02 -1.530538490046e+02 0.0 
0.0 0.0 -6.632143199615e+01 
-1.421307874745e+02 1.192775213338e+00 0.0 
1.192775213338e+00 -3.413106200797e+02 0.0 
0.0 0.0 -1.446324222663e+02 
-6.989076363546e+01 6.780373698151e+00 0.0 
6.780373698151e+00 -1.453560059130e+02 0.0 
0.0 0.0 -6.417403086454e+01 
-1.265886931641e+02 1.090953639732e+00 0.0 
1.090953639732e+00 -2.922231393201e+02 0.0 
0.0 0.0 -1.252435497452e+02 
-1.021967890387e+02 9.993251040322e+00 0.0 
9.993251040322e+00 -2.428618722486e+02 0.0 
0.0 0.0 -1.031175983862e+02 
-6.319482618779e+01 1.086906381185e+01 0.0 
1.086906381185e+01 -1.438380737035e+02 0.0 
0.0 0.0 -6.170986996738e+01 
-1.221360993640e+02 6.653489229820e+00 0.0 
6.653489229820e+00 -3.005323236232e+02 0.0 
0.0 0.0 -1.264005268962e+02 
-1.184876248109e+02 6.016605440493e-01 0.0 
6.016605440493e-01 -2.721049109059e+02 0.0 
0.0 0.0 -1.167777607150e+02 
-1.269281565074e+02 5.871088993780e-01 0.0 
5.871088993780e-01 -2.938236870819e+02 0.0 
0.0 0.0 -1.258255530768e+02 
-8.541340469656e+01 8.533612837511e-01 0.0 
8.533612837511e-01 -1.876934992648e+02 0.0 
0.0 0.0 -8.153207118840e+01 
-8.100873243056e+01 6.894009322881e-01 0.0 
6.894009322881e-01 -1.780296134801e+02 0.0 
0.0 0.0 -7.731150377319e+01 
-8.918453758993e+01 1.196211853433e+00 0.0 
1.196211853433e+00 -1.962604600860e+02 0.0 
0.0 0.0 -8.523349930277e+01 
-2.406467049632e+01 5.029666981138e+00 0.0 
5.029666981138e+00 -6.955126248958e+01 0.0 
0.0 0.0 -2.768477989577e+01 
-1.856333877550e+01 4.191863965300e+00 0.0 
4.191863965300e+00 -5.027344988877e+01 0.0 
0.0 0.0 -2.025103659928e+01 
-1.179074009285e+02 1.394145226277e+00 0.0 
1.394145226277e+00 -2.699879679314e+02 0.0 
0.0 0.0 -1.159686106580e+02 
-5.403931503645e+01 -4.636131036804e-01 0.0 
-4.636131036804e-01 -1.402701278139e+02 0.0 
0.0 0.0 -5.789283285511e+01 
-5.817523136396e+01 -3.742416998750e-01 0.0 
-3.742416998750e-01 -1.508835376331e+02 0.0 
0.0 0.0 -6.231763069913e+01 
-3.454337493705e+01 -1.206481536116e+00 0.0 
-1.206481536116e+00 -9.034880309357e+01 0.0 
0.0 0.0 -3.706765340919e+01 
-4.144554135193e+01 -9.517817823381e-01 0.0 
-9.517817823381e-01 -1.096191113222e+02 0.0 
0.0 0.0 -4.491939580224e+01 
-8.612747943730e+01 6.794755005433e-01 0.0 
6.794755005433e-01 -2.200207677961e+02 0.0 
0.0 0.0 -9.144447417003e+01 
-8.225838827240e+01 6.969720789887e-01 0.0 
6.969720789887e-01 -2.114045815315e+02 0.0 
0.0 0.0 -8.769889094117e+01 
-1.128026533395e+02 8.140792965523e+00 0.0 
8.140792965523e+00 -2.518978440557e+02 0.0 
0.0 0.0 -1.090101492186e+02 
-1.166269358286e+02 7.861874183176e+00 0.0 
7.861874183176e+00 -2.609849800596e+02 0.0 
0.0 0.0 -1.128835747665e+02 
-1.047536837339e+02 8.787938400224e+00 0.0 
8.787938400224e+00 -2.341417932614e+02 0.0 
0.0 0.0 -1.012686430986e+02 
-1.039646310963e+02 5.709760934839e+00 0.0 
5.709760934839e+00 -2.621332213790e+02 0.0 
0.0 0.0 -1.094293557426e+02 
-9.532839328369e+01 5.281793168299e+00 0.0 
5.281793168299e+00 -2.433959264363e+02 0.0 
0.0 0.0 -1.012172959160e+02 
-9.125877437260e+01 5.740257541516e+00 0.0 
5.740257541516e+00 -2.338662171342e+02 0.0 
0.0 0.0 -9.713749745203e+01 
-1.249365333815e+02 2.134755363156e+00 0.0 
2.134755363156e+00 -2.874219859077e+02 0.0 
0.0 0.0 -1.233075557868e+02 
-1.299227625795e+02 1.956622780575e+00 0.0 
1.956622780575e+00 -3.005577038620e+02 0.0 
0.0 0.0 -1.287441399324e+02 
-5.594412352295e+01 1.357996772022e+00 0.0 
1.357996772022e+00 -1.516147129094e+02 0.0 
0.0 0.0 -6.186765092970e+01 
-5.223406517063e+01 1.651948931998e+00 0.0 
1.651948931998e+00 -1.429460919555e+02 0.0 
0.0 0.0 -5.815404713784e+01 
-5.594059518563e+01 4.123961348795e-01 0.0 
4.123961348795e-01 -1.499469562181e+02 0.0 
0.0 0.0 -6.136626542112e+01 
-1.285947904972e+02 3.176725323709e+00 0.0 
3.176725323709e+00 -2.952519859521e+02 0.0 
0.0 0.0 -1.267540329348e+02 
-1.469156370434e+02 1.639114025066e+00 0.0 
1.639114025066e+00 -3.512976600731e+02 0.0 
0.0 0.0 -1.490639891350e+02 
-1.425961916565e+02 2.092589820044e+00 0.0 
2.092589820044e+00 -3.427093330396e+02 0.0 
0.0 0.0 -1.451916574088e+02 
-1.966933998109e+01 -1.066713379463e+00 0.0 
-1.066713379463e+00 -4.776608789901e+01 0.0 
0.0 0.0 -1.983062836403e+01 
-2.333538771505e+01 -1.239951493213e+00 0.0 
-1.239951493213e+00 -5.846470747983e+01 0.0 
0.0 0.0 -2.414002855846e+01 
-2.027332888015e+01 9.685610460307e+00 0.0 
9.685610460307e+00 -5.383705463685e+01 0.0 
0.0 0.0 -2.183311505510e+01 
-1.838865379262e+01 7.728873737956e+00 0.0 
7.728873737956e+00 -4.963334455339e+01 0.0 
0.0 0.0 -2.000659950380e+01 
-1.278558786848e+02 4.640048892045e+00 0.0 
4.640048892045e+00 -2.919448497457e+02 0.0 
0.0 0.0 -1.255402185291e+02 
-1.245098966249e+02 4.837718116129e+00 0.0 
4.837718116129e+00 -2.822546134752e+02 0.0 
0.0 0.0 -1.216293530300e+02 
-1.322366769158e+02 4.478444487931e+00 0.0 
4.478444487931e+00 -3.040402620487e+02 0.0 
0.0 0.0 -1.304830816893e+02 
-4.066069700981e+01 -3.601020393240e-01 0.0 
-3.601020393240e-01 -1.049662115690e+02 0.0 
0.0 0.0 -4.328807257364e+01 
-1.148998069126e+02 1.013932888650e+01 0.0 
1.013932888650e+01 -2.698931357026e+02 0.0 
0.0 0.0 -1.150378827846e+02 
-1.403381398745e+02 7.601777998026e+00 0.0 
7.601777998026e+00 -3.374784212161e+02 0.0 
0.0 0.0 -1.429449683272e+02 
-1.356376320179e+02 7.886215395247e+00 0.0 
7.886215395247e+00 -3.277518506537e+02 0.0 
0.0 0.0 -1.386168448015e+02 
-1.462435930572e+02 7.385726130425e+00 0.0 
7.385726130425e+00 -3.496495657876e+02 0.0 
0.0 0.0 -1.483679476534e+02 
-1.276012023945e+02 1.048782991027e+01 0.0 
1.048782991027e+01 -3.010288281938e+02 0.0 
0.0 0.0 -1.281890091765e+02 
-1.356604827090e+02 1.087298164416e+01 0.0 
1.087298164416e+01 -3.196678545269e+02 0.0 
0.0 0.0 -1.361985011708e+02 
-1.353550041940e+02 1.088997890018e+01 0.0 
1.088997890018e+01 -3.162590386276e+02 0.0 
0.0 0.0 -1.350842128465e+02 
-1.635191295058e+01 5.558977987831e-01 0.0 
5.558977987831e-01 -3.503821180888e+01 0.0 
0.0 0.0 -1.501703742784e+01 
-1.242195936903e+02 4.733130970148e-01 0.0 
4.733130970148e-01 -2.869017388309e+02 0.0 
0.0 0.0 -1.229363997563e+02 
-8.116537206586e+01 4.526714027246e-01 0.0 
4.526714027246e-01 -1.794343768719e+02 0.0 
0.0 0.0 -7.777992468133e+01 
-1.592589330590e+01 -8.840226608792e-02 0.0 
-8.840226608792e-02 -2.774577577776e+01 0.0 
0.0 0.0 -1.284189151605e+01 
-7.735170675256e+01 2.881547085896e-01 0.0 
2.881547085896e-01 -1.705821340316e+02 0.0 
0.0 0.0 -7.398015223524e+01 
-8.190252548961e+01 3.341516817328e-01 0.0 
3.341516817328e-01 -1.818937475276e+02 0.0 
0.0 0.0 -7.873888190516e+01 
-7.291161630594e+01 1.763706515417e-01 0.0 
1.763706515417e-01 -1.605166275974e+02 0.0 
0.0 0.0 -6.962847317101e+01 
-3.328976391575e+01 -3.698881146985e-01 0.0 
-3.698881146985e-01 -8.568373002977e+01 0.0 
0.0 0.0 -3.529204818365e+01 
-7.973193461726e+01 8.223311477622e-01 0.0 
8.223311477622e-01 -1.736259405626e+02 0.0 
0.0 0.0 -7.560736255394e+01 
-8.506646120148e+01 1.242887400211e+00 0.0 
1.242887400211e+00 -1.856065074904e+02 0.0 
0.0 0.0 -8.080189060757e+01 
-1.592181923332e+01 -1.074190523098e+00 0.0 
-1.074190523098e+00 -3.611073653664e+01 0.0 
0.0 0.0 -1.532037998976e+01 
-1.323011260109e+02 2.926438019596e+00 0.0 
2.926438019596e+00 -3.056072056481e+02 0.0 
0.0 0.0 -1.309724994977e+02 
-1.575852134001e+01 -8.344280955542e-01 0.0 
-8.344280955542e-01 -3.757659356605e+01 0.0 
0.0 0.0 -1.559910361467e+01 
-1.854992964983e+01 -7.760375589965e-01 0.0 
-7.760375589965e-01 -4.545453792337e+01 0.0 
0.0 0.0 -1.880134027196e+01 
-1.447023166214e+02 4.974632807075e+00 0.0 
4.974632807075e+00 -3.472056378538e+02 0.0 
0.0 0.0 -1.471723863426e+02 
-1.396418413743e+02 4.284112922629e+00 0.0 
4.284112922629e+00 -3.371935594292e+02 0.0 
0.0 0.0 -1.426506202411e+02 
-1.488010135483e+02 4.669874544831e+00 0.0 
4.669874544831e+00 -3.554286554115e+02 0.0 
0.0 0.0 -1.508689006879e+02 
-1.437183326684e+02 3.903662850817e+00 0.0 
3.903662850817e+00 -3.452807064563e+02 0.0 
0.0 0.0 -1.462997117374e+02 
-1.346841463195e+02 3.627816454031e+00 0.0 
3.627816454031e+00 -3.270574818063e+02 0.0 
0.0 0.0 -1.381224884377e+02 
-1.391953581663e+02 3.296930106335e+00 0.0 
3.296930106335e+00 -3.360999287965e+02 0.0 
0.0 0.0 -1.421885860888e+02 
-7.662944361001e+01 4.540475166432e-01 0.0 
4.540475166432e-01 -1.683086861798e+02 0.0 
0.0 0.0 -7.308143893693e+01 
-1.496562447793e+02 3.652347153039e+00 0.0 
3.652347153039e+00 -3.568725445782e+02 0.0 
0.0 0.0 -1.515586368073e+02 
-1.438843550147e+02 2.955574971398e+00 0.0 
2.955574971398e+00 -3.453015658584e+02 0.0 
0.0 0.0 -1.463557762620e+02 
-1.541790889027e+02 3.257051661468e+00 0.0 
3.257051661468e+00 -3.661533427747e+02 0.0 
0.0 0.0 -1.556997295032e+02 
-5.800143880109e+01 3.052003452017e+00 0.0 
3.052003452017e+00 -1.164913230926e+02 0.0 
0.0 0.0 -5.194782856811e+01 
-4.333577568863e+01 1.069643320958e+01 0.0 
1.069643320958e+01 -9.079417664644e+01 0.0 
0.0 0.0 -3.983898570052e+01 
-3.963297861820e+01 8.969428069627e+00 0.0 
8.969428069627e+00 -7.751206171573e+01 0.0 
0.0 0.0 -3.474351210018e+01 
-3.043855412364e+01 7.686258891249e+00 0.0 
7.686258891249e+00 -5.583521577509e+01 0.0 
0.0 0.0 -2.548213096962e+01 
-1.361690383885e+02 9.621798041305e+00 0.0 
9.621798041305e+00 -3.131794102195e+02 0.0 
0.0 0.0 -1.344045345824e+02 
-1.312267924135e+02 8.733036678256e+00 0.0 
8.733036678256e+00 -2.994238389366e+02 0.0 
0.0 0.0 -1.287951894050e+02 
-1.280080858185e+02 6.780546859374e-01 0.0 
6.780546859374e-01 -3.121821654159e+02 0.0 
0.0 0.0 -1.316570753703e+02 
-1.189323855512e+02 5.635792888100e-01 0.0 
5.635792888100e-01 -2.928343216943e+02 0.0 
0.0 0.0 -1.231300121737e+02 
-7.738920626894e+01 1.566047360193e-01 0.0 
1.566047360193e-01 -1.716823861439e+02 0.0 
0.0 0.0 -7.432147772385e+01 
-7.685765206811e+01 1.596260697053e-01 0.0 
1.596260697053e-01 -1.706448251481e+02 0.0 
0.0 0.0 -7.385074316485e+01 
-8.435224619297e+01 1.119192591705e-01 0.0 
1.119192591705e-01 -1.884661683757e+02 0.0 
0.0 0.0 -8.144552437062e+01 
-8.325410843884e+01 1.922123860782e-01 0.0 
1.922123860782e-01 -1.860670245537e+02 0.0 
0.0 0.0 -8.039633989777e+01 
-9.071574540884e+01 1.499283897809e-01 0.0 
1.499283897809e-01 -2.039954600695e+02 0.0 
0.0 0.0 -8.801336164351e+01 
-8.961211341247e+01 2.276628854539e-01 0.0 
2.276628854539e-01 -2.012671422394e+02 0.0 
0.0 0.0 -8.686377669557e+01 
-9.719532217209e+01 4.034454108614e-01 0.0 
4.034454108614e-01 -2.195651447332e+02 0.0 
0.0 0.0 -9.462814007159e+01 
-1.392698217310e+02 1.106557624712e+01 0.0 
1.106557624712e+01 -3.247072124857e+02 0.0 
0.0 0.0 -1.387931102650e+02 
-2.259915961148e+01 1.138369417011e+01 0.0 
1.138369417011e+01 -4.528565849375e+01 0.0 
0.0 0.0 -1.996544543157e+01 
-6.606362283295e+01 2.500059930753e+00 0.0 
2.500059930753e+00 -1.355833881145e+02 0.0 
0.0 0.0 -6.009410328425e+01 
-1.403743919102e+02 1.045997802070e+01 0.0 
1.045997802070e+01 -3.331822598652e+02 0.0 
0.0 0.0 -1.416669955326e+02 
-1.351303016416e+02 9.765118290195e+00 0.0 
9.765118290195e+00 -3.233451116962e+02 0.0 
0.0 0.0 -1.371426240014e+02 
-5.775241667385e+01 4.867850686786e+00 0.0 
4.867850686786e+00 -1.155767941813e+02 0.0 
0.0 0.0 -5.159876325654e+01 
-4.939010138023e+01 3.983763109722e+00 0.0 
3.983763109722e+00 -9.668079186130e+01 0.0 
0.0 0.0 -4.342126797246e+01 
-1.463289633345e+02 6.132978874830e+00 0.0 
6.132978874830e+00 -3.504587735784e+02 0.0 
0.0 0.0 -1.486363210739e+02 
-5.307990215711e+01 1.126686436688e+01 0.0 
1.126686436688e+01 -1.295610122860e+02 0.0 
0.0 0.0 -5.439227433294e+01 
-1.366619417665e+02 3.502395609397e+00 0.0 
3.502395609397e+00 -3.172551737710e+02 0.0 
0.0 0.0 -1.357751346612e+02 
-1.256155678802e+01 2.592777131051e+00 0.0 
2.592777131051e+00 -1.392454313400e+01 0.0 
0.0 0.0 -7.907535555706e+00 
-1.498588250470e+01 2.701689604114e+00 0.0 
2.701689604114e+00 -3.073821756626e+01 0.0 
0.0 0.0 -1.342952467612e+01 
-5.801359009846e+01 1.126049216538e+01 0.0 
1.126049216538e+01 -1.362058970914e+02 0.0 
0.0 0.0 -5.786584615697e+01 
-6.605159686457e+01 5.526352254031e+00 0.0 
5.526352254031e+00 -1.351230646388e+02 0.0 
0.0 0.0 -5.995239845102e+01 
-4.817314589057e+01 9.351074701144e+00 0.0 
9.351074701144e+00 -9.841561185038e+01 0.0 
0.0 0.0 -4.357662732228e+01 
-4.480577486878e+01 7.709639276006e+00 0.0 
7.709639276006e+00 -8.753246466390e+01 0.0 
0.0 0.0 -3.930147185981e+01 
-1.128928949447e+02 6.157358037892e+00 0.0 
6.157358037892e+00 -2.812000056314e+02 0.0 
0.0 0.0 -1.178278701728e+02 
-2.103612305549e+01 -1.311394089874e+00 0.0 
-1.311394089874e+00 -5.082699467735e+01 0.0 
0.0 0.0 -2.115893531985e+01 
-2.294593767590e+01 1.126998452643e+01 0.0 
1.126998452643e+01 -5.758496387221e+01 0.0 
0.0 0.0 -2.375927046443e+01 
-9.826597789827e+01 3.175519153591e-01 0.0 
3.175519153591e-01 -2.218059674032e+02 0.0 
0.0 0.0 -9.562158359043e+01 
-1.751480171420e+01 1.048620184541e+01 0.0 
1.048620184541e+01 -4.038181391657e+01 0.0 
0.0 0.0 -1.696898468923e+01 
-1.237612155234e+02 3.029248295707e-01 0.0 
3.029248295707e-01 -3.030387601483e+02 0.0 
0.0 0.0 -1.276399927015e+02 
-5.663142958104e+01 1.062743944861e+01 0.0 
1.062743944861e+01 -1.420507575018e+02 0.0 
0.0 0.0 -5.920465612486e+01 
-7.356252115073e+01 7.918940778160e+00 0.0 
7.918940778160e+00 -1.560848857924e+02 0.0 
0.0 0.0 -6.849422208294e+01 
-2.970186503828e+01 1.166069804783e+01 0.0 
1.166069804783e+01 -7.501475016170e+01 0.0 
0.0 0.0 -3.101498455999e+01 
-4.699328277513e+01 1.152507716616e+01 0.0 
1.152507716616e+01 -1.046295716679e+02 0.0 
0.0 0.0 -4.508685633292e+01 
-9.001241217698e+01 4.440738963329e+00 0.0 
4.440738963329e+00 -1.924065096720e+02 0.0 
0.0 0.0 -8.432567655468e+01 
-8.195135694713e+01 2.862197392712e+00 0.0 
2.862197392712e+00 -1.738399513028e+02 0.0 
0.0 0.0 -7.633739247498e+01 
-7.807142200952e+01 2.959925110386e+00 0.0 
2.959925110386e+00 -1.640677672820e+02 0.0 
0.0 0.0 -7.224175678745e+01 
-6.019311365213e+01 9.810188027913e+00 0.0 
9.810188027913e+00 -1.538255293352e+02 0.0 
0.0 0.0 -6.380559289621e+01 
-4.912379589008e+01 6.503241823883e+00 0.0 
6.503241823883e+00 -9.653230721987e+01 0.0 
0.0 0.0 -4.329683093299e+01 
-3.947313625175e+01 5.400319441091e+00 0.0 
5.400319441091e+00 -7.462040647871e+01 0.0 
0.0 0.0 -3.382806281914e+01 
-8.603817134416e+01 6.048947507056e+00 0.0 
6.048947507056e+00 -1.832033992568e+02 0.0 
0.0 0.0 -8.037247118030e+01 
-1.170306642816e+02 4.279330696267e+00 0.0 
4.279330696267e+00 -2.624656534974e+02 0.0 
0.0 0.0 -1.134488953337e+02 
-1.207392513806e+02 4.940716760371e+00 0.0 
4.940716760371e+00 -2.718582599817e+02 0.0 
0.0 0.0 -1.173792534087e+02 
-1.278684374772e+02 5.499255967323e+00 0.0 
5.499255967323e+00 -2.909897833770e+02 0.0 
0.0 0.0 -1.252574662563e+02 
-1.244405199098e+02 5.663033907401e+00 0.0 
5.663033907401e+00 -2.813494022740e+02 0.0 
0.0 0.0 -1.213369766551e+02 
-1.171075375036e+02 5.110038303701e+00 0.0 
5.110038303701e+00 -2.617579842129e+02 0.0 
0.0 0.0 -1.132596565150e+02 
-1.208786725816e+02 5.874822923978e+00 0.0 
5.874822923978e+00 -2.713220787572e+02 0.0 
0.0 0.0 -1.172602254016e+02 
-1.280210808066e+02 6.353985954389e+00 0.0 
6.353985954389e+00 -2.909047512075e+02 0.0 
0.0 0.0 -1.252777496042e+02 
-1.248639303988e+02 6.617190164450e+00 0.0 
6.617190164450e+00 -2.816312563264e+02 0.0 
0.0 0.0 -1.215485560176e+02 
-1.331245061853e+02 7.326780278504e+00 0.0 
7.326780278504e+00 -3.045990155138e+02 0.0 
0.0 0.0 -1.309170565097e+02 
-1.283977705044e+02 7.455948228847e+00 0.0 
7.455948228847e+00 -2.913972578735e+02 0.0 
0.0 0.0 -1.255385085134e+02 
-1.208360044957e+02 6.772767995799e+00 0.0 
6.772767995799e+00 -2.710329846898e+02 0.0 
0.0 0.0 -1.171606967556e+02 
-1.242286817378e+02 7.503855468108e+00 0.0 
7.503855468108e+00 -2.804843121562e+02 0.0 
0.0 0.0 -1.210138981682e+02 
-1.312239903294e+02 8.134137515051e+00 0.0 
8.134137515051e+00 -2.993161805032e+02 0.0 
0.0 0.0 -1.287620512498e+02 
-1.168513512335e+02 6.959921198173e+00 0.0 
6.959921198173e+00 -2.606477441209e+02 0.0 
0.0 0.0 -1.128497286063e+02 
-1.447160911064e+02 1.102290164277e+01 0.0 
1.102290164277e+01 -3.414154307378e+02 0.0 
0.0 0.0 -1.454394565533e+02 
-6.630039062313e+01 1.091029364379e+01 0.0 
1.091029364379e+01 -1.556908256101e+02 0.0 
0.0 0.0 -6.619736486997e+01 
-1.789673198165e+01 1.959534848967e+00 0.0 
1.959534848967e+00 -4.375732402650e+01 0.0 
0.0 0.0 -1.809621680245e+01 
-1.560989050312e+01 4.690899341872e+00 0.0 
4.690899341872e+00 -3.759841400209e+01 0.0 
0.0 0.0 -1.556249135156e+01 
-7.783362020822e+01 7.181497031848e+00 0.0 
7.181497031848e+00 -1.649742857132e+02 0.0 
0.0 0.0 -7.244237177644e+01 
-1.397485050080e+02 7.513414372568e+00 0.0 
7.513414372568e+00 -3.238425778601e+02 0.0 
0.0 0.0 -1.386773248604e+02 
-1.390273141770e+02 6.172786051816e+00 0.0 
6.172786051816e+00 -3.222288236143e+02 0.0 
0.0 0.0 -1.379768413374e+02 
-4.419693373074e+01 9.804016862227e+00 0.0 
9.804016862227e+00 -1.176764869113e+02 0.0 
0.0 0.0 -4.816202619260e+01 
-1.434699229189e+02 1.054129487369e+01 0.0 
1.054129487369e+01 -3.332826447867e+02 0.0 
0.0 0.0 -1.426257703117e+02 
-8.211530093883e+01 3.826628578842e+00 0.0 
3.826628578842e+00 -1.732398932975e+02 0.0 
0.0 0.0 -7.620655827091e+01 
-3.000560084938e+01 5.934925905537e+00 0.0 
5.934925905537e+00 -8.706547735367e+01 0.0 
0.0 0.0 -3.472132346091e+01 
-1.451337519297e+02 1.142735696540e+01 0.0 
1.142735696540e+01 -3.381019177942e+02 0.0 
0.0 0.0 -1.445707009172e+02 
-1.133021325066e+02 4.388471026175e+00 0.0 
4.388471026175e+00 -2.521945552921e+02 0.0 
0.0 0.0 -1.092490063396e+02 
-1.094636939747e+02 4.532487631462e+00 0.0 
4.532487631462e+00 -2.418257570288e+02 0.0 
0.0 0.0 -1.049868353011e+02 
-1.055982784742e+02 3.826924501716e+00 0.0 
3.826924501716e+00 -2.324234365858e+02 0.0 
0.0 0.0 -1.010065145180e+02 
-1.387505137068e+02 5.141661108523e+00 0.0 
5.141661108523e+00 -3.218470491868e+02 0.0 
0.0 0.0 -1.377792688681e+02 
-9.327809375519e+01 1.598136472579e+00 0.0 
1.598136472579e+00 -2.055507091501e+02 0.0 
0.0 0.0 -8.924864087158e+01 
-1.487470439637e+02 1.194022884945e+01 0.0 
1.194022884945e+01 -3.488098986209e+02 0.0 
0.0 0.0 -1.488670827754e+02 
-9.700247079926e+01 9.046836574431e+00 0.0 
9.046836574431e+00 -2.388215520260e+02 0.0 
0.0 0.0 -1.003472068476e+02 
-9.314244496764e+01 9.477216152078e+00 0.0 
9.477216152078e+00 -2.277474346170e+02 0.0 
0.0 0.0 -9.586696387540e+01 
-8.478837118433e+01 9.516530113172e+00 0.0 
9.516530113172e+00 -2.090351708994e+02 0.0 
0.0 0.0 -8.774706262513e+01 
-1.171091295243e+02 6.027510896386e+00 0.0 
6.027510896386e+00 -2.611122200335e+02 0.0 
0.0 0.0 -1.130664048673e+02 
-1.515250908843e+02 1.059121009013e+01 0.0 
1.059121009013e+01 -3.576821589750e+02 0.0 
0.0 0.0 -1.523621749578e+02 
-1.442639169389e+02 9.784187599676e+00 0.0 
9.784187599676e+00 -3.434518973946e+02 0.0 
0.0 0.0 -1.459147443000e+02 
-1.449594207509e+02 9.319456634404e+00 0.0 
9.319456634404e+00 -3.454209539565e+02 0.0 
0.0 0.0 -1.467141124122e+02 
-1.362170557811e+02 8.995460238792e+00 0.0 
8.995460238792e+00 -3.276033356085e+02 0.0 
0.0 0.0 -1.387461174169e+02 
-1.531933881964e+02 9.513662502492e+00 0.0 
9.513662502492e+00 -3.620374183665e+02 0.0 
0.0 0.0 -1.541692419689e+02 
-1.416879010172e+02 8.842207052132e+00 0.0 
8.842207052132e+00 -3.285664368048e+02 0.0 
0.0 0.0 -1.406763013466e+02 
-1.424629458098e+02 9.480989152918e+00 0.0 
9.480989152918e+00 -3.307389168478e+02 0.0 
0.0 0.0 -1.415605587973e+02 
-4.521855811152e+01 9.694147999920e-01 0.0 
9.694147999920e-01 -1.245432296912e+02 0.0 
0.0 0.0 -5.052853634083e+01 
-4.853019154493e+01 2.059214774708e+00 0.0 
2.059214774708e+00 -1.341890589948e+02 0.0 
0.0 0.0 -5.441577516192e+01 
-5.572109795223e+01 2.736347602868e+00 0.0 
2.736347602868e+00 -1.522981822881e+02 0.0 
0.0 0.0 -6.200578407209e+01 
-5.192520963413e+01 3.267712000667e+00 0.0 
3.267712000667e+00 -1.432634446562e+02 0.0 
0.0 0.0 -5.815659628709e+01 
-4.476896741497e+01 2.566361627312e+00 0.0 
2.566361627312e+00 -1.251231650568e+02 0.0 
0.0 0.0 -5.056763974153e+01 
-4.808980610362e+01 3.895288241517e+00 0.0 
3.895288241517e+00 -1.339482206921e+02 0.0 
0.0 0.0 -5.421140803871e+01 
-5.545085927277e+01 4.541398719779e+00 0.0 
4.541398719779e+00 -1.518409914975e+02 0.0 
0.0 0.0 -6.178755523107e+01 
-4.422674650663e+01 4.657956255118e+00 0.0 
4.657956255118e+00 -1.243620293156e+02 0.0 
0.0 0.0 -5.017663274669e+01 
-1.241601931997e+02 8.331926268958e+00 0.0 
8.331926268958e+00 -2.805520405988e+02 0.0 
0.0 0.0 -1.210136701396e+02 
-1.548191558454e+02 8.231356687542e+00 0.0 
8.231356687542e+00 -3.661124456858e+02 0.0 
0.0 0.0 -1.558794804594e+02 
-9.959590544798e+01 3.805947329764e+00 0.0 
3.805947329764e+00 -2.532786362149e+02 0.0 
0.0 0.0 -1.054623624989e+02 
-9.529935291031e+01 4.098043799638e+00 0.0 
4.098043799638e+00 -2.438333154895e+02 0.0 
0.0 0.0 -1.013398005199e+02 
-8.691463018791e+01 3.590613273270e+00 0.0 
3.590613273270e+00 -2.251236053166e+02 0.0 
0.0 0.0 -9.321147065135e+01 
-7.423973648670e+01 3.366572212474e-01 0.0 
3.366572212474e-01 -1.921542146125e+02 0.0 
0.0 0.0 -7.951818532975e+01 
-7.839303098913e+01 7.129767370272e-01 0.0 
7.129767370272e-01 -2.027291026653e+02 0.0 
0.0 0.0 -8.393664009633e+01 
-8.649922242064e+01 1.120342826593e+00 0.0 
1.120342826593e+00 -2.218872645517e+02 0.0 
0.0 0.0 -9.211594609170e+01 
-7.006531962660e+01 5.332484922916e-02 0.0 
5.332484922916e-02 -1.814355535028e+02 0.0 
0.0 0.0 -7.505026193880e+01 
-1.075369188891e+02 9.897577346433e+00 0.0 
9.897577346433e+00 -2.475973690281e+02 0.0 
0.0 0.0 -1.061402863752e+02 
-1.553482485058e+02 7.648588394617e+00 0.0 
7.648588394617e+00 -3.673653270504e+02 0.0 
0.0 0.0 -1.564140726669e+02 
-9.569961777001e+01 6.600803163479e+00 0.0 
6.600803163479e+00 -2.426888756073e+02 0.0 
0.0 0.0 -1.011165480132e+02 
-7.452115010404e+01 7.282756776809e-01 0.0 
7.282756776809e-01 -1.939938560666e+02 0.0 
0.0 0.0 -8.015450185119e+01 
-7.233887991845e+01 8.076970479042e-01 0.0 
8.076970479042e-01 -1.547764433186e+02 0.0 
0.0 0.0 -6.773459697112e+01 
-8.001969723425e+01 1.271093728415e+00 0.0 
1.271093728415e+00 -1.720981437802e+02 0.0 
0.0 0.0 -7.523535230435e+01 
-8.068407906493e+01 1.706734858801e+00 0.0 
1.706734858801e+00 -1.726940185775e+02 0.0 
0.0 0.0 -7.561342929273e+01 
-8.843229743559e+01 2.066024952252e+00 0.0 
2.066024952252e+00 -1.912107490893e+02 0.0 
0.0 0.0 -8.349291395747e+01 
-8.035507106751e+01 1.236338321394e+00 0.0 
1.236338321394e+00 -1.736382010615e+02 0.0 
0.0 0.0 -7.579798163871e+01 
-8.996940722432e+01 6.545463987246e-01 0.0 
6.545463987246e-01 -2.286303326929e+02 0.0 
0.0 0.0 -9.517992197518e+01 
-9.379916407758e+01 6.017258951037e-01 0.0 
6.017258951037e-01 -2.372006935178e+02 0.0 
0.0 0.0 -9.889995727862e+01 
-8.940710810522e+01 3.423115900030e-01 0.0 
3.423115900030e-01 -2.267174818502e+02 0.0 
0.0 0.0 -9.443737698663e+01 
-9.764894599474e+01 5.211873335189e-01 0.0 
5.211873335189e-01 -2.457196087920e+02 0.0 
0.0 0.0 -1.026105664360e+02 
-9.302416804108e+01 3.289008826009e-01 0.0 
3.289008826009e-01 -2.347991255549e+02 0.0 
0.0 0.0 -9.794698807879e+01 
-8.550396984566e+01 2.229413621462e-01 0.0 
2.229413621462e-01 -2.171207704738e+02 0.0 
0.0 0.0 -9.038742209584e+01 
-1.013721964601e+02 4.219532736995e-01 0.0 
4.219532736995e-01 -2.538501277378e+02 0.0 
0.0 0.0 -1.061666972594e+02 
-9.603363623820e+01 1.581048217387e-01 0.0 
1.581048217387e-01 -2.416242878165e+02 0.0 
0.0 0.0 -1.008973772164e+02 
-7.154423018133e+01 5.279511273904e-01 0.0 
5.279511273904e-01 -1.542622323187e+02 0.0 
0.0 0.0 -6.734193875001e+01 
-1.338801161258e+01 -7.217241127970e-01 0.0 
-7.217241127970e-01 -1.720454481923e+01 0.0 
0.0 0.0 -9.167626735742e+00 
-1.692765877912e+01 -1.143225172989e+00 0.0 
-1.143225172989e+00 -3.389655131745e+01 0.0 
0.0 0.0 -1.497520585447e+01 
-1.668518358768e+01 -1.142463524969e+00 0.0 
-1.142463524969e+00 -3.349892831323e+01 0.0 
0.0 0.0 -1.478378303345e+01 
-2.098248427425e+01 -1.213154054083e+00 0.0 
-1.213154054083e+00 -4.942427188358e+01 0.0 
0.0 0.0 -2.072202684735e+01 
-2.100028246303e+01 -9.794617378080e-01 0.0 
-9.794617378080e-01 -5.049503269506e+01 0.0 
0.0 0.0 -2.104859454743e+01 
-2.608898105189e+01 -8.051446746913e-01 0.0 
-8.051446746913e-01 -6.749372639094e+01 0.0 
0.0 0.0 -2.767481223285e+01 
-2.500209670955e+01 -3.301501459766e-01 0.0 
-3.301501459766e-01 -6.487748549575e+01 0.0 
0.0 0.0 -2.656387466159e+01 
-1.699347320467e+01 -8.862060559246e-01 0.0 
-8.862060559246e-01 -3.386788433847e+01 0.0 
0.0 0.0 -1.499883361333e+01 
-1.209243909429e+01 -7.609195858894e-01 0.0 
-7.609195858894e-01 -1.699194427377e+01 0.0 
0.0 0.0 -8.716020913674e+00 
-1.623996538242e+01 -1.188118492050e+00 0.0 
-1.188118492050e+00 -3.348729586537e+01 0.0 
0.0 0.0 -1.465493872204e+01 
-1.133021288593e+01 -7.400810820813e-01 0.0 
-7.400810820813e-01 -1.682866952281e+01 0.0 
0.0 0.0 -8.442866047765e+00 
-1.574088719071e+01 -1.180899047018e+00 0.0 
-1.180899047018e+00 -3.302923671149e+01 0.0 
0.0 0.0 -1.436588661439e+01 
-2.158941643753e+01 -1.369342382130e+00 0.0 
-1.369342382130e+00 -5.190215196290e+01 0.0 
0.0 0.0 -2.164747052013e+01 
-3.044760349161e+01 -1.267594098366e+00 0.0 
-1.267594098366e+00 -7.851779810519e+01 0.0 
0.0 0.0 -3.228962047904e+01 
-1.570247786223e+02 1.812501505617e+00 0.0 
1.812501505617e+00 -3.714718642549e+02 0.0 
0.0 0.0 -1.581489928632e+02 
-7.314167394251e+01 -3.529437878071e-02 0.0 
-3.529437878071e-02 -1.873584283614e+02 0.0 
0.0 0.0 -7.775003069118e+01 
-6.919139765329e+01 -1.498595419813e-01 0.0 
-1.498595419813e-01 -1.779188081233e+02 0.0 
0.0 0.0 -7.373306173299e+01 
-6.177998785365e+01 -2.264356009498e-01 0.0 
-2.264356009498e-01 -1.590932417648e+02 0.0 
0.0 0.0 -6.586196888552e+01 
-6.568904344973e+01 -1.398505091010e-01 0.0 
-1.398505091010e-01 -1.692331444644e+02 0.0 
0.0 0.0 -7.007665637425e+01 
-7.616637505833e+01 -7.626824641054e-02 0.0 
-7.626824641054e-02 -1.950926676328e+02 0.0 
0.0 0.0 -8.097771280733e+01 
-5.769070530225e+01 -1.573312049382e-01 0.0 
-1.573312049382e-01 -1.487033377378e+02 0.0 
0.0 0.0 -6.151821291201e+01 
-5.493238298392e+01 -3.090753467065e-01 0.0 
-3.090753467065e-01 -1.416942604111e+02 0.0 
0.0 0.0 -5.858799301852e+01 
-7.152035440892e+00 -1.438023617328e-01 0.0 
-1.438023617328e-01 -1.716269454545e+01 0.0 
0.0 0.0 -7.282306325656e+00 
-1.323715859148e+01 -2.039938140059e-01 0.0 
-2.039938140059e-01 -3.373065032804e+01 0.0 
0.0 0.0 -1.379430294894e+01 
-1.262874454204e+01 -2.509742179271e-01 0.0 
-2.509742179271e-01 -3.208883991554e+01 0.0 
0.0 0.0 -1.304974212499e+01 
-1.948473731403e+01 -2.827996006852e-01 0.0 
-2.827996006852e-01 -5.046518188221e+01 0.0 
0.0 0.0 -2.058497575887e+01 
-1.963697324642e+01 -3.651464850243e-01 0.0 
-3.651464850243e-01 -5.011165510476e+01 0.0 
0.0 0.0 -2.052458850535e+01 
-1.360555779722e+01 -3.684147398946e-01 0.0 
-3.684147398946e-01 -3.402881257608e+01 0.0 
0.0 0.0 -1.401749266103e+01 
-1.372983418672e+01 -5.158857502386e-01 0.0 
-5.158857502386e-01 -3.402945929715e+01 0.0 
0.0 0.0 -1.406144213512e+01 
-7.634097763571e+00 -3.051910928050e-01 0.0 
-3.051910928050e-01 -1.703563640382e+01 0.0 
0.0 0.0 -7.395498854867e+00 
-1.385688037863e+01 -5.528165426691e-01 0.0 
-5.528165426691e-01 -3.389621819004e+01 0.0 
0.0 0.0 -1.408729444568e+01 
-2.013906161259e+01 -7.037135214047e-01 0.0 
-7.037135214047e-01 -5.091121673924e+01 0.0 
0.0 0.0 -2.091508350555e+01 
-7.821743368963e+00 -3.593508100349e-01 0.0 
-3.593508100349e-01 -1.645876337371e+01 0.0 
0.0 0.0 -7.295889042765e+00 
-1.076808950871e+02 2.688957566372e-01 0.0 
2.688957566372e-01 -2.455950330481e+02 0.0 
0.0 0.0 -1.055827784405e+02 
-1.119547513876e+02 4.270585250484e-01 0.0 
4.270585250484e-01 -2.563230904557e+02 0.0 
0.0 0.0 -1.100833525530e+02 
-1.557774259634e+02 6.297850635159e+00 0.0 
6.297850635159e+00 -3.687346506400e+02 0.0 
0.0 0.0 -1.569536229810e+02 
-7.182216503921e+01 4.162166778203e-01 0.0 
4.162166778203e-01 -1.562568560976e+02 0.0 
0.0 0.0 -6.802370634103e+01 
-1.013524461778e+01 -6.215828763734e-01 0.0 
-6.215828763734e-01 -1.709421097086e+01 0.0 
0.0 0.0 -8.153000320431e+00 
-1.352908818070e+02 1.253667259014e+00 0.0 
1.253667259014e+00 -3.150312830935e+02 0.0 
0.0 0.0 -1.346966494702e+02 
-1.369658142546e+02 2.334652222591e+00 0.0 
2.334652222591e+00 -3.186712593987e+02 0.0 
0.0 0.0 -1.362911220960e+02 
-1.370007879783e+02 1.902733353562e+00 0.0 
1.902733353562e+00 -3.188601069905e+02 0.0 
0.0 0.0 -1.363582684907e+02 
-1.424469700465e+02 3.716247838349e-01 0.0 
3.716247838349e-01 -3.420670578554e+02 0.0 
0.0 0.0 -1.449542083706e+02 
-1.471450608510e+02 8.166103284143e-01 0.0 
8.166103284143e-01 -3.515270014144e+02 0.0 
0.0 0.0 -1.492016186796e+02 
-1.353345389895e+02 6.796484573779e-01 0.0 
6.796484573779e-01 -3.154605579864e+02 0.0 
0.0 0.0 -1.348385290928e+02 
-4.770668571286e+01 -7.960942499259e-01 0.0 
-7.960942499259e-01 -1.253791185095e+02 0.0 
0.0 0.0 -5.152574126670e+01 
-1.316255841388e+02 6.180697616336e+00 0.0 
6.180697616336e+00 -3.004546185133e+02 0.0 
0.0 0.0 -1.292240607956e+02 
-1.220232037338e+02 1.243381470461e+00 0.0 
1.243381470461e+00 -2.807945988768e+02 0.0 
0.0 0.0 -1.204453407832e+02 
-2.664430871847e+01 7.186132627654e+00 0.0 
7.186132627654e+00 -7.686438442411e+01 0.0 
0.0 0.0 -3.065260794277e+01 
-4.525331955386e+01 -6.013724327588e-01 0.0 
-6.013724327588e-01 -1.207720794089e+02 0.0 
0.0 0.0 -4.940761968883e+01 
-1.147481453229e+02 7.979832529102e-01 0.0 
7.979832529102e-01 -2.838491811939e+02 0.0 
0.0 0.0 -1.191791979551e+02 
-1.032198034938e+02 1.904323244801e+00 0.0 
1.904323244801e+00 -2.599428828584e+02 0.0 
0.0 0.0 -1.085488059056e+02 
-1.334393295143e+02 1.853710301015e+00 0.0 
1.853710301015e+00 -3.239213884073e+02 0.0 
0.0 0.0 -1.368082153765e+02 
-1.067031904386e+02 1.158013703288e+00 0.0 
1.158013703288e+00 -2.666703721278e+02 0.0 
0.0 0.0 -1.116120687699e+02 
-1.250620294497e+02 2.408184983484e+00 0.0 
2.408184983484e+00 -3.067755856655e+02 0.0 
0.0 0.0 -1.291512845346e+02 
-1.449714375813e+02 8.501928328719e+00 0.0 
8.501928328719e+00 -3.463537304283e+02 0.0 
0.0 0.0 -1.469975504029e+02 
-3.090150528111e+01 -4.758904798639e-01 0.0 
-4.758904798639e-01 -7.913407743495e+01 0.0 
0.0 0.0 -3.261067481482e+01 
-9.368005668101e+01 9.339291878301e-01 0.0 
9.339291878301e-01 -2.089434144335e+02 0.0 
0.0 0.0 -9.038704133436e+01 
-9.019188166556e+01 4.841539665596e-01 0.0 
4.841539665596e-01 -2.017854750841e+02 0.0 
0.0 0.0 -8.719320702490e+01 
-1.101001599006e+02 1.178750124324e+00 0.0 
1.178750124324e+00 -2.502901852489e+02 0.0 
0.0 0.0 -1.077171035448e+02 
-5.051922445614e+01 -6.066617498225e-01 0.0 
-6.066617498225e-01 -1.315248394983e+02 0.0 
0.0 0.0 -5.421321918632e+01 
-8.157812695280e+01 2.283433039015e-01 0.0 
2.283433039015e-01 -2.081621374508e+02 0.0 
0.0 0.0 -8.652207932109e+01 
-3.244784778002e+01 -1.016749829218e+00 0.0 
-1.016749829218e+00 -8.391180476593e+01 0.0 
0.0 0.0 -3.450789576378e+01 
-1.387289754799e+02 1.063520250226e+01 0.0 
1.063520250226e+01 -3.211911321199e+02 0.0 
0.0 0.0 -1.375760322800e+02 
-7.816436143833e+01 5.526411685778e+00 0.0 
5.526411685778e+00 -1.638416391350e+02 0.0 
0.0 0.0 -7.220180017200e+01 
-8.280425719281e+01 2.784179641334e+00 0.0 
2.784179641334e+00 -2.155892105785e+02 0.0 
0.0 0.0 -8.911804033138e+01 
-6.638736067114e+01 -1.823919024306e-02 0.0 
-1.823919024306e-02 -1.727812321541e+02 0.0 
0.0 0.0 -7.135057784758e+01 
-5.166407063369e+01 -5.554608166850e-01 0.0 
-5.554608166850e-01 -1.364131544286e+02 0.0 
0.0 0.0 -5.602316751869e+01 
-4.196219591857e+01 -5.913324879539e-01 0.0 
-5.913324879539e-01 -1.125621537647e+02 0.0 
0.0 0.0 -4.595730490499e+01 
-7.125022602297e+01 1.060108903066e+01 0.0 
1.060108903066e+01 -1.632071591204e+02 0.0 
0.0 0.0 -6.993721554300e+01 
-7.859874959411e+01 1.250196095397e+00 0.0 
1.250196095397e+00 -2.043636068092e+02 0.0 
0.0 0.0 -8.448870692100e+01 
-1.169298055199e+02 3.748694176880e+00 0.0 
3.748694176880e+00 -2.904772927985e+02 0.0 
0.0 0.0 -1.218221294955e+02 
-1.142589781116e+02 1.090844130801e+00 0.0 
1.090844130801e+00 -2.611173813159e+02 0.0 
0.0 0.0 -1.122129078282e+02 
-9.705801113201e+00 -6.256776810949e-01 0.0 
-6.256776810949e-01 -1.903503028333e+01 0.0 
0.0 0.0 -8.507548250084e+00 
-1.216101544263e+02 4.458372199637e+00 0.0 
4.458372199637e+00 -3.003738448075e+02 0.0 
0.0 0.0 -1.261951997701e+02 
-9.504239959051e+01 2.196078951439e+00 0.0 
2.196078951439e+00 -2.424010630805e+02 0.0 
0.0 0.0 -1.008330388013e+02 
-9.744853921350e+01 1.608933888066e+00 0.0 
1.608933888066e+00 -2.163664039698e+02 0.0 
0.0 0.0 -9.374448295500e+01 
-1.181429536915e+02 9.029689881431e+00 0.0 
9.029689881431e+00 -2.870762688037e+02 0.0 
0.0 0.0 -1.211657667486e+02 
-2.960723875821e+01 -8.886588669973e-01 0.0 
-8.886588669973e-01 -7.749297923179e+01 0.0 
0.0 0.0 -3.173006539700e+01 
-1.134895973323e+02 1.927574185234e+00 0.0 
1.927574185234e+00 -2.574681310612e+02 0.0 
0.0 0.0 -1.108873185181e+02 
-1.277210366455e+02 3.788894714665e+00 0.0 
3.788894714665e+00 -2.926213286587e+02 0.0 
0.0 0.0 -1.257027095912e+02 
-8.923050801547e+01 1.686102884637e+00 0.0 
1.686102884637e+00 -1.949030633574e+02 0.0 
0.0 0.0 -8.484007141186e+01 
-2.534207976456e+01 -9.937383195361e-01 0.0 
-9.937383195361e-01 -6.442754735874e+01 0.0 
0.0 0.0 -2.653088813699e+01 
-8.528531185781e+01 6.433437048240e-01 0.0 
6.433437048240e-01 -1.889433571520e+02 0.0 
0.0 0.0 -8.186860070294e+01 
-1.405569320770e+02 6.454651115214e+00 0.0 
6.454651115214e+00 -3.386251931006e+02 0.0 
0.0 0.0 -1.433546375533e+02 
-1.131974653241e+02 3.665829609593e+00 0.0 
3.665829609593e+00 -2.531062635599e+02 0.0 
0.0 0.0 -1.094911186652e+02 
-4.645005641543e+01 -5.893373171988e-01 0.0 
-5.893373171988e-01 -1.205068762805e+02 0.0 
0.0 0.0 -4.968707980877e+01 
-8.332397554615e+01 6.855339849325e+00 0.0 
6.855339849325e+00 -2.143558332348e+02 0.0 
0.0 0.0 -8.890394263428e+01 
-7.712060759771e+01 8.848757377054e+00 0.0 
8.848757377054e+00 -1.672643799155e+02 0.0 
0.0 0.0 -7.291549625395e+01 
-6.617192428083e+01 1.636837782034e+00 0.0 
1.636837782034e+00 -1.368885325149e+02 0.0 
0.0 0.0 -6.051813703873e+01 
-1.253466769496e+02 1.525474860050e+00 0.0 
1.525474860050e+00 -2.892177285227e+02 0.0 
0.0 0.0 -1.239693216417e+02 
-8.586804312208e+01 1.019610888704e+01 0.0 
1.019610888704e+01 -2.051842311603e+02 0.0 
0.0 0.0 -8.691568228471e+01 
-1.266191227976e+02 8.417599470598e+00 0.0 
8.417599470598e+00 -3.076422873887e+02 0.0 
0.0 0.0 -1.298784230559e+02 
-1.002434403887e+02 7.407305990260e+00 0.0 
7.407305990260e+00 -2.513530165493e+02 0.0 
0.0 0.0 -1.050789370814e+02 
-4.989477094521e+01 -4.541625016290e-01 0.0 
-4.541625016290e-01 -1.292497590749e+02 0.0 
0.0 0.0 -5.334335900605e+01 
-1.303611588678e+02 3.920668758492e+00 0.0 
3.920668758492e+00 -3.184099241805e+02 0.0 
0.0 0.0 -1.342313249145e+02 
-8.019670005710e+01 8.965698039012e+00 0.0 
8.965698039012e+00 -2.015525560841e+02 0.0 
0.0 0.0 -8.412477684235e+01 
-1.212465815711e+02 2.245233714726e+00 0.0 
2.245233714726e+00 -2.772236818170e+02 0.0 
0.0 0.0 -1.191410790164e+02 
-1.124822240854e+02 9.049208760119e+00 0.0 
9.049208760119e+00 -2.536470584890e+02 0.0 
0.0 0.0 -1.094387847723e+02 
-6.318685244780e+01 7.018121790977e+00 0.0 
7.018121790977e+00 -1.679312995348e+02 0.0 
0.0 0.0 -6.893544559477e+01 
-1.170322190472e+02 2.937241175698e+00 0.0 
2.937241175698e+00 -2.647903704199e+02 0.0 
0.0 0.0 -1.141467768401e+02 
-8.279527980348e+01 3.946635001183e+00 0.0 
3.946635001183e+00 -2.158171175203e+02 0.0 
0.0 0.0 -8.918371919713e+01 
-1.228085215735e+02 9.562390741425e+00 0.0 
9.562390741425e+00 -2.955664543762e+02 0.0 
0.0 0.0 -1.251124927849e+02 
-7.408641991038e+01 6.079004646664e+00 0.0 
6.079004646664e+00 -1.545765808182e+02 0.0 
0.0 0.0 -6.819890021858e+01 
-9.701119713877e+01 8.562136152149e+00 0.0 
8.562136152149e+00 -2.146920391624e+02 0.0 
0.0 0.0 -9.311097089036e+01 
-1.053870909491e+02 6.658134748207e+00 0.0 
6.658134748207e+00 -2.313188425346e+02 0.0 
0.0 0.0 -1.006117800451e+02 
-9.174206641005e+01 9.889627272161e+00 0.0 
9.889627272161e+00 -2.092149202509e+02 0.0 
0.0 0.0 -8.988709599830e+01 
-1.100451057345e+02 4.105367536755e-01 0.0 
4.105367536755e-01 -2.733702190440e+02 0.0 
0.0 0.0 -1.146245974335e+02 
-1.259767845009e+02 4.181843326975e+00 0.0 
4.181843326975e+00 -3.094531081478e+02 0.0 
0.0 0.0 -1.302289677946e+02 
-2.832097980365e+01 1.511718558622e+00 0.0 
1.511718558622e+00 -7.983713718052e+01 0.0 
0.0 0.0 -3.204743509525e+01 
-5.515858271014e+01 1.120051532205e+01 0.0 
1.120051532205e+01 -1.243852454307e+02 0.0 
0.0 0.0 -5.346314844225e+01 
-9.748023905520e+01 2.074173090664e+00 0.0 
2.074173090664e+00 -2.148729195259e+02 0.0 
0.0 0.0 -9.330594757434e+01 
-1.272322180952e+02 1.029465478138e+01 0.0 
1.029465478138e+01 -2.941536445056e+02 0.0 
0.0 0.0 -1.260157587802e+02 
-1.288531002829e+02 2.473834967940e+00 0.0 
2.473834967940e+00 -2.967889224805e+02 0.0 
0.0 0.0 -1.272926068290e+02 
-6.921886267667e+01 8.726770641903e+00 0.0 
8.726770641903e+00 -1.476301629414e+02 0.0 
0.0 0.0 -6.465470768541e+01 
-1.255510910260e+02 3.263289756397e+00 0.0 
3.263289756397e+00 -3.082637453489e+02 0.0 
0.0 0.0 -1.297444509125e+02 
-1.243600754859e+02 3.287577974932e+00 0.0 
3.287577974932e+00 -2.840488708307e+02 0.0 
0.0 0.0 -1.221226838950e+02 
-8.254113588576e+01 1.176060941499e+00 0.0 
1.176060941499e+00 -2.131282495787e+02 0.0 
0.0 0.0 -8.830081563933e+01 
-3.509139113700e+01 -1.777823324906e-01 0.0 
-1.777823324906e-01 -9.074726498381e+01 0.0 
0.0 0.0 -3.735159683625e+01 
-2.128228922124e+01 6.495168178324e+00 0.0 
6.495168178324e+00 -6.029035606734e+01 0.0 
0.0 0.0 -2.407179358657e+01 
-4.771087949045e+01 6.195943649215e+00 0.0 
6.195943649215e+00 -1.322556378620e+02 0.0 
0.0 0.0 -5.358995520574e+01 
-8.119231368756e+01 1.000515307089e+01 0.0 
1.000515307089e+01 -1.978251736079e+02 0.0 
0.0 0.0 -8.330524618865e+01 
-9.074466991952e+01 1.621132869472e+00 0.0 
1.621132869472e+00 -2.321930495644e+02 0.0 
0.0 0.0 -9.648131584518e+01 
-1.323450720823e+02 5.378386851136e+00 0.0 
5.378386851136e+00 -3.037336119699e+02 0.0 
0.0 0.0 -1.304236052156e+02 
-1.298798882022e+02 2.994142870779e+00 0.0 
2.994142870779e+00 -3.170131598442e+02 0.0 
0.0 0.0 -1.336679144139e+02 
-1.174429569755e+02 5.858290857115e+00 0.0 
5.858290857115e+00 -2.911859450669e+02 0.0 
0.0 0.0 -1.221886706127e+02 
-1.401981178795e+01 8.599239494027e+00 0.0 
8.599239494027e+00 -2.115636326025e+01 0.0 
0.0 0.0 -1.015285251446e+01 
-7.012767785286e+01 2.305459569439e+00 0.0 
2.305459569439e+00 -1.453494433365e+02 0.0 
0.0 0.0 -6.424313635680e+01 
-1.342265630612e+02 2.707924970771e+00 0.0 
2.707924970771e+00 -3.257725528769e+02 0.0 
0.0 0.0 -1.375997347814e+02 
-8.726600049535e+01 6.264862289521e+00 0.0 
6.264862289521e+00 -2.242225718236e+02 0.0 
0.0 0.0 -9.304657169569e+01 
-1.267806680956e+02 9.334236333197e+00 0.0 
9.334236333197e+00 -3.056334429165e+02 0.0 
0.0 0.0 -1.293242333036e+02 
-8.824168263663e+01 1.382033522848e-01 0.0 
1.382033522848e-01 -2.233531553713e+02 0.0 
0.0 0.0 -9.307845140237e+01 
-1.392326590234e+02 1.099445627148e+01 0.0 
1.099445627148e+01 -3.231882417720e+02 0.0 
0.0 0.0 -1.383262702386e+02 
-5.376711571398e+01 3.465649264948e+00 0.0 
3.465649264948e+00 -1.066002363710e+02 0.0 
0.0 0.0 -4.771020562549e+01 
-1.386224935482e+02 2.390279901243e+00 0.0 
2.390279901243e+00 -3.347704776208e+02 0.0 
0.0 0.0 -1.416178913507e+02 
-1.175012033741e+02 6.929183729051e+00 0.0 
6.929183729051e+00 -2.902899408010e+02 0.0 
0.0 0.0 -1.219373432525e+02 
-4.850051437979e+01 1.078059813497e+01 0.0 
1.078059813497e+01 -1.236209083567e+02 0.0 
0.0 0.0 -5.123642682096e+01 
-6.967414854519e+01 2.321354502649e-02 0.0 
2.321354502649e-02 -1.536646471660e+02 0.0 
0.0 0.0 -6.660163871336e+01 
-1.493755030318e+02 2.583416411640e+00 0.0 
2.583416411640e+00 -3.563932234580e+02 0.0 
0.0 0.0 -1.513306179469e+02 
-1.266865249690e+02 7.399754668209e+00 0.0 
7.399754668209e+00 -3.094094300272e+02 0.0 
0.0 0.0 -1.304287864989e+02 
-9.962823582550e+01 9.858976410106e+00 0.0 
9.858976410106e+00 -2.283772814199e+02 0.0 
0.0 0.0 -9.800165517361e+01 
-8.294978128615e+01 5.336186700770e+00 0.0 
5.336186700770e+00 -2.154814825168e+02 0.0 
0.0 0.0 -8.912937914089e+01 
-5.790914958171e+01 1.829870841395e+00 0.0 
1.829870841395e+00 -1.173392520306e+02 0.0 
0.0 0.0 -5.217452048371e+01 
-9.476254649615e+01 1.520010026147e+00 0.0 
1.520010026147e+00 -2.409243874336e+02 0.0 
0.0 0.0 -1.003060801789e+02 
-1.011488982198e+02 8.140037513147e+00 0.0 
8.140037513147e+00 -2.234226450942e+02 0.0 
0.0 0.0 -9.697146299420e+01 
-1.384765073965e+02 4.558373057138e+00 0.0 
4.558373057138e+00 -3.215098130197e+02 0.0 
0.0 0.0 -1.375958961249e+02 
-1.309244869717e+02 8.157035303626e+00 0.0 
8.157035303626e+00 -3.174373030483e+02 0.0 
0.0 0.0 -1.341085370060e+02 
-1.016729160697e+02 3.955901597806e+00 0.0 
3.955901597806e+00 -2.220337818201e+02 0.0 
0.0 0.0 -9.671200936692e+01 
-9.041971126531e+01 1.061843809088e+00 0.0 
1.061843809088e+00 -2.305092016519e+02 0.0 
0.0 0.0 -9.587867387516e+01 
-1.060970105400e+02 9.819021690192e+00 0.0 
9.819021690192e+00 -2.543234581713e+02 0.0 
0.0 0.0 -1.077261406134e+02 
-1.987474941349e+01 -5.243087648798e-01 0.0 
-5.243087648798e-01 -5.024290513503e+01 0.0 
0.0 0.0 -2.063529636456e+01 
-6.209327244710e+01 2.729524603076e+00 0.0 
2.729524603076e+00 -1.260635966071e+02 0.0 
0.0 0.0 -5.604706071627e+01 
-9.432539714961e+01 9.970586223281e-01 0.0 
9.970586223281e-01 -2.390964048427e+02 0.0 
0.0 0.0 -9.962654059771e+01 
-5.156427237742e+01 5.300047733893e+00 0.0 
5.300047733893e+00 -1.421777823519e+02 0.0 
0.0 0.0 -5.772261641881e+01 
-8.695312766382e+01 4.848611631907e+00 0.0 
4.848611631907e+00 -2.249153027393e+02 0.0 
0.0 0.0 -9.316052912094e+01 
-1.401657627047e+02 1.094616801116e+01 0.0 
1.094616801116e+01 -3.307104119993e+02 0.0 
0.0 0.0 -1.408628524112e+02 
-9.823773066203e+01 9.109919142813e-01 0.0 
9.109919142813e-01 -2.476816374344e+02 0.0 
0.0 0.0 -1.033758104289e+02 
-5.918470851834e+01 5.812638566061e+00 0.0 
5.812638566061e+00 -1.600228179205e+02 0.0 
0.0 0.0 -6.536225793166e+01 
-1.021467053487e+02 7.971222265574e-01 0.0 
7.971222265574e-01 -2.562144488940e+02 0.0 
0.0 0.0 -1.071083462728e+02 
-4.955486431524e+01 2.236333872132e+00 0.0 
2.236333872132e+00 -9.790110776302e+01 0.0 
0.0 0.0 -4.383679162348e+01 
-1.055880270031e+02 4.695912300874e+00 0.0 
4.695912300874e+00 -2.315565545999e+02 0.0 
0.0 0.0 -1.007433744809e+02 
-1.060774459769e+02 6.598606616726e-01 0.0 
6.598606616726e-01 -2.646803800562e+02 0.0 
0.0 0.0 -1.108273478099e+02 
-1.088352388526e+02 8.452811679864e+00 0.0 
8.452811679864e+00 -2.429120468208e+02 0.0 
0.0 0.0 -1.051241857020e+02 
-2.088219035940e+01 -7.237550987853e-01 0.0 
-7.237550987853e-01 -5.256616833601e+01 0.0 
0.0 0.0 -2.163450760862e+01 
-1.030765577175e+02 1.004509161126e+01 0.0 
1.004509161126e+01 -2.394638254568e+02 0.0 
0.0 0.0 -1.023621149523e+02 
-1.374111787214e+02 7.306332148345e-01 0.0 
7.306332148345e-01 -3.316915940327e+02 0.0 
0.0 0.0 -1.403308318262e+02 
-5.942142641002e+01 3.228408867214e-01 0.0 
3.228408867214e-01 -1.580337035093e+02 0.0 
0.0 0.0 -6.483653897578e+01 
-9.104416560313e+01 4.431456456063e+00 0.0 
4.431456456063e+00 -2.343064983230e+02 0.0 
0.0 0.0 -9.720519917785e+01 
-1.133102140997e+02 5.283496439918e+00 0.0 
5.283496439918e+00 -2.514391625819e+02 0.0 
0.0 0.0 -1.090248130045e+02 
-4.090469073469e+01 3.009672739619e+00 0.0 
3.009672739619e+00 -7.825821935694e+01 0.0 
0.0 0.0 -3.534887302749e+01 
-9.956001222351e+01 4.901509154026e+00 0.0 
4.901509154026e+00 -2.530140161438e+02 0.0 
0.0 0.0 -1.053722085102e+02 
-1.164835669107e+02 8.794526629805e+00 0.0 
8.794526629805e+00 -2.624549207795e+02 0.0 
0.0 0.0 -1.132815463071e+02 
-1.066666108168e+02 1.007355324920e+01 0.0 
1.007355324920e+01 -2.506199306297e+02 0.0 
0.0 0.0 -1.067859624339e+02 
-8.939429438004e+01 9.871420453109e+00 0.0 
9.871420453109e+00 -2.164641911944e+02 0.0 
0.0 0.0 -9.135754567233e+01 
-1.083681459397e+02 5.370683106329e+00 0.0 
5.370683106329e+00 -2.720074117762e+02 0.0 
0.0 0.0 -1.137126673148e+02 
-4.520560613339e+01 4.597331226493e+00 0.0 
4.597331226493e+00 -8.723177949147e+01 0.0 
0.0 0.0 -3.933121568746e+01 
-4.443044593833e+01 -9.101457902632e-01 0.0 
-9.101457902632e-01 -1.171845155648e+02 0.0 
0.0 0.0 -4.808448845093e+01 
-3.740340653422e+01 -1.137609005247e+00 0.0 
-1.137609005247e+00 -9.799495737662e+01 0.0 
0.0 0.0 -4.021950917325e+01 
-6.305236547193e+01 5.068849899179e+00 0.0 
5.068849899179e+00 -1.696997140071e+02 0.0 
0.0 0.0 -6.942562384371e+01 
-1.204085638193e+02 8.545535905748e+00 0.0 
8.545535905748e+00 -2.715100867593e+02 0.0 
0.0 0.0 -1.171755951736e+02 
-2.591104906590e+01 -2.702325673568e-01 0.0 
-2.702325673568e-01 -6.673997206678e+01 0.0 
0.0 0.0 -2.739530633980e+01 
-1.132152097112e+02 6.218957358402e+00 0.0 
6.218957358402e+00 -2.508860941346e+02 0.0 
0.0 0.0 -1.088303911537e+02 
-2.772881174935e+01 -1.305294016242e+00 0.0 
-1.305294016242e+00 -7.063745239731e+01 0.0 
0.0 0.0 -2.910987924400e+01 
-5.929929469426e+01 3.891015726310e+00 0.0 
3.891015726310e+00 -1.611663168404e+02 0.0 
0.0 0.0 -6.573968346040e+01 
-1.191859295660e+02 1.017126490761e+01 0.0 
1.017126490761e+01 -2.817809169513e+02 0.0 
0.0 0.0 -1.198900539552e+02 
-9.211729355207e+01 2.851246119073e-01 0.0 
2.851246119073e-01 -2.074857991939e+02 0.0 
0.0 0.0 -8.948092782380e+01 
-6.313416641307e+01 3.340091221375e+00 0.0 
3.340091221375e+00 -1.702530084951e+02 0.0 
0.0 0.0 -6.961615247244e+01 
-4.266654550177e+01 -1.849425423979e-01 0.0 
-1.849425423979e-01 -1.102670599102e+02 0.0 
0.0 0.0 -4.548008162359e+01 
-5.947949594197e+01 2.302446146940e+00 0.0 
2.302446146940e+00 -1.610843104336e+02 0.0 
0.0 0.0 -6.576914191268e+01 
-9.767184737366e+01 9.794736311229e+00 0.0 
9.794736311229e+00 -2.352514975136e+02 0.0 
0.0 0.0 -9.947700346617e+01 
-6.326002112513e+01 1.963202618405e+00 0.0 
1.963202618405e+00 -1.698034049854e+02 0.0 
0.0 0.0 -6.951902783315e+01 
-5.961039942382e+01 1.127722777871e+00 0.0 
1.127722777871e+00 -1.600863526851e+02 0.0 
0.0 0.0 -6.550902563268e+01 
-1.296238708320e+02 1.435170991555e+00 0.0 
1.435170991555e+00 -3.003165844434e+02 0.0 
0.0 0.0 -1.285821365826e+02 
-6.325836921133e+01 9.493616953277e-01 0.0 
9.493616953277e-01 -1.684415866131e+02 0.0 
0.0 0.0 -6.910998674734e+01 
-1.368650733862e+02 4.621119774382e-01 0.0 
4.621119774382e-01 -3.188248652563e+02 0.0 
0.0 0.0 -1.363069815927e+02 
-1.578364046370e+02 8.865911726511e-01 0.0 
8.865911726511e-01 -3.729603590383e+02 0.0 
0.0 0.0 -1.588390291026e+02 
-7.588117929938e+01 1.784981278718e-01 0.0 
1.784981278718e-01 -1.686001506595e+02 0.0 
0.0 0.0 -7.294439898766e+01 
-3.121634298089e+01 3.444117311654e+00 0.0 
3.444117311654e+00 -5.774758050342e+01 0.0 
0.0 0.0 -2.628917704529e+01 
-1.449117660019e+01 1.781145219737e-02 0.0 
1.781145219737e-02 -1.698693382807e+01 0.0 
0.0 0.0 -9.307985657908e+00 
-3.728039936897e+01 7.158899286183e+00 0.0 
7.158899286183e+00 -6.940170982004e+01 0.0 
0.0 0.0 -3.160463275670e+01 
-5.221859777902e+01 -1.664619436440e-01 0.0 
-1.664619436440e-01 -1.394263024421e+02 0.0 
0.0 0.0 -5.709347006633e+01 
-1.129216488563e+02 7.148273813199e+00 0.0 
7.148273813199e+00 -2.507654292119e+02 0.0 
0.0 0.0 -1.087061234205e+02 
-7.628883880313e+01 4.804382274574e-02 0.0 
4.804382274574e-02 -1.693585049034e+02 0.0 
0.0 0.0 -7.329420311195e+01 
-4.842917128138e+01 -6.220057674175e-01 0.0 
-6.220057674175e-01 -1.285459672805e+02 0.0 
0.0 0.0 -5.269254156857e+01 
-1.355333820320e+02 8.074174357363e+00 0.0 
8.074174357363e+00 -3.110218781527e+02 0.0 
0.0 0.0 -1.335665780554e+02 
-1.470361634006e+02 1.195194761702e+01 0.0 
1.195194761702e+01 -3.437612820407e+02 0.0 
0.0 0.0 -1.468392336324e+02 
-1.038151421791e+02 3.250289441030e-01 0.0 
3.250289441030e-01 -2.359967550377e+02 0.0 
0.0 0.0 -1.015435691650e+02 
-1.306647538148e+02 9.047522823465e+00 0.0 
9.047522823465e+00 -3.150374489096e+02 0.0 
0.0 0.0 -1.333106608173e+02 
-1.106367843371e+02 1.002339385555e+01 0.0 
1.002339385555e+01 -2.622520809532e+02 0.0 
0.0 0.0 -1.114666595871e+02 
-1.223994101383e+02 2.818787831963e-01 0.0 
2.818787831963e-01 -2.826417050489e+02 0.0 
0.0 0.0 -1.211123345562e+02 
-6.952692904820e+01 3.444352042958e-01 0.0 
3.444352042958e-01 -1.522765320777e+02 0.0 
0.0 0.0 -6.614103833776e+01 
-1.536879960455e+01 -1.100418998213e+00 0.0 
-1.100418998213e+00 -3.295772893148e+01 0.0 
0.0 0.0 -1.422098573629e+01 
-1.146306178520e+02 2.196458914896e-01 0.0 
2.196458914896e-01 -2.833301675048e+02 0.0 
0.0 0.0 -1.189882356071e+02 
-2.259646781682e+01 5.062147813440e+00 0.0 
5.062147813440e+00 -3.836462029083e+01 0.0 
0.0 0.0 -1.788832643229e+01 
-2.653238273144e+01 1.006320484276e+01 0.0 
1.006320484276e+01 -4.943903346563e+01 0.0 
0.0 0.0 -2.239142485912e+01 
-1.958465931483e+01 1.143011147187e+01 0.0 
1.143011147187e+01 -4.267253891905e+01 0.0 
0.0 0.0 -1.827715947016e+01 
-5.250606670554e+01 -3.488196840635e-01 0.0 
-3.488196840635e-01 -1.361520930400e+02 0.0 
0.0 0.0 -5.619744792365e+01 
-2.090723540715e+01 -1.330456495679e+00 0.0 
-1.330456495679e+00 -4.908826614958e+01 0.0 
0.0 0.0 -2.059865046702e+01 
-1.747997038769e+01 8.527811338958e+00 0.0 
8.527811338958e+00 -2.789841096334e+01 0.0 
0.0 0.0 -1.321351440531e+01 
-1.430810408467e+02 1.023180905641e+01 0.0 
1.023180905641e+01 -3.401710968500e+02 0.0 
0.0 0.0 -1.445756413090e+02 
-7.797392640452e+01 7.845840928370e-01 0.0 
7.845840928370e-01 -1.700215069324e+02 0.0 
0.0 0.0 -7.399863000109e+01 
-1.232474853833e+02 1.041213121245e+01 0.0 
1.041213121245e+01 -2.892405184135e+02 0.0 
0.0 0.0 -1.233464011391e+02 
-1.499430588713e+01 1.034307539591e+01 0.0 
1.034307539591e+01 -2.446894929905e+01 0.0 
0.0 0.0 -1.143897655586e+01 
-1.314667781031e+02 3.710711307713e+00 0.0 
3.710711307713e+00 -3.030281071034e+02 0.0 
0.0 0.0 -1.299484655619e+02 
-1.406632968600e+02 1.127289494082e+01 0.0 
1.127289494082e+01 -3.300344513197e+02 0.0 
0.0 0.0 -1.408093244539e+02 
-1.574089983550e+02 4.952372170440e+00 0.0 
4.952372170440e+00 -3.721719987090e+02 0.0 
0.0 0.0 -1.584742991192e+02 
-1.316230638311e+02 1.073237516896e+01 0.0 
1.073237516896e+01 -3.088121325268e+02 0.0 
0.0 0.0 -1.317305589074e+02 
-1.613334674080e+01 8.927113957049e+00 0.0 
8.927113957049e+00 -3.738264749119e+01 0.0 
0.0 0.0 -1.565479826960e+01 
-8.641927368161e+01 1.792090394490e+00 0.0 
1.792090394490e+00 -1.871237191625e+02 0.0 
0.0 0.0 -8.166289785323e+01 
-1.378990768548e+02 1.028535495433e+01 0.0 
1.028535495433e+01 -3.186941823546e+02 0.0 
0.0 0.0 -1.365779777628e+02 
-1.102879599893e+02 4.803299142307e-01 0.0 
4.803299142307e-01 -2.515681730435e+02 0.0 
0.0 0.0 -1.081568399098e+02 
-1.586468001209e+02 3.612175660637e+00 0.0 
3.612175660637e+00 -3.744091298094e+02 0.0 
0.0 0.0 -1.595167789791e+02 
-7.770446214871e+01 8.256271003472e-01 0.0 
8.256271003472e-01 -1.678715065734e+02 0.0 
0.0 0.0 -7.327279061662e+01 
-1.304952890566e+02 8.718909137556e-01 0.0 
8.718909137556e-01 -3.028087706364e+02 0.0 
0.0 0.0 -1.295912179079e+02 
-2.606175908849e+01 3.337765240273e-01 0.0 
3.337765240273e-01 -7.103721054806e+01 0.0 
0.0 0.0 -2.872969089096e+01 
-1.305154675588e+02 3.976946247879e-01 0.0 
3.976946247879e-01 -3.029823570978e+02 0.0 
0.0 0.0 -1.296493473970e+02 
-1.204515046949e+02 7.681879161836e+00 0.0 
7.681879161836e+00 -2.705105745738e+02 0.0 
0.0 0.0 -1.168886237806e+02 
-8.661521164884e+01 2.305366208398e-01 0.0 
2.305366208398e-01 -1.933428316634e+02 0.0 
0.0 0.0 -8.358741299367e+01 
-8.689074602847e+01 2.131387686971e+00 0.0 
2.131387686971e+00 -1.867775080014e+02 0.0 
0.0 0.0 -8.170047620896e+01 
-1.515981200657e+02 1.274739551789e+00 0.0 
1.274739551789e+00 -3.603832347064e+02 0.0 
0.0 0.0 -1.531944064316e+02 
-1.341450315115e+02 6.946911001400e+00 0.0 
6.946911001400e+00 -3.080641829218e+02 0.0 
0.0 0.0 -1.322627643300e+02 
-1.497911082182e+01 6.668872338485e+00 0.0 
6.668872338485e+00 -3.367544980998e+01 0.0 
0.0 0.0 -1.419636818954e+01 
-1.035966038368e+02 2.574515582544e-01 0.0 
2.574515582544e-01 -2.349281730800e+02 0.0 
0.0 0.0 -1.011574330751e+02 
-6.559412756946e+01 -9.247019103996e-02 0.0 
-9.247019103996e-02 -1.694122858381e+02 0.0 
0.0 0.0 -7.010192402227e+01 
-1.654161210508e+01 -5.195761790326e-01 0.0 
-5.195761790326e-01 -3.095046202064e+01 0.0 
0.0 0.0 -1.404006200868e+01 
-1.482784597369e+02 5.518986006521e+00 0.0 
5.518986006521e+00 -3.543699294089e+02 0.0 
0.0 0.0 -1.503945167437e+02 
-1.273760599585e+02 8.171134807452e+00 0.0 
8.171134807452e+00 -2.892398308886e+02 0.0 
0.0 0.0 -1.245847672541e+02 
-1.506047564268e+02 2.018343290060e+00 0.0 
2.018343290060e+00 -3.588235738849e+02 0.0 
0.0 0.0 -1.524284990935e+02 
-1.932252037859e+01 -2.694994039526e-01 0.0 
-2.694994039526e-01 -4.977804291704e+01 0.0 
0.0 0.0 -2.033016898869e+01 
-1.395945266206e+01 -9.888577459971e-01 0.0 
-9.888577459971e-01 -3.110958528935e+01 0.0 
0.0 0.0 -1.320262987527e+01 
-1.487492334249e+02 6.891608777048e+00 0.0 
6.891608777048e+00 -3.550077327150e+02 0.0 
0.0 0.0 -1.507270898420e+02 
-1.373731992161e+02 9.201911091535e+00 0.0 
9.201911091535e+00 -3.162683452653e+02 0.0 
0.0 0.0 -1.356924633444e+02 
-2.978145287288e+01 -1.802420690887e-02 0.0 
-1.802420690887e-02 -8.048969401050e+01 0.0 
0.0 0.0 -3.268134406502e+01 
-1.386476206034e+02 3.163679421906e+00 0.0 
3.163679421906e+00 -3.228204476147e+02 0.0 
0.0 0.0 -1.380404204654e+02 
-1.335797505968e+01 4.641494945955e+00 0.0 
4.641494945955e+00 -2.416675405716e+01 0.0 
0.0 0.0 -1.093922272010e+01 
-6.908689754257e+01 1.518934239097e-01 0.0 
1.518934239097e-01 -1.502342492337e+02 0.0 
0.0 0.0 -6.539634403288e+01 
-1.366990766901e+01 -5.593289091881e-01 0.0 
-5.593289091881e-01 -3.230944812582e+01 0.0 
0.0 0.0 -1.356957634312e+01 
-1.588185124815e+02 3.163666445547e+00 0.0 
3.163666445547e+00 -3.747022942005e+02 0.0 
0.0 0.0 -1.596562420046e+02 
-1.313460058864e+02 2.204465809771e+00 0.0 
2.204465809771e+00 -3.041664403525e+02 0.0 
0.0 0.0 -1.302537338717e+02 
-7.268206493129e+01 -1.850587872623e-01 0.0 
-1.850587872623e-01 -1.864682985544e+02 0.0 
0.0 0.0 -7.734510904571e+01 
-7.375088276766e+01 1.185288539193e+00 0.0 
1.185288539193e+00 -1.561525011153e+02 0.0 
0.0 0.0 -6.857101516488e+01 
-4.778642793954e+01 -3.424835225127e-01 0.0 
-3.424835225127e-01 -1.235518405437e+02 0.0 
0.0 0.0 -5.100148054498e+01 
-1.338008206887e+02 1.051010474303e+01 0.0 
1.051010474303e+01 -3.106039441999e+02 0.0 
0.0 0.0 -1.329214294666e+02 
-1.978663175119e+01 -1.367975080302e+00 0.0 
-1.367975080302e+00 -4.617397556055e+01 0.0 
0.0 0.0 -1.938818219352e+01 
-1.317930025877e+02 1.750159112793e+00 0.0 
1.750159112793e+00 -3.058202958933e+02 0.0 
0.0 0.0 -1.308839895443e+02 
-1.480448909483e+02 8.217979497419e+00 0.0 
8.217979497419e+00 -3.529705793656e+02 0.0 
0.0 0.0 -1.499046410942e+02 
-1.339912507171e+02 5.018272009570e+00 0.0 
5.018272009570e+00 -3.087046859489e+02 0.0 
0.0 0.0 -1.324087809998e+02 
-1.520124991536e+02 1.164765567469e+01 0.0 
1.164765567469e+01 -3.574560606967e+02 0.0 
0.0 0.0 -1.524405679551e+02 
-1.534535109125e+01 9.437994873528e-01 0.0 
9.437994873528e-01 -2.844724296414e+01 0.0 
0.0 0.0 -1.283963252354e+01 
-1.421727960555e+02 1.151386426527e+01 0.0 
1.151386426527e+01 -3.326544003524e+02 0.0 
0.0 0.0 -1.420481589224e+02 
-1.385418005308e+02 8.476070859605e+00 0.0 
8.476070859605e+00 -3.331635643528e+02 0.0 
0.0 0.0 -1.411116094651e+02 
-6.917257354302e+01 -1.164249590784e-01 0.0 
-1.164249590784e-01 -1.520765558470e+02 0.0 
0.0 0.0 -6.597473881701e+01 
-1.337950914161e+02 5.816902935618e+00 0.0 
5.816902935618e+00 -3.073699093254e+02 0.0 
0.0 0.0 -1.319495002225e+02 
-5.878990992754e+01 -3.582240124937e-01 0.0 
-3.582240124937e-01 -1.518134174242e+02 0.0 
0.0 0.0 -6.278099820551e+01 
-2.589894778694e+01 -6.042282029349e-01 0.0 
-6.042282029349e-01 -6.578374529333e+01 0.0 
0.0 0.0 -2.710480792408e+01 
-1.376722142049e+02 3.163387914046e-01 0.0 
3.163387914046e-01 -3.208745514231e+02 0.0 
0.0 0.0 -1.371640296884e+02 
-6.107090489641e+00 -1.990344971045e-02 0.0 
-1.990344971045e-02 -1.412714275779e+01 0.0 
0.0 0.0 -5.982621048895e+00 
-6.837569930160e+01 9.650091259469e-02 0.0 
9.650091259469e-02 -1.509795410577e+02 0.0 
0.0 0.0 -6.540657210779e+01 
-1.600030531006e+02 2.352425132101e-01 0.0 
2.352425132101e-01 -3.771840696692e+02 0.0 
0.0 0.0 -1.607561368310e+02 
-2.472958027988e+01 -4.920723250013e-01 0.0 
-4.920723250013e-01 -6.287012154159e+01 0.0 
0.0 0.0 -2.587991054644e+01 
-8.200820935976e+01 2.085437308512e-01 0.0 
2.085437308512e-01 -1.829592152360e+02 0.0 
0.0 0.0 -7.909022737871e+01 
-1.372027304605e+02 8.759215054968e+00 0.0 
8.759215054968e+00 -3.155479028828e+02 0.0 
0.0 0.0 -1.354251900030e+02 
-9.028292803289e+01 2.991322090105e-02 0.0 
2.991322090105e-02 -2.283511994257e+02 0.0 
0.0 0.0 -9.519023823757e+01 
-1.179730059975e+02 5.898229922652e-01 0.0 
5.898229922652e-01 -2.713649231259e+02 0.0 
0.0 0.0 -1.164013787370e+02 
-2.466053993548e+01 -1.216695742414e+00 0.0 
-1.216695742414e+00 -6.158153896717e+01 0.0 
0.0 0.0 -2.547262367080e+01 
-1.411463622718e+01 -4.244059985544e-01 0.0 
-4.244059985544e-01 -1.448990088155e+01 0.0 
0.0 0.0 -8.598633770152e+00 
-9.641786313806e+01 3.581974415389e-01 0.0 
3.581974415389e-01 -2.178037612507e+02 0.0 
0.0 0.0 -9.386648731664e+01 
-1.427160120400e+02 1.118273386217e+01 0.0 
1.118273386217e+01 -3.359425785586e+02 0.0 
0.0 0.0 -1.431975771796e+02 
-1.336835782635e+02 4.182293681411e+00 0.0 
4.182293681411e+00 -3.086971737982e+02 0.0 
0.0 0.0 -1.323142256185e+02 
-9.099886124423e+01 1.932950935337e-01 0.0 
1.932950935337e-01 -2.041353468875e+02 0.0 
0.0 0.0 -8.814026243951e+01 
-1.779694160137e+01 6.040305195120e+00 0.0 
6.040305195120e+00 -4.675806431658e+01 0.0 
0.0 0.0 -1.896650177539e+01 
-1.330913505899e+02 8.581385742061e+00 0.0 
8.581385742061e+00 -3.045609599115e+02 0.0 
0.0 0.0 -1.308956931504e+02 
-7.893360584684e+01 7.612323525212e-02 0.0 
7.612323525212e-02 -2.012124712263e+02 0.0 
0.0 0.0 -8.364382312195e+01 
-1.335077884267e+02 1.020256226475e+01 0.0 
1.020256226475e+01 -3.076453031518e+02 0.0 
0.0 0.0 -1.319459274735e+02 
-1.376880923434e+02 9.582199952145e+00 0.0 
9.582199952145e+00 -3.297794481631e+02 0.0 
0.0 0.0 -1.398402621520e+02 
-1.215863036031e+01 4.980693847464e+00 0.0 
4.980693847464e+00 -1.247565162351e+01 0.0 
0.0 0.0 -7.257363572252e+00 
-9.755014215336e+01 1.994736235455e-02 0.0 
1.994736235455e-02 -2.452157754232e+02 0.0 
0.0 0.0 -1.024297752730e+02 
-1.324435727483e+01 -5.569700091961e-01 0.0 
-5.569700091961e-01 -3.027182732378e+01 0.0 
0.0 0.0 -1.275640692909e+01 
-1.513766389261e+02 4.367851809085e+00 0.0 
4.367851809085e+00 -3.604923031149e+02 0.0 
0.0 0.0 -1.531606826123e+02 
-8.233933103709e+01 1.347575838580e-01 0.0 
1.347575838580e-01 -2.096342989528e+02 0.0 
0.0 0.0 -8.719208899696e+01 
-4.655998352849e+00 1.754792230523e+00 0.0 
1.754792230523e+00 -7.663498263096e+00 0.0 
0.0 0.0 -3.213739852689e+00 
-8.095620832553e+00 9.665667294477e-02 0.0 
9.665667294477e-02 -9.365818519514e+00 0.0 
0.0 0.0 -4.838431805620e+00 
-1.605330606858e+01 1.982042774693e+00 0.0 
1.982042774693e+00 -2.858987953216e+01 0.0 
0.0 0.0 -1.299295568022e+01 
-1.652979410759e+01 -2.132250933228e-02 0.0 
-2.132250933228e-02 -3.008770943601e+01 0.0 
0.0 0.0 -1.358525106308e+01 
-2.619940149497e+01 1.589014432415e+00 0.0 
1.589014432415e+00 -4.850260370886e+01 0.0 
0.0 0.0 -2.201060156115e+01 
-2.436117204652e+01 -2.649171803015e-02 0.0 
-2.649171803015e-02 -4.851722293268e+01 0.0 
0.0 0.0 -2.146351849376e+01 
-3.541358572099e+01 1.267569050192e+00 0.0 
1.267569050192e+00 -6.805179042558e+01 0.0 
0.0 0.0 -3.063961284397e+01 
-3.326214437408e+01 -2.329109595748e-02 0.0 
-2.329109595748e-02 -6.915349096177e+01 0.0 
0.0 0.0 -3.032469060076e+01 
-4.437605061480e+01 1.029078153011e+00 0.0 
1.029078153011e+00 -8.765570224214e+01 0.0 
0.0 0.0 -3.920952585708e+01 
-4.122615241023e+01 -1.193076147271e-02 0.0 
-1.193076147271e-02 -8.760242679298e+01 0.0 
0.0 0.0 -3.824857376096e+01 
-5.296704802212e+01 9.252341180818e-01 0.0 
9.252341180818e-01 -1.071103975703e+02 0.0 
0.0 0.0 -4.762323367772e+01 
-5.015360035972e+01 -5.661130989337e-02 0.0 
-5.661130989337e-02 -1.082536455556e+02 0.0 
0.0 0.0 -4.712217377461e+01 
-6.132533069898e+01 9.269202065106e-01 0.0 
9.269202065106e-01 -1.266715912796e+02 0.0 
0.0 0.0 -5.599907659357e+01 
-5.792444996237e+01 -1.586095601547e-01 0.0 
-1.586095601547e-01 -1.266535814069e+02 0.0 
0.0 0.0 -5.497340941079e+01 

TENSORS node_materi_strain_total float
-1.698563299957e-06 2.214679838074e-07 0.0 
2.214679838074e-07 1.612845825294e-05 0.0 
0.0 0.0 0.0 
-4.066199226985e-05 -2.651599288502e-06 0.0 
-2.651599288502e-06 1.075250497593e-03 0.0 
0.0 0.0 0.0 
5.680525365537e-06 5.434213032029e-06 0.0 
5.434213032029e-06 1.237364674313e-03 0.0 
0.0 0.0 0.0 
-2.548135443314e-06 -6.258535856841e-07 0.0 
-6.258535856841e-07 1.658496639895e-03 0.0 
0.0 0.0 0.0 
1.192296455714e-06 -7.890891051351e-07 0.0 
-7.890891051351e-07 4.571633946449e-05 0.0 
0.0 0.0 0.0 
7.426344985258e-06 1.518435828367e-06 0.0 
1.518435828367e-06 1.044626527085e-04 0.0 
0.0 0.0 0.0 
1.613843567376e-05 1.586201838184e-06 0.0 
1.586201838184e-06 1.585955002428e-04 0.0 
0.0 0.0 0.0 
2.402568009889e-05 1.414422909586e-06 0.0 
1.414422909586e-06 2.202087569988e-04 0.0 
0.0 0.0 0.0 
3.185394595902e-05 1.077301466627e-06 0.0 
1.077301466627e-06 2.798981317597e-04 0.0 
0.0 0.0 0.0 
3.992870586796e-05 1.061280225978e-06 0.0 
1.061280225978e-06 3.388067215944e-04 0.0 
0.0 0.0 0.0 
4.697905909801e-05 1.281852409036e-06 0.0 
1.281852409036e-06 3.982235156246e-04 0.0 
0.0 0.0 0.0 
5.290991763037e-05 1.293727859011e-06 0.0 
1.293727859011e-06 4.583980243773e-04 0.0 
0.0 0.0 0.0 
5.781197137641e-05 1.499268020528e-06 0.0 
1.499268020528e-06 5.193800927742e-04 0.0 
0.0 0.0 0.0 
6.088797780264e-05 2.135209432222e-06 0.0 
2.135209432222e-06 5.822214946983e-04 0.0 
0.0 0.0 0.0 
6.188080906947e-05 3.326158202744e-06 0.0 
3.326158202744e-06 6.481336635817e-04 0.0 
0.0 0.0 0.0 
6.296208093826e-05 3.656789564602e-06 0.0 
3.656789564602e-06 7.124851937383e-04 0.0 
0.0 0.0 0.0 
6.254916624811e-05 4.986895490685e-06 0.0 
4.986895490685e-06 7.719361797185e-04 0.0 
0.0 0.0 0.0 
5.904382750329e-05 2.854338797256e-06 0.0 
2.854338797256e-06 8.392881931557e-04 0.0 
0.0 0.0 0.0 
5.383680947824e-05 3.027275285434e-06 0.0 
3.027275285434e-06 9.096423561885e-04 0.0 
0.0 0.0 0.0 
4.688138996907e-05 3.316802927980e-06 0.0 
3.316802927980e-06 9.791631946190e-04 0.0 
0.0 0.0 0.0 
3.776982897633e-05 3.402122443547e-06 0.0 
3.402122443547e-06 1.050725336024e-03 0.0 
0.0 0.0 0.0 
2.650134751492e-05 4.112055484777e-06 0.0 
4.112055484777e-06 1.124275280981e-03 0.0 
0.0 0.0 0.0 
1.555009448495e-05 4.803283199989e-06 0.0 
4.803283199989e-06 1.195407988779e-03 0.0 
0.0 0.0 0.0 
-1.636521740530e-06 4.009984310092e-06 0.0 
4.009984310092e-06 1.661328360175e-03 0.0 
0.0 0.0 0.0 
-2.243368682116e-06 7.518207854074e-06 0.0 
7.518207854074e-06 1.658124745239e-03 0.0 
0.0 0.0 0.0 
-2.194208600851e-06 9.809022173815e-06 0.0 
9.809022173815e-06 1.658690474829e-03 0.0 
0.0 0.0 0.0 
-2.293639820775e-06 1.582191807084e-05 0.0 
1.582191807084e-05 1.658099193564e-03 0.0 
0.0 0.0 0.0 
-2.819749217749e-06 1.878674764562e-05 0.0 
1.878674764562e-05 1.655589838831e-03 0.0 
0.0 0.0 0.0 
-2.450864435177e-06 2.344244609647e-05 0.0 
2.344244609647e-05 1.656612354734e-03 0.0 
0.0 0.0 0.0 
-2.448277299301e-06 2.825409335260e-05 0.0 
2.825409335260e-05 1.655766046352e-03 0.0 
0.0 0.0 0.0 
-3.045199754507e-06 3.318784353172e-05 0.0 
3.318784353172e-05 1.653341906861e-03 0.0 
0.0 0.0 0.0 
-2.986343908828e-06 3.768305948488e-05 0.0 
3.768305948488e-05 1.653493617807e-03 0.0 
0.0 0.0 0.0 
-2.976268733875e-06 4.497574013414e-05 0.0 
4.497574013414e-05 1.650985694871e-03 0.0 
0.0 0.0 0.0 
-3.908003161894e-06 5.008959183832e-05 0.0 
5.008959183832e-05 1.646493756351e-03 0.0 
0.0 0.0 0.0 
-3.668163697938e-06 5.689504047519e-05 0.0 
5.689504047519e-05 1.644725027043e-03 0.0 
0.0 0.0 0.0 
-3.751352241806e-06 6.419895963010e-05 0.0 
6.419895963010e-05 1.641201300970e-03 0.0 
0.0 0.0 0.0 
-4.096101533291e-06 7.146872800397e-05 0.0 
7.146872800397e-05 1.635428176206e-03 0.0 
0.0 0.0 0.0 
-4.476918505839e-06 7.896132328857e-05 0.0 
7.896132328857e-05 1.628804034040e-03 0.0 
0.0 0.0 0.0 
-4.816639517310e-06 8.717785210527e-05 0.0 
8.717785210527e-05 1.620127501097e-03 0.0 
0.0 0.0 0.0 
-5.338611812548e-06 9.516585539121e-05 0.0 
9.516585539121e-05 1.611858348132e-03 0.0 
0.0 0.0 0.0 
-5.110931863136e-06 1.042287152682e-04 0.0 
1.042287152682e-04 1.603804000610e-03 0.0 
0.0 0.0 0.0 
-4.896300234628e-06 1.127095485010e-04 0.0 
1.127095485010e-04 1.594261696139e-03 0.0 
0.0 0.0 0.0 
-4.299491838111e-06 1.212218471017e-04 0.0 
1.212218471017e-04 1.583361724750e-03 0.0 
0.0 0.0 0.0 
-3.827616759803e-06 1.295161988028e-04 0.0 
1.295161988028e-04 1.569599670252e-03 0.0 
0.0 0.0 0.0 
-4.030244879420e-06 1.366017474729e-04 0.0 
1.366017474729e-04 1.554387169539e-03 0.0 
0.0 0.0 0.0 
-3.265731660133e-06 1.432825410881e-04 0.0 
1.432825410881e-04 1.538220639714e-03 0.0 
0.0 0.0 0.0 
-2.740671132521e-06 1.487410269452e-04 0.0 
1.487410269452e-04 1.520762819582e-03 0.0 
0.0 0.0 0.0 
-2.213181825028e-06 1.531536967025e-04 0.0 
1.531536967025e-04 1.503006228841e-03 0.0 
0.0 0.0 0.0 
-1.289499840721e-06 1.564836718656e-04 0.0 
1.564836718656e-04 1.484865970099e-03 0.0 
0.0 0.0 0.0 
-5.618021445090e-07 1.580420527385e-04 0.0 
1.580420527385e-04 1.466018212572e-03 0.0 
0.0 0.0 0.0 
5.889321718448e-07 1.582123442529e-04 0.0 
1.582123442529e-04 1.446754233927e-03 0.0 
0.0 0.0 0.0 
1.012055805901e-06 1.567513423506e-04 0.0 
1.567513423506e-04 1.426894555054e-03 0.0 
0.0 0.0 0.0 
1.221779159325e-06 1.535821753983e-04 0.0 
1.535821753983e-04 1.410762588604e-03 0.0 
0.0 0.0 0.0 
2.841551803856e-06 1.508562962490e-04 0.0 
1.508562962490e-04 1.390862144592e-03 0.0 
0.0 0.0 0.0 
3.401203746793e-06 1.447990713292e-04 0.0 
1.447990713292e-04 1.370167291416e-03 0.0 
0.0 0.0 0.0 
3.893192996873e-06 1.376486330070e-04 0.0 
1.376486330070e-04 1.352678198255e-03 0.0 
0.0 0.0 0.0 
4.120752758204e-06 1.303169123808e-04 0.0 
1.303169123808e-04 1.338684047582e-03 0.0 
0.0 0.0 0.0 
4.794466736661e-06 1.226724243384e-04 0.0 
1.226724243384e-04 1.324684651453e-03 0.0 
0.0 0.0 0.0 
4.058685335965e-06 1.139452092667e-04 0.0 
1.139452092667e-04 1.311931151374e-03 0.0 
0.0 0.0 0.0 
5.374964173003e-06 1.055371097112e-04 0.0 
1.055371097112e-04 1.300761627506e-03 0.0 
0.0 0.0 0.0 
4.606982529613e-06 9.644186100196e-05 0.0 
9.644186100196e-05 1.289243095977e-03 0.0 
0.0 0.0 0.0 
5.706205605878e-06 8.743725902443e-05 0.0 
8.743725902443e-05 1.279039909455e-03 0.0 
0.0 0.0 0.0 
4.899248228440e-06 7.843591030282e-05 0.0 
7.843591030282e-05 1.269575103355e-03 0.0 
0.0 0.0 0.0 
4.162682076518e-06 6.973720721972e-05 0.0 
6.973720721972e-05 1.264067187443e-03 0.0 
0.0 0.0 0.0 
4.613376313486e-06 6.184085847035e-05 0.0 
6.184085847035e-05 1.261526387185e-03 0.0 
0.0 0.0 0.0 
5.198626323940e-06 5.336135764733e-05 0.0 
5.336135764733e-05 1.258033497062e-03 0.0 
0.0 0.0 0.0 
5.604307310669e-06 4.415616456638e-05 0.0 
4.415616456638e-05 1.243707893498e-03 0.0 
0.0 0.0 0.0 
4.958530518406e-06 3.633839548811e-05 0.0 
3.633839548811e-05 1.248428666521e-03 0.0 
0.0 0.0 0.0 
4.005837318151e-06 2.891447354588e-05 0.0 
2.891447354588e-05 1.242731981441e-03 0.0 
0.0 0.0 0.0 
3.546330727078e-06 2.114172755165e-05 0.0 
2.114172755165e-05 1.242325940296e-03 0.0 
0.0 0.0 0.0 
3.892688086612e-06 1.510558044834e-05 0.0 
1.510558044834e-05 1.243469810324e-03 0.0 
0.0 0.0 0.0 
3.754180096719e-06 8.222997287711e-06 0.0 
8.222997287711e-06 1.242376948723e-03 0.0 
0.0 0.0 0.0 
-3.885334785432e-05 -1.744749051917e-06 0.0 
-1.744749051917e-06 1.139087324839e-03 0.0 
0.0 0.0 0.0 
-3.815941688712e-05 -1.825879152746e-06 0.0 
-1.825879152746e-06 1.202660040007e-03 0.0 
0.0 0.0 0.0 
-3.593610794054e-05 -1.633635024506e-06 0.0 
-1.633635024506e-06 1.264699236138e-03 0.0 
0.0 0.0 0.0 
-3.308980123048e-05 -1.585666880007e-06 0.0 
-1.585666880007e-06 1.324978781636e-03 0.0 
0.0 0.0 0.0 
-2.952510438777e-05 -1.184012417899e-06 0.0 
-1.184012417899e-06 1.385942722204e-03 0.0 
0.0 0.0 0.0 
-2.461267847464e-05 -1.168932975288e-06 0.0 
-1.168932975288e-06 1.446275119010e-03 0.0 
0.0 0.0 0.0 
-1.971176580991e-05 -8.508681090007e-07 0.0 
-8.508681090007e-07 1.505631070925e-03 0.0 
0.0 0.0 0.0 
-1.372324658255e-05 -8.741684659418e-07 0.0 
-8.741684659418e-07 1.564038363329e-03 0.0 
0.0 0.0 0.0 
-7.634647872642e-06 -1.001051390618e-06 0.0 
-1.001051390618e-06 1.623291092388e-03 0.0 
0.0 0.0 0.0 
-7.881538604175e-05 4.946329720876e-05 0.0 
4.946329720876e-05 5.813226444447e-05 0.0 
0.0 0.0 0.0 
-6.768596012430e-05 1.317686719767e-05 0.0 
1.317686719767e-05 1.078857067765e-03 0.0 
0.0 0.0 0.0 
-8.054122443968e-05 1.184959801360e-04 0.0 
1.184959801360e-04 1.815628621506e-04 0.0 
0.0 0.0 0.0 
-7.060232354809e-05 1.333259689015e-04 0.0 
1.333259689015e-04 3.717412932423e-04 0.0 
0.0 0.0 0.0 
-5.121150857368e-05 9.173078625114e-05 0.0 
9.173078625114e-05 5.845421356571e-04 0.0 
0.0 0.0 0.0 
-3.851741071771e-05 4.213580797586e-05 0.0 
4.213580797586e-05 6.717318181616e-04 0.0 
0.0 0.0 0.0 
-5.000917944038e-05 3.224850255889e-05 0.0 
3.224850255889e-05 7.406204529678e-04 0.0 
0.0 0.0 0.0 
-5.814434416199e-05 2.423421952253e-05 0.0 
2.423421952253e-05 8.087944367557e-04 0.0 
0.0 0.0 0.0 
-6.402692893194e-05 1.833323220949e-05 0.0 
1.833323220949e-05 8.767152427207e-04 0.0 
0.0 0.0 0.0 
-6.718379391998e-05 1.449031464278e-05 0.0 
1.449031464278e-05 9.437850976135e-04 0.0 
0.0 0.0 0.0 
-6.792680681495e-05 1.301211276668e-05 0.0 
1.301211276668e-05 1.009950335647e-03 0.0 
0.0 0.0 0.0 
-4.627585498712e-05 -2.785593000988e-06 0.0 
-2.785593000988e-06 6.504268696205e-04 0.0 
0.0 0.0 0.0 
-4.041305853605e-05 -4.488235029118e-06 0.0 
-4.488235029118e-06 6.877672707551e-04 0.0 
0.0 0.0 0.0 
-3.834312684500e-05 -4.246690786695e-06 0.0 
-4.246690786695e-06 7.508596368350e-04 0.0 
0.0 0.0 0.0 
-3.836381337249e-05 -5.178758610008e-06 0.0 
-5.178758610008e-06 8.153401045789e-04 0.0 
0.0 0.0 0.0 
-3.898565162394e-05 -4.203174566169e-06 0.0 
-4.203174566169e-06 8.800769373226e-04 0.0 
0.0 0.0 0.0 
-3.948339038845e-05 -4.919880579102e-06 0.0 
-4.919880579102e-06 9.445898166455e-04 0.0 
0.0 0.0 0.0 
-3.965801005873e-05 -3.460449029879e-06 0.0 
-3.460449029879e-06 1.008496048116e-03 0.0 
0.0 0.0 0.0 
-3.992138287268e-05 1.114933838848e-06 0.0 
1.114933838848e-06 1.066475608639e-03 0.0 
0.0 0.0 0.0 
-3.995855999532e-05 -1.698114195711e-07 0.0 
-1.698114195711e-07 1.070505875456e-03 0.0 
0.0 0.0 0.0 
-4.087865766411e-05 -2.440949906433e-07 0.0 
-2.440949906433e-07 1.071120599913e-03 0.0 
0.0 0.0 0.0 
-4.167405743372e-05 -5.339390722422e-07 0.0 
-5.339390722422e-07 1.070675863108e-03 0.0 
0.0 0.0 0.0 
-4.235537147349e-05 4.792905969692e-08 0.0 
4.792905969692e-08 1.079582100533e-03 0.0 
0.0 0.0 0.0 
-4.383723867098e-05 -6.792299734244e-08 0.0 
-6.792299734244e-08 1.072624891275e-03 0.0 
0.0 0.0 0.0 
-4.507141875137e-05 -1.747707590515e-07 0.0 
-1.747707590515e-07 1.072331906171e-03 0.0 
0.0 0.0 0.0 
-4.676433129188e-05 5.374769722107e-07 0.0 
5.374769722107e-07 1.073470944211e-03 0.0 
0.0 0.0 0.0 
-4.938067640557e-05 8.675694577747e-07 0.0 
8.675694577747e-07 1.075581129755e-03 0.0 
0.0 0.0 0.0 
-5.182510851019e-05 1.819024542740e-06 0.0 
1.819024542740e-06 1.075746225010e-03 0.0 
0.0 0.0 0.0 
-5.401687959243e-05 2.825807798457e-06 0.0 
2.825807798457e-06 1.075704276657e-03 0.0 
0.0 0.0 0.0 
-5.695170771312e-05 4.249849266242e-06 0.0 
4.249849266242e-06 1.075717597146e-03 0.0 
0.0 0.0 0.0 
-5.976810938278e-05 6.673682178761e-06 0.0 
6.673682178761e-06 1.075732395015e-03 0.0 
0.0 0.0 0.0 
-6.307341439364e-05 9.700951882839e-06 0.0 
9.700951882839e-06 1.076451619594e-03 0.0 
0.0 0.0 0.0 
-9.111833942066e-05 1.456503737405e-05 0.0 
1.456503737405e-05 6.025977726424e-05 0.0 
0.0 0.0 0.0 
-1.019089724195e-04 8.315839397097e-07 0.0 
8.315839397097e-07 6.145728880454e-05 0.0 
0.0 0.0 0.0 
-1.004953266585e-04 -5.313660371764e-06 0.0 
-5.313660371764e-06 5.832336359076e-05 0.0 
0.0 0.0 0.0 
-9.176273084921e-05 -6.555658243524e-06 0.0 
-6.555658243524e-06 5.406868222583e-05 0.0 
0.0 0.0 0.0 
-8.076524499886e-05 -7.531110147668e-06 0.0 
-7.531110147668e-06 5.074258725165e-05 0.0 
0.0 0.0 0.0 
-7.227535114840e-05 -6.761554878234e-06 0.0 
-6.761554878234e-06 4.805224158096e-05 0.0 
0.0 0.0 0.0 
-6.336146968548e-05 -6.113288046273e-06 0.0 
-6.113288046273e-06 4.447900594188e-05 0.0 
0.0 0.0 0.0 
-5.443809671820e-05 -5.651616120945e-06 0.0 
-5.651616120945e-06 4.055925620124e-05 0.0 
0.0 0.0 0.0 
-4.619649306555e-05 -5.457115336837e-06 0.0 
-5.457115336837e-06 3.706360662270e-05 0.0 
0.0 0.0 0.0 
-3.842236985241e-05 -5.131511221415e-06 0.0 
-5.131511221415e-06 3.367931499917e-05 0.0 
0.0 0.0 0.0 
-3.098330048405e-05 -4.599356663211e-06 0.0 
-4.599356663211e-06 3.114563392496e-05 0.0 
0.0 0.0 0.0 
-2.726222638820e-05 -3.922954721111e-06 0.0 
-3.922954721111e-06 3.002559339745e-05 0.0 
0.0 0.0 0.0 
-2.037886452455e-05 -2.837753621604e-06 0.0 
-2.837753621604e-06 2.652525558370e-05 0.0 
0.0 0.0 0.0 
-1.351745967978e-05 -3.092569461969e-06 0.0 
-3.092569461969e-06 2.265691021708e-05 0.0 
0.0 0.0 0.0 
-9.257072365802e-06 -3.195209069543e-06 0.0 
-3.195209069543e-06 2.087916187728e-05 0.0 
0.0 0.0 0.0 
-7.114918992931e-06 -2.253472383609e-06 0.0 
-2.253472383609e-06 2.029349360141e-05 0.0 
0.0 0.0 0.0 
-4.843706778150e-06 -1.022735269981e-06 0.0 
-1.022735269981e-06 1.928671686876e-05 0.0 
0.0 0.0 0.0 
-1.625249023918e-06 3.687401252446e-07 0.0 
3.687401252446e-07 1.673889691004e-05 0.0 
0.0 0.0 0.0 
-6.347214149457e-07 9.639041415667e-07 0.0 
9.639041415667e-07 1.488459286988e-05 0.0 
0.0 0.0 0.0 
-8.085978969286e-06 2.176159826617e-05 0.0 
2.176159826617e-05 6.202537043487e-04 0.0 
0.0 0.0 0.0 
1.117856639135e-05 1.202220140875e-05 0.0 
1.202220140875e-05 6.281502609942e-04 0.0 
0.0 0.0 0.0 
1.887619986340e-05 5.431038420898e-06 0.0 
5.431038420898e-06 6.305849956769e-04 0.0 
0.0 0.0 0.0 
2.015349354038e-05 -5.585581341132e-07 0.0 
-5.585581341132e-07 6.305779548598e-04 0.0 
0.0 0.0 0.0 
1.980455559562e-05 -2.048134521490e-06 0.0 
-2.048134521490e-06 6.317562434082e-04 0.0 
0.0 0.0 0.0 
1.673586220511e-05 -3.189408652312e-06 0.0 
-3.189408652312e-06 6.327572234651e-04 0.0 
0.0 0.0 0.0 
1.268904444622e-05 -3.464579799613e-06 0.0 
-3.464579799613e-06 6.345832396068e-04 0.0 
0.0 0.0 0.0 
7.952987569504e-06 -3.590147408893e-06 0.0 
-3.590147408893e-06 6.364423328813e-04 0.0 
0.0 0.0 0.0 
3.075180986634e-06 -3.511731212408e-06 0.0 
-3.511731212408e-06 6.384384362865e-04 0.0 
0.0 0.0 0.0 
-1.800586162911e-06 -3.399669762828e-06 0.0 
-3.399669762828e-06 6.403953261960e-04 0.0 
0.0 0.0 0.0 
-6.479881889880e-06 -3.242034574542e-06 0.0 
-3.242034574542e-06 6.423056608421e-04 0.0 
0.0 0.0 0.0 
-1.088472544049e-05 -3.075248283056e-06 0.0 
-3.075248283056e-06 6.441094379462e-04 0.0 
0.0 0.0 0.0 
-1.494585925218e-05 -2.893395864319e-06 0.0 
-2.893395864319e-06 6.457925046840e-04 0.0 
0.0 0.0 0.0 
-1.863336360645e-05 -2.699802765326e-06 0.0 
-2.699802765326e-06 6.473329555462e-04 0.0 
0.0 0.0 0.0 
-2.193232540178e-05 -2.494547915678e-06 0.0 
-2.494547915678e-06 6.487157374973e-04 0.0 
0.0 0.0 0.0 
-2.484586350981e-05 -2.282564134635e-06 0.0 
-2.282564134635e-06 6.499297250107e-04 0.0 
0.0 0.0 0.0 
-2.738174587180e-05 -2.064417719232e-06 0.0 
-2.064417719232e-06 6.509724463071e-04 0.0 
0.0 0.0 0.0 
-2.954488394269e-05 -1.835521276052e-06 0.0 
-1.835521276052e-06 6.518447201424e-04 0.0 
0.0 0.0 0.0 
-3.133307922025e-05 -1.579902943345e-06 0.0 
-1.579902943345e-06 6.525503826285e-04 0.0 
0.0 0.0 0.0 
-3.273218536274e-05 -1.258452443829e-06 0.0 
-1.258452443829e-06 6.531012242125e-04 0.0 
0.0 0.0 0.0 
-3.371379013817e-05 -7.873116137378e-07 0.0 
-7.873116137378e-07 6.535286338739e-04 0.0 
0.0 0.0 0.0 
-3.423844086784e-05 -1.593796087696e-08 0.0 
-1.593796087696e-08 6.538861766418e-04 0.0 
0.0 0.0 0.0 
-3.435099486652e-05 1.208924920146e-06 0.0 
1.208924920146e-06 6.540685809961e-04 0.0 
0.0 0.0 0.0 
-3.665355777930e-05 2.383979834878e-06 0.0 
2.383979834878e-06 6.527869147512e-04 0.0 
0.0 0.0 0.0 
-4.189454018603e-05 4.655680669144e-06 0.0 
4.655680669144e-06 6.471285542240e-04 0.0 
0.0 0.0 0.0 
-3.936248338483e-05 2.545000100245e-06 0.0 
2.545000100245e-06 6.874159391016e-04 0.0 
0.0 0.0 0.0 
-3.681715307371e-05 9.346732492657e-07 0.0 
9.346732492657e-07 6.867242816131e-04 0.0 
0.0 0.0 0.0 
-3.589828517186e-05 -3.684944505103e-07 0.0 
-3.684944505103e-07 6.863525372000e-04 0.0 
0.0 0.0 0.0 
-3.516604698204e-05 -1.177504595601e-06 0.0 
-1.177504595601e-06 6.859334331384e-04 0.0 
0.0 0.0 0.0 
-3.437418978519e-05 -1.847192316658e-06 0.0 
-1.847192316658e-06 6.855500720689e-04 0.0 
0.0 0.0 0.0 
-3.339412444964e-05 -2.422602979977e-06 0.0 
-2.422602979977e-06 6.851295041135e-04 0.0 
0.0 0.0 0.0 
-3.216982833702e-05 -2.946548259592e-06 0.0 
-2.946548259592e-06 6.846155638679e-04 0.0 
0.0 0.0 0.0 
-3.068112106130e-05 -3.446000025276e-06 0.0 
-3.446000025276e-06 6.839821991589e-04 0.0 
0.0 0.0 0.0 
-2.892607709439e-05 -3.934524043054e-06 0.0 
-3.934524043054e-06 6.832223943444e-04 0.0 
0.0 0.0 0.0 
-2.690798256712e-05 -4.416031480937e-06 0.0 
-4.416031480937e-06 6.823360626682e-04 0.0 
0.0 0.0 0.0 
-2.463408062990e-05 -4.887267021733e-06 0.0 
-4.887267021733e-06 6.813279826788e-04 0.0 
0.0 0.0 0.0 
-2.211756725131e-05 -5.336176607515e-06 0.0 
-5.336176607515e-06 6.802081054424e-04 0.0 
0.0 0.0 0.0 
-1.939089222538e-05 -5.738530317322e-06 0.0 
-5.738530317322e-06 6.790024115258e-04 0.0 
0.0 0.0 0.0 
-1.651424639443e-05 -6.078169092073e-06 0.0 
-6.078169092073e-06 6.777382031506e-04 0.0 
0.0 0.0 0.0 
-1.356671917448e-05 -6.316527284130e-06 0.0 
-6.316527284130e-06 6.764503194675e-04 0.0 
0.0 0.0 0.0 
-1.066307706310e-05 -6.428517400637e-06 0.0 
-6.428517400637e-06 6.751543471675e-04 0.0 
0.0 0.0 0.0 
-7.960252334886e-06 -6.277855574008e-06 0.0 
-6.277855574008e-06 6.739390378956e-04 0.0 
0.0 0.0 0.0 
-5.735449008985e-06 -5.831490496829e-06 0.0 
-5.831490496829e-06 6.727934219036e-04 0.0 
0.0 0.0 0.0 
-4.257301729963e-06 -4.657433255757e-06 0.0 
-4.657433255757e-06 6.719381657383e-04 0.0 
0.0 0.0 0.0 
-4.210734648976e-06 -2.676407447250e-06 0.0 
-2.676407447250e-06 6.711459203617e-04 0.0 
0.0 0.0 0.0 
-5.608044579738e-06 1.601743913850e-06 0.0 
1.601743913850e-06 6.710594676716e-04 0.0 
0.0 0.0 0.0 
-1.249641065174e-05 9.244524828990e-06 0.0 
9.244524828990e-06 6.743765829975e-04 0.0 
0.0 0.0 0.0 
-1.490689107244e-05 1.725626605246e-05 0.0 
1.725626605246e-05 6.629240694997e-04 0.0 
0.0 0.0 0.0 
-3.667134903790e-05 1.602597571402e-05 0.0 
1.602597571402e-05 7.352526149998e-04 0.0 
0.0 0.0 0.0 
-3.511918739796e-05 8.501620763701e-06 0.0 
8.501620763701e-06 7.470385812044e-04 0.0 
0.0 0.0 0.0 
-3.016671935713e-05 1.070794173562e-06 0.0 
1.070794173562e-06 7.448268401463e-04 0.0 
0.0 0.0 0.0 
-2.801278170613e-05 -3.281214207519e-06 0.0 
-3.281214207519e-06 7.448791418240e-04 0.0 
0.0 0.0 0.0 
-2.661055588279e-05 -5.628999951219e-06 0.0 
-5.628999951219e-06 7.452831501371e-04 0.0 
0.0 0.0 0.0 
-2.621403320868e-05 -7.066479277165e-06 0.0 
-7.066479277165e-06 7.454718949761e-04 0.0 
0.0 0.0 0.0 
-2.638872935479e-05 -7.748262809432e-06 0.0 
-7.748262809432e-06 7.459046509967e-04 0.0 
0.0 0.0 0.0 
-2.702395681276e-05 -7.991798548115e-06 0.0 
-7.991798548115e-06 7.463487254260e-04 0.0 
0.0 0.0 0.0 
-2.793065144444e-05 -7.915761918353e-06 0.0 
-7.915761918353e-06 7.468913409741e-04 0.0 
0.0 0.0 0.0 
-2.902190249206e-05 -7.618897867313e-06 0.0 
-7.618897867313e-06 7.474723239794e-04 0.0 
0.0 0.0 0.0 
-3.016791435378e-05 -7.150520191629e-06 0.0 
-7.150520191629e-06 7.480605507638e-04 0.0 
0.0 0.0 0.0 
-3.129120885000e-05 -6.580556473665e-06 0.0 
-6.580556473665e-06 7.486041143310e-04 0.0 
0.0 0.0 0.0 
-3.235578756222e-05 -5.957179953525e-06 0.0 
-5.957179953525e-06 7.490975735107e-04 0.0 
0.0 0.0 0.0 
-3.333814561910e-05 -5.298683294757e-06 0.0 
-5.298683294757e-06 7.495354387750e-04 0.0 
0.0 0.0 0.0 
-3.421819062917e-05 -4.612977754022e-06 0.0 
-4.612977754022e-06 7.499121222816e-04 0.0 
0.0 0.0 0.0 
-3.498411999645e-05 -3.902835580932e-06 0.0 
-3.902835580932e-06 7.502292679585e-04 0.0 
0.0 0.0 0.0 
-3.564801770027e-05 -3.179697271252e-06 0.0 
-3.179697271252e-06 7.505066454615e-04 0.0 
0.0 0.0 0.0 
-3.625542780809e-05 -2.459301409522e-06 0.0 
-2.459301409522e-06 7.507905154486e-04 0.0 
0.0 0.0 0.0 
-3.687015294466e-05 -1.790600516548e-06 0.0 
-1.790600516548e-06 7.511216239597e-04 0.0 
0.0 0.0 0.0 
-3.754153529199e-05 -1.298493000466e-06 0.0 
-1.298493000466e-06 7.514524282901e-04 0.0 
0.0 0.0 0.0 
-3.820083874151e-05 -1.150956796990e-06 0.0 
-1.150956796990e-06 7.514980548434e-04 0.0 
0.0 0.0 0.0 
-3.837641739228e-05 1.889516432199e-06 0.0 
1.889516432199e-06 7.511234821290e-04 0.0 
0.0 0.0 0.0 
-3.854779677789e-05 7.372508705636e-07 0.0 
7.372508705636e-07 8.156283788698e-04 0.0 
0.0 0.0 0.0 
-3.855902575228e-05 -1.367847501041e-06 0.0 
-1.367847501041e-06 8.159238608259e-04 0.0 
0.0 0.0 0.0 
-3.834246526835e-05 -2.254181265153e-06 0.0 
-2.254181265153e-06 8.159564657046e-04 0.0 
0.0 0.0 0.0 
-3.808156329225e-05 -2.850060453556e-06 0.0 
-2.850060453556e-06 8.158644458141e-04 0.0 
0.0 0.0 0.0 
-3.784450249876e-05 -3.554844826685e-06 0.0 
-3.554844826685e-06 8.157615373312e-04 0.0 
0.0 0.0 0.0 
-3.765017565542e-05 -4.332213025427e-06 0.0 
-4.332213025427e-06 8.156852976232e-04 0.0 
0.0 0.0 0.0 
-3.747965983505e-05 -5.148870848571e-06 0.0 
-5.148870848571e-06 8.156174918696e-04 0.0 
0.0 0.0 0.0 
-3.730888077659e-05 -5.957212735280e-06 0.0 
-5.957212735280e-06 8.155243325579e-04 0.0 
0.0 0.0 0.0 
-3.714728513436e-05 -6.714951324662e-06 0.0 
-6.714951324662e-06 8.154155594563e-04 0.0 
0.0 0.0 0.0 
-3.704534543094e-05 -7.401493605001e-06 0.0 
-7.401493605001e-06 8.153095075567e-04 0.0 
0.0 0.0 0.0 
-3.701825919117e-05 -8.000850110691e-06 0.0 
-8.000850110691e-06 8.152003893654e-04 0.0 
0.0 0.0 0.0 
-3.708426171191e-05 -8.459597371451e-06 0.0 
-8.459597371451e-06 8.150685717098e-04 0.0 
0.0 0.0 0.0 
-3.728933671432e-05 -8.663075776370e-06 0.0 
-8.663075776370e-06 8.148950889617e-04 0.0 
0.0 0.0 0.0 
-3.775996422513e-05 -8.449275550583e-06 0.0 
-8.449275550583e-06 8.148084873827e-04 0.0 
0.0 0.0 0.0 
-3.866363959384e-05 -7.810396306894e-06 0.0 
-7.810396306894e-06 8.147671295507e-04 0.0 
0.0 0.0 0.0 
-4.003920511347e-05 -6.450391771144e-06 0.0 
-6.450391771144e-06 8.148731821331e-04 0.0 
0.0 0.0 0.0 
-4.204385487836e-05 -4.349275135530e-06 0.0 
-4.349275135530e-06 8.146640877800e-04 0.0 
0.0 0.0 0.0 
-4.431667245932e-05 -4.414272376096e-07 0.0 
-4.414272376096e-07 8.145501019204e-04 0.0 
0.0 0.0 0.0 
-4.858475159653e-05 5.654323212942e-06 0.0 
5.654323212942e-06 8.168326848627e-04 0.0 
0.0 0.0 0.0 
-4.965473025355e-05 1.167623173441e-05 0.0 
1.167623173441e-05 8.043091945773e-04 0.0 
0.0 0.0 0.0 
-5.716654737170e-05 9.184313323509e-06 0.0 
9.184313323509e-06 8.716156910883e-04 0.0 
0.0 0.0 0.0 
-5.649172769408e-05 4.504338355318e-06 0.0 
4.504338355318e-06 8.844950232620e-04 0.0 
0.0 0.0 0.0 
-5.287470190851e-05 -7.910748579584e-08 0.0 
-7.910748579584e-08 8.824545276030e-04 0.0 
0.0 0.0 0.0 
-5.035750894500e-05 -3.135767449308e-06 0.0 
-3.135767449308e-06 8.823379167747e-04 0.0 
0.0 0.0 0.0 
-4.788477350820e-05 -4.930458611558e-06 0.0 
-4.930458611558e-06 8.823454013682e-04 0.0 
0.0 0.0 0.0 
-4.606652336605e-05 -6.167142502457e-06 0.0 
-6.167142502457e-06 8.821375198950e-04 0.0 
0.0 0.0 0.0 
-4.461920112975e-05 -6.695719600272e-06 0.0 
-6.695719600272e-06 8.821363433018e-04 0.0 
0.0 0.0 0.0 
-4.340585819373e-05 -6.755887123252e-06 0.0 
-6.755887123252e-06 8.819862301376e-04 0.0 
0.0 0.0 0.0 
-4.240535708407e-05 -6.540275384779e-06 0.0 
-6.540275384779e-06 8.817801257427e-04 0.0 
0.0 0.0 0.0 
-4.156141633349e-05 -6.169968494511e-06 0.0 
-6.169968494511e-06 8.815519570813e-04 0.0 
0.0 0.0 0.0 
-4.092501899746e-05 -5.700465144582e-06 0.0 
-5.700465144582e-06 8.813933905551e-04 0.0 
0.0 0.0 0.0 
-4.045906987375e-05 -5.083469141635e-06 0.0 
-5.083469141635e-06 8.812698402091e-04 0.0 
0.0 0.0 0.0 
-4.002775429564e-05 -4.402423324173e-06 0.0 
-4.402423324173e-06 8.810945502041e-04 0.0 
0.0 0.0 0.0 
-3.971564611284e-05 -3.747925845755e-06 0.0 
-3.747925845755e-06 8.809307528261e-04 0.0 
0.0 0.0 0.0 
-3.950017996746e-05 -3.140307508211e-06 0.0 
-3.140307508211e-06 8.808095644943e-04 0.0 
0.0 0.0 0.0 
-3.937844286548e-05 -2.588797472048e-06 0.0 
-2.588797472048e-06 8.807012253180e-04 0.0 
0.0 0.0 0.0 
-3.927021018248e-05 -2.127090276652e-06 0.0 
-2.127090276652e-06 8.805566955594e-04 0.0 
0.0 0.0 0.0 
-3.917991699504e-05 -1.719891262750e-06 0.0 
-1.719891262750e-06 8.803694301072e-04 0.0 
0.0 0.0 0.0 
-3.905370108372e-05 1.709244983045e-06 0.0 
1.709244983045e-06 8.801771029638e-04 0.0 
0.0 0.0 0.0 
-3.972305349134e-05 9.227984010498e-07 0.0 
9.227984010498e-07 9.448926909785e-04 0.0 
0.0 0.0 0.0 
-3.980570764693e-05 -1.313319661992e-06 0.0 
-1.313319661992e-06 9.449661826193e-04 0.0 
0.0 0.0 0.0 
-4.010335703653e-05 -2.088454344353e-06 0.0 
-2.088454344353e-06 9.451768951347e-04 0.0 
0.0 0.0 0.0 
-4.054122053970e-05 -2.558134016336e-06 0.0 
-2.558134016336e-06 9.454784337507e-04 0.0 
0.0 0.0 0.0 
-4.099613917593e-05 -2.979859242029e-06 0.0 
-2.979859242029e-06 9.457277485670e-04 0.0 
0.0 0.0 0.0 
-4.169764968452e-05 -3.445732466741e-06 0.0 
-3.445732466741e-06 9.460823923455e-04 0.0 
0.0 0.0 0.0 
-4.252041399707e-05 -3.887138104255e-06 0.0 
-3.887138104255e-06 9.464774160330e-04 0.0 
0.0 0.0 0.0 
-4.354965964940e-05 -4.423379577196e-06 0.0 
-4.423379577196e-06 9.468354672092e-04 0.0 
0.0 0.0 0.0 
-4.463343816213e-05 -4.676684436950e-06 0.0 
-4.676684436950e-06 9.470572748887e-04 0.0 
0.0 0.0 0.0 
-4.610962783800e-05 -4.733612325039e-06 0.0 
-4.733612325039e-06 9.475309875550e-04 0.0 
0.0 0.0 0.0 
-4.779573088611e-05 -4.703935699767e-06 0.0 
-4.703935699767e-06 9.479797283545e-04 0.0 
0.0 0.0 0.0 
-4.966736491574e-05 -4.330943543768e-06 0.0 
-4.330943543768e-06 9.482802530808e-04 0.0 
0.0 0.0 0.0 
-5.190687345852e-05 -3.526122139673e-06 0.0 
-3.526122139673e-06 9.485456926083e-04 0.0 
0.0 0.0 0.0 
-5.433998242092e-05 -2.069331748066e-06 0.0 
-2.069331748066e-06 9.482981248086e-04 0.0 
0.0 0.0 0.0 
-5.690379565785e-05 7.296491406013e-07 0.0 
7.296491406013e-07 9.484872835854e-04 0.0 
0.0 0.0 0.0 
-6.055380335501e-05 4.262685565326e-06 0.0 
4.262685565326e-06 9.512104555418e-04 0.0 
0.0 0.0 0.0 
-6.143346466632e-05 7.643554210784e-06 0.0 
7.643554210784e-06 9.385921761329e-04 0.0 
0.0 0.0 0.0 
-6.268321838609e-05 8.110710910927e-06 0.0 
8.110710910927e-06 1.003978271572e-03 0.0 
0.0 0.0 0.0 
-6.198824047630e-05 5.368047433741e-06 0.0 
5.368047433741e-06 1.016289757530e-03 0.0 
0.0 0.0 0.0 
-5.869093205890e-05 2.552192531132e-06 0.0 
2.552192531132e-06 1.013946859064e-03 0.0 
0.0 0.0 0.0 
-5.553627003428e-05 7.278665633807e-07 0.0 
7.278665633807e-07 1.013657173328e-03 0.0 
0.0 0.0 0.0 
-5.298780545580e-05 -6.502166463117e-07 0.0 
-6.502166463117e-07 1.013493749494e-03 0.0 
0.0 0.0 0.0 
-5.067337466173e-05 -1.333067775930e-06 0.0 
-1.333067775930e-06 1.013150542926e-03 0.0 
0.0 0.0 0.0 
-4.858679675227e-05 -1.740679136881e-06 0.0 
-1.740679136881e-06 1.012459176176e-03 0.0 
0.0 0.0 0.0 
-4.678676390959e-05 -2.178099766302e-06 0.0 
-2.178099766302e-06 1.011985845213e-03 0.0 
0.0 0.0 0.0 
-4.499138172998e-05 -2.033968440000e-06 0.0 
-2.033968440000e-06 1.011626440684e-03 0.0 
0.0 0.0 0.0 
-4.378915871902e-05 -2.068214574507e-06 0.0 
-2.068214574507e-06 1.011020371901e-03 0.0 
0.0 0.0 0.0 
-4.262439400602e-05 -1.834218251045e-06 0.0 
-1.834218251045e-06 1.010532645427e-03 0.0 
0.0 0.0 0.0 
-4.171387838055e-05 -1.853698952080e-06 0.0 
-1.853698952080e-06 1.010060291230e-03 0.0 
0.0 0.0 0.0 
-4.109622836697e-05 -1.509563526381e-06 0.0 
-1.509563526381e-06 1.009823244423e-03 0.0 
0.0 0.0 0.0 
-4.041931703282e-05 -1.354047242916e-06 0.0 
-1.354047242916e-06 1.009265505770e-03 0.0 
0.0 0.0 0.0 
-4.010991785123e-05 -1.546227122477e-06 0.0 
-1.546227122477e-06 1.009455381475e-03 0.0 
0.0 0.0 0.0 
-4.035733568462e-05 2.207602330875e-06 0.0 
2.207602330875e-06 1.009737463771e-03 0.0 
0.0 0.0 0.0 
-7.950006534959e-05 9.194630932538e-05 0.0 
9.194630932538e-05 1.022761390746e-04 0.0 
0.0 0.0 0.0 
-7.746329413168e-05 1.308843150993e-04 0.0 
1.308843150993e-04 2.747480913532e-04 0.0 
0.0 0.0 0.0 
-6.502087858773e-05 1.286843699236e-04 0.0 
1.286843699236e-04 4.747998351095e-04 0.0 
0.0 0.0 0.0 
-4.412897422024e-05 5.599027693273e-05 0.0 
5.599027693273e-05 6.441130869790e-04 0.0 
0.0 0.0 0.0 
-4.712325131145e-05 3.976260100284e-05 0.0 
3.976260100284e-05 7.125756375354e-04 0.0 
0.0 0.0 0.0 
-5.523253750243e-05 3.004254965992e-05 0.0 
3.004254965992e-05 7.817707898492e-04 0.0 
0.0 0.0 0.0 
-6.275546021052e-05 2.245887738257e-05 0.0 
2.245887738257e-05 8.497212572747e-04 0.0 
0.0 0.0 0.0 
-6.639991647811e-05 1.754849014781e-05 0.0 
1.754849014781e-05 9.168465254279e-04 0.0 
0.0 0.0 0.0 
-6.797284326641e-05 1.482993769583e-05 0.0 
1.482993769583e-05 9.831561856580e-04 0.0 
0.0 0.0 0.0 
-6.714311686390e-05 1.423158748754e-05 0.0 
1.423158748754e-05 1.048938441091e-03 0.0 
0.0 0.0 0.0 
-4.792217841678e-05 1.275121871539e-04 0.0 
1.275121871539e-04 3.285910288743e-04 0.0 
0.0 0.0 0.0 
1.206865882308e-05 1.308066105977e-04 0.0 
1.308066105977e-04 1.314460258955e-03 0.0 
0.0 0.0 0.0 
-3.203602854340e-05 -9.037765128493e-06 0.0 
-9.037765128493e-06 5.161705303895e-05 0.0 
0.0 0.0 0.0 
-6.228927038761e-05 -9.281781940796e-06 0.0 
-9.281781940796e-06 6.287452968782e-05 0.0 
0.0 0.0 0.0 
1.477750490371e-05 9.058073659586e-05 0.0 
9.058073659586e-05 1.252686928592e-03 0.0 
0.0 0.0 0.0 
-6.360960396303e-05 8.878313971692e-05 0.0 
8.878313971692e-05 6.789655829968e-04 0.0 
0.0 0.0 0.0 
6.191331972248e-05 2.969799600298e-07 0.0 
2.969799600298e-07 6.173638978550e-04 0.0 
0.0 0.0 0.0 
4.899368836440e-06 1.519721779155e-04 0.0 
1.519721779155e-04 1.384596851328e-03 0.0 
0.0 0.0 0.0 
-7.109657456855e-05 4.329179799902e-05 0.0 
4.329179799902e-05 8.278399440087e-04 0.0 
0.0 0.0 0.0 
-4.640330392972e-06 1.519622961220e-04 0.0 
1.519622961220e-04 1.468060264479e-03 0.0 
0.0 0.0 0.0 
-7.485338670271e-05 2.562904909134e-05 0.0 
2.562904909134e-05 9.674913117418e-04 0.0 
0.0 0.0 0.0 
1.395322731453e-05 5.607795934896e-05 0.0 
5.607795934896e-05 1.229521997321e-03 0.0 
0.0 0.0 0.0 
-1.138664694768e-05 -5.194804892818e-06 0.0 
-5.194804892818e-06 4.089256781685e-05 0.0 
0.0 0.0 0.0 
-1.156555107965e-05 1.303845101701e-04 0.0 
1.303845101701e-04 1.539589276656e-03 0.0 
0.0 0.0 0.0 
-7.153437408147e-05 2.070987885644e-05 0.0 
2.070987885644e-05 1.101829439609e-03 0.0 
0.0 0.0 0.0 
4.405293537479e-05 -1.526403391140e-06 0.0 
-1.526403391140e-06 3.712014683965e-04 0.0 
0.0 0.0 0.0 
6.111628224729e-05 2.965150737433e-06 0.0 
2.965150737433e-06 7.953604000535e-04 0.0 
0.0 0.0 0.0 
-1.446108959482e-05 1.058703820964e-04 0.0 
1.058703820964e-04 1.575883072898e-03 0.0 
0.0 0.0 0.0 
-1.240234061411e-05 7.364941644064e-05 0.0 
7.364941644064e-05 1.610552253773e-03 0.0 
0.0 0.0 0.0 
-7.494989960000e-06 2.050370847694e-05 0.0 
2.050370847694e-05 1.633008574850e-03 0.0 
0.0 0.0 0.0 
-9.733659210737e-06 3.533899017701e-05 0.0 
3.533899017701e-05 1.624777983010e-03 0.0 
0.0 0.0 0.0 
-1.071713360296e-05 5.217200622897e-05 0.0 
5.217200622897e-05 1.624253817706e-03 0.0 
0.0 0.0 0.0 
-6.310911425716e-05 1.341350453548e-05 0.0 
1.341350453548e-05 1.133420707566e-03 0.0 
0.0 0.0 0.0 
-5.118609446368e-05 5.132185881736e-06 0.0 
5.132185881736e-06 1.133799905191e-03 0.0 
0.0 0.0 0.0 
-4.477493873354e-05 2.229260811264e-06 0.0 
2.229260811264e-06 1.136458292905e-03 0.0 
0.0 0.0 0.0 
-3.124116178072e-05 7.643009559235e-07 0.0 
7.643009559235e-07 1.355970098750e-03 0.0 
0.0 0.0 0.0 
1.284464322678e-05 3.243755961054e-05 0.0 
3.243755961054e-05 1.214564762461e-03 0.0 
0.0 0.0 0.0 
-6.556565437364e-05 1.046495954536e-05 0.0 
1.046495954536e-05 7.131427911703e-05 0.0 
0.0 0.0 0.0 
-1.548445982417e-06 -2.911199233301e-06 0.0 
-2.911199233301e-06 3.950784530763e-05 0.0 
0.0 0.0 0.0 
4.277008940782e-05 4.717826993878e-06 0.0 
4.717826993878e-06 1.012408775896e-03 0.0 
0.0 0.0 0.0 
-4.104231924764e-05 1.187823179156e-06 0.0 
1.187823179156e-06 1.127561504333e-03 0.0 
0.0 0.0 0.0 
1.971804439492e-05 -2.254784660850e-06 0.0 
-2.254784660850e-06 1.892964164533e-04 0.0 
0.0 0.0 0.0 
-1.586559124933e-05 8.792827745458e-05 0.0 
8.792827745458e-05 1.588037680331e-03 0.0 
0.0 0.0 0.0 
1.163539406120e-07 1.556814074127e-04 0.0 
1.556814074127e-04 1.431457880437e-03 0.0 
0.0 0.0 0.0 
-8.783104817593e-06 1.431945828530e-04 0.0 
1.431945828530e-04 1.506565040829e-03 0.0 
0.0 0.0 0.0 
9.374116725556e-06 1.443272749656e-04 0.0 
1.443272749656e-04 1.346162393255e-03 0.0 
0.0 0.0 0.0 
1.268676735278e-05 1.155127529741e-04 0.0 
1.155127529741e-04 1.288017744299e-03 0.0 
0.0 0.0 0.0 
-5.018411258303e-05 -1.013601957806e-05 0.0 
-1.013601957806e-05 6.095663490021e-05 0.0 
0.0 0.0 0.0 
-5.659762897875e-05 8.188646833856e-06 0.0 
8.188646833856e-06 1.132098055965e-03 0.0 
0.0 0.0 0.0 
1.639802676068e-05 7.162540022528e-05 0.0 
7.162540022528e-05 1.224866553812e-03 0.0 
0.0 0.0 0.0 
-2.296373053775e-05 1.653705027452e-06 0.0 
1.653705027452e-06 1.474818134702e-03 0.0 
0.0 0.0 0.0 
-2.060997443400e-05 -8.396081109993e-06 0.0 
-8.396081109993e-06 4.786327715663e-05 0.0 
0.0 0.0 0.0 
5.557164623800e-05 -9.433389417965e-07 0.0 
-9.433389417965e-07 4.891784278394e-04 0.0 
0.0 0.0 0.0 
-6.050692344051e-06 1.271214573477e-05 0.0 
1.271214573477e-05 1.642458417716e-03 0.0 
0.0 0.0 0.0 
-6.906186026480e-05 6.508598102284e-05 0.0 
6.508598102284e-05 7.619939649084e-04 0.0 
0.0 0.0 0.0 
-5.256424320042e-05 1.340012223002e-04 0.0 
1.340012223002e-04 5.287238288696e-04 0.0 
0.0 0.0 0.0 
-7.416572261384e-05 3.300400522009e-05 0.0 
3.300400522009e-05 8.989223681196e-04 0.0 
0.0 0.0 0.0 
-7.401508311413e-05 2.171429162487e-05 0.0 
2.171429162487e-05 1.034432859898e-03 0.0 
0.0 0.0 0.0 
-5.701277235063e-05 8.947251799359e-05 0.0 
8.947251799359e-05 1.505165371363e-04 0.0 
0.0 0.0 0.0 
-3.663674864179e-05 6.330522080212e-07 0.0 
6.330522080212e-07 1.238626092371e-03 0.0 
0.0 0.0 0.0 
9.893889867474e-06 1.782538841361e-05 0.0 
1.782538841361e-05 1.222914971019e-03 0.0 
0.0 0.0 0.0 
2.040609500598e-06 -2.102889712270e-07 0.0 
-2.102889712270e-07 3.527077410448e-05 0.0 
0.0 0.0 0.0 
-1.068736885882e-05 3.254318011695e-06 0.0 
3.254318011695e-06 1.590271054229e-03 0.0 
0.0 0.0 0.0 
-6.991873467461e-05 2.072015858913e-05 0.0 
2.072015858913e-05 1.132312345287e-03 0.0 
0.0 0.0 0.0 
-7.211026799771e-05 2.778278230528e-05 0.0 
2.778278230528e-05 1.155206054448e-03 0.0 
0.0 0.0 0.0 
-6.870186056791e-05 2.680757921734e-05 0.0 
2.680757921734e-05 1.186217607296e-03 0.0 
0.0 0.0 0.0 
-7.130920701476e-05 3.533342114265e-05 0.0 
3.533342114265e-05 1.211373549902e-03 0.0 
0.0 0.0 0.0 
-6.790205545726e-05 3.472771188569e-05 0.0 
3.472771188569e-05 1.245444280105e-03 0.0 
0.0 0.0 0.0 
-6.879556921106e-05 4.308855516059e-05 0.0 
4.308855516059e-05 1.266749483940e-03 0.0 
0.0 0.0 0.0 
-7.228840259181e-05 4.459711551395e-05 0.0 
4.459711551395e-05 1.232133241614e-03 0.0 
0.0 0.0 0.0 
-6.853057473003e-05 5.245136269804e-05 0.0 
5.245136269804e-05 1.286464028446e-03 0.0 
0.0 0.0 0.0 
-7.198153561801e-05 5.461311064844e-05 0.0 
5.461311064844e-05 1.250505106217e-03 0.0 
0.0 0.0 0.0 
-6.445133988888e-05 4.211690406863e-05 0.0 
4.211690406863e-05 1.301339966667e-03 0.0 
0.0 0.0 0.0 
-6.713108792864e-05 6.229308110939e-05 0.0 
6.229308110939e-05 1.304127857109e-03 0.0 
0.0 0.0 0.0 
-7.031427743418e-05 6.505917330784e-05 0.0 
6.505917330784e-05 1.266745597327e-03 0.0 
0.0 0.0 0.0 
-6.443622167929e-05 7.251691282323e-05 0.0 
7.251691282323e-05 1.319655201314e-03 0.0 
0.0 0.0 0.0 
-6.719979803488e-05 7.572569463108e-05 0.0 
7.572569463108e-05 1.280807671497e-03 0.0 
0.0 0.0 0.0 
-7.263274892300e-05 6.864652289885e-05 0.0 
6.864652289885e-05 1.228492933288e-03 0.0 
0.0 0.0 0.0 
-6.883934255127e-05 7.979134074795e-05 0.0 
7.979134074795e-05 1.240777744261e-03 0.0 
0.0 0.0 0.0 
-7.394307438778e-05 7.316329001734e-05 0.0 
7.316329001734e-05 1.188990794032e-03 0.0 
0.0 0.0 0.0 
-6.925143524489e-05 8.477802555648e-05 0.0 
8.477802555648e-05 1.199247032940e-03 0.0 
0.0 0.0 0.0 
-6.341708050095e-05 9.055422135362e-05 0.0 
9.055422135362e-05 1.250802727438e-03 0.0 
0.0 0.0 0.0 
-6.272084503650e-05 9.566240744416e-05 0.0 
9.566240744416e-05 1.207026675556e-03 0.0 
0.0 0.0 0.0 
-6.825313340342e-05 9.076275487197e-05 0.0 
9.076275487197e-05 1.155841720118e-03 0.0 
0.0 0.0 0.0 
-6.036212496472e-05 1.017306608693e-04 0.0 
1.017306608693e-04 1.161117889567e-03 0.0 
0.0 0.0 0.0 
-6.568574471320e-05 9.788107804016e-05 0.0 
9.788107804016e-05 1.110384303697e-03 0.0 
0.0 0.0 0.0 
-5.621052763148e-05 1.086094545352e-04 0.0 
1.086094545352e-04 1.112898813241e-03 0.0 
0.0 0.0 0.0 
-6.135836917681e-05 1.060076525444e-04 0.0 
1.060076525444e-04 1.062268703575e-03 0.0 
0.0 0.0 0.0 
-5.004351647879e-05 1.161335247009e-04 0.0 
1.161335247009e-04 1.061864042524e-03 0.0 
0.0 0.0 0.0 
-4.519980713304e-05 1.172611734934e-04 0.0 
1.172611734934e-04 1.113661541060e-03 0.0 
0.0 0.0 0.0 
-3.738584430043e-05 1.236714173046e-04 0.0 
1.236714173046e-04 1.059966290272e-03 0.0 
0.0 0.0 0.0 
-4.156143640259e-05 1.240331557052e-04 0.0 
1.240331557052e-04 1.007634321664e-03 0.0 
0.0 0.0 0.0 
-2.732271395656e-05 1.298171557122e-04 0.0 
1.298171557122e-04 1.003174289699e-03 0.0 
0.0 0.0 0.0 
-3.062406374375e-05 1.316389202360e-04 0.0 
1.316389202360e-04 9.497693026534e-04 0.0 
0.0 0.0 0.0 
-1.501841418178e-05 1.349958083763e-04 0.0 
1.349958083763e-04 9.429229691458e-04 0.0 
0.0 0.0 0.0 
-1.302648122873e-05 1.325808082116e-04 0.0 
1.325808082116e-04 9.989497453736e-04 0.0 
0.0 0.0 0.0 
-8.718471267155e-08 1.350292554707e-04 0.0 
1.350292554707e-04 9.375288222085e-04 0.0 
0.0 0.0 0.0 
-7.311676653206e-07 1.381465099524e-04 0.0 
1.381465099524e-04 8.790376647042e-04 0.0 
0.0 0.0 0.0 
1.420969180688e-05 1.351449553789e-04 0.0 
1.351449553789e-04 8.736868180657e-04 0.0 
0.0 0.0 0.0 
1.488016363342e-05 1.383535434076e-04 0.0 
1.383535434076e-04 8.123993233356e-04 0.0 
0.0 0.0 0.0 
2.920443178385e-05 1.323978458607e-04 0.0 
1.323978458607e-04 8.082346876075e-04 0.0 
0.0 0.0 0.0 
3.115302229621e-05 1.350280723564e-04 0.0 
1.350280723564e-04 7.438833033510e-04 0.0 
0.0 0.0 0.0 
4.403354349003e-05 1.261097910405e-04 0.0 
1.261097910405e-04 7.416666258894e-04 0.0 
0.0 0.0 0.0 
4.116425748631e-05 1.247551986999e-04 0.0 
1.247551986999e-04 8.075722778797e-04 0.0 
0.0 0.0 0.0 
5.432438978770e-05 1.163854128149e-04 0.0 
1.163854128149e-04 7.433788448728e-04 0.0 
0.0 0.0 0.0 
5.753493213049e-05 1.161541782854e-04 0.0 
1.161541782854e-04 6.754020643742e-04 0.0 
0.0 0.0 0.0 
6.577712590901e-05 1.050121910548e-04 0.0 
1.050121910548e-04 6.802218762174e-04 0.0 
0.0 0.0 0.0 
6.236343267441e-05 1.066455340322e-04 0.0 
1.066455340322e-04 7.488127964900e-04 0.0 
0.0 0.0 0.0 
7.187237810472e-05 9.457329424517e-05 0.0 
9.457329424517e-05 6.886679093973e-04 0.0 
0.0 0.0 0.0 
6.831976053371e-05 9.741959612421e-05 0.0 
9.741959612421e-05 7.575169516637e-04 0.0 
0.0 0.0 0.0 
7.612900979267e-05 8.511826902883e-05 0.0 
8.511826902883e-05 7.001919528969e-04 0.0 
0.0 0.0 0.0 
7.879329190967e-05 8.074418018865e-05 0.0 
8.074418018865e-05 6.315014447349e-04 0.0 
0.0 0.0 0.0 
8.149514559711e-05 7.162050477074e-05 0.0 
7.162050477074e-05 6.457613914735e-04 0.0 
0.0 0.0 0.0 
7.884662114828e-05 7.670508588877e-05 0.0 
7.670508588877e-05 7.141778247126e-04 0.0 
0.0 0.0 0.0 
8.294197330997e-05 6.367652595765e-05 0.0 
6.367652595765e-05 6.619884460974e-04 0.0 
0.0 0.0 0.0 
8.414999114596e-05 5.746208922026e-05 0.0 
5.746208922026e-05 5.945111974681e-04 0.0 
0.0 0.0 0.0 
8.466380200878e-05 5.056007305090e-05 0.0 
5.056007305090e-05 6.130152382364e-04 0.0 
0.0 0.0 0.0 
8.337687865238e-05 5.702139161818e-05 0.0 
5.702139161818e-05 6.801934862504e-04 0.0 
0.0 0.0 0.0 
8.438789622944e-05 4.480705834560e-05 0.0 
4.480705834560e-05 6.330474193683e-04 0.0 
0.0 0.0 0.0 
8.404236355242e-05 3.770661212602e-05 0.0 
3.770661212602e-05 5.671514764740e-04 0.0 
0.0 0.0 0.0 
8.339394524074e-05 3.312640347971e-05 0.0 
3.312640347971e-05 5.887251314160e-04 0.0 
0.0 0.0 0.0 
8.349703022118e-05 4.013753010990e-05 0.0 
4.013753010990e-05 6.546987368337e-04 0.0 
0.0 0.0 0.0 
8.229632443520e-05 2.940140083515e-05 0.0 
2.940140083515e-05 6.112754208942e-04 0.0 
0.0 0.0 0.0 
8.059394855320e-05 2.229078443352e-05 0.0 
2.229078443352e-05 5.467919913941e-04 0.0 
0.0 0.0 0.0 
7.956003210115e-05 1.971809456954e-05 0.0 
1.971809456954e-05 5.701509753839e-04 0.0 
0.0 0.0 0.0 
8.086031346644e-05 2.655467183020e-05 0.0 
2.655467183020e-05 6.349525943548e-04 0.0 
0.0 0.0 0.0 
7.827938442836e-05 1.776833395697e-05 0.0 
1.776833395697e-05 5.942511308767e-04 0.0 
0.0 0.0 0.0 
7.908816064287e-05 2.431362830346e-05 0.0 
2.431362830346e-05 6.593746446001e-04 0.0 
0.0 0.0 0.0 
7.548322262496e-05 1.112941118879e-05 0.0 
1.112941118879e-05 5.304751740550e-04 0.0 
0.0 0.0 0.0 
7.459355299011e-05 1.010266646828e-05 0.0 
1.010266646828e-05 5.551340236443e-04 0.0 
0.0 0.0 0.0 
7.035124910467e-05 3.934476079486e-06 0.0 
3.934476079486e-06 4.922603199392e-04 0.0 
0.0 0.0 0.0 
7.002440511468e-05 3.770673575206e-06 0.0 
3.770673575206e-06 5.175431012928e-04 0.0 
0.0 0.0 0.0 
5.102345378242e-07 1.327283989537e-04 0.0 
1.327283989537e-04 9.960702969877e-04 0.0 
0.0 0.0 0.0 
6.455814244877e-05 -1.720546438830e-06 0.0 
-1.720546438830e-06 4.556583851807e-04 0.0 
0.0 0.0 0.0 
6.406855328441e-05 -1.977930242294e-06 0.0 
-1.977930242294e-06 4.312098253948e-04 0.0 
0.0 0.0 0.0 
6.487025978778e-05 -1.181265876467e-06 0.0 
-1.181265876467e-06 4.812777434595e-04 0.0 
0.0 0.0 0.0 
6.951555019426e-05 3.914786912341e-06 0.0 
3.914786912341e-06 5.436301814639e-04 0.0 
0.0 0.0 0.0 
5.837122381395e-05 -5.933119341952e-06 0.0 
-5.933119341952e-06 4.201591507402e-04 0.0 
0.0 0.0 0.0 
5.936256462561e-05 -4.792152372367e-06 0.0 
-4.792152372367e-06 4.460053617573e-04 0.0 
0.0 0.0 0.0 
5.194511896900e-05 -8.636393671345e-06 0.0 
-8.636393671345e-06 3.856856992441e-04 0.0 
0.0 0.0 0.0 
1.572952595904e-05 1.422896439923e-04 0.0 
1.422896439923e-04 7.493379183697e-04 0.0 
0.0 0.0 0.0 
-5.651879816868e-05 1.005012347068e-04 0.0 
1.005012347068e-04 1.258831613706e-03 0.0 
0.0 0.0 0.0 
5.364215876465e-05 -7.043018228366e-06 0.0 
-7.043018228366e-06 4.115899150129e-04 0.0 
0.0 0.0 0.0 
4.557237243889e-05 -1.008367789557e-05 0.0 
-1.008367789557e-05 3.519171657807e-04 0.0 
0.0 0.0 0.0 
4.295855867305e-05 -1.178945547214e-05 0.0 
-1.178945547214e-05 3.263194702300e-04 0.0 
0.0 0.0 0.0 
3.634310062121e-05 -1.229167283357e-05 0.0 
-1.229167283357e-05 2.930443024515e-04 0.0 
0.0 0.0 0.0 
-6.364948785701e-05 3.398861073114e-05 0.0 
3.398861073114e-05 1.279035205663e-03 0.0 
0.0 0.0 0.0 
-5.966608067267e-05 4.151978974603e-05 0.0 
4.151978974603e-05 1.335792153869e-03 0.0 
0.0 0.0 0.0 
-5.926472935926e-05 3.339404613298e-05 0.0 
3.339404613298e-05 1.311297123832e-03 0.0 
0.0 0.0 0.0 
-5.468609737784e-05 4.072984468228e-05 0.0 
4.072984468228e-05 1.369730379500e-03 0.0 
0.0 0.0 0.0 
-5.456558261469e-05 3.312346476301e-05 0.0 
3.312346476301e-05 1.345801769727e-03 0.0 
0.0 0.0 0.0 
3.954594710609e-05 -1.044898390685e-05 0.0 
-1.044898390685e-05 3.184407289137e-04 0.0 
0.0 0.0 0.0 
-6.056805234909e-05 7.009452908198e-05 0.0 
7.009452908198e-05 1.357829063872e-03 0.0 
0.0 0.0 0.0 
-5.404441332313e-05 4.889746378011e-05 0.0 
4.889746378011e-05 1.392078005467e-03 0.0 
0.0 0.0 0.0 
-7.307820183206e-05 8.542200769536e-05 0.0 
8.542200769536e-05 1.105471037671e-03 0.0 
0.0 0.0 0.0 
-4.586839373153e-05 1.245383898181e-04 0.0 
1.245383898181e-04 9.565688323931e-04 0.0 
0.0 0.0 0.0 
5.847314129766e-05 1.079927592596e-04 0.0 
1.079927592596e-04 8.170516380480e-04 0.0 
0.0 0.0 0.0 
6.016401522428e-05 -3.596441651468e-06 0.0 
-3.596441651468e-06 4.721644706320e-04 0.0 
0.0 0.0 0.0 
5.511201410876e-05 -5.371476331665e-06 0.0 
-5.371476331665e-06 4.377915477602e-04 0.0 
0.0 0.0 0.0 
6.066441219973e-05 -2.462391775192e-06 0.0 
-2.462391775192e-06 4.987263431732e-04 0.0 
0.0 0.0 0.0 
8.024793544562e-05 3.324978291465e-05 0.0 
3.324978291465e-05 7.012311167381e-04 0.0 
0.0 0.0 0.0 
7.797356304658e-05 3.072417442072e-05 0.0 
3.072417442072e-05 7.257235502833e-04 0.0 
0.0 0.0 0.0 
7.778069732119e-05 3.977565950709e-05 0.0 
3.977565950709e-05 7.686316258934e-04 0.0 
0.0 0.0 0.0 
7.499030460301e-05 3.695408919752e-05 0.0 
3.695408919752e-05 7.931190238593e-04 0.0 
0.0 0.0 0.0 
7.350237744693e-05 4.608095824931e-05 0.0 
4.608095824931e-05 8.369781171314e-04 0.0 
0.0 0.0 0.0 
7.018533448618e-05 4.299561988292e-05 0.0 
4.299561988292e-05 8.615288712676e-04 0.0 
0.0 0.0 0.0 
7.182735684223e-05 3.437973199586e-05 0.0 
3.437973199586e-05 8.183690475264e-04 0.0 
0.0 0.0 0.0 
6.642992858256e-05 4.002550349709e-05 0.0 
4.002550349709e-05 8.869170712040e-04 0.0 
0.0 0.0 0.0 
6.834863486567e-05 3.193576080765e-05 0.0 
3.193576080765e-05 8.443107086031e-04 0.0 
0.0 0.0 0.0 
6.747768338637e-05 5.220177966653e-05 0.0 
5.220177966653e-05 9.062116805285e-04 0.0 
0.0 0.0 0.0 
7.081923801873e-05 5.571348677456e-05 0.0 
5.571348677456e-05 8.824277452396e-04 0.0 
0.0 0.0 0.0 
6.234560867361e-05 3.710937595239e-05 0.0 
3.710937595239e-05 9.130199345205e-04 0.0 
0.0 0.0 0.0 
6.461208342612e-05 2.953147853381e-05 0.0 
2.953147853381e-05 8.709114074374e-04 0.0 
0.0 0.0 0.0 
5.801040177996e-05 3.419898338485e-05 0.0 
3.419898338485e-05 9.398818712191e-04 0.0 
0.0 0.0 0.0 
6.068325825814e-05 2.698894027880e-05 0.0 
2.698894027880e-05 8.981179240954e-04 0.0 
0.0 0.0 0.0 
6.602824275907e-05 2.270089551390e-05 0.0 
2.270089551390e-05 8.299040685328e-04 0.0 
0.0 0.0 0.0 
6.260582582466e-05 2.058549770029e-05 0.0 
2.058549770029e-05 8.573006057446e-04 0.0 
0.0 0.0 0.0 
6.667408872289e-05 1.670153933089e-05 0.0 
1.670153933089e-05 7.902232494064e-04 0.0 
0.0 0.0 0.0 
6.412175543280e-05 9.996413129585e-05 0.0 
9.996413129585e-05 8.261209120081e-04 0.0 
0.0 0.0 0.0 
5.421054694073e-05 1.094612238864e-04 0.0 
1.094612238864e-04 8.850036141338e-04 0.0 
0.0 0.0 0.0 
5.940215187713e-05 1.025610569744e-04 0.0 
1.025610569744e-04 8.944307732587e-04 0.0 
0.0 0.0 0.0 
4.958959449615e-05 1.112707264783e-04 0.0 
1.112707264783e-04 9.525922112180e-04 0.0 
0.0 0.0 0.0 
5.412149404690e-05 1.054479874424e-04 0.0 
1.054479874424e-04 9.625871399374e-04 0.0 
0.0 0.0 0.0 
4.452191139874e-05 1.136716588705e-04 0.0 
1.136716588705e-04 1.019974082535e-03 0.0 
0.0 0.0 0.0 
4.815965199112e-05 1.088881794487e-04 0.0 
1.088881794487e-04 1.030574658138e-03 0.0 
0.0 0.0 0.0 
5.691079544357e-05 9.991922069629e-05 0.0 
9.991922069629e-05 9.749075952432e-04 0.0 
0.0 0.0 0.0 
-6.051280991208e-05 8.286267553823e-05 0.0 
8.286267553823e-05 1.332856877804e-03 0.0 
0.0 0.0 0.0 
6.860481810792e-05 1.027197345637e-04 0.0 
1.027197345637e-04 6.110940267644e-04 0.0 
0.0 0.0 0.0 
6.034231081165e-05 1.152430068310e-04 0.0 
1.152430068310e-04 6.065637431187e-04 0.0 
0.0 0.0 0.0 
7.046560329220e-05 9.930455810958e-05 0.0 
9.930455810958e-05 5.413620810697e-04 0.0 
0.0 0.0 0.0 
6.234182746045e-05 1.131202725794e-04 0.0 
1.131202725794e-04 5.369254919440e-04 0.0 
0.0 0.0 0.0 
7.069108086910e-05 9.421239383298e-05 0.0 
9.421239383298e-05 4.711908121894e-04 0.0 
0.0 0.0 0.0 
6.273460146126e-05 1.091079909216e-04 0.0 
1.091079909216e-04 4.667932468433e-04 0.0 
0.0 0.0 0.0 
6.801774931216e-05 8.696638948106e-05 0.0 
8.696638948106e-05 4.010257672826e-04 0.0 
0.0 0.0 0.0 
7.364001691986e-05 7.300026656027e-05 0.0 
7.300026656027e-05 4.109154857836e-04 0.0 
0.0 0.0 0.0 
6.683358907407e-05 6.338783584571e-05 0.0 
6.338783584571e-05 3.420714490699e-04 0.0 
0.0 0.0 0.0 
7.109942167183e-05 5.123918009844e-05 0.0 
5.123918009844e-05 3.569666164531e-04 0.0 
0.0 0.0 0.0 
5.968557157265e-05 4.028411986177e-05 0.0 
4.028411986177e-05 2.905330737536e-04 0.0 
0.0 0.0 0.0 
6.356692696448e-05 3.076508580081e-05 0.0 
3.076508580081e-05 3.092443730508e-04 0.0 
0.0 0.0 0.0 
-3.329980974813e-05 1.237699996328e-04 0.0 
1.237699996328e-04 1.113352967094e-03 0.0 
0.0 0.0 0.0 
3.911898432285e-05 1.185607409507e-04 0.0 
1.185607409507e-04 1.011473401306e-03 0.0 
0.0 0.0 0.0 
3.459337595191e-05 1.208570202469e-04 0.0 
1.208570202469e-04 1.077962904006e-03 0.0 
0.0 0.0 0.0 
2.861210637217e-05 1.244669559014e-04 0.0 
1.244669559014e-04 1.070036958594e-03 0.0 
0.0 0.0 0.0 
3.262091855101e-05 -1.403033527013e-05 0.0 
-1.403033527013e-05 2.677803270250e-04 0.0 
0.0 0.0 0.0 
5.665366705158e-05 2.421220203427e-05 0.0 
2.421220203427e-05 9.258973437004e-04 0.0 
0.0 0.0 0.0 
6.363492086459e-05 6.178434030740e-05 0.0 
6.178434030740e-05 9.524848725435e-04 0.0 
0.0 0.0 0.0 
6.687925829133e-05 6.559727463112e-05 0.0 
6.559727463112e-05 9.293156598342e-04 0.0 
0.0 0.0 0.0 
5.004597040740e-05 1.043909113167e-04 0.0 
1.043909113167e-04 1.043776225378e-03 0.0 
0.0 0.0 0.0 
3.029415326383e-05 -1.169470629440e-05 0.0 
-1.169470629440e-05 2.604796204310e-04 0.0 
0.0 0.0 0.0 
5.997236303286e-05 1.025610008902e-04 0.0 
1.025610008902e-04 3.969355689903e-04 0.0 
0.0 0.0 0.0 
5.166565101740e-05 1.247263072415e-04 0.0 
1.247263072415e-04 4.686620525783e-04 0.0 
0.0 0.0 0.0 
-4.922092301999e-05 3.983084436556e-05 0.0 
3.983084436556e-05 1.403187629170e-03 0.0 
0.0 0.0 0.0 
-4.940918202776e-05 3.276685165585e-05 0.0 
3.276685165585e-05 1.378927949484e-03 0.0 
0.0 0.0 0.0 
5.863839835914e-05 7.167080733110e-05 0.0 
7.167080733110e-05 1.000331099984e-03 0.0 
0.0 0.0 0.0 
3.391038780720e-05 -9.748355178565e-06 0.0 
-9.748355178565e-06 2.855536215249e-04 0.0 
0.0 0.0 0.0 
5.912925335975e-05 4.541876751619e-05 0.0 
4.541876751619e-05 9.565202282722e-04 0.0 
0.0 0.0 0.0 
5.438052834694e-05 5.198384459869e-05 0.0 
5.198384459869e-05 2.753228329562e-04 0.0 
0.0 0.0 0.0 
5.914732652446e-05 1.828388301633e-05 0.0 
1.828388301633e-05 8.851901988321e-04 0.0 
0.0 0.0 0.0 
5.250172659924e-05 2.120325348544e-05 0.0 
2.120325348544e-05 9.541111067440e-04 0.0 
0.0 0.0 0.0 
7.246491847412e-05 2.655232627468e-05 0.0 
2.655232627468e-05 7.767907746108e-04 0.0 
0.0 0.0 0.0 
2.493105318735e-05 1.269666617434e-04 0.0 
1.269666617434e-04 1.135770278561e-03 0.0 
0.0 0.0 0.0 
1.860847202188e-05 1.289174145018e-04 0.0 
1.289174145018e-04 1.127791347877e-03 0.0 
0.0 0.0 0.0 
7.356831054151e-05 4.126028122381e-05 0.0 
4.126028122381e-05 3.752600941569e-04 0.0 
0.0 0.0 0.0 
6.569232290543e-05 2.324301057610e-05 0.0 
2.324301057610e-05 3.304107801126e-04 0.0 
0.0 0.0 0.0 
5.215988567098e-05 1.321867348590e-05 0.0 
1.321867348590e-05 2.689583602438e-04 0.0 
0.0 0.0 0.0 
5.479532759993e-05 8.559818154453e-06 0.0 
8.559818154453e-06 2.920079543000e-04 0.0 
0.0 0.0 0.0 
6.762320026684e-05 1.768669637892e-05 0.0 
1.768669637892e-05 3.526001141229e-04 0.0 
0.0 0.0 0.0 
5.773175240076e-05 4.578979102670e-06 0.0 
4.578979102670e-06 3.132748479202e-04 0.0 
0.0 0.0 0.0 
4.316720407442e-05 -3.483221922505e-06 0.0 
-3.483221922505e-06 2.539451311487e-04 0.0 
0.0 0.0 0.0 
4.637332799939e-05 -5.555157298143e-06 0.0 
-5.555157298143e-06 2.769138586515e-04 0.0 
0.0 0.0 0.0 
5.984572237072e-05 1.838483243529e-06 0.0 
1.838483243529e-06 3.366993989786e-04 0.0 
0.0 0.0 0.0 
4.948802990423e-05 -6.949922290495e-06 0.0 
-6.949922290495e-06 3.007013530854e-04 0.0 
0.0 0.0 0.0 
3.433247801765e-05 -1.280248736178e-05 0.0 
-1.280248736178e-05 2.423869917959e-04 0.0 
0.0 0.0 0.0 
3.870675045122e-05 -1.290634011243e-05 0.0 
-1.290634011243e-05 2.662496975398e-04 0.0 
0.0 0.0 0.0 
4.874291162682e-05 2.757647540072e-05 0.0 
2.757647540072e-05 9.955474022141e-04 0.0 
0.0 0.0 0.0 
4.212343855166e-05 2.818126511906e-05 0.0 
2.818126511906e-05 2.272748419777e-04 0.0 
0.0 0.0 0.0 
-7.675080595421e-05 6.125411951224e-05 0.0 
6.125411951224e-05 1.176142039423e-03 0.0 
0.0 0.0 0.0 
5.474603440662e-05 6.781746753486e-05 0.0 
6.781746753486e-05 1.023226524750e-03 0.0 
0.0 0.0 0.0 
4.127422127235e-05 1.132409927884e-04 0.0 
1.132409927884e-04 1.098217557141e-03 0.0 
0.0 0.0 0.0 
-4.343175678647e-05 3.890375481997e-05 0.0 
3.890375481997e-05 1.436420066806e-03 0.0 
0.0 0.0 0.0 
-4.405276598768e-05 3.226210176470e-05 0.0 
3.226210176470e-05 1.411921586553e-03 0.0 
0.0 0.0 0.0 
-4.904391470743e-05 2.659597119759e-05 0.0 
2.659597119759e-05 1.353279879183e-03 0.0 
0.0 0.0 0.0 
-4.422965791140e-05 2.634537484747e-05 0.0 
2.634537484747e-05 1.386447582622e-03 0.0 
0.0 0.0 0.0 
-3.854583964615e-05 3.145151391541e-05 0.0 
3.145151391541e-05 1.444858171231e-03 0.0 
0.0 0.0 0.0 
-3.921522575231e-05 2.580100027568e-05 0.0 
2.580100027568e-05 1.419332638669e-03 0.0 
0.0 0.0 0.0 
-4.406353243876e-05 2.105369733224e-05 0.0 
2.105369733224e-05 1.360098054538e-03 0.0 
0.0 0.0 0.0 
-3.946089165890e-05 2.075105656727e-05 0.0 
2.075105656727e-05 1.392934100422e-03 0.0 
0.0 0.0 0.0 
-4.349908495047e-05 1.641863960388e-05 0.0 
1.641863960388e-05 1.332925563676e-03 0.0 
0.0 0.0 0.0 
-3.943463537644e-05 1.635379523889e-05 0.0 
1.635379523889e-05 1.365896807187e-03 0.0 
0.0 0.0 0.0 
-3.476528173515e-05 2.014909004577e-05 0.0 
2.014909004577e-05 1.425664643518e-03 0.0 
0.0 0.0 0.0 
-3.526860139739e-05 1.586993261262e-05 0.0 
1.586993261262e-05 1.398804234492e-03 0.0 
0.0 0.0 0.0 
-3.935393365549e-05 1.259238013591e-05 0.0 
1.259238013591e-05 1.338469568927e-03 0.0 
0.0 0.0 0.0 
-3.563672696305e-05 1.213895711431e-05 0.0 
1.213895711431e-05 1.371475708035e-03 0.0 
0.0 0.0 0.0 
-3.920563083326e-05 9.325451468373e-06 0.0 
9.325451468373e-06 1.310555235948e-03 0.0 
0.0 0.0 0.0 
-3.580233631917e-05 8.895066910936e-06 0.0 
8.895066910936e-06 1.343448635210e-03 0.0 
0.0 0.0 0.0 
-3.181617400170e-05 1.152873206050e-05 0.0 
1.152873206050e-05 1.404414763816e-03 0.0 
0.0 0.0 0.0 
2.507408953845e-05 -1.018039442908e-05 0.0 
-1.018039442908e-05 2.293118047127e-04 0.0 
0.0 0.0 0.0 
5.798724760756e-05 9.490773767638e-05 0.0 
9.490773767638e-05 9.894947839053e-04 0.0 
0.0 0.0 0.0 
4.998561835060e-05 1.003343844175e-04 0.0 
1.003343844175e-04 1.059813779207e-03 0.0 
0.0 0.0 0.0 
5.615702108108e-05 -4.248474811037e-06 0.0 
-4.248474811037e-06 4.660164336689e-04 0.0 
0.0 0.0 0.0 
6.131508098628e-05 -1.656396114129e-06 0.0 
-1.656396114129e-06 5.247855283986e-04 0.0 
0.0 0.0 0.0 
6.470460553047e-05 1.243296096245e-06 0.0 
1.243296096245e-06 5.605841171058e-04 0.0 
0.0 0.0 0.0 
6.463597006479e-05 1.773736607335e-06 0.0 
1.773736607335e-06 5.879873422151e-04 0.0 
0.0 0.0 0.0 
-3.253128168930e-05 8.324127312086e-06 0.0 
8.324127312086e-06 1.376241288065e-03 0.0 
0.0 0.0 0.0 
-2.821519225824e-05 1.063338011559e-05 0.0 
1.063338011559e-05 1.437355675871e-03 0.0 
0.0 0.0 0.0 
4.859599749478e-05 1.191357053080e-04 0.0 
1.191357053080e-04 4.001899330886e-04 0.0 
0.0 0.0 0.0 
3.669022354535e-05 1.398072254551e-04 0.0 
1.398072254551e-04 4.786641133911e-04 0.0 
0.0 0.0 0.0 
-4.218000685593e-05 4.624065141990e-05 0.0 
4.624065141990e-05 1.459687295565e-03 0.0 
0.0 0.0 0.0 
5.550630622671e-05 1.555810953341e-05 0.0 
1.555810953341e-05 9.138984811949e-04 0.0 
0.0 0.0 0.0 
6.089925817913e-05 1.316061881563e-05 0.0 
1.316061881563e-05 8.457907583330e-04 0.0 
0.0 0.0 0.0 
-3.416602956317e-05 1.337084201975e-04 0.0 
1.337084201975e-04 8.975923558247e-04 0.0 
0.0 0.0 0.0 
-5.032779146978e-05 1.247411995406e-04 0.0 
1.247411995406e-04 9.068708003552e-04 0.0 
0.0 0.0 0.0 
-3.798275282265e-05 1.356699268662e-04 0.0 
1.356699268662e-04 8.464782318381e-04 0.0 
0.0 0.0 0.0 
-5.494218985134e-05 1.240785393911e-04 0.0 
1.240785393911e-04 8.579245319774e-04 0.0 
0.0 0.0 0.0 
-6.417598846000e-05 1.113791518041e-04 0.0 
1.113791518041e-04 9.140224975365e-04 0.0 
0.0 0.0 0.0 
-4.234219443949e-05 1.372362543974e-04 0.0 
1.372362543974e-04 7.957227397819e-04 0.0 
0.0 0.0 0.0 
7.355305226427e-05 5.949618462728e-05 0.0 
5.949618462728e-05 8.590393617959e-04 0.0 
0.0 0.0 0.0 
-3.006878351332e-05 1.914568180853e-05 0.0 
1.914568180853e-05 1.458361719448e-03 0.0 
0.0 0.0 0.0 
3.986899036024e-05 -1.326274101408e-05 0.0 
-1.326274101408e-05 3.011923042204e-04 0.0 
0.0 0.0 0.0 
2.839760408790e-05 -1.534886949257e-05 0.0 
-1.534886949257e-05 2.431555276971e-04 0.0 
0.0 0.0 0.0 
4.802460945774e-05 1.788109778538e-05 0.0 
1.788109778538e-05 9.833455533925e-04 0.0 
0.0 0.0 0.0 
6.473418634634e-05 9.016038939767e-05 0.0 
9.016038939767e-05 9.201682990566e-04 0.0 
0.0 0.0 0.0 
-4.033770185685e-05 1.187310702136e-04 0.0 
1.187310702136e-04 1.166568808643e-03 0.0 
0.0 0.0 0.0 
-2.923372683071e-05 1.245730311676e-04 0.0 
1.245730311676e-04 1.167738272607e-03 0.0 
0.0 0.0 0.0 
-3.538744427556e-05 1.208423775614e-04 0.0 
1.208423775614e-04 1.220507536783e-03 0.0 
0.0 0.0 0.0 
-2.511628394771e-05 1.263484122247e-04 0.0 
1.263484122247e-04 1.222973080585e-03 0.0 
0.0 0.0 0.0 
-3.025414602594e-05 1.238255876480e-04 0.0 
1.238255876480e-04 1.275298541540e-03 0.0 
0.0 0.0 0.0 
-2.096633761558e-05 1.292513144971e-04 0.0 
1.292513144971e-04 1.278818500790e-03 0.0 
0.0 0.0 0.0 
-1.518061129363e-05 1.304095452571e-04 0.0 
1.304095452571e-04 1.225702824175e-03 0.0 
0.0 0.0 0.0 
1.621698144457e-05 1.321724512525e-04 0.0 
1.321724512525e-04 1.192673957199e-03 0.0 
0.0 0.0 0.0 
-1.229853384516e-05 1.335516580623e-04 0.0 
1.335516580623e-04 1.283108107560e-03 0.0 
0.0 0.0 0.0 
-3.580151707836e-05 6.677216267238e-06 0.0 
6.677216267238e-06 1.314115259845e-03 0.0 
0.0 0.0 0.0 
3.208714224749e-05 1.233156855212e-04 0.0 
1.233156855212e-04 1.004268521990e-03 0.0 
0.0 0.0 0.0 
6.152925925318e-05 -4.568551363961e-09 0.0 
-4.568551363961e-09 3.609365143079e-04 0.0 
0.0 0.0 0.0 
2.068762898414e-05 -1.226026677016e-05 0.0 
-1.226026677016e-05 2.037322280449e-04 0.0 
0.0 0.0 0.0 
2.206575556692e-05 -1.653006164864e-05 0.0 
-1.653006164864e-05 2.078469464415e-04 0.0 
0.0 0.0 0.0 
2.881235925944e-05 -8.177617748739e-06 0.0 
-8.177617748739e-06 2.520226973953e-04 0.0 
0.0 0.0 0.0 
3.717904060374e-05 -7.446601787200e-06 0.0 
-7.446601787200e-06 3.108743052392e-04 0.0 
0.0 0.0 0.0 
4.875026740644e-05 7.793188945151e-05 0.0 
7.793188945151e-05 1.071723180601e-03 0.0 
0.0 0.0 0.0 
-2.496945883211e-05 1.279331019908e-04 0.0 
1.279331019908e-04 1.330712308470e-03 0.0 
0.0 0.0 0.0 
-3.344759582709e-05 1.213215339615e-04 0.0 
1.213215339615e-04 1.325140182815e-03 0.0 
0.0 0.0 0.0 
-6.798807487694e-05 1.073582566444e-04 0.0 
1.073582566444e-04 8.670752727243e-04 0.0 
0.0 0.0 0.0 
-7.418420221060e-05 9.350555113918e-05 0.0 
9.350555113918e-05 9.177847147748e-04 0.0 
0.0 0.0 0.0 
2.110176935962e-05 1.309004698511e-04 0.0 
1.309004698511e-04 1.201052525490e-03 0.0 
0.0 0.0 0.0 
-5.775442624315e-05 2.671885250223e-05 0.0 
2.671885250223e-05 1.287063951059e-03 0.0 
0.0 0.0 0.0 
-4.745405740947e-05 1.622488930769e-05 0.0 
1.622488930769e-05 1.300004387466e-03 0.0 
0.0 0.0 0.0 
-4.612181907162e-05 1.218863790388e-05 0.0 
1.218863790388e-05 1.271823939588e-03 0.0 
0.0 0.0 0.0 
1.980586981211e-05 -8.818779851129e-06 0.0 
-8.818779851129e-06 1.890794909930e-04 0.0 
0.0 0.0 0.0 
1.657877106002e-05 -1.631179313461e-05 0.0 
-1.631179313461e-05 1.870048521736e-04 0.0 
0.0 0.0 0.0 
-3.296033862606e-05 3.034319059720e-05 0.0 
3.034319059720e-05 1.477623850203e-03 0.0 
0.0 0.0 0.0 
3.679433174956e-05 1.412063546296e-04 0.0 
1.412063546296e-04 5.451842587369e-04 0.0 
0.0 0.0 0.0 
1.800312173219e-05 1.524247972379e-04 0.0 
1.524247972379e-04 5.615252196743e-04 0.0 
0.0 0.0 0.0 
3.384649420742e-05 3.968866056393e-05 0.0 
3.968866056393e-05 2.116552691710e-04 0.0 
0.0 0.0 0.0 
1.631343322421e-05 1.668586863750e-05 0.0 
1.668586863750e-05 1.677841540232e-04 0.0 
0.0 0.0 0.0 
-2.901766928098e-05 7.931248078091e-06 0.0 
7.931248078091e-06 1.408408816172e-03 0.0 
0.0 0.0 0.0 
-2.426289456401e-05 9.406091731430e-06 0.0 
9.406091731430e-06 1.468741996485e-03 0.0 
0.0 0.0 0.0 
6.732790891602e-05 4.693885580677e-06 0.0 
4.693885580677e-06 6.236396582799e-04 0.0 
0.0 0.0 0.0 
6.624949924013e-05 4.520899728347e-06 0.0 
4.520899728347e-06 6.511854227479e-04 0.0 
0.0 0.0 0.0 
5.261298563956e-05 8.185370319995e-05 0.0 
8.185370319995e-05 1.049963470522e-03 0.0 
0.0 0.0 0.0 
2.798245828920e-05 -1.622130258338e-05 0.0 
-1.622130258338e-05 2.327828760524e-04 0.0 
0.0 0.0 0.0 
-2.261311282603e-05 1.253980216646e-05 0.0 
1.253980216646e-05 1.497139895523e-03 0.0 
0.0 0.0 0.0 
6.501285140222e-05 8.489144437313e-05 0.0 
8.489144437313e-05 9.367206187564e-04 0.0 
0.0 0.0 0.0 
7.131132697787e-05 7.966062674595e-05 0.0 
7.966062674595e-05 8.670847677012e-04 0.0 
0.0 0.0 0.0 
6.191735680458e-05 2.475017820856e-07 0.0 
2.475017820856e-07 5.516506490227e-04 0.0 
0.0 0.0 0.0 
3.246657049216e-05 1.350532269534e-04 0.0 
1.350532269534e-04 4.132903950159e-04 0.0 
0.0 0.0 0.0 
3.940186131846e-05 1.106128248002e-04 0.0 
1.106128248002e-04 3.339795931017e-04 0.0 
0.0 0.0 0.0 
6.998554503346e-05 9.864078030129e-06 0.0 
9.864078030129e-06 3.985451145456e-04 0.0 
0.0 0.0 0.0 
4.250195492480e-05 -1.260318099536e-05 0.0 
-1.260318099536e-05 2.906236182123e-04 0.0 
0.0 0.0 0.0 
3.219830306622e-05 -6.043600815223e-06 0.0 
-6.043600815223e-06 2.772974243506e-04 0.0 
0.0 0.0 0.0 
4.185594438085e-05 8.877766242174e-05 0.0 
8.877766242174e-05 1.121930841871e-03 0.0 
0.0 0.0 0.0 
-3.129764655156e-05 3.629935113769e-05 0.0 
3.629935113769e-05 1.501970091238e-03 0.0 
0.0 0.0 0.0 
-6.231246526138e-06 1.329435137301e-04 0.0 
1.329435137301e-04 1.229604918766e-03 0.0 
0.0 0.0 0.0 
-7.650275163344e-06 1.311410247485e-04 0.0 
1.311410247485e-04 1.170518383901e-03 0.0 
0.0 0.0 0.0 
-4.316130999530e-06 1.366259355482e-04 0.0 
1.366259355482e-04 1.288575055100e-03 0.0 
0.0 0.0 0.0 
1.123634738032e-05 -1.784079227174e-05 0.0 
-1.784079227174e-05 1.768497162648e-04 0.0 
0.0 0.0 0.0 
4.376961800153e-05 7.384716025232e-05 0.0 
7.384716025232e-05 1.095846503070e-03 0.0 
0.0 0.0 0.0 
5.146414711225e-05 1.238734950447e-05 0.0 
1.238734950447e-05 9.434743194246e-04 0.0 
0.0 0.0 0.0 
-2.727976618154e-05 1.264726113806e-04 0.0 
1.264726113806e-04 1.378084783193e-03 0.0 
0.0 0.0 0.0 
-3.457803048901e-05 1.190789783573e-04 0.0 
1.190789783573e-04 1.372537012028e-03 0.0 
0.0 0.0 0.0 
1.765663249527e-05 1.501598125224e-04 0.0 
1.501598125224e-04 6.237002004775e-04 0.0 
0.0 0.0 0.0 
-4.062210340365e-06 1.549043660265e-04 0.0 
1.549043660265e-04 6.451511522297e-04 0.0 
0.0 0.0 0.0 
-5.027821422051e-06 1.579198736021e-04 0.0 
1.579198736021e-04 5.883784360768e-04 0.0 
0.0 0.0 0.0 
-2.738065303933e-05 1.527603103405e-04 0.0 
1.527603103405e-04 6.728322786052e-04 0.0 
0.0 0.0 0.0 
-7.535613971947e-05 4.668875194777e-05 0.0 
4.668875194777e-05 1.196731250396e-03 0.0 
0.0 0.0 0.0 
-3.023291501221e-06 1.509956353951e-04 0.0 
1.509956353951e-04 7.022470659124e-04 0.0 
0.0 0.0 0.0 
-7.784859703784e-05 6.597893816181e-05 0.0 
6.597893816181e-05 1.137486903788e-03 0.0 
0.0 0.0 0.0 
-7.931681047089e-05 5.338416570461e-05 0.0 
5.338416570461e-05 1.123720519565e-03 0.0 
0.0 0.0 0.0 
-8.028904269549e-05 5.819583753550e-05 0.0 
5.819583753550e-05 1.086178694091e-03 0.0 
0.0 0.0 0.0 
-7.073310177391e-05 9.900907820677e-05 0.0 
9.900907820677e-05 9.646632408574e-04 0.0 
0.0 0.0 0.0 
-7.781767316702e-05 8.157400733607e-05 0.0 
8.157400733607e-05 9.634337278006e-04 0.0 
0.0 0.0 0.0 
4.938554084910e-05 1.280436334907e-04 0.0 
1.280436334907e-04 6.063879414146e-04 0.0 
0.0 0.0 0.0 
4.719856532006e-05 1.166170231733e-04 0.0 
1.166170231733e-04 8.778884028325e-04 0.0 
0.0 0.0 0.0 
6.805223011452e-05 4.557208317908e-06 0.0 
4.557208317908e-06 5.967558570984e-04 0.0 
0.0 0.0 0.0 
6.949045687817e-05 1.819883362347e-05 0.0 
1.819883362347e-05 7.632007548408e-04 0.0 
0.0 0.0 0.0 
8.009984305905e-05 4.302673349455e-05 0.0 
4.302673349455e-05 7.448634214139e-04 0.0 
0.0 0.0 0.0 
-2.888109413335e-05 2.380324619215e-05 0.0 
2.380324619215e-05 1.484284044979e-03 0.0 
0.0 0.0 0.0 
-2.382680456131e-05 2.220810605447e-05 0.0 
2.220810605447e-05 1.517161053747e-03 0.0 
0.0 0.0 0.0 
-4.231533222201e-05 9.369371843138e-06 0.0 
9.369371843138e-06 1.277242015066e-03 0.0 
0.0 0.0 0.0 
-4.132230498125e-05 6.420592798222e-06 0.0 
6.420592798222e-06 1.248421276730e-03 0.0 
0.0 0.0 0.0 
2.128219924846e-05 -1.484953419137e-05 0.0 
-1.484953419137e-05 2.098441281922e-04 0.0 
0.0 0.0 0.0 
1.537145716786e-05 -1.561710810087e-05 0.0 
-1.561710810087e-05 1.859459908760e-04 0.0 
0.0 0.0 0.0 
7.701733477365e-05 2.251054897391e-05 0.0 
2.251054897391e-05 6.845737905150e-04 0.0 
0.0 0.0 0.0 
4.992488836327e-05 6.399685193674e-05 0.0 
6.399685193674e-05 1.046998518060e-03 0.0 
0.0 0.0 0.0 
-3.582627469652e-05 4.469598280922e-05 0.0 
4.469598280922e-05 1.492375488422e-03 0.0 
0.0 0.0 0.0 
-3.352004627061e-05 5.227252615390e-05 0.0 
5.227252615390e-05 1.514754069429e-03 0.0 
0.0 0.0 0.0 
-4.019261126172e-05 5.418025494617e-05 0.0 
5.418025494617e-05 1.481402224880e-03 0.0 
0.0 0.0 0.0 
4.588795758228e-05 9.243010833414e-05 0.0 
9.243010833414e-05 1.100259723780e-03 0.0 
0.0 0.0 0.0 
7.626850367496e-05 8.665581194247e-05 0.0 
8.665581194247e-05 5.502637101111e-04 0.0 
0.0 0.0 0.0 
6.804180244128e-05 9.249990273961e-05 0.0 
9.249990273961e-05 8.376247518517e-04 0.0 
0.0 0.0 0.0 
2.486282421132e-05 8.932851972047e-06 0.0 
8.932851972047e-06 1.874041843883e-04 0.0 
0.0 0.0 0.0 
-1.114229035809e-05 1.310112580270e-04 0.0 
1.310112580270e-04 1.055481032975e-03 0.0 
0.0 0.0 0.0 
9.187622293220e-06 -1.401577692963e-05 0.0 
-1.401577692963e-05 1.531780328783e-04 0.0 
0.0 0.0 0.0 
-5.672004215823e-05 9.631858403900e-05 0.0 
9.631858403900e-05 1.302519973715e-03 0.0 
0.0 0.0 0.0 
4.345608733973e-05 1.412168496498e-05 0.0 
1.412168496498e-05 1.013428705451e-03 0.0 
0.0 0.0 0.0 
3.890571860003e-05 2.005921931977e-05 0.0 
2.005921931977e-05 1.053577528176e-03 0.0 
0.0 0.0 0.0 
1.336105733278e-05 1.365418471482e-04 0.0 
1.365418471482e-04 1.255808304190e-03 0.0 
0.0 0.0 0.0 
-7.449739909513e-05 2.908991710747e-05 0.0 
2.908991710747e-05 1.122760257317e-03 0.0 
0.0 0.0 0.0 
1.017725002920e-06 1.314520206414e-04 0.0 
1.314520206414e-04 1.054967133155e-03 0.0 
0.0 0.0 0.0 
1.270038372643e-05 1.307548558626e-04 0.0 
1.307548558626e-04 9.954969273483e-04 0.0 
0.0 0.0 0.0 
-8.006590705817e-05 4.509678555118e-05 0.0 
4.509678555118e-05 1.071224296483e-03 0.0 
0.0 0.0 0.0 
-8.078447060335e-05 4.967756064321e-05 0.0 
4.967756064321e-05 1.035013053157e-03 0.0 
0.0 0.0 0.0 
-8.037689051218e-05 6.424421449295e-05 0.0 
6.424421449295e-05 1.047435864621e-03 0.0 
0.0 0.0 0.0 
-8.093494118659e-05 5.578231254946e-05 0.0 
5.578231254946e-05 9.970622321725e-04 0.0 
0.0 0.0 0.0 
7.052587725302e-05 7.409908494636e-06 0.0 
7.409908494636e-06 4.221038373034e-04 0.0 
0.0 0.0 0.0 
6.279427142360e-05 -1.168061825228e-06 0.0 
-1.168061825228e-06 3.848376301960e-04 0.0 
0.0 0.0 0.0 
-1.904524332773e-05 1.343529697117e-04 0.0 
1.343529697117e-04 1.390527216718e-03 0.0 
0.0 0.0 0.0 
-9.241108791543e-06 1.391441083061e-04 0.0 
1.391441083061e-04 1.339813154992e-03 0.0 
0.0 0.0 0.0 
-2.668454284762e-05 1.253953676426e-04 0.0 
1.253953676426e-04 1.424784673872e-03 0.0 
0.0 0.0 0.0 
-3.329373822442e-05 1.172502871590e-04 0.0 
1.172502871590e-04 1.419323063390e-03 0.0 
0.0 0.0 0.0 
1.718104048087e-05 1.362466028575e-04 0.0 
1.362466028575e-04 1.265287908892e-03 0.0 
0.0 0.0 0.0 
2.457715808102e-05 1.292155364940e-04 0.0 
1.292155364940e-04 1.210345660843e-03 0.0 
0.0 0.0 0.0 
3.966327282009e-05 -5.449121463515e-06 0.0 
-5.449121463515e-06 3.347717585832e-04 0.0 
0.0 0.0 0.0 
-7.907817516232e-05 7.303619655695e-05 0.0 
7.303619655695e-05 9.159307975796e-04 0.0 
0.0 0.0 0.0 
-2.502135372303e-05 3.451956230673e-05 0.0 
3.451956230673e-05 1.534609460763e-03 0.0 
0.0 0.0 0.0 
-7.869483129262e-05 4.146558006807e-05 0.0 
4.146558006807e-05 1.106798442402e-03 0.0 
0.0 0.0 0.0 
3.781814358824e-05 6.924900347539e-05 0.0 
6.924900347539e-05 1.118348836778e-03 0.0 
0.0 0.0 0.0 
4.466544021183e-05 6.003306669778e-05 0.0 
6.003306669778e-05 1.072569815284e-03 0.0 
0.0 0.0 0.0 
-5.509784374987e-06 1.098481632250e-06 0.0 
1.098481632250e-06 1.319211601235e-04 0.0 
0.0 0.0 0.0 
4.659700036364e-06 -6.179169133303e-06 0.0 
-6.179169133303e-06 1.510453002381e-04 0.0 
0.0 0.0 0.0 
-1.865320294827e-05 1.064856909898e-05 0.0 
1.064856909898e-05 1.529220909959e-03 0.0 
0.0 0.0 0.0 
-3.127563384734e-05 1.530653500906e-04 0.0 
1.530653500906e-04 6.233954397230e-04 0.0 
0.0 0.0 0.0 
-5.067993160649e-05 1.373930376091e-04 0.0 
1.373930376091e-04 7.014831653906e-04 0.0 
0.0 0.0 0.0 
-7.866979788237e-06 1.561464280127e-04 0.0 
1.561464280127e-04 5.317592638973e-04 0.0 
0.0 0.0 0.0 
2.047186607209e-05 5.800612021193e-06 0.0 
5.800612021193e-06 1.158406430933e-03 0.0 
0.0 0.0 0.0 
-3.946777217184e-05 1.941715561937e-07 0.0 
1.941715561937e-07 1.125102426827e-03 0.0 
0.0 0.0 0.0 
3.386559891809e-05 1.567134568152e-05 0.0 
1.567134568152e-05 1.084455645589e-03 0.0 
0.0 0.0 0.0 
-7.477918932952e-05 8.816465600145e-05 0.0 
8.816465600145e-05 1.011716553094e-03 0.0 
0.0 0.0 0.0 
-1.613182091801e-05 1.445645227269e-05 0.0 
1.445645227269e-05 1.557302390179e-03 0.0 
0.0 0.0 0.0 
1.180889543595e-05 1.300760142705e-04 0.0 
1.300760142705e-04 1.057134103737e-03 0.0 
0.0 0.0 0.0 
-1.931477558028e-05 1.418973949331e-04 0.0 
1.418973949331e-04 8.323510581402e-04 0.0 
0.0 0.0 0.0 
5.536163505326e-05 8.583879074631e-05 0.0 
8.583879074631e-05 1.028873426453e-03 0.0 
0.0 0.0 0.0 
-2.109385759950e-05 6.563075729366e-06 0.0 
6.563075729366e-06 1.497440398054e-03 0.0 
0.0 0.0 0.0 
-1.504850504273e-05 8.593766994158e-06 0.0 
8.593766994158e-06 1.562704829527e-03 0.0 
0.0 0.0 0.0 
-4.910528843975e-05 1.181257886040e-05 0.0 
1.181257886040e-05 1.238579700581e-03 0.0 
0.0 0.0 0.0 
-4.787672806774e-05 7.614704912521e-06 0.0 
7.614704912521e-06 1.208145656129e-03 0.0 
0.0 0.0 0.0 
-5.118370015084e-05 1.578977921627e-05 0.0 
1.578977921627e-05 1.265174657483e-03 0.0 
0.0 0.0 0.0 
4.684175686916e-05 6.560749467298e-05 0.0 
6.560749467298e-05 2.651530883661e-04 0.0 
0.0 0.0 0.0 
2.083598098971e-05 5.437209579327e-05 0.0 
5.437209579327e-05 1.979117759435e-04 0.0 
0.0 0.0 0.0 
-2.549711659864e-05 1.782594964865e-05 0.0 
1.782594964865e-05 1.490834476497e-03 0.0 
0.0 0.0 0.0 
4.995244508762e-05 -6.327343296537e-06 0.0 
-6.327343296537e-06 4.042334948412e-04 0.0 
0.0 0.0 0.0 
5.188352760377e-05 -3.760196194674e-06 0.0 
-3.760196194674e-06 4.368489101242e-04 0.0 
0.0 0.0 0.0 
3.273482036067e-05 -1.565288989519e-05 0.0 
-1.565288989519e-05 2.556396291194e-04 0.0 
0.0 0.0 0.0 
4.542333632966e-05 -1.213591196270e-05 0.0 
-1.213591196270e-05 3.134266637631e-04 0.0 
0.0 0.0 0.0 
6.946855454548e-05 8.645162475962e-06 0.0 
8.645162475962e-06 6.604062208670e-04 0.0 
0.0 0.0 0.0 
7.090645956150e-05 8.940287097613e-06 0.0 
8.940287097613e-06 6.336675368633e-04 0.0 
0.0 0.0 0.0 
-4.966455576686e-05 1.055653482311e-04 0.0 
1.055653482311e-04 1.311282079165e-03 0.0 
0.0 0.0 0.0 
-4.919794747564e-05 1.022487337746e-04 0.0 
1.022487337746e-04 1.355099564421e-03 0.0 
0.0 0.0 0.0 
-4.537340052876e-05 1.138831433864e-04 0.0 
1.138831433864e-04 1.217235523128e-03 0.0 
0.0 0.0 0.0 
7.089870660944e-05 7.427005650786e-05 0.0 
7.427005650786e-05 8.854594731875e-04 0.0 
0.0 0.0 0.0 
7.641073283223e-05 6.868320022173e-05 0.0 
6.868320022173e-05 8.161017724511e-04 0.0 
0.0 0.0 0.0 
7.636957902405e-05 7.453290309426e-05 0.0 
7.453290309426e-05 7.983371880124e-04 0.0 
0.0 0.0 0.0 
-2.200235080117e-05 2.698894032662e-05 0.0 
2.698894032662e-05 1.540911053972e-03 0.0 
0.0 0.0 0.0 
-1.594363857341e-05 2.530240230418e-05 0.0 
2.530240230418e-05 1.579776389938e-03 0.0 
0.0 0.0 0.0 
7.696935064916e-05 1.793869590482e-05 0.0 
1.793869590482e-05 4.611939841673e-04 0.0 
0.0 0.0 0.0 
7.685841092993e-05 2.186573321221e-05 0.0 
2.186573321221e-05 4.385968944311e-04 0.0 
0.0 0.0 0.0 
7.071782292116e-05 5.671938680066e-06 0.0 
5.671938680066e-06 4.451657225851e-04 0.0 
0.0 0.0 0.0 
-2.265078198406e-05 4.082480795627e-05 0.0 
4.082480795627e-05 1.558240224750e-03 0.0 
0.0 0.0 0.0 
2.843701274498e-05 2.257681249894e-05 0.0 
2.257681249894e-05 1.124519570777e-03 0.0 
0.0 0.0 0.0 
3.271870502712e-05 2.611580425735e-05 0.0 
2.611580425735e-05 1.094468020362e-03 0.0 
0.0 0.0 0.0 
1.462981159920e-06 -1.484192122402e-05 0.0 
-1.484192122402e-05 1.306793058486e-04 0.0 
0.0 0.0 0.0 
8.457909486855e-06 -1.665472887375e-05 0.0 
-1.665472887375e-05 1.622118604233e-04 0.0 
0.0 0.0 0.0 
1.940734670208e-05 1.258543985709e-04 0.0 
1.258543985709e-04 3.499824332020e-04 0.0 
0.0 0.0 0.0 
2.127771025110e-05 9.920221670384e-05 0.0 
9.920221670384e-05 2.701520874151e-04 0.0 
0.0 0.0 0.0 
-3.032657740095e-05 6.033733445036e-05 0.0 
6.033733445036e-05 1.534192424790e-03 0.0 
0.0 0.0 0.0 
-3.750270248920e-05 6.288915034080e-05 0.0 
6.288915034080e-05 1.502149833205e-03 0.0 
0.0 0.0 0.0 
-2.251406522635e-05 5.820964711261e-05 0.0 
5.820964711261e-05 1.571897846244e-03 0.0 
0.0 0.0 0.0 
3.440528557116e-05 -3.664967337137e-06 0.0 
-3.664967337137e-06 2.972816069841e-04 0.0 
0.0 0.0 0.0 
1.790565664517e-06 1.322656094719e-04 0.0 
1.322656094719e-04 1.175484547293e-03 0.0 
0.0 0.0 0.0 
3.427887205384e-05 9.973155694922e-05 0.0 
9.973155694922e-05 1.170684523839e-03 0.0 
0.0 0.0 0.0 
3.864417001465e-05 1.038385667606e-04 0.0 
1.038385667606e-04 1.150574110838e-03 0.0 
0.0 0.0 0.0 
2.794392197794e-05 9.674519481699e-05 0.0 
9.674519481699e-05 1.202467133170e-03 0.0 
0.0 0.0 0.0 
8.396274878234e-06 1.361896322737e-04 0.0 
1.361896322737e-04 1.246532381515e-03 0.0 
0.0 0.0 0.0 
6.453342598522e-06 1.408227889882e-04 0.0 
1.408227889882e-04 1.306542203323e-03 0.0 
0.0 0.0 0.0 
-3.136318034891e-06 1.420452548101e-04 0.0 
1.420452548101e-04 1.347550454364e-03 0.0 
0.0 0.0 0.0 
-1.752448122855e-05 6.267965772505e-06 0.0 
6.267965772505e-06 1.123567221674e-04 0.0 
0.0 0.0 0.0 
-1.632797524117e-05 4.893338247909e-06 0.0 
4.893338247909e-06 1.542204870054e-03 0.0 
0.0 0.0 0.0 
-4.402106500467e-05 5.766122804614e-06 0.0 
5.766122804614e-06 1.211996812847e-03 0.0 
0.0 0.0 0.0 
-3.955782501397e-05 -3.515066513024e-06 0.0 
-3.515066513024e-06 9.072854263668e-05 0.0 
0.0 0.0 0.0 
-4.250568028728e-05 3.714803110821e-06 0.0 
3.714803110821e-06 1.183178016820e-03 0.0 
0.0 0.0 0.0 
-4.079765187261e-05 4.215769029230e-06 0.0 
4.215769029230e-06 1.218991004384e-03 0.0 
0.0 0.0 0.0 
-4.190817689716e-05 1.959910157327e-06 0.0 
1.959910157327e-06 1.150492140433e-03 0.0 
0.0 0.0 0.0 
2.675402735593e-05 -4.061550948897e-06 0.0 
-4.061550948897e-06 2.397168123092e-04 0.0 
0.0 0.0 0.0 
-5.243386938184e-05 9.891992414025e-06 0.0 
9.891992414025e-06 1.194234441455e-03 0.0 
0.0 0.0 0.0 
-5.483972480506e-05 1.499603879079e-05 0.0 
1.499603879079e-05 1.231410897102e-03 0.0 
0.0 0.0 0.0 
-8.316024911502e-06 -1.371805649244e-05 0.0 
-1.371805649244e-05 9.767733029596e-05 0.0 
0.0 0.0 0.0 
-1.582185919480e-05 3.830250204098e-05 0.0 
3.830250204098e-05 1.589801313729e-03 0.0 
0.0 0.0 0.0 
-3.511430550459e-06 -1.181256547820e-05 0.0 
-1.181256547820e-05 1.007925259396e-04 0.0 
0.0 0.0 0.0 
3.799840009385e-06 -1.134387729945e-05 0.0 
-1.134387729945e-05 1.220362879423e-04 0.0 
0.0 0.0 0.0 
3.356182805114e-05 6.577119770222e-05 0.0 
6.577119770222e-05 1.144529042418e-03 0.0 
0.0 0.0 0.0 
3.944522409360e-05 5.559237601878e-05 0.0 
5.559237601878e-05 1.098058670833e-03 0.0 
0.0 0.0 0.0 
2.674603322646e-05 6.020506161707e-05 0.0 
6.020506161707e-05 1.168815801133e-03 0.0 
0.0 0.0 0.0 
3.276507662912e-05 5.177972727212e-05 0.0 
5.177972727212e-05 1.122606876885e-03 0.0 
0.0 0.0 0.0 
4.483433582092e-05 4.678824679663e-05 0.0 
4.678824679663e-05 1.052729053806e-03 0.0 
0.0 0.0 0.0 
3.923552954336e-05 4.334363890580e-05 0.0 
4.334363890580e-05 1.081413671549e-03 0.0 
0.0 0.0 0.0 
-4.667342172062e-05 4.803446712342e-06 0.0 
4.803446712342e-06 1.176949869828e-03 0.0 
0.0 0.0 0.0 
2.553951032261e-05 4.880425251268e-05 0.0 
4.880425251268e-05 1.161982073776e-03 0.0 
0.0 0.0 0.0 
3.286078280248e-05 3.875794309597e-05 0.0 
3.875794309597e-05 1.111678839948e-03 0.0 
0.0 0.0 0.0 
1.935133098744e-05 4.308202914355e-05 0.0 
4.308202914355e-05 1.192668619310e-03 0.0 
0.0 0.0 0.0 
-7.916257797961e-05 3.998071703183e-05 0.0 
3.998071703183e-05 9.841017486423e-04 0.0 
0.0 0.0 0.0 
-4.645434623561e-05 1.392829514782e-04 0.0 
1.392829514782e-04 7.460866792243e-04 0.0 
0.0 0.0 0.0 
-6.454431519916e-05 1.168008046569e-04 0.0 
1.168008046569e-04 7.674034111114e-04 0.0 
0.0 0.0 0.0 
-6.539351604782e-05 1.029332877688e-04 0.0 
1.029332877688e-04 7.265161532754e-04 0.0 
0.0 0.0 0.0 
-2.222913836434e-05 1.254894895749e-04 0.0 
1.254894895749e-04 1.479087564085e-03 0.0 
0.0 0.0 0.0 
-3.115357706555e-05 1.151678404101e-04 0.0 
1.151678404101e-04 1.459902946812e-03 0.0 
0.0 0.0 0.0 
4.739012569103e-05 8.896086936571e-06 0.0 
8.896086936571e-06 9.756110504126e-04 0.0 
0.0 0.0 0.0 
5.423225913241e-05 7.664850505920e-06 0.0 
7.664850505920e-06 9.058063074311e-04 0.0 
0.0 0.0 0.0 
-4.071768241401e-05 2.574867147901e-06 0.0 
2.574867147901e-06 1.186025207313e-03 0.0 
0.0 0.0 0.0 
-3.950399816991e-05 1.456293383770e-06 0.0 
1.456293383770e-06 1.182249131201e-03 0.0 
0.0 0.0 0.0 
-3.841719176053e-05 3.839794430141e-06 0.0 
3.839794430141e-06 1.239229507594e-03 0.0 
0.0 0.0 0.0 
-3.774135008157e-05 1.965419665423e-06 0.0 
1.965419665423e-06 1.231378294609e-03 0.0 
0.0 0.0 0.0 
-3.607647430045e-05 4.223998490986e-06 0.0 
4.223998490986e-06 1.288157934198e-03 0.0 
0.0 0.0 0.0 
-3.534635946726e-05 1.897225795336e-06 0.0 
1.897225795336e-06 1.279133361106e-03 0.0 
0.0 0.0 0.0 
-3.294896752021e-05 3.032879543053e-06 0.0 
3.032879543053e-06 1.336550955606e-03 0.0 
0.0 0.0 0.0 
-6.517435976255e-06 1.458070336004e-04 0.0 
1.458070336004e-04 1.402073664611e-03 0.0 
0.0 0.0 0.0 
-3.432146632718e-05 1.486821090603e-04 0.0 
1.486821090603e-04 5.724983654776e-04 0.0 
0.0 0.0 0.0 
-7.779254202939e-05 3.279705964944e-05 0.0 
3.279705964944e-05 1.053596074263e-03 0.0 
0.0 0.0 0.0 
1.841447398898e-05 1.351489311662e-04 0.0 
1.351489311662e-04 1.275183487506e-03 0.0 
0.0 0.0 0.0 
2.577647192977e-05 1.266923317040e-04 0.0 
1.266923317040e-04 1.217405327064e-03 0.0 
0.0 0.0 0.0 
-8.044211460889e-05 6.343506599733e-05 0.0 
6.343506599733e-05 9.569559864706e-04 0.0 
0.0 0.0 0.0 
-7.846658742239e-05 5.260958693119e-05 0.0 
5.260958693119e-05 9.086308438800e-04 0.0 
0.0 0.0 0.0 
2.912406060930e-05 8.077560810290e-05 0.0 
8.077560810290e-05 1.177639567137e-03 0.0 
0.0 0.0 0.0 
1.679427141750e-05 1.465946959398e-04 0.0 
1.465946959398e-04 6.858266637566e-04 0.0 
0.0 0.0 0.0 
-1.149579575264e-05 4.530091746912e-05 0.0 
4.530091746912e-05 1.619464639461e-03 0.0 
0.0 0.0 0.0 
-5.905704938256e-05 3.328460647485e-05 0.0 
3.328460647485e-05 7.621786810807e-05 0.0 
0.0 0.0 0.0 
-1.929891220428e-05 3.598730815273e-05 0.0 
3.598730815273e-05 1.235643867834e-04 0.0 
0.0 0.0 0.0 
-2.063094597993e-06 1.465998300890e-04 0.0 
1.465998300890e-04 7.600987733359e-04 0.0 
0.0 0.0 0.0 
-7.966216752014e-05 7.193339625691e-05 0.0 
7.193339625691e-05 1.006535047163e-03 0.0 
0.0 0.0 0.0 
-5.937768207966e-05 1.222487267130e-04 0.0 
1.222487267130e-04 8.098734344358e-04 0.0 
0.0 0.0 0.0 
-7.069930937553e-05 1.004495627138e-04 0.0 
1.004495627138e-04 8.222652312365e-04 0.0 
0.0 0.0 0.0 
6.403997025350e-05 8.009431165276e-05 0.0 
8.009431165276e-05 9.564085185353e-04 0.0 
0.0 0.0 0.0 
1.968932049882e-06 -1.723862350526e-05 0.0 
-1.723862350526e-05 1.410826268542e-04 0.0 
0.0 0.0 0.0 
1.008984467687e-05 1.463407646480e-04 0.0 
1.463407646480e-04 4.382964336554e-04 0.0 
0.0 0.0 0.0 
-3.341053209617e-05 6.269868458985e-06 0.0 
6.269868458985e-06 1.343684287255e-03 0.0 
0.0 0.0 0.0 
-7.174435695700e-06 1.363612888081e-04 0.0 
1.363612888081e-04 3.792721334550e-04 0.0 
0.0 0.0 0.0 
5.068275182026e-05 4.207361954246e-06 0.0 
4.207361954246e-06 9.416212758416e-04 0.0 
0.0 0.0 0.0 
3.324076770413e-05 1.379123673776e-04 0.0 
1.379123673776e-04 6.778135662947e-04 0.0 
0.0 0.0 0.0 
-6.630036418526e-05 1.029550702486e-04 0.0 
1.029550702486e-04 1.012829680144e-03 0.0 
0.0 0.0 0.0 
1.697823953517e-05 1.520108959471e-04 0.0 
1.520108959471e-04 4.996752542846e-04 0.0 
0.0 0.0 0.0 
-2.513586969753e-05 1.491457506305e-04 0.0 
1.491457506305e-04 7.252288238521e-04 0.0 
0.0 0.0 0.0 
-7.478635585410e-05 5.750008215261e-05 0.0 
5.750008215261e-05 1.213753035372e-03 0.0 
0.0 0.0 0.0 
-7.447570043774e-05 3.667379789786e-05 0.0 
3.667379789786e-05 1.177438482369e-03 0.0 
0.0 0.0 0.0 
-7.683669139628e-05 3.879465254252e-05 0.0 
3.879465254252e-05 1.142569863129e-03 0.0 
0.0 0.0 0.0 
4.675802169796e-05 1.273249491547e-04 0.0 
1.273249491547e-04 6.745974326796e-04 0.0 
0.0 0.0 0.0 
-7.609793445079e-05 8.532246134098e-05 0.0 
8.532246134098e-05 8.725701345303e-04 0.0 
0.0 0.0 0.0 
-7.389148289388e-05 7.043844865673e-05 0.0 
7.043844865673e-05 8.221509321968e-04 0.0 
0.0 0.0 0.0 
-7.413488011093e-05 7.870063964249e-05 0.0 
7.870063964249e-05 1.148053620870e-03 0.0 
0.0 0.0 0.0 
-4.660816667551e-05 5.599300891718e-05 0.0 
5.599300891718e-05 1.447557420198e-03 0.0 
0.0 0.0 0.0 
-4.409726804488e-05 6.486726304974e-05 0.0 
6.486726304974e-05 1.467371059649e-03 0.0 
0.0 0.0 0.0 
-3.403374784120e-05 7.148588122728e-05 0.0 
7.148588122728e-05 1.518923942548e-03 0.0 
0.0 0.0 0.0 
-4.088162107739e-05 7.393411460518e-05 0.0 
7.393411460518e-05 1.485319808134e-03 0.0 
0.0 0.0 0.0 
-5.028091293469e-05 6.661463201705e-05 0.0 
6.661463201705e-05 1.432222827780e-03 0.0 
0.0 0.0 0.0 
-4.694847786687e-05 7.590722850947e-05 0.0 
7.590722850947e-05 1.449568039425e-03 0.0 
0.0 0.0 0.0 
-3.607008847449e-05 8.340435701053e-05 0.0 
8.340435701053e-05 1.502041469741e-03 0.0 
0.0 0.0 0.0 
-4.219507377044e-05 8.602022076579e-05 0.0 
8.602022076579e-05 1.466512333373e-03 0.0 
0.0 0.0 0.0 
-2.889331210467e-05 9.437482637858e-05 0.0 
9.437482637858e-05 1.527397294481e-03 0.0 
0.0 0.0 0.0 
-3.703702785026e-05 9.582098608612e-05 0.0 
9.582098608612e-05 1.479694223051e-03 0.0 
0.0 0.0 0.0 
-4.765015609981e-05 8.826649654970e-05 0.0 
8.826649654970e-05 1.426268049822e-03 0.0 
0.0 0.0 0.0 
-4.285959650472e-05 9.766928563187e-05 0.0 
9.766928563187e-05 1.438099907507e-03 0.0 
0.0 0.0 0.0 
-3.285980387798e-05 1.052889275407e-04 0.0 
1.052889275407e-04 1.486402637903e-03 0.0 
0.0 0.0 0.0 
-5.237185285001e-05 9.032770663942e-05 0.0 
9.032770663942e-05 1.385465928862e-03 0.0 
0.0 0.0 0.0 
1.093579849750e-05 1.429615919042e-04 0.0 
1.429615919042e-04 1.328481292153e-03 0.0 
0.0 0.0 0.0 
-1.388472280447e-06 1.420194131588e-04 0.0 
1.420194131588e-04 8.198238887646e-04 0.0 
0.0 0.0 0.0 
3.576313049887e-06 2.606025513475e-05 0.0 
2.606025513475e-05 1.500587792391e-04 0.0 
0.0 0.0 0.0 
-1.296261248496e-06 6.380358834278e-05 0.0 
6.380358834278e-05 1.724653252653e-04 0.0 
0.0 0.0 0.0 
-7.054245337403e-05 9.350611333279e-05 0.0 
9.350611333279e-05 1.060613190489e-03 0.0 
0.0 0.0 0.0 
-1.469397378554e-05 9.787802275169e-05 0.0 
9.787802275169e-05 1.584510261574e-03 0.0 
0.0 0.0 0.0 
-1.403536678601e-05 8.025549085940e-05 0.0 
8.025549085940e-05 1.603321296800e-03 0.0 
0.0 0.0 0.0 
5.134367991481e-05 1.274744597927e-04 0.0 
1.274744597927e-04 5.376508181338e-04 0.0 
0.0 0.0 0.0 
-1.078779461892e-05 1.369527282021e-04 0.0 
1.369527282021e-04 1.523158864031e-03 0.0 
0.0 0.0 0.0 
-7.768101365877e-05 4.955907003146e-05 0.0 
4.955907003146e-05 1.160530521049e-03 0.0 
0.0 0.0 0.0 
6.070700805194e-05 7.740748996496e-05 0.0 
7.740748996496e-05 3.322152781863e-04 0.0 
0.0 0.0 0.0 
-7.060059335725e-06 1.478689916776e-04 0.0 
1.478689916776e-04 1.488010979047e-03 0.0 
0.0 0.0 0.0 
-5.260658418993e-05 5.759102912559e-05 0.0 
5.759102912559e-05 1.412975911045e-03 0.0 
0.0 0.0 0.0 
-5.810585142352e-05 5.882596704217e-05 0.0 
5.882596704217e-05 1.377218802135e-03 0.0 
0.0 0.0 0.0 
-5.934263199921e-05 4.995518704338e-05 0.0 
4.995518704338e-05 1.357272770911e-03 0.0 
0.0 0.0 0.0 
-1.176861453167e-05 6.579731932171e-05 0.0 
6.579731932171e-05 1.617039830968e-03 0.0 
0.0 0.0 0.0 
-5.279957600522e-05 2.079948140320e-05 0.0 
2.079948140320e-05 1.293135610335e-03 0.0 
0.0 0.0 0.0 
1.533447453609e-06 1.546007578245e-04 0.0 
1.546007578245e-04 1.411988691000e-03 0.0 
0.0 0.0 0.0 
4.328919526016e-05 1.172451933902e-04 0.0 
1.172451933902e-04 9.447965538963e-04 0.0 
0.0 0.0 0.0 
3.521732854687e-05 1.230907709160e-04 0.0 
1.230907709160e-04 9.386309813951e-04 0.0 
0.0 0.0 0.0 
3.824722477845e-05 1.236750507814e-04 0.0 
1.236750507814e-04 8.731069658474e-04 0.0 
0.0 0.0 0.0 
-5.228396992500e-05 7.794731629146e-05 0.0 
7.794731629146e-05 1.411710845974e-03 0.0 
0.0 0.0 0.0 
1.057090207431e-05 1.380697212825e-04 0.0 
1.380697212825e-04 1.330410834610e-03 0.0 
0.0 0.0 0.0 
2.092901602313e-05 1.269914876048e-04 0.0 
1.269914876048e-04 1.262710941440e-03 0.0 
0.0 0.0 0.0 
2.303692837154e-05 1.201774250448e-04 0.0 
1.201774250448e-04 1.246868164788e-03 0.0 
0.0 0.0 0.0 
3.116448399200e-05 1.169786847255e-04 0.0 
1.169786847255e-04 1.190435046309e-03 0.0 
0.0 0.0 0.0 
1.313129871298e-05 1.236498815921e-04 0.0 
1.236498815921e-04 1.299512579386e-03 0.0 
0.0 0.0 0.0 
-1.290695682369e-05 1.147628482469e-04 0.0 
1.147628482469e-04 1.568351498499e-03 0.0 
0.0 0.0 0.0 
-1.185407872667e-05 1.229877023162e-04 0.0 
1.229877023162e-04 1.557026491807e-03 0.0 
0.0 0.0 0.0 
6.905209196177e-05 1.320226206879e-05 0.0 
1.320226206879e-05 3.751569911168e-04 0.0 
0.0 0.0 0.0 
7.633238816836e-05 2.695696149817e-05 0.0 
2.695696149817e-05 4.167239319531e-04 0.0 
0.0 0.0 0.0 
8.157250580865e-05 3.563752540433e-05 0.0 
3.563752540433e-05 4.817370042604e-04 0.0 
0.0 0.0 0.0 
8.095092230413e-05 4.246987780660e-05 0.0 
4.246987780660e-05 4.616558443441e-04 0.0 
0.0 0.0 0.0 
7.527318679908e-05 3.333147468584e-05 0.0 
3.333147468584e-05 3.954487129415e-04 0.0 
0.0 0.0 0.0 
7.957819432451e-05 5.079349174548e-05 0.0 
5.079349174548e-05 4.425675292834e-04 0.0 
0.0 0.0 0.0 
8.231099302991e-05 5.890726014718e-05 0.0 
5.890726014718e-05 5.102093724079e-04 0.0 
0.0 0.0 0.0 
7.727082322362e-05 6.086594685688e-05 0.0 
6.086594685688e-05 4.251757634300e-04 0.0 
0.0 0.0 0.0 
-4.065674603358e-05 1.082897131115e-04 0.0 
1.082897131115e-04 1.408372076267e-03 0.0 
0.0 0.0 0.0 
1.386403330753e-05 1.076540789417e-04 0.0 
1.076540789417e-04 1.275967474351e-03 0.0 
0.0 0.0 0.0 
7.633752804651e-05 4.948124744159e-05 0.0 
4.948124744159e-05 8.131804031865e-04 0.0 
0.0 0.0 0.0 
7.851324836013e-05 5.327240827397e-05 0.0 
5.327240827397e-05 7.898573523574e-04 0.0 
0.0 0.0 0.0 
8.185286318163e-05 4.687063787512e-05 0.0 
4.687063787512e-05 7.218231798146e-04 0.0 
0.0 0.0 0.0 
6.883027829692e-05 4.192585500355e-06 0.0 
4.192585500355e-06 5.701497214896e-04 0.0 
0.0 0.0 0.0 
7.228200317115e-05 9.183033850624e-06 0.0 
9.183033850624e-06 6.071307572669e-04 0.0 
0.0 0.0 0.0 
7.317188692391e-05 1.444923648679e-05 0.0 
1.444923648679e-05 6.715359504750e-04 0.0 
0.0 0.0 0.0 
6.485395752920e-05 3.473208839775e-07 0.0 
3.473208839775e-07 5.340913125549e-04 0.0 
0.0 0.0 0.0 
-1.812228786989e-05 1.286181620746e-04 0.0 
1.286181620746e-04 1.168717144689e-03 0.0 
0.0 0.0 0.0 
1.410189461615e-05 9.879712533707e-05 0.0 
9.879712533707e-05 1.264489701557e-03 0.0 
0.0 0.0 0.0 
7.040656283197e-05 8.572203130946e-05 0.0 
8.572203130946e-05 8.512875602437e-04 0.0 
0.0 0.0 0.0 
7.352652039494e-05 9.526487080402e-06 0.0 
9.526487080402e-06 5.808097068769e-04 0.0 
0.0 0.0 0.0 
-6.018931644610e-05 1.012813279856e-05 0.0 
1.012813279856e-05 1.133383361772e-03 0.0 
0.0 0.0 0.0 
-6.175545839972e-05 1.758922237142e-05 0.0 
1.758922237142e-05 1.187045445646e-03 0.0 
0.0 0.0 0.0 
-6.574818854995e-05 2.071341562038e-05 0.0 
2.071341562038e-05 1.187029971889e-03 0.0 
0.0 0.0 0.0 
-6.218022645497e-05 2.544010020742e-05 0.0 
2.544010020742e-05 1.244507474925e-03 0.0 
0.0 0.0 0.0 
-5.828521204346e-05 1.393891542499e-05 0.0 
1.393891542499e-05 1.193102895188e-03 0.0 
0.0 0.0 0.0 
6.784385612923e-05 8.212068213657e-06 0.0 
8.212068213657e-06 6.875740555531e-04 0.0 
0.0 0.0 0.0 
6.621246528456e-05 7.569339515329e-06 0.0 
7.569339515329e-06 7.150343657025e-04 0.0 
0.0 0.0 0.0 
6.535200800080e-05 4.516944693771e-06 0.0 
4.516944693771e-06 6.789120996806e-04 0.0 
0.0 0.0 0.0 
6.462098816803e-05 6.534176498645e-06 0.0 
6.534176498645e-06 7.427158944766e-04 0.0 
0.0 0.0 0.0 
6.457731182419e-05 3.425136586126e-06 0.0 
3.425136586126e-06 7.050755833640e-04 0.0 
0.0 0.0 0.0 
6.459188051907e-05 1.969007064496e-06 0.0 
1.969007064496e-06 6.463364395989e-04 0.0 
0.0 0.0 0.0 
6.316670963495e-05 4.817792787513e-06 0.0 
4.817792787513e-06 7.694030567535e-04 0.0 
0.0 0.0 0.0 
6.350479314110e-05 2.614992191498e-06 0.0 
2.614992191498e-06 7.276347863399e-04 0.0 
0.0 0.0 0.0 
-5.399729905237e-05 5.871058766124e-06 0.0 
5.871058766124e-06 1.132444140565e-03 0.0 
0.0 0.0 0.0 
-5.547403532324e-05 -9.991172713493e-06 0.0 
-9.991172713493e-06 6.318548672579e-05 0.0 
0.0 0.0 0.0 
-2.566131473512e-05 -1.408687360835e-05 0.0 
-1.408687360835e-05 1.001631053497e-04 0.0 
0.0 0.0 0.0 
-2.418328229605e-05 -1.549301746167e-05 0.0 
-1.549301746167e-05 9.724938052054e-05 0.0 
0.0 0.0 0.0 
-2.987439993718e-06 -1.608757812842e-05 0.0 
-1.608757812842e-05 1.416409528568e-04 0.0 
0.0 0.0 0.0 
1.330422151706e-07 -1.127484883766e-05 0.0 
-1.127484883766e-05 1.456624912160e-04 0.0 
0.0 0.0 0.0 
2.166762773987e-05 -1.027715291936e-05 0.0 
-1.027715291936e-05 1.938252818700e-04 0.0 
0.0 0.0 0.0 
2.126420503905e-05 -6.193478561601e-06 0.0 
-6.193478561601e-06 1.877869684685e-04 0.0 
0.0 0.0 0.0 
-2.632291062673e-05 -1.237114843160e-05 0.0 
-1.237114843160e-05 1.013631771607e-04 0.0 
0.0 0.0 0.0 
-4.407664397355e-05 -1.006596430389e-05 0.0 
-1.006596430389e-05 5.761270485286e-05 0.0 
0.0 0.0 0.0 
-2.050315468009e-05 -1.525995831758e-05 0.0 
-1.525995831758e-05 9.541521127913e-05 0.0 
0.0 0.0 0.0 
-3.750655438782e-05 -9.495315279853e-06 0.0 
-9.495315279853e-06 5.428885798938e-05 0.0 
0.0 0.0 0.0 
-1.740174457432e-05 -1.532780540835e-05 0.0 
-1.532780540835e-05 9.218296866361e-05 0.0 
0.0 0.0 0.0 
1.419799723219e-06 -1.747773967412e-05 0.0 
-1.747773967412e-05 1.457984400432e-04 0.0 
0.0 0.0 0.0 
2.344653231479e-05 -1.649616707978e-05 0.0 
-1.649616707978e-05 2.203242875389e-04 0.0 
0.0 0.0 0.0 
1.355695541377e-05 2.491504822443e-05 0.0 
2.491504822443e-05 1.202776918186e-03 0.0 
0.0 0.0 0.0 
5.948669125777e-05 -1.078701082046e-07 0.0 
-1.078701082046e-07 5.503025620661e-04 0.0 
0.0 0.0 0.0 
5.769067405970e-05 -5.408240892348e-07 0.0 
-5.408240892348e-07 5.206424915912e-04 0.0 
0.0 0.0 0.0 
5.368480410709e-05 -1.603825841396e-06 0.0 
-1.603825841396e-06 4.617126658920e-04 0.0 
0.0 0.0 0.0 
5.638296904123e-05 -2.209940960378e-06 0.0 
-2.209940960378e-06 4.935403693987e-04 0.0 
0.0 0.0 0.0 
6.095913360489e-05 5.787219599818e-07 0.0 
5.787219599818e-07 5.751759157386e-04 0.0 
0.0 0.0 0.0 
5.025491262763e-05 -1.010324603681e-06 0.0 
-1.010324603681e-06 4.296148216482e-04 0.0 
0.0 0.0 0.0 
4.813989710010e-05 -2.313666832888e-06 0.0 
-2.313666832888e-06 4.080229757325e-04 0.0 
0.0 0.0 0.0 
7.461668795801e-07 -2.039565603258e-06 0.0 
-2.039565603258e-06 3.825213548203e-05 0.0 
0.0 0.0 0.0 
6.839804069680e-06 -3.785680848173e-06 0.0 
-3.785680848173e-06 8.343999299250e-05 0.0 
0.0 0.0 0.0 
5.467044291591e-06 -1.966430518157e-06 0.0 
-1.966430518157e-06 7.863088740415e-05 0.0 
0.0 0.0 0.0 
1.243907934382e-05 -2.944611690459e-06 0.0 
-2.944611690459e-06 1.343574284897e-04 0.0 
0.0 0.0 0.0 
1.233416561737e-05 -5.349698192529e-06 0.0 
-5.349698192529e-06 1.333031116098e-04 0.0 
0.0 0.0 0.0 
5.932009524997e-06 -4.747467164150e-06 0.0 
-4.747467164150e-06 8.442327614196e-05 0.0 
0.0 0.0 0.0 
4.260071049570e-06 -5.869240124683e-06 0.0 
-5.869240124683e-06 8.530166408364e-05 0.0 
0.0 0.0 0.0 
-3.606502416524e-06 -4.134508551811e-06 0.0 
-4.134508551811e-06 3.998690009055e-05 0.0 
0.0 0.0 0.0 
2.846106960367e-06 -7.471932587575e-06 0.0 
-7.471932587575e-06 8.584360046804e-05 0.0 
0.0 0.0 0.0 
1.105460265742e-05 -8.340763549631e-06 0.0 
-8.340763549631e-06 1.365494012051e-04 0.0 
0.0 0.0 0.0 
-6.337347188542e-06 -5.056875603597e-06 0.0 
-5.056875603597e-06 3.970027911064e-05 0.0 
0.0 0.0 0.0 
-2.722592528657e-05 1.354992503902e-06 0.0 
1.354992503902e-06 1.416814697937e-03 0.0 
0.0 0.0 0.0 
-2.495266461670e-05 3.852594818467e-06 0.0 
3.852594818467e-06 1.449781391491e-03 0.0 
0.0 0.0 0.0 
1.485933570248e-05 8.157536696914e-05 0.0 
8.157536696914e-05 1.242682990212e-03 0.0 
0.0 0.0 0.0 
-4.850578580440e-05 3.495575848026e-06 0.0 
3.495575848026e-06 1.138347515089e-03 0.0 
0.0 0.0 0.0 
-2.544838580678e-05 -7.928685462037e-06 0.0 
-7.928685462037e-06 4.985603347156e-05 0.0 
0.0 0.0 0.0 
-8.316777216387e-06 1.622012205492e-05 0.0 
1.622012205492e-05 1.624401418320e-03 0.0 
0.0 0.0 0.0 
-8.331325550448e-06 2.945290521599e-05 0.0 
2.945290521599e-05 1.631127818394e-03 0.0 
0.0 0.0 0.0 
-7.255041089282e-06 2.543907373495e-05 0.0 
2.543907373495e-05 1.633257143386e-03 0.0 
0.0 0.0 0.0 
3.264222303460e-05 5.495236681604e-06 0.0 
5.495236681604e-06 1.085370501573e-03 0.0 
0.0 0.0 0.0 
2.772554388245e-05 1.090900019672e-05 0.0 
1.090900019672e-05 1.121669352910e-03 0.0 
0.0 0.0 0.0 
-7.500944010871e-06 9.281054690187e-06 0.0 
9.281054690187e-06 1.626841505325e-03 0.0 
0.0 0.0 0.0 
4.996677508033e-05 -1.009231558787e-05 0.0 
-1.009231558787e-05 3.600201954468e-04 0.0 
0.0 0.0 0.0 
-3.022693769666e-05 8.116934932605e-05 0.0 
8.116934932605e-05 1.535789681080e-03 0.0 
0.0 0.0 0.0 
-2.095799022241e-05 1.635918295688e-05 0.0 
1.635918295688e-05 1.523318313531e-03 0.0 
0.0 0.0 0.0 
5.206495952400e-05 9.336302701277e-05 0.0 
9.336302701277e-05 3.290010383829e-04 0.0 
0.0 0.0 0.0 
5.430563223774e-05 -7.638550774778e-06 0.0 
-7.638550774778e-06 3.489865460765e-04 0.0 
0.0 0.0 0.0 
5.779209678884e-05 1.057232250689e-05 0.0 
1.057232250689e-05 8.748489272113e-04 0.0 
0.0 0.0 0.0 
6.934228571698e-05 2.466492408376e-05 0.0 
2.466492408376e-05 8.031369393520e-04 0.0 
0.0 0.0 0.0 
4.375061993989e-05 2.391786952885e-05 0.0 
2.391786952885e-05 1.023842610304e-03 0.0 
0.0 0.0 0.0 
6.377838295520e-05 1.505845866978e-05 0.0 
1.505845866978e-05 8.178075335283e-04 0.0 
0.0 0.0 0.0 
5.343783645155e-05 3.105139231024e-05 0.0 
3.105139231024e-05 9.674623596514e-04 0.0 
0.0 0.0 0.0 
2.603915463679e-05 1.122551603670e-04 0.0 
1.122551603670e-04 1.225275911412e-03 0.0 
0.0 0.0 0.0 
2.422267866849e-05 -6.540419231749e-06 0.0 
-6.540419231749e-06 2.203559187374e-04 0.0 
0.0 0.0 0.0 
-4.282832729507e-05 1.261617720094e-05 0.0 
1.261617720094e-05 1.305020968123e-03 0.0 
0.0 0.0 0.0 
-3.882801790180e-05 6.785994433033e-06 0.0 
6.785994433033e-06 1.281984971750e-03 0.0 
0.0 0.0 0.0 
-3.104682119058e-05 1.507174125043e-05 0.0 
1.507174125043e-05 1.431645810741e-03 0.0 
0.0 0.0 0.0 
4.774407843222e-05 -8.250187100929e-06 0.0 
-8.250187100929e-06 3.777532791647e-04 0.0 
0.0 0.0 0.0 
6.462218849220e-05 1.952864046790e-06 0.0 
1.952864046790e-06 6.176610005658e-04 0.0 
0.0 0.0 0.0 
2.600233556323e-05 -1.359945799270e-05 0.0 
-1.359945799270e-05 2.351638933041e-04 0.0 
0.0 0.0 0.0 
-1.454261770987e-05 1.385819020601e-04 0.0 
1.385819020601e-04 1.451658532389e-03 0.0 
0.0 0.0 0.0 
-7.798982659366e-05 7.184541024758e-05 0.0 
7.184541024758e-05 1.097625513722e-03 0.0 
0.0 0.0 0.0 
8.210839689208e-05 3.633426087442e-05 0.0 
3.633426087442e-05 6.774910851507e-04 0.0 
0.0 0.0 0.0 
6.498275493024e-05 -4.491802395937e-07 0.0 
-4.491802395937e-07 5.075109593610e-04 0.0 
0.0 0.0 0.0 
5.712377285827e-05 -6.874424289658e-06 0.0 
-6.874424289658e-06 3.950070954313e-04 0.0 
0.0 0.0 0.0 
5.217115809379e-05 -7.482467794544e-06 0.0 
-7.482467794544e-06 3.251986567631e-04 0.0 
0.0 0.0 0.0 
-1.710414144908e-05 1.381794460127e-04 0.0 
1.381794460127e-04 8.874355729300e-04 0.0 
0.0 0.0 0.0 
7.678347191505e-05 1.635022275452e-05 0.0 
1.635022275452e-05 6.192990718591e-04 0.0 
0.0 0.0 0.0 
6.354626699282e-05 4.885706797595e-05 0.0 
4.885706797595e-05 9.309056601000e-04 0.0 
0.0 0.0 0.0 
-2.691647263494e-05 1.397404105552e-05 0.0 
1.397404105552e-05 1.464443513677e-03 0.0 
0.0 0.0 0.0 
-1.656928464974e-05 -6.806974456528e-06 0.0 
-6.806974456528e-06 5.105748271981e-05 0.0 
0.0 0.0 0.0 
5.968848314490e-05 5.819682769137e-05 0.0 
5.819682769137e-05 9.762490433025e-04 0.0 
0.0 0.0 0.0 
7.535321365282e-05 2.852984791344e-05 0.0 
2.852984791344e-05 7.509293236827e-04 0.0 
0.0 0.0 0.0 
-4.852597862320e-05 2.116452318205e-05 0.0 
2.116452318205e-05 1.327012759027e-03 0.0 
0.0 0.0 0.0 
3.884534645741e-05 1.169417230906e-04 0.0 
1.169417230906e-04 1.087159417071e-03 0.0 
0.0 0.0 0.0 
2.947323123233e-05 -1.172495133507e-05 0.0 
-1.172495133507e-05 2.212827183889e-04 0.0 
0.0 0.0 0.0 
-3.406974888927e-05 2.497993053834e-05 0.0 
2.497993053834e-05 1.451955750026e-03 0.0 
0.0 0.0 0.0 
-2.699342416890e-05 4.976924009210e-05 0.0 
4.976924009210e-05 1.545111564878e-03 0.0 
0.0 0.0 0.0 
-5.652552149662e-05 2.000869625947e-05 0.0 
2.000869625947e-05 1.259376931629e-03 0.0 
0.0 0.0 0.0 
1.515231254079e-05 -1.329582148541e-05 0.0 
-1.329582148541e-05 1.775343577904e-04 0.0 
0.0 0.0 0.0 
-4.541590779988e-05 8.741088761937e-06 0.0 
8.741088761937e-06 1.242533171680e-03 0.0 
0.0 0.0 0.0 
3.620706121332e-05 8.425057176518e-05 0.0 
8.425057176518e-05 1.144155834888e-03 0.0 
0.0 0.0 0.0 
-4.831146753122e-05 4.761726243912e-05 0.0 
4.761726243912e-05 1.426129046443e-03 0.0 
0.0 0.0 0.0 
4.240601789840e-05 -8.492851039389e-06 0.0 
-8.492851039389e-06 3.441599615461e-04 0.0 
0.0 0.0 0.0 
7.246681557486e-05 8.893223145740e-05 0.0 
8.893223145740e-05 7.690019248225e-04 0.0 
0.0 0.0 0.0 
-5.487854830655e-05 1.150869529989e-04 0.0 
1.150869529989e-04 1.011223511719e-03 0.0 
0.0 0.0 0.0 
-7.234898680723e-05 2.059918718050e-05 0.0 
2.059918718050e-05 1.067772871177e-03 0.0 
0.0 0.0 0.0 
-1.910994614986e-05 2.043302492404e-05 0.0 
2.043302492404e-05 1.547766824408e-03 0.0 
0.0 0.0 0.0 
1.345660923939e-05 1.325181418357e-04 0.0 
1.325181418357e-04 9.345180710762e-04 0.0 
0.0 0.0 0.0 
4.185562540933e-05 1.099309657505e-04 0.0 
1.099309657505e-04 1.113777350717e-03 0.0 
0.0 0.0 0.0 
6.287528204078e-05 9.606903880474e-05 0.0 
9.606903880474e-05 9.062075181437e-04 0.0 
0.0 0.0 0.0 
4.489264292758e-05 -6.214059053501e-06 0.0 
-6.214059053501e-06 3.706518608046e-04 0.0 
0.0 0.0 0.0 
4.995077153639e-05 5.050497304801e-05 0.0 
5.050497304801e-05 1.027156644352e-03 0.0 
0.0 0.0 0.0 
5.089923650955e-05 1.164318461997e-04 0.0 
1.164318461997e-04 8.107547295685e-04 0.0 
0.0 0.0 0.0 
-2.743874984231e-05 2.895029771659e-05 0.0 
2.895029771659e-05 1.510008426797e-03 0.0 
0.0 0.0 0.0 
-3.955051506427e-05 1.172443125393e-04 0.0 
1.172443125393e-04 1.270885248527e-03 0.0 
0.0 0.0 0.0 
7.460457006062e-05 9.111209101725e-05 0.0 
9.111209101725e-05 6.196640278017e-04 0.0 
0.0 0.0 0.0 
-3.740933865646e-05 3.778195151246e-05 0.0 
3.778195151246e-05 1.469139272176e-03 0.0 
0.0 0.0 0.0 
8.293634725557e-05 5.144242785379e-05 0.0 
5.144242785379e-05 7.000867341914e-04 0.0 
0.0 0.0 0.0 
2.961726682630e-05 1.243857890456e-04 0.0 
1.243857890456e-04 1.144353955313e-03 0.0 
0.0 0.0 0.0 
-7.700145364714e-05 7.915327899353e-05 0.0 
7.915327899353e-05 1.055972064808e-03 0.0 
0.0 0.0 0.0 
-5.088296903094e-05 1.111349176024e-04 0.0 
1.111349176024e-04 1.164519449072e-03 0.0 
0.0 0.0 0.0 
-6.266045066955e-05 8.629588599476e-05 0.0 
8.629588599476e-05 1.292472371630e-03 0.0 
0.0 0.0 0.0 
-2.418597914082e-05 1.285541013105e-04 0.0 
1.285541013105e-04 1.057560441192e-03 0.0 
0.0 0.0 0.0 
5.959903922600e-05 6.633350946602e-06 0.0 
6.633350946602e-06 8.369729745043e-04 0.0 
0.0 0.0 0.0 
5.498306983668e-05 5.455819093009e-05 0.0 
5.455819093009e-05 1.001319805011e-03 0.0 
0.0 0.0 0.0 
4.771997263797e-05 1.969552153341e-05 0.0 
1.969552153341e-05 2.459995597536e-04 0.0 
0.0 0.0 0.0 
-2.203680623569e-05 1.455758939031e-04 0.0 
1.455758939031e-04 7.783964272473e-04 0.0 
0.0 0.0 0.0 
-5.354298607853e-05 2.657403703235e-05 0.0 
2.657403703235e-05 1.320048977265e-03 0.0 
0.0 0.0 0.0 
-1.680792012935e-05 1.333418322254e-04 0.0 
1.333418322254e-04 1.333609103510e-03 0.0 
0.0 0.0 0.0 
-1.953383788589e-05 3.266166771361e-05 0.0 
3.266166771361e-05 1.566529799720e-03 0.0 
0.0 0.0 0.0 
-5.963062577922e-05 1.137191722962e-04 0.0 
1.137191722962e-04 9.619628319500e-04 0.0 
0.0 0.0 0.0 
5.450061805035e-05 4.200671425919e-05 0.0 
4.200671425919e-05 9.826510606557e-04 0.0 
0.0 0.0 0.0 
-2.942039873429e-05 4.291627469373e-05 0.0 
4.291627469373e-05 1.524225239369e-03 0.0 
0.0 0.0 0.0 
7.506780991133e-05 1.531640528441e-05 0.0 
1.531640528441e-05 6.451534175690e-04 0.0 
0.0 0.0 0.0 
2.902716598274e-05 -2.057689486424e-06 0.0 
-2.057689486424e-06 2.545761963194e-04 0.0 
0.0 0.0 0.0 
3.681038302287e-05 8.424554382393e-05 0.0 
8.424554382393e-05 2.659769471880e-04 0.0 
0.0 0.0 0.0 
7.624771437024e-05 8.073124298032e-05 0.0 
8.073124298032e-05 4.805754488308e-04 0.0 
0.0 0.0 0.0 
2.724455102195e-05 1.300662483383e-04 0.0 
1.300662483383e-04 8.715532345250e-04 0.0 
0.0 0.0 0.0 
7.470103618249e-05 2.099173146289e-05 0.0 
2.099173146289e-05 7.104605975916e-04 0.0 
0.0 0.0 0.0 
-2.555642826893e-05 7.056347578700e-05 0.0 
7.056347578700e-05 1.559186388530e-03 0.0 
0.0 0.0 0.0 
4.959489592256e-05 3.864045036010e-05 0.0 
3.864045036010e-05 1.009720100436e-03 0.0 
0.0 0.0 0.0 
6.171660412224e-05 7.564140732662e-05 0.0 
7.564140732662e-05 9.781310662836e-04 0.0 
0.0 0.0 0.0 
-5.038807120790e-05 1.123560881065e-04 0.0 
1.123560881065e-04 2.356189916324e-04 0.0 
0.0 0.0 0.0 
-7.614196143183e-05 3.065686502180e-05 0.0 
3.065686502180e-05 1.088141159194e-03 0.0 
0.0 0.0 0.0 
4.437269322914e-05 3.488701399057e-05 0.0 
3.488701399057e-05 1.037818661514e-03 0.0 
0.0 0.0 0.0 
7.509960470479e-05 8.132995670327e-05 0.0 
8.132995670327e-05 7.827298056824e-04 0.0 
0.0 0.0 0.0 
3.249744345346e-05 1.214503838475e-04 0.0 
1.214503838475e-04 1.153543551359e-03 0.0 
0.0 0.0 0.0 
6.418751530050e-05 1.727476645444e-06 0.0 
1.727476645444e-06 6.665122621854e-04 0.0 
0.0 0.0 0.0 
-1.143164560900e-05 1.422346860218e-04 0.0 
1.422346860218e-04 1.430534697642e-03 0.0 
0.0 0.0 0.0 
-7.895153470896e-05 4.584305677649e-05 0.0 
4.584305677649e-05 9.470685209206e-04 0.0 
0.0 0.0 0.0 
3.874359311580e-05 3.072916721959e-05 0.0 
3.072916721959e-05 1.067642014869e-03 0.0 
0.0 0.0 0.0 
5.747654600082e-05 9.061137505805e-05 0.0 
9.061137505805e-05 1.008038497217e-03 0.0 
0.0 0.0 0.0 
3.536823266355e-05 1.402909632414e-04 0.0 
1.402909632414e-04 6.114259137553e-04 0.0 
0.0 0.0 0.0 
-3.993170511783e-05 5.852032809817e-07 0.0 
5.852032809817e-07 1.127372530735e-03 0.0 
0.0 0.0 0.0 
2.512307506402e-05 3.408483811918e-05 0.0 
3.408483811918e-05 1.149946960144e-03 0.0 
0.0 0.0 0.0 
4.817521088289e-05 9.636136747197e-05 0.0 
9.636136747197e-05 1.080052785538e-03 0.0 
0.0 0.0 0.0 
-2.114205252712e-05 1.280768071734e-04 0.0 
1.280768071734e-04 1.112744463206e-03 0.0 
0.0 0.0 0.0 
8.027079321375e-05 6.930053932606e-05 0.0 
6.930053932606e-05 7.300847244551e-04 0.0 
0.0 0.0 0.0 
-7.434003110531e-05 2.307448697226e-05 0.0 
2.307448697226e-05 1.000885572330e-03 0.0 
0.0 0.0 0.0 
7.219065563639e-05 1.961050174403e-05 0.0 
1.961050174403e-05 7.367565364367e-04 0.0 
0.0 0.0 0.0 
-5.463934876798e-05 1.054669618607e-04 0.0 
1.054669618607e-04 1.212767411016e-03 0.0 
0.0 0.0 0.0 
-1.068611475739e-05 5.939125704835e-05 0.0 
5.939125704835e-05 1.621959975849e-03 0.0 
0.0 0.0 0.0 
4.008309574562e-05 1.057999285792e-04 0.0 
1.057999285792e-04 1.129685943788e-03 0.0 
0.0 0.0 0.0 
-6.424299324831e-05 5.088883381017e-05 0.0 
5.088883381017e-05 1.321755371101e-03 0.0 
0.0 0.0 0.0 
7.113424230099e-05 1.360982289849e-05 0.0 
1.360982289849e-05 6.979727104625e-04 0.0 
0.0 0.0 0.0 
2.104407618016e-05 1.275522658875e-04 0.0 
1.275522658875e-04 1.062505099488e-03 0.0 
0.0 0.0 0.0 
1.197618528474e-05 -7.279583378997e-06 0.0 
-7.279583378997e-06 1.339500984016e-04 0.0 
0.0 0.0 0.0 
-7.860890287068e-05 3.584715059839e-05 0.0 
3.584715059839e-05 1.019445079281e-03 0.0 
0.0 0.0 0.0 
6.894392368184e-05 1.271225955075e-05 0.0 
1.271225955075e-05 7.248136454122e-04 0.0 
0.0 0.0 0.0 
7.996444451327e-05 6.894291274584e-05 0.0 
6.894291274584e-05 4.939992559479e-04 0.0 
0.0 0.0 0.0 
8.055339479958e-05 6.299240918760e-05 0.0 
6.299240918760e-05 7.478964563028e-04 0.0 
0.0 0.0 0.0 
1.012763984716e-05 1.432577727395e-04 0.0 
1.432577727395e-04 1.317403086611e-03 0.0 
0.0 0.0 0.0 
6.668363769554e-05 1.168988092234e-05 0.0 
1.168988092234e-05 7.521516514824e-04 0.0 
0.0 0.0 0.0 
8.021716164304e-05 7.546028850717e-05 0.0 
7.546028850717e-05 5.628273719167e-04 0.0 
0.0 0.0 0.0 
6.437368290435e-05 1.041174248933e-05 0.0 
1.041174248933e-05 7.798067112325e-04 0.0 
0.0 0.0 0.0 
-7.422299273000e-05 2.866664465503e-05 0.0 
2.866664465503e-05 9.334292568109e-04 0.0 
0.0 0.0 0.0 
-6.301540380392e-05 6.028526249032e-05 0.0 
6.028526249032e-05 1.340942574886e-03 0.0 
0.0 0.0 0.0 
6.217576194508e-05 8.588742047611e-06 0.0 
8.588742047611e-06 8.075831800599e-04 0.0 
0.0 0.0 0.0 
-4.843601646685e-05 1.094233860103e-04 0.0 
1.094233860103e-04 1.265331053883e-03 0.0 
0.0 0.0 0.0 
1.016026778213e-05 -1.089563459498e-05 0.0 
-1.089563459498e-05 1.421503299345e-04 0.0 
0.0 0.0 0.0 
-9.393125935823e-06 1.304662543385e-04 0.0 
1.304662543385e-04 1.112582334032e-03 0.0 
0.0 0.0 0.0 
3.856988736043e-05 1.017100861265e-05 0.0 
1.017100861265e-05 1.047361744243e-03 0.0 
0.0 0.0 0.0 
7.057798147847e-05 4.500871343827e-06 0.0 
4.500871343827e-06 4.682521907528e-04 0.0 
0.0 0.0 0.0 
7.994644900500e-05 5.774316236111e-05 0.0 
5.774316236111e-05 7.677745770982e-04 0.0 
0.0 0.0 0.0 
-5.579754507075e-05 6.822888993996e-05 0.0 
6.822888993996e-05 1.395590731963e-03 0.0 
0.0 0.0 0.0 
-7.265387681836e-05 3.753403343761e-05 0.0 
3.753403343761e-05 8.639956198601e-04 0.0 
0.0 0.0 0.0 
7.545336860463e-05 6.373773716973e-05 0.0 
6.373773716973e-05 8.365123048224e-04 0.0 
0.0 0.0 0.0 
-4.174757103366e-05 1.139107179068e-04 0.0 
1.139107179068e-04 1.318823150081e-03 0.0 
0.0 0.0 0.0 
1.450705075012e-06 1.313258384645e-04 0.0 
1.313258384645e-04 1.114611660888e-03 0.0 
0.0 0.0 0.0 
2.529489845027e-05 1.283835932284e-04 0.0 
1.283835932284e-04 9.348616650938e-04 0.0 
0.0 0.0 0.0 
6.947355240642e-05 6.969849048507e-05 0.0 
6.969849048507e-05 9.066833721691e-04 0.0 
0.0 0.0 0.0 
-7.712072186498e-05 6.105983724599e-05 0.0 
6.105983724599e-05 8.705878012824e-04 0.0 
0.0 0.0 0.0 
4.770476691873e-05 -1.120785836973e-05 0.0 
-1.120785836973e-05 3.356595898394e-04 0.0 
0.0 0.0 0.0 
3.651864001949e-05 -1.464415293179e-05 0.0 
-1.464415293179e-05 2.777923129870e-04 0.0 
0.0 0.0 0.0 
8.275225874099e-05 6.574825286531e-05 0.0 
6.574825286531e-05 5.778017714177e-04 0.0 
0.0 0.0 0.0 
-4.211338440424e-05 1.108784234399e-04 0.0 
1.108784234399e-04 1.364941694455e-03 0.0 
0.0 0.0 0.0 
1.872131742679e-05 -5.237682285625e-06 0.0 
-5.237682285625e-06 1.833901702132e-04 0.0 
0.0 0.0 0.0 
-5.700776331911e-05 8.024077753115e-05 0.0 
8.024077753115e-05 1.372758720112e-03 0.0 
0.0 0.0 0.0 
1.809175317450e-05 -1.769946516255e-05 0.0 
-1.769946516255e-05 1.978595020220e-04 0.0 
0.0 0.0 0.0 
8.363283234188e-05 5.047230374897e-05 0.0 
5.047230374897e-05 5.279539234383e-04 0.0 
0.0 0.0 0.0 
9.784449365576e-06 1.326272125308e-04 0.0 
1.326272125308e-04 1.184192623944e-03 0.0 
0.0 0.0 0.0 
-3.436211105656e-05 9.917122795308e-08 0.0 
9.917122795308e-08 1.298540211103e-03 0.0 
0.0 0.0 0.0 
8.416528841656e-05 4.347524207295e-05 0.0 
4.347524207295e-05 5.469782150032e-04 0.0 
0.0 0.0 0.0 
3.671345092508e-05 -1.719932960256e-06 0.0 
-1.719932960256e-06 3.130821397397e-04 0.0 
0.0 0.0 0.0 
8.165347487695e-05 3.008072344772e-05 0.0 
3.008072344772e-05 5.025759970225e-04 0.0 
0.0 0.0 0.0 
2.326473817068e-05 1.274321745485e-04 0.0 
1.274321745485e-04 9.983093431652e-04 0.0 
0.0 0.0 0.0 
8.130822926548e-05 2.572229424626e-05 0.0 
2.572229424626e-05 5.244004480423e-04 0.0 
0.0 0.0 0.0 
7.674611440652e-05 1.493486659062e-05 0.0 
1.493486659062e-05 4.839168144189e-04 0.0 
0.0 0.0 0.0 
-1.440390434937e-05 1.824203690539e-05 0.0 
1.824203690539e-05 1.580727744488e-03 0.0 
0.0 0.0 0.0 
7.623590038478e-05 1.273064978527e-05 0.0 
1.273064978527e-05 5.069194947281e-04 0.0 
0.0 0.0 0.0 
-5.740330591512e-06 5.026562499783e-06 0.0 
5.026562499783e-06 1.636753995937e-03 0.0 
0.0 0.0 0.0 
1.311339840471e-05 1.107435398455e-05 0.0 
1.107435398455e-05 1.204600765159e-03 0.0 
0.0 0.0 0.0 
-3.857800781811e-05 -3.056592291889e-07 0.0 
-3.056592291889e-07 1.175127786264e-03 0.0 
0.0 0.0 0.0 
-6.605499637475e-05 4.643252358814e-05 0.0 
4.643252358814e-05 7.912583789138e-04 0.0 
0.0 0.0 0.0 
-6.699219023968e-05 4.845961301700e-07 0.0 
4.845961301700e-07 7.163706330902e-05 0.0 
0.0 0.0 0.0 
-7.263532633621e-05 9.176025268257e-05 0.0 
9.176025268257e-05 7.825251111483e-04 0.0 
0.0 0.0 0.0 
6.358935665503e-05 -1.800757665375e-06 0.0 
-1.800757665375e-06 4.079396631629e-04 0.0 
0.0 0.0 0.0 
-5.537803565205e-05 9.296417286505e-05 0.0 
9.296417286505e-05 1.344332066692e-03 0.0 
0.0 0.0 0.0 
-3.872928672174e-05 1.263337419503e-06 0.0 
1.263337419503e-06 1.177762583755e-03 0.0 
0.0 0.0 0.0 
5.575120664577e-05 -7.326791407282e-06 0.0 
-7.326791407282e-06 3.717687604086e-04 0.0 
0.0 0.0 0.0 
-2.507550034427e-05 1.050497837350e-04 0.0 
1.050497837350e-04 1.528361115605e-03 0.0 
0.0 0.0 0.0 
-2.707810026463e-06 1.541182451144e-04 0.0 
1.541182451144e-04 1.450831876186e-03 0.0 
0.0 0.0 0.0 
-2.950137702857e-05 3.331946706458e-06 0.0 
3.331946706458e-06 1.387523504673e-03 0.0 
0.0 0.0 0.0 
3.285895631529e-05 1.186269475493e-04 0.0 
1.186269475493e-04 1.164440847740e-03 0.0 
0.0 0.0 0.0 
1.087594089825e-05 1.307243300524e-04 0.0 
1.307243300524e-04 1.120336539754e-03 0.0 
0.0 0.0 0.0 
-1.781206232772e-05 2.204604174256e-06 0.0 
2.204604174256e-06 1.529663344079e-03 0.0 
0.0 0.0 0.0 
-4.329144687740e-05 3.064792535965e-07 0.0 
3.064792535965e-07 1.124246356220e-03 0.0 
0.0 0.0 0.0 
-1.444621856260e-05 -1.424144501621e-05 0.0 
-1.424144501621e-05 9.043191632840e-05 0.0 
0.0 0.0 0.0 
5.665589661537e-05 3.663009760842e-06 0.0 
3.663009760842e-06 8.713342717961e-04 0.0 
0.0 0.0 0.0 
-6.266360229532e-05 6.635062545019e-05 0.0 
6.635062545019e-05 7.167281120668e-04 0.0 
0.0 0.0 0.0 
-5.383550850333e-05 1.308650103470e-04 0.0 
1.308650103470e-04 6.576416134265e-04 0.0 
0.0 0.0 0.0 
-1.744624703263e-05 1.484767156576e-04 0.0 
1.484767156576e-04 4.746931203474e-04 0.0 
0.0 0.0 0.0 
4.626933331431e-05 -4.307613955832e-06 0.0 
-4.307613955832e-06 3.915212598236e-04 0.0 
0.0 0.0 0.0 
-2.615971047171e-06 -1.674373394045e-05 0.0 
-1.674373394045e-05 1.393671238452e-04 0.0 
0.0 0.0 0.0 
-5.520422884912e-05 1.115260542902e-04 0.0 
1.115260542902e-04 6.191240316232e-04 0.0 
0.0 0.0 0.0 
1.828816679335e-05 1.316388802055e-04 0.0 
1.316388802055e-04 1.275445520394e-03 0.0 
0.0 0.0 0.0 
-4.982824153943e-05 6.649845930280e-06 0.0 
6.649845930280e-06 1.182593576717e-03 0.0 
0.0 0.0 0.0 
1.907967154065e-06 1.346705958647e-04 0.0 
1.346705958647e-04 1.236665092848e-03 0.0 
0.0 0.0 0.0 
-4.599503227428e-05 1.349777597670e-04 0.0 
1.349777597670e-04 4.264502500918e-04 0.0 
0.0 0.0 0.0 
-2.040343519259e-05 4.714224400911e-05 0.0 
4.714224400911e-05 1.577052849282e-03 0.0 
0.0 0.0 0.0 
1.335814533511e-06 1.470460146140e-04 0.0 
1.470460146140e-04 1.365244766486e-03 0.0 
0.0 0.0 0.0 
1.327708500668e-05 6.308266277565e-05 0.0 
6.308266277565e-05 1.233547623460e-03 0.0 
0.0 0.0 0.0 
2.035290507426e-06 1.392968173212e-04 0.0 
1.392968173212e-04 1.298021505860e-03 0.0 
0.0 0.0 0.0 
-6.967879636111e-06 1.158331405730e-04 0.0 
1.158331405730e-04 2.900061148148e-04 0.0 
0.0 0.0 0.0 
-5.941927072133e-05 2.002786964065e-05 0.0 
2.002786964065e-05 1.233951680805e-03 0.0 
0.0 0.0 0.0 
-1.806635208096e-05 1.330055731281e-04 0.0 
1.330055731281e-04 1.469573794873e-03 0.0 
0.0 0.0 0.0 
-2.661096278391e-05 6.013637535823e-06 0.0 
6.013637535823e-06 1.435257638304e-03 0.0 
0.0 0.0 0.0 
1.281403540836e-05 5.138878908026e-05 0.0 
5.138878908026e-05 1.228669051811e-03 0.0 
0.0 0.0 0.0 
-5.501803788830e-05 1.060681868584e-05 0.0 
1.060681868584e-05 1.175693030483e-03 0.0 
0.0 0.0 0.0 
-1.196181804614e-05 1.219434814928e-05 0.0 
1.219434814928e-05 1.589090438534e-03 0.0 
0.0 0.0 0.0 
3.414183038430e-05 3.402689512496e-06 0.0 
3.402689512496e-06 2.095918604773e-04 0.0 
0.0 0.0 0.0 
-1.117306874296e-05 6.532346384014e-06 0.0 
6.532346384014e-06 1.590112693679e-03 0.0 
0.0 0.0 0.0 
-4.703573661021e-05 9.967425889416e-05 0.0 
9.967425889416e-05 1.397202588069e-03 0.0 
0.0 0.0 0.0 
-3.858046879853e-05 5.212014562570e-06 0.0 
5.212014562570e-06 1.254888491714e-03 0.0 
0.0 0.0 0.0 
-6.572344175781e-05 2.866512216073e-05 0.0 
2.866512216073e-05 1.228423864014e-03 0.0 
0.0 0.0 0.0 
2.145682288705e-05 1.721386633448e-05 0.0 
1.721386633448e-05 1.157151793374e-03 0.0 
0.0 0.0 0.0 
-2.594285689315e-05 8.845837439502e-05 0.0 
8.845837439502e-05 1.548359119166e-03 0.0 
0.0 0.0 0.0 
-9.921381344670e-06 8.789517921896e-05 0.0 
8.789517921896e-05 2.050634109635e-04 0.0 
0.0 0.0 0.0 
-3.015693055124e-05 6.135709410101e-06 0.0 
6.135709410101e-06 1.384188691349e-03 0.0 
0.0 0.0 0.0 
5.780902006420e-05 -2.648125219881e-06 0.0 
-2.648125219881e-06 4.941911324746e-04 0.0 
0.0 0.0 0.0 
-3.148179815286e-05 -8.483841653674e-06 0.0 
-8.483841653674e-06 9.626953680919e-05 0.0 
0.0 0.0 0.0 
2.643822063622e-05 7.460912994197e-05 0.0 
7.460912994197e-05 1.180866698465e-03 0.0 
0.0 0.0 0.0 
-3.765306397045e-05 1.061046398395e-04 0.0 
1.061046398395e-04 1.447450826731e-03 0.0 
0.0 0.0 0.0 
2.236663806503e-05 2.903568439586e-05 0.0 
2.903568439586e-05 1.155837165788e-03 0.0 
0.0 0.0 0.0 
1.198652814165e-05 -1.471628093790e-06 0.0 
-1.471628093790e-06 1.322187141475e-04 0.0 
0.0 0.0 0.0 
-9.981450528529e-06 -1.165742503511e-05 0.0 
-1.165742503511e-05 8.256003175489e-05 0.0 
0.0 0.0 0.0 
2.477948499346e-05 9.039801619655e-05 0.0 
9.039801619655e-05 1.208488094526e-03 0.0 
0.0 0.0 0.0 
-2.192806265259e-05 1.201507361665e-04 0.0 
1.201507361665e-04 1.509611942067e-03 0.0 
0.0 0.0 0.0 
3.874947388631e-05 8.592617343552e-07 0.0 
8.592617343552e-07 2.364439393432e-04 0.0 
0.0 0.0 0.0 
-7.982177958565e-06 4.078161646069e-05 0.0 
4.078161646069e-05 1.637959437530e-03 0.0 
0.0 0.0 0.0 
-3.146570961867e-05 5.952801392355e-05 0.0 
5.952801392355e-05 1.304560092695e-04 0.0 
0.0 0.0 0.0 
-4.624452549642e-05 2.438398715102e-06 0.0 
2.438398715102e-06 1.118583074029e-03 0.0 
0.0 0.0 0.0 
-6.611010427611e-07 -8.665656561288e-06 0.0 
-8.665656561288e-06 8.244699032685e-05 0.0 
0.0 0.0 0.0 
1.220113269453e-05 3.723936119184e-05 0.0 
3.723936119184e-05 1.222058097890e-03 0.0 
0.0 0.0 0.0 
-1.541279988642e-05 3.049142983835e-05 0.0 
3.049142983835e-05 1.589065652302e-03 0.0 
0.0 0.0 0.0 
6.037649875466e-05 3.852156416186e-07 0.0 
3.852156416186e-07 5.476133410163e-04 0.0 
0.0 0.0 0.0 
-6.606202359101e-05 1.748699364646e-05 0.0 
1.748699364646e-05 1.134336241051e-03 0.0 
0.0 0.0 0.0 
4.143723101369e-05 -3.078962778662e-06 0.0 
-3.078962778662e-06 3.531007846445e-04 0.0 
0.0 0.0 0.0 
-1.264671879835e-05 1.396158501744e-04 0.0 
1.396158501744e-04 1.378987771707e-03 0.0 
0.0 0.0 0.0 
-3.019519191128e-06 -1.694302907674e-05 0.0 
-1.694302907674e-05 1.285830634483e-04 0.0 
0.0 0.0 0.0 
-1.327175431063e-05 2.166388223470e-05 0.0 
2.166388223470e-05 1.596057600082e-03 0.0 
0.0 0.0 0.0 
2.309915979501e-05 1.063717377909e-04 0.0 
1.063717377909e-04 1.233532062703e-03 0.0 
0.0 0.0 0.0 
-2.145315606077e-05 6.593353644296e-05 0.0 
6.593353644296e-05 1.578803202254e-03 0.0 
0.0 0.0 0.0 
5.126779540721e-06 1.515068847806e-04 0.0 
1.515068847806e-04 1.384435984117e-03 0.0 
0.0 0.0 0.0 
-3.023888658109e-05 1.482439134285e-05 0.0 
1.482439134285e-05 1.000665490777e-04 0.0 
0.0 0.0 0.0 
-2.946202757204e-06 1.489535908491e-04 0.0 
1.489535908491e-04 1.400695805960e-03 0.0 
0.0 0.0 0.0 
3.194698448401e-05 1.125338313126e-04 0.0 
1.125338313126e-04 1.188642244651e-03 0.0 
0.0 0.0 0.0 
-4.177138476029e-05 1.975186204326e-06 0.0 
1.975186204326e-06 1.123082732318e-03 0.0 
0.0 0.0 0.0 
-2.403428642157e-05 7.862453892682e-05 0.0 
7.862453892682e-05 1.561335280331e-03 0.0 
0.0 0.0 0.0 
5.148220852327e-05 -2.579771460245e-06 0.0 
-2.579771460245e-06 4.393990673952e-04 0.0 
0.0 0.0 0.0 
1.748050901940e-05 -1.120754667262e-05 0.0 
-1.120754667262e-05 1.812356341698e-04 0.0 
0.0 0.0 0.0 
-4.432698252788e-06 2.034555654355e-06 0.0 
2.034555654355e-06 1.643053480781e-03 0.0 
0.0 0.0 0.0 
-1.130315170128e-07 -5.726956224322e-07 0.0 
-5.726956224322e-07 2.878637836310e-05 0.0 
0.0 0.0 0.0 
-3.962290944208e-05 -3.896869656193e-07 0.0 
-3.896869656193e-07 1.118366283055e-03 0.0 
0.0 0.0 0.0 
9.960842456547e-06 6.156472821023e-06 0.0 
6.156472821023e-06 1.219766451910e-03 0.0 
0.0 0.0 0.0 
1.781195125141e-05 -6.672663227683e-06 0.0 
-6.672663227683e-06 1.718105412027e-04 0.0 
0.0 0.0 0.0 
-3.738160971707e-05 7.562465358474e-07 0.0 
7.562465358474e-07 1.221112663595e-03 0.0 
0.0 0.0 0.0 
-2.240231423906e-05 1.131808446022e-04 0.0 
1.131808446022e-04 1.524988065549e-03 0.0 
0.0 0.0 0.0 
6.320483600382e-05 1.108276707265e-06 0.0 
1.108276707265e-06 6.832644778732e-04 0.0 
0.0 0.0 0.0 
-2.085048671405e-05 3.104046925175e-06 0.0 
3.104046925175e-06 1.495563841092e-03 0.0 
0.0 0.0 0.0 
1.335298357672e-05 -1.488454366769e-05 0.0 
-1.488454366769e-05 1.747975200156e-04 0.0 
0.0 0.0 0.0 
-7.030723531069e-05 -5.695373218468e-06 0.0 
-5.695373218468e-06 6.253280055191e-05 0.0 
0.0 0.0 0.0 
-3.282465252921e-05 1.594239689232e-06 0.0 
1.594239689232e-06 1.331005200554e-03 0.0 
0.0 0.0 0.0 
5.055574619206e-06 1.480782565218e-04 0.0 
1.480782565218e-04 1.356756063800e-03 0.0 
0.0 0.0 0.0 
-1.892507214822e-05 5.313023271425e-05 0.0 
5.313023271425e-05 1.589315095605e-03 0.0 
0.0 0.0 0.0 
-3.663592904621e-05 5.487066921525e-06 0.0 
5.487066921525e-06 1.288683887464e-03 0.0 
0.0 0.0 0.0 
1.626402952573e-05 7.502473030788e-05 0.0 
7.502473030788e-05 2.209539032171e-04 0.0 
0.0 0.0 0.0 
-2.950080184436e-05 1.122956120133e-04 0.0 
1.122956120133e-04 1.487501427314e-03 0.0 
0.0 0.0 0.0 
6.331759110282e-05 7.856766687303e-07 0.0 
7.856766687303e-07 5.945234395350e-04 0.0 
0.0 0.0 0.0 
-2.232066252015e-05 1.314706481791e-04 0.0 
1.314706481791e-04 1.424869645820e-03 0.0 
0.0 0.0 0.0 
2.537715356499e-05 1.239709806820e-04 0.0 
1.239709806820e-04 1.221886735665e-03 0.0 
0.0 0.0 0.0 
-6.254818955389e-05 6.342024604024e-05 0.0 
6.342024604024e-05 8.909526916399e-05 0.0 
0.0 0.0 0.0 
6.263924280083e-05 1.691555255236e-06 0.0 
1.691555255236e-06 7.398026298117e-04 0.0 
0.0 0.0 0.0 
-6.374762678596e-06 -9.478828119712e-06 0.0 
-9.478828119712e-06 7.825639242505e-05 0.0 
0.0 0.0 0.0 
2.212408850073e-05 5.533193341060e-05 0.0 
5.533193341060e-05 1.183009038291e-03 0.0 
0.0 0.0 0.0 
6.313994650964e-05 7.499825906167e-07 0.0 
7.499825906167e-07 6.218707290034e-04 0.0 
0.0 0.0 0.0 
-9.875354385874e-06 2.114776278610e-05 0.0 
2.114776278610e-05 6.399670936004e-04 0.0 
0.0 0.0 0.0 
-4.314138624478e-05 1.196547839711e-06 0.0 
1.196547839711e-06 6.552229205895e-04 0.0 
0.0 0.0 0.0 
-3.354040649645e-05 2.358092263869e-05 0.0 
2.358092263869e-05 7.048814330705e-04 0.0 
0.0 0.0 0.0 
-3.891992138030e-05 -4.118456559896e-07 0.0 
-4.118456559896e-07 7.208320620289e-04 0.0 
0.0 0.0 0.0 
-4.705350042944e-05 1.919241279401e-05 0.0 
1.919241279401e-05 7.733015514908e-04 0.0 
0.0 0.0 0.0 
-3.828328253846e-05 -6.171157455387e-07 0.0 
-6.171157455387e-07 7.813046102719e-04 0.0 
0.0 0.0 0.0 
-5.681017614093e-05 1.374043328179e-05 0.0 
1.374043328179e-05 8.413270959723e-04 0.0 
0.0 0.0 0.0 
-3.866755321300e-05 -5.960186947167e-07 0.0 
-5.960186947167e-07 8.496070960332e-04 0.0 
0.0 0.0 0.0 
-6.215954787575e-05 1.069968619372e-05 0.0 
1.069968619372e-05 9.082790627042e-04 0.0 
0.0 0.0 0.0 
-3.932827211239e-05 -4.836633754931e-07 0.0 
-4.836633754931e-07 9.106208196082e-04 0.0 
0.0 0.0 0.0 
-6.481513729764e-05 9.155598480274e-06 0.0 
9.155598480274e-06 9.745463605828e-04 0.0 
0.0 0.0 0.0 
-3.971067436706e-05 -1.637671128484e-07 0.0 
-1.637671128484e-07 9.787711346446e-04 0.0 
0.0 0.0 0.0 
-6.488675461286e-05 9.437740691646e-06 0.0 
9.437740691646e-06 1.039749002901e-03 0.0 
0.0 0.0 0.0 
-4.036342419664e-05 7.297622857462e-07 0.0 
7.297622857462e-07 1.039360050702e-03 0.0 
0.0 0.0 0.0 

TENSORS node_materi_strain_plasti float
-2.612663767757e-06 -3.252607646113e-07 0.0 
-3.252607646113e-07 2.093720605042e-05 0.0 
0.0 0.0 -4.924303274428e-06 
-1.079056608654e-04 -1.683663743376e-05 0.0 
-1.683663743376e-05 6.796608024097e-04 0.0 
0.0 0.0 -1.043867513459e-04 
-1.990082416844e-04 1.461466422752e-05 0.0 
1.461466422752e-05 1.338163054070e-03 0.0 
0.0 0.0 -1.998931639748e-04 
-1.992789450115e-04 -1.457804817178e-05 0.0 
-1.457804817178e-05 1.339096739606e-03 0.0 
0.0 0.0 -1.998931639748e-04 
-1.229078891716e-05 5.366280014175e-06 0.0 
5.366280014175e-06 5.053145956954e-05 0.0 
0.0 0.0 -1.268018299698e-05 
-2.543886988905e-05 1.901414525611e-05 0.0 
1.901414525611e-05 1.267844857367e-04 0.0 
0.0 0.0 -2.428620303623e-05 
-3.444505010393e-05 1.562750611400e-05 0.0 
1.562750611400e-05 1.836714106930e-04 0.0 
0.0 0.0 -3.399136149544e-05 
-4.457783022682e-05 1.417525000785e-05 0.0 
1.417525000785e-05 2.618842628781e-04 0.0 
0.0 0.0 -4.406465996183e-05 
-5.572937533165e-05 1.046680884978e-05 0.0 
1.046680884978e-05 3.321775894220e-04 0.0 
0.0 0.0 -5.415704333790e-05 
-6.374532394610e-05 9.877096268525e-06 0.0 
9.877096268525e-06 3.996726964643e-04 0.0 
0.0 0.0 -6.415842296661e-05 
-7.312975922456e-05 1.092726545402e-05 0.0 
1.092726545402e-05 4.685103703879e-04 0.0 
0.0 0.0 -7.410179773499e-05 
-8.340975388222e-05 9.760341255261e-06 0.0 
9.760341255261e-06 5.380090096821e-04 0.0 
0.0 0.0 -8.402736785582e-05 
-9.329317044903e-05 9.748725627981e-06 0.0 
9.748725627981e-06 6.067337971893e-04 0.0 
0.0 0.0 -9.400794208654e-05 
-1.048395173574e-04 1.245666822366e-05 0.0 
1.245666822366e-05 6.774763461161e-04 0.0 
0.0 0.0 -1.040542782181e-04 
-1.176369272068e-04 1.876149311443e-05 0.0 
1.876149311443e-05 7.541898349339e-04 0.0 
0.0 0.0 -1.141079629734e-04 
-1.251371721908e-04 1.991670015406e-05 0.0 
1.991670015406e-05 8.235151932197e-04 0.0 
0.0 0.0 -1.240613786258e-04 
-1.319668018372e-04 2.596472290694e-05 0.0 
2.596472290694e-05 8.806369836317e-04 0.0 
0.0 0.0 -1.335504265687e-04 
-1.429595426911e-04 1.016247294305e-05 0.0 
1.016247294305e-05 9.540683438175e-04 0.0 
0.0 0.0 -1.433712649586e-04 
-1.532202596459e-04 9.657610282115e-06 0.0 
9.657610282115e-06 1.025836369529e-03 0.0 
0.0 0.0 -1.536785213545e-04 
-1.630955816410e-04 9.924116732642e-06 0.0 
9.924116732642e-06 1.095392565861e-03 0.0 
0.0 0.0 -1.636867096734e-04 
-1.736417197982e-04 9.148824907428e-06 0.0 
9.148824907428e-06 1.166298828267e-03 0.0 
0.0 0.0 -1.737495185000e-04 
-1.844935295981e-04 1.136666883781e-05 0.0 
1.136666883781e-05 1.237760949854e-03 0.0 
0.0 0.0 -1.839110754151e-04 
-1.928395893447e-04 1.466620459946e-05 0.0 
1.466620459946e-05 1.307601711888e-03 0.0 
0.0 0.0 -1.934749151625e-04 
-1.992084498245e-04 -9.667205419172e-07 0.0 
-9.667205419172e-07 1.341308611164e-03 0.0 
0.0 0.0 -2.005353038101e-04 
-2.003235822205e-04 -4.576902611969e-07 0.0 
-4.576902611969e-07 1.339283177977e-03 0.0 
0.0 0.0 -1.999418651152e-04 
-2.004195521241e-04 -9.594112326717e-06 0.0 
-9.594112326717e-06 1.337828695600e-03 0.0 
0.0 0.0 -2.002354755130e-04 
-2.008845907091e-04 4.519063874005e-06 0.0 
4.519063874005e-06 1.338578482993e-03 0.0 
0.0 0.0 -2.001689849711e-04 
-2.005719087583e-04 -1.259819984252e-06 0.0 
-1.259819984252e-06 1.336698736025e-03 0.0 
0.0 0.0 -1.998101597465e-04 
-2.003033749392e-04 1.612771953849e-07 0.0 
1.612771953849e-07 1.336699884288e-03 0.0 
0.0 0.0 -2.002576402756e-04 
-1.988174270910e-04 4.435871277180e-07 0.0 
4.435871277180e-07 1.338020991228e-03 0.0 
0.0 0.0 -2.002582685247e-04 
-2.006018029555e-04 -1.428553602928e-06 0.0 
-1.428553602928e-06 1.338259915715e-03 0.0 
0.0 0.0 -2.000295381545e-04 
-2.002076965602e-04 -6.442142530929e-06 0.0 
-6.442142530929e-06 1.339568721789e-03 0.0 
0.0 0.0 -2.004389858384e-04 
-2.006688150029e-04 4.111887006866e-06 0.0 
4.111887006866e-06 1.340190933063e-03 0.0 
0.0 0.0 -2.003568725688e-04 
-2.004204281591e-04 -1.032720327526e-06 0.0 
-1.032720327526e-06 1.338293566306e-03 0.0 
0.0 0.0 -1.999970921405e-04 
-2.007190085647e-04 -7.221768717102e-07 0.0 
-7.221768717102e-07 1.338675392550e-03 0.0 
0.0 0.0 -2.003793839065e-04 
-1.990986785052e-04 -1.590259053492e-08 0.0 
-1.590259053492e-08 1.341350099485e-03 0.0 
0.0 0.0 -2.004146187826e-04 
-2.007914892723e-04 -4.264335361637e-07 0.0 
-4.264335361637e-07 1.339816171211e-03 0.0 
0.0 0.0 -2.002852565091e-04 
-1.994100966532e-04 -1.572894639504e-06 0.0 
-1.572894639504e-06 1.338161131957e-03 0.0 
0.0 0.0 -2.001446319728e-04 
-2.007511256741e-04 1.494960023589e-06 0.0 
1.494960023589e-06 1.335513206817e-03 0.0 
0.0 0.0 -1.998462653075e-04 
-2.008601944157e-04 -3.837724735002e-07 0.0 
-3.837724735002e-07 1.334384440132e-03 0.0 
0.0 0.0 -1.998029376683e-04 
-1.990688471561e-04 2.458886044847e-07 0.0 
2.458886044847e-07 1.337655076969e-03 0.0 
0.0 0.0 -2.000088186226e-04 
-2.001853082778e-04 -6.402158915260e-07 0.0 
-6.402158915260e-07 1.339281899659e-03 0.0 
0.0 0.0 -2.002091174222e-04 
-2.005241707287e-04 -7.501540653691e-07 0.0 
-7.501540653691e-07 1.339203182872e-03 0.0 
0.0 0.0 -2.004865334549e-04 
-2.005853306472e-04 2.540125145858e-06 0.0 
2.540125145858e-06 1.339503555012e-03 0.0 
0.0 0.0 -2.003832587333e-04 
-1.997808965748e-04 -1.605993664680e-07 0.0 
-1.605993664680e-07 1.339666309980e-03 0.0 
0.0 0.0 -2.002174839672e-04 
-2.003075530794e-04 4.838064349886e-07 0.0 
4.838064349886e-07 1.338766324707e-03 0.0 
0.0 0.0 -2.002580803729e-04 
-2.003470639015e-04 -2.444069971792e-07 0.0 
-2.444069971792e-07 1.338072796155e-03 0.0 
0.0 0.0 -2.002440284024e-04 
-2.004510673748e-04 -1.928377971683e-07 0.0 
-1.928377971683e-07 1.340065919944e-03 0.0 
0.0 0.0 -2.002334986692e-04 
-1.995883615915e-04 -7.312419057629e-07 0.0 
-7.312419057629e-07 1.340320439837e-03 0.0 
0.0 0.0 -2.003661129950e-04 
-2.011747927060e-04 -8.722415594416e-07 0.0 
-8.722415594416e-07 1.340079435223e-03 0.0 
0.0 0.0 -2.004908485340e-04 
-1.995361419384e-04 -6.780112919621e-07 0.0 
-6.780112919621e-07 1.340717740891e-03 0.0 
0.0 0.0 -2.004762665914e-04 
-2.008009995012e-04 -8.793815483888e-07 0.0 
-8.793815483888e-07 1.341377617168e-03 0.0 
0.0 0.0 -2.003014926434e-04 
-2.004900975472e-04 -5.374113392905e-06 0.0 
-5.374113392905e-06 1.342707157093e-03 0.0 
0.0 0.0 -2.006997735404e-04 
-2.011614755125e-04 5.177742394411e-06 0.0 
5.177742394411e-06 1.341994191491e-03 0.0 
0.0 0.0 -2.005870641008e-04 
-2.001672680472e-04 1.642921574497e-06 0.0 
1.642921574497e-06 1.338462129955e-03 0.0 
0.0 0.0 -2.000675234999e-04 
-1.999895739659e-04 -6.988816100885e-09 0.0 
-6.988816100885e-09 1.336248125534e-03 0.0 
0.0 0.0 -2.001823097425e-04 
-2.001225026340e-04 -1.240829705364e-06 0.0 
-1.240829705364e-06 1.339474803775e-03 0.0 
0.0 0.0 -2.001929620191e-04 
-1.997428951088e-04 -2.864922555171e-07 0.0 
-2.864922555171e-07 1.339287980767e-03 0.0 
0.0 0.0 -2.002863172658e-04 
-2.011305945918e-04 -1.592599752619e-06 0.0 
-1.592599752619e-06 1.339001312879e-03 0.0 
0.0 0.0 -2.003537156312e-04 
-1.994489271156e-04 -3.123074052844e-07 0.0 
-3.123074052844e-07 1.340206734430e-03 0.0 
0.0 0.0 -2.003469717371e-04 
-2.008676553467e-04 -6.044515584205e-08 0.0 
-6.044515584205e-08 1.338725412238e-03 0.0 
0.0 0.0 -2.002396863610e-04 
-1.992453131624e-04 -1.009025233623e-06 0.0 
-1.009025233623e-06 1.337264745438e-03 0.0 
0.0 0.0 -2.001151187552e-04 
-2.007508866938e-04 2.802615914654e-07 0.0 
2.802615914654e-07 1.337086357069e-03 0.0 
0.0 0.0 -1.998355947622e-04 
-2.010860201950e-04 -2.268840142145e-06 0.0 
-2.268840142145e-06 1.337518567927e-03 0.0 
0.0 0.0 -2.000624918399e-04 
-1.999308478327e-04 1.605132680389e-06 0.0 
1.605132680389e-06 1.340948129084e-03 0.0 
0.0 0.0 -2.004978758543e-04 
-1.989515291925e-04 -1.597226336294e-06 0.0 
-1.597226336294e-06 1.342999130641e-03 0.0 
0.0 0.0 -2.005641941534e-04 
-2.002462740351e-04 -1.655488014151e-06 0.0 
-1.655488014151e-06 1.333093131656e-03 0.0 
0.0 0.0 -1.993486092159e-04 
-1.990090833406e-04 5.684559175637e-07 0.0 
5.684559175637e-07 1.340609276749e-03 0.0 
0.0 0.0 -2.003850096553e-04 
-2.008054096670e-04 9.372155481796e-08 0.0 
9.372155481796e-08 1.339007845984e-03 0.0 
0.0 0.0 -1.998785251170e-04 
-2.008250670669e-04 -6.084757154766e-06 0.0 
-6.084757154766e-06 1.338299561836e-03 0.0 
0.0 0.0 -2.002828574513e-04 
-2.004005035862e-04 2.502291620358e-06 0.0 
2.502291620358e-06 1.342657178018e-03 0.0 
0.0 0.0 -2.004849633189e-04 
-2.007882536758e-04 -1.247747538696e-07 0.0 
-1.247747538696e-07 1.343259988120e-03 0.0 
0.0 0.0 -2.003783523096e-04 
-1.146671904274e-04 -1.178176757847e-05 0.0 
-1.178176757847e-05 7.450986713540e-04 0.0 
0.0 0.0 -1.147343130870e-04 
-1.264453810116e-04 -1.334151081515e-05 0.0 
-1.334151081515e-05 8.198209596703e-04 0.0 
0.0 0.0 -1.244847198447e-04 
-1.356765189360e-04 -1.297470350471e-05 0.0 
-1.297470350471e-05 8.891398730811e-04 0.0 
0.0 0.0 -1.343891602869e-04 
-1.452353386135e-04 -1.385252952600e-05 0.0 
-1.385252952600e-05 9.563155137830e-04 0.0 
0.0 0.0 -1.441570129583e-04 
-1.551452079967e-04 -1.219781350268e-05 0.0 
-1.219781350268e-05 1.026181140671e-03 0.0 
0.0 0.0 -1.540481715075e-04 
-1.626979226826e-04 -1.337619385664e-05 0.0 
-1.337619385664e-05 1.096146543984e-03 0.0 
0.0 0.0 -1.639185295300e-04 
-1.730204163278e-04 -1.189570542028e-05 0.0 
-1.189570542028e-05 1.165335265964e-03 0.0 
0.0 0.0 -1.737435638217e-04 
-1.827904030233e-04 -1.370279642459e-05 0.0 
-1.370279642459e-05 1.231374955592e-03 0.0 
0.0 0.0 -1.836722557877e-04 
-1.920175721782e-04 -1.513479483673e-05 0.0 
-1.513479483673e-05 1.306410256595e-03 0.0 
0.0 0.0 -1.933173094176e-04 
-2.628312394672e-06 4.861178510582e-06 0.0 
4.861178510582e-06 1.556544794842e-05 0.0 
0.0 0.0 -4.409292559605e-06 
-1.048316007749e-04 -9.621305853345e-07 0.0 
-9.621305853345e-07 6.811678198845e-04 0.0 
0.0 0.0 -1.041824356080e-04 
-1.603258868989e-05 6.293505815657e-06 0.0 
6.293505815657e-06 6.888897348946e-05 0.0 
0.0 0.0 -1.632019118638e-05 
-2.756708965862e-05 9.954179369459e-06 0.0 
9.954179369459e-06 1.392031922928e-04 0.0 
0.0 0.0 -2.693367542308e-05 
-3.549057634259e-05 7.433844138118e-06 0.0 
7.433844138118e-06 2.096153175209e-04 0.0 
0.0 0.0 -3.665929951561e-05 
-4.239577254127e-05 2.241292013527e-06 0.0 
2.241292013527e-06 2.540904609616e-04 0.0 
0.0 0.0 -4.361962961408e-05 
-5.200855234888e-05 2.436357541103e-06 0.0 
2.436357541103e-06 3.241483764866e-04 0.0 
0.0 0.0 -5.364127140931e-05 
-6.051274250007e-05 -6.301292665323e-07 0.0 
-6.301292665323e-07 3.944343599617e-04 0.0 
0.0 0.0 -6.369887817887e-05 
-7.141834889080e-05 9.678265043946e-08 0.0 
9.678265043946e-08 4.646211674391e-04 0.0 
0.0 0.0 -7.370455344612e-05 
-8.170243524055e-05 5.000006177169e-08 0.0 
5.000006177169e-08 5.347878226306e-04 0.0 
0.0 0.0 -8.371130494101e-05 
-9.180060726483e-05 -4.722006417284e-07 0.0 
-4.722006417284e-07 6.049326733472e-04 0.0 
0.0 0.0 -9.373011205136e-05 
-4.205061020873e-05 -2.433968864640e-05 0.0 
-2.433968864640e-05 2.234283873345e-04 0.0 
0.0 0.0 -3.733333333333e-05 
-4.479954490040e-05 -3.034758567600e-05 0.0 
-3.034758567600e-05 2.608172571825e-04 0.0 
0.0 0.0 -4.400000000000e-05 
-5.460502904689e-05 -2.471936197141e-05 0.0 
-2.471936197141e-05 3.301921564289e-04 0.0 
0.0 0.0 -5.400000000000e-05 
-6.456638670251e-05 -3.069381358953e-05 0.0 
-3.069381358953e-05 3.997152644097e-04 0.0 
0.0 0.0 -6.400000000000e-05 
-7.449630958426e-05 -2.494664394193e-05 0.0 
-2.494664394193e-05 4.692561610563e-04 0.0 
0.0 0.0 -7.400000000000e-05 
-8.434259877890e-05 -3.002568002087e-05 0.0 
-3.002568002087e-05 5.385348917960e-04 0.0 
0.0 0.0 -8.400000000000e-05 
-9.370207488884e-05 -2.126272979996e-05 0.0 
-2.126272979996e-05 6.064301356153e-04 0.0 
0.0 0.0 -9.400000000000e-05 
-1.036969649510e-04 8.247914357618e-06 0.0 
8.247914357618e-06 6.682236523530e-04 0.0 
0.0 0.0 -1.031244360596e-04 
-1.030331121809e-04 6.398061947281e-07 0.0 
6.398061947281e-07 6.730085857154e-04 0.0 
0.0 0.0 -1.036639830904e-04 
-1.040246848300e-04 6.551258288294e-07 0.0 
6.551258288294e-07 6.737003815122e-04 0.0 
0.0 0.0 -1.036786795573e-04 
-1.036199691061e-04 -1.060092899920e-06 0.0 
-1.060092899920e-06 6.728402332334e-04 0.0 
0.0 0.0 -1.035503476195e-04 
-1.036187730866e-04 6.987826892712e-07 0.0 
6.987826892712e-07 6.843234116976e-04 0.0 
0.0 0.0 -1.047113471711e-04 
-1.033931728263e-04 8.121956357098e-07 0.0 
8.121956357098e-07 6.742373380345e-04 0.0 
0.0 0.0 -1.036717283195e-04 
-1.019647128334e-04 -9.227752753182e-07 0.0 
-9.227752753182e-07 6.731432047700e-04 0.0 
0.0 0.0 -1.035575096558e-04 
-1.024936313905e-04 1.772285713447e-06 0.0 
1.772285713447e-06 6.748371062497e-04 0.0 
0.0 0.0 -1.035838249569e-04 
-1.042470993802e-04 3.635416729023e-07 0.0 
3.635416729023e-07 6.762559263978e-04 0.0 
0.0 0.0 -1.038366668071e-04 
-1.045602445557e-04 1.897285970682e-06 0.0 
1.897285970682e-06 6.765304608455e-04 0.0 
0.0 0.0 -1.037414779538e-04 
-1.033276288020e-04 1.064407616834e-06 0.0 
1.064407616834e-06 6.759918874459e-04 0.0 
0.0 0.0 -1.036749887244e-04 
-1.038467522998e-04 5.163460192194e-07 0.0 
5.163460192194e-07 6.750993881616e-04 0.0 
0.0 0.0 -1.036742376103e-04 
-1.031100844336e-04 2.320623075698e-06 0.0 
2.320623075698e-06 6.745066352922e-04 0.0 
0.0 0.0 -1.037248800197e-04 
-1.035625589850e-04 3.164755832638e-06 0.0 
3.164755832638e-06 6.761520668862e-04 0.0 
0.0 0.0 -1.038372224314e-04 
-3.888660396223e-06 -2.385114651317e-06 0.0 
-2.385114651317e-06 2.042711759429e-05 0.0 
0.0 0.0 -4.472331749510e-06 
-5.169101753905e-06 -7.084154542495e-07 0.0 
-7.084154542495e-07 2.271348961565e-05 0.0 
0.0 0.0 -4.502040609288e-06 
-2.364246160799e-06 1.028376057694e-06 0.0 
1.028376057694e-06 2.131091607623e-05 0.0 
0.0 0.0 -4.337518410806e-06 
-1.587498611084e-06 -3.133011703373e-06 0.0 
-3.133011703373e-06 2.050781746996e-05 0.0 
0.0 0.0 -4.334754490686e-06 
-5.046560316982e-06 -4.634948452893e-06 0.0 
-4.634948452893e-06 2.392890582554e-05 0.0 
0.0 0.0 -4.561117883842e-06 
-6.265007612969e-06 -9.207565944816e-07 0.0 
-9.207565944816e-07 2.697395437511e-05 0.0 
0.0 0.0 -4.603166802451e-06 
-5.736513677339e-06 8.387511243071e-08 0.0 
8.387511243071e-08 2.687139260663e-05 0.0 
0.0 0.0 -4.588253942932e-06 
-4.839540945368e-06 -2.011555288387e-07 0.0 
-2.011555288387e-07 2.583465999306e-05 0.0 
0.0 0.0 -4.580819930830e-06 
-4.612792911559e-06 -5.630253563300e-07 0.0 
-5.630253563300e-07 2.605477154738e-05 0.0 
0.0 0.0 -4.566377142626e-06 
-3.958290915494e-06 -1.184167375848e-06 0.0 
-1.184167375848e-06 2.564531167106e-05 0.0 
0.0 0.0 -4.572797242576e-06 
-4.022129294500e-06 -2.439723680986e-06 0.0 
-2.439723680986e-06 2.664958176089e-05 0.0 
0.0 0.0 -4.590091569785e-06 
-6.268342663527e-06 6.977096205287e-07 0.0 
6.977096205287e-07 2.905288206764e-05 0.0 
0.0 0.0 -4.700025780019e-06 
-5.376994636987e-06 4.381417467922e-06 0.0 
4.381417467922e-06 2.721428218001e-05 0.0 
0.0 0.0 -4.652230755744e-06 
-2.838762493559e-06 1.392931258625e-06 0.0 
1.392931258625e-06 2.367722917541e-05 0.0 
0.0 0.0 -4.515582628821e-06 
-3.990779392774e-06 -6.597448414294e-07 0.0 
-6.597448414294e-07 2.387859913914e-05 0.0 
0.0 0.0 -4.562958168800e-06 
-6.201113197701e-06 2.425591329864e-07 0.0 
2.425591329864e-07 2.634678490736e-05 0.0 
0.0 0.0 -4.590849357655e-06 
-6.954870756755e-06 8.464675035122e-07 0.0 
8.464675035122e-07 2.697964767619e-05 0.0 
0.0 0.0 -4.587172474505e-06 
-4.599856540822e-06 4.128708826148e-06 0.0 
4.128708826148e-06 2.250512897823e-05 0.0 
0.0 0.0 -4.562260372237e-06 
-2.212869655358e-06 7.040915964333e-07 0.0 
7.040915964333e-07 1.983031900883e-05 0.0 
0.0 0.0 -4.417496077222e-06 
-2.337349421191e-05 5.677941346052e-07 0.0 
5.677941346052e-07 2.017077179393e-04 0.0 
0.0 0.0 -3.713096187166e-05 
-3.446533530736e-05 -3.667138323784e-06 0.0 
-3.667138323784e-06 2.290424688493e-04 0.0 
0.0 0.0 -3.884822140375e-05 
-3.763994569612e-05 3.517126468248e-06 0.0 
3.517126468248e-06 2.341577077309e-04 0.0 
0.0 0.0 -3.844444444444e-05 
-3.981568934844e-05 -3.592038752251e-07 0.0 
-3.592038752251e-07 2.336081678955e-04 0.0 
0.0 0.0 -3.844444444444e-05 
-3.897052653918e-05 1.307900620410e-06 0.0 
1.307900620410e-06 2.342916720410e-04 0.0 
0.0 0.0 -3.844444444444e-05 
-3.928213030753e-05 5.832115136733e-07 0.0 
5.832115136733e-07 2.338402033016e-04 0.0 
0.0 0.0 -3.844444444444e-05 
-3.904342655576e-05 9.161580002906e-07 0.0 
9.161580002906e-07 2.339406814677e-04 0.0 
0.0 0.0 -3.844444444444e-05 
-3.910117127595e-05 7.849470986229e-07 0.0 
7.849470986229e-07 2.338001686907e-04 0.0 
0.0 0.0 -3.844444444444e-05 
-3.898981730746e-05 8.027658853989e-07 0.0 
8.027658853989e-07 2.337426721789e-04 0.0 
0.0 0.0 -3.844444444444e-05 
-3.896273712929e-05 6.453889302789e-07 0.0 
6.453889302789e-07 2.336552619999e-04 0.0 
0.0 0.0 -3.844444444444e-05 
-3.889906742397e-05 4.685470926378e-07 0.0 
4.685470926378e-07 2.336036832214e-04 0.0 
0.0 0.0 -3.844444444444e-05 
-3.887528460621e-05 2.186192487418e-07 0.0 
2.186192487418e-07 2.335732843364e-04 0.0 
0.0 0.0 -3.844444444444e-05 
-3.887259737096e-05 -3.943957009101e-08 0.0 
-3.943957009101e-08 2.335822968918e-04 0.0 
0.0 0.0 -3.844444444444e-05 
-3.889570132953e-05 -2.706680933533e-07 0.0 
-2.706680933533e-07 2.336179004636e-04 0.0 
0.0 0.0 -3.844444444444e-05 
-3.891932897992e-05 -4.451046654705e-07 0.0 
-4.451046654705e-07 2.336587265035e-04 0.0 
0.0 0.0 -3.844444444444e-05 
-3.893633766652e-05 -5.733901231721e-07 0.0 
-5.733901231721e-07 2.336866208931e-04 0.0 
0.0 0.0 -3.844444444444e-05 
-3.894232777257e-05 -6.675864342514e-07 0.0 
-6.675864342514e-07 2.336931312990e-04 0.0 
0.0 0.0 -3.844444444444e-05 
-3.892991102830e-05 -7.377787833755e-07 0.0 
-7.377787833755e-07 2.336705727064e-04 0.0 
0.0 0.0 -3.844444444444e-05 
-3.888995333097e-05 -7.890014369833e-07 0.0 
-7.890014369833e-07 2.336121637750e-04 0.0 
0.0 0.0 -3.844444444444e-05 
-3.881232474300e-05 -8.175494513687e-07 0.0 
-8.175494513687e-07 2.335157852337e-04 0.0 
0.0 0.0 -3.844444444444e-05 
-3.869466309003e-05 -7.925630850797e-07 0.0 
-7.925630850797e-07 2.333948936491e-04 0.0 
0.0 0.0 -3.844444444444e-05 
-3.854715125950e-05 -6.288421229214e-07 0.0 
-6.288421229214e-07 2.332778196272e-04 0.0 
0.0 0.0 -3.844444444444e-05 
-3.843028103585e-05 -2.570809696767e-07 0.0 
-2.570809696767e-07 2.329435814996e-04 0.0 
0.0 0.0 -3.844444444444e-05 
-3.865130827544e-05 -4.520912525448e-07 0.0 
-4.520912525448e-07 2.263745621390e-04 0.0 
0.0 0.0 -3.844444444444e-05 
-3.537597984663e-05 1.680861553469e-05 0.0 
1.680861553469e-05 2.162362481908e-04 0.0 
0.0 0.0 -3.733333333333e-05 
-4.455327315977e-05 1.167838660116e-05 0.0 
1.167838660116e-05 2.604601866799e-04 0.0 
0.0 0.0 -4.400000000000e-05 
-4.411949662139e-05 2.747099334527e-06 0.0 
2.747099334527e-06 2.598190346923e-04 0.0 
0.0 0.0 -4.400000000000e-05 
-4.406401131858e-05 -2.627410997222e-07 0.0 
-2.627410997222e-07 2.596613345305e-04 0.0 
0.0 0.0 -4.400000000000e-05 
-4.413979454266e-05 -5.879314611794e-07 0.0 
-5.879314611794e-07 2.597036670706e-04 0.0 
0.0 0.0 -4.400000000000e-05 
-4.425161335125e-05 -6.632845015873e-07 0.0 
-6.632845015873e-07 2.598123821449e-04 0.0 
0.0 0.0 -4.400000000000e-05 
-4.435458459021e-05 -6.804876884903e-07 0.0 
-6.804876884903e-07 2.599204827840e-04 0.0 
0.0 0.0 -4.400000000000e-05 
-4.442806416961e-05 -6.802021940728e-07 0.0 
-6.802021940728e-07 2.599953638461e-04 0.0 
0.0 0.0 -4.400000000000e-05 
-4.446670361324e-05 -6.574637951664e-07 0.0 
-6.574637951664e-07 2.600301131491e-04 0.0 
0.0 0.0 -4.400000000000e-05 
-4.448172913590e-05 -6.048167667418e-07 0.0 
-6.048167667418e-07 2.600334851022e-04 0.0 
0.0 0.0 -4.400000000000e-05 
-4.448133099563e-05 -5.161692673206e-07 0.0 
-5.161692673206e-07 2.600126903058e-04 0.0 
0.0 0.0 -4.400000000000e-05 
-4.446956848312e-05 -3.874719342341e-07 0.0 
-3.874719342341e-07 2.599742191345e-04 0.0 
0.0 0.0 -4.400000000000e-05 
-4.444289703346e-05 -2.034956803443e-07 0.0 
-2.034956803443e-07 2.599215045726e-04 0.0 
0.0 0.0 -4.400000000000e-05 
-4.441849143332e-05 6.484075759357e-08 0.0 
6.484075759357e-08 2.598898736161e-04 0.0 
0.0 0.0 -4.400000000000e-05 
-4.443209793791e-05 3.465651675754e-07 0.0 
3.465651675754e-07 2.599002687236e-04 0.0 
0.0 0.0 -4.400000000000e-05 
-4.448687436373e-05 6.177294269502e-07 0.0 
6.177294269502e-07 2.599760522650e-04 0.0 
0.0 0.0 -4.400000000000e-05 
-4.455296902831e-05 7.215046356319e-07 0.0 
7.215046356319e-07 2.600309796975e-04 0.0 
0.0 0.0 -4.400000000000e-05 
-4.459092640311e-05 9.029734736165e-07 0.0 
9.029734736165e-07 2.601693669081e-04 0.0 
0.0 0.0 -4.400000000000e-05 
-4.464455030691e-05 7.094389924431e-07 0.0 
7.094389924431e-07 2.601428842768e-04 0.0 
0.0 0.0 -4.400000000000e-05 
-4.458090555975e-05 1.034786167333e-06 0.0 
1.034786167333e-06 2.603965205166e-04 0.0 
0.0 0.0 -4.400000000000e-05 
-4.467873362862e-05 4.574748873904e-07 0.0 
4.574748873904e-07 2.599271191011e-04 0.0 
0.0 0.0 -4.400000000000e-05 
-4.396213681874e-05 2.188574361429e-06 0.0 
2.188574361429e-06 2.605797292245e-04 0.0 
0.0 0.0 -4.400000000000e-05 
-4.354108487199e-05 -1.114121571067e-06 0.0 
-1.114121571067e-06 2.642457942881e-04 0.0 
0.0 0.0 -4.440087463557e-05 
-3.653623355074e-05 1.890043377624e-06 0.0 
1.890043377624e-06 2.461851802042e-04 0.0 
0.0 0.0 -4.280102040816e-05 
-4.613301209441e-05 3.619110181881e-06 0.0 
3.619110181881e-06 3.157829509857e-04 0.0 
0.0 0.0 -5.279515429360e-05 
-5.272430673223e-05 -9.182146848105e-07 0.0 
-9.182146848105e-07 3.334727456063e-04 0.0 
0.0 0.0 -5.439584653737e-05 
-5.380973540994e-05 1.644998673954e-06 0.0 
1.644998673954e-06 3.302664481471e-04 0.0 
0.0 0.0 -5.400000000000e-05 
-5.466689081061e-05 3.147190341774e-07 0.0 
3.147190341774e-07 3.296224174576e-04 0.0 
0.0 0.0 -5.400000000000e-05 
-5.456479812606e-05 8.907554722933e-07 0.0 
8.907554722933e-07 3.301278746856e-04 0.0 
0.0 0.0 -5.400000000000e-05 
-5.469843557399e-05 7.294571082761e-07 0.0 
7.294571082761e-07 3.297896585847e-04 0.0 
0.0 0.0 -5.400000000000e-05 
-5.455713654919e-05 8.293328218573e-07 0.0 
8.293328218573e-07 3.297859209611e-04 0.0 
0.0 0.0 -5.400000000000e-05 
-5.447176827306e-05 6.045948425803e-07 0.0 
6.045948425803e-07 3.295846238880e-04 0.0 
0.0 0.0 -5.400000000000e-05 
-5.439587138175e-05 2.699825687268e-07 0.0 
2.699825687268e-07 3.295445281644e-04 0.0 
0.0 0.0 -5.400000000000e-05 
-5.444020560872e-05 -9.373025041376e-08 0.0 
-9.373025041376e-08 3.295833112604e-04 0.0 
0.0 0.0 -5.400000000000e-05 
-5.448526328926e-05 -2.925786431972e-07 0.0 
-2.925786431972e-07 3.296759622065e-04 0.0 
0.0 0.0 -5.400000000000e-05 
-5.448521490030e-05 -4.042919985534e-07 0.0 
-4.042919985534e-07 3.297222213790e-04 0.0 
0.0 0.0 -5.400000000000e-05 
-5.446593747581e-05 -5.017291938270e-07 0.0 
-5.017291938270e-07 3.297482559229e-04 0.0 
0.0 0.0 -5.400000000000e-05 
-5.444715703514e-05 -5.661052701272e-07 0.0 
-5.661052701272e-07 3.297630960230e-04 0.0 
0.0 0.0 -5.400000000000e-05 
-5.441902664921e-05 -5.791858778638e-07 0.0 
-5.791858778638e-07 3.297520271910e-04 0.0 
0.0 0.0 -5.400000000000e-05 
-5.435489545421e-05 -5.320435298485e-07 0.0 
-5.320435298485e-07 3.296952773800e-04 0.0 
0.0 0.0 -5.400000000000e-05 
-5.425282743638e-05 -4.796851552699e-07 0.0 
-4.796851552699e-07 3.295926353122e-04 0.0 
0.0 0.0 -5.400000000000e-05 
-5.415150905155e-05 -4.389405642830e-07 0.0 
-4.389405642830e-07 3.294912033637e-04 0.0 
0.0 0.0 -5.400000000000e-05 
-5.408758113007e-05 -3.988049795922e-07 0.0 
-3.988049795922e-07 3.294501912325e-04 0.0 
0.0 0.0 -5.400000000000e-05 
-5.412553104182e-05 -4.108986155667e-07 0.0 
-4.108986155667e-07 3.295530381932e-04 0.0 
0.0 0.0 -5.400000000000e-05 
-5.432573387972e-05 -1.150061439258e-06 0.0 
-1.150061439258e-06 3.298496077656e-04 0.0 
0.0 0.0 -5.400000000000e-05 
-5.454235109009e-05 1.621095232876e-05 0.0 
1.621095232876e-05 3.301284745679e-04 0.0 
0.0 0.0 -5.400000000000e-05 
-6.449104081877e-05 1.102095358613e-05 0.0 
1.102095358613e-05 3.995973409364e-04 0.0 
0.0 0.0 -6.400000000000e-05 
-6.422906796569e-05 2.177518514987e-06 0.0 
2.177518514987e-06 3.992543368403e-04 0.0 
0.0 0.0 -6.400000000000e-05 
-6.408383134524e-05 -3.034071916938e-07 0.0 
-3.034071916938e-07 3.990967741269e-04 0.0 
0.0 0.0 -6.400000000000e-05 
-6.408041873393e-05 -3.033981082000e-07 0.0 
-3.033981082000e-07 3.990993988085e-04 0.0 
0.0 0.0 -6.400000000000e-05 
-6.413758657569e-05 -2.664267529371e-07 0.0 
-2.664267529371e-07 3.991827780022e-04 0.0 
0.0 0.0 -6.400000000000e-05 
-6.424201883682e-05 -2.687503912124e-07 0.0 
-2.687503912124e-07 3.993046003732e-04 0.0 
0.0 0.0 -6.400000000000e-05 
-6.435001536576e-05 -3.748421087071e-07 0.0 
-3.748421087071e-07 3.994006642501e-04 0.0 
0.0 0.0 -6.400000000000e-05 
-6.439349834041e-05 -4.644553275205e-07 0.0 
-4.644553275205e-07 3.993979902157e-04 0.0 
0.0 0.0 -6.400000000000e-05 
-6.439694071681e-05 -4.217729739727e-07 0.0 
-4.217729739727e-07 3.993619939022e-04 0.0 
0.0 0.0 -6.400000000000e-05 
-6.446545681239e-05 -3.034361081742e-07 0.0 
-3.034361081742e-07 3.993593597444e-04 0.0 
0.0 0.0 -6.400000000000e-05 
-6.453884953312e-05 -2.444575558042e-07 0.0 
-2.444575558042e-07 3.993592142806e-04 0.0 
0.0 0.0 -6.400000000000e-05 
-6.453841394424e-05 -2.364183723064e-07 0.0 
-2.364183723064e-07 3.992848240483e-04 0.0 
0.0 0.0 -6.400000000000e-05 
-6.443555698589e-05 -5.018406128308e-08 0.0 
-5.018406128308e-08 3.990730026429e-04 0.0 
0.0 0.0 -6.400000000000e-05 
-6.439006881427e-05 5.953405842576e-07 0.0 
5.953405842576e-07 3.990989476378e-04 0.0 
0.0 0.0 -6.400000000000e-05 
-6.459707428735e-05 8.270995238340e-07 0.0 
8.270995238340e-07 3.992307724164e-04 0.0 
0.0 0.0 -6.400000000000e-05 
-6.478530700370e-05 1.165018707171e-06 0.0 
1.165018707171e-06 3.997535009593e-04 0.0 
0.0 0.0 -6.400000000000e-05 
-6.492709823616e-05 1.223192506191e-07 0.0 
1.223192506191e-07 3.993858055679e-04 0.0 
0.0 0.0 -6.400000000000e-05 
-6.387749569822e-05 1.643573763821e-06 0.0 
1.643573763821e-06 3.997389601482e-04 0.0 
0.0 0.0 -6.400000000000e-05 
-6.329773463465e-05 -1.345766021157e-06 0.0 
-1.345766021157e-06 4.036796173873e-04 0.0 
0.0 0.0 -6.440087463557e-05 
-5.619569592719e-05 6.249853982819e-07 0.0 
6.249853982819e-07 3.855354190560e-04 0.0 
0.0 0.0 -6.280102040816e-05 
-6.626641426913e-05 1.378973851741e-06 0.0 
1.378973851741e-06 4.548482350430e-04 0.0 
0.0 0.0 -7.279421768707e-05 
-7.356607765690e-05 -1.854881774075e-06 0.0 
-1.854881774075e-06 4.734083990815e-04 0.0 
0.0 0.0 -7.439504373177e-05 
-7.451973324986e-05 1.818776252699e-06 0.0 
1.818776252699e-06 4.701147270985e-04 0.0 
0.0 0.0 -7.400000000000e-05 
-7.507189263132e-05 1.139871955262e-06 0.0 
1.139871955262e-06 4.690018492736e-04 0.0 
0.0 0.0 -7.400000000000e-05 
-7.440307977863e-05 1.316267280214e-06 0.0 
1.316267280214e-06 4.689046979315e-04 0.0 
0.0 0.0 -7.400000000000e-05 
-7.447964919174e-05 1.327643289489e-07 0.0 
1.327643289489e-07 4.685645119696e-04 0.0 
0.0 0.0 -7.400000000000e-05 
-7.463811246650e-05 -2.009510893623e-07 0.0 
-2.009510893623e-07 4.690373350481e-04 0.0 
0.0 0.0 -7.400000000000e-05 
-7.464635801585e-05 -7.665068053576e-08 0.0 
-7.665068053576e-08 4.691773352964e-04 0.0 
0.0 0.0 -7.400000000000e-05 
-7.456896915362e-05 6.486733144631e-08 0.0 
6.486733144631e-08 4.691551129947e-04 0.0 
0.0 0.0 -7.400000000000e-05 
-7.434965880918e-05 -2.979712214473e-08 0.0 
-2.979712214473e-08 4.690260974999e-04 0.0 
0.0 0.0 -7.400000000000e-05 
-7.428013090329e-05 -3.745306366773e-07 0.0 
-3.745306366773e-07 4.690784611457e-04 0.0 
0.0 0.0 -7.400000000000e-05 
-7.436926452788e-05 -3.179218437662e-07 0.0 
-3.179218437662e-07 4.692164839065e-04 0.0 
0.0 0.0 -7.400000000000e-05 
-7.420923464376e-05 -8.861031691497e-08 0.0 
-8.861031691497e-08 4.691097441108e-04 0.0 
0.0 0.0 -7.400000000000e-05 
-7.408672818249e-05 -9.997158663720e-08 0.0 
-9.997158663720e-08 4.689363840629e-04 0.0 
0.0 0.0 -7.400000000000e-05 
-7.401015679154e-05 -2.369586485918e-07 0.0 
-2.369586485918e-07 4.688345953373e-04 0.0 
0.0 0.0 -7.400000000000e-05 
-7.402043488264e-05 -3.858604555162e-07 0.0 
-3.858604555162e-07 4.687795838329e-04 0.0 
0.0 0.0 -7.400000000000e-05 
-7.406733317633e-05 -8.624702852559e-07 0.0 
-8.624702852559e-07 4.688475136122e-04 0.0 
0.0 0.0 -7.400000000000e-05 
-7.437229827430e-05 -1.941892756436e-06 0.0 
-1.941892756436e-06 4.691620651443e-04 0.0 
0.0 0.0 -7.400000000000e-05 
-7.450735550024e-05 1.576544860626e-05 0.0 
1.576544860626e-05 4.693163051132e-04 0.0 
0.0 0.0 -7.400000000000e-05 
-8.485563316515e-05 1.075809198226e-05 0.0 
1.075809198226e-05 5.391859337594e-04 0.0 
0.0 0.0 -8.400000000000e-05 
-8.409846415960e-05 9.414650263605e-07 0.0 
9.414650263605e-07 5.383995603087e-04 0.0 
0.0 0.0 -8.400000000000e-05 
-8.389555484943e-05 -6.021980322684e-07 0.0 
-6.021980322684e-07 5.381860091551e-04 0.0 
0.0 0.0 -8.400000000000e-05 
-8.398436323506e-05 -4.920223144165e-07 0.0 
-4.920223144165e-07 5.383843948043e-04 0.0 
0.0 0.0 -8.400000000000e-05 
-8.378599896788e-05 -1.313884382087e-07 0.0 
-1.313884382087e-07 5.383410839076e-04 0.0 
0.0 0.0 -8.400000000000e-05 
-8.397004303126e-05 1.320895791523e-07 0.0 
1.320895791523e-07 5.385599452968e-04 0.0 
0.0 0.0 -8.400000000000e-05 
-8.409172541067e-05 3.119498635538e-07 0.0 
3.119498635538e-07 5.388399091460e-04 0.0 
0.0 0.0 -8.400000000000e-05 
-8.425202054181e-05 -4.105999003094e-07 0.0 
-4.105999003094e-07 5.388170517081e-04 0.0 
0.0 0.0 -8.400000000000e-05 
-8.405009752117e-05 1.267934535994e-07 0.0 
1.267934535994e-07 5.383656166005e-04 0.0 
0.0 0.0 -8.400000000000e-05 
-8.446225278370e-05 7.431195345640e-07 0.0 
7.431195345640e-07 5.387309105085e-04 0.0 
0.0 0.0 -8.400000000000e-05 
-8.472976723877e-05 3.614371366169e-07 0.0 
3.614371366169e-07 5.389575801292e-04 0.0 
0.0 0.0 -8.400000000000e-05 
-8.468281700183e-05 1.764545941254e-07 0.0 
1.764545941254e-07 5.387723880717e-04 0.0 
0.0 0.0 -8.400000000000e-05 
-8.488166774851e-05 3.307409063185e-08 0.0 
3.307409063185e-08 5.387187096913e-04 0.0 
0.0 0.0 -8.400000000000e-05 
-8.470036612902e-05 2.233472977468e-07 0.0 
2.233472977468e-07 5.376128164124e-04 0.0 
0.0 0.0 -8.400000000000e-05 
-8.431282722659e-05 3.361858424154e-06 0.0 
3.361858424154e-06 5.388019778082e-04 0.0 
0.0 0.0 -8.400000000000e-05 
-8.416442060440e-05 -6.991529090742e-07 0.0 
-6.991529090742e-07 5.438481516276e-04 0.0 
0.0 0.0 -8.440087463557e-05 
-7.699797766990e-05 8.136884982108e-07 0.0 
8.136884982108e-07 5.256926397960e-04 0.0 
0.0 0.0 -8.280102040816e-05 
-8.729514730737e-05 2.431575192883e-06 0.0 
2.431575192883e-06 5.952071725442e-04 0.0 
0.0 0.0 -9.279292626141e-05 
-9.515402825116e-05 -3.487467194031e-07 0.0 
-3.487467194031e-07 6.124983923015e-04 0.0 
0.0 0.0 -9.439393679549e-05 
-9.530518963518e-05 1.748549076388e-06 0.0 
1.748549076388e-06 6.086982827348e-04 0.0 
0.0 0.0 -9.400000000000e-05 
-9.443822007151e-05 1.536080356852e-06 0.0 
1.536080356852e-06 6.081273132837e-04 0.0 
0.0 0.0 -9.400000000000e-05 
-9.455496517287e-05 4.180655032130e-07 0.0 
4.180655032130e-07 6.085997108048e-04 0.0 
0.0 0.0 -9.400000000000e-05 
-9.458632400686e-05 1.150725883443e-06 0.0 
1.150725883443e-06 6.089170576803e-04 0.0 
0.0 0.0 -9.400000000000e-05 
-9.431195159654e-05 1.533006736186e-06 0.0 
1.533006736186e-06 6.081280804878e-04 0.0 
0.0 0.0 -9.400000000000e-05 
-9.421230709676e-05 -1.354647329153e-07 0.0 
-1.354647329153e-07 6.080912884899e-04 0.0 
0.0 0.0 -9.400000000000e-05 
-9.337909431243e-05 6.942444443618e-07 0.0 
6.942444443618e-07 6.085993616068e-04 0.0 
0.0 0.0 -9.400000000000e-05 
-9.374302250683e-05 3.925743234368e-08 0.0 
3.925743234368e-08 6.082422955829e-04 0.0 
0.0 0.0 -9.400000000000e-05 
-9.357184311787e-05 3.344127971799e-07 0.0 
3.344127971799e-07 6.080020201806e-04 0.0 
0.0 0.0 -9.400000000000e-05 
-9.351707113181e-05 -1.166879688300e-06 0.0 
-1.166879688300e-06 6.078331273393e-04 0.0 
0.0 0.0 -9.400000000000e-05 
-9.397267376399e-05 -4.718022942719e-07 0.0 
-4.718022942719e-07 6.082084038474e-04 0.0 
0.0 0.0 -9.400000000000e-05 
-9.376740862845e-05 -1.478812201538e-06 0.0 
-1.478812201538e-06 6.074134740605e-04 0.0 
0.0 0.0 -9.400000000000e-05 
-9.429475212128e-05 -5.091328171579e-06 0.0 
-5.091328171579e-06 6.089719886990e-04 0.0 
0.0 0.0 -9.400000000000e-05 
-9.572461714176e-05 1.686230062982e-05 0.0 
1.686230062982e-05 6.103161186201e-04 0.0 
0.0 0.0 -9.400000000000e-05 
-9.168972231207e-06 3.086373565098e-06 0.0 
3.086373565098e-06 3.559574852661e-05 0.0 
0.0 0.0 -1.067913767518e-05 
-2.319324557595e-05 9.600073751645e-06 0.0 
9.600073751645e-06 1.051649730873e-04 0.0 
0.0 0.0 -2.186514004066e-05 
-3.270389502079e-05 1.247004681325e-05 0.0 
1.247004681325e-05 1.753354515574e-04 0.0 
0.0 0.0 -3.195214541711e-05 
-3.537296998936e-05 6.864872435128e-06 0.0 
6.864872435128e-06 2.269082270308e-04 0.0 
0.0 0.0 -3.986440968097e-05 
-4.488160423805e-05 2.620282550735e-06 0.0 
2.620282550735e-06 2.956678138489e-04 0.0 
0.0 0.0 -4.966355900614e-05 
-5.332449771990e-05 4.791519907196e-06 0.0 
4.791519907196e-06 3.657467620854e-04 0.0 
0.0 0.0 -5.966365156130e-05 
-6.508558424635e-05 3.075872768086e-06 0.0 
3.075872768086e-06 4.344526873071e-04 0.0 
0.0 0.0 -6.975401418979e-05 
-7.497012245692e-05 4.311534055672e-06 0.0 
4.311534055672e-06 5.043026023732e-04 0.0 
0.0 0.0 -7.976546830823e-05 
-8.509296828041e-05 3.418368169262e-06 0.0 
3.418368169262e-06 5.740185323213e-04 0.0 
0.0 0.0 -8.978403836533e-05 
-9.498556415872e-05 3.738944843297e-06 0.0 
3.738944843297e-06 6.453839669724e-04 0.0 
0.0 0.0 -9.979450657254e-05 
-2.903947000217e-05 4.451191488364e-07 0.0 
4.451191488364e-07 1.483933272917e-04 0.0 
0.0 0.0 -2.805418351568e-05 
-1.947382551544e-04 -2.159516415369e-06 0.0 
-2.159516415369e-06 1.315627443457e-03 0.0 
0.0 0.0 -1.955083413980e-04 
-8.567559438263e-06 -1.698793721464e-06 0.0 
-1.698793721464e-06 4.448364337142e-05 0.0 
0.0 0.0 -8.578267221574e-06 
-8.136868517871e-06 -4.367899646924e-06 0.0 
-4.367899646924e-06 4.087946457471e-05 0.0 
0.0 0.0 -8.341387659605e-06 
-1.954641214955e-04 3.125550394228e-06 0.0 
3.125550394228e-06 1.316340498285e-03 0.0 
0.0 0.0 -1.955041315648e-04 
-5.006254034077e-05 3.860488417876e-06 0.0 
3.860488417876e-06 2.918098893608e-04 0.0 
0.0 0.0 -4.819929352323e-05 
-1.113057377054e-04 -1.249747274644e-06 0.0 
-1.249747274644e-06 7.175137801225e-04 0.0 
0.0 0.0 -1.095085134540e-04 
-1.950754387674e-04 1.968519813096e-06 0.0 
1.968519813096e-06 1.314054090021e-03 0.0 
0.0 0.0 -1.951497400597e-04 
-6.837076637649e-05 -4.771419097857e-06 0.0 
-4.771419097857e-06 4.223371659246e-04 0.0 
0.0 0.0 -6.746904573659e-05 
-1.952596228174e-04 5.860291744710e-07 0.0 
5.860291744710e-07 1.317160681800e-03 0.0 
0.0 0.0 -1.956021977692e-04 
-8.896698281549e-05 5.176874405716e-07 0.0 
5.176874405716e-07 5.656380992247e-04 0.0 
0.0 0.0 -8.786970436408e-05 
-1.941939648637e-04 1.847287419424e-06 0.0 
1.847287419424e-06 1.320485000250e-03 0.0 
0.0 0.0 -1.961487763302e-04 
-7.650674215329e-06 1.236502144193e-06 0.0 
1.236502144193e-06 3.991553915001e-05 0.0 
0.0 0.0 -8.186248162006e-06 
-1.957069062092e-04 9.003290222844e-07 0.0 
9.003290222844e-07 1.317426151316e-03 0.0 
0.0 0.0 -1.956722400187e-04 
-1.089453835626e-04 2.369159746168e-06 0.0 
2.369159746168e-06 7.099109707760e-04 0.0 
0.0 0.0 -1.080461297714e-04 
-6.859129019067e-05 1.013206430907e-06 0.0 
1.013206430907e-06 4.370886358119e-04 0.0 
0.0 0.0 -6.960710895285e-05 
-1.371687672462e-04 1.989641405698e-06 0.0 
1.989641405698e-06 9.073488131676e-04 0.0 
0.0 0.0 -1.368826812983e-04 
-1.943229683407e-04 -1.445358278171e-06 0.0 
-1.445358278171e-06 1.315110082613e-03 0.0 
0.0 0.0 -1.951920106767e-04 
-1.956930830492e-04 2.604495501023e-06 0.0 
2.604495501023e-06 1.317782772153e-03 0.0 
0.0 0.0 -1.956442140825e-04 
-1.963197173795e-04 -2.638308879700e-06 0.0 
-2.638308879700e-06 1.317317020312e-03 0.0 
0.0 0.0 -1.954857917668e-04 
-1.946046977129e-04 1.619923868870e-06 0.0 
1.619923868870e-06 1.311223827380e-03 0.0 
0.0 0.0 -1.946591103862e-04 
-1.965700765428e-04 -3.277130686746e-06 0.0 
-3.277130686746e-06 1.319377863823e-03 0.0 
0.0 0.0 -1.957959275784e-04 
-1.125606473740e-04 1.719511349206e-06 0.0 
1.719511349206e-06 7.393436574216e-04 0.0 
0.0 0.0 -1.128301714015e-04 
-1.128503086942e-04 1.743206654311e-06 0.0 
1.743206654311e-06 7.389768954601e-04 0.0 
0.0 0.0 -1.129477424158e-04 
-1.131980592598e-04 -1.862024743753e-06 0.0 
-1.862024743753e-06 7.425708164452e-04 0.0 
0.0 0.0 -1.137040567910e-04 
-1.496411633683e-04 -5.197980004835e-06 0.0 
-5.197980004835e-06 9.903344520159e-04 0.0 
0.0 0.0 -1.492512252364e-04 
-1.950888054502e-04 -1.662594662544e-06 0.0 
-1.662594662544e-06 1.318271302421e-03 0.0 
0.0 0.0 -1.954311278458e-04 
-7.420624434335e-06 -2.743944179506e-06 0.0 
-2.743944179506e-06 4.036171462300e-05 0.0 
0.0 0.0 -8.192647634203e-06 
-9.873734262922e-06 8.287041108010e-07 0.0 
8.287041108010e-07 4.596430085012e-05 0.0 
0.0 0.0 -8.762595040287e-06 
-1.681367322331e-04 -1.737857054475e-07 0.0 
-1.737857054475e-07 1.127342030325e-03 0.0 
0.0 0.0 -1.684329593750e-04 
-1.137312378447e-04 2.941922033179e-06 0.0 
2.941922033179e-06 7.354400071240e-04 0.0 
0.0 0.0 -1.125050824252e-04 
-4.041482156002e-05 3.417558897105e-07 0.0 
3.417558897105e-07 2.241831831132e-04 0.0 
0.0 0.0 -3.891752881399e-05 
-1.947641557456e-04 7.923084531915e-07 0.0 
7.923084531915e-07 1.304507022875e-03 0.0 
0.0 0.0 -1.939800207710e-04 
-1.960054809974e-04 2.031047324452e-06 0.0 
2.031047324452e-06 1.320447363547e-03 0.0 
0.0 0.0 -1.960961780200e-04 
-1.959837947468e-04 7.548015026684e-07 0.0 
7.548015026684e-07 1.316397764372e-03 0.0 
0.0 0.0 -1.957100175409e-04 
-1.949003992159e-04 1.873708810936e-06 0.0 
1.873708810936e-06 1.312448359133e-03 0.0 
0.0 0.0 -1.946892349944e-04 
-1.963394652884e-04 -2.461762416477e-06 0.0 
-2.461762416477e-06 1.317843150582e-03 0.0 
0.0 0.0 -1.958367853254e-04 
-9.399904561967e-06 3.751811683982e-07 0.0 
3.751811683982e-07 4.607602797327e-05 0.0 
0.0 0.0 -8.777929302786e-06 
-1.121136777944e-04 2.136242843992e-06 0.0 
2.136242843992e-06 7.375316866664e-04 0.0 
0.0 0.0 -1.125147119063e-04 
-1.945054015985e-04 1.526423234173e-06 0.0 
1.526423234173e-06 1.305744790732e-03 0.0 
0.0 0.0 -1.939771297832e-04 
-1.693349048774e-04 -4.546658260319e-06 0.0 
-4.546658260319e-06 1.130612016236e-03 0.0 
0.0 0.0 -1.685397735077e-04 
-8.598075030748e-06 -2.223307893963e-06 0.0 
-2.223307893963e-06 4.388775337437e-05 0.0 
0.0 0.0 -8.698177642707e-06 
-8.871376934976e-05 -9.707224206822e-07 0.0 
-9.707224206822e-07 5.731446297532e-04 0.0 
0.0 0.0 -8.906156601093e-05 
-1.979802513817e-04 -1.566370620822e-06 0.0 
-1.566370620822e-06 1.328935425363e-03 0.0 
0.0 0.0 -1.967971955909e-04 
-6.059110968862e-05 -2.270349058910e-06 0.0 
-2.270349058910e-06 3.638632698663e-04 0.0 
0.0 0.0 -5.846208800394e-05 
-3.934380255029e-05 1.116524761702e-06 0.0 
1.116524761702e-06 2.201048627676e-04 0.0 
0.0 0.0 -3.823193484201e-05 
-7.905584954535e-05 -1.125239316858e-06 0.0 
-1.125239316858e-06 4.942495490073e-04 0.0 
0.0 0.0 -7.767853477808e-05 
-9.853492259670e-05 -1.059175576559e-06 0.0 
-1.059175576559e-06 6.356901872357e-04 0.0 
0.0 0.0 -9.791554816786e-05 
-1.758731503853e-05 -2.183232337716e-06 0.0 
-2.183232337716e-06 7.214564488676e-05 0.0 
0.0 0.0 -1.677835640721e-05 
-1.304400768820e-04 -1.226623402604e-06 0.0 
-1.226623402604e-06 8.588836031036e-04 0.0 
0.0 0.0 -1.302718197671e-04 
-1.976961881145e-04 -1.904942962871e-06 0.0 
-1.904942962871e-06 1.329827350337e-03 0.0 
0.0 0.0 -1.970859964037e-04 
-7.778984465367e-06 4.389754775789e-06 0.0 
4.389754775789e-06 4.119927433976e-05 0.0 
0.0 0.0 -8.754673005183e-06 
-1.866018908338e-04 -2.006069315689e-08 0.0 
-2.006069315689e-08 1.262553750678e-03 0.0 
0.0 0.0 -1.880896313740e-04 
-1.123534650814e-04 1.611587689509e-06 0.0 
1.611587689509e-06 7.392560460262e-04 0.0 
0.0 0.0 -1.129840772622e-04 
-1.171047806051e-04 7.449209117803e-07 0.0 
7.449209117803e-07 7.664746806855e-04 0.0 
0.0 0.0 -1.171402528589e-04 
-1.209300272193e-04 3.259751506580e-06 0.0 
3.259751506580e-06 8.015413982557e-04 0.0 
0.0 0.0 -1.217336839916e-04 
-1.273390226549e-04 -1.216641127310e-06 0.0 
-1.216641127310e-06 8.349727543367e-04 0.0 
0.0 0.0 -1.264258636278e-04 
-1.320700965903e-04 1.876866623278e-08 0.0 
1.876866623278e-08 8.692918616205e-04 0.0 
0.0 0.0 -1.317698771115e-04 
-1.368244106801e-04 -1.114619508482e-06 0.0 
-1.114619508482e-06 9.001255364591e-04 0.0 
0.0 0.0 -1.359061374524e-04 
-1.313516644010e-04 -1.071478350727e-06 0.0 
-1.071478350727e-06 8.642075030487e-04 0.0 
0.0 0.0 -1.306688636612e-04 
-1.406252513591e-04 -1.352739222539e-06 0.0 
-1.352739222539e-06 9.300768557182e-04 0.0 
0.0 0.0 -1.401216342492e-04 
-1.355168506451e-04 -8.441429406154e-07 0.0 
-8.441429406154e-07 8.933027720166e-04 0.0 
0.0 0.0 -1.348466119664e-04 
-1.406309551036e-04 -1.423065028084e-06 0.0 
-1.423065028084e-06 9.373189590449e-04 0.0 
0.0 0.0 -1.412262538548e-04 
-1.447717080924e-04 -1.617847745048e-06 0.0 
-1.617847745048e-06 9.594996109507e-04 0.0 
0.0 0.0 -1.443446404888e-04 
-1.395639979808e-04 -9.495865010563e-07 0.0 
-9.495865010563e-07 9.223387170950e-04 0.0 
0.0 0.0 -1.390295894150e-04 
-1.488518955481e-04 -1.324901186338e-06 0.0 
-1.324901186338e-06 9.887094425207e-04 0.0 
0.0 0.0 -1.485505823874e-04 
-1.436922961000e-04 -1.046451979584e-06 0.0 
-1.046451979584e-06 9.515310653716e-04 0.0 
0.0 0.0 -1.432156325536e-04 
-1.343600788387e-04 -5.167793523512e-07 0.0 
-5.167793523512e-07 8.856735470671e-04 0.0 
0.0 0.0 -1.337521069633e-04 
-1.385105152453e-04 -4.710394907329e-07 0.0 
-4.710394907329e-07 9.146329712672e-04 0.0 
0.0 0.0 -1.379179829106e-04 
-1.289648752830e-04 -8.618976580075e-08 0.0 
-8.618976580075e-08 8.489207055611e-04 0.0 
0.0 0.0 -1.284753219673e-04 
-1.331501462654e-04 -2.281806353291e-07 0.0 
-2.281806353291e-07 8.778469958775e-04 0.0 
0.0 0.0 -1.326245976321e-04 
-1.426230691977e-04 -3.445547381833e-07 0.0 
-3.445547381833e-07 9.438219498313e-04 0.0 
0.0 0.0 -1.420797641308e-04 
-1.372349024752e-04 -4.912623478834e-07 0.0 
-4.912623478834e-07 9.068017641173e-04 0.0 
0.0 0.0 -1.367729294110e-04 
-1.278087679959e-04 -1.828532417459e-07 0.0 
-1.828532417459e-07 8.408634527744e-04 0.0 
0.0 0.0 -1.273259478075e-04 
-1.318398283045e-04 -3.075890479271e-07 0.0 
-3.075890479271e-07 8.695930318134e-04 0.0 
0.0 0.0 -1.314613401273e-04 
-1.224174681950e-04 5.152664304947e-08 0.0 
5.152664304947e-08 8.039186497448e-04 0.0 
0.0 0.0 -1.220343484428e-04 
-1.264174440320e-04 -1.610988413992e-07 0.0 
-1.610988413992e-07 8.325618017429e-04 0.0 
0.0 0.0 -1.261611736566e-04 
-1.170510544419e-04 2.223926002173e-08 0.0 
2.223926002173e-08 7.668217430428e-04 0.0 
0.0 0.0 -1.167242641243e-04 
-1.210374224200e-04 -1.474818318748e-07 0.0 
-1.474818318748e-07 7.955505097843e-04 0.0 
0.0 0.0 -1.208544874677e-04 
-1.304043414113e-04 -3.154242512105e-07 0.0 
-3.154242512105e-07 8.613589922912e-04 0.0 
0.0 0.0 -1.303042425932e-04 
-1.250914766715e-04 -9.789090931165e-08 0.0 
-9.789090931165e-08 8.242842117775e-04 0.0 
0.0 0.0 -1.249864172613e-04 
-1.156698454984e-04 4.104440089505e-08 0.0 
4.104440089505e-08 7.584999711117e-04 0.0 
0.0 0.0 -1.155496960434e-04 
-1.197696986214e-04 6.686600869337e-08 0.0 
6.686600869337e-08 7.872430335080e-04 0.0 
0.0 0.0 -1.196691756306e-04 
-1.103345672185e-04 1.936070379506e-07 0.0 
1.936070379506e-07 7.215726378401e-04 0.0 
0.0 0.0 -1.102360968649e-04 
-1.143831646187e-04 2.841694026704e-07 0.0 
2.841694026704e-07 7.499983246613e-04 0.0 
0.0 0.0 -1.143358844566e-04 
-1.238585560106e-04 1.680319022195e-07 0.0 
1.680319022195e-07 8.159376449007e-04 0.0 
0.0 0.0 -1.237972835831e-04 
-1.185140209161e-04 8.396902968211e-08 0.0 
8.396902968211e-08 7.787352394438e-04 0.0 
0.0 0.0 -1.184549252722e-04 
-1.089992092054e-04 6.281890232418e-08 0.0 
6.281890232418e-08 7.122982226840e-04 0.0 
0.0 0.0 -1.089619939006e-04 
-1.132389115670e-04 -1.057915283395e-07 0.0 
-1.057915283395e-07 7.414300503039e-04 0.0 
0.0 0.0 -1.130977248571e-04 
-1.037240861722e-04 -4.723566763670e-07 0.0 
-4.723566763670e-07 6.746986895894e-04 0.0 
0.0 0.0 -1.035578799258e-04 
-1.079391861501e-04 -9.525050172924e-10 0.0 
-9.525050172924e-10 7.042191649168e-04 0.0 
0.0 0.0 -1.077352770641e-04 
-9.832371136087e-05 -3.508088035027e-07 0.0 
-3.508088035027e-07 6.371418654706e-04 0.0 
0.0 0.0 -9.813603890825e-05 
-1.025291601956e-04 7.520025507397e-08 0.0 
7.520025507397e-08 6.664875104737e-04 0.0 
0.0 0.0 -1.023264466889e-04 
-1.121330899491e-04 -3.201268622922e-08 0.0 
-3.201268622922e-08 7.333893815298e-04 0.0 
0.0 0.0 -1.119135318789e-04 
-1.067345759512e-04 -1.457462253012e-07 0.0 
-1.457462253012e-07 6.958135066491e-04 0.0 
0.0 0.0 -1.065124872911e-04 
-9.708388481881e-05 -1.123756317370e-07 0.0 
-1.123756317370e-07 6.287043899204e-04 0.0 
0.0 0.0 -9.687936111797e-05 
-1.012280793484e-04 -2.016817593289e-07 0.0 
-2.016817593289e-07 6.578039102236e-04 0.0 
0.0 0.0 -1.010667964543e-04 
-1.108655634829e-04 -2.805142089434e-07 0.0 
-2.805142089434e-07 7.250705567917e-04 0.0 
0.0 0.0 -1.107220969010e-04 
-1.053738009019e-04 -2.657681640372e-07 0.0 
-2.657681640372e-07 6.869604308345e-04 0.0 
0.0 0.0 -1.052625016289e-04 
-1.150267739913e-04 -3.300558054111e-07 0.0 
-3.300558054111e-07 7.543777337130e-04 0.0 
0.0 0.0 -1.149374102432e-04 
-1.095605670490e-04 -1.992187362341e-07 0.0 
-1.992187362341e-07 7.162738244309e-04 0.0 
0.0 0.0 -1.094674241824e-04 
-9.992608341546e-05 -2.285291460902e-07 0.0 
-2.285291460902e-07 6.491377746979e-04 0.0 
0.0 0.0 -9.983047339662e-05 
-1.041038271013e-04 -4.784792107375e-08 0.0 
-4.784792107375e-08 6.783667909797e-04 0.0 
0.0 0.0 -1.040110107548e-04 
-1.137411101647e-04 -1.005325563354e-07 0.0 
-1.005325563354e-07 7.455825181624e-04 0.0 
0.0 0.0 -1.136680319875e-04 
-1.082869868131e-04 -5.329032704077e-08 0.0 
-5.329032704077e-08 7.073386927023e-04 0.0 
0.0 0.0 -1.081830392180e-04 
-9.869624350956e-05 -1.279251488153e-07 0.0 
-1.279251488153e-07 6.404070926404e-04 0.0 
0.0 0.0 -9.856705257735e-05 
-1.028159541346e-04 2.106799420310e-07 0.0 
2.106799420310e-07 6.694648529012e-04 0.0 
0.0 0.0 -1.027256921484e-04 
-1.124881435347e-04 1.468300417499e-07 0.0 
1.468300417499e-07 7.366254737130e-04 0.0 
0.0 0.0 -1.123746868942e-04 
-1.069630032943e-04 3.797193907441e-07 0.0 
3.797193907441e-07 6.984570345631e-04 0.0 
0.0 0.0 -1.069064678657e-04 
-9.735694714147e-05 3.040392105123e-07 0.0 
3.040392105123e-07 6.314702925721e-04 0.0 
0.0 0.0 -9.729074097479e-05 
-1.014698791265e-04 5.263077294052e-07 0.0 
5.263077294052e-07 6.606218601415e-04 0.0 
0.0 0.0 -1.014450936127e-04 
-1.111588134786e-04 4.465606502622e-07 0.0 
4.465606502622e-07 7.280983055299e-04 0.0 
0.0 0.0 -1.111412434799e-04 
-1.056103560307e-04 3.527345838497e-07 0.0 
3.527345838497e-07 6.896411777924e-04 0.0 
0.0 0.0 -1.056341277852e-04 
-9.592602067126e-05 5.327638544790e-07 0.0 
5.327638544790e-07 6.223325700671e-04 0.0 
0.0 0.0 -9.597584338962e-05 
-1.000042351432e-04 6.050193751295e-07 0.0 
6.050193751295e-07 6.512858928885e-04 0.0 
0.0 0.0 -1.001195007473e-04 
-1.097885953069e-04 3.509867728239e-07 0.0 
3.509867728239e-07 7.191866513993e-04 0.0 
0.0 0.0 -1.098732949993e-04 
-1.041219874635e-04 4.565113330363e-07 0.0 
4.565113330363e-07 6.802416856987e-04 0.0 
0.0 0.0 -1.043104098158e-04 
-1.139943776011e-04 2.608804957771e-07 0.0 
2.608804957771e-07 7.487261930972e-04 0.0 
0.0 0.0 -1.141349681178e-04 
-9.432131286435e-05 6.931090399305e-07 0.0 
6.931090399305e-07 6.120807620329e-04 0.0 
0.0 0.0 -9.453138577379e-05 
-9.843300825502e-05 3.791394769862e-07 0.0 
3.791394769862e-07 6.410640369442e-04 0.0 
0.0 0.0 -9.871483819285e-05 
-8.857532524913e-05 7.670792375352e-07 0.0 
7.670792375352e-07 5.725816228305e-04 0.0 
0.0 0.0 -8.888275660121e-05 
-9.270105845016e-05 2.622529703410e-07 0.0 
2.622529703410e-07 6.018362902946e-04 0.0 
0.0 0.0 -9.310666704106e-05 
-1.280450341640e-04 2.022914446801e-07 0.0 
2.022914446801e-07 8.448927114390e-04 0.0 
0.0 0.0 -1.279397651938e-04 
-8.276712932225e-05 6.443736138370e-07 0.0 
6.443736138370e-07 5.330826812988e-04 0.0 
0.0 0.0 -8.324826898147e-05 
-7.884768894366e-05 1.023704289178e-06 0.0 
1.023704289178e-06 5.047676539199e-04 0.0 
0.0 0.0 -7.914375511354e-05 
-8.697616798037e-05 -7.331328903656e-10 0.0 
-7.331328903656e-10 5.626687258914e-04 0.0 
0.0 0.0 -8.749891481923e-05 
-9.702972984445e-05 -9.951343649239e-08 0.0 
-9.951343649239e-08 6.318920870484e-04 0.0 
0.0 0.0 -9.740424872913e-05 
-7.706547232469e-05 2.380236829533e-07 0.0 
2.380236829533e-07 4.936160224660e-04 0.0 
0.0 0.0 -7.760805980730e-05 
-8.127460870577e-05 -1.704001729844e-07 0.0 
-1.704001729844e-07 5.235024448564e-04 0.0 
0.0 0.0 -8.188641417383e-05 
-7.155045226521e-05 3.113369261567e-07 0.0 
3.113369261567e-07 4.544691373911e-04 0.0 
0.0 0.0 -7.197242596511e-05 
-9.398834813403e-05 -4.649841708635e-07 0.0 
-4.649841708635e-07 6.067163141264e-04 0.0 
0.0 0.0 -9.378238744040e-05 
-1.466888889075e-04 -6.905876409826e-07 0.0 
-6.905876409826e-07 9.729931165237e-04 0.0 
0.0 0.0 -1.462607504514e-04 
-7.572467440231e-05 1.210487184868e-07 0.0 
1.210487184868e-07 4.846162633768e-04 0.0 
0.0 0.0 -7.626743364961e-05 
-6.621416197033e-05 -1.397216265960e-07 0.0 
-1.397216265960e-07 4.154095652474e-04 0.0 
0.0 0.0 -6.634679566782e-05 
-6.190172954625e-05 4.165851450949e-07 0.0 
4.165851450949e-07 3.853087909955e-04 0.0 
0.0 0.0 -6.205237226325e-05 
-5.628575454228e-05 3.940532300383e-08 0.0 
3.940532300383e-08 3.460724695174e-04 0.0 
0.0 0.0 -5.642855255362e-05 
-1.354938510920e-04 -2.913953566673e-06 0.0 
-2.913953566673e-06 9.082152710087e-04 0.0 
0.0 0.0 -1.368953805519e-04 
-1.462552660591e-04 1.249747586106e-07 0.0 
1.249747586106e-07 9.752174249571e-04 0.0 
0.0 0.0 -1.465891790687e-04 
-1.414040401139e-04 -1.271486640511e-06 0.0 
-1.271486640511e-06 9.428451641582e-04 0.0 
0.0 0.0 -1.420291944686e-04 
-1.520026480131e-04 -3.631190555520e-07 0.0 
-3.631190555520e-07 1.012864624851e-03 0.0 
0.0 0.0 -1.519432683735e-04 
-1.472985787471e-04 -1.382728633740e-06 0.0 
-1.382728633740e-06 9.819853291120e-04 0.0 
0.0 0.0 -1.475277143832e-04 
-6.049783873772e-05 -1.110839167728e-06 0.0 
-1.110839167728e-06 3.760535738177e-04 0.0 
0.0 0.0 -6.071687451653e-05 
-1.539446624240e-04 -1.181077219234e-06 0.0 
-1.181077219234e-06 1.026370553893e-03 0.0 
0.0 0.0 -1.540030753513e-04 
-1.562964739112e-04 4.946292658219e-07 0.0 
4.946292658219e-07 1.043020722120e-03 0.0 
0.0 0.0 -1.563396320792e-04 
-1.184118913967e-04 1.857139776565e-07 0.0 
1.857139776565e-07 7.754976810309e-04 0.0 
0.0 0.0 -1.179280690692e-04 
-1.062500152817e-04 1.741187945378e-07 0.0 
1.741187945378e-07 6.928514360504e-04 0.0 
0.0 0.0 -1.061413340584e-04 
-1.205167248159e-04 -5.462407212351e-07 0.0 
-5.462407212351e-07 7.925156879070e-04 0.0 
0.0 0.0 -1.204127835607e-04 
-8.548976471001e-05 -7.615656520967e-07 0.0 
-7.615656520967e-07 5.535587085213e-04 0.0 
0.0 0.0 -8.618857558133e-05 
-7.988885271144e-05 1.897397534693e-07 0.0 
1.897397534693e-07 5.152050676733e-04 0.0 
0.0 0.0 -8.057008281249e-05 
-9.032121231226e-05 -1.684930927318e-06 0.0 
-1.684930927318e-06 5.843848000393e-04 0.0 
0.0 0.0 -9.050178936823e-05 
-1.196337930892e-04 1.102008659663e-07 0.0 
1.102008659663e-07 7.876256328336e-04 0.0 
0.0 0.0 -1.197064290626e-04 
-1.239088484819e-04 1.270562820448e-07 0.0 
1.270562820448e-07 8.174720289214e-04 0.0 
0.0 0.0 -1.239919845821e-04 
-1.295076006245e-04 6.163016450203e-08 0.0 
6.163016450203e-08 8.563536897128e-04 0.0 
0.0 0.0 -1.295728275001e-04 
-1.338245653935e-04 6.187832994801e-08 0.0 
6.187832994801e-08 8.862996102706e-04 0.0 
0.0 0.0 -1.338680086136e-04 
-1.393975761356e-04 4.550308926582e-08 0.0 
4.550308926582e-08 9.252125319019e-04 0.0 
0.0 0.0 -1.394574676997e-04 
-1.437406368722e-04 1.277074154763e-07 0.0 
1.277074154763e-07 9.552601406530e-04 0.0 
0.0 0.0 -1.437562178924e-04 
-1.381365115215e-04 -6.384328167053e-08 0.0 
-6.384328167053e-08 9.162527365186e-04 0.0 
0.0 0.0 -1.381609243235e-04 
-1.481035666194e-04 -1.079358485103e-07 0.0 
-1.079358485103e-07 9.853010756590e-04 0.0 
0.0 0.0 -1.480541560501e-04 
-1.424433669279e-04 -2.461913392847e-07 0.0 
-2.461913392847e-07 9.462005835288e-04 0.0 
0.0 0.0 -1.424551100593e-04 
-1.492800736972e-04 1.903860536894e-07 0.0 
1.903860536894e-07 9.941570401524e-04 0.0 
0.0 0.0 -1.493525342080e-04 
-1.449751840430e-04 -1.306362921352e-07 0.0 
-1.306362921352e-07 9.640748764024e-04 0.0 
0.0 0.0 -1.450229800689e-04 
-1.523999948246e-04 -3.989684281703e-07 0.0 
-3.989684281703e-07 1.015224728092e-03 0.0 
0.0 0.0 -1.523522284989e-04 
-1.467103464147e-04 -2.659540217927e-07 0.0 
-2.659540217927e-07 9.761558421408e-04 0.0 
0.0 0.0 -1.467489045856e-04 
-1.565625592364e-04 -4.158419287493e-07 0.0 
-4.158419287493e-07 1.045129081510e-03 0.0 
0.0 0.0 -1.566543602455e-04 
-1.508966779748e-04 -3.393169835015e-07 0.0 
-3.393169835015e-07 1.005998704446e-03 0.0 
0.0 0.0 -1.510511651883e-04 
-1.410712457468e-04 -1.790301414096e-07 0.0 
-1.790301414096e-07 9.369358529960e-04 0.0 
0.0 0.0 -1.411301529270e-04 
-1.452736367783e-04 -1.279390741404e-07 0.0 
-1.279390741404e-07 9.667244667063e-04 0.0 
0.0 0.0 -1.454254449112e-04 
-1.355658465602e-04 -3.525019047488e-07 0.0 
-3.525019047488e-07 8.980272974833e-04 0.0 
0.0 0.0 -1.355350811980e-04 
-1.247169685603e-04 -5.424891476076e-07 0.0 
-5.424891476076e-07 8.219820472476e-04 0.0 
0.0 0.0 -1.246443719175e-04 
-1.302412994967e-04 -6.709375140068e-07 0.0 
-6.709375140068e-07 8.602885817839e-04 0.0 
0.0 0.0 -1.301366355066e-04 
-1.344319823677e-04 -5.992072868323e-07 0.0 
-5.992072868323e-07 8.897694935505e-04 0.0 
0.0 0.0 -1.343775141111e-04 
-1.400237331498e-04 -7.656893218291e-07 0.0 
-7.656893218291e-07 9.282252120942e-04 0.0 
0.0 0.0 -1.398832378697e-04 
-1.441786028548e-04 -7.248633173166e-07 0.0 
-7.248633173166e-07 9.577423680475e-04 0.0 
0.0 0.0 -1.441376510237e-04 
-1.498975004286e-04 -8.881523903677e-07 0.0 
-8.881523903677e-07 9.963296213112e-04 0.0 
0.0 0.0 -1.496454511588e-04 
-1.540303661717e-04 -7.919312302376e-07 0.0 
-7.919312302376e-07 1.025660690864e-03 0.0 
0.0 0.0 -1.539048756661e-04 
-1.483333586792e-04 -5.305309886563e-07 0.0 
-5.305309886563e-07 9.873032168340e-04 0.0 
0.0 0.0 -1.483914164041e-04 
-1.531422374596e-04 -8.663739869803e-07 0.0 
-8.663739869803e-07 1.017764678093e-03 0.0 
0.0 0.0 -1.527153750466e-04 
-9.159847415972e-05 -1.256689801576e-07 0.0 
-1.256689801576e-07 5.906791861929e-04 0.0 
0.0 0.0 -9.143391812226e-05 
-8.744560526880e-05 -1.314299425383e-07 0.0 
-1.314299425383e-07 5.615762013321e-04 0.0 
0.0 0.0 -8.725348065585e-05 
-8.202336977827e-05 5.298561278525e-08 0.0 
5.298561278525e-08 5.236724682599e-04 0.0 
0.0 0.0 -8.181782897632e-05 
-7.787136643021e-05 -4.089849052194e-08 0.0 
-4.089849052194e-08 4.946511796611e-04 0.0 
0.0 0.0 -7.764583100160e-05 
-7.249839660415e-05 3.138088007649e-07 0.0 
3.138088007649e-07 4.567503960433e-04 0.0 
0.0 0.0 -7.221245969917e-05 
-6.836637044469e-05 1.575150055604e-07 0.0 
1.575150055604e-07 4.279278736544e-04 0.0 
0.0 0.0 -6.805748655366e-05 
-6.305635467696e-05 5.617632190064e-07 0.0 
5.617632190064e-07 3.898265041818e-04 0.0 
0.0 0.0 -6.258396351101e-05 
-6.700103591366e-05 8.220641914788e-07 0.0 
8.220641914788e-07 4.186472656110e-04 0.0 
0.0 0.0 -6.675491739715e-05 
-5.754489831194e-05 1.185749684510e-06 0.0 
1.185749684510e-06 3.514253860379e-04 0.0 
0.0 0.0 -5.707878267586e-05 
-6.126290636031e-05 1.086382821669e-06 0.0 
1.086382821669e-06 3.802508716618e-04 0.0 
0.0 0.0 -6.128043668686e-05 
-5.191997638371e-05 1.314501197429e-06 0.0 
1.314501197429e-06 3.126420855080e-04 0.0 
0.0 0.0 -5.156902369321e-05 
-5.548063518944e-05 1.243851983737e-06 0.0 
1.243851983737e-06 3.415672031581e-04 0.0 
0.0 0.0 -5.575645035334e-05 
-1.344754893882e-04 -2.441387490923e-07 0.0 
-2.441387490923e-07 8.901905827652e-04 0.0 
0.0 0.0 -1.344534760290e-04 
-1.456336275119e-04 -7.568221187931e-07 0.0 
-7.568221187931e-07 9.666800779835e-04 0.0 
0.0 0.0 -1.453735332694e-04 
-1.555049783814e-04 -4.155015620933e-07 0.0 
-4.155015620933e-07 1.035032948266e-03 0.0 
0.0 0.0 -1.551468130506e-04 
-1.509958831296e-04 -4.550450407199e-07 0.0 
-4.550450407199e-07 1.004729653599e-03 0.0 
0.0 0.0 -1.507981208515e-04 
-5.237773532105e-05 7.911299625010e-08 0.0 
7.911299625010e-08 3.162172589784e-04 0.0 
0.0 0.0 -5.213283032136e-05 
-1.549595763032e-04 -3.953475088671e-07 0.0 
-3.953475088671e-07 1.035774981690e-03 0.0 
0.0 0.0 -1.553660438793e-04 
-1.548355158551e-04 -2.147058021658e-07 0.0 
-2.147058021658e-07 1.033072477775e-03 0.0 
0.0 0.0 -1.549384463224e-04 
-1.505618374828e-04 -5.346193515463e-07 0.0 
-5.346193515463e-07 1.002549198399e-03 0.0 
0.0 0.0 -1.505609887339e-04 
-1.581943545466e-04 -1.140192146814e-07 0.0 
-1.140192146814e-07 1.055484497313e-03 0.0 
0.0 0.0 -1.581898251365e-04 
-5.074202381651e-05 -4.469562897143e-07 0.0 
-4.469562897143e-07 3.073591846823e-04 0.0 
0.0 0.0 -5.088881735611e-05 
-5.888894202551e-05 -5.741143861357e-08 0.0 
-5.741143861357e-08 3.614604751917e-04 0.0 
0.0 0.0 -5.849107602244e-05 
-6.412075790079e-05 -1.262278375693e-08 0.0 
-1.262278375693e-08 3.988248925712e-04 0.0 
0.0 0.0 -6.391656864161e-05 
-1.574092422667e-04 -9.339425827558e-07 0.0 
-9.339425827558e-07 1.050297343269e-03 0.0 
0.0 0.0 -1.573311895261e-04 
-1.526877283991e-04 -1.284456620320e-06 0.0 
-1.284456620320e-06 1.019137079127e-03 0.0 
0.0 0.0 -1.529187321887e-04 
-1.603825137223e-04 -5.841749785693e-07 0.0 
-5.841749785693e-07 1.071965760526e-03 0.0 
0.0 0.0 -1.605236522104e-04 
-5.469413786455e-05 -7.281622474744e-07 0.0 
-7.281622474744e-07 3.375315586186e-04 0.0 
0.0 0.0 -5.513621196740e-05 
-1.581536908889e-04 -3.654449846176e-07 0.0 
-3.654449846176e-07 1.054473463793e-03 0.0 
0.0 0.0 -1.579496168166e-04 
-4.796468630861e-05 1.896906112626e-06 0.0 
1.896906112626e-06 2.843046372018e-04 0.0 
0.0 0.0 -4.740762976608e-05 
-1.492957563781e-04 2.220942752480e-07 0.0 
2.220942752480e-07 9.964627124321e-04 0.0 
0.0 0.0 -1.497345920687e-04 
-1.590878470858e-04 -2.496159838046e-07 0.0 
-2.496159838046e-07 1.065574434498e-03 0.0 
0.0 0.0 -1.596751832792e-04 
-1.325072402165e-04 -1.969088110070e-07 0.0 
-1.969088110070e-07 8.772948073459e-04 0.0 
0.0 0.0 -1.325798954328e-04 
-1.608189791387e-04 2.014272611917e-07 0.0 
2.014272611917e-07 1.073406976442e-03 0.0 
0.0 0.0 -1.606363799130e-04 
-1.561309716741e-04 -2.339592577672e-07 0.0 
-2.339592577672e-07 1.041858527671e-03 0.0 
0.0 0.0 -1.562164154417e-04 
-6.542148837339e-05 5.946748364299e-07 0.0 
5.946748364299e-07 4.098578497775e-04 0.0 
0.0 0.0 -6.552037126556e-05 
-6.021736437679e-05 -6.684208511404e-07 0.0 
-6.684208511404e-07 3.714517723808e-04 0.0 
0.0 0.0 -6.000043125475e-05 
-5.068915045621e-05 -1.408380561498e-07 0.0 
-1.408380561498e-07 3.045038040978e-04 0.0 
0.0 0.0 -5.043265711026e-05 
-5.453954142818e-05 2.060651504186e-07 0.0 
2.060651504186e-07 3.366924109337e-04 0.0 
0.0 0.0 -5.469261876575e-05 
-6.451407366441e-05 2.351316534634e-07 0.0 
2.351316534634e-07 4.022325511173e-04 0.0 
0.0 0.0 -6.426716227193e-05 
-5.833627625562e-05 1.475332914289e-06 0.0 
1.475332914289e-06 3.627446873596e-04 0.0 
0.0 0.0 -5.871258337438e-05 
-4.807156131251e-05 2.860984901678e-06 0.0 
2.860984901678e-06 2.943856579529e-04 0.0 
0.0 0.0 -4.913324142619e-05 
-5.254361987426e-05 1.123300701462e-06 0.0 
1.123300701462e-06 3.235079135303e-04 0.0 
0.0 0.0 -5.312780584397e-05 
-6.250659233249e-05 1.032214388617e-06 0.0 
1.032214388617e-06 3.916354902735e-04 0.0 
0.0 0.0 -6.289080004402e-05 
-5.683371271564e-05 6.514617663209e-07 0.0 
6.514617663209e-07 3.524304224725e-04 0.0 
0.0 0.0 -5.728364188530e-05 
-4.626688611708e-05 9.433782266075e-08 0.0 
9.433782266075e-08 2.835389789337e-04 0.0 
0.0 0.0 -4.745589417336e-05 
-5.129426302525e-05 -1.503356296708e-07 0.0 
-1.503356296708e-07 3.125902668457e-04 0.0 
0.0 0.0 -5.163203607156e-05 
-1.648607225605e-04 -6.089305084908e-07 0.0 
-6.089305084908e-07 1.104792906558e-03 0.0 
0.0 0.0 -1.652812738464e-04 
-4.167405797836e-05 8.410179837610e-07 0.0 
8.410179837610e-07 2.451219688669e-04 0.0 
0.0 0.0 -4.186284350154e-05 
-1.249684890118e-04 -2.205649056544e-07 0.0 
-2.205649056544e-07 8.202073805391e-04 0.0 
0.0 0.0 -1.243305906297e-04 
-1.646630308387e-04 -1.022913161016e-08 0.0 
-1.022913161016e-08 1.101899429601e-03 0.0 
0.0 0.0 -1.648518411109e-04 
-1.639675080930e-04 -1.299974009233e-07 0.0 
-1.299974009233e-07 1.093025674446e-03 0.0 
0.0 0.0 -1.635990625314e-04 
-1.626548351363e-04 -9.421237167934e-07 0.0 
-9.421237167934e-07 1.087804894673e-03 0.0 
0.0 0.0 -1.627548864773e-04 
-1.581986558715e-04 -9.653447949462e-07 0.0 
-9.653447949462e-07 1.056782727253e-03 0.0 
0.0 0.0 -1.583405447554e-04 
-1.481377693349e-04 -2.120708352151e-07 0.0 
-2.120708352151e-07 9.876266265678e-04 0.0 
0.0 0.0 -1.484606848305e-04 
-1.540154319252e-04 -3.355995825506e-07 0.0 
-3.355995825506e-07 1.026130043866e-03 0.0 
0.0 0.0 -1.539002516356e-04 
-1.639459642661e-04 -1.118185498440e-06 0.0 
-1.118185498440e-06 1.095163385158e-03 0.0 
0.0 0.0 -1.637913674505e-04 
-1.597127986535e-04 -5.251908400988e-07 0.0 
-5.251908400988e-07 1.064343135399e-03 0.0 
0.0 0.0 -1.593514347843e-04 
-1.498284746973e-04 -2.503307102559e-07 0.0 
-2.503307102559e-07 9.952508194671e-04 0.0 
0.0 0.0 -1.494394109873e-04 
-1.551654717719e-04 -2.221504212273e-07 0.0 
-2.221504212273e-07 1.032948984562e-03 0.0 
0.0 0.0 -1.548970433853e-04 
-1.450485534152e-04 -2.383136960808e-07 0.0 
-2.383136960808e-07 9.636019756158e-04 0.0 
0.0 0.0 -1.449683599891e-04 
-1.505550421048e-04 1.094892235923e-07 0.0 
1.094892235923e-07 1.001407844642e-03 0.0 
0.0 0.0 -1.504333548381e-04 
-1.604309941691e-04 -2.109459501862e-07 0.0 
-2.109459501862e-07 1.070618892500e-03 0.0 
0.0 0.0 -1.603701620288e-04 
-1.560376916017e-04 -3.456752304365e-07 0.0 
-3.456752304365e-07 1.039490983705e-03 0.0 
0.0 0.0 -1.559081117414e-04 
-1.463603444154e-04 5.238436514868e-07 0.0 
5.238436514868e-07 9.703937077682e-04 0.0 
0.0 0.0 -1.459586303199e-04 
-1.516966554836e-04 -5.880015514228e-07 0.0 
-5.880015514228e-07 1.008208762980e-03 0.0 
0.0 0.0 -1.514361790689e-04 
-1.421096498293e-04 1.604631745138e-07 0.0 
1.604631745138e-07 9.389173202103e-04 0.0 
0.0 0.0 -1.414740555389e-04 
-1.468086585315e-04 -1.361458900587e-06 0.0 
-1.361458900587e-06 9.758542090481e-04 0.0 
0.0 0.0 -1.469409179663e-04 
-1.568420766373e-04 -2.584461478695e-07 0.0 
-2.584461478695e-07 1.046197364230e-03 0.0 
0.0 0.0 -1.569152749070e-04 
-4.415663167365e-05 -1.039285152091e-07 0.0 
-1.039285152091e-07 2.708684229223e-04 0.0 
0.0 0.0 -4.553936700826e-05 
-1.526637656570e-04 1.250996266672e-07 0.0 
1.250996266672e-07 1.017041372094e-03 0.0 
0.0 0.0 -1.526598922342e-04 
-1.628543927015e-04 1.351270598111e-06 0.0 
1.351270598111e-06 1.085793726948e-03 0.0 
0.0 0.0 -1.625747755015e-04 
-8.563655870662e-05 -3.488146837263e-06 0.0 
-3.488146837263e-06 5.496252535939e-04 0.0 
0.0 0.0 -8.506982008416e-05 
-9.486581924080e-05 -3.814151178450e-06 0.0 
-3.814151178450e-06 6.119359456549e-04 0.0 
0.0 0.0 -9.488074031859e-05 
-1.005495603609e-04 3.086228134672e-07 0.0 
3.086228134672e-07 6.529918919365e-04 0.0 
0.0 0.0 -1.004348942539e-04 
-1.044776236545e-04 -3.577979789199e-07 0.0 
-3.577979789199e-07 6.841250152862e-04 0.0 
0.0 0.0 -1.048029480622e-04 
-1.519826796643e-04 -1.039717232479e-06 0.0 
-1.039717232479e-06 1.014113556129e-03 0.0 
0.0 0.0 -1.523216651845e-04 
-1.628631714461e-04 6.789175869979e-07 0.0 
6.789175869979e-07 1.084318911977e-03 0.0 
0.0 0.0 -1.624109035739e-04 
-5.449179525623e-05 -7.987416053235e-08 0.0 
-7.987416053235e-08 3.327114773236e-04 0.0 
0.0 0.0 -5.446356520677e-05 
-5.983794664642e-05 5.165551288587e-07 0.0 
5.165551288587e-07 3.698050392348e-04 0.0 
0.0 0.0 -5.981452797925e-05 
-1.671906361362e-04 -6.280906550938e-07 0.0 
-6.280906550938e-07 1.118589944564e-03 0.0 
0.0 0.0 -1.671574094483e-04 
-1.535741135101e-04 4.867165336145e-08 0.0 
4.867165336145e-08 1.026955907390e-03 0.0 
0.0 0.0 -1.540568046000e-04 
-1.438756782793e-04 7.792960236787e-07 0.0 
7.792960236787e-07 9.575022276215e-04 0.0 
0.0 0.0 -1.441490849774e-04 
-1.009130978815e-04 2.058688768753e-07 0.0 
2.058688768753e-07 6.559900048877e-04 0.0 
0.0 0.0 -1.008290295839e-04 
-9.685773395831e-05 4.264808855011e-07 0.0 
4.264808855011e-07 6.270397862493e-04 0.0 
0.0 0.0 -9.674459360631e-05 
-9.135164612507e-05 -1.903780837398e-07 0.0 
-1.903780837398e-07 5.899287429268e-04 0.0 
0.0 0.0 -9.139696625653e-05 
-8.725354889556e-05 6.962837147414e-07 0.0 
6.962837147414e-07 5.598510728809e-04 0.0 
0.0 0.0 -8.718447207042e-05 
-9.300425525152e-05 1.437996831779e-06 0.0 
1.437996831779e-06 5.988622257639e-04 0.0 
0.0 0.0 -9.260497328457e-05 
-8.151290837503e-05 -1.410580149273e-06 0.0 
-1.410580149273e-06 5.218003047074e-04 0.0 
0.0 0.0 -8.172223224803e-05 
-1.406089208823e-04 -2.402054608789e-07 0.0 
-2.402054608789e-07 9.332894798307e-04 0.0 
0.0 0.0 -1.405957691658e-04 
-1.658683700673e-04 -7.646942833602e-07 0.0 
-7.646942833602e-07 1.108741460833e-03 0.0 
0.0 0.0 -1.658562309426e-04 
-5.781518420954e-05 1.266454175936e-06 0.0 
1.266454175936e-06 3.557470476378e-04 0.0 
0.0 0.0 -5.779306812918e-05 
-4.802865254420e-05 7.137000022053e-07 0.0 
7.137000022053e-07 2.866754704248e-04 0.0 
0.0 0.0 -4.790438838533e-05 
-1.638603738935e-04 -1.751728736807e-07 0.0 
-1.751728736807e-07 1.096449059773e-03 0.0 
0.0 0.0 -1.639950272516e-04 
-1.428406885554e-04 -4.063061608444e-08 0.0 
-4.063061608444e-08 9.487085255522e-04 0.0 
0.0 0.0 -1.428423306355e-04 
-1.397754667912e-04 -5.337001690441e-07 0.0 
-5.337001690441e-07 9.273626177410e-04 0.0 
0.0 0.0 -1.397960314865e-04 
-1.438858799674e-04 -3.687014672476e-07 0.0 
-3.687014672476e-07 9.563861152014e-04 0.0 
0.0 0.0 -1.439752108775e-04 
-1.492610894434e-04 -6.859194927329e-07 0.0 
-6.859194927329e-07 9.938921068845e-04 0.0 
0.0 0.0 -1.493569516990e-04 
-1.533583656652e-04 -2.578988813187e-07 0.0 
-2.578988813187e-07 1.023001986965e-03 0.0 
0.0 0.0 -1.535627705943e-04 
-1.589055659580e-04 -8.108043834338e-07 0.0 
-8.108043834338e-07 1.060829964530e-03 0.0 
0.0 0.0 -1.589810023698e-04 
-1.631518145122e-04 -4.384743000289e-07 0.0 
-4.384743000289e-07 1.089769235200e-03 0.0 
0.0 0.0 -1.631781870057e-04 
-1.576954622164e-04 7.757103855086e-08 0.0 
7.757103855086e-08 1.052834468886e-03 0.0 
0.0 0.0 -1.577686755743e-04 
-1.655653749574e-04 1.153777774229e-06 0.0 
1.153777774229e-06 1.110734179248e-03 0.0 
0.0 0.0 -1.661194977352e-04 
-1.676568937117e-04 -5.380450323565e-07 0.0 
-5.380450323565e-07 1.120118409862e-03 0.0 
0.0 0.0 -1.673875415144e-04 
-1.408452494755e-04 1.226026312677e-06 0.0 
1.226026312677e-06 9.416014478326e-04 0.0 
0.0 0.0 -1.423072560050e-04 
-1.411610954119e-04 -1.667686956676e-07 0.0 
-1.667686956676e-07 9.361864568386e-04 0.0 
0.0 0.0 -1.409767306836e-04 
-6.685806001299e-05 8.336719987083e-07 0.0 
8.336719987083e-07 4.210903405702e-04 0.0 
0.0 0.0 -6.711978442003e-05 
-4.180859338127e-05 -2.391316367319e-06 0.0 
-2.391316367319e-06 2.386470707080e-04 0.0 
0.0 0.0 -4.128748474099e-05 
-4.202443748219e-05 2.082260459363e-08 0.0 
2.082260459363e-08 2.421619926750e-04 0.0 
0.0 0.0 -4.155413421678e-05 
-4.885629556399e-05 9.695166710736e-07 0.0 
9.695166710736e-07 2.973049205982e-04 0.0 
0.0 0.0 -4.949622909127e-05 
-5.886475257555e-05 5.012940386976e-07 0.0 
5.012940386976e-07 3.671165151901e-04 0.0 
0.0 0.0 -5.942331684616e-05 
-1.701524326179e-04 -2.478949267955e-07 0.0 
-2.478949267955e-07 1.141091287684e-03 0.0 
0.0 0.0 -1.704540905158e-04 
-1.688701131472e-04 -7.880779693719e-07 0.0 
-7.880779693719e-07 1.128148657559e-03 0.0 
0.0 0.0 -1.686097943865e-04 
-1.645187862567e-04 -7.830603816417e-07 0.0 
-7.830603816417e-07 1.098043410909e-03 0.0 
0.0 0.0 -1.643423135982e-04 
-8.335621055865e-05 3.090761482563e-06 0.0 
3.090761482563e-06 5.330757850641e-04 0.0 
0.0 0.0 -8.309698707208e-05 
-8.907622380058e-05 9.098765487225e-07 0.0 
9.098765487225e-07 5.710176681635e-04 0.0 
0.0 0.0 -8.857956952730e-05 
-1.698091735536e-04 4.492498910091e-07 0.0 
4.492498910091e-07 1.141399927452e-03 0.0 
0.0 0.0 -1.704417977873e-04 
-1.357890576857e-04 -2.245189513229e-07 0.0 
-2.245189513229e-07 9.134142540395e-04 0.0 
0.0 0.0 -1.376677267776e-04 
-1.395432965358e-04 -1.715851711574e-07 0.0 
-1.715851711574e-07 9.262509041073e-04 0.0 
0.0 0.0 -1.395319589165e-04 
-1.347947841220e-04 2.713370184276e-07 0.0 
2.713370184276e-07 8.938256624501e-04 0.0 
0.0 0.0 -1.350285088515e-04 
-3.672231146069e-05 -2.132510581459e-06 0.0 
-2.132510581459e-06 2.203530386721e-04 0.0 
0.0 0.0 -3.892831888128e-05 
-3.637712963261e-05 7.197511136289e-07 0.0 
7.197511136289e-07 2.141167117019e-04 0.0 
0.0 0.0 -3.788396651026e-05 
-1.694800178962e-04 -9.883703524795e-07 0.0 
-9.883703524795e-07 1.133513736801e-03 0.0 
0.0 0.0 -1.692545752333e-04 
-6.937545800042e-05 3.228980611411e-07 0.0 
3.228980611411e-07 4.358386743780e-04 0.0 
0.0 0.0 -6.923809046111e-05 
-6.522800914265e-05 4.802178938974e-07 0.0 
4.802178938974e-07 4.068593445534e-04 0.0 
0.0 0.0 -6.513959669466e-05 
-3.835293382449e-05 1.419780011636e-06 0.0 
1.419780011636e-06 2.169955699432e-04 0.0 
0.0 0.0 -3.762272808090e-05 
-3.184713987987e-05 3.230456577081e-07 0.0 
3.230456577081e-07 1.763378694127e-04 0.0 
0.0 0.0 -3.215802126946e-05 
-1.564097184147e-04 2.852905095697e-06 0.0 
2.852905095697e-06 1.049316422252e-03 0.0 
0.0 0.0 -1.577722324506e-04 
-1.666476506988e-04 2.040589658683e-06 0.0 
2.040589658683e-06 1.120282174027e-03 0.0 
0.0 0.0 -1.676789152757e-04 
-1.096907460405e-04 -3.286013999443e-07 0.0 
-3.286013999443e-07 7.221561234987e-04 0.0 
0.0 0.0 -1.103539394458e-04 
-1.146883842954e-04 -1.653249674978e-06 0.0 
-1.653249674978e-06 7.528293944776e-04 0.0 
0.0 0.0 -1.147244957885e-04 
-1.658368221067e-04 -7.296927506317e-07 0.0 
-7.296927506317e-07 1.111095675298e-03 0.0 
0.0 0.0 -1.661337593878e-04 
-4.600380394054e-05 -1.491158073068e-07 0.0 
-1.491158073068e-07 2.738216254214e-04 0.0 
0.0 0.0 -4.591192000902e-05 
-1.719378156417e-04 1.421041712674e-07 0.0 
1.421041712674e-07 1.154049105325e-03 0.0 
0.0 0.0 -1.723772497485e-04 
-1.472965570201e-04 4.727447796770e-07 0.0 
4.727447796770e-07 9.788476002172e-04 0.0 
0.0 0.0 -1.471186205066e-04 
-1.373907042142e-04 1.793164290012e-07 0.0 
1.793164290012e-07 9.102123959892e-04 0.0 
0.0 0.0 -1.372860605493e-04 
-9.767120859221e-05 2.136804418641e-06 0.0 
2.136804418641e-06 6.441362083975e-04 0.0 
0.0 0.0 -9.906935000530e-05 
-5.062215510686e-05 1.026665089058e-06 0.0 
1.026665089058e-06 3.047645721911e-04 0.0 
0.0 0.0 -5.049648738178e-05 
-4.540502709285e-05 6.832131871420e-07 0.0 
6.832131871420e-07 2.672371430162e-04 0.0 
0.0 0.0 -4.513648964862e-05 
-7.256428344436e-05 1.111321589037e-06 0.0 
1.111321589037e-06 4.598861736081e-04 0.0 
0.0 0.0 -7.268378841861e-05 
-5.559787971176e-05 4.468565818418e-07 0.0 
4.468565818418e-07 3.424877842220e-04 0.0 
0.0 0.0 -5.585123947100e-05 
-5.303663475667e-05 2.464193940360e-07 0.0 
2.464193940360e-07 3.275568518533e-04 0.0 
0.0 0.0 -5.375179489994e-05 
-1.757934592010e-04 1.094510029965e-06 0.0 
1.094510029965e-06 1.179890690537e-03 0.0 
0.0 0.0 -1.760744972657e-04 
-1.733244805152e-04 -1.137885131472e-06 0.0 
-1.137885131472e-06 1.163616194136e-03 0.0 
0.0 0.0 -1.736362873376e-04 
-1.621997224677e-04 -1.527288975187e-06 0.0 
-1.527288975187e-06 1.082969057806e-03 0.0 
0.0 0.0 -1.620259229750e-04 
-1.525464893974e-04 4.621401952127e-09 0.0 
4.621401952127e-09 1.015177504387e-03 0.0 
0.0 0.0 -1.523516756879e-04 
-1.708917266004e-04 -1.191002855825e-06 0.0 
-1.191002855825e-06 1.149869569914e-03 0.0 
0.0 0.0 -1.717432538670e-04 
-3.490930834727e-05 -8.429582514125e-07 0.0 
-8.429582514125e-07 2.054757264963e-04 0.0 
0.0 0.0 -3.598778460012e-05 
-1.750597953055e-04 -3.250942675730e-07 0.0 
-3.250942675730e-07 1.172414927759e-03 0.0 
0.0 0.0 -1.748691643181e-04 
-1.586399412700e-04 -2.193877546445e-07 0.0 
-2.193877546445e-07 1.058088814965e-03 0.0 
0.0 0.0 -1.584205238596e-04 
-1.750232827386e-04 1.287113450679e-06 0.0 
1.287113450679e-06 1.163117526416e-03 0.0 
0.0 0.0 -1.736397701047e-04 
-1.700112759458e-04 -1.265368885600e-07 0.0 
-1.265368885600e-07 1.135355063019e-03 0.0 
0.0 0.0 -1.696829740659e-04 
-7.476684779119e-05 6.450836384553e-07 0.0 
6.450836384553e-07 4.725536723755e-04 0.0 
0.0 0.0 -7.452749745521e-05 
-7.091016921093e-05 -6.094699303139e-07 0.0 
-6.094699303139e-07 4.445526167574e-04 0.0 
0.0 0.0 -7.058709718060e-05 
-6.137074756451e-05 4.293104842185e-07 0.0 
4.293104842185e-07 3.794045980526e-04 0.0 
0.0 0.0 -6.117385547845e-05 
-6.706588179639e-05 1.609427156406e-06 0.0 
1.609427156406e-06 4.182950742711e-04 0.0 
0.0 0.0 -6.657037245228e-05 
-1.266094766854e-04 -6.739720647019e-07 0.0 
-6.739720647019e-07 8.277553541706e-04 0.0 
0.0 0.0 -1.254250592285e-04 
-8.035638793885e-05 -1.393926461581e-07 0.0 
-1.393926461581e-07 5.104400494154e-04 0.0 
0.0 0.0 -8.000873303496e-05 
-1.195834177750e-04 -1.404073059010e-07 0.0 
-1.404073059010e-07 7.834003609027e-04 0.0 
0.0 0.0 -1.190894946197e-04 
-1.155376331103e-04 -2.307315433277e-07 0.0 
-2.307315433277e-07 7.547800193782e-04 0.0 
0.0 0.0 -1.149779503611e-04 
-1.103258532928e-04 1.102189864937e-07 0.0 
1.102189864937e-07 7.186555490901e-04 0.0 
0.0 0.0 -1.097928741388e-04 
-9.842809374509e-05 1.902629040635e-07 0.0 
1.902629040635e-07 6.359410459750e-04 0.0 
0.0 0.0 -9.791810678625e-05 
-9.437419777145e-05 -2.159475299136e-07 0.0 
-2.159475299136e-07 6.080813734442e-04 0.0 
0.0 0.0 -9.392806562918e-05 
-8.322610419495e-05 -1.701840068510e-07 0.0 
-1.701840068510e-07 5.319942046353e-04 0.0 
0.0 0.0 -8.302446698330e-05 
-1.259991147617e-04 -5.365801846220e-07 0.0 
-5.365801846220e-07 8.306372732465e-04 0.0 
0.0 0.0 -1.258546578921e-04 
-1.058761433090e-04 7.571849957902e-08 0.0 
7.571849957902e-08 6.921175985289e-04 0.0 
0.0 0.0 -1.060443156317e-04 
-1.312139144854e-04 -3.837092576882e-07 0.0 
-3.837092576882e-07 8.682026054100e-04 0.0 
0.0 0.0 -1.312656420104e-04 
-1.251895528939e-04 1.195207152195e-07 0.0 
1.195207152195e-07 8.263310173887e-04 0.0 
0.0 0.0 -1.252521985300e-04 
-1.703049238627e-04 -5.676244569172e-07 0.0 
-5.676244569172e-07 1.139278121345e-03 0.0 
0.0 0.0 -1.702664597809e-04 
-1.760146123077e-04 -1.359452968980e-06 0.0 
-1.359452968980e-06 1.178275809354e-03 0.0 
0.0 0.0 -1.757907768048e-04 
-1.365524219146e-04 1.370157856815e-06 0.0 
1.370157856815e-06 9.012669428523e-04 0.0 
0.0 0.0 -1.359860927471e-04 
-1.307920283978e-04 1.357393189447e-07 0.0 
1.357393189447e-07 8.686300506088e-04 0.0 
0.0 0.0 -1.314620690688e-04 
-4.233213601894e-05 -2.593523707964e-07 0.0 
-2.593523707964e-07 2.470565775743e-04 0.0 
0.0 0.0 -4.219739737344e-05 
-3.886008786518e-05 1.163800211807e-06 0.0 
1.163800211807e-06 2.179605684997e-04 0.0 
0.0 0.0 -3.798854165781e-05 
-1.182815464932e-04 7.930796381187e-08 0.0 
7.930796381187e-08 7.785584436133e-04 0.0 
0.0 0.0 -1.184174655913e-04 
-1.693736305393e-04 6.591876404938e-07 0.0 
6.591876404938e-07 1.131789490517e-03 0.0 
0.0 0.0 -1.691294037713e-04 
-1.725748694788e-04 -2.401644388829e-08 0.0 
-2.401644388829e-08 1.155505334098e-03 0.0 
0.0 0.0 -1.725143790870e-04 
-1.770772882819e-04 -4.241524903004e-07 0.0 
-4.241524903004e-07 1.186342832568e-03 0.0 
0.0 0.0 -1.769059244357e-04 
-1.714408370001e-04 -4.978042219238e-07 0.0 
-4.978042219238e-07 1.148550534216e-03 0.0 
0.0 0.0 -1.715053987883e-04 
-1.710166963781e-04 1.347194091455e-07 0.0 
1.347194091455e-07 1.148948053295e-03 0.0 
0.0 0.0 -1.716410088010e-04 
-8.613875064520e-05 1.983705843859e-08 0.0 
1.983705843859e-08 5.527937603815e-04 0.0 
0.0 0.0 -8.600610143220e-05 
-1.288985122743e-04 -4.311114656054e-07 0.0 
-4.311114656054e-07 8.513543686181e-04 0.0 
0.0 0.0 -1.288645011303e-04 
-3.653516155706e-05 -1.602670112053e-06 0.0 
-1.602670112053e-06 2.073406842075e-04 0.0 
0.0 0.0 -3.634822514125e-05 
-1.333225735758e-04 1.155434495762e-07 0.0 
1.155434495762e-07 8.819083259488e-04 0.0 
0.0 0.0 -1.332694147460e-04 
-3.243355553450e-05 -5.508408617257e-07 0.0 
-5.508408617257e-07 1.777229056962e-04 0.0 
0.0 0.0 -3.243805315734e-05 
-1.521318087540e-04 -2.136602868641e-07 0.0 
-2.136602868641e-07 1.009920947414e-03 0.0 
0.0 0.0 -1.515479370354e-04 
-1.681720023865e-04 8.090304823283e-08 0.0 
8.090304823283e-08 1.126882532784e-03 0.0 
0.0 0.0 -1.684223758654e-04 
-1.735596513314e-04 4.917479192772e-09 0.0 
4.917479192772e-09 1.165356413454e-03 0.0 
0.0 0.0 -1.738820625913e-04 
-1.749637471521e-04 2.720388968619e-07 0.0 
2.720388968619e-07 1.178416888185e-03 0.0 
0.0 0.0 -1.757938962529e-04 
-1.125612094541e-04 1.713025509613e-06 0.0 
1.713025509613e-06 7.350876687057e-04 0.0 
0.0 0.0 -1.120642929630e-04 
-1.375852130868e-04 4.206176119327e-07 0.0 
4.206176119327e-07 9.112604874474e-04 0.0 
0.0 0.0 -1.374408399149e-04 
-1.323430315928e-04 2.679124462257e-07 0.0 
2.679124462257e-07 8.742078643875e-04 0.0 
0.0 0.0 -1.321308925596e-04 
-1.061253817389e-04 5.601605163015e-07 0.0 
5.601605163015e-07 6.904423550458e-04 0.0 
0.0 0.0 -1.057303730324e-04 
-1.010535408523e-04 5.872506187825e-07 0.0 
5.872506187825e-07 6.547439695766e-04 0.0 
0.0 0.0 -1.006129583810e-04 
-1.050589004756e-04 5.249789125323e-07 0.0 
5.249789125323e-07 6.823405630018e-04 0.0 
0.0 0.0 -1.045943784994e-04 
-9.594121695788e-05 5.701784484997e-07 0.0 
5.701784484997e-07 6.189426135763e-04 0.0 
0.0 0.0 -9.539409567622e-05 
-7.670722250222e-05 7.477520012380e-07 0.0 
7.477520012380e-07 4.887760317978e-04 0.0 
0.0 0.0 -7.683892420519e-05 
-7.103860008569e-05 4.652611723913e-07 0.0 
4.652611723913e-07 4.497405032502e-04 0.0 
0.0 0.0 -7.125283206988e-05 
-1.794791303054e-04 3.046290545187e-07 0.0 
3.046290545187e-07 1.202568044115e-03 0.0 
0.0 0.0 -1.788063205342e-04 
-1.769207863009e-04 3.279526117005e-06 0.0 
3.279526117005e-06 1.187698538996e-03 0.0 
0.0 0.0 -1.767990258301e-04 
-1.796288049769e-04 -8.041882013151e-07 0.0 
-8.041882013151e-07 1.202665816041e-03 0.0 
0.0 0.0 -1.789543763817e-04 
-1.735511399808e-04 -6.381743090034e-08 0.0 
-6.381743090034e-08 1.174777860682e-03 0.0 
0.0 0.0 -1.752247752347e-04 
-1.776329748734e-04 -4.492702858952e-07 0.0 
-4.492702858952e-07 1.208120942378e-03 0.0 
0.0 0.0 -1.801365737201e-04 
-1.734650378150e-04 -1.715499755081e-07 0.0 
-1.715499755081e-07 1.171053020005e-03 0.0 
0.0 0.0 -1.746253154232e-04 
-6.397194449559e-05 -8.644213742386e-07 0.0 
-8.644213742386e-07 3.958263205946e-04 0.0 
0.0 0.0 -6.341026310084e-05 
-8.522640710731e-05 3.477888862430e-07 0.0 
3.477888862430e-07 5.439871764934e-04 0.0 
0.0 0.0 -8.469390476807e-05 
-1.776955029070e-04 -1.524143709276e-06 0.0 
-1.524143709276e-06 1.201358150170e-03 0.0 
0.0 0.0 -1.791227834549e-04 
-1.112229346520e-04 4.789206220835e-07 0.0 
4.789206220835e-07 7.257595216689e-04 0.0 
0.0 0.0 -1.108630369651e-04 
-1.797556034384e-04 -6.312345564761e-07 0.0 
-6.312345564761e-07 1.200035518570e-03 0.0 
0.0 0.0 -1.789253132142e-04 
-1.736948380453e-04 5.431781983200e-07 0.0 
5.431781983200e-07 1.162780945010e-03 0.0 
0.0 0.0 -1.734070790826e-04 
-2.519516585345e-05 -9.707201663460e-07 0.0 
-9.707201663460e-07 1.373677520700e-04 0.0 
0.0 0.0 -2.664754339747e-05 
-3.015018737399e-05 -3.279297815400e-06 0.0 
-3.279297815400e-06 1.664829630556e-04 0.0 
0.0 0.0 -3.052430242461e-05 
-1.769892636273e-04 2.634610193557e-07 0.0 
2.634610193557e-07 1.192719086742e-03 0.0 
0.0 0.0 -1.776883310004e-04 
-5.758327952376e-05 -3.462473019852e-08 0.0 
-3.462473019852e-08 3.517263668732e-04 0.0 
0.0 0.0 -5.717887963261e-05 
-6.329339839047e-05 1.198404527509e-06 0.0 
1.198404527509e-06 3.880051844578e-04 0.0 
0.0 0.0 -6.238035407746e-05 
-5.212222281800e-05 -2.848057552127e-07 0.0 
-2.848057552127e-07 3.138366464287e-04 0.0 
0.0 0.0 -5.189549137910e-05 
-1.887618442225e-04 7.084845367266e-07 0.0 
7.084845367266e-07 1.267778144178e-03 0.0 
0.0 0.0 -1.887465440047e-04 
-1.122732225603e-04 -4.441296090606e-07 0.0 
-4.441296090606e-07 7.339799403067e-04 0.0 
0.0 0.0 -1.121888505450e-04 
-1.770685012225e-04 3.305358162577e-07 0.0 
3.305358162577e-07 1.195492347302e-03 0.0 
0.0 0.0 -1.784128478473e-04 
-1.037318983505e-04 3.959585097188e-08 0.0 
3.959585097188e-08 6.732989381237e-04 0.0 
0.0 0.0 -1.032702350429e-04 
-1.811215610528e-04 5.481099123405e-07 0.0 
5.481099123405e-07 1.225364590535e-03 0.0 
0.0 0.0 -1.824766045798e-04 
-1.418983722809e-04 3.275014927135e-07 0.0 
3.275014927135e-07 9.414952171589e-04 0.0 
0.0 0.0 -1.417367461992e-04 
-9.531983498029e-05 1.199130758146e-06 0.0 
1.199130758146e-06 6.176848429937e-04 0.0 
0.0 0.0 -9.530949026541e-05 
-1.618025468886e-04 -1.313138482705e-06 0.0 
-1.313138482705e-06 1.080414047570e-03 0.0 
0.0 0.0 -1.617266240239e-04 
-1.712367337160e-04 -2.517022686550e-06 0.0 
-2.517022686550e-06 1.155497819449e-03 0.0 
0.0 0.0 -1.723711093632e-04 
-1.839585546077e-04 1.922702604488e-06 0.0 
1.922702604488e-06 1.233266053318e-03 0.0 
0.0 0.0 -1.832438941626e-04 
-1.282285700338e-04 1.437764343269e-06 0.0 
1.437764343269e-06 8.565496247714e-04 0.0 
0.0 0.0 -1.295806172002e-04 
-1.247283955189e-04 -2.695014414448e-06 0.0 
-2.695014414448e-06 8.206621223611e-04 0.0 
0.0 0.0 -1.249156399969e-04 
-1.336973054243e-04 4.780502432986e-07 0.0 
4.780502432986e-07 8.862457055751e-04 0.0 
0.0 0.0 -1.338771030064e-04 
-4.352546499244e-05 4.436478363746e-07 0.0 
4.436478363746e-07 2.551361667223e-04 0.0 
0.0 0.0 -4.330579966881e-05 
-3.389814883689e-05 -2.442715112613e-07 0.0 
-2.442715112613e-07 1.810863350630e-04 0.0 
0.0 0.0 -3.279405811742e-05 
-1.716063829927e-04 -5.958765859028e-07 0.0 
-5.958765859028e-07 1.146696562296e-03 0.0 
0.0 0.0 -1.713135399111e-04 
-7.523536838437e-05 -6.007458973842e-07 0.0 
-6.007458973842e-07 4.758491836951e-04 0.0 
0.0 0.0 -7.509208182934e-05 
-8.235594042686e-05 2.209891807401e-06 0.0 
2.209891807401e-06 5.147698268391e-04 0.0 
0.0 0.0 -8.038827667338e-05 
-5.001146581911e-05 6.274014862649e-08 0.0 
6.274014862649e-08 3.012652504281e-04 0.0 
0.0 0.0 -4.993066604202e-05 
-5.951991557963e-05 4.745024153846e-07 0.0 
4.745024153846e-07 3.695589487495e-04 0.0 
0.0 0.0 -5.978314405524e-05 
-1.155737714789e-04 -3.760380621998e-07 0.0 
-3.760380621998e-07 7.609985150200e-04 0.0 
0.0 0.0 -1.159213944990e-04 
-1.114463395749e-04 -2.406998584791e-07 0.0 
-2.406998584791e-07 7.310738123434e-04 0.0 
0.0 0.0 -1.116262644424e-04 
-1.561658126362e-04 -5.299206413351e-07 0.0 
-5.299206413351e-07 1.039568765867e-03 0.0 
0.0 0.0 -1.558038104416e-04 
-1.616536575182e-04 8.873878670224e-08 0.0 
8.873878670224e-08 1.076746179334e-03 0.0 
0.0 0.0 -1.611194038499e-04 
-1.452021797269e-04 -7.201116330741e-07 0.0 
-7.201116330741e-07 9.647061708381e-04 0.0 
0.0 0.0 -1.451343074576e-04 
-1.417360905196e-04 8.632870990929e-08 0.0 
8.632870990929e-08 9.403024522762e-04 0.0 
0.0 0.0 -1.415933767274e-04 
-1.319020358547e-04 3.977806768537e-08 0.0 
3.977806768537e-08 8.718254866790e-04 0.0 
0.0 0.0 -1.317570344669e-04 
-1.275952978262e-04 -1.808898908879e-07 0.0 
-1.808898908879e-07 8.422298684311e-04 0.0 
0.0 0.0 -1.275414768178e-04 
-1.808056931016e-04 -1.525758788825e-06 0.0 
-1.525758788825e-06 1.206677931101e-03 0.0 
0.0 0.0 -1.799800510317e-04 
-1.870307763930e-04 -2.673876865903e-07 0.0 
-2.673876865903e-07 1.255623469781e-03 0.0 
0.0 0.0 -1.864092322314e-04 
-8.236599237368e-05 5.694757370753e-07 0.0 
5.694757370753e-07 5.272929756111e-04 0.0 
0.0 0.0 -8.232948673513e-05 
-7.828325005813e-05 7.807941924694e-07 0.0 
7.807941924694e-07 4.983469412597e-04 0.0 
0.0 0.0 -7.818189541436e-05 
-8.066781870606e-05 6.215778532638e-07 0.0 
6.215778532638e-07 5.167877030226e-04 0.0 
0.0 0.0 -8.085192856594e-05 
-1.821793884671e-04 -9.452425038887e-07 0.0 
-9.452425038887e-07 1.232295246858e-03 0.0 
0.0 0.0 -1.834584547941e-04 
-1.830922366977e-04 2.536660346183e-06 0.0 
2.536660346183e-06 1.235147881441e-03 0.0 
0.0 0.0 -1.836006722523e-04 
-1.803954664386e-04 -2.175726806454e-06 0.0 
-2.175726806454e-06 1.202974169961e-03 0.0 
0.0 0.0 -1.793731166858e-04 
-2.884547195492e-05 -1.949294581992e-06 0.0 
-1.949294581992e-06 1.508764218898e-04 0.0 
0.0 0.0 -2.821170413667e-05 
-3.570881000968e-05 -1.070718923965e-06 0.0 
-1.070718923965e-06 1.885432469507e-04 0.0 
0.0 0.0 -3.370638853217e-05 
-4.213783208319e-05 -1.170748262368e-07 0.0 
-1.170748262368e-07 2.402822286115e-04 0.0 
0.0 0.0 -4.126795851095e-05 
-3.586246974089e-05 -2.546283779184e-06 0.0 
-2.546283779184e-06 2.018033726068e-04 0.0 
0.0 0.0 -3.610688574664e-05 
-1.813118037091e-04 3.339770754456e-08 0.0 
3.339770754456e-08 1.214209313964e-03 0.0 
0.0 0.0 -1.810888083315e-04 
-1.759503644858e-04 -2.370337744287e-09 0.0 
-2.370337744287e-09 1.179752016776e-03 0.0 
0.0 0.0 -1.758947287297e-04 
-1.868380600491e-04 -2.026246098823e-08 0.0 
-2.026246098823e-08 1.260450932184e-03 0.0 
0.0 0.0 -1.871207327665e-04 
-5.677368414960e-05 2.032718348151e-06 0.0 
2.032718348151e-06 3.527741904510e-04 0.0 
0.0 0.0 -5.702308739092e-05 
-1.568027754872e-04 9.086678946457e-07 0.0 
9.086678946457e-07 1.045425867798e-03 0.0 
0.0 0.0 -1.567983548164e-04 
-1.807947804281e-04 1.816885949765e-06 0.0 
1.816885949765e-06 1.215031055035e-03 0.0 
0.0 0.0 -1.811848825972e-04 
-1.767874529665e-04 2.635533244675e-06 0.0 
2.635533244675e-06 1.187503191795e-03 0.0 
0.0 0.0 -1.767018567944e-04 
-1.863663002342e-04 1.461510242915e-06 0.0 
1.461510242915e-06 1.257417594462e-03 0.0 
0.0 0.0 -1.866936124609e-04 
-1.705605319310e-04 -3.043131196868e-07 0.0 
-3.043131196868e-07 1.147035567734e-03 0.0 
0.0 0.0 -1.713153186433e-04 
-1.813551999588e-04 -1.051944771726e-06 0.0 
-1.051944771726e-06 1.212243561196e-03 0.0 
0.0 0.0 -1.808143025540e-04 
-1.810144852020e-04 9.510582154736e-07 0.0 
9.510582154736e-07 1.215244823925e-03 0.0 
0.0 0.0 -1.813984546852e-04 
-2.289882463440e-05 -1.917411223350e-06 0.0 
-1.917411223350e-06 1.064438362998e-04 0.0 
0.0 0.0 -2.272772520152e-05 
-1.796453692485e-04 -2.519464026569e-06 0.0 
-2.519464026569e-06 1.205769465943e-03 0.0 
0.0 0.0 -1.799989151485e-04 
-1.255838269039e-04 -2.372108616113e-07 0.0 
-2.372108616113e-07 8.274746007515e-04 0.0 
0.0 0.0 -1.255735778981e-04 
-1.648487917531e-05 -4.731674107763e-06 0.0 
-4.731674107763e-06 7.996115120316e-05 0.0 
0.0 0.0 -1.701907742944e-05 
-1.197277503755e-04 -6.241620168611e-08 0.0 
-6.241620168611e-08 7.962718767862e-04 0.0 
0.0 0.0 -1.210522788133e-04 
-1.264445161814e-04 -2.564056665928e-07 0.0 
-2.564056665928e-07 8.371650247824e-04 0.0 
0.0 0.0 -1.267742309066e-04 
-1.154487627705e-04 -6.658166254296e-07 0.0 
-6.658166254296e-07 7.569378951924e-04 0.0 
0.0 0.0 -1.162214466274e-04 
-4.660515595758e-05 1.493989084367e-06 0.0 
1.493989084367e-06 2.841958466787e-04 0.0 
0.0 0.0 -4.732948783071e-05 
-1.214260254664e-04 -1.596625013767e-06 0.0 
-1.596625013767e-06 8.039136548600e-04 0.0 
0.0 0.0 -1.226115929076e-04 
-1.277494935593e-04 -2.322994823893e-06 0.0 
-2.322994823893e-06 8.489823059285e-04 0.0 
0.0 0.0 -1.283491864751e-04 
-2.181725480317e-05 4.928406156629e-07 0.0 
4.928406156629e-07 1.070930809537e-04 0.0 
0.0 0.0 -2.131994005793e-05 
-1.874449477591e-04 5.176155724588e-07 0.0 
5.176155724588e-07 1.267519228381e-03 0.0 
0.0 0.0 -1.888952332360e-04 
-2.478565018414e-05 -1.930000472000e-06 0.0 
-1.930000472000e-06 1.118328058531e-04 0.0 
0.0 0.0 -2.334665006309e-05 
-2.656716960799e-05 -2.510778064998e-06 0.0 
-2.510778064998e-06 1.411464559949e-04 0.0 
0.0 0.0 -2.709867152969e-05 
-1.817312836183e-04 2.201942420487e-06 0.0 
2.201942420487e-06 1.232410437945e-03 0.0 
0.0 0.0 -1.831822052943e-04 
-1.773206336066e-04 -2.021839507971e-07 0.0 
-2.021839507971e-07 1.191992626232e-03 0.0 
0.0 0.0 -1.776517324320e-04 
-1.872954897737e-04 -1.006614931482e-06 0.0 
-1.006614931482e-06 1.259866749947e-03 0.0 
0.0 0.0 -1.871589901852e-04 
-1.824456739670e-04 2.064220422989e-06 0.0 
2.064220422989e-06 1.218220290450e-03 0.0 
0.0 0.0 -1.816528226986e-04 
-1.719240551568e-04 -7.467342115413e-07 0.0 
-7.467342115413e-07 1.152044759436e-03 0.0 
0.0 0.0 -1.720599434401e-04 
-1.761500249536e-04 9.670950468971e-07 0.0 
9.670950468971e-07 1.183630845697e-03 0.0 
0.0 0.0 -1.764735915037e-04 
-1.203392003903e-04 -2.198342008040e-06 0.0 
-2.198342008040e-06 7.898463321084e-04 0.0 
0.0 0.0 -1.197898394197e-04 
-1.865443414806e-04 2.647479046358e-06 0.0 
2.647479046358e-06 1.260124298644e-03 0.0 
0.0 0.0 -1.873527554397e-04 
-1.803841241731e-04 6.709369355740e-07 0.0 
6.709369355740e-07 1.214344074041e-03 0.0 
0.0 0.0 -1.811164307615e-04 
-1.921061091143e-04 1.480715088923e-06 0.0 
1.480715088923e-06 1.296918019707e-03 0.0 
0.0 0.0 -1.916891122952e-04 
-9.208569695246e-05 6.093443112200e-07 0.0 
6.093443112200e-07 5.924864494399e-04 0.0 
0.0 0.0 -9.162005200151e-05 
-7.283645161877e-05 4.586395072899e-07 0.0 
4.586395072899e-07 4.547389083214e-04 0.0 
0.0 0.0 -7.184037522857e-05 
-6.889002091575e-05 3.964795035727e-07 0.0 
3.964795035727e-07 4.246717698014e-04 0.0 
0.0 0.0 -6.790877045087e-05 
-5.909497143754e-05 6.023844365174e-06 0.0 
6.023844365174e-06 3.592168662585e-04 0.0 
0.0 0.0 -5.813495639200e-05 
-1.853176739262e-04 8.122300759658e-07 0.0 
8.122300759658e-07 1.250781756793e-03 0.0 
0.0 0.0 -1.860270850411e-04 
-1.796312402729e-04 3.276727185624e-06 0.0 
3.276727185624e-06 1.208836358275e-03 0.0 
0.0 0.0 -1.800885023177e-04 
-1.631801230170e-04 1.627520387689e-07 0.0 
1.627520387689e-07 1.090569837524e-03 0.0 
0.0 0.0 -1.631333845344e-04 
-1.534477329204e-04 6.766395027793e-07 0.0 
6.766395027793e-07 1.020410487752e-03 0.0 
0.0 0.0 -1.531108459605e-04 
-1.224599435499e-04 1.078011159301e-06 0.0 
1.078011159301e-06 8.009987656653e-04 0.0 
0.0 0.0 -1.216227322220e-04 
-1.215744765480e-04 -1.237691044798e-06 0.0 
-1.237691044798e-06 7.963280792961e-04 0.0 
0.0 0.0 -1.211602941205e-04 
-1.308077100931e-04 4.769688121849e-06 0.0 
4.769688121849e-06 8.600072513362e-04 0.0 
0.0 0.0 -1.301779020232e-04 
-1.297276618714e-04 -1.066682707188e-06 0.0 
-1.066682707188e-06 8.491749556053e-04 0.0 
0.0 0.0 -1.291373028237e-04 
-1.389532460221e-04 4.549858847667e-06 0.0 
4.549858847667e-06 9.158165643447e-04 0.0 
0.0 0.0 -1.380077606708e-04 
-1.362521981567e-04 -2.124783431130e-06 0.0 
-2.124783431130e-06 9.054980890478e-04 0.0 
0.0 0.0 -1.366342160092e-04 
-1.454793170856e-04 -4.423821596291e-06 0.0 
-4.423821596291e-06 9.700799799999e-04 0.0 
0.0 0.0 -1.459037168719e-04 
-1.870833549466e-04 3.909084775636e-06 0.0 
3.909084775636e-06 1.256272641087e-03 0.0 
0.0 0.0 -1.867631680280e-04 
-4.779563930822e-05 1.388169697748e-06 0.0 
1.388169697748e-06 2.856867328083e-04 0.0 
0.0 0.0 -4.771245731983e-05 
-1.019348355349e-04 5.925610993024e-07 0.0 
5.925610993024e-07 6.625121101145e-04 0.0 
0.0 0.0 -1.017460476387e-04 
-1.826285801103e-04 -1.661566205844e-06 0.0 
-1.661566205844e-06 1.237533025725e-03 0.0 
0.0 0.0 -1.842392070075e-04 
-1.784932399449e-04 -5.084121371407e-07 0.0 
-5.084121371407e-07 1.196504370322e-03 0.0 
0.0 0.0 -1.781095211982e-04 
-9.045878749083e-05 3.060141382145e-07 0.0 
3.060141382145e-07 5.804720461946e-04 0.0 
0.0 0.0 -9.001416730698e-05 
-8.189605333165e-05 1.641333009624e-06 0.0 
1.641333009624e-06 5.186644514913e-04 0.0 
0.0 0.0 -8.102430021026e-05 
-1.866907463054e-04 2.093765460227e-06 0.0 
2.093765460227e-06 1.251863261449e-03 0.0 
0.0 0.0 -1.858191563033e-04 
-8.427129088721e-05 2.509183407979e-07 0.0 
2.509183407979e-07 5.389541208829e-04 0.0 
0.0 0.0 -8.400472401885e-05 
-1.942862609106e-04 -4.604509060764e-07 0.0 
-4.604509060764e-07 1.310239742523e-03 0.0 
0.0 0.0 -1.943189575261e-04 
-7.089778492893e-06 -8.429924576269e-07 0.0 
-8.429924576269e-07 3.992716951653e-05 0.0 
0.0 0.0 -8.535005130452e-06 
-1.936791033226e-05 1.730686598501e-06 0.0 
1.730686598501e-06 1.017559906333e-04 0.0 
0.0 0.0 -2.030164989952e-05 
-8.968053387105e-05 4.268638781566e-07 0.0 
4.268638781566e-07 5.769858883096e-04 0.0 
0.0 0.0 -8.953811051246e-05 
-9.967591826382e-05 1.816339090070e-07 0.0 
1.816339090070e-07 6.455070859268e-04 0.0 
0.0 0.0 -9.930333011984e-05 
-7.698272719919e-05 1.369511196201e-06 0.0 
1.369511196201e-06 4.917432221998e-04 0.0 
0.0 0.0 -7.735978650723e-05 
-7.290112700995e-05 4.485042513468e-07 0.0 
4.485042513468e-07 4.686595431743e-04 0.0 
0.0 0.0 -7.375775675111e-05 
-1.516976068027e-04 9.731432031663e-08 0.0 
9.731432031663e-08 1.010085692234e-03 0.0 
0.0 0.0 -1.515828990902e-04 
-2.955388113014e-05 -3.810006738129e-07 0.0 
-3.810006738129e-07 1.597998460951e-04 0.0 
0.0 0.0 -2.992625374333e-05 
-4.708750000530e-05 -3.380683912340e-07 0.0 
-3.380683912340e-07 2.775741899182e-04 0.0 
0.0 0.0 -4.660401843130e-05 
-1.459872513037e-04 4.283387118632e-06 0.0 
4.283387118632e-06 9.787274438894e-04 0.0 
0.0 0.0 -1.469538452094e-04 
-3.739432352920e-05 8.132963554299e-08 0.0 
8.132963554299e-08 2.132217851977e-04 0.0 
0.0 0.0 -3.731550915806e-05 
-1.581113812495e-04 5.386783396549e-07 0.0 
5.386783396549e-07 1.056624836089e-03 0.0 
0.0 0.0 -1.583700297543e-04 
-8.859117282002e-05 -4.886909086429e-07 0.0 
-4.886909086429e-07 5.694929478328e-04 0.0 
0.0 0.0 -8.837999545446e-05 
-1.077149909289e-04 1.768026495225e-08 0.0 
1.768026495225e-08 7.012731036170e-04 0.0 
0.0 0.0 -1.073025146250e-04 
-5.592229804259e-05 8.436426505879e-07 0.0 
8.436426505879e-07 3.420524339702e-04 0.0 
0.0 0.0 -5.582998379547e-05 
-7.655387121575e-05 -1.360505059231e-06 0.0 
-1.360505059231e-06 4.844624894690e-04 0.0 
0.0 0.0 -7.620154526702e-05 
-1.304375061833e-04 -4.590487413421e-07 0.0 
-4.590487413421e-07 8.567018780296e-04 0.0 
0.0 0.0 -1.295787134191e-04 
-1.227913220526e-04 -1.069536414788e-06 0.0 
-1.069536414788e-06 7.988115105914e-04 0.0 
0.0 0.0 -1.212971597528e-04 
-1.171271358387e-04 6.312522150107e-07 0.0 
6.312522150107e-07 7.632427069466e-04 0.0 
0.0 0.0 -1.160760923294e-04 
-9.288654497448e-05 -4.149904162910e-07 0.0 
-4.149904162910e-07 5.993038953958e-04 0.0 
0.0 0.0 -9.268233649937e-05 
-7.967235479004e-05 1.560635261011e-06 0.0 
1.560635261011e-06 5.060818193185e-04 0.0 
0.0 0.0 -7.932496478153e-05 
-6.976412058096e-05 4.685918450985e-07 0.0 
4.685918450985e-07 4.348311074162e-04 0.0 
0.0 0.0 -6.925859231108e-05 
-1.236762265939e-04 1.286441015265e-07 0.0 
1.286441015265e-07 8.121194052814e-04 0.0 
0.0 0.0 -1.231954486131e-04 
-1.661664385129e-04 7.234197314207e-07 0.0 
7.234197314207e-07 1.111077522090e-03 0.0 
0.0 0.0 -1.661212681597e-04 
-1.708685371099e-04 1.275890329840e-06 0.0 
1.275890329840e-06 1.141280747299e-03 0.0 
0.0 0.0 -1.704512426999e-04 
-1.799814060202e-04 -8.892695818691e-09 0.0 
-8.892695818691e-09 1.206980088396e-03 0.0 
0.0 0.0 -1.798902840516e-04 
-1.752252711223e-04 6.293476179297e-07 0.0 
6.293476179297e-07 1.171825368199e-03 0.0 
0.0 0.0 -1.746897123557e-04 
-1.653204529079e-04 3.682681378693e-07 0.0 
3.682681378693e-07 1.103833188294e-03 0.0 
0.0 0.0 -1.650619928257e-04 
-1.692700239592e-04 -9.309390044845e-07 0.0 
-9.309390044845e-07 1.133313101005e-03 0.0 
0.0 0.0 -1.693613594316e-04 
-1.794459408941e-04 1.605079206946e-06 0.0 
1.605079206946e-06 1.200644277872e-03 0.0 
0.0 0.0 -1.790391580507e-04 
-1.729836631084e-04 -6.502744120029e-09 0.0 
-6.502744120029e-09 1.165149049271e-03 0.0 
0.0 0.0 -1.738884562940e-04 
-1.853394956414e-04 -1.746634483939e-06 0.0 
-1.746634483939e-06 1.245260351070e-03 0.0 
0.0 0.0 -1.851430293189e-04 
-1.779629991439e-04 -2.212681777784e-06 0.0 
-2.212681777784e-06 1.194508684255e-03 0.0 
0.0 0.0 -1.780963771770e-04 
-1.680008323397e-04 4.410252086398e-07 0.0 
4.410252086398e-07 1.124792316923e-03 0.0 
0.0 0.0 -1.681296768602e-04 
-1.732313668130e-04 2.383290929429e-07 0.0 
2.383290929429e-07 1.152919895369e-03 0.0 
0.0 0.0 -1.721639567129e-04 
-1.820197878976e-04 -9.097203098577e-07 0.0 
-9.097203098577e-07 1.219293629434e-03 0.0 
0.0 0.0 -1.811651920545e-04 
-1.627398560099e-04 -3.025378736543e-07 0.0 
-3.025378736543e-07 1.085392768176e-03 0.0 
0.0 0.0 -1.623890973126e-04 
-1.881496038472e-04 -6.722589035003e-07 0.0 
-6.722589035003e-07 1.272625835057e-03 0.0 
0.0 0.0 -1.896816515354e-04 
-9.936624462153e-05 3.711915790743e-07 0.0 
3.711915790743e-07 6.447993785367e-04 0.0 
0.0 0.0 -9.931710713211e-05 
-2.678077344496e-05 1.172604196378e-06 0.0 
1.172604196378e-06 1.469601996083e-04 0.0 
0.0 0.0 -2.776378382453e-05 
-2.718822131563e-05 5.643793796885e-06 0.0 
5.643793796885e-06 1.398182331985e-04 0.0 
0.0 0.0 -2.650814903740e-05 
-1.130938350532e-04 2.933038375314e-07 0.0 
2.933038375314e-07 7.386015135744e-04 0.0 
0.0 0.0 -1.126376112924e-04 
-1.957395771822e-04 4.072718166248e-07 0.0 
4.072718166248e-07 1.314065316165e-03 0.0 
0.0 0.0 -1.949709453146e-04 
-1.956422709446e-04 1.854437157922e-08 0.0 
1.854437157922e-08 1.316914351373e-03 0.0 
0.0 0.0 -1.952630510734e-04 
-7.363791568969e-05 4.448116745508e-08 0.0 
4.448116745508e-08 4.652432970724e-04 0.0 
0.0 0.0 -7.343539360029e-05 
-1.953259047097e-04 -1.682103116943e-07 0.0 
-1.682103116943e-07 1.316528916423e-03 0.0 
0.0 0.0 -1.955120939844e-04 
-1.210496703093e-04 -3.742029869829e-07 0.0 
-3.742029869829e-07 7.914115177246e-04 0.0 
0.0 0.0 -1.201823113336e-04 
-5.355766991560e-05 5.069063859747e-07 0.0 
5.069063859747e-07 3.232453025466e-04 0.0 
0.0 0.0 -5.296028401754e-05 
-1.953834150830e-04 -1.373297745112e-06 0.0 
-1.373297745112e-06 1.316914533701e-03 0.0 
0.0 0.0 -1.956430189105e-04 
-1.606320410693e-04 1.081811570651e-06 0.0 
1.081811570651e-06 1.073242688732e-03 0.0 
0.0 0.0 -1.607160970497e-04 
-1.551352503420e-04 -1.927443336718e-07 0.0 
-1.927443336718e-07 1.034924921134e-03 0.0 
0.0 0.0 -1.552285616758e-04 
-1.505583948677e-04 4.103370421327e-07 0.0 
4.103370421327e-07 1.004971037607e-03 0.0 
0.0 0.0 -1.509086942990e-04 
-1.950225372489e-04 -2.088550178189e-06 0.0 
-2.088550178189e-06 1.319599496419e-03 0.0 
0.0 0.0 -1.958801056209e-04 
-1.389109183028e-04 4.741451933549e-08 0.0 
4.741451933549e-08 9.181432809719e-04 0.0 
0.0 0.0 -1.384942297845e-04 
-1.959295069713e-04 -1.244434436796e-06 0.0 
-1.244434436796e-06 1.320610998766e-03 0.0 
0.0 0.0 -1.959024498733e-04 
-1.357909290755e-04 -7.273641547469e-07 0.0 
-7.273641547469e-07 8.985832613114e-04 0.0 
0.0 0.0 -1.355985557075e-04 
-1.314159132553e-04 -2.260781221255e-07 0.0 
-2.260781221255e-07 8.680741570170e-04 0.0 
0.0 0.0 -1.312144960014e-04 
-1.217410062802e-04 -7.968137970671e-08 0.0 
-7.968137970671e-08 8.004989808175e-04 0.0 
0.0 0.0 -1.215252423283e-04 
-1.635653543320e-04 -8.206507231058e-07 0.0 
-8.206507231058e-07 1.094591173860e-03 0.0 
0.0 0.0 -1.638368049481e-04 
-1.957128907948e-04 7.679802216987e-07 0.0 
7.679802216987e-07 1.315946828038e-03 0.0 
0.0 0.0 -1.954016999139e-04 
-1.877918467821e-04 -4.059023819971e-07 0.0 
-4.059023819971e-07 1.261052432127e-03 0.0 
0.0 0.0 -1.872601071101e-04 
-1.870380449284e-04 -1.951022404989e-06 0.0 
-1.951022404989e-06 1.260361361027e-03 0.0 
0.0 0.0 -1.872639817026e-04 
-1.800805456319e-04 7.540324232614e-08 0.0 
7.540324232614e-08 1.200437685780e-03 0.0 
0.0 0.0 -1.783672283586e-04 
-1.950646193177e-04 -5.546188052754e-08 0.0 
-5.546188052754e-08 1.316661406715e-03 0.0 
0.0 0.0 -1.955098189886e-04 
-1.957560602186e-04 -3.716868616247e-07 0.0 
-3.716868616247e-07 1.318924671883e-03 0.0 
0.0 0.0 -1.959998991124e-04 
-1.963981539868e-04 -5.303133434366e-07 0.0 
-5.303133434366e-07 1.320493656548e-03 0.0 
0.0 0.0 -1.962751064225e-04 
-6.844923036856e-05 1.199739337794e-06 0.0 
1.199739337794e-06 4.307455297825e-04 0.0 
0.0 0.0 -6.847160534926e-05 
-7.419643775584e-05 3.743388539179e-07 0.0 
3.743388539179e-07 4.695492771341e-04 0.0 
0.0 0.0 -7.401623890332e-05 
-8.376895134064e-05 1.300131340796e-07 0.0 
1.300131340796e-07 5.365706547931e-04 0.0 
0.0 0.0 -8.364053759108e-05 
-7.953934562445e-05 -2.075640414835e-08 0.0 
-2.075640414835e-08 5.072934929808e-04 0.0 
0.0 0.0 -7.948224144010e-05 
-6.989506786319e-05 -6.245293844848e-08 0.0 
-6.245293844848e-08 4.396733402016e-04 0.0 
0.0 0.0 -6.978551441703e-05 
-7.524805855893e-05 3.094892115024e-07 0.0 
3.094892115024e-07 4.777101055957e-04 0.0 
0.0 0.0 -7.524542772725e-05 
-8.492603218944e-05 -2.618464199117e-07 0.0 
-2.618464199117e-07 5.448643552104e-04 0.0 
0.0 0.0 -8.485997776147e-05 
-7.105462536305e-05 6.250310806945e-07 0.0 
6.250310806945e-07 4.479089343025e-04 0.0 
0.0 0.0 -7.097692746601e-05 
-1.705288852515e-04 -5.065676993723e-08 0.0 
-5.065676993723e-08 1.143493746239e-03 0.0 
0.0 0.0 -1.707769389999e-04 
-1.957870609060e-04 1.292884007357e-06 0.0 
1.292884007357e-06 1.318859783043e-03 0.0 
0.0 0.0 -1.958668742322e-04 
-1.350455497016e-04 7.864309328466e-09 0.0 
7.864309328466e-09 8.951240562794e-04 0.0 
0.0 0.0 -1.351191360868e-04 
-1.307165790976e-04 -4.322242656536e-09 0.0 
-4.322242656536e-09 8.644169275053e-04 0.0 
0.0 0.0 -1.307040085326e-04 
-1.209043728309e-04 3.853306452192e-07 0.0 
3.853306452192e-07 7.961045906332e-04 0.0 
0.0 0.0 -1.208983099878e-04 
-1.015178106691e-04 -3.679167517203e-07 0.0 
-3.679167517203e-07 6.622225460757e-04 0.0 
0.0 0.0 -1.017282540064e-04 
-1.070947291555e-04 -1.713274614578e-07 0.0 
-1.713274614578e-07 7.010953756025e-04 0.0 
0.0 0.0 -1.073098139330e-04 
-1.170318119329e-04 -2.304405178400e-07 0.0 
-2.304405178400e-07 7.699550145936e-04 0.0 
0.0 0.0 -1.171862911330e-04 
-9.606943952016e-05 -6.918043120030e-07 0.0 
-6.918043120030e-07 6.234320450168e-04 0.0 
0.0 0.0 -9.611914699067e-05 
-1.481119786321e-04 -1.006868581403e-07 0.0 
-1.006868581403e-07 9.856164309774e-04 0.0 
0.0 0.0 -1.481459134429e-04 
-1.955042779643e-04 -1.269047585912e-06 0.0 
-1.269047585912e-06 1.318349589731e-03 0.0 
0.0 0.0 -1.957504584866e-04 
-1.330884753948e-04 -1.768196315292e-07 0.0 
-1.768196315292e-07 8.806785880526e-04 0.0 
0.0 0.0 -1.330749450653e-04 
-1.026965489879e-04 1.178065411022e-07 0.0 
1.178065411022e-07 6.708683582992e-04 0.0 
0.0 0.0 -1.029894966699e-04 
-1.130854337220e-04 -7.438576483953e-07 0.0 
-7.438576483953e-07 7.384022260134e-04 0.0 
0.0 0.0 -1.127517955912e-04 
-1.209813153641e-04 2.130007804037e-06 0.0 
2.130007804037e-06 7.983489600902e-04 0.0 
0.0 0.0 -1.214223410530e-04 
-1.212906592670e-04 -2.948275088070e-06 0.0 
-2.948275088070e-06 8.006247840124e-04 0.0 
0.0 0.0 -1.214609177556e-04 
-1.289650632578e-04 -2.836448343722e-06 0.0 
-2.836448343722e-06 8.628838233816e-04 0.0 
0.0 0.0 -1.309968220184e-04 
-1.213818105996e-04 -4.266965506249e-06 0.0 
-4.266965506249e-06 8.042830918570e-04 0.0 
0.0 0.0 -1.223387611305e-04 
-1.201218344436e-04 -5.940699395266e-07 0.0 
-5.940699395266e-07 7.912234115192e-04 0.0 
0.0 0.0 -1.202289988118e-04 
-1.246396976616e-04 -5.061942420403e-07 0.0 
-5.061942420403e-07 8.213580181559e-04 0.0 
0.0 0.0 -1.245418513326e-04 
-1.191093718333e-04 1.337880474637e-07 0.0 
1.337880474637e-07 7.836030816467e-04 0.0 
0.0 0.0 -1.190678843757e-04 
-1.287401379332e-04 -4.825176742022e-07 0.0 
-4.825176742022e-07 8.510925999983e-04 0.0 
0.0 0.0 -1.288600603647e-04 
-1.226230270594e-04 -1.701149775371e-06 0.0 
-1.701149775371e-06 8.113018730487e-04 0.0 
0.0 0.0 -1.232036783932e-04 
-1.130241629680e-04 -1.858461286811e-06 0.0 
-1.858461286811e-06 7.480336692277e-04 0.0 
0.0 0.0 -1.141311642346e-04 
-1.321533265726e-04 -1.335199541160e-06 0.0 
-1.335199541160e-06 8.794062915419e-04 0.0 
0.0 0.0 -1.329915258165e-04 
-1.262846614202e-04 1.119259017791e-06 0.0 
1.119259017791e-06 8.372331183149e-04 0.0 
0.0 0.0 -1.265608218447e-04 
-1.120104832196e-04 -1.984611779904e-06 0.0 
-1.984611779904e-06 7.374063381166e-04 0.0 
0.0 0.0 -1.126429727744e-04 
-9.422976514582e-06 -1.217518494265e-06 0.0 
-1.217518494265e-06 4.558842274141e-05 0.0 
0.0 0.0 -8.813944590281e-06 
-2.032999859278e-05 1.550107281015e-06 0.0 
1.550107281015e-06 1.008000227599e-04 0.0 
0.0 0.0 -2.005057187811e-05 
-1.923634066646e-05 -1.281983274152e-06 0.0 
-1.281983274152e-06 9.903712088906e-05 0.0 
0.0 0.0 -1.977126557535e-05 
-2.892124709552e-05 -6.331508506686e-07 0.0 
-6.331508506686e-07 1.562935872075e-04 0.0 
0.0 0.0 -2.931975365146e-05 
-3.044620434302e-05 2.916307507694e-06 0.0 
2.916307507694e-06 1.611495346811e-04 0.0 
0.0 0.0 -2.995118946101e-05 
-3.774799277366e-05 3.794557032569e-07 0.0 
3.794557032569e-07 2.202737536706e-04 0.0 
0.0 0.0 -3.879981516104e-05 
-3.645995758034e-05 -3.803053327811e-06 0.0 
-3.803053327811e-06 2.139692199118e-04 0.0 
0.0 0.0 -3.742104924291e-05 
-2.033881415161e-05 -1.700939409159e-06 0.0 
-1.700939409159e-06 1.011583560657e-04 0.0 
0.0 0.0 -1.994621821224e-05 
-8.875489974186e-06 -3.480193746507e-07 0.0 
-3.480193746507e-07 4.471598822964e-05 0.0 
0.0 0.0 -8.692282348679e-06 
-1.963315251852e-05 3.711641581478e-07 0.0 
3.711641581478e-07 9.816218701372e-05 0.0 
0.0 0.0 -1.973534442338e-05 
-8.550733775924e-06 2.514775744061e-07 0.0 
2.514775744061e-07 4.381249491722e-05 0.0 
0.0 0.0 -8.579688284227e-06 
-1.901805583189e-05 4.776440578628e-08 0.0 
4.776440578628e-08 9.639762974465e-05 0.0 
0.0 0.0 -1.949131874972e-05 
-2.991788690013e-05 6.474225871532e-07 0.0 
6.474225871532e-07 1.629475291055e-04 0.0 
0.0 0.0 -3.058298354955e-05 
-4.437694804010e-05 -3.488760205633e-08 0.0 
-3.488760205633e-08 2.590089634221e-04 0.0 
0.0 0.0 -4.387725951834e-05 
-1.952890502554e-04 2.705057302809e-06 0.0 
2.705057302809e-06 1.308737158744e-03 0.0 
0.0 0.0 -1.942312205382e-04 
-9.935449687594e-05 7.019136318893e-07 0.0 
7.019136318893e-07 6.421560261642e-04 0.0 
0.0 0.0 -9.893255040107e-05 
-9.532292627254e-05 2.814699913044e-06 0.0 
2.814699913044e-06 6.114496525194e-04 0.0 
0.0 0.0 -9.397196729617e-05 
-8.400669900114e-05 2.679673941902e-06 0.0 
2.679673941902e-06 5.409587176071e-04 0.0 
0.0 0.0 -8.462574969392e-05 
-9.027594374168e-05 -7.837686841303e-07 0.0 
-7.837686841303e-07 5.798954878733e-04 0.0 
0.0 0.0 -8.961994476413e-05 
-1.045740752791e-04 3.140418326638e-06 0.0 
3.140418326638e-06 6.688688744112e-04 0.0 
0.0 0.0 -1.029858181470e-04 
-7.880649475037e-05 2.069962121030e-06 0.0 
2.069962121030e-06 5.047681260686e-04 0.0 
0.0 0.0 -7.930380845106e-05 
-7.495741100239e-05 3.408625348592e-06 0.0 
3.408625348592e-06 4.823631646977e-04 0.0 
0.0 0.0 -7.557437765277e-05 
-9.687066653002e-06 -3.402698014617e-07 0.0 
-3.402698014617e-07 4.591586104220e-05 0.0 
0.0 0.0 -8.739712030662e-06 
-2.047661094667e-05 -2.267522532193e-06 0.0 
-2.267522532193e-06 1.000681362490e-04 0.0 
0.0 0.0 -2.007353836932e-05 
-1.994917007271e-05 2.592468629793e-06 0.0 
2.592468629793e-06 9.445303527474e-05 0.0 
0.0 0.0 -1.994324578594e-05 
-3.151456459980e-05 1.463566236896e-06 0.0 
1.463566236896e-06 1.596924898443e-04 0.0 
0.0 0.0 -2.965054416063e-05 
-2.861510418730e-05 -1.205587774427e-06 0.0 
-1.205587774427e-06 1.581911772624e-04 0.0 
0.0 0.0 -2.941027143855e-05 
-1.937098915206e-05 8.384890895992e-08 0.0 
8.384890895992e-08 1.007669973979e-04 0.0 
0.0 0.0 -1.994784544742e-05 
-1.998172865117e-05 1.674549256837e-06 0.0 
1.674549256837e-06 1.004783062935e-04 0.0 
0.0 0.0 -1.993089637160e-05 
-9.184527398116e-06 -3.340486906928e-07 0.0 
-3.340486906928e-07 4.449611849599e-05 0.0 
0.0 0.0 -8.679810794752e-06 
-1.977844276233e-05 -5.706350657546e-07 0.0 
-5.706350657546e-07 9.957383946922e-05 0.0 
0.0 0.0 -1.962916685114e-05 
-2.895230255585e-05 1.615024457259e-06 0.0 
1.615024457259e-06 1.596384447765e-04 0.0 
0.0 0.0 -2.991862060476e-05 
-7.803011911719e-06 -7.706301462869e-07 0.0 
-7.706301462869e-07 4.106703932536e-05 0.0 
0.0 0.0 -8.301770963759e-06 
-1.590145051585e-04 -4.281304664763e-06 0.0 
-4.281304664763e-06 1.062076659957e-03 0.0 
0.0 0.0 -1.590640962770e-04 
-1.651868147433e-04 -3.398332014324e-06 0.0 
-3.398332014324e-06 1.099025294548e-03 0.0 
0.0 0.0 -1.645623349770e-04 
-1.955657779701e-04 -5.933825758627e-07 0.0 
-5.933825758627e-07 1.315952615564e-03 0.0 
0.0 0.0 -1.951345524439e-04 
-1.128859712793e-04 -3.830481927276e-06 0.0 
-3.830481927276e-06 7.447363822067e-04 0.0 
0.0 0.0 -1.137601485512e-04 
-8.506649409316e-06 3.037838616352e-07 0.0 
3.037838616352e-07 4.456634567568e-05 0.0 
0.0 0.0 -8.827439468020e-06 
-1.944078863341e-04 -1.551046245181e-07 0.0 
-1.551046245181e-07 1.307325842461e-03 0.0 
0.0 0.0 -1.938161294973e-04 
-1.950362438059e-04 -1.795147355396e-06 0.0 
-1.795147355396e-06 1.317406774879e-03 0.0 
0.0 0.0 -1.954759163179e-04 
-1.946257604888e-04 1.407080277293e-06 0.0 
1.407080277293e-06 1.317652425531e-03 0.0 
0.0 0.0 -1.957234727395e-04 
-1.786106491459e-04 1.328228983500e-06 0.0 
1.328228983500e-06 1.198614709334e-03 0.0 
0.0 0.0 -1.786587739673e-04 
-1.826581066041e-04 5.861318546716e-07 0.0 
5.861318546716e-07 1.232821746468e-03 0.0 
0.0 0.0 -1.836483987139e-04 
-1.952382200043e-04 8.912494885484e-07 0.0 
8.912494885484e-07 1.308332215826e-03 0.0 
0.0 0.0 -1.941854046512e-04 
-6.737308308447e-05 5.138193223355e-07 0.0 
5.138193223355e-07 4.244241960940e-04 0.0 
0.0 0.0 -6.769213596492e-05 
-1.828682302183e-04 1.640560627373e-06 0.0 
1.640560627373e-06 1.239731587643e-03 0.0 
0.0 0.0 -1.838610959833e-04 
-1.772400966804e-04 3.904476817882e-07 0.0 
3.904476817882e-07 1.184738121319e-03 0.0 
0.0 0.0 -1.767943248163e-04 
-4.906868359316e-05 -1.133942934728e-07 0.0 
-1.133942934728e-07 2.953935878240e-04 0.0 
0.0 0.0 -4.902575320116e-05 
-6.530462737817e-05 3.585817021726e-07 0.0 
3.585817021726e-07 4.102635123792e-04 0.0 
0.0 0.0 -6.560435786130e-05 
-1.483067082024e-04 3.970804381230e-07 0.0 
3.970804381230e-07 9.886270184883e-04 0.0 
0.0 0.0 -1.484951207735e-04 
-1.367944353413e-04 -1.825561973167e-07 0.0 
-1.825561973167e-07 9.072242838815e-04 0.0 
0.0 0.0 -1.368596897040e-04 
-1.696034640066e-04 -3.607287686916e-07 0.0 
-3.607287686916e-07 1.134493911371e-03 0.0 
0.0 0.0 -1.695585677381e-04 
-1.398704134916e-04 8.561054054680e-09 0.0 
8.561054054680e-09 9.278981832241e-04 0.0 
0.0 0.0 -1.398333781397e-04 
-1.606909834555e-04 -5.100249501151e-07 0.0 
-5.100249501151e-07 1.075019221100e-03 0.0 
0.0 0.0 -1.609685038039e-04 
-1.869198009603e-04 3.460184187221e-06 0.0 
3.460184187221e-06 1.256233406915e-03 0.0 
0.0 0.0 -1.866194889163e-04 
-4.208478570565e-05 -7.076859870355e-07 0.0 
-7.076859870355e-07 2.599245066963e-04 0.0 
0.0 0.0 -4.408826043591e-05 
-1.404915308446e-04 9.501955183076e-07 0.0 
9.501955183076e-07 9.316401756296e-04 0.0 
0.0 0.0 -1.404724030559e-04 
-1.368005256677e-04 9.839857355171e-07 0.0 
9.839857355171e-07 9.063105631980e-04 0.0 
0.0 0.0 -1.369552780944e-04 
-1.614580578208e-04 -5.040207315794e-07 0.0 
-5.040207315794e-07 1.077622303329e-03 0.0 
0.0 0.0 -1.613909692546e-04 
-7.092154026938e-05 -7.271687064730e-07 0.0 
-7.271687064730e-07 4.457927222897e-04 0.0 
0.0 0.0 -7.064368720930e-05 
-1.092130498400e-04 -2.031197807860e-06 0.0 
-2.031197807860e-06 7.170877506305e-04 0.0 
0.0 0.0 -1.095638575444e-04 
-4.734326755177e-05 -7.634204257468e-07 0.0 
-7.634204257468e-07 2.775049997667e-04 0.0 
0.0 0.0 -4.656497932609e-05 
-1.872735419036e-04 6.485390613283e-07 0.0 
6.485390613283e-07 1.262586229201e-03 0.0 
0.0 0.0 -1.877191857934e-04 
-1.143324629321e-04 4.116664924966e-09 0.0 
4.116664924966e-09 7.469603610316e-04 0.0 
0.0 0.0 -1.138559328007e-04 
-1.153850895440e-04 2.798510741524e-07 0.0 
2.798510741524e-07 7.578160194775e-04 0.0 
0.0 0.0 -1.154143056347e-04 
-9.134271070788e-05 -4.241415328680e-07 0.0 
-4.241415328680e-07 5.928584725244e-04 0.0 
0.0 0.0 -9.180364234441e-05 
-7.295992473616e-05 6.931326544943e-07 0.0 
6.931326544943e-07 4.642607920090e-04 0.0 
0.0 0.0 -7.341543808938e-05 
-6.127928487910e-05 4.097090977135e-07 0.0 
4.097090977135e-07 3.818653258479e-04 0.0 
0.0 0.0 -6.151402614941e-05 
-1.048886373049e-04 7.305772282163e-07 0.0 
7.305772282163e-07 6.839939901015e-04 0.0 
0.0 0.0 -1.048536320953e-04 
-1.083489495467e-04 1.953470287276e-07 0.0 
1.953470287276e-07 7.097911034353e-04 0.0 
0.0 0.0 -1.085629762122e-04 
-1.537049609822e-04 2.480873530320e-07 0.0 
2.480873530320e-07 1.024308554960e-03 0.0 
0.0 0.0 -1.536510162914e-04 
-1.672004607334e-04 -4.138652897846e-07 0.0 
-4.138652897846e-07 1.115841044060e-03 0.0 
0.0 0.0 -1.668829017826e-04 
-1.175626501518e-05 2.653670795412e-06 0.0 
2.653670795412e-06 5.212615490244e-05 0.0 
0.0 0.0 -1.076426758597e-05 
-1.591679461113e-04 4.759781921774e-07 0.0 
4.759781921774e-07 1.063059671778e-03 0.0 
0.0 0.0 -1.592508397865e-04 
-1.282088974266e-04 -3.835691054214e-08 0.0 
-3.835691054214e-08 8.473404205640e-04 0.0 
0.0 0.0 -1.282838013392e-04 
-1.443596124248e-04 4.967652743944e-07 0.0 
4.967652743944e-07 9.572886199512e-04 0.0 
0.0 0.0 -1.439863651620e-04 
-1.598472287202e-04 -8.884907360877e-07 0.0 
-8.884907360877e-07 1.064451867688e-03 0.0 
0.0 0.0 -1.593960054358e-04 
-4.175998057522e-05 -3.447721282185e-07 0.0 
-3.447721282185e-07 2.572900811957e-04 0.0 
0.0 0.0 -4.363646550326e-05 
-1.650522666270e-04 -1.570677394041e-07 0.0 
-1.570677394041e-07 1.102136320565e-03 0.0 
0.0 0.0 -1.648121423230e-04 
-1.826232045261e-04 1.027217602921e-06 0.0 
1.027217602921e-06 1.220901163882e-03 0.0 
0.0 0.0 -1.818680320623e-04 
-1.325762676814e-04 -3.821282481616e-06 0.0 
-3.821282481616e-06 8.784259184788e-04 0.0 
0.0 0.0 -1.331264220316e-04 
-3.693963444370e-05 -7.544466628917e-07 0.0 
-7.544466628917e-07 2.092667936724e-04 0.0 
0.0 0.0 -3.663743814291e-05 
-1.313856992864e-04 7.552411984503e-07 0.0 
7.552411984503e-07 8.610864945210e-04 0.0 
0.0 0.0 -1.303870364997e-04 
-1.805690084043e-04 6.802145348002e-07 0.0 
6.802145348002e-07 1.208990479033e-03 0.0 
0.0 0.0 -1.804058984264e-04 
-1.618620090762e-04 -7.704497118792e-08 0.0 
-7.704497118792e-08 1.080863256528e-03 0.0 
0.0 0.0 -1.617330481104e-04 
-6.471559328570e-05 -1.662931831611e-06 0.0 
-1.662931831611e-06 4.062530166876e-04 0.0 
0.0 0.0 -6.504030707074e-05 
-1.192254745372e-04 -3.743731676595e-07 0.0 
-3.743731676595e-07 7.837384510995e-04 0.0 
0.0 0.0 -1.191527179664e-04 
-1.116344855219e-04 1.062141944629e-07 0.0 
1.062141944629e-07 7.298456137402e-04 0.0 
0.0 0.0 -1.114223846842e-04 
-1.018383685965e-04 -1.359407971871e-06 0.0 
-1.359407971871e-06 6.707473892556e-04 0.0 
0.0 0.0 -1.029886159366e-04 
-1.821879658306e-04 1.203703486797e-06 0.0 
1.203703486797e-06 1.214225172284e-03 0.0 
0.0 0.0 -1.809836386841e-04 
-1.227568816259e-04 -6.254739179738e-08 0.0 
-6.254739179738e-08 8.076906619440e-04 0.0 
0.0 0.0 -1.225941817511e-04 
-1.685234158846e-04 1.004345265447e-06 0.0 
1.004345265447e-06 1.124593655933e-03 0.0 
0.0 0.0 -1.680081379364e-04 
-1.385983115983e-04 -4.518781372797e-07 0.0 
-4.518781372797e-07 9.192006383534e-04 0.0 
0.0 0.0 -1.386121366338e-04 
-6.938466731060e-05 -6.198930646466e-07 0.0 
-6.198930646466e-07 4.371957454374e-04 0.0 
0.0 0.0 -6.944566544735e-05 
-1.681992938910e-04 -9.274416247642e-07 0.0 
-9.274416247642e-07 1.123747739326e-03 0.0 
0.0 0.0 -1.678379068203e-04 
-1.163255558547e-04 -2.444566148572e-07 0.0 
-2.444566148572e-07 7.630787415271e-04 0.0 
0.0 0.0 -1.161597941560e-04 
-1.747594319775e-04 -4.754811496893e-07 0.0 
-4.754811496893e-07 1.171391248362e-03 0.0 
0.0 0.0 -1.746922153459e-04 
-1.547158004377e-04 -7.908026844221e-07 0.0 
-7.908026844221e-07 1.031372856638e-03 0.0 
0.0 0.0 -1.547299964433e-04 
-9.575522477032e-05 -2.469845308842e-07 0.0 
-2.469845308842e-07 6.198169541374e-04 0.0 
0.0 0.0 -9.562808392031e-05 
-1.680741224093e-04 -8.043675432309e-07 0.0 
-8.043675432309e-07 1.125048534485e-03 0.0 
0.0 0.0 -1.681755324449e-04 
-1.167097397872e-04 2.723456768358e-07 0.0 
2.723456768358e-07 7.659716634377e-04 0.0 
0.0 0.0 -1.165963749253e-04 
-1.652487966176e-04 1.494188142169e-07 0.0 
1.494188142169e-07 1.103453328263e-03 0.0 
0.0 0.0 -1.649144376955e-04 
-1.090718422596e-04 2.524371737846e-07 0.0 
2.524371737846e-07 7.103678881211e-04 0.0 
0.0 0.0 -1.086081446058e-04 
-1.357966733163e-04 -3.457047510780e-07 0.0 
-3.457047510780e-07 8.984402994021e-04 0.0 
0.0 0.0 -1.356166455148e-04 
-1.479451278654e-04 -5.197314638619e-07 0.0 
-5.197314638619e-07 9.805721187296e-04 0.0 
0.0 0.0 -1.473637189475e-04 
-1.291946076143e-04 -2.210645520775e-08 0.0 
-2.210645520775e-08 8.530967429073e-04 0.0 
0.0 0.0 -1.291232438263e-04 
-1.429493388473e-04 2.592746297642e-06 0.0 
2.592746297642e-06 9.504562516353e-04 0.0 
0.0 0.0 -1.430149859860e-04 
-1.638426906912e-04 3.884553588315e-07 0.0 
3.884553588315e-07 1.093570341671e-03 0.0 
0.0 0.0 -1.635473777094e-04 
-4.679395941113e-05 8.636054265735e-08 0.0 
8.636054265735e-08 2.742855012463e-04 0.0 
0.0 0.0 -4.607001325828e-05 
-8.578179911004e-05 -6.161056704632e-08 0.0 
-6.161056704632e-08 5.513847511004e-04 0.0 
0.0 0.0 -8.578563835690e-05 
-1.423249179194e-04 -7.804262925553e-07 0.0 
-7.804262925553e-07 9.497515173482e-04 0.0 
0.0 0.0 -1.430477210920e-04 
-1.735818036023e-04 -9.773598649861e-07 0.0 
-9.773598649861e-07 1.155171653987e-03 0.0 
0.0 0.0 -1.725878545680e-04 
-1.836468666056e-04 1.003626260766e-06 0.0 
1.003626260766e-06 1.240389692506e-03 0.0 
0.0 0.0 -1.843994436203e-04 
-1.023143520992e-04 5.423079028454e-07 0.0 
5.423079028454e-07 6.643953733865e-04 0.0 
0.0 0.0 -1.020177412065e-04 
-1.622496068517e-04 -8.321051479419e-07 0.0 
-8.321051479419e-07 1.084090239035e-03 0.0 
0.0 0.0 -1.622365463781e-04 
-1.781376606747e-04 3.555220392374e-07 0.0 
3.555220392374e-07 1.192018732814e-03 0.0 
0.0 0.0 -1.778033526228e-04 
-1.126735395111e-04 5.522608983234e-08 0.0 
5.522608983234e-08 7.397928820176e-04 0.0 
0.0 0.0 -1.128655126259e-04 
-5.035207840853e-05 5.069616719063e-07 0.0 
5.069616719063e-07 3.007678980219e-04 0.0 
0.0 0.0 -4.999657030114e-05 
-3.927566979207e-05 -3.832849885569e-07 0.0 
-3.832849885569e-07 2.313033145196e-04 0.0 
0.0 0.0 -3.982249606560e-05 
-7.656825341724e-05 3.679510810454e-07 0.0 
3.679510810454e-07 4.857975545201e-04 0.0 
0.0 0.0 -7.638798348873e-05 
-1.174853009841e-04 -1.483166653605e-09 0.0 
-1.483166653605e-09 7.706480780895e-04 0.0 
0.0 0.0 -1.172617294919e-04 
-1.226008469953e-04 -1.659916804789e-07 0.0 
-1.659916804789e-07 8.085563299237e-04 0.0 
0.0 0.0 -1.227254861441e-04 
-1.869186648422e-04 1.288893444476e-06 0.0 
1.288893444476e-06 1.255438194585e-03 0.0 
0.0 0.0 -1.863413058393e-04 
-1.661774130078e-04 -5.668139200530e-07 0.0 
-5.668139200530e-07 1.113816736532e-03 0.0 
0.0 0.0 -1.665279681784e-04 
-1.561062454374e-04 -1.032747631753e-06 0.0 
-1.032747631753e-06 1.041295622328e-03 0.0 
0.0 0.0 -1.561285722757e-04 
-2.290814551487e-05 1.131949368258e-06 0.0 
1.131949368258e-06 1.115970032557e-04 0.0 
0.0 0.0 -2.279054486229e-05 
-1.065384879856e-04 1.371781238190e-06 0.0 
1.371781238190e-06 6.979852258937e-04 0.0 
0.0 0.0 -1.068955660026e-04 
-1.703396393732e-04 -6.320212589166e-07 0.0 
-6.320212589166e-07 1.144009893404e-03 0.0 
0.0 0.0 -1.708611002394e-04 
-1.234023393735e-04 -2.265061210126e-07 0.0 
-2.265061210126e-07 8.130545487096e-04 0.0 
0.0 0.0 -1.233545184740e-04 
-1.695777077806e-04 2.106230318132e-07 0.0 
2.106230318132e-07 1.131440026902e-03 0.0 
0.0 0.0 -1.690088035303e-04 
-1.159592254194e-04 -1.383338685156e-07 0.0 
-1.383338685156e-07 7.703209590687e-04 0.0 
0.0 0.0 -1.172687467652e-04 
-1.871117190239e-04 -1.386491014739e-06 0.0 
-1.386491014739e-06 1.261256540934e-03 0.0 
0.0 0.0 -1.874631276173e-04 
-8.657535319631e-05 1.579232664336e-06 0.0 
1.579232664336e-06 5.555478256840e-04 0.0 
0.0 0.0 -8.636364963772e-05 
-1.755150914368e-04 -6.889429931338e-07 0.0 
-6.889429931338e-07 1.176166452702e-03 0.0 
0.0 0.0 -1.753185131199e-04 
-1.573111243631e-04 1.063973160771e-06 0.0 
1.063973160771e-06 1.048972338121e-03 0.0 
0.0 0.0 -1.571178519447e-04 
-7.892866904534e-05 2.863749736169e-07 0.0 
2.863749736169e-07 5.022036140890e-04 0.0 
0.0 0.0 -7.873003997367e-05 
-1.124601082612e-04 5.668543912746e-07 0.0 
5.668543912746e-07 7.365972072198e-04 0.0 
0.0 0.0 -1.124710309571e-04 
-1.868644922347e-04 1.000849535727e-06 0.0 
1.000849535727e-06 1.255765804165e-03 0.0 
0.0 0.0 -1.865710734017e-04 
-1.676555622800e-04 3.291135704866e-07 0.0 
3.291135704866e-07 1.118261925556e-03 0.0 
0.0 0.0 -1.671813732751e-04 
-1.386017071923e-04 -1.797723160640e-07 0.0 
-1.797723160640e-07 9.191547604494e-04 0.0 
0.0 0.0 -1.386052031399e-04 
-1.179182420809e-04 -1.397755678998e-07 0.0 
-1.397755678998e-07 7.747023837777e-04 0.0 
0.0 0.0 -1.178542631832e-04 
-9.266051543288e-05 -1.427667931752e-06 0.0 
-1.427667931752e-06 5.998378060181e-04 0.0 
0.0 0.0 -9.287066260160e-05 
-1.268908472920e-04 -2.992571917759e-07 0.0 
-2.992571917759e-07 8.385766200168e-04 0.0 
0.0 0.0 -1.270155650522e-04 
-1.412610616596e-04 -7.070516204550e-07 0.0 
-7.070516204550e-07 9.356355867827e-04 0.0 
0.0 0.0 -1.409283708239e-04 
-1.952715328492e-04 2.648146111006e-07 0.0 
2.648146111006e-07 1.320373790754e-03 0.0 
0.0 0.0 -1.960333646234e-04 
-1.736029799723e-04 -4.830607358394e-07 0.0 
-4.830607358394e-07 1.152851948528e-03 0.0 
0.0 0.0 -1.722934252721e-04 
-1.452011068003e-04 -1.075773922608e-06 0.0 
-1.075773922608e-06 9.666398033647e-04 0.0 
0.0 0.0 -1.454499006876e-04 
-1.212938627555e-04 -3.882932393123e-07 0.0 
-3.882932393123e-07 7.997072957628e-04 0.0 
0.0 0.0 -1.214615911284e-04 
-1.463822189693e-04 -1.900321700036e-07 0.0 
-1.900321700036e-07 9.728037690076e-04 0.0 
0.0 0.0 -1.462476041952e-04 
-2.746226357204e-05 -9.271388711199e-07 0.0 
-9.271388711199e-07 1.571302735165e-04 0.0 
0.0 0.0 -2.955133849294e-05 
-9.672248826248e-05 7.266615167990e-07 0.0 
7.266615167990e-07 6.276593153662e-04 0.0 
0.0 0.0 -9.671433789260e-05 
-1.257056545510e-04 -4.990050790239e-07 0.0 
-4.990050790239e-07 8.296358928903e-04 0.0 
0.0 0.0 -1.257347134077e-04 
-8.071247393308e-05 8.458441046788e-08 0.0 
8.458441046788e-08 5.152581703620e-04 0.0 
0.0 0.0 -8.061844590833e-05 
-1.221886675709e-04 -7.908405440187e-08 0.0 
-7.908405440187e-08 8.040667053497e-04 0.0 
0.0 0.0 -1.220458434280e-04 
-1.840762203294e-04 1.915177188951e-06 0.0 
1.915177188951e-06 1.245437645367e-03 0.0 
0.0 0.0 -1.851416939921e-04 
-1.301442044184e-04 -3.060279266349e-07 0.0 
-3.060279266349e-07 8.596681305344e-04 0.0 
0.0 0.0 -1.300328051442e-04 
-9.031994090937e-05 -2.080257032609e-07 0.0 
-2.080257032609e-07 5.822092092616e-04 0.0 
0.0 0.0 -9.022896017931e-05 
-1.344673763446e-04 9.830708816548e-08 0.0 
9.830708816548e-08 8.894298640129e-04 0.0 
0.0 0.0 -1.343397272354e-04 
-8.268637292058e-05 -8.113913653822e-07 0.0 
-8.113913653822e-07 5.290888140562e-04 0.0 
0.0 0.0 -8.279832518349e-05 
-1.497839366065e-04 -1.523194842093e-06 0.0 
-1.523194842093e-06 9.970276981604e-04 0.0 
0.0 0.0 -1.497490155909e-04 
-1.382259707113e-04 2.110689173298e-08 0.0 
2.110689173298e-08 9.185304756848e-04 0.0 
0.0 0.0 -1.386530088269e-04 
-1.506650140695e-04 -9.263316559378e-07 0.0 
-9.263316559378e-07 1.001955608578e-03 0.0 
0.0 0.0 -1.504726885606e-04 
-3.022468714226e-05 -2.973636621545e-06 0.0 
-2.973636621545e-06 1.677942898081e-04 0.0 
0.0 0.0 -3.060483068446e-05 
-1.428673620023e-04 -2.398732156922e-07 0.0 
-2.398732156922e-07 9.482366823991e-04 0.0 
0.0 0.0 -1.427619920137e-04 
-1.726984643621e-04 1.345553639607e-06 0.0 
1.345553639607e-06 1.160671593896e-03 0.0 
0.0 0.0 -1.733128613594e-04 
-8.463363897670e-05 6.078796328986e-07 0.0 
6.078796328986e-07 5.444031302841e-04 0.0 
0.0 0.0 -8.481515710027e-05 
-1.264518580475e-04 2.684568646023e-07 0.0 
2.684568646023e-07 8.338232778496e-04 0.0 
0.0 0.0 -1.263048705811e-04 
-1.596353680421e-04 -9.131275579430e-07 0.0 
-9.131275579430e-07 1.065304755547e-03 0.0 
0.0 0.0 -1.595480372087e-04 
-7.302589173434e-05 -3.183424354861e-06 0.0 
-3.183424354861e-06 4.574500906094e-04 0.0 
0.0 0.0 -7.259764510955e-05 
-1.362250571880e-04 3.623633479400e-08 0.0 
3.623633479400e-08 9.021775671400e-04 0.0 
0.0 0.0 -1.361198740657e-04 
-1.602145110429e-04 -8.362565613447e-07 0.0 
-8.362565613447e-07 1.068772108230e-03 0.0 
0.0 0.0 -1.600932078566e-04 
-1.471273090538e-04 7.392924497516e-07 0.0 
7.392924497516e-07 9.780830439502e-04 0.0 
0.0 0.0 -1.470264431059e-04 
-1.270633471131e-04 1.102546760642e-07 0.0 
1.102546760642e-07 8.375443541897e-04 0.0 
0.0 0.0 -1.268359787636e-04 
-1.460791581632e-04 -2.407797944151e-07 0.0 
-2.407797944151e-07 9.714799924540e-04 0.0 
0.0 0.0 -1.460739326938e-04 
-7.660927585480e-05 2.589062603144e-06 0.0 
2.589062603144e-06 4.833163137169e-04 0.0 
0.0 0.0 -7.585562978697e-05 
-6.337475630904e-05 1.248073807384e-06 0.0 
1.248073807384e-06 3.958823544252e-04 0.0 
0.0 0.0 -6.357697056388e-05 
-5.388339958482e-05 2.895282728563e-07 0.0 
2.895282728563e-07 3.277752654746e-04 0.0 
0.0 0.0 -5.379270529687e-05 
-9.451957039609e-05 -2.935916480428e-07 0.0 
-2.935916480428e-07 6.114923592848e-04 0.0 
0.0 0.0 -9.441947030406e-05 
-1.655470867204e-04 -4.270866697214e-07 0.0 
-4.270866697214e-07 1.106817959118e-03 0.0 
0.0 0.0 -1.654622947108e-04 
-3.839223720892e-05 -3.449317819975e-06 0.0 
-3.449317819975e-06 2.174158836143e-04 0.0 
0.0 0.0 -3.781821007497e-05 
-1.582398840472e-04 -1.211336256148e-06 0.0 
-1.211336256148e-06 1.056196191213e-03 0.0 
0.0 0.0 -1.582347619750e-04 
-3.976493932031e-05 -1.461285902805e-06 0.0 
-1.461285902805e-06 2.310785421131e-04 0.0 
0.0 0.0 -3.990281506442e-05 
-8.912786947884e-05 -2.218013861212e-07 0.0 
-2.218013861212e-07 5.740010873261e-04 0.0 
0.0 0.0 -8.903564786089e-05 
-1.609314023663e-04 8.015374636602e-07 0.0 
8.015374636602e-07 1.078902557479e-03 0.0 
0.0 0.0 -1.615622346724e-04 
-1.398208268631e-04 -7.214897453684e-06 0.0 
-7.214897453684e-06 9.283629550766e-04 0.0 
0.0 0.0 -1.397314702741e-04 
-9.326712864409e-05 1.081123901449e-07 0.0 
1.081123901449e-07 6.029249672552e-04 0.0 
0.0 0.0 -9.316659828873e-05 
-5.971178892461e-05 1.368640181835e-06 0.0 
1.368640181835e-06 3.694230737418e-04 0.0 
0.0 0.0 -5.984927026599e-05 
-8.786689087998e-05 2.978470750166e-07 0.0 
2.978470750166e-07 5.651036338672e-04 0.0 
0.0 0.0 -8.775496813769e-05 
-1.366866866355e-04 2.012050051266e-07 0.0 
2.012050051266e-07 9.045962273325e-04 0.0 
0.0 0.0 -1.364843956035e-04 
-9.193121234076e-05 4.013204139827e-07 0.0 
4.013204139827e-07 5.938843893935e-04 0.0 
0.0 0.0 -9.187235440198e-05 
-8.634860532519e-05 5.489409565849e-07 0.0 
5.489409565849e-07 5.556459598693e-04 0.0 
0.0 0.0 -8.641257901652e-05 
-1.873076348652e-04 -8.303719696611e-07 0.0 
-8.303719696611e-07 1.255027706073e-03 0.0 
0.0 0.0 -1.864462757575e-04 
-9.029085277060e-05 7.778954920217e-07 0.0 
7.778954920217e-07 5.838501403615e-04 0.0 
0.0 0.0 -9.045572518728e-05 
-1.942906890229e-04 -1.961786413827e-06 0.0 
-1.961786413827e-06 1.320208759113e-03 0.0 
0.0 0.0 -1.958055517464e-04 
-1.946815352992e-04 -9.026625198254e-07 0.0 
-9.026625198254e-07 1.313526635210e-03 0.0 
0.0 0.0 -1.947608156509e-04 
-1.203676963192e-04 -5.252269783046e-06 0.0 
-5.252269783046e-06 7.911029022502e-04 0.0 
0.0 0.0 -1.199678325534e-04 
-6.382312409295e-05 3.317997073278e-06 0.0 
3.317997073278e-06 3.867196355365e-04 0.0 
0.0 0.0 -6.182128488093e-05 
-9.762668327602e-06 5.060945032083e-07 0.0 
5.060945032083e-07 4.694411596940e-05 0.0 
0.0 0.0 -1.015196033753e-05 
-6.438901127768e-05 -2.610876075630e-06 0.0 
-2.610876075630e-06 4.083460003589e-04 0.0 
0.0 0.0 -6.553865090092e-05 
-7.498804079240e-05 7.264952039937e-07 0.0 
7.264952039937e-07 4.774096760748e-04 0.0 
0.0 0.0 -7.520405771235e-05 
-1.574390158364e-04 7.322658693656e-08 0.0 
7.322658693656e-08 1.047023690082e-03 0.0 
0.0 0.0 -1.568628108499e-04 
-1.202462798349e-04 1.277535447616e-06 0.0 
1.277535447616e-06 7.923369076637e-04 0.0 
0.0 0.0 -1.204472570985e-04 
-6.913329999888e-05 1.518567138290e-06 0.0 
1.518567138290e-06 4.374135939075e-04 0.0 
0.0 0.0 -6.946069291118e-05 
-1.870210423738e-04 1.710341786507e-07 0.0 
1.710341786507e-07 1.262084104717e-03 0.0 
0.0 0.0 -1.875139937252e-04 
-1.961583819331e-04 -2.514147813671e-06 0.0 
-2.514147813671e-06 1.318669280984e-03 0.0 
0.0 0.0 -1.960106588935e-04 
-1.542863799404e-04 -1.786859133762e-06 0.0 
-1.786859133762e-06 1.026998591695e-03 0.0 
0.0 0.0 -1.543154520944e-04 
-1.744631732482e-04 2.018301688582e-06 0.0 
2.018301688582e-06 1.157934353510e-03 0.0 
0.0 0.0 -1.729253385307e-04 
-1.515018167516e-04 8.404198603291e-07 0.0 
8.404198603291e-07 1.010295705910e-03 0.0 
0.0 0.0 -1.515893794002e-04 
-1.789376768634e-04 -2.919640014592e-06 0.0 
-2.919640014592e-06 1.191538801034e-03 0.0 
0.0 0.0 -1.778575971036e-04 
-1.110411603683e-04 -8.342356804498e-06 0.0 
-8.342356804498e-06 7.312796766666e-04 0.0 
0.0 0.0 -1.117662927266e-04 
-1.911119346146e-05 1.280039211139e-07 0.0 
1.280039211139e-07 9.580427244612e-05 0.0 
0.0 0.0 -1.958655518621e-05 
-1.481869069540e-04 1.615226342953e-06 0.0 
1.615226342953e-06 9.850665679094e-04 0.0 
0.0 0.0 -1.481937727541e-04 
-5.301773043500e-05 1.085407750924e-06 0.0 
1.085407750924e-06 3.130804062890e-04 0.0 
0.0 0.0 -5.155996613848e-05 
-5.287064574584e-05 8.669478230717e-08 0.0 
8.669478230717e-08 3.211142711540e-04 0.0 
0.0 0.0 -5.286758958265e-05 
-4.293484566845e-05 -2.294669534038e-07 0.0 
-2.294669534038e-07 2.490277005517e-04 0.0 
0.0 0.0 -4.248609661651e-05 
-7.457102542764e-05 4.540838739860e-07 0.0 
4.540838739860e-07 4.629980056454e-04 0.0 
0.0 0.0 -7.285240290645e-05 
-2.774703220549e-05 1.104401006757e-06 0.0 
1.104401006757e-06 1.537348123985e-04 0.0 
0.0 0.0 -2.914266538000e-05 
-4.307384339748e-05 1.329013767483e-06 0.0 
1.329013767483e-06 2.553580944067e-04 0.0 
0.0 0.0 -4.333354231935e-05 
-1.879084470079e-04 -2.749275055618e-06 0.0 
-2.749275055618e-06 1.255451133352e-03 0.0 
0.0 0.0 -1.867668077911e-04 
-1.189011343897e-04 -7.099494553202e-06 0.0 
-7.099494553202e-06 7.923665314969e-04 0.0 
0.0 0.0 -1.207517460948e-04 
-1.659393230097e-04 -1.374219794473e-06 0.0 
-1.374219794473e-06 1.113429222670e-03 0.0 
0.0 0.0 -1.665613853390e-04 
-3.293815057038e-05 1.035559240217e-06 0.0 
1.035559240217e-06 1.835663013155e-04 0.0 
0.0 0.0 -3.316239960270e-05 
-1.877702954761e-04 -2.194005982338e-06 0.0 
-2.194005982338e-06 1.259619262861e-03 0.0 
0.0 0.0 -1.871049233185e-04 
-1.875538609812e-04 9.967607666469e-07 0.0 
9.967607666469e-07 1.259292980625e-03 0.0 
0.0 0.0 -1.869913167940e-04 
-1.965092283334e-04 -2.596350880128e-06 0.0 
-2.596350880128e-06 1.320494070457e-03 0.0 
0.0 0.0 -1.959374034051e-04 
-1.758179036347e-04 -4.481197506713e-07 0.0 
-4.481197506713e-07 1.181701348802e-03 0.0 
0.0 0.0 -1.764557581508e-04 
-3.270582193410e-05 -4.386817373036e-07 0.0 
-4.386817373036e-07 1.770411407639e-04 0.0 
0.0 0.0 -3.195907242369e-05 
-1.266388969174e-04 -6.538610975457e-06 0.0 
-6.538610975457e-06 8.502071903162e-04 0.0 
0.0 0.0 -1.290525119649e-04 
-1.885161697494e-04 -1.408082556477e-06 0.0 
-1.408082556477e-06 1.262346972473e-03 0.0 
0.0 0.0 -1.876241058639e-04 
-1.609443742117e-04 -4.613026983514e-07 0.0 
-4.613026983514e-07 1.083073354588e-03 0.0 
0.0 0.0 -1.620379724609e-04 
-1.949934473796e-04 8.861010983955e-06 0.0 
8.861010983955e-06 1.323301005755e-03 0.0 
0.0 0.0 -1.964977576321e-04 
-1.170915995552e-04 -2.526672373362e-07 0.0 
-2.526672373362e-07 7.818822557443e-04 0.0 
0.0 0.0 -1.196852915840e-04 
-1.881251343584e-04 1.719532540905e-06 0.0 
1.719532540905e-06 1.262091246564e-03 0.0 
0.0 0.0 -1.879162412457e-04 
-4.159837246659e-05 -1.872810599717e-06 0.0 
-1.872810599717e-06 2.367903641582e-04 0.0 
0.0 0.0 -4.105708941867e-05 
-1.880384365163e-04 2.724632523543e-06 0.0 
2.724632523543e-06 1.261692801511e-03 0.0 
0.0 0.0 -1.881249298770e-04 
-1.672657211226e-04 -3.803404194109e-07 0.0 
-3.803404194109e-07 1.114623838802e-03 0.0 
0.0 0.0 -1.665474363985e-04 
-1.318213223878e-04 4.430076983304e-06 0.0 
4.430076983304e-06 8.772776289306e-04 0.0 
0.0 0.0 -1.326022361065e-04 
-1.268048282990e-04 1.914164460218e-06 0.0 
1.914164460218e-06 8.466567585872e-04 0.0 
0.0 0.0 -1.285548941949e-04 
-1.877454760479e-04 1.284504322459e-06 0.0 
1.284504322459e-06 1.264298494462e-03 0.0 
0.0 0.0 -1.884505761775e-04 
-1.888991999446e-04 -3.702937246346e-06 0.0 
-3.702937246346e-06 1.261816131107e-03 0.0 
0.0 0.0 -1.874258164109e-04 
-2.628632611275e-05 2.399677637307e-06 0.0 
2.399677637307e-06 1.387230862011e-04 0.0 
0.0 0.0 -2.654059898772e-05 
-1.521013519928e-04 5.577678305588e-06 0.0 
5.577678305588e-06 1.024057332589e-03 0.0 
0.0 0.0 -1.536536413446e-04 
-9.055668035440e-05 -2.892025472723e-06 0.0 
-2.892025472723e-06 5.805249846311e-04 0.0 
0.0 0.0 -8.976434653209e-05 
-1.704710855302e-05 -3.458702652501e-06 0.0 
-3.458702652501e-06 8.989110359220e-05 0.0 
0.0 0.0 -1.808546165336e-05 
-1.884986873262e-04 5.724623714394e-06 0.0 
5.724623714394e-06 1.260552726885e-03 0.0 
0.0 0.0 -1.874281668734e-04 
-1.771946189262e-04 -2.402253146537e-07 0.0 
-2.402253146537e-07 1.178369612400e-03 0.0 
0.0 0.0 -1.758283601128e-04 
-1.891214672248e-04 5.594443250151e-06 0.0 
5.594443250151e-06 1.262060829366e-03 0.0 
0.0 0.0 -1.877794506222e-04 
-3.041019390796e-05 4.063728315188e-06 0.0 
4.063728315188e-06 1.568790135595e-04 0.0 
0.0 0.0 -2.929729011833e-05 
-1.923826485663e-05 2.395451325704e-06 0.0 
2.395451325704e-06 8.936390066832e-05 0.0 
0.0 0.0 -1.909551055642e-05 
-1.897110782286e-04 1.614204189851e-06 0.0 
1.614204189851e-06 1.273238434675e-03 0.0 
0.0 0.0 -1.887784298001e-04 
-1.886445185701e-04 1.051783953079e-06 0.0 
1.051783953079e-06 1.269174095551e-03 0.0 
0.0 0.0 -1.885660222491e-04 
-4.447382147791e-05 2.187152848341e-06 0.0 
2.187152848341e-06 2.726065505036e-04 0.0 
0.0 0.0 -4.552470986649e-05 
-1.972951013402e-04 -6.924320481765e-07 0.0 
-6.924320481765e-07 1.331208438024e-03 0.0 
0.0 0.0 -1.972065251748e-04 
-1.846003121508e-05 -1.622840747709e-06 0.0 
-1.622840747709e-06 8.564597044111e-05 0.0 
0.0 0.0 -1.843810201100e-05 
-1.091119861245e-04 9.275684085525e-07 0.0 
9.275684085525e-07 7.216506540820e-04 0.0 
0.0 0.0 -1.108446562541e-04 
-1.806806328908e-05 -2.788761483685e-06 0.0 
-2.788761483685e-06 9.325750213385e-05 0.0 
0.0 0.0 -1.871126948293e-05 
-1.949690694268e-04 -7.776605200528e-06 0.0 
-7.776605200528e-06 1.321740719942e-03 0.0 
0.0 0.0 -1.962797183211e-04 
-1.894401262255e-04 3.666748622647e-06 0.0 
3.666748622647e-06 1.266754761130e-03 0.0 
0.0 0.0 -1.882268625302e-04 
-9.871077405525e-05 5.581959752057e-06 0.0 
5.581959752057e-06 6.396670141167e-04 0.0 
0.0 0.0 -9.846769932235e-05 
-1.118450688366e-04 4.156485273902e-06 0.0 
4.156485273902e-06 7.411970212637e-04 0.0 
0.0 0.0 -1.131213240816e-04 
-6.675482278899e-05 2.746646028006e-06 0.0 
2.746646028006e-06 4.187062855815e-04 0.0 
0.0 0.0 -6.639636993191e-05 
-1.817394697373e-04 5.968977030046e-06 0.0 
5.968977030046e-06 1.213512747672e-03 0.0 
0.0 0.0 -1.805248368263e-04 
-2.549001927232e-05 1.681293934371e-06 0.0 
1.681293934371e-06 1.416935565870e-04 0.0 
0.0 0.0 -2.765034433090e-05 
-1.904991185222e-04 -2.176372463226e-06 0.0 
-2.176372463226e-06 1.275606109758e-03 0.0 
0.0 0.0 -1.890445337758e-04 
-1.902901370943e-04 -9.239913511012e-07 0.0 
-9.239913511012e-07 1.276413630327e-03 0.0 
0.0 0.0 -1.892125449932e-04 
-1.899738152617e-04 1.392000637091e-06 0.0 
1.392000637091e-06 1.275351249225e-03 0.0 
0.0 0.0 -1.890927655262e-04 
-1.980969591010e-04 1.747220192367e-07 0.0 
1.747220192367e-07 1.334413570643e-03 0.0 
0.0 0.0 -1.976588442224e-04 
-1.595876566451e-05 5.109996014523e-06 0.0 
5.109996014523e-06 8.560533841461e-05 0.0 
0.0 0.0 -1.829422046362e-05 
-1.907894524984e-04 -1.453289198629e-06 0.0 
-1.453289198629e-06 1.278087489939e-03 0.0 
0.0 0.0 -1.894635324722e-04 
-1.817965180967e-04 4.689820275562e-06 0.0 
4.689820275562e-06 1.212613848096e-03 0.0 
0.0 0.0 -1.803359864353e-04 
-1.117957005377e-04 6.977421344692e-06 0.0 
6.977421344692e-06 7.320600126907e-04 0.0 
0.0 0.0 -1.115961672155e-04 
-1.879277561833e-04 6.009601527580e-06 0.0 
6.009601527580e-06 1.263394424764e-03 0.0 
0.0 0.0 -1.878861552790e-04 
-8.116031042482e-05 4.154281404345e-06 0.0 
4.154281404345e-06 5.182033185543e-04 0.0 
0.0 0.0 -8.075837133452e-05 
-3.557600018319e-05 -6.705160068937e-06 0.0 
-6.705160068937e-06 2.127372360934e-04 0.0 
0.0 0.0 -3.738032741976e-05 
-1.948498336035e-04 -4.155697267809e-06 0.0 
-4.155697267809e-06 1.324960786423e-03 0.0 
0.0 0.0 -1.970235340649e-04 
-6.441570103541e-06 -6.279015523928e-07 0.0 
-6.279015523928e-07 3.480654244499e-05 0.0 
0.0 0.0 -7.946641316233e-06 
-1.120604214633e-04 -3.288397658700e-06 0.0 
-3.288397658700e-06 7.283085618337e-04 0.0 
0.0 0.0 -1.110361655408e-04 
-1.968531726492e-04 6.196640298584e-06 0.0 
6.196640298584e-06 1.326994606246e-03 0.0 
0.0 0.0 -1.970239266115e-04 
-3.317100676700e-05 -5.514460053326e-07 0.0 
-5.514460053326e-07 2.002819803963e-04 0.0 
0.0 0.0 -3.602866455310e-05 
-1.267924167818e-04 -3.909643930437e-06 0.0 
-3.909643930437e-06 8.405854862832e-04 0.0 
0.0 0.0 -1.273445728183e-04 
-1.883260687280e-04 -1.377902224743e-06 0.0 
-1.377902224743e-06 1.272138406880e-03 0.0 
0.0 0.0 -1.890317804362e-04 
-1.203896409836e-04 1.438809671102e-06 0.0 
1.438809671102e-06 7.891647527459e-04 0.0 
0.0 0.0 -1.197994443266e-04 
-1.726861375007e-04 -9.127303948545e-06 0.0 
-9.127303948545e-06 1.150354645725e-03 0.0 
0.0 0.0 -1.722668051730e-04 
-3.289244603068e-05 1.865001967380e-06 0.0 
1.865001967380e-06 1.965766441920e-04 0.0 
0.0 0.0 -3.568834104832e-05 
-5.881706171023e-06 -3.561904745218e-07 0.0 
-3.561904745218e-07 3.491879089690e-05 0.0 
0.0 0.0 -7.282502801701e-06 
-1.446887067247e-04 -6.124654101547e-06 0.0 
-6.124654101547e-06 9.637426034631e-04 0.0 
0.0 0.0 -1.450319398739e-04 
-1.900119233844e-04 5.405432627128e-06 0.0 
5.405432627128e-06 1.271140965081e-03 0.0 
0.0 0.0 -1.888071511890e-04 
-1.907231428786e-04 -2.479170288195e-06 0.0 
-2.479170288195e-06 1.279898250331e-03 0.0 
0.0 0.0 -1.895996551150e-04 
-1.374681624272e-04 5.948461411176e-06 0.0 
5.948461411176e-06 9.167037354941e-04 0.0 
0.0 0.0 -1.379940178424e-04 
-3.140963832924e-05 -6.998474457374e-06 0.0 
-6.998474457374e-06 1.796728179544e-04 0.0 
0.0 0.0 -3.246938559274e-05 
-1.841130626501e-04 1.475194732939e-06 0.0 
1.475194732939e-06 1.232968589940e-03 0.0 
0.0 0.0 -1.831558075192e-04 
-1.038243241623e-04 -4.078507790945e-07 0.0 
-4.078507790945e-07 6.921885952500e-04 0.0 
0.0 0.0 -1.059090906887e-04 
-1.833573372240e-04 -2.325322525301e-06 0.0 
-2.325322525301e-06 1.222189390314e-03 0.0 
0.0 0.0 -1.813408670945e-04 
-1.831720387608e-04 -1.195237391827e-06 0.0 
-1.195237391827e-06 1.215102366402e-03 0.0 
0.0 0.0 -1.805709848148e-04 
-8.505788794989e-06 -2.657547953589e-06 0.0 
-2.657547953589e-06 3.877580200424e-05 0.0 
0.0 0.0 -9.674067485877e-06 
-1.292364309074e-04 2.864479089253e-06 0.0 
2.864479089253e-06 8.498544276161e-04 0.0 
0.0 0.0 -1.284404431535e-04 
-1.837715794025e-05 -4.476436000323e-06 0.0 
-4.476436000323e-06 8.791465953263e-05 0.0 
0.0 0.0 -1.834574975625e-05 
-1.906256035079e-04 -2.900280215013e-06 0.0 
-2.900280215013e-06 1.276520367600e-03 0.0 
0.0 0.0 -1.895571240875e-04 
-1.101124519025e-04 -2.003731999075e-06 0.0 
-2.003731999075e-06 7.232878293546e-04 0.0 
0.0 0.0 -1.101665449339e-04 
-2.983467870367e-05 -3.329072421412e-06 0.0 
-3.329072421412e-06 2.185665526296e-04 0.0 
0.0 0.0 -3.870868481988e-05 
-3.979792889465e-05 -1.199778171411e-07 0.0 
-1.199778171411e-07 2.200789478701e-04 0.0 
0.0 0.0 -3.900000000000e-05 
-4.165891267230e-05 -4.371266864637e-06 0.0 
-4.371266864637e-06 2.889985860028e-04 0.0 
0.0 0.0 -4.790306122449e-05 
-4.964086180168e-05 -2.693060693399e-07 0.0 
-2.693060693399e-07 3.013640208770e-04 0.0 
0.0 0.0 -4.900000000000e-05 
-5.048456417060e-05 -2.929549654779e-06 0.0 
-2.929549654779e-06 3.593010990798e-04 0.0 
0.0 0.0 -5.788546288080e-05 
-5.961378635258e-05 -5.454468222937e-07 0.0 
-5.454468222937e-07 3.590027679778e-04 0.0 
0.0 0.0 -5.900000000000e-05 
-6.265158996412e-05 -5.475928741402e-06 0.0 
-5.475928741402e-06 4.290425473903e-04 0.0 
0.0 0.0 -6.790306122449e-05 
-6.948065415978e-05 -5.864688945389e-07 0.0 
-5.864688945389e-07 4.403815007264e-04 0.0 
0.0 0.0 -6.900000000000e-05 
-7.287737908661e-05 -5.356659590834e-06 0.0 
-5.356659590834e-06 4.997222128530e-04 0.0 
0.0 0.0 -7.788265306121e-05 
-7.961974967197e-05 -6.571269526957e-07 0.0 
-6.571269526957e-07 4.982209090245e-04 0.0 
0.0 0.0 -7.900000000000e-05 
-8.324861204494e-05 -5.744890109580e-06 0.0 
-5.744890109580e-06 5.692366340431e-04 0.0 
0.0 0.0 -8.790306122449e-05 
-8.930212876051e-05 1.144359831531e-06 0.0 
1.144359831531e-06 5.794802677978e-04 0.0 
0.0 0.0 -8.900000000000e-05 
-9.352423002678e-05 -5.224443985984e-06 0.0 
-5.224443985984e-06 6.401887908398e-04 0.0 
0.0 0.0 -9.787877878422e-05 
-1.009998970260e-04 5.583373135514e-06 0.0 
5.583373135514e-06 6.372022866514e-04 0.0 
0.0 0.0 -9.900000000000e-05 

SCALARS node_materi_plasti_kappa_shear float
LOOKUP_TABLE default
1.731369050501e-05
4.545550431279e-04
8.879540853347e-04
8.885778472785e-04
4.289921439406e-05
9.327668990988e-05
1.307750198866e-04
1.795624514288e-04
2.257201379956e-04
2.695509172566e-04
3.144422750007e-04
3.602182894153e-04
4.054873038985e-04
4.525148308088e-04
5.038541824834e-04
5.495995247736e-04
5.862111262393e-04
6.342650658052e-04
6.814841447557e-04
7.273130426229e-04
7.742201728224e-04
8.215906888973e-04
8.669064806701e-04
8.898091793777e-04
8.888004860446e-04
8.881476431534e-04
8.886611550675e-04
8.873292207379e-04
8.873796625284e-04
8.877145688059e-04
8.882991997087e-04
8.891081577287e-04
8.895674516380e-04
8.882569121584e-04
8.886773248083e-04
8.897614672626e-04
8.893270601288e-04
8.879317372578e-04
8.867155421258e-04
8.860750537291e-04
8.875036930769e-04
8.888199397314e-04
8.889528056051e-04
8.891193998000e-04
8.889269682470e-04
8.885711942666e-04
8.881774963459e-04
8.893558715015e-04
8.892926716099e-04
8.896475655307e-04
8.895391621796e-04
8.902345752377e-04
8.910618100376e-04
8.908268286946e-04
8.883017444198e-04
8.870033247227e-04
8.889101297818e-04
8.887178507321e-04
8.889749525521e-04
8.891814831339e-04
8.887055024058e-04
8.873576980909e-04
8.876113339264e-04
8.880420548052e-04
8.897938021992e-04
8.907165225603e-04
8.860205656141e-04
8.893069775074e-04
8.887535151655e-04
8.885180406595e-04
8.909163501419e-04
8.913403494152e-04
4.970460226215e-04
5.465414378926e-04
5.921313660911e-04
6.364287587029e-04
6.825537522220e-04
7.278134995944e-04
7.735342273327e-04
8.173136017165e-04
8.659377019958e-04
1.387818063272e-05
4.539930109995e-04
5.438054036256e-05
1.009772649362e-04
1.445686466196e-04
1.725075511252e-04
2.183476322774e-04
2.642608575334e-04
3.107394956161e-04
3.570654865109e-04
4.033178026184e-04
1.565800739924e-04
1.805100708743e-04
2.254865019445e-04
2.707860879461e-04
3.162883577622e-04
3.616329343761e-04
4.060157178949e-04
4.461572723987e-04
4.482375507592e-04
4.489251939510e-04
4.482810220245e-04
4.560054951225e-04
4.490487455221e-04
4.479848053994e-04
4.491487522400e-04
4.505166080725e-04
4.507339705437e-04
4.500429840668e-04
4.496777136800e-04
4.491474461797e-04
4.502737102712e-04
1.443236451681e-05
1.609184950887e-05
1.444777850682e-05
1.445196928896e-05
1.742545827470e-05
1.883427368882e-05
1.852391460304e-05
1.764215548380e-05
1.771561269883e-05
1.733046749832e-05
1.810073159380e-05
2.048990176091e-05
1.919122443325e-05
1.606222747872e-05
1.631184331598e-05
1.838276961406e-05
1.899682157401e-05
1.674761483558e-05
1.515472777583e-05
1.381429291506e-04
1.569052395937e-04
1.572376542874e-04
1.574797516202e-04
1.576258973796e-04
1.574475143677e-04
1.574377759162e-04
1.573723947714e-04
1.573070806436e-04
1.572480172406e-04
1.571991882244e-04
1.571742140223e-04
1.571784970847e-04
1.572059678849e-04
1.572367661207e-04
1.572582007949e-04
1.572640566189e-04
1.572477452504e-04
1.572027037019e-04
1.571247468478e-04
1.570208045452e-04
1.569098847333e-04
1.566823861578e-04
1.531449226152e-04
1.493499480504e-04
1.781988047114e-04
1.755201894282e-04
1.753379703646e-04
1.753848561580e-04
1.754802128008e-04
1.755724470979e-04
1.756369081575e-04
1.756680449584e-04
1.756741383737e-04
1.756617249940e-04
1.756357698326e-04
1.755973091705e-04
1.755718929635e-04
1.755821672844e-04
1.756425224492e-04
1.756937924859e-04
1.757856167632e-04
1.757854304704e-04
1.759163536534e-04
1.756787495987e-04
1.758919282271e-04
1.781750100815e-04
1.651336438905e-04
2.109708302842e-04
2.236620319499e-04
2.218312568736e-04
2.216843488834e-04
2.219428590784e-04
2.217846971553e-04
2.217415831349e-04
2.215999074723e-04
2.215541127844e-04
2.215891944876e-04
2.216558522700e-04
2.216827294030e-04
2.216923896073e-04
2.216956791642e-04
2.216811887582e-04
2.216297808589e-04
2.215409133773e-04
2.214529972215e-04
2.214107640670e-04
2.214815066151e-04
2.218511843967e-04
2.241914065437e-04
2.692547529093e-04
2.675660618296e-04
2.673934583820e-04
2.673939568732e-04
2.674585768179e-04
2.675591031638e-04
2.676459040090e-04
2.676570538580e-04
2.676372015587e-04
2.676553404665e-04
2.676764041519e-04
2.676333042631e-04
2.674812840926e-04
2.674838661980e-04
2.676204239189e-04
2.679795855057e-04
2.678105543472e-04
2.677301033404e-04
2.700799073531e-04
2.570066425718e-04
3.028056095170e-04
3.161844696852e-04
3.143201194648e-04
3.138173456821e-04
3.135666727045e-04
3.133894152578e-04
3.137072245185e-04
3.137903749499e-04
3.137552108189e-04
3.136173653508e-04
3.136276881299e-04
3.137330253685e-04
3.136250543478e-04
3.134895440990e-04
3.134087321469e-04
3.133800931571e-04
3.134342156714e-04
3.138051608859e-04
3.154278010076e-04
3.611485313111e-04
3.593958689772e-04
3.591898798686e-04
3.593297202165e-04
3.592471895824e-04
3.594265497814e-04
3.596237032014e-04
3.596571460670e-04
3.593377794373e-04
3.596684783014e-04
3.598758848307e-04
3.597552388914e-04
3.597821813941e-04
3.590976444273e-04
3.597033129801e-04
3.627706280632e-04
3.496857881406e-04
3.956894430432e-04
4.084843113251e-04
4.060961241034e-04
4.055043726269e-04
4.058070391746e-04
4.060008361141e-04
4.054675210445e-04
4.054158394705e-04
4.054705070724e-04
4.053661824669e-04
4.051783298876e-04
4.050677983318e-04
4.054138231738e-04
4.048987951044e-04
4.060536754366e-04
4.085853059390e-04
3.439412955423e-05
7.855211595373e-05
1.235371244524e-04
1.542628667609e-04
1.987126948131e-04
2.444555121765e-04
2.902585631940e-04
3.362497538655e-04
3.823052700951e-04
4.292533059372e-04
1.065540971725e-04
8.722366970816e-04
3.071877777411e-05
2.955753103127e-05
8.728796448070e-04
1.993419400918e-04
4.786993620079e-04
8.715410235367e-04
2.838574358308e-04
8.733046452917e-04
3.784478368563e-04
8.750925786310e-04
2.796371051266e-05
8.736269387387e-04
4.733271556655e-04
2.936877367691e-04
6.035474916513e-04
8.717572086583e-04
8.738199405046e-04
8.737494710065e-04
8.696287808285e-04
8.750806370792e-04
4.919558859900e-04
4.918398764199e-04
4.949307231399e-04
6.589482462508e-04
8.738674271820e-04
2.813705699443e-05
3.195365789908e-05
7.486411905949e-04
4.900146372998e-04
1.541367175474e-04
8.655890379535e-04
8.755682138923e-04
8.730973644309e-04
8.703784410466e-04
8.740973276145e-04
3.187356296986e-05
4.907091952207e-04
8.662583448289e-04
7.508115515426e-04
3.074176072344e-05
3.834518994422e-04
8.815314033999e-04
2.457863140164e-04
1.527805289882e-04
3.313833785311e-04
4.244970235113e-04
5.636808983146e-05
5.718052096935e-04
8.819662471530e-04
3.001251584579e-05
8.373343036417e-04
4.924452570696e-04
5.108818745462e-04
5.332387487364e-04
5.560142054344e-04
5.787643014481e-04
5.991259251811e-04
5.752635265182e-04
6.186942134972e-04
5.944516730932e-04
6.231926228760e-04
6.380835551574e-04
6.135840024034e-04
6.573144048118e-04
6.328089844586e-04
5.894129404993e-04
6.085043193505e-04
5.651248587261e-04
5.842235601993e-04
6.277370129424e-04
6.033008816137e-04
5.598285256637e-04
5.787470750073e-04
5.354343962972e-04
5.543066005166e-04
5.109771159406e-04
5.298843866555e-04
5.732568666387e-04
5.488106401566e-04
5.054467442157e-04
5.243830125588e-04
4.810781478793e-04
4.998224426771e-04
5.432974154275e-04
5.187745459682e-04
4.750268661506e-04
4.942061513858e-04
4.503195040673e-04
4.696890934292e-04
4.255957344176e-04
4.448505048632e-04
4.889334273357e-04
4.641717549476e-04
4.199472596373e-04
4.391094936345e-04
4.834394634788e-04
4.583112576687e-04
5.027462790146e-04
4.776197235482e-04
4.333642288832e-04
4.526081348578e-04
4.969211450957e-04
4.717210733978e-04
4.275809977385e-04
4.467222286567e-04
4.910180813087e-04
4.658552900682e-04
4.216677957086e-04
4.408729284411e-04
4.853895838457e-04
4.600318407553e-04
4.156094397672e-04
4.346988666159e-04
4.795014301536e-04
4.538188443789e-04
4.989809666093e-04
4.088754149089e-04
4.280167623937e-04
3.828819013324e-04
4.021805478245e-04
5.624042399684e-04
3.568746175437e-04
3.381624883378e-04
3.763715402787e-04
4.219792148569e-04
3.309364607346e-04
3.505799184385e-04
3.052633941202e-04
4.056941669208e-04
6.469586485139e-04
3.250320809889e-04
2.796631607038e-04
2.599302819126e-04
2.342013255709e-04
6.036748186582e-04
6.482174305303e-04
6.269535787043e-04
6.731337752938e-04
6.527067380216e-04
2.538439629180e-04
6.821261244064e-04
6.930466000944e-04
5.166862193674e-04
4.621843229341e-04
5.278976428177e-04
3.703184973447e-04
3.451321418538e-04
3.906862459586e-04
5.246371866953e-04
5.443146240762e-04
5.699547953913e-04
5.897069522284e-04
6.153672919097e-04
6.351883362805e-04
6.094609170451e-04
6.550126832139e-04
6.292102542344e-04
6.608318434088e-04
6.410047653727e-04
6.747478106556e-04
6.489569127364e-04
6.944404496434e-04
6.686255413523e-04
6.230894205853e-04
6.427296395524e-04
5.974326100299e-04
5.473118415211e-04
5.725790691740e-04
5.920079111203e-04
6.173889614791e-04
6.368362109388e-04
6.623309645012e-04
6.816599341203e-04
6.563140336921e-04
6.764880034757e-04
3.948980065668e-04
3.757422617964e-04
3.507921955189e-04
3.317100384563e-04
3.067998146490e-04
2.878591714287e-04
2.628952814348e-04
2.817770972622e-04
2.377365497028e-04
2.565509120403e-04
2.123913595215e-04
2.311386405196e-04
5.922576399657e-04
6.427827676104e-04
6.878682679612e-04
6.678822000469e-04
2.148067718258e-04
6.882180801932e-04
6.864985118878e-04
6.664359755593e-04
7.013124766121e-04
2.087760264216e-04
2.441964081010e-04
2.687157839923e-04
6.978563593589e-04
6.772610625539e-04
7.121601343833e-04
2.283568469402e-04
7.006628053783e-04
1.937776703377e-04
6.622880887680e-04
7.078272471647e-04
5.837558227301e-04
7.131417687537e-04
6.924127382572e-04
2.759772220359e-04
2.508908842006e-04
2.067202652783e-04
2.273131006144e-04
2.708850174899e-04
2.448672349258e-04
1.998980645288e-04
2.191272268305e-04
2.639108306055e-04
2.381925193768e-04
1.928266391849e-04
2.123220651939e-04
7.337275495344e-04
1.682265145296e-04
5.462050413710e-04
7.318865140830e-04
7.261568958084e-04
7.225832230558e-04
7.021288971226e-04
6.565124913041e-04
6.819655065462e-04
7.275032532752e-04
7.072262295563e-04
6.616628008332e-04
6.865235503483e-04
6.407465733666e-04
6.657182290584e-04
7.113460086993e-04
6.908411643582e-04
6.453255735266e-04
6.702622678794e-04
6.246789880058e-04
6.489319520512e-04
6.952190037192e-04
1.840273521277e-04
6.759567359458e-04
7.214607443990e-04
3.679720332759e-04
4.092817550487e-04
4.360686121868e-04
4.564588720529e-04
6.740705970757e-04
7.205777350965e-04
2.252804046805e-04
2.496360743898e-04
7.429139095365e-04
6.823424879043e-04
6.366049028177e-04
4.378451378818e-04
4.188880438556e-04
3.943752891281e-04
3.748640538969e-04
4.003452629813e-04
3.498940421147e-04
6.207438251872e-04
7.364909888472e-04
2.405871186206e-04
1.954370079604e-04
7.282805554458e-04
6.308606560243e-04
6.167686675707e-04
6.359024740525e-04
6.606418547102e-04
6.798245018957e-04
7.048195630290e-04
7.239151784800e-04
6.995250348688e-04
7.376440826471e-04
7.439657402355e-04
6.261993285558e-04
6.226819723499e-04
2.832721408126e-04
1.644730842850e-04
1.669301588230e-04
2.020973455329e-04
2.478170423544e-04
7.577119654081e-04
7.492733009352e-04
7.294398050137e-04
3.569060949549e-04
3.819409900850e-04
7.577870500628e-04
6.069742862614e-04
6.160208837846e-04
5.947078797033e-04
1.502552835389e-04
1.472236624068e-04
7.528104372185e-04
2.930236053531e-04
2.739490413792e-04
1.500905215988e-04
1.240537225359e-04
6.973593058681e-04
7.439041173789e-04
4.813505419260e-04
5.017144862583e-04
7.379119109569e-04
1.870277448814e-04
7.663141417339e-04
6.508032487137e-04
6.054849935165e-04
4.293291398523e-04
2.069471688254e-04
1.825426121622e-04
3.087667916428e-04
2.317056376954e-04
2.217281548421e-04
7.833146767017e-04
7.725249111761e-04
7.195048383756e-04
6.747855449436e-04
7.634484368176e-04
1.418552388890e-04
7.784896772250e-04
7.030108063973e-04
7.725824598691e-04
7.540604595900e-04
3.171474948001e-04
2.987852970653e-04
2.558668176592e-04
2.815832131691e-04
5.513698858348e-04
3.420076733765e-04
5.219255427951e-04
5.030668813377e-04
4.792452590639e-04
4.247335201093e-04
4.063236056300e-04
3.563244576484e-04
5.530404887445e-04
4.617109805981e-04
5.777394579271e-04
5.501611182387e-04
7.566237315057e-04
7.823745579098e-04
5.997434588477e-04
5.780237946273e-04
1.697495562144e-04
1.508805515530e-04
5.186529117619e-04
7.516991623626e-04
7.672690893153e-04
7.876001356161e-04
7.626509320592e-04
7.627778325953e-04
3.699499845101e-04
5.666666454918e-04
1.438245311811e-04
5.868006376027e-04
1.247175489974e-04
6.713548583210e-04
7.483917891977e-04
7.736774679398e-04
7.821572245300e-04
4.899015071153e-04
6.061770746778e-04
5.817931729752e-04
4.605724853742e-04
4.370223372958e-04
4.552736079605e-04
4.133656439147e-04
3.276923247088e-04
3.020339028758e-04
7.979659689173e-04
7.883460447529e-04
7.982408092042e-04
7.795524967648e-04
8.013069214063e-04
7.771428291273e-04
2.665794004091e-04
3.640873967819e-04
7.971681631113e-04
4.838853975756e-04
7.968536680470e-04
7.720983615569e-04
9.810668217613e-05
1.158569237012e-04
7.915840785144e-04
2.380574401883e-04
2.618006099049e-04
2.132008951494e-04
8.415052523991e-04
4.886663809025e-04
7.934056144555e-04
4.492884086887e-04
8.130387548701e-04
6.261760504981e-04
4.125814814439e-04
7.178732318399e-04
7.666642762268e-04
8.185709815988e-04
5.696834584242e-04
5.469719599133e-04
5.897324846543e-04
1.746640571462e-04
1.267235960322e-04
7.616042996353e-04
3.196076646027e-04
3.449992437643e-04
2.048866664362e-04
2.493062780569e-04
5.070116633323e-04
4.873520815403e-04
6.908734956118e-04
7.154878992919e-04
6.414340301825e-04
6.254037858679e-04
5.801902790572e-04
5.606256376154e-04
8.012681753723e-04
8.329963825512e-04
3.530470634913e-04
3.340524441574e-04
3.460614324759e-04
8.175524335045e-04
8.195011765415e-04
7.988609115481e-04
1.072300634752e-04
1.330632502214e-04
1.652810804939e-04
1.397493906304e-04
8.060647275400e-04
7.832275887001e-04
8.359053686964e-04
2.373558503067e-04
6.948259004067e-04
8.063839968108e-04
7.881231808626e-04
8.339301416529e-04
7.615215817857e-04
8.048887775842e-04
8.067360300635e-04
8.088210451328e-05
8.001969768968e-04
5.513628864854e-04
5.991210265794e-05
5.303750343771e-04
5.575493484435e-04
5.056018791105e-04
1.923253731113e-04
5.350945061517e-04
5.648908884563e-04
7.689491788832e-05
8.408831798945e-04
8.340401133038e-05
9.990498025281e-05
8.174634215095e-04
7.911886027123e-04
8.358366351121e-04
8.088717682168e-04
7.649515697637e-04
7.857574983214e-04
5.264350640623e-04
8.358546589260e-04
8.061222461893e-04
8.605711697752e-04
3.958089654574e-04
3.059852068258e-04
2.858172523062e-04
2.426109781750e-04
8.296191495191e-04
8.022538523192e-04
7.244602053986e-04
6.782170569491e-04
5.336023792134e-04
5.298854478294e-04
5.720377334188e-04
5.651841783924e-04
6.088002111604e-04
6.018654128492e-04
6.443068834977e-04
8.334708182106e-04
1.951336418689e-04
4.420082584187e-04
8.207982746555e-04
7.940700745776e-04
3.881584802576e-04
3.471998577605e-04
8.305993334525e-04
3.609425281377e-04
8.689143425974e-04
2.787060135920e-05
7.286647819476e-05
3.859558184678e-04
4.309545412117e-04
3.298825060451e-04
3.137520652760e-04
6.714664482733e-04
1.125731627303e-04
1.894537224626e-04
6.501544121412e-04
1.477430287242e-04
7.019854955118e-04
3.810844111669e-04
4.677711350311e-04
2.313148587081e-04
3.252238421852e-04
5.703579268460e-04
5.324043867603e-04
5.086674172278e-04
4.006419728863e-04
3.391204703335e-04
2.923835719857e-04
5.408511218791e-04
7.379651171000e-04
7.579706773122e-04
8.011548755258e-04
7.780826984350e-04
7.332840892905e-04
7.526479975871e-04
7.971803115054e-04
7.735197813417e-04
8.262472905690e-04
7.929598925790e-04
7.470527542953e-04
7.659248830045e-04
8.091032939205e-04
7.211619544472e-04
8.442167902149e-04
4.306865788467e-04
1.044765289972e-04
9.827683643382e-05
4.923540219683e-04
8.714790847238e-04
8.731736799155e-04
3.123792524490e-04
8.729287150019e-04
5.272649318487e-04
2.191398239417e-04
8.732031985156e-04
7.130087249815e-04
6.877858420163e-04
6.679067510146e-04
8.747254954737e-04
6.109742344751e-04
8.755701857100e-04
5.978551322893e-04
5.777687862342e-04
5.331862976259e-04
7.271016044260e-04
8.726832412974e-04
8.363453721647e-04
8.357287884966e-04
7.967949130083e-04
8.729311769591e-04
8.746048210339e-04
8.757603934564e-04
2.896480078818e-04
3.151536061377e-04
3.591713235696e-04
3.399576539233e-04
2.956226792121e-04
3.205301867894e-04
3.646701735677e-04
3.009725532030e-04
7.593675824400e-04
8.745186206880e-04
5.955179239956e-04
5.752952465899e-04
5.302262826699e-04
4.419860638094e-04
4.675978432361e-04
5.129738354448e-04
4.164548397465e-04
6.551879346242e-04
8.741019856414e-04
5.859901048920e-04
4.476603996913e-04
4.915230817815e-04
5.309240068605e-04
5.323700613709e-04
5.736894063965e-04
5.351590388547e-04
5.269854541203e-04
5.469085242661e-04
5.219164243980e-04
5.664660482549e-04
5.401131126200e-04
4.979524260253e-04
5.848853311671e-04
5.569185072007e-04
4.906420102381e-04
3.170448400109e-05
6.995385727615e-05
6.849074955060e-05
1.073511835087e-04
1.105991917856e-04
1.504731351132e-04
1.458387750102e-04
7.076324639262e-05
3.090762372850e-05
6.811155019588e-05
3.024275800373e-05
6.701952661023e-05
1.132561805515e-04
1.774278331148e-04
8.683268420300e-04
4.289563965157e-04
4.087467011713e-04
3.620022030675e-04
3.871398276738e-04
4.468882401977e-04
3.382483447187e-04
3.227666928477e-04
3.186373403238e-05
6.968070788243e-05
6.930431433067e-05
1.103830641038e-04
1.084283513711e-04
6.955844240917e-05
6.957251263225e-05
3.087829288754e-05
6.916668823128e-05
1.092093195758e-04
2.860096868461e-05
7.056820037004e-04
7.299566898429e-04
8.725577123160e-04
4.959692094609e-04
3.091218048916e-05
8.671852048698e-04
8.733432179252e-04
8.734531321064e-04
7.957971286484e-04
8.182028176353e-04
8.680808008300e-04
2.856246407715e-04
8.221505899075e-04
7.867365561803e-04
2.006879828875e-04
2.760157267466e-04
6.570374827172e-04
6.034788526751e-04
7.534404223277e-04
6.171445062617e-04
7.141191166494e-04
8.333331487220e-04
1.769391207037e-04
6.197356729893e-04
6.031369019689e-04
7.159815276405e-04
2.996957630434e-04
4.779314782195e-04
1.896480084331e-04
8.372249201877e-04
4.978685116583e-04
5.049912460344e-04
3.962534712183e-04
3.116673154321e-04
2.575495564398e-04
4.563132910929e-04
4.733113038568e-04
6.807420950213e-04
7.412727405057e-04
3.900894407946e-05
7.062809791721e-04
5.640134143322e-04
6.366157628327e-04
7.072992914154e-04
1.751116105001e-04
7.321461800821e-04
8.104970881191e-04
5.847505123753e-04
1.450668962481e-04
5.736378135269e-04
8.027337595558e-04
7.180376744355e-04
2.736317130801e-04
5.220914710743e-04
4.865818052908e-04
4.471177866967e-04
8.063363278817e-04
5.378993798996e-04
7.470022916029e-04
6.114026488664e-04
2.939212611736e-04
7.463767332910e-04
5.084976424556e-04
7.777626792266e-04
6.854084072495e-04
4.140791467985e-04
7.471678807682e-04
5.103813785756e-04
7.329713830172e-04
4.737289604077e-04
5.977356866437e-04
6.519892618683e-04
5.678021419543e-04
6.319192717496e-04
7.264774776897e-04
1.875624189713e-04
3.688310981205e-04
6.314501505079e-04
7.672682440834e-04
8.229065015772e-04
4.434680652511e-04
7.201561125460e-04
7.914028017314e-04
4.930979507901e-04
2.040260336769e-04
1.581177402907e-04
3.258736548738e-04
5.134927945261e-04
5.384299011222e-04
8.328361271424e-04
7.396786737532e-04
6.920128991829e-04
8.196000574170e-05
4.652440764187e-04
7.595631118992e-04
5.413940581115e-04
7.514691837904e-04
5.124079232766e-04
8.363223980306e-04
3.713304271161e-04
7.809543171496e-04
6.971423152539e-04
3.367042725643e-04
4.902204304360e-04
8.332513049421e-04
7.429330284218e-04
6.113513461743e-04
5.161141755974e-04
4.006034501526e-04
5.581912762765e-04
6.223072189553e-04
8.752979443997e-04
7.659203639430e-04
6.426709006855e-04
5.325586862055e-04
6.468672484863e-04
1.073528278852e-04
4.189303666797e-04
5.523127417924e-04
3.452338039030e-04
5.354806018552e-04
8.261173123730e-04
5.721454322879e-04
3.892915712256e-04
5.917818965199e-04
3.539736687271e-04
6.627781278346e-04
6.108539446376e-04
6.660506999495e-04
1.163652973912e-04
6.305577701447e-04
7.706780509162e-04
3.642601618824e-04
5.551389630622e-04
7.078379568633e-04
3.068275794996e-04
6.002627334512e-04
7.101300016245e-04
6.503083964526e-04
5.576201452771e-04
6.459702225838e-04
3.237473504565e-04
2.667167922262e-04
2.221184360012e-04
4.085364404529e-04
7.352038309621e-04
1.486189434307e-04
7.017840156360e-04
1.592352416656e-04
3.838129177836e-04
7.166805507109e-04
6.173636955304e-04
4.028477991316e-04
2.492989866975e-04
3.779520455053e-04
6.018674573376e-04
3.968794592392e-04
3.716672737304e-04
8.329159667528e-04
3.902334651909e-04
8.748882416506e-04
8.711247298713e-04
5.265534076551e-04
2.606176973493e-04
3.608218628589e-05
2.743663405466e-04
3.201182020186e-04
6.958586502564e-04
5.269760115519e-04
2.937831755636e-04
8.369611183303e-04
8.745831491043e-04
6.824073644152e-04
7.692285890476e-04
6.715862034514e-04
7.913186766418e-04
4.873605112046e-04
6.716351408429e-05
6.550406917342e-04
2.121979415798e-04
2.182245527634e-04
1.712289286332e-04
3.107224161433e-04
1.057301483358e-04
1.752557479945e-04
8.331013379116e-04
5.272790897640e-04
7.395202468706e-04
1.285853407158e-04
8.358234000511e-04
8.354665319098e-04
8.757509275415e-04
7.846429612781e-04
1.241570316100e-04
5.651773772313e-04
8.374854402619e-04
7.189201776621e-04
8.774612593526e-04
5.201256590730e-04
8.377629979176e-04
1.628222754370e-04
8.372912793325e-04
7.405810874684e-04
5.837048570091e-04
5.629391932633e-04
8.390585364860e-04
8.374355334258e-04
9.795501197394e-05
6.799231894058e-04
3.879757720191e-04
6.464184088928e-05
8.366012277656e-04
7.827055704325e-04
8.377349647591e-04
1.105757531249e-04
6.604595936869e-05
8.445536335797e-04
8.418018754541e-04
1.845877810614e-04
8.826549608499e-04
6.138757031092e-05
4.804799717199e-04
6.556100966196e-05
8.765991424528e-04
8.406352288090e-04
4.268003565694e-04
4.929667183317e-04
2.809817149082e-04
8.054666026434e-04
9.866382460825e-05
8.462920394623e-04
8.466481683937e-04
8.459200057126e-04
8.848347209820e-04
6.317410965350e-05
8.478579638221e-04
8.049072796093e-04
4.880930937126e-04
8.381519655459e-04
3.464907722736e-04
1.453132550396e-04
8.782340449193e-04
2.788672853684e-05
4.852288266984e-04
8.800271141742e-04
1.366420641944e-04
5.591160485789e-04
8.434724703118e-04
5.260519714094e-04
7.639465125204e-04
1.346350386641e-04
2.489926233996e-05
6.405845470091e-04
8.434966522637e-04
8.489495605041e-04
6.092101199237e-04
1.233072216685e-04
8.180905916336e-04
4.606593074043e-04
8.111203909914e-04
8.066949311417e-04
3.153365254742e-05
5.661385301693e-04
6.389298898293e-05
8.469003976225e-04
4.815533645814e-04
1.495562037307e-04
1.546977997438e-04
1.930912926159e-04
2.061381711949e-04
2.390794373089e-04
2.445931968886e-04
2.856605147877e-04
2.967755800048e-04
3.322884574065e-04
3.356786539240e-04
3.782594336362e-04
3.879906112582e-04
4.250700443092e-04
4.273709822799e-04

SCALARS node_materi_plasti_phimob float
LOOKUP_TABLE default
-5.943322246397e+01
1.432931035520e+01
2.056448349783e+01
1.992366529189e+01
-3.160824803894e+01
-6.447330740205e+00
3.814545756707e+00
9.779240653521e+00
1.326840343338e+01
1.540227237825e+01
1.692991782824e+01
1.806461849437e+01
1.888590960774e+01
1.953516788761e+01
2.004702694719e+01
2.031849461291e+01
2.047102415608e+01
2.064420790073e+01
2.073128983441e+01
2.076194267431e+01
2.075906018047e+01
2.072112249669e+01
2.065113115695e+01
1.993760013235e+01
1.993285421202e+01
1.993595573289e+01
1.993910014607e+01
1.993083752988e+01
1.993807536586e+01
1.993537905533e+01
1.994431536595e+01
1.995367128635e+01
1.996165990437e+01
1.995768604915e+01
1.997411215147e+01
1.998077705899e+01
1.999867319395e+01
2.000207807374e+01
2.001909975609e+01
2.003566233573e+01
2.005761643349e+01
2.009516548752e+01
2.013081749394e+01
2.016178601015e+01
2.018716104938e+01
2.022495649680e+01
2.026409463768e+01
2.030968255833e+01
2.034098421657e+01
2.040762164637e+01
2.042202313061e+01
2.047231918713e+01
2.048725943949e+01
2.053176030290e+01
2.053555764595e+01
2.054537405555e+01
2.055818843366e+01
2.056429902404e+01
2.057621133176e+01
2.057031040978e+01
2.058038747547e+01
2.057106237714e+01
2.058324128018e+01
2.057546968754e+01
2.056097951374e+01
2.055524810374e+01
2.058641496686e+01
2.055011726593e+01
2.056660441469e+01
2.055678445948e+01
2.055611623647e+01
2.056146638939e+01
1.549241449896e+01
1.643367405248e+01
1.717029603486e+01
1.776961471017e+01
1.828989053159e+01
1.872329241510e+01
1.911013589469e+01
1.944660973907e+01
1.974742238884e+01
-4.292574720415e+01
1.402222070378e+01
-2.191886335407e+01
-1.750333859520e+01
-3.062918350225e+01
-3.032733293144e+01
-8.337586864918e+00
1.585982972325e+00
6.834762536488e+00
1.009228464663e+01
1.231466054579e+01
-5.922158062247e+01
-3.358940022033e+01
-8.883588218068e+00
1.709046116550e+00
7.160841753686e+00
1.048054379815e+01
1.266250038741e+01
1.411444194570e+01
1.417742818073e+01
1.418107261121e+01
1.415342703561e+01
1.430138326911e+01
1.413948233232e+01
1.409621838949e+01
1.409287903772e+01
1.410542200266e+01
1.407758569202e+01
1.403607651549e+01
1.400611604279e+01
1.397574768017e+01
1.397343931115e+01
-4.580349326867e+01
-4.319344977173e+01
-4.314676268996e+01
-4.544789522502e+01
-4.852034504366e+01
-5.095950847080e+01
-5.364224988924e+01
-5.623654028476e+01
-5.837992115748e+01
-5.968464896553e+01
-5.976650050301e+01
-5.799537881110e+01
-5.892071369398e+01
-6.134468158774e+01
-6.090999985599e+01
-6.000675110057e+01
-5.989135997043e+01
-6.122170058776e+01
-6.318744405278e+01
4.277087784543e+01
-1.596320972064e+01
-5.340221954745e+01
-5.431514763965e+01
-5.433700866409e+01
-5.456782731460e+01
-5.465094407505e+01
-5.480111470719e+01
-5.491792108564e+01
-5.504418212128e+01
-5.512273790482e+01
-5.515570868173e+01
-5.517477931989e+01
-5.519076708969e+01
-5.520408701065e+01
-5.521592818233e+01
-5.522676635647e+01
-5.523812342250e+01
-5.525330722421e+01
-5.527872346744e+01
-5.532533674632e+01
-5.540803187987e+01
-5.556530427352e+01
-5.721834832906e+01
-6.104962976669e+01
-3.550951851216e+01
-3.629060402265e+01
-3.625948253347e+01
-3.620751713431e+01
-3.615803864506e+01
-3.611506240516e+01
-3.607540810302e+01
-3.603553000614e+01
-3.599271695003e+01
-3.594564787794e+01
-3.589368521768e+01
-3.583692143896e+01
-3.577320325268e+01
-3.570277932083e+01
-3.562032992634e+01
-3.552170837426e+01
-3.541215206382e+01
-3.532096079257e+01
-3.518775476862e+01
-3.512957317252e+01
-3.485674674473e+01
-3.247477266531e+01
-3.705412869231e+01
-1.032487194807e+01
-8.254082951222e+00
-9.081045122615e+00
-9.171786545731e+00
-9.173572872138e+00
-9.223389240247e+00
-9.258157418939e+00
-9.309357362663e+00
-9.354168100677e+00
-9.395688248037e+00
-9.432132004856e+00
-9.467916504896e+00
-9.501229752883e+00
-9.531209330986e+00
-9.558734920182e+00
-9.585589014251e+00
-9.613906388654e+00
-9.644249679571e+00
-9.674769236473e+00
-9.681596937121e+00
-9.450442091100e+00
-8.765112937193e+00
1.440029616243e+00
1.403417562486e+00
1.402491452215e+00
1.409538862054e+00
1.421098767972e+00
1.433208359118e+00
1.443679678297e+00
1.450774887973e+00
1.457000506627e+00
1.464552326218e+00
1.472032423618e+00
1.476391949976e+00
1.475759445883e+00
1.480164530151e+00
1.485762079579e+00
1.497194495322e+00
1.482126247992e+00
1.487290405379e+00
1.849216886422e+00
7.032783802762e-01
6.340723176248e+00
7.075903704102e+00
6.909669404075e+00
6.907867778639e+00
6.920387991106e+00
6.931815278733e+00
6.956909117385e+00
6.974263773258e+00
6.986098134969e+00
6.993227517042e+00
7.002453904000e+00
7.012914214117e+00
7.016260990550e+00
7.016664889042e+00
7.017401887204e+00
7.019393732580e+00
7.028028475357e+00
7.076376111548e+00
7.190455540321e+00
1.042627897708e+01
1.040354050390e+01
1.039310040760e+01
1.038817920516e+01
1.037747610660e+01
1.037059165896e+01
1.036231306731e+01
1.034781054388e+01
1.032466917920e+01
1.031289438408e+01
1.029598946974e+01
1.026997839790e+01
1.024501418108e+01
1.020684162475e+01
1.019744037832e+01
1.031085060611e+01
9.796780131969e+00
1.210876769535e+01
1.248878278088e+01
1.243060959905e+01
1.244858435434e+01
1.248052878796e+01
1.251005571973e+01
1.252558250205e+01
1.254659521342e+01
1.256672259470e+01
1.258375043104e+01
1.259602159324e+01
1.260758067835e+01
1.262477104499e+01
1.262723616920e+01
1.266132234077e+01
1.271776534952e+01
-3.113133889351e+01
-1.827345879929e+01
-1.904362293321e+01
-1.233969318421e+01
-1.449760042549e+01
-1.490308846047e+00
5.051106279323e+00
8.921821340915e+00
1.148187339200e+01
1.332176871522e+01
-1.157149063172e+01
2.061525345183e+01
-4.050343941888e+01
-3.678234529445e+01
2.067855080006e+01
-1.072091037997e+01
1.982278018474e+01
2.045152427786e+01
4.360090210263e+00
2.018298908474e+01
1.118195757892e+01
2.063809346503e+01
-4.159578307610e+01
1.999534637802e+01
1.453426083465e+01
1.629509695449e+01
2.056479586454e+01
1.988725828008e+01
1.984104544106e+01
1.981311350824e+01
1.978288585305e+01
1.982919349956e+01
1.509119037724e+01
1.519880811270e+01
1.532601220443e+01
1.803948107939e+01
2.063686059819e+01
-3.700369255385e+01
-3.974230466260e+01
2.076477616148e+01
1.526859214093e+01
7.195372331570e+00
1.981137901366e+01
2.034045514014e+01
2.007278676899e+01
2.055615243599e+01
2.065867534757e+01
-3.755047242319e+01
1.510890738263e+01
2.069320976068e+01
1.892274251725e+01
-4.005070916732e+01
1.852601652956e+01
1.985521999230e+01
-1.042059819914e+00
-9.980330451792e+00
8.462345171937e+00
1.307641765200e+01
-2.370801824447e+01
1.686795663783e+01
2.062649544508e+01
-4.141151229367e+01
1.958373514544e+01
1.507116488528e+01
1.549927257823e+01
1.594448344335e+01
1.636507412399e+01
1.676337865654e+01
1.707517071903e+01
1.670710592339e+01
1.736817519208e+01
1.703557795590e+01
1.741245742481e+01
1.765355935363e+01
1.735358535162e+01
1.792997669363e+01
1.766400411248e+01
1.704033540372e+01
1.739044867613e+01
1.670968128743e+01
1.710831796908e+01
1.772909135460e+01
1.749100065103e+01
1.682034419083e+01
1.725391634045e+01
1.653030530858e+01
1.702297388510e+01
1.624242176116e+01
1.680311951165e+01
1.748072869377e+01
1.731370805619e+01
1.660047996376e+01
1.716441670189e+01
1.642095131138e+01
1.709532377991e+01
1.771186312580e+01
1.784395255720e+01
1.726114607312e+01
1.811319776281e+01
1.759211504905e+01
1.841746381357e+01
1.795443282664e+01
1.871854551479e+01
1.906550471892e+01
1.930812505601e+01
1.897259243953e+01
1.948746354074e+01
1.976075192233e+01
1.987959781866e+01
2.010731103857e+01
2.017856202320e+01
1.990538508726e+01
2.016414949515e+01
2.040448713730e+01
2.036063659308e+01
2.004471900934e+01
2.022530453991e+01
2.051052315761e+01
2.036511386074e+01
1.998669012732e+01
2.013428948861e+01
2.047580617035e+01
2.025378421549e+01
1.980690328655e+01
1.995032508180e+01
2.035310712793e+01
2.007246039653e+01
2.043364133820e+01
1.955592941875e+01
1.971840654576e+01
1.906479419064e+01
1.928431700018e+01
1.833457337422e+01
1.847256091999e+01
1.815062606771e+01
1.876803067907e+01
1.948355515739e+01
1.777550202721e+01
1.816173242885e+01
1.695945392183e+01
1.695624176194e+01
1.805465146864e+01
1.745773945010e+01
1.600368273846e+01
1.524958086911e+01
1.389238755726e+01
1.713190142558e+01
1.773948111647e+01
1.746904368459e+01
1.804115591989e+01
1.780594697685e+01
1.485075301026e+01
1.818996748586e+01
1.826302376833e+01
1.600785506310e+01
1.571365932780e+01
1.997227757698e+01
1.849756328168e+01
1.788940663684e+01
1.881023874480e+01
2.062898456058e+01
2.067855701531e+01
2.080857347176e+01
2.083430205735e+01
2.091421308945e+01
2.092141259372e+01
2.084819339997e+01
2.091789590079e+01
2.085274542202e+01
2.096243098249e+01
2.095916821824e+01
2.090501994833e+01
2.084934500356e+01
2.088376965455e+01
2.083914842315e+01
2.076927215851e+01
2.077408159345e+01
2.066582584735e+01
2.027797540568e+01
2.014255707834e+01
2.040881719049e+01
2.028137881323e+01
2.050844502357e+01
2.039433751523e+01
2.058231597814e+01
2.067604906741e+01
1.819939291262e+01
1.912314204650e+01
1.853577578572e+01
1.861056267247e+01
1.793034889241e+01
1.783772324206e+01
1.701384955123e+01
1.657674977584e+01
1.738397223485e+01
1.559311460216e+01
1.649527551425e+01
1.398713617178e+01
1.511725473273e+01
1.790034545717e+01
2.014241634175e+01
2.027411325933e+01
2.000196255326e+01
1.274350608256e+01
2.082387754005e+01
2.097536903809e+01
2.097148911623e+01
2.071710017325e+01
1.226413079562e+01
1.548480511463e+01
1.587060732460e+01
1.832055791687e+01
1.810515535916e+01
2.096186927765e+01
1.347452023433e+01
2.093725023508e+01
1.247102971045e+01
2.077287724811e+01
2.080780606090e+01
2.074117011982e+01
2.015828643643e+01
1.987311586833e+01
1.719605751466e+01
1.603293845682e+01
1.329836708194e+01
1.448991733735e+01
1.678026269611e+01
1.539837957045e+01
1.238588700618e+01
1.366497011224e+01
1.617987569292e+01
1.472207036623e+01
1.140106903790e+01
1.289695159628e+01
2.082996156338e+01
9.577239887487e+00
1.629940577109e+01
2.095170702116e+01
2.062967198736e+01
1.858020983911e+01
1.838400856935e+01
1.787902543894e+01
1.818086272775e+01
1.864544494396e+01
1.845714986191e+01
1.796552235526e+01
1.825591045305e+01
1.773080100208e+01
1.804156998248e+01
1.852222724520e+01
1.832644982271e+01
1.781587869408e+01
1.811746607264e+01
1.757073154226e+01
1.788695267826e+01
1.839201142972e+01
1.027020787534e+01
2.079539185187e+01
2.080939148691e+01
1.832914195608e+01
1.908146357185e+01
1.948135703677e+01
1.965493897196e+01
1.817697946812e+01
1.864827631854e+01
1.393478552669e+01
1.423534403469e+01
1.876955672654e+01
2.077311070513e+01
2.070519231757e+01
1.548998258975e+01
1.457508412627e+01
1.428029761588e+01
1.302219952498e+01
1.351809159370e+01
1.259672166092e+01
2.093881287414e+01
1.876921305203e+01
1.436189333474e+01
1.131482961688e+01
2.079954558733e+01
2.075596739973e+01
1.804268548689e+01
1.839357736545e+01
1.851964560997e+01
1.881576718424e+01
1.893078950216e+01
1.918215409321e+01
1.908906214257e+01
2.005498435916e+01
1.942173093595e+01
1.762159003478e+01
1.981908605960e+01
1.683824718795e+01
8.357856576539e+00
8.523955634602e+00
1.175133394556e+01
1.448311856362e+01
2.091839628912e+01
1.928914285637e+01
1.905332085309e+01
1.158983576648e+01
1.233477696079e+01
2.027842479322e+01
1.720010870484e+01
1.739183912511e+01
1.711279850763e+01
6.865847135881e+00
6.142864561027e+00
1.888592320703e+01
1.570641965006e+01
1.386619820397e+01
6.779502498822e+00
1.682476423096e+00
1.843371766455e+01
1.886386375630e+01
1.994160984668e+01
2.008094908618e+01
2.092531131850e+01
1.063468732649e+01
1.904581052289e+01
2.085935453686e+01
2.080856406970e+01
1.926976509596e+01
1.167878780360e+01
1.039551804397e+01
1.783129265851e+01
1.409576256232e+01
1.304520965816e+01
2.087089482297e+01
1.904984232706e+01
1.938614179689e+01
1.904907185044e+01
1.967290107304e+01
4.876080012823e+00
2.090076607452e+01
2.078156983446e+01
1.939502428244e+01
1.918465790157e+01
1.519715040124e+01
1.314795458607e+01
1.117910808820e+01
1.030090171558e+01
1.631075449903e+01
1.457474982116e+01
1.589137358263e+01
1.540253824934e+01
1.489266687845e+01
1.400971870394e+01
1.304245064740e+01
1.774583555625e+01
1.979714798828e+01
1.981726373011e+01
2.063535860890e+01
2.076718239529e+01
1.893966724072e+01
1.915890188587e+01
1.721401113847e+01
1.690573098622e+01
8.809603339945e+00
6.448138137760e+00
2.050067026399e+01
2.093178091525e+01
1.899564103195e+01
1.916618817734e+01
1.894965849867e+01
2.087044307819e+01
1.912016652554e+01
2.051013366057e+01
5.625649260854e+00
1.822722126470e+01
2.250347157394e+00
1.825631080319e+01
2.077919685212e+01
2.077814822651e+01
2.021064300790e+01
1.498937705594e+01
1.875326406369e+01
1.892462956353e+01
1.430344705610e+01
1.364754061266e+01
1.433496671177e+01
1.290758314740e+01
1.823094407485e+01
1.737100938523e+01
1.962529151941e+01
1.970469706807e+01
1.951955495118e+01
1.932092791810e+01
2.036365834841e+01
2.044366102597e+01
1.533281931342e+01
1.106875290520e+01
1.925551501412e+01
1.489021857155e+01
2.086117854323e+01
2.089696041264e+01
-4.866242939565e+00
-1.212706539639e-01
1.924411857603e+01
7.021389581539e+00
6.576157960034e+00
8.052373368448e+00
2.067387105855e+01
1.525040584526e+01
2.073367606051e+01
1.451248157695e+01
1.939944497523e+01
1.924667762092e+01
1.540455999942e+01
2.091441320574e+01
1.905151140661e+01
1.944247012802e+01
1.670364944246e+01
1.634745529190e+01
1.699795272479e+01
1.032860914075e+01
1.799912651405e+00
1.899696293755e+01
1.721116702923e+01
1.784291199618e+01
1.215363071131e+01
1.499194280924e+01
2.020360909833e+01
2.010938172598e+01
1.853694366893e+01
1.871329831582e+01
1.819807502114e+01
2.089305587165e+01
2.082234784912e+01
2.071638449340e+01
1.930680668071e+01
1.953147051462e+01
1.891466081069e+01
1.861014603055e+01
1.855443202257e+01
1.940634349877e+01
2.073145461256e+01
2.077273500195e+01
-1.983635724224e+00
3.255167891231e+00
6.747463428234e+00
3.850120459401e+00
1.932552317346e+01
1.912944280133e+01
1.954037807927e+01
1.391816887158e+01
1.943131945844e+01
2.080230881361e+01
2.082361299412e+01
2.077662529982e+01
1.998451198104e+01
2.018684362011e+01
1.993877470321e+01
-1.189285843979e+01
1.932614421983e+01
1.644370865492e+01
-2.048381301977e+01
1.607344730943e+01
1.657365664016e+01
1.560391549490e+01
1.098455836399e+01
1.609833111271e+01
1.657736931243e+01
-1.145518288562e+01
1.959041035557e+01
-9.172622485718e+00
-3.212047496669e+00
2.080511469078e+01
2.085002223879e+01
2.076897298518e+01
2.080450956634e+01
2.086946140878e+01
2.082669215077e+01
1.594536134483e+01
2.073125022656e+01
2.076960446149e+01
2.071233953469e+01
1.206652661758e+01
1.019327980924e+01
7.406303537731e+00
1.279886305871e+00
1.969537391175e+01
1.945450144956e+01
2.077528423263e+01
2.074535450716e+01
1.615734240855e+01
1.612457582489e+01
1.685342543003e+01
1.677088371066e+01
1.739657617196e+01
1.730552287308e+01
1.785641180910e+01
1.998565506939e+01
1.555410675384e+00
1.369393456442e+01
2.049969648101e+01
2.057788843062e+01
1.202355277857e+01
9.776612538127e+00
2.080690722119e+01
1.617822076349e+01
1.977553811248e+01
-3.767381636995e+01
-1.592512884647e+01
1.566771064461e+01
1.371889811948e+01
1.077458047958e+01
8.859299421514e+00
2.092442055389e+01
-5.295914263252e-01
8.172611230984e+00
1.790520039619e+01
7.077740116330e-01
2.075265617223e+01
1.738834438119e+01
1.526559632648e+01
1.185372554464e+01
1.257067107098e+01
1.668049761666e+01
1.593008609666e+01
1.544182422530e+01
1.829135630562e+01
9.972182498465e+00
5.942183493273e+00
1.636438917176e+01
1.872207759638e+01
1.891554453003e+01
1.929183172438e+01
1.910157455715e+01
1.868987628816e+01
1.889009984191e+01
1.928507606574e+01
1.909449915215e+01
1.952799879938e+01
1.929151168762e+01
1.888777503261e+01
1.909387758114e+01
1.944502059613e+01
1.867203504196e+01
2.044649513292e+01
1.654767125461e+01
-3.731703860184e+00
-6.570220011466e+00
1.564002254615e+01
1.986836704605e+01
1.984010134757e+01
1.700098740483e+01
2.002398385779e+01
1.587537611436e+01
1.438460925716e+01
2.012347580620e+01
1.847781793212e+01
1.821608006107e+01
1.798016996072e+01
1.983441353918e+01
1.729254254652e+01
2.038956357983e+01
1.998455895378e+01
1.960448009021e+01
1.935633546070e+01
1.866734203932e+01
2.060025785389e+01
2.066044680463e+01
2.069070999962e+01
2.073009736789e+01
2.064292580961e+01
1.994066294937e+01
1.998007833194e+01
1.735038566068e+01
1.824461147238e+01
1.918559896475e+01
1.887427009902e+01
1.777942100090e+01
1.848267713805e+01
1.928821328606e+01
1.799631665367e+01
1.911001726823e+01
2.066888029356e+01
2.089357379347e+01
2.085397466760e+01
2.070640173877e+01
1.966277401370e+01
1.999614227465e+01
2.035500462406e+01
1.927328113060e+01
1.871310933889e+01
2.066937537518e+01
2.068304677814e+01
1.986486507452e+01
1.510495468358e+01
1.594761968255e+01
1.593981798095e+01
1.669915133072e+01
1.604303552417e+01
2.029684083322e+01
2.038108665771e+01
2.019740661716e+01
2.044775045278e+01
2.027995182463e+01
1.998013959824e+01
2.049485577550e+01
2.035456684583e+01
1.513869947420e+01
-3.654918955827e+01
-1.359736913986e+01
-1.395869271995e+01
-1.391792945470e+00
-6.363988775953e-01
6.842552312142e+00
6.229374373300e+00
-1.385861761131e+01
-3.880799389870e+01
-1.398626291515e+01
-3.985773876176e+01
-1.430251846378e+01
-2.065489964158e-01
9.639846584408e+00
2.065434644957e+01
1.924226109379e+01
1.896740271688e+01
1.813560362067e+01
1.863038832291e+01
1.951839789765e+01
1.758082352051e+01
1.716634221229e+01
-3.973960676575e+01
-1.255842709527e+01
-1.440468864521e+01
1.059610487752e-01
-1.497291410787e-01
-1.248390810899e+01
-1.260026893268e+01
-4.012026829813e+01
-1.299468278694e+01
6.916084326164e-02
-4.127578682062e+01
1.851829625782e+01
1.875499797239e+01
2.068466377405e+01
1.530252074085e+01
-4.025292729772e+01
1.976453979979e+01
1.980631695466e+01
1.980999328198e+01
2.073962287931e+01
2.070886499308e+01
1.977751442465e+01
1.637643723204e+01
1.944948098858e+01
1.920711224801e+01
1.273080359580e+01
1.631030751479e+01
2.072393810579e+01
2.075866578456e+01
2.080963888105e+01
2.069020237879e+01
2.085726754655e+01
2.074760672280e+01
9.632351223205e+00
1.747855919947e+01
1.729367812486e+01
1.858722278065e+01
1.665541576082e+01
1.984131262746e+01
1.078868024540e+01
1.985124603742e+01
1.545954788192e+01
2.056269644304e+01
1.903178831025e+01
1.733354094036e+01
1.561110084407e+01
1.634368398886e+01
2.018005690085e+01
2.095485076747e+01
1.882850508561e+01
-3.597740862535e+01
2.096465634673e+01
2.071504084263e+01
1.764665176343e+01
2.048271961014e+01
9.716960395247e+00
1.870899731499e+01
1.935659132627e+01
1.690080833955e+01
5.648038047094e+00
1.680698918083e+01
2.083936995023e+01
1.852504103488e+01
1.565865778695e+01
2.037132773082e+01
1.596657298778e+01
1.382938568943e+01
1.935406530242e+01
1.854946679740e+01
2.073596463632e+01
2.060903492277e+01
1.636234978593e+01
2.091462844721e+01
1.957624415938e+01
1.910514071881e+01
1.865658444643e+01
1.956660056170e+01
1.882255769872e+01
2.062247078501e+01
2.037953731390e+01
1.500128692656e+01
1.766213898158e+01
1.796469727712e+01
1.777260950948e+01
2.065628413858e+01
2.094592781238e+01
1.173252005741e+01
1.419870250341e+01
1.755403373023e+01
1.950096373835e+01
1.944973766468e+01
1.490908908372e+01
2.090797642014e+01
1.920615456228e+01
2.027396154803e+01
1.195025036642e+01
7.878044187528e+00
1.844970069365e+01
1.880201504425e+01
2.055554528522e+01
1.952697067840e+01
2.087045728819e+01
2.095397092125e+01
-1.588672288227e+01
1.437079745186e+01
2.083285690163e+01
2.057002887093e+01
2.054289066127e+01
2.006801232022e+01
1.990631173485e+01
1.101169763577e+01
2.080891383255e+01
2.087733185872e+01
1.667441509671e+01
1.527590103272e+01
2.073187938492e+01
2.086158447372e+01
1.828039265847e+01
2.057374778574e+01
1.218314374456e+01
2.059952761872e+01
1.785463256834e+01
1.983393712240e+01
2.079624586191e+01
1.767750717012e+01
2.042174500514e+01
1.966085956291e+01
-2.407318979505e-01
1.293577675495e+01
2.048286537578e+01
1.891983773139e+01
2.070023855729e+01
2.033941658284e+01
2.053752235775e+01
1.951042041049e+01
2.058301416570e+01
9.929136712640e+00
1.794019044533e+01
2.061299356580e+01
1.836372064881e+01
6.478396488061e-01
1.866623642560e+01
2.075603760040e+01
1.882572347793e+01
2.079177519082e+01
1.844713616225e+01
6.611410463358e+00
2.089441546305e+01
1.880290317526e+01
1.911471887820e+01
1.913169482743e+01
2.094640411260e+01
8.369677632356e+00
1.571564960849e+01
1.334660213983e+01
1.981200229273e+01
1.895588635292e+01
6.588175327900e+00
1.843527703135e+01
7.494505048167e+00
1.957730164423e+01
1.976969505952e+01
1.751177751414e+01
1.980580802772e+01
1.454787054990e+01
1.943387501912e+01
1.941480820884e+01
1.963927970909e+01
1.916482679258e+01
1.953958764386e+01
1.937405153525e+01
1.981407264689e+01
2.063575501550e+01
1.604335226781e+01
1.017293012661e+00
-3.408007712645e+01
5.129572162896e+00
1.779591992771e+01
1.846013676442e+01
1.607196902320e+01
1.685739977663e+01
1.963934244875e+01
2.026733553885e+01
1.828961408263e+01
2.065165657380e+01
1.952914912131e+01
1.926076260052e+01
1.515951403510e+01
-1.417464938948e+01
2.069512885986e+01
-8.539078141030e+00
5.629985886927e-01
2.039930082017e+00
1.690621191607e+01
-1.568937340798e+00
-1.316317500722e+01
2.060550526092e+01
1.596991038305e+01
1.969895429930e+01
-9.846864569582e+00
1.954344708398e+01
2.020090459141e+01
2.066967102156e+01
1.994974740110e+01
-2.709470420947e+00
1.657833711054e+01
1.980544753601e+01
1.863659807609e+01
2.063053138370e+01
1.580847439222e+01
1.958368178272e+01
8.886531416412e+00
1.958991715677e+01
1.889882132221e+01
1.701088431946e+01
1.651289299147e+01
2.067280215099e+01
1.959970803034e+01
-8.471546902817e+00
1.825129985009e+01
1.870668959571e+01
-1.726093489299e+01
2.078223578934e+01
1.927331427411e+01
2.071613356279e+01
-1.109380997530e-01
-1.547759187487e+01
2.077412195551e+01
1.973763294755e+01
1.099716639402e+01
1.986495089864e+01
-2.096442773060e+01
1.499844994908e+01
-1.477562731823e+01
2.062279497912e+01
1.958971714860e+01
1.925161408135e+01
1.509705725490e+01
1.585215142116e+01
1.974818764150e+01
-3.169179136773e+00
1.962579240757e+01
2.075373672059e+01
1.962023603094e+01
2.052946239607e+01
-1.911646841473e+01
2.016673031260e+01
2.077545376076e+01
1.517581131976e+01
1.958610965678e+01
1.781363915707e+01
6.138993702136e+00
1.984295436459e+01
-4.583691345471e+01
1.515119097918e+01
2.061158592886e+01
5.243832240409e+00
1.664990212957e+01
1.971741077318e+01
2.017524195510e+01
1.905444743023e+01
4.577361687017e+00
-3.770318083002e+01
1.781378872868e+01
2.034102294855e+01
1.963351432023e+01
1.738609620128e+01
1.000133616365e+00
1.954306843335e+01
1.960502444250e+01
1.965100189872e+01
2.066555334258e+01
-3.473585958536e+01
2.041285455019e+01
-1.638044837900e+01
2.073769531639e+01
1.983347306731e+01
2.274721381360e+01
-5.424026666788e+01
-1.809794002479e+01
-1.658345002158e+01
-2.871101260528e+00
-2.479145682253e+00
4.326514895161e+00
5.129775379008e+00
8.492999788865e+00
9.001553005499e+00
1.119093142276e+01
1.178896913541e+01
1.311079983077e+01
1.353220324143e+01

SCALARS node_materi_stress_average_a_sig float
LOOKUP_TABLE default
-5.389976704908e+00
-8.658065886757e+01
-2.358755893607e+02
-2.015222291470e+02
-1.262348297461e+01
-2.414580530812e+01
-3.503023725867e+01
-4.750349124842e+01
-5.942098220335e+01
-7.129735746291e+01
-8.314208353880e+01
-9.497515263579e+01
-1.068639744906e+02
-1.188617941275e+02
-1.311798233064e+02
-1.433209521449e+02
-1.544534361966e+02
-1.666121462372e+02
-1.791928970446e+02
-1.914627537278e+02
-2.038670600806e+02
-2.164297435822e+02
-2.284939805598e+02
-2.022031566714e+02
-2.015171829940e+02
-2.017037508285e+02
-2.017019260922e+02
-2.013757611542e+02
-2.018416352654e+02
-2.021466519130e+02
-2.019837064975e+02
-2.026198782422e+02
-2.027388150379e+02
-2.026036472555e+02
-2.032158566032e+02
-2.039183961659e+02
-2.039976212418e+02
-2.043827832802e+02
-2.044287665980e+02
-2.050040478683e+02
-2.063354533670e+02
-2.074056630675e+02
-2.085762317545e+02
-2.095745876560e+02
-2.107325623545e+02
-2.119479224306e+02
-2.132803341533e+02
-2.148603571326e+02
-2.165539419094e+02
-2.180675800083e+02
-2.197485359771e+02
-2.210993663715e+02
-2.230607745740e+02
-2.243279150911e+02
-2.251449349370e+02
-2.265351505378e+02
-2.279534942572e+02
-2.291967272046e+02
-2.302655513371e+02
-2.313188159742e+02
-2.319669144833e+02
-2.325833415453e+02
-2.329495866854e+02
-2.337616713176e+02
-2.348621379639e+02
-2.354398658636e+02
-2.341469829208e+02
-2.358323450998e+02
-2.354702078594e+02
-2.359870904597e+02
-2.365140521504e+02
-2.365013241890e+02
-9.893435002058e+01
-1.110121461008e+02
-1.230448025210e+02
-1.347955324282e+02
-1.467784072892e+02
-1.588803436430e+02
-1.707124168206e+02
-1.824461060531e+02
-1.945413234305e+02
-8.079369128030e+00
-8.865847046570e+01
-1.153125909113e+01
-1.254185535718e+01
-1.055696723575e+01
-1.406456043231e+01
-2.684563514582e+01
-3.956289146258e+01
-5.184023387095e+01
-6.401280481764e+01
-7.608835150175e+01
-6.102230207704e+00
-1.372195833859e+01
-2.575588478266e+01
-3.784771554173e+01
-4.997238048112e+01
-6.209048889667e+01
-7.415750188909e+01
-8.506991687753e+01
-8.586565870250e+01
-8.588449564939e+01
-8.578947272876e+01
-8.751234309315e+01
-8.609436978308e+01
-8.610672077940e+01
-8.628285302439e+01
-8.661319798117e+01
-8.668093909147e+01
-8.684180770370e+01
-8.696669254865e+01
-8.727545546015e+01
-8.773080326428e+01
-8.392164187995e+00
-9.352166419277e+00
-9.187364198732e+00
-8.804868613349e+00
-8.747193693461e+00
-8.524741156018e+00
-8.076656797537e+00
-7.628837007254e+00
-7.233268597230e+00
-6.904454732946e+00
-6.618718696290e+00
-6.699053186842e+00
-6.214726381549e+00
-5.529062025390e+00
-5.365341677863e+00
-5.329174487931e+00
-5.204231683762e+00
-4.907363563107e+00
-4.581385246591e+00
-3.467859298006e+00
-5.069513839786e+00
-4.976936096759e+00
-4.643974734466e+00
-4.702251097050e+00
-4.810971165880e+00
-5.024303127134e+00
-5.247528635881e+00
-5.492158688750e+00
-5.730370958682e+00
-5.962125292655e+00
-6.178329490928e+00
-6.377476729634e+00
-6.557439488415e+00
-6.718554341226e+00
-6.861090699369e+00
-6.985564146483e+00
-7.092291012091e+00
-7.180964475209e+00
-7.250090692296e+00
-7.296004457493e+00
-7.312466605040e+00
-7.288531750062e+00
-7.021380296532e+00
-5.968854525521e+00
-1.365445481695e+01
-1.348270079430e+01
-1.342858926531e+01
-1.339970719764e+01
-1.336540720916e+01
-1.331920987749e+01
-1.326013034547e+01
-1.318852761986e+01
-1.310461989303e+01
-1.300860660076e+01
-1.290089571687e+01
-1.278233911234e+01
-1.265498857353e+01
-1.252035116912e+01
-1.238379813402e+01
-1.224889504706e+01
-1.213330457869e+01
-1.203669675627e+01
-1.201122924571e+01
-1.202609997998e+01
-1.226384744283e+01
-1.340313805033e+01
-1.163725619572e+01
-2.491633227778e+01
-2.673056192735e+01
-2.564971599567e+01
-2.534076387743e+01
-2.524087352543e+01
-2.515278010360e+01
-2.514273856416e+01
-2.514900725013e+01
-2.518233060442e+01
-2.522439034703e+01
-2.527483854227e+01
-2.532700841647e+01
-2.537837770822e+01
-2.542655381933e+01
-2.546992240745e+01
-2.550793616364e+01
-2.554009834288e+01
-2.556705055597e+01
-2.559259492395e+01
-2.562638451276e+01
-2.568555481533e+01
-2.573658822842e+01
-3.783547650215e+01
-3.780503615009e+01
-3.778324519546e+01
-3.776967479606e+01
-3.776067971618e+01
-3.775228829738e+01
-3.774273473748e+01
-3.773242000783e+01
-3.772473157196e+01
-3.771914506719e+01
-3.771985288110e+01
-3.773017500884e+01
-3.775264111747e+01
-3.780502963883e+01
-3.787751734768e+01
-3.801118474466e+01
-3.815320620250e+01
-3.846900291575e+01
-3.951225575167e+01
-3.772504707730e+01
-5.017049519695e+01
-5.198039015277e+01
-5.100126401284e+01
-5.066246240105e+01
-5.050341585774e+01
-5.033448885408e+01
-5.024017336745e+01
-5.016255044472e+01
-5.010094793187e+01
-5.005715816191e+01
-5.002749655706e+01
-5.000303742027e+01
-4.998614279655e+01
-4.996954576394e+01
-4.995958783491e+01
-4.995303054147e+01
-4.995780792157e+01
-4.996668781316e+01
-4.997379564440e+01
-6.209672192559e+01
-6.209505176473e+01
-6.210140968396e+01
-6.212190152985e+01
-6.215195629572e+01
-6.218376330039e+01
-6.223259847495e+01
-6.227326863387e+01
-6.232430686273e+01
-6.240394150066e+01
-6.250365128517e+01
-6.262305690873e+01
-6.276651856608e+01
-6.291285899130e+01
-6.324213855451e+01
-6.425334986416e+01
-6.246260473183e+01
-7.454257216435e+01
-7.624599157740e+01
-7.534476384119e+01
-7.513068249317e+01
-7.496156679947e+01
-7.482113045079e+01
-7.466197912227e+01
-7.455665834078e+01
-7.454876736167e+01
-7.443900499116e+01
-7.437682713678e+01
-7.433080361315e+01
-7.429239283561e+01
-7.423332305790e+01
-7.427764774618e+01
-7.426761444937e+01
-9.551801265349e+00
-1.238866924165e+01
-1.234456510596e+01
-1.045977412477e+01
-2.219060070658e+01
-3.473656545319e+01
-4.705929323695e+01
-5.928065796583e+01
-7.137523309411e+01
-8.346005643121e+01
-1.629147996394e+01
-2.219154492912e+02
-1.191475597816e+01
-1.293194904509e+01
-2.268311597305e+02
-2.378173106956e+01
-1.254632105541e+02
-2.160607109987e+02
-4.543822634641e+01
-2.107095076195e+02
-6.983989640260e+01
-2.300872879753e+02
-1.059183723665e+01
-2.053982599843e+02
-9.394687235473e+01
-7.777913134522e+01
-1.585786319245e+02
-2.019371075933e+02
-1.995502489318e+02
-1.969808828787e+02
-1.964551218051e+02
-1.985175014045e+02
-9.874366564672e+01
-9.781074268968e+01
-9.827085457328e+01
-1.408943941854e+02
-2.302700007476e+02
-1.251036664600e+01
-1.065084489312e+01
-1.972100686178e+02
-9.656381838098e+01
-4.120973607623e+01
-1.986059241344e+02
-2.141925265394e+02
-2.078568580606e+02
-2.181958312376e+02
-2.245292461268e+02
-1.298706670924e+01
-9.780318837335e+01
-2.263026462758e+02
-1.644599424842e+02
-1.155400401520e+01
-1.009670230408e+02
-1.985421152061e+02
-3.527261463276e+01
-1.784004143153e+01
-5.763458963561e+01
-8.178922586443e+01
-1.305106638004e+01
-1.180442899166e+02
-2.326343539493e+02
-1.003062666529e+01
-1.878093870903e+02
-9.960584410546e+01
-1.049481588762e+02
-1.104250736819e+02
-1.166631119343e+02
-1.226856414212e+02
-1.283282727364e+02
-1.224203295453e+02
-1.341118886984e+02
-1.281634608557e+02
-1.345160987488e+02
-1.399083950841e+02
-1.339822700372e+02
-1.457414419292e+02
-1.398721153427e+02
-1.281445740260e+02
-1.340794831642e+02
-1.223364950119e+02
-1.283391846999e+02
-1.400841413049e+02
-1.344045810240e+02
-1.226129429314e+02
-1.287431284013e+02
-1.169431541006e+02
-1.231561397459e+02
-1.113103596724e+02
-1.176258227779e+02
-1.294213796542e+02
-1.239507123378e+02
-1.121668900835e+02
-1.185549494670e+02
-1.068028570571e+02
-1.132290726606e+02
-1.249262565410e+02
-1.196336216762e+02
-1.079518687457e+02
-1.143967084767e+02
-1.027552762780e+02
-1.092391679448e+02
-9.765186767386e+01
-1.040962401027e+02
-1.156018945332e+02
-1.104219171170e+02
-9.898949378053e+01
-1.052148979636e+02
-1.166550181382e+02
-1.113319889054e+02
-1.227979500977e+02
-1.173669714523e+02
-1.060311712989e+02
-1.119309656774e+02
-1.233197868291e+02
-1.177389062294e+02
-1.064629540981e+02
-1.121546033956e+02
-1.235156057241e+02
-1.178046444714e+02
-1.065233850022e+02
-1.120591090457e+02
-1.234885314329e+02
-1.175809161008e+02
-1.062215216911e+02
-1.116135967892e+02
-1.231403811050e+02
-1.170204441806e+02
-1.286911276683e+02
-1.054809865913e+02
-1.108021687456e+02
-9.921967312964e+01
-1.045139775877e+02
-1.312803019714e+02
-9.290192158909e+01
-8.781649275001e+01
-9.816902307934e+01
-1.098983630402e+02
-8.651175605805e+01
-9.176301019793e+01
-8.007285469912e+01
-9.086636110580e+01
-1.461585557374e+02
-8.530591832843e+01
-7.357565000623e+01
-6.840955137458e+01
-6.190230001723e+01
-1.288972008658e+02
-1.406394809777e+02
-1.346538872168e+02
-1.467472266932e+02
-1.410305232501e+02
-6.702684806734e+01
-1.517675841847e+02
-1.524820947711e+02
-1.108011658195e+02
-1.003350827486e+02
-1.282221614296e+02
-9.704742430625e+01
-9.058032460669e+01
-1.023499727398e+02
-1.348424352917e+02
-1.404788196535e+02
-1.466688481979e+02
-1.523654871350e+02
-1.585997063903e+02
-1.643457138677e+02
-1.580278071234e+02
-1.700552375004e+02
-1.636603770018e+02
-1.706229679717e+02
-1.647664508445e+02
-1.757285514630e+02
-1.692629644705e+02
-1.813741377464e+02
-1.748390268285e+02
-1.627403824885e+02
-1.682438393356e+02
-1.562158608970e+02
-1.343906658341e+02
-1.399068878177e+02
-1.460972748095e+02
-1.516890201063e+02
-1.579099913804e+02
-1.635514911942e+02
-1.697890957962e+02
-1.640852261275e+02
-1.515840832034e+02
-9.390755324957e+01
-8.766889599757e+01
-8.275740406371e+01
-7.651666323753e+01
-7.179641682235e+01
-6.557466276749e+01
-6.104050713127e+01
-6.703454066260e+01
-5.642976580999e+01
-6.217737312329e+01
-5.166990159969e+01
-5.713516860445e+01
-1.357053397056e+02
-1.572547553236e+02
-1.691811571405e+02
-1.627547098563e+02
-5.678589440847e+01
-1.803962544019e+02
-1.768494886124e+02
-1.708506061500e+02
-1.760262770024e+02
-5.543130395939e+01
-5.491914512331e+01
-5.909374672490e+01
-1.529074364786e+02
-1.472259638419e+02
-1.830390443013e+02
-6.053471591108e+01
-1.821595452934e+02
-4.614591967344e+01
-1.737373593107e+02
-1.859167919381e+02
-1.516858587947e+02
-1.747860303542e+02
-1.682144973103e+02
-6.786779380742e+01
-6.259481448393e+01
-5.209885536506e+01
-5.764490575765e+01
-6.812521642851e+01
-6.250754678323e+01
-5.185003190085e+01
-5.671618288873e+01
-6.766214810433e+01
-6.172182958723e+01
-5.069925296694e+01
-5.556834140857e+01
-1.925717481544e+02
-4.149935690685e+01
-1.164005431254e+02
-1.890034546891e+02
-1.816293604926e+02
-1.591237538896e+02
-1.534852851789e+02
-1.415135971012e+02
-1.478667051470e+02
-1.598146334221e+02
-1.542320371329e+02
-1.422482489566e+02
-1.486471629006e+02
-1.366376952760e+02
-1.430742461081e+02
-1.550700805816e+02
-1.495449445941e+02
-1.375247652400e+02
-1.440179843715e+02
-1.319640748625e+02
-1.384594184267e+02
-1.505404851152e+02
-4.928470017678e+01
-1.702328298698e+02
-1.823134641009e+02
-9.615521178331e+01
-1.075150518173e+02
-1.141397518956e+02
-1.195890250237e+02
-1.449371539881e+02
-1.570399008773e+02
-4.853226913213e+01
-5.231922294506e+01
-1.647710967869e+02
-1.792357562882e+02
-1.670977339576e+02
-9.500716870864e+01
-8.840066229170e+01
-8.308634263619e+01
-7.611518857631e+01
-8.175717172537e+01
-7.072836122587e+01
-1.587520568646e+02
-1.615353015808e+02
-6.331388256545e+01
-5.180495932296e+01
-1.914286609836e+02
-1.583000259272e+02
-1.411913763718e+02
-1.474686543850e+02
-1.529887667015e+02
-1.592690319647e+02
-1.647995865505e+02
-1.710365052166e+02
-1.655955772835e+02
-1.803391943063e+02
-1.773720887626e+02
-1.327542746388e+02
-1.507767214535e+02
-7.288027277472e+01
-4.397757428438e+01
-4.412807220302e+01
-5.383808372904e+01
-6.562901412201e+01
-1.952730637330e+02
-1.765568842142e+02
-1.702472284698e+02
-6.942393189494e+01
-7.525287289234e+01
-1.868386188215e+02
-1.291109644336e+02
-1.302613884385e+02
-1.245630325486e+02
-4.122251246880e+01
-3.986795470745e+01
-1.661824029857e+02
-6.325466523398e+01
-5.626641203535e+01
-3.612348282948e+01
-3.156362177728e+01
-1.513415869754e+02
-1.633615958786e+02
-1.260672418291e+02
-1.314644604185e+02
-1.892240656538e+02
-4.931094060622e+01
-1.691036044345e+02
-1.643830733865e+02
-1.524763754446e+02
-1.129114370048e+02
-4.181939685857e+01
-3.845816718605e+01
-7.875400473865e+01
-6.062774361985e+01
-5.894178443158e+01
-2.014523253392e+02
-1.716802982499e+02
-1.719820423103e+02
-1.600865034642e+02
-1.839056439348e+02
-3.819142695881e+01
-2.013980396795e+02
-1.847348554210e+02
-1.814904815197e+02
-1.757191180436e+02
-6.752853778665e+01
-6.061333028051e+01
-4.902425566750e+01
-5.336109614109e+01
-1.164288879364e+02
-7.224924021581e+01
-1.105434213061e+02
-1.046256610492e+02
-9.877776304031e+01
-8.736286791168e+01
-8.108434212307e+01
-8.119680191051e+01
-1.336142548928e+02
-1.206748418735e+02
-1.507735091135e+02
-1.409134314976e+02
-1.669639286125e+02
-1.734823833276e+02
-1.254649357751e+02
-1.198891738745e+02
-4.521325622636e+01
-4.030092978815e+01
-1.342456463084e+02
-1.948694591771e+02
-1.708414114332e+02
-1.764683656386e+02
-1.703734221185e+02
-1.951999006309e+02
-8.885119311944e+01
-1.404797349171e+02
-3.664682426413e+01
-1.366073525788e+02
-3.379120769586e+01
-1.517673552195e+02
-1.970134479656e+02
-2.036287045180e+02
-1.922660186086e+02
-9.926899962293e+01
-1.429419179106e+02
-1.376359091762e+02
-9.292618161401e+01
-8.705468515711e+01
-9.292819715903e+01
-8.114879506464e+01
-8.400191315142e+01
-7.798854021609e+01
-1.891418123693e+02
-1.890159244956e+02
-1.871043771471e+02
-1.816307520047e+02
-1.988389686611e+02
-1.931704078845e+02
-7.038110760069e+01
-6.902639320749e+01
-1.780763576706e+02
-9.878154419869e+01
-2.069993860815e+02
-2.007464198091e+02
-2.678953011918e+01
-3.120769264803e+01
-1.755405900925e+02
-4.130887299691e+01
-4.546782195377e+01
-3.768787584902e+01
-2.222780135852e+02
-9.624206843888e+01
-2.093579432735e+02
-9.314026680434e+01
-1.813517940765e+02
-1.493920865578e+02
-8.958092328621e+01
-1.830229832945e+02
-1.691234321439e+02
-1.821924655554e+02
-1.182129917166e+02
-1.121166165613e+02
-1.235594989929e+02
-4.043357096056e+01
-2.969594175452e+01
-1.679546598393e+02
-8.406742523516e+01
-9.045879989875e+01
-5.398661047994e+01
-6.532801615880e+01
-1.325309071345e+02
-1.271206202484e+02
-1.579035488713e+02
-1.634984968849e+02
-1.467213733646e+02
-1.585090694059e+02
-1.466472052120e+02
-1.407541629863e+02
-1.785553583587e+02
-1.864082021246e+02
-8.980882912067e+01
-8.444473475466e+01
-8.908460560828e+01
-1.835336031280e+02
-2.157590954172e+02
-2.101657273683e+02
-2.908868541471e+01
-3.531337458445e+01
-3.198116619070e+01
-2.934286594994e+01
-1.817803156532e+02
-1.761312877100e+02
-1.889200068846e+02
-6.297166038415e+01
-1.666102751332e+02
-2.069205098059e+02
-2.006687758244e+02
-2.147537021661e+02
-1.856063465883e+02
-1.971756128022e+02
-1.955660852227e+02
-2.213572072910e+01
-1.780192440925e+02
-1.127932245397e+02
-1.883785353324e+01
-1.073046643398e+02
-1.141783849741e+02
-1.010189056915e+02
-5.142184737639e+01
-1.096550792446e+02
-1.171582864332e+02
-2.245097858657e+01
-1.896269437189e+02
-2.297807284025e+01
-2.760193594839e+01
-2.130267802726e+02
-2.064953403482e+02
-2.183661898826e+02
-2.117662502874e+02
-1.999547055212e+02
-2.058279576839e+02
-1.060065229089e+02
-2.193624753883e+02
-2.118472323784e+02
-2.253440537269e+02
-7.548019682061e+01
-5.798964601186e+01
-5.062951747804e+01
-3.725196695611e+01
-1.945843277301e+02
-1.864819402517e+02
-1.906157755349e+02
-1.782989064731e+02
-1.077976900456e+02
-1.071177401270e+02
-1.180879796464e+02
-1.165724909634e+02
-1.275748557073e+02
-1.259143441158e+02
-1.371295356590e+02
-2.009233814939e+02
-2.928342117893e+01
-8.724703807724e+01
-2.050745491026e+02
-1.985393457797e+02
-7.497599137056e+01
-6.316405373799e+01
-2.151413526623e+02
-7.901106292536e+01
-1.965640833996e+02
-1.146454515924e+01
-1.971787491570e+01
-8.402844444895e+01
-8.704235331814e+01
-6.338846168774e+01
-5.721323713083e+01
-1.706402569163e+02
-3.100735101756e+01
-3.476339067085e+01
-1.385645096306e+02
-2.495520010667e+01
-1.848133227911e+02
-8.596228106925e+01
-9.938054300869e+01
-4.524386658666e+01
-6.556990359200e+01
-1.222481994679e+02
-1.107095669083e+02
-1.047936486930e+02
-9.260807862786e+01
-6.298431134765e+01
-4.930720184987e+01
-1.165380139271e+02
-1.643150710376e+02
-1.699922549237e+02
-1.813718957035e+02
-1.757089662796e+02
-1.640417260772e+02
-1.698203255801e+02
-1.814011938728e+02
-1.760145809142e+02
-1.895468594030e+02
-1.817778456305e+02
-1.696765619804e+02
-1.752422973540e+02
-1.864340740275e+02
-1.634496079869e+02
-2.105236594658e+02
-9.606286036773e+01
-2.658342427020e+01
-2.292359861893e+01
-1.050834258993e+02
-2.007561359095e+02
-1.997443263763e+02
-7.001181561154e+01
-2.064594460057e+02
-1.105205841691e+02
-5.059746722132e+01
-2.092687902137e+02
-1.582485647128e+02
-1.520920954349e+02
-1.463427431927e+02
-1.994589439206e+02
-1.293591479256e+02
-2.154746751200e+02
-1.453904098910e+02
-1.389189478200e+02
-1.271902015696e+02
-1.637625848084e+02
-2.205231416057e+02
-2.112101862112e+02
-2.123648290398e+02
-2.008555029355e+02
-2.231333495106e+02
-2.036435463895e+02
-2.049208071516e+02
-7.343010804786e+01
-7.904500856722e+01
-9.000835477080e+01
-8.444841685913e+01
-7.348659073777e+01
-7.874981161147e+01
-8.969313533377e+01
-7.292180285632e+01
-1.752419679794e+02
-2.256036939968e+02
-1.527789680539e+02
-1.468241563066e+02
-1.350832353853e+02
-1.153040454763e+02
-1.216862579169e+02
-1.335008110213e+02
-1.088503783561e+02
-1.537581914308e+02
-2.263758827410e+02
-1.465016804635e+02
-1.162231693406e+02
-9.828330673606e+01
-1.091177311063e+02
-1.096638423117e+02
-1.210453201608e+02
-1.099304179226e+02
-1.379265539641e+02
-1.432999382913e+02
-1.368539889807e+02
-1.486597070742e+02
-1.419234272249e+02
-1.310040541384e+02
-1.537963404858e+02
-1.461851004237e+02
-9.771613375001e+01
-1.325339438919e+01
-2.193313865035e+01
-2.165596497812e+01
-3.037626100173e+01
-3.084796990184e+01
-4.041917322522e+01
-3.881448562230e+01
-2.195339705216e+01
-1.260013476058e+01
-2.146073332328e+01
-1.220058281883e+01
-2.104533683886e+01
-3.171301297352e+01
-4.708500735862e+01
-2.288818785801e+02
-1.127500443317e+02
-1.069477558365e+02
-9.557839950131e+01
-1.016662814295e+02
-1.174122518328e+02
-8.930408531735e+01
-8.507154547119e+01
-1.053234543733e+01
-2.025403728949e+01
-1.925577552752e+01
-3.017829831837e+01
-3.009107228551e+01
-2.055062101144e+01
-2.060691187299e+01
-1.068841100742e+01
-2.061346433812e+01
-3.065512061912e+01
-1.052546526181e+01
-1.529529021919e+02
-1.594537314654e+02
-2.271552331948e+02
-9.870090915926e+01
-1.179415196969e+01
-1.950062714569e+02
-1.973093985831e+02
-1.974063878198e+02
-2.098227454241e+02
-2.159578936483e+02
-1.952112086896e+02
-7.487051516301e+01
-1.871014211493e+02
-1.744210477979e+02
-4.472043369512e+01
-7.181100621719e+01
-1.725921748240e+02
-1.572371640859e+02
-1.980563110993e+02
-1.616618771121e+02
-1.869962998833e+02
-2.127742394708e+02
-4.754875251029e+01
-1.310035041496e+02
-1.263901879249e+02
-1.560358162314e+02
-7.875242771358e+01
-1.254207812416e+02
-5.028918276991e+01
-1.991653799600e+02
-1.047359335818e+02
-1.291705027009e+02
-1.035063902243e+02
-8.136679752700e+01
-6.682721819609e+01
-1.014648668955e+02
-1.224836877748e+02
-1.764097426046e+02
-1.625297557519e+02
-1.241612654887e+01
-1.827263996680e+02
-1.460921671574e+02
-1.358531420461e+02
-1.754616630813e+02
-4.627676112900e+01
-1.606150156372e+02
-1.820150249651e+02
-1.229912142616e+02
-3.876683842010e+01
-1.186990899043e+02
-2.075122542436e+02
-1.585982825164e+02
-7.221467083489e+01
-1.288612504717e+02
-1.057668279224e+02
-8.785953127817e+01
-1.795112423713e+02
-1.259893188557e+02
-1.880466110807e+02
-1.522251313398e+02
-7.749596300873e+01
-1.943341359876e+02
-1.219580109945e+02
-1.725371141348e+02
-1.585226891156e+02
-1.000178658591e+02
-1.653231221024e+02
-1.292653721736e+02
-1.811624895782e+02
-9.895396698240e+01
-1.349380690638e+02
-1.457725711763e+02
-1.302813608864e+02
-1.660133074040e+02
-1.885529534811e+02
-4.673518402647e+01
-7.766899219436e+01
-1.352197020518e+02
-1.824672071270e+02
-1.843115431975e+02
-9.383457776781e+01
-1.878530957625e+02
-1.768438767372e+02
-1.279900670346e+02
-5.439675098569e+01
-3.521481295838e+01
-7.785215751940e+01
-1.207742444947e+02
-1.398063451097e+02
-1.888340964226e+02
-1.935203208201e+02
-1.769391908850e+02
-1.510967585422e+01
-9.324008584871e+01
-1.991996169065e+02
-1.348450480049e+02
-1.872461147719e+02
-1.348910964701e+02
-2.002490570113e+02
-6.935918590348e+01
-2.050036208399e+02
-1.765761624759e+02
-7.445261651916e+01
-9.664681147485e+01
-2.190331148123e+02
-1.888415804983e+02
-1.420023908063e+02
-1.291868809813e+02
-7.580764069869e+01
-1.453310047029e+02
-1.405143354361e+02
-1.991940721804e+02
-1.941567756753e+02
-1.401395690855e+02
-1.389358622641e+02
-1.560488697749e+02
-3.025098363769e+01
-8.140130992350e+01
-1.443494475300e+02
-8.382155704939e+01
-1.350096531747e+02
-2.039130090384e+02
-1.497650595085e+02
-9.485659479017e+01
-1.551565001718e+02
-6.376425456725e+01
-1.459626520280e+02
-1.605283912810e+02
-1.522904904585e+02
-3.169428876801e+01
-1.483008327089e+02
-2.031445348601e+02
-9.409722296502e+01
-1.408519543680e+02
-1.579247298954e+02
-5.150392770637e+01
-1.526487456258e+02
-1.640733446657e+02
-1.546908346268e+02
-1.324053437489e+02
-1.646960750102e+02
-5.725620043744e+01
-6.989981665135e+01
-5.853929102803e+01
-1.007259011076e+02
-1.696980819174e+02
-4.001544249083e+01
-1.576438983332e+02
-4.249204779689e+01
-9.540176499836e+01
-1.736189668241e+02
-1.296946735233e+02
-1.010011091269e+02
-6.613789567852e+01
-9.544431609609e+01
-1.441334494511e+02
-1.008608179812e+02
-9.506859258054e+01
-1.861741972860e+02
-1.002699808573e+02
-1.973323067451e+02
-2.298785975926e+02
-1.058085763155e+02
-3.841770017654e+01
-1.359536536205e+01
-4.609558064857e+01
-8.291279009581e+01
-1.574644004962e+02
-1.063138489395e+02
-7.655589337683e+01
-1.933739460800e+02
-2.125455596913e+02
-1.471184887939e+02
-1.930042878473e+02
-1.614518416258e+02
-1.753844832478e+02
-9.598149982121e+01
-2.084917142411e+01
-1.723163403213e+02
-2.628313817998e+01
-3.278761368539e+01
-2.684478590135e+01
-8.161853588972e+01
-3.019805067458e+01
-1.953063191878e+01
-2.092759263352e+02
-1.073313544460e+02
-1.786114683120e+02
-1.696741058068e+01
-1.881477835895e+02
-2.038356908779e+02
-2.293517653944e+02
-1.907219184218e+02
-2.305693083386e+01
-1.184019635658e+02
-1.977237456574e+02
-1.566709909809e+02
-2.308575696365e+02
-1.062829197796e+02
-1.876317592003e+02
-4.194288684250e+01
-1.877157240178e+02
-1.692835676831e+02
-1.211818187686e+02
-1.184562434129e+02
-2.217252537346e+02
-1.914906595877e+02
-2.095030960712e+01
-1.465607366640e+02
-1.017027791433e+02
-2.051071204480e+01
-2.176809686298e+02
-1.804002193671e+02
-2.206189431351e+02
-2.981024409478e+01
-1.942388927556e+01
-2.181613519940e+02
-1.964446692753e+02
-4.765083031613e+01
-1.998361628945e+02
-1.615465061231e+01
-9.490583026972e+01
-1.984964404599e+01
-2.310590162289e+02
-1.885887267035e+02
-1.121651575105e+02
-9.949146634928e+01
-7.411324967608e+01
-1.924420647850e+02
-2.844959650176e+01
-1.894990960084e+02
-2.169733704694e+02
-1.917015725553e+02
-2.206363759351e+02
-1.887740885964e+01
-2.056251184434e+02
-2.042723247829e+02
-9.574128940234e+01
-1.910381669880e+02
-9.112810851907e+01
-3.959583366812e+01
-1.985702651055e+02
-8.738951432109e+00
-9.492060415570e+01
-2.326477532003e+02
-3.782653745597e+01
-1.146858839915e+02
-1.960586077821e+02
-1.379414552320e+02
-1.685797692868e+02
-3.723823419115e+01
-1.240105695963e+01
-1.360293705685e+02
-2.072853892594e+02
-1.915649925601e+02
-1.277581568571e+02
-2.784050256445e+01
-1.895160012173e+02
-1.212633000650e+02
-1.910330063507e+02
-2.024359342195e+02
-1.063054851869e+01
-1.483985642832e+02
-1.875753050923e+01
-2.216765415511e+02
-1.263885729956e+02
-5.177745489545e+00
-7.433290385896e+00
-1.921204709365e+01
-2.006758486889e+01
-3.223753558832e+01
-3.144730449099e+01
-4.470166299685e+01
-4.424677531220e+01
-5.708042623801e+01
-5.569238432139e+01
-6.923355975670e+01
-6.850980656332e+01
-8.133199952404e+01
-7.985048026002e+01

SCALARS node_materi_stress_size_dev_sd_sig float
LOOKUP_TABLE default
3.845009743475e+00
6.254508645976e+01
1.789826673080e+02
1.523426996248e+02
9.951007833820e+00
1.978496377236e+01
2.874092456266e+01
3.889619552187e+01
4.872380025857e+01
5.825373826520e+01
6.779907513061e+01
7.731527140967e+01
8.673149942701e+01
9.620837061683e+01
1.058466903443e+02
1.148610908026e+02
1.229550049689e+02
1.318900399979e+02
1.408683460985e+02
1.494394681077e+02
1.579675985992e+02
1.664326426241e+02
1.743743652550e+02
1.528736982040e+02
1.524619784576e+02
1.525945531466e+02
1.526327294085e+02
1.523492137418e+02
1.526741599404e+02
1.527736145659e+02
1.527982143125e+02
1.532276815908e+02
1.533758779830e+02
1.532246130382e+02
1.537280327421e+02
1.541259756618e+02
1.543634917124e+02
1.545477448500e+02
1.547469535370e+02
1.552068961835e+02
1.561081158600e+02
1.570917474341e+02
1.581083152926e+02
1.589796748980e+02
1.598529350244e+02
1.609476179441e+02
1.620634638709e+02
1.633565670834e+02
1.646597911720e+02
1.660179449919e+02
1.672345313322e+02
1.684067378756e+02
1.698205611437e+02
1.709119143311e+02
1.714896786914e+02
1.724907460928e+02
1.735270950980e+02
1.744099188741e+02
1.752033084856e+02
1.758943176790e+02
1.763905399843e+02
1.767641457780e+02
1.770783060317e+02
1.775935788603e+02
1.782717864009e+02
1.786372947664e+02
1.779079553556e+02
1.788786015764e+02
1.787175423038e+02
1.790192562665e+02
1.793769934864e+02
1.793968816595e+02
7.168537911818e+01
8.103765075176e+01
9.024814920756e+01
9.934874026459e+01
1.087130539186e+02
1.180761849633e+02
1.274986400234e+02
1.368892264384e+02
1.465382023975e+02
6.896346021068e+00
6.138541127770e+01
1.341250428054e+01
1.491645590883e+01
1.067923777944e+01
9.082502980098e+00
1.670912309671e+01
2.515935197497e+01
3.382938123550e+01
4.267613974391e+01
5.167943905395e+01
2.866820744102e+00
7.760071059797e+00
1.675987885324e+01
2.582390816505e+01
3.486574684314e+01
4.392847860347e+01
5.293148902773e+01
6.120117412117e+01
6.168527273009e+01
6.170470449226e+01
6.153430832822e+01
6.266210084149e+01
6.153270977041e+01
6.130767380031e+01
6.133098219338e+01
6.147735015513e+01
6.134165228908e+01
6.115574132987e+01
6.103004870053e+01
6.093504553883e+01
6.101112923267e+01
5.696420542353e+00
5.981979377172e+00
6.158439502446e+00
5.571873764777e+00
4.479959663700e+00
3.902595344840e+00
3.468979926260e+00
3.109513210121e+00
2.859461251387e+00
2.745777203137e+00
2.780070518060e+00
3.117513530898e+00
3.194943265092e+00
3.033795920008e+00
3.321102066290e+00
3.659273101257e+00
3.835293158196e+00
3.699949488427e+00
3.362214823191e+00
3.027913025439e+00
5.589256887155e+00
6.297341425439e+00
6.389981591780e+00
6.317584127201e+00
6.122240133248e+00
5.852829238697e+00
5.556572070932e+00
5.255139346738e+00
4.968820438139e+00
4.706312298968e+00
4.475167268765e+00
4.277749149839e+00
4.113419008121e+00
3.978924575861e+00
3.870626733177e+00
3.784844720484e+00
3.717863398274e+00
3.666122566427e+00
3.626236739912e+00
3.595087674750e+00
3.570047138288e+00
3.545646322632e+00
3.291341032599e+00
2.666886522829e+00
7.692629917539e+00
7.720770673780e+00
7.747903869779e+00
7.790208451920e+00
7.837058841944e+00
7.890264528164e+00
7.952146868584e+00
8.024620688915e+00
8.109492658031e+00
8.207962993541e+00
8.320736058802e+00
8.447678536926e+00
8.589562327534e+00
8.745497983761e+00
8.912681376970e+00
9.079875597408e+00
9.241919463100e+00
9.374285994831e+00
9.478909424248e+00
9.492084519284e+00
9.470052096805e+00
9.683526732128e+00
7.821443246290e+00
1.570544607061e+01
1.757565452361e+01
1.730461563210e+01
1.734440621454e+01
1.739404904749e+01
1.738157983904e+01
1.734967731358e+01
1.729077400284e+01
1.722684539312e+01
1.716274116459e+01
1.710007418713e+01
1.703691894501e+01
1.697697617735e+01
1.692239151266e+01
1.687288577839e+01
1.682672252992e+01
1.678222772138e+01
1.673928398229e+01
1.669841580554e+01
1.666815197675e+01
1.667224641159e+01
1.672753309542e+01
2.577301846455e+01
2.572185212383e+01
2.571149465444e+01
2.572500746509e+01
2.574561599837e+01
2.576743613134e+01
2.578682628686e+01
2.580015893972e+01
2.581136763847e+01
2.582481002331e+01
2.583653388824e+01
2.584004568062e+01
2.583045895713e+01
2.582398201236e+01
2.581399993813e+01
2.580402221995e+01
2.573753184265e+01
2.567509818631e+01
2.600249301119e+01
2.411325695933e+01
3.276273220536e+01
3.467600454024e+01
3.437868393590e+01
3.440116442934e+01
3.444659688967e+01
3.449138493243e+01
3.456600027888e+01
3.461818702128e+01
3.465496286113e+01
3.467762513092e+01
3.470534960167e+01
3.473618116445e+01
3.474716101862e+01
3.475095692744e+01
3.475528483945e+01
3.476174511044e+01
3.477892009393e+01
3.482106407511e+01
3.485649812984e+01
4.394712745965e+01
4.386682208869e+01
4.382585946164e+01
4.380968346668e+01
4.377306950373e+01
4.375029473097e+01
4.372363152664e+01
4.367521240261e+01
4.359714571985e+01
4.356073553037e+01
4.350651140022e+01
4.342160679260e+01
4.334365661317e+01
4.321623086566e+01
4.319703833176e+01
4.358213319918e+01
4.166493236264e+01
5.065371747733e+01
5.256017458378e+01
5.222752111464e+01
5.227399934790e+01
5.238941974177e+01
5.249795449699e+01
5.254394461633e+01
5.261991923444e+01
5.270216698985e+01
5.276283294754e+01
5.280706458560e+01
5.285064251510e+01
5.292023819883e+01
5.291893506443e+01
5.302926579027e+01
5.313463644797e+01
1.077758206621e+01
1.462183507029e+01
1.434171164389e+01
7.492633098104e+00
1.356238153765e+01
2.160757869495e+01
3.017991899237e+01
3.895463983365e+01
4.788741184585e+01
5.702828896615e+01
1.650468630071e+01
1.696821766340e+02
6.296797867129e+00
5.218639252950e+00
1.733748243157e+02
1.630780116865e+01
1.013754902166e+02
1.648713155070e+02
2.907030523191e+01
1.599472253442e+02
4.669719582649e+01
1.754022326144e+02
6.901200073889e+00
1.551204167999e+02
6.505411164813e+01
6.347311970547e+01
1.261018895257e+02
1.519526165904e+02
1.501965628058e+02
1.486079025677e+02
1.479462883156e+02
1.495530243281e+02
6.930401083758e+01
6.969848915840e+01
7.059721124444e+01
1.040519123005e+02
1.755221829451e+02
4.978146811465e+00
8.015156967508e+00
1.534085770432e+02
6.981527095055e+01
3.383245650967e+01
1.493261528751e+02
1.630610775082e+02
1.573809068906e+02
1.668401896494e+02
1.716933923378e+02
5.911061678607e+00
6.917083861491e+01
1.730843869517e+02
1.226235075910e+02
6.894341817180e+00
8.210911801900e+01
1.499415630346e+02
2.252809451051e+01
1.749368629922e+01
3.772127213875e+01
5.567869760408e+01
1.155304851141e+01
8.630955560329e+01
1.770899834817e+02
7.748096432648e+00
1.411585559182e+02
6.931920802815e+01
7.322110691748e+01
7.757228376819e+01
8.223162373904e+01
8.701149159404e+01
9.127689517912e+01
8.650184010206e+01
9.566991406496e+01
9.091110081111e+01
9.618697058240e+01
1.002180965253e+02
9.550275713420e+01
1.049158555876e+02
1.002972188783e+02
9.094348031446e+01
9.584673443070e+01
8.649734849797e+01
9.155051650853e+01
1.009520229554e+02
9.681093074303e+01
8.741978619254e+01
9.285646570039e+01
8.349781767335e+01
8.914368951392e+01
7.980449383311e+01
8.569060182713e+01
9.494345406693e+01
9.167773001048e+01
8.252974326957e+01
8.868619070210e+01
7.968696697703e+01
8.594793294755e+01
9.479269403797e+01
9.209587844567e+01
8.341480005972e+01
8.954481553660e+01
8.103580481580e+01
8.707107466823e+01
7.871070571566e+01
8.453215207170e+01
9.280594605643e+01
9.006128239389e+01
8.184397821410e+01
8.709359299286e+01
9.533566238252e+01
9.210687006827e+01
1.003823599454e+02
9.692635186453e+01
8.864239999990e+01
9.323372374641e+01
1.015684522409e+02
9.766702505630e+01
8.927138716352e+01
9.354320372380e+01
1.020014175260e+02
9.772611982553e+01
8.917435988049e+01
9.324949221569e+01
1.018876332567e+02
9.727914736998e+01
8.854076863903e+01
9.248538227065e+01
1.013092277890e+02
9.642027241561e+01
1.053050227662e+02
8.744891000598e+01
9.136090343846e+01
8.222261211181e+01
8.616776475152e+01
1.007941926174e+02
7.688898332879e+01
7.303103362840e+01
8.088073794102e+01
9.017623629228e+01
7.147704254956e+01
7.551883069992e+01
6.602422447767e+01
7.242431508376e+01
1.062394462017e+02
7.011416469266e+01
6.054806360829e+01
5.640939973552e+01
5.087501660722e+01
9.192267510864e+01
1.012526241918e+02
9.672434938104e+01
1.063437616913e+02
1.019945335248e+02
5.502825709996e+01
1.097469770315e+02
1.107477960594e+02
7.807850739898e+01
7.336700850558e+01
1.036327081699e+02
7.956610502298e+01
7.421254767572e+01
8.365690431686e+01
1.100820827476e+02
1.140966811846e+02
1.187720931325e+02
1.227841797733e+02
1.273689663731e+02
1.313685808593e+02
1.267376868221e+02
1.353041920917e+02
1.306403052033e+02
1.358685077794e+02
1.317998760912e+02
1.391771361643e+02
1.344934998757e+02
1.429937024964e+02
1.383012150894e+02
1.296977507797e+02
1.335032433621e+02
1.248424722022e+02
1.086950129348e+02
1.119950418128e+02
1.170480851464e+02
1.204099228862e+02
1.254354478521e+02
1.288613698792e+02
1.338258747208e+02
1.302726344773e+02
1.097637014783e+02
7.889559992896e+01
7.368211648975e+01
7.072037235002e+01
6.557345075704e+01
6.251664123990e+01
5.745818698851e+01
5.416918602753e+01
5.890797236720e+01
5.022612498215e+01
5.472882989122e+01
4.567414513072e+01
5.000510555715e+01
1.008195072681e+02
1.236821463005e+02
1.322277698539e+02
1.268713545740e+02
4.670825437591e+01
1.420732713071e+02
1.402330110082e+02
1.360602901272e+02
1.386313487103e+02
4.541864817990e+01
4.922753230014e+01
5.205751780179e+01
1.114868554132e+02
1.071353558040e+02
1.444666869308e+02
4.957509053365e+01
1.437570944564e+02
4.119446688349e+01
1.372800310950e+02
1.458138810067e+02
1.219958692365e+02
1.355652720345e+02
1.300439420145e+02
5.913027973556e+01
5.431925992539e+01
4.507174014297e+01
4.944592010426e+01
5.864058074623e+01
5.336138423869e+01
4.386239928511e+01
4.788335526792e+01
5.744315762724e+01
5.196723168132e+01
4.214942807737e+01
4.631783154474e+01
1.504989556812e+02
3.618049759652e+01
8.169136646774e+01
1.485564519327e+02
1.421226090319e+02
1.166850447008e+02
1.123524706088e+02
1.028361576008e+02
1.081082689629e+02
1.176574461312e+02
1.133913921862e+02
1.039027440798e+02
1.091395018477e+02
9.968971225523e+01
1.049202576547e+02
1.143955813759e+02
1.101840071065e+02
1.007660867883e+02
1.059917438412e+02
9.660787212878e+01
1.017477207203e+02
1.112308417301e+02
4.016682203050e+01
1.349517170781e+02
1.433336673848e+02
7.862986860904e+01
8.762524043950e+01
9.295324398960e+01
9.700874056440e+01
1.069137844033e+02
1.165125505542e+02
4.395185128369e+01
4.625289532921e+01
1.210968505061e+02
1.410674481992e+02
1.324534135971e+02
7.068395564058e+01
6.415559959393e+01
6.162409686069e+01
5.471667477756e+01
5.774022156803e+01
5.230437409005e+01
1.275619752466e+02
1.196994422010e+02
5.229776433767e+01
4.254823628144e+01
1.495786200545e+02
1.265910589796e+02
1.041964874524e+02
1.099888520993e+02
1.135014801488e+02
1.192122068871e+02
1.228606645676e+02
1.284638418006e+02
1.249345733275e+02
1.388913654083e+02
1.340979740330e+02
9.732185151730e+01
1.182106161352e+02
6.154515160757e+01
3.593590481338e+01
3.620121726541e+01
4.402179730723e+01
5.371110171856e+01
1.527522421402e+02
1.322406146588e+02
1.266397500841e+02
4.823564281793e+01
5.168837605519e+01
1.442070567719e+02
9.254804651651e+01
9.451255095290e+01
9.031301291533e+01
3.350505191000e+01
3.228309024344e+01
1.229782304304e+02
5.416496823153e+01
4.783268960233e+01
3.157962154152e+01
2.612691881932e+01
1.119704801386e+02
1.215057744415e+02
1.021155300017e+02
1.061377832915e+02
1.485952957918e+02
4.063044600808e+01
1.260469703637e+02
1.311608922356e+02
1.227688281811e+02
9.161460064721e+01
3.829475111101e+01
3.562639650199e+01
6.680774581401e+01
5.050006437509e+01
4.817865274488e+01
1.568132960200e+02
1.272441519315e+02
1.306168395445e+02
1.215475465124e+02
1.396748015520e+02
3.055895337433e+01
1.569116869653e+02
1.448891676981e+02
1.358003655808e+02
1.306225411480e+02
5.577891734422e+01
4.908114227080e+01
4.100956238465e+01
4.186784292283e+01
8.177701885851e+01
5.735983075097e+01
7.723155432632e+01
7.254992600160e+01
6.812064571541e+01
6.105945238598e+01
5.545536928387e+01
6.811839950590e+01
1.067091369269e+02
9.817113886407e+01
1.210074562381e+02
1.146770413226e+02
1.239129360960e+02
1.293121641971e+02
9.141512151976e+01
8.718937477799e+01
3.690131396456e+01
3.271777527384e+01
1.092836647008e+02
1.525329410959e+02
1.262541849711e+02
1.307514799099e+02
1.255284616025e+02
1.524893863979e+02
7.562260982459e+01
1.135546886562e+02
3.078237685384e+01
1.036538412587e+02
2.713271819761e+01
1.103923797884e+02
1.533367100152e+02
1.578904381508e+02
1.475924882214e+02
6.878657618951e+01
1.095314533305e+02
1.066580090001e+02
6.362053875005e+01
5.920300726946e+01
6.379401484887e+01
5.485013151361e+01
7.080468445987e+01
6.551720403917e+01
1.423311652712e+02
1.431384162984e+02
1.399994274301e+02
1.349703458048e+02
1.527246339223e+02
1.492201674482e+02
5.763293753635e+01
4.626301084115e+01
1.325395478750e+02
6.810577416484e+01
1.606001645184e+02
1.564434467911e+02
2.029301946521e+01
2.468437962471e+01
1.312427362748e+02
3.346565217416e+01
3.389559275013e+01
3.313619657119e+01
1.702170148870e+02
6.961291962530e+01
1.616268476715e+02
6.479207179708e+01
1.358012071349e+02
1.153475415137e+02
6.821387835977e+01
1.442577488584e+02
1.261347028395e+02
1.367245102026e+02
8.514869476154e+01
8.077481068619e+01
8.910001017485e+01
3.645418543711e+01
2.591753017751e+01
1.249878421128e+02
6.889100332950e+01
7.406472335217e+01
4.460281116480e+01
5.431755955173e+01
1.072230020485e+02
1.033027118190e+02
1.157243615442e+02
1.199418447000e+02
1.078147633636e+02
1.272284624437e+02
1.188007022414e+02
1.144026343546e+02
1.333729921528e+02
1.398338815931e+02
7.583655652314e+01
7.180942943169e+01
7.464179574825e+01
1.369064386835e+02
1.660232961407e+02
1.623694466088e+02
2.292502578362e+01
2.841434505850e+01
3.008917340322e+01
2.717232297048e+01
1.350928499446e+02
1.301698744181e+02
1.411405689437e+02
5.146867388966e+01
1.273053237068e+02
1.602717198461e+02
1.560576319923e+02
1.655496764584e+02
1.421396700462e+02
1.508081964474e+02
1.486183146428e+02
1.584993391632e+01
1.333580437566e+02
8.165601769643e+01
1.112644514267e+01
7.753648826261e+01
8.296555383820e+01
7.290692762444e+01
4.198920230262e+01
7.841087393359e+01
8.390423867845e+01
1.680393156446e+01
1.421096141678e+02
1.791871810626e+01
2.189313061561e+01
1.644946603937e+02
1.602007188768e+02
1.680027759307e+02
1.636244906345e+02
1.557719705589e+02
1.596320734981e+02
7.634818798910e+01
1.684993101473e+02
1.635102855946e+02
1.725203082776e+02
5.059467625865e+01
4.300170906088e+01
3.545224249953e+01
2.546460134636e+01
1.458900446155e+02
1.388859133377e+02
1.489132559638e+02
1.403103249505e+02
7.827283131882e+01
7.783384552011e+01
8.621997298157e+01
8.513749238801e+01
9.361548778213e+01
9.230897364677e+01
1.009805189803e+02
1.524095233402e+02
2.543133126141e+01
5.945521241680e+01
1.575977031168e+02
1.534843920406e+02
5.038812805732e+01
4.164867134487e+01
1.659641389419e+02
6.393505842835e+01
1.479000869033e+02
5.775147476189e+00
1.407058301859e+01
6.585847043575e+01
5.955932715176e+01
4.500889979083e+01
3.889613205247e+01
1.357320528106e+02
2.434490629568e+01
3.218061781013e+01
1.019676837396e+02
2.402166598839e+01
1.448226054198e+02
7.034252958690e+01
7.043675751775e+01
4.002829202730e+01
5.055648863959e+01
8.624901473141e+01
7.752619426408e+01
7.283300428632e+01
7.629134281225e+01
4.230559193900e+01
3.217759810853e+01
8.219270048371e+01
1.203883097839e+02
1.249779606056e+02
1.344916880879e+02
1.296487889340e+02
1.199263471180e+02
1.246173443618e+02
1.344286160439e+02
1.297127343504e+02
1.412986120745e+02
1.346844212533e+02
1.245318487489e+02
1.293507078832e+02
1.387404551739e+02
1.194826514599e+02
1.610659927797e+02
7.464124650861e+01
2.121588320115e+01
1.915817074791e+01
7.414885847364e+01
1.511253942679e+02
1.502678821884e+02
6.006646158675e+01
1.560409552508e+02
7.711880703720e+01
4.556796413494e+01
1.586136489427e+02
1.152627649793e+02
1.101331151591e+02
1.056156310068e+02
1.500720409742e+02
9.338606602899e+01
1.641723730524e+02
1.151666254373e+02
1.096316416624e+02
1.011602892701e+02
1.195669720459e+02
1.686522809979e+02
1.625565395010e+02
1.634966133658e+02
1.557644192913e+02
1.706546401678e+02
1.535105004311e+02
1.546786363823e+02
6.272801822713e+01
6.772813466037e+01
7.651638879624e+01
7.231585037458e+01
6.347825167320e+01
6.796602161110e+01
7.651705366199e+01
6.348416364231e+01
1.295342016112e+02
1.724822789789e+02
1.232738945601e+02
1.190293950152e+02
1.104830866392e+02
9.419702984516e+01
9.933929987669e+01
1.083352753262e+02
8.896820774087e+01
1.157824954130e+02
1.730161984019e+02
1.182361092724e+02
9.533807040017e+01
6.927565359616e+01
7.723001299761e+01
7.731679191778e+01
8.605531243254e+01
7.811186238747e+01
1.111539239410e+02
1.150641601104e+02
1.101183780439e+02
1.189276624396e+02
1.138032356331e+02
1.055279901601e+02
1.225887034898e+02
1.169394532128e+02
6.932228347676e+01
5.776242742958e+00
1.480556745852e+01
1.465611744906e+01
2.339268010268e+01
2.410249929409e+01
3.319790791370e+01
3.194303550117e+01
1.471368501907e+01
5.982481366278e+00
1.486730357959e+01
6.114949362613e+00
1.480388944320e+01
2.480229590091e+01
3.856086881885e+01
1.746569731627e+02
9.143433391585e+01
8.698099600553e+01
7.784366777305e+01
8.281054377612e+01
9.519956206537e+01
7.279959612270e+01
6.939791472557e+01
8.123554482703e+00
1.651263396179e+01
1.572405507428e+01
2.486165080290e+01
2.453357289447e+01
1.651813475507e+01
1.645704794794e+01
7.787531911648e+00
1.628757447925e+01
2.483456614219e+01
7.294008988379e+00
1.134733108310e+02
1.186491672602e+02
1.736292450342e+02
7.054495842250e+01
6.698754727219e+00
1.470113092479e+02
1.486747480162e+02
1.487748502088e+02
1.619760988158e+02
1.660479535877e+02
1.472783278912e+02
6.192930358712e+01
1.391140062402e+02
1.302971042441e+02
4.075738691725e+01
6.004275505452e+01
1.363021381632e+02
1.258735438058e+02
1.541932998166e+02
1.286658718266e+02
1.467670796438e+02
1.640482817462e+02
3.870869023410e+01
9.549403565189e+01
9.236687081235e+01
1.154618876549e+02
6.469118984722e+01
1.013978483739e+02
4.122997118734e+01
1.502075430491e+02
7.293205854826e+01
1.060081357640e+02
8.491656501716e+01
6.749274070946e+01
5.609105359440e+01
7.709600605294e+01
1.003840300588e+02
1.398469944041e+02
1.207632102718e+02
8.198516942248e+00
1.442624258340e+02
1.180657292682e+02
9.866922200612e+01
1.373112144509e+02
3.828199360789e+01
1.186659427258e+02
1.355779476666e+02
8.816061996851e+01
3.147045660964e+01
8.607003172745e+01
1.608513062538e+02
1.158938429668e+02
5.919577229302e+01
1.052309123214e+02
7.640920001319e+01
6.022545619879e+01
1.343833038604e+02
9.806233348835e+01
1.469752093658e+02
1.219054298108e+02
6.343533729599e+01
1.520869297579e+02
9.834337694167e+01
1.282622894657e+02
1.172236157642e+02
8.386526658252e+01
1.219098761036e+02
1.062467169772e+02
1.407761823510e+02
6.878991782190e+01
9.846456140711e+01
1.052488010798e+02
9.768874092598e+01
1.315259771614e+02
1.482204009449e+02
4.068320014994e+01
5.937973400327e+01
9.764358311569e+01
1.375626772138e+02
1.378049293907e+02
6.710943512883e+01
1.475743102792e+02
1.313905835146e+02
1.043653121706e+02
4.454949247645e+01
3.211602995305e+01
6.733252714049e+01
9.543430690080e+01
1.132460393868e+02
1.409345526023e+02
1.513301896176e+02
1.402083496235e+02
1.449876441777e+01
6.403922164301e+01
1.550851928434e+02
1.098986676292e+02
1.456050479744e+02
1.083975975930e+02
1.513711717341e+02
4.607285849011e+01
1.589813472021e+02
1.396499262952e+02
6.214874563558e+01
6.986609776155e+01
1.682764347395e+02
1.480588548820e+02
1.067082672841e+02
1.060480121129e+02
5.109258214048e+01
1.171628289035e+02
1.022346693618e+02
1.499455099480e+02
1.514439704354e+02
1.005166490273e+02
1.122304321068e+02
1.211651579169e+02
2.450213057936e+01
5.500235199499e+01
1.161099401117e+02
7.199525789920e+01
1.104120587680e+02
1.560648975642e+02
1.199847660892e+02
8.035303073430e+01
1.238250509708e+02
4.212288778318e+01
1.050966828685e+02
1.276072363334e+02
1.116610304655e+02
2.558874105069e+01
1.125526535242e+02
1.574542773945e+02
7.840076843438e+01
1.147121722345e+02
1.148147929562e+02
3.327518591658e+01
1.231857203008e+02
1.211536860487e+02
1.183492596615e+02
1.039021261194e+02
1.317025243728e+02
3.751437257644e+01
5.798359139500e+01
4.839088691119e+01
8.489862182970e+01
1.252988623486e+02
3.274978294115e+01
1.145780292855e+02
3.453414192987e+01
8.086089122050e+01
1.332503971408e+02
9.529337151071e+01
8.507090477672e+01
5.408420382998e+01
8.058098798529e+01
1.124599974975e+02
8.459856006910e+01
7.975527635479e+01
1.398119767962e+02
8.360607056997e+01
1.487993463984e+02
1.752445731066e+02
7.693210497156e+01
2.441984398740e+01
5.539627573871e+00
3.055111007368e+01
6.930081691896e+01
1.147549733279e+02
7.724267930545e+01
6.375196955562e+01
1.445471294198e+02
1.615922837944e+02
1.088660214454e+02
1.500178467674e+02
1.242671057357e+02
1.313664897750e+02
6.899032819392e+01
1.493339645377e+01
1.359988810387e+02
1.677132354976e+01
2.504025999288e+01
2.525720338487e+01
6.684249981248e+01
2.321310410833e+01
1.611142591450e+01
1.609683672171e+02
7.683889290784e+01
1.362901681505e+02
1.745532083156e+01
1.408010102567e+02
1.553813299219e+02
1.750601267541e+02
1.454246249168e+02
2.161805884308e+01
8.427190676565e+01
1.488731659385e+02
1.162365906898e+02
1.758893109308e+02
7.550439862279e+01
1.410692915020e+02
3.568614929371e+01
1.411746664826e+02
1.244778292757e+02
8.840536041221e+01
8.381078611844e+01
1.698339704468e+02
1.431166311913e+02
1.822492384956e+01
1.082419191798e+02
8.298821097715e+01
1.292870312874e+01
1.675976290405e+02
1.338152536140e+02
1.692943896855e+02
2.446880508787e+01
1.439011141858e+01
1.678908644797e+02
1.473340855459e+02
4.027147610050e+01
1.506914181803e+02
1.192907517468e+01
6.781376816996e+01
1.528073320907e+01
1.759842476638e+02
1.415896454780e+02
9.106248205058e+01
6.951211853458e+01
6.059425939825e+01
1.454807749778e+02
2.179569939680e+01
1.424867417698e+02
1.669720364333e+02
1.434789567457e+02
1.683771557969e+02
1.192868035016e+01
1.564282698278e+02
1.583237725997e+02
6.903356829178e+01
1.427199608879e+02
7.437930570438e+01
3.209621949253e+01
1.497926464941e+02
6.599806607673e+00
6.869012369236e+01
1.770212258834e+02
3.069067539152e+01
8.364338544813e+01
1.468726148310e+02
1.107832361148e+02
1.258932586084e+02
2.986946882995e+01
4.703008170460e+00
1.001702941360e+02
1.583642370086e+02
1.435821804634e+02
9.356480778027e+01
2.470760456154e+01
1.414309181181e+02
9.797402521561e+01
1.435515444229e+02
1.565583240985e+02
8.168992512502e+00
1.186265769753e+02
1.412827044095e+01
1.701307472288e+02
1.020126819779e+02
4.057967054090e+00
3.305347589025e+00
1.201896298514e+01
1.244750660494e+01
2.026454089349e+01
2.100649364095e+01
2.885223643873e+01
3.057502459457e+01
3.765283185657e+01
3.913833782624e+01
4.656149220497e+01
4.872330335703e+01
5.567244133658e+01
5.736026542479e+01

SCALARS node_materi_strain_total_average_a_ept float
LOOKUP_TABLE default
4.809964984328e-06
3.448628351076e-04
4.143483998929e-04
5.519828348171e-04
1.563621197340e-05
3.729633256458e-05
5.824464530551e-05
8.141147903255e-05
1.039173592396e-04
1.262451424875e-04
1.484008582409e-04
1.704359806692e-04
1.923973547169e-04
2.143698241670e-04
2.366714908837e-04
2.584824248922e-04
2.781617819889e-04
2.994440068863e-04
3.211597218889e-04
3.420148615294e-04
3.628317216668e-04
3.835922094986e-04
4.036526944213e-04
5.532306128115e-04
5.519604588522e-04
5.521654220762e-04
5.519351845811e-04
5.509233632045e-04
5.513871634329e-04
5.511059230175e-04
5.500989023688e-04
5.501690912995e-04
5.493364753792e-04
5.475285843964e-04
5.470189544483e-04
5.458166495761e-04
5.437773582242e-04
5.414423718446e-04
5.384369538599e-04
5.355065787733e-04
5.328976895823e-04
5.297884653013e-04
5.263540776374e-04
5.219240178308e-04
5.167856415531e-04
5.116516360179e-04
5.060073828164e-04
5.002643490052e-04
4.945254900859e-04
4.884854701426e-04
4.824477220329e-04
4.759688702867e-04
4.706614559210e-04
4.645678987987e-04
4.578561650542e-04
4.521904637505e-04
4.476016001135e-04
4.431597060631e-04
4.386632789032e-04
4.353788638931e-04
4.312833595022e-04
4.282487050204e-04
4.248247838613e-04
4.227432898399e-04
4.220465878328e-04
4.210773744621e-04
4.164374002695e-04
4.177957323466e-04
4.155792729197e-04
4.152907570077e-04
4.157874994703e-04
4.153770429399e-04
3.667446589949e-04
3.881668743732e-04
4.095877093990e-04
4.306296601352e-04
4.521392059388e-04
4.738874801785e-04
4.953064350384e-04
5.167717055821e-04
5.385521481719e-04
-6.894373865757e-06
3.370570358803e-04
3.367387923697e-05
1.003796565647e-04
1.777768756945e-04
2.110714691480e-04
2.302037578425e-04
2.502166975312e-04
2.708961045963e-04
2.922004345645e-04
3.140078429439e-04
2.013836715444e-04
2.157847374063e-04
2.375055033300e-04
2.589920970688e-04
2.803637618995e-04
3.017021420857e-04
3.229460126858e-04
3.421847419221e-04
3.435157718203e-04
3.434139807497e-04
3.430006018915e-04
3.457422430197e-04
3.429292175346e-04
3.424201624734e-04
3.422355376399e-04
3.420668177833e-04
3.413070388332e-04
3.405624656883e-04
3.395886298110e-04
3.386547618774e-04
3.377927350668e-04
-1.028618738547e-05
-1.348389453833e-05
-1.405732102257e-05
-1.256468287446e-05
-1.000755258240e-05
-8.074369855813e-06
-6.294154581199e-06
-4.626280172319e-06
-3.044295480950e-06
-1.581018284415e-06
5.411114697059e-08
9.211223364182e-07
2.048797019717e-06
3.046483512434e-06
3.874029837160e-06
4.392858202825e-06
4.814336696869e-06
5.037882628709e-06
4.749957151643e-06
2.040559084598e-04
2.131096091285e-04
2.164870651801e-04
2.169104828001e-04
2.171869330013e-04
2.164976952234e-04
2.157574280177e-04
2.147984401503e-04
2.138378724244e-04
2.128649133444e-04
2.119419263174e-04
2.110749041686e-04
2.102822151440e-04
2.095665306466e-04
2.089278040318e-04
2.083612871669e-04
2.078635668118e-04
2.074332787332e-04
2.070724344694e-04
2.067896796166e-04
2.066049479119e-04
2.065492452580e-04
2.065725287099e-04
2.053777856573e-04
2.017446713460e-04
2.160178185723e-04
2.166357095131e-04
2.168180840094e-04
2.169224620521e-04
2.170586274279e-04
2.172451265546e-04
2.174819118436e-04
2.177670260325e-04
2.180987724167e-04
2.184760267004e-04
2.188979673496e-04
2.193635127304e-04
2.198705064335e-04
2.204079855854e-04
2.209612000977e-04
2.214970900348e-04
2.219929285202e-04
2.223526576315e-04
2.225602880028e-04
2.223117285709e-04
2.218171410306e-04
2.206267241152e-04
2.160057261424e-04
2.328604219873e-04
2.373064646022e-04
2.382200402631e-04
2.389554533726e-04
2.395575314181e-04
2.397526205891e-04
2.398386405473e-04
2.397749228711e-04
2.396535631765e-04
2.394834738291e-04
2.392975454700e-04
2.391043018270e-04
2.389139286495e-04
2.387324310520e-04
2.385646438841e-04
2.384150493207e-04
2.382862092537e-04
2.381783625468e-04
2.380838236717e-04
2.379702976661e-04
2.377657387006e-04
2.375823549122e-04
2.590268606973e-04
2.591216116912e-04
2.592046668121e-04
2.592609608406e-04
2.593056782775e-04
2.593450406559e-04
2.593792773449e-04
2.594051505938e-04
2.594227581073e-04
2.594213873752e-04
2.593940433914e-04
2.593281033326e-04
2.592019174158e-04
2.590161743858e-04
2.587011633190e-04
2.582779923399e-04
2.575400776339e-04
2.567444764870e-04
2.560826444220e-04
2.515514881079e-04
2.714830479055e-04
2.760010985227e-04
2.765266085648e-04
2.773268026099e-04
2.781535426200e-04
2.786903321763e-04
2.791723807240e-04
2.795267906479e-04
2.797915895529e-04
2.799968469159e-04
2.801561238526e-04
2.802702567785e-04
2.803555986362e-04
2.804050355711e-04
2.804364615089e-04
2.804409274842e-04
2.804288284590e-04
2.803965043707e-04
2.803744672934e-04
3.017232124957e-04
3.017201583241e-04
3.016911793660e-04
3.016457377370e-04
3.015772031304e-04
3.014615808870e-04
3.013190006787e-04
3.010952691866e-04
3.008079455755e-04
3.004737865723e-04
3.000613324895e-04
2.995376293883e-04
2.988796063833e-04
2.979860474626e-04
2.971944959758e-04
2.968855507289e-04
2.923862371555e-04
3.137650177286e-04
3.181005056846e-04
3.184186423351e-04
3.193736344314e-04
3.201686480128e-04
3.208257227546e-04
3.212907931413e-04
3.217330271013e-04
3.222116863181e-04
3.224104043940e-04
3.226360838071e-04
3.227821376166e-04
3.229090053520e-04
3.229487295791e-04
3.231151545412e-04
3.231267093620e-04
7.592024575009e-06
6.576159907384e-05
1.365929855073e-04
1.999947042529e-04
2.218174620746e-04
2.421794174489e-04
2.623219323547e-04
2.834822029833e-04
3.050611141305e-04
3.272651080757e-04
9.355628348583e-05
4.421763059260e-04
6.527008165181e-06
1.950864334028e-07
4.224881444985e-04
2.051186596779e-04
2.264257391925e-04
4.631654067215e-04
2.522477898134e-04
4.878066446952e-04
2.975459750130e-04
4.144917415453e-04
9.835306956387e-06
5.093412418588e-04
3.434316885093e-04
1.384181345904e-04
2.854922274336e-04
5.204739944345e-04
5.327166377196e-04
5.418378616299e-04
5.383481079330e-04
5.378455613676e-04
3.567705311029e-04
3.608712702423e-04
3.638944513906e-04
4.415763123230e-04
4.091364685625e-04
1.916208247799e-06
1.265313310841e-05
3.517262884345e-04
3.621730616950e-04
6.967148694942e-05
5.240573630271e-04
4.771914114593e-04
4.992606453370e-04
4.518455033270e-04
4.335681705505e-04
3.590840772394e-06
3.585001423288e-04
4.137548601909e-04
4.839514680547e-04
9.084434240877e-06
1.815833580258e-04
5.454692417905e-04
2.309773682145e-04
1.587198618897e-04
2.749188818352e-04
3.201392589279e-04
3.116792159521e-05
4.006631145763e-04
4.109362869623e-04
1.243712786836e-05
5.265278951234e-04
3.541312035374e-04
3.610319288167e-04
3.725052489094e-04
3.800214476291e-04
3.925140748827e-04
3.993179715765e-04
3.866149463407e-04
4.059778179054e-04
3.928411901996e-04
4.122962089260e-04
4.123322563935e-04
3.988104399644e-04
4.184063265448e-04
4.045359578207e-04
3.852867281217e-04
3.906461339033e-04
3.716825732149e-04
3.766651992317e-04
3.957952156458e-04
3.814352768398e-04
3.625295289048e-04
3.669185882008e-04
3.482328529946e-04
3.522294285365e-04
3.336367781326e-04
3.372735086818e-04
3.561539113090e-04
3.408601486573e-04
3.220242950872e-04
3.252838585807e-04
3.063817463032e-04
3.093015183213e-04
3.286410880483e-04
3.124805458319e-04
2.927688323463e-04
2.959655032908e-04
2.757598289897e-04
2.791463731304e-04
2.583454418824e-04
2.619000564598e-04
2.829121784553e-04
2.659010782202e-04
2.443123321682e-04
2.486663340422e-04
2.703920763881e-04
2.535134291673e-04
2.752789040658e-04
2.587736542299e-04
2.367649122149e-04
2.424188456902e-04
2.643414819536e-04
2.483101398025e-04
2.262203962047e-04
2.325596800817e-04
2.545234549676e-04
2.391451051992e-04
2.170646133421e-04
2.240396922189e-04
2.460652556850e-04
2.311905817765e-04
2.091286466491e-04
2.165703358283e-04
2.386043026071e-04
2.241768384350e-04
2.461542684143e-04
2.019861322266e-04
2.099091922115e-04
1.875371896813e-04
1.958558354692e-04
3.321935105085e-04
1.734055092098e-04
1.650927928931e-04
1.820493344158e-04
2.043819105527e-04
1.595101248514e-04
1.684559754610e-04
1.458769394044e-04
2.550224814429e-04
4.007709385125e-04
1.550773579258e-04
1.324965127399e-04
1.230926763010e-04
1.097958010242e-04
4.051285726019e-04
4.253753577321e-04
4.173441314909e-04
4.383480940406e-04
4.304120623708e-04
1.193288920066e-04
4.324203371743e-04
4.460111973814e-04
3.441309452797e-04
3.035668128872e-04
2.918415931152e-04
1.774428286187e-04
1.643011872896e-04
1.864635851243e-04
2.604930173946e-04
2.678990377766e-04
2.821374410715e-04
2.893697761541e-04
3.034934981928e-04
3.105714019179e-04
2.967321347895e-04
3.177823332622e-04
3.042197811563e-04
3.245631213049e-04
3.177489944195e-04
3.251218477314e-04
3.118411636212e-04
3.326307576664e-04
3.196003941179e-04
2.986441037640e-04
3.066354771898e-04
2.856324460431e-04
2.967475558136e-04
3.130713870248e-04
3.179443083786e-04
3.340606019047e-04
3.389028779948e-04
3.548319979779e-04
3.595781033765e-04
3.439394635623e-04
4.241146892973e-04
2.265662816241e-04
2.223020179768e-04
2.039425614540e-04
1.997557731348e-04
1.806272976862e-04
1.765092827682e-04
1.563478388649e-04
1.615185009011e-04
1.363016793813e-04
1.426886793750e-04
1.167395484421e-04
1.242704333384e-04
3.600177191151e-04
3.501974618763e-04
3.708520933193e-04
3.662163549888e-04
1.001337485253e-04
3.275170035840e-04
3.387065978027e-04
3.320649727085e-04
3.646073985952e-04
9.692459123160e-05
1.523026440077e-04
1.734425678652e-04
4.513222353833e-04
4.431729224855e-04
3.529898327811e-04
1.064880031107e-04
3.385498272106e-04
1.099011204344e-04
3.147791751188e-04
3.355376111144e-04
2.830852310283e-04
3.869004439160e-04
3.821332732995e-04
1.496094682328e-04
1.320343676727e-04
1.070394153049e-04
1.156010939667e-04
1.400744381299e-04
1.236688667737e-04
9.903744507436e-05
1.077623955503e-04
1.321817071164e-04
1.167297943299e-04
9.223982327120e-05
1.016521493303e-04
3.480967712803e-04
8.979942684312e-05
3.664637444895e-04
3.593241863856e-04
3.798305928045e-04
4.643294366733e-04
4.559562735219e-04
4.347453214920e-04
4.474059749037e-04
4.687707771949e-04
4.600391376388e-04
4.386781740331e-04
4.511577362545e-04
4.298088262417e-04
4.421540572701e-04
4.636331205941e-04
4.545118776981e-04
4.330385450904e-04
4.452796603574e-04
4.237832017049e-04
4.358820996301e-04
4.575328632715e-04
8.479529808372e-05
3.491606771710e-04
3.699331325191e-04
1.740578182500e-04
1.953668697950e-04
2.084295742121e-04
2.175411040933e-04
4.479033354586e-04
4.697134945375e-04
1.495953101945e-04
1.717847789788e-04
4.725024295698e-04
3.231349291405e-04
3.022300055040e-04
2.878087754205e-04
2.855143362951e-04
2.694984930051e-04
2.676607807087e-04
2.832821696922e-04
2.511268484475e-04
3.108641380201e-04
4.760976453116e-04
1.136870981936e-04
9.051771059501e-05
3.437900542834e-04
3.283008284676e-04
3.754103689289e-04
3.795015152586e-04
3.950400308359e-04
3.992855988791e-04
4.150147985046e-04
4.192840543914e-04
4.035074042939e-04
4.029636462144e-04
4.236031912383e-04
4.261045809222e-04
3.454518880793e-04
1.408219245204e-04
7.480661900967e-05
7.663756733614e-05
9.361168555157e-05
1.160177819476e-04
3.734911493357e-04
4.352476165460e-04
4.305641956627e-04
2.663623992825e-04
2.812001708548e-04
4.073847649499e-04
4.097698416052e-04
4.175167766855e-04
4.085673735055e-04
6.962845360170e-05
6.786120774455e-05
4.815545038589e-04
1.939928634955e-04
1.931761138022e-04
8.183392112614e-05
6.136586241580e-05
4.597970489638e-04
4.814930339736e-04
2.303225223986e-04
2.391449739960e-04
3.675254853871e-04
8.692177811387e-05
4.915089275658e-04
3.339111567195e-04
3.127986982264e-04
2.045226686091e-04
1.485856551694e-04
1.244604848067e-04
1.561768865264e-04
1.110418577124e-04
1.031652424723e-04
3.879289287505e-04
4.902241482288e-04
4.077912240800e-04
3.876227029126e-04
4.280863080334e-04
6.269535454838e-05
3.798720403571e-04
3.316461555123e-04
4.502683390039e-04
4.459863271796e-04
2.137856109909e-04
2.136963139631e-04
1.944502048849e-04
2.151505418553e-04
3.737917035587e-04
2.330745914704e-04
3.532127689168e-04
3.481345696979e-04
3.352965504652e-04
2.979767130278e-04
2.952053515445e-04
2.185911607546e-04
3.083623227175e-04
2.216026957377e-04
2.775637372397e-04
2.749877548243e-04
4.851343169485e-04
4.977780830620e-04
4.116422276145e-04
4.023663239162e-04
7.704210914688e-05
6.710581601463e-05
2.538637084296e-04
3.656411354743e-04
4.855164045752e-04
4.937446743860e-04
4.804032045394e-04
3.820492271207e-04
2.088440712620e-04
3.018888514310e-04
7.075566953321e-05
3.481129142056e-04
5.412188505717e-05
4.152666438523e-04
3.522949309304e-04
3.641610822586e-04
4.230564538410e-04
3.494209527407e-04
3.519949527192e-04
3.360657703583e-04
3.303861298084e-04
3.180761941845e-04
3.223529913695e-04
3.053757636620e-04
1.642099048521e-04
1.492106338732e-04
4.571606577968e-04
4.435240154002e-04
4.660333770080e-04
4.620097750551e-04
4.274896497910e-04
4.116409396413e-04
1.248116771344e-04
2.789508741391e-04
5.031960356800e-04
3.427012037033e-04
3.853889934554e-04
3.724117518319e-04
4.213712524951e-05
5.190166675815e-05
5.035225690036e-04
1.973732686252e-04
2.169344112614e-04
1.746307613697e-04
3.929594323349e-04
3.618782182183e-04
3.727737481689e-04
3.123124545881e-04
5.137235230871e-04
3.563143330575e-04
2.710120941867e-04
3.614116871687e-04
4.921155134847e-04
5.158854414949e-04
3.964914707138e-04
3.867563093537e-04
4.046636524442e-04
1.039982817451e-04
7.291591897774e-05
4.884457866329e-04
1.513953133096e-04
1.629108125760e-04
9.612481649336e-05
1.196166666976e-04
2.432915918042e-04
2.348579988083e-04
4.205391744662e-04
4.353005389818e-04
3.906207075332e-04
3.187860599323e-04
2.975041684278e-04
2.915689223455e-04
5.063029010571e-04
5.212775837880e-04
1.793877782721e-04
1.718184351203e-04
1.719611818354e-04
5.118631475888e-04
3.843188611741e-04
3.757289084630e-04
4.404742900283e-05
5.688992330340e-05
1.231299266347e-04
9.714326588875e-05
5.012886157962e-04
4.882157102386e-04
5.164612603391e-04
1.105622975184e-04
3.924250376526e-04
4.016544652975e-04
3.964060936175e-04
4.101370183825e-04
4.183095521311e-04
4.376651819738e-04
4.481380454429e-04
3.161074697963e-05
5.086256316043e-04
3.893252492809e-04
1.705690587424e-05
3.802241121776e-04
3.927311175038e-04
3.695279878452e-04
8.882361322172e-05
3.806001906911e-04
3.921903907658e-04
2.978710179482e-05
5.246598181781e-04
3.242703179639e-05
4.194537598389e-05
3.926969568232e-04
3.791679649756e-04
3.985206114531e-04
3.851239845048e-04
3.658544632091e-04
3.735497336973e-04
3.767588160357e-04
3.958405280330e-04
3.815132075835e-04
4.040066500992e-04
3.016463902209e-04
2.332107776629e-04
2.342863653041e-04
2.203742124092e-04
4.856194752404e-04
4.762497899155e-04
3.410003920346e-04
3.200128555212e-04
3.817691749664e-04
3.809150443438e-04
4.002707719446e-04
3.978789815092e-04
4.173604866325e-04
4.145956672129e-04
4.345339960286e-04
4.651854095448e-04
1.793922997168e-04
3.252678440778e-04
4.311993204984e-04
4.143939329978e-04
2.921712906206e-04
2.767214188192e-04
4.022545425819e-04
2.342069783914e-04
5.359896145694e-04
5.720272908504e-06
3.475515819304e-05
2.526785595793e-04
3.089576265476e-04
2.501652507854e-04
2.505219739537e-04
3.401494962629e-04
4.768385296804e-05
1.494620927774e-04
4.367579183862e-04
1.240325659198e-04
3.307680092206e-04
2.370181113329e-04
3.155097719863e-04
1.722178312732e-04
2.333643180515e-04
3.796555598395e-04
3.676542606437e-04
3.552443905777e-04
2.404518181259e-04
2.654907333599e-04
2.494198164343e-04
3.579729135864e-04
4.669830845075e-04
4.744245972014e-04
4.949633982356e-04
4.814793956857e-04
4.606473049484e-04
4.675398538527e-04
4.886571270887e-04
4.747724198674e-04
4.995013274588e-04
4.808857317335e-04
4.595392979072e-04
4.650801036673e-04
4.845142780082e-04
4.443646920041e-04
4.464723635501e-04
2.728118054947e-04
5.121169742965e-05
5.705635467226e-05
3.300235790384e-04
5.232720959293e-04
5.297619766713e-04
1.963314993495e-04
5.041236898039e-04
3.609498357966e-04
1.309740954127e-04
4.936503065703e-04
4.534564422850e-04
4.397043169038e-04
4.326433796374e-04
5.350904054789e-04
4.134453447766e-04
4.711740461511e-04
3.293619163855e-04
3.246161033140e-04
3.037847302086e-04
4.531422920163e-04
4.469939122280e-04
4.278799858210e-04
4.233016977199e-04
4.071998434337e-04
4.375479593664e-04
5.184815138917e-04
5.150574710266e-04
1.480696943595e-04
1.643521067072e-04
1.877698366897e-04
1.808689222161e-04
1.569072999135e-04
1.740485745360e-04
1.975067884793e-04
1.674821955512e-04
4.559051100778e-04
4.299438358862e-04
2.965059770777e-04
2.894568669058e-04
2.678920143321e-04
2.129933332622e-04
2.264709201460e-04
2.482359457996e-04
1.996484233614e-04
3.835316189397e-04
4.261971987245e-04
3.072313743586e-04
2.181120757573e-04
3.577313484421e-04
3.750966624154e-04
3.737605944462e-04
3.941090828235e-04
3.782725610481e-04
2.518059705608e-04
2.604156103290e-04
2.480880358938e-04
2.691122942149e-04
2.565509650627e-04
2.369761067060e-04
2.775232554628e-04
2.637131931603e-04
3.594822805043e-04
2.570483800849e-06
2.483393020485e-05
2.435536607483e-05
4.621783762103e-05
4.859851114372e-05
7.183096986996e-05
6.968372450250e-05
2.501342217800e-05
4.512020293106e-06
2.497068553301e-05
5.594101200521e-06
2.492707469643e-05
4.907274658880e-05
8.125693995121e-05
4.054446245333e-04
2.032630844413e-04
1.927777218836e-04
1.717991566664e-04
1.833077794800e-04
2.120450164478e-04
1.599565780919e-04
1.520542909442e-04
1.299943412054e-05
3.009326568739e-05
2.803264389858e-05
4.893216927783e-05
4.854575907573e-05
3.011842855565e-05
2.985391171107e-05
1.212679922468e-05
2.956323580947e-05
4.920133462085e-05
1.112097730736e-05
4.631962575502e-04
4.749429089580e-04
4.191807753047e-04
3.632805764282e-04
8.135882554926e-06
5.386948803679e-04
5.409321642812e-04
5.420007007656e-04
3.726709082027e-04
3.831316322642e-04
5.397801871046e-04
1.366623235090e-04
5.018542477945e-04
5.007867744361e-04
1.270219993023e-04
1.344307261047e-04
3.108803413334e-04
2.908264083563e-04
3.558644100813e-04
2.938619721612e-04
3.403000653676e-04
4.171050220163e-04
8.152619913529e-05
4.207308802760e-04
4.143856512827e-04
4.668663298500e-04
1.418324525323e-04
2.274277296860e-04
8.705540962243e-05
4.790386382265e-04
3.398785623762e-04
2.531998273476e-04
1.908312380971e-04
1.507102894298e-04
1.257899382856e-04
2.901104771603e-04
2.320275145914e-04
3.314839756976e-04
4.791756803474e-04
1.149606602336e-05
3.453125088158e-04
2.754275124452e-04
4.261622601346e-04
3.753349211763e-04
8.358531654043e-05
4.726286670454e-04
5.060393802362e-04
4.009504700442e-04
6.422889011039e-05
3.990390879599e-04
3.934542987005e-04
4.592725263041e-04
1.288553264815e-04
2.804895801325e-04
3.187816544710e-04
3.318079614565e-04
5.095522927528e-04
3.159915601052e-04
3.852109920420e-04
3.230276000615e-04
1.385148345774e-04
3.590358052962e-04
2.872179886927e-04
4.941898923182e-04
4.104449111543e-04
2.314228659541e-04
4.772433111732e-04
2.610076938157e-04
3.913237407129e-04
3.263235370535e-04
3.712121600138e-04
4.099373069869e-04
3.444581540170e-04
2.988573379101e-04
3.521009582827e-04
9.790651079719e-05
2.521198736705e-04
4.221686637289e-04
4.389337277934e-04
5.156653206115e-04
3.007774020569e-04
3.457172262354e-04
4.982682802117e-04
2.400737424935e-04
9.453445410071e-05
1.009291100703e-04
1.856077210670e-04
2.995992618490e-04
2.617205445914e-04
5.112099867536e-04
3.531049987861e-04
3.466158901353e-04
6.174364014150e-05
3.373330659208e-04
3.607304515811e-04
2.859431367957e-04
3.953469982708e-04
2.435665924953e-04
4.730343506777e-04
2.893723287372e-04
3.687952026615e-04
3.551716810725e-04
2.155980488063e-04
3.624802752058e-04
3.916900117361e-04
3.760759988071e-04
3.638674702264e-04
2.701185058896e-04
3.088485137417e-04
2.696490640244e-04
3.860426874161e-04
5.370912870304e-04
3.899230131777e-04
4.191707926175e-04
2.563689842545e-04
3.611830585561e-04
4.864209456210e-05
3.136120588036e-04
2.645858563647e-04
1.913212334871e-04
2.761499503675e-04
4.425102421527e-04
2.729450963927e-04
2.143481778533e-04
2.813934647123e-04
2.864020880270e-04
4.259757236940e-04
2.899196473350e-04
4.056316791386e-04
5.077019923887e-05
3.677297360321e-04
3.619772105346e-04
1.796100574104e-04
2.825736753677e-04
4.465977289641e-04
2.637805810139e-04
3.039885578090e-04
4.256918596824e-04
3.720207886543e-04
3.200521878480e-04
3.253856415252e-04
2.644890264725e-04
1.277881189194e-04
1.047703176688e-04
2.201846767196e-04
4.409427700170e-04
6.737049587999e-05
4.385836522641e-04
7.198375173217e-05
2.038622519267e-04
3.979923577698e-04
4.213927000155e-04
2.103811678066e-04
1.165985302216e-04
1.947431572998e-04
3.405246937786e-04
2.019028924359e-04
1.868876429418e-04
5.221079467128e-04
1.943851317043e-04
5.436712217817e-04
4.059047211878e-04
3.788499261488e-04
2.417344608463e-04
1.548291023115e-06
2.366299282707e-04
1.571763399393e-04
4.296513436800e-04
3.796777656777e-04
1.425066556848e-04
5.010952050868e-04
4.827080220531e-04
4.526740425480e-04
3.990999346852e-04
3.770708268841e-04
5.039504272505e-04
3.603183031143e-04
2.532856592194e-05
3.093300561372e-04
2.180215032572e-04
2.012687016410e-04
1.524156244382e-04
1.459301977126e-04
4.558371759935e-05
1.879732675914e-04
4.312445623959e-04
3.775884450591e-04
4.128576866673e-04
1.268184059392e-04
5.188831380297e-04
4.555268603400e-04
4.156082361556e-04
4.333522654557e-04
9.434607839290e-05
3.915108033611e-04
4.838358142641e-04
4.695488918399e-04
4.138276957399e-04
3.735583308647e-04
5.257095401626e-04
8.124456362054e-05
5.263132083119e-04
4.500556171531e-04
4.054360076386e-04
3.875668074188e-04
3.928695387538e-04
5.074720874243e-04
6.504734320628e-05
4.513439202660e-04
1.840000508463e-04
2.159591288544e-05
4.024349730337e-04
4.699325875869e-04
3.927346012842e-04
4.806841409639e-05
2.419286040879e-05
4.110891931731e-04
4.958946264716e-04
9.173113774318e-05
5.433257531906e-04
3.299676655026e-05
3.574461828440e-04
2.726196309470e-05
4.114197435282e-04
5.245509508051e-04
2.026632799237e-04
3.560914058200e-04
1.315126718860e-04
4.554470176361e-04
4.185451475238e-05
5.275952819239e-04
4.188770741661e-04
5.191166820645e-04
4.631875878858e-04
2.327588749887e-05
4.659165344010e-04
4.068630763782e-04
3.604371158525e-04
5.124336646364e-04
1.636270919728e-04
6.623871439640e-05
5.462069275095e-04
9.557782282029e-06
3.595811245378e-04
4.099090981223e-04
6.320749748470e-05
3.945770179593e-04
5.008619171032e-04
2.488231046257e-04
4.915711181258e-04
6.271683453078e-05
-2.591478252927e-06
4.327268493415e-04
4.539372128063e-04
5.234633411522e-04
4.173493194727e-04
7.907264424762e-05
4.860002084898e-04
2.192803435459e-04
4.675163277666e-04
4.157546297432e-04
8.849026536698e-06
2.674806242042e-04
2.396054324882e-05
4.017110422638e-04
2.283368918377e-04
2.100305797382e-04
2.040271781149e-04
2.237803421913e-04
2.273040468829e-04
2.420826836871e-04
2.476737759111e-04
2.615056399438e-04
2.703131809401e-04
2.820398382761e-04
2.904308491653e-04
3.032437410950e-04
3.130201534258e-04
3.249540827626e-04
3.329988755017e-04

SCALARS node_materi_strain_total_size_dev_sd_ept float
LOOKUP_TABLE default
1.391772573322e-05
8.950083614306e-04
1.008022260403e-03
1.355198594717e-03
3.686702067527e-05
8.245700963022e-05
1.234532209199e-04
1.708497714154e-04
2.167106516502e-04
2.618645466195e-04
3.077723874903e-04
3.546636224371e-04
4.025570445385e-04
4.525870838061e-04
5.058541521668e-04
5.578410411737e-04
6.064038844964e-04
6.625005656271e-04
7.217584402880e-04
7.810620540421e-04
8.429311157355e-04
9.073599601490e-04
9.697843652035e-04
1.357149374836e-03
1.354811686533e-03
1.355282767419e-03
1.354954434189e-03
1.353196915762e-03
1.354025917461e-03
1.353517848697e-03
1.352007837617e-03
1.352343152184e-03
1.350739267106e-03
1.347817585736e-03
1.346818009863e-03
1.344637999954e-03
1.340811772692e-03
1.336417928332e-03
1.330523662239e-03
1.325113967761e-03
1.319848779779e-03
1.313420633414e-03
1.305870002844e-03
1.296145295036e-03
1.285400168266e-03
1.273511281727e-03
1.260493727275e-03
1.247057125828e-03
1.232938161488e-03
1.217912202280e-03
1.202037037071e-03
1.185551334068e-03
1.171691480330e-03
1.154361653092e-03
1.135960700523e-03
1.119919242982e-03
1.106804128058e-03
1.093498004048e-03
1.081605484235e-03
1.070337142918e-03
1.059601359648e-03
1.049321370810e-03
1.040538821378e-03
1.035120317219e-03
1.031866621930e-03
1.027838366950e-03
1.015125579088e-03
1.018616639610e-03
1.013879934582e-03
1.013351382845e-03
1.013928471433e-03
1.012934128436e-03
9.463248225863e-04
9.979145321687e-04
1.047604230707e-03
1.095601671615e-03
1.143862832751e-03
1.191055080594e-03
1.237469001482e-03
1.282671770459e-03
1.328540181471e-03
1.197575200765e-04
9.099664198275e-04
2.532444785869e-04
3.853565606068e-04
5.160691316737e-04
5.679829080367e-04
6.277883360200e-04
6.862059554583e-04
7.438058757482e-04
7.997003371268e-04
8.539025620195e-04
5.509500313473e-04
5.787988975775e-04
6.293408186614e-04
6.819634802249e-04
7.350368106653e-04
7.878989292158e-04
8.401063057219e-04
8.875219625308e-04
8.908256378816e-04
8.917236325524e-04
8.917039095987e-04
8.992654769603e-04
8.942284525706e-04
8.945236206307e-04
8.961874016295e-04
8.990470509137e-04
9.002504739927e-04
9.011798407488e-04
9.024891444045e-04
9.037700733178e-04
9.058712746705e-04
1.097299239467e-04
1.166977884741e-04
1.138620681826e-04
1.046716805700e-04
9.439712323350e-05
8.618929868387e-05
7.712945770637e-05
6.788397279739e-05
5.949440240990e-05
5.153387936370e-05
4.441075096026e-05
4.090231038611e-05
3.350224300910e-05
2.621720967530e-05
2.229410661906e-05
2.036449412147e-05
1.811069861438e-05
1.438621766041e-05
1.249503580377e-05
5.106963224856e-04
5.086645858307e-04
5.073980605796e-04
5.068381120099e-04
5.079429787074e-04
5.099690005039e-04
5.130566277038e-04
5.164617718075e-04
5.200556231109e-04
5.236393008874e-04
5.271256320861e-04
5.304304988347e-04
5.335093731853e-04
5.363276453285e-04
5.388627827380e-04
5.411036006297e-04
5.430484529726e-04
5.446976062398e-04
5.460510750446e-04
5.471104620128e-04
5.478875077538e-04
5.484082705379e-04
5.486091446930e-04
5.485849993970e-04
5.463251153525e-04
5.780241678841e-04
5.763283760469e-04
5.756201170173e-04
5.749591593872e-04
5.743030273761e-04
5.735355332756e-04
5.725867501971e-04
5.714274205068e-04
5.700520111706e-04
5.684630347552e-04
5.666687465690e-04
5.646841160330e-04
5.625451308309e-04
5.603004910701e-04
5.580119458980e-04
5.557399236171e-04
5.536184917604e-04
5.517515595153e-04
5.504208945663e-04
5.497284684619e-04
5.502261883243e-04
5.559518003134e-04
5.480060889997e-04
6.162653090311e-04
6.249011760404e-04
6.208324920706e-04
6.199613363003e-04
6.197217393848e-04
6.197349713846e-04
6.201793805585e-04
6.208207559042e-04
6.216515294407e-04
6.225883378582e-04
6.235519262577e-04
6.244687868382e-04
6.253202793019e-04
6.260921953788e-04
6.267713832871e-04
6.273540469120e-04
6.278616682325e-04
6.283519342721e-04
6.288861529530e-04
6.294472998668e-04
6.297726894821e-04
6.295476544831e-04
6.822403743870e-04
6.824882843018e-04
6.824251485275e-04
6.822407988734e-04
6.820601598400e-04
6.819223022357e-04
6.818040855988e-04
6.816669053740e-04
6.815219250082e-04
6.814052731396e-04
6.813180199431e-04
6.812502866766e-04
6.812031242106e-04
6.813320267999e-04
6.816769625682e-04
6.823357619475e-04
6.830098237045e-04
6.838881831795e-04
6.876809533258e-04
6.780981403788e-04
7.362346734648e-04
7.463467829663e-04
7.430483457837e-04
7.418525984473e-04
7.407879574329e-04
7.398377471643e-04
7.392113446965e-04
7.385589906227e-04
7.379498317060e-04
7.373890686302e-04
7.369747590682e-04
7.366619987554e-04
7.363224871724e-04
7.360458313151e-04
7.358475720919e-04
7.357019589204e-04
7.355340298285e-04
7.353398645694e-04
7.351280442595e-04
7.882202298094e-04
7.883171116087e-04
7.886213682771e-04
7.890600066314e-04
7.894637348323e-04
7.900614400078e-04
7.907453976106e-04
7.914910132244e-04
7.921471505423e-04
7.931786652931e-04
7.942819660033e-04
7.953435895296e-04
7.965369195570e-04
7.973980674831e-04
7.986823702475e-04
8.025467862464e-04
7.927023757293e-04
8.465740746491e-04
8.562600363991e-04
8.528625859574e-04
8.512271417191e-04
8.499730841874e-04
8.486801131913e-04
8.472054053757e-04
8.460362984194e-04
8.449612071433e-04
8.439448034433e-04
8.430407270286e-04
8.422611156146e-04
8.417991240877e-04
8.410508922796e-04
8.410728535938e-04
8.414128572776e-04
1.830737559026e-04
3.205849649933e-04
4.547625766576e-04
5.505499180072e-04
6.045972291174e-04
6.633767405727e-04
7.214810299754e-04
7.775255114051e-04
8.321474610066e-04
8.853687224056e-04
3.413634143363e-04
1.084256661074e-03
6.104247848449e-05
8.947261293116e-05
1.024872654858e-03
5.954698504226e-04
4.807970172759e-04
1.148806749759e-03
7.093907336317e-04
1.219648139369e-03
8.230160037156e-04
1.001398171594e-03
3.956804314515e-05
1.275219056388e-03
9.306809898201e-04
2.868050053939e-04
6.259660648883e-04
1.301289407289e-03
1.324205348486e-03
1.336730780540e-03
1.331555432832e-03
1.332638590955e-03
9.524334461048e-04
9.473598571196e-04
9.467284038206e-04
1.120117479727e-03
9.875520178171e-04
9.794180227998e-05
3.316492658498e-05
8.097599520313e-04
9.378562043390e-04
1.472065025172e-04
1.309072112551e-03
1.189289766508e-03
1.250216447799e-03
1.114185222953e-03
1.059194495997e-03
8.000594895080e-05
9.483756384740e-04
9.986231085094e-04
1.213669750199e-03
5.107907463848e-05
3.787716649513e-04
1.343658952593e-03
6.586539903998e-04
4.925937051554e-04
7.674629191492e-04
8.769293926912e-04
1.974893139011e-04
1.026618164371e-03
9.948107903100e-04
2.800417088800e-05
1.302844025167e-03
9.548045866745e-04
9.747884509439e-04
9.984933493604e-04
1.020665900152e-03
1.046877392527e-03
1.065239787703e-03
1.038721518725e-03
1.082004834168e-03
1.054484207421e-03
1.091431564318e-03
1.096796807788e-03
1.068131357535e-03
1.109489846745e-03
1.079585495626e-03
1.038536231899e-03
1.048421850236e-03
1.007684779512e-03
1.015742987963e-03
1.055920340221e-03
1.021112766078e-03
9.812346047426e-04
9.841995952160e-04
9.447914955784e-04
9.450389982308e-04
9.059328858640e-04
9.032017108545e-04
9.429997829253e-04
8.983087186241e-04
8.583261540585e-04
8.505183173132e-04
8.099678072500e-04
7.992338377208e-04
8.421465015937e-04
7.889827787528e-04
7.441343288806e-04
7.329885073567e-04
6.858330962556e-04
6.748233067768e-04
6.249567492450e-04
6.148502069464e-04
6.669912271870e-04
6.087234386538e-04
5.544332748799e-04
5.509797769973e-04
6.066471106497e-04
5.518243994535e-04
6.083956377920e-04
5.564739204205e-04
4.998688146430e-04
5.075505261977e-04
5.642737262498e-04
5.179224816833e-04
4.621704938039e-04
4.752012934065e-04
5.308212443464e-04
4.902188828797e-04
4.361379990760e-04
4.529516493070e-04
5.071290787838e-04
4.709691652759e-04
4.186481243116e-04
4.375744609362e-04
4.902218364128e-04
4.573048559613e-04
5.103296900653e-04
4.061454935583e-04
4.263291019508e-04
3.765499814109e-04
3.971198686844e-04
8.344653182645e-04
3.486973278204e-04
3.290708535518e-04
3.693417485864e-04
4.184267450186e-04
3.219951486284e-04
3.425760926253e-04
2.962442982193e-04
6.380736801848e-04
1.061225879396e-03
3.166006739175e-04
2.710348984097e-04
2.513014048076e-04
2.265669897326e-04
1.072336367439e-03
1.117370091109e-03
1.096683367012e-03
1.142813443927e-03
1.122760216493e-03
2.459036170747e-04
1.138522155107e-03
1.161381044824e-03
9.416592563199e-04
8.195663683113e-04
6.624219298748e-04
3.634927682300e-04
3.373008130304e-04
3.848561514342e-04
5.447991097816e-04
5.650954029478e-04
6.010025061633e-04
6.214402136605e-04
6.586781969503e-04
6.793316103311e-04
6.427294295690e-04
7.009151692354e-04
6.647727946046e-04
7.177738084860e-04
6.978601614190e-04
7.232799870749e-04
6.875106423847e-04
7.464265648093e-04
7.108599253356e-04
6.531203954743e-04
6.765023250915e-04
6.202406131041e-04
6.651283186155e-04
7.183958653680e-04
7.220157996361e-04
7.745088383374e-04
7.792151256634e-04
8.309359670466e-04
8.367959799382e-04
7.866182653890e-04
1.119947272792e-03
4.952255833915e-04
4.998680911976e-04
4.392987474065e-04
4.450401923256e-04
3.832640065300e-04
3.900949784026e-04
3.274758707014e-04
3.266003490267e-04
2.716269444609e-04
2.768592106342e-04
2.243503699871e-04
2.350242448548e-04
9.393952618855e-04
8.275308140243e-04
8.830740271353e-04
8.800218949705e-04
2.075664368416e-04
7.347556244131e-04
7.581193618467e-04
7.388538403372e-04
8.455487373409e-04
2.021330540417e-04
3.355648401567e-04
4.039551824338e-04
1.167671158242e-03
1.147529595522e-03
8.003553676113e-04
2.210469669665e-04
7.607266184833e-04
2.189286997875e-04
7.003362819633e-04
7.590962559569e-04
6.079912663123e-04
9.347517793276e-04
9.313546496432e-04
2.872077248982e-04
2.495356031601e-04
2.025744569023e-04
2.198337451259e-04
2.658248135505e-04
2.358687216371e-04
1.922252746937e-04
2.098935171081e-04
2.540447691082e-04
2.282311044490e-04
1.863690564786e-04
2.042566591578e-04
7.946680684115e-04
1.755699122708e-04
9.969041525395e-04
8.196624026245e-04
8.947729160852e-04
1.192229194751e-03
1.172116260912e-03
1.126133182471e-03
1.151114677350e-03
1.196595665848e-03
1.175783284399e-03
1.129326882737e-03
1.154146383194e-03
1.106758777150e-03
1.131929079274e-03
1.178844035788e-03
1.157003772376e-03
1.109414039261e-03
1.134763576616e-03
1.086503304141e-03
1.111896880484e-03
1.160021533489e-03
1.784633488337e-04
7.967043806552e-04
8.574883197019e-04
3.598230874483e-04
4.057834839279e-04
4.337230310691e-04
4.560052846230e-04
1.137270748639e-03
1.185378113821e-03
3.518009601748e-04
4.254733783268e-04
1.211184094864e-03
7.249323735451e-04
6.673741091941e-04
7.707746521827e-04
7.819929412511e-04
7.327294394272e-04
7.449276703683e-04
7.896961133337e-04
6.952992428045e-04
6.786226725226e-04
1.203515370547e-03
2.321289991047e-04
1.892665907204e-04
7.844357867498e-04
7.374372537279e-04
9.838217390671e-04
9.815497766453e-04
1.025634828337e-03
1.024663289906e-03
1.068295552169e-03
1.068564829607e-03
1.023785371637e-03
9.851569275480e-04
1.069518943022e-03
1.087922099035e-03
8.258252506535e-04
2.730724699963e-04
1.595222124868e-04
1.631373237748e-04
1.954223526037e-04
2.403240339424e-04
8.629177291605e-04
1.111679367368e-03
1.109232390090e-03
7.527593999282e-04
7.925263695635e-04
9.896238070756e-04
1.075901023680e-03
1.081586340807e-03
1.057912371235e-03
1.474940795300e-04
1.481971289439e-04
1.220907787051e-03
4.749299682453e-04
5.001502669371e-04
1.703042740276e-04
1.329555552021e-04
1.162042705449e-03
1.209322977587e-03
4.841055079732e-04
5.068543895982e-04
8.446102804939e-04
1.811931569864e-04
1.231872816197e-03
7.493966382103e-04
6.899882997599e-04
4.273918041214e-04
3.769730577464e-04
3.018178796382e-04
3.012592326509e-04
2.227000257858e-04
2.146495765902e-04
9.081724062236e-04
1.240391001628e-03
1.023930658327e-03
9.766338469791e-04
1.071449454134e-03
1.422903473090e-04
8.836253973090e-04
7.504210320273e-04
1.150490228921e-03
1.147476223570e-03
5.452492759646e-04
5.720392400877e-04
5.316570223802e-04
6.010450342051e-04
1.011455980078e-03
6.130156198039e-04
9.666258430928e-04
9.545395041346e-04
9.250581963453e-04
8.299479324404e-04
8.283297512012e-04
5.094990918666e-04
7.175324706022e-04
4.620248164607e-04
5.973623910039e-04
5.814510341370e-04
1.224336765924e-03
1.248992681981e-03
1.060643838421e-03
1.036653119052e-03
1.646877279204e-04
1.476157502445e-04
5.312683378229e-04
8.401245535991e-04
1.235024309407e-03
1.252883437467e-03
1.228689253284e-03
8.898758219246e-04
4.390648659378e-04
6.707806943799e-04
1.444956252952e-04
8.859709125891e-04
1.230986224103e-04
1.095897270680e-03
8.105491110689e-04
8.452834588947e-04
1.038070362433e-03
9.494987613447e-04
8.808033918208e-04
8.285822172546e-04
9.113366549602e-04
8.827210629852e-04
8.944845555286e-04
8.527272842005e-04
3.199385624799e-04
2.919835801767e-04
1.158897105681e-03
1.115242663022e-03
1.187691080510e-03
1.184365903855e-03
1.044094225674e-03
9.952834649472e-04
2.587872237144e-04
7.889298987920e-04
1.264285060656e-03
9.393093804378e-04
9.034108438812e-04
8.622861530223e-04
1.100424988952e-04
1.217842795847e-04
1.256378281011e-03
5.653224043263e-04
6.254751505799e-04
4.900056220332e-04
9.376249273260e-04
9.351714906018e-04
8.722392482676e-04
8.672318699311e-04
1.278332262602e-03
8.778563609412e-04
7.163158663147e-04
8.273613548044e-04
1.231391817676e-03
1.282188434340e-03
1.032062798010e-03
1.006619464595e-03
1.054764098994e-03
2.205948080835e-04
1.719466924419e-04
1.228061565554e-03
3.117986738134e-04
3.375460713764e-04
1.979729105884e-04
2.401451080156e-04
5.133608266815e-04
4.911693108655e-04
1.101660452659e-03
1.136294502729e-03
1.025624782011e-03
7.037212031922e-04
6.448017341629e-04
6.318604088072e-04
1.267801207855e-03
1.296933732640e-03
3.503253353851e-04
3.326649181556e-04
3.384167972271e-04
1.282944792369e-03
9.073419380354e-04
8.813502106161e-04
1.081631107952e-04
1.312615471576e-04
3.302424434201e-04
2.545714213410e-04
1.268099545168e-03
1.245273835500e-03
1.295356996314e-03
2.300323381609e-04
9.771198899924e-04
9.526757758269e-04
9.356632295484e-04
9.801990680601e-04
1.032501846615e-03
1.082637453608e-03
1.119719897588e-03
1.000599683918e-04
1.265942437134e-03
1.008076473130e-03
9.459591555657e-05
9.838868966622e-04
1.012386226011e-03
9.569447954721e-04
1.858602100461e-04
9.972820059448e-04
1.028780854921e-03
8.558371908213e-05
1.305698639524e-03
8.541662404231e-05
9.943046698024e-05
9.257927016569e-04
8.844007902797e-04
9.474381208824e-04
9.064880475035e-04
8.444396921765e-04
8.695597088308e-04
9.806089609020e-04
9.410362084381e-04
8.962460866630e-04
9.679260880848e-04
8.396119619813e-04
6.591213999641e-04
6.750470480232e-04
6.384341593995e-04
1.229719706524e-03
1.215883561539e-03
7.780599104970e-04
7.185534227061e-04
9.854358797311e-04
9.818294162716e-04
1.027883781630e-03
1.021176570388e-03
1.066826477153e-03
1.059136449065e-03
1.104994618537e-03
1.165838764281e-03
5.259280264842e-04
8.949134876441e-04
1.051267770293e-03
9.998375145878e-04
8.210916634897e-04
7.794731054796e-04
9.567164719170e-04
5.908143057220e-04
1.328550946427e-03
1.068384948913e-04
1.208594858773e-04
6.551320924341e-04
8.622315489992e-04
7.082105853475e-04
7.162506222297e-04
7.645544651701e-04
1.169669828310e-04
4.099024957035e-04
1.111040013749e-03
3.673355328415e-04
7.490209239183e-04
5.744937476967e-04
8.676289204466e-04
4.551936962546e-04
6.385145683026e-04
1.026151507547e-03
9.945295262158e-04
9.673593377319e-04
5.623522593584e-04
7.551644798457e-04
7.104115160696e-04
9.754367522386e-04
1.204012307420e-03
1.219959763306e-03
1.258388813081e-03
1.234225068848e-03
1.194184909613e-03
1.207971411232e-03
1.246990311941e-03
1.221069716660e-03
1.266130248427e-03
1.231047032796e-03
1.191034817787e-03
1.200061814747e-03
1.236277407550e-03
1.160257256682e-03
1.099020224821e-03
6.994092651806e-04
1.265732482646e-04
1.676946083136e-04
9.058789521041e-04
1.307137268017e-03
1.319763162139e-03
4.566901341123e-04
1.263019919577e-03
9.833225722663e-04
2.730815443870e-04
1.235671930599e-03
1.178572694413e-03
1.151958874617e-03
1.135412296139e-03
1.328401168164e-03
1.078444054851e-03
1.172818084066e-03
7.723791410515e-04
7.722980070166e-04
7.193845796667e-04
1.179745262311e-03
1.099463758375e-03
1.038213260556e-03
1.023006923502e-03
9.736733088805e-04
1.070111821814e-03
1.296057403941e-03
1.287971804750e-03
2.829940912323e-04
3.160759079005e-04
3.680925789800e-04
3.537595940889e-04
3.006792465885e-04
3.412915845745e-04
3.962348285756e-04
3.316680259289e-04
1.176889880980e-03
1.047334188498e-03
6.389359832434e-04
6.199669610640e-04
5.628711339993e-04
4.401647278338e-04
4.691842576302e-04
5.214105525642e-04
4.121666269428e-04
9.787869720522e-04
1.036205894658e-03
6.790955569347e-04
4.474471364782e-04
9.510365943169e-04
9.956991863473e-04
9.975620901731e-04
1.043069377181e-03
9.990044443591e-04
5.359822817806e-04
5.588595120304e-04
5.297077580706e-04
5.819139818326e-04
5.512441179332e-04
5.034457594532e-04
6.041192326308e-04
5.699692734452e-04
9.474871231198e-04
8.514457840221e-05
9.611377890334e-05
9.350288104897e-05
1.190816489678e-04
1.199432266697e-04
1.508969881434e-04
1.456892786525e-04
9.693537057158e-05
7.350881986396e-05
9.010865187660e-05
6.663679046623e-05
8.606001687412e-05
1.210195866181e-04
1.727098947456e-04
9.772111309890e-04
4.271111740934e-04
4.036182016971e-04
3.571007390891e-04
3.820545472162e-04
4.468274307299e-04
3.321719014456e-04
3.153559613250e-04
3.106680587517e-05
6.573328068850e-05
6.215264558635e-05
1.050757783249e-04
1.044462425132e-04
6.697907109322e-05
6.848101873301e-05
3.471267178071e-05
6.976337781927e-05
1.079109164874e-04
3.600541214565e-05
1.168099521566e-03
1.194071230392e-03
1.015210977017e-03
9.498915637256e-04
5.532083481977e-05
1.329924358352e-03
1.335874058104e-03
1.337004691875e-03
8.732148751602e-04
9.048642509724e-04
1.331448035932e-03
2.761976781377e-04
1.271679000663e-03
1.252641603603e-03
2.828108696160e-04
2.657866542697e-04
6.920869598668e-04
6.303284965063e-04
8.193860514417e-04
6.436348206364e-04
7.702953940976e-04
1.002622431699e-03
1.711416367094e-04
1.083599975942e-03
1.062985784590e-03
1.182004838164e-03
2.911422922652e-04
4.801235773539e-04
1.833361275103e-04
1.207269571721e-03
9.352194372899e-04
5.254006648443e-04
3.905647853233e-04
3.020719653744e-04
2.472218538565e-04
7.573171723146e-04
4.779658972675e-04
7.387507183106e-04
1.207013608452e-03
5.077005944404e-05
7.782521858895e-04
5.861910239700e-04
1.104251190362e-03
8.877760883827e-04
1.707341394127e-04
1.200187764869e-03
1.274686151308e-03
1.052493348229e-03
1.404476683141e-04
1.033638002161e-03
9.274594265942e-04
1.186557669107e-03
2.656643013937e-04
6.135226724708e-04
8.644127657189e-04
9.032897450322e-04
1.271948007053e-03
7.804327153306e-04
9.062334079251e-04
7.284115569245e-04
2.862102412088e-04
8.221479354502e-04
6.629812925927e-04
1.244943221379e-03
1.067150851817e-03
4.954619529542e-04
1.216281660312e-03
5.458181667561e-04
9.391293821567e-04
9.022613569046e-04
9.848863692833e-04
1.088650236029e-03
8.922539451759e-04
6.604670188198e-04
7.998077442743e-04
1.865790764128e-04
6.768146041959e-04
1.100967470329e-03
1.111920583226e-03
1.287943548711e-03
8.266748242902e-04
7.832888042822e-04
1.258172450924e-03
4.994207517946e-04
1.971035140050e-04
2.360790296985e-04
3.826889922546e-04
7.245016293864e-04
5.529221289956e-04
1.287504089998e-03
8.068030015007e-04
7.820261128475e-04
2.680787509545e-04
9.221429798456e-04
8.313190371260e-04
6.214857927607e-04
9.446276795971e-04
5.199909097050e-04
1.189847521631e-03
8.100409038712e-04
8.574493552614e-04
8.108176358981e-04
5.244121591653e-04
9.372236655762e-04
9.300911442130e-04
8.735596294122e-04
9.350165539635e-04
5.746130984893e-04
8.498241110374e-04
5.750295428176e-04
1.024182572700e-03
1.331360900477e-03
9.187297574987e-04
1.108707044209e-03
5.435266978482e-04
8.778037908798e-04
1.053275009385e-04
8.677327327078e-04
5.660514659547e-04
3.874588811089e-04
5.873650149019e-04
1.090528815470e-03
5.890288991736e-04
4.435792261106e-04
6.123009396930e-04
7.952133770714e-04
1.124722456642e-03
6.356443544440e-04
1.064774389747e-03
1.132013147277e-04
9.307497470163e-04
8.399872948496e-04
3.570750105106e-04
6.024899464002e-04
1.166939855123e-03
7.388125875527e-04
6.605633318583e-04
1.106050625417e-03
9.282541727653e-04
7.747713533238e-04
7.204093446586e-04
7.493090133975e-04
2.573031814913e-04
2.144775612050e-04
4.515579844312e-04
1.142862999964e-03
1.429019165131e-04
1.150446301823e-03
1.567075450228e-04
4.076091872480e-04
9.810168757621e-04
1.074556667337e-03
4.210325991013e-04
2.420507556115e-04
3.837771888005e-04
8.256933508842e-04
4.007939582552e-04
3.684163087880e-04
1.296835800868e-03
3.869711710808e-04
1.338772547930e-03
9.783681920542e-04
9.756187595390e-04
6.778336038873e-04
9.804641984383e-05
6.829935280032e-04
3.104056297934e-04
1.128618303885e-03
9.778354852099e-04
2.837307372483e-04
1.267003623062e-03
1.205572158140e-03
1.145151799812e-03
9.525253963380e-04
9.289255749911e-04
1.256303640433e-03
9.361177105625e-04
8.287130672856e-05
6.894961118232e-04
6.195406338790e-04
5.900125293343e-04
4.472549971849e-04
3.026218620025e-04
1.172907406210e-04
5.524819879420e-04
1.050636808947e-03
9.866001017241e-04
1.026772673315e-03
4.149272536311e-04
1.297781814922e-03
1.133413409208e-03
1.005775445681e-03
1.077166941930e-03
2.903156615862e-04
1.033018636799e-03
1.221909657515e-03
1.182927078834e-03
1.000656468717e-03
9.832947757149e-04
1.302511938268e-03
1.591085535051e-04
1.302939668377e-03
1.169019748681e-03
1.040746290184e-03
1.031680206408e-03
9.364901916756e-04
1.281075721097e-03
2.119129321421e-04
1.142728779937e-03
3.821161174530e-04
9.488797663949e-05
9.593833754205e-04
1.206871214171e-03
9.356412566328e-04
1.034315198814e-04
7.370003955659e-05
9.850980285843e-04
1.253214671426e-03
1.793458389400e-04
1.341898838364e-03
1.477486727905e-04
9.327782267660e-04
6.869124092991e-05
9.942584101767e-04
1.304517365289e-03
4.246278070909e-04
9.546157450616e-04
2.730007685967e-04
1.148240579161e-03
1.089102977455e-04
1.308985983617e-03
1.009153508796e-03
1.301279317832e-03
1.148464072378e-03
9.870120995599e-05
1.164086386105e-03
9.708790002908e-04
9.345173789096e-04
1.289551999267e-03
3.397260557881e-04
1.422688990563e-04
1.343363928865e-03
2.356418276723e-05
9.297406446791e-04
9.919318594205e-04
1.339388417525e-04
1.012640902023e-03
1.264564071491e-03
5.339558431045e-04
1.229731158939e-03
1.391954397734e-04
9.433019535380e-05
1.100408926941e-03
1.125384350384e-03
1.307625583315e-03
1.067505131379e-03
2.039242926037e-04
1.236997491739e-03
4.617541173377e-04
1.187268390902e-03
1.002912292456e-03
1.402126328386e-04
5.801721085672e-04
6.798583691698e-05
9.602123834075e-04
4.840431518594e-04
5.274574162734e-04
5.534436286541e-04
5.906454001570e-04
6.050723692045e-04
6.520229609722e-04
6.541225937051e-04
7.115340317769e-04
7.100144085920e-04
7.683906692456e-04
7.600836950700e-04
8.235526463895e-04
8.158584901558e-04
8.767445204526e-04
8.655835215953e-04


CELL_DATA 2241

SCALARS element_number int
LOOKUP_TABLE default
407
408
409
410
411
412
413
414
415
416
417
418
419
420
421
422
423
424
425
426
427
428
429
430
431
432
433
434
435
436
437
438
439
440
441
442
443
444
445
446
447
448
449
450
451
452
453
454
455
456
457
458
459
460
461
462
463
464
465
466
467
468
469
470
471
472
473
474
475
476
477
478
479
480
481
482
483
484
485
486
487
488
489
490
491
492
493
494
495
496
497
498
499
500
501
502
503
504
505
506
507
508
509
510
511
512
513
514
515
516
517
518
519
520
521
522
523
524
525
526
527
528
529
530
531
532
533
534
535
536
537
538
539
540
541
542
543
544
545
546
547
548
549
550
551
552
553
554
555
556
557
558
559
560
561
562
563
564
565
566
567
568
569
570
571
572
573
574
575
576
577
578
579
580
581
582
583
584
585
586
587
588
589
590
591
592
593
594
595
596
597
598
599
600
601
602
603
604
605
606
607
608
609
610
611
612
613
614
615
616
617
618
619
620
621
622
623
624
625
626
627
628
629
630
631
632
633
634
635
636
637
638
639
640
641
642
643
644
645
646
647
648
649
650
651
652
653
654
655
656
657
658
659
660
661
662
663
664
665
666
667
668
669
670
671
672
673
674
675
676
677
678
679
680
681
682
683
684
685
686
687
688
689
690
691
692
693
694
695
696
697
698
699
700
701
702
703
704
705
706
707
708
709
710
711
712
713
714
715
716
717
718
719
720
721
722
723
724
725
726
727
728
729
730
731
732
733
734
735
736
737
738
739
740
741
742
743
744
745
746
747
748
749
750
751
752
753
754
755
756
757
758
759
760
761
762
763
764
765
766
767
768
769
770
771
772
773
774
775
776
777
778
779
780
781
782
783
784
785
786
787
788
789
790
791
792
793
794
795
796
797
798
799
800
801
802
803
804
805
806
807
808
809
810
811
812
813
814
815
816
817
818
819
820
821
822
823
824
825
826
827
828
829
830
831
832
833
834
835
836
837
838
839
840
841
842
843
844
845
846
847
848
849
850
851
852
853
854
855
856
857
858
859
860
861
862
863
864
865
866
867
868
869
870
871
872
873
874
875
876
877
878
879
880
881
882
883
884
885
886
887
888
889
890
891
892
893
894
895
896
897
898
899
900
901
902
903
904
905
906
907
908
909
910
911
912
913
914
915
916
917
918
919
920
921
922
923
924
925
926
927
928
929
930
931
932
933
934
935
936
937
938
939
940
941
942
943
944
945
946
947
948
949
950
951
952
953
954
955
956
957
958
959
960
961
962
963
964
965
966
967
968
969
970
971
972
973
974
975
976
977
978
979
980
981
982
983
984
985
986
987
988
989
990
991
992
993
994
995
996
997
998
999
1000
1001
1002
1003
1004
1005
1006
1007
1008
1009
1010
1011
1012
1013
1014
1015
1016
1017
1018
1019
1020
1021
1022
1023
1024
1025
1026
1027
1028
1029
1030
1031
1032
1033
1034
1035
1036
1037
1038
1039
1040
1041
1042
1043
1044
1045
1046
1047
1048
1049
1050
1051
1052
1053
1054
1055
1056
1057
1058
1059
1060
1061
1062
1063
1064
1065
1066
1067
1068
1069
1070
1071
1072
1073
1074
1075
1076
1077
1078
1079
1080
1081
1082
1083
1084
1085
1086
1087
1088
1089
1090
1091
1092
1093
1094
1095
1096
1097
1098
1099
1100
1101
1102
1103
1104
1105
1106
1107
1108
1109
1110
1111
1112
1113
1114
1115
1116
1117
1118
1119
1120
1121
1122
1123
1124
1125
1126
1127
1128
1129
1130
1131
1132
1133
1134
1135
1136
1137
1138
1139
1140
1141
1142
1143
1144
1145
1146
1147
1148
1149
1150
1151
1152
1153
1154
1155
1156
1157
1158
1159
1160
1161
1162
1163
1164
1165
1166
1167
1168
1169
1170
1171
1172
1173
1174
1175
1176
1177
1178
1179
1180
1181
1182
1183
1184
1185
1186
1187
1188
1189
1190
1191
1192
1193
1194
1195
1196
1197
1198
1199
1200
1201
1202
1203
1204
1205
1206
1207
1208
1209
1210
1211
1212
1213
1214
1215
1216
1217
1218
1219
1220
1221
1222
1223
1224
1225
1226
1227
1228
1229
1230
1231
1232
1233
1234
1235
1236
1237
1238
1239
1240
1241
1242
1243
1244
1245
1246
1247
1248
1249
1250
1251
1252
1253
1254
1255
1256
1257
1258
1259
1260
1261
1262
1263
1264
1265
1266
1267
1268
1269
1270
1271
1272
1273
1274
1275
1276
1277
1278
1279
1280
1281
1282
1283
1284
1285
1286
1287
1288
1289
1290
1291
1292
1293
1294
1295
1296
1297
1298
1299
1300
1301
1302
1303
1304
1305
1306
1307
1308
1309
1310
1311
1312
1313
1314
1315
1316
1317
1318
1319
1320
1321
1322
1323
1324
1325
1326
1327
1328
1329
1330
1331
1332
1333
1334
1335
1336
1337
1338
1339
1340
1341
1342
1343
1344
1345
1346
1347
1348
1349
1350
1351
1352
1353
1354
1355
1356
1357
1358
1359
1360
1361
1362
1363
1364
1365
1366
1367
1368
1369
1370
1371
1372
1373
1374
1375
1376
1377
1378
1379
1380
1381
1382
1383
1384
1385
1386
1387
1388
1389
1390
1391
1392
1393
1394
1395
1396
1397
1398
1399
1400
1401
1402
1403
1404
1405
1406
1407
1408
1409
1410
1411
1412
1413
1414
1415
1416
1417
1418
1419
1420
1421
1422
1423
1424
1425
1426
1427
1428
1429
1430
1431
1432
1433
1434
1435
1436
1437
1438
1439
1440
1441
1442
1443
1444
1445
1446
1447
1448
1449
1450
1451
1452
1453
1454
1455
1456
1457
1458
1459
1460
1461
1462
1463
1464
1465
1466
1467
1468
1469
1470
1471
1472
1473
1474
1475
1476
1477
1478
1479
1480
1481
1482
1483
1484
1485
1486
1487
1488
1489
1490
1491
1492
1493
1494
1495
1496
1497
1498
1499
1500
1501
1502
1503
1504
1505
1506
1507
1508
1509
1510
1511
1512
1513
1514
1515
1516
1517
1518
1519
1520
1521
1522
1523
1524
1525
1526
1527
1528
1529
1530
1531
1532
1533
1534
1535
1536
1537
1538
1539
1540
1541
1542
1543
1544
1545
1546
1547
1548
1549
1550
1551
1552
1553
1554
1555
1556
1557
1558
1559
1560
1561
1562
1563
1564
1565
1566
1567
1568
1569
1570
1571
1572
1573
1574
1575
1576
1577
1578
1579
1580
1581
1582
1583
1584
1585
1586
1587
1588
1589
1590
1591
1592
1593
1594
1595
1596
1597
1598
1599
1600
1601
1602
1603
1604
1605
1606
1607
1608
1609
1610
1611
1612
1613
1614
1615
1616
1617
1618
1619
1620
1621
1622
1623
1624
1625
1626
1627
1628
1629
1630
1631
1632
1633
1634
1635
1636
1637
1638
1639
1640
1641
1642
1643
1644
1645
1646
1647
1648
1649
1650
1651
1652
1653
1654
1655
1656
1657
1658
1659
1660
1661
1662
1663
1664
1665
1666
1667
1668
1669
1670
1671
1672
1673
1674
1675
1676
1677
1678
1679
1680
1681
1682
1683
1684
1685
1686
1687
1688
1689
1690
1691
1692
1693
1694
1695
1696
1697
1698
1699
1700
1701
1702
1703
1704
1705
1706
1707
1708
1709
1710
1711
1712
1713
1714
1715
1716
1717
1718
1719
1720
1721
1722
1723
1724
1725
1726
1727
1728
1729
1730
1731
1732
1733
1734
1735
1736
1737
1738
1739
1740
1741
1742
1743
1744
1745
1746
1747
1748
1749
1750
1751
1752
1753
1754
1755
1756
1757
1758
1759
1760
1761
1762
1763
1764
1765
1766
1767
1768
1769
1770
1771
1772
1773
1774
1775
1776
1777
1778
1779
1780
1781
1782
1783
1784
1785
1786
1787
1788
1789
1790
1791
1792
1793
1794
1795
1796
1797
1798
1799
1800
1801
1802
1803
1804
1805
1806
1807
1808
1809
1810
1811
1812
1813
1814
1815
1816
1817
1818
1819
1820
1821
1822
1823
1824
1825
1826
1827
1828
1829
1830
1831
1832
1833
1834
1835
1836
1837
1838
1839
1840
1841
1842
1843
1844
1845
1846
1847
1848
1849
1850
1851
1852
1853
1854
1855
1856
1857
1858
1859
1860
1861
1862
1863
1864
1865
1866
1867
1868
1869
1870
1871
1872
1873
1874
1875
1876
1877
1878
1879
1880
1881
1882
1883
1884
1885
1886
1887
1888
1889
1890
1891
1892
1893
1894
1895
1896
1897
1898
1899
1900
1901
1902
1903
1904
1905
1906
1907
1908
1909
1910
1911
1912
1913
1914
1915
1916
1917
1918
1919
1920
1921
1922
1923
1924
1925
1926
1927
1928
1929
1930
1931
1932
1933
1934
1935
1936
1937
1938
1939
1940
1941
1942
1943
1944
1945
1946
1947
1948
1949
1950
1951
1952
1953
1954
1955
1956
1957
1958
1959
1960
1961
1962
1963
1964
1965
1966
1967
1968
1969
1970
1971
1972
1973
1974
1975
1976
1977
1978
1979
1980
1981
1982
1983
1984
1985
1986
1987
1988
1989
1990
1991
1992
1993
1994
1995
1996
1997
1998
1999
2000
2001
2002
2003
2004
2005
2006
2007
2008
2009
2010
2011
2012
2013
2014
2015
2016
2017
2018
2019
2020
2021
2022
2023
2024
2025
2026
2027
2028
2029
2030
2031
2032
2033
2034
2035
2036
2037
2038
2039
2040
2041
2042
2043
2044
2045
2046
2047
2048
2049
2050
2051
2052
2053
2054
2055
2056
2057
2058
2059
2060
2061
2062
2063
2064
2065
2066
2067
2068
2069
2070
2071
2072
2073
2074
2075
2076
2077
2078
2079
2080
2081
2082
2083
2084
2085
2086
2087
2088
2089
2090
2091
2092
2093
2094
2095
2096
2097
2098
2099
2100
2101
2102
2103
2104
2105
2106
2107
2108
2109
2110
2111
2112
2113
2114
2115
2116
2117
2118
2119
2120
2121
2122
2123
2124
2125
2126
2127
2128
2129
2130
2131
2132
2133
2134
2135
2136
2137
2138
2139
2140
2141
2142
2143
2144
2145
2146
2147
2148
2149
2150
2151
2152
2153
2154
2155
2156
2157
2158
2159
2160
2161
2162
2163
2164
2165
2166
2167
2168
2169
2170
2171
2172
2173
2174
2175
2176
2177
2178
2179
2180
2181
2182
2183
2184
2185
2186
2187
2188
2189
2190
2191
2192
2193
2194
2195
2196
2197
2198
2199
2200
2201
2202
2203
2204
2205
2206
2207
2208
2209
2210
2211
2212
2213
2214
2215
2216
2217
2218
2219
2220
2221
2222
2223
2224
2225
2226
2227
2228
2229
2230
2231
2232
2233
2234
2235
2236
2237
2238
2239
2240
2241
2242
2243
2244
2245
2246
2247
2248
2249
2250
2251
2252
2253
2254
2255
2256
2257
2258
2259
2260
2261
2262
2263
2264
2265
2266
2267
2268
2269
2270
2271
2272
2273
2274
2275
2276
2277
2278
2279
2280
2281
2282
2283
2284
2285
2286
2287
2288
2289
2290
2291
2292
2293
2294
2295
2296
2297
2298
2299
2300
2301
2302
2303
2304
2305
2306
2307
2308
2309
2310
2311
2312
2313
2314
2315
2316
2317
2318
2319
2320
2321
2322
2323
2324
2325
2509
2510
2511
2512
2513
2514
2515
2516
2517
2518
2519
2520
2521
2522
2523
2524
2525
2526
2527
2528
2529
2530
2531
2532
2533
2534
2535
2536
2537
2538
2539
2540
2541
2542
2543
2544
2545
2546
2547
2548
2549
2550
2551
2552
2553
2554
2555
2556
2557
2558
2559
2560
2561
2562
2563
2564
2565
2566
2567
2568
2569
2570
2571
2572
2573
2574
2575
2576
2577
2578
2579
2580
2581
2582
2583
2584
2585
2586
2587
2588
2589
2590
2591
2592
2593
2594
2595
2596
2597
2598
2599
2600
2601
2602
2603
2604
2605
2606
2607
2608
2609
2610
2611
2612
2613
2614
2615
2616
2617
2618
2619
2620
2621
2622
2623
2624
2625
2626
2627
2628
2629
2630
2631
2632
2633
2634
2635
2636
2637
2638
2639
2640
2641
2642
2643
2644
2645
2646
2647
2648
2649
2650
2651
2652
2653
2654
2655
2656
2657
2658
2659
2660
2661
2662
2663
2664
2665
2666
2667
2668
2669
2670
2671
2672
2673
2674
2675
2676
2677
2678
2679
2680
2681
2682
2683
2684
2685
2686
2687
2688
2689
2690
2691
2692
2693
2694
2695
2696
2697
2698
2699
2700
2701
2702
2703
2704
2705
2706
2707
2708
2709
2710
2711
2712
2713
2714
2715
2716
2717
2718
2719
2720
2721
2722
2723
2724
2725
2726
2727
2728
2729
2730
2731
2732
2733
2734
2735
2736
2737
2738
2739
2740
2741
2742
2743
2744
2745
2746
2747
2748
2749
2750
2751
2752
2753
2754
2755
2756
2757
2758
2759
2760
2761
2762
2763
2764
2765
2766
2767
2768
2769
2770
2771
2772
2773
2774
2775
2776
2777
2778
2779
2780
2781
2782
2783
2784
2785
2786
2787
2788
2789
2790
2791
2792
2793
2794
2795
2796
2797
2798
2799
2800
2801
2802
2803
2804
2805
2806
2807
2808
2809
2810
2811
2812
2813
2814
2815
2816
2817
2818
2819
2820
2821
2822
2823
2824
2825
2826
2827
2828
2829
2830

SCALARS element_group int
LOOKUP_TABLE default
0
0
0
0
0
0
0
0
0
0
0
0
0
0
0
0
0
0
0
0
0
0
0
0
0
0
0
0
0
0
0
0
0
0
0
0
0
0
0
0
0
0
0
0
0
0
0
0
0
0
0
0
0
0
0
0
0
0
0
0
0
0
0
0
0
0
0
0
0
0
0
0
0
0
0
0
0
0
0
0
0
0
0
0
0
0
0
0
0
0
0
0
0
0
0
0
0
0
0
0
0
0
0
0
0
0
0
0
0
0
0
0
0
0
0
0
0
0
0
0
0
0
0
0
0
0
0
0
0
0
0
0
0
0
0
0
0
0
0
0
0
0
0
0
0
0
0
0
0
0
0
0
0
0
0
0
0
0
0
0
0
0
0
0
0
0
0
0
0
0
0
0
0
0
0
0
0
0
0
0
0
0
0
0
0
0
0
0
0
0
0
0
0
0
0
0
0
0
0
0
0
0
0
0
0
0
0
0
0
0
0
0
0
0
0
0
0
0
0
0
0
0
0
0
0
0
0
0
0
0
0
0
0
0
0
0
0
0
0
0
0
0
0
0
0
0
0
0
0
0
0
0
0
0
0
0
0
0
0
0
0
0
0
0
0
0
0
0
0
0
0
0
0
0
0
0
0
0
0
0
0
0
0
0
0
0
0
0
0
0
0
0
0
0
0
0
0
0
0
0
0
0
0
0
0
0
0
0
0
0
0
0
0
0
0
0
0
0
0
0
0
0
0
0
0
0
0
0
0
0
0
0
0
0
0
0
0
0
0
0
0
0
0
0
0
0
0
0
0
0
0
0
0
0
0
0
0
0
0
0
0
0
0
0
0
0
0
0
0
0
0
0
0
0
0
0
0
0
0
0
0
0
0
0
0
0
0
0
0
0
0
0
0
0
0
0
0
0
0
0
0
0
0
0
0
0
0
0
0
0
0
0
0
0
0
0
0
0
0
0
0
0
0
0
0
0
0
0
0
0
0
0
0
0
0
0
0
0
0
0
0
0
0
0
0
0
0
0
0
0
0
0
0
0
0
0
0
0
0
0
0
0
0
0
0
0
0
0
0
0
0
0
0
0
0
0
0
0
0
0
0
0
0
0
0
0
0
0
0
0
0
0
0
0
0
0
0
0
0
0
0
0
0
0
0
0
0
0
0
0
0
0
0
0
0
0
0
0
0
0
0
0
0
0
0
0
0
0
0
0
0
0
0
0
0
0
0
0
0
0
0
0
0
0
0
0
0
0
0
0
0
0
0
0
0
0
0
0
0
0
0
0
0
0
0
0
0
0
0
0
0
0
0
0
0
0
0
0
0
0
0
0
0
0
0
0
0
0
0
0
0
0
0
0
0
0
0
0
0
0
0
0
0
0
0
0
0
0
0
0
0
0
0
0
0
0
0
0
0
0
0
0
0
0
0
0
0
0
0
0
0
0
0
0
0
0
0
0
0
0
0
0
0
0
0
0
0
0
0
0
0
0
0
0
0
0
0
0
0
0
0
0
0
0
0
0
0
0
0
0
0
0
0
0
0
0
0
0
0
0
0
0
0
0
0
0
0
0
0
0
0
0
0
0
0
0
0
0
0
0
0
0
0
0
0
0
0
0
0
0
0
0
0
0
0
0
0
0
0
0
0
0
0
0
0
0
0
0
0
0
0
0
0
0
0
0
0
0
0
0
0
0
0
0
0
0
0
0
0
0
0
0
0
0
0
0
0
0
0
0
0
0
0
0
0
0
0
0
0
0
0
0
0
0
0
0
0
0
0
0
0
0
0
0
0
0
0
0
0
0
0
0
0
0
0
0
0
0
0
0
0
0
0
0
0
0
0
0
0
0
0
0
0
0
0
0
0
0
0
0
0
0
0
0
0
0
0
0
0
0
0
0
0
0
0
0
0
0
0
0
0
0
0
0
0
0
0
0
0
0
0
0
0
0
0
0
0
0
0
0
0
0
0
0
0
0
0
0
0
0
0
0
0
0
0
0
0
0
0
0
0
0
0
0
0
0
0
0
0
0
0
0
0
0
0
0
0
0
0
0
0
0
0
0
0
0
0
0
0
0
0
0
0
0
0
0
0
0
0
0
0
0
0
0
0
0
0
0
0
0
0
0
0
0
0
0
0
0
0
0
0
0
0
0
0
0
0
0
0
0
0
0
0
0
0
0
0
0
0
0
0
0
0
0
0
0
0
0
0
0
0
0
0
0
0
0
0
0
0
0
0
0
0
0
0
0
0
0
0
0
0
0
0
0
0
0
0
0
0
0
0
0
0
0
0
0
0
0
0
0
0
0
0
0
0
0
0
0
0
0
0
0
0
0
0
0
0
0
0
0
0
0
0
0
0
0
0
0
0
0
0
0
0
0
0
0
0
0
0
0
0
0
0
0
0
0
0
0
0
0
0
0
0
0
0
0
0
0
0
0
0
0
0
0
0
0
0
0
0
0
0
0
0
0
0
0
0
0
0
0
0
0
0
0
0
0
0
0
0
0
0
0
0
0
0
0
0
0
0
0
0
0
0
0
0
0
0
0
0
0
0
0
0
0
0
0
0
0
0
0
0
0
0
0
0
0
0
0
0
0
0
0
0
0
0
0
0
0
0
0
0
0
0
0
0
0
0
0
0
0
0
0
0
0
0
0
0
0
0
0
0
0
0
0
0
0
0
0
0
0
0
0
0
0
0
0
0
0
0
0
0
0
0
0
0
0
0
0
0
0
0
0
0
0
0
0
0
0
0
0
0
0
0
0
0
0
0
0
0
0
0
0
0
0
0
0
0
0
0
0
0
0
0
0
0
0
0
0
0
0
0
0
0
0
0
0
0
0
0
0
0
0
0
0
0
0
0
0
0
0
0
0
0
0
0
0
0
0
0
0
0
0
0
0
0
0
0
0
0
0
0
0
0
0
0
0
0
0
0
0
0
0
0
0
0
0
0
0
0
0
0
0
0
0
0
0
0
0
0
0
0
0
0
0
0
0
0
0
0
0
0
0
0
0
0
0
0
0
0
0
0
0
0
0
0
0
0
0
0
0
0
0
0
0
0
0
0
0
0
0
0
0
0
0
0
0
0
0
0
0
0
0
0
0
0
0
0
0
0
0
0
0
0
0
0
0
0
0
0
0
0
0
0
0
0
0
0
0
0
0
0
0
0
0
0
0
0
0
0
0
0
0
0
0
0
0
0
0
0
0
0
0
0
0
0
0
0
0
0
0
0
0
0
0
0
0
0
0
0
0
0
0
0
0
0
0
0
0
0
0
0
0
0
0
0
0
0
0
0
0
0
0
0
0
0
0
0
0
0
0
0
0
0
0
0
0
0
0
0
0
0
0
0
0
0
0
0
0
0
0
0
0
0
0
0
0
0
0
0
0
0
0
0
0
0
0
0
0
0
0
0
0
0
0
0
0
0
0
0
0
0
0
0
0
0
0
0
0
0
0
0
0
0
0
0
0
0
0
0
0
0
0
0
0
0
0
0
0
0
0
0
0
0
0
0
0
0
0
0
0
0
0
0
0
0
0
0
0
0
0
0
0
0
0
0
0
0
0
0
0
0
0
0
0
0
0
0
0
0
0
0
0
0
0
0
0
0
0
0
0
0
0
0
0
0
0
0
0
0
0
0
0
0
0
0
0
0
0
0
0
0
0
0
0
0
0
0
0
0
0
0
0
0
0
0
0
0
0
0
0
0
0
0
0
0
0
0
0
0
0
0
0
0
0
0
0
0
0
0
0
0
0
0
0
0
0
0
0
0
0
0
0
0
0
0
0
0
0
0
0
0
0
0
0
0
0
0
0
0
0
0
0
0
0
0
0
0
0
0
0
0
0
0
0
0
0
0
0
0
0
0
0
0
0
0
0
0
0
0
0
0
0
0
0
0
0
0
0
0
0
0
0
0
0
0
0
0
0
0
0
0
0
0
0
0
0
0
0
0
0
0
0
0
0
0
0
0
0
0
0
0
0
0
0
0
0
0
0
0
0
0
0
0
0
0
0
0
0
0
0
0
0
0
0
0
0
0
0
0
0
0
0
0
0
0
0
0
0
0
0
0
0
0
0
0
0
0
0
0
0
0
0
0
0
0
0
0
0
0
0
0
0
0
0
0
0
0
0
0
0
0
0
0
0
0
0
0
0
0
0
0
0
0
0
0
0
0
0
0
0
0
0
0
0
0
0
0
0
0
0
0
0
0
0
0
0
0
0
0
0
0
0
0
0
0
0
0
0
0
0
0
0
0
0
0
0
0
0
0
0
0
0
0
0
0
0
0
0
0
0
0
0
0
0
0
0
0
0
0
0
0
0
0
0
0
0
0
0
0
0
0
0
0
0
0
0
0
0
0
0
0
0
0
0
0
0
0
0
0
0
0
0
0
0
0
0
0
0
0
0
0
0
0
0
0
0
0
0
0
0
0
0
0
0
0
0
0
0
0
0
0
0
0
0
0
0
0
0
0
0
0
0
0
0
0
0
0
0
0
0
0
0
0
0
0
0
0
0
0
0
0
0
0
0
0
0
0
0
0
0
0
0
0
0
0
0
0
0
0
0
0
0
0
0
0
0
0
0
0
0
0
0
0
0
0
0
0
0
0
0
0
0
0
0
0
0
0
0
0
0
0
0
0
0
0
0
0
0
0
0
0
0
0
0
0
0
0
0
0
0
0
0
0
0
0
0
0
0
0
0
0
0
0
0
0
0
0
0
0
0
0
0
0
0
0
0
0
0
0
0
0
0
0
0
0
0
0
0
0
0
0
0
0
0
0
0
0
0
0
0
0
0
0
0
0
0
0
0
0
0
0
0
0
0
0
0
0
0
0
0
0
0
0
0
0
0
0
0
0
0
0
0
0
0
0
0
0
0
0
0
0
0
0
0
0
0
0
0
0
0
0
0
0
0
0
0
0
0
0
0
0
0
0
0
0
0
0
0
0
0
0
0
0
0
0
0
0
0
0
0
0
0
0
0
0
0
0
0
0
0
0
0
0
0
0
0
0
0
0
0
0
0
0
0
0
0
0
0
0
0
0
0
0
0
0
0
0
0
0
0
0
0
0
0
0
0
0
0
0
0
0


VECTORS element_materi_velocity float
3.034076907760e-04 1.601553675602e-03 0.0 
3.237224562125e-04 1.519995298650e-03 0.0 
8.847718598830e-05 1.505962553969e-04 0.0 
1.154274991580e-05 2.243917726086e-04 0.0 
1.186358834550e-04 1.253030674682e-03 0.0 
-7.708098619394e-05 3.925380121598e-04 0.0 
8.900546299518e-05 1.242424089318e-03 0.0 
3.075655640113e-04 1.485880942012e-03 0.0 
9.861314062354e-05 1.249946159767e-03 0.0 
1.687666010389e-05 2.296591245575e-04 0.0 
2.332002713306e-05 -3.875186866707e-05 0.0 
2.659223961926e-04 1.543334816961e-03 0.0 
1.105001762590e-05 5.645071831106e-07 0.0 
1.795231317386e-04 1.113537846068e-03 0.0 
9.138889703925e-06 1.127153654441e-06 0.0 
9.302787640506e-06 1.585951869377e-04 0.0 
1.539221727655e-04 1.300383215466e-03 0.0 
-6.503744084247e-05 3.411956002790e-04 0.0 
8.247052316300e-06 -1.127044401456e-04 0.0 
7.214992343342e-06 -1.116772008866e-04 0.0 
2.004824142248e-05 2.352900547512e-04 0.0 
3.330034791725e-04 1.608106868445e-03 0.0 
3.513350032070e-04 1.558255634427e-03 0.0 
1.412233400610e-04 4.241353611472e-05 0.0 
2.065841547733e-04 9.636534310793e-04 0.0 
2.588612005778e-05 -3.310419092713e-05 0.0 
2.442526347347e-04 1.403348825667e-03 0.0 
1.408450446053e-04 1.113100315891e-04 0.0 
2.192132265005e-04 9.621638752183e-04 0.0 
1.160540255093e-04 3.432168416731e-05 0.0 
5.390401308382e-06 7.530766114651e-05 0.0 
-1.767662353061e-05 -7.865328785766e-05 0.0 
1.017324024481e-04 1.848656491766e-04 0.0 
7.564079540629e-06 -1.130313810479e-05 0.0 
5.905052370238e-05 9.916263113154e-06 0.0 
1.687907626782e-05 2.355685977685e-06 0.0 
1.545544331124e-05 2.078637245981e-06 0.0 
1.277060197432e-04 6.033999359822e-05 0.0 
7.403812661547e-05 1.386235774363e-03 0.0 
6.726654960596e-05 1.388175518731e-03 0.0 
3.508416267054e-04 1.522554653583e-03 0.0 
5.725898259160e-05 1.261079898908e-05 0.0 
1.972542898181e-04 1.380873980951e-03 0.0 
2.549939300814e-04 1.350821136260e-03 0.0 
6.188352897630e-06 3.177736050572e-04 0.0 
1.999982953993e-04 1.255225822276e-03 0.0 
-2.563456723612e-05 7.909318957328e-05 0.0 
7.028202988856e-06 2.699187347775e-04 0.0 
-6.839733279691e-05 5.919036919012e-05 0.0 
1.765374165636e-04 1.182998512391e-03 0.0 
3.535427562509e-04 1.546063258345e-03 0.0 
1.068745471675e-05 -1.089634902087e-04 0.0 
8.081688800278e-05 8.865369823322e-05 0.0 
3.405170579441e-04 1.578636301329e-03 0.0 
6.391361894183e-05 1.545979357723e-04 0.0 
2.372169949711e-05 -9.922580734683e-05 0.0 
9.191522201562e-06 -1.073083846038e-04 0.0 
1.533019418537e-05 -1.132730953510e-05 0.0 
1.177755381472e-05 -1.114812080900e-04 0.0 
1.114913149475e-05 1.599030157991e-04 0.0 
-1.195252576892e-04 1.366917235373e-04 0.0 
2.098282106679e-04 1.434359204292e-04 0.0 
4.415256170548e-04 1.148900054607e-03 0.0 
5.571101885754e-05 7.827850603694e-05 0.0 
1.798778630079e-05 1.139349032447e-06 0.0 
3.385687365732e-04 1.601352657240e-03 0.0 
-1.148633318211e-04 1.613772589061e-04 0.0 
1.092485464337e-04 1.785576084527e-04 0.0 
2.745190206514e-05 -4.761983202457e-05 0.0 
1.078265922256e-04 1.196879480283e-04 0.0 
3.912655780452e-05 -2.672397180877e-05 0.0 
1.082158083006e-05 4.481971779493e-05 0.0 
1.845347047741e-04 1.511896093262e-04 0.0 
3.193040737065e-07 -1.174458762062e-04 0.0 
2.209060110745e-05 -9.672063183210e-05 0.0 
3.837482155415e-05 2.063055406289e-04 0.0 
7.975664324961e-05 1.871706277145e-04 0.0 
3.489771180453e-05 8.911053094646e-04 0.0 
1.507310873483e-05 -1.099739998669e-04 0.0 
4.081425472531e-05 1.020732923659e-03 0.0 
2.956978478463e-05 -3.563606272915e-05 0.0 
1.447376422899e-04 1.260706315339e-03 0.0 
3.432650223145e-04 1.558291445753e-03 0.0 
3.162339329247e-04 1.615274640675e-03 0.0 
1.114541344380e-04 1.167355269237e-03 0.0 
1.019875797154e-04 1.162828678532e-03 0.0 
2.303023955833e-05 -2.338154179919e-05 0.0 
4.063609489047e-06 -1.486190901941e-05 0.0 
2.619445445668e-04 5.078973867461e-04 0.0 
1.277263660312e-04 1.247549728127e-03 0.0 
-1.576915090216e-05 -7.273494151815e-05 0.0 
2.459472790216e-04 1.224581471302e-03 0.0 
1.885161664699e-05 6.346742009056e-04 0.0 
2.288208675808e-05 6.860829597564e-04 0.0 
2.154301162914e-05 8.312444307840e-05 0.0 
9.201948907691e-05 4.382903325377e-05 0.0 
1.627515669460e-04 1.264523427753e-03 0.0 
6.579759625796e-05 1.350469083941e-05 0.0 
1.415206266181e-05 1.006921661682e-03 0.0 
4.189388083640e-04 1.240888402529e-03 0.0 
1.152708649336e-04 1.326304612407e-03 0.0 
1.174212977081e-05 1.316764628592e-06 0.0 
3.609550699309e-04 2.550061477342e-04 0.0 
2.093744777752e-04 1.357979743447e-04 0.0 
3.991308248629e-04 9.188165636253e-04 0.0 
-3.814311706447e-05 5.545501542792e-05 0.0 
1.279668503847e-05 -2.629950650641e-06 0.0 
1.903468691006e-05 5.470429266173e-04 0.0 
-9.301507375237e-05 8.390961835317e-05 0.0 
2.156670261581e-05 2.557881308583e-06 0.0 
2.875652813966e-04 5.708475339853e-04 0.0 
2.790934748699e-07 -1.176135303608e-04 0.0 
4.779712908761e-04 7.173046141917e-04 0.0 
3.053876734581e-04 1.350797899404e-03 0.0 
4.326168013411e-05 -8.309124887603e-05 0.0 
3.982079189260e-04 1.263770291514e-03 0.0 
4.466719364997e-04 1.078360966519e-03 0.0 
4.213070289968e-05 7.461011322359e-06 0.0 
1.797832527056e-05 1.068824677973e-03 0.0 
4.280146844844e-04 1.090910116288e-03 0.0 
2.258041374605e-05 -7.474597040277e-05 0.0 
2.562242632714e-04 1.260465860790e-03 0.0 
1.500629170460e-05 5.016051950766e-04 0.0 
4.294324124647e-04 1.009719650631e-03 0.0 
-1.062753678289e-04 6.117946219560e-04 0.0 
3.336173958967e-04 1.451825222625e-03 0.0 
3.698923764363e-05 -8.620450623207e-05 0.0 
3.293890018232e-04 1.512223811436e-03 0.0 
2.910015666781e-05 1.460755496870e-04 0.0 
-4.894005198958e-05 5.735181388577e-04 0.0 
3.639103458438e-05 -3.192637192384e-05 0.0 
9.152900277703e-06 2.221308336884e-04 0.0 
4.335610642841e-04 1.205128569225e-03 0.0 
3.431859362459e-04 1.491739557913e-03 0.0 
6.346106374522e-05 1.139353961119e-05 0.0 
7.578795604141e-06 4.137161427959e-07 0.0 
3.248759110457e-05 -2.273249528298e-05 0.0 
4.336539817047e-04 1.160565279429e-03 0.0 
8.206518731707e-05 2.281679943895e-05 0.0 
4.039079294845e-04 1.325714272075e-03 0.0 
2.252299555397e-05 1.636351116299e-04 0.0 
1.242199436519e-04 1.469338944975e-04 0.0 
1.902584074190e-04 1.106391350759e-03 0.0 
4.431276530581e-05 8.314448772032e-04 0.0 
4.177476530099e-04 1.288599996499e-03 0.0 
3.364783958247e-04 1.550100907691e-03 0.0 
4.444121139939e-04 1.080139346562e-03 0.0 
4.430023823733e-04 8.513609616460e-04 0.0 
8.513531899152e-05 1.314909063701e-03 0.0 
4.706053782198e-04 6.561102467510e-04 0.0 
-1.023162906019e-05 -8.486340911592e-05 0.0 
2.043695298440e-05 1.204168754273e-03 0.0 
5.709233181093e-06 -1.145503783889e-04 0.0 
3.208120824066e-04 1.404467221801e-03 0.0 
6.656111218324e-05 1.784263427623e-05 0.0 
4.042610266541e-04 1.008511323270e-03 0.0 
1.752896751018e-05 -1.908402215294e-05 0.0 
2.532524983925e-04 1.394627437667e-03 0.0 
3.648804888591e-04 2.742420188425e-04 0.0 
4.787047749830e-05 1.266760093914e-03 0.0 
4.546031157615e-04 6.513950550743e-04 0.0 
1.730519958960e-05 -7.918364837386e-06 0.0 
2.482187459146e-05 -6.698245913647e-05 0.0 
1.793353493214e-05 -2.377661493781e-06 0.0 
3.394331659008e-04 1.190612191769e-03 0.0 
2.464018215271e-05 2.370600864491e-06 0.0 
2.028303573342e-05 1.278864050521e-03 0.0 
4.186795200540e-04 8.436355979372e-04 0.0 
3.066530074242e-04 1.415625720134e-03 0.0 
1.492286191564e-05 -4.053711153494e-05 0.0 
2.398609115364e-04 1.503546929308e-03 0.0 
4.436798954042e-04 5.881422734294e-04 0.0 
3.862126484319e-05 7.533624822034e-04 0.0 
5.463958613826e-05 1.317121301380e-03 0.0 
4.546976749473e-04 7.813081027378e-04 0.0 
3.194238199219e-04 1.467703999011e-03 0.0 
2.634127601663e-04 3.604297526676e-04 0.0 
4.572244490079e-05 -7.734428372539e-05 0.0 
1.144141026576e-04 8.468093165171e-05 0.0 
1.319289315900e-04 1.417922965551e-04 0.0 
3.713058032716e-04 1.351499946267e-03 0.0 
4.098896782392e-05 -7.512869242114e-05 0.0 
2.082299835366e-04 7.517624110156e-05 0.0 
3.857109470773e-04 1.408171322790e-03 0.0 
3.410713078246e-04 1.374151558938e-03 0.0 
3.157983609675e-04 1.276901257506e-03 0.0 
4.713565948199e-04 7.828731958321e-04 0.0 
1.645397966734e-05 1.731176985945e-04 0.0 
2.498857279368e-04 5.843513041764e-04 0.0 
1.211461544730e-05 -5.101028069319e-06 0.0 
1.225670094519e-04 1.078078396315e-03 0.0 
4.075910940632e-04 5.140565598597e-04 0.0 
2.497133992971e-04 5.110058490699e-04 0.0 
-2.675116099063e-04 4.258688595523e-04 0.0 
3.716131423449e-04 1.439727840970e-03 0.0 
2.270602945353e-04 6.477001452114e-05 0.0 
5.708881144922e-06 -1.074167458501e-04 0.0 
9.320960033731e-05 1.993995141118e-04 0.0 
2.302876462505e-04 8.064020430807e-04 0.0 
1.691425273498e-04 -3.037991300677e-05 0.0 
2.366110614467e-04 7.343055286316e-05 0.0 
2.449840985438e-04 1.148613079555e-03 0.0 
2.043719270118e-04 1.032805627240e-03 0.0 
1.101837976478e-04 3.059999692387e-05 0.0 
1.009925224594e-04 -6.767449170601e-05 0.0 
4.634775287270e-04 9.649652103872e-04 0.0 
3.618822409872e-04 1.099339745002e-03 0.0 
2.143091132177e-04 7.350448896819e-04 0.0 
3.319123789377e-04 1.127341619159e-03 0.0 
3.305575691518e-04 1.265794148966e-03 0.0 
4.120650893694e-04 2.927579204385e-04 0.0 
2.865832370300e-04 4.206479495807e-04 0.0 
-1.790150466024e-04 3.697670322191e-04 0.0 
3.639769480036e-04 1.425998634009e-03 0.0 
4.115015376041e-04 1.305864988456e-03 0.0 
4.565950903222e-04 1.042757438428e-03 0.0 
2.260140038785e-04 5.170654127861e-04 0.0 
3.901398888476e-05 3.816988202133e-04 0.0 
2.288971661296e-04 5.576810046449e-05 0.0 
6.157750242148e-05 1.298392992259e-03 0.0 
4.216367689270e-04 5.762094460823e-04 0.0 
2.258019196881e-04 4.481683644678e-05 0.0 
-3.707787749669e-06 -9.738945331208e-05 0.0 
2.089874192703e-04 6.626951762569e-04 0.0 
-7.327598168142e-06 -9.895984829210e-05 0.0 
8.779927756050e-06 -1.090956998811e-04 0.0 
1.292580063235e-04 1.218446906877e-03 0.0 
8.051719033315e-05 -7.297116566777e-05 0.0 
1.899547877093e-04 5.917399475329e-04 0.0 
7.285642454732e-05 -7.145989735763e-05 0.0 
2.219819497008e-04 8.168564678352e-04 0.0 
6.323959220255e-05 1.796375785280e-05 0.0 
3.405725727598e-05 -7.823194152965e-05 0.0 
2.293102869522e-04 8.004568081520e-05 0.0 
3.545368512659e-04 1.175692468741e-03 0.0 
2.140030221536e-05 1.476305939116e-06 0.0 
-2.309290952595e-04 3.740188448343e-04 0.0 
3.094498037714e-04 7.842518830605e-04 0.0 
4.500295632675e-04 5.376748616684e-04 0.0 
3.779651297446e-04 1.458425092419e-03 0.0 
2.395677019623e-04 6.459482270953e-05 0.0 
2.660817810844e-05 3.044323575751e-06 0.0 
2.590974890670e-04 6.546827725807e-04 0.0 
3.106849354188e-04 4.560389826786e-04 0.0 
2.208317040281e-04 7.157054823089e-05 0.0 
1.916429173168e-05 -2.855083732827e-05 0.0 
4.398345159750e-04 1.035301516081e-03 0.0 
2.396622701540e-04 7.331100569577e-04 0.0 
1.752204840080e-04 1.195149087498e-04 0.0 
4.370777810892e-04 4.825461219571e-04 0.0 
2.771151914339e-04 8.520628340225e-04 0.0 
3.268935782288e-04 9.883391697342e-04 0.0 
1.748877205416e-05 7.610496607380e-05 0.0 
4.733342070764e-04 9.253749438510e-04 0.0 
4.399615948955e-04 3.363873485470e-04 0.0 
4.626971318401e-05 1.177020490022e-03 0.0 
1.347210261430e-05 -2.678756054489e-05 0.0 
3.172910609443e-04 1.137779104236e-03 0.0 
3.277171275968e-04 5.197901574493e-04 0.0 
1.315508496257e-04 3.650761485820e-04 0.0 
2.565586806326e-05 9.472781418090e-05 0.0 
1.786122902478e-04 5.919687270613e-04 0.0 
3.526416563883e-04 1.038779830247e-03 0.0 
4.486250729928e-04 9.277502546960e-04 0.0 
1.592311532539e-04 5.204679412626e-04 0.0 
2.624048989829e-04 5.806850193280e-04 0.0 
4.195806066510e-04 1.016290426156e-03 0.0 
3.038750729620e-05 4.492234206812e-06 0.0 
4.309956922388e-04 3.043320985127e-04 0.0 
3.964056062697e-04 9.867100016965e-04 0.0 
4.877498538822e-04 7.136712883544e-04 0.0 
4.314054706155e-04 3.054761813419e-04 0.0 
2.107005429965e-04 3.546446872275e-04 0.0 
2.241471764052e-04 1.243054267844e-03 0.0 
4.258102879524e-04 3.927110079569e-04 0.0 
2.219691388478e-04 1.267085031838e-04 0.0 
2.462705357869e-04 6.577016713237e-04 0.0 
-2.408745260696e-04 3.313788197857e-04 0.0 
3.085261897744e-04 1.071619126571e-03 0.0 
3.304824609457e-04 4.188257671465e-04 0.0 
2.929659623527e-04 6.945496623470e-04 0.0 
1.966084688958e-04 3.041615533357e-04 0.0 
3.285057752710e-04 9.146730305487e-04 0.0 
-3.188579285567e-06 -7.256486267712e-05 0.0 
4.152731677187e-04 1.327153518153e-03 0.0 
4.180176310541e-04 2.747459639161e-04 0.0 
3.377754797038e-04 1.051861981377e-03 0.0 
2.223096994549e-04 1.150571851930e-03 0.0 
-1.306400291536e-05 3.105611250194e-04 0.0 
2.356910402182e-04 1.575401482220e-04 0.0 
1.804507364113e-04 8.564745099224e-05 0.0 
3.834417928981e-04 1.403245565182e-03 0.0 
2.526384017651e-04 7.304184537730e-04 0.0 
4.258524616500e-04 1.273356557975e-03 0.0 
4.073090689213e-04 3.811302669844e-04 0.0 
4.166824383620e-04 4.708606474955e-04 0.0 
3.255195727849e-05 3.284379579789e-04 0.0 
4.892410100759e-04 6.524932832205e-04 0.0 
9.025358115700e-05 7.334512010125e-04 0.0 
3.280590366150e-05 7.599959445023e-05 0.0 
4.283480456860e-05 7.919711781623e-05 0.0 
4.759702604674e-04 8.518206973713e-04 0.0 
2.700776803891e-04 4.333222963862e-04 0.0 
2.252235019467e-04 5.840287576846e-04 0.0 
3.987131883172e-04 9.122385334880e-04 0.0 
2.418717243240e-04 4.710817331272e-04 0.0 
1.923789149078e-04 1.126868342257e-04 0.0 
4.265502465513e-04 1.066096856768e-03 0.0 
2.926588505346e-05 1.988719150827e-04 0.0 
3.796706028989e-04 4.972013969616e-04 0.0 
4.190464334213e-04 3.188598128644e-04 0.0 
1.427116620210e-04 6.834933538051e-04 0.0 
4.035736245588e-05 1.318139172921e-05 0.0 
2.587400676281e-04 5.387562789709e-04 0.0 
4.454000099422e-04 9.585314742546e-04 0.0 
7.587880077696e-05 2.941211304534e-04 0.0 
3.259699833444e-04 1.204163555285e-04 0.0 
4.401641931267e-04 4.405282551091e-04 0.0 
1.961897472039e-04 7.370879199656e-05 0.0 
3.768309671394e-04 1.082034920181e-03 0.0 
4.536464906785e-05 5.952438114522e-05 0.0 
3.758321614588e-04 4.016112932286e-04 0.0 
4.067332391336e-04 2.468988847047e-04 0.0 
1.272887574642e-04 5.998912943271e-04 0.0 
1.487113420645e-04 8.776219733147e-04 0.0 
2.372754866284e-04 5.348600358248e-05 0.0 
3.364227096185e-04 9.835552010659e-04 0.0 
1.483524882139e-04 9.514976891127e-04 0.0 
5.583854386706e-05 5.384462386101e-05 0.0 
2.081240108365e-04 4.914274185839e-05 0.0 
4.564806293700e-05 6.691421329976e-05 0.0 
1.819323317965e-04 9.571969468198e-04 0.0 
2.998575140995e-04 5.644130930473e-04 0.0 
2.506483407593e-04 1.038869076506e-03 0.0 
3.745323306680e-04 1.217127815332e-03 0.0 
3.820243179706e-04 1.006250583893e-03 0.0 
3.705954463471e-04 9.487434191262e-04 0.0 
4.843773653954e-04 9.117200173213e-04 0.0 
5.890503312781e-05 4.666918690092e-05 0.0 
2.306588182762e-04 1.027724894097e-03 0.0 
3.100526397231e-04 1.212156785386e-03 0.0 
4.012676313685e-04 4.172620396750e-04 0.0 
5.804100529294e-05 -7.649140351667e-05 0.0 
3.486247042916e-04 1.313570317953e-03 0.0 
3.647273356084e-04 9.033158404389e-04 0.0 
4.107793428875e-05 1.312870788786e-03 0.0 
1.839411939213e-04 5.107939970611e-05 0.0 
3.633264772880e-04 4.383547381511e-04 0.0 
2.132865341839e-04 5.901513404768e-04 0.0 
3.523236706339e-04 8.102012416859e-04 0.0 
3.840379059024e-04 1.139603007892e-03 0.0 
3.915524878797e-04 2.211992322447e-04 0.0 
2.346753312530e-04 1.952410091491e-05 0.0 
5.481980050138e-05 3.283278845272e-05 0.0 
3.757106659343e-04 1.386687105570e-03 0.0 
2.314940038010e-04 2.119566744127e-04 0.0 
1.667590638377e-04 -2.913773657035e-05 0.0 
3.424000187292e-04 1.292834054661e-03 0.0 
3.438350661430e-04 1.086658540385e-03 0.0 
2.228611378540e-04 4.462086809282e-04 0.0 
4.362047390275e-04 9.135136906107e-04 0.0 
3.907331039837e-04 1.420315452074e-03 0.0 
3.774093931726e-04 1.274597281227e-03 0.0 
5.268395855684e-05 2.234602563173e-05 0.0 
1.315648333521e-04 5.883536167148e-05 0.0 
2.116809134815e-04 4.486019597959e-04 0.0 
2.212603483742e-04 6.616918711864e-04 0.0 
2.412260938737e-04 2.253421821995e-05 0.0 
4.543071931651e-04 1.124647438499e-03 0.0 
2.535837491723e-04 3.761427885374e-04 0.0 
3.134836573131e-04 3.647137881373e-04 0.0 
4.568600463659e-04 9.255770766955e-04 0.0 
3.412044374802e-04 1.348306600946e-04 0.0 
1.207992774488e-04 -5.254331921394e-05 0.0 
1.791553498744e-04 4.517869376985e-04 0.0 
2.177413048826e-04 1.754728447307e-04 0.0 
4.888842174964e-04 8.835559717300e-04 0.0 
4.056626396263e-04 1.040916896387e-03 0.0 
4.745338841845e-04 9.780960154192e-04 0.0 
4.450246020982e-05 7.294204590871e-05 0.0 
3.889151951246e-05 8.024694964584e-05 0.0 
9.837506398149e-05 1.990884992374e-04 0.0 
2.405346647546e-04 2.704741467036e-05 0.0 
1.489975172308e-04 5.191893658038e-04 0.0 
2.916844323066e-04 9.582515532750e-04 0.0 
3.589599489322e-04 3.512209472852e-04 0.0 
1.207600027717e-04 3.132531868126e-04 0.0 
4.247493717733e-04 1.288040998792e-03 0.0 
2.022539144821e-04 1.247982096687e-03 0.0 
1.704752314459e-04 9.563405664900e-04 0.0 
1.016102024876e-04 3.419569928147e-05 0.0 
2.456499314251e-04 4.414440033433e-04 0.0 
3.122656062928e-04 9.976588298515e-04 0.0 
3.711951742710e-04 8.752652809838e-04 0.0 
1.543295419283e-04 2.846778116658e-04 0.0 
-1.353890788118e-05 -3.908493629006e-05 0.0 
4.743976515653e-04 5.993032757757e-04 0.0 
4.923649582902e-04 7.923450115515e-04 0.0 
4.832547204154e-04 5.993196380826e-04 0.0 
-1.099930275235e-04 6.950700411680e-04 0.0 
3.842343002219e-05 1.138407436351e-03 0.0 
4.827021153766e-05 -7.413879734013e-05 0.0 
3.209176261041e-04 6.400099289076e-04 0.0 
2.131903852328e-05 7.271485883240e-06 0.0 
3.838185010324e-04 2.372827822050e-04 0.0 
2.962054057303e-04 1.219467333206e-03 0.0 
3.330720255715e-06 -1.154993710402e-04 0.0 
4.768708532278e-04 9.581509445514e-04 0.0 
4.647450569704e-04 5.441206723380e-04 0.0 
3.429075312746e-04 9.033838526032e-04 0.0 
4.950706126119e-05 5.836565153114e-05 0.0 
3.599800021836e-04 1.235912451360e-03 0.0 
4.120592201830e-04 8.906323038465e-04 0.0 
1.320820063320e-04 -4.808446842939e-05 0.0 
1.805224200454e-04 5.211417446176e-04 0.0 
2.308800361251e-04 2.411507522330e-05 0.0 
5.424221846932e-05 5.791667827263e-05 0.0 
2.311593735578e-05 3.573569749065e-05 0.0 
1.536266586359e-05 3.774341420256e-05 0.0 
2.144828171456e-05 4.199076939816e-05 0.0 
3.417297838742e-04 8.306989062715e-04 0.0 
1.915812374160e-04 5.205564426320e-04 0.0 
2.043094756886e-04 3.789047890713e-04 0.0 
4.697166156446e-04 1.039474105978e-03 0.0 
4.460713085202e-04 1.184127355940e-03 0.0 
1.014730405266e-04 -6.293569133556e-05 0.0 
1.898158758642e-04 4.510770454100e-04 0.0 
5.764258595611e-05 5.037344417153e-05 0.0 
1.486779272360e-04 4.506877656302e-04 0.0 
4.126561568655e-04 2.723301740855e-04 0.0 
1.586266965659e-04 4.515903485137e-04 0.0 
4.096879480511e-04 4.495951990062e-04 0.0 
4.933427353313e-04 8.118165592739e-04 0.0 
4.123186448418e-04 1.332947406869e-03 0.0 
1.711511970754e-04 5.549225527329e-04 0.0 
4.165638703892e-05 1.620685857902e-04 0.0 
4.642707811499e-04 9.927302598520e-04 0.0 
1.843821296986e-04 1.683413166000e-04 0.0 
1.119932339667e-04 -5.925239811185e-05 0.0 
1.481159802962e-04 2.020501662418e-05 0.0 
7.949571631900e-05 2.557596398761e-05 0.0 
3.752830710797e-04 7.443947390149e-04 0.0 
2.253212558122e-05 3.117851580911e-05 0.0 
7.009720968384e-05 1.505630557906e-04 0.0 
4.365327090204e-04 8.406853735048e-04 0.0 
-3.301450754572e-05 -3.693907519898e-05 0.0 
2.667453777456e-05 3.001978619504e-05 0.0 
9.195389425736e-05 3.561711238756e-05 0.0 
1.584666467597e-04 3.959160580645e-05 0.0 
3.850941663877e-04 2.196571250455e-04 0.0 
5.617313571325e-05 3.076428485576e-05 0.0 
-5.097747708995e-05 -4.357926816208e-05 0.0 
4.846617229357e-04 9.004373236576e-04 0.0 
4.109287494679e-04 8.184225841985e-04 0.0 
4.584688776811e-04 8.521913918984e-04 0.0 
4.236696051601e-04 9.404773018240e-04 0.0 
2.425099864384e-04 6.645602291538e-04 0.0 
2.827086317231e-05 2.594773178342e-05 0.0 
3.911733029682e-04 3.350351124006e-04 0.0 
-1.065015832512e-05 2.599836688811e-04 0.0 
3.915543700121e-05 5.674205801508e-06 0.0 
-3.649114114283e-05 -4.627705650281e-05 0.0 
3.919817974487e-04 1.305491297209e-03 0.0 
2.199684634635e-05 4.913430173550e-05 0.0 
3.343059566249e-04 1.328532292531e-03 0.0 
4.791113948464e-05 1.851406708244e-05 0.0 
2.953331034401e-05 2.224347451281e-05 0.0 
3.561615109169e-04 9.639678406593e-04 0.0 
-2.023975479551e-05 3.329755861037e-05 0.0 
-5.009418802215e-05 2.440270084684e-04 0.0 
8.875240070800e-06 3.076237334473e-05 0.0 
1.186706225798e-04 1.222938706027e-05 0.0 
2.138079873506e-04 1.292190591588e-03 0.0 
2.890186122525e-04 1.152889303384e-03 0.0 
2.747185129166e-05 1.717780441700e-05 0.0 
1.920814780854e-04 1.296299625365e-03 0.0 
2.868837125777e-05 7.439559832461e-05 0.0 
3.901327531655e-04 3.982343923553e-04 0.0 
1.581983305985e-04 1.030299280942e-03 0.0 
3.765640708516e-04 1.190743243837e-03 0.0 
3.949134434529e-04 2.429409876749e-04 0.0 
9.313167923723e-05 3.992049544572e-04 0.0 
2.882518650353e-05 1.510930082004e-05 0.0 
2.138652285404e-05 3.720634841806e-05 0.0 
1.744323779790e-05 3.825618024767e-05 0.0 
2.174169942523e-04 1.510244868793e-05 0.0 
8.308590546814e-05 -7.219222071977e-05 0.0 
4.944129796807e-04 7.594519674664e-04 0.0 
2.069792916064e-04 1.356175605865e-05 0.0 
2.811042144521e-05 1.247233600611e-05 0.0 
3.039782158711e-04 5.647480170006e-04 0.0 
2.361769316118e-04 1.125220796193e-04 0.0 
2.331308799780e-04 7.559086396638e-05 0.0 
1.377025309664e-04 9.481861462585e-04 0.0 
3.645613501193e-05 1.091167517256e-05 0.0 
-3.025029067456e-05 1.665765435713e-05 0.0 
2.333760237300e-05 8.640377456819e-06 0.0 
1.961456460311e-04 4.218113571160e-05 0.0 
2.283252348663e-05 2.834586533611e-05 0.0 
2.148671239900e-04 3.772485738102e-04 0.0 
-6.551211642303e-05 -3.088248068798e-05 0.0 
4.907275880645e-04 7.710014243997e-04 0.0 
1.296582686348e-04 4.469228416731e-04 0.0 
2.756768069476e-05 2.789689207760e-05 0.0 
3.555834914404e-04 8.178047561852e-04 0.0 
3.695613315302e-04 3.314751138802e-04 0.0 
6.684025995214e-05 5.697169344756e-04 0.0 
1.464344518695e-04 5.437883740967e-05 0.0 
1.930674526338e-04 1.694164144801e-05 0.0 
2.191993608273e-04 5.383964030293e-05 0.0 
-7.523286300152e-05 3.963785603626e-05 0.0 
2.937172278380e-05 2.442571238811e-05 0.0 
1.792124628830e-04 3.869839073269e-04 0.0 
1.949815046010e-04 4.929124946518e-05 0.0 
1.559154324169e-04 1.112079297858e-03 0.0 
1.216206964963e-04 -4.104317637160e-05 0.0 
2.223257184644e-04 8.656175166550e-05 0.0 
3.849316279421e-04 8.583009775424e-04 0.0 
2.734794920972e-05 1.565498403572e-05 0.0 
8.137287386092e-05 -6.887067741186e-05 0.0 
2.186000332733e-04 3.262283074791e-05 0.0 
4.816163873220e-04 7.434203808256e-04 0.0 
2.996573294743e-04 8.395184860726e-05 0.0 
2.620777241944e-04 1.263006970903e-04 0.0 
2.330416685300e-04 3.051925988191e-05 0.0 
4.830910840748e-04 8.115677876845e-04 0.0 
3.934009858729e-04 5.145098748890e-04 0.0 
3.619131924160e-04 2.094670964635e-04 0.0 
4.917891115987e-04 7.254783713049e-04 0.0 
1.454666308509e-04 -4.461928893808e-05 0.0 
3.603608679686e-04 6.639056469500e-04 0.0 
9.280756834592e-05 -6.920085649033e-05 0.0 
3.924033515444e-04 3.775734202797e-04 0.0 
4.075600817938e-04 2.453426868225e-04 0.0 
4.465664089628e-05 1.591186334006e-05 0.0 
1.272288451455e-04 3.814843799213e-04 0.0 
1.038637673518e-04 -4.840173137868e-05 0.0 
2.457353711164e-05 9.873689625624e-06 0.0 
1.085331672469e-04 4.027306390177e-05 0.0 
4.815532194539e-04 5.465478335683e-04 0.0 
-5.498918314812e-05 1.926259802081e-05 0.0 
3.329298618166e-05 9.169749261270e-06 0.0 
1.549421803015e-04 3.853392490789e-04 0.0 
1.612292206920e-04 1.288210885441e-05 0.0 
1.903832393260e-05 5.909905845967e-06 0.0 
2.077761208679e-04 1.958316290040e-05 0.0 
4.428288628694e-04 1.202020399431e-03 0.0 
2.941009750755e-04 1.079418777898e-03 0.0 
4.184346953376e-04 2.720456832047e-04 0.0 
2.207197315113e-04 9.536665425127e-06 0.0 
3.128380624248e-04 1.041160174289e-04 0.0 
2.433678740830e-04 8.054705154270e-04 0.0 
4.200138972123e-04 1.194397416523e-03 0.0 
3.513982293703e-04 2.185107683806e-04 0.0 
3.626958515418e-05 1.052693300416e-03 0.0 
1.339192969150e-04 -5.018937980319e-05 0.0 
3.657887063552e-04 1.951318613656e-04 0.0 
1.807329823391e-04 1.364669431568e-06 0.0 
1.148848492750e-04 -2.156631017800e-05 0.0 
-8.277494272337e-05 -4.827758697998e-06 0.0 
4.072354312453e-04 7.623283720797e-04 0.0 
1.837843392653e-04 2.337043404218e-05 0.0 
1.178417009877e-04 -4.973766435010e-05 0.0 
4.892756291396e-04 5.884901757414e-04 0.0 
2.203754559187e-04 2.752804018828e-05 0.0 
1.361333707890e-04 1.021275490001e-03 0.0 
1.506210883917e-04 -3.184575331692e-06 0.0 
1.741781107933e-05 5.001769326596e-06 0.0 
4.228671044379e-04 7.954392650702e-04 0.0 
1.028889922202e-04 -4.998629959395e-05 0.0 
4.473368112502e-04 8.123174723517e-04 0.0 
1.068016205892e-04 -5.331614310779e-05 0.0 
-6.532608195137e-05 -2.056976388214e-05 0.0 
2.837074930351e-04 1.012041275138e-03 0.0 
2.841897545048e-05 -8.205771139432e-05 0.0 
-9.134102472597e-06 -1.035392762230e-04 0.0 
8.563722295048e-05 -5.913022505064e-05 0.0 
2.031363077220e-04 2.944224074446e-05 0.0 
3.737929066301e-05 4.619115728168e-04 0.0 
3.263341158343e-04 1.114290173008e-04 0.0 
3.137099670397e-04 9.966574720913e-05 0.0 
2.877228189802e-04 1.293142838038e-03 0.0 
1.926117285564e-04 1.390014366449e-03 0.0 
4.974721093733e-05 1.509555185336e-04 0.0 
4.677224134333e-04 8.180252791104e-04 0.0 
-9.234263465267e-06 -1.056360595378e-04 0.0 
3.115093368369e-05 -8.455285318622e-05 0.0 
-4.316311021494e-05 -1.205880752772e-05 0.0 
9.513100491722e-05 -6.713827794959e-05 0.0 
2.717579813470e-04 3.521248000191e-04 0.0 
4.268603679262e-05 4.667228405234e-04 0.0 
1.263478095565e-04 9.542747110344e-06 0.0 
8.861130310340e-05 -7.776484600399e-05 0.0 
1.041870012826e-04 -2.460168687133e-05 0.0 
1.715814727066e-04 4.229908691609e-05 0.0 
6.943355688567e-05 2.484633771446e-04 0.0 
2.011125871667e-05 -8.269409670214e-05 0.0 
1.326137103724e-05 -9.498545911438e-05 0.0 
3.092810599071e-05 7.782800369513e-06 0.0 
1.587517510233e-05 4.167979934674e-06 0.0 
2.146720430387e-05 -7.358896025172e-05 0.0 
9.210309836940e-05 -5.285675968994e-05 0.0 
2.131160231400e-04 8.047352645200e-06 0.0 
1.619084930158e-04 4.603504190537e-05 0.0 
4.020765693451e-05 -8.666755503506e-05 0.0 
1.779905767868e-04 3.694513190617e-05 0.0 
5.700104097832e-06 -1.108868303578e-04 0.0 
8.886049982223e-05 -6.274871304220e-05 0.0 
1.251820410117e-04 -4.295644193034e-05 0.0 
1.769251324318e-06 -1.136930511978e-04 0.0 
1.691811369224e-05 -7.828295446100e-05 0.0 
1.184428225675e-04 3.789980314229e-04 0.0 
-5.778728105769e-06 -1.100732858940e-04 0.0 
2.131786520482e-04 1.380058243644e-03 0.0 
2.230535300059e-04 1.419333998796e-03 0.0 
3.213584770957e-04 1.226807502505e-04 0.0 
6.568176537626e-06 -9.560104167274e-05 0.0 
1.608417366702e-04 -8.273222160372e-06 0.0 
2.038605861239e-04 7.190560836800e-04 0.0 
8.092059757704e-05 8.233512683316e-06 0.0 
1.102372877666e-04 9.938206346665e-05 0.0 
7.731390141868e-05 5.613334546808e-04 0.0 
3.772698939240e-04 1.096113939402e-03 0.0 
8.632495713702e-06 -7.788539116703e-05 0.0 
3.917704489582e-04 1.251115971132e-03 0.0 
1.359628012078e-04 1.393551686984e-03 0.0 
1.272657050298e-04 1.440227438480e-03 0.0 
-5.608184801272e-06 -1.084694372839e-04 0.0 
1.266781606352e-06 -1.109411210595e-04 0.0 
4.275427433032e-06 -1.156670642324e-04 0.0 
6.123818564364e-05 -8.862826510068e-05 0.0 
5.135120274705e-07 -1.147901697287e-04 0.0 
1.778490209931e-05 -6.866770871808e-05 0.0 
-1.239678247457e-04 8.774988016375e-05 0.0 
7.720314459797e-05 -8.316867347116e-05 0.0 
3.215229029290e-05 8.844384517960e-04 0.0 
1.821645613498e-04 1.437261721664e-03 0.0 
2.300661192955e-04 3.102400267642e-04 0.0 
1.947017904150e-04 1.788313885591e-05 0.0 
2.898966075441e-05 1.018761878491e-03 0.0 
3.581254665187e-06 -9.182501463741e-05 0.0 
3.945964293969e-06 -1.152801495097e-04 0.0 
6.256235577110e-06 4.030231526630e-05 0.0 
1.425021590824e-05 8.391003900453e-05 0.0 
1.445004298549e-04 1.106367049771e-03 0.0 
1.542272530631e-04 1.395821712240e-03 0.0 
1.791881196116e-05 -9.088965334612e-05 0.0 
9.323291872130e-06 7.965983767879e-05 0.0 
7.275281354977e-05 -8.395668052989e-05 0.0 
2.021548296506e-04 1.429564489828e-03 0.0 
1.728920475660e-04 1.395379806322e-03 0.0 
3.493244060482e-04 1.373626470837e-03 0.0 
1.332570539418e-05 3.665218412205e-05 0.0 
1.127119523857e-05 7.939382926780e-05 0.0 
-1.698198573286e-07 -1.123763792055e-04 0.0 
-3.184178231971e-06 -1.120827205645e-04 0.0 
1.962696151903e-05 -8.771780824488e-05 0.0 
1.367883679418e-04 -3.868595039451e-05 0.0 
8.326957150632e-06 -8.808556303101e-07 0.0 
-1.517911650014e-04 1.156254183920e-04 0.0 
1.007951907284e-05 5.833570700719e-04 0.0 
-1.013788410423e-04 4.379044898186e-05 0.0 
2.966376399754e-04 9.275614479090e-05 0.0 
-1.027357207671e-04 2.728743362587e-05 0.0 
-1.254960618310e-04 6.718322394631e-05 0.0 
2.860745516707e-04 7.498261869604e-05 0.0 
3.309951000067e-05 -6.004710228319e-07 0.0 
2.700341173380e-05 9.343589980976e-04 0.0 
4.174877600779e-04 1.144766824344e-03 0.0 
1.685867584468e-06 -1.156464747252e-04 0.0 
8.587412187910e-05 -2.388866150463e-05 0.0 
2.242655216132e-06 4.750738053532e-05 0.0 
4.417720572811e-06 8.049195161091e-05 0.0 
1.631230630186e-04 1.440417241843e-03 0.0 
3.024391589799e-04 1.087824905815e-04 0.0 
5.014959661458e-06 3.909151400151e-05 0.0 
3.698342652367e-04 3.131001979419e-04 0.0 
2.463664428307e-06 -1.165518963045e-04 0.0 
6.104289531950e-07 -1.164542367436e-04 0.0 
1.058762657970e-06 -1.169727436003e-04 0.0 
4.077739667866e-06 -8.323885220988e-05 0.0 
6.702020743604e-06 9.887537451039e-07 0.0 
1.204953464488e-06 2.187947976330e-04 0.0 
-8.071679276975e-07 -1.164695028613e-04 0.0 
9.158071819817e-06 -6.856690741357e-05 0.0 
2.271411720775e-06 3.682828092831e-07 0.0 
9.465431436568e-06 1.360417680385e-06 0.0 
2.870622768869e-05 6.609199736908e-06 0.0 
5.668767734759e-06 7.294181312846e-04 0.0 
2.218017127124e-06 5.097647310811e-04 0.0 
4.430609022829e-06 6.204709358208e-07 0.0 
5.034822413739e-06 7.399467445644e-07 0.0 
4.935199263201e-06 5.834224147854e-04 0.0 
-9.564230609222e-07 -1.169836730001e-04 0.0 
9.502910913299e-05 1.442007988985e-03 0.0 
1.450907411307e-04 1.441261649824e-03 0.0 
-1.660552460715e-06 -1.146882279190e-04 0.0 
8.317890066436e-06 1.465826125064e-06 0.0 
2.718856673005e-05 5.695806517621e-06 0.0 
1.353526992973e-05 2.701427215552e-06 0.0 
-1.905793784609e-06 -1.155597990331e-04 0.0 
-3.419171538510e-06 -1.132974507472e-04 0.0 
1.505293088837e-05 3.614820434839e-06 0.0 
1.365329680032e-05 2.994379302070e-06 0.0 
2.951585598682e-06 8.045690739343e-04 0.0 
4.936413202084e-05 1.443525446324e-03 0.0 
2.717182136077e-06 6.556162360807e-04 0.0 
3.620869411242e-06 1.100551134964e-03 0.0 
2.103748363190e-05 1.442976511056e-03 0.0 
-1.401292414538e-05 -9.966854671079e-05 0.0 
-2.843415158283e-05 -8.145624301036e-05 0.0 
-3.842657368448e-05 -6.837193856856e-05 0.0 
-5.085712118474e-05 -5.168520647176e-05 0.0 
4.706854047879e-06 -6.349638787804e-05 0.0 
4.451217771938e-06 -7.371313572201e-05 0.0 
-2.861157843657e-05 -7.652776913623e-05 0.0 
4.996183774556e-06 -3.316464917343e-05 0.0 
-3.872014304711e-05 -6.192159955089e-05 0.0 
1.072143079908e-05 3.830472528348e-05 0.0 
4.308332210672e-06 4.056832367728e-05 0.0 
7.993980331130e-06 4.360772373824e-05 0.0 
1.388454239302e-06 -1.141396213517e-04 0.0 
2.986921872438e-06 -9.929194502424e-05 0.0 
4.088999070380e-06 4.881520939677e-05 0.0 
3.500470051582e-06 -7.947908461576e-06 0.0 
2.175065356679e-06 3.298457107559e-05 0.0 
2.575530502437e-06 -2.772200810002e-06 0.0 
1.568887005443e-06 1.254546197144e-07 0.0 
8.528957439804e-06 -7.850793123581e-05 0.0 
8.397331281052e-06 8.938353307404e-05 0.0 
6.264064427059e-06 8.179978047236e-05 0.0 
6.076000554019e-06 -5.154743123818e-06 0.0 
4.144417507880e-06 -9.693907351722e-07 0.0 
5.138174269800e-05 -2.038892271267e-05 0.0 
-8.208235201621e-05 8.070293846693e-06 0.0 
7.184028446643e-05 -7.120279165217e-05 0.0 
-1.577033463794e-06 -1.090436138084e-04 0.0 
7.544355016640e-05 6.351912883882e-06 0.0 
9.923900361012e-05 -5.980509119534e-05 0.0 
5.941448798039e-05 -5.807879101870e-06 0.0 
5.520772353340e-05 -8.863822887788e-05 0.0 
7.646925406433e-06 -1.051075395775e-04 0.0 
4.137072535607e-05 -1.999618219929e-06 0.0 
7.541238433292e-05 -6.148499880832e-05 0.0 
1.530335712942e-05 -8.726440167077e-05 0.0 
5.215247447302e-05 -7.189816907663e-06 0.0 
1.376921766986e-05 3.700925563850e-04 0.0 
7.658994333054e-06 -8.758418040370e-05 0.0 
1.972926209805e-04 3.301439081319e-05 0.0 
1.481219150847e-04 -1.010837670670e-05 0.0 
6.055210129200e-05 -1.892602324105e-05 0.0 
4.415393021856e-05 -1.685871813491e-05 0.0 
3.682596528887e-04 3.207765391478e-04 0.0 
4.060812562665e-04 1.276074981895e-03 0.0 
4.925300722940e-04 6.453792908473e-04 0.0 
9.596738626073e-05 -2.149230430346e-05 0.0 
3.718392236157e-05 -5.956827237908e-06 0.0 
2.909003749789e-05 -1.442045036981e-05 0.0 
7.957986778585e-05 -6.383729639304e-05 0.0 
2.606566389442e-05 3.815908580279e-04 0.0 
3.346798403713e-05 5.283860992527e-04 0.0 
6.356425203044e-05 1.219262114557e-03 0.0 
1.070250647591e-04 -1.329246373130e-05 0.0 
7.780352162880e-05 -2.052582751543e-05 0.0 
1.779968261801e-05 3.777853593632e-04 0.0 
2.284030472286e-05 4.534577050055e-04 0.0 
1.575622125986e-04 -1.157016275853e-05 0.0 
2.812458493777e-05 -1.360197787975e-06 0.0 
7.016097618985e-05 5.568159155331e-04 0.0 
2.069185573499e-05 -1.491608780080e-05 0.0 
5.573327808454e-05 4.617258763982e-06 0.0 
3.037106227499e-05 3.853069489823e-04 0.0 
5.950578477299e-05 7.635151667182e-04 0.0 
1.918373999145e-04 2.264742614034e-05 0.0 
2.950187027674e-05 -1.044051936258e-04 0.0 
7.506755191074e-05 -5.178971923867e-05 0.0 
8.585367078974e-06 -8.453631735258e-05 0.0 
-6.048179243797e-05 4.198051187231e-06 0.0 
2.761871966543e-05 4.533036805828e-04 0.0 
2.987816758073e-05 -3.793761452061e-06 0.0 
-4.731480902117e-05 -2.392857005240e-05 0.0 
1.843019924727e-04 3.837342862663e-04 0.0 
7.464754260007e-05 1.145055616201e-03 0.0 
6.880156745781e-05 -8.115548714341e-06 0.0 
3.775057732261e-05 -9.502367335255e-06 0.0 
1.574402000544e-04 -2.469243562302e-05 0.0 
3.049855679040e-05 -1.040892747433e-05 0.0 
7.185927264002e-05 1.221828709924e-03 0.0 
3.537026748042e-04 1.906000382536e-04 0.0 
4.255742363728e-05 4.290687480847e-06 0.0 
1.546093811554e-05 -1.078192784247e-04 0.0 
7.019731314269e-05 9.068507666837e-06 0.0 
4.583103921522e-05 6.817776870702e-04 0.0 
2.520827013772e-05 -1.037763686204e-04 0.0 
9.602459449018e-05 -5.765653376492e-05 0.0 
4.155685158915e-05 -5.190714606917e-05 0.0 
8.149604200983e-05 9.233607921113e-04 0.0 
8.384981051658e-05 -7.780578795571e-05 0.0 
3.381573163516e-05 5.995834696366e-04 0.0 
5.151901548926e-05 8.316513048058e-04 0.0 
8.744464045023e-05 -4.910469419596e-05 0.0 
3.538450081932e-05 -1.793933820575e-05 0.0 
4.511148742934e-05 -1.243327015990e-05 0.0 
3.943157661601e-05 6.765304744383e-04 0.0 
2.899394901076e-05 -1.047062978893e-04 0.0 
7.136665326742e-05 -5.749284425032e-05 0.0 
2.762663893381e-04 1.717651431856e-04 0.0 
5.204898590509e-05 6.145342103098e-04 0.0 
6.910307181018e-05 -6.743560104020e-05 0.0 
1.368028816458e-04 -1.436825457434e-05 0.0 
9.148746508187e-05 1.232827022758e-05 0.0 
5.222697762584e-05 7.588161224379e-04 0.0 
-4.785995588957e-05 2.029081021269e-04 0.0 
9.318047478687e-06 -9.891123313168e-05 0.0 
1.437472245681e-04 2.402130970238e-04 0.0 
4.370155507402e-05 -4.922410770920e-06 0.0 
6.638199842417e-05 8.408965109921e-04 0.0 
3.035541522368e-05 -4.313338731148e-05 0.0 
8.619808913688e-05 1.074557557013e-03 0.0 
1.641853131384e-04 3.703692482027e-05 0.0 
7.172214962190e-05 -4.730313128329e-05 0.0 
5.299575186730e-05 -1.115513619929e-05 0.0 
2.474187507152e-05 -1.057285741724e-04 0.0 
6.080610008847e-05 6.052583196065e-06 0.0 
7.693303396582e-05 -5.138600499866e-05 0.0 
1.988222125075e-05 -1.048858549926e-04 0.0 
6.144860927741e-05 -5.917063668116e-05 0.0 
7.483491741412e-05 -7.794977100324e-05 0.0 
6.992121862851e-05 -8.696258805728e-05 0.0 
4.004697618917e-05 -4.168746603374e-05 0.0 
-1.345937798422e-05 -9.707358396066e-05 0.0 
-1.990317508566e-05 -8.814183302096e-05 0.0 
6.829740265790e-05 -2.241517084002e-05 0.0 
2.782090408547e-05 -1.057882656162e-04 0.0 
9.711415935525e-05 -1.600188315749e-05 0.0 
1.165761396569e-04 -1.574750818394e-05 0.0 
1.236942897821e-04 -5.716021461382e-05 0.0 
1.291099499588e-04 -1.236640690184e-05 0.0 
6.013218303261e-05 4.808811749762e-04 0.0 
-4.355518920179e-05 4.245457321573e-04 0.0 
6.481687890121e-05 -7.687363546443e-05 0.0 
1.547283198334e-04 4.076393464779e-05 0.0 
2.179727591832e-05 -1.083430119461e-04 0.0 
7.981564895989e-05 9.964123870534e-04 0.0 
8.330251400428e-05 1.149761775153e-03 0.0 
3.668071784962e-05 -9.164655791297e-05 0.0 
1.156041343898e-04 1.710075125146e-05 0.0 
8.999607250347e-05 7.096521149893e-04 0.0 
3.205358378644e-05 -1.040214715155e-04 0.0 
6.186577507264e-05 4.163222320376e-04 0.0 
5.589775560152e-05 4.114722409217e-04 0.0 
3.939013074127e-05 -1.008486434291e-04 0.0 
4.021374756014e-04 1.184331093362e-03 0.0 
5.547233261682e-05 -9.247243237443e-05 0.0 
6.120855325052e-05 -1.411768470269e-05 0.0 
5.588999186351e-05 -4.478176758014e-05 0.0 
1.454723443637e-04 3.845573579084e-04 0.0 
5.402094991639e-05 4.762589816383e-04 0.0 
7.860202234604e-05 -1.537903023730e-05 0.0 
8.781939569086e-05 -1.325144308053e-05 0.0 
4.396379661566e-05 -9.254317087731e-05 0.0 
6.975235533366e-05 -1.246003502353e-05 0.0 
8.190177685010e-05 7.052544497402e-04 0.0 
4.588235089220e-05 -4.619213438367e-05 0.0 
7.431413768887e-05 8.457286577237e-04 0.0 
7.269971686618e-05 6.285928934665e-04 0.0 
4.338600866749e-04 3.319343899365e-04 0.0 
5.060852183747e-05 5.429008950005e-04 0.0 
5.578715525461e-05 -6.508923508133e-05 0.0 
6.146322409343e-05 -4.911150560018e-05 0.0 
5.849727123549e-05 -8.553003189908e-05 0.0 
1.324000717901e-04 -5.392331254529e-05 0.0 
7.464743376262e-05 7.731131694117e-04 0.0 
1.995391722968e-04 -7.196530737036e-06 0.0 
5.348471218325e-05 -9.460317971754e-05 0.0 
1.825563010525e-05 -9.286222246065e-05 0.0 
8.266490492000e-05 7.777255111532e-04 0.0 
5.970503455350e-05 -9.159476238977e-05 0.0 
7.424445353691e-05 1.064939599190e-05 0.0 
5.948846541608e-05 6.912884581121e-04 0.0 
7.682098340951e-05 -6.312030498816e-06 0.0 
8.580945099747e-05 3.044150447989e-05 0.0 
5.939588672188e-05 -6.936204488237e-05 0.0 
4.458981236041e-05 -9.850079412202e-05 0.0 
2.625266318502e-05 -9.467627027990e-05 0.0 
1.065315475396e-04 -8.201176912391e-06 0.0 
5.773582491101e-05 9.092672963548e-04 0.0 
9.518169177184e-06 -9.497697521877e-05 0.0 
7.506782393960e-05 -8.081187556660e-05 0.0 
1.569584071830e-05 -1.094020367509e-04 0.0 
9.010709258975e-05 9.280489309842e-04 0.0 
6.609848024167e-05 -8.029907150760e-05 0.0 
1.271945363743e-04 -1.233253048021e-05 0.0 
5.041624825574e-05 -8.715185074646e-05 0.0 
3.892315665414e-05 5.332779005323e-04 0.0 
7.268144345591e-05 -8.534977363989e-05 0.0 
1.356516887720e-04 1.755415921286e-06 0.0 
6.929615293631e-05 -6.119193641442e-05 0.0 
1.272408795310e-04 -6.889318815201e-06 0.0 
4.685733291436e-05 -5.625744541184e-05 0.0 
9.579039107507e-05 -6.188082909292e-06 0.0 
2.771915348198e-04 1.557314123848e-04 0.0 
1.965072878732e-05 -1.084208188709e-04 0.0 
6.929921568631e-05 1.065136210942e-03 0.0 
2.839267667868e-04 7.933664465987e-05 0.0 
4.843222629994e-04 9.371133343949e-04 0.0 
6.532000069877e-05 9.138134582609e-04 0.0 
9.319043962195e-05 -4.518027683106e-05 0.0 
1.182348098499e-04 8.675457488171e-04 0.0 
1.838709582538e-05 -1.096521846542e-04 0.0 
9.579146863389e-05 8.720362045639e-06 0.0 
2.908502427793e-04 9.515822322133e-05 0.0 
3.451284246505e-04 2.008131201789e-04 0.0 
4.492700378539e-05 3.339439176383e-04 0.0 
1.997485356992e-04 -1.050135245944e-07 0.0 
3.254945153846e-05 -1.023808409588e-04 0.0 
1.713205025712e-04 -7.029894259387e-08 0.0 
9.716378323487e-05 1.479412516819e-05 0.0 
1.499858754454e-04 -2.146537261061e-05 0.0 
8.698914463018e-05 -8.528929651235e-06 0.0 
6.669797514101e-05 6.960543140741e-04 0.0 
1.240295294936e-04 1.014543295833e-05 0.0 
1.489116994859e-04 -4.302999918639e-06 0.0 
1.236205901239e-04 1.091641078609e-03 0.0 
3.092540911657e-05 -1.002549483249e-04 0.0 
8.270033868413e-05 -8.004715999776e-05 0.0 
4.859109994070e-04 7.036770598286e-04 0.0 
1.161289655941e-04 -5.213009700023e-06 0.0 
4.535715056850e-04 1.151903716757e-03 0.0 
4.930782166756e-04 6.805057906087e-04 0.0 
9.955610964680e-05 7.865185246197e-04 0.0 
7.157174691353e-05 9.916971999345e-04 0.0 
1.259139821894e-04 1.017726020030e-03 0.0 
5.675606444733e-05 -5.487217174639e-05 0.0 
1.414821468021e-04 2.326363651390e-05 0.0 
1.942366894468e-04 6.236029663258e-06 0.0 
9.527547721963e-05 1.080102389943e-03 0.0 
1.700315239279e-04 3.091624924406e-04 0.0 
3.297740003472e-04 2.052922780471e-04 0.0 
1.376390092037e-04 -3.119666121271e-06 0.0 
6.551338631446e-05 6.240050995419e-04 0.0 
1.234050423819e-04 -5.889361445632e-05 0.0 
1.022209381256e-04 -7.026159377723e-05 0.0 
3.999289192852e-05 -9.638899558380e-05 0.0 
1.829645496271e-04 1.146271588577e-05 0.0 
9.333856686888e-05 -7.195231916292e-05 0.0 
9.973956849960e-05 8.594244865556e-04 0.0 
1.176807038449e-04 9.409824065702e-04 0.0 
3.992749059164e-04 2.358493248625e-04 0.0 
9.712092101891e-05 -7.298349978160e-05 0.0 
3.294554611288e-04 3.338524131985e-04 0.0 
9.134827236217e-05 -7.625614694798e-05 0.0 
1.119208856426e-04 -6.556023772344e-05 0.0 
4.547096581943e-05 -9.632822085813e-05 0.0 
1.693365605466e-04 3.142122332297e-05 0.0 
1.824136233844e-04 -2.285402424279e-05 0.0 
5.686341252191e-05 5.476059282707e-04 0.0 
2.072872107075e-04 -5.135395482762e-06 0.0 
1.832962779205e-04 5.837013534870e-06 0.0 
1.937472756811e-04 -7.478758399259e-06 0.0 
4.842850659600e-04 5.428323636003e-04 0.0 
4.080876793327e-05 -9.934816527794e-05 0.0 
1.221521066763e-04 2.036784105221e-05 0.0 
1.059302611636e-04 1.987941411064e-05 0.0 
4.154041065050e-04 5.521998593325e-04 0.0 
1.341327461913e-04 -5.316962823122e-05 0.0 
1.913069046519e-04 -3.756438772541e-07 0.0 
9.094265942617e-05 8.550291383382e-04 0.0 
1.130509557171e-04 -6.176438213792e-05 0.0 
4.854348491543e-04 8.402473681347e-04 0.0 
6.507551378491e-05 -8.835715743097e-05 0.0 
1.202665390317e-04 -2.594042552392e-05 0.0 
1.459693275274e-04 -4.586613752360e-05 0.0 
5.609496658726e-05 -9.297838917613e-05 0.0 
3.602540521305e-05 -1.010929501216e-04 0.0 
1.806889846809e-04 -1.468095567510e-05 0.0 
1.601032772281e-04 4.269358852950e-07 0.0 
2.881430200558e-04 3.349427329955e-04 0.0 
-1.974623780753e-05 -9.194870614401e-05 0.0 
2.668393888000e-04 5.189822015745e-05 0.0 
2.229244927902e-04 8.388032129770e-06 0.0 
1.577864157522e-04 -3.893475084986e-05 0.0 
1.081493674598e-04 9.369138433585e-04 0.0 
1.907062087074e-04 -1.510642167302e-05 0.0 
6.631242243615e-05 -8.606063139972e-05 0.0 
1.696438241111e-04 -3.107185332253e-05 0.0 
4.567036685137e-05 6.097224835482e-04 0.0 
5.847830690449e-05 -8.842948722785e-05 0.0 
1.588691070386e-05 -1.007831276115e-04 0.0 
3.054121545957e-05 -9.947902985736e-05 0.0 
1.309218162398e-04 -2.995074440401e-05 0.0 
1.193093201328e-04 -6.086050571876e-05 0.0 
2.499042274664e-04 3.063256492307e-05 0.0 
1.937976566932e-04 -1.463503201577e-05 0.0 
6.164466847162e-05 -4.746521447987e-05 0.0 
2.775997295568e-05 -1.024509308126e-04 0.0 
1.694818876391e-04 1.032947060621e-03 0.0 
4.949092199977e-05 -9.533055417707e-05 0.0 
1.793390163874e-04 2.953429075959e-05 0.0 
3.260704964368e-04 3.632797575387e-04 0.0 
2.998183190185e-04 9.321099147279e-04 0.0 
9.525412978602e-05 5.021763223387e-04 0.0 
2.465366568075e-04 2.982447781608e-04 0.0 
4.200508805436e-04 2.951415150046e-04 0.0 
3.758471135139e-04 4.567300516658e-04 0.0 
8.680270933606e-05 -2.878368339058e-05 0.0 
1.556089539363e-04 -3.719500992452e-05 0.0 
4.651845684033e-04 4.964345652961e-04 0.0 
1.521129378846e-04 7.272466671465e-05 0.0 
5.065316428933e-05 -2.957613332251e-05 0.0 
1.030617607999e-04 -6.819913803422e-05 0.0 
2.090242154511e-04 -3.242149711480e-06 0.0 
2.353138414924e-04 1.737504217110e-05 0.0 
5.063735366575e-05 -9.307817826003e-05 0.0 
2.131441406861e-04 1.666526917556e-06 0.0 
2.518015450473e-04 3.581508702402e-05 0.0 
2.954670051207e-04 7.955334977978e-05 0.0 
1.095578377947e-04 -6.677344467180e-05 0.0 
3.245297022506e-04 1.387875824284e-04 0.0 
1.085200146120e-04 7.905712236695e-04 0.0 
3.137048174957e-04 1.108933850318e-04 0.0 
1.491348936362e-04 2.752752627340e-05 0.0 
1.156316314566e-04 -6.359306381585e-06 0.0 
1.281729390170e-04 3.342074161371e-05 0.0 
2.319270845569e-04 1.413652832719e-05 0.0 
1.983977799209e-04 2.492557963648e-04 0.0 
3.949765281801e-04 7.685276692437e-04 0.0 
1.002920915583e-04 -3.381140294388e-05 0.0 
3.136390194739e-04 8.515285480837e-04 0.0 
1.206688829264e-04 4.445422978214e-04 0.0 
2.557161723710e-04 3.473996468228e-05 0.0 
4.453101085451e-04 7.110243294206e-04 0.0 
3.245185751012e-04 7.704637127065e-04 0.0 
4.879615428513e-04 8.386911069341e-04 0.0 
6.627817396054e-05 -3.582805251896e-05 0.0 
4.667991119017e-05 2.125730117320e-04 0.0 
4.390177608092e-05 -5.319706457884e-05 0.0 
2.017286909989e-04 9.442679467238e-05 0.0 
3.980965750569e-05 3.974183628511e-04 0.0 
2.925908413725e-04 1.086895778439e-04 0.0 
9.750408762257e-05 1.006645358857e-03 0.0 
1.006216367211e-04 5.735891963552e-04 0.0 
2.799522437331e-04 6.157094256441e-05 0.0 
3.944389535671e-04 2.177286335928e-04 0.0 
7.334806634824e-05 3.578869786718e-04 0.0 
1.456659522962e-04 5.819849457095e-06 0.0 
1.162009819049e-04 7.215137040399e-04 0.0 
2.670163466570e-04 7.068119499701e-05 0.0 
9.329883830725e-05 -1.490560545035e-05 0.0 
1.225160596050e-04 6.524586712083e-04 0.0 
1.362567872655e-04 1.191426023516e-04 0.0 
1.109515559430e-04 2.281778674672e-05 0.0 
1.679690589716e-04 -3.057896098272e-05 0.0 
1.067494534192e-04 1.011114923014e-03 0.0 
1.139873977388e-04 1.089098544804e-03 0.0 
2.178007311110e-04 3.256272514582e-06 0.0 
1.697303475199e-04 1.080317074149e-05 0.0 
1.763631566831e-04 2.066241675762e-05 0.0 
2.408406548212e-05 -9.866291751780e-05 0.0 
2.771922005694e-04 3.447474958206e-04 0.0 
3.430125141119e-04 1.446089296669e-04 0.0 
2.977659126160e-04 8.926793346528e-05 0.0 
4.947243077165e-04 6.950078390478e-04 0.0 
5.824251845612e-05 2.853378343020e-04 0.0 
1.741751395266e-04 3.847268310011e-04 0.0 
4.488967994502e-05 4.022494706959e-04 0.0 
4.462115472121e-04 1.163455380233e-03 0.0 
1.466428616457e-04 5.886241130078e-04 0.0 
1.588448504701e-04 5.674703218473e-06 0.0 
5.558507905155e-05 3.460678656128e-04 0.0 
1.456400394332e-04 7.305815673108e-04 0.0 
1.776474102592e-04 -2.283252156023e-05 0.0 
3.621735629564e-04 1.885672049719e-04 0.0 
1.133103714828e-04 6.491178066421e-04 0.0 
8.119725031667e-05 4.273921678393e-04 0.0 
8.794693774837e-05 6.375080978633e-04 0.0 
1.070993063884e-04 7.178534371464e-04 0.0 
1.262872430721e-04 1.563005210628e-05 0.0 
2.373679622508e-04 1.237994218440e-04 0.0 
1.520532572227e-04 2.160017411202e-05 0.0 
1.695692223429e-04 -6.262020798360e-06 0.0 
3.616466907160e-04 1.411152568404e-03 0.0 
2.888076045594e-04 1.193083681286e-04 0.0 
2.019999292833e-04 7.358057285750e-04 0.0 
4.168098597663e-05 -9.930319402558e-05 0.0 
3.270326529469e-04 1.209396760470e-04 0.0 
3.223429235727e-04 1.049604946670e-04 0.0 
3.798169475421e-04 1.975863419416e-04 0.0 
1.845439385636e-04 1.598904002597e-04 0.0 
3.459928761404e-04 1.604368141280e-04 0.0 
3.555654770539e-04 1.754692584184e-04 0.0 
4.033437706415e-04 1.172069063639e-03 0.0 
1.734220828484e-04 -2.212482790008e-05 0.0 
1.595505282559e-04 8.798170710133e-04 0.0 
1.047146768247e-04 1.327746688197e-03 0.0 
-1.837563542409e-04 8.393869853590e-04 0.0 
1.786152128973e-04 -6.966381861408e-06 0.0 
2.700642278360e-04 9.522522967003e-05 0.0 
1.390858815760e-04 3.219322103727e-04 0.0 
3.909970811643e-04 2.129728965303e-04 0.0 
1.739985529443e-04 -1.389794878459e-05 0.0 
1.280372483717e-04 8.712000185344e-04 0.0 
-5.747842191336e-05 1.280211838906e-03 0.0 
3.027890256726e-04 1.221563471305e-04 0.0 
3.685371149412e-04 1.723432130312e-04 0.0 
3.984882900903e-04 1.118025566294e-03 0.0 
1.659933450763e-04 1.523858432890e-05 0.0 
1.423774015157e-04 4.929821381932e-05 0.0 
1.697084598975e-04 2.397713130814e-05 0.0 
1.412225515517e-04 3.155559341145e-05 0.0 
3.348962957352e-04 1.551678335530e-04 0.0 
9.608626666815e-05 6.416567209706e-04 0.0 
3.425793373828e-04 3.039847608481e-04 0.0 
1.348261482898e-04 2.757010344778e-05 0.0 
1.161338872890e-04 1.610356435549e-03 0.0 
1.374482650955e-04 8.009961722064e-04 0.0 
2.450955473678e-04 1.519597923456e-04 0.0 
9.249920742289e-05 5.697883775772e-04 0.0 
3.631353967488e-04 1.763816317952e-04 0.0 
3.747132664930e-04 1.981565368568e-04 0.0 
1.035880416329e-04 -4.013171006485e-05 0.0 
2.852055797744e-05 2.322027485317e-04 0.0 
7.325312773257e-05 4.902487052398e-04 0.0 
3.698254898670e-05 -9.889491037274e-05 0.0 
2.222333070562e-04 1.724460639908e-03 0.0 
3.647795903715e-04 3.676799676694e-04 0.0 
4.003016124511e-05 3.293433407503e-04 0.0 
1.076868360242e-04 1.836119036221e-05 0.0 
4.720651579911e-04 7.147262819773e-04 0.0 
1.354308064723e-04 7.279649805321e-04 0.0 
1.435776192316e-04 -3.172756753531e-05 0.0 
1.729034499592e-04 1.279360347928e-04 0.0 
4.221707271624e-04 6.997699624714e-04 0.0 
5.527972024921e-05 -1.570937304163e-05 0.0 
1.156840415827e-04 3.812738204093e-05 0.0 
8.339095857153e-05 8.678842174799e-06 0.0 
3.818765705694e-04 1.956719411718e-04 0.0 
2.480278983806e-05 7.279232861875e-05 0.0 
2.769050260629e-04 1.751062541681e-03 0.0 
1.023111957445e-04 1.123423126484e-05 0.0 
3.946305240594e-04 3.052200124164e-04 0.0 
1.696125541911e-04 8.073876717778e-04 0.0 
1.037324415201e-04 2.231307188619e-04 0.0 
1.220633303036e-04 2.947456247319e-05 0.0 
7.740085889161e-05 -8.083214297859e-06 0.0 
4.354449167523e-05 -9.182590617488e-05 0.0 
3.303748917937e-04 1.672899566850e-04 0.0 
2.610075490281e-04 3.959979754149e-05 0.0 
2.732643760698e-04 1.601243307331e-04 0.0 
4.648061896626e-04 9.233100136854e-04 0.0 
1.853357378744e-04 6.636847946785e-04 0.0 
2.026443158025e-04 1.001639206537e-04 0.0 
1.274241286502e-04 7.978857602803e-04 0.0 
1.476583148113e-04 3.220296845833e-04 0.0 
1.271421083067e-04 5.836452232402e-04 0.0 
1.296803224798e-04 5.151134224723e-04 0.0 
1.938897129938e-04 4.462414453778e-04 0.0 
1.036817278047e-04 6.380764487208e-06 0.0 
1.419699426973e-04 6.581359032645e-04 0.0 
4.515811834505e-04 3.736920234659e-04 0.0 
3.007807571986e-04 1.720541115530e-03 0.0 
1.682367419106e-04 8.363286767676e-05 0.0 
2.233795545159e-04 2.771022497776e-04 0.0 
4.378456141625e-05 -9.485277835968e-05 0.0 
3.008299972924e-04 1.760496310426e-04 0.0 
3.311982589280e-06 -1.124509025421e-04 0.0 
4.870877787884e-04 5.780977958570e-04 0.0 
2.974437274283e-04 1.322921248051e-04 0.0 
1.022059084155e-04 3.746143336235e-04 0.0 
9.692408581972e-05 3.075641269461e-04 0.0 
3.217917420261e-04 1.515203549316e-04 0.0 
1.033242631180e-04 5.058308393799e-04 0.0 
4.262652197847e-04 3.576518143688e-04 0.0 
3.489855662428e-04 4.176002724024e-04 0.0 
3.033895775052e-04 1.651536493594e-03 0.0 
1.947629454880e-04 3.184320046159e-04 0.0 
2.908360532334e-04 1.555172274683e-03 0.0 
2.804491290999e-04 1.499136475544e-03 0.0 
4.135913918630e-04 2.673080583071e-04 0.0 
2.674438598635e-04 1.439385590964e-03 0.0 
4.566234079326e-04 4.288676341952e-04 0.0 
4.731356620368e-04 4.988453642195e-04 0.0 
3.536303714575e-04 1.535964482198e-04 0.0 
1.407449453928e-04 1.140917891164e-04 0.0 
3.902986192804e-04 2.282644112183e-04 0.0 
7.436465464589e-05 4.235716693075e-04 0.0 
1.612042650846e-04 3.115987107679e-04 0.0 
1.227663899282e-04 2.497350034084e-06 0.0 
2.401068336614e-04 1.327807829645e-04 0.0 
2.760177215422e-04 5.445504204938e-05 0.0 
1.204981523832e-04 5.123763131576e-04 0.0 
3.691504370225e-04 1.790136645658e-04 0.0 
8.282155285621e-05 4.265524817666e-06 0.0 
1.178974581752e-04 5.805845779627e-04 0.0 
1.569706706882e-04 5.903195124876e-04 0.0 
3.332508360663e-04 1.392190728109e-04 0.0 
4.094791126132e-04 2.873433185503e-04 0.0 
2.949467613746e-04 3.243585793675e-04 0.0 
3.823254385200e-04 7.867998329462e-04 0.0 
1.318826118148e-04 8.591980427179e-05 0.0 
2.095030563730e-04 2.341115587561e-04 0.0 
4.758424189158e-04 8.484858137298e-04 0.0 
4.652920077098e-04 7.490782705753e-04 0.0 
6.377329486361e-05 2.928964840499e-06 0.0 
1.522885259398e-04 6.603776837174e-04 0.0 
3.940433372967e-04 2.519249482086e-04 0.0 
4.278217562420e-04 6.132785006014e-04 0.0 
2.634575728228e-04 1.034343951446e-04 0.0 
8.029910481700e-05 4.945550050289e-04 0.0 
2.548984067680e-04 2.925098873685e-04 0.0 
1.821234985499e-04 8.822532664373e-04 0.0 
2.032472524671e-04 5.609179988290e-05 0.0 
3.764579650579e-04 1.862451105951e-04 0.0 
2.549123803995e-04 9.281802597266e-05 0.0 
4.886961309019e-04 6.204848625238e-04 0.0 
8.019661787306e-05 3.633234095056e-04 0.0 
2.065230962522e-04 2.455655004099e-04 0.0 
3.545294444110e-04 1.543876793181e-04 0.0 
1.721496533926e-04 2.167061476723e-04 0.0 
3.146135710242e-04 2.607884043355e-04 0.0 
4.720565888884e-04 5.113694591024e-04 0.0 
4.112212218449e-04 3.162559734121e-04 0.0 
3.511873492458e-04 1.565116973123e-04 0.0 
1.985292425906e-04 4.205878639519e-05 0.0 
1.609432345016e-04 1.789688188578e-04 0.0 
3.665603818325e-04 1.676721195170e-04 0.0 
3.108295667045e-04 7.800041765732e-04 0.0 
5.811498832218e-05 1.479402612370e-06 0.0 
3.189129029918e-04 7.001022331677e-04 0.0 
3.400681946029e-04 3.195286425617e-04 0.0 
2.995795351573e-04 8.596457721457e-04 0.0 
2.698713499977e-04 1.017031960722e-03 0.0 
3.888531594914e-04 6.997252192414e-04 0.0 
2.661357706529e-04 1.380900125846e-04 0.0 
1.178786418920e-04 6.207993756487e-06 0.0 
1.670744926190e-04 7.344031628579e-04 0.0 
8.967655737622e-05 3.055609729984e-04 0.0 
2.856854204598e-04 9.386927086869e-04 0.0 
3.513892660441e-04 2.779976926702e-04 0.0 
2.827226827775e-04 2.318737817457e-04 0.0 
6.103798154037e-05 3.490110030936e-04 0.0 
4.780062440038e-04 4.936146475601e-04 0.0 
4.793523250140e-04 5.249711679768e-04 0.0 
3.783284396674e-04 2.660304628888e-04 0.0 
1.739277543380e-04 6.633141555635e-04 0.0 
4.673732745841e-04 1.068322470219e-03 0.0 
4.417843638256e-04 3.856194764898e-04 0.0 
4.752824998987e-04 1.015372776881e-03 0.0 
3.191144616212e-04 1.745416728174e-04 0.0 
2.112622147961e-04 1.614732664289e-04 0.0 
3.631989405834e-04 2.083981846675e-04 0.0 
2.585338101542e-05 1.925111493747e-04 0.0 
1.118734025788e-04 3.104856268517e-04 0.0 
4.584874409609e-04 1.081510182303e-03 0.0 
3.004513845321e-04 7.941232232775e-05 0.0 
2.492644533665e-04 1.914664355759e-04 0.0 
1.783859119747e-04 7.356442352242e-04 0.0 
1.412498211169e-04 9.896536923751e-06 0.0 
4.535554867380e-04 4.479708877785e-04 0.0 
-1.108310315456e-05 1.791731633826e-04 0.0 
4.143388606839e-05 1.217388507076e-06 0.0 
4.657521810801e-04 6.509407771897e-04 0.0 
3.762108502061e-04 2.498152556589e-04 0.0 
2.655833310893e-04 2.725105895236e-04 0.0 
-8.005637117669e-05 1.922030885573e-04 0.0 
1.506917168473e-04 1.418680427254e-05 0.0 
3.638587787346e-04 5.414236007277e-04 0.0 
1.940776581850e-04 8.825610690983e-04 0.0 
1.422727109283e-04 -2.275323875253e-05 0.0 
3.794833621362e-04 2.416480535427e-04 0.0 
7.622411955734e-05 2.277901206366e-06 0.0 
4.599476580393e-04 4.616369321448e-04 0.0 
3.580008317315e-04 2.530667163953e-04 0.0 
4.515978159162e-04 6.205234255728e-04 0.0 
-1.081515352594e-05 1.427015394265e-04 0.0 
3.817815702005e-04 4.380431672989e-04 0.0 
3.125714463762e-04 1.598855675334e-04 0.0 
1.630359717605e-04 2.036439751109e-04 0.0 
3.317490126639e-04 3.494394722849e-04 0.0 
2.647486443260e-04 2.289640079660e-04 0.0 
1.136417964231e-04 -7.014228932958e-07 0.0 
5.276502931903e-05 2.802823572556e-04 0.0 
1.309080468125e-04 6.891820267630e-05 0.0 
2.964402632862e-04 1.629966740146e-04 0.0 
4.383323166842e-04 3.655320344389e-04 0.0 
4.215864802466e-04 5.283877076478e-04 0.0 
4.706943487735e-05 -9.565778066530e-07 0.0 
3.190294793248e-05 -5.305563276134e-05 0.0 
3.605985391565e-04 3.850731027818e-04 0.0 
1.584966842477e-04 8.058078566837e-04 0.0 
9.618885943765e-05 3.807527058671e-06 0.0 
1.434063257792e-04 1.723367950515e-05 0.0 
4.186179432328e-05 1.400114398193e-03 0.0 
2.790603424787e-05 1.400217562229e-03 0.0 
2.922946574510e-04 7.163717200534e-04 0.0 
4.055178163011e-04 4.720108388375e-04 0.0 
1.230653154927e-04 -2.428697645152e-05 0.0 
3.686836278988e-04 6.497050533157e-04 0.0 
4.646413671768e-04 4.397748249971e-04 0.0 
1.824828755583e-04 6.349862674954e-05 0.0 
4.512686784632e-04 4.080338606964e-04 0.0 
2.219851524296e-05 7.444486978018e-05 0.0 
2.743107511762e-04 1.161910598416e-03 0.0 
4.752613534092e-04 4.861458318210e-04 0.0 
1.541509389418e-04 -1.807938082712e-05 0.0 
2.610800800137e-04 2.961900909526e-04 0.0 
1.608451480940e-04 -2.836521178801e-05 0.0 
4.404544846015e-04 5.606218218710e-04 0.0 
4.438270154735e-04 7.432103818218e-04 0.0 
1.928781331819e-04 8.089365468051e-04 0.0 
3.574155644013e-04 5.840939342918e-04 0.0 
3.329843631932e-04 5.340026104711e-04 0.0 
6.451846020223e-06 -1.147279908947e-04 0.0 
1.527103704694e-04 -3.568895438996e-05 0.0 
4.689065255172e-04 1.036493954963e-03 0.0 
3.515072889983e-04 7.472277612495e-04 0.0 
3.320479093227e-04 6.897604317970e-04 0.0 
2.319229762141e-04 1.075901476250e-04 0.0 
1.923528349978e-06 -1.105267966532e-04 0.0 
1.167523049738e-04 1.311449517891e-04 0.0 
4.805549129047e-04 6.414023404583e-04 0.0 
1.407307568010e-04 -4.100832202971e-05 0.0 
2.928188120989e-04 1.490543551161e-03 0.0 
2.800550164307e-04 1.433149677228e-03 0.0 
2.050841669540e-04 8.087274010411e-04 0.0 
1.566857514266e-04 4.848097862698e-04 0.0 
1.375858942360e-04 -2.937803468228e-05 0.0 
2.602414918073e-04 8.431288914485e-05 0.0 
1.253101054783e-04 1.640676160635e-04 0.0 
1.131953957990e-04 9.237745756929e-05 0.0 
1.040451743073e-04 4.399679442146e-04 0.0 
1.091084340902e-04 -4.349744369847e-05 0.0 
1.012611800199e-04 4.359834005696e-07 0.0 
7.470884693667e-06 -1.120973032815e-04 0.0 
2.600561662095e-04 7.309544186528e-05 0.0 
4.699473239086e-04 6.173601566678e-04 0.0 
5.980990796487e-06 -1.141990592910e-04 0.0 
9.611593517343e-05 4.364831157143e-04 0.0 
9.650174132135e-05 1.847225667160e-04 0.0 
3.645127824067e-04 7.331871414519e-04 0.0 
4.525286761809e-04 7.141372928334e-04 0.0 
3.066843012621e-04 8.881187155613e-05 0.0 
2.463370417116e-04 4.025380626241e-05 0.0 
9.476436989303e-05 3.727770893313e-04 0.0 
2.307294352765e-04 4.099683939782e-05 0.0 
4.731468510834e-04 5.471939483085e-04 0.0 
4.820509393226e-04 6.031827238497e-04 0.0 
-2.190290035734e-04 7.002860565060e-04 0.0 
5.953567972485e-05 1.703636258417e-04 0.0 
3.100446022981e-04 2.879786462413e-04 0.0 
2.582525031342e-04 9.473130709012e-04 0.0 
2.806648568314e-04 2.435201419378e-04 0.0 
3.795631088735e-04 6.102771783214e-04 0.0 
2.142758192073e-04 5.185479536654e-04 0.0 
2.708645250617e-04 2.624886362620e-04 0.0 
2.911593654636e-04 1.359728932116e-03 0.0 
3.059064715741e-04 3.004963408522e-04 0.0 
9.300719272642e-05 -2.062509403059e-06 0.0 
4.299131449313e-04 4.781842899042e-04 0.0 
1.556547857154e-04 -2.672619656857e-05 0.0 
1.615412887332e-04 -1.970280579012e-05 0.0 
1.201681324671e-04 3.126560219554e-04 0.0 
2.545944561141e-04 3.805825839152e-05 0.0 
4.451474612982e-04 6.493679526185e-04 0.0 
4.417343678791e-04 3.375700282584e-04 0.0 
2.078288309434e-04 4.001497786560e-05 0.0 
4.707926743782e-04 4.525734704271e-04 0.0 
2.803175487969e-04 2.077244700139e-04 0.0 
3.406966653551e-04 1.302935920867e-04 0.0 
3.251762477260e-04 2.624924510226e-04 0.0 
3.569943404743e-04 6.648948118237e-04 0.0 
3.086612278255e-04 2.235568831415e-04 0.0 
4.000863960341e-04 6.807392714131e-04 0.0 
2.616064094198e-04 1.276178643469e-04 0.0 
2.853678868081e-04 1.378684204928e-04 0.0 
4.686539389172e-04 4.540887171185e-04 0.0 
2.189127636843e-04 8.808623674733e-04 0.0 
8.133743884534e-05 -6.785893562576e-07 0.0 
7.395247597331e-05 -2.587263710072e-06 0.0 
5.760627906408e-05 4.996194607057e-04 0.0 
3.901970147085e-04 6.152325587032e-04 0.0 
4.596086747199e-05 2.236271749826e-06 0.0 
3.790769971238e-04 1.464856595187e-03 0.0 
1.082281910648e-04 -3.383861312911e-05 0.0 
-1.720981231264e-04 7.408551609843e-04 0.0 
6.318085014389e-05 -1.080335375577e-06 0.0 
2.804582223958e-04 2.702067334844e-04 0.0 
2.653688627004e-05 -4.878654235358e-05 0.0 
3.820144698433e-04 2.707822694459e-04 0.0 
2.318070590464e-04 8.792978484061e-04 0.0 
2.447822373502e-04 9.502073063171e-04 0.0 
4.599494916793e-04 5.591550271386e-04 0.0 
3.108219779998e-04 1.590856830983e-03 0.0 
3.032819860739e-04 1.543491220867e-03 0.0 
5.666227810266e-05 -2.497432551850e-06 0.0 
2.458002311036e-04 4.563659521869e-05 0.0 
3.073380602976e-04 8.715284751035e-05 0.0 
2.711791891431e-04 8.415296995857e-05 0.0 
3.464224568376e-04 1.383352925280e-04 0.0 
3.125421467672e-04 2.879027634135e-04 0.0 
2.989085382253e-04 1.606245464028e-03 0.0 
2.655569709617e-04 1.093430758514e-03 0.0 
3.513453401472e-05 1.443485030575e-03 0.0 
2.788233176278e-04 1.260445795179e-04 0.0 
4.584160370089e-04 4.117408911130e-04 0.0 
1.707240039216e-04 8.957411194091e-05 0.0 
2.407538043173e-05 -7.495620207607e-06 0.0 
3.520449391773e-04 1.451795177959e-04 0.0 
3.844331956617e-05 3.359262694821e-06 0.0 
3.020958916350e-04 1.699602505060e-04 0.0 
2.098571496621e-04 1.226247229670e-04 0.0 
4.616529924362e-04 5.272084353879e-04 0.0 
4.139490640167e-04 4.029269831381e-04 0.0 
1.870273937551e-04 5.437074459138e-05 0.0 
1.568853595133e-04 -3.907054782188e-05 0.0 
4.196798841496e-04 6.375348791864e-04 0.0 
3.310829907538e-04 1.169808441850e-04 0.0 
4.283039284984e-04 7.026974201919e-04 0.0 
4.094206079016e-04 6.282078607780e-04 0.0 
3.926765197582e-04 3.355538514970e-04 0.0 
3.223110442087e-04 1.085727462568e-04 0.0 
1.343649511461e-04 -2.050389855158e-05 0.0 
4.181481196927e-04 7.265584022871e-04 0.0 
-1.584107916419e-04 5.169395119951e-04 0.0 
4.217799497117e-04 2.994965958553e-04 0.0 
-4.466729503612e-05 7.369257651286e-04 0.0 
1.990500444357e-05 -1.048722015164e-04 0.0 
1.193631854566e-04 -3.058432237387e-05 0.0 
3.121609470350e-04 3.888605181556e-04 0.0 
2.583575526628e-04 8.754720853365e-04 0.0 
3.154990406726e-04 1.664569842039e-03 0.0 
1.147708444388e-05 3.614014449670e-05 0.0 
-2.459501137218e-04 5.938287073884e-04 0.0 
3.152490609074e-04 1.631264823824e-03 0.0 
2.972766149938e-04 7.790747154232e-05 0.0 
9.271014184373e-05 -4.286850046635e-05 0.0 
3.635567664448e-04 1.353438070139e-03 0.0 
2.619494020911e-04 7.760672198910e-05 0.0 
2.582352006663e-04 4.486046532497e-05 0.0 
4.446110175362e-04 5.328340439587e-04 0.0 
3.918463541027e-04 2.599332931987e-04 0.0 
2.367307787686e-04 3.764771684775e-04 0.0 
1.035893309273e-04 4.596810540941e-04 0.0 
1.203614024832e-04 -4.004606479255e-05 0.0 
8.672920248757e-05 -3.913378476940e-05 0.0 
9.249929719994e-05 -7.370071329777e-05 0.0 
2.755189094989e-04 1.298206078640e-03 0.0 
2.719543269510e-04 8.718424087060e-04 0.0 
8.666835908982e-06 -1.905401480187e-05 0.0 
4.976633383833e-06 -1.134682659756e-04 0.0 
-1.208189219214e-04 2.172772891721e-04 0.0 
5.288477428209e-05 -8.269924955504e-05 0.0 
7.625281675016e-05 -4.128710478365e-05 0.0 
3.289827330026e-04 1.659048086897e-04 0.0 
2.558989305612e-04 8.809236281617e-05 0.0 
2.650126436076e-04 1.727844399519e-04 0.0 
1.012324731086e-04 -3.057664390008e-05 0.0 
2.789576646928e-04 7.217857124287e-04 0.0 
7.000640444510e-05 -3.729148894209e-05 0.0 
3.454304514223e-04 1.965641604251e-04 0.0 
3.996346940183e-04 5.958891485717e-04 0.0 
1.642132742825e-04 1.184187743860e-03 0.0 
3.335272212706e-04 2.208206436138e-04 0.0 
5.990250508693e-05 -3.897777742169e-05 0.0 
9.061138432050e-05 -3.313502513887e-05 0.0 
3.011096353353e-04 1.703558566404e-03 0.0 
3.142623378679e-04 1.237342666119e-04 0.0 
5.336439055160e-05 -3.482880657751e-05 0.0 
6.234207766572e-06 8.768372951957e-04 0.0 
6.903491579132e-06 1.022234233431e-03 0.0 
3.108247547923e-04 1.689896973715e-03 0.0 
8.347264811293e-05 -2.955642531129e-05 0.0 
2.132833443688e-04 2.759862127245e-05 0.0 
1.025533163452e-04 8.326268927023e-04 0.0 
2.078704492241e-04 1.150865260384e-04 0.0 
5.280191594249e-05 -6.646193120245e-05 0.0 
2.186673956630e-04 2.172707189611e-05 0.0 
4.374703211639e-04 3.340062326023e-04 0.0 
3.045942745166e-04 1.689652110426e-03 0.0 
4.351650262515e-05 -3.612812838604e-05 0.0 
5.393999111314e-06 -1.024598558077e-04 0.0 
2.692936351727e-04 1.233551868840e-03 0.0 
7.334405397495e-05 -3.155956910026e-05 0.0 
2.852995661997e-04 6.303790003638e-05 0.0 
1.259760044177e-04 -3.342604040369e-05 0.0 
-1.263879952768e-04 4.236442092651e-04 0.0 
7.709198417338e-06 4.503125690997e-04 0.0 
2.671694642961e-04 5.945991296055e-05 0.0 
2.154005086194e-04 8.318546971515e-05 0.0 
4.139492985240e-04 3.792823302938e-04 0.0 
6.623940877021e-05 -2.778114861819e-05 0.0 
5.636364470503e-05 -2.936409761584e-05 0.0 
3.087747588033e-04 1.533054903768e-04 0.0 
1.298256953070e-05 -5.274857425640e-05 0.0 
-1.198621790317e-04 4.791057477399e-04 0.0 
4.925127999872e-05 -2.546101930929e-05 0.0 
1.950610784048e-04 6.118895459734e-05 0.0 
1.749154030487e-04 -1.583577261470e-05 0.0 
3.857734454786e-04 5.339427855433e-04 0.0 
3.737058831525e-04 1.460184685891e-03 0.0 
3.676957146683e-04 5.686073875075e-04 0.0 
7.036687951820e-05 1.598157989691e-05 0.0 
-2.105929952510e-04 2.462748820694e-04 0.0 
1.124239176277e-06 3.930657182614e-05 0.0 
1.827368955946e-06 4.308599616706e-07 0.0 
4.329191011846e-06 1.253046446455e-03 0.0 
2.232470148738e-04 1.207011547212e-05 0.0 
4.319036625180e-04 4.521770461117e-04 0.0 
3.413872650393e-04 2.168502828069e-04 0.0 
1.448909216920e-05 -1.040205106549e-04 0.0 
-2.089530000507e-04 6.242606535774e-04 0.0 
3.175498687667e-05 3.240051160639e-04 0.0 
2.834330896298e-04 7.935353930105e-04 0.0 
2.663442994152e-04 1.371028086453e-03 0.0 
5.739273106753e-05 4.132264524378e-05 0.0 
4.330605588854e-06 -1.080979893927e-04 0.0 
5.533127201518e-05 3.625697514797e-05 0.0 
2.699407799822e-04 7.991492356118e-04 0.0 
1.828133828621e-04 -2.202628695501e-05 0.0 
4.483050358798e-04 4.748802084157e-04 0.0 
2.081384262021e-04 2.739711587279e-06 0.0 
1.872299109719e-04 9.962933190689e-04 0.0 
1.792216080174e-04 -1.848433256217e-05 0.0 
2.849536528714e-04 6.456024953570e-04 0.0 
2.402164618311e-05 -4.425994282680e-06 0.0 
2.506195818373e-04 4.903884320862e-05 0.0 
3.524737135361e-04 5.064807611416e-04 0.0 
-1.790142687487e-04 2.062753007927e-04 0.0 
2.966870161435e-04 1.123429659882e-04 0.0 
2.253205899854e-04 5.888527437987e-04 0.0 
1.433355968873e-04 -4.675561880970e-05 0.0 
1.463161502379e-04 -3.552839333348e-05 0.0 
4.476899636780e-04 4.451331943786e-04 0.0 
6.991916731861e-05 3.735231304113e-05 0.0 
2.582624866033e-04 1.696043067265e-03 0.0 
2.817677805104e-04 1.712594038643e-03 0.0 
1.252832933251e-04 -5.360390901120e-05 0.0 
2.828887954530e-04 6.331242826794e-05 0.0 
4.619177670768e-04 4.102642413038e-04 0.0 
3.611137650366e-04 4.911595693089e-04 0.0 
1.471324176220e-04 2.471962834894e-04 0.0 
2.916971775889e-04 1.742251648861e-03 0.0 
1.151185541481e-05 7.260592142003e-04 0.0 
1.779771331097e-04 1.969349753309e-04 0.0 
3.182606794514e-04 2.028456912006e-04 0.0 
-4.226331725464e-05 8.379427147168e-04 0.0 
3.911863339273e-04 1.416601069342e-03 0.0 
2.632252011098e-04 4.274069109840e-05 0.0 
3.225091530088e-04 5.459911475250e-04 0.0 
2.777984224244e-04 5.618338194460e-05 0.0 
3.196576673043e-06 4.216780633889e-04 0.0 
2.727613604277e-04 6.229775771834e-05 0.0 
2.567257283151e-04 1.157433069152e-03 0.0 
4.529441780575e-04 3.737306203481e-04 0.0 
2.719563186905e-04 5.667194435518e-05 0.0 
4.312888248235e-04 3.987853792304e-04 0.0 
4.386035167605e-05 9.045801623149e-04 0.0 
1.153656286165e-04 -6.104433923680e-05 0.0 
2.019399883481e-05 6.909126681866e-04 0.0 
2.585034317954e-04 5.586906764441e-05 0.0 
3.044449520455e-04 1.291465095080e-03 0.0 
-1.270392630171e-04 2.519384828129e-04 0.0 
2.860320802863e-06 2.948265822165e-04 0.0 
3.873384465498e-06 4.396103903133e-04 0.0 
-2.464831736127e-05 -5.662047904065e-05 0.0 
2.549062029086e-04 5.989847895924e-05 0.0 
7.341875891162e-05 -7.907673270530e-05 0.0 
7.953934823623e-05 -7.927006657888e-05 0.0 
3.041376582866e-04 4.003076943869e-04 0.0 
4.287074750779e-04 3.720409592911e-04 0.0 
3.418797581598e-04 4.325968793912e-04 0.0 
2.809448098797e-04 8.908136999584e-05 0.0 
8.008507141743e-05 1.449296790968e-03 0.0 
5.078011128479e-05 1.020451880279e-05 0.0 
6.060176211493e-05 -8.377331043352e-05 0.0 
2.450260044584e-04 9.867127860074e-05 0.0 
4.585113504701e-04 4.049344116128e-04 0.0 
1.195441729246e-05 -1.115734877940e-04 0.0 
3.233101290491e-04 6.220972300294e-04 0.0 
3.305705353476e-04 1.496084420882e-04 0.0 
-7.186712690413e-06 -2.822783159345e-05 0.0 
2.709945616302e-04 1.128418679863e-04 0.0 
4.603226419935e-06 -2.329167673565e-05 0.0 
2.978828900154e-04 6.388734723381e-04 0.0 
4.083042252623e-05 -6.279156412568e-05 0.0 
1.781950056702e-05 -5.056888796163e-05 0.0 
3.160072178350e-04 4.714005500006e-04 0.0 
3.075852314841e-04 2.032188090618e-04 0.0 
1.513288090525e-04 -3.732513433333e-05 0.0 
1.105935388507e-05 -1.017990061700e-04 0.0 
4.452737147355e-04 3.648369950012e-04 0.0 
3.282622167890e-06 9.528454706157e-04 0.0 
-1.509040329819e-05 -5.602929264124e-07 0.0 
1.316424421218e-04 1.270804858004e-04 0.0 
7.920595838415e-05 1.492022090865e-04 0.0 
1.505894519973e-05 1.154857030574e-03 0.0 
5.235430148737e-05 2.203345767739e-04 0.0 
8.780594623644e-05 1.320819147736e-04 0.0 
2.825812267245e-04 7.884721905300e-05 0.0 
2.360216424509e-04 3.190171099590e-05 0.0 
1.164014619969e-04 4.728088377004e-05 0.0 
-2.037615470145e-04 2.852339453063e-04 0.0 
2.407077238876e-06 -1.055572146594e-04 0.0 
1.324086430324e-05 -4.670097578740e-05 0.0 
1.401625099385e-04 -4.625238175757e-05 0.0 
2.270539457965e-04 4.568591845794e-05 0.0 
1.766090915147e-04 1.607306711092e-03 0.0 
2.233607129571e-04 1.663023092564e-03 0.0 
1.408382605306e-04 1.175593357678e-03 0.0 
2.927872394238e-04 1.256178231516e-04 0.0 
3.047049545098e-05 -9.776179963832e-05 0.0 
3.439971087497e-04 2.728189578556e-04 0.0 
1.773231852449e-05 3.193974444737e-06 0.0 
2.294969838778e-05 4.429575535225e-06 0.0 
2.375336811570e-04 2.623964761439e-05 0.0 
1.815678951038e-04 1.263091663264e-03 0.0 
-1.431267321167e-04 1.975238359798e-04 0.0 
3.848063241328e-05 1.331590139250e-03 0.0 
5.127633203654e-05 5.134309018037e-05 0.0 
1.233874987363e-04 1.492843197049e-03 0.0 
4.365646873352e-04 3.564292506800e-04 0.0 
1.873523241085e-04 -2.970818010347e-06 0.0 
2.470359364771e-04 5.695150129432e-05 0.0 
-5.103688057270e-05 1.064757757979e-04 0.0 
8.819213384981e-06 3.978472606133e-04 0.0 
2.050708456974e-04 6.734604629761e-06 0.0 
2.762313777558e-05 3.167049699016e-04 0.0 
2.334601683725e-05 5.277102662657e-04 0.0 
3.366894392409e-06 8.681395236147e-05 0.0 
4.098780676721e-06 7.991427709537e-07 0.0 
7.950060423088e-06 1.171270915816e-03 0.0 
1.947261095819e-04 -9.614271000301e-06 0.0 
2.499732227344e-04 1.756131769900e-03 0.0 
1.959344209146e-04 -1.191404895671e-05 0.0 
6.802778361452e-06 1.129296965952e-06 0.0 
-1.192472808565e-04 8.946188151309e-04 0.0 
-4.845380272974e-05 1.109723133877e-03 0.0 
2.286167623691e-04 1.000938305506e-04 0.0 
1.359147826646e-04 1.308434849274e-03 0.0 
1.665859174258e-05 3.033984256662e-04 0.0 
3.252164179109e-04 4.593652474553e-04 0.0 
2.471284455183e-04 1.617297586924e-04 0.0 
2.567454425072e-04 4.387452535527e-04 0.0 
5.118801342321e-05 1.120501146933e-03 0.0 
1.196941480865e-04 -5.254203054214e-05 0.0 
1.295607058854e-04 -4.339376228865e-05 0.0 
1.441980768051e-05 7.986036921385e-04 0.0 
2.821852454825e-04 1.969841638925e-04 0.0 
2.338362260667e-04 1.364921443700e-03 0.0 
2.750291195562e-05 1.316962695094e-03 0.0 
3.289381173566e-05 1.188262805490e-03 0.0 
5.881498344764e-05 1.137821801576e-03 0.0 
2.235347611643e-05 1.236667297773e-04 0.0 
1.039149658357e-04 -5.944624701132e-05 0.0 
2.427616624664e-05 1.936736799326e-04 0.0 
5.645003258293e-05 9.824838187704e-04 0.0 
9.273425413523e-05 4.646599806770e-05 0.0 
1.613061908807e-04 2.581220109257e-04 0.0 
3.352510667923e-04 6.112722298537e-04 0.0 
7.740397316424e-05 3.045046815031e-04 0.0 
5.427777315678e-05 -7.467693119574e-05 0.0 
5.016213104057e-05 -8.346858605637e-05 0.0 
8.654981737490e-05 1.641072657225e-05 0.0 
-8.816317135651e-05 1.075568508156e-04 0.0 
1.293334862534e-05 -1.041067602328e-04 0.0 
2.785942072352e-05 1.907917073097e-05 0.0 
1.965529636861e-06 -1.153589403648e-04 0.0 
3.394755168793e-05 1.272986554033e-03 0.0 
1.557784941919e-04 5.519397983436e-05 0.0 
-2.971831024749e-07 -8.716655508026e-05 0.0 
-4.145747928251e-06 -1.046394092365e-04 0.0 
1.466117155523e-05 7.489297201711e-05 0.0 
1.187948683412e-04 1.406241343157e-03 0.0 
3.569368560251e-05 2.094512804133e-04 0.0 
1.522151480932e-04 6.196645042283e-05 0.0 
1.028269613633e-04 1.407763019633e-03 0.0 
-1.630001456325e-04 2.852426283477e-04 0.0 
5.862111822009e-06 1.626562487680e-04 0.0 
1.871365666068e-05 -1.069449265566e-04 0.0 
3.994093508353e-05 2.732110027006e-04 0.0 
5.379145404876e-06 8.522482342482e-07 0.0 
1.325184292948e-04 2.544698916131e-04 0.0 
8.417608628931e-05 1.194271068003e-04 0.0 
2.011618338030e-04 1.164086717415e-03 0.0 
3.277599629130e-05 -7.741079684572e-05 0.0 
3.413385981927e-04 2.555055690822e-04 0.0 
4.880789763160e-05 2.465721730167e-05 0.0 
1.370458962576e-05 6.521919742829e-04 0.0 
4.809313257328e-05 2.202025248773e-05 0.0 
-4.665908379751e-05 1.349879749052e-04 0.0 
3.214591513613e-05 4.252797093481e-06 0.0 
1.045307731093e-04 7.219955837737e-05 0.0 
8.790234595050e-06 -1.137001799660e-04 0.0 
8.955592803187e-05 2.744662320177e-05 0.0 
6.276483748649e-05 1.819696188087e-04 0.0 
3.192775716674e-05 1.472875437437e-04 0.0 
7.664410004057e-05 1.299019843259e-03 0.0 
2.524894205119e-04 1.090837406639e-03 0.0 
1.731327607861e-04 8.804694296501e-04 0.0 
1.047241627947e-04 1.516966013101e-04 0.0 
2.479997551955e-05 -8.994242503397e-05 0.0 
-4.057843812595e-05 5.119577557443e-04 0.0 
3.114711894780e-04 2.186678634220e-04 0.0 
6.325077845762e-05 1.450774847338e-03 0.0 
8.474451866946e-05 2.498601562269e-04 0.0 
4.740648981075e-07 8.247972075015e-05 0.0 
4.740648981075e-07 3.481433864740e-05 0.0 
-3.184953631303e-07 -1.175904316570e-04 0.0 
-4.021059883663e-08 -1.177319279510e-04 0.0 
3.390372914577e-06 1.397969527086e-03 0.0 
8.070889532654e-06 1.448608875083e-03 0.0 
7.093817919613e-07 2.991723966660e-07 0.0 
7.093817919613e-07 5.303059401174e-07 0.0 
2.393823233877e-07 -1.174074929872e-04 0.0 
-1.522005003407e-04 1.409200293031e-04 0.0 
3.229266519798e-05 1.778958230495e-06 0.0 
2.134036083655e-04 1.726549655810e-04 0.0 
2.004912925361e-05 -1.087190327392e-04 0.0 
5.312465580132e-05 6.810891461845e-06 0.0 
7.924073303176e-06 -3.813374676315e-05 0.0 
8.021040210037e-06 -5.814668201869e-05 0.0 
3.826229311966e-05 9.256208695304e-04 0.0 
4.180766510012e-05 8.120219498013e-06 0.0 
3.903812539376e-04 3.140090611711e-04 0.0 
1.384626327200e-05 -1.087989645816e-04 0.0 
4.693587951392e-05 -6.560676110246e-05 0.0 
1.403405362508e-04 2.090980224255e-04 0.0 
1.655367338374e-06 3.641980589862e-04 0.0 
1.552756600243e-05 -5.673215599506e-05 0.0 
2.485278314110e-05 1.073756859239e-03 0.0 
1.991477105323e-04 1.934458933379e-04 0.0 
2.463688539927e-04 3.737549734686e-04 0.0 
2.960429895179e-04 4.911672506710e-04 0.0 
8.761280882024e-05 1.402325899334e-03 0.0 
4.046313177917e-04 3.070021994116e-04 0.0 
1.059135219171e-04 2.556275641108e-04 0.0 
1.885056427574e-05 -1.028284424057e-04 0.0 
-2.699767517075e-05 -6.415908377905e-05 0.0 
2.342375989638e-04 2.394570430513e-04 0.0 
2.517556263945e-04 1.082977062975e-04 0.0 
1.983015713226e-05 1.308529300024e-05 0.0 
1.997730034300e-05 8.143036640484e-04 0.0 
1.791805637834e-05 2.025385470542e-06 0.0 
2.436858199442e-04 2.207452946334e-04 0.0 
2.050103984010e-04 1.814557495548e-04 0.0 
9.599410194491e-06 -2.849097961581e-05 0.0 
-1.694833965928e-04 4.144451709825e-04 0.0 
1.701288892796e-04 1.695437822377e-03 0.0 
3.051741763869e-04 1.179918885240e-03 0.0 
2.108784297211e-04 1.115812796401e-03 0.0 
4.090726829578e-04 3.309931200285e-04 0.0 
3.129564965209e-05 2.646229919273e-04 0.0 
1.004691286694e-04 4.265017447103e-05 0.0 
-2.251061354872e-05 -1.421220797768e-05 0.0 
-1.086985404008e-05 -5.759115870048e-05 0.0 
3.535413040738e-05 1.480338270747e-03 0.0 
3.272456004624e-05 7.471568966041e-04 0.0 
3.628756558009e-05 -9.337488950131e-05 0.0 
7.178981739050e-05 2.460569938853e-04 0.0 
1.175498673208e-05 -1.123916151085e-04 0.0 
1.711799307160e-04 7.639110976871e-05 0.0 
1.301778093993e-04 1.164416856487e-03 0.0 
1.104607342692e-04 6.823619457384e-05 0.0 
3.157584086846e-04 2.479975172814e-04 0.0 
2.314998797356e-04 1.108058557144e-03 0.0 
7.590449483083e-05 1.920602515955e-05 0.0 
5.520904370074e-05 1.796575707894e-04 0.0 
4.824410070366e-06 1.904040759890e-04 0.0 
-1.313543092524e-04 1.036771620097e-03 0.0 
7.076546027814e-05 2.985358301777e-04 0.0 
1.066154210061e-04 1.059687585829e-04 0.0 
1.758979121296e-04 7.489148922106e-05 0.0 
2.838139541321e-04 2.090004289786e-04 0.0 
9.414428458052e-06 1.728148319674e-06 0.0 
2.853322883518e-04 4.987641960175e-04 0.0 
-2.515939270916e-04 4.640876830256e-04 0.0 
1.220358218675e-05 6.107804611276e-04 0.0 
2.055310891846e-04 3.203593490738e-04 0.0 
1.916742636701e-04 1.026656945642e-03 0.0 
1.693502906607e-05 -4.777754331352e-07 0.0 
2.492108870607e-04 1.813839698629e-04 0.0 
3.330302659096e-05 5.505243005385e-06 0.0 
2.847217937785e-05 5.987536122269e-04 0.0 
1.055008771159e-04 5.937765534489e-05 0.0 
9.474076132647e-05 2.120554713306e-05 0.0 
9.945613242514e-05 2.387683289586e-05 0.0 
2.688766455727e-05 -9.274334980615e-05 0.0 
1.512066842789e-05 2.595123091016e-06 0.0 
1.728256317910e-04 1.314924489007e-03 0.0 
2.014615807643e-05 3.073579487536e-04 0.0 
-3.237078157098e-06 -4.939359725373e-05 0.0 
1.319000398973e-05 4.266402629508e-04 0.0 
3.008131782368e-05 8.069767561870e-04 0.0 
8.963794712653e-07 -1.169660739621e-04 0.0 
5.576782519725e-05 1.379908302004e-04 0.0 
2.770942188974e-04 4.284261131972e-04 0.0 
2.600806506918e-05 1.582383564589e-04 0.0 
1.023827715634e-05 2.934446837677e-04 0.0 
1.363094317115e-04 7.572279239939e-05 0.0 
6.176167714347e-05 1.060468991684e-03 0.0 
-1.263560746898e-05 -8.942348040508e-05 0.0 
-1.010403526350e-04 3.145743242119e-04 0.0 
-5.150507397610e-06 -9.372873573567e-05 0.0 
1.342389561171e-05 -6.251670182146e-05 0.0 
-2.709728357481e-04 5.133666948505e-04 0.0 
4.160520996071e-05 -6.975619306418e-05 0.0 
2.126955767407e-05 -9.254455794854e-08 0.0 
1.290993319677e-04 2.639083206938e-04 0.0 
2.433335337639e-04 1.017332844263e-03 0.0 
5.696155267986e-05 -7.842133116582e-05 0.0 
8.433131173275e-05 1.459252743055e-05 0.0 
1.490737157460e-04 4.754675703303e-05 0.0 
1.316107583563e-04 8.575136006903e-05 0.0 
1.724275224544e-04 1.719456014232e-04 0.0 
2.225112312546e-04 3.157870839487e-04 0.0 
-6.386402329673e-07 -6.495968459785e-05 0.0 
-7.912344871325e-05 1.607545852917e-04 0.0 
2.965699865154e-05 1.004139113863e-06 0.0 
2.261570090120e-06 -1.165618156182e-04 0.0 
5.770753975588e-07 -1.163359181934e-04 0.0 
-1.583044599090e-04 5.815543388436e-04 0.0 
2.006950409519e-06 -9.246279873068e-05 0.0 
5.768929971763e-05 1.414796057942e-05 0.0 
9.346809338231e-05 1.135084900780e-04 0.0 
2.810049772297e-05 2.641158750857e-04 0.0 
1.038292453120e-04 6.942712467888e-05 0.0 
1.777925533505e-04 5.798647282963e-05 0.0 
4.978080953142e-05 9.780031123331e-04 0.0 
6.667191224100e-06 3.128524827887e-05 0.0 
9.806773924614e-05 4.783358904185e-05 0.0 
1.110368784216e-04 1.454976781361e-03 0.0 
5.875049642320e-06 -1.597469017660e-06 0.0 
-2.147575834428e-07 -1.073103690758e-04 0.0 
1.041396781862e-05 1.592194978813e-06 0.0 
2.343005371637e-04 1.276509364804e-03 0.0 
8.648842510378e-06 -1.135581630849e-04 0.0 
2.901737016912e-05 -7.335318794426e-05 0.0 
1.068277095218e-04 1.388390879101e-04 0.0 
4.463099087856e-05 2.804849595592e-04 0.0 
5.318308225081e-05 1.415498430964e-04 0.0 
1.534547114580e-05 -9.801551282818e-05 0.0 
-8.851094440497e-05 2.679831885396e-04 0.0 
4.416614103642e-05 7.070852667455e-06 0.0 
1.598304074384e-06 7.412091047355e-05 0.0 
2.536750747907e-06 7.300323583367e-07 0.0 
7.719563926423e-06 1.317162319264e-03 0.0 
1.336779610594e-04 4.484240112805e-05 0.0 
1.195115421878e-05 -1.122112745780e-04 0.0 
6.695877170101e-05 2.468379466822e-04 0.0 
-2.892789784953e-06 -1.026549440557e-04 0.0 
6.783538524809e-05 2.005382026996e-05 0.0 
7.096509213697e-05 1.834960002964e-04 0.0 
-1.481990760304e-04 3.271356902119e-04 0.0 
2.493480209898e-04 2.142944949201e-04 0.0 
2.819131956175e-05 6.694950314294e-04 0.0 
1.733269814191e-05 1.500007212478e-04 0.0 
1.998271112807e-05 9.547916481627e-06 0.0 
1.185934216835e-05 8.742308304841e-04 0.0 
8.539880298194e-05 1.148747651724e-04 0.0 
9.090781285052e-05 2.502953076342e-04 0.0 
2.352695586194e-05 7.686697394712e-04 0.0 
1.403312441541e-04 1.888264035054e-04 0.0 
3.049223742162e-05 -8.568078805080e-05 0.0 
5.534938062627e-05 1.406643044382e-03 0.0 
1.766009218303e-04 1.274697890366e-04 0.0 
1.679018362596e-06 1.577349285065e-04 0.0 
-3.582065146125e-07 -1.174031562693e-04 0.0 
1.502585705831e-05 1.405767202527e-03 0.0 
2.278268797404e-06 7.075257832904e-07 0.0 
2.301312264509e-05 -1.068491127832e-04 0.0 
1.656688649762e-04 6.440845254825e-05 0.0 
1.153614350882e-04 2.641218613577e-04 0.0 
2.037438686674e-05 1.946433727668e-04 0.0 
1.423277719598e-05 -1.114515298487e-04 0.0 
-7.243655766381e-05 4.797223191114e-04 0.0 
3.314186162158e-06 -5.302016296426e-05 0.0 
1.119815088860e-05 5.204015651540e-04 0.0 
-1.834261111047e-04 1.743570294848e-04 0.0 
4.098605340056e-05 1.397991061581e-04 0.0 
2.138278374563e-05 9.025312270657e-04 0.0 
3.983789282670e-05 -8.790854923761e-06 0.0 
4.039333896032e-05 1.009472837757e-03 0.0 
1.333787656104e-04 9.560760666981e-05 0.0 
6.242075690778e-06 -4.773772476640e-05 0.0 
-2.378237556677e-04 5.381314902684e-04 0.0 
3.433583307604e-05 -9.086161518387e-05 0.0 
4.269860200375e-05 -6.107343636774e-05 0.0 
2.927889528620e-06 -4.267299812770e-05 0.0 
1.781120892586e-04 1.039168985926e-04 0.0 
2.203520801419e-05 -6.457371937779e-05 0.0 
2.857289975411e-05 -5.769714703290e-05 0.0 
3.249548358963e-06 -1.000577742200e-04 0.0 
5.703882144490e-05 7.945216133183e-06 0.0 
2.303564159612e-04 2.488721872682e-04 0.0 
1.133121516232e-05 4.791226042444e-04 0.0 
2.803257538873e-06 1.493761182299e-04 0.0 
4.105637753350e-06 9.072522015097e-07 0.0 
1.467453145208e-05 1.324909609127e-03 0.0 
1.615632765235e-05 9.349264341556e-04 0.0 
3.033005250478e-05 -6.520742991964e-05 0.0 
3.406807250018e-05 -6.136465129663e-05 0.0 
2.091490352709e-05 -5.959132465857e-05 0.0 
2.031404585674e-04 8.543085705035e-05 0.0 
1.911365469650e-05 -1.380911302037e-05 0.0 
1.934487028583e-04 2.059765529815e-04 0.0 
2.660308925434e-05 1.157543650304e-03 0.0 
4.962234436645e-05 1.826031043732e-04 0.0 
1.966538267539e-04 7.814892391173e-05 0.0 
4.746548406753e-05 1.038667630603e-03 0.0 
1.862525093967e-04 2.732148348412e-04 0.0 
1.755965192211e-04 1.073201836235e-04 0.0 
1.323166243802e-04 7.967176064597e-05 0.0 
-2.009329737295e-04 5.039486096088e-04 0.0 
1.935945762426e-04 2.713647647251e-04 0.0 
1.657876561231e-04 2.202058862866e-04 0.0 
2.976244821366e-06 -1.030166976223e-04 0.0 
3.362991245515e-05 -6.906564695247e-05 0.0 
-2.054797624353e-04 4.569158070710e-04 0.0 
1.545187110702e-04 2.222635018831e-04 0.0 
2.516473906151e-05 2.497326943175e-03 0.0 
2.821117449220e-05 2.446902517121e-03 0.0 
3.877792796655e-05 2.498166289714e-03 0.0 
4.147347459814e-05 2.448214306046e-03 0.0 
5.103321067741e-05 2.499177473299e-03 0.0 
5.455774693725e-05 2.449014229411e-03 0.0 
6.360064476911e-05 2.499767513204e-03 0.0 
6.742801680405e-05 2.449581311397e-03 0.0 
7.607178063999e-05 2.500165925820e-03 0.0 
7.993656141714e-05 2.449975127314e-03 0.0 
8.812548795642e-05 2.500316020059e-03 0.0 
9.190875137207e-05 2.450088516051e-03 0.0 
9.951277818021e-05 2.500054813046e-03 0.0 
1.031664431171e-04 2.449734850402e-03 0.0 
1.100195945644e-04 2.499164106492e-03 0.0 
1.135319894474e-04 2.448673626367e-03 0.0 
1.194432374557e-04 2.497375261093e-03 0.0 
1.228251792871e-04 2.446610180700e-03 0.0 
1.275784002644e-04 2.494362177723e-03 0.0 
3.350773182258e-05 1.805265453631e-03 0.0 
1.308595454629e-04 2.443187328460e-03 0.0 
1.342089194299e-04 2.489731180372e-03 0.0 
1.374395574625e-04 2.437973887130e-03 0.0 
6.604994682774e-05 1.841534409640e-03 0.0 
1.391025923452e-04 2.483008826744e-03 0.0 
1.423602079276e-04 2.430449218383e-03 0.0 
1.420094404475e-04 2.473620425047e-03 0.0 
1.454096603652e-04 2.419976309179e-03 0.0 
1.426655457722e-04 2.460866082837e-03 0.0 
-3.823854563960e-05 1.818294916786e-03 0.0 
1.463791212936e-04 2.405778416531e-03 0.0 
1.408059333331e-04 2.443887431453e-03 0.0 
1.450773590042e-04 2.386899358594e-03 0.0 
1.361791000770e-04 2.421654050923e-03 0.0 
1.413544847077e-04 2.362194278984e-03 0.0 
1.285671374941e-04 2.392890012383e-03 0.0 
1.351206406288e-04 2.330219658403e-03 0.0 
1.178101066542e-04 2.356070506598e-03 0.0 
1.264067666191e-04 2.289259706582e-03 0.0 
1.038560076446e-04 2.309192580134e-03 0.0 
1.153894067063e-04 2.236979038576e-03 0.0 
5.613386166205e-05 1.698755984365e-03 0.0 
1.026111305090e-04 2.170653497689e-03 0.0 
8.686514197023e-05 2.249901474604e-03 0.0 
8.899848460874e-05 2.086252571919e-03 0.0 
6.736732252192e-05 2.174768370729e-03 0.0 
7.597827478837e-05 1.979440959821e-03 0.0 
4.674405587189e-05 2.080095975171e-03 0.0 
2.706370486625e-05 1.959617702666e-03 0.0 
-1.561241580013e-05 1.711785447521e-03 0.0 
3.255998827613e-06 2.471652470805e-03 0.0 
1.605339268773e-05 2.471679434394e-03 0.0 
8.672173822221e-06 2.420411841346e-03 0.0 
1.063721769313e-05 2.522920063853e-03 0.0 
-4.364575850214e-05 1.610880972402e-03 0.0 
1.962018931620e-05 2.294833862450e-03 0.0 
2.531503034612e-05 2.345929353967e-03 0.0 
3.401474656967e-05 2.296202120245e-03 0.0 
3.960643734734e-05 2.347223299730e-03 0.0 
4.780192036883e-05 2.297314739386e-03 0.0 
5.319349387946e-05 2.348142501814e-03 0.0 
6.111932973275e-05 2.298154415407e-03 0.0 
6.631095482547e-05 2.348839941198e-03 0.0 
7.402106183587e-05 2.298830474572e-03 0.0 
7.900290459160e-05 2.349381046265e-03 0.0 
8.649080857066e-05 2.299308534234e-03 0.0 
9.120772881186e-05 2.349675111274e-03 0.0 
9.846324539410e-05 2.299451267770e-03 0.0 
1.028179328912e-04 2.349544709904e-03 0.0 
1.098472936435e-04 2.299054130771e-03 0.0 
1.137081987523e-04 2.348753791144e-03 0.0 
1.205406013029e-04 2.297855734785e-03 0.0 
1.237463338294e-04 2.347010489615e-03 0.0 
1.650855686448e-04 1.878965567004e-03 0.0 
1.304371240398e-04 2.295535245810e-03 0.0 
1.327971146959e-04 2.343960087632e-03 0.0 
1.394315987367e-04 2.291703191253e-03 0.0 
1.305345889942e-04 1.906587487846e-03 0.0 
1.407246675362e-04 2.339173138839e-03 0.0 
1.800953147465e-04 1.893940610178e-03 0.0 
1.474241677389e-04 2.285887262773e-03 0.0 
1.473966732475e-04 2.332128402703e-03 0.0 
1.543271798751e-04 2.277511462014e-03 0.0 
1.526909344728e-04 2.322188161825e-03 0.0 
1.600748520075e-04 2.265870716613e-03 0.0 
1.565071534213e-04 2.308571197661e-03 0.0 
1.646372406691e-04 2.250100872478e-03 0.0 
1.587806342126e-04 2.290320018490e-03 0.0 
1.845715556230e-04 1.802105190772e-03 0.0 
1.680384329522e-04 2.229148412237e-03 0.0 
1.595105423746e-04 2.266267980403e-03 0.0 
1.703855353166e-04 2.201716894874e-03 0.0 
1.587829807844e-04 2.234972839475e-03 0.0 
1.568376218872e-04 2.194660220021e-03 0.0 
1.719033020778e-04 2.166224201109e-03 0.0 
1.540744056898e-04 2.143033912215e-03 0.0 
1.729718618962e-04 2.120647967212e-03 0.0 
1.512531443192e-04 2.077203106350e-03 0.0 
1.490999934716e-04 1.993336533435e-03 0.0 
1.741921547639e-04 2.062505956904e-03 0.0 
1.761108451949e-04 1.988401940906e-03 0.0 
1.500205759724e-04 1.829727111614e-03 0.0 
2.499987958275e-06 2.318887492719e-03 0.0 
1.264897621916e-05 2.319472081754e-03 0.0 
7.916162952883e-06 2.369724406278e-03 0.0 
7.232801224554e-06 2.268635168195e-03 0.0 
1.344505037280e-04 1.784497290563e-03 0.0 
1.889643021390e-05 2.193758391442e-03 0.0 
2.361768068957e-05 2.143640228469e-03 0.0 
3.304115601542e-05 2.194988465754e-03 0.0 
3.775899812272e-05 2.144863515720e-03 0.0 
4.692807169846e-05 2.196168609867e-03 0.0 
5.166701835582e-05 2.145994038879e-03 0.0 
6.046670287948e-05 2.197152081991e-03 0.0 
6.527928167344e-05 2.146976158983e-03 0.0 
7.364201553710e-05 2.197969025774e-03 0.0 
7.858150230373e-05 2.147793929683e-03 0.0 
8.644845258156e-05 2.198582866449e-03 0.0 
9.156050994638e-05 2.148367887788e-03 0.0 
9.885838251773e-05 2.198869712068e-03 0.0 
1.041905326402e-04 2.148544374608e-03 0.0 
1.108247562689e-04 2.198635351177e-03 0.0 
1.164355218785e-04 2.148102511187e-03 0.0 
1.222904618036e-04 2.197623234423e-03 0.0 
2.339040450783e-04 1.879246072618e-03 0.0 
1.282557402084e-04 2.146756507143e-03 0.0 
1.331966699181e-04 2.195513763700e-03 0.0 
2.403785142477e-04 1.880832537501e-03 0.0 
1.396149839347e-04 2.144151451594e-03 0.0 
1.434899220972e-04 2.191916037324e-03 0.0 
1.504875435222e-04 2.139852254336e-03 0.0 
1.531287203644e-04 2.186353532199e-03 0.0 
1.608653606842e-04 2.133326777387e-03 0.0 
2.126273015385e-04 1.913471512629e-03 0.0 
1.620913146863e-04 2.178243567272e-03 0.0 
1.707660420156e-04 2.123920140629e-03 0.0 
1.703858247391e-04 2.166870590158e-03 0.0 
1.802480813186e-04 2.110830172497e-03 0.0 
1.780671958349e-04 2.151359973770e-03 0.0 
1.894215091358e-04 2.093070188984e-03 0.0 
1.852493527096e-04 2.130639481440e-03 0.0 
1.984747975423e-04 2.069443370350e-03 0.0 
1.921388707268e-04 2.103401215618e-03 0.0 
2.076776782035e-04 2.038448792832e-03 0.0 
2.506316033556e-04 1.819065767919e-03 0.0 
2.174429834938e-04 1.998332819009e-03 0.0 
1.990446640866e-04 2.068015833721e-03 0.0 
2.280754001057e-04 1.946804775302e-03 0.0 
2.064358614939e-04 2.022528933588e-03 0.0 
2.147291495819e-04 1.964395853615e-03 0.0 
2.293548598157e-04 1.853291207929e-03 0.0 
2.313747232944e-06 2.167572323359e-03 0.0 
1.173897639154e-05 2.167967228845e-03 0.0 
7.006163125261e-06 2.117333765910e-03 0.0 
7.046560499223e-06 2.218205786294e-03 0.0 
2.238337247471e-04 1.828825712949e-03 0.0 
1.844109048421e-05 1.991650156303e-03 0.0 
2.331562154572e-05 2.042510997183e-03 0.0 
3.241268135957e-05 1.992661489749e-03 0.0 
3.743258261072e-05 2.043665771001e-03 0.0 
4.639137725483e-05 1.993815438598e-03 0.0 
5.145673942419e-05 2.044838612329e-03 0.0 
6.028340656410e-05 1.994923359973e-03 0.0 
6.530626428968e-05 2.045902863514e-03 0.0 
7.404298965073e-05 1.995910752972e-03 0.0 
7.895549380111e-05 2.046808952350e-03 0.0 
8.766305614980e-05 1.996701976754e-03 0.0 
9.240112201725e-05 2.047471975426e-03 0.0 
1.011492451901e-04 1.997171410112e-03 0.0 
1.056407832417e-04 2.047741985014e-03 0.0 
1.145097222648e-04 1.997133517355e-03 0.0 
1.186702372729e-04 2.047403066959e-03 0.0 
2.662898331132e-04 1.833255863571e-03 0.0 
1.277532693496e-04 1.996339335827e-03 0.0 
1.314838323599e-04 2.046172052775e-03 0.0 
2.534457739142e-04 1.873337650591e-03 0.0 
1.408927427562e-04 1.994471953280e-03 0.0 
1.440829646214e-04 2.043694095542e-03 0.0 
2.672897882354e-04 1.824772634382e-03 0.0 
1.539540216973e-04 1.991139803009e-03 0.0 
1.564836624357e-04 2.039533376072e-03 0.0 
1.669805826893e-04 1.985864352090e-03 0.0 
1.687211040957e-04 2.033156475541e-03 0.0 
1.800380193290e-04 1.978062141000e-03 0.0 
1.808570032467e-04 2.023909016201e-03 0.0 
2.813741891380e-04 1.782991982079e-03 0.0 
1.932178592527e-04 1.967008119454e-03 0.0 
1.929891546011e-04 2.010978826221e-03 0.0 
2.066593594564e-04 1.951830215297e-03 0.0 
2.052725994749e-04 1.993391776788e-03 0.0 
2.179146778168e-04 1.969929000437e-03 0.0 
2.205403233232e-04 1.931446699331e-03 0.0 
2.312189444101e-04 1.939159351307e-03 0.0 
2.351200172079e-04 1.904597404180e-03 0.0 
2.454009359681e-04 1.899305120771e-03 0.0 
2.505438827675e-04 1.869698693958e-03 0.0 
2.685301299391e-04 1.823073769099e-03 0.0 
2.283098756736e-06 2.016324364174e-03 0.0 
1.155504732949e-05 2.016559239673e-03 0.0 
6.975514649053e-06 2.066904780591e-03 0.0 
6.862631437172e-06 1.965978823257e-03 0.0 
2.688091207962e-04 1.812977577696e-03 0.0 
1.844711973092e-05 1.890641369020e-03 0.0 
2.330347483450e-05 1.840345757084e-03 0.0 
3.239450540164e-05 1.891505036933e-03 0.0 
3.743572599466e-05 1.841260356512e-03 0.0 
4.641269659670e-05 1.892566476924e-03 0.0 
5.163857722414e-05 1.842322308813e-03 0.0 
6.044392502217e-05 1.893656018130e-03 0.0 
6.587911417646e-05 1.843384568390e-03 0.0 
7.445532107943e-05 1.894659799690e-03 0.0 
8.015455653415e-05 1.844330325294e-03 0.0 
8.844978745413e-05 1.895474302980e-03 0.0 
9.448056389199e-05 1.845039874596e-03 0.0 
1.024419557605e-04 1.895966983056e-03 0.0 
1.088872120642e-04 1.845350222993e-03 0.0 
1.164634405169e-04 1.895946182389e-03 0.0 
2.752904465435e-04 1.752287558791e-03 0.0 
1.234169374280e-04 1.845044597893e-03 0.0 
2.724396376651e-04 1.737029083779e-03 0.0 
1.305462512526e-04 1.895168201726e-03 0.0 
1.381123369561e-04 1.843844465282e-03 0.0 
1.447282654493e-04 1.893315499887e-03 0.0 
1.530310532122e-04 1.841389371419e-03 0.0 
1.590665875950e-04 1.889991532279e-03 0.0 
1.682511761204e-04 1.837239426955e-03 0.0 
2.683635645426e-04 1.795580231225e-03 0.0 
1.736355304764e-04 1.884718673702e-03 0.0 
1.838668617769e-04 1.830862551421e-03 0.0 
1.885288292231e-04 1.876913895266e-03 0.0 
1.999923611932e-04 1.821615470327e-03 0.0 
2.038624073050e-04 1.865862819313e-03 0.0 
2.167505352433e-04 1.808676176204e-03 0.0 
2.197761920463e-04 1.850672865422e-03 0.0 
2.343120072418e-04 1.791107160229e-03 0.0 
2.527678573169e-04 1.767718377979e-03 0.0 
2.364628985002e-04 1.830319432646e-03 0.0 
2.886656206222e-04 1.710337803852e-03 0.0 
2.540506215311e-04 1.803514048407e-03 0.0 
2.817387386214e-04 1.753630476286e-03 0.0 
2.288137173902e-06 1.864880437614e-03 0.0 
1.156611499336e-05 1.865059884934e-03 0.0 
6.986582312926e-06 1.814452066748e-03 0.0 
6.867669854338e-06 1.915488255800e-03 0.0 
2.858079091135e-04 1.753216452629e-03 0.0 
1.846246026037e-05 1.688315995554e-03 0.0 
2.331372105675e-05 1.739133667175e-03 0.0 
3.243764890730e-05 1.688980554068e-03 0.0 
3.746862327807e-05 1.739947963556e-03 0.0 
4.655999981257e-05 1.689876527502e-03 0.0 
5.175298315659e-05 1.740944752347e-03 0.0 
6.083991711777e-05 1.690856608988e-03 0.0 
6.616070033961e-05 1.741962715714e-03 0.0 
7.528837171297e-05 1.691773456270e-03 0.0 
8.070602100454e-05 1.742865834550e-03 0.0 
8.994040507960e-05 1.692515904546e-03 0.0 
9.541971704707e-05 1.743545966906e-03 0.0 
1.048320759939e-04 1.692935292140e-03 0.0 
2.674489901933e-04 1.648119214912e-03 0.0 
1.103381791425e-04 1.743812439766e-03 0.0 
1.200258525937e-04 1.692832036129e-03 0.0 
2.645663417226e-04 1.694380494254e-03 0.0 
1.255283824265e-04 1.743468234859e-03 0.0 
1.355886922848e-04 1.691986137835e-03 0.0 
2.622209020300e-04 1.627937939562e-03 0.0 
1.410433329898e-04 1.742238764425e-03 0.0 
1.515837405142e-04 1.690073697378e-03 0.0 
1.569555322433e-04 1.739753269767e-03 0.0 
1.681000753603e-04 1.686696734456e-03 0.0 
1.733601848547e-04 1.735580730784e-03 0.0 
2.798720736565e-04 1.611073598746e-03 0.0 
1.852445946481e-04 1.681399369612e-03 0.0 
1.903669172144e-04 1.729201943501e-03 0.0 
2.080916436488e-04 1.719988206200e-03 0.0 
2.031281671162e-04 1.673626023220e-03 0.0 
2.266691603839e-04 1.707172773121e-03 0.0 
2.218803149013e-04 1.662732152102e-03 0.0 
2.461195622020e-04 1.689801937105e-03 0.0 
2.415023721472e-04 1.647864239214e-03 0.0 
2.769894251858e-04 1.657334878088e-03 0.0 
2.283363433959e-06 1.713256834489e-03 0.0 
1.156643556062e-05 1.713401730849e-03 0.0 
6.981808572983e-06 1.763907196220e-03 0.0 
6.867990421595e-06 1.662751369118e-03 0.0 
2.835799569141e-04 1.664187797186e-03 0.0 
1.844453173942e-05 1.587115362764e-03 0.0 
2.326190423995e-05 1.536655527800e-03 0.0 
3.240376061145e-05 1.587703047483e-03 0.0 
3.740783977024e-05 1.537291499085e-03 0.0 
4.653310460059e-05 1.588497569616e-03 0.0 
5.176213654263e-05 1.538102149238e-03 0.0 
6.087596571578e-05 1.589392963765e-03 0.0 
6.637935902534e-05 1.538948063807e-03 0.0 
7.547098180070e-05 1.590222449587e-03 0.0 
8.128780621696e-05 1.539670012149e-03 0.0 
9.033958020429e-05 1.590871088828e-03 0.0 
9.655314571751e-05 1.540179957298e-03 0.0 
2.488870696463e-04 1.526641667481e-03 0.0 
1.055663295396e-04 1.591214098249e-03 0.0 
2.417355207359e-04 1.502757569592e-03 0.0 
1.122522100134e-04 1.540255891664e-03 0.0 
1.212056299188e-04 1.590996681917e-03 0.0 
1.284611350157e-04 1.539703666937e-03 0.0 
1.373416675489e-04 1.590056924125e-03 0.0 
1.452741774859e-04 1.538290658508e-03 0.0 
1.540616097462e-04 1.588054805172e-03 0.0 
1.627739833465e-04 1.535621326091e-03 0.0 
2.493567375045e-04 1.574484511011e-03 0.0 
1.714406572315e-04 1.584583682986e-03 0.0 
1.810622506874e-04 1.531261514080e-03 0.0 
1.896060786096e-04 1.579193204377e-03 0.0 
2.002514903663e-04 1.524743535340e-03 0.0 
2.204294735486e-04 1.515470489933e-03 0.0 
2.086512563066e-04 1.571373780293e-03 0.0 
2.286950556107e-04 1.560466678761e-03 0.0 
2.595909980620e-04 1.493856658619e-03 0.0 
2.600606659202e-04 1.541699502150e-03 0.0 
2.280006405461e-06 1.561488308050e-03 0.0 
1.154515001117e-05 1.561599969731e-03 0.0 
6.960523023538e-06 1.510938036991e-03 0.0 
6.864633393097e-06 1.612150240790e-03 0.0 
2.683076403909e-04 1.553215232810e-03 0.0 

VECTORS element_materi_displacement float
0.0 0.0 0.0 
0.0 0.0 0.0 
0.0 0.0 0.0 
0.0 0.0 0.0 
0.0 0.0 0.0 
0.0 0.0 0.0 
0.0 0.0 0.0 
0.0 0.0 0.0 
0.0 0.0 0.0 
0.0 0.0 0.0 
0.0 0.0 0.0 
0.0 0.0 0.0 
0.0 0.0 0.0 
0.0 0.0 0.0 
0.0 0.0 0.0 
0.0 0.0 0.0 
0.0 0.0 0.0 
0.0 0.0 0.0 
0.0 0.0 0.0 
0.0 0.0 0.0 
0.0 0.0 0.0 
0.0 0.0 0.0 
0.0 0.0 0.0 
0.0 0.0 0.0 
0.0 0.0 0.0 
0.0 0.0 0.0 
0.0 0.0 0.0 
0.0 0.0 0.0 
0.0 0.0 0.0 
0.0 0.0 0.0 
0.0 0.0 0.0 
0.0 0.0 0.0 
0.0 0.0 0.0 
0.0 0.0 0.0 
0.0 0.0 0.0 
0.0 0.0 0.0 
0.0 0.0 0.0 
0.0 0.0 0.0 
0.0 0.0 0.0 
0.0 0.0 0.0 
0.0 0.0 0.0 
0.0 0.0 0.0 
0.0 0.0 0.0 
0.0 0.0 0.0 
0.0 0.0 0.0 
0.0 0.0 0.0 
0.0 0.0 0.0 
0.0 0.0 0.0 
0.0 0.0 0.0 
0.0 0.0 0.0 
0.0 0.0 0.0 
0.0 0.0 0.0 
0.0 0.0 0.0 
0.0 0.0 0.0 
0.0 0.0 0.0 
0.0 0.0 0.0 
0.0 0.0 0.0 
0.0 0.0 0.0 
0.0 0.0 0.0 
0.0 0.0 0.0 
0.0 0.0 0.0 
0.0 0.0 0.0 
0.0 0.0 0.0 
0.0 0.0 0.0 
0.0 0.0 0.0 
0.0 0.0 0.0 
0.0 0.0 0.0 
0.0 0.0 0.0 
0.0 0.0 0.0 
0.0 0.0 0.0 
0.0 0.0 0.0 
0.0 0.0 0.0 
0.0 0.0 0.0 
0.0 0.0 0.0 
0.0 0.0 0.0 
0.0 0.0 0.0 
0.0 0.0 0.0 
0.0 0.0 0.0 
0.0 0.0 0.0 
0.0 0.0 0.0 
0.0 0.0 0.0 
0.0 0.0 0.0 
0.0 0.0 0.0 
0.0 0.0 0.0 
0.0 0.0 0.0 
0.0 0.0 0.0 
0.0 0.0 0.0 
0.0 0.0 0.0 
0.0 0.0 0.0 
0.0 0.0 0.0 
0.0 0.0 0.0 
0.0 0.0 0.0 
0.0 0.0 0.0 
0.0 0.0 0.0 
0.0 0.0 0.0 
0.0 0.0 0.0 
0.0 0.0 0.0 
0.0 0.0 0.0 
0.0 0.0 0.0 
0.0 0.0 0.0 
0.0 0.0 0.0 
0.0 0.0 0.0 
0.0 0.0 0.0 
0.0 0.0 0.0 
0.0 0.0 0.0 
0.0 0.0 0.0 
0.0 0.0 0.0 
0.0 0.0 0.0 
0.0 0.0 0.0 
0.0 0.0 0.0 
0.0 0.0 0.0 
0.0 0.0 0.0 
0.0 0.0 0.0 
0.0 0.0 0.0 
0.0 0.0 0.0 
0.0 0.0 0.0 
0.0 0.0 0.0 
0.0 0.0 0.0 
0.0 0.0 0.0 
0.0 0.0 0.0 
0.0 0.0 0.0 
0.0 0.0 0.0 
0.0 0.0 0.0 
0.0 0.0 0.0 
0.0 0.0 0.0 
0.0 0.0 0.0 
0.0 0.0 0.0 
0.0 0.0 0.0 
0.0 0.0 0.0 
0.0 0.0 0.0 
0.0 0.0 0.0 
0.0 0.0 0.0 
0.0 0.0 0.0 
0.0 0.0 0.0 
0.0 0.0 0.0 
0.0 0.0 0.0 
0.0 0.0 0.0 
0.0 0.0 0.0 
0.0 0.0 0.0 
0.0 0.0 0.0 
0.0 0.0 0.0 
0.0 0.0 0.0 
0.0 0.0 0.0 
0.0 0.0 0.0 
0.0 0.0 0.0 
0.0 0.0 0.0 
0.0 0.0 0.0 
0.0 0.0 0.0 
0.0 0.0 0.0 
0.0 0.0 0.0 
0.0 0.0 0.0 
0.0 0.0 0.0 
0.0 0.0 0.0 
0.0 0.0 0.0 
0.0 0.0 0.0 
0.0 0.0 0.0 
0.0 0.0 0.0 
0.0 0.0 0.0 
0.0 0.0 0.0 
0.0 0.0 0.0 
0.0 0.0 0.0 
0.0 0.0 0.0 
0.0 0.0 0.0 
0.0 0.0 0.0 
0.0 0.0 0.0 
0.0 0.0 0.0 
0.0 0.0 0.0 
0.0 0.0 0.0 
0.0 0.0 0.0 
0.0 0.0 0.0 
0.0 0.0 0.0 
0.0 0.0 0.0 
0.0 0.0 0.0 
0.0 0.0 0.0 
0.0 0.0 0.0 
0.0 0.0 0.0 
0.0 0.0 0.0 
0.0 0.0 0.0 
0.0 0.0 0.0 
0.0 0.0 0.0 
0.0 0.0 0.0 
0.0 0.0 0.0 
0.0 0.0 0.0 
0.0 0.0 0.0 
0.0 0.0 0.0 
0.0 0.0 0.0 
0.0 0.0 0.0 
0.0 0.0 0.0 
0.0 0.0 0.0 
0.0 0.0 0.0 
0.0 0.0 0.0 
0.0 0.0 0.0 
0.0 0.0 0.0 
0.0 0.0 0.0 
0.0 0.0 0.0 
0.0 0.0 0.0 
0.0 0.0 0.0 
0.0 0.0 0.0 
0.0 0.0 0.0 
0.0 0.0 0.0 
0.0 0.0 0.0 
0.0 0.0 0.0 
0.0 0.0 0.0 
0.0 0.0 0.0 
0.0 0.0 0.0 
0.0 0.0 0.0 
0.0 0.0 0.0 
0.0 0.0 0.0 
0.0 0.0 0.0 
0.0 0.0 0.0 
0.0 0.0 0.0 
0.0 0.0 0.0 
0.0 0.0 0.0 
0.0 0.0 0.0 
0.0 0.0 0.0 
0.0 0.0 0.0 
0.0 0.0 0.0 
0.0 0.0 0.0 
0.0 0.0 0.0 
0.0 0.0 0.0 
0.0 0.0 0.0 
0.0 0.0 0.0 
0.0 0.0 0.0 
0.0 0.0 0.0 
0.0 0.0 0.0 
0.0 0.0 0.0 
0.0 0.0 0.0 
0.0 0.0 0.0 
0.0 0.0 0.0 
0.0 0.0 0.0 
0.0 0.0 0.0 
0.0 0.0 0.0 
0.0 0.0 0.0 
0.0 0.0 0.0 
0.0 0.0 0.0 
0.0 0.0 0.0 
0.0 0.0 0.0 
0.0 0.0 0.0 
0.0 0.0 0.0 
0.0 0.0 0.0 
0.0 0.0 0.0 
0.0 0.0 0.0 
0.0 0.0 0.0 
0.0 0.0 0.0 
0.0 0.0 0.0 
0.0 0.0 0.0 
0.0 0.0 0.0 
0.0 0.0 0.0 
0.0 0.0 0.0 
0.0 0.0 0.0 
0.0 0.0 0.0 
0.0 0.0 0.0 
0.0 0.0 0.0 
0.0 0.0 0.0 
0.0 0.0 0.0 
0.0 0.0 0.0 
0.0 0.0 0.0 
0.0 0.0 0.0 
0.0 0.0 0.0 
0.0 0.0 0.0 
0.0 0.0 0.0 
0.0 0.0 0.0 
0.0 0.0 0.0 
0.0 0.0 0.0 
0.0 0.0 0.0 
0.0 0.0 0.0 
0.0 0.0 0.0 
0.0 0.0 0.0 
0.0 0.0 0.0 
0.0 0.0 0.0 
0.0 0.0 0.0 
0.0 0.0 0.0 
0.0 0.0 0.0 
0.0 0.0 0.0 
0.0 0.0 0.0 
0.0 0.0 0.0 
0.0 0.0 0.0 
0.0 0.0 0.0 
0.0 0.0 0.0 
0.0 0.0 0.0 
0.0 0.0 0.0 
0.0 0.0 0.0 
0.0 0.0 0.0 
0.0 0.0 0.0 
0.0 0.0 0.0 
0.0 0.0 0.0 
0.0 0.0 0.0 
0.0 0.0 0.0 
0.0 0.0 0.0 
0.0 0.0 0.0 
0.0 0.0 0.0 
0.0 0.0 0.0 
0.0 0.0 0.0 
0.0 0.0 0.0 
0.0 0.0 0.0 
0.0 0.0 0.0 
0.0 0.0 0.0 
0.0 0.0 0.0 
0.0 0.0 0.0 
0.0 0.0 0.0 
0.0 0.0 0.0 
0.0 0.0 0.0 
0.0 0.0 0.0 
0.0 0.0 0.0 
0.0 0.0 0.0 
0.0 0.0 0.0 
0.0 0.0 0.0 
0.0 0.0 0.0 
0.0 0.0 0.0 
0.0 0.0 0.0 
0.0 0.0 0.0 
0.0 0.0 0.0 
0.0 0.0 0.0 
0.0 0.0 0.0 
0.0 0.0 0.0 
0.0 0.0 0.0 
0.0 0.0 0.0 
0.0 0.0 0.0 
0.0 0.0 0.0 
0.0 0.0 0.0 
0.0 0.0 0.0 
0.0 0.0 0.0 
0.0 0.0 0.0 
0.0 0.0 0.0 
0.0 0.0 0.0 
0.0 0.0 0.0 
0.0 0.0 0.0 
0.0 0.0 0.0 
0.0 0.0 0.0 
0.0 0.0 0.0 
0.0 0.0 0.0 
0.0 0.0 0.0 
0.0 0.0 0.0 
0.0 0.0 0.0 
0.0 0.0 0.0 
0.0 0.0 0.0 
0.0 0.0 0.0 
0.0 0.0 0.0 
0.0 0.0 0.0 
0.0 0.0 0.0 
0.0 0.0 0.0 
0.0 0.0 0.0 
0.0 0.0 0.0 
0.0 0.0 0.0 
0.0 0.0 0.0 
0.0 0.0 0.0 
0.0 0.0 0.0 
0.0 0.0 0.0 
0.0 0.0 0.0 
0.0 0.0 0.0 
0.0 0.0 0.0 
0.0 0.0 0.0 
0.0 0.0 0.0 
0.0 0.0 0.0 
0.0 0.0 0.0 
0.0 0.0 0.0 
0.0 0.0 0.0 
0.0 0.0 0.0 
0.0 0.0 0.0 
0.0 0.0 0.0 
0.0 0.0 0.0 
0.0 0.0 0.0 
0.0 0.0 0.0 
0.0 0.0 0.0 
0.0 0.0 0.0 
0.0 0.0 0.0 
0.0 0.0 0.0 
0.0 0.0 0.0 
0.0 0.0 0.0 
0.0 0.0 0.0 
0.0 0.0 0.0 
0.0 0.0 0.0 
0.0 0.0 0.0 
0.0 0.0 0.0 
0.0 0.0 0.0 
0.0 0.0 0.0 
0.0 0.0 0.0 
0.0 0.0 0.0 
0.0 0.0 0.0 
0.0 0.0 0.0 
0.0 0.0 0.0 
0.0 0.0 0.0 
0.0 0.0 0.0 
0.0 0.0 0.0 
0.0 0.0 0.0 
0.0 0.0 0.0 
0.0 0.0 0.0 
0.0 0.0 0.0 
0.0 0.0 0.0 
0.0 0.0 0.0 
0.0 0.0 0.0 
0.0 0.0 0.0 
0.0 0.0 0.0 
0.0 0.0 0.0 
0.0 0.0 0.0 
0.0 0.0 0.0 
0.0 0.0 0.0 
0.0 0.0 0.0 
0.0 0.0 0.0 
0.0 0.0 0.0 
0.0 0.0 0.0 
0.0 0.0 0.0 
0.0 0.0 0.0 
0.0 0.0 0.0 
0.0 0.0 0.0 
0.0 0.0 0.0 
0.0 0.0 0.0 
0.0 0.0 0.0 
0.0 0.0 0.0 
0.0 0.0 0.0 
0.0 0.0 0.0 
0.0 0.0 0.0 
0.0 0.0 0.0 
0.0 0.0 0.0 
0.0 0.0 0.0 
0.0 0.0 0.0 
0.0 0.0 0.0 
0.0 0.0 0.0 
0.0 0.0 0.0 
0.0 0.0 0.0 
0.0 0.0 0.0 
0.0 0.0 0.0 
0.0 0.0 0.0 
0.0 0.0 0.0 
0.0 0.0 0.0 
0.0 0.0 0.0 
0.0 0.0 0.0 
0.0 0.0 0.0 
0.0 0.0 0.0 
0.0 0.0 0.0 
0.0 0.0 0.0 
0.0 0.0 0.0 
0.0 0.0 0.0 
0.0 0.0 0.0 
0.0 0.0 0.0 
0.0 0.0 0.0 
0.0 0.0 0.0 
0.0 0.0 0.0 
0.0 0.0 0.0 
0.0 0.0 0.0 
0.0 0.0 0.0 
0.0 0.0 0.0 
0.0 0.0 0.0 
0.0 0.0 0.0 
0.0 0.0 0.0 
0.0 0.0 0.0 
0.0 0.0 0.0 
0.0 0.0 0.0 
0.0 0.0 0.0 
0.0 0.0 0.0 
0.0 0.0 0.0 
0.0 0.0 0.0 
0.0 0.0 0.0 
0.0 0.0 0.0 
0.0 0.0 0.0 
0.0 0.0 0.0 
0.0 0.0 0.0 
0.0 0.0 0.0 
0.0 0.0 0.0 
0.0 0.0 0.0 
0.0 0.0 0.0 
0.0 0.0 0.0 
0.0 0.0 0.0 
0.0 0.0 0.0 
0.0 0.0 0.0 
0.0 0.0 0.0 
0.0 0.0 0.0 
0.0 0.0 0.0 
0.0 0.0 0.0 
0.0 0.0 0.0 
0.0 0.0 0.0 
0.0 0.0 0.0 
0.0 0.0 0.0 
0.0 0.0 0.0 
0.0 0.0 0.0 
0.0 0.0 0.0 
0.0 0.0 0.0 
0.0 0.0 0.0 
0.0 0.0 0.0 
0.0 0.0 0.0 
0.0 0.0 0.0 
0.0 0.0 0.0 
0.0 0.0 0.0 
0.0 0.0 0.0 
0.0 0.0 0.0 
0.0 0.0 0.0 
0.0 0.0 0.0 
0.0 0.0 0.0 
0.0 0.0 0.0 
0.0 0.0 0.0 
0.0 0.0 0.0 
0.0 0.0 0.0 
0.0 0.0 0.0 
0.0 0.0 0.0 
0.0 0.0 0.0 
0.0 0.0 0.0 
0.0 0.0 0.0 
0.0 0.0 0.0 
0.0 0.0 0.0 
0.0 0.0 0.0 
0.0 0.0 0.0 
0.0 0.0 0.0 
0.0 0.0 0.0 
0.0 0.0 0.0 
0.0 0.0 0.0 
0.0 0.0 0.0 
0.0 0.0 0.0 
0.0 0.0 0.0 
0.0 0.0 0.0 
0.0 0.0 0.0 
0.0 0.0 0.0 
0.0 0.0 0.0 
0.0 0.0 0.0 
0.0 0.0 0.0 
0.0 0.0 0.0 
0.0 0.0 0.0 
0.0 0.0 0.0 
0.0 0.0 0.0 
0.0 0.0 0.0 
0.0 0.0 0.0 
0.0 0.0 0.0 
0.0 0.0 0.0 
0.0 0.0 0.0 
0.0 0.0 0.0 
0.0 0.0 0.0 
0.0 0.0 0.0 
0.0 0.0 0.0 
0.0 0.0 0.0 
0.0 0.0 0.0 
0.0 0.0 0.0 
0.0 0.0 0.0 
0.0 0.0 0.0 
0.0 0.0 0.0 
0.0 0.0 0.0 
0.0 0.0 0.0 
0.0 0.0 0.0 
0.0 0.0 0.0 
0.0 0.0 0.0 
0.0 0.0 0.0 
0.0 0.0 0.0 
0.0 0.0 0.0 
0.0 0.0 0.0 
0.0 0.0 0.0 
0.0 0.0 0.0 
0.0 0.0 0.0 
0.0 0.0 0.0 
0.0 0.0 0.0 
0.0 0.0 0.0 
0.0 0.0 0.0 
0.0 0.0 0.0 
0.0 0.0 0.0 
0.0 0.0 0.0 
0.0 0.0 0.0 
0.0 0.0 0.0 
0.0 0.0 0.0 
0.0 0.0 0.0 
0.0 0.0 0.0 
0.0 0.0 0.0 
0.0 0.0 0.0 
0.0 0.0 0.0 
0.0 0.0 0.0 
0.0 0.0 0.0 
0.0 0.0 0.0 
0.0 0.0 0.0 
0.0 0.0 0.0 
0.0 0.0 0.0 
0.0 0.0 0.0 
0.0 0.0 0.0 
0.0 0.0 0.0 
0.0 0.0 0.0 
0.0 0.0 0.0 
0.0 0.0 0.0 
0.0 0.0 0.0 
0.0 0.0 0.0 
0.0 0.0 0.0 
0.0 0.0 0.0 
0.0 0.0 0.0 
0.0 0.0 0.0 
0.0 0.0 0.0 
0.0 0.0 0.0 
0.0 0.0 0.0 
0.0 0.0 0.0 
0.0 0.0 0.0 
0.0 0.0 0.0 
0.0 0.0 0.0 
0.0 0.0 0.0 
0.0 0.0 0.0 
0.0 0.0 0.0 
0.0 0.0 0.0 
0.0 0.0 0.0 
0.0 0.0 0.0 
0.0 0.0 0.0 
0.0 0.0 0.0 
0.0 0.0 0.0 
0.0 0.0 0.0 
0.0 0.0 0.0 
0.0 0.0 0.0 
0.0 0.0 0.0 
0.0 0.0 0.0 
0.0 0.0 0.0 
0.0 0.0 0.0 
0.0 0.0 0.0 
0.0 0.0 0.0 
0.0 0.0 0.0 
0.0 0.0 0.0 
0.0 0.0 0.0 
0.0 0.0 0.0 
0.0 0.0 0.0 
0.0 0.0 0.0 
0.0 0.0 0.0 
0.0 0.0 0.0 
0.0 0.0 0.0 
0.0 0.0 0.0 
0.0 0.0 0.0 
0.0 0.0 0.0 
0.0 0.0 0.0 
0.0 0.0 0.0 
0.0 0.0 0.0 
0.0 0.0 0.0 
0.0 0.0 0.0 
0.0 0.0 0.0 
0.0 0.0 0.0 
0.0 0.0 0.0 
0.0 0.0 0.0 
0.0 0.0 0.0 
0.0 0.0 0.0 
0.0 0.0 0.0 
0.0 0.0 0.0 
0.0 0.0 0.0 
0.0 0.0 0.0 
0.0 0.0 0.0 
0.0 0.0 0.0 
0.0 0.0 0.0 
0.0 0.0 0.0 
0.0 0.0 0.0 
0.0 0.0 0.0 
0.0 0.0 0.0 
0.0 0.0 0.0 
0.0 0.0 0.0 
0.0 0.0 0.0 
0.0 0.0 0.0 
0.0 0.0 0.0 
0.0 0.0 0.0 
0.0 0.0 0.0 
0.0 0.0 0.0 
0.0 0.0 0.0 
0.0 0.0 0.0 
0.0 0.0 0.0 
0.0 0.0 0.0 
0.0 0.0 0.0 
0.0 0.0 0.0 
0.0 0.0 0.0 
0.0 0.0 0.0 
0.0 0.0 0.0 
0.0 0.0 0.0 
0.0 0.0 0.0 
0.0 0.0 0.0 
0.0 0.0 0.0 
0.0 0.0 0.0 
0.0 0.0 0.0 
0.0 0.0 0.0 
0.0 0.0 0.0 
0.0 0.0 0.0 
0.0 0.0 0.0 
0.0 0.0 0.0 
0.0 0.0 0.0 
0.0 0.0 0.0 
0.0 0.0 0.0 
0.0 0.0 0.0 
0.0 0.0 0.0 
0.0 0.0 0.0 
0.0 0.0 0.0 
0.0 0.0 0.0 
0.0 0.0 0.0 
0.0 0.0 0.0 
0.0 0.0 0.0 
0.0 0.0 0.0 
0.0 0.0 0.0 
0.0 0.0 0.0 
0.0 0.0 0.0 
0.0 0.0 0.0 
0.0 0.0 0.0 
0.0 0.0 0.0 
0.0 0.0 0.0 
0.0 0.0 0.0 
0.0 0.0 0.0 
0.0 0.0 0.0 
0.0 0.0 0.0 
0.0 0.0 0.0 
0.0 0.0 0.0 
0.0 0.0 0.0 
0.0 0.0 0.0 
0.0 0.0 0.0 
0.0 0.0 0.0 
0.0 0.0 0.0 
0.0 0.0 0.0 
0.0 0.0 0.0 
0.0 0.0 0.0 
0.0 0.0 0.0 
0.0 0.0 0.0 
0.0 0.0 0.0 
0.0 0.0 0.0 
0.0 0.0 0.0 
0.0 0.0 0.0 
0.0 0.0 0.0 
0.0 0.0 0.0 
0.0 0.0 0.0 
0.0 0.0 0.0 
0.0 0.0 0.0 
0.0 0.0 0.0 
0.0 0.0 0.0 
0.0 0.0 0.0 
0.0 0.0 0.0 
0.0 0.0 0.0 
0.0 0.0 0.0 
0.0 0.0 0.0 
0.0 0.0 0.0 
0.0 0.0 0.0 
0.0 0.0 0.0 
0.0 0.0 0.0 
0.0 0.0 0.0 
0.0 0.0 0.0 
0.0 0.0 0.0 
0.0 0.0 0.0 
0.0 0.0 0.0 
0.0 0.0 0.0 
0.0 0.0 0.0 
0.0 0.0 0.0 
0.0 0.0 0.0 
0.0 0.0 0.0 
0.0 0.0 0.0 
0.0 0.0 0.0 
0.0 0.0 0.0 
0.0 0.0 0.0 
0.0 0.0 0.0 
0.0 0.0 0.0 
0.0 0.0 0.0 
0.0 0.0 0.0 
0.0 0.0 0.0 
0.0 0.0 0.0 
0.0 0.0 0.0 
0.0 0.0 0.0 
0.0 0.0 0.0 
0.0 0.0 0.0 
0.0 0.0 0.0 
0.0 0.0 0.0 
0.0 0.0 0.0 
0.0 0.0 0.0 
0.0 0.0 0.0 
0.0 0.0 0.0 
0.0 0.0 0.0 
0.0 0.0 0.0 
0.0 0.0 0.0 
0.0 0.0 0.0 
0.0 0.0 0.0 
0.0 0.0 0.0 
0.0 0.0 0.0 
0.0 0.0 0.0 
0.0 0.0 0.0 
0.0 0.0 0.0 
0.0 0.0 0.0 
0.0 0.0 0.0 
0.0 0.0 0.0 
0.0 0.0 0.0 
0.0 0.0 0.0 
0.0 0.0 0.0 
0.0 0.0 0.0 
0.0 0.0 0.0 
0.0 0.0 0.0 
0.0 0.0 0.0 
0.0 0.0 0.0 
0.0 0.0 0.0 
0.0 0.0 0.0 
0.0 0.0 0.0 
0.0 0.0 0.0 
0.0 0.0 0.0 
0.0 0.0 0.0 
0.0 0.0 0.0 
0.0 0.0 0.0 
0.0 0.0 0.0 
0.0 0.0 0.0 
0.0 0.0 0.0 
0.0 0.0 0.0 
0.0 0.0 0.0 
0.0 0.0 0.0 
0.0 0.0 0.0 
0.0 0.0 0.0 
0.0 0.0 0.0 
0.0 0.0 0.0 
0.0 0.0 0.0 
0.0 0.0 0.0 
0.0 0.0 0.0 
0.0 0.0 0.0 
0.0 0.0 0.0 
0.0 0.0 0.0 
0.0 0.0 0.0 
0.0 0.0 0.0 
0.0 0.0 0.0 
0.0 0.0 0.0 
0.0 0.0 0.0 
0.0 0.0 0.0 
0.0 0.0 0.0 
0.0 0.0 0.0 
0.0 0.0 0.0 
0.0 0.0 0.0 
0.0 0.0 0.0 
0.0 0.0 0.0 
0.0 0.0 0.0 
0.0 0.0 0.0 
0.0 0.0 0.0 
0.0 0.0 0.0 
0.0 0.0 0.0 
0.0 0.0 0.0 
0.0 0.0 0.0 
0.0 0.0 0.0 
0.0 0.0 0.0 
0.0 0.0 0.0 
0.0 0.0 0.0 
0.0 0.0 0.0 
0.0 0.0 0.0 
0.0 0.0 0.0 
0.0 0.0 0.0 
0.0 0.0 0.0 
0.0 0.0 0.0 
0.0 0.0 0.0 
0.0 0.0 0.0 
0.0 0.0 0.0 
0.0 0.0 0.0 
0.0 0.0 0.0 
0.0 0.0 0.0 
0.0 0.0 0.0 
0.0 0.0 0.0 
0.0 0.0 0.0 
0.0 0.0 0.0 
0.0 0.0 0.0 
0.0 0.0 0.0 
0.0 0.0 0.0 
0.0 0.0 0.0 
0.0 0.0 0.0 
0.0 0.0 0.0 
0.0 0.0 0.0 
0.0 0.0 0.0 
0.0 0.0 0.0 
0.0 0.0 0.0 
0.0 0.0 0.0 
0.0 0.0 0.0 
0.0 0.0 0.0 
0.0 0.0 0.0 
0.0 0.0 0.0 
0.0 0.0 0.0 
0.0 0.0 0.0 
0.0 0.0 0.0 
0.0 0.0 0.0 
0.0 0.0 0.0 
0.0 0.0 0.0 
0.0 0.0 0.0 
0.0 0.0 0.0 
0.0 0.0 0.0 
0.0 0.0 0.0 
0.0 0.0 0.0 
0.0 0.0 0.0 
0.0 0.0 0.0 
0.0 0.0 0.0 
0.0 0.0 0.0 
0.0 0.0 0.0 
0.0 0.0 0.0 
0.0 0.0 0.0 
0.0 0.0 0.0 
0.0 0.0 0.0 
0.0 0.0 0.0 
0.0 0.0 0.0 
0.0 0.0 0.0 
0.0 0.0 0.0 
0.0 0.0 0.0 
0.0 0.0 0.0 
0.0 0.0 0.0 
0.0 0.0 0.0 
0.0 0.0 0.0 
0.0 0.0 0.0 
0.0 0.0 0.0 
0.0 0.0 0.0 
0.0 0.0 0.0 
0.0 0.0 0.0 
0.0 0.0 0.0 
0.0 0.0 0.0 
0.0 0.0 0.0 
0.0 0.0 0.0 
0.0 0.0 0.0 
0.0 0.0 0.0 
0.0 0.0 0.0 
0.0 0.0 0.0 
0.0 0.0 0.0 
0.0 0.0 0.0 
0.0 0.0 0.0 
0.0 0.0 0.0 
0.0 0.0 0.0 
0.0 0.0 0.0 
0.0 0.0 0.0 
0.0 0.0 0.0 
0.0 0.0 0.0 
0.0 0.0 0.0 
0.0 0.0 0.0 
0.0 0.0 0.0 
0.0 0.0 0.0 
0.0 0.0 0.0 
0.0 0.0 0.0 
0.0 0.0 0.0 
0.0 0.0 0.0 
0.0 0.0 0.0 
0.0 0.0 0.0 
0.0 0.0 0.0 
0.0 0.0 0.0 
0.0 0.0 0.0 
0.0 0.0 0.0 
0.0 0.0 0.0 
0.0 0.0 0.0 
0.0 0.0 0.0 
0.0 0.0 0.0 
0.0 0.0 0.0 
0.0 0.0 0.0 
0.0 0.0 0.0 
0.0 0.0 0.0 
0.0 0.0 0.0 
0.0 0.0 0.0 
0.0 0.0 0.0 
0.0 0.0 0.0 
0.0 0.0 0.0 
0.0 0.0 0.0 
0.0 0.0 0.0 
0.0 0.0 0.0 
0.0 0.0 0.0 
0.0 0.0 0.0 
0.0 0.0 0.0 
0.0 0.0 0.0 
0.0 0.0 0.0 
0.0 0.0 0.0 
0.0 0.0 0.0 
0.0 0.0 0.0 
0.0 0.0 0.0 
0.0 0.0 0.0 
0.0 0.0 0.0 
0.0 0.0 0.0 
0.0 0.0 0.0 
0.0 0.0 0.0 
0.0 0.0 0.0 
0.0 0.0 0.0 
0.0 0.0 0.0 
0.0 0.0 0.0 
0.0 0.0 0.0 
0.0 0.0 0.0 
0.0 0.0 0.0 
0.0 0.0 0.0 
0.0 0.0 0.0 
0.0 0.0 0.0 
0.0 0.0 0.0 
0.0 0.0 0.0 
0.0 0.0 0.0 
0.0 0.0 0.0 
0.0 0.0 0.0 
0.0 0.0 0.0 
0.0 0.0 0.0 
0.0 0.0 0.0 
0.0 0.0 0.0 
0.0 0.0 0.0 
0.0 0.0 0.0 
0.0 0.0 0.0 
0.0 0.0 0.0 
0.0 0.0 0.0 
0.0 0.0 0.0 
0.0 0.0 0.0 
0.0 0.0 0.0 
0.0 0.0 0.0 
0.0 0.0 0.0 
0.0 0.0 0.0 
0.0 0.0 0.0 
0.0 0.0 0.0 
0.0 0.0 0.0 
0.0 0.0 0.0 
0.0 0.0 0.0 
0.0 0.0 0.0 
0.0 0.0 0.0 
0.0 0.0 0.0 
0.0 0.0 0.0 
0.0 0.0 0.0 
0.0 0.0 0.0 
0.0 0.0 0.0 
0.0 0.0 0.0 
0.0 0.0 0.0 
0.0 0.0 0.0 
0.0 0.0 0.0 
0.0 0.0 0.0 
0.0 0.0 0.0 
0.0 0.0 0.0 
0.0 0.0 0.0 
0.0 0.0 0.0 
0.0 0.0 0.0 
0.0 0.0 0.0 
0.0 0.0 0.0 
0.0 0.0 0.0 
0.0 0.0 0.0 
0.0 0.0 0.0 
0.0 0.0 0.0 
0.0 0.0 0.0 
0.0 0.0 0.0 
0.0 0.0 0.0 
0.0 0.0 0.0 
0.0 0.0 0.0 
0.0 0.0 0.0 
0.0 0.0 0.0 
0.0 0.0 0.0 
0.0 0.0 0.0 
0.0 0.0 0.0 
0.0 0.0 0.0 
0.0 0.0 0.0 
0.0 0.0 0.0 
0.0 0.0 0.0 
0.0 0.0 0.0 
0.0 0.0 0.0 
0.0 0.0 0.0 
0.0 0.0 0.0 
0.0 0.0 0.0 
0.0 0.0 0.0 
0.0 0.0 0.0 
0.0 0.0 0.0 
0.0 0.0 0.0 
0.0 0.0 0.0 
0.0 0.0 0.0 
0.0 0.0 0.0 
0.0 0.0 0.0 
0.0 0.0 0.0 
0.0 0.0 0.0 
0.0 0.0 0.0 
0.0 0.0 0.0 
0.0 0.0 0.0 
0.0 0.0 0.0 
0.0 0.0 0.0 
0.0 0.0 0.0 
0.0 0.0 0.0 
0.0 0.0 0.0 
0.0 0.0 0.0 
0.0 0.0 0.0 
0.0 0.0 0.0 
0.0 0.0 0.0 
0.0 0.0 0.0 
0.0 0.0 0.0 
0.0 0.0 0.0 
0.0 0.0 0.0 
0.0 0.0 0.0 
0.0 0.0 0.0 
0.0 0.0 0.0 
0.0 0.0 0.0 
0.0 0.0 0.0 
0.0 0.0 0.0 
0.0 0.0 0.0 
0.0 0.0 0.0 
0.0 0.0 0.0 
0.0 0.0 0.0 
0.0 0.0 0.0 
0.0 0.0 0.0 
0.0 0.0 0.0 
0.0 0.0 0.0 
0.0 0.0 0.0 
0.0 0.0 0.0 
0.0 0.0 0.0 
0.0 0.0 0.0 
0.0 0.0 0.0 
0.0 0.0 0.0 
0.0 0.0 0.0 
0.0 0.0 0.0 
0.0 0.0 0.0 
0.0 0.0 0.0 
0.0 0.0 0.0 
0.0 0.0 0.0 
0.0 0.0 0.0 
0.0 0.0 0.0 
0.0 0.0 0.0 
0.0 0.0 0.0 
0.0 0.0 0.0 
0.0 0.0 0.0 
0.0 0.0 0.0 
0.0 0.0 0.0 
0.0 0.0 0.0 
0.0 0.0 0.0 
0.0 0.0 0.0 
0.0 0.0 0.0 
0.0 0.0 0.0 
0.0 0.0 0.0 
0.0 0.0 0.0 
0.0 0.0 0.0 
0.0 0.0 0.0 
0.0 0.0 0.0 
0.0 0.0 0.0 
0.0 0.0 0.0 
0.0 0.0 0.0 
0.0 0.0 0.0 
0.0 0.0 0.0 
0.0 0.0 0.0 
0.0 0.0 0.0 
0.0 0.0 0.0 
0.0 0.0 0.0 
0.0 0.0 0.0 
0.0 0.0 0.0 
0.0 0.0 0.0 
0.0 0.0 0.0 
0.0 0.0 0.0 
0.0 0.0 0.0 
0.0 0.0 0.0 
0.0 0.0 0.0 
0.0 0.0 0.0 
0.0 0.0 0.0 
0.0 0.0 0.0 
0.0 0.0 0.0 
0.0 0.0 0.0 
0.0 0.0 0.0 
0.0 0.0 0.0 
0.0 0.0 0.0 
0.0 0.0 0.0 
0.0 0.0 0.0 
0.0 0.0 0.0 
0.0 0.0 0.0 
0.0 0.0 0.0 
0.0 0.0 0.0 
0.0 0.0 0.0 
0.0 0.0 0.0 
0.0 0.0 0.0 
0.0 0.0 0.0 
0.0 0.0 0.0 
0.0 0.0 0.0 
0.0 0.0 0.0 
0.0 0.0 0.0 
0.0 0.0 0.0 
0.0 0.0 0.0 
0.0 0.0 0.0 
0.0 0.0 0.0 
0.0 0.0 0.0 
0.0 0.0 0.0 
0.0 0.0 0.0 
0.0 0.0 0.0 
0.0 0.0 0.0 
0.0 0.0 0.0 
0.0 0.0 0.0 
0.0 0.0 0.0 
0.0 0.0 0.0 
0.0 0.0 0.0 
0.0 0.0 0.0 
0.0 0.0 0.0 
0.0 0.0 0.0 
0.0 0.0 0.0 
0.0 0.0 0.0 
0.0 0.0 0.0 
0.0 0.0 0.0 
0.0 0.0 0.0 
0.0 0.0 0.0 
0.0 0.0 0.0 
0.0 0.0 0.0 
0.0 0.0 0.0 
0.0 0.0 0.0 
0.0 0.0 0.0 
0.0 0.0 0.0 
0.0 0.0 0.0 
0.0 0.0 0.0 
0.0 0.0 0.0 
0.0 0.0 0.0 
0.0 0.0 0.0 
0.0 0.0 0.0 
0.0 0.0 0.0 
0.0 0.0 0.0 
0.0 0.0 0.0 
0.0 0.0 0.0 
0.0 0.0 0.0 
0.0 0.0 0.0 
0.0 0.0 0.0 
0.0 0.0 0.0 
0.0 0.0 0.0 
0.0 0.0 0.0 
0.0 0.0 0.0 
0.0 0.0 0.0 
0.0 0.0 0.0 
0.0 0.0 0.0 
0.0 0.0 0.0 
0.0 0.0 0.0 
0.0 0.0 0.0 
0.0 0.0 0.0 
0.0 0.0 0.0 
0.0 0.0 0.0 
0.0 0.0 0.0 
0.0 0.0 0.0 
0.0 0.0 0.0 
0.0 0.0 0.0 
0.0 0.0 0.0 
0.0 0.0 0.0 
0.0 0.0 0.0 
0.0 0.0 0.0 
0.0 0.0 0.0 
0.0 0.0 0.0 
0.0 0.0 0.0 
0.0 0.0 0.0 
0.0 0.0 0.0 
0.0 0.0 0.0 
0.0 0.0 0.0 
0.0 0.0 0.0 
0.0 0.0 0.0 
0.0 0.0 0.0 
0.0 0.0 0.0 
0.0 0.0 0.0 
0.0 0.0 0.0 
0.0 0.0 0.0 
0.0 0.0 0.0 
0.0 0.0 0.0 
0.0 0.0 0.0 
0.0 0.0 0.0 
0.0 0.0 0.0 
0.0 0.0 0.0 
0.0 0.0 0.0 
0.0 0.0 0.0 
0.0 0.0 0.0 
0.0 0.0 0.0 
0.0 0.0 0.0 
0.0 0.0 0.0 
0.0 0.0 0.0 
0.0 0.0 0.0 
0.0 0.0 0.0 
0.0 0.0 0.0 
0.0 0.0 0.0 
0.0 0.0 0.0 
0.0 0.0 0.0 
0.0 0.0 0.0 
0.0 0.0 0.0 
0.0 0.0 0.0 
0.0 0.0 0.0 
0.0 0.0 0.0 
0.0 0.0 0.0 
0.0 0.0 0.0 
0.0 0.0 0.0 
0.0 0.0 0.0 
0.0 0.0 0.0 
0.0 0.0 0.0 
0.0 0.0 0.0 
0.0 0.0 0.0 
0.0 0.0 0.0 
0.0 0.0 0.0 
0.0 0.0 0.0 
0.0 0.0 0.0 
0.0 0.0 0.0 
0.0 0.0 0.0 
0.0 0.0 0.0 
0.0 0.0 0.0 
0.0 0.0 0.0 
0.0 0.0 0.0 
0.0 0.0 0.0 
0.0 0.0 0.0 
0.0 0.0 0.0 
0.0 0.0 0.0 
0.0 0.0 0.0 
0.0 0.0 0.0 
0.0 0.0 0.0 
0.0 0.0 0.0 
0.0 0.0 0.0 
0.0 0.0 0.0 
0.0 0.0 0.0 
0.0 0.0 0.0 
0.0 0.0 0.0 
0.0 0.0 0.0 
0.0 0.0 0.0 
0.0 0.0 0.0 
0.0 0.0 0.0 
0.0 0.0 0.0 
0.0 0.0 0.0 
0.0 0.0 0.0 
0.0 0.0 0.0 
0.0 0.0 0.0 
0.0 0.0 0.0 
0.0 0.0 0.0 
0.0 0.0 0.0 
0.0 0.0 0.0 
0.0 0.0 0.0 
0.0 0.0 0.0 
0.0 0.0 0.0 
0.0 0.0 0.0 
0.0 0.0 0.0 
0.0 0.0 0.0 
0.0 0.0 0.0 
0.0 0.0 0.0 
0.0 0.0 0.0 
0.0 0.0 0.0 
0.0 0.0 0.0 
0.0 0.0 0.0 
0.0 0.0 0.0 
0.0 0.0 0.0 
0.0 0.0 0.0 
0.0 0.0 0.0 
0.0 0.0 0.0 
0.0 0.0 0.0 
0.0 0.0 0.0 
0.0 0.0 0.0 
0.0 0.0 0.0 
0.0 0.0 0.0 
0.0 0.0 0.0 
0.0 0.0 0.0 
0.0 0.0 0.0 
0.0 0.0 0.0 
0.0 0.0 0.0 
0.0 0.0 0.0 
0.0 0.0 0.0 
0.0 0.0 0.0 
0.0 0.0 0.0 
0.0 0.0 0.0 
0.0 0.0 0.0 
0.0 0.0 0.0 
0.0 0.0 0.0 
0.0 0.0 0.0 
0.0 0.0 0.0 
0.0 0.0 0.0 
0.0 0.0 0.0 
0.0 0.0 0.0 
0.0 0.0 0.0 
0.0 0.0 0.0 
0.0 0.0 0.0 
0.0 0.0 0.0 
0.0 0.0 0.0 
0.0 0.0 0.0 
0.0 0.0 0.0 
0.0 0.0 0.0 
0.0 0.0 0.0 
0.0 0.0 0.0 
0.0 0.0 0.0 
0.0 0.0 0.0 
0.0 0.0 0.0 
0.0 0.0 0.0 
0.0 0.0 0.0 
0.0 0.0 0.0 
0.0 0.0 0.0 
0.0 0.0 0.0 
0.0 0.0 0.0 
0.0 0.0 0.0 
0.0 0.0 0.0 
0.0 0.0 0.0 
0.0 0.0 0.0 
0.0 0.0 0.0 
0.0 0.0 0.0 
0.0 0.0 0.0 
0.0 0.0 0.0 
0.0 0.0 0.0 
0.0 0.0 0.0 
0.0 0.0 0.0 
0.0 0.0 0.0 
0.0 0.0 0.0 
0.0 0.0 0.0 
0.0 0.0 0.0 
0.0 0.0 0.0 
0.0 0.0 0.0 
0.0 0.0 0.0 
0.0 0.0 0.0 
0.0 0.0 0.0 
0.0 0.0 0.0 
0.0 0.0 0.0 
0.0 0.0 0.0 
0.0 0.0 0.0 
0.0 0.0 0.0 
0.0 0.0 0.0 
0.0 0.0 0.0 
0.0 0.0 0.0 
0.0 0.0 0.0 
0.0 0.0 0.0 
0.0 0.0 0.0 
0.0 0.0 0.0 
0.0 0.0 0.0 
0.0 0.0 0.0 
0.0 0.0 0.0 
0.0 0.0 0.0 
0.0 0.0 0.0 
0.0 0.0 0.0 
0.0 0.0 0.0 
0.0 0.0 0.0 
0.0 0.0 0.0 
0.0 0.0 0.0 
0.0 0.0 0.0 
0.0 0.0 0.0 
0.0 0.0 0.0 
0.0 0.0 0.0 
0.0 0.0 0.0 
0.0 0.0 0.0 
0.0 0.0 0.0 
0.0 0.0 0.0 
0.0 0.0 0.0 
0.0 0.0 0.0 
0.0 0.0 0.0 
0.0 0.0 0.0 
0.0 0.0 0.0 
0.0 0.0 0.0 
0.0 0.0 0.0 
0.0 0.0 0.0 
0.0 0.0 0.0 
0.0 0.0 0.0 
0.0 0.0 0.0 
0.0 0.0 0.0 
0.0 0.0 0.0 
0.0 0.0 0.0 
0.0 0.0 0.0 
0.0 0.0 0.0 
0.0 0.0 0.0 
0.0 0.0 0.0 
0.0 0.0 0.0 
0.0 0.0 0.0 
0.0 0.0 0.0 
0.0 0.0 0.0 
0.0 0.0 0.0 
0.0 0.0 0.0 
0.0 0.0 0.0 
0.0 0.0 0.0 
0.0 0.0 0.0 
0.0 0.0 0.0 
0.0 0.0 0.0 
0.0 0.0 0.0 
0.0 0.0 0.0 
0.0 0.0 0.0 
0.0 0.0 0.0 
0.0 0.0 0.0 
0.0 0.0 0.0 
0.0 0.0 0.0 
0.0 0.0 0.0 
0.0 0.0 0.0 
0.0 0.0 0.0 
0.0 0.0 0.0 
0.0 0.0 0.0 
0.0 0.0 0.0 
0.0 0.0 0.0 
0.0 0.0 0.0 
0.0 0.0 0.0 
0.0 0.0 0.0 
0.0 0.0 0.0 
0.0 0.0 0.0 
0.0 0.0 0.0 
0.0 0.0 0.0 
0.0 0.0 0.0 
0.0 0.0 0.0 
0.0 0.0 0.0 
0.0 0.0 0.0 
0.0 0.0 0.0 
0.0 0.0 0.0 
0.0 0.0 0.0 
0.0 0.0 0.0 
0.0 0.0 0.0 
0.0 0.0 0.0 
0.0 0.0 0.0 
0.0 0.0 0.0 
0.0 0.0 0.0 
0.0 0.0 0.0 
0.0 0.0 0.0 
0.0 0.0 0.0 
0.0 0.0 0.0 
0.0 0.0 0.0 
0.0 0.0 0.0 
0.0 0.0 0.0 
0.0 0.0 0.0 
0.0 0.0 0.0 
0.0 0.0 0.0 
0.0 0.0 0.0 
0.0 0.0 0.0 
0.0 0.0 0.0 
0.0 0.0 0.0 
0.0 0.0 0.0 
0.0 0.0 0.0 
0.0 0.0 0.0 
0.0 0.0 0.0 
0.0 0.0 0.0 
0.0 0.0 0.0 
0.0 0.0 0.0 
0.0 0.0 0.0 
0.0 0.0 0.0 
0.0 0.0 0.0 
0.0 0.0 0.0 
0.0 0.0 0.0 
0.0 0.0 0.0 
0.0 0.0 0.0 
0.0 0.0 0.0 
0.0 0.0 0.0 
0.0 0.0 0.0 
0.0 0.0 0.0 
0.0 0.0 0.0 
0.0 0.0 0.0 
0.0 0.0 0.0 
0.0 0.0 0.0 
0.0 0.0 0.0 
0.0 0.0 0.0 
0.0 0.0 0.0 
0.0 0.0 0.0 
0.0 0.0 0.0 
0.0 0.0 0.0 
0.0 0.0 0.0 
0.0 0.0 0.0 
0.0 0.0 0.0 
0.0 0.0 0.0 
0.0 0.0 0.0 
0.0 0.0 0.0 
0.0 0.0 0.0 
0.0 0.0 0.0 
0.0 0.0 0.0 
0.0 0.0 0.0 
0.0 0.0 0.0 
0.0 0.0 0.0 
0.0 0.0 0.0 
0.0 0.0 0.0 
0.0 0.0 0.0 
0.0 0.0 0.0 
0.0 0.0 0.0 
0.0 0.0 0.0 
0.0 0.0 0.0 
0.0 0.0 0.0 
0.0 0.0 0.0 
0.0 0.0 0.0 
0.0 0.0 0.0 
0.0 0.0 0.0 
0.0 0.0 0.0 
0.0 0.0 0.0 
0.0 0.0 0.0 
0.0 0.0 0.0 
0.0 0.0 0.0 
0.0 0.0 0.0 
0.0 0.0 0.0 
0.0 0.0 0.0 
0.0 0.0 0.0 
0.0 0.0 0.0 
0.0 0.0 0.0 
0.0 0.0 0.0 
0.0 0.0 0.0 
0.0 0.0 0.0 
0.0 0.0 0.0 
0.0 0.0 0.0 
0.0 0.0 0.0 
0.0 0.0 0.0 
0.0 0.0 0.0 
0.0 0.0 0.0 
0.0 0.0 0.0 
0.0 0.0 0.0 
0.0 0.0 0.0 
0.0 0.0 0.0 
0.0 0.0 0.0 
0.0 0.0 0.0 
0.0 0.0 0.0 
0.0 0.0 0.0 
0.0 0.0 0.0 
0.0 0.0 0.0 
0.0 0.0 0.0 
0.0 0.0 0.0 
0.0 0.0 0.0 
0.0 0.0 0.0 
0.0 0.0 0.0 
0.0 0.0 0.0 
0.0 0.0 0.0 
0.0 0.0 0.0 
0.0 0.0 0.0 
0.0 0.0 0.0 
0.0 0.0 0.0 
0.0 0.0 0.0 
0.0 0.0 0.0 
0.0 0.0 0.0 
0.0 0.0 0.0 
0.0 0.0 0.0 
0.0 0.0 0.0 
0.0 0.0 0.0 
0.0 0.0 0.0 
0.0 0.0 0.0 
0.0 0.0 0.0 
0.0 0.0 0.0 
0.0 0.0 0.0 
0.0 0.0 0.0 
0.0 0.0 0.0 
0.0 0.0 0.0 
0.0 0.0 0.0 
0.0 0.0 0.0 
0.0 0.0 0.0 
0.0 0.0 0.0 
0.0 0.0 0.0 
0.0 0.0 0.0 
0.0 0.0 0.0 
0.0 0.0 0.0 
0.0 0.0 0.0 
0.0 0.0 0.0 
0.0 0.0 0.0 
0.0 0.0 0.0 
0.0 0.0 0.0 
0.0 0.0 0.0 
0.0 0.0 0.0 
0.0 0.0 0.0 
0.0 0.0 0.0 
0.0 0.0 0.0 
0.0 0.0 0.0 
0.0 0.0 0.0 
0.0 0.0 0.0 
0.0 0.0 0.0 
0.0 0.0 0.0 
0.0 0.0 0.0 
0.0 0.0 0.0 
0.0 0.0 0.0 
0.0 0.0 0.0 
0.0 0.0 0.0 
0.0 0.0 0.0 
0.0 0.0 0.0 
0.0 0.0 0.0 
0.0 0.0 0.0 
0.0 0.0 0.0 
0.0 0.0 0.0 
0.0 0.0 0.0 
0.0 0.0 0.0 
0.0 0.0 0.0 
0.0 0.0 0.0 
0.0 0.0 0.0 
0.0 0.0 0.0 
0.0 0.0 0.0 
0.0 0.0 0.0 
0.0 0.0 0.0 
0.0 0.0 0.0 
0.0 0.0 0.0 
0.0 0.0 0.0 
0.0 0.0 0.0 
0.0 0.0 0.0 
0.0 0.0 0.0 
0.0 0.0 0.0 
0.0 0.0 0.0 
0.0 0.0 0.0 
0.0 0.0 0.0 
0.0 0.0 0.0 
0.0 0.0 0.0 
0.0 0.0 0.0 
0.0 0.0 0.0 
0.0 0.0 0.0 
0.0 0.0 0.0 
0.0 0.0 0.0 
0.0 0.0 0.0 
0.0 0.0 0.0 
0.0 0.0 0.0 
0.0 0.0 0.0 
0.0 0.0 0.0 
0.0 0.0 0.0 
0.0 0.0 0.0 
0.0 0.0 0.0 
0.0 0.0 0.0 
0.0 0.0 0.0 
0.0 0.0 0.0 
0.0 0.0 0.0 
0.0 0.0 0.0 
0.0 0.0 0.0 
0.0 0.0 0.0 
0.0 0.0 0.0 
0.0 0.0 0.0 
0.0 0.0 0.0 
0.0 0.0 0.0 
0.0 0.0 0.0 
0.0 0.0 0.0 
0.0 0.0 0.0 
0.0 0.0 0.0 
0.0 0.0 0.0 
0.0 0.0 0.0 
0.0 0.0 0.0 
0.0 0.0 0.0 
0.0 0.0 0.0 
0.0 0.0 0.0 
0.0 0.0 0.0 
0.0 0.0 0.0 
0.0 0.0 0.0 
0.0 0.0 0.0 
0.0 0.0 0.0 
0.0 0.0 0.0 
0.0 0.0 0.0 
0.0 0.0 0.0 
0.0 0.0 0.0 
0.0 0.0 0.0 
0.0 0.0 0.0 
0.0 0.0 0.0 
0.0 0.0 0.0 
0.0 0.0 0.0 
0.0 0.0 0.0 
0.0 0.0 0.0 
0.0 0.0 0.0 
0.0 0.0 0.0 
0.0 0.0 0.0 
0.0 0.0 0.0 
0.0 0.0 0.0 
0.0 0.0 0.0 
0.0 0.0 0.0 
0.0 0.0 0.0 
0.0 0.0 0.0 
0.0 0.0 0.0 
0.0 0.0 0.0 
0.0 0.0 0.0 
0.0 0.0 0.0 
0.0 0.0 0.0 
0.0 0.0 0.0 
0.0 0.0 0.0 
0.0 0.0 0.0 
0.0 0.0 0.0 
0.0 0.0 0.0 
0.0 0.0 0.0 
0.0 0.0 0.0 
0.0 0.0 0.0 
0.0 0.0 0.0 
0.0 0.0 0.0 
0.0 0.0 0.0 
0.0 0.0 0.0 
0.0 0.0 0.0 
0.0 0.0 0.0 
0.0 0.0 0.0 
0.0 0.0 0.0 
0.0 0.0 0.0 
0.0 0.0 0.0 
0.0 0.0 0.0 
0.0 0.0 0.0 
0.0 0.0 0.0 
0.0 0.0 0.0 
0.0 0.0 0.0 
0.0 0.0 0.0 
0.0 0.0 0.0 
0.0 0.0 0.0 
0.0 0.0 0.0 
0.0 0.0 0.0 
0.0 0.0 0.0 
0.0 0.0 0.0 
0.0 0.0 0.0 
0.0 0.0 0.0 
0.0 0.0 0.0 
0.0 0.0 0.0 
0.0 0.0 0.0 
0.0 0.0 0.0 
0.0 0.0 0.0 
0.0 0.0 0.0 
0.0 0.0 0.0 
0.0 0.0 0.0 
0.0 0.0 0.0 
0.0 0.0 0.0 
0.0 0.0 0.0 
0.0 0.0 0.0 
0.0 0.0 0.0 
0.0 0.0 0.0 
0.0 0.0 0.0 
0.0 0.0 0.0 
0.0 0.0 0.0 
0.0 0.0 0.0 
0.0 0.0 0.0 
0.0 0.0 0.0 
0.0 0.0 0.0 
0.0 0.0 0.0 
0.0 0.0 0.0 
0.0 0.0 0.0 
0.0 0.0 0.0 
0.0 0.0 0.0 
0.0 0.0 0.0 
0.0 0.0 0.0 
0.0 0.0 0.0 
0.0 0.0 0.0 
0.0 0.0 0.0 
0.0 0.0 0.0 
0.0 0.0 0.0 
0.0 0.0 0.0 
0.0 0.0 0.0 
0.0 0.0 0.0 
0.0 0.0 0.0 
0.0 0.0 0.0 
0.0 0.0 0.0 
0.0 0.0 0.0 
0.0 0.0 0.0 
0.0 0.0 0.0 
0.0 0.0 0.0 
0.0 0.0 0.0 
0.0 0.0 0.0 
0.0 0.0 0.0 
0.0 0.0 0.0 
0.0 0.0 0.0 
0.0 0.0 0.0 
0.0 0.0 0.0 
0.0 0.0 0.0 
0.0 0.0 0.0 
0.0 0.0 0.0 
0.0 0.0 0.0 
0.0 0.0 0.0 
0.0 0.0 0.0 
0.0 0.0 0.0 
0.0 0.0 0.0 
0.0 0.0 0.0 
0.0 0.0 0.0 
0.0 0.0 0.0 
0.0 0.0 0.0 
0.0 0.0 0.0 
0.0 0.0 0.0 
0.0 0.0 0.0 
0.0 0.0 0.0 
0.0 0.0 0.0 
0.0 0.0 0.0 
0.0 0.0 0.0 
0.0 0.0 0.0 
0.0 0.0 0.0 
0.0 0.0 0.0 
0.0 0.0 0.0 
0.0 0.0 0.0 
0.0 0.0 0.0 
0.0 0.0 0.0 
0.0 0.0 0.0 
0.0 0.0 0.0 
0.0 0.0 0.0 
0.0 0.0 0.0 
0.0 0.0 0.0 
0.0 0.0 0.0 
0.0 0.0 0.0 
0.0 0.0 0.0 
0.0 0.0 0.0 
0.0 0.0 0.0 
0.0 0.0 0.0 
0.0 0.0 0.0 
0.0 0.0 0.0 
0.0 0.0 0.0 
0.0 0.0 0.0 
0.0 0.0 0.0 
0.0 0.0 0.0 
0.0 0.0 0.0 
0.0 0.0 0.0 
0.0 0.0 0.0 
0.0 0.0 0.0 
0.0 0.0 0.0 
0.0 0.0 0.0 
0.0 0.0 0.0 
0.0 0.0 0.0 
0.0 0.0 0.0 
0.0 0.0 0.0 
0.0 0.0 0.0 
0.0 0.0 0.0 
0.0 0.0 0.0 
0.0 0.0 0.0 
0.0 0.0 0.0 
0.0 0.0 0.0 
0.0 0.0 0.0 
0.0 0.0 0.0 
0.0 0.0 0.0 
0.0 0.0 0.0 
0.0 0.0 0.0 
0.0 0.0 0.0 
0.0 0.0 0.0 
0.0 0.0 0.0 
0.0 0.0 0.0 
0.0 0.0 0.0 
0.0 0.0 0.0 
0.0 0.0 0.0 
0.0 0.0 0.0 
0.0 0.0 0.0 
0.0 0.0 0.0 
0.0 0.0 0.0 
0.0 0.0 0.0 
0.0 0.0 0.0 
0.0 0.0 0.0 
0.0 0.0 0.0 
0.0 0.0 0.0 
0.0 0.0 0.0 
0.0 0.0 0.0 
0.0 0.0 0.0 
0.0 0.0 0.0 
0.0 0.0 0.0 
0.0 0.0 0.0 
0.0 0.0 0.0 
0.0 0.0 0.0 
0.0 0.0 0.0 
0.0 0.0 0.0 
0.0 0.0 0.0 
0.0 0.0 0.0 
0.0 0.0 0.0 
0.0 0.0 0.0 
0.0 0.0 0.0 
0.0 0.0 0.0 
0.0 0.0 0.0 
0.0 0.0 0.0 
0.0 0.0 0.0 
0.0 0.0 0.0 
0.0 0.0 0.0 
0.0 0.0 0.0 
0.0 0.0 0.0 
0.0 0.0 0.0 
0.0 0.0 0.0 
0.0 0.0 0.0 
0.0 0.0 0.0 
0.0 0.0 0.0 
0.0 0.0 0.0 
0.0 0.0 0.0 
0.0 0.0 0.0 
0.0 0.0 0.0 
0.0 0.0 0.0 
0.0 0.0 0.0 
0.0 0.0 0.0 
0.0 0.0 0.0 
0.0 0.0 0.0 
0.0 0.0 0.0 
0.0 0.0 0.0 
0.0 0.0 0.0 
0.0 0.0 0.0 
0.0 0.0 0.0 
0.0 0.0 0.0 
0.0 0.0 0.0 
0.0 0.0 0.0 
0.0 0.0 0.0 
0.0 0.0 0.0 
0.0 0.0 0.0 
0.0 0.0 0.0 
0.0 0.0 0.0 
0.0 0.0 0.0 
0.0 0.0 0.0 
0.0 0.0 0.0 
0.0 0.0 0.0 
0.0 0.0 0.0 
0.0 0.0 0.0 
0.0 0.0 0.0 
0.0 0.0 0.0 
0.0 0.0 0.0 
0.0 0.0 0.0 
0.0 0.0 0.0 
0.0 0.0 0.0 
0.0 0.0 0.0 
0.0 0.0 0.0 
0.0 0.0 0.0 
0.0 0.0 0.0 
0.0 0.0 0.0 
0.0 0.0 0.0 
0.0 0.0 0.0 
0.0 0.0 0.0 
0.0 0.0 0.0 
0.0 0.0 0.0 
0.0 0.0 0.0 
0.0 0.0 0.0 
0.0 0.0 0.0 
0.0 0.0 0.0 
0.0 0.0 0.0 
0.0 0.0 0.0 
0.0 0.0 0.0 
0.0 0.0 0.0 
0.0 0.0 0.0 
0.0 0.0 0.0 
0.0 0.0 0.0 
0.0 0.0 0.0 
0.0 0.0 0.0 
0.0 0.0 0.0 
0.0 0.0 0.0 
0.0 0.0 0.0 
0.0 0.0 0.0 
0.0 0.0 0.0 
0.0 0.0 0.0 
0.0 0.0 0.0 
0.0 0.0 0.0 
0.0 0.0 0.0 
0.0 0.0 0.0 
0.0 0.0 0.0 
0.0 0.0 0.0 
0.0 0.0 0.0 
0.0 0.0 0.0 
0.0 0.0 0.0 
0.0 0.0 0.0 
0.0 0.0 0.0 
0.0 0.0 0.0 
0.0 0.0 0.0 
0.0 0.0 0.0 
0.0 0.0 0.0 
0.0 0.0 0.0 
0.0 0.0 0.0 
0.0 0.0 0.0 
0.0 0.0 0.0 
0.0 0.0 0.0 
0.0 0.0 0.0 
0.0 0.0 0.0 
0.0 0.0 0.0 
0.0 0.0 0.0 
0.0 0.0 0.0 
0.0 0.0 0.0 
0.0 0.0 0.0 
0.0 0.0 0.0 
0.0 0.0 0.0 
0.0 0.0 0.0 
0.0 0.0 0.0 
0.0 0.0 0.0 
0.0 0.0 0.0 
0.0 0.0 0.0 
0.0 0.0 0.0 
0.0 0.0 0.0 
0.0 0.0 0.0 
0.0 0.0 0.0 
0.0 0.0 0.0 
0.0 0.0 0.0 
0.0 0.0 0.0 
0.0 0.0 0.0 
0.0 0.0 0.0 
0.0 0.0 0.0 
0.0 0.0 0.0 
0.0 0.0 0.0 
0.0 0.0 0.0 
0.0 0.0 0.0 
0.0 0.0 0.0 
0.0 0.0 0.0 
0.0 0.0 0.0 
0.0 0.0 0.0 
0.0 0.0 0.0 
0.0 0.0 0.0 
0.0 0.0 0.0 
0.0 0.0 0.0 
0.0 0.0 0.0 
0.0 0.0 0.0 
0.0 0.0 0.0 
0.0 0.0 0.0 
0.0 0.0 0.0 
0.0 0.0 0.0 
0.0 0.0 0.0 
0.0 0.0 0.0 
0.0 0.0 0.0 
0.0 0.0 0.0 
0.0 0.0 0.0 
0.0 0.0 0.0 
0.0 0.0 0.0 
0.0 0.0 0.0 
0.0 0.0 0.0 
0.0 0.0 0.0 
0.0 0.0 0.0 
0.0 0.0 0.0 
0.0 0.0 0.0 
0.0 0.0 0.0 
0.0 0.0 0.0 
0.0 0.0 0.0 
0.0 0.0 0.0 
0.0 0.0 0.0 
0.0 0.0 0.0 
0.0 0.0 0.0 
0.0 0.0 0.0 
0.0 0.0 0.0 
0.0 0.0 0.0 
0.0 0.0 0.0 
0.0 0.0 0.0 
0.0 0.0 0.0 
0.0 0.0 0.0 
0.0 0.0 0.0 
0.0 0.0 0.0 
0.0 0.0 0.0 
0.0 0.0 0.0 
0.0 0.0 0.0 
0.0 0.0 0.0 
0.0 0.0 0.0 
0.0 0.0 0.0 
0.0 0.0 0.0 
0.0 0.0 0.0 
0.0 0.0 0.0 
0.0 0.0 0.0 
0.0 0.0 0.0 
0.0 0.0 0.0 
0.0 0.0 0.0 
0.0 0.0 0.0 
0.0 0.0 0.0 
0.0 0.0 0.0 
0.0 0.0 0.0 
0.0 0.0 0.0 
0.0 0.0 0.0 
0.0 0.0 0.0 
0.0 0.0 0.0 
0.0 0.0 0.0 
0.0 0.0 0.0 
0.0 0.0 0.0 
0.0 0.0 0.0 
0.0 0.0 0.0 
0.0 0.0 0.0 
0.0 0.0 0.0 
0.0 0.0 0.0 
0.0 0.0 0.0 
0.0 0.0 0.0 
0.0 0.0 0.0 
0.0 0.0 0.0 
0.0 0.0 0.0 
0.0 0.0 0.0 
0.0 0.0 0.0 
0.0 0.0 0.0 
0.0 0.0 0.0 
0.0 0.0 0.0 
0.0 0.0 0.0 
0.0 0.0 0.0 
0.0 0.0 0.0 
0.0 0.0 0.0 
0.0 0.0 0.0 
0.0 0.0 0.0 
0.0 0.0 0.0 
0.0 0.0 0.0 
0.0 0.0 0.0 
0.0 0.0 0.0 
0.0 0.0 0.0 
0.0 0.0 0.0 
0.0 0.0 0.0 
0.0 0.0 0.0 
0.0 0.0 0.0 
0.0 0.0 0.0 
0.0 0.0 0.0 
0.0 0.0 0.0 
0.0 0.0 0.0 
0.0 0.0 0.0 
0.0 0.0 0.0 
0.0 0.0 0.0 
0.0 0.0 0.0 
0.0 0.0 0.0 
0.0 0.0 0.0 
0.0 0.0 0.0 
0.0 0.0 0.0 
0.0 0.0 0.0 
0.0 0.0 0.0 
0.0 0.0 0.0 
0.0 0.0 0.0 
0.0 0.0 0.0 
0.0 0.0 0.0 
0.0 0.0 0.0 
0.0 0.0 0.0 
0.0 0.0 0.0 
0.0 0.0 0.0 
0.0 0.0 0.0 
0.0 0.0 0.0 
0.0 0.0 0.0 
0.0 0.0 0.0 
0.0 0.0 0.0 
0.0 0.0 0.0 
0.0 0.0 0.0 
0.0 0.0 0.0 
0.0 0.0 0.0 
0.0 0.0 0.0 
0.0 0.0 0.0 
0.0 0.0 0.0 
0.0 0.0 0.0 
0.0 0.0 0.0 
0.0 0.0 0.0 
0.0 0.0 0.0 
0.0 0.0 0.0 
0.0 0.0 0.0 
0.0 0.0 0.0 
0.0 0.0 0.0 
0.0 0.0 0.0 
0.0 0.0 0.0 
0.0 0.0 0.0 
0.0 0.0 0.0 
0.0 0.0 0.0 
0.0 0.0 0.0 
0.0 0.0 0.0 
0.0 0.0 0.0 
0.0 0.0 0.0 
0.0 0.0 0.0 
0.0 0.0 0.0 
0.0 0.0 0.0 
0.0 0.0 0.0 
0.0 0.0 0.0 
0.0 0.0 0.0 
0.0 0.0 0.0 
0.0 0.0 0.0 
0.0 0.0 0.0 
0.0 0.0 0.0 
0.0 0.0 0.0 
0.0 0.0 0.0 
0.0 0.0 0.0 
0.0 0.0 0.0 
0.0 0.0 0.0 
0.0 0.0 0.0 
0.0 0.0 0.0 
0.0 0.0 0.0 
0.0 0.0 0.0 
0.0 0.0 0.0 
0.0 0.0 0.0 
0.0 0.0 0.0 
0.0 0.0 0.0 
0.0 0.0 0.0 
0.0 0.0 0.0 
0.0 0.0 0.0 
0.0 0.0 0.0 
0.0 0.0 0.0 
0.0 0.0 0.0 
0.0 0.0 0.0 
0.0 0.0 0.0 
0.0 0.0 0.0 
0.0 0.0 0.0 
0.0 0.0 0.0 
0.0 0.0 0.0 
0.0 0.0 0.0 
0.0 0.0 0.0 
0.0 0.0 0.0 
0.0 0.0 0.0 
0.0 0.0 0.0 
0.0 0.0 0.0 
0.0 0.0 0.0 
0.0 0.0 0.0 
0.0 0.0 0.0 
0.0 0.0 0.0 
0.0 0.0 0.0 
0.0 0.0 0.0 
0.0 0.0 0.0 
0.0 0.0 0.0 
0.0 0.0 0.0 
0.0 0.0 0.0 
0.0 0.0 0.0 
0.0 0.0 0.0 
0.0 0.0 0.0 
0.0 0.0 0.0 
0.0 0.0 0.0 
0.0 0.0 0.0 
0.0 0.0 0.0 
0.0 0.0 0.0 
0.0 0.0 0.0 
0.0 0.0 0.0 
0.0 0.0 0.0 
0.0 0.0 0.0 
0.0 0.0 0.0 
0.0 0.0 0.0 
0.0 0.0 0.0 
0.0 0.0 0.0 
0.0 0.0 0.0 
0.0 0.0 0.0 
0.0 0.0 0.0 
0.0 0.0 0.0 
0.0 0.0 0.0 
0.0 0.0 0.0 
0.0 0.0 0.0 
0.0 0.0 0.0 
0.0 0.0 0.0 
0.0 0.0 0.0 
0.0 0.0 0.0 
0.0 0.0 0.0 
0.0 0.0 0.0 
0.0 0.0 0.0 
0.0 0.0 0.0 
0.0 0.0 0.0 
0.0 0.0 0.0 
0.0 0.0 0.0 
0.0 0.0 0.0 
0.0 0.0 0.0 
0.0 0.0 0.0 
0.0 0.0 0.0 
0.0 0.0 0.0 
0.0 0.0 0.0 
0.0 0.0 0.0 
0.0 0.0 0.0 
0.0 0.0 0.0 
0.0 0.0 0.0 
0.0 0.0 0.0 
0.0 0.0 0.0 
0.0 0.0 0.0 
0.0 0.0 0.0 
0.0 0.0 0.0 
0.0 0.0 0.0 
0.0 0.0 0.0 
0.0 0.0 0.0 
0.0 0.0 0.0 

TENSORS element_materi_stress float
-3.324486153386e+01 3.653620991572e+00 0.0 
3.653620991572e+00 -6.476228896933e+01 0.0 
0.0 0.0 -2.900214515096e+01 
-3.568851019590e+01 7.056552121952e+00 0.0 
7.056552121952e+00 -6.210083012952e+01 0.0 
0.0 0.0 -2.893680209763e+01 
-1.363409339431e+02 7.558865800005e+00 0.0 
7.558865800005e+00 -3.148351587993e+02 0.0 
0.0 0.0 -1.349528278227e+02 
-1.311230984690e+02 1.411989027091e+00 0.0 
1.411989027091e+00 -3.042993582760e+02 0.0 
0.0 0.0 -1.302267370235e+02 
-7.638381649173e+01 -4.938134976879e-01 0.0 
-4.938134976879e-01 -1.676288866894e+02 0.0 
0.0 0.0 -7.280381095434e+01 
-1.587534943447e+01 3.899728665498e+00 0.0 
3.899728665498e+00 -4.041478677396e+01 0.0 
0.0 0.0 -1.648704086253e+01 
-7.626938299009e+01 -7.857156446776e-01 0.0 
-7.857156446776e-01 -1.679021438164e+02 0.0 
0.0 0.0 -7.285145804193e+01 
-3.398618372517e+01 7.216365495488e+00 0.0 
7.216365495488e+00 -6.268852530988e+01 0.0 
0.0 0.0 -2.860241271052e+01 
-7.663295916989e+01 1.500468205703e+00 0.0 
1.500468205703e+00 -1.684059647716e+02 0.0 
0.0 0.0 -7.311167718245e+01 
-1.305314001333e+02 2.377479030912e-01 0.0 
2.377479030912e-01 -3.026953191956e+02 0.0 
0.0 0.0 -1.295680157987e+02 
-1.002288029267e+02 -3.436628835327e-01 0.0 
-3.436628835327e-01 -2.510819156314e+02 0.0 
0.0 0.0 -1.049932155674e+02 
-2.624631354322e+01 5.426760487202e+00 0.0 
5.426760487202e+00 -4.473293815980e+01 0.0 
0.0 0.0 -2.089377551090e+01 
-1.520435368448e+02 2.548066620281e-02 0.0 
2.548066620281e-02 -3.615894265644e+02 0.0 
0.0 0.0 -1.536898890228e+02 
-8.470412885955e+01 5.230560506201e-01 0.0 
5.230560506201e-01 -1.847342882827e+02 0.0 
0.0 0.0 -8.043152514267e+01 
-1.563733803138e+02 1.999862042419e+00 0.0 
1.999862042419e+00 -3.694688036944e+02 0.0 
0.0 0.0 -1.573526552024e+02 
-1.339101275058e+02 1.013853172874e-01 0.0 
1.013853172874e-01 -3.123301599186e+02 0.0 
0.0 0.0 -1.334720862273e+02 
-7.510565626249e+01 5.637651278092e-01 0.0 
5.637651278092e-01 -1.634802629018e+02 0.0 
0.0 0.0 -7.117577574930e+01 
-1.697752198915e+01 2.769479435661e+00 0.0 
2.769479435661e+00 -4.127634097400e+01 0.0 
0.0 0.0 -1.707615888894e+01 
-2.974922177803e+01 1.362854685081e-01 0.0 
1.362854685081e-01 -7.681912678716e+01 0.0 
0.0 0.0 -3.157050456956e+01 
-3.053670057990e+01 -5.821177260534e-01 0.0 
-5.821177260534e-01 -7.956411363534e+01 0.0 
0.0 0.0 -3.263024426457e+01 
-1.312443614347e+02 2.144424368738e+00 0.0 
2.144424368738e+00 -3.034565063446e+02 0.0 
0.0 0.0 -1.300102603338e+02 
-3.991996260957e+01 2.822954706066e+00 0.0 
2.822954706066e+00 -7.586087730396e+01 0.0 
0.0 0.0 -3.433425197406e+01 
-4.625002822153e+01 4.695385077558e+00 0.0 
4.695385077558e+00 -8.906255967842e+01 0.0 
0.0 0.0 -4.019377636999e+01 
-1.404903848367e+02 8.740978681407e+00 0.0 
8.740978681407e+00 -3.368622542572e+02 0.0 
0.0 0.0 -1.428057917282e+02 
-9.276304456668e+01 1.275047217578e+00 0.0 
1.275047217578e+00 -2.026269663090e+02 0.0 
0.0 0.0 -8.821700326271e+01 
-1.058555748433e+02 9.586997657977e-01 0.0 
9.586997657977e-01 -2.640642377521e+02 0.0 
0.0 0.0 -1.105759437786e+02 
-6.973791576932e+01 1.207080977046e+00 0.0 
1.207080977046e+00 -1.472488578685e+02 0.0 
0.0 0.0 -6.469603209134e+01 
-1.426001609382e+02 1.159547246415e+01 0.0 
1.159547246415e+01 -3.321268014384e+02 0.0 
0.0 0.0 -1.420180887130e+02 
-9.375532630987e+01 3.457505374824e+00 0.0 
3.457505374824e+00 -2.033190550488e+02 0.0 
0.0 0.0 -8.872231440760e+01 
-1.441617385102e+02 7.408411944350e+00 0.0 
7.408411944350e+00 -3.458167752720e+02 0.0 
0.0 0.0 -1.465935541347e+02 
-2.398349891342e+01 -4.872200338874e-01 0.0 
-4.872200338874e-01 -5.815730995382e+01 0.0 
0.0 0.0 -2.424224266017e+01 
-1.284313443112e+01 -9.798371874351e-01 0.0 
-9.798371874351e-01 -2.589109932222e+01 0.0 
0.0 0.0 -1.122027012600e+01 
-1.371181031546e+02 7.244572194396e+00 0.0 
7.244572194396e+00 -3.154987779517e+02 0.0 
0.0 0.0 -1.353850643319e+02 
-1.283550485413e+02 1.017015548001e+00 0.0 
1.017015548001e+00 -3.125956395299e+02 0.0 
0.0 0.0 -1.318852064214e+02 
-1.501002020072e+02 5.998912794871e+00 0.0 
5.998912794871e+00 -3.572275183455e+02 0.0 
0.0 0.0 -1.517983161058e+02 
-1.591523882489e+02 2.040137015665e+00 0.0 
2.040137015665e+00 -3.767239601349e+02 0.0 
0.0 0.0 -1.603629045151e+02 
-1.597553343971e+02 4.904924036798e+00 0.0 
4.904924036798e+00 -3.767294154030e+02 0.0 
0.0 0.0 -1.605454249400e+02 
-1.446811934601e+02 9.984707549108e+00 0.0 
9.984707549108e+00 -3.428829738688e+02 0.0 
0.0 0.0 -1.458692501987e+02 
-6.825530604536e+01 1.351543758248e+00 0.0 
1.351543758248e+00 -1.490757905003e+02 0.0 
0.0 0.0 -6.479932896369e+01 
-6.825908954494e+01 -1.360587180994e+00 0.0 
-1.360587180994e+00 -1.497140996098e+02 0.0 
0.0 0.0 -6.499195674641e+01 
-5.466439920586e+01 3.795549422051e+00 0.0 
3.795549422051e+00 -1.079461990768e+02 0.0 
0.0 0.0 -4.838317948480e+01 
-1.523298470068e+02 6.261664200176e+00 0.0 
6.261664200176e+00 -3.604080065506e+02 0.0 
0.0 0.0 -1.534213560672e+02 
-2.093083650144e+01 7.268091529665e+00 0.0 
7.268091529665e+00 -3.829306003462e+01 0.0 
0.0 0.0 -1.736716896082e+01 
-7.048827152109e+01 9.154941300537e-01 0.0 
9.154941300537e-01 -1.479304466587e+02 0.0 
0.0 0.0 -6.512561545395e+01 
-1.267155926320e+02 6.486096626092e-01 0.0 
6.486096626092e-01 -2.930893988237e+02 0.0 
0.0 0.0 -1.255414974367e+02 
-2.281782664464e+01 1.189580211380e+01 0.0 
1.189580211380e+01 -3.849583175098e+01 0.0 
0.0 0.0 -1.799409751869e+01 
-1.781537019155e+01 -1.031041146327e+00 0.0 
-1.031041146327e+00 -4.339339456353e+01 0.0 
0.0 0.0 -1.796262942652e+01 
-1.271648665999e+02 1.384315667935e-01 0.0 
1.384315667935e-01 -2.947302593629e+02 0.0 
0.0 0.0 -1.261685377888e+02 
-1.378956914395e+01 -9.824499391880e-01 0.0 
-9.824499391880e-01 -2.575711682241e+01 0.0 
0.0 0.0 -1.185387922121e+01 
-8.164926564189e+01 1.806732736571e+00 0.0 
1.806732736571e+00 -1.762395841300e+02 0.0 
0.0 0.0 -7.696665493158e+01 
-5.053647665321e+01 4.188497117645e+00 0.0 
4.188497117645e+00 -9.877188478547e+01 0.0 
0.0 0.0 -4.439250843160e+01 
-3.777986438571e+01 -7.377988572923e-02 0.0 
-7.377988572923e-02 -9.654552893702e+01 0.0 
0.0 0.0 -3.989761799682e+01 
-2.935229950648e+01 5.254177987686e-01 0.0 
5.254177987686e-01 -7.994630517957e+01 0.0 
0.0 0.0 -3.238958140582e+01 
-4.868235731020e+01 1.862990829536e+00 0.0 
1.862990829536e+00 -9.571820872801e+01 0.0 
0.0 0.0 -4.292016981146e+01 
-1.353929241130e+02 5.584041933126e+00 0.0 
5.584041933126e+00 -3.130684731492e+02 0.0 
0.0 0.0 -1.341384191787e+02 
-4.932704156712e+01 1.705647009300e-01 0.0 
1.705647009300e-01 -1.273397861164e+02 0.0 
0.0 0.0 -5.260004830505e+01 
-3.839581601616e+01 -7.108843031775e-01 0.0 
-7.108843031775e-01 -9.959655793094e+01 0.0 
0.0 0.0 -4.099771218413e+01 
-1.281119072552e+02 -3.255705694419e-01 0.0 
-3.255705694419e-01 -3.125442761459e+02 0.0 
0.0 0.0 -1.317968550203e+02 
-2.339351016763e+01 -6.945127073345e-01 0.0 
-6.945127073345e-01 -5.892532110893e+01 0.0 
0.0 0.0 -2.429564938297e+01 
-1.342225868608e+02 1.823075745542e+00 0.0 
1.823075745542e+00 -3.124990750011e+02 0.0 
0.0 0.0 -1.336164985586e+02 
-1.633505180121e+01 -3.915625725558e-01 0.0 
-3.915625725558e-01 -2.243250319305e+01 0.0 
0.0 0.0 -1.123026649828e+01 
-1.354744446469e+02 1.001075234899e+01 0.0 
1.001075234899e+01 -3.185962216221e+02 0.0 
0.0 0.0 -1.358211998807e+02 
-5.213785898942e+01 7.813545657134e+00 0.0 
7.813545657134e+00 -1.083758894782e+02 0.0 
0.0 0.0 -4.775412454027e+01 
-2.683866286215e+01 -1.163808319340e-01 0.0 
-1.163808319340e-01 -7.266325351844e+01 0.0 
0.0 0.0 -2.945057491418e+01 
-1.517758554682e+02 2.452870406599e+00 0.0 
2.452870406599e+00 -3.609281772824e+02 0.0 
0.0 0.0 -1.534112098252e+02 
-4.404758103366e+01 2.285668288170e+00 0.0 
2.285668288170e+00 -8.523310434778e+01 0.0 
0.0 0.0 -3.838420561443e+01 
-1.330858070632e+01 -7.216929760584e-01 0.0 
-7.216929760584e-01 -2.107851335819e+01 0.0 
0.0 0.0 -1.061808217411e+01 
-1.381230474623e+02 8.345574400557e+00 0.0 
8.345574400557e+00 -3.164258636445e+02 0.0 
0.0 0.0 -1.359646733320e+02 
-2.536225302460e+01 -7.949624588118e-01 0.0 
-7.949624588118e-01 -6.349611010056e+01 0.0 
0.0 0.0 -2.625750893755e+01 
-1.392824394937e+02 9.724436481782e+00 0.0 
9.724436481782e+00 -3.229780116390e+02 0.0 
0.0 0.0 -1.382781353398e+02 
-1.105755891030e+02 1.347758726545e+00 0.0 
1.347758726545e+00 -2.744655261235e+02 0.0 
0.0 0.0 -1.151123345680e+02 
-1.395929637679e+02 3.593246451655e+00 0.0 
3.593246451655e+00 -3.270502487918e+02 0.0 
0.0 0.0 -1.395929637679e+02 
-1.363046499797e+02 1.053307671536e+01 0.0 
1.053307671536e+01 -3.167936440830e+02 0.0 
0.0 0.0 -1.355294882188e+02 
-1.170778318063e+01 -9.325475239722e-01 0.0 
-9.325475239722e-01 -2.976272864613e+01 0.0 
0.0 0.0 -1.204115354803e+01 
-5.103714345333e+01 -8.143284666299e-01 0.0 
-8.143284666299e-01 -1.326106190632e+02 0.0 
0.0 0.0 -5.469432875495e+01 
-1.328478316708e+02 3.357568495131e+00 0.0 
3.357568495131e+00 -3.067649665166e+02 0.0 
0.0 0.0 -1.314838394562e+02 
-1.366661527176e+02 6.046108464789e+00 0.0 
6.046108464789e+00 -3.141347319995e+02 0.0 
0.0 0.0 -1.348402654151e+02 
-1.754290901577e+01 1.144018307847e+01 0.0 
1.144018307847e+01 -3.409099489734e+01 0.0 
0.0 0.0 -1.509017117393e+01 
-2.298681167054e+01 -6.916998271499e-01 0.0 
-6.916998271499e-01 -5.898531355750e+01 0.0 
0.0 0.0 -2.419163756841e+01 
-1.559009025908e+01 1.037348503431e+01 0.0 
1.037348503431e+01 -3.331937848573e+01 0.0 
0.0 0.0 -1.427284062344e+01 
-2.443249294665e+01 -1.976031467227e+00 0.0 
-1.976031467227e+00 -6.284165662955e+01 0.0 
0.0 0.0 -2.578224487286e+01 
-7.517270096857e+01 3.898594581007e-01 0.0 
3.898594581007e-01 -1.631812372530e+02 0.0 
0.0 0.0 -7.110618146647e+01 
-4.222501216618e+01 5.369330161505e+00 0.0 
5.369330161505e+00 -8.027308826818e+01 0.0 
0.0 0.0 -3.634943013031e+01 
-3.486116199499e+01 3.403547003704e+00 0.0 
3.403547003704e+00 -6.446907393506e+01 0.0 
0.0 0.0 -2.939907077902e+01 
-8.105799855633e+01 1.530531001605e+00 0.0 
1.530531001605e+00 -1.786561878377e+02 0.0 
0.0 0.0 -7.751425591820e+01 
-8.063815857432e+01 -4.159673948370e-01 0.0 
-4.159673948370e-01 -1.784479852293e+02 0.0 
0.0 0.0 -7.732584314109e+01 
-1.144489584173e+02 1.198952713856e+00 0.0 
1.198952713856e+00 -2.829655051845e+02 0.0 
0.0 0.0 -1.188243390805e+02 
-1.242968762779e+02 -7.097284229327e-01 0.0 
-7.097284229327e-01 -3.042994063676e+02 0.0 
0.0 0.0 -1.281788847936e+02 
-1.178540447745e+02 7.574577215125e+00 0.0 
7.574577215125e+00 -2.616823094160e+02 0.0 
0.0 0.0 -1.134609062571e+02 
-7.662080397361e+01 1.678220320800e+00 0.0 
1.678220320800e+00 -1.670339670173e+02 0.0 
0.0 0.0 -7.269643129727e+01 
-1.233696863471e+01 -9.854731185502e-01 0.0 
-9.854731185502e-01 -2.573843986815e+01 0.0 
0.0 0.0 -1.137873777019e+01 
-7.778835177643e+01 1.446047263788e+00 0.0 
1.446047263788e+00 -1.654164634768e+02 0.0 
0.0 0.0 -7.256144457597e+01 
-1.078718581924e+02 7.507072562692e-01 0.0 
7.507072562692e-01 -2.465877349993e+02 0.0 
0.0 0.0 -1.059378779575e+02 
-1.068635327380e+02 -3.614934410948e-02 0.0 
-3.614934410948e-02 -2.430779152271e+02 0.0 
0.0 0.0 -1.045824343895e+02 
-1.411576597653e+02 4.007026306210e+00 0.0 
4.007026306210e+00 -3.280206929318e+02 0.0 
0.0 0.0 -1.403535058091e+02 
-1.492922512316e+02 1.189966411816e+01 0.0 
1.189966411816e+01 -3.506705148005e+02 0.0 
0.0 0.0 -1.495888298096e+02 
-7.551728306317e+01 1.079748840223e+00 0.0 
1.079748840223e+00 -1.628443930413e+02 0.0 
0.0 0.0 -7.110850283134e+01 
-1.505671656706e+02 6.258357458024e+00 0.0 
6.258357458024e+00 -3.603255227962e+02 0.0 
0.0 0.0 -1.528678065400e+02 
-8.830117969998e+01 7.032352062188e-01 0.0 
7.032352062188e-01 -1.980546637164e+02 0.0 
0.0 0.0 -8.550675302492e+01 
-4.931294685025e+01 9.452730406031e+00 0.0 
9.452730406031e+00 -9.791790223510e+01 0.0 
0.0 0.0 -4.376925472561e+01 
-7.280182481994e+01 1.043195551139e+00 0.0 
1.043195551139e+00 -1.584456863188e+02 0.0 
0.0 0.0 -6.897425334162e+01 
-1.558565728776e+02 6.460075536461e-01 0.0 
6.460075536461e-01 -3.691267542142e+02 0.0 
0.0 0.0 -1.570949981275e+02 
-1.151710302957e+02 1.101224672803e+01 0.0 
1.101224672803e+01 -2.724788289940e+02 0.0 
0.0 0.0 -1.158949577869e+02 
-1.363986923052e+02 1.188479134974e+01 0.0 
1.188479134974e+01 -3.194144956172e+02 0.0 
0.0 0.0 -1.363439563767e+02 
-4.254629357868e+01 1.297056355417e+01 0.0 
1.297056355417e+01 -9.482926013943e+01 0.0 
0.0 0.0 -4.081266611543e+01 
-2.048552120726e+01 -1.230905985870e+00 0.0 
-1.230905985870e+00 -4.259129924798e+01 0.0 
0.0 0.0 -1.852304613657e+01 
-1.422779228785e+02 1.530904988002e+00 0.0 
1.530904988002e+00 -3.415886238036e+02 0.0 
0.0 0.0 -1.447599640046e+02 
-1.143939984874e+02 1.955254842919e-01 0.0 
1.955254842919e-01 -2.620268815797e+02 0.0 
0.0 0.0 -1.125262640201e+02 
-1.662907117427e+01 -8.125844250419e-01 0.0 
-8.125844250419e-01 -2.555846452435e+01 0.0 
0.0 0.0 -1.225626070959e+01 
-1.553914423233e+02 3.049342728051e+00 0.0 
3.049342728051e+00 -3.664615528886e+02 0.0 
0.0 0.0 -1.561558985636e+02 
-1.123320837185e+02 5.687463101504e+00 0.0 
5.687463101504e+00 -2.499610710326e+02 0.0 
0.0 0.0 -1.082879464253e+02 
-8.803002246509e+00 4.073607775899e-01 0.0 
4.073607775899e-01 -2.204524090596e+01 0.0 
0.0 0.0 -8.854472945742e+00 
-6.248810456329e+01 1.006419978797e+01 0.0 
1.006419978797e+01 -1.457369820127e+02 0.0 
0.0 0.0 -6.206752597280e+01 
-7.076046852487e+01 2.778617063502e+00 0.0 
2.778617063502e+00 -1.463939063809e+02 0.0 
0.0 0.0 -6.474631247172e+01 
-6.204958207498e+01 1.991423465554e-02 0.0 
1.991423465554e-02 -1.609570338430e+02 0.0 
0.0 0.0 -6.650198477540e+01 
-4.371951964689e+01 7.489709521248e+00 0.0 
7.489709521248e+00 -8.696350163590e+01 0.0 
0.0 0.0 -3.880490638484e+01 
-5.241931748244e+01 1.108955762636e+01 0.0 
1.108955762636e+01 -1.088470789810e+02 0.0 
0.0 0.0 -4.797991893903e+01 
-1.534579164595e+02 4.359927969368e+00 0.0 
4.359927969368e+00 -3.643617082753e+02 0.0 
0.0 0.0 -1.549458874204e+02 
-8.574903504774e+01 -6.212685505524e-01 0.0 
-6.212685505524e-01 -1.914845636757e+02 0.0 
0.0 0.0 -8.277007961702e+01 
-4.772753338512e+01 9.092838136038e+00 0.0 
9.092838136038e+00 -1.009196804340e+02 0.0 
0.0 0.0 -4.419416414574e+01 
-2.443432352122e+01 -6.061266447037e-01 0.0 
-6.061266447037e-01 -6.076645753772e+01 0.0 
0.0 0.0 -2.516023431768e+01 
-7.753501442704e+01 1.176132187620e+00 0.0 
1.176132187620e+00 -1.646149421208e+02 0.0 
0.0 0.0 -7.224498696435e+01 
-1.150885598033e+02 7.545578266897e-01 0.0 
7.545578266897e-01 -2.636764205468e+02 0.0 
0.0 0.0 -1.132294941050e+02 
-4.750928388900e+01 1.225993316905e+01 0.0 
1.225993316905e+01 -1.010436518331e+02 0.0 
0.0 0.0 -4.416588071662e+01 
-1.521077399769e+01 7.938372297940e+00 0.0 
7.938372297940e+00 -2.981492385225e+01 0.0 
0.0 0.0 -1.310770935498e+01 
-6.278862018718e+01 3.172639475332e+00 0.0 
3.172639475332e+00 -1.272241651447e+02 0.0 
0.0 0.0 -5.660383559956e+01 
-6.180069830553e+01 -4.926735628089e-01 0.0 
-4.926735628089e-01 -1.595666984741e+02 0.0 
0.0 0.0 -6.601021903390e+01 
-5.723942070241e+01 1.273665091819e+00 0.0 
1.273665091819e+00 -1.159083522817e+02 0.0 
0.0 0.0 -5.154433189523e+01 
-1.353228072421e+02 2.323674095360e+00 0.0 
2.323674095360e+00 -3.146901427596e+02 0.0 
0.0 0.0 -1.346038850005e+02 
-1.558784416514e+01 7.847504913650e+00 0.0 
7.847504913650e+00 -4.116489592495e+01 0.0 
0.0 0.0 -1.662582202703e+01 
-1.054406041168e+02 -1.901156053961e-01 0.0 
-1.901156053961e-01 -2.630858007938e+02 0.0 
0.0 0.0 -1.101579214732e+02 
-1.308619939738e+02 -2.800082298094e-01 0.0 
-2.800082298094e-01 -3.042594300597e+02 0.0 
0.0 0.0 -1.301364272101e+02 
-6.548194884499e+01 5.224101586736e+00 0.0 
5.224101586736e+00 -1.350931621679e+02 0.0 
0.0 0.0 -5.977253330388e+01 
-5.885774034073e+01 3.442565584417e+00 0.0 
3.442565584417e+00 -1.178784835317e+02 0.0 
0.0 0.0 -5.262086716174e+01 
-1.492773251323e+02 4.377170257789e+00 0.0 
4.377170257789e+00 -3.569214854928e+02 0.0 
0.0 0.0 -1.514596431875e+02 
-1.524453233268e+02 1.815063748715e+00 0.0 
1.815063748715e+00 -3.622484145411e+02 0.0 
0.0 0.0 -1.540081213604e+02 
-1.142901169821e+02 -1.268842474388e-01 0.0 
-1.268842474388e-01 -2.829487492631e+02 0.0 
0.0 0.0 -1.187716598736e+02 
-7.058781391032e+01 7.071436775846e+00 0.0 
7.071436775846e+00 -1.452717570133e+02 0.0 
0.0 0.0 -6.435787127708e+01 
-1.499509958055e+02 7.848879859089e+00 0.0 
7.848879859089e+00 -3.581160952792e+02 0.0 
0.0 0.0 -1.520201273254e+02 
-6.145641333204e+01 3.900309662277e+00 0.0 
3.900309662277e+00 -1.249904960198e+02 0.0 
0.0 0.0 -5.553407280555e+01 
-1.335759262412e+02 2.044246104182e+00 0.0 
2.044246104182e+00 -3.099748150481e+02 0.0 
0.0 0.0 -1.326652223868e+02 
-1.400419330628e+02 9.665486629163e+00 0.0 
9.665486629163e+00 -3.232146303093e+02 0.0 
0.0 0.0 -1.385769690116e+02 
-8.505238522386e+01 2.516886643737e+00 0.0 
2.516886643737e+00 -1.843118360362e+02 0.0 
0.0 0.0 -8.040926637802e+01 
-9.852177919961e+01 -2.218422850198e-01 0.0 
-2.218422850198e-01 -2.223036523551e+02 0.0 
0.0 0.0 -9.584762946641e+01 
-6.244792468907e+01 6.582849512704e+00 0.0 
6.582849512704e+00 -1.255761530207e+02 0.0 
0.0 0.0 -5.600722331292e+01 
-5.297861014873e+01 1.405122754978e+00 0.0 
1.405122754978e+00 -1.062127092801e+02 0.0 
0.0 0.0 -4.735739582866e+01 
-7.350926007946e+01 5.739514533779e+00 0.0 
5.739514533779e+00 -1.547173915494e+02 0.0 
0.0 0.0 -6.806799548867e+01 
-5.064514523837e+01 1.256976459878e+01 0.0 
1.256976459878e+01 -1.148141780782e+02 0.0 
0.0 0.0 -4.923779699497e+01 
-7.346942242448e+01 1.006442964381e+00 0.0 
1.006442964381e+00 -1.612200574703e+02 0.0 
0.0 0.0 -7.000684396844e+01 
-6.168658697758e+01 1.208875465866e+01 0.0 
1.208875465866e+01 -1.457510769726e+02 0.0 
0.0 0.0 -6.183129918506e+01 
-1.168957712134e+01 -6.718777297953e-01 0.0 
-6.718777297953e-01 -2.510868397316e+01 0.0 
0.0 0.0 -1.105765592044e+01 
-7.912324906231e+01 1.382480402854e-01 0.0 
1.382480402854e-01 -1.761645465536e+02 0.0 
0.0 0.0 -7.618633868476e+01 
-2.256484041382e+01 -2.384937261057e-01 0.0 
-2.384937261057e-01 -5.999513679145e+01 0.0 
0.0 0.0 -2.436799316158e+01 
-6.678410896340e+01 2.975071417536e+00 0.0 
2.975071417536e+00 -1.369402965715e+02 0.0 
0.0 0.0 -6.071732166046e+01 
-1.518309012992e+02 7.508611032368e+00 0.0 
7.508611032368e+00 -3.590004060349e+02 0.0 
0.0 0.0 -1.528493922002e+02 
-4.312922154667e+01 1.035019142003e+01 0.0 
1.035019142003e+01 -9.480166819683e+01 0.0 
0.0 0.0 -4.097926692305e+01 
-1.190707218403e+02 -4.599364946809e-01 0.0 
-4.599364946809e-01 -2.931880300052e+02 0.0 
0.0 0.0 -1.232776255536e+02 
-2.712037573357e+01 1.001386597007e+01 0.0 
1.001386597007e+01 -4.516334701569e+01 0.0 
0.0 0.0 -2.128511682478e+01 
-1.148510439350e+02 9.168722706996e+00 0.0 
9.168722706996e+00 -2.721039132283e+02 0.0 
0.0 0.0 -1.156864871490e+02 
-7.343377638120e+01 7.587941229637e-02 0.0 
7.587941229637e-02 -1.627615422694e+02 0.0 
0.0 0.0 -7.045859559518e+01 
-5.753733176199e+01 1.033832169510e+01 0.0 
1.033832169510e+01 -1.389723073944e+02 0.0 
0.0 0.0 -5.855289174692e+01 
-1.326799656337e+02 1.520831149130e+00 0.0 
1.520831149130e+00 -3.219233524519e+02 0.0 
0.0 0.0 -1.359809954257e+02 
-2.409878015522e+01 -1.891601905499e+00 0.0 
-1.891601905499e+00 -6.027679237230e+01 0.0 
0.0 0.0 -2.491267175826e+01 
-1.420651854473e+02 -6.293080338686e-03 0.0 
-6.293080338686e-03 -3.412655977095e+02 0.0 
0.0 0.0 -1.445992349470e+02 
-7.755422168319e+01 2.454276165715e+00 0.0 
2.454276165715e+00 -1.633234702117e+02 0.0 
0.0 0.0 -7.186330756847e+01 
-1.531006253234e+02 2.468307240637e+00 0.0 
2.468307240637e+00 -3.651165867583e+02 0.0 
0.0 0.0 -1.550651636245e+02 
-7.292062662680e+01 -5.776771259174e-02 0.0 
-5.776771259174e-02 -1.616946607175e+02 0.0 
0.0 0.0 -6.998458620330e+01 
-4.644882217455e+01 1.083482114964e+01 0.0 
1.083482114964e+01 -1.075899111813e+02 0.0 
0.0 0.0 -4.581162000675e+01 
-6.556464146433e+01 1.064011277161e+00 0.0 
1.064011277161e+00 -1.353826416968e+02 0.0 
0.0 0.0 -5.988418494834e+01 
-1.002175299136e+02 6.617774679748e-01 0.0 
6.617774679748e-01 -2.520424509500e+02 0.0 
0.0 0.0 -1.052779942591e+02 
-2.490601585032e+01 5.590562544915e+00 0.0 
5.590562544915e+00 -4.603099087031e+01 0.0 
0.0 0.0 -2.088110201619e+01 
-5.681457872507e+01 1.190440871794e+01 0.0 
1.190440871794e+01 -1.389691444021e+02 0.0 
0.0 0.0 -5.833511693816e+01 
-1.028139657412e+02 1.466490311859e+00 0.0 
1.466490311859e+00 -2.329728719154e+02 0.0 
0.0 0.0 -1.003360512970e+02 
-7.297109485453e+01 -5.145672997310e-01 0.0 
-5.145672997310e-01 -1.615030673724e+02 0.0 
0.0 0.0 -6.994224866807e+01 
-5.437032580793e+01 1.050109598351e+01 0.0 
1.050109598351e+01 -1.263222521963e+02 0.0 
0.0 0.0 -5.380777340128e+01 
-6.121544110632e+01 1.169113857585e+00 0.0 
1.169113857585e+00 -1.254559915037e+02 0.0 
0.0 0.0 -5.560142978301e+01 
-1.238636231197e+02 7.746723795029e+00 0.0 
7.746723795029e+00 -2.811777611600e+02 0.0 
0.0 0.0 -1.211124152839e+02 
-6.929269933482e+01 1.313456976955e-01 0.0 
1.313456976955e-01 -1.778745541981e+02 0.0 
0.0 0.0 -7.375017605988e+01 
-1.428878377307e+02 1.093758244118e+01 0.0 
1.093758244118e+01 -3.336148781236e+02 0.0 
0.0 0.0 -1.425508147563e+02 
-1.408438334374e+02 1.060005100324e+01 0.0 
1.060005100324e+01 -3.247675283136e+02 0.0 
0.0 0.0 -1.392834085253e+02 
-4.121977674602e+01 8.967955509203e+00 0.0 
8.967955509203e+00 -7.810509724886e+01 0.0 
0.0 0.0 -3.539746219847e+01 
-6.965746407697e+01 -3.758704549263e-01 0.0 
-3.758704549263e-01 -1.789885725478e+02 0.0 
0.0 0.0 -7.419381098744e+01 
-1.315227370431e+02 9.361358450669e+00 0.0 
9.361358450669e+00 -3.174041431512e+02 0.0 
0.0 0.0 -1.342780640583e+02 
-5.852561292244e+01 5.148965254382e+00 0.0 
5.148965254382e+00 -1.162625828021e+02 0.0 
0.0 0.0 -5.203645871738e+01 
-3.470918836713e+01 6.458052291717e+00 0.0 
6.458052291717e+00 -6.568519415279e+01 0.0 
0.0 0.0 -2.971831475598e+01 
-7.355127788941e+01 1.653320942770e+00 0.0 
1.653320942770e+00 -1.543734548576e+02 0.0 
0.0 0.0 -6.797741982410e+01 
-5.871815397932e+01 1.219335200470e+01 0.0 
1.219335200470e+01 -1.342031783013e+02 0.0 
0.0 0.0 -5.747639968419e+01 
-1.325658041666e+02 9.392146386861e-01 0.0 
9.392146386861e-01 -3.089303171063e+02 0.0 
0.0 0.0 -1.320488363819e+02 
-1.125316079879e+02 4.720147769872e+00 0.0 
4.720147769872e+00 -2.504043790619e+02 0.0 
0.0 0.0 -1.084807961149e+02 
-1.374990067394e+02 -4.577474893420e-01 0.0 
-4.577474893420e-01 -3.319703576856e+02 0.0 
0.0 0.0 -1.404408093275e+02 
-1.983051477224e+01 1.246184103803e+01 0.0 
1.246184103803e+01 -3.590587618148e+01 0.0 
0.0 0.0 -1.632091728612e+01 
-5.227065776294e+01 1.125650237431e+01 0.0 
1.125650237431e+01 -1.328084620209e+02 0.0 
0.0 0.0 -5.512373593515e+01 
-1.163734814626e+02 5.501069324906e+00 0.0 
5.501069324906e+00 -2.603030497875e+02 0.0 
0.0 0.0 -1.126029593750e+02 
-1.237196790446e+01 2.179882103194e+00 0.0 
2.179882103194e+00 -4.780973364180e+00 0.0 
0.0 0.0 -4.745882380591e+00 
-5.737445939421e+01 2.731594654713e+00 0.0 
2.731594654713e+00 -1.157034323885e+02 0.0 
0.0 0.0 -5.152336753482e+01 
-1.225933593518e+02 7.963525770203e+00 0.0 
7.963525770203e+00 -3.003135339076e+02 0.0 
0.0 0.0 -1.264720679778e+02 
-1.712458180382e+01 -3.688893280326e-01 0.0 
-3.688893280326e-01 -4.249369605249e+01 0.0 
0.0 0.0 -1.748548335689e+01 
-1.348303621997e+02 5.442302188999e+00 0.0 
5.442302188999e+00 -3.097686460579e+02 0.0 
0.0 0.0 -1.329797024773e+02 
-1.010833313150e+02 2.601278028496e+00 0.0 
2.601278028496e+00 -2.221567851610e+02 0.0 
0.0 0.0 -9.657203494281e+01 
-6.250063099423e+01 4.464527245054e-02 0.0 
4.464527245054e-02 -1.670169641857e+02 0.0 
0.0 0.0 -6.845527855397e+01 
-1.217109282058e+02 6.372007824976e+00 0.0 
6.372007824976e+00 -2.997815136215e+02 0.0 
0.0 0.0 -1.260477325482e+02 
-8.429427255231e+01 2.124331264616e+00 0.0 
2.124331264616e+00 -1.804665469245e+02 0.0 
0.0 0.0 -7.902824584305e+01 
-9.060770162139e+01 2.607549469026e+00 0.0 
2.607549469026e+00 -1.958814514280e+02 0.0 
0.0 0.0 -8.554674591480e+01 
-1.450027159181e+02 8.340271606839e+00 0.0 
8.340271606839e+00 -3.458149906832e+02 0.0 
0.0 0.0 -1.468453119804e+02 
-4.746063977674e+01 -1.376986467007e+00 0.0 
-1.376986467007e+00 -1.263736108425e+02 0.0 
0.0 0.0 -5.175027518578e+01 
-7.730208740356e+01 6.820893966211e+00 0.0 
6.820893966211e+00 -1.655294388027e+02 0.0 
0.0 0.0 -7.244945786186e+01 
-8.161446583987e+01 3.351009550894e+00 0.0 
3.351009550894e+00 -1.727009107562e+02 0.0 
0.0 0.0 -7.589461297883e+01 
-1.062211146642e+02 4.398128421900e+00 0.0 
4.398128421900e+00 -2.334311501375e+02 0.0 
0.0 0.0 -1.014956794405e+02 
-8.269175371308e+01 4.305616503309e+00 0.0 
4.305616503309e+00 -1.739579745329e+02 0.0 
0.0 0.0 -7.659491847379e+01 
-7.465533182818e+01 3.609980228679e+00 0.0 
3.609980228679e+00 -1.548307414323e+02 0.0 
0.0 0.0 -6.844582197814e+01 
-1.017823142015e+02 1.053304282469e+01 0.0 
1.053304282469e+01 -2.447809540317e+02 0.0 
0.0 0.0 -1.035689804700e+02 
-1.208281778381e+02 9.098000866298e+00 0.0 
9.098000866298e+00 -2.709181789152e+02 0.0 
0.0 0.0 -1.171239070260e+02 
-1.539165052894e+01 2.068905624288e+00 0.0 
2.068905624288e+00 -2.171552692339e+01 0.0 
0.0 0.0 -1.073215323570e+01 
-4.079833781062e+01 6.095571012555e+00 0.0 
6.095571012555e+00 -7.842890225918e+01 0.0 
0.0 0.0 -3.536817202094e+01 
-4.832826524762e+01 6.357250800524e+00 0.0 
6.357250800524e+00 -9.677859201582e+01 0.0 
0.0 0.0 -4.313205717903e+01 
-7.419887766071e+01 8.256566631479e+00 0.0 
8.256566631479e+00 -1.555003587926e+02 0.0 
0.0 0.0 -6.850977093599e+01 
-1.178942810159e+02 6.586582486004e+00 0.0 
6.586582486004e+00 -2.620436834925e+02 0.0 
0.0 0.0 -1.135813893525e+02 
-2.006820183044e+01 4.690051138272e+00 0.0 
4.690051138272e+00 -6.009868645366e+01 0.0 
0.0 0.0 -2.365006648523e+01 
-1.178935010060e+02 7.132059453897e+00 0.0 
7.132059453897e+00 -2.911554728346e+02 0.0 
0.0 0.0 -1.223146921522e+02 
-7.281333725138e+01 1.061539759313e+00 0.0 
1.061539759313e+00 -1.602297045646e+02 0.0 
0.0 0.0 -6.951291254481e+01 
-5.282729141328e+01 1.018705108910e+01 0.0 
1.018705108910e+01 -1.328291702145e+02 0.0 
0.0 0.0 -5.529693848835e+01 
-1.133022866407e+02 6.300723811451e+00 0.0 
6.300723811451e+00 -2.819576420874e+02 0.0 
0.0 0.0 -1.181779786184e+02 
-1.249451812857e+01 -7.787554511080e-02 0.0 
-7.787554511080e-02 -2.867737100783e+01 0.0 
0.0 0.0 -1.195156674092e+01 
-1.088376947703e+02 3.163887530039e+00 0.0 
3.163887530039e+00 -2.417982706433e+02 0.0 
0.0 0.0 -1.047907896241e+02 
-1.143662952505e+01 -7.774247701669e-01 0.0 
-7.774247701669e-01 -2.403991074601e+01 0.0 
0.0 0.0 -1.024296208132e+01 
-1.684962163931e+01 -6.886350305023e-01 0.0 
-6.886350305023e-01 -4.294111971912e+01 0.0 
0.0 0.0 -1.753722240753e+01 
-1.746932253494e+01 9.475680943780e+00 0.0 
9.475680943780e+00 -3.511105365317e+01 0.0 
0.0 0.0 -1.537411285643e+01 
-4.029142178836e+01 -1.566456507672e+00 0.0 
-1.566456507672e+00 -1.071027428152e+02 0.0 
0.0 0.0 -4.381824938106e+01 
-1.138864109086e+02 4.910885456240e+00 0.0 
4.910885456240e+00 -2.530356188651e+02 0.0 
0.0 0.0 -1.096766089321e+02 
-3.853974054333e+01 -5.044946116104e-01 0.0 
-5.044946116104e-01 -1.005528947027e+02 0.0 
0.0 0.0 -4.132779057382e+01 
-2.605072010812e+01 1.111180787288e+01 0.0 
1.111180787288e+01 -6.628304658115e+01 0.0 
0.0 0.0 -2.730013000678e+01 
-2.984610938759e+01 -3.474550240480e-01 0.0 
-3.474550240480e-01 -7.832149946212e+01 0.0 
0.0 0.0 -3.205028265491e+01 
-2.671598825496e+01 -1.902478540730e+00 0.0 
-1.902478540730e+00 -6.842071426473e+01 0.0 
0.0 0.0 -2.814101075590e+01 
-1.262197479518e+02 7.194139349132e+00 0.0 
7.194139349132e+00 -3.082088618360e+02 0.0 
0.0 0.0 -1.299285829363e+02 
-7.870505035590e+01 4.594828476516e+00 0.0 
4.594828476516e+00 -1.639350953087e+02 0.0 
0.0 0.0 -7.239204369938e+01 
-1.514863917875e+02 8.936217289703e-01 0.0 
8.936217289703e-01 -3.609271081864e+02 0.0 
0.0 0.0 -1.533240499922e+02 
-1.080977576200e+01 1.040722483245e+00 0.0 
1.040722483245e+00 -8.555206149337e+00 0.0 
0.0 0.0 -6.351194098255e+00 
-3.367078823170e+01 1.120528756793e+01 0.0 
1.120528756793e+01 -8.395081732967e+01 0.0 
0.0 0.0 -3.488648166841e+01 
-6.106885464962e+01 9.857573791563e+00 0.0 
9.857573791563e+00 -1.514771443197e+02 0.0 
0.0 0.0 -6.336379969079e+01 
-5.281938879795e+01 3.066298311360e+00 0.0 
3.066298311360e+00 -1.051991104449e+02 0.0 
0.0 0.0 -4.700554977286e+01 
-1.170452099553e+02 5.648948264314e+00 0.0 
5.648948264314e+00 -2.906473119654e+02 0.0 
0.0 0.0 -1.219077565762e+02 
-1.539895450783e+02 2.129455894911e+00 0.0 
2.129455894911e+00 -3.666667585694e+02 0.0 
0.0 0.0 -1.557968910943e+02 
-1.102015310247e+02 5.984968025407e+00 0.0 
5.984968025407e+00 -2.420458856269e+02 0.0 
0.0 0.0 -1.052742249955e+02 
-4.043726985049e+01 9.959762604917e+00 0.0 
9.959762604917e+00 -1.090078818281e+02 0.0 
0.0 0.0 -4.443354550359e+01 
-1.268697983530e+02 8.563260699331e+00 0.0 
8.563260699331e+00 -3.085009057659e+02 0.0 
0.0 0.0 -1.302112112357e+02 
-1.096597909446e+02 -7.251908313112e-01 0.0 
-7.251908313112e-01 -2.726914951469e+02 0.0 
0.0 0.0 -1.143053858275e+02 
-7.848790848563e+01 7.541675843395e+00 0.0 
7.541675843395e+00 -1.647271910347e+02 0.0 
0.0 0.0 -7.256452985609e+01 
-1.048694994657e+02 3.211841153096e+00 0.0 
3.211841153096e+00 -2.312075370009e+02 0.0 
0.0 0.0 -1.004231109400e+02 
-1.394000918640e+02 1.172982532262e+01 0.0 
1.172982532262e+01 -3.251257300744e+02 0.0 
0.0 0.0 -1.389577465815e+02 
-6.051140810894e+01 1.117097752667e+01 0.0 
1.117097752667e+01 -1.515170981068e+02 0.0 
0.0 0.0 -6.320855186472e+01 
-2.977060449403e+01 1.305489140598e+01 0.0 
1.305489140598e+01 -7.015615929969e+01 0.0 
0.0 0.0 -2.957802913812e+01 
-9.061851926392e+01 4.945537924045e+00 0.0 
4.945537924045e+00 -1.930165675739e+02 0.0 
0.0 0.0 -8.469052605135e+01 
-1.409208186588e+02 3.085728969024e+00 0.0 
3.085728969024e+00 -3.280990951014e+02 0.0 
0.0 0.0 -1.403059741281e+02 
-7.766221298697e+01 9.278799472848e+00 0.0 
9.278799472848e+00 -1.661258586794e+02 0.0 
0.0 0.0 -7.273642149992e+01 
-8.047277176572e+01 1.016785565615e+01 0.0 
1.016785565615e+01 -1.998244739102e+02 0.0 
0.0 0.0 -8.368917370277e+01 
-8.080907446457e+01 4.116698884926e-01 0.0 
4.116698884926e-01 -1.799336247863e+02 0.0 
0.0 0.0 -7.782280977526e+01 
-2.406831993422e+01 -1.115870999402e+00 0.0 
-1.115870999402e+00 -5.740878107208e+01 0.0 
0.0 0.0 -2.404313030189e+01 
-8.129495249042e+01 2.256149505727e+00 0.0 
2.256149505727e+00 -1.729031202233e+02 0.0 
0.0 0.0 -7.585942181413e+01 
-4.031539509057e+01 9.500172876453e+00 0.0 
9.500172876453e+00 -1.088569386092e+02 0.0 
0.0 0.0 -4.435170010993e+01 
-2.595019393685e+01 5.680632869742e+00 0.0 
5.680632869742e+00 -7.816684920877e+01 0.0 
0.0 0.0 -3.083511294369e+01 
-2.343079253538e+01 -7.537787912967e-02 0.0 
-7.537787912967e-02 -6.170262678741e+01 0.0 
0.0 0.0 -2.514002579684e+01 
-1.126475246178e+02 3.117672102881e+00 0.0 
3.117672102881e+00 -2.521783492169e+02 0.0 
0.0 0.0 -1.090477621504e+02 
-8.672224940001e+01 5.170952257447e+00 0.0 
5.170952257447e+00 -1.832984393281e+02 0.0 
0.0 0.0 -8.060620661845e+01 
-5.168093022355e+01 1.016518910529e+01 0.0 
1.016518910529e+01 -1.146987605788e+02 0.0 
0.0 0.0 -4.951390724069e+01 
-1.176076207324e+02 4.806231940230e+00 0.0 
4.806231940230e+00 -2.633609311611e+02 0.0 
0.0 0.0 -1.138905655681e+02 
-1.140364023961e+02 6.759376094393e+00 0.0 
6.759376094393e+00 -2.516320563811e+02 0.0 
0.0 0.0 -1.093005376332e+02 
-8.261571598193e+01 6.946893103394e+00 0.0 
6.946893103394e+00 -1.739773228141e+02 0.0 
0.0 0.0 -7.657791163881e+01 
-1.550841574502e+02 3.534145397987e+00 0.0 
3.534145397987e+00 -3.661473075313e+02 0.0 
0.0 0.0 -1.559694394944e+02 
-8.446231838316e+01 8.380997658957e+00 0.0 
8.380997658957e+00 -2.107894279162e+02 0.0 
0.0 0.0 -8.817552388982e+01 
-8.666803192570e+01 6.472741294248e+00 0.0 
6.472741294248e+00 -1.833165009792e+02 0.0 
0.0 0.0 -8.059535987147e+01 
-6.685318049947e+01 1.178738323135e+01 0.0 
1.178738323135e+01 -1.536012788317e+02 0.0 
0.0 0.0 -6.573633779935e+01 
-8.882224560293e+01 1.015663391664e+01 0.0 
1.015663391664e+01 -2.184186111419e+02 0.0 
0.0 0.0 -9.177225702344e+01 
-3.246768813030e+01 6.333083592842e+00 0.0 
6.333083592842e+00 -9.552306262470e+01 0.0 
0.0 0.0 -3.799722522650e+01 
-7.635244666684e+01 1.001565871697e+00 0.0 
1.001565871697e+00 -1.636770216947e+02 0.0 
0.0 0.0 -7.160884050847e+01 
-6.408027416184e+01 1.028867981275e+01 0.0 
1.028867981275e+01 -1.630710186874e+02 0.0 
0.0 0.0 -6.774538785478e+01 
-4.530311572458e+01 3.735234708368e+00 0.0 
3.735234708368e+00 -1.254335413332e+02 0.0 
0.0 0.0 -5.082099711732e+01 
-1.087739058374e+02 3.979113701565e+00 0.0 
3.979113701565e+00 -2.408995407748e+02 0.0 
0.0 0.0 -1.045020339837e+02 
-1.521144561402e+01 4.157634211848e-01 0.0 
4.157634211848e-01 -6.568922103776e+00 0.0 
0.0 0.0 -6.134110315339e+00 
-8.660944027792e+01 4.193440387891e+00 0.0 
4.193440387891e+00 -1.837668427240e+02 0.0 
0.0 0.0 -8.071288490059e+01 
-4.383167562675e+01 8.375853683771e+00 0.0 
8.375853683771e+00 -1.201871396403e+02 0.0 
0.0 0.0 -4.880564458010e+01 
-3.319768414690e+01 1.227254207292e+01 0.0 
1.227254207292e+01 -8.396220150359e+01 0.0 
0.0 0.0 -3.474796569515e+01 
-3.396851552162e+01 6.298796805727e+00 0.0 
6.298796805727e+00 -9.614908914955e+01 0.0 
0.0 0.0 -3.863528140135e+01 
-9.334287045062e+01 3.715755244131e+00 0.0 
3.715755244131e+00 -2.015521989360e+02 0.0 
0.0 0.0 -8.806852081598e+01 
-1.837340999016e+01 -9.595298156523e-01 0.0 
-9.595298156523e-01 -4.138378026103e+01 0.0 
0.0 0.0 -1.752715707536e+01 
-5.283937084185e+01 5.357293434179e+00 0.0 
5.357293434179e+00 -1.059264992718e+02 0.0 
0.0 0.0 -4.722976103409e+01 
-9.282996893014e+01 8.378295696338e+00 0.0 
8.378295696338e+00 -2.293933159208e+02 0.0 
0.0 0.0 -9.626698545527e+01 
-8.540406464094e+01 3.083088519173e+00 0.0 
3.083088519173e+00 -1.822234696475e+02 0.0 
0.0 0.0 -7.988826028652e+01 
-8.381049219473e+01 1.828324486897e+00 0.0 
1.828324486897e+00 -1.809747426618e+02 0.0 
0.0 0.0 -7.903557045696e+01 
-1.845871914681e+01 3.001742042532e+00 0.0 
3.001742042532e+00 -5.261538087442e+01 0.0 
0.0 0.0 -2.092223000637e+01 
-4.372600511667e+01 3.344938738524e+00 0.0 
3.344938738524e+00 -1.246791648209e+02 0.0 
0.0 0.0 -5.012155098126e+01 
-4.210209667021e+01 2.451310590790e+00 0.0 
2.451310590790e+00 -1.163864062397e+02 0.0 
0.0 0.0 -4.714655087297e+01 
-4.545580291129e+01 7.894618406476e+00 0.0 
7.894618406476e+00 -8.700079258855e+01 0.0 
0.0 0.0 -3.933697864995e+01 
-1.062280496160e+02 5.265605809912e+00 0.0 
5.265605809912e+00 -2.323319032449e+02 0.0 
0.0 0.0 -1.011679858583e+02 
-5.382056887843e+01 8.451106932717e+00 0.0 
8.451106932717e+00 -1.070055908217e+02 0.0 
0.0 0.0 -4.784784791004e+01 
-5.980103168808e+01 8.512847440200e+00 0.0 
8.512847440200e+00 -1.558978313114e+02 0.0 
0.0 0.0 -6.430965889985e+01 
-5.629578682638e+01 9.388123192059e+00 0.0 
9.388123192059e+00 -1.447035259470e+02 0.0 
0.0 0.0 -5.989979383202e+01 
-2.231572125793e+01 4.390885885090e+00 0.0 
4.390885885090e+00 -6.085768470607e+01 0.0 
0.0 0.0 -2.455202178920e+01 
-7.080237108444e+01 9.848418432640e+00 0.0 
9.848418432640e+00 -1.653603591056e+02 0.0 
0.0 0.0 -7.044881905701e+01 
-2.055929350979e+01 1.118632077411e+01 0.0 
1.118632077411e+01 -4.956012289488e+01 0.0 
0.0 0.0 -2.063582492140e+01 
-1.430082419709e+02 6.286988527054e+00 0.0 
6.286988527054e+00 -3.310104206304e+02 0.0 
0.0 0.0 -1.418055987804e+02 
-1.430911008638e+02 7.642916567911e+00 0.0 
7.642916567911e+00 -3.319192186322e+02 0.0 
0.0 0.0 -1.421030958488e+02 
-8.099238981513e+01 7.737935345412e+00 0.0 
7.737935345412e+00 -1.767611755214e+02 0.0 
0.0 0.0 -7.692606960095e+01 
-3.617555318959e+01 8.087376409251e+00 0.0 
8.087376409251e+00 -1.025983201781e+02 0.0 
0.0 0.0 -4.123216201031e+01 
-2.970870989670e+01 1.078840700797e+01 0.0 
1.078840700797e+01 -7.948858326292e+01 0.0 
0.0 0.0 -3.235918794789e+01 
-8.949076448145e+01 5.182779317821e+00 0.0 
5.182779317821e+00 -1.924748212191e+02 0.0 
0.0 0.0 -8.418967571017e+01 
-3.330525505002e+01 9.532627915582e+00 0.0 
9.532627915582e+00 -9.166993876292e+01 0.0 
0.0 0.0 -3.709255814388e+01 
-4.039555389082e+01 1.933115618832e+00 0.0 
1.933115618832e+00 -1.155482310998e+02 0.0 
0.0 0.0 -4.638313549717e+01 
-7.759424793321e+01 5.151269256654e+00 0.0 
5.151269256654e+00 -1.637407045294e+02 0.0 
0.0 0.0 -7.200048573878e+01 
-1.340450276413e+02 2.370835338523e+00 0.0 
2.370835338523e+00 -3.106738426091e+02 0.0 
0.0 0.0 -1.330156610751e+02 
-4.820408948394e+01 9.490029621414e+00 0.0 
9.490029621414e+00 -1.266279933983e+02 0.0 
0.0 0.0 -5.204962486468e+01 
-1.018811835172e+02 9.048956241623e+00 0.0 
9.048956241623e+00 -2.445678017371e+02 0.0 
0.0 0.0 -1.035346955763e+02 
-2.246633187466e+01 1.002950341356e+01 0.0 
1.002950341356e+01 -6.214362911819e+01 0.0 
0.0 0.0 -2.498298829785e+01 
-1.568920191196e+02 9.719887046055e+00 0.0 
9.719887046055e+00 -3.706847455712e+02 0.0 
0.0 0.0 -1.578730294072e+02 
-3.269593676872e+01 9.314389196644e+00 0.0 
9.314389196644e+00 -9.136156099338e+01 0.0 
0.0 0.0 -3.681724932863e+01 
-8.145123987426e+01 6.173681920389e+00 0.0 
6.173681920389e+00 -1.743066240658e+02 0.0 
0.0 0.0 -7.632735918201e+01 
-2.334734257179e+01 3.618164899681e+00 0.0 
3.618164899681e+00 -7.026112812454e+01 0.0 
0.0 0.0 -2.768254120890e+01 
-9.973003845341e+01 6.183139949028e+00 0.0 
6.183139949028e+00 -2.517736903634e+02 0.0 
0.0 0.0 -1.050511186451e+02 
-6.449305990236e+01 9.203257989310e+00 0.0 
9.203257989310e+00 -1.629980246054e+02 0.0 
0.0 0.0 -6.784732535232e+01 
-4.419447805055e+01 1.435798012323e+00 0.0 
1.435798012323e+00 -1.247344513415e+02 0.0 
0.0 0.0 -5.027867881760e+01 
-8.277020302163e+01 5.524844067866e+00 0.0 
5.524844067866e+00 -1.735912924178e+02 0.0 
0.0 0.0 -7.650844863183e+01 
-1.455593557242e+02 9.669123625339e+00 0.0 
9.669123625339e+00 -3.376934803584e+02 0.0 
0.0 0.0 -1.445758508248e+02 
-5.174082597638e+01 8.500413369143e+00 0.0 
8.500413369143e+00 -1.379455724810e+02 0.0 
0.0 0.0 -5.650591953722e+01 
-9.274559905716e+01 9.649315153306e+00 0.0 
9.649315153306e+00 -2.296136398820e+02 0.0 
0.0 0.0 -9.630777168176e+01 
-2.347296404720e+01 1.006162770264e+01 0.0 
1.006162770264e+01 -6.257748337371e+01 0.0 
0.0 0.0 -2.541513422627e+01 
-9.690850884331e+01 9.008993785477e-01 0.0 
9.008993785477e-01 -2.151423152699e+02 0.0 
0.0 0.0 -9.321524723397e+01 
-1.124440293281e+02 4.916097434588e+00 0.0 
4.916097434588e+00 -2.813423611795e+02 0.0 
0.0 0.0 -1.177359171523e+02 
-3.429099522022e+01 1.314477269966e+01 0.0 
1.314477269966e+01 -7.485191795292e+01 0.0 
0.0 0.0 -3.234287395194e+01 
-9.383172370526e+01 2.242191626641e+00 0.0 
2.242191626641e+00 -2.068600418967e+02 0.0 
0.0 0.0 -8.980752968059e+01 
-1.475387433819e+02 1.131397013626e+01 0.0 
1.131397013626e+01 -3.431163558755e+02 0.0 
0.0 0.0 -1.467965297772e+02 
-1.216657175021e+02 5.414575861207e+00 0.0 
5.414575861207e+00 -3.005455833067e+02 0.0 
0.0 0.0 -1.262633902426e+02 
-1.449703401837e+02 8.978368463903e+00 0.0 
8.978368463903e+00 -3.358127609064e+02 0.0 
0.0 0.0 -1.438349303271e+02 
-9.399541594008e+01 2.761177962520e+00 0.0 
2.761177962520e+00 -2.052992550709e+02 0.0 
0.0 0.0 -8.938840130328e+01 
-1.136421163603e+02 7.650581334425e+00 0.0 
7.650581334425e+00 -2.510805701344e+02 0.0 
0.0 0.0 -1.090168059484e+02 
-2.662616055502e+01 1.313823017787e+01 0.0 
1.313823017787e+01 -5.513278440659e+01 0.0 
0.0 0.0 -2.412768348848e+01 
-7.481727670708e+01 4.906584256923e+00 0.0 
4.906584256923e+00 -1.544830215010e+02 0.0 
0.0 0.0 -6.839008946242e+01 
-8.558866830812e+01 4.252985402794e+00 0.0 
4.252985402794e+00 -1.824050927043e+02 0.0 
0.0 0.0 -7.999812830373e+01 
-9.064584102002e+01 6.080989265499e+00 0.0 
6.080989265499e+00 -1.928449335879e+02 0.0 
0.0 0.0 -8.464723238237e+01 
-7.321505390629e+01 1.004481350670e+01 0.0 
1.004481350670e+01 -1.576741568766e+02 0.0 
0.0 0.0 -6.886676323488e+01 
-1.491113728307e+02 1.222108347818e+01 0.0 
1.222108347818e+01 -3.477247829235e+02 0.0 
0.0 0.0 -1.486508467263e+02 
-8.994589283601e+01 1.715595259617e+00 0.0 
1.715595259617e+00 -1.948028595283e+02 0.0 
0.0 0.0 -8.502462570930e+01 
-7.868099445286e+01 3.480207316115e+00 0.0 
3.480207316115e+00 -1.650178424340e+02 0.0 
0.0 0.0 -7.270965106606e+01 
-5.597712122516e+01 1.029724220649e+01 0.0 
1.029724220649e+01 -1.447656773534e+02 0.0 
0.0 0.0 -5.982283957356e+01 
-3.345193851555e+01 -1.819391421100e+00 0.0 
-1.819391421100e+00 -8.795231882980e+01 0.0 
0.0 0.0 -3.602127720360e+01 
-7.068964624690e+01 3.943788150286e+00 0.0 
3.943788150286e+00 -1.450996209605e+02 0.0 
0.0 0.0 -6.433678016223e+01 
-3.836031077173e+01 1.109585159173e+01 0.0 
1.109585159173e+01 -8.876460274147e+01 0.0 
0.0 0.0 -3.773747405396e+01 
-7.343985424743e+01 2.473856492964e-01 0.0 
2.473856492964e-01 -1.624264648339e+02 0.0 
0.0 0.0 -7.035989572439e+01 
-4.585078882666e+01 1.967420154816e+00 0.0 
1.967420154816e+00 -1.255498290109e+02 0.0 
0.0 0.0 -5.102018535127e+01 
-4.805799832544e+01 1.020402408002e+01 0.0 
1.020402408002e+01 -1.267118541139e+02 0.0 
0.0 0.0 -5.203095573182e+01 
-1.126672796980e+02 3.827708620019e+00 0.0 
3.827708620019e+00 -2.512835512484e+02 0.0 
0.0 0.0 -1.087852492839e+02 
-3.746793192449e+01 1.301613859584e+01 0.0 
1.301613859584e+01 -8.874312829345e+01 0.0 
0.0 0.0 -3.746331806538e+01 
-7.761791376150e+01 3.642014718710e+00 0.0 
3.642014718710e+00 -1.631023468915e+02 0.0 
0.0 0.0 -7.181607819591e+01 
-9.658374498418e+01 7.888038961397e+00 0.0 
7.888038961397e+00 -2.400090100406e+02 0.0 
0.0 0.0 -1.005778265074e+02 
-8.639594897075e+01 2.465898825573e+00 0.0 
2.465898825573e+00 -2.246917745947e+02 0.0 
0.0 0.0 -9.292631706962e+01 
-1.519609808672e+02 1.258957884855e+01 0.0 
1.258957884855e+01 -3.556388072943e+02 0.0 
0.0 0.0 -1.518799364485e+02 
-6.272733124814e+01 4.646007363089e+00 0.0 
4.646007363089e+00 -1.262815607703e+02 0.0 
0.0 0.0 -5.630266760554e+01 
-3.987770991007e+01 4.180753246181e+00 0.0 
4.180753246181e+00 -1.151630858355e+02 0.0 
0.0 0.0 -4.611223872367e+01 
-6.018906191932e+01 1.164050994348e+00 0.0 
1.164050994348e+00 -1.595984438280e+02 0.0 
0.0 0.0 -6.553625172419e+01 
-3.544698953391e+01 1.059893238969e+01 0.0 
1.059893238969e+01 -6.684947733042e+01 0.0 
0.0 0.0 -3.028894005930e+01 
-3.494311897084e+01 1.039825525978e+01 0.0 
1.039825525978e+01 -7.469753391231e+01 0.0 
0.0 0.0 -3.249219586494e+01 
-1.215826356924e+02 7.296148008651e+00 0.0 
7.296148008651e+00 -2.717385802968e+02 0.0 
0.0 0.0 -1.175963647968e+02 
-8.628036044135e+01 7.946522415641e+00 0.0 
7.946522415641e+00 -1.840801098719e+02 0.0 
0.0 0.0 -8.070814109399e+01 
-5.414726723325e+01 5.929593819166e+00 0.0 
5.929593819166e+00 -1.061063088343e+02 0.0 
0.0 0.0 -4.767607282027e+01 
-6.957412838550e+01 2.964353891243e+00 0.0 
2.964353891243e+00 -1.439683044207e+02 0.0 
0.0 0.0 -6.366272984186e+01 
-1.543843817393e+02 1.140268851995e+01 0.0 
1.140268851995e+01 -3.642565945411e+02 0.0 
0.0 0.0 -1.551922928841e+02 
-1.451675115334e+02 1.143261680992e+01 0.0 
1.143261680992e+01 -3.438310203561e+02 0.0 
0.0 0.0 -1.462995595669e+02 
-1.202363685913e+02 5.301741694488e+00 0.0 
5.301741694488e+00 -2.705515711808e+02 0.0 
0.0 0.0 -1.168363819316e+02 
-1.101957363972e+02 5.075720908994e+00 0.0 
5.075720908994e+00 -2.428486567872e+02 0.0 
0.0 0.0 -1.055133179553e+02 
-8.332872648752e+01 3.862874952592e+00 0.0 
3.862874952592e+00 -2.161959762699e+02 0.0 
0.0 0.0 -8.945741082724e+01 
-5.734944981906e+01 9.863676230619e+00 0.0 
9.863676230619e+00 -1.179920738296e+02 0.0 
0.0 0.0 -5.220245709460e+01 
-3.701683525768e+01 8.244660351741e+00 0.0 
8.244660351741e+00 -1.029902224129e+02 0.0 
0.0 0.0 -4.160211730119e+01 
-4.423614957018e+01 8.773710375082e+00 0.0 
8.773710375082e+00 -1.204457341448e+02 0.0 
0.0 0.0 -4.900456511449e+01 
-8.205234774574e+01 8.556649295833e+00 0.0 
8.556649295833e+00 -1.750647100343e+02 0.0 
0.0 0.0 -7.673511733401e+01 
-9.615270899988e+01 7.840159131082e+00 0.0 
7.840159131082e+00 -2.422930395101e+02 0.0 
0.0 0.0 -1.011337245530e+02 
-7.486994660135e+01 1.174904447560e+00 0.0 
1.174904447560e+00 -1.934635559027e+02 0.0 
0.0 0.0 -8.010005075121e+01 
-1.202238091895e+02 4.442562518403e+00 0.0 
4.442562518403e+00 -2.712561685037e+02 0.0 
0.0 0.0 -1.170439933080e+02 
-4.147789035242e+01 4.404883990569e+00 0.0 
4.404883990569e+00 -1.158908841337e+02 0.0 
0.0 0.0 -4.681063234585e+01 
-6.860569245362e+01 1.081291302690e+01 0.0 
1.081291302690e+01 -1.495478171892e+02 0.0 
0.0 0.0 -6.504605289285e+01 
-8.158381531723e+01 4.643073840015e+00 0.0 
4.643073840015e+00 -1.729078134451e+02 0.0 
0.0 0.0 -7.594748862871e+01 
-6.067396506263e+01 1.094179052371e+01 0.0 
1.094179052371e+01 -1.297263686001e+02 0.0 
0.0 0.0 -5.672010009883e+01 
-1.446243250802e+02 8.341833675111e+00 0.0 
8.341833675111e+00 -3.341355508310e+02 0.0 
0.0 0.0 -1.432279627733e+02 
-1.425713328474e+02 6.669250445343e+00 0.0 
6.669250445343e+00 -3.309907157588e+02 0.0 
0.0 0.0 -1.416686145819e+02 
-1.359220483913e+02 7.568963421051e+00 0.0 
7.568963421051e+00 -3.106822823131e+02 0.0 
0.0 0.0 -1.335812992113e+02 
-9.155945696360e+01 4.418158409616e+00 0.0 
4.418158409616e+00 -2.348197878085e+02 0.0 
0.0 0.0 -9.751377343162e+01 
-1.164372770066e+02 3.038393977619e+00 0.0 
3.038393977619e+00 -2.625398136408e+02 0.0 
0.0 0.0 -1.132931271942e+02 
-3.046209105481e+01 1.127008199733e+01 0.0 
1.127008199733e+01 -7.015419269729e+01 0.0 
0.0 0.0 -2.978488512563e+01 
-5.184486980777e+01 9.111156003690e+00 0.0 
9.111156003690e+00 -1.381239378210e+02 0.0 
0.0 0.0 -5.659064228863e+01 
-2.786761491080e+01 5.315744193273e+00 0.0 
5.315744193273e+00 -7.888824731288e+01 0.0 
0.0 0.0 -3.162675866710e+01 
-5.822581529083e+01 7.395458983636e+00 0.0 
7.395458983636e+00 -1.162202959852e+02 0.0 
0.0 0.0 -5.193383338281e+01 
-7.649950369481e+01 1.038309288755e+00 0.0 
1.038309288755e+00 -1.637519116356e+02 0.0 
0.0 0.0 -7.167542459913e+01 
-9.285189529987e+01 8.552459134461e-01 0.0 
8.552459134461e-01 -2.045540075663e+02 0.0 
0.0 0.0 -8.882177085984e+01 
-1.481266459903e+02 9.428720327426e+00 0.0 
9.428720327426e+00 -3.534085572399e+02 0.0 
0.0 0.0 -1.500605609691e+02 
-1.198380122771e+02 6.147477372806e+00 0.0 
6.147477372806e+00 -2.698577279113e+02 0.0 
0.0 0.0 -1.165087220565e+02 
-8.939590670130e+01 2.920353919911e+00 0.0 
2.920353919911e+00 -1.920558365603e+02 0.0 
0.0 0.0 -8.403552297848e+01 
-9.339722545687e+01 4.824846965901e+00 0.0 
4.824846965901e+00 -2.018084360066e+02 0.0 
0.0 0.0 -8.816169843904e+01 
-2.937843420665e+01 4.481370695777e+00 0.0 
4.481370695777e+00 -8.786501723913e+01 0.0 
0.0 0.0 -3.477303543373e+01 
-1.922002480402e+01 -1.465895051905e+00 0.0 
-1.465895051905e+00 -4.200215836598e+01 0.0 
0.0 0.0 -1.796665495100e+01 
-6.593203988156e+01 9.997492307648e+00 0.0 
9.997492307648e+00 -1.582848279601e+02 0.0 
0.0 0.0 -6.686506035249e+01 
-7.648066161765e+01 1.070751501130e+01 0.0 
1.070751501130e+01 -1.690599700153e+02 0.0 
0.0 0.0 -7.326218948988e+01 
-7.004006073242e+01 1.167551344446e+01 0.0 
1.167551344446e+01 -1.654104287779e+02 0.0 
0.0 0.0 -7.023514685311e+01 
-1.408497094834e+01 9.087046025281e+00 0.0 
9.087046025281e+00 -2.929948818793e+01 0.0 
0.0 0.0 -1.261533774088e+01 
-8.021291466190e+01 -1.484050154984e-01 0.0 
-1.484050154984e-01 -1.790531673327e+02 0.0 
0.0 0.0 -7.737982459837e+01 
-3.150998885141e+01 -6.972206290569e-01 0.0 
-6.972206290569e-01 -8.087142375334e+01 0.0 
0.0 0.0 -3.331442378143e+01 
-3.691373032317e+01 1.048475288234e+01 0.0 
1.048475288234e+01 -9.681416799349e+01 0.0 
0.0 0.0 -3.971836949500e+01 
-1.582510358732e+02 9.604369697154e+00 0.0 
9.604369697154e+00 -3.705857503707e+02 0.0 
0.0 0.0 -1.582510358732e+02 
-1.059146692591e+02 1.028219238063e+01 0.0 
1.028219238063e+01 -2.564436446448e+02 0.0 
0.0 0.0 -1.083074941712e+02 
-7.720441943543e+01 1.530154955382e+00 0.0 
1.530154955382e+00 -1.640484833590e+02 0.0 
0.0 0.0 -7.197587083833e+01 
-2.318770645384e+01 -7.243804037253e-01 0.0 
-7.243804037253e-01 -5.899709428675e+01 0.0 
0.0 0.0 -2.425544022218e+01 
-7.310887778234e+01 7.565143247895e+00 0.0 
7.565143247895e+00 -1.571420252213e+02 0.0 
0.0 0.0 -6.867527090110e+01 
-6.520449875782e+01 1.159289624957e+01 0.0 
1.159289624957e+01 -1.582973773548e+02 0.0 
0.0 0.0 -6.665056283377e+01 
-9.453536811106e+01 5.787848703493e+00 0.0 
5.787848703493e+00 -2.024358983892e+02 0.0 
0.0 0.0 -8.869137995007e+01 
-1.460460154054e+02 1.006234009289e+01 0.0 
1.006234009289e+01 -3.393184886286e+02 0.0 
0.0 0.0 -1.452093512102e+02 
-7.357727977454e+01 2.672810379679e+00 0.0 
2.672810379679e+00 -1.535942966532e+02 0.0 
0.0 0.0 -6.775147292832e+01 
-9.039023220750e+01 7.425555084857e+00 0.0 
7.425555084857e+00 -1.932696881514e+02 0.0 
0.0 0.0 -8.469797610767e+01 
-7.388946004598e+01 -1.596751111529e-01 0.0 
-1.596751111529e-01 -1.927618348831e+02 0.0 
0.0 0.0 -7.959538847871e+01 
-1.164958936484e+02 3.772237238628e+00 0.0 
3.772237238628e+00 -2.616696458604e+02 0.0 
0.0 0.0 -1.130496618526e+02 
-9.483745868713e+01 2.955955574720e+00 0.0 
2.955955574720e+00 -2.435606602181e+02 0.0 
0.0 0.0 -1.011194356716e+02 
-1.471276063785e+02 1.089003247530e+01 0.0 
1.089003247530e+01 -3.411950567255e+02 0.0 
0.0 0.0 -1.460967989312e+02 
-1.426162775215e+02 8.221712337044e+00 0.0 
8.221712337044e+00 -3.341046475503e+02 0.0 
0.0 0.0 -1.426162775215e+02 
-1.407434296288e+02 5.741976557192e+00 0.0 
5.741976557192e+00 -3.297346691339e+02 0.0 
0.0 0.0 -1.407434296288e+02 
-1.409759176411e+02 6.901853443169e+00 0.0 
6.901853443169e+00 -3.302771411627e+02 0.0 
0.0 0.0 -1.409759176411e+02 
-9.727861914060e+01 4.541381351142e+00 0.0 
4.541381351142e+00 -2.113020704743e+02 0.0 
0.0 0.0 -9.217420688448e+01 
-1.177297796168e+02 5.580386403127e+00 0.0 
5.580386403127e+00 -2.625315883483e+02 0.0 
0.0 0.0 -1.136784103895e+02 
-1.240140248719e+02 6.081325125764e+00 0.0 
6.081325125764e+00 -2.807859835967e+02 0.0 
0.0 0.0 -1.210400025406e+02 
-6.072008148062e+01 8.193608493485e+00 0.0 
8.193608493485e+00 -1.292666634463e+02 0.0 
0.0 0.0 -5.659602347808e+01 
-5.684055872822e+01 6.898401928242e+00 0.0 
6.898401928242e+00 -1.172408985750e+02 0.0 
0.0 0.0 -5.182443719098e+01 
-7.073291887536e+01 8.435126371772e-01 0.0 
8.435126371772e-01 -1.828321773912e+02 0.0 
0.0 0.0 -7.566952887996e+01 
-1.215643977852e+02 6.379405624000e+00 0.0 
6.379405624000e+00 -2.722351106415e+02 0.0 
0.0 0.0 -1.177398525280e+02 
-1.482617203633e+02 1.185342922238e+01 0.0 
1.185342922238e+01 -3.452483970271e+02 0.0 
0.0 0.0 -1.476530352171e+02 
-1.202004331409e+02 3.650584462004e+00 0.0 
3.650584462004e+00 -2.718586945644e+02 0.0 
0.0 0.0 -1.172177383116e+02 
-9.731981126573e+01 1.019562117127e+01 0.0 
1.019562117127e+01 -2.373475351025e+02 0.0 
0.0 0.0 -1.000002039105e+02 
-1.213461026413e+02 5.418372977617e+00 0.0 
5.418372977617e+00 -2.726906813167e+02 0.0 
0.0 0.0 -1.178110351874e+02 
-1.080541454316e+02 1.061335186381e+01 0.0 
1.061335186381e+01 -2.464806957212e+02 0.0 
0.0 0.0 -1.059604523458e+02 
-7.227520067412e+01 9.108340056069e+00 0.0 
9.108340056069e+00 -1.609841687604e+02 0.0 
0.0 0.0 -6.957781083036e+01 
-5.711789306836e+01 4.579087560829e+00 0.0 
4.579087560829e+00 -1.153261139659e+02 0.0 
0.0 0.0 -5.133320211027e+01 
-2.565321639864e+01 8.896138389562e+00 0.0 
8.896138389562e+00 -7.411536902630e+01 0.0 
0.0 0.0 -2.953057562748e+01 
-1.338929155499e+02 3.315099301454e+00 0.0 
3.315099301454e+00 -3.111493966069e+02 0.0 
0.0 0.0 -1.331126936470e+02 
-5.635000880260e+01 9.204158791963e+00 0.0 
9.204158791963e+00 -1.218900089308e+02 0.0 
0.0 0.0 -5.307200532002e+01 
-1.357095611982e+02 1.031705723563e+01 0.0 
1.031705723563e+01 -3.137331308908e+02 0.0 
0.0 0.0 -1.344328076267e+02 
-6.981638476367e+01 -5.285027197839e-01 0.0 
-5.285027197839e-01 -1.821490300416e+02 0.0 
0.0 0.0 -7.518962444159e+01 
-4.263190549745e+01 9.544119037281e-01 0.0 
9.544119037281e-01 -1.157060944033e+02 0.0 
0.0 0.0 -4.710139997021e+01 
-1.503165777809e+02 8.526502148473e+00 0.0 
8.526502148473e+00 -3.555230813533e+02 0.0 
0.0 0.0 -1.513518977402e+02 
-4.152903616343e+01 1.100740657879e+01 0.0 
1.100740657879e+01 -1.019993309056e+02 0.0 
0.0 0.0 -4.265851012072e+01 
-1.433913231378e+02 8.883686071376e+00 0.0 
8.883686071376e+00 -3.359130873216e+02 0.0 
0.0 0.0 -1.433913231378e+02 
-1.355100196249e+02 6.075960345987e+00 0.0 
6.075960345987e+00 -3.137997679757e+02 0.0 
0.0 0.0 -1.343929362802e+02 
-8.927025518383e+01 6.560789800582e+00 0.0 
6.560789800582e+00 -1.938493177068e+02 0.0 
0.0 0.0 -8.453587186718e+01 
-1.265587346901e+01 -1.042867463292e+00 0.0 
-1.042867463292e+00 -2.485500520084e+01 0.0 
0.0 0.0 -1.128031242977e+01 
-1.448313311631e+02 1.002490316430e+01 0.0 
1.002490316430e+01 -3.392731060472e+02 0.0 
0.0 0.0 -1.448313311631e+02 
-1.488583165531e+02 9.883770614983e+00 0.0 
9.883770614983e+00 -3.514261105392e+02 0.0 
0.0 0.0 -1.496853281277e+02 
-4.092671269729e+01 2.921404862306e-01 0.0 
2.921404862306e-01 -1.148403036905e+02 0.0 
0.0 0.0 -4.633010491635e+01 
-1.012793989273e+02 9.761047749754e+00 0.0 
9.761047749754e+00 -2.484229532401e+02 0.0 
0.0 0.0 -1.045107056502e+02 
-1.522617854707e+02 1.244329312329e+01 0.0 
1.244329312329e+01 -3.577735732754e+02 0.0 
0.0 0.0 -1.526106076238e+02 
-8.429506442986e+00 -4.353633568327e-01 0.0 
-4.353633568327e-01 -8.932388057253e+00 0.0 
0.0 0.0 -5.778481492860e+00 
-6.440732618985e+01 9.193256240392e+00 0.0 
9.193256240392e+00 -1.416297749298e+02 0.0 
0.0 0.0 -6.141113033588e+01 
-9.329861356001e+01 6.080492402975e+00 0.0 
6.080492402975e+00 -2.027992227060e+02 0.0 
0.0 0.0 -8.842935087979e+01 
-8.517580253328e+01 7.107242771755e+00 0.0 
7.107242771755e+00 -1.851633103925e+02 0.0 
0.0 0.0 -8.070173387772e+01 
-8.548046815114e+01 5.622642402002e+00 0.0 
5.622642402002e+00 -1.832742489321e+02 0.0 
0.0 0.0 -8.022641512497e+01 
-2.926818760413e+01 1.037254365403e+01 0.0 
1.037254365403e+01 -7.921218933803e+01 0.0 
0.0 0.0 -3.214411308265e+01 
-1.466558097059e+02 1.106833259128e+01 0.0 
1.106833259128e+01 -3.435302226470e+02 0.0 
0.0 0.0 -1.466558097059e+02 
-5.972320688212e+01 9.314826526238e+00 0.0 
9.314826526238e+00 -1.560455018407e+02 0.0 
0.0 0.0 -6.433061261685e+01 
-2.094972792405e+01 2.083127268458e+00 0.0 
2.083127268458e+00 -5.344848722513e+01 0.0 
0.0 0.0 -2.191946454475e+01 
-1.530861233947e+02 3.970708275710e+00 0.0 
3.970708275710e+00 -3.651056321172e+02 0.0 
0.0 0.0 -1.550575266536e+02 
-1.399260675503e+01 -1.001831742071e+00 0.0 
-1.001831742071e+00 -2.512450009291e+01 0.0 
0.0 0.0 -1.133513205438e+01 
-6.551029639770e+01 3.351812592119e+00 0.0 
3.351812592119e+00 -1.344214497918e+02 0.0 
0.0 0.0 -5.957952385684e+01 
-2.222898640684e+01 -8.141577893101e-01 0.0 
-8.141577893101e-01 -5.864542527290e+01 0.0 
0.0 0.0 -2.386232350392e+01 
-6.945023844698e+01 1.751756486985e+00 0.0 
1.751756486985e+00 -1.441756190798e+02 0.0 
0.0 0.0 -6.368775725802e+01 
-1.552533502637e+02 1.095685214860e+01 0.0 
1.095685214860e+01 -3.664376561694e+02 0.0 
0.0 0.0 -1.561073019299e+02 
-1.489395843843e+02 1.171303644871e+01 0.0 
1.171303644871e+01 -3.488590302301e+02 0.0 
0.0 0.0 -1.489395843843e+02 
-8.945140119532e+01 3.941251131687e+00 0.0 
3.941251131687e+00 -1.919124841570e+02 0.0 
0.0 0.0 -8.400916560571e+01 
-1.733066161863e+01 -1.187920761314e+00 0.0 
-1.187920761314e+00 -4.203910104721e+01 0.0 
0.0 0.0 -1.741092879975e+01 
-1.712980467420e+01 1.039867700450e+00 0.0 
1.039867700450e+00 -4.350348505290e+01 0.0 
0.0 0.0 -1.778998691813e+01 
-2.415765644048e+01 -1.125524710140e+00 0.0 
-1.125524710140e+00 -5.814366608494e+01 0.0 
0.0 0.0 -2.429039675763e+01 
-1.309162852160e+02 5.105649951080e+00 0.0 
5.105649951080e+00 -3.192830633935e+02 0.0 
0.0 0.0 -1.346598045829e+02 
-7.639236051496e+01 1.005241168034e+00 0.0 
1.005241168034e+00 -1.636761858766e+02 0.0 
0.0 0.0 -7.162056391747e+01 
-8.243667880016e+01 3.508136674675e+00 0.0 
3.508136674675e+00 -1.744129010752e+02 0.0 
0.0 0.0 -7.665487396260e+01 
-1.512609131381e+02 1.197492443110e+01 0.0 
1.197492443110e+01 -3.542754639889e+02 0.0 
0.0 0.0 -1.512609131381e+02 
-7.578396286573e+01 1.079199200097e+00 0.0 
1.079199200097e+00 -1.636121055987e+02 0.0 
0.0 0.0 -7.141882053932e+01 
-1.421653837592e+02 5.547137518141e+00 0.0 
5.547137518141e+00 -3.302911245895e+02 0.0 
0.0 0.0 -1.413369525046e+02 
-1.114198094983e+02 9.013839462258e+00 0.0 
9.013839462258e+00 -2.569748352371e+02 0.0 
0.0 0.0 -1.101183934206e+02 
-8.868049514929e+01 4.835561964450e-01 0.0 
4.835561964450e-01 -1.953103727885e+02 0.0 
0.0 0.0 -8.479726038132e+01 
-3.898069842597e+01 9.133851845850e+00 0.0 
9.133851845850e+00 -7.999948158833e+01 0.0 
0.0 0.0 -3.529405400429e+01 
-1.012563016311e+02 8.408700714521e+00 0.0 
8.408700714521e+00 -2.481428579701e+02 0.0 
0.0 0.0 -1.044197478803e+02 
-2.483894847014e+01 6.482522900772e+00 0.0 
6.482522900772e+00 -6.903497913155e+01 0.0 
0.0 0.0 -2.776217828051e+01 
-1.533358127819e+02 1.180729090081e+01 0.0 
1.180729090081e+01 -3.591168964912e+02 0.0 
0.0 0.0 -1.533358127819e+02 
-1.417755474674e+02 7.460862672296e+00 0.0 
7.460862672296e+00 -3.321429440906e+02 0.0 
0.0 0.0 -1.417755474674e+02 
-1.410152137882e+02 6.374366594598e+00 0.0 
6.374366594598e+00 -3.303688321725e+02 0.0 
0.0 0.0 -1.410152137882e+02 
-9.579990098485e+01 4.159032234257e+00 0.0 
4.159032234257e+00 -2.442243744118e+02 0.0 
0.0 0.0 -1.016072826190e+02 
-6.656467003541e+01 6.050051122496e-01 0.0 
6.050051122496e-01 -1.720293275620e+02 0.0 
0.0 0.0 -7.117819927921e+01 
-7.176768214503e+01 1.130015203076e+01 0.0 
1.130015203076e+01 -1.612502190874e+02 0.0 
0.0 0.0 -6.950537036972e+01 
-9.904300742966e+01 2.674338748706e+00 0.0 
2.674338748706e+00 -2.526834779879e+02 0.0 
0.0 0.0 -1.051179456253e+02 
-1.552593833990e+02 1.116477713331e+01 0.0 
1.116477713331e+01 -3.636052279310e+02 0.0 
0.0 0.0 -1.552593833990e+02 
-3.675084247253e+01 1.117457190485e+01 0.0 
1.117457190485e+01 -9.689236955109e+01 0.0 
0.0 0.0 -3.969296360709e+01 
-4.757005795040e+01 2.654048441656e+00 0.0 
2.654048441656e+00 -1.339493169887e+02 0.0 
0.0 0.0 -5.405581248171e+01 
-5.138598359111e+01 2.113661465252e+00 0.0 
2.113661465252e+00 -1.430097300149e+02 0.0 
0.0 0.0 -5.791871408180e+01 
-9.298670580743e+01 5.789033763049e-01 0.0 
5.789033763049e-01 -2.062299188199e+02 0.0 
0.0 0.0 -8.936498738820e+01 
-1.574319232897e+02 9.125132986884e+00 0.0 
9.125132986884e+00 -3.723941525196e+02 0.0 
0.0 0.0 -1.585478227428e+02 
-2.016903636508e+01 -1.291232330002e+00 0.0 
-1.291232330002e+00 -4.168848604138e+01 0.0 
0.0 0.0 -1.815725672194e+01 
-1.572317452166e+02 1.015088662923e+01 0.0 
1.015088662923e+01 -3.682074055053e+02 0.0 
0.0 0.0 -1.572317452166e+02 
-4.788796173554e+01 9.619205794221e-01 0.0 
9.619205794221e-01 -1.334272654181e+02 0.0 
0.0 0.0 -5.399456814610e+01 
-1.443065381429e+02 9.508018949692e+00 0.0 
9.508018949692e+00 -3.380485890002e+02 0.0 
0.0 0.0 -1.443065381429e+02 
-1.253538278955e+02 8.036010927539e+00 0.0 
8.036010927539e+00 -2.818302571307e+02 0.0 
0.0 0.0 -1.217552255078e+02 
-9.009282884006e+00 -4.210306808475e-01 0.0 
-4.210306808475e-01 -7.851532375586e+00 0.0 
0.0 0.0 -4.658244577877e+00 
-6.760833481806e+01 9.701482065534e+00 0.0 
9.701482065534e+00 -1.534688724819e+02 0.0 
0.0 0.0 -6.592316219000e+01 
-1.213697491591e+02 4.704296724847e+00 0.0 
4.704296724847e+00 -2.738202327918e+02 0.0 
0.0 0.0 -1.181569945853e+02 
-1.458241147959e+02 1.062707524259e+01 0.0 
1.062707524259e+01 -3.415896011904e+02 0.0 
0.0 0.0 -1.458241147959e+02 
-9.838044197532e+01 6.625949924596e+00 0.0 
6.625949924596e+00 -2.121629208457e+02 0.0 
0.0 0.0 -9.276300884631e+01 
-1.149956826939e+02 9.226855972195e+00 0.0 
9.226855972195e+00 -2.680043919217e+02 0.0 
0.0 0.0 -1.145000223847e+02 
-1.960589519403e+01 8.257901188066e+00 0.0 
8.257901188066e+00 -5.727230170470e+01 0.0 
0.0 0.0 -2.266345906962e+01 
-1.415273797469e+02 9.014797332466e+00 0.0 
9.014797332466e+00 -3.369808470169e+02 0.0 
0.0 0.0 -1.431524680291e+02 
-5.164014420356e+01 6.477551318512e-01 0.0 
6.477551318512e-01 -1.421445510471e+02 0.0 
0.0 0.0 -5.773540857520e+01 
-5.281343486241e+01 2.687826044531e+00 0.0 
2.687826044531e+00 -1.437260348454e+02 0.0 
0.0 0.0 -5.856184091233e+01 
-1.621267921575e+01 -1.121055706456e+00 0.0 
-1.121055706456e+00 -2.584484508460e+01 0.0 
0.0 0.0 -1.221725729011e+01 
-1.477349260109e+02 1.143129136566e+01 0.0 
1.143129136566e+01 -3.460481606921e+02 0.0 
0.0 0.0 -1.477349260109e+02 
-3.040115839004e+01 7.499927275858e+00 0.0 
7.499927275858e+00 -8.580059858701e+01 0.0 
0.0 0.0 -3.446052709311e+01 
-1.271841488506e+02 7.591112227583e+00 0.0 
7.591112227583e+00 -3.105799821000e+02 0.0 
0.0 0.0 -1.309292392852e+02 
-8.515971959566e+01 2.002686730531e+00 0.0 
2.002686730531e+00 -1.858479197676e+02 0.0 
0.0 0.0 -8.090229180898e+01 
-4.603334849678e+01 1.307713427805e-01 0.0 
1.307713427805e-01 -1.224695508717e+02 0.0 
0.0 0.0 -5.015086981055e+01 
-4.904850220329e+01 3.188662391906e+00 0.0 
3.188662391906e+00 -1.346870433381e+02 0.0 
0.0 0.0 -5.472066366241e+01 
-9.443191935204e+01 6.973220015385e+00 0.0 
6.973220015385e+00 -2.026638497387e+02 0.0 
0.0 0.0 -8.872873072723e+01 
-1.523368789813e+02 1.202426977394e+01 0.0 
1.202426977394e+01 -3.567860509563e+02 0.0 
0.0 0.0 -1.523368789813e+02 
-6.942079918242e+01 -7.225671170039e-01 0.0 
-7.225671170039e-01 -1.800997443811e+02 0.0 
0.0 0.0 -7.445616306905e+01 
-1.087827807877e+02 5.474753159215e+00 0.0 
5.474753159215e+00 -2.725720494187e+02 0.0 
0.0 0.0 -1.140064490619e+02 
-8.451900457478e+01 8.446478858590e+00 0.0 
8.446478858590e+00 -1.880797125916e+02 0.0 
0.0 0.0 -8.137961514992e+01 
-9.579205986124e+01 6.478115271149e+00 0.0 
6.478115271149e+00 -2.434062034092e+02 0.0 
0.0 0.0 -1.013594789811e+02 
-5.237076054925e+01 4.461451611146e+00 0.0 
4.461451611146e+00 -1.433110696178e+02 0.0 
0.0 0.0 -5.830454905012e+01 
-1.000382069002e+02 4.950300587558e+00 0.0 
4.950300587558e+00 -2.536000268999e+02 0.0 
0.0 0.0 -1.056914701400e+02 
-8.106242850183e+01 1.005747400210e+01 0.0 
1.005747400210e+01 -1.772341872145e+02 0.0 
0.0 0.0 -7.708898471491e+01 
-1.088550013743e+02 9.920989072606e+00 0.0 
9.920989072606e+00 -2.441519709844e+02 0.0 
0.0 0.0 -1.055020917076e+02 
-1.097678776586e+02 8.501254913334e+00 0.0 
8.501254913334e+00 -2.669811598231e+02 0.0 
0.0 0.0 -1.126247112445e+02 
-8.011321556166e+01 9.007359405105e+00 0.0 
9.007359405105e+00 -1.802497519510e+02 0.0 
0.0 0.0 -7.770889025381e+01 
-7.002131243490e+01 -1.321757277847e-01 0.0 
-1.321757277847e-01 -1.840494702848e+02 0.0 
0.0 0.0 -7.582123481590e+01 
-4.074675573552e+01 1.225295920569e+01 0.0 
1.225295920569e+01 -1.019239787076e+02 0.0 
0.0 0.0 -4.240122033294e+01 
-6.572295535442e+01 -7.981105171072e-01 0.0 
-7.981105171072e-01 -1.713709517405e+02 0.0 
0.0 0.0 -7.072817212848e+01 
-1.115867886221e+02 1.087336708081e+01 0.0 
1.087336708081e+01 -2.575135888855e+02 0.0 
0.0 0.0 -1.103301132523e+02 
-8.814953106460e+01 7.810368445286e+00 0.0 
7.810368445286e+00 -2.214202594074e+02 0.0 
0.0 0.0 -9.247093714161e+01 
-1.561013315891e+02 1.046104995828e+01 0.0 
1.046104995828e+01 -3.686853839950e+02 0.0 
0.0 0.0 -1.570360146752e+02 
-1.250887316343e+02 5.285523205120e+00 0.0 
5.285523205120e+00 -2.829135115907e+02 0.0 
0.0 0.0 -1.220006729675e+02 
-4.125441121293e+01 -1.320757845076e+00 0.0 
-1.320757845076e+00 -1.111127454179e+02 0.0 
0.0 0.0 -4.531014698924e+01 
-1.562339578167e+02 1.065813677950e+01 0.0 
1.065813677950e+01 -3.658792349057e+02 0.0 
0.0 0.0 -1.562339578167e+02 
-1.478242934172e+02 1.007662656769e+01 0.0 
1.007662656769e+01 -3.516863018269e+02 0.0 
0.0 0.0 -1.494531785732e+02 
-7.412552453791e+01 9.760808459442e+00 0.0 
9.760808459442e+00 -1.771954451088e+02 0.0 
0.0 0.0 -7.499629089400e+01 
-1.357848512406e+01 -1.045786315105e+00 0.0 
-1.045786315105e+00 -2.545845966113e+01 0.0 
0.0 0.0 -1.168886695725e+01 
-1.582865844560e+02 8.347813262955e+00 0.0 
8.347813262955e+00 -3.741124813344e+02 0.0 
0.0 0.0 -1.593197197371e+02 
-1.249713566915e+02 6.034778493655e+00 0.0 
6.034778493655e+00 -2.819785852695e+02 0.0 
0.0 0.0 -1.216849825883e+02 
-4.456956469512e+01 -5.294526752285e-03 0.0 
-5.294526752285e-03 -1.235090625720e+02 0.0 
0.0 0.0 -5.002358818013e+01 
-1.589768296831e+02 9.017821056683e+00 0.0 
9.017821056683e+00 -3.722792692606e+02 0.0 
0.0 0.0 -1.589768296831e+02 
-1.043831293478e+02 4.680662023512e+00 0.0 
4.680662023512e+00 -2.631279692306e+02 0.0 
0.0 0.0 -1.098533295735e+02 
-6.116923757456e+01 6.014771392447e+00 0.0 
6.014771392447e+00 -1.259024795329e+02 0.0 
0.0 0.0 -5.572151513224e+01 
-8.548165622596e+01 2.205095516479e+00 0.0 
2.205095516479e+00 -1.828905180012e+02 0.0 
0.0 0.0 -8.011165226815e+01 
-8.430661627538e+01 9.571456790530e+00 0.0 
9.571456790530e+00 -2.109381495496e+02 0.0 
0.0 0.0 -8.817342974749e+01 
-8.743316291189e+01 3.629103360448e+00 0.0 
3.629103360448e+00 -2.253728808014e+02 0.0 
0.0 0.0 -9.344181311399e+01 
-1.002321157004e+02 7.343352089968e+00 0.0 
7.343352089968e+00 -2.522566369384e+02 0.0 
0.0 0.0 -1.053466257916e+02 
-1.023822942327e+02 4.510690967772e+00 0.0 
4.510690967772e+00 -2.230982197850e+02 0.0 
0.0 0.0 -9.724415420529e+01 
-6.959406655786e+01 4.544002440034e+00 0.0 
4.544002440034e+00 -1.443570137904e+02 0.0 
0.0 0.0 -6.378532410449e+01 
-1.143848456979e+02 8.893860751692e+00 0.0 
8.893860751692e+00 -2.752053746820e+02 0.0 
0.0 0.0 -1.164770661139e+02 
-8.730165445384e+01 3.210840922755e-01 0.0 
3.210840922755e-01 -1.956766888346e+02 0.0 
0.0 0.0 -8.449350298653e+01 
-7.109788211410e+01 1.137574501563e+00 0.0 
1.137574501563e+00 -1.847789293513e+02 0.0 
0.0 0.0 -7.636304343961e+01 
-1.050842570026e+02 8.014887527404e+00 0.0 
8.014887527404e+00 -2.587054851262e+02 0.0 
0.0 0.0 -1.087369226386e+02 
-5.307538518116e+01 1.413553791587e+00 0.0 
1.413553791587e+00 -1.428942639128e+02 0.0 
0.0 0.0 -5.839089472817e+01 
-1.025792361339e+02 8.960730007822e-01 0.0 
8.960730007822e-01 -2.587068191821e+02 0.0 
0.0 0.0 -1.079858165948e+02 
-1.001133247388e+01 -4.118481205394e-01 0.0 
-4.118481205394e-01 -7.981341042510e+00 0.0 
0.0 0.0 -4.997802054917e+00 
-4.530565654154e+01 1.271018821827e+01 0.0 
1.271018821827e+01 -1.075233656221e+02 0.0 
0.0 0.0 -4.544870664908e+01 
-4.944441521704e+01 1.645890202508e+00 0.0 
1.645890202508e+00 -1.342268230527e+02 0.0 
0.0 0.0 -5.470137148091e+01 
-7.777262172073e+01 -1.624674922456e-01 0.0 
-1.624674922456e-01 -2.014952915513e+02 0.0 
0.0 0.0 -8.338037398160e+01 
-7.884922968820e+01 9.630157934415e+00 0.0 
9.630157934415e+00 -1.843869164584e+02 0.0 
0.0 0.0 -7.857084384398e+01 
-1.034737293382e+02 3.415394809830e+00 0.0 
3.415394809830e+00 -2.624753085410e+02 0.0 
0.0 0.0 -1.093847113638e+02 
-9.002497124657e+01 1.867683266237e+00 0.0 
1.867683266237e+00 -1.979950235122e+02 0.0 
0.0 0.0 -8.600599842762e+01 
-4.610909386954e+01 8.078854629433e-01 0.0 
8.078854629433e-01 -1.243422626723e+02 0.0 
0.0 0.0 -5.073540696255e+01 
-1.597961080435e+02 8.335855758676e+00 0.0 
8.335855758676e+00 -3.741909187682e+02 0.0 
0.0 0.0 -1.597961080435e+02 
-9.402782411649e+01 8.296697044484e+00 0.0 
8.296697044484e+00 -2.035434841751e+02 0.0 
0.0 0.0 -8.887139248749e+01 
-8.163567538933e+01 -1.818373425893e-01 0.0 
-1.818373425893e-01 -2.101000812557e+02 0.0 
0.0 0.0 -8.712072699351e+01 
-8.982738431378e+01 8.819105204401e+00 0.0 
8.819105204401e+00 -1.945375946143e+02 0.0 
0.0 0.0 -8.490949367843e+01 
-7.864418418350e+01 1.187450590182e+00 0.0 
1.187450590182e+00 -2.021525915675e+02 0.0 
0.0 0.0 -8.383903272529e+01 
-9.153168188215e+00 -4.481300501191e-01 0.0 
-4.481300501191e-01 -8.982025409675e+00 0.0 
0.0 0.0 -6.014804058616e+00 
-9.051549381224e+01 3.987835451310e+00 0.0 
3.987835451310e+00 -1.936719045820e+02 0.0 
0.0 0.0 -8.485621951827e+01 
-6.524877229820e+01 -9.163272436657e-01 0.0 
-9.163272436657e-01 -1.683089984800e+02 0.0 
0.0 0.0 -6.966733123345e+01 
-5.549558243063e+00 -2.990129150793e-01 0.0 
-2.990129150793e-01 -8.787876576965e+00 0.0 
0.0 0.0 -4.855905234655e+00 
-7.736504620550e+01 -5.149971786230e-01 0.0 
-5.149971786230e-01 -1.993415969740e+02 0.0 
0.0 0.0 -8.261199295385e+01 
-1.123229475730e+02 3.872667509868e+00 0.0 
3.872667509868e+00 -2.814304687296e+02 0.0 
0.0 0.0 -1.177260248908e+02 
-1.179517858800e+02 3.552347562532e-01 0.0 
3.552347562532e-01 -2.707476478502e+02 0.0 
0.0 0.0 -1.162098301191e+02 
-9.172666438978e+01 6.966748528037e+00 0.0 
6.966748528037e+00 -2.337108710314e+02 0.0 
0.0 0.0 -9.723126062636e+01 
-9.515905001567e+01 5.376076491772e+00 0.0 
5.376076491772e+00 -2.428672458382e+02 0.0 
0.0 0.0 -1.010078887562e+02 
-7.475204188826e+01 2.668770624769e+00 0.0 
2.668770624769e+00 -1.563068414856e+02 0.0 
0.0 0.0 -6.891766501216e+01 
-6.806510507716e+01 5.058532994338e-01 0.0 
5.058532994338e-01 -1.456732149581e+02 0.0 
0.0 0.0 -6.372149601059e+01 
-1.351997450163e+02 4.690135167713e+00 0.0 
4.690135167713e+00 -3.128333948953e+02 0.0 
0.0 0.0 -1.340099419735e+02 
-8.550353608944e+01 9.419955877668e+00 0.0 
9.419955877668e+00 -1.857336485361e+02 0.0 
0.0 0.0 -8.097115538767e+01 
-4.276221947715e+00 -2.094864312774e-01 0.0 
-2.094864312774e-01 -7.304178321146e+00 0.0 
0.0 0.0 -3.074120080658e+00 
-2.720235986043e+01 -6.543598928198e-01 0.0 
-6.543598928198e-01 -6.893962612621e+01 0.0 
0.0 0.0 -2.844259579599e+01 
-1.328011081362e+01 -1.025108819897e+00 0.0 
-1.025108819897e+00 -2.519513142980e+01 0.0 
0.0 0.0 -1.153608593042e+01 
-4.551154620431e+01 -3.313869722474e-01 0.0 
-3.313869722474e-01 -1.195485385758e+02 0.0 
0.0 0.0 -4.911802543402e+01 
-1.246033219389e+02 9.747000852658e+00 0.0 
9.747000852658e+00 -2.816198444276e+02 0.0 
0.0 0.0 -1.214669499100e+02 
-1.184625168399e+02 2.002335103058e+00 0.0 
2.002335103058e+00 -2.712471137428e+02 0.0 
0.0 0.0 -1.165128891748e+02 
-1.253937063555e+02 3.016618124763e+00 0.0 
3.016618124763e+00 -3.086389073193e+02 0.0 
0.0 0.0 -1.298097841024e+02 
-5.186343593157e+01 1.451891967087e-02 0.0 
1.451891967087e-02 -1.354527530723e+02 0.0 
0.0 0.0 -5.579485670115e+01 
-1.033076265477e+02 2.268943201770e+00 0.0 
2.268943201770e+00 -2.593317577271e+02 0.0 
0.0 0.0 -1.083918152824e+02 
-1.309622314654e+02 5.866038384953e+00 0.0 
5.866038384953e+00 -3.195062992108e+02 0.0 
0.0 0.0 -1.347405592028e+02 
-2.581824607888e+01 3.196371986757e+00 0.0 
3.196371986757e+00 -7.120659469123e+01 0.0 
0.0 0.0 -2.870745223103e+01 
-6.551598408536e+01 7.433300779967e-01 0.0 
7.433300779967e-01 -1.684661440358e+02 0.0 
0.0 0.0 -6.979463843634e+01 
-5.384006675914e+01 -8.683986198215e-01 0.0 
-8.683986198215e-01 -1.388243612271e+02 0.0 
0.0 0.0 -5.739932839586e+01 
-1.584754241707e+02 7.561253754770e+00 0.0 
7.561253754770e+00 -3.751362088459e+02 0.0 
0.0 0.0 -1.596834899050e+02 
-1.603924823197e+02 7.707084073864e+00 0.0 
7.707084073864e+00 -3.755824587460e+02 0.0 
0.0 0.0 -1.603924823197e+02 
-7.289307833686e+01 6.053933695021e-01 0.0 
6.053933695021e-01 -1.869591028180e+02 0.0 
0.0 0.0 -7.755565434647e+01 
-8.249199024947e+01 1.203128367026e+00 0.0 
1.203128367026e+00 -2.107657197079e+02 0.0 
0.0 0.0 -8.757731298721e+01 
-9.052038812275e+01 2.202762273976e+00 0.0 
2.202762273976e+00 -2.337394108760e+02 0.0 
0.0 0.0 -9.687793969962e+01 
-1.356958672210e+02 6.766524246975e+00 0.0 
6.766524246975e+00 -3.286730056309e+02 0.0 
0.0 0.0 -1.389106618556e+02 
-2.946605528632e+01 -1.889811530081e+00 0.0 
-1.889811530081e+00 -7.630301232824e+01 0.0 
0.0 0.0 -3.133072028437e+01 
-1.261431393807e+02 5.070518587445e+00 0.0 
5.070518587445e+00 -3.100282887916e+02 0.0 
0.0 0.0 -1.304514284517e+02 
-1.742637555612e+01 -7.450020785417e-01 0.0 
-7.450020785417e-01 -4.285007752233e+01 0.0 
0.0 0.0 -1.768293592354e+01 
-7.434821153638e+01 8.870631154648e-01 0.0 
8.870631154648e-01 -1.914484787212e+02 0.0 
0.0 0.0 -7.933900707726e+01 
-8.287903774343e+01 1.584683730917e+00 0.0 
1.584683730917e+00 -2.127015201996e+02 0.0 
0.0 0.0 -8.827416738290e+01 
-1.037450021103e+01 -3.963599473981e-01 0.0 
-3.963599473981e-01 -2.554520278122e+01 0.0 
0.0 0.0 -1.075650606745e+01 
-6.934891638595e+01 -7.912814979209e-01 0.0 
-7.912814979209e-01 -1.776392604341e+02 0.0 
0.0 0.0 -7.369645304601e+01 
-1.237352523805e+02 3.636119101163e+00 0.0 
3.636119101163e+00 -2.819305199923e+02 0.0 
0.0 0.0 -1.212997317118e+02 
-3.775145794654e+00 -1.958890256334e-01 0.0 
-1.958890256334e-01 -7.783920695319e+00 0.0 
0.0 0.0 -3.067719946992e+00 
-6.880119628743e+01 5.990038818231e-01 0.0 
5.990038818231e-01 -1.460074670651e+02 0.0 
0.0 0.0 -6.404259900576e+01 
-6.906977454413e+01 8.212503375825e-01 0.0 
8.212503375825e-01 -1.464296473951e+02 0.0 
0.0 0.0 -6.424982658177e+01 
-1.047655002840e+02 8.164414732249e+00 0.0 
8.164414732249e+00 -2.609407880562e+02 0.0 
0.0 0.0 -1.093118865020e+02 
-5.384653684712e+01 6.183328848609e-01 0.0 
6.183328848609e-01 -1.387488110454e+02 0.0 
0.0 0.0 -5.737860436777e+01 
-4.820139802836e+01 -2.135974918551e-01 0.0 
-2.135974918551e-01 -1.321292550067e+02 0.0 
0.0 0.0 -5.369919591052e+01 
-2.625320564479e+01 1.194711571325e+01 0.0 
1.194711571325e+01 -6.652408691806e+01 0.0 
0.0 0.0 -2.743318776885e+01 
-1.389818866067e+02 3.132869761662e+00 0.0 
3.132869761662e+00 -3.360556602894e+02 0.0 
0.0 0.0 -1.421112640688e+02 
-1.411435734197e+02 1.064689066352e+01 0.0 
1.064689066352e+01 -3.285334246589e+02 0.0 
0.0 0.0 -1.405030994236e+02 
-1.140379473800e+02 2.529322605699e+00 0.0 
2.529322605699e+00 -2.586012921981e+02 0.0 
0.0 0.0 -1.113917718734e+02 
-3.894621789573e+01 1.217371782645e+01 0.0 
1.217371782645e+01 -8.053095948831e+01 0.0 
0.0 0.0 -3.544315321521e+01 
-1.933401504790e+01 -2.033732085043e+00 0.0 
-2.033732085043e+00 -4.755947165069e+01 0.0 
0.0 0.0 -1.966804600958e+01 
-7.081548235375e+01 5.330124422140e+00 0.0 
5.330124422140e+00 -1.449340495290e+02 0.0 
0.0 0.0 -6.432485956484e+01 
-6.781006792940e+01 1.935743897632e-01 0.0 
1.935743897632e-01 -1.463374903033e+02 0.0 
0.0 0.0 -6.384426746980e+01 
-6.724420721375e+01 3.003359476317e-01 0.0 
3.003359476317e-01 -1.460721761404e+02 0.0 
0.0 0.0 -6.359491500625e+01 
-5.182544044875e+00 -2.558560774343e-01 0.0 
-2.558560774343e-01 -9.000441234848e+00 0.0 
0.0 0.0 -4.823783034557e+00 
-1.053496920789e+01 -4.604147131396e-01 0.0 
-4.604147131396e-01 -2.540413631302e+01 0.0 
0.0 0.0 -1.080306102623e+01 
-1.594989499848e+01 -8.943889449447e-02 0.0 
-8.943889449447e-02 -4.204757768551e+01 0.0 
0.0 0.0 -1.699924180520e+01 
-3.973523879931e+01 -1.702518789035e+00 0.0 
-1.702518789035e+00 -1.043414991520e+02 0.0 
0.0 0.0 -4.282302138539e+01 
-1.033106144899e+01 -2.937807303161e-01 0.0 
-2.937807303161e-01 -2.579730247751e+01 0.0 
0.0 0.0 -1.043850917795e+01 
-7.686992533750e+01 -7.032970821948e-01 0.0 
-7.032970821948e-01 -1.971582329719e+02 0.0 
0.0 0.0 -8.180844749281e+01 
-1.098062248798e+01 -4.746082623264e-01 0.0 
-4.746082623264e-01 -8.895033204057e+00 0.0 
0.0 0.0 -6.531032072764e+00 
-4.700836853183e+01 -1.506989576569e+00 0.0 
-1.506989576569e+00 -1.238505213212e+02 0.0 
0.0 0.0 -5.085766695591e+01 
-9.437786698564e+01 7.460412107080e-02 0.0 
7.460412107080e-02 -2.127173240355e+02 0.0 
0.0 0.0 -9.172855730633e+01 
-6.808023932631e+01 3.955180929936e-01 0.0 
3.955180929936e-01 -1.458951769672e+02 0.0 
0.0 0.0 -6.379262488804e+01 
-1.284519539190e+02 9.525511463345e+00 0.0 
9.525511463345e+00 -2.904113831112e+02 0.0 
0.0 0.0 -1.252590011091e+02 
-1.077696562883e+02 3.128148052621e+00 0.0 
3.128148052621e+00 -2.716452802989e+02 0.0 
0.0 0.0 -1.134244809762e+02 
-8.689469208426e+01 -1.152559462530e-01 0.0 
-1.152559462530e-01 -1.950811526278e+02 0.0 
0.0 0.0 -8.419275341361e+01 
-5.746308485663e+01 -7.818796489357e-01 0.0 
-7.818796489357e-01 -1.481801720503e+02 0.0 
0.0 0.0 -6.129297707208e+01 
-1.702646740041e+01 -3.176330525795e-01 0.0 
-3.176330525795e-01 -4.260732658637e+01 0.0 
0.0 0.0 -1.749013819604e+01 
-1.393811738218e+02 2.433748459716e+00 0.0 
2.433748459716e+00 -3.265560722509e+02 0.0 
0.0 0.0 -1.393811738218e+02 
-1.403831191701e+02 2.606254535533e+00 0.0 
2.606254535533e+00 -3.269916870736e+02 0.0 
0.0 0.0 -1.398124418731e+02 
-8.442361003536e+01 2.249924436853e-03 0.0 
2.249924436853e-03 -1.853194837310e+02 0.0 
0.0 0.0 -8.052292812990e+01 
-6.759494026103e+01 2.791548902204e-01 0.0 
2.791548902204e-01 -1.458424403712e+02 0.0 
0.0 0.0 -6.363121418966e+01 
-5.839169741437e+01 2.438470450636e-01 0.0 
2.438470450636e-01 -1.502130587591e+02 0.0 
0.0 0.0 -6.218142685203e+01 
-1.402596756905e+02 1.917059795730e+00 0.0 
1.917059795730e+00 -3.267558101202e+02 0.0 
0.0 0.0 -1.397046457432e+02 
-4.446724677234e+01 -2.844415800704e-01 0.0 
-2.844415800704e-01 -1.159759623042e+02 0.0 
0.0 0.0 -4.773296272297e+01 
-6.849115107060e+01 6.185754492821e-01 0.0 
6.185754492821e-01 -1.459377747776e+02 0.0 
0.0 0.0 -6.392867775446e+01 
-6.823408639906e+01 3.281080806462e-01 0.0 
3.281080806462e-01 -1.457739685244e+02 0.0 
0.0 0.0 -6.380241647704e+01 
-6.545368204694e+01 1.987990196793e+00 0.0 
1.987990196793e+00 -1.346046354270e+02 0.0 
0.0 0.0 -5.961749524220e+01 
-1.406839081380e+02 5.252873179756e+00 0.0 
5.252873179756e+00 -3.295957856553e+02 0.0 
0.0 0.0 -1.406839081380e+02 
-1.409854689313e+02 2.136142524344e+00 0.0 
2.136142524344e+00 -3.273077977117e+02 0.0 
0.0 0.0 -1.400879799929e+02 
-1.055573849479e+01 -3.991108283862e-01 0.0 
-3.991108283862e-01 -2.560150193846e+01 0.0 
0.0 0.0 -1.044717212997e+01 
-5.031189312393e+00 -1.706953147533e-01 0.0 
-1.706953147533e-01 -9.102655404049e+00 0.0 
0.0 0.0 -4.817408222229e+00 
-2.265610291264e+01 -1.801465137810e+00 0.0 
-1.801465137810e+00 -5.708961481508e+01 0.0 
0.0 0.0 -2.352371531832e+01 
-8.194942155266e+01 2.440503365072e-01 0.0 
2.440503365072e-01 -2.120217229321e+02 0.0 
0.0 0.0 -8.779134334542e+01 
-1.471750245755e+02 -4.535858889687e-01 0.0 
-4.535858889687e-01 -3.518146311463e+02 0.0 
0.0 0.0 -1.492968967165e+02 
-1.331329674572e+01 -2.831546209853e-01 0.0 
-2.831546209853e-01 -7.201315151879e+00 0.0 
0.0 0.0 -5.754383569279e+00 
-1.114764237278e+02 1.048064127042e+00 0.0 
1.048064127042e+00 -2.550247615927e+02 0.0 
0.0 0.0 -1.095503555962e+02 
-1.049489372785e+01 -4.942624760304e-01 0.0 
-4.942624760304e-01 -9.047612429136e+00 0.0 
0.0 0.0 -6.443701887831e+00 
-1.037725674296e+02 5.710044930774e+00 0.0 
5.710044930774e+00 -2.615152019782e+02 0.0 
0.0 0.0 -1.091863308224e+02 
-1.111602947211e+01 -5.144713287668e-01 0.0 
-5.144713287668e-01 -8.181972335489e+00 0.0 
0.0 0.0 -5.389400542279e+00 
-1.222123392570e+01 -4.453838677396e-01 0.0 
-4.453838677396e-01 -8.124196850821e+00 0.0 
0.0 0.0 -5.703629232955e+00 
-9.921037766652e+01 4.900776532167e+00 0.0 
4.900776532167e+00 -2.524223731649e+02 0.0 
0.0 0.0 -1.050898252494e+02 
-1.421658657230e+02 9.175633905913e-01 0.0 
9.175633905913e-01 -3.417993625725e+02 0.0 
0.0 0.0 -1.447895684886e+02 
-9.398196314191e+01 6.380039293829e-01 0.0 
6.380039293829e-01 -2.114582646517e+02 0.0 
0.0 0.0 -9.123206833809e+01 
-7.474522249580e+01 6.426129030278e+00 0.0 
6.426129030278e+00 -1.546454269922e+02 0.0 
0.0 0.0 -6.841719484639e+01 
-1.018231299512e+01 -2.031889094944e-01 0.0 
-2.031889094944e-01 -2.553564938921e+01 0.0 
0.0 0.0 -1.069788283979e+01 
-1.072811178226e+02 2.143800808325e+00 0.0 
2.143800808325e+00 -2.679027015453e+02 0.0 
0.0 0.0 -1.121551458104e+02 
-1.388110348021e+02 8.300488699298e-01 0.0 
8.300488699298e-01 -3.252257478716e+02 0.0 
0.0 0.0 -1.388110348021e+02 
-1.399500558273e+02 1.441787736495e+00 0.0 
1.441787736495e+00 -3.263372082204e+02 0.0 
0.0 0.0 -1.394861792143e+02 
-6.774285991998e+01 2.673791227388e-01 0.0 
2.673791227388e-01 -1.458361582628e+02 0.0 
0.0 0.0 -6.367370545483e+01 
-1.084061321556e+02 6.486572298725e+00 0.0 
6.486572298725e+00 -2.704436260169e+02 0.0 
0.0 0.0 -1.132549274517e+02 
-1.394508155430e+02 1.899101274880e+00 0.0 
1.899101274880e+00 -3.267185696003e+02 0.0 
0.0 0.0 -1.394508155430e+02 
-1.152697557753e+02 1.108664667226e+01 0.0 
1.108664667226e+01 -2.685073904015e+02 0.0 
0.0 0.0 -1.147331438530e+02 
-1.634523143112e+01 -4.021287795239e-01 0.0 
-4.021287795239e-01 -4.147880073641e+01 0.0 
0.0 0.0 -1.694720965026e+01 
-1.009823968615e+01 -1.913619052673e-01 0.0 
-1.913619052673e-01 -2.558726302282e+01 0.0 
0.0 0.0 -1.030565081269e+01 
-9.820805037587e+00 -2.021134267599e-02 0.0 
-2.021134267599e-02 -2.512728454793e+01 0.0 
0.0 0.0 -1.032569438968e+01 
-6.532752352025e+01 -7.457950405916e-01 0.0 
-7.457950405916e-01 -1.678175009255e+02 0.0 
0.0 0.0 -6.954350733371e+01 
-1.615928526669e+02 2.239212810738e+00 0.0 
2.239212810738e+00 -3.815283539222e+02 0.0 
0.0 0.0 -1.625363619767e+02 
-1.314512343093e+02 9.816236747407e-01 0.0 
9.816236747407e-01 -3.049648351387e+02 0.0 
0.0 0.0 -1.305248208344e+02 
-4.453526972118e+00 -2.223280686305e-02 0.0 
-2.223280686305e-02 -9.074252852467e+00 0.0 
0.0 0.0 -4.627012059046e+00 
-7.721674618956e+01 7.104919265984e-01 0.0 
7.104919265984e-01 -1.973097831678e+02 0.0 
0.0 0.0 -8.195795880722e+01 
-1.637762506288e+02 1.399785802908e+00 0.0 
1.399785802908e+00 -3.834779181338e+02 0.0 
0.0 0.0 -1.637762506288e+02 
-1.610011992995e+02 2.134224899337e+00 0.0 
2.134224899337e+00 -3.807971998025e+02 0.0 
0.0 0.0 -1.621395197306e+02 
-1.590432145931e+02 6.923972888682e+00 0.0 
6.923972888682e+00 -3.761544750862e+02 0.0 
0.0 0.0 -1.601593069038e+02 
-1.035004034218e+02 -7.481904076201e-01 0.0 
-7.481904076201e-01 -2.355450761773e+02 0.0 
0.0 0.0 -1.013136438797e+02 
-1.156902433699e+02 8.969606157614e-01 0.0 
8.969606157614e-01 -2.652441058455e+02 0.0 
0.0 0.0 -1.138803047646e+02 
-1.628913445030e+02 1.941948954594e+00 0.0 
1.941948954594e+00 -3.814131371737e+02 0.0 
0.0 0.0 -1.628913445030e+02 
-1.630995674745e+02 2.585582938794e+00 0.0 
2.585582938794e+00 -3.818989907738e+02 0.0 
0.0 0.0 -1.630995674745e+02 
-1.116199086151e+02 -5.591697395164e-01 0.0 
-5.591697395164e-01 -2.551672146591e+02 0.0 
0.0 0.0 -1.096361369823e+02 
-2.819694291106e+00 -3.103006438593e-01 0.0 
-3.103006438593e-01 -6.787886817114e+00 0.0 
0.0 0.0 -2.482274332466e+00 
-6.661700392012e+01 8.185185028329e-02 0.0 
8.185185028329e-02 -1.452741350735e+02 0.0 
0.0 0.0 -6.316734169810e+01 
-6.751476739653e+01 1.037966343475e-01 0.0 
1.037966343475e-01 -1.461318858482e+02 0.0 
0.0 0.0 -6.369399597343e+01 
-4.739634661073e+00 -9.348766429483e-02 0.0 
-9.348766429483e-02 -9.072501994400e+00 0.0 
0.0 0.0 -4.719792738993e+00 
-1.627383676306e+02 4.322338113876e+00 0.0 
4.322338113876e+00 -3.810561911380e+02 0.0 
0.0 0.0 -1.627383676306e+02 
-1.589554604056e+02 6.089787031677e+00 0.0 
6.089787031677e+00 -3.767021308131e+02 0.0 
0.0 0.0 -1.602972773656e+02 
-1.614010811468e+02 5.602638362002e+00 0.0 
5.602638362002e+00 -3.779358560092e+02 0.0 
0.0 0.0 -1.614010811468e+02 
-3.107436881899e+00 -5.876215416135e-02 0.0 
-5.876215416135e-02 -7.909197536292e+00 0.0 
0.0 0.0 -2.904990325457e+00 
-3.360912947242e+00 -1.814353404062e-01 0.0 
-1.814353404062e-01 -8.011803218713e+00 0.0 
0.0 0.0 -3.011814849786e+00 
-1.607783886253e+02 6.994450689801e+00 0.0 
6.994450689801e+00 -3.764829067924e+02 0.0 
0.0 0.0 -1.607783886253e+02 
-1.611969369111e+02 6.375831415649e+00 0.0 
6.375831415649e+00 -3.774595194593e+02 0.0 
0.0 0.0 -1.611969369111e+02 
-9.927375365361e+01 9.465344485747e-01 0.0 
9.465344485747e-01 -2.256196029412e+02 0.0 
0.0 0.0 -9.706800697843e+01 
-6.603561838692e+01 -1.131811059100e-01 0.0 
-1.131811059100e-01 -1.449283826834e+02 0.0 
0.0 0.0 -6.288920032109e+01 
-1.077105506557e+02 9.358623436859e-01 0.0 
9.358623436859e-01 -2.454318943834e+02 0.0 
0.0 0.0 -1.055427335117e+02 
-8.300459850065e+01 9.055508755031e-01 0.0 
9.055508755031e-01 -1.862454800261e+02 0.0 
0.0 0.0 -8.037502355804e+01 
-6.614521861596e+01 -5.258180026901e-02 0.0 
-5.258180026901e-02 -1.450316189844e+02 0.0 
0.0 0.0 -6.295305128010e+01 
-4.975316887461e+00 -3.658933670160e-01 0.0 
-3.658933670160e-01 -7.573681438930e+00 0.0 
0.0 0.0 -3.364699497917e+00 
-6.567371373418e+00 -1.548482996788e-01 0.0 
-1.548482996788e-01 -8.274830499814e+00 0.0 
0.0 0.0 -4.052660561969e+00 
-7.208417860813e+00 -2.944458947978e-01 0.0 
-2.944458947978e-01 -7.843204819460e+00 0.0 
0.0 0.0 -4.115486804082e+00 
-8.057181091695e+00 -3.379758066287e-01 0.0 
-3.379758066287e-01 -7.973573942534e+00 0.0 
0.0 0.0 -4.409226510269e+00 
-8.124544781291e+01 -8.837251579680e-01 0.0 
-8.837251579680e-01 -2.073141651202e+02 0.0 
0.0 0.0 -8.616788387994e+01 
-7.324925142957e+01 -7.713340023864e-01 0.0 
-7.713340023864e-01 -1.874770271625e+02 0.0 
0.0 0.0 -7.781788357762e+01 
-7.080323672474e+00 -3.305892261506e-01 0.0 
-3.305892261506e-01 -9.019267770691e+00 0.0 
0.0 0.0 -5.406904903885e+00 
-1.062944987122e+02 -8.144465052526e-01 0.0 
-8.144465052526e-01 -2.650122412171e+02 0.0 
0.0 0.0 -1.109920219788e+02 
-7.907423974856e+00 -4.151384986099e-01 0.0 
-4.151384986099e-01 -8.985777867363e+00 0.0 
0.0 0.0 -5.639799725439e+00 
-1.399226439536e+02 4.078023858001e+00 0.0 
4.078023858001e+00 -3.278195025584e+02 0.0 
0.0 0.0 -1.399226439536e+02 
-1.391310119572e+02 1.575025275262e+00 0.0 
1.575025275262e+00 -3.259723612335e+02 0.0 
0.0 0.0 -1.391310119572e+02 
-1.393879285691e+02 2.783563235485e+00 0.0 
2.783563235485e+00 -3.265718333279e+02 0.0 
0.0 0.0 -1.393879285691e+02 
-2.679797724906e+01 -9.410233908756e-01 0.0 
-9.410233908756e-01 -6.876249611628e+01 0.0 
0.0 0.0 -2.826814200960e+01 
-4.983000858739e+01 -8.014794631495e-01 0.0 
-8.014794631495e-01 -1.284535034202e+02 0.0 
0.0 0.0 -5.308505360227e+01 
-1.388483655551e+02 1.305518274371e+00 0.0 
1.305518274371e+00 -3.253128529620e+02 0.0 
0.0 0.0 -1.388483655551e+02 
-1.333960417070e+02 -6.869614569933e-01 0.0 
-6.869614569933e-01 -3.234914364609e+02 0.0 
0.0 0.0 -1.366662434504e+02 
-1.397028838582e+02 1.098796856000e+00 0.0 
1.098796856000e+00 -3.273067290024e+02 0.0 
0.0 0.0 -1.397028838582e+02 
-1.427170050608e+02 -7.335628316612e-01 0.0 
-7.335628316612e-01 -3.428258609259e+02 0.0 
0.0 0.0 -1.452628597960e+02 
-1.522937181450e+02 -8.227840995009e-01 0.0 
-8.227840995009e-01 -3.621105932452e+02 0.0 
0.0 0.0 -1.539212934171e+02 
-6.927212597562e+01 7.382610137174e-01 0.0 
7.382610137174e-01 -1.776071636142e+02 0.0 
0.0 0.0 -7.366378687693e+01 
-1.398144341632e+02 1.600223597539e+00 0.0 
1.600223597539e+00 -3.259839359660e+02 0.0 
0.0 0.0 -1.393395110387e+02 
-1.398092203357e+02 7.254662851293e-01 0.0 
7.254662851293e-01 -3.263409750786e+02 0.0 
0.0 0.0 -1.394450586243e+02 
-1.376888402593e+02 1.149995824770e+00 0.0 
1.149995824770e+00 -3.321912315289e+02 0.0 
0.0 0.0 -1.405640215365e+02 
-1.473240207654e+02 1.193744100209e+00 0.0 
1.193744100209e+00 -3.520116420423e+02 0.0 
0.0 0.0 -1.494006988423e+02 
-1.152997125682e+02 1.780400640661e+00 0.0 
1.780400640661e+00 -2.849853907355e+02 0.0 
0.0 0.0 -1.196855309911e+02 
-9.832186147513e+00 -4.941172281910e-01 0.0 
-4.941172281910e-01 -8.964396216924e+00 0.0 
0.0 0.0 -6.215450892211e+00 
-6.993340659957e+01 6.945514671763e-01 0.0 
6.945514671763e-01 -1.806037348667e+02 0.0 
0.0 0.0 -7.476114243987e+01 
-1.072499972683e+01 -3.491805974831e-01 0.0 
-3.491805974831e-01 -2.532116283722e+01 0.0 
0.0 0.0 -1.041384876922e+01 
-1.394585725453e+02 4.437710974730e+00 0.0 
4.437710974730e+00 -3.364477706493e+02 0.0 
0.0 0.0 -1.423719029584e+02 
-7.360236277559e+01 -4.949541354054e-01 0.0 
-4.949541354054e-01 -1.908326412207e+02 0.0 
0.0 0.0 -7.893050119887e+01 
-1.287135577743e+02 1.052460859805e+00 0.0 
1.052460859805e+00 -3.142254252275e+02 0.0 
0.0 0.0 -1.324816949005e+02 
-3.717686535786e+01 -4.899828115216e-01 0.0 
-4.899828115216e-01 -9.644573342469e+01 0.0 
0.0 0.0 -3.968677963476e+01 
-1.681317125722e+01 -1.144046580020e+00 0.0 
-1.144046580020e+00 -4.145733465385e+01 0.0 
0.0 0.0 -1.708115177332e+01 
-1.381570893797e+02 2.652505544996e+00 0.0 
2.652505544996e+00 -3.335341494932e+02 0.0 
0.0 0.0 -1.411073716619e+02 
-7.824786031909e+01 9.440696806519e-01 0.0 
9.440696806519e-01 -2.000508961647e+02 0.0 
0.0 0.0 -8.308962694513e+01 
-6.112789968265e+01 -8.559229414116e-01 0.0 
-8.559229414116e-01 -1.580734865495e+02 0.0 
0.0 0.0 -6.536041586964e+01 
-1.290952870036e+02 2.447689845487e+00 0.0 
2.447689845487e+00 -3.147043180349e+02 0.0 
0.0 0.0 -1.327398815115e+02 
-1.226751999206e+02 -2.270381025417e-01 0.0 
-2.270381025417e-01 -2.829396444633e+02 0.0 
0.0 0.0 -1.212844533152e+02 
-6.147494625358e+01 7.000340506152e-01 0.0 
7.000340506152e-01 -1.581801367954e+02 0.0 
0.0 0.0 -6.549652491469e+01 
-1.177431215259e+02 5.976556837145e+00 0.0 
5.976556837145e+00 -2.916258490279e+02 0.0 
0.0 0.0 -1.224106911661e+02 
-1.029649159161e+02 1.587448427867e+00 0.0 
1.587448427867e+00 -2.604044933364e+02 0.0 
0.0 0.0 -1.086108227757e+02 
-1.148433512471e+02 3.582417674466e-01 0.0 
3.582417674466e-01 -2.844780192830e+02 0.0 
0.0 0.0 -1.193964111590e+02 
-1.189833181672e+02 2.007369769785e-01 0.0 
2.007369769785e-01 -2.932579856931e+02 0.0 
0.0 0.0 -1.232723911581e+02 
-5.529092682980e+01 7.482924516837e+00 0.0 
7.482924516837e+00 -1.485666721341e+02 0.0 
0.0 0.0 -6.075727968916e+01 
-6.674141385316e+01 5.835413546592e+00 0.0 
5.835413546592e+00 -1.354498058209e+02 0.0 
0.0 0.0 -6.025736590222e+01 
-7.491040032624e+01 1.146859265876e+01 0.0 
1.146859265876e+01 -1.728517044936e+02 0.0 
0.0 0.0 -7.392863144596e+01 
-1.066540076710e+02 7.367611344324e-01 0.0 
7.367611344324e-01 -2.673264342837e+02 0.0 
0.0 0.0 -1.117941325864e+02 
-1.332606241228e+02 2.210130638263e+00 0.0 
2.210130638263e+00 -3.233661501547e+02 0.0 
0.0 0.0 -1.365880322832e+02 
-1.231831441976e+02 -8.021628298556e-02 0.0 
-8.021628298556e-02 -3.021616098301e+02 0.0 
0.0 0.0 -1.272034262083e+02 
-3.750669087443e+01 -1.705579618506e+00 0.0 
-1.705579618506e+00 -9.982079079772e+01 0.0 
0.0 0.0 -4.079824450164e+01 
-1.224885642378e+02 1.128447782901e-01 0.0 
1.128447782901e-01 -2.818218060717e+02 0.0 
0.0 0.0 -1.208931110928e+02 
-1.142756414550e+02 1.609619870924e-02 0.0 
1.609619870924e-02 -2.618148128716e+02 0.0 
0.0 0.0 -1.124271362980e+02 
-7.741051328167e+01 -7.053482412418e-01 0.0 
-7.053482412418e-01 -1.716530328724e+02 0.0 
0.0 0.0 -7.431906384621e+01 
-1.112933913930e+02 1.222149024862e+00 0.0 
1.222149024862e+00 -2.778518495080e+02 0.0 
0.0 0.0 -1.163435722703e+02 
-1.107501595682e+02 5.620221271434e-01 0.0 
5.620221271434e-01 -2.759336503726e+02 0.0 
0.0 0.0 -1.156051429822e+02 
-1.230324323328e+02 1.478720750151e+00 0.0 
1.478720750151e+00 -2.837796425167e+02 0.0 
0.0 0.0 -1.216436224549e+02 
-1.185716121256e+02 -5.510288290977e-03 0.0 
-5.510288290977e-03 -2.725629528503e+02 0.0 
0.0 0.0 -1.169403694928e+02 
-9.972143658673e+01 3.075275452039e+00 0.0 
3.075275452039e+00 -2.522644099388e+02 0.0 
0.0 0.0 -1.051957539577e+02 
-1.424578867380e+02 2.322240847977e+00 0.0 
2.322240847977e+00 -3.421046015355e+02 0.0 
0.0 0.0 -1.449687464820e+02 
-1.132824883238e+02 8.786883940162e-01 0.0 
8.786883940162e-01 -2.580015009227e+02 0.0 
0.0 0.0 -1.109851967739e+02 
-1.234210532726e+02 1.292265997364e+00 0.0 
1.292265997364e+00 -3.022617259049e+02 0.0 
0.0 0.0 -1.273048337532e+02 
-1.443154989421e+02 4.279729898719e+00 0.0 
4.279729898719e+00 -3.461337272217e+02 0.0 
0.0 0.0 -1.467347678492e+02 
-1.227269301148e+02 1.905315824432e+00 0.0 
1.905315824432e+00 -2.823479465909e+02 0.0 
0.0 0.0 -1.211224630117e+02 
-1.026306723408e+02 1.651080852487e+00 0.0 
1.651080852487e+00 -2.316849053219e+02 0.0 
0.0 0.0 -9.989467329881e+01 
-1.131723484837e+02 5.172438254473e+00 0.0 
5.172438254473e+00 -2.820721128860e+02 0.0 
0.0 0.0 -1.181733384109e+02 
-3.830971923622e+01 -1.340325950155e+00 0.0 
-1.340325950155e+00 -9.935495975711e+01 0.0 
0.0 0.0 -4.089940369800e+01 
-3.455455851027e+01 -1.658717725440e+00 0.0 
-1.658717725440e+00 -9.199622801066e+01 0.0 
0.0 0.0 -3.756523595628e+01 
-1.966953669317e+01 -4.415466581689e-01 0.0 
-4.415466581689e-01 -4.801236048455e+01 0.0 
0.0 0.0 -1.990456915332e+01 
-1.553699736620e+01 -1.095050097264e+00 0.0 
-1.095050097264e+00 -2.560220554312e+01 0.0 
0.0 0.0 -1.194176087280e+01 
-1.189771381577e+02 1.610722773083e+00 0.0 
1.610722773083e+00 -2.729607894211e+02 0.0 
0.0 0.0 -1.171813782736e+02 
-1.372179492781e+02 4.237440557461e-01 0.0 
4.237440557461e-01 -3.314220817343e+02 0.0 
0.0 0.0 -1.401920093037e+02 
-1.474083957632e+01 -1.091263199325e+00 0.0 
-1.091263199325e+00 -2.522656600061e+01 0.0 
0.0 0.0 -1.159022167308e+01 
-1.253035078200e+02 7.058859075246e+00 0.0 
7.058859075246e+00 -2.815725668255e+02 0.0 
0.0 0.0 -1.216628223936e+02 
-8.159584488426e+01 -4.961501362856e-01 0.0 
-4.961501362856e-01 -1.807052376719e+02 0.0 
0.0 0.0 -7.829032476685e+01 
-1.250111481048e+02 2.727447706724e+00 0.0 
2.727447706724e+00 -3.061911516883e+02 0.0 
0.0 0.0 -1.289606899379e+02 
-1.279409540901e+02 3.113954885162e-01 0.0 
3.113954885162e-01 -3.122729105348e+02 0.0 
0.0 0.0 -1.316641593875e+02 
-5.171264481160e+01 -3.232669056686e-01 0.0 
-3.232669056686e-01 -1.403935225614e+02 0.0 
0.0 0.0 -5.723185021190e+01 
-1.282117814160e+02 1.757656914778e+00 0.0 
1.757656914778e+00 -3.126855886323e+02 0.0 
0.0 0.0 -1.318692110145e+02 
-7.778245643611e+01 1.346002057751e+00 0.0 
1.346002057751e+00 -1.717473315688e+02 0.0 
0.0 0.0 -7.445893640148e+01 
-1.098884429123e+02 9.926909949770e+00 0.0 
9.926909949770e+00 -2.673326409008e+02 0.0 
0.0 0.0 -1.127663251440e+02 
-1.486777510828e+02 2.297406469351e+00 0.0 
2.297406469351e+00 -3.549217917180e+02 0.0 
0.0 0.0 -1.506798628403e+02 
-3.706660621157e+01 -8.712916768173e-01 0.0 
-8.712916768173e-01 -9.602653412908e+01 0.0 
0.0 0.0 -3.952794210220e+01 
-1.443798355262e+02 5.084518599420e+00 0.0 
5.084518599420e+00 -3.466955225611e+02 0.0 
0.0 0.0 -1.469226074262e+02 
-1.068951901093e+02 1.510091315755e+00 0.0 
1.510091315755e+00 -2.425616273205e+02 0.0 
0.0 0.0 -1.044370452289e+02 
-4.161408609213e+01 -1.229135512973e+00 0.0 
-1.229135512973e+00 -1.078625335997e+02 0.0 
0.0 0.0 -4.444298590753e+01 
-4.243445254811e+01 -3.211215288974e-01 0.0 
-3.211215288974e-01 -1.118115968209e+02 0.0 
0.0 0.0 -4.587381481069e+01 
-8.878893035496e+01 -5.167452800129e-01 0.0 
-5.167452800129e-01 -2.252812166590e+02 0.0 
0.0 0.0 -9.382104410417e+01 
-9.348693379074e+01 -1.386556161570e-02 0.0 
-1.386556161570e-02 -2.096546203951e+02 0.0 
0.0 0.0 -9.054246625574e+01 
-5.802015413739e+01 -1.098995226145e+00 0.0 
-1.098995226145e+00 -1.518848242377e+02 0.0 
0.0 0.0 -6.257149351252e+01 
-1.111058440665e+02 1.480150519087e+00 0.0 
1.480150519087e+00 -2.533356374388e+02 0.0 
0.0 0.0 -1.089324444516e+02 
-9.870126284018e+01 1.495563730006e+00 0.0 
1.495563730006e+00 -2.222912480728e+02 0.0 
0.0 0.0 -9.589775327390e+01 
-8.552018050930e+01 -1.774317107091e-01 0.0 
-1.774317107091e-01 -2.187510891730e+02 0.0 
0.0 0.0 -9.088138090468e+01 
-1.191803185971e+02 1.557294046745e+00 0.0 
1.557294046745e+00 -2.934803099782e+02 0.0 
0.0 0.0 -1.233981885726e+02 
-1.241605455011e+02 2.020999032179e+00 0.0 
2.020999032179e+00 -3.041949161150e+02 0.0 
0.0 0.0 -1.281066384848e+02 
-1.062310403477e+02 -1.736907408714e-01 0.0 
-1.736907408714e-01 -2.419370905700e+02 0.0 
0.0 0.0 -1.040504392753e+02 
-3.239762162073e+01 -2.454524216277e-01 0.0 
-2.454524216277e-01 -8.317722719951e+01 0.0 
0.0 0.0 -3.427245464607e+01 
-8.120746919119e+01 -4.360337904291e-01 0.0 
-4.360337904291e-01 -2.080715881665e+02 0.0 
0.0 0.0 -8.638371720732e+01 
-1.273797083755e+02 9.487787656997e+00 0.0 
9.487787656997e+00 -3.025492867132e+02 0.0 
0.0 0.0 -1.285786985266e+02 
-1.106362994429e+02 1.813205680231e+00 0.0 
1.813205680231e+00 -2.514997256446e+02 0.0 
0.0 0.0 -1.082408075262e+02 
-7.304090481381e+01 -7.855116494301e-01 0.0 
-7.855116494301e-01 -1.883420387903e+02 0.0 
0.0 0.0 -7.801488308123e+01 
-1.038141956327e+02 2.926015565494e+00 0.0 
2.926015565494e+00 -2.610715357787e+02 0.0 
0.0 0.0 -1.090657194234e+02 
-1.402207118895e+02 5.527100433680e+00 0.0 
5.527100433680e+00 -3.380974960508e+02 0.0 
0.0 0.0 -1.430954623821e+02 
-1.022081401170e+02 5.227327497050e-03 0.0 
5.227327497050e-03 -2.312304174002e+02 0.0 
0.0 0.0 -9.963156725517e+01 
-1.907566151240e+01 8.410666607680e-01 0.0 
8.410666607680e-01 -4.430259964151e+01 0.0 
0.0 0.0 -1.861347834617e+01 
-1.890919076677e+01 -2.569449774292e-01 0.0 
-2.569449774292e-01 -4.667975595279e+01 0.0 
0.0 0.0 -1.927668401587e+01 
-3.133606293695e+01 4.314581524215e+00 0.0 
4.314581524215e+00 -8.865364371686e+01 0.0 
0.0 0.0 -3.559691199614e+01 
-1.329290616760e+02 7.307819440452e-01 0.0 
7.307819440452e-01 -3.229057016871e+02 0.0 
0.0 0.0 -1.363504290089e+02 
-9.778529639603e+01 2.324909547607e-02 0.0 
2.324909547607e-02 -2.204312898240e+02 0.0 
0.0 0.0 -9.506497586601e+01 
-9.757650618877e+01 1.143477595814e+00 0.0 
1.143477595814e+00 -2.449209211373e+02 0.0 
0.0 0.0 -1.023492281978e+02 
-8.546894260198e+01 -2.089603044250e-01 0.0 
-2.089603044250e-01 -1.900798217527e+02 0.0 
0.0 0.0 -8.226462930642e+01 
-1.316419525202e+02 7.234496757211e+00 0.0 
7.234496757211e+00 -3.200785300073e+02 0.0 
0.0 0.0 -1.351161447582e+02 
-8.937323832340e+01 -2.135907967777e-01 0.0 
-2.135907967777e-01 -2.273526458639e+02 0.0 
0.0 0.0 -9.461776525619e+01 
-1.238295242616e+02 5.722419233051e-01 0.0 
5.722419233051e-01 -3.037368512068e+02 0.0 
0.0 0.0 -1.278699126405e+02 
-3.880956442128e+01 7.836325312465e-02 0.0 
7.836325312465e-02 -9.989545575461e+01 0.0 
0.0 0.0 -4.121150605277e+01 
-1.438278103965e+02 2.638574579914e+00 0.0 
2.638574579914e+00 -3.460222996469e+02 0.0 
0.0 0.0 -1.465550330130e+02 
-8.621689704145e+01 1.223504453921e+00 0.0 
1.223504453921e+00 -2.193622454703e+02 0.0 
0.0 0.0 -9.127374275351e+01 
-4.200088227198e+01 3.009956418447e-01 0.0 
3.009956418447e-01 -1.083671511230e+02 0.0 
0.0 0.0 -4.471041001850e+01 
-8.181979906306e+01 1.043223351887e+00 0.0 
1.043223351887e+00 -2.086769726423e+02 0.0 
0.0 0.0 -8.674903151161e+01 
-6.162365983472e+01 -9.716684346323e-01 0.0 
-9.716684346323e-01 -1.604617584565e+02 0.0 
0.0 0.0 -6.622562548736e+01 
-4.782904392285e+01 -1.299626516627e-01 0.0 
-1.299626516627e-01 -1.245062194733e+02 0.0 
0.0 0.0 -5.130057901886e+01 
-9.702097471164e+01 -3.543921576024e-01 0.0 
-3.543921576024e-01 -2.442715577446e+02 0.0 
0.0 0.0 -1.019877597369e+02 
-6.357800120750e+00 -3.101348002372e-01 0.0 
-3.101348002372e-01 -9.300102256552e+00 0.0 
0.0 0.0 -5.293039939914e+00 
-7.176486819397e+00 -3.465676773767e-01 0.0 
-3.465676773767e-01 -9.530214119023e+00 0.0 
0.0 0.0 -5.622018015532e+00 
-1.112699742076e+02 1.983582851495e+00 0.0 
1.983582851495e+00 -2.764666045617e+02 0.0 
0.0 0.0 -1.159209736308e+02 
-3.571688655655e+01 -1.392939989209e-01 0.0 
-1.392939989209e-01 -9.170470369821e+01 0.0 
0.0 0.0 -3.782647707643e+01 
-1.119708814685e+02 2.621431251887e+00 0.0 
2.621431251887e+00 -2.784467704662e+02 0.0 
0.0 0.0 -1.167252955804e+02 
-1.078998291634e+02 2.773293425315e+00 0.0 
2.773293425315e+00 -2.698059232195e+02 0.0 
0.0 0.0 -1.129117257149e+02 
-6.602863404193e+01 -5.577754339115e-01 0.0 
-5.577754339115e-01 -1.734499613405e+02 0.0 
0.0 0.0 -7.144357861472e+01 
-4.127016812216e+01 -7.569351231712e-01 0.0 
-7.569351231712e-01 -1.132247413935e+02 0.0 
0.0 0.0 -4.594847285470e+01 
-1.181193532339e+02 2.471527782107e+00 0.0 
2.471527782107e+00 -2.694374844138e+02 0.0 
0.0 0.0 -1.158670512943e+02 
-1.607888619352e+01 4.496986141930e+00 0.0 
4.496986141930e+00 -4.346345779215e+01 0.0 
0.0 0.0 -1.746270319570e+01 
-6.522931091001e+01 -8.273272327250e-01 0.0 
-8.273272327250e-01 -1.692231176157e+02 0.0 
0.0 0.0 -6.993572855770e+01 
-1.361750760113e+02 7.960259534334e+00 0.0 
7.960259534334e+00 -3.287210402806e+02 0.0 
0.0 0.0 -1.390688348876e+02 
-3.076639014595e+01 -1.383369761019e+00 0.0 
-1.383369761019e+00 -7.918698996087e+01 0.0 
0.0 0.0 -3.258601403204e+01 
-9.026213551666e+01 1.399607131343e+00 0.0 
1.399607131343e+00 -2.012675265783e+02 0.0 
0.0 0.0 -8.705889862848e+01 
-8.204413850420e+01 1.293275254195e+00 0.0 
1.293275254195e+00 -1.812382271935e+02 0.0 
0.0 0.0 -7.858470970930e+01 
-3.009738067289e+01 -5.971813702261e-01 0.0 
-5.971813702261e-01 -7.688237886236e+01 0.0 
0.0 0.0 -3.169392786057e+01 
-1.356929437500e+02 5.790330234583e+00 0.0 
5.790330234583e+00 -3.289811798211e+02 0.0 
0.0 0.0 -1.390022370713e+02 
-1.061521048492e+02 2.248226287653e+00 0.0 
2.248226287653e+00 -2.388715592462e+02 0.0 
0.0 0.0 -1.031070992286e+02 
-3.512316894104e+01 -1.428958795645e+00 0.0 
-1.428958795645e+00 -9.108321775880e+01 0.0 
0.0 0.0 -3.746191600995e+01 
-1.217182959085e+02 2.758814820912e+00 0.0 
2.758814820912e+00 -2.781379700108e+02 0.0 
0.0 0.0 -1.195568797758e+02 
-1.208591554611e+02 1.257477806984e+00 0.0 
1.257477806984e+00 -2.774384466798e+02 0.0 
0.0 0.0 -1.190892806423e+02 
-3.964875266298e+01 -9.222859749602e-02 0.0 
-9.222859749602e-02 -1.023679212035e+02 0.0 
0.0 0.0 -4.220500215993e+01 
-4.372169898929e+01 1.116806686005e+01 0.0 
1.116806686005e+01 -8.746961833810e+01 0.0 
0.0 0.0 -3.895739519822e+01 
-4.045411099978e+01 -3.403884418962e-01 0.0 
-3.403884418962e-01 -1.049504336150e+02 0.0 
0.0 0.0 -4.322136338442e+01 
-1.201596366194e+02 2.236813677920e+00 0.0 
2.236813677920e+00 -2.956427587458e+02 0.0 
0.0 0.0 -1.243407186095e+02 
-9.321086988262e+01 -2.783266051189e-01 0.0 
-2.783266051189e-01 -2.359147946424e+02 0.0 
0.0 0.0 -9.833769935749e+01 
-1.236685664961e+02 4.395962930793e+00 0.0 
4.395962930793e+00 -2.810228905917e+02 0.0 
0.0 0.0 -1.210074371264e+02 
-1.174078562919e+02 7.920140848759e-01 0.0 
7.920140848759e-01 -2.688524831481e+02 0.0 
0.0 0.0 -1.154781018320e+02 
-1.160588040869e+02 2.439735620637e+00 0.0 
2.439735620637e+00 -2.870684020566e+02 0.0 
0.0 0.0 -1.205381618431e+02 
-1.154729692267e+02 1.026772397894e+00 0.0 
1.026772397894e+00 -2.865103383859e+02 0.0 
0.0 0.0 -1.201949922838e+02 
-3.262495005991e+01 -1.812440822605e+00 0.0 
-1.812440822605e+00 -8.483713929228e+01 0.0 
0.0 0.0 -3.483862680566e+01 
-1.196539556381e+02 8.070666686085e-01 0.0 
8.070666686085e-01 -2.951150432996e+02 0.0 
0.0 0.0 -1.240306996813e+02 
-1.053848407650e+02 5.710976292454e-01 0.0 
5.710976292454e-01 -2.382646933265e+02 0.0 
0.0 0.0 -1.026948602275e+02 
-9.373844114269e+01 1.128247383488e+00 0.0 
1.128247383488e+00 -2.364503866429e+02 0.0 
0.0 0.0 -9.865664833568e+01 
-9.841123960792e+01 1.658015091348e+00 0.0 
1.658015091348e+00 -2.209699640202e+02 0.0 
0.0 0.0 -9.541436108842e+01 
-1.102706972406e+02 2.206056853643e+00 0.0 
2.206056853643e+00 -2.496495731049e+02 0.0 
0.0 0.0 -1.075760811036e+02 
-7.617349828833e+01 8.422829934033e+00 0.0 
8.422829934033e+00 -1.923238424258e+02 0.0 
0.0 0.0 -8.014920221423e+01 
-1.137238906631e+02 4.558959277461e-01 0.0 
4.558959277461e-01 -2.599012793024e+02 0.0 
0.0 0.0 -1.116875509896e+02 
-7.714208905894e+01 -7.063578957683e-01 0.0 
-7.063578957683e-01 -1.981894445282e+02 0.0 
0.0 0.0 -8.219946007616e+01 
-8.992334775612e+01 1.213396407777e+00 0.0 
1.213396407777e+00 -2.279069923585e+02 0.0 
0.0 0.0 -9.494910203438e+01 
-5.759569495847e+01 -1.236543141606e+00 0.0 
-1.236543141606e+00 -1.498524783327e+02 0.0 
0.0 0.0 -6.183445198736e+01 
-5.980903899183e+01 6.013705638961e-01 0.0 
6.013705638961e-01 -1.571627377929e+02 0.0 
0.0 0.0 -6.469153303542e+01 
-1.015804588864e+02 2.671934035693e-01 0.0 
2.671934035693e-01 -2.293339742646e+02 0.0 
0.0 0.0 -9.887432994529e+01 
-8.330575195293e+01 2.867970567060e+00 0.0 
2.867970567060e+00 -2.155472498379e+02 0.0 
0.0 0.0 -8.925590053725e+01 
-4.378109421693e+01 -1.608330025704e-01 0.0 
-1.608330025704e-01 -1.134883065799e+02 0.0 
0.0 0.0 -4.678082023904e+01 
-2.306619917485e+01 -6.722959522493e-01 0.0 
-6.722959522493e-01 -5.746665007169e+01 0.0 
0.0 0.0 -2.375985477396e+01 
-1.023087863724e+02 1.922005204858e+00 0.0 
1.922005204858e+00 -2.299203908713e+02 0.0 
0.0 0.0 -9.926875317312e+01 
-4.306508931935e+01 -1.573121135237e+00 0.0 
-1.573121135237e+00 -1.128715925138e+02 0.0 
0.0 0.0 -4.638100454993e+01 
-1.442931006050e+02 3.732855049327e+00 0.0 
3.732855049327e+00 -3.464648438878e+02 0.0 
0.0 0.0 -1.468273833479e+02 
-1.058481354479e+02 2.371895827884e-01 0.0 
2.371895827884e-01 -2.401374746172e+02 0.0 
0.0 0.0 -1.033956830195e+02 
-1.244918353848e+02 1.305702799988e+00 0.0 
1.305702799988e+00 -3.056620380736e+02 0.0 
0.0 0.0 -1.286461620375e+02 
-1.494727188254e+02 9.341445837565e+00 0.0 
9.341445837565e+00 -3.533369916692e+02 0.0 
0.0 0.0 -1.504429131484e+02 
-7.376829888754e+01 8.418267323788e-01 0.0 
8.418267323788e-01 -1.891368310102e+02 0.0 
0.0 0.0 -7.847153896931e+01 
-3.905412827128e+01 -1.570116441472e+00 0.0 
-1.570116441472e+00 -1.017892904911e+02 0.0 
0.0 0.0 -4.185302562870e+01 
-2.557283965507e+01 -1.861351443016e+00 0.0 
-1.861351443016e+00 -6.511680807011e+01 0.0 
0.0 0.0 -2.680689431756e+01 
-1.166662942834e+02 3.160736990358e+00 0.0 
3.160736990358e+00 -2.888609902935e+02 0.0 
0.0 0.0 -1.212581853731e+02 
-9.405164809787e+01 -2.202148635253e-01 0.0 
-2.202148635253e-01 -2.115946372335e+02 0.0 
0.0 0.0 -9.129388559941e+01 
-1.903891231617e+01 -1.595916280641e+00 0.0 
-1.595916280641e+00 -4.626374359289e+01 0.0 
0.0 0.0 -1.919079677272e+01 
-5.892371076976e+01 2.923661755863e-01 0.0 
2.923661755863e-01 -1.525737448719e+02 0.0 
0.0 0.0 -6.304923669248e+01 
-3.486723504284e+01 1.745199294690e-01 0.0 
1.745199294690e-01 -8.910362074520e+01 0.0 
0.0 0.0 -3.679125673641e+01 
-9.424096013016e+01 1.612346917787e+00 0.0 
1.612346917787e+00 -2.102450107270e+02 0.0 
0.0 0.0 -9.094579125714e+01 
-6.261242398301e+01 4.743479073048e-01 0.0 
4.743479073048e-01 -1.611976691241e+02 0.0 
0.0 0.0 -6.674302793214e+01 
-1.071323819555e+02 1.411488909179e+00 0.0 
1.411488909179e+00 -2.691719540363e+02 0.0 
0.0 0.0 -1.124913007976e+02 
-5.798954462460e+01 3.805106496696e-01 0.0 
3.805106496696e-01 -1.502616995512e+02 0.0 
0.0 0.0 -6.207537325273e+01 
-1.148037802365e+02 1.754593398843e+00 0.0 
1.754593398843e+00 -2.623638338986e+02 0.0 
0.0 0.0 -1.127502842405e+02 
-5.048442392059e+01 -1.380070444919e+00 0.0 
-1.380070444919e+00 -1.324384606466e+02 0.0 
0.0 0.0 -5.447686537015e+01 
-1.171257140733e+02 3.978860637751e+00 0.0 
3.978860637751e+00 -2.902803955605e+02 0.0 
0.0 0.0 -1.218218328901e+02 
-3.561088925514e+01 -6.089638576264e-01 0.0 
-6.089638576264e-01 -9.267915941889e+01 0.0 
0.0 0.0 -3.808701460221e+01 
-1.124910613331e+02 3.352437085634e+00 0.0 
3.352437085634e+00 -2.800979966208e+02 0.0 
0.0 0.0 -1.173767173862e+02 
-8.564484655340e+01 8.697089991090e-01 0.0 
8.697089991090e-01 -2.176756115143e+02 0.0 
0.0 0.0 -9.059613742032e+01 
-1.202251977326e+02 1.544276905088e+00 0.0 
1.544276905088e+00 -2.969907752472e+02 0.0 
0.0 0.0 -1.247647918939e+02 
-5.110967569121e+01 4.002540358083e+00 0.0 
4.002540358083e+00 -1.426840500290e+02 0.0 
0.0 0.0 -5.773811771607e+01 
-3.409989532693e+01 -1.299671871067e+00 0.0 
-1.299671871067e+00 -8.824960433431e+01 0.0 
0.0 0.0 -3.630484989837e+01 
-8.649793715603e+01 1.208927493873e+00 0.0 
1.208927493873e+00 -1.922853026989e+02 0.0 
0.0 0.0 -8.323497195647e+01 
-1.043898639538e+02 6.916697083299e+00 0.0 
6.916697083299e+00 -2.620338102002e+02 0.0 
0.0 0.0 -1.095271022462e+02 
-6.879091979104e+01 8.357115290517e+00 0.0 
8.357115290517e+00 -1.491359458923e+02 0.0 
0.0 0.0 -6.497805970500e+01 
-9.450114709779e+01 1.464692178626e+00 0.0 
1.464692178626e+00 -2.118658980891e+02 0.0 
0.0 0.0 -9.151011355608e+01 
-3.913181178978e+01 -3.048329411991e-01 0.0 
-3.048329411991e-01 -1.033938846951e+02 0.0 
0.0 0.0 -4.235770894545e+01 
-9.711029591401e+01 6.014032281373e-01 0.0 
6.014032281373e-01 -2.168801219887e+02 0.0 
0.0 0.0 -9.379712537082e+01 
-3.108384946503e+01 8.627859683245e-02 0.0 
8.627859683245e-02 -8.011852528356e+01 0.0 
0.0 0.0 -3.296071242458e+01 
-1.352921570344e+02 4.827841516290e+00 0.0 
4.827841516290e+00 -3.282185813023e+02 0.0 
0.0 0.0 -1.386532215010e+02 
-1.089248870904e+02 7.734339709585e+00 0.0 
7.734339709585e+00 -2.709314822183e+02 0.0 
0.0 0.0 -1.135569107926e+02 
-1.145520875401e+02 1.040729073105e+01 0.0 
1.040729073105e+01 -2.755771704707e+02 0.0 
0.0 0.0 -1.166387774032e+02 
-1.258967978156e+02 2.722356222804e+00 0.0 
2.722356222804e+00 -2.895544758203e+02 0.0 
0.0 0.0 -1.242353820908e+02 
-9.153068914680e+01 3.410086647763e+00 0.0 
3.410086647763e+00 -2.344278759707e+02 0.0 
0.0 0.0 -9.738756953525e+01 
-3.185136823469e+01 -1.629873761098e+00 0.0 
-1.629873761098e+00 -8.251492517440e+01 0.0 
0.0 0.0 -3.390988802273e+01 
-1.041485554015e+02 3.721823149870e+00 0.0 
3.721823149870e+00 -2.623536438934e+02 0.0 
0.0 0.0 -1.095506597885e+02 
-1.395616427100e+02 4.079013231022e+00 0.0 
4.079013231022e+00 -3.374970709749e+02 0.0 
0.0 0.0 -1.427176141055e+02 
-4.961259086027e+01 6.950805434724e-01 0.0 
6.950805434724e-01 -1.329177634915e+02 0.0 
0.0 0.0 -5.435910630554e+01 
-1.208431753165e+02 2.959371324011e+00 0.0 
2.959371324011e+00 -2.975615843034e+02 0.0 
0.0 0.0 -1.251214278860e+02 
-1.064540941940e+02 1.901560231265e+00 0.0 
1.901560231265e+00 -2.406738171458e+02 0.0 
0.0 0.0 -1.037383734019e+02 
-3.783763543050e+01 -5.827057512381e-01 0.0 
-5.827057512381e-01 -1.046742940159e+02 0.0 
0.0 0.0 -4.235357883393e+01 
-1.083206611628e+02 3.535256955662e+00 0.0 
3.535256955662e+00 -2.712677252653e+02 0.0 
0.0 0.0 -1.134765159284e+02 
-8.583009220946e+01 1.598053888209e+00 0.0 
1.598053888209e+00 -1.887469448340e+02 0.0 
0.0 0.0 -8.197311111303e+01 
-4.632243847157e+01 1.727723688994e-01 0.0 
1.727723688994e-01 -1.195499577203e+02 0.0 
0.0 0.0 -4.936171885755e+01 
-5.536086695003e+01 1.490278642084e-01 0.0 
1.490278642084e-01 -1.440031362667e+02 0.0 
0.0 0.0 -5.940920096501e+01 
-8.434660608843e+01 1.060939411467e+01 0.0 
1.060939411467e+01 -1.884490736969e+02 0.0 
0.0 0.0 -8.143870393561e+01 
-1.159600364774e+02 1.771181739130e+00 0.0 
1.771181739130e+00 -2.882554920769e+02 0.0 
0.0 0.0 -1.208646585663e+02 
-6.185678897921e+01 8.829404035619e+00 0.0 
8.829404035619e+00 -1.267609047989e+02 0.0 
0.0 0.0 -5.618530813342e+01 
-7.968907130818e+01 1.108787390891e+01 0.0 
1.108787390891e+01 -1.805150947604e+02 0.0 
0.0 0.0 -7.766124982059e+01 
-1.012442138187e+02 5.909386322707e-01 0.0 
5.909386322707e-01 -2.275442662000e+02 0.0 
0.0 0.0 -9.823654400558e+01 
-8.966711388577e+01 -2.646733746618e-01 0.0 
-2.646733746618e-01 -2.007378713564e+02 0.0 
0.0 0.0 -8.672149557266e+01 
-8.904143897067e+01 2.336121555974e-01 0.0 
2.336121555974e-01 -1.972686971949e+02 0.0 
0.0 0.0 -8.549304084968e+01 
-8.513621294152e+01 -3.624113652236e-01 0.0 
-3.624113652236e-01 -2.170758892842e+02 0.0 
0.0 0.0 -9.026363066772e+01 
-1.312959275808e+02 6.113482969212e+00 0.0 
6.113482969212e+00 -3.198963691076e+02 0.0 
0.0 0.0 -1.349576890065e+02 
-9.997627218445e+01 3.928595836748e+00 0.0 
3.928595836748e+00 -2.533475572157e+02 0.0 
0.0 0.0 -1.055971488201e+02 
-8.593865055465e+01 1.332928300389e+00 0.0 
1.332928300389e+00 -1.905321184679e+02 0.0 
0.0 0.0 -8.254123070677e+01 
-1.297017074826e+02 8.143763574008e+00 0.0 
8.143763574008e+00 -2.929432739276e+02 0.0 
0.0 0.0 -1.263934944231e+02 
-1.191828149277e+02 1.083445642781e+01 0.0 
1.083445642781e+01 -2.837425090954e+02 0.0 
0.0 0.0 -1.204775972069e+02 
-1.117105538224e+02 1.983748353377e+00 0.0 
1.983748353377e+00 -2.794654374730e+02 0.0 
0.0 0.0 -1.169527973886e+02 
-1.095596715650e+02 5.364421671901e-01 0.0 
5.364421671901e-01 -2.490674658744e+02 0.0 
0.0 0.0 -1.071881412318e+02 
-6.337710053682e+01 6.935415989976e-01 0.0 
6.935415989976e-01 -1.655619971339e+02 0.0 
0.0 0.0 -6.828172930121e+01 
-5.937768479366e+01 3.715250128130e-01 0.0 
3.715250128130e-01 -1.548372932442e+02 0.0 
0.0 0.0 -6.386449341136e+01 
-3.306723531695e+01 -4.385340261919e-01 0.0 
-4.385340261919e-01 -8.532719559384e+01 0.0 
0.0 0.0 -3.511832927324e+01 
-1.086292507745e+02 4.423295260556e+00 0.0 
4.423295260556e+00 -2.722907024520e+02 0.0 
0.0 0.0 -1.138759859679e+02 
-6.297328728519e+01 4.872526629321e-01 0.0 
4.872526629321e-01 -1.634306768781e+02 0.0 
0.0 0.0 -6.752118924899e+01 
-9.815661284226e+01 1.945085294349e+00 0.0 
1.945085294349e+00 -2.191438366410e+02 0.0 
0.0 0.0 -9.479013484498e+01 
-9.401215140297e+01 1.957547291424e+00 0.0 
1.957547291424e+00 -2.084403987032e+02 0.0 
0.0 0.0 -9.033576503185e+01 
-7.981564446274e+01 8.792201569923e+00 0.0 
8.792201569923e+00 -2.031982208122e+02 0.0 
0.0 0.0 -8.450415958248e+01 
-5.090484691906e+01 -1.289542881007e+00 0.0 
-1.289542881007e+00 -1.347774723947e+02 0.0 
0.0 0.0 -5.530469579412e+01 
-4.740352973135e+01 7.253637176604e+00 0.0 
7.253637176604e+00 -1.307783575885e+02 0.0 
0.0 0.0 -5.305456619594e+01 
-5.443811321528e+01 -1.204398942001e+00 0.0 
-1.204398942001e+00 -1.433118756587e+02 0.0 
0.0 0.0 -5.892499666220e+01 
-5.837197584793e+01 -9.387344240019e-01 0.0 
-9.387344240019e-01 -1.541217287689e+02 0.0 
0.0 0.0 -6.334811138504e+01 
-3.580647306259e+01 -1.709931309485e+00 0.0 
-1.709931309485e+00 -9.334550944314e+01 0.0 
0.0 0.0 -3.834559475172e+01 
-1.268660976440e+02 6.458499715033e+00 0.0 
6.458499715033e+00 -3.106235448108e+02 0.0 
0.0 0.0 -1.308468927365e+02 
-7.017424624412e+01 5.288215138130e-01 0.0 
5.288215138130e-01 -1.858496071741e+02 0.0 
0.0 0.0 -7.640715602546e+01 
-1.143788680905e+02 2.128207156726e+00 0.0 
2.128207156726e+00 -2.604613489091e+02 0.0 
0.0 0.0 -1.120520650999e+02 
-7.415421237127e+01 1.215848852516e+00 0.0 
1.215848852516e+00 -1.960160430910e+02 0.0 
0.0 0.0 -8.065107663868e+01 
-1.032547785737e+02 2.422593941554e+00 0.0 
2.422593941554e+00 -2.616910066977e+02 0.0 
0.0 0.0 -1.090837355814e+02 
-8.626691683572e+01 1.497250741699e+00 0.0 
1.497250741699e+00 -2.237141484022e+02 0.0 
0.0 0.0 -9.259431957136e+01 
-7.816200027917e+01 1.136194007084e+01 0.0 
1.136194007084e+01 -1.844698958858e+02 0.0 
0.0 0.0 -7.838956884949e+01 
-3.641774915093e+01 -3.277829747586e-01 0.0 
-3.277829747586e-01 -9.393114565186e+01 0.0 
0.0 0.0 -3.870466844084e+01 
-1.349520466014e+02 4.449915853643e+00 0.0 
4.449915853643e+00 -3.283137634444e+02 0.0 
0.0 0.0 -1.385797430137e+02 
-1.409772014450e+02 6.705577220845e+00 0.0 
6.705577220845e+00 -3.397953845351e+02 0.0 
0.0 0.0 -1.438317757940e+02 
-1.043065985718e+02 8.232706637708e+00 0.0 
8.232706637708e+00 -2.350251399779e+02 0.0 
0.0 0.0 -1.013995215649e+02 
-6.227620107743e+01 -5.811683634278e-01 0.0 
-5.811683634278e-01 -1.648137939932e+02 0.0 
0.0 0.0 -6.772699852119e+01 
-9.465474059396e+01 1.968958608477e+00 0.0 
1.968958608477e+00 -2.426978955076e+02 0.0 
0.0 0.0 -1.008057908305e+02 
-9.736013200619e+01 2.452857025892e-01 0.0 
2.452857025892e-01 -2.185227399434e+02 0.0 
0.0 0.0 -9.436486158489e+01 
-6.704118599565e+01 7.632636836884e-01 0.0 
7.632636836884e-01 -1.741689908599e+02 0.0 
0.0 0.0 -7.196305305666e+01 
-6.386490817009e+01 1.154792693070e+01 0.0 
1.154792693070e+01 -1.419200313740e+02 0.0 
0.0 0.0 -6.133548186323e+01 
-5.120471364678e+01 3.398485266443e-02 0.0 
3.398485266443e-02 -1.330562948906e+02 0.0 
0.0 0.0 -5.487830256123e+01 
-4.267993173288e+01 1.384394411374e-01 0.0 
1.384394411374e-01 -1.140198632883e+02 0.0 
0.0 0.0 -4.660993850634e+01 
-6.735594753290e+01 1.119794389195e+00 0.0 
1.119794389195e+00 -1.761515367578e+02 0.0 
0.0 0.0 -7.265224528720e+01 
-4.643922481101e+01 -1.411759348555e+00 0.0 
-1.411759348555e+00 -1.214214592214e+02 0.0 
0.0 0.0 -4.995820520972e+01 
-4.297350435877e+01 4.607854370529e-02 0.0 
4.607854370529e-02 -1.109530511948e+02 0.0 
0.0 0.0 -4.577796666607e+01 
-8.731286807135e+01 2.722383846173e+00 0.0 
2.722383846173e+00 -2.244263456267e+02 0.0 
0.0 0.0 -9.312176410942e+01 
-1.074774348044e+02 2.194923766813e+00 0.0 
2.194923766813e+00 -2.706161225177e+02 0.0 
0.0 0.0 -1.130280671966e+02 
-1.235227006101e+02 8.656509643618e+00 0.0 
8.656509643618e+00 -2.823953973451e+02 0.0 
0.0 0.0 -1.213754293866e+02 
-5.952775799404e+00 -4.843862224926e-01 0.0 
-4.843862224926e-01 -9.022529810151e+00 0.0 
0.0 0.0 -4.092591682867e+00 
-7.023915111686e+01 2.720342716943e+00 0.0 
2.720342716943e+00 -1.879077106146e+02 0.0 
0.0 0.0 -7.704405851944e+01 
-7.022492629603e+01 1.472660834282e+00 0.0 
1.472660834282e+00 -1.872146371135e+02 0.0 
0.0 0.0 -7.683186902285e+01 
-6.619768932168e+01 -8.441016267208e-02 0.0 
-8.441016267208e-02 -1.754111975828e+02 0.0 
0.0 0.0 -7.208266607134e+01 
-9.319067525469e+01 2.472040023010e-01 0.0 
2.472040023010e-01 -2.078099890204e+02 0.0 
0.0 0.0 -8.990019928251e+01 
-7.809846001914e+01 1.009758614763e+00 0.0 
1.009758614763e+00 -2.047490254967e+02 0.0 
0.0 0.0 -8.445424565476e+01 
-5.400022231628e+01 -1.274871338753e+00 0.0 
-1.274871338753e+00 -1.410544703547e+02 0.0 
0.0 0.0 -5.811640780131e+01 
-7.134445170696e+01 1.656665008080e+00 0.0 
1.656665008080e+00 -1.865930687310e+02 0.0 
0.0 0.0 -7.698125613138e+01 
-1.099755956075e+02 1.637999186726e-01 0.0 
1.637999186726e-01 -2.509446874564e+02 0.0 
0.0 0.0 -1.078760849192e+02 
-5.453296696200e+01 1.934398128395e-01 0.0 
1.934398128395e-01 -1.416064638208e+02 0.0 
0.0 0.0 -5.844182923483e+01 
-2.170539258694e+01 -1.564086699361e+00 0.0 
-1.564086699361e+00 -5.429560122362e+01 0.0 
0.0 0.0 -2.240029814317e+01 
-2.872918581848e+01 -1.693165309366e+00 0.0 
-1.693165309366e+00 -7.401142126056e+01 0.0 
0.0 0.0 -3.042218212371e+01 
-4.473678052202e+01 -8.653672405506e-01 0.0 
-8.653672405506e-01 -1.217137740470e+02 0.0 
0.0 0.0 -4.953516637071e+01 
-5.478164332479e+01 -9.711503341382e-01 0.0 
-9.711503341382e-01 -1.456601774238e+02 0.0 
0.0 0.0 -5.973254622457e+01 
-7.419333579162e+01 2.303744636965e+00 0.0 
2.303744636965e+00 -1.969413086566e+02 0.0 
0.0 0.0 -8.094039333446e+01 
-7.532515325527e+01 2.304422190914e+00 0.0 
2.304422190914e+00 -1.967671041577e+02 0.0 
0.0 0.0 -8.122767722390e+01 
-3.228662751465e+01 -5.555611715691e-01 0.0 
-5.555611715691e-01 -8.381717353300e+01 0.0 
0.0 0.0 -3.443114031429e+01 
-2.881507509649e+01 -3.012115944062e-01 0.0 
-3.012115944062e-01 -7.434063147176e+01 0.0 
0.0 0.0 -3.054671197047e+01 
-8.940632154079e+01 2.377356432919e+00 0.0 
2.377356432919e+00 -1.956026856528e+02 0.0 
0.0 0.0 -8.510270215808e+01 
-4.711218184725e+01 4.515154473856e-02 0.0 
4.515154473856e-02 -1.220245866879e+02 0.0 
0.0 0.0 -5.034103056054e+01 
-1.213665750768e+02 4.321780042084e+00 0.0 
4.321780042084e+00 -3.003694864686e+02 0.0 
0.0 0.0 -1.261208184636e+02 
-1.197093144864e+02 8.753545196616e+00 0.0 
8.753545196616e+00 -2.739220627502e+02 0.0 
0.0 0.0 -1.176894131710e+02 
-9.451167070698e+01 4.739644797137e+00 0.0 
4.739644797137e+00 -2.028657964049e+02 0.0 
0.0 0.0 -8.881324013355e+01 
-1.166956479976e+02 1.791904433590e+00 0.0 
1.791904433590e+00 -2.653653321423e+02 0.0 
0.0 0.0 -1.142182940420e+02 
-1.273177571669e+02 8.498317650805e+00 0.0 
8.498317650805e+00 -2.910254092086e+02 0.0 
0.0 0.0 -1.251029499126e+02 
-7.598222759530e+01 9.504277761070e+00 0.0 
9.504277761070e+00 -1.924746763907e+02 0.0 
0.0 0.0 -8.013707119580e+01 
-1.120097151477e+02 8.454241096686e+00 0.0 
8.454241096686e+00 -2.544496758857e+02 0.0 
0.0 0.0 -1.095378173100e+02 
-3.600806067863e+01 -3.692949444902e-01 0.0 
-3.692949444902e-01 -9.496472328765e+01 0.0 
0.0 0.0 -3.889183518988e+01 
-7.514856974028e+01 1.618908630469e+00 0.0 
1.618908630469e+00 -1.952243816459e+02 0.0 
0.0 0.0 -8.071188541586e+01 
-6.934951835395e+01 9.650743492731e+00 0.0 
9.650743492731e+00 -1.701717623667e+02 0.0 
0.0 0.0 -7.145638421618e+01 
-3.747216436399e+01 8.249718046793e-01 0.0 
8.249718046793e-01 -1.064885113290e+02 0.0 
0.0 0.0 -4.278820270791e+01 
-2.966230598276e+01 -7.053197205954e-01 0.0 
-7.053197205954e-01 -7.588544548518e+01 0.0 
0.0 0.0 -3.126432544038e+01 
-6.203743175253e+01 -8.768508883648e-01 0.0 
-8.768508883648e-01 -1.627355660135e+02 0.0 
0.0 0.0 -6.703189932981e+01 
-7.142737663499e+01 2.471036708904e+00 0.0 
2.471036708904e+00 -1.879693344459e+02 0.0 
0.0 0.0 -7.741901332428e+01 
-7.532839880845e+01 3.295179007758e+00 0.0 
3.295179007758e+00 -1.976491252238e+02 0.0 
0.0 0.0 -8.149325720969e+01 
-4.982603715354e+01 -1.225916021869e+00 0.0 
-1.225916021869e+00 -1.299857620141e+02 0.0 
0.0 0.0 -5.354353975030e+01 
-8.220768402357e+01 1.713449092900e+00 0.0 
1.713449092900e+00 -2.148290990030e+02 0.0 
0.0 0.0 -8.871103490797e+01 
-7.136063732138e+01 3.605289318068e+00 0.0 
3.605289318068e+00 -1.886008292170e+02 0.0 
0.0 0.0 -7.758843996152e+01 
-7.427375150503e+01 3.690309995612e+00 0.0 
3.690309995612e+00 -1.971459395826e+02 0.0 
0.0 0.0 -8.102590732627e+01 
-5.586417476534e+01 2.533409990978e-01 0.0 
2.533409990978e-01 -1.463798831153e+02 0.0 
0.0 0.0 -6.027321736419e+01 
-1.093571618105e+02 8.918260419787e+00 0.0 
8.918260419787e+00 -2.694846802133e+02 0.0 
0.0 0.0 -1.132525526071e+02 
-1.020513503098e+02 2.290650683175e+00 0.0 
2.290650683175e+00 -2.281687917261e+02 0.0 
0.0 0.0 -9.866604261078e+01 
-7.036061458754e+01 4.257218921621e+00 0.0 
4.257218921621e+00 -1.878268507924e+02 0.0 
0.0 0.0 -7.705623961397e+01 
-1.305945258319e+02 4.763220904332e+00 0.0 
4.763220904332e+00 -3.193061926925e+02 0.0 
0.0 0.0 -1.345702155573e+02 
-3.934985620669e+01 1.929654418227e-01 0.0 
1.929654418227e-01 -1.054819871816e+02 0.0 
0.0 0.0 -4.304955301647e+01 
-1.405030567498e+02 6.394221974250e+00 0.0 
6.394221974250e+00 -3.389824611728e+02 0.0 
0.0 0.0 -1.434456553768e+02 
-7.817229030622e+01 1.970195499050e+00 0.0 
1.970195499050e+00 -2.058662311665e+02 0.0 
0.0 0.0 -8.481155644183e+01 
-1.317447604219e+02 8.256028702752e+00 0.0 
8.256028702752e+00 -3.015573611319e+02 0.0 
0.0 0.0 -1.295906364661e+02 
-9.813135219658e+01 7.834778274158e+00 0.0 
7.834778274158e+00 -2.127333780745e+02 0.0 
0.0 0.0 -9.285941908131e+01 
-3.793689175701e+01 -1.326247684815e+00 0.0 
-1.326247684815e+00 -1.026631042684e+02 0.0 
0.0 0.0 -4.177999880762e+01 
-9.841197835164e+01 5.530862108906e+00 0.0 
5.530862108906e+00 -2.121979100471e+02 0.0 
0.0 0.0 -9.278296651962e+01 
-1.202554609017e+02 2.931251161343e+00 0.0 
2.931251161343e+00 -2.730258115736e+02 0.0 
0.0 0.0 -1.175843817426e+02 
-8.228941616587e+01 2.805270497173e+00 0.0 
2.805270497173e+00 -2.155228550413e+02 0.0 
0.0 0.0 -8.894368136214e+01 
-5.328103750065e+01 1.237722886232e+01 0.0 
1.237722886232e+01 -1.262495856712e+02 0.0 
0.0 0.0 -5.345918695156e+01 
-1.022662306901e+02 6.338049405129e+00 0.0 
6.338049405129e+00 -2.217452153423e+02 0.0 
0.0 0.0 -9.680343380972e+01 
-7.668268259372e+01 8.408378687367e+00 0.0 
8.408378687367e+00 -1.686488759795e+02 0.0 
0.0 0.0 -7.319946757196e+01 
-3.134947833683e+01 -1.707425054453e+00 0.0 
-1.707425054453e+00 -8.315141558281e+01 0.0 
0.0 0.0 -3.395026817589e+01 
-1.321987115219e+02 2.426724720770e+00 0.0 
2.426724720770e+00 -3.054136709079e+02 0.0 
0.0 0.0 -1.308837147289e+02 
-2.796065342290e+01 -1.894764566237e+00 0.0 
-1.894764566237e+00 -7.260461794383e+01 0.0 
0.0 0.0 -2.976958141002e+01 
-1.364024891333e+02 1.098432996385e+01 0.0 
1.098432996385e+01 -3.243499257513e+02 0.0 
0.0 0.0 -1.378257244654e+02 
-1.214296913212e+02 6.841840510085e-01 0.0 
6.841840510085e-01 -2.795115624804e+02 0.0 
0.0 0.0 -1.198823761405e+02 
-1.135398377284e+02 8.521552762816e+00 0.0 
8.521552762816e+00 -2.797040588709e+02 0.0 
0.0 0.0 -1.175731689798e+02 
-8.918703511222e+01 -1.139212920641e-01 0.0 
-1.139212920641e-01 -1.986892012588e+02 0.0 
0.0 0.0 -8.596287091131e+01 
-1.138412200853e+02 3.055513852163e+00 0.0 
3.055513852163e+00 -2.569953029966e+02 0.0 
0.0 0.0 -1.108509569246e+02 
-7.525405397674e+01 4.574205132650e+00 0.0 
4.574205132650e+00 -1.977665154701e+02 0.0 
0.0 0.0 -8.150617083406e+01 
-8.817831200784e+01 8.958395509749e+00 0.0 
8.958395509749e+00 -2.216647029561e+02 0.0 
0.0 0.0 -9.255290448918e+01 
-1.244796572626e+02 2.135260957862e+00 0.0 
2.135260957862e+00 -2.850806083242e+02 0.0 
0.0 0.0 -1.224680796761e+02 
-1.163463288287e+02 2.611221030219e+00 0.0 
2.611221030219e+00 -2.896452103446e+02 0.0 
0.0 0.0 -1.213974617520e+02 
-1.059912532326e+02 2.671433893250e+00 0.0 
2.671433893250e+00 -2.372418425615e+02 0.0 
0.0 0.0 -1.025699287382e+02 
-1.079721372620e+02 5.276545484369e+00 0.0 
5.276545484369e+00 -2.713094730905e+02 0.0 
0.0 0.0 -1.133844831058e+02 
-3.465895252595e+01 -1.236920902939e+00 0.0 
-1.236920902939e+00 -9.419782153436e+01 0.0 
0.0 0.0 -3.825703221809e+01 
-1.099203515588e+02 3.120164717375e+00 0.0 
3.120164717375e+00 -2.463114404145e+02 0.0 
0.0 0.0 -1.064695375920e+02 
-1.426820169729e+02 1.136754961000e+01 0.0 
1.136754961000e+01 -3.301730474522e+02 0.0 
0.0 0.0 -1.414565193275e+02 
-1.403709760147e+02 5.137277252703e+00 0.0 
5.137277252703e+00 -3.390417627881e+02 0.0 
0.0 0.0 -1.434238216408e+02 
-7.404331956712e+01 3.964932764587e-01 0.0 
3.964932764587e-01 -1.944890834795e+02 0.0 
0.0 0.0 -8.015972091399e+01 
-8.994492474056e+01 1.667574502018e+00 0.0 
1.667574502018e+00 -1.992497090106e+02 0.0 
0.0 0.0 -8.635839012536e+01 
-8.494510360875e+01 -1.410828881668e-01 0.0 
-1.410828881668e-01 -1.880849411077e+02 0.0 
0.0 0.0 -8.150901341495e+01 
-7.928773045691e+01 3.063556117442e+00 0.0 
3.063556117442e+00 -2.065793016352e+02 0.0 
0.0 0.0 -8.536010962764e+01 
-1.120509222107e+02 2.857818357565e+00 0.0 
2.857818357565e+00 -2.806882239210e+02 0.0 
0.0 0.0 -1.174217438395e+02 
-1.166861765533e+02 3.566714568527e+00 0.0 
3.566714568527e+00 -2.906063951610e+02 0.0 
0.0 0.0 -1.217877715143e+02 
-2.598642454284e+01 -3.911076467337e-01 0.0 
-3.911076467337e-01 -6.562289629666e+01 0.0 
0.0 0.0 -2.708279625185e+01 
-3.974643014614e+01 6.879821230078e+00 0.0 
6.879821230078e+00 -1.131298110894e+02 0.0 
0.0 0.0 -4.546287237067e+01 
-7.459064227514e+01 5.282752178148e+00 0.0 
5.282752178148e+00 -1.965934306484e+02 0.0 
0.0 0.0 -8.095522187706e+01 
-7.126834796330e+01 5.072238567755e+00 0.0 
5.072238567755e+00 -1.884065478821e+02 0.0 
0.0 0.0 -7.750246875363e+01 
-7.555938726456e+01 9.500505764935e+00 0.0 
9.500505764935e+00 -1.727105207221e+02 0.0 
0.0 0.0 -7.408097239599e+01 
-1.291890106956e+02 3.644752138216e+00 0.0 
3.644752138216e+00 -2.961499919748e+02 0.0 
0.0 0.0 -1.272017008011e+02 
-1.238612143788e+02 5.327117602657e+00 0.0 
5.327117602657e+00 -2.806714069839e+02 0.0 
0.0 0.0 -1.209597864088e+02 
-1.220415823645e+02 2.302235034249e+00 0.0 
2.302235034249e+00 -2.799540200054e+02 0.0 
0.0 0.0 -1.201986807110e+02 
-6.623285136254e+01 7.903106856430e+00 0.0 
7.903106856430e+00 -1.357585538935e+02 0.0 
0.0 0.0 -6.019742157681e+01 
-1.126404673795e+02 2.458121876568e+00 0.0 
2.458121876568e+00 -2.532658975326e+02 0.0 
0.0 0.0 -1.093719094736e+02 
-1.128736757782e+02 4.194206835261e+00 0.0 
4.194206835261e+00 -2.813278749894e+02 0.0 
0.0 0.0 -1.178604652303e+02 
-1.246801433982e+02 1.509624404978e+00 0.0 
1.509624404978e+00 -2.868418574582e+02 0.0 
0.0 0.0 -1.230566002569e+02 
-1.059791024451e+02 3.170529311654e+00 0.0 
3.170529311654e+00 -2.356502182939e+02 0.0 
0.0 0.0 -1.020887962217e+02 
-7.921115484566e+01 2.199260145410e+00 0.0 
2.199260145410e+00 -2.054845524390e+02 0.0 
0.0 0.0 -8.500871218539e+01 
-7.075574479381e+01 5.988207974013e+00 0.0 
5.988207974013e+00 -1.868199221164e+02 0.0 
0.0 0.0 -7.687270007307e+01 
-1.089044017111e+02 1.392411015089e+00 0.0 
1.392411015089e+00 -2.455907555181e+02 0.0 
0.0 0.0 -1.059485471688e+02 
-1.215944459505e+02 3.422259878957e+00 0.0 
3.422259878957e+00 -2.768000939049e+02 0.0 
0.0 0.0 -1.191183619566e+02 
-1.091804636705e+02 9.148680855239e-01 0.0 
9.148680855239e-01 -2.472731854878e+02 0.0 
0.0 0.0 -1.065360947475e+02 
-1.050793105937e+02 9.629097409950e-01 0.0 
9.629097409950e-01 -2.365691203970e+02 0.0 
0.0 0.0 -1.020945292972e+02 
-1.302010194387e+02 3.680634404371e+00 0.0 
3.680634404371e+00 -3.186479442749e+02 0.0 
0.0 0.0 -1.342546891141e+02 
-1.322091775721e+02 1.106274745643e+01 0.0 
1.106274745643e+01 -3.138903648220e+02 0.0 
0.0 0.0 -1.334298627182e+02 
-1.257959481348e+02 3.990506916288e+00 0.0 
3.990506916288e+00 -3.095664982779e+02 0.0 
0.0 0.0 -1.302087339238e+02 
-9.880422077660e+01 1.767573926225e+00 0.0 
1.767573926225e+00 -2.515798636480e+02 0.0 
0.0 0.0 -1.047152253274e+02 
-6.140609246886e+01 2.291180932852e+00 0.0 
2.291180932852e+00 -1.249255535082e+02 0.0 
0.0 0.0 -5.549949379312e+01 
-1.180905621084e+02 9.220464257759e+00 0.0 
9.220464257759e+00 -2.881965823557e+02 0.0 
0.0 0.0 -1.214861433392e+02 
-1.049565738059e+02 2.567176315894e+00 0.0 
2.567176315894e+00 -2.325182343101e+02 0.0 
0.0 0.0 -1.008424424348e+02 
-4.238679724231e+01 -1.376474611409e+00 0.0 
-1.376474611409e+00 -1.103964607739e+02 0.0 
0.0 0.0 -4.543497740488e+01 
-7.527693265213e+01 6.139064911758e+00 0.0 
6.139064911758e+00 -1.970815141703e+02 0.0 
0.0 0.0 -8.130753404672e+01 
-8.673640357042e+01 5.039317591010e+00 0.0 
5.039317591010e+00 -2.244263062921e+02 0.0 
0.0 0.0 -9.294881295877e+01 
-9.666468578119e+01 9.129919248316e+00 0.0 
9.129919248316e+00 -2.402997116923e+02 0.0 
0.0 0.0 -1.006893192420e+02 
-3.667289823369e+01 2.599431925311e+00 0.0 
2.599431925311e+00 -1.064856587208e+02 0.0 
0.0 0.0 -4.254756708635e+01 
-7.131075221517e+01 6.792448731000e+00 0.0 
6.792448731000e+00 -1.872487286233e+02 0.0 
0.0 0.0 -7.716784425154e+01 
-1.052634864923e+02 9.333293791393e+00 0.0 
9.333293791393e+00 -2.590614204164e+02 0.0 
0.0 0.0 -1.088974720726e+02 
-7.363943048044e+01 4.042544908845e+00 0.0 
4.042544908845e+00 -1.536906102928e+02 0.0 
0.0 0.0 -6.779901223198e+01 
-8.208450007002e+01 8.648474951577e-01 0.0 
8.648474951577e-01 -2.135223325796e+02 0.0 
0.0 0.0 -8.828204979489e+01 
-9.798961799263e+01 2.729569287476e+00 0.0 
2.729569287476e+00 -2.158348317263e+02 0.0 
0.0 0.0 -9.374733491567e+01 
-7.226190404783e+01 -4.401287660619e-01 0.0 
-4.401287660619e-01 -1.582674062318e+02 0.0 
0.0 0.0 -6.875879308390e+01 
-1.392069029075e+01 9.935096716689e+00 0.0 
9.935096716689e+00 -1.510688094223e+01 0.0 
0.0 0.0 -8.308271369895e+00 
-9.562721223828e+01 3.231908398300e+00 0.0 
3.231908398300e+00 -2.433863828299e+02 0.0 
0.0 0.0 -1.013040785205e+02 
-1.172262138397e+02 6.823245714898e+00 0.0 
6.823245714898e+00 -2.892101051808e+02 0.0 
0.0 0.0 -1.215308957062e+02 
-1.275499031802e+02 4.967287731670e+00 0.0 
4.967287731670e+00 -2.905822084286e+02 0.0 
0.0 0.0 -1.250396334826e+02 
-8.350052983810e+01 7.089674768179e+00 0.0 
7.089674768179e+00 -2.133104267667e+02 0.0 
0.0 0.0 -8.864328698145e+01 
-9.033939616073e+01 1.320479271294e+00 0.0 
1.320479271294e+00 -2.325530315101e+02 0.0 
0.0 0.0 -9.646772830125e+01 
-9.796069007541e+01 2.288857709961e+00 0.0 
2.288857709961e+00 -2.175149647437e+02 0.0 
0.0 0.0 -9.424269644572e+01 
-1.186811645415e+01 8.276593523432e+00 0.0 
8.276593523432e+00 -1.525729429175e+01 0.0 
0.0 0.0 -7.737623223768e+00 
-1.130669101400e+02 7.214144534247e+00 0.0 
7.214144534247e+00 -2.792215284210e+02 0.0 
0.0 0.0 -1.172865315683e+02 
-9.213033742109e+01 8.377569098285e+00 0.0 
8.377569098285e+00 -2.321082423581e+02 0.0 
0.0 0.0 -9.687157393375e+01 
-7.880773642137e+01 5.948559975486e+00 0.0 
5.948559975486e+00 -1.640879567365e+02 0.0 
0.0 0.0 -7.246870794736e+01 
-1.174769482449e+02 4.900779339961e+00 0.0 
4.900779339961e+00 -2.912300007959e+02 0.0 
0.0 0.0 -1.222120847122e+02 
-3.926460686695e+01 1.137188436785e+00 0.0 
1.137188436785e+00 -1.073080322305e+02 0.0 
0.0 0.0 -4.357179172925e+01 
-1.221457879167e+02 5.655239653360e+00 0.0 
5.655239653360e+00 -3.009901113839e+02 0.0 
0.0 0.0 -1.265407697902e+02 
-1.354312033098e+02 5.510182634620e+00 0.0 
5.510182634620e+00 -3.290233157924e+02 0.0 
0.0 0.0 -1.389363557307e+02 
-1.090117750342e+02 7.613607157376e+00 0.0 
7.613607157376e+00 -2.690580491669e+02 0.0 
0.0 0.0 -1.130209472603e+02 
-1.099926780092e+02 2.621082775561e+00 0.0 
2.621082775561e+00 -2.479105958535e+02 0.0 
0.0 0.0 -1.069709821588e+02 
-1.197422094989e+02 1.107294735439e+01 0.0 
1.107294735439e+01 -2.769219214490e+02 0.0 
0.0 0.0 -1.185992392844e+02 
-1.362502955079e+02 6.988852285161e+00 0.0 
6.988852285161e+00 -3.296399500136e+02 0.0 
0.0 0.0 -1.393670736565e+02 
-1.358756935307e+01 2.980631405864e+00 0.0 
2.980631405864e+00 -2.258315676625e+01 0.0 
0.0 0.0 -1.045121783579e+01 
-1.020078718959e+02 2.683146790594e+00 0.0 
2.683146790594e+00 -2.265773663395e+02 0.0 
0.0 0.0 -9.817557147060e+01 
-1.321929483407e+02 1.145770135174e+01 0.0 
1.145770135174e+01 -3.110446037405e+02 0.0 
0.0 0.0 -1.325712656244e+02 
-1.129336884045e+02 1.326000582511e+00 0.0 
1.326000582511e+00 -2.563164986304e+02 0.0 
0.0 0.0 -1.103750561105e+02 
-1.004187765879e+02 7.405230170621e+00 0.0 
7.405230170621e+00 -2.503627327190e+02 0.0 
0.0 0.0 -1.048344527921e+02 
-7.546518480139e+01 7.856795939399e+00 0.0 
7.856795939399e+00 -1.953003499693e+02 0.0 
0.0 0.0 -8.082966043121e+01 
-8.981021339703e+01 1.613559689313e-01 0.0 
1.613559689313e-01 -2.292742886909e+02 0.0 
0.0 0.0 -9.532535062638e+01 
-2.135700248867e+01 1.699909713535e+00 0.0 
1.699909713535e+00 -6.138141947250e+01 0.0 
0.0 0.0 -2.442152658835e+01 
-1.169910616452e+02 1.221272476715e+00 0.0 
1.221272476715e+00 -2.670293999951e+02 0.0 
0.0 0.0 -1.148061384921e+02 
-4.583560315771e+01 -1.280329074854e+00 0.0 
-1.280329074854e+00 -1.190747063868e+02 0.0 
0.0 0.0 -4.907309286335e+01 
-2.243635869295e+01 1.885159899755e+00 0.0 
1.885159899755e+00 -4.069918926796e+01 0.0 
0.0 0.0 -1.854066438827e+01 
-1.160230417374e+02 1.075161915097e+01 0.0 
1.075161915097e+01 -2.658959639281e+02 0.0 
0.0 0.0 -1.141757016996e+02 
-1.253419097593e+02 1.018004086962e+00 0.0 
1.018004086962e+00 -2.890063580043e+02 0.0 
0.0 0.0 -1.239044803291e+02 
-3.611513389985e+01 2.901573413493e-01 0.0 
2.901573413493e-01 -9.712512192580e+01 0.0 
0.0 0.0 -3.957207674770e+01 
-8.888977597508e+01 1.008097370287e+01 0.0 
1.008097370287e+01 -1.967065932900e+02 0.0 
0.0 0.0 -8.527891077953e+01 
-1.049103053917e+02 1.410088970612e+00 0.0 
1.410088970612e+00 -2.349061617086e+02 0.0 
0.0 0.0 -1.015449401301e+02 
-8.708486930205e+01 2.048956130194e+00 0.0 
2.048956130194e+00 -2.230272350535e+02 0.0 
0.0 0.0 -9.263363130668e+01 
-3.858179050525e+01 2.888369082519e+00 0.0 
2.888369082519e+00 -1.073593341709e+02 0.0 
0.0 0.0 -4.338233740285e+01 
-4.944999667833e+01 1.072936198050e+01 0.0 
1.072936198050e+01 -1.202199724515e+02 0.0 
0.0 0.0 -5.050099073896e+01 
-2.865616119908e+01 -1.497872076291e+00 0.0 
-1.497872076291e+00 -7.527051310188e+01 0.0 
0.0 0.0 -3.077800229029e+01 
-3.455284057739e+01 -3.182788881512e-01 0.0 
-3.182788881512e-01 -9.635258191694e+01 0.0 
0.0 0.0 -3.887162674830e+01 
-3.153031784230e+01 -1.072860231963e+00 0.0 
-1.072860231963e+00 -8.614509453074e+01 0.0 
0.0 0.0 -3.490262371191e+01 
-9.191510222587e+01 7.239359286585e+00 0.0 
7.239359286585e+00 -2.317741476072e+02 0.0 
0.0 0.0 -9.670677494994e+01 
-1.426228767207e+02 5.026678502278e+00 0.0 
5.026678502278e+00 -3.302221283592e+02 0.0 
0.0 0.0 -1.414535015240e+02 
-3.134391015155e+01 1.311284699388e+00 0.0 
1.311284699388e+00 -5.967013286190e+01 0.0 
0.0 0.0 -2.690421290403e+01 
-1.346833565837e+02 3.399492175396e+00 0.0 
3.399492175396e+00 -3.276292524841e+02 0.0 
0.0 0.0 -1.382937827203e+02 
-6.334965088978e+01 7.618705477515e+00 0.0 
7.618705477515e+00 -1.665397928545e+02 0.0 
0.0 0.0 -6.856683312330e+01 
-1.020617519385e+02 3.229259760896e+00 0.0 
3.229259760896e+00 -2.251478966341e+02 0.0 
0.0 0.0 -9.776289457177e+01 
-2.673338798946e+01 2.628562796780e+00 0.0 
2.628562796780e+00 -7.943393723767e+01 0.0 
0.0 0.0 -3.145019756814e+01 
-1.410538745913e+02 7.756527210057e+00 0.0 
7.756527210057e+00 -3.391070020467e+02 0.0 
0.0 0.0 -1.436482629914e+02 
-3.311879823419e+01 -4.137778888192e-01 0.0 
-4.137778888192e-01 -8.691213436222e+01 0.0 
0.0 0.0 -3.560927977892e+01 
-5.372543178706e+01 -1.148635637612e+00 0.0 
-1.148635637612e+00 -1.393076725396e+02 0.0 
0.0 0.0 -5.750993129799e+01 
-1.136607006820e+02 8.197720580031e+00 0.0 
8.197720580031e+00 -2.774902421182e+02 0.0 
0.0 0.0 -1.169452828401e+02 
-7.924883982942e+01 4.184696845586e+00 0.0 
4.184696845586e+00 -2.069508545547e+02 0.0 
0.0 0.0 -8.545990831525e+01 
-1.279250251414e+02 1.110962121419e+01 0.0 
1.110962121419e+01 -3.030831945590e+02 0.0 
0.0 0.0 -1.289024659101e+02 
-5.590066591513e+01 1.185365138916e+01 0.0 
1.185365138916e+01 -1.221750042104e+02 0.0 
0.0 0.0 -5.302270103765e+01 
-1.099551848167e+02 4.296165164063e+00 0.0 
4.296165164063e+00 -2.436705700739e+02 0.0 
0.0 0.0 -1.056877264672e+02 
-1.358409514106e+02 9.394356249244e+00 0.0 
9.394356249244e+00 -3.237636765599e+02 0.0 
0.0 0.0 -1.374813883911e+02 
-1.009957349537e+02 9.596044463453e-01 0.0 
9.596044463453e-01 -2.258738167494e+02 0.0 
0.0 0.0 -9.766086551093e+01 
-1.284724382337e+02 6.827051474022e+00 0.0 
6.827051474022e+00 -2.913729338166e+02 0.0 
0.0 0.0 -1.255536116151e+02 
-1.137632425864e+02 3.604535597597e+00 0.0 
3.604535597597e+00 -2.553545088703e+02 0.0 
0.0 0.0 -1.103353254370e+02 
-1.175776548181e+02 4.131089835672e+00 0.0 
4.131089835672e+00 -2.645443543167e+02 0.0 
0.0 0.0 -1.142366027404e+02 
-2.904985324721e+01 7.651419812977e+00 0.0 
7.651419812977e+00 -8.526660049218e+01 0.0 
0.0 0.0 -3.389493612182e+01 
-1.297568723271e+02 2.760804824883e+00 0.0 
2.760804824883e+00 -3.174233199626e+02 0.0 
0.0 0.0 -1.337540576869e+02 
-1.088179358965e+02 1.922744488024e+00 0.0 
1.922744488024e+00 -2.440804073551e+02 0.0 
0.0 0.0 -1.054695029755e+02 
-8.084468954905e+01 8.936403382136e+00 0.0 
8.936403382136e+00 -1.997371809888e+02 0.0 
0.0 0.0 -8.377456116135e+01 
-4.004034090797e+01 7.596980932398e-01 0.0 
7.596980932398e-01 -7.885021766654e+01 0.0 
0.0 0.0 -3.526716757235e+01 
-1.411007152067e+02 1.154662705453e+01 0.0 
1.154662705453e+01 -3.328047446450e+02 0.0 
0.0 0.0 -1.417716379555e+02 
-3.612973678918e+01 5.185966020596e+00 0.0 
5.185966020596e+00 -1.055306187239e+02 0.0 
0.0 0.0 -4.209810665392e+01 
-5.056621473302e+01 2.554657164965e-01 0.0 
2.554657164965e-01 -1.306066906252e+02 0.0 
0.0 0.0 -5.395187160746e+01 
-1.229020743081e+02 9.085270053318e+00 0.0 
9.085270053318e+00 -2.942346743465e+02 0.0 
0.0 0.0 -1.247410245964e+02 
-3.104391984044e+01 4.471941192442e-01 0.0 
4.471941192442e-01 -7.999480852734e+01 0.0 
0.0 0.0 -3.291161851033e+01 
-8.293330212058e+01 1.121800022334e+01 0.0 
1.121800022334e+01 -1.919747985429e+02 0.0 
0.0 0.0 -8.207243019905e+01 
-1.176717574562e+02 7.889978020572e+00 0.0 
7.889978020572e+00 -2.877643260960e+02 0.0 
0.0 0.0 -1.212308250657e+02 
-1.248225844007e+02 4.443490426301e+00 0.0 
4.443490426301e+00 -2.837267919278e+02 0.0 
0.0 0.0 -1.221648128986e+02 
-1.286061272435e+02 5.057372205846e+00 0.0 
5.057372205846e+00 -2.934115262066e+02 0.0 
0.0 0.0 -1.262052960350e+02 
-1.139480117595e+02 9.582381793581e+00 0.0 
9.582381793581e+00 -2.779007510780e+02 0.0 
0.0 0.0 -1.171546288513e+02 
-1.176419575169e+02 3.529222529714e+00 0.0 
3.529222529714e+00 -2.660643941008e+02 0.0 
0.0 0.0 -1.147119054853e+02 
-6.795057002827e+01 8.470239759644e+00 0.0 
8.470239759644e+00 -1.740392664177e+02 0.0 
0.0 0.0 -7.219695093379e+01 
-1.166466046609e+02 1.018266035857e+01 0.0 
1.018266035857e+01 -2.637141290388e+02 0.0 
0.0 0.0 -1.137082201099e+02 
-4.867074488451e+01 4.187549607556e-01 0.0 
4.187549607556e-01 -9.824030249536e+01 0.0 
0.0 0.0 -4.367331421396e+01 
-1.271014253755e+02 6.877976617675e+00 0.0 
6.877976617675e+00 -2.896478373841e+02 0.0 
0.0 0.0 -1.246247788279e+02 
-5.702202548103e+01 3.172730781091e-01 0.0 
3.172730781091e-01 -1.176426940030e+02 0.0 
0.0 0.0 -5.199941584522e+01 
-6.166015390197e+01 4.350305537511e-01 0.0 
4.350305537511e-01 -1.273833947960e+02 0.0 
0.0 0.0 -5.631306460940e+01 
-7.978276803471e+01 7.746770433338e+00 0.0 
7.746770433338e+00 -2.029647663120e+02 0.0 
0.0 0.0 -8.442426030402e+01 
-6.535082814189e+01 2.426302650059e-01 0.0 
2.426302650059e-01 -1.372828475041e+02 0.0 
0.0 0.0 -6.039010269381e+01 
-9.436062109652e+01 1.098125940399e+01 0.0 
1.098125940399e+01 -2.222876229337e+02 0.0 
0.0 0.0 -9.459447320906e+01 
-7.338733463877e+01 1.128703300574e+01 0.0 
1.128703300574e+01 -1.772126992243e+02 0.0 
0.0 0.0 -7.478001015894e+01 
-7.941342444983e+01 7.175828012142e+00 0.0 
7.175828012142e+00 -2.054292096598e+02 0.0 
0.0 0.0 -8.505279023288e+01 
-3.368277089686e+01 1.166573744198e+00 0.0 
1.166573744198e+00 -9.707072901804e+01 0.0 
0.0 0.0 -3.882604997447e+01 
-7.518914923423e+01 6.937681237597e+00 0.0 
6.937681237597e+00 -1.949835570040e+02 0.0 
0.0 0.0 -8.065181187147e+01 
-1.206916478318e+02 1.684057639740e+00 0.0 
1.684057639740e+00 -2.761198350784e+02 0.0 
0.0 0.0 -1.186434448730e+02 
-1.283453379345e+02 5.821303508543e+00 0.0 
5.821303508543e+00 -2.921955621309e+02 0.0 
0.0 0.0 -1.257622700196e+02 
-1.206480048615e+02 2.375371029167e+00 0.0 
2.375371029167e+00 -2.984936779087e+02 0.0 
0.0 0.0 -1.253425048311e+02 
-1.315200120785e+02 9.463122226104e+00 0.0 
9.463122226104e+00 -3.132571463706e+02 0.0 
0.0 0.0 -1.330331475347e+02 
-7.822584438769e+01 3.204274572973e+00 0.0 
3.204274572973e+00 -2.062983040520e+02 0.0 
0.0 0.0 -8.495724453190e+01 
-1.165429154979e+02 2.369344174328e+00 0.0 
2.369344174328e+00 -2.638000391141e+02 0.0 
0.0 0.0 -1.137028863836e+02 
-7.896298550087e+01 6.235295656194e+00 0.0 
6.235295656194e+00 -2.050369219791e+02 0.0 
0.0 0.0 -8.479997224399e+01 
-1.341912105882e+02 2.460627466581e+00 0.0 
2.460627466581e+00 -3.261887558230e+02 0.0 
0.0 0.0 -1.377139899234e+02 
-1.127147028051e+02 1.884909604974e+00 0.0 
1.884909604974e+00 -2.546186482273e+02 0.0 
0.0 0.0 -1.098000053097e+02 
-1.137593836198e+02 4.223629538157e+00 0.0 
4.223629538157e+00 -2.540560066171e+02 0.0 
0.0 0.0 -1.099446170711e+02 
-1.043633643872e+02 6.934048878613e+00 0.0 
6.934048878613e+00 -2.605018506047e+02 0.0 
0.0 0.0 -1.090595644976e+02 
-7.151348039123e+01 7.693906442661e+00 0.0 
7.693906442661e+00 -1.846720552707e+02 0.0 
0.0 0.0 -7.645566069859e+01 
-1.241561510630e+02 1.040647039347e+01 0.0 
1.040647039347e+01 -2.828344666488e+02 0.0 
0.0 0.0 -1.216971853135e+02 
-9.723183308423e+01 5.684151462102e+00 0.0 
5.684151462102e+00 -2.119345749193e+02 0.0 
0.0 0.0 -9.234992240106e+01 
-3.550904259344e+01 1.617453467444e+00 0.0 
1.617453467444e+00 -9.794695438411e+01 0.0 
0.0 0.0 -3.963679909326e+01 
-3.769787308150e+01 5.254473384587e+00 0.0 
5.254473384587e+00 -1.062101632124e+02 0.0 
0.0 0.0 -4.277241088816e+01 
-5.963627509654e+01 9.920038850865e+00 0.0 
9.920038850865e+00 -1.340980992191e+02 0.0 
0.0 0.0 -5.772031229471e+01 
-8.879885882572e+01 7.891304805747e+00 0.0 
7.891304805747e+00 -1.962300813738e+02 0.0 
0.0 0.0 -8.510868205986e+01 
-1.386462054477e+02 2.109004672172e+00 0.0 
2.109004672172e+00 -3.350806093672e+02 0.0 
0.0 0.0 -1.417180444445e+02 
-1.098788268065e+02 3.687156340903e+00 0.0 
3.687156340903e+00 -2.448318806056e+02 0.0 
0.0 0.0 -1.060132122236e+02 
-7.158823673768e+01 8.610912310782e+00 0.0 
8.610912310782e+00 -1.849046996684e+02 0.0 
0.0 0.0 -7.654788092183e+01 
-1.010483403592e+02 9.712373048876e+00 0.0 
9.712373048876e+00 -2.246066215925e+02 0.0 
0.0 0.0 -9.729648858551e+01 
-1.219156565171e+02 7.540309344030e+00 0.0 
7.540309344030e+00 -2.980882133744e+02 0.0 
0.0 0.0 -1.256011609674e+02 
-1.178017448844e+02 2.952898585396e+00 0.0 
2.952898585396e+00 -2.676778142023e+02 0.0 
0.0 0.0 -1.152438677260e+02 
-1.278507484229e+02 1.013848907842e+01 0.0 
1.013848907842e+01 -2.915050240133e+02 0.0 
0.0 0.0 -1.254067317309e+02 
-9.701391167630e+01 1.440016305357e+00 0.0 
1.440016305357e+00 -2.140114769171e+02 0.0 
0.0 0.0 -9.290761657801e+01 
-1.264346595183e+02 6.170713801715e+00 0.0 
6.170713801715e+00 -3.099520576250e+02 0.0 
0.0 0.0 -1.305160151430e+02 
-8.373070305398e+01 8.127408071901e+00 0.0 
8.127408071901e+00 -2.136317894691e+02 0.0 
0.0 0.0 -8.880874775691e+01 
-1.224005088375e+02 8.887016120400e+00 0.0 
8.887016120400e+00 -2.984728888131e+02 0.0 
0.0 0.0 -1.258620192952e+02 
-8.345835758388e+01 9.335049667299e+00 0.0 
9.335049667299e+00 -1.917945304933e+02 0.0 
0.0 0.0 -8.217586642317e+01 
-1.251359798683e+02 3.810355691269e+00 0.0 
3.810355691269e+00 -2.856058985094e+02 0.0 
0.0 0.0 -1.228225635133e+02 
-1.327774179815e+02 1.035666178514e+01 0.0 
1.035666178514e+01 -3.021828957084e+02 0.0 
0.0 0.0 -1.300880941070e+02 
-9.577398996037e+01 6.690935621749e+00 0.0 
6.690935621749e+00 -2.418748800974e+02 0.0 
0.0 0.0 -1.008946610173e+02 
-3.298238711630e+01 3.447101263001e+00 0.0 
3.447101263001e+00 -9.727983105972e+01 0.0 
0.0 0.0 -3.867866545280e+01 
-1.229532592787e+02 9.510985212506e+00 0.0 
9.510985212506e+00 -2.872283431542e+02 0.0 
0.0 0.0 -1.226544807298e+02 
-9.093865055429e+01 1.103570930589e+01 0.0 
1.103570930589e+01 -2.110223411553e+02 0.0 
0.0 0.0 -9.018829751288e+01 
-6.778726090075e+01 9.430254568876e+00 0.0 
9.430254568876e+00 -1.741845082217e+02 0.0 
0.0 0.0 -7.219153073673e+01 
-1.006750402473e+02 8.631137628840e+00 0.0 
8.631137628840e+00 -2.507338506640e+02 0.0 
0.0 0.0 -1.050226672734e+02 
-1.224184452931e+02 6.770281062492e+00 0.0 
6.770281062492e+00 -3.011173598557e+02 0.0 
0.0 0.0 -1.266607415446e+02 
-3.491330288955e+01 3.511504815401e+00 0.0 
3.511504815401e+00 -9.811194331527e+01 0.0 
0.0 0.0 -3.950757386145e+01 
-8.730884949830e+01 6.470074435913e+00 0.0 
6.470074435913e+00 -2.233868452696e+02 0.0 
0.0 0.0 -9.280870843037e+01 
-1.010666098112e+02 4.332549291060e+00 0.0 
4.332549291060e+00 -2.208503076936e+02 0.0 
0.0 0.0 -9.617507525144e+01 
-1.391321092326e+02 3.593324569101e+00 0.0 
3.593324569101e+00 -3.355842882320e+02 0.0 
0.0 0.0 -1.420149192394e+02 
-1.048992395885e+02 5.148079141393e+00 0.0 
5.148079141393e+00 -2.305843487172e+02 0.0 
0.0 0.0 -1.002450764917e+02 
-1.192850926586e+02 9.232490858357e+00 0.0 
9.232490858357e+00 -2.763446670261e+02 0.0 
0.0 0.0 -1.182889279054e+02 
-9.715710589813e+01 3.548699291447e+00 0.0 
3.548699291447e+00 -2.112907894150e+02 0.0 
0.0 0.0 -9.213436859394e+01 
-8.895434857944e+01 2.008961604241e+00 0.0 
2.008961604241e+00 -1.925657201451e+02 0.0 
0.0 0.0 -8.405602061736e+01 
-1.009885559139e+02 6.503449654363e+00 0.0 
6.503449654363e+00 -2.222687124805e+02 0.0 
0.0 0.0 -9.657718051831e+01 
-1.269860786934e+02 8.935821221222e+00 0.0 
8.935821221222e+00 -3.048482086175e+02 0.0 
0.0 0.0 -1.291502861933e+02 
-1.261245756902e+02 4.413605958540e+00 0.0 
4.413605958540e+00 -3.092664206214e+02 0.0 
0.0 0.0 -1.302172988935e+02 
-1.049122462268e+02 1.980116153165e+00 0.0 
1.980116153165e+00 -2.336403424218e+02 0.0 
0.0 0.0 -1.011657765946e+02 
-1.277788135324e+02 3.451133026214e+00 0.0 
3.451133026214e+00 -2.927714233481e+02 0.0 
0.0 0.0 -1.257650710642e+02 
-9.320363278014e+01 2.784178245418e+00 0.0 
2.784178245418e+00 -2.019281718504e+02 0.0 
0.0 0.0 -8.813954138918e+01 
-5.565164481023e+01 8.091675672733e+00 0.0 
8.091675672733e+00 -1.488593821585e+02 0.0 
0.0 0.0 -6.095330809062e+01 
-1.277303592802e+02 1.135653100461e+01 0.0 
1.135653100461e+01 -2.962161773769e+02 0.0 
0.0 0.0 -1.267839609972e+02 
-1.255965957584e+02 3.344734360615e+00 0.0 
3.344734360615e+00 -2.875352141569e+02 0.0 
0.0 0.0 -1.235395429746e+02 
-8.211983553599e+01 9.517254119435e+00 0.0 
9.517254119435e+00 -1.957933959769e+02 0.0 
0.0 0.0 -8.297396945385e+01 
-8.678152320574e+01 9.428518618781e+00 0.0 
9.428518618781e+00 -2.032127419170e+02 0.0 
0.0 0.0 -8.659827953681e+01 
-6.352798401391e+01 8.393716470993e+00 0.0 
8.393716470993e+00 -1.667890717214e+02 0.0 
0.0 0.0 -6.869511672059e+01 
-1.087778011511e+02 2.512884934609e+00 0.0 
2.512884934609e+00 -2.428319106496e+02 0.0 
0.0 0.0 -1.050829135402e+02 
-6.509447840679e+01 7.313067174854e+00 0.0 
7.313067174854e+00 -1.373958645149e+02 0.0 
0.0 0.0 -6.034710287652e+01 
-9.817939231455e+01 9.202785581240e+00 0.0 
9.202785581240e+00 -2.332233257180e+02 0.0 
0.0 0.0 -9.902081540977e+01 
-6.533460505751e+01 9.975759085562e+00 0.0 
9.975759085562e+00 -1.380161639459e+02 0.0 
0.0 0.0 -6.060523070102e+01 
-1.183123283227e+02 8.677290303032e+00 0.0 
8.677290303032e+00 -2.858800829546e+02 0.0 
0.0 0.0 -1.208577233832e+02 
-1.354292471529e+02 1.149856189016e+01 0.0 
1.149856189016e+01 -3.147135339293e+02 0.0 
0.0 0.0 -1.346428343247e+02 
-6.738762809023e+01 7.550734605694e+00 0.0 
7.550734605694e+00 -1.771604505261e+02 0.0 
0.0 0.0 -7.296442358491e+01 
-2.381150301679e+01 1.637215446542e+00 0.0 
1.637215446542e+00 -6.240568676409e+01 0.0 
0.0 0.0 -2.546515693426e+01 
-1.277036698793e+02 4.198502151732e+00 0.0 
4.198502151732e+00 -2.918332874095e+02 0.0 
0.0 0.0 -1.254610871866e+02 
-6.933382995474e+01 6.487515804637e+00 0.0 
6.487515804637e+00 -1.457948120613e+02 0.0 
0.0 0.0 -6.413859260483e+01 
-8.241016755026e+01 4.126139285597e+00 0.0 
4.126139285597e+00 -2.154670620171e+02 0.0 
0.0 0.0 -8.896316887021e+01 
-1.312338591870e+02 9.838377849230e+00 0.0 
9.838377849230e+00 -3.066899087275e+02 0.0 
0.0 0.0 -1.309771303744e+02 
-1.060204126256e+02 3.737082998261e+00 0.0 
3.737082998261e+00 -2.344108679140e+02 0.0 
0.0 0.0 -1.017293841619e+02 
-1.217936302870e+02 4.651164761947e+00 0.0 
4.651164761947e+00 -3.002986706730e+02 0.0 
0.0 0.0 -1.262276902880e+02 
-6.869240529620e+01 1.092615560775e+01 0.0 
1.092615560775e+01 -1.701677852005e+02 0.0 
0.0 0.0 -7.125805714902e+01 
-1.955478230433e+01 3.254343526975e-01 0.0 
3.254343526975e-01 -5.196075683966e+01 0.0 
0.0 0.0 -2.105466174320e+01 
-1.436766315322e+02 3.344924174841e+00 0.0 
3.344924174841e+00 -3.454226112018e+02 0.0 
0.0 0.0 -1.463297728202e+02 
-9.230773740631e+01 8.487554041062e+00 0.0 
8.487554041062e+00 -2.073853923985e+02 0.0 
0.0 0.0 -8.950793894145e+01 
-1.104209249652e+02 1.067396553829e+01 0.0 
1.067396553829e+01 -2.641109443781e+02 0.0 
0.0 0.0 -1.119595608030e+02 
-1.274929917183e+02 9.187497221743e+00 0.0 
9.187497221743e+00 -2.936688501502e+02 0.0 
0.0 0.0 -1.259485525606e+02 
-1.581213600181e+01 9.264963649410e-02 0.0 
9.264963649410e-02 -3.468666779663e+01 0.0 
0.0 0.0 -1.474964113953e+01 
-1.210373277697e+02 3.276974736324e+00 0.0 
3.276974736324e+00 -2.996737760674e+02 0.0 
0.0 0.0 -1.258133311511e+02 
-4.433517400727e+01 1.129425830678e+01 0.0 
1.129425830678e+01 -1.146671138778e+02 0.0 
0.0 0.0 -4.730068636551e+01 
-9.823092123028e+01 3.216904884581e+00 0.0 
3.216904884581e+00 -2.148170770949e+02 0.0 
0.0 0.0 -9.351439949754e+01 
-9.535506347082e+01 2.493050421817e+00 0.0 
2.493050421817e+00 -2.420635634165e+02 0.0 
0.0 0.0 -1.008255880662e+02 
-6.700062069842e+01 6.766211775834e+00 0.0 
6.766211775834e+00 -1.768104565884e+02 0.0 
0.0 0.0 -7.274332318604e+01 
-1.347328510778e+02 3.855933045893e+00 0.0 
3.855933045893e+00 -3.267264100712e+02 0.0 
0.0 0.0 -1.380377783447e+02 
-9.472826709838e+01 9.292525967399e+00 0.0 
9.292525967399e+00 -2.220753291638e+02 0.0 
0.0 0.0 -9.464107887865e+01 
-5.894825046680e+01 6.536260129724e+00 0.0 
6.536260129724e+00 -1.588124988537e+02 0.0 
0.0 0.0 -6.492822479615e+01 
-9.671593045230e+01 1.013342721305e+01 0.0 
1.013342721305e+01 -2.161017058811e+02 0.0 
0.0 0.0 -9.344529090003e+01 
-2.183942587330e+01 2.157999051580e-01 0.0 
2.157999051580e-01 -5.289662206081e+01 0.0 
0.0 0.0 -2.202081438023e+01 
-1.124273546215e+02 1.039333665442e+01 0.0 
1.039333665442e+01 -2.550061942488e+02 0.0 
0.0 0.0 -1.098300646611e+02 
-1.185934273373e+02 1.016558168952e+01 0.0 
1.016558168952e+01 -2.863183227628e+02 0.0 
0.0 0.0 -1.210735250300e+02 
-1.346489188142e+02 9.625547527367e+00 0.0 
9.625547527367e+00 -3.082917050461e+02 0.0 
0.0 0.0 -1.324821871581e+02 
-1.202835087467e+02 1.064642962640e+01 0.0 
1.064642962640e+01 -2.745403275126e+02 0.0 
0.0 0.0 -1.180471508778e+02 
-4.459228896073e+01 6.035256575927e+00 0.0 
6.035256575927e+00 -1.237751614347e+02 0.0 
0.0 0.0 -5.011023511864e+01 
-1.213709008941e+02 3.757875077928e+00 0.0 
3.757875077928e+00 -2.991114414625e+02 0.0 
0.0 0.0 -1.257447027070e+02 
-1.285113440269e+02 2.052766176008e+00 0.0 
2.052766176008e+00 -2.957703535505e+02 0.0 
0.0 0.0 -1.268845092732e+02 
-1.449440881467e+02 1.199852197391e+01 0.0 
1.199852197391e+01 -3.404102725176e+02 0.0 
0.0 0.0 -1.452063081993e+02 
-1.232630587918e+02 1.065534624671e+01 0.0 
1.065534624671e+01 -2.947233991511e+02 0.0 
0.0 0.0 -1.249959373829e+02 
-7.224716692177e+01 1.022846965411e+01 0.0 
1.022846965411e+01 -1.814164533836e+02 0.0 
0.0 0.0 -7.569908609162e+01 
-1.045566108387e+02 1.023556788294e+01 0.0 
1.023556788294e+01 -2.355139556522e+02 0.0 
0.0 0.0 -1.016211699473e+02 
-1.377100320349e+02 1.290382514580e+00 0.0 
1.290382514580e+00 -3.330080196929e+02 0.0 
0.0 0.0 -1.408154155183e+02 
-8.914742045801e+01 9.408522182357e-01 0.0 
9.408522182357e-01 -2.258136160441e+02 0.0 
0.0 0.0 -9.408831095063e+01 
-1.156277460563e+02 8.907166993320e+00 0.0 
8.907166993320e+00 -2.653499498509e+02 0.0 
0.0 0.0 -1.138933087722e+02 
-1.009688414838e+02 1.429769314287e+00 0.0 
1.429769314287e+00 -2.243900492411e+02 0.0 
0.0 0.0 -9.720766721746e+01 
-1.304241788150e+02 4.147044180040e+00 0.0 
4.147044180040e+00 -3.180108028113e+02 0.0 
0.0 0.0 -1.341304944879e+02 
-1.265187379385e+02 5.360017983363e+00 0.0 
5.360017983363e+00 -3.101762871589e+02 0.0 
0.0 0.0 -1.306085075292e+02 
-6.605900084074e+01 5.527222935172e-02 0.0 
5.527222935172e-02 -1.452157250993e+02 0.0 
0.0 0.0 -6.298241778200e+01 
-6.601402067893e+01 -1.305566359051e-01 0.0 
-1.305566359051e-01 -1.451711584608e+02 0.0 
0.0 0.0 -6.295555374191e+01 
-1.062147751705e+02 6.165154555505e+00 0.0 
6.165154555505e+00 -2.317445294380e+02 0.0 
0.0 0.0 -1.009877913826e+02 
-1.078672764513e+02 8.694852797686e+00 0.0 
8.694852797686e+00 -2.459826605744e+02 0.0 
0.0 0.0 -1.057549811077e+02 
-9.936290301666e+01 2.376600500030e+00 0.0 
2.376600500030e+00 -2.507852010370e+02 0.0 
0.0 0.0 -1.046444312161e+02 
-1.057642849119e+02 8.237584327842e+00 0.0 
8.237584327842e+00 -2.321298878404e+02 0.0 
0.0 0.0 -1.009682518257e+02 
-9.011830429620e+01 9.328618720976e+00 0.0 
9.328618720976e+00 -2.144199653537e+02 0.0 
0.0 0.0 -9.096148089497e+01 
-1.347743804644e+02 7.844435026680e+00 0.0 
7.844435026680e+00 -3.256375209866e+02 0.0 
0.0 0.0 -1.377235704353e+02 
-7.267340242540e+01 9.070362213198e+00 0.0 
9.070362213198e+00 -1.813492820838e+02 0.0 
0.0 0.0 -7.580680535275e+01 
-1.415237694720e+02 4.597501205341e+00 0.0 
4.597501205341e+00 -3.289950474554e+02 0.0 
0.0 0.0 -1.407556450782e+02 
-8.154489624171e+01 1.616538252078e+00 0.0 
1.616538252078e+00 -1.739139797324e+02 0.0 
0.0 0.0 -7.623766279224e+01 
-8.626057878009e+01 1.114594639745e+01 0.0 
1.114594639745e+01 -2.033674663566e+02 0.0 
0.0 0.0 -8.648841354101e+01 
-9.443586682290e+01 1.176102378707e+00 0.0 
1.176102378707e+00 -2.413702711466e+02 0.0 
0.0 0.0 -1.003418413908e+02 
-4.076668201816e+01 7.066367939733e+00 0.0 
7.066367939733e+00 -1.136037145694e+02 0.0 
0.0 0.0 -4.591111897626e+01 
-8.313297532318e+01 2.113009762471e+00 0.0 
2.113009762471e+00 -2.142434609999e+02 0.0 
0.0 0.0 -8.881293089692e+01 
-1.000792189811e+02 8.563106304895e+00 0.0 
8.563106304895e+00 -2.266605459197e+02 0.0 
0.0 0.0 -9.762192947025e+01 
-9.295296492380e+01 7.371872462613e+00 0.0 
7.371872462613e+00 -2.046524229598e+02 0.0 
0.0 0.0 -8.888161636507e+01 
-1.010235689957e+02 2.003464088455e+00 0.0 
2.003464088455e+00 -2.232860020957e+02 0.0 
0.0 0.0 -9.689287132742e+01 
-1.086045970344e+02 6.921738486894e+00 0.0 
6.921738486894e+00 -2.417488285638e+02 0.0 
0.0 0.0 -1.047060276795e+02 
-1.132894364455e+02 8.636253143167e+00 0.0 
8.636253143167e+00 -2.514763456274e+02 0.0 
0.0 0.0 -1.090297346219e+02 
-2.322506877675e+01 6.618641114015e-02 0.0 
6.618641114015e-02 -5.904242079023e+01 0.0 
0.0 0.0 -2.428024687009e+01 
-7.797197801837e+01 3.086572624146e-01 0.0 
3.086572624146e-01 -2.032178297114e+02 0.0 
0.0 0.0 -8.395694231892e+01 
-6.976924111608e+01 9.104725545891e+00 0.0 
9.104725545891e+00 -1.464168211970e+02 0.0 
0.0 0.0 -6.445581869393e+01 
-1.010602961749e+02 5.386530184199e+00 0.0 
5.386530184199e+00 -2.211375597045e+02 0.0 
0.0 0.0 -9.625935676383e+01 
-1.060715597719e+02 7.151819510865e+00 0.0 
7.151819510865e+00 -2.316484792430e+02 0.0 
0.0 0.0 -1.009160117045e+02 
-1.309143122771e+02 8.815446514096e+00 0.0 
8.815446514096e+00 -3.145529059251e+02 0.0 
0.0 0.0 -1.332401654607e+02 
-3.423331157326e+01 -8.153712116781e-01 0.0 
-8.153712116781e-01 -8.896088764425e+01 0.0 
0.0 0.0 -3.655825976525e+01 
-3.225882497928e+01 1.936863971815e+00 0.0 
1.936863971815e+00 -8.928246765164e+01 0.0 
0.0 0.0 -3.606238778928e+01 
-8.794703539312e+01 8.931795282741e+00 0.0 
8.931795282741e+00 -1.994535528677e+02 0.0 
0.0 0.0 -8.582017647826e+01 
-7.899769827060e+01 1.596364510576e+00 0.0 
1.596364510576e+00 -2.039306905233e+02 0.0 
0.0 0.0 -8.447851663817e+01 
-6.258982798362e+01 2.432237709898e+00 0.0 
2.432237709898e+00 -1.283636600792e+02 0.0 
0.0 0.0 -5.688604641885e+01 
-6.674958867314e+01 2.191398981504e+00 0.0 
2.191398981504e+00 -1.382641932027e+02 0.0 
0.0 0.0 -6.110413456275e+01 
-1.021980392100e+02 3.765413057207e+00 0.0 
3.765413057207e+00 -2.240816654884e+02 0.0 
0.0 0.0 -9.748391140952e+01 
-2.689450309020e+01 8.821160318025e+00 0.0 
8.821160318025e+00 -7.462189176332e+01 0.0 
0.0 0.0 -3.005491845606e+01 
-9.015608211582e+01 6.582263572057e-01 0.0 
6.582263572057e-01 -2.311162501084e+02 0.0 
0.0 0.0 -9.598169966726e+01 
-1.178293911311e+02 8.156676038243e+00 0.0 
8.156676038243e+00 -2.897555624762e+02 0.0 
0.0 0.0 -1.218754860822e+02 
-3.016367663667e+01 1.809484064883e+00 0.0 
1.809484064883e+00 -8.836509135135e+01 0.0 
0.0 0.0 -3.515863039641e+01 
-1.418689019809e+02 1.104389745263e+01 0.0 
1.104389745263e+01 -3.308836940114e+02 0.0 
0.0 0.0 -1.414257787977e+02 
-1.212018132625e+02 3.908303083539e+00 0.0 
3.908303083539e+00 -2.747393546316e+02 0.0 
0.0 0.0 -1.183823503682e+02 
-8.674240773645e+01 1.547105577834e+00 0.0 
1.547105577834e+00 -2.213208591149e+02 0.0 
0.0 0.0 -9.201898005541e+01 
-1.249820135682e+02 2.125037467826e+00 0.0 
2.125037467826e+00 -3.072768093268e+02 0.0 
0.0 0.0 -1.292776468685e+02 
-1.628874005407e+01 -5.692322695542e-01 0.0 
-5.692322695542e-01 -4.233658424361e+01 0.0 
0.0 0.0 -1.718759728930e+01 
-1.132450945625e+02 7.381628910198e+00 0.0 
7.381628910198e+00 -2.808801506924e+02 0.0 
0.0 0.0 -1.178375735765e+02 
-9.222239253014e+01 1.054550988898e+01 0.0 
1.054550988898e+01 -2.077799094028e+02 0.0 
0.0 0.0 -8.960069057989e+01 
-1.652032313132e+01 -4.743311351677e-01 0.0 
-4.743311351677e-01 -4.224814123793e+01 0.0 
0.0 0.0 -1.723053931077e+01 
-1.203286826145e+02 2.327132064035e+00 0.0 
2.327132064035e+00 -2.741652775754e+02 0.0 
0.0 0.0 -1.179481880570e+02 
-2.894468556987e+01 2.578089810978e+00 0.0 
2.578089810978e+00 -8.035761079142e+01 0.0 
0.0 0.0 -3.239068890839e+01 
-1.020962033540e+02 7.440775521655e+00 0.0 
7.440775521655e+00 -2.220260447383e+02 0.0 
0.0 0.0 -9.683667442769e+01 
-9.329199868443e+01 9.555136088230e+00 0.0 
9.555136088230e+00 -2.052174086196e+02 0.0 
0.0 0.0 -8.915282219120e+01 
-7.924819772427e+01 5.584824986637e+00 0.0 
5.584824986637e+00 -2.066326315849e+02 0.0 
0.0 0.0 -8.536424879274e+01 
-9.910186694073e+01 3.726642567233e+00 0.0 
3.726642567233e+00 -2.529486526200e+02 0.0 
0.0 0.0 -1.052151558682e+02 
-1.239096421363e+02 2.850978717816e+00 0.0 
2.850978717816e+00 -2.831961972637e+02 0.0 
0.0 0.0 -1.217317518200e+02 
-1.078883390711e+02 4.158330074138e+00 0.0 
4.158330074138e+00 -2.719134332250e+02 0.0 
0.0 0.0 -1.135405316888e+02 
-9.132773624073e+01 9.206380510761e+00 0.0 
9.206380510761e+00 -2.107904058389e+02 0.0 
0.0 0.0 -9.023544262390e+01 
-8.762266921933e+01 1.092870733260e+01 0.0 
1.092870733260e+01 -1.997372644644e+02 0.0 
0.0 0.0 -8.580798010513e+01 
-1.450752004166e+01 9.809646144344e+00 0.0 
9.809646144344e+00 -1.405214174616e+01 0.0 
0.0 0.0 -8.167898536346e+00 
-2.451650984088e+01 1.072506919490e+00 0.0 
1.072506919490e+00 -7.048605015342e+01 0.0 
0.0 0.0 -2.810076799829e+01 
-1.238332297316e+02 1.095766768042e+01 0.0 
1.095766768042e+01 -2.851406925515e+02 0.0 
0.0 0.0 -1.222921766849e+02 
-9.438348166363e+01 4.015047604215e+00 0.0 
4.015047604215e+00 -2.036350863280e+02 0.0 
0.0 0.0 -8.900557039750e+01 
-1.269379944034e+02 9.632768925956e+00 0.0 
9.632768925956e+00 -2.954334364579e+02 0.0 
0.0 0.0 -1.263114292584e+02 
-4.479669674800e+01 1.039093356190e+01 0.0 
1.039093356190e+01 -1.146668170466e+02 0.0 
0.0 0.0 -4.743905413838e+01 
-1.164122658983e+02 4.595231061472e+00 0.0 
4.595231061472e+00 -2.608581334187e+02 0.0 
0.0 0.0 -1.127811197951e+02 
-1.280567333504e+02 1.097370386892e+01 0.0 
1.097370386892e+01 -2.940958302631e+02 0.0 
0.0 0.0 -1.262457690840e+02 
-6.970686513703e+01 9.197311063848e-01 0.0 
9.197311063848e-01 -1.455433989340e+02 0.0 
0.0 0.0 -6.417507922132e+01 
-1.232494997120e+02 9.260264912295e+00 0.0 
9.260264912295e+00 -2.844701988725e+02 0.0 
0.0 0.0 -1.219159095753e+02 
-1.256180057888e+02 3.521001519312e+00 0.0 
3.521001519312e+00 -3.078624116447e+02 0.0 
0.0 0.0 -1.296441252301e+02 
-1.035643900307e+02 8.922901678999e+00 0.0 
8.922901678999e+00 -2.377247100579e+02 0.0 
0.0 0.0 -1.019867300266e+02 
-8.610987284767e+01 7.453276468322e-01 0.0 
7.453276468322e-01 -2.223285582520e+02 0.0 
0.0 0.0 -9.213152932989e+01 
-9.132626495784e+01 2.605134282073e+00 0.0 
2.605134282073e+00 -2.332524194096e+02 0.0 
0.0 0.0 -9.697360531022e+01 
-1.290518759573e+02 6.077362969506e+00 0.0 
6.077362969506e+00 -2.932086153781e+02 0.0 
0.0 0.0 -1.262781474006e+02 
-9.058188568663e+01 3.280334133399e+00 0.0 
3.280334133399e+00 -2.341693387841e+02 0.0 
0.0 0.0 -9.702536734121e+01 
-9.656129490362e+01 8.044935973216e+00 0.0 
8.044935973216e+00 -2.156277097093e+02 0.0 
0.0 0.0 -9.325670138389e+01 
-8.907178605578e+01 8.817956268781e+00 0.0 
8.817956268781e+00 -2.182843264772e+02 0.0 
0.0 0.0 -9.180683375990e+01 
-1.169337620830e+02 4.616007519054e+00 0.0 
4.616007519054e+00 -2.909972511375e+02 0.0 
0.0 0.0 -1.219793039661e+02 
-8.151577325655e+01 1.106013816563e+01 0.0 
1.106013816563e+01 -1.958593935358e+02 0.0 
0.0 0.0 -8.281255003770e+01 
-4.722736311032e+01 4.808389388180e+00 0.0 
4.808389388180e+00 -1.330316983061e+02 0.0 
0.0 0.0 -5.367771842493e+01 
-9.119712906092e+01 5.895342790986e+00 0.0 
5.895342790986e+00 -2.332317699623e+02 0.0 
0.0 0.0 -9.692866970696e+01 
-5.107267847130e+01 6.224469416206e+00 0.0 
6.224469416206e+00 -1.409556074863e+02 0.0 
0.0 0.0 -5.720848578728e+01 
-1.048482538524e+02 6.173029401133e+00 0.0 
6.173029401133e+00 -2.313196443944e+02 0.0 
0.0 0.0 -1.004503694740e+02 
-5.189924542297e+01 6.670857344508e+00 0.0 
6.670857344508e+00 -1.414050830093e+02 0.0 
0.0 0.0 -5.759129852970e+01 
-1.017433153070e+02 8.639790634212e+00 0.0 
8.639790634212e+00 -2.230045862350e+02 0.0 
0.0 0.0 -9.702437046261e+01 
-1.273932019077e+02 1.048482697135e+01 0.0 
1.048482697135e+01 -3.053620472690e+02 0.0 
0.0 0.0 -1.294265747530e+02 
-1.223030343881e+02 8.455478016714e+00 0.0 
8.455478016714e+00 -2.962666655022e+02 0.0 
0.0 0.0 -1.251709099671e+02 
-7.740622303166e+01 9.411834398787e+00 0.0 
9.411834398787e+00 -1.885530578965e+02 0.0 
0.0 0.0 -7.938778427846e+01 
-9.715596214825e+01 1.987722048078e+00 0.0 
1.987722048078e+00 -2.130269637346e+02 0.0 
0.0 0.0 -9.265487776485e+01 
-1.293310693753e+02 1.855213545021e+00 0.0 
1.855213545021e+00 -3.160137693881e+02 0.0 
0.0 0.0 -1.332034516290e+02 
-1.298628931003e+02 3.263543807486e+00 0.0 
3.263543807486e+00 -3.165629353362e+02 0.0 
0.0 0.0 -1.335277485309e+02 
-2.123596728362e+01 7.876448216193e+00 0.0 
7.876448216193e+00 -5.786767892537e+01 0.0 
0.0 0.0 -2.333109386270e+01 
-1.046517594269e+02 7.246727033128e+00 0.0 
7.246727033128e+00 -2.327601384394e+02 0.0 
0.0 0.0 -1.008235693599e+02 
-1.435309891386e+02 1.594076866802e+00 0.0 
1.594076866802e+00 -3.447899254232e+02 0.0 
0.0 0.0 -1.460962743685e+02 
-4.853986634176e+01 3.737136044432e+00 0.0 
3.737136044432e+00 -9.571178307688e+01 0.0 
0.0 0.0 -4.287549482559e+01 
-9.491828828422e+01 1.905989088107e+00 0.0 
1.905989088107e+00 -2.403374704623e+02 0.0 
0.0 0.0 -1.001767276239e+02 
-1.394868469172e+01 9.351629036693e+00 0.0 
9.351629036693e+00 -1.515486934505e+01 0.0 
0.0 0.0 -8.331066211032e+00 
-1.336542501335e+02 1.570530184955e+00 0.0 
1.570530184955e+00 -3.246673048669e+02 0.0 
0.0 0.0 -1.370964665001e+02 
-4.343943102204e+01 5.779906431991e+00 0.0 
5.779906431991e+00 -1.232302513092e+02 0.0 
0.0 0.0 -4.960090469937e+01 
-9.187273539038e+01 -3.680344643168e-01 0.0 
-3.680344643168e-01 -2.320570551016e+02 0.0 
0.0 0.0 -9.677893714758e+01 
-1.102620923941e+02 8.995177876546e+00 0.0 
8.995177876546e+00 -2.637565243707e+02 0.0 
0.0 0.0 -1.118055850294e+02 
-9.842589692493e+01 3.814421682301e+00 0.0 
3.814421682301e+00 -2.139063274062e+02 0.0 
0.0 0.0 -9.329966729934e+01 
-9.349882823450e+01 2.107942358003e+00 0.0 
2.107942358003e+00 -2.029035877136e+02 0.0 
0.0 0.0 -8.852072478442e+01 
-9.575862691748e+01 8.900807898568e+00 0.0 
8.900807898568e+00 -2.185960849775e+02 0.0 
0.0 0.0 -9.390641356851e+01 
-5.433837055135e+01 2.598676675058e+00 0.0 
2.598676675058e+00 -1.089169246035e+02 0.0 
0.0 0.0 -4.857658854646e+01 
-5.859260490827e+01 2.308698542701e+00 0.0 
2.308698542701e+00 -1.187584243616e+02 0.0 
0.0 0.0 -5.280530878097e+01 
-1.340309492173e+02 2.948441097179e+00 0.0 
2.948441097179e+00 -3.251507163081e+02 0.0 
0.0 0.0 -1.373544996576e+02 
-1.043469113316e+02 5.789788351740e+00 0.0 
5.789788351740e+00 -2.628102515128e+02 0.0 
0.0 0.0 -1.097471488533e+02 
-8.742958574597e+01 6.044700223080e+00 0.0 
6.044700223080e+00 -2.249572277996e+02 0.0 
0.0 0.0 -9.331604406367e+01 
-1.125832370384e+02 6.052315566372e+00 0.0 
6.052315566372e+00 -2.803615721428e+02 0.0 
0.0 0.0 -1.174834427544e+02 
-8.282545925208e+01 5.605763933627e+00 0.0 
5.605763933627e+00 -2.148602809159e+02 0.0 
0.0 0.0 -8.890572205038e+01 
-4.803426995536e+01 7.656782738479e+00 0.0 
7.656782738479e+00 -1.311360256264e+02 0.0 
0.0 0.0 -5.335108867454e+01 
-5.328044003472e+01 4.564314058765e-01 0.0 
4.564314058765e-01 -1.077716542886e+02 0.0 
0.0 0.0 -4.791562829701e+01 
-8.631187498511e+01 3.261928673357e+00 0.0 
3.261928673357e+00 -1.844815776794e+02 0.0 
0.0 0.0 -8.083803579936e+01 
-6.613987160466e+01 -2.482191703962e-02 0.0 
-2.482191703962e-02 -1.453865388644e+02 0.0 
0.0 0.0 -6.305792314072e+01 
-1.226807905260e+02 9.886999188165e+00 0.0 
9.886999188165e+00 -2.967173052652e+02 0.0 
0.0 0.0 -1.254194287374e+02 
-7.683457962311e+01 1.076078918021e+01 0.0 
1.076078918021e+01 -1.885904290942e+02 0.0 
0.0 0.0 -7.922750261519e+01 
-1.401270210606e+02 1.002690163599e+01 0.0 
1.002690163599e+01 -3.319647511631e+02 0.0 
0.0 0.0 -1.412275316671e+02 
-1.324406631357e+02 -9.663909322063e-02 0.0 
-9.663909322063e-02 -3.215164395300e+02 0.0 
0.0 0.0 -1.357871307997e+02 
-8.770243152184e+01 7.517668986174e+00 0.0 
7.517668986174e+00 -2.237899521153e+02 0.0 
0.0 0.0 -9.304771509114e+01 
-1.490035762445e+02 3.859907352245e+00 0.0 
3.859907352245e+00 -3.552990531886e+02 0.0 
0.0 0.0 -1.508907888299e+02 
-5.581975476744e+01 5.842276973538e+00 0.0 
5.842276973538e+00 -1.514185622042e+02 0.0 
0.0 0.0 -6.177149509150e+01 
-1.354678678212e+02 9.945332803748e+00 0.0 
9.945332803748e+00 -3.210486900976e+02 0.0 
0.0 0.0 -1.365549673756e+02 
-9.557393815951e+01 1.082456271932e+01 0.0 
1.082456271932e+01 -2.189323039541e+02 0.0 
0.0 0.0 -9.395187263409e+01 
-1.070286659823e+02 9.151893038953e+00 0.0 
9.151893038953e+00 -2.487174676457e+02 0.0 
0.0 0.0 -1.063238400884e+02 
-1.316413064034e+02 8.274312710394e+00 0.0 
8.274312710394e+00 -3.190883344176e+02 0.0 
0.0 0.0 -1.348188922463e+02 
-6.371538188000e+01 1.109758222660e+00 0.0 
1.109758222660e+00 -1.677612719282e+02 0.0 
0.0 0.0 -6.904299614245e+01 
-1.006682631543e+02 7.623409637904e+00 0.0 
7.623409637904e+00 -2.241039401360e+02 0.0 
0.0 0.0 -9.703166098709e+01 
-8.340791517707e+01 6.564331907292e+00 0.0 
6.564331907292e+00 -2.153162506246e+02 0.0 
0.0 0.0 -8.921724974051e+01 
-9.754432080729e+01 9.065089702055e+00 0.0 
9.065089702055e+00 -2.139441319573e+02 0.0 
0.0 0.0 -9.304653582938e+01 
-4.856917686330e+01 1.206481385631e+01 0.0 
1.206481385631e+01 -1.201258935824e+02 0.0 
0.0 0.0 -5.020852113370e+01 
-1.106149565088e+02 9.210116873466e+00 0.0 
9.210116873466e+00 -2.598950876113e+02 0.0 
0.0 0.0 -1.107530132360e+02 
-7.846641794893e+01 4.657806211003e+00 0.0 
4.657806211003e+00 -2.060894167825e+02 0.0 
0.0 0.0 -8.496675041942e+01 
-9.853027506042e+01 1.042468068007e+00 0.0 
1.042468068007e+00 -2.501158638966e+02 0.0 
0.0 0.0 -1.041938416871e+02 
-9.699500099301e+01 6.910040582778e+00 0.0 
6.910040582778e+00 -2.132986145746e+02 0.0 
0.0 0.0 -9.268808467028e+01 
-1.409515983653e+01 5.900716308362e+00 0.0 
5.900716308362e+00 -2.509799935506e+01 0.0 
0.0 0.0 -1.135794775748e+01 
-9.741490847878e+01 8.741126353359e+00 0.0 
8.741126353359e+00 -2.371066323425e+02 0.0 
0.0 0.0 -9.995646224639e+01 
-1.638100267841e+01 1.011145082196e+01 0.0 
1.011145082196e+01 -3.254778625236e+01 0.0 
0.0 0.0 -1.427863667923e+01 
-2.472680314379e+01 -1.658569577119e+00 0.0 
-1.658569577119e+00 -6.324803394228e+01 0.0 
0.0 0.0 -2.599245112582e+01 
-9.412143436429e+01 5.704718149230e-01 0.0 
5.704718149230e-01 -2.396657326267e+02 0.0 
0.0 0.0 -9.973615009729e+01 
-1.206338175245e+02 9.952284502456e+00 0.0 
9.952284502456e+00 -2.724684565607e+02 0.0 
0.0 0.0 -1.175306822256e+02 
-9.716071872715e+01 2.717590089677e+00 0.0 
2.717590089677e+00 -2.117421944141e+02 0.0 
0.0 0.0 -9.227087394239e+01 
-4.602988683505e+01 3.093349535069e+00 0.0 
3.093349535069e+00 -8.985127694831e+01 0.0 
0.0 0.0 -4.036434913501e+01 
-1.404623362211e+02 4.537427762282e+00 0.0 
4.537427762282e+00 -3.290787845159e+02 0.0 
0.0 0.0 -1.404623362211e+02 
-1.405239012614e+01 8.750096581502e+00 0.0 
8.750096581502e+00 -1.135136426586e+01 0.0 
0.0 0.0 -7.328704334018e+00 
-5.021442531446e+01 2.570540488844e+00 0.0 
2.570540488844e+00 -9.940401990140e+01 0.0 
0.0 0.0 -4.448553356476e+01 
-9.070888265255e+01 4.536587144046e+00 0.0 
4.536587144046e+00 -2.338294484343e+02 0.0 
0.0 0.0 -9.696149932607e+01 
-9.056440934225e+01 1.524532142767e+00 0.0 
1.524532142767e+00 -2.299125688343e+02 0.0 
0.0 0.0 -9.574309345296e+01 
-6.681407893651e+01 4.209106337243e+00 0.0 
4.209106337243e+00 -1.358403897495e+02 0.0 
0.0 0.0 -6.039634060579e+01 
-5.878295030181e+01 2.715671305388e+00 0.0 
2.715671305388e+00 -1.610130419774e+02 0.0 
0.0 0.0 -6.553879768377e+01 
-9.567724228358e+01 5.256871525303e+00 0.0 
5.256871525303e+00 -2.439014266064e+02 0.0 
0.0 0.0 -1.014736006670e+02 
-1.001280262078e+02 1.055054957994e+01 0.0 
1.055054957994e+01 -2.271075940797e+02 0.0 
0.0 0.0 -9.777068608624e+01 
-1.058746041357e+02 8.792733418137e+00 0.0 
8.792733418137e+00 -2.561396024468e+02 0.0 
0.0 0.0 -1.082042619748e+02 
-1.232850064973e+02 6.919433034720e+00 0.0 
6.919433034720e+00 -2.796269784250e+02 0.0 
0.0 0.0 -1.204735954767e+02 
-2.273119517636e+01 6.981132588550e+00 0.0 
6.981132588550e+00 -6.829538736185e+01 0.0 
0.0 0.0 -2.690797476146e+01 
-8.587640286100e+01 2.068974098341e-01 0.0 
2.068974098341e-01 -2.206571455000e+02 0.0 
0.0 0.0 -9.156006450831e+01 
-9.375030021737e+01 9.627883066274e-02 0.0 
9.627883066274e-02 -2.379048320143e+02 0.0 
0.0 0.0 -9.909653966950e+01 
-4.843492139120e+01 -6.653873749344e-02 0.0 
-6.653873749344e-02 -1.269620728216e+02 0.0 
0.0 0.0 -5.221909826384e+01 
-7.352647425753e+01 7.487180080690e-01 0.0 
7.487180080690e-01 -1.552522000816e+02 0.0 
0.0 0.0 -6.823360230174e+01 
-9.832005548850e+01 4.630632350443e+00 0.0 
4.630632350443e+00 -2.126183525942e+02 0.0 
0.0 0.0 -9.288152242480e+01 
-1.193116859533e+02 1.003502919114e+00 0.0 
1.003502919114e+00 -2.933434829364e+02 0.0 
0.0 0.0 -1.233965506669e+02 
-1.719868159642e+01 -5.251946644119e-01 0.0 
-5.251946644119e-01 -4.243925298425e+01 0.0 
0.0 0.0 -1.749138037420e+01 
-1.517462675261e+01 2.844203036587e-01 0.0 
2.844203036587e-01 -2.610149274676e+01 0.0 
0.0 0.0 -1.198283584981e+01 
-3.433929018102e+01 -6.423025764060e-01 0.0 
-6.423025764060e-01 -8.861969332883e+01 0.0 
0.0 0.0 -3.648769505295e+01 
-9.439141791218e+01 1.473985472484e+00 0.0 
1.473985472484e+00 -2.384986148019e+02 0.0 
0.0 0.0 -9.946700981423e+01 
-6.344869481957e+01 6.357444985480e+00 0.0 
6.357444985480e+00 -1.692729292887e+02 0.0 
0.0 0.0 -6.941648723248e+01 
-5.620593763363e+01 3.873346873535e+00 0.0 
3.873346873535e+00 -1.526320781087e+02 0.0 
0.0 0.0 -6.225140472271e+01 
-4.845922158959e+01 5.173515591327e+00 0.0 
5.173515591327e+00 -1.336321813630e+02 0.0 
0.0 0.0 -5.422742088577e+01 
-9.810567442339e+01 4.699323569925e-01 0.0 
4.699323569925e-01 -2.482572131512e+02 0.0 
0.0 0.0 -1.035088662724e+02 
-1.048860838422e+02 4.128449117741e+00 0.0 
4.128449117741e+00 -2.306161674268e+02 0.0 
0.0 0.0 -1.002506753807e+02 
-9.767427257774e+01 8.488162816829e-03 0.0 
8.488162816829e-03 -2.464823217771e+02 0.0 
0.0 0.0 -1.028469783065e+02 
-6.273286187772e+01 5.697364729932e+00 0.0 
5.697364729932e+00 -1.688155294286e+02 0.0 
0.0 0.0 -6.906451739191e+01 
-1.052907296300e+02 9.355167488807e+00 0.0 
9.355167488807e+00 -2.334244592232e+02 0.0 
0.0 0.0 -1.012145566560e+02 
-8.079883642171e+01 2.639362541774e-01 0.0 
2.639362541774e-01 -1.759041943209e+02 0.0 
0.0 0.0 -7.661090922279e+01 
-1.189201905834e+02 9.144628430243e+00 0.0 
9.144628430243e+00 -2.833338823740e+02 0.0 
0.0 0.0 -1.202762218872e+02 
-9.822183801342e+01 1.406402729442e+00 0.0 
1.406402729442e+00 -2.470487916632e+02 0.0 
0.0 0.0 -1.031811889030e+02 
-9.880349723341e+01 1.824263346508e+00 0.0 
1.824263346508e+00 -2.488920559035e+02 0.0 
0.0 0.0 -1.039086659411e+02 
-3.755077344971e+01 3.855968578331e+00 0.0 
3.855968578331e+00 -7.032580994741e+01 0.0 
0.0 0.0 -3.196297501914e+01 
-6.735785824721e+01 5.662093500325e+00 0.0 
5.662093500325e+00 -1.789953781938e+02 0.0 
0.0 0.0 -7.350597093230e+01 
-1.015908362449e+02 -9.252027621102e-02 0.0 
-9.252027621102e-02 -2.549557886910e+02 0.0 
0.0 0.0 -1.065639874808e+02 
-9.565834870329e+01 -5.874577322594e-01 0.0 
-5.874577322594e-01 -2.162851714164e+02 0.0 
0.0 0.0 -9.318305603590e+01 
-8.813074336802e+01 -6.588313488369e-01 0.0 
-6.588313488369e-01 -1.981048477695e+02 0.0 
0.0 0.0 -8.547067734127e+01 
-4.181707167548e+01 3.302084541812e+00 0.0 
3.302084541812e+00 -8.028514190908e+01 0.0 
0.0 0.0 -3.623066407537e+01 
-1.021117196808e+02 3.460485134805e-01 0.0 
3.460485134805e-01 -2.568611910452e+02 0.0 
0.0 0.0 -1.072918732178e+02 
-5.649563405094e+01 2.328076759477e+00 0.0 
2.328076759477e+00 -1.524316881868e+02 0.0 
0.0 0.0 -6.227819667131e+01 
-1.922426528904e+01 1.074686456974e+01 0.0 
1.074686456974e+01 -4.899663871290e+01 0.0 
0.0 0.0 -2.006627120058e+01 
-1.365282502021e+02 1.149297060867e+01 0.0 
1.149297060867e+01 -3.219942934478e+02 0.0 
0.0 0.0 -1.371567630950e+02 
-3.064100158246e+01 -1.903239078794e+00 0.0 
-1.903239078794e+00 -8.021623105897e+01 0.0 
0.0 0.0 -3.285716979243e+01 
-5.891312320832e+01 1.259940157360e+00 0.0 
1.259940157360e+00 -1.604232661453e+02 0.0 
0.0 0.0 -6.540091680608e+01 
-9.339594947249e+01 1.057366350608e+01 0.0 
1.057366350608e+01 -2.259341867173e+02 0.0 
0.0 0.0 -9.539904085693e+01 
-4.475950707715e+01 6.904502023144e-01 0.0 
6.904502023144e-01 -8.827423264348e+01 0.0 
0.0 0.0 -3.951012191619e+01 
-1.021107159732e+02 1.317712927116e+00 0.0 
1.317712927116e+00 -2.556763333677e+02 0.0 
0.0 0.0 -1.069361148023e+02 
-4.622312551428e+01 7.187198139169e-01 0.0 
7.187198139169e-01 -1.192890488395e+02 0.0 
0.0 0.0 -4.925365230614e+01 
-7.792587559417e+01 2.578599261666e+00 0.0 
2.578599261666e+00 -1.636497155656e+02 0.0 
0.0 0.0 -7.207267734793e+01 
-1.026951763507e+02 1.716887159736e+00 0.0 
1.716887159736e+00 -2.574508090643e+02 0.0 
0.0 0.0 -1.076437956245e+02 
-8.327265388253e+01 5.103927532978e+00 0.0 
5.103927532978e+00 -2.160671113698e+02 0.0 
0.0 0.0 -8.940192957571e+01 
-9.104952094887e+01 1.979242994901e+00 0.0 
1.979242994901e+00 -2.317997135166e+02 0.0 
0.0 0.0 -9.645477033965e+01 
-1.586575846422e+01 3.793335996177e+00 0.0 
3.793335996177e+00 -3.167711430668e+01 0.0 
0.0 0.0 -1.386286183127e+01 
-1.187168361677e+02 1.008821367287e+00 0.0 
1.008821367287e+00 -2.738306674483e+02 0.0 
0.0 0.0 -1.173642510848e+02 
-6.748928753458e+01 3.997316745113e+00 0.0 
3.997316745113e+00 -1.796419469906e+02 0.0 
0.0 0.0 -7.373937035755e+01 
-1.309055009303e+02 7.996765017454e+00 0.0 
7.996765017454e+00 -3.172417397515e+02 0.0 
0.0 0.0 -1.340441722045e+02 
-1.070736854781e+02 1.097668069195e+01 0.0 
1.097668069195e+01 -2.492210479778e+02 0.0 
0.0 0.0 -1.064884200368e+02 
-1.061109950018e+02 1.957407595499e-01 0.0 
1.957407595499e-01 -2.654072761775e+02 0.0 
0.0 0.0 -1.110554813538e+02 
-1.065871139036e+02 1.547734824011e+00 0.0 
1.547734824011e+00 -2.659417059910e+02 0.0 
0.0 0.0 -1.113586459684e+02 
-5.871279642260e+01 4.511594926013e+00 0.0 
4.511594926013e+00 -1.605349773111e+02 0.0 
0.0 0.0 -6.537433212012e+01 
-2.278246302963e+01 -1.752625444298e+00 0.0 
-1.752625444298e+00 -5.440484899123e+01 0.0 
0.0 0.0 -2.275619360626e+01 
-1.270878701652e+01 4.882393493440e+00 0.0 
4.882393493440e+00 -3.065870642123e+01 0.0 
0.0 0.0 -1.261024803132e+01 
-1.101598165199e+02 2.859337397103e-02 0.0 
2.859337397103e-02 -2.739571253702e+02 0.0 
0.0 0.0 -1.148350825670e+02 
-1.308690979818e+02 7.054707202638e+00 0.0 
7.054707202638e+00 -3.188202348254e+02 0.0 
0.0 0.0 -1.345067998422e+02 
-5.666763471323e+01 1.252661802906e+00 0.0 
1.252661802906e+00 -1.513694356458e+02 0.0 
0.0 0.0 -6.201112110772e+01 
-1.083531693140e+02 7.882984515441e+00 0.0 
7.882984515441e+00 -2.435386276542e+02 0.0 
0.0 0.0 -1.051675390905e+02 
-4.403826714944e+01 4.328996389873e+00 0.0 
4.328996389873e+00 -8.530786920115e+01 0.0 
0.0 0.0 -3.840384090518e+01 
-1.094094849518e+02 8.995261491520e+00 0.0 
8.995261491520e+00 -2.425058514134e+02 0.0 
0.0 0.0 -1.051746009096e+02 
-1.504068252968e+02 6.356208332752e+00 0.0 
6.356208332752e+00 -3.597391282710e+02 0.0 
0.0 0.0 -1.526437860703e+02 
-1.542439489683e+01 -3.810584157376e-01 0.0 
-3.810584157376e-01 -7.081998595272e+00 0.0 
0.0 0.0 -6.351918047631e+00 
-1.393854933733e+02 5.788598753942e-01 0.0 
5.788598753942e-01 -3.265661512045e+02 0.0 
0.0 0.0 -1.393854933733e+02 
-1.635481291792e+02 8.600058252081e-01 0.0 
8.600058252081e-01 -3.829456347515e+02 0.0 
0.0 0.0 -1.635481291792e+02 
-7.492861953870e+01 7.876158457819e-01 0.0 
7.876158457819e-01 -1.664553128934e+02 0.0 
0.0 0.0 -7.201517972963e+01 
-6.762464806476e+01 2.679919832077e+00 0.0 
2.679919832077e+00 -1.793228396140e+02 0.0 
0.0 0.0 -7.368424630362e+01 
-1.035677137693e+02 1.081011095378e+01 0.0 
1.081011095378e+01 -2.381729166214e+02 0.0 
0.0 0.0 -1.021221891172e+02 
-5.952376953971e+01 7.164443033683e+00 0.0 
7.164443033683e+00 -1.591997900904e+02 0.0 
0.0 0.0 -6.521706788904e+01 
-2.208959739882e+01 -3.542890902296e-01 0.0 
-3.542890902296e-01 -5.504669995754e+01 0.0 
0.0 0.0 -2.274088920691e+01 
-1.320210955784e+01 8.059309711418e+00 0.0 
8.059309711418e+00 -1.350659257292e+01 0.0 
0.0 0.0 -7.612610639227e+00 
-1.259415266517e+02 2.005847151417e+00 0.0 
2.005847151417e+00 -2.906899153249e+02 0.0 
0.0 0.0 -1.245894325930e+02 
-1.023617128103e+02 5.418287934685e+00 0.0 
5.418287934685e+00 -2.222413466449e+02 0.0 
0.0 0.0 -9.698091783658e+01 
-7.090972720191e+01 2.240427468122e+00 0.0 
2.240427468122e+00 -1.490039953268e+02 0.0 
0.0 0.0 -6.557411675862e+01 
-1.503006685600e+02 1.249013457737e+01 0.0 
1.249013457737e+01 -3.504447000418e+02 0.0 
0.0 0.0 -1.498236105805e+02 
-3.855873442655e+01 6.682650124507e-01 0.0 
6.682650124507e-01 -9.982169322799e+01 0.0 
0.0 0.0 -4.111412829636e+01 
-1.506178051028e+02 1.260414214108e+01 0.0 
1.260414214108e+01 -3.528688339791e+02 0.0 
0.0 0.0 -1.506459917246e+02 
-1.010768788879e+02 3.399049215935e+00 0.0 
3.399049215935e+00 -2.212044838813e+02 0.0 
0.0 0.0 -9.628440883075e+01 
-6.763178274810e+01 1.721223223586e+00 0.0 
1.721223223586e+00 -1.781558295364e+02 0.0 
0.0 0.0 -7.333628368534e+01 
-9.917671986819e+01 9.144925630039e+00 0.0 
9.144925630039e+00 -2.297300788284e+02 0.0 
0.0 0.0 -9.827203960898e+01 
-6.262553706300e+01 9.684560774477e-01 0.0 
9.684560774477e-01 -1.688704174910e+02 0.0 
0.0 0.0 -6.904878636621e+01 
-2.219836692384e+01 1.096000029562e+01 0.0 
1.096000029562e+01 -5.172008622877e+01 0.0 
0.0 0.0 -2.177553594578e+01 
-5.892373410295e+01 1.932152852378e-01 0.0 
1.932152852378e-01 -1.588573194022e+02 0.0 
0.0 0.0 -6.493431605155e+01 
-1.086840870888e+02 4.865781833205e+00 0.0 
4.865781833205e+00 -2.402459678818e+02 0.0 
0.0 0.0 -1.042790164912e+02 
-1.375043284938e+02 1.892742814776e+00 0.0 
1.892742814776e+00 -3.318851930159e+02 0.0 
0.0 0.0 -1.404168564529e+02 
-6.254522254133e+01 2.214727351739e+00 0.0 
2.214727351739e+00 -1.697591105453e+02 0.0 
0.0 0.0 -6.929129992598e+01 
-1.122993917699e+02 7.606142316148e+00 0.0 
7.606142316148e+00 -2.523056712635e+02 0.0 
0.0 0.0 -1.089815189100e+02 
-1.226982630325e+01 -4.725184126799e-01 0.0 
-4.725184126799e-01 -8.369641254334e+00 0.0 
0.0 0.0 -6.693095790516e+00 
-6.252761599657e+01 3.833457582287e+00 0.0 
3.833457582287e+00 -1.698173919526e+02 0.0 
0.0 0.0 -6.930350238474e+01 
-1.140476928339e+02 5.834935595187e+00 0.0 
5.834935595187e+00 -2.523833531167e+02 0.0 
0.0 0.0 -1.095293137852e+02 
-5.861492907963e+01 -5.264508985502e-01 0.0 
-5.264508985502e-01 -1.563872866260e+02 0.0 
0.0 0.0 -6.410066471168e+01 
-5.302832467717e+01 6.053051513988e-01 0.0 
6.053051513988e-01 -1.411367968939e+02 0.0 
0.0 0.0 -5.784953647131e+01 
-9.897252103480e+01 1.093596646764e+01 0.0 
1.093596646764e+01 -2.300642822720e+02 0.0 
0.0 0.0 -9.831104099203e+01 
-2.838545033748e+01 -1.001364997714e+00 0.0 
-1.001364997714e+00 -7.758190196882e+01 0.0 
0.0 0.0 -3.139020569189e+01 
-2.813122725380e+01 4.355958928599e+00 0.0 
4.355958928599e+00 -4.936129478033e+01 0.0 
0.0 0.0 -2.284775661024e+01 
-3.339405241860e+01 4.318841411598e+00 0.0 
4.318841411598e+00 -6.109697122774e+01 0.0 
0.0 0.0 -2.794730709390e+01 
-5.136639849772e+01 -9.336434324184e-01 0.0 
-9.336434324184e-01 -1.376222841491e+02 0.0 
0.0 0.0 -5.629660479403e+01 
-9.149489844933e+01 5.609817868623e+00 0.0 
5.609817868623e+00 -2.344492861121e+02 0.0 
0.0 0.0 -9.738325536844e+01 
-8.549620091565e+01 9.222419502230e+00 0.0 
9.222419502230e+00 -2.070539751699e+02 0.0 
0.0 0.0 -8.736505282566e+01 
-1.130068980233e+02 9.630587234140e+00 0.0 
9.630587234140e+00 -2.529375329311e+02 0.0 
0.0 0.0 -1.093833292863e+02 
-1.310721703685e+02 6.944205438716e+00 0.0 
6.944205438716e+00 -3.005836650874e+02 0.0 
0.0 0.0 -1.290967506368e+02 
-3.584272741815e+01 1.095975245776e+00 0.0 
1.095975245776e+00 -6.878182295499e+01 0.0 
0.0 0.0 -3.098736511194e+01 
-1.037839714603e+02 1.149031561456e+00 0.0 
1.149031561456e+00 -2.358740909544e+02 0.0 
0.0 0.0 -1.014974187244e+02 
-1.338439655080e+02 9.124374159684e+00 0.0 
9.124374159684e+00 -3.092637393882e+02 0.0 
0.0 0.0 -1.325323114689e+02 
-5.487037368300e+01 5.302706747721e+00 0.0 
5.302706747721e+00 -1.508951192000e+02 0.0 
0.0 0.0 -6.132964786489e+01 
-1.453188841960e+01 1.001715728131e+01 0.0 
1.001715728131e+01 -3.176069335044e+01 0.0 
0.0 0.0 -1.348777453101e+01 
-5.026050031187e+01 6.630184979527e+00 0.0 
6.630184979527e+00 -9.717449942021e+01 0.0 
0.0 0.0 -4.383049991962e+01 
-8.733234685310e+01 4.711142821266e+00 0.0 
4.711142821266e+00 -2.253418994012e+02 0.0 
0.0 0.0 -9.340227387628e+01 
-1.123149125230e+02 6.619602660492e+00 0.0 
6.619602660492e+00 -2.506965049836e+02 0.0 
0.0 0.0 -1.085034252520e+02 
-8.640257770229e+01 3.670497737120e+00 0.0 
3.670497737120e+00 -2.247216807028e+02 0.0 
0.0 0.0 -9.293727752152e+01 
-2.016897157616e+01 6.094174448119e+00 0.0 
6.094174448119e+00 -5.318781164713e+01 0.0 
0.0 0.0 -2.160703496699e+01 
-9.998809842867e+01 6.105387543142e+00 0.0 
6.105387543142e+00 -2.530128891656e+02 0.0 
0.0 0.0 -1.055002962783e+02 
-2.665276623817e+01 1.037061045156e+01 0.0 
1.037061045156e+01 -5.534831874153e+01 0.0 
0.0 0.0 -2.420032549391e+01 
-8.505641574934e+01 1.063933379637e+01 0.0 
1.063933379637e+01 -2.071570049624e+02 0.0 
0.0 0.0 -8.726402621353e+01 
-9.477604264385e+01 4.060074650666e+00 0.0 
4.060074650666e+00 -2.432553583317e+02 0.0 
0.0 0.0 -1.010094202927e+02 
-1.026400401719e+02 9.250972885203e+00 0.0 
9.250972885203e+00 -2.408771593957e+02 0.0 
0.0 0.0 -1.026551598703e+02 
-9.428483194581e+01 1.085373598471e+00 0.0 
1.085373598471e+00 -2.115052864581e+02 0.0 
0.0 0.0 -9.133703552118e+01 
-5.253819762500e+01 1.181125204385e-01 0.0 
1.181125204385e-01 -1.383257099738e+02 0.0 
0.0 0.0 -5.685917227964e+01 
-1.684945137257e+01 9.415234546875e+00 0.0 
9.415234546875e+00 -4.533464739153e+01 0.0 
0.0 0.0 -1.825522962923e+01 
-1.034699117126e+02 4.470290286070e+00 0.0 
4.470290286070e+00 -2.621555186264e+02 0.0 
0.0 0.0 -1.092876291017e+02 
-3.065481211216e+01 8.499273059656e+00 0.0 
8.499273059656e+00 -5.969603758670e+01 0.0 
0.0 0.0 -2.670525490966e+01 
-1.364983425045e+01 1.571363279379e-01 0.0 
1.571363279379e-01 -2.543239463669e+01 0.0 
0.0 0.0 -1.132466866614e+01 
-1.263834768275e+02 -4.894484322139e-01 0.0 
-4.894484322139e-01 -2.925825547075e+02 0.0 
0.0 0.0 -1.252898094605e+02 
-1.191198395048e+02 -6.079188682836e-01 0.0 
-6.079188682836e-01 -2.740946791144e+02 0.0 
0.0 0.0 -1.175643555857e+02 
-1.240233200833e+01 -8.649241559734e-01 0.0 
-8.649241559734e-01 -2.470419404004e+01 0.0 
0.0 0.0 -1.111400564808e+01 
-1.087573975541e+02 6.588868679986e+00 0.0 
6.588868679986e+00 -2.718652640261e+02 0.0 
0.0 0.0 -1.137867984741e+02 
-4.132285173817e+01 -4.759344130719e-01 0.0 
-4.759344130719e-01 -1.078641991908e+02 0.0 
0.0 0.0 -4.435611527870e+01 
-4.356129473118e+01 -1.643571644086e+00 0.0 
-1.643571644086e+00 -1.152559291428e+02 0.0 
0.0 0.0 -4.724516716220e+01 
-1.199432501837e+02 7.996127565092e+00 0.0 
7.996127565092e+00 -2.719943685866e+02 0.0 
0.0 0.0 -1.171812856311e+02 
-1.024953873701e+02 1.090958746472e+01 0.0 
1.090958746472e+01 -2.411379917307e+02 0.0 
0.0 0.0 -1.026900137302e+02 
-1.160219559921e+02 8.223790283275e+00 0.0 
8.223790283275e+00 -2.630904144398e+02 0.0 
0.0 0.0 -1.133337111296e+02 
-6.358709602745e+01 4.493090146753e+00 0.0 
4.493090146753e+00 -1.704380991812e+02 0.0 
0.0 0.0 -6.980755856259e+01 
-6.647478234828e+01 -2.985392577320e-02 0.0 
-2.985392577320e-02 -1.452480241925e+02 0.0 
0.0 0.0 -6.311684196224e+01 
-1.525719311934e+02 5.877490816747e+00 0.0 
5.877490816747e+00 -3.613582491347e+02 0.0 
0.0 0.0 -1.537790540984e+02 
-3.647519643887e+01 -1.817074501623e+00 0.0 
-1.817074501623e+00 -9.587789539236e+01 0.0 
0.0 0.0 -3.930592754937e+01 
-1.267505855061e+02 9.526008541905e+00 0.0 
9.526008541905e+00 -3.064378774059e+02 0.0 
0.0 0.0 -1.295565388736e+02 
-8.969756594802e+01 1.090227641655e+01 0.0 
1.090227641655e+01 -2.146111905689e+02 0.0 
0.0 0.0 -9.089262695508e+01 
-2.973895549643e+01 -1.002944797568e+00 0.0 
-1.002944797568e+00 -7.604345594481e+01 0.0 
0.0 0.0 -3.133472343237e+01 
-1.085866246553e+02 5.880824575946e+00 0.0 
5.880824575946e+00 -2.403933281510e+02 0.0 
0.0 0.0 -1.042939858419e+02 
-6.654507501666e+01 4.933081171584e+00 0.0 
4.933081171584e+00 -1.784717473426e+02 0.0 
0.0 0.0 -7.310504670779e+01 
-1.770452561942e+01 -1.335966179424e+00 0.0 
-1.335966179424e+00 -4.201711540519e+01 0.0 
0.0 0.0 -1.751649230738e+01 
-5.497001587712e+01 3.315101220509e+00 0.0 
3.315101220509e+00 -1.519914298689e+02 0.0 
0.0 0.0 -6.168843372380e+01 
-1.153200975299e+02 -7.095121551711e-01 0.0 
-7.095121551711e-01 -2.849177381664e+02 0.0 
0.0 0.0 -1.196713507089e+02 
-1.100111588267e+02 6.925476581277e+00 0.0 
6.925476581277e+00 -2.414921103087e+02 0.0 
0.0 0.0 -1.050509807406e+02 
-2.897278813086e+01 -8.310972986705e-01 0.0 
-8.310972986705e-01 -7.327309539679e+01 0.0 
0.0 0.0 -3.027376505829e+01 
-9.246868259865e+01 5.888114874806e-01 0.0 
5.888114874806e-01 -2.326030321557e+02 0.0 
0.0 0.0 -9.712151442632e+01 
-1.162169218649e+02 7.327134477688e+00 0.0 
7.327134477688e+00 -2.614172865710e+02 0.0 
0.0 0.0 -1.128902625308e+02 
-1.237162897825e+02 1.107464961684e+01 0.0 
1.107464961684e+01 -2.918807324963e+02 0.0 
0.0 0.0 -1.242791066837e+02 
-5.512217088951e+01 -4.175895189448e-01 0.0 
-4.175895189448e-01 -1.483262189772e+02 0.0 
0.0 0.0 -6.063451696002e+01 
-4.602186349229e+01 -8.897401542153e-01 0.0 
-8.897401542153e-01 -1.192536674437e+02 0.0 
0.0 0.0 -4.918265928080e+01 
-9.364784813897e+01 9.072873228647e+00 0.0 
9.072873228647e+00 -2.257444632707e+02 0.0 
0.0 0.0 -9.541769342290e+01 
-9.149203628058e+01 8.733689489909e-01 0.0 
8.733689489909e-01 -2.057940038156e+02 0.0 
0.0 0.0 -8.878581202885e+01 
-1.770805384498e+01 -1.229993349086e+00 0.0 
-1.229993349086e+00 -4.142148841410e+01 0.0 
0.0 0.0 -1.733886267772e+01 
-1.416839916374e+02 1.094079599208e+01 0.0 
1.094079599208e+01 -3.278998348127e+02 0.0 
0.0 0.0 -1.404751479350e+02 
-1.355410195386e+02 6.831435325688e+00 0.0 
6.831435325688e+00 -3.145238168561e+02 0.0 
0.0 0.0 -1.346194509184e+02 
-8.007676855929e+01 8.216770536793e-01 0.0 
8.216770536793e-01 -1.783189795113e+02 0.0 
0.0 0.0 -7.711872442118e+01 
-1.331334721934e+02 4.335801024574e+00 0.0 
4.335801024574e+00 -3.061990038778e+02 0.0 
0.0 0.0 -1.313997428214e+02 
-1.373700451648e+02 7.750442816704e+00 0.0 
7.750442816704e+00 -3.185394617436e+02 0.0 
0.0 0.0 -1.363728520725e+02 
-6.638496170313e+01 3.232386724950e+00 0.0 
3.232386724950e+00 -1.789778326770e+02 0.0 
0.0 0.0 -7.320883831404e+01 
-6.378471452682e+01 2.984352684557e+00 0.0 
2.984352684557e+00 -1.704835889424e+02 0.0 
0.0 0.0 -6.988049104077e+01 
-1.469411935176e+02 1.072282730052e+01 0.0 
1.072282730052e+01 -3.494801803020e+02 0.0 
0.0 0.0 -1.485264121459e+02 
-1.195957094862e+01 2.389392253607e-01 0.0 
2.389392253607e-01 -8.691272142026e+00 0.0 
0.0 0.0 -6.745865109980e+00 
-4.198392981804e+01 -8.119944834483e-01 0.0 
-8.119944834483e-01 -1.087405508715e+02 0.0 
0.0 0.0 -4.481734420687e+01 
-9.383756041113e+01 -7.337402729879e-01 0.0 
-7.337402729879e-01 -2.370403519228e+02 0.0 
0.0 0.0 -9.886337370019e+01 
-5.638638369743e+01 5.626312483649e-01 0.0 
5.626312483649e-01 -1.491120355105e+02 0.0 
0.0 0.0 -6.124952576238e+01 
-5.512280095430e+01 1.640224874198e+00 0.0 
1.640224874198e+00 -1.517201891830e+02 0.0 
0.0 0.0 -6.165289704119e+01 
-2.028790516416e+01 5.975941015100e+00 0.0 
5.975941015100e+00 -2.972470767128e+01 0.0 
0.0 0.0 -1.460378385063e+01 
-2.508997520314e+01 6.063127372821e+00 0.0 
6.063127372821e+00 -4.277373961044e+01 0.0 
0.0 0.0 -1.995911444407e+01 
-8.194573597383e+01 1.454071699057e+00 0.0 
1.454071699057e+00 -1.788040929222e+02 0.0 
0.0 0.0 -7.782494866880e+01 
-5.972215232899e+01 5.115427229387e+00 0.0 
5.115427229387e+00 -1.611058599537e+02 0.0 
0.0 0.0 -6.584840368480e+01 
-4.877111794769e+01 -1.009063607963e+00 0.0 
-1.009063607963e+00 -1.269329370616e+02 0.0 
0.0 0.0 -5.231121650280e+01 
-1.187017163540e+02 9.389484418809e+00 0.0 
9.389484418809e+00 -2.790923915949e+02 0.0 
0.0 0.0 -1.189382323847e+02 
-1.608768595722e+02 4.861704921473e+00 0.0 
4.861704921473e+00 -3.798252479444e+02 0.0 
0.0 0.0 -1.618106322550e+02 
-1.596655163738e+02 5.850635864264e+00 0.0 
5.850635864264e+00 -3.778755975117e+02 0.0 
0.0 0.0 -1.608623341656e+02 
-6.639724632852e+01 1.810860039316e+00 0.0 
1.810860039316e+00 -1.785758851201e+02 0.0 
0.0 0.0 -7.309193943458e+01 
-7.548637043452e+01 3.281669680596e-01 0.0 
3.281669680596e-01 -1.625731905639e+02 0.0 
0.0 0.0 -7.101786829954e+01 
-1.622106481965e+01 -9.247379136277e-02 0.0 
-9.247379136277e-02 -2.093942913479e+01 0.0 
0.0 0.0 -1.074814818633e+01 
-1.629826520179e+01 1.045770631364e+01 0.0 
1.045770631364e+01 -1.699235869131e+01 0.0 
0.0 0.0 -9.587187167929e+00 
-2.852854282997e+01 -1.576141956218e-01 0.0 
-1.576141956218e-01 -7.321881194618e+01 0.0 
0.0 0.0 -3.012420643285e+01 
-1.860511436893e+01 8.256859307299e+00 0.0 
8.256859307299e+00 -2.389858163351e+01 0.0 
0.0 0.0 -1.235110880073e+01 
-9.790888043305e+01 1.079875571297e+01 0.0 
1.079875571297e+01 -2.333749469822e+02 0.0 
0.0 0.0 -9.898514822458e+01 
-5.532559693434e+01 4.229678721818e-01 0.0 
4.229678721818e-01 -1.506500755648e+02 0.0 
0.0 0.0 -6.139270174975e+01 
-6.001548037010e+01 3.387355054306e+00 0.0 
3.387355054306e+00 -1.616880195990e+02 0.0 
0.0 0.0 -6.611104999074e+01 
-1.974843120914e+01 -3.231191789755e-01 0.0 
-3.231191789755e-01 -4.161092420846e+01 0.0 
0.0 0.0 -1.800780662528e+01 
-1.199215682598e+02 2.440235016089e-01 0.0 
2.440235016089e-01 -2.771626751763e+02 0.0 
0.0 0.0 -1.187252730308e+02 
-6.021485755937e+01 2.075686919672e+00 0.0 
2.075686919672e+00 -1.611444325995e+02 0.0 
0.0 0.0 -6.600778704765e+01 
-1.256267715954e+02 5.073719365967e-01 0.0 
5.073719365967e-01 -2.902234072713e+02 0.0 
0.0 0.0 -1.243550536600e+02 
-1.144170607230e+02 1.099375673528e+00 0.0 
1.099375673528e+00 -2.616895654201e+02 0.0 
0.0 0.0 -1.124319878429e+02 
-1.398456945606e+02 3.788727126773e-01 0.0 
3.788727126773e-01 -3.262079143001e+02 0.0 
0.0 0.0 -1.394160826582e+02 
-1.620952142688e+02 9.373855960745e-01 0.0 
9.373855960745e-01 -3.824849063865e+02 0.0 
0.0 0.0 -1.629740361966e+02 
-8.006095210552e+01 -5.751183547858e-01 0.0 
-5.751183547858e-01 -1.787737407106e+02 0.0 
0.0 0.0 -7.725040784483e+01 
-6.390503617004e+01 1.853348709782e+00 0.0 
1.853348709782e+00 -1.696264354074e+02 0.0 
0.0 0.0 -6.965944147322e+01 
-2.645041170319e+01 1.488618222796e+00 0.0 
1.488618222796e+00 -4.904827360466e+01 0.0 
0.0 0.0 -2.224960559235e+01 
-6.639996933336e+01 7.196866865621e-01 0.0 
7.196866865621e-01 -1.773945273192e+02 0.0 
0.0 0.0 -7.273834899577e+01 
-1.630393233409e+02 3.899307075360e+00 0.0 
3.899307075360e+00 -3.817584211289e+02 0.0 
0.0 0.0 -1.630393233409e+02 
-1.462209140457e+01 1.024667900090e+01 0.0 
1.024667900090e+01 -1.606144529692e+01 0.0 
0.0 0.0 -8.805061010448e+00 
-1.494957464361e+01 1.054375157115e+01 0.0 
1.054375157115e+01 -1.627026695961e+01 0.0 
0.0 0.0 -8.965952480967e+00 
-1.311074473121e+02 1.013135366645e+01 0.0 
1.013135366645e+01 -3.147863901062e+02 0.0 
0.0 0.0 -1.333681512255e+02 
-7.491581136310e+01 4.362722172576e-01 0.0 
4.362722172576e-01 -1.630614840754e+02 0.0 
0.0 0.0 -7.099318863154e+01 
-1.262703899025e+02 1.913046227646e-02 0.0 
1.913046227646e-02 -2.922348609809e+02 0.0 
0.0 0.0 -1.251515752650e+02 
-1.169960879706e+02 9.358227877723e+00 0.0 
9.358227877723e+00 -2.619330808953e+02 0.0 
0.0 0.0 -1.132787506598e+02 
-1.312379939125e+02 9.803801817269e+00 0.0 
9.803801817269e+00 -3.100487588700e+02 0.0 
0.0 0.0 -1.319860258348e+02 
-1.213820913579e+02 8.346200563431e+00 0.0 
8.346200563431e+00 -2.712512096986e+02 0.0 
0.0 0.0 -1.173899903170e+02 
-8.196322229600e+01 -4.783699150617e-01 0.0 
-4.783699150617e-01 -1.823307753387e+02 0.0 
0.0 0.0 -7.888819929042e+01 
-4.930884943146e+01 7.352120182506e-02 0.0 
7.352120182506e-02 -1.305275559210e+02 0.0 
0.0 0.0 -5.355092160572e+01 
-4.809945948080e+01 -8.889963120896e-01 0.0 
-8.889963120896e-01 -1.298329232009e+02 0.0 
0.0 0.0 -5.297971480452e+01 
-9.966067157695e+01 -5.338329756960e-01 0.0 
-5.338329756960e-01 -2.254212307194e+02 0.0 
0.0 0.0 -9.712457068892e+01 
-1.277639712581e+02 1.149190512236e+01 0.0 
1.149190512236e+01 -2.992154223051e+02 0.0 
0.0 0.0 -1.276938180689e+02 
-6.948695685134e+01 7.138850754713e-01 0.0 
7.138850754713e-01 -1.466806188798e+02 0.0 
0.0 0.0 -6.445027271933e+01 
-7.316524654941e+01 1.256453591210e-02 0.0 
1.256453591210e-02 -1.618569961599e+02 0.0 
0.0 0.0 -7.010667281278e+01 
-8.002339530359e+01 3.917890751015e-01 0.0 
3.917890751015e-01 -1.777631520882e+02 0.0 
0.0 0.0 -7.693596421753e+01 
-8.232342535319e+01 1.245429548067e+00 0.0 
1.245429548067e+00 -1.833649558035e+02 0.0 
0.0 0.0 -7.930651434699e+01 
-2.270661783171e+01 -4.366528104292e-03 0.0 
-4.366528104292e-03 -6.137947466765e+01 0.0 
0.0 0.0 -2.482582774981e+01 
-4.438939615307e+01 -1.281651455095e+00 0.0 
-1.281651455095e+00 -1.188781042210e+02 0.0 
0.0 0.0 -4.858025011224e+01 
-1.339541210431e+02 1.567649457541e+00 0.0 
1.567649457541e+00 -3.107820919075e+02 0.0 
0.0 0.0 -1.330208638852e+02 
-9.062846792948e+01 1.310142996813e+00 0.0 
1.310142996813e+00 -2.026225165766e+02 0.0 
0.0 0.0 -8.757529535183e+01 
-1.481512775328e+02 1.068098752491e+01 0.0 
1.068098752491e+01 -3.497593274321e+02 0.0 
0.0 0.0 -1.489731814895e+02 
-1.331434670325e+02 8.652407689379e+00 0.0 
8.652407689379e+00 -3.025925301149e+02 0.0 
0.0 0.0 -1.303207991442e+02 
-1.096596078860e+02 7.915829295442e+00 0.0 
7.915829295442e+00 -2.413879989767e+02 0.0 
0.0 0.0 -1.049142820588e+02 
-1.281524235927e+02 4.121240883366e+00 0.0 
4.121240883366e+00 -2.935237548853e+02 0.0 
0.0 0.0 -1.261028535434e+02 
-6.866772490765e+01 -6.667451391823e-01 0.0 
-6.667451391823e-01 -1.769264024717e+02 0.0 
0.0 0.0 -7.327823821381e+01 
-6.213782851877e+01 -8.057697894263e-01 0.0 
-8.057697894263e-01 -1.614819104755e+02 0.0 
0.0 0.0 -6.668592169829e+01 
-1.442149593037e+02 4.949166424281e+00 0.0 
4.949166424281e+00 -3.462189772496e+02 0.0 
0.0 0.0 -1.467301809660e+02 
-1.349287630182e+01 -9.371356601447e-01 0.0 
-9.371356601447e-01 -2.429610666410e+01 0.0 
0.0 0.0 -1.138937956081e+01 
-4.481580374330e+01 -8.402113991399e-02 0.0 
-8.402113991399e-02 -1.149008411475e+02 0.0 
0.0 0.0 -4.751499346725e+01 
-1.500796074623e+02 1.199281962434e+01 0.0 
1.199281962434e+01 -3.515190840787e+02 0.0 
0.0 0.0 -1.500796074623e+02 
-2.225086543998e+01 5.964096405509e-01 0.0 
5.964096405509e-01 -5.758557487047e+01 0.0 
0.0 0.0 -2.355093209314e+01 
-7.322689734998e+01 -2.056259145653e-02 0.0 
-2.056259145653e-02 -1.619309995779e+02 0.0 
0.0 0.0 -7.014736907836e+01 
-1.404293285321e+02 9.473209830195e+00 0.0 
9.473209830195e+00 -3.375071195922e+02 0.0 
0.0 0.0 -1.429809344373e+02 
-1.720609271484e+01 -1.447337067039e+00 0.0 
-1.447337067039e+00 -3.908132019666e+01 0.0 
0.0 0.0 -1.648622387345e+01 
-1.071640191347e+01 -3.377913306202e-01 0.0 
-3.377913306202e-01 -2.397180457605e+01 0.0 
0.0 0.0 -1.000646194686e+01 
-1.410065174867e+02 3.430258520495e+00 0.0 
3.430258520495e+00 -3.278734383507e+02 0.0 
0.0 0.0 -1.402639867512e+02 
-6.697862348292e+01 -2.442681841612e-01 0.0 
-2.442681841612e-01 -1.452183021383e+02 0.0 
0.0 0.0 -6.325907768637e+01 
-1.327960243630e+02 1.674548413828e+00 0.0 
1.674548413828e+00 -3.070758519779e+02 0.0 
0.0 0.0 -1.315615629023e+02 
-1.407763275558e+02 9.390994647440e+00 0.0 
9.390994647440e+00 -3.355250316694e+02 0.0 
0.0 0.0 -1.424904077676e+02 
-6.672706460629e+01 3.097974820756e-01 0.0 
3.097974820756e-01 -1.449135469120e+02 0.0 
0.0 0.0 -6.309218345550e+01 
-1.673891822989e+01 3.902349282046e-01 0.0 
3.902349282046e-01 -2.229230828658e+01 0.0 
0.0 0.0 -1.130936795494e+01 
-1.328397677882e+02 8.734637679746e-01 0.0 
8.734637679746e-01 -3.095640872586e+02 0.0 
0.0 0.0 -1.323211565140e+02 
-2.468224668499e+01 -1.865687024792e-02 0.0 
-1.865687024792e-02 -6.334740974284e+01 0.0 
0.0 0.0 -2.600889692835e+01 
-1.277781452251e+02 1.656490966176e+00 0.0 
1.656490966176e+00 -2.958138742539e+02 0.0 
0.0 0.0 -1.266776058437e+02 
-1.632286076001e+02 2.996834510165e+00 0.0 
2.996834510165e+00 -3.822000844002e+02 0.0 
0.0 0.0 -1.632286076001e+02 
-1.311702429512e+02 7.229177033302e+00 0.0 
7.229177033302e+00 -2.997108070556e+02 0.0 
0.0 0.0 -1.288643150020e+02 
-2.765333246987e+01 4.272549750818e-01 0.0 
4.272549750818e-01 -7.921416123299e+01 0.0 
0.0 0.0 -3.166024811086e+01 
-8.330988075225e+01 1.362017361917e+00 0.0 
1.362017361917e+00 -1.802444911836e+02 0.0 
0.0 0.0 -7.866631158074e+01 
-6.971483571366e+01 3.954244103848e-01 0.0 
3.954244103848e-01 -1.796909735662e+02 0.0 
0.0 0.0 -7.442174278396e+01 
-1.191407201017e+02 1.101620806712e+01 0.0 
1.101620806712e+01 -2.794539795771e+02 0.0 
0.0 0.0 -1.191784099036e+02 
-1.536779028785e+02 1.260684423633e+01 0.0 
1.260684423633e+01 -3.606936476136e+02 0.0 
0.0 0.0 -1.539114651476e+02 
-1.079941126419e+02 -2.122233452246e-01 0.0 
-2.122233452246e-01 -2.465271605215e+02 0.0 
0.0 0.0 -1.059563819490e+02 
-1.538313487087e+02 1.140278714777e+01 0.0 
1.140278714777e+01 -3.629008109991e+02 0.0 
0.0 0.0 -1.546196479123e+02 
-1.725167436286e+01 -7.390321832898e-01 0.0 
-7.390321832898e-01 -4.036194884760e+01 0.0 
0.0 0.0 -1.688408696314e+01 
-1.544959383649e+02 4.310479199838e+00 0.0 
4.310479199838e+00 -3.665790776344e+02 0.0 
0.0 0.0 -1.559225047998e+02 
-3.191603075497e+01 4.598633568336e-01 0.0 
4.598633568336e-01 -8.938200177204e+01 0.0 
0.0 0.0 -3.598940975810e+01 
-2.218156351244e+01 -7.642550753453e-01 0.0 
-7.642550753453e-01 -5.755321817064e+01 0.0 
0.0 0.0 -2.352043450493e+01 
-1.494905823294e+02 9.270486851535e+00 0.0 
9.270486851535e+00 -3.562444154154e+02 0.0 
0.0 0.0 -1.513204993234e+02 
-1.365082596093e+02 5.197726961052e+00 0.0 
5.197726961052e+00 -3.139547458548e+02 0.0 
0.0 0.0 -1.347389016392e+02 
-1.357370509082e+02 3.753142492092e+00 0.0 
3.753142492092e+00 -3.148541081794e+02 0.0 
0.0 0.0 -1.347773477263e+02 
-7.294899527619e+01 -6.349262438258e-01 0.0 
-6.349262438258e-01 -1.606798064687e+02 0.0 
0.0 0.0 -6.968864052346e+01 
-8.500881160311e+01 1.353648039054e+00 0.0 
1.353648039054e+00 -1.829911752582e+02 0.0 
0.0 0.0 -7.999999605839e+01 
-2.312180962902e+01 1.259829481506e+01 0.0 
1.259829481506e+01 -5.200225900806e+01 0.0 
0.0 0.0 -2.213722059113e+01 
-1.399208624309e+02 9.052467885657e+00 0.0 
9.052467885657e+00 -3.210420912170e+02 0.0 
0.0 0.0 -1.378888860944e+02 
-5.833632129736e+01 -8.327738986401e-01 0.0 
-8.327738986401e-01 -1.502525826223e+02 0.0 
0.0 0.0 -6.217667117591e+01 
-1.656572783956e+01 6.381633195198e+00 0.0 
6.381633195198e+00 -4.210345454275e+01 0.0 
0.0 0.0 -1.720075471469e+01 
-1.233163026976e+02 9.611133896432e+00 0.0 
9.611133896432e+00 -2.914341650378e+02 0.0 
0.0 0.0 -1.240251403206e+02 
-6.611690804111e+01 1.129578132154e-01 0.0 
1.129578132154e-01 -1.445292335593e+02 0.0 
0.0 0.0 -6.279384248012e+01 
-1.304881163021e+02 4.117495154406e+00 0.0 
4.117495154406e+00 -3.002233828330e+02 0.0 
0.0 0.0 -1.288134497405e+02 
-1.392902728459e+02 7.818451226054e-01 0.0 
7.818451226054e-01 -3.247222497652e+02 0.0 
0.0 0.0 -1.388037567833e+02 
-1.396116374203e+02 2.432580312723e-01 0.0 
2.432580312723e-01 -3.270938206474e+02 0.0 
0.0 0.0 -1.396116374203e+02 
-2.865758743664e+00 3.351889512250e-01 0.0 
3.351889512250e-01 -6.628775818607e+00 0.0 
0.0 0.0 -2.448360368681e+00 
-5.088476010427e+00 -2.760968948999e-01 0.0 
-2.760968948999e-01 -1.041956918060e+01 0.0 
0.0 0.0 -4.888920107468e+00 
-6.679310785750e+01 6.717473046291e-01 0.0 
6.717473046291e-01 -1.469791304031e+02 0.0 
0.0 0.0 -6.373167147818e+01 
-6.540907784576e+01 -1.071306176593e-01 0.0 
-1.071306176593e-01 -1.444687708034e+02 0.0 
0.0 0.0 -6.256335459474e+01 
-1.637602605755e+02 3.688925442444e-01 0.0 
3.688925442444e-01 -3.834406080096e+02 0.0 
0.0 0.0 -1.637602605755e+02 
-1.614835396047e+02 -6.570647106648e-01 0.0 
-6.570647106648e-01 -3.805875427059e+02 0.0 
0.0 0.0 -1.622213246932e+02 
-9.504596682371e+00 -6.822798543362e-01 0.0 
-6.822798543362e-01 -2.298923278400e+01 0.0 
0.0 0.0 -9.348148839912e+00 
-1.174926990785e+01 -3.768769746385e-01 0.0 
-3.768769746385e-01 -8.234570711614e+00 0.0 
0.0 0.0 -6.495578533044e+00 
-1.469357115822e+02 1.637900623992e+00 0.0 
1.637900623992e+00 -3.509960761762e+02 0.0 
0.0 0.0 -1.489795363275e+02 
-1.351529390188e+02 9.964239548009e+00 0.0 
9.964239548009e+00 -3.150252352717e+02 0.0 
0.0 0.0 -1.346534522872e+02 
-2.936820895586e+01 -2.246069018900e-01 0.0 
-2.246069018900e-01 -7.406020906096e+01 0.0 
0.0 0.0 -3.062852540505e+01 
-1.481064338238e+02 4.535386249752e+00 0.0 
4.535386249752e+00 -3.531979761781e+02 0.0 
0.0 0.0 -1.499913230006e+02 
-1.010511374543e+02 3.137107308921e-01 0.0 
3.137107308921e-01 -2.527617880420e+02 0.0 
0.0 0.0 -1.057438776489e+02 
-8.586625247946e+01 7.987076187754e-01 0.0 
7.987076187754e-01 -2.183989348939e+02 0.0 
0.0 0.0 -9.087955621201e+01 
-9.427762438024e+01 -3.427443313334e-02 0.0 
-3.427443313334e-02 -2.124969991096e+02 0.0 
0.0 0.0 -9.163238704694e+01 
-2.678956320164e+01 -1.239703482506e+00 0.0 
-1.239703482506e+00 -6.900013231581e+01 0.0 
0.0 0.0 -2.833690865524e+01 
-1.108206488008e+02 1.096479458037e+01 0.0 
1.096479458037e+01 -2.603060518025e+02 0.0 
0.0 0.0 -1.109380101810e+02 
-2.388931058784e+01 -8.331992153455e-01 0.0 
-8.331992153455e-01 -5.942888428395e+01 0.0 
0.0 0.0 -2.459545846154e+01 
-7.793501708056e+01 7.835012068233e-01 0.0 
7.835012068233e-01 -1.987301678310e+02 0.0 
0.0 0.0 -8.259955547348e+01 
-1.335706997328e+02 7.699947913164e+00 0.0 
7.699947913164e+00 -3.069476571088e+02 0.0 
0.0 0.0 -1.317555070525e+02 
-1.235391474382e+02 8.871854681698e-01 0.0 
8.871854681698e-01 -2.850902550236e+02 0.0 
0.0 0.0 -1.221888207385e+02 
-8.600974949189e+01 -3.644649912760e-01 0.0 
-3.644649912760e-01 -2.175315788065e+02 0.0 
0.0 0.0 -9.066239848952e+01 
-8.581837620273e+01 8.800705216202e-01 0.0 
8.800705216202e-01 -1.920873121161e+02 0.0 
0.0 0.0 -8.297170649565e+01 
-1.357521616315e+02 1.037212469054e+01 0.0 
1.037212469054e+01 -3.136437964950e+02 0.0 
0.0 0.0 -1.344187874379e+02 
-1.248700051022e+02 8.982159819707e+00 0.0 
8.982159819707e+00 -2.807301185257e+02 0.0 
0.0 0.0 -1.212800370884e+02 
-1.172668728006e+02 8.469577411139e+00 0.0 
8.469577411139e+00 -2.609805964929e+02 0.0 
0.0 0.0 -1.130742407880e+02 
-6.648613914668e+01 2.896946844993e-02 0.0 
2.896946844993e-02 -1.451589817565e+02 0.0 
0.0 0.0 -6.309353627097e+01 
-1.063609440262e+02 1.087025424187e+01 0.0 
1.087025424187e+01 -2.525849220634e+02 0.0 
0.0 0.0 -1.072837598269e+02 
-1.299639132317e+02 5.101969828601e+00 0.0 
5.101969828601e+00 -2.987299905630e+02 0.0 
0.0 0.0 -1.282081711384e+02 
-4.390520943015e+01 -7.216308721509e-01 0.0 
-7.216308721509e-01 -1.143606561464e+02 0.0 
0.0 0.0 -4.707975967297e+01 
-1.343519913268e+01 -7.240133326969e-01 0.0 
-7.240133326969e-01 -2.508747617728e+01 0.0 
0.0 0.0 -1.115680259299e+01 
-1.308128099107e+02 1.053136552703e+01 0.0 
1.053136552703e+01 -3.002353957096e+02 0.0 
0.0 0.0 -1.289144616861e+02 
-1.262852221629e+02 8.231313642413e+00 0.0 
8.231313642413e+00 -3.061153434311e+02 0.0 
0.0 0.0 -1.293201696782e+02 
-2.268655875920e+01 -9.501925235000e-01 0.0 
-9.501925235000e-01 -5.754464768578e+01 0.0 
0.0 0.0 -2.366936193349e+01 
-1.001197353797e+02 8.897619054660e-01 0.0 
8.897619054660e-01 -2.265936068954e+02 0.0 
0.0 0.0 -9.761400268253e+01 
-1.545692337537e+02 2.379624185437e+00 0.0 
2.379624185437e+00 -3.655823192031e+02 0.0 
0.0 0.0 -1.556454658870e+02 
-1.302944032868e+02 9.770458558223e+00 0.0 
9.770458558223e+00 -3.023761239964e+02 0.0 
0.0 0.0 -1.294011581849e+02 
-1.362306630706e+02 1.110968415110e+01 0.0 
1.110968415110e+01 -3.154191327562e+02 0.0 
0.0 0.0 -1.350949387480e+02 
-1.099724524267e+02 1.010059197131e+00 0.0 
1.010059197131e+00 -2.728747535894e+02 0.0 
0.0 0.0 -1.144541618048e+02 
-1.172230865227e+01 3.128997489940e+00 0.0 
3.128997489940e+00 -2.177487306716e+01 0.0 
0.0 0.0 -9.925945565051e+00 
-1.645212932325e+01 2.254347647164e+00 0.0 
2.254347647164e+00 -2.856072514232e+01 0.0 
0.0 0.0 -1.310385633967e+01 
-3.101767915865e+01 1.233158593181e+01 0.0 
1.233158593181e+01 -5.963760566423e+01 0.0 
0.0 0.0 -2.679658544686e+01 
-8.375349958189e+01 1.391104193193e+00 0.0 
1.391104193193e+00 -1.802645096291e+02 0.0 
0.0 0.0 -7.880540276331e+01 
-1.063549465709e+02 9.129166999512e+00 0.0 
9.129166999512e+00 -2.522822452600e+02 0.0 
0.0 0.0 -1.071911575493e+02 
-1.288674103309e+02 2.316777287835e+00 0.0 
2.316777287835e+00 -2.980984693905e+02 0.0 
0.0 0.0 -1.276897639164e+02 
-1.474793454155e+02 9.922985177212e+00 0.0 
9.922985177212e+00 -3.486131773925e+02 0.0 
0.0 0.0 -1.484277568424e+02 
-1.983841801214e+01 -1.167610238458e+00 0.0 
-1.167610238458e+00 -4.162779878981e+01 0.0 
0.0 0.0 -1.803986504059e+01 
-1.861865040370e+01 -1.565830795023e+00 0.0 
-1.565830795023e+00 -4.034516939343e+01 0.0 
0.0 0.0 -1.728914593914e+01 
-8.758457074420e+00 3.812727825565e+00 0.0 
3.812727825565e+00 -1.459958001642e+01 0.0 
0.0 0.0 -6.607411127253e+00 
-1.024929782475e+02 -6.432571838294e-01 0.0 
-6.432571838294e-01 -2.322473712718e+02 0.0 
0.0 0.0 -1.000221048558e+02 
-5.414781957423e+01 2.848152252601e-01 0.0 
2.848152252601e-01 -1.400265901162e+02 0.0 
0.0 0.0 -5.785232290712e+01 
-1.311776285269e+02 4.628303474517e+00 0.0 
4.628303474517e+00 -3.013226009667e+02 0.0 
0.0 0.0 -1.293500688481e+02 
-2.800664441794e+01 1.818263152300e-01 0.0 
1.818263152300e-01 -7.098647391636e+01 0.0 
0.0 0.0 -2.929793550029e+01 
-1.390534907168e+02 9.417230497575e+00 0.0 
9.417230497575e+00 -3.314612180101e+02 0.0 
0.0 0.0 -1.407544126180e+02 
-8.121457974350e+01 -3.550323103070e-02 0.0 
-3.550323103070e-02 -1.780267533944e+02 0.0 
0.0 0.0 -7.737239994137e+01 
-1.450751368220e+02 1.130621328524e+01 0.0 
1.130621328524e+01 -3.394710395627e+02 0.0 
0.0 0.0 -1.449638529154e+02 
-1.236739123191e+02 1.142407647029e+01 0.0 
1.142407647029e+01 -2.880449960097e+02 0.0 
0.0 0.0 -1.231156724986e+02 
-8.439012493856e+01 2.187048664631e+00 0.0 
2.187048664631e+00 -1.806056590201e+02 0.0 
0.0 0.0 -7.909873518759e+01 
-1.505641326020e+02 7.779105156660e+00 0.0 
7.779105156660e+00 -3.592695101917e+02 0.0 
0.0 0.0 -1.525500928381e+02 
-1.358980481801e+02 4.206945425769e+00 0.0 
4.206945425769e+00 -3.137647602365e+02 0.0 
0.0 0.0 -1.344988425250e+02 
-1.341048849863e+02 1.367265298794e-01 0.0 
1.367265298794e-01 -3.109288226126e+02 0.0 
0.0 0.0 -1.331101122797e+02 
-1.272928158017e+01 9.437196409350e+00 0.0 
9.437196409350e+00 -1.531091680427e+01 0.0 
0.0 0.0 -8.012059515331e+00 
-1.274319114412e+02 2.707457409564e+00 0.0 
2.707457409564e+00 -2.930627421185e+02 0.0 
0.0 0.0 -1.257483960679e+02 
-1.402028000257e+02 1.009220390294e+01 0.0 
1.009220390294e+01 -3.260493149760e+02 0.0 
0.0 0.0 -1.394756345005e+02 
-1.390683763411e+02 1.050419990577e+01 0.0 
1.050419990577e+01 -3.321159533699e+02 0.0 
0.0 0.0 -1.409552989133e+02 
-1.268882895693e+02 9.539979299708e+00 0.0 
9.539979299708e+00 -2.982021559568e+02 0.0 
0.0 0.0 -1.271271336578e+02 
-1.623185174241e+02 4.901716686994e+00 0.0 
4.901716686994e+00 -3.800765406562e+02 0.0 
0.0 0.0 -1.623185174241e+02 
-1.160597589124e+02 6.353227601747e+00 0.0 
6.353227601747e+00 -2.600535765328e+02 0.0 
0.0 0.0 -1.124340006335e+02 
-1.126652877385e+01 2.647780382668e+00 0.0 
2.647780382668e+00 -8.923264688352e+00 0.0 
0.0 0.0 -6.608680939186e+00 
-1.868603728267e+01 9.163075136593e+00 0.0 
9.163075136593e+00 -4.613414333810e+01 0.0 
0.0 0.0 -1.904605418623e+01 
-1.284117270233e+02 8.696034292473e+00 0.0 
8.696034292473e+00 -2.906918623873e+02 0.0 
0.0 0.0 -1.253310768232e+02 
-8.937290122865e+01 1.082894304579e+00 0.0 
1.082894304579e+00 -1.949163075357e+02 0.0 
0.0 0.0 -8.488676262929e+01 
-1.468633720329e+02 1.988091536873e+00 0.0 
1.988091536873e+00 -3.506553147218e+02 0.0 
0.0 0.0 -1.488556060264e+02 
-1.319749912946e+02 1.166302107571e+01 0.0 
1.166302107571e+01 -3.073957407896e+02 0.0 
0.0 0.0 -1.314112196253e+02 
-1.551156107199e+02 4.490131663963e+00 0.0 
4.490131663963e+00 -3.663355678804e+02 0.0 
0.0 0.0 -1.560353535801e+02 
-1.110597136485e+02 -3.304670751513e-01 0.0 
-3.304670751513e-01 -2.530051747566e+02 0.0 
0.0 0.0 -1.088194665215e+02 
-1.458734346672e+02 1.127486015827e+01 0.0 
1.127486015827e+01 -3.422277347055e+02 0.0 
0.0 0.0 -1.460303508118e+02 
-1.454357686041e+02 7.262601235027e+00 0.0 
7.262601235027e+00 -3.476826328579e+02 0.0 
0.0 0.0 -1.475355204386e+02 
-1.447994744344e+02 6.072466073714e+00 0.0 
6.072466073714e+00 -3.472564951048e+02 0.0 
0.0 0.0 -1.472167908618e+02 
-5.637756302831e+01 1.329470628851e-01 0.0 
1.329470628851e-01 -1.454194674500e+02 0.0 
0.0 0.0 -6.013910914349e+01 
-1.614621931998e+02 4.276809614336e+00 0.0 
4.276809614336e+00 -3.808368826174e+02 0.0 
0.0 0.0 -1.622897227452e+02 
-7.507055518223e+01 6.495507027050e-01 0.0 
6.495507027050e-01 -1.617961708107e+02 0.0 
0.0 0.0 -7.066001779787e+01 
-1.269141314686e+02 1.638017027245e+00 0.0 
1.638017027245e+00 -2.927938504462e+02 0.0 
0.0 0.0 -1.255123945744e+02 
-1.755583570418e+01 -1.144045073845e+00 0.0 
-1.144045073845e+00 -4.114439317574e+01 0.0 
0.0 0.0 -1.721006866398e+01 
-1.212345102838e+02 9.159924645179e-01 0.0 
9.159924645179e-01 -2.780592689641e+02 0.0 
0.0 0.0 -1.193881337744e+02 
-1.010927987879e+02 4.957692780952e-01 0.0 
4.957692780952e-01 -2.283982666768e+02 0.0 
0.0 0.0 -9.844731963941e+01 
-1.658411140591e+01 1.815294088304e-01 0.0 
1.815294088304e-01 -4.198853078542e+01 0.0 
0.0 0.0 -1.717179265740e+01 
-2.638884932532e+01 1.246111609481e+00 0.0 
1.246111609481e+00 -7.131744190231e+01 0.0 
0.0 0.0 -2.891188736829e+01 
-1.198452934992e+02 7.020676540272e+00 0.0 
7.020676540272e+00 -2.704209677676e+02 0.0 
0.0 0.0 -1.166798783801e+02 
-1.334241697221e+02 2.416686373248e+00 0.0 
2.416686373248e+00 -3.105233416985e+02 0.0 
0.0 0.0 -1.327842534262e+02 
-1.276058244457e+02 1.119859489101e+00 0.0 
1.119859489101e+00 -2.954291861950e+02 0.0 
0.0 0.0 -1.265105031922e+02 
-1.440671846845e+02 1.048938870271e+01 0.0 
1.048938870271e+01 -3.400723933199e+02 0.0 
0.0 0.0 -1.448418734013e+02 
-8.580497582639e+01 -5.939506317669e-01 0.0 
-5.939506317669e-01 -1.916066245501e+02 0.0 
0.0 0.0 -8.282348011294e+01 
-1.219916866433e+01 -8.783231855690e-01 0.0 
-8.783231855690e-01 -2.459434952273e+01 0.0 
0.0 0.0 -1.063805545612e+01 
-1.659520364368e+01 1.942746483309e+00 0.0 
1.942746483309e+00 -3.549761905375e+01 0.0 
0.0 0.0 -1.522784680923e+01 
-1.232322873490e+01 -1.505031566711e+00 0.0 
-1.505031566711e+00 -2.808073452105e+01 0.0 
0.0 0.0 -1.171260383391e+01 
-2.292997216074e+01 -8.746313169617e-01 0.0 
-8.746313169617e-01 -5.448815239340e+01 0.0 
0.0 0.0 -2.282543736624e+01 
-1.170040425056e+01 6.026039349554e+00 0.0 
6.026039349554e+00 -6.931443674325e+00 0.0 
0.0 0.0 -5.385176176775e+00 
-7.598178538903e+01 -4.497234539932e-01 0.0 
-4.497234539932e-01 -1.938167772163e+02 0.0 
0.0 0.0 -8.053956878161e+01 
-1.466760028566e+02 5.361251049921e-01 0.0 
5.361251049921e-01 -3.505309317613e+02 0.0 
0.0 0.0 -1.487620803854e+02 
-1.309737435216e+02 5.860407032563e+00 0.0 
5.860407032563e+00 -2.999052304324e+02 0.0 
0.0 0.0 -1.288636921862e+02 
-9.081462821235e+01 3.276315206935e+00 0.0 
3.276315206935e+00 -1.950212992758e+02 0.0 
0.0 0.0 -8.535077824645e+01 
-6.582280301109e+01 8.589040410577e-01 0.0 
8.589040410577e-01 -1.698215282021e+02 0.0 
0.0 0.0 -7.029329936397e+01 
-1.447609173843e+02 6.132745075763e+00 0.0 
6.132745075763e+00 -3.470254123711e+02 0.0 
0.0 0.0 -1.471358989266e+02 
-1.398379756283e+02 7.556458436764e+00 0.0 
7.556458436764e+00 -3.370151230668e+02 0.0 
0.0 0.0 -1.426559296085e+02 
-1.445154358471e+02 1.155315417121e+01 0.0 
1.155315417121e+01 -3.389929790438e+02 0.0 
0.0 0.0 -1.446525244673e+02 
-1.354025480199e+02 1.016679682181e+01 0.0 
1.016679682181e+01 -3.131635584100e+02 0.0 
0.0 0.0 -1.341698319290e+02 
-1.271021057200e+02 7.618485129100e+00 0.0 
7.618485129100e+00 -2.896538341130e+02 0.0 
0.0 0.0 -1.246267819499e+02 
-1.704623745771e+01 -1.502742771381e+00 0.0 
-1.502742771381e+00 -4.048731384896e+01 0.0 
0.0 0.0 -1.686006539200e+01 
-1.911305824912e+01 -4.914503171210e-03 0.0 
-4.914503171210e-03 -3.592277585243e+01 0.0 
0.0 0.0 -1.611075023047e+01 
-1.469318196871e+02 2.712262671264e+00 0.0 
2.712262671264e+00 -3.514957791007e+02 0.0 
0.0 0.0 -1.491282796363e+02 
-1.563568181016e+01 -3.085422114021e-01 0.0 
-3.085422114021e-01 -4.123006100292e+01 0.0 
0.0 0.0 -1.665972284392e+01 
-1.895423678307e+01 -1.092513454017e+00 0.0 
-1.092513454017e+00 -4.908895363965e+01 0.0 
0.0 0.0 -2.001295712682e+01 
-1.316481149042e+01 7.349433748488e+00 0.0 
7.349433748488e+00 -2.511016385721e+01 0.0 
0.0 0.0 -1.108249260429e+01 
-1.637919607490e+01 -4.417191808707e-01 0.0 
-4.417191808707e-01 -3.868283823317e+01 0.0 
0.0 0.0 -1.611861029242e+01 
-1.525399661872e+02 6.987663087087e+00 0.0 
6.987663087087e+00 -3.610908971496e+02 0.0 
0.0 0.0 -1.536892590011e+02 
-1.393392397647e+02 9.602499152992e+00 0.0 
9.602499152992e+00 -3.231742027033e+02 0.0 
0.0 0.0 -1.383540327404e+02 
-1.284579412702e+02 8.258015488262e-01 0.0 
8.258015488262e-01 -2.980460459305e+02 0.0 
0.0 0.0 -1.275511961602e+02 
-1.444345352703e+02 1.135624116149e+01 0.0 
1.135624116149e+01 -3.384768980902e+02 0.0 
0.0 0.0 -1.444734300082e+02 
-1.352911600361e+02 8.924311093305e+00 0.0 
8.924311093305e+00 -3.260521517246e+02 0.0 
0.0 0.0 -1.380029935282e+02 
-9.060523861359e+01 -6.501602024845e-01 0.0 
-6.501602024845e-01 -2.028716949074e+02 0.0 
0.0 0.0 -8.764308005631e+01 
-1.402509087212e+02 3.225593032561e+00 0.0 
3.225593032561e+00 -3.285854536827e+02 0.0 
0.0 0.0 -1.402509087212e+02 
-3.366773094625e+01 1.819336282143e-01 0.0 
1.819336282143e-01 -9.014588967796e+01 0.0 
0.0 0.0 -3.674408618726e+01 
-6.666507075587e+01 9.087103655754e-02 0.0 
9.087103655754e-02 -1.443263045675e+02 0.0 
0.0 0.0 -6.289741259702e+01 
-2.384293861712e+01 -1.494060650459e+00 0.0 
-1.494060650459e+00 -5.570824202809e+01 0.0 
0.0 0.0 -2.346535419356e+01 
-1.048073433782e+01 -7.047775083152e-01 0.0 
-7.047775083152e-01 -2.436711669606e+01 0.0 
0.0 0.0 -1.060121519065e+01 
-1.617276330088e+02 2.737775057809e+00 0.0 
2.737775057809e+00 -3.814536597414e+02 0.0 
0.0 0.0 -1.625543878251e+02 
-7.746878626073e+01 1.653091601179e+00 0.0 
1.653091601179e+00 -1.650236776872e+02 0.0 
0.0 0.0 -7.234773918436e+01 
-2.291852165913e+01 -6.114071636988e-01 0.0 
-6.114071636988e-01 -5.717124615786e+01 0.0 
0.0 0.0 -2.362693034510e+01 
-7.242679909971e+01 -9.356963681847e-01 0.0 
-9.356963681847e-01 -1.864483694060e+02 0.0 
0.0 0.0 -7.726255055170e+01 
-1.406110463599e+02 9.324799646776e+00 0.0 
9.324799646776e+00 -3.238010011145e+02 0.0 
0.0 0.0 -1.389236142423e+02 
-1.286866624803e+02 2.903767957082e+00 0.0 
2.903767957082e+00 -2.967452912233e+02 0.0 
0.0 0.0 -1.272295861111e+02 
-1.353229089975e+02 5.135415322199e+00 0.0 
5.135415322199e+00 -3.141851157669e+02 0.0 
0.0 0.0 -1.344524074293e+02 
-5.161150595103e+01 2.842547969039e-01 0.0 
2.842547969039e-01 -1.328454733452e+02 0.0 
0.0 0.0 -5.493709378886e+01 
-1.726941451203e+01 9.202461633896e-01 0.0 
9.202461633896e-01 -3.620263097881e+01 0.0 
0.0 0.0 -1.564161364725e+01 
-1.530195695803e+02 5.250115916576e+00 0.0 
5.250115916576e+00 -3.645573299860e+02 0.0 
0.0 0.0 -1.548730698699e+02 
-1.407240505376e+02 2.148077658837e-01 0.0 
2.148077658837e-01 -3.274099314652e+02 0.0 
0.0 0.0 -1.400401946008e+02 
-1.620026493770e+02 6.831134762350e-01 0.0 
6.831134762350e-01 -3.825426548000e+02 0.0 
0.0 0.0 -1.629635912531e+02 
-7.181587738053e+01 -5.025628264150e-01 0.0 
-5.025628264150e-01 -1.588811443769e+02 0.0 
0.0 0.0 -6.880910652723e+01 
-1.423761579932e+02 8.581939911080e+00 0.0 
8.581939911080e+00 -3.396059063936e+02 0.0 
0.0 0.0 -1.441946193160e+02 
-2.292871987239e+01 -2.711746491116e-01 0.0 
-2.711746491116e-01 -5.833688507760e+01 0.0 
0.0 0.0 -2.397968148500e+01 
-1.304851276838e+02 3.238221759774e+00 0.0 
3.238221759774e+00 -3.011872035604e+02 0.0 
0.0 0.0 -1.291016993733e+02 
-1.050841283129e+01 -5.926917237641e-01 0.0 
-5.926917237641e-01 -2.339401911267e+01 0.0 
0.0 0.0 -1.027848733072e+01 
-1.516184221784e+02 8.221847225280e+00 0.0 
8.221847225280e+00 -3.588606201783e+02 0.0 
0.0 0.0 -1.527437127070e+02 
-1.361235940078e+02 5.095441076193e+00 0.0 
5.095441076193e+00 -3.138033148476e+02 0.0 
0.0 0.0 -1.345780726566e+02 
-1.247338482020e+01 1.308633533923e+00 0.0 
1.308633533923e+00 -2.281126186488e+01 0.0 
0.0 0.0 -1.069466554015e+01 
-1.310214480874e+02 1.117306474246e+01 0.0 
1.117306474246e+01 -3.034055848921e+02 0.0 
0.0 0.0 -1.299281098938e+02 
-1.071215961465e+02 1.202987490556e+00 0.0 
1.202987490556e+00 -2.430217662780e+02 0.0 
0.0 0.0 -1.046430087274e+02 
-1.337787204210e+02 1.852200964694e+00 0.0 
1.852200964694e+00 -3.116215575552e+02 0.0 
0.0 0.0 -1.332200833929e+02 
-1.551097154164e+02 1.164799534626e+01 0.0 
1.164799534626e+01 -3.632560026383e+02 0.0 
0.0 0.0 -1.551097154164e+02 
-9.576936102297e+01 1.326203240164e+00 0.0 
1.326203240164e+00 -2.162999297505e+02 0.0 
0.0 0.0 -9.322078723204e+01 
-1.389154794615e+02 8.719153449811e+00 0.0 
8.719153449811e+00 -3.223977392820e+02 0.0 
0.0 0.0 -1.379939656230e+02 
-1.315133746690e+02 5.545281534003e+00 0.0 
5.545281534003e+00 -3.013568704422e+02 0.0 
0.0 0.0 -1.294610735334e+02 
-1.004121132643e+02 2.679075505597e-01 0.0 
2.679075505597e-01 -2.278955459466e+02 0.0 
0.0 0.0 -9.809229776325e+01 
-1.349271145313e+02 8.655822885717e+00 0.0 
8.655822885717e+00 -3.101588533160e+02 0.0 
0.0 0.0 -1.331257903542e+02 
-6.205925234396e+01 2.592333549584e-01 0.0 
2.592333549584e-01 -1.592451801418e+02 0.0 
0.0 0.0 -6.599132974574e+01 
-6.570243802311e+01 1.185321128040e-01 0.0 
1.185321128040e-01 -1.444066741290e+02 0.0 
0.0 0.0 -6.263273364564e+01 
-1.386173910187e+02 1.059933491437e+01 0.0 
1.059933491437e+01 -3.250330966225e+02 0.0 
0.0 0.0 -1.386951462923e+02 
-1.344445611494e+02 -2.481581755585e-01 0.0 
-2.481581755585e-01 -3.128744705411e+02 0.0 
0.0 0.0 -1.337957095072e+02 
-4.273618765234e+00 1.163097718689e-01 0.0 
1.163097718689e-01 -8.552895099779e+00 0.0 
0.0 0.0 -4.373202982670e+00 
-6.561827160171e+01 -2.169441467302e-01 0.0 
-2.169441467302e-01 -1.446559898520e+02 0.0 
0.0 0.0 -6.268227843612e+01 
-1.564222167975e+02 8.960444025329e-01 0.0 
8.960444025329e-01 -3.699068703005e+02 0.0 
0.0 0.0 -1.574987261294e+02 
-2.856816103549e+01 -1.252978200041e+00 0.0 
-1.252978200041e+00 -7.309690982142e+01 0.0 
0.0 0.0 -3.009952125707e+01 
-1.396559908426e+02 9.616109134947e+00 0.0 
9.616109134947e+00 -3.356129130130e+02 0.0 
0.0 0.0 -1.421806711567e+02 
-1.320050093065e+02 6.418173849711e+00 0.0 
6.418173849711e+00 -3.004164100311e+02 0.0 
0.0 0.0 -1.293264258013e+02 
-1.339068198732e+02 2.188366305069e+00 0.0 
2.188366305069e+00 -3.105533146826e+02 0.0 
0.0 0.0 -1.329380403668e+02 
-2.761245193748e+01 -9.953510520806e-01 0.0 
-9.953510520806e-01 -7.030278438547e+01 0.0 
0.0 0.0 -2.897457089689e+01 
-1.752067140689e+01 6.382052412316e+00 0.0 
6.382052412316e+00 -4.177800471643e+01 0.0 
0.0 0.0 -1.738960283700e+01 
-8.932106196634e+01 -1.312195157993e+00 0.0 
-1.312195157993e+00 -2.269452221559e+02 0.0 
0.0 0.0 -9.447988523666e+01 
-1.149035554730e+02 2.571980122214e-02 0.0 
2.571980122214e-02 -2.640955834941e+02 0.0 
0.0 0.0 -1.132997416901e+02 
-1.480402382481e+01 -4.913112640311e-01 0.0 
-4.913112640311e-01 -5.884747637309e+00 0.0 
0.0 0.0 -5.806631438637e+00 
-1.351522687690e+02 4.291550279447e+00 0.0 
4.291550279447e+00 -3.141647626562e+02 0.0 
0.0 0.0 -1.343951094276e+02 
-9.318745547308e+01 5.462568059390e-02 0.0 
5.462568059390e-02 -2.103278601933e+02 0.0 
0.0 0.0 -9.065459469990e+01 
-2.770248268445e+01 -7.602844983568e-01 0.0 
-7.602844983568e-01 -6.930850161798e+01 0.0 
0.0 0.0 -2.870329529073e+01 
-8.746067140712e+01 1.540857534284e-02 0.0 
1.540857534284e-02 -1.965423311581e+02 0.0 
0.0 0.0 -8.480090076956e+01 
-1.438965262777e+02 1.233076575664e+01 0.0 
1.233076575664e+01 -3.356432979311e+02 0.0 
0.0 0.0 -1.434619472626e+02 
-9.419426124987e+01 1.202360641407e+00 0.0 
1.202360641407e+00 -2.375880766192e+02 0.0 
0.0 0.0 -9.913470136071e+01 
-1.207038238860e+01 6.086123117288e+00 0.0 
6.086123117288e+00 -1.073171856205e+01 0.0 
0.0 0.0 -6.414627609828e+00 
-5.537571466254e+01 -8.578530188627e-01 0.0 
-8.578530188627e-01 -1.445831584325e+02 0.0 
0.0 0.0 -5.958766192850e+01 
-8.179079701932e+01 -2.576044734183e-01 0.0 
-2.576044734183e-01 -2.086247389049e+02 0.0 
0.0 0.0 -8.672466077726e+01 
-9.845022173790e+01 -1.344371755513e+00 0.0 
-1.344371755513e+00 -2.466462095819e+02 0.0 
0.0 0.0 -1.031289293960e+02 
-1.398601643133e+02 1.172389234192e+01 0.0 
1.172389234192e+01 -3.287720714498e+02 0.0 
0.0 0.0 -1.401896707289e+02 
-7.948055208956e+01 7.017378540117e-01 0.0 
7.017378540117e-01 -2.033515012743e+02 0.0 
0.0 0.0 -8.444961600915e+01 
-8.508568458243e+01 -2.048766747345e-01 0.0 
-2.048766747345e-01 -2.158650956414e+02 0.0 
0.0 0.0 -8.988523406715e+01 
-1.540608201877e+01 -1.129081022562e+00 0.0 
-1.129081022562e+00 -3.707511808857e+01 0.0 
0.0 0.0 -1.534436003220e+01 
-1.475554571116e+02 3.592916939425e+00 0.0 
3.592916939425e+00 -3.532650094130e+02 0.0 
0.0 0.0 -1.498461399574e+02 
-1.301541000710e+02 9.154616438147e+00 0.0 
9.154616438147e+00 -3.001626469170e+02 0.0 
0.0 0.0 -1.286950240964e+02 
-1.865045099072e+01 6.846679778039e+00 0.0 
6.846679778039e+00 -5.325759288446e+01 0.0 
0.0 0.0 -2.117241316256e+01 
-1.342905490712e+02 5.899412128202e-01 0.0 
5.899412128202e-01 -3.122722846967e+02 0.0 
0.0 0.0 -1.335688501304e+02 
-1.563465991484e+02 -1.147731462970e-01 0.0 
-1.147731462970e-01 -3.694426725302e+02 0.0 
0.0 0.0 -1.573367815036e+02 
-7.224216182252e+01 6.373948491489e-01 0.0 
6.373948491489e-01 -1.599126698531e+02 0.0 
0.0 0.0 -6.924644950268e+01 
-9.335209223759e+01 5.422935716694e-02 0.0 
5.422935716694e-02 -2.103761786951e+02 0.0 
0.0 0.0 -9.071848127981e+01 
-7.969845510927e+01 -5.663191820054e-01 0.0 
-5.663191820054e-01 -2.032419992907e+02 0.0 
0.0 0.0 -8.448213631998e+01 
-8.256614010581e+01 5.063133836985e-01 0.0 
5.063133836985e-01 -2.094643440792e+02 0.0 
0.0 0.0 -8.720914525551e+01 
-8.486582329839e+01 2.369325383197e-01 0.0 
2.369325383197e-01 -2.162485544784e+02 0.0 
0.0 0.0 -8.993431333302e+01 
-1.342356940694e+02 8.738149193434e+00 0.0 
8.738149193434e+00 -3.228042770149e+02 0.0 
0.0 0.0 -1.367119913253e+02 
-2.228115641500e+01 -1.639237557247e+00 0.0 
-1.639237557247e+00 -5.634617118819e+01 0.0 
0.0 0.0 -2.318819828096e+01 
-1.354173225003e+02 1.078790784624e+01 0.0 
1.078790784624e+01 -3.110211182273e+02 0.0 
0.0 0.0 -1.335315322183e+02 
-7.927361792670e+01 -1.760084107763e-01 0.0 
-1.760084107763e-01 -1.767406743231e+02 0.0 
0.0 0.0 -7.640428767494e+01 
-1.357048181577e+02 4.546447467549e+00 0.0 
4.546447467549e+00 -3.130465415714e+02 0.0 
0.0 0.0 -1.342254079187e+02 
-1.347040729082e+02 9.661546879134e+00 0.0 
9.661546879134e+00 -3.228390657483e+02 0.0 
0.0 0.0 -1.368629415969e+02 
-8.836593987441e+01 5.501279294720e-01 0.0 
5.501279294720e-01 -1.972604228041e+02 0.0 
0.0 0.0 -8.528790880355e+01 
-1.298454425658e+02 7.775360028937e+00 0.0 
7.775360028937e+00 -2.970771207657e+02 0.0 
0.0 0.0 -1.276767689994e+02 
-1.388052295609e+02 1.042237020054e+01 0.0 
1.042237020054e+01 -3.276785073866e+02 0.0 
0.0 0.0 -1.395451210843e+02 
-1.449740469741e+02 1.200315790743e+01 0.0 
1.200315790743e+01 -3.409621859314e+02 0.0 
0.0 0.0 -1.453808698717e+02 
-1.194872728194e+01 5.653151684839e+00 0.0 
5.653151684839e+00 -1.799441658125e+01 0.0 
0.0 0.0 -8.796976020015e+00 
-1.307420728425e+02 9.035336539775e+00 0.0 
9.035336539775e+00 -2.976590711148e+02 0.0 
0.0 0.0 -1.281203431872e+02 
-1.346709427635e+02 8.337310707196e+00 0.0 
8.337310707196e+00 -3.089696791025e+02 0.0 
0.0 0.0 -1.326921865598e+02 
-1.637614387046e+01 -2.077769843769e-01 0.0 
-2.077769843769e-01 -3.817271766383e+01 0.0 
0.0 0.0 -1.596465846029e+01 
-7.562944037706e+01 4.405719304079e-01 0.0 
4.405719304079e-01 -1.933968000358e+02 0.0 
0.0 0.0 -8.030787212386e+01 
-1.380710910662e+01 4.490374702970e+00 0.0 
4.490374702970e+00 -1.779741461157e+01 0.0 
0.0 0.0 -9.081357115456e+00 
-1.352711802465e+02 9.103098548680e+00 0.0 
9.103098548680e+00 -3.089400752587e+02 0.0 
0.0 0.0 -1.328633766515e+02 
-7.050468886399e+00 4.838898694367e-01 0.0 
4.838898694367e-01 -7.981863337826e+00 0.0 
0.0 0.0 -4.109699667267e+00 
-7.853136774123e+00 -7.637604410530e-02 0.0 
-7.637604410530e-02 -9.871816205737e+00 0.0 
0.0 0.0 -4.917485893958e+00 
-7.166959712655e+00 1.947997426263e-01 0.0 
1.947997426263e-01 -9.608387905404e+00 0.0 
0.0 0.0 -4.632604285418e+00 
-7.695664380332e+00 3.768929169220e-02 0.0 
3.768929169220e-02 -9.899156476332e+00 0.0 
0.0 0.0 -4.878446256999e+00 
-7.282439912938e+00 7.615682837031e-02 0.0 
7.615682837031e-02 -9.729534497384e+00 0.0 
0.0 0.0 -4.703592323097e+00 
-7.580358062867e+00 -1.273228363855e-02 0.0 
-1.273228363855e-02 -9.900076489906e+00 0.0 
0.0 0.0 -4.844130365832e+00 
-7.279032831460e+00 5.456170787568e-03 0.0 
5.456170787568e-03 -9.776403932642e+00 0.0 
0.0 0.0 -4.716631029231e+00 
-7.485580635542e+00 -5.969573737116e-02 0.0 
-5.969573737116e-02 -9.911863843444e+00 0.0 
0.0 0.0 -4.819233343696e+00 
-7.187912289158e+00 -3.599814215439e-02 0.0 
-3.599814215439e-02 -9.793083481169e+00 0.0 
0.0 0.0 -4.694298731098e+00 
-7.382912112938e+00 -9.845739857475e-02 0.0 
-9.845739857475e-02 -9.926752162237e+00 0.0 
0.0 0.0 -4.792899282552e+00 
-7.032665127485e+00 -6.162393268895e-02 0.0 
-6.162393268895e-02 -9.792687312140e+00 0.0 
0.0 0.0 -4.647605731887e+00 
-7.260594751534e+00 -1.323013288633e-01 0.0 
-1.323013288633e-01 -9.942517299696e+00 0.0 
0.0 0.0 -4.760933615369e+00 
-6.825874877275e+00 -7.962909802916e-02 0.0 
-7.962909802916e-02 -9.783106998704e+00 0.0 
0.0 0.0 -4.582694562794e+00 
-7.114531417337e+00 -1.643699832831e-01 0.0 
-1.643699832831e-01 -9.958979813560e+00 0.0 
0.0 0.0 -4.722053369269e+00 
-6.572679044076e+00 -9.445443046417e-02 0.0 
-9.445443046417e-02 -9.768381009675e+00 0.0 
0.0 0.0 -4.502318016125e+00 
-6.942641253181e+00 -1.966392866291e-01 0.0 
-1.966392866291e-01 -9.976319081212e+00 0.0 
0.0 0.0 -4.675688100318e+00 
-6.274050440134e+00 -1.082811680082e-01 0.0 
-1.082811680082e-01 -9.750604031988e+00 0.0 
0.0 0.0 -4.407396341637e+00 
-6.744116820286e+00 -2.300806200771e-01 0.0 
-2.300806200771e-01 -9.994737126718e+00 0.0 
0.0 0.0 -4.621656184101e+00 
-5.928860412361e+00 -1.222233826182e-01 0.0 
-1.222233826182e-01 -9.730566779527e+00 0.0 
0.0 0.0 -4.297828157566e+00 
-3.727312322893e+00 2.443343324351e+00 0.0 
2.443343324351e+00 -1.173838183899e+01 0.0 
0.0 0.0 -4.239708248565e+00 
-6.518850076634e+00 -2.652468484435e-01 0.0 
-2.652468484435e-01 -1.001447807655e+01 0.0 
0.0 0.0 -4.559998445955e+00 
-5.534850265777e+00 -1.368364419249e-01 0.0 
-1.368364419249e-01 -9.708539828411e+00 0.0 
0.0 0.0 -4.173017028256e+00 
-6.268172360481e+00 -3.024497604968e-01 0.0 
-3.024497604968e-01 -1.003590501977e+01 0.0 
0.0 0.0 -4.491223214074e+00 
-7.912031635711e+00 1.134553787306e+00 0.0 
1.134553787306e+00 -1.083176951065e+01 0.0 
0.0 0.0 -5.223140343907e+00 
-5.089068631536e+00 -1.525142711127e-01 0.0 
-1.525142711127e-01 -9.684198813829e+00 0.0 
0.0 0.0 -4.031980233609e+00 
-5.995028013646e+00 -3.421481453186e-01 0.0 
-3.421481453186e-01 -1.005976044993e+01 0.0 
0.0 0.0 -4.416436539074e+00 
-4.588594945363e+00 -1.684936018626e-01 0.0 
-1.684936018626e-01 -9.658188043159e+00 0.0 
0.0 0.0 -3.874034896557e+00 
-5.699562416023e+00 -3.825021881233e-01 0.0 
-3.825021881233e-01 -1.008571121772e+01 0.0 
0.0 0.0 -4.335582090123e+00 
-4.033115876401e+00 -1.839021886512e-01 0.0 
-1.839021886512e-01 -9.630954746219e+00 0.0 
0.0 0.0 -3.699221186786e+00 
9.984429019808e-01 -9.725949252274e-02 0.0 
-9.725949252274e-02 -5.075024673613e+00 0.0 
0.0 0.0 -4.945380031115e-01 
-5.391468072729e+00 -4.220938945523e-01 0.0 
-4.220938945523e-01 -1.011455779329e+01 0.0 
0.0 0.0 -4.251807759804e+00 
-3.425659099544e+00 -1.962288677643e-01 0.0 
-1.962288677643e-01 -9.603573360972e+00 0.0 
0.0 0.0 -3.508769738155e+00 
-5.074810537862e+00 -4.559080510836e-01 0.0 
-4.559080510836e-01 -1.014474378925e+01 0.0 
0.0 0.0 -4.165866298133e+00 
-2.773907002486e+00 -2.068702106829e-01 0.0 
-2.068702106829e-01 -9.572182077683e+00 0.0 
0.0 0.0 -3.303826724051e+00 
-4.788059877014e+00 -4.877620992686e-01 0.0 
-4.877620992686e-01 -1.018136794025e+01 0.0 
0.0 0.0 -4.090828345179e+00 
-2.086234893370e+00 -2.083940335349e-01 0.0 
-2.083940335349e-01 -9.543962208238e+00 0.0 
0.0 0.0 -3.089059130482e+00 
-4.518675538966e+00 -5.014816440778e-01 0.0 
-5.014816440778e-01 -1.021745682148e+01 0.0 
0.0 0.0 -4.020839708133e+00 
-1.383868795799e+00 -2.091906973577e-01 0.0 
-2.091906973577e-01 -9.501923067482e+00 0.0 
0.0 0.0 -2.865737558984e+00 
-4.377458083709e+00 -5.171549658861e-01 0.0 
-5.171549658861e-01 -1.027027750570e+01 0.0 
0.0 0.0 -3.994320676822e+00 
-6.842196404935e-01 -1.788832905466e-01 0.0 
-1.788832905466e-01 -9.488966863900e+00 0.0 
0.0 0.0 -2.651955951318e+00 
-4.272046593501e+00 -4.689006819583e-01 0.0 
-4.689006819583e-01 -1.031128569770e+01 0.0 
0.0 0.0 -3.974999687360e+00 
-1.102519403694e+01 4.153594329855e+00 0.0 
4.153594329855e+00 -1.250874701094e+01 0.0 
0.0 0.0 -6.660182314366e+00 
-4.558148438142e+00 -4.522596251569e-01 0.0 
-4.522596251569e-01 -1.040079830664e+01 0.0 
0.0 0.0 -4.087684023434e+00 
-5.723971017354e-02 -1.555270449908e-01 0.0 
-1.555270449908e-01 -9.416041873405e+00 0.0 
0.0 0.0 -2.441984475073e+00 
-4.813248076967e+00 -1.903101937445e-01 0.0 
-1.903101937445e-01 -1.043364484281e+01 0.0 
0.0 0.0 -4.174067875934e+00 
4.639368752940e-01 -1.577136793566e-02 0.0 
-1.577136793566e-02 -9.508831526513e+00 0.0 
0.0 0.0 -2.313468395366e+00 
-6.014339719921e+00 -5.381226044919e-02 0.0 
-5.381226044919e-02 -1.058971697313e+01 0.0 
0.0 0.0 -4.581217007914e+00 
5.944571634077e-01 1.186301317184e-01 0.0 
1.186301317184e-01 -9.376340831015e+00 0.0 
0.0 0.0 -2.234565100282e+00 
1.766386128787e-01 7.826764026018e-01 0.0 
7.826764026018e-01 -1.016948661440e+01 0.0 
0.0 0.0 -2.597854400457e+00 
-4.869929953542e+00 5.194907604099e-01 0.0 
5.194907604099e-01 -1.331839528836e+00 0.0 
0.0 0.0 -1.460530844713e+00 
-7.918844540355e+00 1.503682251334e+00 0.0 
1.503682251334e+00 -1.027287851274e+01 0.0 
0.0 0.0 -5.057516915928e+00 
-8.234333595889e+00 -1.289006382644e+00 0.0 
-1.289006382644e+00 -8.391449143333e+00 0.0 
0.0 0.0 -4.587734821767e+00 
-9.920665121853e+00 2.319021017749e-01 0.0 
2.319021017749e-01 -1.451978551163e+01 0.0 
0.0 0.0 -6.932135190046e+00 
-6.308640072116e+00 -5.995127868572e-02 0.0 
-5.995127868572e-02 -4.279160910348e+00 0.0 
0.0 0.0 -2.776340294739e+00 
-7.196064921477e+00 4.534161316466e+00 0.0 
4.534161316466e+00 -7.709560909464e+00 0.0 
0.0 0.0 -4.071687749282e+00 
-1.695887595146e+01 2.434796953289e-01 0.0 
2.434796953289e-01 -3.122665070203e+01 0.0 
0.0 0.0 -1.405565799605e+01 
-1.623778369483e+01 -2.831466975019e-01 0.0 
-2.831466975019e-01 -2.943599235404e+01 0.0 
0.0 0.0 -1.330213281466e+01 
-1.615294143355e+01 -1.084310671070e-02 0.0 
-1.084310671070e-02 -2.936590845549e+01 0.0 
0.0 0.0 -1.325565496671e+01 
-1.598980489728e+01 -6.468153276873e-02 0.0 
-6.468153276873e-02 -2.925215101587e+01 0.0 
0.0 0.0 -1.317258677395e+01 
-1.605170669649e+01 -5.573164925925e-02 0.0 
-5.573164925925e-02 -2.927679431177e+01 0.0 
0.0 0.0 -1.319855030248e+01 
-1.587306169981e+01 -9.014245469563e-02 0.0 
-9.014245469563e-02 -2.924971830945e+01 0.0 
0.0 0.0 -1.313683400278e+01 
-1.598355494931e+01 -1.056698880314e-01 0.0 
-1.056698880314e-01 -2.930025860060e+01 0.0 
0.0 0.0 -1.318514406497e+01 
-1.577854284474e+01 -1.450029755176e-01 0.0 
-1.450029755176e-01 -2.926210899825e+01 0.0 
0.0 0.0 -1.311219555290e+01 
-1.591318201600e+01 -1.570476014555e-01 0.0 
-1.570476014555e-01 -2.932226594223e+01 0.0 
0.0 0.0 -1.317063438747e+01 
-1.567244301689e+01 -2.032827907102e-01 0.0 
-2.032827907102e-01 -2.926899093812e+01 0.0 
0.0 0.0 -1.308243018650e+01 
-1.583714546041e+01 -2.051360494988e-01 0.0 
-2.051360494988e-01 -2.933796918108e+01 0.0 
0.0 0.0 -1.315253439245e+01 
-1.554305280315e+01 -2.602873315401e-01 0.0 
-2.602873315401e-01 -2.926825275347e+01 0.0 
0.0 0.0 -1.304339166699e+01 
-1.575370283897e+01 -2.500617209291e-01 0.0 
-2.500617209291e-01 -2.935001889961e+01 0.0 
0.0 0.0 -1.313111652157e+01 
-1.538667590094e+01 -3.163261508423e-01 0.0 
-3.163261508423e-01 -2.926065027531e+01 0.0 
0.0 0.0 -1.299419785288e+01 
-1.566312013706e+01 -2.940016152313e-01 0.0 
-2.940016152313e-01 -2.936097260163e+01 0.0 
0.0 0.0 -1.310722782161e+01 
-1.520242887515e+01 -3.729476694084e-01 0.0 
-3.729476694084e-01 -2.924915686581e+01 0.0 
0.0 0.0 -1.293547572229e+01 
-1.556347345323e+01 -3.379124893117e-01 0.0 
-3.379124893117e-01 -2.937250832541e+01 0.0 
0.0 0.0 -1.308079453359e+01 
-1.498987084837e+01 -4.304998402655e-01 0.0 
-4.304998402655e-01 -2.923482985890e+01 0.0 
0.0 0.0 -1.286741021218e+01 
-1.591604589239e+01 2.505079937322e+00 0.0 
2.505079937322e+00 -3.208494301307e+01 0.0 
0.0 0.0 -1.400029667164e+01 
-1.545557735253e+01 -3.822351052854e-01 0.0 
-3.822351052854e-01 -2.938548275125e+01 0.0 
0.0 0.0 -1.305231803114e+01 
-1.474923724904e+01 -4.887665943608e-01 0.0 
-4.887665943608e-01 -2.921871481217e+01 0.0 
0.0 0.0 -1.279038561836e+01 
-1.534231823911e+01 -4.261937801112e-01 0.0 
-4.261937801112e-01 -2.940068599673e+01 0.0 
0.0 0.0 -1.302290127075e+01 
-1.240138492957e+01 1.021112680691e+00 0.0 
1.021112680691e+00 -2.549282246230e+01 0.0 
0.0 0.0 -1.096826221756e+01 
-1.448160577755e+01 -5.467516767932e-01 0.0 
-5.467516767932e-01 -2.920058299293e+01 0.0 
0.0 0.0 -1.270465663115e+01 
-1.814340118901e+01 1.215057375051e+00 0.0 
1.215057375051e+00 -3.046637797273e+01 0.0 
0.0 0.0 -1.418293374852e+01 
-1.523018347247e+01 -4.687476922485e-01 0.0 
-4.687476922485e-01 -2.941868041305e+01 0.0 
0.0 0.0 -1.299465916566e+01 
-1.418935200379e+01 -6.032786543421e-01 0.0 
-6.032786543421e-01 -2.917984976027e+01 0.0 
0.0 0.0 -1.261076052922e+01 
-1.512756854150e+01 -5.112911509155e-01 0.0 
-5.112911509155e-01 -2.944169651848e+01 0.0 
0.0 0.0 -1.297077951799e+01 
-1.387710851990e+01 -6.558019653388e-01 0.0 
-6.558019653388e-01 -2.916665212676e+01 0.0 
0.0 0.0 -1.251312819400e+01 
-1.503184066078e+01 -5.444480382422e-01 0.0 
-5.444480382422e-01 -2.946978124319e+01 0.0 
0.0 0.0 -1.295048657119e+01 
-1.355089321353e+01 -6.965371139512e-01 0.0 
-6.965371139512e-01 -2.915321645515e+01 0.0 
0.0 0.0 -1.241123290060e+01 
-1.496366212630e+01 -5.693378339873e-01 0.0 
-5.693378339873e-01 -2.950603501332e+01 0.0 
0.0 0.0 -1.294090914189e+01 
-1.322459680400e+01 -7.177674683252e-01 0.0 
-7.177674683252e-01 -2.916091174357e+01 0.0 
0.0 0.0 -1.231565256427e+01 
-2.019432925950e+01 2.900918166020e+00 0.0 
2.900918166020e+00 -3.315169842212e+01 0.0 
0.0 0.0 -1.560380830448e+01 
-1.492437992311e+01 -5.574605943675e-01 0.0 
-5.574605943675e-01 -2.954431353125e+01 0.0 
0.0 0.0 -1.294060803631e+01 
-1.291432129784e+01 -7.077406770966e-01 0.0 
-7.077406770966e-01 -2.914264458884e+01 0.0 
0.0 0.0 -1.221708976600e+01 
-1.499220702997e+01 -5.427892421163e-01 0.0 
-5.427892421163e-01 -2.960209352024e+01 0.0 
0.0 0.0 -1.297829016506e+01 
-1.265545542746e+01 -6.576826012055e-01 0.0 
-6.576826012055e-01 -2.920327656130e+01 0.0 
0.0 0.0 -1.215761959663e+01 
-1.247577609027e+01 -5.413773955644e-01 0.0 
-5.413773955644e-01 -2.916635285434e+01 0.0 
0.0 0.0 -1.209263868338e+01 
-1.509084429849e+01 -4.282865388548e-01 0.0 
-4.282865388548e-01 -2.964674388797e+01 0.0 
0.0 0.0 -1.302127645594e+01 
-1.245992114742e+01 -3.307436272058e-01 0.0 
-3.307436272058e-01 -2.941632632351e+01 0.0 
0.0 0.0 -1.216287424128e+01 
-1.547402123614e+01 -3.513214262650e-01 0.0 
-3.513214262650e-01 -2.975882982706e+01 0.0 
0.0 0.0 -1.316985531896e+01 
-1.265899228929e+01 3.213452797838e-02 0.0 
3.213452797838e-02 -2.930276729264e+01 0.0 
0.0 0.0 -1.218852787458e+01 
-1.329766043845e+01 6.620191987701e-01 0.0 
6.620191987701e-01 -3.023060701961e+01 0.0 
0.0 0.0 -1.265848023742e+01 
-1.573222144002e+01 3.446034782045e-02 0.0 
3.446034782045e-02 -2.977559522575e+01 0.0 
0.0 0.0 -1.325234499973e+01 
-1.683767290003e+01 1.983982599973e-01 0.0 
1.983982599973e-01 -3.007483802948e+01 0.0 
0.0 0.0 -1.367375327885e+01 
-1.570146419285e+01 1.501060314737e+00 0.0 
1.501060314737e+00 -2.363005423115e+01 0.0 
0.0 0.0 -1.139945552720e+01 
-1.671244284208e+01 1.434994217515e+00 0.0 
1.434994217515e+00 -2.916108017048e+01 0.0 
0.0 0.0 -1.336205690377e+01 
-1.638514031736e+01 -1.455223728449e+00 0.0 
-1.455223728449e+00 -3.108651629011e+01 0.0 
0.0 0.0 -1.384149698224e+01 
-1.440532093661e+01 1.172853705697e-01 0.0 
1.172853705697e-01 -2.498398241274e+01 0.0 
0.0 0.0 -1.141679100480e+01 
-1.861627233430e+01 -1.823458969645e-01 0.0 
-1.823458969645e-01 -3.511925887070e+01 0.0 
0.0 0.0 -1.572065936150e+01 
-1.441217983853e+01 3.142675704488e+00 0.0 
3.142675704488e+00 -2.599878198389e+01 0.0 
0.0 0.0 -1.172328854673e+01 
-2.383930827579e+01 1.928334482197e-01 0.0 
1.928334482197e-01 -4.728099279211e+01 0.0 
0.0 0.0 -2.093609032037e+01 
-2.460388885954e+01 -3.097016938272e-01 0.0 
-3.097016938272e-01 -4.892854765942e+01 0.0 
0.0 0.0 -2.165973095569e+01 
-2.453570864628e+01 -9.843368121383e-02 0.0 
-9.843368121383e-02 -4.892569861855e+01 0.0 
0.0 0.0 -2.163842217945e+01 
-2.465519851770e+01 -1.418582707868e-01 0.0 
-1.418582707868e-01 -4.902605922961e+01 0.0 
0.0 0.0 -2.170437732419e+01 
-2.448546974641e+01 -1.329334635758e-01 0.0 
-1.329334635758e-01 -4.895557476157e+01 0.0 
0.0 0.0 -2.163231335240e+01 
-2.464272713863e+01 -1.787273212567e-01 0.0 
-1.787273212567e-01 -4.904233214682e+01 0.0 
0.0 0.0 -2.170551778564e+01 
-2.440159952172e+01 -1.711943124516e-01 0.0 
-1.711943124516e-01 -4.894236260290e+01 0.0 
0.0 0.0 -2.160318863738e+01 
-2.462010186557e+01 -2.339051542844e-01 0.0 
-2.339051542844e-01 -4.906329501689e+01 0.0 
0.0 0.0 -2.170501906474e+01 
-2.432180669202e+01 -2.209482808968e-01 0.0 
-2.209482808968e-01 -4.894239018629e+01 0.0 
0.0 0.0 -2.157925906349e+01 
-2.459564211231e+01 -2.954331131505e-01 0.0 
-2.954331131505e-01 -4.908346013909e+01 0.0 
0.0 0.0 -2.170373067542e+01 
-2.423950778692e+01 -2.750081767267e-01 0.0 
-2.750081767267e-01 -4.894348127628e+01 0.0 
0.0 0.0 -2.155489671896e+01 
-2.456933419560e+01 -3.591127212649e-01 0.0 
-3.591127212649e-01 -4.909956941434e+01 0.0 
0.0 0.0 -2.170067108298e+01 
-2.414986461420e+01 -3.289234535823e-01 0.0 
-3.289234535823e-01 -4.894106304182e+01 0.0 
0.0 0.0 -2.152727829681e+01 
-2.454810436609e+01 -4.228910088150e-01 0.0 
-4.228910088150e-01 -4.911164741809e+01 0.0 
0.0 0.0 -2.169792553526e+01 
-2.405013167211e+01 -3.832044267952e-01 0.0 
-3.832044267952e-01 -4.893066618342e+01 0.0 
0.0 0.0 -2.149423935666e+01 
-2.453327118488e+01 -4.896360124333e-01 0.0 
-4.896360124333e-01 -4.912309727643e+01 0.0 
0.0 0.0 -2.169691053839e+01 
-2.393986988894e+01 -4.372042451401e-01 0.0 
-4.372042451401e-01 -4.891743334208e+01 0.0 
0.0 0.0 -2.145719096931e+01 
-2.623498776392e+01 2.149293343900e+00 0.0 
2.149293343900e+00 -5.181066298087e+01 0.0 
0.0 0.0 -2.301369522343e+01 
-2.452046218183e+01 -5.564613264610e-01 0.0 
-5.564613264610e-01 -4.913422765983e+01 0.0 
0.0 0.0 -2.169640695250e+01 
-2.382086141068e+01 -4.893710042802e-01 0.0 
-4.893710042802e-01 -4.890447888693e+01 0.0 
0.0 0.0 -2.141760208928e+01 
-2.790233541340e+01 8.377877191433e-01 0.0 
8.377877191433e-01 -5.033530765535e+01 0.0 
0.0 0.0 -2.307129292062e+01 
-2.451124378918e+01 -6.207964202315e-01 0.0 
-6.207964202315e-01 -4.914641269635e+01 0.0 
0.0 0.0 -2.169729694566e+01 
-2.369725566620e+01 -5.365188531410e-01 0.0 
-5.365188531410e-01 -4.889553999326e+01 0.0 
0.0 0.0 -2.137783869784e+01 
-2.451552581064e+01 -6.780678204858e-01 0.0 
-6.780678204858e-01 -4.916004885834e+01 0.0 
0.0 0.0 -2.170267240070e+01 
-2.357443316245e+01 -5.764421172346e-01 0.0 
-5.764421172346e-01 -4.888859635633e+01 0.0 
0.0 0.0 -2.133890885563e+01 
-2.454380837036e+01 -7.258493094389e-01 0.0 
-7.258493094389e-01 -4.917443862257e+01 0.0 
0.0 0.0 -2.171547409788e+01 
-2.336872781824e+01 9.232952884912e-01 0.0 
9.232952884912e-01 -4.531396617197e+01 0.0 
0.0 0.0 -2.020480819706e+01 
-2.345828983707e+01 -6.091754183312e-01 0.0 
-6.091754183312e-01 -4.888004620815e+01 0.0 
0.0 0.0 -2.130150081357e+01 
-2.461322014683e+01 -7.704770329082e-01 0.0 
-7.704770329082e-01 -4.920386875313e+01 0.0 
0.0 0.0 -2.174512666999e+01 
-2.335770560276e+01 -6.245386416716e-01 0.0 
-6.245386416716e-01 -4.889679944115e+01 0.0 
0.0 0.0 -2.127635151317e+01 
-2.468118799567e+01 -7.826782113210e-01 0.0 
-7.826782113210e-01 -4.923283269607e+01 0.0 
0.0 0.0 -2.177420620752e+01 
-2.328851984291e+01 -6.105044543985e-01 0.0 
-6.105044543985e-01 -4.893070301872e+01 0.0 
0.0 0.0 -2.126576685849e+01 
-2.484181618392e+01 -7.683906398469e-01 0.0 
-7.683906398469e-01 -4.929663902777e+01 0.0 
0.0 0.0 -2.184153656351e+01 
-2.327221275810e+01 -5.440448030875e-01 0.0 
-5.440448030875e-01 -4.902259014622e+01 0.0 
0.0 0.0 -2.128844087130e+01 
-2.497220117905e+01 -6.527657974386e-01 0.0 
-6.527657974386e-01 -4.932240061012e+01 0.0 
0.0 0.0 -2.188838053675e+01 
-2.333573253522e+01 -4.249871157258e-01 0.0 
-4.249871157258e-01 -4.907031969915e+01 0.0 
0.0 0.0 -2.132181567031e+01 
-2.542416628784e+01 -5.479475818048e-01 0.0 
-5.479475818048e-01 -4.946867560867e+01 0.0 
0.0 0.0 -2.206785256895e+01 
-2.966845669642e+01 2.078657673100e+00 0.0 
2.078657673100e+00 -5.303350222722e+01 0.0 
0.0 0.0 -2.441058767709e+01 
-2.561382560679e+01 -1.688926731669e-01 0.0 
-1.688926731669e-01 -4.946367479261e+01 0.0 
0.0 0.0 -2.212325011982e+01 
-2.352326495283e+01 -2.018658529232e-01 0.0 
-2.018658529232e-01 -4.932239208143e+01 0.0 
0.0 0.0 -2.145369711028e+01 
-2.672261989740e+01 7.854508084960e-03 0.0 
7.854508084960e-03 -4.986683293774e+01 0.0 
0.0 0.0 -2.257683585054e+01 
-2.385892895041e+01 1.047098600325e-01 0.0 
1.047098600325e-01 -4.932361449369e+01 0.0 
0.0 0.0 -2.155476303323e+01 
-2.446202328625e+01 6.496379544186e-01 0.0 
6.496379544186e-01 -5.014513286695e+01 0.0 
0.0 0.0 -2.198214684596e+01 
-2.552543370129e+01 1.204811424169e+00 0.0 
1.204811424169e+00 -4.385228345537e+01 0.0 
0.0 0.0 -2.041331514700e+01 
-2.416954677754e+01 1.440319349444e+00 0.0 
1.440319349444e+00 -4.949524076257e+01 0.0 
0.0 0.0 -2.169943626203e+01 
-2.451527421190e+01 -1.470985016533e+00 0.0 
-1.470985016533e+00 -4.746706795008e+01 0.0 
0.0 0.0 -2.119470264859e+01 
-2.655318735301e+01 1.213617883448e-01 0.0 
1.213617883448e-01 -5.360970662558e+01 0.0 
0.0 0.0 -2.364886819358e+01 
-2.220667984364e+01 -1.966629933762e-01 0.0 
-1.966629933762e-01 -4.349687639250e+01 0.0 
0.0 0.0 -1.931106687084e+01 
-2.447963398549e+01 2.357843356483e+00 0.0 
2.357843356483e+00 -4.525092116453e+01 0.0 
0.0 0.0 -2.051916654501e+01 
-3.382491255216e+01 2.147969813452e-01 0.0 
2.147969813452e-01 -7.035712492594e+01 0.0 
0.0 0.0 -3.085461124343e+01 
-3.302187326309e+01 -3.290515433606e-01 0.0 
-3.290515433606e-01 -6.857051126771e+01 0.0 
0.0 0.0 -3.007771535924e+01 
-3.310797237720e+01 -9.375582454912e-02 0.0 
-9.375582454912e-02 -6.857358525974e+01 0.0 
0.0 0.0 -3.010446729108e+01 
-3.295625824574e+01 -1.610174902014e-01 0.0 
-1.610174902014e-01 -6.839519859506e+01 0.0 
0.0 0.0 -3.000543705224e+01 
-3.309144134301e+01 -1.554588429744e-01 0.0 
-1.554588429744e-01 -6.845131795229e+01 0.0 
0.0 0.0 -3.006282778859e+01 
-3.292636993875e+01 -2.003789201155e-01 0.0 
-2.003789201155e-01 -6.837083201378e+01 0.0 
0.0 0.0 -2.998916058576e+01 
-3.309932041195e+01 -2.058267404614e-01 0.0 
-2.058267404614e-01 -6.844509894736e+01 0.0 
0.0 0.0 -3.006332580779e+01 
-3.289213545702e+01 -2.553651204101e-01 0.0 
-2.553651204101e-01 -6.836470673028e+01 0.0 
0.0 0.0 -2.997705265619e+01 
-3.312115256128e+01 -2.569977689741e-01 0.0 
-2.569977689741e-01 -6.846050310792e+01 0.0 
0.0 0.0 -3.007449670076e+01 
-3.285825363579e+01 -3.165650777688e-01 0.0 
-3.165650777688e-01 -6.836288702721e+01 0.0 
0.0 0.0 -2.996634219890e+01 
-3.314760242696e+01 -3.113311795969e-01 0.0 
-3.113311795969e-01 -6.847926239605e+01 0.0 
0.0 0.0 -3.008805944690e+01 
-3.282600668628e+01 -3.800133452554e-01 0.0 
-3.800133452554e-01 -6.836513855925e+01 0.0 
0.0 0.0 -2.995734357366e+01 
-3.317946141979e+01 -3.591878547918e-01 0.0 
-3.591878547918e-01 -6.849711404112e+01 0.0 
0.0 0.0 -3.010297263827e+01 
-3.279534738261e+01 -4.397715213138e-01 0.0 
-4.397715213138e-01 -6.835521445662e+01 0.0 
0.0 0.0 -2.994516855177e+01 
-3.323056868699e+01 -4.071885655331e-01 0.0 
-4.071885655331e-01 -6.850833511433e+01 0.0 
0.0 0.0 -3.012167114040e+01 
-3.276895940269e+01 -4.996092673493e-01 0.0 
-4.996092673493e-01 -6.833970311798e+01 0.0 
0.0 0.0 -2.993259875620e+01 
-3.554429707913e+01 1.712982942780e+00 0.0 
1.712982942780e+00 -7.134544430679e+01 0.0 
0.0 0.0 -3.166692241578e+01 
-3.330630006239e+01 -4.592072217883e-01 0.0 
-4.592072217883e-01 -6.852074430489e+01 0.0 
0.0 0.0 -3.014811331018e+01 
-3.274941200164e+01 -5.597580057555e-01 0.0 
-5.597580057555e-01 -6.833511057272e+01 0.0 
0.0 0.0 -2.992535677231e+01 
-3.311548301398e+01 7.491102714390e-01 0.0 
7.491102714390e-01 -6.478351354310e+01 0.0 
0.0 0.0 -2.896969896712e+01 
-3.337698250352e+01 -5.087775373440e-01 0.0 
-5.087775373440e-01 -6.853375234439e+01 0.0 
0.0 0.0 -3.017322045437e+01 
-3.273743544695e+01 -6.108859601957e-01 0.0 
-6.108859601957e-01 -6.834085989781e+01 0.0 
0.0 0.0 -2.992348860343e+01 
-3.695440442685e+01 6.277422377992e-01 0.0 
6.277422377992e-01 -6.989108064834e+01 0.0 
0.0 0.0 -3.165364552256e+01 
-3.347118356100e+01 -5.437411029148e-01 0.0 
-5.437411029148e-01 -6.855398452198e+01 0.0 
0.0 0.0 -3.020755042489e+01 
-3.274031830509e+01 -6.462766120109e-01 0.0 
-6.462766120109e-01 -6.835123134538e+01 0.0 
0.0 0.0 -2.992746489514e+01 
-3.360460504633e+01 -5.607708339800e-01 0.0 
-5.607708339800e-01 -6.857936283262e+01 0.0 
0.0 0.0 -3.025519036368e+01 
-3.276781215771e+01 -6.624647769876e-01 0.0 
-6.624647769876e-01 -6.836378079307e+01 0.0 
0.0 0.0 -2.993947788523e+01 
-3.377244571302e+01 -5.590911636650e-01 0.0 
-5.590911636650e-01 -6.860306574509e+01 0.0 
0.0 0.0 -3.031265343743e+01 
-3.282636982992e+01 -6.597040274672e-01 0.0 
-6.597040274672e-01 -6.836788468033e+01 0.0 
0.0 0.0 -2.995827635307e+01 
-3.842788354311e+01 1.497648862993e+00 0.0 
1.497648862993e+00 -7.253145090327e+01 0.0 
0.0 0.0 -3.288780033392e+01 
-3.402128308956e+01 -5.731508586660e-01 0.0 
-5.731508586660e-01 -6.866252915494e+01 0.0 
0.0 0.0 -3.040514367335e+01 
-3.293800048619e+01 -6.265031553713e-01 0.0 
-6.265031553713e-01 -6.849872850728e+01 0.0 
0.0 0.0 -3.003101869804e+01 
-3.421453818598e+01 -4.841395276256e-01 0.0 
-4.841395276256e-01 -6.872756181374e+01 0.0 
0.0 0.0 -3.048262999992e+01 
-3.309634719870e+01 -5.234514278108e-01 0.0 
-5.234514278108e-01 -6.855721139559e+01 0.0 
0.0 0.0 -3.009606757829e+01 
-3.336997466227e+01 -3.306742977043e-01 0.0 
-3.306742977043e-01 -6.891720540430e+01 0.0 
0.0 0.0 -3.028615401997e+01 
-3.461109146952e+01 -4.266273993716e-01 0.0 
-4.266273993716e-01 -6.887517565974e+01 0.0 
0.0 0.0 -3.064588013878e+01 
-3.370895061001e+01 -3.165751826913e-02 0.0 
-3.165751826913e-02 -6.879983902706e+01 0.0 
0.0 0.0 -3.035263689112e+01 
-3.480233432472e+01 -4.755296329108e-02 0.0 
-4.755296329108e-02 -6.892951670165e+01 0.0 
0.0 0.0 -3.071955530791e+01 
-3.427408360524e+01 3.734500503115e-01 0.0 
3.734500503115e-01 -6.967094345565e+01 0.0 
0.0 0.0 -3.078350811827e+01 
-3.591426416935e+01 -6.108325464559e-03 0.0 
-6.108325464559e-03 -6.930980632821e+01 0.0 
0.0 0.0 -3.116722114927e+01 
-3.456667924776e+01 1.110534123555e+00 0.0 
1.110534123555e+00 -6.354675294914e+01 0.0 
0.0 0.0 -2.903402965907e+01 
-3.345087807045e+01 1.451101744522e+00 0.0 
1.451101744522e+00 -6.821462015590e+01 0.0 
0.0 0.0 -3.009964946790e+01 
-3.311523611979e+01 -1.472501860266e+00 0.0 
-1.472501860266e+00 -7.017389369725e+01 0.0 
0.0 0.0 -3.058673894511e+01 
-3.103465442841e+01 1.158780976148e-01 0.0 
1.158780976148e-01 -6.406646313484e+01 0.0 
0.0 0.0 -2.813033526897e+01 
-3.544780887767e+01 -1.876423657013e-01 0.0 
-1.876423657013e-01 -7.415898685910e+01 0.0 
0.0 0.0 -3.248203872103e+01 
-3.405492610900e+01 1.889878055021e+00 0.0 
1.889878055021e+00 -6.469135261174e+01 0.0 
0.0 0.0 -2.922388361622e+01 
-4.070318670414e+01 2.312918623850e-01 0.0 
2.312918623850e-01 -8.640643128058e+01 0.0 
0.0 0.0 -3.773288539542e+01 
-4.148714500128e+01 -2.818509743715e-01 0.0 
-2.818509743715e-01 -8.807187851365e+01 0.0 
0.0 0.0 -3.846770705448e+01 
-4.147389888943e+01 -8.709737123291e-02 0.0 
-8.709737123291e-02 -8.809408045493e+01 0.0 
0.0 0.0 -3.847039380331e+01 
-4.161282754494e+01 -1.272615420699e-01 0.0 
-1.272615420699e-01 -8.816800738251e+01 0.0 
0.0 0.0 -3.853425047824e+01 
-4.152213158442e+01 -1.581112985221e-01 0.0 
-1.581112985221e-01 -8.812292851558e+01 0.0 
0.0 0.0 -3.849351803000e+01 
-4.164385722193e+01 -1.888724750725e-01 0.0 
-1.888724750725e-01 -8.817297090633e+01 0.0 
0.0 0.0 -3.854504843848e+01 
-4.153316389505e+01 -1.971366048344e-01 0.0 
-1.971366048344e-01 -8.812406707457e+01 0.0 
0.0 0.0 -3.849716929088e+01 
-4.171581803328e+01 -2.379515175269e-01 0.0 
-2.379515175269e-01 -8.818430603585e+01 0.0 
0.0 0.0 -3.857003722074e+01 
-4.154286211377e+01 -2.414121788310e-01 0.0 
-2.414121788310e-01 -8.811115873039e+01 0.0 
0.0 0.0 -3.849620625325e+01 
-4.177864609340e+01 -2.943426300585e-01 0.0 
-2.943426300585e-01 -8.819697189805e+01 0.0 
0.0 0.0 -3.859268539743e+01 
-4.156140461762e+01 -2.860927274338e-01 0.0 
-2.860927274338e-01 -8.811146750758e+01 0.0 
0.0 0.0 -3.850186163756e+01 
-4.186115567049e+01 -3.505157501509e-01 0.0 
-3.505157501509e-01 -8.821919101413e+01 0.0 
0.0 0.0 -3.862410400539e+01 
-4.159074063462e+01 -3.242982961783e-01 0.0 
-3.242982961783e-01 -8.812343220906e+01 0.0 
0.0 0.0 -3.851425185310e+01 
-4.192698876210e+01 -3.869680241304e-01 0.0 
-3.869680241304e-01 -8.822285512607e+01 0.0 
0.0 0.0 -3.864495316645e+01 
-4.163865101928e+01 -3.554356856303e-01 0.0 
-3.554356856303e-01 -8.812719388967e+01 0.0 
0.0 0.0 -3.852975347269e+01 
-4.455391079590e+01 1.544566929856e+00 0.0 
1.544566929856e+00 -9.083855635060e+01 0.0 
0.0 0.0 -4.021774014395e+01 
-4.208090538870e+01 -4.231410402245e-01 0.0 
-4.231410402245e-01 -8.822661298597e+01 0.0 
0.0 0.0 -3.869225551240e+01 
-4.570109572277e+01 4.581779680615e-01 0.0 
4.581779680615e-01 -8.959302166014e+01 0.0 
0.0 0.0 -4.018823521488e+01 
-4.169416487427e+01 -3.999719854330e-01 0.0 
-3.999719854330e-01 -8.809242886596e+01 0.0 
0.0 0.0 -3.853597812207e+01 
-4.220737136707e+01 -4.846682516841e-01 0.0 
-4.846682516841e-01 -8.824100541307e+01 0.0 
0.0 0.0 -3.873451303404e+01 
-4.177016041332e+01 -4.284185057359e-01 0.0 
-4.284185057359e-01 -8.811783413392e+01 0.0 
0.0 0.0 -3.856639836417e+01 
-4.234390388814e+01 -5.114235682542e-01 0.0 
-5.114235682542e-01 -8.826789271329e+01 0.0 
0.0 0.0 -3.878353898043e+01 
-4.187491233351e+01 -4.303113488642e-01 0.0 
-4.303113488642e-01 -8.816268499116e+01 0.0 
0.0 0.0 -3.861127919740e+01 
-4.255326699223e+01 -5.068106076062e-01 0.0 
-5.068106076062e-01 -8.830360671251e+01 0.0 
0.0 0.0 -3.885706211142e+01 
-4.236169246624e+01 6.109692652947e-01 0.0 
6.109692652947e-01 -8.435380568763e+01 0.0 
0.0 0.0 -3.761464944616e+01 
-4.201223107587e+01 -4.125026252321e-01 0.0 
-4.125026252321e-01 -8.819715690157e+01 0.0 
0.0 0.0 -3.866281639323e+01 
-4.279201785171e+01 -4.833187994678e-01 0.0 
-4.833187994678e-01 -8.834065562236e+01 0.0 
0.0 0.0 -3.893980204222e+01 
-4.219364921860e+01 -3.658105955555e-01 0.0 
-3.658105955555e-01 -8.825254059143e+01 0.0 
0.0 0.0 -3.873385694301e+01 
-4.303956814002e+01 -4.097820290364e-01 0.0 
-4.097820290364e-01 -8.835852928562e+01 0.0 
0.0 0.0 -3.901942922769e+01 
-4.242234886782e+01 -3.094727103475e-01 0.0 
-3.094727103475e-01 -8.826501597088e+01 0.0 
0.0 0.0 -3.880620945161e+01 
-4.353536913508e+01 -4.159090082678e-01 0.0 
-4.159090082678e-01 -8.854402504022e+01 0.0 
0.0 0.0 -3.922381825259e+01 
-4.272035398116e+01 -1.701750097208e-01 0.0 
-1.701750097208e-01 -8.857446533582e+01 0.0 
0.0 0.0 -3.898844579509e+01 
-4.361376414031e+01 -1.420136086396e-01 0.0 
-1.420136086396e-01 -8.858982007621e+01 0.0 
0.0 0.0 -3.926107526496e+01 
-4.472278607738e+01 -8.386524951602e-02 0.0 
-8.386524951602e-02 -8.907306634319e+01 0.0 
0.0 0.0 -3.973875572617e+01 
-4.308903329653e+01 3.608231458114e-02 0.0 
3.608231458114e-02 -8.865703992275e+01 0.0 
0.0 0.0 -3.912382196578e+01 
-4.716394114220e+01 1.109952217106e+00 0.0 
1.109952217106e+00 -9.214362259040e+01 0.0 
0.0 0.0 -4.139226911978e+01 
-4.357386237308e+01 3.964088512347e-01 0.0 
3.964088512347e-01 -8.939641548117e+01 0.0 
0.0 0.0 -3.949108335627e+01 
-4.342465805486e+01 8.508241997855e-01 0.0 
8.508241997855e-01 -8.328682433992e+01 0.0 
0.0 0.0 -3.761344471843e+01 
-4.103579163414e+01 1.458993227315e+00 0.0 
1.458993227315e+00 -8.854982861991e+01 0.0 
0.0 0.0 -3.847568607622e+01 
-4.137410146845e+01 -1.457450899296e+00 0.0 
-1.457450899296e+00 -8.657296698266e+01 0.0 
0.0 0.0 -3.798412053533e+01 
-4.343203623756e+01 1.285264922896e-01 0.0 
1.285264922896e-01 -9.269322472308e+01 0.0 
0.0 0.0 -4.043757828819e+01 
-3.906268030075e+01 -1.777918661995e-01 0.0 
-1.777918661995e-01 -8.259368684629e+01 0.0 
0.0 0.0 -3.609691014411e+01 
-4.302265461386e+01 1.463811678876e+00 0.0 
1.463811678876e+00 -8.405033108469e+01 0.0 
0.0 0.0 -3.772189570956e+01 
-5.057764419092e+01 2.887146330770e-01 0.0 
2.887146330770e-01 -1.094964112149e+02 0.0 
0.0 0.0 -4.762221662174e+01 
-4.989178815489e+01 -2.463237256981e-01 0.0 
-2.463237256981e-01 -1.076827125388e+02 0.0 
0.0 0.0 -4.687235020809e+01 
-5.005772569340e+01 9.230193252382e-04 0.0 
9.230193252382e-04 -1.077117434248e+02 0.0 
0.0 0.0 -4.693084073546e+01 
-4.989017288677e+01 -8.179810218602e-02 0.0 
-8.179810218602e-02 -1.074818131801e+02 0.0 
0.0 0.0 -4.681159582006e+01 
-5.006197241951e+01 -1.215297854719e-01 0.0 
-1.215297854719e-01 -1.075643959504e+02 0.0 
0.0 0.0 -4.688791051099e+01 
-4.994003342367e+01 -1.473600250862e-01 0.0 
-1.473600250862e-01 -1.075307153770e+02 0.0 
0.0 0.0 -4.684122464021e+01 
-5.010054253123e+01 -1.246855188138e-01 0.0 
-1.246855188138e-01 -1.075900134760e+02 0.0 
0.0 0.0 -4.690716680216e+01 
-4.998380231330e+01 -1.711274859559e-01 0.0 
-1.711274859559e-01 -1.074762693559e+02 0.0 
0.0 0.0 -4.683802150076e+01 
-5.026923310803e+01 -1.749327396482e-01 0.0 
-1.749327396482e-01 -1.075951244725e+02 0.0 
0.0 0.0 -4.695930727415e+01 
-5.005321381646e+01 -2.252326893292e-01 0.0 
-2.252326893292e-01 -1.075042965852e+02 0.0 
0.0 0.0 -4.686725312050e+01 
-5.033684076280e+01 -2.049982361151e-01 0.0 
-2.049982361151e-01 -1.076082028591e+02 0.0 
0.0 0.0 -4.698351308656e+01 
-5.012326658850e+01 -2.596382390587e-01 0.0 
-2.596382390587e-01 -1.074974498228e+02 0.0 
0.0 0.0 -4.688621492340e+01 
-5.051678584311e+01 -2.500242011564e-01 0.0 
-2.500242011564e-01 -1.076464724598e+02 0.0 
0.0 0.0 -4.704897749086e+01 
-5.318044511479e+01 1.383049666923e+00 0.0 
1.383049666923e+00 -1.102823244092e+02 0.0 
0.0 0.0 -4.863883085720e+01 
-5.022202012931e+01 -2.946076598014e-01 0.0 
-2.946076598014e-01 -1.075779283162e+02 0.0 
0.0 0.0 -4.693998453366e+01 
-5.061743718525e+01 -1.988707636177e-01 0.0 
-1.988707636177e-01 -1.076631625940e+02 0.0 
0.0 0.0 -4.708417993378e+01 
-5.102118208660e+01 5.470127996909e-01 0.0 
5.470127996909e-01 -1.037693236981e+02 0.0 
0.0 0.0 -4.603715173540e+01 
-5.032494681341e+01 -2.877828083072e-01 0.0 
-2.877828083072e-01 -1.074627096436e+02 0.0 
0.0 0.0 -4.693629693711e+01 
-5.083812828330e+01 -2.674843226094e-01 0.0 
-2.674843226094e-01 -1.076365550650e+02 0.0 
0.0 0.0 -4.714240500448e+01 
-5.406151633545e+01 4.508587598941e-01 0.0 
4.508587598941e-01 -1.089670332021e+02 0.0 
0.0 0.0 -4.850856486127e+01 
-5.047083822965e+01 -3.246813596263e-01 0.0 
-3.246813596263e-01 -1.075224280924e+02 0.0 
0.0 0.0 -4.699797989662e+01 
-5.100330300498e+01 -2.904108111881e-01 0.0 
-2.904108111881e-01 -1.076816712609e+02 0.0 
0.0 0.0 -4.720549227977e+01 
-5.064266089386e+01 -3.166307768904e-01 0.0 
-3.166307768904e-01 -1.076316590600e+02 0.0 
0.0 0.0 -4.708229598616e+01 
-5.124336516017e+01 -2.262740444774e-01 0.0 
-2.262740444774e-01 -1.077479195755e+02 0.0 
0.0 0.0 -4.729738542069e+01 
-5.084904083081e+01 -2.630054699422e-01 0.0 
-2.630054699422e-01 -1.076604123359e+02 0.0 
0.0 0.0 -4.715283595000e+01 
-5.565049946991e+01 9.510437964093e-01 0.0 
9.510437964093e-01 -1.115380343728e+02 0.0 
0.0 0.0 -4.975656015282e+01 
-5.157582307192e+01 -1.783138145730e-01 0.0 
-1.783138145730e-01 -1.078035977674e+02 0.0 
0.0 0.0 -4.741382625181e+01 
-5.110626329708e+01 -1.956659943312e-01 0.0 
-1.956659943312e-01 -1.077405616616e+02 0.0 
0.0 0.0 -4.725404748759e+01 
-5.142604775977e+01 -6.629175176771e-02 0.0 
-6.629175176771e-02 -1.079269817317e+02 0.0 
0.0 0.0 -4.740590884744e+01 
-5.186885656576e+01 -1.142042998363e-01 0.0 
-1.142042998363e-01 -1.078753545739e+02 0.0 
0.0 0.0 -4.752326334190e+01 
-5.176460755059e+01 7.519904881266e-02 0.0 
7.519904881266e-02 -1.077455813431e+02 0.0 
0.0 0.0 -4.745305666810e+01 
-5.205298802994e+01 1.196385750963e-01 0.0 
1.196385750963e-01 -1.078662154864e+02 0.0 
0.0 0.0 -4.757576105490e+01 
-5.227226088322e+01 2.924010200694e-01 0.0 
2.924010200694e-01 -1.087929791430e+02 0.0 
0.0 0.0 -4.791957200786e+01 
-5.306451296586e+01 -7.855478293495e-02 0.0 
-7.855478293495e-02 -1.082887942371e+02 0.0 
0.0 0.0 -4.800599216088e+01 
-5.201606541716e+01 8.198302093039e-01 0.0 
8.198302093039e-01 -1.028519078010e+02 0.0 
0.0 0.0 -4.606039196545e+01 
-5.036736685602e+01 1.420302916498e+00 0.0 
1.420302916498e+00 -1.072095258688e+02 0.0 
0.0 0.0 -4.687306781744e+01 
-4.999102947304e+01 -1.502916940436e+00 0.0 
-1.502916940436e+00 -1.093960324203e+02 0.0 
0.0 0.0 -4.741611856799e+01 
-4.792024886600e+01 9.770334276861e-02 0.0 
9.770334276861e-02 -1.031657208561e+02 0.0 
0.0 0.0 -4.492579091663e+01 
-5.233575624384e+01 -2.415345584042e-01 0.0 
-2.415345584042e-01 -1.132433030774e+02 0.0 
0.0 0.0 -4.927371779637e+01 
-5.161113908811e+01 1.202455403538e+00 0.0 
1.202455403538e+00 -1.033831228459e+02 0.0 
0.0 0.0 -4.609827858021e+01 
-5.763585698228e+01 4.275268662813e-01 0.0 
4.275268662813e-01 -1.259655743947e+02 0.0 
0.0 0.0 -5.468042941310e+01 
-5.850915583880e+01 -9.008103661006e-03 0.0 
-9.008103661006e-03 -1.272141391710e+02 0.0 
0.0 0.0 -5.531698850294e+01 
-5.839582703766e+01 -5.540908725301e-04 0.0 
-5.540908725301e-04 -1.271673132281e+02 0.0 
0.0 0.0 -5.526894207972e+01 
-5.835607202124e+01 -8.499536992065e-03 0.0 
-8.499536992065e-03 -1.272243398364e+02 0.0 
0.0 0.0 -5.527412355730e+01 
-5.850829883012e+01 -7.222203094742e-02 0.0 
-7.222203094742e-02 -1.272724909086e+02 0.0 
0.0 0.0 -5.533423692160e+01 
-5.851334442521e+01 -1.003897484894e-01 0.0 
-1.003897484894e-01 -1.273764101060e+02 0.0 
0.0 0.0 -5.536692635937e+01 
-5.860892688880e+01 -2.165706622740e-02 0.0 
-2.165706622740e-02 -1.274429103103e+02 0.0 
0.0 0.0 -5.541555115974e+01 
-5.873492908376e+01 1.941399707894e-03 0.0 
1.941399707894e-03 -1.273046159921e+02 0.0 
0.0 0.0 -5.541186352276e+01 
-5.869058442893e+01 -9.581202349182e-02 0.0 
-9.581202349182e-02 -1.272449442213e+02 0.0 
0.0 0.0 -5.538065859506e+01 
-5.880788002870e+01 -1.425156866482e-01 0.0 
-1.425156866482e-01 -1.273585854469e+02 0.0 
0.0 0.0 -5.544993964267e+01 
-5.881639944854e+01 -8.024307844522e-02 0.0 
-8.024307844522e-02 -1.273938397925e+02 0.0 
0.0 0.0 -5.546307177230e+01 
-5.893554382084e+01 -7.698746564997e-02 0.0 
-7.698746564997e-02 -1.273507281752e+02 0.0 
0.0 0.0 -5.548588159882e+01 
-6.154151167594e+01 1.456666872509e+00 0.0 
1.456666872509e+00 -1.297832832495e+02 0.0 
0.0 0.0 -5.699743847763e+01 
-5.896217021281e+01 -9.172875988799e-02 0.0 
-9.172875988799e-02 -1.273523693224e+02 0.0 
0.0 0.0 -5.549436186057e+01 
-6.163701722104e+01 3.943653406435e-01 0.0 
3.943653406435e-01 -1.283467612558e+02 0.0 
0.0 0.0 -5.659513354306e+01 
-5.945839403251e+01 -1.815194301749e-01 0.0 
-1.815194301749e-01 -1.275107255464e+02 0.0 
0.0 0.0 -5.569073587366e+01 
-5.909297429203e+01 -8.221410636816e-02 0.0 
-8.221410636816e-02 -1.274394158431e+02 0.0 
0.0 0.0 -5.555971704055e+01 
-5.920697733572e+01 -4.412797941399e-02 0.0 
-4.412797941399e-02 -1.273186397583e+02 0.0 
0.0 0.0 -5.555768512822e+01 
-5.926617388100e+01 -9.353574268845e-02 0.0 
-9.353574268845e-02 -1.273019947929e+02 0.0 
0.0 0.0 -5.557045060219e+01 
-5.949120270347e+01 -1.435208090291e-01 0.0 
-1.435208090291e-01 -1.274102348978e+02 0.0 
0.0 0.0 -5.567043128037e+01 
-5.949927263121e+01 -3.752811100052e-02 0.0 
-3.752811100052e-02 -1.275056003888e+02 0.0 
0.0 0.0 -5.570146190600e+01 
-5.991147727156e+01 -6.756716232363e-02 0.0 
-6.756716232363e-02 -1.275629320831e+02 0.0 
0.0 0.0 -5.584232280641e+01 
-5.951013838625e+01 5.786418209268e-01 0.0 
5.786418209268e-01 -1.233285868847e+02 0.0 
0.0 0.0 -5.445161758128e+01 
-5.976633244374e+01 5.759672850261e-02 0.0 
5.759672850261e-02 -1.276348432371e+02 0.0 
0.0 0.0 -5.582035270426e+01 
-6.023754718460e+01 7.755159438387e-02 0.0 
7.755159438387e-02 -1.275955619698e+02 0.0 
0.0 0.0 -5.594993274633e+01 
-6.006032583713e+01 1.358683609131e-01 0.0 
1.358683609131e-01 -1.276007708863e+02 0.0 
0.0 0.0 -5.589832901701e+01 
-6.067152040950e+01 1.089453214390e-01 0.0 
1.089453214390e-01 -1.276919699017e+02 0.0 
0.0 0.0 -5.610904709335e+01 
-6.113582919691e+01 1.720288554650e-01 0.0 
1.720288554650e-01 -1.279171082516e+02 0.0 
0.0 0.0 -5.631588123455e+01 
-6.038222269614e+01 2.248287579059e-01 0.0 
2.248287579059e-01 -1.277398755448e+02 0.0 
0.0 0.0 -5.603662947228e+01 
-6.074418667199e+01 4.384235521850e-01 0.0 
4.384235521850e-01 -1.281456789845e+02 0.0 
0.0 0.0 -5.626695969696e+01 
-6.393020570271e+01 8.976062875717e-01 0.0 
8.976062875717e-01 -1.311374691947e+02 0.0 
0.0 0.0 -5.812030246922e+01 
-6.031946703100e+01 7.747658450349e-01 0.0 
7.747658450349e-01 -1.224370257895e+02 0.0 
0.0 0.0 -5.442694784616e+01 
-5.779041657615e+01 1.291515728849e+00 0.0 
1.291515728849e+00 -1.272584454614e+02 0.0 
0.0 0.0 -5.511465861125e+01 
-5.801122838872e+01 -1.580348327777e+00 0.0 
-1.580348327777e+00 -1.259573910972e+02 0.0 
0.0 0.0 -5.479058584578e+01 
-5.996709389242e+01 -8.175720708722e-02 0.0 
-8.175720708722e-02 -1.317708082456e+02 0.0 
0.0 0.0 -5.712137064139e+01 
-5.592906099219e+01 -2.638484346041e-01 0.0 
-2.638484346041e-01 -1.216276808235e+02 0.0 
0.0 0.0 -5.286702254472e+01 
-6.003247985326e+01 1.164159636003e+00 0.0 
1.164159636003e+00 -1.228992814103e+02 0.0 
0.0 0.0 -5.447952837908e+01 

TENSORS element_materi_strain_total float
-6.297281400014e-05 6.506851019245e-05 0.0 
6.506851019245e-05 7.915703178953e-04 0.0 
0.0 0.0 0.0 
-8.168780327600e-05 7.195819524022e-05 0.0 
7.195819524022e-05 7.983941136140e-04 0.0 
0.0 0.0 0.0 
-1.521110140168e-05 9.594737501086e-05 0.0 
9.594737501086e-05 1.555541521344e-03 0.0 
0.0 0.0 0.0 
-1.253266374279e-05 5.246492913290e-06 0.0 
5.246492913290e-06 1.593886993787e-03 0.0 
0.0 0.0 0.0 
-4.686137501253e-05 1.085359974089e-05 0.0 
1.085359974089e-05 1.175438358597e-03 0.0 
0.0 0.0 0.0 
3.963682159380e-06 6.725352519666e-05 0.0 
6.725352519666e-05 1.649310879366e-04 0.0 
0.0 0.0 0.0 
-4.245217795928e-05 1.000006309607e-05 0.0 
1.000006309607e-05 1.175340526507e-03 0.0 
0.0 0.0 0.0 
-7.122779507118e-05 9.687344399226e-05 0.0 
9.687344399226e-05 7.575824005652e-04 0.0 
0.0 0.0 0.0 
-4.655039248569e-05 -2.077162197493e-06 0.0 
-2.077162197493e-06 1.176640616167e-03 0.0 
0.0 0.0 0.0 
-1.185339686671e-05 1.990643079584e-05 0.0 
1.990643079584e-05 1.588703345306e-03 0.0 
0.0 0.0 0.0 
6.317445474591e-05 6.635655864747e-06 0.0 
6.635655864747e-06 7.589591389636e-04 0.0 
0.0 0.0 0.0 
-7.075558711511e-05 7.056431864291e-05 0.0 
7.056431864291e-05 7.455275165589e-04 0.0 
0.0 0.0 0.0 
2.249828566248e-05 1.727415035013e-05 0.0 
1.727415035013e-05 1.159769680437e-03 0.0 
0.0 0.0 0.0 
-5.483853982846e-05 2.075088325906e-05 0.0 
2.075088325906e-05 1.228361503350e-03 0.0 
0.0 0.0 0.0 
1.293298958127e-05 1.225184236085e-05 0.0 
1.225184236085e-05 1.192506138272e-03 0.0 
0.0 0.0 0.0 
-7.974005939770e-06 1.661535274710e-05 0.0 
1.661535274710e-05 1.617322745074e-03 0.0 
0.0 0.0 0.0 
-5.331475685488e-05 7.680648140557e-06 0.0 
7.680648140557e-06 1.161996634010e-03 0.0 
0.0 0.0 0.0 
2.560364667392e-06 2.111882608936e-05 0.0 
2.111882608936e-05 1.535102649810e-04 0.0 
0.0 0.0 0.0 
1.875790965689e-05 -7.144661932917e-06 0.0 
-7.144661932917e-06 2.140420185583e-04 0.0 
0.0 0.0 0.0 
2.742374218689e-05 6.917885587239e-07 0.0 
6.917885587239e-07 2.210678055528e-04 0.0 
0.0 0.0 0.0 
-1.403180150850e-05 1.082745021546e-05 0.0 
1.082745021546e-05 1.590246596197e-03 0.0 
0.0 0.0 0.0 
-7.227959524103e-05 4.362523958578e-05 0.0 
4.362523958578e-05 8.592767704263e-04 0.0 
0.0 0.0 0.0 
-7.966012237182e-05 5.353767649808e-05 0.0 
5.353767649808e-05 8.802501192700e-04 0.0 
0.0 0.0 0.0 
3.046907409932e-05 1.022249740530e-04 0.0 
1.022249740530e-04 1.184921451467e-03 0.0 
0.0 0.0 0.0 
-5.720710864388e-05 3.305294379042e-05 0.0 
3.305294379042e-05 1.279840052817e-03 0.0 
0.0 0.0 0.0 
6.143989299723e-05 1.582011662878e-06 0.0 
1.582011662878e-06 8.047327606526e-04 0.0 
0.0 0.0 0.0 
-6.528907874381e-05 1.431968377044e-05 0.0 
1.431968377044e-05 1.105672093476e-03 0.0 
0.0 0.0 0.0 
-8.911879322171e-06 1.517313095565e-04 0.0 
1.517313095565e-04 1.441240255836e-03 0.0 
0.0 0.0 0.0 
-6.499220948908e-05 2.595287409407e-05 0.0 
2.595287409407e-05 1.280465007379e-03 0.0 
0.0 0.0 0.0 
3.000000523312e-05 1.075649396799e-04 0.0 
1.075649396799e-04 1.205634448369e-03 0.0 
0.0 0.0 0.0 
3.715755466649e-06 -3.817474882850e-06 0.0 
-3.817474882850e-06 1.747741708320e-04 0.0 
0.0 0.0 0.0 
-2.174256362275e-05 -1.041853656147e-05 0.0 
-1.041853656147e-05 6.994966054674e-05 0.0 
0.0 0.0 0.0 
-2.702717347913e-05 9.835169973830e-05 0.0 
9.835169973830e-05 1.561099099689e-03 0.0 
0.0 0.0 0.0 
4.649670809376e-05 -6.024645353833e-07 0.0 
-6.024645353833e-07 9.758224128757e-04 0.0 
0.0 0.0 0.0 
2.587987865699e-05 6.237224515825e-05 0.0 
6.237224515825e-05 1.182124386535e-03 0.0 
0.0 0.0 0.0 
1.288044443282e-05 5.555397595638e-05 0.0 
5.555397595638e-05 1.234382574209e-03 0.0 
0.0 0.0 0.0 
9.536784809860e-06 3.314411005329e-05 0.0 
3.314411005329e-05 1.233003783418e-03 0.0 
0.0 0.0 0.0 
1.749899881132e-05 1.429644818851e-04 0.0 
1.429644818851e-04 1.308569542767e-03 0.0 
0.0 0.0 0.0 
-4.314168401509e-05 -6.235286353332e-06 0.0 
-6.235286353332e-06 1.113359079278e-03 0.0 
0.0 0.0 0.0 
-4.130855102191e-05 9.072317309608e-06 0.0 
9.072317309608e-06 1.115855100098e-03 0.0 
0.0 0.0 0.0 
-8.149385046530e-05 3.909828214451e-05 0.0 
3.909828214451e-05 9.582013382516e-04 0.0 
0.0 0.0 0.0 
1.687143346274e-05 8.216640224823e-05 0.0 
8.216640224823e-05 1.214344802253e-03 0.0 
0.0 0.0 0.0 
-4.660137605195e-05 1.108312459162e-04 0.0 
1.108312459162e-04 6.381187120625e-04 0.0 
0.0 0.0 0.0 
-6.788762137933e-05 1.605104681792e-05 0.0 
1.605104681792e-05 1.109421290483e-03 0.0 
0.0 0.0 0.0 
-1.709284516049e-05 1.069494647240e-06 0.0 
1.069494647240e-06 1.560889380954e-03 0.0 
0.0 0.0 0.0 
-6.283036060872e-05 1.403633599399e-04 0.0 
1.403633599399e-04 6.408424884015e-04 0.0 
0.0 0.0 0.0 
2.635122841266e-06 -1.373188967244e-05 0.0 
-1.373188967244e-05 1.189011540230e-04 0.0 
0.0 0.0 0.0 
-1.081599067121e-05 6.537320654727e-06 0.0 
6.537320654727e-06 1.565652105179e-03 0.0 
0.0 0.0 0.0 
-2.516211922854e-05 -1.242805307681e-05 0.0 
-1.242805307681e-05 7.353762695805e-05 0.0 
0.0 0.0 0.0 
-5.776310937478e-05 9.897547582549e-06 0.0 
9.897547582549e-06 1.201528321040e-03 0.0 
0.0 0.0 0.0 
-8.060765612805e-05 4.595251592441e-05 0.0 
4.595251592441e-05 9.195827210366e-04 0.0 
0.0 0.0 0.0 
2.836106830273e-05 -6.241296985950e-06 0.0 
-6.241296985950e-06 2.719827155400e-04 0.0 
0.0 0.0 0.0 
3.909074074215e-05 -4.178039738892e-06 0.0 
-4.178039738892e-06 2.419769016810e-04 0.0 
0.0 0.0 0.0 
-7.389043351491e-05 3.392049582483e-05 0.0 
3.392049582483e-05 9.271833846924e-04 0.0 
0.0 0.0 0.0 
-1.396714775259e-05 7.200055249301e-05 0.0 
7.200055249301e-05 1.584807395477e-03 0.0 
0.0 0.0 0.0 
4.127443985036e-05 -8.674063211018e-06 0.0 
-8.674063211018e-06 3.645778241408e-04 0.0 
0.0 0.0 0.0 
3.505965652861e-05 1.589820103175e-06 0.0 
1.589820103175e-06 2.810897515635e-04 0.0 
0.0 0.0 0.0 
4.785175112154e-05 9.470764729464e-06 0.0 
9.470764729464e-06 9.760994518853e-04 0.0 
0.0 0.0 0.0 
1.133722461044e-05 -7.393904594451e-06 0.0 
-7.393904594451e-06 1.610337811868e-04 0.0 
0.0 0.0 0.0 
-8.815910515603e-06 8.263466865057e-06 0.0 
8.263466865057e-06 1.617441691398e-03 0.0 
0.0 0.0 0.0 
-6.617268984899e-05 -1.456585551782e-05 0.0 
-1.456585551782e-05 8.023998351514e-05 0.0 
0.0 0.0 0.0 
5.065300181517e-06 1.472527359512e-04 0.0 
1.472527359512e-04 1.329530826653e-03 0.0 
0.0 0.0 0.0 
-5.714107141475e-05 1.185537942131e-04 0.0 
1.185537942131e-04 8.344031429641e-04 0.0 
0.0 0.0 0.0 
3.600009008364e-05 7.574366575080e-06 0.0 
7.574366575080e-06 2.070515068029e-04 0.0 
0.0 0.0 0.0 
2.182295470732e-05 1.820220570804e-05 0.0 
1.820220570804e-05 1.160801119424e-03 0.0 
0.0 0.0 0.0 
-7.484510692823e-05 3.755843025188e-05 0.0 
3.755843025188e-05 8.932271302513e-04 0.0 
0.0 0.0 0.0 
-3.468777141924e-05 -5.977844654765e-06 0.0 
-5.977844654765e-06 6.468807339632e-05 0.0 
0.0 0.0 0.0 
-2.855589748263e-05 1.025413496378e-04 0.0 
1.025413496378e-04 1.552285476783e-03 0.0 
0.0 0.0 0.0 
1.099838189855e-05 -2.610980404261e-05 0.0 
-2.610980404261e-05 1.785997689583e-04 0.0 
0.0 0.0 0.0 
-1.172868815702e-05 1.261336733212e-04 0.0 
1.261336733212e-04 1.507184912732e-03 0.0 
0.0 0.0 0.0 
5.995000784642e-05 4.808770253545e-06 0.0 
4.808770253545e-06 8.414593529704e-04 0.0 
0.0 0.0 0.0 
0.0 4.635352304153e-05 0.0 
4.635352304153e-05 1.647402939820e-03 0.0 
0.0 0.0 0.0 
-1.076446128645e-05 1.370559766848e-04 0.0 
1.370559766848e-04 1.398583786470e-03 0.0 
0.0 0.0 0.0 
4.169101870177e-06 4.389326540254e-06 0.0 
4.389326540254e-06 7.382374910248e-05 0.0 
0.0 0.0 0.0 
4.626042716316e-05 8.070627669880e-07 0.0 
8.070627669880e-07 3.807341459063e-04 0.0 
0.0 0.0 0.0 
-1.645794525051e-05 3.066090815224e-05 0.0 
3.066090815224e-05 1.595122041223e-03 0.0 
0.0 0.0 0.0 
-2.577870569109e-05 7.818968009622e-05 0.0 
7.818968009622e-05 1.581857146330e-03 0.0 
0.0 0.0 0.0 
-3.173129532996e-05 1.344417504668e-04 0.0 
1.344417504668e-04 4.452885986201e-04 0.0 
0.0 0.0 0.0 
1.915360210059e-05 -9.894258278840e-06 0.0 
-9.894258278840e-06 1.605390320636e-04 0.0 
0.0 0.0 0.0 
-1.852413945702e-05 1.498624830476e-04 0.0 
1.498624830476e-04 4.459361660500e-04 0.0 
0.0 0.0 0.0 
1.572938395622e-05 -9.389025269418e-06 0.0 
-9.389025269418e-06 1.759967265802e-04 0.0 
0.0 0.0 0.0 
-5.043579924380e-05 7.468118853700e-06 0.0 
7.468118853700e-06 1.161377047378e-03 0.0 
0.0 0.0 0.0 
-7.901971651914e-05 6.235038724185e-05 0.0 
6.235038724185e-05 8.427294490514e-04 0.0 
0.0 0.0 0.0 
-7.261915166723e-05 4.586063226798e-05 0.0 
4.586063226798e-05 8.168330752962e-04 0.0 
0.0 0.0 0.0 
-4.911270758623e-05 1.397080810749e-06 0.0 
1.397080810749e-06 1.209878065884e-03 0.0 
0.0 0.0 0.0 
-4.421852901426e-05 1.130431412221e-05 0.0 
1.130431412221e-05 1.209777183147e-03 0.0 
0.0 0.0 0.0 
5.644431629803e-05 1.731805920652e-06 0.0 
1.731805920652e-06 8.704192879991e-04 0.0 
0.0 0.0 0.0 
5.091538050128e-05 5.342094928926e-06 0.0 
5.342094928926e-06 9.458767832440e-04 0.0 
0.0 0.0 0.0 
-5.735302481480e-05 8.272042967059e-05 0.0 
8.272042967059e-05 1.400463603418e-03 0.0 
0.0 0.0 0.0 
-5.034900916823e-05 -2.008929391875e-07 0.0 
-2.008929391875e-07 1.173021896924e-03 0.0 
0.0 0.0 0.0 
-1.233758801833e-05 -1.003166122943e-05 0.0 
-1.003166122943e-05 6.676119555937e-05 0.0 
0.0 0.0 0.0 
-6.729113903980e-05 2.036132210820e-05 0.0 
2.036132210820e-05 1.165188547770e-03 0.0 
0.0 0.0 0.0 
-2.678825943880e-05 1.493962714576e-06 0.0 
1.493962714576e-06 1.420340127612e-03 0.0 
0.0 0.0 0.0 
-2.957007741911e-05 7.963670066946e-06 0.0 
7.963670066946e-06 1.409463212675e-03 0.0 
0.0 0.0 0.0 
-1.172400948568e-05 5.049400954202e-05 0.0 
5.049400954202e-05 1.646521430977e-03 0.0 
0.0 0.0 0.0 
2.921154943047e-06 1.435280370295e-04 0.0 
1.435280370295e-04 1.360263667593e-03 0.0 
0.0 0.0 0.0 
-5.464967562130e-05 5.796459881036e-06 0.0 
5.796459881036e-06 1.160558545103e-03 0.0 
0.0 0.0 0.0 
2.666679081109e-05 8.123322867618e-05 0.0 
8.123322867618e-05 1.211665076134e-03 0.0 
0.0 0.0 0.0 
-3.495261154685e-05 -2.454906790737e-06 0.0 
-2.454906790737e-06 1.268726550361e-03 0.0 
0.0 0.0 0.0 
-7.137702442528e-05 1.125568200229e-04 0.0 
1.125568200229e-04 8.438822006416e-04 0.0 
0.0 0.0 0.0 
-4.817107172128e-05 -2.436483307464e-08 0.0 
-2.436483307464e-08 1.144890226113e-03 0.0 
0.0 0.0 0.0 
1.421940331503e-05 2.290171271179e-05 0.0 
2.290171271179e-05 1.191839030171e-03 0.0 
0.0 0.0 0.0 
9.653011277200e-06 1.265181957047e-04 0.0 
1.265181957047e-04 1.153583360913e-03 0.0 
0.0 0.0 0.0 
-1.218481860743e-06 1.383789475432e-04 0.0 
1.383789475432e-04 1.330981895517e-03 0.0 
0.0 0.0 0.0 
-2.290415666140e-05 1.533023253545e-04 0.0 
1.533023253545e-04 6.998917449756e-04 0.0 
0.0 0.0 0.0 
-2.515231621181e-05 -1.167081413126e-05 0.0 
-1.167081413126e-05 1.301402340566e-04 0.0 
0.0 0.0 0.0 
3.285392867358e-05 4.941711157402e-06 0.0 
4.941711157402e-06 1.084110528144e-03 0.0 
0.0 0.0 0.0 
-2.592656613476e-05 8.010803558407e-06 0.0 
8.010803558407e-06 1.467233601934e-03 0.0 
0.0 0.0 0.0 
-5.718679766620e-05 -1.389452291420e-05 0.0 
-1.389452291420e-05 8.409629207917e-05 0.0 
0.0 0.0 0.0 
1.451815688203e-05 3.319120378383e-05 0.0 
3.319120378383e-05 1.186588170088e-03 0.0 
0.0 0.0 0.0 
-5.304161966246e-05 8.766711568629e-05 0.0 
8.766711568629e-05 1.358672558817e-03 0.0 
0.0 0.0 0.0 
6.479389258462e-07 -7.429496761316e-06 0.0 
-7.429496761316e-06 4.675235306539e-05 0.0 
0.0 0.0 0.0 
-5.344178751865e-06 1.465119555684e-04 0.0 
1.465119555684e-04 7.890353447961e-04 0.0 
0.0 0.0 0.0 
-7.747186484530e-05 2.509400397784e-05 0.0 
2.509400397784e-05 1.095336867038e-03 0.0 
0.0 0.0 0.0 
5.706804551053e-05 -5.092879691058e-06 0.0 
-5.092879691058e-06 4.671271092103e-04 0.0 
0.0 0.0 0.0 
-6.160592292714e-05 1.099286607857e-04 0.0 
1.099286607857e-04 7.888968604679e-04 0.0 
0.0 0.0 0.0 
-5.760831289803e-05 1.273401429137e-04 0.0 
1.273401429137e-04 8.337454332454e-04 0.0 
0.0 0.0 0.0 
1.756590845758e-05 6.497312692165e-05 0.0 
6.497312692165e-05 1.203735664783e-03 0.0 
0.0 0.0 0.0 
-3.577249890985e-05 5.885568028616e-06 0.0 
5.885568028616e-06 1.248065887361e-03 0.0 
0.0 0.0 0.0 
-4.544754181135e-05 1.359030120543e-04 0.0 
1.359030120543e-04 7.712645302622e-04 0.0 
0.0 0.0 0.0 
7.842405057357e-06 -2.533351575840e-05 0.0 
-2.533351575840e-05 1.699486166258e-04 0.0 
0.0 0.0 0.0 
-6.694968511889e-05 2.491248871954e-05 0.0 
2.491248871954e-05 1.157495627321e-03 0.0 
0.0 0.0 0.0 
-2.035516889254e-05 2.924867042493e-06 0.0 
2.924867042493e-06 1.471847522538e-03 0.0 
0.0 0.0 0.0 
-4.347127079840e-05 1.405587308835e-04 0.0 
1.405587308835e-04 7.710397322951e-04 0.0 
0.0 0.0 0.0 
-2.580530907292e-05 9.168842362766e-05 0.0 
9.168842362766e-05 2.571148001489e-04 0.0 
0.0 0.0 0.0 
-8.039747776278e-05 2.982113251430e-05 0.0 
2.982113251430e-05 1.026869406401e-03 0.0 
0.0 0.0 0.0 
5.121791768992e-05 -9.969437286873e-07 0.0 
-9.969437286873e-07 4.642711349390e-04 0.0 
0.0 0.0 0.0 
-7.340836164293e-05 2.824351075428e-05 0.0 
2.824351075428e-05 9.949733536279e-04 0.0 
0.0 0.0 0.0 
-9.493208986466e-06 4.263272843975e-05 0.0 
4.263272843975e-05 1.615529872813e-03 0.0 
0.0 0.0 0.0 
1.131833014734e-05 1.153098483567e-04 0.0 
1.153098483567e-04 2.411255726049e-04 0.0 
0.0 0.0 0.0 
6.245312404496e-05 1.016000225981e-05 0.0 
1.016000225981e-05 8.004893632991e-04 0.0 
0.0 0.0 0.0 
-1.172018977502e-05 1.357682352844e-05 0.0 
1.357682352844e-05 1.594134675162e-03 0.0 
0.0 0.0 0.0 
-7.453025751247e-05 8.113820361795e-05 0.0 
8.113820361795e-05 9.884237502222e-04 0.0 
0.0 0.0 0.0 
-8.120469763817e-05 3.312492959771e-05 0.0 
3.312492959771e-05 9.932566533060e-04 0.0 
0.0 0.0 0.0 
3.035318085720e-05 7.580869750075e-05 0.0 
7.580869750075e-05 1.182393959125e-03 0.0 
0.0 0.0 0.0 
2.106732999363e-05 3.922454373197e-06 0.0 
3.922454373197e-06 1.162330689089e-03 0.0 
0.0 0.0 0.0 
5.781761682644e-05 1.166051673359e-05 0.0 
1.166051673359e-05 8.706879068969e-04 0.0 
0.0 0.0 0.0 
-8.138248107348e-05 7.880217664143e-05 0.0 
7.880217664143e-05 1.031481000178e-03 0.0 
0.0 0.0 0.0 
2.664455582035e-05 1.075125552765e-04 0.0 
1.075125552765e-04 1.244399983283e-03 0.0 
0.0 0.0 0.0 
-7.728854183775e-05 6.414214073901e-05 0.0 
6.414214073901e-05 9.824597953036e-04 0.0 
0.0 0.0 0.0 
-7.475981442129e-06 2.597588172144e-05 0.0 
2.597588172144e-05 1.607099895484e-03 0.0 
0.0 0.0 0.0 
-2.037097160934e-05 1.313763557922e-04 0.0 
1.313763557922e-04 1.514917991508e-03 0.0 
0.0 0.0 0.0 
-6.068224130151e-05 1.250476474978e-05 0.0 
1.250476474978e-05 1.226779312172e-03 0.0 
0.0 0.0 0.0 
-3.319488049358e-05 1.171361963537e-05 0.0 
1.171361963537e-05 1.345689143393e-03 0.0 
0.0 0.0 0.0 
-8.406053081345e-05 7.187455754761e-05 0.0 
7.187455754761e-05 9.821378258723e-04 0.0 
0.0 0.0 0.0 
-7.415893015150e-05 3.043933316067e-05 0.0 
3.043933316067e-05 9.606518861718e-04 0.0 
0.0 0.0 0.0 
-7.130419422796e-05 8.818335286832e-05 0.0 
8.818335286832e-05 1.037027319963e-03 0.0 
0.0 0.0 0.0 
-1.860822168265e-05 1.507353669021e-04 0.0 
1.507353669021e-04 7.529129751356e-04 0.0 
0.0 0.0 0.0 
-4.452027608126e-05 -1.679966986813e-06 0.0 
-1.679966986813e-06 1.152964892321e-03 0.0 
0.0 0.0 0.0 
1.594107646330e-06 1.409256295257e-04 0.0 
1.409256295257e-04 7.896941241905e-04 0.0 
0.0 0.0 0.0 
-7.715667386554e-06 -1.422897153261e-05 0.0 
-1.422897153261e-05 6.305387573935e-05 0.0 
0.0 0.0 0.0 
-3.889697288884e-05 7.755257360238e-07 0.0 
7.755257360238e-07 1.199487718136e-03 0.0 
0.0 0.0 0.0 
1.840859215929e-05 -2.865261461548e-06 0.0 
-2.865261461548e-06 1.629727801939e-04 0.0 
0.0 0.0 0.0 
-7.910501872488e-05 2.713384169533e-05 0.0 
2.713384169533e-05 1.061171616337e-03 0.0 
0.0 0.0 0.0 
1.594726783893e-05 9.792695455183e-05 0.0 
9.792695455183e-05 1.237069695516e-03 0.0 
0.0 0.0 0.0 
-2.905839764811e-05 1.516852777227e-04 0.0 
1.516852777227e-04 7.000196323870e-04 0.0 
0.0 0.0 0.0 
5.472269887408e-05 9.350779480073e-06 0.0 
9.350779480073e-06 9.061879556835e-04 0.0 
0.0 0.0 0.0 
-7.510333766225e-05 1.135236805560e-04 0.0 
1.135236805560e-04 7.033698682222e-04 0.0 
0.0 0.0 0.0 
1.110425028239e-05 1.369545948009e-04 0.0 
1.369545948009e-04 1.152636840462e-03 0.0 
0.0 0.0 0.0 
-4.038697399467e-05 1.465669165945e-06 0.0 
1.465669165945e-06 1.157392346343e-03 0.0 
0.0 0.0 0.0 
1.295897526177e-05 1.500076066575e-04 0.0 
1.500076066575e-04 7.162282252877e-04 0.0 
0.0 0.0 0.0 
4.278878873176e-05 3.573166057565e-06 0.0 
3.573166057565e-06 1.011108804198e-03 0.0 
0.0 0.0 0.0 
1.306252359790e-05 -1.141698323996e-05 0.0 
-1.141698323996e-05 1.672725256243e-04 0.0 
0.0 0.0 0.0 
3.451159300405e-05 1.642401515248e-05 0.0 
1.642401515248e-05 1.082892516639e-03 0.0 
0.0 0.0 0.0 
-7.487188404542e-05 4.539841425557e-05 0.0 
4.539841425557e-05 1.133912169984e-03 0.0 
0.0 0.0 0.0 
2.342746644102e-05 3.305672505325e-05 0.0 
3.305672505325e-05 1.183173200202e-03 0.0 
0.0 0.0 0.0 
-3.882916329023e-05 1.068998545915e-06 0.0 
1.068998545915e-06 1.153101517833e-03 0.0 
0.0 0.0 0.0 
-8.917208480508e-06 1.530380700650e-04 0.0 
1.530380700650e-04 6.737031512205e-04 0.0 
0.0 0.0 0.0 
-7.143577462421e-05 2.540775189392e-05 0.0 
2.540775189392e-05 1.061552380425e-03 0.0 
0.0 0.0 0.0 
6.150939639116e-05 -7.531927231100e-07 0.0 
-7.531927231100e-07 7.638726099395e-04 0.0 
0.0 0.0 0.0 
-5.445473202059e-05 9.120359699304e-05 0.0 
9.120359699304e-05 6.967281945023e-04 0.0 
0.0 0.0 0.0 
1.956991508534e-05 1.389076579431e-04 0.0 
1.389076579431e-04 7.177025170670e-04 0.0 
0.0 0.0 0.0 
-3.289977917365e-05 1.667947173400e-06 0.0 
1.667947173400e-06 1.378392552678e-03 0.0 
0.0 0.0 0.0 
-4.166889779045e-05 4.879422025662e-06 0.0 
4.879422025662e-06 1.153696913780e-03 0.0 
0.0 0.0 0.0 
-7.469829494511e-06 1.493534698535e-04 0.0 
1.493534698535e-04 7.298327751732e-04 0.0 
0.0 0.0 0.0 
-7.355628903660e-05 2.612916185372e-05 0.0 
2.612916185372e-05 1.028056719795e-03 0.0 
0.0 0.0 0.0 
-3.509752096065e-05 1.162268287576e-04 0.0 
1.162268287576e-04 1.392473474407e-03 0.0 
0.0 0.0 0.0 
5.712949925862e-05 -2.535545490433e-06 0.0 
-2.535545490433e-06 5.211004666561e-04 0.0 
0.0 0.0 0.0 
-2.038317296948e-06 1.462074538859e-04 0.0 
1.462074538859e-04 1.431197203948e-03 0.0 
0.0 0.0 0.0 
-2.150020075542e-05 1.352149087880e-04 0.0 
1.352149087880e-04 1.500221629762e-03 0.0 
0.0 0.0 0.0 
-7.537223163878e-05 1.063315256002e-04 0.0 
1.063315256002e-04 8.032064550081e-04 0.0 
0.0 0.0 0.0 
6.185245278534e-05 5.065244626881e-07 0.0 
5.065244626881e-07 5.230589330456e-04 0.0 
0.0 0.0 0.0 
3.509338052687e-05 1.070591049633e-04 0.0 
1.070591049633e-04 1.149882813686e-03 0.0 
0.0 0.0 0.0 
-8.467978134341e-05 5.517187961009e-05 0.0 
5.517187961009e-05 9.724067490033e-04 0.0 
0.0 0.0 0.0 
-6.725683690156e-05 9.630676746989e-05 0.0 
9.630676746989e-05 7.525910590760e-04 0.0 
0.0 0.0 0.0 
-7.319021738506e-05 3.479175276171e-05 0.0 
3.479175276171e-05 1.115440126959e-03 0.0 
0.0 0.0 0.0 
-1.621269913410e-05 1.458167957398e-04 0.0 
1.458167957398e-04 8.056760395578e-04 0.0 
0.0 0.0 0.0 
-8.176164508322e-06 2.144854089660e-05 0.0 
2.144854089660e-05 1.606348397999e-03 0.0 
0.0 0.0 0.0 
-5.263847045356e-05 7.589948975905e-05 0.0 
7.589948975905e-05 1.384503196789e-03 0.0 
0.0 0.0 0.0 
3.880194924766e-05 1.118749571257e-05 0.0 
1.118749571257e-05 1.047458979000e-03 0.0 
0.0 0.0 0.0 
-4.607536819534e-05 1.457026078134e-04 0.0 
1.457026078134e-04 5.465619382596e-04 0.0 
0.0 0.0 0.0 
3.694940444920e-05 1.315846076561e-04 0.0 
1.315846076561e-04 6.452562776058e-04 0.0 
0.0 0.0 0.0 
-4.848988079198e-05 8.606850292482e-05 0.0 
8.606850292482e-05 1.399459718564e-03 0.0 
0.0 0.0 0.0 
-9.672527002491e-05 2.699679350580e-05 0.0 
2.699679350580e-05 6.885578193971e-05 0.0 
0.0 0.0 0.0 
-7.698551194379e-05 4.717591924789e-05 0.0 
4.717591924789e-05 9.725585915219e-04 0.0 
0.0 0.0 0.0 
5.039436228271e-05 8.615242587437e-05 0.0 
8.615242587437e-05 1.044879574086e-03 0.0 
0.0 0.0 0.0 
2.303378787705e-06 -1.095874545225e-05 0.0 
-1.095874545225e-05 1.130035945029e-04 0.0 
0.0 0.0 0.0 
-2.122033194540e-05 8.840880703167e-05 0.0 
8.840880703167e-05 1.561198713545e-03 0.0 
0.0 0.0 0.0 
-5.810060194966e-05 4.841404260335e-05 0.0 
4.841404260335e-05 1.329139992716e-03 0.0 
0.0 0.0 0.0 
7.760916591359e-05 1.467342440870e-05 0.0 
1.467342440870e-05 4.976943692030e-04 0.0 
0.0 0.0 0.0 
5.604657063296e-05 1.007777132689e-04 0.0 
1.007777132689e-04 1.043878603380e-03 0.0 
0.0 0.0 0.0 
-6.784493569567e-05 2.684916463080e-05 0.0 
2.684916463080e-05 1.207809497512e-03 0.0 
0.0 0.0 0.0 
-6.222725795468e-05 2.178652446402e-05 0.0 
2.178652446402e-05 1.259672415706e-03 0.0 
0.0 0.0 0.0 
2.435585014959e-05 9.775038754451e-05 0.0 
9.775038754451e-05 1.203166339536e-03 0.0 
0.0 0.0 0.0 
5.617587026219e-05 -2.627668114491e-06 0.0 
-2.627668114491e-06 3.639519819496e-04 0.0 
0.0 0.0 0.0 
-6.350109096631e-05 1.025757692527e-04 0.0 
1.025757692527e-04 1.037989053298e-03 0.0 
0.0 0.0 0.0 
-7.495069276697e-05 5.679968974273e-05 0.0 
5.679968974273e-05 1.150370144214e-03 0.0 
0.0 0.0 0.0 
-6.127788371690e-05 4.275814931878e-05 0.0 
4.275814931878e-05 1.364647374779e-03 0.0 
0.0 0.0 0.0 
-8.040481800975e-05 4.231680543739e-05 0.0 
4.231680543739e-05 1.170058558854e-03 0.0 
0.0 0.0 0.0 
-8.086332321799e-05 3.484010903634e-05 0.0 
3.484010903634e-05 1.115440463390e-03 0.0 
0.0 0.0 0.0 
2.314060916997e-05 1.220781574469e-04 0.0 
1.220781574469e-04 1.030632927359e-03 0.0 
0.0 0.0 0.0 
-4.840374024873e-05 1.027271692030e-04 0.0 
1.027271692030e-04 1.382084609116e-03 0.0 
0.0 0.0 0.0 
-5.849271924385e-05 2.651114709313e-05 0.0 
2.651114709313e-05 1.028902967406e-04 0.0 
0.0 0.0 0.0 
-6.763196479354e-05 8.733133111029e-05 0.0 
8.733133111029e-05 8.008515274782e-04 0.0 
0.0 0.0 0.0 
-6.832702352644e-05 9.655893561281e-05 0.0 
9.655893561281e-05 8.464688655943e-04 0.0 
0.0 0.0 0.0 
-7.445877325152e-05 9.387822187156e-05 0.0 
9.387822187156e-05 1.036267363491e-03 0.0 
0.0 0.0 0.0 
-5.610261537836e-05 6.988064214862e-05 0.0 
6.988064214862e-05 1.423617445161e-03 0.0 
0.0 0.0 0.0 
4.902774407767e-05 7.465269983615e-05 0.0 
7.465269983615e-05 2.239181697412e-04 0.0 
0.0 0.0 0.0 
5.757875915746e-05 7.612930978802e-05 0.0 
7.612930978802e-05 9.927736561783e-04 0.0 
0.0 0.0 0.0 
-4.210499219282e-05 -3.783928185478e-06 0.0 
-3.783928185478e-06 1.149189825944e-03 0.0 
0.0 0.0 0.0 
3.177989813063e-05 1.471632870641e-04 0.0 
1.471632870641e-04 6.430882085151e-04 0.0 
0.0 0.0 0.0 
6.343415531074e-05 6.613594137111e-05 0.0 
6.613594137111e-05 9.429537712116e-04 0.0 
0.0 0.0 0.0 
-8.220896870248e-06 -1.546045574119e-05 0.0 
-1.546045574119e-05 7.607016096056e-05 0.0 
0.0 0.0 0.0 
-5.227040366074e-05 5.632423601283e-05 0.0 
5.632423601283e-05 1.385063831129e-03 0.0 
0.0 0.0 0.0 
-1.478968373136e-05 -4.959311624259e-06 0.0 
-4.959311624259e-06 5.985542205877e-05 0.0 
0.0 0.0 0.0 
1.052422420078e-05 -9.351810321656e-06 0.0 
-9.351810321656e-06 1.125848117143e-04 0.0 
0.0 0.0 0.0 
-2.607457639581e-05 1.405580929027e-04 0.0 
1.405580929027e-04 5.462888667565e-04 0.0 
0.0 0.0 0.0 
4.598901323183e-05 -7.363222446826e-06 0.0 
-7.363222446826e-06 3.047351964787e-04 0.0 
0.0 0.0 0.0 
-5.468353088944e-05 4.990880249647e-05 0.0 
4.990880249647e-05 1.420497813610e-03 0.0 
0.0 0.0 0.0 
3.604153438852e-05 -2.102472404665e-05 0.0 
-2.102472404665e-05 2.860101162059e-04 0.0 
0.0 0.0 0.0 
1.610165547539e-05 1.576909871644e-04 0.0 
1.576909871644e-04 4.670439838375e-04 0.0 
0.0 0.0 0.0 
2.883396672138e-05 -1.808672726414e-05 0.0 
-1.808672726414e-05 2.247048262112e-04 0.0 
0.0 0.0 0.0 
1.840468704994e-05 -1.053767087078e-05 0.0 
-1.053767087078e-05 1.906180161388e-04 0.0 
0.0 0.0 0.0 
4.778389801241e-05 1.085002549187e-04 0.0 
1.085002549187e-04 1.094256907481e-03 0.0 
0.0 0.0 0.0 
-8.251870131637e-05 4.562497337873e-05 0.0 
4.562497337873e-05 1.133906254889e-03 0.0 
0.0 0.0 0.0 
2.397069321036e-05 3.020603433541e-05 0.0 
3.020603433541e-05 1.161461072645e-03 0.0 
0.0 0.0 0.0 
-5.796156162874e-05 1.352939228219e-05 0.0 
1.352939228219e-05 4.176878156681e-05 0.0 
0.0 0.0 0.0 
1.573393841614e-05 1.595666306184e-04 0.0 
1.595666306184e-04 5.286262155619e-04 0.0 
0.0 0.0 0.0 
2.970621087295e-05 1.434961681299e-04 0.0 
1.434961681299e-04 7.099663756933e-04 0.0 
0.0 0.0 0.0 
-7.605197485827e-05 5.373924790720e-05 0.0 
5.373924790720e-05 9.324783410176e-04 0.0 
0.0 0.0 0.0 
6.293814976210e-05 9.016485738604e-05 0.0 
9.016485738604e-05 9.918044821620e-04 0.0 
0.0 0.0 0.0 
2.207513022556e-05 4.236401382448e-05 0.0 
4.236401382448e-05 1.190939638694e-03 0.0 
0.0 0.0 0.0 
-6.408708537387e-05 6.238351005188e-05 0.0 
6.238351005188e-05 1.368994319155e-03 0.0 
0.0 0.0 0.0 
5.173071355657e-05 1.153452835570e-04 0.0 
1.153452835570e-04 5.039821691439e-04 0.0 
0.0 0.0 0.0 
4.273866546289e-05 9.697977699267e-05 0.0 
9.697977699267e-05 1.094336231645e-03 0.0 
0.0 0.0 0.0 
5.948927734289e-05 9.856998849142e-06 0.0 
9.856998849142e-06 8.340491752075e-04 0.0 
0.0 0.0 0.0 
-7.750094923209e-05 8.463456532372e-05 0.0 
8.463456532372e-05 1.080767688744e-03 0.0 
0.0 0.0 0.0 
-5.724795055617e-05 5.709179751994e-05 0.0 
5.709179751994e-05 1.348950115493e-03 0.0 
0.0 0.0 0.0 
-6.166616686287e-06 1.405534831229e-04 0.0 
1.405534831229e-04 1.375398915249e-03 0.0 
0.0 0.0 0.0 
3.482106495434e-05 1.297850731069e-04 0.0 
1.297850731069e-04 7.119538627218e-04 0.0 
0.0 0.0 0.0 
-2.636800724432e-06 1.568794542520e-04 0.0 
1.568794542520e-04 5.604557735555e-04 0.0 
0.0 0.0 0.0 
-7.789868532826e-05 5.001896707362e-05 0.0 
5.001896707362e-05 1.224030464786e-03 0.0 
0.0 0.0 0.0 
-8.928806201625e-06 4.755925755823e-05 0.0 
4.755925755823e-05 1.650378511555e-03 0.0 
0.0 0.0 0.0 
-6.434268424393e-05 1.065372112671e-04 0.0 
1.065372112671e-04 1.037493171395e-03 0.0 
0.0 0.0 0.0 
4.162921879103e-05 1.178202166570e-04 0.0 
1.178202166570e-04 8.409803540448e-04 0.0 
0.0 0.0 0.0 
-4.047503971105e-05 1.433687077124e-06 0.0 
1.433687077124e-06 1.212069475548e-03 0.0 
0.0 0.0 0.0 
2.903011531163e-07 -2.332153480840e-05 0.0 
-2.332153480840e-05 1.642149031114e-04 0.0 
0.0 0.0 0.0 
-7.288542936601e-05 4.315344729340e-05 0.0 
4.315344729340e-05 1.169879677940e-03 0.0 
0.0 0.0 0.0 
5.227578218658e-05 1.375870555033e-04 0.0 
1.375870555033e-04 5.006240707806e-04 0.0 
0.0 0.0 0.0 
6.296768725900e-05 8.700849972893e-05 0.0 
8.700849972893e-05 2.947137758968e-04 0.0 
0.0 0.0 0.0 
2.303115073476e-05 -1.538064624314e-05 0.0 
-1.538064624314e-05 1.769070398772e-04 0.0 
0.0 0.0 0.0 
-4.688403635655e-05 5.513994408478e-05 0.0 
5.513994408478e-05 1.419791737627e-03 0.0 
0.0 0.0 0.0 
-8.032458553386e-05 5.356403786284e-05 0.0 
5.356403786284e-05 1.187502878138e-03 0.0 
0.0 0.0 0.0 
-2.785596291410e-05 1.455547328549e-04 0.0 
1.455547328549e-04 7.538057070988e-04 0.0 
0.0 0.0 0.0 
-4.844100649648e-05 4.807890104192e-05 0.0 
4.807890104192e-05 1.454647496266e-03 0.0 
0.0 0.0 0.0 
-6.110499353240e-05 7.221919900783e-05 0.0 
7.221919900783e-05 1.385339894707e-03 0.0 
0.0 0.0 0.0 
-7.904866622832e-05 7.691476488710e-05 0.0 
7.691476488710e-05 1.122810789336e-03 0.0 
0.0 0.0 0.0 
1.608499729278e-05 5.161941660286e-05 0.0 
5.161941660286e-05 1.196085540442e-03 0.0 
0.0 0.0 0.0 
4.808834006109e-05 1.234427923051e-04 0.0 
1.234427923051e-04 8.433147019500e-04 0.0 
0.0 0.0 0.0 
-7.931992180288e-05 7.040500564617e-05 0.0 
7.040500564617e-05 1.163412498733e-03 0.0 
0.0 0.0 0.0 
-1.442341202162e-05 1.398034058801e-04 0.0 
1.398034058801e-04 8.603550394608e-04 0.0 
0.0 0.0 0.0 
3.818775537945e-05 1.171351032810e-04 0.0 
1.171351032810e-04 9.064319086016e-04 0.0 
0.0 0.0 0.0 
7.137897316123e-05 9.669487285142e-05 0.0 
9.669487285142e-05 3.626045756651e-04 0.0 
0.0 0.0 0.0 
-6.454415427659e-05 1.638807385050e-05 0.0 
1.638807385050e-05 1.161896170191e-03 0.0 
0.0 0.0 0.0 
4.741146281595e-05 1.193640874924e-04 0.0 
1.193640874924e-04 7.091635528058e-04 0.0 
0.0 0.0 0.0 
7.180327030643e-05 3.424828367305e-05 0.0 
3.424828367305e-05 4.101781652945e-04 0.0 
0.0 0.0 0.0 
-5.553058145280e-05 6.633095412622e-05 0.0 
6.633095412622e-05 1.368169636618e-03 0.0 
0.0 0.0 0.0 
-1.186681866083e-04 3.168926334150e-06 0.0 
3.168926334150e-06 7.015476828620e-05 0.0 
0.0 0.0 0.0 
-7.776531198456e-05 3.955259074625e-05 0.0 
3.955259074625e-05 1.205217095687e-03 0.0 
0.0 0.0 0.0 
6.444654189464e-05 1.231729720225e-04 0.0 
1.231729720225e-04 4.993817555317e-04 0.0 
0.0 0.0 0.0 
2.021641908412e-05 1.461185066366e-04 0.0 
1.461185066366e-04 5.304730778262e-04 0.0 
0.0 0.0 0.0 
5.996828713450e-05 6.801139640515e-05 0.0 
6.801139640515e-05 3.675542141985e-04 0.0 
0.0 0.0 0.0 
-6.925397895119e-05 6.195955255676e-05 0.0 
6.195955255676e-05 1.240402748415e-03 0.0 
0.0 0.0 0.0 
-9.886971573225e-06 -2.125741934728e-05 0.0 
-2.125741934728e-05 1.153110339827e-04 0.0 
0.0 0.0 0.0 
-7.335237771100e-05 8.336239179350e-05 0.0 
8.336239179350e-05 8.969702911363e-04 0.0 
0.0 0.0 0.0 
4.450124129529e-05 1.232353222940e-04 0.0 
1.232353222940e-04 9.104605910284e-04 0.0 
0.0 0.0 0.0 
-7.301540028026e-05 5.365049951149e-05 0.0 
5.365049951149e-05 1.187433120212e-03 0.0 
0.0 0.0 0.0 
-6.480573195544e-05 2.184071807440e-05 0.0 
2.184071807440e-05 1.212968776026e-03 0.0 
0.0 0.0 0.0 
3.031662568453e-05 5.324667487906e-05 0.0 
5.324667487906e-05 1.761717987212e-04 0.0 
0.0 0.0 0.0 
8.311432479435e-05 5.818021566637e-05 0.0 
5.818021566637e-05 4.064233962962e-04 0.0 
0.0 0.0 0.0 
6.516005626378e-05 1.665154261712e-05 0.0 
1.665154261712e-05 3.638170104510e-04 0.0 
0.0 0.0 0.0 
-7.988168894202e-05 8.999010315071e-05 0.0 
8.999010315071e-05 8.502854782291e-04 0.0 
0.0 0.0 0.0 
-6.591226689556e-05 5.252210899075e-05 0.0 
5.252210899075e-05 1.349882555129e-03 0.0 
0.0 0.0 0.0 
-7.808961636913e-05 9.705477260064e-05 0.0 
9.705477260064e-05 8.949475383233e-04 0.0 
0.0 0.0 0.0 
5.843917216475e-05 1.248751631401e-04 0.0 
1.248751631401e-04 6.392030695321e-04 0.0 
0.0 0.0 0.0 
4.661811273232e-05 1.365374103654e-04 0.0 
1.365374103654e-04 6.389141561649e-04 0.0 
0.0 0.0 0.0 
2.664983530742e-05 4.180635078965e-05 0.0 
4.180635078965e-05 2.358957312190e-04 0.0 
0.0 0.0 0.0 
-4.586156311492e-06 1.428779532337e-04 0.0 
1.428779532337e-04 8.492478851905e-04 0.0 
0.0 0.0 0.0 
-9.701008296670e-08 1.312140565057e-04 0.0 
1.312140565057e-04 4.070310022024e-04 0.0 
0.0 0.0 0.0 
-1.343075551752e-05 8.153505590380e-05 0.0 
8.153505590380e-05 1.628399260377e-03 0.0 
0.0 0.0 0.0 
-1.601583543764e-05 9.713752743249e-05 0.0 
9.713752743249e-05 1.611938445917e-03 0.0 
0.0 0.0 0.0 
-5.315953581231e-05 1.146207855672e-04 0.0 
1.146207855672e-04 1.036918584842e-03 0.0 
0.0 0.0 0.0 
6.545339164421e-05 1.193518236326e-04 0.0 
1.193518236326e-04 4.285868411842e-04 0.0 
0.0 0.0 0.0 
3.462691477618e-05 1.264690987116e-04 0.0 
1.264690987116e-04 4.458867393049e-04 0.0 
0.0 0.0 0.0 
-6.943254171377e-05 8.131284286389e-05 0.0 
8.131284286389e-05 1.173956006931e-03 0.0 
0.0 0.0 0.0 
4.894997364291e-05 1.097736985312e-04 0.0 
1.097736985312e-04 4.351991540705e-04 0.0 
0.0 0.0 0.0 
7.794927858540e-05 3.998274484905e-05 0.0 
3.998274484905e-05 3.601181638759e-04 0.0 
0.0 0.0 0.0 
-7.320655954324e-05 8.028116006222e-05 0.0 
8.028116006222e-05 1.081507840455e-03 0.0 
0.0 0.0 0.0 
-1.658344632982e-05 2.792580800104e-05 0.0 
2.792580800104e-05 1.608030434306e-03 0.0 
0.0 0.0 0.0 
4.977822662910e-05 1.379576127408e-04 0.0 
1.379576127408e-04 5.700414312166e-04 0.0 
0.0 0.0 0.0 
2.119741375117e-05 1.323434036349e-04 0.0 
1.323434036349e-04 1.029406068782e-03 0.0 
0.0 0.0 0.0 
3.225245750782e-05 1.440679492217e-04 0.0 
1.440679492217e-04 3.780865830574e-04 0.0 
0.0 0.0 0.0 
1.438340020998e-05 1.269205225693e-04 0.0 
1.269205225693e-04 1.324755992088e-03 0.0 
0.0 0.0 0.0 
5.345660232647e-05 1.351001928095e-04 0.0 
1.351001928095e-04 4.310793607454e-04 0.0 
0.0 0.0 0.0 
-6.701132916831e-05 9.419616520733e-05 0.0 
9.419616520733e-05 1.086055794069e-03 0.0 
0.0 0.0 0.0 
5.509270731441e-05 6.255731543141e-05 0.0 
6.255731543141e-05 2.382736988122e-04 0.0 
0.0 0.0 0.0 
6.920334535199e-05 9.456126345883e-05 0.0 
9.456126345883e-05 8.842553286410e-04 0.0 
0.0 0.0 0.0 
4.344335723538e-05 1.340411067819e-04 0.0 
1.340411067819e-04 7.068500074088e-04 0.0 
0.0 0.0 0.0 
7.881905416673e-05 3.300160780335e-05 0.0 
3.300160780335e-05 3.823944981909e-04 0.0 
0.0 0.0 0.0 
-8.202124611545e-05 5.795267758419e-05 0.0 
5.795267758419e-05 1.150251354278e-03 0.0 
0.0 0.0 0.0 
-1.289847551433e-05 1.242187123021e-04 0.0 
1.242187123021e-04 1.583452659617e-03 0.0 
0.0 0.0 0.0 
6.168557468245e-05 1.246657690214e-04 0.0 
1.246657690214e-04 5.697594038940e-04 0.0 
0.0 0.0 0.0 
4.618089878328e-05 1.106621561591e-04 0.0 
1.106621561591e-04 9.122221584792e-04 0.0 
0.0 0.0 0.0 
2.508947397040e-05 1.181257698511e-04 0.0 
1.181257698511e-04 3.816634601033e-04 0.0 
0.0 0.0 0.0 
-4.813825940253e-05 2.745850696826e-05 0.0 
2.745850696826e-05 1.323133832714e-03 0.0 
0.0 0.0 0.0 
6.886709341147e-05 7.944594713383e-05 0.0 
7.944594713383e-05 9.412510424305e-04 0.0 
0.0 0.0 0.0 
-2.564983442610e-05 1.574865542292e-04 0.0 
1.574865542292e-04 6.487666096293e-04 0.0 
0.0 0.0 0.0 
-5.337756818158e-05 1.509115555757e-05 0.0 
1.509115555757e-05 1.297564990365e-03 0.0 
0.0 0.0 0.0 
-9.797194980399e-06 1.480739748256e-04 0.0 
1.480739748256e-04 1.538221909517e-03 0.0 
0.0 0.0 0.0 
5.965615292491e-05 8.462462268382e-05 0.0 
8.462462268382e-05 1.013290136183e-03 0.0 
0.0 0.0 0.0 
-1.468890070389e-05 1.154338352768e-04 0.0 
1.154338352768e-04 1.594438395943e-03 0.0 
0.0 0.0 0.0 
-5.813532251298e-05 2.016145756186e-05 0.0 
2.016145756186e-05 1.290380719594e-03 0.0 
0.0 0.0 0.0 
-6.053810380369e-05 8.531019959109e-05 0.0 
8.531019959109e-05 1.359225157333e-03 0.0 
0.0 0.0 0.0 
-3.277023069603e-05 1.561428048785e-04 0.0 
1.561428048785e-04 5.999021819310e-04 0.0 
0.0 0.0 0.0 
-8.402081568748e-05 5.025828831294e-05 0.0 
5.025828831294e-05 1.097650661629e-03 0.0 
0.0 0.0 0.0 
-7.311680663036e-05 6.907044006488e-05 0.0 
6.907044006488e-05 1.163571310029e-03 0.0 
0.0 0.0 0.0 
-7.844054168760e-05 6.504856794539e-05 0.0 
6.504856794539e-05 1.202597460665e-03 0.0 
0.0 0.0 0.0 
-5.665783081865e-05 1.166669727924e-04 0.0 
1.166669727924e-04 9.866344510552e-04 0.0 
0.0 0.0 0.0 
-6.639545475084e-06 1.579952860341e-04 0.0 
1.579952860341e-04 1.503323639021e-03 0.0 
0.0 0.0 0.0 
-6.164712236445e-05 3.309307806844e-05 0.0 
3.309307806844e-05 1.252710865930e-03 0.0 
0.0 0.0 0.0 
-7.880447635344e-05 3.226738647071e-05 0.0 
3.226738647071e-05 1.150688181648e-03 0.0 
0.0 0.0 0.0 
4.981496028500e-05 1.193468540417e-04 0.0 
1.193468540417e-04 6.414999474442e-04 0.0 
0.0 0.0 0.0 
3.318210783432e-05 -9.480343839672e-06 0.0 
-9.480343839672e-06 2.477923945736e-04 0.0 
0.0 0.0 0.0 
-8.283820661381e-05 3.767881745017e-05 0.0 
3.767881745017e-05 1.079810561391e-03 0.0 
0.0 0.0 0.0 
-8.358041625467e-06 1.582758838629e-04 0.0 
1.582758838629e-04 6.159787271507e-04 0.0 
0.0 0.0 0.0 
-4.045312827272e-05 1.109668277034e-07 0.0 
1.109668277034e-07 1.155830788688e-03 0.0 
0.0 0.0 0.0 
6.703296567068e-05 1.168379281359e-05 0.0 
1.168379281359e-05 3.856236693804e-04 0.0 
0.0 0.0 0.0 
5.146696631653e-05 1.181695471189e-04 0.0 
1.181695471189e-04 5.728564321621e-04 0.0 
0.0 0.0 0.0 
-5.034698181494e-05 6.526057368858e-05 0.0 
6.526057368858e-05 1.404687210683e-03 0.0 
0.0 0.0 0.0 
-1.396257901520e-07 1.554575529079e-04 0.0 
1.554575529079e-04 6.163108908579e-04 0.0 
0.0 0.0 0.0 
-7.609810417053e-05 6.109192968712e-05 0.0 
6.109192968712e-05 1.112328998633e-03 0.0 
0.0 0.0 0.0 
5.179162792524e-05 1.166427342331e-04 0.0 
1.166427342331e-04 9.176676842217e-04 0.0 
0.0 0.0 0.0 
8.492030510454e-05 4.689843973240e-05 0.0 
4.689843973240e-05 7.097694485316e-04 0.0 
0.0 0.0 0.0 
1.766796515534e-06 1.635073330817e-04 0.0 
1.635073330817e-04 1.446510827320e-03 0.0 
0.0 0.0 0.0 
-8.435456737532e-05 4.781157491563e-05 0.0 
4.781157491563e-05 1.009361242087e-03 0.0 
0.0 0.0 0.0 
8.085702119520e-05 6.908018153526e-05 0.0 
6.908018153526e-05 3.880796295246e-04 0.0 
0.0 0.0 0.0 
6.967280945402e-05 1.707838061297e-06 0.0 
1.707838061297e-06 4.767981249951e-04 0.0 
0.0 0.0 0.0 
-6.851906288852e-05 1.266677689781e-04 0.0 
1.266677689781e-04 7.482385377457e-04 0.0 
0.0 0.0 0.0 
-3.207645755809e-05 1.498312377728e-04 0.0 
1.498312377728e-04 6.496283314572e-04 0.0 
0.0 0.0 0.0 
-5.184151325777e-05 7.979493735739e-05 0.0 
7.979493735739e-05 1.439159653824e-03 0.0 
0.0 0.0 0.0 
-7.282018405430e-05 8.929964708427e-05 0.0 
8.929964708427e-05 1.130704994645e-03 0.0 
0.0 0.0 0.0 
-8.480666734623e-05 6.299249574361e-05 0.0 
6.299249574361e-05 9.317249166565e-04 0.0 
0.0 0.0 0.0 
-7.738014740255e-05 5.240710442253e-05 0.0 
5.240710442253e-05 1.061078570299e-03 0.0 
0.0 0.0 0.0 
1.020361124038e-05 1.499698677035e-04 0.0 
1.499698677035e-04 1.369451203743e-03 0.0 
0.0 0.0 0.0 
1.423932491917e-05 1.377734656936e-04 0.0 
1.377734656936e-04 1.310537109924e-03 0.0 
0.0 0.0 0.0 
-4.352634613591e-05 8.382112655105e-05 0.0 
8.382112655105e-05 1.438185166799e-03 0.0 
0.0 0.0 0.0 
-6.067340824034e-05 5.134605263775e-05 0.0 
5.134605263775e-05 1.385993665070e-03 0.0 
0.0 0.0 0.0 
7.970853867567e-05 3.605361460302e-05 0.0 
3.605361460302e-05 6.890658117655e-04 0.0 
0.0 0.0 0.0 
-6.720261999560e-05 1.147677688637e-04 0.0 
1.147677688637e-04 8.907407103138e-04 0.0 
0.0 0.0 0.0 
5.912141406927e-05 9.305147291104e-05 0.0 
9.305147291104e-05 4.327902183168e-04 0.0 
0.0 0.0 0.0 
6.173081403871e-05 9.991883854103e-05 0.0 
9.991883854103e-05 5.029558286249e-04 0.0 
0.0 0.0 0.0 
-6.947838339799e-05 9.756860547311e-05 0.0 
9.756860547311e-05 1.085571923372e-03 0.0 
0.0 0.0 0.0 
6.474642002652e-05 8.735067133140e-05 0.0 
8.735067133140e-05 8.727008211940e-04 0.0 
0.0 0.0 0.0 
6.827087953654e-05 3.787266880119e-07 0.0 
3.787266880119e-07 5.759877358951e-04 0.0 
0.0 0.0 0.0 
-4.189975897173e-05 7.295404218173e-05 0.0 
7.295404218173e-05 1.459213158222e-03 0.0 
0.0 0.0 0.0 
6.940959332957e-05 4.321567130314e-05 0.0 
4.321567130314e-05 3.921714045647e-04 0.0 
0.0 0.0 0.0 
-4.630192034205e-05 1.266134012789e-04 0.0 
1.266134012789e-04 9.317818283403e-04 0.0 
0.0 0.0 0.0 
-7.364587524317e-05 7.399038030618e-05 0.0 
7.399038030618e-05 1.123322960171e-03 0.0 
0.0 0.0 0.0 
-5.137071289218e-05 1.275308718505e-04 0.0 
1.275308718505e-04 8.826894510576e-04 0.0 
0.0 0.0 0.0 
-1.533279558941e-05 1.069098812036e-04 0.0 
1.069098812036e-04 1.603913779334e-03 0.0 
0.0 0.0 0.0 
-1.444991855193e-05 9.067875695765e-05 0.0 
9.067875695765e-05 1.619432318085e-03 0.0 
0.0 0.0 0.0 
-2.821044280199e-05 8.148961998776e-05 0.0 
8.148961998776e-05 1.562260950636e-03 0.0 
0.0 0.0 0.0 
7.748036878352e-05 4.287055583095e-05 0.0 
4.287055583095e-05 7.564955783035e-04 0.0 
0.0 0.0 0.0 
-4.091546637330e-05 5.396016621424e-05 0.0 
5.396016621424e-05 1.453864816068e-03 0.0 
0.0 0.0 0.0 
-9.116564382294e-06 1.598531657425e-04 0.0 
1.598531657425e-04 5.601323997058e-04 0.0 
0.0 0.0 0.0 
6.152106003920e-05 1.042819072633e-04 0.0 
1.042819072633e-04 5.728895436983e-04 0.0 
0.0 0.0 0.0 
4.822369670321e-05 5.608456240636e-05 0.0 
5.608456240636e-05 3.000831559270e-04 0.0 
0.0 0.0 0.0 
-8.220715846363e-05 8.283647861155e-05 0.0 
8.283647861155e-05 9.394833815810e-04 0.0 
0.0 0.0 0.0 
-6.030460115736e-05 1.215703283058e-05 0.0 
1.215703283058e-05 1.162973220900e-03 0.0 
0.0 0.0 0.0 
-5.204905423217e-05 2.717003693656e-05 0.0 
2.717003693656e-05 1.289705619226e-03 0.0 
0.0 0.0 0.0 
2.410542167675e-05 1.224095797885e-04 0.0 
1.224095797885e-04 1.267054566088e-03 0.0 
0.0 0.0 0.0 
-4.301689613018e-05 9.600322241786e-05 0.0 
9.600322241786e-05 1.411438287242e-03 0.0 
0.0 0.0 0.0 
-7.016719334796e-05 5.144020162447e-05 0.0 
5.144020162447e-05 1.223768584894e-03 0.0 
0.0 0.0 0.0 
-6.869264174014e-05 7.654273095134e-05 0.0 
7.654273095134e-05 1.215193995304e-03 0.0 
0.0 0.0 0.0 
6.950484179602e-05 7.302398893439e-05 0.0 
7.302398893439e-05 3.045840522014e-04 0.0 
0.0 0.0 0.0 
-1.809283453214e-05 -1.620699920012e-05 0.0 
-1.620699920012e-05 1.209146853078e-04 0.0 
0.0 0.0 0.0 
1.195150205513e-05 1.450280858410e-04 0.0 
1.450280858410e-04 7.805552249889e-04 0.0 
0.0 0.0 0.0 
-4.193549766485e-05 1.252397343749e-04 0.0 
1.252397343749e-04 9.821647371180e-04 0.0 
0.0 0.0 0.0 
2.477303700843e-06 1.369694489039e-04 0.0 
1.369694489039e-04 8.500557139606e-04 0.0 
0.0 0.0 0.0 
-2.041340003500e-05 1.324371573253e-04 0.0 
1.324371573253e-04 2.579347189295e-04 0.0 
0.0 0.0 0.0 
-3.820435221702e-05 4.035080267650e-06 0.0 
4.035080267650e-06 1.209526450929e-03 0.0 
0.0 0.0 0.0 
2.284964920007e-05 -2.383947663602e-05 0.0 
-2.383947663602e-05 2.278645436802e-04 0.0 
0.0 0.0 0.0 
3.636667534423e-05 1.507365846652e-04 0.0 
1.507365846652e-04 5.095978090961e-04 0.0 
0.0 0.0 0.0 
0.0 1.248483116992e-04 0.0 
1.248483116992e-04 1.332195919776e-03 0.0 
0.0 0.0 0.0 
3.083455442843e-05 1.184276826479e-04 0.0 
1.184276826479e-04 1.038143365217e-03 0.0 
0.0 0.0 0.0 
-7.170090010222e-05 3.370065431206e-05 0.0 
3.370065431206e-05 1.150486462805e-03 0.0 
0.0 0.0 0.0 
1.257424699119e-05 1.173566588008e-06 0.0 
1.173566588008e-06 1.602072238027e-04 0.0 
0.0 0.0 0.0 
-5.796200039287e-05 1.124871964971e-04 0.0 
1.124871964971e-04 9.872141002250e-04 0.0 
0.0 0.0 0.0 
1.859644483271e-05 1.353727158565e-04 0.0 
1.353727158565e-04 7.818810429907e-04 0.0 
0.0 0.0 0.0 
-7.657452204002e-05 6.071813203751e-05 0.0 
6.071813203751e-05 1.240589911472e-03 0.0 
0.0 0.0 0.0 
-1.148285027941e-05 1.338197532497e-04 0.0 
1.338197532497e-04 1.569344963656e-03 0.0 
0.0 0.0 0.0 
-7.629130276854e-05 4.857743552195e-05 0.0 
4.857743552195e-05 1.097815703745e-03 0.0 
0.0 0.0 0.0 
-7.448075291139e-05 8.237510054413e-05 0.0 
8.237510054413e-05 1.173840351271e-03 0.0 
0.0 0.0 0.0 
7.446249196397e-05 1.261497242273e-05 0.0 
1.261497242273e-05 5.741218873814e-04 0.0 
0.0 0.0 0.0 
-4.479040536176e-05 6.399413308209e-05 0.0 
6.399413308209e-05 1.440444945554e-03 0.0 
0.0 0.0 0.0 
8.173920621268e-05 5.313509780022e-05 0.0 
5.313509780022e-05 7.777293285587e-04 0.0 
0.0 0.0 0.0 
-1.209073463826e-05 1.409192828797e-04 0.0 
1.409192828797e-04 1.554428300436e-03 0.0 
0.0 0.0 0.0 
0.0 1.070653978736e-04 0.0 
1.070653978736e-04 1.599201535393e-03 0.0 
0.0 0.0 0.0 
0.0 7.414328661748e-05 0.0 
7.414328661748e-05 1.632402567913e-03 0.0 
0.0 0.0 0.0 
0.0 8.964917201372e-05 0.0 
8.964917201372e-05 1.615339911377e-03 0.0 
0.0 0.0 0.0 
-6.687146021689e-05 7.276665667876e-05 0.0 
7.276665667876e-05 1.254924818453e-03 0.0 
0.0 0.0 0.0 
-5.287477517235e-05 5.871237683585e-05 0.0 
5.871237683585e-05 1.441168000223e-03 0.0 
0.0 0.0 0.0 
-3.790497540235e-05 9.468663849864e-05 0.0 
9.468663849864e-05 1.453137160720e-03 0.0 
0.0 0.0 0.0 
-5.387223431530e-05 1.217507849251e-04 0.0 
1.217507849251e-04 8.834033212779e-04 0.0 
0.0 0.0 0.0 
-6.579109353044e-05 1.046574485530e-04 0.0 
1.046574485530e-04 8.920091785087e-04 0.0 
0.0 0.0 0.0 
6.450782570266e-05 -4.082189099513e-06 0.0 
-4.082189099513e-06 5.394592001826e-04 0.0 
0.0 0.0 0.0 
-5.013744388316e-05 6.788205584216e-05 0.0 
6.788205584216e-05 1.460008803497e-03 0.0 
0.0 0.0 0.0 
-8.222013397563e-06 1.537220658394e-04 0.0 
1.537220658394e-04 1.520750128788e-03 0.0 
0.0 0.0 0.0 
-3.863200051413e-05 6.209178374155e-05 0.0 
6.209178374155e-05 1.474598711382e-03 0.0 
0.0 0.0 0.0 
3.459267723338e-05 1.172602708007e-04 0.0 
1.172602708007e-04 9.722330672628e-04 0.0 
0.0 0.0 0.0 
-4.621802043470e-05 5.674448905627e-05 0.0 
5.674448905627e-05 1.475363816748e-03 0.0 
0.0 0.0 0.0 
-2.709863056349e-05 1.236485989070e-04 0.0 
1.236485989070e-04 1.195680013784e-03 0.0 
0.0 0.0 0.0 
-3.515913734897e-05 1.322207995189e-04 0.0 
1.322207995189e-04 9.240805125910e-04 0.0 
0.0 0.0 0.0 
-7.576519145425e-05 7.269007443646e-05 0.0 
7.269007443646e-05 9.405282909705e-04 0.0 
0.0 0.0 0.0 
5.037635173877e-05 1.298467469247e-04 0.0 
1.298467469247e-04 3.626531127037e-04 0.0 
0.0 0.0 0.0 
-1.093321995438e-05 5.014665577425e-05 0.0 
5.014665577425e-05 1.600368789346e-03 0.0 
0.0 0.0 0.0 
-4.245818759219e-05 1.345278735807e-04 0.0 
1.345278735807e-04 8.225651330054e-04 0.0 
0.0 0.0 0.0 
-1.310624237338e-05 1.334083670420e-04 0.0 
1.334083670420e-04 1.417728581089e-03 0.0 
0.0 0.0 0.0 
7.019658226781e-05 7.711010848371e-06 0.0 
7.711010848371e-06 5.376591639190e-04 0.0 
0.0 0.0 0.0 
5.846853849900e-05 -1.279865032433e-06 0.0 
-1.279865032433e-06 3.449902365447e-04 0.0 
0.0 0.0 0.0 
1.506576012678e-05 1.140967848441e-04 0.0 
1.140967848441e-04 1.259843229888e-03 0.0 
0.0 0.0 0.0 
1.441253285028e-05 1.570978488108e-04 0.0 
1.570978488108e-04 5.912605792380e-04 0.0 
0.0 0.0 0.0 
0.0 1.156294123525e-04 0.0 
1.156294123525e-04 1.589145157079e-03 0.0 
0.0 0.0 0.0 
-1.658567320295e-05 7.792327236129e-05 0.0 
7.792327236129e-05 1.579821386702e-03 0.0 
0.0 0.0 0.0 
-6.203502582203e-05 9.911357482020e-05 0.0 
9.911357482020e-05 1.136119837738e-03 0.0 
0.0 0.0 0.0 
-1.788184180340e-05 -1.372212351323e-05 0.0 
-1.372212351323e-05 6.768399172175e-05 0.0 
0.0 0.0 0.0 
0.0 1.309114265081e-04 0.0 
1.309114265081e-04 1.561966689545e-03 0.0 
0.0 0.0 0.0 
1.132796004066e-05 1.268164763518e-04 0.0 
1.268164763518e-04 1.292205469536e-03 0.0 
0.0 0.0 0.0 
7.013483708418e-05 1.879582037171e-05 0.0 
1.879582037171e-05 3.418988178301e-04 0.0 
0.0 0.0 0.0 
4.182862417035e-05 1.120660553490e-04 0.0 
1.120660553490e-04 9.789009763348e-04 0.0 
0.0 0.0 0.0 
3.036167417703e-06 1.620886691880e-04 0.0 
1.620886691880e-04 1.426413541682e-03 0.0 
0.0 0.0 0.0 
-3.446332435164e-05 -5.659723638825e-06 0.0 
-5.659723638825e-06 3.308792322532e-05 0.0 
0.0 0.0 0.0 
-3.899217134773e-05 1.333375476567e-04 0.0 
1.333375476567e-04 8.730034223703e-04 0.0 
0.0 0.0 0.0 
-6.383108647678e-05 9.293542108586e-05 0.0 
9.293542108586e-05 1.181743211747e-03 0.0 
0.0 0.0 0.0 
-5.854173151754e-05 1.064563038351e-04 0.0 
1.064563038351e-04 1.087937717302e-03 0.0 
0.0 0.0 0.0 
-6.888152276607e-05 8.720574360750e-05 0.0 
8.720574360750e-05 1.130979118779e-03 0.0 
0.0 0.0 0.0 
3.734728699345e-05 1.492191804923e-04 0.0 
1.492191804923e-04 4.424469738287e-04 0.0 
0.0 0.0 0.0 
0.0 1.437991154077e-04 0.0 
1.437991154077e-04 1.529673490988e-03 0.0 
0.0 0.0 0.0 
5.973800476466e-05 1.068250498789e-04 0.0 
1.068250498789e-04 6.420333089561e-04 0.0 
0.0 0.0 0.0 
1.217496664374e-05 1.391533144495e-05 0.0 
1.391533144495e-05 1.828785434181e-04 0.0 
0.0 0.0 0.0 
2.461012231358e-05 5.609246955970e-05 0.0 
5.609246955970e-05 1.198374612734e-03 0.0 
0.0 0.0 0.0 
-3.458968493286e-05 -1.265460112911e-05 0.0 
-1.265460112911e-05 7.230818911275e-05 0.0 
0.0 0.0 0.0 
-7.757646726847e-05 5.748679252957e-05 0.0 
5.748679252957e-05 1.023160857901e-03 0.0 
0.0 0.0 0.0 
2.220359341565e-05 -9.674900330591e-06 0.0 
-9.674900330591e-06 1.613715197430e-04 0.0 
0.0 0.0 0.0 
-7.478556979357e-05 3.667373076567e-05 0.0 
3.667373076567e-05 1.079905501016e-03 0.0 
0.0 0.0 0.0 
1.167957899062e-05 1.418549372326e-04 0.0 
1.418549372326e-04 1.352526356822e-03 0.0 
0.0 0.0 0.0 
0.0 1.527639044849e-04 0.0 
1.527639044849e-04 1.493830208531e-03 0.0 
0.0 0.0 0.0 
-7.165096299100e-05 6.508930387344e-05 0.0 
6.508930387344e-05 1.202559089212e-03 0.0 
0.0 0.0 0.0 
-1.591523288935e-06 -1.742566667630e-05 0.0 
-1.742566667630e-05 1.168688222495e-04 0.0 
0.0 0.0 0.0 
8.758922549035e-06 2.818582028968e-05 0.0 
2.818582028968e-05 1.377212541758e-04 0.0 
0.0 0.0 0.0 
-1.012378931797e-06 -1.132834733251e-05 0.0 
-1.132834733251e-05 1.719190463918e-04 0.0 
0.0 0.0 0.0 
4.816642410410e-05 5.152669650366e-05 0.0 
5.152669650366e-05 1.037781731735e-03 0.0 
0.0 0.0 0.0 
-6.202640146169e-05 1.524614393661e-05 0.0 
1.524614393661e-05 1.159879903481e-03 0.0 
0.0 0.0 0.0 
-7.604583057841e-05 2.975089885806e-05 0.0 
2.975089885806e-05 1.183470326134e-03 0.0 
0.0 0.0 0.0 
0.0 1.561027226564e-04 0.0 
1.561027226564e-04 1.456572445699e-03 0.0 
0.0 0.0 0.0 
-5.953245252421e-05 1.082519350875e-05 0.0 
1.082519350875e-05 1.161092079120e-03 0.0 
0.0 0.0 0.0 
-1.228830459987e-05 7.337458968945e-05 0.0 
7.337458968945e-05 1.635292340246e-03 0.0 
0.0 0.0 0.0 
-1.671063143760e-05 1.315748149309e-04 0.0 
1.315748149309e-04 1.196742289681e-03 0.0 
0.0 0.0 0.0 
-5.100458944551e-05 2.139622550282e-05 0.0 
2.139622550282e-05 1.262336856390e-03 0.0 
0.0 0.0 0.0 
-5.142561783755e-05 1.323601748195e-04 0.0 
1.323601748195e-04 7.244391153374e-04 0.0 
0.0 0.0 0.0 
4.084010215344e-05 1.236046215055e-04 0.0 
1.236046215055e-04 9.772948460507e-04 0.0 
0.0 0.0 0.0 
3.908887055326e-05 7.153553984541e-05 0.0 
7.153553984541e-05 2.980339986003e-04 0.0 
0.0 0.0 0.0 
0.0 1.531383808434e-04 0.0 
1.531383808434e-04 1.417090694718e-03 0.0 
0.0 0.0 0.0 
0.0 9.871086672742e-05 0.0 
9.871086672742e-05 1.608296687103e-03 0.0 
0.0 0.0 0.0 
0.0 8.120562734443e-05 0.0 
8.120562734443e-05 1.625610273829e-03 0.0 
0.0 0.0 0.0 
7.558411106667e-05 3.949276691819e-05 0.0 
3.949276691819e-05 7.797870575721e-04 0.0 
0.0 0.0 0.0 
6.038661021646e-05 -7.382518014703e-06 0.0 
-7.382518014703e-06 5.036957384470e-04 0.0 
0.0 0.0 0.0 
-2.949681833209e-05 1.332885242911e-04 0.0 
1.332885242911e-04 9.238836103542e-04 0.0 
0.0 0.0 0.0 
7.905063352376e-05 4.940421964456e-05 0.0 
4.940421964456e-05 8.014494480384e-04 0.0 
0.0 0.0 0.0 
0.0 1.454130108676e-04 0.0 
1.454130108676e-04 1.380677679351e-03 0.0 
0.0 0.0 0.0 
3.812744274767e-05 1.311997894152e-04 0.0 
1.311997894152e-04 5.125007195455e-04 0.0 
0.0 0.0 0.0 
8.433595540147e-05 4.901127415900e-05 0.0 
4.901127415900e-05 4.264836464671e-04 0.0 
0.0 0.0 0.0 
8.472538463344e-05 4.137048111297e-05 0.0 
4.137048111297e-05 4.474732156965e-04 0.0 
0.0 0.0 0.0 
-4.736071462652e-05 2.195319241523e-05 0.0 
2.195319241523e-05 1.296766359780e-03 0.0 
0.0 0.0 0.0 
1.217605600790e-05 1.167799652307e-04 0.0 
1.167799652307e-04 1.311945658996e-03 0.0 
0.0 0.0 0.0 
-2.468859137050e-05 -1.533147637530e-05 0.0 
-1.533147637530e-05 1.246034239437e-04 0.0 
0.0 0.0 0.0 
0.0 1.320766263721e-04 0.0 
1.320766263721e-04 1.345135246788e-03 0.0 
0.0 0.0 0.0 
7.919384013810e-05 2.717631598603e-05 0.0 
2.717631598603e-05 4.049685599754e-04 0.0 
0.0 0.0 0.0 
0.0 1.238174166506e-04 0.0 
1.238174166506e-04 1.577487357555e-03 0.0 
0.0 0.0 0.0 
-4.729464620179e-05 9.032524842892e-05 0.0 
9.032524842892e-05 1.453949875161e-03 0.0 
0.0 0.0 0.0 
-5.644048177178e-05 -5.398363707026e-06 0.0 
-5.398363707026e-06 4.085950494837e-05 0.0 
0.0 0.0 0.0 
-2.204480909318e-05 1.401619783988e-04 0.0 
1.401619783988e-04 8.603444432158e-04 0.0 
0.0 0.0 0.0 
-4.173885684111e-05 4.625408658380e-05 0.0 
4.625408658380e-05 1.488150189055e-03 0.0 
0.0 0.0 0.0 
0.0 1.379745330309e-04 0.0 
1.379745330309e-04 1.546766518636e-03 0.0 
0.0 0.0 0.0 
-7.356636486233e-05 7.171374590665e-05 0.0 
7.171374590665e-05 1.255092324624e-03 0.0 
0.0 0.0 0.0 
-6.646150501943e-06 1.347273486542e-04 0.0 
1.347273486542e-04 1.199095145269e-03 0.0 
0.0 0.0 0.0 
3.927863750142e-05 1.218405081660e-04 0.0 
1.218405081660e-04 2.974887817679e-04 0.0 
0.0 0.0 0.0 
2.412591352119e-05 1.176596441217e-04 0.0 
1.176596441217e-04 1.223840009062e-03 0.0 
0.0 0.0 0.0 
7.911391251714e-05 2.274292913011e-05 0.0 
2.274292913011e-05 4.284108927080e-04 0.0 
0.0 0.0 0.0 
7.465157833053e-05 2.141617625961e-05 0.0 
2.141617625961e-05 4.501828551056e-04 0.0 
0.0 0.0 0.0 
-5.281634224119e-05 -1.335543441309e-05 0.0 
-1.335543441309e-05 8.366193316744e-05 0.0 
0.0 0.0 0.0 
0.0 1.487018995884e-04 0.0 
1.487018995884e-04 1.511864838969e-03 0.0 
0.0 0.0 0.0 
5.219856225769e-05 8.362161946352e-05 0.0 
8.362161946352e-05 3.637518952289e-04 0.0 
0.0 0.0 0.0 
4.876350252103e-05 8.329186826059e-05 0.0 
8.329186826059e-05 1.066125946020e-03 0.0 
0.0 0.0 0.0 
-5.488981351864e-05 8.670186920428e-06 0.0 
8.670186920428e-06 1.232351231183e-03 0.0 
0.0 0.0 0.0 
5.366866804435e-05 -1.233158687806e-05 0.0 
-1.233158687806e-05 3.559941806270e-04 0.0 
0.0 0.0 0.0 
7.357150607068e-05 2.709339501344e-05 0.0 
2.709339501344e-05 4.297007933698e-04 0.0 
0.0 0.0 0.0 
-7.465599275192e-05 7.660015263235e-05 0.0 
7.660015263235e-05 1.215213492532e-03 0.0 
0.0 0.0 0.0 
0.0 1.550269770205e-04 0.0 
1.550269770205e-04 1.437179428762e-03 0.0 
0.0 0.0 0.0 
6.519111624481e-05 4.752220290115e-06 0.0 
4.752220290115e-06 5.289319331860e-04 0.0 
0.0 0.0 0.0 
6.793164697938e-05 5.602372306934e-05 0.0 
5.602372306934e-05 8.947454061985e-04 0.0 
0.0 0.0 0.0 
-4.097628466426e-05 1.237767269107e-04 0.0 
1.237767269107e-04 1.034003561875e-03 0.0 
0.0 0.0 0.0 
7.227152509492e-05 7.006559912035e-05 0.0 
7.006559912035e-05 8.334194154911e-04 0.0 
0.0 0.0 0.0 
7.723601271659e-05 4.402072953890e-05 0.0 
4.402072953890e-05 4.774336493194e-04 0.0 
0.0 0.0 0.0 
7.356340241249e-05 4.951972432150e-05 0.0 
4.951972432150e-05 8.250245574064e-04 0.0 
0.0 0.0 0.0 
-5.175106298783e-05 1.167335208113e-04 0.0 
1.167335208113e-04 1.036630236042e-03 0.0 
0.0 0.0 0.0 
-4.357256389054e-05 1.142443190374e-04 0.0 
1.142443190374e-04 1.244425894922e-03 0.0 
0.0 0.0 0.0 
3.694703228740e-05 1.248572727129e-04 0.0 
1.248572727129e-04 1.043856853145e-03 0.0 
0.0 0.0 0.0 
-3.139862669199e-05 1.310705058854e-04 0.0 
1.310705058854e-04 9.765869277008e-04 0.0 
0.0 0.0 0.0 
7.569483834691e-05 1.296340272531e-05 0.0 
1.296340272531e-05 5.478435940727e-04 0.0 
0.0 0.0 0.0 
2.142879048850e-05 1.455716597883e-04 0.0 
1.455716597883e-04 5.928827454658e-04 0.0 
0.0 0.0 0.0 
6.546827583476e-05 3.951703860497e-06 0.0 
3.951703860497e-06 5.019662995809e-04 0.0 
0.0 0.0 0.0 
-1.651039494310e-05 1.270809741186e-04 0.0 
1.270809741186e-04 1.197530238951e-03 0.0 
0.0 0.0 0.0 
5.604997918263e-05 1.155910962408e-04 0.0 
1.155910962408e-04 8.498525988607e-04 0.0 
0.0 0.0 0.0 
1.236225827461e-05 1.340257990712e-04 0.0 
1.340257990712e-04 1.338720976182e-03 0.0 
0.0 0.0 0.0 
-3.942325622031e-05 5.450629295454e-05 0.0 
5.450629295454e-05 1.509098637143e-03 0.0 
0.0 0.0 0.0 
5.295266996286e-05 -2.902970316616e-06 0.0 
-2.902970316616e-06 3.188160972496e-04 0.0 
0.0 0.0 0.0 
0.0 1.390143354164e-04 0.0 
1.390143354164e-04 1.360372991154e-03 0.0 
0.0 0.0 0.0 
2.417120364284e-05 1.304675329782e-04 0.0 
1.304675329782e-04 1.283668712107e-03 0.0 
0.0 0.0 0.0 
1.123830709049e-05 1.408046405623e-04 0.0 
1.408046405623e-04 8.426021856500e-04 0.0 
0.0 0.0 0.0 
-2.455699606974e-05 -1.430979697735e-05 0.0 
-1.430979697735e-05 7.216659172271e-05 0.0 
0.0 0.0 0.0 
1.612489251901e-05 1.088105777405e-04 0.0 
1.088105777405e-04 1.300757935850e-03 0.0 
0.0 0.0 0.0 
-4.337559234058e-05 6.586595903455e-05 0.0 
6.586595903455e-05 1.494484976867e-03 0.0 
0.0 0.0 0.0 
7.110546801758e-05 1.502804009111e-05 0.0 
1.502804009111e-05 3.656902685156e-04 0.0 
0.0 0.0 0.0 
0.0 1.162484387468e-04 0.0 
1.162484387468e-04 1.317102042493e-03 0.0 
0.0 0.0 0.0 
7.119040655201e-05 4.613238643259e-05 0.0 
4.613238643259e-05 8.485244900063e-04 0.0 
0.0 0.0 0.0 
-7.139870460759e-05 9.175461910711e-05 0.0 
9.175461910711e-05 9.423176572323e-04 0.0 
0.0 0.0 0.0 
-6.965225424183e-05 4.161780970666e-05 0.0 
4.161780970666e-05 1.204889150000e-03 0.0 
0.0 0.0 0.0 
5.018317721861e-05 1.096356687600e-04 0.0 
1.096356687600e-04 8.450484580753e-04 0.0 
0.0 0.0 0.0 
7.817640341035e-05 3.253486414824e-05 0.0 
3.253486414824e-05 7.118834943380e-04 0.0 
0.0 0.0 0.0 
6.647418266770e-05 8.123987804298e-05 0.0 
8.123987804298e-05 8.864412524494e-04 0.0 
0.0 0.0 0.0 
-6.648554387145e-05 4.379684416761e-05 0.0 
4.379684416761e-05 1.329841646281e-03 0.0 
0.0 0.0 0.0 
-7.598641653295e-05 7.273773074093e-05 0.0 
7.273773074093e-05 1.032281754183e-03 0.0 
0.0 0.0 0.0 
2.710939030748e-05 1.305453542291e-04 0.0 
1.305453542291e-04 1.102422156912e-03 0.0 
0.0 0.0 0.0 
-3.854601838249e-05 2.294155275762e-06 0.0 
2.294155275762e-06 1.261951714055e-03 0.0 
0.0 0.0 0.0 
6.884769678206e-05 2.032227032224e-07 0.0 
2.032227032224e-07 5.497982514475e-04 0.0 
0.0 0.0 0.0 
4.722436596216e-05 1.181855883785e-04 0.0 
1.181855883785e-04 9.852234504670e-04 0.0 
0.0 0.0 0.0 
6.927694632797e-05 5.038986159352e-06 0.0 
5.038986159352e-06 4.307018873393e-04 0.0 
0.0 0.0 0.0 
7.035800053390e-05 2.603990539844e-05 0.0 
2.603990539844e-05 7.951551024925e-04 0.0 
0.0 0.0 0.0 
-6.607507469802e-05 -5.730794004262e-06 0.0 
-5.730794004262e-06 4.474016391676e-05 0.0 
0.0 0.0 0.0 
1.533237665052e-06 1.522545151578e-04 0.0 
1.522545151578e-04 6.737618199357e-04 0.0 
0.0 0.0 0.0 
6.837690236106e-05 7.809468182763e-06 0.0 
7.809468182763e-06 4.077703944543e-04 0.0 
0.0 0.0 0.0 
7.307367182219e-05 1.235428024020e-05 0.0 
1.235428024020e-05 6.008265409385e-04 0.0 
0.0 0.0 0.0 
-3.639712467529e-06 1.393264269961e-04 0.0 
1.393264269961e-04 9.079733845694e-04 0.0 
0.0 0.0 0.0 
7.689740851147e-05 5.920328953249e-05 0.0 
5.920328953249e-05 8.465675375373e-04 0.0 
0.0 0.0 0.0 
-5.134157569386e-05 1.027226886079e-05 0.0 
1.027226886079e-05 1.270334733176e-03 0.0 
0.0 0.0 0.0 
6.035379981428e-05 -3.520690091197e-06 0.0 
-3.520690091197e-06 3.686379180954e-04 0.0 
0.0 0.0 0.0 
0.0 1.088072238227e-04 0.0 
1.088072238227e-04 1.306745752632e-03 0.0 
0.0 0.0 0.0 
-6.747022838993e-05 9.364704208984e-05 0.0 
9.364704208984e-05 1.181662806527e-03 0.0 
0.0 0.0 0.0 
7.157788905410e-05 1.218409867905e-05 0.0 
1.218409867905e-05 6.274502063091e-04 0.0 
0.0 0.0 0.0 
-6.422781431903e-05 1.006521718209e-04 0.0 
1.006521718209e-04 1.135915555056e-03 0.0 
0.0 0.0 0.0 
6.753309062391e-05 7.660635324508e-07 0.0 
7.660635324508e-07 6.025820737066e-04 0.0 
0.0 0.0 0.0 
-4.079873368479e-05 -5.825690651548e-06 0.0 
-5.825690651548e-06 3.607809973860e-05 0.0 
0.0 0.0 0.0 
-7.438519732206e-05 3.781426714782e-05 0.0 
3.781426714782e-05 1.239734101184e-03 0.0 
0.0 0.0 0.0 
5.656647581231e-05 3.747947753136e-06 0.0 
3.747947753136e-06 4.904575186877e-04 0.0 
0.0 0.0 0.0 
-9.017489109309e-06 -3.887167896030e-06 0.0 
-3.887167896030e-06 2.099209507400e-05 0.0 
0.0 0.0 0.0 
6.861400666058e-05 8.544811854667e-06 0.0 
8.544811854667e-06 5.908249722126e-04 0.0 
0.0 0.0 0.0 
7.019145298881e-05 6.496478824526e-05 0.0 
6.496478824526e-05 9.162721420581e-04 0.0 
0.0 0.0 0.0 
-2.248092764101e-05 1.926160081819e-05 0.0 
1.926160081819e-05 1.493684773321e-03 0.0 
0.0 0.0 0.0 
7.152031610080e-05 7.631210092071e-05 0.0 
7.631210092071e-05 8.178859243086e-04 0.0 
0.0 0.0 0.0 
7.601322513895e-05 8.407703331889e-05 0.0 
8.407703331889e-05 8.309831308506e-04 0.0 
0.0 0.0 0.0 
-7.589845608524e-05 2.344084412310e-05 0.0 
2.344084412310e-05 1.129339402124e-03 0.0 
0.0 0.0 0.0 
-5.927097142333e-05 6.002413007439e-06 0.0 
6.002413007439e-06 1.106167069168e-03 0.0 
0.0 0.0 0.0 
-1.152291669926e-05 5.928280007637e-05 0.0 
5.928280007637e-05 1.596567431331e-03 0.0 
0.0 0.0 0.0 
-5.912678912279e-05 1.082872398713e-04 0.0 
1.082872398713e-04 1.087701771239e-03 0.0 
0.0 0.0 0.0 
-1.272562720267e-05 -3.356580853567e-06 0.0 
-3.356580853567e-06 2.189951116671e-05 0.0 
0.0 0.0 0.0 
1.447063418913e-05 -2.335106912750e-05 0.0 
-2.335106912750e-05 1.928939075975e-04 0.0 
0.0 0.0 0.0 
-2.264672844854e-05 -1.458798440665e-05 0.0 
-1.458798440665e-05 7.039514937568e-05 0.0 
0.0 0.0 0.0 
4.715983786596e-05 -1.621849376883e-05 0.0 
-1.621849376883e-05 3.436080101755e-04 0.0 
0.0 0.0 0.0 
-4.111602433543e-05 1.113320181396e-04 0.0 
1.113320181396e-04 1.392691059602e-03 0.0 
0.0 0.0 0.0 
-2.573260273442e-05 1.111681751171e-05 0.0 
1.111681751171e-05 1.494671314779e-03 0.0 
0.0 0.0 0.0 
5.691501067973e-05 5.366943096639e-05 0.0 
5.366943096639e-05 9.906168319680e-04 0.0 
0.0 0.0 0.0 
5.161273819332e-05 -1.443115967433e-05 0.0 
-1.443115967433e-05 3.907168786401e-04 0.0 
0.0 0.0 0.0 
6.607498360789e-05 1.485855435607e-05 0.0 
1.485855435607e-05 7.969830287939e-04 0.0 
0.0 0.0 0.0 
5.010847991005e-05 9.056694513802e-05 0.0 
9.056694513802e-05 1.084522973286e-03 0.0 
0.0 0.0 0.0 
3.804718342404e-05 2.868981252831e-05 0.0 
2.868981252831e-05 2.439782986885e-04 0.0 
0.0 0.0 0.0 
5.531600381770e-05 -7.158788884332e-06 0.0 
-7.158788884332e-06 4.906537822675e-04 0.0 
0.0 0.0 0.0 
4.865483532202e-05 3.251911421755e-06 0.0 
3.251911421755e-06 3.993063446104e-04 0.0 
0.0 0.0 0.0 
1.382094758884e-05 9.949145230592e-05 0.0 
9.949145230592e-05 1.289165125782e-03 0.0 
0.0 0.0 0.0 
0.0 9.899352757033e-05 0.0 
9.899352757033e-05 1.294781194037e-03 0.0 
0.0 0.0 0.0 
5.912538978148e-05 -4.848056209671e-06 0.0 
-4.848056209671e-06 5.491687411090e-04 0.0 
0.0 0.0 0.0 
6.701847717205e-05 1.003567573805e-06 0.0 
1.003567573805e-06 6.291831864293e-04 0.0 
0.0 0.0 0.0 
8.269866377653e-05 4.322867653731e-05 0.0 
4.322867653731e-05 7.335156211796e-04 0.0 
0.0 0.0 0.0 
4.392787967711e-05 1.013056087853e-04 0.0 
1.013056087853e-04 1.135632264926e-03 0.0 
0.0 0.0 0.0 
2.395760195695e-05 -9.596046111621e-06 0.0 
-9.596046111621e-06 2.127431628371e-04 0.0 
0.0 0.0 0.0 
5.648421107929e-05 8.044840278617e-05 0.0 
8.044840278617e-05 1.034833492886e-03 0.0 
0.0 0.0 0.0 
3.487973217586e-06 -7.210045404522e-06 0.0 
-7.210045404522e-06 1.126417908941e-04 0.0 
0.0 0.0 0.0 
6.417029734807e-05 -3.182912525143e-06 0.0 
-3.182912525143e-06 5.661110896373e-04 0.0 
0.0 0.0 0.0 
7.024141862111e-05 5.790257332516e-06 0.0 
5.790257332516e-06 6.400453201802e-04 0.0 
0.0 0.0 0.0 
4.984274752262e-06 -4.079163303532e-06 0.0 
-4.079163303532e-06 5.858090925104e-05 0.0 
0.0 0.0 0.0 
5.891345319298e-05 4.428007942355e-06 0.0 
4.428007942355e-06 5.191630524366e-04 0.0 
0.0 0.0 0.0 
-3.200508112500e-05 6.019029914099e-05 0.0 
6.019029914099e-05 1.508053499365e-03 0.0 
0.0 0.0 0.0 
-1.038169676060e-05 -2.902917348418e-06 0.0 
-2.902917348418e-06 2.107916248573e-05 0.0 
0.0 0.0 0.0 
-6.170844528375e-05 8.808840422504e-06 0.0 
8.808840422504e-06 1.106310123508e-03 0.0 
0.0 0.0 0.0 
-6.142106725671e-05 1.076054854057e-05 0.0 
1.076054854057e-05 1.104198160961e-03 0.0 
0.0 0.0 0.0 
5.917231250518e-05 9.154714638737e-05 0.0 
9.154714638737e-05 9.412452100110e-04 0.0 
0.0 0.0 0.0 
4.690468232948e-05 -6.280968150532e-06 0.0 
-6.280968150532e-06 3.989554549673e-04 0.0 
0.0 0.0 0.0 
7.168624116272e-05 1.208573470864e-05 0.0 
1.208573470864e-05 3.900593261612e-04 0.0 
0.0 0.0 0.0 
1.510693796636e-05 1.425906165189e-04 0.0 
1.425906165189e-04 4.690055010976e-04 0.0 
0.0 0.0 0.0 
4.113981872922e-05 5.381868351721e-05 0.0 
5.381868351721e-05 1.086510327103e-03 0.0 
0.0 0.0 0.0 
-8.613992932505e-06 1.378163211357e-04 0.0 
1.378163211357e-04 1.474820507605e-03 0.0 
0.0 0.0 0.0 
-3.439203038436e-05 1.817408091234e-05 0.0 
1.817408091234e-05 1.455771781504e-03 0.0 
0.0 0.0 0.0 
-4.623703031681e-05 1.459805831007e-04 0.0 
1.459805831007e-04 7.227086260311e-04 0.0 
0.0 0.0 0.0 
8.085181155693e-07 -8.535867099053e-06 0.0 
-8.535867099053e-06 1.304263713628e-04 0.0 
0.0 0.0 0.0 
-8.482545163824e-05 5.581223488493e-05 0.0 
5.581223488493e-05 1.060669226937e-03 0.0 
0.0 0.0 0.0 
-4.958759968354e-05 2.474743146356e-06 0.0 
2.474743146356e-06 1.107026575157e-03 0.0 
0.0 0.0 0.0 
-4.859581033245e-05 1.310029926255e-06 0.0 
1.310029926255e-06 1.105310469189e-03 0.0 
0.0 0.0 0.0 
-4.663893134138e-06 -3.326129006645e-06 0.0 
-3.326129006645e-06 1.965881197941e-05 0.0 
0.0 0.0 0.0 
3.493255928522e-06 -5.281042601643e-06 0.0 
-5.281042601643e-06 5.912006398590e-05 0.0 
0.0 0.0 0.0 
1.222505216725e-05 -5.003327488713e-06 0.0 
-5.003327488713e-06 1.090993450923e-04 0.0 
0.0 0.0 0.0 
4.025589838919e-05 -7.179445849880e-06 0.0 
-7.179445849880e-06 2.958740196588e-04 0.0 
0.0 0.0 0.0 
-2.770739704339e-07 -3.651638544275e-06 0.0 
-3.651638544275e-06 5.984153809724e-05 0.0 
0.0 0.0 0.0 
6.030753793440e-05 4.926959260422e-06 0.0 
4.926959260422e-06 5.819522900055e-04 0.0 
0.0 0.0 0.0 
-5.784467539782e-05 -6.169907410243e-06 0.0 
-6.169907410243e-06 4.315158276302e-05 0.0 
0.0 0.0 0.0 
5.027461608709e-05 -4.397307413646e-06 0.0 
-4.397307413646e-06 3.548498820940e-04 0.0 
0.0 0.0 0.0 
-3.297165353366e-05 5.423159639509e-06 0.0 
5.423159639509e-06 1.315429916370e-03 0.0 
0.0 0.0 0.0 
-5.564443510508e-05 5.897808464315e-06 0.0 
5.897808464315e-06 1.104763258088e-03 0.0 
0.0 0.0 0.0 
-3.930886034165e-05 1.086916922985e-04 0.0 
1.086916922985e-04 1.435044951192e-03 0.0 
0.0 0.0 0.0 
7.358919333211e-05 5.531726832086e-05 0.0 
5.531726832086e-05 8.702911177796e-04 0.0 
0.0 0.0 0.0 
-3.566794171450e-05 4.374591210612e-06 0.0 
4.374591210612e-06 1.260124558795e-03 0.0 
0.0 0.0 0.0 
5.009923628441e-05 5.060767722343e-06 0.0 
5.060767722343e-06 4.279581612696e-04 0.0 
0.0 0.0 0.0 
6.704016511705e-06 -5.199178436950e-06 0.0 
-5.199178436950e-06 1.106976323408e-04 0.0 
0.0 0.0 0.0 
0.0 3.008115738532e-05 0.0 
3.008115738532e-05 1.654574722936e-03 0.0 
0.0 0.0 0.0 
-9.135599263521e-06 3.380126007900e-05 0.0 
3.380126007900e-05 1.653370784697e-03 0.0 
0.0 0.0 0.0 
-4.912793943890e-05 1.735564604079e-05 0.0 
1.735564604079e-05 1.231693774007e-03 0.0 
0.0 0.0 0.0 
-5.357595545152e-05 3.066002851716e-06 0.0 
3.066002851716e-06 1.106324984639e-03 0.0 
0.0 0.0 0.0 
5.021100676861e-05 -5.874829009317e-06 0.0 
-5.874829009317e-06 4.339572028804e-04 0.0 
0.0 0.0 0.0 
-7.352593305532e-06 2.320896934164e-05 0.0 
2.320896934164e-05 1.656608444797e-03 0.0 
0.0 0.0 0.0 
4.259128349027e-05 -1.808689227558e-05 0.0 
-1.808689227558e-05 3.313322830769e-04 0.0 
0.0 0.0 0.0 
-5.829302682625e-05 7.729173085456e-06 0.0 
7.729173085456e-06 1.103877774457e-03 0.0 
0.0 0.0 0.0 
-5.488982873603e-05 4.807427940309e-06 0.0 
4.807427940309e-06 1.105792751230e-03 0.0 
0.0 0.0 0.0 
-7.607269024468e-05 3.934567361745e-05 0.0 
3.934567361745e-05 1.045762640637e-03 0.0 
0.0 0.0 0.0 
0.0 6.688830770498e-05 0.0 
6.688830770498e-05 1.638589620458e-03 0.0 
0.0 0.0 0.0 
-7.344831897904e-06 2.897538823593e-05 0.0 
2.897538823593e-05 1.655739958287e-03 0.0 
0.0 0.0 0.0 
-2.776871471100e-06 -4.663554113758e-06 0.0 
-4.663554113758e-06 6.050879999364e-05 0.0 
0.0 0.0 0.0 
-2.779154172128e-06 -2.219039091792e-06 0.0 
-2.219039091792e-06 1.933491158490e-05 0.0 
0.0 0.0 0.0 
8.740581508349e-06 -8.895359491839e-06 0.0 
-8.895359491839e-06 1.569491910158e-04 0.0 
0.0 0.0 0.0 
7.613923999705e-05 1.786231528649e-05 0.0 
1.786231528649e-05 6.382167328580e-04 0.0 
0.0 0.0 0.0 
2.770735030944e-05 1.171141997888e-05 0.0 
1.171141997888e-05 1.121805794166e-03 0.0 
0.0 0.0 0.0 
-9.728227611328e-05 -8.749716754530e-06 0.0 
-8.749716754530e-06 5.608336186347e-05 0.0 
0.0 0.0 0.0 
-2.541642214338e-05 -2.389396506934e-06 0.0 
-2.389396506934e-06 1.445746322618e-03 0.0 
0.0 0.0 0.0 
-5.266549392025e-05 -6.425412188396e-06 0.0 
-6.425412188396e-06 4.167266825861e-05 0.0 
0.0 0.0 0.0 
7.030972650446e-05 8.879683371415e-05 0.0 
8.879683371415e-05 9.003427592642e-04 0.0 
0.0 0.0 0.0 
-7.699177603948e-05 -6.185546168073e-06 0.0 
-6.185546168073e-06 4.949123935583e-05 0.0 
0.0 0.0 0.0 
-8.716878348547e-05 -7.673706278232e-06 0.0 
-7.673706278232e-06 5.299281712845e-05 0.0 
0.0 0.0 0.0 
7.623478590135e-05 7.828248565345e-05 0.0 
7.828248565345e-05 8.489823633049e-04 0.0 
0.0 0.0 0.0 
3.439601573896e-05 2.658787472671e-05 0.0 
2.658787472671e-05 1.088441152690e-03 0.0 
0.0 0.0 0.0 
-3.563101406268e-05 1.215807129662e-06 0.0 
1.215807129662e-06 1.311132905348e-03 0.0 
0.0 0.0 0.0 
-8.262812127313e-05 7.028068832453e-05 0.0 
7.028068832453e-05 1.072766785323e-03 0.0 
0.0 0.0 0.0 
6.718846917719e-06 -3.660534350020e-06 0.0 
-3.660534350020e-06 5.758044622795e-05 0.0 
0.0 0.0 0.0 
6.329311546915e-05 1.314884115294e-05 0.0 
1.314884115294e-05 8.241367323476e-04 0.0 
0.0 0.0 0.0 
0.0 8.892514645611e-06 0.0 
8.892514645611e-06 1.656089314801e-03 0.0 
0.0 0.0 0.0 
-6.582625802554e-06 7.828377783231e-06 0.0 
7.828377783231e-06 1.658183988207e-03 0.0 
0.0 0.0 0.0 
-5.286410142469e-05 4.356325171809e-06 0.0 
4.356325171809e-06 1.104596989210e-03 0.0 
0.0 0.0 0.0 
6.308763939722e-05 9.857480268305e-05 0.0 
9.857480268305e-05 9.534298244023e-04 0.0 
0.0 0.0 0.0 
0.0 2.570573443655e-05 0.0 
2.570573443655e-05 1.656983457833e-03 0.0 
0.0 0.0 0.0 
-7.216528350673e-06 1.285087668802e-04 0.0 
1.285087668802e-04 1.200001262442e-03 0.0 
0.0 0.0 0.0 
6.544804136421e-06 -2.145602465230e-06 0.0 
-2.145602465230e-06 1.076979649541e-04 0.0 
0.0 0.0 0.0 
2.127136488506e-06 -3.206449136708e-06 0.0 
-3.206449136708e-06 5.858306049156e-05 0.0 
0.0 0.0 0.0 
6.718968196484e-06 -3.498993211421e-06 0.0 
-3.498993211421e-06 5.698150884825e-05 0.0 
0.0 0.0 0.0 
5.573382450175e-05 4.957160889619e-06 0.0 
4.957160889619e-06 4.885751557742e-04 0.0 
0.0 0.0 0.0 
1.063899218123e-05 2.009317275925e-05 0.0 
2.009317275925e-05 1.241984875968e-03 0.0 
0.0 0.0 0.0 
-1.065869680350e-05 -4.679266508662e-06 0.0 
-4.679266508662e-06 1.595841984056e-03 0.0 
0.0 0.0 0.0 
2.255306130072e-06 -2.890264892197e-07 0.0 
-2.890264892197e-07 1.611402420276e-05 0.0 
0.0 0.0 0.0 
6.087167701030e-05 -4.694774814297e-06 0.0 
-4.694774814297e-06 5.819661662974e-04 0.0 
0.0 0.0 0.0 
0.0 1.860929449914e-05 0.0 
1.860929449914e-05 1.245017055353e-03 0.0 
0.0 0.0 0.0 
1.201751195445e-05 3.050299707437e-05 0.0 
3.050299707437e-05 1.242692952441e-03 0.0 
0.0 0.0 0.0 
1.711861681764e-05 9.011894933678e-05 0.0 
9.011894933678e-05 1.278910056528e-03 0.0 
0.0 0.0 0.0 
-2.952305051152e-05 6.341822400685e-06 0.0 
6.341822400685e-06 1.386135352492e-03 0.0 
0.0 0.0 0.0 
-2.235473064793e-05 -4.560045256758e-06 0.0 
-4.560045256758e-06 1.476628751065e-03 0.0 
0.0 0.0 0.0 
0.0 2.472271539657e-05 0.0 
2.472271539657e-05 1.239975889567e-03 0.0 
0.0 0.0 0.0 
0.0 3.151770816671e-05 0.0 
3.151770816671e-05 1.245527102315e-03 0.0 
0.0 0.0 0.0 
-2.456931049755e-05 5.902508989599e-06 0.0 
5.902508989599e-06 1.446038527496e-03 0.0 
0.0 0.0 0.0 
-1.041783900479e-06 1.609652328446e-06 0.0 
1.609652328446e-06 1.502342884008e-05 0.0 
0.0 0.0 0.0 
-4.470147517621e-05 9.496446940989e-07 0.0 
9.496446940989e-07 1.102118783909e-03 0.0 
0.0 0.0 0.0 
-5.087385072278e-05 3.611551471389e-06 0.0 
3.611551471389e-06 1.106142024504e-03 0.0 
0.0 0.0 0.0 
-2.579449870366e-07 -1.215339635833e-06 0.0 
-1.215339635833e-06 1.831450618539e-05 0.0 
0.0 0.0 0.0 
0.0 5.698189236963e-05 0.0 
5.698189236963e-05 1.259819582649e-03 0.0 
0.0 0.0 0.0 
1.469774468532e-05 8.107253974831e-05 0.0 
8.107253974831e-05 1.269430543450e-03 0.0 
0.0 0.0 0.0 
0.0 7.288296655327e-05 0.0 
7.288296655327e-05 1.264868062889e-03 0.0 
0.0 0.0 0.0 
-6.089269301346e-06 -2.144054634924e-07 0.0 
-2.144054634924e-07 1.907923768729e-05 0.0 
0.0 0.0 0.0 
-8.183906046066e-06 -1.638460710618e-06 0.0 
-1.638460710618e-06 2.046640673359e-05 0.0 
0.0 0.0 0.0 
0.0 9.084060312963e-05 0.0 
9.084060312963e-05 1.283782968111e-03 0.0 
0.0 0.0 0.0 
0.0 8.135222460686e-05 0.0 
8.135222460686e-05 1.274426703727e-03 0.0 
0.0 0.0 0.0 
-3.213826837334e-05 -5.044596995677e-06 0.0 
-5.044596995677e-06 1.355534735651e-03 0.0 
0.0 0.0 0.0 
-4.138208002780e-05 9.096184494915e-07 0.0 
9.096184494915e-07 1.099675491895e-03 0.0 
0.0 0.0 0.0 
-2.691399427845e-05 -4.849262658705e-06 0.0 
-4.849262658705e-06 1.416158078470e-03 0.0 
0.0 0.0 0.0 
-3.763078562113e-05 -5.078797762573e-06 0.0 
-5.078797762573e-06 1.231811509029e-03 0.0 
0.0 0.0 0.0 
-3.928640878359e-05 3.032689744210e-07 0.0 
3.032689744210e-07 1.098933179374e-03 0.0 
0.0 0.0 0.0 
-1.880926272735e-05 -2.033959636311e-06 0.0 
-2.033959636311e-06 2.507912441052e-05 0.0 
0.0 0.0 0.0 
-3.309313621891e-05 -4.815935532017e-06 0.0 
-4.815935532017e-06 3.243087113414e-05 0.0 
0.0 0.0 0.0 
-3.810232124157e-05 -4.684474517658e-06 0.0 
-4.684474517658e-06 3.295317668761e-05 0.0 
0.0 0.0 0.0 
-4.768567307323e-05 -5.313258664659e-06 0.0 
-5.313258664659e-06 3.724339169442e-05 0.0 
0.0 0.0 0.0 
6.189704762449e-05 5.892175946914e-06 0.0 
5.892175946914e-06 6.143000056460e-04 0.0 
0.0 0.0 0.0 
5.989520877314e-05 5.208227164048e-06 0.0 
5.208227164048e-06 5.503983121515e-04 0.0 
0.0 0.0 0.0 
-2.175444399166e-05 -4.297659939958e-06 0.0 
-4.297659939958e-06 2.805285395313e-05 0.0 
0.0 0.0 0.0 
6.141304833185e-05 5.968588707893e-06 0.0 
5.968588707893e-06 8.069758810669e-04 0.0 
0.0 0.0 0.0 
-2.947911524243e-05 -5.396800481929e-06 0.0 
-5.396800481929e-06 3.084137661546e-05 0.0 
0.0 0.0 0.0 
0.0 5.342124293143e-05 0.0 
5.342124293143e-05 1.645556898257e-03 0.0 
0.0 0.0 0.0 
0.0 2.141263451123e-05 0.0 
2.141263451123e-05 1.656245161571e-03 0.0 
0.0 0.0 0.0 
0.0 3.568111313083e-05 0.0 
3.568111313083e-05 1.652080212950e-03 0.0 
0.0 0.0 0.0 
2.035597495409e-05 5.599009194886e-06 0.0 
5.599009194886e-06 1.890845168973e-04 0.0 
0.0 0.0 0.0 
4.393325868013e-05 5.065757655296e-06 0.0 
5.065757655296e-06 3.677569306368e-04 0.0 
0.0 0.0 0.0 
0.0 1.661222293406e-05 0.0 
1.661222293406e-05 1.654953916793e-03 0.0 
0.0 0.0 0.0 
4.323208131218e-05 5.210778390397e-06 0.0 
5.210778390397e-06 1.015790387737e-03 0.0 
0.0 0.0 0.0 
0.0 1.270617409260e-05 0.0 
1.270617409260e-05 1.661798121481e-03 0.0 
0.0 0.0 0.0 
3.262814767679e-05 5.528367331592e-06 0.0 
5.528367331592e-06 1.088213000658e-03 0.0 
0.0 0.0 0.0 
2.046319050786e-05 6.672594822208e-06 0.0 
6.672594822208e-06 1.162150754489e-03 0.0 
0.0 0.0 0.0 
5.780688085433e-05 -5.667583992084e-06 0.0 
-5.667583992084e-06 5.191668103968e-04 0.0 
0.0 0.0 0.0 
-8.459247653247e-06 1.833538549157e-05 0.0 
1.833538549157e-05 1.655570438130e-03 0.0 
0.0 0.0 0.0 
-6.880919462326e-06 1.814735718585e-05 0.0 
1.814735718585e-05 1.657545542419e-03 0.0 
0.0 0.0 0.0 
3.744925794003e-05 -5.327783913478e-07 0.0 
-5.327783913478e-07 1.048172619677e-03 0.0 
0.0 0.0 0.0 
2.641270436010e-05 1.352043005310e-07 0.0 
1.352043005310e-07 1.122462087795e-03 0.0 
0.0 0.0 0.0 
5.782239221741e-05 9.146096943555e-06 0.0 
9.146096943555e-06 8.800449904796e-04 0.0 
0.0 0.0 0.0 
-4.701755831893e-05 -6.423523966483e-06 0.0 
-6.423523966483e-06 3.920561455306e-05 0.0 
0.0 0.0 0.0 
6.013811007910e-05 -6.137983939723e-06 0.0 
-6.137983939723e-06 5.304944059421e-04 0.0 
0.0 0.0 0.0 
-4.530654889701e-06 -6.414369148609e-06 0.0 
-6.414369148609e-06 6.021965051373e-05 0.0 
0.0 0.0 0.0 
3.791625055993e-05 4.468812263648e-05 0.0 
4.468812263648e-05 1.087442411624e-03 0.0 
0.0 0.0 0.0 
6.939961982844e-05 8.027620792613e-06 0.0 
8.027620792613e-06 5.643836142957e-04 0.0 
0.0 0.0 0.0 
4.947110095732e-05 2.766020691001e-05 0.0 
2.766020691001e-05 9.878305224478e-04 0.0 
0.0 0.0 0.0 
3.226956207092e-05 -2.096748530510e-05 0.0 
-2.096748530510e-05 2.726500172066e-04 0.0 
0.0 0.0 0.0 
6.261627373494e-06 -5.823113403206e-06 0.0 
-5.823113403206e-06 1.082862690420e-04 0.0 
0.0 0.0 0.0 
3.851367771768e-05 2.027224043684e-05 0.0 
2.027224043684e-05 1.059080407395e-03 0.0 
0.0 0.0 0.0 
6.477764663315e-05 -2.540057867275e-06 0.0 
-2.540057867275e-06 5.926295537386e-04 0.0 
0.0 0.0 0.0 
5.276302295631e-05 3.917915428593e-06 0.0 
3.917915428593e-06 4.588510100734e-04 0.0 
0.0 0.0 0.0 
4.777160371439e-05 1.749878510323e-05 0.0 
1.749878510323e-05 9.894542959168e-04 0.0 
0.0 0.0 0.0 
-1.653883888497e-05 1.167049153654e-05 0.0 
1.167049153654e-05 1.530125784667e-03 0.0 
0.0 0.0 0.0 
5.289669210495e-05 -6.136745034929e-06 0.0 
-6.136745034929e-06 4.586607560881e-04 0.0 
0.0 0.0 0.0 
6.071486568371e-05 6.245819442763e-05 0.0 
6.245819442763e-05 9.654966012553e-04 0.0 
0.0 0.0 0.0 
7.341919226578e-05 3.512290488840e-05 0.0 
3.512290488840e-05 8.091994336021e-04 0.0 
0.0 0.0 0.0 
5.971524559722e-05 1.983146204697e-05 0.0 
1.983146204697e-05 8.783864482256e-04 0.0 
0.0 0.0 0.0 
5.573508215395e-05 1.657437657570e-05 0.0 
1.657437657570e-05 9.082457586718e-04 0.0 
0.0 0.0 0.0 
7.085509293381e-05 1.114632976408e-04 0.0 
1.114632976408e-04 5.739971851872e-04 0.0 
0.0 0.0 0.0 
-8.472477735078e-05 6.290556825455e-05 0.0 
6.290556825455e-05 1.022426157218e-03 0.0 
0.0 0.0 0.0 
-1.275532310963e-05 1.352405066501e-04 0.0 
1.352405066501e-04 9.155553486455e-04 0.0 
0.0 0.0 0.0 
6.688728164650e-05 2.416357914150e-05 0.0 
2.416357914150e-05 8.224179507419e-04 0.0 
0.0 0.0 0.0 
4.330992530943e-05 1.339498393661e-05 0.0 
1.339498393661e-05 1.019427316756e-03 0.0 
0.0 0.0 0.0 
5.173573994322e-05 1.359898252301e-05 0.0 
1.359898252301e-05 9.392902859047e-04 0.0 
0.0 0.0 0.0 
4.328179106028e-05 -7.202344510682e-06 0.0 
-7.202344510682e-06 2.835829215231e-04 0.0 
0.0 0.0 0.0 
-1.790096017640e-05 1.788336320640e-05 0.0 
1.788336320640e-05 1.526422724551e-03 0.0 
0.0 0.0 0.0 
-2.441219262783e-05 1.586436230793e-05 0.0 
1.586436230793e-05 1.466868197169e-03 0.0 
0.0 0.0 0.0 
-4.069096720927e-05 8.389808435256e-06 0.0 
8.389808435256e-06 1.186520784431e-03 0.0 
0.0 0.0 0.0 
6.571190051452e-05 3.043260430159e-05 0.0 
3.043260430159e-05 8.627765387175e-04 0.0 
0.0 0.0 0.0 
6.331514991387e-05 2.208693151422e-05 0.0 
2.208693151422e-05 8.502047670964e-04 0.0 
0.0 0.0 0.0 
-1.948353929748e-05 3.381410757594e-06 0.0 
3.381410757594e-06 1.532520657274e-03 0.0 
0.0 0.0 0.0 
-2.124642536250e-05 1.382690560295e-05 0.0 
1.382690560295e-05 1.499198449332e-03 0.0 
0.0 0.0 0.0 
7.122479223831e-05 2.534156584874e-05 0.0 
2.534156584874e-05 7.852595601892e-04 0.0 
0.0 0.0 0.0 
3.370665729663e-05 1.560787908555e-05 0.0 
1.560787908555e-05 1.089429713750e-03 0.0 
0.0 0.0 0.0 
-2.983290455694e-05 2.591769924709e-05 0.0 
2.591769924709e-05 1.454843856070e-03 0.0 
0.0 0.0 0.0 
5.054931933168e-05 3.238950491088e-06 0.0 
3.238950491088e-06 9.392805378745e-04 0.0 
0.0 0.0 0.0 
3.185785296922e-05 3.921618299223e-05 0.0 
3.921618299223e-05 1.119120660630e-03 0.0 
0.0 0.0 0.0 
-2.111517135628e-05 9.287708704184e-06 0.0 
9.287708704184e-06 1.527868286092e-03 0.0 
0.0 0.0 0.0 
-3.565693031005e-05 5.982277382119e-06 0.0 
5.982277382119e-06 1.374613500668e-03 0.0 
0.0 0.0 0.0 
6.511531974862e-05 5.263946504681e-05 0.0 
5.263946504681e-05 9.181657778581e-04 0.0 
0.0 0.0 0.0 
3.405449869032e-05 -3.153960799506e-06 0.0 
-3.153960799506e-06 2.807387122750e-04 0.0 
0.0 0.0 0.0 
3.940984872797e-05 -7.145455121327e-06 0.0 
-7.145455121327e-06 2.606388481776e-04 0.0 
0.0 0.0 0.0 
4.806310007766e-07 -2.327489089490e-05 0.0 
-2.327489089490e-05 1.324350597993e-04 0.0 
0.0 0.0 0.0 
-4.705650890857e-05 -1.411640375499e-05 0.0 
-1.411640375499e-05 7.954176234359e-05 0.0 
0.0 0.0 0.0 
-2.269336164129e-05 5.665389452562e-06 0.0 
5.665389452562e-06 1.499995772958e-03 0.0 
0.0 0.0 0.0 
3.918302298134e-05 1.998042268499e-05 0.0 
1.998042268499e-05 1.047343697952e-03 0.0 
0.0 0.0 0.0 
-4.086525978242e-05 -1.371138903939e-05 0.0 
-1.371138903939e-05 7.571543918949e-05 0.0 
0.0 0.0 0.0 
-4.621953769546e-05 7.717058728040e-05 0.0 
7.717058728040e-05 1.476788919678e-03 0.0 
0.0 0.0 0.0 
-4.002868975095e-05 9.550447808627e-06 0.0 
9.550447808627e-06 1.215727047457e-03 0.0 
0.0 0.0 0.0 
5.199176053550e-05 2.045417079709e-05 0.0 
2.045417079709e-05 9.613464224498e-04 0.0 
0.0 0.0 0.0 
4.830340455930e-05 1.849757505997e-05 0.0 
1.849757505997e-05 9.768408421402e-04 0.0 
0.0 0.0 0.0 
7.185381633157e-05 9.706491073144e-06 0.0 
9.706491073144e-06 4.136788964502e-04 0.0 
0.0 0.0 0.0 
4.747710668274e-05 7.957464512395e-06 0.0 
7.957464512395e-06 9.783607383815e-04 0.0 
0.0 0.0 0.0 
-4.249416954505e-05 -2.808994105852e-06 0.0 
-2.808994105852e-06 1.186272364402e-03 0.0 
0.0 0.0 0.0 
3.703922693532e-05 1.142232251103e-04 0.0 
1.142232251103e-04 1.045420916621e-03 0.0 
0.0 0.0 0.0 
2.779674763209e-05 4.662674065480e-05 0.0 
4.662674065480e-05 1.148873572895e-03 0.0 
0.0 0.0 0.0 
3.234360462834e-05 -2.836932901386e-07 0.0 
-2.836932901386e-07 2.708074329192e-04 0.0 
0.0 0.0 0.0 
3.211751666043e-05 5.354105745285e-05 0.0 
5.354105745285e-05 1.133953779711e-03 0.0 
0.0 0.0 0.0 
-3.189019495697e-05 5.519320955181e-06 0.0 
5.519320955181e-06 1.407802170977e-03 0.0 
0.0 0.0 0.0 
3.739079900167e-05 -6.999892685283e-07 0.0 
-6.999892685283e-07 3.059974137993e-04 0.0 
0.0 0.0 0.0 
4.514587536075e-05 -1.764104038176e-05 0.0 
-1.764104038176e-05 3.208898058902e-04 0.0 
0.0 0.0 0.0 
6.562757313078e-05 8.230196390392e-06 0.0 
8.230196390392e-06 6.732789231709e-04 0.0 
0.0 0.0 0.0 
-3.930651756090e-05 1.502991475336e-05 0.0 
1.502991475336e-05 1.307634054520e-03 0.0 
0.0 0.0 0.0 
5.977642271571e-05 2.003831433834e-07 0.0 
2.003831433834e-07 4.406669474266e-04 0.0 
0.0 0.0 0.0 
-2.822214897358e-05 4.157714023678e-06 0.0 
4.157714023678e-06 1.440752611582e-03 0.0 
0.0 0.0 0.0 
-3.556672968796e-05 2.650216293194e-06 0.0 
2.650216293194e-06 1.345360169799e-03 0.0 
0.0 0.0 0.0 
6.998343742515e-05 1.179470631948e-05 0.0 
1.179470631948e-05 6.545966959959e-04 0.0 
0.0 0.0 0.0 
5.412386352099e-05 6.408067887104e-06 0.0 
6.408067887104e-06 9.089718702278e-04 0.0 
0.0 0.0 0.0 
5.140968581330e-05 1.128763046863e-05 0.0 
1.128763046863e-05 9.491364212215e-04 0.0 
0.0 0.0 0.0 
-2.943699093849e-05 1.406014393440e-05 0.0 
1.406014393440e-05 1.406575788061e-03 0.0 
0.0 0.0 0.0 
2.474785343320e-05 -1.697770352672e-05 0.0 
-1.697770352672e-05 2.331863379998e-04 0.0 
0.0 0.0 0.0 
6.763867752535e-05 8.353759671914e-06 0.0 
8.353759671914e-06 6.182823234464e-04 0.0 
0.0 0.0 0.0 
1.632859829259e-05 1.389628141192e-04 0.0 
1.389628141192e-04 1.224383893524e-03 0.0 
0.0 0.0 0.0 
-3.117680524189e-05 8.690554076631e-06 0.0 
8.690554076631e-06 1.435100288668e-03 0.0 
0.0 0.0 0.0 
6.533645621709e-05 6.023698764827e-06 0.0 
6.023698764827e-06 5.545127479178e-04 0.0 
0.0 0.0 0.0 
6.832909176313e-05 2.339249767749e-05 0.0 
2.339249767749e-05 8.111135106523e-04 0.0 
0.0 0.0 0.0 
3.735647487391e-05 5.665818006200e-05 0.0 
5.665818006200e-05 1.109436373820e-03 0.0 
0.0 0.0 0.0 
-3.219911488517e-05 1.433351588097e-05 0.0 
1.433351588097e-05 1.373627903484e-03 0.0 
0.0 0.0 0.0 
-7.546695810046e-06 -5.073709026917e-06 0.0 
-5.073709026917e-06 1.413125320231e-04 0.0 
0.0 0.0 0.0 
2.758244712409e-06 -1.878925827282e-05 0.0 
-1.878925827282e-05 1.276114982653e-04 0.0 
0.0 0.0 0.0 
5.466177926627e-05 4.249987966846e-05 0.0 
4.249987966846e-05 3.097231742164e-04 0.0 
0.0 0.0 0.0 
4.432501255613e-05 2.451191504791e-05 0.0 
2.451191504791e-05 1.017742880513e-03 0.0 
0.0 0.0 0.0 
-3.598762903778e-05 1.480582765331e-05 0.0 
1.480582765331e-05 1.340768364951e-03 0.0 
0.0 0.0 0.0 
6.416757472638e-05 -1.246019228631e-06 0.0 
-1.246019228631e-06 7.388595411251e-04 0.0 
0.0 0.0 0.0 
-4.143241618249e-05 1.150547791097e-05 0.0 
1.150547791097e-05 1.246157857496e-03 0.0 
0.0 0.0 0.0 
4.544454174504e-05 7.948748279141e-05 0.0 
7.948748279141e-05 1.086152461639e-03 0.0 
0.0 0.0 0.0 
6.828660148894e-05 1.141755973811e-05 0.0 
1.141755973811e-05 6.819124386572e-04 0.0 
0.0 0.0 0.0 
5.302802479390e-05 2.209569709594e-05 0.0 
2.209569709594e-05 9.474715638078e-04 0.0 
0.0 0.0 0.0 
3.210666390152e-05 -1.267007427786e-05 0.0 
-1.267007427786e-05 2.822917085104e-04 0.0 
0.0 0.0 0.0 
3.517498004757e-05 5.228610072749e-05 0.0 
5.228610072749e-05 1.119662160501e-03 0.0 
0.0 0.0 0.0 
6.593520807985e-05 1.006525931472e-06 0.0 
1.006525931472e-06 6.563212178565e-04 0.0 
0.0 0.0 0.0 
3.464484443949e-05 -1.064461847188e-05 0.0 
-1.064461847188e-05 3.075602670479e-04 0.0 
0.0 0.0 0.0 
6.403251987153e-05 -2.492311425751e-06 0.0 
-2.492311425751e-06 6.200787059725e-04 0.0 
0.0 0.0 0.0 
6.052711241789e-05 1.318158602063e-06 0.0 
1.318158602063e-06 4.668593205133e-04 0.0 
0.0 0.0 0.0 
4.529276544485e-05 -1.629148563673e-05 0.0 
-1.629148563673e-05 3.567381281600e-04 0.0 
0.0 0.0 0.0 
6.492216650722e-05 9.479414906487e-06 0.0 
9.479414906487e-06 7.367780284868e-04 0.0 
0.0 0.0 0.0 
-1.384188235087e-05 -4.031752403083e-06 0.0 
-4.031752403083e-06 2.534518935771e-05 0.0 
0.0 0.0 0.0 
-2.020809445025e-05 -4.505379805897e-06 0.0 
-4.505379805897e-06 2.849445607533e-05 0.0 
0.0 0.0 0.0 
6.049418092036e-05 1.131813468895e-05 0.0 
1.131813468895e-05 8.518752973816e-04 0.0 
0.0 0.0 0.0 
2.854718115497e-05 -1.497308317693e-05 0.0 
-1.497308317693e-05 2.578739877439e-04 0.0 
0.0 0.0 0.0 
6.192383622361e-05 1.926623575191e-05 0.0 
1.926623575191e-05 8.645141390575e-04 0.0 
0.0 0.0 0.0 
6.521345402799e-05 2.144449413391e-05 0.0 
2.144449413391e-05 8.375776513934e-04 0.0 
0.0 0.0 0.0 
7.081708619072e-05 7.436747168676e-06 0.0 
7.436747168676e-06 5.111465428569e-04 0.0 
0.0 0.0 0.0 
6.123018752957e-05 5.023915611503e-06 0.0 
5.023915611503e-06 3.289739775374e-04 0.0 
0.0 0.0 0.0 
-2.912927733756e-05 1.683792973254e-05 0.0 
1.683792973254e-05 1.488361249891e-03 0.0 
0.0 0.0 0.0 
1.636437980412e-05 5.183880269746e-05 0.0 
5.183880269746e-05 1.835731374633e-04 0.0 
0.0 0.0 0.0 
6.092989123685e-05 2.261949101906e-06 0.0 
2.261949101906e-06 4.938270366330e-04 0.0 
0.0 0.0 0.0 
3.812876675746e-05 9.099922896687e-05 0.0 
9.099922896687e-05 1.134699377806e-03 0.0 
0.0 0.0 0.0 
2.597631008894e-05 -3.818688560153e-06 0.0 
-3.818688560153e-06 2.201073357539e-04 0.0 
0.0 0.0 0.0 
-4.234988175478e-05 3.784002444378e-06 0.0 
3.784002444378e-06 1.280445985601e-03 0.0 
0.0 0.0 0.0 
-4.383007098829e-05 1.017250091373e-07 0.0 
1.017250091373e-07 1.217007581791e-03 0.0 
0.0 0.0 0.0 
2.095107641820e-05 -2.219317844394e-05 0.0 
-2.219317844394e-05 2.148896891183e-04 0.0 
0.0 0.0 0.0 
4.284015865030e-05 6.182009522965e-05 0.0 
6.182009522965e-05 1.082913724920e-03 0.0 
0.0 0.0 0.0 
-3.968877997917e-05 1.433202736812e-05 0.0 
1.433202736812e-05 1.396447894054e-03 0.0 
0.0 0.0 0.0 
3.048113285886e-05 -5.178392007622e-06 0.0 
-5.178392007622e-06 2.558855890342e-04 0.0 
0.0 0.0 0.0 
-2.789316835361e-05 2.199269183331e-05 0.0 
2.199269183331e-05 1.513576012158e-03 0.0 
0.0 0.0 0.0 
-2.343089288281e-05 2.910524191152e-05 0.0 
2.910524191152e-05 1.512438809964e-03 0.0 
0.0 0.0 0.0 
3.370254795221e-05 -1.666416178098e-05 0.0 
-1.666416178098e-05 2.898352858653e-04 0.0 
0.0 0.0 0.0 
-6.308621900142e-05 1.292099302882e-04 0.0 
1.292099302882e-04 7.870484390333e-04 0.0 
0.0 0.0 0.0 
3.606808544365e-05 -1.906441845331e-05 0.0 
-1.906441845331e-05 2.977540128284e-04 0.0 
0.0 0.0 0.0 
5.532740678449e-05 1.441339406966e-05 0.0 
1.441339406966e-05 9.201057047630e-04 0.0 
0.0 0.0 0.0 
6.654124663319e-05 1.068840218879e-05 0.0 
1.068840218879e-05 7.095667257084e-04 0.0 
0.0 0.0 0.0 
-3.542505598819e-05 7.093257810794e-05 0.0 
7.093257810794e-05 1.493551460281e-03 0.0 
0.0 0.0 0.0 
-2.526722458696e-05 2.461637540668e-05 0.0 
2.461637540668e-05 1.487434809363e-03 0.0 
0.0 0.0 0.0 
5.861151312092e-05 1.695610884149e-05 0.0 
1.695610884149e-05 8.921108444468e-04 0.0 
0.0 0.0 0.0 
6.160405857392e-05 2.789128979967e-05 0.0 
2.789128979967e-05 8.904192007775e-04 0.0 
0.0 0.0 0.0 
2.859856968529e-05 -8.753101515905e-06 0.0 
-8.753101515905e-06 2.377739500234e-04 0.0 
0.0 0.0 0.0 
5.742046280988e-05 2.509726693671e-05 0.0 
2.509726693671e-05 9.184581310790e-04 0.0 
0.0 0.0 0.0 
-3.514664667659e-05 2.219255230340e-05 0.0 
2.219255230340e-05 1.395514543097e-03 0.0 
0.0 0.0 0.0 
6.436303532387e-05 4.062934703472e-07 0.0 
4.062934703472e-07 7.111726116147e-04 0.0 
0.0 0.0 0.0 
-3.943448779509e-05 6.584443548159e-06 0.0 
6.584443548159e-06 1.341736691912e-03 0.0 
0.0 0.0 0.0 
-3.497414450271e-05 1.357219210021e-05 0.0 
1.357219210021e-05 1.429216199091e-03 0.0 
0.0 0.0 0.0 
5.146484377438e-05 1.237481020048e-04 0.0 
1.237481020048e-04 7.757472579675e-04 0.0 
0.0 0.0 0.0 
-2.677887413971e-05 2.057653445422e-05 0.0 
2.057653445422e-05 1.461069417860e-03 0.0 
0.0 0.0 0.0 
6.450086904186e-05 6.593912576262e-06 0.0 
6.593912576262e-06 5.854932884950e-04 0.0 
0.0 0.0 0.0 
6.506974354537e-05 7.994511370403e-07 0.0 
7.994511370403e-07 6.836017788827e-04 0.0 
0.0 0.0 0.0 
5.521147837517e-05 7.191738923106e-07 0.0 
7.191738923106e-07 4.336149913831e-04 0.0 
0.0 0.0 0.0 
6.389253171735e-05 -5.804192925763e-06 0.0 
-5.804192925763e-06 4.622591017658e-04 0.0 
0.0 0.0 0.0 
-3.562521696931e-05 1.822772949523e-05 0.0 
1.822772949523e-05 1.368344735039e-03 0.0 
0.0 0.0 0.0 
7.749076189700e-05 2.294657326966e-05 0.0 
2.294657326966e-05 6.687324695687e-04 0.0 
0.0 0.0 0.0 
3.931082407527e-05 -1.705034060897e-05 0.0 
-1.705034060897e-05 3.231480080859e-04 0.0 
0.0 0.0 0.0 
8.270053606152e-06 -2.123021826523e-05 0.0 
-2.123021826523e-05 1.584976315150e-04 0.0 
0.0 0.0 0.0 
-3.955861644478e-05 1.021644632650e-05 0.0 
1.021644632650e-05 1.369293112920e-03 0.0 
0.0 0.0 0.0 
4.326870318327e-05 -5.717183203676e-06 0.0 
-5.717183203676e-06 3.213684955621e-04 0.0 
0.0 0.0 0.0 
3.623382742091e-05 6.360694597352e-05 0.0 
6.360694597352e-05 1.132934871536e-03 0.0 
0.0 0.0 0.0 
-3.172043607691e-05 1.772437310523e-05 0.0 
1.772437310523e-05 1.401209050715e-03 0.0 
0.0 0.0 0.0 
5.438187449247e-05 3.136936679255e-05 0.0 
3.136936679255e-05 9.596761641610e-04 0.0 
0.0 0.0 0.0 
1.287095198976e-05 1.195982915804e-04 0.0 
1.195982915804e-04 1.274504792293e-03 0.0 
0.0 0.0 0.0 
6.152965109973e-05 -5.296582075964e-06 0.0 
-5.296582075964e-06 5.569274337203e-04 0.0 
0.0 0.0 0.0 
3.657146144787e-05 -5.815794667777e-06 0.0 
-5.815794667777e-06 2.881438488087e-04 0.0 
0.0 0.0 0.0 
1.583879532840e-05 -8.436777165077e-06 0.0 
-8.436777165077e-06 1.797023631724e-04 0.0 
0.0 0.0 0.0 
5.979000396006e-05 2.626278626094e-05 0.0 
2.626278626094e-05 9.059573301482e-04 0.0 
0.0 0.0 0.0 
-3.629194412380e-05 1.219732098191e-05 0.0 
1.219732098191e-05 1.313016746582e-03 0.0 
0.0 0.0 0.0 
3.039219450329e-06 -7.837277845024e-06 0.0 
-7.837277845024e-06 1.249333673297e-04 0.0 
0.0 0.0 0.0 
5.504163089709e-05 -1.105102938764e-05 0.0 
-1.105102938764e-05 4.424228852411e-04 0.0 
0.0 0.0 0.0 
2.773009145218e-05 -1.085394022836e-05 0.0 
-1.085394022836e-05 2.498035334066e-04 0.0 
0.0 0.0 0.0 
-4.291373663767e-05 6.990226197521e-06 0.0 
6.990226197521e-06 1.308576761291e-03 0.0 
0.0 0.0 0.0 
5.681363300325e-05 -9.586176690809e-06 0.0 
-9.586176690809e-06 4.685496243177e-04 0.0 
0.0 0.0 0.0 
6.967772582800e-05 3.277985033066e-05 0.0 
3.277985033066e-05 8.357540302939e-04 0.0 
0.0 0.0 0.0 
5.175227395537e-05 -1.069179982117e-05 0.0 
-1.069179982117e-05 4.348149753672e-04 0.0 
0.0 0.0 0.0 
-2.707606351338e-05 7.276388509464e-06 0.0 
7.276388509464e-06 1.467999619049e-03 0.0 
0.0 0.0 0.0 
5.225597131986e-05 -2.999446046576e-06 0.0 
-2.999446046576e-06 3.807007595129e-04 0.0 
0.0 0.0 0.0 
6.097555134965e-05 3.694092876239e-05 0.0 
3.694092876239e-05 9.223043992752e-04 0.0 
0.0 0.0 0.0 
3.224237580102e-05 -2.225915073082e-05 0.0 
-2.225915073082e-05 2.630501960073e-04 0.0 
0.0 0.0 0.0 
6.353388704872e-05 2.878511356448e-05 0.0 
2.878511356448e-05 8.791956861702e-04 0.0 
0.0 0.0 0.0 
6.397620444187e-05 -1.063088341230e-06 0.0 
-1.063088341230e-06 6.489364870343e-04 0.0 
0.0 0.0 0.0 
5.915741749996e-05 3.457571652059e-05 0.0 
3.457571652059e-05 9.316670365838e-04 0.0 
0.0 0.0 0.0 
8.601382623130e-05 6.610664632605e-05 0.0 
6.610664632605e-05 4.743127424853e-04 0.0 
0.0 0.0 0.0 
2.897381497413e-05 -1.109289354574e-06 0.0 
-1.109289354574e-06 2.473241904204e-04 0.0 
0.0 0.0 0.0 
-4.124917223025e-05 1.234626479297e-06 0.0 
1.234626479297e-06 1.251747995105e-03 0.0 
0.0 0.0 0.0 
6.656451655984e-05 7.550193062586e-05 0.0 
7.550193062586e-05 9.023396848469e-04 0.0 
0.0 0.0 0.0 
-4.975780063099e-05 1.230133998850e-04 0.0 
1.230133998850e-04 9.323009384963e-04 0.0 
0.0 0.0 0.0 
-3.911166987025e-05 3.401243274115e-06 0.0 
3.401243274115e-06 1.313305125773e-03 0.0 
0.0 0.0 0.0 
4.197916863591e-05 -1.846812491095e-05 0.0 
-1.846812491095e-05 2.967638404261e-04 0.0 
0.0 0.0 0.0 
-4.339625728478e-05 2.233557100216e-05 0.0 
2.233557100216e-05 1.329821502026e-03 0.0 
0.0 0.0 0.0 
2.321568674679e-05 -1.334061032341e-05 0.0 
-1.334061032341e-05 2.238002496679e-04 0.0 
0.0 0.0 0.0 
4.327734080722e-05 4.737531692946e-05 0.0 
4.737531692946e-05 1.063675082112e-03 0.0 
0.0 0.0 0.0 
6.015791165148e-05 8.624241209965e-05 0.0 
8.624241209965e-05 9.552954195717e-04 0.0 
0.0 0.0 0.0 
2.676738665741e-05 1.207448688338e-04 0.0 
1.207448688338e-04 1.103784417029e-03 0.0 
0.0 0.0 0.0 
-2.237041350062e-05 1.991021798480e-05 0.0 
1.991021798480e-05 1.547762264081e-03 0.0 
0.0 0.0 0.0 
7.622180944833e-05 2.979707182377e-05 0.0 
2.979707182377e-05 7.355733727497e-04 0.0 
0.0 0.0 0.0 
2.633577936528e-05 -6.886426207775e-06 0.0 
-6.886426207775e-06 2.309667162810e-04 0.0 
0.0 0.0 0.0 
7.025340180911e-05 3.379282851447e-05 0.0 
3.379282851447e-05 8.279194163310e-04 0.0 
0.0 0.0 0.0 
4.086575460582e-05 6.853491395203e-05 0.0 
6.853491395203e-05 1.107576000637e-03 0.0 
0.0 0.0 0.0 
6.187024056126e-05 -4.808151037311e-06 0.0 
-4.808151037311e-06 3.925767957655e-04 0.0 
0.0 0.0 0.0 
5.591233277680e-05 2.350500903810e-05 0.0 
2.350500903810e-05 9.333732992882e-04 0.0 
0.0 0.0 0.0 
-3.539566158917e-05 9.509091501832e-06 0.0 
9.509091501832e-06 1.402181904926e-03 0.0 
0.0 0.0 0.0 
5.934760276949e-05 7.380733094017e-06 0.0 
7.380733094017e-06 3.044985917477e-04 0.0 
0.0 0.0 0.0 
6.703967328070e-05 3.124553309239e-05 0.0 
3.124553309239e-05 8.532042597906e-04 0.0 
0.0 0.0 0.0 
-4.899034764716e-05 6.291610909289e-06 0.0 
6.291610909289e-06 1.241449090531e-03 0.0 
0.0 0.0 0.0 
3.997190211535e-05 -1.180504980171e-05 0.0 
-1.180504980171e-05 3.411102503101e-04 0.0 
0.0 0.0 0.0 
5.338600592841e-05 -1.274460351238e-05 0.0 
-1.274460351238e-05 4.164840020207e-04 0.0 
0.0 0.0 0.0 
-3.790897082290e-05 1.239024151906e-04 0.0 
1.239024151906e-04 1.033969940492e-03 0.0 
0.0 0.0 0.0 
6.374552917743e-05 3.748402261125e-05 0.0 
3.748402261125e-05 9.042072079011e-04 0.0 
0.0 0.0 0.0 
-7.426626258178e-05 1.013675961692e-04 0.0 
1.013675961692e-04 9.409802418674e-04 0.0 
0.0 0.0 0.0 
-2.643597259810e-05 1.303096497230e-04 0.0 
1.303096497230e-04 9.766729174436e-04 0.0 
0.0 0.0 0.0 
-3.931904764387e-05 2.242834523734e-05 0.0 
2.242834523734e-05 1.362712460471e-03 0.0 
0.0 0.0 0.0 
-3.904359898077e-05 1.234727713692e-05 0.0 
1.234727713692e-05 1.279441192931e-03 0.0 
0.0 0.0 0.0 
-4.614407339898e-05 1.746599444133e-05 0.0 
1.746599444133e-05 1.269363831947e-03 0.0 
0.0 0.0 0.0 
6.653424492975e-05 8.040413317293e-06 0.0 
8.040413317293e-06 6.469160716722e-04 0.0 
0.0 0.0 0.0 
4.764375990551e-05 6.523776649461e-05 0.0 
6.523776649461e-05 1.059556907457e-03 0.0 
0.0 0.0 0.0 
7.312539257298e-05 3.649023212155e-05 0.0 
3.649023212155e-05 8.034121208607e-04 0.0 
0.0 0.0 0.0 
-4.564280339803e-05 3.762318886796e-06 0.0 
3.762318886796e-06 1.247057111977e-03 0.0 
0.0 0.0 0.0 
-4.101746064200e-05 8.678877874106e-05 0.0 
8.678877874106e-05 1.496082214637e-03 0.0 
0.0 0.0 0.0 
1.669961481077e-05 1.256305293741e-04 0.0 
1.256305293741e-04 1.161208401373e-03 0.0 
0.0 0.0 0.0 
6.809223900772e-05 4.028866529248e-05 0.0 
4.028866529248e-05 8.773973311096e-04 0.0 
0.0 0.0 0.0 
-3.091132220179e-05 2.150158394854e-05 0.0 
2.150158394854e-05 1.428274911878e-03 0.0 
0.0 0.0 0.0 
6.429363838967e-05 -5.545527969005e-06 0.0 
-5.545527969005e-06 4.871706759377e-04 0.0 
0.0 0.0 0.0 
5.893906091736e-05 -9.834685430851e-06 0.0 
-9.834685430851e-06 4.513430908597e-04 0.0 
0.0 0.0 0.0 
2.562001066542e-05 -2.076102000443e-05 0.0 
-2.076102000443e-05 2.396384576056e-04 0.0 
0.0 0.0 0.0 
6.824110737202e-05 4.296829000369e-05 0.0 
4.296829000369e-05 8.721931195614e-04 0.0 
0.0 0.0 0.0 
5.978403926377e-05 -8.615348112404e-06 0.0 
-8.615348112404e-06 4.773756325829e-04 0.0 
0.0 0.0 0.0 
-4.360969498907e-05 1.044787970330e-05 0.0 
1.044787970330e-05 1.336180774700e-03 0.0 
0.0 0.0 0.0 
-4.757270839673e-05 1.037635890673e-05 0.0 
1.037635890673e-05 1.303066318260e-03 0.0 
0.0 0.0 0.0 
6.088668579163e-05 9.975105102838e-05 0.0 
9.975105102838e-05 7.837192502902e-04 0.0 
0.0 0.0 0.0 
5.770850282505e-05 -2.013989954189e-06 0.0 
-2.013989954189e-06 3.888996021038e-04 0.0 
0.0 0.0 0.0 
7.320000779121e-05 1.085126015094e-04 0.0 
1.085126015094e-04 5.037099877530e-04 0.0 
0.0 0.0 0.0 
5.884861684047e-05 -9.543597444030e-07 0.0 
-9.543597444030e-07 4.146245450372e-04 0.0 
0.0 0.0 0.0 
6.523196671648e-05 2.516129906891e-06 0.0 
2.516129906891e-06 4.494006912024e-04 0.0 
0.0 0.0 0.0 
3.291338505162e-05 -7.456540492159e-06 0.0 
-7.456540492159e-06 2.629915048273e-04 0.0 
0.0 0.0 0.0 
5.186989781647e-05 6.899755937310e-05 0.0 
6.899755937310e-05 1.036520329565e-03 0.0 
0.0 0.0 0.0 
8.118364349907e-05 2.130151945380e-05 0.0 
2.130151945380e-05 5.607809767347e-04 0.0 
0.0 0.0 0.0 
-3.029782789399e-05 1.242831041612e-05 0.0 
1.242831041612e-05 1.462039290396e-03 0.0 
0.0 0.0 0.0 
8.448847605536e-05 3.026565910019e-05 0.0 
3.026565910019e-05 6.008819726067e-04 0.0 
0.0 0.0 0.0 
7.581753132868e-05 4.617335297261e-05 0.0 
4.617335297261e-05 8.259984065420e-04 0.0 
0.0 0.0 0.0 
8.233396691670e-05 3.413236517113e-05 0.0 
3.413236517113e-05 6.911177550697e-04 0.0 
0.0 0.0 0.0 
2.878575105392e-06 1.336600833682e-04 0.0 
1.336600833682e-04 9.087914702091e-04 0.0 
0.0 0.0 0.0 
2.992614452557e-05 -1.864575957555e-05 0.0 
-1.864575957555e-05 2.648599445967e-04 0.0 
0.0 0.0 0.0 
4.615884910364e-05 7.151130749009e-05 0.0 
7.151130749009e-05 1.081094971833e-03 0.0 
0.0 0.0 0.0 
3.567439609498e-05 7.113283784614e-05 0.0 
7.113283784614e-05 1.135554625391e-03 0.0 
0.0 0.0 0.0 
-3.775489006386e-05 1.208298627489e-04 0.0 
1.208298627489e-04 1.193548249593e-03 0.0 
0.0 0.0 0.0 
7.125445150646e-05 7.422771110699e-06 0.0 
7.422771110699e-06 4.851278470601e-04 0.0 
0.0 0.0 0.0 
8.000357353888e-05 4.024098999716e-05 0.0 
4.024098999716e-05 7.580521349602e-04 0.0 
0.0 0.0 0.0 
-3.928502652517e-05 1.850552049466e-05 0.0 
1.850552049466e-05 1.335232057878e-03 0.0 
0.0 0.0 0.0 
6.449856442448e-05 -4.855958356966e-06 0.0 
-4.855958356966e-06 5.130675072835e-04 0.0 
0.0 0.0 0.0 
-3.300132091499e-05 1.366282700407e-04 0.0 
1.366282700407e-04 8.724603180768e-04 0.0 
0.0 0.0 0.0 
4.749126404691e-05 -1.433526803313e-05 0.0 
-1.433526803313e-05 3.824791312490e-04 0.0 
0.0 0.0 0.0 
5.133990519068e-05 -1.230807423554e-05 0.0 
-1.230807423554e-05 3.317061760895e-04 0.0 
0.0 0.0 0.0 
6.923871947229e-05 1.434257123376e-07 0.0 
1.434257123376e-07 5.241716963820e-04 0.0 
0.0 0.0 0.0 
4.581470656317e-05 -4.108343844336e-06 0.0 
-4.108343844336e-06 3.470684721143e-04 0.0 
0.0 0.0 0.0 
3.693557494855e-05 -1.443877071460e-05 0.0 
-1.443877071460e-05 3.152847239705e-04 0.0 
0.0 0.0 0.0 
7.566373710177e-05 2.090821310912e-05 0.0 
2.090821310912e-05 6.931840458784e-04 0.0 
0.0 0.0 0.0 
7.215305948116e-05 4.318857388041e-05 0.0 
4.318857388041e-05 8.513433461133e-04 0.0 
0.0 0.0 0.0 
-2.841321374858e-05 1.256548988242e-04 0.0 
1.256548988242e-04 1.352294361886e-03 0.0 
0.0 0.0 0.0 
-2.848544849543e-05 -2.447548825419e-06 0.0 
-2.447548825419e-06 2.915145298288e-05 0.0 
0.0 0.0 0.0 
8.842771031303e-05 4.950310503248e-05 0.0 
4.950310503248e-05 5.979287228648e-04 0.0 
0.0 0.0 0.0 
8.588474723425e-05 3.336773994505e-05 0.0 
3.336773994505e-05 5.769851315993e-04 0.0 
0.0 0.0 0.0 
7.672574535977e-05 1.365398278473e-05 0.0 
1.365398278473e-05 5.221824507020e-04 0.0 
0.0 0.0 0.0 
-4.274901598422e-05 1.815933527984e-05 0.0 
1.815933527984e-05 1.302158047230e-03 0.0 
0.0 0.0 0.0 
8.275935387947e-05 2.783324615912e-05 0.0 
2.783324615912e-05 6.252750240017e-04 0.0 
0.0 0.0 0.0 
5.390165767993e-05 -1.328145533844e-06 0.0 
-1.328145533844e-06 4.067857646270e-04 0.0 
0.0 0.0 0.0 
7.354154572203e-05 7.456302347368e-06 0.0 
7.456302347368e-06 5.629478847375e-04 0.0 
0.0 0.0 0.0 
-2.825356253922e-05 1.692235096288e-05 0.0 
1.692235096288e-05 1.434135668386e-03 0.0 
0.0 0.0 0.0 
4.917657227921e-05 -1.230083887207e-05 0.0 
-1.230083887207e-05 4.085167004788e-04 0.0 
0.0 0.0 0.0 
9.990560939865e-06 -6.977042346214e-06 0.0 
-6.977042346214e-06 1.466706483864e-04 0.0 
0.0 0.0 0.0 
2.145588367131e-05 -8.129040335430e-06 0.0 
-8.129040335430e-06 2.054076206324e-04 0.0 
0.0 0.0 0.0 
6.269518126056e-05 3.499853735718e-06 0.0 
3.499853735718e-06 3.536648921982e-04 0.0 
0.0 0.0 0.0 
6.478980897162e-05 1.968192399023e-06 0.0 
1.968192399023e-06 4.240218985201e-04 0.0 
0.0 0.0 0.0 
8.765146099177e-05 4.448074445633e-05 0.0 
4.448074445633e-05 6.199242192693e-04 0.0 
0.0 0.0 0.0 
7.688109730797e-05 1.601107126931e-05 0.0 
1.601107126931e-05 6.032698868776e-04 0.0 
0.0 0.0 0.0 
2.760371136890e-05 -2.347293114749e-05 0.0 
-2.347293114749e-05 2.381201704911e-04 0.0 
0.0 0.0 0.0 
1.976281010019e-05 -1.971796134088e-05 0.0 
-1.971796134088e-05 2.071191158814e-04 0.0 
0.0 0.0 0.0 
-5.811297830138e-05 1.352034159656e-05 0.0 
1.352034159656e-05 1.262282362566e-03 0.0 
0.0 0.0 0.0 
4.213475135972e-05 -1.497349994730e-05 0.0 
-1.497349994730e-05 3.487453283479e-04 0.0 
0.0 0.0 0.0 
6.199795164652e-05 7.060806441678e-05 0.0 
7.060806441678e-05 9.866183845015e-04 0.0 
0.0 0.0 0.0 
-2.626618340418e-05 1.277425597436e-04 0.0 
1.277425597436e-04 1.302922477038e-03 0.0 
0.0 0.0 0.0 
-7.470846854141e-05 4.729151638928e-05 0.0 
4.729151638928e-05 1.259788787761e-03 0.0 
0.0 0.0 0.0 
-3.240200602284e-05 3.752141290615e-05 0.0 
3.752141290615e-05 1.473380578342e-03 0.0 
0.0 0.0 0.0 
-2.746533317688e-05 1.235583791511e-04 0.0 
1.235583791511e-04 1.398811906458e-03 0.0 
0.0 0.0 0.0 
5.383540676074e-05 1.090331484165e-04 0.0 
1.090331484165e-04 7.779377163812e-04 0.0 
0.0 0.0 0.0 
-3.212025485155e-05 1.238494154692e-04 0.0 
1.238494154692e-04 1.247796635733e-03 0.0 
0.0 0.0 0.0 
3.793858668399e-05 -1.896855262947e-05 0.0 
-1.896855262947e-05 2.723447145188e-04 0.0 
0.0 0.0 0.0 
7.262036283451e-05 6.599616495335e-06 0.0 
6.599616495335e-06 5.878560270669e-04 0.0 
0.0 0.0 0.0 
2.711354884255e-05 1.393909984851e-04 0.0 
1.393909984851e-04 7.754914480378e-04 0.0 
0.0 0.0 0.0 
6.843537344503e-05 2.406509603069e-05 0.0 
2.406509603069e-05 3.194864097811e-04 0.0 
0.0 0.0 0.0 
2.089766466007e-05 -2.382840269829e-05 0.0 
-2.382840269829e-05 2.155464234064e-04 0.0 
0.0 0.0 0.0 
6.544124208796e-05 3.195699422453e-06 0.0 
3.195699422453e-06 4.755379526169e-04 0.0 
0.0 0.0 0.0 
7.796573412233e-05 1.826234212061e-05 0.0 
1.826234212061e-05 5.796482278557e-04 0.0 
0.0 0.0 0.0 
8.015986226217e-05 2.885316361998e-05 0.0 
2.885316361998e-05 6.224734245579e-04 0.0 
0.0 0.0 0.0 
4.794551866438e-05 -2.455026374888e-06 0.0 
-2.455026374888e-06 3.729242781711e-04 0.0 
0.0 0.0 0.0 
8.456600722484e-05 3.685914653778e-05 0.0 
3.685914653778e-05 6.665639875232e-04 0.0 
0.0 0.0 0.0 
8.091711364444e-05 3.304659633510e-05 0.0 
3.304659633510e-05 6.008310641494e-04 0.0 
0.0 0.0 0.0 
8.764281352636e-05 6.212033854026e-05 0.0 
6.212033854026e-05 6.447304079975e-04 0.0 
0.0 0.0 0.0 
5.788645739102e-05 -1.088065115483e-05 0.0 
-1.088065115483e-05 4.259700965983e-04 0.0 
0.0 0.0 0.0 
5.070399510565e-05 1.011396273254e-04 0.0 
1.011396273254e-04 9.972613922553e-04 0.0 
0.0 0.0 0.0 
-4.434778540419e-05 1.476434749393e-05 0.0 
1.476434749393e-05 1.363614279367e-03 0.0 
0.0 0.0 0.0 
8.694770767015e-05 6.936353426979e-05 0.0 
6.936353426979e-05 6.260513494443e-04 0.0 
0.0 0.0 0.0 
5.204700995209e-05 7.639952764813e-05 0.0 
7.639952764813e-05 1.057841157913e-03 0.0 
0.0 0.0 0.0 
4.856873759440e-05 -1.160123421182e-05 0.0 
-1.160123421182e-05 3.074054014309e-04 0.0 
0.0 0.0 0.0 
3.879165640641e-05 9.854420266569e-05 0.0 
9.854420266569e-05 1.160053260928e-03 0.0 
0.0 0.0 0.0 
8.630294250311e-05 4.024716557994e-05 0.0 
4.024716557994e-05 6.426715431949e-04 0.0 
0.0 0.0 0.0 
-2.446883077900e-05 1.247748424674e-04 0.0 
1.247748424674e-04 1.448275576389e-03 0.0 
0.0 0.0 0.0 
-6.899732123267e-05 8.760034345228e-05 0.0 
8.760034345228e-05 1.225392267216e-03 0.0 
0.0 0.0 0.0 
5.039135546836e-05 -2.383904161817e-06 0.0 
-2.383904161817e-06 2.942467539879e-04 0.0 
0.0 0.0 0.0 
-7.372589891297e-05 5.738903091525e-05 0.0 
5.738903091525e-05 1.277680788973e-03 0.0 
0.0 0.0 0.0 
-3.471604474037e-05 5.244181114168e-05 0.0 
5.244181114168e-05 1.487340547620e-03 0.0 
0.0 0.0 0.0 
8.644211271958e-05 5.098506399035e-05 0.0 
5.098506399035e-05 6.867319609121e-04 0.0 
0.0 0.0 0.0 
2.095056884421e-06 1.469835231889e-04 0.0 
1.469835231889e-04 7.301261310102e-04 0.0 
0.0 0.0 0.0 
-7.131632501400e-05 6.774272056598e-05 0.0 
6.774272056598e-05 1.293590425814e-03 0.0 
0.0 0.0 0.0 
-4.539817558369e-05 1.234760310585e-04 0.0 
1.234760310585e-04 9.824505267577e-04 0.0 
0.0 0.0 0.0 
3.491783182219e-05 -6.999072703531e-06 0.0 
-6.999072703531e-06 2.353838576374e-04 0.0 
0.0 0.0 0.0 
-1.532890428935e-05 4.695460973372e-05 0.0 
4.695460973372e-05 1.587484253202e-03 0.0 
0.0 0.0 0.0 
2.224755969560e-05 -9.381134030498e-06 0.0 
-9.381134030498e-06 2.034347315756e-04 0.0 
0.0 0.0 0.0 
2.055718398486e-05 1.281016554826e-04 0.0 
1.281016554826e-04 1.244390806283e-03 0.0 
0.0 0.0 0.0 
-2.087448649346e-05 2.303716274147e-05 0.0 
2.303716274147e-05 1.519586222333e-03 0.0 
0.0 0.0 0.0 
5.254469244953e-05 9.602011352596e-05 0.0 
9.602011352596e-05 1.010013097772e-03 0.0 
0.0 0.0 0.0 
-4.224663779817e-05 1.514429086580e-05 0.0 
1.514429086580e-05 1.273580319509e-03 0.0 
0.0 0.0 0.0 
-3.916309565377e-05 2.441152592180e-05 0.0 
2.441152592180e-05 1.449180464685e-03 0.0 
0.0 0.0 0.0 
8.122923783693e-05 4.559100013332e-05 0.0 
4.559100013332e-05 6.474583699922e-04 0.0 
0.0 0.0 0.0 
5.679229419253e-05 1.017564811266e-04 0.0 
1.017564811266e-04 8.518036589684e-04 0.0 
0.0 0.0 0.0 
-2.427047763731e-05 4.212174417749e-05 0.0 
4.212174417749e-05 1.529795486517e-03 0.0 
0.0 0.0 0.0 
6.553098210582e-05 4.855514898019e-05 0.0 
4.855514898019e-05 9.204682403106e-04 0.0 
0.0 0.0 0.0 
-4.471397107764e-05 1.976354825736e-05 0.0 
1.976354825736e-05 1.390396961774e-03 0.0 
0.0 0.0 0.0 
7.006159706302e-05 8.384716688026e-05 0.0 
8.384716688026e-05 9.193205903681e-04 0.0 
0.0 0.0 0.0 
4.745940695838e-05 -1.461684115823e-06 0.0 
-1.461684115823e-06 2.695310949481e-04 0.0 
0.0 0.0 0.0 
-4.473110116077e-05 2.538160526906e-05 0.0 
2.538160526906e-05 1.416350016373e-03 0.0 
0.0 0.0 0.0 
-1.250106346773e-05 1.475569782246e-04 0.0 
1.475569782246e-04 1.463873499203e-03 0.0 
0.0 0.0 0.0 
4.002109054912e-05 8.316796090161e-05 0.0 
8.316796090161e-05 1.132829694200e-03 0.0 
0.0 0.0 0.0 
7.974010620515e-05 1.979926874457e-05 0.0 
1.979926874457e-05 5.858024889049e-04 0.0 
0.0 0.0 0.0 
-4.616585183614e-05 6.449810664537e-06 0.0 
6.449810664537e-06 1.274397848132e-03 0.0 
0.0 0.0 0.0 
-4.510891716647e-05 1.438871722153e-05 0.0 
1.438871722153e-05 1.240508501429e-03 0.0 
0.0 0.0 0.0 
7.897618443398e-05 2.541233464515e-05 0.0 
2.541233464515e-05 6.449922255509e-04 0.0 
0.0 0.0 0.0 
6.985884065580e-05 5.191650295162e-05 0.0 
5.191650295162e-05 8.949340884334e-04 0.0 
0.0 0.0 0.0 
6.648342947435e-05 6.107412726858e-05 0.0 
6.107412726858e-05 9.399399773491e-04 0.0 
0.0 0.0 0.0 
1.522885972216e-05 -2.082408768341e-05 0.0 
-2.082408768341e-05 1.816526886009e-04 0.0 
0.0 0.0 0.0 
7.392473356416e-05 1.038075548654e-04 0.0 
1.038075548654e-04 4.330626682585e-04 0.0 
0.0 0.0 0.0 
8.263666882824e-05 8.283125166686e-05 0.0 
8.283125166686e-05 6.781595095184e-04 0.0 
0.0 0.0 0.0 
8.090047100962e-05 5.182814961349e-05 0.0 
5.182814961349e-05 6.290353386025e-04 0.0 
0.0 0.0 0.0 
-1.931832982649e-05 1.377043076226e-04 0.0 
1.377043076226e-04 9.152271107131e-04 0.0 
0.0 0.0 0.0 
-2.313317268332e-05 3.296957181680e-05 0.0 
3.296957181680e-05 1.562735862430e-03 0.0 
0.0 0.0 0.0 
-3.820232592366e-05 8.221453097037e-05 0.0 
8.221453097037e-05 1.476177737175e-03 0.0 
0.0 0.0 0.0 
-2.403168374332e-05 1.518049736171e-05 0.0 
1.518049736171e-05 1.520205804251e-03 0.0 
0.0 0.0 0.0 
-7.894419615073e-05 8.915011069574e-05 0.0 
8.915011069574e-05 9.877114609256e-04 0.0 
0.0 0.0 0.0 
-4.249633916364e-05 4.613834789258e-05 0.0 
4.613834789258e-05 1.431287834433e-03 0.0 
0.0 0.0 0.0 
6.478806627030e-05 3.993417097470e-05 0.0 
3.993417097470e-05 8.967848506247e-04 0.0 
0.0 0.0 0.0 
-2.192890621588e-05 3.463744495545e-05 0.0 
3.463744495545e-05 1.538509372583e-03 0.0 
0.0 0.0 0.0 
-5.016688610915e-05 2.599668010241e-05 0.0 
2.599668010241e-05 1.383312129283e-03 0.0 
0.0 0.0 0.0 
7.557055995644e-05 1.420859576764e-05 0.0 
1.420859576764e-05 6.274305240037e-04 0.0 
0.0 0.0 0.0 
7.941949405721e-05 9.190282371413e-05 0.0 
9.190282371413e-05 6.638169052400e-04 0.0 
0.0 0.0 0.0 
-3.881463320698e-05 3.250054403240e-05 0.0 
3.250054403240e-05 1.415500187061e-03 0.0 
0.0 0.0 0.0 
-3.203191339196e-05 2.873629857647e-05 0.0 
2.873629857647e-05 1.507081024097e-03 0.0 
0.0 0.0 0.0 
-3.455718431111e-05 2.670598834343e-05 0.0 
2.670598834343e-05 1.422193587289e-03 0.0 
0.0 0.0 0.0 
-3.923632287495e-05 2.716192283114e-05 0.0 
2.716192283114e-05 1.389517561534e-03 0.0 
0.0 0.0 0.0 
5.221746296691e-05 6.310444226171e-05 0.0 
6.310444226171e-05 1.035869469873e-03 0.0 
0.0 0.0 0.0 
1.764679671656e-05 1.289367208101e-04 0.0 
1.289367208101e-04 1.234172047531e-03 0.0 
0.0 0.0 0.0 
5.761108147362e-05 6.670048483721e-05 0.0 
6.670048483721e-05 1.010406016826e-03 0.0 
0.0 0.0 0.0 
7.687402197831e-05 3.758698575076e-05 0.0 
3.758698575076e-05 7.832882691321e-04 0.0 
0.0 0.0 0.0 
-7.677791030358e-05 4.223426312456e-05 0.0 
4.223426312456e-05 1.010580780516e-03 0.0 
0.0 0.0 0.0 
4.402288306804e-05 1.055006633247e-04 0.0 
1.055006633247e-04 1.064877868659e-03 0.0 
0.0 0.0 0.0 
-5.342391386698e-05 4.780912319246e-05 0.0 
4.780912319246e-05 1.363881862686e-03 0.0 
0.0 0.0 0.0 
3.974139123830e-05 -4.081762591757e-06 0.0 
-4.081762591757e-06 3.137034302603e-04 0.0 
0.0 0.0 0.0 
7.832521556028e-05 6.570324661802e-05 0.0 
6.570324661802e-05 6.809465169670e-04 0.0 
0.0 0.0 0.0 
8.069577358460e-05 7.949061295272e-05 0.0 
7.949061295272e-05 7.625794757009e-04 0.0 
0.0 0.0 0.0 
5.223877268934e-05 1.039361860620e-04 0.0 
1.039361860620e-04 9.194973481577e-04 0.0 
0.0 0.0 0.0 
7.647590376059e-05 4.875221609886e-05 0.0 
4.875221609886e-05 3.392744241855e-04 0.0 
0.0 0.0 0.0 
7.605724890047e-05 7.413972190483e-05 0.0 
7.413972190483e-05 6.668336753917e-04 0.0 
0.0 0.0 0.0 
4.714817441642e-05 1.064775381780e-04 0.0 
1.064775381780e-04 9.869598967511e-04 0.0 
0.0 0.0 0.0 
-7.652010900949e-05 6.624227222316e-05 0.0 
6.624227222316e-05 1.073310406162e-03 0.0 
0.0 0.0 0.0 
8.071058410586e-05 2.585277634407e-05 0.0 
2.585277634407e-05 6.505080490786e-04 0.0 
0.0 0.0 0.0 
-5.411500646813e-05 2.016062185739e-05 0.0 
2.016062185739e-05 1.323790000748e-03 0.0 
0.0 0.0 0.0 
-4.512645450372e-05 7.367212630773e-06 0.0 
7.367212630773e-06 1.145074769057e-03 0.0 
0.0 0.0 0.0 
-7.685318699258e-05 1.447764757500e-04 0.0 
1.447764757500e-04 3.070032318053e-04 0.0 
0.0 0.0 0.0 
7.386790639008e-05 2.744014582856e-05 0.0 
2.744014582856e-05 7.600437953297e-04 0.0 
0.0 0.0 0.0 
5.605700779565e-05 1.029926646282e-04 0.0 
1.029926646282e-04 1.022895627625e-03 0.0 
0.0 0.0 0.0 
-3.223627898574e-05 7.974609780764e-05 0.0 
7.974609780764e-05 1.510636405483e-03 0.0 
0.0 0.0 0.0 
6.673227894916e-05 1.063111093466e-04 0.0 
1.063111093466e-04 7.903859731009e-04 0.0 
0.0 0.0 0.0 
7.975038488373e-05 3.182626059457e-05 0.0 
3.182626059457e-05 7.163701977122e-04 0.0 
0.0 0.0 0.0 
-4.890901505594e-05 1.494595021989e-05 0.0 
1.494595021989e-05 1.330673579607e-03 0.0 
0.0 0.0 0.0 
-5.841128279060e-05 1.240858453525e-04 0.0 
1.240858453525e-04 5.098552065974e-04 0.0 
0.0 0.0 0.0 
5.488946210819e-05 1.079388347474e-04 0.0 
1.079388347474e-04 1.008204341663e-03 0.0 
0.0 0.0 0.0 
6.159548462326e-05 9.427485747609e-05 0.0 
9.427485747609e-05 8.610531002440e-04 0.0 
0.0 0.0 0.0 
-8.288962826464e-05 6.336319568230e-05 0.0 
6.336319568230e-05 1.112034300886e-03 0.0 
0.0 0.0 0.0 
6.157820973529e-05 4.929502440764e-05 0.0 
4.929502440764e-05 9.417460021892e-04 0.0 
0.0 0.0 0.0 
5.615691497063e-05 1.922318637047e-06 0.0 
1.922318637047e-06 3.223802791039e-04 0.0 
0.0 0.0 0.0 
5.730650564550e-05 5.896140243936e-05 0.0 
5.896140243936e-05 9.884163522389e-04 0.0 
0.0 0.0 0.0 
4.558334144189e-05 8.662480297690e-05 0.0 
8.662480297690e-05 1.106789979976e-03 0.0 
0.0 0.0 0.0 
5.198491662428e-05 1.129330426015e-04 0.0 
1.129330426015e-04 9.954854707905e-04 0.0 
0.0 0.0 0.0 
-3.961622974014e-05 1.911370812968e-05 0.0 
1.911370812968e-05 1.423118819819e-03 0.0 
0.0 0.0 0.0 
-1.458968406898e-05 1.288774534413e-04 0.0 
1.288774534413e-04 1.255197958133e-03 0.0 
0.0 0.0 0.0 
4.107260240382e-05 7.563356113334e-05 0.0 
7.563356113334e-05 1.108201661625e-03 0.0 
0.0 0.0 0.0 
-4.649857534600e-05 5.612558369138e-05 0.0 
5.612558369138e-05 6.626713016105e-04 0.0 
0.0 0.0 0.0 
-4.959247153757e-05 2.018748974235e-05 0.0 
2.018748974235e-05 1.357373348773e-03 0.0 
0.0 0.0 0.0 
5.694527038580e-06 1.346259703131e-04 0.0 
1.346259703131e-04 1.278074827496e-03 0.0 
0.0 0.0 0.0 
-3.374710196036e-05 3.185475248173e-05 0.0 
3.185475248173e-05 1.448281837140e-03 0.0 
0.0 0.0 0.0 
5.730600181342e-05 1.103162566695e-04 0.0 
1.103162566695e-04 9.273039113757e-04 0.0 
0.0 0.0 0.0 
6.965572392215e-05 8.771536056444e-05 0.0 
8.771536056444e-05 7.239427313537e-04 0.0 
0.0 0.0 0.0 
7.182812436901e-05 1.612910587995e-05 0.0 
1.612910587995e-05 6.914711191244e-04 0.0 
0.0 0.0 0.0 
4.079764687037e-05 3.791647831022e-05 0.0 
3.791647831022e-05 1.927335441669e-04 0.0 
0.0 0.0 0.0 
-2.860829128482e-05 3.079183351608e-05 0.0 
3.079183351608e-05 1.480712560287e-03 0.0 
0.0 0.0 0.0 
4.261480496504e-05 -1.911765861000e-06 0.0 
-1.911765861000e-06 3.398230225697e-04 0.0 
0.0 0.0 0.0 
-5.513101112842e-05 3.825574629343e-05 0.0 
3.825574629343e-05 7.362259412822e-04 0.0 
0.0 0.0 0.0 
-2.364337465632e-05 1.256450673731e-04 0.0 
1.256450673731e-04 1.251287236147e-03 0.0 
0.0 0.0 0.0 
-1.873133531660e-05 2.759837392958e-05 0.0 
2.759837392958e-05 1.546763384933e-03 0.0 
0.0 0.0 0.0 
4.532092486187e-05 -9.786968804966e-06 0.0 
-9.786968804966e-06 2.842163261008e-04 0.0 
0.0 0.0 0.0 
-4.705882305556e-05 1.169114962202e-04 0.0 
1.169114962202e-04 1.087931552322e-03 0.0 
0.0 0.0 0.0 
-4.374792755035e-05 3.288821759464e-05 0.0 
3.288821759464e-05 1.382500538831e-03 0.0 
0.0 0.0 0.0 
7.229874292625e-05 1.197922993621e-05 0.0 
1.197922993621e-05 6.784212785529e-04 0.0 
0.0 0.0 0.0 
6.265749247270e-05 2.318255575242e-05 0.0 
2.318255575242e-05 3.433950107248e-04 0.0 
0.0 0.0 0.0 
1.322721610086e-05 1.536088672034e-04 0.0 
1.536088672034e-04 6.531455429994e-04 0.0 
0.0 0.0 0.0 
3.091981592540e-05 -7.126567381960e-06 0.0 
-7.126567381960e-06 2.126902120316e-04 0.0 
0.0 0.0 0.0 
5.696169621938e-05 1.044183635065e-05 0.0 
1.044183635065e-05 2.816648361941e-04 0.0 
0.0 0.0 0.0 
4.368173375635e-05 5.688548913362e-07 0.0 
5.688548913362e-07 2.470060894479e-04 0.0 
0.0 0.0 0.0 
6.220970887139e-05 1.081786894968e-04 0.0 
1.081786894968e-04 8.589782361148e-04 0.0 
0.0 0.0 0.0 
-1.125405672542e-05 6.570570395714e-05 0.0 
6.570570395714e-05 1.641148148972e-03 0.0 
0.0 0.0 0.0 
-6.105815951774e-05 2.999600609324e-05 0.0 
2.999600609324e-05 8.059253612842e-04 0.0 
0.0 0.0 0.0 
4.654636606993e-05 5.855407217763e-05 0.0 
5.855407217763e-05 1.061841590717e-03 0.0 
0.0 0.0 0.0 
6.765220455285e-05 1.132070174140e-04 0.0 
1.132070174140e-04 6.437875431871e-04 0.0 
0.0 0.0 0.0 
-5.544765368148e-05 2.642480903411e-05 0.0 
2.642480903411e-05 1.350325368416e-03 0.0 
0.0 0.0 0.0 
6.075296157770e-05 4.904750862324e-05 0.0 
4.904750862324e-05 2.552946178918e-04 0.0 
0.0 0.0 0.0 
3.307888002424e-05 8.644331199152e-05 0.0 
8.644331199152e-05 1.159366997589e-03 0.0 
0.0 0.0 0.0 
3.386156205587e-05 -1.843064464160e-05 0.0 
-1.843064464160e-05 2.488256482334e-04 0.0 
0.0 0.0 0.0 
5.056476103715e-05 -1.392878566259e-07 0.0 
-1.392878566259e-07 4.010510376902e-04 0.0 
0.0 0.0 0.0 
4.233429882383e-05 1.205541494716e-04 0.0 
1.205541494716e-04 1.052581671644e-03 0.0 
0.0 0.0 0.0 
8.071726417480e-05 4.020542840977e-05 0.0 
4.020542840977e-05 6.673254613025e-04 0.0 
0.0 0.0 0.0 
1.363707103841e-05 1.299203748336e-04 0.0 
1.299203748336e-04 1.225572147939e-03 0.0 
0.0 0.0 0.0 
-3.721189062289e-05 1.395330340973e-04 0.0 
1.395330340973e-04 8.219159027842e-04 0.0 
0.0 0.0 0.0 
-5.572671144816e-05 4.144452757537e-05 0.0 
4.144452757537e-05 1.398585412973e-03 0.0 
0.0 0.0 0.0 
2.424038962023e-05 1.368015010658e-04 0.0 
1.368015010658e-04 1.243038641499e-03 0.0 
0.0 0.0 0.0 
-4.377784293508e-05 2.735084418899e-05 0.0 
2.735084418899e-05 1.356564442922e-03 0.0 
0.0 0.0 0.0 
-3.943832635944e-05 7.494200179464e-05 0.0 
7.494200179464e-05 1.511397767562e-03 0.0 
0.0 0.0 0.0 
-4.436276285191e-05 3.167506388228e-05 0.0 
3.167506388228e-05 1.441312250975e-03 0.0 
0.0 0.0 0.0 
-4.345230326841e-05 3.858225337316e-05 0.0 
3.858225337316e-05 1.465409631670e-03 0.0 
0.0 0.0 0.0 
6.273186342187e-05 1.128725179516e-04 0.0 
1.128725179516e-04 3.586807294762e-04 0.0 
0.0 0.0 0.0 
5.172186598301e-05 4.959204456785e-05 0.0 
4.959204456785e-05 1.016578427676e-03 0.0 
0.0 0.0 0.0 
-4.338093143508e-05 3.913086478091e-05 0.0 
3.913086478091e-05 1.407567588366e-03 0.0 
0.0 0.0 0.0 
3.780782164609e-05 1.304381858474e-04 0.0 
1.304381858474e-04 8.392436856852e-04 0.0 
0.0 0.0 0.0 
-6.655289020840e-05 2.370818316418e-05 0.0 
2.370818316418e-05 8.744448149338e-04 0.0 
0.0 0.0 0.0 
1.247641100566e-05 1.355652022757e-04 0.0 
1.355652022757e-04 1.297684001320e-03 0.0 
0.0 0.0 0.0 
7.714360479283e-05 8.228468185508e-05 0.0 
8.228468185508e-05 3.729948304478e-04 0.0 
0.0 0.0 0.0 
4.506406621441e-05 -1.309628074679e-05 0.0 
-1.309628074679e-05 3.744789859570e-04 0.0 
0.0 0.0 0.0 
2.400991985962e-05 1.332002121425e-04 0.0 
1.332002121425e-04 1.167776220703e-03 0.0 
0.0 0.0 0.0 
2.385069354860e-05 -6.501909548295e-06 0.0 
-6.501909548295e-06 2.221389269486e-04 0.0 
0.0 0.0 0.0 
-1.119135481475e-05 1.319720436996e-04 0.0 
1.319720436996e-04 9.712966988145e-04 0.0 
0.0 0.0 0.0 
4.595616941017e-05 1.161604992102e-04 0.0 
1.161604992102e-04 1.063445786526e-03 0.0 
0.0 0.0 0.0 
-3.459998473776e-05 4.419486778661e-05 0.0 
4.419486778661e-05 1.519959706773e-03 0.0 
0.0 0.0 0.0 
-3.204718321781e-05 5.250558181584e-05 0.0 
5.250558181584e-05 1.542869596746e-03 0.0 
0.0 0.0 0.0 
4.140048563039e-05 1.096564094832e-04 0.0 
1.096564094832e-04 1.054173088937e-03 0.0 
0.0 0.0 0.0 
-3.823721501373e-05 3.039381640411e-05 0.0 
3.039381640411e-05 1.474250785432e-03 0.0 
0.0 0.0 0.0 
5.491677101888e-05 1.243734638811e-04 0.0 
1.243734638811e-04 7.078641822678e-04 0.0 
0.0 0.0 0.0 
-3.818385884280e-05 1.174815646495e-04 0.0 
1.174815646495e-04 1.298614038853e-03 0.0 
0.0 0.0 0.0 
-6.919167202857e-05 1.950685985351e-05 0.0 
1.950685985351e-05 9.414938854317e-04 0.0 
0.0 0.0 0.0 
-3.365304217084e-05 1.028487702595e-04 0.0 
1.028487702595e-04 1.463374311683e-03 0.0 
0.0 0.0 0.0 
-6.969198592344e-05 1.792469612747e-05 0.0 
1.792469612747e-05 1.007707501248e-03 0.0 
0.0 0.0 0.0 
-6.681446923151e-05 1.667685051445e-05 0.0 
1.667685051445e-05 1.040080583945e-03 0.0 
0.0 0.0 0.0 
6.019443245142e-05 1.149111490550e-04 0.0 
1.149111490550e-04 7.814998889923e-04 0.0 
0.0 0.0 0.0 
-6.761627203700e-05 1.840339604159e-05 0.0 
1.840339604159e-05 1.073581450642e-03 0.0 
0.0 0.0 0.0 
2.822424814752e-06 1.288009245247e-04 0.0 
1.288009245247e-04 1.025972406135e-03 0.0 
0.0 0.0 0.0 
1.790387527878e-05 1.325553707968e-04 0.0 
1.325553707968e-04 8.438103243855e-04 0.0 
0.0 0.0 0.0 
7.323652250713e-05 7.884805889573e-05 0.0 
7.884805889573e-05 7.354339206400e-04 0.0 
0.0 0.0 0.0 
6.699064087501e-05 2.990797316064e-05 0.0 
2.990797316064e-05 2.958456267657e-04 0.0 
0.0 0.0 0.0 
7.090349566230e-05 1.043928829879e-04 0.0 
1.043928829879e-04 7.214041081223e-04 0.0 
0.0 0.0 0.0 
-2.692025907258e-05 3.629593385027e-05 0.0 
3.629593385027e-05 1.506163282837e-03 0.0 
0.0 0.0 0.0 
-3.266060948914e-05 9.385925616618e-05 0.0 
9.385925616618e-05 1.495720884577e-03 0.0 
0.0 0.0 0.0 
6.082850572020e-05 4.513617059179e-05 0.0 
4.513617059179e-05 9.466208108930e-04 0.0 
0.0 0.0 0.0 
2.063843973032e-05 1.375657833076e-04 0.0 
1.375657833076e-04 1.232870934271e-03 0.0 
0.0 0.0 0.0 
8.738459041568e-05 5.601547570664e-05 0.0 
5.601547570664e-05 6.648166786314e-04 0.0 
0.0 0.0 0.0 
-3.659861985061e-05 4.524012000441e-05 0.0 
4.524012000441e-05 1.464581959853e-03 0.0 
0.0 0.0 0.0 
7.576840054080e-05 9.527239742697e-05 0.0 
9.527239742697e-05 7.329649752379e-04 0.0 
0.0 0.0 0.0 
4.643299084339e-05 4.619848427591e-05 0.0 
4.619848427591e-05 1.043953840734e-03 0.0 
0.0 0.0 0.0 
-3.792698681881e-05 3.850017895893e-05 0.0 
3.850017895893e-05 1.440486995492e-03 0.0 
0.0 0.0 0.0 
-4.976103074872e-05 4.006724331393e-05 0.0 
4.006724331393e-05 1.432070754547e-03 0.0 
0.0 0.0 0.0 
6.106667109562e-05 1.042947995085e-04 0.0 
1.042947995085e-04 9.392917053561e-04 0.0 
0.0 0.0 0.0 
6.400469620571e-05 1.142237458097e-04 0.0 
1.142237458097e-04 7.128840706696e-04 0.0 
0.0 0.0 0.0 
-3.221047710888e-05 1.215649471188e-04 0.0 
1.215649471188e-04 1.352573658242e-03 0.0 
0.0 0.0 0.0 
-6.411091638281e-05 8.784429276037e-05 0.0 
8.784429276037e-05 1.225336867942e-03 0.0 
0.0 0.0 0.0 
5.296109579067e-05 5.668151046676e-06 0.0 
5.668151046676e-06 2.998024590775e-04 0.0 
0.0 0.0 0.0 
6.588353896908e-05 5.452581695070e-05 0.0 
5.452581695070e-05 3.775120876524e-04 0.0 
0.0 0.0 0.0 
-2.486223356590e-05 1.424619639710e-04 0.0 
1.424619639710e-04 8.062351637341e-04 0.0 
0.0 0.0 0.0 
-4.818860322997e-05 1.164713788248e-04 0.0 
1.164713788248e-04 1.087998548824e-03 0.0 
0.0 0.0 0.0 
4.058159324605e-05 4.232029846999e-05 0.0 
4.232029846999e-05 1.072658913683e-03 0.0 
0.0 0.0 0.0 
-5.029958414915e-05 3.265587898648e-05 0.0 
3.265587898648e-05 1.408361135542e-03 0.0 
0.0 0.0 0.0 
6.435587917464e-05 9.756122689554e-05 0.0 
9.756122689554e-05 7.154317444844e-04 0.0 
0.0 0.0 0.0 
-4.875318379627e-05 1.117932535821e-04 0.0 
1.117932535821e-04 1.191118866827e-03 0.0 
0.0 0.0 0.0 
4.797104551590e-05 1.127502258772e-04 0.0 
1.127502258772e-04 1.077794176626e-03 0.0 
0.0 0.0 0.0 
-3.349765565486e-05 2.323921984680e-05 0.0 
2.323921984680e-05 1.481655914115e-03 0.0 
0.0 0.0 0.0 
-3.393162689580e-05 1.210594979857e-04 0.0 
1.210594979857e-04 1.399099526809e-03 0.0 
0.0 0.0 0.0 
-5.300794239960e-05 3.264298588366e-05 0.0 
3.264298588366e-05 1.316522730858e-03 0.0 
0.0 0.0 0.0 
5.283888367136e-05 9.466966048498e-05 0.0 
9.466966048498e-05 1.064366764087e-03 0.0 
0.0 0.0 0.0 
6.597197833624e-05 9.107477539100e-05 0.0 
9.107477539100e-05 7.926846718775e-04 0.0 
0.0 0.0 0.0 
4.479073150709e-05 1.011429657964e-04 0.0 
1.011429657964e-04 1.078872239925e-03 0.0 
0.0 0.0 0.0 
-1.676979227416e-05 1.354219155662e-04 0.0 
1.354219155662e-04 9.708123546885e-04 0.0 
0.0 0.0 0.0 
-3.027280852375e-05 3.536641157549e-05 0.0 
3.536641157549e-05 1.530503256276e-03 0.0 
0.0 0.0 0.0 
-3.230585975289e-05 1.189179621395e-04 0.0 
1.189179621395e-04 1.448641412291e-03 0.0 
0.0 0.0 0.0 
6.654373803938e-05 1.011336917711e-04 0.0 
1.011336917711e-04 8.705315805646e-04 0.0 
0.0 0.0 0.0 
7.383948248574e-05 5.998125126050e-05 0.0 
5.998125126050e-05 3.200603357028e-04 0.0 
0.0 0.0 0.0 
-4.324526310939e-06 1.373941256769e-04 0.0 
1.373941256769e-04 1.258435149049e-03 0.0 
0.0 0.0 0.0 
-9.824544952242e-06 1.295843795964e-04 0.0 
1.295843795964e-04 1.027565478965e-03 0.0 
0.0 0.0 0.0 
5.705197746586e-05 1.082802879062e-04 0.0 
1.082802879062e-04 7.103607294965e-04 0.0 
0.0 0.0 0.0 
5.651920522598e-05 9.752666037126e-05 0.0 
9.752666037126e-05 9.292204630955e-04 0.0 
0.0 0.0 0.0 
5.522102565703e-05 7.270289753968e-05 0.0 
7.270289753968e-05 1.014855813117e-03 0.0 
0.0 0.0 0.0 
6.013099029079e-05 3.187994344220e-05 0.0 
3.187994344220e-05 3.247018170884e-04 0.0 
0.0 0.0 0.0 
7.142878762423e-05 9.818887493807e-05 0.0 
9.818887493807e-05 8.018198317428e-04 0.0 
0.0 0.0 0.0 
-6.414347947004e-05 6.977894709276e-05 0.0 
6.977894709276e-05 1.293284890837e-03 0.0 
0.0 0.0 0.0 
3.822910372553e-05 3.120562775704e-05 0.0 
3.120562775704e-05 1.074225923769e-03 0.0 
0.0 0.0 0.0 
-6.078325432846e-05 8.012096406828e-05 0.0 
8.012096406828e-05 1.307014110496e-03 0.0 
0.0 0.0 0.0 
-1.298343215383e-05 1.345516130243e-04 0.0 
1.345516130243e-04 1.254364076870e-03 0.0 
0.0 0.0 0.0 
-6.613498862629e-05 5.957939533129e-05 0.0 
5.957939533129e-05 1.277359262471e-03 0.0 
0.0 0.0 0.0 
-6.696888993185e-05 4.101923280330e-05 0.0 
4.101923280330e-05 1.239185237242e-03 0.0 
0.0 0.0 0.0 
-5.787173909666e-05 9.843468613917e-05 0.0 
9.843468613917e-05 1.233109989749e-03 0.0 
0.0 0.0 0.0 
2.852562889410e-05 1.315349130852e-04 0.0 
1.315349130852e-04 1.176800245644e-03 0.0 
0.0 0.0 0.0 
5.307762157436e-05 4.231227714308e-05 0.0 
4.231227714308e-05 9.924462019058e-04 0.0 
0.0 0.0 0.0 
-4.865709961488e-05 3.950856611069e-05 0.0 
3.950856611069e-05 1.374432050548e-03 0.0 
0.0 0.0 0.0 
-2.601312696160e-05 5.804851045448e-05 0.0 
5.804851045448e-05 1.542150877012e-03 0.0 
0.0 0.0 0.0 
-6.705199011303e-05 4.986630746926e-05 0.0 
4.986630746926e-05 1.259401730159e-03 0.0 
0.0 0.0 0.0 
6.875525224337e-05 9.090114841336e-05 0.0 
9.090114841336e-05 5.773122446766e-04 0.0 
0.0 0.0 0.0 
-1.232182062727e-05 1.325447169621e-04 0.0 
1.325447169621e-04 1.312475082800e-03 0.0 
0.0 0.0 0.0 
-2.578421847210e-05 2.674466229764e-05 0.0 
2.674466229764e-05 1.539433418801e-03 0.0 
0.0 0.0 0.0 
1.098549282874e-05 1.377472811172e-04 0.0 
1.377472811172e-04 9.033974998127e-04 0.0 
0.0 0.0 0.0 
-2.420357689603e-06 1.367444170508e-04 0.0 
1.367444170508e-04 9.664128733622e-04 0.0 
0.0 0.0 0.0 
6.705893736947e-05 9.472975881377e-05 0.0 
9.472975881377e-05 6.466831671832e-04 0.0 
0.0 0.0 0.0 
-4.814055376412e-05 4.701279240447e-05 0.0 
4.701279240447e-05 1.397814061180e-03 0.0 
0.0 0.0 0.0 
-6.225181104647e-05 1.095301206656e-04 0.0 
1.095301206656e-04 9.389556926624e-04 0.0 
0.0 0.0 0.0 
1.069898644834e-05 1.343653151759e-04 0.0 
1.343653151759e-04 1.025383620262e-03 0.0 
0.0 0.0 0.0 
-6.167190929041e-05 1.162011916475e-04 0.0 
1.162011916475e-04 9.380458405885e-04 0.0 
0.0 0.0 0.0 
3.284724757013e-05 1.274341909532e-04 0.0 
1.274341909532e-04 1.110306918495e-03 0.0 
0.0 0.0 0.0 
-9.977675979767e-06 1.378556603360e-04 0.0 
1.378556603360e-04 1.368506643670e-03 0.0 
0.0 0.0 0.0 
7.236061512650e-05 8.379636181950e-05 0.0 
8.379636181950e-05 6.552279648993e-04 0.0 
0.0 0.0 0.0 
2.300368210251e-05 6.047595461988e-06 0.0 
6.047595461988e-06 1.980036077784e-04 0.0 
0.0 0.0 0.0 
-2.873904331357e-05 6.929004091586e-05 0.0 
6.929004091586e-05 1.529214716097e-03 0.0 
0.0 0.0 0.0 
-6.805523376097e-05 9.783587031371e-05 0.0 
9.783587031371e-05 9.893884237842e-04 0.0 
0.0 0.0 0.0 
8.508195513723e-05 6.773576781624e-05 0.0 
6.773576781624e-05 7.123099779245e-04 0.0 
0.0 0.0 0.0 
-7.098615008028e-07 1.429404564096e-04 0.0 
1.429404564096e-04 1.317044551575e-03 0.0 
0.0 0.0 0.0 
-5.597093067944e-05 3.360223748520e-05 0.0 
3.360223748520e-05 1.375159938771e-03 0.0 
0.0 0.0 0.0 
5.744784872874e-05 4.589864865334e-05 0.0 
4.589864865334e-05 9.666648852804e-04 0.0 
0.0 0.0 0.0 
3.323750703932e-05 1.280823717779e-04 0.0 
1.280823717779e-04 7.771570832535e-04 0.0 
0.0 0.0 0.0 
2.069207698963e-05 1.912369534507e-05 0.0 
1.912369534507e-05 1.540554425767e-04 0.0 
0.0 0.0 0.0 
3.210870162373e-05 2.604779689604e-05 0.0 
2.604779689604e-05 1.107962157508e-03 0.0 
0.0 0.0 0.0 
-3.647671292317e-05 1.242765158940e-04 0.0 
1.242765158940e-04 1.086681083702e-03 0.0 
0.0 0.0 0.0 
1.978973212347e-05 1.227058961780e-04 0.0 
1.227058961780e-04 1.095362262092e-03 0.0 
0.0 0.0 0.0 
-2.047321119580e-05 1.333643863245e-04 0.0 
1.333643863245e-04 1.359359712294e-03 0.0 
0.0 0.0 0.0 
-1.552598530652e-05 1.188151560911e-05 0.0 
1.188151560911e-05 1.052938214434e-04 0.0 
0.0 0.0 0.0 
6.207365446098e-05 5.754291188823e-05 0.0 
5.754291188823e-05 9.648358937615e-04 0.0 
0.0 0.0 0.0 
3.836384890543e-05 1.326142878136e-04 0.0 
1.326142878136e-04 5.790190499682e-04 0.0 
0.0 0.0 0.0 
-6.061393314460e-05 2.672450986043e-05 0.0 
2.672450986043e-05 1.317215714510e-03 0.0 
0.0 0.0 0.0 
7.124592092755e-05 1.778117981913e-05 0.0 
1.778117981913e-05 7.442503219550e-04 0.0 
0.0 0.0 0.0 
7.453906068555e-05 1.020711094895e-04 0.0 
1.020711094895e-04 6.521840022840e-04 0.0 
0.0 0.0 0.0 
4.344950959401e-05 3.535264433272e-05 0.0 
3.535264433272e-05 1.045644042120e-03 0.0 
0.0 0.0 0.0 
-1.196839675255e-06 1.351034897120e-04 0.0 
1.351034897120e-04 1.025036379618e-03 0.0 
0.0 0.0 0.0 
7.756941678339e-05 9.919213522127e-05 0.0 
9.919213522127e-05 5.827507113960e-04 0.0 
0.0 0.0 0.0 
-4.250215833301e-05 1.174424235791e-04 0.0 
1.174424235791e-04 1.140294117333e-03 0.0 
0.0 0.0 0.0 
4.280872030860e-06 -1.148287317920e-05 0.0 
-1.148287317920e-05 1.596797566017e-04 0.0 
0.0 0.0 0.0 
-3.355040752018e-05 1.205994390764e-04 0.0 
1.205994390764e-04 1.248247211528e-03 0.0 
0.0 0.0 0.0 
3.162506343735e-05 1.173284143996e-04 0.0 
1.173284143996e-04 1.111826647103e-03 0.0 
0.0 0.0 0.0 
-2.758900037958e-05 1.141498276738e-04 0.0 
1.141498276738e-04 1.484505981044e-03 0.0 
0.0 0.0 0.0 
-2.898770301363e-05 1.236191802140e-04 0.0 
1.236191802140e-04 1.303505240101e-03 0.0 
0.0 0.0 0.0 
7.160076674073e-05 6.457637267374e-05 0.0 
6.457637267374e-05 4.468335954579e-04 0.0 
0.0 0.0 0.0 
5.689793973795e-05 3.402135489193e-05 0.0 
3.402135489193e-05 9.483941717736e-04 0.0 
0.0 0.0 0.0 
-1.798808108089e-05 4.024916312169e-05 0.0 
4.024916312169e-05 1.562447689895e-03 0.0 
0.0 0.0 0.0 
4.380407760074e-06 1.422368375598e-04 0.0 
1.422368375598e-04 1.349761389014e-03 0.0 
0.0 0.0 0.0 
2.215275991868e-05 1.242448149277e-04 0.0 
1.242448149277e-04 1.169123556852e-03 0.0 
0.0 0.0 0.0 
4.467264350061e-05 1.186537288710e-04 0.0 
1.186537288710e-04 7.754791124543e-04 0.0 
0.0 0.0 0.0 
-3.804835834187e-05 1.185700427111e-04 0.0 
1.185700427111e-04 1.193851142539e-03 0.0 
0.0 0.0 0.0 
3.908793693652e-05 2.964775047944e-05 0.0 
2.964775047944e-05 1.057456335575e-03 0.0 
0.0 0.0 0.0 
6.359820728497e-05 -2.181748566327e-06 0.0 
-2.181748566327e-06 6.751951275064e-04 0.0 
0.0 0.0 0.0 
-2.241646852330e-05 1.296613667353e-04 0.0 
1.296613667353e-04 1.250705645984e-03 0.0 
0.0 0.0 0.0 
-4.850293717684e-05 3.288431092052e-05 0.0 
3.288431092052e-05 1.349569424751e-03 0.0 
0.0 0.0 0.0 
4.851774800274e-05 3.905682885288e-05 0.0 
3.905682885288e-05 1.018214233590e-03 0.0 
0.0 0.0 0.0 
5.307801807963e-05 5.560701530719e-05 0.0 
5.560701530719e-05 1.012150017450e-03 0.0 
0.0 0.0 0.0 
-4.044053011110e-05 8.652203133633e-09 0.0 
8.652203133633e-09 1.100358002325e-03 0.0 
0.0 0.0 0.0 
-3.968530501952e-05 8.547729808936e-07 0.0 
8.547729808936e-07 1.099715206781e-03 0.0 
0.0 0.0 0.0 
-6.831721015021e-05 6.468942731500e-05 0.0 
6.468942731500e-05 1.331425235570e-03 0.0 
0.0 0.0 0.0 
-2.727819098536e-05 1.269611863254e-04 0.0 
1.269611863254e-04 1.195176086385e-03 0.0 
0.0 0.0 0.0 
6.876294647729e-05 1.644425155799e-05 0.0 
1.644425155799e-05 7.705772020361e-04 0.0 
0.0 0.0 0.0 
-6.279573412216e-05 9.265436805476e-05 0.0 
9.265436805476e-05 1.277112539439e-03 0.0 
0.0 0.0 0.0 
1.081647596757e-05 1.354119022458e-04 0.0 
1.354119022458e-04 9.641336373638e-04 0.0 
0.0 0.0 0.0 
3.635155995729e-05 1.118274652494e-04 0.0 
1.118274652494e-04 1.161034905473e-03 0.0 
0.0 0.0 0.0 
4.051951933004e-05 1.321439874388e-04 0.0 
1.321439874388e-04 7.734858171462e-04 0.0 
0.0 0.0 0.0 
-1.100449109381e-05 5.726101126594e-05 0.0 
5.726101126594e-05 1.644752049392e-03 0.0 
0.0 0.0 0.0 
-6.783805703470e-05 3.255208639230e-05 0.0 
3.255208639230e-05 1.183345145739e-03 0.0 
0.0 0.0 0.0 
2.864248761725e-06 1.307252805925e-04 0.0 
1.307252805925e-04 9.673010064830e-04 0.0 
0.0 0.0 0.0 
7.685801797841e-05 2.978726401028e-05 0.0 
2.978726401028e-05 7.422776820223e-04 0.0 
0.0 0.0 0.0 
6.656948315098e-05 7.794835799830e-05 0.0 
7.794835799830e-05 4.371480968088e-04 0.0 
0.0 0.0 0.0 
7.402980303217e-05 1.296102217349e-05 0.0 
1.296102217349e-05 6.525451871560e-04 0.0 
0.0 0.0 0.0 
-3.192510425754e-05 1.252753485310e-04 0.0 
1.252753485310e-04 1.140444935530e-03 0.0 
0.0 0.0 0.0 
-5.324819869157e-05 1.097998965460e-04 0.0 
1.097998965460e-04 1.138930882884e-03 0.0 
0.0 0.0 0.0 
-5.369593616811e-05 3.983768020399e-05 0.0 
3.983768020399e-05 1.341154815259e-03 0.0 
0.0 0.0 0.0 
-5.110816142362e-05 1.040138220023e-04 0.0 
1.040138220023e-04 1.285089977457e-03 0.0 
0.0 0.0 0.0 
-5.591412035943e-05 9.782153569678e-05 0.0 
9.782153569678e-05 1.328928416283e-03 0.0 
0.0 0.0 0.0 
1.228847124479e-05 -6.865381338277e-06 0.0 
-6.865381338277e-06 1.604067622027e-04 0.0 
0.0 0.0 0.0 
7.802941535617e-05 1.868005700202e-05 0.0 
1.868005700202e-05 6.116521549444e-04 0.0 
0.0 0.0 0.0 
-6.948240249594e-05 1.044161522892e-04 0.0 
1.044161522892e-04 9.886259686724e-04 0.0 
0.0 0.0 0.0 
-6.307261199745e-05 8.345624213413e-05 0.0 
8.345624213413e-05 1.266831676773e-03 0.0 
0.0 0.0 0.0 
-6.758877179014e-05 7.855383843267e-05 0.0 
7.855383843267e-05 1.307392672822e-03 0.0 
0.0 0.0 0.0 
3.089016716573e-05 1.280829330361e-04 0.0 
1.280829330361e-04 1.185362364267e-03 0.0 
0.0 0.0 0.0 
2.787037179397e-05 5.146169082169e-06 0.0 
5.146169082169e-06 2.494028271505e-04 0.0 
0.0 0.0 0.0 
5.012239945623e-05 1.192836638073e-05 0.0 
1.192836638073e-05 2.791084714429e-04 0.0 
0.0 0.0 0.0 
-2.774366057179e-05 1.301486927692e-04 0.0 
1.301486927692e-04 1.030358204519e-03 0.0 
0.0 0.0 0.0 
7.150431708602e-05 6.097651133798e-06 0.0 
6.097651133798e-06 6.135863263483e-04 0.0 
0.0 0.0 0.0 
-7.501617082806e-05 1.552420374506e-05 0.0 
1.552420374506e-05 1.040404677320e-03 0.0 
0.0 0.0 0.0 
-7.343716151476e-05 1.564745195232e-05 0.0 
1.564745195232e-05 1.073992215004e-03 0.0 
0.0 0.0 0.0 
-6.115853834021e-05 3.467270723221e-05 0.0 
3.467270723221e-05 1.341786186128e-03 0.0 
0.0 0.0 0.0 
4.143427906245e-05 1.007519769196e-04 0.0 
1.007519769196e-04 3.676405022308e-04 0.0 
0.0 0.0 0.0 
7.585403574439e-05 2.288769338954e-05 0.0 
2.288769338954e-05 7.029790397546e-04 0.0 
0.0 0.0 0.0 
5.249683669262e-05 9.161293090012e-05 0.0 
9.161293090012e-05 1.024643065185e-03 0.0 
0.0 0.0 0.0 
6.502413493159e-05 3.893945997001e-05 0.0 
3.893945997001e-05 2.731408880974e-04 0.0 
0.0 0.0 0.0 
-6.383740741467e-06 1.414213992432e-04 0.0 
1.414213992432e-04 1.453433260693e-03 0.0 
0.0 0.0 0.0 
-3.675898868394e-05 3.722610663858e-05 0.0 
3.722610663858e-05 1.497394224540e-03 0.0 
0.0 0.0 0.0 
6.897417057150e-05 5.590022574672e-06 0.0 
5.590022574672e-06 6.664444922271e-04 0.0 
0.0 0.0 0.0 
5.596002728381e-05 4.192160950763e-05 0.0 
4.192160950763e-05 9.736525180961e-04 0.0 
0.0 0.0 0.0 
1.137406479890e-05 -7.799090708932e-06 0.0 
-7.799090708932e-06 1.101747863583e-04 0.0 
0.0 0.0 0.0 
5.940395897563e-05 8.095682069759e-05 0.0 
8.095682069759e-05 9.723335896115e-04 0.0 
0.0 0.0 0.0 
-3.415061376488e-05 1.230126568431e-04 0.0 
1.230126568431e-04 1.086853398724e-03 0.0 
0.0 0.0 0.0 
1.246426386747e-05 -5.711743734411e-06 0.0 
-5.711743734411e-06 1.090554969159e-04 0.0 
0.0 0.0 0.0 
-3.057145871976e-05 4.365642318642e-05 0.0 
4.365642318642e-05 1.496809416765e-03 0.0 
0.0 0.0 0.0 
4.370408088383e-05 1.935667620624e-05 0.0 
1.935667620624e-05 2.602776095246e-04 0.0 
0.0 0.0 0.0 
-6.893752757298e-05 8.259088010286e-05 0.0 
8.259088010286e-05 1.266998108391e-03 0.0 
0.0 0.0 0.0 
-5.393002890797e-05 1.099897363130e-04 0.0 
1.099897363130e-04 1.138908404140e-03 0.0 
0.0 0.0 0.0 
7.939946630842e-05 5.832163397750e-05 0.0 
5.832163397750e-05 6.969103191430e-04 0.0 
0.0 0.0 0.0 
7.934799517195e-05 6.334319787141e-05 0.0 
6.334319787141e-05 8.229891788427e-04 0.0 
0.0 0.0 0.0 
-2.883170689805e-05 5.049073791090e-05 0.0 
5.049073791090e-05 1.519566860076e-03 0.0 
0.0 0.0 0.0 
7.346099051353e-05 6.919127523011e-05 0.0 
6.919127523011e-05 8.927640597007e-04 0.0 
0.0 0.0 0.0 
-1.427357686123e-05 1.337123382176e-04 0.0 
1.337123382176e-04 1.026965673063e-03 0.0 
0.0 0.0 0.0 
-2.367926078040e-05 1.280497551387e-04 0.0 
1.280497551387e-04 1.030645393348e-03 0.0 
0.0 0.0 0.0 
-8.116103798739e-05 1.392973468167e-04 0.0 
1.392973468167e-04 2.118020820179e-04 0.0 
0.0 0.0 0.0 
4.643507645152e-05 2.802951958437e-05 0.0 
2.802951958437e-05 2.133613738160e-04 0.0 
0.0 0.0 0.0 
-2.011585315187e-05 1.291343582756e-04 0.0 
1.291343582756e-04 1.306861550698e-03 0.0 
0.0 0.0 0.0 
-7.065267842166e-05 3.606258713143e-05 0.0 
3.606258713143e-05 1.273909898966e-03 0.0 
0.0 0.0 0.0 
-9.455886758047e-06 1.388076809939e-04 0.0 
1.388076809939e-04 1.311314827811e-03 0.0 
0.0 0.0 0.0 
3.420345082494e-05 1.495287505921e-04 0.0 
1.495287505921e-04 5.764811575655e-04 0.0 
0.0 0.0 0.0 
-4.750259818465e-05 7.447442826420e-05 0.0 
7.447442826420e-05 1.422630164239e-03 0.0 
0.0 0.0 0.0 
-2.422798407564e-05 1.284112371831e-04 0.0 
1.284112371831e-04 1.359725508207e-03 0.0 
0.0 0.0 0.0 
-6.991847979954e-05 2.524486099941e-05 0.0 
2.524486099941e-05 1.095270503329e-03 0.0 
0.0 0.0 0.0 
-1.765119419450e-05 1.328963013606e-04 0.0 
1.328963013606e-04 1.306187254938e-03 0.0 
0.0 0.0 0.0 
5.251149302055e-05 3.092841051676e-05 0.0 
3.092841051676e-05 9.754129628119e-04 0.0 
0.0 0.0 0.0 
-2.044642657817e-05 1.301375126975e-04 0.0 
1.301375126975e-04 1.140475918571e-03 0.0 
0.0 0.0 0.0 
7.840534107029e-05 2.431815617444e-05 0.0 
2.431815617444e-05 6.764988255545e-04 0.0 
0.0 0.0 0.0 
7.354415844807e-05 1.919686544775e-05 0.0 
1.919686544775e-05 7.183364377106e-04 0.0 
0.0 0.0 0.0 
-3.657883846431e-05 6.376971726867e-05 0.0 
6.376971726867e-05 1.531071657580e-03 0.0 
0.0 0.0 0.0 
8.369296679667e-05 5.731013047890e-05 0.0 
5.731013047890e-05 7.543741879374e-04 0.0 
0.0 0.0 0.0 
-4.304251634857e-05 1.184754901296e-04 0.0 
1.184754901296e-04 1.140155540039e-03 0.0 
0.0 0.0 0.0 
3.532045090515e-05 1.293546329141e-04 0.0 
1.293546329141e-04 9.049095505638e-04 0.0 
0.0 0.0 0.0 
6.554243827184e-05 7.480972544323e-05 0.0 
7.480972544323e-05 9.636619785809e-04 0.0 
0.0 0.0 0.0 
1.669125820114e-05 1.296149811433e-04 0.0 
1.296149811433e-04 9.045534154950e-04 0.0 
0.0 0.0 0.0 
8.367745678495e-05 7.694943885330e-05 0.0 
7.694943885330e-05 4.569729788988e-04 0.0 
0.0 0.0 0.0 
7.448188770587e-05 9.079124078396e-05 0.0 
9.079124078396e-05 8.154589040188e-04 0.0 
0.0 0.0 0.0 
7.952644674636e-05 9.516757209543e-05 0.0 
9.516757209543e-05 5.129199082221e-04 0.0 
0.0 0.0 0.0 
-5.778924459843e-05 9.420075761229e-05 0.0 
9.420075761229e-05 1.276866591892e-03 0.0 
0.0 0.0 0.0 
7.396016927985e-05 7.260706417567e-05 0.0 
7.260706417567e-05 5.164579187149e-04 0.0 
0.0 0.0 0.0 
-6.170598127886e-05 9.776158113875e-05 0.0 
9.776158113875e-05 1.233219068979e-03 0.0 
0.0 0.0 0.0 
2.560278210462e-05 1.218354954841e-04 0.0 
1.218354954841e-04 1.178309859833e-03 0.0 
0.0 0.0 0.0 
3.695011903293e-05 1.239369054241e-04 0.0 
1.239369054241e-04 1.119756503949e-03 0.0 
0.0 0.0 0.0 
2.556064233672e-05 1.364873752856e-04 0.0 
1.364873752856e-04 8.389660128416e-04 0.0 
0.0 0.0 0.0 
-5.792065036969e-05 4.012356161676e-05 0.0 
4.012356161676e-05 1.307320966898e-03 0.0 
0.0 0.0 0.0 
5.069760679088e-05 3.838472467468e-05 0.0 
3.838472467468e-05 1.001443005263e-03 0.0 
0.0 0.0 0.0 
4.796629412862e-05 2.754512631875e-05 0.0 
2.754512631875e-05 1.003201689800e-03 0.0 
0.0 0.0 0.0 
2.626393104799e-05 8.872393877192e-05 0.0 
8.872393877192e-05 3.032463729402e-04 0.0 
0.0 0.0 0.0 
-5.018110346033e-05 1.081673957572e-04 0.0 
1.081673957572e-04 1.239061719986e-03 0.0 
0.0 0.0 0.0 
3.438937676203e-05 3.904384659910e-05 0.0 
3.904384659910e-05 1.104978057935e-03 0.0 
0.0 0.0 0.0 
-7.482799690173e-05 6.187715526198e-05 0.0 
6.187715526198e-05 8.945218350478e-04 0.0 
0.0 0.0 0.0 
6.839610719167e-05 1.032146841610e-05 0.0 
1.032146841610e-05 7.311755479749e-04 0.0 
0.0 0.0 0.0 
-7.437565741508e-05 1.085791227312e-04 0.0 
1.085791227312e-04 3.054389602364e-04 0.0 
0.0 0.0 0.0 
4.531205188973e-05 3.451366239022e-05 0.0 
3.451366239022e-05 1.029738394450e-03 0.0 
0.0 0.0 0.0 
7.978568667033e-05 8.958618834856e-05 0.0 
8.958618834856e-05 4.429246748099e-04 0.0 
0.0 0.0 0.0 
6.478531397192e-05 5.862682544487e-06 0.0 
5.862682544487e-06 6.951692682804e-04 0.0 
0.0 0.0 0.0 
2.013859052163e-05 1.332421140178e-04 0.0 
1.332421140178e-04 1.094102904396e-03 0.0 
0.0 0.0 0.0 
-6.611489579256e-05 3.534115451264e-05 0.0 
3.534115451264e-05 1.307976540007e-03 0.0 
0.0 0.0 0.0 
-6.254782417126e-05 4.046348532466e-05 0.0 
4.046348532466e-05 1.273302442770e-03 0.0 
0.0 0.0 0.0 
-2.413861895234e-05 1.297675551162e-04 0.0 
1.297675551162e-04 1.085042728442e-03 0.0 
0.0 0.0 0.0 
-7.608999035602e-05 1.901327067959e-05 0.0 
1.901327067959e-05 9.736906072320e-04 0.0 
0.0 0.0 0.0 
-7.528525954759e-05 1.816609443369e-05 0.0 
1.816609443369e-05 1.007704264263e-03 0.0 
0.0 0.0 0.0 
4.333438775728e-05 2.391631919570e-05 0.0 
2.391631919570e-05 1.031491219976e-03 0.0 
0.0 0.0 0.0 
7.011686999681e-05 5.969589773881e-05 0.0 
5.969589773881e-05 8.721454310898e-04 0.0 
0.0 0.0 0.0 
7.650695207051e-05 6.435646501346e-05 0.0 
6.435646501346e-05 7.651054489026e-04 0.0 
0.0 0.0 0.0 
6.357939765889e-05 9.400350222128e-05 0.0 
9.400350222128e-05 9.706916688759e-04 0.0 
0.0 0.0 0.0 
7.894070781234e-05 8.694920195558e-05 0.0 
8.694920195558e-05 7.469238760909e-04 0.0 
0.0 0.0 0.0 
6.893575999922e-05 8.550082173523e-05 0.0 
8.550082173523e-05 5.073436168812e-04 0.0 
0.0 0.0 0.0 
-6.730280828593e-05 1.707375159799e-05 0.0 
1.707375159799e-05 9.740190826630e-04 0.0 
0.0 0.0 0.0 
-7.296501297971e-05 2.924623194776e-05 0.0 
2.924623194776e-05 1.217617339113e-03 0.0 
0.0 0.0 0.0 
-4.064512886737e-05 2.462429152866e-07 0.0 
2.462429152866e-07 1.100722061768e-03 0.0 
0.0 0.0 0.0 
3.480594240979e-05 1.140139605547e-04 0.0 
1.140139605547e-04 1.121172804271e-03 0.0 
0.0 0.0 0.0 
3.089149787572e-05 1.257269713801e-04 0.0 
1.257269713801e-04 8.404974399800e-04 0.0 
0.0 0.0 0.0 
1.781506859388e-05 1.435941038744e-04 0.0 
1.435941038744e-04 1.296046635078e-03 0.0 
0.0 0.0 0.0 
4.393804833525e-05 1.553719330590e-05 0.0 
1.553719330590e-05 1.009526484232e-03 0.0 
0.0 0.0 0.0 
6.945449662843e-05 8.326008013705e-05 0.0 
8.326008013705e-05 8.041842733462e-04 0.0 
0.0 0.0 0.0 
2.431002247993e-05 3.413496210264e-05 0.0 
3.413496210264e-05 1.150215910776e-03 0.0 
0.0 0.0 0.0 
7.730256388627e-05 6.158619958476e-05 0.0 
6.158619958476e-05 5.295574326338e-04 0.0 
0.0 0.0 0.0 
1.359857067817e-05 1.431598345047e-04 0.0 
1.431598345047e-04 1.286032828259e-03 0.0 
0.0 0.0 0.0 
-2.113014391425e-05 1.266336097781e-04 0.0 
1.266336097781e-04 1.085497249055e-03 0.0 
0.0 0.0 0.0 
-9.230364625079e-06 1.330114025564e-04 0.0 
1.330114025564e-04 1.140768713507e-03 0.0 
0.0 0.0 0.0 
4.156023295665e-05 9.374733836909e-05 0.0 
9.374733836909e-05 1.116211016554e-03 0.0 
0.0 0.0 0.0 
6.947757668518e-05 6.853620051468e-07 0.0 
6.853620051468e-07 4.998433416994e-04 0.0 
0.0 0.0 0.0 
-4.758111761960e-05 1.131752198637e-04 0.0 
1.131752198637e-04 1.190957454464e-03 0.0 
0.0 0.0 0.0 
7.550444639670e-05 7.117650346959e-05 0.0 
7.117650346959e-05 7.493463806290e-04 0.0 
0.0 0.0 0.0 
-5.874276882167e-05 1.035759091800e-04 0.0 
1.035759091800e-04 1.187045546080e-03 0.0 
0.0 0.0 0.0 
2.113456704200e-05 1.428972335819e-04 0.0 
1.428972335819e-04 6.546693576603e-04 0.0 
0.0 0.0 0.0 
1.588208694336e-06 1.355108871438e-04 0.0 
1.355108871438e-04 1.144030830465e-03 0.0 
0.0 0.0 0.0 
8.443616578502e-05 7.472225272684e-05 0.0 
7.472225272684e-05 6.942567444304e-04 0.0 
0.0 0.0 0.0 
7.371249567156e-05 2.788854540404e-05 0.0 
2.788854540404e-05 7.686441392438e-04 0.0 
0.0 0.0 0.0 
-5.644871374411e-05 1.035953707591e-04 0.0 
1.035953707591e-04 1.187032709118e-03 0.0 
0.0 0.0 0.0 
-4.138512502616e-05 6.897794988690e-05 0.0 
6.897794988690e-05 1.779537060096e-04 0.0 
0.0 0.0 0.0 
3.289036807086e-05 1.290027199191e-04 0.0 
1.290027199191e-04 9.706542288825e-04 0.0 
0.0 0.0 0.0 
-2.682742017190e-05 1.156853064476e-04 0.0 
1.156853064476e-04 3.482368251246e-04 0.0 
0.0 0.0 0.0 
1.480060144377e-05 -6.112106987925e-06 0.0 
-6.112106987925e-06 1.739194791197e-04 0.0 
0.0 0.0 0.0 
7.310916741909e-05 2.144241754423e-05 0.0 
2.144241754423e-05 7.291917719447e-04 0.0 
0.0 0.0 0.0 
-4.068024189441e-05 1.144157007798e-04 0.0 
1.144157007798e-04 1.346294116183e-03 0.0 
0.0 0.0 0.0 
-6.280649512669e-05 4.862331067207e-05 0.0 
4.862331067207e-05 1.293869279261e-03 0.0 
0.0 0.0 0.0 
-7.517465874907e-05 2.558013601973e-05 0.0 
2.558013601973e-05 9.060160847731e-04 0.0 
0.0 0.0 0.0 
0.0 6.000286722819e-05 0.0 
6.000286722819e-05 1.643866133480e-03 0.0 
0.0 0.0 0.0 
-8.543979171893e-05 1.238128444878e-04 0.0 
1.238128444878e-04 1.213453711033e-04 0.0 
0.0 0.0 0.0 
-7.506666839907e-05 2.344639050229e-05 0.0 
2.344639050229e-05 9.408814846816e-04 0.0 
0.0 0.0 0.0 
8.120968215453e-05 7.289560723944e-05 0.0 
7.289560723944e-05 7.800497328205e-04 0.0 
0.0 0.0 0.0 
6.742922868108e-05 5.169473828814e-06 0.0 
5.169473828814e-06 6.932916251161e-04 0.0 
0.0 0.0 0.0 
-8.379227963196e-05 4.231339398204e-05 0.0 
4.231339398204e-05 1.045227641200e-03 0.0 
0.0 0.0 0.0 
8.773764679937e-05 4.897676553086e-05 0.0 
4.897676553086e-05 5.124561781544e-04 0.0 
0.0 0.0 0.0 
7.525555078347e-05 5.345574334081e-05 0.0 
5.345574334081e-05 8.025312830957e-04 0.0 
0.0 0.0 0.0 
-3.060565025781e-05 1.228454978337e-04 0.0 
1.228454978337e-04 1.140801538831e-03 0.0 
0.0 0.0 0.0 
3.022454242885e-05 1.295206608069e-04 0.0 
1.295206608069e-04 1.036652697170e-03 0.0 
0.0 0.0 0.0 
-3.817921178773e-05 1.051880799462e-04 0.0 
1.051880799462e-04 1.423255639897e-03 0.0 
0.0 0.0 0.0 
5.396849458972e-05 1.043880081675e-04 0.0 
1.043880081675e-04 2.911853288643e-04 0.0 
0.0 0.0 0.0 
7.403851667620e-05 1.695700022679e-05 0.0 
1.695700022679e-05 6.646565878183e-04 0.0 
0.0 0.0 0.0 
6.951949950329e-05 1.526482935906e-05 0.0 
1.526482935906e-05 7.187793821974e-04 0.0 
0.0 0.0 0.0 
4.960098267914e-05 -1.610615292001e-05 0.0 
-1.610615292001e-05 3.652074916436e-04 0.0 
0.0 0.0 0.0 
-6.875787236316e-05 2.613767276011e-05 0.0 
2.613767276011e-05 1.128743247814e-03 0.0 
0.0 0.0 0.0 
-7.090816435107e-05 4.514562573963e-05 0.0 
4.514562573963e-05 1.294396656830e-03 0.0 
0.0 0.0 0.0 
5.356065299922e-05 -1.555953368691e-06 0.0 
-1.555953368691e-06 9.064605134863e-04 0.0 
0.0 0.0 0.0 
4.997729071254e-06 -6.182544615711e-06 0.0 
-6.182544615711e-06 1.107836340188e-04 0.0 
0.0 0.0 0.0 
-4.275655608565e-05 -1.528504972866e-05 0.0 
-1.528504972866e-05 8.696943236730e-05 0.0 
0.0 0.0 0.0 
2.781451365830e-05 -2.217239589310e-05 0.0 
-2.217239589310e-05 2.500337004059e-04 0.0 
0.0 0.0 0.0 
6.590916159710e-05 4.619314105007e-06 0.0 
4.619314105007e-06 7.205429734956e-04 0.0 
0.0 0.0 0.0 
7.753326758997e-05 6.853687106144e-05 0.0 
6.853687106144e-05 5.983339771143e-04 0.0 
0.0 0.0 0.0 
7.856853486055e-05 3.658061300315e-05 0.0 
3.658061300315e-05 4.959119879482e-04 0.0 
0.0 0.0 0.0 
7.496577649690e-05 5.319380110948e-05 0.0 
5.319380110948e-05 4.605735758381e-04 0.0 
0.0 0.0 0.0 
7.024153603918e-05 2.008640446797e-05 0.0 
2.008640446797e-05 7.561218758028e-04 0.0 
0.0 0.0 0.0 
-6.018265235286e-05 6.764967051428e-05 0.0 
6.764967051428e-05 1.330771204957e-03 0.0 
0.0 0.0 0.0 
6.713255606527e-05 1.417611569739e-05 0.0 
1.417611569739e-05 7.464067573661e-04 0.0 
0.0 0.0 0.0 
8.216652780235e-05 8.803055543623e-05 0.0 
8.803055543623e-05 5.951177305077e-04 0.0 
0.0 0.0 0.0 
-5.317640768332e-05 1.065262944654e-04 0.0 
1.065262944654e-04 1.239287967471e-03 0.0 
0.0 0.0 0.0 
-5.242931836158e-05 1.574104788332e-05 0.0 
1.574104788332e-05 1.201605108085e-03 0.0 
0.0 0.0 0.0 
1.826049309073e-05 1.348623975068e-04 0.0 
1.348623975068e-04 1.160069001573e-03 0.0 
0.0 0.0 0.0 
6.433548237750e-05 3.715194225638e-06 0.0 
3.715194225638e-06 7.481755201046e-04 0.0 
0.0 0.0 0.0 
6.624904630681e-05 9.302275352633e-06 0.0 
9.302275352633e-06 7.580423222577e-04 0.0 
0.0 0.0 0.0 
-7.409749548415e-05 3.526314910627e-05 0.0 
3.526314910627e-05 8.379557124187e-04 0.0 
0.0 0.0 0.0 
7.978143464205e-05 5.962652696920e-05 0.0 
5.962652696920e-05 6.128988822629e-04 0.0 
0.0 0.0 0.0 
6.472095337839e-05 1.262006294082e-05 0.0 
1.262006294082e-05 7.740029729513e-04 0.0 
0.0 0.0 0.0 
-3.313751779310e-05 5.090163664409e-06 0.0 
5.090163664409e-06 1.326313339980e-03 0.0 
0.0 0.0 0.0 
-3.618392067550e-05 4.980459997809e-06 0.0 
4.980459997809e-06 1.269197930105e-03 0.0 
0.0 0.0 0.0 
-7.392359015435e-05 3.130427013552e-05 0.0 
3.130427013552e-05 8.730800730301e-04 0.0 
0.0 0.0 0.0 
6.729856926779e-05 1.864958151425e-05 0.0 
1.864958151425e-05 7.836375864942e-04 0.0 
0.0 0.0 0.0 
7.516478766645e-05 1.688971379599e-05 0.0 
1.688971379599e-05 4.713309926105e-04 0.0 
0.0 0.0 0.0 
1.043325918859e-05 1.545412965793e-04 0.0 
1.545412965793e-04 4.073507748004e-04 0.0 
0.0 0.0 0.0 
1.026913721858e-05 1.350163058112e-04 0.0 
1.350163058112e-04 1.287915193652e-03 0.0 
0.0 0.0 0.0 
2.881146387979e-05 -1.011129960730e-05 0.0 
-1.011129960730e-05 2.255376027265e-04 0.0 
0.0 0.0 0.0 
8.424506026161e-05 3.033306908812e-05 0.0 
3.033306908812e-05 4.912209832133e-04 0.0 
0.0 0.0 0.0 
2.581147839709e-05 1.225565762869e-04 0.0 
1.225565762869e-04 9.670965420312e-04 0.0 
0.0 0.0 0.0 
-6.555341510017e-05 1.951523027812e-05 0.0 
1.951523027812e-05 9.076413622950e-04 0.0 
0.0 0.0 0.0 
6.284304478799e-05 2.295691259793e-06 0.0 
2.295691259793e-06 7.765995079938e-04 0.0 
0.0 0.0 0.0 
3.975885637630e-05 -6.998360423440e-06 0.0 
-6.998360423440e-06 3.401468171789e-04 0.0 
0.0 0.0 0.0 
-7.242049182254e-05 2.111453738602e-05 0.0 
2.111453738602e-05 1.155851742072e-03 0.0 
0.0 0.0 0.0 
6.399299343296e-05 8.127169505695e-06 0.0 
8.127169505695e-06 7.855008870834e-04 0.0 
0.0 0.0 0.0 
7.952320868965e-05 5.234413353512e-05 0.0 
5.234413353512e-05 7.149351638136e-04 0.0 
0.0 0.0 0.0 
7.045936757843e-05 1.121892274922e-05 0.0 
1.121892274922e-05 7.048967436858e-04 0.0 
0.0 0.0 0.0 
-2.554135630450e-05 4.066373644753e-05 0.0 
4.066373644753e-05 1.541802781384e-04 0.0 
0.0 0.0 0.0 
-2.224143737717e-05 -1.854623241235e-06 0.0 
-1.854623241235e-06 1.503280294014e-03 0.0 
0.0 0.0 0.0 
8.119037644172e-05 3.845113225475e-05 0.0 
3.845113225475e-05 5.810735535685e-04 0.0 
0.0 0.0 0.0 
3.961502148697e-05 1.194514224497e-04 0.0 
1.194514224497e-04 1.150526572637e-03 0.0 
0.0 0.0 0.0 
-7.886421253600e-06 1.280067691378e-04 0.0 
1.280067691378e-04 1.141684112773e-03 0.0 
0.0 0.0 0.0 
6.427628872707e-05 1.702009364260e-05 0.0 
1.702009364260e-05 8.114899307663e-04 0.0 
0.0 0.0 0.0 
6.178382344491e-05 6.811818923834e-06 0.0 
6.811818923834e-06 8.132641991234e-04 0.0 
0.0 0.0 0.0 
8.650087358286e-05 7.254115321152e-05 0.0 
7.254115321152e-05 5.418136135880e-04 0.0 
0.0 0.0 0.0 
2.037302183844e-06 -1.090330800387e-05 0.0 
-1.090330800387e-05 1.528306579910e-04 0.0 
0.0 0.0 0.0 
-4.698962925431e-07 7.242153110742e-05 0.0 
7.242153110742e-05 1.476489772096e-04 0.0 
0.0 0.0 0.0 
6.130361816781e-05 1.483610664787e-05 0.0 
1.483610664787e-05 8.396836840214e-04 0.0 
0.0 0.0 0.0 
4.547255029075e-05 1.058412898418e-04 0.0 
1.058412898418e-04 1.116644523478e-03 0.0 
0.0 0.0 0.0 
6.967302754091e-05 3.227881549263e-06 0.0 
3.227881549263e-06 4.538202512856e-04 0.0 
0.0 0.0 0.0 
-4.140224011895e-05 1.167299106207e-04 0.0 
1.167299106207e-04 1.244074705492e-03 0.0 
0.0 0.0 0.0 
-7.342724105908e-05 7.050998139362e-05 0.0 
7.050998139362e-05 8.543925638136e-04 0.0 
0.0 0.0 0.0 
-5.545006963048e-05 1.019755551483e-04 0.0 
1.019755551483e-04 1.285396386628e-03 0.0 
0.0 0.0 0.0 
2.769271235636e-05 9.079604754119e-05 0.0 
9.079604754119e-05 1.219529538531e-03 0.0 
0.0 0.0 0.0 
-1.192805547480e-04 -3.780384444710e-06 0.0 
-3.780384444710e-06 6.792780578180e-05 0.0 
0.0 0.0 0.0 
0.0 4.957501295909e-06 0.0 
4.957501295909e-06 1.660181023200e-03 0.0 
0.0 0.0 0.0 
0.0 1.143652710887e-05 0.0 
1.143652710887e-05 1.242164620286e-03 0.0 
0.0 0.0 0.0 
-3.859925899541e-05 -4.561841495467e-06 0.0 
-4.561841495467e-06 1.168279716025e-03 0.0 
0.0 0.0 0.0 
7.879061750216e-05 2.155177867087e-05 0.0 
2.155177867087e-05 5.575676483125e-04 0.0 
0.0 0.0 0.0 
-1.873727907187e-05 1.262556692369e-04 0.0 
1.262556692369e-04 1.141105693640e-03 0.0 
0.0 0.0 0.0 
7.393286259649e-05 7.885262532328e-05 0.0 
7.885262532328e-05 5.860205905401e-04 0.0 
0.0 0.0 0.0 
9.675159367450e-06 -1.801469021863e-05 0.0 
-1.801469021863e-05 1.504365941214e-04 0.0 
0.0 0.0 0.0 
-7.502284361272e-05 9.237774910343e-05 0.0 
9.237774910343e-05 2.115411333306e-04 0.0 
0.0 0.0 0.0 
-1.976982038032e-05 1.406386174326e-05 0.0 
1.406386174326e-05 1.552630146729e-03 0.0 
0.0 0.0 0.0 
-7.028229805950e-05 5.467201548775e-05 0.0 
5.467201548775e-05 1.314245759846e-03 0.0 
0.0 0.0 0.0 
-7.357800268915e-05 1.538504726208e-05 0.0 
1.538504726208e-05 1.110049818744e-03 0.0 
0.0 0.0 0.0 
-3.868499522164e-06 1.616544235276e-04 0.0 
1.616544235276e-04 1.485337018841e-03 0.0 
0.0 0.0 0.0 
3.159746353565e-05 -7.030708128366e-06 0.0 
-7.030708128366e-06 2.817751511610e-04 0.0 
0.0 0.0 0.0 
-1.685406433527e-06 1.629907479748e-04 0.0 
1.629907479748e-04 1.466051509095e-03 0.0 
0.0 0.0 0.0 
-6.209753868891e-05 5.815331577103e-05 0.0 
5.815331577103e-05 1.313591973610e-03 0.0 
0.0 0.0 0.0 
7.436165857011e-05 9.005876132968e-06 0.0 
9.005876132968e-06 5.394020212532e-04 0.0 
0.0 0.0 0.0 
-1.179419638830e-05 1.328209983777e-04 0.0 
1.328209983777e-04 1.083543650700e-03 0.0 
0.0 0.0 0.0 
8.349607645752e-05 2.621917997079e-05 0.0 
2.621917997079e-05 5.134818001535e-04 0.0 
0.0 0.0 0.0 
-5.521706408107e-06 1.583724741406e-04 0.0 
1.583724741406e-04 5.017604874167e-04 0.0 
0.0 0.0 0.0 
7.834525236805e-05 1.665309421484e-05 0.0 
1.665309421484e-05 4.745533124733e-04 0.0 
0.0 0.0 0.0 
-5.707790223164e-05 7.772587784386e-05 0.0 
7.772587784386e-05 1.345940532053e-03 0.0 
0.0 0.0 0.0 
3.852501617030e-05 9.362470289987e-06 0.0 
9.362470289987e-06 1.049073153247e-03 0.0 
0.0 0.0 0.0 
8.762176507182e-05 4.242807012664e-05 0.0 
4.242807012664e-05 5.326565440005e-04 0.0 
0.0 0.0 0.0 
-4.331370518995e-05 1.130500272640e-04 0.0 
1.130500272640e-04 1.291907772248e-03 0.0 
0.0 0.0 0.0 
-7.249749666549e-05 -6.142739364839e-06 0.0 
-6.142739364839e-06 4.336812699179e-05 0.0 
0.0 0.0 0.0 
8.793083702918e-05 6.328016054427e-05 0.0 
6.328016054427e-05 5.588787171273e-04 0.0 
0.0 0.0 0.0 
-5.892391958129e-05 6.040431528980e-05 0.0 
6.040431528980e-05 1.405629629816e-03 0.0 
0.0 0.0 0.0 
7.151846988696e-05 7.505507789763e-06 0.0 
7.505507789763e-06 4.599774820258e-04 0.0 
0.0 0.0 0.0 
6.295420825642e-05 -5.378405998880e-06 0.0 
-5.378405998880e-06 4.158166868111e-04 0.0 
0.0 0.0 0.0 
-8.634440357258e-06 1.282127324805e-04 0.0 
1.282127324805e-04 1.084277766450e-03 0.0 
0.0 0.0 0.0 
4.177869182365e-05 2.166474634782e-06 0.0 
2.166474634782e-06 2.220908808446e-04 0.0 
0.0 0.0 0.0 
-7.424259311573e-05 4.767468126377e-05 0.0 
4.767468126377e-05 7.726366445571e-04 0.0 
0.0 0.0 0.0 
-6.750532898203e-05 4.265537369901e-05 0.0 
4.265537369901e-05 8.043192955756e-04 0.0 
0.0 0.0 0.0 
6.424745075484e-05 1.730824659332e-06 0.0 
1.730824659332e-06 4.001362051862e-04 0.0 
0.0 0.0 0.0 
7.632055022166e-05 5.862403865552e-05 0.0 
5.862403865552e-05 7.827693653044e-04 0.0 
0.0 0.0 0.0 
2.406632418417e-05 1.342706026896e-04 0.0 
1.342706026896e-04 9.022972589092e-04 0.0 
0.0 0.0 0.0 
-4.709257271807e-05 1.100911328060e-04 0.0 
1.100911328060e-04 1.292257771472e-03 0.0 
0.0 0.0 0.0 
-2.528640888244e-05 1.002311113470e-04 0.0 
1.002311113470e-04 1.505413233985e-03 0.0 
0.0 0.0 0.0 
-6.111735073056e-05 2.391543504816e-05 0.0 
2.391543504816e-05 8.401839137642e-04 0.0 
0.0 0.0 0.0 
-2.937438398343e-05 -3.584928981352e-06 0.0 
-3.584928981352e-06 1.386895833323e-03 0.0 
0.0 0.0 0.0 
-1.764041711716e-05 1.278588568425e-04 0.0 
1.278588568425e-04 1.449865444873e-03 0.0 
0.0 0.0 0.0 
8.386687440032e-05 8.321432642578e-05 0.0 
8.321432642578e-05 5.261208871166e-04 0.0 
0.0 0.0 0.0 
-1.272395448992e-05 1.459895085843e-04 0.0 
1.459895085843e-04 3.493316335779e-04 0.0 
0.0 0.0 0.0 
-8.350965909709e-05 7.445858349461e-05 0.0 
7.445858349461e-05 8.923560700855e-04 0.0 
0.0 0.0 0.0 
7.887288700981e-05 4.710602261508e-05 0.0 
4.710602261508e-05 7.345020914375e-04 0.0 
0.0 0.0 0.0 
-5.028439539378e-05 1.007278185788e-04 0.0 
1.007278185788e-04 1.328537891562e-03 0.0 
0.0 0.0 0.0 
8.467802052392e-05 6.199844286580e-05 0.0 
6.199844286580e-05 7.322090490514e-04 0.0 
0.0 0.0 0.0 
1.696923522743e-05 7.068779106456e-05 0.0 
7.068779106456e-05 2.473822415423e-04 0.0 
0.0 0.0 0.0 
7.156913492645e-05 6.426687445103e-05 0.0 
6.426687445103e-05 8.511282720227e-04 0.0 
0.0 0.0 0.0 
-3.265655565909e-05 1.509533146866e-04 0.0 
1.509533146866e-04 5.996342301007e-04 0.0 
0.0 0.0 0.0 
2.844976188787e-05 1.238593736837e-04 0.0 
1.238593736837e-04 9.037615942389e-04 0.0 
0.0 0.0 0.0 
8.085871869445e-05 6.796459621057e-05 0.0 
6.796459621057e-05 8.002614857630e-04 0.0 
0.0 0.0 0.0 
-7.605391882937e-08 1.344899542418e-04 0.0 
1.344899542418e-04 1.084114067123e-03 0.0 
0.0 0.0 0.0 
-3.502324253613e-05 1.301879784588e-06 0.0 
1.301879784588e-06 1.311485851668e-03 0.0 
0.0 0.0 0.0 
5.658101502060e-05 -1.158627599345e-05 0.0 
-1.158627599345e-05 4.019915017723e-04 0.0 
0.0 0.0 0.0 
1.789980671196e-05 1.362958142648e-04 0.0 
1.362958142648e-04 3.183939664049e-04 0.0 
0.0 0.0 0.0 
7.557194205465e-05 7.370011340575e-05 0.0 
7.370011340575e-05 8.700181781207e-04 0.0 
0.0 0.0 0.0 
-5.043726067555e-05 1.253934377496e-04 0.0 
1.253934377496e-04 6.815754962577e-04 0.0 
0.0 0.0 0.0 
-2.834814880148e-05 1.775299697576e-05 0.0 
1.775299697576e-05 8.347939548736e-05 0.0 
0.0 0.0 0.0 
-1.325977793720e-05 6.506986038975e-06 0.0 
6.506986038975e-06 1.559616856221e-03 0.0 
0.0 0.0 0.0 
-1.952930177485e-05 6.457665857894e-06 0.0 
6.457665857894e-06 1.503608212000e-03 0.0 
0.0 0.0 0.0 
-1.672409093634e-05 -1.245922681467e-05 0.0 
-1.245922681467e-05 6.564350011873e-05 0.0 
0.0 0.0 0.0 
6.539026315133e-05 7.002176803080e-05 0.0 
7.002176803080e-05 9.209677504616e-04 0.0 
0.0 0.0 0.0 
3.929037026618e-05 -1.941322167876e-05 0.0 
-1.941322167876e-05 3.073398236666e-04 0.0 
0.0 0.0 0.0 
4.801252720710e-05 -5.518391289453e-06 0.0 
-5.518391289453e-06 3.291150351223e-04 0.0 
0.0 0.0 0.0 
-3.586174288295e-05 1.184533752637e-04 0.0 
1.184533752637e-04 1.346031101228e-03 0.0 
0.0 0.0 0.0 
2.492272705767e-06 1.277397077135e-04 0.0 
1.277397077135e-04 1.085018559342e-03 0.0 
0.0 0.0 0.0 
-3.493159996371e-05 1.210695326533e-04 0.0 
1.210695326533e-04 1.298142444690e-03 0.0 
0.0 0.0 0.0 
8.074729359975e-05 4.480745119369e-05 0.0 
4.480745119369e-05 5.623378609789e-04 0.0 
0.0 0.0 0.0 
-4.306545666977e-05 1.171447431276e-06 0.0 
1.171447431276e-06 1.101472205533e-03 0.0 
0.0 0.0 0.0 
1.380142843810e-05 7.350885719847e-05 0.0 
7.350885719847e-05 1.207320759178e-03 0.0 
0.0 0.0 0.0 
3.679430073777e-05 -8.411009685720e-06 0.0 
-8.411009685720e-06 2.708426465914e-04 0.0 
0.0 0.0 0.0 
3.587967540675e-05 1.106818204976e-04 0.0 
1.106818204976e-04 1.131331393944e-03 0.0 
0.0 0.0 0.0 
1.531585549297e-05 1.273388032256e-04 0.0 
1.273388032256e-04 9.654256083935e-04 0.0 
0.0 0.0 0.0 
2.590774790856e-05 -5.375018147426e-07 0.0 
-5.375018147426e-07 2.105973678785e-04 0.0 
0.0 0.0 0.0 
-5.614595100634e-05 9.048039539758e-05 0.0 
9.048039539758e-05 1.318160754246e-03 0.0 
0.0 0.0 0.0 
8.522259798149e-05 7.805874719575e-05 0.0 
7.805874719575e-05 6.096784152565e-04 0.0 
0.0 0.0 0.0 
-8.508899372872e-07 -1.583473112935e-05 0.0 
-1.583473112935e-05 1.152904160493e-04 0.0 
0.0 0.0 0.0 
8.726814014204e-05 5.674277401214e-05 0.0 
5.674277401214e-05 4.929317732638e-04 0.0 
0.0 0.0 0.0 
5.703439493421e-05 5.295684296068e-06 0.0 
5.295684296068e-06 8.765897718352e-04 0.0 
0.0 0.0 0.0 
-6.497915888137e-05 7.504354005350e-05 0.0 
7.504354005350e-05 1.346676013110e-03 0.0 
0.0 0.0 0.0 
1.757979026196e-05 -2.495784486286e-05 0.0 
-2.495784486286e-05 2.059157073364e-04 0.0 
0.0 0.0 0.0 
6.483345223063e-05 -1.196123783565e-06 0.0 
-1.196123783565e-06 6.966909529713e-04 0.0 
0.0 0.0 0.0 
-4.359571444479e-05 1.101466106013e-04 0.0 
1.101466106013e-04 1.338064227712e-03 0.0 
0.0 0.0 0.0 
8.366191575293e-06 1.304583795386e-04 0.0 
1.304583795386e-04 1.217034078079e-03 0.0 
0.0 0.0 0.0 
7.180782357596e-05 8.114733180726e-06 0.0 
8.114733180726e-06 4.363270634951e-04 0.0 
0.0 0.0 0.0 
4.152367993049e-05 2.920807333853e-06 0.0 
2.920807333853e-06 3.403661151216e-04 0.0 
0.0 0.0 0.0 
2.280551983436e-05 1.329215705708e-04 0.0 
1.329215705708e-04 9.656794364263e-04 0.0 
0.0 0.0 0.0 
-3.399361752499e-05 -4.802567308753e-06 0.0 
-4.802567308753e-06 1.293088269278e-03 0.0 
0.0 0.0 0.0 
-3.469495402197e-06 -1.711592063898e-05 0.0 
-1.711592063898e-05 1.142977697068e-04 0.0 
0.0 0.0 0.0 
-1.645547841267e-05 1.423560235427e-04 0.0 
1.423560235427e-04 1.483794294971e-03 0.0 
0.0 0.0 0.0 
-1.457693680540e-05 9.021078639751e-05 0.0 
9.021078639751e-05 1.566272036053e-03 0.0 
0.0 0.0 0.0 
-3.703246905262e-05 -3.697012024788e-06 0.0 
-3.697012024788e-06 1.206065782402e-03 0.0 
0.0 0.0 0.0 
-2.102578745922e-05 3.925033565243e-05 0.0 
3.925033565243e-05 1.588608388515e-03 0.0 
0.0 0.0 0.0 
-1.297784239129e-05 1.073244535760e-04 0.0 
1.073244535760e-04 1.549917728592e-03 0.0 
0.0 0.0 0.0 
8.859220292501e-05 5.586671273109e-05 0.0 
5.586671273109e-05 5.778650363926e-04 0.0 
0.0 0.0 0.0 
7.913734603382e-05 2.535237115621e-05 0.0 
2.535237115621e-05 5.358496736532e-04 0.0 
0.0 0.0 0.0 
1.798319042079e-05 1.366380021320e-04 0.0 
1.366380021320e-04 1.302428101744e-03 0.0 
0.0 0.0 0.0 
-6.777817590231e-05 3.106209929689e-06 0.0 
3.106209929689e-06 4.628929234562e-05 0.0 
0.0 0.0 0.0 
3.609400254745e-05 5.116443446080e-06 0.0 
5.116443446080e-06 3.085164169676e-04 0.0 
0.0 0.0 0.0 
6.255856678061e-05 6.386950475063e-06 0.0 
6.386950475063e-06 7.122572067595e-04 0.0 
0.0 0.0 0.0 
6.338204335510e-05 -5.681637382666e-06 0.0 
-5.681637382666e-06 4.388727630984e-04 0.0 
0.0 0.0 0.0 
8.464944456632e-05 3.515979591874e-05 0.0 
3.515979591874e-05 4.689176717330e-04 0.0 
0.0 0.0 0.0 
-7.717932441242e-05 6.787682113188e-05 0.0 
6.787682113188e-05 7.060941682921e-04 0.0 
0.0 0.0 0.0 
-6.741541814703e-05 6.520697153483e-05 0.0 
6.520697153483e-05 7.320208198862e-04 0.0 
0.0 0.0 0.0 
-5.218978263377e-05 6.531839178336e-06 0.0 
6.531839178336e-06 1.210058750419e-03 0.0 
0.0 0.0 0.0 
7.954454162040e-05 5.244605820968e-05 0.0 
5.244605820968e-05 5.452070231573e-04 0.0 
0.0 0.0 0.0 
4.492215861784e-05 -3.785927427669e-07 0.0 
-3.785927427669e-07 3.637339078129e-04 0.0 
0.0 0.0 0.0 
2.450883051175e-06 1.372156710898e-04 0.0 
1.372156710898e-04 1.205233639557e-03 0.0 
0.0 0.0 0.0 
1.384012894046e-05 6.297139643177e-05 0.0 
6.297139643177e-05 1.261618580190e-03 0.0 
0.0 0.0 0.0 
1.248804622955e-05 7.075936849624e-05 0.0 
7.075936849624e-05 1.264192500724e-03 0.0 
0.0 0.0 0.0 
8.695986980967e-05 3.745839785094e-05 0.0 
3.745839785094e-05 5.545693006075e-04 0.0 
0.0 0.0 0.0 
-5.555860985806e-05 1.207954947100e-05 0.0 
1.207954947100e-05 1.159378238985e-03 0.0 
0.0 0.0 0.0 
-7.047953749606e-05 3.431458202658e-06 0.0 
3.431458202658e-06 8.077793459416e-05 0.0 
0.0 0.0 0.0 
-8.826307164667e-05 1.194269191364e-04 0.0 
1.194269191364e-04 6.137763411724e-04 0.0 
0.0 0.0 0.0 
2.137043549455e-05 -9.668737926500e-06 0.0 
-9.668737926500e-06 2.188306050872e-04 0.0 
0.0 0.0 0.0 
-8.182027828496e-05 9.313791001304e-05 0.0 
9.313791001304e-05 6.668112532915e-04 0.0 
0.0 0.0 0.0 
1.374303980062e-05 1.256906194327e-04 0.0 
1.256906194327e-04 1.026386855510e-03 0.0 
0.0 0.0 0.0 
7.879499159369e-05 1.920850851472e-05 0.0 
1.920850851472e-05 4.517858668185e-04 0.0 
0.0 0.0 0.0 
7.910244566167e-05 3.032132060064e-05 0.0 
3.032132060064e-05 5.154801169245e-04 0.0 
0.0 0.0 0.0 
-2.612015806813e-05 -1.509032241721e-05 0.0 
-1.509032241721e-05 1.302763247568e-04 0.0 
0.0 0.0 0.0 
-1.749774670967e-05 5.498326670799e-06 0.0 
5.498326670799e-06 1.513929071575e-03 0.0 
0.0 0.0 0.0 
7.522040552810e-05 1.341896874061e-05 0.0 
1.341896874061e-05 4.937132823140e-04 0.0 
0.0 0.0 0.0 
-1.577493272897e-05 2.138794622249e-05 0.0 
2.138794622249e-05 1.551469137930e-03 0.0 
0.0 0.0 0.0 
-2.361956481900e-05 3.541507775901e-06 0.0 
3.541507775901e-06 1.466001154317e-03 0.0 
0.0 0.0 0.0 
-6.730106046349e-06 8.704607620701e-06 0.0 
8.704607620701e-06 1.658103897715e-03 0.0 
0.0 0.0 0.0 
1.167806425983e-05 1.527091973700e-05 0.0 
1.527091973700e-05 1.243227755333e-03 0.0 
0.0 0.0 0.0 
-3.824820604481e-05 4.163001799802e-06 0.0 
4.163001799802e-06 1.207888894966e-03 0.0 
0.0 0.0 0.0 
7.494693295085e-05 1.088156655347e-05 0.0 
1.088156655347e-05 5.161463734686e-04 0.0 
0.0 0.0 0.0 
-5.293509410864e-05 3.090342051748e-05 0.0 
3.090342051748e-05 7.709325612446e-04 0.0 
0.0 0.0 0.0 
8.247958305208e-05 2.346209934035e-05 0.0 
2.346209934035e-05 5.369227669751e-04 0.0 
0.0 0.0 0.0 
0.0 4.900931795772e-05 0.0 
4.900931795772e-05 1.256409981745e-03 0.0 
0.0 0.0 0.0 
-7.633945139618e-05 1.176055520848e-04 0.0 
1.176055520848e-04 4.036008035719e-04 0.0 
0.0 0.0 0.0 
-7.803702071707e-05 1.243713855489e-04 0.0 
1.243713855489e-04 5.099244543814e-04 0.0 
0.0 0.0 0.0 
2.772603818424e-05 1.204942213201e-04 0.0 
1.204942213201e-04 1.185976463012e-03 0.0 
0.0 0.0 0.0 
-4.932860482554e-05 6.492050826697e-06 0.0 
6.492050826697e-06 1.159932165456e-03 0.0 
0.0 0.0 0.0 
-1.448026834072e-05 1.568853108262e-05 0.0 
1.568853108262e-05 1.558083604638e-03 0.0 
0.0 0.0 0.0 
-4.860556355291e-05 1.063845386740e-04 0.0 
1.063845386740e-04 1.338305694665e-03 0.0 
0.0 0.0 0.0 
9.982441286027e-06 1.422043425033e-04 0.0 
1.422043425033e-04 1.276098558509e-03 0.0 
0.0 0.0 0.0 
-5.262953798457e-05 9.194602257160e-05 0.0 
9.194602257160e-05 1.412535864750e-03 0.0 
0.0 0.0 0.0 
-3.801512314705e-05 7.450654439012e-06 0.0 
7.450654439012e-06 1.219945842568e-03 0.0 
0.0 0.0 0.0 
5.542109990042e-05 -1.189348860479e-05 0.0 
-1.189348860479e-05 3.791909310626e-04 0.0 
0.0 0.0 0.0 
6.372351408745e-05 2.303428154022e-06 0.0 
2.303428154022e-06 3.772943293239e-04 0.0 
0.0 0.0 0.0 
-3.017827901897e-05 7.024875024074e-06 0.0 
7.024875024074e-06 1.354752006868e-03 0.0 
0.0 0.0 0.0 
-1.384119795445e-07 1.320062803267e-04 0.0 
1.320062803267e-04 1.267688565453e-03 0.0 
0.0 0.0 0.0 
-6.379867042194e-05 1.224483940166e-05 0.0 
1.224483940166e-05 1.106871241511e-03 0.0 
0.0 0.0 0.0 
-3.968532405363e-05 8.697680938056e-07 0.0 
8.697680938056e-07 1.153656512952e-03 0.0 
0.0 0.0 0.0 
-3.882368044139e-05 2.715402991297e-07 0.0 
2.715402991297e-07 1.204723113801e-03 0.0 
0.0 0.0 0.0 
-4.168178285280e-05 -1.811242922214e-06 0.0 
-1.811242922214e-06 1.223361262578e-03 0.0 
0.0 0.0 0.0 
2.569485664061e-05 1.248134942282e-05 0.0 
1.248134942282e-05 1.815066988620e-04 0.0 
0.0 0.0 0.0 
5.492196607060e-05 -3.365646621463e-06 0.0 
-3.365646621463e-06 3.417339323055e-04 0.0 
0.0 0.0 0.0 
-1.412448629479e-05 2.698443678464e-05 0.0 
2.698443678464e-05 1.609593605607e-03 0.0 
0.0 0.0 0.0 
-3.863059255838e-05 7.955302456881e-07 0.0 
7.955302456881e-07 1.284082197778e-03 0.0 
0.0 0.0 0.0 
1.052274987101e-05 1.498808888010e-04 0.0 
1.498808888010e-04 1.358562517145e-03 0.0 
0.0 0.0 0.0 
-3.706563380212e-05 1.000453692416e-04 0.0 
1.000453692416e-04 1.506208542118e-03 0.0 
0.0 0.0 0.0 
-6.242859705197e-05 8.849320228901e-05 0.0 
8.849320228901e-05 1.318584425658e-03 0.0 
0.0 0.0 0.0 
-2.821388826879e-05 4.247179406927e-05 0.0 
4.247179406927e-05 1.550763576996e-03 0.0 
0.0 0.0 0.0 
6.261270563601e-05 2.581794430553e-06 0.0 
2.581794430553e-06 5.174361121938e-04 0.0 
0.0 0.0 0.0 
5.489117826696e-05 1.177257617905e-06 0.0 
1.177257617905e-06 4.697765403281e-04 0.0 
0.0 0.0 0.0 
3.068785118265e-05 7.484866276767e-05 0.0 
7.484866276767e-05 1.150245035030e-03 0.0 
0.0 0.0 0.0 
-2.695119542695e-05 -7.411288377683e-06 0.0 
-7.411288377683e-06 7.122743109078e-05 0.0 
0.0 0.0 0.0 
3.624704663197e-05 -5.917600092836e-06 0.0 
-5.917600092836e-06 3.265985864458e-04 0.0 
0.0 0.0 0.0 
0.0 1.550326875843e-04 0.0 
1.550326875843e-04 1.475430682924e-03 0.0 
0.0 0.0 0.0 
1.665515126748e-05 -6.736024024809e-06 0.0 
-6.736024024809e-06 1.555616432198e-04 0.0 
0.0 0.0 0.0 
-3.868081438263e-05 1.420816665067e-06 0.0 
1.420816665067e-06 1.153952611898e-03 0.0 
0.0 0.0 0.0 
2.989498103068e-05 1.197037770266e-04 0.0 
1.197037770266e-04 1.220312075243e-03 0.0 
0.0 0.0 0.0 
-7.818532895998e-06 -8.279048782315e-06 0.0 
-8.279048782315e-06 1.058041150814e-04 0.0 
0.0 0.0 0.0 
-8.884883312743e-06 -7.741424119961e-06 0.0 
-7.741424119961e-06 5.793991473269e-05 0.0 
0.0 0.0 0.0 
-8.959031726485e-06 3.635362552115e-05 0.0 
3.635362552115e-05 1.653225007232e-03 0.0 
0.0 0.0 0.0 
-4.664702988721e-05 3.563865068246e-06 0.0 
3.563865068246e-06 1.102812914187e-03 0.0 
0.0 0.0 0.0 
-1.464173487886e-05 3.828536004293e-05 0.0 
3.828536004293e-05 1.596166847498e-03 0.0 
0.0 0.0 0.0 
1.980432975279e-05 1.229176243520e-04 0.0 
1.229176243520e-04 1.240163224688e-03 0.0 
0.0 0.0 0.0 
-4.605267470659e-05 -1.056238908727e-07 0.0 
-1.056238908727e-07 1.101388546848e-03 0.0 
0.0 0.0 0.0 
-6.780486197877e-05 4.309681341295e-06 0.0 
4.309681341295e-06 9.264745559512e-05 0.0 
0.0 0.0 0.0 
-6.967016769610e-06 4.103213592933e-06 0.0 
4.103213592933e-06 1.610168922527e-03 0.0 
0.0 0.0 0.0 
1.710635628549e-05 -1.761350379181e-05 0.0 
-1.761350379181e-05 1.744993560273e-04 0.0 
0.0 0.0 0.0 
-1.598858243701e-05 3.089557756291e-05 0.0 
3.089557756291e-05 1.565680436727e-03 0.0 
0.0 0.0 0.0 
0.0 3.891725429813e-05 0.0 
3.891725429813e-05 1.251035234619e-03 0.0 
0.0 0.0 0.0 
-3.249453335563e-05 8.290421400882e-05 0.0 
8.290421400882e-05 1.525638630353e-03 0.0 
0.0 0.0 0.0 
5.196376305183e-05 2.052128186187e-05 0.0 
2.052128186187e-05 2.322907889458e-04 0.0 
0.0 0.0 0.0 
-5.931693025985e-05 1.935743657324e-05 0.0 
1.935743657324e-05 1.211607590747e-03 0.0 
0.0 0.0 0.0 
5.629643319272e-05 -4.769697019711e-06 0.0 
-4.769697019711e-06 5.266938471957e-04 0.0 
0.0 0.0 0.0 
1.178446911387e-06 1.280897007921e-04 0.0 
1.280897007921e-04 1.205918096606e-03 0.0 
0.0 0.0 0.0 
3.665337477976e-06 1.569696201929e-04 0.0 
1.569696201929e-04 1.411444981419e-03 0.0 
0.0 0.0 0.0 
-2.755839030510e-05 6.709211780116e-06 0.0 
6.709211780116e-06 1.419914073225e-03 0.0 
0.0 0.0 0.0 
8.524655411568e-06 1.565173527207e-04 0.0 
1.565173527207e-04 1.388156664752e-03 0.0 
0.0 0.0 0.0 
-6.196993914687e-07 3.767673038906e-06 0.0 
3.767673038906e-06 1.152719567139e-04 0.0 
0.0 0.0 0.0 
1.950885634439e-05 4.666837226969e-05 0.0 
4.666837226969e-05 1.198596235868e-03 0.0 
0.0 0.0 0.0 
5.183067410997e-05 1.546430820436e-05 0.0 
1.546430820436e-05 2.647259135502e-04 0.0 
0.0 0.0 0.0 
1.786719596741e-05 -3.371925848526e-06 0.0 
-3.371925848526e-06 1.557896430333e-04 0.0 
0.0 0.0 0.0 
2.220396011299e-05 1.129436094253e-04 0.0 
1.129436094253e-04 1.259573722499e-03 0.0 
0.0 0.0 0.0 
-2.279304396013e-05 6.329287639979e-05 0.0 
6.329287639979e-05 1.595685953261e-03 0.0 
0.0 0.0 0.0 
-1.252984287825e-05 3.634803098167e-05 0.0 
3.634803098167e-05 1.615488162811e-03 0.0 
0.0 0.0 0.0 
-4.170869739883e-05 7.125543843763e-06 0.0 
7.125543843763e-06 1.151755688443e-03 0.0 
0.0 0.0 0.0 
-6.560370228403e-05 3.261722333675e-05 0.0 
3.261722333675e-05 1.216215351547e-03 0.0 
0.0 0.0 0.0 
-1.325823199394e-05 1.479396818980e-04 0.0 
1.479396818980e-04 5.012607569372e-04 0.0 
0.0 0.0 0.0 
-2.482775866830e-05 1.116128548783e-04 0.0 
1.116128548783e-04 1.548490958452e-03 0.0 
0.0 0.0 0.0 
5.270235624844e-05 2.073792672123e-06 0.0 
2.073792672123e-06 4.342829053867e-04 0.0 
0.0 0.0 0.0 
1.324062556485e-05 7.027142625449e-05 0.0 
7.027142625449e-05 2.297254200618e-04 0.0 
0.0 0.0 0.0 
1.014430305646e-05 1.388800068415e-04 0.0 
1.388800068415e-04 1.215914366030e-03 0.0 
0.0 0.0 0.0 
-4.185217750718e-05 -4.449053115870e-08 0.0 
-4.449053115870e-08 1.098256338804e-03 0.0 
0.0 0.0 0.0 
-2.162378168202e-05 6.494774563026e-05 0.0 
6.494774563026e-05 1.557100547164e-03 0.0 
0.0 0.0 0.0 
-5.096270886629e-06 -3.799842614679e-06 0.0 
-3.799842614679e-06 1.654696797280e-03 0.0 
0.0 0.0 0.0 
0.0 2.548135443311e-06 0.0 
2.548135443311e-06 1.662296482509e-03 0.0 
0.0 0.0 0.0 
-2.156975171030e-06 -2.299669380419e-07 0.0 
-2.299669380419e-07 1.568400028029e-05 0.0 
0.0 0.0 0.0 
-1.240151428883e-06 6.729029056567e-07 0.0 
6.729029056567e-07 1.657291622559e-05 0.0 
0.0 0.0 0.0 
-3.906672658804e-05 -3.990657745173e-06 0.0 
-3.990657745173e-06 1.105167224262e-03 0.0 
0.0 0.0 0.0 
-4.083333075877e-05 6.557500900605e-07 0.0 
6.557500900605e-07 1.097641012763e-03 0.0 
0.0 0.0 0.0 
0.0 5.680525365554e-06 0.0 
5.680525365554e-06 1.242552575012e-03 0.0 
0.0 0.0 0.0 
1.136105073107e-05 5.187900698505e-06 0.0 
5.187900698505e-06 1.232176773615e-03 0.0 
0.0 0.0 0.0 
8.894352623301e-07 2.611055647243e-06 0.0 
2.611055647243e-06 5.097627275497e-05 0.0 
0.0 0.0 0.0 
-6.829798787245e-05 -4.899400670300e-06 0.0 
-4.899400670300e-06 4.244852681534e-05 0.0 
0.0 0.0 0.0 
2.503267103382e-05 3.075531857494e-05 0.0 
3.075531857494e-05 1.125771585806e-03 0.0 
0.0 0.0 0.0 
-6.150043646458e-06 1.479877732681e-04 0.0 
1.479877732681e-04 1.370440790099e-03 0.0 
0.0 0.0 0.0 
1.931968641777e-05 -1.388060053720e-05 0.0 
-1.388060053720e-05 2.061152147845e-04 0.0 
0.0 0.0 0.0 
2.374301565866e-05 4.912048478203e-05 0.0 
4.912048478203e-05 1.153161733365e-03 0.0 
0.0 0.0 0.0 
6.210386667815e-05 1.672494126733e-07 0.0 
1.672494126733e-07 7.646343079792e-04 0.0 
0.0 0.0 0.0 
6.188352092340e-05 -4.227300920938e-06 0.0 
-4.227300920938e-06 6.508944282646e-04 0.0 
0.0 0.0 0.0 
-3.679207251905e-05 6.903534639066e-06 0.0 
6.903534639066e-06 1.314992573336e-03 0.0 
0.0 0.0 0.0 
2.229210818716e-05 -4.893431941440e-06 0.0 
-4.893431941440e-06 1.982500973168e-04 0.0 
0.0 0.0 0.0 
1.638133398485e-06 1.273140361245e-04 0.0 
1.273140361245e-04 1.145086614229e-03 0.0 
0.0 0.0 0.0 
1.045052701620e-05 -8.395471989387e-06 0.0 
-8.395471989387e-06 1.623222050138e-04 0.0 
0.0 0.0 0.0 
6.371065092159e-05 -4.009243162174e-06 0.0 
-4.009243162174e-06 5.865022093481e-04 0.0 
0.0 0.0 0.0 
-2.173946083883e-05 1.085435637295e-04 0.0 
1.085435637295e-04 1.507850753697e-03 0.0 
0.0 0.0 0.0 
-1.725126500696e-05 -4.450224928138e-06 0.0 
-4.450224928138e-06 1.536656249710e-03 0.0 
0.0 0.0 0.0 
6.519781700787e-05 3.540614130709e-06 0.0 
3.540614130709e-06 6.464870481384e-04 0.0 
0.0 0.0 0.0 
-3.774634246034e-05 -2.356224237690e-06 0.0 
-2.356224237690e-06 1.250289902166e-03 0.0 
0.0 0.0 0.0 
-1.976117744251e-05 1.409576496368e-04 0.0 
1.409576496368e-04 1.427735302637e-03 0.0 
0.0 0.0 0.0 
-4.676402077752e-05 1.005229323802e-04 0.0 
1.005229323802e-04 1.423981680303e-03 0.0 
0.0 0.0 0.0 
-5.521923195217e-05 9.445417143468e-05 0.0 
9.445417143468e-05 1.371024069740e-03 0.0 
0.0 0.0 0.0 
-4.402112022206e-05 1.150658333089e-06 0.0 
1.150658333089e-06 1.101679915526e-03 0.0 
0.0 0.0 0.0 
1.177356908588e-05 1.254233632405e-04 0.0 
1.254233632405e-04 1.088873737130e-03 0.0 
0.0 0.0 0.0 
-2.373567320457e-05 7.550691765302e-05 0.0 
7.550691765302e-05 1.541079784921e-03 0.0 
0.0 0.0 0.0 
3.977549289580e-05 -4.924152851891e-07 0.0 
-4.924152851891e-07 3.256508883882e-04 0.0 
0.0 0.0 0.0 
-2.927428272392e-05 -1.274298004177e-05 0.0 
-1.274298004177e-05 7.057793746701e-05 0.0 
0.0 0.0 0.0 
-2.626036338482e-05 1.260220087434e-04 0.0 
1.260220087434e-04 1.402324164832e-03 0.0 
0.0 0.0 0.0 
3.900961182346e-05 1.203387872658e-04 0.0 
1.203387872658e-04 1.130683312822e-03 0.0 
0.0 0.0 0.0 
1.620697746851e-05 -2.045440027511e-05 0.0 
-2.045440027511e-05 1.596099974954e-04 0.0 
0.0 0.0 0.0 
-3.319540504654e-05 -4.278924282037e-07 0.0 
-4.278924282037e-07 1.358490948005e-03 0.0 
0.0 0.0 0.0 
1.222913252796e-05 2.777649958557e-05 0.0 
2.777649958557e-05 1.180683487088e-03 0.0 
0.0 0.0 0.0 
-1.256523835913e-05 1.360730536724e-04 0.0 
1.360730536724e-04 1.358468445406e-03 0.0 
0.0 0.0 0.0 
-1.692248646279e-05 1.422340853799e-04 0.0 
1.422340853799e-04 1.408348802563e-03 0.0 
0.0 0.0 0.0 
5.868403924381e-05 -2.701256612193e-06 0.0 
-2.701256612193e-06 8.342989265648e-04 0.0 
0.0 0.0 0.0 
-2.226935849980e-05 4.445086436128e-05 0.0 
4.445086436128e-05 8.459678288886e-05 0.0 
0.0 0.0 0.0 
-4.351294978144e-05 3.690141894829e-05 0.0 
3.690141894829e-05 7.032698610945e-04 0.0 
0.0 0.0 0.0 
-5.538416036244e-05 1.441250232339e-04 0.0 
1.441250232339e-04 6.823088855143e-04 0.0 
0.0 0.0 0.0 
-5.953493128741e-05 2.054592896320e-05 0.0 
2.054592896320e-05 1.212947012531e-03 0.0 
0.0 0.0 0.0 
1.094809082391e-05 1.348936764258e-04 0.0 
1.348936764258e-04 1.087735781394e-03 0.0 
0.0 0.0 0.0 
-1.633122469291e-05 1.782652014482e-05 0.0 
1.782652014482e-05 1.573504708424e-03 0.0 
0.0 0.0 0.0 
1.223107175341e-05 1.341247088587e-04 0.0 
1.341247088587e-04 1.305480884659e-03 0.0 
0.0 0.0 0.0 
-2.268137357675e-05 -1.749652261673e-05 0.0 
-1.749652261673e-05 1.224915860307e-04 0.0 
0.0 0.0 0.0 
-1.694896858140e-05 -1.634510652789e-05 0.0 
-1.634510652789e-05 1.138055234162e-04 0.0 
0.0 0.0 0.0 
-2.563571010661e-05 6.483879783289e-05 0.0 
6.483879783289e-05 6.089065280548e-04 0.0 
0.0 0.0 0.0 
-2.978578770840e-05 1.262980223796e-05 0.0 
1.262980223796e-05 1.376224211427e-03 0.0 
0.0 0.0 0.0 
4.621816461570e-05 -9.953377312115e-06 0.0 
-9.953377312115e-06 4.037139604878e-04 0.0 
0.0 0.0 0.0 
-2.391596255358e-05 4.885750003181e-05 0.0 
4.885750003181e-05 1.568887146837e-03 0.0 
0.0 0.0 0.0 
1.909798762378e-05 -1.064136131774e-05 0.0 
-1.064136131774e-05 1.965324494122e-04 0.0 
0.0 0.0 0.0 
2.147453559265e-05 1.296872805945e-04 0.0 
1.296872805945e-04 1.246880823245e-03 0.0 
0.0 0.0 0.0 
-4.683801182581e-05 1.295811373185e-05 0.0 
1.295811373185e-05 1.208578023407e-03 0.0 
0.0 0.0 0.0 
1.401456359407e-06 1.470842311119e-04 0.0 
1.470842311119e-04 1.396079358210e-03 0.0 
0.0 0.0 0.0 
-7.061472975467e-06 1.309377166380e-04 0.0 
1.309377166380e-04 1.259666358146e-03 0.0 
0.0 0.0 0.0 
-6.484722348987e-05 2.180863399738e-05 0.0 
2.180863399738e-05 1.212948194089e-03 0.0 
0.0 0.0 0.0 
2.555694055340e-05 9.748927484046e-05 0.0 
9.748927484046e-05 1.234775177811e-03 0.0 
0.0 0.0 0.0 
-1.968244151007e-05 6.053251537973e-05 0.0 
6.053251537973e-05 1.600023371354e-03 0.0 
0.0 0.0 0.0 
-1.082661628360e-05 6.445521997500e-06 0.0 
6.445521997500e-06 1.613130503890e-03 0.0 
0.0 0.0 0.0 
-5.861433225551e-05 1.375958788695e-04 0.0 
1.375958788695e-04 4.046198443497e-04 0.0 
0.0 0.0 0.0 
-2.187354131145e-05 4.828617478170e-05 0.0 
4.828617478170e-05 1.550314101563e-03 0.0 
0.0 0.0 0.0 
-9.609949182421e-06 1.333999963670e-04 0.0 
1.333999963670e-04 1.492129913101e-03 0.0 
0.0 0.0 0.0 
2.399654832130e-05 1.286921996021e-04 0.0 
1.286921996021e-04 1.247182978107e-03 0.0 
0.0 0.0 0.0 
4.874054860382e-06 1.408941994998e-04 0.0 
1.408941994998e-04 1.265569531297e-03 0.0 
0.0 0.0 0.0 
0.0 6.556928660964e-05 0.0 
6.556928660964e-05 1.263140998717e-03 0.0 
0.0 0.0 0.0 
-4.765193470435e-05 9.831924989911e-05 0.0 
9.831924989911e-05 1.370460101614e-03 0.0 
0.0 0.0 0.0 
-6.055202185062e-05 3.442114497468e-05 0.0 
3.442114497468e-05 4.163698832915e-05 0.0 
0.0 0.0 0.0 
2.020714603868e-06 1.035822934158e-04 0.0 
1.035822934158e-04 3.172308056760e-04 0.0 
0.0 0.0 0.0 
-4.238424475322e-05 9.970437016717e-05 0.0 
9.970437016717e-05 1.464045466306e-03 0.0 
0.0 0.0 0.0 
-5.533499280319e-05 2.594469345299e-05 0.0 
2.594469345299e-05 1.258752072867e-03 0.0 
0.0 0.0 0.0 
2.771477565156e-05 1.118025016824e-05 0.0 
1.118025016824e-05 1.119106908985e-03 0.0 
0.0 0.0 0.0 
-6.353159443084e-06 1.350443981029e-04 0.0 
1.350443981029e-04 1.318259657731e-03 0.0 
0.0 0.0 0.0 
1.358823636854e-05 5.470971851517e-05 0.0 
5.470971851517e-05 1.203362741121e-03 0.0 
0.0 0.0 0.0 
-2.538367395988e-05 1.338067122556e-05 0.0 
1.338067122556e-05 1.439635793553e-03 0.0 
0.0 0.0 0.0 
1.072309110395e-06 1.455645418244e-04 0.0 
1.455645418244e-04 1.378938616502e-03 0.0 
0.0 0.0 0.0 
2.625414980817e-05 8.208411673929e-05 0.0 
8.208411673929e-05 1.179308198417e-03 0.0 
0.0 0.0 0.0 
3.123230305269e-05 9.154967684840e-05 0.0 
9.154967684840e-05 1.178438477524e-03 0.0 
0.0 0.0 0.0 
4.746845748804e-05 -7.022370665108e-06 0.0 
-7.022370665108e-06 4.191801077471e-04 0.0 
0.0 0.0 0.0 
1.559587897182e-05 5.409286261464e-05 0.0 
5.409286261464e-05 1.257870926793e-03 0.0 
0.0 0.0 0.0 
-5.468947622578e-05 9.519488611315e-06 0.0 
9.519488611315e-06 1.155394939199e-03 0.0 
0.0 0.0 0.0 
-1.611466287121e-05 7.445814491750e-06 0.0 
7.445814491750e-06 1.559104251000e-03 0.0 
0.0 0.0 0.0 
-1.730466597794e-07 -2.057877526506e-05 0.0 
-2.057877526506e-05 1.127419223044e-04 0.0 
0.0 0.0 0.0 
-2.048689980527e-05 2.585543831675e-06 0.0 
2.585543831675e-06 1.515155616312e-03 0.0 
0.0 0.0 0.0 
-3.320630870873e-05 4.249136103004e-06 0.0 
4.249136103004e-06 1.363575761911e-03 0.0 
0.0 0.0 0.0 
6.705752285896e-06 -5.729639399630e-06 0.0 
-5.729639399630e-06 1.084238684117e-04 0.0 
0.0 0.0 0.0 
2.907038105282e-05 -6.021748027559e-07 0.0 
-6.021748027559e-07 2.178182266950e-04 0.0 
0.0 0.0 0.0 
-4.177048245491e-05 1.076150971332e-04 0.0 
1.076150971332e-04 1.381958172113e-03 0.0 
0.0 0.0 0.0 
-9.448094369313e-06 2.995793587318e-05 0.0 
2.995793587318e-05 1.607951114655e-03 0.0 
0.0 0.0 0.0 
-1.553553021538e-05 1.998852146473e-06 0.0 
1.998852146473e-06 1.567477261636e-03 0.0 
0.0 0.0 0.0 
1.161861021792e-05 1.539263069994e-04 0.0 
1.539263069994e-04 1.349966218817e-03 0.0 
0.0 0.0 0.0 
-3.864112964735e-05 1.073996848027e-05 0.0 
1.073996848027e-05 1.250316572330e-03 0.0 
0.0 0.0 0.0 
-1.914594093388e-05 -1.211000328801e-05 0.0 
-1.211000328801e-05 6.519794549109e-05 0.0 
0.0 0.0 0.0 
-1.262457732876e-05 3.974865758942e-05 0.0 
3.974865758942e-05 1.307069166305e-04 0.0 
0.0 0.0 0.0 
-1.129304571612e-05 -4.134369507838e-06 0.0 
-4.134369507838e-06 7.328775211235e-05 0.0 
0.0 0.0 0.0 
1.492526644054e-06 -2.427567945066e-05 0.0 
-2.427567945066e-05 1.530449061034e-04 0.0 
0.0 0.0 0.0 
-7.916886624970e-05 8.697195314580e-05 0.0 
8.697195314580e-05 6.390402306455e-05 0.0 
0.0 0.0 0.0 
6.208566888888e-05 3.891651733668e-06 0.0 
3.891651733668e-06 5.710360997000e-04 0.0 
0.0 0.0 0.0 
2.955252840464e-05 2.147303670784e-05 0.0 
2.147303670784e-05 1.118887882958e-03 0.0 
0.0 0.0 0.0 
-2.740519802358e-05 8.933555184274e-05 0.0 
8.933555184274e-05 1.526524879099e-03 0.0 
0.0 0.0 0.0 
-6.867422495505e-05 2.895751077026e-05 0.0 
2.895751077026e-05 1.252435410993e-03 0.0 
0.0 0.0 0.0 
5.734367164889e-05 -9.371252966370e-06 0.0 
-9.371252966370e-06 4.955154339845e-04 0.0 
0.0 0.0 0.0 
3.068185189203e-05 6.764620356678e-05 0.0 
6.764620356678e-05 1.152708662858e-03 0.0 
0.0 0.0 0.0 
3.737676284055e-05 1.153205100048e-04 0.0 
1.153205100048e-04 1.188075127641e-03 0.0 
0.0 0.0 0.0 
7.661345873267e-07 1.567655184713e-04 0.0 
1.567655184713e-04 1.404543140943e-03 0.0 
0.0 0.0 0.0 
-1.681775163043e-05 1.293960727786e-04 0.0 
1.293960727786e-04 1.441999008830e-03 0.0 
0.0 0.0 0.0 
-3.259585141802e-05 1.139545588964e-04 0.0 
1.139545588964e-04 1.434689570471e-03 0.0 
0.0 0.0 0.0 
-1.505409542357e-06 -1.261227613622e-05 0.0 
-1.261227613622e-05 1.104923074264e-04 0.0 
0.0 0.0 0.0 
-3.433927476237e-05 -1.162541199347e-05 0.0 
-1.162541199347e-05 1.159134513822e-04 0.0 
0.0 0.0 0.0 
2.717322711199e-05 2.338384443011e-05 0.0 
2.338384443011e-05 1.128096483197e-03 0.0 
0.0 0.0 0.0 
1.259330936398e-05 -1.961663976997e-06 0.0 
-1.961663976997e-06 1.057604946921e-04 0.0 
0.0 0.0 0.0 
1.140418079970e-05 5.895620344476e-06 0.0 
5.895620344476e-06 1.311403406112e-04 0.0 
0.0 0.0 0.0 
-2.555017912431e-05 1.097567290347e-04 0.0 
1.097567290347e-04 1.698822551313e-04 0.0 
0.0 0.0 0.0 
-3.934065710087e-06 -1.953473206478e-05 0.0 
-1.953473206478e-05 1.054564703502e-04 0.0 
0.0 0.0 0.0 
1.316131919671e-05 9.007096501341e-05 0.0 
9.007096501341e-05 1.230389080346e-03 0.0 
0.0 0.0 0.0 
-1.372006179390e-05 1.191465692696e-04 0.0 
1.191465692696e-04 1.529692802059e-03 0.0 
0.0 0.0 0.0 
-1.492112627255e-05 2.489173362342e-05 0.0 
2.489173362342e-05 1.573910679778e-03 0.0 
0.0 0.0 0.0 
-1.550857385069e-06 1.476378911799e-04 0.0 
1.476378911799e-04 1.418990001358e-03 0.0 
0.0 0.0 0.0 
3.305852022351e-05 1.045916795094e-04 0.0 
1.045916795094e-04 1.161960280961e-03 0.0 
0.0 0.0 0.0 
-3.610171307034e-05 1.140473066268e-05 0.0 
1.140473066268e-05 1.285057449850e-03 0.0 
0.0 0.0 0.0 
0.0 4.101443980266e-05 0.0 
4.101443980266e-05 1.655175633240e-03 0.0 
0.0 0.0 0.0 
4.242621106387e-05 -6.202801342696e-06 0.0 
-6.202801342696e-06 2.639878280934e-04 0.0 
0.0 0.0 0.0 
-4.522539666330e-05 1.390904600440e-06 0.0 
1.390904600440e-06 1.098748913937e-03 0.0 
0.0 0.0 0.0 
-3.369628437389e-06 -1.486965747230e-05 0.0 
-1.486965747230e-05 1.625466573536e-04 0.0 
0.0 0.0 0.0 
1.798464517311e-06 -5.615582596771e-06 0.0 
-5.615582596771e-06 5.749169119729e-05 0.0 
0.0 0.0 0.0 
1.487559155522e-05 3.858022399948e-05 0.0 
3.858022399948e-05 1.248723662631e-03 0.0 
0.0 0.0 0.0 
-6.515594684231e-05 1.703258106102e-05 0.0 
1.703258106102e-05 1.161368645744e-03 0.0 
0.0 0.0 0.0 
1.245599394561e-05 -5.946632308296e-06 0.0 
-5.946632308296e-06 1.547697900739e-04 0.0 
0.0 0.0 0.0 
5.992628856100e-05 5.355641882815e-06 0.0 
5.355641882815e-06 5.477180078506e-04 0.0 
0.0 0.0 0.0 
-2.097432110804e-05 1.225659413297e-04 0.0 
1.225659413297e-04 1.537517076644e-03 0.0 
0.0 0.0 0.0 
-2.040214141708e-05 2.539246771170e-05 0.0 
2.539246771170e-05 1.567499428321e-03 0.0 
0.0 0.0 0.0 
-1.275336520534e-05 6.623963810252e-05 0.0 
6.623963810252e-05 1.594955491543e-03 0.0 
0.0 0.0 0.0 
4.354229961034e-05 -7.117568183770e-06 0.0 
-7.117568183770e-06 3.806771478641e-04 0.0 
0.0 0.0 0.0 
-1.972842391662e-05 1.462205160583e-07 0.0 
1.462205160583e-07 1.193638975077e-04 0.0 
0.0 0.0 0.0 
2.218019004396e-05 5.951307967945e-05 0.0 
5.951307967945e-05 1.205235255226e-03 0.0 
0.0 0.0 0.0 
-4.909565221589e-06 4.524316191057e-06 0.0 
4.524316191057e-06 1.661507574815e-03 0.0 
0.0 0.0 0.0 
1.126254029016e-05 7.551939388708e-06 0.0 
7.551939388708e-06 1.242413650871e-03 0.0 
0.0 0.0 0.0 
-3.889405797952e-05 3.318252084889e-06 0.0 
3.318252084889e-06 1.143815034230e-03 0.0 
0.0 0.0 0.0 
2.305309836803e-05 1.112257247731e-04 0.0 
1.112257247731e-04 1.211828833934e-03 0.0 
0.0 0.0 0.0 
1.922783541475e-05 -1.064358431218e-05 0.0 
-1.064358431218e-05 1.578831018556e-04 0.0 
0.0 0.0 0.0 
-2.038587559361e-05 5.455203029955e-05 0.0 
5.455203029955e-05 1.569341221571e-03 0.0 
0.0 0.0 0.0 
-2.976680454458e-06 -8.515213677263e-06 0.0 
-8.515213677263e-06 5.614366126738e-05 0.0 
0.0 0.0 0.0 
1.229142765902e-05 1.060871970282e-04 0.0 
1.060871970282e-04 1.254885819829e-03 0.0 
0.0 0.0 0.0 
-2.197447060936e-05 7.460337583757e-05 0.0 
7.460337583757e-05 1.587456467082e-03 0.0 
0.0 0.0 0.0 
-2.268842087982e-05 1.216440029171e-05 0.0 
1.216440029171e-05 7.413508016785e-05 0.0 
0.0 0.0 0.0 
-1.683136423691e-05 1.347283618669e-04 0.0 
1.347283618669e-04 1.359097033997e-03 0.0 
0.0 0.0 0.0 
-2.837763493191e-05 1.691209873549e-06 0.0 
1.691209873549e-06 1.408871939732e-03 0.0 
0.0 0.0 0.0 
-7.232353595343e-06 2.178403188950e-05 0.0 
2.178403188950e-05 1.613517498309e-03 0.0 
0.0 0.0 0.0 
0.0 1.506385251587e-04 0.0 
1.506385251587e-04 1.403752089674e-03 0.0 
0.0 0.0 0.0 
-3.309547100394e-05 -5.241529376598e-06 0.0 
-5.241529376598e-06 1.326189324185e-03 0.0 
0.0 0.0 0.0 
-1.204876366434e-05 1.143578210956e-04 0.0 
1.143578210956e-04 1.544664091309e-03 0.0 
0.0 0.0 0.0 
-2.812111884698e-05 6.058404624467e-05 0.0 
6.058404624467e-05 1.558817552222e-03 0.0 
0.0 0.0 0.0 
-2.984484398805e-05 4.144728769048e-06 0.0 
4.144728769048e-06 1.362808331001e-03 0.0 
0.0 0.0 0.0 
-2.222864804391e-05 1.114504470950e-04 0.0 
1.114504470950e-04 1.503668781181e-03 0.0 
0.0 0.0 0.0 
5.454995903920e-05 -6.328993008579e-06 0.0 
-6.328993008579e-06 4.620735760563e-04 0.0 
0.0 0.0 0.0 
-4.192230528910e-05 -2.473895970021e-07 0.0 
-2.473895970021e-07 1.098415482964e-03 0.0 
0.0 0.0 0.0 
-6.758947809216e-07 1.486247949379e-04 0.0 
1.486247949379e-04 1.376562131304e-03 0.0 
0.0 0.0 0.0 
-7.148975927795e-06 5.475954951487e-06 0.0 
5.475954951487e-06 1.619334495830e-03 0.0 
0.0 0.0 0.0 
1.294594826673e-06 1.512027034296e-06 0.0 
1.512027034296e-06 1.394634948926e-05 0.0 
0.0 0.0 0.0 
-3.977450540871e-05 1.274759992824e-06 0.0 
1.274759992824e-06 1.097952303763e-03 0.0 
0.0 0.0 0.0 
1.482604221592e-05 2.549354079255e-06 0.0 
2.549354079255e-06 1.191896438232e-03 0.0 
0.0 0.0 0.0 
2.137237327693e-05 -6.253898765879e-06 0.0 
-6.253898765879e-06 2.027023629598e-04 0.0 
0.0 0.0 0.0 
2.816149876050e-05 1.274496456930e-04 0.0 
1.274496456930e-04 1.233960131502e-03 0.0 
0.0 0.0 0.0 
-3.285104806383e-05 7.309401749188e-05 0.0 
7.309401749188e-05 1.542719370157e-03 0.0 
0.0 0.0 0.0 
-1.374958069755e-05 1.683268873110e-05 0.0 
1.683268873110e-05 1.609761508293e-03 0.0 
0.0 0.0 0.0 
2.041074330550e-05 -2.759812351669e-06 0.0 
-2.759812351669e-06 1.940777216385e-04 0.0 
0.0 0.0 0.0 
-7.981156089354e-07 8.684034626483e-05 0.0 
8.684034626483e-05 2.119931455784e-04 0.0 
0.0 0.0 0.0 
6.186185866053e-05 8.313599582256e-06 0.0 
8.313599582256e-06 6.792065568346e-04 0.0 
0.0 0.0 0.0 
-2.367118078561e-05 6.366120322144e-06 0.0 
6.366120322144e-06 1.473606701018e-03 0.0 
0.0 0.0 0.0 
-1.097079285619e-04 -6.017857305742e-06 0.0 
-6.017857305742e-06 6.367415799868e-05 0.0 
0.0 0.0 0.0 
-1.065278251577e-05 5.356264438273e-05 0.0 
5.356264438273e-05 1.605402720563e-03 0.0 
0.0 0.0 0.0 
-3.284457978159e-05 3.592338045299e-06 0.0 
3.592338045299e-06 1.307867871002e-03 0.0 
0.0 0.0 0.0 
1.725020074783e-05 -2.238119167264e-05 0.0 
-2.238119167264e-05 1.962194370928e-04 0.0 
0.0 0.0 0.0 
-3.685014559029e-05 5.132743051305e-06 0.0 
5.132743051305e-06 1.265315937283e-03 0.0 
0.0 0.0 0.0 
-7.103779521067e-06 1.511862665337e-04 0.0 
1.511862665337e-04 1.427984840948e-03 0.0 
0.0 0.0 0.0 
6.289380041991e-05 -6.168079239937e-06 0.0 
-6.168079239937e-06 7.140506742709e-04 0.0 
0.0 0.0 0.0 
-7.389153808013e-05 6.505413034249e-05 0.0 
6.505413034249e-05 1.215790230560e-04 0.0 
0.0 0.0 0.0 
5.147235215075e-05 -6.243425709730e-07 0.0 
-6.243425709730e-07 4.171876128467e-04 0.0 
0.0 0.0 0.0 
6.497864174659e-05 4.647501316339e-06 0.0 
4.647501316339e-06 6.180392408728e-04 0.0 
0.0 0.0 0.0 
6.413058373433e-05 8.824848351488e-06 0.0 
8.824848351488e-06 7.441983501093e-04 0.0 
0.0 0.0 0.0 
3.084044614354e-06 1.416132476877e-04 0.0 
1.416132476877e-04 1.334696254845e-03 0.0 
0.0 0.0 0.0 
6.158049652605e-05 -3.831715570194e-06 0.0 
-3.831715570194e-06 6.018191988018e-04 0.0 
0.0 0.0 0.0 
6.505516027677e-05 3.866533859769e-06 0.0 
3.866533859769e-06 6.414030283848e-04 0.0 
0.0 0.0 0.0 
-3.418039169034e-06 -5.119299437567e-06 0.0 
-5.119299437567e-06 9.739590661972e-05 0.0 
0.0 0.0 0.0 
2.649887811890e-05 5.722391451668e-05 0.0 
5.722391451668e-05 1.154910849007e-03 0.0 
0.0 0.0 0.0 
-2.238970475532e-05 1.311699292871e-04 0.0 
1.311699292871e-04 1.402857275098e-03 0.0 
0.0 0.0 0.0 
3.554402264117e-05 9.548528525805e-05 0.0 
9.548528525805e-05 2.320955714399e-04 0.0 
0.0 0.0 0.0 
-5.008679227925e-06 1.424214300602e-06 0.0 
1.424214300602e-06 1.617432053473e-03 0.0 
0.0 0.0 0.0 
1.235457904558e-05 9.812644573095e-06 0.0 
9.812644573095e-06 1.189792821823e-03 0.0 
0.0 0.0 0.0 
-3.954592647537e-05 -3.206539250698e-06 0.0 
-3.206539250698e-06 1.147255840260e-03 0.0 
0.0 0.0 0.0 
-3.480952779500e-05 3.023407181589e-06 0.0 
3.023407181589e-06 1.307725852709e-03 0.0 
0.0 0.0 0.0 
6.309343848110e-05 4.927545247885e-06 0.0 
4.927545247885e-06 6.008374393749e-04 0.0 
0.0 0.0 0.0 
6.431549623342e-05 -1.685352271970e-06 0.0 
-1.685352271970e-06 6.211658306243e-04 0.0 
0.0 0.0 0.0 
6.165514103085e-05 4.729016875932e-07 0.0 
4.729016875932e-07 6.441281478313e-04 0.0 
0.0 0.0 0.0 
3.001435832983e-05 1.250957001884e-04 0.0 
1.250957001884e-04 1.194638527467e-03 0.0 
0.0 0.0 0.0 
1.438525991748e-05 -1.182403697695e-05 0.0 
-1.182403697695e-05 1.573614108195e-04 0.0 
0.0 0.0 0.0 
-2.637431538766e-05 1.298075804498e-04 0.0 
1.298075804498e-04 1.449432477703e-03 0.0 
0.0 0.0 0.0 
-3.745976527370e-05 3.173375177076e-06 0.0 
3.173375177076e-06 1.201654027910e-03 0.0 
0.0 0.0 0.0 
-1.998829856809e-05 4.814647347743e-05 0.0 
4.814647347743e-05 1.602921017699e-03 0.0 
0.0 0.0 0.0 
2.490903266050e-05 1.156997335744e-04 0.0 
1.156997335744e-04 1.193488816559e-03 0.0 
0.0 0.0 0.0 
-3.841247151526e-05 2.692446469992e-06 0.0 
2.692446469992e-06 1.266567625183e-03 0.0 
0.0 0.0 0.0 
-2.972150859193e-05 1.100370523615e-04 0.0 
1.100370523615e-04 1.469200021601e-03 0.0 
0.0 0.0 0.0 
7.578953834741e-06 1.449543913773e-04 0.0 
1.449543913773e-04 1.333368855311e-03 0.0 
0.0 0.0 0.0 
1.923955318617e-06 1.543327947203e-04 0.0 
1.543327947203e-04 1.386810373523e-03 0.0 
0.0 0.0 0.0 
-4.078715654154e-05 7.685570510620e-05 0.0 
7.685570510620e-05 1.007977341869e-04 0.0 
0.0 0.0 0.0 
-3.627354649427e-05 1.072208452859e-04 0.0 
1.072208452859e-04 1.469532581809e-03 0.0 
0.0 0.0 0.0 
-2.668537298078e-05 1.222152758387e-04 0.0 
1.222152758387e-04 1.487369019968e-03 0.0 
0.0 0.0 0.0 
-2.468513167875e-06 -1.333986011828e-05 0.0 
-1.333986011828e-05 1.018168112188e-04 0.0 
0.0 0.0 0.0 
6.172165034535e-05 -3.058042851367e-06 0.0 
-3.058042851367e-06 5.695598172897e-04 0.0 
0.0 0.0 0.0 
-5.834136504745e-05 5.379829663200e-05 0.0 
5.379829663200e-05 1.175585771833e-04 0.0 
0.0 0.0 0.0 
-3.259493311092e-05 1.105544394852e-04 0.0 
1.105544394852e-04 1.507736732010e-03 0.0 
0.0 0.0 0.0 
-3.871583192583e-05 1.455855276693e-06 0.0 
1.455855276693e-06 6.504874649964e-04 0.0 
0.0 0.0 0.0 
-3.842171461343e-05 3.372022718227e-06 0.0 
3.372022718227e-06 6.539004743955e-04 0.0 
0.0 0.0 0.0 
-3.282312679864e-05 2.324061509713e-06 0.0 
2.324061509713e-06 6.539728048616e-04 0.0 
0.0 0.0 0.0 
-3.668920445654e-05 5.855814988144e-07 0.0 
5.855814988144e-07 6.541292983235e-04 0.0 
0.0 0.0 0.0 
-3.354065334438e-05 7.171317519118e-07 0.0 
7.171317519118e-07 6.541036398033e-04 0.0 
0.0 0.0 0.0 
-3.565119906501e-05 -4.265704657751e-07 0.0 
-4.265704657751e-07 6.537905243704e-04 0.0 
0.0 0.0 0.0 
-3.352347019414e-05 -3.383751687676e-07 0.0 
-3.383751687676e-07 6.537643657516e-04 0.0 
0.0 0.0 0.0 
-3.484169315460e-05 -1.113603509469e-06 0.0 
-1.113603509469e-06 6.534398977007e-04 0.0 
0.0 0.0 0.0 
-3.277620706577e-05 -9.099561629766e-07 0.0 
-9.099561629766e-07 6.533816381695e-04 0.0 
0.0 0.0 0.0 
-3.396337035300e-05 -1.636744993262e-06 0.0 
-1.636744993262e-06 6.530247889653e-04 0.0 
0.0 0.0 0.0 
-3.145697866946e-05 -1.228656175250e-06 0.0 
-1.228656175250e-06 6.528972455027e-04 0.0 
0.0 0.0 0.0 
-3.288303049853e-05 -2.079101643767e-06 0.0 
-2.079101643767e-06 6.524932773670e-04 0.0 
0.0 0.0 0.0 
-2.965922849274e-05 -1.431951011017e-06 0.0 
-1.431951011017e-06 6.522606250157e-04 0.0 
0.0 0.0 0.0 
-3.154873476696e-05 -2.489041344882e-06 0.0 
-2.489041344882e-06 6.518245446825e-04 0.0 
0.0 0.0 0.0 
-2.742668856837e-05 -1.585571472258e-06 0.0 
-1.585571472258e-06 6.514489907290e-04 0.0 
0.0 0.0 0.0 
-2.994662603950e-05 -2.890111638399e-06 0.0 
-2.890111638399e-06 6.510146197090e-04 0.0 
0.0 0.0 0.0 
-2.477192300754e-05 -1.717570047040e-06 0.0 
-1.717570047040e-06 6.504537284833e-04 0.0 
0.0 0.0 0.0 
-2.807597801779e-05 -3.292234890813e-06 0.0 
-3.292234890813e-06 6.500654951256e-04 0.0 
0.0 0.0 0.0 
-2.168968950411e-05 -1.837887466051e-06 0.0 
-1.837887466051e-06 6.492699514231e-04 0.0 
0.0 0.0 0.0 
-8.296202498315e-07 2.070084623094e-05 0.0 
2.070084623094e-05 6.378968759511e-04 0.0 
0.0 0.0 0.0 
-2.594259808586e-05 -3.696855073192e-06 0.0 
-3.696855073192e-06 6.489824149771e-04 0.0 
0.0 0.0 0.0 
-1.816468861537e-05 -1.948901207789e-06 0.0 
-1.948901207789e-06 6.478948460917e-04 0.0 
0.0 0.0 0.0 
-2.355739528503e-05 -4.100848411966e-06 0.0 
-4.100848411966e-06 6.477751087779e-04 0.0 
0.0 0.0 0.0 
-2.732578754883e-05 1.579150879126e-05 0.0 
1.579150879126e-05 6.480727260298e-04 0.0 
0.0 0.0 0.0 
-1.417800691894e-05 -2.049658676222e-06 0.0 
-2.049658676222e-06 6.463289117689e-04 0.0 
0.0 0.0 0.0 
-2.094285809140e-05 -4.495571307296e-06 0.0 
-4.495571307296e-06 6.464652716074e-04 0.0 
0.0 0.0 0.0 
-9.716712746188e-06 -2.134957609439e-06 0.0 
-2.134957609439e-06 6.445833306759e-04 0.0 
0.0 0.0 0.0 
-1.815514703241e-05 -4.880938650031e-06 0.0 
-4.880938650031e-06 6.450762974062e-04 0.0 
0.0 0.0 0.0 
-4.782316542884e-06 -2.209848589698e-06 0.0 
-2.209848589698e-06 6.426686857566e-04 0.0 
0.0 0.0 0.0 
3.961151453935e-05 6.224175371324e-07 0.0 
6.224175371324e-07 6.013125263369e-04 0.0 
0.0 0.0 0.0 
-1.525227034127e-05 -5.249475015675e-06 0.0 
-5.249475015675e-06 6.436438648487e-04 0.0 
0.0 0.0 0.0 
5.949412145156e-07 -2.266780118252e-06 0.0 
-2.266780118252e-06 6.406044319212e-04 0.0 
0.0 0.0 0.0 
-1.236052834952e-05 -5.608014629620e-06 0.0 
-5.608014629620e-06 6.421875334546e-04 0.0 
0.0 0.0 0.0 
6.363828646272e-06 -2.324214540610e-06 0.0 
-2.324214540610e-06 6.383940132122e-04 0.0 
0.0 0.0 0.0 
-9.563804999613e-06 -5.893557750947e-06 0.0 
-5.893557750947e-06 6.408048645188e-04 0.0 
0.0 0.0 0.0 
1.242551931324e-05 -2.317421345668e-06 0.0 
-2.317421345668e-06 6.361164311284e-04 0.0 
0.0 0.0 0.0 
-7.215552305762e-06 -6.157469291904e-06 0.0 
-6.157469291904e-06 6.394916786341e-04 0.0 
0.0 0.0 0.0 
1.864899570103e-05 -2.295551589108e-06 0.0 
-2.295551589108e-06 6.337188888814e-04 0.0 
0.0 0.0 0.0 
-5.361866916243e-06 -6.117004005221e-06 0.0 
-6.117004005221e-06 6.385386391401e-04 0.0 
0.0 0.0 0.0 
2.478000455386e-05 -1.981183804509e-06 0.0 
-1.981183804509e-06 6.314921907988e-04 0.0 
0.0 0.0 0.0 
-4.989819110346e-06 -6.056913170156e-06 0.0 
-6.056913170156e-06 6.377496878791e-04 0.0 
0.0 0.0 0.0 
-4.694983013664e-05 5.717699279767e-05 0.0 
5.717699279767e-05 6.668408522081e-04 0.0 
0.0 0.0 0.0 
-5.740472315274e-06 -4.573951033536e-06 0.0 
-4.573951033536e-06 6.382511061145e-04 0.0 
0.0 0.0 0.0 
3.041740117182e-05 -1.530128982269e-06 0.0 
-1.530128982269e-06 6.290297917173e-04 0.0 
0.0 0.0 0.0 
-1.092916707646e-05 -3.897109104297e-06 0.0 
-3.897109104297e-06 6.387371458452e-04 0.0 
0.0 0.0 0.0 
3.473673793031e-05 -4.032354866378e-08 0.0 
-4.032354866378e-08 6.279878323929e-04 0.0 
0.0 0.0 0.0 
-1.328246900179e-05 3.057323936407e-06 0.0 
3.057323936407e-06 6.414271850304e-04 0.0 
0.0 0.0 0.0 
3.665290976729e-05 2.261758250622e-06 0.0 
2.261758250622e-06 6.250088863413e-04 0.0 
0.0 0.0 0.0 
3.325815882471e-05 1.097403307567e-05 0.0 
1.097403307567e-05 6.253189156591e-04 0.0 
0.0 0.0 0.0 
-3.133348169637e-05 6.090794578638e-06 0.0 
6.090794578638e-06 6.538181199054e-04 0.0 
0.0 0.0 0.0 
-4.593002159470e-05 -7.890462437064e-06 0.0 
-7.890462437064e-06 6.601076073556e-04 0.0 
0.0 0.0 0.0 
-4.034610025272e-05 1.019191029565e-05 0.0 
1.019191029565e-05 6.501520657902e-04 0.0 
0.0 0.0 0.0 
-3.966773475217e-05 1.654670651704e-07 0.0 
1.654670651704e-07 6.698858773269e-04 0.0 
0.0 0.0 0.0 
-4.662168837954e-05 2.319276435088e-06 0.0 
2.319276435088e-06 6.407461318854e-04 0.0 
0.0 0.0 0.0 
-3.253596975084e-05 5.857158268273e-05 0.0 
5.857158268273e-05 6.056304668038e-04 0.0 
0.0 0.0 0.0 
-3.822555584865e-05 -2.166614662131e-06 0.0 
-2.166614662131e-06 7.250140518960e-04 0.0 
0.0 0.0 0.0 
-3.842171461343e-05 6.611122362353e-07 0.0 
6.611122362353e-07 7.197839596862e-04 0.0 
0.0 0.0 0.0 
-3.785795350364e-05 -6.045845273599e-07 0.0 
-6.045845273599e-07 7.196728333871e-04 0.0 
0.0 0.0 0.0 
-3.668920445654e-05 -7.301539400349e-07 0.0 
-7.301539400349e-07 7.188863190244e-04 0.0 
0.0 0.0 0.0 
-3.716825064370e-05 -9.713831616461e-07 0.0 
-9.713831616461e-07 7.188568918743e-04 0.0 
0.0 0.0 0.0 
-3.565119906501e-05 -1.385572386332e-06 0.0 
-1.385572386332e-06 7.183485498041e-04 0.0 
0.0 0.0 0.0 
-3.648702725889e-05 -1.636284638716e-06 0.0 
-1.636284638716e-06 7.183112677351e-04 0.0 
0.0 0.0 0.0 
-3.484169315460e-05 -2.164621404546e-06 0.0 
-2.164621404546e-06 7.179459934683e-04 0.0 
0.0 0.0 0.0 
-3.585880463020e-05 -2.315478953878e-06 0.0 
-2.315478953878e-06 7.179252152614e-04 0.0 
0.0 0.0 0.0 
-3.396337035300e-05 -2.942748875816e-06 0.0 
-2.942748875816e-06 7.175828988482e-04 0.0 
0.0 0.0 0.0 
-3.521496632530e-05 -2.954738004595e-06 0.0 
-2.954738004595e-06 7.176010649426e-04 0.0 
0.0 0.0 0.0 
-3.288303049853e-05 -3.693628187170e-06 0.0 
-3.693628187170e-06 7.171777490553e-04 0.0 
0.0 0.0 0.0 
-3.449621099838e-05 -3.558214827221e-06 0.0 
-3.558214827221e-06 7.172563180762e-04 0.0 
0.0 0.0 0.0 
-3.154873476696e-05 -4.427352543493e-06 0.0 
-4.427352543493e-06 7.166808690109e-04 0.0 
0.0 0.0 0.0 
-3.366931618654e-05 -4.132910768163e-06 0.0 
-4.132910768163e-06 7.168474221100e-04 0.0 
0.0 0.0 0.0 
-2.994662603950e-05 -5.151012384463e-06 0.0 
-5.151012384463e-06 7.160767487122e-04 0.0 
0.0 0.0 0.0 
-3.273933144421e-05 -4.687230494995e-06 0.0 
-4.687230494995e-06 7.163651327113e-04 0.0 
0.0 0.0 0.0 
-2.807597801779e-05 -5.868984802616e-06 0.0 
-5.868984802616e-06 7.153586413249e-04 0.0 
0.0 0.0 0.0 
-3.152481572100e-05 2.144243032805e-05 0.0 
2.144243032805e-05 7.103205792343e-04 0.0 
0.0 0.0 0.0 
-3.172105369131e-05 -5.222785913143e-06 0.0 
-5.222785913143e-06 7.158118599193e-04 0.0 
0.0 0.0 0.0 
-2.594259808586e-05 -6.577440739804e-06 0.0 
-6.577440739804e-06 7.145280132392e-04 0.0 
0.0 0.0 0.0 
-3.063980842222e-05 -5.735867544842e-06 0.0 
-5.735867544842e-06 7.151991070597e-04 0.0 
0.0 0.0 0.0 
-1.328246900179e-05 1.504727522581e-05 0.0 
1.504727522581e-05 6.825448920431e-04 0.0 
0.0 0.0 0.0 
-2.355739528503e-05 -7.263689152805e-06 0.0 
-7.263689152805e-06 7.135884059271e-04 0.0 
0.0 0.0 0.0 
-4.417969645198e-05 1.668403040774e-05 0.0 
1.668403040774e-05 7.182426993375e-04 0.0 
0.0 0.0 0.0 
-2.952688983604e-05 -6.210251768396e-06 0.0 
-6.210251768396e-06 7.145442670271e-04 0.0 
0.0 0.0 0.0 
-2.094285809140e-05 -7.897040328403e-06 0.0 
-7.897040328403e-06 7.125466675459e-04 0.0 
0.0 0.0 0.0 
-2.843263035845e-05 -6.593694376986e-06 0.0 
-6.593694376986e-06 7.138815320409e-04 0.0 
0.0 0.0 0.0 
-1.815514703241e-05 -8.428979631777e-06 0.0 
-8.428979631777e-06 7.114613698784e-04 0.0 
0.0 0.0 0.0 
-2.748832707633e-05 -6.884047150681e-06 0.0 
-6.884047150681e-06 7.132662736233e-04 0.0 
0.0 0.0 0.0 
-1.525227034127e-05 -8.815725514579e-06 0.0 
-8.815725514579e-06 7.103127273904e-04 0.0 
0.0 0.0 0.0 
-2.676965887982e-05 -6.978679820520e-06 0.0 
-6.978679820520e-06 7.127354757266e-04 0.0 
0.0 0.0 0.0 
-1.236052834952e-05 -8.980488606135e-06 0.0 
-8.980488606135e-06 7.092178834633e-04 0.0 
0.0 0.0 0.0 
-4.787134910489e-05 3.954401395486e-05 0.0 
3.954401395486e-05 7.237565047136e-04 0.0 
0.0 0.0 0.0 
-2.649362432661e-05 -6.945225560342e-06 0.0 
-6.945225560342e-06 7.123435827892e-04 0.0 
0.0 0.0 0.0 
-9.563804999613e-06 -8.819603316167e-06 0.0 
-8.819603316167e-06 7.079782055672e-04 0.0 
0.0 0.0 0.0 
-2.662831871181e-05 -6.349636617756e-06 0.0 
-6.349636617756e-06 7.121344779581e-04 0.0 
0.0 0.0 0.0 
-7.215552305762e-06 -8.129445121607e-06 0.0 
-8.129445121607e-06 7.071085695667e-04 0.0 
0.0 0.0 0.0 
-5.361866916243e-06 -6.658352484790e-06 0.0 
-6.658352484790e-06 7.056707421214e-04 0.0 
0.0 0.0 0.0 
-2.790685131093e-05 -5.631120488341e-06 0.0 
-5.631120488341e-06 7.122320130781e-04 0.0 
0.0 0.0 0.0 
-4.989819110346e-06 -3.902379603661e-06 0.0 
-3.902379603661e-06 7.055352238037e-04 0.0 
0.0 0.0 0.0 
-2.962044288046e-05 -3.228766466203e-06 0.0 
-3.228766466203e-06 7.126425106865e-04 0.0 
0.0 0.0 0.0 
-5.740472315274e-06 1.073502013447e-06 0.0 
1.073502013447e-06 7.027845241432e-04 0.0 
0.0 0.0 0.0 
-1.092916707646e-05 1.011596475860e-05 0.0 
1.011596475860e-05 7.043546931504e-04 0.0 
0.0 0.0 0.0 
-3.422122621444e-05 -1.068573907322e-06 0.0 
-1.068573907322e-06 7.135251885122e-04 0.0 
0.0 0.0 0.0 
-3.504572662527e-05 6.932380397549e-06 0.0 
6.932380397549e-06 7.142415043835e-04 0.0 
0.0 0.0 0.0 
-4.148299215812e-05 1.828997104602e-05 0.0 
1.828997104602e-05 7.029037562909e-04 0.0 
0.0 0.0 0.0 
-3.638674304518e-05 -8.927315585220e-06 0.0 
-8.927315585220e-06 7.164287428354e-04 0.0 
0.0 0.0 0.0 
-4.143348032026e-05 7.980877031473e-06 0.0 
7.980877031473e-06 7.254567632193e-04 0.0 
0.0 0.0 0.0 
-3.966773475217e-05 -1.300629159360e-06 0.0 
-1.300629159360e-06 7.046468555025e-04 0.0 
0.0 0.0 0.0 
-3.819172740360e-05 5.996850891485e-07 0.0 
5.996850891485e-07 7.367958865583e-04 0.0 
0.0 0.0 0.0 
-2.732578754883e-05 4.037748423959e-05 0.0 
4.037748423959e-05 6.772769419450e-04 0.0 
0.0 0.0 0.0 
-3.822555584865e-05 -2.982337080479e-06 0.0 
-2.982337080479e-06 7.775232842293e-04 0.0 
0.0 0.0 0.0 
-3.861629913104e-05 -8.357606831488e-08 0.0 
-8.357606831488e-08 7.834262443294e-04 0.0 
0.0 0.0 0.0 
-3.785795350364e-05 -1.729740679891e-06 0.0 
-1.729740679891e-06 7.835679555326e-04 0.0 
0.0 0.0 0.0 
-3.850759900070e-05 -1.873127533340e-06 0.0 
-1.873127533340e-06 7.838675567291e-04 0.0 
0.0 0.0 0.0 
-3.716825064370e-05 -1.881968160524e-06 0.0 
-1.881968160524e-06 7.838630131933e-04 0.0 
0.0 0.0 0.0 
-3.825916279776e-05 -2.475358010726e-06 0.0 
-2.475358010726e-06 7.836888688921e-04 0.0 
0.0 0.0 0.0 
-3.648702725889e-05 -2.393036741346e-06 0.0 
-2.393036741346e-06 7.836611522589e-04 0.0 
0.0 0.0 0.0 
-3.799920991576e-05 -3.172446317571e-06 0.0 
-3.172446317571e-06 7.834730833198e-04 0.0 
0.0 0.0 0.0 
-3.585880463020e-05 -3.073940401076e-06 0.0 
-3.073940401076e-06 7.834263806479e-04 0.0 
0.0 0.0 0.0 
-3.777719393760e-05 -3.982621515958e-06 0.0 
-3.982621515958e-06 7.832966435919e-04 0.0 
0.0 0.0 0.0 
-3.521496632530e-05 -3.808655876186e-06 0.0 
-3.808655876186e-06 7.832076694771e-04 0.0 
0.0 0.0 0.0 
-3.759933483283e-05 -4.854051740706e-06 0.0 
-4.854051740706e-06 7.831489474253e-04 0.0 
0.0 0.0 0.0 
-3.449621099838e-05 -4.547724849711e-06 0.0 
-4.547724849711e-06 7.829838587743e-04 0.0 
0.0 0.0 0.0 
-3.742935463824e-05 -5.752601247358e-06 0.0 
-5.752601247358e-06 7.829948283067e-04 0.0 
0.0 0.0 0.0 
-3.366931618654e-05 -5.259062288182e-06 0.0 
-5.259062288182e-06 7.827094374113e-04 0.0 
0.0 0.0 0.0 
-3.726495241363e-05 -6.630075241279e-06 0.0 
-6.630075241279e-06 7.828301831123e-04 0.0 
0.0 0.0 0.0 
-3.273933144421e-05 -5.931808591457e-06 0.0 
-5.931808591457e-06 7.823837085927e-04 0.0 
0.0 0.0 0.0 
-4.745132913830e-05 1.640350957703e-05 0.0 
1.640350957703e-05 7.807626489196e-04 0.0 
0.0 0.0 0.0 
-3.713797708449e-05 -7.475895073635e-06 0.0 
-7.475895073635e-06 7.826609440944e-04 0.0 
0.0 0.0 0.0 
-3.172105369131e-05 -6.556374845304e-06 0.0 
-6.556374845304e-06 7.820051544214e-04 0.0 
0.0 0.0 0.0 
-5.410860465271e-05 1.219190974199e-05 0.0 
1.219190974199e-05 7.859954794411e-04 0.0 
0.0 0.0 0.0 
-3.708293078708e-05 -8.271143925509e-06 0.0 
-8.271143925509e-06 7.824998344808e-04 0.0 
0.0 0.0 0.0 
-3.063980842222e-05 -7.119725873390e-06 0.0 
-7.119725873390e-06 7.815807168658e-04 0.0 
0.0 0.0 0.0 
-3.711669432116e-05 -8.991913744843e-06 0.0 
-8.991913744843e-06 7.823515469410e-04 0.0 
0.0 0.0 0.0 
-2.952688983604e-05 -7.581673065500e-06 0.0 
-7.581673065500e-06 7.810992607622e-04 0.0 
0.0 0.0 0.0 
-3.726951647198e-05 -9.577067301203e-06 0.0 
-9.577067301203e-06 7.822210488100e-04 0.0 
0.0 0.0 0.0 
-3.504572662527e-05 1.490083909606e-05 0.0 
1.490083909606e-05 7.552242764581e-04 0.0 
0.0 0.0 0.0 
-2.843263035845e-05 -7.853660363393e-06 0.0 
-7.853660363393e-06 7.805411676904e-04 0.0 
0.0 0.0 0.0 
-3.758684676469e-05 -9.864413659021e-06 0.0 
-9.864413659021e-06 7.821736156579e-04 0.0 
0.0 0.0 0.0 
-2.748832707633e-05 -7.869776328260e-06 0.0 
-7.869776328260e-06 7.800240869533e-04 0.0 
0.0 0.0 0.0 
-3.837549862296e-05 -9.878247745791e-06 0.0 
-9.878247745791e-06 7.822615214408e-04 0.0 
0.0 0.0 0.0 
-2.676965887982e-05 -7.524314728861e-06 0.0 
-7.524314728861e-06 7.794922674218e-04 0.0 
0.0 0.0 0.0 
-3.944528136635e-05 -9.340749675313e-06 0.0 
-9.340749675313e-06 7.825143372646e-04 0.0 
0.0 0.0 0.0 
-2.649362432661e-05 -6.720118465423e-06 0.0 
-6.720118465423e-06 7.791243593149e-04 0.0 
0.0 0.0 0.0 
-4.147650817565e-05 -8.463008279045e-06 0.0 
-8.463008279045e-06 7.828817200406e-04 0.0 
0.0 0.0 0.0 
-2.662831871181e-05 -5.101283424259e-06 0.0 
-5.101283424259e-06 7.783690241867e-04 0.0 
0.0 0.0 0.0 
-4.337744294547e-05 -6.011863211368e-06 0.0 
-6.011863211368e-06 7.834662169413e-04 0.0 
0.0 0.0 0.0 
-5.506886495776e-05 2.917785802561e-05 0.0 
2.917785802561e-05 7.899950043213e-04 0.0 
0.0 0.0 0.0 
-4.766023493774e-05 -3.573686346081e-06 0.0 
-3.573686346081e-06 7.839930397708e-04 0.0 
0.0 0.0 0.0 
-2.790685131093e-05 -2.550650843985e-06 0.0 
-2.550650843985e-06 7.783885990917e-04 0.0 
0.0 0.0 0.0 
-4.832715884262e-05 3.591415207126e-06 0.0 
3.591415207126e-06 7.841737251064e-04 0.0 
0.0 0.0 0.0 
-2.962044288046e-05 1.955291384289e-06 0.0 
1.955291384289e-06 7.763479461957e-04 0.0 
0.0 0.0 0.0 
-3.422122621444e-05 9.077778427145e-06 0.0 
9.077778427145e-06 7.767364465732e-04 0.0 
0.0 0.0 0.0 
-5.064808099642e-05 1.628744447732e-05 0.0 
1.628744447732e-05 7.672242762642e-04 0.0 
0.0 0.0 0.0 
-4.060230952763e-05 -8.962601441471e-06 0.0 
-8.962601441471e-06 7.853250496070e-04 0.0 
0.0 0.0 0.0 
-3.599045752889e-05 7.602019424420e-06 0.0 
7.602019424420e-06 7.770620385317e-04 0.0 
0.0 0.0 0.0 
-3.834863569374e-05 -1.411349755866e-06 0.0 
-1.411349755866e-06 7.979424846094e-04 0.0 
0.0 0.0 0.0 
-3.819172740360e-05 3.034687907616e-07 0.0 
3.034687907616e-07 7.648888683394e-04 0.0 
0.0 0.0 0.0 
-4.417969645198e-05 3.123519514687e-05 0.0 
3.123519514687e-05 7.522282404053e-04 0.0 
0.0 0.0 0.0 
-3.909289023296e-05 -2.952654527872e-06 0.0 
-2.952654527872e-06 8.536787277091e-04 0.0 
0.0 0.0 0.0 
-3.861629913104e-05 -3.827094711664e-07 0.0 
-3.827094711664e-07 8.483657086318e-04 0.0 
0.0 0.0 0.0 
-3.924840474656e-05 -1.927369450270e-06 0.0 
-1.927369450270e-06 8.482128228979e-04 0.0 
0.0 0.0 0.0 
-3.850759900070e-05 -2.210561803263e-06 0.0 
-2.210561803263e-06 8.481028768346e-04 0.0 
0.0 0.0 0.0 
-3.935301736946e-05 -2.289041573087e-06 0.0 
-2.289041573087e-06 8.480958603476e-04 0.0 
0.0 0.0 0.0 
-3.825916279776e-05 -2.795030509976e-06 0.0 
-2.795030509976e-06 8.481206182307e-04 0.0 
0.0 0.0 0.0 
-3.948560706757e-05 -2.811708217151e-06 0.0 
-2.811708217151e-06 8.481295471321e-04 0.0 
0.0 0.0 0.0 
-3.799920991576e-05 -3.452782924565e-06 0.0 
-3.452782924565e-06 8.481134050506e-04 0.0 
0.0 0.0 0.0 
-3.965540265560e-05 -3.432977608366e-06 0.0 
-3.432977608366e-06 8.481442343913e-04 0.0 
0.0 0.0 0.0 
-3.777719393760e-05 -4.214300192577e-06 0.0 
-4.214300192577e-06 8.481154769855e-04 0.0 
0.0 0.0 0.0 
-3.993303006633e-05 -4.101448127899e-06 0.0 
-4.101448127899e-06 8.481978389177e-04 0.0 
0.0 0.0 0.0 
-3.759933483283e-05 -5.032200699233e-06 0.0 
-5.032200699233e-06 8.481452093418e-04 0.0 
0.0 0.0 0.0 
-4.032436906976e-05 -4.827073179680e-06 0.0 
-4.827073179680e-06 8.483004581470e-04 0.0 
0.0 0.0 0.0 
-3.742935463824e-05 -5.879573374736e-06 0.0 
-5.879573374736e-06 8.481316492228e-04 0.0 
0.0 0.0 0.0 
-4.079535436929e-05 -5.533317117242e-06 0.0 
-5.533317117242e-06 8.484047917148e-04 0.0 
0.0 0.0 0.0 
-3.726495241363e-05 -6.688647142881e-06 0.0 
-6.688647142881e-06 8.480751055795e-04 0.0 
0.0 0.0 0.0 
-5.808322020395e-05 1.112491057116e-05 0.0 
1.112491057116e-05 8.500408597387e-04 0.0 
0.0 0.0 0.0 
-4.133852036570e-05 -6.159267752487e-06 0.0 
-6.159267752487e-06 8.485195506822e-04 0.0 
0.0 0.0 0.0 
-3.713797708449e-05 -7.404014146234e-06 0.0 
-7.404014146234e-06 8.480238646766e-04 0.0 
0.0 0.0 0.0 
-4.832715884262e-05 1.070311567387e-05 0.0 
1.070311567387e-05 8.253917193710e-04 0.0 
0.0 0.0 0.0 
-4.210920315117e-05 -6.687484219215e-06 0.0 
-6.687484219215e-06 8.486928312688e-04 0.0 
0.0 0.0 0.0 
-3.708293078708e-05 -8.014049420108e-06 0.0 
-8.014049420108e-06 8.479744163981e-04 0.0 
0.0 0.0 0.0 
-6.041481053054e-05 9.673932310142e-06 0.0 
9.673932310142e-06 8.520747355814e-04 0.0 
0.0 0.0 0.0 
-4.307049650831e-05 -7.130332480152e-06 0.0 
-7.130332480152e-06 8.489132703717e-04 0.0 
0.0 0.0 0.0 
-3.711669432116e-05 -8.477935220146e-06 0.0 
-8.477935220146e-06 8.478825511351e-04 0.0 
0.0 0.0 0.0 
-4.420625884916e-05 -7.428541897822e-06 0.0 
-7.428541897822e-06 8.491502479353e-04 0.0 
0.0 0.0 0.0 
-3.726951647198e-05 -8.700452999194e-06 0.0 
-8.700452999194e-06 8.477067746755e-04 0.0 
0.0 0.0 0.0 
-4.559066345411e-05 -7.474399870558e-06 0.0 
-7.474399870558e-06 8.493826303582e-04 0.0 
0.0 0.0 0.0 
-3.758684676469e-05 -8.508460464854e-06 0.0 
-8.508460464854e-06 8.473452965785e-04 0.0 
0.0 0.0 0.0 
-6.199469720092e-05 2.133220459124e-05 0.0 
2.133220459124e-05 8.570609449483e-04 0.0 
0.0 0.0 0.0 
-4.714676749917e-05 -6.843687614500e-06 0.0 
-6.843687614500e-06 8.496817278627e-04 0.0 
0.0 0.0 0.0 
-3.837549862296e-05 -7.731067491069e-06 0.0 
-7.731067491069e-06 8.473646758027e-04 0.0 
0.0 0.0 0.0 
-4.957061870459e-05 -6.083354201517e-06 0.0 
-6.083354201517e-06 8.501747745302e-04 0.0 
0.0 0.0 0.0 
-3.944528136635e-05 -6.304643998811e-06 0.0 
-6.304643998811e-06 8.467952008442e-04 0.0 
0.0 0.0 0.0 
-4.147650817565e-05 -3.938310867911e-06 0.0 
-3.938310867911e-06 8.472405354198e-04 0.0 
0.0 0.0 0.0 
-5.189802727024e-05 -3.935519340360e-06 0.0 
-3.935519340360e-06 8.506829399146e-04 0.0 
0.0 0.0 0.0 
-4.337744294547e-05 -1.677320740178e-07 0.0 
-1.677320740178e-07 8.448802619228e-04 0.0 
0.0 0.0 0.0 
-5.592690831613e-05 -2.413452956581e-06 0.0 
-2.413452956581e-06 8.511467681691e-04 0.0 
0.0 0.0 0.0 
-4.766023493774e-05 6.105283690096e-06 0.0 
6.105283690096e-06 8.458067682746e-04 0.0 
0.0 0.0 0.0 
-5.591782767855e-05 3.550085359699e-06 0.0 
3.550085359699e-06 8.507657255210e-04 0.0 
0.0 0.0 0.0 
-5.883562831621e-05 1.180150229091e-05 0.0 
1.180150229091e-05 8.328148598313e-04 0.0 
0.0 0.0 0.0 
-3.615567257487e-05 -8.896462545014e-06 0.0 
-8.896462545014e-06 8.452696450683e-04 0.0 
0.0 0.0 0.0 
-4.114360096308e-05 7.553235141467e-06 0.0 
7.553235141467e-06 8.542053038865e-04 0.0 
0.0 0.0 0.0 
-3.834863569374e-05 -1.444620697680e-06 0.0 
-1.444620697680e-06 8.328232390309e-04 0.0 
0.0 0.0 0.0 
-3.902230362030e-05 4.037733223608e-07 0.0 
4.037733223608e-07 8.661301961472e-04 0.0 
0.0 0.0 0.0 
-5.410860465271e-05 2.269166906541e-05 0.0 
2.269166906541e-05 8.207429371407e-04 0.0 
0.0 0.0 0.0 
-3.909289023296e-05 -2.903024247277e-06 0.0 
-2.903024247277e-06 9.067282346908e-04 0.0 
0.0 0.0 0.0 
-3.978061288012e-05 -1.780606633247e-07 0.0 
-1.780606633247e-07 9.125263351892e-04 0.0 
0.0 0.0 0.0 
-3.924840474656e-05 -1.975529216589e-06 0.0 
-1.975529216589e-06 9.127047515243e-04 0.0 
0.0 0.0 0.0 
-3.991081786214e-05 -2.069880539146e-06 0.0 
-2.069880539146e-06 9.130969787996e-04 0.0 
0.0 0.0 0.0 
-3.935301736946e-05 -2.290159077558e-06 0.0 
-2.290159077558e-06 9.131268829525e-04 0.0 
0.0 0.0 0.0 
-4.033424552108e-05 -2.603591912744e-06 0.0 
-2.603591912744e-06 9.133574986520e-04 0.0 
0.0 0.0 0.0 
-3.948560706757e-05 -2.743253541774e-06 0.0 
-2.743253541774e-06 9.133769445933e-04 0.0 
0.0 0.0 0.0 
-4.071985044263e-05 -3.183901161265e-06 0.0 
-3.183901161265e-06 9.135507788431e-04 0.0 
0.0 0.0 0.0 
-3.965540265560e-05 -3.217221596149e-06 0.0 
-3.217221596149e-06 9.135424769553e-04 0.0 
0.0 0.0 0.0 
-4.133981729559e-05 -3.774456584451e-06 0.0 
-3.774456584451e-06 9.138121670527e-04 0.0 
0.0 0.0 0.0 
-3.993303006633e-05 -3.747150965090e-06 0.0 
-3.747150965090e-06 9.137723226540e-04 0.0 
0.0 0.0 0.0 
-4.205239266886e-05 -4.409541597308e-06 0.0 
-4.409541597308e-06 9.141218692823e-04 0.0 
0.0 0.0 0.0 
-4.032436906976e-05 -4.297125375826e-06 0.0 
-4.297125375826e-06 9.140296028820e-04 0.0 
0.0 0.0 0.0 
-4.308561772615e-05 -5.121436436389e-06 0.0 
-5.121436436389e-06 9.144779043253e-04 0.0 
0.0 0.0 0.0 
-4.079535436929e-05 -4.842289365937e-06 0.0 
-4.842289365937e-06 9.142746349629e-04 0.0 
0.0 0.0 0.0 
-6.454743101414e-05 8.084862432585e-06 0.0 
8.084862432585e-06 9.181260798965e-04 0.0 
0.0 0.0 0.0 
-4.401741210114e-05 -5.787413948749e-06 0.0 
-5.787413948749e-06 9.147449402847e-04 0.0 
0.0 0.0 0.0 
-6.382774790958e-05 7.434656840642e-06 0.0 
7.434656840642e-06 9.185655291006e-04 0.0 
0.0 0.0 0.0 
-4.133852036570e-05 -5.191855540196e-06 0.0 
-5.191855540196e-06 9.143413201067e-04 0.0 
0.0 0.0 0.0 
-4.533507388271e-05 -6.151782880352e-06 0.0 
-6.151782880352e-06 9.151494904500e-04 0.0 
0.0 0.0 0.0 
-4.210920315117e-05 -5.425406428580e-06 0.0 
-5.425406428580e-06 9.145846853034e-04 0.0 
0.0 0.0 0.0 
-4.698981239837e-05 -6.453312302658e-06 0.0 
-6.453312302658e-06 9.156595920217e-04 0.0 
0.0 0.0 0.0 
-4.307049650831e-05 -5.531067457962e-06 0.0 
-5.531067457962e-06 9.148559590928e-04 0.0 
0.0 0.0 0.0 
-4.876494412631e-05 -6.608574794626e-06 0.0 
-6.608574794626e-06 9.161377281544e-04 0.0 
0.0 0.0 0.0 
-5.591782767855e-05 9.289450621236e-06 0.0 
9.289450621236e-06 8.936556475359e-04 0.0 
0.0 0.0 0.0 
-4.420625884916e-05 -5.358870888806e-06 0.0 
-5.358870888806e-06 9.149776241362e-04 0.0 
0.0 0.0 0.0 
-5.085184569997e-05 -6.402832343468e-06 0.0 
-6.402832343468e-06 9.165961716813e-04 0.0 
0.0 0.0 0.0 
-4.559066345411e-05 -4.809219601783e-06 0.0 
-4.809219601783e-06 9.150046110247e-04 0.0 
0.0 0.0 0.0 
-5.333743152502e-05 -5.861740842329e-06 0.0 
-5.861740842329e-06 9.169093429220e-04 0.0 
0.0 0.0 0.0 
-4.714676749917e-05 -3.505346620718e-06 0.0 
-3.505346620718e-06 9.145015106240e-04 0.0 
0.0 0.0 0.0 
-5.549837001873e-05 -3.793059914110e-06 0.0 
-3.793059914110e-06 9.174042137416e-04 0.0 
0.0 0.0 0.0 
-4.957061870459e-05 -1.626235827431e-06 0.0 
-1.626235827431e-06 9.149455056481e-04 0.0 
0.0 0.0 0.0 
-5.976248035400e-05 -2.284151632096e-06 0.0 
-2.284151632096e-06 9.178250768767e-04 0.0 
0.0 0.0 0.0 
-6.012183210269e-05 2.640839682045e-06 0.0 
2.640839682045e-06 9.177277685917e-04 0.0 
0.0 0.0 0.0 
-5.189802727024e-05 1.419300304366e-06 0.0 
1.419300304366e-06 9.136040028344e-04 0.0 
0.0 0.0 0.0 
-6.549915993603e-05 1.633533229308e-05 0.0 
1.633533229308e-05 9.236711505423e-04 0.0 
0.0 0.0 0.0 
-5.592690831613e-05 5.752498263665e-06 0.0 
5.752498263665e-06 9.143251506885e-04 0.0 
0.0 0.0 0.0 
-6.267377287428e-05 9.089099427987e-06 0.0 
9.089099427987e-06 8.976633728421e-04 0.0 
0.0 0.0 0.0 
-4.174232668031e-05 -8.795253757271e-06 0.0 
-8.795253757271e-06 9.147855510088e-04 0.0 
0.0 0.0 0.0 
-3.694821783273e-05 7.678895494341e-06 0.0 
7.678895494341e-06 9.061977982834e-04 0.0 
0.0 0.0 0.0 
-3.960024031624e-05 -1.293539954291e-06 0.0 
-1.293539954291e-06 9.273775720748e-04 0.0 
0.0 0.0 0.0 
-3.902230362030e-05 4.752447152496e-07 0.0 
4.752447152496e-07 8.941223570660e-04 0.0 
0.0 0.0 0.0 
-6.041481053054e-05 1.739802853189e-05 0.0 
1.739802853189e-05 8.897278967746e-04 0.0 
0.0 0.0 0.0 
-4.059326307138e-05 -2.774309870106e-06 0.0 
-2.774309870106e-06 9.831178523485e-04 0.0 
0.0 0.0 0.0 
-3.978061288012e-05 -8.802008573502e-08 0.0 
-8.802008573502e-08 9.773414506469e-04 0.0 
0.0 0.0 0.0 
-4.020297965046e-05 -1.762644819353e-06 0.0 
-1.762644819353e-06 9.771458974492e-04 0.0 
0.0 0.0 0.0 
-3.991081786214e-05 -1.805782647801e-06 0.0 
-1.805782647801e-06 9.769816821066e-04 0.0 
0.0 0.0 0.0 
-4.077699808325e-05 -1.650742208144e-06 0.0 
-1.650742208144e-06 9.770157858018e-04 0.0 
0.0 0.0 0.0 
-4.033424552108e-05 -2.110569680723e-06 0.0 
-2.110569680723e-06 9.774825424955e-04 0.0 
0.0 0.0 0.0 
-4.165352424323e-05 -2.123233225869e-06 0.0 
-2.123233225869e-06 9.774978227510e-04 0.0 
0.0 0.0 0.0 
-4.071985044263e-05 -2.584254575641e-06 0.0 
-2.584254575641e-06 9.776050151691e-04 0.0 
0.0 0.0 0.0 
-4.220209692352e-05 -2.262870715341e-06 0.0 
-2.262870715341e-06 9.777315953372e-04 0.0 
0.0 0.0 0.0 
-4.133981729559e-05 -2.856450819327e-06 0.0 
-2.856450819327e-06 9.781244580447e-04 0.0 
0.0 0.0 0.0 
-4.346844811187e-05 -2.624927443457e-06 0.0 
-2.624927443457e-06 9.782724617180e-04 0.0 
0.0 0.0 0.0 
-4.205239266886e-05 -3.261867390811e-06 0.0 
-3.261867390811e-06 9.783910753212e-04 0.0 
0.0 0.0 0.0 
-4.452209412265e-05 -2.711322174521e-06 0.0 
-2.711322174521e-06 9.787224549871e-04 0.0 
0.0 0.0 0.0 
-6.740945915595e-05 6.701328060973e-06 0.0 
6.701328060973e-06 9.847924141351e-04 0.0 
0.0 0.0 0.0 
-4.308561772615e-05 -3.521535650672e-06 0.0 
-3.521535650672e-06 9.791215894004e-04 0.0 
0.0 0.0 0.0 
-4.629654387256e-05 -3.341990495597e-06 0.0 
-3.341990495597e-06 9.793838487753e-04 0.0 
0.0 0.0 0.0 
-6.012183210269e-05 8.089450646378e-06 0.0 
8.089450646378e-06 9.608161108505e-04 0.0 
0.0 0.0 0.0 
-4.401741210114e-05 -3.925611565834e-06 0.0 
-3.925611565834e-06 9.790098855069e-04 0.0 
0.0 0.0 0.0 
-4.775713663940e-05 -3.163735857714e-06 0.0 
-3.163735857714e-06 9.796752709916e-04 0.0 
0.0 0.0 0.0 
-6.480051214552e-05 7.560062483586e-06 0.0 
7.560062483586e-06 9.832814429598e-04 0.0 
0.0 0.0 0.0 
-4.533507388271e-05 -3.839706828856e-06 0.0 
-3.839706828856e-06 9.794227419921e-04 0.0 
0.0 0.0 0.0 
-4.989879131467e-05 -2.907629696555e-06 0.0 
-2.907629696555e-06 9.803658079026e-04 0.0 
0.0 0.0 0.0 
-4.698981239837e-05 -3.623835813233e-06 0.0 
-3.623835813233e-06 9.800036076599e-04 0.0 
0.0 0.0 0.0 
-5.219437575898e-05 -2.808251466155e-06 0.0 
-2.808251466155e-06 9.810761070177e-04 0.0 
0.0 0.0 0.0 
-4.876494412631e-05 -3.198572363965e-06 0.0 
-3.198572363965e-06 9.801453761806e-04 0.0 
0.0 0.0 0.0 
-6.695453827466e-05 1.387120418385e-05 0.0 
1.387120418385e-05 9.893877682077e-04 0.0 
0.0 0.0 0.0 
-5.456435099271e-05 -2.180735584201e-06 0.0 
-2.180735584201e-06 9.815862666653e-04 0.0 
0.0 0.0 0.0 
-5.085184569997e-05 -2.236075287541e-06 0.0 
-2.236075287541e-06 9.802383516668e-04 0.0 
0.0 0.0 0.0 
-5.333743152502e-05 -8.040204210472e-07 0.0 
-8.040204210472e-07 9.804070272998e-04 0.0 
0.0 0.0 0.0 
-5.747202284700e-05 -1.042844341872e-06 0.0 
-1.042844341872e-06 9.821186510555e-04 0.0 
0.0 0.0 0.0 
-5.549837001873e-05 1.735590465814e-06 0.0 
1.735590465814e-06 9.783150835141e-04 0.0 
0.0 0.0 0.0 
-6.122152393884e-05 -1.874131560062e-07 0.0 
-1.874131560062e-07 9.822515707503e-04 0.0 
0.0 0.0 0.0 
-5.976248035400e-05 5.711969412029e-06 0.0 
5.711969412029e-06 9.804263725444e-04 0.0 
0.0 0.0 0.0 
-6.133045449708e-05 4.633782339402e-06 0.0 
4.633782339402e-06 9.820074491873e-04 0.0 
0.0 0.0 0.0 
-6.477471965727e-05 7.960411029893e-06 0.0 
7.960411029893e-06 9.631891491377e-04 0.0 
0.0 0.0 0.0 
-3.699075424102e-05 -8.519289790541e-06 0.0 
-8.519289790541e-06 9.740977461674e-04 0.0 
0.0 0.0 0.0 
-4.238835040093e-05 8.011885349097e-06 0.0 
8.011885349097e-06 9.837538872635e-04 0.0 
0.0 0.0 0.0 
-3.960024031624e-05 -1.071438814305e-06 0.0 
-1.071438814305e-06 9.620983973309e-04 0.0 
0.0 0.0 0.0 
-3.986335251005e-05 9.237748043554e-07 0.0 
9.237748043554e-07 9.951345078165e-04 0.0 
0.0 0.0 0.0 
-6.382774790958e-05 1.398346880208e-05 0.0 
1.398346880208e-05 9.569293484286e-04 0.0 
0.0 0.0 0.0 
-4.059326307138e-05 -3.106274939976e-06 0.0 
-3.106274939976e-06 1.037172085733e-03 0.0 
0.0 0.0 0.0 
-3.928640878359e-05 -4.882975217117e-07 0.0 
-4.882975217117e-07 1.040942414515e-03 0.0 
0.0 0.0 0.0 
-4.020297965046e-05 -1.057815497981e-06 0.0 
-1.057815497981e-06 1.041012588155e-03 0.0 
0.0 0.0 0.0 
-4.064512886737e-05 -8.770403683356e-07 0.0 
-8.770403683356e-07 1.041709802144e-03 0.0 
0.0 0.0 0.0 
-4.077699808325e-05 -9.702579158810e-07 0.0 
-9.702579158810e-07 1.041727278963e-03 0.0 
0.0 0.0 0.0 
-4.138208002780e-05 -7.817852275548e-07 0.0 
-7.817852275548e-07 1.042530962384e-03 0.0 
0.0 0.0 0.0 
-4.165352424323e-05 -1.420792900114e-06 0.0 
-1.420792900114e-06 1.042685074143e-03 0.0 
0.0 0.0 0.0 
-4.185217750718e-05 -1.618794627116e-06 0.0 
-1.618794627116e-06 1.042491828460e-03 0.0 
0.0 0.0 0.0 
-4.220209692352e-05 -1.112247668401e-06 0.0 
-1.112247668401e-06 1.042350411521e-03 0.0 
0.0 0.0 0.0 
-4.306545666977e-05 -8.974421429978e-07 0.0 
-8.974421429978e-07 1.043289740035e-03 0.0 
0.0 0.0 0.0 
-4.346844811187e-05 -1.251370716749e-06 0.0 
-1.251370716749e-06 1.043427205909e-03 0.0 
0.0 0.0 0.0 
-4.470147517621e-05 -1.530475582772e-06 0.0 
-1.530475582772e-06 1.043761496736e-03 0.0 
0.0 0.0 0.0 
-6.802627769975e-05 6.662889975242e-06 0.0 
6.662889975242e-06 1.050377134156e-03 0.0 
0.0 0.0 0.0 
-4.452209412265e-05 -1.029324138733e-06 0.0 
-1.029324138733e-06 1.043547536737e-03 0.0 
0.0 0.0 0.0 
-6.528907874381e-05 8.259940704239e-06 0.0 
8.259940704239e-06 1.048435212436e-03 0.0 
0.0 0.0 0.0 
-4.522539666330e-05 -7.237502364691e-07 0.0 
-7.237502364691e-07 1.044426158862e-03 0.0 
0.0 0.0 0.0 
-4.629654387256e-05 -8.758879440066e-07 0.0 
-8.758879440066e-07 1.044557055345e-03 0.0 
0.0 0.0 0.0 
-4.859581033245e-05 -1.440299581201e-06 0.0 
-1.440299581201e-06 1.044970153748e-03 0.0 
0.0 0.0 0.0 
-4.775713663940e-05 -3.210731534575e-07 0.0 
-3.210731534575e-07 1.044318856913e-03 0.0 
0.0 0.0 0.0 
-5.087385072278e-05 -4.295350626938e-07 0.0 
-4.295350626938e-07 1.045718699020e-03 0.0 
0.0 0.0 0.0 
-4.989879131467e-05 2.176057779890e-07 0.0 
2.176057779890e-07 1.045253680238e-03 0.0 
0.0 0.0 0.0 
-5.286410142469e-05 9.219704623129e-08 0.0 
9.219704623129e-08 1.046440972446e-03 0.0 
0.0 0.0 0.0 
-6.133045449708e-05 9.252690625885e-06 0.0 
9.252690625885e-06 1.026640442202e-03 0.0 
0.0 0.0 0.0 
-5.219437575898e-05 1.031507496145e-06 0.0 
1.031507496145e-06 1.045763082289e-03 0.0 
0.0 0.0 0.0 
-5.564443510508e-05 7.695806719304e-07 0.0 
7.695806719304e-07 1.046868606679e-03 0.0 
0.0 0.0 0.0 
-5.456435099271e-05 2.485171368375e-06 0.0 
2.485171368375e-06 1.045523058133e-03 0.0 
0.0 0.0 0.0 
-5.829302682625e-05 2.614948999933e-06 0.0 
2.614948999933e-06 1.047105816351e-03 0.0 
0.0 0.0 0.0 
-6.142106725671e-05 5.401847798514e-06 0.0 
5.401847798514e-06 1.047531598715e-03 0.0 
0.0 0.0 0.0 
-5.747202284700e-05 4.726734225589e-06 0.0 
4.726734225589e-06 1.045370896099e-03 0.0 
0.0 0.0 0.0 
-6.122152393884e-05 7.218851081613e-06 0.0 
7.218851081613e-06 1.046001410466e-03 0.0 
0.0 0.0 0.0 
-6.611538957724e-05 1.315606581219e-05 0.0 
1.315606581219e-05 1.054462474419e-03 0.0 
0.0 0.0 0.0 
-6.407489667737e-05 8.679316353264e-06 0.0 
8.679316353264e-06 1.027515960826e-03 0.0 
0.0 0.0 0.0 
-4.191458097380e-05 -7.568661872587e-06 0.0 
-7.568661872587e-06 1.041971681792e-03 0.0 
0.0 0.0 0.0 
-3.884243254393e-05 8.868157902625e-06 0.0 
8.868157902625e-06 1.036466192772e-03 0.0 
0.0 0.0 0.0 
-4.083333075877e-05 2.971723736908e-07 0.0 
2.971723736908e-07 1.056222071554e-03 0.0 
0.0 0.0 0.0 
-3.986335251005e-05 1.322380739256e-06 0.0 
1.322380739256e-06 1.022780256689e-03 0.0 
0.0 0.0 0.0 
-6.480051214552e-05 1.282644425140e-05 0.0 
1.282644425140e-05 1.023997961712e-03 0.0 
0.0 0.0 0.0 

TENSORS element_materi_strain_plasti float
-7.112834060814e-05 3.514287460403e-05 0.0 
3.514287460403e-05 4.221004333340e-04 0.0 
0.0 0.0 -6.331083958573e-05 
-5.846555959083e-05 -3.955396469031e-05 0.0 
-3.955396469031e-05 3.778270157352e-04 0.0 
0.0 0.0 -6.454996159239e-05 
-1.889012089990e-04 -4.635760778403e-06 0.0 
-4.635760778403e-06 1.261715003762e-03 0.0 
0.0 0.0 -1.917354871627e-04 
-1.892197240299e-04 -2.621872887778e-05 0.0 
-2.621872887778e-05 1.272074442975e-03 0.0 
0.0 0.0 -1.883397590782e-04 
-1.197492232907e-04 3.454635042166e-05 0.0 
3.454635042166e-05 7.881734594548e-04 0.0 
0.0 0.0 -1.194279202642e-04 
-3.089019924433e-05 3.311410509038e-05 0.0 
3.311410509038e-05 1.513652850395e-04 0.0 
0.0 0.0 -2.690189283898e-05 
-1.181845121128e-04 4.042873295375e-05 0.0 
4.042873295375e-05 7.806844228614e-04 0.0 
0.0 0.0 -1.201653584795e-04 
-6.192381097420e-05 6.121385101827e-06 0.0 
6.121385101827e-06 4.031113170469e-04 0.0 
0.0 0.0 -6.068503909357e-05 
-1.204422882212e-04 -4.316649774326e-05 0.0 
-4.316649774326e-05 7.921064928151e-04 0.0 
0.0 0.0 -1.196685615722e-04 
-1.872884217324e-04 3.363141611130e-05 0.0 
3.363141611130e-05 1.259931992447e-03 0.0 
0.0 0.0 -1.879590212157e-04 
-1.310105652939e-04 2.220654670134e-05 0.0 
2.220654670134e-05 8.586450598517e-04 0.0 
0.0 0.0 -1.322476557103e-04 
-5.719807020115e-05 3.286461856499e-08 0.0 
3.286461856499e-08 3.230799459092e-04 0.0 
0.0 0.0 -5.602547750609e-05 
-1.877824496395e-04 3.388580337900e-05 0.0 
3.388580337900e-05 1.270169470641e-03 0.0 
0.0 0.0 -1.888781569884e-04 
-1.271872132406e-04 2.790230920199e-05 0.0 
2.790230920199e-05 8.458021199286e-04 0.0 
0.0 0.0 -1.278925217316e-04 
-1.932284152260e-04 -2.749272838120e-05 0.0 
-2.749272838120e-05 1.293984431102e-03 0.0 
0.0 0.0 -1.934308312547e-04 
-1.951772105051e-04 3.059468724474e-05 0.0 
3.059468724474e-05 1.293909326463e-03 0.0 
0.0 0.0 -1.928977411855e-04 
-1.183364621444e-04 7.034029580759e-07 0.0 
7.034029580759e-07 7.884128395372e-04 0.0 
0.0 0.0 -1.161101519611e-04 
-2.611548289249e-05 -2.976881314846e-05 0.0 
-2.976881314846e-05 1.366026820107e-04 0.0 
0.0 0.0 -2.739356786257e-05 
-4.655901900947e-05 -1.783274604704e-05 0.0 
-1.783274604704e-05 2.713105741166e-04 0.0 
0.0 0.0 -4.164025237647e-05 
-4.525890771348e-05 1.651863799484e-05 0.0 
1.651863799484e-05 2.466759593770e-04 0.0 
0.0 0.0 -4.546658199970e-05 
-1.855467270519e-04 -3.410013315625e-05 0.0 
-3.410013315625e-05 1.271232436366e-03 0.0 
0.0 0.0 -1.875582398551e-04 
-7.183248799894e-05 1.385365681385e-05 0.0 
1.385365681385e-05 4.407830654411e-04 0.0 
0.0 0.0 -7.216713101957e-05 
-7.730219154025e-05 -1.500465902034e-05 0.0 
-1.500465902034e-05 4.983174969402e-04 0.0 
0.0 0.0 -7.637334323853e-05 
-1.811871610611e-04 -2.281549761052e-05 0.0 
-2.281549761052e-05 1.217872226341e-03 0.0 
0.0 0.0 -1.815559455716e-04 
-1.350733973102e-04 3.295465992380e-05 0.0 
3.295465992380e-05 9.016620137675e-04 0.0 
0.0 0.0 -1.369648256180e-04 
-1.376188637296e-04 -2.176217058498e-05 0.0 
-2.176217058498e-05 9.243651343577e-04 0.0 
0.0 0.0 -1.376939605679e-04 
-1.069658315495e-04 -2.744737862324e-06 0.0 
-2.744737862324e-06 7.297614599069e-04 0.0 
0.0 0.0 -1.072212406194e-04 
-1.912521162051e-04 1.980335045204e-06 0.0 
1.980335045204e-06 1.305953059909e-03 0.0 
0.0 0.0 -1.899071758113e-04 
-1.362716787782e-04 -3.798939155730e-05 0.0 
-3.798939155730e-05 9.083018994538e-04 0.0 
0.0 0.0 -1.367086240186e-04 
-1.873007466112e-04 2.251116880675e-05 0.0 
2.251116880675e-05 1.247916240988e-03 0.0 
0.0 0.0 -1.856871487262e-04 
-3.243755210516e-05 5.032771115372e-06 0.0 
5.032771115372e-06 2.086151015531e-04 0.0 
0.0 0.0 -3.278963886402e-05 
-1.654166470030e-05 4.638693750366e-06 0.0 
4.638693750366e-06 9.012172148024e-05 0.0 
0.0 0.0 -1.589633704410e-05 
-1.936928702910e-04 8.344522422306e-06 0.0 
8.344522422306e-06 1.305844555641e-03 0.0 
0.0 0.0 -1.891952015075e-04 
-1.629254088575e-04 -2.764733331880e-05 0.0 
-2.764733331880e-05 1.087637140145e-03 0.0 
0.0 0.0 -1.635300645102e-04 
-1.844440851533e-04 -3.122724235015e-05 0.0 
-3.122724235015e-05 1.269225288252e-03 0.0 
0.0 0.0 -1.882484805285e-04 
-2.000892196314e-04 5.806438950548e-05 0.0 
5.806438950548e-05 1.337814960827e-03 0.0 
0.0 0.0 -1.972329526028e-04 
-1.979323581362e-04 -6.123980485016e-05 0.0 
-6.123980485016e-05 1.334624137008e-03 0.0 
0.0 0.0 -1.971979658877e-04 
-1.876565914579e-04 2.632656749342e-05 0.0 
2.632656749342e-05 1.265796013128e-03 0.0 
0.0 0.0 -1.897108526679e-04 
-1.089254337778e-04 -4.761071042110e-05 0.0 
-4.761071042110e-05 7.109927537120e-04 0.0 
0.0 0.0 -1.107114518244e-04 
-1.094034421642e-04 5.351990132505e-05 0.0 
5.351990132505e-05 7.212963119965e-04 0.0 
0.0 0.0 -1.105676175232e-04 
-8.675634194158e-05 -2.048772068430e-05 0.0 
-2.048772068430e-05 5.676637230470e-04 0.0 
0.0 0.0 -8.691834785005e-05 
-1.894316575551e-04 1.529535291875e-06 0.0 
1.529535291875e-06 1.267582633286e-03 0.0 
0.0 0.0 -1.921134732322e-04 
-4.839148529355e-05 3.269211206116e-05 0.0 
3.269211206116e-05 2.885062742471e-04 0.0 
0.0 0.0 -4.811778726964e-05 
-1.084239785972e-04 8.299246254447e-06 0.0 
8.299246254447e-06 6.943716908755e-04 0.0 
0.0 0.0 -1.102508860907e-04 
-1.837583847109e-04 -1.472486193336e-05 0.0 
-1.472486193336e-05 1.244009219740e-03 0.0 
0.0 0.0 -1.819287770889e-04 
-4.809827435414e-05 -2.856413507896e-05 0.0 
-2.856413507896e-05 2.876955400614e-04 0.0 
0.0 0.0 -4.797639238285e-05 
-2.674214069171e-05 -6.567095403776e-07 0.0 
-6.567095403776e-07 1.170205921082e-04 0.0 
0.0 0.0 -2.746289347828e-05 
-1.830752196458e-04 9.475420572823e-06 0.0 
9.475420572823e-06 1.215993436390e-03 0.0 
0.0 0.0 -1.852115035180e-04 
-1.474418981779e-05 6.875922652760e-07 0.0 
6.875922652760e-07 4.915161551588e-05 0.0 
0.0 0.0 -1.474603958490e-05 
-1.203307146343e-04 -2.717995598574e-05 0.0 
-2.717995598574e-05 8.158947777103e-04 0.0 
0.0 0.0 -1.234415444935e-04 
-8.234981639965e-05 -1.699589320995e-05 0.0 
-1.699589320995e-05 5.359221535030e-04 0.0 
0.0 0.0 -8.161374715243e-05 
-5.082688459540e-05 -1.056431694294e-05 0.0 
-1.056431694294e-05 3.372053744103e-04 0.0 
0.0 0.0 -5.165715595373e-05 
-4.611236241503e-05 -2.201694224577e-05 0.0 
-2.201694224577e-05 2.721561722188e-04 0.0 
0.0 0.0 -4.571843846580e-05 
-8.132390918315e-05 1.940323008173e-05 0.0 
1.940323008173e-05 5.127711064819e-04 0.0 
0.0 0.0 -8.234191315183e-05 
-1.899869588384e-04 -1.183985275253e-06 0.0 
-1.183985275253e-06 1.270300843848e-03 0.0 
0.0 0.0 -1.923283752319e-04 
-6.895815039131e-05 -2.178280864622e-05 0.0 
-2.178280864622e-05 4.406253786073e-04 0.0 
0.0 0.0 -6.768350264862e-05 
-5.417817485919e-05 2.166263208896e-05 0.0 
2.166263208896e-05 3.190902094138e-04 0.0 
0.0 0.0 -5.541318120416e-05 
-1.632126763507e-04 2.740636426442e-05 0.0 
2.740636426442e-05 1.093574435161e-03 0.0 
0.0 0.0 -1.631601065255e-04 
-3.323583887555e-05 3.269521201795e-06 0.0 
3.269521201795e-06 2.033859620122e-04 0.0 
0.0 0.0 -3.284525368658e-05 
-1.937347679597e-04 -3.087303565399e-05 0.0 
-3.087303565399e-05 1.295743109935e-03 0.0 
0.0 0.0 -1.927980053726e-04 
-1.410948374280e-05 -1.895108414919e-05 0.0 
-1.895108414919e-05 7.768302090073e-05 0.0 
0.0 0.0 -1.429900283189e-05 
-1.810662248895e-04 3.422591082853e-05 0.0 
3.422591082853e-05 1.214874210850e-03 0.0 
0.0 0.0 -1.816237070315e-04 
-8.260879868620e-05 3.395540134069e-05 0.0 
3.395540134069e-05 5.200982356105e-04 0.0 
0.0 0.0 -8.245627511043e-05 
-3.949603130373e-05 1.817463478044e-05 0.0 
1.817463478044e-05 2.392386227040e-04 0.0 
0.0 0.0 -4.154126471103e-05 
-1.880584302466e-04 -2.737021915549e-05 0.0 
-2.737021915549e-05 1.269816799986e-03 0.0 
0.0 0.0 -1.886217783130e-04 
-7.828481688491e-05 1.568948501134e-05 0.0 
1.568948501134e-05 4.753725480920e-04 0.0 
0.0 0.0 -7.706359040663e-05 
-9.040619779534e-06 6.808328067989e-06 0.0 
6.808328067989e-06 3.080905476409e-05 0.0 
0.0 0.0 -9.329329279096e-06 
-1.897461617520e-04 -1.190223513879e-05 0.0 
-1.190223513879e-05 1.300793159363e-03 0.0 
0.0 0.0 -1.892491279630e-04 
-3.670459678346e-05 -3.155058415611e-05 0.0 
-3.155058415611e-05 2.097964586862e-04 0.0 
0.0 0.0 -3.606465181366e-05 
-1.910292024481e-04 -5.680018839651e-07 0.0 
-5.680018839651e-07 1.267292748539e-03 0.0 
0.0 0.0 -1.923564682915e-04 
-1.423720417950e-04 -2.542418638308e-05 0.0 
-2.542418638308e-05 9.582298228247e-04 0.0 
0.0 0.0 -1.433443585977e-04 
-2.007748921200e-04 -7.173616599769e-07 0.0 
-7.173616599769e-07 1.325499155450e-03 0.0 
0.0 0.0 -2.007748921200e-04 
-1.856237250837e-04 2.519587703744e-07 0.0 
2.519587703744e-07 1.217908679066e-03 0.0 
0.0 0.0 -1.849363666885e-04 
-1.959401746035e-05 3.302488870378e-05 0.0 
3.302488870378e-05 8.419396161668e-05 0.0 
0.0 0.0 -1.942930455437e-05 
-7.294356160709e-05 2.278666566635e-05 0.0 
2.278666566635e-05 4.423978020253e-04 0.0 
0.0 0.0 -7.166057984914e-05 
-1.881200936435e-04 -2.597496456892e-05 0.0 
-2.597496456892e-05 1.274260032451e-03 0.0 
0.0 0.0 -1.893940471826e-04 
-1.918449780582e-04 -8.194598920861e-07 0.0 
-8.194598920861e-07 1.307445909733e-03 0.0 
0.0 0.0 -1.898028072996e-04 
-3.750417093390e-05 -2.856125910662e-05 0.0 
-2.856125910662e-05 2.170807613547e-04 0.0 
0.0 0.0 -3.765846754783e-05 
-3.201050297440e-05 -1.804321051782e-06 0.0 
-1.804321051782e-06 1.678376622842e-04 0.0 
0.0 0.0 -3.550136840268e-05 
-3.928328821311e-05 3.001435520315e-05 0.0 
3.001435520315e-05 2.151736419894e-04 0.0 
0.0 0.0 -3.788339401932e-05 
-3.841727809162e-05 3.259876760906e-05 0.0 
3.259876760906e-05 1.973706613177e-04 0.0 
0.0 0.0 -3.659988700710e-05 
-1.163465053479e-04 4.799891796781e-06 0.0 
4.799891796781e-06 7.474963377636e-04 0.0 
0.0 0.0 -1.187754596314e-04 
-7.387818471422e-05 -1.490180971543e-05 0.0 
-1.490180971543e-05 4.683625195835e-04 0.0 
0.0 0.0 -7.124103466145e-05 
-6.818690854032e-05 3.229042439658e-06 0.0 
3.229042439658e-06 3.926939187943e-04 0.0 
0.0 0.0 -6.657494268075e-05 
-1.280956191016e-04 -3.699964442022e-05 0.0 
-3.699964442022e-05 8.260012594816e-04 0.0 
0.0 0.0 -1.250515658111e-04 
-1.265295814047e-04 3.342378051017e-05 0.0 
3.342378051017e-05 8.211688879782e-04 0.0 
0.0 0.0 -1.253711530225e-04 
-1.484422711167e-04 -2.770915871896e-05 0.0 
-2.770915871896e-05 9.841615042540e-04 0.0 
0.0 0.0 -1.480066387926e-04 
-1.583372546511e-04 2.913712885410e-05 0.0 
2.913712885410e-05 1.064432221446e-03 0.0 
0.0 0.0 -1.587865244471e-04 
-1.631334298294e-04 -3.149814825206e-05 0.0 
-3.149814825206e-05 1.098864964118e-03 0.0 
0.0 0.0 -1.628912057404e-04 
-1.190806096983e-04 -4.403551421918e-05 0.0 
-4.403551421918e-05 7.749316267703e-04 0.0 
0.0 0.0 -1.197484453225e-04 
-1.483799586843e-05 5.558978623438e-06 0.0 
5.558978623438e-06 4.973861707578e-05 0.0 
0.0 0.0 -1.495740908886e-05 
-1.182760976271e-04 3.125415357905e-06 0.0 
3.125415357905e-06 7.592172627745e-04 0.0 
0.0 0.0 -1.189347521933e-04 
-1.620624140011e-04 -1.653046323385e-05 0.0 
-1.653046323385e-05 1.054965702531e-03 0.0 
0.0 0.0 -1.604158976160e-04 
-1.568829102868e-04 1.686722308074e-05 0.0 
1.686722308074e-05 1.064364903998e-03 0.0 
0.0 0.0 -1.569671113975e-04 
-1.992656462665e-04 -3.194664877417e-06 0.0 
-3.194664877417e-06 1.366255928620e-03 0.0 
0.0 0.0 -1.979956382108e-04 
-1.950636109885e-04 -2.233519301319e-05 0.0 
-2.233519301319e-05 1.308516150632e-03 0.0 
0.0 0.0 -1.941292444173e-04 
-1.156817175628e-04 -1.648055008373e-05 0.0 
-1.648055008373e-05 7.482785284577e-04 0.0 
0.0 0.0 -1.183461849553e-04 
-1.927191275468e-04 -2.508365562691e-07 0.0 
-2.508365562691e-07 1.307929168688e-03 0.0 
0.0 0.0 -1.894775870554e-04 
-1.342251932282e-04 -2.319392894316e-05 0.0 
-2.319392894316e-05 8.854475909505e-04 0.0 
0.0 0.0 -1.356001284572e-04 
-7.729101182484e-05 -2.065735051107e-05 0.0 
-2.065735051107e-05 5.080668279858e-04 0.0 
0.0 0.0 -7.798198501994e-05 
-1.130620333788e-04 -2.717181399575e-05 0.0 
-2.717181399575e-05 7.549273825549e-04 0.0 
0.0 0.0 -1.146493908758e-04 
-1.950077973870e-04 2.900722902877e-05 0.0 
2.900722902877e-05 1.296464444951e-03 0.0 
0.0 0.0 -1.931276724533e-04 
-1.563208394466e-04 -3.328202351934e-05 0.0 
-3.328202351934e-05 1.049294579874e-03 0.0 
0.0 0.0 -1.565627933380e-04 
-1.819468009343e-04 -3.224668000663e-05 0.0 
-3.224668000663e-05 1.222740499621e-03 0.0 
0.0 0.0 -1.814398861444e-04 
-7.158014488702e-05 -3.063000169944e-05 0.0 
-3.063000169944e-05 4.571234338187e-04 0.0 
0.0 0.0 -7.121314524778e-05 
-2.401359942616e-05 8.661927370116e-06 0.0 
8.661927370116e-06 1.537990966386e-04 0.0 
0.0 0.0 -2.437345913330e-05 
-1.778980369956e-04 -2.992010737325e-05 0.0 
-2.992010737325e-05 1.196087071121e-03 0.0 
0.0 0.0 -1.784854310292e-04 
-1.679646052206e-04 1.093794452522e-05 0.0 
1.093794452522e-05 1.134281409959e-03 0.0 
0.0 0.0 -1.663185871606e-04 
-1.591223534516e-05 -6.661850777305e-06 0.0 
-6.661850777305e-06 9.101730959340e-05 0.0 
0.0 0.0 -1.557197371984e-05 
-1.881889712418e-04 -1.290050336167e-05 0.0 
-1.290050336167e-05 1.273792918307e-03 0.0 
0.0 0.0 -1.927691970005e-04 
-1.581915922847e-04 2.746019073347e-05 0.0 
2.746019073347e-05 1.044290574645e-03 0.0 
0.0 0.0 -1.577237574333e-04 
-1.522398741045e-05 -2.545037373997e-05 0.0 
-2.545037373997e-05 5.739303510054e-05 0.0 
0.0 0.0 -1.520280724627e-05 
-9.452563605332e-05 3.135471664961e-05 0.0 
3.135471664961e-05 6.036525676249e-04 0.0 
0.0 0.0 -9.464897897786e-05 
-1.065966120753e-04 -2.205603569538e-05 0.0 
-2.205603569538e-05 7.064327249630e-04 0.0 
0.0 0.0 -1.073087759210e-04 
-8.739882265024e-05 -1.070352948316e-05 0.0 
-1.070352948316e-05 5.348438843142e-04 0.0 
0.0 0.0 -8.658563305536e-05 
-7.050193455009e-05 2.512487401893e-05 0.0 
2.512487401893e-05 4.479548223167e-04 0.0 
0.0 0.0 -7.278598402964e-05 
-8.197347761458e-05 -3.364821245799e-05 0.0 
-3.364821245799e-05 5.279356728588e-04 0.0 
0.0 0.0 -8.207734578087e-05 
-1.943526740554e-04 1.658812663972e-05 0.0 
1.658812663972e-05 1.282091895606e-03 0.0 
0.0 0.0 -1.925749600208e-04 
-1.285507174143e-04 2.792411837159e-05 0.0 
2.792411837159e-05 8.722892326704e-04 0.0 
0.0 0.0 -1.315046391038e-04 
-7.635084208109e-05 3.539223257155e-05 0.0 
3.539223257155e-05 4.849768366675e-04 0.0 
0.0 0.0 -7.683710038160e-05 
-3.602345366775e-05 -3.490773875451e-05 0.0 
-3.490773875451e-05 2.028232612913e-04 0.0 
0.0 0.0 -3.442901837107e-05 
-1.143531422852e-04 1.924554056095e-05 0.0 
1.924554056095e-05 7.838716458169e-04 0.0 
0.0 0.0 -1.161738141813e-04 
-1.655806278350e-04 -1.376876940895e-05 0.0 
-1.376876940895e-05 1.108151184003e-03 0.0 
0.0 0.0 -1.693933130199e-04 
-7.665289294717e-05 -3.764080062832e-05 0.0 
-3.764080062832e-05 4.894086693533e-04 0.0 
0.0 0.0 -7.664586338968e-05 
-2.552121638192e-05 -2.302083249112e-05 0.0 
-2.302083249112e-05 1.475281213149e-04 0.0 
0.0 0.0 -2.705574766418e-05 
-9.705129782474e-05 -2.284636133005e-05 0.0 
-2.284636133005e-05 6.381494146743e-04 0.0 
0.0 0.0 -9.705601970096e-05 
-8.718862749644e-05 1.081562517566e-05 0.0 
1.081562517566e-05 5.609465076163e-04 0.0 
0.0 0.0 -8.368277571755e-05 
-9.188005610208e-05 2.337172912127e-05 0.0 
2.337172912127e-05 5.885957333175e-04 0.0 
0.0 0.0 -9.250784895245e-05 
-1.937480155634e-04 2.484993040014e-05 0.0 
2.484993040014e-05 1.298240083639e-03 0.0 
0.0 0.0 -1.936007957173e-04 
-3.355945300028e-05 2.658456895858e-05 0.0 
2.658456895858e-05 1.727565400742e-04 0.0 
0.0 0.0 -3.138407094312e-05 
-1.371246585787e-04 2.526301025991e-05 0.0 
2.526301025991e-05 9.050145966039e-04 0.0 
0.0 0.0 -1.382526569903e-04 
-1.907913629677e-04 3.443386103192e-05 0.0 
3.443386103192e-05 1.270684136511e-03 0.0 
0.0 0.0 -1.885035411211e-04 
-9.913884905617e-05 2.644976598076e-05 0.0 
2.644976598076e-05 6.359580153606e-04 0.0 
0.0 0.0 -9.883099357817e-05 
-9.221379330775e-05 -2.325684599943e-05 0.0 
-2.325684599943e-05 6.043674081660e-04 0.0 
0.0 0.0 -9.208844699642e-05 
-1.862615746056e-04 3.781096829900e-05 0.0 
3.781096829900e-05 1.269973218665e-03 0.0 
0.0 0.0 -1.882446207449e-04 
-1.884096905909e-04 -3.934674872020e-05 0.0 
-3.934674872020e-05 1.273205454370e-03 0.0 
0.0 0.0 -1.891606461478e-04 
-1.485481393432e-04 2.662002390059e-05 0.0 
2.662002390059e-05 9.835102888330e-04 0.0 
0.0 0.0 -1.481056985806e-04 
-1.041353074706e-04 -2.625300288913e-05 0.0 
-2.625300288913e-05 6.829723859406e-04 0.0 
0.0 0.0 -1.037420806291e-04 
-1.908037455824e-04 1.095423421666e-05 0.0 
1.095423421666e-05 1.307953283663e-03 0.0 
0.0 0.0 -1.905495916442e-04 
-9.518883604242e-05 2.687623025881e-05 0.0 
2.687623025881e-05 6.089232024020e-04 0.0 
0.0 0.0 -9.489072104906e-05 
-1.881130056819e-04 -1.198635265848e-06 0.0 
-1.198635265848e-06 1.269458159220e-03 0.0 
0.0 0.0 -1.924761743472e-04 
-1.914420449492e-04 1.145005922615e-05 0.0 
1.145005922615e-05 1.305589104302e-03 0.0 
0.0 0.0 -1.901156060054e-04 
-1.284773038693e-04 -4.042952323759e-05 0.0 
-4.042952323759e-05 8.353342118354e-04 0.0 
0.0 0.0 -1.281556075638e-04 
-1.456984047061e-04 2.919513868125e-05 0.0 
2.919513868125e-05 9.798728505287e-04 0.0 
0.0 0.0 -1.472674707441e-04 
-9.472925069399e-05 -2.740497223510e-05 0.0 
-2.740497223510e-05 6.169641832868e-04 0.0 
0.0 0.0 -9.439783777044e-05 
-8.853676466141e-05 2.434547469191e-05 0.0 
2.434547469191e-05 5.534202716498e-04 0.0 
0.0 0.0 -8.745362067080e-05 
-1.087467394465e-04 2.713932785839e-05 0.0 
2.713932785839e-05 7.009636801692e-04 0.0 
0.0 0.0 -1.081789848988e-04 
-8.105832168209e-05 -2.534314576398e-05 0.0 
-2.534314576398e-05 5.269671489274e-04 0.0 
0.0 0.0 -8.074562716359e-05 
-1.149166540237e-04 -2.952745104752e-05 0.0 
-2.952745104752e-05 7.749980976508e-04 0.0 
0.0 0.0 -1.154098978710e-04 
-9.441274236993e-05 -3.245636207382e-05 0.0 
-3.245636207382e-05 6.148929569629e-04 0.0 
0.0 0.0 -9.412559131899e-05 
-1.356916071786e-05 -1.098912209053e-05 0.0 
-1.098912209053e-05 4.639558825144e-05 0.0 
0.0 0.0 -1.406846894296e-05 
-1.232833288672e-04 -2.043397575373e-06 0.0 
-2.043397575373e-06 8.352777480186e-04 0.0 
0.0 0.0 -1.225661908866e-04 
-4.062993237950e-05 4.703139556520e-07 0.0 
4.703139556520e-07 1.797601039323e-04 0.0 
0.0 0.0 -3.559753881786e-05 
-1.023820434635e-04 -2.308417346528e-05 0.0 
-2.308417346528e-05 6.740366547045e-04 0.0 
0.0 0.0 -1.021452596768e-04 
-1.900125356384e-04 6.300222620786e-07 0.0 
6.300222620786e-07 1.270960970669e-03 0.0 
0.0 0.0 -1.927194217641e-04 
-7.262888074723e-05 3.426557852476e-05 0.0 
3.426557852476e-05 4.504323440592e-04 0.0 
0.0 0.0 -7.151989320621e-05 
-1.531305076902e-04 3.065990782185e-05 0.0 
3.065990782185e-05 1.022734797488e-03 0.0 
0.0 0.0 -1.531634582904e-04 
-5.235610672335e-05 -3.331315410991e-05 0.0 
-3.331315410991e-05 3.222309724492e-04 0.0 
0.0 0.0 -5.311113487535e-05 
-1.564923507781e-04 3.552239921985e-05 0.0 
3.552239921985e-05 1.043761629599e-03 0.0 
0.0 0.0 -1.567358392781e-04 
-1.202044561882e-04 9.584736121846e-07 0.0 
9.584736121846e-07 7.504029993438e-04 0.0 
0.0 0.0 -1.184948324117e-04 
-8.921525541755e-05 3.121884924231e-05 0.0 
3.121884924231e-05 5.680733164514e-04 0.0 
0.0 0.0 -8.897195087526e-05 
-1.682691344288e-04 -3.239527776225e-05 0.0 
-3.239527776225e-05 1.126335943431e-03 0.0 
0.0 0.0 -1.681445358648e-04 
-3.271371250102e-05 2.634768306306e-05 0.0 
2.634768306306e-05 1.862670599746e-04 0.0 
0.0 0.0 -3.519564525945e-05 
-1.767977369675e-04 3.301165039377e-05 0.0 
3.301165039377e-05 1.194421621902e-03 0.0 
0.0 0.0 -1.783666864750e-04 
-1.165583599501e-04 2.698564820255e-05 0.0 
2.698564820255e-05 7.555372528015e-04 0.0 
0.0 0.0 -1.156683593961e-04 
-1.920096128522e-04 1.937461849935e-06 0.0 
1.937461849935e-06 1.307268561636e-03 0.0 
0.0 0.0 -1.898980813789e-04 
-1.182997139398e-04 3.639957619216e-06 0.0 
3.639957619216e-06 7.503854203479e-04 0.0 
0.0 0.0 -1.176390761550e-04 
-7.627591541802e-05 2.437079023937e-05 0.0 
2.437079023937e-05 4.698282448248e-04 0.0 
0.0 0.0 -7.564233511891e-05 
-1.002018332227e-04 2.315121058164e-05 0.0 
2.315121058164e-05 6.584644118649e-04 0.0 
0.0 0.0 -1.026119933064e-04 
-1.351190133783e-04 -1.871259961356e-05 0.0 
-1.871259961356e-05 8.920173210254e-04 0.0 
0.0 0.0 -1.308423732783e-04 
-5.484982403945e-05 3.705256781827e-05 0.0 
3.705256781827e-05 3.376111435306e-04 0.0 
0.0 0.0 -5.271897186252e-05 
-8.886891279122e-05 -3.169931078017e-05 0.0 
-3.169931078017e-05 5.765392386080e-04 0.0 
0.0 0.0 -8.867183110647e-05 
-1.531566637255e-04 -3.479285376154e-05 0.0 
-3.479285376154e-05 1.020094408152e-03 0.0 
0.0 0.0 -1.524697723262e-04 
-1.174942329115e-04 2.313759384433e-05 0.0 
2.313759384433e-05 7.831828593042e-04 0.0 
0.0 0.0 -1.152003355451e-04 
-8.515004989233e-05 2.567844413580e-05 0.0 
2.567844413580e-05 5.346133759294e-04 0.0 
0.0 0.0 -8.499340168425e-05 
-9.805234325585e-05 2.186136341024e-05 0.0 
2.186136341024e-05 6.234712022513e-04 0.0 
0.0 0.0 -9.747820142233e-05 
-1.698406473465e-04 3.103883884451e-05 0.0 
3.103883884451e-05 1.138199375279e-03 0.0 
0.0 0.0 -1.705088282513e-04 
-9.365555901584e-05 -8.486079120948e-06 0.0 
-8.486079120948e-06 6.269873305719e-04 0.0 
0.0 0.0 -9.283786084866e-05 
-1.904373484596e-04 8.037764301144e-06 0.0 
8.037764301144e-06 1.268105410096e-03 0.0 
0.0 0.0 -1.927803298305e-04 
-1.910376123415e-04 -5.171508508335e-06 0.0 
-5.171508508335e-06 1.305994090806e-03 0.0 
0.0 0.0 -1.898229354431e-04 
-6.861783798480e-05 -2.050379203895e-05 0.0 
-2.050379203895e-05 4.453059741638e-04 0.0 
0.0 0.0 -6.893569546425e-05 
-9.290116882094e-05 1.078568075346e-05 0.0 
1.078568075346e-05 5.964552685483e-04 0.0 
0.0 0.0 -9.578111177017e-05 
-1.736492418864e-04 -2.927710979079e-05 0.0 
-2.927710979079e-05 1.161594644870e-03 0.0 
0.0 0.0 -1.729233712160e-04 
-9.087963058823e-05 -2.352933739376e-05 0.0 
-2.352933739376e-05 5.915224073559e-04 0.0 
0.0 0.0 -9.055885391067e-05 
-6.615167518160e-05 2.470417535513e-05 0.0 
2.470417535513e-05 3.792937580834e-04 0.0 
0.0 0.0 -6.377619522508e-05 
-1.123815242548e-04 2.659716101140e-05 0.0 
2.659716101140e-05 7.274681183303e-04 0.0 
0.0 0.0 -1.116514617188e-04 
-9.023769363097e-05 -2.539356064248e-05 0.0 
-2.539356064248e-05 5.927749569100e-04 0.0 
0.0 0.0 -9.016780033359e-05 
-1.933145694824e-04 1.847750118737e-05 0.0 
1.847750118737e-05 1.271781840963e-03 0.0 
0.0 0.0 -1.918589861752e-04 
-1.590817006198e-04 2.907513750142e-05 0.0 
2.907513750142e-05 1.054056791896e-03 0.0 
0.0 0.0 -1.591037845145e-04 
-1.728367159342e-04 3.427642614804e-05 0.0 
3.427642614804e-05 1.161809866144e-03 0.0 
0.0 0.0 -1.733952315365e-04 
-4.323292157822e-05 -3.260265136202e-05 0.0 
-3.260265136202e-05 2.542139140644e-04 0.0 
0.0 0.0 -4.278232070249e-05 
-8.351564551766e-05 -2.949984641989e-05 0.0 
-2.949984641989e-05 5.399072445252e-04 0.0 
0.0 0.0 -8.337503372822e-05 
-1.628911585660e-04 2.910920340207e-05 0.0 
2.910920340207e-05 1.083707985150e-03 0.0 
0.0 0.0 -1.634180649126e-04 
-4.265741739718e-06 -2.683347671446e-06 0.0 
-2.683347671446e-06 2.779779537552e-05 0.0 
0.0 0.0 -6.679583525061e-06 
-9.202938689146e-05 2.333037747325e-05 0.0 
2.333037747325e-05 5.833864669440e-04 0.0 
0.0 0.0 -9.110806911972e-05 
-1.621301817421e-04 -3.474681827654e-05 0.0 
-3.474681827654e-05 1.087399984763e-03 0.0 
0.0 0.0 -1.621013318865e-04 
-2.647246740284e-05 -1.232636837565e-05 0.0 
-1.232636837565e-05 1.529325955368e-04 0.0 
0.0 0.0 -2.408412600064e-05 
-1.857893834714e-04 3.531775714936e-05 0.0 
3.531775714936e-05 1.270668189248e-03 0.0 
0.0 0.0 -1.886276279175e-04 
-1.456981155765e-04 2.919485646583e-05 0.0 
2.919485646583e-05 9.663206150300e-04 0.0 
0.0 0.0 -1.462443664659e-04 
-8.972960447932e-05 2.818607173368e-05 0.0 
2.818607173368e-05 5.719993527864e-04 0.0 
0.0 0.0 -8.992835211633e-05 
-1.626522217749e-04 3.588322308841e-05 0.0 
3.588322308841e-05 1.081933053943e-03 0.0 
0.0 0.0 -1.623203359564e-04 
-1.232850647809e-04 -1.534283618420e-06 0.0 
-1.534283618420e-06 8.439287432935e-04 0.0 
0.0 0.0 -1.238984763055e-04 
-1.290139728958e-04 -2.422323726664e-05 0.0 
-2.422323726664e-05 8.899156396031e-04 0.0 
0.0 0.0 -1.325791391267e-04 
-1.852665524105e-04 -2.134628668879e-05 0.0 
-2.134628668879e-05 1.242411010167e-03 0.0 
0.0 0.0 -1.856686537505e-04 
-6.834313658287e-05 3.054631191321e-05 0.0 
3.054631191321e-05 4.235028941011e-04 0.0 
0.0 0.0 -6.875374652758e-05 
-1.126229297884e-04 2.780829538386e-05 0.0 
2.780829538386e-05 7.291444854309e-04 0.0 
0.0 0.0 -1.122060228641e-04 
-1.204186006984e-04 2.647313116222e-05 0.0 
2.647313116222e-05 7.832880835705e-04 0.0 
0.0 0.0 -1.198259951250e-04 
-1.511295492835e-04 -2.883504033183e-05 0.0 
-2.883504033183e-05 1.013855965193e-03 0.0 
0.0 0.0 -1.512823234748e-04 
-1.216859479991e-04 -2.731241821125e-05 0.0 
-2.731241821125e-05 8.002184542220e-04 0.0 
0.0 0.0 -1.205399881000e-04 
-1.113723575775e-04 -2.417926787298e-05 0.0 
-2.417926787298e-05 7.331871425551e-04 0.0 
0.0 0.0 -1.112326624099e-04 
-1.413007434337e-04 -2.970279854823e-05 0.0 
-2.970279854823e-05 9.413829080689e-04 0.0 
0.0 0.0 -1.412146911137e-04 
-1.660148486685e-04 -3.109368411777e-05 0.0 
-3.109368411777e-05 1.112677337996e-03 0.0 
0.0 0.0 -1.657666289772e-04 
-1.315732548335e-05 -7.692520452241e-07 0.0 
-7.692520452241e-07 8.434115995763e-05 0.0 
0.0 0.0 -1.523807105164e-05 
-6.678617265699e-05 1.617781589415e-05 0.0 
1.617781589415e-05 4.361919367653e-04 0.0 
0.0 0.0 -6.974636312929e-05 
-7.951724172922e-05 2.782935041198e-05 0.0 
2.782935041198e-05 4.935008951510e-04 0.0 
0.0 0.0 -7.874092309440e-05 
-1.082260438161e-04 -2.691428867534e-05 0.0 
-2.691428867534e-05 7.109857938248e-04 0.0 
0.0 0.0 -1.077256579858e-04 
-1.642964652876e-04 -3.148986033885e-05 0.0 
-3.148986033885e-05 1.105967087523e-03 0.0 
0.0 0.0 -1.642614415327e-04 
-3.618362754970e-05 2.736407007723e-05 0.0 
2.736407007723e-05 2.086903937200e-04 0.0 
0.0 0.0 -3.864713111506e-05 
-1.564000420693e-04 -3.317492622528e-05 0.0 
-3.317492622528e-05 1.048657376479e-03 0.0 
0.0 0.0 -1.565033163265e-04 
-1.156497145505e-04 -3.516789011310e-05 0.0 
-3.516789011310e-05 7.502047125979e-04 0.0 
0.0 0.0 -1.164502435431e-04 
-8.397727272476e-05 2.946324581154e-05 0.0 
2.946324581154e-05 5.318825966419e-04 0.0 
0.0 0.0 -8.365175887955e-05 
-1.508856871714e-04 -3.154693635550e-05 0.0 
-3.154693635550e-05 1.010987541511e-03 0.0 
0.0 0.0 -1.509358467712e-04 
-1.992206068345e-05 -2.889614730951e-05 0.0 
-2.889614730951e-05 8.287217049266e-05 0.0 
0.0 0.0 -1.875953185269e-05 
-1.556622730397e-04 3.038739624462e-05 0.0 
3.038739624462e-05 1.034138176467e-03 0.0 
0.0 0.0 -1.560016362795e-04 
-1.437982534633e-05 1.029442077582e-05 0.0 
1.029442077582e-05 7.970629733058e-05 0.0 
0.0 0.0 -1.510781838351e-05 
-2.570586355009e-05 -7.991098502523e-07 0.0 
-7.991098502523e-07 1.127575880689e-04 0.0 
0.0 0.0 -2.729127776400e-05 
-4.194184282385e-05 3.474848126707e-05 0.0 
3.474848126707e-05 2.513992056333e-04 0.0 
0.0 0.0 -4.310499224862e-05 
-5.889908142508e-05 2.600142430583e-05 0.0 
2.600142430583e-05 3.528829077978e-04 0.0 
0.0 0.0 -5.903933595174e-05 
-1.610257286591e-04 -2.786541686928e-05 0.0 
-2.786541686928e-05 1.081190214243e-03 0.0 
0.0 0.0 -1.610696234640e-04 
-5.476704679840e-05 -2.893258819142e-05 0.0 
-2.893258819142e-05 3.440414388131e-04 0.0 
0.0 0.0 -5.456393079061e-05 
-5.163315478531e-05 2.647496963403e-05 0.0 
2.647496963403e-05 3.049271572106e-04 0.0 
0.0 0.0 -5.149248157812e-05 
-4.366093994894e-05 -2.713962390303e-05 0.0 
-2.713962390303e-05 2.644614859736e-04 0.0 
0.0 0.0 -4.384065419509e-05 
-3.933534437072e-05 2.838910031743e-05 0.0 
2.838910031743e-05 2.172478170370e-04 0.0 
0.0 0.0 -3.921473890832e-05 
-1.680595828810e-04 2.995288676005e-05 0.0 
2.995288676005e-05 1.117099767863e-03 0.0 
0.0 0.0 -1.676286260939e-04 
-1.157691997288e-04 -2.821559363196e-05 0.0 
-2.821559363196e-05 7.614917365493e-04 0.0 
0.0 0.0 -1.153195849472e-04 
-1.884304056946e-04 3.717790371758e-05 0.0 
3.717790371758e-05 1.273139237753e-03 0.0 
0.0 0.0 -1.885115422441e-04 
0.0 0.0 0.0 
0.0 0.0 0.0 
0.0 0.0 0.0 
-6.073075435371e-05 2.779578447063e-05 0.0 
2.779578447063e-05 3.692130858621e-04 0.0 
0.0 0.0 -6.066067809259e-05 
-9.359168136837e-05 3.069541767913e-05 0.0 
3.069541767913e-05 5.989493619825e-04 0.0 
0.0 0.0 -9.346360670616e-05 
-8.611303417377e-05 2.775473971904e-05 0.0 
2.775473971904e-05 5.420210967722e-04 0.0 
0.0 0.0 -8.564096664159e-05 
-1.570602199792e-04 3.345705989991e-05 0.0 
3.345705989991e-05 1.042425010846e-03 0.0 
0.0 0.0 -1.567852636697e-04 
-1.928100163882e-04 2.936217438128e-05 0.0 
2.936217438128e-05 1.304792838197e-03 0.0 
0.0 0.0 -1.913896484052e-04 
-1.544569729700e-04 -3.084214855682e-05 0.0 
-3.084214855682e-05 1.037077783695e-03 0.0 
0.0 0.0 -1.544248659763e-04 
-6.869349223690e-05 -2.826326061375e-05 0.0 
-2.826326061375e-05 4.368318291179e-04 0.0 
0.0 0.0 -6.847262230322e-05 
-1.681247358756e-04 -2.868522419727e-05 0.0 
-2.868522419727e-05 1.120151786447e-03 0.0 
0.0 0.0 -1.674250338637e-04 
-1.435900585209e-04 3.856895931237e-05 0.0 
3.856895931237e-05 9.474561629382e-04 0.0 
0.0 0.0 -1.426866023873e-04 
-1.135532837026e-04 -2.681444128085e-05 0.0 
-2.681444128085e-05 7.480946909015e-04 0.0 
0.0 0.0 -1.130562566545e-04 
-1.499249798733e-04 3.067572505939e-05 0.0 
3.067572505939e-05 9.944265321611e-04 0.0 
0.0 0.0 -1.504800801517e-04 
-1.863757598195e-04 -2.386849214221e-05 0.0 
-2.386849214221e-05 1.244147855382e-03 0.0 
0.0 0.0 -1.859596318053e-04 
-9.333492539951e-05 -3.087526947971e-05 0.0 
-3.087526947971e-05 6.086612624671e-04 0.0 
0.0 0.0 -9.309312152870e-05 
-5.642363476155e-05 -2.566826805163e-05 0.0 
-2.566826805163e-05 3.519070743608e-04 0.0 
0.0 0.0 -5.629031366394e-05 
-1.307741012141e-04 -2.854605187792e-05 0.0 
-2.854605187792e-05 8.651184174892e-04 0.0 
0.0 0.0 -1.299393276493e-04 
-1.994711361555e-04 1.488956192184e-05 0.0 
1.488956192184e-05 1.364194760264e-03 0.0 
0.0 0.0 -1.985353088532e-04 
-1.121064498204e-04 -2.817436375982e-05 0.0 
-2.817436375982e-05 7.383690860162e-04 0.0 
0.0 0.0 -1.117990549081e-04 
-1.167106519063e-04 -2.872381374577e-05 0.0 
-2.872381374577e-05 7.713662195201e-04 0.0 
0.0 0.0 -1.165266455158e-04 
-1.260578035270e-04 -7.836042946561e-06 0.0 
-7.836042946561e-06 8.498512038137e-04 0.0 
0.0 0.0 -1.244042047770e-04 
-3.179935585513e-05 -1.763042363236e-05 0.0 
-1.763042363236e-05 1.961286519246e-04 0.0 
0.0 0.0 -3.241712222852e-05 
-1.231319864475e-04 2.764700743790e-05 0.0 
2.764700743790e-05 7.907293750341e-04 0.0 
0.0 0.0 -1.209084558732e-04 
-6.905505917890e-05 2.816961621887e-05 0.0 
2.816961621887e-05 4.271679056782e-04 0.0 
0.0 0.0 -6.885887611378e-05 
-4.897721551762e-05 2.632054484457e-05 0.0 
2.632054484457e-05 2.838529677145e-04 0.0 
0.0 0.0 -4.844095568774e-05 
-3.558784672985e-05 -2.880146762892e-05 0.0 
-2.880146762892e-05 1.946353418351e-04 0.0 
0.0 0.0 -3.639896506568e-05 
-1.614850212427e-04 2.922041349465e-05 0.0 
2.922041349465e-05 1.072918812013e-03 0.0 
0.0 0.0 -1.613978969627e-04 
-1.255033903270e-04 -2.731668296794e-05 0.0 
-2.731668296794e-05 8.288788500150e-04 0.0 
0.0 0.0 -1.246873609535e-04 
-8.112707161296e-05 2.681454897224e-05 0.0 
2.681454897224e-05 5.130150958306e-04 0.0 
0.0 0.0 -8.144240747594e-05 
-1.665837591113e-04 -2.880422836215e-05 0.0 
-2.880422836215e-05 1.119259672453e-03 0.0 
0.0 0.0 -1.664644697516e-04 
-1.582047777180e-04 -3.130538043856e-05 0.0 
-3.130538043856e-05 1.066325272985e-03 0.0 
0.0 0.0 -1.586660261033e-04 
-1.188629648026e-04 -2.678969091403e-05 0.0 
-2.678969091403e-05 7.847225641269e-04 0.0 
0.0 0.0 -1.183057550348e-04 
-1.886854844882e-04 1.135105285806e-05 0.0 
1.135105285806e-05 1.274732412044e-03 0.0 
0.0 0.0 -1.932618152055e-04 
-1.213677155165e-04 2.897964547722e-05 0.0 
2.897964547722e-05 7.927140784185e-04 0.0 
0.0 0.0 -1.211843839911e-04 
-1.239491645660e-04 -2.748126235811e-05 0.0 
-2.748126235811e-05 8.207516205795e-04 0.0 
0.0 0.0 -1.235739794681e-04 
-9.975160353529e-05 -2.686515225488e-05 0.0 
-2.686515225488e-05 6.567392202688e-04 0.0 
0.0 0.0 -9.984714661518e-05 
-1.263578697939e-04 -2.980227527077e-05 0.0 
-2.980227527077e-05 8.380978382458e-04 0.0 
0.0 0.0 -1.261954767068e-04 
-5.849212426998e-05 2.872957228896e-05 0.0 
2.872957228896e-05 3.506208493125e-04 0.0 
0.0 0.0 -5.798711518065e-05 
-1.213481477356e-04 6.735435036876e-06 0.0 
6.735435036876e-06 7.521902963625e-04 0.0 
0.0 0.0 -1.184708735178e-04 
-9.753040931020e-05 -2.877750014671e-05 0.0 
-2.877750014671e-05 6.382612359797e-04 0.0 
0.0 0.0 -9.729539411790e-05 
-7.014498760133e-05 -2.861953507146e-05 0.0 
-2.861953507146e-05 4.491200428710e-04 0.0 
0.0 0.0 -7.021579980210e-05 
-1.548439846447e-04 2.920495201174e-05 0.0 
2.920495201174e-05 1.025468902843e-03 0.0 
0.0 0.0 -1.548477372900e-04 
-7.400239448952e-06 -4.471996282504e-06 0.0 
-4.471996282504e-06 3.348355740734e-05 0.0 
0.0 0.0 -6.737411723468e-06 
-1.269059540153e-04 -2.992426859267e-05 0.0 
-2.992426859267e-05 8.357764802867e-04 0.0 
0.0 0.0 -1.257958619361e-04 
-7.326865481566e-05 2.857374826703e-05 0.0 
2.857374826703e-05 4.565907868803e-04 0.0 
0.0 0.0 -7.305360031667e-05 
-6.016605764575e-05 -2.684908062252e-05 0.0 
-2.684908062252e-05 3.790547108985e-04 0.0 
0.0 0.0 -6.022881660267e-05 
-5.821846839884e-05 -2.774592413861e-05 0.0 
-2.774592413861e-05 3.619705275702e-04 0.0 
0.0 0.0 -5.751879909679e-05 
-1.351640918224e-04 2.730946876611e-05 0.0 
2.730946876611e-05 8.850173502736e-04 0.0 
0.0 0.0 -1.344766581215e-04 
-2.303458757806e-05 -1.756706348761e-05 0.0 
-1.756706348761e-05 1.393624808345e-04 0.0 
0.0 0.0 -2.414890389727e-05 
-8.463000670150e-05 2.743515429835e-05 0.0 
2.743515429835e-05 5.331920973471e-04 0.0 
0.0 0.0 -8.420255649138e-05 
-1.310820143303e-04 2.863495648326e-05 0.0 
2.863495648326e-05 8.604743158959e-04 0.0 
0.0 0.0 -1.309020407989e-04 
-1.263625231525e-04 2.714069752448e-05 0.0 
2.714069752448e-05 8.190547291893e-04 0.0 
0.0 0.0 -1.250525794797e-04 
-1.272471088817e-04 -3.855000510512e-06 0.0 
-3.855000510512e-06 8.469629814487e-04 0.0 
0.0 0.0 -1.245153595172e-04 
-3.451533027297e-05 2.844805665229e-05 0.0 
2.844805665229e-05 1.808943530398e-04 0.0 
0.0 0.0 -3.280631478328e-05 
-7.063190463533e-05 2.939202413112e-05 0.0 
2.939202413112e-05 4.392145115516e-04 0.0 
0.0 0.0 -7.060413318996e-05 
-6.508843028441e-05 -3.043099012630e-05 0.0 
-3.043099012630e-05 4.105469834446e-04 0.0 
0.0 0.0 -6.467058191239e-05 
-7.469256331376e-05 -2.527987226695e-05 0.0 
-2.527987226695e-05 4.809368026629e-04 0.0 
0.0 0.0 -7.435558976913e-05 
-1.502309888333e-04 -3.186153307622e-05 0.0 
-3.186153307622e-05 1.005619770116e-03 0.0 
0.0 0.0 -1.500995507885e-04 
-8.411103689448e-05 -2.561923504937e-05 0.0 
-2.561923504937e-05 5.446630925718e-04 0.0 
0.0 0.0 -8.366679311450e-05 
-9.244608085661e-05 2.841629283502e-05 0.0 
2.841629283502e-05 5.900259211260e-04 0.0 
0.0 0.0 -9.227309926833e-05 
-8.825859911860e-05 2.898361773724e-05 0.0 
2.898361773724e-05 5.610179827723e-04 0.0 
0.0 0.0 -8.802462077767e-05 
-4.037281909572e-05 -3.055033143304e-05 0.0 
-3.055033143304e-05 2.285588841850e-04 0.0 
0.0 0.0 -3.795074749666e-05 
-1.043807176337e-04 2.969702721876e-05 0.0 
2.969702721876e-05 6.736275783202e-04 0.0 
0.0 0.0 -1.043907376787e-04 
-4.291565100880e-05 -2.841622711530e-05 0.0 
-2.841622711530e-05 2.495146198089e-04 0.0 
0.0 0.0 -4.182373257491e-05 
-1.960133420005e-04 -3.915898958092e-07 0.0 
-3.915898958092e-07 1.365024672998e-03 0.0 
0.0 0.0 -1.982169479593e-04 
-2.008761767446e-04 -4.440775900705e-06 0.0 
-4.440775900705e-06 1.363686351067e-03 0.0 
0.0 0.0 -1.977044065024e-04 
-1.166270540496e-04 2.805525215369e-05 0.0 
2.805525215369e-05 7.581594275037e-04 0.0 
0.0 0.0 -1.163296810217e-04 
-6.377729921261e-05 2.843186062466e-05 0.0 
2.843186062466e-05 3.894200307401e-04 0.0 
0.0 0.0 -6.349477618752e-05 
-5.472494021236e-05 -2.756038478394e-05 0.0 
-2.756038478394e-05 3.420299138774e-04 0.0 
0.0 0.0 -5.489564032307e-05 
-1.286062633098e-04 2.787342346443e-05 0.0 
2.787342346443e-05 8.404326398301e-04 0.0 
0.0 0.0 -1.280878756227e-04 
-5.924292318693e-05 -2.830092874267e-05 0.0 
-2.830092874267e-05 3.712937095837e-04 0.0 
0.0 0.0 -5.895795660960e-05 
-6.498740843255e-05 2.970448360848e-05 0.0 
2.970448360848e-05 3.998906408149e-04 0.0 
0.0 0.0 -6.509812613533e-05 
-1.139448242020e-04 2.662931945144e-05 0.0 
2.662931945144e-05 7.377302601229e-04 0.0 
0.0 0.0 -1.134571731864e-04 
-1.931977199045e-04 -5.790102799525e-06 0.0 
-5.790102799525e-06 1.309642249160e-03 0.0 
0.0 0.0 -1.899960389348e-04 
-7.860743769092e-05 2.917445532478e-05 0.0 
2.917445532478e-05 4.940483609679e-04 0.0 
0.0 0.0 -7.839370437043e-05 
-1.417199735287e-04 2.941394498762e-05 0.0 
2.941394498762e-05 9.349322217144e-04 0.0 
0.0 0.0 -1.414217305113e-04 
-4.661344112576e-05 2.736880969088e-05 0.0 
2.736880969088e-05 2.670838018736e-04 0.0 
0.0 0.0 -4.614936513201e-05 
-1.967992094278e-04 1.123981941095e-06 0.0 
1.123981941095e-06 1.365295639638e-03 0.0 
0.0 0.0 -1.984294758987e-04 
-5.951651457585e-05 2.802626650619e-05 0.0 
2.802626650619e-05 3.606106616578e-04 0.0 
0.0 0.0 -5.939605362352e-05 
-1.179287062834e-04 2.787660048455e-05 0.0 
2.787660048455e-05 7.663966719587e-04 0.0 
0.0 0.0 -1.175278261142e-04 
-4.409418717161e-05 3.104234347111e-05 0.0 
3.104234347111e-05 2.441849578649e-04 0.0 
0.0 0.0 -4.282931220362e-05 
-1.381450842626e-04 2.836088824292e-05 0.0 
2.836088824292e-05 9.092073412549e-04 0.0 
0.0 0.0 -1.381743871232e-04 
-9.791138306631e-05 2.879750584179e-05 0.0 
2.879750584179e-05 6.273190453691e-04 0.0 
0.0 0.0 -9.774928945211e-05 
-6.965606683394e-05 2.867246728631e-05 0.0 
2.867246728631e-05 4.309923865951e-04 0.0 
0.0 0.0 -6.938051102899e-05 
-1.200769966056e-04 -2.774059059615e-05 0.0 
-2.774059059615e-05 7.919085176899e-04 0.0 
0.0 0.0 -1.194585575575e-04 
-1.988427120039e-04 -2.959789654557e-06 0.0 
-2.959789654557e-06 1.363764641001e-03 0.0 
0.0 0.0 -1.987298001823e-04 
-8.291571741031e-05 2.832079044508e-05 0.0 
2.832079044508e-05 5.233038309385e-04 0.0 
0.0 0.0 -8.265507580179e-05 
-1.306758629051e-04 -2.955788166782e-05 0.0 
-2.955788166782e-05 8.695191991227e-04 0.0 
0.0 0.0 -1.305485175686e-04 
-4.578173906005e-05 -2.535078056645e-05 0.0 
-2.535078056645e-05 2.780519891852e-04 0.0 
0.0 0.0 -4.562300070248e-05 
-1.437792750518e-04 3.149363009429e-05 0.0 
3.149363009429e-05 9.490378851935e-04 0.0 
0.0 0.0 -1.436534165706e-04 
-1.511792253345e-04 3.107336096836e-05 0.0 
3.107336096836e-05 1.002609936336e-03 0.0 
0.0 0.0 -1.512517770320e-04 
-6.196699647241e-05 -2.679098173262e-05 0.0 
-2.679098173262e-05 3.903858421673e-04 0.0 
0.0 0.0 -6.164273853391e-05 
-1.399199792627e-04 -2.811467117751e-05 0.0 
-2.811467117751e-05 9.272505815491e-04 0.0 
0.0 0.0 -1.388569334018e-04 
-1.985355386787e-04 1.984726108435e-06 0.0 
1.984726108435e-06 1.364959960964e-03 0.0 
0.0 0.0 -1.983871205594e-04 
-1.614928444495e-04 2.847027297627e-05 0.0 
2.847027297627e-05 1.071649121551e-03 0.0 
0.0 0.0 -1.613792517474e-04 
-1.982422487002e-04 -2.569909507912e-06 0.0 
-2.569909507912e-06 1.365758727609e-03 0.0 
0.0 0.0 -1.983136761333e-04 
-1.361916076227e-04 -3.146771190181e-05 0.0 
-3.146771190181e-05 9.179571631392e-04 0.0 
0.0 0.0 -1.379474753881e-04 
-1.576486168105e-04 -2.829471551287e-05 0.0 
-2.829471551287e-05 1.056700414691e-03 0.0 
0.0 0.0 -1.572395483614e-04 
-5.266868770523e-05 -2.930837486761e-05 0.0 
-2.930837486761e-05 3.216672696281e-04 0.0 
0.0 0.0 -5.237865887416e-05 
-1.106230900853e-04 -2.705461405413e-05 0.0 
-2.705461405413e-05 7.266788580309e-04 0.0 
0.0 0.0 -1.101557085785e-04 
-1.243986606814e-04 2.756325965713e-05 0.0 
2.756325965713e-05 8.114376097232e-04 0.0 
0.0 0.0 -1.239588741081e-04 
-1.293044827764e-04 -2.800858501220e-05 0.0 
-2.800858501220e-05 8.573256290427e-04 0.0 
0.0 0.0 -1.288458533782e-04 
-1.066562308207e-04 -2.783120558929e-05 0.0 
-2.783120558929e-05 7.017640661734e-04 0.0 
0.0 0.0 -1.065261787303e-04 
-1.990029541207e-04 -1.757598364359e-06 0.0 
-1.757598364359e-06 1.366381337533e-03 0.0 
0.0 0.0 -1.983502480037e-04 
-1.298318789187e-04 2.158067938686e-05 0.0 
2.158067938686e-05 8.815706967553e-04 0.0 
0.0 0.0 -1.321612292015e-04 
-1.176326388033e-04 -2.595061727756e-05 0.0 
-2.595061727756e-05 7.723158987367e-04 0.0 
0.0 0.0 -1.164556264782e-04 
-8.783787209566e-05 -2.903458928538e-05 0.0 
-2.903458928538e-05 5.705379246605e-04 0.0 
0.0 0.0 -8.765849385151e-05 
-4.943082231834e-05 2.834348926926e-05 0.0 
2.834348926926e-05 2.859345548030e-04 0.0 
0.0 0.0 -4.921152720794e-05 
-1.062878110515e-04 -2.718085700709e-05 0.0 
-2.718085700709e-05 6.972114022315e-04 0.0 
0.0 0.0 -1.060368635384e-04 
-6.633274732441e-05 2.805962634071e-05 0.0 
2.805962634071e-05 4.063292376683e-04 0.0 
0.0 0.0 -6.607158303000e-05 
-1.158557996194e-04 -6.210093226299e-06 0.0 
-6.210093226299e-06 7.885063370646e-04 0.0 
0.0 0.0 -1.154421321462e-04 
-6.910380331659e-05 -2.778533839803e-05 0.0 
-2.778533839803e-05 4.414244386129e-04 0.0 
0.0 0.0 -6.893461416734e-05 
-7.822135333654e-05 -2.896553184293e-05 0.0 
-2.896553184293e-05 5.031498839476e-04 0.0 
0.0 0.0 -7.803987337015e-05 
-1.602384540181e-04 3.100072325668e-05 0.0 
3.100072325668e-05 1.064154990020e-03 0.0 
0.0 0.0 -1.603578675858e-04 
-6.566815985925e-05 -2.750449767600e-05 0.0 
-2.750449767600e-05 4.167092244980e-04 0.0 
0.0 0.0 -6.558851423748e-05 
-1.152845892592e-04 2.749147668780e-05 0.0 
2.749147668780e-05 7.465056274970e-04 0.0 
0.0 0.0 -1.146103474413e-04 
-1.353451354842e-04 2.819645546977e-05 0.0 
2.819645546977e-05 8.892812196543e-04 0.0 
0.0 0.0 -1.352137036071e-04 
-1.205044148237e-04 2.968350999990e-05 0.0 
2.968350999990e-05 7.873013113578e-04 0.0 
0.0 0.0 -1.205299346428e-04 
-1.958940259279e-04 -3.143838988160e-07 0.0 
-3.143838988160e-07 1.365374549896e-03 0.0 
0.0 0.0 -1.987143998872e-04 
-9.668730117965e-05 -2.517304160907e-05 0.0 
-2.517304160907e-05 6.291397970161e-04 0.0 
0.0 0.0 -9.585336115805e-05 
-6.653143432307e-05 2.946077866981e-05 0.0 
2.946077866981e-05 4.089865087981e-04 0.0 
0.0 0.0 -6.633958094145e-05 
-8.520951336944e-05 -2.684964973046e-05 0.0 
-2.684964973046e-05 5.564426473023e-04 0.0 
0.0 0.0 -8.536885536016e-05 
-6.423500688610e-05 -2.223670417576e-05 0.0 
-2.223670417576e-05 3.967373019254e-04 0.0 
0.0 0.0 -6.277058716750e-05 
-6.233409830209e-05 2.930783879135e-05 0.0 
2.930783879135e-05 3.806227503841e-04 0.0 
0.0 0.0 -6.211964112063e-05 
-1.686029388230e-04 -3.010997351014e-05 0.0 
-3.010997351014e-05 1.134847194407e-03 0.0 
0.0 0.0 -1.685829472084e-04 
-1.228035280568e-04 -2.801028863811e-05 0.0 
-2.801028863811e-05 8.126298515026e-04 0.0 
0.0 0.0 -1.224221955183e-04 
-8.576695021724e-05 -2.818444781109e-05 0.0 
-2.818444781109e-05 5.521166414815e-04 0.0 
0.0 0.0 -8.508581023982e-05 
-1.058888784043e-04 2.774100767274e-05 0.0 
2.774100767274e-05 6.820542708577e-04 0.0 
0.0 0.0 -1.053569120690e-04 
-1.984005188917e-04 3.469833888433e-06 0.0 
3.469833888433e-06 1.365869131785e-03 0.0 
0.0 0.0 -1.981012852499e-04 
-1.891870000816e-04 -2.170110567076e-05 0.0 
-2.170110567076e-05 1.288510292263e-03 0.0 
0.0 0.0 -1.887097005658e-04 
-1.683150849776e-04 2.979696904543e-05 0.0 
2.979696904543e-05 1.122642711197e-03 0.0 
0.0 0.0 -1.689885654173e-04 
-1.554302986174e-04 -2.927663835836e-05 0.0 
-2.927663835836e-05 1.044556448181e-03 0.0 
0.0 0.0 -1.556283301217e-04 
-1.157857925219e-04 -2.832751956135e-05 0.0 
-2.832751956135e-05 7.671670755825e-04 0.0 
0.0 0.0 -1.158214347813e-04 
-8.793389765940e-05 -2.692004426865e-05 0.0 
-2.692004426865e-05 5.710151647237e-04 0.0 
0.0 0.0 -8.764218308180e-05 
-6.353474277312e-05 -2.825822332319e-05 0.0 
-2.825822332319e-05 4.001707208949e-04 0.0 
0.0 0.0 -6.304749027677e-05 
-7.291093511829e-05 -2.827879267007e-05 0.0 
-2.827879267007e-05 4.665581668852e-04 0.0 
0.0 0.0 -7.265234708097e-05 
-1.174853072823e-04 -2.733567074543e-05 0.0 
-2.733567074543e-05 7.760237591612e-04 0.0 
0.0 0.0 -1.171309192368e-04 
-1.335212434515e-04 -2.914279474533e-05 0.0 
-2.914279474533e-05 8.905694576090e-04 0.0 
0.0 0.0 -1.335144612876e-04 
-1.018718395078e-04 -2.979006226054e-05 0.0 
-2.979006226054e-05 6.715941915170e-04 0.0 
0.0 0.0 -1.021513650962e-04 
-1.706976735812e-04 3.040145888498e-05 0.0 
3.040145888498e-05 1.134074140794e-03 0.0 
0.0 0.0 -1.701355210695e-04 
-6.585088392687e-05 -2.809564114852e-05 0.0 
-2.809564114852e-05 4.191270390209e-04 0.0 
0.0 0.0 -6.593483134189e-05 
-1.012822856145e-04 -2.790893614150e-05 0.0 
-2.790893614150e-05 6.647252503200e-04 0.0 
0.0 0.0 -1.012556795624e-04 
-1.190728906021e-04 2.726084077196e-05 0.0 
2.726084077196e-05 7.740175104497e-04 0.0 
0.0 0.0 -1.186992623097e-04 
-9.180435571147e-05 -2.942480991547e-05 0.0 
-2.942480991547e-05 5.980965186942e-04 0.0 
0.0 0.0 -9.183388734860e-05 
-1.951933135343e-04 -3.067913145712e-06 0.0 
-3.067913145712e-06 1.365527233008e-03 0.0 
0.0 0.0 -1.980132279339e-04 
-2.004839790609e-04 7.957002336378e-06 0.0 
7.957002336378e-06 1.363848061926e-03 0.0 
0.0 0.0 -1.977693979613e-04 
-1.862548850903e-04 -3.381380897180e-05 0.0 
-3.381380897180e-05 1.277935188165e-03 0.0 
0.0 0.0 -1.884741816281e-04 
-1.255545849599e-04 -2.913100698812e-05 0.0 
-2.913100698812e-05 8.346700099746e-04 0.0 
0.0 0.0 -1.256288396591e-04 
-1.668512740992e-04 2.892208901038e-05 0.0 
2.892208901038e-05 1.110735165857e-03 0.0 
0.0 0.0 -1.668097552869e-04 
-5.710219261571e-05 2.668419955422e-05 0.0 
2.668419955422e-05 3.418831237588e-04 0.0 
0.0 0.0 -5.678930531275e-05 
-8.241925476564e-05 -2.832624156936e-05 0.0 
-2.832624156936e-05 5.333885698677e-04 0.0 
0.0 0.0 -8.224527255367e-05 
-4.853944390359e-05 -2.604022421239e-05 0.0 
-2.604022421239e-05 2.959627034739e-04 0.0 
0.0 0.0 -4.789427177487e-05 
-8.945478626281e-05 -2.660897635143e-05 0.0 
-2.660897635143e-05 5.805998989638e-04 0.0 
0.0 0.0 -8.904339260345e-05 
-1.163162734636e-04 -2.681975846469e-06 0.0 
-2.681975846469e-06 7.498217446733e-04 0.0 
0.0 0.0 -1.187247005501e-04 
-1.378749770551e-04 3.210368012353e-05 0.0 
3.210368012353e-05 9.111791288023e-04 0.0 
0.0 0.0 -1.382175405433e-04 
-1.908460110853e-04 -3.275689360255e-07 0.0 
-3.275689360255e-07 1.305230985071e-03 0.0 
0.0 0.0 -1.898105380384e-04 
-1.673198694714e-04 3.217203314276e-05 0.0 
3.217203314276e-05 1.110802916425e-03 0.0 
0.0 0.0 -1.675837462092e-04 
-1.307963472837e-04 2.695120133125e-05 0.0 
2.695120133125e-05 8.556346688023e-04 0.0 
0.0 0.0 -1.303141423325e-04 
-1.340100066794e-04 2.763944078925e-05 0.0 
2.763944078925e-05 8.772925572874e-04 0.0 
0.0 0.0 -1.333792161710e-04 
-5.307775534030e-05 2.953233977858e-05 0.0 
2.953233977858e-05 3.124408790926e-04 0.0 
0.0 0.0 -5.245278118421e-05 
-2.595268965567e-05 5.699272949294e-06 0.0 
5.699272949294e-06 1.472249447242e-04 0.0 
0.0 0.0 -2.415366321274e-05 
-9.908936880668e-05 3.012137168314e-05 0.0 
3.012137168314e-05 6.362497375305e-04 0.0 
0.0 0.0 -9.891160473977e-05 
-1.107375038864e-04 -2.791592154402e-05 0.0 
-2.791592154402e-05 7.305458695935e-04 0.0 
0.0 0.0 -1.106421438825e-04 
-1.040373993302e-04 -2.962445174837e-05 0.0 
-2.962445174837e-05 6.836342105130e-04 0.0 
0.0 0.0 -1.039785834622e-04 
-2.890800069675e-05 2.861111799326e-05 0.0 
2.861111799326e-05 1.404310217184e-04 0.0 
0.0 0.0 -2.759983235877e-05 
-1.283084597460e-04 1.192869093826e-05 0.0 
1.192869093826e-05 8.062000095070e-04 0.0 
0.0 0.0 -1.269342783548e-04 
-4.518956868723e-05 -2.955121691656e-05 0.0 
-2.955121691656e-05 2.739636501554e-04 0.0 
0.0 0.0 -4.458156379712e-05 
-6.480437248805e-05 2.886959438942e-05 0.0 
2.886959438942e-05 3.978928491972e-04 0.0 
0.0 0.0 -6.471073859852e-05 
-2.011730791700e-04 -1.698872757989e-08 0.0 
-1.698872757989e-08 1.328124099864e-03 0.0 
0.0 0.0 -2.011730791700e-04 
-1.460374838192e-04 -3.048163660064e-05 0.0 
-3.048163660064e-05 9.751989198997e-04 0.0 
0.0 0.0 -1.457653143910e-04 
-1.205798788541e-04 2.761727978419e-05 0.0 
2.761727978419e-05 7.635288783755e-04 0.0 
0.0 0.0 -1.168501105142e-04 
-3.395354607204e-05 2.118102367287e-05 0.0 
2.118102367287e-05 2.067871695949e-04 0.0 
0.0 0.0 -3.264725407480e-05 
-1.072259052960e-04 2.828066854900e-05 0.0 
2.828066854900e-05 6.926707853574e-04 0.0 
0.0 0.0 -1.069007943593e-04 
-9.875212805042e-05 -3.066987077576e-05 0.0 
-3.066987077576e-05 6.455932732231e-04 0.0 
0.0 0.0 -9.854973989574e-05 
-1.347121276017e-04 -2.904780221579e-05 0.0 
-2.904780221579e-05 8.937363280174e-04 0.0 
0.0 0.0 -1.341094516545e-04 
-1.991811038418e-04 6.018664084073e-06 0.0 
6.018664084073e-06 1.364715316697e-03 0.0 
0.0 0.0 -1.985748880999e-04 
-1.110533222846e-04 2.766180117225e-05 0.0 
2.766180117225e-05 7.188072929314e-04 0.0 
0.0 0.0 -1.104975085169e-04 
-1.281880349500e-04 -2.831423111803e-05 0.0 
-2.831423111803e-05 8.493800491293e-04 0.0 
0.0 0.0 -1.277066113365e-04 
-1.022800064688e-04 2.938149773544e-05 0.0 
2.938149773544e-05 6.613696873366e-04 0.0 
0.0 0.0 -1.025654288072e-04 
-1.657781793003e-04 2.991009795984e-05 0.0 
2.991009795984e-05 1.103461715683e-03 0.0 
0.0 0.0 -1.657887872837e-04 
-1.303012997508e-04 2.941535065773e-05 0.0 
2.941535065773e-05 8.562179753406e-04 0.0 
0.0 0.0 -1.303748051659e-04 
-1.970164637737e-04 -1.302278598281e-06 0.0 
-1.302278598281e-06 1.366138488450e-03 0.0 
0.0 0.0 -1.983262259508e-04 
-2.010155577921e-04 3.662749840251e-07 0.0 
3.662749840251e-07 1.326332536677e-03 0.0 
0.0 0.0 -2.010155577921e-04 
-2.011542863586e-04 -1.004817252029e-06 0.0 
-1.004817252029e-06 1.325128672458e-03 0.0 
0.0 0.0 -2.011542863586e-04 
-2.007067363607e-04 -1.498454949363e-07 0.0 
-1.498454949363e-07 1.318361508107e-03 0.0 
0.0 0.0 -2.007067363607e-04 
-1.391843029499e-04 2.745739822782e-05 0.0 
2.745739822782e-05 9.142042162451e-04 0.0 
0.0 0.0 -1.386702020626e-04 
-1.656573127809e-04 -2.766529280961e-05 0.0 
-2.766529280961e-05 1.111954587801e-03 0.0 
0.0 0.0 -1.654503375633e-04 
-1.726299045536e-04 3.125882372741e-05 0.0 
3.125882372741e-05 1.154413842026e-03 0.0 
0.0 0.0 -1.733872194588e-04 
-9.246943249656e-05 3.046774901958e-05 0.0 
3.046774901958e-05 5.891823098647e-04 0.0 
0.0 0.0 -9.220995221430e-05 
-8.867527655773e-05 2.995644697180e-05 0.0 
2.995644697180e-05 5.611104943418e-04 0.0 
0.0 0.0 -8.809376301141e-05 
-9.622211545223e-05 -3.009570676563e-05 0.0 
-3.009570676563e-05 6.328174754954e-04 0.0 
0.0 0.0 -9.655401109520e-05 
-1.701961923366e-04 -3.010043453970e-05 0.0 
-3.010043453970e-05 1.143557443824e-03 0.0 
0.0 0.0 -1.697778367964e-04 
-1.986751491008e-04 -7.450281032105e-07 0.0 
-7.450281032105e-07 1.364365235868e-03 0.0 
0.0 0.0 -1.983660426036e-04 
-1.710340879663e-04 2.926837147099e-05 0.0 
2.926837147099e-05 1.140451459410e-03 0.0 
0.0 0.0 -1.711771202328e-04 
-1.362026136940e-04 -3.056560885154e-05 0.0 
-3.056560885154e-05 9.064457611163e-04 0.0 
0.0 0.0 -1.359501865459e-04 
-1.710918547977e-04 -2.738871930552e-05 0.0 
-2.738871930552e-05 1.149183258739e-03 0.0 
0.0 0.0 -1.708297112636e-04 
-1.484338095600e-04 -2.864995064493e-05 0.0 
-2.864995064493e-05 9.946985301084e-04 0.0 
0.0 0.0 -1.485531891111e-04 
-1.058391682515e-04 2.762475757998e-05 0.0 
2.762475757998e-05 6.839177814814e-04 0.0 
0.0 0.0 -1.057460988714e-04 
-9.007502322936e-05 2.632387229137e-05 0.0 
2.632387229137e-05 5.712847458693e-04 0.0 
0.0 0.0 -8.951081423028e-05 
-5.003262353380e-05 2.839389572085e-05 0.0 
2.839389572085e-05 2.942091527215e-04 0.0 
0.0 0.0 -5.000330529763e-05 
-1.931223455613e-04 1.410072971069e-05 0.0 
1.410072971069e-05 1.274197783005e-03 0.0 
0.0 0.0 -1.923320103442e-04 
-8.673133120512e-05 2.974761857028e-05 0.0 
2.974761857028e-05 5.527785355338e-04 0.0 
0.0 0.0 -8.688718888654e-05 
-1.811235048976e-04 -1.426754042441e-06 0.0 
-1.426754042441e-06 1.216021958167e-03 0.0 
0.0 0.0 -1.846150589539e-04 
-9.663648622258e-05 2.916309241112e-05 0.0 
2.916309241112e-05 6.223980992345e-04 0.0 
0.0 0.0 -9.698095267749e-05 
-6.297861531256e-05 -2.737443956180e-05 0.0 
-2.737443956180e-05 4.020391048555e-04 0.0 
0.0 0.0 -6.334372566563e-05 
-1.910403343780e-04 6.504513827889e-06 0.0 
6.504513827889e-06 1.269011526396e-03 0.0 
0.0 0.0 -1.926469350330e-04 
-7.031800198741e-05 2.800312657303e-05 0.0 
2.800312657303e-05 4.340280219417e-04 0.0 
0.0 0.0 -7.004737339288e-05 
-2.012981183411e-04 2.829868493086e-07 0.0 
2.829868493086e-07 1.325754434692e-03 0.0 
0.0 0.0 -2.012981183411e-04 
-1.944617061092e-04 -2.128424273080e-06 0.0 
-2.128424273080e-06 1.270536569317e-03 0.0 
0.0 0.0 -1.923981163876e-04 
-1.274261734323e-04 2.764661482526e-05 0.0 
2.764661482526e-05 8.320608034777e-04 0.0 
0.0 0.0 -1.269381307268e-04 
-1.388257339176e-05 -3.296929808695e-07 0.0 
-3.296929808695e-07 4.627629862134e-05 0.0 
0.0 0.0 -1.388302509839e-05 
-2.011432062587e-04 1.175370744359e-06 0.0 
1.175370744359e-06 1.325704875416e-03 0.0 
0.0 0.0 -2.011432062587e-04 
-1.921224080021e-04 -3.345083285998e-06 0.0 
-3.345083285998e-06 1.269046594870e-03 0.0 
0.0 0.0 -1.926992175726e-04 
-6.391416598869e-05 2.999598810142e-05 0.0 
2.999598810142e-05 3.912627427439e-04 0.0 
0.0 0.0 -6.380490422505e-05 
-1.404753262357e-04 -2.965513079560e-05 0.0 
-2.965513079560e-05 9.376027128924e-04 0.0 
0.0 0.0 -1.402969630079e-04 
-1.999507595383e-04 6.517171705061e-07 0.0 
6.517171705061e-07 1.367200749641e-03 0.0 
0.0 0.0 -1.984522389651e-04 
0.0 0.0 0.0 
0.0 0.0 0.0 
0.0 0.0 0.0 
-9.642422921866e-05 2.765043306328e-05 0.0 
2.765043306328e-05 6.184893464754e-04 0.0 
0.0 0.0 -9.638260397252e-05 
-1.327711764227e-04 2.777803969438e-05 0.0 
2.777803969438e-05 8.691844784454e-04 0.0 
0.0 0.0 -1.322405047887e-04 
-1.220159274826e-04 2.812429560457e-05 0.0 
2.812429560457e-05 7.950189731712e-04 0.0 
0.0 0.0 -1.216370884873e-04 
-1.233780413330e-04 2.822278476293e-05 0.0 
2.822278476293e-05 8.034120475729e-04 0.0 
0.0 0.0 -1.227992079070e-04 
-5.537653594295e-05 2.875222597985e-05 0.0 
2.875222597985e-05 3.316168811288e-04 0.0 
0.0 0.0 -5.533679171570e-05 
-2.012041008673e-04 -1.784165579868e-07 0.0 
-1.784165579868e-07 1.324183447082e-03 0.0 
0.0 0.0 -2.012041008673e-04 
-9.201494534921e-05 -2.853538992438e-05 0.0 
-2.853538992438e-05 6.003334109930e-04 0.0 
0.0 0.0 -9.185667556238e-05 
-3.303106360170e-05 -2.633064609002e-05 0.0 
-2.633064609002e-05 1.883634797952e-04 0.0 
0.0 0.0 -3.259945417627e-05 
-1.918713440306e-04 8.946523950926e-06 0.0 
8.946523950926e-06 1.309054848055e-03 0.0 
0.0 0.0 -1.908532239790e-04 
-1.533408055875e-05 7.384230356388e-07 0.0 
7.384230356388e-07 8.948803933365e-05 0.0 
0.0 0.0 -1.529156673429e-05 
-1.006599210971e-04 2.782645766406e-05 0.0 
2.782645766406e-05 6.455369390174e-04 0.0 
0.0 0.0 -1.001834968599e-04 
-3.451081164849e-05 1.818301860879e-06 0.0 
1.818301860879e-06 1.688175235099e-04 0.0 
0.0 0.0 -3.548102280213e-05 
-1.062965573196e-04 2.780179286973e-05 0.0 
2.780179286973e-05 6.883223029444e-04 0.0 
0.0 0.0 -1.064232429825e-04 
-1.976952572840e-04 -1.168281398261e-06 0.0 
-1.168281398261e-06 1.362992457342e-03 0.0 
0.0 0.0 -1.982734646138e-04 
-2.011883062674e-04 9.888613031942e-07 0.0 
9.888613031942e-07 1.328146716782e-03 0.0 
0.0 0.0 -2.011883062674e-04 
-1.301088029822e-04 2.770607832302e-05 0.0 
2.770607832302e-05 8.484055931934e-04 0.0 
0.0 0.0 -1.292069026561e-04 
-2.954464874618e-05 -3.965393558445e-06 0.0 
-3.965393558445e-06 1.122999320296e-04 0.0 
0.0 0.0 -2.690965210263e-05 
-2.739399671943e-05 2.933508036766e-05 0.0 
2.933508036766e-05 1.380090285650e-04 0.0 
0.0 0.0 -2.757055009735e-05 
-3.542847344044e-05 6.606947798617e-06 0.0 
6.606947798617e-06 2.063449622469e-04 0.0 
0.0 0.0 -3.269047038571e-05 
-1.687743102681e-04 -2.969350572077e-05 0.0 
-2.969350572077e-05 1.134034339831e-03 0.0 
0.0 0.0 -1.682749826031e-04 
-1.155575491131e-04 4.356017504332e-06 0.0 
4.356017504332e-06 7.906999410851e-04 0.0 
0.0 0.0 -1.155645034189e-04 
-1.225223585343e-04 -3.170975582543e-05 0.0 
-3.170975582543e-05 8.033648067797e-04 0.0 
0.0 0.0 -1.216399908441e-04 
-2.013754095761e-04 8.574101042677e-07 0.0 
8.574101042677e-07 1.328505872694e-03 0.0 
0.0 0.0 -2.013754095761e-04 
-1.185922722511e-04 -6.408792185017e-06 0.0 
-6.408792185017e-06 7.903114053093e-04 0.0 
0.0 0.0 -1.158066699702e-04 
-1.999465830534e-04 2.523603907241e-06 0.0 
2.523603907241e-06 1.365706190659e-03 0.0 
0.0 0.0 -1.984278847636e-04 
-1.529420189163e-04 2.878980384314e-05 0.0 
2.878980384314e-05 1.013778882456e-03 0.0 
0.0 0.0 -1.531497964885e-04 
-1.341342697016e-04 3.021998989808e-05 0.0 
3.021998989808e-05 8.804430663277e-04 0.0 
0.0 0.0 -1.336117322397e-04 
-7.066337245358e-05 2.724020164699e-05 0.0 
2.724020164699e-05 4.173118245595e-04 0.0 
0.0 0.0 -6.716413209789e-05 
-1.409646218039e-04 2.858302443344e-05 0.0 
2.858302443344e-05 9.281763591865e-04 0.0 
0.0 0.0 -1.406799227165e-04 
-4.298549671642e-05 -2.547451572923e-05 0.0 
-2.547451572923e-05 2.695670933754e-04 0.0 
0.0 0.0 -4.407237973489e-05 
-2.011132486541e-04 -7.128017343347e-07 0.0 
-7.128017343347e-07 1.328659301781e-03 0.0 
0.0 0.0 -2.011132486541e-04 
-2.009976701417e-04 3.439303975141e-06 0.0 
3.439303975141e-06 1.321105461220e-03 0.0 
0.0 0.0 -2.009976701417e-04 
-2.010626616006e-04 -3.322276770675e-06 0.0 
-3.322276770675e-06 1.324330050416e-03 0.0 
0.0 0.0 -2.010626616006e-04 
-1.299093591511e-04 -2.914930425429e-05 0.0 
-2.914930425429e-05 8.658441252439e-04 0.0 
0.0 0.0 -1.299975089739e-04 
-9.052284020770e-05 -3.049516894790e-05 0.0 
-3.049516894790e-05 5.936904225557e-04 0.0 
0.0 0.0 -9.093357025479e-05 
-1.054046505950e-04 -2.722690421760e-05 0.0 
-2.722690421760e-05 6.941162488956e-04 0.0 
0.0 0.0 -1.053178853420e-04 
-1.346471619318e-04 2.927563182277e-05 0.0 
2.927563182277e-05 8.856709839770e-04 0.0 
0.0 0.0 -1.347235989126e-04 
-2.009441844947e-04 5.418162692693e-07 0.0 
5.418162692693e-07 1.327955075341e-03 0.0 
0.0 0.0 -2.009441844947e-04 
-6.443925901357e-05 -2.813929069584e-05 0.0 
-2.813929069584e-05 4.076252186495e-04 0.0 
0.0 0.0 -6.431912701200e-05 
-7.485675959243e-05 2.901728883495e-05 0.0 
2.901728883495e-05 4.688085198426e-04 0.0 
0.0 0.0 -7.487790608676e-05 
-7.928698614329e-05 2.778576412939e-05 0.0 
2.778576412939e-05 4.984401812577e-04 0.0 
0.0 0.0 -7.908687439778e-05 
-1.394721343079e-04 2.885489704653e-05 0.0 
2.885489704653e-05 9.192978405546e-04 0.0 
0.0 0.0 -1.391937591313e-04 
-2.008612103287e-04 -3.693527197654e-06 0.0 
-3.693527197654e-06 1.364519917838e-03 0.0 
0.0 0.0 -1.985305734468e-04 
-2.250927834624e-05 2.909087829438e-06 0.0 
2.909087829438e-06 1.468758923848e-04 0.0 
0.0 0.0 -2.397382233655e-05 
-2.011163638586e-04 2.302003841693e-07 0.0 
2.302003841693e-07 1.324189736521e-03 0.0 
0.0 0.0 -2.011163638586e-04 
-7.377337448231e-05 2.934269690708e-05 0.0 
2.934269690708e-05 4.594549865471e-04 0.0 
0.0 0.0 -7.358133128319e-05 
-2.014316818412e-04 4.263406091415e-07 0.0 
4.263406091415e-07 1.328090472923e-03 0.0 
0.0 0.0 -2.014316818412e-04 
-1.734276927947e-04 -2.828578725819e-05 0.0 
-2.828578725819e-05 1.166116999412e-03 0.0 
0.0 0.0 -1.729148776319e-04 
-6.741246855669e-06 1.500702879826e-07 0.0 
1.500702879826e-07 3.827256342879e-05 0.0 
0.0 0.0 -6.864263063556e-06 
-1.004959508363e-04 2.808542309375e-05 0.0 
2.808542309375e-05 6.454212743012e-04 0.0 
0.0 0.0 -1.003583859079e-04 
-1.718759866272e-04 -2.980354167843e-05 0.0 
-2.980354167843e-05 1.157131136303e-03 0.0 
0.0 0.0 -1.719029392456e-04 
-2.011830196921e-04 -3.548902454821e-07 0.0 
-3.548902454821e-07 1.327155566075e-03 0.0 
0.0 0.0 -2.011830196921e-04 
-1.388407500422e-04 -2.884720622620e-05 0.0 
-2.884720622620e-05 9.230769586163e-04 0.0 
0.0 0.0 -1.383010158571e-04 
-1.575526722260e-04 2.955644203139e-05 0.0 
2.955644203139e-05 1.043750468826e-03 0.0 
0.0 0.0 -1.573501057445e-04 
-4.123088931291e-05 2.897558544234e-05 0.0 
2.897558544234e-05 2.287469859808e-04 0.0 
0.0 0.0 -4.076119643165e-05 
-1.813025862255e-04 9.345575993616e-07 0.0 
9.345575993616e-07 1.215376006819e-03 0.0 
0.0 0.0 -1.843023520775e-04 
-7.788490820688e-05 2.864422483209e-05 0.0 
2.864422483209e-05 4.890843703452e-04 0.0 
0.0 0.0 -7.776038389268e-05 
-7.872164132443e-05 -2.705112463858e-05 0.0 
-2.705112463858e-05 5.083022021505e-04 0.0 
0.0 0.0 -7.864394100603e-05 
-1.651857613722e-05 2.436579541672e-06 0.0 
2.436579541672e-06 9.382250948335e-05 0.0 
0.0 0.0 -1.564271892946e-05 
-2.011619417363e-04 1.902236696598e-07 0.0 
1.902236696598e-07 1.325669705516e-03 0.0 
0.0 0.0 -2.011619417363e-04 
-5.404101206327e-05 -2.775487024526e-05 0.0 
-2.775487024526e-05 3.346238881161e-04 0.0 
0.0 0.0 -5.346778118095e-05 
-1.664978969876e-04 -3.078518139598e-05 0.0 
-3.078518139598e-05 1.121532468591e-03 0.0 
0.0 0.0 -1.665752238587e-04 
-1.278730840806e-04 -3.472948115295e-05 0.0 
-3.472948115295e-05 8.520267496029e-04 0.0 
0.0 0.0 -1.283298317887e-04 
-6.603291402412e-05 -2.806322866842e-05 0.0 
-2.806322866842e-05 4.217037645698e-04 0.0 
0.0 0.0 -6.617380498945e-05 
-7.463675443451e-05 -2.871843216267e-05 0.0 
-2.871843216267e-05 4.786814676414e-04 0.0 
0.0 0.0 -7.447016153659e-05 
-1.335206736850e-04 -2.810341513530e-05 0.0 
-2.810341513530e-05 8.862841769034e-04 0.0 
0.0 0.0 -1.330061330556e-04 
-2.013389903111e-04 -2.577060081338e-06 0.0 
-2.577060081338e-06 1.328272800082e-03 0.0 
0.0 0.0 -2.013389903111e-04 
-9.595163826971e-05 2.829118562233e-05 0.0 
2.829118562233e-05 6.147361544056e-04 0.0 
0.0 0.0 -9.568302398834e-05 
-1.453761414593e-04 -3.029613600092e-05 0.0 
-3.029613600092e-05 9.724967985982e-04 0.0 
0.0 0.0 -1.454001008742e-04 
-1.206262125757e-04 2.794500349809e-05 0.0 
2.794500349809e-05 7.866369625336e-04 0.0 
0.0 0.0 -1.204619904346e-04 
-1.322723275388e-04 -2.829979880917e-05 0.0 
-2.829979880917e-05 8.816831760065e-04 0.0 
0.0 0.0 -1.321674040750e-04 
-7.980000717296e-05 -2.795628281200e-05 0.0 
-2.795628281200e-05 5.159636454028e-04 0.0 
0.0 0.0 -7.989676937832e-05 
-1.354049195082e-04 -2.966836663350e-05 0.0 
-2.966836663350e-05 9.031731980439e-04 0.0 
0.0 0.0 -1.354758998029e-04 
-1.160382141721e-04 -2.802728243222e-05 0.0 
-2.802728243222e-05 7.673309827378e-04 0.0 
0.0 0.0 -1.159419204142e-04 
-1.497221933922e-04 -2.945707781298e-05 0.0 
-2.945707781298e-05 1.002549953165e-03 0.0 
0.0 0.0 -1.497374551683e-04 
-1.506619844600e-04 2.868191767905e-05 0.0 
2.868191767905e-05 9.959081628399e-04 0.0 
0.0 0.0 -1.504701801305e-04 
-1.152928167139e-04 2.794966723813e-05 0.0 
2.794966723813e-05 7.495122634304e-04 0.0 
0.0 0.0 -1.151504190239e-04 
-9.797200402357e-05 2.936337437301e-05 0.0 
2.936337437301e-05 6.310607353231e-04 0.0 
0.0 0.0 -9.826785141749e-05 
-6.968070852175e-05 -2.743361977117e-05 0.0 
-2.743361977117e-05 4.442581749229e-04 0.0 
0.0 0.0 -6.960145924383e-05 
-9.096858632181e-05 2.865428116578e-05 0.0 
2.865428116578e-05 5.831558172230e-04 0.0 
0.0 0.0 -9.136904409387e-05 
-1.529042345816e-04 -2.854559586381e-05 0.0 
-2.854559586381e-05 1.024686749938e-03 0.0 
0.0 0.0 -1.527306194461e-04 
-1.256058487050e-04 2.811261290406e-05 0.0 
2.811261290406e-05 8.215081039068e-04 0.0 
0.0 0.0 -1.254775488864e-04 
-1.980780648734e-04 -3.935700772683e-06 0.0 
-3.935700772683e-06 1.366110574938e-03 0.0 
0.0 0.0 -1.982894430286e-04 
-1.754272809192e-04 -2.841101742405e-05 0.0 
-2.841101742405e-05 1.186882516095e-03 0.0 
0.0 0.0 -1.761487873678e-04 
-6.082182731614e-05 2.853376333875e-05 0.0 
2.853376333875e-05 3.715508262051e-04 0.0 
0.0 0.0 -6.104993218691e-05 
-2.011571007552e-04 9.171145657892e-07 0.0 
9.171145657892e-07 1.321562182738e-03 0.0 
0.0 0.0 -2.011571007552e-04 
-1.869664199368e-04 -1.057224803580e-06 0.0 
-1.057224803580e-06 1.305229682683e-03 0.0 
0.0 0.0 -1.899621165515e-04 
-1.086484700099e-04 2.782826117920e-05 0.0 
2.782826117920e-05 7.032557878447e-04 0.0 
0.0 0.0 -1.085668144712e-04 
-1.464969908307e-05 -1.429149761968e-06 0.0 
-1.429149761968e-06 4.885109050726e-05 0.0 
0.0 0.0 -1.465773918180e-05 
-1.958263237412e-04 5.780106440858e-07 0.0 
5.780106440858e-07 1.365777430136e-03 0.0 
0.0 0.0 -1.985204576056e-04 
-1.757264082716e-04 -2.517232276593e-05 0.0 
-2.517232276593e-05 1.179270301901e-03 0.0 
0.0 0.0 -1.750736792729e-04 
-6.782541782712e-05 3.019373787777e-05 0.0 
3.019373787777e-05 4.206013080560e-04 0.0 
0.0 0.0 -6.802858053956e-05 
-2.012563967287e-04 -1.966469980066e-06 0.0 
-1.966469980066e-06 1.324444202799e-03 0.0 
0.0 0.0 -2.012563967287e-04 
-1.398061958654e-04 -2.943243974614e-05 0.0 
-2.943243974614e-05 9.347188127772e-04 0.0 
0.0 0.0 -1.398839994836e-04 
-9.402070193648e-05 2.712518201061e-05 0.0 
2.712518201061e-05 5.984767473335e-04 0.0 
0.0 0.0 -9.344238907910e-05 
-1.259751156612e-04 2.590313598485e-05 0.0 
2.590313598485e-05 8.271536243356e-04 0.0 
0.0 0.0 -1.261329128710e-04 
-1.209053773198e-04 -2.958653903370e-05 0.0 
-2.958653903370e-05 8.015101038896e-04 0.0 
0.0 0.0 -1.208199794009e-04 
-1.200662961737e-04 -2.928695907517e-05 0.0 
-2.928695907517e-05 7.971639168788e-04 0.0 
0.0 0.0 -1.201302469568e-04 
-1.377407696400e-04 -2.844739825321e-05 0.0 
-2.844739825321e-05 9.201029016575e-04 0.0 
0.0 0.0 -1.377263211214e-04 
-1.455051528160e-04 -2.968427682686e-05 0.0 
-2.968427682686e-05 9.765284886093e-04 0.0 
0.0 0.0 -1.458154293005e-04 
-1.046610403714e-04 2.733139804099e-05 0.0 
2.733139804099e-05 6.730778598484e-04 0.0 
0.0 0.0 -1.041882757323e-04 
-1.560008307498e-04 2.985032891431e-05 0.0 
2.985032891431e-05 1.035131189223e-03 0.0 
0.0 0.0 -1.559113556481e-04 
-1.346325198006e-04 -3.759875847639e-06 0.0 
-3.759875847639e-06 9.030385431769e-04 0.0 
0.0 0.0 -1.325924704931e-04 
-9.742891063834e-05 -2.917049163419e-05 0.0 
-2.917049163419e-05 6.415916256564e-04 0.0 
0.0 0.0 -9.782951018876e-05 
-1.452307842680e-04 2.798410104444e-05 0.0 
2.798410104444e-05 9.572278053497e-04 0.0 
0.0 0.0 -1.449704969611e-04 
-7.715625378280e-05 -2.667442626255e-05 0.0 
-2.667442626255e-05 4.986036227452e-04 0.0 
0.0 0.0 -7.733157599954e-05 
-1.363333543933e-04 2.878191277654e-05 0.0 
2.878191277654e-05 8.968468110316e-04 0.0 
0.0 0.0 -1.364058089354e-04 
-7.777375980435e-06 -7.535368744987e-07 0.0 
-7.535368744987e-07 3.923141655039e-05 0.0 
0.0 0.0 -6.878196728934e-06 
-7.528604578945e-05 -2.595586335955e-05 0.0 
-2.595586335955e-05 4.832975377931e-04 0.0 
0.0 0.0 -7.495963205652e-05 
-7.310000528410e-05 -2.717420889967e-05 0.0 
-2.717420889967e-05 4.696905978795e-04 0.0 
0.0 0.0 -7.313647621482e-05 
-1.067255440210e-04 2.893271527878e-05 0.0 
2.893271527878e-05 6.917423590188e-04 0.0 
0.0 0.0 -1.068984364518e-04 
-1.139491260445e-04 2.826874769749e-05 0.0 
2.826874769749e-05 7.405843148328e-04 0.0 
0.0 0.0 -1.139284295517e-04 
-1.402043620025e-04 2.960631400939e-05 0.0 
2.960631400939e-05 9.251192422938e-04 0.0 
0.0 0.0 -1.402590041820e-04 
-1.335394728763e-04 -2.801522720058e-05 0.0 
-2.801522720058e-05 8.959684456723e-04 0.0 
0.0 0.0 -1.344445438287e-04 
-6.737158343628e-05 -2.804640221892e-05 0.0 
-2.804640221892e-05 4.313606597416e-04 0.0 
0.0 0.0 -6.758331304146e-05 
-2.012741767181e-04 8.821979198628e-07 0.0 
8.821979198628e-07 1.328039817999e-03 0.0 
0.0 0.0 -2.012741767181e-04 
-1.322856537807e-04 -2.842003897691e-05 0.0 
-2.842003897691e-05 8.785134865185e-04 0.0 
0.0 0.0 -1.318490365677e-04 
-1.109362290093e-04 2.909596826543e-05 0.0 
2.909596826543e-05 7.212635507904e-04 0.0 
0.0 0.0 -1.112084472091e-04 
-1.268451666326e-04 -2.799239167254e-05 0.0 
-2.799239167254e-05 8.413818391972e-04 0.0 
0.0 0.0 -1.265499305732e-04 
-1.064793262471e-04 -2.934158827982e-05 0.0 
-2.934158827982e-05 7.019469370670e-04 0.0 
0.0 0.0 -1.064793858277e-04 
0.0 0.0 0.0 
0.0 0.0 0.0 
0.0 0.0 0.0 
-1.318178097822e-04 -2.805518743843e-05 0.0 
-2.805518743843e-05 8.722935110683e-04 0.0 
0.0 0.0 -1.310031782818e-04 
-9.021933528390e-05 3.132040384158e-05 0.0 
3.132040384158e-05 5.739755637610e-04 0.0 
0.0 0.0 -8.934454493796e-05 
0.0 0.0 0.0 
0.0 0.0 0.0 
0.0 0.0 0.0 
-1.052154278640e-04 3.047955035353e-05 0.0 
3.047955035353e-05 6.816420493296e-04 0.0 
0.0 0.0 -1.056191267961e-04 
-1.502367494217e-04 2.924022123396e-05 0.0 
2.924022123396e-05 9.937951500591e-04 0.0 
0.0 0.0 -1.501881972789e-04 
-1.718775265069e-04 2.928709797380e-05 0.0 
2.928709797380e-05 1.146088071217e-03 0.0 
0.0 0.0 -1.720420237578e-04 
-1.280234877616e-04 -2.851125988754e-05 0.0 
-2.851125988754e-05 8.523441205577e-04 0.0 
0.0 0.0 -1.279840527869e-04 
-1.326450779531e-04 2.837607785170e-05 0.0 
2.837607785170e-05 8.704271803974e-04 0.0 
0.0 0.0 -1.326233994657e-04 
-1.124800331858e-04 -2.250634799779e-05 0.0 
-2.250634799779e-05 7.434000254204e-04 0.0 
0.0 0.0 -1.124284764899e-04 
-1.124934330556e-04 -1.147359770401e-06 0.0 
-1.147359770401e-06 6.878881025193e-04 0.0 
0.0 0.0 -1.096893794977e-04 
-1.889722149430e-04 -3.377914207804e-06 0.0 
-3.377914207804e-06 1.272437990102e-03 0.0 
0.0 0.0 -1.929167378009e-04 
-1.214486582279e-04 -2.834437307674e-05 0.0 
-2.834437307674e-05 8.042147269737e-04 0.0 
0.0 0.0 -1.212428182282e-04 
-3.901684544272e-06 -1.266514493921e-06 0.0 
-1.266514493921e-06 3.364292570627e-05 0.0 
0.0 0.0 -6.803381613341e-06 
-4.019702923064e-05 -2.968878104168e-05 0.0 
-2.968878104168e-05 2.317309542851e-04 0.0 
0.0 0.0 -3.854459625752e-05 
-1.433007491539e-05 -2.523139495984e-06 0.0 
-2.523139495984e-06 4.782663812836e-05 0.0 
0.0 0.0 -1.435566994842e-05 
-6.398639061022e-05 -2.382092625923e-05 0.0 
-2.382092625923e-05 4.115367021604e-04 0.0 
0.0 0.0 -6.426199848985e-05 
-1.705216486236e-04 -3.075798588999e-05 0.0 
-3.075798588999e-05 1.144180239023e-03 0.0 
0.0 0.0 -1.701784606649e-04 
-1.720848907896e-04 -2.982707765609e-05 0.0 
-2.982707765609e-05 1.154451966353e-03 0.0 
0.0 0.0 -1.716974477008e-04 
-1.636081653310e-04 2.890679068895e-05 0.0 
2.890679068895e-05 1.083797119579e-03 0.0 
0.0 0.0 -1.631141653006e-04 
-7.191278251009e-05 -2.923981126011e-05 0.0 
-2.923981126011e-05 4.644308216806e-04 0.0 
0.0 0.0 -7.241705069886e-05 
-1.359669915306e-04 -2.927541453388e-05 0.0 
-2.927541453388e-05 9.079369783679e-04 0.0 
0.0 0.0 -1.359475215862e-04 
-1.703257054035e-04 2.861689226726e-05 0.0 
2.861689226726e-05 1.140054647222e-03 0.0 
0.0 0.0 -1.713159247262e-04 
-4.183047912369e-05 -2.572604659906e-05 0.0 
-2.572604659906e-05 2.560153946945e-04 0.0 
0.0 0.0 -4.231798256975e-05 
-8.943823586418e-05 -3.364415979658e-05 0.0 
-3.364415979658e-05 5.775390913927e-04 0.0 
0.0 0.0 -8.913173311910e-05 
-7.231586338472e-05 2.908218695887e-05 0.0 
2.908218695887e-05 4.640276074048e-04 0.0 
0.0 0.0 -7.470029742937e-05 
-2.002434364986e-04 2.390306987834e-06 0.0 
2.390306987834e-06 1.365017058433e-03 0.0 
0.0 0.0 -1.983595295415e-04 
-2.012462808875e-04 -2.397130779802e-06 0.0 
-2.397130779802e-06 1.326802955155e-03 0.0 
0.0 0.0 -2.012462808875e-04 
-1.001924190894e-04 -2.543634002640e-05 0.0 
-2.543634002640e-05 6.415530807948e-04 0.0 
0.0 0.0 -9.870432074603e-05 
-1.098744198639e-04 -2.927420239507e-05 0.0 
-2.927420239507e-05 7.316606535654e-04 0.0 
0.0 0.0 -1.107837014452e-04 
-1.248013625041e-04 2.918553395126e-05 0.0 
2.918553395126e-05 8.167887655362e-04 0.0 
0.0 0.0 -1.248518557812e-04 
-1.744561955947e-04 2.668158714920e-05 0.0 
2.668158714920e-05 1.182258303691e-03 0.0 
0.0 0.0 -1.765917450224e-04 
-4.348855545644e-05 2.994300755885e-05 0.0 
2.994300755885e-05 2.445057852649e-04 0.0 
0.0 0.0 -4.320551243875e-05 
-1.652296485327e-04 2.906332229875e-05 0.0 
2.906332229875e-05 1.101447253650e-03 0.0 
0.0 0.0 -1.657061016896e-04 
-2.403565913090e-05 4.949963233040e-06 0.0 
4.949963233040e-06 1.531777656687e-04 0.0 
0.0 0.0 -2.418834757213e-05 
-1.015799043054e-04 -2.942946605237e-05 0.0 
-2.942946605237e-05 6.633561862995e-04 0.0 
0.0 0.0 -1.008698596220e-04 
-1.119529650465e-04 -2.962126233882e-05 0.0 
-2.962126233882e-05 7.407931298335e-04 0.0 
0.0 0.0 -1.120576983545e-04 
-1.459957790495e-05 2.147032025287e-06 0.0 
2.147032025287e-06 4.870772312705e-05 0.0 
0.0 0.0 -1.461777652376e-05 
-9.161840063277e-05 2.942933483065e-05 0.0 
2.942933483065e-05 6.062252670522e-04 0.0 
0.0 0.0 -9.401387724495e-05 
-1.768726332775e-04 2.584150165173e-05 0.0 
2.584150165173e-05 1.176843255176e-03 0.0 
0.0 0.0 -1.765293208453e-04 
-8.070653634049e-06 -7.127200303669e-07 0.0 
-7.127200303669e-07 3.799287171116e-05 0.0 
0.0 0.0 -6.885492893058e-06 
-1.096879873477e-04 2.043579917607e-06 0.0 
2.043579917607e-06 6.860751141181e-04 0.0 
0.0 0.0 -1.098413067258e-04 
-1.057188370874e-04 1.685883039911e-07 0.0 
1.685883039911e-07 7.271365247556e-04 0.0 
0.0 0.0 -1.069570933414e-04 
-1.432107105009e-04 -2.918049026374e-05 0.0 
-2.918049026374e-05 9.585008998201e-04 0.0 
0.0 0.0 -1.432800021710e-04 
-7.316489204152e-05 -2.863859130745e-05 0.0 
-2.863859130745e-05 4.706303893412e-04 0.0 
0.0 0.0 -7.415269660255e-05 
-7.204753212897e-05 2.972500420552e-05 0.0 
2.972500420552e-05 4.499764828814e-04 0.0 
0.0 0.0 -7.226240082359e-05 
-5.120365076624e-05 -2.544377550683e-05 0.0 
-2.544377550683e-05 3.155956943602e-04 0.0 
0.0 0.0 -5.097082111979e-05 
-1.766764062378e-04 2.618275323120e-05 0.0 
2.618275323120e-05 1.179907026535e-03 0.0 
0.0 0.0 -1.771343179597e-04 
-1.932169887683e-04 -1.186514980036e-06 0.0 
-1.186514980036e-06 1.270206526665e-03 0.0 
0.0 0.0 -1.929291577857e-04 
-1.651550878866e-04 -2.941422592351e-05 0.0 
-2.941422592351e-05 1.109208798495e-03 0.0 
0.0 0.0 -1.651633390879e-04 
-6.755242304519e-05 -2.455549728632e-05 0.0 
-2.455549728632e-05 4.248768375292e-04 0.0 
0.0 0.0 -6.685523357515e-05 
-3.212136007057e-05 3.580530001302e-05 0.0 
3.580530001302e-05 1.447902451166e-04 0.0 
0.0 0.0 -2.858747568434e-05 
-1.054343223867e-04 -2.695876520577e-05 0.0 
-2.695876520577e-05 6.907711584095e-04 0.0 
0.0 0.0 -1.049869670044e-04 
-1.082088607967e-04 -8.344784113160e-08 0.0 
-8.344784113160e-08 6.889651327617e-04 0.0 
0.0 0.0 -1.101766670879e-04 
-1.083270449213e-04 -5.188674785914e-06 0.0 
-5.188674785914e-06 7.291063979252e-04 0.0 
0.0 0.0 -1.071720332863e-04 
0.0 0.0 0.0 
0.0 0.0 0.0 
0.0 0.0 0.0 
-1.419401195472e-05 1.408697338343e-06 0.0 
1.408697338343e-06 4.733218519253e-05 0.0 
0.0 0.0 -1.420207424477e-05 
-2.834770026484e-05 -7.681243720571e-06 0.0 
-7.681243720571e-06 1.096902963104e-04 0.0 
0.0 0.0 -2.693124394472e-05 
-5.719939767419e-05 2.990659681515e-05 0.0 
2.990659681515e-05 3.452165164042e-04 0.0 
0.0 0.0 -5.731412244432e-05 
-1.720930858718e-05 3.350218996686e-07 0.0 
3.350218996686e-07 9.401005302813e-05 0.0 
0.0 0.0 -1.553541414024e-05 
-1.076654832369e-04 2.813964265791e-05 0.0 
2.813964265791e-05 6.806882370998e-04 0.0 
0.0 0.0 -1.037722331524e-04 
0.0 0.0 0.0 
0.0 0.0 0.0 
0.0 0.0 0.0 
-6.700184681606e-05 3.038711416349e-05 0.0 
3.038711416349e-05 4.144588213805e-04 0.0 
0.0 0.0 -6.723558339016e-05 
-1.422690385554e-04 8.906612131176e-06 0.0 
8.906612131176e-06 9.279461319084e-04 0.0 
0.0 0.0 -1.437384108528e-04 
-1.067106135208e-04 1.512146510798e-06 0.0 
1.512146510798e-06 7.288241095318e-04 0.0 
0.0 0.0 -1.068051661132e-04 
-1.732229403376e-04 -3.027991344990e-05 0.0 
-3.027991344990e-05 1.178111385867e-03 0.0 
0.0 0.0 -1.754224665252e-04 
-1.445452663558e-04 2.930268727359e-05 0.0 
2.930268727359e-05 9.544571665351e-04 0.0 
0.0 0.0 -1.446217387457e-04 
-1.353694455665e-04 1.174583702380e-05 0.0 
1.174583702380e-05 8.660998565929e-04 0.0 
0.0 0.0 -1.348267065705e-04 
-7.873004197628e-05 3.045040631702e-05 0.0 
3.045040631702e-05 5.029221835495e-04 0.0 
0.0 0.0 -7.904067945980e-05 
-2.336863266121e-05 -2.139897506835e-06 0.0 
-2.139897506835e-06 1.525920777976e-04 0.0 
0.0 0.0 -2.404492882983e-05 
-2.011462452073e-04 -3.115145181966e-06 0.0 
-3.115145181966e-06 1.323800969612e-03 0.0 
0.0 0.0 -2.011462452073e-04 
-1.997611016349e-04 -1.600977658654e-07 0.0 
-1.600977658654e-07 1.366080671060e-03 0.0 
0.0 0.0 -1.980443072317e-04 
-1.272448923164e-04 3.465279404623e-05 0.0 
3.465279404623e-05 8.424875497443e-04 0.0 
0.0 0.0 -1.288258176484e-04 
-1.119386170519e-04 -1.126021442298e-06 0.0 
-1.126021442298e-06 6.885955176049e-04 0.0 
0.0 0.0 -1.098911005281e-04 
-7.877315288786e-05 -1.808968119029e-05 0.0 
-1.808968119029e-05 5.143209401366e-04 0.0 
0.0 0.0 -7.971767696681e-05 
-1.985236644042e-04 -3.425616005704e-06 0.0 
-3.425616005704e-06 1.362863135910e-03 0.0 
0.0 0.0 -1.983864604134e-04 
-6.236203446175e-05 -2.877830346934e-05 0.0 
-2.877830346934e-05 3.955051293210e-04 0.0 
0.0 0.0 -6.249901059374e-05 
-1.058650871008e-04 -6.246155104235e-07 0.0 
-6.246155104235e-07 7.256170483752e-04 0.0 
0.0 0.0 -1.068842133844e-04 
-1.069697525894e-04 1.084045783815e-06 0.0 
1.084045783815e-06 6.877400680898e-04 0.0 
0.0 0.0 -1.096916328397e-04 
-1.015389602943e-04 2.700360211827e-05 0.0 
2.700360211827e-05 6.538816838809e-04 0.0 
0.0 0.0 -1.013366985113e-04 
-2.012735984050e-04 -2.798087263703e-06 0.0 
-2.798087263703e-06 1.328613650514e-03 0.0 
0.0 0.0 -2.012735984050e-04 
-1.940648784859e-04 2.411070838906e-06 0.0 
2.411070838906e-06 1.364173949612e-03 0.0 
0.0 0.0 -1.983874027871e-04 
-1.690083312634e-05 1.049773310524e-06 0.0 
1.049773310524e-06 9.202054593460e-05 0.0 
0.0 0.0 -1.553532439781e-05 
0.0 0.0 0.0 
0.0 0.0 0.0 
0.0 0.0 0.0 
-3.585533076935e-05 2.904737459937e-05 0.0 
2.904737459937e-05 1.788685704198e-04 0.0 
0.0 0.0 -3.331695100386e-05 
-1.122713198486e-04 2.937932182379e-05 0.0 
2.937932182379e-05 7.306935959273e-04 0.0 
0.0 0.0 -1.124655765398e-04 
-1.835773402027e-04 3.521607307094e-05 0.0 
3.521607307094e-05 1.234731404255e-03 0.0 
0.0 0.0 -1.837003526785e-04 
-5.776823163620e-06 -1.013741336344e-05 0.0 
-1.013741336344e-05 3.224761562078e-05 0.0 
0.0 0.0 -6.760418344035e-06 
-1.642553307267e-04 -3.202846031696e-05 0.0 
-3.202846031696e-05 1.094624480443e-03 0.0 
0.0 0.0 -1.638777942950e-04 
0.0 0.0 0.0 
0.0 0.0 0.0 
0.0 0.0 0.0 
-1.424654463444e-04 2.913249922816e-05 0.0 
2.913249922816e-05 9.390706018894e-04 0.0 
0.0 0.0 -1.423962487430e-04 
-9.432165051581e-06 1.005162211791e-06 0.0 
1.005162211791e-06 4.138276126950e-05 0.0 
0.0 0.0 -6.886565099861e-06 
-9.362857787326e-06 -3.767431995236e-06 0.0 
-3.767431995236e-06 3.953910185584e-05 0.0 
0.0 0.0 -6.922935307491e-06 
-1.370365661157e-04 2.914478147057e-05 0.0 
2.914478147057e-05 9.005660180564e-04 0.0 
0.0 0.0 -1.368385334393e-04 
-1.786566956368e-04 2.931910129804e-05 0.0 
2.931910129804e-05 1.196344419870e-03 0.0 
0.0 0.0 -1.789445754221e-04 
-1.403014539755e-04 -1.415648790463e-05 0.0 
-1.415648790463e-05 9.602064443499e-04 0.0 
0.0 0.0 -1.404190723625e-04 
-1.093898583646e-04 -2.651797813815e-05 0.0 
-2.651797813815e-05 7.193684517441e-04 0.0 
0.0 0.0 -1.090260965338e-04 
-1.456607726240e-05 -2.038157053184e-06 0.0 
-2.038157053184e-06 4.859194839432e-05 0.0 
0.0 0.0 -1.458251619940e-05 
-1.403045830740e-04 -2.944113871056e-05 0.0 
-2.944113871056e-05 9.375602710699e-04 0.0 
0.0 0.0 -1.402353347023e-04 
-2.006696725991e-04 -3.796241326952e-06 0.0 
-3.796241326952e-06 1.322105168317e-03 0.0 
0.0 0.0 -2.006696725991e-04 
-1.989054431028e-04 -2.182972558240e-05 0.0 
-2.182972558240e-05 1.362302379513e-03 0.0 
0.0 0.0 -1.983532132695e-04 
-1.068515601043e-04 1.760793152409e-06 0.0 
1.760793152409e-06 7.282983415426e-04 0.0 
0.0 0.0 -1.068864667265e-04 
-1.479030554931e-04 2.849872559925e-05 0.0 
2.849872559925e-05 9.774939211832e-04 0.0 
0.0 0.0 -1.479563560404e-04 
-2.012411575798e-04 2.034835726214e-06 0.0 
2.034835726214e-06 1.326088054461e-03 0.0 
0.0 0.0 -2.012411575798e-04 
-1.572471139556e-04 -3.123527971848e-05 0.0 
-3.123527971848e-05 1.052974899250e-03 0.0 
0.0 0.0 -1.570065405944e-04 
-2.512952758235e-05 6.164143337161e-06 0.0 
6.164143337161e-06 1.447280408939e-04 0.0 
0.0 0.0 -2.384861487001e-05 
-1.601508775722e-05 -1.437488736464e-06 0.0 
-1.437488736464e-06 9.300170481307e-05 0.0 
0.0 0.0 -1.544587960073e-05 
-1.543264015197e-05 -6.472491513265e-06 0.0 
-6.472491513265e-06 5.180474928483e-05 0.0 
0.0 0.0 -1.558804677123e-05 
-8.807433739710e-05 2.930499283462e-05 0.0 
2.930499283462e-05 5.721318599330e-04 0.0 
0.0 0.0 -8.900037232384e-05 
-2.000509150237e-04 -1.803318756068e-05 0.0 
-1.803318756068e-05 1.362940764782e-03 0.0 
0.0 0.0 -1.984242861770e-04 
-1.873647884484e-04 -3.488074856058e-05 0.0 
-3.488074856058e-05 1.273069634555e-03 0.0 
0.0 0.0 -1.887494668184e-04 
0.0 0.0 0.0 
0.0 0.0 0.0 
0.0 0.0 0.0 
-1.048455043466e-04 -2.786233972015e-05 0.0 
-2.786233972015e-05 6.764000404035e-04 0.0 
0.0 0.0 -1.040814173273e-04 
-2.017197471554e-04 8.241581226717e-07 0.0 
8.241581226717e-07 1.329062272743e-03 0.0 
0.0 0.0 -2.017197471554e-04 
-2.005984413255e-04 5.516146765968e-06 0.0 
5.516146765968e-06 1.367793765917e-03 0.0 
0.0 0.0 -1.978177876756e-04 
-1.955632613542e-04 2.146035678257e-07 0.0 
2.146035678257e-07 1.364429749039e-03 0.0 
0.0 0.0 -1.981726781329e-04 
-1.551674337257e-04 3.213659539949e-05 0.0 
3.213659539949e-05 1.026132370703e-03 0.0 
0.0 0.0 -1.540722572613e-04 
-1.676819576491e-04 -3.244106652331e-05 0.0 
-3.244106652331e-05 1.132368160945e-03 0.0 
0.0 0.0 -1.688564288694e-04 
-2.007045390215e-04 -1.045242026293e-06 0.0 
-1.045242026293e-06 1.322895647985e-03 0.0 
0.0 0.0 -2.007045390215e-04 
-2.011132486540e-04 -4.189740075221e-06 0.0 
-4.189740075221e-06 1.326334124050e-03 0.0 
0.0 0.0 -2.011132486540e-04 
-1.626580735659e-04 2.634343120663e-05 0.0 
2.634343120663e-05 1.095653417165e-03 0.0 
0.0 0.0 -1.638777942950e-04 
-3.467643311259e-06 1.128712139723e-05 0.0 
1.128712139723e-05 2.762392691705e-05 0.0 
0.0 0.0 -6.812318873104e-06 
-1.069489536729e-04 -2.288587191676e-07 0.0 
-2.288587191676e-07 7.222038744284e-04 0.0 
0.0 0.0 -1.070930873830e-04 
-1.082084560241e-04 4.524390449744e-06 0.0 
4.524390449744e-06 7.317697196541e-04 0.0 
0.0 0.0 -1.070046338016e-04 
0.0 0.0 0.0 
0.0 0.0 0.0 
0.0 0.0 0.0 
-2.013470386860e-04 1.582993778475e-06 0.0 
1.582993778475e-06 1.331092746641e-03 0.0 
0.0 0.0 -2.013470386860e-04 
-2.004992679381e-04 3.810616673030e-06 0.0 
3.810616673030e-06 1.366146148260e-03 0.0 
0.0 0.0 -1.977533921434e-04 
-2.006939626645e-04 9.733569450263e-08 0.0 
9.733569450263e-08 1.322104658797e-03 0.0 
0.0 0.0 -2.006939626645e-04 
-1.033192631121e-05 1.099005081210e-06 0.0 
1.099005081210e-06 3.989146001766e-05 0.0 
0.0 0.0 -6.874462243606e-06 
-1.053268595906e-05 1.440397429326e-06 0.0 
1.440397429326e-06 4.104748301093e-05 0.0 
0.0 0.0 -6.887055179908e-06 
-2.011132486540e-04 -1.745116755587e-07 0.0 
-1.745116755587e-07 1.324356223126e-03 0.0 
0.0 0.0 -2.011132486540e-04 
-2.010594294788e-04 -3.067167593136e-06 0.0 
-3.067167593136e-06 1.323008264150e-03 0.0 
0.0 0.0 -2.010594294788e-04 
-1.525144534316e-04 -3.469908965430e-05 0.0 
-3.469908965430e-05 9.919929974676e-04 0.0 
0.0 0.0 -1.490508918356e-04 
-1.073514247561e-04 4.761945652643e-06 0.0 
4.761945652643e-06 7.219659484264e-04 0.0 
0.0 0.0 -1.068727795842e-04 
-1.577537368329e-04 -3.403094625324e-05 0.0 
-3.403094625324e-05 1.060418053842e-03 0.0 
0.0 0.0 -1.590213654257e-04 
-1.328454241957e-04 -3.370191828823e-05 0.0 
-3.370191828823e-05 8.485398635158e-04 0.0 
0.0 0.0 -1.293991128285e-04 
-1.046169236010e-04 1.973664755836e-06 0.0 
1.973664755836e-06 7.223528969599e-04 0.0 
0.0 0.0 -1.068286901835e-04 
-4.614602936406e-06 5.445308269796e-06 0.0 
5.445308269796e-06 3.738876181996e-05 0.0 
0.0 0.0 -6.743366273123e-06 
-7.288647016025e-06 -5.605815272385e-06 0.0 
-5.605815272385e-06 4.290456148284e-05 0.0 
0.0 0.0 -6.886751345948e-06 
-4.777740867475e-06 -1.713355770572e-06 0.0 
-1.713355770572e-06 3.704418379984e-05 0.0 
0.0 0.0 -6.883523363406e-06 
-7.097131879007e-06 -1.839146356973e-06 0.0 
-1.839146356973e-06 3.989175121334e-05 0.0 
0.0 0.0 -6.834868364323e-06 
-1.111644977682e-04 3.476120600100e-05 0.0 
3.476120600100e-05 7.142233904721e-04 0.0 
0.0 0.0 -1.090698765213e-04 
-9.850854995735e-05 3.047113839014e-05 0.0 
3.047113839014e-05 6.418056074726e-04 0.0 
0.0 0.0 -9.901154080588e-05 
0.0 0.0 0.0 
0.0 0.0 0.0 
0.0 0.0 0.0 
-1.379803939868e-04 3.311278655235e-05 0.0 
3.311278655235e-05 9.246797732210e-04 0.0 
0.0 0.0 -1.383256398532e-04 
0.0 0.0 0.0 
0.0 0.0 0.0 
0.0 0.0 0.0 
-2.012207460908e-04 8.138655548157e-07 0.0 
8.138655548157e-07 1.323125614848e-03 0.0 
0.0 0.0 -2.012207460908e-04 
-2.011453028336e-04 1.874611865645e-06 0.0 
1.874611865645e-06 1.321148462492e-03 0.0 
0.0 0.0 -2.011453028336e-04 
-2.008980620244e-04 -1.010417860953e-06 0.0 
-1.010417860953e-06 1.324898106472e-03 0.0 
0.0 0.0 -2.008980620244e-04 
-3.774320917617e-05 3.566462655254e-05 0.0 
3.566462655254e-05 2.216925288799e-04 0.0 
0.0 0.0 -3.898704224316e-05 
-6.749434365589e-05 3.096998135248e-05 0.0 
3.096998135248e-05 4.319785382730e-04 0.0 
0.0 0.0 -6.911201714261e-05 
-2.005699367862e-04 -7.190292655297e-07 0.0 
-7.190292655297e-07 1.323013138076e-03 0.0 
0.0 0.0 -2.005699367862e-04 
-1.680240814146e-04 2.828255466262e-05 0.0 
2.828255466262e-05 1.134108335992e-03 0.0 
0.0 0.0 -1.687435400630e-04 
-2.016835406704e-04 -3.156370070795e-06 0.0 
-3.156370070795e-06 1.329078538970e-03 0.0 
0.0 0.0 -2.016835406704e-04 
-1.793487015674e-04 3.012936828637e-05 0.0 
3.012936828637e-05 1.204201687729e-03 0.0 
0.0 0.0 -1.788807376869e-04 
-1.896811634642e-04 3.473757623144e-05 0.0 
3.473757623144e-05 1.274809396155e-03 0.0 
0.0 0.0 -1.889858754357e-04 
-9.329662399263e-05 -3.052995434082e-05 0.0 
-3.052995434082e-05 6.062639241622e-04 0.0 
0.0 0.0 -9.401191312989e-05 
-2.000004866553e-04 -4.935042552872e-06 0.0 
-4.935042552872e-06 1.365934607507e-03 0.0 
0.0 0.0 -1.977152396198e-04 
-2.004002946706e-04 1.743259095834e-05 0.0 
1.743259095834e-05 1.363643771933e-03 0.0 
0.0 0.0 -1.982534774566e-04 
-1.735523764126e-04 -3.096544822671e-05 0.0 
-3.096544822671e-05 1.160586461079e-03 0.0 
0.0 0.0 -1.736242777500e-04 
-1.844507237627e-04 -3.076693800438e-05 0.0 
-3.076693800438e-05 1.234271765678e-03 0.0 
0.0 0.0 -1.838666131227e-04 
-1.480705946354e-04 -2.799822277007e-05 0.0 
-2.799822277007e-05 9.966603041907e-04 0.0 
0.0 0.0 -1.488773473547e-04 
0.0 0.0 0.0 
0.0 0.0 0.0 
0.0 0.0 0.0 
-9.787607230901e-05 -3.033430602603e-05 0.0 
-3.033430602603e-05 6.248974769917e-04 0.0 
0.0 0.0 -9.525361646419e-05 
-1.594166567358e-05 -3.750042762657e-06 0.0 
-3.750042762657e-06 8.963110813763e-05 0.0 
0.0 0.0 -1.545597323287e-05 
-1.766298993527e-04 -2.600424007003e-05 0.0 
-2.600424007003e-05 1.189008728009e-03 0.0 
0.0 0.0 -1.766728545426e-04 
-1.011715525641e-04 2.892404910577e-05 0.0 
2.892404910577e-05 6.528362141215e-04 0.0 
0.0 0.0 -1.013053728898e-04 
-1.643672164407e-04 2.795643146507e-05 0.0 
2.795643146507e-05 1.094563530101e-03 0.0 
0.0 0.0 -1.648525347569e-04 
-5.293095072300e-05 -2.919541751065e-05 0.0 
-2.919541751065e-05 3.265136357570e-04 0.0 
0.0 0.0 -5.257162719418e-05 
-2.326140168062e-05 1.809898427410e-05 0.0 
1.809898427410e-05 1.126266936620e-04 0.0 
0.0 0.0 -2.603928234478e-05 
-1.740902369364e-04 -2.842066329623e-05 0.0 
-2.842066329623e-05 1.173125089393e-03 0.0 
0.0 0.0 -1.742502449863e-04 
-1.033465261807e-04 -2.962592743150e-05 0.0 
-2.962592743150e-05 6.925891601377e-04 0.0 
0.0 0.0 -1.051812066754e-04 
-8.643013593859e-05 3.008982733389e-05 0.0 
3.008982733389e-05 5.377346504154e-04 0.0 
0.0 0.0 -8.417044846400e-05 
-1.640235310558e-04 -2.864236577619e-05 0.0 
-2.864236577619e-05 1.105176284391e-03 0.0 
0.0 0.0 -1.644154061664e-04 
-1.767953130454e-04 2.924397373916e-05 0.0 
2.924397373916e-05 1.186936749162e-03 0.0 
0.0 0.0 -1.783361800308e-04 
-8.342488227328e-05 -3.047437538585e-05 0.0 
-3.047437538585e-05 5.389729855638e-04 0.0 
0.0 0.0 -8.404105178381e-05 
-1.553105581953e-04 -3.047408891050e-05 0.0 
-3.047408891050e-05 1.042435393668e-03 0.0 
0.0 0.0 -1.553470185564e-04 
-1.377037381347e-04 2.897215065226e-05 0.0 
2.897215065226e-05 9.063511737441e-04 0.0 
0.0 0.0 -1.377261412248e-04 
-1.487663362168e-04 3.034863814033e-05 0.0 
3.034863814033e-05 9.863621124124e-04 0.0 
0.0 0.0 -1.492918029589e-04 
-1.536565537427e-04 2.792959174996e-05 0.0 
2.792959174996e-05 1.019186869417e-03 0.0 
0.0 0.0 -1.536336870150e-04 
-8.703976113534e-05 2.837055784379e-05 0.0 
2.837055784379e-05 5.518675504069e-04 0.0 
0.0 0.0 -8.683226689744e-05 
-1.002022259484e-04 -2.590961570230e-05 0.0 
-2.590961570230e-05 6.551468687222e-04 0.0 
0.0 0.0 -9.977007195992e-05 
-1.093881919947e-04 -2.770239582758e-05 0.0 
-2.770239582758e-05 7.220131976624e-04 0.0 
0.0 0.0 -1.093958643288e-04 
-1.406127741505e-04 2.917136878775e-05 0.0 
2.917136878775e-05 9.268398262503e-04 0.0 
0.0 0.0 -1.406784318969e-04 
-1.687115161712e-04 -3.067342872161e-05 0.0 
-3.067342872161e-05 1.136830953558e-03 0.0 
0.0 0.0 -1.687651353947e-04 
-1.585913072065e-04 2.928358840365e-05 0.0 
2.928358840365e-05 1.052859338839e-03 0.0 
0.0 0.0 -1.580633810106e-04 
-5.479081598616e-05 2.994038105978e-05 0.0 
2.994038105978e-05 3.289222848753e-04 0.0 
0.0 0.0 -5.528240989263e-05 
-1.746871843674e-04 3.283276217726e-05 0.0 
3.283276217726e-05 1.185116148222e-03 0.0 
0.0 0.0 -1.775271150753e-04 
-1.679442359996e-04 3.131022344942e-05 0.0 
3.131022344942e-05 1.115031446851e-03 0.0 
0.0 0.0 -1.675626104125e-04 
-1.221593488371e-04 3.511867114280e-05 0.0 
3.511867114280e-05 8.006612417280e-04 0.0 
0.0 0.0 -1.216572242888e-04 
-1.462466688388e-04 2.908933395677e-05 0.0 
2.908933395677e-05 9.660970915257e-04 0.0 
0.0 0.0 -1.463062179487e-04 
-1.447835164611e-04 2.956128772271e-05 0.0 
2.956128772271e-05 9.567010152770e-04 0.0 
0.0 0.0 -1.449838819924e-04 
-1.792333390310e-04 -3.168391798873e-05 0.0 
-3.168391798873e-05 1.203028324022e-03 0.0 
0.0 0.0 -1.778043281469e-04 
-1.726861877255e-04 2.779707870147e-05 0.0 
2.779707870147e-05 1.157249200719e-03 0.0 
0.0 0.0 -1.726459165900e-04 
-1.329452909279e-04 -2.927403005553e-05 0.0 
-2.927403005553e-05 8.870966851266e-04 0.0 
0.0 0.0 -1.330039573441e-04 
-1.775653267684e-04 -2.916250387629e-05 0.0 
-2.916250387629e-05 1.203364525945e-03 0.0 
0.0 0.0 -1.786308073928e-04 
-1.654805505207e-04 2.898950024976e-05 0.0 
2.898950024976e-05 1.100881704438e-03 0.0 
0.0 0.0 -1.655124361118e-04 
-1.580020696379e-04 -2.712101494930e-05 0.0 
-2.712101494930e-05 1.052848737751e-03 0.0 
0.0 0.0 -1.580622427210e-04 
-1.810952274087e-04 -3.284061138223e-05 0.0 
-3.284061138223e-05 1.222270948259e-03 0.0 
0.0 0.0 -1.815025845867e-04 
-1.775177136140e-04 -3.096279402686e-05 0.0 
-3.096279402686e-05 1.194150968252e-03 0.0 
0.0 0.0 -1.772606145979e-04 
-1.518616300347e-04 -3.096354740043e-05 0.0 
-3.096354740043e-05 1.015068895178e-03 0.0 
0.0 0.0 -1.517726872707e-04 
-1.496823891535e-04 -2.920446452269e-05 0.0 
-2.920446452269e-05 1.003862088151e-03 0.0 
0.0 0.0 -1.497848398488e-04 
-5.427687096238e-05 2.854055310501e-05 0.0 
2.854055310501e-05 3.273443379495e-04 0.0 
0.0 0.0 -5.466547164957e-05 
-5.095033440368e-05 2.883575061878e-05 0.0 
2.883575061878e-05 3.031424762161e-04 0.0 
0.0 0.0 -5.122137633346e-05 
-3.072034194903e-05 -3.506956867742e-05 0.0 
-3.506956867742e-05 1.557986335542e-04 0.0 
0.0 0.0 -2.814555096794e-05 
-1.579898709992e-05 2.384950188939e-07 0.0 
2.384950188939e-07 9.239980657952e-05 0.0 
0.0 0.0 -1.548055260559e-05 
-1.719981887166e-04 -3.054801319503e-05 0.0 
-3.054801319503e-05 1.160032239923e-03 0.0 
0.0 0.0 -1.726497055680e-04 
-1.730057153277e-04 2.894349992059e-05 0.0 
2.894349992059e-05 1.155971227885e-03 0.0 
0.0 0.0 -1.735259579760e-04 
-1.534650184937e-05 9.500651036844e-07 0.0 
9.500651036844e-07 8.883806811954e-05 0.0 
0.0 0.0 -1.543927480913e-05 
-1.729354271187e-04 -2.918916139558e-05 0.0 
-2.918916139558e-05 1.170988397774e-03 0.0 
0.0 0.0 -1.740447999656e-04 
-1.236089081148e-04 3.200079916068e-05 0.0 
3.200079916068e-05 8.273931967603e-04 0.0 
0.0 0.0 -1.265519798902e-04 
-1.594739007149e-04 -3.000529878065e-05 0.0 
-3.000529878065e-05 1.075639781327e-03 0.0 
0.0 0.0 -1.601216174199e-04 
-1.636627678593e-04 2.889886741851e-05 0.0 
2.889886741851e-05 1.086851557310e-03 0.0 
0.0 0.0 -1.635645035532e-04 
-7.625528765098e-05 2.781792169367e-05 0.0 
2.781792169367e-05 4.777485640918e-04 0.0 
0.0 0.0 -7.635943377870e-05 
-1.632628531148e-04 -2.978415075944e-05 0.0 
-2.978415075944e-05 1.096266397172e-03 0.0 
0.0 0.0 -1.631933750172e-04 
-1.207910536096e-04 -4.061404171323e-05 0.0 
-4.061404171323e-05 8.019844783726e-04 0.0 
0.0 0.0 -1.215026445147e-04 
-1.504315644849e-04 -2.965320847345e-05 0.0 
-2.965320847345e-05 1.005966507733e-03 0.0 
0.0 0.0 -1.500583224091e-04 
-1.846754410923e-04 3.352091310646e-05 0.0 
3.352091310646e-05 1.245792346023e-03 0.0 
0.0 0.0 -1.864447358774e-04 
-5.279032525833e-05 2.208619701697e-05 0.0 
2.208619701697e-05 3.133772429488e-04 0.0 
0.0 0.0 -5.313656330857e-05 
-1.831953493923e-04 -2.511536867923e-05 0.0 
-2.511536867923e-05 1.231406037521e-03 0.0 
0.0 0.0 -1.822568313532e-04 
-1.571776203955e-04 -2.822373229928e-05 0.0 
-2.822373229928e-05 1.054015413805e-03 0.0 
0.0 0.0 -1.572433088830e-04 
-5.834406746481e-05 3.055754480025e-05 0.0 
3.055754480025e-05 3.570231696704e-04 0.0 
0.0 0.0 -5.895916886618e-05 
-6.008933693805e-05 -2.693292101219e-05 0.0 
-2.693292101219e-05 3.827519316289e-04 0.0 
0.0 0.0 -6.052350288525e-05 
-1.184340009129e-04 2.989577006112e-05 0.0 
2.989577006112e-05 7.732438321287e-04 0.0 
0.0 0.0 -1.186440953039e-04 
-1.421755537841e-04 3.042033410873e-05 0.0 
3.042033410873e-05 9.320324598368e-04 0.0 
0.0 0.0 -1.411471141782e-04 
-8.083756678408e-05 2.897464216654e-05 0.0 
2.897464216654e-05 5.134881601291e-04 0.0 
0.0 0.0 -8.144657762318e-05 
-1.627359267385e-04 -3.016848544890e-05 0.0 
-3.016848544890e-05 1.091242501789e-03 0.0 
0.0 0.0 -1.627679727590e-04 
-1.463730196707e-04 -3.358422439378e-05 0.0 
-3.358422439378e-05 9.789488013624e-04 0.0 
0.0 0.0 -1.472519143444e-04 
-1.152261228612e-04 2.820263711739e-05 0.0 
2.820263711739e-05 7.517075314357e-04 0.0 
0.0 0.0 -1.155139551463e-04 
-1.539721025279e-04 -2.767350944115e-05 0.0 
-2.767350944115e-05 1.026348259349e-03 0.0 
0.0 0.0 -1.532636563680e-04 
-1.586940631686e-04 -2.997071389939e-05 0.0 
-2.997071389939e-05 1.067020467702e-03 0.0 
0.0 0.0 -1.588045401937e-04 
-1.586913358411e-04 3.263624713145e-05 0.0 
3.263624713145e-05 1.044672031080e-03 0.0 
0.0 0.0 -1.576021588438e-04 
-4.550621427776e-05 -2.757364409112e-05 0.0 
-2.757364409112e-05 2.786110438531e-04 0.0 
0.0 0.0 -4.588123838153e-05 
-1.095812830794e-04 2.804439789498e-05 0.0 
2.804439789498e-05 7.132223363853e-04 0.0 
0.0 0.0 -1.099287363951e-04 
-1.704275424327e-04 3.124314915643e-05 0.0 
3.124314915643e-05 1.141631777300e-03 0.0 
0.0 0.0 -1.711692687607e-04 
-1.617652388930e-04 -2.976223953276e-05 0.0 
-2.976223953276e-05 1.085248624266e-03 0.0 
0.0 0.0 -1.617298285672e-04 
-9.932779323652e-05 3.247070041484e-05 0.0 
3.247070041484e-05 6.407303244551e-04 0.0 
0.0 0.0 -1.000025319772e-04 
-1.372362599773e-04 -2.929140934786e-05 0.0 
-2.929140934786e-05 9.170515288159e-04 0.0 
0.0 0.0 -1.372955424611e-04 
-1.781532306591e-04 -3.038825115168e-05 0.0 
-3.038825115168e-05 1.202531523701e-03 0.0 
0.0 0.0 -1.781379491294e-04 
-1.507990336472e-04 2.853112124702e-05 0.0 
2.853112124702e-05 1.007077831849e-03 0.0 
0.0 0.0 -1.520953659658e-04 
-2.863924773083e-05 -3.201515123380e-05 0.0 
-3.201515123380e-05 1.478580457183e-04 0.0 
0.0 0.0 -2.710093308172e-05 
-2.955220796048e-05 -3.089794713249e-05 0.0 
-3.089794713249e-05 1.503888673604e-04 0.0 
0.0 0.0 -2.753304043464e-05 
-5.273989345688e-05 -2.717936029267e-05 0.0 
-2.717936029267e-05 3.233117972350e-04 0.0 
0.0 0.0 -5.201063495363e-05 
-1.693284171481e-04 3.002349955065e-05 0.0 
3.002349955065e-05 1.126502264070e-03 0.0 
0.0 0.0 -1.691756543757e-04 
-1.472485094623e-04 2.900717882423e-05 0.0 
2.900717882423e-05 9.697797839987e-04 0.0 
0.0 0.0 -1.466250473148e-04 
-1.255735830660e-04 -3.222245594843e-05 0.0 
-3.222245594843e-05 8.565507458900e-04 0.0 
0.0 0.0 -1.276957716749e-04 
-1.309605655324e-04 2.844392373699e-05 0.0 
2.844392373699e-05 8.631762486065e-04 0.0 
0.0 0.0 -1.311842221922e-04 
-1.705994579248e-04 -2.912195010466e-05 0.0 
-2.912195010466e-05 1.150350461823e-03 0.0 
0.0 0.0 -1.708795005752e-04 
-1.197229653638e-04 2.838848019244e-05 0.0 
2.838848019244e-05 7.818358523863e-04 0.0 
0.0 0.0 -1.198307167265e-04 
-1.587419479579e-04 2.931310418594e-05 0.0 
2.931310418594e-05 1.056312831607e-03 0.0 
0.0 0.0 -1.592449238259e-04 
-5.334541196780e-05 -2.737759313696e-05 0.0 
-2.737759313696e-05 3.380073693947e-04 0.0 
0.0 0.0 -5.422683465997e-05 
-1.820085836177e-04 3.596926237720e-05 0.0 
3.596926237720e-05 1.220521251632e-03 0.0 
0.0 0.0 -1.817296696507e-04 
-1.149006963939e-04 -2.979806393901e-05 0.0 
-2.979806393901e-05 7.621150101384e-04 0.0 
0.0 0.0 -1.150969102169e-04 
-5.891651114318e-05 -2.911512363173e-05 0.0 
-2.911512363173e-05 3.703729731158e-04 0.0 
0.0 0.0 -5.833749487792e-05 
-1.097144826368e-04 -3.210843000057e-05 0.0 
-3.210843000057e-05 7.218042111898e-04 0.0 
0.0 0.0 -1.096669806773e-04 
-8.504854609334e-05 2.789969650457e-05 0.0 
2.789969650457e-05 5.434275787344e-04 0.0 
0.0 0.0 -8.575010502696e-05 
-6.662869610534e-05 -2.920394233023e-05 0.0 
-2.920394233023e-05 4.253303798385e-04 0.0 
0.0 0.0 -6.679150530213e-05 
-1.281203035701e-04 2.817302591064e-05 0.0 
2.817302591064e-05 8.398276961004e-04 0.0 
0.0 0.0 -1.284742647491e-04 
0.0 0.0 0.0 
0.0 0.0 0.0 
0.0 0.0 0.0 
0.0 0.0 0.0 
0.0 0.0 0.0 
0.0 0.0 0.0 
-1.445088964832e-04 -2.893688476098e-05 0.0 
-2.893688476098e-05 9.674073108634e-04 0.0 
0.0 0.0 -1.445400849015e-04 
-4.892423638284e-05 -2.632452238192e-05 0.0 
-2.632452238192e-05 3.096365629157e-04 0.0 
0.0 0.0 -5.004674077938e-05 
-1.457493822096e-04 -2.962474104526e-05 0.0 
-2.962474104526e-05 9.767716228798e-04 0.0 
0.0 0.0 -1.458658349781e-04 
-1.415183033580e-04 -2.921664079038e-05 0.0 
-2.921664079038e-05 9.471227879207e-04 0.0 
0.0 0.0 -1.415771022166e-04 
-9.224355795817e-05 2.937565561905e-05 0.0 
2.937565561905e-05 5.919004124542e-04 0.0 
0.0 0.0 -9.266636470267e-05 
-6.202111907479e-05 2.972814442546e-05 0.0 
2.972814442546e-05 3.814986374049e-04 0.0 
0.0 0.0 -6.243334508123e-05 
-1.705073254263e-04 -3.058386286971e-05 0.0 
-3.058386286971e-05 1.147565254188e-03 0.0 
0.0 0.0 -1.706579733040e-04 
-3.233825504350e-05 -1.324403429526e-05 0.0 
-1.324403429526e-05 1.436007537479e-04 0.0 
0.0 0.0 -3.071301381923e-05 
-9.032577727252e-05 2.603440625466e-05 0.0 
2.603440625466e-05 5.755517471348e-04 0.0 
0.0 0.0 -9.007223908940e-05 
-1.758201471036e-04 -2.496828995894e-05 0.0 
-2.496828995894e-05 1.183557369344e-03 0.0 
0.0 0.0 -1.763300484694e-04 
-4.234236352950e-05 2.833023666619e-05 0.0 
2.833023666619e-05 2.526301394403e-04 0.0 
0.0 0.0 -4.466356309917e-05 
-1.370406890181e-04 -2.882178052615e-05 0.0 
-2.882178052615e-05 9.084977336144e-04 0.0 
0.0 0.0 -1.363328868096e-04 
-1.251017907088e-04 -3.342170659080e-05 0.0 
-3.342170659080e-05 8.360831923250e-04 0.0 
0.0 0.0 -1.262442940543e-04 
-4.243995648314e-05 -2.885964126201e-05 0.0 
-2.885964126201e-05 2.574366796815e-04 0.0 
0.0 0.0 -4.263591946142e-05 
-1.739889600423e-04 -2.690839563986e-05 0.0 
-2.690839563986e-05 1.171323703451e-03 0.0 
0.0 0.0 -1.738083055154e-04 
-1.553384911707e-04 -2.978982874275e-05 0.0 
-2.978982874275e-05 1.040098894659e-03 0.0 
0.0 0.0 -1.552347842588e-04 
-5.039241409165e-05 2.679614467153e-05 0.0 
2.679614467153e-05 2.983848210045e-04 0.0 
0.0 0.0 -5.046983505462e-05 
-1.747728255798e-04 -2.774380167709e-05 0.0 
-2.774380167709e-05 1.177437247902e-03 0.0 
0.0 0.0 -1.749780669508e-04 
-1.757727651253e-04 2.551606084145e-05 0.0 
2.551606084145e-05 1.168074540028e-03 0.0 
0.0 0.0 -1.753502448874e-04 
-5.505726652839e-05 -3.093038002705e-05 0.0 
-3.093038002705e-05 3.465532391474e-04 0.0 
0.0 0.0 -5.552857102027e-05 
-7.317029843834e-05 -3.194987778490e-05 0.0 
-3.194987778490e-05 4.614269377597e-04 0.0 
0.0 0.0 -7.202002872087e-05 
-5.677279645057e-05 -2.927873741732e-05 0.0 
-2.927873741732e-05 3.560995133108e-04 0.0 
0.0 0.0 -5.686660089389e-05 
-1.535151853389e-04 -2.933036748660e-05 0.0 
-2.933036748660e-05 1.036192859014e-03 0.0 
0.0 0.0 -1.544885262514e-04 
-1.242530601195e-04 2.861329611066e-05 0.0 
2.861329611066e-05 8.120316343009e-04 0.0 
0.0 0.0 -1.241455235793e-04 
-1.762597939278e-04 2.757012001528e-05 0.0 
2.757012001528e-05 1.169740478878e-03 0.0 
0.0 0.0 -1.754294197466e-04 
-1.711850229745e-04 2.864038460658e-05 0.0 
2.864038460658e-05 1.139237277346e-03 0.0 
0.0 0.0 -1.710046063662e-04 
-1.497953027623e-04 -2.952090845357e-05 0.0 
-2.952090845357e-05 1.006551656477e-03 0.0 
0.0 0.0 -1.501751650533e-04 
-1.503962620125e-04 2.908649725408e-05 0.0 
2.908649725408e-05 9.959224082837e-04 0.0 
0.0 0.0 -1.506140208444e-04 
-4.755962799573e-05 2.961725835591e-05 0.0 
2.961725835591e-05 2.764290125414e-04 0.0 
0.0 0.0 -4.738039998630e-05 
-1.544053010064e-04 2.921080048960e-05 0.0 
2.921080048960e-05 1.025561320549e-03 0.0 
0.0 0.0 -1.549280912548e-04 
-1.557486119605e-04 2.953656624643e-05 0.0 
2.953656624643e-05 1.031918401575e-03 0.0 
0.0 0.0 -1.555717122721e-04 
-1.233043498576e-04 -2.852184502998e-05 0.0 
-2.852184502998e-05 8.222615261922e-04 0.0 
0.0 0.0 -1.237306916726e-04 
-1.467661945651e-04 -2.993950527874e-05 0.0 
-2.993950527874e-05 9.778837446955e-04 0.0 
0.0 0.0 -1.462911275235e-04 
-1.606564974618e-04 -3.021309399430e-05 0.0 
-3.021309399430e-05 1.078198516753e-03 0.0 
0.0 0.0 -1.607123627396e-04 
-1.117498861518e-04 2.850262572474e-05 0.0 
2.850262572474e-05 7.245894762642e-04 0.0 
0.0 0.0 -1.115305788895e-04 
-1.668451985095e-04 2.929977478704e-05 0.0 
2.929977478704e-05 1.108305524184e-03 0.0 
0.0 0.0 -1.665387401245e-04 
-1.057225299962e-04 3.155313044250e-05 0.0 
3.155313044250e-05 6.826770249726e-04 0.0 
0.0 0.0 -1.044775758143e-04 
-1.196746585436e-04 -2.994940432812e-05 0.0 
-2.994940432812e-05 7.923200024953e-04 0.0 
0.0 0.0 -1.194095964715e-04 
-8.002674295402e-05 3.358846946639e-05 0.0 
3.358846946639e-05 5.079680145232e-04 0.0 
0.0 0.0 -8.013437995356e-05 
-8.330364669841e-05 -2.724402051282e-05 0.0 
-2.724402051282e-05 5.442521817240e-04 0.0 
0.0 0.0 -8.372375584921e-05 
-1.515465133375e-04 2.950843049766e-05 0.0 
2.950843049766e-05 1.000906494757e-03 0.0 
0.0 0.0 -1.511009726023e-04 
-1.144286686682e-04 -2.867408820424e-05 0.0 
-2.867408820424e-05 7.585750249113e-04 0.0 
0.0 0.0 -1.145674989690e-04 
-6.084802831260e-05 -2.991902315111e-05 0.0 
-2.991902315111e-05 3.860715331104e-04 0.0 
0.0 0.0 -6.116241410045e-05 
-3.353257843682e-05 -2.498074177198e-05 0.0 
-2.498074177198e-05 1.896944408225e-04 0.0 
0.0 0.0 -3.278510925449e-05 
-1.508054349256e-04 -2.953924267332e-05 0.0 
-2.953924267332e-05 1.009022901988e-03 0.0 
0.0 0.0 -1.507672500721e-04 
-6.144560576959e-05 2.946678310881e-05 0.0 
2.946678310881e-05 3.752423857179e-04 0.0 
0.0 0.0 -6.160741095528e-05 
-1.795193782850e-04 3.015966066455e-05 0.0 
3.015966066455e-05 1.220916437867e-03 0.0 
0.0 0.0 -1.828075300492e-04 
-1.564210717973e-04 2.928181705796e-05 0.0 
2.928181705796e-05 1.038697099430e-03 0.0 
0.0 0.0 -1.565825172896e-04 
-1.601803915316e-04 2.879046078541e-05 0.0 
2.879046078541e-05 1.065098279090e-03 0.0 
0.0 0.0 -1.605560195386e-04 
-1.924510169718e-04 -3.681008615862e-06 0.0 
-3.681008615862e-06 1.266195614385e-03 0.0 
0.0 0.0 -1.927094427628e-04 
-9.917312679716e-05 -3.248065919378e-05 0.0 
-3.248065919378e-05 6.537270345769e-04 0.0 
0.0 0.0 -9.956065683389e-05 
-5.578848237072e-05 2.919143814272e-05 0.0 
2.919143814272e-05 3.356753976095e-04 0.0 
0.0 0.0 -5.597427817213e-05 
-3.764707681470e-05 3.152158318827e-05 0.0 
3.152158318827e-05 2.055269805242e-04 0.0 
0.0 0.0 -3.744316153082e-05 
-1.513908916278e-04 -2.965358922743e-05 0.0 
-2.965358922743e-05 1.015985434205e-03 0.0 
0.0 0.0 -1.514863114221e-04 
-1.425433722621e-04 3.012022841548e-05 0.0 
3.012022841548e-05 9.394937491690e-04 0.0 
0.0 0.0 -1.421023406183e-04 
-2.681800511095e-05 2.581926760662e-05 0.0 
2.581926760662e-05 1.385235032261e-04 0.0 
0.0 0.0 -2.788272662613e-05 
-7.959731755198e-05 -2.970357934053e-05 0.0 
-2.970357934053e-05 5.241419312225e-04 0.0 
0.0 0.0 -8.100711145360e-05 
-4.597324572621e-05 -2.624539862290e-05 0.0 
-2.624539862290e-05 3.001894932538e-04 0.0 
0.0 0.0 -4.869105516194e-05 
-1.408940546525e-04 -2.794056746742e-05 0.0 
-2.794056746742e-05 9.400214273018e-04 0.0 
0.0 0.0 -1.408175133641e-04 
-8.220239972126e-05 -3.150539897154e-05 0.0 
-3.150539897154e-05 5.540054204137e-04 0.0 
0.0 0.0 -8.531818138572e-05 
-1.420072539078e-04 2.886098902268e-05 0.0 
2.886098902268e-05 9.363360353424e-04 0.0 
0.0 0.0 -1.420190347897e-04 
-8.142682941929e-05 -3.127687653374e-05 0.0 
-3.127687653374e-05 5.123505803199e-04 0.0 
0.0 0.0 -8.006333120906e-05 
-1.676020446456e-04 -3.106665135098e-05 0.0 
-3.106665135098e-05 1.123875757488e-03 0.0 
0.0 0.0 -1.672214290798e-04 
-7.117572739314e-05 2.988293947474e-05 0.0 
2.988293947474e-05 4.447820599446e-04 0.0 
0.0 0.0 -7.152995986871e-05 
-1.528626195223e-04 -2.956851905674e-05 0.0 
-2.956851905674e-05 1.025224946446e-03 0.0 
0.0 0.0 -1.527886262531e-04 
-5.059375724921e-05 -2.868524116335e-05 0.0 
-2.868524116335e-05 3.156970290875e-04 0.0 
0.0 0.0 -5.064650353833e-05 
-1.471629417592e-04 -2.959313709753e-05 0.0 
-2.959313709753e-05 9.860061145689e-04 0.0 
0.0 0.0 -1.471833001180e-04 
-1.144539418112e-04 -2.473861065929e-05 0.0 
-2.473861065929e-05 7.560825404925e-04 0.0 
0.0 0.0 -1.140633649831e-04 
-1.560905633689e-04 2.900023350889e-05 0.0 
2.900023350889e-05 1.035339225371e-03 0.0 
0.0 0.0 -1.562332567718e-04 
-8.041016399686e-05 2.814724334195e-05 0.0 
2.814724334195e-05 5.070504478833e-04 0.0 
0.0 0.0 -8.025424390503e-05 
-4.885024697967e-05 3.157288993858e-05 0.0 
3.157288993858e-05 2.863708627365e-04 0.0 
0.0 0.0 -4.915965252508e-05 
-1.306396509784e-04 -2.896286188210e-05 0.0 
-2.896286188210e-05 8.760759259617e-04 0.0 
0.0 0.0 -1.318090263425e-04 
-1.421840376928e-04 -2.883026291404e-05 0.0 
-2.883026291404e-05 9.494244979280e-04 0.0 
0.0 0.0 -1.419644564515e-04 
-1.018318441446e-04 2.874180221663e-05 0.0 
2.874180221663e-05 6.553763140814e-04 0.0 
0.0 0.0 -1.016412246321e-04 
-1.420263861118e-04 -3.127951009604e-05 0.0 
-3.127951009604e-05 9.447561927313e-04 0.0 
0.0 0.0 -1.417981522837e-04 
-5.634120637729e-05 -2.901059335072e-05 0.0 
-2.901059335072e-05 3.528621573190e-04 0.0 
0.0 0.0 -5.638371198943e-05 
-1.449671090102e-04 2.903465807275e-05 0.0 
2.903465807275e-05 9.569114950414e-04 0.0 
0.0 0.0 -1.446420687869e-04 
-4.539864356175e-05 -2.892446416447e-05 0.0 
-2.892446416447e-05 2.698402511523e-04 0.0 
0.0 0.0 -4.421511183446e-05 
-1.729769140722e-04 -3.077324556460e-05 0.0 
-3.077324556460e-05 1.164178924141e-03 0.0 
0.0 0.0 -1.725604168134e-04 
-1.475790650913e-04 -2.860800824990e-05 0.0 
-2.860800824990e-05 9.878754875081e-04 0.0 
0.0 0.0 -1.475206686141e-04 
-1.559172333653e-04 -2.909982133967e-05 0.0 
-2.909982133967e-05 1.044176401684e-03 0.0 
0.0 0.0 -1.555576518016e-04 
-1.814415509393e-04 -3.096082582331e-05 0.0 
-3.096082582331e-05 1.219536896500e-03 0.0 
0.0 0.0 -1.806695418618e-04 
-1.243391768637e-04 -2.906810919430e-05 0.0 
-2.906810919430e-05 8.271957787415e-04 0.0 
0.0 0.0 -1.244215412621e-04 
-4.664731672080e-05 2.860386537301e-05 0.0 
2.860386537301e-05 2.677194554706e-04 0.0 
0.0 0.0 -4.622233884158e-05 
-1.385662832492e-04 -2.918174486768e-05 0.0 
-2.918174486768e-05 9.260656173097e-04 0.0 
0.0 0.0 -1.385923280275e-04 
-1.786563386237e-04 3.101548389749e-05 0.0 
3.101548389749e-05 1.192786428697e-03 0.0 
0.0 0.0 -1.784944650888e-04 
-7.162593897649e-05 -2.768839620490e-05 0.0 
-2.768839620490e-05 4.607586366936e-04 0.0 
0.0 0.0 -7.179147874927e-05 
-1.555062997913e-04 -2.993363634807e-05 0.0 
-2.993363634807e-05 1.045876444410e-03 0.0 
0.0 0.0 -1.558013491646e-04 
-1.563360137049e-04 -3.042238300922e-05 0.0 
-3.042238300922e-05 1.046916559821e-03 0.0 
0.0 0.0 -1.562447224125e-04 
-5.757013598642e-05 2.991181572022e-05 0.0 
2.991181572022e-05 3.517212459558e-04 0.0 
0.0 0.0 -5.821047451129e-05 
-1.428729262720e-04 -2.942561466243e-05 0.0 
-2.942561466243e-05 9.560791547854e-04 0.0 
0.0 0.0 -1.428864875989e-04 
-1.287965022508e-04 -2.896617927485e-05 0.0 
-2.896617927485e-05 8.622522049021e-04 0.0 
0.0 0.0 -1.299469088572e-04 
-6.374853467835e-05 -2.810218119480e-05 0.0 
-2.810218119480e-05 4.066202706617e-04 0.0 
0.0 0.0 -6.420979177598e-05 
-7.595105816060e-05 -2.936393149418e-05 0.0 
-2.936393149418e-05 4.942830544211e-04 0.0 
0.0 0.0 -7.670872189436e-05 
-1.201712666697e-04 -2.803941660002e-05 0.0 
-2.803941660002e-05 7.961944137223e-04 0.0 
0.0 0.0 -1.200650238334e-04 
-1.519360189963e-04 2.891732000513e-05 0.0 
2.891732000513e-05 1.005387589283e-03 0.0 
0.0 0.0 -1.519214610183e-04 
-9.356553445047e-05 -2.682931258762e-05 0.0 
-2.682931258762e-05 6.080636784229e-04 0.0 
0.0 0.0 -9.302852286394e-05 
-1.148225546297e-04 -2.766542218562e-05 0.0 
-2.766542218562e-05 7.592972424786e-04 0.0 
0.0 0.0 -1.147482613702e-04 
-1.503198881368e-04 2.949228603565e-05 0.0 
2.949228603565e-05 9.943051761167e-04 0.0 
0.0 0.0 -1.501005480629e-04 
-1.374005660342e-04 3.157606201505e-05 0.0 
3.157606201505e-05 9.005540063851e-04 0.0 
0.0 0.0 -1.366500051239e-04 
-1.347749466574e-04 2.885807283713e-05 0.0 
2.885807283713e-05 8.878066807984e-04 0.0 
0.0 0.0 -1.347600488312e-04 
-1.145362197550e-04 2.550352213040e-05 0.0 
2.550352213040e-05 7.456789542705e-04 0.0 
0.0 0.0 -1.144140342440e-04 
-1.695537970541e-04 -2.847502421030e-05 0.0 
-2.847502421030e-05 1.141434530816e-03 0.0 
0.0 0.0 -1.695946584253e-04 
-1.342454359541e-04 -2.916302751234e-05 0.0 
-2.916302751234e-05 8.959753783056e-04 0.0 
0.0 0.0 -1.342994322642e-04 
-1.322842234433e-04 -2.713149803653e-05 0.0 
-2.713149803653e-05 8.716283599231e-04 0.0 
0.0 0.0 -1.308078780678e-04 
-1.770483125758e-04 -3.816029544209e-05 0.0 
-3.816029544209e-05 1.206702644282e-03 0.0 
0.0 0.0 -1.790376217081e-04 
-1.611476114444e-04 -3.043480837471e-05 0.0 
-3.043480837471e-05 1.081441463167e-03 0.0 
0.0 0.0 -1.610150566254e-04 
-1.476770815163e-04 2.899987339716e-05 0.0 
2.899987339716e-05 9.753794939162e-04 0.0 
0.0 0.0 -1.476201541636e-04 
-1.611330782201e-04 2.905567155013e-05 0.0 
2.905567155013e-05 1.069983027336e-03 0.0 
0.0 0.0 -1.610516503497e-04 
-8.740593351110e-05 -2.912313751195e-05 0.0 
-2.912313751195e-05 5.726625862703e-04 0.0 
0.0 0.0 -8.793939796372e-05 
-8.171492670432e-05 -2.932902119484e-05 0.0 
-2.932902119484e-05 5.334328304052e-04 0.0 
0.0 0.0 -8.232547559154e-05 
-4.800447364230e-05 -3.012015532788e-05 0.0 
-3.012015532788e-05 2.869100395093e-04 0.0 
0.0 0.0 -4.696026287600e-05 
-1.441554214945e-04 -2.906909676708e-05 0.0 
-2.906909676708e-05 9.649388349351e-04 0.0 
0.0 0.0 -1.441889713514e-04 
-8.596373130116e-05 -2.989926546104e-05 0.0 
-2.989926546104e-05 5.634483412629e-04 0.0 
0.0 0.0 -8.662504503560e-05 
-1.451435112077e-04 -2.967645824646e-05 0.0 
-2.967645824646e-05 9.706064754812e-04 0.0 
0.0 0.0 -1.452980301833e-04 
-1.396166376490e-04 -3.014351176356e-05 0.0 
-3.014351176356e-05 9.327092269117e-04 0.0 
0.0 0.0 -1.398369520768e-04 
-1.154194635136e-04 -2.909513876125e-05 0.0 
-2.909513876125e-05 7.637657077962e-04 0.0 
0.0 0.0 -1.153554527486e-04 
-7.239252784308e-05 2.950013499781e-05 0.0 
2.950013499781e-05 4.534037638191e-04 0.0 
0.0 0.0 -7.290299529228e-05 
-7.749228313482e-05 2.843063642712e-05 0.0 
2.843063642712e-05 4.849158394470e-04 0.0 
0.0 0.0 -7.722881688633e-05 
-7.663260260600e-05 2.940565300322e-05 0.0 
2.940565300322e-05 4.835296870814e-04 0.0 
0.0 0.0 -7.715173463647e-05 
-8.222724475914e-05 2.943935483783e-05 0.0 
2.943935483783e-05 5.226854242882e-04 0.0 
0.0 0.0 -8.276944949314e-05 
-5.179916544049e-05 2.954513306229e-05 0.0 
2.954513306229e-05 3.061348363473e-04 0.0 
0.0 0.0 -5.170396853346e-05 
-1.651578227306e-04 -2.992587384468e-05 0.0 
-2.992587384468e-05 1.111733425696e-03 0.0 
0.0 0.0 -1.652773843454e-04 
-9.948855107052e-05 2.885367954846e-05 0.0 
2.885367954846e-05 6.405116978971e-04 0.0 
0.0 0.0 -9.964436741213e-05 
-1.662477458002e-04 -3.047676524263e-05 0.0 
-3.047676524263e-05 1.116582984939e-03 0.0 
0.0 0.0 -1.661983567841e-04 
-1.051663505476e-04 2.891924803496e-05 0.0 
2.891924803496e-05 6.798882607135e-04 0.0 
0.0 0.0 -1.051955911267e-04 
-1.389859752123e-04 2.935926346480e-05 0.0 
2.935926346480e-05 9.155140148814e-04 0.0 
0.0 0.0 -1.390270654409e-04 
-1.191970428493e-04 2.933621105808e-05 0.0 
2.933621105808e-05 7.778286910325e-04 0.0 
0.0 0.0 -1.192747742027e-04 
-1.135913502195e-04 -2.809027510556e-05 0.0 
-2.809027510556e-05 7.506742469309e-04 0.0 
0.0 0.0 -1.135115339107e-04 
-5.106044890974e-05 -2.876916180737e-05 0.0 
-2.876916180737e-05 3.172111510085e-04 0.0 
0.0 0.0 -5.125664266653e-05 
-1.752549930891e-04 2.732480278546e-05 0.0 
2.732480278546e-05 1.160084193771e-03 0.0 
0.0 0.0 -1.742537888328e-04 
-1.812425183446e-04 -3.207933204969e-05 0.0 
-3.207933204969e-05 1.217777268391e-03 0.0 
0.0 0.0 -1.798074479024e-04 
-1.447184212035e-04 2.760935291747e-05 0.0 
2.760935291747e-05 9.561038377489e-04 0.0 
0.0 0.0 -1.447555322295e-04 
-8.799170026550e-05 2.995591967052e-05 0.0 
2.995591967052e-05 5.618551981543e-04 0.0 
0.0 0.0 -8.838578500301e-05 
-1.291031073422e-04 2.928905617391e-05 0.0 
2.928905617391e-05 8.466471064723e-04 0.0 
0.0 0.0 -1.291430278065e-04 
-1.459743152275e-04 3.063361272201e-05 0.0 
3.063361272201e-05 9.624952180302e-04 0.0 
0.0 0.0 -1.456278041792e-04 
-9.171757827104e-05 -2.955677248983e-05 0.0 
-2.955677248983e-05 6.024985060915e-04 0.0 
0.0 0.0 -9.223187090242e-05 
-9.603230277326e-05 -2.698956011667e-05 0.0 
-2.698956011667e-05 6.292701278524e-04 0.0 
0.0 0.0 -9.591352384746e-05 
-7.135185944171e-05 -2.955414223554e-05 0.0 
-2.955414223554e-05 4.555824851191e-04 0.0 
0.0 0.0 -7.108646760088e-05 
-6.173474433371e-05 -2.821557394065e-05 0.0 
-2.821557394065e-05 3.922513376835e-04 0.0 
0.0 0.0 -6.198456146935e-05 
-9.316424430426e-05 -2.882780269440e-05 0.0 
-2.882780269440e-05 6.119471839096e-04 0.0 
0.0 0.0 -9.355109297069e-05 
-6.583505479960e-05 2.848905537375e-05 0.0 
2.848905537375e-05 4.054485477537e-04 0.0 
0.0 0.0 -6.590301617946e-05 
-5.935575914896e-05 -3.007558356553e-05 0.0 
-3.007558356553e-05 3.768942854085e-04 0.0 
0.0 0.0 -5.983332410254e-05 
-1.186940583282e-04 -2.896555378225e-05 0.0 
-2.896555378225e-05 7.883535485114e-04 0.0 
0.0 0.0 -1.188421469351e-04 
-1.433278607698e-04 2.930912982368e-05 0.0 
2.930912982368e-05 9.454702771552e-04 0.0 
0.0 0.0 -1.433226991522e-04 
-1.697903046334e-04 2.624054691426e-05 0.0 
2.624054691426e-05 1.127471310275e-03 0.0 
0.0 0.0 -1.692916167909e-04 
-1.151638097456e-05 7.698944133971e-06 0.0 
7.698944133971e-06 4.425408472007e-05 0.0 
0.0 0.0 -7.213325994108e-06 
-1.023191081859e-04 2.827729942445e-05 0.0 
2.827729942445e-05 6.591938883861e-04 0.0 
0.0 0.0 -1.022830222654e-04 
-1.009919753862e-04 2.844629819877e-05 0.0 
2.844629819877e-05 6.501505763727e-04 0.0 
0.0 0.0 -1.009864671718e-04 
-9.380039017869e-05 2.950262979894e-05 0.0 
2.950262979894e-05 6.011532312502e-04 0.0 
0.0 0.0 -9.402143779290e-05 
-1.401352914634e-04 2.989136649985e-05 0.0 
2.989136649985e-05 9.247108301771e-04 0.0 
0.0 0.0 -1.401624631175e-04 
-1.092974960508e-04 2.941276833440e-05 0.0 
2.941276833440e-05 7.090642486070e-04 0.0 
0.0 0.0 -1.094316366672e-04 
-7.543451708232e-05 3.049036373989e-05 0.0 
3.049036373989e-05 4.754198894243e-04 0.0 
0.0 0.0 -7.582576345695e-05 
-9.891173193058e-05 -2.816068551534e-05 0.0 
-2.816068551534e-05 6.514539666403e-04 0.0 
0.0 0.0 -9.917482013514e-05 
-1.630278650561e-04 2.958590404027e-05 0.0 
2.958590404027e-05 1.077076320853e-03 0.0 
0.0 0.0 -1.620679414655e-04 
-7.702359286568e-05 -2.963111287796e-05 0.0 
-2.963111287796e-05 4.862675717220e-04 0.0 
0.0 0.0 -7.538495559814e-05 
-3.103148260616e-05 2.671216949097e-05 0.0 
2.671216949097e-05 1.654737900210e-04 0.0 
0.0 0.0 -3.198827131509e-05 
-4.232169889993e-05 2.776421737267e-05 0.0 
2.776421737267e-05 2.393069009664e-04 0.0 
0.0 0.0 -4.176863060321e-05 
-6.634744212772e-05 2.949925572575e-05 0.0 
2.949925572575e-05 4.106962890164e-04 0.0 
0.0 0.0 -6.666360735527e-05 
-7.816150117384e-05 2.918629348564e-05 0.0 
2.918629348564e-05 4.928270898341e-04 0.0 
0.0 0.0 -7.858957244827e-05 
-1.065476951188e-04 2.906412835157e-05 0.0 
2.906412835157e-05 6.891124057052e-04 0.0 
0.0 0.0 -1.064874080537e-04 
-1.046128651473e-04 -2.789283442515e-05 0.0 
-2.789283442515e-05 6.906263249349e-04 0.0 
0.0 0.0 -1.047611508630e-04 
-4.666634849019e-05 -3.250127183419e-05 0.0 
-3.250127183419e-05 2.826590938430e-04 0.0 
0.0 0.0 -4.639139346366e-05 
-4.422650169735e-05 -3.160442122719e-05 0.0 
-3.160442122719e-05 2.477476152980e-04 0.0 
0.0 0.0 -4.147803243573e-05 
-1.354421094691e-04 -3.477058406277e-05 0.0 
-3.477058406277e-05 8.849155839961e-04 0.0 
0.0 0.0 -1.332761831430e-04 
-6.529992034190e-05 -3.112094005781e-05 0.0 
-3.112094005781e-05 4.161966199991e-04 0.0 
0.0 0.0 -6.545963842888e-05 
-1.599173792757e-04 2.884984773938e-05 0.0 
2.884984773938e-05 1.062308732050e-03 0.0 
0.0 0.0 -1.601101668940e-04 
-1.640145792258e-04 2.789294437519e-05 0.0 
2.789294437519e-05 1.089847340667e-03 0.0 
0.0 0.0 -1.640071129216e-04 
-1.358364218526e-04 -2.864773194701e-05 0.0 
-2.864773194701e-05 9.015663085663e-04 0.0 
0.0 0.0 -1.352075507658e-04 
-1.691090522456e-04 2.845331053896e-05 0.0 
2.845331053896e-05 1.125515006597e-03 0.0 
0.0 0.0 -1.689126476464e-04 
-1.733194685301e-04 2.616049938131e-05 0.0 
2.616049938131e-05 1.162751062090e-03 0.0 
0.0 0.0 -1.746466296582e-04 
-1.113103175969e-04 -2.904492495481e-05 0.0 
-2.904492495481e-05 7.344679781971e-04 0.0 
0.0 0.0 -1.111327575513e-04 
-1.543419338426e-04 2.788856242459e-05 0.0 
2.788856242459e-05 1.022661884889e-03 0.0 
0.0 0.0 -1.543563508806e-04 
-5.167148472389e-05 -2.833543670219e-05 0.0 
-2.833543670219e-05 3.235982211277e-04 0.0 
0.0 0.0 -5.212100276158e-05 
-1.031213424207e-04 -2.889239140152e-05 0.0 
-2.889239140152e-05 6.806580574394e-04 0.0 
0.0 0.0 -1.034186014727e-04 
-1.034709279330e-04 2.786266615920e-05 0.0 
2.786266615920e-05 6.660582760632e-04 0.0 
0.0 0.0 -1.031952205665e-04 
-6.028919658758e-05 2.668092513971e-05 0.0 
2.668092513971e-05 3.649654199911e-04 0.0 
0.0 0.0 -5.961607156176e-05 
-4.213494566204e-05 -2.931849266110e-05 0.0 
-2.931849266110e-05 2.567319807664e-04 0.0 
0.0 0.0 -4.220635737303e-05 
-8.654776667846e-05 2.918952194239e-05 0.0 
2.918952194239e-05 5.528325958387e-04 0.0 
0.0 0.0 -8.706093026186e-05 
-1.004769780148e-04 -2.772227019028e-05 0.0 
-2.772227019028e-05 6.610823099679e-04 0.0 
0.0 0.0 -1.005514351764e-04 
-1.060430099672e-04 -2.796832696173e-05 0.0 
-2.796832696173e-05 6.996637265558e-04 0.0 
0.0 0.0 -1.060597130133e-04 
-7.058429708504e-05 2.696376381882e-05 0.0 
2.696376381882e-05 4.358412197202e-04 0.0 
0.0 0.0 -7.020228199149e-05 
-1.149702114763e-04 2.916861666016e-05 0.0 
2.916861666016e-05 7.482016199016e-04 0.0 
0.0 0.0 -1.149926572041e-04 
-1.018961975089e-04 -2.764432959957e-05 0.0 
-2.764432959957e-05 6.700658488310e-04 0.0 
0.0 0.0 -1.018518768314e-04 
-1.078880338181e-04 2.829261719461e-05 0.0 
2.829261719461e-05 6.977513239731e-04 0.0 
0.0 0.0 -1.077528216683e-04 
-7.751274952550e-05 -2.834816828620e-05 0.0 
-2.834816828620e-05 5.042136075216e-04 0.0 
0.0 0.0 -7.808165313150e-05 
-1.487528116968e-04 -2.959551626362e-05 0.0 
-2.959551626362e-05 9.968448808877e-04 0.0 
0.0 0.0 -1.488167264463e-04 
-1.501088830239e-04 -3.002822277470e-05 0.0 
-3.002822277470e-05 1.002368649967e-03 0.0 
0.0 0.0 -1.497700977071e-04 
-1.036611104552e-04 2.803937657742e-05 0.0 
2.803937657742e-05 6.681495958179e-04 0.0 
0.0 0.0 -1.035656927818e-04 
-1.696613133079e-04 2.895531178363e-05 0.0 
2.895531178363e-05 1.131067865055e-03 0.0 
0.0 0.0 -1.700243568296e-04 
-5.727268235776e-05 -2.821956991103e-05 0.0 
-2.821956991103e-05 3.625919856272e-04 0.0 
0.0 0.0 -5.774536142498e-05 
-1.807378797875e-04 3.083863400090e-05 0.0 
3.083863400090e-05 1.216171179677e-03 0.0 
0.0 0.0 -1.812757540428e-04 
-1.107278423169e-04 2.926924818457e-05 0.0 
2.926924818457e-05 7.182977638167e-04 0.0 
0.0 0.0 -1.107203250571e-04 
-1.769840871489e-04 3.489293866335e-05 0.0 
3.489293866335e-05 1.208578847919e-03 0.0 
0.0 0.0 -1.805188677947e-04 
-1.376232392385e-04 -2.850354822354e-05 0.0 
-2.850354822354e-05 9.154990550666e-04 0.0 
0.0 0.0 -1.371610485043e-04 
-5.639757509564e-05 2.971463148157e-05 0.0 
2.971463148157e-05 3.421275802933e-04 0.0 
0.0 0.0 -5.682853890605e-05 
-1.399417025807e-04 -2.902435300106e-05 0.0 
-2.902435300106e-05 9.305736500539e-04 0.0 
0.0 0.0 -1.393929574840e-04 
-1.722474544452e-04 2.867109208845e-05 0.0 
2.867109208845e-05 1.148502992599e-03 0.0 
0.0 0.0 -1.722554387731e-04 
-1.162793321609e-04 2.903309505420e-05 0.0 
2.903309505420e-05 7.572372561352e-04 0.0 
0.0 0.0 -1.162159973290e-04 
-8.454182586219e-05 -2.784090404248e-05 0.0 
-2.784090404248e-05 5.479081559787e-04 0.0 
0.0 0.0 -8.432093988479e-05 
-1.438863246759e-04 -2.930384340139e-05 0.0 
-2.930384340139e-05 9.596245582464e-04 0.0 
0.0 0.0 -1.435863591065e-04 
-1.111530589725e-04 2.833421624542e-05 0.0 
2.833421624542e-05 7.207793346527e-04 0.0 
0.0 0.0 -1.110366786716e-04 
-4.573862906079e-05 3.039490600873e-05 0.0 
3.039490600873e-05 2.711520722753e-04 0.0 
0.0 0.0 -4.684619297515e-05 
-1.870955320648e-04 3.081437672742e-05 0.0 
3.081437672742e-05 1.264311478356e-03 0.0 
0.0 0.0 -1.888615860838e-04 
-4.248482680505e-05 3.050161066116e-05 0.0 
3.050161066116e-05 2.352616891617e-04 0.0 
0.0 0.0 -4.121632266810e-05 
-1.771088727211e-04 -2.938926809476e-05 0.0 
-2.938926809476e-05 1.212909459550e-03 0.0 
0.0 0.0 -1.791639973893e-04 
-1.771566623871e-04 2.828554015672e-05 0.0 
2.828554015672e-05 1.177203819354e-03 0.0 
0.0 0.0 -1.763972732427e-04 
-1.529661344135e-04 -2.952014478129e-05 0.0 
-2.952014478129e-05 1.026629378024e-03 0.0 
0.0 0.0 -1.530775205951e-04 
-1.359594450574e-04 3.325053532527e-05 0.0 
3.325053532527e-05 8.922454278314e-04 0.0 
0.0 0.0 -1.356269418710e-04 
-1.644239763161e-04 -3.062030831265e-05 0.0 
-3.062030831265e-05 1.103176739090e-03 0.0 
0.0 0.0 -1.641343017522e-04 
-1.073732254289e-04 -2.774733318227e-05 0.0 
-2.774733318227e-05 7.082936325730e-04 0.0 
0.0 0.0 -1.073249441206e-04 
-1.251403265974e-04 -2.940532100017e-05 0.0 
-2.940532100017e-05 8.313761795825e-04 0.0 
0.0 0.0 -1.250629185325e-04 
-1.768873143391e-04 2.872670345058e-05 0.0 
2.872670345058e-05 1.193015524360e-03 0.0 
0.0 0.0 -1.787673453274e-04 
-1.533533607312e-04 2.921855117467e-05 0.0 
2.921855117467e-05 1.014614364332e-03 0.0 
0.0 0.0 -1.532196148344e-04 
-1.544705070620e-04 -2.993018470978e-05 0.0 
-2.993018470978e-05 1.033859279725e-03 0.0 
0.0 0.0 -1.542337544108e-04 
-1.470105554746e-04 3.050415116692e-05 0.0 
3.050415116692e-05 9.703822682050e-04 0.0 
0.0 0.0 -1.467116565689e-04 
-5.190467070806e-05 2.923657524478e-05 0.0 
2.923657524478e-05 3.125147726987e-04 0.0 
0.0 0.0 -5.258904166863e-05 
-1.585497388479e-04 -3.036107211364e-05 0.0 
-3.036107211364e-05 1.064785683487e-03 0.0 
0.0 0.0 -1.586792192556e-04 
-1.867823602022e-04 -4.423334107084e-07 0.0 
-4.423334107084e-07 1.306209639085e-03 0.0 
0.0 0.0 -1.902127661242e-04 
-1.799952498831e-04 3.276671323295e-05 0.0 
3.276671323295e-05 1.203252067028e-03 0.0 
0.0 0.0 -1.803293472919e-04 
-1.036283366723e-04 2.928971230122e-05 0.0 
2.928971230122e-05 6.701110471026e-04 0.0 
0.0 0.0 -1.038552253682e-04 
-1.348425674588e-04 -3.045731572340e-05 0.0 
-3.045731572340e-05 8.997616749557e-04 0.0 
0.0 0.0 -1.353016656203e-04 
-1.306027592527e-04 3.244558953540e-05 0.0 
3.244558953540e-05 8.557133569559e-04 0.0 
0.0 0.0 -1.301630146057e-04 
-1.102559799513e-04 -2.882778976320e-05 0.0 
-2.882778976320e-05 7.287644293276e-04 0.0 
0.0 0.0 -1.102912351658e-04 
-1.488807296024e-04 2.952972860655e-05 0.0 
2.952972860655e-05 9.845338823176e-04 0.0 
0.0 0.0 -1.489188890839e-04 
-1.543542798127e-04 2.941367575548e-05 0.0 
2.941367575548e-05 1.023344437634e-03 0.0 
0.0 0.0 -1.545169747944e-04 
-3.601998227787e-05 -3.147937655175e-05 0.0 
-3.147937655175e-05 2.167298522228e-04 0.0 
0.0 0.0 -3.699600978290e-05 
-6.801309851159e-05 2.873975774867e-05 0.0 
2.873975774867e-05 4.179957074076e-04 0.0 
0.0 0.0 -6.762408315678e-05 
-1.091497725492e-04 2.831094670187e-05 0.0 
2.831094670187e-05 7.067995318092e-04 0.0 
0.0 0.0 -1.090469065526e-04 
-1.032766425254e-04 -2.822190353465e-05 0.0 
-2.822190353465e-05 6.789187616226e-04 0.0 
0.0 0.0 -1.031335432607e-04 
-1.099107092343e-04 2.839546535684e-05 0.0 
2.839546535684e-05 7.120464211608e-04 0.0 
0.0 0.0 -1.098117726994e-04 
-1.811121707674e-04 -2.882441196002e-05 0.0 
-2.882441196002e-05 1.237667273714e-03 0.0 
0.0 0.0 -1.838140267123e-04 
-1.748866853698e-04 2.592400427167e-05 0.0 
2.592400427167e-05 1.162787881872e-03 0.0 
0.0 0.0 -1.744029230557e-04 
-1.761187774956e-04 -2.949711616705e-05 0.0 
-2.949711616705e-05 1.184397801600e-03 0.0 
0.0 0.0 -1.760448152485e-04 
-9.882657544989e-05 -2.718055687570e-05 0.0 
-2.718055687570e-05 6.452046498512e-04 0.0 
0.0 0.0 -9.834296651366e-05 
-1.624121206718e-04 2.836552699441e-05 0.0 
2.836552699441e-05 1.080211199209e-03 0.0 
0.0 0.0 -1.624070342850e-04 
-1.485275509050e-04 -2.918103576740e-05 0.0 
-2.918103576740e-05 9.950382173190e-04 0.0 
0.0 0.0 -1.484873542982e-04 
-1.805851059427e-04 3.002465538148e-05 0.0 
3.002465538148e-05 1.203046068310e-03 0.0 
0.0 0.0 -1.797622605636e-04 
-1.528376056470e-04 -3.044040189818e-05 0.0 
-3.044040189818e-05 1.026184810031e-03 0.0 
0.0 0.0 -1.532447004422e-04 
-1.087929439093e-04 -2.876357224537e-05 0.0 
-2.876357224537e-05 7.196828290104e-04 0.0 
0.0 0.0 -1.089952584493e-04 
-1.049428023921e-04 2.811224010391e-05 0.0 
2.811224010391e-05 6.773445023375e-04 0.0 
0.0 0.0 -1.048418778190e-04 
-1.594051931958e-04 2.879840167248e-05 0.0 
2.879840167248e-05 1.056615529052e-03 0.0 
0.0 0.0 -1.590166690394e-04 
-1.738854057278e-04 -3.150615969996e-05 0.0 
-3.150615969996e-05 1.172347359832e-03 0.0 
0.0 0.0 -1.740425842566e-04 
-1.602067260143e-04 2.962540646325e-05 0.0 
2.962540646325e-05 1.063407039079e-03 0.0 
0.0 0.0 -1.600263377024e-04 
-1.549984104106e-04 2.928819239640e-05 0.0 
2.928819239640e-05 1.025787824362e-03 0.0 
0.0 0.0 -1.545642443906e-04 
-1.691936656852e-04 3.051239000977e-05 0.0 
3.051239000977e-05 1.122993866756e-03 0.0 
0.0 0.0 -1.687134228720e-04 
-1.733516422302e-04 -2.975799224699e-05 0.0 
-2.975799224699e-05 1.180345126224e-03 0.0 
0.0 0.0 -1.751295320469e-04 
-1.641761333923e-04 2.964778985093e-05 0.0 
2.964778985093e-05 1.092162958901e-03 0.0 
0.0 0.0 -1.644209996092e-04 
-1.334029697755e-04 2.921704941968e-05 0.0 
2.921704941968e-05 8.764535109902e-04 0.0 
0.0 0.0 -1.334339325936e-04 
-9.629059373289e-05 2.489782199496e-05 0.0 
2.489782199496e-05 6.169410298163e-04 0.0 
0.0 0.0 -9.629846621400e-05 
-1.586938225999e-04 -2.873074405230e-05 0.0 
-2.873074405230e-05 1.064075480535e-03 0.0 
0.0 0.0 -1.585741496670e-04 
-1.515595690388e-04 2.887166217167e-05 0.0 
2.887166217167e-05 1.004996075128e-03 0.0 
0.0 0.0 -1.516193629955e-04 
-6.015828007311e-05 2.762481471313e-05 0.0 
2.762481471313e-05 3.663761052862e-04 0.0 
0.0 0.0 -6.027332919800e-05 
-1.086909470084e-04 -2.820919446967e-05 0.0 
-2.820919446967e-05 7.173514364266e-04 0.0 
0.0 0.0 -1.086183444390e-04 
-1.229754690729e-04 2.795896853918e-05 0.0 
2.795896853918e-05 8.030480005080e-04 0.0 
0.0 0.0 -1.229099206091e-04 
-1.348799327205e-04 -2.950552833220e-05 0.0 
-2.950552833220e-05 8.992538641476e-04 0.0 
0.0 0.0 -1.347984704188e-04 
-6.075364579538e-05 2.991920213964e-05 0.0 
2.991920213964e-05 3.704456528343e-04 0.0 
0.0 0.0 -6.085885447137e-05 
-1.045153483669e-04 -2.832422319633e-05 0.0 
-2.832422319633e-05 6.878595611022e-04 0.0 
0.0 0.0 -1.044304007945e-04 
-1.446479183094e-04 -2.971056222020e-05 0.0 
-2.971056222020e-05 9.673313026673e-04 0.0 
0.0 0.0 -1.445542801823e-04 
-1.100060346855e-04 2.737837681636e-05 0.0 
2.737837681636e-05 7.101421002689e-04 0.0 
0.0 0.0 -1.094113629060e-04 
-1.135560558010e-04 2.921951781404e-05 0.0 
2.921951781404e-05 7.388528165105e-04 0.0 
0.0 0.0 -1.136984934835e-04 
-1.423148992764e-04 -3.064755775960e-05 0.0 
-3.064755775960e-05 9.560334399626e-04 0.0 
0.0 0.0 -1.433495728088e-04 
-1.141564569451e-04 2.617777317916e-05 0.0 
2.617777317916e-05 7.567005103659e-04 0.0 
0.0 0.0 -1.145704449725e-04 
-2.757145428849e-05 3.124043686616e-05 0.0 
3.124043686616e-05 1.158691705071e-04 0.0 
0.0 0.0 -2.367971326705e-05 
-1.286436208275e-04 -2.914932669868e-05 0.0 
-2.914932669868e-05 8.571420336644e-04 0.0 
0.0 0.0 -1.287122655492e-04 
-1.576792209224e-04 2.858094066912e-05 0.0 
2.858094066912e-05 1.045870248437e-03 0.0 
0.0 0.0 -1.577753644542e-04 
-1.791334658592e-04 3.034271459186e-05 0.0 
3.034271459186e-05 1.201260178593e-03 0.0 
0.0 0.0 -1.795306929420e-04 
-1.201199461226e-04 2.829067472047e-05 0.0 
2.829067472047e-05 7.831094393938e-04 0.0 
0.0 0.0 -1.199963822083e-04 
-1.234760846803e-04 2.932006013550e-05 0.0 
2.932006013550e-05 8.076650151061e-04 0.0 
0.0 0.0 -1.235581517372e-04 
-1.448894787138e-04 -2.961840001921e-05 0.0 
-2.961840001921e-05 9.648117356658e-04 0.0 
0.0 0.0 -1.443143808439e-04 
-3.842228905377e-05 3.298025909580e-05 0.0 
3.298025909580e-05 1.877070748678e-04 0.0 
0.0 0.0 -3.370741825810e-05 
-1.534698621194e-04 2.830991160432e-05 0.0 
2.830991160432e-05 1.016299861510e-03 0.0 
0.0 0.0 -1.535042456599e-04 
-1.293327155133e-04 -2.926708160322e-05 0.0 
-2.926708160322e-05 8.610400331546e-04 0.0 
0.0 0.0 -1.292921254718e-04 
-1.147182049359e-04 -2.793616799804e-05 0.0 
-2.793616799804e-05 7.557812794768e-04 0.0 
0.0 0.0 -1.142359468334e-04 
-1.540623557645e-04 -2.883021402370e-05 0.0 
-2.883021402370e-05 1.033805831342e-03 0.0 
0.0 0.0 -1.540837914240e-04 
-5.903277897526e-05 -2.572226208233e-05 0.0 
-2.572226208233e-05 3.742033353159e-04 0.0 
0.0 0.0 -5.919629073606e-05 
-1.595117392718e-04 -2.911342610863e-05 0.0 
-2.911342610863e-05 1.072689065088e-03 0.0 
0.0 0.0 -1.596834805621e-04 
-1.756154530572e-04 2.998485745368e-05 0.0 
2.998485745368e-05 1.171075078384e-03 0.0 
0.0 0.0 -1.756318130281e-04 
-1.493681148336e-04 2.791229911131e-05 0.0 
2.791229911131e-05 9.866947003208e-04 0.0 
0.0 0.0 -1.492337925182e-04 
-1.600204318750e-04 -2.992073590521e-05 0.0 
-2.992073590521e-05 1.071726323190e-03 0.0 
0.0 0.0 -1.596862481900e-04 
-1.621340043399e-04 -3.014172433171e-05 0.0 
-3.014172433171e-05 1.091751763439e-03 0.0 
0.0 0.0 -1.624029330596e-04 
-1.746509001542e-04 -3.044303714749e-05 0.0 
-3.044303714749e-05 1.180873641495e-03 0.0 
0.0 0.0 -1.752053866267e-04 
-4.948712705896e-05 3.475475083029e-05 0.0 
3.475475083029e-05 2.597308075809e-04 0.0 
0.0 0.0 -4.376112143753e-05 
-1.485603472495e-04 -2.938683707073e-05 0.0 
-2.938683707073e-05 9.955677447018e-04 0.0 
0.0 0.0 -1.487877812405e-04 
-1.753095903577e-04 -2.864829451917e-05 0.0 
-2.864829451917e-05 1.185024325076e-03 0.0 
0.0 0.0 -1.760859927092e-04 
-1.649582730615e-04 2.923348981816e-05 0.0 
2.923348981816e-05 1.094893116976e-03 0.0 
0.0 0.0 -1.644733909230e-04 
-1.395633018813e-04 2.809652890280e-05 0.0 
2.809652890280e-05 9.186543678537e-04 0.0 
0.0 0.0 -1.394655130409e-04 
-1.099611654985e-04 -2.884597329549e-05 0.0 
-2.884597329549e-05 7.257598080870e-04 0.0 
0.0 0.0 -1.098787062330e-04 
-1.209104407542e-04 2.806295656769e-05 0.0 
2.806295656769e-05 7.902223779801e-04 0.0 
0.0 0.0 -1.210417811416e-04 
-3.627372368124e-05 3.163530406853e-05 0.0 
3.163530406853e-05 2.039563500799e-04 0.0 
0.0 0.0 -3.723255725578e-05 
-1.701409886376e-04 2.983058263759e-05 0.0 
2.983058263759e-05 1.132501183017e-03 0.0 
0.0 0.0 -1.699366983435e-04 
-6.411787123099e-05 2.946502422422e-05 0.0 
2.946502422422e-05 3.968096580559e-04 0.0 
0.0 0.0 -6.464531002275e-05 
-5.822127891541e-05 2.749733519323e-05 0.0 
2.749733519323e-05 3.240066522493e-04 0.0 
0.0 0.0 -5.373429374777e-05 
-1.578004283830e-04 -2.825196317906e-05 0.0 
-2.825196317906e-05 1.061236006077e-03 0.0 
0.0 0.0 -1.581724742171e-04 
-1.810622318850e-04 2.872864159815e-05 0.0 
2.872864159815e-05 1.210843086462e-03 0.0 
0.0 0.0 -1.810174791607e-04 
-5.321706588155e-05 -2.711802848501e-05 0.0 
-2.711802848501e-05 3.340376413156e-04 0.0 
0.0 0.0 -5.359773372147e-05 
-1.254962992742e-04 -2.828232383433e-05 0.0 
-2.828232383433e-05 8.331892923083e-04 0.0 
0.0 0.0 -1.253787237607e-04 
-1.535703452329e-04 2.911412195335e-05 0.0 
2.911412195335e-05 1.018186094186e-03 0.0 
0.0 0.0 -1.535721660833e-04 
-1.174362539490e-04 -2.931439951264e-05 0.0 
-2.931439951264e-05 7.791228558505e-04 0.0 
0.0 0.0 -1.176010908151e-04 
-6.016009984886e-05 -2.873248464068e-05 0.0 
-2.873248464068e-05 3.813492115723e-04 0.0 
0.0 0.0 -6.041048265268e-05 
-7.982616898902e-05 2.825432291390e-05 0.0 
2.825432291390e-05 5.000258330386e-04 0.0 
0.0 0.0 -7.939046230173e-05 
-3.959656613655e-05 2.469153921964e-05 0.0 
2.469153921964e-05 2.420385823143e-04 0.0 
0.0 0.0 -4.293244787628e-05 
-5.330489538924e-05 2.915892379323e-05 0.0 
2.915892379323e-05 3.232040539711e-04 0.0 
0.0 0.0 -5.412237138681e-05 
-4.874214390061e-05 2.903207581372e-05 0.0 
2.903207581372e-05 2.849835911649e-04 0.0 
0.0 0.0 -4.858390135199e-05 
-1.298006905679e-04 2.813403754230e-05 0.0 
2.813403754230e-05 8.507929242894e-04 0.0 
0.0 0.0 -1.297186540265e-04 
-1.946741073417e-04 7.177668550598e-07 0.0 
7.177668550598e-07 1.366433303394e-03 0.0 
0.0 0.0 -1.986219281740e-04 
-6.700715880952e-05 2.589861000239e-05 0.0 
2.589861000239e-05 3.925714316040e-04 0.0 
0.0 0.0 -6.366506350946e-05 
-1.734025229933e-04 2.872134779497e-05 0.0 
2.872134779497e-05 1.153015807625e-03 0.0 
0.0 0.0 -1.730133492871e-04 
-9.662877635408e-05 2.832769241253e-05 0.0 
2.832769241253e-05 6.190294534954e-04 0.0 
0.0 0.0 -9.645761187127e-05 
-1.474086229932e-04 -3.111113571506e-05 0.0 
-3.111113571506e-05 9.884847841183e-04 0.0 
0.0 0.0 -1.478461150791e-04 
-4.750635885556e-05 2.975238453019e-05 0.0 
2.975238453019e-05 2.739120908498e-04 0.0 
0.0 0.0 -4.694079591042e-05 
-1.816621119292e-04 -2.878308347844e-05 0.0 
-2.878308347844e-05 1.218135406772e-03 0.0 
0.0 0.0 -1.810139427526e-04 
-4.655502041116e-05 -2.610306417390e-05 0.0 
-2.610306417390e-05 2.951982444198e-04 0.0 
0.0 0.0 -4.804032238546e-05 
-7.357331614798e-05 2.958595086467e-05 0.0 
2.958595086467e-05 4.672675042292e-04 0.0 
0.0 0.0 -7.493958354298e-05 
-1.550973332285e-04 2.796756386232e-05 0.0 
2.796756386232e-05 1.025417246301e-03 0.0 
0.0 0.0 -1.547320639971e-04 
-1.115692087861e-04 -2.839126116568e-05 0.0 
-2.839126116568e-05 7.371116053840e-04 0.0 
0.0 0.0 -1.115425826451e-04 
-1.699290889586e-04 -2.900940190171e-05 0.0 
-2.900940190171e-05 1.149889600330e-03 0.0 
0.0 0.0 -1.708594300032e-04 
-8.624183478928e-05 -2.912886792339e-05 0.0 
-2.912886792339e-05 5.626870180004e-04 0.0 
0.0 0.0 -8.644348757353e-05 
-1.569167022033e-04 -2.881123911490e-05 0.0 
-2.881123911490e-05 1.051025089677e-03 0.0 
0.0 0.0 -1.566669492989e-04 
-1.769191692021e-04 2.934973965132e-05 0.0 
2.934973965132e-05 1.199034094636e-03 0.0 
0.0 0.0 -1.798338780755e-04 
-1.495364599630e-04 2.975197277300e-05 0.0 
2.975197277300e-05 9.877659320422e-04 0.0 
0.0 0.0 -1.491119197843e-04 
-1.807112013151e-04 -2.761933473531e-05 0.0 
-2.761933473531e-05 1.210002262212e-03 0.0 
0.0 0.0 -1.792176209978e-04 
-1.628975544781e-04 -3.036779777295e-05 0.0 
-3.036779777295e-05 1.095193631651e-03 0.0 
0.0 0.0 -1.630977145684e-04 
-1.675201900776e-04 -3.024382898117e-05 0.0 
-3.024382898117e-05 1.126388508701e-03 0.0 
0.0 0.0 -1.675015638186e-04 
-5.424555064715e-05 2.680812076581e-05 0.0 
2.680812076581e-05 3.226336525028e-04 0.0 
0.0 0.0 -5.399133669915e-05 
-1.676277495680e-04 2.740316368874e-05 0.0 
2.740316368874e-05 1.112871955034e-03 0.0 
0.0 0.0 -1.673862058733e-04 
-1.578559859789e-04 2.827037287320e-05 0.0 
2.827037287320e-05 1.049443790061e-03 0.0 
0.0 0.0 -1.580046825171e-04 
-1.171678476607e-04 2.852988375933e-05 0.0 
2.852988375933e-05 7.623350065851e-04 0.0 
0.0 0.0 -1.168873383469e-04 
-7.813173762117e-05 2.766421590413e-05 0.0 
2.766421590413e-05 4.622030552975e-04 0.0 
0.0 0.0 -7.363010077577e-05 
-1.810895077962e-04 -2.908189886640e-05 0.0 
-2.908189886640e-05 1.245299465341e-03 0.0 
0.0 0.0 -1.848439230673e-04 
-6.258589564450e-05 2.973424717467e-05 0.0 
2.973424717467e-05 3.796477966190e-04 0.0 
0.0 0.0 -6.214069219561e-05 
-6.877743183419e-05 -3.283467012249e-05 0.0 
-3.283467012249e-05 4.454002116560e-04 0.0 
0.0 0.0 -6.982795868082e-05 
-1.656560229546e-04 3.018340289880e-05 0.0 
3.018340289880e-05 1.102559420523e-03 0.0 
0.0 0.0 -1.657595890666e-04 
-4.452637910278e-05 -2.463086619694e-05 0.0 
-2.463086619694e-05 2.688625379708e-04 0.0 
0.0 0.0 -4.409698994278e-05 
-1.188635475057e-04 -2.772391840776e-05 0.0 
-2.772391840776e-05 7.879380998938e-04 0.0 
0.0 0.0 -1.188635276708e-04 
-1.592882983328e-04 2.718156988550e-05 0.0 
2.718156988550e-05 1.054709056437e-03 0.0 
0.0 0.0 -1.589765888202e-04 
-1.772222272296e-04 -2.714101551062e-05 0.0 
-2.714101551062e-05 1.191839625875e-03 0.0 
0.0 0.0 -1.771732720199e-04 
-1.824779395496e-04 -2.648051372033e-05 0.0 
-2.648051372033e-05 1.225568720394e-03 0.0 
0.0 0.0 -1.816415620416e-04 
-1.546092874475e-04 -2.982910766663e-05 0.0 
-2.982910766663e-05 1.035340165495e-03 0.0 
0.0 0.0 -1.543237508850e-04 
-1.687071199467e-04 -3.097215296435e-05 0.0 
-3.097215296435e-05 1.133984998622e-03 0.0 
0.0 0.0 -1.685605813437e-04 
-1.021935529673e-04 2.852069401152e-05 0.0 
2.852069401152e-05 6.571110725585e-04 0.0 
0.0 0.0 -1.019073722143e-04 
-1.593527883530e-04 -2.978604002386e-05 0.0 
-2.978604002386e-05 1.069539853505e-03 0.0 
0.0 0.0 -1.593679286731e-04 
-8.787271678042e-05 2.812609072738e-05 0.0 
2.812609072738e-05 5.317977245242e-04 0.0 
0.0 0.0 -8.364764346898e-05 
-1.787194194283e-04 2.687014845945e-05 0.0 
2.687014845945e-05 1.178995119648e-03 0.0 
0.0 0.0 -1.772627823762e-04 
-9.805451043270e-05 2.760029222410e-05 0.0 
2.760029222410e-05 6.018798204524e-04 0.0 
0.0 0.0 -9.365644977482e-05 
-9.596485627522e-05 2.204290663138e-05 0.0 
2.204290663138e-05 6.347192065111e-04 0.0 
0.0 0.0 -9.866254784712e-05 
-1.159093866371e-04 2.840626684317e-05 0.0 
2.840626684317e-05 7.538245928729e-04 0.0 
0.0 0.0 -1.157644195874e-04 
-1.068023676316e-04 3.049840519302e-05 0.0 
3.049840519302e-05 6.737297633016e-04 0.0 
0.0 0.0 -1.036755264196e-04 
-1.327131526045e-04 -2.791089545435e-05 0.0 
-2.791089545435e-05 8.830463531689e-04 0.0 
0.0 0.0 -1.324954999561e-04 
-1.083462229029e-04 -2.835211655561e-05 0.0 
-2.835211655561e-05 7.134008523618e-04 0.0 
0.0 0.0 -1.081453164196e-04 
-1.141683981921e-04 -2.887541052425e-05 0.0 
-2.887541052425e-05 7.550230559135e-04 0.0 
0.0 0.0 -1.140931655197e-04 
-5.515908320108e-05 2.948502897213e-05 0.0 
2.948502897213e-05 3.310071093917e-04 0.0 
0.0 0.0 -5.528709606717e-05 
-1.104134789677e-04 2.840605379835e-05 0.0 
2.840605379835e-05 7.154837500031e-04 0.0 
0.0 0.0 -1.103023603459e-04 
-1.746713077398e-04 2.880636906730e-05 0.0 
2.880636906730e-05 1.164068735679e-03 0.0 
0.0 0.0 -1.743776871305e-04 
-1.783703106015e-04 3.636462111026e-05 0.0 
3.636462111026e-05 1.201299505939e-03 0.0 
0.0 0.0 -1.792895840060e-04 
-1.577150641991e-04 2.851269442524e-05 0.0 
2.851269442524e-05 1.044375076497e-03 0.0 
0.0 0.0 -1.575150703147e-04 
-1.745723709241e-04 2.909038873658e-05 0.0 
2.909038873658e-05 1.170222223010e-03 0.0 
0.0 0.0 -1.755400497234e-04 
-1.120725847370e-04 2.871981251597e-05 0.0 
2.871981251597e-05 7.269648264993e-04 0.0 
0.0 0.0 -1.119489732781e-04 
-1.675311839949e-04 2.887729147629e-05 0.0 
2.887729147629e-05 1.117903748534e-03 0.0 
0.0 0.0 -1.678529426297e-04 
-1.146259152953e-04 2.842710779289e-05 0.0 
2.842710779289e-05 7.448564873363e-04 0.0 
0.0 0.0 -1.145134881756e-04 
-1.710224470009e-04 2.842065442071e-05 0.0 
2.842065442071e-05 1.142895506605e-03 0.0 
0.0 0.0 -1.716593064874e-04 
-1.634807050442e-04 2.799270818855e-05 0.0 
2.799270818855e-05 1.086902354100e-03 0.0 
0.0 0.0 -1.634447856658e-04 
-1.622367908960e-04 -2.967988136421e-05 0.0 
-2.967988136421e-05 1.088570664713e-03 0.0 
0.0 0.0 -1.620677252808e-04 
-1.436975778517e-04 2.830432817314e-05 0.0 
2.830432817314e-05 9.480503595790e-04 0.0 
0.0 0.0 -1.437136475121e-04 
-1.063431585595e-04 2.840592411012e-05 0.0 
2.840592411012e-05 6.863040493332e-04 0.0 
0.0 0.0 -1.060995107696e-04 
-1.691497108962e-04 -2.743833599267e-05 0.0 
-2.743833599267e-05 1.134677276168e-03 0.0 
0.0 0.0 -1.689057885308e-04 
-1.381914899866e-04 2.790064750608e-05 0.0 
2.790064750608e-05 9.063015758904e-04 0.0 
0.0 0.0 -1.375454124849e-04 
-5.561996790627e-05 -3.071748806018e-05 0.0 
-3.071748806018e-05 3.409512690699e-04 0.0 
0.0 0.0 -5.492022919918e-05 
-6.179236649455e-05 -2.756467409787e-05 0.0 
-2.756467409787e-05 3.903060721867e-04 0.0 
0.0 0.0 -6.170691397715e-05 
-9.087582305261e-05 2.700291781953e-05 0.0 
2.700291781953e-05 5.782509110046e-04 0.0 
0.0 0.0 -9.092110591052e-05 
-1.259880962207e-04 2.776883270027e-05 0.0 
2.776883270027e-05 8.237716666486e-04 0.0 
0.0 0.0 -1.257717909469e-04 
-1.753841120844e-04 2.980647546350e-05 0.0 
2.980647546350e-05 1.173927080456e-03 0.0 
0.0 0.0 -1.760317983730e-04 
-1.577119756164e-04 -3.055430689054e-05 0.0 
-3.055430689054e-05 1.057688489879e-03 0.0 
0.0 0.0 -1.576653810449e-04 
-1.057975756223e-04 -2.876126628924e-05 0.0 
-2.876126628924e-05 6.965772625478e-04 0.0 
0.0 0.0 -1.056780804030e-04 
-1.401532218735e-04 -2.893519210654e-05 0.0 
-2.893519210654e-05 9.357130400283e-04 0.0 
0.0 0.0 -1.401741111350e-04 
-1.632303776345e-04 2.945240880963e-05 0.0 
2.945240880963e-05 1.086067743780e-03 0.0 
0.0 0.0 -1.632898652955e-04 
-1.698320922867e-04 -3.029692352669e-05 0.0 
-3.029692352669e-05 1.141081462631e-03 0.0 
0.0 0.0 -1.695868396911e-04 
-1.762766478419e-04 -2.148172006753e-05 0.0 
-2.148172006753e-05 1.172735995291e-03 0.0 
0.0 0.0 -1.741172379421e-04 
-1.423952570170e-04 2.784554782803e-05 0.0 
2.784554782803e-05 9.441048027351e-04 0.0 
0.0 0.0 -1.427691508950e-04 
-1.672340961037e-04 2.890076212539e-05 0.0 
2.890076212539e-05 1.110820323191e-03 0.0 
0.0 0.0 -1.670153566545e-04 
-1.196206745500e-04 -2.916305908743e-05 0.0 
-2.916305908743e-05 7.932912096618e-04 0.0 
0.0 0.0 -1.195780717481e-04 
-1.631267095900e-04 -2.877648753756e-05 0.0 
-2.877648753756e-05 1.093964271595e-03 0.0 
0.0 0.0 -1.629178051474e-04 
-1.193648583036e-04 2.813253978265e-05 0.0 
2.813253978265e-05 7.781106719393e-04 0.0 
0.0 0.0 -1.192674511187e-04 
-1.785040923208e-04 -2.833642482200e-05 0.0 
-2.833642482200e-05 1.202406861450e-03 0.0 
0.0 0.0 -1.783056964125e-04 
-1.774180478980e-04 -3.143728213467e-05 0.0 
-3.143728213467e-05 1.216846253912e-03 0.0 
0.0 0.0 -1.800733985141e-04 
-1.339733609669e-04 2.830305737665e-05 0.0 
2.830305737665e-05 8.799971748813e-04 0.0 
0.0 0.0 -1.339483752660e-04 
-5.685501053660e-05 3.033786968296e-05 0.0 
3.033786968296e-05 3.408752435242e-04 0.0 
0.0 0.0 -5.664287464774e-05 
-1.674932513127e-04 2.750263582860e-05 0.0 
2.750263582860e-05 1.111155514655e-03 0.0 
0.0 0.0 -1.670528461364e-04 
-1.284040368042e-04 -2.775968276020e-05 0.0 
-2.775968276020e-05 8.537309068525e-04 0.0 
0.0 0.0 -1.283340813903e-04 
-1.016895440755e-04 -2.862604297841e-05 0.0 
-2.862604297841e-05 6.674652453701e-04 0.0 
0.0 0.0 -1.014860136736e-04 
-1.390418925560e-04 -2.935625760733e-05 0.0 
-2.935625760733e-05 9.288785969762e-04 0.0 
0.0 0.0 -1.390419464427e-04 
-1.608753793423e-04 -3.062151254544e-05 0.0 
-3.062151254544e-05 1.081540098949e-03 0.0 
0.0 0.0 -1.609465537294e-04 
-5.579409708541e-05 -2.753923831601e-05 0.0 
-2.753923831601e-05 3.517647136068e-04 0.0 
0.0 0.0 -5.619956474153e-05 
-1.242874580104e-04 2.815581454240e-05 0.0 
2.815581454240e-05 8.122824974036e-04 0.0 
0.0 0.0 -1.242180795178e-04 
-1.444954382542e-04 2.691161261798e-05 0.0 
2.691161261798e-05 9.508761997336e-04 0.0 
0.0 0.0 -1.439419080609e-04 
-1.748732396412e-04 -3.101518328253e-05 0.0 
-3.101518328253e-05 1.183866334775e-03 0.0 
0.0 0.0 -1.756258132784e-04 
-1.484265095921e-04 2.639187046033e-05 0.0 
2.639187046033e-05 9.793613921147e-04 0.0 
0.0 0.0 -1.481473755224e-04 
-1.628394148518e-04 2.905846373136e-05 0.0 
2.905846373136e-05 1.081802942582e-03 0.0 
0.0 0.0 -1.628061244897e-04 
-1.405884391169e-04 2.689260908494e-05 0.0 
2.689260908494e-05 9.219062369141e-04 0.0 
0.0 0.0 -1.397490354451e-04 
-1.346362126131e-04 2.980546389634e-05 0.0 
2.980546389634e-05 8.629731244664e-04 0.0 
0.0 0.0 -1.313455861883e-04 
-1.422308942789e-04 2.777968126491e-05 0.0 
2.777968126491e-05 9.352014107076e-04 0.0 
0.0 0.0 -1.417070353249e-04 
-1.696348231764e-04 3.073847441857e-05 0.0 
3.073847441857e-05 1.132512673150e-03 0.0 
0.0 0.0 -1.700257545721e-04 
-1.628061011134e-04 -3.012920063587e-05 0.0 
-3.012920063587e-05 1.094588289745e-03 0.0 
0.0 0.0 -1.626783210446e-04 
-1.525480366069e-04 2.753411223908e-05 0.0 
2.753411223908e-05 1.012270815341e-03 0.0 
0.0 0.0 -1.525950422115e-04 
-1.817674885626e-04 2.636756222739e-05 0.0 
2.636756222739e-05 1.218171265063e-03 0.0 
0.0 0.0 -1.819330136886e-04 
-1.367783378107e-04 2.734398055764e-05 0.0 
2.734398055764e-05 8.928204252328e-04 0.0 
0.0 0.0 -1.355595357802e-04 
-8.657515392004e-05 -2.858127066433e-05 0.0 
-2.858127066433e-05 5.623682383036e-04 0.0 
0.0 0.0 -8.640878351826e-05 
-1.720286776127e-04 -3.018037219568e-05 0.0 
-3.018037219568e-05 1.158953410419e-03 0.0 
0.0 0.0 -1.720100346656e-04 
-1.785542716781e-04 -3.347376878072e-05 0.0 
-3.347376878072e-05 1.210212792631e-03 0.0 
0.0 0.0 -1.795117393957e-04 
-1.181566759780e-04 2.804595512908e-05 0.0 
2.804595512908e-05 7.695120543693e-04 0.0 
0.0 0.0 -1.180384278745e-04 
-1.234361083838e-04 2.834735001336e-05 0.0 
2.834735001336e-05 8.068300268397e-04 0.0 
0.0 0.0 -1.233979183903e-04 
-9.615008310342e-05 -2.877711061827e-05 0.0 
-2.877711061827e-05 6.293964481875e-04 0.0 
0.0 0.0 -9.603629528614e-05 
-1.570985069047e-04 2.869057650911e-05 0.0 
2.869057650911e-05 1.042670134457e-03 0.0 
0.0 0.0 -1.569914920818e-04 
-9.804713378094e-05 2.892049478508e-05 0.0 
2.892049478508e-05 6.274327291699e-04 0.0 
0.0 0.0 -9.751120462800e-05 
-1.373039782519e-04 2.945820523949e-05 0.0 
2.945820523949e-05 9.031137517948e-04 0.0 
0.0 0.0 -1.370644644624e-04 
-9.733425656402e-05 -2.696735292952e-05 0.0 
-2.696735292952e-05 6.363689780604e-04 0.0 
0.0 0.0 -9.714421390796e-05 
-1.604810832406e-04 2.925883402761e-05 0.0 
2.925883402761e-05 1.064262862584e-03 0.0 
0.0 0.0 -1.602381950242e-04 
-1.814386097987e-04 -2.325128847214e-05 0.0 
-2.325128847214e-05 1.217845530327e-03 0.0 
0.0 0.0 -1.816843005859e-04 
-1.003684445551e-04 -2.872637610904e-05 0.0 
-2.872637610904e-05 6.585462596242e-04 0.0 
0.0 0.0 -1.002307182508e-04 
-3.526749537505e-05 -3.047241068612e-05 0.0 
-3.047241068612e-05 2.153990238607e-04 0.0 
0.0 0.0 -3.677367655039e-05 
-1.806631145188e-04 2.941902588667e-05 0.0 
2.941902588667e-05 1.208966272057e-03 0.0 
0.0 0.0 -1.810776462098e-04 
-1.033178748637e-04 2.699632970684e-05 0.0 
2.699632970684e-05 6.637091035959e-04 0.0 
0.0 0.0 -1.028007266516e-04 
-1.175293277585e-04 2.819191420695e-05 0.0 
2.819191420695e-05 7.649488685247e-04 0.0 
0.0 0.0 -1.174222657364e-04 
-1.740611927883e-04 3.008308873920e-05 0.0 
3.008308873920e-05 1.179667388234e-03 0.0 
0.0 0.0 -1.766888058523e-04 
-1.524480229041e-04 -2.995968298439e-05 0.0 
-2.995968298439e-05 1.020372756015e-03 0.0 
0.0 0.0 -1.522604622525e-04 
-1.585768344365e-04 -2.913298650394e-05 0.0 
-2.913298650394e-05 1.064240986158e-03 0.0 
0.0 0.0 -1.583819031520e-04 
-1.028812223476e-04 -2.791530224567e-05 0.0 
-2.791530224567e-05 6.762699737186e-04 0.0 
0.0 0.0 -1.027652553003e-04 
-3.047731217096e-05 2.978609752000e-05 0.0 
2.978609752000e-05 1.644412884572e-04 0.0 
0.0 0.0 -3.167095645526e-05 
-1.827018091400e-04 -3.487243475378e-05 0.0 
-3.487243475378e-05 1.223693620193e-03 0.0 
0.0 0.0 -1.803196740198e-04 
-1.299869374800e-04 2.787662672047e-05 0.0 
2.787662672047e-05 8.523815142426e-04 0.0 
0.0 0.0 -1.299076046001e-04 
-1.512839301296e-04 -3.211131163956e-05 0.0 
-3.211131163956e-05 1.010330699503e-03 0.0 
0.0 0.0 -1.510713963618e-04 
-1.740688791628e-04 2.785384488376e-05 0.0 
2.785384488376e-05 1.160296302710e-03 0.0 
0.0 0.0 -1.736733770178e-04 
-2.424829434384e-05 2.135414066938e-05 0.0 
2.135414066938e-05 1.009887765283e-04 0.0 
0.0 0.0 -2.253474224696e-05 
-1.588289344536e-04 2.988448063203e-05 0.0 
2.988448063203e-05 1.053618048293e-03 0.0 
0.0 0.0 -1.588145449557e-04 
-7.398149687921e-05 -2.842214034926e-05 0.0 
-2.842214034926e-05 4.736710158424e-04 0.0 
0.0 0.0 -7.379368512750e-05 
-1.417757164372e-04 -3.019050727827e-05 0.0 
-3.019050727827e-05 9.514786018212e-04 0.0 
0.0 0.0 -1.424765658182e-04 
-1.273110853056e-04 -2.925695132898e-05 0.0 
-2.925695132898e-05 8.481813906053e-04 0.0 
0.0 0.0 -1.274401864931e-04 
-1.007593383753e-04 2.822071280729e-05 0.0 
2.822071280729e-05 6.480510024074e-04 0.0 
0.0 0.0 -1.006432667219e-04 
-1.707598802574e-04 -2.954897052777e-05 0.0 
-2.954897052777e-05 1.153161559221e-03 0.0 
0.0 0.0 -1.712453353817e-04 
-1.329505705343e-04 2.860130427155e-05 0.0 
2.860130427155e-05 8.732611453068e-04 0.0 
0.0 0.0 -1.328871777156e-04 
-9.118212509623e-05 2.844150706971e-05 0.0 
2.844150706971e-05 5.810800157713e-04 0.0 
0.0 0.0 -9.101187559806e-05 
-1.348270760039e-04 -2.858426038110e-05 0.0 
-2.858426038110e-05 8.990222661828e-04 0.0 
0.0 0.0 -1.348432318503e-04 
-2.929431270807e-05 -2.857654389252e-05 0.0 
-2.857654389252e-05 1.760253783659e-04 0.0 
0.0 0.0 -3.121713414881e-05 
-1.537482864892e-04 -2.902787486223e-05 0.0 
-2.902787486223e-05 1.032059817805e-03 0.0 
0.0 0.0 -1.539626484545e-04 
-1.604406715089e-04 -2.964829512842e-05 0.0 
-2.964829512842e-05 1.074466508454e-03 0.0 
0.0 0.0 -1.598244649411e-04 
-1.844616251081e-04 -2.196458036396e-05 0.0 
-2.196458036396e-05 1.231467805983e-03 0.0 
0.0 0.0 -1.850401362575e-04 
-1.635274807000e-04 -2.956880985849e-05 0.0 
-2.956880985849e-05 1.099342516608e-03 0.0 
0.0 0.0 -1.636124299818e-04 
-7.150477036681e-05 -2.776392562661e-05 0.0 
-2.776392562661e-05 4.572663187996e-04 0.0 
0.0 0.0 -7.137223705482e-05 
-1.570462429545e-04 -2.966204224228e-05 0.0 
-2.966204224228e-05 1.054975147839e-03 0.0 
0.0 0.0 -1.570847591254e-04 
-1.810625471898e-04 2.712640566716e-05 0.0 
2.712640566716e-05 1.230837214805e-03 0.0 
0.0 0.0 -1.842233179068e-04 
-1.891002400454e-04 -2.748789620214e-05 0.0 
-2.748789620214e-05 1.278407905451e-03 0.0 
0.0 0.0 -1.900717871215e-04 
-1.657110930776e-04 -2.854937255919e-05 0.0 
-2.854937255919e-05 1.112870521473e-03 0.0 
0.0 0.0 -1.653364313119e-04 
-1.071209963560e-04 -2.863275326497e-05 0.0 
-2.863275326497e-05 7.049432181714e-04 0.0 
0.0 0.0 -1.069186906485e-04 
-1.442583782278e-04 -2.898467953421e-05 0.0 
-2.898467953421e-05 9.652668360639e-04 0.0 
0.0 0.0 -1.443707514742e-04 
-1.759295624301e-04 2.574555557981e-05 0.0 
2.574555557981e-05 1.162894992702e-03 0.0 
0.0 0.0 -1.746475140816e-04 
-1.188179409512e-04 -2.882565480678e-05 0.0 
-2.882565480678e-05 7.850400880713e-04 0.0 
0.0 0.0 -1.181845718321e-04 
-1.584483271371e-04 2.773639164420e-05 0.0 
2.773639164420e-05 1.051528373706e-03 0.0 
0.0 0.0 -1.585795433073e-04 
-1.477641435519e-04 2.859461966958e-05 0.0 
2.859461966958e-05 9.807497853317e-04 0.0 
0.0 0.0 -1.481564718376e-04 
-1.666109147089e-04 -2.970949097526e-05 0.0 
-2.970949097526e-05 1.123406416293e-03 0.0 
0.0 0.0 -1.669465589644e-04 
-1.640742339727e-04 -2.814643695304e-05 0.0 
-2.814643695304e-05 1.102737689409e-03 0.0 
0.0 0.0 -1.639852473733e-04 
-1.101476556860e-04 -1.419773556877e-06 0.0 
-1.419773556877e-06 6.855531227093e-04 0.0 
0.0 0.0 -1.097027053386e-04 
-1.095838507761e-04 5.104018495320e-06 0.0 
5.104018495320e-06 6.852974449944e-04 0.0 
0.0 0.0 -1.096586159380e-04 
-1.492847548809e-04 -3.091516381313e-05 0.0 
-3.091516381313e-05 9.984061546489e-04 0.0 
0.0 0.0 -1.489183339744e-04 
-1.487773235054e-04 2.785619991096e-05 0.0 
2.785619991096e-05 9.847103116342e-04 0.0 
0.0 0.0 -1.489589719869e-04 
-1.316033445496e-04 -2.890310988479e-05 0.0 
-2.890310988479e-05 8.785172676280e-04 0.0 
0.0 0.0 -1.317064244343e-04 
-1.470787480711e-04 -2.886845641438e-05 0.0 
-2.886845641438e-05 9.813735906609e-04 0.0 
0.0 0.0 -1.466314440693e-04 
-1.276790192920e-04 2.827971774625e-05 0.0 
2.827971774625e-05 8.356151426700e-04 0.0 
0.0 0.0 -1.275341994755e-04 
-1.790311321725e-04 1.969961980520e-05 0.0 
1.969961980520e-05 1.177311147527e-03 0.0 
0.0 0.0 -1.770432225081e-04 
-1.075373971259e-04 2.845855733448e-05 0.0 
2.845855733448e-05 6.950205170450e-04 0.0 
0.0 0.0 -1.073226784003e-04 
-1.995879498343e-04 -5.013008806985e-06 0.0 
-5.013008806985e-06 1.363897218258e-03 0.0 
0.0 0.0 -1.985690758598e-04 
-1.206431140158e-04 2.307417823056e-05 0.0 
2.307417823056e-05 7.999499804229e-04 0.0 
0.0 0.0 -1.217990918242e-04 
-1.230873173652e-04 -2.834404514853e-05 0.0 
-2.834404514853e-05 8.168726937961e-04 0.0 
0.0 0.0 -1.229897142350e-04 
-1.277789710916e-04 2.899586617417e-05 0.0 
2.899586617417e-05 8.376167932335e-04 0.0 
0.0 0.0 -1.278593196867e-04 
-6.749379846372e-05 -2.782885043647e-05 0.0 
-2.782885043647e-05 4.285534232864e-04 0.0 
0.0 0.0 -6.718560115948e-05 
-1.130846881410e-04 -2.901620947727e-05 0.0 
-2.901620947727e-05 7.492911164906e-04 0.0 
0.0 0.0 -1.132750687146e-04 
-1.393795706141e-04 2.790993313463e-05 0.0 
2.790993313463e-05 9.183577294076e-04 0.0 
0.0 0.0 -1.393992299975e-04 
-1.313953089638e-04 2.793110906410e-05 0.0 
2.793110906410e-05 8.609063871163e-04 0.0 
0.0 0.0 -1.310746415357e-04 
-1.472158165240e-04 2.758529410816e-05 0.0 
2.758529410816e-05 9.752002146418e-04 0.0 
0.0 0.0 -1.472189500432e-04 
-1.516300742627e-04 2.806244334544e-05 0.0 
2.806244334544e-05 1.001799986608e-03 0.0 
0.0 0.0 -1.512033144533e-04 
-1.566655293626e-04 -2.889951032878e-05 0.0 
-2.889951032878e-05 1.046948901408e-03 0.0 
0.0 0.0 -1.561275327105e-04 
-3.388460750578e-05 -1.545160936620e-05 0.0 
-1.545160936620e-05 2.099343336454e-04 0.0 
0.0 0.0 -3.245576353708e-05 
-1.079103303358e-04 2.933502518126e-05 0.0 
2.933502518126e-05 7.001507540581e-04 0.0 
0.0 0.0 -1.081352097849e-04 
-1.027907419891e-04 -2.789055961483e-05 0.0 
-2.789055961483e-05 6.727593674768e-04 0.0 
0.0 0.0 -1.023828309811e-04 
-1.434897197293e-04 2.686269947909e-05 0.0 
2.686269947909e-05 9.426378339422e-04 0.0 
0.0 0.0 -1.428293200757e-04 
-1.483261696105e-04 -2.883963041716e-05 0.0 
-2.883963041716e-05 9.902814330651e-04 0.0 
0.0 0.0 -1.477595226970e-04 
-1.733622378423e-04 2.696425670561e-05 0.0 
2.696425670561e-05 1.158199599596e-03 0.0 
0.0 0.0 -1.740163136221e-04 
-5.146390240149e-05 3.149198966797e-05 0.0 
3.149198966797e-05 2.950977217837e-04 0.0 
0.0 0.0 -4.910994769955e-05 
-4.998322073950e-05 -2.650173050573e-05 0.0 
-2.650173050573e-05 3.137392583323e-04 0.0 
0.0 0.0 -5.065930366581e-05 
-1.246841514279e-04 2.807070818710e-05 0.0 
2.807070818710e-05 8.153369030926e-04 0.0 
0.0 0.0 -1.245896567492e-04 
-1.074667000404e-04 -2.931017500739e-05 0.0 
-2.931017500739e-05 7.103792899815e-04 0.0 
0.0 0.0 -1.077203783481e-04 
-9.918600810801e-05 -3.218977296722e-05 0.0 
-3.218977296722e-05 6.451476881974e-04 0.0 
0.0 0.0 -9.831899762194e-05 
-1.033843323464e-04 -2.568146961447e-05 0.0 
-2.568146961447e-05 6.823399375890e-04 0.0 
0.0 0.0 -1.033380742667e-04 
-1.467772705035e-04 -2.855532502296e-05 0.0 
-2.855532502296e-05 9.829234791858e-04 0.0 
0.0 0.0 -1.469023935692e-04 
-4.918821938130e-05 -2.784621442943e-05 0.0 
-2.784621442943e-05 3.054917735983e-04 0.0 
0.0 0.0 -4.953709868763e-05 
-1.222003796169e-04 2.866150149173e-05 0.0 
2.866150149173e-05 7.992287747919e-04 0.0 
0.0 0.0 -1.223213871927e-04 
-1.574838851652e-04 -2.884771519407e-05 0.0 
-2.884771519407e-05 1.055743233401e-03 0.0 
0.0 0.0 -1.573814874934e-04 
-5.103366446644e-05 3.083233425307e-05 0.0 
3.083233425307e-05 3.010972732110e-04 0.0 
0.0 0.0 -5.112340052147e-05 
-1.934610965695e-04 -4.298535282020e-06 0.0 
-4.298535282020e-06 1.268654757538e-03 0.0 
0.0 0.0 -1.928379572095e-04 
-1.729742724807e-04 -2.716366689485e-05 0.0 
-2.716366689485e-05 1.161879060048e-03 0.0 
0.0 0.0 -1.728683014225e-04 
-1.159629787201e-04 -2.904469987433e-05 0.0 
-2.904469987433e-05 7.705849919696e-04 0.0 
0.0 0.0 -1.163417091451e-04 
-1.616915685660e-04 2.859224485179e-05 0.0 
2.859224485179e-05 1.074324548804e-03 0.0 
0.0 0.0 -1.618083629464e-04 
-2.727429490673e-05 -7.981424094550e-07 0.0 
-7.981424094550e-07 1.116265976979e-04 0.0 
0.0 0.0 -2.696321564760e-05 
-1.521690046607e-04 -3.000871026997e-05 0.0 
-3.000871026997e-05 1.017696781759e-03 0.0 
0.0 0.0 -1.518707364543e-04 
-1.295839926014e-04 -2.815794342717e-05 0.0 
-2.815794342717e-05 8.619661847659e-04 0.0 
0.0 0.0 -1.295155041898e-04 
-2.359634361323e-05 9.091220455368e-07 0.0 
9.091220455368e-07 1.106951619002e-04 0.0 
0.0 0.0 -2.682779714776e-05 
-1.728538985111e-04 2.680741270793e-05 0.0 
2.680741270793e-05 1.154427413958e-03 0.0 
0.0 0.0 -1.732288690391e-04 
-4.759083390138e-05 -2.831698267297e-05 0.0 
-2.831698267297e-05 2.848913946214e-04 0.0 
0.0 0.0 -4.649687138448e-05 
-1.430104513494e-04 -2.827840335732e-05 0.0 
-2.827840335732e-05 9.522047249633e-04 0.0 
0.0 0.0 -1.424467998190e-04 
-1.308115066644e-04 -2.845406566805e-05 0.0 
-2.845406566805e-05 8.700772173504e-04 0.0 
0.0 0.0 -1.306907721685e-04 
-1.129064275361e-04 -2.856218169756e-05 0.0 
-2.856218169756e-05 7.462380760800e-04 0.0 
0.0 0.0 -1.127972299543e-04 
-1.359129833258e-04 2.979368899475e-05 0.0 
2.979368899475e-05 8.944895224544e-04 0.0 
0.0 0.0 -1.357882224401e-04 
-1.779538886446e-04 2.685602915856e-05 0.0 
2.685602915856e-05 1.186518068831e-03 0.0 
0.0 0.0 -1.774347558581e-04 
-1.457575943922e-04 3.026596853263e-05 0.0 
3.026596853263e-05 9.632506474158e-04 0.0 
0.0 0.0 -1.457400808753e-04 
-1.288002410826e-04 2.805878315534e-05 0.0 
2.805878315534e-05 8.440094574945e-04 0.0 
0.0 0.0 -1.287264812403e-04 
-1.242825439840e-04 -2.804688037007e-05 0.0 
-2.804688037007e-05 8.250067063846e-04 0.0 
0.0 0.0 -1.241942416882e-04 
-1.736395521226e-05 2.354389388036e-05 0.0 
2.354389388036e-05 7.964528863018e-05 0.0 
0.0 0.0 -1.861799679395e-05 
-4.157545693324e-05 2.817385926199e-05 0.0 
2.817385926199e-05 2.365575590948e-04 0.0 
0.0 0.0 -4.141517733842e-05 
-1.678318203631e-04 -2.663064313971e-05 0.0 
-2.663064313971e-05 1.127397061509e-03 0.0 
0.0 0.0 -1.677496568182e-04 
-1.370203440637e-04 -3.226606344672e-05 0.0 
-3.226606344672e-05 9.081664366392e-04 0.0 
0.0 0.0 -1.362805121017e-04 
-1.736141937904e-04 2.716336991301e-05 0.0 
2.716336991301e-05 1.149649766564e-03 0.0 
0.0 0.0 -1.723036539172e-04 
-7.429185192102e-05 2.889322857484e-05 0.0 
2.889322857484e-05 4.644168819778e-04 0.0 
0.0 0.0 -7.414465667103e-05 
-1.649902886651e-04 2.947284893012e-05 0.0 
2.947284893012e-05 1.093935083842e-03 0.0 
0.0 0.0 -1.646925898217e-04 
-1.739966132604e-04 -2.849382622555e-05 0.0 
-2.849382622555e-05 1.167419998479e-03 0.0 
0.0 0.0 -1.733111646468e-04 
-1.056965695515e-04 2.657671323282e-05 0.0 
2.657671323282e-05 6.973803664085e-04 0.0 
0.0 0.0 -1.076913066561e-04 
-1.684634156381e-04 2.502571500154e-05 0.0 
2.502571500154e-05 1.117308510720e-03 0.0 
0.0 0.0 -1.681488932201e-04 
-1.612200699048e-04 -2.968921846860e-05 0.0 
-2.968921846860e-05 1.084762543557e-03 0.0 
0.0 0.0 -1.613920101890e-04 
-1.435042771724e-04 2.827958174112e-05 0.0 
2.827958174112e-05 9.471256299073e-04 0.0 
0.0 0.0 -1.435674306479e-04 
-1.178719447516e-04 2.925779353124e-05 0.0 
2.925779353124e-05 7.691196797978e-04 0.0 
0.0 0.0 -1.179957515531e-04 
-1.230064472571e-04 -2.933976043839e-05 0.0 
-2.933976043839e-05 8.180684852634e-04 0.0 
0.0 0.0 -1.231351811242e-04 
-1.812260547849e-04 -3.047200266982e-05 0.0 
-3.047200266982e-05 1.223288115478e-03 0.0 
0.0 0.0 -1.807056875578e-04 
-1.260212927046e-04 2.933157348944e-05 0.0 
2.933157348944e-05 8.259598448106e-04 0.0 
0.0 0.0 -1.259489979917e-04 
-1.353161328246e-04 2.778264495549e-05 0.0 
2.778264495549e-05 8.897119970146e-04 0.0 
0.0 0.0 -1.352333322325e-04 
-1.267391738953e-04 2.944240283988e-05 0.0 
2.944240283988e-05 8.300608908324e-04 0.0 
0.0 0.0 -1.265040046469e-04 
-1.558042942572e-04 2.960325539106e-05 0.0 
2.960325539106e-05 1.032329659142e-03 0.0 
0.0 0.0 -1.557546880476e-04 
-1.178031641948e-04 -2.833363001983e-05 0.0 
-2.833363001983e-05 7.792538415973e-04 0.0 
0.0 0.0 -1.176363242409e-04 
-7.616423057155e-05 2.888075361391e-05 0.0 
2.888075361391e-05 4.767557616214e-04 0.0 
0.0 0.0 -7.598706826662e-05 
-1.284551892997e-04 2.830356900228e-05 0.0 
2.830356900228e-05 8.414205268390e-04 0.0 
0.0 0.0 -1.284270486071e-04 
-8.163145150663e-05 2.849893936950e-05 0.0 
2.849893936950e-05 5.141388462768e-04 0.0 
0.0 0.0 -8.139240314519e-05 
-1.476035922618e-04 2.790275079514e-05 0.0 
2.790275079514e-05 9.723513416991e-04 0.0 
0.0 0.0 -1.469868445827e-04 
-8.102880366192e-05 -2.822816260586e-05 0.0 
-2.822816260586e-05 5.241451611897e-04 0.0 
0.0 0.0 -8.099228255434e-05 
-1.416684014624e-04 -2.911139421202e-05 0.0 
-2.911139421202e-05 9.446400297649e-04 0.0 
0.0 0.0 -1.413087031611e-04 
-1.704134817182e-04 -2.893451028680e-05 0.0 
-2.893451028680e-05 1.143317166872e-03 0.0 
0.0 0.0 -1.695824168335e-04 
-1.648116269840e-04 2.803138241354e-05 0.0 
2.803138241354e-05 1.093290237044e-03 0.0 
0.0 0.0 -1.644793634901e-04 
-1.128875860972e-04 2.826705620268e-05 0.0 
2.826705620268e-05 7.324835187191e-04 0.0 
0.0 0.0 -1.126879322255e-04 
-1.413103611302e-04 2.856634998349e-05 0.0 
2.856634998349e-05 9.375047760794e-04 0.0 
0.0 0.0 -1.419038077447e-04 
-1.657595976086e-04 2.853389717882e-05 0.0 
2.853389717882e-05 1.104349844714e-03 0.0 
0.0 0.0 -1.661162351013e-04 
-1.653889785276e-04 -2.976188635714e-05 0.0 
-2.976188635714e-05 1.114688989457e-03 0.0 
0.0 0.0 -1.657121520580e-04 
-4.122208403583e-05 -2.733977607716e-05 0.0 
-2.733977607716e-05 2.407308049745e-04 0.0 
0.0 0.0 -4.024936955575e-05 
-1.462865341652e-04 2.791988865304e-05 0.0 
2.791988865304e-05 9.640304959560e-04 0.0 
0.0 0.0 -1.458719015759e-04 
-1.798320892613e-04 3.664169466135e-05 0.0 
3.664169466135e-05 1.207776909166e-03 0.0 
0.0 0.0 -1.808727580343e-04 
-8.155951077410e-05 2.658877336874e-05 0.0 
2.658877336874e-05 5.082367721589e-04 0.0 
0.0 0.0 -8.036834358255e-05 
-1.261065842356e-04 -2.891277945860e-05 0.0 
-2.891277945860e-05 8.392634847212e-04 0.0 
0.0 0.0 -1.261429800108e-04 
-2.464432722710e-05 -2.598410949158e-05 0.0 
-2.598410949158e-05 1.199804601247e-04 0.0 
0.0 0.0 -2.329771006100e-05 
-1.698720281199e-04 2.819353997162e-05 0.0 
2.819353997162e-05 1.134065551803e-03 0.0 
0.0 0.0 -1.704352672439e-04 
-7.209795018933e-05 2.889480946534e-05 0.0 
2.889480946534e-05 4.471234739761e-04 0.0 
0.0 0.0 -7.178447905439e-05 
-1.214879839983e-04 2.129426116121e-05 0.0 
2.129426116121e-05 7.908873499093e-04 0.0 
0.0 0.0 -1.224926751266e-04 
-1.512350690369e-04 3.260960324541e-05 0.0 
3.260960324541e-05 1.003149541653e-03 0.0 
0.0 0.0 -1.513082552986e-04 
-1.410567308220e-04 -2.849265471453e-05 0.0 
-2.849265471453e-05 9.457036391268e-04 0.0 
0.0 0.0 -1.415828201621e-04 
-1.344535840298e-04 2.612046934124e-05 0.0 
2.612046934124e-05 8.995841949147e-04 0.0 
0.0 0.0 -1.366211047096e-04 
-1.341134389053e-04 2.811410486968e-05 0.0 
2.811410486968e-05 8.812581479058e-04 0.0 
0.0 0.0 -1.340535934895e-04 
-8.946040519151e-05 -2.953905219233e-05 0.0 
-2.953905219233e-05 5.742848433877e-04 0.0 
0.0 0.0 -8.827358089900e-05 
-9.333279709743e-05 -2.369397324284e-05 0.0 
-2.369397324284e-05 6.111413459436e-04 0.0 
0.0 0.0 -9.328238720484e-05 
-1.698818200285e-04 -2.882683013526e-05 0.0 
-2.882683013526e-05 1.144701307571e-03 0.0 
0.0 0.0 -1.700100520615e-04 
-1.409975246060e-04 -3.114270166762e-05 0.0 
-3.114270166762e-05 9.412074701777e-04 0.0 
0.0 0.0 -1.409113068204e-04 
-1.224899796510e-04 -2.844927577316e-05 0.0 
-2.844927577316e-05 8.138192071892e-04 0.0 
0.0 0.0 -1.224729735915e-04 
-1.523712328566e-04 3.064679971689e-05 0.0 
3.064679971689e-05 1.008635964013e-03 0.0 
0.0 0.0 -1.522479562080e-04 
-1.188292947714e-04 2.814854163685e-05 0.0 
2.814854163685e-05 7.741609344605e-04 0.0 
0.0 0.0 -1.187265862058e-04 
-7.698231420718e-05 -2.807470773001e-05 0.0 
-2.807470773001e-05 4.953557652573e-04 0.0 
0.0 0.0 -7.679943085705e-05 
-8.618619312566e-05 2.228028664320e-05 0.0 
2.228028664320e-05 5.633842965339e-04 0.0 
0.0 0.0 -8.862593743002e-05 
-1.284395253225e-04 -2.631768161175e-05 0.0 
-2.631768161175e-05 8.441014789476e-04 0.0 
0.0 0.0 -1.266344217576e-04 
-1.074097245906e-04 1.137855673603e-06 0.0 
1.137855673603e-06 7.273751056144e-04 0.0 
0.0 0.0 -1.068299257544e-04 
-1.648361548193e-04 -2.903405778283e-05 0.0 
-2.903405778283e-05 1.103487992394e-03 0.0 
0.0 0.0 -1.640398004813e-04 
-1.125117604938e-04 -2.832657592519e-05 0.0 
-2.832657592519e-05 7.420818515929e-04 0.0 
0.0 0.0 -1.122952594724e-04 
-1.815273626527e-04 2.648876521301e-05 0.0 
2.648876521301e-05 1.237129381465e-03 0.0 
0.0 0.0 -1.850357933615e-04 
-1.677426973633e-04 3.358700303554e-05 0.0 
3.358700303554e-05 1.121534172788e-03 0.0 
0.0 0.0 -1.681766660669e-04 
-1.238211064038e-04 -2.893923336642e-05 0.0 
-2.893923336642e-05 8.228165218213e-04 0.0 
0.0 0.0 -1.237869166313e-04 
-1.864446355504e-04 -3.208766695310e-05 0.0 
-3.208766695310e-05 1.252430825566e-03 0.0 
0.0 0.0 -1.862208944195e-04 
-8.530940149586e-05 -2.872680214247e-05 0.0 
-2.872680214247e-05 5.536185287289e-04 0.0 
0.0 0.0 -8.523934116932e-05 
-1.812060938045e-04 2.774101611193e-05 0.0 
2.774101611193e-05 1.207038039800e-03 0.0 
0.0 0.0 -1.806723702746e-04 
-1.337032776849e-04 -2.817141114612e-05 0.0 
-2.817141114612e-05 8.910030578001e-04 0.0 
0.0 0.0 -1.336599856011e-04 
-1.477881411962e-04 2.807358610009e-05 0.0 
2.807358610009e-05 9.757986870607e-04 0.0 
0.0 0.0 -1.477205131922e-04 
-1.717661370758e-04 -2.763745373205e-05 0.0 
-2.763745373205e-05 1.155465207730e-03 0.0 
0.0 0.0 -1.720177540750e-04 
-8.915482971043e-05 -2.748298977886e-05 0.0 
-2.748298977886e-05 5.839530331415e-04 0.0 
0.0 0.0 -8.937342098373e-05 
-1.408472522219e-04 2.814178914188e-05 0.0 
2.814178914188e-05 9.273096045331e-04 0.0 
0.0 0.0 -1.405419627762e-04 
-1.183094889317e-04 -2.831962265042e-05 0.0 
-2.831962265042e-05 7.845371880710e-04 0.0 
0.0 0.0 -1.182925860037e-04 
-1.362566173497e-04 -2.854051389334e-05 0.0 
-2.854051389334e-05 9.069235503698e-04 0.0 
0.0 0.0 -1.359850532410e-04 
-7.919830953849e-05 -2.789069310031e-05 0.0 
-2.789069310031e-05 5.092955845790e-04 0.0 
0.0 0.0 -7.902140106529e-05 
-1.521909368861e-04 3.155873557746e-05 0.0 
3.155873557746e-05 1.007096083567e-03 0.0 
0.0 0.0 -1.519844081269e-04 
-1.132987595353e-04 2.834154396761e-05 0.0 
2.834154396761e-05 7.356229622935e-04 0.0 
0.0 0.0 -1.132306032040e-04 
-1.320680958621e-04 2.867292103990e-05 0.0 
2.867292103990e-05 8.674712725503e-04 0.0 
0.0 0.0 -1.321542253869e-04 
-1.368300496681e-04 2.752968636588e-05 0.0 
2.752968636588e-05 8.977721242010e-04 0.0 
0.0 0.0 -1.363712481195e-04 
-2.669160915437e-05 -1.546272424362e-05 0.0 
-1.546272424362e-05 1.161110005952e-04 0.0 
0.0 0.0 -2.089024115593e-05 
-1.363872734664e-04 3.073615465078e-05 0.0 
3.073615465078e-05 8.982822443154e-04 0.0 
0.0 0.0 -1.362374425583e-04 
-3.196098953400e-05 -3.152710847565e-05 0.0 
-3.152710847565e-05 1.832351866553e-04 0.0 
0.0 0.0 -3.246432735143e-05 
-3.780823483309e-05 3.089859502925e-05 0.0 
3.089859502925e-05 2.040662805879e-04 0.0 
0.0 0.0 -3.615541251042e-05 
-1.264532196870e-04 2.805256790047e-05 0.0 
2.805256790047e-05 8.282811887478e-04 0.0 
0.0 0.0 -1.265710825771e-04 
-1.650927065987e-04 -2.992799550430e-05 0.0 
-2.992799550430e-05 1.105940052269e-03 0.0 
0.0 0.0 -1.647532235908e-04 
-1.400518033137e-04 2.658927901254e-05 0.0 
2.658927901254e-05 9.276103799496e-04 0.0 
0.0 0.0 -1.408132903889e-04 
-7.975221115210e-05 -2.926681587233e-05 0.0 
-2.926681587233e-05 5.061325512957e-04 0.0 
0.0 0.0 -7.822954250360e-05 
-2.013483297690e-04 2.032612637038e-06 0.0 
2.032612637038e-06 1.329003344546e-03 0.0 
0.0 0.0 -2.013483297690e-04 
-1.035627632493e-05 2.012317785662e-05 0.0 
2.012317785662e-05 3.911320943316e-05 0.0 
0.0 0.0 -1.232439990353e-05 
-8.383816084979e-05 -1.994127170537e-05 0.0 
-1.994127170537e-05 5.413626143026e-04 0.0 
0.0 0.0 -8.324708519681e-05 
-1.271654449798e-04 2.783994873367e-05 0.0 
2.783994873367e-05 8.320575259278e-04 0.0 
0.0 0.0 -1.270911103786e-04 
-1.205324376648e-04 -2.929888805432e-05 0.0 
-2.929888805432e-05 8.005519843790e-04 0.0 
0.0 0.0 -1.206387729067e-04 
-1.013602283131e-04 -2.480997680423e-05 0.0 
-2.480997680423e-05 6.640206223424e-04 0.0 
0.0 0.0 -1.009985469804e-04 
-8.871913647433e-05 2.734607712163e-05 0.0 
2.734607712163e-05 5.647906116567e-04 0.0 
0.0 0.0 -8.863076730823e-05 
-1.311043943365e-04 -2.976717297625e-05 0.0 
-2.976717297625e-05 8.719910144079e-04 0.0 
0.0 0.0 -1.310072861357e-04 
-1.389619207248e-04 -2.862329341105e-05 0.0 
-2.862329341105e-05 9.281576540868e-04 0.0 
0.0 0.0 -1.390016920470e-04 
-1.460738362541e-04 3.043025274219e-05 0.0 
3.043025274219e-05 9.676325484449e-04 0.0 
0.0 0.0 -1.460128267758e-04 
-1.732762100729e-04 3.047090098963e-05 0.0 
3.047090098963e-05 1.141214836478e-03 0.0 
0.0 0.0 -1.716453415534e-04 
-4.497460723320e-05 2.726656903271e-05 0.0 
2.726656903271e-05 2.561921516371e-04 0.0 
0.0 0.0 -4.464496721659e-05 
-1.166209944052e-04 2.853466779788e-05 0.0 
2.853466779788e-05 7.601119053809e-04 0.0 
0.0 0.0 -1.167719096664e-04 
-1.253239379370e-04 2.802640912089e-05 0.0 
2.802640912089e-05 8.204946388047e-04 0.0 
0.0 0.0 -1.253423245625e-04 
-6.775366326737e-05 -3.048229866519e-05 0.0 
-3.048229866519e-05 4.346213084644e-04 0.0 
0.0 0.0 -6.816034660215e-05 
-1.127220931764e-04 3.280867731043e-05 0.0 
3.280867731043e-05 7.331832316127e-04 0.0 
0.0 0.0 -1.127715562385e-04 
-1.406419564968e-04 -3.010518963226e-05 0.0 
-3.010518963226e-05 9.368893413982e-04 0.0 
0.0 0.0 -1.404347219739e-04 
-1.530603703096e-04 -2.920298263434e-05 0.0 
-2.920298263434e-05 1.018521684544e-03 0.0 
0.0 0.0 -1.535177820318e-04 
-2.288599488340e-05 1.289972043286e-06 0.0 
1.289972043286e-06 1.500050201402e-04 0.0 
0.0 0.0 -2.407863984352e-05 
-1.904718743730e-05 -3.796502735245e-05 0.0 
-3.796502735245e-05 7.353718879473e-05 0.0 
0.0 0.0 -1.778391308807e-05 
-4.862036817725e-05 -2.764492479964e-05 0.0 
-2.764492479964e-05 3.006710189870e-04 0.0 
0.0 0.0 -4.850561850037e-05 
-1.250248464412e-04 -2.908499407456e-05 0.0 
-2.908499407456e-05 8.306354519711e-04 0.0 
0.0 0.0 -1.249513133117e-04 
-9.487833492244e-05 -2.821982749961e-05 0.0 
-2.821982749961e-05 6.208435078207e-04 0.0 
0.0 0.0 -9.483030114460e-05 
-8.410233070287e-05 -2.754579270561e-05 0.0 
-2.754579270561e-05 5.457436342908e-04 0.0 
0.0 0.0 -8.407979340540e-05 
-7.564452835468e-05 -2.812380315554e-05 0.0 
-2.812380315554e-05 4.861034660231e-04 0.0 
0.0 0.0 -7.562371400132e-05 
-1.308199925164e-04 2.795456765413e-05 0.0 
2.795456765413e-05 8.583699019635e-04 0.0 
0.0 0.0 -1.308200345188e-04 
-1.492653203134e-04 2.795966396730e-05 0.0 
2.795966396730e-05 9.867209101107e-04 0.0 
0.0 0.0 -1.493429779604e-04 
-1.297619321001e-04 2.813153916154e-05 0.0 
2.813153916154e-05 8.505758307982e-04 0.0 
0.0 0.0 -1.296493136919e-04 
-9.537410332307e-05 2.792962789421e-05 0.0 
2.792962789421e-05 6.106733548119e-04 0.0 
0.0 0.0 -9.522910944095e-05 
-1.456775150903e-04 -3.018176577816e-05 0.0 
-3.018176577816e-05 9.731377158713e-04 0.0 
0.0 0.0 -1.454913560695e-04 
-1.215295702296e-04 2.461975315803e-05 0.0 
2.461975315803e-05 8.148115380054e-04 0.0 
0.0 0.0 -1.235433054540e-04 
-1.607975492377e-04 3.196445582729e-05 0.0 
3.196445582729e-05 1.071803692603e-03 0.0 
0.0 0.0 -1.614296353785e-04 
-1.294007234012e-04 -2.913608251421e-05 0.0 
-2.913608251421e-05 8.607493369835e-04 0.0 
0.0 0.0 -1.292646442145e-04 
-1.305405341983e-04 -2.882629630394e-05 0.0 
-2.882629630394e-05 8.689129694931e-04 0.0 
0.0 0.0 -1.304223873054e-04 
-6.968339329854e-05 -2.972888482406e-05 0.0 
-2.972888482406e-05 4.334906827197e-04 0.0 
0.0 0.0 -6.822727741190e-05 
-9.912831729497e-05 -2.796137707004e-05 0.0 
-2.796137707004e-05 6.504811582310e-04 0.0 
0.0 0.0 -9.898428703081e-05 
-1.338904054535e-04 2.764565306312e-05 0.0 
2.764565306312e-05 8.796508899650e-04 0.0 
0.0 0.0 -1.339603927656e-04 
-1.451942325546e-04 2.545422836756e-05 0.0 
2.545422836756e-05 9.593435678016e-04 0.0 
0.0 0.0 -1.442355194375e-04 
-1.361868027580e-04 2.709053506538e-05 0.0 
2.709053506538e-05 9.012697796478e-04 0.0 
0.0 0.0 -1.345837404303e-04 
-7.449260603113e-05 -2.324565781608e-05 0.0 
-2.324565781608e-05 4.730958793735e-04 0.0 
0.0 0.0 -7.319231467821e-05 
-1.351502038915e-04 2.830190167801e-05 0.0 
2.830190167801e-05 8.885438377553e-04 0.0 
0.0 0.0 -1.351067771782e-04 
-8.277379542059e-05 -2.675056815443e-05 0.0 
-2.675056815443e-05 5.366126160003e-04 0.0 
0.0 0.0 -8.276526902223e-05 
-4.268302624522e-05 2.966411434536e-05 0.0 
2.966411434536e-05 2.450626322876e-04 0.0 
0.0 0.0 -4.217020858377e-05 
-1.783377964352e-04 -2.878462420289e-05 0.0 
-2.878462420289e-05 1.216695363592e-03 0.0 
0.0 0.0 -1.804362660462e-04 
-4.529678387534e-05 2.926161683405e-05 0.0 
2.926161683405e-05 2.590325448345e-04 0.0 
0.0 0.0 -4.529806102550e-05 
-8.742939480876e-05 2.790769408488e-05 0.0 
2.790769408488e-05 5.558475884308e-04 0.0 
0.0 0.0 -8.733313829944e-05 
-1.317265343520e-04 -2.980209858436e-05 0.0 
-2.980209858436e-05 8.750838916963e-04 0.0 
0.0 0.0 -1.314978247514e-04 
-7.591084973546e-05 2.107875529606e-05 0.0 
2.107875529606e-05 4.931826175602e-04 0.0 
0.0 0.0 -7.859944172783e-05 
-1.334719851974e-04 -2.966915358544e-05 0.0 
-2.966915358544e-05 8.920345164479e-04 0.0 
0.0 0.0 -1.335848452069e-04 
-6.387562636780e-05 -3.268343600872e-05 0.0 
-3.268343600872e-05 4.032800898130e-04 0.0 
0.0 0.0 -6.423763444998e-05 
-1.136812058642e-04 -2.481450603128e-05 0.0 
-2.481450603128e-05 7.554211615018e-04 0.0 
0.0 0.0 -1.173522912428e-04 
-1.350637719422e-04 -2.838472714175e-05 0.0 
-2.838472714175e-05 8.988460543843e-04 0.0 
0.0 0.0 -1.347247148155e-04 
-1.171592619295e-04 -2.801384878721e-05 0.0 
-2.801384878721e-05 7.755561146277e-04 0.0 
0.0 0.0 -1.170018866078e-04 
-1.217089587309e-04 -2.902247236899e-05 0.0 
-2.902247236899e-05 8.097798257773e-04 0.0 
0.0 0.0 -1.219000842292e-04 
-2.184335631700e-05 -1.729926300555e-05 0.0 
-1.729926300555e-05 1.250103729472e-04 0.0 
0.0 0.0 -2.233965624082e-05 
-1.775429286585e-04 -2.993860203194e-05 0.0 
-2.993860203194e-05 1.168952343716e-03 0.0 
0.0 0.0 -1.728850973588e-04 
-9.777928932074e-05 -2.702797086344e-05 0.0 
-2.702797086344e-05 6.417468029030e-04 0.0 
0.0 0.0 -9.771858906392e-05 
-1.742936274983e-04 3.098695444566e-05 0.0 
3.098695444566e-05 1.160612036868e-03 0.0 
0.0 0.0 -1.731059224200e-04 
-1.475958375390e-04 -2.938015971493e-05 0.0 
-2.938015971493e-05 9.867581376832e-04 0.0 
0.0 0.0 -1.473178670231e-04 
-1.394115090974e-04 2.895092753690e-05 0.0 
2.895092753690e-05 9.183306099949e-04 0.0 
0.0 0.0 -1.394094752486e-04 
-1.392759160733e-04 -2.661746757661e-05 0.0 
-2.661746757661e-05 9.284264619517e-04 0.0 
0.0 0.0 -1.390298226761e-04 
-8.994283602845e-05 2.778083834669e-05 0.0 
2.778083834669e-05 5.730895634602e-04 0.0 
0.0 0.0 -8.984374554363e-05 
-2.917258118515e-05 2.376164554401e-05 0.0 
2.376164554401e-05 1.745437757761e-04 0.0 
0.0 0.0 -3.155138587282e-05 
-2.317643182854e-05 1.790083138541e-05 0.0 
1.790083138541e-05 9.845334346925e-05 0.0 
0.0 0.0 -2.398754234351e-05 
-1.432208171698e-04 2.892878557249e-05 0.0 
2.892878557249e-05 9.478265663156e-04 0.0 
0.0 0.0 -1.437459767248e-04 
-1.740260011077e-04 2.826019241499e-05 0.0 
2.826019241499e-05 1.153801197259e-03 0.0 
0.0 0.0 -1.722084272143e-04 
-8.118601345419e-05 -2.611344377703e-05 0.0 
-2.611344377703e-05 5.279662901466e-04 0.0 
0.0 0.0 -8.139371786675e-05 
-1.500944745800e-04 2.850222383989e-05 0.0 
2.850222383989e-05 9.934228736818e-04 0.0 
0.0 0.0 -1.501054273671e-04 
-7.521111464244e-05 2.846605665054e-05 0.0 
2.846605665054e-05 4.657051250380e-04 0.0 
0.0 0.0 -7.503141475880e-05 
-1.512386812048e-04 -2.992568848289e-05 0.0 
-2.992568848289e-05 1.010913185445e-03 0.0 
0.0 0.0 -1.508421041237e-04 
-1.913679647201e-04 1.633067843082e-05 0.0 
1.633067843082e-05 1.304046368860e-03 0.0 
0.0 0.0 -1.899801870201e-04 
-8.107065812765e-06 2.346749919756e-06 0.0 
2.346749919756e-06 3.465691143960e-05 0.0 
0.0 0.0 -6.768710104396e-06 
-2.012431250738e-04 -5.135354168430e-06 0.0 
-5.135354168430e-06 1.328125823973e-03 0.0 
0.0 0.0 -2.012431250738e-04 
-2.010076978229e-04 5.129027623315e-07 0.0 
5.129027623315e-07 1.332224423205e-03 0.0 
0.0 0.0 -2.010076978229e-04 
-1.200525084162e-04 -2.960169498126e-05 0.0 
-2.960169498126e-05 7.774099100136e-04 0.0 
0.0 0.0 -1.193279669386e-04 
-9.640785059628e-05 -2.657435829226e-05 0.0 
-2.657435829226e-05 6.329376874412e-04 0.0 
0.0 0.0 -9.642369099328e-05 
-1.430993903661e-04 -2.855154632445e-05 0.0 
-2.855154632445e-05 9.576101063938e-04 0.0 
0.0 0.0 -1.431539317715e-04 
-9.069725416876e-05 -2.857026822921e-05 0.0 
-2.857026822921e-05 5.911546440220e-04 0.0 
0.0 0.0 -9.061723822400e-05 
-3.022990634783e-05 -2.681786409130e-05 0.0 
-2.681786409130e-05 1.822763229384e-04 0.0 
0.0 0.0 -3.143827221009e-05 
-2.037753453247e-05 -2.478655429001e-05 0.0 
-2.478655429001e-05 8.790842240506e-05 0.0 
0.0 0.0 -1.801817686168e-05 
-1.836175097671e-04 -2.402430245032e-05 0.0 
-2.402430245032e-05 1.223987652140e-03 0.0 
0.0 0.0 -1.814249121503e-04 
-1.450545934085e-04 -3.153145532631e-05 0.0 
-3.153145532631e-05 9.685145142433e-04 0.0 
0.0 0.0 -1.447226300079e-04 
-1.125869054840e-04 -2.748101964700e-05 0.0 
-2.748101964700e-05 7.294325003239e-04 0.0 
0.0 0.0 -1.083718385576e-04 
-1.962159152819e-04 -1.434651956337e-06 0.0 
-1.434651956337e-06 1.365722808943e-03 0.0 
0.0 0.0 -1.985491694924e-04 
-5.585822177885e-05 -3.143630658045e-05 0.0 
-3.143630658045e-05 3.376755851757e-04 0.0 
0.0 0.0 -5.423556500690e-05 
-2.007881053171e-04 -1.726199718447e-06 0.0 
-1.726199718447e-06 1.364640639189e-03 0.0 
0.0 0.0 -1.987362728011e-04 
-1.448517594688e-04 2.793135192776e-05 0.0 
2.793135192776e-05 9.587643079544e-04 0.0 
0.0 0.0 -1.450563315224e-04 
-9.484276981656e-05 -2.674005154729e-05 0.0 
-2.674005154729e-05 6.234132904817e-04 0.0 
0.0 0.0 -9.504591620249e-05 
-1.382279383007e-04 2.787393037445e-05 0.0 
2.787393037445e-05 9.097739666025e-04 0.0 
0.0 0.0 -1.381945852821e-04 
-9.142868377808e-05 2.725850192794e-05 0.0 
2.725850192794e-05 5.832477346610e-04 0.0 
0.0 0.0 -9.142251929393e-05 
-4.742959093977e-05 3.178494059526e-05 0.0 
3.178494059526e-05 2.793740196453e-04 0.0 
0.0 0.0 -4.740468724644e-05 
-8.571259270612e-05 2.828259101351e-05 0.0 
2.828259101351e-05 5.446684396391e-04 0.0 
0.0 0.0 -8.592027974235e-05 
-1.533744480417e-04 2.894142802439e-05 0.0 
2.894142802439e-05 1.015636410024e-03 0.0 
0.0 0.0 -1.535624635791e-04 
-1.726464644829e-04 -3.048637260420e-05 0.0 
-3.048637260420e-05 1.163840887987e-03 0.0 
0.0 0.0 -1.733086171842e-04 
-9.280503597506e-05 2.727322910805e-05 0.0 
2.727322910805e-05 5.925489514016e-04 0.0 
0.0 0.0 -9.272779504641e-05 
-1.556220947506e-04 2.834035430820e-05 0.0 
2.834035430820e-05 1.030951438499e-03 0.0 
0.0 0.0 -1.554407367389e-04 
0.0 0.0 0.0 
0.0 0.0 0.0 
0.0 0.0 0.0 
-9.414991845574e-05 2.689042394907e-05 0.0 
2.689042394907e-05 6.016400273679e-04 0.0 
0.0 0.0 -9.399423243866e-05 
-1.601427960654e-04 -3.089969489527e-05 0.0 
-3.089969489527e-05 1.075322883485e-03 0.0 
0.0 0.0 -1.599578041173e-04 
-8.403714033751e-05 2.869873894183e-05 0.0 
2.869873894183e-05 5.323289088036e-04 0.0 
0.0 0.0 -8.424104700772e-05 
-7.551475753824e-05 -2.649474593413e-05 0.0 
-2.649474593413e-05 4.894460977115e-04 0.0 
0.0 0.0 -7.579321247091e-05 
-1.378493770478e-04 -2.790966319756e-05 0.0 
-2.790966319756e-05 9.196714216363e-04 0.0 
0.0 0.0 -1.378141772466e-04 
-4.197657932346e-05 3.036843921012e-05 0.0 
3.036843921012e-05 2.488746108878e-04 0.0 
0.0 0.0 -4.469345153978e-05 
-6.356553012414e-05 -1.790556961603e-05 0.0 
-1.790556961603e-05 3.571998655218e-04 0.0 
0.0 0.0 -5.800805537475e-05 
-5.963646489739e-05 -2.697912930355e-05 0.0 
-2.697912930355e-05 4.061213774054e-04 0.0 
0.0 0.0 -6.293882513644e-05 
-7.444587698182e-05 2.773637856154e-05 0.0 
2.773637856154e-05 4.649609944167e-04 0.0 
0.0 0.0 -7.460064588462e-05 
-1.268907598115e-04 -2.860718727315e-05 0.0 
-2.860718727315e-05 8.433503837867e-04 0.0 
0.0 0.0 -1.266626700847e-04 
-1.224386685492e-04 2.875829832121e-05 0.0 
2.875829832121e-05 7.993143987396e-04 0.0 
0.0 0.0 -1.222099179032e-04 
-1.550707846259e-04 -3.021300247570e-05 0.0 
-3.021300247570e-05 1.039277942014e-03 0.0 
0.0 0.0 -1.550846054886e-04 
-1.832450820655e-04 1.991288128733e-05 0.0 
1.991288128733e-05 1.215795306098e-03 0.0 
0.0 0.0 -1.836391296960e-04 
-6.655985465225e-05 1.933551370614e-05 0.0 
1.933551370614e-05 4.236408710896e-04 0.0 
0.0 0.0 -6.856221390244e-05 
-1.539423275274e-04 -3.704467856056e-05 0.0 
-3.704467856056e-05 1.025688764769e-03 0.0 
0.0 0.0 -1.542931291103e-04 
-1.848510975897e-04 1.848398553320e-05 0.0 
1.848398553320e-05 1.219703446086e-03 0.0 
0.0 0.0 -1.842621829813e-04 
-8.571771551762e-05 2.855827741082e-05 0.0 
2.855827741082e-05 5.438756567258e-04 0.0 
0.0 0.0 -8.561402555334e-05 
-3.203347885951e-05 3.153292785458e-05 0.0 
3.153292785458e-05 1.785175093333e-04 0.0 
0.0 0.0 -3.288300492123e-05 
-7.987216545887e-05 -2.346764247849e-05 0.0 
-2.346764247849e-05 5.184929031400e-04 0.0 
0.0 0.0 -7.995251146095e-05 
-1.212808198145e-04 -2.827766812275e-05 0.0 
-2.827766812275e-05 8.042920459384e-04 0.0 
0.0 0.0 -1.212446555230e-04 
-1.571887129407e-04 2.934596798488e-05 0.0 
2.934596798488e-05 1.038696799089e-03 0.0 
0.0 0.0 -1.564536520703e-04 
-1.218972312950e-04 2.856394456649e-05 0.0 
2.856394456649e-05 7.946681320418e-04 0.0 
0.0 0.0 -1.216241541690e-04 
-3.687132775950e-05 -1.707295352198e-05 0.0 
-1.707295352198e-05 2.178919936982e-04 0.0 
0.0 0.0 -3.514573890614e-05 
-1.365304663594e-04 -3.020632721963e-05 0.0 
-3.020632721963e-05 9.106175701847e-04 0.0 
0.0 0.0 -1.364410292409e-04 
-5.340251844815e-05 3.227075763275e-05 0.0 
3.227075763275e-05 3.197704478175e-04 0.0 
0.0 0.0 -5.262769246444e-05 
-1.221027789088e-04 -2.890393133813e-05 0.0 
-2.890393133813e-05 8.084198513028e-04 0.0 
0.0 0.0 -1.218536047623e-04 
-1.315166503229e-04 3.036725150384e-05 0.0 
3.036725150384e-05 8.626782461118e-04 0.0 
0.0 0.0 -1.313414595827e-04 
-1.426434875643e-04 2.845461346825e-05 0.0 
2.845461346825e-05 9.398077750181e-04 0.0 
0.0 0.0 -1.423708775668e-04 
-1.391130870296e-04 -2.561595399108e-05 0.0 
-2.561595399108e-05 9.319163416573e-04 0.0 
0.0 0.0 -1.424111980137e-04 
-7.359597002428e-05 -2.624347751830e-05 0.0 
-2.624347751830e-05 4.769960883137e-04 0.0 
0.0 0.0 -7.400431453448e-05 
-3.726862459375e-05 2.779553031089e-05 0.0 
2.779553031089e-05 2.059200017464e-04 0.0 
0.0 0.0 -3.689331396917e-05 
-1.412883241773e-04 3.117267937368e-05 0.0 
3.117267937368e-05 9.320815795036e-04 0.0 
0.0 0.0 -1.412299401741e-04 
-5.695030605691e-05 2.980577594809e-05 0.0 
2.980577594809e-05 3.524536248651e-04 0.0 
0.0 0.0 -5.785728901387e-05 
-1.619887946569e-05 3.142044942513e-05 0.0 
3.142044942513e-05 6.578946746101e-05 0.0 
0.0 0.0 -1.807788326025e-05 
-1.825504858472e-04 2.573963131551e-05 0.0 
2.573963131551e-05 1.217305172889e-03 0.0 
0.0 0.0 -1.835083836816e-04 
-1.729233565602e-04 2.872122229116e-05 0.0 
2.872122229116e-05 1.159887577617e-03 0.0 
0.0 0.0 -1.736153457326e-04 
-1.409164917213e-05 -2.430425574027e-06 0.0 
-2.430425574027e-06 4.702851798331e-05 0.0 
0.0 0.0 -1.411580091908e-05 
-1.463665932977e-04 -3.126704961804e-05 0.0 
-3.126704961804e-05 9.787427797795e-04 0.0 
0.0 0.0 -1.463746444899e-04 
-5.845062236023e-05 -2.645214861765e-05 0.0 
-2.645214861765e-05 3.686249821293e-04 0.0 
0.0 0.0 -5.830856659963e-05 
-6.281564360845e-05 3.169608016734e-05 0.0 
3.169608016734e-05 3.841253318981e-04 0.0 
0.0 0.0 -6.293782921230e-05 
-1.650668794472e-04 2.900743383490e-05 0.0 
2.900743383490e-05 1.099051719168e-03 0.0 
0.0 0.0 -1.651106757487e-04 
-1.420507125182e-04 -2.816985865578e-05 0.0 
-2.816985865578e-05 9.486624777595e-04 0.0 
0.0 0.0 -1.420128425420e-04 
-1.597126278327e-04 2.832051794153e-05 0.0 
2.832051794153e-05 1.060784632571e-03 0.0 
0.0 0.0 -1.597282110823e-04 
-9.370204679761e-05 -2.720544142818e-05 0.0 
-2.720544142818e-05 6.123683048539e-04 0.0 
0.0 0.0 -9.358332744048e-05 
-1.060009958935e-04 3.119096932655e-06 0.0 
3.119096932655e-06 7.289348751363e-04 0.0 
0.0 0.0 -1.065887642422e-04 
-1.941219239478e-04 -5.797046838501e-06 0.0 
-5.797046838501e-06 1.266619729961e-03 0.0 
0.0 0.0 -1.922307546206e-04 
-5.313245642963e-05 3.042191767076e-05 0.0 
3.042191767076e-05 3.144966903172e-04 0.0 
0.0 0.0 -5.312725273093e-05 
-1.687809558173e-04 -2.631258109430e-05 0.0 
-2.631258109430e-05 1.128223470622e-03 0.0 
0.0 0.0 -1.681832374459e-04 
-1.273764443761e-04 -2.878158037897e-05 0.0 
-2.878158037897e-05 8.455758404914e-04 0.0 
0.0 0.0 -1.271565067773e-04 
-3.822255344261e-05 2.500156110728e-05 0.0 
2.500156110728e-05 2.364164359659e-04 0.0 
0.0 0.0 -4.338531818388e-05 
-1.526166386163e-04 2.805935182056e-05 0.0 
2.805935182056e-05 1.007602313688e-03 0.0 
0.0 0.0 -1.522749921841e-04 
-9.947746693308e-05 2.785738393031e-05 0.0 
2.785738393031e-05 6.395594624911e-04 0.0 
0.0 0.0 -9.942043292989e-05 
-2.527098467302e-05 3.065658406321e-06 0.0 
3.065658406321e-06 1.096951272292e-04 0.0 
0.0 0.0 -2.686452779226e-05 
-8.455323570062e-05 2.729291629105e-05 0.0 
2.729291629105e-05 5.361235094493e-04 0.0 
0.0 0.0 -8.448194383576e-05 
-1.482631539770e-04 2.903868462658e-05 0.0 
2.903868462658e-05 9.945552025979e-04 0.0 
0.0 0.0 -1.487312575846e-04 
-1.536438978435e-04 -2.997531100621e-05 0.0 
-2.997531100621e-05 1.028351940357e-03 0.0 
0.0 0.0 -1.531470540813e-04 
-4.003077281978e-05 -2.830715996030e-05 0.0 
-2.830715996030e-05 2.471369193857e-04 0.0 
0.0 0.0 -4.069786302508e-05 
-1.167976821101e-04 -1.770134624163e-05 0.0 
-1.770134624163e-05 8.139301953201e-04 0.0 
0.0 0.0 -1.211443205810e-04 
-1.611165232338e-04 2.978772478272e-05 0.0 
2.978772478272e-05 1.070172218379e-03 0.0 
0.0 0.0 -1.607673801326e-04 
-1.654344347163e-04 -2.702413096073e-05 0.0 
-2.702413096073e-05 1.117079121565e-03 0.0 
0.0 0.0 -1.664840065771e-04 
-8.012874751740e-05 2.708679385402e-05 0.0 
2.708679385402e-05 5.044541792441e-04 0.0 
0.0 0.0 -8.027607217676e-05 
-6.457567760665e-05 2.897485867730e-05 0.0 
2.897485867730e-05 3.931630492274e-04 0.0 
0.0 0.0 -6.500901228657e-05 
-1.319964825975e-04 2.994843719676e-05 0.0 
2.994843719676e-05 8.668112520758e-04 0.0 
0.0 0.0 -1.317940137408e-04 
-1.379973298544e-04 -3.231272729127e-05 0.0 
-3.231272729127e-05 9.176099760799e-04 0.0 
0.0 0.0 -1.391846276019e-04 
-2.511391392826e-05 -2.252014201736e-06 0.0 
-2.252014201736e-06 1.091572524748e-04 0.0 
0.0 0.0 -2.644390370036e-05 
-1.911173997413e-04 2.513512913461e-07 0.0 
2.513512913461e-07 1.307038771946e-03 0.0 
0.0 0.0 -1.903768894597e-04 
-1.947762233824e-04 2.804254327122e-06 0.0 
2.804254327122e-06 1.266513292292e-03 0.0 
0.0 0.0 -1.921796786394e-04 
-1.243941132727e-04 -2.875762744524e-05 0.0 
-2.875762744524e-05 8.122420463557e-04 0.0 
0.0 0.0 -1.258162180156e-04 
-1.867429468804e-04 -3.423015533406e-05 0.0 
-3.423015533406e-05 1.277419804644e-03 0.0 
0.0 0.0 -1.882556412575e-04 
-1.928393192665e-04 1.313739391776e-05 0.0 
1.313739391776e-05 1.270533835261e-03 0.0 
0.0 0.0 -1.928249870753e-04 
-9.825942552837e-05 2.769137061349e-05 0.0 
2.769137061349e-05 6.308847079493e-04 0.0 
0.0 0.0 -9.814123251156e-05 
-9.240950567659e-05 -2.688842748606e-05 0.0 
-2.688842748606e-05 6.034653479681e-04 0.0 
0.0 0.0 -9.230175702903e-05 
-1.924550016248e-04 -5.517505549700e-06 0.0 
-5.517505549700e-06 1.309202189480e-03 0.0 
0.0 0.0 -1.898303498781e-04 
0.0 0.0 0.0 
0.0 0.0 0.0 
0.0 0.0 0.0 
-5.986600181462e-05 3.134474346182e-05 0.0 
3.134474346182e-05 3.637594613067e-04 0.0 
0.0 0.0 -5.912561730725e-05 
-1.277191406744e-04 3.185114804781e-05 0.0 
3.185114804781e-05 8.113680378929e-04 0.0 
0.0 0.0 -1.249421346972e-04 
-7.954199844612e-05 -2.599168722282e-05 0.0 
-2.599168722282e-05 5.172406604270e-04 0.0 
0.0 0.0 -7.970319495692e-05 
-8.344577563047e-05 2.767374510833e-05 0.0 
2.767374510833e-05 5.269368746357e-04 0.0 
0.0 0.0 -8.320397106721e-05 
-5.123352415357e-05 -1.962082412885e-05 0.0 
-1.962082412885e-05 2.833973025222e-04 0.0 
0.0 0.0 -4.794777681703e-05 
-5.363517740645e-05 -2.722736862369e-05 0.0 
-2.722736862369e-05 3.397176592673e-04 0.0 
0.0 0.0 -5.292094912726e-05 
-1.229699465830e-04 -2.474218581881e-05 0.0 
-2.474218581881e-05 8.338820409090e-04 0.0 
0.0 0.0 -1.243503989146e-04 
-8.954054874187e-05 -2.810899154469e-05 0.0 
-2.810899154469e-05 5.833404363378e-04 0.0 
0.0 0.0 -8.944382273678e-05 
-6.985122537492e-05 2.547846832151e-05 0.0 
2.547846832151e-05 4.232868362094e-04 0.0 
0.0 0.0 -6.875210277632e-05 
-1.622986423916e-04 3.030474729067e-05 0.0 
3.030474729067e-05 1.075790270672e-03 0.0 
0.0 0.0 -1.616748170441e-04 
-1.970457297167e-04 -4.615350947609e-07 0.0 
-4.615350947609e-07 1.365353191212e-03 0.0 
0.0 0.0 -1.987468137814e-04 
-2.011643228250e-04 -1.059779547839e-05 0.0 
-1.059779547839e-05 1.364052595584e-03 0.0 
0.0 0.0 -1.980937377599e-04 
-9.693254618166e-05 2.783443467965e-05 0.0 
2.783443467965e-05 6.218009159431e-04 0.0 
0.0 0.0 -9.686140561256e-05 
-1.156312054849e-04 1.562675777246e-05 0.0 
1.562675777246e-05 7.473137010807e-04 0.0 
0.0 0.0 -1.181631233816e-04 
-1.315446083417e-05 9.267234980748e-06 0.0 
9.267234980748e-06 7.174483292748e-05 0.0 
0.0 0.0 -1.382283957119e-05 
-3.950432290439e-05 -3.304652588177e-05 0.0 
-3.304652588177e-05 2.232498512061e-04 0.0 
0.0 0.0 -3.848526569788e-05 
-4.026754611448e-05 -1.523950676683e-05 0.0 
-1.523950676683e-05 2.585395099571e-04 0.0 
0.0 0.0 -4.089435477168e-05 
-4.405717477573e-05 -2.840252196370e-05 0.0 
-2.840252196370e-05 2.593828358352e-04 0.0 
0.0 0.0 -4.353896887732e-05 
-1.369891124347e-04 -2.938640967182e-05 0.0 
-2.938640967182e-05 9.110848461242e-04 0.0 
0.0 0.0 -1.367406709454e-04 
-8.197230901988e-05 2.741985235272e-05 0.0 
2.741985235272e-05 5.176025942286e-04 0.0 
0.0 0.0 -8.189493801327e-05 
-8.833783776842e-05 -2.742859021068e-05 0.0 
-2.742859021068e-05 5.752104247670e-04 0.0 
0.0 0.0 -8.819787836180e-05 
-2.759805077317e-05 -2.177954618106e-05 0.0 
-2.177954618106e-05 1.516326812049e-04 0.0 
0.0 0.0 -2.410601229523e-05 
-1.783949706295e-04 4.652042299768e-06 0.0 
4.652042299768e-06 1.155328432911e-03 0.0 
0.0 0.0 -1.764490618968e-04 
-8.697929300319e-05 -2.712992243026e-05 0.0 
-2.712992243026e-05 5.660070619168e-04 0.0 
0.0 0.0 -8.689161518363e-05 
-1.811862770176e-04 2.958422209347e-05 0.0 
2.958422209347e-05 1.212546250600e-03 0.0 
0.0 0.0 -1.819436774484e-04 
-1.654326848783e-04 -2.150075195991e-05 0.0 
-2.150075195991e-05 1.111682717818e-03 0.0 
0.0 0.0 -1.676190675002e-04 
-1.990579489887e-04 7.558524711792e-06 0.0 
7.558524711792e-06 1.367618541641e-03 0.0 
0.0 0.0 -1.979127976728e-04 
-1.984740657803e-04 6.169813976071e-06 0.0 
6.169813976071e-06 1.366684838106e-03 0.0 
0.0 0.0 -1.987274449783e-04 
-1.264382104229e-04 2.327908082404e-05 0.0 
2.327908082404e-05 8.335131054815e-04 0.0 
0.0 0.0 -1.247270797671e-04 
-9.081273998971e-05 -2.642393334738e-05 0.0 
-2.642393334738e-05 5.943836386239e-04 0.0 
0.0 0.0 -9.095240399918e-05 
-5.659837629473e-05 2.310276724227e-05 0.0 
2.310276724227e-05 3.554825826269e-04 0.0 
0.0 0.0 -5.827376162698e-05 
-9.543789626242e-05 2.821234483008e-05 0.0 
2.821234483008e-05 6.121934733358e-04 0.0 
0.0 0.0 -9.551854370315e-05 
-2.014992525441e-04 -3.363348043908e-06 0.0 
-3.363348043908e-06 1.330768717372e-03 0.0 
0.0 0.0 -2.014992525440e-04 
-2.911856940717e-05 -3.120254985375e-05 0.0 
-3.120254985375e-05 1.523266154115e-04 0.0 
0.0 0.0 -2.840051313461e-05 
-3.367815072839e-05 -2.539476975202e-05 0.0 
-2.539476975202e-05 1.888854888445e-04 0.0 
0.0 0.0 -3.342821812567e-05 
-1.750673059660e-04 -2.242675268741e-05 0.0 
-2.242675268741e-05 1.168754862597e-03 0.0 
0.0 0.0 -1.734041932760e-04 
-1.140629508000e-04 1.641024004697e-06 0.0 
1.641024004697e-06 7.886218254393e-04 0.0 
0.0 0.0 -1.157284414847e-04 
-1.828276393895e-04 3.087967014604e-05 0.0 
3.087967014604e-05 1.221678860241e-03 0.0 
0.0 0.0 -1.828919613360e-04 
-1.607219730026e-04 -3.054484747269e-05 0.0 
-3.054484747269e-05 1.076626864861e-03 0.0 
0.0 0.0 -1.604417944905e-04 
-1.759974315114e-04 2.950983775753e-05 0.0 
2.950983775753e-05 1.175337678647e-03 0.0 
0.0 0.0 -1.762554578086e-04 
-1.677687622884e-04 -3.310916950601e-05 0.0 
-3.310916950601e-05 1.126220187005e-03 0.0 
0.0 0.0 -1.670365378361e-04 
-1.261810872000e-04 2.733892666963e-05 0.0 
2.733892666963e-05 8.227216474371e-04 0.0 
0.0 0.0 -1.281412631256e-04 
-6.984160407426e-05 -2.569852845702e-05 0.0 
-2.569852845702e-05 4.502664572317e-04 0.0 
0.0 0.0 -7.011576570921e-05 
-7.045526019658e-05 2.772076042237e-05 0.0 
2.772076042237e-05 4.380896674180e-04 0.0 
0.0 0.0 -7.073545507566e-05 
-1.466548664850e-04 2.792940741624e-05 0.0 
2.792940741624e-05 9.823660011168e-04 0.0 
0.0 0.0 -1.494458990106e-04 
-1.706023771645e-04 -3.477697252798e-05 0.0 
-3.477697252798e-05 1.150206027511e-03 0.0 
0.0 0.0 -1.713759566437e-04 
-1.085001106667e-04 5.928666841059e-06 0.0 
5.928666841059e-06 6.853690661460e-04 0.0 
0.0 0.0 -1.101783339608e-04 
-1.150649004483e-04 1.412858253897e-06 0.0 
1.412858253897e-06 7.864362268725e-04 0.0 
0.0 0.0 -1.151410349708e-04 
-1.223216217609e-04 -9.643435354381e-06 0.0 
-9.643435354381e-06 8.365929199838e-04 0.0 
0.0 0.0 -1.236345454382e-04 
-1.294729616351e-04 -3.600365409418e-05 0.0 
-3.600365409418e-05 8.499666954327e-04 0.0 
0.0 0.0 -1.270110218628e-04 
-3.781341392471e-05 2.507622857635e-05 0.0 
2.507622857635e-05 2.052845259731e-04 0.0 
0.0 0.0 -3.595854163006e-05 
-6.458682171984e-05 2.659164458955e-05 0.0 
2.659164458955e-05 3.972184272214e-04 0.0 
0.0 0.0 -6.502768632134e-05 
-1.923886982600e-04 1.320998767323e-05 0.0 
1.320998767323e-05 1.306937799646e-03 0.0 
0.0 0.0 -1.903965550180e-04 
-1.361980047059e-04 -3.247265742576e-05 0.0 
-3.247265742576e-05 9.100748945017e-04 0.0 
0.0 0.0 -1.372586556570e-04 
-1.944603101426e-04 2.205610195430e-05 0.0 
2.205610195430e-05 1.300606094326e-03 0.0 
0.0 0.0 -1.942983085767e-04 
-1.827075834453e-04 -2.487186144062e-05 0.0 
-2.487186144062e-05 1.245028194062e-03 0.0 
0.0 0.0 -1.823366321910e-04 
-1.526241956249e-04 -2.882515710348e-05 0.0 
-2.882515710348e-05 1.018355065020e-03 0.0 
0.0 0.0 -1.518848343264e-04 
-1.838055376607e-04 -2.220867482896e-05 0.0 
-2.220867482896e-05 1.227930453973e-03 0.0 
0.0 0.0 -1.822360600334e-04 
-9.189141723329e-05 2.249896247985e-05 0.0 
2.249896247985e-05 5.929179490977e-04 0.0 
0.0 0.0 -9.456744988920e-05 
-8.923687427635e-05 2.330452976089e-05 0.0 
2.330452976089e-05 5.640846174988e-04 0.0 
0.0 0.0 -8.500284120953e-05 
-1.860377161479e-04 2.101899850403e-05 0.0 
2.101899850403e-05 1.219211786622e-03 0.0 
0.0 0.0 -1.840276857211e-04 
-1.302266885565e-05 9.542950408396e-06 0.0 
9.542950408396e-06 4.432884133333e-05 0.0 
0.0 0.0 -1.341693106186e-05 
-5.991703112053e-05 -9.650650547908e-06 0.0 
-9.650650547908e-06 3.995700475142e-04 0.0 
0.0 0.0 -6.107461134110e-05 
-2.013608632250e-04 -1.747935064146e-06 0.0 
-1.747935064146e-06 1.327091793787e-03 0.0 
0.0 0.0 -2.013608632250e-04 
-3.423275746667e-05 -2.897869870394e-05 0.0 
-2.897869870394e-05 1.741934079208e-04 0.0 
0.0 0.0 -3.398704224317e-05 
-1.166987184465e-04 3.376260708005e-06 0.0 
3.376260708005e-06 7.464150060637e-04 0.0 
0.0 0.0 -1.180517715949e-04 
-1.852951862543e-04 -6.895901531864e-06 0.0 
-6.895901531864e-06 1.252882415007e-03 0.0 
0.0 0.0 -1.820192905179e-04 
-2.189567273794e-05 2.107266617838e-05 0.0 
2.107266617838e-05 1.234442803628e-04 0.0 
0.0 0.0 -2.343543478003e-05 
-1.465373239062e-05 -6.700273643796e-06 0.0 
-6.700273643796e-06 8.151640789741e-05 0.0 
0.0 0.0 -1.499806864391e-05 
-1.979646109231e-04 -1.647947049056e-05 0.0 
-1.647947049056e-05 1.362929175419e-03 0.0 
0.0 0.0 -1.986584787576e-04 
-1.077110760694e-04 1.347870292468e-05 0.0 
1.347870292468e-05 6.884288505410e-04 0.0 
0.0 0.0 -1.094181415373e-04 
-1.878064882795e-04 3.303246132633e-05 0.0 
3.303246132633e-05 1.280874072015e-03 0.0 
0.0 0.0 -1.892127523904e-04 
-1.872574646803e-04 1.669387870556e-06 0.0 
1.669387870556e-06 1.214710811889e-03 0.0 
0.0 0.0 -1.847787516803e-04 
-1.081384153803e-04 -8.265982315710e-06 0.0 
-8.265982315710e-06 6.863175329085e-04 0.0 
0.0 0.0 -1.093391956339e-04 
-1.183108474329e-05 -1.526745450730e-06 0.0 
-1.526745450730e-06 8.288041116295e-05 0.0 
0.0 0.0 -1.461037633882e-05 
-1.928461778371e-04 -1.450363078147e-05 0.0 
-1.450363078147e-05 1.269631515360e-03 0.0 
0.0 0.0 -1.926211076318e-04 
-3.664328028393e-05 -3.474192895717e-05 0.0 
-3.474192895717e-05 2.008554549357e-04 0.0 
0.0 0.0 -3.650318340572e-05 
-1.865092181227e-04 1.872239000524e-05 0.0 
1.872239000524e-05 1.228864859043e-03 0.0 
0.0 0.0 -1.848276476440e-04 
-2.014642658289e-04 -8.318866801387e-08 0.0 
-8.318866801387e-08 1.329164711416e-03 0.0 
0.0 0.0 -2.014642658289e-04 
-1.863725232052e-04 -2.215017484820e-05 0.0 
-2.215017484820e-05 1.224672282405e-03 0.0 
0.0 0.0 -1.838550531888e-04 
-4.579760219593e-05 2.993393437161e-05 0.0 
2.993393437161e-05 2.630911927245e-04 0.0 
0.0 0.0 -4.567146191493e-05 
-1.231376912533e-04 3.302421736628e-06 0.0 
3.302421736628e-06 8.455036824614e-04 0.0 
0.0 0.0 -1.241871602230e-04 
-9.897320674459e-05 -1.982042870943e-05 0.0 
-1.982042870943e-05 6.300759750379e-04 0.0 
0.0 0.0 -9.407984802336e-05 
-1.609514246157e-04 -3.024200816091e-05 0.0 
-3.024200816091e-05 1.078541844928e-03 0.0 
0.0 0.0 -1.616399041023e-04 
-1.984206323310e-04 -1.383870975889e-05 0.0 
-1.383870975889e-05 1.364918109129e-03 0.0 
0.0 0.0 -1.990496603105e-04 
-1.603101285724e-04 1.893623053607e-05 0.0 
1.893623053607e-05 1.069942872822e-03 0.0 
0.0 0.0 -1.592422372747e-04 
-2.006038303863e-04 1.656223959945e-05 0.0 
1.656223959945e-05 1.363483438763e-03 0.0 
0.0 0.0 -1.988805961512e-04 
-2.157799468526e-05 2.675018284335e-05 0.0 
2.675018284335e-05 1.121671203490e-04 0.0 
0.0 0.0 -2.573693149021e-05 
-1.906849838871e-04 -1.873571465641e-05 0.0 
-1.873571465641e-05 1.306053010621e-03 0.0 
0.0 0.0 -1.916484765783e-04 
-5.146266627946e-05 1.897216913104e-05 0.0 
1.897216913104e-05 3.060778228498e-04 0.0 
0.0 0.0 -5.033941334868e-05 
-3.400990015803e-05 1.312678026193e-05 0.0 
1.312678026193e-05 1.676110055634e-04 0.0 
0.0 0.0 -3.447177322316e-05 
-1.921352674404e-04 -1.514543928923e-05 0.0 
-1.514543928923e-05 1.307880338866e-03 0.0 
0.0 0.0 -1.905503066306e-04 
-1.903818942750e-04 -8.555148187785e-06 0.0 
-8.555148187785e-06 1.309224873111e-03 0.0 
0.0 0.0 -1.905905039252e-04 
-1.935313273260e-04 -2.488564283104e-05 0.0 
-2.488564283104e-05 1.299799287321e-03 0.0 
0.0 0.0 -1.934776258129e-04 
-1.157635836836e-04 3.075917002700e-05 0.0 
3.075917002700e-05 7.564878727472e-04 0.0 
0.0 0.0 -1.164394980702e-04 
-1.278320406392e-04 3.003959765809e-05 0.0 
3.003959765809e-05 8.242995150328e-04 0.0 
0.0 0.0 -1.273429404365e-04 
-4.747607610046e-05 -3.167630139555e-05 0.0 
-3.167630139555e-05 2.832612339686e-04 0.0 
0.0 0.0 -4.701750159920e-05 
-1.893682873149e-04 -1.213845527048e-05 0.0 
-1.213845527048e-05 1.308095530746e-03 0.0 
0.0 0.0 -1.909562210215e-04 
-7.758444785249e-05 2.579970670889e-05 0.0 
2.579970670889e-05 5.061981746731e-04 0.0 
0.0 0.0 -8.036225567980e-05 
-2.672886924063e-05 -2.537961056617e-05 0.0 
-2.537961056617e-05 1.614624818245e-04 0.0 
0.0 0.0 -3.171414542872e-05 
-1.655918154031e-04 2.787053237580e-05 0.0 
2.787053237580e-05 1.112934476303e-03 0.0 
0.0 0.0 -1.665212293607e-04 
-1.050972551552e-04 -3.025884205917e-06 0.0 
-3.025884205917e-06 7.225874036591e-04 0.0 
0.0 0.0 -1.064449299410e-04 
-1.855125743211e-04 2.284061724598e-05 0.0 
2.284061724598e-05 1.238197266214e-03 0.0 
0.0 0.0 -1.856594579394e-04 
-1.969980593816e-04 -2.792765841710e-05 0.0 
-2.792765841710e-05 1.348466243731e-03 0.0 
0.0 0.0 -1.982264973081e-04 
-2.015598306414e-04 -1.228437926459e-06 0.0 
-1.228437926459e-06 1.329727235481e-03 0.0 
0.0 0.0 -2.015598306414e-04 
-3.170965654814e-06 -9.174846607934e-06 0.0 
-9.174846607934e-06 3.186703010945e-05 0.0 
0.0 0.0 -6.440169358563e-06 
-2.054361880700e-06 8.524325078712e-06 0.0 
8.524325078712e-06 1.000738199139e-05 0.0 
0.0 0.0 -3.408437190294e-06 
-1.090415563488e-04 -2.544674541070e-05 0.0 
-2.544674541070e-05 7.025551525996e-04 0.0 
0.0 0.0 -1.097735026919e-04 
-1.102790978540e-04 4.096896239264e-06 0.0 
4.096896239264e-06 7.242490524547e-04 0.0 
0.0 0.0 -1.064401693586e-04 
-2.015598306414e-04 1.769844580753e-06 0.0 
1.769844580753e-06 1.328559462674e-03 0.0 
0.0 0.0 -2.015598306414e-04 
-1.964566527274e-04 2.745948387429e-05 0.0 
2.745948387429e-05 1.347766645467e-03 0.0 
0.0 0.0 -1.982264973081e-04 
-1.175853557175e-05 2.296138750723e-05 0.0 
2.296138750723e-05 7.476526502358e-05 0.0 
0.0 0.0 -1.468179278604e-05 
0.0 0.0 0.0 
0.0 0.0 0.0 
0.0 0.0 0.0 
-1.860643112087e-04 1.892522092608e-05 0.0 
1.892522092608e-05 1.220604956089e-03 0.0 
0.0 0.0 -1.845272605536e-04 
-1.810613338557e-04 3.690531828789e-05 0.0 
3.690531828789e-05 1.227609320804e-03 0.0 
0.0 0.0 -1.814046177210e-04 
-3.775454928550e-05 -2.192142162525e-05 0.0 
-2.192142162525e-05 2.530653962175e-04 0.0 
0.0 0.0 -4.069012186385e-05 
-1.867893258397e-04 -1.967907292950e-05 0.0 
-1.967907292950e-05 1.242445273872e-03 0.0 
0.0 0.0 -1.860287822001e-04 
-1.322273957044e-04 -7.821980177849e-06 0.0 
-7.821980177849e-06 8.613081851453e-04 0.0 
0.0 0.0 -1.333256398531e-04 
-1.174513720599e-04 -2.922099993004e-05 0.0 
-2.922099993004e-05 7.623791286875e-04 0.0 
0.0 0.0 -1.141619444601e-04 
-1.434157263431e-04 1.469820453960e-05 0.0 
1.469820453960e-05 9.640681819544e-04 0.0 
0.0 0.0 -1.410117391569e-04 
-3.721642999109e-05 2.244542666226e-05 0.0 
2.244542666226e-05 2.273693429633e-04 0.0 
0.0 0.0 -3.939304728150e-05 
-1.516361842959e-04 -3.045658684071e-05 0.0 
-3.045658684071e-05 1.014390478774e-03 0.0 
0.0 0.0 -1.517486197524e-04 
-3.145165589743e-05 4.872235620209e-06 0.0 
4.872235620209e-06 2.090450929269e-04 0.0 
0.0 0.0 -3.272226055558e-05 
-1.018895751593e-04 -2.838951770175e-05 0.0 
-2.838951770175e-05 6.787429923759e-04 0.0 
0.0 0.0 -1.049612269729e-04 
-1.842198203986e-04 1.688848171670e-05 0.0 
1.688848171670e-05 1.232258602772e-03 0.0 
0.0 0.0 -1.860778644041e-04 
-1.784559347742e-04 -3.196727202869e-05 0.0 
-3.196727202869e-05 1.203750059331e-03 0.0 
0.0 0.0 -1.787589168632e-04 
-1.106507503052e-04 1.655731803460e-05 0.0 
1.655731803460e-05 7.326885674445e-04 0.0 
0.0 0.0 -1.153641303439e-04 
-1.319245288081e-04 -2.759428203750e-05 0.0 
-2.759428203750e-05 8.842042796758e-04 0.0 
0.0 0.0 -1.311848925397e-04 
-1.849952147230e-04 1.224005731978e-05 0.0 
1.224005731978e-05 1.253709795229e-03 0.0 
0.0 0.0 -1.825679017964e-04 
-1.712361580956e-04 -3.249029055204e-05 0.0 
-3.249029055204e-05 1.152848638026e-03 0.0 
0.0 0.0 -1.711417214974e-04 
-1.621790656513e-04 -3.130066982025e-05 0.0 
-3.130066982025e-05 1.085309995837e-03 0.0 
0.0 0.0 -1.614640498619e-04 
-1.095991344629e-04 1.548110486480e-06 0.0 
1.548110486480e-06 6.849847840864e-04 0.0 
0.0 0.0 -1.096818516252e-04 
-1.466797614329e-04 -3.177988380746e-05 0.0 
-3.177988380746e-05 9.793946946612e-04 0.0 
0.0 0.0 -1.464567251102e-04 
-1.856217654582e-04 1.836261976242e-05 0.0 
1.836261976242e-05 1.223913084915e-03 0.0 
0.0 0.0 -1.847107394661e-04 
-6.401317792094e-05 1.777757210555e-05 0.0 
1.777757210555e-05 3.770292953028e-04 0.0 
0.0 0.0 -6.251951766002e-05 
-1.488249501970e-05 -6.661613433420e-06 0.0 
-6.661613433420e-06 9.049355169821e-05 0.0 
0.0 0.0 -1.522736731176e-05 
-1.794781203063e-04 -2.177148621612e-05 0.0 
-2.177148621612e-05 1.190948333360e-03 0.0 
0.0 0.0 -1.778962838413e-04 
-1.689754393540e-04 2.666341982877e-05 0.0 
2.666341982877e-05 1.121590302909e-03 0.0 
0.0 0.0 -1.685307334786e-04 
-3.117516894872e-05 -1.620379493923e-05 0.0 
-1.620379493923e-05 1.675088401558e-04 0.0 
0.0 0.0 -3.460570515138e-05 
-1.490209525484e-04 -2.398959439852e-05 0.0 
-2.398959439852e-05 1.009624786866e-03 0.0 
0.0 0.0 -1.484000725648e-04 
-1.941728230886e-04 -6.317229650202e-06 0.0 
-6.317229650202e-06 1.268109449836e-03 0.0 
0.0 0.0 -1.924109378829e-04 
-1.782640686020e-04 1.811418483105e-05 0.0 
1.811418483105e-05 1.176788769021e-03 0.0 
0.0 0.0 -1.773110165667e-04 
-1.844275111855e-04 -4.383617168843e-06 0.0 
-4.383617168843e-06 1.252791151838e-03 0.0 
0.0 0.0 -1.822694409164e-04 
-1.426350801095e-04 -3.166405234979e-05 0.0 
-3.166405234979e-05 9.429700556337e-04 0.0 
0.0 0.0 -1.430568974379e-04 
-1.367048638434e-05 7.547793984128e-06 0.0 
7.547793984128e-06 4.809613176051e-05 0.0 
0.0 0.0 -1.475384801836e-05 
-4.817205637438e-05 1.518979907033e-05 0.0 
1.518979907033e-05 2.815959802160e-04 0.0 
0.0 0.0 -4.818665537949e-05 
-5.802518359896e-05 -3.237118775929e-05 0.0 
-3.237118775929e-05 3.560287674836e-04 0.0 
0.0 0.0 -5.751524148975e-05 
-1.222811217371e-04 4.923148903369e-06 0.0 
4.923148903369e-06 8.049151145100e-04 0.0 
0.0 0.0 -1.270714490912e-04 
-1.466466955193e-04 3.242901086422e-05 0.0 
3.242901086422e-05 9.717833108994e-04 0.0 
0.0 0.0 -1.467240436239e-04 
-1.865030099579e-04 -2.458316919408e-05 0.0 
-2.458316919408e-05 1.244081238438e-03 0.0 
0.0 0.0 -1.854811886535e-04 
-1.924470582108e-04 1.025180310993e-05 0.0 
1.025180310993e-05 1.267008412016e-03 0.0 
0.0 0.0 -1.923487814140e-04 
-2.301609062590e-05 -4.635179033559e-06 0.0 
-4.635179033559e-06 1.491120452597e-04 0.0 
0.0 0.0 -2.371590567936e-05 
-2.273962015617e-05 8.021387614827e-06 0.0 
8.021387614827e-06 1.424948937247e-04 0.0 
0.0 0.0 -2.307420961409e-05 
-3.644996023323e-05 3.054667220110e-05 0.0 
3.054667220110e-05 2.219148594571e-04 0.0 
0.0 0.0 -3.877784743978e-05 
-1.505507532998e-04 4.198429125548e-05 0.0 
4.198429125548e-05 1.006744199268e-03 0.0 
0.0 0.0 -1.528863196834e-04 
-7.623962459717e-05 -2.731195048099e-05 0.0 
-2.731195048099e-05 4.837899918121e-04 0.0 
0.0 0.0 -7.429924588525e-05 
-1.863524508622e-04 -2.262089027383e-05 0.0 
-2.262089027383e-05 1.249803366509e-03 0.0 
0.0 0.0 -1.861947641336e-04 
-3.704741075814e-05 -2.601020683146e-05 0.0 
-2.601020683146e-05 2.394628484622e-04 0.0 
0.0 0.0 -3.935861431135e-05 
-1.838103394031e-04 1.452656825211e-05 0.0 
1.452656825211e-05 1.213648829434e-03 0.0 
0.0 0.0 -1.831728902790e-04 
-1.220456595190e-04 2.683931147050e-05 0.0 
2.683931147050e-05 8.169008266022e-04 0.0 
0.0 0.0 -1.251559851210e-04 
-1.901741937142e-04 2.069168076262e-07 0.0 
2.069168076262e-07 1.274360012601e-03 0.0 
0.0 0.0 -1.930223408588e-04 
-1.664726505804e-04 -3.515055495158e-05 0.0 
-3.515055495158e-05 1.122391429995e-03 0.0 
0.0 0.0 -1.666682952710e-04 
-1.230362842828e-04 -1.324599728564e-05 0.0 
-1.324599728564e-05 8.068584181325e-04 0.0 
0.0 0.0 -1.269771275557e-04 
-1.906319308292e-04 -7.278184392238e-06 0.0 
-7.278184392238e-06 1.308928167031e-03 0.0 
0.0 0.0 -1.903713883127e-04 
-1.924018578301e-04 1.168444968946e-05 0.0 
1.168444968946e-05 1.309753043894e-03 0.0 
0.0 0.0 -1.909090898364e-04 
-1.885954729481e-04 9.336154218136e-06 0.0 
9.336154218136e-06 1.306961112302e-03 0.0 
0.0 0.0 -1.907009018511e-04 
-2.601124528020e-05 2.982465109596e-05 0.0 
2.982465109596e-05 1.494137909599e-04 0.0 
0.0 0.0 -2.872079986757e-05 
-1.827342744304e-04 2.617845691474e-05 0.0 
2.617845691474e-05 1.218950538624e-03 0.0 
0.0 0.0 -1.827464329712e-04 
-1.931535913243e-04 4.402691257462e-06 0.0 
4.402691257462e-06 1.267632643707e-03 0.0 
0.0 0.0 -1.929967939697e-04 
-1.822938180470e-04 -1.572479834584e-05 0.0 
-1.572479834584e-05 1.239626265032e-03 0.0 
0.0 0.0 -1.817603729293e-04 
-1.697190279031e-04 3.374893720717e-05 0.0 
3.374893720717e-05 1.140711286613e-03 0.0 
0.0 0.0 -1.714881096122e-04 
-2.013997750954e-04 3.693939357452e-06 0.0 
3.693939357452e-06 1.326398449399e-03 0.0 
0.0 0.0 -2.013997750954e-04 
-1.623768653750e-04 3.145458215279e-05 0.0 
3.145458215279e-05 1.075477552169e-03 0.0 
0.0 0.0 -1.618597882954e-04 
0.0 0.0 0.0 
0.0 0.0 0.0 
0.0 0.0 0.0 
-3.901664739789e-05 -3.107536671977e-05 0.0 
-3.107536671977e-05 2.123759730741e-04 0.0 
0.0 0.0 -3.635714225545e-05 
-1.788762468223e-04 -2.668815126998e-05 0.0 
-2.668815126998e-05 1.194169313249e-03 0.0 
0.0 0.0 -1.765404546707e-04 
-1.302843948315e-04 2.373413498694e-05 0.0 
2.373413498694e-05 8.753673031711e-04 0.0 
0.0 0.0 -1.332692038199e-04 
-1.814833852286e-04 -2.932987962222e-05 0.0 
-2.932987962222e-05 1.228315456518e-03 0.0 
0.0 0.0 -1.832991189648e-04 
-1.755755594055e-04 -3.314975176265e-05 0.0 
-3.314975176265e-05 1.186338389567e-03 0.0 
0.0 0.0 -1.765514316642e-04 
-1.922058959132e-04 -7.323986232709e-06 0.0 
-7.323986232709e-06 1.275540875639e-03 0.0 
0.0 0.0 -1.938374750990e-04 
-1.590886801341e-04 3.535348640505e-05 0.0 
3.535348640505e-05 1.086454937064e-03 0.0 
0.0 0.0 -1.628282188246e-04 
-1.943136192193e-04 -2.017280466188e-06 0.0 
-2.017280466188e-06 1.274660348820e-03 0.0 
0.0 0.0 -1.933460184500e-04 
-1.860409899402e-04 -2.465939863213e-05 0.0 
-2.465939863213e-05 1.243243537266e-03 0.0 
0.0 0.0 -1.849983659001e-04 
-1.854493454621e-04 2.521523578023e-05 0.0 
2.521523578023e-05 1.237363143253e-03 0.0 
0.0 0.0 -1.852565349593e-04 
-7.800610219477e-05 -1.750136496523e-05 0.0 
-1.750136496523e-05 5.077823231346e-04 0.0 
0.0 0.0 -7.657446018549e-05 
-1.940082963474e-04 -3.011324743449e-06 0.0 
-3.011324743449e-06 1.367135927910e-03 0.0 
0.0 0.0 -1.988462912301e-04 
-1.122847898646e-04 2.150658952302e-06 0.0 
2.150658952302e-06 7.831127334676e-04 0.0 
0.0 0.0 -1.149322996356e-04 
-1.805030425337e-04 -2.769681372488e-05 0.0 
-2.769681372488e-05 1.229209747324e-03 0.0 
0.0 0.0 -1.826109592864e-04 
-2.210772205688e-05 -1.141237861015e-05 0.0 
-1.141237861015e-05 1.058730840806e-04 0.0 
0.0 0.0 -2.642964691976e-05 
-1.709643782764e-04 -1.864471641412e-05 0.0 
-1.864471641412e-05 1.187155150464e-03 0.0 
0.0 0.0 -1.744803730939e-04 
-1.477070854664e-04 -4.391729024467e-06 0.0 
-4.391729024467e-06 1.020449993757e-03 0.0 
0.0 0.0 -1.488920056885e-04 
-2.536340853786e-05 -1.617904342885e-05 0.0 
-1.617904342885e-05 1.410312003150e-04 0.0 
0.0 0.0 -2.442930455436e-05 
-4.478297823031e-05 -3.360325145203e-05 0.0 
-3.360325145203e-05 2.463363294936e-04 0.0 
0.0 0.0 -4.105386472454e-05 
-1.667572652522e-04 3.269260421942e-05 0.0 
3.269260421942e-05 1.106671823298e-03 0.0 
0.0 0.0 -1.661371793467e-04 
-1.939345119211e-04 -2.917973958076e-06 0.0 
-2.917973958076e-06 1.271284650607e-03 0.0 
0.0 0.0 -1.928053293992e-04 
-1.848839491830e-04 -2.511864242369e-05 0.0 
-2.511864242369e-05 1.245193806993e-03 0.0 
0.0 0.0 -1.835875952628e-04 
-1.881692614413e-04 3.512850772842e-05 0.0 
3.512850772842e-05 1.283926120996e-03 0.0 
0.0 0.0 -1.897169183402e-04 
-1.319951739136e-04 3.692265338647e-05 0.0 
3.692265338647e-05 8.669086104393e-04 0.0 
0.0 0.0 -1.321134885410e-04 
-1.418897775030e-05 -1.383603751222e-06 0.0 
-1.383603751222e-06 8.390464903167e-05 0.0 
0.0 0.0 -1.533750852324e-05 
-1.776342507387e-05 2.898590661281e-05 0.0 
2.898590661281e-05 1.254111435077e-04 0.0 
0.0 0.0 -2.291448659297e-05 
-2.228661035164e-05 3.086208171882e-05 0.0 
3.086208171882e-05 7.414588274207e-05 0.0 
0.0 0.0 -1.893168834827e-05 
-2.834935998913e-05 -2.581094466031e-05 0.0 
-2.581094466031e-05 1.798484559935e-04 0.0 
0.0 0.0 -3.120083896163e-05 
-3.619195444299e-06 1.726688320319e-05 0.0 
1.726688320319e-05 1.889854846973e-05 0.0 
0.0 0.0 -6.548294153755e-06 
-9.846508312271e-05 1.947611327116e-05 0.0 
1.947611327116e-05 6.774458586389e-04 0.0 
0.0 0.0 -1.012995679080e-04 
-1.809123785598e-04 2.900682068589e-05 0.0 
2.900682068589e-05 1.227040363573e-03 0.0 
0.0 0.0 -1.833458990909e-04 
-1.833994977543e-04 2.630052083884e-05 0.0 
2.630052083884e-05 1.234115337032e-03 0.0 
0.0 0.0 -1.834249670905e-04 
-1.300388728735e-04 -2.726917383980e-05 0.0 
-2.726917383980e-05 8.766264197221e-04 0.0 
0.0 0.0 -1.323946974752e-04 
-9.060072859628e-05 -4.107401100024e-05 0.0 
-4.107401100024e-05 5.837911416729e-04 0.0 
0.0 0.0 -8.982794765771e-05 
-1.833530943830e-04 -2.415896483629e-05 0.0 
-2.415896483629e-05 1.239029730488e-03 0.0 
0.0 0.0 -1.831601862249e-04 
-1.805620370494e-04 3.417310065365e-05 0.0 
3.417310065365e-05 1.228469068547e-03 0.0 
0.0 0.0 -1.813053981465e-04 
-1.918538788466e-04 1.314902849118e-05 0.0 
1.314902849118e-05 1.311238991232e-03 0.0 
0.0 0.0 -1.908378613718e-04 
-1.864057830892e-04 -5.544571809971e-06 0.0 
-5.544571809971e-06 1.222330684115e-03 0.0 
0.0 0.0 -1.856133406407e-04 
-1.761014518088e-04 2.982850443616e-05 0.0 
2.982850443616e-05 1.172453916966e-03 0.0 
0.0 0.0 -1.756848094018e-04 
-2.508081297429e-05 1.384675978348e-05 0.0 
1.384675978348e-05 1.057075733602e-04 0.0 
0.0 0.0 -2.599564028619e-05 
-1.693383348172e-05 -2.312304690448e-05 0.0 
-2.312304690448e-05 1.227259030012e-04 0.0 
0.0 0.0 -2.162456296189e-05 
-1.849301832798e-04 -2.375114059264e-05 0.0 
-2.375114059264e-05 1.241181941517e-03 0.0 
0.0 0.0 -1.835494310512e-04 
-2.714207379428e-05 4.098769542459e-06 0.0 
4.098769542459e-06 1.072549946886e-04 0.0 
0.0 0.0 -2.642284971932e-05 
-3.135918366895e-05 4.019659049340e-05 0.0 
4.019659049340e-05 1.551282952784e-04 0.0 
0.0 0.0 -2.899999999997e-05 
-2.063383903873e-05 2.842818060864e-05 0.0 
2.842818060864e-05 9.408870534126e-05 0.0 
0.0 0.0 -2.215380543414e-05 
-2.425090272541e-05 -2.758476542693e-05 0.0 
-2.758476542693e-05 1.189291029536e-04 0.0 
0.0 0.0 -2.370445218759e-05 
-1.950651601912e-04 -1.537310237433e-06 0.0 
-1.537310237433e-06 1.272610956963e-03 0.0 
0.0 0.0 -1.932856728082e-04 
-1.944294159836e-04 -1.137183943863e-05 0.0 
-1.137183943863e-05 1.275116374494e-03 0.0 
0.0 0.0 -1.935170455059e-04 
-1.886696034913e-04 2.831262697735e-05 0.0 
2.831262697735e-05 1.244837435708e-03 0.0 
0.0 0.0 -1.855361636489e-04 
-1.959472726026e-04 1.351216090058e-08 0.0 
1.351216090058e-08 1.278564115673e-03 0.0 
0.0 0.0 -1.938907836251e-04 
-1.787271859105e-04 -2.284872940721e-05 0.0 
-2.284872940721e-05 1.187153147202e-03 0.0 
0.0 0.0 -1.765318707366e-04 
-1.351456084785e-04 3.971362658995e-05 0.0 
3.971362658995e-05 9.093020497765e-04 0.0 
0.0 0.0 -1.375519566527e-04 
-2.017604167332e-04 -1.836539241269e-06 0.0 
-1.836539241269e-06 1.330878883476e-03 0.0 
0.0 0.0 -2.017604167332e-04 
-4.752774343128e-05 -1.713587701896e-05 0.0 
-1.713587701896e-05 3.107525644044e-04 0.0 
0.0 0.0 -4.996133636201e-05 
-1.024919488492e-04 4.191622503833e-07 0.0 
4.191622503833e-07 7.218789940397e-04 0.0 
0.0 0.0 -1.062461082510e-04 
-2.975599916326e-05 9.106261967341e-06 0.0 
9.106261967341e-06 1.955746439529e-04 0.0 
0.0 0.0 -3.129496823211e-05 
-1.232098886184e-05 7.093050022653e-06 0.0 
7.093050022653e-06 4.161179421085e-05 0.0 
0.0 0.0 -1.255320229243e-05 
-1.944497355390e-04 5.978296495926e-06 0.0 
5.978296495926e-06 1.366328994781e-03 0.0 
0.0 0.0 -1.985775144829e-04 
-1.145512522937e-04 -8.915219508627e-06 0.0 
-8.915219508627e-06 7.945910020626e-04 0.0 
0.0 0.0 -1.159689174441e-04 
-2.848344092071e-05 4.003321639578e-06 0.0 
4.003321639578e-06 1.986241883576e-04 0.0 
0.0 0.0 -3.173012194873e-05 
-1.014959600204e-04 3.503938933843e-05 0.0 
3.503938933843e-05 6.393289370777e-04 0.0 
0.0 0.0 -9.855747970559e-05 
-1.905583345653e-04 2.687091843219e-06 0.0 
2.687091843219e-06 1.311634272187e-03 0.0 
0.0 0.0 -1.915206309854e-04 
-1.857526928997e-04 -2.471303146073e-05 0.0 
-2.471303146073e-05 1.243107974826e-03 0.0 
0.0 0.0 -1.842925442824e-04 
-1.948868254755e-04 -1.041522172143e-06 0.0 
-1.041522172143e-06 1.275180970734e-03 0.0 
0.0 0.0 -1.934499806569e-04 
-7.012133808743e-05 -2.162576108704e-05 0.0 
-2.162576108704e-05 4.594521408120e-04 0.0 
0.0 0.0 -7.043099580601e-05 
-2.186534210929e-05 -2.363395921601e-05 0.0 
-2.363395921601e-05 1.124805107313e-04 0.0 
0.0 0.0 -2.329832943476e-05 
-1.928869723946e-04 -1.747685447208e-05 0.0 
-1.747685447208e-05 1.309527415302e-03 0.0 
0.0 0.0 -1.909716586738e-04 
-1.948223937585e-04 3.463630469138e-06 0.0 
3.463630469138e-06 1.366072774039e-03 0.0 
0.0 0.0 -1.988029557152e-04 
-1.997972325631e-04 -2.657071604694e-06 0.0 
-2.657071604694e-06 1.368996078479e-03 0.0 
0.0 0.0 -1.985675284643e-04 
-1.149075065172e-04 1.970313765657e-05 0.0 
1.970313765657e-05 7.553309514488e-04 0.0 
0.0 0.0 -1.151014696305e-04 
-1.853670490970e-04 -6.789881419622e-07 0.0 
-6.789881419622e-07 1.217253462195e-03 0.0 
0.0 0.0 -1.847801502676e-04 
-2.929766823262e-05 -1.423662774746e-05 0.0 
-1.423662774746e-05 1.684447109910e-04 0.0 
0.0 0.0 -3.486300268346e-05 
-1.886376341972e-04 2.491029484498e-05 0.0 
2.491029484498e-05 1.251144203043e-03 0.0 
0.0 0.0 -1.862363266401e-04 
-1.225588461862e-05 -1.620442536661e-06 0.0 
-1.620442536661e-06 4.088176785210e-05 0.0 
0.0 0.0 -1.226823567149e-05 
-1.959443734270e-04 -1.593633800896e-06 0.0 
-1.593633800896e-06 1.275907277954e-03 0.0 
0.0 0.0 -1.936070242144e-04 
-1.921705025686e-04 1.672528369413e-05 0.0 
1.672528369413e-05 1.305355282221e-03 0.0 
0.0 0.0 -1.902878095246e-04 
-1.213509693042e-05 -9.695671298578e-06 0.0 
-9.695671298578e-06 4.146515921011e-05 0.0 
0.0 0.0 -1.257002669129e-05 
-1.793207099600e-04 -2.104295957024e-05 0.0 
-2.104295957024e-05 1.192465817629e-03 0.0 
0.0 0.0 -1.767027422389e-04 
-1.542349507493e-04 -2.789525500736e-05 0.0 
-2.789525500736e-05 1.046690456158e-03 0.0 
0.0 0.0 -1.580789522666e-04 
-1.934231585208e-04 -4.589161303043e-06 0.0 
-4.589161303043e-06 1.276393454338e-03 0.0 
0.0 0.0 -1.934530862915e-04 
-2.019364116565e-04 -1.570828685488e-06 0.0 
-1.570828685488e-06 1.334544060367e-03 0.0 
0.0 0.0 -2.019364116565e-04 
-1.443736664853e-04 -4.496434299745e-05 0.0 
-4.496434299745e-05 9.564830102373e-04 0.0 
0.0 0.0 -1.444096547634e-04 
-1.939456756852e-04 2.017652496132e-06 0.0 
2.017652496132e-06 1.279640861987e-03 0.0 
0.0 0.0 -1.938765919206e-04 
-1.869172796684e-04 -2.300922739472e-05 0.0 
-2.300922739472e-05 1.248797853845e-03 0.0 
0.0 0.0 -1.854760755851e-04 
-1.511310601618e-04 1.323861223544e-06 0.0 
1.323861223544e-06 9.820371097651e-04 0.0 
0.0 0.0 -1.514438176870e-04 
-1.859523187257e-04 -2.150500838709e-06 0.0 
-2.150500838709e-06 1.237126209909e-03 0.0 
0.0 0.0 -1.871408849840e-04 
-8.159488617983e-05 -1.939805324608e-05 0.0 
-1.939805324608e-05 5.359838852638e-04 0.0 
0.0 0.0 -8.502783899585e-05 
-1.113338579071e-04 -3.576614126909e-06 0.0 
-3.576614126909e-06 6.830287758959e-04 0.0 
0.0 0.0 -1.093177095251e-04 
-1.875695645106e-04 2.166688210212e-05 0.0 
2.166688210212e-05 1.248595569192e-03 0.0 
0.0 0.0 -1.858828511717e-04 
-1.916898687047e-04 1.740402246749e-05 0.0 
1.740402246749e-05 1.297694891500e-03 0.0 
0.0 0.0 -1.929759641265e-04 
0.0 0.0 0.0 
0.0 0.0 0.0 
0.0 0.0 0.0 
-1.108754537982e-04 8.190067800634e-06 0.0 
8.190067800634e-06 6.858465185805e-04 0.0 
0.0 0.0 -1.092688595421e-04 
-1.923809518426e-04 -1.819844630735e-05 0.0 
-1.819844630735e-05 1.300229094043e-03 0.0 
0.0 0.0 -1.932123727438e-04 
-4.002001247467e-05 2.006963566931e-05 0.0 
2.006963566931e-05 2.328825741027e-04 0.0 
0.0 0.0 -4.148470287098e-05 
-1.866472002231e-04 4.880453877379e-06 0.0 
4.880453877379e-06 1.252749307024e-03 0.0 
0.0 0.0 -1.819878549007e-04 
-1.819209478198e-04 -2.068448510871e-05 0.0 
-2.068448510871e-05 1.244408370608e-03 0.0 
0.0 0.0 -1.838914853240e-04 
-1.915111223810e-04 -2.323214646959e-05 0.0 
-2.323214646959e-05 1.305780620660e-03 0.0 
0.0 0.0 -1.903556752671e-04 
-3.701661376552e-05 2.035950265076e-05 0.0 
2.035950265076e-05 2.272671486071e-04 0.0 
0.0 0.0 -3.971981059879e-05 
-2.769286414478e-05 7.747329809448e-06 0.0 
7.747329809448e-06 1.806614107884e-04 0.0 
0.0 0.0 -2.859863994447e-05 
-1.242949117924e-04 5.074427327232e-05 0.0 
5.074427327232e-05 7.859669856420e-04 0.0 
0.0 0.0 -1.190920679387e-04 
-1.709477821043e-04 1.206352581251e-05 0.0 
1.206352581251e-05 1.132186117532e-03 0.0 
0.0 0.0 -1.681261804956e-04 
1.014327330369e-06 7.383782533250e-07 0.0 
7.383782533250e-07 2.927583678911e-05 0.0 
0.0 0.0 -6.243845128022e-06 
-1.946447373769e-04 -4.455018500166e-06 0.0 
-4.455018500166e-06 1.280717844331e-03 0.0 
0.0 0.0 -1.938350263003e-04 
-1.424463118062e-04 5.764408395156e-06 0.0 
5.764408395156e-06 9.202154133526e-04 0.0 
0.0 0.0 -1.425289220759e-04 
-3.478878306297e-05 -2.499498638801e-05 0.0 
-2.499498638801e-05 2.296892403380e-04 0.0 
0.0 0.0 -3.902841992921e-05 
-1.377312918912e-04 9.864863143696e-06 0.0 
9.864863143696e-06 8.735402280856e-04 0.0 
0.0 0.0 -1.354581645892e-04 
-1.922007867126e-04 -1.822737660514e-05 0.0 
-1.822737660514e-05 1.307890918218e-03 0.0 
0.0 0.0 -1.907465343871e-04 
-1.254239889598e-04 -4.359753515645e-05 0.0 
-4.359753515645e-05 8.286556014884e-04 0.0 
0.0 0.0 -1.240920679387e-04 
-1.353144492439e-05 -2.813094036452e-05 0.0 
-2.813094036452e-05 4.877548767693e-05 0.0 
0.0 0.0 -1.316471896826e-05 
-8.142748840058e-05 2.105549334848e-05 0.0 
2.105549334848e-05 4.801057020835e-04 0.0 
0.0 0.0 -7.814452609390e-05 
-1.089615496817e-04 1.599271894156e-05 0.0 
1.599271894156e-05 7.175407804816e-04 0.0 
0.0 0.0 -1.097999625750e-04 
-1.256926158202e-04 5.260336234632e-05 0.0 
5.260336234632e-05 8.559229925288e-04 0.0 
0.0 0.0 -1.289999999999e-04 
-1.861165675973e-04 -2.159470551463e-05 0.0 
-2.159470551463e-05 1.249429060897e-03 0.0 
0.0 0.0 -1.849170288086e-04 
-1.106499789189e-04 -2.590861534469e-05 0.0 
-2.590861534469e-05 6.926866843830e-04 0.0 
0.0 0.0 -1.076326444904e-04 
-1.112884178496e-04 1.305986126263e-05 0.0 
1.305986126263e-05 7.358491413001e-04 0.0 
0.0 0.0 -1.139494348250e-04 
-2.588411427290e-05 1.911750771148e-05 0.0 
1.911750771148e-05 1.061373083438e-04 0.0 
0.0 0.0 -2.326846092920e-05 
-1.893744793615e-04 2.103198860830e-05 0.0 
2.103198860830e-05 1.246033425132e-03 0.0 
0.0 0.0 -1.860944804855e-04 
-1.813760335911e-04 2.431983118237e-05 0.0 
2.431983118237e-05 1.192575940689e-03 0.0 
0.0 0.0 -1.779543165055e-04 
-3.341687545780e-05 1.295689628708e-05 0.0 
1.295689628708e-05 1.947474497127e-04 0.0 
0.0 0.0 -3.617538986514e-05 
-1.891790155312e-04 -1.249004293212e-05 0.0 
-1.249004293212e-05 1.282842787366e-03 0.0 
0.0 0.0 -1.935524225335e-04 
-1.940711954716e-04 2.260939094991e-05 0.0 
2.260939094991e-05 1.289421750568e-03 0.0 
0.0 0.0 -1.935534039001e-04 
-1.151984927981e-04 -2.298534457927e-05 0.0 
-2.298534457927e-05 7.735611340850e-04 0.0 
0.0 0.0 -1.145968264807e-04 
-1.409477362984e-04 4.636851076838e-06 0.0 
4.636851076838e-06 9.500238057427e-04 0.0 
0.0 0.0 -1.403751509546e-04 
-1.057221588411e-04 2.457938922791e-05 0.0 
2.457938922791e-05 7.039272758311e-04 0.0 
0.0 0.0 -1.066277415830e-04 
-1.061891266013e-04 -1.653485252010e-05 0.0 
-1.653485252010e-05 7.204456328921e-04 0.0 
0.0 0.0 -1.101455558886e-04 
-1.167125773018e-04 -5.214442621127e-06 0.0 
-5.214442621127e-06 7.635304123669e-04 0.0 
0.0 0.0 -1.124773478824e-04 
-1.793168656901e-04 2.299952134744e-05 0.0 
2.299952134744e-05 1.185887205723e-03 0.0 
0.0 0.0 -1.771393596935e-04 
-3.152584898735e-05 1.897210253453e-05 0.0 
1.897210253453e-05 1.627411535502e-04 0.0 
0.0 0.0 -3.411956464738e-05 
-1.845315344105e-04 -2.087044310257e-05 0.0 
-2.087044310257e-05 1.251382198176e-03 0.0 
0.0 0.0 -1.826724926888e-04 
-1.258093955466e-04 1.092296903434e-05 0.0 
1.092296903434e-05 7.989141246955e-04 0.0 
0.0 0.0 -1.256509235457e-04 
-1.915790341267e-04 -2.191468720141e-05 0.0 
-2.191468720141e-05 1.308072793879e-03 0.0 
0.0 0.0 -1.908230686647e-04 
-1.803448451633e-04 -1.980075170866e-05 0.0 
-1.980075170866e-05 1.182538242344e-03 0.0 
0.0 0.0 -1.771885848702e-04 
-1.319350983937e-04 -8.918433226288e-06 0.0 
-8.918433226288e-06 9.046918759966e-04 0.0 
0.0 0.0 -1.335370307995e-04 
-1.816836816126e-04 1.791474397062e-05 0.0 
1.791474397062e-05 1.201235583197e-03 0.0 
0.0 0.0 -1.801549293832e-04 
-1.875547155475e-04 1.892715754060e-05 0.0 
1.892715754060e-05 1.233891763137e-03 0.0 
0.0 0.0 -1.855150795789e-04 
-1.939054531168e-04 -3.416516152567e-06 0.0 
-3.416516152567e-06 1.313797531553e-03 0.0 
0.0 0.0 -1.905407107676e-04 
-1.393318625630e-05 6.729466406601e-06 0.0 
6.729466406601e-06 4.687704386898e-05 0.0 
0.0 0.0 -1.411879611972e-05 
-1.819939651451e-04 -2.047705946231e-05 0.0 
-2.047705946231e-05 1.208295386483e-03 0.0 
0.0 0.0 -1.798029041703e-04 
-1.850233720890e-04 2.766047329041e-05 0.0 
2.766047329041e-05 1.254110806432e-03 0.0 
0.0 0.0 -1.840618297566e-04 
-1.944390477997e-05 -2.127751864275e-05 0.0 
-2.127751864275e-05 1.299757536440e-04 0.0 
0.0 0.0 -2.232470194434e-05 
-1.017184515676e-04 -1.757095589334e-05 0.0 
-1.757095589334e-05 6.550290312805e-04 0.0 
0.0 0.0 -1.026204892046e-04 
-1.144511734995e-05 -9.153149013219e-06 0.0 
-9.153149013219e-06 7.932793000554e-05 0.0 
0.0 0.0 -1.453852818766e-05 
-1.859119756783e-04 -1.557168329532e-05 0.0 
-1.557168329532e-05 1.264074963678e-03 0.0 
0.0 0.0 -1.846184893018e-04 
-3.781916541046e-05 -9.669426051968e-06 0.0 
-9.669426051968e-06 2.301589260470e-04 0.0 
0.0 0.0 -3.733333333333e-05 
-4.092491983796e-05 8.729822583191e-06 0.0 
8.729822583191e-06 2.009734351153e-04 0.0 
0.0 0.0 -4.066666666667e-05 
-3.720983957789e-05 -4.166702888572e-07 0.0 
-4.166702888572e-07 2.479913252547e-04 0.0 
0.0 0.0 -3.733333333333e-05 
-4.073203551989e-05 1.912414136314e-07 0.0 
1.912414136314e-07 2.020651978415e-04 0.0 
0.0 0.0 -4.066666666667e-05 
-3.734896800978e-05 -5.458140338044e-07 0.0 
-5.458140338044e-07 2.487742214024e-04 0.0 
0.0 0.0 -3.733333333333e-05 
-4.074690567022e-05 -5.221015569479e-07 0.0 
-5.221015569479e-07 2.021844906501e-04 0.0 
0.0 0.0 -4.066666666667e-05 
-3.754558009850e-05 -8.186107780119e-07 0.0 
-8.186107780119e-07 2.488747468293e-04 0.0 
0.0 0.0 -3.733333333333e-05 
-4.084584502726e-05 -6.751178472883e-07 0.0 
-6.751178472883e-07 2.023107608641e-04 0.0 
0.0 0.0 -4.066666666667e-05 
-3.769256414432e-05 -8.839606299389e-07 0.0 
-8.839606299389e-07 2.489991732538e-04 0.0 
0.0 0.0 -3.733333333333e-05 
-4.095987022466e-05 -7.135976235807e-07 0.0 
-7.135976235807e-07 2.024315430679e-04 0.0 
0.0 0.0 -4.066666666667e-05 
-3.778453986003e-05 -8.550901005864e-07 0.0 
-8.550901005864e-07 2.491166393793e-04 0.0 
0.0 0.0 -3.733333333333e-05 
-4.105410239505e-05 -7.183687370872e-07 0.0 
-7.183687370872e-07 2.025205319300e-04 0.0 
0.0 0.0 -4.066666666667e-05 
-3.783121773782e-05 -7.935454732762e-07 0.0 
-7.935454732762e-07 2.491993200158e-04 0.0 
0.0 0.0 -3.733333333333e-05 
-4.111318680875e-05 -7.044631244033e-07 0.0 
-7.044631244033e-07 2.025712551249e-04 0.0 
0.0 0.0 -4.066666666667e-05 
-3.784532853834e-05 -7.153277524469e-07 0.0 
-7.153277524469e-07 2.492411429785e-04 0.0 
0.0 0.0 -3.733333333333e-05 
-4.114290171895e-05 -6.676018244403e-07 0.0 
-6.676018244403e-07 2.025894891272e-04 0.0 
0.0 0.0 -4.066666666667e-05 
-3.783875306040e-05 -6.198297258670e-07 0.0 
-6.198297258670e-07 2.492487617912e-04 0.0 
0.0 0.0 -3.733333333333e-05 
-4.115065641406e-05 -6.023736596212e-07 0.0 
-6.023736596212e-07 2.025822140463e-04 0.0 
0.0 0.0 -4.066666666667e-05 
-3.781960352511e-05 -4.979669840281e-07 0.0 
-4.979669840281e-07 2.492288868419e-04 0.0 
0.0 0.0 -3.733333333333e-05 
-4.621169411584e-05 -2.212523397124e-05 0.0 
-2.212523397124e-05 2.452866569748e-04 0.0 
0.0 0.0 -3.872092683227e-05 
-4.114419355370e-05 -4.972920868529e-07 0.0 
-4.972920868529e-07 2.025573168415e-04 0.0 
0.0 0.0 -4.066666666667e-05 
-3.779418986094e-05 -3.400549255306e-07 0.0 
-3.400549255306e-07 2.491899758271e-04 0.0 
0.0 0.0 -3.733333333333e-05 
-4.112372304841e-05 -3.380030510148e-07 0.0 
-3.380030510148e-07 2.025226389185e-04 0.0 
0.0 0.0 -4.066666666667e-05 
-3.303686742204e-05 2.084619112561e-06 0.0 
2.084619112561e-06 2.036515718641e-04 0.0 
0.0 0.0 -4.066666666667e-05 
-3.776919107923e-05 -1.339463035146e-07 0.0 
-1.339463035146e-07 2.491410866450e-04 0.0 
0.0 0.0 -3.733333333333e-05 
-4.108783558863e-05 -9.529083630622e-08 0.0 
-9.529083630622e-08 2.024951491152e-04 0.0 
0.0 0.0 -4.066666666667e-05 
-3.776076544504e-05 1.109184295478e-07 0.0 
1.109184295478e-07 2.491106549150e-04 0.0 
0.0 0.0 -3.733333333333e-05 
-4.109006946238e-05 1.831795911425e-07 0.0 
1.831795911425e-07 2.024946427316e-04 0.0 
0.0 0.0 -4.066666666667e-05 
-3.777501891122e-05 3.617597255350e-07 0.0 
3.617597255350e-07 2.491145553625e-04 0.0 
0.0 0.0 -3.733333333333e-05 
-1.846919600956e-05 3.773581879856e-06 0.0 
3.773581879856e-06 2.141481787845e-04 0.0 
0.0 0.0 -3.867195878272e-05 
-4.110335293992e-05 4.754912270096e-07 0.0 
4.754912270096e-07 2.025262819506e-04 0.0 
0.0 0.0 -4.066666666667e-05 
-3.781883042075e-05 5.683903253688e-07 0.0 
5.683903253688e-07 2.491702123511e-04 0.0 
0.0 0.0 -3.733333333333e-05 
-4.121091989970e-05 6.375800689339e-07 0.0 
6.375800689339e-07 2.025796075057e-04 0.0 
0.0 0.0 -4.066666666667e-05 
-3.785846106741e-05 7.301963965339e-07 0.0 
7.301963965339e-07 2.492159661428e-04 0.0 
0.0 0.0 -3.733333333333e-05 
-4.116646175243e-05 8.946990790910e-07 0.0 
8.946990790910e-07 2.026485459214e-04 0.0 
0.0 0.0 -4.066666666667e-05 
-3.794452910255e-05 7.834021805717e-07 0.0 
7.834021805717e-07 2.493635044725e-04 0.0 
0.0 0.0 -3.733333333333e-05 
-4.141035317160e-05 7.235841622150e-07 0.0 
7.235841622150e-07 2.027143677742e-04 0.0 
0.0 0.0 -4.066666666667e-05 
-3.794863155371e-05 8.478549530821e-07 0.0 
8.478549530821e-07 2.493226338252e-04 0.0 
0.0 0.0 -3.733333333333e-05 
-4.104774729339e-05 1.212021102596e-06 0.0 
1.212021102596e-06 2.027927445822e-04 0.0 
0.0 0.0 -4.066666666667e-05 
-3.813390082019e-05 6.885979451934e-07 0.0 
6.885979451934e-07 2.497066659957e-04 0.0 
0.0 0.0 -3.733333333333e-05 
-4.179487599718e-05 7.759139060389e-08 0.0 
7.759139060389e-08 2.027880726802e-04 0.0 
0.0 0.0 -4.066666666667e-05 
-3.059227124207e-05 6.360533019117e-06 0.0 
6.360533019117e-06 2.294458842785e-04 0.0 
0.0 0.0 -4.038759349893e-05 
-4.029110159074e-05 2.610848187008e-06 0.0 
2.610848187008e-06 2.029882584628e-04 0.0 
0.0 0.0 -4.066666666667e-05 
-3.791761410521e-05 9.834452052227e-07 0.0 
9.834452052227e-07 2.490258712289e-04 0.0 
0.0 0.0 -3.733333333333e-05 
-4.328649112970e-05 -2.846153171239e-06 0.0 
-2.846153171239e-06 2.027783130813e-04 0.0 
0.0 0.0 -4.066666666667e-05 
-3.870286392160e-05 3.294084689996e-07 0.0 
3.294084689996e-07 2.508608864312e-04 0.0 
0.0 0.0 -3.733333333333e-05 
-3.531854041237e-05 7.513766644493e-06 0.0 
7.513766644493e-06 2.022043512448e-04 0.0 
0.0 0.0 -4.066666666667e-05 
-3.745771299402e-05 1.439133076564e-06 0.0 
1.439133076564e-06 2.471853041742e-04 0.0 
0.0 0.0 -3.733333333333e-05 
-4.014358368198e-05 1.598479683686e-06 0.0 
1.598479683686e-06 2.530834677737e-04 0.0 
0.0 0.0 -3.733333333333e-05 
-2.406555344720e-05 -1.325170613380e-06 0.0 
-1.325170613380e-06 1.853854904806e-04 0.0 
0.0 0.0 -3.705426016560e-05 
-4.773276247715e-05 -5.487666340881e-05 0.0 
-5.487666340881e-05 2.339073081141e-04 0.0 
0.0 0.0 -3.900000000000e-05 
-3.194031618913e-05 5.389798654005e-05 0.0 
5.389798654005e-05 2.056003519706e-04 0.0 
0.0 0.0 -3.900000000000e-05 
-4.315017897202e-05 -5.698520515806e-06 0.0 
-5.698520515806e-06 2.278586648408e-04 0.0 
0.0 0.0 -4.233333333333e-05 
-3.636845794032e-05 6.197286116004e-06 0.0 
6.197286116004e-06 2.129494665549e-04 0.0 
0.0 0.0 -3.566666666667e-05 
-2.758573317897e-05 -7.450288626600e-07 0.0 
-7.450288626600e-07 2.055894845529e-04 0.0 
0.0 0.0 -3.566666666667e-05 
-5.115038909489e-05 -1.066370140281e-05 0.0 
-1.066370140281e-05 2.909036237404e-04 0.0 
0.0 0.0 -5.066666666667e-05 
-4.759158650463e-05 8.684038607520e-06 0.0 
8.684038607520e-06 3.188574670315e-04 0.0 
0.0 0.0 -4.733333333333e-05 
-5.085989610145e-05 -9.272482802418e-07 0.0 
-9.272482802418e-07 2.717727954080e-04 0.0 
0.0 0.0 -5.066666666667e-05 
-4.739870218655e-05 2.214119719171e-07 0.0 
2.214119719171e-07 3.172539875028e-04 0.0 
0.0 0.0 -4.733333333333e-05 
-5.074388418815e-05 -4.937434425518e-07 0.0 
-4.937434425518e-07 2.705407306617e-04 0.0 
0.0 0.0 -5.066666666667e-05 
-4.741357233689e-05 -4.274409505775e-07 0.0 
-4.274409505775e-07 3.171493791242e-04 0.0 
0.0 0.0 -4.733333333333e-05 
-5.077435242920e-05 -5.251521886155e-07 0.0 
-5.251521886155e-07 2.704744233650e-04 0.0 
0.0 0.0 -5.066666666667e-05 
-4.751251169393e-05 -5.591654456356e-07 0.0 
-5.591654456356e-07 3.172282015912e-04 0.0 
0.0 0.0 -4.733333333333e-05 
-5.087235212600e-05 -5.477202699122e-07 0.0 
-5.477202699122e-07 2.705630921400e-04 0.0 
0.0 0.0 -5.066666666667e-05 
-4.762653689132e-05 -6.001451931681e-07 0.0 
-6.001451931681e-07 3.173415219525e-04 0.0 
0.0 0.0 -4.733333333333e-05 
-5.098168910847e-05 -5.759387222219e-07 0.0 
-5.759387222219e-07 2.706783838615e-04 0.0 
0.0 0.0 -5.066666666667e-05 
-4.772076906172e-05 -6.197857542977e-07 0.0 
-6.197857542977e-07 3.174342765130e-04 0.0 
0.0 0.0 -4.733333333333e-05 
-5.106925553891e-05 -6.148249102859e-07 0.0 
-6.148249102859e-07 2.707687156573e-04 0.0 
0.0 0.0 -5.066666666667e-05 
-4.777985347542e-05 -6.302251650863e-07 0.0 
-6.302251650863e-07 3.174780838358e-04 0.0 
0.0 0.0 -4.733333333333e-05 
-5.110938275235e-05 -6.217795403131e-07 0.0 
-6.217795403131e-07 2.708127709170e-04 0.0 
0.0 0.0 -5.066666666667e-05 
-4.780956838562e-05 -6.053853643083e-07 0.0 
-6.053853643083e-07 3.174879369113e-04 0.0 
0.0 0.0 -4.733333333333e-05 
-5.113117215563e-05 -5.887362678852e-07 0.0 
-5.887362678852e-07 2.708240786717e-04 0.0 
0.0 0.0 -5.066666666667e-05 
-4.781732308072e-05 -5.449737583287e-07 0.0 
-5.449737583287e-07 3.174684300656e-04 0.0 
0.0 0.0 -4.733333333333e-05 
-5.535647040899e-05 -2.224721771426e-05 0.0 
-2.224721771426e-05 3.151114578633e-04 0.0 
0.0 0.0 -4.873639455782e-05 
-5.114534917985e-05 -5.074590888670e-07 0.0 
-5.074590888670e-07 2.708096679475e-04 0.0 
0.0 0.0 -5.066666666667e-05 
-4.781086022037e-05 -4.469500262259e-07 0.0 
-4.469500262259e-07 3.174296260920e-04 0.0 
0.0 0.0 -4.733333333333e-05 
-5.115405450020e-05 -3.906968067935e-07 0.0 
-3.906968067935e-07 2.707769751642e-04 0.0 
0.0 0.0 -5.066666666667e-05 
-4.005493497019e-05 3.545620753650e-06 0.0 
3.545620753650e-06 2.877213180819e-04 0.0 
0.0 0.0 -4.540306122449e-05 
-4.779038971508e-05 -3.118347089870e-07 0.0 
-3.118347089870e-07 3.173687819636e-04 0.0 
0.0 0.0 -4.733333333333e-05 
-4.336028639231e-05 1.776569064140e-06 0.0 
1.776569064140e-06 2.725941409189e-04 0.0 
0.0 0.0 -5.066666666667e-05 
-5.113174051410e-05 -2.330635383312e-07 0.0 
-2.330635383312e-07 2.707232099099e-04 0.0 
0.0 0.0 -5.066666666667e-05 
-4.775450225529e-05 -1.088356439118e-07 0.0 
-1.088356439118e-07 3.172781608830e-04 0.0 
0.0 0.0 -4.733333333333e-05 
-5.106103971955e-05 1.061811698324e-07 0.0 
1.061811698324e-07 2.706701197139e-04 0.0 
0.0 0.0 -5.066666666667e-05 
-4.775673612905e-05 1.928918352567e-07 0.0 
1.928918352567e-07 3.172905143377e-04 0.0 
0.0 0.0 -4.733333333333e-05 
-5.109739057831e-05 3.875546929347e-07 0.0 
3.875546929347e-07 2.706837710260e-04 0.0 
0.0 0.0 -5.066666666667e-05 
-4.777001960659e-05 4.785139335737e-07 0.0 
4.785139335737e-07 3.172918469328e-04 0.0 
0.0 0.0 -4.733333333333e-05 
-5.114053674906e-05 8.454240426302e-07 0.0 
8.454240426302e-07 2.707487787219e-04 0.0 
0.0 0.0 -5.066666666667e-05 
-4.787758656637e-05 7.009769641847e-07 0.0 
7.009769641847e-07 3.175395861276e-04 0.0 
0.0 0.0 -4.733333333333e-05 
-3.859763791424e-05 3.664155593188e-06 0.0 
3.664155593188e-06 2.982362191000e-04 0.0 
0.0 0.0 -5.040306122449e-05 
-5.137125646484e-05 6.035243328694e-07 0.0 
6.035243328694e-07 2.708584208901e-04 0.0 
0.0 0.0 -5.066666666667e-05 
-4.783312841910e-05 7.620509721787e-07 0.0 
7.620509721787e-07 3.173437515974e-04 0.0 
0.0 0.0 -4.733333333333e-05 
-5.111406613470e-05 1.413247059512e-06 0.0 
1.413247059512e-06 2.709105882421e-04 0.0 
0.0 0.0 -5.066666666667e-05 
-4.807701983827e-05 8.408573881303e-07 0.0 
8.408573881303e-07 3.180354434408e-04 0.0 
0.0 0.0 -4.733333333333e-05 
-4.771441396005e-05 7.591073150930e-07 0.0 
7.591073150930e-07 3.169623596771e-04 0.0 
0.0 0.0 -4.733333333333e-05 
-5.166913602441e-05 -1.267909664581e-07 0.0 
-1.267909664581e-07 2.710297563612e-04 0.0 
0.0 0.0 -5.066666666667e-05 
-4.846154266385e-05 7.945751000271e-07 0.0 
7.945751000271e-07 3.191634342060e-04 0.0 
0.0 0.0 -4.733333333333e-05 
-5.033295262382e-05 2.676824150486e-06 0.0 
2.676824150486e-06 2.709658459585e-04 0.0 
0.0 0.0 -5.066666666667e-05 
-4.695776825741e-05 1.311506299456e-06 0.0 
1.311506299456e-06 3.146029699114e-04 0.0 
0.0 0.0 -4.733333333333e-05 
-4.995315779637e-05 3.019430349178e-06 0.0 
3.019430349178e-06 3.221256746523e-04 0.0 
0.0 0.0 -4.733333333333e-05 
-5.264949915731e-05 -3.033116857975e-06 0.0 
-3.033116857975e-06 2.709941081171e-04 0.0 
0.0 0.0 -5.066666666667e-05 
-4.458143821664e-05 8.706406035169e-06 0.0 
8.706406035169e-06 2.701222728083e-04 0.0 
0.0 0.0 -5.066666666667e-05 
-3.262660739579e-05 -2.447626091127e-06 0.0 
-2.447626091127e-06 2.549253489660e-04 0.0 
0.0 0.0 -4.706972789116e-05 
-4.183172584708e-05 -5.516448082583e-05 0.0 
-5.516448082583e-05 2.878160453026e-04 0.0 
0.0 0.0 -4.900000000000e-05 
-5.736611696375e-05 5.379757100263e-05 0.0 
5.379757100263e-05 3.156420142217e-04 0.0 
0.0 0.0 -4.900000000000e-05 
-4.648351230535e-05 -5.650677953531e-06 0.0 
-5.650677953531e-06 2.936870104723e-04 0.0 
0.0 0.0 -4.566666666667e-05 
-5.288209209055e-05 5.940363499374e-06 0.0 
5.940363499374e-06 3.083110135113e-04 0.0 
0.0 0.0 -5.233333333333e-05 
-3.803686742204e-05 -9.545998375183e-07 0.0 
-9.545998375183e-07 2.755250232948e-04 0.0 
0.0 0.0 -4.566666666667e-05 
-5.781705576156e-05 -1.097834381467e-05 0.0 
-1.097834381467e-05 3.693403496953e-04 0.0 
0.0 0.0 -5.733333333333e-05 
-6.100891304768e-05 7.885091902878e-06 0.0 
7.885091902878e-06 3.405875281446e-04 0.0 
0.0 0.0 -6.066666666667e-05 
-5.752656276812e-05 -9.002056482216e-07 0.0 
-9.002056482216e-07 3.876358825742e-04 0.0 
0.0 0.0 -5.733333333333e-05 
-6.081359015182e-05 -5.794002622293e-08 0.0 
-5.794002622293e-08 3.417160881662e-04 0.0 
0.0 0.0 -6.066666666667e-05 
-5.741055085482e-05 -3.076662680791e-07 0.0 
-3.076662680791e-07 3.883987448460e-04 0.0 
0.0 0.0 -5.733333333333e-05 
-6.074210787550e-05 -3.038056687787e-07 0.0 
-3.038056687787e-07 3.417341222542e-04 0.0 
0.0 0.0 -6.066666666667e-05 
-5.744101909586e-05 -3.350213589507e-07 0.0 
-3.350213589507e-07 3.884037471439e-04 0.0 
0.0 0.0 -5.733333333333e-05 
-6.076980017163e-05 -2.633586237472e-07 0.0 
-2.633586237472e-07 3.417973373645e-04 0.0 
0.0 0.0 -6.066666666667e-05 
-5.753901879267e-05 -4.032254988366e-07 0.0 
-4.032254988366e-07 3.884804185775e-04 0.0 
0.0 0.0 -5.733333333333e-05 
-6.084901192467e-05 -2.839820900020e-07 0.0 
-2.839820900020e-07 3.418997932862e-04 0.0 
0.0 0.0 -6.066666666667e-05 
-5.764835577513e-05 -4.670991574783e-07 0.0 
-4.670991574783e-07 3.885926020556e-04 0.0 
0.0 0.0 -5.733333333333e-05 
-6.097338103546e-05 -3.711727285251e-07 0.0 
-3.711727285251e-07 3.420012923996e-04 0.0 
0.0 0.0 -6.066666666667e-05 
-5.773592220557e-05 -5.434399062823e-07 0.0 
-5.434399062823e-07 3.886963937928e-04 0.0 
0.0 0.0 -5.733333333333e-05 
-6.104369650402e-05 -5.100362655251e-07 0.0 
-5.100362655251e-07 3.420398794502e-04 0.0 
0.0 0.0 -6.066666666667e-05 
-5.777604941901e-05 -5.548094796899e-07 0.0 
-5.548094796899e-07 3.887163194926e-04 0.0 
0.0 0.0 -5.733333333333e-05 
-6.105893067594e-05 -5.296141592932e-07 0.0 
-5.296141592932e-07 3.420372773735e-04 0.0 
0.0 0.0 -6.066666666667e-05 
-5.779783882230e-05 -4.963068092733e-07 0.0 
-4.963068092733e-07 3.887001927722e-04 0.0 
0.0 0.0 -5.733333333333e-05 
-6.429332232619e-05 -2.307460778734e-05 0.0 
-2.307460778734e-05 3.850600827683e-04 0.0 
0.0 0.0 -5.871879621414e-05 
-6.109192576982e-05 -4.837956592854e-07 0.0 
-4.837956592854e-07 3.420192799563e-04 0.0 
0.0 0.0 -6.066666666667e-05 
-5.781201584652e-05 -3.891035793225e-07 0.0 
-3.891035793225e-07 3.886678861241e-04 0.0 
0.0 0.0 -5.733333333333e-05 
-5.197171891332e-05 2.601338786256e-06 0.0 
2.601338786256e-06 3.430943376592e-04 0.0 
0.0 0.0 -6.066666666667e-05 
-6.116828848797e-05 -4.015809249984e-07 0.0 
-4.015809249984e-07 3.420050059064e-04 0.0 
0.0 0.0 -6.066666666667e-05 
-5.782072116687e-05 -2.899615651131e-07 0.0 
-2.899615651131e-07 3.886441670397e-04 0.0 
0.0 0.0 -5.733333333333e-05 
-6.121626665852e-05 -3.540641570560e-07 0.0 
-3.540641570560e-07 3.419641075570e-04 0.0 
0.0 0.0 -6.066666666667e-05 
-5.779840718077e-05 -1.758510829020e-07 0.0 
-1.758510829020e-07 3.885785316046e-04 0.0 
0.0 0.0 -5.733333333333e-05 
-6.116783759642e-05 -2.820525569960e-07 0.0 
-2.820525569960e-07 3.418542542977e-04 0.0 
0.0 0.0 -6.066666666667e-05 
-4.930023443078e-05 5.796000691354e-06 0.0 
5.796000691354e-06 3.582468498007e-04 0.0 
0.0 0.0 -5.538546288080e-05 
-5.772770638621e-05 1.312401498261e-07 0.0 
1.312401498261e-07 3.883955911533e-04 0.0 
0.0 0.0 -5.733333333333e-05 
-6.096829823239e-05 3.035755375707e-07 0.0 
3.035755375707e-07 3.418039294054e-04 0.0 
0.0 0.0 -6.066666666667e-05 
-5.776405724498e-05 4.984520269403e-07 0.0 
4.984520269403e-07 3.884232433503e-04 0.0 
0.0 0.0 -5.733333333333e-05 
-6.125140204367e-05 5.931380027649e-07 0.0 
5.931380027649e-07 3.418903324586e-04 0.0 
0.0 0.0 -6.066666666667e-05 
-5.780720341573e-05 8.244863566380e-07 0.0 
8.244863566380e-07 3.884697708382e-04 0.0 
0.0 0.0 -5.733333333333e-05 
-6.110831296764e-05 1.296657285393e-06 0.0 
1.296657285393e-06 3.420973359667e-04 0.0 
0.0 0.0 -6.066666666667e-05 
-5.803792313151e-05 7.049279494282e-07 0.0 
7.049279494282e-07 3.890016332223e-04 0.0 
0.0 0.0 -5.733333333333e-05 
-6.205350649242e-05 4.589417531418e-08 0.0 
4.589417531418e-08 3.421906476610e-04 0.0 
0.0 0.0 -6.066666666667e-05 
-5.778073280136e-05 8.470981603539e-07 0.0 
8.470981603539e-07 3.884329098950e-04 0.0 
0.0 0.0 -5.733333333333e-05 
-6.041203126657e-05 2.222910704188e-06 0.0 
2.222910704188e-06 3.423435831242e-04 0.0 
0.0 0.0 -6.066666666667e-05 
-4.710203058735e-05 4.310616550608e-06 0.0 
4.310616550608e-06 3.686964131418e-04 0.0 
0.0 0.0 -6.038546288080e-05 
-6.294942027381e-05 -2.756163189823e-06 0.0 
-2.756163189823e-06 3.420852271838e-04 0.0 
0.0 0.0 -6.066666666667e-05 
-5.833580269108e-05 1.472104880338e-07 0.0 
1.472104880338e-07 3.900149670501e-04 0.0 
0.0 0.0 -5.733333333333e-05 
-5.509863290017e-05 6.978613204043e-06 0.0 
6.978613204043e-06 3.416103539067e-04 0.0 
0.0 0.0 -6.066666666667e-05 
-5.699961929049e-05 1.188126407733e-06 0.0 
1.188126407733e-06 3.866763485151e-04 0.0 
0.0 0.0 -5.733333333333e-05 
-5.931616582398e-05 1.264970039408e-06 0.0 
1.264970039408e-06 3.921885981794e-04 0.0 
0.0 0.0 -5.733333333333e-05 
-4.124266933807e-05 1.249791926263e-06 0.0 
1.249791926263e-06 3.252010506084e-04 0.0 
0.0 0.0 -5.705212954747e-05 
-6.749087282606e-05 -5.537350596849e-05 0.0 
-5.537350596849e-05 3.726705081140e-04 0.0 
0.0 0.0 -5.900000000000e-05 
-5.182302720593e-05 5.344964927870e-05 0.0 
5.344964927870e-05 3.446027874510e-04 0.0 
0.0 0.0 -5.900000000000e-05 
-6.292581995443e-05 -5.978106008697e-06 0.0 
-5.978106008697e-06 3.667667175588e-04 0.0 
0.0 0.0 -6.233333333333e-05 
-5.621542542388e-05 5.720175409305e-06 0.0 
5.720175409305e-06 3.519710587876e-04 0.0 
0.0 0.0 -5.566666666667e-05 
-4.836028639231e-05 1.166463025180e-06 0.0 
1.166463025180e-06 3.464077171258e-04 0.0 
0.0 0.0 -5.566666666667e-05 
-7.114563988620e-05 -1.149003057072e-05 0.0 
-1.149003057072e-05 4.298780722485e-04 0.0 
0.0 0.0 -7.066666666667e-05 
-6.767557971435e-05 7.789921185043e-06 0.0 
7.789921185043e-06 4.581053887753e-04 0.0 
0.0 0.0 -6.733333333333e-05 
-7.086950529367e-05 -1.417087462263e-06 0.0 
-1.417087462263e-06 4.109780231572e-04 0.0 
0.0 0.0 -7.066666666667e-05 
-6.748025681849e-05 -2.346688612902e-07 0.0 
-2.346688612902e-07 4.565031102245e-04 0.0 
0.0 0.0 -6.733333333333e-05 
-7.064770782861e-05 -5.361532288411e-07 0.0 
-5.361532288411e-07 4.098128991423e-04 0.0 
0.0 0.0 -7.066666666667e-05 
-6.740877454217e-05 -3.802090969509e-07 0.0 
-3.802090969509e-07 4.564156801283e-04 0.0 
0.0 0.0 -6.733333333333e-05 
-7.068434388014e-05 -2.719211823047e-07 0.0 
-2.719211823047e-07 4.097592646131e-04 0.0 
0.0 0.0 -7.066666666667e-05 
-6.743646683829e-05 -2.660727184679e-07 0.0 
-2.660727184679e-07 4.564862413471e-04 0.0 
0.0 0.0 -6.733333333333e-05 
-7.071554313554e-05 -1.840132234043e-07 0.0 
-1.840132234043e-07 4.098289843511e-04 0.0 
0.0 0.0 -7.066666666667e-05 
-6.751567859134e-05 -1.979083631644e-07 0.0 
-1.979083631644e-07 4.566038930868e-04 0.0 
0.0 0.0 -6.733333333333e-05 
-7.082563799221e-05 -1.082855862797e-07 0.0 
-1.082855862797e-07 4.099501439232e-04 0.0 
0.0 0.0 -7.066666666667e-05 
-6.764004770213e-05 -1.840544218251e-07 0.0 
-1.840544218251e-07 4.567798774879e-04 0.0 
0.0 0.0 -6.733333333333e-05 
-7.099668157673e-05 -3.152621347735e-07 0.0 
-3.152621347735e-07 4.100909630507e-04 0.0 
0.0 0.0 -7.066666666667e-05 
-6.771036317068e-05 -3.250871953116e-07 0.0 
-3.250871953116e-07 4.567955793193e-04 0.0 
0.0 0.0 -6.733333333333e-05 
-7.104635293021e-05 -4.797315306229e-07 0.0 
-4.797315306229e-07 4.100980900426e-04 0.0 
0.0 0.0 -7.066666666667e-05 
-6.772559734261e-05 -3.874533346802e-07 0.0 
-3.874533346802e-07 4.567007956159e-04 0.0 
0.0 0.0 -6.733333333333e-05 
-7.641374413823e-05 -2.228773536997e-05 0.0 
-2.228773536997e-05 4.555521205124e-04 0.0 
0.0 0.0 -6.873639455783e-05 
-7.094875925373e-05 -3.791477384794e-07 0.0 
-3.791477384794e-07 4.100304202801e-04 0.0 
0.0 0.0 -7.066666666667e-05 
-6.775859243649e-05 -2.543201428247e-07 0.0 
-2.543201428247e-07 4.566839974153e-04 0.0 
0.0 0.0 -6.733333333333e-05 
-5.983502745799e-05 1.929364290318e-06 0.0 
1.929364290318e-06 4.273284517158e-04 0.0 
0.0 0.0 -6.540306122449e-05 
-7.112696317891e-05 -1.467524674862e-07 0.0 
-1.467524674862e-07 4.100464125056e-04 0.0 
0.0 0.0 -7.066666666667e-05 
-6.783495515464e-05 -1.450638751277e-07 0.0 
-1.450638751277e-07 4.567335765583e-04 0.0 
0.0 0.0 -6.733333333333e-05 
-6.217161144140e-05 3.026566437504e-06 0.0 
3.026566437504e-06 4.118280588832e-04 0.0 
0.0 0.0 -7.066666666667e-05 
-7.130993240556e-05 -1.233962845206e-07 0.0 
-1.233962845206e-07 4.100835803005e-04 0.0 
0.0 0.0 -7.066666666667e-05 
-6.788293332518e-05 -1.526785280094e-07 0.0 
-1.526785280094e-07 4.567248483215e-04 0.0 
0.0 0.0 -6.733333333333e-05 
-7.133053464148e-05 -2.770421121641e-07 0.0 
-2.770421121641e-07 4.100311566981e-04 0.0 
0.0 0.0 -7.066666666667e-05 
-6.783450426309e-05 -1.768217967111e-07 0.0 
-1.768217967111e-07 4.565560458107e-04 0.0 
0.0 0.0 -6.733333333333e-05 
-7.128003053814e-05 -4.124294858267e-07 0.0 
-4.124294858267e-07 4.098246570243e-04 0.0 
0.0 0.0 -7.066666666667e-05 
-6.763496489906e-05 1.353837844384e-07 0.0 
1.353837844384e-07 4.560035381661e-04 0.0 
0.0 0.0 -6.733333333333e-05 
-6.037667670586e-05 3.725538744657e-06 0.0 
3.725538744657e-06 4.387855452071e-04 0.0 
0.0 0.0 -7.040306122449e-05 
-7.080362175516e-05 1.214547096316e-06 0.0 
1.214547096316e-06 4.096944057901e-04 0.0 
0.0 0.0 -7.066666666667e-05 
-6.791806871034e-05 8.269470575155e-07 0.0 
8.269470575155e-07 4.567782366562e-04 0.0 
0.0 0.0 -6.733333333333e-05 
-7.172247895238e-05 4.209193152321e-07 0.0 
4.209193152321e-07 4.100255547766e-04 0.0 
0.0 0.0 -7.066666666667e-05 
-6.777497963431e-05 1.000449125460e-06 0.0 
1.000449125460e-06 4.561234038025e-04 0.0 
0.0 0.0 -6.733333333333e-05 
-6.872017315909e-05 7.209100044906e-07 0.0 
7.209100044906e-07 4.587775367494e-04 0.0 
0.0 0.0 -6.733333333333e-05 
-7.101694663725e-05 3.221273702941e-06 0.0 
3.221273702941e-06 4.103304483538e-04 0.0 
0.0 0.0 -7.066666666667e-05 
-6.707869793323e-05 4.876313269616e-07 0.0 
4.876313269616e-07 4.540272230233e-04 0.0 
0.0 0.0 -6.733333333333e-05 
-7.351744776430e-05 -3.590528867594e-06 0.0 
-3.590528867594e-06 4.105429329544e-04 0.0 
0.0 0.0 -7.066666666667e-05 
-6.961608694047e-05 2.500866072093e-06 0.0 
2.500866072093e-06 4.606767609940e-04 0.0 
0.0 0.0 -6.733333333333e-05 
-6.487293508417e-05 7.258987181476e-06 0.0 
7.258987181476e-06 4.092859995140e-04 0.0 
0.0 0.0 -7.066666666667e-05 
-5.398091155439e-05 -5.270882630615e-06 0.0 
-5.270882630615e-06 3.945040721260e-04 0.0 
0.0 0.0 -6.706972789116e-05 
-6.158970074179e-05 -5.552157044761e-05 0.0 
-5.552157044761e-05 4.267642640122e-04 0.0 
0.0 0.0 -6.900000000000e-05 
-7.727313769225e-05 5.339151864984e-05 0.0 
5.339151864984e-05 4.548383156643e-04 0.0 
0.0 0.0 -6.900000000000e-05 
-6.625915328777e-05 -5.902071933345e-06 0.0 
-5.902071933345e-06 4.326595679538e-04 0.0 
0.0 0.0 -6.566666666667e-05 
-7.280062491732e-05 5.686248152954e-06 0.0 
5.686248152954e-06 4.472638552754e-04 0.0 
0.0 0.0 -7.233333333333e-05 
-5.697171891332e-05 -3.753491299719e-06 0.0 
-3.753491299719e-06 4.144867007492e-04 0.0 
0.0 0.0 -6.566666666667e-05 
-7.781230655286e-05 -1.181963691656e-05 0.0 
-1.181963691656e-05 5.088176645313e-04 0.0 
0.0 0.0 -7.733333333333e-05 
-8.119458623839e-05 6.972004007010e-06 0.0 
6.972004007010e-06 4.800472308251e-04 0.0 
0.0 0.0 -8.066666666667e-05 
-7.753617196034e-05 -1.686526781122e-06 0.0 
-1.686526781122e-06 5.271460113287e-04 0.0 
0.0 0.0 -7.733333333333e-05 
-8.055598266159e-05 -8.309609844759e-07 0.0 
-8.309609844759e-07 4.810024852218e-04 0.0 
0.0 0.0 -8.066666666667e-05 
-7.731437449528e-05 -4.694243935429e-07 0.0 
-4.694243935429e-07 5.276425525984e-04 0.0 
0.0 0.0 -7.733333333333e-05 
-8.071639800283e-05 -2.964994736049e-07 0.0 
-2.964994736049e-07 4.811871574007e-04 0.0 
0.0 0.0 -8.066666666667e-05 
-7.735101054680e-05 -3.609553578528e-07 0.0 
-3.609553578528e-07 5.278599491145e-04 0.0 
0.0 0.0 -7.733333333333e-05 
-8.049136654625e-05 -1.810628668294e-07 0.0 
-1.810628668294e-07 4.812029401063e-04 0.0 
0.0 0.0 -8.066666666667e-05 
-7.738220980221e-05 -1.577265426917e-07 0.0 
-1.577265426917e-07 5.278701924915e-04 0.0 
0.0 0.0 -7.733333333333e-05 
-8.058899491475e-05 1.039952126182e-07 0.0 
1.039952126182e-07 4.813345582273e-04 0.0 
0.0 0.0 -8.066666666667e-05 
-7.749230465888e-05 -5.589101690133e-08 0.0 
-5.589101690133e-08 5.280305322976e-04 0.0 
0.0 0.0 -7.733333333333e-05 
-8.063738768920e-05 2.943263093068e-07 0.0 
2.943263093068e-07 4.815246670627e-04 0.0 
0.0 0.0 -8.066666666667e-05 
-7.766334824340e-05 -1.624950510170e-07 0.0 
-1.624950510170e-07 5.282822808427e-04 0.0 
0.0 0.0 -7.733333333333e-05 
-8.108582164939e-05 -1.817042453861e-07 0.0 
-1.817042453861e-07 4.816572964670e-04 0.0 
0.0 0.0 -8.066666666667e-05 
-7.771301959687e-05 -4.432509054862e-07 0.0 
-4.432509054862e-07 5.283746937170e-04 0.0 
0.0 0.0 -7.733333333333e-05 
-8.689319893331e-05 -2.398901531109e-05 0.0 
-2.398901531109e-05 5.261728810593e-04 0.0 
0.0 0.0 -7.871598639454e-05 
-8.063163037591e-05 -5.731608516610e-07 0.0 
-5.731608516610e-07 4.813582541077e-04 0.0 
0.0 0.0 -8.066666666667e-05 
-7.282722797358e-05 2.956686511685e-06 0.0 
2.956686511685e-06 4.834944195558e-04 0.0 
0.0 0.0 -8.066666666667e-05 
-7.761542592040e-05 1.556054086580e-08 0.0 
1.556054086580e-08 5.279085131106e-04 0.0 
0.0 0.0 -7.733333333333e-05 
-8.085458222001e-05 2.978087830834e-07 0.0 
2.978087830834e-07 4.814005580441e-04 0.0 
0.0 0.0 -8.066666666667e-05 
-7.779362984557e-05 2.880682919728e-07 0.0 
2.880682919728e-07 5.280866836434e-04 0.0 
0.0 0.0 -7.733333333333e-05 
-8.137173526484e-05 3.903881692923e-07 0.0 
3.903881692923e-07 4.816228572156e-04 0.0 
0.0 0.0 -8.066666666667e-05 
-7.797659907223e-05 1.259601545473e-07 0.0 
1.259601545473e-07 5.283575677450e-04 0.0 
0.0 0.0 -7.733333333333e-05 
-8.138094734250e-05 -4.007379149127e-08 0.0 
-4.007379149127e-08 4.816094746352e-04 0.0 
0.0 0.0 -8.066666666667e-05 
-6.958892147872e-05 2.693700344811e-06 0.0 
2.693700344811e-06 4.979075358180e-04 0.0 
0.0 0.0 -7.538265306121e-05 
-7.799720130815e-05 7.326478423494e-09 0.0 
7.326478423494e-09 5.282573840779e-04 0.0 
0.0 0.0 -7.733333333333e-05 
-8.143970684332e-05 -2.393759007723e-07 0.0 
-2.393759007723e-07 4.814739348898e-04 0.0 
0.0 0.0 -8.066666666667e-05 
-7.794669720480e-05 -1.073637191230e-07 0.0 
-1.073637191230e-07 5.280808317875e-04 0.0 
0.0 0.0 -7.733333333333e-05 
-8.174229233143e-05 -1.069148929710e-06 0.0 
-1.069148929710e-06 4.809843103418e-04 0.0 
0.0 0.0 -8.066666666667e-05 
-7.747028842183e-05 1.035597227599e-06 0.0 
1.035597227599e-06 5.267993287079e-04 0.0 
0.0 0.0 -7.733333333333e-05 
-8.011487521303e-05 3.227514386744e-06 0.0 
3.227514386744e-06 4.812335686475e-04 0.0 
0.0 0.0 -8.066666666667e-05 
-7.838914561904e-05 1.172078597877e-06 0.0 
1.172078597877e-06 5.288970930108e-04 0.0 
0.0 0.0 -7.733333333333e-05 
-8.384419164103e-05 -8.759494395606e-07 0.0 
-8.759494395606e-07 4.817654260896e-04 0.0 
0.0 0.0 -8.066666666667e-05 
-7.599610420366e-05 7.462175851506e-06 0.0 
7.462175851506e-06 4.817404732796e-04 0.0 
0.0 0.0 -8.066666666667e-05 
-7.768361330392e-05 1.900460429623e-06 0.0 
1.900460429623e-06 5.268691696083e-04 0.0 
0.0 0.0 -7.733333333333e-05 
-7.085007670582e-05 3.811906941392e-06 0.0 
3.811906941392e-06 5.100816028034e-04 0.0 
0.0 0.0 -8.038265306121e-05 
-8.018411443096e-05 1.198366395229e-06 0.0 
1.198366395229e-06 5.324278016454e-04 0.0 
0.0 0.0 -7.733333333333e-05 
-6.417731922861e-05 -3.943230338450e-06 0.0 
-3.943230338450e-06 4.647268317312e-04 0.0 
0.0 0.0 -7.704931972788e-05 
-8.746095442730e-05 -5.552433142474e-05 0.0 
-5.552433142474e-05 5.117494040768e-04 0.0 
0.0 0.0 -7.900000000000e-05 
-7.187846570217e-05 5.325151437038e-05 0.0 
5.325151437038e-05 4.838528020986e-04 0.0 
0.0 0.0 -7.900000000000e-05 
-8.300562030776e-05 -5.928768708113e-06 0.0 
-5.928768708113e-06 5.060343090617e-04 0.0 
0.0 0.0 -8.233333333333e-05 
-7.613395825065e-05 5.573077951687e-06 0.0 
5.573077951687e-06 4.912471208609e-04 0.0 
0.0 0.0 -7.566666666667e-05 
-6.717161144140e-05 -3.263046586986e-06 0.0 
-3.263046586986e-06 4.846642233179e-04 0.0 
0.0 0.0 -7.566666666667e-05 
-9.283937133862e-05 -1.305520020021e-05 0.0 
-1.305520020021e-05 5.701490487258e-04 0.0 
0.0 0.0 -9.066666666667e-05 
-8.786125290506e-05 6.228376696680e-06 0.0 
6.228376696680e-06 5.972094942788e-04 0.0 
0.0 0.0 -8.733333333333e-05 
-9.022014186398e-05 -3.549288141163e-06 0.0 
-3.549288141163e-06 5.499642990775e-04 0.0 
0.0 0.0 -9.066666666667e-05 
-8.722264932826e-05 -1.484814638766e-06 0.0 
-1.484814638766e-06 5.950278411204e-04 0.0 
0.0 0.0 -8.733333333333e-05 
-9.018085993915e-05 -1.417099940171e-07 0.0 
-1.417099940171e-07 5.484767631814e-04 0.0 
0.0 0.0 -9.066666666667e-05 
-8.738306466949e-05 -3.897787092036e-07 0.0 
-3.897787092036e-07 5.957792554076e-04 0.0 
0.0 0.0 -8.733333333333e-05 
-9.080630643208e-05 -1.004642962581e-06 0.0 
-1.004642962581e-06 5.490414961774e-04 0.0 
0.0 0.0 -9.066666666667e-05 
-8.715803321291e-05 -7.191945164273e-07 0.0 
-7.191945164273e-07 5.952355706191e-04 0.0 
0.0 0.0 -8.733333333333e-05 
-8.983972774977e-05 2.250980017127e-08 0.0 
2.250980017127e-08 5.486638855821e-04 0.0 
0.0 0.0 -9.066666666667e-05 
-8.725566158141e-05 1.431482839066e-07 0.0 
1.431482839066e-07 5.957393564191e-04 0.0 
0.0 0.0 -8.733333333333e-05 
-9.054185498745e-05 8.009925208000e-08 0.0 
8.009925208000e-08 5.490600954273e-04 0.0 
0.0 0.0 -9.066666666667e-05 
-8.730405435587e-05 2.268594339034e-07 0.0 
2.268594339034e-07 5.956704623471e-04 0.0 
0.0 0.0 -8.733333333333e-05 
-9.010725221013e-05 1.077984881025e-06 0.0 
1.077984881025e-06 5.491565562495e-04 0.0 
0.0 0.0 -9.066666666667e-05 
-9.710486836519e-05 -2.255663521806e-05 0.0 
-2.255663521806e-05 5.958483065018e-04 0.0 
0.0 0.0 -8.873639455782e-05 
-8.775248831606e-05 6.167278534911e-07 0.0 
6.167278534911e-07 5.967481919071e-04 0.0 
0.0 0.0 -8.733333333333e-05 
-9.103086627003e-05 -1.513341137134e-06 0.0 
-1.513341137134e-06 5.495772900249e-04 0.0 
0.0 0.0 -9.066666666667e-05 
-8.073249876148e-05 1.956568500794e-06 0.0 
1.956568500794e-06 5.676914892222e-04 0.0 
0.0 0.0 -8.540306122449e-05 
-8.729829704258e-05 -3.688701156799e-07 0.0 
-3.688701156799e-07 5.951865840250e-04 0.0 
0.0 0.0 -8.733333333333e-05 
-9.037940068144e-05 6.271206724163e-07 0.0 
6.271206724163e-07 5.487658884447e-04 0.0 
0.0 0.0 -9.066666666667e-05 
-8.327880964785e-05 3.397797209923e-06 0.0 
3.397797209923e-06 5.519081980575e-04 0.0 
0.0 0.0 -9.066666666667e-05 
-8.752124888667e-05 7.623016925715e-07 0.0 
7.623016925715e-07 5.955739018708e-04 0.0 
0.0 0.0 -8.733333333333e-05 
-9.119391855359e-05 1.735421697781e-06 0.0 
1.735421697781e-06 5.492228013243e-04 0.0 
0.0 0.0 -9.066666666667e-05 
-8.803840193151e-05 9.847285726832e-07 0.0 
9.847285726832e-07 5.964786609531e-04 0.0 
0.0 0.0 -8.733333333333e-05 
-9.156330581238e-05 2.666222241028e-07 0.0 
2.666222241028e-07 5.495997176964e-04 0.0 
0.0 0.0 -9.066666666667e-05 
-8.804761400916e-05 4.409974905671e-07 0.0 
4.409974905671e-07 5.960772025302e-04 0.0 
0.0 0.0 -8.733333333333e-05 
-8.073638837697e-05 3.015269661060e-06 0.0 
3.015269661060e-06 5.789040759249e-04 0.0 
0.0 0.0 -9.040306122449e-05 
-9.112505899787e-05 2.746880104957e-07 0.0 
2.746880104957e-07 5.493199630352e-04 0.0 
0.0 0.0 -9.066666666667e-05 
-8.810637350998e-05 6.151652775298e-07 0.0 
6.151652775298e-07 5.958963692618e-04 0.0 
0.0 0.0 -8.733333333333e-05 
-8.840895899809e-05 1.155447038660e-07 0.0 
1.155447038660e-07 5.965143081286e-04 0.0 
0.0 0.0 -8.733333333333e-05 
-9.164597760345e-05 8.836231120007e-07 0.0 
8.836231120007e-07 5.493625037381e-04 0.0 
0.0 0.0 -9.066666666667e-05 
-8.678154187969e-05 1.516005662498e-06 0.0 
1.516005662498e-06 5.914512376221e-04 0.0 
0.0 0.0 -8.733333333333e-05 
-9.368423993004e-05 -3.485429264516e-06 0.0 
-3.485429264516e-06 5.486941450264e-04 0.0 
0.0 0.0 -9.066666666667e-05 
-9.051085830770e-05 3.821512302252e-06 0.0 
3.821512302252e-06 6.011139986344e-04 0.0 
0.0 0.0 -8.733333333333e-05 
-8.623635069903e-05 1.130998903511e-05 0.0 
1.130998903511e-05 5.483505428446e-04 0.0 
0.0 0.0 -9.066666666667e-05 
-7.442069267613e-05 -5.394763382115e-06 0.0 
-5.394763382115e-06 5.345026645236e-04 0.0 
0.0 0.0 -8.706972789116e-05 
-8.056486673946e-05 -5.396645541003e-05 0.0 
-5.396645541003e-05 5.644717008348e-04 0.0 
0.0 0.0 -8.900000000000e-05 
-9.791450863527e-05 5.509961114953e-05 0.0 
5.509961114953e-05 5.954927673430e-04 0.0 
0.0 0.0 -8.900000000000e-05 
-8.633895364109e-05 -4.683164540594e-06 0.0 
-4.683164540594e-06 5.718841532106e-04 0.0 
0.0 0.0 -8.566666666667e-05 
-9.239018602622e-05 8.127448127221e-06 0.0 
8.127448127221e-06 5.860724498030e-04 0.0 
0.0 0.0 -9.233333333333e-05 
-7.782722797358e-05 -3.296902887833e-06 0.0 
-3.296902887833e-06 5.542989905497e-04 0.0 
0.0 0.0 -8.566666666667e-05 
-9.950603800529e-05 -1.732824840327e-05 0.0 
-1.732824840327e-05 6.532123038277e-04 0.0 
0.0 0.0 -9.733333333333e-05 
-9.845490008412e-05 -7.423843482372e-07 0.0 
-7.423843482372e-07 6.182720398665e-04 0.0 
0.0 0.0 -1.006666666667e-04 
-9.688680853064e-05 -2.101224633275e-06 0.0 
-2.101224633275e-06 6.650247464175e-04 0.0 
0.0 0.0 -9.733333333333e-05 
-1.012464655028e-04 -1.533092774878e-06 0.0 
-1.533092774878e-06 6.197292804394e-04 0.0 
0.0 0.0 -1.006666666667e-04 
-9.684752660582e-05 -6.274302712926e-08 0.0 
-6.274302712926e-08 6.662579141266e-04 0.0 
0.0 0.0 -9.733333333333e-05 
-1.011453118386e-04 1.046563005614e-06 0.0 
1.046563005614e-06 6.213209177569e-04 0.0 
0.0 0.0 -1.006666666667e-04 
-9.747297309875e-05 -2.278502078315e-06 0.0 
-2.278502078315e-06 6.683740764344e-04 0.0 
0.0 0.0 -9.733333333333e-05 
-9.931899188090e-05 -3.288065646636e-06 0.0 
-3.288065646636e-06 6.197642772278e-04 0.0 
0.0 0.0 -1.006666666667e-04 
-9.650639441643e-05 2.666172739854e-07 0.0 
2.666172739854e-07 6.659194579952e-04 0.0 
0.0 0.0 -9.733333333333e-05 
-1.000788983180e-04 1.910523566858e-06 0.0 
1.910523566858e-06 6.207688021561e-04 0.0 
0.0 0.0 -1.006666666667e-04 
-9.720852165412e-05 -4.164213939214e-07 0.0 
-4.164213939214e-07 6.678605235040e-04 0.0 
0.0 0.0 -9.733333333333e-05 
-1.005225329566e-04 -1.059277058645e-06 0.0 
-1.059277058645e-06 6.206711688955e-04 0.0 
0.0 0.0 -1.006666666667e-04 
-1.076654382393e-04 -2.454755873475e-05 0.0 
-2.454755873475e-05 6.666235465443e-04 0.0 
0.0 0.0 -9.871211211756e-05 
-9.677391887680e-05 3.262994796209e-07 0.0 
3.262994796209e-07 6.670349670739e-04 0.0 
0.0 0.0 -9.733333333333e-05 
-1.004112575968e-04 6.266382551746e-06 0.0 
6.266382551746e-06 6.238730393685e-04 0.0 
0.0 0.0 -1.006666666667e-04 
-9.691250726487e-05 3.272004711609e-06 0.0 
3.272004711609e-06 6.207526912737e-04 0.0 
0.0 0.0 -1.006666666667e-04 
-9.769753293670e-05 3.857908775590e-07 0.0 
3.857908775590e-07 6.683264731120e-04 0.0 
0.0 0.0 -9.733333333333e-05 
-1.018216783017e-04 -1.733271697638e-06 0.0 
-1.733271697638e-06 6.205292306068e-04 0.0 
0.0 0.0 -1.006666666667e-04 
-9.704606734811e-05 1.789783002985e-06 0.0 
1.789783002985e-06 6.661622647259e-04 0.0 
0.0 0.0 -9.733333333333e-05 
-1.018704888891e-04 2.872470909369e-06 0.0 
2.872470909369e-06 6.210028127133e-04 0.0 
0.0 0.0 -1.006666666667e-04 
-9.786058522026e-05 1.410942441991e-06 0.0 
1.410942441991e-06 6.680408138480e-04 0.0 
0.0 0.0 -9.733333333333e-05 
-1.006317600444e-04 1.941140312877e-06 0.0 
1.941140312877e-06 6.214755597104e-04 0.0 
0.0 0.0 -1.006666666667e-04 
-9.094846281658e-05 3.460693907673e-06 0.0 
3.460693907673e-06 6.387381401671e-04 0.0 
0.0 0.0 -9.537877878422e-05 
-9.822997247904e-05 5.655000512226e-07 0.0 
5.655000512226e-07 6.686847925497e-04 0.0 
0.0 0.0 -9.733333333333e-05 
-1.005721140742e-04 -4.771801101198e-07 0.0 
-4.771801101198e-07 6.209284532513e-04 0.0 
0.0 0.0 -1.006666666667e-04 
-9.779172566454e-05 1.437765353010e-06 0.0 
1.437765353010e-06 6.669881357659e-04 0.0 
0.0 0.0 -9.733333333333e-05 
-9.964754038308e-05 2.397319642453e-06 0.0 
2.397319642453e-06 6.203504795262e-04 0.0 
0.0 0.0 -1.006666666667e-04 
-9.942841041269e-05 6.330945354939e-06 0.0 
6.330945354939e-06 6.210142166029e-04 0.0 
0.0 0.0 -1.006666666667e-04 
-9.831264427012e-05 3.607920745624e-06 0.0 
3.607920745624e-06 6.668464283750e-04 0.0 
0.0 0.0 -9.733333333333e-05 
-1.003509065967e-04 3.038689806417e-06 0.0 
3.038689806417e-06 6.697580945376e-04 0.0 
0.0 0.0 -9.733333333333e-05 
-9.096542632604e-05 2.974368147523e-06 0.0 
2.974368147523e-06 6.503827388711e-04 0.0 
0.0 0.0 -1.003787787842e-04 
-8.451759272524e-05 -2.785279264380e-06 0.0 
-2.785279264380e-06 6.050107377767e-04 0.0 
0.0 0.0 -9.704544545089e-05 
-1.061297274301e-04 -4.871673269526e-05 0.0 
-4.871673269526e-05 6.458409108431e-04 0.0 
0.0 0.0 -9.900000000000e-05 
-9.597407948562e-05 5.882537232744e-05 0.0 
5.882537232744e-05 6.276346610407e-04 0.0 
0.0 0.0 -9.900000000000e-05 
-1.061722618288e-04 2.720032131649e-06 0.0 
2.720032131649e-06 6.459980937412e-04 0.0 
0.0 0.0 -1.023333333333e-04 
-9.572351935955e-05 9.504820778219e-06 0.0 
9.504820778219e-06 6.293354809804e-04 0.0 
0.0 0.0 -9.566666666667e-05 
-8.827880964785e-05 -4.615262033286e-06 0.0 
-4.615262033286e-06 6.261214177850e-04 0.0 
0.0 0.0 -9.566666666667e-05 

SCALARS element_materi_plasti_kappa_shear float
LOOKUP_TABLE default
2.847132974464e-04
2.567335577462e-04
8.383458615127e-04
8.438320912051e-04
5.252340220498e-04
1.092332508777e-04
5.211056369626e-04
2.682011350187e-04
5.284032086376e-04
8.364231581825e-04
5.721664887116e-04
2.192159031084e-04
8.427469438430e-04
5.626516430071e-04
8.591411753051e-04
8.596118674820e-04
5.228709310720e-04
9.890289689114e-05
1.829897689724e-04
1.694158919351e-04
8.423436282844e-04
2.963793359042e-04
3.324051967767e-04
8.081759085961e-04
6.000118969986e-04
6.135444959901e-04
4.831662702076e-04
8.640260917564e-04
6.044060870881e-04
8.284633969501e-04
1.393644665420e-04
6.157167640348e-05
8.645031697050e-04
7.227162512376e-04
8.409567717064e-04
8.889842858592e-04
8.867272022491e-04
8.401574712595e-04
4.762820424766e-04
4.829160232604e-04
3.784313710213e-04
8.419842235364e-04
1.971583877801e-04
4.640967896192e-04
8.239259452907e-04
1.959288160543e-04
8.321288766212e-05
8.084255947212e-04
3.689720172040e-05
5.421120849717e-04
3.571518168043e-04
2.245192715023e-04
1.849539392691e-04
3.438430703420e-04
8.437751075118e-04
2.946472074171e-04
2.169482347232e-04
7.261086015541e-04
1.365401986572e-04
8.602343425103e-04
5.633449810247e-05
8.068338246298e-04
3.495820234045e-04
1.625404768038e-04
8.423121318073e-04
3.196875078224e-04
2.407380933191e-05
8.605021510781e-04
1.455927549119e-04
8.423461725362e-04
6.362218458080e-04
8.811950242161e-04
8.101315001547e-04
6.837837458653e-05
2.980351712693e-04
8.450728483081e-04
8.650274645366e-04
1.497776459891e-04
1.164171881254e-04
1.495511738586e-04
1.394737434445e-04
4.994656174592e-04
3.126596433046e-04
2.656451840487e-04
5.512146343309e-04
5.478404078236e-04
6.543703068282e-04
7.066969326251e-04
7.292257809066e-04
5.182254199727e-04
3.772961361312e-05
5.068209088843e-04
7.023712359703e-04
7.053137767572e-04
9.034935541177e-04
8.681099508839e-04
4.998503861448e-04
8.654654996241e-04
5.895620793702e-04
3.387865222816e-04
5.023282053966e-04
8.610484090904e-04
6.969273947015e-04
8.114912522944e-04
3.066747276919e-04
1.031286558348e-04
7.940042257422e-04
7.514569823258e-04
6.199677439276e-05
8.454993593349e-04
6.946613572604e-04
4.904031993171e-05
4.043465054525e-04
4.701260917007e-04
3.591769958220e-04
3.010429561774e-04
3.537650535641e-04
8.520744351586e-04
5.793631570773e-04
3.261491376649e-04
1.418039967851e-04
5.194733326263e-04
7.366211917707e-04
3.289742658715e-04
1.029625399055e-04
4.250840810499e-04
3.733497519716e-04
3.937484836423e-04
8.617156175713e-04
1.214391796965e-04
6.025351137927e-04
8.438264723838e-04
4.251430981113e-04
4.028071146060e-04
8.421798094545e-04
8.449973380302e-04
6.540085342923e-04
4.550812470554e-04
8.653037555385e-04
4.073208974334e-04
8.427923186268e-04
8.640045548534e-04
5.578310155526e-04
6.509573146725e-04
4.117138516470e-04
3.711211770560e-04
4.681101004950e-04
3.518672901193e-04
5.147824992523e-04
4.107193794640e-04
3.646113790962e-05
5.532223658631e-04
1.258155624666e-04
4.487912821367e-04
8.442761777728e-04
3.036097253508e-04
6.795876328870e-04
2.190343751187e-04
6.939470314270e-04
5.021535652402e-04
3.806977165922e-04
7.481063603695e-04
1.298522692207e-04
7.928147477738e-04
5.039709184499e-04
8.650019251011e-04
5.013582088109e-04
3.160516627979e-04
4.393239970158e-04
5.920825198174e-04
2.289923969885e-04
3.854224720753e-04
6.780718451191e-04
5.198603884199e-04
3.586956886529e-04
4.169796386473e-04
7.560276412873e-04
4.159140997811e-04
8.428055575623e-04
8.639767009483e-04
2.975132247583e-04
3.989799041527e-04
7.712498508064e-04
3.945945745463e-04
2.576819868644e-04
4.854060291149e-04
3.951341740237e-04
8.456558194475e-04
7.010154264104e-04
7.714816593418e-04
1.746707301352e-04
3.610997931363e-04
7.204647992586e-04
1.945331205908e-05
3.903836025195e-04
7.222445599691e-04
1.036327141325e-04
8.424473339204e-04
6.428453457772e-04
3.831449392291e-04
7.193613777923e-04
5.586004203897e-04
5.898087867421e-04
8.246624455494e-04
2.857235697232e-04
4.866694704310e-04
5.222557039026e-04
6.732665719341e-04
5.326319802480e-04
4.881655111683e-04
6.257681940146e-04
7.388362075692e-04
5.690614774354e-05
2.917017983456e-04
3.317775165376e-04
4.735931798939e-04
7.340526410142e-04
1.447054251006e-04
6.965604954019e-04
5.013674676710e-04
3.566918662294e-04
6.715636749960e-04
6.571013662794e-05
6.877012871154e-04
5.549518836130e-05
8.040745949318e-05
1.732184497000e-04
2.392003364027e-04
7.177475001527e-04
2.320046903568e-04
2.075153724814e-04
1.800041788403e-04
1.507998795129e-04
7.424671531813e-04
5.071426105021e-04
8.446796247734e-04
0.0
2.497594834345e-04
4.009784043095e-04
3.635781274630e-04
6.932515688423e-04
8.647303225506e-04
6.886146806345e-04
2.931670056878e-04
7.441379809633e-04
6.308353337863e-04
4.980516236996e-04
6.615635321969e-04
8.261379668094e-04
4.064024309512e-04
2.371048478647e-04
5.754464620744e-04
9.026357122934e-04
4.917413561400e-04
5.134823346619e-04
5.630191156583e-04
1.329471826665e-04
5.277021269871e-04
2.878196777098e-04
1.938006262720e-04
1.362334838042e-04
7.132570322814e-04
5.514544182274e-04
3.441653812797e-04
7.429062318585e-04
7.078085783757e-04
5.222121837301e-04
8.463050092743e-04
5.284876028695e-04
5.460070011469e-04
4.376131710040e-04
5.575789166973e-04
2.377977007102e-04
5.035541614816e-04
4.257154416742e-04
3.011811086088e-04
6.820805742593e-04
2.384378149136e-05
5.562902183290e-04
3.071842567668e-04
2.550196540710e-04
2.439773196071e-04
5.894366693464e-04
9.570931057482e-05
3.576303071845e-04
5.731391386351e-04
5.461339597621e-04
5.616867596350e-04
1.271009961872e-04
2.958157551279e-04
2.761694005421e-04
3.216903735558e-04
6.680530276719e-04
3.637979337747e-04
3.949989305544e-04
3.759115002993e-04
1.575634516332e-04
4.501668004302e-04
1.708993772794e-04
9.019026024371e-04
9.023973057295e-04
5.057511345693e-04
2.631127598012e-04
2.307674832005e-04
5.600193776098e-04
2.500946570906e-04
2.700679866253e-04
4.922948739685e-04
8.667616329614e-04
3.318462296128e-04
6.222149882880e-04
1.830371105394e-04
9.023475672024e-04
2.441397582287e-04
5.112104398270e-04
1.689503966276e-04
6.053623747982e-04
4.196544349858e-04
2.903890059932e-04
5.270871447235e-04
9.021440381368e-04
3.510699855254e-04
5.781821550489e-04
1.886309360797e-04
6.316875196563e-04
6.668857487106e-04
2.624435093985e-04
6.164660003841e-04
9.026438880277e-04
7.124911027791e-04
9.030006616607e-04
6.099328680256e-04
7.015574955173e-04
2.180182464546e-04
4.840383207087e-04
5.408811792003e-04
5.701871426172e-04
4.675332375955e-04
9.035883904622e-04
5.850053230518e-04
5.141279373987e-04
3.811690988531e-04
1.956242149518e-04
4.646237938930e-04
2.742553589397e-04
5.220512861019e-04
2.960117191843e-04
3.368501384635e-04
7.076177555195e-04
2.798327001462e-04
4.981195041245e-04
5.922020028832e-04
5.249691217824e-04
9.022141612185e-04
4.195717744466e-04
2.760615473356e-04
3.714756492195e-04
2.666495641069e-04
2.573536274962e-04
7.531436391681e-04
5.406886875803e-04
3.691632618911e-04
4.556110258937e-04
9.030518011548e-04
8.532871781874e-04
7.461245423291e-04
6.934880992847e-04
5.105698072065e-04
3.813116805693e-04
2.690679185397e-04
3.126694468458e-04
5.164893174634e-04
5.919748660066e-04
4.476339003619e-04
7.537614717665e-04
2.814322894241e-04
4.431267281225e-04
5.162384399113e-04
3.994083330778e-04
9.019027868778e-04
9.024199943996e-04
8.466674059490e-04
5.551721733312e-04
7.381697029613e-04
2.318050061718e-04
3.566133739436e-04
2.004113789535e-04
3.876518657495e-04
5.007689008681e-04
6.066206779727e-04
8.634617584911e-04
7.387016338322e-04
5.700145676085e-04
5.843478329972e-04
2.129102317008e-04
9.963202888369e-05
4.255642556790e-04
4.864892581303e-04
4.557093610505e-04
1.015080950596e-04
5.392744089157e-04
1.864447400827e-04
2.686669338435e-04
8.829401381496e-04
6.479849204365e-04
5.101152900271e-04
1.402250907171e-04
4.625920286436e-04
4.307827734044e-04
5.943113921106e-04
9.027611341500e-04
4.797580040648e-04
5.649702214781e-04
4.419535104601e-04
7.334092120784e-04
5.703474346401e-04
9.028672049198e-04
8.818149095568e-04
8.812004500203e-04
8.770344726619e-04
6.086454399872e-04
7.380884957385e-04
7.670249911297e-04
3.946547610248e-04
3.761808931614e-04
4.220813725199e-04
7.589723938571e-04
9.023328764655e-04
7.577932565223e-04
6.026760527823e-04
7.626774697069e-04
6.606437481449e-04
4.567756297563e-04
3.825801685651e-04
2.007576887360e-04
8.470469883245e-04
3.704624717408e-04
8.076533810370e-04
4.162571300339e-04
2.699749840163e-04
8.434505841465e-04
2.924500070844e-04
8.816442479766e-04
8.452247512919e-04
5.545088614739e-04
3.473443607641e-05
8.815269345483e-04
8.437795076668e-04
2.644715325930e-04
6.230832692165e-04
9.043633052623e-04
0.0
4.136686690805e-04
5.789929662664e-04
5.300876254499e-04
5.356595073985e-04
2.252617715596e-04
8.806829294995e-04
4.006991802615e-04
1.303841541133e-04
8.663125818618e-04
6.051131586377e-05
4.315774978662e-04
1.176867923368e-04
4.596515473754e-04
9.012311898413e-04
8.829625409697e-04
5.653646595553e-04
8.124087917367e-05
9.994837872237e-05
1.389614691644e-04
7.526188084607e-04
5.232481456078e-04
5.352467886841e-04
8.832777862969e-04
5.239926934470e-04
9.034954834455e-04
6.742815143354e-04
5.863949273689e-04
2.820464387522e-04
6.178481751699e-04
1.825530642902e-04
8.832148814275e-04
8.787933827960e-04
8.806921593160e-04
5.756624678762e-04
3.963242992692e-04
4.623808742286e-04
5.898300044950e-04
8.827105655163e-04
2.739608454354e-04
3.152297798322e-04
3.346486994201e-04
6.118815291473e-04
9.031087235632e-04
9.826315240639e-05
8.806359177385e-04
3.091995583178e-04
8.830701307018e-04
7.737556814763e-04
2.602550826630e-05
4.315307198807e-04
7.678889909001e-04
8.823867652728e-04
6.136211757286e-04
6.941437612341e-04
1.584089862020e-04
8.072406538752e-04
3.285549430036e-04
3.399738602395e-04
6.350089245098e-05
8.815166830728e-04
2.259416864064e-04
7.443039276558e-04
5.669420517884e-04
2.830302926058e-04
3.206987936709e-04
5.893066187854e-04
8.831255390234e-04
4.112126309151e-04
6.461218310913e-04
5.245062035981e-04
5.860608677982e-04
3.451263767299e-04
6.003773440688e-04
5.107552153637e-04
6.659208771778e-04
6.625383459481e-04
5.000360828217e-04
4.220154532181e-04
2.979654696955e-04
3.903746207876e-04
6.804313980790e-04
5.475016889342e-04
9.031543334572e-04
7.872511197512e-04
2.513213857487e-04
8.791428665884e-04
8.623865534780e-04
4.695549206328e-04
3.669236207070e-05
9.023712677026e-04
7.825243345501e-04
2.836634880462e-04
8.808658468444e-04
6.210975252764e-04
4.005662234096e-04
5.509439591359e-04
5.333534302821e-04
5.303907689406e-04
6.114043158285e-04
6.485756697789e-04
4.497226363466e-04
6.883221258394e-04
5.985234349652e-04
4.277851164570e-04
6.370445780655e-04
3.335340985590e-04
5.972217102501e-04
2.690095818511e-05
3.234473257319e-04
3.145667651333e-04
4.619525145775e-04
4.941683527065e-04
6.157927676169e-04
5.953076823754e-04
2.893667186736e-04
8.829502872488e-04
5.841509097848e-04
4.814294041828e-04
5.596214459887e-04
4.676664971932e-04
0.0
5.801676505400e-04
3.844985916664e-04
0.0
4.554300220234e-04
6.611400294946e-04
7.615386503395e-04
5.667217612568e-04
5.798125605848e-04
4.946399896661e-04
4.612945919967e-04
8.448933154629e-04
5.351237915901e-04
2.265059230248e-05
1.593136185292e-04
3.598215869650e-05
2.756541644964e-04
7.595674519950e-04
7.663452637067e-04
7.206272217663e-04
3.111805889127e-04
6.034032161237e-04
7.573752906356e-04
1.740144548794e-04
3.864583664951e-04
3.117083041406e-04
9.031633853049e-04
8.822228944503e-04
4.285735382123e-04
4.870038452020e-04
5.444247428616e-04
7.843706278062e-04
1.688678543700e-04
7.320309974875e-04
1.024779424926e-04
4.424111468176e-04
4.932536473152e-04
3.661873855527e-05
4.046650665538e-04
7.818962903618e-04
2.628493764547e-05
4.594828512294e-04
4.812071489687e-04
6.367624673799e-04
3.155481759348e-04
3.029147364412e-04
2.132280228371e-04
7.837934729915e-04
8.448257163848e-04
7.363444438744e-04
2.851623301377e-04
1.072863423375e-04
4.603504121984e-04
4.608177344525e-04
4.831872055831e-04
0.0
3.555241354687e-05
7.966173186171e-05
2.342846998403e-04
6.373569268983e-05
4.549076851565e-04
0.0
2.796945326255e-04
6.183777696222e-04
4.824258644607e-04
7.814158546744e-04
6.352076666034e-04
5.781612852690e-04
3.372841396968e-04
1.018092465349e-04
8.804341959841e-04
9.035439950554e-04
5.614027168615e-04
4.616000397093e-04
3.431731325220e-04
9.014339937115e-04
2.659509024599e-04
4.803513075401e-04
4.596149613707e-04
4.369192074101e-04
8.832852469207e-04
9.009032309479e-04
6.250414495270e-05
0.0
1.266214781953e-04
4.876279566065e-04
8.196533199701e-04
2.444433938167e-05
7.274110977346e-04
0.0
6.250843933025e-04
2.867078562402e-05
2.783203544243e-05
5.997115799954e-04
7.944815531001e-04
6.355701656843e-04
4.791132808813e-04
3.652595870710e-05
6.229816343343e-04
8.791826602914e-04
9.014687340808e-04
4.821873124554e-04
6.503883133201e-04
8.818062794857e-04
6.993504510242e-04
9.789390783998e-05
6.279365927203e-05
3.939974307887e-05
3.825618914400e-04
9.021047273405e-04
8.443030366409e-04
0.0
4.516920689161e-04
8.837977955305e-04
9.047268419961e-04
9.014166279866e-04
6.824648899155e-04
7.516239818066e-04
8.796515991076e-04
8.818821043928e-04
7.273160736883e-04
2.211575098140e-05
4.787532764467e-04
4.846356056311e-04
0.0
8.847559387122e-04
9.037195635447e-04
8.791881994104e-04
2.812709352533e-05
2.886337119670e-05
8.807302274622e-04
8.799262388240e-04
6.606959234620e-04
4.786921816039e-04
7.045004432885e-04
5.666139951839e-04
4.780950833957e-04
2.553609013369e-05
2.943212211666e-05
2.487007266475e-05
2.712132983020e-05
4.772021594015e-04
4.286502641088e-04
0.0
6.145195953194e-04
0.0
8.800821581416e-04
8.788987143881e-04
8.809194080868e-04
1.543232978874e-04
2.904945093705e-04
8.796413922759e-04
7.525259440061e-04
8.837915350881e-04
7.992262474011e-04
8.460368269156e-04
4.052497561465e-04
9.034475555497e-04
9.025505378386e-04
7.709083270601e-04
8.195089923752e-04
6.617362762152e-04
0.0
4.176416125064e-04
6.092826118018e-05
7.888929342564e-04
4.363249681698e-04
7.275214838645e-04
2.209065391860e-04
8.130906403886e-05
7.783803544764e-04
4.610171208733e-04
3.609674789086e-04
7.334454872421e-04
7.883388593484e-04
3.608088371091e-04
6.922006084626e-04
6.034876983327e-04
6.562206089320e-04
6.777106223571e-04
3.699030016403e-04
4.367455166762e-04
4.808107450877e-04
6.170029851944e-04
7.543946188843e-04
6.998918906108e-04
2.236916744938e-04
7.865894495829e-04
7.412777532416e-04
5.338023001125e-04
6.428876137913e-04
6.366868729429e-04
7.982659732682e-04
7.683299234494e-04
5.896655507063e-04
7.981209395123e-04
7.317182777283e-04
6.996282799597e-04
8.110166413215e-04
7.924641880625e-04
6.744131504159e-04
6.666687721535e-04
2.222812676772e-04
2.065367340502e-04
1.125541859685e-04
6.237733767345e-05
7.698425966602e-04
7.679810230490e-04
6.018528781591e-05
7.767838420586e-04
5.508431979073e-04
7.139111020130e-04
7.225345758280e-04
3.210916204918e-04
7.277792051553e-04
5.345154592761e-04
6.681973168260e-04
8.270717611794e-04
2.126569924615e-04
8.168359037540e-04
6.998709092975e-04
2.419277465397e-04
2.572139128868e-04
5.157383088969e-04
6.206435762795e-04
3.445305893728e-04
7.246223149107e-04
6.508258121004e-04
5.014012835763e-04
6.818156971164e-04
7.083328473163e-04
6.952144219196e-04
1.892569743241e-04
4.759731321316e-04
7.583758524429e-04
7.205684773619e-04
4.286991399852e-04
6.094148028769e-04
7.977133214395e-04
6.694832793452e-04
1.063908867657e-04
1.078325644387e-04
2.185995729447e-04
7.487063186168e-04
6.453888805748e-04
5.685571839540e-04
5.747340170202e-04
7.632873978513e-04
5.213198554590e-04
7.022694847875e-04
2.278532579141e-04
8.104690401052e-04
5.072778477496e-04
2.493887876613e-04
4.811363962896e-04
3.641239825016e-04
2.855768811343e-04
5.596568083914e-04
0.0
0.0
6.426259570283e-04
2.090044132862e-04
6.487981239576e-04
6.292228741945e-04
3.962033144448e-04
2.579044153745e-04
7.616473441749e-04
1.019762165520e-04
3.852520764996e-04
7.853811998397e-04
1.733076863571e-04
6.041255787992e-04
5.562754309982e-04
1.755785073398e-04
7.771304788849e-04
6.907987842018e-04
2.031638653013e-04
7.812508794649e-04
7.761681869909e-04
2.340588006308e-04
3.099693431780e-04
2.401902132467e-04
6.877850878179e-04
5.412899770906e-04
7.773630800326e-04
7.570625316910e-04
6.683791686238e-04
6.625290522613e-04
1.893340517518e-04
6.820308372633e-04
6.862847063831e-04
5.467902184326e-04
6.498698714300e-04
7.159072219897e-04
4.836380743717e-04
7.367030404168e-04
4.559169101876e-04
5.273150536082e-04
3.411674526490e-04
3.634633618335e-04
6.658946142908e-04
5.048839066709e-04
2.598481237302e-04
1.310675626010e-04
6.702674056581e-04
2.538844621688e-04
8.100545142142e-04
6.906694072020e-04
7.081089564605e-04
8.422326803080e-04
4.360105328501e-04
2.279423584864e-04
1.438342882826e-04
6.746645813760e-04
6.253129879063e-04
9.918819555369e-05
3.502385490956e-04
2.023555415197e-04
6.246699331793e-04
3.695628740598e-04
6.232537801749e-04
3.438500574503e-04
7.461722125166e-04
2.994852823397e-04
6.807902368991e-04
2.134297640903e-04
6.549102842848e-04
5.031003560477e-04
6.885245121902e-04
3.402916395449e-04
1.961866029563e-04
5.822861240524e-04
6.308362435894e-04
4.380632245669e-04
6.281676019648e-04
2.380403549024e-04
6.367384190698e-04
1.839508450066e-04
7.725002622058e-04
6.561620715166e-04
6.933815038025e-04
8.092250112126e-04
5.501611933615e-04
1.836188012187e-04
6.153653481655e-04
7.923633784811e-04
3.086645625323e-04
6.943493645374e-04
6.953376833628e-04
2.383737125918e-04
6.351661673105e-04
5.732469191631e-04
2.731502544442e-04
3.307497968412e-04
5.297758459477e-04
6.688023425968e-04
4.058187172305e-04
5.054096064123e-04
6.614441040854e-04
5.998784189862e-04
5.910883509517e-04
4.972646323121e-04
7.574466861930e-04
5.955283378909e-04
5.798186174699e-04
8.003940697799e-04
7.180161900282e-04
6.490287924266e-04
7.113553544645e-04
3.823555630989e-04
3.565404549641e-04
1.953976897051e-04
6.410050228313e-04
3.763189430417e-04
6.449063337001e-04
6.199045494020e-04
5.084125206731e-04
3.051454170769e-04
3.258730291925e-04
3.248932828681e-04
3.506411482378e-04
2.087274372249e-04
7.378551383479e-04
4.282574386795e-04
7.412552030348e-04
4.541815597642e-04
6.095351943613e-04
5.187506594856e-04
4.997510169959e-04
2.146153585684e-04
7.711538397404e-04
8.079476018067e-04
6.361701368165e-04
3.764967077337e-04
5.641220258623e-04
6.406080403220e-04
4.020423173836e-04
4.195882062222e-04
3.055816158326e-04
2.636950223364e-04
4.082271319947e-04
2.736025990170e-04
2.537953830401e-04
5.245273162057e-04
6.292993035880e-04
7.492900454241e-04
3.203758316606e-05
4.405577458711e-04
4.346027194587e-04
4.023785191973e-04
6.155232675037e-04
4.734346387430e-04
3.196066524516e-04
4.342139395113e-04
7.163087986927e-04
3.260933403649e-04
1.168244718053e-04
1.647945889040e-04
2.770873895178e-04
3.310730520104e-04
4.602757153186e-04
4.600207765890e-04
1.928157764076e-04
1.707341749778e-04
5.895058594021e-04
2.797745439378e-04
7.062976887918e-04
7.244525292788e-04
5.994482200641e-04
7.479362706432e-04
7.722073383501e-04
4.891222082220e-04
6.801196645123e-04
2.186358735565e-04
4.535223376976e-04
4.450813002302e-04
2.467733830818e-04
1.750442891068e-04
3.704464435431e-04
4.405809917950e-04
4.660198440887e-04
2.935158266565e-04
4.992118488517e-04
4.465362306875e-04
4.659568211177e-04
3.372178723478e-04
6.620913788087e-04
6.659627664384e-04
4.464589383721e-04
7.516390930913e-04
2.441816649308e-04
8.072504021232e-04
4.795300791222e-04
8.017371460895e-04
6.085549533664e-04
2.321228935279e-04
6.185852731565e-04
7.630767509020e-04
5.051417859831e-04
3.661414466216e-04
6.376993777508e-04
4.811178594329e-04
1.857807587189e-04
8.390465361483e-04
1.628736303485e-04
8.036589317589e-04
7.822328340233e-04
6.817113985780e-04
5.944690303378e-04
7.324063707552e-04
4.717283072585e-04
5.530050660420e-04
7.919782093495e-04
6.749206336022e-04
6.866667910661e-04
6.457616521014e-04
2.126152465348e-04
7.069826387246e-04
8.629714234730e-04
7.993865070988e-04
4.477431927428e-04
5.982374328927e-04
5.702467583064e-04
4.852758503030e-04
6.550541832802e-04
6.806275031618e-04
1.495582113029e-04
2.819536409307e-04
4.719088448474e-04
4.524404810498e-04
4.753774359264e-04
8.204202764357e-04
7.726022105671e-04
7.860269249390e-04
4.302864262974e-04
7.179879766962e-04
6.608709654568e-04
7.991666135651e-04
6.815066276248e-04
4.792430800077e-04
4.524987585418e-04
7.025482517895e-04
7.779314873333e-04
7.070226180185e-04
6.822309135255e-04
7.465300404061e-04
7.826368761699e-04
7.260240088116e-04
5.837814341675e-04
4.125387530949e-04
7.065160572798e-04
6.683788434956e-04
2.478373517059e-04
4.777284192442e-04
5.353515613939e-04
5.977625510039e-04
2.507745920709e-04
4.583293862520e-04
6.426616075672e-04
4.741323037944e-04
4.930461985426e-04
6.351704220665e-04
5.035899061353e-04
8.748336872995e-05
5.699093729231e-04
6.954848808431e-04
7.976626568000e-04
5.222109466484e-04
5.384171766190e-04
6.412047717611e-04
1.333587154635e-04
6.759698665895e-04
5.725287969111e-04
5.032199876639e-04
6.864279124225e-04
2.514950635447e-04
7.120564692623e-04
7.780948302509e-04
6.564610749456e-04
7.116821158201e-04
7.246360851013e-04
7.833643354194e-04
1.802790547338e-04
6.612816129093e-04
7.861355491829e-04
7.278229343817e-04
6.115797601383e-04
4.833414631771e-04
5.268286526492e-04
1.425296761520e-04
7.526132568008e-04
2.678943445110e-04
2.211120256558e-04
7.044851606333e-04
8.041173484503e-04
2.253293374700e-04
5.541855973425e-04
6.771406016496e-04
5.185055617143e-04
2.565916003583e-04
3.358426263350e-04
1.654267237843e-04
2.195587793392e-04
1.948064560472e-04
5.668209511317e-04
9.024478657275e-04
2.656438147348e-04
7.662341416689e-04
4.141061097714e-04
6.566720836641e-04
1.877799869201e-04
8.084989395093e-04
1.994569434083e-04
3.140464818660e-04
6.820386484981e-04
4.908002713549e-04
7.628181862507e-04
3.758479425673e-04
6.979283655874e-04
7.957911377227e-04
6.571731431381e-04
8.029731230695e-04
7.270515574910e-04
7.476451225947e-04
2.191637260577e-04
7.397348748796e-04
6.976508043859e-04
5.085012302089e-04
3.119003519742e-04
8.251246623771e-04
2.569217320374e-04
2.989728286296e-04
7.328562567959e-04
1.824812964156e-04
5.242757088580e-04
7.013386659934e-04
7.908799406318e-04
8.131260850100e-04
6.875825611049e-04
7.527048348784e-04
4.392290927810e-04
7.101308226447e-04
3.576610988848e-04
7.839173444398e-04
4.037880571281e-04
4.232159837033e-04
5.029022043263e-04
4.507734252293e-04
5.870500808989e-04
4.752244134070e-04
5.026363052125e-04
2.249310114461e-04
4.776453301647e-04
7.733738486002e-04
7.976476035845e-04
6.945548351068e-04
7.772416007150e-04
4.852334699188e-04
7.428006378953e-04
4.970035832582e-04
7.593068717160e-04
7.224411528600e-04
7.227149131648e-04
6.309607774765e-04
4.584456414079e-04
7.531944029664e-04
6.034972236900e-04
2.308119231500e-04
2.624460620044e-04
3.872761120802e-04
5.489843774695e-04
7.797820896700e-04
7.023632392718e-04
4.641088760791e-04
6.218312804433e-04
7.219008359154e-04
7.573917115974e-04
7.785266204009e-04
6.280166874005e-04
7.383877363914e-04
5.278638301658e-04
7.262918204668e-04
5.188928070716e-04
7.977154867570e-04
8.063595481927e-04
5.860927408408e-04
2.315643799225e-04
7.386133228481e-04
5.676947967437e-04
4.449348027813e-04
6.172626666964e-04
7.179827493323e-04
2.370266014843e-04
5.414414582278e-04
6.328258620691e-04
7.852987061870e-04
6.515827953541e-04
7.191722898294e-04
6.137788463093e-04
5.757943947390e-04
6.225247935544e-04
7.525361268811e-04
7.265450907645e-04
6.730854564585e-04
8.087327558910e-04
5.947165434318e-04
3.757083337357e-04
7.690299236002e-04
8.027797653313e-04
5.132285230033e-04
5.378259550272e-04
4.198490164914e-04
6.932498007595e-04
4.196989786401e-04
6.013383056530e-04
4.244065472614e-04
7.076412824923e-04
8.082825049946e-04
4.390606027736e-04
1.483230989868e-04
8.029617023960e-04
4.435164002791e-04
5.102475381477e-04
7.829133683486e-04
6.777367698023e-04
7.065388141309e-04
4.506750626244e-04
1.167461404750e-04
8.120451166423e-04
5.678324770761e-04
6.713655535843e-04
7.707853918245e-04
7.492364537136e-05
7.006400612350e-04
3.174082064534e-04
6.321144681099e-04
5.639974680990e-04
4.332125152761e-04
7.650774128591e-04
5.816219672421e-04
3.891223975006e-04
5.975818898240e-04
1.224806412890e-04
6.853035704159e-04
7.134125102004e-04
8.179492543020e-04
7.297421601193e-04
3.065079168190e-04
7.004003726196e-04
8.165253916176e-04
8.479924542833e-04
7.386332535642e-04
4.696607101220e-04
6.412724926972e-04
7.730297312435e-04
5.224557452220e-04
6.991686312028e-04
6.522881639181e-04
7.454810025326e-04
7.319099201394e-04
4.592718609033e-04
4.589748948830e-04
6.632348156822e-04
6.550643866417e-04
5.839389106664e-04
6.520225668259e-04
5.568349206801e-04
7.827592798598e-04
4.641682869918e-04
9.023985271437e-04
5.323389960366e-04
5.433977192185e-04
5.581483784777e-04
2.876533767836e-04
4.987925639303e-04
6.113280308229e-04
5.734936793023e-04
6.486149626944e-04
6.664011184541e-04
6.953526663877e-04
1.412062264109e-04
4.675204502198e-04
4.485143747990e-04
6.274607649306e-04
6.578443530004e-04
7.694390836844e-04
2.018827599834e-04
2.118548485698e-04
5.434196226545e-04
4.731655300953e-04
4.306957946138e-04
4.543511483622e-04
6.528939094235e-04
2.067591147696e-04
5.327937831684e-04
7.010212531473e-04
2.056531891882e-04
8.439841012356e-04
7.711259233898e-04
5.127813030370e-04
7.142204993727e-04
8.010879403205e-05
6.760026335023e-04
5.731440943210e-04
7.848797575394e-05
7.668831780950e-04
1.937244266693e-04
6.327922999710e-04
5.785286832994e-04
4.968174943866e-04
5.956127873224e-04
7.880861604784e-04
6.409960854337e-04
5.623311144195e-04
5.487641104452e-04
6.109272857415e-05
1.629874435700e-04
7.482510755206e-04
6.040877386252e-04
7.640917445135e-04
3.123204989809e-04
7.273523556962e-04
7.747935678475e-04
4.649937047846e-04
7.426717535746e-04
7.200303897050e-04
6.303284010484e-04
5.129756421741e-04
5.441585730997e-04
8.113189037915e-04
5.503878304791e-04
5.924281748206e-04
5.531250535128e-04
6.865936238777e-04
5.186424646122e-04
3.204813496190e-04
5.606647508770e-04
3.450779890533e-04
6.470302402465e-04
3.505252796099e-04
6.277520247305e-04
7.587948185470e-04
7.268103064184e-04
4.888355696636e-04
6.236801479114e-04
7.339558663339e-04
7.397456106695e-04
1.647892676569e-04
6.415300113061e-04
8.022742046257e-04
3.412132358055e-04
5.581165807734e-04
8.708025055710e-05
7.535189856760e-04
3.010719485934e-04
5.274804108231e-04
6.673026496075e-04
6.282397646401e-04
5.981992314315e-04
5.868815627898e-04
3.840091498006e-04
4.074033715262e-04
7.595591585227e-04
6.255621355899e-04
5.413215478798e-04
6.709724982699e-04
5.163063894937e-04
3.315774455480e-04
3.763959762493e-04
5.615934434708e-04
4.817973037771e-04
7.326130562771e-04
4.941499276580e-04
8.205042127968e-04
7.452468947420e-04
5.472972600878e-04
8.312900741524e-04
3.699819044739e-04
8.018291199323e-04
5.922723470957e-04
6.492908331354e-04
7.668482132430e-04
3.896525471501e-04
6.172543904820e-04
5.220226255599e-04
6.028779115149e-04
3.408590409728e-04
6.699987248021e-04
4.909242862165e-04
5.778210378881e-04
5.978296419795e-04
8.229029560999e-05
5.981137410256e-04
1.283223021349e-04
1.425604046919e-04
5.519635169088e-04
7.343432326655e-04
6.172079870032e-04
3.390874049380e-04
8.835512891396e-04
3.541794485888e-05
3.613399971481e-04
5.544855267789e-04
5.326254913468e-04
4.424845602747e-04
3.782682788717e-04
5.798739096979e-04
6.167777849602e-04
6.437007506706e-04
7.590632464972e-04
1.759096795290e-04
5.070291229362e-04
5.467926510370e-04
2.917605163705e-04
4.894986857120e-04
6.227812367473e-04
6.771752748072e-04
1.001730422140e-04
6.527003657202e-05
2.035166912421e-04
5.524955955532e-04
4.141708406182e-04
3.646770521929e-04
3.255364608925e-04
5.717928128404e-04
6.564800500114e-04
5.666644769925e-04
4.085506308660e-04
6.465993337185e-04
5.417387641994e-04
7.125425157821e-04
5.723661868930e-04
5.777202621077e-04
2.916076193924e-04
4.336480661839e-04
5.858412025591e-04
6.379366452071e-04
5.991263956497e-04
3.166301193058e-04
5.916947495787e-04
3.585996022864e-04
1.686121238923e-04
8.065430386563e-04
1.781249146415e-04
3.724154870578e-04
5.819798147523e-04
3.300189918571e-04
5.928518961627e-04
2.717893358977e-04
5.034514971512e-04
5.975048584584e-04
5.161248570229e-04
5.386329409282e-04
8.667360441849e-05
7.766355700003e-04
4.278027150325e-04
7.709884658024e-04
6.554981013868e-04
6.113729652278e-04
6.169416889889e-04
3.837801442347e-04
1.206709874370e-04
7.269670928316e-05
6.307319205139e-04
7.666183021714e-04
3.527221907689e-04
6.608281624570e-04
3.135411494528e-04
6.715213762121e-04
8.631320342243e-04
2.443176703526e-05
8.829965077119e-04
8.852121263970e-04
5.187863560737e-04
4.219301114264e-04
6.361517130024e-04
3.946797178832e-04
1.259295258068e-04
6.663094765465e-05
8.124043100395e-04
6.435964837156e-04
4.857059802391e-04
9.024611897643e-04
2.289087475018e-04
9.032106261994e-04
6.378439507150e-04
4.156051056860e-04
6.056962681492e-04
3.904754317435e-04
1.913315701783e-04
3.651077128310e-04
6.756031953244e-04
7.724144175276e-04
3.966058680347e-04
6.856021964007e-04
0.0
4.025686827041e-04
7.139120631654e-04
3.570731400853e-04
3.273347299656e-04
6.111873319657e-04
1.714241601602e-04
2.420040212522e-04
2.712090176002e-04
3.127039070016e-04
5.608332313648e-04
5.328849272093e-04
6.902231196026e-04
8.080955017943e-04
2.842556977963e-04
6.821682045895e-04
8.109606697113e-04
3.645861892778e-04
1.258230046435e-04
3.462855414954e-04
5.351169772372e-04
6.908562819823e-04
5.298709099370e-04
1.475829349837e-04
6.052995487488e-04
2.176340386909e-04
5.379426478049e-04
5.747509196573e-04
6.255223732288e-04
6.198429424376e-04
3.190834650638e-04
1.430237184057e-04
6.204770996910e-04
2.385014860191e-04
5.727538746632e-05
8.088933360730e-04
7.702342677557e-04
3.537830069708e-05
6.503365910815e-04
2.479462791813e-04
2.600158871832e-04
7.304280687047e-04
6.303423890784e-04
7.052277971026e-04
4.085225165101e-04
4.822303009211e-04
8.428341203802e-04
2.144184038726e-04
7.491156234450e-04
5.624077246742e-04
1.620147722767e-04
6.703416370318e-04
4.275751542475e-04
7.844671194514e-05
3.593652216936e-04
6.605802268349e-04
6.829403826903e-04
1.683856497506e-04
5.389059366488e-04
7.114080209456e-04
7.412554945830e-04
3.386366915786e-04
2.659836531276e-04
5.773807037095e-04
6.106537074396e-04
7.794080869892e-05
8.647472179011e-04
8.429320017221e-04
5.419416684599e-04
8.464641737961e-04
8.449768812639e-04
4.218473016108e-04
4.026312649594e-04
8.662430778611e-04
0.0
2.463689065015e-04
5.423185032493e-04
3.455780040321e-04
3.534199359639e-04
1.932563100895e-04
2.285242578868e-04
5.533910755366e-04
3.894757547290e-04
2.855356333337e-04
7.152732176559e-04
9.025430170280e-04
9.028555141478e-04
4.158729496666e-04
4.991986293731e-04
5.007569812017e-05
1.549723110472e-04
1.733686555641e-04
1.773311158401e-04
6.057473022357e-04
3.472267394595e-04
3.840401147294e-04
1.047743844350e-04
7.694785082956e-04
3.779515105815e-04
8.054340909103e-04
7.382880291593e-04
9.042222901304e-04
9.037391284983e-04
5.542239624201e-04
3.965200569982e-04
2.395169663989e-04
4.095473271816e-04
8.846617183911e-04
1.091075619098e-04
1.309117937249e-04
7.757007018757e-04
5.216493301951e-04
8.114985139276e-04
7.149555952708e-04
7.808260194802e-04
7.476070933347e-04
5.490969887376e-04
3.014610573917e-04
2.949948221418e-04
6.532450277148e-04
7.635848575454e-04
4.588641132707e-04
5.205058156000e-04
5.540928897098e-04
5.659168286544e-04
1.420511469143e-04
2.680728897049e-04
8.651629045309e-04
6.052440982456e-04
8.634119896890e-04
8.245717668539e-04
6.764662760295e-04
8.149161431282e-04
3.967880254959e-04
3.767005960415e-04
8.110139756078e-04
3.456957431072e-05
2.657950424331e-04
8.824542840959e-04
1.237061144379e-04
4.987214213507e-04
8.294168402688e-04
8.695215841111e-05
5.602562008274e-05
9.015334466947e-04
4.603425485764e-04
8.489922161072e-04
8.087138917439e-04
4.591008030381e-04
5.552241480747e-05
8.444214902365e-04
1.414135789209e-04
8.168961864666e-04
8.837090559571e-04
8.142426765288e-04
1.807958899793e-04
5.595583047635e-04
4.199792468794e-04
7.164591502921e-04
9.028817437699e-04
7.102313129860e-04
9.026811156520e-04
8.288145526137e-05
8.646233726606e-04
2.069739792553e-04
1.172764018555e-04
8.657097316282e-04
8.659008612292e-04
8.625184092857e-04
5.047279818662e-04
5.503926425959e-04
1.934303277458e-04
8.651050625011e-04
3.388354453695e-04
1.130064855855e-04
7.389517174799e-04
4.782630476822e-04
8.223389270151e-04
8.930658412704e-04
8.840898532866e-04
2.334843234610e-05
1.127894866393e-05
4.694771593736e-04
4.807281389759e-04
8.834165587509e-04
8.924916119185e-04
5.576594174246e-05
0.0
8.119181321880e-04
8.142322994912e-04
1.701766019211e-04
8.251842060796e-04
5.739886326733e-04
5.078648088346e-04
6.388823889726e-04
1.550243662730e-04
6.739268272391e-04
1.393043346543e-04
4.524792319836e-04
8.185153464905e-04
7.987444324357e-04
4.885491561285e-04
5.870976835179e-04
8.300271616539e-04
7.651236002798e-04
7.207118451451e-04
4.587797315069e-04
6.508513547530e-04
8.137396714987e-04
2.548267730587e-04
6.130172025363e-05
7.910594940571e-04
7.454571359396e-04
1.168423234533e-04
6.691954016891e-04
8.437645600948e-04
7.822748954745e-04
8.291678905268e-04
6.276953752614e-04
3.676099362061e-05
1.910008398258e-04
2.410902129174e-04
5.367277688070e-04
6.465619629803e-04
8.260192756098e-04
8.426510046720e-04
9.968867775761e-05
9.583122356830e-05
1.529254075451e-04
6.701562114990e-04
3.239280242567e-04
8.294279570789e-04
1.624109286017e-04
8.067702666274e-04
5.436640056567e-04
8.463726308532e-04
7.450121923899e-04
5.381792224530e-04
8.657268182902e-04
8.669176791877e-04
8.641188598614e-04
1.063408641689e-04
8.096899185402e-04
8.433515583067e-04
8.209426083778e-04
7.578403458605e-04
8.820824508574e-04
7.152183658321e-04
0.0
1.476863544574e-04
7.925042984467e-04
5.819610102914e-04
8.150003304523e-04
7.872814678585e-04
8.479070143319e-04
7.210640868520e-04
8.478357315245e-04
8.252654922692e-04
8.217924527872e-04
3.382456616413e-04
9.027319105777e-04
5.177284306761e-04
8.149780141979e-04
7.602985457212e-05
7.853489742656e-04
6.747924126657e-04
9.715604780866e-05
1.703587158512e-04
7.357623737217e-04
8.456239339759e-04
8.256639794594e-04
8.510870588008e-04
5.779321806582e-04
5.698562791087e-05
8.903845588755e-05
6.283407249005e-05
1.237561416650e-04
2.218122983909e-05
4.492152745151e-04
8.141022284179e-04
8.188324132241e-04
5.825183578263e-04
3.912991429550e-04
8.215127337613e-04
8.144364166830e-04
8.676175675571e-04
8.131246206762e-04
7.790398171077e-04
7.703091579876e-05
8.521732389425e-05
8.233105816384e-04
7.749586532649e-05
1.142956473345e-04
7.248547269918e-05
8.699680012182e-05
8.468513703275e-04
8.482556314247e-04
8.272172742286e-04
8.507165112290e-04
7.882896166762e-04
6.050128159723e-04
8.848716184046e-04
2.082654753157e-04
4.770383954530e-04
1.308584681555e-04
3.200133854228e-05
9.023297721724e-04
5.253788953819e-04
1.321285258096e-04
4.283053972209e-04
8.675733916602e-04
8.249021745336e-04
8.483302000566e-04
3.066024421432e-04
8.148429218192e-05
8.670431337253e-04
9.023411771345e-04
9.053923630978e-04
5.028745524170e-04
8.096342445588e-04
1.166784308444e-04
8.309395715063e-04
3.072536449822e-05
8.491015123023e-04
8.642157995563e-04
3.254999792424e-05
7.915264275696e-04
6.950269549080e-04
8.486200653356e-04
8.870888049155e-04
6.371787866159e-04
8.507580346646e-04
8.288142407060e-04
6.543265911992e-04
8.219609091343e-04
3.580802034436e-04
4.580585415293e-04
8.289670477400e-04
8.604442280761e-04
0.0
4.595975431843e-04
8.621910031762e-04
1.592545715764e-04
8.297085483634e-04
8.243206064822e-04
8.644406776067e-04
1.547160338610e-04
1.208044010377e-04
5.264955792143e-04
7.516483182700e-04
1.891156848520e-05
8.515789897366e-04
6.135789601255e-04
1.559509946477e-04
5.832862224491e-04
8.658507257749e-04
5.521778443811e-04
4.558321396471e-05
3.239427989419e-04
4.776913424967e-04
5.701251507252e-04
8.287479897685e-04
4.636624967177e-04
4.900391319366e-04
7.786229875005e-05
8.280550521141e-04
7.926388045417e-04
1.331660701839e-04
8.512291248288e-04
8.566440339274e-04
5.134667395409e-04
6.297245589001e-04
4.683583638001e-04
4.786896715519e-04
5.070171589005e-04
7.879088551411e-04
1.144990407912e-04
8.287518740281e-04
5.339553679767e-04
8.658836050112e-04
7.862007520820e-04
5.990262297868e-04
7.981889298720e-04
8.203027348467e-04
8.695097463781e-04
3.580066420134e-05
8.023135303917e-04
8.310675113497e-04
8.967195667714e-05
4.375219600786e-04
5.410315473195e-05
8.369220774202e-04
1.548793020190e-04
1.398583083142e-04
1.646971575123e-04
1.401603119576e-04
1.651896890035e-04
1.402343217064e-04
1.653056434901e-04
1.403364600330e-04
1.654203101123e-04
1.404393468954e-04
1.655145835356e-04
1.405180074321e-04
1.655755201380e-04
1.405643214736e-04
1.656033941395e-04
1.405832710722e-04
1.656055046448e-04
1.405810214083e-04
1.655880763316e-04
1.676429061094e-04
1.405643649430e-04
1.655578570877e-04
1.405379441217e-04
1.389227043048e-04
1.655221024453e-04
1.405113109071e-04
1.655020779017e-04
1.405117521784e-04
1.655088119870e-04
1.525584387897e-04
1.405345488367e-04
1.655542038496e-04
1.405971232595e-04
1.655927246128e-04
1.406254501371e-04
1.657030671808e-04
1.407331409774e-04
1.656809761560e-04
1.406767154371e-04
1.659556361556e-04
1.408854959846e-04
1.531712737841e-04
1.405901903800e-04
1.655014109628e-04
1.413440324429e-04
1.667860907958e-04
1.389069220690e-04
1.643091316219e-04
1.684969091712e-04
1.248521962396e-04
1.692850054625e-04
1.492953996098e-04
1.563356513805e-04
1.438751425223e-04
1.370181524225e-04
1.976333862393e-04
2.116731572351e-04
1.862186243852e-04
2.105135771650e-04
1.854721293060e-04
2.104577930494e-04
1.854427323826e-04
2.105321862864e-04
1.855223010247e-04
2.106306724529e-04
1.856205509068e-04
2.107115213645e-04
1.856981488192e-04
2.107539297177e-04
1.857352136190e-04
2.107681397284e-04
1.857479377639e-04
2.107589556243e-04
2.131686355800e-04
1.857434794709e-04
2.107344521858e-04
1.857268407030e-04
1.908372584021e-04
2.106931599542e-04
1.845702532177e-04
1.856890788764e-04
2.106302587185e-04
1.856378609051e-04
2.106380971703e-04
1.856566304066e-04
2.106431631274e-04
1.857081639528e-04
2.108179316691e-04
1.980009761142e-04
1.858373073386e-04
2.106922178983e-04
1.857973773904e-04
2.111624469953e-04
2.104376803483e-04
1.860216229082e-04
2.119249337184e-04
1.856176602761e-04
2.088598079787e-04
2.140888372367e-04
1.863106585679e-04
1.836826105287e-04
1.703583003672e-04
2.001760913214e-04
2.196716975602e-04
1.962435353328e-04
2.084613605653e-04
1.832797690290e-04
2.467242924841e-04
2.318971739121e-04
2.569604721247e-04
2.323582238135e-04
2.573660128964e-04
2.323481834884e-04
2.573777332793e-04
2.323926280916e-04
2.574504022643e-04
2.324746838915e-04
2.575468697238e-04
2.325693421246e-04
2.576322522147e-04
2.326122074981e-04
2.576553806804e-04
2.326151529556e-04
2.576522502379e-04
2.588705843304e-04
2.326142016962e-04
2.576375128508e-04
2.306571559578e-04
2.326278861306e-04
2.576262050767e-04
2.326180735072e-04
2.575817555027e-04
2.325405437276e-04
2.371444383033e-04
2.574556691956e-04
2.324538276695e-04
2.574825913594e-04
2.325861304384e-04
2.575227655495e-04
2.326671156115e-04
2.578962146880e-04
2.329911614336e-04
2.574939041830e-04
2.326152256377e-04
2.440244319060e-04
2.332069693135e-04
2.585665773561e-04
2.307697375987e-04
2.562555830984e-04
2.601089679822e-04
2.162782946957e-04
2.577307751470e-04
2.370799216689e-04
2.479843099940e-04
2.355777807444e-04
2.300605477233e-04
2.893562250950e-04
3.035610020743e-04
2.781398742463e-04
3.024796248070e-04
2.774000520103e-04
3.024086532762e-04
2.773792771481e-04
3.024572659554e-04
2.774284649834e-04
3.025480157212e-04
2.775301685476e-04
3.026855389739e-04
2.776610420386e-04
3.027150412041e-04
2.776797469847e-04
3.026647938250e-04
3.057519497818e-04
2.776123204034e-04
3.026644902344e-04
2.828915978971e-04
2.776728359796e-04
3.027151159073e-04
2.761654015987e-04
2.777471929607e-04
3.027239513287e-04
2.777229964406e-04
3.026125050717e-04
2.775893337710e-04
3.022358251205e-04
2.911528140928e-04
2.773787975288e-04
3.027660250717e-04
2.778333905826e-04
3.023471162595e-04
3.041522434489e-04
2.778236615926e-04
3.009345726581e-04
2.786762187220e-04
3.055181121834e-04
2.755391628935e-04
2.628456973792e-04
2.894887970220e-04
3.094946284243e-04
2.879404696216e-04
3.001784249515e-04
2.747666986158e-04
3.387590509463e-04
3.239558570236e-04
3.490589559299e-04
3.242489538052e-04
3.492778332294e-04
3.244009492226e-04
3.494137940559e-04
3.243450263155e-04
3.494285644229e-04
3.244491555650e-04
3.495528953540e-04
3.245729995313e-04
3.497476816412e-04
3.247790095566e-04
3.498156307860e-04
3.524344535621e-04
3.244756318896e-04
3.234927653718e-04
3.495180048905e-04
3.245640602665e-04
3.496724803304e-04
3.248419696225e-04
3.498816701128e-04
3.248366754099e-04
3.293404958308e-04
3.498297634467e-04
3.247755033259e-04
3.497132450553e-04
3.245820555673e-04
3.488372345038e-04
3.242701434091e-04
3.503144451308e-04
3.256426464242e-04
3.234521601643e-04
3.489428141026e-04
3.382079507074e-04
3.528736187585e-04
3.091709295256e-04
3.479959789487e-04
3.272882465017e-04
3.399401601187e-04
3.274902301269e-04
3.210995550700e-04
3.823738146998e-04
3.954225263856e-04
3.697566624949e-04
3.939322582241e-04
3.688694981486e-04
3.944097865815e-04
3.693773633782e-04
3.940314017453e-04
3.688791821506e-04
3.943498072948e-04
3.693104022334e-04
3.943240387101e-04
3.692423004483e-04
3.983221388088e-04
3.950761893213e-04
3.697532978986e-04
3.757283910689e-04
3.940431169502e-04
3.690941919872e-04
3.688922250286e-04
3.943316706399e-04
3.695967294386e-04
3.950039595106e-04
3.699171745464e-04
3.947738597822e-04
3.836764221872e-04
3.696289525295e-04
3.946866788540e-04
3.951305091693e-04
3.698050963930e-04
3.917401968718e-04
3.700257270424e-04
3.984140208452e-04
3.678384251997e-04
3.553107824800e-04
3.787353646523e-04
4.015883610286e-04
3.798602337846e-04
3.917784855672e-04
3.672570110000e-04
4.343021193814e-04
4.144431140943e-04
4.400238155636e-04
4.160910928413e-04
4.407194433539e-04
4.169792812266e-04
4.421275663541e-04
4.155655137509e-04
4.404257626118e-04
4.163557751547e-04
4.417490498800e-04
4.164243392235e-04
4.451512402664e-04
4.411469643058e-04
4.182864247912e-04
4.154450539294e-04
4.421592365310e-04
4.167200733669e-04
4.407251200889e-04
4.170139093125e-04
4.420435047998e-04
4.169234513539e-04
4.225836555007e-04
4.425201970351e-04
4.165861177248e-04
4.414159334299e-04
4.159924669279e-04
4.163537947849e-04
4.414971076271e-04
4.437645096039e-04
4.307709466435e-04
4.017743348262e-04
4.348445271150e-04
4.227645607119e-04
4.331703470473e-04
4.187044942453e-04
4.146339968586e-04

SCALARS element_materi_plasti_phimob float
LOOKUP_TABLE default
3.801408130640e+00
3.072457320981e+00
1.973167270119e+01
1.960804829800e+01
1.592724117777e+01
-4.246898300787e+00
1.596329818409e+01
3.611215543995e+00
1.597516090991e+01
1.958014814707e+01
2.045017202081e+01
-3.943270905586e+00
2.069100648485e+01
1.655339868195e+01
2.060451911617e+01
1.974703330460e+01
1.568114601729e+01
-4.892777771881e+00
9.438961468007e+00
1.021011540792e+01
1.957053747266e+01
6.198746196762e+00
8.743755024584e+00
2.074640774499e+01
1.714827578656e+01
2.059749095565e+01
1.463213650328e+01
2.005039326020e+01
1.712711523272e+01
2.082037613035e+01
2.950087648940e+00
-2.092142915835e+01
1.971015821645e+01
2.074613279343e+01
2.071032464776e+01
2.071491211405e+01
2.064152692652e+01
2.054578672814e+01
1.498861298106e+01
1.505488015809e+01
1.119480350545e+01
2.059638259080e+01
-6.163771054289e+00
1.462213975275e+01
1.942977486258e+01
-1.400191685183e+00
-3.996554499560e+00
1.946795136074e+01
-2.164340380247e+01
1.616260013610e+01
1.011503905314e+01
1.268567530869e+01
1.116989480233e+01
9.669152845241e+00
1.970708581960e+01
1.617023585373e+01
1.342455099713e+01
2.078696036251e+01
3.921094357544e+00
1.973737780020e+01
-2.727421648165e+01
2.009923313388e+01
1.186800432677e+01
9.385730511484e+00
2.069004977273e+01
8.022032246032e+00
-2.942285463724e+01
1.969679880371e+01
5.358405207648e+00
1.987671705359e+01
2.065844778613e+01
1.997362268669e+01
1.983083277634e+01
-1.511185366112e+01
1.672806916237e+01
1.960728402738e+01
1.967770919496e+01
-1.937228310801e+00
4.273589333217e+00
-3.123571473730e+00
5.763032087505e+00
1.564659191884e+01
7.298471704991e+00
3.349817618382e+00
1.641260350329e+01
1.643106706732e+01
2.069909096674e+01
2.076560353048e+01
1.866682366905e+01
1.585660484951e+01
-2.131246948082e+01
1.559497596707e+01
1.856085717613e+01
1.845196567743e+01
1.991201112781e+01
2.044855848500e+01
1.558317757137e+01
2.088164321782e+01
1.720904024405e+01
1.061878891376e+01
1.544478802722e+01
2.065736202242e+01
1.968758112214e+01
2.006372231270e+01
1.220513657420e+01
-5.375257025491e+00
2.073062589271e+01
1.886574819668e+01
-2.230479082357e+01
2.053609361461e+01
1.844964168049e+01
-2.624310732642e+01
1.582551561535e+01
1.444600032716e+01
1.841399083249e+01
8.960489862827e+00
1.222321966119e+01
2.069811892210e+01
1.696466185803e+01
1.133649856770e+01
4.333637330002e+00
1.554543362174e+01
1.889678986160e+01
1.177694521692e+01
-1.017746197929e+01
1.305238551967e+01
1.823737260506e+01
1.208223665762e+01
1.975651621000e+01
8.730350165857e-03
2.058302723586e+01
1.962050017890e+01
1.380046612226e+01
1.222221558365e+01
2.080360820003e+01
2.068051823160e+01
2.072881964841e+01
1.446490601852e+01
2.083618837809e+01
1.293270522153e+01
1.968158861815e+01
1.984333362271e+01
1.649971677160e+01
1.792392610132e+01
1.300564100030e+01
1.105290978595e+01
1.508540880224e+01
1.391804762516e+01
1.563878353785e+01
1.643746205548e+01
-2.221754638595e+01
1.638769186795e+01
5.253472382398e+00
1.381142981888e+01
2.058769356681e+01
1.103564565455e+01
2.075093238521e+01
-1.338884300779e+00
1.964074943583e+01
1.578283597276e+01
1.632259309104e+01
2.077099817458e+01
4.393339894263e+00
2.073787437242e+01
1.543496937911e+01
2.080073958831e+01
1.573648621144e+01
1.339445671043e+01
1.373693899418e+01
2.056574952528e+01
-2.873629325215e+00
1.687299644298e+01
1.820839184878e+01
1.571415606327e+01
1.472888156007e+01
1.296991411851e+01
1.915200079267e+01
1.893524140913e+01
2.010652785512e+01
1.986290042938e+01
7.471279246985e+00
1.900429838109e+01
2.071039467405e+01
1.209065498897e+01
4.356997091057e+00
1.497085633702e+01
1.513387424806e+01
1.969840137736e+01
1.844948280509e+01
2.076212625264e+01
-3.508156433408e-01
1.728104631553e+01
1.867798800361e+01
-4.556691365811e+01
1.206126630062e+01
2.083135215815e+01
-4.360914906466e+00
1.961674513492e+01
1.772717227536e+01
1.939524695412e+01
2.092057200505e+01
1.626342409606e+01
1.687016701890e+01
2.069346469332e+01
1.679920126406e+01
1.574770834975e+01
1.588472330485e+01
1.800197002610e+01
1.590410552749e+01
1.492818539339e+01
1.960454294512e+01
1.891434626509e+01
-2.715845386996e+01
7.135911611463e+00
1.020844409499e+01
1.517793377103e+01
1.867019475319e+01
8.190372855596e+00
2.088437390983e+01
1.561316600601e+01
1.685941094128e+01
2.091519804514e+01
-1.710114841551e+01
1.825520212697e+01
-2.347067611580e+01
-3.654613804409e+00
-4.385213304853e+00
1.489726941203e+01
1.848924661616e+01
1.366977250500e+01
1.025726227634e+01
1.008657303338e+01
7.320627995637e+00
2.083530014245e+01
1.541131741711e+01
2.073175346125e+01
-5.160172957361e+01
1.265953095558e+01
1.750225466499e+01
1.093926912118e+01
2.097800417496e+01
2.077429586339e+01
1.819620405060e+01
1.658335351251e+01
2.076947768863e+01
2.067082823869e+01
1.558286520575e+01
1.796812114797e+01
2.001793839101e+01
1.789757570148e+01
1.073664986966e+01
1.669091101269e+01
1.992430639785e+01
1.584789382577e+01
1.932598160016e+01
1.653377918382e+01
2.421075761032e+00
1.592008166976e+01
1.649766437568e+01
1.347666363319e+01
5.675490971181e+00
1.851886746459e+01
1.630640826635e+01
1.309379464463e+01
1.873457340188e+01
1.842817741778e+01
1.597041105197e+01
2.056504595291e+01
1.962777123876e+01
1.633881376770e+01
1.608191561847e+01
1.956976008657e+01
1.609893000212e+01
1.557605990834e+01
1.866178530529e+01
1.769569768851e+01
1.821791676112e+01
-4.024183657430e+01
1.633712048691e+01
1.759275804964e+01
1.342794950783e+01
1.538413588440e+01
1.704438361799e+01
-5.793030659704e+00
1.118069068382e+01
1.984143656412e+01
1.631073279123e+01
1.634598112135e+01
3.829797088595e+00
1.824989856559e+01
1.676720777245e+01
8.760882799062e+00
1.794919760556e+01
1.147525581495e+01
1.870624526383e+01
1.791678222088e+01
6.722270495681e+00
1.669714361844e+01
5.538615700916e+00
1.992608153764e+01
1.996097819572e+01
1.636960427160e+01
1.658527539016e+01
1.326467721343e+01
1.675212634339e+01
1.503852887131e+01
1.739643447799e+01
1.551491510167e+01
1.968166285942e+01
1.731976316636e+01
1.948253301453e+01
1.016366379640e+01
2.071498381919e+01
1.523856990875e+01
1.608690050495e+01
1.110541189810e+01
2.074226239531e+01
1.838231692297e+01
1.794609905424e+01
1.588930948511e+01
2.003882354495e+01
1.824036068365e+01
1.995650278560e+01
9.634521337594e+00
1.761973184783e+01
2.100906154515e+01
9.909774186237e+00
1.734583447180e+01
2.012695170235e+01
2.098400353225e+01
2.000197490007e+01
1.723345337061e+01
1.843852929807e+01
6.284559048737e+00
1.490476917663e+01
1.632330683404e+01
1.669547877792e+01
1.556001259453e+01
2.025031758195e+01
1.684411258182e+01
1.549274704501e+01
1.818343241926e+01
1.201829643849e+01
1.433476135836e+01
1.165996802409e+01
1.575153352268e+01
1.736780668566e+01
1.753362853182e+01
1.847742982071e+01
1.294213523781e+01
1.542440607154e+01
2.018324348647e+01
2.077332412818e+01
2.042151638107e+01
1.297899248033e+01
1.771278147075e+01
1.885985129802e+01
5.689113152741e+00
7.944238310931e+00
1.888187022937e+01
1.646803043330e+01
1.107030851400e+01
1.431159704158e+01
2.066592924428e+01
2.057990913145e+01
1.889633902684e+01
1.822919469437e+01
2.052031571462e+01
1.281649512518e+01
1.626059503851e+01
1.752762059932e+01
1.615931864317e+01
2.056596364323e+01
1.968082199370e+01
1.892253455857e+01
1.709438271947e+01
1.529556781126e+01
1.592547030289e+01
1.402445938161e+01
1.995951636323e+01
1.995083789018e+01
1.960389478352e+01
2.071991220062e+01
1.876226051676e+01
9.166590255804e+00
1.831703918983e+01
1.233682915032e+01
1.225802280755e+01
1.556845153215e+01
1.726861395289e+01
2.080035167257e+01
1.889769070787e+01
1.670157550609e+01
1.707041520818e+01
1.491678209596e+01
-5.477769088659e+00
1.706931302335e+01
1.626722327282e+01
1.717467759658e+01
-7.961354358269e+00
1.651883149684e+01
1.017509412560e+01
1.494136021288e+01
2.048807511453e+01
1.996574874744e+01
1.552837900954e+01
4.128321624241e+00
1.541986400609e+01
1.753283129378e+01
1.703334205344e+01
2.006995700579e+01
1.490070404079e+01
1.677550548360e+01
1.987654074011e+01
1.872162303421e+01
2.091783281224e+01
2.008243516989e+01
2.012495640514e+01
2.003132358486e+01
2.005763227937e+01
1.737458851738e+01
1.869421130028e+01
1.911104284135e+01
1.377947665751e+01
1.255202632322e+01
1.929775459024e+01
1.889606344590e+01
2.018040509653e+01
1.894622271827e+01
1.978377557288e+01
1.892193234319e+01
1.863942844527e+01
1.591644346381e+01
1.210273782544e+01
1.296890381575e+01
1.971053139257e+01
1.342154199762e+01
1.975233837430e+01
1.948755663695e+01
1.624603194767e+01
2.058225403000e+01
1.422655470078e+01
2.015856515737e+01
1.973006454435e+01
1.689392818138e+01
-2.274322207970e+01
2.022033724515e+01
2.052833852841e+01
1.687129011802e+01
2.011468251862e+01
2.053615840710e+01
-5.766286676572e+01
1.484581434630e+01
1.716387494231e+01
1.662703889914e+01
1.642400808099e+01
1.325925547606e+01
2.028920705496e+01
1.885095053342e+01
2.145879949638e+00
2.081329325223e+01
-2.231103969882e+01
1.365984242033e+01
4.646469000690e+00
1.433137384052e+01
2.068202795618e+01
2.035605833149e+01
1.669720795824e+01
-4.897006118542e+00
-3.304053345458e+00
2.853867728391e+00
2.090195726626e+01
1.557201932187e+01
1.595413752923e+01
2.041088838580e+01
1.562719871276e+01
1.994241235315e+01
1.889016250467e+01
1.698451599764e+01
8.319460327527e+00
2.002771279496e+01
1.014010681164e+01
2.044713452934e+01
2.008837653211e+01
2.004882909870e+01
2.077531230910e+01
1.884809984545e+01
1.608530246756e+01
2.094204117966e+01
2.046730577266e+01
1.528025188921e+01
1.867473693635e+01
1.902192903177e+01
1.736745615563e+01
2.074632169659e+01
-5.966725661198e+00
2.048065628957e+01
1.835161519343e+01
2.019506377952e+01
1.909123474441e+01
-5.747981979989e+01
1.572441442236e+01
1.896511669758e+01
2.025871073310e+01
1.737097990715e+01
1.917236084499e+01
8.575582854340e+00
2.057935087817e+01
1.868928807626e+01
1.858386879335e+01
-2.169592683224e+01
2.032267176156e+01
1.409431477698e+01
2.087553774374e+01
1.660393273108e+01
1.643062996112e+01
1.819635007585e+01
1.707794679334e+01
2.043366462496e+01
1.927567528554e+01
2.091408777419e+01
1.693411713078e+01
2.074115681955e+01
1.877258858425e+01
2.084594061383e+01
1.647428759753e+01
1.845515005075e+01
2.018071348287e+01
1.676033346010e+01
1.973459259643e+01
1.499965860893e+01
1.902786728886e+01
1.893290362950e+01
2.002310929581e+01
2.070583389688e+01
1.912890794086e+01
1.561604384766e+01
2.047343792090e+01
2.072860771548e+01
1.767826239123e+01
-2.200589539922e+01
2.072559237620e+01
1.910231373794e+01
1.741889240399e+01
2.048983813841e+01
2.088093582033e+01
1.317553723257e+01
1.634805083949e+01
1.976430795881e+01
2.059808462454e+01
2.071311930069e+01
1.769935949357e+01
1.438763288164e+01
2.005842632632e+01
1.712848508632e+01
1.950275897792e+01
2.031853268932e+01
1.825057880080e+01
2.076460411276e+01
-5.457350885501e+01
1.445947626910e+01
1.784667761533e+01
2.000387775641e+01
1.738467563913e+01
2.099938002568e+01
1.706298296232e+01
1.689809289179e+01
2.049247416028e+01
1.719671802338e+01
2.010744793933e+01
1.694661518953e+01
1.984247738928e+01
-5.665629219937e+01
1.673387992016e+01
1.864005673976e+01
-5.860334358957e+01
1.980536899395e+01
2.102710301431e+01
1.903086071028e+01
2.061597351094e+01
2.080352010764e+01
1.505015207094e+01
1.464139607250e+01
1.970454817053e+01
1.670296657752e+01
-6.320991822916e+01
7.165331365332e+00
-2.234863705296e+01
1.588781560049e+01
1.914822091135e+01
1.902312859469e+01
2.097003836676e+01
1.704515179351e+01
2.067261054653e+01
2.092561710120e+01
9.647875156505e+00
1.857220844698e+01
1.699453742862e+01
2.075938935373e+01
2.049286469286e+01
1.926921426888e+01
1.995799828460e+01
2.081862829705e+01
2.086844158298e+01
9.467548921788e+00
2.097793298691e+01
-4.234540313655e+00
1.952613405788e+01
2.012341468475e+01
-2.092694001344e+01
1.887840267583e+01
1.916086971665e+01
-6.157992814736e+01
1.459703827486e+01
1.461436707380e+01
2.064734668932e+01
1.697149002146e+01
1.788422616289e+01
1.078170518236e+01
2.085810495558e+01
1.997559258790e+01
1.873339917863e+01
9.050647543456e+00
-1.264051685051e+00
1.434073169550e+01
1.474107144250e+01
1.477498718792e+01
-5.794015319145e+01
-2.129762430335e+01
-3.792370585857e+00
1.431674946418e+01
-2.046168553046e+01
1.962578427374e+01
-5.206122191232e+01
1.635624370918e+01
1.766886706215e+01
1.466363219419e+01
1.927413031677e+01
2.100290908706e+01
1.712151322039e+01
1.758606041757e+01
-4.165822025226e+00
1.995812806971e+01
1.991390228965e+01
1.662299403028e+01
1.471126326063e+01
1.764564128327e+01
1.991095604927e+01
1.539275234852e+01
1.462362418737e+01
1.463331968093e+01
1.366374273056e+01
2.002228364385e+01
1.989137339211e+01
-2.089679739946e+01
-5.764067819424e+01
3.359419477460e+00
2.028865789180e+01
2.072487216200e+01
-4.524596685613e+01
1.873000269427e+01
-5.333594761646e+01
2.086833988464e+01
-5.128873143341e+01
-4.825384636254e+01
2.091051118691e+01
2.076599036045e+01
1.762223722380e+01
1.497199354954e+01
-2.080306961285e+01
2.069956852623e+01
1.993561389770e+01
1.991245415106e+01
1.469421620324e+01
2.079650382148e+01
1.995663570416e+01
1.924725943614e+01
-4.713990294903e+00
-2.064220995859e+01
-2.123310009420e+01
1.851980252487e+01
2.069286928923e+01
1.961378676733e+01
-5.765624254137e+01
1.954223904596e+01
2.049622158418e+01
2.073025743235e+01
2.073627378754e+01
1.829639685933e+01
1.892953633514e+01
2.048126250503e+01
2.048829330669e+01
1.872653408499e+01
-6.486250614864e+01
1.475764399339e+01
1.475133080017e+01
-5.772807987791e+01
2.049401306095e+01
2.077972086072e+01
2.048199801579e+01
-6.114635307328e+01
-6.079964696010e+01
2.048890837984e+01
2.048800496404e+01
1.805946791028e+01
1.478472718152e+01
1.851380682516e+01
1.682201015950e+01
1.478373549576e+01
-6.222078294449e+01
-6.013526706279e+01
-6.125105453629e+01
-5.999707690682e+01
1.982381187607e+01
1.923945274080e+01
-5.791317990995e+01
2.060053371974e+01
-5.780581545347e+01
1.998742433295e+01
1.994663434414e+01
1.996091573848e+01
7.367731061473e+00
1.623220304569e+01
1.993806573260e+01
2.077409169900e+01
1.995979914990e+01
2.075474115571e+01
2.069160220825e+01
1.889847355755e+01
1.990781251291e+01
1.991943555572e+01
2.074834768670e+01
2.071702412609e+01
2.072661617582e+01
-5.506450937931e+01
1.918848887408e+01
-2.136642855294e+01
2.081934652837e+01
1.966415571565e+01
2.082674946290e+01
1.299411625294e+01
-5.053898054114e+00
2.078714542005e+01
1.964550520582e+01
1.819921943148e+01
2.080460346904e+01
1.925983896598e+01
1.808799254067e+01
2.093537596152e+01
2.086824643427e+01
2.076676421861e+01
2.077563010156e+01
1.891662662431e+01
1.372203747262e+01
1.686535844618e+01
2.077149592803e+01
2.079460263757e+01
2.078384500654e+01
1.403456681132e+01
1.922443223177e+01
1.886367069741e+01
1.617609641680e+01
2.085573602512e+01
2.077198347220e+01
1.927431236485e+01
1.907147985661e+01
2.073335007143e+01
2.074618394986e+01
1.875086568288e+01
2.074847637567e+01
2.077351296438e+01
1.923419404743e+01
1.815159018881e+01
2.093059358790e+01
1.340780378455e+01
1.292066511812e+01
-1.383957135992e+00
-2.191182387851e+01
1.906500385655e+01
2.076567272585e+01
-2.229319202703e+01
1.907371212575e+01
1.652231341132e+01
2.081378179153e+01
2.079503046767e+01
1.826045061803e+01
2.078527437158e+01
1.615080308636e+01
2.024710781727e+01
2.072764104211e+01
1.291386823224e+01
2.081815038744e+01
1.842508571724e+01
1.442638215301e+01
1.519511401318e+01
2.017855625524e+01
1.754746017209e+01
1.814893224466e+01
1.867414873593e+01
1.791184692723e+01
2.020255444823e+01
2.076096266038e+01
2.078867639905e+01
1.843772438058e+01
1.061790206680e+01
1.994242163422e+01
2.013965658893e+01
1.861714580648e+01
1.944696980335e+01
2.075630668045e+01
2.083760156307e+01
1.815490183360e+01
-3.840107396845e+00
-1.928903113629e+00
1.390897461655e+01
2.080929426526e+01
1.787019806007e+01
2.037392907015e+01
1.688634038143e+01
2.087482487024e+01
2.029198488957e+01
2.080506628538e+01
1.329180191883e+01
2.083451346893e+01
2.009581051326e+01
1.436538081216e+01
1.985349211998e+01
1.848255085665e+01
1.612300982237e+01
2.043125857857e+01
-5.705848823454e+01
-5.636799946760e+01
2.072047437847e+01
1.207340542956e+01
2.077956670077e+01
2.077161963786e+01
1.928991715188e+01
1.622414234817e+01
1.896594328456e+01
-1.126401353381e+00
1.881390581636e+01
2.080951667963e+01
9.923393754753e+00
1.726498051181e+01
1.652555131589e+01
9.246673159394e+00
2.087859302599e+01
1.828711594892e+01
1.221956922609e+01
1.912073840470e+01
1.914028569504e+01
1.367285946371e+01
9.640481545252e+00
1.409186971174e+01
2.077591105034e+01
2.037357691755e+01
1.913065220601e+01
1.898150128177e+01
2.078140606283e+01
2.084046887060e+01
1.124926288990e+01
2.082072430621e+01
1.830547358247e+01
2.030743607435e+01
1.785691552308e+01
1.855190676781e+01
1.937280612697e+01
1.881086702211e+01
1.969966145617e+01
2.022068732390e+01
1.789437481632e+01
1.851905633320e+01
1.809583010372e+01
2.041605919736e+01
1.501028082228e+01
3.184013394570e+00
1.807826304172e+01
1.521686015869e+01
2.079913163257e+01
1.837101824597e+01
2.085762398292e+01
2.056605632447e+01
1.934158361222e+01
1.383705161040e+01
6.265842508016e+00
2.084049441675e+01
1.762478388538e+01
-2.251555334087e+00
1.792950645542e+01
1.156150455928e+01
1.752750434932e+01
1.825271179070e+01
2.086570745891e+01
1.781514475795e+01
1.885670159389e+01
1.694135483070e+01
2.089598330844e+01
1.251222446689e+01
2.084585066201e+01
2.002288509576e+01
2.088936429942e+01
1.915368686506e+01
1.171232027345e+01
1.695876048477e+01
2.081473711874e+01
1.511493319321e+01
1.760839517446e+01
1.429596111674e+01
1.770980745552e+01
1.009927851221e+01
2.087149477796e+01
2.076823230696e+01
2.011935302785e+01
1.934092722908e+01
2.065686286191e+01
1.073000669431e+01
2.083242722571e+01
2.088582341560e+01
1.743660831747e+01
2.082926022623e+01
1.835924431420e+01
1.543499584759e+01
2.084347836668e+01
1.676002357997e+01
1.549696250332e+01
1.752573780148e+01
1.703914269020e+01
2.091666182069e+01
1.336712890267e+01
1.688843584379e+01
1.802023263500e+01
1.727643981207e+01
1.709098617211e+01
2.008129803616e+01
2.090178408447e+01
2.081073617645e+01
1.688083407090e+01
1.928668461900e+01
1.999702426465e+01
2.093688292981e+01
1.856798112631e+01
1.880432103661e+01
1.821668305162e+01
1.111817084862e+01
2.089761273683e+01
1.854842299903e+01
1.776903571222e+01
1.743208484553e+01
1.991982992243e+01
1.731776217295e+01
1.837068630021e+01
1.776522557372e+01
1.846813448793e+01
1.269086732801e+01
2.091663778270e+01
1.998112104976e+01
1.879708016883e+01
2.030418047720e+01
2.095104353637e+01
2.066842376717e+01
1.776675874718e+01
1.250739571241e+01
2.093744032142e+01
2.086524419091e+01
1.827459934477e+01
1.906861104432e+01
2.084786000637e+01
1.778929897456e+01
1.906373544380e+01
1.507235302719e+01
1.675721647596e+01
1.572275511076e+01
1.930570119393e+01
1.597337432074e+01
1.466005506526e+01
2.048941647106e+01
2.094873281171e+01
1.923351941168e+01
-5.748286990291e+01
2.032405196325e+01
2.019469097702e+01
1.957467546140e+01
1.745321334993e+01
2.038998328732e+01
1.744368889240e+01
1.972526304546e+01
1.863232678621e+01
1.733360700956e+01
2.081004990634e+00
8.825990134884e+00
1.686365829659e+01
1.813518753431e+01
2.044844762288e+01
2.006481737776e+01
1.096827672660e+01
8.859650754179e+00
1.695107170962e+01
1.579752340763e+01
2.101008043969e+01
1.911193238449e+01
1.704899366078e+01
1.887136169600e+01
1.935481580835e+01
1.953327083251e+01
1.872324364692e+01
1.312697843664e+01
1.987215345028e+01
1.802761782520e+01
1.622802079314e+01
9.059121633939e+00
1.876539290260e+01
1.993548622554e+01
2.021974203777e+01
1.662708445864e+01
2.061584861547e+01
2.008789831648e+01
2.048596898551e+01
1.784005508354e+01
2.055733195066e+01
1.800043201430e+01
2.031565329772e+01
2.096004564306e+01
1.485709871832e+01
2.087564605041e+01
2.054085176297e+01
1.950492400566e+01
1.744771333892e+01
1.473755673154e+01
1.735414328893e+01
1.899100652520e+01
2.070407330507e+01
1.555793729765e+01
1.765061246308e+01
1.612777563114e+01
1.133227144807e+01
1.959059530635e+01
8.662626703851e+00
2.046842782389e+01
1.919259670613e+01
2.069532117922e+01
1.717694734527e+01
1.867228014279e+01
2.029914180237e+01
2.010613526550e+01
1.924142563783e+01
2.098067642355e+01
1.821371647374e+01
2.095797210889e+01
1.366389085194e+01
1.841223466131e+01
1.995650008793e+01
2.088498332227e+01
2.009805352709e+01
1.715535546554e+01
1.678512763269e+01
2.032775381248e+01
2.099703768713e+01
2.101526443878e+01
6.151680498861e+00
1.753349471723e+01
2.035622899196e+01
2.014024689002e+01
1.660796936016e+01
1.941232192714e+01
1.910989143295e+01
1.917660385177e+01
1.391229889627e+01
1.856973861976e+01
2.090162156454e+01
1.930050108572e+01
1.813157620908e+01
2.017552409180e+01
2.009734009222e+01
1.843935517322e+01
1.907364917488e+01
1.850460231047e+01
1.823738735618e+01
2.096213708882e+01
2.031670861954e+01
2.098789739071e+01
2.086292549004e+01
1.288897204950e+01
2.061118093054e+01
1.803083942948e+01
1.481342843681e+01
2.025191716353e+01
2.070138241628e+01
2.025302910547e+01
1.675944264838e+01
2.002655277126e+01
2.036792103299e+01
1.492756225097e+01
2.046244121451e+01
1.758548729934e+01
1.548130738349e+01
-1.746437511589e+01
2.070081990915e+01
2.082347828899e+01
1.929412428651e+01
2.018695582027e+01
2.070795907620e+01
1.768771715953e+01
-2.318696673975e+01
2.070843766658e+01
2.036840374818e+01
1.544693503447e+01
2.093116835723e+01
1.550115175319e+01
2.093379678636e+01
2.092583756683e+01
2.054436309553e+01
1.848569245341e+01
1.926898714415e+01
2.085509888498e+01
-2.476092879184e+01
1.791509727348e+01
2.007431259246e+01
1.869446757209e+01
2.045086404650e+01
2.001477555560e+01
2.042423197325e+01
7.225780404414e+00
1.892677119850e+01
1.561570595677e+01
-7.166651609658e+00
1.902175656645e+01
1.934814997302e+01
1.384522213626e+01
1.720922731322e+01
1.816069911241e+01
2.035691327780e+01
1.598048898803e+01
1.538969946455e+01
9.481851719351e+00
1.449158561997e+01
1.244631298187e+01
2.033332253121e+01
1.991322310799e+01
1.880314283348e+00
2.091565011611e+01
1.930367520738e+01
1.783218684844e+01
1.291030534526e+01
2.081392666949e+01
1.174230013744e+01
1.715864173637e+01
2.042978865963e+01
2.042140657880e+01
2.013905754670e+01
1.372832987745e+01
1.828201694667e+01
2.047306631604e+01
1.794407367233e+01
1.928451988104e+01
1.860142893271e+01
1.878667089941e+01
1.483118660871e+01
2.092750103284e+01
1.836946199296e+01
1.911537200622e+01
6.954175253238e+00
2.037111341461e+01
1.702940743462e+01
1.643814939657e+01
2.021534682365e+01
1.007327867417e+01
1.751081371524e+01
2.061427042892e+01
1.917389859544e+01
1.934548743697e+01
2.045831179661e+01
1.884878748286e+01
1.907404682946e+01
1.887433090709e+01
1.016303128320e+01
1.929706476478e+01
1.236987370075e+01
1.317266607662e+01
1.983332719906e+01
1.398853743477e+01
1.867251612986e+01
1.806998816417e+01
2.027136228176e+01
1.529604220739e+01
2.000000266280e+01
1.909472947957e+01
1.931734607058e+01
2.095405114325e+01
2.033863828179e+01
2.060973688067e+01
1.881108330829e+01
2.030511244641e+01
2.087260331036e+01
1.862865050761e+01
1.854254710055e+01
2.065135309718e+01
1.960011661390e+01
1.923460023647e+01
1.743274091293e+01
1.452943650192e+01
1.635709845315e+01
1.458928706510e+01
1.712851417922e+01
2.082800475172e+01
1.834287528150e+01
1.967796430328e+01
1.796712338392e+01
2.074387919005e+01
1.890905117683e+01
1.936083921076e+01
1.754290001859e+01
2.093320771553e+01
2.021718982387e+01
2.072030378412e+01
1.731468967498e+01
1.922960654081e+01
1.949147567380e+01
2.056844679304e+01
1.596228912827e+01
1.952617530596e+01
1.805205404891e+01
1.923885149783e+01
2.047883691853e+01
2.091395167667e+01
1.508565866549e+01
2.045584524502e+01
1.766444216894e+01
2.079520059373e+01
1.794771906117e+01
1.924820216566e+01
1.737346064893e+01
1.676988165442e+01
1.778044458081e+01
2.041655622394e+01
2.090112912335e+01
1.809327093152e+01
1.936075009221e+01
1.707301512692e+01
1.889220315500e+01
1.956773500536e+01
1.927905296754e+01
1.818988149384e+01
1.795776811030e+01
1.934962579928e+01
1.830998077883e+01
1.420316918590e+01
1.900617375294e+01
1.439025336770e+01
2.031532691236e+01
1.981606837444e+01
1.973295647527e+01
5.920287553970e+00
1.933107089351e+01
1.463387585137e+01
2.069083594765e+01
1.979830779328e+01
1.806493478906e+01
2.092162304514e+01
1.838400055139e+01
1.947071372856e+00
2.081662254697e+01
1.758841591178e+01
1.981188859835e+01
1.945655496398e+01
-1.108272776871e+01
2.099697752725e+01
1.647875679299e+01
1.750726048377e+01
2.059877887640e+01
1.975454782277e+01
2.083217188086e+01
1.844547639218e+01
1.942577095961e+01
1.781168788908e+01
8.151448776109e-01
1.875116547522e+01
2.035238965600e+01
1.960607369666e+01
1.912772544539e+01
1.782448241276e+01
2.088068982580e+01
1.943191089778e+01
2.035286424647e+01
2.024424126372e+01
1.902965843541e+01
1.831796418220e+01
2.081534758385e+01
2.015358256365e+01
1.899633915387e+01
1.786156089148e+01
2.086771784758e+01
2.092283358007e+01
1.481340585158e+01
1.481361064571e+01
1.792805505148e+01
1.859575095997e+01
2.063945728394e+01
1.801235986787e+01
1.862580792658e+01
2.079544403498e+01
1.877946504424e+01
1.992808769636e+01
1.597725704010e+01
1.825381763750e+01
2.073603912294e+01
1.715393557817e+01
2.027256502019e+01
1.813324312095e+01
1.733767659629e+01
1.779512878969e+01
1.830394343852e+01
1.849547184535e+01
4.108932433061e+00
2.019960410125e+01
1.476630215487e+01
1.769356433574e+01
1.794656039037e+01
2.055310742864e+01
1.189671222492e+01
1.329956664779e+01
1.744255778553e+01
2.000354058112e+01
1.321241850776e+01
1.396016268488e+01
1.776403478562e+01
1.226684674221e+01
2.056990063220e+01
2.078721701222e+01
1.428232923927e+01
2.005536772134e+01
1.901117253092e+01
2.021758236223e+01
2.091676954798e+01
-3.777266775438e+00
2.084524729956e+01
1.766878750563e+01
-4.077486681231e+00
1.903422342995e+01
1.177326003586e+01
1.769704489944e+01
1.739503186890e+01
2.042329359956e+01
2.097408423839e+01
1.920001433243e+01
2.101993308380e+01
1.789451244863e+01
1.754134075675e+01
-1.812840595736e+01
9.985930828907e+00
1.935620845879e+01
1.710245213022e+01
1.956307753578e+01
1.604082602069e+01
1.869439826682e+01
1.946135133881e+01
1.444812754595e+01
1.934269276909e+01
2.085863801665e+01
1.848163820651e+01
2.052248841600e+01
2.054915138600e+01
1.931787070613e+01
2.087260069389e+01
1.775149500039e+01
1.940452225498e+01
2.101723681844e+01
1.850032958454e+01
1.874690056489e+01
2.065744171103e+01
1.895234656772e+01
1.800424452765e+01
1.873387235905e+01
1.780198064033e+01
2.043409974375e+01
2.051461008365e+01
1.847396619592e+01
1.747244702916e+01
2.087484312571e+01
2.083387562838e+01
7.351550511834e+00
1.811230510962e+01
2.077857375618e+01
9.769271269830e+00
2.049243608514e+01
-1.922759532463e+01
2.083304542935e+01
1.822612805969e+01
2.023494840584e+01
1.973704496200e+01
1.744042315313e+01
1.711003278771e+01
1.800649903778e+01
1.136202202775e+01
1.235793077191e+01
2.081469308520e+01
2.087945150894e+01
2.061331612934e+01
2.090159850237e+01
2.053375576496e+01
1.821447419776e+01
1.127437337187e+01
1.640723776052e+01
1.482295573569e+01
2.052694703601e+01
1.876974510050e+01
2.042740132312e+01
2.077615110489e+01
2.044470082289e+01
2.071469366079e+01
1.914611342322e+01
2.031717090218e+01
1.808195952254e+01
1.879570543707e+01
2.081033764606e+01
1.909390880215e+01
1.792821936829e+01
2.046691899947e+01
1.759328767168e+01
1.606668734341e+01
1.923920259598e+01
2.054673962214e+01
2.075429953343e+01
1.755527238043e+01
-1.820632579326e+01
1.965709116042e+01
-4.699133418448e+00
5.750478395651e+00
2.060507835240e+01
1.900621453497e+01
1.739530470885e+01
8.847468989538e+00
2.000682442511e+01
-2.297012901929e+01
1.020933013535e+01
2.082295797664e+01
2.031183958232e+01
1.370510798870e+01
1.971105302009e+01
2.079347744662e+01
1.819343927781e+01
1.987564513676e+01
1.911406695476e+01
1.157570300207e+01
2.036149022389e+01
2.048213744595e+01
1.648106524918e+01
1.505604403901e+01
1.737649077361e+01
2.071783158606e+01
-4.468444790758e+00
-2.128494891649e+01
1.169218065961e+01
2.039671811998e+01
1.967036148234e+01
1.911613758401e+01
1.834945418854e+01
2.063796527262e+01
1.794073331246e+01
2.053338841386e+01
1.980889518902e+01
1.813673023968e+01
1.620869661821e+01
1.994672993654e+01
2.047016428142e+01
2.054858189537e+01
4.983038693147e+00
1.993834023299e+01
2.057081007279e+01
1.778740407455e+01
1.722690579939e+01
7.166202644431e+00
2.066473291530e+01
1.889732305914e+01
5.782017159830e+00
2.025502213535e+01
1.051182992057e+01
1.951344918299e+01
1.937029490227e+01
8.601155014313e+00
2.053325679198e+01
1.547728559954e+01
1.542966578056e+01
2.059957535605e+01
2.055416172989e+01
2.042965103394e+01
-1.312729437780e+01
1.911853212006e+01
1.992841863698e+01
2.077704071796e+01
1.890699915895e+01
2.068487962447e+01
2.063926724565e+01
1.972034625651e+01
1.354405228050e+00
-1.187484379996e+01
2.069315226242e+01
2.090455962888e+01
1.858366827198e+01
1.842662773939e+01
8.176335267390e+00
1.831687517469e+01
2.086352425825e+01
-3.981324763575e+01
1.995024456412e+01
2.049062191181e+01
1.596780377207e+01
1.978705864367e+01
1.853881781030e+01
1.932780712424e+01
2.219423508357e+00
-2.465805508556e+01
1.938205903314e+01
1.766052165102e+01
1.470254123236e+01
2.027926975837e+01
1.341116958571e+01
2.042435199347e+01
1.767656929118e+01
1.956536119964e+01
1.838000209589e+01
1.969510113972e+01
5.356775490084e+00
1.919476702632e+01
1.819715227774e+01
2.075844980518e+01
1.990689602611e+01
1.858895893892e+01
-4.850128663966e+01
1.997409506565e+01
1.845462033667e+01
1.882681230886e+01
1.786443643496e+01
1.850932308006e+01
1.074896996022e+01
-2.045750890798e+00
2.450152764951e+00
1.777962287348e+01
2.072289773484e+01
1.885807180078e+01
1.860082669054e+01
1.949515868764e+01
4.554687975190e+00
1.829422358740e+01
1.968219290048e+01
1.938899898760e+01
-4.324871016376e+00
1.003148633058e+01
2.064818439024e+01
1.849710353643e+01
2.079726182538e+01
4.123025546015e+00
2.082033432279e+01
3.827350146862e+00
1.909460557752e+01
2.091622905396e+01
1.886657097132e+01
1.760187326022e+01
1.742797433813e+01
3.887243954678e+00
2.098291620759e+01
3.457662884887e+00
-2.191840279152e+01
1.942924456010e+01
1.910407345915e+01
-2.293022244103e+01
2.087186428498e+01
1.456289800622e+01
1.566564811893e+01
1.900433753232e+01
1.901952405578e+01
1.885932764387e+01
1.972597960832e+01
1.477060496972e+01
2.062595722337e+01
1.323919581764e+01
2.062886930928e+01
1.886889234114e+01
9.097225207835e+00
1.822202790620e+01
2.009620451342e+01
-5.108047746259e+00
1.946387838185e+01
2.071043438669e+01
1.819187913940e+01
8.232501022933e+00
2.014904257979e+01
1.875865890514e+01
1.989209099448e+01
1.856341848612e+01
1.556689708417e+01
1.919378208787e+01
1.746197214568e+01
-5.572364831513e+00
1.992837611378e+01
1.975950026759e+01
1.647391354011e+01
1.957386611130e+01
1.980863050715e+01
2.017399896134e+01
1.960497648724e+01
2.071709888923e+01
-4.952526510513e+01
1.449732848952e+01
2.035355947313e+01
1.821510301830e+01
1.929210344578e+01
-1.364084838829e+01
-4.623826328975e+00
1.634177890192e+01
1.947266620548e+01
1.632840822238e+01
1.956605221256e+01
2.069725488842e+01
2.075274045498e+01
2.006789933385e+01
1.555882352364e+01
-2.992300840267e+01
-1.418553960220e+01
8.489093734205e+00
-1.554740041942e+01
1.918060514282e+01
1.897013227792e+01
1.938850191348e+01
-5.995788848195e+00
1.918615271147e+01
1.916719346704e+01
1.937983439639e+01
1.884942455240e+01
1.991270417425e+01
2.068150521342e+01
1.651120822588e+01
1.937809857249e+01
-2.469162559871e+00
1.985098416090e+01
2.049607131898e+01
-1.575161455669e+01
-1.464987594688e+01
2.057569464617e+01
1.566144523676e+01
1.942195959035e+01
1.875775371097e+01
2.010812406190e+01
1.888469870902e+01
1.661595162787e+01
1.698266607021e+01
1.737027268321e+01
1.801818164350e+01
1.981823240199e+01
1.459545156483e+01
1.572665474608e+01
1.643322907863e+01
1.666541158934e+01
6.034038620861e+00
1.626711851339e+01
1.968910302163e+01
1.732513454010e+01
2.053324660019e+01
1.946788446856e+01
1.822474160331e+01
1.937166507038e+01
1.898550118175e+01
1.848638241185e+01
2.080577161983e+01
-2.383591066856e+01
1.490999154329e+01
2.038762455984e+01
3.895725702783e+00
1.572724569459e+01
2.082931110250e+01
-7.293795693472e+00
-2.348090251978e+01
1.991304749200e+01
1.471150726430e+01
1.961728871490e+01
2.059840133219e+01
1.470625705655e+01
-2.759438039392e+01
1.970624696805e+01
5.747700140312e+00
1.947599937497e+01
2.049314950789e+01
1.945817249709e+01
1.200261128169e+01
1.633105931099e+01
1.910519269392e+01
1.957636362166e+01
2.053753175913e+01
1.854881349578e+01
2.065086310605e+01
-6.331313348585e+00
2.070096760125e+01
1.349265105054e+01
3.937669913413e+00
2.079364281780e+01
1.967500775080e+01
1.974383376478e+01
1.563993432109e+01
1.639338983741e+01
6.512403270062e+00
1.976849537330e+01
1.767993022360e+01
-1.407800283432e+00
1.987465524650e+01
1.473196011763e+01
1.949735001179e+01
1.989155342883e+01
1.995577715495e+01
-6.539666179865e+01
-5.346978312928e+01
1.492331008544e+01
1.480456719851e+01
2.049402423108e+01
2.063494276458e+01
-2.477185080814e+01
-4.997196502446e+01
2.070213666419e+01
1.983521491453e+01
8.345575366865e+00
2.070377730414e+01
2.044714099585e+01
2.005960788342e+01
1.766312706640e+01
7.523231060706e+00
1.931828944848e+01
3.886702262312e+00
1.953960774273e+01
1.959908685214e+01
1.929679788978e+01
1.989915570818e+01
1.700273684123e+01
1.974734990785e+01
1.908512673929e+01
1.868359205525e+01
1.475963436575e+01
1.945350272073e+01
1.947524195121e+01
1.520954633595e+01
-2.231361524744e+01
1.953233431930e+01
2.065288502937e+01
3.549661667407e+00
1.805107887455e+01
2.059687066400e+01
1.963467354261e+01
1.979243818899e+01
2.062165559576e+01
-2.590782913632e+01
-1.761381575709e+01
4.995825540660e+00
1.629214690059e+01
1.933772703870e+01
1.950286252605e+01
2.053471458432e+01
-5.946709496274e+00
-6.595913050226e+00
-3.729693397739e+01
1.819044816811e+01
1.713623090019e+01
1.950225780631e+01
7.692790562687e+00
2.055987547192e+01
1.634313100820e+01
2.023080921359e+01
1.953601583754e+01
1.626626067312e+01
2.082388583123e+01
1.969724528632e+01
1.968472590613e+01
-1.929402611301e+01
1.939024546919e+01
1.993618805842e+01
2.064303215639e+01
1.982240647555e+01
2.049167059186e+01
1.869482618727e+01
-4.658513698936e+01
2.685152925478e+00
1.927850960602e+01
1.689859555060e+01
2.068829281487e+01
1.978676602057e+01
2.058329370439e+01
1.865945483890e+01
2.032158436376e+01
2.075080134843e+01
2.080557190940e+01
1.742170662843e+01
2.067565993130e+01
1.552907411177e+01
1.940752355608e+01
-5.756944424227e+00
1.914298604814e+01
1.807976926632e+01
-4.410319065366e+00
9.051422310922e+00
1.893061728767e+01
1.971124649893e+01
1.947016137005e+01
2.043215003903e+01
1.696855485240e+01
-2.274883301931e+01
-1.024215866232e+01
-1.761184522181e+01
1.255202020195e+00
-3.662519096498e+01
1.938246188863e+01
2.070558269490e+01
1.946681438702e+01
1.679727776892e+01
1.871233214332e+01
2.079419868563e+01
2.084963235929e+01
2.029513959962e+01
1.974731915278e+01
1.930388220789e+01
-6.102645457656e+00
-1.070552537372e+01
2.074916743619e+01
-4.348599266290e+00
1.801805058662e-01
-1.516746458855e+01
-7.515939053820e+00
2.062682643023e+01
1.987929817097e+01
1.952211972440e+01
2.026002526728e+01
2.076229900250e+01
1.734197549442e+01
1.998705062858e+01
1.269665830536e+01
1.464839001386e+01
1.681809542633e+00
-2.305397484080e+01
2.066890898321e+01
1.559220611974e+01
3.090702099368e+00
1.933934147593e+01
1.982983927703e+01
1.946238829477e+01
1.974900620874e+01
1.652816854743e+01
-9.926910419684e+00
2.079494756763e+01
1.990677867799e+01
2.069975302528e+01
1.558612963938e+01
2.064058230456e+01
3.867010402813e+00
1.953096206086e+01
-2.474050505242e+01
2.062501158340e+01
1.969036314239e+01
-2.590048980620e+01
1.964777878505e+01
1.843213801499e+01
1.973030290654e+01
2.047711203000e+01
1.778121240128e+01
1.986748821339e+01
1.948945304096e+01
1.810217812362e+01
1.964976581110e+01
1.807656559893e+01
1.476489425379e+01
2.011433450608e+01
1.973692697035e+01
-5.930316421105e+01
1.480171535470e+01
2.062684849801e+01
8.441401407976e+00
2.081088348431e+01
1.943078745848e+01
1.968457385922e+01
7.630988223767e+00
-2.475662225396e+00
2.025766108207e+01
1.892777640989e+01
-4.112575379446e+01
1.975369404808e+01
1.761434030418e+01
7.021493438745e+00
1.717522737271e+01
2.014621379902e+01
2.033242500404e+01
-3.379869669626e+01
1.765262072934e+01
1.985093131396e+01
2.036539775264e+01
2.025189085089e+01
1.976565093021e+01
1.992813308833e+01
-8.626343775461e+00
2.079316475358e+01
1.955229755244e+01
5.887506398019e+00
1.972373559082e+01
2.060236112533e+01
1.564023261787e+01
1.760413041990e+01
1.968362046995e+01
1.974674927252e+01
2.004321157556e+01
2.066719305671e+01
3.110612725592e+00
1.967570856125e+01
1.642050654053e+01
1.968341239957e+01
2.060825668331e+01
1.714827781265e+01
1.943778877314e+01
2.030584100054e+01
2.039364848853e+01
-2.744743828388e+01
1.942051136353e+01
1.961748710685e+01
-7.963568535802e+00
1.942677596719e+01
-2.922283499235e+01
1.958978911212e+01
-6.048486516005e+01
-5.523048232463e+01
-5.593969750249e+01
-5.513919071770e+01
-5.561702460036e+01
-5.512742217809e+01
-5.547964886117e+01
-5.507803584448e+01
-5.541832553331e+01
-5.501541822070e+01
-5.540242664829e+01
-5.494706612914e+01
-5.541042889520e+01
-5.487349016858e+01
-5.543045120371e+01
-5.479384920012e+01
-5.545599866559e+01
-5.470735811627e+01
-5.548442776514e+01
-4.658546974947e+01
-5.461317941930e+01
-5.551465384752e+01
-5.451025185296e+01
-5.117459899312e+01
-5.554739556860e+01
-5.439634527267e+01
-5.558059711840e+01
-5.427347990034e+01
-5.561304902645e+01
8.615992723080e+01
-5.414080795335e+01
-5.561435673464e+01
-5.400627017298e+01
-5.551191945622e+01
-5.385519055063e+01
-5.538665325008e+01
-5.371693486795e+01
-5.529975600353e+01
-5.353649490407e+01
-5.511658131756e+01
-5.342798850426e+01
-3.858560222207e+01
-5.318869677780e+01
-5.515891212197e+01
-5.320469617194e+01
-5.466341709248e+01
-5.287663161703e+01
-5.507732965454e+01
-5.225269737077e+01
8.999999999514e+01
-5.176780478528e+01
-5.598866768036e+01
-4.252923774621e+01
-6.667535645965e+01
-4.784729368965e+01
-1.509077780736e+01
-1.706002079545e+01
-1.713591364628e+01
-1.723831914934e+01
-1.722259511197e+01
-1.721234344336e+01
-1.717552452332e+01
-1.717212795542e+01
-1.712914856975e+01
-1.713517574671e+01
-1.708887538629e+01
-1.710141229985e+01
-1.705104394934e+01
-1.706900717602e+01
-1.701246606876e+01
-1.703391621964e+01
-1.697052922793e+01
-1.699465027060e+01
-1.334655963074e+01
-1.692433252082e+01
-1.694993917551e+01
-1.687366649259e+01
-2.139395822941e+01
-1.690042051823e+01
-1.610720128361e+01
-1.681955080177e+01
-1.684756461957e+01
-1.676117377822e+01
-1.678005882691e+01
-1.669892643748e+01
-1.671035378044e+01
-1.663411520999e+01
-1.661607570662e+01
-1.295442291365e+01
-1.657819226210e+01
-1.656260209700e+01
-1.652489197647e+01
-1.642663964075e+01
-1.644062592270e+01
-1.650531341642e+01
-1.613698347662e+01
-1.646785448651e+01
-1.634110427109e+01
-1.531703206988e+01
-1.652375388340e+01
-1.642553408519e+01
-2.469681932537e+01
-1.728461267419e+01
-1.491615090757e+01
-2.277594567565e+01
-1.135709082890e+01
-1.993006661818e+01
-3.034612713775e+00
-2.196201853375e+00
-2.185125730350e+00
-2.152262443233e+00
-2.155365541548e+00
-2.139268903514e+00
-2.143517895114e+00
-2.120773592235e+00
-2.124405541592e+00
-2.102011990562e+00
-2.103821097023e+00
-2.084946249872e+00
-2.083435103128e+00
-2.071184908384e+00
-2.065272315459e+00
-2.058908055736e+00
-2.046164098395e+00
-7.798891700109e-01
-2.046993752198e+00
-2.024708647353e+00
-2.095044252700e+00
-2.035092380555e+00
-1.999759812547e+00
-2.025489136245e+00
-1.973905267757e+00
-2.021207328754e+00
-4.174717473490e+00
-1.950727692157e+00
-2.017463734592e+00
-1.916658134703e+00
-2.015264911807e+00
-1.880825701559e+00
-2.015063860387e+00
-1.824671772980e+00
-2.035205066439e+00
-1.814772266490e+00
-2.056372631323e+00
-8.784107884863e-01
-2.111812909627e+00
-1.713447301375e+00
-2.127476128735e+00
-1.791665237753e+00
-1.438537522673e+00
-5.651387610126e+00
-1.695901408499e+00
-2.995297404861e+00
-2.863595496568e-02
-5.196747960687e+00
-4.273359166096e+00
5.465496508643e+00
5.007172921166e+00
4.989907570283e+00
4.957014910424e+00
4.950345205165e+00
4.954485485996e+00
4.946895800635e+00
4.959412276553e+00
4.948426862861e+00
4.965944592809e+00
4.950348823455e+00
4.973736075901e+00
4.950913181513e+00
4.976995073755e+00
4.945461888770e+00
4.977557644893e+00
5.509923554013e+00
4.935762177691e+00
4.980749123510e+00
3.601748289336e+00
4.927313136573e+00
4.986046477329e+00
4.716750409503e+00
4.916663933071e+00
4.989825460657e+00
4.899935014597e+00
4.989192957357e+00
4.875641219325e+00
4.979121254117e+00
5.352591906651e+00
4.848549481380e+00
5.002703226510e+00
4.832512750439e+00
4.990510974280e+00
5.060680056953e+00
4.806916640506e+00
4.952150305879e+00
4.786277089374e+00
5.147050228215e+00
4.706174740507e+00
2.841795830646e+00
4.829314249334e+00
5.570907846780e+00
3.731407580330e+00
6.387471839588e+00
3.437184065784e+00
8.817530344886e+00
9.085670819424e+00
9.092478504888e+00
9.086981984282e+00
9.091442677100e+00
9.083188478720e+00
9.090004747864e+00
9.074145724100e+00
9.085525911213e+00
9.067009204347e+00
9.082733939564e+00
9.058932250680e+00
9.080901672185e+00
9.049165495857e+00
9.074047972621e+00
9.244393970935e+00
9.024928068555e+00
8.757054554165e+00
9.056965671472e+00
9.007973031570e+00
9.050601961435e+00
8.992072044718e+00
9.043891256689e+00
8.966035716310e+00
8.031466200061e+00
9.029231258224e+00
8.935383144312e+00
9.012071110493e+00
8.898460259865e+00
8.977048347217e+00
8.861199408613e+00
9.000314732479e+00
8.857844178638e+00
8.791226174333e+00
8.959107395494e+00
9.114514133421e+00
9.053809067791e+00
7.581624851043e+00
9.289633544867e+00
8.764379321075e+00
9.815251775101e+00
8.136947380953e+00
7.861272628160e+00
1.194719742398e+01
1.173657345846e+01
1.171760898748e+01
1.170192926886e+01
1.169172732249e+01
1.170333271414e+01
1.169065354271e+01
1.168775002346e+01
1.166761404356e+01
1.168281173295e+01
1.166031757547e+01
1.167174525076e+01
1.164145958440e+01
1.172540310474e+01
1.167167415000e+01
1.162992164529e+01
1.087986326391e+01
1.163712593096e+01
1.159420209051e+01
1.137186319594e+01
1.162682028210e+01
1.157865581378e+01
1.162124317087e+01
1.155593454779e+01
1.159676008206e+01
1.159033477585e+01
1.151847202630e+01
1.157398816023e+01
1.156074247498e+01
1.148943993660e+01
1.148166075056e+01
1.146193850724e+01
1.159064692974e+01
1.139297626992e+01
1.056812454654e+01
1.159799500938e+01
1.202433381050e+01
1.121929486324e+01
1.231425285851e+01
1.073060318508e+01
1.348135917527e+01
1.353865711169e+01
1.354653788778e+01
1.355907220773e+01
1.354654134088e+01
1.355973334986e+01
1.355663799989e+01
1.352260931095e+01
1.352021914954e+01
1.352079619676e+01
1.352437086115e+01
1.350384360717e+01
1.351163952772e+01
1.350076570727e+01
1.330404599791e+01
1.346040995868e+01
1.349610452255e+01
1.346587527898e+01
1.345634181221e+01
1.344292549420e+01
1.345454951953e+01
1.341122887433e+01
1.288237815913e+01
1.343872239209e+01
1.337533974816e+01
1.339794393137e+01
1.333476012315e+01
1.330779447339e+01
1.337690194842e+01
1.338684025366e+01
1.339450447770e+01
1.265467715853e+01
1.364030105414e+01
1.344199620126e+01
1.394906308270e+01
1.309745262763e+01
1.276006445883e+01


